coord_x,coord_y,stress_xx,stress_yy,tau_xy,velocity_x,velocity_y,stress_1,eps,damage,lx,ly
4.999508e+0, 1.24691784e+2, -1791711.5, -1661127.9, 62463.703, -0.0033216183, 0.40339026, -1636060.8, 81998.06, 0.0013838684, 9.999066, 10.000814 
4.9996606e+0, 1.3469233e+2, -1485500.8, -1285179.1, -30098.535, -0.021176869, 0.21584778, -1280754.5, 339291.63, 0.00083884824, 9.999736, 10.002399 
4.9998766e+0, 1.4469403e+2, -1568232.9, -1660911.6, -66666.766, -0.02099135, 0.31337482, -1533382.4, -11355.489, 0.00038804737, 10.000164, 9.998934 
5.0000876e+0, 1.5469235e+2, -1462047.5, -1580912.9, -25915.1, -0.0073876297, 0.2600228, -1456643.3, -32596.42, 0.00011853608, 10.000316, 9.998735 
5.000161e+0, 1.646924e+2, -1333992.5, -1403282.6, -16353.67, 0.0037410706, 0.36423817, -1330326.8, -4275.9214, 0.000016042439, 10.00024, 9.999321 
5.0000894e+0, 1.7469394e+2, -1281923.1, -1324338.3, -29408.281, 0.012942781, 0.57339394, -1266873.1, -38831.918, 0.00000013955699, 9.999913, 9.999348 
5.000008e+0, 1.8469323e+2, -1143994.8, -1137839.4, -32039.764, 0.0059299427, 0.53981614, -1108729.9, 21317.465, 0.0, 9.999889, 9.999969 
4.999915e+0, 1.9469018e+2, -999645.44, -1016945.0, -51247.95, -0.01909245, 0.22678688, -956322.44, 75746.734, 0.0, 10.000206, 9.999973 
4.9999723e+0, 2.0468932e+2, -957721.1, -1059918.1, -51561.09, -0.01861976, 0.1959491, -936227.56, -2151.5515, 0.0, 10.000312, 9.998953 
5.0002015e+0, 2.1469094e+2, -882416.9, -977718.4, -17854.008, 0.011041211, 0.4536473, -879181.9, -43115.684, 0.0, 10.000177, 9.998909 
5.000157e+0, 2.2469094e+2, -755138.5, -788629.44, -7175.167, 0.01309808, 0.5341037, -753666.0, -15596.98, 0.0, 10.000047, 9.999597 
4.9998003e+0, 2.3468919e+2, -673681.75, -695325.6, -29785.932, -0.016190363, 0.38544846, -652812.75, -12726.865, 0.0, 9.999919, 9.999626 
4.9996877e+0, 2.446883e+2, -610107.5, -658100.8, -26667.693, -0.025130844, 0.35534424, -598229.3, -56134.426, 0.0, 9.999872, 9.999232 
4.9998516e+0, 2.5468844e+2, -507168.53, -561437.8, -5164.854, -0.011202743, 0.43533093, -506681.38, -62586.6, 0.0, 9.999923, 9.999199 
4.9998397e+0, 2.646882e+2, -362521.84, -341624.78, -12787.203, -0.007028998, 0.4514247, -335560.16, 10535.731, 0.0, 9.999815, 10.000087 
4.9996287e+0, 2.7468762e+2, -303527.44, -257116.03, -47650.863, -0.013655577, 0.37051347, -227320.7, 20776.967, 0.0, 9.999524, 10.0001335 
4.9996886e+0, 2.846872e+2, -257729.88, -235039.9, -59118.56, -0.0005970702, 0.3381717, -186187.61, -36087.547, 0.000000010220777, 9.999384, 9.999679 
5.000047e+0, 2.9468694e+2, -153555.48, -132960.47, -59403.73, 0.03339726, 0.3368036, -82968.33, -30865.213, 0.000007764773, 9.99942, 9.999689 
5.000397e+0, 3.046874e+2, -78082.41, -203095.28, -39998.44, 0.031033652, 0.47149187, -66380.16, -66380.16, 0.00008416529, 10.000169, 9.998518 
5.0008595e+0, 3.1468225e+2, 270438.56, 172051.4, -61918.57, 0.0020827835, 0.1024093, 300326.7, 300326.7, 0.00029797413, 10.001665, 10.000377 
1.4998503e+1, 1.2469145e+2, -1960096.5, -2004354.9, 83060.08, -0.012130115, 0.23721455, -1896268.4, -178214.23, 0.0013567447, 9.999043, 9.998471 
1.4998978e+1, 1.3469228e+2, -1656669.5, -1637587.5, -4338.1724, -0.06395862, 0.32436472, -1636647.6, -16594.414, 0.00082020013, 9.999728, 9.999983 
1.4999627e+1, 1.4469409e+2, -1497884.9, -1511180.6, -61996.055, -0.062891856, 0.5057919, -1442181.3, 79855.56, 0.00037697676, 10.00015, 9.9999695 
1.500026e+1, 1.5469226e+2, -1384326.1, -1416612.4, -19421.62, -0.022318218, 0.32645643, -1375214.5, 48835.355, 0.00011338852, 10.000304, 9.99987 
1.5000486e+1, 1.6469139e+2, -1352812.1, -1439988.6, -29573.6, 0.011416655, 0.29227304, -1343726.5, -17668.428, 0.000014715236, 10.000231, 9.999076 
1.500027e+1, 1.7469124e+2, -1305227.3, -1370051.3, -41442.035, 0.038795896, 0.36447638, -1285027.6, -56963.383, 0.00000010097208, 9.999903, 9.999041 
1.5000021e+1, 1.8469085e+2, -1180144.1, -1208715.0, -21848.295, 0.017747352, 0.40152958, -1168325.5, -38255.77, 0.0, 9.999873, 9.999491 
1.4999743e+1, 1.9469036e+2, -1035164.4, -1087706.9, -38419.418, -0.057577204, 0.39642376, -1014892.9, 17179.736, 0.0, 10.0001955, 9.999493 
1.4999917e+1, 2.0468979e+2, -896199.56, -928805.6, -57395.598, -0.055868115, 0.37355697, -852836.5, 81239.945, 0.0, 10.0002985, 9.999861 
1.5000606e+1, 2.146891e+2, -818024.2, -841218.4, -21707.55, 0.03336417, 0.3115955, -805010.1, 31071.268, 0.0, 10.000166, 9.999854 
1.5000467e+1, 2.246888e+2, -791428.6, -860255.3, -13305.401, 0.039025404, 0.3333641, -788946.0, -50860.418, 0.0, 10.000033, 9.999113 
1.49994e+1, 2.3468898e+2, -714649.5, -777674.56, -33371.348, -0.04863885, 0.43543226, -700263.4, -60175.086, 0.0, 9.999909, 9.999066 
1.4999062e+1, 2.4468867e+2, -572049.56, -576397.75, -26305.117, -0.075607404, 0.46570042, -547828.8, -5736.711, 0.0, 9.999862, 9.9998 
1.4999555e+1, 2.546879e+2, -465056.7, -471278.78, -2122.6653, -0.033579633, 0.39715102, -464401.53, -20304.926, 0.0, 9.999911, 9.9998255 
1.4999518e+1, 2.6468727e+2, -420877.97, -460024.88, -24356.686, -0.021274198, 0.378662, -409204.53, -63102.81, 0.0, 9.9998045, 9.999279 
1.4998883e+1, 2.7468684e+2, -368772.13, -389299.7, -57847.05, -0.041290563, 0.40362826, -320285.34, -72178.29, 0.0, 9.999513, 9.999232 
1.4999068e+1, 2.84686e+2, -260050.81, -237284.77, -59360.73, -0.0015527313, 0.3775602, -188225.5, -38110.11, 0.000000009053116, 9.999374, 9.99967 
1.5000139e+1, 2.9468483e+2, -152419.11, -128069.99, -56334.242, 0.09985161, 0.28338704, -82609.78, -30483.91, 0.0000075983085, 9.999411, 9.999729 
1.5001194e+1, 3.0468577e+2, -114392.055, -275145.94, 14600.983, 0.09363222, 0.48857293, -113076.64, -113076.64, 0.000082482155, 10.000158, 9.998031 
1.5002573e+1, 3.1468296e+2, 231521.16, 96422.53, -3687.07, 0.00548607, 0.4068599, 231621.72, 231621.72, 0.00029308064, 10.001646, 9.999867 
2.499829e+1, 1.2469173e+2, -1783996.0, -2011469.3, -42806.7, -0.018402359, 0.30360284, -1776207.3, -58154.02, 0.0013173001, 10.000654, 9.997645 
2.4999069e+1, 1.3469172e+2, -1678125.4, -1747200.3, -16192.244, -0.042055793, 0.39476055, -1674518.1, -54453.727, 0.0007929643, 10.000011, 9.999096 
2.4999975e+1, 1.4469332e+2, -1522717.1, -1468663.8, -24861.752, -0.0226143, 0.5766215, -1458967.9, 63082.66, 0.0003608832, 9.9997425, 10.000459 
2.5000748e+1, 1.5469183e+2, -1404015.0, -1366303.0, -28320.416, 0.015571022, 0.37775868, -1351135.5, 72921.0, 0.00010595725, 9.99991, 10.000406 
2.5000948e+1, 1.6469063e+2, -1353143.9, -1451156.1, -54307.5, 0.032072563, 0.2884895, -1329000.1, -2934.9656, 0.000012859101, 10.000279, 9.998976 
2.5000536e+1, 1.746894e+2, -1171160.9, -1318954.5, -53614.695, 0.026323535, 0.26416558, -1153760.0, 74320.23, 0.00000006033416, 10.000883, 9.9989195 
2.5000268e+1, 1.8468904e+2, -1021633.44, -1163038.3, -20032.645, -0.005560866, 0.3251733, -1018850.25, 111235.84, 0.0, 10.001094, 9.999216 
2.5000167e+1, 1.946899e+2, -958986.2, -1082509.6, -22444.273, -0.06757979, 0.4801864, -955034.5, 77045.164, 0.0, 10.000854, 9.999212 
2.5000355e+1, 2.0468949e+2, -846685.7, -893641.2, -69736.984, -0.05644777, 0.48425013, -796580.5, 137502.31, 0.0, 10.00059, 9.999963 
2.500085e+1, 2.1468765e+2, -790764.1, -814474.1, -98270.45, 0.034840364, 0.29522195, -703636.2, 132460.58, 0.0, 10.000296, 9.999974 
2.5000608e+1, 2.2468702e+2, -756825.2, -843403.5, -90321.445, 0.038304035, 0.27859885, -699954.9, 38147.926, 0.0, 10.000269, 9.999115 
2.4999546e+1, 2.3468785e+2, -622177.5, -733376.4, -69816.53, -0.05661793, 0.44392943, -588526.5, 51572.496, 0.0, 10.0005455, 9.999064 
2.4999028e+1, 2.4468775e+2, -484794.16, -515551.53, -66018.18, -0.09065526, 0.48588154, -432387.13, 109713.2, 0.0, 10.0003805, 9.999968 
2.499913e+1, 2.5468662e+2, -481686.22, -458496.1, -76011.734, -0.056925878, 0.3642259, -393200.13, 50907.016, 0.0, 9.999709, 10.00001 
2.4999098e+1, 2.6468584e+2, -466736.66, -514589.84, -77024.18, -0.034796666, 0.33813417, -410008.4, -63894.656, 0.0, 9.99963, 9.99899 
2.4998945e+1, 2.7468556e+2, -283642.03, -383176.5, -67391.12, -0.022771265, 0.40487123, -249633.73, -1514.0194, 0.0, 10.000246, 9.998922 
2.4999101e+1, 2.846846e+2, -113902.14, -196790.38, -59672.25, 0.0082254, 0.39572516, -82693.72, 67436.61, 0.000000009457464, 10.000507, 9.999402 
2.4999528e+1, 2.9468304e+2, -35160.36, -101467.64, -79800.6, 0.05110655, 0.2893769, 18099.541, 70244.35, 0.0000073463098, 10.000346, 9.999462 
2.5000885e+1, 3.0468398e+2, -107884.37, -286301.9, 25205.627, 0.04176951, 0.5147663, -104391.85, -104391.85, 0.00008001909, 10.000269, 9.997901 
2.5003844e+1, 3.1468186e+2, 26863.117, -7553.6724, 32336.828, 0.03738832, 0.5146691, 46285.3, 46285.3, 0.0002860611, 10.000271, 9.999814 
3.499885e+1, 1.2469259e+2, -1737656.3, -1911049.4, -69792.95, -0.032714296, 0.5956687, -1713054.4, 5002.181, 0.0012647449, 10.000639, 9.998341 
3.4999925e+1, 1.3469063e+2, -1632643.6, -1651974.1, -39608.496, 0.040227752, 0.42741743, -1601538.1, 18541.662, 0.0007565008, 10.0000105, 9.99975 
3.5000905e+1, 1.4469168e+2, -1525361.8, -1471600.4, -21444.871, 0.093562916, 0.52368414, -1464094.3, 57973.72, 0.00033951344, 9.999734, 10.0004425 
3.5001534e+1, 1.5469109e+2, -1408770.4, -1372545.9, -21472.135, 0.100798674, 0.41684142, -1362567.1, 61499.383, 0.000096218435, 9.999898, 10.000369 
3.5001525e+1, 1.6469014e+2, -1349718.4, -1441873.8, -32765.367, 0.05973276, 0.35161164, -1339256.5, -13184.609, 0.000010539653, 10.00027, 9.999043 
3.500086e+1, 1.7468841e+2, -1166074.0, -1308138.6, -29534.004, -0.03135649, 0.2721421, -1160178.8, 67910.24, 0.000000028001644, 10.000882, 9.998994 
3.500073e+1, 1.8468785e+2, -1026900.94, -1171811.4, -29124.475, -0.070849605, 0.30913904, -1021266.5, 108829.71, 0.0, 10.001085, 9.99916 
3.5001174e+1, 1.9468878e+2, -965894.8, -1093574.8, -30579.09, -0.05369175, 0.48019636, -958949.06, 73141.15, 0.0, 10.00084, 9.999143 
3.500125e+1, 2.0468843e+2, -896916.06, -993746.25, -81672.08, -0.027383748, 0.5264892, -850387.2, 83707.84, 0.0, 10.000573, 9.999283 
3.5000914e+1, 2.1468659e+2, -841121.9, -916893.1, -108200.02, 0.0100859, 0.40571842, -764366.5, 71746.016, 0.0, 10.000287, 9.999275 
3.5000566e+1, 2.2468564e+2, -721316.6, -766969.4, -81554.63, 0.0051322524, 0.36667207, -659454.1, 78666.8, 0.0, 10.000258, 9.999645 
3.500022e+1, 2.3468581e+2, -583687.4, -650970.4, -58157.863, -0.04551797, 0.41211277, -550141.94, 89976.125, 0.0, 10.000535, 9.999636 
3.499957e+1, 2.4468547e+2, -501123.72, -546381.56, -91347.05, -0.076656915, 0.41187713, -429644.44, 112475.305, 0.0, 10.000369, 9.999761 
3.4998557e+1, 2.546846e+2, -501142.84, -495725.3, -100815.39, -0.0871276, 0.33887377, -397582.3, 46544.074, 0.0, 9.999698, 9.999759 
3.4998566e+1, 2.64684e+2, -448504.47, -476126.7, -56550.785, -0.053333465, 0.32901022, -404102.7, -57970.785, 0.0, 9.999627, 9.999255 
3.4999794e+1, 2.7468377e+2, -263349.97, -338920.34, -42808.457, 0.035364803, 0.37688908, -244036.25, 4099.199, 0.0, 10.000237, 9.99923 
3.499977e+1, 2.84683e+2, -150413.95, -270889.8, -65762.234, 0.022272475, 0.39206332, -121470.72, 28673.996, 0.000000011907709, 10.000501, 9.998897 
3.4998184e+1, 2.9468158e+2, -75286.07, -182041.84, -84776.1, -0.119609304, 0.35601434, -28483.19, 23676.805, 0.000006964684, 10.000337, 9.998913 
3.4999457e+1, 3.0468205e+2, -91367.62, -250992.13, 24381.188, -0.12889321, 0.54820764, -87726.66, -87726.66, 0.00007659062, 10.000265, 9.998146 
3.5004646e+1, 3.1467903e+2, 55258.457, 51968.824, 31888.2, 0.086197495, 0.43071353, 85544.234, 85544.234, 0.00027653438, 10.00027, 10.000223 
4.4999355e+1, 1.2469157e+2, -1808802.1, -1851279.1, -58311.04, 0.00068335596, 0.6804778, -1767982.1, -49909.883, 0.0012008992, 9.999739, 9.999189 
4.5000392e+1, 1.3468929e+2, -1556313.8, -1528177.3, -20043.162, 0.079691656, 0.40138972, -1517757.9, 102334.2, 0.0007119072, 10.000157, 10.000532 
4.500127e+1, 1.4469032e+2, -1471949.4, -1508937.9, -6275.2505, 0.12526177, 0.48343077, -1470913.8, 51165.402, 0.00031359482, 10.000373, 9.99988 
4.50016e+1, 1.5468982e+2, -1378731.8, -1426938.8, -52196.12, 0.093409024, 0.4468761, -1345342.6, 78738.86, 0.000084590996, 10.0004, 9.999757 
4.500161e+1, 1.6468903e+2, -1304808.0, -1391256.5, -66983.73, 0.03277019, 0.41799027, -1268313.0, 57773.363, 0.000007991499, 10.000453, 9.999305 
4.500133e+1, 1.746876e+2, -1194603.9, -1289880.4, -48981.574, -0.055802543, 0.33736208, -1173915.0, 54183.043, 0.000000008983813, 10.000548, 9.999281 
4.5001334e+1, 1.8468682e+2, -1120790.9, -1211485.8, -59468.508, -0.08492968, 0.33781838, -1091352.8, 38752.734, 0.0, 10.000416, 9.999211 
4.5001614e+1, 1.9468705e+2, -1081757.9, -1144480.5, -55188.53, -0.05214377, 0.43312067, -1049642.4, -17536.518, 0.0, 10.000024, 9.999187 
4.5001552e+1, 2.0468661e+2, -1012043.44, -1079144.8, -73805.08, -0.020871297, 0.4820781, -964521.06, -30409.012, 0.0, 9.999911, 9.999017 
4.500111e+1, 2.1468543e+2, -885847.2, -969043.9, -70363.32, 0.01010355, 0.45344856, -845705.56, -9580.638, 0.0, 10.000112, 9.999002 
4.50008e+1, 2.2468445e+2, -723650.56, -745290.75, -33128.37, 0.009159819, 0.41631, -699620.06, 38513.168, 0.0, 10.000143, 9.999851 
4.5000657e+1, 2.3468383e+2, -648402.44, -656793.6, -37149.36, -0.02706053, 0.35920244, -615212.5, 24922.766, 0.0, 9.99998, 9.999864 
4.4999993e+1, 2.4468322e+2, -581858.3, -627924.6, -97937.83, -0.05181319, 0.34003446, -504281.6, 37857.754, 0.0, 9.999998, 9.999381 
4.499873e+1, 2.5468272e+2, -452079.34, -517641.0, -121858.586, -0.06545463, 0.34325495, -358669.44, 85476.07, 0.0, 10.000229, 9.999353 
4.4998565e+1, 2.6468226e+2, -345998.4, -396501.6, -67827.484, -0.04372673, 0.3548168, -298874.5, 47275.695, 0.0, 10.000201, 9.999527 
4.4999722e+1, 2.7468193e+2, -295357.06, -321164.1, -55036.785, 0.023350248, 0.36127037, -251731.39, -3579.0098, 0.0, 9.999875, 9.999529 
4.4999826e+1, 2.8468114e+2, -259502.84, -336473.94, -65873.76, 0.01291703, 0.3699729, -221696.27, -71536.1, 0.000000014300223, 9.999809, 9.998781 
4.4998574e+1, 2.9467994e+2, -123765.26, -221279.7, -56186.496, -0.100142464, 0.3647691, -98130.35, -45956.23, 0.000006428048, 10.000072, 9.998773 
4.4999778e+1, 3.0467993e+2, -105605.7, -248558.9, 60507.89, -0.11495416, 0.5160212, -83433.44, -83433.44, 0.00007216027, 10.000127, 9.998231 
4.5004597e+1, 3.146763e+2, 12578.27, 55006.797, 47603.08, 0.07561805, 0.3300094, 85908.734, 85908.734, 0.00026447666, 9.999868, 10.0004425 
5.4999745e+1, 1.2468867e+2, -1736795.1, -1701151.3, -47810.113, 0.060333394, 0.55993575, -1667949.4, 50151.016, 0.0011290752, 9.999738, 10.00022 
5.500046e+1, 1.3468768e+2, -1489821.5, -1389491.5, -4198.102, 0.06904142, 0.31822473, -1389316.1, 230784.9, 0.0006616755, 10.000155, 10.001486 
5.500104e+1, 1.4468922e+2, -1550911.8, -1672490.5, -5227.6216, 0.06219257, 0.45398098, -1550687.4, -28603.451, 0.0002845946, 10.00037, 9.998759 
5.50009e+1, 1.5468802e+2, -1462112.3, -1600509.1, -49574.06, -0.018460358, 0.46717548, -1446187.3, -22085.744, 0.00007188515, 10.0004015, 9.998565 
5.500116e+1, 1.6468735e+2, -1274957.1, -1327140.4, -65090.273, -0.060084857, 0.48818883, -1230923.8, 95184.77, 0.0000055425044, 10.000446, 9.999747 
5.5001915e+1, 1.7468692e+2, -1161421.5, -1217712.8, -44946.2, -0.053875826, 0.4605019, -1136535.6, 91571.7, 0.00000000116644, 10.000537, 9.999782 
5.5002046e+1, 1.8468599e+2, -1110423.5, -1187797.0, -74408.836, -0.057510555, 0.41108578, -1065245.3, 64868.527, 0.0, 10.000406, 9.999379 
5.500146e+1, 1.946847e+2, -1070847.4, -1121273.1, -69035.164, -0.07209507, 0.33805475, -1022565.06, 9561.667, 0.0, 10.000021, 9.999349 
5.5001235e+1, 2.0468405e+2, -1002116.2, -1056911.3, -67787.72, -0.046012703, 0.35000697, -956398.75, -22264.96, 0.0, 9.999905, 9.999172 
5.500141e+1, 2.1468417e+2, -876837.3, -948474.25, -61836.508, 0.026901033, 0.4388801, -841194.5, -5060.3247, 0.0, 10.000104, 9.999147 
5.500128e+1, 2.2468346e+2, -732406.1, -760913.56, -39715.8, 0.040978916, 0.42637604, -704463.75, 33676.07, 0.0, 10.000133, 9.999748 
5.500083e+1, 2.346819e+2, -657093.7, -673656.2, -42350.563, -0.009754612, 0.28676832, -622222.3, 17928.21, 0.0, 9.999975, 9.999751 
5.500028e+1, 2.4468103e+2, -620829.2, -707594.8, -90642.305, -0.025229745, 0.27045393, -563722.7, -21563.656, 0.0, 9.999992, 9.9988365 
5.4999614e+1, 2.5468096e+2, -492557.56, -599516.06, -111987.63, -0.0020933244, 0.37703034, -421935.0, 22229.6, 0.0, 10.00022, 9.998796 
5.499906e+1, 2.646806e+2, -327095.5, -356517.2, -80471.05, -0.01648589, 0.41348043, -260001.72, 86167.086, 0.0, 10.000198, 9.999803 
5.4998696e+1, 2.7467993e+2, -275585.13, -278140.56, -67126.19, -0.06877096, 0.35833874, -209724.52, 38446.016, 0.0, 9.999868, 9.9998255 
5.499923e+1, 2.846791e+2, -240693.05, -297903.03, -57743.21, -0.029222196, 0.33073333, -204857.97, -54681.434, 0.00000001499631, 9.99981, 9.999045 
5.500068e+1, 2.9467806e+2, -104257.42, -180472.5, -44020.047, 0.10114989, 0.31744325, -84141.695, -31954.709, 0.000005758176, 10.00007, 9.999055 
5.5001825e+1, 3.0467767e+2, -110876.65, -258890.3, 51112.38, 0.075193845, 0.41751465, -94941.91, -94941.91, 0.00006691841, 10.000125, 9.998161 
5.5003595e+1, 3.1467372e+2, 14615.209, 61598.934, 40437.23, -0.015630791, 0.20780055, 84872.836, 84872.836, 0.00025031384, 9.999861, 10.00049 
6.4999586e+1, 1.2468584e+2, -1684960.5, -1674121.0, -16020.143, 0.055063225, 0.42798254, -1662628.6, 55494.664, 0.0010533662, 10.000086, 10.0002365 
6.5000606e+1, 1.3468581e+2, -1444487.1, -1377910.6, -53932.082, 0.050970003, 0.29187384, -1347820.9, 272294.7, 0.00060913287, 10.000514, 10.00139 
6.5001404e+1, 1.4468767e+2, -1499592.4, -1678317.9, -71825.195, 0.038575023, 0.4755847, -1474305.4, 47791.58, 0.000254567, 10.000857, 9.998485 
6.500129e+1, 1.5468578e+2, -1374528.0, -1590235.3, -49770.055, -0.05649191, 0.44942552, -1363598.4, 60524.816, 0.00005931439, 10.0011425, 9.998278 
6.500164e+1, 1.6468498e+2, -1210670.6, -1271969.4, -59758.09, -0.07213418, 0.4622464, -1174160.4, 151971.84, 0.0000034805446, 10.00078, 9.999967 
6.5002584e+1, 1.7468508e+2, -1270367.1, -1243398.5, -61404.742, 0.0037488146, 0.46236977, -1194014.9, 34110.387, 0.00000000000024211628, 9.999672, 10.000023 
6.5002686e+1, 1.8468437e+2, -1235447.9, -1235999.5, -72746.37, 0.011447194, 0.41711104, -1162976.8, -32847.93, 0.0, 9.9995, 9.999483 
6.5001816e+1, 1.9468291e+2, -1006584.9, -1078975.9, -73133.37, -0.058047615, 0.31881127, -961180.06, 70962.516, 0.0, 10.000415, 9.999448 
6.500145e+1, 2.0468211e+2, -866913.3, -982563.4, -85929.89, -0.059150968, 0.30523762, -821163.8, 112986.87, 0.0, 10.000795, 9.999252 
6.500163e+1, 2.1468207e+2, -803036.25, -903397.75, -86581.914, 0.016345367, 0.37041542, -753144.4, 83007.66, 0.0, 10.000573, 9.999229 
6.500137e+1, 2.2468159e+2, -699425.94, -748876.7, -67846.73, 0.024630288, 0.3780933, -651939.6, 86216.15, 0.0, 10.000377, 9.999714 
6.5000594e+1, 2.3468067e+2, -626285.44, -662392.3, -67305.27, -0.042221364, 0.30636582, -574654.4, 65507.19, 0.0, 10.000205, 9.999717 
6.5000176e+1, 2.4467996e+2, -586539.1, -702479.1, -78063.26, -0.04810622, 0.31316048, -547275.44, -5106.108, 0.0, 10.000276, 9.998736 
6.500018e+1, 2.546795e+2, -441032.8, -586103.3, -65355.926, 0.013258605, 0.39077902, -415932.22, 28246.629, 0.0, 10.000621, 9.998696 
6.4999694e+1, 2.6467887e+2, -305474.06, -372640.47, -62327.086, 0.01436484, 0.41794422, -268258.28, 77927.445, 0.0, 10.000464, 9.999562 
6.4998716e+1, 2.746781e+2, -308510.94, -322233.8, -93443.53, -0.04714127, 0.37606934, -221677.27, 26511.42, 0.0, 9.999765, 9.999572 
6.4999163e+1, 2.8467694e+2, -289973.8, -312112.53, -85231.586, 0.0022057605, 0.32603526, -215095.78, -64898.887, 0.000000013847158, 9.999432, 9.99913 
6.500107e+1, 2.9467535e+2, -180455.58, -205307.14, -85805.15, 0.16201895, 0.24774747, -106181.17, -53970.527, 0.00000502331, 9.999496, 9.99916 
6.5002054e+1, 3.0467477e+2, -205425.27, -297507.28, -5003.0825, 0.120258525, 0.3184033, -205154.23, -205154.23, 0.000061189545, 9.999446, 9.99822 
6.500304e+1, 3.146719e+2, -62511.793, 44150.707, -12580.631, -0.025199136, 0.21439858, 45614.48, 45614.48, 0.0002346527, 9.999248, 10.000664 
7.4998826e+1, 1.2468305e+2, -1755085.1, -1819602.1, -2837.7363, -0.035360552, 0.27709228, -1754960.5, -36818.977, 0.0009785703, 10.000085, 9.999237 
7.500077e+1, 1.346837e+2, -1524714.1, -1546552.0, -36698.65, 0.013415386, 0.32179922, -1497344.5, 122790.94, 0.0005580426, 10.000522, 10.000228 
7.500232e+1, 1.4468564e+2, -1459448.1, -1595255.4, -62418.625, 0.041347705, 0.54921824, -1435118.4, 86999.71, 0.00022607559, 10.000859, 9.999054 
7.500275e+1, 1.5468307e+2, -1330292.0, -1498636.1, -38260.516, -0.02689728, 0.39300036, -1322004.4, 102142.34, 0.000048170983, 10.0011425, 9.998907 
7.500306e+1, 1.6468194e+2, -1210422.3, -1269572.9, -100254.91, -0.010678202, 0.33899677, -1135471.3, 190686.27, 0.0000019773436, 10.000772, 9.999986 
7.5003314e+1, 1.746821e+2, -1271165.5, -1244629.1, -102025.75, 0.10714642, 0.3444824, -1155012.5, 73139.125, 0.0, 9.999671, 10.000015 
7.500319e+1, 1.8468197e+2, -1233824.6, -1232277.4, -41598.473, 0.10980569, 0.3568827, -1191445.3, -61294.676, 0.0, 9.999499, 9.999509 
7.5002646e+1, 1.9468172e+2, -1005711.0, -1075430.1, -38095.6, -0.017915025, 0.3764415, -988932.75, 43220.777, 0.0, 10.000408, 9.9994755 
7.5002176e+1, 2.0468079e+2, -866551.06, -980452.7, -93536.164, -0.06755118, 0.3486743, -813992.0, 120170.55, 0.0, 10.000789, 9.99927 
7.500177e+1, 2.1467912e+2, -802583.75, -900991.44, -93636.7, -0.029319944, 0.24778038, -746010.2, 90168.28, 0.0, 10.000566, 9.999249 
7.5001025e+1, 2.246788e+2, -698220.5, -744581.94, -75214.91, -0.04874884, 0.26964277, -642695.25, 95486.12, 0.0, 10.000369, 9.999746 
7.499991e+1, 2.3468012e+2, -625111.2, -658724.75, -72754.164, -0.1326658, 0.41663694, -567247.75, 72920.88, 0.0, 10.000198, 9.999745 
7.4999654e+1, 2.4468e+2, -562112.44, -650565.3, -66366.16, -0.12942797, 0.46585897, -526586.5, 15583.915, 0.0, 10.000271, 9.999095 
7.5000405e+1, 2.5467837e+2, -415996.84, -532479.06, -51768.105, -0.028334782, 0.38700208, -396315.16, 47872.82, 0.0, 10.000615, 9.999066 
7.500046e+1, 2.6467714e+2, -358821.97, -484007.25, -88306.99, 0.042150695, 0.3707818, -313174.3, 33026.34, 0.0, 10.000466, 9.998796 
7.499979e+1, 2.7467638e+2, -365753.6, -440390.1, -118119.68, 0.08165357, 0.41292065, -279197.28, -30990.322, 0.0, 9.999762, 9.998762 
7.499957e+1, 2.8467464e+2, -296868.97, -325876.13, -84998.99, 0.09800863, 0.3527495, -225145.05, -74923.58, 0.000000011324871, 9.99943, 9.999036 
7.499968e+1, 2.9467177e+2, -185743.73, -215096.06, -82758.56, 0.07208032, 0.15339622, -116370.1, -64124.945, 0.0000042980337, 9.999492, 9.999094 
7.500039e+1, 3.046712e+2, -192681.75, -272011.75, -11758.93, 0.008322042, 0.220094, -190975.45, -190975.45, 0.00005527223, 9.999449, 9.998394 
7.5002885e+1, 3.146709e+2, -39460.22, 90588.59, -20646.727, 0.02918139, 0.35091257, 93787.8, 93787.8, 0.00021799415, 9.999252, 10.000979 
8.499922e+1, 1.24681346e+2, -1570850.4, -1790869.8, -54539.11, -0.079868004, 0.29394078, -1558073.0, 160082.4, 0.0009093487, 10.001611, 9.9987 
8.500132e+1, 1.3468094e+2, -1523442.5, -1622392.1, -55329.918, 0.00024201942, 0.30251327, -1498693.6, 121469.13, 0.0005120121, 10.00086, 9.999544 
8.500297e+1, 1.4468281e+2, -1505617.0, -1532781.1, -51584.375, 0.05546067, 0.5217865, -1465856.5, 56289.547, 0.00020159004, 10.000176, 9.999811 
8.500339e+1, 1.5468112e+2, -1495619.3, -1487823.5, -15586.011, -0.0006708565, 0.37209126, -1475655.4, -51492.598, 0.000039447743, 9.99962, 9.999714 
8.500344e+1, 1.6468027e+2, -1375395.9, -1359487.0, -74210.4, 0.005697346, 0.3089714, -1292806.0, 33363.74, 0.0000010481418, 9.99969, 9.999888 
8.5003203e+1, 1.7468002e+2, -1164991.5, -1208307.4, -87523.65, 0.089774, 0.28813615, -1096486.0, 131683.08, 0.0, 10.000464, 9.999881 
8.5002977e+1, 1.8467991e+2, -1061170.5, -1141805.9, -15290.216, 0.081292346, 0.3067234, -1058368.5, 71800.29, 0.0, 10.000652, 9.999576 
8.500278e+1, 1.9468018e+2, -1032982.9, -1079834.0, -8249.479, -0.03456922, 0.37116182, -1031572.75, 594.1304, 0.0, 10.000185, 9.999553 
8.5002524e+1, 2.0467956e+2, -986408.6, -1018577.5, -69058.12, -0.06563948, 0.3612897, -931586.56, 2586.2957, 0.0, 9.999882, 9.999447 
8.5002214e+1, 2.1467793e+2, -907587.1, -932438.5, -60691.035, -0.0011393938, 0.24730796, -858062.8, -21875.016, 0.0, 9.99976, 9.999424 
8.500146e+1, 2.246775e+2, -818467.44, -832448.75, -42894.684, -0.0063150483, 0.26155844, -781997.5, -43805.12, 0.0, 9.999672, 9.99948 
8.5000247e+1, 2.3467852e+2, -726759.0, -738360.75, -65116.527, -0.08981707, 0.4087747, -667185.5, -27001.328, 0.0, 9.999632, 9.999472 
8.4999865e+1, 2.446783e+2, -683312.3, -690787.25, -75447.37, -0.09016066, 0.45075753, -611509.94, -69322.914, 0.0, 9.999361, 9.999257 
8.5000426e+1, 2.5467667e+2, -663247.9, -632360.5, -77327.2, 0.0016237062, 0.35701317, -568949.9, -124747.99, 0.0, 9.998836, 9.999238 
8.5000473e+1, 2.6467535e+2, -579888.25, -616941.75, -90532.37, 0.067649305, 0.33616164, -506006.4, -159791.4, 0.0, 9.999061, 9.998562 
8.500003e+1, 2.7467448e+2, -327981.13, -449354.75, -79897.09, 0.1108438, 0.38648498, -288336.3, -40111.117, 0.0, 10.000137, 9.99852 
8.499955e+1, 2.8467286e+2, -149548.66, -264726.3, -36356.664, 0.10088383, 0.35364065, -139032.56, 11207.713, 0.000000007967864, 10.000483, 9.99895 
8.499881e+1, 2.9467037e+2, -114958.94, -189651.27, -36667.156, 0.01003259, 0.20231326, -99967.58, -47706.57, 0.00000360919, 10.000015, 9.999018 
8.499912e+1, 3.0466965e+2, -231041.45, -262913.2, 14889.468, -0.043865982, 0.2471755, -225167.97, -225167.97, 0.000049311082, 9.999066, 9.998641 
8.500178e+1, 3.1466988e+2, -271359.88, 14709.257, 3464.4858, 0.08144535, 0.40445292, 14751.208, 14751.208, 0.0002005974, 9.997503, 10.001301 
9.50007e+1, 1.246807e+2, -1576502.3, -1801625.8, -85898.47, -0.09684252, 0.48064074, -1547470.5, 170694.42, 0.0008487389, 10.001606, 9.998629 
9.5002276e+1, 1.3467751e+2, -1537121.0, -1652914.3, -83568.26, 0.007499574, 0.23337793, -1493353.1, 126844.49, 0.00047347447, 10.000869, 9.999331 
9.5003355e+1, 1.4467917e+2, -1436885.8, -1390617.3, -73595.81, 0.07392007, 0.39213634, -1336605.4, 185575.72, 0.00018256163, 10.000179, 10.000786 
9.5003146e+1, 1.546799e+2, -1425368.0, -1342902.4, -34775.668, 0.010515433, 0.38548502, -1330195.5, 93975.87, 0.00003354367, 9.999623, 10.000708 
9.5002747e+1, 1.6467993e+2, -1392719.3, -1394238.1, -47108.05, -0.03581899, 0.3712618, -1346364.5, -20195.602, 0.00000057940093, 9.999686, 9.999651 
9.500225e+1, 1.7467883e+2, -1184572.5, -1248196.0, -57463.23, -0.05355792, 0.29279715, -1150703.1, 77474.93, 0.0, 10.000463, 9.999608 
9.500204e+1, 1.8467821e+2, -1053266.6, -1124219.1, -32198.639, -0.07981396, 0.26729622, -1040833.44, 89349.984, 0.0, 10.000648, 9.999698 
9.5002156e+1, 1.9467834e+2, -1024606.3, -1060673.5, -24752.879, -0.11568316, 0.3026999, -1012014.5, 20168.098, 0.0, 10.000178, 9.999687 
9.5002455e+1, 2.0467843e+2, -966344.4, -974579.3, -74589.81, -0.061780635, 0.34313926, -895758.5, 38423.055, 0.0, 9.99987, 9.999754 
9.500293e+1, 2.1467851e+2, -886839.56, -887409.9, -64334.734, 0.093170576, 0.36938843, -822789.4, 13390.743, 0.0, 9.999751, 9.999738 
9.5002663e+1, 2.2467768e+2, -858499.9, -913624.75, -45305.316, 0.14439896, 0.35491768, -833031.56, -94842.766, 0.0, 9.999663, 9.998926 
9.5001596e+1, 2.3467594e+2, -768615.94, -823131.3, -65680.74, 0.08056632, 0.28310272, -724761.44, -84553.44, 0.0, 9.999623, 9.998894 
9.500078e+1, 2.4467482e+2, -686974.75, -697050.1, -95802.2, 0.06330565, 0.26819175, -596077.9, -53858.777, 0.0, 9.999356, 9.999216 
9.5000213e+1, 2.5467443e+2, -666273.8, -636655.06, -96042.69, 0.09552622, 0.29808688, -554286.7, -110065.97, 0.0, 9.998828, 9.999211 
9.499972e+1, 2.646736e+2, -559348.25, -574101.7, -52662.37, 0.084168285, 0.3120647, -513548.47, -167319.56, 0.0, 9.999059, 9.9988575 
9.4999397e+1, 2.7467236e+2, -305787.63, -403204.63, -38745.047, 0.03172896, 0.2978175, -292257.1, -44013.848, 0.0, 10.000136, 9.998838 
9.4999045e+1, 2.8467155e+2, -154280.75, -274479.72, -53259.43, 0.00022969404, 0.33199522, -134077.6, 16175.395, 0.0000000042394483, 10.000483, 9.998882 
9.4998443e+1, 2.9467112e+2, -122289.43, -203355.11, -52663.734, -0.030088274, 0.39484534, -96366.414, -44108.363, 0.000002925069, 10.000009, 9.998927 
9.499823e+1, 3.0467007e+2, -208965.16, -215584.47, -43077.23, -0.040995114, 0.39755878, -169070.63, -169070.63, 0.000043225835, 9.999062, 9.998968 
9.499964e+1, 3.146688e+2, -249187.03, 62479.79, -54980.27, 0.11331681, 0.370776, 71894.32, 71894.32, 0.00018228774, 9.997498, 10.001632 
1.05001904e+2, 1.2467963e+2, -1522079.1, -1739479.0, -24771.102, -0.14658113, 0.5059159, -1519292.4, 198883.53, 0.0007977204, 10.001824, 9.998949 
1.0500311e+2, 1.3467611e+2, -1513348.4, -1623135.8, 1991.0143, 0.00039300817, 0.20748042, -1513312.3, 106896.85, 0.0004431459, 10.000953, 9.999495 
1.0500377e+2, 1.4467758e+2, -1406247.5, -1389869.6, 5839.1226, 0.08424334, 0.34636024, -1388001.0, 134192.19, 0.00016917764, 10.000448, 10.000662 
1.0500295e+2, 1.5467827e+2, -1326835.9, -1311468.8, -42714.684, -0.007971335, 0.34942532, -1275752.0, 148432.55, 0.000030278157, 10.000368, 10.000566 
1.0500248e+2, 1.6467847e+2, -1284466.1, -1336314.8, -57006.836, -0.06545057, 0.35663253, -1247765.8, 78415.3, 0.0000004316036, 10.0004015, 9.999705 
1.0500255e+2, 1.7467779e+2, -1162581.6, -1229464.4, -42257.586, -0.07493445, 0.31309664, -1142134.0, 86052.516, 0.0, 10.00058, 9.999679 
1.0500236e+2, 1.846771e+2, -1115611.9, -1155119.8, -50713.98, -0.09063995, 0.2776005, -1080940.4, 49252.31, 0.0, 10.000222, 9.999692 
1.05001874e+2, 1.946766e+2, -1160998.8, -1128027.5, -57744.17, -0.1148732, 0.2505318, -1084461.8, -52263.613, 0.0, 9.999245, 9.999676 
1.0500197e+2, 2.0467672e+2, -1069850.9, -991170.0, -75976.51, -0.055026848, 0.28036878, -944952.9, -10756.608, 0.0, 9.999018, 10.0000515 
1.0500268e+2, 2.1467759e+2, -880295.5, -849016.06, -66355.05, 0.099047445, 0.35488304, -796482.56, 39703.35, 0.0, 9.999647, 10.000051 
1.0500258e+2, 2.2467698e+2, -838108.1, -934353.1, -47214.133, 0.15617548, 0.35884747, -818814.4, -80621.54, 0.0, 9.999936, 9.998652 
1.0500157e+2, 2.346748e+2, -758765.8, -852094.8, -48306.24, 0.105152406, 0.27247554, -738265.8, -98047.3, 0.0, 9.999836, 9.998592 
1.05000556e+2, 2.4467339e+2, -628131.0, -656841.56, -70347.86, 0.08797128, 0.23968402, -570688.7, -28456.117, 0.0, 9.999707, 9.999323 
1.0499949e+2, 2.5467286e+2, -551764.5, -567511.2, -61978.54, 0.10450496, 0.24471194, -497161.22, -52927.863, 0.0, 9.999551, 9.999338 
1.0499877e+2, 2.6467207e+2, -516441.8, -531558.4, 9802.665, 0.07297845, 0.24721597, -511621.88, -165381.69, 0.0, 9.999257, 9.999055 
1.0499851e+2, 2.746711e+2, -486605.5, -469000.84, 14543.678, -0.0042536315, 0.23933934, -460803.2, -212550.67, 0.0, 9.9988, 9.999032 
1.04998425e+2, 2.8467083e+2, -437173.4, -422424.34, -23452.953, -0.014232375, 0.32374552, -405213.8, -254955.6, 0.0000000012344323, 9.9985895, 9.99878 
1.0499835e+2, 2.946713e+2, -327528.75, -313534.72, -27161.701, 0.029320132, 0.4847239, -292483.28, -240226.19, 0.0000022309773, 9.998647, 9.998827 
1.0499777e+2, 3.046696e+2, -224705.4, -232024.2, -38797.31, 0.011740402, 0.43019667, -189395.3, -189395.3, 0.00003695323, 9.998989, 9.998892 
1.0499775e+2, 3.1466734e+2, 48719.316, 188357.83, -88949.0, 0.068944246, 0.31798947, 231616.66, 231616.66, 0.00016279968, 9.9996195, 10.001476 
1.15002826e+2, 1.2467811e+2, -1472793.4, -1635825.8, -59177.2, -0.24326499, 0.36712268, -1453578.1, 264610.22, 0.0007564603, 10.00182, 9.999662 
1.15003765e+2, 1.3467667e+2, -1476288.5, -1545094.9, -30355.203, -0.03093033, 0.22100112, -1464811.3, 155386.64, 0.00042056636, 10.000947, 10.000034 
1.1500413e+2, 1.4467803e+2, -1495389.5, -1571941.8, 1498.0049, 0.07347435, 0.38199598, -1495360.3, 26822.76, 0.00016082273, 10.000438, 9.999416 
1.1500278e+2, 1.5467621e+2, -1417450.0, -1500123.3, -44330.508, -0.06319026, 0.26435444, -1398173.9, 26028.838, 0.000029173776, 10.000372, 9.999269 
1.1500267e+2, 1.6467588e+2, -1257834.4, -1282327.3, -51734.438, -0.089222185, 0.2660395, -1216916.6, 109289.59, 0.0000005105562, 10.000406, 10.000075 
1.15004085e+2, 1.7467688e+2, -1133260.6, -1168725.5, -34541.008, 0.017776737, 0.34983033, -1112166.3, 116028.1, 0.0, 10.000578, 10.000098 
1.1500389e+2, 1.8467657e+2, -1127999.3, -1176906.3, -86504.75, 0.038984675, 0.33762136, -1062558.1, 67638.664, 0.0, 10.000207, 9.999549 
1.150019e+2, 1.9467494e+2, -1173448.4, -1151718.0, -93445.97, -0.038522534, 0.21521683, -1068507.6, -36294.08, 0.0, 9.999237, 9.9995165 
1.1500103e+2, 2.0467441e+2, -1050436.6, -949553.4, -55064.473, -0.051914874, 0.1732762, -925319.4, 8897.679, 0.0, 9.999011, 10.00034 
1.1500145e+2, 2.1467514e+2, -859257.75, -804149.1, -41286.93, 0.009957064, 0.20177482, -782066.25, 54139.15, 0.0, 9.99964, 10.000362 
1.1500117e+2, 2.2467536e+2, -839576.06, -934943.8, -50661.027, 0.021500997, 0.2719184, -817687.75, -79483.1, 0.0, 9.999927, 9.998652 
1.1500014e+2, 2.3467506e+2, -761556.6, -855537.94, -50818.79, -0.022565035, 0.37718806, -739332.6, -99117.06, 0.0, 9.999826, 9.998573 
1.1499916e+2, 2.4467398e+2, -611824.94, -620562.1, -76906.16, -0.023787202, 0.36511418, -539163.4, 3063.9165, 0.0, 9.999698, 9.9995775 
1.1499823e+2, 2.54672e+2, -533215.06, -527244.5, -66802.414, 0.021626374, 0.19805318, -463360.7, -19121.072, 0.0, 9.999544, 9.999619 
1.1499758e+2, 2.6467085e+2, -509856.63, -517378.44, -8101.468, 0.027593264, 0.14305682, -504685.7, -158436.88, 0.0, 9.999254, 9.999154 
1.1499732e+2, 2.746707e+2, -482030.47, -458489.47, -1677.4963, -0.004310297, 0.20901027, -458370.53, -210117.34, 0.0, 9.9987955, 9.999106 
1.1499768e+2, 2.846707e+2, -447501.56, -441899.6, -23038.662, 0.050358247, 0.32668057, -421492.28, -271236.13, 0.00000000006210851, 9.998583, 9.99865 
1.1499853e+2, 2.946709e+2, -335637.78, -330042.6, -23554.154, 0.17999217, 0.47181836, -309120.47, -256862.5, 0.0000015849012, 9.998645, 9.998714 
1.1499774e+2, 3.046682e+2, -258123.81, -300962.38, -15703.652, 0.10738978, 0.3457941, -252983.92, -252983.92, 0.000030721083, 9.998987, 9.99842 
1.1499607e+2, 3.146656e+2, 4265.9736, 94785.5, -64490.32, -0.06557569, 0.24399301, 128313.09, 128313.09, 0.00014243502, 9.999623, 10.000833 
1.2500522e+2, 1.24677986e+2, -1618508.8, -1705194.3, -16915.818, -0.13438502, 0.31420076, -1615324.8, 102861.44, 0.0007247361, 10.0008135, 9.999673 
1.2500492e+2, 1.3467655e+2, -1357871.5, -1504779.1, -42410.51, -0.052785356, 0.1854318, -1346507.1, 273688.5, 0.00040489552, 10.001833, 9.999885 
1.2500471e+2, 1.4467765e+2, -1297906.8, -1528907.1, -22701.842, 0.010664597, 0.35093698, -1295696.9, 226486.97, 0.00015657058, 10.002017, 9.998952 
1.2500346e+2, 1.5467536e+2, -1316932.3, -1505211.5, -10238.68, -0.07846826, 0.23292716, -1316377.1, 107832.34, 0.000029665785, 10.001291, 9.998791 
1.2500323e+2, 1.6467476e+2, -1243867.0, -1269465.0, 5059.1885, -0.07736883, 0.230758, -1242903.4, 83312.51, 0.0000007617598, 10.000473, 10.000132 
1.2500428e+2, 1.746758e+2, -1279042.5, -1230949.6, -5977.1494, 0.032862924, 0.31038937, -1230217.9, -2014.618, 0.0, 9.999541, 10.000172 
1.2500401e+2, 1.8467566e+2, -1234125.8, -1234022.3, -51960.57, 0.06569234, 0.31298092, -1182113.4, -51909.063, 0.0, 9.999503, 9.999496 
1.2500222e+2, 1.9467433e+2, -996435.94, -1072291.8, -51891.54, 0.0077261655, 0.22583549, -970089.0, 62129.984, 0.0, 10.000479, 9.999463 
1.2500115e+2, 2.0467362e+2, -824386.3, -871689.44, -28587.086, -0.024818247, 0.18181863, -810935.06, 123289.64, 0.0, 10.000695, 10.000064 
1.2500092e+2, 2.1467361e+2, -818885.94, -816449.06, -61908.64, -0.026085028, 0.16701442, -755746.9, 80473.22, 0.0, 10.000053, 10.000079 
1.2500034e+2, 2.2467376e+2, -887424.25, -932942.75, -94701.74, -0.03249906, 0.23358355, -812785.3, -74565.336, 0.0, 9.999486, 9.99888 
1.2499934e+2, 2.3467413e+2, -863776.3, -876592.3, -77524.99, -0.044446785, 0.37972194, -792394.94, -152170.69, 0.0, 9.9990015, 9.998827 
1.249984e+2, 2.4467349e+2, -719602.0, -660994.3, -81888.92, -0.029465891, 0.39351526, -603324.0, -61091.953, 0.0, 9.998907, 9.999681 
1.2499755e+2, 2.546717e+2, -570311.1, -534933.1, -85276.3, 0.014775114, 0.23695864, -465530.5, -21286.945, 0.0, 9.999244, 9.999712 
1.2499687e+2, 2.6467067e+2, -491582.16, -507307.97, -48816.1, 0.02575446, 0.19308567, -449999.78, -103748.1, 0.0, 9.999377, 9.999164 
1.2499646e+2, 2.746707e+2, -409960.06, -423419.53, -51821.17, 0.0056047803, 0.26984823, -364433.47, -116178.66, 0.0, 9.99929, 9.999109 
1.2499674e+2, 2.8467035e+2, -346766.72, -366732.9, -52341.1, 0.06948318, 0.33960962, -303465.16, -153205.48, 0.0, 9.999156, 9.99889 
1.24997586e+2, 2.9466963e+2, -274009.78, -271164.78, -25906.682, 0.20773695, 0.3709699, -246641.56, -194374.69, 0.0000010474641, 9.998942, 9.998976 
1.2499679e+2, 3.0466664e+2, -287371.16, -300656.8, 30310.135, 0.12833366, 0.19387399, -262984.47, -262984.47, 0.000024841802, 9.998723, 9.998551 
1.2499494e+2, 3.1466556e+2, -175796.5, -8277.512, 22769.063, -0.08151771, 0.23579885, -5237.91, -5237.91, 0.00012195601, 9.998456, 10.000689 
1.3500902e+2, 1.2467923e+2, -1669981.1, -1807217.6, 17506.285, 0.16090247, 0.34775656, -1667783.1, 50386.42, 0.0007016644, 10.000794, 9.998981 
1.3500658e+2, 1.346758e+2, -1415645.8, -1627142.0, -2746.6, -0.07315781, 0.10398219, -1415610.1, 204592.25, 0.00039489288, 10.001844, 9.999039 
1.3500552e+2, 1.4467648e+2, -1273298.4, -1481600.6, -49923.004, -0.112668306, 0.25592452, -1261951.6, 260244.17, 0.00015526546, 10.002032, 9.99927 
1.3500491e+2, 1.546757e+2, -1292580.3, -1454513.6, -36820.938, -0.063859224, 0.25319716, -1284600.9, 139604.17, 0.000031126172, 10.001288, 9.999141 
1.3500409e+2, 1.6467513e+2, -1264454.9, -1308819.6, -30634.324, -0.040357746, 0.24852383, -1248815.0, 77395.37, 0.0000011270397, 10.000461, 9.999867 
1.3500315e+2, 1.7467453e+2, -1298860.6, -1271860.6, -40068.582, -0.03684421, 0.19307254, -1243078.9, -14865.297, 0.0, 9.999541, 9.99989 
1.350027e+2, 1.8467432e+2, -1230498.1, -1226464.1, -18335.365, -0.017775083, 0.20203064, -1210035.1, -79819.49, 0.0, 9.999502, 9.999549 
1.350028e+2, 1.9467473e+2, -992926.7, -1063933.8, -14045.988, 0.016722819, 0.28163192, -990249.2, 41965.36, 0.0, 10.000473, 9.999523 
1.350023e+2, 2.0467432e+2, -885526.4, -996424.4, -51635.137, 0.018784989, 0.307088, -865207.44, 69011.76, 0.0, 10.000687, 9.999211 
1.3500111e+2, 2.1467303e+2, -882869.1, -946150.56, -84759.86, -0.01505861, 0.25073224, -824036.8, 12193.321, 0.0, 10.00004, 9.999195 
1.3500005e+2, 2.2467221e+2, -856604.1, -866805.56, -113674.555, -0.013324271, 0.24402453, -747915.94, -9676.938, 0.0, 9.999476, 9.999339 
1.3499911e+2, 2.3467198e+2, -827930.1, -801951.44, -94449.18, 0.031319227, 0.27914774, -719602.6, -79357.875, 0.0, 9.999, 9.999341 
1.3499825e+2, 2.4467191e+2, -722674.25, -666225.75, -71051.75, 0.062201373, 0.32406855, -617997.6, -75750.65, 0.0, 9.998902, 9.999648 
1.3499744e+2, 2.54672e+2, -576210.94, -545215.8, -71472.914, 0.076113105, 0.3617352, -487579.6, -43334.5, 0.0, 9.999236, 9.999645 
1.3499661e+2, 2.6467168e+2, -499294.72, -522261.9, -52215.42, 0.06010024, 0.39698964, -457315.03, -111066.26, 0.0, 9.9993725, 9.999064 
1.3499588e+2, 2.7467105e+2, -415238.5, -434292.1, -53668.164, 0.01611595, 0.42198837, -370258.13, -122000.73, 0.0, 9.99929, 9.999034 
1.3499558e+2, 2.846697e+2, -303090.88, -276911.4, -61321.83, 0.035241567, 0.3627576, -227297.81, -77028.96, 0.0, 9.999159, 9.999507 
1.3499552e+2, 2.9466748e+2, -229306.31, -178348.02, -32634.102, 0.103952914, 0.18025997, -162424.61, -110140.6, 0.0000006413962, 9.99894, 9.999616 
1.3499491e+2, 3.0466485e+2, -237101.84, -191993.22, 19948.127, 0.067257315, -0.028381746, -184437.31, -184437.31, 0.000019439243, 9.998709, 9.999302 
1.349943e+2, 3.1466728e+2, -150654.25, 47103.01, 13142.215, 0.0049217585, 0.28898993, 47972.57, 47972.57, 0.000102001, 9.998447, 10.00107 
1.450111e+2, 1.2467992e+2, -1431274.3, -1720819.0, 28107.934, 0.20198898, 0.31012443, -1428570.9, 289590.1, 0.0006852014, 10.002556, 9.998726 
1.4500804e+2, 1.346766e+2, -1515783.0, -1720424.9, 37077.89, -0.08577359, 0.11875091, -1509272.3, 110923.04, 0.00038852147, 10.00135, 9.998636 
1.4500675e+2, 1.4467736e+2, -1441697.8, -1540066.4, -2260.4001, -0.13078599, 0.2868075, -1441645.8, 80543.57, 0.00015533686, 10.000777, 9.999474 
1.4500614e+2, 1.5467677e+2, -1330811.0, -1448128.4, -724.07965, -0.051147833, 0.28103095, -1330806.5, 93389.36, 0.00003278088, 10.00092, 9.999362 
1.4500496e+2, 1.6467606e+2, -1195675.0, -1305100.4, -278.8972, -0.027863406, 0.26570252, -1195674.3, 130527.68, 0.0000015078091, 10.0010605, 9.999602 
1.4500326e+2, 1.74675e+2, -1078120.9, -1197572.1, -12088.693, -0.060953915, 0.19248596, -1076909.8, 151300.0, 0.0, 10.001194, 9.999603 
1.4500238e+2, 1.8467464e+2, -1060795.0, -1167919.3, 14306.049, -0.06304677, 0.20978487, -1058917.4, 71296.34, 0.0, 10.000766, 9.999343 
1.4500238e+2, 1.946752e+2, -1120205.5, -1148665.4, -3266.3237, -0.03273012, 0.32667136, -1119835.5, -87623.58, 0.0, 9.999698, 9.999317 
1.4500202e+2, 2.0467477e+2, -1109820.8, -1113633.6, -29007.855, -0.0020644893, 0.36215544, -1082656.8, -148439.27, 0.0, 9.999187, 9.999129 
1.4500122e+2, 2.1467319e+2, -994399.1, -1008401.0, -4045.398, 0.028540924, 0.2852373, -993314.4, -157083.36, 0.0, 9.999311, 9.999118 
1.4500004e+2, 2.2467205e+2, -853095.2, -853565.3, -8513.2295, 0.04191233, 0.2470627, -844813.8, -106572.03, 0.0, 9.999451, 9.999442 
1.4499849e+2, 2.3467149e+2, -730166.6, -742431.6, -21106.23, 0.03778012, 0.2391217, -714320.06, -74071.68, 0.0, 9.999618, 9.999452 
1.4499731e+2, 2.4467133e+2, -663183.75, -673702.0, -19621.438, 0.05145882, 0.28425422, -648128.9, -105877.37, 0.0, 9.999465, 9.999327 
1.4499658e+2, 2.5467157e+2, -642243.8, -614674.2, -43289.73, 0.08226783, 0.37220445, -583027.5, -138777.11, 0.0, 9.998945, 9.999309 
1.4499581e+2, 2.6467133e+2, -577099.5, -535003.1, -16675.508, 0.07386571, 0.42006102, -529198.0, -182943.58, 0.0, 9.998733, 9.999284 
1.4499506e+2, 2.746706e+2, -463166.1, -430253.88, 5974.134, 0.027974416, 0.41147715, -429203.03, -180939.78, 0.0, 9.998847, 9.999274 
1.4499445e+2, 2.8466958e+2, -338570.5, -249453.86, -6762.448, 0.02946697, 0.3555668, -248943.63, -98672.99, 0.0, 9.998724, 9.999904 
1.4499372e+2, 2.946683e+2, -284710.97, -160376.33, 1827.697, 0.061218902, 0.22230782, -160349.47, -108072.91, 0.0000003644557, 9.998366, 10.000016 
1.4499329e+2, 3.0466598e+2, -258475.02, -173426.33, 43112.79, 0.049737148, 0.011758844, -155394.64, -155394.64, 0.000014553311, 9.998436, 9.999561 
1.4499359e+2, 3.1466854e+2, -105476.34, 50864.86, -8139.6113, 0.071135454, 0.3194594, 51287.492, 51287.492, 0.0000830069, 9.998833, 10.000911 
1.5501139e+2, 1.2468002e+2, -1415415.1, -1691404.1, -19698.057, -0.030082215, 0.20035025, -1414016.3, 304144.34, 0.0006720001, 10.002569, 9.998922 
1.5500925e+2, 1.3467893e+2, -1512617.5, -1714636.3, -8182.177, -0.100261144, 0.22680669, -1512286.6, 107888.61, 0.00038301162, 10.00135, 9.998678 
1.5500832e+2, 1.446802e+2, -1435634.4, -1525080.5, 421.4235, -0.053246222, 0.44068062, -1435632.4, 86532.67, 0.00015494693, 10.000768, 9.99958 
1.5500712e+2, 1.5467852e+2, -1323349.4, -1433292.5, 5745.542, -0.047238424, 0.3175084, -1323049.9, 101132.05, 0.000033834087, 10.000924, 9.999461 
1.5500584e+2, 1.6467756e+2, -1213414.8, -1342966.0, 3776.3477, -0.047491744, 0.2831956, -1213304.8, 112885.92, 0.0000017896223, 10.001064, 9.999341 
1.5500462e+2, 1.7467724e+2, -1097926.8, -1238286.6, -5960.256, -0.047427796, 0.3083436, -1097674.1, 130517.484, 0.0, 10.001192, 9.999326 
1.55003e+2, 1.8467657e+2, -1095598.8, -1237707.4, -25257.01, -0.07992878, 0.33582014, -1091243.4, 38955.44, 0.0, 10.000755, 9.998869 
1.5500094e+2, 1.9467574e+2, -1154886.6, -1218846.9, -42302.75, -0.1485108, 0.36101946, -1133836.0, -101624.93, 0.0, 9.99969, 9.998838 
1.5500028e+2, 2.046749e+2, -1062979.4, -1014472.2, -26595.117, -0.09535006, 0.3470911, -1002732.25, -68512.72, 0.0, 9.999178, 9.999814 
1.5500122e+2, 2.1467404e+2, -944641.8, -903950.2, 1963.3351, 0.096673235, 0.27010575, -903855.6, -67632.625, 0.0, 9.999306, 9.999839 
1.5500034e+2, 2.2467329e+2, -871221.0, -890229.44, -3158.8086, 0.12523013, 0.24305265, -870709.8, -132481.36, 0.0, 9.999447, 9.999193 
1.5499742e+2, 2.3467268e+2, -751035.6, -785100.44, -13719.124, -0.031445727, 0.25902605, -746197.56, -105962.24, 0.0, 9.999614, 9.999162 
1.5499558e+2, 2.4467173e+2, -706713.7, -762513.9, -39167.15, -0.070205174, 0.27279943, -686525.5, -144279.81, 0.0, 9.999459, 9.998718 
1.5499495e+2, 2.5467047e+2, -686184.5, -704372.56, -61777.992, 0.023738164, 0.26890546, -632834.75, -188575.23, 0.0, 9.9989395, 9.998695 
1.549944e+2, 2.6466963e+2, -539389.5, -456627.75, -13890.671, 0.058788333, 0.26165703, -454358.56, -108089.61, 0.0, 9.998732, 9.999823 
1.5499397e+2, 2.7466932e+2, -423074.97, -346482.97, 10727.342, 0.033583038, 0.23689178, -345008.9, -96736.33, 0.0, 9.998843, 9.999851 
1.5499333e+2, 2.8467005e+2, -327772.03, -225763.0, -20705.926, 0.044312544, 0.31695962, -221720.3, -71455.18, 0.0, 9.998719, 10.000069 
1.5499224e+2, 2.9467198e+2, -272951.38, -135766.2, -8681.661, 0.07182609, 0.49676386, -135218.97, -82974.33, 0.00000019831394, 9.998366, 10.000184 
1.5499192e+2, 3.0466995e+2, -276408.25, -210169.02, 57935.707, 0.068241484, 0.31347495, -176554.42, -176554.42, 0.000010333069, 9.998434, 9.999308 
1.549927e+2, 3.1466934e+2, -153421.95, -49585.234, 10131.365, 0.09453094, 0.33029, -48605.95, -48605.95, 0.00006547037, 9.998837, 10.0002165 
1.6501293e+2, 1.2468204e+2, -1455693.5, -1665010.6, 2745.6116, -0.10905593, 0.21359234, -1455657.5, 262487.56, 0.00065764156, 10.002093, 9.999331 
1.6501066e+2, 1.3468169e+2, -1456325.5, -1653623.9, 29101.49, -0.10543355, 0.285355, -1452122.5, 168028.23, 0.00037533525, 10.001594, 9.998976 
1.6500954e+2, 1.4468297e+2, -1392158.8, -1532087.9, 65350.934, -0.02914004, 0.4950817, -1366385.1, 155754.95, 0.00015252095, 10.001186, 9.99933 
1.6500784e+2, 1.5468077e+2, -1349612.0, -1476587.9, 41203.54, -0.0651154, 0.34641072, -1337413.5, 86749.336, 0.000033788867, 10.000874, 9.999188 
1.650065e+2, 1.6467954e+2, -1273774.6, -1392254.5, 35957.246, -0.07153766, 0.3090904, -1263716.0, 62458.57, 0.0000018950186, 10.000733, 9.999163 
1.650057e+2, 1.746793e+2, -1169298.0, -1291921.6, 32150.033, -0.038259424, 0.35970834, -1161380.0, 66795.22, 0.0, 10.000784, 9.999154 
1.6500406e+2, 1.8467845e+2, -1110010.9, -1253674.6, 5771.538, -0.045639586, 0.3813745, -1109779.4, 20404.404, 0.0, 10.000695, 9.998788 
1.6500148e+2, 1.9467713e+2, -1050270.4, -1176642.6, 16152.048, -0.10135266, 0.36411005, -1048238.6, -16038.93, 0.0, 10.000444, 9.998765 
1.6500022e+2, 2.0467615e+2, -895550.06, -932190.1, 52157.918, -0.07697194, 0.3416061, -858588.4, 75620.23, 0.0, 10.0003195, 9.99983 
1.6500047e+2, 2.1467562e+2, -792604.4, -828479.94, 26685.324, 0.0391441, 0.29443035, -778388.25, 57820.934, 0.0, 10.0003395, 9.999859 
1.6499949e+2, 2.2467496e+2, -776994.56, -874722.3, -8807.779, 0.054302733, 0.28974307, -776207.1, -37993.145, 0.0, 10.000225, 9.998924 
1.6499707e+2, 2.3467422e+2, -721114.5, -801374.4, -20443.209, -0.0452082, 0.31915, -716207.4, -75984.64, 0.0, 9.999954, 9.998885 
1.6499533e+2, 2.44673e+2, -636417.8, -709014.0, -20742.367, -0.061137557, 0.31111228, -630909.25, -88674.27, 0.0, 9.999858, 9.998894 
1.6499433e+2, 2.546713e+2, -523847.28, -604663.75, 16332.153, 0.016114807, 0.2461283, -520671.53, -76421.13, 0.0, 9.99996, 9.998888 
1.6499342e+2, 2.646702e+2, -425727.03, -412974.63, 66572.41, 0.04780859, 0.20793433, -352473.78, -6212.674, 0.0, 9.999558, 9.999723 
1.6499269e+2, 2.746698e+2, -467445.56, -381116.7, 36157.457, 0.034338627, 0.18514149, -367973.66, -119707.78, 0.0, 9.998593, 9.999735 
1.6499192e+2, 2.8467068e+2, -396745.22, -287699.9, -16368.632, 0.04808753, 0.29842, -285295.84, -135037.47, 0.0, 9.998369, 9.999812 
1.6499087e+2, 2.9467312e+2, -206027.4, -132691.11, -37246.34, 0.07094267, 0.5540791, -117092.22, -64856.445, 0.000000103924, 9.998953, 9.999922 
1.6499077e+2, 3.046715e+2, -174011.78, -132386.6, 26490.227, 0.0815172, 0.41517708, -119510.98, -119510.98, 0.000006944009, 9.999014, 9.999563 
1.6499159e+2, 3.1467074e+2, -220325.64, -97824.055, 13898.053, 0.1204053, 0.38971522, -96267.086, -96267.086, 0.000049939055, 9.998444, 10.000074 
1.7501564e+2, 1.2468599e+2, -1414210.6, -1576566.5, -18871.756, -0.051304877, 0.352013, -1412045.9, 306068.25, 0.0006375972, 10.002083, 9.999944 
1.7501226e+2, 1.3468492e+2, -1417308.8, -1574511.1, 10975.187, -0.10862708, 0.29681528, -1416546.3, 203575.66, 0.00036289106, 10.001601, 9.999515 
1.7501038e+2, 1.4468561e+2, -1434354.5, -1620699.4, 52003.75, -0.06640933, 0.4502355, -1420824.1, 101290.77, 0.00014707113, 10.00119, 9.99872 
1.7500824e+2, 1.5468341e+2, -1394676.1, -1570335.0, 30515.639, -0.11418966, 0.36627296, -1389525.9, 34612.895, 0.00003249045, 10.000874, 9.998546 
1.7500688e+2, 1.6468194e+2, -1280524.3, -1405369.8, 36487.06, -0.10995778, 0.34219444, -1270642.8, 55511.145, 0.0000018022155, 10.00073, 9.999075 
1.7500646e+2, 1.7468117e+2, -1174385.8, -1302289.9, 35077.03, -0.040134534, 0.3467619, -1165397.6, 62762.91, 0.0, 10.000782, 9.999084 
1.7500554e+2, 1.8468022e+2, -1088621.0, -1207676.0, -3795.3286, 0.031030944, 0.3459061, -1088500.1, 41668.926, 0.0, 10.000689, 9.999107 
1.7500396e+2, 1.9467929e+2, -1027595.3, -1128992.9, 7850.3203, 0.101715036, 0.3348345, -1026991.1, 5186.716, 0.0, 10.000442, 9.999094 
1.7500179e+2, 2.0467848e+2, -941946.25, -1026795.8, 51758.0, 0.045866445, 0.34413213, -917447.56, 16737.402, 0.0, 10.000313, 9.999184 
1.7499891e+2, 2.1467789e+2, -842100.9, -928686.1, 28784.89, -0.15197115, 0.35783255, -833404.9, 2784.9028, 0.0, 10.000328, 9.999177 
1.7499737e+2, 2.2467707e+2, -797921.44, -915785.9, -19061.977, -0.17930932, 0.38721973, -794915.25, -56716.902, 0.0, 10.000215, 9.998647 
1.7499737e+2, 2.346761e+2, -740406.5, -840555.4, -29293.719, -0.011097213, 0.4194247, -732467.4, -92256.6, 0.0, 9.99995, 9.998618 
1.7499653e+2, 2.4467508e+2, -569055.4, -568964.5, -18087.594, 0.0713105, 0.39848626, -550922.25, -8702.816, 0.0, 9.999857, 9.999856 
1.7499468e+2, 2.5467408e+2, -453564.25, -457703.2, 21252.66, 0.053129613, 0.30311385, -434280.53, 9942.539, 0.0, 9.999955, 9.999899 
1.7499287e+2, 2.6467308e+2, -478144.3, -521402.88, 30661.197, 0.035338357, 0.25901875, -462251.13, -116020.266, 0.0, 9.9995575, 9.9989805 
1.7499119e+2, 2.7467206e+2, -524559.1, -498851.0, 1239.9928, 0.022595676, 0.25487494, -498791.3, -250547.97, 0.0, 9.99859, 9.998928 
1.7499013e+2, 2.846715e+2, -446587.22, -390489.56, 2788.3386, 0.030566908, 0.29961327, -390351.3, -240100.63, 0.0, 9.998367, 9.999106 
1.7498963e+2, 2.9467165e+2, -255844.95, -235410.02, -13842.647, 0.048364617, 0.39474067, -228422.38, -176172.19, 0.00000004563321, 9.99895, 9.999217 
1.7498979e+2, 3.0467066e+2, -118517.69, -18273.115, 5927.3257, 0.08019824, 0.31736884, -17923.857, -17923.857, 0.0000044345684, 9.999017, 10.000346 
1.7499024e+2, 3.1467283e+2, -188168.6, -33519.58, -4847.266, 0.13345115, 0.5027354, -33367.797, -33367.797, 0.00003672069, 9.998451, 10.000513 
1.8501729e+2, 1.2469024e+2, -1656249.1, -1687490.3, 32647.07, -0.009887218, 0.4639473, -1635678.1, 82399.266, 0.0006079269, 10.000399, 9.999991 
1.8501344e+2, 1.3468823e+2, -1477552.8, -1609887.3, 14017.216, -0.13137804, 0.31969303, -1476084.4, 144008.86, 0.00034396173, 10.001213, 9.999459 
1.8501149e+2, 1.4468837e+2, -1381022.6, -1609618.8, 38467.113, -0.09421541, 0.42758226, -1374723.1, 147367.34, 0.00013809922, 10.001619, 9.998589 
1.8500958e+2, 1.5468653e+2, -1305071.5, -1541426.5, 52210.813, -0.10192829, 0.39027816, -1294051.9, 130058.37, 0.000029920388, 10.001552, 9.998416 
1.8500797e+2, 1.646851e+2, -1222818.0, -1387054.0, 74083.78, -0.09488374, 0.38224497, -1194338.8, 131786.17, 0.0000015280342, 10.001168, 9.998989 
1.8500683e+2, 1.7468405e+2, -1231466.4, -1339045.5, 69473.58, -0.066307, 0.3698283, -1197393.0, 30741.771, 0.0, 10.000431, 9.999001 
1.8500586e+2, 1.8468297e+2, -1111735.0, -1197252.3, 50660.223, 0.008021125, 0.34853238, -1088200.6, 41943.17, 0.0, 10.000435, 9.999301 
1.8500513e+2, 1.9468197e+2, -891474.56, -1040601.56, 52402.367, 0.1314721, 0.31258276, -874902.3, 157247.9, 0.0, 10.001276, 9.999298 
1.8500291e+2, 2.0468117e+2, -832336.0, -1039022.1, 70777.92, 0.0765195, 0.33793667, -810422.1, 123735.375, 0.0, 10.001345, 9.998603 
1.8499905e+2, 2.1468058e+2, -852745.5, -1001188.7, 50455.67, -0.18011624, 0.41416413, -837219.56, -1054.0886, 0.0, 10.0005455, 9.998574 
1.8499719e+2, 2.2467937e+2, -833468.44, -926867.5, 22558.264, -0.20585528, 0.43068656, -828305.44, -90126.66, 0.0, 9.999943, 9.998703 
1.8499757e+2, 2.346775e+2, -789648.0, -855343.0, 36812.395, 0.03243359, 0.36606163, -773158.8, -132961.33, 0.0, 9.999573, 9.998699 
1.8499678e+2, 2.4467652e+2, -613134.75, -589012.94, 49416.4, 0.12672055, 0.34499213, -550206.94, -8001.893, 0.0, 9.999549, 9.9998665 
1.8499461e+2, 2.5467667e+2, -458281.7, -459251.38, 11939.172, 0.05430205, 0.36072996, -446817.53, -2618.4985, 0.0, 9.99992, 9.999906 
1.8499242e+2, 2.64676e+2, -435123.47, -540951.1, -32611.652, 0.011018681, 0.36735046, -425881.1, -79676.9, 0.0, 10.000026, 9.99862 
1.8499021e+2, 2.746744e+2, -371163.4, -466104.3, -31516.719, 0.004806072, 0.3421956, -361653.63, -113431.336, 0.0, 9.999821, 9.99856 
1.8498887e+2, 2.846728e+2, -297175.4, -315241.06, 36621.6, 0.019955758, 0.3015807, -268489.1, -118251.07, 0.0, 9.999379, 9.999134 
1.8498842e+2, 2.946715e+2, -291112.06, -249230.23, 74088.66, 0.046603292, 0.24836527, -193179.9, -140931.63, 0.000000013949684, 9.998695, 9.999245 
1.849882e+2, 3.046709e+2, -263911.8, -66657.016, 76890.37, 0.07559038, 0.1993533, -40226.46, -40226.46, 0.0000026902987, 9.997924, 10.00054 
1.8498746e+2, 3.1467417e+2, -407230.44, -142526.03, 15524.165, 0.0855338, 0.47336036, -141618.69, -141618.69, 0.000025863523, 9.9969635, 10.000481 
1.9501786e+2, 1.2469478e+2, -1694443.5, -1766322.5, 61916.695, 0.0012099026, 0.54901683, -1658791.6, 59243.266, 0.0005661583, 10.000397, 9.999453 
1.950142e+2, 1.3469161e+2, -1522372.0, -1703135.3, 45617.47, -0.17962353, 0.35176802, -1511512.4, 108552.56, 0.00031763376, 10.001215, 9.998819 
1.9501288e+2, 1.4469123e+2, -1357720.8, -1560993.5, 36120.047, -0.120995276, 0.42545456, -1351493.3, 170574.11, 0.00012543336, 10.001617, 9.998923 
1.9501181e+2, 1.5469006e+2, -1279103.6, -1487303.4, 50880.285, -0.03553669, 0.41959625, -1267334.6, 156742.72, 0.000026112697, 10.00155, 9.998789 
1.9500977e+2, 1.6468897e+2, -1229693.1, -1400242.5, 46291.625, -0.03472509, 0.43000937, -1217938.5, 108148.9, 0.0000011234973, 10.0011635, 9.998901 
1.950067e+2, 1.7468794e+2, -1238611.9, -1353829.3, 42743.52, -0.123130575, 0.4281593, -1224486.5, 3611.7605, 0.0, 10.00043, 9.9989 
1.9500501e+2, 1.8468665e+2, -1106879.0, -1186276.9, 79858.96, -0.12193159, 0.3880686, -1057395.8, 72712.79, 0.0, 10.00043, 9.999378 
1.9500491e+2, 1.9468519e+2, -886695.1, -1029139.9, 84912.52, -0.019020163, 0.29726633, -847089.9, 185027.02, 0.0, 10.001268, 9.999381 
1.9500358e+2, 2.0468418e+2, -869684.6, -1114241.3, 41636.59, 0.007833949, 0.3229501, -862790.2, 71336.14, 0.0, 10.001335, 9.998091 
1.950009e+2, 2.1468368e+2, -890909.6, -1078749.1, 21357.451, -0.051465116, 0.4610681, -888511.9, -52375.066, 0.0, 10.000538, 9.998046 
1.9499889e+2, 2.246818e+2, -806734.1, -870299.1, 6854.846, -0.031478014, 0.4186495, -806003.3, -67847.68, 0.0, 9.999938, 9.999093 
1.9499762e+2, 2.3467839e+2, -760852.8, -793692.6, 23666.166, 0.07865133, 0.15808636, -748468.2, -108285.09, 0.0, 9.999564, 9.9991255 
1.9499606e+2, 2.4467732e+2, -679969.7, -726273.5, 61618.87, 0.09831062, 0.15106134, -637296.9, -95105.09, 0.0, 9.999543, 9.998927 
1.9499412e+2, 2.54679e+2, -529197.4, -604897.44, 27010.242, 0.0119953435, 0.41841778, -520548.16, -76369.76, 0.0, 9.999914, 9.998908 
1.9499202e+2, 2.646789e+2, -433522.84, -537699.06, -40642.582, -0.03326604, 0.5333979, -419542.88, -73361.664, 0.0, 10.000026, 9.998644 
1.9498974e+2, 2.7467677e+2, -365834.4, -455379.53, -38675.785, -0.026369201, 0.44827554, -351442.8, -103240.05, 0.0, 9.999822, 9.998634 
1.9498818e+2, 2.8467456e+2, -242664.55, -202574.3, 10113.731, 0.008514555, 0.3054701, -200167.36, -49946.87, 0.0, 9.999382, 9.999907 
1.9498725e+2, 2.9467264e+2, -237868.55, -138540.61, 50531.06, 0.059038967, 0.11265324, -117353.336, -65122.996, 0.0000000023315327, 9.998693, 10.000006 
1.94986e+2, 3.0467218e+2, -292376.97, -123526.234, 40596.137, 0.06162584, 0.05857581, -114272.95, -114272.95, 0.0000015022418, 9.997918, 10.000151 
1.949832e+2, 3.1467485e+2, -444714.9, -220133.83, -15771.815, -0.040883627, 0.31317568, -219031.61, -219031.61, 0.000017298122, 9.996964, 9.9999485 
2.0501848e+2, 1.24697894e+2, -1602108.9, -1748934.5, 32966.742, -0.013136667, 0.5542334, -1595046.5, 122958.93, 0.0005126348, 10.001149, 9.999209 
2.0501523e+2, 1.3469492e+2, -1551587.8, -1752709.8, 36784.81, -0.19518396, 0.4087176, -1545071.0, 74964.28, 0.00028421695, 10.001166, 9.998504 
2.0501424e+2, 1.4469437e+2, -1402517.4, -1549879.9, 24290.14, -0.123688355, 0.46625808, -1398616.9, 123422.73, 0.000109345194, 10.001168, 9.999218 
2.0501313e+2, 1.5469307e+2, -1312532.0, -1467779.3, 32156.281, -0.040034015, 0.41713098, -1306135.1, 117913.68, 0.000021261263, 10.001165, 9.999109 
2.0501108e+2, 1.6469206e+2, -1224248.0, -1402449.0, 19049.273, -0.022759924, 0.4193867, -1222234.4, 103822.85, 0.00000067965186, 10.00122, 9.998859 
2.0500804e+2, 1.7469133e+2, -1110690.0, -1298210.8, 17177.762, -0.07657916, 0.45405346, -1109129.4, 118935.76, 0.0, 10.001334, 9.998847 
2.0500594e+2, 1.8469003e+2, -1026635.4, -1170770.4, 62032.05, -0.104565695, 0.4265145, -1003615.06, 126460.59, 0.0, 10.001081, 9.999172 
2.050049e+2, 1.9468822e+2, -1023993.1, -1118803.6, 43257.043, -0.1043996, 0.31957173, -1007223.44, 24864.516, 0.0, 10.000427, 9.999171 
2.0500357e+2, 2.0468685e+2, -1030122.4, -1176192.6, -431.77487, -0.06846916, 0.31370956, -1030121.1, -96020.484, 0.0, 10.000167, 9.998229 
2.0500194e+2, 2.1468602e+2, -909223.25, -1070906.1, 28191.041, 0.007704036, 0.40441513, -904448.8, -68335.37, 0.0, 10.00034, 9.998195 
2.0499992e+2, 2.2468439e+2, -694316.56, -804595.56, 45317.234, 0.041872766, 0.37539977, -678083.7, 60045.234, 0.0, 10.000661, 9.999196 
2.0499748e+2, 2.3468189e+2, -521576.22, -667372.2, 36152.56, 0.028664935, 0.19584529, -513103.9, 127042.77, 0.0, 10.001159, 9.999226 
2.0499544e+2, 2.4468058e+2, -523280.0, -714903.9, 60159.363, 0.013879035, 0.18765412, -505958.94, 36198.92, 0.0, 10.0008955, 9.998353 
2.049938e+2, 2.5468072e+2, -591413.9, -701655.6, 53129.2, -0.0048480267, 0.36152393, -569977.44, -125816.74, 0.0, 9.999775, 9.998311 
2.0499176e+2, 2.6468012e+2, -563438.3, -570616.44, 15610.139, -0.010174623, 0.44255146, -551009.94, -204841.84, 0.0, 9.999006, 9.998909 
2.0498928e+2, 2.746786e+2, -518514.7, -496090.3, 32305.871, 0.0056849984, 0.39152896, -473106.28, -224925.1, 0.0, 9.998632, 9.998927 
2.0498724e+2, 2.8467688e+2, -399602.0, -285821.94, 54233.715, 0.029637245, 0.2845394, -264113.16, -113919.055, 0.0, 9.998337, 9.99984 
2.0498556e+2, 2.9467532e+2, -326768.47, -191845.45, 27864.094, 0.049039915, 0.13495685, -186317.48, -134114.64, 0.000000000097020676, 9.99813, 9.999911 
2.0498405e+2, 3.0467498e+2, -250046.69, -92401.09, 9374.43, 0.062870145, 0.09563998, -91845.6, -91845.6, 0.0000007350318, 9.998161, 10.00025 
2.0498121e+2, 3.1467602e+2, -220161.23, -89396.09, -7993.3525, -0.008230781, 0.17161039, -88909.29, -88909.29, 0.000010898163, 9.99841, 10.00015 
2.1501914e+2, 1.24699555e+2, -1599441.8, -1742990.8, 32032.623, -0.066521816, 0.4777523, -1592618.1, 125371.03, 0.00045092413, 10.001145, 9.999251 
2.1501651e+2, 1.3469818e+2, -1550760.4, -1752008.8, 39050.426, -0.18444194, 0.49159768, -1543448.8, 76555.52, 0.00024584652, 10.001169, 9.9985075 
2.1501556e+2, 1.4469777e+2, -1385196.3, -1513724.8, 22859.537, -0.110841304, 0.55162364, -1381251.6, 140755.56, 0.00009091271, 10.001167, 9.999466 
2.150135e+2, 1.5469553e+2, -1294920.8, -1429634.6, 33171.395, -0.12092601, 0.38096395, -1287195.8, 136829.13, 0.000015871614, 10.001159, 9.999374 
2.1501188e+2, 1.6469432e+2, -1224537.6, -1401266.9, 22893.486, -0.06609796, 0.34897932, -1221620.3, 104414.35, 0.00000031009594, 10.001212, 9.998872 
2.1501084e+2, 1.7469421e+2, -1110654.9, -1298693.9, 22686.338, 0.06695294, 0.44615278, -1107956.6, 120079.06, 0.0, 10.001336, 9.998844 
2.150086e+2, 1.8469311e+2, -1061981.5, -1243576.8, 37381.11, 0.051586084, 0.4633975, -1054587.6, 75457.65, 0.0, 10.00108, 9.998674 
2.1500508e+2, 1.9469103e+2, -1060160.8, -1192474.1, 19789.525, -0.1310782, 0.3805978, -1057264.4, -25200.994, 0.0, 10.000422, 9.998669 
2.1500285e+2, 2.0468916e+2, -976373.94, -1063026.0, 4378.028, -0.15833437, 0.31316346, -976153.3, -42073.07, 0.0, 10.000159, 9.99901 
2.1500212e+2, 2.1468759e+2, -852195.94, -950893.75, 35768.094, -0.009469426, 0.24616754, -840596.75, -4501.3804, 0.0, 10.000333, 9.9990225 
2.1500026e+2, 2.2468711e+2, -708509.6, -832222.0, 62695.867, 0.007993429, 0.30052274, -682292.25, 55806.586, 0.0, 10.000652, 9.99901 
2.1499713e+2, 2.3468798e+2, -538719.44, -700683.0, 56180.125, -0.12363425, 0.4788813, -521140.3, 118948.02, 0.0, 10.001151, 9.999001 
2.1499489e+2, 2.446863e+2, -538519.7, -746571.44, 18860.887, -0.1327362, 0.45627, -536823.7, 5279.4927, 0.0, 10.000895, 9.998137 
2.1499361e+2, 2.5468186e+2, -605664.4, -730433.0, 11646.471, -0.003825133, 0.19047783, -604586.56, -160440.61, 0.0, 9.99977, 9.9981165 
2.1499163e+2, 2.6467964e+2, -528944.1, -497305.5, -376.3161, 0.073059656, 0.095139615, -497301.03, -151135.95, 0.0, 9.999001, 9.9994135 
2.1498881e+2, 2.746799e+2, -483999.56, -422337.47, 19276.424, 0.09323646, 0.17031363, -416807.34, -168649.58, 0.0, 9.998625, 9.999435 
2.1498607e+2, 2.8467974e+2, -463050.5, -417993.28, 44761.89, 0.077060126, 0.23862095, -390410.38, -240251.3, 0.0, 9.998337, 9.998934 
2.1498333e+2, 2.946795e+2, -393458.13, -331735.25, 20918.064, 0.008816722, 0.31553185, -325314.06, -273148.03, 0.0, 9.998133, 9.998951 
2.149823e+2, 3.0467936e+2, -209488.67, -5116.068, 18346.994, 0.07120542, 0.31257635, -3482.0806, -3482.0806, 0.00000029764618, 9.998153, 10.000852 
2.1498142e+2, 3.1467775e+2, -157092.56, 41335.984, 8013.166, 0.16571514, 0.059733715, 41659.055, 41659.055, 0.0000064156898, 9.998412, 10.001046 
2.2502068e+2, 1.2470145e+2, -1446967.8, -1635191.3, -9778.449, -0.07133639, 0.46170843, -1446461.0, 271510.0, 0.00038622326, 10.002046, 9.999559 
2.2501783e+2, 1.3470049e+2, -1536565.6, -1712588.3, 13333.555, -0.16721196, 0.4876565, -1535561.4, 84419.43, 0.00020573678, 10.00113, 9.9987955 
2.2501677e+2, 1.4470015e+2, -1469430.9, -1549706.1, 16458.56, -0.07710704, 0.5386011, -1466187.5, 55795.074, 0.00007189719, 10.000569, 9.999509 
2.2501446e+2, 1.5469815e+2, -1397182.1, -1474328.6, 7841.3076, -0.10312511, 0.38756508, -1396393.3, 27605.186, 0.000010694928, 10.000439, 9.999415 
2.2501273e+2, 1.6469689e+2, -1302249.0, -1430885.3, 8709.835, -0.07211068, 0.3456418, -1301661.9, 24346.383, 0.000000092361944, 10.000645, 9.998942 
2.250117e+2, 1.7469643e+2, -1119333.4, -1294261.5, 13203.319, 0.026095636, 0.40000123, -1118342.4, 109669.6, 0.0, 10.001239, 9.998921 
2.2500968e+2, 1.8469527e+2, -1033631.0, -1250188.4, 11817.95, 0.035968084, 0.41488343, -1032987.94, 97034.695, 0.0, 10.001361, 9.998492 
2.250065e+2, 1.9469342e+2, -998726.44, -1184315.5, 15514.062, -0.055518143, 0.3745068, -997438.5, 34601.605, 0.0, 10.0009365, 9.998477 
2.2500394e+2, 2.0469181e+2, -877971.75, -974966.25, 20809.879, -0.090420514, 0.3267269, -873695.56, 60358.69, 0.0, 10.000661, 9.9993725 
2.2500205e+2, 2.1469055e+2, -790304.3, -878960.56, 17357.563, -0.061889254, 0.25251466, -787027.06, 49037.28, 0.0, 10.000577, 9.999398 
2.2499995e+2, 2.2469012e+2, -788234.56, -903776.0, 20738.703, -0.06737203, 0.30534616, -784624.9, -46557.81, 0.0, 10.000249, 9.9987135 
2.2499764e+2, 2.3469073e+2, -782054.8, -853539.75, 4655.5054, -0.11205431, 0.48806798, -781752.9, -141692.05, 0.0, 9.999634, 9.998682 
2.2499546e+2, 2.4468888e+2, -720972.3, -822984.1, -28813.61, -0.09750293, 0.46135905, -713396.4, -171318.66, 0.0, 9.999593, 9.9982395 
2.2499347e+2, 2.546844e+2, -532068.9, -682103.2, -14282.084, -0.017199744, 0.1823409, -530721.44, -86601.34, 0.0, 10.000221, 9.998231 
2.2499104e+2, 2.6468205e+2, -349299.97, -399993.5, -40072.543, 0.05689241, 0.065798685, -327230.84, 18908.365, 0.0, 10.000188, 9.999511 
2.2498815e+2, 2.7468216e+2, -365561.7, -354549.3, -53855.082, 0.12647977, 0.112036295, -305919.66, -57787.48, 0.0, 9.999392, 9.999533 
2.2498493e+2, 2.8468204e+2, -421702.78, -430872.0, -10132.228, 0.10826546, 0.19354866, -415166.22, -265032.3, 0.0, 9.998761, 9.998641 
2.2498126e+2, 2.946821e+2, -392731.63, -368753.78, 11159.004, -0.017347852, 0.3296189, -364364.13, -312222.5, 0.0, 9.998298, 9.998618 
2.2498015e+2, 3.0468234e+2, -269974.5, -7886.624, 23399.133, 0.06828907, 0.37505543, -5813.9478, -5813.9478, 0.000000091080636, 9.99762, 10.00109 
2.2497982e+2, 3.1468052e+2, -358257.28, 13783.15, -15064.792, 0.24917093, 0.06883227, 14392.162, 14392.162, 0.000003445728, 9.996734, 10.001665 
2.3502302e+2, 1.247036e+2, -1407924.9, -1553163.3, -43504.94, -0.046108108, 0.5105591, -1395890.5, 322060.4, 0.0003226795, 10.002041, 10.000125 
2.3501916e+2, 1.3470182e+2, -1498489.9, -1631285.1, -21198.162, -0.14833885, 0.39703652, -1495188.1, 124777.125, 0.0001666326, 10.00112, 9.99936 
2.3501784e+2, 1.4470148e+2, -1482257.5, -1573837.4, 9842.944, -0.028909465, 0.42712447, -1481211.6, 40754.316, 0.00005400246, 10.000558, 9.99935 
2.35016e+2, 1.5470089e+2, -1409567.0, -1501847.6, 4227.726, 0.0044710604, 0.43787894, -1409373.8, 14595.815, 0.000006396683, 10.000445, 9.999224 
2.3501362e+2, 1.6469975e+2, -1291520.4, -1409420.0, 28961.531, -0.051212408, 0.4097557, -1284790.4, 41188.49, 0.000000013163342, 10.0006485, 9.999087 
2.3501067e+2, 1.7469797e+2, -1108415.9, -1270296.1, 36378.953, -0.20430025, 0.31588086, -1100616.3, 127377.93, 0.0, 10.001233, 9.999088 
2.350091e+2, 1.8469647e+2, -1026092.56, -1230477.9, -3300.1624, -0.15700684, 0.280604, -1026039.3, 103968.52, 0.0, 10.001346, 9.998635 
2.3500916e+2, 1.9469534e+2, -989960.1, -1164795.5, 656.37695, 0.11602474, 0.3009976, -989957.6, 42060.742, 0.0, 10.000932, 9.998613 
2.350068e+2, 2.046948e+2, -882750.3, -983400.0, 16312.546, 0.12728132, 0.3518385, -880172.5, 53850.527, 0.0, 10.000655, 9.999317 
2.3500168e+2, 2.1469492e+2, -796788.06, -889163.4, 15824.926, -0.15748766, 0.42389223, -794152.3, 41868.055, 0.0, 10.000565, 9.999334 
2.3499897e+2, 2.246934e+2, -818376.4, -964663.75, -2451.959, -0.1913162, 0.39174032, -818335.25, -80301.76, 0.0, 10.00024, 9.998301 
2.3499897e+2, 2.3469009e+2, -812153.75, -914034.25, -17464.922, 0.05814542, 0.22507806, -809243.0, -169178.92, 0.0, 9.999625, 9.998271 
2.349972e+2, 2.446883e+2, -692519.25, -763222.94, -7851.393, 0.11313327, 0.2042354, -691657.9, -149576.34, 0.0, 9.99959, 9.9986515 
2.3499337e+2, 2.5468838e+2, -503723.7, -621323.8, 10197.72, -0.051840894, 0.33671328, -502845.97, -58762.543, 0.0, 10.000213, 9.9986515 
2.3499003e+2, 2.6468745e+2, -371519.66, -444628.4, -69625.77, -0.064454235, 0.3546539, -329435.8, 16654.945, 0.0, 10.000181, 9.9992075 
2.3498726e+2, 2.7468535e+2, -387594.6, -398905.53, -82916.77, 0.096473254, 0.2178731, -310140.66, -62036.18, 0.0, 9.999386, 9.999231 
2.3498374e+2, 2.8468376e+2, -400585.94, -384811.53, -28771.559, 0.11316484, 0.15005693, -362865.7, -212746.98, 0.0, 9.998754, 9.998961 
2.3497939e+2, 2.9468304e+2, -372527.13, -325298.8, -5776.222, -0.03711037, 0.17475928, -324602.6, -272472.4, 0.0, 9.998293, 9.998919 
2.349776e+2, 3.0468395e+2, -278111.22, -24201.215, -10886.971, 0.050214857, 0.28033772, -23735.266, -23735.266, 0.000000018380936, 9.997617, 10.00098 
2.3497635e+2, 3.1468433e+2, -337086.63, 57252.176, -40603.445, 0.22469208, 0.20311892, 61389.54, 61389.54, 0.0000016180604, 9.996733, 10.001966 
2.4502397e+2, 1.2470555e+2, -1622905.6, -1650347.8, 26876.273, -0.07949416, 0.44788682, -1606450.5, 111477.914, 0.00026302057, 10.000541, 10.000179 
2.4502052e+2, 1.3470413e+2, -1478043.9, -1616247.4, 1592.1564, -0.12858745, 0.36535716, -1478025.5, 141913.73, 0.0001305452, 10.001242, 9.999403 
2.4501935e+2, 1.4470369e+2, -1348179.3, -1512370.9, 18131.08, 0.02098057, 0.38395354, -1346200.9, 175739.75, 0.000038366878, 10.001493, 9.99932 
2.450171e+2, 1.5470302e+2, -1294541.0, -1448815.3, 22913.303, 0.027425252, 0.38884968, -1291209.9, 132734.6, 0.000003303544, 10.001246, 9.999202 
2.4501441e+2, 1.6470185e+2, -1266420.6, -1417791.3, 53681.76, -0.049011946, 0.36808735, -1249315.9, 76638.63, 0.00000000018007511, 10.000909, 9.998906 
2.4501136e+2, 1.7470014e+2, -1231693.1, -1350299.6, 32876.117, -0.21909194, 0.29906127, -1223190.0, 4781.3877, 0.0, 10.000476, 9.998905 
2.4500977e+2, 1.846987e+2, -1143888.9, -1244255.5, -15677.302, -0.17617857, 0.26215118, -1141497.0, -11512.898, 0.0, 10.000351, 9.999021 
2.4500982e+2, 1.9469766e+2, -1012302.6, -1130240.8, 6832.1475, 0.106342055, 0.24908613, -1011908.2, 20083.516, 0.0, 10.000583, 9.999018 
2.4500737e+2, 2.0469715e+2, -937376.8, -1062990.8, 13065.312, 0.12795657, 0.30714983, -936032.25, -2036.2813, 0.0, 10.000508, 9.998842 
2.4500212e+2, 2.146973e+2, -904010.25, -997456.7, -22878.963, -0.14493518, 0.43067873, -898709.4, -62713.277, 0.0, 10.00007, 9.998831 
2.449994e+2, 2.2469535e+2, -841229.56, -951500.1, -27638.195, -0.16013056, 0.3719501, -834690.1, -96676.43, 0.0, 9.999982, 9.998514 
2.449995e+2, 2.346911e+2, -694013.3, -830576.8, 5005.171, 0.113540046, 0.08871829, -693830.1, -53779.445, 0.0, 10.000323, 9.998507 
2.4499756e+2, 2.4468964e+2, -600569.06, -690295.56, 36950.793, 0.16638616, 0.07452823, -587311.1, -45246.33, 0.0, 10.000099, 9.998906 
2.4499328e+2, 2.5469142e+2, -627721.94, -652170.7, 40328.426, -0.03156844, 0.3549976, -597805.9, -153753.7, 0.0, 9.999238, 9.998909 
2.4498957e+2, 2.646913e+2, -543678.06, -537888.75, -35652.44, -0.0702007, 0.4414487, -505013.63, -158959.69, 0.0, 9.999042, 9.999117 
2.4498647e+2, 2.746889e+2, -365681.44, -399917.38, -35265.633, 0.071573064, 0.284478, -343598.78, -95526.57, 0.0, 9.999585, 9.999129 
2.449828e+2, 2.846869e+2, -285877.4, -296449.44, 5170.003, 0.10965205, 0.16663875, -283769.44, -133679.97, 0.0, 9.999398, 9.999257 
2.4497838e+2, 2.946856e+2, -338601.66, -275816.47, 23078.137, 0.028375758, 0.10309816, -268246.3, -216143.53, 0.0, 9.998384, 9.999214 
2.4497564e+2, 3.046863e+2, -333202.6, -109687.32, 4204.772, 0.0993444, 0.19881482, -109608.25, -109608.25, 0.000000001915935, 9.997496, 10.000451 
2.4497226e+2, 3.146874e+2, -341381.22, 34152.555, -56258.95, 0.14185347, 0.25148308, 42399.63, 42399.63, 0.00000063402746, 9.996795, 10.001778 
2.550235e+2, 1.2470731e+2, -1657185.3, -1719622.8, 53247.813, -0.18561052, 0.27393448, -1626679.3, 91224.5, 0.00020976436, 10.000528, 9.999712 
2.550219e+2, 1.3470739e+2, -1509041.4, -1686083.3, 28607.422, -0.11944431, 0.39213082, -1504533.6, 115369.586, 0.00009902971, 10.001261, 9.998916 
2.5502124e+2, 1.4470673e+2, -1338734.9, -1494980.1, 7625.923, 0.059131704, 0.40773702, -1338363.5, 183543.69, 0.000025643241, 10.001504, 9.9994335 
2.5501767e+2, 1.547045e+2, -1285431.9, -1427098.3, 13884.789, -0.041630458, 0.2401902, -1284083.9, 139839.38, 0.0000014046367, 10.001235, 9.999356 
2.5501513e+2, 1.6470319e+2, -1304843.4, -1493558.3, 36918.414, -0.07155915, 0.22136441, -1297878.1, 28057.438, 0.0, 10.000892, 9.998394 
2.550138e+2, 1.747029e+2, -1269071.3, -1428956.5, 17562.68, -0.02563969, 0.35059375, -1267164.9, -39221.367, 0.0, 10.000481, 9.998363 
2.550116e+2, 1.8470195e+2, -1098513.1, -1151068.0, -8659.331, -0.031775545, 0.35862944, -1097123.1, 32828.8, 0.0, 10.000355, 9.999658 
2.5500843e+2, 1.9470032e+2, -965325.44, -1031341.6, 16546.523, -0.09242481, 0.2187718, -961410.4, 70549.84, 0.0, 10.000578, 9.999699 
2.550057e+2, 2.0469886e+2, -1002001.7, -1193790.0, -3099.999, -0.09409056, 0.1907791, -1001951.6, -67978.22, 0.0, 10.000495, 9.9979515 
2.5500333e+2, 2.1469767e+2, -971488.6, -1134456.0, -38333.383, -0.0306819, 0.27536434, -962922.06, -126930.5, 0.0, 10.000057, 9.997897 
2.5500116e+2, 2.2469598e+2, -782326.5, -828621.6, -16747.8, 0.016786998, 0.24762057, -776903.1, -38895.535, 0.0, 9.999978, 9.99936 
2.549992e+2, 2.3469375e+2, -632315.1, -701210.44, 18949.674, 0.04663766, 0.07866843, -627447.0, 12573.788, 0.0, 10.000318, 9.999398 
2.5499654e+2, 2.4469289e+2, -593580.56, -675057.06, 5119.369, 0.053920202, 0.07217083, -593260.2, -51232.51, 0.0, 10.000095, 9.999012 
2.549932e+2, 2.546936e+2, -621183.94, -638284.7, 8902.502, 0.035022113, 0.23617482, -617390.75, -173364.22, 0.0, 9.999236, 9.999005 
2.5498965e+2, 2.6469356e+2, -535559.5, -520810.4, -17919.084, 0.030531947, 0.3257488, -508807.72, -162778.7, 0.0, 9.999042, 9.999234 
2.5498584e+2, 2.7469274e+2, -359113.6, -385978.8, -13894.323, 0.044143774, 0.3121141, -353220.38, -105184.85, 0.0, 9.999584, 9.999226 
2.5498202e+2, 2.846914e+2, -266638.22, -257026.13, -32742.54, 0.0903163, 0.24354526, -228738.78, -78692.39, 0.0, 9.9994, 9.999528 
2.5497818e+2, 2.9468971e+2, -318699.06, -232774.58, -15254.548, 0.16900405, 0.11458033, -230146.75, -178087.06, 0.0, 9.998377, 9.999514 
2.5497422e+2, 3.0468935e+2, -401767.38, -249970.72, -23195.23, 0.20657903, 0.13060991, -246505.48, -246505.48, 0.000000000039700524, 9.997487, 9.999492 
2.549675e+2, 3.1468967e+2, -389966.97, -67429.65, -70618.11, -0.018289965, 0.20304805, -52645.766, -52645.766, 0.00000021774382, 9.9967985, 10.001078 
2.650255e+2, 1.2471062e+2, -1368028.8, -1635520.3, 58623.613, -0.14895734, 0.24925935, -1355744.9, 362121.4, 0.00016526908, 10.002751, 9.999216 
2.6502323e+2, 1.3471021e+2, -1477042.1, -1725236.1, 27020.898, -0.13486339, 0.3644315, -1474134.4, 145737.39, 0.000073295, 10.001713, 9.99843 
2.650224e+2, 1.4470889e+2, -1405416.4, -1556963.6, -3086.9058, 0.03802554, 0.35398006, -1405353.5, 116529.68, 0.000016155976, 10.001175, 9.999167 
2.650188e+2, 1.5470642e+2, -1298846.3, -1461486.9, -30663.674, -0.050025478, 0.18852247, -1293257.1, 130645.08, 0.00000046134082, 10.001265, 9.999105 
2.650164e+2, 1.6470514e+2, -1257203.9, -1458406.6, -8631.108, -0.04565095, 0.18091828, -1256834.4, 69080.14, 0.0, 10.001169, 9.998502 
2.650153e+2, 1.747052e+2, -1204824.6, -1384780.1, 19302.887, 0.05587018, 0.33291522, -1202777.4, 25141.463, 0.0, 10.000867, 9.99848 
2.650127e+2, 1.847045e+2, -1070440.4, -1139835.5, 7509.5356, 0.038407832, 0.3601619, -1069637.0, 60288.17, 0.0, 10.000558, 9.999638 
2.6500866e+2, 1.9470297e+2, -1015265.75, -1058571.0, -21688.313, -0.1104733, 0.23505108, -1006271.7, 25661.611, 0.0, 10.000248, 9.999672 
2.6500577e+2, 2.0470133e+2, -1051535.9, -1224040.8, -38764.3, -0.1179713, 0.19161429, -1043225.3, -109276.19, 0.0, 10.000182, 9.997895 
2.650042e+2, 2.1469958e+2, -925829.44, -1118963.3, -9112.324, 0.030783026, 0.22653882, -925400.44, -89427.32, 0.0, 10.0004, 9.997838 
2.6500183e+2, 2.246983e+2, -719323.75, -756923.8, 30084.105, 0.07430017, 0.2249436, -702648.5, 35337.12, 0.0, 10.000233, 9.99973 
2.6499864e+2, 2.346976e+2, -704311.4, -693641.44, 25359.158, -0.0009636202, 0.1697058, -673062.1, -33077.54, 0.0, 9.999639, 9.999779 
2.6499563e+2, 2.4469705e+2, -700819.75, -699177.44, -15134.151, -0.0037194418, 0.16460878, -684842.2, -142854.69, 0.0, 9.99924, 9.99926 
2.6499274e+2, 2.5469673e+2, -628678.3, -614113.0, -1611.8835, 0.07490875, 0.19938014, -613936.75, -169942.42, 0.0, 9.999064, 9.999254 
2.6498935e+2, 2.646964e+2, -542703.44, -512468.63, 6467.776, 0.10100946, 0.23677757, -511143.16, -165143.4, 0.0, 9.998942, 9.999339 
2.6498532e+2, 2.7469605e+2, -455357.13, -420819.5, 9890.897, 0.070609875, 0.26395258, -418187.53, -170184.5, 0.0, 9.998875, 9.999328 
2.6498115e+2, 2.846954e+2, -340827.78, -289005.5, -41973.29, 0.09086266, 0.25711346, -265589.75, -115581.26, 0.0, 9.998877, 9.999559 
2.6497677e+2, 2.9469448e+2, -236078.3, -188893.84, -49207.15, 0.16463648, 0.20274484, -157915.6, -105900.64, 0.0, 9.998927, 9.99955 
2.6497242e+2, 3.046935e+2, -241355.86, -205700.25, -42142.168, 0.21791509, 0.16917543, -177770.08, -177770.08, 0.0, 9.998727, 9.999201 
2.6496542e+2, 3.1469303e+2, -179985.61, 16140.701, -31820.354, 0.019621547, 0.19339262, 21174.188, 21174.188, 0.000000083141636, 9.998318, 10.000919 
2.7502987e+2, 1.2471547e+2, -1406092.9, -1713205.1, 20662.268, 0.0080590695, 0.37503737, -1404708.9, 313106.8, 0.00013112096, 10.0027485, 9.998683 
2.7502447e+2, 1.3471255e+2, -1513288.1, -1794416.3, -13525.947, -0.18105215, 0.28329626, -1512638.9, 107206.24, 0.000054122807, 10.001691, 9.997964 
2.7502272e+2, 1.4471017e+2, -1453517.5, -1654888.6, -2567.661, -0.048609346, 0.22480617, -1453484.8, 68383.586, 0.000009862749, 10.0011635, 9.998502 
2.750205e+2, 1.5470877e+2, -1344232.3, -1558041.6, -26424.295, -0.007815182, 0.23320082, -1341015.0, 82866.69, 0.00000011248763, 10.001273, 9.99844 
2.7501822e+2, 1.647077e+2, -1205383.8, -1352128.5, -21185.588, 0.017152067, 0.24549535, -1202386.4, 123505.25, 0.0, 10.001174, 9.9992285 
2.7501577e+2, 1.7470701e+2, -1150921.6, -1271417.5, 8089.062, 0.019418754, 0.2458262, -1150381.0, 77516.56, 0.0, 10.000861, 9.99926 
2.750132e+2, 1.8470633e+2, -1120270.5, -1240795.1, -5044.2656, 0.028638426, 0.26729637, -1120059.8, 9844.431, 0.0, 10.000547, 9.998949 
2.750105e+2, 1.9470564e+2, -1067694.9, -1165794.5, -32481.824, 0.045080237, 0.29928252, -1057914.8, -26003.773, 0.0, 10.000241, 9.998939 
2.750076e+2, 2.0470455e+2, -998178.3, -1111357.5, -31962.658, 0.04700511, 0.31139, -989775.6, -55852.508, 0.0, 10.000174, 9.998672 
2.750046e+2, 2.1470302e+2, -869093.9, -999219.6, 448.54083, 0.032950435, 0.28373194, -869092.4, -33151.395, 0.0, 10.000391, 9.998664 
2.750014e+2, 2.247023e+2, -728356.5, -773917.2, 8035.172, 0.0057422523, 0.30265552, -726980.94, 10967.087, 0.0, 10.000225, 9.999617 
2.7499798e+2, 2.3470262e+2, -714496.56, -713144.94, 4057.1106, -0.034424763, 0.36167067, -709707.75, -69765.51, 0.0, 9.999632, 9.999647 
2.7499482e+2, 2.4470213e+2, -674224.9, -643530.56, -23234.172, -0.013057987, 0.35143504, -631032.4, -89087.836, 0.0, 9.999238, 9.999643 
2.7499187e+2, 2.5470078e+2, -601463.1, -557620.25, -7834.107, 0.07942599, 0.24500205, -556262.44, -112306.625, 0.0, 9.9990635, 9.999643 
2.7498862e+2, 2.646996e+2, -535657.6, -496007.22, 2243.4192, 0.1338718, 0.17574964, -495880.7, -149914.36, 0.0, 9.998936, 9.9994545 
2.7498493e+2, 2.7469876e+2, -448323.72, -403669.7, 8484.202, 0.14424111, 0.13915141, -402112.03, -154137.23, 0.0, 9.998864, 9.99945 
2.7498016e+2, 2.8469878e+2, -357495.78, -322712.03, -40855.047, 0.10272144, 0.20434068, -295701.06, -145724.95, 0.0, 9.998874, 9.99933 
2.7497414e+2, 2.946998e+2, -252739.77, -224584.06, -47367.063, 0.0051571396, 0.3663683, -189247.1, -137277.92, 0.0, 9.998932, 9.999303 
2.749702e+2, 3.046987e+2, -212925.81, -148675.92, -59012.754, 0.1232251, 0.3160807, -113610.7, -113610.7, 0.0, 9.998735, 9.999588 
2.74966e+2, 3.1469736e+2, -153985.78, 70112.03, -35969.293, 0.23926604, 0.21115136, 75743.82, 75743.82, 0.000000039236188, 9.998317, 10.001291 
2.8503254e+2, 1.2471792e+2, -1580773.3, -1778849.0, -77193.54, 0.0630883, 0.3856065, -1554243.1, 163549.03, 0.000106857166, 10.00147, 9.998851 
2.8502652e+2, 1.3471502e+2, -1490142.4, -1756688.6, -70849.266, -0.1479123, 0.27430955, -1472480.6, 147339.4, 0.000041325715, 10.001733, 9.998205 
2.8502434e+2, 1.4471273e+2, -1391467.1, -1621696.0, 2001.5155, -0.022494918, 0.20891269, -1391449.6, 130392.914, 0.0000062880904, 10.00158, 9.9985285 
2.850217e+2, 1.547119e+2, -1380466.6, -1573177.3, 27253.95, -0.0038509879, 0.2720037, -1376686.4, 47165.0, 0.000000028346124, 10.001015, 9.998461 
2.8501895e+2, 1.647109e+2, -1260216.0, -1354359.8, 44141.92, -0.003720771, 0.27865, -1242756.8, 83103.62, 0.0, 10.000695, 9.999443 
2.8501603e+2, 1.7470974e+2, -1162433.3, -1252401.8, 29960.0, -0.03246168, 0.20935471, -1153369.5, 74499.28, 0.0, 10.000677, 9.999479 
2.8501344e+2, 1.8470888e+2, -1125133.1, -1281611.8, 10497.424, -0.00859913, 0.22113155, -1124432.0, 5445.586, 0.0, 10.000681, 9.998604 
2.8501123e+2, 1.9470844e+2, -1025202.6, -1186297.0, 8207.21, 0.07314934, 0.31162137, -1024785.56, 7100.8115, 0.0, 10.0007105, 9.998571 
2.8500837e+2, 2.0470771e+2, -911100.94, -1002026.94, 17397.074, 0.09090657, 0.35144186, -907886.0, 26009.195, 0.0, 10.000482, 9.999273 
2.8500482e+2, 2.1470675e+2, -887640.5, -936701.7, 32947.195, 0.036246046, 0.3167029, -871094.75, -35190.793, 0.0, 9.999957, 9.999301 
2.8500134e+2, 2.247062e+2, -828619.0, -848223.7, 24682.127, 0.007158436, 0.33208168, -811863.94, -73954.76, 0.0, 9.999648, 9.999386 
2.8499803e+2, 2.3470627e+2, -738749.2, -752892.44, 9965.768, 0.008345344, 0.39188123, -733601.0, -93691.16, 0.0, 9.999587, 9.999396 
2.8499454e+2, 2.4470583e+2, -617263.94, -586325.8, -17323.777, 0.023989432, 0.385585, -578569.8, -36656.824, 0.0, 9.999501, 9.999908 
2.8499088e+2, 2.5470486e+2, -533364.75, -493033.94, -11889.083, 0.056710728, 0.2890256, -489790.06, -45871.43, 0.0, 9.999396, 9.999927 
2.8498736e+2, 2.6470387e+2, -493924.84, -451435.34, -5787.99, 0.10565466, 0.21246624, -450661.0, -104734.54, 0.0, 9.999116, 9.999675 
2.8498393e+2, 2.7470297e+2, -468941.84, -388454.3, 6211.2437, 0.17196293, 0.14813174, -387977.8, -140042.0, 0.0, 9.998613, 9.999676 
2.8497913e+2, 2.8470325e+2, -420245.28, -336258.78, -10687.305, 0.139669, 0.21951237, -334920.16, -184984.95, 0.0, 9.99837, 9.99948 
2.849728e+2, 2.9470482e+2, -313002.22, -235130.98, 10911.351, 0.000106475665, 0.424651, -233630.97, -181707.5, 0.0, 9.99844, 9.999467 
2.8496847e+2, 3.0470365e+2, -271481.6, -172388.98, -11776.336, 0.096000634, 0.35740122, -171008.69, -171008.69, 0.0, 9.998317, 9.999624 
2.8496394e+2, 3.1470272e+2, -220141.53, 17393.594, -13790.881, 0.22127561, 0.2948853, 18191.588, 18191.588, 0.000000022768178, 9.997952, 10.001102 
2.9503343e+2, 1.24718025e+2, -1519115.8, -1651758.4, -61126.902, 0.0008276213, 0.2823786, -1495242.8, 222552.16, 0.00009036305, 10.001471, 9.999723 
2.9502928e+2, 1.3471773e+2, -1423035.3, -1618606.1, -60155.195, -0.04543069, 0.33691987, -1406013.8, 213782.61, 0.00003357825, 10.001738, 9.999151 
2.9502723e+2, 1.4471662e+2, -1343045.6, -1520867.9, -20377.139, 0.10315824, 0.30740097, -1340740.5, 181065.13, 0.0000046865553, 10.001578, 9.999222 
2.950223e+2, 1.5471584e+2, -1333604.5, -1473052.1, 6164.4116, -0.04536032, 0.30611765, -1333332.6, 90478.73, 0.00000001715619, 10.001004, 9.999153 
2.9501855e+2, 1.6471472e+2, -1283029.6, -1398809.3, 41743.15, -0.11529873, 0.28287894, -1269549.1, 56271.258, 0.0, 10.000683, 9.999145 
2.9501596e+2, 1.7471331e+2, -1186687.6, -1300717.6, 30322.334, -0.10775139, 0.2218337, -1179125.9, 48706.633, 0.0, 10.0006695, 9.999151 
2.950134e+2, 1.8471216e+2, -1128099.5, -1284960.8, 10666.7, -0.082082026, 0.22034182, -1127377.5, 2468.089, 0.0, 10.0006695, 9.998587 
2.9501092e+2, 1.9471131e+2, -1026186.2, -1187149.1, 10192.98, -0.031380225, 0.27243912, -1025543.25, 6316.129, 0.0, 10.000706, 9.998569 
2.9500806e+2, 2.0471081e+2, -882263.4, -940479.2, -2526.4282, 0.008753944, 0.3126226, -882153.94, 51711.5, 0.0, 10.000475, 9.9997 
2.9500476e+2, 2.1471074e+2, -858927.44, -874268.8, 14264.999, 0.035138924, 0.32541454, -850401.5, -14539.237, 0.0, 9.999946, 9.999736 
2.9500166e+2, 2.2470999e+2, -854326.75, -898907.25, 20654.18, 0.07126028, 0.313391, -846228.7, -108359.234, 0.0, 9.999637, 9.9990425 
2.949987e+2, 2.3470856e+2, -765966.3, -807635.7, 8396.189, 0.11994427, 0.2609289, -764338.1, -124450.62, 0.0, 9.999579, 9.999024 
2.949948e+2, 2.4470815e+2, -606799.5, -563975.25, -22268.799, 0.09962822, 0.26867643, -554494.4, -12601.67, 0.0, 9.999498, 10.000064 
2.9498973e+2, 2.5470892e+2, -521806.06, -468294.1, -14659.769, 0.0005435794, 0.32963738, -464541.22, -20658.252, 0.0, 9.9993925, 10.000098 
2.9498553e+2, 2.647091e+2, -472130.0, -405761.22, -25162.3, 0.010690289, 0.3435662, -397300.16, -51419.453, 0.0, 9.999115, 9.999989 
2.949823e+2, 2.7470863e+2, -447024.2, -342787.1, -12261.215, 0.14311238, 0.29131177, -341364.25, -93478.04, 0.0, 9.998613, 9.9999895 
2.9497805e+2, 2.8470874e+2, -382328.25, -257429.61, -10623.874, 0.1914173, 0.30539748, -256532.39, -106646.74, 0.0, 9.998369, 10.000022 
2.9497266e+2, 2.9470956e+2, -274785.38, -151972.36, 14482.689, 0.14316669, 0.37777466, -150287.61, -98409.75, 0.0, 9.998424, 10.000046 
2.9496717e+2, 3.0470836e+2, -296826.25, -221106.19, -25406.557, 0.13220362, 0.29240188, -213371.53, -213371.53, 0.0, 9.9983015, 9.999297 
2.9495916e+2, 3.14709e+2, -270420.4, -89657.13, -14550.599, -0.057121813, 0.427723, -88493.375, -88493.375, 0.000000019534246, 9.997965, 10.000361 
3.0503538e+2, 1.24720514e+2, -1321938.4, -1562984.9, 84139.48, -0.018913893, 0.21578981, -1295474.3, 422294.9, 0.000079028214, 10.002861, 9.9996605 
3.0503103e+2, 1.3472103e+2, -1442939.8, -1625605.9, 1629.2087, -0.035312213, 0.34899172, -1442925.3, 176838.9, 0.000029149944, 10.001594, 9.999171 
3.0502877e+2, 1.4472014e+2, -1391253.0, -1501682.0, 11833.364, 0.1300842, 0.32341465, -1389999.3, 131771.72, 0.000004277796, 10.001065, 9.999599 
3.050235e+2, 1.5471932e+2, -1248369.8, -1388247.0, 14754.219, -0.04499847, 0.2796785, -1246830.4, 176944.7, 0.000000032166714, 10.001401, 9.999544 
3.0501947e+2, 1.6471824e+2, -1218940.8, -1395509.6, 33449.332, -0.11950066, 0.25059068, -1212816.5, 112967.47, 0.0, 10.001244, 9.998896 
3.050167e+2, 1.7471693e+2, -1224462.1, -1349221.6, 23747.861, -0.09626363, 0.2260331, -1220094.6, 7702.955, 0.0, 10.000541, 9.998879 
3.050138e+2, 1.8471593e+2, -1175946.0, -1273840.9, 35158.54, -0.08625214, 0.23871537, -1164627.5, -34817.56, 0.0, 10.000195, 9.998893 
3.0501083e+2, 1.9471529e+2, -1067237.3, -1169711.5, 58924.656, -0.08721288, 0.27967557, -1040388.8, -8568.361, 0.0, 10.000265, 9.998899 
3.050078e+2, 2.0471486e+2, -924504.2, -956017.4, 29646.846, -0.04970328, 0.30757606, -906686.9, 27138.297, 0.0, 10.000166, 9.999742 
3.050046e+2, 2.147147e+2, -866987.44, -875046.7, 13537.637, 0.028057147, 0.30880988, -856892.44, -21069.537, 0.0, 9.999876, 9.999765 
3.0500135e+2, 2.2471388e+2, -872351.56, -910129.1, 25160.754, 0.08325777, 0.28908303, -859778.44, -121947.375, 0.0, 9.999525, 9.99902 
3.04998e+2, 2.3471238e+2, -835159.75, -843444.56, 36776.66, 0.11411458, 0.23107174, -802292.94, -162442.45, 0.0, 9.999116, 9.9990015 
3.0499384e+2, 2.4471222e+2, -698176.2, -579601.0, 25575.467, 0.09114556, 0.25495675, -574319.9, -32466.066, 0.0, 9.99875, 10.000318 
3.049887e+2, 2.5471365e+2, -642317.4, -497122.9, 37941.957, 0.0071010157, 0.35746992, -487805.84, -43967.277, 0.0, 9.998439, 10.0003605 
3.049843e+2, 2.6471427e+2, -570413.06, -431191.4, 30173.127, 0.015509289, 0.39342996, -424933.38, -79100.875, 0.0, 9.998346, 10.000184 
3.049807e+2, 2.7471402e+2, -449131.06, -321836.66, 31677.0, 0.12813851, 0.34174463, -314389.56, -66553.42, 0.0, 9.998507, 10.000184 
3.049765e+2, 2.8471422e+2, -324001.5, -203983.6, 28583.822, 0.18571572, 0.344216, -197523.69, -47689.46, 0.0, 9.998662, 10.000247 
3.049716e+2, 2.9471502e+2, -203864.89, -91226.27, 26324.844, 0.18169148, 0.39296865, -85377.57, -33551.953, 0.0, 9.9987955, 10.000284 
3.0496582e+2, 3.0471396e+2, -224505.66, -175204.44, -22938.826, 0.14844234, 0.30030623, -166182.47, -166182.47, 0.0, 9.998747, 9.999399 
3.0495688e+2, 3.1471485e+2, -218396.17, -98629.17, 26591.057, -0.10623899, 0.45222268, -92990.78, -92990.78, 0.000000009333619, 9.998467, 10.000059 
3.1503832e+2, 1.2472544e+2, -1394170.6, -1712506.4, 44518.348, -0.014072508, 0.18998136, -1388062.0, 329652.28, 0.000070953254, 10.002857, 9.998637 
3.1503174e+2, 1.3472496e+2, -1505109.0, -1757040.8, -45738.938, -0.12735763, 0.3155734, -1497062.0, 122661.07, 0.00002673591, 10.001603, 9.998265 
3.1502905e+2, 1.4472337e+2, -1385385.3, -1489854.8, 21366.475, 0.04626293, 0.26147696, -1381184.3, 140554.05, 0.0000044998383, 10.001067, 9.9996805 
3.1502524e+2, 1.547224e+2, -1242310.0, -1372908.4, 28515.594, -0.012813413, 0.19154154, -1236355.3, 187387.34, 0.00000006594377, 10.00139, 9.999654 
3.1502166e+2, 1.6472144e+2, -1235838.1, -1428529.6, 6977.5273, -0.026625225, 0.18140005, -1235585.8, 90165.45, 0.0, 10.001234, 9.998674 
3.1501815e+2, 1.747206e+2, -1240263.9, -1381918.5, -2082.0942, -0.0055959933, 0.22441792, -1240233.3, -12469.334, 0.0, 10.000541, 9.998655 
3.1501457e+2, 1.847202e+2, -1131284.6, -1181112.6, 35811.906, -0.031071773, 0.2790271, -1112573.0, 17197.441, 0.0, 10.000194, 9.99953 
3.1501096e+2, 1.9472036e+2, -1022142.75, -1073545.6, 62536.035, -0.1021754, 0.33168548, -980232.7, 51537.035, 0.0, 10.000254, 9.999565 
3.1500754e+2, 2.0471983e+2, -951312.5, -1007465.06, 18296.18, -0.09218262, 0.33449298, -945877.2, -12102.457, 0.0, 10.000148, 9.999397 
3.1500426e+2, 2.1471862e+2, -894773.5, -929799.25, 3855.2383, 0.0068325642, 0.2683073, -894354.2, -58568.418, 0.0, 9.999864, 9.999394 
3.1500039e+2, 2.247179e+2, -852713.1, -867872.7, 9031.779, 0.03487595, 0.2610332, -848502.0, -110708.016, 0.0, 9.999517, 9.999314 
3.1499586e+2, 2.3471768e+2, -813500.06, -797787.75, 22531.295, -0.015948744, 0.30219275, -781782.25, -141983.47, 0.0, 9.999112, 9.999317 
3.1499165e+2, 2.4471804e+2, -675207.2, -531204.8, 12420.539, -0.0078537585, 0.34353542, -530141.4, 11655.144, 0.0, 9.998747, 10.000651 
3.1498775e+2, 2.5471908e+2, -618636.5, -447048.94, 26763.125, 0.067159936, 0.37196985, -442971.47, 814.13947, 0.0, 9.998436, 10.000706 
3.1498364e+2, 2.647195e+2, -565128.4, -419583.66, 34469.93, 0.112308174, 0.36325777, -411832.75, -66050.94, 0.0, 9.998343, 10.000265 
3.1497914e+2, 2.7471915e+2, -444554.9, -310795.72, 38969.31, 0.11973074, 0.29853365, -300270.63, -52485.016, 0.0, 9.9985, 10.000263 
3.149745e+2, 2.8471968e+2, -333236.63, -220987.4, 32570.904, 0.11639997, 0.3336646, -212221.06, -62439.844, 0.0, 9.998654, 10.0001335 
3.1496966e+2, 2.9472122e+2, -211348.27, -106841.734, 32487.87, 0.10334416, 0.46890873, -97565.62, -45798.645, 0.0, 9.998797, 10.0001745 
3.1496444e+2, 3.0472037e+2, -185262.42, -96654.055, -34355.242, 0.13496883, 0.37859502, -84894.5, -84894.5, 0.0, 9.998757, 9.999934 
3.1495702e+2, 3.1472015e+2, -206198.48, -74314.3, 24729.09, 0.055817522, 0.3617655, -69829.914, -69829.914, 0.0000000005270663, 9.99847, 10.000225 
3.2504094e+2, 1.2473029e+2, -1510067.3, -1801928.3, 9761.25, -0.006681126, 0.20294663, -1509741.1, 207923.1, 0.000065481014, 10.002205, 9.998338 
3.2503352e+2, 1.3472927e+2, -1359135.6, -1706783.6, -40343.883, -0.16496389, 0.2920352, -1354515.1, 265164.13, 0.000025738174, 10.00269, 9.998088 
3.250304e+2, 1.4472732e+2, -1208343.0, -1444326.4, 41206.547, 0.005094573, 0.22884351, -1201354.6, 320344.7, 0.000005011868, 10.002457, 9.999322 
3.250265e+2, 1.547264e+2, -1263237.4, -1423756.9, 9885.035, -0.023788227, 0.20102085, -1262631.0, 161073.73, 0.000000115129794, 10.001423, 9.9992895 
3.250228e+2, 1.6472559e+2, -1264644.5, -1428480.8, -9503.453, -0.021828221, 0.21703972, -1264095.0, 61617.86, 0.0, 10.000977, 9.998799 
3.2501903e+2, 1.74725e+2, -1132647.8, -1314660.6, 6846.244, -0.004552318, 0.27195433, -1132390.6, 95332.65, 0.0, 10.001213, 9.998794 
3.2501504e+2, 1.8472469e+2, -1018638.8, -1094517.8, 37318.85, -0.031017803, 0.31451535, -1003360.8, 126367.14, 0.0, 10.000829, 9.999817 
3.2501096e+2, 1.9472474e+2, -1074718.5, -1067002.8, 33038.71, -0.10245421, 0.3293493, -1037597.44, -5871.604, 0.0, 9.999754, 9.999852 
3.2500726e+2, 2.0472427e+2, -1049659.9, -1059367.6, 12531.57, -0.09956685, 0.3238146, -1041075.0, -107344.52, 0.0, 9.999492, 9.999357 
3.2500404e+2, 2.1472326e+2, -858207.3, -917387.3, 20852.059, -0.016211055, 0.28284585, -851598.2, -15856.123, 0.0, 10.000137, 9.999348 
3.249998e+2, 2.2472289e+2, -730190.2, -753508.75, 19566.045, -0.005542482, 0.28934088, -719073.0, 18673.719, 0.0, 10.000121, 9.999808 
3.2499447e+2, 2.3472323e+2, -739838.4, -705675.56, 44790.24, -0.07685642, 0.33403555, -674820.1, -35076.938, 0.0, 9.999374, 9.999824 
3.2498989e+2, 2.4472359e+2, -698310.9, -569793.4, 28190.781, -0.05315034, 0.3622855, -563881.56, -22141.373, 0.0, 9.998706, 10.000406 
3.249861e+2, 2.5472406e+2, -683377.5, -507863.75, -5354.8994, 0.07647941, 0.3594619, -507700.53, -63963.58, 0.0, 9.998119, 10.000441 
3.2498202e+2, 2.6472428e+2, -596383.25, -417349.4, 11430.419, 0.13177228, 0.3420776, -416622.56, -70887.51, 0.0, 9.9980545, 10.00042 
3.249775e+2, 2.7472427e+2, -423051.4, -282160.34, 21101.65, 0.102201335, 0.29245496, -279067.78, -31333.178, 0.0, 9.998569, 10.000427 
3.2497266e+2, 2.8472486e+2, -340534.44, -236952.2, 3925.537, 0.07103719, 0.32845658, -236803.66, -87073.76, 0.0, 9.998658, 10.000022 
3.2496756e+2, 2.947262e+2, -297216.38, -162001.69, 875.53, 0.03886356, 0.45629397, -161996.02, -110276.93, 0.0, 9.998268, 10.0000515 
3.249627e+2, 3.0472583e+2, -205952.75, -61042.59, -57358.387, 0.10097747, 0.40164617, -41087.047, -41087.047, 0.0, 9.998422, 10.0003395 
3.2495672e+2, 3.1472564e+2, -97554.99, -4902.7637, -5849.4614, 0.14617147, 0.34838805, -4534.927, -4534.927, 0.0, 9.999144, 10.000378 
3.3504304e+2, 1.24735065e+2, -1480177.8, -1741022.8, 39480.3, -0.021142991, 0.25327945, -1474333.1, 243285.6, 0.000062317085, 10.002211, 9.998752 
3.3503628e+2, 1.3473393e+2, -1322436.8, -1626932.9, -20762.146, -0.15554485, 0.27534392, -1321027.5, 298605.22, 0.000025687143, 10.002676, 9.998642 
3.3503282e+2, 1.4473198e+2, -1268531.3, -1566220.6, 3423.2913, -0.0019752942, 0.22374928, -1268491.9, 253162.08, 0.00000555994, 10.002442, 9.998492 
3.350273e+2, 1.5473135e+2, -1321956.4, -1546287.3, -27376.477, -0.08946281, 0.30923262, -1318663.8, 104997.35, 0.00000016881297, 10.001426, 9.9984455 
3.3502284e+2, 1.6473068e+2, -1231577.5, -1361102.4, -2912.9927, -0.11786394, 0.36061305, -1231512.0, 94156.75, 0.0, 10.00098, 9.999261 
3.3501932e+2, 1.747301e+2, -1098480.9, -1241999.1, 17071.81, -0.09939153, 0.36649835, -1096478.1, 131197.77, 0.0, 10.0012045, 9.999297 
3.350153e+2, 1.8472937e+2, -1026204.4, -1106544.6, -2326.234, -0.09358991, 0.34402138, -1026137.1, 103545.51, 0.0, 10.0008135, 9.9997425 
3.350108e+2, 1.9472848e+2, -1082308.5, -1081814.9, -6089.9434, -0.096019454, 0.27486363, -1075966.8, -44278.01, 0.0, 9.99975, 9.999752 
3.3500695e+2, 2.047282e+2, -1032215.9, -1022071.3, 34389.34, -0.08132469, 0.27896428, -992382.2, -58690.035, 0.0, 9.999486, 9.999617 
3.3500388e+2, 2.147286e+2, -840250.1, -878364.1, 46537.07, -0.04778936, 0.35100862, -809019.25, 26672.758, 0.0, 10.000129, 9.9996195 
3.3499953e+2, 2.2472884e+2, -684111.6, -655216.3, -8236.243, -0.044755574, 0.3736578, -653033.56, 84655.914, 0.0, 10.00011, 10.000489 
3.3499387e+2, 2.3472895e+2, -691505.3, -603961.5, 17706.78, -0.07532512, 0.32610822, -600515.75, 39168.11, 0.0, 9.999368, 10.000525 
3.3498862e+2, 2.4472883e+2, -757262.56, -690798.8, 4977.7695, -0.053148866, 0.3105651, -690428.06, -148743.2, 0.0, 9.9987, 9.9995775 
3.3498377e+2, 2.5472856e+2, -745236.8, -635384.75, -26402.564, 0.026697697, 0.31987312, -629368.44, -185675.92, 0.0, 9.9981165, 9.999565 
3.3497947e+2, 2.647287e+2, -582723.6, -387918.78, 28245.705, 0.0678306, 0.3304698, -383905.97, -38213.684, 0.0, 9.998051, 10.000624 
3.3497572e+2, 2.7472937e+2, -405999.72, -245827.47, 40896.453, 0.066984355, 0.32243332, -235989.7, 11693.647, 0.0, 9.998566, 10.000678 
3.3497104e+2, 2.8472972e+2, -348329.88, -253612.44, -11288.63, 0.04122448, 0.32813567, -252285.61, -102605.21, 0.0, 9.998658, 9.999908 
3.3496526e+2, 2.9472992e+2, -307176.6, -181403.97, -12245.239, -0.018917972, 0.35545838, -180222.86, -128540.92, 0.0, 9.998262, 9.999922 
3.3496052e+2, 3.047303e+2, -189977.17, -24935.092, -32510.957, 0.038810294, 0.36830473, -18761.8, -18761.8, 0.0, 9.998411, 10.000591 
3.3495587e+2, 3.1473136e+2, -86806.51, 17584.563, 28681.217, 0.14254943, 0.40926194, 24945.607, 24945.607, 0.0, 9.9991455, 10.000529 
3.4504503e+2, 1.2473875e+2, -1506669.5, -1748628.5, 23770.924, -0.03170214, 0.24378465, -1504356.3, 213228.52, 0.00006045153, 10.002006, 9.998798 
3.4503868e+2, 1.3473827e+2, -1430771.6, -1661025.4, -83354.0, -0.1408253, 0.3121129, -1403764.4, 215828.34, 0.000025769237, 10.001848, 9.998809 
3.4503496e+2, 1.4473663e+2, -1340034.8, -1577478.5, -52156.793, 0.0015829558, 0.27455765, -1329083.1, 192527.33, 0.000005876301, 10.001851, 9.9987 
3.4502852e+2, 1.5473607e+2, -1214537.1, -1470811.9, -7614.5566, -0.14207427, 0.34501082, -1214311.1, 209305.1, 0.0000002059256, 10.002061, 9.998658 
3.4502354e+2, 1.6473532e+2, -1113922.5, -1284282.1, 49901.33, -0.18184718, 0.36844632, -1100381.9, 225241.75, 0.0, 10.001703, 9.999438 
3.4501997e+2, 1.747345e+2, -1154312.9, -1249006.1, 43434.086, -0.13172375, 0.33476564, -1137408.3, 90223.195, 0.0, 10.000735, 9.999475 
3.4501565e+2, 1.8473373e+2, -1084322.1, -1137729.5, 17063.756, -0.11670411, 0.30018628, -1079335.8, 50301.973, 0.0, 10.000427, 9.999714 
3.450107e+2, 1.9473302e+2, -923110.44, -1008820.25, 15813.881, -0.1334173, 0.25102952, -920285.8, 111356.6, 0.0, 10.00086, 9.999718 
3.4500661e+2, 2.0473278e+2, -866053.0, -941330.44, 56725.07, -0.11872619, 0.26153478, -835615.25, 98030.47, 0.0, 10.000623, 9.999623 
3.4500352e+2, 2.1473308e+2, -911363.3, -911438.44, 47549.23, -0.07124576, 0.3242079, -863851.6, -28204.559, 0.0, 9.999635, 9.999631 
3.4499925e+2, 2.2473349e+2, -796584.6, -683545.75, -34487.816, -0.03999784, 0.3518861, -673854.44, 63788.38, 0.0, 9.999226, 10.000719 
3.4499377e+2, 2.3473404e+2, -661273.06, -562762.25, -45208.883, -0.02773625, 0.3245871, -545160.06, 94472.05, 0.0, 9.999462, 10.000763 
3.4498826e+2, 2.4473378e+2, -646388.7, -676891.94, -56179.035, -0.0051636538, 0.2987858, -603427.8, -61793.36, 0.0, 9.999633, 9.999223 
3.4498268e+2, 2.5473267e+2, -534888.25, -576405.8, -51669.85, 0.027471408, 0.26375908, -499963.1, -56312.445, 0.0, 9.9997425, 9.999187 
3.4497792e+2, 2.6473278e+2, -379220.28, -281381.4, 22831.03, 0.03965338, 0.28401673, -276315.97, 69335.29, 0.0, 9.999412, 10.000699 
3.4497392e+2, 2.7473417e+2, -399201.88, -233500.45, 21706.396, 0.0301226, 0.34214926, -230704.17, 16930.715, 0.0, 9.998572, 10.00076 
3.449692e+2, 2.8473452e+2, -422466.66, -277408.44, -29095.283, 0.020269036, 0.34034044, -271790.22, -122159.07, 0.0, 9.998098, 10.000013 
3.449636e+2, 2.94734e+2, -328769.2, -182187.61, -15458.299, 0.0024425497, 0.2827632, -180575.14, -128936.4, 0.0, 9.998072, 10.000009 
3.4495884e+2, 3.047347e+2, -210296.75, -65744.17, -11300.213, 0.03212958, 0.33895937, -64866.125, -64866.125, 0.0, 9.998404, 10.000316 
3.4495425e+2, 3.1473577e+2, -114777.414, -15889.868, 9008.613, 0.0735535, 0.4077992, -15075.888, -15075.888, 0.0, 9.999041, 10.00035 
3.5504687e+2, 1.2474135e+2, -1531777.3, -1796616.3, 31188.916, -0.05195778, 0.17417887, -1528153.8, 189408.6, 0.00005848329, 10.001989, 9.998476 
3.550406e+2, 1.3474227e+2, -1444693.1, -1690593.6, -87360.33, -0.13396418, 0.40514112, -1416817.0, 202741.83, 0.000025162211, 10.001852, 9.998603 
3.5503682e+2, 1.4474133e+2, -1252816.4, -1399283.3, -45183.6, -0.0011299138, 0.38565657, -1239999.3, 281568.9, 0.0000057861466, 10.00186, 9.999921 
3.5503015e+2, 1.5474054e+2, -1127634.9, -1288806.1, 1495.7151, -0.1864073, 0.30923235, -1127621.0, 295949.0, 0.00000020730299, 10.002052, 9.999913 
3.5502487e+2, 1.6473947e+2, -1123254.1, -1301088.1, 13534.838, -0.21965086, 0.24174984, -1122229.9, 203347.47, 0.0, 10.001692, 9.999328 
3.550209e+2, 1.747382e+2, -1165303.8, -1271120.8, 8318.679, -0.110892646, 0.17834394, -1164653.8, 62936.004, 0.0, 10.000733, 9.999323 
3.5501617e+2, 1.8473777e+2, -1083632.5, -1136655.9, 31081.232, -0.111500405, 0.18577221, -1069291.9, 60301.527, 0.0, 10.000427, 9.999722 
3.5501072e+2, 1.9473828e+2, -921856.56, -1005499.25, 33115.836, -0.22144605, 0.25619087, -910332.94, 121254.3, 0.0, 10.000855, 9.9997425 
3.5500628e+2, 2.0473796e+2, -885274.1, -977646.6, 20045.58, -0.21786751, 0.26878777, -881111.6, 52479.996, 0.0, 10.0006075, 9.999382 
3.5500294e+2, 2.1473673e+2, -930384.94, -948225.25, 11740.5625, -0.09372416, 0.20186362, -924560.25, -88952.81, 0.0, 9.999624, 9.999384 
3.549989e+2, 2.2473684e+2, -813148.1, -715903.94, -27530.813, -0.0011902469, 0.22374375, -708650.7, 28956.238, 0.0, 9.999217, 10.000501 
3.5499412e+2, 2.3473853e+2, -677604.2, -595712.25, -35330.523, 0.059122417, 0.33134556, -582576.6, 57011.195, 0.0, 9.999457, 10.000538 
3.549888e+2, 2.4473843e+2, -639623.7, -661240.2, -53321.293, 0.08553383, 0.32897347, -596026.25, -54437.47, 0.0, 9.999626, 9.999334 
3.549829e+2, 2.5473642e+2, -525910.75, -556859.7, -46914.97, 0.07250828, 0.19133182, -491984.06, -48372.676, 0.0, 9.99974, 9.999323 
3.5497734e+2, 2.6473647e+2, -383060.47, -289570.03, -8309.74, 0.039009485, 0.20057641, -288837.2, 56774.98, 0.0, 9.999412, 10.000644 
3.54972e+2, 2.7473873e+2, -404366.13, -243979.0, -8793.805, -0.01714875, 0.35301894, -243498.28, 4090.7761, 0.0, 9.998571, 10.000688 
3.5496715e+2, 2.8473935e+2, -401611.16, -233823.0, -33079.297, 0.00082842127, 0.36613518, -227536.94, -77954.92, 0.0, 9.998096, 10.000314 
3.5496265e+2, 2.9473847e+2, -308958.2, -139027.23, -15817.051, 0.09591594, 0.23783915, -137567.53, -85977.8, 0.0, 9.998063, 10.000309 
3.5495767e+2, 3.0473912e+2, -267867.5, -183726.58, 11689.061, 0.07364009, 0.31426492, -182132.89, -182132.89, 0.0, 9.998397, 9.999509 
3.5495177e+2, 3.147391e+2, -152449.86, -92206.64, 38494.375, -0.08121512, 0.3567443, -73449.54, -73449.54, 0.0, 9.999034, 9.999828 
3.6504883e+2, 1.2474639e+2, -1401602.5, -1725642.6, 110091.266, -0.09763311, 0.24499427, -1367738.5, 349777.44, 0.000055231107, 10.002847, 9.9985485 
3.6504245e+2, 1.3474676e+2, -1377030.5, -1635130.5, 3391.938, -0.15378314, 0.40095168, -1376985.9, 242528.8, 0.0000235055, 10.002219, 9.998805 
3.6503863e+2, 1.4474568e+2, -1271392.9, -1386981.9, 34509.27, 0.0049075526, 0.34801313, -1261874.0, 259650.05, 0.00000526637, 10.001643, 10.000109 
3.650322e+2, 1.5474503e+2, -1245804.8, -1323680.1, 271.4309, -0.14184156, 0.26654157, -1245803.9, 177721.03, 0.00000017249042, 10.001144, 10.00011 
3.650267e+2, 1.6474417e+2, -1212067.0, -1338505.1, -24882.15, -0.17312317, 0.2067142, -1207346.5, 118183.69, 0.0, 10.00106, 9.999375 
3.6502203e+2, 1.7474316e+2, -1059891.0, -1215580.0, -18151.707, -0.10616641, 0.16517602, -1057802.8, 169736.84, 0.0, 10.001436, 9.999365 
3.6501697e+2, 1.8474281e+2, -968387.8, -1093117.4, 14779.643, -0.1148991, 0.18252139, -966660.44, 162882.31, 0.0, 10.001269, 9.999615 
3.6501163e+2, 1.9474317e+2, -978669.0, -1044968.75, 5414.48, -0.19842514, 0.24940109, -978229.75, 53309.28, 0.0, 10.000516, 9.999636 
3.65007e+2, 2.047428e+2, -942287.5, -987603.75, -7526.884, -0.18144548, 0.25603777, -941070.06, -7526.7217, 0.0, 10.000141, 9.999537 
3.6500317e+2, 2.1474166e+2, -837823.94, -885666.75, 12110.795, -0.06008262, 0.18243822, -834932.94, 623.37823, 0.0, 10.000182, 9.999544 
3.6499864e+2, 2.247416e+2, -715305.1, -709903.75, 1690.5715, 0.008561789, 0.19400783, -709418.25, 28139.307, 0.0, 10.000065, 10.000135 
3.6499333e+2, 2.3474275e+2, -657855.06, -629048.6, -19886.82, 0.022699289, 0.28852415, -618897.06, 20648.23, 0.0, 9.999777, 10.000156 
3.6498794e+2, 2.4474268e+2, -630328.2, -628335.44, -35451.305, 0.03949652, 0.29495537, -593866.5, -52320.473, 0.0, 9.999565, 9.99959 
3.649823e+2, 2.5474128e+2, -551762.44, -538890.7, -19732.793, 0.055118103, 0.18991347, -524570.75, -81009.984, 0.0, 9.999429, 9.999598 
3.649766e+2, 2.647413e+2, -459258.97, -385745.3, -14476.818, 0.04025108, 0.21087188, -382997.2, -37435.52, 0.0, 9.9991455, 10.000111 
3.6497077e+2, 2.747429e+2, -419789.34, -313956.75, -55254.125, -0.0071905055, 0.35150316, -290367.16, -42819.453, 0.0, 9.998734, 10.000129 
3.6496562e+2, 2.8474307e+2, -341208.78, -199866.17, -84958.19, 0.020135304, 0.34632298, -160028.08, -10482.945, 0.0, 9.998489, 10.00036 
3.6496115e+2, 2.94742e+2, -260830.3, -112151.44, -88082.49, 0.12499694, 0.19208927, -71230.836, -19678.646, 0.0, 9.998374, 10.000345 
3.649561e+2, 3.0474257e+2, -267869.66, -201334.22, -20560.438, 0.077899255, 0.27094412, -195493.47, -195493.47, 0.0, 9.998473, 9.9993515 
3.649506e+2, 3.1474203e+2, -157031.23, -69433.914, 53682.3, -0.096622616, 0.2726792, -43949.73, -43949.73, 0.0, 9.998893, 10.000054 
3.750508e+2, 1.2475379e+2, -1369870.8, -1658670.4, 100092.484, -0.18905792, 0.4535346, -1338572.5, 378873.38, 0.000050234245, 10.002839, 9.999013 
3.7504423e+2, 1.347517e+2, -1334801.3, -1547843.8, -19526.27, -0.20142667, 0.30166504, -1333026.4, 286434.38, 0.000020862959, 10.002217, 9.999407 
3.750404e+2, 1.4474969e+2, -1329379.6, -1505755.0, 14235.943, 0.015178662, 0.163863, -1328238.0, 193240.28, 0.000004428325, 10.0016365, 9.999296 
3.7503457e+2, 1.5474954e+2, -1305120.4, -1446115.1, -17116.266, -0.021208303, 0.21748762, -1303072.3, 120408.5, 0.00000011962439, 10.0011425, 9.9992695 
3.7502897e+2, 1.6474938e+2, -1197608.4, -1309459.5, -12014.284, -0.056755766, 0.26325673, -1196332.4, 129149.7, 0.0, 10.001061, 9.999575 
3.7502328e+2, 1.7474936e+2, -1044059.9, -1182374.0, -2738.272, -0.124886, 0.29467285, -1044005.7, 183475.44, 0.0, 10.001433, 9.999596 
3.7501806e+2, 1.847488e+2, -984867.94, -1125384.0, -13633.827, -0.13537663, 0.2904865, -983557.3, 145928.77, 0.0, 10.001261, 9.999398 
3.7501344e+2, 1.9474766e+2, -996275.7, -1079275.3, -21763.725, -0.071489535, 0.23059084, -990915.1, 40582.516, 0.0, 10.000507, 9.999404 
3.750088e+2, 2.0474732e+2, -905396.7, -909311.75, -7448.585, -0.017753227, 0.22486414, -899652.75, 33847.973, 0.0, 10.0001335, 10.000079 
3.7500417e+2, 2.1474789e+2, -799101.7, -803858.0, 14892.24, 0.021931209, 0.2661618, -786398.94, 49094.86, 0.0, 10.000175, 10.00011 
3.7499845e+2, 2.247477e+2, -753117.6, -786353.44, -10378.512, -0.0178114, 0.26266778, -750142.94, -12647.989, 0.0, 10.000055, 9.999616 
3.7499145e+2, 2.3474668e+2, -696676.94, -707639.56, -29863.31, -0.14452802, 0.19299348, -671796.06, -32291.168, 0.0, 9.999767, 9.99962 
3.749856e+2, 2.4474648e+2, -603411.94, -569310.8, -41324.69, -0.15298025, 0.19377142, -541657.4, -150.82033, 0.0, 9.999553, 10.000001 
3.749809e+2, 2.5474724e+2, -522269.3, -476990.13, -23849.23, -0.032044347, 0.26196483, -466746.03, -23247.62, 0.0, 9.999427, 10.000022 
3.7497577e+2, 2.6474732e+2, -531680.94, -537098.7, -31399.244, 0.03868681, 0.3176714, -502873.94, -157374.5, 0.0, 9.999149, 9.99907 
3.7497014e+2, 2.7474666e+2, -495246.88, -468685.47, -69996.83, 0.053456318, 0.33755136, -410720.6, -163209.63, 0.0, 9.998726, 9.999071 
3.749646e+2, 2.8474566e+2, -356539.13, -229153.81, -90278.81, 0.06868196, 0.28001714, -182361.1, -32840.367, 0.0, 9.99848, 10.000162 
3.7495908e+2, 2.9474458e+2, -275252.75, -141222.77, -91733.805, 0.07989127, 0.14516348, -94632.74, -43106.645, 0.0, 9.998373, 10.000144 
3.7495422e+2, 3.0474517e+2, -233350.64, -130975.28, -7203.4717, 0.038603395, 0.2108427, -130470.91, -130470.91, 0.0, 9.998478, 9.999834 
3.7495062e+2, 3.1474462e+2, -90815.27, 71024.19, 71826.79, 0.01260137, 0.16084309, 98303.766, 98303.766, 0.0, 9.998879, 10.001025 
3.8505346e+2, 1.2475944e+2, -1511936.9, -1701790.1, 137160.7, -0.15411742, 0.4429149, -1440057.9, 277330.34, 0.000043715605, 10.001762, 9.999234 
3.8504633e+2, 1.3475698e+2, -1398414.1, -1540775.0, -22917.486, -0.18015142, 0.22047913, -1394815.8, 224588.4, 0.0000174898, 10.001618, 9.999743 
3.8504204e+2, 1.447551e+2, -1363643.4, -1578566.0, 22377.633, 0.0176175, 0.10319593, -1361338.1, 160083.11, 0.0000034194288, 10.001642, 9.998794 
3.8503617e+2, 1.5475534e+2, -1246993.1, -1476617.9, 11540.531, -0.0070083574, 0.2475844, -1246414.6, 177009.97, 0.00000006772674, 10.001793, 9.998748 
3.850304e+2, 1.6475531e+2, -1124256.5, -1265454.5, 27475.723, -0.0412001, 0.32817736, -1119098.4, 206328.3, 0.0, 10.001527, 9.999654 
3.8502443e+2, 1.7475513e+2, -1121583.1, -1208649.6, 25040.111, -0.12558183, 0.33566406, -1114895.4, 112530.87, 0.0, 10.000853, 9.999695 
3.85019e+2, 1.8475439e+2, -1099455.9, -1168259.0, 11561.951, -0.12287365, 0.30218646, -1097565.0, 31867.158, 0.0, 10.000422, 9.999508 
3.8501438e+2, 1.9475299e+2, -1025713.06, -1081370.6, 26577.533, -0.013236514, 0.2065686, -1015060.56, 16384.674, 0.0, 10.000252, 9.999514 
3.8500956e+2, 2.0475271e+2, -883272.6, -889529.44, 60679.38, 0.04034112, 0.1983638, -825641.06, 107805.6, 0.0, 10.000245, 10.000161 
3.8500455e+2, 2.1475372e+2, -757157.1, -774956.8, 45170.938, 0.028602876, 0.2747559, -720017.6, 115416.88, 0.0, 10.000424, 10.000189 
3.8499847e+2, 2.247534e+2, -721516.44, -805790.2, -1624.2314, -0.037833646, 0.2681115, -721485.1, 15951.766, 0.0, 10.0004225, 9.999305 
3.8499123e+2, 2.347516e+2, -653094.1, -722279.8, -7173.62, -0.16555505, 0.15282375, -652358.1, -12902.954, 0.0, 10.000221, 9.999302 
3.8498527e+2, 2.4475111e+2, -547060.94, -547526.56, -24700.88, -0.16118552, 0.14371985, -522591.78, 18867.727, 0.0, 9.999963, 9.999953 
3.8498062e+2, 2.5475213e+2, -493118.4, -468062.53, -44927.71, -0.01203869, 0.24233775, -433948.75, 9498.982, 0.0, 9.999649, 9.999977 
3.849752e+2, 2.64752e+2, -506538.34, -560649.75, -42306.13, 0.052787494, 0.2966598, -483376.34, -137926.16, 0.0, 9.999473, 9.998754 
3.849689e+2, 2.7475068e+2, -415618.97, -466705.8, -26083.668, 0.024409218, 0.2812903, -404654.53, -157186.05, 0.0, 9.999427, 9.998748 
3.8496295e+2, 2.8474936e+2, -280433.22, -247204.22, -25004.842, 0.02069203, 0.23239589, -233797.33, -84315.09, 0.0, 9.999236, 9.999674 
3.849573e+2, 2.9474828e+2, -230894.9, -177814.69, -55190.35, 0.03855675, 0.14679278, -143114.67, -91625.29, 0.0, 9.998925, 9.999627 
3.8495234e+2, 3.047486e+2, -256097.77, -109195.72, 5400.2534, 0.019024365, 0.19837233, -108997.47, -108997.47, 0.0, 9.998179, 10.000125 
3.8494915e+2, 3.1474823e+2, -324539.38, 36872.777, 66944.47, 0.074712284, 0.13418306, 48874.375, 48874.375, 0.000000000002787424, 9.996935, 10.001728 
3.9505672e+2, 1.2476339e+2, -1514016.6, -1705822.6, 147185.97, -0.006991099, 0.21929786, -1434246.4, 283095.97, 0.000036372046, 10.001761, 9.999207 
3.9504877e+2, 1.3476261e+2, -1393395.6, -1529987.9, -27305.115, -0.10007719, 0.15726303, -1388139.5, 231205.52, 0.000013744367, 10.001616, 9.99982 
3.9504355e+2, 1.447619e+2, -1380438.8, -1611325.6, 27805.645, -0.000078572404, 0.16473907, -1377137.3, 144216.13, 0.0000023661473, 10.001632, 9.998574 
3.95037e+2, 1.547624e+2, -1262275.4, -1508346.0, 18356.865, -0.10552048, 0.35640913, -1260913.5, 162443.03, 0.000000028035489, 10.001793, 9.99853 
3.9503103e+2, 1.6476192e+2, -1127223.4, -1271769.4, 1050.9532, -0.13289887, 0.4036724, -1127215.8, 198148.23, 0.0, 10.001527, 9.999611 
3.9502543e+2, 1.7476048e+2, -1124512.4, -1213395.1, 611.34625, -0.114307605, 0.29030472, -1124508.1, 102866.58, 0.0, 10.000846, 9.999665 
3.9501983e+2, 1.8475957e+2, -1069695.8, -1105331.4, 4189.1113, -0.085621685, 0.21935326, -1069210.0, 60170.777, 0.0, 10.000416, 9.999943 
3.9501446e+2, 1.9475916e+2, -994731.9, -1016067.4, 21318.328, -0.030726971, 0.17759043, -981561.1, 49820.746, 0.0, 10.000248, 9.999964 
3.9500928e+2, 2.04759e+2, -910625.8, -945009.2, 65951.72, -0.014534704, 0.17629582, -859661.94, 73719.47, 0.0, 10.000239, 9.9997835 
3.9500424e+2, 2.1475916e+2, -786321.06, -832810.9, 53217.97, -0.04657953, 0.20769711, -751492.94, 83885.625, 0.0, 10.000414, 9.999797 
3.9499873e+2, 2.2475868e+2, -730789.75, -822434.0, -9546.731, -0.058423154, 0.21188241, -729805.8, 7577.378, 0.0, 10.000411, 9.999196 
3.9499268e+2, 2.3475751e+2, -660667.1, -737375.4, -13843.617, -0.046055708, 0.16943474, -658245.25, -18849.105, 0.0, 10.000219, 9.999199 
3.9498693e+2, 2.4475656e+2, -583321.5, -622932.56, -37890.44, 0.008462247, 0.14532982, -560372.56, -18967.525, 0.0, 9.999963, 9.999435 
3.9498147e+2, 2.547559e+2, -529969.6, -542918.3, -55836.54, 0.107923515, 0.12920144, -480233.34, -36824.332, 0.0, 9.999641, 9.999467 
3.9497492e+2, 2.647554e+2, -478018.34, -499918.03, -44731.664, 0.07444065, 0.1456988, -442915.84, -97501.86, 0.0, 9.999467, 9.999173 
3.9496708e+2, 2.74755e+2, -384563.2, -402917.3, -26448.076, -0.10335562, 0.18251733, -365745.25, -118325.25, 0.0, 9.999431, 9.999183 
3.949607e+2, 2.8475422e+2, -335131.56, -363221.8, -37776.73, -0.1334436, 0.20390306, -308873.5, -159444.13, 0.0, 9.999247, 9.998873 
3.9495578e+2, 2.947531e+2, -291311.25, -299730.3, -66215.375, -0.0080031045, 0.19924106, -229171.73, -177729.98, 0.0, 9.99891, 9.998797 
3.9495045e+2, 3.047529e+2, -251326.22, -94875.586, -40760.715, 0.010251513, 0.2355965, -84892.984, -84892.984, 0.0, 9.998161, 10.000233 
3.9494604e+2, 3.1475285e+2, -295144.66, 101176.64, 23266.904, 0.06810781, 0.18604991, 102537.9, 102537.9, 0.000000001718879, 9.996923, 10.002173 
4.050595e+2, 1.2476899e+2, -1304823.8, -1665269.5, 189907.06, 0.007144043, 0.09484712, -1223235.6, 494046.44, 0.00002910368, 10.003455, 9.998669 
4.050508e+2, 1.3476902e+2, -1326609.6, -1550982.1, -44987.71, -0.09067384, 0.16047575, -1317925.5, 301356.47, 0.00001003053, 10.002301, 9.999347 
4.0504488e+2, 1.447688e+2, -1376587.4, -1564113.9, 33848.926, -0.019798143, 0.22182767, -1370664.6, 150622.17, 0.0000013962007, 10.001461, 9.998981 
4.0503812e+2, 1.5476899e+2, -1349342.3, -1500966.8, 70280.63, -0.13126782, 0.33657408, -1321777.1, 101512.984, 0.000000006286357, 10.000981, 9.998972 
4.0503213e+2, 1.6476832e+2, -1253257.6, -1330769.1, 72646.414, -0.13199875, 0.3440607, -1209675.6, 115622.6, 0.0, 10.000653, 9.999626 
4.0502667e+2, 1.7476691e+2, -1177745.5, -1238819.3, 72654.7, -0.05472571, 0.23091805, -1129471.1, 97838.83, 0.0, 10.00048, 9.999668 
4.0502086e+2, 1.8476623e+2, -1056021.9, -1092269.9, 82532.84, -0.025172777, 0.1839538, -989646.44, 139667.36, 0.0, 10.000483, 10.0 
4.0501493e+2, 1.947664e+2, -924048.9, -975666.9, 69132.88, -0.032699484, 0.1923674, -876064.5, 155244.72, 0.0, 10.000705, 10.000021 
4.050093e+2, 2.0476605e+2, -911886.5, -993043.0, 86024.5, -0.04588019, 0.1908319, -857350.06, 75960.71, 0.0, 10.000437, 9.999357 
4.0500396e+2, 2.1476522e+2, -929278.3, -950242.25, 67360.06, -0.07329839, 0.16656269, -871589.56, -36271.086, 0.0, 9.999643, 9.999361 
4.0499857e+2, 2.2476453e+2, -896479.75, -904438.8, 18429.492, -0.056993827, 0.17136529, -881605.06, -144279.1, 0.0, 9.999285, 9.999176 
4.0499303e+2, 2.3476398e+2, -778982.44, -796227.3, 19812.088, 0.009108234, 0.19259934, -765997.8, -126664.74, 0.0, 9.9994135, 9.999184 
4.049873e+2, 2.44763e+2, -631469.7, -672048.9, 17727.781, 0.05997713, 0.17841323, -624816.0, -83473.67, 0.0, 9.9997425, 9.999205 
4.0498126e+2, 2.547616e+2, -451467.22, -531191.3, 18624.236, 0.09100981, 0.11143678, -447331.03, -3977.654, 0.0, 10.000291, 9.999235 
4.0497434e+2, 2.6476073e+2, -378313.7, -453969.06, 5526.3027, 0.036279093, 0.10488671, -377912.16, -32550.938, 0.0, 10.00016, 9.999155 
4.0496638e+2, 2.7476043e+2, -403704.34, -414425.7, -13332.229, -0.110188924, 0.15290885, -394695.44, -147330.3, 0.0, 9.999309, 9.999164 
4.0495998e+2, 2.8475973e+2, -379184.1, -410554.28, -2234.842, -0.11741544, 0.19433923, -379025.7, -229652.39, 0.0, 9.999055, 9.998641 
4.0495524e+2, 2.9475856e+2, -231788.7, -296458.72, 12914.023, 0.019897375, 0.20793149, -229305.25, -177918.81, 0.0, 9.999427, 9.998572 
4.0494907e+2, 3.0475754e+2, -156662.81, -124341.31, -3416.7795, 0.010908832, 0.20618065, -123984.06, -123984.06, 0.0, 9.999133, 9.999561 
4.0494338e+2, 3.147574e+2, -150682.98, 106348.836, -11450.452, 0.046283692, 0.21937124, 106857.93, 106857.93, 0.00000001196501, 9.998186, 10.001603 
4.1506168e+2, 1.2477613e+2, -1382266.0, -1820455.9, 159490.08, -0.12468716, 0.060457937, -1330363.4, 386845.03, 0.000022517497, 10.003432, 9.997614 
4.1505247e+2, 1.347762e+2, -1397592.4, -1699192.4, -87700.03, -0.15745111, 0.22830327, -1373944.9, 245270.19, 0.0000067670235, 10.002303, 9.998329 
4.150461e+2, 1.447758e+2, -1304648.5, -1414435.3, 14483.339, -0.049538404, 0.2749166, -1302770.0, 218451.3, 0.0000006540361, 10.00146, 10.00001 
4.1503954e+2, 1.5477507e+2, -1273990.0, -1341656.6, 53209.18, -0.08866172, 0.19052714, -1244768.5, 178456.81, 0.0000000002364484, 10.000969, 10.000072 
4.1503367e+2, 1.6477454e+2, -1250274.0, -1321417.5, 64772.67, -0.044856183, 0.15099342, -1211948.3, 113281.086, 0.0, 10.00064, 9.999697 
4.1502813e+2, 1.7477436e+2, -1176141.9, -1233695.1, 67073.53, 0.04448376, 0.15844262, -1131932.5, 95299.55, 0.0, 10.000472, 9.999706 
4.1502213e+2, 1.8477441e+2, -1079636.4, -1139969.5, 89488.48, 0.048371144, 0.19655922, -1015366.7, 113864.78, 0.0, 10.000478, 9.999675 
4.1501573e+2, 1.9477472e+2, -949195.25, -1024353.8, 78328.016, -0.024639662, 0.25271598, -899898.25, 131328.92, 0.0, 10.000692, 9.999692 
4.1500962e+2, 2.0477392e+2, -947319.6, -1064014.9, 56026.21, -0.059042357, 0.24434367, -924776.06, 8458.462, 0.0, 10.000424, 9.998877 
4.1500378e+2, 2.1477191e+2, -964828.1, -1021244.0, 38428.02, -0.057654813, 0.15184602, -945366.3, -110111.95, 0.0, 9.999632, 9.9988785 
4.1499802e+2, 2.2477089e+2, -892256.8, -894306.94, 21546.363, -0.041049197, 0.1462507, -871711.1, -134445.9, 0.0, 9.999278, 9.9992485 
4.149923e+2, 2.3477098e+2, -773592.0, -783407.1, 26013.299, -0.0062735872, 0.2225965, -752027.4, -112761.41, 0.0, 9.999407, 9.999275 
4.149863e+2, 2.4477044e+2, -628852.56, -664926.06, 37773.832, -0.014767309, 0.2443091, -605030.2, -63759.152, 0.0, 9.999736, 9.999257 
4.1497996e+2, 2.5476924e+2, -448675.28, -525136.44, 40493.16, -0.070496775, 0.19016832, -431216.78, 12063.921, 0.0, 10.00029, 9.999277 
4.1497344e+2, 2.6476803e+2, -410473.78, -521379.72, -26520.389, -0.06842222, 0.17475253, -404458.38, -59166.54, 0.0, 10.000163, 9.998691 
4.1496676e+2, 2.74767e+2, -438469.25, -484141.6, -43772.5, -0.0010675449, 0.19518428, -411934.16, -164630.45, 0.0, 9.999298, 9.99869 
4.1496083e+2, 2.847659e+2, -355349.9, -358848.97, 10488.893, 0.06286421, 0.20540862, -346465.63, -197151.92, 0.0, 9.999046, 9.999 
4.1495562e+2, 2.9476464e+2, -203739.22, -238700.8, 28064.84, 0.11563163, 0.17184532, -188156.23, -136833.1, 0.0, 9.99943, 9.998967 
4.1494825e+2, 3.047625e+2, -259258.92, -340074.94, -37952.59, 0.012782989, 0.10994884, -244230.42, -244230.42, 0.0, 9.999145, 9.998074 
4.1494104e+2, 3.1476188e+2, -261902.67, -124424.586, -47903.492, -0.012143981, 0.22550413, -109379.375, -109379.375, 0.000000036873733, 9.998186, 10.000016 
4.2506424e+2, 1.2478449e+2, -1572753.0, -1898742.9, 124890.13, -0.14263871, 0.17351694, -1530407.0, 186722.53, 0.000016808834, 10.0020685, 9.997734 
4.2505422e+2, 1.3478361e+2, -1513694.6, -1739777.9, -55376.3, -0.16745639, 0.23317987, -1500859.6, 118284.23, 0.000004238484, 10.001439, 9.998467 
4.250471e+2, 1.4478314e+2, -1351475.6, -1395932.9, 85561.836, -0.067233294, 0.2472142, -1285302.1, 235847.05, 0.00000021832761, 10.000963, 10.000377 
4.2504063e+2, 1.5478271e+2, -1305072.4, -1315097.6, 68293.74, -0.05864058, 0.15609552, -1241607.5, 181540.84, 0.0, 10.000577, 10.000443 
4.2503455e+2, 1.6478245e+2, -1313945.9, -1359082.0, 58143.61, 0.0009607541, 0.12771717, -1274144.1, 51004.926, 0.0, 10.000235, 9.999634 
4.250286e+2, 1.7478251e+2, -1252374.0, -1278800.5, 49565.75, 0.06562663, 0.1657371, -1214290.5, 12859.641, 0.0, 9.999985, 9.999633 
4.2502245e+2, 1.8478248e+2, -1177887.5, -1224034.4, 85011.03, 0.061669894, 0.21348943, -1112874.3, 16277.411, 0.0, 9.999961, 9.999347 
4.2501634e+2, 1.947823e+2, -1046276.75, -1108238.0, 72350.086, -0.0024105373, 0.25645015, -998553.3, 32600.299, 0.0, 10.000186, 9.99936 
4.250103e+2, 2.0478134e+2, -962581.3, -1060370.9, 49361.008, -0.02717467, 0.24590953, -941998.0, -8834.976, 0.0, 10.000276, 9.998972 
4.2500412e+2, 2.1477954e+2, -871258.75, -965387.44, 73437.61, -0.016087135, 0.16252486, -831098.44, 4082.1223, 0.0, 10.000227, 9.998977 
4.2499802e+2, 2.2477858e+2, -746608.9, -811175.94, 101883.836, -0.01555339, 0.15339419, -672016.1, 65174.05, 0.0, 10.000222, 9.999364 
4.2499194e+2, 2.3477864e+2, -638327.1, -704275.25, 106254.65, -0.025320675, 0.21516903, -560047.7, 79142.57, 0.0, 10.000277, 9.999398 
4.249857e+2, 2.4477826e+2, -590628.56, -673396.6, 109760.09, -0.065518096, 0.25683802, -514709.94, 26484.56, 0.0, 10.0001135, 9.999017 
4.2497927e+2, 2.5477737e+2, -548792.5, -601638.44, 89281.62, -0.14020018, 0.25843117, -482105.94, -38902.56, 0.0, 9.999723, 9.999024 
4.2497292e+2, 2.6477596e+2, -507941.94, -590156.1, 6393.8477, -0.10911948, 0.24634643, -507447.66, -162230.5, 0.0, 9.999587, 9.998497 
4.249667e+2, 2.747742e+2, -391127.8, -481256.4, 8374.446, 0.041834537, 0.21325082, -390356.28, -143121.1, 0.0, 9.999709, 9.998511 
4.2496094e+2, 2.8477284e+2, -235977.66, -295079.4, 88986.73, 0.1262657, 0.2032598, -171763.44, -22516.873, 0.0, 9.999839, 9.999056 
4.249555e+2, 2.947718e+2, -113588.7, -186025.67, 79464.164, 0.12801847, 0.18077713, -62478.316, -11225.545, 0.0, 10.00001, 9.999049 
4.2494756e+2, 3.0476904e+2, -156326.19, -319676.56, 16312.643, -0.010229839, 0.06669396, -154713.08, -154713.08, 0.0, 9.999977, 9.997815 
4.2493996e+2, 3.147683e+2, -84503.83, -98508.055, 92428.44, -0.008735765, 0.20399961, 1187.3503, 1187.3503, 0.00000007454206, 9.999666, 9.99948 
4.350671e+2, 1.2479403e+2, -1486069.9, -1714667.6, 115035.73, -0.06733023, 0.43013215, -1438203.9, 278841.75, 0.000012096729, 10.002051, 9.999004 
4.350561e+2, 1.3479128e+2, -1424575.3, -1554330.6, -77006.26, -0.12590949, 0.17601472, -1388760.0, 230308.2, 0.0000025410188, 10.001434, 9.999743 
4.3504795e+2, 1.4479083e+2, -1373655.1, -1439362.0, 70438.6, -0.080265276, 0.14058289, -1328785.0, 192285.3, 0.000000047491298, 10.000952, 10.000084 
4.3504128e+2, 1.547919e+2, -1329350.4, -1364454.1, 54542.023, -0.050807297, 0.23194662, -1289605.8, 133453.69, 0.0, 10.000572, 10.000107 
4.3503475e+2, 1.6479205e+2, -1329366.8, -1389864.3, 47723.863, -0.0050146542, 0.2721085, -1303112.9, 21944.77, 0.0, 10.00023, 9.999424 
4.35028e+2, 1.7479134e+2, -1267032.5, -1307704.3, 41276.035, 0.0049790177, 0.25325057, -1241354.6, -14290.277, 0.0, 9.999979, 9.999436 
4.350219e+2, 1.8479039e+2, -1201637.6, -1271774.1, 91853.31, 0.009167049, 0.23622577, -1138385.9, -9311.432, 0.0, 9.999954, 9.999022 
4.3501684e+2, 1.9478916e+2, -1070596.6, -1156628.9, 81585.84, 0.02682799, 0.20472255, -1021381.3, 9706.989, 0.0, 10.000177, 9.999031 
4.3501124e+2, 2.0478837e+2, -918036.2, -964987.56, 47010.934, 0.04103861, 0.19609709, -888965.4, 44130.727, 0.0, 10.000263, 9.999633 
4.3500498e+2, 2.147881e+2, -825152.3, -866229.6, 72789.69, 0.04406546, 0.19858423, -770059.1, 65037.945, 0.0, 10.000214, 9.999663 
4.3499854e+2, 2.2478762e+2, -737668.1, -789546.2, 102969.68, 0.012304303, 0.19354871, -657420.6, 79679.95, 0.0, 10.00021, 9.999518 
4.3499196e+2, 2.3478697e+2, -629867.1, -684465.3, 109216.984, -0.053350348, 0.169613, -544589.2, 94516.95, 0.0, 10.000267, 9.999538 
4.3498552e+2, 2.4478644e+2, -628184.9, -749681.2, 94438.42, -0.09820055, 0.21625502, -576643.44, -35530.566, 0.0, 10.000107, 9.998496 
4.3497917e+2, 2.54786e+2, -586999.44, -679440.9, 75742.78, -0.12520838, 0.31940445, -544488.44, -101367.164, 0.0, 9.999717, 9.998493 
4.3497267e+2, 2.6478454e+2, -501915.94, -577228.4, 10179.763, -0.0930922, 0.3204889, -500564.22, -155427.2, 0.0, 9.999584, 9.998588 
4.349661e+2, 2.7478206e+2, -383418.16, -465651.5, 14207.602, 0.009726447, 0.20624682, -381032.66, -133873.1, 0.0, 9.99971, 9.998619 
4.3496016e+2, 2.847806e+2, -253196.8, -331530.2, 94626.93, 0.063121796, 0.18755896, -189951.16, -40779.273, 0.0, 9.999843, 9.998803 
4.349547e+2, 2.9477993e+2, -131547.22, -222241.77, 87913.75, 0.04863811, 0.23698622, -77974.305, -26799.086, 0.0, 10.000005, 9.998803 
4.34947e+2, 3.0477712e+2, -86488.01, -173762.97, 5315.738, -0.06521747, 0.07870128, -86165.43, -86165.43, 0.0, 9.999975, 9.998817 
4.3494016e+2, 3.1477666e+2, -44131.863, -16566.84, 79607.97, 0.037835438, 0.142042, 50442.887, 50442.887, 0.0000001100893, 9.999676, 10.000038 
4.450694e+2, 1.2480219e+2, -1546797.8, -1666828.8, 178474.48, -0.0024102991, 0.44607192, -1418518.3, 298448.25, 0.000008573877, 10.001308, 9.999689 
4.450575e+2, 1.3479957e+2, -1533790.4, -1532244.6, -77256.03, -0.07161242, 0.13864043, -1455757.5, 163226.28, 0.0000015653503, 10.000367, 10.000409 
4.450485e+2, 1.4479934e+2, -1537389.3, -1581867.5, 68999.805, -0.07461249, 0.11947794, -1487133.3, 33850.48, 0.000000013935479, 10.000103, 9.999516 
4.4504192e+2, 1.5480016e+2, -1377712.8, -1452814.1, 30547.115, -0.04008154, 0.24443622, -1366857.0, 56122.195, 0.0, 10.000523, 9.999524 
4.4503528e+2, 1.6480011e+2, -1225851.8, -1334132.0, 27618.54, -0.009350856, 0.2914132, -1219214.1, 105766.4, 0.0, 10.000916, 9.999476 
4.4502813e+2, 1.7479923e+2, -1070662.8, -1205032.8, 40260.547, -0.040252667, 0.25086856, -1059523.3, 167463.42, 0.0, 10.001295, 9.999507 
4.4502193e+2, 1.8479815e+2, -1055638.3, -1205717.9, 95778.04, -0.03226554, 0.21891955, -1009004.7, 119992.52, 0.0, 10.000977, 9.998982 
4.45017e+2, 1.947968e+2, -1112846.9, -1182277.0, 104424.87, 0.03740292, 0.17928052, -1037517.94, -6504.8936, 0.0, 9.999908, 9.998986 
4.4501135e+2, 2.0479622e+2, -1018316.9, -990705.0, 84893.1, 0.06418488, 0.18390577, -918502.56, 14516.758, 0.0, 9.999476, 9.999836 
4.4500485e+2, 2.1479656e+2, -879269.8, -868794.7, 73791.8, 0.036135487, 0.22434644, -800054.8, 34959.992, 0.0, 9.99974, 9.999873 
4.4499847e+2, 2.2479622e+2, -792769.7, -829451.8, 74718.47, 0.0015832451, 0.230094, -734174.1, 2842.9746, 0.0, 9.999889, 9.999399 
4.4499218e+2, 2.3479524e+2, -690820.8, -728968.4, 58628.703, -0.037407063, 0.1861505, -648241.25, -9214.833, 0.0, 9.999912, 9.999406 
4.4498596e+2, 2.4479455e+2, -636321.9, -734630.56, 54288.07, -0.054641526, 0.21364556, -612241.4, -71206.68, 0.0, 9.999968, 9.998667 
4.4497976e+2, 2.5479412e+2, -524347.9, -628178.8, 87311.64, -0.05257284, 0.30003822, -474683.13, -31641.16, 0.0, 10.000057, 9.998681 
4.4497332e+2, 2.6479268e+2, -341699.8, -485761.8, 80391.42, -0.03848971, 0.28917956, -305789.88, 39266.684, 0.0, 10.000625, 9.9987135 
4.4496667e+2, 2.747903e+2, -81134.13, -307364.97, 84434.22, -0.004834852, 0.16937931, -53096.316, 193981.72, 0.0, 10.001731, 9.998734 
4.4496045e+2, 2.8478912e+2, 933.3121, -239876.64, 123930.18, 0.014932416, 0.19243622, 53317.363, 202405.73, 0.0, 10.0017185, 9.998531 
4.4495448e+2, 2.9478914e+2, -81493.125, -226269.47, 112831.664, 0.006099387, 0.33334202, -19825.22, 31263.615, 0.0, 10.000468, 9.998553 
4.449466e+2, 3.0478647e+2, -108814.25, -103639.2, 24009.0, -0.07990315, 0.16778313, -82078.695, -82078.695, 0.00000000000009396187, 9.999473, 9.999542 
4.4494003e+2, 3.1478572e+2, -165372.19, -45858.902, 62905.27, 0.10715313, 0.12961271, -18851.904, -18851.904, 0.00000013361628, 9.998715, 10.000302 
4.550712e+2, 1.24809e+2, -1539836.9, -1652132.9, 152852.03, 0.040309165, 0.22584592, -1433146.5, 283745.44, 0.000006189794, 10.001307, 9.999791 
4.5505852e+2, 1.3480844e+2, -1530679.8, -1527529.8, -112145.305, -0.011689724, 0.11954522, -1416948.4, 201942.72, 0.0000010596042, 10.00037, 10.000443 
4.5504877e+2, 1.4480859e+2, -1597311.3, -1704399.3, 84179.914, -0.06187085, 0.17960025, -1551089.4, -30199.568, 0.000000007555667, 10.000095, 9.998677 
4.550425e+2, 1.5480746e+2, -1437458.0, -1575434.3, 48087.84, -0.034462944, 0.19421522, -1422352.1, 555.90875, 0.0, 10.000519, 9.998684 
4.550361e+2, 1.6480663e+2, -1202649.0, -1286123.3, 40614.32, -0.019571474, 0.18917355, -1186149.4, 138768.13, 0.0, 10.000915, 9.999807 
4.5502907e+2, 1.7480622e+2, -1047337.0, -1155278.3, 55667.434, -0.07741856, 0.15955658, -1023772.5, 203144.19, 0.0, 10.001287, 9.999852 
4.5502254e+2, 1.8480577e+2, -1041578.0, -1172835.8, 56037.703, -0.0715553, 0.1616389, -1020908.7, 108011.16, 0.0, 10.000963, 9.999213 
4.550168e+2, 1.9480522e+2, -1098771.6, -1149278.0, 64975.406, 0.022990102, 0.18019025, -1054314.5, -23386.709, 0.0, 9.999894, 9.999218 
4.5501053e+2, 2.048049e+2, -1037853.8, -1027786.2, 92492.25, 0.03560187, 0.20972353, -940190.9, -7258.2964, 0.0, 9.999461, 9.999589 
4.550038e+2, 2.1480486e+2, -898587.2, -906642.5, 84914.53, -0.046322275, 0.24045263, -817604.8, 17328.838, 0.0, 9.999731, 9.999618 
4.549978e+2, 2.2480439e+2, -822254.5, -888991.75, 74968.86, -0.055191293, 0.26398242, -773563.44, -36623.63, 0.0, 9.999882, 9.998994 
4.5499265e+2, 2.3480345e+2, -720382.9, -788814.0, 60260.676, 0.016058093, 0.26571447, -685301.6, -46350.35, 0.0, 9.999906, 9.998998 
4.5498708e+2, 2.4480253e+2, -575640.6, -607376.5, 56549.496, 0.058618546, 0.24915794, -532774.94, 8185.0845, 0.0, 9.999962, 9.999543 
4.549811e+2, 2.5480166e+2, -462152.25, -496446.53, 91512.05, 0.070886664, 0.19751963, -386194.72, 56771.043, 0.0, 10.000046, 9.999591 
4.5497483e+2, 2.6480037e+2, -330989.72, -463798.38, 120881.2, 0.048030876, 0.15047804, -259474.52, 85501.56, 0.0, 10.000625, 9.998864 
4.549684e+2, 2.7479884e+2, -70685.516, -288155.5, 128033.086, -0.009850771, 0.10206521, -11445.008, 235545.69, 0.0, 10.00174, 9.998861 
4.5496175e+2, 2.8479853e+2, -18689.674, -281321.7, 77897.19, -0.026637025, 0.21750906, 2676.5552, 151672.6, 0.0, 10.001722, 9.998244 
4.5495486e+2, 2.947994e+2, -100234.92, -263762.9, 67065.18, -0.0074122464, 0.47176307, -76248.79, -25255.373, 0.0, 10.000463, 9.998299 
4.5494625e+2, 3.0479708e+2, -80448.44, -42137.727, -5062.9175, -0.060347877, 0.33358052, -41479.934, -41479.934, 0.00000000000087855477, 9.999463, 9.999969 
4.5493954e+2, 3.1479543e+2, -168735.08, -51326.32, 26933.586, 0.18220805, 0.16734849, -45442.6, -45442.6, 0.00000014519496, 9.998711, 10.000267 
4.6507198e+2, 1.2481647e+2, -1563466.4, -1707456.6, 130052.31, -0.009885117, 0.080250636, -1486811.3, 230001.1, 0.0000045812567, 10.001342, 9.999392 
4.650595e+2, 1.3481674e+2, -1513677.8, -1574370.6, -187742.98, 0.032915812, 0.105315775, -1353844.5, 264963.66, 0.0000007444035, 10.000725, 9.99995 
4.6504927e+2, 1.4481722e+2, -1555492.3, -1679899.6, 57886.49, -0.036333527, 0.22078064, -1532724.5, -11919.365, 0.0000000034677494, 10.000366, 9.998714 
4.6504292e+2, 1.5481547e+2, -1473125.0, -1586639.1, 85778.12, -0.03218646, 0.16782324, -1427026.6, -4199.394, 0.0, 10.000248, 9.998737 
4.6503672e+2, 1.6481432e+2, -1326983.8, -1363280.3, 95943.734, -0.009535039, 0.13632502, -1247486.9, 77352.78, 0.0, 10.000138, 9.999651 
4.6503025e+2, 1.7481394e+2, -1238346.4, -1265281.5, 70473.15, -0.028892031, 0.12478416, -1180065.5, 46775.066, 0.0, 10.000054, 9.99969 
4.650236e+2, 1.8481365e+2, -1140415.5, -1206185.6, 32722.04, -0.022348573, 0.14531459, -1126909.3, 1933.4631, 0.0, 10.000222, 9.999342 
4.6501714e+2, 1.9481343e+2, -976534.25, -1075066.0, 33681.85, 0.034244377, 0.18476243, -966121.06, 64725.117, 0.0, 10.0006695, 9.999354 
4.650105e+2, 2.0481308e+2, -886490.75, -999002.75, 62340.65, 0.024846366, 0.22376066, -858775.94, 74075.8, 0.0, 10.00069, 9.999193 
4.6500358e+2, 2.148126e+2, -852992.5, -930702.25, 40864.145, -0.06473148, 0.25118855, -835459.56, -600.3778, 0.0, 10.00024, 9.9992075 
4.649977e+2, 2.24812e+2, -794284.0, -869450.3, 49845.65, -0.059757482, 0.2790994, -769440.56, -32572.9, 0.0, 10.000046, 9.99905 
4.6499297e+2, 2.3481125e+2, -680877.8, -761589.8, 69678.24, 0.04748431, 0.29274043, -640712.6, -1835.6279, 0.0, 10.000142, 9.999071 
4.649875e+2, 2.4481045e+2, -511160.13, -544584.1, 66937.25, 0.0863253, 0.26943815, -458880.22, 82003.945, 0.0, 10.00027, 9.9998255 
4.649811e+2, 2.5480956e+2, -383575.44, -427474.06, 52574.617, 0.051023167, 0.19229211, -348552.28, 94336.45, 0.0, 10.00045, 9.99987 
4.6497506e+2, 2.6480868e+2, -360847.53, -454419.2, 68806.03, 0.025745748, 0.15488619, -324427.7, 20467.6, 0.0, 10.000317, 9.999078 
4.649694e+2, 2.7480778e+2, -333199.38, -389738.16, 79650.61, 0.013873149, 0.15230048, -276950.28, -30046.793, 0.0, 9.999832, 9.999082 
4.6496305e+2, 2.8480732e+2, -270350.0, -385811.6, 29433.408, 0.019949533, 0.23405568, -263279.8, -114369.88, 0.0, 9.999922, 9.998393 
4.6495584e+2, 2.948072e+2, -62596.082, -227046.66, 49736.832, 0.03786052, 0.37615246, -48723.758, 2192.1528, 0.0, 10.000641, 9.998466 
4.6494684e+2, 3.048056e+2, 206506.52, 63286.39, -14256.711, -0.050443344, 0.31051594, 207911.89, 207911.89, 0.00000000000042122027, 10.001572, 9.999679 
4.6493965e+2, 3.14805e+2, 353206.34, 125412.28, -52327.25, 0.13120177, 0.28129563, 364651.56, 364651.56, 0.00000014428599, 10.002612, 9.999603 
4.750718e+2, 1.24824606e+2, -1628377.8, -1838263.9, 111259.63, -0.17099269, 0.011045007, -1580377.3, 136350.27, 0.0000033199578, 10.001321, 9.998506 
4.750604e+2, 1.3482454e+2, -1582367.8, -1720184.6, -208700.27, 0.052941248, 0.09919704, -1431494.0, 187240.45, 0.00000048107097, 10.000735, 9.998947 
4.750499e+2, 1.4482525e+2, -1490174.5, -1548602.9, 52493.453, -0.0066608633, 0.24749361, -1459313.5, 61415.727, 0.000000000765976, 10.000382, 9.999609 
4.7504312e+2, 1.5482414e+2, -1409066.6, -1451515.9, 81890.42, -0.038179144, 0.1652709, -1345695.0, 77042.17, 0.0, 10.000239, 9.99967 
4.750371e+2, 1.6482313e+2, -1374577.9, -1459166.5, 92150.96, 0.013331957, 0.13268761, -1315478.9, 9268.26, 0.0, 10.000126, 9.998998 
4.7503152e+2, 1.7482233e+2, -1286883.9, -1364102.6, 68237.66, 0.0939365, 0.146045, -1247090.0, -20331.5, 0.0, 10.000049, 9.999014 
4.7502515e+2, 1.8482175e+2, -1137201.5, -1198879.5, 47624.95, 0.10529758, 0.17106315, -1111302.8, 17462.916, 0.0, 10.000217, 9.999395 
4.750181e+2, 1.9482143e+2, -971710.25, -1065407.4, 51591.55, 0.0642393, 0.19218445, -948870.4, 81897.914, 0.0, 10.000669, 9.999421 
4.750112e+2, 2.0482077e+2, -927905.75, -1081695.1, 45268.074, 0.023538545, 0.22453755, -915570.5, 17206.408, 0.0, 10.000677, 9.998632 
4.7500423e+2, 2.1481977e+2, -894876.9, -1014541.0, 24621.984, -0.025658296, 0.2574117, -890008.75, -55217.297, 0.0, 10.000228, 9.998638 
4.7499818e+2, 2.2481905e+2, -757855.8, -792179.2, 51632.617, -0.01966973, 0.27617377, -720607.5, 16193.102, 0.0, 10.000037, 9.999585 
4.7499317e+2, 2.3481862e+2, -643117.2, -680786.4, 74496.016, 0.050530225, 0.26605135, -585111.7, 53692.01, 0.0, 10.000131, 9.999632 
4.749871e+2, 2.4481826e+2, -535925.7, -594239.2, 72544.766, 0.01959388, 0.27479103, -486897.66, 53909.414, 0.0, 10.000262, 9.999489 
4.7497985e+2, 2.5481793e+2, -409107.5, -480739.78, 60188.598, -0.121404864, 0.2871298, -374884.63, 67926.23, 0.0, 10.000451, 9.999505 
4.74974e+2, 2.6481754e+2, -341451.25, -413697.0, 49699.418, -0.11399493, 0.30568278, -316133.97, 28680.238, 0.0, 10.000316, 9.999357 
4.7496969e+2, 2.748171e+2, -313919.75, -346450.5, 61671.01, 0.059108324, 0.32143047, -266405.22, -19588.646, 0.0, 9.999819, 9.999385 
4.7496426e+2, 2.848155e+2, -230128.36, -300590.1, 54473.67, 0.14799084, 0.24169654, -200485.55, -51655.156, 0.0, 9.999914, 9.998982 
4.7495747e+2, 2.9481253e+2, -19756.256, -139114.28, 79466.016, 0.13366191, 0.041100882, 19944.975, 70801.91, 0.0, 10.000645, 9.999067 
4.7494835e+2, 3.0481192e+2, 136182.16, -84027.1, 25043.82, -0.059680987, 0.09195351, 138994.4, 138994.4, 0.0, 10.001578, 9.998663 
4.7494036e+2, 3.1481442e+2, 266848.56, -59685.613, -19041.588, -0.06926018, 0.48053983, 267955.22, 267955.22, 0.00000012581201, 10.002638, 9.998318 
4.8507237e+2, 1.24833256e+2, -1878592.5, -1944954.0, 89530.055, -0.14924586, 0.055741265, -1816292.4, -99649.13, 0.0000022837717, 9.999544, 9.99863 
4.8506132e+2, 1.3483277e+2, -1537912.5, -1697635.6, -164025.06, 0.056639276, 0.09948539, -1435340.3, 183314.14, 0.0000002759338, 10.001033, 9.99896 
4.8505047e+2, 1.4483334e+2, -1335874.8, -1461071.3, 72222.95, -0.041364357, 0.22767574, -1302897.4, 217751.88, 0.000000000009128432, 10.001386, 9.999726 
4.8504376e+2, 1.5483215e+2, -1374345.4, -1421471.1, 36740.258, -0.004567052, 0.12524062, -1354261.4, 68394.17, 0.0, 10.000419, 9.99979 
4.850377e+2, 1.6483107e+2, -1415104.1, -1525541.9, 52613.76, 0.065849654, 0.100611664, -1394051.6, -69385.24, 0.0, 10.000052, 9.998578 
4.8503193e+2, 1.7483021e+2, -1268216.8, -1403539.1, 46448.95, 0.1114565, 0.15271339, -1253807.6, -27126.486, 0.0, 10.000385, 9.998582 
4.8502555e+2, 1.8482962e+2, -1100351.0, -1198392.0, 32241.563, 0.10901639, 0.20444842, -1090698.5, 37991.69, 0.0, 10.000543, 9.999243 
4.850188e+2, 1.9482931e+2, -1008256.44, -1100037.5, 17296.744, 0.07252807, 0.24229424, -1005104.94, 25588.059, 0.0, 10.000489, 9.99927 
4.85012e+2, 2.0482828e+2, -960975.9, -1114651.6, 6455.3965, 0.044755492, 0.25203472, -960705.2, -28000.156, 0.0, 10.000523, 9.998482 
4.8500508e+2, 2.1482648e+2, -844356.94, -1006689.25, 16353.422, 0.018031148, 0.2191941, -842725.9, -7999.2554, 0.0, 10.000647, 9.998489 
4.8499882e+2, 2.2482583e+2, -656214.25, -698530.3, 57811.18, 0.016553462, 0.2335547, -615810.94, 120923.07, 0.0, 10.000546, 9.99998 
4.8499328e+2, 2.3482642e+2, -603044.56, -616238.9, 65889.8, 0.044671893, 0.2852355, -543422.5, 95303.55, 0.0, 10.000213, 10.000033 
4.8498705e+2, 2.4482621e+2, -604646.1, -684431.56, 61612.156, 0.0033477168, 0.31508166, -571139.3, -30410.855, 0.0, 10.000035, 9.99898 
4.8498014e+2, 2.5482515e+2, -508710.63, -585938.5, 35006.9, -0.115114704, 0.30489597, -495204.34, -52462.09, 0.0, 10.000015, 9.998991 
4.8497432e+2, 2.6482472e+2, -335899.78, -373166.06, 17612.357, -0.10626531, 0.32764524, -328893.34, 15853.71, 0.0, 10.000192, 9.999696 
4.8496976e+2, 2.7482492e+2, -177495.55, -242128.7, 32364.885, 0.045359496, 0.3745444, -164075.4, 82666.664, 0.0, 10.000589, 9.999732 
4.8496452e+2, 2.848233e+2, -60371.336, -189085.28, 38396.06, 0.12930006, 0.26292735, -49787.816, 98966.16, 0.0, 10.000953, 9.999248 
4.8495838e+2, 2.948197e+2, 91656.14, -55735.83, 35635.895, 0.12763765, -0.0287659, 99819.88, 150603.5, 0.0, 10.001283, 9.999332 
4.8495004e+2, 3.0481917e+2, 152359.83, -139140.34, 5454.5557, -0.06452714, 0.044311367, 152461.86, 152461.86, 0.0, 10.001962, 9.998098 
4.849429e+2, 3.1482065e+2, 267052.4, -123969.19, -16721.988, -0.092653126, 0.3869682, 267766.22, 267766.22, 0.00000009052117, 10.002918, 9.997742 
4.9507377e+2, 1.2484241e+2, -1802489.4, -1788352.4, 144391.39, 0.029101878, 0.20960024, -1650856.6, 65703.01, 0.0000015131136, 9.999548, 9.999703 
4.950622e+2, 1.3484138e+2, -1472153.6, -1557375.1, -107149.664, 0.04014122, 0.10502105, -1399453.0, 219115.17, 0.00000014199817, 10.001015, 9.999931 
4.9505085e+2, 1.4484145e+2, -1382785.5, -1555236.0, 37441.37, -0.14586619, 0.16352642, -1375007.3, 145558.27, 0.0, 10.001369, 9.999088 
4.950448e+2, 1.5483953e+2, -1420716.5, -1517996.4, 1079.6317, 0.055357914, 0.052465227, -1420704.5, 1877.5752, 0.0, 10.000421, 9.999126 
4.9503845e+2, 1.648382e+2, -1425959.8, -1551698.9, 62475.61, 0.13339378, 0.045531675, -1400196.4, -75599.7, 0.0, 10.000066, 9.998393 
4.9503142e+2, 1.7483762e+2, -1279712.9, -1428875.0, 60139.9, 0.01944438, 0.14272994, -1258486.0, -31877.56, 0.0, 10.00039, 9.998406 
4.9502483e+2, 1.8483724e+2, -1128477.9, -1253919.4, 30011.18, -0.016364649, 0.24419844, -1121667.6, 6948.8506, 0.0, 10.000532, 9.998867 
4.950191e+2, 1.948371e+2, -1035792.56, -1155300.5, 15955.562, 0.05148754, 0.335695, -1033699.0, -3078.6475, 0.0, 10.000483, 9.998895 
4.9501288e+2, 2.0483562e+2, -942997.94, -1075107.8, 9800.158, 0.07907139, 0.3066099, -942274.9, -9638.639, 0.0, 10.000511, 9.998759 
4.9500614e+2, 2.1483272e+2, -825042.1, -965323.56, 22453.967, 0.058825847, 0.13505255, -821535.7, 13129.114, 0.0, 10.000639, 9.998778 
4.9499962e+2, 2.2483234e+2, -641630.7, -666131.6, 44310.086, 0.039203633, 0.14991827, -607908.8, 128759.31, 0.0, 10.000537, 10.000208 
4.949933e+2, 2.3483466e+2, -587510.25, -583683.44, 54006.45, 0.022719169, 0.35144022, -531556.5, 107087.555, 0.0, 10.000211, 10.000258 
4.949874e+2, 2.4483433e+2, -651384.56, -781050.94, 59483.758, 0.030712746, 0.39152274, -628231.06, -87582.586, 0.0, 10.000033, 9.998317 
4.9498197e+2, 2.548312e+2, -556673.56, -684638.94, 35074.367, 0.064046584, 0.24315453, -547690.56, -105007.3, 0.0, 10.0000105, 9.998316 
4.94976e+2, 2.6483014e+2, -308717.34, -316092.88, 30819.066, 0.041688308, 0.21836245, -281366.2, 63328.133, 0.0, 10.00019, 10.000088 
4.9496952e+2, 2.7483124e+2, -149042.94, -182912.02, 48346.09, -0.037171204, 0.3104829, -114751.28, 131928.92, 0.0, 10.000589, 10.000138 
4.949637e+2, 2.8483078e+2, -66678.33, -201759.61, 49876.234, -0.045878425, 0.2992507, -50258.402, 98422.305, 0.0, 10.000952, 9.999162 
4.949585e+2, 2.9482874e+2, 85487.77, -67394.5, 50192.645, 0.010612564, 0.17426614, 100493.61, 151189.23, 0.0, 10.00128, 9.999252 
4.9495196e+2, 3.0482736e+2, 144977.52, -154793.6, 40625.387, -0.07025087, 0.17314193, 150385.56, 150385.56, 0.0, 10.001963, 9.997991 
4.9494722e+2, 3.1482357e+2, 276126.72, -104008.2, 12498.024, 0.044879574, -0.0019445686, 276537.2, 276537.2, 0.000000050936965, 10.002914, 9.997879 
5.050734e+2, 1.24850236e+2, -1712063.3, -1675897.6, 155667.7, 0.02560295, 0.24595082, -1537266.0, 179218.25, 0.0000009949754, 9.999882, 10.000308 
5.050632e+2, 1.3484904e+2, -1658439.5, -1594440.0, -134478.88, 0.11350214, 0.07752284, -1488206.1, 130284.12, 0.000000065122016, 9.999511, 10.000401 
5.050518e+2, 1.4484905e+2, -1638350.5, -1731533.9, -18023.236, -0.10537574, 0.12850682, -1634986.0, -114497.73, 0.0, 9.9998455, 9.998612 
5.050457e+2, 1.5484709e+2, -1384384.6, -1555802.4, -46648.61, 0.08013674, 0.06490086, -1372512.3, 49997.016, 0.0, 10.000906, 9.998633 
5.050393e+2, 1.6484565e+2, -1230615.1, -1457573.3, 31497.19, 0.13932875, 0.070693634, -1226325.1, 98201.01, 0.0, 10.001405, 9.998394 
5.0503206e+2, 1.7484485e+2, -1149338.8, -1364861.9, 41110.07, 0.00054620515, 0.14537458, -1141763.5, 84773.91, 0.0, 10.001279, 9.998418 
5.0502527e+2, 1.848443e+2, -1082171.1, -1258044.8, 11769.633, -0.04835158, 0.2394886, -1081387.0, 47159.793, 0.0, 10.000963, 9.998631 
5.0501925e+2, 1.9484401e+2, -1054507.4, -1191131.1, 7174.271, 0.018153377, 0.3404301, -1054131.8, -23577.578, 0.0, 10.000469, 9.998655 
5.05013e+2, 2.0484272e+2, -967969.5, -1031830.4, 23454.271, 0.059275884, 0.3178304, -960281.06, -27713.252, 0.0, 10.000101, 9.999254 
5.0500643e+2, 2.1484037e+2, -904172.44, -946874.94, 49245.836, 0.06539548, 0.15087302, -871848.44, -37260.516, 0.0, 9.999852, 9.999285 
5.0499994e+2, 2.248398e+2, -788964.5, -816530.44, 48960.15, 0.050655823, 0.15880229, -751884.25, -15291.519, 0.0, 9.999866, 9.999499 
5.049934e+2, 2.348412e+2, -646245.6, -693568.56, -15599.135, 0.0171097, 0.33949906, -641566.3, -2985.403, 0.0, 10.000158, 9.99953 
5.0498766e+2, 2.4484053e+2, -561476.94, -687271.2, 1624.8206, 0.031914994, 0.3597026, -561455.94, -20867.615, 0.0, 10.000435, 9.998766 
5.0498265e+2, 2.548377e+2, -422573.94, -567516.06, 62263.184, 0.09699005, 0.19381249, -399500.47, 43115.81, 0.0, 10.000708, 9.998784 
5.0497675e+2, 2.6483664e+2, -242462.67, -331328.13, 75802.55, 0.068198904, 0.16624662, -199030.2, 145596.55, 0.0, 10.00085, 9.999665 
5.0497e+2, 2.7483737e+2, -143989.38, -230000.7, 25543.56, -0.05938895, 0.26796287, -136975.44, 109643.69, 0.0, 10.000838, 9.999693 
5.0496423e+2, 2.8483707e+2, -83983.02, -216753.83, -2751.1812, -0.08370872, 0.29932818, -83926.04, 64694.164, 0.0, 10.000861, 9.999101 
5.0495946e+2, 2.9483584e+2, 27578.287, -102678.54, -1158.3452, -0.0048176693, 0.25968745, 27588.588, 78217.19, 0.0, 10.000914, 9.999187 
5.049539e+2, 3.0483478e+2, 80271.23, -163848.73, 32281.486, -0.045007974, 0.2826681, 84467.86, 84467.86, 0.0, 10.001423, 9.998188 
5.049504e+2, 3.1482956e+2, 237511.47, -58088.496, 12822.798, 0.09838689, -0.05738473, 238066.66, 238066.66, 0.000000020855737, 10.002367, 9.998461 
5.150714e+2, 1.2485678e+2, -1703773.8, -1656115.6, 133210.13, -0.16928495, 0.17092788, -1544620.0, 171796.81, 0.00000067894854, 9.9998665, 10.000453 
5.150641e+2, 1.3485582e+2, -1655965.5, -1592884.3, -147204.36, 0.26234734, 0.023116125, -1473879.4, 144540.53, 0.000000029496794, 9.999523, 10.000406 
5.1505333e+2, 1.4485617e+2, -1661508.0, -1782204.8, 19270.799, 0.061156284, 0.1271172, -1658505.9, -138088.94, 0.0, 9.999856, 9.99826 
5.150465e+2, 1.5485482e+2, -1409715.3, -1606570.9, -6361.6533, 0.065184265, 0.15872392, -1409509.9, 12927.797, 0.0, 10.000899, 9.998288 
5.150401e+2, 1.648534e+2, -1218392.4, -1429512.8, 26244.385, 0.0798917, 0.17462775, -1215178.9, 109275.87, 0.0, 10.001392, 9.998593 
5.150338e+2, 1.7485194e+2, -1135468.0, -1335340.8, 36958.836, 0.045745526, 0.16183588, -1128852.9, 97614.836, 0.0, 10.001276, 9.998622 
5.1502675e+2, 1.8485081e+2, -1088443.3, -1270577.5, -7891.8843, 0.00072583964, 0.19249092, -1088101.9, 40379.05, 0.0, 10.00096, 9.998547 
5.150192e+2, 1.9485006e+2, -1061840.6, -1204831.0, -10435.994, -0.033639964, 0.25518325, -1061083.0, -30588.516, 0.0, 10.000462, 9.998565 
5.1501226e+2, 2.0484957e+2, -921692.75, -932507.3, 13197.934, -0.0219847, 0.28451702, -912837.4, 19662.396, 0.0, 10.000087, 9.999943 
5.15006e+2, 2.1484941e+2, -855066.44, -844440.2, 40942.855, 0.030324986, 0.26589748, -808467.1, 26028.932, 0.0, 9.999848, 9.9999895 
5.149997e+2, 2.2484827e+2, -905392.06, -1056797.6, 58420.12, 0.04335531, 0.2591118, -885471.5, -148963.42, 0.0, 9.99986, 9.997853 
5.149936e+2, 2.3484604e+2, -765615.6, -939428.0, -3504.207, 0.019773621, 0.24824359, -765545.0, -127008.234, 0.0, 10.00015, 9.997846 
5.149877e+2, 2.4484481e+2, -453137.2, -460485.13, 10561.197, -0.002721197, 0.21907419, -445629.16, 94919.09, 0.0, 10.000428, 10.000328 
5.1498216e+2, 2.5484464e+2, -309056.1, -332110.4, 73654.68, -0.025055636, 0.15753047, -246032.02, 196509.14, 0.0, 10.000709, 10.000401 
5.149766e+2, 2.6484418e+2, -331400.88, -515345.34, 74809.15, -0.033575363, 0.17213073, -304818.06, 39726.184, 0.0, 10.000847, 9.998403 
5.149712e+2, 2.7484336e+2, -235406.77, -420128.0, 26497.098, -0.026773158, 0.24781653, -231681.06, 14877.889, 0.0, 10.000839, 9.998386 
5.149661e+2, 2.848422e+2, -86991.6, -223509.78, -2240.9539, 0.00821605, 0.26244313, -86954.83, 61618.055, 0.0, 10.000863, 9.999054 
5.149611e+2, 2.9484096e+2, 24009.832, -108493.39, 2232.3733, 0.071578495, 0.2232851, 24047.432, 74630.79, 0.0, 10.000907, 9.99915 
5.149558e+2, 3.0484137e+2, 113026.76, -91398.375, 66720.9, 0.0018365066, 0.3710143, 132876.02, 132876.02, 0.0, 10.001408, 9.998693 
5.149524e+2, 3.1483865e+2, 307739.63, 91217.516, 44473.45, 0.055068173, 0.2321613, 316518.5, 316518.5, 0.0000000053166334, 10.002357, 9.999491 
5.250713e+2, 1.24862485e+2, -1743279.4, -1679759.1, 45033.574, -0.1502028, 0.13247241, -1656412.8, 59948.004, 0.0000005002885, 9.999618, 10.000409 
5.250641e+2, 1.3486172e+2, -1572311.3, -1570435.9, -246232.67, 0.2713615, 0.019593744, -1325139.1, 293224.78, 0.000000016983103, 10.000173, 10.000249 
5.250531e+2, 1.4486238e+2, -1551130.0, -1698211.1, -46255.527, 0.022443952, 0.14914998, -1537792.6, -17433.74, 0.0, 10.00048, 9.998536 
5.250471e+2, 1.5486166e+2, -1467895.1, -1603347.4, -28242.229, 0.06850373, 0.21564071, -1462242.4, -39868.95, 0.0, 10.000364, 9.998569 
5.250411e+2, 1.648605e+2, -1348579.3, -1450134.6, 18998.926, 0.095762886, 0.22494647, -1345141.4, -20754.748, 0.0, 10.000315, 9.998972 
5.250346e+2, 1.748589e+2, -1236394.6, -1342113.0, 40044.516, 0.044933733, 0.1608708, -1222938.9, 3459.2168, 0.0, 10.000399, 9.999001 
5.250274e+2, 1.8485747e+2, -1155945.0, -1300992.5, -175.03401, -0.005090677, 0.14002445, -1155944.8, -27531.75, 0.0, 10.000486, 9.998567 
5.2501965e+2, 1.9485621e+2, -1046609.6, -1195799.0, 2520.7383, -0.036644444, 0.15328257, -1046567.0, -16135.914, 0.0, 10.000559, 9.998581 
5.250125e+2, 2.0485607e+2, -849224.4, -919976.06, 6884.2954, -0.03749146, 0.22370681, -848560.75, 83873.234, 0.0, 10.000682, 9.999742 
5.2500594e+2, 2.1485709e+2, -720661.9, -802509.9, -35909.227, -0.0122349365, 0.34335512, -707141.0, 127279.414, 0.0, 10.000872, 9.9997835 
5.2499974e+2, 2.2485566e+2, -766914.7, -1021411.94, 4767.073, 0.0074537112, 0.33409992, -766825.44, -30390.227, 0.0, 10.000946, 9.997573 
5.2499413e+2, 2.3485164e+2, -675615.5, -926911.2, 46554.72, 0.024318885, 0.17044844, -667268.1, -28787.738, 0.0, 10.000902, 9.997569 
5.249885e+2, 2.4485008e+2, -396691.6, -431375.6, 56783.605, 0.008052453, 0.12333411, -354660.84, 185833.6, 0.0, 10.000807, 10.000345 
5.2498263e+2, 2.5485122e+2, -316572.97, -333592.97, -3804.0598, -0.044950284, 0.18948348, -315761.44, 126713.445, 0.0, 10.0006485, 10.00042 
5.24977e+2, 2.6485094e+2, -383690.8, -579138.6, -27303.25, -0.06541947, 0.23792726, -379948.3, -35471.574, 0.0, 10.000649, 9.998061 
5.249718e+2, 2.748491e+2, -264319.34, -472183.94, -3667.4673, -0.050874617, 0.24519823, -264254.66, -17752.44, 0.0, 10.000804, 9.998048 
5.249668e+2, 2.8484735e+2, -71022.18, -214073.42, 10585.968, -0.0049927044, 0.21673855, -70243.05, 78279.46, 0.0, 10.000966, 9.99907 
5.2496207e+2, 2.9484597e+2, 56936.72, -93266.016, 14948.131, 0.07021321, 0.16332799, 58409.902, 108944.51, 0.0, 10.001134, 9.999146 
5.249574e+2, 3.048469e+2, 92386.94, -101003.79, 79300.96, 0.027219405, 0.36653912, 120746.1, 120746.1, 0.0, 10.001265, 9.998696 
5.249543e+2, 3.1484583e+2, 189201.28, 87896.086, 8490.235, 0.07330429, 0.3876149, 189907.9, 189907.9, 0.00000000056215, 10.001309, 9.999972 
5.35073e+2, 1.2486742e+2, -1762936.0, -1721539.6, 53736.816, 0.04761683, 0.13148922, -1684652.6, 31662.668, 0.00000041209, 9.9996195, 10.000123 
5.3506297e+2, 1.3486673e+2, -1596023.8, -1622406.5, -224056.66, 0.13899454, 0.06414814, -1384770.4, 233551.69, 0.000000018082496, 10.000181, 9.999889 
5.350512e+2, 1.4486766e+2, -1487565.8, -1565575.9, -50579.746, -0.22228904, 0.19398814, -1462698.3, 57615.74, 0.0, 10.000476, 9.999449 
5.350476e+2, 1.5486766e+2, -1403404.4, -1469043.9, -32286.666, 0.07941597, 0.23795313, -1390185.4, 32130.79, 0.0, 10.000362, 9.99949 
5.3504217e+2, 1.64867e+2, -1309910.0, -1371234.5, 19808.29, 0.17249265, 0.22517984, -1304068.3, 20252.957, 0.0, 10.000319, 9.999513 
5.350345e+2, 1.7486575e+2, -1198065.0, -1262791.3, 44031.266, -0.006924247, 0.14103988, -1175782.6, 50546.17, 0.0, 10.000398, 9.999546 
5.350272e+2, 1.8486425e+2, -1148729.9, -1284366.4, 1509.2896, -0.0723373, 0.0813882, -1148713.1, -20370.107, 0.0, 10.00048, 9.998684 
5.350206e+2, 1.9486251e+2, -1039086.4, -1179510.9, 5677.5547, -0.0001768502, 0.03474589, -1038857.25, -8493.045, 0.0, 10.000555, 9.998693 
5.350136e+2, 2.0486219e+2, -926284.6, -1079120.9, 12354.652, 0.0034922028, 0.13700666, -925292.4, 7078.0815, 0.0, 10.000677, 9.9986515 
5.350062e+2, 2.1486339e+2, -800446.06, -965124.1, -27902.965, -0.069517136, 0.38343093, -795846.7, 38514.215, 0.0, 10.000858, 9.998674 
5.35e+2, 2.2486202e+2, -692149.44, -863995.8, 2022.9061, -0.06497056, 0.3830299, -692125.6, 44248.55, 0.0, 10.000936, 9.998658 
5.349951e+2, 2.3485798e+2, -597542.06, -764095.9, 45945.613, 0.024501182, 0.10368748, -585708.25, 52703.65, 0.0, 10.000898, 9.99869 
5.3498983e+2, 2.4485636e+2, -506138.22, -657156.6, 50003.918, 0.057380382, 0.07003167, -491082.34, 49344.797, 0.0, 10.000801, 9.998798 
5.34984e+2, 2.548574e+2, -428071.0, -565723.3, -8741.818, 0.029666323, 0.28709635, -427518.06, 14899.948, 0.0, 10.000649, 9.998826 
5.3497803e+2, 2.6485687e+2, -342130.8, -491939.0, -22504.73, -0.036921058, 0.36100224, -338823.1, 5601.601, 0.0, 10.000647, 9.998661 
5.3497165e+2, 2.7485457e+2, -219438.84, -378887.78, 3375.8674, -0.14188525, 0.25992277, -219367.4, 27081.613, 0.0, 10.000803, 9.998689 
5.3496647e+2, 2.8485247e+2, -66662.086, -203775.56, 15992.57, -0.13435498, 0.16154943, -64821.465, 83647.71, 0.0, 10.000961, 9.999143 
5.349624e+2, 2.948509e+2, 60006.957, -86513.1, 23624.883, -0.014785216, 0.079718664, 63722.035, 114204.27, 0.0, 10.001133, 9.999193 
5.349586e+2, 3.0485147e+2, 54430.473, -178751.67, 81164.38, 0.02449082, 0.27017528, 79899.73, 79899.73, 0.0, 10.001261, 9.998163 
5.3495634e+2, 3.1485087e+2, 182214.83, 74898.62, 10204.336, 0.1357345, 0.39141595, 183176.5, 183176.5, 0.0000000000003731001, 10.001304, 9.999886 
5.45073e+2, 1.2487343e+2, -1847259.8, -1780871.3, 141408.22, 0.11200435, 0.15448105, -1668813.5, 47445.566, 0.00000036785775, 9.9991255, 9.999953 
5.450632e+2, 1.3487299e+2, -1595065.0, -1648694.6, -117810.71, 0.13810277, 0.13654259, -1501056.0, 117210.164, 0.000000024396927, 10.000307, 9.999647 
5.450511e+2, 1.4487381e+2, -1404855.8, -1469913.6, 8803.036, -0.29573345, 0.24270104, -1403685.8, 116572.63, 0.0, 10.000805, 9.999946 
5.450477e+2, 1.548736e+2, -1337357.1, -1381642.0, -10636.02, 0.043261375, 0.21790569, -1334935.0, 87323.0, 0.0, 10.000575, 9.999989 
5.450422e+2, 1.648731e+2, -1291877.8, -1343523.6, 17629.371, 0.14409722, 0.1855919, -1286433.8, 37826.516, 0.0, 10.000365, 9.999679 
5.450342e+2, 1.7487231e+2, -1223495.9, -1256742.9, 11163.103, -0.056807153, 0.13343816, -1220095.5, 6169.238, 0.0, 10.00015, 9.999704 
5.4502714e+2, 1.8487126e+2, -1174839.9, -1286008.9, -32512.063, -0.113964, 0.10471763, -1166029.6, -37754.902, 0.0, 10.000253, 9.998782 
5.450212e+2, 1.9486994e+2, -1009336.06, -1154257.5, -31152.688, -0.0040040542, 0.088727675, -1002923.1, 27367.34, 0.0, 10.000712, 9.998792 
5.4501444e+2, 2.0486903e+2, -906736.5, -1108229.5, -1088.0354, 0.008671282, 0.14527941, -906730.6, 25570.693, 0.0, 10.0009775, 9.998308 
5.4500693e+2, 2.1486859e+2, -798544.75, -1002998.94, 13722.113, -0.086698785, 0.26355803, -797627.9, 36679.08, 0.0, 10.001037, 9.998328 
5.4500073e+2, 2.2486705e+2, -661127.1, -834131.1, 35385.95, -0.0947373, 0.25662348, -654169.2, 82152.34, 0.0, 10.001086, 9.998791 
5.449958e+2, 2.3486438e+2, -552142.56, -726820.94, 2556.058, -0.008114307, 0.10156464, -552105.2, 86240.49, 0.0, 10.001144, 9.998826 
5.4499066e+2, 2.4486293e+2, -495072.72, -729212.44, 1162.0326, 0.046920065, 0.11171796, -495066.97, 45293.67, 0.0, 10.001209, 9.998107 
5.4498535e+2, 2.5486284e+2, -386547.84, -623613.7, 7893.358, 0.06683558, 0.28816453, -386285.3, 56080.125, 0.0, 10.001273, 9.998126 
5.4497945e+2, 2.6486185e+2, -263720.28, -434589.34, 11099.639, 0.019281972, 0.34041876, -263002.28, 81374.85, 0.0, 10.001103, 9.998834 
5.4497284e+2, 2.7485973e+2, -225169.94, -361410.16, -130.2745, -0.097005025, 0.23864882, -225169.81, 21227.164, 0.0, 10.000679, 9.998868 
5.449674e+2, 2.8485787e+2, -112791.45, -240325.44, 5846.0176, -0.12658717, 0.16153982, -112524.04, 35889.727, 0.0, 10.000706, 9.999015 
5.44963e+2, 2.9485658e+2, 58218.707, -102727.87, -3812.0513, -0.07070341, 0.12144966, 58308.945, 108733.71, 0.0, 10.00119, 9.999053 
5.449594e+2, 3.0485615e+2, 12517.575, -209738.1, 39190.87, -0.01213179, 0.2228426, 19225.729, 19225.729, 0.0, 10.001019, 9.998067 
5.449572e+2, 3.1485474e+2, 25673.781, 15340.364, -5214.481, 0.15105373, 0.27311316, 27847.76, 27847.76, 0.000000000015387011, 10.000159, 10.000028 
5.550714e+2, 1.24880545e+2, -1848895.4, -1786627.6, 164652.13, 0.035678197, 0.20549732, -1650191.6, 66000.16, 0.0000003291145, 9.999132, 9.999913 
5.550647e+2, 1.3488051e+2, -1601536.0, -1662567.8, -72728.0, 0.25604838, 0.23718932, -1553181.1, 65014.492, 0.000000025104656, 10.000308, 9.999552 
5.5505276e+2, 1.4488083e+2, -1401706.6, -1462827.4, -757.947, -0.21503511, 0.29617187, -1401697.3, 118494.37, 0.0, 10.0008, 9.999997 
5.5504745e+2, 1.5487953e+2, -1333211.4, -1372619.5, -18374.57, -0.046594393, 0.15651162, -1325973.4, 96225.51, 0.0, 10.000572, 10.000052 
5.5504125e+2, 1.6487879e+2, -1307253.8, -1374930.8, 7964.021, 0.0053389263, 0.10794675, -1306329.1, 17874.453, 0.0, 10.000362, 9.999464 
5.5503386e+2, 1.7487861e+2, -1238969.8, -1288599.4, 3221.8894, -0.11232034, 0.13783747, -1238761.5, -12555.687, 0.0, 10.000149, 9.999486 
5.5502725e+2, 1.848785e+2, -1169972.4, -1275414.8, -17197.076, -0.13906232, 0.20968312, -1167238.6, -39030.5, 0.0, 10.00025, 9.9988575 
5.550214e+2, 1.9487844e+2, -1004712.8, -1143120.4, -13410.421, -0.053570006, 0.31444064, -1003425.5, 26784.56, 0.0, 10.000705, 9.998873 
5.550151e+2, 2.0487656e+2, -879142.6, -1049002.5, 214.68243, -0.028335467, 0.2464132, -879142.4, 53084.27, 0.0, 10.000969, 9.998718 
5.550082e+2, 2.1487272e+2, -771104.5, -943395.94, 17180.867, -0.07199863, -0.016717112, -769407.94, 64850.56, 0.0, 10.001025, 9.998744 
5.5500185e+2, 2.2487079e+2, -720904.1, -956356.4, 36020.63, -0.090559386, -0.042461168, -715516.8, 20760.172, 0.0, 10.001078, 9.997955 
5.549962e+2, 2.3487088e+2, -612496.0, -851382.7, 5430.1543, -0.08029221, 0.16496907, -612372.6, 25908.9, 0.0, 10.001141, 9.997973 
5.5499107e+2, 2.4486983e+2, -483117.94, -703462.25, 2728.3792, -0.031063309, 0.24863037, -483084.16, 57210.72, 0.0, 10.001205, 9.998285 
5.549866e+2, 2.548676e+2, -372547.97, -594977.44, 11375.443, 0.058196552, 0.19065021, -371967.75, 70349.555, 0.0, 10.001275, 9.998322 
5.5498135e+2, 2.6486585e+2, -282209.78, -473344.44, -5598.1885, 0.09574935, 0.17325851, -282045.94, 62288.344, 0.0, 10.001104, 9.998568 
5.549753e+2, 2.7486455e+2, -245070.23, -402903.3, -14945.749, 0.07759357, 0.18000999, -243667.44, 2678.8323, 0.0, 10.000678, 9.998585 
5.5496955e+2, 2.848635e+2, -138020.88, -291936.47, 22739.443, 0.012208185, 0.21478239, -134731.64, 13624.969, 0.0, 10.000703, 9.998663 
5.549639e+2, 2.94863e+2, 33319.297, -153561.0, 14658.108, -0.10578602, 0.28718132, 34462.027, 84824.8, 0.0, 10.001185, 9.998707 
5.549596e+2, 3.048609e+2, 36258.082, -157560.9, 6469.9604, -0.09242596, 0.22604795, 36473.82, 36473.82, 0.0, 10.001005, 9.998431 
5.549569e+2, 3.1485724e+2, 57417.816, 79332.64, -33566.67, 0.100297436, 0.009897043, 103685.086, 103685.086, 0.0000000020600701, 10.000164, 10.000465 
5.650699e+2, 1.24887474e+2, -1795546.6, -1718865.5, 147722.5, -0.040197484, 0.27643874, -1604589.1, 111538.57, 0.00000027083397, 9.999329, 10.000277 
5.650652e+2, 1.3488762e+2, -1728270.1, -1688758.1, -47994.887, 0.32526985, 0.2930205, -1656612.3, -38484.82, 0.000000017878008, 9.999286, 9.999866 
5.650535e+2, 1.4488757e+2, -1587496.3, -1573062.0, 20344.734, -0.15321124, 0.3097855, -1558692.3, -38566.332, 0.0, 9.999616, 9.999811 
5.6504774e+2, 1.5488572e+2, -1388068.9, -1421041.1, -19344.69, -0.05555311, 0.13496768, -1379138.3, 43000.523, 0.0, 10.000293, 9.999853 
5.650413e+2, 1.6488492e+2, -1276920.1, -1380689.9, -10519.734, -0.033308472, 0.098886445, -1275864.4, 48280.67, 0.0, 10.00066, 9.99928 
5.6503403e+2, 1.748852e+2, -1169046.9, -1275331.1, -15836.568, -0.13366525, 0.19117671, -1166737.4, 59407.145, 0.0, 10.000717, 9.999303 
5.650274e+2, 1.8488508e+2, -1086608.4, -1214056.0, -18171.424, -0.16496223, 0.26525673, -1084068.1, 44077.805, 0.0, 10.000732, 9.999044 
5.650216e+2, 1.9488463e+2, -990352.25, -1114793.8, -7662.7764, -0.111297205, 0.3088495, -989882.2, 40266.984, 0.0, 10.000711, 9.999064 
5.6501555e+2, 2.0488253e+2, -891866.0, -1034790.9, 399.81854, -0.069725566, 0.20308773, -891864.9, 40300.996, 0.0, 10.000794, 9.9989 
5.650095e+2, 2.1487874e+2, -762267.6, -918789.25, -3461.4346, -0.044863835, -0.07251614, -762191.06, 72005.555, 0.0, 10.000999, 9.998925 
5.650034e+2, 2.2487706e+2, -741219.5, -996010.5, 25200.252, -0.040141582, -0.07090498, -738750.94, -2537.6946, 0.0, 10.001066, 9.997688 
5.649975e+2, 2.3487757e+2, -653936.06, -900927.44, 36651.086, -0.054796193, 0.20618547, -648612.2, -10397.099, 0.0, 10.000984, 9.997707 
5.6499213e+2, 2.4487622e+2, -518732.1, -735350.7, 51415.09, -0.043420553, 0.2792241, -507148.03, 33083.563, 0.0, 10.001026, 9.998151 
5.649872e+2, 2.548729e+2, -391411.88, -619950.5, 33597.28, -0.0051582456, 0.124748364, -386575.13, 55688.344, 0.0, 10.001212, 9.998181 
5.649821e+2, 2.6487073e+2, -240502.45, -458408.75, 4431.7, 0.046726007, 0.0752935, -240412.36, 103871.0, 0.0, 10.001415, 9.998519 
5.649768e+2, 2.7486974e+2, -110901.59, -342263.3, 10313.012, 0.111026466, 0.1172514, -110442.805, 135848.38, 0.0, 10.001621, 9.998543 
5.649712e+2, 2.8486884e+2, -60803.133, -310268.44, 58115.746, 0.07425534, 0.19196719, -47928.83, 100371.875, 0.0, 10.001472, 9.998165 
5.649653e+2, 2.9486823e+2, -34811.063, -245164.22, 36011.39, -0.06838541, 0.30948126, -28816.904, 21492.746, 0.0, 10.000968, 9.998184 
5.649607e+2, 3.048654e+2, -853.02136, -190012.78, -6797.636, -0.07460189, 0.20339845, -609.05646, -609.05646, 0.0, 10.00081, 9.998304 
5.64957e+2, 3.1486174e+2, 159948.78, 99174.84, -88994.45, 0.054700952, 0.001868757, 223601.06, 223601.06, 0.000000017271022, 10.0009985, 10.0002 
5.750683e+2, 1.2489434e+2, -1746861.1, -1621580.9, 123049.664, -0.13462822, 0.36764133, -1546144.9, 169920.2, 0.00000019303324, 9.999339, 10.000942 
5.7506466e+2, 1.3489439e+2, -1677818.9, -1587544.3, -48530.05, 0.3410474, 0.3080665, -1566405.3, 51655.293, 0.000000007774616, 9.999298, 10.000557 
5.750535e+2, 1.4489411e+2, -1617924.4, -1636418.0, 43977.094, -0.11655729, 0.28749532, -1582232.5, -62171.965, 0.0, 9.999617, 9.999376 
5.750487e+2, 1.5489222e+2, -1419548.4, -1485299.9, 6694.7935, 0.00719325, 0.15335672, -1418873.6, 3203.798, 0.0, 10.000289, 9.999414 
5.7504255e+2, 1.6489151e+2, -1288724.4, -1404264.8, -9409.757, 0.017929347, 0.1571185, -1287963.0, 36121.297, 0.0, 10.000654, 9.999123 
5.750349e+2, 1.7489205e+2, -1180357.5, -1298645.1, -12814.906, -0.12733278, 0.2932989, -1178985.1, 47095.3, 0.0, 10.000714, 9.9991455 
5.750278e+2, 1.8489107e+2, -1066620.8, -1170998.4, -20061.72, -0.20074505, 0.27113, -1062897.6, 65190.516, 0.0, 10.000727, 9.999343 
5.750215e+2, 1.9488849e+2, -970472.4, -1070634.0, -7701.66, -0.18531005, 0.073263064, -969883.6, 60223.992, 0.0, 10.0007, 9.999372 
5.7501584e+2, 2.0488703e+2, -897766.6, -1045342.0, 6515.021, -0.121722475, 0.018402914, -897479.56, 34639.188, 0.0, 10.000786, 9.998833 
5.750107e+2, 2.1488672e+2, -768268.9, -929670.2, 4852.3564, -0.0122969095, 0.09710592, -768123.1, 65998.23, 0.0, 10.000992, 9.998854 
5.7500535e+2, 2.2488587e+2, -719724.0, -949561.3, 21025.99, 0.04881487, 0.1698388, -717816.3, 18314.182, 0.0, 10.001059, 9.998012 
5.749997e+2, 2.3488447e+2, -632449.6, -853958.8, 34271.26, 0.06176504, 0.22455241, -627268.44, 10877.938, 0.0, 10.000975, 9.9980345 
5.749936e+2, 2.4488212e+2, -551023.94, -801357.5, 57113.14, 0.0032498054, 0.20370688, -538609.4, 1561.3491, 0.0, 10.00102, 9.997701 
5.749871e+2, 2.5487876e+2, -424154.25, -687353.4, 41795.934, -0.13165721, 0.09171446, -417676.5, 24527.271, 0.0, 10.00121, 9.997719 
5.749817e+2, 2.6487648e+2, -229893.34, -436276.2, 11539.655, -0.13490187, 0.047137175, -229250.13, 114973.98, 0.0, 10.001414, 9.9986725 
5.749773e+2, 2.748753e+2, -98179.766, -315910.72, 18696.332, -0.004213061, 0.051303126, -96585.99, 149645.67, 0.0, 10.001621, 9.998724 
5.7497245e+2, 2.8487384e+2, -105666.44, -402477.06, 37773.645, 0.051369116, 0.09351435, -100934.6, 47311.51, 0.0, 10.001468, 9.997534 
5.7496727e+2, 2.9487234e+2, -82709.734, -342395.13, 18338.58, 0.031493295, 0.18446536, -81421.086, -31155.385, 0.0, 10.000959, 9.9975195 
5.7496256e+2, 3.0486953e+2, -48917.707, -289222.13, -921.0115, 0.03500188, 0.15217784, -48914.176, -48914.176, 0.00000000021282408, 10.000806, 9.997626 
5.749576e+2, 3.1486815e+2, 90966.64, -45204.01, -76051.55, 0.0038246003, 0.241016, 124957.016, 124957.016, 0.0000000699572, 10.001001, 9.999208 
5.850682e+2, 1.2489983e+2, -1715322.4, -1605193.9, 102737.19, -0.08262066, 0.33247495, -1543694.9, 172316.64, 0.00000011738098, 9.999551, 10.000952 
5.850637e+2, 1.3490015e+2, -1592760.6, -1541278.5, -97932.83, 0.29207265, 0.2974764, -1465760.3, 152244.05, 0.0000000014227642, 9.999862, 10.000599 
5.8505243e+2, 1.4490005e+2, -1563558.1, -1605842.8, -3991.192, -0.20610079, 0.29151842, -1563184.8, -43181.434, 0.0, 9.999973, 9.999413 
5.850488e+2, 1.5489863e+2, -1478972.9, -1510201.5, -9232.093, 0.008040559, 0.19917706, -1476447.8, -54430.402, 0.0, 9.999866, 9.999447 
5.850433e+2, 1.6489804e+2, -1366512.9, -1416435.0, 7040.581, 0.06224443, 0.20179418, -1365538.9, -41516.36, 0.0, 10.000011, 9.999349 
5.8503586e+2, 1.7489834e+2, -1204246.6, -1284804.1, 30641.852, -0.08485729, 0.2918981, -1193916.0, 32102.205, 0.0, 10.000442, 9.999372 
5.850288e+2, 1.8489704e+2, -1099922.4, -1212315.5, 7872.156, -0.1692401, 0.23759632, -1099373.6, 28654.566, 0.0, 10.0006075, 9.999116 
5.8502215e+2, 1.9489405e+2, -1017524.6, -1118935.5, -22108.799, -0.17717937, 0.020993527, -1012914.25, 17138.691, 0.0, 10.000488, 9.999142 
5.8501655e+2, 2.0489283e+2, -959463.25, -1102925.6, -23576.387, -0.115274884, 0.013623768, -955688.06, -23624.367, 0.0, 10.0004835, 9.998581 
5.8501184e+2, 2.1489343e+2, -840220.9, -991993.3, -40419.188, 0.014648514, 0.20935063, -830127.9, 3932.2288, 0.0, 10.000619, 9.998604 
5.8500665e+2, 2.2489253e+2, -724157.8, -913981.1, -29823.838, 0.07822313, 0.27400416, -719582.4, 16486.541, 0.0, 10.000866, 9.99835 
5.8500093e+2, 2.348901e+2, -570501.56, -786688.4, -17095.963, 0.0740021, 0.1896674, -569158.0, 68932.625, 0.0, 10.001237, 9.998372 
5.8499485e+2, 2.4488749e+2, -509551.22, -800176.0, 15402.726, 0.0094809355, 0.13400032, -508737.2, 31378.707, 0.0, 10.001387, 9.997534 
5.849885e+2, 2.548847e+2, -424038.56, -706163.3, 19349.129, -0.120685406, 0.09601417, -422717.72, 19427.092, 0.0, 10.001293, 9.99755 
5.84983e+2, 2.6488262e+2, -261549.36, -473700.44, -6955.6035, -0.14166233, 0.08977727, -261321.56, 82842.88, 0.0, 10.001293, 9.998472 
5.8497834e+2, 2.7488124e+2, -143409.28, -361542.3, -29328.309, -0.051183637, 0.09775469, -139534.86, 106639.92, 0.0, 10.001411, 9.998513 
5.8497345e+2, 2.848794e+2, -118556.96, -398316.03, -18491.729, 0.006362704, 0.104076095, -117339.98, 30852.629, 0.0, 10.001335, 9.997626 
5.8496827e+2, 2.9487717e+2, -69892.18, -326107.47, 13868.499, 0.032180402, 0.11381304, -69143.69, -18927.15, 0.0, 10.001004, 9.997609 
5.849637e+2, 3.0487445e+2, -27888.047, -277077.66, 78137.6, 0.056368787, 0.08278263, -5413.6494, -5413.6494, 0.000000006848287, 10.000945, 9.99764 
5.8495843e+2, 3.1487432e+2, 100065.14, -81728.26, 57238.95, -0.019764192, 0.29817683, 116585.88, 116585.88, 0.00000018333391, 10.001239, 9.998841 
5.9506965e+2, 1.2490405e+2, -1759130.1, -1696905.3, 88196.97, 0.09570921, 0.17837283, -1634494.0, 81471.65, 0.000000058921596, 9.999551, 10.000323 
5.950624e+2, 1.3490497e+2, -1633181.0, -1626148.5, -85672.445, 0.17194481, 0.26067477, -1543920.1, 74037.984, 0.000000000010343272, 9.999864, 10.000016 
5.9505016e+2, 1.4490548e+2, -1529142.3, -1534055.1, -8643.085, -0.42838806, 0.3188917, -1522613.4, -2659.5078, 0.0, 9.9999695, 9.9999075 
5.9504795e+2, 1.5490498e+2, -1444388.4, -1437854.6, -12170.917, -0.058698103, 0.2713264, -1428519.8, -6561.6167, 0.0, 9.999863, 9.999945 
5.9504366e+2, 1.6490452e+2, -1326443.0, -1331409.5, 21402.951, 0.090103686, 0.23308888, -1307379.8, 16579.777, 0.0, 10.000003, 9.999935 
5.9503704e+2, 1.7490408e+2, -1162676.0, -1198002.5, 47306.51, -0.014279981, 0.18822978, -1129842.8, 96115.055, 0.0, 10.000439, 9.999969 
5.950303e+2, 1.8490301e+2, -1153342.9, -1322060.6, 2197.4934, -0.07899596, 0.16534083, -1153314.3, -25348.021, 0.0, 10.000602, 9.998366 
5.950235e+2, 1.949013e+2, -1071863.1, -1230304.9, -26403.62, -0.094226, 0.15288919, -1067579.0, -37593.965, 0.0, 10.000483, 9.99838 
5.9501755e+2, 2.0489992e+2, -990690.56, -1165421.3, -20178.021, -0.058354255, 0.18870778, -988390.6, -56389.973, 0.0, 10.000474, 9.998157 
5.950126e+2, 2.148989e+2, -871740.4, -1054225.6, -34495.426, 0.029329747, 0.2633834, -865437.4, -31424.459, 0.0, 10.000606, 9.998183 
5.950071e+2, 2.248971e+2, -700628.9, -863471.0, -17147.078, 0.040884897, 0.24127696, -698842.9, 37185.49, 0.0, 10.000857, 9.998701 
5.9500116e+2, 2.3489447e+2, -545901.7, -734575.8, -1951.8999, -0.02703202, 0.102112934, -545881.5, 92166.02, 0.0, 10.001233, 9.998732 
5.9499586e+2, 2.4489231e+2, -503336.22, -786134.1, 11134.982, -0.03295816, 0.07003304, -502898.47, 37168.574, 0.0, 10.001381, 9.997633 
5.9499127e+2, 2.548907e+2, -416579.06, -689789.3, 16401.818, 0.023659496, 0.13786873, -415597.94, 26488.588, 0.0, 10.001289, 9.9976635 
5.9498596e+2, 2.6488915e+2, -301316.78, -555418.25, -3830.1343, 0.02240417, 0.20547396, -301259.06, 42845.168, 0.0, 10.001288, 9.997914 
5.949799e+2, 2.7488762e+2, -184045.16, -445906.25, -23210.943, -0.04011338, 0.25584203, -182003.69, 64116.926, 0.0, 10.0014105, 9.997934 
5.94974e+2, 2.8488547e+2, -64220.2, -283527.7, -31820.244, -0.072039366, 0.22309618, -59696.574, 88443.66, 0.0, 10.001327, 9.998419 
5.9496826e+2, 2.9488274e+2, -12885.12, -205023.53, 1408.8534, -0.071952276, 0.102378435, -12874.79, 37286.91, 0.0, 10.000994, 9.9984455 
5.949639e+2, 3.0488008e+2, 21629.305, -172497.27, 87756.26, -0.015108379, -0.0019343044, 55418.77, 55418.77, 0.000000033052434, 10.0009365, 9.998363 
5.949596e+2, 3.148803e+2, 123837.055, -32288.951, 79073.9, -0.03432087, 0.17557345, 156888.92, 156888.92, 0.00000037488923, 10.001239, 9.999182 
6.050688e+2, 1.2490961e+2, -1915575.9, -1801233.6, 86098.9, 0.102998644, 0.1599671, -1755053.1, -39143.754, 0.000000021349177, 9.998607, 10.000062 
6.0506237e+2, 1.3491035e+2, -1719678.3, -1691135.1, -39919.89, 0.20854914, 0.2461495, -1663012.5, -45106.67, 0.0, 9.999375, 9.9998045 
6.050502e+2, 1.4491093e+2, -1560434.3, -1545376.4, 14274.322, -0.40896815, 0.32268637, -1536767.1, -16865.148, 0.0, 9.9997425, 9.999938 
6.0504764e+2, 1.5491107e+2, -1454709.3, -1439539.8, -27511.797, -0.07270352, 0.33393797, -1418586.3, 3314.7441, 0.0, 9.99978, 9.999972 
6.0504335e+2, 1.6491058e+2, -1358309.1, -1338049.5, -21287.674, 0.07688842, 0.28824976, -1324604.4, -702.10266, 0.0, 9.999746, 10.000013 
6.050373e+2, 1.7490947e+2, -1278424.8, -1244467.6, -35998.465, 0.01204908, 0.16771963, -1221644.6, 4261.2666, 0.0, 9.999606, 10.000051 
6.050312e+2, 1.849084e+2, -1265458.5, -1405685.9, -71921.21, -0.019851744, 0.15398116, -1235130.3, -107215.31, 0.0, 9.999961, 9.998101 
6.0502493e+2, 1.949074e+2, -1036351.94, -1244107.9, -65494.46, -0.012614655, 0.23884133, -1017428.6, 12500.893, 0.0, 10.000859, 9.998105 
6.0501903e+2, 2.0490603e+2, -861288.3, -1094920.8, -32369.043, -0.0038118172, 0.28743157, -856886.6, 75058.71, 0.0, 10.0013275, 9.99823 
6.050134e+2, 2.1490431e+2, -760044.9, -992813.6, -11691.553, 0.005230779, 0.28563294, -759459.1, 74503.29, 0.0, 10.001338, 9.998254 
6.050076e+2, 2.2490206e+2, -646326.56, -855764.25, 10428.593, -0.020990733, 0.22401394, -645808.56, 90172.91, 0.0, 10.00131, 9.998535 
6.0500175e+2, 2.3489928e+2, -555267.75, -758076.06, -16812.113, -0.08581185, 0.08390424, -553883.56, 84119.266, 0.0, 10.00125, 9.998561 
6.0499674e+2, 2.4489743e+2, -515961.9, -745227.6, -22304.611, -0.0636292, 0.07044044, -513812.1, 26207.049, 0.0, 10.001093, 9.998052 
6.0499257e+2, 2.5489664e+2, -452801.16, -661190.56, 4693.4614, 0.04695083, 0.1797076, -452695.5, -10665.766, 0.0, 10.000841, 9.998077 
6.049874e+2, 2.6489535e+2, -397332.44, -624060.75, 19764.082, 0.06382719, 0.2619526, -395622.47, -51577.07, 0.0, 10.000721, 9.997719 
6.049811e+2, 2.7489346e+2, -301610.63, -525478.44, 25196.357, -0.01875246, 0.2968408, -298809.8, -52742.78, 0.0, 10.000698, 9.997732 
6.04975e+2, 2.8489116e+2, -122553.26, -282720.72, 11127.456, -0.077163845, 0.24668722, -121783.88, 26304.195, 0.0, 10.000802, 9.998677 
6.0496885e+2, 2.9488853e+2, 17237.441, -162237.8, 126.468765, -0.111088015, 0.10794295, 17237.531, 67344.37, 0.00000000003092486, 10.001078, 9.998699 
6.049643e+2, 3.0488652e+2, 31602.105, -73560.695, 53131.934, -0.053314812, 0.015073604, 53772.336, 53772.336, 0.00000008707832, 10.000601, 9.999204 
6.049596e+2, 3.1488708e+2, -118433.05, -84689.11, 55354.375, -0.057649214, 0.14274335, -43692.52, -43692.52, 0.0000006525611, 9.999303, 9.999752 
6.1506575e+2, 1.2491652e+2, -1910741.6, -1789998.4, 85001.1, -0.06523055, 0.27568996, -1746111.1, -30268.719, 0.0000000039655865, 9.998601, 10.000142 
6.150636e+2, 1.3491634e+2, -1710820.1, -1670872.5, -10524.429, 0.39166543, 0.2544467, -1668269.5, -50422.668, 0.0, 9.999369, 9.999946 
6.1505246e+2, 1.449165e+2, -1592970.4, -1612459.0, 13707.362, -0.16335759, 0.30472913, -1585896.8, -66049.234, 0.0, 9.999738, 9.99948 
6.1504775e+2, 1.5491688e+2, -1486026.8, -1505833.5, -24858.97, -0.043714765, 0.3870358, -1469171.1, -47325.336, 0.0, 9.9997835, 9.9995165 
6.150425e+2, 1.6491625e+2, -1387210.9, -1398981.6, -27571.525, 0.014529677, 0.36775094, -1364903.6, -41052.895, 0.0, 9.99975, 9.999595 
6.1503667e+2, 1.7491452e+2, -1307656.5, -1305919.0, -40855.92, -0.011532888, 0.22930229, -1265922.6, -40060.23, 0.0, 9.999608, 9.999628 
6.1503136e+2, 1.849132e+2, -1252449.1, -1376680.4, -40181.37, -0.000121990175, 0.2024034, -1240585.8, -112711.56, 0.0, 9.999952, 9.998303 
6.150266e+2, 1.9491234e+2, -1022665.2, -1213710.4, -30459.133, 0.05973917, 0.2793223, -1017926.5, 11959.751, 0.0, 10.000851, 9.998316 
6.150208e+2, 2.0491117e+2, -823537.9, -1014236.9, -32923.44, 0.04010082, 0.30981317, -818013.8, 113883.805, 0.0, 10.001317, 9.998789 
6.1501396e+2, 2.1490972e+2, -721431.2, -910400.1, -10808.5, -0.065389074, 0.2777706, -720815.0, 113093.38, 0.0, 10.001328, 9.998823 
6.15008e+2, 2.249075e+2, -697523.5, -958726.56, 6854.997, -0.11517578, 0.22466081, -697343.75, 38584.07, 0.0, 10.001296, 9.997835 
6.150029e+2, 2.349045e+2, -605595.5, -860578.4, -18227.623, -0.105930515, 0.13447005, -604299.06, 33657.332, 0.0, 10.001243, 9.997861 
6.149976e+2, 2.449028e+2, -465220.28, -639054.6, -32827.92, -0.08772541, 0.13444836, -459227.44, 80744.84, 0.0, 10.001088, 9.998783 
6.149923e+2, 2.549025e+2, -401467.88, -554135.8, -3239.4854, -0.060899734, 0.2191209, -401399.16, 40575.375, 0.0, 10.000838, 9.998814 
6.1498713e+2, 2.6490122e+2, -387366.13, -602581.7, 18664.56, -0.02916567, 0.25647432, -385759.44, -41771.45, 0.0, 10.000716, 9.997869 
6.1498207e+2, 2.748988e+2, -290106.8, -501611.88, 25271.99, 0.0063916566, 0.22163789, -287129.1, -41115.26, 0.0, 10.000698, 9.997897 
6.1497647e+2, 2.848965e+2, -141978.27, -323051.38, 19881.51, -0.014911231, 0.17656764, -139821.02, 8214.918, 0.0, 10.000801, 9.998401 
6.1497015e+2, 2.9489446e+2, -4824.6045, -206275.4, 12245.104, -0.09513959, 0.12811136, -4083.0208, 45969.063, 0.0000000010306047, 10.00107, 9.9984 
6.149648e+2, 3.048937e+2, 93961.445, 59148.45, 4188.683, -0.06926107, 0.12975492, 94458.336, 94458.336, 0.00000016756015, 10.0005865, 10.000122 
6.149584e+2, 3.148948e+2, -66561.09, 27387.977, 16390.994, -0.107513145, 0.2173406, 30165.543, 30165.543, 0.000001002472, 9.999284, 10.000531 
6.2506366e+2, 1.2492229e+2, -1882481.9, -1750819.4, 43404.063, -0.13955776, 0.324876, -1737798.5, -22011.879, 0.00000000008306351, 9.998682, 10.000372 
6.2506294e+2, 1.3492185e+2, -1766008.4, -1663525.6, -19334.303, 0.41805878, 0.24885456, -1659999.4, -42208.074, 0.0, 9.998841, 10.000252 
6.250526e+2, 1.4492169e+2, -1668785.0, -1664692.3, 24164.232, -0.10136751, 0.25947955, -1642487.9, -122693.99, 0.0, 9.999286, 9.99934 
6.250479e+2, 1.5492186e+2, -1453643.9, -1506601.3, 6828.2285, -0.016559985, 0.33305007, -1452777.6, -30982.94, 0.0, 10.000076, 9.99937 
6.250427e+2, 1.6492124e+2, -1327836.4, -1433173.0, -7296.447, 0.021164907, 0.35157606, -1327333.4, -3531.7441, 0.0, 10.000431, 9.99903 
6.250367e+2, 1.749198e+2, -1237603.1, -1335507.9, -34366.758, -0.006312126, 0.30020675, -1226744.1, -929.1079, 0.0, 10.000365, 9.99906 
6.250316e+2, 1.849185e+2, -1166519.8, -1284841.3, -8074.9795, 0.012506872, 0.27875152, -1165971.1, -38143.844, 0.0, 10.000322, 9.998756 
6.250274e+2, 1.9491726e+2, -1072746.3, -1186764.8, 18525.541, 0.08624637, 0.27466407, -1069811.8, -39972.91, 0.0, 10.000284, 9.9987755 
6.2502205e+2, 2.0491597e+2, -947438.5, -1093778.9, -4258.76, 0.06984377, 0.27782536, -947314.7, -15464.334, 0.0, 10.000552, 9.998611 
6.2501544e+2, 2.149146e+2, -759491.7, -948968.0, -40853.184, -0.04558697, 0.2738374, -751058.56, 82803.4, 0.0, 10.001156, 9.998642 
6.2500936e+2, 2.2491276e+2, -709313.5, -953312.6, -43902.06, -0.10141195, 0.26102215, -701654.75, 34224.895, 0.0, 10.001168, 9.997932 
6.250039e+2, 2.349104e+2, -697029.8, -894107.06, -10641.457, -0.094599865, 0.22503528, -696456.9, -58553.32, 0.0, 10.000568, 9.997955 
6.249982e+2, 2.4490881e+2, -543675.0, -661936.56, 392.15787, -0.103527226, 0.2248326, -543673.7, -3755.2598, 0.0, 10.000484, 9.998917 
6.249925e+2, 2.5490806e+2, -379129.13, -528576.5, -18703.14, -0.13067491, 0.25074387, -376824.0, 65099.625, 0.0, 10.000928, 9.998945 
6.249873e+2, 2.6490664e+2, -297544.13, -518871.34, -13148.978, -0.10982257, 0.25238517, -296765.7, 47171.03, 0.0, 10.001163, 9.998227 
6.2498254e+2, 2.7490452e+2, -191867.22, -413879.1, 7539.7803, -0.04072349, 0.20815861, -191611.45, 54347.035, 0.0, 10.001201, 9.998258 
6.2497735e+2, 2.8490236e+2, -84840.55, -308591.16, 22762.055, -0.022407271, 0.17073582, -82548.45, 65430.008, 0.0, 10.001247, 9.998286 
6.249717e+2, 2.9490048e+2, 17244.074, -210122.77, 24294.578, -0.056017973, 0.14554252, 19811.016, 69805.695, 0.000000004235602, 10.001281, 9.998273 
6.249661e+2, 3.048999e+2, 165195.95, 16730.309, -59305.195, -0.04001465, 0.20639607, 185976.9, 185976.9, 0.000000262113, 10.001406, 9.999437 
6.2495846e+2, 3.148999e+2, 232893.38, 99210.74, -165658.66, -0.15372944, 0.25030386, 344687.3, 344687.3, 0.0000013873902, 10.00165, 9.9998865 
6.3506246e+2, 1.2492694e+2, -1856409.8, -1696025.9, 21073.816, -0.13577491, 0.3096921, -1693303.1, 22438.367, 0.0, 9.998676, 10.000752 
6.350604e+2, 1.3492693e+2, -1732929.5, -1595741.3, -13477.036, 0.2844193, 0.23035403, -1594429.8, 23309.043, 0.0, 9.998845, 10.000715 
6.350506e+2, 1.4492658e+2, -1657395.6, -1641678.6, 50835.29, -0.22920549, 0.18926924, -1598098.0, -78356.85, 0.0, 9.999288, 9.999497 
6.350482e+2, 1.5492597e+2, -1442708.8, -1483738.6, 36732.42, 0.0018372278, 0.17197683, -1421150.8, 596.713, 0.0, 10.000074, 9.999528 
6.3504374e+2, 1.6492559e+2, -1378838.4, -1537425.6, -11522.389, 0.08649078, 0.24013843, -1378005.6, -54250.715, 0.0, 10.000424, 9.998319 
6.3503736e+2, 1.7492536e+2, -1288502.1, -1440816.5, -35904.227, 0.018529, 0.38046044, -1280462.9, -54699.29, 0.0, 10.000362, 9.998338 
6.3503194e+2, 1.8492424e+2, -1118867.8, -1184436.8, -10963.7, 0.009047321, 0.38116845, -1117083.1, 10691.261, 0.0, 10.000317, 9.999448 
6.3502747e+2, 1.9492221e+2, -1023767.2, -1083495.4, 17069.127, 0.060821217, 0.22603256, -1019233.3, 10553.715, 0.0, 10.0002775, 9.999487 
6.350227e+2, 2.0492047e+2, -1013119.3, -1227975.8, 16386.053, 0.07713322, 0.19362187, -1011876.8, -80073.58, 0.0, 10.000542, 9.997696 
6.3501763e+2, 2.14919e+2, -825512.5, -1084733.3, -16974.658, 0.057367124, 0.27203277, -824405.7, 9417.554, 0.0, 10.001149, 9.997713 
6.350117e+2, 2.2491783e+2, -649231.25, -826239.75, -67200.45, 0.012020848, 0.330331, -626609.9, 109227.12, 0.0, 10.001159, 9.99881 
6.3500476e+2, 2.3491697e+2, -635527.7, -764410.6, -32173.258, -0.06007514, 0.3551166, -627942.6, 9901.552, 0.0, 10.00056, 9.99885 
6.349986e+2, 2.4491549e+2, -578539.94, -732501.25, 15708.086, -0.12059827, 0.3427819, -576953.6, -37096.37, 0.0, 10.000476, 9.998437 
6.34993e+2, 2.549133e+2, -413235.4, -598644.06, -1264.2847, -0.16809797, 0.27691585, -413226.78, 28649.932, 0.0, 10.000925, 9.998466 
6.349877e+2, 2.6491168e+2, -257183.08, -436119.5, -12570.717, -0.18380396, 0.25146073, -256304.28, 87587.14, 0.0, 10.001165, 9.998795 
6.3498247e+2, 2.7491057e+2, -152381.33, -330978.9, 10401.243, -0.16903833, 0.25390857, -151777.63, 94123.625, 0.0, 10.001196, 9.998829 
6.3497776e+2, 2.8490883e+2, -81960.586, -301783.66, 23714.64, -0.109717675, 0.2251947, -79431.336, 68484.55, 0.0, 10.001244, 9.998335 
6.349736e+2, 2.9490665e+2, 19202.822, -204072.94, 26638.568, -0.00020319708, 0.1633761, 22337.02, 72271.266, 0.000000008608103, 10.001273, 9.998319 
6.3496816e+2, 3.0490518e+2, 2764.6614, -319933.25, -50751.152, 0.028272254, 0.24892758, 10558.1455, 10558.1455, 0.00000035003856, 10.001402, 9.997127 
6.349595e+2, 3.149025e+2, 85631.43, -207570.28, -146419.89, -0.214788, 0.2614747, 146227.58, 146227.58, 0.0000017531552, 10.001654, 9.997777 
6.450614e+2, 1.2493114e+2, -1861137.8, -1731560.3, 13269.754, -0.111171916, 0.25891605, -1730215.3, -14517.021, 0.0, 9.998784, 10.000457 
6.4505905e+2, 1.3493115e+2, -1636410.1, -1573168.4, -53319.387, 0.21687345, 0.20460534, -1542798.6, 74897.89, 0.0, 9.999615, 10.000497 
6.450496e+2, 1.4493091e+2, -1562706.1, -1569728.6, -18492.955, -0.29069164, 0.1729612, -1547394.0, -27696.08, 0.0, 9.999825, 9.999733 
6.45048e+2, 1.5493049e+2, -1507376.3, -1487528.5, -28913.172, 0.0065537128, 0.14775495, -1466883.5, -45181.918, 0.0, 9.999515, 9.999772 
6.450442e+2, 1.6493021e+2, -1478242.4, -1578730.9, -40487.652, 0.12604731, 0.21356533, -1463959.6, -140252.17, 0.0, 9.999711, 9.998381 
6.450382e+2, 1.7493007e+2, -1279805.9, -1430893.0, -8916.399, 0.0658672, 0.35716486, -1279281.5, -53565.51, 0.0, 10.000394, 9.998393 
6.450327e+2, 1.8492904e+2, -1069911.9, -1185907.8, 2744.682, 0.034402292, 0.37652957, -1069846.9, 57879.723, 0.0, 10.00076, 9.999225 
6.450277e+2, 1.9492714e+2, -958787.94, -1076749.6, -41276.668, 0.029870534, 0.25568423, -945779.1, 83960.26, 0.0, 10.000832, 9.999266 
6.4502287e+2, 2.049254e+2, -978967.06, -1194355.0, -31226.719, 0.035883076, 0.22656316, -974531.25, -42774.777, 0.0, 10.000706, 9.997847 
6.4501834e+2, 2.149238e+2, -927527.06, -1118068.5, 13377.771, 0.053994384, 0.27641153, -926592.44, -92814.14, 0.0, 10.0003805, 9.997855 
6.450127e+2, 2.249229e+2, -709831.7, -829014.3, -18917.068, 0.025526112, 0.34350225, -706901.1, 28888.672, 0.0, 10.000626, 9.999049 
6.450059e+2, 2.3492277e+2, -487241.84, -666032.2, -35657.82, -0.05482819, 0.416044, -480392.66, 157397.92, 0.0, 10.001461, 9.999091 
6.4499974e+2, 2.4492133e+2, -412484.16, -656320.0, 784.8305, -0.109939784, 0.39955258, -412481.66, 127321.34, 0.0, 10.001635, 9.998402 
6.449944e+2, 2.5491855e+2, -385229.9, -589385.7, 15944.173, -0.1393315, 0.2750223, -383992.2, 57835.504, 0.0, 10.001135, 9.998429 
6.44989e+2, 2.6491684e+2, -287441.94, -452710.7, 6016.8594, -0.16053963, 0.24680361, -287223.2, 56620.14, 0.0, 10.000967, 9.9987755 
6.449836e+2, 2.7491626e+2, -160002.48, -337049.7, -18314.26, -0.17414358, 0.3028521, -158127.86, 87721.84, 0.0, 10.001153, 9.998807 
6.4497876e+2, 2.849149e+2, -59331.32, -265061.75, -20387.354, -0.13312377, 0.30094063, -57330.445, 90530.56, 0.0, 10.001288, 9.998566 
6.449745e+2, 2.949129e+2, 51302.676, -162769.3, -5156.7344, -0.03408161, 0.23821324, 51426.824, 101302.98, 0.000000011710588, 10.001384, 9.998549 
6.449696e+2, 3.049111e+2, -42170.563, -424754.78, -10737.095, 0.031071272, 0.31539926, -41869.47, -41869.47, 0.00000040808163, 10.001449, 9.996387 
6.4496195e+2, 3.14907e+2, 29524.54, -283397.0, 17034.904, -0.12278921, 0.25521943, 30449.156, 30449.156, 0.0000020409286, 10.001478, 9.997342 
6.550605e+2, 1.2493491e+2, -1926473.9, -1868626.4, 17387.475, -0.08126866, 0.17013335, -1863802.4, -148145.78, 0.0, 9.998789, 9.999516 
6.550585e+2, 1.3493457e+2, -1699517.4, -1704710.4, -23243.404, 0.20750655, 0.16995074, -1678725.9, -61061.953, 0.0, 9.999616, 9.999595 
6.550494e+2, 1.4493471e+2, -1540843.8, -1523126.0, -33043.19, -0.29540998, 0.20561327, -1497774.8, 21889.371, 0.0, 9.999819, 10.000056 
6.550474e+2, 1.5493536e+2, -1485288.3, -1441470.5, -39540.38, -0.010745321, 0.25790682, -1418175.0, 3481.5918, 0.0, 9.999513, 10.00009 
6.55044e+2, 1.6493514e+2, -1422298.3, -1460950.4, -16629.127, 0.13111378, 0.2713945, -1416128.8, -92469.68, 0.0, 9.999704, 9.999191 
6.5503925e+2, 1.7493398e+2, -1222695.6, -1311891.6, 16765.268, 0.1285935, 0.23224825, -1219648.5, 6023.094, 0.0, 10.000391, 9.999211 
6.5503395e+2, 1.8493296e+2, -1149395.1, -1349524.6, 3243.7207, 0.08001498, 0.26596814, -1149342.6, -21658.707, 0.0, 10.000754, 9.998104 
6.550281e+2, 1.949321e+2, -1040212.1, -1242918.8, -37844.4, -0.014364399, 0.36233297, -1033377.2, -3681.6162, 0.0, 10.00082, 9.99813 
6.550226e+2, 2.0493078e+2, -897581.5, -1023618.5, -44547.875, -0.06270311, 0.37495634, -883425.9, 48283.98, 0.0, 10.000696, 9.9990225 
6.5501755e+2, 2.14929e+2, -844939.9, -944619.94, 1869.1356, -0.061950967, 0.28711718, -844904.8, -11177.826, 0.0, 10.000371, 9.99905 
6.5501237e+2, 2.2492799e+2, -738904.44, -887021.9, 10806.278, -0.069371305, 0.30258894, -738120.2, -2382.3093, 0.0, 10.000614, 9.998656 
6.55007e+2, 2.3492777e+2, -516153.34, -725527.1, -3161.4329, -0.08531158, 0.40839335, -516105.63, 121636.97, 0.0, 10.001458, 9.998685 
6.550017e+2, 2.4492636e+2, -384686.44, -598131.2, -18468.998, -0.0797485, 0.39378023, -383100.13, 156655.34, 0.0, 10.001632, 9.998803 
6.549964e+2, 2.5492376e+2, -357485.25, -529707.1, -1686.4531, -0.052474435, 0.24422783, -357468.72, 84307.73, 0.0, 10.001126, 9.998842 
6.5499115e+2, 2.6492217e+2, -330756.0, -542396.8, 11996.728, -0.04638644, 0.23762651, -330078.13, 13714.1045, 0.0, 10.000966, 9.998161 
6.549859e+2, 2.749216e+2, -204777.97, -428016.13, -10169.736, -0.062591, 0.36024758, -204315.64, 41487.637, 0.0, 10.001145, 9.998186 
6.549804e+2, 2.8492063e+2, -30178.092, -204871.44, -17469.566, -0.10199144, 0.4049657, -28448.24, 119364.9, 0.0, 10.001289, 9.998979 
6.549746e+2, 2.9491934e+2, 79849.39, -102546.47, -615.1124, -0.16573827, 0.3690776, 79851.47, 129671.984, 0.000000011654482, 10.001379, 9.998965 
6.5497035e+2, 3.0491772e+2, 18494.438, -297722.4, -8975.988, -0.037677217, 0.40209967, 18749.021, 18749.021, 0.00000041978168, 10.001445, 9.99726 
6.549658e+2, 3.1491336e+2, 115426.484, -102559.164, 29004.512, 0.109859675, 0.22855361, 119219.734, 119219.734, 0.000002202322, 10.001469, 9.998588 
6.65059e+2, 1.24938466e+2, -1929802.8, -1857679.1, -66965.47, -0.113793, 0.19210395, -1817682.9, -102058.734, 0.0, 9.9987135, 9.999628 
6.650581e+2, 1.3493836e+2, -1713987.4, -1691414.5, -14378.873, 0.21406989, 0.1989431, -1684421.6, -66793.555, 0.0, 9.999433, 9.999773 
6.650495e+2, 1.4493865e+2, -1555492.9, -1543954.4, -30975.941, -0.25880495, 0.24680795, -1518215.0, 1411.7361, 0.0, 9.999778, 9.999932 
6.65047e+2, 1.5493928e+2, -1445394.5, -1436458.4, -72043.266, -0.017718041, 0.31007746, -1368744.8, 52875.824, 0.0, 9.999847, 9.999962 
6.6504353e+2, 1.6493897e+2, -1360413.9, -1383595.0, -58399.953, 0.1050029, 0.2995141, -1312465.4, 11157.397, 0.0, 9.999925, 9.999615 
6.6503924e+2, 1.7493767e+2, -1247467.4, -1274242.1, -56020.62, 0.11121042, 0.20146756, -1203256.8, 22376.672, 0.0, 10.000012, 9.999649 
6.6503435e+2, 1.8493666e+2, -1222884.5, -1385371.0, -46377.563, 0.07549545, 0.21378359, -1210579.1, -82933.945, 0.0, 10.000256, 9.998097 
6.650289e+2, 1.9493592e+2, -1064737.4, -1257249.5, -6575.6074, -0.004054844, 0.3247885, -1064513.0, -34854.734, 0.0, 10.00066, 9.998111 
6.650234e+2, 2.0493506e+2, -843337.3, -956379.25, -12739.118, -0.064304575, 0.36500064, -841919.5, 89749.21, 0.0, 10.000891, 9.999392 
6.6501784e+2, 2.1493407e+2, -732772.4, -847480.2, -29971.123, -0.10477014, 0.31952935, -725413.5, 108262.91, 0.0, 10.0009575, 9.999433 
6.6501284e+2, 2.2493315e+2, -712302.5, -891476.94, -24817.402, -0.10133386, 0.33171728, -708928.56, 26757.951, 0.0, 10.000875, 9.998498 
6.6500837e+2, 2.3493224e+2, -646310.3, -806584.94, -22828.908, -0.054165937, 0.3871369, -643122.06, -5422.6763, 0.0, 10.000646, 9.99852 
6.650033e+2, 2.4493098e+2, -523479.34, -624421.75, -50027.715, -0.026235225, 0.3772233, -502886.38, 36825.0, 0.0, 10.000504, 9.999166 
6.649975e+2, 2.5492936e+2, -427927.53, -523142.2, -39205.33, -0.018137498, 0.28923106, -413862.22, 27859.936, 0.0, 10.000468, 9.999205 
6.649924e+2, 2.64928e+2, -363589.16, -557273.56, 21836.373, -0.0071862037, 0.2862416, -361157.8, -17422.445, 0.0, 10.000736, 9.998168 
6.649878e+2, 2.7492687e+2, -179888.81, -415415.3, 45415.582, 0.004924961, 0.3537791, -171434.97, 74316.59, 0.0, 10.001314, 9.998191 
6.6498244e+2, 2.8492585e+2, 5157.932, -202678.02, 31420.26, -0.04469457, 0.3972839, 9804.124, 157567.52, 0.0, 10.001597, 9.998844 
6.649762e+2, 2.9492489e+2, 104369.92, -106235.83, 3356.4653, -0.15803379, 0.4123355, 104423.4, 154193.22, 0.000000008469742, 10.001614, 9.998826 
6.649719e+2, 3.0492347e+2, 115565.055, -201423.25, -31436.787, -0.049960483, 0.4470929, 118652.67, 118652.67, 0.00000038345433, 10.001904, 9.997698 
6.649679e+2, 3.1491968e+2, 308502.94, 73164.516, -25116.889, 0.12411935, 0.2872513, 311153.72, 311153.72, 0.0000022156387, 10.002442, 9.999325 
6.7505664e+2, 1.2494183e+2, -1847771.4, -1690909.6, -59781.215, -0.21730447, 0.32050598, -1670724.1, 44876.23, 0.0, 9.998723, 10.00077 
6.7505765e+2, 1.3494259e+2, -1626473.6, -1511778.4, 12183.855, 0.2262183, 0.29224023, -1510498.4, 107089.58, 0.0, 9.99944, 10.001003 
6.7504996e+2, 1.4494279e+2, -1595940.9, -1627364.6, -31292.166, -0.19307041, 0.2992006, -1576637.5, -57052.496, 0.0, 9.999775, 9.999361 
6.750468e+2, 1.5494229e+2, -1485366.8, -1519983.0, -68917.67, -0.022922302, 0.30357137, -1431617.0, -10023.85, 0.0, 9.999849, 9.999389 
6.7504287e+2, 1.6494173e+2, -1356517.6, -1374113.8, -56452.063, 0.04049877, 0.29509088, -1308182.1, 15416.427, 0.0, 9.999919, 9.999682 
6.750383e+2, 1.7494117e+2, -1243456.3, -1264946.6, -51458.43, 0.0073765754, 0.26375246, -1201633.1, 23967.754, 0.0, 10.000009, 9.999716 
6.7503405e+2, 1.8494016e+2, -1148850.6, -1230482.9, -32663.588, 0.012229601, 0.21977088, -1137390.0, -9779.874, 0.0, 10.00025, 9.999163 
6.7503023e+2, 1.9493864e+2, -991179.56, -1102231.4, 8854.889, 0.054366905, 0.14688428, -990477.94, 39149.035, 0.0, 10.00065, 9.99918 
6.7502517e+2, 2.0493825e+2, -874067.06, -1017924.5, -12048.031, 0.022869593, 0.20075303, -873065.0, 58567.58, 0.0, 10.00088, 9.998975 
6.7501897e+2, 2.1493901e+2, -763890.0, -910282.75, -26747.57, -0.08187416, 0.37280077, -759156.0, 74470.38, 0.0, 10.00095, 9.999006 
6.750139e+2, 2.2493835e+2, -708964.75, -882728.56, -34663.113, -0.07967774, 0.42995217, -702305.25, 33330.316, 0.0, 10.000867, 9.998563 
6.750099e+2, 2.3493622e+2, -642036.6, -796206.44, -30223.652, 0.03196732, 0.35263246, -636323.3, 1337.4852, 0.0, 10.000639, 9.998593 
6.7500454e+2, 2.4493521e+2, -501931.34, -579137.0, -52699.09, 0.044042416, 0.35039076, -475209.03, 64461.496, 0.0, 10.000501, 9.999477 
6.7499775e+2, 2.5493538e+2, -406878.13, -478128.8, -39609.492, -0.045065902, 0.4112935, -389229.88, 52434.6, 0.0, 10.000463, 9.999516 
6.749927e+2, 2.6493436e+2, -319904.6, -466115.13, 43159.83, -0.053304687, 0.3944415, -308114.94, 35557.37, 0.0, 10.000734, 9.998795 
6.749893e+2, 2.7493206e+2, -135336.17, -321869.28, 68592.45, 0.019831669, 0.28073806, -112828.914, 132865.66, 0.0, 10.00131, 9.998835 
6.749848e+2, 2.849305e+2, -43033.992, -303128.28, 31371.486, 0.03231758, 0.27418607, -39303.598, 108408.29, 0.0, 10.001598, 9.998154 
6.749792e+2, 2.9492968e+2, 54046.227, -208750.77, 5937.582, -0.017996661, 0.36991027, 54180.313, 103903.97, 0.0000000040864183, 10.001605, 9.998126 
6.749742e+2, 3.049284e+2, 113791.7, -204900.08, -10838.258, -0.014188069, 0.45619562, 114159.87, 114159.87, 0.0000003121116, 10.001901, 9.997676 
6.749681e+2, 3.1492588e+2, 323011.75, 101400.914, 4446.8623, -0.102175936, 0.42359674, 323100.94, 323100.94, 0.0000020914758, 10.002449, 9.999516 
6.850562e+2, 1.2494492e+2, -1550681.6, -1525095.4, -16327.043, -0.23008335, 0.3471138, -1517146.4, 198426.44, 0.0, 10.000667, 10.000969 
6.85057e+2, 1.349461e+2, -1554711.5, -1449799.4, -9146.292, 0.19766648, 0.33594036, -1449008.0, 168546.45, 0.0, 9.99982, 10.001243 
6.850496e+2, 1.4494619e+2, -1626700.5, -1646187.8, -53771.723, -0.1927361, 0.32101572, -1581796.8, -62245.316, 0.0, 9.999583, 9.999325 
6.850467e+2, 1.5494485e+2, -1453538.0, -1509398.0, -52581.594, -0.029540995, 0.24804428, -1421928.9, -361.55667, 0.0, 10.000091, 9.999345 
6.850427e+2, 1.6494425e+2, -1275927.6, -1322678.4, -23151.385, 0.010263857, 0.2313872, -1266403.3, 57169.938, 0.0, 10.00042, 9.999794 
6.8503785e+2, 1.749444e+2, -1154699.3, -1210899.8, -18596.775, -0.059589706, 0.26228833, -1149102.9, 76465.734, 0.0, 10.0005665, 9.999819 
6.8503386e+2, 1.8494397e+2, -1075218.0, -1148307.9, -20284.133, -0.0451089, 0.24962616, -1069966.1, 57606.066, 0.0, 10.000552, 9.999582 
6.8503064e+2, 1.9494289e+2, -1000175.9, -1057072.1, -28133.814, 0.050919067, 0.17672612, -988613.94, 40970.418, 0.0, 10.00038, 9.999618 
6.8502605e+2, 2.0494246e+2, -935669.2, -1045042.5, -51412.29, 0.044461474, 0.20377491, -915296.8, 16292.85, 0.0, 10.000449, 9.998995 
6.8502e+2, 2.149427e+2, -787695.0, -920507.3, -35649.188, -0.066316955, 0.3207206, -778731.1, 54856.957, 0.0, 10.000779, 9.999019 
6.850149e+2, 2.2494192e+2, -694224.0, -868293.2, -36552.387, -0.07160244, 0.3642102, -686860.0, 48737.746, 0.0, 10.0009365, 9.998629 
6.850106e+2, 2.3494014e+2, -595788.4, -766157.8, -35461.97, 0.031072982, 0.3159777, -588701.8, 48917.234, 0.0, 10.000923, 9.998663 
6.850054e+2, 2.4493922e+2, -422594.75, -560507.5, -62637.33, 0.05224595, 0.32626876, -398393.1, 141235.56, 0.0, 10.00113, 9.999302 
6.849991e+2, 2.5493917e+2, -259652.03, -427327.84, -88650.12, -0.011689708, 0.38235432, -221475.03, 220151.39, 0.0, 10.001559, 9.999338 
6.8499416e+2, 2.6493818e+2, -193950.33, -372978.0, -42556.777, -0.016795613, 0.36542735, -184349.05, 159284.52, 0.0, 10.001461, 9.999084 
6.849905e+2, 2.749363e+2, -182236.02, -312870.47, -46500.707, 0.03832603, 0.25779828, -167374.34, 78276.25, 0.0, 10.000852, 9.999118 
6.8498623e+2, 2.849348e+2, -160345.52, -353165.94, -59277.832, 0.05669943, 0.24559242, -143579.8, 4086.4067, 0.0, 10.000767, 9.998209 
6.8498117e+2, 2.9493383e+2, -928.8597, -228702.63, -30682.965, 0.0350512, 0.32357314, 3131.9849, 52811.945, 0.0000000009738006, 10.001203, 9.998181 
6.849763e+2, 3.0493233e+2, 86532.48, -202969.31, 1334.5441, 0.0200097, 0.3763008, 86538.625, 86538.625, 0.00000022618863, 10.001647, 9.997811 
6.849703e+2, 3.1493068e+2, 286003.72, 104950.94, 27833.889, -0.10954334, 0.41747734, 290186.13, 290186.13, 0.0000018666766, 10.002101, 9.999707 
6.950576e+2, 1.249478e+2, -1607027.8, -1640626.4, -63553.797, -0.17043008, 0.2722102, -1558090.5, 157450.42, 0.0, 10.000658, 10.000182 
6.950561e+2, 1.3494888e+2, -1607737.0, -1560103.0, -42005.016, 0.12206633, 0.32750535, -1535632.6, 81894.41, 0.0, 9.99982, 10.000484 
6.950485e+2, 1.449488e+2, -1593099.5, -1574997.1, -37557.22, -0.26490033, 0.30839387, -1545415.9, -25889.947, 0.0, 9.9995775, 9.999816 
6.950466e+2, 1.5494706e+2, -1417502.3, -1436098.1, -31318.953, -0.046570748, 0.1452182, -1394130.1, 27412.055, 0.0, 10.000096, 9.999845 
6.95043e+2, 1.6494659e+2, -1268423.1, -1306987.9, -19044.125, 0.0026473247, 0.1110288, -1260604.1, 62941.844, 0.0, 10.00042, 9.999902 
6.950381e+2, 1.7494741e+2, -1147949.6, -1195402.5, -12583.057, -0.098229945, 0.19873868, -1144819.5, 80717.03, 0.0, 10.00056, 9.999928 
6.950338e+2, 1.8494812e+2, -1090285.8, -1176342.3, -28140.145, -0.10452708, 0.30338565, -1081901.0, 45630.12, 0.0, 10.000539, 9.999395 
6.9503033e+2, 1.9494866e+2, -1014789.2, -1085600.5, -33786.125, -0.02023, 0.41137218, -1001255.5, 28274.59, 0.0, 10.000371, 9.999426 
6.95026e+2, 2.0494768e+2, -905631.3, -980713.4, -40649.137, -0.00776804, 0.3704013, -887839.9, 43700.06, 0.0, 10.00044, 9.999441 
6.950208e+2, 2.1494511e+2, -757591.0, -856036.7, -22223.28, -0.065400355, 0.1645184, -752806.8, 80754.37, 0.0, 10.000771, 9.999466 
6.9501567e+2, 2.2494392e+2, -690643.0, -859618.94, -38412.613, -0.08407732, 0.13741165, -682320.7, 53251.84, 0.0, 10.00093, 9.998692 
6.950106e+2, 2.3494408e+2, -592157.9, -758168.1, -34845.92, -0.063562796, 0.27787352, -585140.25, 52433.73, 0.0, 10.00092, 9.998719 
6.950059e+2, 2.4494302e+2, -469813.53, -656953.94, -47338.81, -0.010019906, 0.30473852, -458520.28, 81065.42, 0.0, 10.001123, 9.998644 
6.9500154e+2, 2.5494072e+2, -306573.9, -523371.88, -70855.26, 0.07612943, 0.20154375, -285470.75, 156137.06, 0.0, 10.0015545, 9.99868 
6.949968e+2, 2.6493952e+2, -198651.44, -383299.75, -66472.56, 0.096757956, 0.19986264, -177211.14, 166407.83, 0.0, 10.001463, 9.999014 
6.949915e+2, 2.7493945e+2, -188495.05, -324602.0, -68131.695, 0.05280215, 0.2869218, -160251.05, 85368.266, 0.0, 10.000847, 9.99904 
6.9498664e+2, 2.8493875e+2, -105154.48, -237757.75, -43427.883, 0.01841386, 0.3144311, -92197.75, 55428.24, 0.0, 10.000764, 9.999002 
6.9498193e+2, 2.9493737e+2, 55464.11, -110816.52, -12661.465, -0.009520576, 0.2706909, 56422.69, 106061.49, 0.000000000021633938, 10.0012, 9.998992 
6.9497824e+2, 3.0493525e+2, 107271.0, -160661.78, 18486.104, 0.044980824, 0.20400788, 108540.44, 108540.44, 0.00000014519733, 10.001649, 9.998102 
6.949744e+2, 3.1493396e+2, 300743.3, 133864.53, 52278.37, 0.086177774, 0.25702447, 315767.9, 315767.9, 0.0000015881137, 10.002105, 9.999906 
7.050585e+2, 1.24951e+2, -1777264.5, -1768447.6, -75387.76, -0.08717397, 0.23542573, -1697339.5, 18167.123, 0.0, 9.999688, 9.999773 
7.050559e+2, 1.3495155e+2, -1536942.0, -1568604.9, -20615.031, 0.08868162, 0.27701506, -1526780.9, 90719.555, 0.0, 10.000496, 10.000098 
7.0504826e+2, 1.4495163e+2, -1418689.1, -1462364.4, -5407.502, -0.29923356, 0.28126222, -1418029.5, 101468.734, 0.0, 10.00065, 10.000072 
7.050467e+2, 1.5495062e+2, -1375772.6, -1387521.9, -19384.566, -0.058763392, 0.16551438, -1361392.1, 60114.195, 0.0, 10.000261, 10.000098 
7.050434e+2, 1.6495028e+2, -1296481.4, -1313134.0, -11204.999, 0.009196569, 0.12935805, -1290847.8, 32660.139, 0.0, 10.000195, 9.999969 
7.050388e+2, 1.7495066e+2, -1161587.6, -1193432.4, -9774.44, -0.07804372, 0.1631333, -1158826.8, 66676.13, 0.0, 10.000433, 10.000001 
7.050343e+2, 1.8495122e+2, -1112858.1, -1201694.5, -36317.96, -0.105130315, 0.25745744, -1099900.6, 27598.068, 0.0, 10.000447, 9.999266 
7.0503e+2, 1.9495195e+2, -1042952.1, -1115012.6, -40854.047, -0.07839755, 0.39834416, -1024510.06, 4985.644, 0.0, 10.000243, 9.999287 
7.050257e+2, 2.0495099e+2, -932854.3, -982564.56, -41011.43, -0.06721329, 0.3605686, -909754.06, 21751.371, 0.0, 10.000202, 9.999545 
7.050213e+2, 2.1494825e+2, -815234.06, -871546.56, -50446.28, -0.06859872, 0.12630764, -785618.3, 47910.21, 0.0, 10.000322, 9.999576 
7.0501673e+2, 2.2494721e+2, -691249.9, -812226.0, -59138.664, -0.066306375, 0.090190634, -667143.7, 68393.35, 0.0, 10.000723, 9.999116 
7.0501184e+2, 2.3494792e+2, -489943.53, -661656.25, -30421.65, -0.0625449, 0.24226208, -484713.2, 152817.64, 0.0, 10.00142, 9.999141 
7.050074e+2, 2.4494685e+2, -422402.63, -676863.6, -26046.656, -0.0046990174, 0.26572114, -419763.84, 119778.54, 0.0, 10.001633, 9.9982605 
7.050033e+2, 2.5494397e+2, -361831.88, -593260.9, -31581.85, 0.106366284, 0.14276227, -357599.47, 83972.69, 0.0, 10.001361, 9.998292 
7.049984e+2, 2.649425e+2, -223505.97, -403692.94, -25787.674, 0.12062787, 0.13694851, -219887.98, 123699.06, 0.0, 10.001329, 9.998937 
7.0499253e+2, 2.749425e+2, -92157.41, -285781.97, -29217.582, 0.037799995, 0.23448473, -87844.59, 157742.5, 0.0, 10.001542, 9.998971 
7.0498747e+2, 2.8494194e+2, 18049.184, -155463.98, -12619.479, -0.010457962, 0.27479726, 18962.184, 166553.2, 0.0, 10.001513, 9.999208 
7.04983e+2, 2.9494095e+2, 80336.99, -75053.46, -29599.107, -0.026526062, 0.2449476, 85784.15, 135382.92, 0.0, 10.001267, 9.999206 
7.0497954e+2, 3.0493847e+2, 586.89233, -184491.78, -28617.115, 0.061117787, 0.12233937, 4910.697, 4910.697, 0.00000008201181, 10.0008, 9.998344 
7.0497656e+2, 3.149371e+2, 7573.895, -3018.1738, -815.70135, 0.18611778, 0.14170615, 7636.344, 7636.344, 0.0000012936833, 10.000079, 9.999937 
7.1505916e+2, 1.2495453e+2, -1780629.8, -1775326.1, -54889.715, 0.00006443831, 0.23324871, -1723024.3, -7554.2246, 0.0, 9.999684, 9.999729 
7.150564e+2, 1.3495417e+2, -1535746.4, -1569579.9, 10225.4, 0.08708762, 0.18516763, -1532896.1, 84577.76, 0.0, 10.000508, 10.000086 
7.150489e+2, 1.4495474e+2, -1419357.8, -1463800.3, -22977.947, -0.30807996, 0.23898368, -1409613.9, 109854.29, 0.0, 10.000651, 10.00006 
7.150468e+2, 1.5495552e+2, -1377164.8, -1390117.5, -33293.47, -0.072125554, 0.30437016, -1349723.6, 71735.984, 0.0, 10.000258, 10.000083 
7.150438e+2, 1.6495532e+2, -1295155.1, -1307720.9, -2875.0452, 0.02175193, 0.2797371, -1294528.5, 28930.938, 0.0, 10.000184, 10.0000105 
7.150399e+2, 1.7495413e+2, -1158808.9, -1187515.9, 577.49164, -0.00827401, 0.15407524, -1158797.3, 66670.48, 0.0, 10.000433, 10.000042 
7.150352e+2, 1.849533e+2, -1119306.6, -1215055.1, -45424.91, -0.057303723, 0.11193313, -1101185.6, 26289.004, 0.0, 10.000446, 9.999174 
7.150298e+2, 1.9495283e+2, -1050509.8, -1129652.0, -47849.67, -0.13084507, 0.1407216, -1027988.5, 1492.2666, 0.0, 10.000237, 9.99919 
7.150252e+2, 2.0495242e+2, -951039.25, -1017343.94, -37857.54, -0.14092089, 0.17644978, -933869.94, -2384.0564, 0.0, 10.000191, 9.999311 
7.150215e+2, 2.1495208e+2, -833352.0, -906628.1, -44985.883, -0.08228415, 0.20451108, -811972.1, 21518.088, 0.0, 10.000312, 9.99934 
7.150178e+2, 2.2495185e+2, -637212.4, -697756.7, -34437.03, -0.025936136, 0.21930283, -621633.56, 113857.85, 0.0, 10.000712, 9.999907 
7.1501416e+2, 2.349517e+2, -435531.63, -546371.3, -2792.579, 0.027593639, 0.20774199, -435461.3, 202028.11, 0.0, 10.00141, 9.999938 
7.150096e+2, 2.4495076e+2, -431521.03, -693870.75, -37355.684, 0.05948784, 0.20963119, -426305.7, 113192.85, 0.0, 10.001625, 9.998148 
7.1500427e+2, 2.5494897e+2, -371463.7, -611730.1, -40972.14, 0.07098694, 0.20934577, -364668.97, 76850.266, 0.0, 10.001355, 9.998169 
7.1499896e+2, 2.6494715e+2, -227342.22, -412234.4, -18538.68, 0.046949815, 0.17687969, -225501.72, 118035.97, 0.0, 10.001331, 9.9988785 
7.149936e+2, 2.7494532e+2, -96746.93, -293888.88, -19783.82, -0.014847272, 0.099206, -94781.164, 150772.67, 0.0, 10.001536, 9.998919 
7.149887e+2, 2.8494444e+2, -9101.795, -211802.9, -22551.518, -0.038334094, 0.12603457, -6623.1343, 140938.03, 0.0, 10.001512, 9.998822 
7.149843e+2, 2.9494455e+2, 52166.53, -132577.47, -37263.863, -0.022967465, 0.2479424, 59399.66, 108959.32, 0.0, 10.001264, 9.998812 
7.149804e+2, 3.0494204e+2, 12592.754, -158975.44, -56375.676, 0.06094863, 0.13332053, 29459.172, 29459.172, 0.00000004119849, 10.000796, 9.998523 
7.1497643e+2, 3.1494e+2, -3095.4836, -24482.215, -23524.215, 0.16658713, 0.06808805, 12051.753, 12051.753, 0.0000010048329, 10.000074, 9.999792 
7.250582e+2, 1.24958076e+2, -1751062.9, -1754935.4, -18615.27, -0.06699515, 0.21957444, -1734283.4, -18849.398, 0.0, 9.999851, 9.999792 
7.250571e+2, 1.349578e+2, -1512441.3, -1549230.0, 55643.11, 0.10301658, 0.17270283, -1472230.9, 145205.81, 0.0, 10.000628, 10.000168 
7.2505033e+2, 1.4495848e+2, -1394027.5, -1469119.1, -16291.095, -0.23870009, 0.24017794, -1390645.4, 128784.85, 0.0, 10.000901, 9.999903 
7.250473e+2, 1.5495922e+2, -1313207.3, -1376347.9, -38025.754, -0.0731433, 0.31612232, -1295354.5, 126068.72, 0.0, 10.000772, 9.9999275 
7.2504383e+2, 1.6495903e+2, -1240381.4, -1286466.5, -4504.2773, -0.008069352, 0.3025343, -1239945.3, 83478.305, 0.0, 10.000581, 9.999965 
7.250401e+2, 1.749579e+2, -1177197.8, -1202281.8, -10013.532, -0.023013534, 0.18751508, -1173690.8, 51740.496, 0.0, 10.000329, 9.999992 
7.250357e+2, 1.8495677e+2, -1092044.6, -1176858.9, -36897.02, -0.060573954, 0.10614074, -1078240.1, 49199.527, 0.0, 10.0005245, 9.999399 
7.2503054e+2, 1.9495562e+2, -896147.7, -1028678.44, -16580.965, -0.12801675, 0.043679945, -894104.75, 135344.38, 0.0, 10.001185, 9.999424 
7.2502583e+2, 2.0495515e+2, -805512.0, -974891.44, -6563.6865, -0.15121777, 0.073947184, -805258.06, 126195.98, 0.0, 10.001308, 9.9990635 
7.2502166e+2, 2.1495539e+2, -768081.0, -903426.75, -17401.35, -0.12606794, 0.18485762, -765879.5, 67574.94, 0.0, 10.00088, 9.999088 
7.250181e+2, 2.2495523e+2, -669329.7, -727633.9, -24705.377, -0.06426341, 0.2281056, -660269.25, 75186.8, 0.0, 10.000551, 9.999781 
7.250151e+2, 2.3495468e+2, -600275.94, -639730.5, -64949.926, 0.033952914, 0.1884589, -552123.5, 85335.484, 0.0, 10.000337, 9.999814 
7.250109e+2, 2.4495377e+2, -567537.06, -723991.7, -118266.18, 0.07513361, 0.1834422, -503967.34, 35500.35, 0.0, 10.000538, 9.9984665 
7.2500545e+2, 2.5495243e+2, -377015.88, -578908.25, -90302.945, 0.059507705, 0.19743869, -342519.25, 98963.45, 0.0, 10.001162, 9.998488 
7.250001e+2, 2.6495093e+2, -237206.17, -406590.13, -55531.906, 0.029443983, 0.17448303, -220623.66, 122873.93, 0.0, 10.00122, 9.998971 
7.249947e+2, 2.7494925e+2, -207597.83, -337125.72, -48632.516, -0.01765864, 0.10146271, -191371.1, 54141.16, 0.0, 10.0007305, 9.99901 
7.2498995e+2, 2.849481e+2, -147581.42, -316551.94, -31777.482, -0.0301603, 0.11673123, -141802.8, 5719.199, 0.0, 10.000724, 9.998482 
7.2498566e+2, 2.949476e+2, 22309.684, -184889.22, -43567.08, -0.008439127, 0.21042512, 31097.672, 80624.56, 0.0, 10.001222, 9.998474 
7.249816e+2, 3.0494487e+2, 145479.56, -89887.875, -73455.414, 0.06280494, 0.088328294, 166522.75, 166522.75, 0.000000018939705, 10.001687, 9.9985695 
7.2497755e+2, 3.1494296e+2, 272169.44, 75900.766, -53157.918, 0.1641565, 0.03194558, 285642.06, 285642.06, 0.0000007295325, 10.002102, 9.999507 
7.3505574e+2, 1.24961644e+2, -1739597.8, -1731525.1, 2944.523, -0.3023215, 0.19208959, -1730565.3, -15166.406, 0.0, 9.999852, 9.999953 
7.3505807e+2, 1.3496245e+2, -1501428.4, -1524696.1, 83284.65, 0.13130379, 0.23589656, -1428969.0, 188420.11, 0.0, 10.000622, 10.0003395 
7.350526e+2, 1.4496283e+2, -1415533.1, -1511188.6, -23147.209, -0.10152787, 0.27965087, -1410226.3, 109158.74, 0.0, 10.000891, 9.999619 
7.350482e+2, 1.5496176e+2, -1333512.6, -1419227.1, -41230.28, -0.07202479, 0.20315908, -1316899.9, 104496.7, 0.0, 10.000774, 9.999633 
7.3504364e+2, 1.6496146e+2, -1250019.5, -1306766.3, -15334.311, -0.08858498, 0.19940722, -1246140.9, 77258.72, 0.0, 10.000582, 9.9998255 
7.350394e+2, 1.7496195e+2, -1187165.4, -1222907.3, -18885.959, -0.12560529, 0.2633716, -1179035.4, 46358.016, 0.0, 10.000327, 9.999851 
7.3503566e+2, 1.8496159e+2, -1054839.5, -1097091.5, -13477.464, -0.12048915, 0.23763523, -1050906.6, 76486.91, 0.0, 10.000515, 9.99995 
7.350322e+2, 1.9496028e+2, -859242.9, -949165.6, 9122.613, -0.07886063, 0.10482467, -858326.7, 171074.03, 0.0, 10.001173, 9.999976 
7.350276e+2, 2.0495914e+2, -825098.7, -1013239.5, -24006.047, -0.108201385, 0.051865876, -822083.9, 109325.98, 0.0, 10.001298, 9.998806 
7.350217e+2, 2.1495816e+2, -787893.75, -942600.75, -32441.744, -0.2059563, 0.06779783, -781366.2, 52054.85, 0.0, 10.00087, 9.998825 
7.350174e+2, 2.2495744e+2, -744054.44, -880101.9, -34294.535, -0.18720065, 0.11807653, -735898.5, -467.79984, 0.0, 10.000541, 9.998738 
7.3501456e+2, 2.349569e+2, -674770.7, -792753.1, -71935.14, -0.0496415, 0.1851451, -640731.6, -3292.4114, 0.0, 10.00033, 9.998767 
7.3501104e+2, 2.4495591e+2, -514538.53, -613065.75, -95781.42, 0.034148935, 0.18605977, -456094.28, 83355.54, 0.0, 10.000534, 9.99923 
7.3500663e+2, 2.5495443e+2, -323813.94, -466126.38, -65475.723, 0.06371922, 0.10660521, -298273.3, 143189.13, 0.0, 10.001152, 9.999268 
7.3500156e+2, 2.6495388e+2, -222057.08, -374157.1, -74490.875, 0.059592716, 0.13003306, -191652.9, 151813.6, 0.0, 10.001215, 9.999196 
7.3499584e+2, 2.749543e+2, -193282.92, -306612.16, -65844.766, 0.02230608, 0.24489754, -163077.45, 82384.61, 0.0, 10.000728, 9.999221 
7.34991e+2, 2.8495303e+2, -165191.75, -353926.84, -14094.783, 0.0059809857, 0.24985246, -164144.95, -16671.713, 0.0, 10.000726, 9.998224 
7.349871e+2, 2.9495013e+2, 3946.635, -221267.28, -22806.207, 0.00865629, 0.1304271, 6232.8887, 55733.273, 0.0, 10.001213, 9.998228 
7.3498327e+2, 3.04947e+2, 136586.88, -106572.16, -56702.77, 0.0592556, -0.01518082, 149159.44, 149159.44, 0.0000000073965225, 10.001679, 9.998459 
7.349797e+2, 3.149462e+2, 241299.56, 11435.843, -33124.92, 0.16229144, 0.05094609, 245977.88, 245977.88, 0.0000004773962, 10.002104, 9.9990635 
7.4505615e+2, 1.24965705e+2, -1505720.6, -1616226.3, -26873.904, -0.32380807, 0.23817621, -1499531.8, 215828.03, 0.0, 10.001452, 9.999969 
7.4505824e+2, 1.3496616e+2, -1601779.3, -1572311.9, 37352.383, 0.12406963, 0.24773082, -1546892.4, 70459.305, 0.0, 9.999936, 10.0003395 
7.4505323e+2, 1.4496624e+2, -1622757.8, -1615109.5, -38703.316, -0.060502514, 0.26218826, -1580041.9, -60692.063, 0.0, 9.999484, 9.999584 
7.4504894e+2, 1.5496479e+2, -1413162.9, -1461232.4, -38587.887, -0.041449506, 0.1509312, -1391736.8, 29628.643, 0.0, 10.000244, 9.999599 
7.4504435e+2, 1.6496447e+2, -1248496.8, -1316772.9, -15222.687, -0.07602659, 0.15187319, -1245256.5, 78112.44, 0.0, 10.00064, 9.999728 
7.450398e+2, 1.7496532e+2, -1144995.5, -1213317.6, -17628.664, -0.13945459, 0.2595027, -1140715.0, 84644.83, 0.0, 10.000667, 9.999752 
7.4503607e+2, 1.849652e+2, -1063337.6, -1093684.5, -19951.492, -0.12566388, 0.2603066, -1053445.3, 73912.77, 0.0, 10.000422, 10.000021 
7.450331e+2, 1.9496405e+2, -1040278.75, -1028687.94, -35898.33, -0.042602297, 0.13736764, -998120.25, 31243.79, 0.0, 9.999894, 10.000048 
7.450287e+2, 2.0496298e+2, -994184.6, -1060030.5, -60620.61, -0.06210708, 0.07315477, -958123.7, -26752.123, 0.0, 9.999989, 9.999116 
7.450228e+2, 2.1496199e+2, -787934.56, -906873.4, -28478.07, -0.18206996, 0.055374615, -781467.5, 51913.293, 0.0, 10.000719, 9.999141 
7.450182e+2, 2.2496095e+2, -708488.6, -909241.94, 3685.01, -0.18648605, 0.07970521, -708421.0, 26972.092, 0.0, 10.000982, 9.998326 
7.450149e+2, 2.3495984e+2, -642124.44, -823281.4, 11439.204, -0.07371836, 0.12913209, -641405.0, -3996.076, 0.0, 10.000752, 9.998355 
7.450113e+2, 2.4495877e+2, -459758.34, -556732.2, 20949.6, 0.0035159898, 0.13138562, -455426.06, 83994.05, 0.0, 10.000782, 9.999496 
7.450076e+2, 2.5495774e+2, -313767.6, -431109.38, 10457.738, 0.043852113, 0.072679624, -312842.88, 128583.77, 0.0, 10.001093, 9.9995365 
7.450028e+2, 2.6495734e+2, -249217.11, -422241.72, -65874.56, 0.058898345, 0.111621335, -226991.95, 116437.58, 0.0, 10.001179, 9.998883 
7.44997e+2, 2.749575e+2, -169871.8, -331496.9, -98943.0, 0.049546905, 0.23665842, -122933.08, 122496.0, 0.0, 10.001042, 9.9989 
7.449922e+2, 2.8495607e+2, -134620.11, -313704.75, -31607.396, 0.0463363, 0.22223803, -129205.32, 18237.613, 0.0, 10.000826, 9.998453 
7.449883e+2, 2.949529e+2, -77869.48, -234402.33, -6999.3677, 0.04639741, 0.05505726, -77557.125, -28085.871, 0.0, 10.000538, 9.998463 
7.4498445e+2, 3.0495057e+2, -12927.721, -159342.0, 1932.3033, 0.060046747, -0.03031043, -12902.224, -12902.224, 0.0000000015345106, 10.00057, 9.998631 
7.4498063e+2, 3.1495067e+2, 66217.76, -78866.93, 42276.78, 0.11289011, 0.11030693, 77638.016, 77638.016, 0.00000026410652, 10.000929, 9.999008 
7.550593e+2, 1.2497036e+2, -1522119.0, -1647015.1, -90812.36, -0.1605767, 0.35953686, -1474355.3, 240960.45, 0.0, 10.001435, 9.999768 
7.5505775e+2, 1.3496903e+2, -1615493.0, -1602351.1, -20381.951, 0.074986756, 0.20921706, -1587507.1, 29816.752, 0.0, 9.999941, 10.000132 
7.5505215e+2, 1.4496875e+2, -1607301.4, -1584778.0, -13425.493, -0.12012846, 0.18952574, -1578516.3, -59191.84, 0.0, 9.999492, 9.999789 
7.5504977e+2, 1.5496832e+2, -1397223.3, -1428840.0, -9182.638, 0.011941131, 0.15998489, -1394749.8, 26579.549, 0.0, 10.000246, 9.999822 
7.5504595e+2, 1.6496806e+2, -1252447.5, -1324630.0, -15380.401, 0.018546091, 0.15813069, -1249306.9, 74024.45, 0.0, 10.000637, 9.999676 
7.550411e+2, 1.7496796e+2, -1149620.5, -1222782.4, -15627.458, -0.074449606, 0.17592765, -1146422.3, 78908.29, 0.0, 10.000664, 9.999689 
7.550369e+2, 1.8496759e+2, -1092872.3, -1153634.9, -40876.613, -0.08651861, 0.17521109, -1072323.0, 55009.9, 0.0, 10.000416, 9.999612 
7.550332e+2, 1.9496691e+2, -1070121.1, -1089460.0, -54956.746, -0.023488438, 0.14125356, -1023989.7, 5349.075, 0.0, 9.999888, 9.999634 
7.5502914e+2, 2.049667e+2, -934472.8, -933555.1, -34868.04, -0.017278684, 0.13691013, -899142.9, 32196.023, 0.0, 9.999977, 9.999989 
7.5502473e+2, 2.1496685e+2, -728154.0, -779965.8, -137.05534, -0.063811876, 0.14744215, -728153.7, 105180.03, 0.0, 10.000707, 10.000019 
7.550203e+2, 2.2496578e+2, -694439.44, -876399.94, -5920.022, -0.073250465, 0.11285542, -694247.06, 41096.21, 0.0, 10.000967, 9.998559 
7.550159e+2, 2.3496348e+2, -627885.5, -791396.3, 3953.9766, -0.04504872, 0.0204002, -627790.0, 9577.896, 0.0, 10.000743, 9.998578 
7.550119e+2, 2.4496236e+2, -477216.78, -591605.56, 31463.43, -0.023404779, 0.020527925, -469133.72, 70244.69, 0.0, 10.000776, 9.99926 
7.5500816e+2, 2.5496247e+2, -331393.47, -467380.97, 23445.027, -0.00802279, 0.098327786, -327464.9, 113910.18, 0.0, 10.00109, 9.999289 
7.550036e+2, 2.6496136e+2, -307967.34, -543997.6, -71394.62, 0.018499117, 0.12037917, -288052.2, 55334.426, 0.0, 10.001178, 9.998048 
7.549981e+2, 2.74959e+2, -228604.03, -452081.63, -101930.875, 0.056402337, 0.07188723, -189096.47, 56317.0, 0.0, 10.001036, 9.998075 
7.549934e+2, 2.8495717e+2, -87912.24, -215857.84, -42393.367, 0.08280699, 0.031658277, -75140.55, 72290.48, 0.0, 10.000822, 9.999127 
7.549894e+2, 2.9495597e+2, -30977.098, -136563.72, -15904.627, 0.095756166, -0.009915104, -28633.39, 20805.607, 0.0, 10.000535, 9.999137 
7.549849e+2, 3.0495563e+2, 20410.902, -88343.78, 14749.479, 0.05418468, 0.047811497, 22375.75, 22375.75, 0.00000000001992495, 10.000564, 9.99912 
7.549805e+2, 3.1495658e+2, 90428.85, -27731.5, 59049.53, -0.0013022982, 0.22121516, 114879.0, 114879.0, 0.000000109993245, 10.000923, 9.999364 
7.650604e+2, 1.249736e+2, -1885758.0, -1805883.5, -76457.04, -0.06495822, 0.3248774, -1759561.5, -44280.152, 0.0, 9.998867, 9.999917 
7.6505756e+2, 1.3497207e+2, -1528014.8, -1543067.4, 16960.254, 0.03793259, 0.13891418, -1516985.9, 100305.36, 0.0, 10.000472, 10.00028 
7.650521e+2, 1.4497203e+2, -1401195.5, -1488994.6, 32541.176, -0.14750965, 0.13768591, -1390449.9, 128839.79, 0.0, 10.000921, 9.999759 
7.650504e+2, 1.5497229e+2, -1390281.4, -1429794.5, 16700.59, 0.05191238, 0.18045628, -1384168.5, 37120.22, 0.0, 10.000311, 9.999785 
7.65047e+2, 1.6497205e+2, -1328906.3, -1342966.9, 9274.281, 0.08870903, 0.17447592, -1324298.8, -1008.4211, 0.0, 10.000029, 9.9998455 
7.650421e+2, 1.749713e+2, -1222652.6, -1238620.5, 23352.53, -0.013094574, 0.11112428, -1205957.0, 19337.701, 0.0, 10.000078, 9.999864 
7.650375e+2, 1.8497086e+2, -1156360.4, -1196980.1, 6542.569, -0.04731398, 0.099097975, -1155332.6, -28034.742, 0.0, 10.000035, 9.999497 
7.650331e+2, 1.9497064e+2, -1075115.1, -1104453.3, 12812.171, -0.021381296, 0.12318176, -1070307.6, -41007.234, 0.0, 9.99991, 9.999519 
7.650292e+2, 2.0497046e+2, -944860.3, -959112.06, 38218.273, -0.00624299, 0.13852237, -913109.25, 18191.918, 0.0, 9.999992, 9.999807 
7.650258e+2, 2.1497025e+2, -804823.4, -837422.9, -8822.988, 0.0018845745, 0.13007282, -802588.6, 30711.799, 0.0, 10.000267, 9.999837 
7.650218e+2, 2.2496936e+2, -711561.25, -835831.56, -59231.445, -0.0054653645, 0.1011196, -687852.7, 47455.207, 0.0, 10.000642, 9.998994 
7.6501703e+2, 2.3496778e+2, -541621.56, -701012.06, -36580.87, -0.029302258, 0.039012328, -533627.06, 103696.9, 0.0, 10.001126, 9.999013 
7.6501274e+2, 2.4496686e+2, -441208.47, -597898.2, -6442.4175, -0.03430191, 0.044162583, -440944.03, 98388.55, 0.0, 10.001123, 9.99905 
7.650089e+2, 2.5496656e+2, -414615.53, -531011.5, -14201.463, -0.02018206, 0.10156906, -412907.88, 28426.236, 0.0, 10.00062, 9.999078 
7.6500434e+2, 2.6496515e+2, -395460.2, -577582.3, -64097.813, 0.007358707, 0.101353675, -375163.06, -31814.502, 0.0, 10.00054, 9.998124 
7.6499903e+2, 2.7496257e+2, -245809.97, -451127.2, -29085.145, 0.0497324, 0.026943887, -241769.3, 3607.2603, 0.0, 10.000879, 9.998156 
7.6499426e+2, 2.849608e+2, -67535.984, -221424.27, 27052.662, 0.07942745, -0.0064046117, -62918.813, 84474.98, 0.0, 10.001027, 9.998991 
7.649901e+2, 2.9495987e+2, 28034.322, -124309.336, -10038.476, 0.09295713, -0.0051638954, 28692.945, 78092.74, 0.0, 10.001008, 9.998995 
7.6498556e+2, 3.0495998e+2, 90225.57, -53889.926, -12606.56, 0.03289046, 0.101026855, 91320.02, 91320.02, 0.0, 10.001038, 9.99913 
7.649811e+2, 3.149602e+2, 114019.06, -11166.041, -10453.975, -0.039951332, 0.2027382, 114886.05, 114886.05, 0.000000028836135, 10.001064, 9.999407 
7.7505946e+2, 1.2497557e+2, -1850794.9, -1735418.0, -20080.734, -0.053027473, 0.14417045, -1732023.0, -16767.592, 0.00000000003061157, 9.998873, 10.000399 
7.750577e+2, 1.3497527e+2, -1494015.4, -1473045.6, 76557.25, 0.004476079, 0.035184555, -1406258.6, 210995.13, 0.0, 10.000472, 10.000763 
7.750529e+2, 1.4497606e+2, -1420777.8, -1527746.4, 6860.36, -0.15527007, 0.10383828, -1420339.6, 98905.99, 0.0, 10.000913, 9.999496 
7.7505094e+2, 1.5497665e+2, -1411035.6, -1472796.0, -5390.944, 0.071434766, 0.20889294, -1410568.5, 10675.017, 0.0, 10.000308, 9.999493 
7.750474e+2, 1.649764e+2, -1303665.3, -1288928.3, 9322.647, 0.12847996, 0.19862351, -1284413.8, 38832.125, 0.0, 10.000022, 10.000219 
7.750427e+2, 1.7497535e+2, -1195759.9, -1182141.5, 25708.639, 0.038557436, 0.06487949, -1162355.6, 62896.45, 0.0, 10.000074, 10.000254 
7.750378e+2, 1.8497497e+2, -1144194.9, -1170539.0, 124.922516, -0.017667789, 0.031510677, -1144194.3, -16941.344, 0.0, 10.0000305, 9.999681 
7.7503276e+2, 1.9497524e+2, -1062906.4, -1079170.9, 8565.925, -0.045461725, 0.08323692, -1059227.3, -29978.19, 0.0, 9.999908, 9.999694 
7.750289e+2, 2.0497432e+2, -1032003.9, -1138081.3, 47128.133, -0.03828413, 0.07883738, -1014090.75, -82832.56, 0.0, 9.999985, 9.998582 
7.750262e+2, 2.1497221e+2, -893376.6, -1018365.44, 2535.027, 0.008677642, 0.0051701125, -893325.25, -60044.64, 0.0, 10.000255, 9.9986 
7.7502257e+2, 2.2497171e+2, -669084.06, -745520.1, -42517.242, 0.010413789, 0.045021985, -650132.75, 85154.09, 0.0, 10.000631, 9.9996195 
7.7501816e+2, 2.3497279e+2, -498343.13, -609265.6, -17423.475, -0.034740362, 0.18463458, -495670.66, 141606.39, 0.0, 10.001117, 9.999649 
7.7501386e+2, 2.4497221e+2, -455147.38, -623267.1, -26237.99, -0.03782679, 0.20102015, -451147.63, 88134.984, 0.0, 10.001109, 9.998883 
7.7500975e+2, 2.5496995e+2, -427487.9, -556024.25, -31556.848, 0.0012874898, 0.08033438, -420158.38, 21145.455, 0.0, 10.000613, 9.998909 
7.75005e+2, 2.6496866e+2, -327469.06, -436511.8, -52057.08, 0.02003891, 0.053253848, -306607.94, 36707.582, 0.0, 10.000539, 9.999094 
7.7499956e+2, 2.7496836e+2, -178965.06, -311216.75, -14935.323, 0.018741269, 0.10683266, -177299.38, 68018.65, 0.0, 10.000874, 9.99912 
7.7499473e+2, 2.84967e+2, -131625.27, -353279.72, 25417.1, 0.023794224, 0.112049386, -128748.04, 18582.844, 0.0, 10.001022, 9.998088 
7.7499056e+2, 2.9496464e+2, -35967.656, -257909.2, -7352.1724, 0.03317093, 0.059101764, -35724.37, 13629.884, 0.0, 10.00101, 9.998076 
7.7498615e+2, 3.0496356e+2, 54248.285, -128456.875, -9991.733, -0.008125839, 0.12278041, 54793.086, 54793.086, 0.0, 10.001037, 9.998619 
7.7498233e+2, 3.1496182e+2, 88571.86, -65937.56, -6817.5415, -0.026921058, 0.07722002, 88872.09, 88872.09, 0.0000000029769756, 10.001068, 9.999033 
7.850593e+2, 1.2497862e+2, -1623890.3, -1655577.5, 38030.82, -0.03853425, 0.0262099, -1598534.9, 116683.99, 0.0000000009851104, 10.000558, 10.0001335 
7.850584e+2, 1.3497916e+2, -1585348.0, -1549663.0, 70595.0, 0.04809497, 0.029650318, -1494690.6, 122523.06, 0.0, 9.999989, 10.000467 
7.850536e+2, 1.449802e+2, -1596150.0, -1582997.4, -39444.336, -0.10856948, 0.12626049, -1549584.9, -30380.674, 0.0, 9.99958, 9.999761 
7.850503e+2, 1.5498051e+2, -1522499.1, -1495552.4, -11757.336, 0.023698647, 0.17510103, -1491143.8, -69940.81, 0.0, 9.999412, 9.999767 
7.850467e+2, 1.6498022e+2, -1390450.6, -1341531.4, 30613.033, 0.07865839, 0.15313749, -1326806.4, -3601.1062, 0.0, 9.999476, 10.000118 
7.85043e+2, 1.749794e+2, -1244929.3, -1217407.1, 7598.394, 0.07812087, 0.052442014, -1215448.8, 9762.229, 0.0, 9.999788, 10.000148 
7.8503865e+2, 1.8497911e+2, -1082396.6, -1145089.6, -31814.512, 0.0404044, 0.035087284, -1069080.4, 58131.543, 0.0, 10.000471, 9.999644 
7.850336e+2, 1.9497931e+2, -829589.75, -970217.8, -41587.49, -0.041796446, 0.085037045, -818211.75, 210996.89, 0.0, 10.001527, 9.999663 
7.850295e+2, 2.049783e+2, -804651.7, -1026984.6, 4982.9746, -0.057669804, 0.071352415, -804540.06, 126678.25, 0.0, 10.001541, 9.998593 
7.8502643e+2, 2.1497604e+2, -855859.0, -999480.4, 51125.42, -0.0025663862, -0.018763885, -839518.75, -6277.423, 0.0, 10.00051, 9.998607 
7.85023e+2, 2.2497548e+2, -778481.1, -815026.06, 48517.918, 0.016907664, 0.022097746, -744908.94, -9660.433, 0.0, 9.999952, 9.999469 
7.850189e+2, 2.3497659e+2, -689886.4, -718074.3, 12197.186, -0.0020598315, 0.17956582, -685341.4, -48101.395, 0.0, 9.999874, 9.999498 
7.850148e+2, 2.4497603e+2, -589158.56, -672883.06, -19020.78, 0.0007138376, 0.19752008, -585039.94, -45793.832, 0.0, 10.000127, 9.999014 
7.8501064e+2, 2.549737e+2, -405328.34, -531271.1, -4090.966, 0.025610933, 0.061665345, -405195.6, 36071.715, 0.0, 10.000706, 9.999034 
7.850059e+2, 2.6497278e+2, -260156.47, -405599.38, -43141.23, 0.032375686, 0.05987369, -248322.77, 94953.516, 0.0, 10.001007, 9.999081 
7.8500056e+2, 2.749731e+2, -155914.56, -302096.47, -82548.04, 0.020040812, 0.17952694, -118749.14, 126524.15, 0.0, 10.00104, 9.999103 
7.849958e+2, 2.8497165e+2, -134566.84, -377834.94, -56391.566, 0.018528363, 0.18689609, -122130.57, 25156.563, 0.0, 10.0011015, 9.99788 
7.8499156e+2, 2.9496846e+2, -26945.639, -276247.0, -39645.79, 0.028684922, 0.07195457, -20792.72, 28525.219, 0.0, 10.001173, 9.9978695 
7.849872e+2, 3.04967e+2, 38078.066, -141774.47, -4775.532, -0.00440519, 0.10710502, 38204.777, 38204.777, 0.0, 10.000948, 9.9985695 
7.849834e+2, 3.1496444e+2, 8075.512, -81569.29, 27078.574, 0.006413682, -0.014514214, 15620.056, 15620.056, 0.0, 10.000417, 9.999237 
7.950598e+2, 1.24982804e+2, -1698051.6, -1806674.0, 12895.181, -0.0488062, -0.026852101, -1696541.8, 18629.217, 0.0000000034592607, 10.000545, 9.9991045 
7.950595e+2, 1.349837e+2, -1660226.6, -1705326.3, 48176.94, 0.16296883, 0.11998869, -1629583.3, -12412.439, 0.0, 9.99999, 9.999399 
7.950542e+2, 1.449845e+2, -1539222.6, -1465328.3, -48848.37, -0.01268351, 0.20425905, -1441028.0, 78137.1, 0.0, 9.999583, 10.0005665 
7.950485e+2, 1.5498391e+2, -1464445.0, -1374432.6, -17209.516, -0.101453334, 0.08033085, -1371254.6, 49911.496, 0.0, 9.999409, 10.0006 
7.9504466e+2, 1.6498356e+2, -1432304.0, -1427230.8, 40692.785, -0.0713739, 0.03793708, -1388995.6, -65827.38, 0.0, 9.999471, 9.999535 
7.950431e+2, 1.7498346e+2, -1287425.0, -1305574.4, 20011.896, 0.10015523, 0.07255501, -1274526.4, -49355.16, 0.0, 9.999787, 9.999544 
7.9503995e+2, 1.849833e+2, -1101384.4, -1181727.8, 6339.517, 0.11983695, 0.10787867, -1100887.3, 26287.385, 0.0, 10.00046, 9.999398 
7.9503536e+2, 1.9498295e+2, -849161.94, -1007022.3, -1186.7808, -0.018316947, 0.12809269, -849153.0, 180025.86, 0.0, 10.00151, 9.999418 
7.950309e+2, 2.0498243e+2, -720283.3, -848361.56, -35025.29, -0.07253187, 0.115226075, -711330.8, 219850.69, 0.0, 10.001525, 9.999827 
7.950266e+2, 2.1498172e+2, -770292.06, -819756.8, 13077.526, -0.03877486, 0.055803347, -767047.44, 66135.31, 0.0, 10.0005, 9.9998455 
7.9502285e+2, 2.2498065e+2, -845076.1, -949919.9, 44126.45, 0.0063515357, 0.030420238, -828976.5, -93783.484, 0.0, 9.999939, 9.9985485 
7.9501945e+2, 2.349792e+2, -755667.7, -853637.9, 10207.352, 0.06230698, 0.024737082, -754615.5, -117402.95, 0.0, 9.99987, 9.9985695 
7.950157e+2, 2.4497831e+2, -559433.4, -611250.0, 2063.229, 0.07354577, 0.03475065, -559351.4, -20128.422, 0.0, 10.000125, 9.999438 
7.950115e+2, 2.5497794e+2, -376036.2, -469750.78, 19030.713, 0.040821616, 0.048134778, -372319.03, 68905.234, 0.0, 10.0007, 9.99946 
7.9500693e+2, 2.6497746e+2, -330368.44, -549086.25, -42782.203, 0.0330008, 0.12085714, -322297.84, 20932.854, 0.0, 10.000998, 9.9981 
7.9500186e+2, 2.7497676e+2, -224109.23, -444768.1, -79163.35, 0.04911686, 0.2379832, -198646.84, 46595.957, 0.0, 10.001044, 9.998121 
7.9499733e+2, 2.8497472e+2, -102398.484, -311893.8, -53730.41, 0.059190173, 0.21395065, -89421.766, 57841.035, 0.0, 10.001105, 9.998331 
7.949931e+2, 2.9497138e+2, 3848.2068, -210282.53, -35128.914, 0.06268843, 0.03924417, 9463.953, 58754.5, 0.0, 10.001163, 9.998328 
7.9498845e+2, 3.0497023e+2, 69760.34, -72641.45, -24797.514, 0.026820462, 0.059855, 73954.97, 73954.97, 0.0, 10.000936, 9.99905 
7.9498434e+2, 3.14968e+2, 64538.4, 31974.887, 9862.615, 0.045662917, -0.07835167, 67292.58, 67292.58, 0.0, 10.00043, 10.000011 
8.050596e+2, 1.24987274e+2, -1861756.1, -1894628.4, -50517.336, -0.064624235, 0.01812511, -1825068.4, -109941.44, 0.0000000057252847, 9.999461, 9.999026 
8.0505896e+2, 1.349877e+2, -1804309.8, -1785888.4, 51470.93, 0.1575606, 0.12794214, -1742810.5, -125678.59, 0.0, 9.999049, 9.999303 
8.0505383e+2, 1.4498825e+2, -1580842.8, -1456711.5, 1778.0538, 0.013679205, 0.18052474, -1456686.0, 62442.2, 0.0, 9.999177, 10.00082 
8.050483e+2, 1.5498771e+2, -1367130.0, -1300444.6, -12342.465, -0.087127715, 0.03604435, -1298233.5, 122894.22, 0.0, 9.99996, 10.000842 
8.050444e+2, 1.649876e+2, -1343282.5, -1399095.6, 29288.434, -0.07654255, 0.013305486, -1330734.3, -7606.888, 0.0, 10.000143, 9.999405 
8.050425e+2, 1.7498799e+2, -1306479.6, -1328784.8, 41507.156, 0.06598471, 0.10781119, -1274652.9, -49526.016, 0.0, 9.999719, 9.999417 
8.0503976e+2, 1.8498781e+2, -1276626.1, -1265472.4, 69230.97, 0.11071946, 0.1489668, -1201594.1, -74462.96, 0.0, 9.999257, 9.999401 
8.050361e+2, 1.9498697e+2, -1249306.9, -1199605.5, 78073.48, 0.05015823, 0.12016763, -1142523.1, -113382.29, 0.0, 9.998765, 9.999418 
8.05032e+2, 2.0498657e+2, -1035227.0, -964380.06, 17666.145, 0.008778189, 0.103126004, -960219.25, -29077.156, 0.0, 9.99921, 10.000147 
8.050274e+2, 2.1498659e+2, -735117.9, -766255.1, -5544.6943, -0.010442889, 0.083780035, -734160.0, 98975.234, 0.0, 10.0005865, 10.000171 
8.050233e+2, 2.2498557e+2, -671811.1, -887413.56, 9999.26, 0.00213999, 0.056007195, -671348.4, 63796.176, 0.0, 10.001219, 9.998362 
8.050198e+2, 2.3498347e+2, -589568.06, -795054.56, 29865.07, 0.04702339, 0.0060133385, -585315.5, 51855.09, 0.0, 10.001102, 9.99838 
8.050159e+2, 2.4498253e+2, -447679.0, -542782.1, 46597.47, 0.050205015, 0.013574673, -428653.72, 110527.56, 0.0, 10.000828, 9.999571 
8.050118e+2, 2.5498268e+2, -410861.0, -471643.72, 38808.758, 0.0104354145, 0.066718176, -391959.8, 49216.906, 0.0, 10.000397, 9.999594 
8.050075e+2, 2.6498207e+2, -399132.25, -617745.56, 9700.455, 0.0105256755, 0.13677153, -398702.66, -55517.973, 0.0, 10.000679, 9.997782 
8.050033e+2, 2.7498063e+2, -157379.53, -448473.0, 20941.822, 0.052032884, 0.20846121, -155880.66, 89325.17, 0.0, 10.0016575, 9.997799 
8.0499893e+2, 2.8497842e+2, 10486.161, -224252.27, 33913.043, 0.08471576, 0.16950533, 15287.431, 162514.73, 0.0, 10.001737, 9.99863 
8.049946e+2, 2.9497555e+2, -10955.233, -184494.33, 37063.56, 0.104778305, 0.010636825, -3370.864, 45878.07, 0.0, 10.000918, 9.998624 
8.049896e+2, 3.049747e+2, 9504.546, -131192.9, 25386.418, 0.057591084, 0.059013564, 13944.946, 13944.946, 0.0, 10.00065, 9.998785 
8.04985e+2, 3.149726e+2, 135928.44, 74417.945, -2696.7266, 0.050192572, -0.037490346, 136046.44, 136046.44, 0.0, 10.000894, 10.000078 
8.1505865e+2, 1.24992155e+2, -1802252.4, -1772453.1, -68775.97, -0.110624395, 0.16450456, -1716981.4, -1896.4316, 0.000000004999778, 9.999464, 9.999864 
8.150567e+2, 1.3499123e+2, -1746068.4, -1662168.4, 35755.95, 0.023383426, 0.05458477, -1648997.8, -31901.742, 0.0, 9.999038, 10.000155 
8.150525e+2, 1.4499156e+2, -1606149.1, -1506190.9, 28763.463, -0.039269883, 0.058327883, -1498505.0, 20587.873, 0.0, 9.999162, 10.000489 
8.1504977e+2, 1.5499194e+2, -1391266.1, -1350220.6, 18769.256, 0.05735103, 0.041509207, -1342932.1, 78155.45, 0.0, 9.999958, 10.000503 
8.150459e+2, 1.649924e+2, -1320548.8, -1352065.8, 11814.781, 0.05265232, 0.07627527, -1316611.6, 6471.0015, 0.0, 10.000143, 9.999727 
8.150412e+2, 1.7499298e+2, -1283259.1, -1280051.0, 26026.611, -0.03303579, 0.15630113, -1255579.0, -30501.426, 0.0, 9.999715, 9.999754 
8.150379e+2, 1.8499269e+2, -1260922.1, -1230761.0, 49527.613, 0.0038871274, 0.15729456, -1194068.9, -66987.63, 0.0, 9.9992485, 9.999643 
8.15036e+2, 1.9499144e+2, -1233368.1, -1165717.9, 60024.715, 0.15745547, 0.062495403, -1130643.8, -101549.42, 0.0, 9.998761, 9.999653 
8.1503296e+2, 2.0499077e+2, -1077277.3, -1050515.6, 68013.45, 0.18016385, 0.035718817, -994579.2, -63479.188, 0.0, 9.999205, 9.999558 
8.1502885e+2, 2.1499068e+2, -777891.06, -853068.5, 47176.746, 0.073264204, 0.066441, -755159.3, 77939.0, 0.0, 10.000577, 9.999579 
8.150245e+2, 2.2499025e+2, -634760.8, -808613.94, 4306.948, -0.00603624, 0.10003925, -634654.2, 100448.664, 0.0, 10.00121, 9.998907 
8.1501985e+2, 2.3498943e+2, -552557.3, -715861.06, 26410.406, -0.056562506, 0.122055985, -548392.3, 88721.7, 0.0, 10.001092, 9.998928 
8.150155e+2, 2.449887e+2, -460378.56, -567214.2, 29272.014, -0.07742639, 0.13219047, -452884.03, 86237.17, 0.0, 10.000819, 9.999408 
8.150114e+2, 2.5498798e+2, -421595.4, -494737.0, 23718.264, -0.06982468, 0.11474032, -414577.44, 26547.336, 0.0, 10.0004, 9.999434 
8.1500775e+2, 2.649867e+2, -376082.97, -569795.3, 46150.813, -0.039579403, 0.10704568, -365649.75, -22511.582, 0.0, 10.000678, 9.998112 
8.150046e+2, 2.7498475e+2, -135751.42, -401385.4, 59710.58, 0.014492359, 0.095600225, -122946.625, 122215.33, 0.0, 10.001648, 9.998128 
8.1500065e+2, 2.849828e+2, 20515.521, -201818.05, 2334.104, 0.07874359, 0.054821204, 20540.021, 167720.53, 0.0, 10.001729, 9.998788 
8.1499594e+2, 2.9498082e+2, -4.37478, -163302.94, 8815.701, 0.15125519, -0.023269944, 470.1634, 49664.035, 0.0, 10.000924, 9.998768 
8.1499046e+2, 3.0498028e+2, -63245.895, -283405.8, 35575.906, 0.0863845, 0.09861149, -57639.89, -57639.89, 0.0, 10.000656, 9.997736 
8.1498533e+2, 3.1497818e+2, 84657.0, -32690.61, 7760.692, -0.010138377, 0.10639442, 85168.016, 85168.016, 0.0000000016901937, 10.000893, 9.999344 
8.250582e+2, 1.2499655e+2, -1822780.6, -1715186.1, -14297.088, -0.080998205, 0.18824887, -1713318.8, 1725.069, 0.0000000017683296, 9.999038, 10.000458 
8.250551e+2, 1.3499556e+2, -1703168.0, -1578835.5, 61794.844, -0.036254298, 0.014434269, -1553347.6, 63703.758, 0.0, 9.999063, 10.000714 
8.25051e+2, 1.4499608e+2, -1662975.3, -1573173.0, 65740.92, -0.084993765, 0.026278062, -1538462.8, -19416.133, 0.0, 9.99894, 10.000136 
8.250493e+2, 1.5499695e+2, -1593311.1, -1487103.3, 52392.27, 0.07503543, 0.09460277, -1465608.4, -44567.832, 0.0, 9.998741, 10.000149 
8.2504576e+2, 1.6499746e+2, -1450159.9, -1369655.0, 46990.13, 0.08019482, 0.13020514, -1348034.0, -24998.008, 0.0, 9.999064, 10.000123 
8.250408e+2, 1.7499758e+2, -1223408.8, -1208208.1, 63336.664, -0.05076861, 0.12739994, -1152017.4, 73014.875, 0.0, 9.999941, 10.000137 
8.2503736e+2, 1.8499728e+2, -1106645.4, -1167362.0, 59767.42, -0.034229353, 0.110729754, -1069968.1, 57067.105, 0.0, 10.000356, 9.999545 
8.2503515e+2, 1.9499637e+2, -1015079.4, -1071185.4, 43390.348, 0.12251882, 0.062369436, -991463.3, 37582.258, 0.0, 10.000306, 9.999556 
8.2503253e+2, 2.0499575e+2, -913073.3, -991028.56, 97434.77, 0.1556318, 0.054700986, -847109.06, 83942.766, 0.0, 10.00042, 9.99938 
8.2502943e+2, 2.1499543e+2, -772541.75, -870618.3, 105476.01, 0.067410596, 0.077695005, -705261.75, 127792.39, 0.0, 10.000703, 9.999397 
8.250254e+2, 2.2499509e+2, -685231.06, -800471.4, 32325.36, -0.011230487, 0.11558895, -676782.94, 58274.81, 0.0, 10.000724, 9.999198 
8.250204e+2, 2.3499474e+2, -622045.75, -716685.5, 32217.75, -0.08100557, 0.154362, -612119.2, 24943.97, 0.0, 10.000475, 9.99922 
8.250159e+2, 2.44994e+2, -503247.88, -599141.1, 37762.973, -0.104287446, 0.15675147, -490162.38, 48907.355, 0.0, 10.000576, 9.999305 
8.2501197e+2, 2.549929e+2, -335546.03, -464361.2, 34282.96, -0.08139227, 0.108371936, -326990.22, 114087.69, 0.0, 10.001041, 9.999332 
8.2500863e+2, 2.6499155e+2, -281553.6, -480422.0, 74322.74, -0.04234119, 0.083215706, -256846.63, 86244.08, 0.0, 10.001139, 9.998504 
8.2500577e+2, 2.7498996e+2, -223906.75, -399928.56, 89845.9, 0.013208091, 0.06884367, -186147.22, 58961.42, 0.0, 10.000853, 9.99852 
8.2500196e+2, 2.8498837e+2, -89492.24, -277683.88, 9124.226, 0.06619837, 0.05463727, -89050.9, 58073.082, 0.0, 10.001073, 9.998582 
8.24997e+2, 2.9498675e+2, 114362.52, -130858.27, -13972.207, 0.1163103, 0.030410768, 115156.07, 164293.1, 0.0, 10.001809, 9.998562 
8.2499164e+2, 3.0498588e+2, 49539.58, -273377.28, 10987.745, 0.08577821, 0.15163694, 49913.02, 49913.02, 0.0, 10.001621, 9.99734 
8.2498693e+2, 3.1498367e+2, 8880.039, -85106.93, 24260.584, 0.08608747, 0.18747526, 14772.881, 14772.881, 0.000000023716037, 10.0004425, 9.9992 
8.3505803e+2, 1.2500057e+2, -1801294.0, -1667654.6, -11557.544, -0.0047187353, 0.093762144, -1666662.5, 48340.23, 0.000000000051048894, 9.999021, 10.000794 
8.350543e+2, 1.3500072e+2, -1681727.4, -1536952.3, 64509.055, -0.030658308, 0.005071614, -1512379.1, 104618.66, 0.0, 9.99907, 10.000999 
8.3504957e+2, 1.450018e+2, -1690868.4, -1631107.5, 56115.2, -0.1340212, 0.07995536, -1597413.1, -78424.21, 0.0, 9.998942, 9.999738 
8.350469e+2, 1.5500276e+2, -1621162.1, -1542752.3, 45534.242, -0.039993647, 0.19434607, -1521870.6, -100884.22, 0.0, 9.998733, 9.999771 
8.350441e+2, 1.6500278e+2, -1418853.3, -1303179.1, 78953.17, -0.0005892742, 0.17711422, -1263145.3, 59841.758, 0.0, 9.999056, 10.000586 
8.350414e+2, 1.7500186e+2, -1192153.0, -1142943.3, 97581.42, 0.00506765, 0.02438941, -1066912.5, 158077.72, 0.0, 9.999938, 10.000587 
8.350379e+2, 1.8500157e+2, -1138834.9, -1231923.8, 56682.832, -0.0131690875, 0.010109725, -1112035.4, 14957.039, 0.0, 10.000346, 9.999106 
8.3503366e+2, 1.9500181e+2, -1046866.75, -1134493.8, 42185.105, -0.061726432, 0.119096465, -1029859.1, -865.07935, 0.0, 10.000295, 9.999126 
8.350307e+2, 2.050016e+2, -898880.25, -958999.9, 106659.21, -0.07000559, 0.1595485, -818125.9, 112871.37, 0.0, 10.000407, 9.999606 
8.350291e+2, 2.1500081e+2, -757992.75, -838047.8, 116803.445, -0.034231104, 0.11614214, -674548.6, 158453.9, 0.0, 10.000691, 9.999626 
8.350261e+2, 2.250001e+2, -685039.9, -797492.5, 21520.514, -0.020459138, 0.10186659, -681062.06, 53947.14, 0.0, 10.000711, 9.999225 
8.350214e+2, 2.3499939e+2, -620635.8, -712828.4, 23658.002, -0.031416282, 0.10329152, -614919.3, 22098.363, 0.0, 10.000469, 9.999249 
8.350172e+2, 2.4499848e+2, -507191.06, -606489.6, 54010.277, -0.03660569, 0.089543104, -483477.13, 55549.3, 0.0, 10.000572, 9.999256 
8.350135e+2, 2.5499737e+2, -340516.75, -473134.72, 53279.344, -0.035636898, 0.04740526, -321763.6, 119272.29, 0.0, 10.001034, 9.999276 
8.3501005e+2, 2.6499668e+2, -250047.17, -415084.4, 63098.42, -0.009305246, 0.06415087, -228687.33, 114354.96, 0.0, 10.001137, 9.998954 
8.3500695e+2, 2.7499628e+2, -191342.66, -333775.9, 80332.04, 0.043427527, 0.12552118, -155204.53, 89841.63, 0.0, 10.000856, 9.998974 
8.350028e+2, 2.8499517e+2, -131009.26, -363050.13, 35981.0, 0.042901818, 0.16779163, -125557.99, 21499.938, 0.0, 10.001071, 9.997995 
8.349975e+2, 2.949933e+2, 71562.65, -216474.14, 15353.579, -0.014440403, 0.17591856, 72378.74, 121457.0, 0.0, 10.001797, 9.997979 
8.349928e+2, 3.0499154e+2, 68462.86, -232966.28, -32155.246, 0.04199381, 0.22304013, 71854.88, 71854.88, 0.0, 10.001615, 9.997622 
8.349898e+2, 3.1498885e+2, 43713.83, -18927.445, -17141.422, 0.32468852, 0.184337, 48097.684, 48097.684, 0.00000010288848, 10.000464, 9.999645 
8.4505695e+2, 1.250047e+2, -1971135.9, -1715231.1, -4533.5557, 0.049248207, 0.015104078, -1715150.9, -188.93678, 0.0, 9.997705, 10.0011015 
8.4505266e+2, 1.3500625e+2, -1846625.5, -1584471.8, 61602.1, -0.02998375, 0.039541773, -1570717.8, 46225.44, 0.0, 9.9978075, 10.001279 
8.4504765e+2, 1.450076e+2, -1815354.3, -1700041.4, 72032.5, -0.17451946, 0.13052362, -1665432.3, -146500.33, 0.0, 9.99813, 9.999655 
8.450445e+2, 1.5500776e+2, -1624336.8, -1552996.6, 84004.43, -0.14952792, 0.17298624, -1497402.8, -76465.51, 0.0, 9.99875, 9.999692 
8.450421e+2, 1.6500765e+2, -1451606.0, -1325488.9, 112593.06, -0.086587965, 0.14891924, -1259498.8, 63441.402, 0.0, 9.998859, 10.000527 
8.4504086e+2, 1.7500724e+2, -1413037.6, -1255494.3, 90384.79, 0.03132963, 0.0521094, -1214372.6, 10567.688, 0.0, 9.99845, 10.000532 
8.450379e+2, 1.8500727e+2, -1338039.5, -1292167.9, 72572.92, 0.028353153, 0.059663028, -1238992.8, -112053.695, 0.0, 9.998821, 9.999429 
8.450334e+2, 1.9500776e+2, -1072227.4, -1111368.6, 113107.5, -0.10267092, 0.15826672, -977009.9, 51926.727, 0.0, 9.999966, 9.999445 
8.450304e+2, 2.0500745e+2, -951913.2, -986412.56, 164782.02, -0.11885071, 0.1766323, -803480.44, 127459.086, 0.0, 10.000049, 9.999591 
8.450292e+2, 2.150063e+2, -998546.2, -955700.8, 154361.98, -0.016863815, 0.09792673, -821282.06, 11666.382, 0.0, 9.999046, 9.999611 
8.4502625e+2, 2.2500557e+2, -916982.94, -885235.56, 85702.95, 0.017323915, 0.07191878, -813948.6, -78993.625, 0.0, 9.999021, 9.999434 
8.450217e+2, 2.3500519e+2, -678682.56, -717254.25, 98515.94, -0.019730557, 0.08530342, -597582.5, 39376.95, 0.0, 9.999972, 9.999456 
8.4501797e+2, 2.4500443e+2, -534472.3, -648567.5, 126430.99, -0.01724181, 0.08734384, -452814.38, 86152.945, 0.0, 10.000509, 9.998998 
8.4501487e+2, 2.5500324e+2, -419953.5, -540030.94, 107767.84, 0.025031362, 0.0645808, -356628.72, 84350.234, 0.0, 10.000612, 9.99902 
8.4501165e+2, 2.650024e+2, -265427.2, -418125.7, 94344.445, 0.039715365, 0.08157674, -220408.88, 122577.73, 0.0, 10.001016, 9.99899 
8.4500813e+2, 2.7500188e+2, -59755.1, -265614.1, 78144.53, 0.028542474, 0.12463672, -33452.06, 211538.72, 0.0, 10.001745, 9.999012 
8.450041e+2, 2.8500074e+2, 985.97516, -326124.22, 36267.348, 0.011405545, 0.16859832, 4958.757, 151962.44, 0.0, 10.002094, 9.997756 
8.449994e+2, 2.9499882e+2, 85988.92, -236290.69, 38684.17, -0.01355803, 0.19861929, 90567.26, 139593.27, 0.0, 10.002011, 9.99774 
8.4499454e+2, 3.0499658e+2, 135535.23, -181442.55, -30521.52, 0.038406275, 0.20037165, 138447.38, 138447.38, 0.00000000024035085, 10.001991, 9.997794 
8.449906e+2, 3.1499407e+2, 289137.2, 127177.98, -29517.014, 0.2786941, 0.16383491, 294348.94, 294348.94, 0.00000026211356, 10.002032, 9.999892 
8.5505474e+2, 1.25009e+2, -1953907.4, -1680196.8, -2918.9985, 0.05378512, -0.04786102, -1680165.6, 34755.31, 0.0, 9.997707, 10.001343 
8.5505044e+2, 1.350122e+2, -1832273.9, -1553130.8, 64421.137, -0.03726209, 0.118104145, -1538980.8, 77906.8, 0.0, 9.997801, 10.001497 
8.5504544e+2, 1.4501351e+2, -1796411.1, -1660252.1, 93474.98, -0.21370941, 0.18012086, -1612692.6, -93817.375, 0.0, 9.998124, 9.999931 
8.550421e+2, 1.5501201e+2, -1605932.9, -1515772.1, 109463.914, -0.2639888, 0.03151468, -1442469.3, -21576.72, 0.0, 9.998752, 9.999948 
8.5503995e+2, 1.6501208e+2, -1494849.0, -1413845.9, 96332.66, -0.18804751, 0.04414021, -1349847.0, -26951.828, 0.0, 9.998855, 9.999924 
8.550392e+2, 1.7501368e+2, -1454425.9, -1340494.1, 75582.5, 0.023647562, 0.20692958, -1302814.3, -77931.45, 0.0, 9.998446, 9.99995 
8.550373e+2, 1.850144e+2, -1263476.3, -1135576.6, 114406.18, 0.08357516, 0.25696155, -1068460.3, 58414.97, 0.0, 9.998813, 10.000507 
8.550343e+2, 1.9501418e+2, -996965.0, -954670.25, 156517.75, -0.009909632, 0.17854793, -817877.7, 210995.39, 0.0, 9.999963, 10.000523 
8.5503167e+2, 2.0501336e+2, -971888.2, -1025344.4, 125007.09, -0.00043924304, 0.10557185, -870783.7, 60094.742, 0.0, 10.000037, 9.9993305 
8.550295e+2, 2.1501197e+2, -1017286.4, -993293.3, 116946.68, 0.11232341, 0.02559416, -887729.44, -54838.03, 0.0, 9.999041, 9.999356 
8.5502607e+2, 2.2501156e+2, -891689.5, -831129.56, 119667.32, 0.09467845, 0.027614014, -737970.7, -3076.0427, 0.0, 9.999013, 9.99981 
8.5502136e+2, 2.3501213e+2, -652741.0, -663075.1, 135236.58, -0.053297423, 0.09764068, -522572.78, 114315.8, 0.0, 9.99997, 9.999829 
8.550181e+2, 2.4501179e+2, -567923.9, -717144.0, 129130.74, -0.05294152, 0.14694612, -493398.38, 45494.184, 0.0, 10.0005045, 9.99853 
8.5501623e+2, 2.5501052e+2, -453159.38, -607811.06, 112337.88, 0.0960463, 0.15990101, -394106.75, 46800.293, 0.0, 10.000607, 9.998558 
8.550133e+2, 2.6500884e+2, -292885.84, -473607.9, 120455.12, 0.10096548, 0.13648085, -232666.17, 110257.37, 0.0, 10.001009, 9.998613 
8.550092e+2, 2.750068e+2, -88306.805, -322449.38, 107039.3, -0.041351642, 0.06619419, -46749.29, 198193.16, 0.0, 10.001735, 9.998627 
8.550057e+2, 2.8500494e+2, 7501.9214, -312072.8, 33899.08, -0.038383972, 0.056936905, 11058.211, 158019.52, 0.0, 10.0020895, 9.997855 
8.550027e+2, 2.9500324e+2, 94151.984, -221481.5, 38133.023, 0.11202777, 0.09484546, 98693.65, 147674.36, 0.0, 10.002018, 9.99784 
8.5499686e+2, 3.050009e+2, 138568.66, -174418.33, -29390.352, 0.0684065, 0.08116097, 141304.58, 141304.58, 0.0000000059514194, 10.00199, 9.997841 
8.549892e+2, 3.149991e+2, 288871.7, 128803.56, -26410.05, -0.07302216, 0.10860406, 293116.6, 293116.6, 0.0000005093443, 10.002023, 9.9999075 
8.6505103e+2, 1.2501492e+2, -1992152.9, -1695091.0, 36746.332, -0.072437644, 0.021246178, -1690613.0, 24250.846, 0.00000000000000000000885557, 9.997437, 10.0013685 
8.650479e+2, 1.3501747e+2, -1826440.1, -1552197.3, 80011.984, -0.07664493, 0.123239085, -1530560.3, 86276.97, 0.0, 9.997848, 10.001482 
8.650439e+2, 1.4501864e+2, -1771988.6, -1608118.9, 111418.54, -0.17597392, 0.15396836, -1551751.9, -32926.67, 0.0, 9.998117, 10.000294 
8.6504143e+2, 1.550176e+2, -1647464.4, -1496081.8, 130594.47, -0.18524729, 0.0141949, -1420829.1, 6.671938, 0.0, 9.998294, 10.000305 
8.6503917e+2, 1.6501771e+2, -1554023.1, -1495111.8, 116961.62, -0.1446004, 0.03924747, -1403953.8, -81116.086, 0.0, 9.99867, 9.999456 
8.650374e+2, 1.7501906e+2, -1368940.1, -1351259.6, 104609.37, -0.045837205, 0.2219871, -1255117.6, -30287.082, 0.0, 9.999254, 9.999488 
8.650355e+2, 1.8501969e+2, -1179118.5, -1071958.5, 126256.195, -0.0015359154, 0.2748371, -988383.7, 138441.02, 0.0, 9.999292, 10.000713 
8.650336e+2, 1.9501951e+2, -1156339.8, -1009281.44, 101247.41, -0.01384172, 0.18128395, -957680.4, 71140.77, 0.0, 9.998773, 10.000722 
8.650315e+2, 2.0501888e+2, -1088706.6, -1059078.0, 49158.76, 0.020646669, 0.10466377, -1022549.9, -91725.484, 0.0, 9.999138, 9.999531 
8.650291e+2, 2.1501775e+2, -808070.2, -870920.5, 72187.11, 0.099581756, 0.03366759, -760764.7, 72069.75, 0.0, 10.000382, 9.999551 
8.6502594e+2, 2.250174e+2, -621301.2, -725609.6, 83145.945, 0.08167707, 0.042300142, -575306.0, 159531.47, 0.0, 10.000974, 9.99959 
8.6502194e+2, 2.3501778e+2, -532224.0, -628901.7, 51501.254, -0.03200092, 0.11461209, -509929.8, 126904.22, 0.0, 10.000901, 9.999615 
8.650189e+2, 2.4501735e+2, -485007.38, -640114.3, 43089.08, -0.03968281, 0.14925404, -473841.0, 64997.11, 0.0, 10.000917, 9.9988575 
8.6501664e+2, 2.550161e+2, -367232.1, -530115.44, 83622.09, 0.057446558, 0.13108243, -331945.84, 108904.33, 0.0, 10.001042, 9.998879 
8.6501396e+2, 2.6501444e+2, -277279.4, -476693.25, 144197.89, 0.061935026, 0.09775895, -201673.75, 141192.36, 0.0, 10.0011635, 9.998515 
8.650108e+2, 2.750124e+2, -165425.6, -371297.72, 149728.6, -0.027600145, 0.038368415, -86662.77, 158223.48, 0.0, 10.001254, 9.998523 
8.650077e+2, 2.8501064e+2, -59373.867, -315895.13, 86966.32, -0.013736428, 0.031828336, -32670.215, 114234.016, 0.0, 10.00151, 9.998107 
8.6500466e+2, 2.9500914e+2, 106088.1, -186070.02, 99070.76, 0.10376236, 0.064087495, 136514.3, 185434.88, 0.0, 10.001977, 9.9981 
8.649988e+2, 3.0500656e+2, 161263.06, -194152.2, 22414.076, 0.05006107, 0.026140742, 162671.02, 162671.02, 0.000000027135602, 10.002278, 9.997566 
8.6499125e+2, 3.150051e+2, 302248.25, 92625.5, -4661.335, -0.07913507, 0.1158431, 302351.88, 302351.88, 0.00000083365, 10.002298, 9.999526 
8.750457e+2, 1.2502249e+2, -2004277.6, -1720160.3, 54022.535, -0.35319003, 0.21993132, -1710235.1, 4555.7275, 0.0000000055054987, 9.997431, 10.0012 
8.7504494e+2, 1.3502215e+2, -1841630.9, -1583449.9, 96224.086, -0.15804501, 0.05425303, -1551532.9, 65258.906, 0.0, 9.997846, 10.001269 
8.750431e+2, 1.4502308e+2, -1745263.3, -1552283.5, 116582.414, -0.074034885, 0.052187588, -1497440.1, 21341.215, 0.0, 9.998115, 10.000678 
8.750424e+2, 1.550245e+2, -1619659.4, -1437079.3, 137624.84, 0.07794562, 0.12010019, -1363219.5, 57547.3, 0.0, 9.998288, 10.000711 
8.750397e+2, 1.650246e+2, -1575676.3, -1540114.8, 136651.47, 0.03466201, 0.1361838, -1420092.1, -97324.39, 0.0, 9.998669, 9.999148 
8.750352e+2, 1.750234e+2, -1390756.3, -1397093.5, 127083.695, -0.18646176, 0.097152516, -1266801.8, -42018.176, 0.0, 9.999255, 9.999173 
8.750325e+2, 1.8502317e+2, -1226973.0, -1168939.8, 105314.44, -0.23582071, 0.11359967, -1088717.6, 38069.695, 0.0, 9.999283, 10.000053 
8.750313e+2, 1.9502383e+2, -1203077.8, -1104518.0, 82591.56, -0.120251164, 0.1681439, -1057621.6, -28841.61, 0.0, 9.998765, 10.000072 
8.750298e+2, 2.05024e+2, -1046419.44, -967984.0, 94646.54, -0.062084846, 0.17321536, -904751.75, 26024.865, 0.0, 9.999123, 10.000165 
8.750279e+2, 2.1502367e+2, -765149.94, -779516.25, 119655.13, -0.060694773, 0.11793207, -652462.56, 180314.8, 0.0, 10.000372, 10.000183 
8.750258e+2, 2.2502308e+2, -680763.4, -845768.94, 78523.08, -0.027274173, 0.11194432, -649368.94, 85414.49, 0.0, 10.000959, 9.998773 
8.750236e+2, 2.3502217e+2, -591251.9, -747601.2, 49637.914, 0.03747918, 0.13814314, -576824.2, 59971.08, 0.0, 10.000884, 9.998809 
8.750204e+2, 2.4502116e+2, -407853.28, -477629.2, 46197.77, 0.014211448, 0.09790036, -384849.9, 153953.36, 0.0, 10.000906, 9.999979 
8.7501615e+2, 2.5502e+2, -289955.44, -368348.1, 89583.914, -0.0994673, -0.021337084, -231368.17, 209439.89, 0.0, 10.001037, 9.999993 
8.7501365e+2, 2.650192e+2, -265846.5, -453095.03, 147756.86, -0.08501731, -0.034814354, -184549.1, 158265.11, 0.0, 10.001163, 9.998678 
8.75013e+2, 2.7501872e+2, -153532.31, -345862.13, 154679.63, 0.06072768, 0.04171613, -67561.35, 177260.84, 0.0, 10.00125, 9.998699 
8.7501013e+2, 2.8501782e+2, -33059.95, -260227.31, 102784.79, 0.07545172, 0.09405627, 6542.417, 153374.89, 0.0, 10.001506, 9.998492 
8.750051e+2, 2.9501647e+2, 131583.88, -130542.61, 118133.266, -0.045640964, 0.10522962, 176966.22, 225812.14, 0.0, 10.001966, 9.9984865 
8.750004e+2, 3.0501345e+2, 120382.6, -278099.3, 25426.018, -0.021201849, 0.033912368, 121998.414, 121998.414, 0.00000006425192, 10.002274, 9.996992 
8.7499684e+2, 3.1501186e+2, 250492.5, -17270.604, 169.71185, 0.23944755, 0.16812721, 250492.61, 250492.61, 0.0000011924308, 10.002308, 9.998767 
8.850433e+2, 1.2502684e+2, -2021311.0, -1734436.4, -38465.38, -0.32899696, 0.2366002, -1729368.4, -14620.114, 0.00000006865043, 9.997344, 10.001145 
8.8504255e+2, 1.3502626e+2, -1950477.5, -1646359.0, 1878.5813, -0.14313596, 0.0576113, -1646347.4, -29594.533, 0.0, 9.997147, 10.001173 
8.8504094e+2, 1.4502731e+2, -1844583.6, -1585810.0, 33141.21, -0.0604428, 0.06712397, -1581633.0, -62891.313, 0.0, 9.997373, 10.000806 
8.850406e+2, 1.5502931e+2, -1640000.4, -1431636.4, 33229.613, 0.080092035, 0.17804609, -1426465.3, -5744.1987, 0.0, 9.998084, 10.000847 
8.8503826e+2, 1.6502939e+2, -1563514.9, -1496276.9, 49255.465, 0.034371614, 0.16759065, -1470260.8, -147540.34, 0.0, 9.998593, 9.999484 
8.850344e+2, 1.7502756e+2, -1420949.9, -1375618.5, 84599.99, -0.18211685, 0.032376304, -1310700.5, -85961.195, 0.0, 9.998892, 9.999496 
8.850317e+2, 1.8502706e+2, -1266426.5, -1217183.3, 80748.51, -0.23367429, 0.0190113, -1157386.0, -30640.602, 0.0, 9.999135, 9.999794 
8.8503027e+2, 1.9502783e+2, -1139080.1, -1102259.6, 85120.9, -0.12966952, 0.111224994, -1033580.9, -4841.6763, 0.0, 9.999328, 9.999816 
8.850289e+2, 2.0502837e+2, -1018204.8, -948519.9, 117175.12, -0.07416389, 0.16224276, -861116.7, 69617.36, 0.0, 9.999291, 10.0002165 
8.850275e+2, 2.150286e+2, -959560.4, -867453.56, 96737.76, -0.065225124, 0.15915276, -806366.4, 26363.857, 0.0, 9.999013, 10.000235 
8.8502586e+2, 2.2502801e+2, -952476.3, -948400.7, 60980.84, -0.018414948, 0.1386462, -889423.6, -154688.11, 0.0, 9.998973, 9.999024 
8.8502395e+2, 2.3502657e+2, -822600.56, -831892.0, 108091.35, 0.0644167, 0.08586886, -719055.1, -82305.016, 0.0, 9.999177, 9.999053 
8.85021e+2, 2.4502553e+2, -553968.7, -547321.5, 127403.73, 0.033334035, 0.03025273, -423198.03, 115559.875, 0.0, 9.999899, 9.999987 
8.8501716e+2, 2.5502485e+2, -273482.28, -359808.5, 84302.09, -0.112382576, -0.042243883, -221935.86, 218823.48, 0.0, 10.001145, 10.000001 
8.8501495e+2, 2.6502436e+2, -191171.27, -408552.22, 71252.16, -0.10255037, -0.02844379, -169898.33, 172865.2, 0.0, 10.001641, 9.998753 
8.8501436e+2, 2.7502403e+2, -123135.08, -322087.25, 68010.43, 0.063748054, 0.057444453, -102108.42, 142662.47, 0.0, 10.001424, 9.998777 
8.8501173e+2, 2.8502345e+2, -23803.72, -233670.28, 23682.035, 0.083808966, 0.12705393, -21164.549, 125613.76, 0.0, 10.001473, 9.99869 
8.8500696e+2, 2.9502255e+2, 113504.055, -117565.016, 22942.48, -0.04534141, 0.16512506, 115759.95, 164546.53, 0.0, 10.001745, 9.998684 
8.8500273e+2, 3.0501944e+2, 141102.22, -262600.6, -44690.87, -0.02189297, 0.06756834, 145990.42, 145990.42, 0.00000010587227, 10.002393, 9.997042 
8.8499963e+2, 3.1501767e+2, 401676.22, 35661.715, -29954.166, 0.23744285, 0.1804985, 404111.4, 404111.4, 0.0000015115112, 10.003435, 9.998589 
8.950436e+2, 1.2502809e+2, -2021717.0, -1732831.4, -46788.66, -0.037766293, 0.076959394, -1725442.4, -10707.323, 0.00000033567557, 9.997333, 10.001162 
8.9504075e+2, 1.350299e+2, -1953589.6, -1652449.0, -5501.501, -0.038102146, 0.1391258, -1652348.6, -35628.66, 0.00000000007521531, 9.997145, 10.001132 
8.9503753e+2, 1.4503145e+2, -1847567.8, -1595465.4, 57001.49, -0.13904655, 0.20396322, -1583176.1, -64470.816, 0.0, 9.997384, 10.000735 
8.95036e+2, 1.5503208e+2, -1646127.5, -1444860.3, 61595.63, -0.18371646, 0.18716596, -1427505.9, -6807.8984, 0.0, 9.998085, 10.000757 
8.95035e+2, 1.6503212e+2, -1498472.5, -1359767.9, 59877.0, -0.15348832, 0.13257656, -1337496.0, -14800.695, 0.0, 9.998587, 10.000424 
8.950347e+2, 1.7503156e+2, -1355748.9, -1238310.0, 96636.805, -0.04066023, 0.027853724, -1183951.4, 40746.04, 0.0, 9.998883, 10.0004425 
8.950331e+2, 1.8503135e+2, -1259032.9, -1199364.6, 86001.72, -0.006132768, -0.008807839, -1138169.3, -11470.827, 0.0, 9.999124, 9.999922 
8.950304e+2, 1.9503152e+2, -1130541.1, -1083485.6, 92365.016, -0.050940037, 0.009193201, -1011698.9, 16999.813, 0.0, 9.999323, 9.999947 
8.950287e+2, 2.0503195e+2, -1055369.1, -1024174.75, 104611.164, -0.024427531, 0.069947906, -934004.44, -3307.874, 0.0, 9.999284, 9.9997015 
8.9502794e+2, 2.150326e+2, -996610.56, -941778.5, 86706.42, 0.07402463, 0.15930337, -878256.94, -45564.508, 0.0, 9.999002, 9.999729 
8.95026e+2, 2.2503228e+2, -862594.75, -760459.2, 66539.836, 0.09635553, 0.12611301, -727649.25, 7043.7393, 0.0, 9.998964, 10.0003195 
8.950228e+2, 2.35031e+2, -732497.94, -644377.75, 116721.56, 0.040159248, -0.042294532, -563677.25, 73021.31, 0.0, 9.999174, 10.000342 
8.9502066e+2, 2.4503046e+2, -632493.7, -710931.4, 172688.56, 0.010484712, -0.05535276, -494626.53, 44075.465, 0.0, 9.999901, 9.998863 
8.9501953e+2, 2.550306e+2, -353051.6, -521812.8, 132012.81, 0.009559791, 0.068248846, -280755.88, 159948.05, 0.0, 10.001131, 9.998895 
8.9501756e+2, 2.6502994e+2, -193429.8, -411925.6, 61394.883, -0.0015258846, 0.11887189, -177360.36, 165353.48, 0.0, 10.001634, 9.998734 
8.950149e+2, 2.7502838e+2, -125806.78, -326385.66, 61309.965, -0.026627406, 0.08503423, -108550.98, 136181.27, 0.0, 10.001418, 9.998752 
8.950124e+2, 2.8502756e+2, -24019.465, -232417.38, 34229.473, 0.003460567, 0.13165021, -18541.262, 128200.3, 0.0, 10.001466, 9.998702 
8.950101e+2, 2.9502746e+2, 114806.9, -115060.94, 35755.04, 0.09282331, 0.2456667, 120240.03, 168982.36, 0.0, 10.001745, 9.998701 
8.9500576e+2, 3.0502445e+2, 186727.66, -169284.33, -6128.0728, 0.035172455, 0.12681013, 186833.11, 186833.11, 0.00000013409642, 10.002398, 9.997681 
8.949997e+2, 3.1502232e+2, 429816.53, 94210.57, 12918.748, -0.10613111, 0.13781466, 430313.1, 430313.1, 0.0000016978646, 10.003432, 9.998992 
9.050407e+2, 1.2503041e+2, -2192401.0, -1808874.9, 2423.531, 0.0017801671, 0.0033636198, -1808859.5, -94148.84, 0.0000010657902, 9.99613, 10.001224 
9.0503854e+2, 1.3503283e+2, -1880983.4, -1613961.0, 41076.65, 0.0021644938, 0.12463322, -1607785.0, 8904.241, 0.000000007369457, 9.997625, 10.001165 
9.0503556e+2, 1.4503437e+2, -1687217.0, -1525354.9, 103164.23, -0.13037443, 0.19006947, -1475165.0, 43510.023, 0.0, 9.998519, 10.000668 
9.050338e+2, 1.5503438e+2, -1539282.9, -1401220.6, 105136.19, -0.25172067, 0.117116354, -1344478.5, 76196.23, 0.0, 9.998851, 10.000688 
9.050332e+2, 1.6503477e+2, -1449137.9, -1283574.4, 64019.99, -0.20596425, 0.07704273, -1261707.3, 60961.418, 0.0, 9.998695, 10.000897 
9.0503365e+2, 1.7503552e+2, -1440615.4, -1224767.5, 64123.52, 0.010535618, 0.05618823, -1207155.0, 17502.115, 0.0, 9.998069, 10.000927 
9.0503246e+2, 1.8503581e+2, -1400452.8, -1260293.6, 60196.39, 0.07001832, 0.039324425, -1237989.5, -111336.15, 0.0, 9.998124, 9.999985 
9.050297e+2, 1.9503558e+2, -1195863.0, -1109535.0, 60279.33, -0.027173573, 0.013807974, -1078559.1, -49901.402, 0.0, 9.998849, 9.999998 
9.050281e+2, 2.0503575e+2, -1053499.5, -1030172.44, 70107.22, -0.013852568, 0.04936708, -970765.2, -40107.086, 0.0, 9.999328, 9.999639 
9.0502757e+2, 2.1503627e+2, -917724.5, -911443.2, 82437.0, 0.10635602, 0.13150837, -832087.06, 567.8889, 0.0, 9.999577, 9.999661 
9.050258e+2, 2.2503604e+2, -689204.1, -666103.6, 55819.6, 0.11549616, 0.10514031, -620651.8, 114002.68, 0.0, 10.00011, 10.000416 
9.050226e+2, 2.3503502e+2, -470176.88, -507888.56, 13241.363, 0.012378403, -0.04401816, -465991.97, 170665.17, 0.0, 10.000932, 10.000433 
9.0502095e+2, 2.4503453e+2, -534628.44, -706001.5, 36564.965, 0.0011551124, -0.03890429, -527152.9, 11508.335, 0.0, 10.000757, 9.998483 
9.050206e+2, 2.5503448e+2, -602566.1, -684880.44, 47698.773, 0.0809365, 0.102532156, -580722.6, -140055.44, 0.0, 9.999604, 9.998509 
9.050188e+2, 2.6503363e+2, -465071.97, -532632.56, 30603.676, 0.054597374, 0.15006308, -453270.56, -110591.06, 0.0, 9.999725, 9.998823 
9.0501565e+2, 2.7503192e+2, -164302.39, -335680.38, 36114.1, -0.07959918, 0.09345005, -157003.03, 87695.46, 0.0, 10.001111, 9.9988365 
9.050133e+2, 2.8503093e+2, 31739.56, -201338.27, 1183.2649, -0.06904739, 0.1156985, 31745.568, 178454.48, 0.0, 10.00183, 9.998741 
9.050119e+2, 2.9503062e+2, 139224.58, -97438.19, 703.1723, 0.08701042, 0.20414652, 139226.67, 187937.88, 0.0, 10.001892, 9.99875 
9.050083e+2, 3.0502766e+2, 239776.02, -130875.055, -15514.047, 0.038347527, 0.08413991, 240424.25, 240424.25, 0.0000001316986, 10.002709, 9.997793 
9.05003e+2, 3.15026e+2, 534594.3, 130288.266, -41861.785, -0.15831408, 0.12916273, 538883.2, 538883.2, 0.0000016698094, 10.004216, 9.998861 
9.150346e+2, 1.2503386e+2, -2178002.0, -1783970.8, 62626.676, -0.22814262, 0.01758687, -1774256.4, -59581.668, 0.000002613721, 9.99615, 10.001386 
9.1503584e+2, 1.3503516e+2, -1872189.5, -1594364.0, 96556.51, -0.029696213, 0.012618699, -1564102.5, 52557.656, 0.00000007607973, 9.99762, 10.001304 
9.1503495e+2, 1.4503615e+2, -1695889.3, -1541231.9, 114464.58, -0.048211664, 0.023077194, -1480423.4, 38226.984, 0.0, 9.998508, 10.000565 
9.150339e+2, 1.5503629e+2, -1546033.8, -1413542.6, 118589.95, -0.13514012, -0.029675122, -1343949.9, 76701.07, 0.0, 9.998843, 10.000607 
9.1503257e+2, 1.650374e+2, -1447048.5, -1278662.9, 38090.273, -0.13279702, 0.005248632, -1270447.3, 52192.82, 0.0, 9.9986925, 10.000933 
9.1503125e+2, 1.750395e+2, -1438054.1, -1220519.5, 40889.395, -0.035550334, 0.117578715, -1213087.5, 11530.64, 0.0, 9.998073, 10.000956 
9.1502976e+2, 1.8504041e+2, -1399967.3, -1259133.0, 85830.016, -0.0126785645, 0.16133198, -1218530.5, -91920.58, 0.0, 9.998124, 9.999992 
9.150282e+2, 1.9504009e+2, -1196911.9, -1109257.5, 87769.76, -0.065289766, 0.12512831, -1054980.9, -26365.305, 0.0, 9.998839, 10.000004 
9.15027e+2, 2.0503984e+2, -1030155.1, -979964.7, 77823.984, -0.051791508, 0.101610236, -923289.8, 7328.155, 0.0, 9.999318, 9.9999895 
9.1502637e+2, 2.1503964e+2, -894110.5, -860016.0, 92363.055, 0.02601441, 0.076023124, -783140.2, 49477.22, 0.0, 9.999566, 10.000019 
9.150251e+2, 2.2503929e+2, -767357.6, -826968.94, 84985.445, 0.033817276, 0.07466992, -707102.75, 27516.973, 0.0, 10.000102, 9.999315 
9.150232e+2, 2.3503874e+2, -548159.0, -667939.0, 45258.023, -0.026623594, 0.08154073, -532981.7, 103643.7, 0.0, 10.000923, 9.999339 
9.150216e+2, 2.4503782e+2, -511549.88, -656481.9, -8098.1133, -0.00655188, 0.0821908, -511098.78, 27536.045, 0.0, 10.00075, 9.998826 
9.1502035e+2, 2.550365e+2, -579354.7, -636003.56, 5995.6665, 0.09283675, 0.06215144, -578727.06, -138078.55, 0.0, 9.999601, 9.998846 
9.150186e+2, 2.6503545e+2, -451730.06, -506239.47, 82476.88, 0.058839176, 0.065954216, -392121.3, -49461.26, 0.0, 9.999729, 9.999003 
9.150165e+2, 2.7503467e+2, -150963.67, -308297.6, 90175.92, -0.10591159, 0.080649346, -109963.64, 134706.08, 0.0, 10.00111, 9.999026 
9.150144e+2, 2.8503352e+2, 33899.133, -194294.23, 1750.3627, -0.14795068, 0.07798629, 33912.56, 180593.03, 0.0, 10.001821, 9.998794 
9.150122e+2, 2.9503202e+2, 140445.7, -90844.27, 4788.8965, -0.0706733, 0.04060509, 140544.81, 189237.94, 0.0, 10.001875, 9.998803 
9.150105e+2, 3.050291e+2, 209298.17, -193132.83, 41686.36, -0.01627222, -0.059209827, 213570.95, 213570.95, 0.00000009563079, 10.002703, 9.997371 
9.1500944e+2, 3.1502855e+2, 490872.53, 34626.55, 19666.453, 0.061095014, 0.14345263, 491718.7, 491718.7, 0.0000014046396, 10.004233, 9.998198 
9.250315e+2, 1.2503712e+2, -1844807.4, -1624016.6, 45363.35, -0.2687311, 0.084164135, -1615059.6, 99582.97, 0.0000053718704, 9.9984455, 10.00137 
9.250334e+2, 1.3503744e+2, -1803450.9, -1567628.1, 53344.145, -0.05826371, -0.015248335, -1556122.8, 60513.086, 0.00000033393198, 9.998118, 10.0012455 
9.2503333e+2, 1.4503826e+2, -1804879.6, -1578652.0, 52914.043, -0.020479072, -0.024169967, -1566887.4, -48260.504, 0.0, 9.997699, 10.000696 
9.250331e+2, 1.5503904e+2, -1770681.5, -1505701.6, 70202.12, -0.017134644, -0.024642054, -1488251.8, -67630.42, 0.0, 9.997238, 10.000745 
9.250318e+2, 1.6504021e+2, -1586375.0, -1357795.5, 14528.286, -0.037954353, 0.012671046, -1356875.8, -34265.133, 0.0, 9.997795, 10.000818 
9.250296e+2, 1.7504176e+2, -1260111.3, -1148285.6, 4193.488, -0.07575573, 0.08115255, -1148128.6, 76465.91, 0.0, 9.999353, 10.0008335 
9.250282e+2, 1.8504259e+2, -1142166.5, -1148012.9, 29263.846, -0.07575545, 0.12882265, -1115680.1, 10907.574, 0.0, 9.99995, 9.999876 
9.2502767e+2, 1.9504265e+2, -1094121.5, -1072243.4, 19275.994, -0.042392552, 0.14294933, -1061018.8, -32427.967, 0.0, 9.999599, 9.999891 
9.250268e+2, 2.0504239e+2, -983121.56, -928629.6, 5276.7456, -0.020840527, 0.110388465, -928123.4, 2469.1794, 0.0, 9.999521, 10.000241 
9.2502564e+2, 2.1504176e+2, -853998.06, -814081.25, 8862.832, -0.0111112, 0.017696036, -812201.9, 20391.627, 0.0, 9.999726, 10.0002575 
9.2502445e+2, 2.2504137e+2, -847919.8, -916830.9, 28259.361, -0.014657862, 0.025464743, -837813.3, -103216.11, 0.0, 9.99977, 9.998858 
9.2502344e+2, 2.3504123e+2, -764265.1, -822510.94, 32928.14, -0.0322825, 0.117661886, -749428.9, -112824.875, 0.0, 9.999658, 9.998887 
9.2502195e+2, 2.4504037e+2, -555965.9, -619724.6, -499.44977, -0.015927695, 0.12213144, -555961.94, -17349.006, 0.0, 10.000194, 9.999348 
9.250202e+2, 2.5503883e+2, -283934.63, -435723.28, 25116.924, 0.033013716, 0.026531082, -279886.44, 160738.05, 0.0, 10.001379, 9.999367 
9.250188e+2, 2.650377e+2, -214412.25, -415231.3, 102781.734, 0.019099243, 0.0065651047, -171134.06, 171501.06, 0.0, 10.00146, 9.998796 
9.250178e+2, 2.7503696e+2, -261496.55, -384023.9, 77911.82, -0.055509996, 0.048176646, -223646.72, 20998.494, 0.0, 10.00045, 9.998822 
9.2501616e+2, 2.8503585e+2, -147674.06, -312292.0, -12773.419, -0.095605895, 0.06967235, -146688.81, -31.625853, 0.0, 10.000704, 9.998521 
9.250139e+2, 2.950343e+2, 168272.6, -108068.62, -37413.848, -0.10263996, 0.055807788, 173248.47, 221920.16, 0.0, 10.002194, 9.998533 
9.2501295e+2, 3.050314e+2, 242069.55, -161081.81, 9980.508, -0.044231277, -0.033607833, 242316.48, 242316.48, 0.00000004550982, 10.002856, 9.997518 
9.2501354e+2, 3.1503072e+2, 262774.72, -81007.625, 25131.26, 0.12006594, 0.14016853, 264602.16, 264602.16, 0.0000009683944, 10.00269, 9.998147 
9.350312e+2, 1.2504017e+2, -1862470.3, -1656873.4, 37628.457, -0.1523271, 0.18624829, -1650203.0, 64411.625, 0.000009857008, 9.998427, 10.001155 
9.3503124e+2, 1.3503979e+2, -1820958.1, -1605873.3, 42335.34, -0.08968492, 0.044564433, -1597840.4, 18774.373, 0.0000009955157, 9.998128, 10.000979 
9.350307e+2, 1.4504087e+2, -1777164.6, -1525647.4, 32938.3, -0.05330791, 0.053711563, -1521405.4, -2802.259, 0.00000000002439963, 9.997715, 10.001055 
9.350314e+2, 1.5504275e+2, -1747017.8, -1455987.1, 53183.652, 0.09431519, 0.13003011, -1446572.8, -25987.012, 0.0, 9.997234, 10.00109 
9.3503064e+2, 1.6504326e+2, -1606382.4, -1396883.0, 72105.31, 0.070384465, 0.097454116, -1374464.8, -51884.957, 0.0, 9.997785, 10.000556 
9.350285e+2, 1.7504236e+2, -1280802.3, -1188622.9, 63573.223, -0.11763227, -0.051554777, -1156189.9, 68395.6, 0.0, 9.999343, 10.000562 
9.3502766e+2, 1.8504241e+2, -1162041.0, -1186114.5, 14415.377, -0.12868859, -0.05507877, -1155297.9, -28711.564, 0.0, 9.999936, 9.999621 
9.35028e+2, 1.9504334e+2, -1112328.5, -1107245.1, 6826.0674, 0.033068243, 0.068581365, -1102503.0, -73920.28, 0.0, 9.999589, 9.999656 
9.3502724e+2, 2.0504342e+2, -974694.94, -910392.5, 10825.146, 0.07032707, 0.07699123, -908619.0, 21962.295, 0.0, 9.999516, 10.000371 
9.3502533e+2, 2.1504268e+2, -846710.44, -796542.75, 17113.447, -0.013568624, -0.040683627, -791261.0, 41321.563, 0.0, 9.999715, 10.000384 
9.35024e+2, 2.2504239e+2, -838001.1, -893322.94, 22301.156, -0.040064976, -0.03855624, -830130.8, -95544.66, 0.0, 9.999758, 9.999026 
9.350233e+2, 2.3504251e+2, -753776.5, -798505.9, 29839.27, -0.011165732, 0.065012455, -738851.0, -102258.28, 0.0, 9.999647, 9.999057 
9.3502206e+2, 2.450422e+2, -507500.1, -517758.38, 42899.55, -0.033735435, 0.0795568, -469424.16, 69171.39, 0.0, 10.000187, 10.0000515 
9.350202e+2, 2.5504145e+2, -235478.34, -333964.97, 70879.56, -0.10626039, -0.006042153, -198415.13, 242179.88, 0.0, 10.001373, 10.000071 
9.350194e+2, 2.6504037e+2, -257272.88, -502315.63, 63490.133, -0.073762655, -0.028400324, -241799.75, 100804.81, 0.0, 10.001452, 9.998201 
9.3501943e+2, 2.7503887e+2, -305179.38, -472396.13, 41635.18, 0.06090077, -0.002325384, -295386.22, -50761.625, 0.0, 10.000442, 9.9982195 
9.350186e+2, 2.850379e+2, -188719.44, -398238.97, 42914.734, 0.07807156, 0.09388475, -180270.17, -33631.645, 0.0, 10.000704, 9.997932 
9.35017e+2, 2.9503745e+2, 129373.664, -192498.02, 21135.43, -0.020788446, 0.24848829, 130755.57, 179402.23, 0.0, 10.002206, 9.99795 
9.350157e+2, 3.050346e+2, 290898.9, -59372.242, 2449.9978, -0.05879518, 0.15723538, 290916.03, 290916.03, 0.000000010385675, 10.002855, 9.998217 
9.3501496e+2, 3.1503242e+2, 298084.4, -1738.3384, 23350.95, -0.008223708, 0.11019942, 299892.16, 299892.16, 0.00000050425, 10.002665, 9.998704 
9.4503045e+2, 1.2504113e+2, -1950988.6, -1726224.4, -1324.4376, -0.04122236, 0.14695776, -1726216.5, -11613.141, 0.000016753027, 9.997933, 10.00092 
9.450296e+2, 1.3504091e+2, -1841938.6, -1643581.0, -9068.113, -0.06350383, 0.04649684, -1643167.4, -26563.281, 0.000002343361, 9.998107, 10.000729 
9.450284e+2, 1.4504199e+2, -1683116.5, -1481896.3, -29317.7, -0.0824386, 0.07077804, -1477711.8, 40881.188, 0.0000000053592455, 9.998373, 10.001035 
9.450287e+2, 1.550437e+2, -1524662.3, -1351369.1, -37907.03, 0.029983638, 0.13099071, -1343440.0, 77136.805, 0.0, 9.998772, 10.001067 
9.450285e+2, 1.6504423e+2, -1458412.0, -1305620.1, 7490.3066, 0.028345933, 0.09305098, -1305253.9, 17316.635, 0.0, 9.9987135, 10.000735 
9.4502765e+2, 1.7504357e+2, -1433421.5, -1241174.8, 29509.678, -0.08304221, -0.05133224, -1236747.0, -12173.013, 0.0, 9.998207, 10.000748 
9.450272e+2, 1.850437e+2, -1415673.6, -1284788.9, -3540.677, -0.079755105, -0.067272715, -1284693.1, -158119.63, 0.0, 9.998096, 9.999828 
9.4502705e+2, 1.9504455e+2, -1273501.9, -1162529.1, 20292.5, 0.035246395, 0.02896762, -1158934.9, -130365.51, 0.0, 9.998386, 9.999855 
9.450262e+2, 2.0504478e+2, -1105096.8, -980012.3, 44494.31, 0.060599327, 0.044988744, -965799.9, -35233.137, 0.0, 9.998651, 10.00031 
9.450247e+2, 2.1504438e+2, -971008.8, -862652.75, 33400.973, -0.0030424981, -0.031088078, -853184.25, -20618.234, 0.0, 9.99889, 10.000326 
9.450237e+2, 2.2504419e+2, -895191.7, -899875.7, 34294.27, -0.018690795, -0.02561122, -863159.56, -128590.516, 0.0, 9.999275, 9.999213 
9.4502324e+2, 2.3504418e+2, -718599.44, -760639.3, 40969.977, 0.012171071, 0.04539479, -693571.9, -56995.67, 0.0, 9.999801, 9.999243 
9.450224e+2, 2.4504401e+2, -526791.4, -550465.5, 40689.066, -0.010844114, 0.075397685, -496252.56, 42325.664, 0.0, 10.000154, 9.999845 
9.450212e+2, 2.5504366e+2, -400007.63, -436563.3, -3058.159, -0.08677196, 0.04939891, -399753.56, 40822.168, 0.0, 10.00034, 9.999864 
9.450205e+2, 2.650425e+2, -367863.94, -573557.4, -58385.242, -0.07176671, 0.0393539, -352447.03, -9860.551, 0.0, 10.000767, 9.998043 
9.450201e+2, 2.7504054e+2, -170191.53, -425772.03, -48577.727, 0.032393392, 0.03274299, -161269.88, 83340.78, 0.0, 10.001443, 9.998059 
9.450197e+2, 2.8503925e+2, -25076.277, -327070.22, 29497.307, 0.059442315, 0.110053584, -22222.1, 124404.81, 0.0, 10.001862, 9.997864 
9.450194e+2, 2.950387e+2, 97756.52, -214214.58, 43979.8, 0.010434662, 0.2601671, 103837.984, 152473.39, 0.0, 10.002021, 9.997889 
9.450185e+2, 3.05036e+2, 264323.03, -56761.277, 10454.065, -0.05218701, 0.18257071, 264663.03, 264663.03, 0.00000000032400083, 10.002608, 9.998352 
9.4501716e+2, 3.1503388e+2, 436328.3, 66342.914, -16251.144, -0.10193209, 0.1254322, 437040.75, 437040.75, 0.00000016973306, 10.003612, 9.998714 
9.550292e+2, 1.2504017e+2, -1966291.0, -1763223.9, 11729.797, 0.034222733, -0.025608696, -1762548.5, -47941.016, 0.00002677623, 9.997952, 10.000658 
9.550285e+2, 1.3504088e+2, -1860727.8, -1681727.5, -3168.687, 0.014209842, -0.0072150677, -1681671.4, -65068.727, 0.0000047533053, 9.9981, 10.000471 
9.550265e+2, 1.4504173e+2, -1712260.8, -1539414.1, -15376.813, -0.11656488, 0.026578106, -1538056.8, -19461.174, 0.000000046136613, 9.998359, 10.000648 
9.550251e+2, 1.55042e+2, -1552630.0, -1407587.8, -21238.742, -0.21676104, -0.020682437, -1404541.8, 16052.119, 0.0, 9.998764, 10.000684 
9.550252e+2, 1.6504323e+2, -1416218.4, -1217386.3, -12493.853, -0.1726226, 0.0015617345, -1216604.3, 105977.48, 0.0, 9.998709, 10.001343 
9.550269e+2, 1.750454e+2, -1390128.4, -1151144.5, 11403.45, 0.019416519, 0.07940356, -1150601.6, 73958.14, 0.0, 9.998204, 10.001368 
9.550267e+2, 1.8504645e+2, -1369837.9, -1189656.5, 5658.754, 0.06183316, 0.09127441, -1189478.9, -62929.727, 0.0, 9.9980955, 10.000483 
9.5502466e+2, 1.9504632e+2, -1229327.8, -1069838.6, 31658.588, -0.042283647, 0.026141332, -1063784.1, -35233.78, 0.0, 9.998382, 10.000495 
9.550237e+2, 2.0504647e+2, -1124445.4, -1018815.06, 51604.824, -0.058060072, 0.014990143, -997789.2, -67240.65, 0.0, 9.998644, 10.000048 
9.550238e+2, 2.1504685e+2, -989754.75, -899898.3, 43152.24, 0.012823934, 0.04304465, -882531.56, -49987.637, 0.0, 9.998882, 10.000075 
9.5502365e+2, 2.250468e+2, -882580.94, -870748.06, 52071.133, 0.040978145, 0.06232479, -824258.3, -89712.57, 0.0, 9.999262, 9.999419 
9.5502317e+2, 2.3504624e+2, -705703.9, -732099.0, 61802.3, 0.027709408, 0.0581338, -655705.75, -19151.428, 0.0, 9.999791, 9.999443 
9.550231e+2, 2.4504581e+2, -606039.4, -713770.0, 46505.37, 0.041320637, 0.10737016, -588741.3, -50180.4, 0.0, 10.000148, 9.998725 
9.550233e+2, 2.5504544e+2, -479767.75, -599957.25, 5140.4385, 0.079913415, 0.19415541, -479548.28, -38982.09, 0.0, 10.000332, 9.998745 
9.5502216e+2, 2.6504415e+2, -347658.94, -532467.1, -33463.6, 0.015771244, 0.21215719, -341786.22, 794.15393, 0.0, 10.000769, 9.998325 
9.550197e+2, 2.7504194e+2, -149235.97, -382941.7, -21550.969, -0.15002227, 0.15094267, -147265.28, 97338.17, 0.0, 10.001445, 9.998354 
9.550194e+2, 2.8503993e+2, 5520.116, -261466.97, 34597.277, -0.16079631, 0.115569286, 9930.517, 156552.89, 0.0, 10.001854, 9.998318 
9.5502114e+2, 2.9503804e+2, 126654.92, -149866.38, 52305.05, -0.02106201, 0.092783116, 136217.9, 184855.47, 0.0, 10.002003, 9.998338 
9.550213e+2, 3.050357e+2, 233011.6, -120797.19, 48064.34, -0.034066968, 0.046212144, 239424.81, 239424.81, 0.0, 10.0026, 9.997919 
9.5502e+2, 3.1503507e+2, 398374.1, -11190.711, 26473.676, -0.18161517, 0.18531315, 400078.22, 400078.22, 0.000000027453995, 10.003604, 9.998187 
9.6502817e+2, 1.2504035e+2, -1758638.4, -1678686.1, 4822.631, 0.0594896, -0.07198119, -1678396.4, 36207.88, 0.000040530904, 9.999451, 10.000511 
9.6502703e+2, 1.3504149e+2, -1819203.6, -1679477.0, -17323.588, 0.04450318, 0.004661973, -1677361.3, -60763.84, 0.000008656152, 9.998463, 10.00031 
9.650249e+2, 1.4504246e+2, -1764705.4, -1535986.3, 20812.31, -0.09066801, 0.04420377, -1534107.9, -15518.36, 0.00000019058375, 9.997879, 10.0009 
9.650233e+2, 1.550424e+2, -1691594.1, -1446414.0, 57806.598, -0.22062615, -0.060526658, -1433468.4, -12879.207, 0.0, 9.997693, 10.000932 
9.650233e+2, 1.6504385e+2, -1561401.9, -1289658.0, 60140.125, -0.1868164, -0.02852671, -1276943.1, 45632.33, 0.0, 9.997726, 10.001319 
9.650249e+2, 1.7504676e+2, -1422087.0, -1168315.8, 34824.605, 0.010938228, 0.12646775, -1163623.6, 60925.145, 0.0, 9.997996, 10.0013485 
9.6502495e+2, 1.8504804e+2, -1263197.3, -1103735.8, 24497.152, 0.048305254, 0.14840733, -1100057.3, 26478.35, 0.0, 9.99868, 10.000791 
9.6502346e+2, 1.9504765e+2, -1005980.94, -927370.6, 22536.514, -0.07255009, 0.025345458, -921368.06, 107168.49, 0.0, 9.999766, 10.000805 
9.6502274e+2, 2.050478e+2, -917179.4, -943036.7, 8753.381, -0.09359464, 0.009030473, -914494.8, 16040.191, 0.0, 10.000174, 9.999828 
9.6502286e+2, 2.1504845e+2, -853919.7, -859243.1, 682.3672, -0.017792001, 0.085335575, -853833.6, -21302.375, 0.0, 9.999923, 9.999853 
9.6502316e+2, 2.2504845e+2, -772300.2, -807361.6, 25675.754, 0.027311804, 0.118113294, -758741.2, -24208.39, 0.0, 9.999974, 9.999512 
9.6502346e+2, 2.3504776e+2, -621786.8, -681290.75, 23024.955, 0.042863816, 0.0907327, -613917.94, 22622.125, 0.0, 10.000322, 9.9995365 
9.650237e+2, 2.4504699e+2, -586255.2, -753537.75, 18076.213, 0.0650141, 0.12300081, -584324.2, -45774.28, 0.0, 10.000498, 9.998282 
9.650239e+2, 2.550461e+2, -483101.0, -650673.44, 25951.338, 0.09291404, 0.20165135, -479174.03, -38611.426, 0.0, 10.000523, 9.998304 
9.65023e+2, 2.6504466e+2, -321715.0, -511081.44, 30236.865, 0.018852687, 0.22160047, -317004.16, 25574.678, 0.0, 10.000912, 9.998403 
9.650212e+2, 2.750426e+2, -112731.43, -357076.06, 22887.61, -0.15728033, 0.17181806, -110606.05, 133992.83, 0.0, 10.001661, 9.998427 
9.6502125e+2, 2.850406e+2, 50301.65, -227959.33, 38619.477, -0.17514491, 0.12792763, 55562.145, 202178.22, 0.0, 10.002108, 9.998427 
9.650231e+2, 2.9503858e+2, 173709.58, -116113.58, 27538.508, -0.03714113, 0.07793164, 176303.03, 224933.78, 0.0, 10.0022745, 9.998442 
9.6502393e+2, 3.05036e+2, 177693.83, -185137.77, 30822.549, -0.020432424, 0.021709355, 180293.58, 180293.58, 0.0, 10.002386, 9.997579 
9.6502376e+2, 3.150348e+2, 198102.6, -153295.03, 11140.172, -0.10917413, 0.13995689, 198455.4, 198455.4, 0.00000000015790982, 10.002424, 9.99778 
9.750271e+2, 1.250418e+2, -1763993.5, -1685678.1, -22476.43, 0.005709361, 0.004819608, -1679685.9, 34906.832, 0.000058506626, 9.999431, 10.000474 
9.750253e+2, 1.3504286e+2, -1823430.4, -1688537.8, -52481.742, 0.017982379, 0.08123844, -1670524.5, -53937.227, 0.00001444443, 9.998463, 10.000249 
9.750235e+2, 1.4504425e+2, -1705585.3, -1413696.6, 12957.908, -0.017578442, 0.12401671, -1413122.5, 105451.31, 0.0000005546723, 9.997879, 10.00174 
9.750233e+2, 1.5504494e+2, -1632812.9, -1323965.9, 51873.785, 0.009069676, 0.010615742, -1315486.0, 105076.414, 0.0, 9.997688, 10.001776 
9.750227e+2, 1.650461e+2, -1607692.4, -1384019.6, 68624.66, -0.024396764, 0.004684749, -1364643.5, -42092.17, 0.0, 9.997719, 10.000675 
9.7502166e+2, 1.7504771e+2, -1468515.0, -1263665.6, 45736.76, -0.11462299, 0.09425612, -1253917.8, -29377.354, 0.0, 9.997991, 10.000697 
9.7502184e+2, 1.8504854e+2, -1265791.5, -1107939.4, 64085.176, -0.1284428, 0.10432806, -1085198.3, 41334.27, 0.0, 9.998674, 10.000765 
9.750233e+2, 1.9504857e+2, -1008895.8, -931353.3, 63772.793, -0.0642969, 0.024009164, -895490.94, 133036.78, 0.0, 9.999756, 10.000783 
9.750233e+2, 2.050488e+2, -931167.3, -970032.56, -2888.573, -0.0564056, 0.026938934, -930953.8, -427.89273, 0.0, 10.000164, 9.999648 
9.7502196e+2, 2.150492e+2, -868558.6, -887022.44, -8158.603, -0.10281137, 0.097528316, -865470.2, -32942.71, 0.0, 9.999912, 9.999667 
9.7502214e+2, 2.2504921e+2, -775715.0, -813123.4, 37088.992, -0.067629464, 0.14190212, -752880.75, -18351.05, 0.0, 9.999967, 9.999476 
9.750238e+2, 2.350488e+2, -626400.44, -687440.56, 36959.848, 0.048392862, 0.1457273, -608988.2, 27544.809, 0.0, 10.000308, 9.999501 
9.7502404e+2, 2.4504761e+2, -570995.94, -720507.5, 17366.564, 0.051896747, 0.12762848, -569005.2, -30460.615, 0.0, 10.000491, 9.998513 
9.750229e+2, 2.5504565e+2, -467283.6, -616086.6, 28201.236, -0.05411041, 0.07205075, -462118.2, -21553.424, 0.0, 10.000516, 9.998545 
9.750231e+2, 2.6504397e+2, -331745.53, -532325.75, 58076.613, -0.07106675, 0.066023745, -316143.44, 26438.547, 0.0, 10.000913, 9.998257 
9.750244e+2, 2.7504256e+2, -124679.92, -379703.72, 53089.69, -0.00182862, 0.0969142, -114069.414, 130527.24, 0.0, 10.001652, 9.998276 
9.750251e+2, 2.8504136e+2, 33400.977, -262976.16, 44504.56, 0.004340071, 0.15182717, 39939.613, 186547.05, 0.0, 10.002106, 9.998188 
9.750253e+2, 2.9504025e+2, 156754.08, -150265.55, 36260.613, -0.049245235, 0.21758753, 160978.52, 209593.17, 0.0, 10.00227, 9.998211 
9.750263e+2, 3.050369e+2, 157016.31, -226656.47, 31917.162, -0.02138922, 0.108448535, 159653.33, 159653.33, 0.0, 10.002377, 9.9973 
9.750283e+2, 3.15033e+2, 173996.53, -198368.25, 17843.557, 0.09129963, -0.020527963, 174849.64, 174849.64, 0.0, 10.002403, 9.99748 
9.8502576e+2, 1.250426e+2, -2015920.4, -1752983.0, -73400.62, 0.0280346, 0.09137609, -1733880.5, -19289.973, 0.00008108169, 9.997472, 10.000954 
9.850231e+2, 1.350436e+2, -1903035.1, -1673069.3, -79312.695, -0.0073160664, 0.11282472, -1648368.3, -31784.979, 0.000022462764, 9.997685, 10.000729 
9.8502135e+2, 1.4504531e+2, -1718163.4, -1396552.3, -6694.2227, -0.010187239, 0.15170598, -1396412.9, 122152.555, 0.0000013019285, 9.997691, 10.001949 
9.850217e+2, 1.550466e+2, -1641581.8, -1303308.3, -16745.365, 0.09600045, 0.07672897, -1302481.4, 118066.3, 0.0, 9.997523, 10.001996 
9.850211e+2, 1.6504768e+2, -1612758.0, -1405629.1, 20849.893, 0.050808184, 0.05955235, -1403551.1, -81014.27, 0.0, 9.9977665, 10.000504 
9.8501956e+2, 1.7504849e+2, -1419744.3, -1259087.8, 31566.588, -0.14012668, 0.086684905, -1253107.9, -28574.559, 0.0, 9.998407, 10.000527 
9.8502016e+2, 1.8504903e+2, -1294388.1, -1121046.4, 66202.766, -0.1599839, 0.07477341, -1098654.6, 27873.498, 0.0, 9.998474, 10.000772 
9.8502266e+2, 1.9504924e+2, -1265302.3, -1053755.0, 66377.82, -0.012536373, 0.013564797, -1034652.4, -6131.0513, 0.0, 9.99799, 10.000794 
9.850232e+2, 2.0504956e+2, -1202596.1, -1114150.6, 11942.988, 0.0069905887, 0.030461302, -1112566.4, -182047.2, 0.0, 9.998358, 9.99953 
9.8502177e+2, 2.1504991e+2, -927036.1, -927484.9, 8682.77, -0.09766275, 0.10704546, -918574.8, -86052.55, 0.0, 9.999563, 9.999557 
9.850219e+2, 2.2504996e+2, -743161.25, -787540.5, 51941.395, -0.096674696, 0.1561006, -708868.25, 25655.947, 0.0, 10.00015, 9.999563 
9.850236e+2, 2.3504968e+2, -644104.9, -686297.94, 58321.14, 0.006650028, 0.16595423, -603181.9, 33343.117, 0.0, 10.000145, 9.999588 
9.8502415e+2, 2.4504848e+2, -539407.75, -681672.8, 56753.754, 0.0061861714, 0.13053676, -519541.22, 18994.334, 0.0, 10.000608, 9.998724 
9.850235e+2, 2.5504628e+2, -305255.78, -515278.34, 61932.918, -0.09722828, 0.031883422, -288352.94, 152203.48, 0.0, 10.001529, 9.99875 
9.850244e+2, 2.6504457e+2, -202831.14, -489271.66, 83222.695, -0.0736113, 0.019234492, -180407.03, 162166.27, 0.0, 10.00188, 9.998086 
9.8502684e+2, 2.750433e+2, -129283.79, -400701.06, 73697.445, 0.07377612, 0.081038035, -110563.98, 134022.4, 0.0, 10.001702, 9.998106 
9.85028e+2, 2.8504187e+2, -33011.098, -356682.25, 57998.11, 0.090360224, 0.14964445, -22932.352, 123668.5, 0.0, 10.001919, 9.997634 
9.850279e+2, 2.950402e+2, 151119.44, -214910.48, 23227.354, -0.021144073, 0.21239449, 152587.5, 201204.47, 0.0, 10.0025, 9.997656 
9.850289e+2, 3.0503693e+2, 222776.72, -144063.84, 18424.94, -0.004590515, 0.11882821, 223699.8, 223699.8, 0.0, 10.002612, 9.997752 
9.8503107e+2, 3.1503353e+2, 187891.67, -146158.9, 52885.83, 0.14248638, -0.0021338577, 196064.44, 196064.44, 0.0, 10.002299, 9.99789 
9.9502397e+2, 1.2504284e+2, -1951415.6, -1615424.4, -56446.996, 0.098695055, 0.18287857, -1606194.8, 108402.43, 0.000108580556, 9.997457, 10.0019045 
9.950205e+2, 1.3504381e+2, -1832830.1, -1527007.0, -70467.82, -0.03665908, 0.100248806, -1511550.9, 105034.28, 0.000033028722, 9.997684, 10.001733 
9.950184e+2, 1.4504571e+2, -1746798.3, -1455854.8, -14883.92, -0.07591523, 0.13030101, -1455095.4, 63468.535, 0.0000026281716, 9.997689, 10.001544 
9.9501866e+2, 1.5504745e+2, -1669777.4, -1361396.6, -21530.305, 0.031843096, 0.1388019, -1359900.6, 60643.426, 0.00000000019976186, 9.9975195, 10.001599 
9.950187e+2, 1.6504858e+2, -1592894.4, -1362636.6, 43707.633, 0.02880591, 0.13333543, -1354619.1, -32087.277, 0.0, 9.997758, 10.000803 
9.9501866e+2, 1.7504911e+2, -1398906.3, -1215437.0, 56064.484, -0.07357848, 0.101000704, -1199661.3, 24866.09, 0.0, 9.9984045, 10.000829 
9.950197e+2, 1.8504952e+2, -1292033.0, -1115378.3, 45647.69, -0.056392435, 0.059683636, -1104280.1, 22242.135, 0.0, 9.99847, 10.000813 
9.950215e+2, 1.9504976e+2, -1263590.4, -1048773.8, 48335.55, 0.07478794, -0.0028286441, -1038398.94, -9882.224, 0.0, 9.997984, 10.000832 
9.950224e+2, 2.0505014e+2, -1207668.0, -1122885.3, 55037.71, 0.08814389, 0.021076862, -1095805.9, -165291.63, 0.0, 9.998349, 9.999475 
9.9502224e+2, 2.1505061e+2, -932432.7, -935562.7, 54214.68, -0.010495763, 0.11455508, -879760.44, -47245.05, 0.0, 9.99955, 9.999508 
9.950224e+2, 2.2505073e+2, -729993.0, -757852.94, 49397.566, -0.06862146, 0.16246852, -692598.9, 41916.86, 0.0, 10.000138, 9.999773 
9.9502283e+2, 2.3505045e+2, -630623.25, -656480.56, 58952.793, -0.08863001, 0.15158337, -583198.1, 53317.727, 0.0, 10.000137, 9.999797 
9.9502385e+2, 2.450496e+2, -528193.7, -656038.44, 90249.62, -0.08152612, 0.13038146, -481521.9, 57000.867, 0.0, 10.000599, 9.998904 
9.950256e+2, 2.5504807e+2, -295307.5, -491250.47, 97900.8, -0.046122607, 0.08407362, -254776.36, 185760.64, 0.0, 10.001514, 9.998921 
9.950271e+2, 2.650465e+2, -218579.77, -521244.78, 75435.016, 0.0014147845, 0.08700375, -200820.67, 141731.33, 0.0, 10.001876, 9.9978695 
9.9502844e+2, 2.750448e+2, -145728.97, -432685.28, 68565.76, 0.06072049, 0.12619533, -130187.484, 114380.516, 0.0, 10.001693, 9.997892 
9.950298e+2, 2.8504208e+2, -94512.09, -482284.63, 79720.77, 0.07113779, 0.12100403, -78762.28, 67834.29, 0.0, 10.001908, 9.996777 
9.95031e+2, 2.9503834e+2, 91220.07, -338179.34, 48093.56, 0.035539065, 0.061951373, 96540.71, 145178.2, 0.0, 10.002494, 9.996811 
9.9503183e+2, 3.0503607e+2, 303087.28, 21516.309, 6927.441, 0.020684626, 0.052087635, 303257.63, 303257.63, 0.0, 10.002616, 9.99889 
9.950323e+2, 3.1503645e+2, 262348.9, 13604.923, 46889.57, 0.026105428, 0.19391203, 270894.25, 270894.25, 0.0, 10.002278, 9.998999 
1.0050217e+3, 1.2504402e+2, -1915903.9, -1606872.8, 87127.71, 0.117359616, 0.19682437, -1584000.9, 130586.16, 0.00014134821, 9.997737, 10.001831 
1.00501806e+3, 1.3504486e+2, -1859464.8, -1544129.5, -19406.576, -0.04158833, 0.10678584, -1542939.6, 73636.266, 0.000046426092, 9.9975195, 10.001696 
1.0050161e+3, 1.450465e+2, -1755370.6, -1511203.0, 11351.298, -0.08166699, 0.13675694, -1510676.4, 7881.2876, 0.00000474816, 9.997853, 10.001083 
1.0050164e+3, 1.5504782e+2, -1529148.9, -1346659.5, -5012.109, -0.0026892822, 0.1501021, -1346522.0, 74021.33, 0.000000004412824, 9.998712, 10.001127 
1.00501694e+3, 1.6504867e+2, -1439033.0, -1283958.9, 37316.234, 0.022851458, 0.13808265, -1275446.5, 47087.19, 0.0, 9.998793, 10.000845 
1.0050177e+3, 1.750491e+2, -1436965.9, -1227896.3, 28366.93, 0.004794097, 0.08999454, -1224115.8, 413.09363, 0.0, 9.998119, 10.00088 
1.0050188e+3, 1.8504977e+2, -1327446.1, -1128331.9, 17626.97, 0.02614165, 0.071163505, -1126783.4, -262.47623, 0.0, 9.99821, 10.00085 
1.00502014e+3, 1.9505064e+2, -1106024.3, -968610.1, 18043.066, 0.08090526, 0.067966744, -966280.5, 62230.2, 0.0, 9.999047, 10.000869 
1.0050212e+3, 2.05051e+2, -994482.7, -991504.25, 63817.066, 0.066822164, 0.07557223, -929159.0, 1348.1628, 0.0, 9.999691, 9.999728 
1.005022e+3, 2.1505086e+2, -828991.7, -857775.7, 82951.45, -0.011207966, 0.08050076, -759193.0, 73317.56, 0.0, 10.000141, 9.999757 
1.0050228e+3, 2.2505063e+2, -690268.6, -765937.94, 49797.957, -0.05794797, 0.09371663, -665562.94, 68950.31, 0.0, 10.000532, 9.999526 
1.0050234e+3, 2.3505025e+2, -541292.7, -640808.06, 21675.621, -0.07727959, 0.09771916, -536776.44, 99739.414, 0.0, 10.000871, 9.999549 
1.005025e+3, 2.4504958e+2, -497998.7, -653917.75, 31294.574, -0.044781365, 0.11354807, -491952.03, 46570.168, 0.0, 10.000857, 9.998794 
1.0050274e+3, 2.5504857e+2, -450344.38, -576379.7, 14976.255, 0.0409576, 0.1283122, -448589.25, -8056.9727, 0.0, 10.000499, 9.998824 
1.0050291e+3, 2.6504692e+2, -362080.25, -582173.8, 1166.6332, 0.06891968, 0.12706971, -362074.06, -19526.78, 0.0, 10.000859, 9.997939 
1.00503e+3, 2.7504462e+2, -110109.555, -408083.5, 13394.946, 0.03822453, 0.09569798, -109508.62, 135059.06, 0.0, 10.001906, 9.997957 
1.0050315e+3, 2.8504166e+2, -38258.066, -468706.5, 57616.496, 0.026304359, 0.06845321, -30679.402, 115919.12, 0.0, 10.002354, 9.996654 
1.0050334e+3, 2.95038e+2, 45337.242, -373531.4, 75902.56, 0.036151104, 0.034483146, 58667.223, 107306.875, 0.0, 10.002236, 9.996691 
1.0050346e+3, 3.0503604e+2, 290748.4, 4555.634, 15674.566, 0.037405577, 0.061702065, 291604.3, 291604.3, 0.0, 10.002582, 9.998787 
1.0050351e+3, 3.150366e+2, 405942.06, 70450.85, -39786.195, 0.030712375, 0.23205474, 410595.8, 410595.8, 0.0, 10.003322, 9.998883 
1.0150189e+3, 1.250462e+2, -1994576.4, -1766760.3, 86715.47, 0.05229761, 0.13696511, -1737508.9, -22949.541, 0.0001798155, 9.997722, 10.000742 
1.0150157e+3, 1.3504682e+2, -1933748.6, -1698882.9, -26085.697, -0.033188693, 0.13131943, -1696020.5, -79465.42, 0.000062927356, 9.99752, 10.000634 
1.0150145e+3, 1.4504774e+2, -1794617.4, -1592220.6, 42012.73, -0.038157336, 0.16828822, -1583846.3, -65299.797, 0.000007860604, 9.997849, 10.00053 
1.015015e+3, 1.5504779e+2, -1568848.9, -1427632.1, 27787.107, -0.018324187, 0.11077173, -1422361.3, -1816.4103, 0.000000028517778, 9.998705, 10.000575 
1.0150157e+3, 1.6504805e+2, -1454616.5, -1315643.5, 10031.062, 0.020668296, 0.07751692, -1314923.1, 7618.4014, 0.0, 9.998789, 10.00063 
1.0150167e+3, 1.7504853e+2, -1451595.6, -1258520.4, 3342.721, 0.08753347, 0.054956455, -1258462.5, -33925.633, 0.0, 9.998117, 10.000671 
1.01501755e+3, 1.8504983e+2, -1325961.4, -1123414.4, 47274.605, 0.07954245, 0.1085605, -1112923.8, 13600.076, 0.0, 9.998201, 10.000888 
1.0150184e+3, 1.9505194e+2, -1104366.9, -963057.5, 50165.586, -0.0034740649, 0.22403103, -947059.56, 81443.35, 0.0, 9.999038, 10.000912 
1.0150196e+3, 2.0505221e+2, -956682.75, -911680.56, 78185.64, -0.06583334, 0.19252458, -852822.6, 77674.875, 0.0, 9.999682, 10.000281 
1.0150212e+3, 2.1505067e+2, -791840.5, -779043.0, 99837.914, -0.10674175, 0.004701058, -685399.0, 147108.4, 0.0, 10.000132, 10.000303 
1.0150232e+3, 2.2504969e+2, -742187.06, -869927.94, 60421.668, -0.0735163, -0.050441172, -718135.9, 16380.296, 0.0, 10.000515, 9.99882 
1.0150254e+3, 2.3504913e+2, -591703.06, -743595.9, 35240.66, 0.031292398, 0.006375052, -583925.1, 52599.504, 0.0, 10.000861, 9.998848 
1.0150273e+3, 2.4504851e+2, -527411.25, -712188.8, 15917.932, 0.10725265, 0.08247585, -526050.0, 12483.153, 0.0, 10.000845, 9.9984 
1.015029e+3, 2.5504777e+2, -479085.38, -634462.56, 2732.0884, 0.15427682, 0.16384448, -479037.34, -38495.26, 0.0, 10.00049, 9.99843 
1.01503044e+3, 2.6504588e+2, -337391.16, -528809.6, 40489.336, 0.116388924, 0.13634388, -329179.06, 13380.266, 0.0, 10.00085, 9.998309 
1.0150315e+3, 2.7504277e+2, -84012.44, -353427.47, 55068.23, -0.003289239, -0.010262406, -73191.17, 171393.84, 0.0, 10.0019045, 9.998333 
1.01503305e+3, 2.850406e+2, 2027.8855, -386659.78, 52824.633, -0.051058155, -0.0053341934, 9079.105, 155685.25, 0.0, 10.002359, 9.997216 
1.015035e+3, 2.9503927e+2, 81680.6, -295014.38, 73927.445, -0.028410979, 0.13654895, 95669.58, 144292.66, 0.0, 10.002222, 9.997238 
1.01503715e+3, 3.0503678e+2, 196534.33, -186604.92, 44454.61, 0.030982427, 0.15256599, 201624.64, 201624.64, 0.0, 10.00256, 9.997484 
1.01503946e+3, 3.1503388e+2, 313175.2, -118648.26, -5931.649, 0.1292452, 0.10677703, 313256.63, 313256.63, 0.00000000031193584, 10.003306, 9.997591 
1.0250161e+3, 1.250471e+2, -2100818.5, -1845655.6, -26313.4, 0.033068735, 0.13319786, -1842970.3, -128420.87, 0.00022439056, 9.997114, 10.000491 
1.0250137e+3, 1.3504788e+2, -1899701.9, -1708210.1, -89735.48, -0.0055666137, 0.16394693, -1672732.1, -56187.3, 0.0000828242, 9.997863, 10.000404 
1.025013e+3, 1.4504857e+2, -1772207.3, -1604066.8, 26858.332, 0.023727616, 0.19960354, -1599880.8, -81341.58, 0.000012107546, 9.998099, 10.000329 
1.0250133e+3, 1.550481e+2, -1710804.9, -1518293.9, 36242.645, -0.007434483, 0.1103332, -1511696.9, -91153.76, 0.00000009714164, 9.997827, 10.000376 
1.02501415e+3, 1.6504826e+2, -1571449.9, -1368249.3, 31263.695, 0.024854101, 0.075206496, -1363548.0, -41007.35, 0.0, 9.997972, 10.000663 
1.0250155e+3, 1.7504902e+2, -1387546.9, -1224930.0, 39857.813, 0.13016436, 0.07981959, -1215686.3, 8845.699, 0.0, 9.998544, 10.000698 
1.0250166e+3, 1.8505013e+2, -1224969.8, -1103830.0, 108710.39, 0.11794361, 0.12440521, -1039954.44, 86566.09, 0.0, 9.99902, 10.0006275 
1.0250174e+3, 1.9505152e+2, -1069455.4, -974991.6, 86534.82, -0.01230875, 0.19451332, -923637.9, 104868.82, 0.0, 9.999402, 10.000654 
1.0250191e+3, 2.0505162e+2, -982595.7, -917481.9, 68713.38, -0.08239217, 0.1551344, -874002.75, 56499.754, 0.0, 9.999478, 10.0003395 
1.02502115e+3, 2.1505043e+2, -912294.8, -831151.56, 50248.363, -0.09442685, -0.0040019783, -807140.25, 25367.64, 0.0, 9.99928, 10.000355 
1.0250235e+3, 2.2504944e+2, -893795.8, -969372.94, 29535.426, -0.047125652, -0.049349, -883622.75, -149106.14, 0.0, 9.999588, 9.998584 
1.0250262e+3, 2.3504859e+2, -679079.8, -811915.2, 36660.703, 0.05882794, 0.002785521, -669633.7, -33104.754, 0.0, 10.000377, 9.998611 
1.02502845e+3, 2.4504761e+2, -493616.9, -709299.6, 32724.393, 0.12130506, 0.059709404, -488761.13, 49780.023, 0.0, 10.00114, 9.998275 
1.02503e+3, 2.550464e+2, -287279.66, -556480.7, 36312.164, 0.13829476, 0.10539081, -282467.6, 158086.28, 0.0, 10.00187, 9.9983 
1.0250319e+3, 2.650444e+2, -159338.94, -455779.8, 76212.72, 0.1050919, 0.08335068, -140893.02, 201679.02, 0.0, 10.002127, 9.998196 
1.0250337e+3, 2.7504167e+2, -90906.42, -367824.3, 51037.65, 0.025646644, -0.017177284, -81799.375, 162796.28, 0.0, 10.001907, 9.998231 
1.0250357e+3, 2.8503972e+2, -38640.406, -382177.0, 7113.646, -0.010808843, 0.0070747966, -38493.164, 108120.78, 0.0, 10.00198, 9.997427 
1.0250375e+3, 2.9503858e+2, 113659.89, -255906.78, 1097.5575, -0.0078244265, 0.14203681, 113663.15, 162290.53, 0.0, 10.002343, 9.997446 
1.0250399e+3, 3.0503577e+2, 178110.2, -209081.23, 15653.047, 0.0541375, 0.12264563, 178741.97, 178741.97, 0.0, 10.002496, 9.997359 
1.0250428e+3, 3.1503192e+2, 172534.77, -201501.7, 45114.336, 0.17874569, -0.004834348, 177899.28, 177899.28, 0.000000028111797, 10.002407, 9.997455 
1.0350133e+3, 1.250468e+2, -2064521.4, -1767331.4, 4205.662, 0.03785447, 0.18192554, -1767271.9, -52715.15, 0.00027553758, 9.997101, 10.001035 
1.03501186e+3, 1.350481e+2, -1859028.6, -1622047.9, -61051.016, 0.031886436, 0.20642082, -1607244.6, 9299.454, 0.000106410545, 9.997855, 10.001 
1.03501186e+3, 1.4504911e+2, -1762582.5, -1583520.6, 15117.2705, 0.09219898, 0.23549208, -1582253.3, -63718.758, 0.000017580353, 9.998095, 10.000473 
1.0350115e+3, 1.550488e+2, -1700442.4, -1495756.8, 27048.148, 0.022358147, 0.14750677, -1492242.9, -71705.23, 0.00000023822265, 9.997822, 10.000533 
1.0350122e+3, 1.6504933e+2, -1552418.9, -1329475.1, 50719.465, 0.027574101, 0.12854208, -1318478.9, 4051.6145, 0.0, 9.997972, 10.00093 
1.03501394e+3, 1.7505068e+2, -1369576.6, -1187516.3, 62092.13, 0.123784386, 0.1634966, -1168356.0, 56157.508, 0.0, 9.998541, 10.0009575 
1.0350157e+3, 1.8505074e+2, -1265875.0, -1186954.5, 120881.59, 0.13110873, 0.11927094, -1099255.5, 27254.803, 0.0, 9.999013, 10.00006 
1.03501745e+3, 1.9504948e+2, -1110428.3, -1057521.5, 100429.72, 0.047603317, -0.017766898, -980119.6, 48401.6, 0.0, 9.999392, 10.0000925 
1.0350194e+3, 2.0504932e+2, -1014283.2, -982120.4, 58622.84, 0.008878152, -0.034121484, -937413.25, -6891.794, 0.0, 9.999471, 9.9999 
1.0350215e+3, 2.1505016e+2, -943684.4, -894887.7, 43311.1, 0.015824609, 0.053377155, -869575.56, -37063.89, 0.0, 9.999273, 9.999921 
1.0350237e+3, 2.2504994e+2, -880027.25, -937792.56, 56958.242, 0.0114789875, 0.096859336, -845047.2, -110533.19, 0.0, 9.999575, 9.998808 
1.0350261e+3, 2.350487e+2, -664447.06, -779632.9, 67096.93, -0.0034260317, 0.08492608, -633615.2, 2913.2312, 0.0, 10.000367, 9.998837 
1.0350283e+3, 2.4504688e+2, -486211.75, -690795.6, 59188.168, -0.011858245, 0.042570002, -470322.16, 68223.836, 0.0, 10.001125, 9.998409 
1.0350305e+3, 2.550445e+2, -277705.7, -537597.2, 65381.79, -0.01263662, -0.045712437, -262184.34, 178382.86, 0.0, 10.001872, 9.998429 
1.0350332e+3, 2.6504263e+2, -201683.78, -544782.7, 67052.91, 0.029683465, -0.028576074, -189045.0, 153539.83, 0.0, 10.0021305, 9.997583 
1.0350365e+3, 2.7504134e+2, -135458.1, -458022.53, 44383.03, 0.11464553, 0.07727238, -129462.68, 115136.56, 0.0, 10.001895, 9.997619 
1.03503905e+3, 2.850391e+2, -48755.066, -398442.1, 20874.49, 0.13243487, 0.10511807, -47513.38, 99108.516, 0.0, 10.00196, 9.997324 
1.0350408e+3, 2.950359e+2, 107278.59, -268607.28, 18481.404, 0.0862672, 0.04697488, 108185.09, 156837.6, 0.0, 10.002341, 9.99736 
1.03504285e+3, 3.0503297e+2, 248329.7, -66530.44, 14247.711, 0.09854977, -0.03165053, 248973.11, 248973.11, 0.0, 10.002506, 9.998336 
1.035045e+3, 3.1503066e+2, 236815.14, -65294.26, 46740.598, 0.16359662, -0.10012222, 243881.3, 243881.3, 0.00000007086313, 10.002392, 9.9984 
1.0450094e+3, 1.2504557e+2, -2096112.0, -1728470.4, -2264.54, -0.041444715, 0.19391243, -1728456.4, -13885.804, 0.0003338259, 9.996648, 10.001519 
1.0450093e+3, 1.3504682e+2, -1892631.0, -1580842.0, -79872.125, 0.012211362, 0.16232544, -1561571.9, 54983.656, 0.00013404706, 9.997374, 10.001516 
1.0450104e+3, 1.450482e+2, -1786337.8, -1582738.5, -32027.828, 0.1429321, 0.19877498, -1577819.1, -59277.625, 0.000024406929, 9.997883, 10.00058 
1.0450099e+3, 1.5504883e+2, -1644937.6, -1458547.0, -28204.96, 0.061031245, 0.19386983, -1454372.5, -33835.555, 0.0000004785213, 9.998156, 10.0006275 
1.0450104e+3, 1.6504933e+2, -1493191.9, -1325045.3, -4705.3633, 0.028332375, 0.17808092, -1324913.8, -2383.4512, 0.0, 9.998483, 10.000713 
1.0450121e+3, 1.7504972e+2, -1334870.8, -1194111.3, -32184.84, 0.06415496, 0.1401789, -1187101.3, 37420.168, 0.0, 9.998881, 10.000747 
1.04501426e+3, 1.8504944e+2, -1249592.0, -1185999.1, 22106.121, 0.082466096, 0.07411484, -1179069.8, -52548.492, 0.0, 9.999155, 9.999997 
1.0450171e+3, 1.9504842e+2, -1126100.4, -1072134.6, 37769.06, 0.07506375, -0.03369136, -1052700.1, -24170.244, 0.0, 9.999314, 10.000029 
1.04501955e+3, 2.0504822e+2, -993111.3, -1018634.25, 19993.656, 0.05387731, -0.02860464, -982153.56, -51622.145, 0.0, 9.99982, 9.99948 
1.0450215e+3, 2.1504876e+2, -769849.4, -857695.2, 3737.2412, 0.022033935, 0.07212071, -769690.7, 62835.914, 0.0, 10.000668, 9.999504 
1.04502395e+3, 2.2504848e+2, -676323.6, -820728.2, 13231.383, 0.016758293, 0.12034162, -675121.25, 59408.555, 0.0, 10.000891, 9.998977 
1.04502685e+3, 2.3504737e+2, -632189.2, -746108.94, 15025.355, 0.035561934, 0.10521799, -630240.75, 6300.4536, 0.0, 10.000509, 9.999001 
1.0450295e+3, 2.4504554e+2, -556940.44, -716604.2, 21650.988, 0.023772534, 0.04982646, -554056.6, -15498.967, 0.0, 10.000599, 9.998487 
1.04503185e+3, 2.55043e+2, -378667.9, -575554.0, 21832.03, -0.018321717, -0.060540054, -376276.1, 64303.26, 0.0, 10.001135, 9.998522 
1.0450349e+3, 2.650412e+2, -280815.25, -600555.9, 21904.166, 0.01310929, -0.03898697, -279321.66, 63275.69, 0.0, 10.001667, 9.997421 
1.04503855e+3, 2.7504e+2, -102102.27, -459831.53, 30607.281, 0.11610645, 0.096253, -99502.41, 145109.89, 0.0, 10.002204, 9.997456 
1.0450414e+3, 2.8503764e+2, 19064.258, -337177.2, 34253.04, 0.16046512, 0.106405854, 22327.83, 168964.16, 0.0, 10.002302, 9.997581 
1.04504354e+3, 2.9503405e+2, 65261.97, -259082.39, 54144.324, 0.15130973, -0.016469482, 74061.78, 122730.87, 0.0, 10.001924, 9.997625 
1.0450454e+3, 3.0503154e+2, 161291.98, -49391.086, 42662.434, 0.14370799, -0.09401652, 169603.08, 169603.08, 0.0, 10.001657, 9.99886 
1.04504675e+3, 3.1503037e+2, 147141.55, -50663.11, 40434.17, 0.13210666, -0.100217156, 155087.67, 155087.67, 0.00000007048307, 10.001528, 9.998914 
1.05500415e+3, 1.250435e+2, -2069575.1, -1669287.4, 22101.613, -0.2299188, 0.16982561, -1668070.8, 46519.4, 0.00039971265, 9.996629, 10.001936 
1.0550059e+3, 1.3504414e+2, -1861280.8, -1516250.5, -50842.883, -0.07021079, 0.032433722, -1508914.5, 107663.72, 0.00016604259, 9.997375, 10.00196 
1.0550084e+3, 1.4504597e+2, -1782649.0, -1576515.5, -23096.572, 0.16786693, 0.08860963, -1573959.3, -55399.926, 0.000032768716, 9.997886, 10.000622 
1.0550084e+3, 1.5504828e+2, -1644186.0, -1454717.1, -17208.94, 0.09770776, 0.24996655, -1453166.8, -32626.527, 0.0000008393984, 9.998145, 10.00066 
1.0550088e+3, 1.6504839e+2, -1544428.4, -1429609.5, 8681.621, 0.0141379, 0.2273283, -1428956.8, -106417.94, 0.0, 9.998474, 10.0 
1.05500974e+3, 1.7504628e+2, -1384684.3, -1297174.1, -16967.545, -0.056085967, 0.010232049, -1293999.4, -69444.25, 0.0, 9.998879, 10.000041 
1.05501235e+3, 1.850463e+2, -1217928.9, -1120174.4, 26057.066, -0.03687386, -0.011791735, -1113662.5, 12890.157, 0.0, 9.999152, 10.000451 
1.0550164e+3, 1.9504839e+2, -1095741.8, -1008139.2, 44267.38, 0.06164997, 0.14563301, -989665.6, 38866.29, 0.0, 9.999308, 10.000472 
1.0550192e+3, 2.050484e+2, -1023425.75, -1078738.4, 49816.87, 0.04409137, 0.17067555, -994103.2, -63571.44, 0.0, 9.999808, 9.999073 
1.0550211e+3, 2.1504633e+2, -800116.8, -917547.9, 35984.05, -0.08299007, 0.051117927, -789967.56, 42584.613, 0.0, 10.000655, 9.999099 
1.0550243e+3, 2.250451e+2, -670673.3, -808128.25, -3096.3838, -0.041431814, 0.02083062, -670603.56, 63960.11, 0.0, 10.000884, 9.999068 
1.05502866e+3, 2.3504466e+2, -624954.56, -732608.44, 1355.6753, 0.16683684, 0.06353627, -624937.5, 11629.49, 0.0, 10.000512, 9.999093 
1.0550321e+3, 2.4504364e+2, -555190.56, -711537.5, 40568.95, 0.21647094, 0.081240155, -545290.56, -6714.9214, 0.0, 10.000593, 9.998525 
1.0550343e+3, 2.5504202e+2, -377195.66, -570661.5, 43220.8, 0.11012776, 0.058968198, -367979.06, 72610.89, 0.0, 10.001126, 9.998562 
1.055037e+3, 2.6504004e+2, -262372.6, -559127.94, 41352.414, 0.045667607, 0.0483579, -256717.94, 85891.7, 0.0, 10.001653, 9.997713 
1.0550398e+3, 2.7503768e+2, -81933.92, -417770.7, 53046.85, 0.021003515, 0.037317477, -73754.17, 170880.61, 0.0, 10.002201, 9.997746 
1.0550428e+3, 2.850354e+2, 60090.938, -251658.72, 20168.094, 0.06471863, 0.010565411, 61390.26, 208047.34, 0.0, 10.002299, 9.99817 
1.0550458e+3, 2.9503307e+2, 103873.42, -175815.92, 41645.34, 0.17975971, -0.043212242, 109942.66, 158619.36, 0.0, 10.001908, 9.998206 
1.0550474e+3, 3.0503148e+2, 166841.73, -35836.402, 36933.96, 0.18198095, -0.06025236, 173362.4, 173362.4, 0.0, 10.001647, 9.99896 
1.0550476e+3, 3.1503102e+2, 156806.64, -33576.797, 40403.637, 0.06325308, -0.007836381, 165026.31, 165026.31, 0.00000003444668, 10.00154, 9.999027 
1.0650015e+3, 1.2504207e+2, -1956203.4, -1634373.3, 112091.87, -0.21001363, 0.11611279, -1599180.6, 115419.016, 0.00047318285, 9.997499, 10.001752 
1.0650032e+3, 1.3504265e+2, -1832330.4, -1521447.0, -7674.361, -0.08663314, -0.010003872, -1521257.6, 95331.08, 0.00020250746, 9.997655, 10.001789 
1.0650065e+3, 1.4504412e+2, -1757718.0, -1584951.6, -6207.389, 0.16489187, 0.028176235, -1584729.0, -66155.41, 0.000042863663, 9.998146, 10.000439 
1.0650065e+3, 1.55046e+2, -1544485.3, -1426816.8, -20812.955, 0.053985357, 0.16564533, -1423243.9, -2685.5364, 0.0000013547858, 9.998919, 10.000477 
1.0650072e+3, 1.6504604e+2, -1429924.3, -1392670.9, 10254.509, -0.02920465, 0.1540369, -1390034.8, -67476.805, 0.0, 9.999344, 9.999833 
1.06500894e+3, 1.7504421e+2, -1314354.9, -1281090.4, 23852.201, -0.056491967, -0.019060945, -1268644.1, -44071.758, 0.0, 9.999442, 9.999878 
1.0650116e+3, 1.8504415e+2, -1220195.9, -1175582.8, 43328.973, -0.028538521, -0.01611208, -1149155.5, -22583.432, 0.0, 9.999372, 9.999964 
1.06501535e+3, 1.9504584e+2, -1151321.6, -1088813.9, -11506.658, 0.0425431, 0.14896716, -1086763.0, -58205.414, 0.0, 9.99916, 9.999989 
1.0650187e+3, 2.0504573e+2, -1066953.0, -1066530.8, 16167.786, 0.0312655, 0.170984, -1050572.8, -120014.12, 0.0, 9.999364, 9.999372 
1.06502175e+3, 2.1504384e+2, -878617.4, -921467.3, 53122.66, -0.055714123, 0.038986012, -842761.94, -10186.687, 0.0, 9.99997, 9.999401 
1.06502526e+3, 2.2504245e+2, -709238.06, -853864.4, 14096.567, -0.024051918, -0.009711536, -707876.9, 26710.832, 0.0, 10.00074, 9.998822 
1.0650294e+3, 2.3504151e+2, -472358.13, -685320.56, -8802.339, 0.12261458, 0.008391227, -471994.9, 164601.63, 0.0, 10.001678, 9.998854 
1.0650329e+3, 2.4504061e+2, -380064.9, -617111.9, 6172.4917, 0.18589544, 0.043738186, -379904.28, 158700.6, 0.0, 10.001758, 9.9986105 
1.065036e+3, 2.5503966e+2, -391321.97, -568349.75, 8653.887, 0.16698262, 0.080919966, -390899.94, 49713.207, 0.0, 10.000992, 9.998641 
1.065039e+3, 2.650378e+2, -370382.5, -590978.5, 28278.158, 0.11594551, 0.07156767, -366815.22, -24183.668, 0.0, 10.000819, 9.997897 
1.06504165e+3, 2.7503508e+2, -214736.73, -459901.72, 30003.73, 0.03258403, 0.0031715357, -211118.23, 33541.82, 0.0, 10.001194, 9.997942 
1.06504455e+3, 2.8503305e+2, -54028.434, -296205.47, -43753.637, 0.051708937, -0.010111866, -46365.99, 100313.914, 0.0, 10.001474, 9.998259 
1.06504746e+3, 2.9503167e+2, 79346.84, -177459.38, -61661.47, 0.17375238, 0.018237071, 93384.94, 142076.45, 0.0, 10.0017, 9.998292 
1.0650492e+3, 3.0503023e+2, 225671.23, -36263.387, -81327.48, 0.17334765, 0.024525795, 248868.11, 248868.11, 0.0, 10.002174, 9.998702 
1.0650497e+3, 3.1502932e+2, 322632.75, 18447.572, -111337.97, 0.04984529, 0.058226842, 359029.7, 359029.7, 0.000000007292847, 10.002799, 9.998778 
1.075001e+3, 1.2504137e+2, -2014763.3, -1753800.5, 106300.6, -0.0061240555, 0.03196777, -1715980.9, -1382.9841, 0.00055371417, 9.99749, 10.0009365 
1.07500136e+3, 1.3504243e+2, -1889348.0, -1638367.0, -617.2245, -0.045374636, 0.03446745, -1638365.4, -21779.08, 0.00024334127, 9.997647, 10.000992 
1.0750041e+3, 1.4504276e+2, -1788578.9, -1646821.9, 21885.518, 0.12290542, 0.019022563, -1643520.0, -124936.87, 0.00005483326, 9.9981365, 10.000018 
1.0750041e+3, 1.550421e+2, -1574881.8, -1488065.4, 8677.001, -0.07805829, -0.05686191, -1487206.6, -66616.22, 0.000002073113, 9.998912, 10.000059 
1.07500575e+3, 1.6504239e+2, -1402164.3, -1335786.6, 11882.118, -0.1104101, -0.041286726, -1333723.8, -11137.027, 0.0000000000166348, 9.999344, 10.000223 
1.07500955e+3, 1.750436e+2, -1287889.3, -1226057.5, 27824.838, 0.056374114, 0.050842546, -1215379.9, 9192.53, 0.0, 9.99944, 10.0002575 
1.0750123e+3, 1.8504308e+2, -1321954.8, -1385452.9, 33135.297, 0.09805501, 0.060617976, -1307813.3, -181234.28, 0.0, 9.999367, 9.998527 
1.0750142e+3, 1.9504082e+2, -1252704.1, -1297500.6, -19422.6, 0.007195288, -0.023616597, -1245455.8, -216849.58, 0.0, 9.999152, 9.998561 
1.0750178e+3, 2.0504026e+2, -997700.44, -920798.4, 36704.984, 0.0053432803, -0.026175765, -906091.75, 24519.713, 0.0, 9.999354, 10.000378 
1.0750232e+3, 2.1504134e+2, -808853.9, -775934.0, 75859.68, 0.09603494, 0.036814846, -714769.06, 117826.28, 0.0, 9.999966, 10.000403 
1.07502684e+3, 2.2504058e+2, -750341.7, -937322.94, 47184.098, 0.060754653, 0.029489778, -739109.6, -4508.283, 0.0, 10.000731, 9.998254 
1.0750288e+3, 2.35038e+2, -513437.06, -768580.5, 27499.668, -0.10177333, -0.061314814, -510506.78, 126122.68, 0.0, 10.001668, 9.998288 
1.0750321e+3, 2.4503647e+2, -373447.7, -601725.9, -23448.738, -0.0737609, -0.06396022, -371063.94, 167581.06, 0.0, 10.001749, 9.998721 
1.07503675e+3, 2.5503594e+2, -383211.78, -552813.75, -18644.229, 0.14450619, 0.006002254, -381186.44, 59462.13, 0.0, 10.000995, 9.998747 
1.0750408e+3, 2.6503456e+2, -364237.4, -577912.7, 42502.934, 0.21552825, 0.029689679, -356093.4, -13430.572, 0.0, 10.000818, 9.997988 
1.075044e+3, 2.7503225e+2, -209648.97, -447159.9, 45752.47, 0.14112017, -0.0057321014, -201140.33, 43547.48, 0.0, 10.001184, 9.9980345 
1.07504666e+3, 2.8503066e+2, -83105.38, -355336.2, -36624.41, 0.11093398, 0.043229736, -78264.234, 68440.39, 0.0, 10.001466, 9.997858 
1.0750487e+3, 2.950298e+2, 52585.29, -235226.84, -50422.938, 0.12194442, 0.16292423, 61163.414, 109877.0, 0.0, 10.001706, 9.997894 
1.07505076e+3, 3.0502772e+2, 181923.81, -127648.54, -56359.375, 0.109450206, 0.15638898, 191865.11, 191865.11, 0.0, 10.002176, 9.998074 
1.0750528e+3, 3.1502533e+2, 274421.9, -75563.92, -83016.22, 0.073374406, 0.105779216, 293114.84, 293114.84, 0.00000006881497, 10.002772, 9.998146 
1.0849993e+3, 1.2503968e+2, -2109360.8, -1843973.6, 30209.656, 0.08816118, -0.015500018, -1840578.3, -125969.414, 0.00064071716, 9.99704, 10.000534 
1.084999e+3, 1.3504086e+2, -1806588.0, -1644125.3, -39808.508, -0.068413556, 0.038423453, -1634895.4, -18296.656, 0.00028839763, 9.998415, 10.000581 
1.0850026e+3, 1.4504072e+2, -1662992.8, -1603880.5, -5499.6396, 0.096497424, 0.0064746686, -1603373.1, -84773.06, 0.00006873226, 9.999078, 9.999857 
1.08500294e+3, 1.5503931e+2, -1578654.0, -1508706.3, -4060.958, -0.08537051, -0.1295854, -1508471.3, -87858.13, 0.0000030594845, 9.998968, 9.99989 
1.085005e+3, 1.6503952e+2, -1462660.1, -1379710.3, -16831.48, -0.10371828, -0.10677654, -1376425.1, -53814.473, 0.000000000186287, 9.998996, 10.000088 
1.08500905e+3, 1.7504133e+2, -1333678.1, -1263780.4, -43727.418, 0.07560173, 0.060782943, -1242751.5, -18158.592, 0.0, 9.999196, 10.000114 
1.0850118e+3, 1.8504071e+2, -1262135.6, -1366899.5, 5122.155, 0.09499549, 0.07161609, -1261885.8, -135285.08, 0.0, 9.999822, 9.998435 
1.0850135e+3, 1.9503765e+2, -1009611.94, -1190446.1, 52351.53, -0.055832457, -0.084519506, -995549.7, 33084.42, 0.0, 10.000866, 9.998469 
1.0850173e+3, 2.050368e+2, -781039.9, -855363.0, 91931.28, -0.056271624, -0.09396415, -719043.25, 211599.11, 0.0, 10.001013, 10.000025 
1.0850233e+3, 2.150381e+2, -788169.9, -805616.25, 25742.76, 0.09579005, 0.027356949, -769712.5, 62913.73, 0.0, 10.00028, 10.000048 
1.08502746e+3, 2.2503759e+2, -819568.44, -933458.2, 8497.142, 0.07573823, 0.045033067, -818938.0, -84307.58, 0.0, 10.000094, 9.998588 
1.0850298e+3, 2.3503527e+2, -667771.0, -805494.2, 52401.363, -0.1172746, -0.05257293, -650100.4, -13445.599, 0.0, 10.000449, 9.998622 
1.08503304e+3, 2.4503374e+2, -483429.1, -675473.0, 4045.768, -0.11444442, -0.06192481, -483343.88, 55326.773, 0.0, 10.001081, 9.998537 
1.0850376e+3, 2.5503296e+2, -252248.6, -509087.7, -14170.563, 0.08338774, 0.0007640032, -251469.13, 189209.5, 0.0, 10.00198, 9.998572 
1.08504176e+3, 2.6503158e+2, -173050.27, -490603.25, 27269.713, 0.17543375, 0.038131274, -170725.52, 171967.66, 0.0, 10.002156, 9.997942 
1.08504556e+3, 2.7502957e+2, -148420.81, -423407.5, 17606.592, 0.16251032, 0.03712487, -147298.11, 97416.31, 0.0, 10.001632, 9.997981 
1.0850485e+3, 2.850277e+2, -67720.375, -359997.8, -40901.063, 0.13683696, 0.064441994, -62104.613, 84628.945, 0.0, 10.001624, 9.997749 
1.0850504e+3, 2.9502597e+2, 100250.83, -224004.2, -36187.848, 0.09838932, 0.10829167, 104240.414, 152991.08, 0.0, 10.002086, 9.997787 
1.08505264e+3, 3.0502364e+2, 160338.3, -171039.06, -23333.207, 0.07859626, 0.09996292, 161973.19, 161973.19, 0.0000000035571208, 10.0021715, 9.997776 
1.085055e+3, 3.15022e+2, 131527.66, -173918.17, -30679.443, 0.07696634, 0.15145391, 134578.67, 134578.67, 0.00000032543772, 10.001921, 9.997876 
1.09499596e+3, 1.2503721e+2, -2111350.8, -1845190.0, 64211.28, 0.05474844, -0.023766924, -1830508.8, -115877.836, 0.000734217, 9.9970255, 10.000533 
1.09499656e+3, 1.3503808e+2, -1809602.0, -1650697.8, 13955.167, -0.16550514, 0.004345934, -1649481.5, -32856.984, 0.00033773432, 9.998414, 10.000537 
1.0950015e+3, 1.4503816e+2, -1656318.4, -1589645.8, -10471.937, 0.07359053, -0.008169538, -1588039.8, -69416.13, 0.0000845864, 9.999076, 9.999956 
1.09500304e+3, 1.5503772e+2, -1574462.1, -1497987.0, -7085.973, 0.022680344, -0.053995024, -1497336.0, -76710.12, 0.0000043925156, 9.99896, 9.999968 
1.0950049e+3, 1.6503753e+2, -1511707.8, -1480948.4, -11288.781, -0.019795118, -0.04178568, -1477250.0, -154621.19, 0.0000000006358386, 9.998992, 9.999395 
1.09500736e+3, 1.750375e+2, -1382014.6, -1363816.5, -35856.445, -0.006976867, 0.011245922, -1335922.6, -111289.71, 0.0, 9.999193, 9.99943 
1.0950103e+3, 1.8503712e+2, -1174748.4, -1183810.5, 42492.715, -0.04714886, 0.01779335, -1136545.9, -9909.062, 0.0, 9.999814, 9.999695 
1.0950134e+3, 1.9503637e+2, -922572.3, -1008127.2, 91573.4, -0.15349697, -0.034635216, -864277.5, 164363.19, 0.0, 10.000858, 9.999724 
1.09501734e+3, 2.0503537e+2, -903370.9, -1107370.5, 61889.047, -0.16070022, -0.034006566, -886063.44, 44587.508, 0.0, 10.001002, 9.9983015 
1.095022e+3, 2.1503414e+2, -909460.3, -1055855.5, -1165.306, -0.06466395, 0.006770447, -909451.06, -76783.43, 0.0, 10.000271, 9.998335 
1.09502696e+3, 2.2503349e+2, -737113.7, -759731.0, 19267.14, 0.011502997, 0.03539368, -726081.56, 8592.91, 0.0, 10.000083, 9.999786 
1.09503195e+3, 2.3503332e+2, -584941.5, -631911.8, 65945.98, 0.066091955, 0.033941343, -538423.6, 98248.734, 0.0, 10.000441, 9.999818 
1.0950359e+3, 2.4503241e+2, -517221.34, -743174.56, 36541.242, 0.053872384, 0.047980603, -511458.84, 27223.123, 0.0, 10.00107, 9.998078 
1.0950386e+3, 2.5503072e+2, -285729.88, -575189.7, 20401.006, -0.023752363, 0.063257694, -284299.06, 156404.19, 0.0, 10.001965, 9.998127 
1.0950421e+3, 2.6502895e+2, -188459.97, -519603.4, 6837.0405, -0.010585262, 0.09575252, -188318.86, 154403.47, 0.0, 10.002141, 9.99775 
1.0950465e+3, 2.7502713e+2, -162596.5, -452225.6, 428.10925, 0.089150734, 0.13148068, -162595.88, 82143.695, 0.0, 10.001628, 9.997786 
1.0950499e+3, 2.850242e+2, -55723.605, -335578.84, -23184.482, 0.121761575, 0.054540448, -53815.9, 92950.48, 0.0, 10.001624, 9.997918 
1.0950525e+3, 2.950202e+2, 110181.27, -200898.27, -16391.887, 0.09382084, -0.14466073, 111042.64, 159845.23, 0.0, 10.002072, 9.997954 
1.0950548e+3, 3.0501807e+2, 158991.38, -169352.67, -33541.98, 0.06968697, -0.14370087, 162382.81, 162382.81, 0.000000030949604, 10.002152, 9.997797 
1.09505676e+3, 3.1501934e+2, 135647.67, -165170.94, -34340.0, 0.039188787, 0.19790606, 139517.97, 139517.97, 0.00000064590733, 10.001918, 9.997938 
1.10499315e+3, 1.2503357e+2, -1888682.3, -1738839.6, 7523.2427, 0.00045194337, -0.046741214, -1738462.9, -23797.527, 0.00083503575, 9.998558, 10.000522 
1.1049949e+3, 1.3503438e+2, -1767645.0, -1634792.4, -27944.287, -0.18485005, -0.021487623, -1629153.9, -12493.786, 0.0003918232, 9.998718, 10.000501 
1.10500075e+3, 1.4503458e+2, -1639506.9, -1568422.6, -69747.68, 0.1012855, -0.028294837, -1525683.4, -7025.2026, 0.000102570426, 9.999136, 10.0000725 
1.10500254e+3, 1.5503456e+2, -1463392.6, -1431575.8, -69116.78, 0.042121805, -0.04169403, -1376560.3, 44095.617, 0.0000061708192, 9.999669, 10.00008 
1.10500425e+3, 1.6503428e+2, -1350631.5, -1431707.6, -45362.563, -0.041695282, -0.030137194, -1330332.9, -7672.7544, 0.0000000015512864, 10.000221, 9.999142 
1.1050065e+3, 1.7503369e+2, -1162239.9, -1285163.6, -38508.15, -0.10172101, -0.010537774, -1151172.9, 73498.43, 0.0, 10.000821, 9.999185 
1.1050098e+3, 1.8503352e+2, -1012439.9, -1069071.1, 15216.897, -0.12920229, 0.011678854, -1008610.06, 118063.07, 0.0, 10.000772, 10.000019 
1.105014e+3, 1.950337e+2, -1011881.7, -1015190.1, -8804.659, -0.14185905, 0.023467207, -1004577.2, 24089.07, 0.0, 10.000091, 10.000045 
1.1050182e+3, 2.0503272e+2, -1051988.0, -1195694.3, -21220.701, -0.12632668, 0.015121058, -1048919.9, -118243.82, 0.0, 10.000054, 9.998153 
1.10502236e+3, 2.1503052e+2, -863949.75, -1050866.5, 30558.896, -0.07759372, -0.025150046, -859080.5, -26377.96, 0.0, 10.000658, 9.998183 
1.1050272e+3, 2.2502965e+2, -628781.44, -698370.9, 72522.82, -0.004195808, -0.014713338, -583138.44, 151573.0, 0.0, 10.000791, 9.999865 
1.1050327e+3, 2.3503e+2, -578731.2, -620885.9, 32136.37, 0.091000035, 0.027469765, -561376.75, 75326.74, 0.0, 10.000449, 9.999888 
1.1050367e+3, 2.4502926e+2, -625826.1, -814748.75, -5048.2153, 0.06726847, 0.06511342, -625691.3, -86979.45, 0.0, 10.000406, 9.997907 
1.10503934e+3, 2.5502744e+2, -485537.9, -691518.06, -3858.3823, -0.07592507, 0.085516535, -485465.66, -44729.37, 0.0, 10.000677, 9.997948 
1.105043e+3, 2.6502562e+2, -321898.03, -533315.3, -6772.9126, -0.082281835, 0.096260555, -321681.28, 21074.563, 0.0, 10.001008, 9.998201 
1.1050476e+3, 2.7502373e+2, -168773.63, -405189.0, 32224.732, 0.044835903, 0.08450891, -164459.92, 80310.98, 0.0, 10.00137, 9.998233 
1.1050513e+3, 2.8502116e+2, -62761.848, -345237.84, 39844.266, 0.09883448, 0.019435, -57249.25, 89545.1, 0.0, 10.001605, 9.99786 
1.1050542e+3, 2.9501778e+2, 57218.645, -232482.86, 26230.994, 0.08408902, -0.11025966, 59574.57, 108400.73, 0.0, 10.001738, 9.997896 
1.1050568e+3, 3.0501544e+2, 148296.17, -152872.31, 842.87274, 0.06743293, -0.13770781, 148298.53, 148298.53, 0.000000048002537, 10.001982, 9.997994 
1.1050589e+3, 3.1501603e+2, 206244.84, -102680.4, 7145.1255, 0.045519013, 0.11575045, 206410.02, 206410.02, 0.0000009089632, 10.002279, 9.998194 
1.11499086e+3, 1.2502888e+2, -1893057.5, -1744049.6, -12861.293, -0.09402892, -0.08922918, -1742947.6, -28236.43, 0.000944546, 9.998545, 10.000492 
1.11499414e+3, 1.3502987e+2, -1772388.3, -1643271.9, -18740.287, -0.13417706, -0.03892632, -1640606.9, -23902.422, 0.00045159098, 9.998713, 10.000445 
1.1150006e+3, 1.4503007e+2, -1630072.5, -1548449.9, -50120.477, 0.17127024, -0.051679034, -1524626.6, -5923.681, 0.00012308804, 9.999132, 10.000212 
1.11500144e+3, 1.5502992e+2, -1454663.5, -1412475.3, -48871.652, -0.03723411, -0.090505265, -1380339.6, 40362.527, 0.000008505592, 9.999663, 10.000214 
1.1150031e+3, 1.6502988e+2, -1337841.9, -1404005.9, -25050.34, -0.18097734, -0.07147379, -1329427.6, -6723.905, 0.0000000033697685, 10.000215, 9.999335 
1.1150061e+3, 1.7502993e+2, -1149347.0, -1257159.1, -15540.012, -0.21571666, -0.0058098705, -1147151.8, 77555.69, 0.0, 10.000814, 9.999381 
1.1150102e+3, 1.8502991e+2, -1057487.3, -1159615.1, -12562.2705, -0.1614751, 0.051889405, -1055964.8, 70744.69, 0.0, 10.00076, 9.999404 
1.1150152e+3, 1.9502974e+2, -1056152.6, -1105246.6, -33836.05, -0.032070823, 0.08939763, -1038897.3, -10187.195, 0.0, 10.000082, 9.999431 
1.1150199e+3, 2.0502889e+2, -955574.8, -993188.0, -1265.0734, 0.0358496, 0.054819617, -955532.3, -24815.307, 0.0, 10.000043, 9.999548 
1.1150243e+3, 2.1502727e+2, -767763.8, -848438.8, 53272.742, 0.048152387, -0.066897325, -741279.9, 91450.62, 0.0, 10.000647, 9.999578 
1.1150282e+3, 2.2502609e+2, -702914.44, -849872.44, 57583.113, 0.019682081, -0.10485745, -683039.4, 51701.273, 0.0, 10.000778, 9.998831 
1.1150318e+3, 2.3502532e+2, -652308.3, -771707.56, 20552.492, -0.049123917, -0.07223112, -648869.6, -12121.951, 0.0, 10.00044, 9.998858 
1.11503564e+3, 2.4502437e+2, -621634.5, -803121.1, 4038.6445, -0.0826898, -0.00870034, -621544.7, -82785.0, 0.0, 10.000393, 9.9979925 
1.11504e+3, 2.5502318e+2, -480319.06, -680018.4, 7902.094, -0.08118199, 0.0682889, -480006.88, -39229.66, 0.0, 10.000674, 9.998029 
1.1150443e+3, 2.6502153e+2, -247628.11, -378341.34, 6758.746, -0.047705065, 0.039765906, -247279.58, 95513.91, 0.0, 10.001003, 9.999269 
1.1150487e+3, 2.7501944e+2, -95675.46, -250385.33, 47661.81, 0.01793944, -0.104691856, -82170.98, 162637.48, 0.0, 10.001356, 9.999304 
1.1150525e+3, 2.850185e+2, -85284.78, -388020.9, 43892.46, 0.054470308, -0.04191513, -79049.42, 67768.125, 0.0, 10.001587, 9.997574 
1.11505575e+3, 2.9501864e+2, 37921.28, -273880.16, 34344.25, 0.06051164, 0.20880753, 41659.41, 90480.836, 0.0, 10.001741, 9.997611 
1.1150587e+3, 3.050157e+2, 174615.08, -100520.6, 12714.607, 0.06502198, 0.11691634, 175201.4, 175201.4, 0.00000003287897, 10.001991, 9.998349 
1.1150615e+3, 3.150121e+2, 233587.52, -42675.58, 22599.438, 0.07327608, -0.08567509, 235424.03, 235424.03, 0.0000012305728, 10.002263, 9.998616 
1.12499e+3, 1.2502529e+2, -1826235.6, -1711286.3, 48620.813, -0.05190903, -0.12145595, -1693479.4, 21265.719, 0.0010643419, 9.999001, 10.000498 
1.1249932e+3, 1.3502641e+2, -1721753.4, -1622995.1, 66394.55, -0.12576686, -0.053646896, -1589630.5, 27106.533, 0.00051804923, 9.999077, 10.000409 
1.1249999e+3, 1.4502664e+2, -1599416.9, -1533279.0, 45893.195, 0.16876799, -0.061182253, -1509781.6, 8953.908, 0.00014661087, 9.999343, 10.000214 
1.1250009e+3, 1.5502658e+2, -1454879.8, -1413257.3, 31813.836, -0.057630606, -0.09302197, -1396052.4, 24682.63, 0.00001150662, 9.999663, 10.00021 
1.125003e+3, 1.6502652e+2, -1392871.5, -1443045.0, 39617.508, -0.18596958, -0.068772174, -1371065.9, -48329.16, 0.0000000061074554, 9.999893, 9.999221 
1.125007e+3, 1.750265e+2, -1269009.0, -1327681.8, 22102.934, -0.17024255, 0.00030363866, -1261614.5, -36873.78, 0.0, 10.000051, 9.999264 
1.1250111e+3, 1.8502615e+2, -1188033.9, -1252591.4, -3215.8635, -0.113059565, 0.04616841, -1187874.1, -61128.035, 0.0, 9.999991, 9.999137 
1.1250152e+3, 1.9502546e+2, -1128054.5, -1169609.8, -896.5383, -0.030694397, 0.056886792, -1128035.1, -99282.07, 0.0, 9.999718, 9.999166 
1.12501964e+3, 2.0502469e+2, -987075.2, -965883.44, 40995.016, 0.02390595, 0.026476176, -934137.06, -3378.5842, 0.0, 9.999646, 9.999926 
1.12502456e+3, 2.1502379e+2, -867629.6, -854411.1, 16053.796, 0.05484176, -0.062154002, -843659.3, -10896.26, 0.0, 9.99978, 9.999954 
1.1250286e+3, 2.2502275e+2, -816712.94, -943169.06, 2985.7266, 0.0038102774, -0.08788842, -816642.5, -81870.445, 0.0, 10.000164, 9.998487 
1.1250316e+3, 2.3502155e+2, -620892.25, -793876.1, 13053.181, -0.13168956, -0.06295479, -619912.8, 16872.63, 0.0, 10.000819, 9.998523 
1.12503566e+3, 2.4502034e+2, -517385.2, -700312.6, 27848.344, -0.15183327, -0.032101914, -513239.56, 25559.719, 0.0, 10.000886, 9.998461 
1.1250408e+3, 2.5501907e+2, -495323.75, -634906.44, 59246.52, -0.05763647, -0.012523026, -473567.4, -32753.201, 0.0, 10.000347, 9.998495 
1.1250454e+3, 2.650177e+2, -346636.7, -418169.66, 56364.36, -0.006945919, -0.038018998, -315648.53, 27178.508, 0.0, 10.000292, 9.999336 
1.1250496e+3, 2.750163e+2, -182662.1, -284471.3, 18672.363, 0.0010598281, -0.11836064, -179345.53, 65492.26, 0.0, 10.000729, 9.99937 
1.1250535e+3, 2.850159e+2, -123444.11, -389500.6, -5342.8584, 0.012055547, -0.014028918, -123336.86, 23506.904, 0.0, 10.001252, 9.997726 
1.1250573e+3, 2.950164e+2, 62277.223, -244694.22, 13822.497, 0.02549644, 0.2575259, 62898.37, 111743.86, 0.0, 10.001836, 9.997766 
1.12506054e+3, 3.0501354e+2, 175771.53, -99661.49, -15911.557, 0.045421425, 0.16889417, 176687.67, 176687.67, 0.000000043191367, 10.002003, 9.998349 
1.1250636e+3, 3.1501022e+2, 163451.08, -64959.27, -36277.0, 0.081434265, -0.00699733, 169074.28, 169074.28, 0.0000016271504, 10.001739, 9.9987135 
1.13499075e+3, 1.2502292e+2, -1824394.5, -1705153.5, 20386.79, 0.11457242, -0.14003164, -1701764.3, 13001.258, 0.0011953667, 9.998991, 10.0005455 
1.1349917e+3, 1.3502409e+2, -1723886.1, -1625680.1, 71753.31, -0.17018954, -0.06575937, -1587836.9, 28920.13, 0.00059164723, 9.999069, 10.000396 
1.1349984e+3, 1.450244e+2, -1609406.8, -1552579.4, 58195.637, 0.08154166, -0.057393458, -1516231.4, 2523.8987, 0.00017336896, 9.999335, 10.000085 
1.1350009e+3, 1.550246e+2, -1465210.3, -1433426.4, 45315.336, -0.028617827, -0.05027366, -1401297.1, 19456.22, 0.000015247707, 9.999658, 10.000074 
1.1350042e+3, 1.650243e+2, -1425265.3, -1509057.0, 43709.938, -0.06853801, -0.021725293, -1406615.1, -83856.89, 0.000000009421829, 9.9998865, 9.998772 
1.135009e+3, 1.7502342e+2, -1300438.4, -1393102.9, 28610.732, 0.02391267, 0.0076926234, -1292316.5, -67545.95, 0.0, 10.00005, 9.998816 
1.1350122e+3, 1.850223e+2, -1183896.1, -1242514.0, -16180.935, 0.004748778, -0.0057982723, -1179726.3, -52943.613, 0.0, 9.999986, 9.999209 
1.1350137e+3, 1.9502088e+2, -1124386.1, -1159465.4, -11357.253, -0.14626671, -0.07375876, -1121030.1, -92235.49, 0.0, 9.999707, 9.99924 
1.13501735e+3, 2.0502017e+2, -1033172.6, -1059117.4, 43634.773, -0.1730145, -0.07072617, -1000622.75, -69822.59, 0.0, 9.999634, 9.999292 
1.13502316e+3, 2.1502012e+2, -912840.7, -947126.3, 21392.824, -0.06527563, -0.010676157, -902569.44, -69769.91, 0.0, 9.999774, 9.999321 
1.1350281e+3, 2.2501966e+2, -794683.8, -896482.4, 25039.531, -0.06178488, 0.03647698, -788858.2, -54053.277, 0.0, 10.000157, 9.998812 
1.1350321e+3, 2.350187e+2, -599737.6, -747957.06, 38253.71, -0.16526838, 0.054146167, -590447.1, 46369.55, 0.0, 10.000808, 9.998844 
1.1350365e+3, 2.4501719e+2, -460126.7, -576588.8, 6304.001, -0.15095957, -0.006148702, -459786.44, 79044.234, 0.0, 10.000867, 9.999319 
1.1350415e+3, 2.5501508e+2, -437418.44, -510775.94, 40024.395, -0.015951011, -0.15733728, -419808.3, 21038.705, 0.0, 10.000332, 9.999354 
1.135046e+3, 2.6501414e+2, -412940.8, -554555.2, 72379.7, 0.030126868, -0.13655688, -382493.47, -39637.305, 0.0, 10.000282, 9.998406 
1.1350502e+3, 2.7501437e+2, -246313.23, -419180.63, 38024.117, -0.014912689, 0.04107482, -238319.1, 6539.495, 0.0, 10.000735, 9.998444 
1.1350543e+3, 2.8501335e+2, -86282.9, -310932.47, 16338.89, -0.037784167, 0.10170374, -85100.78, 61771.92, 0.0, 10.001246, 9.998268 
1.1350585e+3, 2.95011e+2, 96810.26, -167947.47, 37884.094, -0.03408096, 0.035593975, 102124.414, 151022.84, 0.0, 10.001813, 9.998304 
1.1350621e+3, 3.05009e+2, 149599.5, -148620.25, -26432.791, -0.0043439083, 0.018532334, 151924.25, 151924.25, 0.00000008746761, 10.001977, 9.998025 
1.135065e+3, 3.1501043e+2, 151794.55, -92592.9, -39826.074, 0.050254613, 0.35441944, 158120.94, 158120.94, 0.0000018468683, 10.001748, 9.99852 
1.14498965e+3, 1.2502018e+2, -1864337.5, -1738859.3, -27503.988, 0.11650479, -0.13669263, -1733095.4, -18303.334, 0.0013373722, 9.99878, 10.000416 
1.1449907e+3, 1.3502094e+2, -1661768.5, -1617080.9, 36524.313, -0.20586114, -0.084542625, -1596608.0, 20179.559, 0.000672049, 9.999581, 10.000212 
1.14499755e+3, 1.4502132e+2, -1533826.5, -1544904.1, 1090.0472, 0.040312987, -0.04957592, -1533720.3, -14933.86, 0.0002032588, 9.999975, 9.999832 
1.14500076e+3, 1.5502208e+2, -1465005.6, -1461827.4, -27962.973, -0.01775722, 0.041190706, -1435408.4, -14627.399, 0.000019742625, 9.999781, 9.999821 
1.14500426e+3, 1.6502157e+2, -1442703.3, -1504591.1, -7530.9263, -0.038594596, 0.05686479, -1441800.0, -119012.6, 0.000000013934886, 9.999711, 9.998888 
1.1450092e+3, 1.7501977e+2, -1329299.1, -1394223.0, 18040.865, 0.03914051, -0.019565295, -1324622.9, -99816.97, 0.0, 9.999796, 9.998931 
1.14501245e+3, 1.850184e+2, -1124309.5, -1213598.0, 5395.0083, 0.0033512681, -0.06298845, -1123984.6, 2834.162, 0.0, 10.000394, 9.99921 
1.1450142e+3, 1.9501744e+2, -860865.56, -1032391.94, 2179.489, -0.16835494, -0.08583901, -860837.9, 167988.52, 0.0, 10.001514, 9.999241 
1.1450176e+3, 2.0501672e+2, -770379.0, -985629.94, 34577.797, -0.20680518, -0.059980188, -764960.8, 165872.06, 0.0, 10.001668, 9.9988165 
1.1450231e+3, 2.1501622e+2, -786748.0, -939617.06, 20665.314, -0.1050461, 0.0017922238, -784003.7, 48834.855, 0.0, 10.000869, 9.998844 
1.1450281e+3, 2.2501558e+2, -789083.5, -869290.94, 38298.21, -0.07194357, 0.045160346, -773734.0, -38887.734, 0.0, 10.000092, 9.999029 
1.1450327e+3, 2.3501477e+2, -799675.06, -819924.06, 41631.977, -0.11225978, 0.0547421, -766954.2, -130097.805, 0.0, 9.9993305, 9.999062 
1.1450373e+3, 2.4501361e+2, -636884.3, -624389.5, 610.5895, -0.09463775, 0.0042540524, -624359.75, -85493.85, 0.0, 9.99949, 9.999655 
1.14504196e+3, 2.550121e+2, -380603.2, -446132.94, -8608.286, -0.017249115, -0.11888151, -379491.22, 61383.66, 0.0, 10.000561, 9.999689 
1.1450465e+3, 2.650112e+2, -330388.0, -545997.5, 24137.906, 0.0084006805, -0.09783248, -327718.75, 15165.059, 0.0, 10.000985, 9.998127 
1.14505075e+3, 2.7501088e+2, -262397.78, -458338.9, 35437.492, -0.021386987, 0.05075176, -256185.58, -11292.374, 0.0, 10.000762, 9.998161 
1.14505515e+3, 2.8500965e+2, -155737.94, -295440.72, 38858.855, -0.041340116, 0.082995936, -145656.69, 1252.4948, 0.0, 10.000559, 9.998705 
1.1450595e+3, 2.9500747e+2, -87064.63, -208370.56, 50181.57, -0.046108663, -0.010924442, -68996.75, -20065.13, 0.0, 10.000343, 9.998734 
1.14506334e+3, 3.0500558e+2, 38020.67, -206573.05, 21622.828, -0.039380085, -0.03460833, 39917.49, 39917.49, 0.00000008852141, 10.001228, 9.997988 
1.1450669e+3, 3.150075e+2, 372634.1, 28418.797, 21321.732, -0.015448553, 0.35010174, 373949.78, 373949.78, 0.000001779051, 10.003209, 9.998645 
1.15498655e+3, 1.2501721e+2, -1889571.6, -1785479.8, -29642.58, -0.070081934, -0.1082711, -1777630.3, -62806.816, 0.001489488, 9.9987545, 10.000107 
1.15499e+3, 1.350171e+2, -1686075.5, -1667654.0, 70527.15, -0.24235189, -0.10948875, -1605738.6, 11088.871, 0.00075867696, 9.999581, 9.999865 
1.1549976e+3, 1.4501747e+2, -1562077.3, -1603566.9, -6067.2363, 0.03599824, -0.036539614, -1561208.3, -42380.246, 0.0002361324, 9.999975, 9.99943 
1.1550003e+3, 1.550191e+2, -1493992.4, -1519992.9, -34789.293, -0.033999294, 0.18077692, -1469853.6, -49036.42, 0.000024990082, 9.999772, 9.999427 
1.1550033e+3, 1.6501848e+2, -1395574.3, -1405114.6, -6932.1025, -0.10794784, 0.16937163, -1391929.6, -69106.29, 0.000000023716384, 9.999703, 9.999575 
1.1550072e+3, 1.7501561e+2, -1282421.3, -1296026.8, 21584.357, -0.1327473, -0.08157361, -1266593.0, -41746.914, 0.0, 9.999791, 9.999608 
1.1550116e+3, 1.8501453e+2, -1131063.6, -1224533.0, 45857.125, -0.12792934, -0.12615941, -1112323.0, 14531.038, 0.0, 10.0003805, 9.999142 
1.1550162e+3, 1.950152e+2, -867587.75, -1043433.5, 45021.25, -0.10806485, 0.021044174, -856731.4, 172116.31, 0.0, 10.001502, 9.999172 
1.1550205e+3, 2.0501441e+2, -795892.25, -1036338.06, 1548.927, -0.0916223, 0.05981359, -795882.25, 134973.77, 0.0, 10.001657, 9.998474 
1.1550243e+3, 2.1501212e+2, -812451.2, -990101.7, -9726.389, -0.07259515, -0.02433173, -811920.25, 20959.305, 0.0, 10.000855, 9.998506 
1.1550286e+3, 2.2501057e+2, -783444.75, -853349.75, 7613.2866, -0.03523746, -0.059438422, -782625.2, -47729.773, 0.0, 10.000073, 9.999147 
1.1550333e+3, 2.3500976e+2, -791873.94, -803231.0, 14153.295, 0.017697288, -0.060827117, -782302.5, -145398.47, 0.0, 9.999328, 9.999178 
1.1550378e+3, 2.4500966e+2, -650922.0, -652350.56, 40034.75, 0.00563331, -0.002687587, -611595.1, -72690.54, 0.0, 9.999483, 9.999466 
1.155042e+3, 2.5501022e+2, -393633.34, -473790.97, 33251.77, -0.06940354, 0.100050814, -381635.38, 59262.055, 0.0, 10.000561, 9.999499 
1.1550466e+3, 2.65009e+2, -308072.75, -497906.28, 14854.139, -0.08031329, 0.07622038, -306917.47, 35992.18, 0.0, 10.0009775, 9.99846 
1.1550515e+3, 2.7500585e+2, -241275.16, -410090.06, 28668.504, -0.029508438, -0.087237544, -236539.45, 8401.959, 0.0, 10.000744, 9.998501 
1.15505606e+3, 2.8500482e+2, -131814.67, -241882.22, 31026.686, -0.010267218, -0.06920324, -123671.15, 23281.74, 0.0, 10.000541, 9.999083 
1.1550601e+3, 2.950058e+2, -59512.344, -154016.45, 46127.242, -0.022858258, 0.1144573, -40730.473, 8214.307, 0.0, 10.000353, 9.9991045 
1.1550643e+3, 3.0500332e+2, 48482.254, -185441.3, 96170.07, -0.06820973, 0.0067963493, 82942.87, 82942.87, 0.000000069683765, 10.00123, 9.998134 
1.15506895e+3, 3.1500134e+2, 392078.8, 73664.08, 99496.0, -0.13515054, -0.012257492, 420611.8, 420611.8, 0.0000016240274, 10.003184, 9.99897 
1.1649848e+3, 1.2501371e+2, -1803851.0, -1737342.0, -90490.664, -0.15425682, -0.04486138, -1674189.0, 40674.28, 0.0016512593, 9.999315, 10.000167 
1.16498984e+3, 1.3501371e+2, -1660627.1, -1652478.1, 59504.168, -0.22040148, -0.036492065, -1596909.1, 19955.512, 0.0008513687, 9.999745, 9.999889 
1.1649977e+3, 1.4501368e+2, -1555918.8, -1616081.5, -15197.961, 0.04829622, 0.000014776584, -1552297.4, -33429.4, 0.00027198074, 10.000086, 9.9992895 
1.1650001e+3, 1.550143e+2, -1448198.8, -1513736.8, -30168.268, -0.044319294, 0.13254865, -1436426.4, -15560.128, 0.00003101119, 10.000155, 9.999284 
1.1650032e+3, 1.6501382e+2, -1265262.4, -1295931.3, 12128.511, -0.13213205, 0.12069884, -1261045.8, 61824.402, 0.00000004774233, 10.000398, 9.9999895 
1.1650072e+3, 1.7501219e+2, -1098877.1, -1160912.6, 17295.377, -0.16701823, -0.047060944, -1094381.1, 130498.43, 0.0, 10.000851, 10.000024 
1.1650118e+3, 1.8501143e+2, -1125738.1, -1239120.6, 19746.975, -0.14502944, -0.07399454, -1122397.4, 4486.762, 0.0, 10.000487, 9.998992 
1.165017e+3, 1.9501148e+2, -1198339.5, -1219624.3, 10727.67, -0.08152988, 0.025936237, -1193870.9, -164986.53, 0.0, 9.999302, 9.999023 
1.16502136e+3, 2.0501055e+2, -1170245.3, -1190471.4, -14989.231, -0.033047453, 0.046127774, -1162276.5, -231382.34, 0.0, 9.998977, 9.998706 
1.1650252e+3, 2.1500857e+2, -989784.3, -1049501.1, 14260.809, 0.005695797, -0.02790939, -986553.5, -153639.58, 0.0, 9.999528, 9.998735 
1.1650292e+3, 2.2500703e+2, -781264.2, -849465.44, 52842.914, 0.021317368, -0.076784484, -752474.25, -17545.355, 0.0, 10.000077, 9.999171 
1.1650332e+3, 2.3500589e+2, -602363.6, -709311.2, 48003.094, 0.01098738, -0.11447223, -583978.25, 52961.113, 0.0, 10.00062, 9.999199 
1.16503775e+3, 2.4500565e+2, -465848.47, -603554.8, 90756.05, -0.022781868, -0.05245052, -420783.16, 118158.43, 0.0, 10.000928, 9.999105 
1.16504274e+3, 2.5500628e+2, -355024.2, -495586.47, 69153.55, -0.079923086, 0.09416007, -326706.88, 114229.16, 0.0, 10.001, 9.999139 
1.1650476e+3, 2.6500502e+2, -282979.1, -438019.34, 19813.078, -0.07941627, 0.06771148, -280487.16, 62461.24, 0.0, 10.000947, 9.998885 
1.16505235e+3, 2.7500185e+2, -211497.33, -349655.9, 37308.965, -0.021435572, -0.14393912, -202066.06, 42912.813, 0.0, 10.00075, 9.998914 
1.16505675e+3, 2.850011e+2, -87711.22, -239332.39, 38900.64, -0.005663886, -0.10981862, -78313.21, 68673.586, 0.0, 10.000925, 9.998916 
1.1650608e+3, 2.9500273e+2, 94951.36, -97990.125, 8477.733, -0.034644496, 0.15293124, 95323.15, 144296.03, 0.0, 10.001497, 9.998937 
1.16506554e+3, 3.0499983e+2, 109200.28, -143817.06, 61784.6, -0.085451365, 0.007247327, 123481.46, 123481.46, 0.00000011234466, 10.001596, 9.998242 
1.16507106e+3, 3.1499654e+2, 113585.54, -29175.213, 62035.777, -0.1389823, -0.14972378, 136775.75, 136775.75, 0.0000015947043, 10.001134, 9.999254 
1.1749841e+3, 1.2500983e+2, -1775658.5, -1679368.6, -103760.34, -0.15268561, 0.05789023, -1613127.6, 101782.49, 0.0018234614, 9.999314, 10.0005665 
1.1749902e+3, 1.350109e+2, -1635929.3, -1599775.8, 78738.234, -0.14942707, 0.13494834, -1537065.9, 79832.1, 0.0009506097, 9.999737, 10.000256 
1.1749979e+3, 1.4501002e+2, -1547507.1, -1597274.1, -12167.042, 0.063544385, 0.06278731, -1544691.8, -25786.217, 0.00031097958, 10.000078, 9.999422 
1.17500015e+3, 1.5500778e+2, -1439589.9, -1496007.3, -26763.635, -0.060433704, -0.10505669, -1428913.9, -7986.508, 0.00003785508, 10.0001545, 9.999407 
1.17500365e+3, 1.6500765e+2, -1257900.1, -1278786.1, 27201.87, -0.123798825, -0.092778325, -1239205.6, 83721.66, 0.00000010132158, 10.00039, 10.000111 
1.17500894e+3, 1.7500958e+2, -1090905.0, -1142514.8, 35043.297, -0.07417071, 0.08210931, -1073190.6, 151715.02, 0.0, 10.000841, 10.000156 
1.1750132e+3, 1.8500915e+2, -1143794.6, -1273317.5, -27689.352, -0.059105057, 0.093516216, -1138123.5, -11215.028, 0.0, 10.000474, 9.998763 
1.1750161e+3, 1.9500634e+2, -1215831.4, -1253833.1, -34145.527, -0.096744925, -0.07037749, -1195756.0, -166820.25, 0.0, 9.999293, 9.998793 
1.17502026e+3, 2.0500518e+2, -1115008.5, -1073567.4, 3553.8032, -0.040247634, -0.10063389, -1073264.8, -142318.13, 0.0, 9.998966, 9.999514 
1.17502585e+3, 2.1500565e+2, -933352.0, -932129.4, 35719.504, 0.11886426, -0.012434063, -897015.94, -64074.566, 0.0, 9.999525, 9.999543 
1.1750299e+3, 2.2500496e+2, -788998.7, -864546.3, 70889.14, 0.085996486, -0.010139744, -746447.4, -11500.912, 0.0, 10.000071, 9.999071 
1.1750323e+3, 2.3500313e+2, -609705.44, -723463.4, 68906.96, -0.1398058, -0.10865505, -577234.56, 59727.54, 0.0, 10.000612, 9.999106 
1.17503695e+3, 2.450016e+2, -505395.84, -681905.1, 91729.164, -0.1874399, -0.14354885, -466359.0, 72617.46, 0.0, 10.000913, 9.998575 
1.17504396e+3, 2.5500035e+2, -393977.8, -573606.0, 73528.34, -0.05756725, -0.1319773, -367718.72, 73271.305, 0.0, 10.000989, 9.998609 
1.1750493e+3, 2.6499945e+2, -248584.14, -364106.0, 12444.522, 0.0009455344, -0.121806934, -247258.77, 95740.88, 0.0, 10.000935, 9.999399 
1.1750532e+3, 2.749989e+2, -176132.4, -275688.44, 32583.063, -0.012742449, -0.12402085, -166416.66, 78588.79, 0.0, 10.000746, 9.999424 
1.1750574e+3, 2.8499848e+2, -142045.75, -352459.25, 59617.676, -0.043227535, -0.04310196, -126328.02, 20682.76, 0.0, 10.000924, 9.99814 
1.17506176e+3, 2.9499817e+2, 40962.363, -209912.9, 31621.295, -0.08904949, 0.1041533, 44886.652, 93902.81, 0.00000000033301453, 10.001493, 9.998172 
1.17506705e+3, 3.0499506e+2, 119686.625, -119615.86, 46099.125, -0.09851798, -0.03422482, 128259.984, 128259.984, 0.0000001492706, 10.001585, 9.998415 
1.175073e+3, 3.1499323e+2, 139362.67, 24720.438, 52827.41, -0.056735728, -0.06723033, 159993.11, 159993.11, 0.0000017803034, 10.001129, 9.999628 
1.18498355e+3, 1.2500584e+2, -1923517.5, -1716334.9, -88416.17, -0.08543639, 0.13748944, -1683733.0, 31220.846, 0.0020081834, 9.998158, 10.000868 
1.1849899e+3, 1.3500676e+2, -1761700.6, -1629064.6, 104214.11, -0.11845973, 0.17383938, -1571856.6, 45084.184, 0.0010574218, 9.998741, 10.000534 
1.1849972e+3, 1.4500588e+2, -1650543.8, -1611805.4, 6596.715, 0.019673346, 0.07013852, -1610712.9, -91766.66, 0.00035351914, 9.999221, 9.999736 
1.185e+3, 1.5500362e+2, -1515446.0, -1497185.9, -173.11832, -0.056974895, -0.13174123, -1497184.3, -76218.484, 0.00004562391, 9.999482, 9.999722 
1.1850039e+3, 1.6500348e+2, -1416697.6, -1402509.3, 41411.188, -0.08755683, -0.11484114, -1367589.0, -44622.832, 0.00000019883093, 9.9995, 9.999691 
1.18500955e+3, 1.7500547e+2, -1348806.1, -1313246.8, 6545.844, -0.025044868, 0.10631104, -1312080.0, -87132.57, 0.0, 9.999271, 9.999741 
1.18501365e+3, 1.850051e+2, -1239084.6, -1266069.3, -57220.12, -0.012909456, 0.12179444, -1193787.6, -66837.46, 0.0, 9.999594, 9.999235 
1.18501626e+3, 1.9500236e+2, -1008698.4, -1101581.6, -14004.892, -0.06825883, -0.08170562, -1006632.7, 22341.777, 0.0, 10.000489, 9.999261 
1.1850201e+3, 2.0500128e+2, -832290.94, -928503.94, 38112.336, -0.051726673, -0.13175525, -819023.3, 111960.34, 0.0, 10.000866, 9.999597 
1.1850253e+3, 2.1500184e+2, -753797.25, -836041.8, 13027.343, 0.04252923, -0.043044932, -751783.1, 81194.914, 0.0, 10.000717, 9.999629 
1.1850298e+3, 2.250015e+2, -666581.06, -803541.6, 39974.598, 0.018987585, -0.010956132, -655767.5, 79212.52, 0.0, 10.000904, 9.999088 
1.1850335e+3, 2.3500024e+2, -489428.94, -663579.5, 43428.266, -0.12506342, -0.051170737, -479199.94, 157790.02, 0.0, 10.001431, 9.999123 
1.1850387e+3, 2.4499857e+2, -451141.94, -654261.3, 58178.21, -0.13235307, -0.10305864, -435658.56, 103347.15, 0.0, 10.00128, 9.998587 
1.1850452e+3, 2.5499642e+2, -472334.8, -610201.8, 76961.2, -0.0027359368, -0.1831173, -437949.13, 3078.696, 0.0, 10.000447, 9.998617 
1.1850503e+3, 2.6499557e+2, -342855.5, -434690.38, 34034.746, 0.03617228, -0.15741184, -331617.25, 11420.534, 0.0, 10.000394, 9.999176 
1.1850541e+3, 2.74996e+2, -136748.44, -281716.06, -4488.411, -0.0191869, -0.03870891, -136609.6, 108426.25, 0.0, 10.001124, 9.999201 
1.18505836e+3, 2.8499523e+2, -36376.52, -287641.94, 35768.984, -0.0649927, 0.013391574, -31383.818, 115659.73, 0.0, 10.001592, 9.998262 
1.18506335e+3, 2.9499325e+2, 91088.67, -172686.66, 73235.39, -0.096506484, -0.016859878, 110057.83, 159119.13, 0.0000000005706294, 10.001781, 9.998288 
1.1850685e+3, 3.0499035e+2, 113428.97, -164008.08, 72679.31, -0.11379992, -0.12367747, 131315.39, 131315.39, 0.0000001238623, 10.001721, 9.998042 
1.18507385e+3, 3.149904e+2, 170415.06, 24122.752, 29418.244, -0.096003205, 0.068054155, 176109.22, 176109.22, 0.0000021334226, 10.001416, 9.99948 
1.19498275e+3, 1.2500195e+2, -1911402.9, -1690064.1, -84640.3, 0.017090028, 0.20440708, -1661407.6, 53585.03, 0.0022081332, 9.998147, 10.001057 
1.1949884e+3, 1.3500144e+2, -1748203.0, -1601955.9, 128571.3, -0.1339017, 0.07969075, -1527168.5, 89823.734, 0.0011730703, 9.998744, 10.00072 
1.1949953e+3, 1.4500129e+2, -1617161.6, -1543526.9, 16424.484, -0.09317152, 0.019607358, -1540029.5, -21040.094, 0.00040013902, 9.999223, 10.000203 
1.1949997e+3, 1.5500188e+2, -1482041.3, -1426285.8, 10393.908, -0.04376198, 0.051769618, -1424411.1, -3430.2734, 0.00005450229, 9.999475, 10.000212 
1.19500406e+3, 1.650014e+2, -1484648.8, -1541543.3, 30621.043, -0.03380731, 0.057782393, -1471300.1, -148314.19, 0.00000035173326, 9.999492, 9.998741 
1.19500875e+3, 1.749999e+2, -1416100.8, -1452259.3, -1844.925, -0.02833797, 0.025611712, -1416006.9, -191002.56, 0.0, 9.999269, 9.998788 
1.19501315e+3, 1.849993e+2, -1158840.1, -1097636.5, -25514.863, -0.016820068, 0.0077503915, -1088395.3, 38613.625, 0.0, 9.999585, 10.000396 
1.1950173e+3, 1.9499959e+2, -929380.3, -933356.94, 20268.568, -0.007624167, -0.009677659, -911002.75, 117997.06, 0.0, 10.000473, 10.000423 
1.19502075e+3, 2.049989e+2, -880394.56, -1025006.75, 29886.938, -0.07928323, -0.04574199, -874461.25, 56543.17, 0.0, 10.000851, 9.998941 
1.1950233e+3, 2.1499719e+2, -800929.9, -931246.44, 7239.2505, -0.22823754, -0.117331244, -800528.94, 32494.117, 0.0, 10.000706, 9.9989805 
1.1950286e+3, 2.2499667e+2, -659767.94, -786212.25, 57628.355, -0.18749693, -0.07780977, -637444.4, 97584.55, 0.0, 10.00089, 9.999215 
1.1950366e+3, 2.3499732e+2, -482291.56, -646170.94, 64319.53, 0.04257877, 0.057270188, -460062.56, 176959.72, 0.0, 10.001419, 9.9992485 
1.1950426e+3, 2.4499658e+2, -415484.5, -577619.25, 25438.076, 0.128446, 0.06631157, -411587.1, 127442.02, 0.0, 10.001267, 9.999119 
1.1950464e+3, 2.5499445e+2, -435517.4, -532540.2, 46846.348, 0.07202243, -0.06451584, -416590.4, 24459.143, 0.0, 10.000441, 9.999154 
1.19505055e+3, 2.649933e+2, -412630.53, -578658.3, 60866.023, 0.015338521, -0.044192854, -392707.66, -49644.684, 0.0, 10.000388, 9.998191 
1.19505495e+3, 2.7499315e+2, -205173.19, -423722.13, 24912.734, -0.045735527, 0.11262604, -202369.31, 42700.496, 0.0, 10.001123, 9.998226 
1.19505994e+3, 2.849914e+2, 37226.04, -135294.0, 43014.75, -0.07592054, 0.06273042, 47356.164, 194440.67, 0.0, 10.001593, 9.99931 
1.19506545e+3, 2.9498804e+2, 161398.38, -23635.762, 83915.83, -0.07560966, -0.21204163, 193786.38, 242894.19, 0.000000000035344595, 10.001767, 9.999319 
1.19506985e+3, 3.049857e+2, 39070.234, -315320.53, 61545.137, -0.14902821, -0.26291466, 49454.188, 49454.188, 0.00000013205947, 10.001706, 9.997011 
1.1950736e+3, 3.1498802e+2, 113693.0, -94287.55, 23220.342, -0.26869613, 0.2593154, 116253.94, 116253.94, 0.0000029337862, 10.001415, 9.998669 
1.20498136e+3, 1.2499674e+2, -1662848.0, -1611863.4, -76130.04, -0.044890147, 0.14184088, -1557070.9, 157967.64, 0.0024257244, 10.000042, 10.000676 
1.20498754e+3, 1.349958e+2, -1641383.9, -1592778.4, 92768.8, -0.14240794, 0.013217321, -1521181.9, 95863.234, 0.0012988481, 9.999661, 10.0003395 
1.204994e+3, 1.4499602e+2, -1571128.4, -1509441.1, -51311.938, -0.1516813, 0.0018053971, -1480416.3, 38624.777, 0.00045139206, 9.999489, 10.000308 
1.204999e+3, 1.5499762e+2, -1481633.1, -1413549.1, -90213.33, -0.048493173, 0.1257313, -1351168.6, 69855.27, 0.00006471426, 9.999425, 10.000323 
1.20500356e+3, 1.6499722e+2, -1450693.0, -1468827.5, -30778.271, -0.020795334, 0.108515605, -1427674.1, -104647.07, 0.00000057087306, 9.999485, 9.999242 
1.205008e+3, 1.7499483e+2, -1313871.9, -1348120.6, 42932.14, -0.04504971, -0.06179263, -1284774.9, -59724.33, 0.0, 9.999734, 9.999278 
1.2050126e+3, 1.8499434e+2, -1132466.0, -1078434.0, 45942.164, -0.04184043, -0.096648365, -1052153.3, 74900.35, 0.0, 9.999736, 10.000456 
1.2050172e+3, 1.9499575e+2, -1071345.1, -994268.8, 6599.883, -0.018465338, -0.008455904, -993707.8, 35328.563, 0.0, 9.999468, 10.000488 
1.205021e+3, 2.0499553e+2, -1044055.8, -1100464.5, 3775.0986, -0.081221804, -0.0015361612, -1043804.3, -112766.836, 0.0, 9.999717, 9.998966 
1.2050239e+3, 2.1499366e+2, -828771.56, -942625.06, 28857.127, -0.229776, -0.09278816, -821875.25, 11182.248, 0.0, 10.000505, 9.998999 
1.2050294e+3, 2.249929e+2, -691546.2, -781598.44, 94265.49, -0.17694236, -0.086791165, -632105.4, 102960.016, 0.0, 10.000586, 9.999393 
1.2050376e+3, 2.3499325e+2, -683091.3, -722352.4, 100984.195, 0.07691378, 0.0026300477, -599847.4, 37214.105, 0.0, 9.999954, 9.999431 
1.2050436e+3, 2.4499281e+2, -557958.25, -648272.2, 56798.91, 0.1547452, 0.0322481, -530553.0, 8513.103, 0.0, 10.000299, 9.999099 
1.2050472e+3, 2.549915e+2, -265176.97, -452680.8, 33390.805, 0.05603969, -0.012650713, -259408.2, 181671.53, 0.0, 10.00162, 9.999133 
1.2050514e+3, 2.6499042e+2, -146510.84, -459844.5, 65797.336, -0.026498808, 0.015669646, -133254.8, 209838.08, 0.0, 10.002261, 9.998102 
1.20505616e+3, 2.7498943e+2, -49687.754, -359126.2, 94444.375, -0.09320605, 0.1016832, -23139.828, 221966.27, 0.0, 10.002237, 9.998134 
1.2050613e+3, 2.8498754e+2, 74621.766, -138410.8, 79767.484, -0.114039145, 0.049131367, 101179.03, 248301.7, 0.0, 10.001945, 9.999117 
1.20506674e+3, 2.9498464e+2, 92873.336, -78476.56, 22246.94, -0.09200417, -0.15829395, 95714.62, 144857.86, 0.0000000000084359915, 10.001394, 9.99912 
1.2050713e+3, 3.0498216e+2, -3834.0269, -338412.63, 7834.317, -0.16158412, -0.20970419, -3650.683, -3650.683, 0.00000031627076, 10.001422, 9.996989 
1.20507516e+3, 3.149833e+2, 206289.55, -31052.307, 43827.254, -0.28157288, 0.1974872, 214124.03, 214124.03, 0.0000041708245, 10.001974, 9.998834 
1.2149788e+3, 1.249904e+2, -1733991.9, -1760409.6, -88633.69, -0.3016707, -0.04601761, -1657588.3, 57501.67, 0.0026624324, 10.000041, 9.999659 
1.21498704e+3, 1.3498998e+2, -1710181.9, -1736304.4, 80193.24, -0.15173984, -0.025151651, -1641993.3, -24894.719, 0.0014356553, 9.999661, 9.999354 
1.2149934e+3, 1.4499015e+2, -1589244.3, -1546776.0, -54169.34, -0.16688532, 0.01921535, -1509827.6, 9272.366, 0.0005075534, 9.999487, 10.000053 
1.21499814e+3, 1.5499094e+2, -1501427.6, -1452005.3, -92228.77, -0.08028848, 0.090175435, -1381234.5, 39859.234, 0.000076397075, 9.9994135, 10.000065 
1.2150027e+3, 1.6499099e+2, -1316848.1, -1190112.9, -24071.246, -0.05911273, 0.036424704, -1185695.0, 137394.06, 0.0000008702971, 9.999478, 10.001159 
1.21500745e+3, 1.7499031e+2, -1179876.0, -1069335.9, 52711.992, -0.083129436, -0.15562667, -1048229.7, 176856.1, 0.0, 9.999728, 10.001195 
1.21501185e+3, 1.849903e+2, -1206421.1, -1229195.0, 34009.04, -0.09826418, -0.18824457, -1181943.4, -54859.652, 0.0, 9.999724, 9.999426 
1.2150157e+3, 1.949909e+2, -1144890.3, -1144573.3, -3241.1753, -0.10898386, -0.07708743, -1141486.8, -112403.48, 0.0, 9.999459, 9.99946 
1.2150207e+3, 2.049912e+2, -995700.8, -999749.0, 31140.975, -0.06910573, -0.0002706211, -966518.25, -35435.99, 0.0, 9.999714, 9.9996605 
1.215027e+3, 2.1499123e+2, -781422.3, -842453.6, 59421.367, 0.023960778, 0.028138252, -745139.0, 87941.88, 0.0, 10.000496, 9.999692 
1.2150322e+3, 2.249902e+2, -678572.2, -752462.5, 68496.195, 0.037797317, -0.038025137, -637692.75, 97396.37, 0.0, 10.000575, 9.9995985 
1.2150366e+3, 2.349881e+2, -668718.7, -692163.9, 78020.75, -0.0279778, -0.2151642, -601544.75, 35562.43, 0.0, 9.99995, 9.9996395 
1.2150417e+3, 2.449873e+2, -599122.5, -732405.6, 104881.805, -0.059372943, -0.20463406, -541501.06, -2384.5278, 0.0, 10.000293, 9.998525 
1.21504776e+3, 2.549877e+2, -306267.9, -536897.4, 84681.984, -0.05703474, -0.024182161, -278514.38, 162603.34, 0.0, 10.001615, 9.998558 
1.215053e+3, 2.649869e+2, -92239.3, -346166.4, 64544.93, -0.096525356, 0.025043214, -76774.65, 266352.34, 0.0, 10.0022545, 9.998887 
1.2150575e+3, 2.749849e+2, 2802.8235, -244772.52, 95652.72, -0.1784577, -0.070959814, 35453.098, 280597.6, 0.0, 10.002214, 9.998929 
1.2150624e+3, 2.849836e+2, -30912.36, -355034.34, 58681.9, -0.19594812, -0.028086247, -20615.207, 126542.81, 0.0, 10.00193, 9.997638 
1.21506765e+3, 2.9498297e+2, -10064.793, -293558.5, 3683.3162, -0.14884715, 0.13882816, -10016.945, 39151.27, 0.0000000021993571, 10.001397, 9.9976425 
1.2150727e+3, 3.0497974e+2, 67282.49, -190593.05, 28889.584, -0.15353054, 0.03562497, 70479.34, 70479.34, 0.000000624553, 10.001421, 9.998005 
1.2150784e+3, 3.1497642e+2, 284133.22, 138926.0, 71231.26, -0.17099823, -0.10734941, 313240.84, 313240.84, 0.000005395105, 10.001938, 10.000019 
1.2249783e+3, 1.2498412e+2, -1982912.3, -1871187.1, -155483.92, -0.26902696, -0.1192961, -1761835.0, -46687.188, 0.0029179724, 9.998291, 9.999744 
1.2249867e+3, 1.3498439e+2, -1870597.0, -1797548.1, 82505.93, -0.10362954, -0.041406635, -1743843.6, -126693.055, 0.0015834377, 9.998493, 9.999497 
1.224992e+3, 1.4498477e+2, -1700821.9, -1583489.6, 12842.955, -0.2111546, 0.0087554, -1582100.3, -62949.563, 0.00056846405, 9.9986515, 10.000202 
1.224997e+3, 1.5498516e+2, -1581770.5, -1474077.0, 968.9852, -0.117659755, 0.023132838, -1474068.3, -52919.28, 0.00008951281, 9.998791, 10.000213 
1.2250016e+3, 1.6498564e+2, -1367528.4, -1153164.1, 39561.03, -0.086484425, -0.023071423, -1146096.1, 177043.9, 0.0000012652538, 9.998865, 10.001708 
1.2250065e+3, 1.7498626e+2, -1267948.3, -1048786.8, 11392.466, -0.106127664, -0.14075287, -1048196.2, 176927.28, 0.0, 9.998855, 10.001756 
1.2250111e+3, 1.8498659e+2, -1293906.9, -1278313.1, -17232.484, -0.11588455, -0.16299887, -1267195.8, -140077.45, 0.0, 9.999157, 9.999362 
1.2250152e+3, 1.9498655e+2, -1098035.1, -1130155.3, 15132.9795, -0.121374115, -0.107694864, -1092028.6, -62903.277, 0.0, 9.999814, 9.99939 
1.2250207e+3, 2.0498693e+2, -885529.0, -871363.0, 94405.29, -0.06644812, -0.055891555, -783775.4, 147347.88, 0.0, 10.000146, 10.000334 
1.2250276e+3, 2.149877e+2, -784026.4, -767048.25, 118180.79, 0.051548667, -0.019952038, -657052.0, 176059.94, 0.0, 10.000151, 10.000375 
1.2250327e+3, 2.2498709e+2, -701046.0, -785165.25, 101903.6, 0.040704533, -0.06853296, -632863.3, 102252.81, 0.0, 10.000518, 9.9994 
1.2250364e+3, 2.3498508e+2, -494496.53, -630675.8, 77870.84, -0.10102981, -0.21760148, -459145.06, 177991.17, 0.0, 10.001245, 9.999438 
1.2250419e+3, 2.4498422e+2, -430289.1, -641604.3, 131600.61, -0.13821508, -0.20449913, -367179.84, 171966.61, 0.0, 10.001411, 9.9986105 
1.225049e+3, 2.5498447e+2, -384171.4, -563974.2, 157563.55, -0.07030555, -0.047125254, -292665.72, 148481.75, 0.0, 10.001037, 9.99865 
1.2250549e+3, 2.6498342e+2, -278066.1, -460200.16, 116068.83, -0.06754667, -0.016080277, -221602.88, 121555.445, 0.0, 10.001085, 9.998666 
1.2250598e+3, 2.7498108e+2, -112331.06, -326087.5, 67140.88, -0.13266703, -0.12549877, -92991.805, 152187.58, 0.0, 10.001535, 9.998697 
1.2250647e+3, 2.8497967e+2, -76832.49, -460727.3, 12453.537, -0.16214494, -0.044964295, -76428.93, 70767.5, 0.0, 10.001976, 9.996888 
1.2250695e+3, 2.9497918e+2, 87394.555, -331267.7, 9608.326, -0.15443446, 0.211254, 87614.945, 136824.92, 0.000000006526241, 10.002431, 9.996885 
1.2250743e+3, 3.0497587e+2, 203975.86, -60375.875, 36462.08, -0.17525083, 0.11023633, 208912.88, 208912.88, 0.00000080818666, 10.002085, 9.998578 
1.2250796e+3, 3.1497145e+2, 180651.39, 166402.7, 38551.863, -0.17999437, -0.20145066, 212731.67, 212731.67, 0.000005944011, 10.000891, 10.000712 
1.2349796e+3, 1.2497811e+2, -1899237.5, -1697554.8, -132647.03, 0.03167104, -0.065568574, -1631770.1, 83440.44, 0.0031899144, 9.998286, 10.000941 
1.2349861e+3, 1.3497919e+2, -1782558.4, -1612864.0, 90645.875, -0.0040443395, -0.033130065, -1573551.1, 43649.176, 0.0017411282, 9.998484, 10.000771 
1.2349898e+3, 1.4498e+2, -1664610.5, -1506585.4, 16086.318, -0.2964767, -0.029603282, -1504964.4, 14227.907, 0.0006337289, 9.998641, 10.000736 
1.2349951e+3, 1.5498032e+2, -1543574.8, -1396501.9, 7213.537, -0.17089185, -0.0754125, -1396149.0, 25039.953, 0.00010392506, 9.998795, 10.000744 
1.2350003e+3, 1.6498119e+2, -1423758.0, -1268510.0, 37499.746, -0.114027046, -0.07014086, -1259926.6, 63252.777, 0.0000017603737, 9.99886, 10.000918 
1.23500526e+3, 1.7498268e+2, -1325135.0, -1165741.9, 11432.817, -0.12191992, -0.019391997, -1164926.0, 60236.996, 0.0, 9.998846, 10.000958 
1.2350104e+3, 1.8498322e+2, -1233493.9, -1150430.8, 4862.4077, -0.10535572, -0.023769243, -1150147.1, -22990.043, 0.0, 9.9991455, 10.000245 
1.2350158e+3, 1.949828e+2, -1038083.5, -1002201.4, 40375.016, -0.06524955, -0.09808372, -975960.75, 53201.152, 0.0, 9.999799, 10.000275 
1.23502076e+3, 2.0498276e+2, -841772.5, -778882.7, 92482.79, -0.08118973, -0.16363518, -712645.2, 218514.4, 0.0, 10.000136, 10.000974 
1.2350256e+3, 2.1498309e+2, -739746.0, -673914.4, 118234.125, -0.15118064, -0.23520155, -584099.75, 249050.56, 0.0, 10.000145, 10.001018 
1.2350311e+3, 2.249836e+2, -743626.25, -871385.0, 126684.086, -0.17504165, -0.17701124, -665627.4, 69518.945, 0.0, 10.000507, 9.998814 
1.2350372e+3, 2.3498417e+2, -537700.6, -718633.5, 106017.43, -0.15278281, -0.006273629, -488797.5, 148350.73, 0.0, 10.001236, 9.998839 
1.2350437e+3, 2.4498361e+2, -381017.38, -537637.1, 115732.586, -0.093584806, 0.030411465, -319590.13, 219565.64, 0.0, 10.001404, 9.999329 
1.2350508e+3, 2.5498188e+2, -334622.25, -458606.4, 144678.05, 0.0031078015, -0.083190896, -239214.34, 201954.64, 0.0, 10.001024, 9.999379 
1.2350573e+3, 2.6498005e+2, -366628.66, -641248.4, 131999.02, 0.047405723, -0.108488806, -313471.38, 29715.635, 0.0, 10.001072, 9.99743 
1.2350631e+3, 2.7497798e+2, -199433.64, -507154.13, 86186.75, 0.035906065, -0.06051102, -176938.77, 68271.81, 0.0, 10.001535, 9.997454 
1.23506814e+3, 2.8497577e+2, -79238.695, -465885.3, 29474.271, -0.022639973, 0.00021007989, -77004.766, 70232.81, 0.0, 10.001976, 9.996853 
1.23507224e+3, 2.9497325e+2, 82459.18, -337277.72, 30631.207, -0.1272302, 0.060176414, 84682.77, 133951.16, 0.000000003511804, 10.002413, 9.996853 
1.2350758e+3, 3.0497056e+2, 209384.86, -48083.59, -6437.044, -0.24297115, 0.0139417285, 209545.7, 209545.7, 0.00000075914943, 10.002076, 9.998669 
1.23507924e+3, 3.149684e+2, 192173.19, 188744.03, 245.44449, -0.31817952, -0.0764543, 192190.67, 192190.67, 0.0000054695497, 10.000895, 10.000865 
1.2449784e+3, 1.2497331e+2, -1748742.3, -1592532.6, 396.0422, 0.03639639, -0.04543026, -1592531.6, 122725.375, 0.003475539, 9.999182, 10.001226 
1.24498464e+3, 1.3497432e+2, -1823052.5, -1590411.4, 124702.38, 0.026321549, -0.056366097, -1536200.0, 81045.625, 0.0019075654, 9.99803, 10.001141 
1.2449877e+3, 1.4497527e+2, -1775424.0, -1519855.8, 44346.168, -0.3288414, -0.07423093, -1512379.5, 6855.129, 0.0007030745, 9.997706, 10.001096 
1.2449934e+3, 1.5497597e+2, -1595213.8, -1379537.6, 19304.973, -0.19341715, -0.12105887, -1377823.3, 43403.27, 0.00011956255, 9.998262, 10.001116 
1.2449989e+3, 1.6497704e+2, -1525735.6, -1368738.4, 38926.633, -0.11313414, -0.09066374, -1359616.6, -36399.65, 0.0000023468863, 9.9983835, 10.00046 
1.24500394e+3, 1.7497861e+2, -1469549.8, -1287018.5, 35460.938, -0.096380755, 0.01214925, -1280371.5, -55165.926, 0.0, 9.99808, 10.000492 
1.2450095e+3, 1.8497938e+2, -1294039.6, -1082229.4, 75631.36, -0.06297351, 0.0109961, -1057996.1, 69201.29, 0.0, 9.99831, 10.001116 
1.2450156e+3, 1.9497935e+2, -1085928.4, -927129.7, 108751.12, -0.010011501, -0.11144094, -871877.4, 157315.75, 0.0, 9.999048, 10.001152 
1.245021e+3, 2.049794e+2, -924445.4, -862980.25, 111555.76, -0.05848752, -0.19235493, -778001.2, 153187.98, 0.0, 9.999762, 10.000576 
1.2450254e+3, 2.1497953e+2, -719888.56, -709522.5, 55711.08, -0.21017076, -0.24535303, -658753.9, 174431.92, 0.0, 10.000476, 10.000613 
1.2450313e+3, 2.2498016e+2, -688588.3, -828966.4, 53766.996, -0.23098946, -0.15911199, -670361.3, 64820.637, 0.0, 10.000814, 9.998959 
1.2450384e+3, 2.3498127e+2, -592517.56, -726664.5, 85168.46, -0.12090508, 0.04910424, -551182.0, 85996.164, 0.0, 10.000781, 9.999002 
1.24504544e+3, 2.4498078e+2, -443835.44, -562860.8, 86825.96, -0.042524237, 0.083900504, -398084.16, 141100.11, 0.0, 10.000951, 9.9993725 
1.24505185e+3, 2.5497872e+2, -291788.8, -433946.9, 62049.348, 0.003654003, -0.06845157, -268515.56, 172684.73, 0.0, 10.001302, 9.999415 
1.24505825e+3, 2.649767e+2, -277217.22, -614591.2, 86400.71, 0.011706581, -0.10307777, -256377.48, 86842.17, 0.0, 10.001757, 9.997282 
1.24506444e+3, 2.749747e+2, -92473.13, -472059.53, 119182.17, -0.020480761, -0.037327264, -58155.094, 187088.1, 0.0, 10.00234, 9.997308 
1.24506995e+3, 2.8497213e+2, 37325.426, -375172.0, 104899.94, -0.06663743, -0.016793394, 62469.297, 209741.2, 0.0, 10.002631, 9.997159 
1.2450747e+3, 2.94969e+2, 128250.805, -280118.97, 126143.086, -0.12624718, -0.05520992, 164073.3, 213379.42, 0.0000000009276459, 10.002579, 9.997164 
1.24507815e+3, 3.049667e+2, 212492.36, -142168.8, 40315.19, -0.2292974, -0.031812787, 217017.36, 217017.36, 0.00000059688716, 10.002513, 9.99781 
1.2450809e+3, 3.1496513e+2, 360123.03, 174032.88, -24335.627, -0.31393668, 0.020155726, 363252.84, 363252.84, 0.000004454158, 10.002463, 10.000008 
1.2549743e+3, 1.2496985e+2, -1795579.5, -1689210.3, -14930.297, -0.28418905, -0.060629856, -1687154.4, 28131.697, 0.0037739007, 9.999176, 10.0005665 
1.2549822e+3, 1.3496988e+2, -1861809.8, -1671967.8, 81036.02, -0.022063255, -0.11475054, -1642081.6, -24795.744, 0.0020822603, 9.998032, 10.00058 
1.2549855e+3, 1.4497069e+2, -1762489.0, -1492808.6, 62986.73, -0.31847847, -0.12833796, -1478822.8, 40454.523, 0.0007764397, 9.9977045, 10.001285 
1.2549917e+3, 1.5497215e+2, -1581126.0, -1349536.4, 40991.38, -0.1929553, -0.11523599, -1342495.0, 78766.3, 0.00013646827, 9.998258, 10.001326 
1.2549974e+3, 1.6497329e+2, -1537864.1, -1390147.4, 25211.582, -0.0930318, -0.08498598, -1385962.9, -62710.543, 0.0000030208696, 9.998367, 10.0003195 
1.2550026e+3, 1.7497408e+2, -1480415.0, -1308609.0, 24715.219, -0.038717575, -0.041745827, -1305124.3, -79874.195, 0.0, 9.9980755, 10.000347 
1.2550084e+3, 1.849751e+2, -1233339.6, -955435.9, 101673.945, 0.0012152741, -0.057562556, -922209.9, 205028.83, 0.0, 9.998305, 10.001989 
1.2550151e+3, 1.9497624e+2, -1026064.3, -800059.7, 136994.9, 0.035288494, -0.1500078, -735475.06, 293743.78, 0.0, 9.999036, 10.00203 
1.2550212e+3, 2.0497687e+2, -1027366.7, -1074178.8, 135746.84, -0.008649832, -0.14413804, -913022.75, 18189.045, 0.0, 9.99975, 9.999132 
1.2550266e+3, 2.1497698e+2, -822692.5, -921035.75, 83339.58, -0.13485442, -0.05337872, -775099.8, 58118.164, 0.0, 10.000467, 9.999166 
1.255033e+3, 2.2497682e+2, -629301.2, -704012.25, 50652.35, -0.13800712, -0.016414277, -603719.5, 131503.0, 0.0, 10.000805, 9.999821 
1.2550405e+3, 2.349764e+2, -532987.44, -601082.44, 85113.73, -0.015453698, -0.05109404, -475363.9, 161861.73, 0.0, 10.00077, 9.99987 
1.2550469e+3, 2.4497582e+2, -488801.97, -652022.4, 98704.234, 0.0057613086, -0.040705595, -442338.94, 96892.59, 0.0, 10.000933, 9.998769 
1.2550524e+3, 2.5497502e+2, -335660.34, -523812.94, 77189.44, -0.07613011, -0.0019237973, -308046.22, 133194.61, 0.0, 10.001297, 9.9988 
1.255058e+3, 2.6497352e+2, -214673.52, -484561.88, 108037.555, -0.18089317, -0.0025941937, -176753.45, 166502.56, 0.0, 10.001755, 9.998178 
1.255064e+3, 2.749712e+2, -30996.848, -341370.7, 143299.36, -0.30899426, -0.057413194, 25045.23, 270322.63, 0.0, 10.002326, 9.998213 
1.2550703e+3, 2.8496882e+2, 78399.984, -286071.94, 103078.88, -0.30206472, -0.09630455, 105532.6, 252832.47, 0.0, 10.002613, 9.99778 
1.255077e+3, 2.9496628e+2, 170767.11, -190576.36, 125863.07, -0.15823603, -0.13258813, 210285.72, 259609.47, 0.00000000016394879, 10.002573, 9.997782 
1.2550816e+3, 3.0496427e+2, 87383.086, -401726.78, 37531.605, -0.1448849, -0.024228323, 90246.29, 90246.29, 0.00000040070844, 10.00251, 9.99603 
1.2550846e+3, 3.1496152e+2, 225943.72, -97146.41, -17978.59, -0.19889632, 0.089458734, 226941.06, 226941.06, 0.0000034582288, 10.002429, 9.998161 
1.2649728e+3, 1.24965385e+2, -1933086.6, -1740548.8, -72444.69, -0.30087388, -0.08556554, -1716335.5, -1007.1273, 0.004085261, 9.998172, 10.000695 
1.2649801e+3, 1.3496584e+2, -1917519.6, -1674003.8, 38418.23, -0.007994372, -0.11902931, -1668086.5, -50762.5, 0.0022650692, 9.997547, 10.000796 
1.264983e+3, 1.4496683e+2, -1831346.1, -1510984.1, 95475.79, -0.31682494, -0.13244076, -1484688.4, 34625.242, 0.00085386867, 9.997173, 10.001412 
1.26499e+3, 1.5496843e+2, -1728027.6, -1406565.0, 66098.65, -0.14317371, -0.11782757, -1393504.5, 27791.904, 0.00015477135, 9.997194, 10.001445 
1.264996e+3, 1.6496947e+2, -1617559.3, -1401152.3, 65816.81, -0.042565554, -0.11330684, -1382707.1, -59419.62, 0.0000038088367, 9.997702, 10.000565 
1.265001e+3, 1.7497e+2, -1376299.8, -1230462.0, 92010.51, -0.042417724, -0.1230496, -1185979.4, 39307.043, 0.0, 9.99867, 10.000597 
1.265007e+3, 1.8497111e+2, -1130930.0, -951017.06, 141293.47, -0.02904431, -0.1216988, -873474.25, 253800.75, 0.0, 9.999203, 10.001587 
1.2650141e+3, 1.9497272e+2, -1014889.75, -839968.06, 76759.7, 0.006015607, -0.12750567, -811061.1, 218192.52, 0.0, 9.999307, 10.001626 
1.2650208e+3, 2.0497349e+2, -1054218.3, -1086419.6, 89852.61, -0.005470648, -0.08633325, -979035.2, -47788.38, 0.0, 9.999564, 9.999138 
1.2650275e+3, 2.1497345e+2, -894620.6, -954874.5, 143221.27, -0.06840311, -0.012343479, -778391.94, 54862.64, 0.0, 9.99997, 9.999172 
1.2650342e+3, 2.24973e+2, -677624.8, -689250.4, 131353.38, -0.06945508, -0.022993317, -551955.7, 183304.56, 0.0, 10.000312, 10.000158 
1.2650411e+3, 2.3497213e+2, -535613.9, -565012.06, 122537.42, -0.007692742, -0.13273264, -426897.1, 210366.63, 0.0, 10.000593, 10.000202 
1.2650475e+3, 2.4497142e+2, -485532.13, -692960.4, 144896.1, -0.027954482, -0.13300419, -411056.75, 128213.64, 0.0, 10.001138, 9.998389 
1.2650535e+3, 2.549708e+2, -266620.38, -532949.94, 137147.7, -0.13278623, -0.04319182, -208624.61, 232656.5, 0.0, 10.001951, 9.998423 
1.2650596e+3, 2.6496953e+2, -93449.86, -397511.66, 146716.03, -0.24049582, -0.0103992205, -34201.348, 309093.63, 0.0, 10.002465, 9.998433 
1.265066e+3, 2.7496764e+2, 34312.03, -280575.0, 130956.625, -0.35156888, -0.048733506, 81656.45, 326968.7, 0.0, 10.002649, 9.998473 
1.2650727e+3, 2.849656e+2, 91499.11, -269316.4, 32857.918, -0.32741472, -0.07051961, 94466.93, 241797.75, 0.0, 10.002658, 9.997871 
1.2650795e+3, 2.949634e+2, 170438.52, -181161.95, 13191.186, -0.16835226, -0.08575467, 170932.72, 220283.6, 0.0, 10.002528, 9.997868 
1.2650844e+3, 3.0496123e+2, 90869.805, -438533.03, -30595.598, -0.110413626, 0.025505545, 92632.14, 92632.14, 0.00000027923474, 10.002701, 9.995684 
1.2650885e+3, 3.14957e+2, 291957.8, -118889.11, 14527.75, -0.08329376, 0.024515964, 292470.88, 292470.88, 0.0000033123556, 10.003116, 9.997679 
1.2749739e+3, 1.2496009e+2, -1871920.5, -1613654.6, -60331.78, -0.028860437, -0.11577853, -1600256.1, 115126.445, 0.0044096503, 9.998165, 10.001575 
1.2749784e+3, 1.349623e+2, -1848294.5, -1531764.0, 13623.148, 0.06299096, -0.06690541, -1531178.8, 86180.17, 0.0024558255, 9.99755, 10.001773 
1.27498e+3, 1.4496379e+2, -1826467.8, -1501957.3, 92547.66, -0.33400095, -0.085449085, -1477418.9, 41923.98, 0.00093550276, 9.997174, 10.001475 
1.274988e+3, 1.5496483e+2, -1725852.5, -1401876.3, 67973.31, -0.055833478, -0.1308897, -1388192.8, 33138.496, 0.00017466526, 9.997191, 10.001478 
1.2749943e+3, 1.6496567e+2, -1574830.1, -1310926.0, 101028.516, 0.028110806, -0.17868508, -1276691.1, 46630.973, 0.0000047674703, 9.997694, 10.001189 
1.274999e+3, 1.7496638e+2, -1332113.1, -1137988.0, 129011.164, -0.114752136, -0.23452541, -1073604.0, 151710.66, 0.0, 9.998664, 10.001236 
1.2750047e+3, 1.8496747e+2, -1250726.4, -1196318.4, 143002.81, -0.16352247, -0.18389127, -1077955.0, 49351.0, 0.0, 9.999188, 9.999909 
1.2750122e+3, 1.9496888e+2, -1134931.9, -1086288.4, 81613.35, -0.10783044, -0.040409617, -1025449.75, 3847.0056, 0.0, 9.999296, 9.99994 
1.27502e+3, 2.0496938e+2, -954133.1, -878512.5, 103017.914, -0.059321027, -0.013331256, -806585.3, 124707.73, 0.0, 9.999561, 10.0005665 
1.275028e+3, 2.1496896e+2, -794628.1, -746021.6, 158915.34, -0.01827757, -0.11957929, -609561.94, 223733.3, 0.0, 9.999963, 10.00061 
1.2750348e+3, 2.2496869e+2, -692967.6, -717184.0, 139419.38, -0.034278546, -0.17522058, -565131.6, 170163.19, 0.0, 10.000296, 9.999975 
1.2750408e+3, 2.3496854e+2, -549431.4, -592365.6, 134011.58, -0.10586116, -0.19508108, -435178.4, 202113.7, 0.0, 10.000587, 10.000017 
1.2750474e+3, 2.4496765e+2, -497884.88, -717918.06, 173722.98, -0.15316868, -0.19519937, -402272.38, 137028.38, 0.0, 10.001133, 9.99822 
1.2750551e+3, 2.54966e+2, -280385.56, -558390.2, 168927.14, -0.17581765, -0.19000295, -200623.11, 240697.88, 0.0, 10.001936, 9.998257 
1.2750627e+3, 2.6496482e+2, -122583.75, -453032.06, 153560.89, -0.18030253, -0.12299974, -62242.01, 281094.38, 0.0, 10.002442, 9.998063 
1.2750706e+3, 2.749641e+2, 6792.652, -334584.9, 140471.73, -0.16591159, -0.011057429, 57162.617, 302510.1, 0.0, 10.002636, 9.998109 
1.275077e+3, 2.8496253e+2, 60717.082, -333913.47, 27021.81, -0.16151212, 0.0585239, 62558.77, 209923.33, 0.0, 10.002658, 9.997429 
1.2750821e+3, 2.9496023e+2, 139529.02, -245386.92, 11542.06, -0.16805112, 0.07795807, 139874.8, 189262.33, 0.000000000103272384, 10.002525, 9.99743 
1.275087e+3, 3.0495763e+2, 161040.77, -292330.66, -12801.534, -0.13558473, 0.11488386, 161401.95, 161401.95, 0.0000005231572, 10.002699, 9.996689 
1.2750925e+3, 3.1495172e+2, 346750.38, -4015.1797, 39734.813, 0.0068484573, -0.15532108, 351195.22, 351195.22, 0.0000054422553, 10.003109, 9.998472 
1.2849717e+3, 1.2495556e+2, -2182199.5, -1730216.4, 46433.586, 0.052812025, -0.15505677, -1725495.5, -10069.798, 0.0047468157, 9.9959, 10.001864 
1.2849756e+3, 1.3495836e+2, -2004982.5, -1565634.0, 31119.088, 0.09220519, -0.08329319, -1563440.9, 53955.22, 0.0026545508, 9.996301, 10.002142 
1.2849769e+3, 1.4495993e+2, -1891701.9, -1530366.0, 102026.914, -0.33618343, -0.11258873, -1503548.0, 15831.247, 0.0010215283, 9.9967165, 10.0015 
1.2849854e+3, 1.5496103e+2, -1710864.0, -1393358.4, 73478.32, -0.04922666, -0.15519719, -1377178.3, 44189.58, 0.00019628371, 9.997288, 10.001492 
1.2849924e+3, 1.6496204e+2, -1556203.4, -1305515.4, 101549.49, 0.053113576, -0.18583994, -1269541.6, 53815.59, 0.0000059623408, 9.997838, 10.001157 
1.2849978e+3, 1.7496304e+2, -1377440.5, -1163190.8, 76690.805, -0.0706876, -0.20809668, -1138568.9, 86777.555, 0.0, 9.998371, 10.001203 
1.2850043e+3, 1.849639e+2, -1311813.6, -1263055.9, 102640.58, -0.124740385, -0.16153027, -1181938.6, -54598.234, 0.0, 9.998931, 9.999575 
1.2850118e+3, 1.9496454e+2, -1127308.6, -1119917.1, 140589.6, -0.09651107, -0.06183167, -982974.7, 46365.402, 0.0, 9.999509, 9.999606 
1.2850197e+3, 2.0496488e+2, -874952.94, -810332.25, 173553.64, -0.066910245, -0.048878122, -666106.94, 265230.6, 0.0, 9.999977, 10.000834 
1.285028e+3, 2.149649e+2, -719523.9, -678574.2, 139099.81, -0.03983027, -0.13907954, -558450.4, 274882.56, 0.0, 10.000346, 10.000888 
1.2850352e+3, 2.2496474e+2, -660224.5, -758102.0, 66294.16, -0.061272457, -0.17140825, -626762.3, 108569.22, 0.0, 10.000764, 9.999469 
1.2850414e+3, 2.3496437e+2, -492463.6, -621480.3, 33652.547, -0.1301566, -0.16244046, -484213.3, 153120.34, 0.0, 10.001221, 9.999514 
1.2850486e+3, 2.4496329e+2, -455894.38, -668286.9, 74356.266, -0.16329761, -0.16909859, -432450.75, 106893.27, 0.0, 10.001293, 9.998486 
1.2850566e+3, 2.549615e+2, -399361.0, -584368.9, 99305.2, -0.16171773, -0.20467958, -356150.16, 85212.54, 0.0, 10.000985, 9.998535 
1.2850648e+3, 2.6496017e+2, -342199.34, -583518.8, 110449.33, -0.13944528, -0.15542457, -299280.88, 44097.94, 0.0, 10.0010395, 9.997842 
1.2850733e+3, 2.7495924e+2, -179093.95, -449849.03, 105149.2, -0.096614644, -0.039518844, -143055.52, 102337.74, 0.0, 10.001467, 9.997881 
1.28508e+3, 2.849575e+2, 34887.063, -345711.44, 31003.047, -0.11818148, 0.020518713, 37395.992, 184808.98, 0.0, 10.002479, 9.997435 
1.285085e+3, 2.9495496e+2, 364246.56, -135201.56, 43392.797, -0.20341183, 0.016690148, 367988.56, 417426.25, 0.000000011143268, 10.004063, 9.997444 
1.2850901e+3, 3.0495277e+2, 478932.1, -92159.75, -7312.4854, -0.1827577, 0.07151128, 479025.72, 479025.72, 0.0000014677225, 10.004683, 9.9971075 
1.2850964e+3, 3.1494734e+2, 537298.1, 104778.7, -1075.4888, 0.0153907845, -0.19221252, 537300.75, 537300.75, 0.000010422355, 10.004349, 9.998623 
1.2949663e+3, 1.2495194e+2, -2205181.8, -1779167.3, 95842.07, -0.078578144, -0.20049007, -1758598.4, -43141.95, 0.0050962004, 9.995901, 10.001532 
1.2949717e+3, 1.3495408e+2, -2023518.3, -1600827.0, 44409.1, 0.07111658, -0.1699786, -1596211.6, 21222.842, 0.0028611089, 9.996287, 10.001906 
1.2949736e+3, 1.4495532e+2, -1896343.8, -1537362.5, 120170.72, -0.33296737, -0.21694523, -1500848.8, 18573.324, 0.00111182, 9.996702, 10.00146 
1.2949818e+3, 1.5495709e+2, -1712462.4, -1395620.6, 95961.23, -0.13200572, -0.18967105, -1368823.5, 52581.895, 0.000219555, 9.997283, 10.001479 
1.29499e+3, 1.6495866e+2, -1605371.4, -1406817.8, 119812.516, 0.020750573, -0.13166101, -1350496.0, -27104.03, 0.0000074533, 9.997833, 10.000464 
1.2949976e+3, 1.7496006e+2, -1427441.3, -1266774.3, 97078.92, 0.079489134, -0.04178529, -1221100.6, 4280.325, 0.0, 9.998369, 10.000493 
1.2950052e+3, 1.8496047e+2, -1242284.6, -1117369.6, 122326.7, 0.07770372, -0.054634508, -1042478.1, 84899.64, 0.0, 9.998923, 10.00058 
1.2950125e+3, 1.9495974e+2, -1057783.1, -973235.3, 162587.95, 0.032557633, -0.19138227, -847515.4, 181867.84, 0.0, 9.999497, 10.00062 
1.2950198e+3, 2.0496e+2, -938179.25, -939065.75, 185132.52, -0.038102318, -0.19399656, -753489.44, 177890.48, 0.0, 9.999967, 9.999956 
1.2950273e+3, 2.1496125e+2, -782869.3, -808235.7, 153261.45, -0.1401532, -0.07432375, -641767.1, 191600.56, 0.0, 10.000338, 10.000003 
1.2950349e+3, 2.2496113e+2, -719905.56, -879502.2, 81576.58, -0.15936385, -0.016077157, -685587.7, 49782.504, 0.0, 10.000752, 9.998641 
1.295043e+3, 2.3495965e+2, -552604.0, -743814.9, 52075.754, -0.09048619, -0.036403794, -539341.25, 98046.586, 0.0, 10.001208, 9.99868 
1.2950508e+3, 2.4495837e+2, -409190.25, -568796.3, 61541.555, -0.07019685, -0.054797556, -388216.88, 151182.8, 0.0, 10.001283, 9.999174 
1.2950583e+3, 2.549573e+2, -350391.97, -482619.84, 89378.1, -0.10080881, -0.08950672, -305332.63, 136073.33, 0.0, 10.000985, 9.999234 
1.295066e+3, 2.6495558e+2, -346768.9, -596215.4, 125473.24, -0.12639342, -0.10977844, -294575.72, 48846.563, 0.0, 10.001051, 9.99775 
1.2950742e+3, 2.749532e+2, -185504.11, -462796.6, 123214.67, -0.1488264, -0.13129528, -138665.48, 106783.734, 0.0, 10.001464, 9.997794 
1.2950817e+3, 2.8495052e+2, 62551.355, -285722.5, 91019.39, -0.20221946, -0.17808615, 84904.125, 232379.63, 0.0, 10.002466, 9.997854 
1.2950881e+3, 2.9494765e+2, 391070.78, -74632.25, 106373.13, -0.28640258, -0.2586766, 414217.47, 463718.3, 0.00000006115144, 10.004042, 9.997872 
1.295094e+3, 3.0494666e+2, 467353.88, -114003.55, -20458.203, -0.26626033, -0.09710169, 468072.94, 468072.94, 0.0000030777703, 10.004671, 9.9969635 
1.2950999e+3, 3.1494385e+2, 501686.16, 32903.188, -5976.778, -0.07571748, -0.08525769, 501762.34, 501762.34, 0.000017986333, 10.004336, 9.998136 
1.3049616e+3, 1.2494786e+2, -2109570.8, -1718142.4, 59850.777, -0.17622899, -0.18862209, -1709195.5, 6300.17, 0.0054552136, 9.996493, 10.001661 
1.3049681e+3, 1.3495013e+2, -2057060.4, -1604990.5, -7959.0615, 0.10207983, -0.15690573, -1604850.4, 12622.475, 0.003073975, 9.996002, 10.002016 
1.304971e+3, 1.449511e+2, -1987301.4, -1605866.8, 111592.766, -0.24819362, -0.22528993, -1575617.9, -56154.01, 0.0012055306, 9.996188, 10.001236 
1.304979e+3, 1.5495299e+2, -1731618.0, -1430387.8, 70647.36, -0.13874033, -0.16346636, -1414641.9, 6805.1655, 0.000244213, 9.997265, 10.001246 
1.3049875e+3, 1.6495438e+2, -1620166.6, -1434318.4, 86144.664, -0.006862403, -0.10022043, -1400531.0, -77095.57, 0.000009295233, 9.997824, 10.000278 
1.3049962e+3, 1.749554e+2, -1515788.0, -1330246.9, 100428.34, 0.10068893, -0.032433745, -1286297.9, -60870.035, 0.0, 9.997854, 10.000305 
1.3050042e+3, 1.8495569e+2, -1329052.3, -1145445.9, 129889.04, 0.1140773, -0.052112013, -1078192.5, 49232.082, 0.0, 9.99827, 10.000701 
1.305012e+3, 1.9495519e+2, -1112103.8, -984316.94, 100121.27, 0.04679318, -0.18022414, -929439.0, 99987.336, 0.0, 9.999063, 10.000751 
1.3050197e+3, 2.0495519e+2, -1026029.44, -1048932.3, 90788.8, -0.033730317, -0.18431388, -945972.7, -14547.063, 0.0, 9.999655, 9.9993515 
1.3050276e+3, 2.149557e+2, -869324.6, -917820.8, 76977.23, -0.13252836, -0.07583385, -812866.7, 20555.59, 0.0, 10.000036, 9.999394 
1.3050357e+3, 2.2495519e+2, -759335.1, -905497.4, 51543.176, -0.14860934, -0.025428124, -742987.25, -7557.675, 0.0, 10.000511, 9.998579 
1.3050443e+3, 2.3495358e+2, -573790.4, -759372.25, 76179.734, -0.078741625, -0.05089309, -546525.0, 90922.86, 0.0, 10.001088, 9.99863 
1.3050522e+3, 2.4495238e+2, -331335.53, -525604.44, 83992.77, -0.07289292, -0.06295459, -300057.03, 239401.75, 0.0, 10.001793, 9.999225 
1.3050596e+3, 2.5495154e+2, -109560.195, -362012.6, 60607.953, -0.1329015, -0.078334294, -95763.62, 345698.94, 0.0, 10.002617, 9.999278 
1.3050677e+3, 2.6494992e+2, -34018.574, -418679.0, 86067.05, -0.17651017, -0.101413734, -15639.397, 327837.22, 0.0, 10.003085, 9.99799 
1.305076e+3, 2.7494752e+2, 84410.22, -306278.56, 104723.29, -0.20458426, -0.15004152, 110710.586, 356212.16, 0.0, 10.003202, 9.998032 
1.3050842e+3, 2.849447e+2, 185249.9, -194175.8, 98979.75, -0.22376123, -0.23804556, 209518.25, 357045.6, 0.0, 10.003168, 9.998145 
1.3050921e+3, 2.949416e+2, 260984.23, -104654.11, 101186.88, -0.2360634, -0.37275234, 287118.72, 336672.2, 0.00000014681919, 10.003005, 9.998167 
1.3050988e+3, 3.049407e+2, 344304.94, -205509.77, -25501.652, -0.21238197, -0.20020464, 345485.22, 345485.22, 0.0000052303885, 10.003963, 9.996678 
1.3051048e+3, 3.1493852e+2, 708669.56, 65884.68, -23166.979, -0.09129801, -0.09627299, 709503.44, 709503.44, 0.000027286578, 10.006047, 9.9975395 
1.3149573e+3, 1.24943405e+2, -2072642.3, -1639647.6, 70995.82, -0.25856498, -0.1248859, -1628304.0, 87238.66, 0.005819013, 9.99648, 10.002212 
1.314965e+3, 1.3494664e+2, -2025496.8, -1539153.0, -28344.738, 0.1770291, -0.039248656, -1537506.6, 80003.42, 0.0032902497, 9.996001, 10.002469 
1.3149686e+3, 1.4494742e+2, -2015578.0, -1666885.8, 147734.98, -0.09460229, -0.13203573, -1612710.1, -93206.87, 0.0013013786, 9.996196, 10.000815 
1.314977e+3, 1.5494877e+2, -1764521.0, -1497239.6, 111817.18, -0.07886123, -0.07760254, -1456630.8, -35138.285, 0.00026992275, 9.997258, 10.000792 
1.314985e+3, 1.649493e+2, -1599342.0, -1389498.9, 85311.375, -0.038965143, -0.09327566, -1359192.6, -35705.47, 0.00001153221, 9.997814, 10.000591 
1.3149928e+3, 1.7494908e+2, -1492440.8, -1281706.9, 101767.65, -0.015285925, -0.18120596, -1240585.5, -15098.942, 0.0, 9.997853, 10.00064 
1.3150011e+3, 1.8494964e+2, -1383750.8, -1257026.8, 158251.63, -0.027352849, -0.15436488, -1149923.8, -22443.53, 0.0, 9.9982605, 9.999941 
1.3150099e+3, 1.949509e+2, -1167082.8, -1097188.8, 130546.93, -0.06299876, -0.02877929, -996992.2, 32476.703, 0.0, 9.999056, 9.999981 
1.3150191e+3, 2.0495048e+2, -1050540.1, -1097680.9, 102905.27, -0.0626436, -0.019349663, -968540.4, -37066.32, 0.0, 9.999645, 9.999021 
1.3150287e+3, 2.1494836e+2, -894649.9, -967866.06, 92106.95, -0.027238108, -0.14143701, -832142.7, 1353.3641, 0.0, 10.000024, 9.999058 
1.3150373e+3, 2.2494695e+2, -712962.3, -806251.9, 71059.664, -0.041220732, -0.19703302, -674605.9, 60903.277, 0.0, 10.000497, 9.999268 
1.3150452e+3, 2.3494622e+2, -526087.25, -659115.2, 98642.125, -0.1037734, -0.20438857, -473629.03, 163884.58, 0.0, 10.001082, 9.999322 
1.315053e+3, 2.4494535e+2, -373089.72, -610152.8, 113008.83, -0.17853764, -0.19041556, -327850.9, 211670.31, 0.0, 10.001783, 9.99865 
1.315061e+3, 2.549443e+2, -152564.31, -447578.44, 93073.54, -0.2655698, -0.16712172, -125655.16, 315876.75, 0.0, 10.0026, 9.9987 
1.3150695e+3, 2.6494327e+2, 743.74805, -342183.63, 89813.96, -0.29799756, -0.12940918, 22842.307, 366383.7, 0.0, 10.003065, 9.998526 
1.3150784e+3, 2.749422e+2, 119281.17, -229094.73, 111133.7, -0.27599505, -0.09685494, 151713.98, 397264.38, 0.0, 10.003182, 9.998572 
1.3150877e+3, 2.8494e+2, 195329.14, -171276.14, 90867.77, -0.199697, -0.16210657, 216615.88, 364184.63, 0.00000000000058726515, 10.003158, 9.998308 
1.3150969e+3, 2.949367e+2, 270603.13, -82071.74, 95806.07, -0.06777952, -0.33195126, 294948.75, 344544.78, 0.00000026009675, 10.002993, 9.998328 
1.3151047e+3, 3.0493486e+2, 313828.97, -267534.22, 51736.836, -0.033563364, -0.24254216, 318397.25, 318397.25, 0.000007634571, 10.003957, 9.996257 
1.3151114e+3, 3.1493145e+2, 652946.8, -41470.33, 62634.08, -0.059411753, -0.21499069, 658550.94, 658550.94, 0.00003632656, 10.006012, 9.9968195 
1.3249528e+3, 1.24937505e+2, -2466473.0, -1848985.8, 73539.555, -0.2121162, -0.13456665, -1840348.4, -124747.31, 0.006183249, 9.993866, 10.002034 
1.3249609e+3, 1.3494104e+2, -2108992.3, -1615810.0, -117725.94, 0.18209971, 0.015195471, -1589149.3, 28418.44, 0.0035072896, 9.995592, 10.002136 
1.3249655e+3, 1.4494154e+2, -1951708.1, -1632487.4, 53802.32, -0.054267902, -0.08948912, -1623663.4, -104099.24, 0.0013982238, 9.996621, 10.000844 
1.3249743e+3, 1.5494286e+2, -1780263.3, -1503648.9, 53251.574, -0.053657334, -0.041611277, -1493751.5, -72198.69, 0.00029637254, 9.997144, 10.000803 
1.324983e+3, 1.6494325e+2, -1547846.9, -1346904.8, 38404.91, -0.040350564, -0.077582486, -1339814.8, -16267.63, 0.000014169166, 9.998092, 10.00075 
1.324991e+3, 1.7494284e+2, -1247941.9, -1146007.5, 38602.965, -0.057013985, -0.20065957, -1133038.4, 92507.68, 0.0, 9.9994545, 10.000798 
1.3249996e+3, 1.8494302e+2, -1166330.4, -1215496.4, 82147.9, -0.07982761, -0.19110027, -1105166.0, 22377.191, 0.0, 10.000028, 9.9993725 
1.325009e+3, 1.9494373e+2, -1096856.4, -1127786.0, 66794.88, -0.09898, -0.06363331, -1043759.44, -14220.285, 0.0, 9.999816, 9.999404 
1.3250189e+3, 2.0494327e+2, -1006964.2, -1052599.9, 70132.94, -0.06524252, -0.04044589, -956030.5, -24485.379, 0.0, 9.999839, 9.999239 
1.3250291e+3, 2.1494164e+2, -870057.2, -929658.5, 97886.66, 0.02001171, -0.13544655, -797535.44, 36025.684, 0.0, 10.000082, 9.999292 
1.3250385e+3, 2.2494024e+2, -686211.7, -798658.2, 91630.48, 0.009895324, -0.19831431, -634930.56, 100642.414, 0.0, 10.000708, 9.999217 
1.3250466e+3, 2.3493905e+2, -437508.47, -622688.94, 60613.895, -0.09580891, -0.24719132, -419432.56, 218148.5, 0.0, 10.0017185, 9.999266 
1.3250549e+3, 2.4493788e+2, -349368.7, -653020.94, 36534.348, -0.18390258, -0.23452915, -345034.84, 194557.45, 0.0, 10.00218, 9.998163 
1.3250634e+3, 2.5493672e+2, -262008.06, -554298.2, 18733.596, -0.25519678, -0.17300779, -260812.28, 180794.39, 0.0, 10.002083, 9.998215 
1.3250723e+3, 2.6493567e+2, -124980.805, -389156.84, -1472.507, -0.26869094, -0.12146524, -124972.59, 218644.53, 0.0, 10.002144, 9.998646 
1.3250817e+3, 2.749346e+2, 8758.593, -268243.8, -13883.966, -0.22324058, -0.10042428, 9452.748, 255077.08, 0.0, 10.002364, 9.998697 
1.3250911e+3, 2.8493252e+2, 139580.08, -251030.08, -59666.58, -0.15789856, -0.13489778, 148491.0, 296132.72, 0.0, 10.003007, 9.997832 
1.3251005e+3, 2.9492944e+2, 396194.1, -73389.54, -105184.375, -0.07067113, -0.23233682, 418678.28, 468347.3, 0.0000004940354, 10.004081, 9.997863 
1.325109e+3, 3.0492684e+2, 486105.75, -146847.98, -105862.305, -0.041921534, -0.21217445, 503342.0, 503342.0, 0.000010349616, 10.004982, 9.996591 
1.3251173e+3, 3.149226e+2, 620565.44, -46160.35, -42217.008, -0.047000196, -0.3025345, 623228.0, 623228.0, 0.000044210166, 10.005741, 9.996919 
1.3349482e+3, 1.2493029e+2, -2532932.0, -1983359.5, 154563.97, -0.065694496, -0.21254408, -1942872.1, -227202.63, 0.0065457188, 9.993849, 10.0011215 
1.3349557e+3, 1.3493338e+2, -2191092.3, -1781643.1, -55471.742, 0.11132256, 0.0064101405, -1774261.0, -156615.64, 0.0037237175, 9.995575, 10.001005 
1.3349614e+3, 1.4493352e+2, -1918009.3, -1563086.5, 69130.36, -0.13541128, -0.10024442, -1550097.0, -30450.639, 0.0014951822, 9.996619, 10.001324 
1.3349713e+3, 1.5493529e+2, -1744707.8, -1430558.9, 73927.47, -0.074439436, -0.05556577, -1414031.3, 7596.3643, 0.00032323142, 9.997145, 10.001307 
1.3349812e+3, 1.6493635e+2, -1549966.1, -1349942.3, 88100.36, -0.027151166, -0.050416633, -1316672.4, 6942.0493, 0.000017128494, 9.998085, 10.000731 
1.3349907e+3, 1.7493677e+2, -1250678.8, -1150616.6, 90058.33, -0.03271968, -0.08897728, -1097625.3, 127980.445, 0.00000000003443261, 9.999449, 10.00077 
1.335e+3, 1.8493593e+2, -1193593.0, -1271961.1, 71951.43, -0.052772608, -0.16082402, -1150847.9, -23234.896, 0.0, 10.000025, 9.998987 
1.3350092e+3, 1.9493373e+2, -1123906.8, -1183726.0, 59026.406, -0.071662076, -0.2856413, -1087644.6, -58007.766, 0.0, 9.999812, 9.999023 
1.3350189e+3, 2.049336e+2, -955311.56, -942304.0, 77000.23, -0.0530397, -0.24856208, -871533.4, 60105.145, 0.0, 9.9998255, 10.000003 
1.335029e+3, 2.1493556e+2, -817532.6, -818935.7, 107034.25, 0.0010295737, -0.059918687, -711197.6, 122419.76, 0.0, 10.0000725, 10.000058 
1.335039e+3, 2.2493508e+2, -741162.44, -911073.8, 127588.98, -0.0035676411, -0.03150016, -672832.75, 62788.207, 0.0, 10.000699, 9.99845 
1.3350485e+3, 2.349321e+2, -493815.53, -736979.8, 100160.664, -0.06448731, -0.18197763, -457871.88, 179777.97, 0.0, 10.001705, 9.998488 
1.3350579e+3, 2.4493003e+2, -382772.47, -717305.56, 31376.74, -0.10241449, -0.19914563, -379855.0, 159816.75, 0.0, 10.002158, 9.997732 
1.3350669e+3, 2.5492886e+2, -293262.8, -617414.9, 16396.805, -0.116566025, -0.09706596, -292435.53, 149251.2, 0.0, 10.002074, 9.997785 
1.3350762e+3, 2.6492712e+2, -143911.66, -429438.4, 6349.743, -0.10262005, -0.07698724, -143770.52, 199933.02, 0.0, 10.002146, 9.99837 
1.3350858e+3, 2.7492476e+2, -10633.772, -308540.34, -3137.9597, -0.06162464, -0.15887819, -10600.723, 235122.05, 0.0, 10.002362, 9.998423 
1.3350946e+3, 2.8492236e+2, 61150.168, -413287.1, -18955.283, -0.110367, -0.15515208, 61906.285, 209651.75, 0.0000000020467352, 10.003003, 9.99672 
1.3351028e+3, 2.9492003e+2, 318002.03, -234632.22, -60050.027, -0.24931896, -0.069943346, 324451.88, 374222.84, 0.0000011061777, 10.004075, 9.996758 
1.335112e+3, 3.0491683e+2, 560865.4, 7408.863, -75580.01, -0.2434194, -0.10373626, 571000.94, 571000.94, 0.000013435072, 10.004984, 9.997649 
1.3351227e+3, 3.14912e+2, 680565.75, 84211.41, -4879.072, -0.07860351, -0.36313885, 680605.6, 680605.6, 0.00005087756, 10.005715, 9.997827 
1.344943e+3, 1.2492265e+2, -2345005.5, -1844077.4, 87392.18, -0.013450097, -0.14327195, -1829268.6, -113522.21, 0.0069055543, 9.994932, 10.001552 
1.3449511e+3, 1.3492477e+2, -2100442.8, -1724141.4, -46911.824, 0.058680296, -0.033020657, -1718381.3, -100652.32, 0.0039389143, 9.996139, 10.001127 
1.344958e+3, 1.449245e+2, -1877587.9, -1527613.4, 75982.7, -0.14077403, -0.19367656, -1511828.8, 7903.515, 0.0015916337, 9.996832, 10.001463 
1.3449687e+3, 1.5492687e+2, -1735332.0, -1410649.5, 50721.64, -0.040088072, -0.10304263, -1402910.3, 18797.102, 0.0003501717, 9.997147, 10.00144 
1.3449796e+3, 1.6492824e+2, -1647827.5, -1436565.5, 61103.805, 0.01957257, -0.055450287, -1420165.4, -96473.055, 0.000020254476, 9.997584, 10.000379 
1.3449898e+3, 1.7492868e+2, -1462921.5, -1292295.8, 36418.59, -0.00023875847, -0.055838037, -1284847.6, -59160.984, 0.0000000014653116, 9.998163, 10.000416 
1.3449998e+3, 1.8492778e+2, -1367331.6, -1345654.1, -1705.006, -0.014354077, -0.1190284, -1345520.8, -217825.48, 0.0, 9.998789, 9.999078 
1.3450094e+3, 1.9492549e+2, -1170311.1, -1194520.6, 17936.6, -0.011309324, -0.26304525, -1160776.9, -131058.086, 0.0, 9.999447, 9.999125 
1.3450193e+3, 2.049251e+2, -909923.9, -937088.7, 35096.605, -0.013353074, -0.2486359, -885873.1, 45848.918, 0.0, 10.00021, 9.999852 
1.3450293e+3, 2.1492665e+2, -681945.2, -770211.56, -6195.5957, -0.024794897, -0.08765076, -681512.44, 152192.31, 0.0, 10.001076, 9.9999075 
1.3450396e+3, 2.2492634e+2, -649507.56, -884738.75, -1484.152, -0.04363996, -0.028718572, -649498.2, 86209.586, 0.0, 10.001406, 9.998291 
1.34505e+3, 2.349241e+2, -578931.2, -794248.44, 13306.812, -0.067722276, -0.088019505, -578111.94, 59619.66, 0.0, 10.001194, 9.99834 
1.34506e+3, 2.4492195e+2, -472426.22, -752201.06, -11058.224, -0.07808029, -0.108098, -471989.8, 67764.15, 0.0, 10.00151, 9.997804 
1.3450696e+3, 2.5491986e+2, -247318.9, -586526.4, 8591.906, -0.074534774, -0.10628593, -247101.42, 194673.78, 0.0, 10.002357, 9.99786 
1.3450794e+3, 2.649176e+2, -16864.49, -401069.97, 22378.563, -0.055686355, -0.12754886, -15565.413, 328230.75, 0.0, 10.003165, 9.998072 
1.3450894e+3, 2.749151e+2, 198776.3, -240326.36, 7844.448, -0.02314062, -0.19175503, 198916.39, 444733.8, 0.0, 10.003947, 9.998126 
1.3450986e+3, 2.849126e+2, 279480.56, -317709.22, 39690.01, -0.09285147, -0.17878215, 282106.88, 429948.28, 0.00000004304219, 10.004546, 9.996633 
1.3451071e+3, 2.949102e+2, 441479.8, -183584.48, 69153.9, -0.26758066, -0.092603534, 449039.22, 498906.7, 0.0000020171112, 10.004965, 9.996679 
1.345117e+3, 3.0490682e+2, 600611.6, -8744.199, 36605.14, -0.2751922, -0.1267165, 602802.7, 602802.7, 0.000015966103, 10.005411, 9.9973345 
1.3451281e+3, 3.1490302e+2, 674563.94, 44571.52, 1827.9235, -0.115520045, -0.24930814, 674569.25, 674569.25, 0.000054652144, 10.005834, 9.997499 
1.3549376e+3, 1.24914676e+2, -2221644.5, -1588469.4, 136012.44, -0.07293384, 0.074531205, -1560489.0, 155342.02, 0.0072628423, 9.994925, 10.00332 
1.3549466e+3, 1.349153e+2, -2001882.8, -1519860.1, -2452.6602, 0.014511372, -0.10225292, -1519847.8, 97969.664, 0.004152666, 9.996138, 10.002532 
1.3549553e+3, 1.4491458e+2, -1894017.1, -1563127.8, 84532.586, -0.08587567, -0.36948484, -1542783.0, -22962.137, 0.0016872559, 9.996836, 10.001219 
1.3549668e+3, 1.5491761e+2, -1754350.4, -1449359.5, 62744.55, 0.04062629, -0.18443264, -1436955.8, -15164.588, 0.0003769789, 9.997143, 10.001177 
1.3549778e+3, 1.6491896e+2, -1696845.3, -1537006.0, 80837.63, 0.09091624, -0.09348907, -1503251.3, -179470.67, 0.000023370363, 9.997578, 9.999694 
1.3549882e+3, 1.749186e+2, -1510965.3, -1391577.5, 58641.137, 0.03200059, -0.10397169, -1367592.5, -141803.94, 0.0000000068048798, 9.998159, 9.999739 
1.354999e+3, 1.8491867e+2, -1329808.5, -1265368.6, 21032.889, 0.020935567, -0.066190936, -1259111.3, -131321.38, 0.0, 9.998777, 9.999634 
1.3550097e+3, 1.9491906e+2, -1131873.4, -1113724.0, 42890.074, 0.07248404, 0.0035734894, -1078959.1, -49174.547, 0.0, 9.99944, 9.999682 
1.35502e+3, 2.0491786e+2, -983902.56, -1089532.8, 65402.484, 0.045272816, -0.040482163, -952652.7, -20857.44, 0.0, 10.000204, 9.99881 
1.3550301e+3, 2.1491498e+2, -757258.56, -924414.44, 26940.781, -0.066070914, -0.21670632, -753023.8, 80798.586, 0.0, 10.001064, 9.998856 
1.3550402e+3, 2.2491401e+2, -622485.25, -824830.4, -11769.795, -0.12014809, -0.18979545, -621802.94, 114029.945, 0.0, 10.001389, 9.99871 
1.3550508e+3, 2.3491502e+2, -550802.5, -732740.8, 6017.1177, -0.115204595, 0.032107376, -550603.7, 87222.53, 0.0, 10.00118, 9.998769 
1.3550611e+3, 2.4491365e+2, -433286.25, -667527.44, 18977.648, -0.120453596, 0.037626043, -431758.7, 108080.19, 0.0, 10.001494, 9.998393 
1.3550712e+3, 2.5490975e+2, -208659.73, -502664.94, 41837.54, -0.13517912, -0.1975243, -202822.08, 239049.69, 0.0, 10.00234, 9.998445 
1.3550816e+3, 2.6490706e+2, -43687.61, -452943.34, 51657.734, -0.13300934, -0.27369773, -37267.887, 306627.25, 0.0, 10.003148, 9.997725 
1.3550924e+3, 2.7490562e+2, 171527.02, -292407.6, 39680.586, -0.11429998, -0.19878241, 174896.44, 420805.0, 0.0, 10.003927, 9.997778 
1.355103e+3, 2.8490323e+2, 337910.88, -191115.84, 54600.504, -0.118081234, -0.20140298, 343487.38, 491417.38, 0.00000014645396, 10.004522, 9.997515 
1.3551132e+3, 2.9489988e+2, 497633.53, -58845.24, 86964.56, -0.1458902, -0.29745644, 510907.44, 560867.3, 0.0000030173492, 10.004928, 9.997556 
1.3551235e+3, 3.048966e+2, 479999.28, -250095.31, 52550.414, -0.1565426, -0.284134, 483762.34, 483762.34, 0.000017549772, 10.005372, 9.995695 
1.3551334e+3, 3.1489536e+2, 562920.1, -178276.55, 25708.057, -0.1771808, 0.015777245, 563810.7, 563810.7, 0.00005575596, 10.005794, 9.995989 
1.3649316e+3, 1.2490305e+2, -2297918.0, -1553837.1, 114108.945, -0.10727363, 0.016802106, -1536731.1, 179213.8, 0.0076198755, 9.994087, 10.003965 
1.3649425e+3, 1.3490506e+2, -2183481.3, -1572920.5, -116689.05, 0.046503313, -0.05410442, -1551379.3, 66538.53, 0.004366158, 9.994744, 10.002841 
1.3649526e+3, 1.4490476e+2, -2073734.1, -1651817.0, -67604.27, 0.012161487, -0.29089135, -1641249.4, -121332.65, 0.0017823466, 9.995613, 10.0012 
1.3649638e+3, 1.5490706e+2, -1799473.6, -1474850.0, -71869.29, 0.048251625, -0.17798914, -1459650.4, -37756.1, 0.0004035849, 9.996847, 10.001144 
1.3649753e+3, 1.6490802e+2, -1642490.6, -1519663.9, -18795.322, 0.06948839, -0.11852376, -1516852.1, -192964.22, 0.000026350568, 9.997989, 9.999616 
1.364987e+3, 1.7490771e+2, -1391734.4, -1342543.5, 1620.7059, 0.048768707, -0.11719739, -1342490.1, -116593.23, 0.000000016360648, 9.999014, 9.999662 
1.3649982e+3, 1.8490818e+2, -1157646.9, -1146620.9, -26691.125, 0.031307373, -0.04994117, -1124879.4, 3015.1775, 0.0, 9.999805, 9.999954 
1.3650091e+3, 1.9490938e+2, -974056.4, -1001336.94, -25237.725, 0.026150536, 0.06615959, -959008.7, 70872.24, 0.0, 10.000367, 10.000008 
1.3650201e+3, 2.0490824e+2, -954528.75, -1108906.8, 7552.933, 0.017085915, 0.02761758, -954160.06, -22268.729, 0.0, 10.000553, 9.9985075 
1.3650313e+3, 2.149047e+2, -883148.0, -1018076.9, 21962.557, 0.0014360597, -0.18388928, -879663.1, -45736.64, 0.0, 10.000348, 9.998555 
1.3650422e+3, 2.2490337e+2, -734891.94, -863148.4, -890.5703, -0.03253446, -0.18263227, -734885.75, 1054.8436, 0.0, 10.00055, 9.998848 
1.3650523e+3, 2.3490436e+2, -543916.2, -713709.9, -7611.3994, -0.08651653, 0.021291735, -543575.6, 94357.516, 0.0, 10.001161, 9.998907 
1.3650627e+3, 2.4490328e+2, -369777.84, -602463.25, 6693.178, -0.11546289, 0.033909664, -369585.47, 170356.56, 0.0, 10.001785, 9.998699 
1.3650739e+3, 2.549e+2, -172249.73, -449794.94, 5596.596, -0.11877523, -0.16983612, -172136.94, 269831.13, 0.0, 10.002441, 9.998757 
1.3650848e+3, 2.6489747e+2, -115607.19, -523408.22, -4362.7666, -0.117380366, -0.23299125, -115560.516, 228430.13, 0.0, 10.002812, 9.997399 
1.3650958e+3, 2.7489564e+2, -4820.2813, -414097.53, -18663.027, -0.11162046, -0.16046995, -3971.0103, 242038.33, 0.0, 10.002879, 9.997444 
1.365107e+3, 2.848932e+2, 134000.06, -258775.02, -29361.95, -0.09077431, -0.16254887, 136182.89, 284214.25, 0.00000033014226, 10.002995, 9.997783 
1.3651182e+3, 2.948901e+2, 259689.1, -141510.14, -44329.65, -0.052356683, -0.260828, 264528.8, 314586.28, 0.0000040395626, 10.003158, 9.997837 
1.365129e+3, 3.048867e+2, 275968.84, -362159.5, -14428.028, -0.07920955, -0.26931325, 276294.9, 276294.9, 0.000019024612, 10.00403, 9.995568 
1.3651387e+3, 3.1488603e+2, 549111.6, -170112.1, 61169.64, -0.22582549, 0.10262788, 554276.94, 554276.94, 0.00005704091, 10.005638, 9.996114 
1.3749254e+3, 1.24887735e+2, -2335528.5, -1631192.4, 131027.24, -0.14033403, -0.32962286, -1607607.3, 108481.2, 0.0079810945, 9.994083, 10.003434 
1.3749382e+3, 1.3489409e+2, -2243635.3, -1694041.6, -94364.81, 0.14759386, 0.11553657, -1678290.6, -60261.355, 0.0045821774, 9.994729, 10.002015 
1.3749495e+3, 1.448952e+2, -2060683.8, -1623233.1, -25213.473, 0.14526689, 0.050517555, -1621784.6, -101765.78, 0.0018779465, 9.9956045, 10.001401 
1.37496e+3, 1.5489523e+2, -1785465.0, -1444674.6, -24338.18, -0.02737904, -0.0836269, -1442945.3, -20928.994, 0.00043006244, 9.996842, 10.001355 
1.374972e+3, 1.6489549e+2, -1605697.8, -1443599.6, 17578.346, -0.060015947, -0.12971424, -1441715.4, -117701.484, 0.000029160963, 9.997987, 10.000139 
1.374986e+3, 1.7489606e+2, -1354115.9, -1265835.6, 40277.23, 0.040887002, -0.0940907, -1250221.3, -24210.254, 0.000000027808229, 9.999017, 10.00019 
1.374998e+3, 1.848964e+2, -1152022.6, -1133953.9, -7301.1826, 0.008335686, -0.0712924, -1131372.5, -3363.7373, 0.0, 9.9998, 10.000045 
1.3750076e+3, 1.9489646e+2, -969254.5, -989311.9, -3537.1348, -0.15882793, -0.076338634, -968649.0, 61358.22, 0.0, 10.000357, 10.000096 
1.3750194e+3, 2.0489626e+2, -927417.3, -1049221.5, -2224.2585, -0.10935323, -0.045663524, -927376.75, 4633.2183, 0.0, 10.000537, 9.998925 
1.3750334e+3, 2.148958e+2, -855338.56, -958096.4, 14580.133, 0.16595817, 0.008347045, -853309.8, -19292.926, 0.0, 10.000336, 9.998975 
1.375045e+3, 2.2489445e+2, -746030.8, -882074.06, 20024.885, 0.20778936, -0.008866541, -743144.5, -7113.8706, 0.0, 10.000532, 9.998729 
1.3750543e+3, 2.3489217e+2, -555157.5, -733869.8, 16437.303, 0.0067359237, -0.115527146, -553658.25, 84393.4, 0.0, 10.001147, 9.998776 
1.375065e+3, 2.4489088e+2, -371068.94, -601917.5, 29861.264, -0.07604713, -0.11727124, -367268.8, 172794.1, 0.0, 10.00177, 9.998711 
1.3750772e+3, 2.5489062e+2, -173856.05, -448117.3, 31442.523, -0.037033018, -0.025447205, -170297.52, 271766.47, 0.0, 10.0024185, 9.998779 
1.3750887e+3, 2.648887e+2, -139496.7, -570413.56, -2263.8704, -0.020568168, -0.0074211033, -139484.81, 204597.92, 0.0, 10.002799, 9.997085 
1.3750994e+3, 2.748851e+2, -28881.008, -462409.1, -13657.986, -0.031580728, -0.08122323, -28451.148, 217668.95, 0.00000000038705858, 10.00287, 9.997118 
1.3751106e+3, 2.848825e+2, 110114.28, -307172.13, -22588.857, -0.027333714, -0.07005482, 111333.516, 259479.47, 0.0000004946156, 10.002989, 9.997454 
1.3751219e+3, 2.9488087e+2, 238943.38, -186830.14, -34079.76, 0.0017720397, 0.013088081, 241653.92, 291813.84, 0.0000045274105, 10.003166, 9.997522 
1.3751332e+3, 3.048771e+2, 367874.16, -174887.78, 46002.066, -0.054966293, -0.080397576, 371745.47, 371745.47, 0.000019785135, 10.004043, 9.99685 
1.3751437e+3, 3.1487483e+2, 656696.0, 63124.86, 125866.82, -0.28949517, 0.00042184826, 682283.1, 682283.1, 0.00005748609, 10.005593, 9.997741 
1.3849206e+3, 1.2487532e+2, -2102163.0, -1613858.4, 166843.17, -0.12198559, -0.40709198, -1562296.4, 153907.78, 0.008351057, 9.996097, 10.002583 
1.384933e+3, 1.3488083e+2, -2061700.1, -1726481.0, -74825.95, 0.067721754, 0.060024716, -1710537.0, -92378.83, 0.004803759, 9.996496, 10.000937 
1.3849452e+3, 1.4488205e+2, -1858997.8, -1505762.6, -1965.3293, 0.09290059, 0.051813908, -1505751.6, 14397.673, 0.0019753822, 9.9969015, 10.001581 
1.3849568e+3, 1.5488246e+2, -1696102.9, -1379757.5, -5090.9844, -0.05086667, -0.06361774, -1379675.6, 42467.33, 0.00045665295, 9.99736, 10.001551 
1.3849698e+3, 1.6488302e+2, -1624758.0, -1388901.5, 29115.791, -0.06393572, -0.11942557, -1385360.4, -61223.74, 0.00003186285, 9.997582, 10.000709 
1.3849844e+3, 1.7488374e+2, -1520751.9, -1282093.5, 52446.29, 0.05055828, -0.124033906, -1271076.8, -44947.027, 0.000000039188958, 9.997599, 10.00076 
1.384997e+3, 1.8488418e+2, -1425919.0, -1265008.6, 8218.952, 0.038540963, -0.12010328, -1264589.9, -136463.64, 0.0, 9.997917, 10.0000515 
1.3850075e+3, 1.9488432e+2, -1231161.6, -1115106.9, 3463.5637, -0.10512528, -0.11908391, -1115003.6, -84877.33, 0.0, 9.998559, 10.000098 
1.3850197e+3, 2.0488454e+2, -1108871.6, -1113772.8, -17861.86, -0.06252266, -0.055345543, -1093293.0, -161166.89, 0.0, 9.999193, 9.999128 
1.3850336e+3, 2.1488488e+2, -915088.2, -964003.94, -20276.496, 0.17379001, 0.057903424, -907776.2, -73650.25, 0.0, 9.999826, 9.999178 
1.3850456e+3, 2.2488359e+2, -739798.8, -872764.75, 4244.1167, 0.21485332, 0.032738492, -739663.5, -3524.6895, 0.0, 10.000548, 9.998785 
1.3850561e+3, 2.348806e+2, -519693.06, -709948.9, 11765.137, 0.05311014, -0.15214862, -518968.28, 119197.11, 0.0, 10.001363, 9.9988365 
1.3850673e+3, 2.448793e+2, -415450.3, -658511.1, 2101.6304, -0.021491945, -0.14047748, -415432.16, 124745.445, 0.0, 10.001622, 9.998389 
1.3850792e+3, 2.548798e+2, -358718.4, -573333.8, -25054.684, -0.008635101, 0.061874278, -355832.28, 86342.34, 0.0, 10.00131, 9.99845 
1.3850911e+3, 2.6487806e+2, -257640.98, -597079.0, -26749.297, -0.008642192, 0.098706245, -255545.95, 88646.73, 0.0, 10.001863, 9.99735 
1.3851027e+3, 2.7487394e+2, 58315.285, -389431.3, 2636.2964, -0.02368269, -0.054825876, 58330.805, 304563.8, 0.0000000009363986, 10.003338, 9.997392 
1.3851142e+3, 2.848712e+2, 287925.8, -279049.4, 13.954063, -0.02432531, -0.044963777, 287925.8, 436186.2, 0.00000047108745, 10.004462, 9.996937 
1.3851261e+3, 2.9486987e+2, 498761.4, -119437.84, -32104.521, -0.0035574015, 0.12128336, 500424.22, 550698.3, 0.0000042460997, 10.005208, 9.997 
1.3851379e+3, 3.0486563e+2, 580211.7, -6117.112, 14024.456, -0.056245256, -0.020846693, 580546.94, 580546.94, 0.000019312854, 10.005222, 9.997438 
1.3851486e+3, 3.1486228e+2, 557562.5, 128096.164, 39607.055, -0.288104, -0.10863815, 561184.6, 561184.6, 0.00005540454, 10.004429, 9.998744 
1.3949174e+3, 1.24866016e+2, -2185289.8, -1784952.6, 169509.27, -0.07030526, -0.20677105, -1722822.0, -6532.0146, 0.008733579, 9.996095, 10.001402 
1.3949268e+3, 1.3486534e+2, -2155305.8, -1920720.8, -59798.383, -0.20507084, -0.22468492, -1906357.0, -288053.2, 0.005033633, 9.996499, 9.999603 
1.3949396e+3, 1.448653e+2, -1847455.6, -1485141.8, 12610.509, -0.16212174, -0.2965111, -1484703.4, 35604.59, 0.002076125, 9.996911, 10.001719 
1.3949543e+3, 1.5486881e+2, -1683587.4, -1354280.8, 12623.152, -0.03199118, -0.12033713, -1353797.6, 68476.21, 0.00048381835, 9.997361, 10.001727 
1.3949685e+3, 1.6487065e+2, -1582678.1, -1302058.3, 27348.21, 0.047949433, -0.08475841, -1299417.9, 24837.545, 0.000034571214, 9.997582, 10.001306 
1.3949822e+3, 1.7487083e+2, -1479530.5, -1194583.5, 53226.883, 0.067388125, -0.20627047, -1184965.5, 41287.01, 0.00000005013657, 9.997588, 10.001367 
1.3949957e+3, 1.8487161e+2, -1431956.4, -1276326.1, 29952.639, 0.10822745, -0.19519047, -1270760.5, -142513.94, 0.0, 9.99791, 9.999978 
1.395009e+3, 1.9487299e+2, -1237353.4, -1127406.0, 27685.277, 0.1769417, -0.061304513, -1120828.3, -90590.73, 0.0, 9.998555, 10.000016 
1.3950211e+3, 2.0487314e+2, -1110186.9, -1115473.8, 4216.3135, 0.14819996, -0.0013179595, -1107853.9, -175614.39, 0.0, 9.9991865, 9.999122 
1.3950318e+3, 2.14872e+2, -916039.06, -965812.56, 4231.865, 0.016186476, -0.032824915, -915681.8, -81428.8, 0.0, 9.999825, 9.999168 
1.3950439e+3, 2.2487082e+2, -725115.25, -840865.94, 32440.52, -0.021033797, -0.057704434, -716643.44, 19621.277, 0.0, 10.000541, 9.999008 
1.3950573e+3, 2.3486958e+2, -505551.88, -676485.5, 42918.836, 0.04273816, -0.09089092, -495380.8, 142893.56, 0.0, 10.001344, 9.999075 
1.3950695e+3, 2.4486853e+2, -462713.75, -754148.1, -10850.202, 0.038160067, -0.036636744, -462310.34, 77975.555, 0.0, 10.001608, 9.997742 
1.3950802e+3, 2.5486764e+2, -405622.8, -670583.1, -35304.617, -0.042156555, 0.09366411, -400999.3, 41300.2, 0.0, 10.0013075, 9.997786 
1.3950922e+3, 2.6486552e+2, -201425.78, -480482.88, 28187.773, -0.08810194, 0.08770986, -198606.98, 145713.14, 0.0, 10.00186, 9.998153 
1.3951053e+3, 2.748621e+2, 114626.44, -269070.1, 61053.45, -0.0961843, -0.07556166, 124106.96, 370454.75, 0.0000000001295351, 10.003321, 9.998228 
1.3951182e+3, 2.848593e+2, 233811.28, -386644.6, 28443.834, -0.093074456, -0.07867283, 235112.52, 383487.0, 0.00000036464922, 10.004438, 9.996211 
1.3951305e+3, 2.9485703e+2, 439977.53, -234503.55, -272.51166, -0.07890814, 0.06573935, 439977.66, 490378.6, 0.000003770611, 10.005174, 9.996229 
1.3951427e+3, 3.0485225e+2, 573346.5, -13443.115, -13461.034, -0.09628396, -0.0917997, 573655.1, 573655.1, 0.000018114883, 10.005191, 9.997404 
1.3951536e+3, 3.1484833e+2, 583334.56, 184564.0, 14250.926, -0.25348496, -0.23444845, 583843.2, 583843.2, 0.000051298335, 10.004413, 9.999143 
1.4049128e+3, 1.2485378e+2, -2349132.8, -1796465.4, 2003.7977, -0.06647303, -0.047784563, -1796458.1, -80044.8, 0.009133226, 9.9946785, 10.002007 
1.4049223e+3, 1.348513e+2, -2236060.0, -1899681.1, -80639.28, -0.25933817, -0.30003256, -1881348.8, -262909.9, 0.005275387, 9.995684, 10.000143 
1.404936e+3, 1.4485109e+2, -1966438.4, -1551417.1, 40289.66, -0.17173102, -0.41289043, -1547542.0, -27099.184, 0.0021822979, 9.996137, 10.0016365 
1.4049515e+3, 1.5485519e+2, -1870868.6, -1454253.6, 18643.988, 0.017777704, -0.1684771, -1453420.9, -31015.512, 0.00051218417, 9.996119, 10.001638 
1.404966e+3, 1.6485763e+2, -1706143.8, -1352072.8, 20988.97, 0.075921275, -0.07355077, -1350832.9, -26449.695, 0.000037386584, 9.996696, 10.001389 
1.4049791e+3, 1.7485842e+2, -1424961.4, -1158620.8, 4871.0215, -0.008411388, -0.14273503, -1158531.6, 67844.4, 0.00000006103049, 9.997922, 10.001453 
1.4049932e+3, 1.8485935e+2, -1325673.8, -1209632.4, -37463.62, 0.03641233, -0.12577808, -1198588.5, -70219.34, 0.0, 9.998575, 10.000114 
1.405008e+3, 1.9486043e+2, -1212869.5, -1099570.6, -26133.842, 0.21808235, -0.035303548, -1093833.0, -63470.367, 0.0, 9.998656, 10.000157 
1.4050208e+3, 2.0486052e+2, -1067162.3, -1056213.6, -4386.22, 0.20373204, -0.005944161, -1054673.1, -122308.484, 0.0, 9.999318, 9.999464 
1.4050317e+3, 2.1485958e+2, -778233.5, -860461.3, 20738.229, -0.017929887, -0.053227287, -773299.3, 61076.2, 0.0, 10.0006075, 9.999513 
1.405044e+3, 2.2485894e+2, -648967.5, -810919.5, 26355.586, -0.08247495, -0.037605204, -644786.44, 91596.11, 0.0, 10.001096, 9.998943 
1.405058e+3, 2.3485863e+2, -599490.2, -730438.4, 10865.665, 0.015516884, 0.029707633, -598594.7, 39790.707, 0.0, 10.000736, 9.998997 
1.4050709e+3, 2.4485728e+2, -525210.94, -776468.56, -17049.861, 0.049474962, 0.056240007, -524059.25, 16340.296, 0.0, 10.001148, 9.9978075 
1.4050826e+3, 2.548548e+2, -242006.2, -584208.94, 9284.209, 0.012755194, 0.019496117, -241754.5, 200671.42, 0.0, 10.0024, 9.997851 
1.4050952e+3, 2.648525e+2, -31920.941, -385928.47, 82779.484, -0.0198606, -0.010439372, -13520.571, 330926.2, 0.0, 10.002971, 9.998266 
1.4051087e+3, 2.7485058e+2, 48093.125, -287271.25, 58989.215, -0.049022876, -0.041420806, 58166.51, 304627.38, 0.0, 10.002809, 9.998346 
1.405122e+3, 2.84848e+2, 26040.535, -473422.22, 30993.951, -0.07692906, -0.034282673, 27956.502, 176441.38, 0.00000026353428, 10.002954, 9.996327 
1.4051345e+3, 2.9484457e+2, 195945.05, -339015.1, 63595.176, -0.10375406, -0.013460233, 203401.22, 253921.77, 0.0000034061627, 10.003438, 9.9963455 
1.4051473e+3, 3.0483976e+2, 357016.8, -202765.25, 38442.54, -0.09105262, -0.14065418, 359644.47, 359644.47, 0.000016353162, 10.004067, 9.996647 
1.4051591e+3, 3.148361e+2, 610902.5, 150407.55, -297.4845, -0.1569908, -0.18217263, 610902.7, 610902.7, 0.00004566567, 10.004812, 9.998713 
1.4149068e+3, 1.2483856e+2, -2181861.3, -1448289.9, 24178.496, -0.13398626, 0.062081143, -1447493.8, 269081.2, 0.009556688, 9.994659, 10.004423 
1.4149195e+3, 1.3483885e+2, -2065976.3, -1544374.9, -43171.008, -0.09933467, -0.15804821, -1540825.9, 77735.96, 0.0055341963, 9.995671, 10.002588 
1.4149344e+3, 1.4483957e+2, -1986539.9, -1596103.6, 36685.527, 0.058749378, -0.28743467, -1592686.5, -72134.27, 0.0022969088, 9.996144, 10.001329 
1.4149484e+3, 1.548417e+2, -1896452.4, -1505918.6, 18422.197, 0.08936657, -0.20502321, -1505051.5, -82514.77, 0.0005425403, 9.99611, 10.001289 
1.414962e+3, 1.64844e+2, -1738122.9, -1417703.6, 64496.19, 0.0059410282, -0.083508566, -1405208.6, -80689.234, 0.000040406845, 9.996692, 10.000941 
1.4149754e+3, 1.7484653e+2, -1456317.4, -1224061.5, 51598.09, -0.18613519, 0.0660931, -1213114.4, 13385.403, 0.00000007226826, 9.997922, 10.001005 
1.4149895e+3, 1.8484746e+2, -1301856.8, -1160234.3, -35781.465, -0.18871355, 0.08776869, -1151707.3, -23213.773, 0.0, 9.998573, 10.000455 
1.4150046e+3, 1.9484669e+2, -1190237.9, -1049464.1, -22757.27, 0.008182606, -0.04080533, -1045876.7, -15375.334, 0.0, 9.998642, 10.000508 
1.415019e+3, 2.0484672e+2, -1021611.0, -958414.5, 41239.523, 0.09355626, -0.068252765, -938059.44, -5558.0693, 0.0, 9.999303, 10.000143 
1.415033e+3, 2.1484758e+2, -732412.75, -761141.6, 69546.38, 0.062269635, -0.004657836, -675762.9, 158730.4, 0.0, 10.000587, 10.000205 
1.4150462e+3, 2.2484793e+2, -676383.3, -863224.94, 12090.973, 0.019618403, 0.09111699, -675604.1, 60887.93, 0.0, 10.001074, 9.998596 
1.4150582e+3, 2.3484777e+2, -626284.25, -784535.25, -1428.3226, -0.037100423, 0.20942147, -626271.4, 12226.589, 0.0, 10.000729, 9.99863 
1.4150716e+3, 2.4484561e+2, -473519.97, -669383.6, 28274.791, 0.0014064395, 0.13807441, -469519.94, 70998.125, 0.0, 10.001145, 9.998545 
1.4150862e+3, 2.5484133e+2, -190171.11, -473784.5, 57986.063, 0.14163128, -0.15493505, -178773.61, 263779.8, 0.0, 10.002386, 9.998617 
1.4151002e+3, 2.648391e+2, -73090.58, -470678.34, 76981.29, 0.17924589, -0.18952271, -58705.836, 285866.4, 0.0, 10.002963, 9.997689 
1.4151132e+3, 2.7483916e+2, 5598.0537, -375444.9, 54904.563, 0.10186929, 0.039853226, 13351.498, 259924.45, 0.0, 10.002804, 9.9977455 
1.4151257e+3, 2.8483707e+2, 91914.11, -336582.88, 48012.08, 0.008376587, 0.078999385, 97227.86, 245820.4, 0.00000012126524, 10.002952, 9.997269 
1.4151382e+3, 2.9483253e+2, 264523.56, -198537.06, 83959.19, -0.09281826, -0.11088195, 279276.5, 329909.53, 0.000002671277, 10.003444, 9.997309 
1.4151518e+3, 3.0482826e+2, 257347.75, -416001.6, 66864.69, -0.055814475, -0.16013724, 263923.3, 263923.3, 0.000013548965, 10.004089, 9.995174 
1.4151652e+3, 3.1482542e+2, 516907.44, -45735.62, 28919.395, -0.026812218, 0.030650102, 518389.97, 518389.97, 0.000038597274, 10.00481, 9.99737 
1.4249015e+3, 1.2482219e+2, -1997382.8, -1325386.0, 96905.516, -0.18068732, -0.037528187, -1311690.8, 405045.7, 0.010011913, 9.995771, 10.004741 
1.4249153e+3, 1.3482475e+2, -2126459.3, -1531874.1, -119572.5, -0.05739705, -0.06871453, -1508728.8, 109973.89, 0.0058154534, 9.995078, 10.00296 
1.4249308e+3, 1.4482652e+2, -2090171.6, -1617682.8, -80792.0, 0.12289295, -0.12322357, -1604249.8, -83566.81, 0.002423067, 9.9953165, 10.001578 
1.4249443e+3, 1.5482767e+2, -1803852.9, -1433183.5, -56505.953, 0.04204155, -0.1645046, -1424760.9, -2084.8533, 0.00057589856, 9.996625, 10.00154 
1.4249581e+3, 1.648296e+2, -1674587.3, -1378016.1, 26751.33, -0.067669384, -0.097069755, -1375622.4, -50960.36, 0.00004378684, 9.997088, 10.001021 
1.4249726e+3, 1.748324e+2, -1632312.6, -1298422.6, 50989.844, -0.19220968, 0.07346112, -1290809.4, -64169.605, 0.00000008454083, 9.996673, 10.001094 
1.4249873e+3, 1.8483356e+2, -1480044.8, -1212106.9, -957.6, -0.20270194, 0.098083794, -1212103.4, -83472.54, 0.0, 9.997205, 10.000758 
1.4250022e+3, 1.9483295e+2, -1149500.8, -996021.0, 7488.346, -0.097158715, -0.045079593, -995656.5, 34979.63, 0.0, 9.998774, 10.0008135 
1.4250174e+3, 2.0483331e+2, -999347.56, -941325.4, 37053.58, 0.0011649232, -0.057637297, -923276.8, 9356.242, 0.0, 9.999429, 10.000198 
1.4250332e+3, 2.1483469e+2, -943195.94, -857742.2, 13636.846, 0.092302166, 0.05283362, -855618.75, -20997.639, 0.0, 9.999117, 10.000251 
1.425047e+3, 2.24835e+2, -899570.6, -945215.5, -50783.45, 0.094347104, 0.13189247, -866717.0, -130096.61, 0.0, 9.999431, 9.998826 
1.4250591e+3, 2.3483421e+2, -652597.25, -770821.7, -22850.492, -0.001561432, 0.16448845, -648334.4, -9702.956, 0.0, 10.000435, 9.998866 
1.4250728e+3, 2.4483234e+2, -421404.5, -594310.8, 44151.22, 0.012483381, 0.08754193, -410783.06, 129864.66, 0.0, 10.001291, 9.99899 
1.4250885e+3, 2.5482932e+2, -215649.33, -436820.84, 48238.37, 0.14254886, -0.122671865, -205586.22, 237083.27, 0.0, 10.001997, 9.999059 
1.425103e+3, 2.6482728e+2, -158794.83, -550336.6, 34675.074, 0.17203851, -0.147796, -155747.7, 188939.03, 0.0, 10.002542, 9.997343 
1.4251159e+3, 2.7482623e+2, 1333.8083, -417789.94, 26418.568, 0.08830342, 0.009048706, 2992.4822, 249691.31, 0.0, 10.002948, 9.997385 
1.425129e+3, 2.848238e+2, 209757.13, -253155.8, 29090.592, 0.00091076334, 0.022376962, 211578.08, 360299.6, 0.000000018828088, 10.003648, 9.997507 
1.4251423e+3, 2.948198e+2, 457754.34, -77833.945, 8142.644, -0.07912365, -0.13718657, 457878.1, 508633.7, 0.0000015491574, 10.004658, 9.997552 
1.4251566e+3, 3.048163e+2, 409520.2, -392760.4, -3947.0266, -0.041993547, -0.095940344, 409539.6, 409539.6, 0.0000100522275, 10.005357, 9.9947195 
1.4251703e+3, 3.1481296e+2, 619415.3, -44771.008, 25511.85, -0.042656064, 0.0873455, 620393.75, 620393.75, 0.000031331983, 10.005725, 9.996935 
1.434897e+3, 1.2480467e+2, -2124739.5, -1588442.0, 53902.316, -0.22482415, -0.3589549, -1583078.1, 133819.36, 0.010506618, 9.995777, 10.0029125 
1.4349096e+3, 1.3480908e+2, -2251378.0, -1787661.4, -147359.55, -0.14681232, -0.03162711, -1744796.0, -125935.68, 0.006123269, 9.995068, 10.001205 
1.434925e+3, 1.4481202e+2, -2035007.1, -1503958.9, -35875.742, 0.0029059057, 0.08216091, -1501546.1, 19288.35, 0.002563054, 9.995316, 10.002361 
1.434939e+3, 1.548131e+2, -1744127.5, -1310761.6, -6576.1943, -0.13668616, -0.048074692, -1310661.8, 112161.44, 0.0006133788, 9.99663, 10.002379 
1.4349543e+3, 1.6481444e+2, -1630208.1, -1288178.6, 9101.225, -0.15789041, -0.112062484, -1287936.6, 36873.793, 0.000047750204, 9.997095, 10.001636 
1.4349708e+3, 1.7481609e+2, -1590536.0, -1211019.6, 35154.793, -0.035582278, -0.119326904, -1207790.8, 19004.676, 0.00000010052836, 9.996666, 10.0016985 
1.4349863e+3, 1.8481767e+2, -1463547.5, -1174084.9, 54951.754, -0.0149825895, -0.09421158, -1164003.9, -35223.008, 0.0, 9.997189, 10.001028 
1.4350009e+3, 1.9481923e+2, -1132263.4, -957837.6, 67669.65, -0.108206, -0.048766073, -934663.6, 96103.18, 0.0, 9.998763, 10.0010805 
1.4350161e+3, 2.0482033e+2, -1041286.0, -1026776.4, 24921.676, -0.08696605, 0.02742387, -1008075.0, -75315.87, 0.0, 9.99942, 9.999617 
1.435032e+3, 2.1482094e+2, -985711.75, -945503.3, 2933.0706, 0.061713424, 0.12063859, -945290.5, -110532.01, 0.0, 9.999114, 9.999649 
1.435047e+3, 2.2482021e+2, -845340.1, -832137.25, -15245.268, 0.13071333, 0.08762481, -822125.5, -85358.54, 0.0, 9.999426, 9.999605 
1.4350608e+3, 2.3481806e+2, -597665.1, -653752.5, 16338.973, 0.11000687, -0.097125866, -593252.56, 45532.504, 0.0, 10.000421, 9.999678 
1.4350748e+3, 2.4481751e+2, -412196.9, -573571.06, 69666.35, 0.07014437, -0.09064278, -386282.84, 154505.23, 0.0, 10.00128, 9.99914 
1.4350893e+3, 2.548187e+2, -206246.75, -417413.4, 75577.016, 0.012119832, 0.10663515, -181985.08, 260789.66, 0.0, 10.001995, 9.999195 
1.4351033e+3, 2.6481688e+2, -166873.7, -567844.4, 48700.957, -0.04118376, 0.10622192, -161043.38, 183747.1, 0.0, 10.002542, 9.997225 
1.435117e+3, 2.748119e+2, -8135.79, -436403.94, 44111.465, -0.09383415, -0.12303086, -3639.5295, 243197.66, 0.0, 10.00294, 9.997263 
1.4351316e+3, 2.848083e+2, 175921.19, -322271.9, 66764.7, -0.10904082, -0.19080143, 184713.4, 333583.7, 0.0000000009610013, 10.00364, 9.997037 
1.435147e+3, 2.9480633e+2, 420337.22, -151555.34, 49067.098, -0.07658897, -0.10248005, 424516.53, 475405.22, 0.0000007374406, 10.004638, 9.997056 
1.4351618e+3, 3.0480394e+2, 445770.47, -313879.16, 11024.36, -0.059839085, 0.0421839, 445930.4, 445930.4, 0.0000075126422, 10.005339, 9.995273 
1.4351743e+3, 3.1479904e+2, 643621.8, 10121.977, 42089.08, -0.21726634, 0.01784315, 646405.94, 646405.94, 0.000026756465, 10.005699, 9.997329 
1.4448927e+3, 1.2478948e+2, -2335760.0, -1774964.4, 71284.23, -0.1665961, -0.43897226, -1766045.0, -49005.008, 0.011047917, 9.994708, 10.002138 
1.4449047e+3, 1.3479319e+2, -2065195.4, -1771879.9, -45220.082, -0.22311452, -0.11567318, -1765066.6, -146052.16, 0.00646129, 9.996663, 10.000545 
1.4449202e+3, 1.4479621e+2, -1760877.6, -1381621.8, 64367.383, -0.09969637, 0.045090318, -1370995.0, 149995.33, 0.0027186894, 9.997243, 10.002269 
1.444935e+3, 1.5479773e+2, -1782733.4, -1336452.0, 22105.297, -0.19179405, -0.03531926, -1335359.8, 87615.39, 0.0006559602, 9.996403, 10.002308 
1.4449506e+3, 1.6479927e+2, -1707719.1, -1272024.0, -2147.3005, -0.20070316, -0.09832235, -1272013.5, 52945.74, 0.000052490832, 9.996342, 10.002107 
1.4449671e+3, 1.7480089e+2, -1485030.8, -1106092.3, 10260.773, -0.10335596, -0.15661961, -1105814.6, 121127.48, 0.00000012546444, 9.997163, 10.002177 
1.4449833e+3, 1.848026e+2, -1377840.0, -1120178.0, 48298.113, -0.05558785, -0.14824642, -1111422.1, 17503.115, 0.0, 9.997723, 10.00114 
1.4449996e+3, 1.9480446e+2, -1237557.3, -996751.7, 45947.473, -0.06819912, -0.08255059, -988282.44, 42626.1, 0.0, 9.997991, 10.001184 
1.4450155e+3, 2.0480566e+2, -1148126.0, -1076307.8, 2093.702, -0.05120335, -0.0020806205, -1076246.8, -143346.33, 0.0, 9.998682, 9.999632 
1.4450309e+3, 2.1480615e+2, -877916.5, -891695.2, 22957.83, 0.00019244103, 0.079225995, -860836.56, -25935.07, 0.0, 9.999849, 9.999663 
1.4450464e+3, 2.2480541e+2, -653458.2, -710229.3, 19809.451, 0.066388555, 0.031574655, -647229.4, 89680.0, 0.0, 10.000619, 9.9998665 
1.4450617e+3, 2.3480336e+2, -502026.47, -579328.6, 7190.9375, 0.14367619, -0.16907518, -501363.22, 137560.97, 0.0, 10.000954, 9.999931 
1.4450766e+3, 2.4480306e+2, -406226.44, -628421.0, 24487.963, 0.11101174, -0.12571761, -403559.63, 137366.47, 0.0, 10.001567, 9.998627 
1.4450909e+3, 2.5480464e+2, -169501.47, -458564.38, -21286.13, -0.040339444, 0.16313367, -167942.39, 274971.53, 0.0, 10.0025, 9.99867 
1.4451054e+3, 2.648028e+2, -35411.125, -445017.3, -63374.69, -0.11733113, 0.1643312, -25829.848, 319100.5, 0.0, 10.003186, 9.997759 
1.44512e+3, 2.7479747e+2, 127284.336, -309014.2, -21840.031, -0.11835949, -0.15815796, 128374.875, 375351.9, 0.0, 10.003602, 9.997818 
1.4451353e+3, 2.8479397e+2, 214955.4, -308889.13, 53039.293, -0.10490348, -0.243697, 220271.69, 369279.84, 0.00000000009881724, 10.00393, 9.996989 
1.4451514e+3, 2.9479256e+2, 352102.63, -191113.33, 64146.367, -0.07036788, -0.09348602, 359574.66, 410597.3, 0.0000005646505, 10.004193, 9.997 
1.445167e+3, 3.0479035e+2, 378820.2, -284816.56, 39636.207, -0.04170926, 0.050410688, 381179.1, 381179.1, 0.000007153417, 10.004617, 9.99582 
1.4451803e+3, 3.147842e+2, 589100.06, 18274.979, 58036.316, -0.16663945, -0.1582636, 594940.9, 594940.9, 0.000027032134, 10.00519, 9.997623 
1.4548889e+3, 1.2477695e+2, -2316562.8, -1738440.0, 133134.13, -0.023186168, -0.25904465, -1709254.4, 7906.999, 0.011640448, 9.994718, 10.002387 
1.4549007e+3, 1.3477722e+2, -2034300.9, -1712156.6, 30301.346, -0.29433513, -0.3225302, -1709331.3, -90167.58, 0.0068325973, 9.996679, 10.000947 
1.4549164e+3, 1.4477918e+2, -1827155.9, -1524163.8, 30952.275, -0.19635262, -0.23871699, -1521034.1, 115.38279, 0.0028915813, 9.997265, 10.001278 
1.4549321e+3, 1.5478162e+2, -1853272.0, -1481786.4, -9763.603, -0.1322251, -0.12695391, -1481529.9, -58399.12, 0.00070428615, 9.9964, 10.00131 
1.4549468e+3, 1.6478418e+2, -1686058.0, -1228783.3, 25349.273, -0.20790198, -0.05250135, -1227382.3, 97725.34, 0.000058062662, 9.996345, 10.002403 
1.4549612e+3, 1.7478684e+2, -1460858.9, -1058854.4, 42090.527, -0.4084276, -0.03978657, -1054494.8, 172584.98, 0.00000016567238, 9.99717, 10.0025 
1.4549783e+3, 1.8478836e+2, -1382936.4, -1129313.1, 56820.68, -0.3408733, -0.06463508, -1117165.1, 11898.835, 0.0, 9.997716, 10.0010805 
1.4549984e+3, 1.947887e+2, -1244014.1, -1008072.7, 56856.824, 0.011461411, -0.1438271, -995086.25, 35974.76, 0.0, 9.997982, 10.001111 
1.4550157e+3, 2.0478934e+2, -1108489.5, -992114.6, 42796.227, 0.09828054, -0.14365561, -978071.2, -45014.594, 0.0, 9.998672, 10.0002165 
1.4550298e+3, 2.1479036e+2, -836407.1, -803260.94, 67617.84, -0.10145937, -0.071490176, -750214.8, 84835.41, 0.0, 9.999839, 10.000277 
1.4550453e+3, 2.2479062e+2, -674304.3, -750838.8, 31074.34, -0.10897427, -0.035842236, -663276.56, 73771.086, 0.0, 10.000605, 9.999596 
1.4550623e+3, 2.347901e+2, -522141.38, -621252.8, 20474.217, 0.09208591, -0.055919625, -518078.4, 120970.945, 0.0, 10.000953, 9.999644 
1.4550784e+3, 2.4478899e+2, -487621.72, -796640.94, 57904.445, 0.12524267, -0.02164299, -477127.84, 63933.91, 0.0, 10.001561, 9.997475 
1.4550935e+3, 2.5478727e+2, -256473.11, -631507.7, 16620.73, -0.027691117, 0.055563755, -255737.97, 187347.56, 0.0, 10.002464, 9.997499 
1.455109e+3, 2.6478523e+2, 38861.87, -282581.2, -46243.625, -0.073902294, 0.035622247, 45382.332, 390487.3, 0.0, 10.003148, 9.998895 
1.4551248e+3, 2.7478287e+2, 206517.83, -137987.78, -3951.1445, -0.0047860346, -0.10410853, 206563.14, 453682.2, 0.0, 10.003573, 9.999007 
1.4551404e+3, 2.8478062e+2, 241169.47, -251921.78, 61836.332, -0.0017273388, -0.14692709, 248805.81, 397942.06, 0.00000000000029137375, 10.003917, 9.997389 
1.4551556e+3, 2.947785e+2, 376362.13, -138113.47, 76132.984, -0.07019299, -0.10388033, 387391.94, 438548.88, 0.00000074802443, 10.00418, 9.997372 
1.455172e+3, 3.0477574e+2, 414690.94, -213291.73, 61125.25, -0.0029513913, -0.057692662, 420585.28, 420585.28, 0.000009227749, 10.004625, 9.996308 
1.4551878e+3, 3.1476864e+2, 592764.3, 24232.824, 78251.67, 0.07036126, -0.4124044, 603338.06, 603338.06, 0.00003390652, 10.005191, 9.997667 
1.464884e+3, 1.2476289e+2, -2142460.0, -1641807.0, 58677.707, -0.050965194, -0.10989235, -1635021.8, 82281.586, 0.012283002, 9.99585, 10.00251 
1.4648968e+3, 1.3476202e+2, -2254120.3, -1783443.4, -46671.105, -0.25720972, -0.31893516, -1778860.3, -159547.0, 0.00723705, 9.995023, 10.001256 
1.4649133e+3, 1.4476365e+2, -2137905.0, -1681209.4, -25856.768, -0.136495, -0.28033623, -1679750.1, -158449.95, 0.0030819494, 9.995167, 10.001211 
1.4649285e+3, 1.5476602e+2, -1847917.3, -1487324.5, -86.6689, -0.13251513, -0.16869338, -1487324.5, -64043.258, 0.0007585455, 9.996467, 10.001243 
1.4649434e+3, 1.6476834e+2, -1590323.4, -1248430.8, 53848.055, -0.22967897, -0.084724925, -1240150.3, 85110.586, 0.00006440502, 9.997288, 10.001813 
1.4649585e+3, 1.747706e+2, -1438921.4, -1114827.0, -2789.0989, -0.40626192, -0.051202092, -1114803.0, 112436.07, 0.00000022299002, 9.997613, 10.001899 
1.464976e+3, 1.8477212e+2, -1322973.5, -1085320.8, -20660.227, -0.3434088, -0.052248742, -1083538.1, 45686.324, 0.0, 9.998067, 10.001211 
1.4649963e+3, 1.947729e+2, -1136102.6, -939267.3, -7344.569, -0.030560829, -0.1017893, -938993.6, 92223.164, 0.0, 9.998654, 10.001257 
1.465014e+3, 2.0477349e+2, -1012675.9, -916768.3, -6992.822, 0.05048959, -0.126639, -916261.1, 16950.453, 0.0, 9.999202, 10.000478 
1.4650293e+3, 2.147739e+2, -838259.4, -776451.94, -11490.255, -0.11910356, -0.14080116, -774385.0, 60823.855, 0.0, 9.999702, 10.000527 
1.4650454e+3, 2.2477442e+2, -704155.75, -772856.3, -58001.28, -0.13911183, -0.08877136, -671096.2, 66107.58, 0.0, 10.000435, 9.999526 
1.4650625e+3, 2.3477507e+2, -458158.1, -598697.5, -56481.668, -0.0010235707, 0.01806089, -438272.3, 200923.69, 0.0, 10.0014305, 9.999569 
1.4650793e+3, 2.447736e+2, -470880.8, -768718.94, 15823.179, 0.069541134, 0.01098667, -470042.53, 71168.625, 0.0, 10.001595, 9.997649 
1.465096e+3, 2.547698e+2, -478624.22, -718943.9, 70054.445, 0.064903185, -0.13652569, -459694.1, -16443.133, 0.0, 10.000855, 9.997674 
1.4651124e+3, 2.6476777e+2, -257046.73, -410973.9, 52323.656, 0.055681664, -0.1706849, -240944.97, 104324.56, 0.0, 10.001058, 9.999017 
1.4651282e+3, 2.7476767e+2, 32582.11, -209589.81, 14075.01, 0.038513757, -0.095929936, 33397.402, 280661.8, 0.0, 10.002323, 9.99912 
1.465144e+3, 2.847659e+2, 163217.53, -289533.34, 16909.191, 0.01003027, -0.09585858, 163848.17, 313126.44, 0.0000000016721635, 10.003384, 9.997385 
1.4651603e+3, 2.9476237e+2, 382706.97, -136078.89, -2497.3958, -0.028715184, -0.19335492, 382719.0, 434031.47, 0.0000013209797, 10.004233, 9.997356 
1.4651772e+3, 3.0475962e+2, 539424.4, -85716.34, -13697.249, 0.029377898, -0.17558259, 539724.4, 539724.4, 0.000014429875, 10.005198, 9.996904 
1.4651936e+3, 3.1475422e+2, 769091.0, 131682.92, 5357.3545, 0.0710284, -0.42223084, 769136.0, 769136.0, 0.000049387567, 10.0063095, 9.997864 
1.4748776e+3, 1.24747284e+2, -2136687.5, -1635573.9, 13410.318, -0.27763906, 0.006331812, -1635215.3, 82251.18, 0.012969953, 9.9958725, 10.0025425 
1.4748932e+3, 1.3474774e+2, -2236583.8, -1746182.9, -79343.664, -0.12161784, -0.09802786, -1733665.1, -114202.83, 0.0076708426, 9.995019, 10.0015135 
1.4749105e+3, 1.4474978e+2, -2079043.6, -1560523.3, 18698.375, 0.069698185, -0.071012914, -1559849.8, -38408.934, 0.0032881629, 9.995169, 10.002041 
1.4749242e+3, 1.5475099e+2, -1787989.6, -1362789.4, 50228.605, -0.20319495, -0.160254, -1356936.4, 66489.1, 0.00081847684, 9.996465, 10.0021 
1.4749402e+3, 1.6475184e+2, -1695785.8, -1467538.6, 64173.9, -0.27903593, -0.19397369, -1450733.0, -125314.83, 0.000071419374, 9.997288, 10.000309 
1.4749593e+3, 1.7475225e+2, -1547371.3, -1341946.3, 10134.597, -0.10374084, -0.19108397, -1341447.5, -114027.61, 0.0000002932695, 9.99762, 10.000338 
1.474977e+3, 1.8475391e+2, -1301396.0, -1040532.7, -688.49664, -0.071301684, -0.111597516, -1040530.9, 88875.7, 0.0, 9.998065, 10.00152 
1.4749932e+3, 1.9475707e+2, -1111416.4, -887533.7, 15982.338, -0.20630397, 0.041647222, -886398.5, 144977.27, 0.0, 9.99865, 10.0016165 
1.4750108e+3, 2.0475812e+2, -1020884.1, -930528.1, 9865.552, -0.20988418, 0.04754817, -929463.5, 3901.7153, 0.0, 9.9991865, 10.000392 
1.4750296e+3, 2.1475682e+2, -847102.56, -791822.25, 8184.6177, -0.06420339, -0.12679699, -790635.94, 44741.02, 0.0, 9.999691, 10.000427 
1.4750469e+3, 2.2475684e+2, -699791.2, -760346.3, -22707.26, -0.03641948, -0.12509562, -692222.3, 45154.637, 0.0, 10.000417, 9.999622 
1.4750625e+3, 2.3475835e+2, -453149.8, -583558.5, -17652.36, -0.14425685, 0.055327184, -450802.6, 188560.88, 0.0, 10.00141, 9.999683 
1.4750797e+3, 2.4475689e+2, -371639.6, -561025.94, -11883.928, -0.06447736, -0.02453127, -370896.78, 170477.19, 0.0, 10.001584, 9.999082 
1.4750986e+3, 2.5475222e+2, -374802.44, -505298.1, 42738.32, 0.22385614, -0.4092057, -362051.28, 81359.45, 0.0, 10.000862, 9.999138 
1.4751154e+3, 2.6475042e+2, -313795.75, -533146.1, 96411.61, 0.25729972, -0.45105663, -277444.06, 67980.56, 0.0, 10.001074, 9.998172 
1.4751302e+3, 2.747519e+2, -29457.303, -339488.6, 63048.395, 0.004367582, -0.12985076, -17126.15, 230286.72, 0.0, 10.002328, 9.998225 
1.4751466e+3, 2.847499e+2, 131830.3, -355490.72, 47256.125, -0.075379565, -0.08337812, 136370.48, 285803.75, 0.000000006915967, 10.003386, 9.996933 
1.4751652e+3, 2.9474416e+2, 350766.88, -201336.52, 30473.934, 0.041422565, -0.35824823, 352443.84, 403932.72, 0.000002716479, 10.004228, 9.996912 
1.4751826e+3, 3.047419e+2, 593814.6, 23941.178, 26238.35, 0.046930827, -0.30700216, 595020.1, 595020.1, 0.000022654767, 10.005206, 9.997656 
1.4751975e+3, 3.1474093e+2, 799270.6, 188154.53, 46863.74, -0.17263247, -0.18466462, 802843.5, 802843.5, 0.00007072153, 10.006328, 9.998247 
1.4848728e+3, 1.2472966e+2, -2389011.8, -1721012.3, -55834.51, -0.23537165, 0.030944865, -1716377.5, 1267.6794, 0.013700781, 9.993996, 10.002853 
1.484888e+3, 1.3473117e+2, -2113504.8, -1623774.9, -124978.82, -0.17023973, -0.024996813, -1593724.3, 25904.895, 0.00813248, 9.995591, 10.00208 
1.4849061e+3, 1.4473379e+2, -1854205.4, -1453421.0, -21410.152, 0.024999723, 0.032518093, -1452280.5, 69320.375, 0.0035089266, 9.996721, 10.002025 
1.4849216e+3, 1.5473452e+2, -1653137.4, -1299228.8, -57798.523, -0.17212047, -0.10274108, -1290028.5, 133560.88, 0.0008836724, 9.997402, 10.002081 
1.4849384e+3, 1.64735e+2, -1654600.3, -1461297.9, -59735.074, -0.20288065, -0.1662667, -1444328.1, -118743.016, 0.00007901186, 9.997632, 10.000184 
1.4849575e+3, 1.7473514e+2, -1592317.3, -1377637.4, -10295.458, -0.017806772, -0.17519405, -1377144.8, -149555.9, 0.00000037325287, 9.997375, 10.00021 
1.4849755e+3, 1.847365e+2, -1382120.4, -1106942.0, 40814.402, -0.0024002825, -0.106720306, -1101016.0, 28562.324, 0.0, 9.99763, 10.001273 
1.4849919e+3, 1.9473933e+2, -1156037.0, -936380.0, 9086.803, -0.1862267, 0.036835372, -936004.75, 95546.42, 0.0, 9.998464, 10.0013685 
1.4850098e+3, 2.047404e+2, -1033343.06, -915219.2, -21322.9, -0.21501425, 0.04923278, -911487.94, 22051.682, 0.0, 9.999013, 10.000578 
1.4850289e+3, 2.1473953e+2, -899813.3, -796151.25, -4387.084, -0.07058436, -0.101679385, -795965.94, 39579.473, 0.0, 9.99924, 10.000614 
1.4850472e+3, 2.247395e+2, -812352.25, -824800.25, -10142.232, -0.01918128, -0.10811804, -806676.56, -69130.875, 0.0, 9.999692, 9.999526 
1.485064e+3, 2.3474048e+2, -606898.8, -671185.0, -25676.3, -0.07680261, 0.030267512, -597902.5, 41636.848, 0.0, 10.000412, 9.99956 
1.4850815e+3, 2.4473934e+2, -355090.8, -491654.63, -78153.914, -0.03292197, -0.038950566, -319591.9, 221954.63, 0.0, 10.001435, 9.999628 
1.4850993e+3, 2.547359e+2, -52957.047, -287815.7, -93982.734, 0.12041013, -0.3553198, -19978.922, 423589.4, 0.0, 10.002806, 9.999696 
1.4851166e+3, 2.6473412e+2, 14873.071, -451375.5, -50936.61, 0.14994608, -0.38875198, 20372.906, 365954.7, 0.0, 10.003664, 9.997485 
1.4851336e+3, 2.747343e+2, 157476.56, -330247.03, -74118.05, 0.04007073, -0.12587547, 168491.33, 416077.03, 0.0, 10.003963, 9.997499 
1.485151e+3, 2.8473175e+2, 267153.88, -288839.2, -68658.555, -0.0021900095, -0.09716531, 275506.9, 425118.94, 0.000000054954402, 10.004312, 9.996943 
1.4851695e+3, 2.947263e+2, 426203.47, -162843.61, -55612.727, 0.031904716, -0.3431926, 431407.94, 483070.6, 0.000005158113, 10.004735, 9.996934 
1.4851877e+3, 3.0472353e+2, 658648.1, -8353.168, -51668.637, 0.0019110034, -0.31408662, 662626.9, 662626.9, 0.000032174532, 10.005925, 9.997088 
1.4852047e+3, 3.1472263e+2, 977943.7, 187662.63, -135536.5, -0.16615213, -0.13039145, 1000542.5, 1000542.5, 0.00009221619, 10.007938, 9.997464 
1.49487e+3, 1.2471015e+2, -2350858.8, -1644114.6, -6061.705, 0.07467809, -0.031159963, -1644062.6, 73775.52, 0.014485426, 9.9939995, 10.003387 
1.494881e+3, 1.3471232e+2, -2054631.8, -1504030.8, -64963.09, -0.41584817, -0.10263697, -1496469.9, 123343.73, 0.008627366, 9.995598, 10.002903 
1.4948997e+3, 1.4471567e+2, -1911737.6, -1579092.6, 1087.8446, -0.2929773, 0.028255818, -1579089.0, -57308.844, 0.0037456865, 9.996745, 10.001152 
1.4949201e+3, 1.5471663e+2, -1713964.0, -1429776.6, -32572.574, -0.053161785, 0.004266609, -1426091.1, -2318.2166, 0.0009542572, 9.997419, 10.001176 
1.494938e+3, 1.6471787e+2, -1564320.8, -1278449.4, -71302.1, -0.0114421835, 0.0032229233, -1261652.3, 64108.99, 0.00008722728, 9.997649, 10.001432 
1.4949535e+3, 1.7471933e+2, -1500499.3, -1187936.3, -19707.236, -0.15965559, -0.0033887574, -1186698.5, 41047.047, 0.0000004647829, 9.9973755, 10.0015135 
1.4949715e+3, 1.8471995e+2, -1440594.6, -1226234.0, 68995.3, -0.15364358, -0.03806102, -1205946.8, -76207.445, 0.0, 9.997621, 10.000459 
1.4949924e+3, 1.9471972e+2, -1217429.6, -1063535.5, 41354.125, 0.014943675, -0.114255324, -1053126.9, -21384.338, 0.0, 9.998462, 10.000496 
1.4950112e+3, 2.0472035e+2, -1003317.5, -851738.8, -14268.829, 0.022262137, -0.12083696, -850407.3, 83327.37, 0.0, 9.999005, 10.001019 
1.4950274e+3, 2.1472202e+2, -865592.56, -724203.94, 4925.5405, -0.14683466, -0.06711642, -724032.56, 111681.5, 0.0, 9.999235, 10.00111 
1.495046e+3, 2.2472245e+2, -836544.5, -874578.56, 13972.652, -0.09951925, -0.037824545, -831963.2, -94253.47, 0.0, 9.999687, 9.999187 
1.495067e+3, 2.3472153e+2, -634037.3, -724136.5, 1817.95, 0.1857825, -0.05233845, -634000.6, 5722.616, 0.0, 10.000398, 9.999205 
1.4950848e+3, 2.4472094e+2, -381251.84, -542013.4, -28857.59, 0.15109639, -0.031848516, -376228.7, 165499.83, 0.0, 10.001415, 9.999293 
1.4950985e+3, 2.5472078e+2, -78971.57, -336873.78, -41451.49, -0.24337167, 0.011223942, -72473.01, 371251.16, 0.0, 10.002784, 9.99937 
1.4951164e+3, 2.647188e+2, -26420.656, -533219.75, -39977.047, -0.2647367, 0.002537744, -23286.59, 322454.6, 0.0, 10.003645, 9.996933 
1.4951384e+3, 2.7471492e+2, 114465.4, -413556.78, -60846.934, 0.13036263, -0.083922766, 121386.414, 369168.38, 0.0, 10.003938, 9.99694 
1.4951576e+3, 2.847115e+2, 295345.16, -227700.13, -53431.152, 0.20988138, -0.13431121, 300747.53, 450561.13, 0.0000002245738, 10.004296, 9.997373 
1.4951733e+3, 2.9470873e+2, 457972.47, -97512.87, -37371.79, -0.06337844, -0.15799779, 460475.47, 512309.75, 0.000007681589, 10.004734, 9.997384 
1.4951925e+3, 3.0470458e+2, 526993.94, -278114.56, 22975.787, -0.113668226, -0.20177336, 527649.06, 527649.06, 0.000039537168, 10.005905, 9.995247 
1.4952148e+3, 3.1469947e+2, 829029.6, -97800.52, -50677.39, 0.048621025, -0.2466187, 831792.3, 831792.3, 0.00010727116, 10.007831, 9.995556 
1.5048647e+3, 1.24690756e+2, -2392056.0, -1703530.4, 78099.266, 0.14625917, -0.10115757, -1694782.8, 23243.34, 0.015336173, 9.993896, 10.003021 
1.5048768e+3, 1.3469304e+2, -2011970.8, -1494506.3, -48703.836, -0.42184988, -0.15461902, -1489962.1, 130039.98, 0.0091627855, 9.995939, 10.002803 
1.5048963e+3, 1.4469662e+2, -1898703.4, -1582235.1, -45298.92, -0.31358415, 0.011702568, -1575878.8, -53910.78, 0.0040015904, 9.996878, 10.001065 
1.504917e+3, 1.546976e+2, -1831138.6, -1497032.0, -22522.588, -0.058272902, -0.0008280981, -1495520.6, -71558.43, 0.001031135, 9.996658, 10.001085 
1.5049355e+3, 1.646992e+2, -1593357.9, -1258421.0, -44825.168, -0.017336173, 0.023024933, -1252525.8, 73421.58, 0.000096309515, 9.997306, 10.001734 
1.5049514e+3, 1.7470141e+2, -1247552.5, -1030720.6, -71092.36, -0.18238632, 0.058764394, -1009490.3, 218432.69, 0.000000575819, 9.998962, 10.001825 
1.50497e+3, 1.8470196e+2, -1158414.6, -1100345.0, -11712.507, -0.1699325, 0.007925975, -1098071.6, 31844.104, 0.0, 9.999603, 10.000366 
1.5049914e+3, 1.947008e+2, -1132036.1, -1034636.6, 14881.46, 0.028117955, -0.14881629, -1032413.7, -487.22336, 0.0, 9.999101, 10.000387 
1.5050104e+3, 2.0470108e+2, -958638.0, -874630.3, -14498.329, 0.03583531, -0.16637145, -872198.5, 61723.58, 0.0, 9.999508, 10.000618 
1.5050274e+3, 2.14703e+2, -644825.7, -664557.9, -66448.0, -0.16757251, -0.046141293, -587515.3, 248385.42, 0.0, 10.000955, 10.00069 
1.5050463e+3, 2.24703e+2, -589427.3, -766290.44, -110270.64, -0.12653662, -0.031619303, -536509.1, 201390.9, 0.0, 10.001435, 9.999087 
1.5050676e+3, 2.3470093e+2, -576244.06, -707207.06, -106929.71, 0.18223758, -0.15185106, -516339.0, 123582.97, 0.0, 10.000843, 9.999105 
1.5050861e+3, 2.4470028e+2, -442783.28, -618181.56, -78814.555, 0.17184833, -0.109330274, -412572.0, 129356.63, 0.0, 10.001202, 9.998869 
1.5051016e+3, 2.5470132e+2, -130061.83, -410773.2, -101825.805, -0.19686185, 0.098261334, -97015.63, 346902.16, 0.0, 10.002649, 9.998924 
1.5051201e+3, 2.646993e+2, -61282.797, -531241.4, -126870.21, -0.22439279, 0.10053241, -29220.295, 316716.06, 0.0, 10.00333, 9.997096 
1.505142e+3, 2.74694e+2, 14933.325, -442396.34, -99142.06, 0.12324352, -0.14448616, 35500.824, 283488.2, 0.0, 10.003171, 9.99711 
1.5051614e+3, 2.8469047e+2, 221580.48, -272605.06, -44680.125, 0.18625903, -0.21261558, 225587.61, 375606.6, 0.00000040429572, 10.003835, 9.997284 
1.5051785e+3, 2.9468903e+2, 552121.75, -61763.516, -71601.984, -0.066827975, -0.09645223, 560362.56, 612390.8, 0.000008915925, 10.005432, 9.99729 
1.5051982e+3, 3.0468452e+2, 496517.47, -270414.7, 12233.935, -0.10342808, -0.17802782, 496712.56, 496712.56, 0.000041791325, 10.005609, 9.995439 
1.5052213e+3, 3.146788e+2, 325475.94, -296909.84, 83385.85, 0.09480392, -0.30480018, 336454.16, 336454.16, 0.000110675726, 10.004185, 9.995941 
1.5148565e+3, 1.2467168e+2, -2481447.8, -1893341.5, 144960.69, -0.05507635, -0.17149818, -1859551.9, -141345.34, 0.016257107, 9.993914, 10.00171 
1.5148751e+3, 1.3467339e+2, -2082322.8, -1643599.0, 28596.377, -0.1928151, -0.17987049, -1641742.9, -21549.223, 0.009740974, 9.995956, 10.001764 
1.5148959e+3, 1.4467673e+2, -1849353.0, -1485888.8, -54000.93, -0.037516423, -0.015714753, -1478035.3, 44128.17, 0.0042781597, 9.996899, 10.001719 
1.5149124e+3, 1.5467751e+2, -1780094.5, -1391195.3, -29704.307, -0.19668305, -0.12150709, -1388939.5, 35217.387, 0.0011151112, 9.996656, 10.001813 
1.5149306e+3, 1.6467904e+2, -1640123.8, -1355971.9, 13948.802, -0.24019513, -0.10836242, -1355288.9, -29146.025, 0.000106548556, 9.997306, 10.001064 
1.5149511e+3, 1.7468137e+2, -1296352.4, -1134862.1, -7734.651, -0.10028693, 0.01132219, -1134492.5, 93628.27, 0.0000007145684, 9.998973, 10.001105 
1.5149707e+3, 1.846826e+2, -1113094.0, -1009204.8, -30324.533, -0.0620678, 0.03284124, -1001001.06, 129106.19, 0.0, 9.999613, 10.00099 
1.5149885e+3, 1.9468266e+2, -1085932.3, -937997.7, -3577.8455, -0.1562958, -0.06698159, -937911.25, 94191.18, 0.0, 9.999095, 10.001055 
1.5150078e+3, 2.0468263e+2, -1050170.4, -1061648.0, 35499.188, -0.18848789, -0.08743894, -1019949.1, -85847.67, 0.0, 9.999494, 9.999341 
1.5150285e+3, 2.1468253e+2, -742253.06, -860558.56, -10895.334, -0.14509553, -0.03494211, -741258.0, 94846.63, 0.0, 10.000929, 9.999356 
1.5150478e+3, 2.2468127e+2, -584018.94, -750989.56, -131647.52, -0.11079074, -0.084600635, -511616.9, 226498.77, 0.0, 10.001414, 9.999205 
1.5150657e+3, 2.3467875e+2, -564045.44, -682781.2, -127234.21, -0.090333685, -0.26738477, -483010.0, 157125.08, 0.0, 10.000847, 9.999271 
1.5150858e+3, 2.4467748e+2, -479937.25, -697141.5, -27328.654, 0.017634777, -0.26742426, -476551.53, 65594.58, 0.0, 10.001207, 9.998325 
1.5151085e+3, 2.5467777e+2, -173459.17, -493932.84, -44778.387, 0.22951216, -0.07896706, -167320.08, 276827.34, 0.0, 10.002618, 9.998368 
1.5151282e+3, 2.646759e+2, -8772.324, -415039.25, -130453.945, 0.24070959, -0.07697788, 29509.7, 375675.13, 0.0, 10.003297, 9.9979105 
1.5151441e+3, 2.7467164e+2, 76004.52, -317291.2, -102388.82, 0.017600117, -0.30045712, 101063.34, 349264.97, 0.0, 10.003179, 9.997967 
1.5151627e+3, 2.8466868e+2, 183186.22, -355948.13, 12450.661, -0.070083976, -0.3277158, 183473.6, 333701.78, 0.00000051356034, 10.003848, 9.996707 
1.5151846e+3, 2.946672e+2, 502165.2, -156043.56, -8686.853, 0.0036569748, -0.15136679, 502279.8, 554523.3, 0.000008887065, 10.005389, 9.996664 
1.515205e+3, 3.046633e+2, 635364.9, 23595.488, -38128.313, 0.012640084, -0.23821624, 637732.0, 637732.0, 0.000039490285, 10.00558, 9.997476 
1.5152243e+3, 3.1466e+2, 514186.88, 76303.44, 34463.277, -0.03889532, -0.3343124, 516882.7, 516882.7, 0.00010294431, 10.004259, 9.998473 
1.524851e+3, 1.2465299e+2, -2121901.0, -1750543.3, 75171.44, -0.12466986, -0.09345725, -1735903.9, -17511.936, 0.017244658, 9.996509, 10.001438 
1.524871e+3, 1.3465407e+2, -2206529.8, -1709251.5, 32918.836, -0.15689029, -0.16068274, -1707081.9, -86697.42, 0.010359608, 9.995126, 10.001718 
1.5248927e+3, 1.4465716e+2, -2057463.3, -1583658.5, -3910.3887, 0.034484673, -0.018348899, -1583626.3, -61270.594, 0.0045741852, 9.995463, 10.001739 
1.5249094e+3, 1.5465815e+2, -1598445.1, -1299049.5, -33693.83, -0.21203786, -0.10664195, -1295304.4, 129041.83, 0.0012060112, 9.997886, 10.001851 
1.524928e+3, 1.6465944e+2, -1452585.9, -1305689.1, -28376.965, -0.2768853, -0.102962665, -1300398.0, 25936.418, 0.000118081814, 9.998767, 10.000707 
1.5249498e+3, 1.74661e+2, -1479488.6, -1264388.6, -27806.895, -0.084478535, -0.022715367, -1260852.0, -32531.61, 0.0000008766353, 9.997894, 10.000737 
1.5249696e+3, 1.846621e+2, -1350571.8, -1137442.0, -61845.902, -0.0474427, 0.012538403, -1120795.8, 9512.679, 0.0, 9.998043, 10.000866 
1.5249874e+3, 1.946628e+2, -1050864.4, -935140.3, -96903.875, -0.20833312, -0.011529259, -880137.94, 152159.78, 0.0, 9.999396, 10.00093 
1.525007e+3, 2.0466262e+2, -1025678.25, -1068669.3, -49747.074, -0.22225702, -0.030855255, -992981.25, -58683.016, 0.0, 9.999746, 9.999169 
1.5250292e+3, 2.1466152e+2, -1040784.2, -1025199.75, -13267.798, -0.066048376, -0.060934752, -1017605.2, -181294.17, 0.0, 9.998967, 9.999171 
1.5250492e+3, 2.2466005e+2, -786474.1, -836566.25, -53603.586, -0.04631012, -0.12763661, -752353.9, -14030.695, 0.0, 9.999974, 9.999309 
1.5250666e+3, 2.346582e+2, -238649.6, -513758.28, -56277.84, -0.18740274, -0.2526836, -227582.3, 412751.88, 0.0, 10.003031, 9.999381 
1.5250874e+3, 2.4465667e+2, -157535.17, -587290.7, -12802.288, -0.07222236, -0.26937294, -157154.14, 385193.56, 0.0, 10.003616, 9.997922 
1.5251116e+3, 2.5465554e+2, -382213.47, -641720.06, -25362.184, 0.33222458, -0.17843375, -379758.0, 64605.496, 0.0, 10.001388, 9.997948 
1.5251318e+3, 2.646536e+2, -227419.75, -501401.1, -53398.91, 0.35179257, -0.16866505, -217380.19, 129002.42, 0.0, 10.001716, 9.998079 
1.5251473e+3, 2.7465075e+2, 348369.44, -164943.23, -74488.63, -0.07062305, -0.2688586, 358960.22, 607365.44, 0.0000000004228764, 10.004964, 9.998153 
1.5251663e+3, 2.84648e+2, 443711.75, -256281.48, -37703.832, -0.1791511, -0.27108416, 445736.75, 596167.3, 0.0000006354332, 10.005753, 9.996475 
1.5251897e+3, 2.946455e+2, 247016.2, -307618.03, -38763.715, 0.07156702, -0.17598101, 249712.31, 302170.8, 0.000008546405, 10.0037565, 9.99641 
1.5252106e+3, 3.0464166e+2, 431724.4, -94521.65, -78286.93, 0.07476248, -0.23343264, 443123.8, 443123.8, 0.000035222125, 10.004265, 9.997298 
1.5252289e+3, 3.1464e+2, 1018902.56, 346226.22, -165267.75, -0.16902274, -0.14780547, 1057313.4, 1057313.4, 0.000088208115, 10.007622, 9.998711 
1.5348482e+3, 1.2463491e+2, -2056104.0, -1633202.8, 12276.482, -0.07401136, 0.15078346, -1632846.8, 85734.11, 0.018294634, 9.99658, 10.002222 
1.5348643e+3, 1.3463518e+2, -2137336.0, -1569666.5, -21187.045, -0.32929793, -0.093143374, -1568876.8, 51696.594, 0.011016667, 9.995134, 10.002678 
1.5348867e+3, 1.4463805e+2, -2103108.8, -1676994.4, 80040.914, -0.119527616, 0.0076166806, -1662455.6, -139912.06, 0.0048880493, 9.995458, 10.0011015 
1.5349083e+3, 1.5463968e+2, -1645575.9, -1397825.6, 59145.543, -0.11486299, 0.05170499, -1384430.0, 40099.156, 0.0013030368, 9.997892, 10.001168 
1.5349284e+3, 1.646405e+2, -1452726.9, -1311122.1, -59721.504, -0.13601516, 0.047141846, -1289298.3, 37223.05, 0.00013086536, 9.998785, 10.000661 
1.5349472e+3, 1.7464031e+2, -1481491.6, -1268705.4, -60526.477, -0.14274186, -0.043402743, -1252693.6, -24172.088, 0.0000010420176, 9.997892, 10.00071 
1.5349668e+3, 1.8464053e+2, -1414882.6, -1268461.6, -15638.34, -0.1408454, -0.05355786, -1266810.0, -136291.06, 0.0, 9.998033, 9.999971 
1.5349872e+3, 1.9464128e+2, -1116567.9, -1069780.0, -44555.785, -0.1411999, 0.01924941, -1042850.06, -10338.217, 0.0, 9.99939, 10.000009 
1.5350083e+3, 2.0464113e+2, -962794.8, -938720.75, -78184.58, -0.07970176, 0.0058450894, -871652.06, 62859.793, 0.0, 9.999745, 10.000064 
1.5350294e+3, 2.1463999e+2, -974253.25, -886388.6, -41415.38, 0.058279675, -0.12383747, -869944.75, -33425.184, 0.0, 9.998962, 10.000128 
1.5350501e+3, 2.2463933e+2, -784509.2, -828684.6, 54473.805, 0.0513141, -0.16048473, -747815.44, -9292.9375, 0.0, 9.999956, 9.9993725 
1.5350702e+3, 2.3463929e+2, -242484.44, -511328.22, 59763.7, -0.123425044, -0.10883038, -229797.72, 410721.72, 0.0, 10.002985, 9.99942 
1.5350905e+3, 2.4463774e+2, -182061.0, -630092.8, -92087.414, -0.11098107, -0.115354955, -163872.0, 378661.6, 0.0, 10.00358, 9.997646 
1.5351108e+3, 2.5463453e+2, -398810.6, -683642.56, -108581.18, 0.11679139, -0.20294283, -362139.5, 82427.31, 0.0, 10.001418, 9.997646 
1.535131e+3, 2.646323e+2, -253424.38, -564531.25, 60268.094, 0.112938695, -0.18253642, -242157.2, 104431.89, 0.0, 10.001753, 9.997629 
1.5351513e+3, 2.7463126e+2, 310296.4, -233291.17, 49067.996, -0.15820102, -0.06077988, 314690.13, 563288.94, 0.0000000056992433, 10.004916, 9.997707 
1.5351723e+3, 2.8462848e+2, 440503.03, -252396.48, -107325.86, -0.16563885, -0.048197687, 456746.38, 607372.8, 0.0000008469735, 10.005702, 9.996528 
1.535194e+3, 2.9462388e+2, 257129.75, -295956.3, -112875.4, 0.12725511, -0.16819672, 279278.72, 331952.06, 0.000008377712, 10.003793, 9.996475 
1.5352148e+3, 3.046196e+2, 281158.03, -413135.6, 40373.664, 0.07990699, -0.16638003, 283497.9, 283497.9, 0.000030456482, 10.004288, 9.9951 
1.535235e+3, 3.1461847e+2, 870283.7, 65878.87, -24425.338, -0.3222741, 0.19994706, 871024.7, 871024.7, 0.00007118392, 10.007495, 9.996846 
1.544844e+3, 1.2461416e+2, -2378561.3, -1769804.4, -5839.1606, -0.035495773, 0.19404672, -1769748.3, -50960.574, 0.019406972, 9.994304, 10.002366 
1.5448599e+3, 1.3461486e+2, -1804695.8, -1386555.9, -97228.414, -0.40251416, -0.030186523, -1365053.5, 255720.77, 0.0117135905, 9.997318, 10.002892 
1.5448828e+3, 1.4461754e+2, -1720490.8, -1515846.4, -19283.133, -0.1864416, 0.05259323, -1514045.3, 8699.761, 0.0052204016, 9.998182, 10.000895 
1.5449056e+3, 1.5461878e+2, -1851389.4, -1522186.1, -9049.676, -0.09745669, 0.08131319, -1521937.5, -97203.1, 0.0014059248, 9.996586, 10.000949 
1.5449265e+3, 1.6461927e+2, -1791249.4, -1474820.3, -107298.05, -0.09706594, 0.05370918, -1441868.1, -115139.016, 0.00014487762, 9.996464, 10.000658 
1.544945e+3, 1.746188e+2, -1448256.9, -1252153.9, -109578.82, -0.1564902, -0.06630596, -1203162.5, 25567.887, 0.000001197513, 9.998117, 10.000715 
1.5449652e+3, 1.8461867e+2, -1287113.5, -1234021.6, -26284.154, -0.14805493, -0.09757015, -1223210.6, -92479.91, 0.0, 9.999026, 9.999729 
1.5449871e+3, 1.9461904e+2, -1182820.6, -1129727.3, -6968.5405, -0.078038745, -0.037215378, -1128827.9, -96099.18, 0.0, 9.999054, 9.999759 
1.5450083e+3, 2.0461887e+2, -959605.56, -937759.06, -56044.84, -0.04145549, -0.040627304, -891582.9, 43146.44, 0.0, 9.99977, 10.000058 
1.5450285e+3, 2.1461809e+2, -631867.0, -721621.56, -94987.61, -0.040756144, -0.13400264, -571689.0, 265043.78, 0.0, 10.001315, 10.000126 
1.54505e+3, 2.2461765e+2, -594833.7, -769772.25, -33822.52, -0.027477358, -0.13297053, -588522.1, 150212.44, 0.0, 10.001402, 9.99908 
1.545073e+3, 2.3461771e+2, -723853.44, -778188.25, -56911.055, -0.0018126048, -0.040186185, -687957.9, -47223.957, 0.0, 9.999829, 9.999107 
1.5450938e+3, 2.4461603e+2, -576753.9, -803244.44, -197656.72, -0.015036194, -0.048789743, -462199.53, 80549.984, 0.0, 10.000801, 9.997793 
1.545112e+3, 2.5461245e+2, 92894.75, -429072.88, -183847.8, -0.07769449, -0.18879567, 151148.4, 595931.44, 0.0, 10.004724, 9.997802 
1.5451325e+3, 2.6460993e+2, 277112.4, -371353.7, -21832.938, -0.10551786, -0.18059471, 277846.66, 624655.06, 0.0, 10.005671, 9.997067 
1.545156e+3, 2.746086e+2, 17266.625, -441147.63, -47892.96, -0.09243043, -0.02551758, 22216.803, 271041.2, 0.0000000114322125, 10.00319, 9.997109 
1.5451778e+3, 2.8460592e+2, 69740.87, -412721.4, -199344.03, -0.038355675, 0.02277379, 141448.22, 292300.88, 0.000001096576, 10.003082, 9.996685 
1.5451981e+3, 2.946019e+2, 550002.44, -134205.0, -199674.64, 0.057304543, -0.054673705, 604011.0, 656904.2, 0.000007986738, 10.005724, 9.9966545 
1.5452194e+3, 3.0459747e+2, 520963.72, -341702.88, 23737.795, 0.015438122, -0.05928771, 521616.4, 521616.4, 0.000025036348, 10.006139, 9.994693 
1.5452424e+3, 3.1459394e+2, 346477.47, -207719.67, 85239.21, -0.14719938, 0.10877107, 359291.56, 359291.56, 0.00005538857, 10.003989, 9.996649 
1.5548384e+3, 1.2459087e+2, -2418666.3, -1847935.5, 101389.95, -0.021157747, 0.03870416, -1830458.8, -111447.39, 0.020587768, 9.994283, 10.001842 
1.5548575e+3, 1.3459308e+2, -1840377.1, -1469957.0, 16289.54, -0.38333103, 0.026641993, -1469242.1, 151744.92, 0.012455585, 9.997359, 10.002294 
1.554881e+3, 1.4459564e+2, -1696744.9, -1479654.8, -77928.23, -0.17859653, 0.1164682, -1454577.9, 68382.65, 0.0055746003, 9.998235, 10.001121 
1.5549015e+3, 1.5459545e+2, -1833183.5, -1485641.5, -70347.664, -0.17384098, -0.024810523, -1471942.1, -46979.605, 0.001515748, 9.996589, 10.001198 
1.554922e+3, 1.6459571e+2, -1790754.3, -1471498.5, -51405.04, -0.1767399, -0.087852076, -1463425.6, -136467.63, 0.00016035176, 9.996452, 10.000687 
1.5549432e+3, 1.7459643e+2, -1447012.6, -1250330.5, -45810.664, -0.13692588, -0.090855695, -1240183.9, -11237.164, 0.0000013687348, 9.998117, 10.000729 
1.5549648e+3, 1.8459655e+2, -1258750.3, -1174582.8, -24851.338, -0.083228625, -0.1167033, -1167792.9, -36849.637, 0.0, 9.999023, 10.000137 
1.5549867e+3, 1.9459613e+2, -1155950.9, -1070087.0, -5032.062, -0.027498277, -0.1797935, -1069793.1, -36845.324, 0.0, 9.999037, 10.000176 
1.5550074e+3, 2.0459585e+2, -1026062.9, -1072488.5, -2246.9475, -0.116970465, -0.16934788, -1025954.4, -91003.91, 0.0, 9.999754, 9.999144 
1.5550265e+3, 2.1459582e+2, -701370.6, -862913.1, -35196.664, -0.37060192, -0.091732, -694035.1, 142915.27, 0.0, 10.0013, 9.999165 
1.5550487e+3, 2.2459504e+2, -641303.7, -864983.9, -90258.266, -0.29699072, -0.044125963, -609426.1, 129532.89, 0.0, 10.001395, 9.998429 
1.5550745e+3, 2.3459351e+2, -768104.8, -872524.75, -113647.99, 0.1626335, -0.046442956, -695247.8, -54270.85, 0.0, 9.999838, 9.998456 
1.5550967e+3, 2.445916e+2, -540771.06, -726711.2, -57434.227, 0.19877559, -0.069670185, -524461.06, 18533.625, 0.0, 10.000792, 9.998323 
1.5551147e+3, 2.5458935e+2, 125482.914, -348784.44, -33231.01, -0.26213637, -0.13618943, 127800.03, 572811.6, 0.0, 10.004668, 9.998382 
1.5551361e+3, 2.6458648e+2, 221181.98, -474640.0, -105589.55, -0.31737757, -0.15887204, 236852.08, 583891.56, 0.0, 10.005611, 9.996389 
1.5551612e+3, 2.7458298e+2, -35217.844, -549766.56, -136552.56, 0.10602694, -0.14806803, -1224.8016, 247855.06, 0.00000002310075, 10.003185, 9.996367 
1.5551832e+3, 2.8458053e+2, 88727.35, -375463.7, -104832.09, 0.18748276, -0.050739665, 111304.36, 262412.1, 0.0000012192849, 10.003091, 9.996937 
1.5552019e+3, 2.9457957e+2, 565801.06, -92566.71, -95417.96, -0.13869217, 0.14676288, 579351.2, 632469.94, 0.0000067295173, 10.005687, 9.996959 
1.555224e+3, 3.0457523e+2, 598398.6, -176632.58, -48363.734, -0.1283143, 0.084830545, 601405.0, 601405.0, 0.00001920018, 10.006114, 9.995843 
1.5552509e+3, 3.1456655e+2, 436315.44, -28698.807, 14857.652, 0.29653925, -0.37972838, 436789.66, 436789.66, 0.000043675638, 10.004015, 9.99787 
1.5648335e+3, 1.2456735e+2, -2013790.3, -1667901.9, 80666.85, -0.07609109, -0.07894038, -1650014.1, 69220.73, 0.021849003, 9.997114, 10.001724 
1.5648542e+3, 1.3456985e+2, -2184080.5, -1661558.9, 18465.225, -0.32086086, -0.037161954, -1660907.3, -39696.945, 0.013250772, 9.995121, 10.002049 
1.5648785e+3, 1.4457232e+2, -2150204.0, -1672593.9, -68413.43, -0.09120401, 0.04579548, -1662987.5, -139801.4, 0.0059556314, 9.995017, 10.001346 
1.5648979e+3, 1.545724e+2, -1709252.8, -1398811.5, -65457.65, -0.2301573, -0.09136775, -1385573.9, 39611.313, 0.0016345053, 9.997325, 10.001437 
1.5649186e+3, 1.6457301e+2, -1474544.6, -1299090.8, -21647.768, -0.2616474, -0.14073075, -1296459.4, 30718.008, 0.00017771397, 9.998538, 10.000863 
1.5649417e+3, 1.7457417e+2, -1387389.3, -1201128.5, -6254.0986, -0.113340676, -0.11711124, -1200918.6, 28242.904, 0.0000016137079, 9.998442, 10.000909 
1.564964e+3, 1.8457435e+2, -1328045.8, -1240671.0, -17838.768, -0.034756243, -0.13326561, -1237169.3, -106011.336, 0.0, 9.998689, 9.9998455 
1.5649857e+3, 1.9457354e+2, -1129066.3, -1092386.5, -57604.934, -0.054419376, -0.20491827, -1050272.4, -17105.123, 0.0, 9.999374, 9.999861 
1.565007e+3, 2.0457311e+2, -980567.4, -1065888.8, -22003.105, -0.15055808, -0.1860207, -975227.3, -40055.133, 0.0, 10.000133, 9.999004 
1.5650281e+3, 2.1457323e+2, -755515.25, -902714.1, 5098.2227, -0.33170444, -0.07949795, -755338.9, 81832.414, 0.0, 10.00099, 9.999039 
1.5650505e+3, 2.2457215e+2, -601762.44, -891150.2, -61782.465, -0.2797132, -0.03580885, -589124.25, 150059.23, 0.0, 10.001862, 9.998025 
1.5650745e+3, 2.3456976e+2, -375026.2, -729250.6, -74775.195, 0.042932905, -0.08219616, -359888.4, 281321.88, 0.0, 10.002738, 9.998042 
1.5650973e+3, 2.4456772e+2, -256479.2, -584298.8, 38626.098, 0.09430647, -0.09973122, -251989.48, 291240.3, 0.0, 10.002719, 9.998374 
1.5651187e+3, 2.545662e+2, -305274.53, -547020.6, 25732.805, -0.17076094, -0.10044223, -302565.75, 142674.16, 0.0, 10.00167, 9.998462 
1.565141e+3, 2.6456356e+2, -309403.4, -704005.7, -95424.55, -0.19285476, -0.114419095, -287538.88, 59725.938, 0.0, 10.001856, 9.996621 
1.565164e+3, 2.7455968e+2, 25154.055, -494716.2, -61862.594, 0.06544143, -0.1668274, 32414.082, 281721.38, 0.000000052386362, 10.00349, 9.996598 
1.5651861e+3, 2.845567e+2, 277858.5, -324986.34, 54666.332, 0.098799676, -0.117155164, 282775.56, 434115.6, 0.0000012138571, 10.004566, 9.996573 
1.5652072e+3, 2.9455513e+2, 439819.16, -195972.06, 13080.363, -0.1311738, 0.057004347, 440088.13, 493446.78, 0.00000516258, 10.005004, 9.996576 
1.5652302e+3, 3.045518e+2, 547860.94, -109560.914, -57668.766, -0.081198804, 0.07664722, 552881.25, 552881.25, 0.000014773419, 10.005373, 9.99666 
1.5652555e+3, 3.1454462e+2, 724294.3, 185628.69, -22805.342, 0.2800031, -0.3250506, 725258.06, 725258.06, 0.00003843303, 10.0056715, 9.998546 
1.574829e+3, 1.24543674e+2, -1981047.8, -1617330.3, -3346.7441, -0.23376016, -0.15545522, -1617299.4, 102158.06, 0.023204513, 9.997184, 10.002045 
1.5748502e+3, 1.3454516e+2, -2178446.3, -1646718.3, -61383.137, -0.22501037, -0.2256204, -1639724.1, -18280.354, 0.014108494, 9.995106, 10.00216 
1.5748753e+3, 1.4454758e+2, -2138584.5, -1644281.5, 9607.274, 0.06904004, -0.16343687, -1644094.9, -120673.45, 0.0063687824, 9.994994, 10.001554 
1.5748948e+3, 1.5454972e+2, -1692067.8, -1367524.6, 24442.25, -0.276049, -0.11623145, -1365694.1, 59707.914, 0.00176415, 9.99734, 10.001647 
1.5749161e+3, 1.6455127e+2, -1446917.6, -1247875.3, -23751.69, -0.3676605, -0.098976955, -1245080.3, 82305.87, 0.00019721544, 9.998564, 10.001204 
1.5749402e+3, 1.7455208e+2, -1364277.1, -1153089.8, -9547.782, -0.096218616, -0.14496954, -1152659.0, 76715.86, 0.0000019795527, 9.998441, 10.00124 
1.5749632e+3, 1.8455206e+2, -1399491.9, -1387379.5, 5238.977, -0.013167704, -0.14920764, -1385428.0, -254053.1, 0.0, 9.99868, 9.998843 
1.5749837e+3, 1.9455124e+2, -1204763.0, -1248846.1, -30281.133, -0.17466569, -0.11427599, -1189350.9, -155963.89, 0.0, 9.999369, 9.998791 
1.575007e+3, 2.0455061e+2, -938877.75, -976612.7, 8203.534, -0.16448562, -0.08947698, -937171.5, -1777.0953, 0.0, 10.00012, 9.999623 
1.5750329e+3, 2.145503e+2, -711336.25, -804924.0, 38847.86, 0.06016542, -0.09483127, -697312.2, 140083.22, 0.0, 10.000963, 9.999723 
1.5750553e+3, 2.2454895e+2, -618320.6, -917739.25, -30083.96, 0.013697092, -0.10729741, -615327.9, 124080.33, 0.0, 10.001826, 9.997861 
1.5750732e+3, 2.3454642e+2, -393166.5, -761429.1, -39833.207, -0.36170578, -0.14686067, -388907.2, 252527.23, 0.0, 10.002712, 9.997835 
1.5750957e+3, 2.4454436e+2, -286235.8, -642430.9, 1084.7899, -0.33751658, -0.13625565, -286232.5, 257222.64, 0.0, 10.002703, 9.997982 
1.575124e+3, 2.5454304e+2, -334244.56, -606152.25, -11526.505, 0.16927865, -0.07832151, -333756.8, 111711.15, 0.0, 10.001664, 9.998057 
1.5751472e+3, 2.6454112e+2, -232839.84, -547452.6, -38207.258, 0.24351351, -0.05211504, -228266.36, 119219.195, 0.0, 10.001863, 9.997695 
1.5751648e+3, 2.745385e+2, 105508.016, -328290.6, 800.3616, -0.20914213, -0.09243797, 105509.49, 355018.78, 0.00000008781505, 10.003491, 9.997742 
1.5751867e+3, 2.8453434e+2, 211939.98, -463796.88, 70689.664, -0.30153418, -0.1737281, 219255.72, 370807.03, 0.0000012112266, 10.004569, 9.995621 
1.5752141e+3, 2.9452878e+2, 363674.9, -349885.66, 32450.45, 0.046047535, -0.29237258, 365147.6, 418759.3, 0.000004565755, 10.004981, 9.995532 
1.5752378e+3, 3.0452722e+2, 582550.7, -33491.67, -46910.992, 0.12968075, -0.07037695, 586102.44, 586102.44, 0.000013750303, 10.005356, 9.997191 
1.5752566e+3, 3.1452757e+2, 735243.56, 208919.67, -8701.235, -0.17524727, 0.22352642, 735387.4, 735387.4, 0.000040751034, 10.00567, 9.998707 
1.5848257e+3, 1.24520265e+2, -2271331.5, -1769323.4, 30066.986, -0.19363669, -0.25467405, -1767529.0, -47849.645, 0.024665277, 9.995263, 10.001907 
1.5848456e+3, 1.3452195e+2, -1983275.5, -1597882.3, -75469.27, -0.26233497, -0.26747283, -1583630.6, 38036.51, 0.0150364665, 9.996639, 10.001755 
1.584871e+3, 1.4452414e+2, -1836367.8, -1476877.8, 20293.535, 0.05210384, -0.21544574, -1475735.8, 47912.06, 0.0068181083, 9.996977, 10.001745 
1.5848923e+3, 1.5452652e+2, -1840630.4, -1415253.0, 34237.605, -0.20481767, -0.16421415, -1412514.9, 13109.26, 0.0019058621, 9.996221, 10.001858 
1.5849145e+3, 1.6452827e+2, -1764990.3, -1434967.3, -37061.47, -0.2849252, -0.12563679, -1430856.5, -103248.875, 0.0002187055, 9.996531, 10.000897 
1.5849386e+3, 1.7452915e+2, -1431026.9, -1222798.3, -78331.305, -0.09513079, -0.12799127, -1196622.1, 32977.92, 0.000002466339, 9.998148, 10.000901 
1.5849619e+3, 1.8452927e+2, -1293495.5, -1309238.9, -47045.977, -0.038444404, -0.11266104, -1253667.3, -122066.984, 0.0, 9.99929, 9.999085 
1.5849835e+3, 1.9452862e+2, -1112548.1, -1173095.0, 15405.582, -0.1615319, -0.086642615, -1108853.8, -75245.78, 0.0, 9.999869, 9.999067 
1.5850073e+3, 2.0452777e+2, -1009224.3, -1046430.2, 52995.914, -0.11285553, -0.08358374, -971661.1, -36044.508, 0.0, 9.999795, 9.999301 
1.5850337e+3, 2.1452674e+2, -1031877.4, -999678.7, 657.5421, 0.14877464, -0.12598068, -999665.25, -162039.4, 0.0, 9.998936, 9.999364 
1.5850568e+3, 2.2452526e+2, -930040.6, -1029674.2, -28690.563, 0.101153225, -0.14982668, -922369.5, -182729.97, 0.0, 9.999523, 9.998199 
1.5850759e+3, 2.3452328e+2, -486041.97, -764063.25, 2932.558, -0.31787005, -0.16878511, -486011.03, 155646.6, 0.0, 10.001896, 9.998207 
1.5850987e+3, 2.4452128e+2, -272770.1, -695863.94, -20052.533, -0.3321426, -0.14806618, -271821.84, 271856.38, 0.0, 10.003057, 9.997444 
1.5851258e+3, 2.545193e+2, -219069.22, -616962.9, -53868.855, 0.13423201, -0.094383664, -211905.17, 233795.61, 0.0, 10.00274, 9.997467 
1.5851493e+3, 2.6451728e+2, -42072.145, -447509.94, -42266.863, 0.19383958, -0.05343715, -37712.7, 310008.34, 0.0, 10.003143, 9.997761 
1.5851684e+3, 2.7451506e+2, 254525.05, -245869.84, -78669.766, -0.23522852, -0.05587405, 266601.7, 516340.5, 0.00000010740161, 10.004472, 9.997834 
1.5851913e+3, 2.845111e+2, 298864.1, -395269.8, -56321.086, -0.30943695, -0.13873832, 303404.22, 455181.88, 0.0000012037852, 10.005056, 9.995855 
1.5852188e+3, 2.9450527e+2, 345480.47, -330388.8, -9991.661, 0.039848354, -0.3038446, 345628.16, 399466.06, 0.000004863177, 10.004738, 9.995781 
1.585243e+3, 3.0450332e+2, 517941.88, -173042.61, -51475.664, 0.12680501, -0.08972071, 521755.6, 521755.6, 0.00001558343, 10.005379, 9.996221 
1.5852629e+3, 3.1450298e+2, 848671.6, 103118.38, -136210.0, -0.19706097, 0.24016097, 872777.3, 872777.3, 0.000048254722, 10.007138, 9.9972725 
1.5948233e+3, 1.2449743e+2, -2318000.8, -1866593.9, 82311.266, 0.042986616, -0.36444655, -1852053.3, -132155.36, 0.026239868, 9.995263, 10.001242 
1.5948406e+3, 1.3450037e+2, -2045602.5, -1736039.9, -22626.557, -0.44948894, -0.15420714, -1734394.8, -112516.2, 0.016040104, 9.996677, 10.000786 
1.5948658e+3, 1.4450213e+2, -1819622.6, -1452281.6, -10050.876, -0.16789812, -0.10130634, -1452006.9, 71856.984, 0.0073062, 9.997018, 10.001897 
1.5948902e+3, 1.5450285e+2, -1827323.0, -1386766.0, 5372.702, -0.024540996, -0.23583782, -1386700.5, 39150.703, 0.002060233, 9.996216, 10.002056 
1.5949138e+3, 1.6450396e+2, -1835391.5, -1579516.4, 18854.48, -0.018248847, -0.22263621, -1578134.5, -250292.81, 0.00024185247, 9.996522, 9.999911 
1.5949365e+3, 1.7450541e+2, -1504562.1, -1376997.3, -15847.421, -0.12455109, -0.06591287, -1375058.0, -145220.61, 0.0000030340082, 9.998151, 9.999843 
1.5949602e+3, 1.8450601e+2, -1188119.9, -1090774.8, -25587.56, -0.12906793, -0.01959712, -1084458.8, 47375.29, 0.0, 9.99929, 10.0005865 
1.5949847e+3, 1.9450572e+2, -999850.1, -937285.5, 38585.3, -0.02362139, -0.11932103, -918894.8, 114935.164, 0.0, 9.999859, 10.000692 
1.5950084e+3, 2.045046e+2, -1098421.3, -1229808.8, 21497.525, -0.0026284845, -0.16976649, -1094993.3, -159154.39, 0.0, 9.999786, 9.998047 
1.5950304e+3, 2.1450253e+2, -1131133.8, -1203958.6, -29477.85, -0.07809693, -0.17536312, -1120697.4, -282834.66, 0.0, 9.998928, 9.997966 
1.5950549e+3, 2.2450106e+2, -874211.25, -913024.0, 53701.902, -0.037610844, -0.16299821, -836516.8, -96639.445, 0.0, 9.999517, 9.999004 
1.5950824e+3, 2.3450035e+2, -426258.3, -632703.0, 94977.8, 0.14445367, -0.14856352, -389210.78, 252669.34, 0.0, 10.001863, 9.999126 
1.5951058e+3, 2.444984e+2, -328501.2, -800178.9, -27671.86, 0.0879449, -0.1371141, -326883.3, 217016.25, 0.0, 10.003006, 9.996754 
1.5951245e+3, 2.5449502e+2, -274857.5, -730921.44, -62425.613, -0.26392183, -0.14457755, -266467.13, 179471.23, 0.0, 10.002732, 9.996689 
1.5951471e+3, 2.6449206e+2, -102446.336, -577588.4, 5499.106, -0.332526, -0.11063841, -102382.695, 245587.75, 0.0, 10.003158, 9.996862 
1.5951748e+3, 2.7448964e+2, 186042.02, -380512.06, -22749.463, -0.048012156, -0.049524993, 186954.03, 436948.25, 0.00000010154483, 10.004436, 9.996928 
1.5952e+3, 2.8448698e+2, 384139.47, -207443.88, -63375.477, 0.032728087, -0.016842443, 390852.63, 542871.4, 0.0000011515594, 10.005011, 9.997167 
1.5952216e+3, 2.9448423e+2, 444689.44, -124332.18, -18937.11, -0.14244196, -0.014779708, 445319.0, 499360.25, 0.000005313984, 10.004738, 9.997197 
1.5952463e+3, 3.0447996e+2, 353324.3, -514956.94, 11971.191, -0.08765214, 0.0042665503, 353489.34, 353489.34, 0.000018497287, 10.005376, 9.993875 
1.5952733e+3, 3.1447178e+2, 629379.56, -329027.25, -61671.223, 0.141927, -0.19460957, 633331.7, 633331.7, 0.000057169265, 10.007033, 9.994356 
1.6048181e+3, 1.2447486e+2, -2282980.0, -1843813.9, 40677.707, -0.015648551, -0.33474234, -1840077.9, -119959.48, 0.027939666, 9.995481, 10.00129 
1.6048367e+3, 1.344772e+2, -2189846.8, -1827089.9, -17280.297, -0.45627466, -0.16330665, -1826268.5, -204164.86, 0.01712635, 9.995783, 10.000593 
1.6048627e+3, 1.4447841e+2, -1932697.1, -1530518.9, -10260.119, -0.14246652, -0.14739288, -1530257.3, -6163.241, 0.007836914, 9.996354, 10.001673 
1.604887e+3, 1.5447919e+2, -1667225.3, -1337052.4, -32212.957, -0.026603775, -0.2524418, -1333938.9, 92142.35, 0.0022287087, 9.997437, 10.001806 
1.604911e+3, 1.644801e+2, -1647959.0, -1508187.5, 13910.792, -0.0154110445, -0.23631492, -1506816.4, -178742.33, 0.00026665046, 9.997893, 9.999737 
1.6049348e+3, 1.7448111e+2, -1596443.6, -1438395.8, 43958.01, -0.07810482, -0.10601203, -1426992.5, -196917.7, 0.0000036433328, 9.9976015, 9.999682 
1.6049592e+3, 1.8448189e+2, -1356783.3, -1113509.0, 41296.58, -0.07360554, -0.058655836, -1106690.0, 25379.66, 0.0, 9.997885, 10.001104 
1.6049843e+3, 1.944825e+2, -1105050.0, -926553.06, 21252.803, -0.005692268, -0.12301852, -924057.5, 109998.555, 0.0, 9.998875, 10.001239 
1.6050081e+3, 2.0448169e+2, -993584.25, -1174627.3, 9288.633, -0.034570377, -0.17270145, -993108.94, -57047.867, 0.0, 10.000486, 9.998088 
1.6050304e+3, 2.1447922e+2, -556026.94, -924773.1, 59819.184, -0.17172813, -0.22017387, -546565.6, 291522.03, 0.0, 10.002871, 9.997981 
1.6050556e+3, 2.2447757e+2, -377261.28, -711008.25, 131487.94, -0.09466912, -0.20911862, -331682.78, 408421.28, 0.0, 10.003095, 9.998669 
1.6050845e+3, 2.34477e+2, -623206.25, -767921.4, 71935.19, 0.23570885, -0.14572221, -593533.0, 48574.418, 0.0, 10.000686, 9.998765 
1.6051087e+3, 2.4447492e+2, -675815.75, -964900.8, -24650.174, 0.19284499, -0.13035826, -673728.9, -129600.51, 0.0, 10.00061, 9.996775 
1.605127e+3, 2.5447106e+2, -172556.05, -676159.44, -1280.7433, -0.30538747, -0.18892501, -172552.8, 273616.88, 0.0, 10.003415, 9.996733 
1.6051503e+3, 2.6446775e+2, 84433.445, -523546.47, 81578.74, -0.40587816, -0.17988051, 95189.4, 443394.3, 0.0, 10.004602, 9.996536 
1.6051792e+3, 2.7446505e+2, 69968.22, -473821.16, 86282.195, -0.022794321, -0.110865586, 83330.15, 333562.72, 0.000000086948106, 10.003802, 9.99659 
1.6052046e+3, 2.8446242e+2, 204840.88, -334848.06, 25986.402, 0.07284597, -0.037225176, 206089.25, 358346.84, 0.0000011386066, 10.003957, 9.996798 
1.6052262e+3, 2.9446012e+2, 502534.03, -135186.58, -60197.848, -0.18202657, 0.0433986, 508166.66, 562443.5, 0.0000058838336, 10.005306, 9.996846 
1.6052514e+3, 3.0445498e+2, 444605.25, -417279.0, -460.7451, -0.1233423, -0.029238641, 444605.5, 444605.5, 0.000021930438, 10.005774, 9.994355 
1.6052799e+3, 3.144457e+2, 378219.9, -400958.97, 125317.45, 0.20341787, -0.3877205, 397879.03, 397879.03, 0.00006534713, 10.005106, 9.994784 
1.6148096e+3, 1.24452695e+2, -2223400.8, -1727788.0, 50330.973, -0.42160133, -0.15607366, -1722728.4, -2388.1948, 0.02978273, 9.995511, 10.002073 
1.614834e+3, 1.3445249e+2, -2145431.3, -1736772.3, -7669.563, -0.28563586, -0.2999188, -1736628.4, -114286.21, 0.018308382, 9.995786, 10.001213 
1.6148618e+3, 1.4445296e+2, -1977011.9, -1625042.9, 26379.229, 0.13098647, -0.36077306, -1623076.9, -98738.664, 0.008418617, 9.996363, 10.00102 
1.6148825e+3, 1.5445554e+2, -1716771.5, -1444606.5, 10346.483, -0.22841981, -0.21184874, -1444213.6, -17899.748, 0.0024150687, 9.997457, 10.001058 
1.6149059e+3, 1.6445674e+2, -1597508.6, -1410409.1, 2764.9043, -0.3038608, -0.15919524, -1410368.3, -82064.2, 0.0002938315, 9.997919, 10.000396 
1.6149335e+3, 1.7445627e+2, -1543792.3, -1331006.0, 34029.945, 0.034696896, -0.25129867, -1325696.3, -95384.4, 0.000004294035, 9.997604, 10.00042 
1.6149591e+3, 1.8445688e+2, -1392139.3, -1184180.3, 75385.4, 0.120005876, -0.23504433, -1159728.1, -27420.9, 0.0, 9.997873, 10.000625 
1.6149819e+3, 1.9445898e+2, -1145970.5, -1008909.8, 60569.53, -0.12576088, -0.098523065, -985979.4, 48306.895, 0.0, 9.998862, 10.000679 
1.6150066e+3, 2.0445907e+2, -904906.7, -986700.9, 93933.086, -0.22980644, -0.08856009, -843353.8, 92929.2, 0.0, 10.000468, 9.999387 
1.6150334e+3, 2.144568e+2, -462730.3, -723272.25, 150702.39, -0.14668414, -0.2560831, -393798.53, 444502.2, 0.0, 10.002836, 9.999381 
1.6150588e+3, 2.244548e+2, -484526.9, -926737.44, 47142.96, -0.081448115, -0.28507146, -479556.97, 260762.89, 0.0, 10.003061, 9.997205 
1.6150823e+3, 2.3445325e+2, -734938.4, -1002293.44, -17090.2, -0.04565848, -0.1584617, -733850.3, -91510.76, 0.0, 10.000695, 9.997151 
1.6151072e+3, 2.4445081e+2, -624720.4, -864314.94, 69458.57, -0.026558291, -0.1250548, -606040.7, -61675.992, 0.0, 10.00063, 9.9974575 
1.6151333e+3, 2.544474e+2, -120973.38, -561060.3, 106522.18, -0.024311548, -0.2247132, -96545.78, 349849.63, 0.0, 10.003378, 9.997542 
1.6151583e+3, 2.644441e+2, 89911.94, -499768.03, 56867.215, -0.06076531, -0.26086867, 95345.984, 443772.13, 0.0, 10.004546, 9.996728 
1.6151817e+3, 2.744411e+2, 78919.62, -452670.6, 57485.176, -0.15595628, -0.23986216, 85064.914, 335521.4, 0.000000090462294, 10.003791, 9.996742 
1.6152062e+3, 2.8443742e+2, 73617.2, -611478.3, 70862.59, -0.18242791, -0.18886966, 80870.06, 233365.36, 0.0000013148745, 10.00397, 9.994893 
1.6152322e+3, 2.9443315e+2, 355951.75, -433059.6, -3144.5332, -0.112669915, -0.1037963, 355964.28, 410506.53, 0.000006679991, 10.005272, 9.994819 
1.6152583e+3, 3.0442837e+2, 649882.6, 17478.795, -20120.408, -0.014092058, -0.17343852, 650522.1, 650522.1, 0.000024801853, 10.005743, 9.997354 
1.615283e+3, 3.1442398e+2, 617099.56, 97172.53, 94912.55, -0.003359982, -0.37388542, 633884.0, 633884.0, 0.000069834154, 10.005104, 9.998205 
1.624805e+3, 1.2442852e+2, -1996620.4, -1567109.5, -13235.716, -0.48427114, -0.092715465, -1566702.0, 153878.77, 0.03179242, 9.996823, 10.002575 
1.6248302e+3, 1.3442841e+2, -2107284.8, -1673434.0, -103545.97, -0.25770763, -0.26758048, -1649988.1, -27409.078, 0.019603958, 9.995858, 10.00161 
1.6248584e+3, 1.4442877e+2, -2096652.1, -1683180.1, -8748.203, 0.20022658, -0.3564041, -1682995.1, -158420.25, 0.009062119, 9.995547, 10.001012 
1.6248797e+3, 1.5443137e+2, -1896984.4, -1534684.4, 28586.941, -0.17666507, -0.20327745, -1532442.6, -105890.61, 0.002624408, 9.99624, 10.001023 
1.6249035e+3, 1.644326e+2, -1693742.3, -1398546.5, 25574.85, -0.2817753, -0.16962294, -1396347.1, -67806.88, 0.00032476612, 9.997015, 10.000912 
1.624931e+3, 1.7443222e+2, -1460467.1, -1229845.6, 37102.773, 0.0031290257, -0.30663937, -1224023.5, 6518.711, 0.000005034694, 9.997918, 10.000961 
1.6249569e+3, 1.8443263e+2, -1319366.0, -1234783.3, 82262.28, 0.07341948, -0.30379653, -1184577.9, -52038.934, 0.0, 9.998743, 9.999858 
1.624981e+3, 1.9443414e+2, -1116392.4, -1086881.8, 43149.445, -0.1376505, -0.13987128, -1056034.5, -21506.451, 0.0, 9.999469, 9.999849 
1.6250068e+3, 2.044343e+2, -1022549.3, -1011243.0, 30369.908, -0.20359707, -0.093012065, -986004.56, -49478.402, 0.0, 9.999523, 9.999673 
1.6250348e+3, 2.1443288e+2, -1037747.44, -962391.75, 4687.945, -0.083435744, -0.21130261, -962101.25, -123566.36, 0.0, 9.998723, 9.999722 
1.6250606e+3, 2.2443092e+2, -955935.3, -1168804.5, -95542.8, -0.060161073, -0.24563009, -919342.8, -178789.81, 0.0, 9.999891, 9.997067 
1.6250834e+3, 2.3442845e+2, -335137.16, -829672.75, -58182.496, -0.16322292, -0.19159621, -328384.16, 314197.53, 0.0, 10.00353, 9.996971 
1.6251086e+3, 2.4442576e+2, -25215.979, -549099.2, 59645.586, -0.14038657, -0.18374935, -18510.975, 526097.44, 0.0, 10.00464, 9.997688 
1.6251369e+3, 2.544229e+2, -214209.22, -577768.06, 50628.69, 0.033525907, -0.25100642, -207290.42, 239341.27, 0.0, 10.002617, 9.997792 
1.6251628e+3, 2.6441994e+2, -254971.8, -671393.5, -20732.158, 0.056025352, -0.26841334, -253942.16, 94716.79, 0.0, 10.002204, 9.996675 
1.6251858e+3, 2.7441683e+2, 75861.85, -462388.4, -40214.438, -0.112901956, -0.24635735, 78849.82, 329540.6, 0.000000098877585, 10.003807, 9.996665 
1.6252106e+3, 2.8441265e+2, 199791.47, -552316.56, 43506.234, -0.16416171, -0.23993044, 202299.77, 355034.5, 0.0000015842691, 10.004847, 9.994877 
1.6252379e+3, 2.9440737e+2, 341667.47, -439790.03, 106269.86, -0.06600959, -0.25620276, 355861.22, 410652.6, 0.0000075102116, 10.005176, 9.994818 
1.625264e+3, 3.0440304e+2, 659073.5, 55188.77, 54028.684, -0.011578009, -0.2962629, 663869.3, 663869.3, 0.00002601203, 10.005656, 9.997657 
1.625288e+3, 3.1440187e+2, 837707.06, 269303.7, -49989.094, -0.083189316, -0.20942609, 842069.94, 842069.94, 0.00006880641, 10.006326, 9.998805 
1.6348048e+3, 1.2440239e+2, -1976203.3, -1538709.9, -45053.8, -0.20029007, -0.1445238, -1534118.3, 186721.03, 0.03398967, 9.996876, 10.002754 
1.6348247e+3, 1.34405e+2, -2096323.4, -1655693.6, -142754.56, -0.38999498, -0.058774456, -1613487.1, 9326.595, 0.02102759, 9.995876, 10.001724 
1.6348523e+3, 1.44406e+2, -2049433.9, -1585919.5, 9149.174, 0.032872766, -0.12186577, -1585739.0, -60935.9, 0.009775217, 9.995548, 10.00168 
1.634879e+3, 1.5440671e+2, -1849229.8, -1435739.3, 56947.03, 0.12459263, -0.22648723, -1428039.8, -1244.7327, 0.002860367, 9.996236, 10.001706 
1.634904e+3, 1.6440769e+2, -1668022.4, -1347198.1, 57525.305, 0.05126621, -0.271326, -1337195.5, -8412.771, 0.00036087315, 9.997021, 10.001261 
1.634927e+3, 1.74409e+2, -1438218.3, -1184915.0, 72378.87, -0.18737052, -0.271293, -1165692.3, 65073.453, 0.000005927034, 9.997921, 10.001269 
1.6349526e+3, 1.8440917e+2, -1393230.0, -1387095.9, 108601.75, -0.2375788, -0.2595956, -1281517.9, -148753.48, 0.0, 9.998738, 9.998816 
1.6349813e+3, 1.9440803e+2, -1196319.3, -1252887.5, 72675.836, -0.055532258, -0.24751388, -1146617.6, -111836.37, 0.0, 9.999466, 9.9987135 
1.6350086e+3, 2.0440738e+2, -1075025.3, -1116709.5, 1817.8569, 0.03194995, -0.18923861, -1074946.1, -138155.25, 0.0, 9.999509, 9.998956 
1.6350344e+3, 2.1440743e+2, -1087575.9, -1064109.1, -22526.191, 0.0037849946, -0.08998919, -1050443.6, -211653.66, 0.0, 9.998715, 9.999027 
1.6350606e+3, 2.2440593e+2, -881093.3, -1010560.1, 31407.154, -0.050691567, -0.09267756, -873876.56, -133073.23, 0.0, 9.999876, 9.998162 
1.6350871e+3, 2.3440261e+2, -258466.28, -658755.4, 81466.75, -0.13577528, -0.24389079, -242521.33, 400312.47, 0.0, 10.003478, 9.998169 
1.635113e+3, 2.4439979e+2, -48445.47, -585103.06, -5695.871, -0.16548221, -0.30387548, -48385.02, 496474.5, 0.0, 10.004582, 9.997471 
1.6351378e+3, 2.543977e+2, -234880.28, -620933.1, -23248.47, -0.13206661, -0.2650726, -233485.27, 213392.8, 0.0, 10.002617, 9.997497 
1.6351639e+3, 2.6439524e+2, -271362.28, -713078.7, 31273.322, -0.057237953, -0.2013915, -269159.13, 79743.54, 0.0, 10.002233, 9.996377 
1.6351916e+3, 2.743923e+2, 52928.395, -507653.63, 23511.246, 0.07560558, -0.13474312, 53912.746, 304847.78, 0.00000006785886, 10.003795, 9.996363 
1.6352181e+3, 2.8438807e+2, 315449.78, -306911.44, 57279.16, 0.09097549, -0.19701008, 320677.6, 473654.44, 0.0000016180993, 10.004823, 9.996574 
1.6352433e+3, 2.9438254e+2, 466985.9, -177395.77, 118953.31, -0.055168003, -0.41907206, 488243.5, 543270.94, 0.000007976393, 10.005164, 9.996627 
1.6352686e+3, 3.0437875e+2, 510072.63, -251649.4, 73330.37, -0.12211821, -0.39958104, 517067.84, 517067.84, 0.000026042768, 10.005645, 9.995554 
1.6352943e+3, 3.143791e+2, 697073.2, -12062.74, -21392.357, -0.08156927, 0.07472554, 697717.94, 697717.94, 0.000064353546, 10.006282, 9.996891 
1.6448013e+3, 1.24375686e+2, -2498263.5, -1782247.3, -16838.707, -0.044861782, -0.24714425, -1781851.4, -60751.99, 0.036383986, 9.993299, 10.002762 
1.6448201e+3, 1.3437931e+2, -2190113.3, -1698625.6, -141457.73, -0.39630932, -0.057402406, -1660820.0, -37753.66, 0.022584815, 9.995232, 10.001737 
1.6448475e+3, 1.44381e+2, -1908847.6, -1479405.8, -3563.9844, -0.030455109, -0.07147243, -1479376.3, 45673.79, 0.010560797, 9.996345, 10.002031 
1.6448757e+3, 1.5438169e+2, -1785360.9, -1365276.1, 15785.986, 0.16421223, -0.21063034, -1364683.8, 62356.426, 0.0031241647, 9.996506, 10.002061 
1.6449018e+3, 1.6438276e+2, -1670646.1, -1367463.4, 8205.169, 0.1346391, -0.2587637, -1367241.4, -38214.746, 0.0004029895, 9.997085, 10.001092 
1.6449255e+3, 1.7438425e+2, -1409232.5, -1191805.4, -18855.625, -0.13880455, -0.21891956, -1190182.4, 40826.227, 0.0000070009137, 9.998213, 10.00108 
1.6449516e+3, 1.8438423e+2, -1373013.4, -1369036.4, 16353.583, -0.20576099, -0.21934482, -1354550.9, -221542.39, 0.0, 9.998845, 9.998886 
1.6449808e+3, 1.943824e+2, -1279729.1, -1282540.0, 67186.305, -0.024837907, -0.28432646, -1213933.6, -178903.84, 0.0, 9.998853, 9.998803 
1.6450082e+3, 2.0438123e+2, -1077653.4, -1151702.4, 67116.766, 0.030335505, -0.26814008, -1038026.25, -100982.83, 0.0, 9.999635, 9.998656 
1.6450337e+3, 2.1438098e+2, -721497.75, -922923.94, 65884.58, -0.06759969, -0.1671382, -701861.75, 137184.64, 0.0, 10.001383, 9.99871 
1.645061e+3, 2.2437951e+2, -576991.0, -838633.4, 133968.38, -0.093345106, -0.16248412, -520564.47, 220495.45, 0.0, 10.001857, 9.998388 
1.6450903e+3, 2.3437656e+2, -638949.06, -814294.8, 111936.695, -0.02739962, -0.3010411, -584437.7, 58648.496, 0.0, 10.000743, 9.99842 
1.6451171e+3, 2.4437414e+2, -563350.4, -844609.06, -42643.1, -0.03193454, -0.32962736, -557027.2, -11918.319, 0.0, 10.001097, 9.997366 
1.6451408e+3, 2.5437248e+2, -140428.25, -592082.1, -55402.035, -0.13646945, -0.2347623, -133731.66, 313394.1, 0.0, 10.003335, 9.997351 
1.6451666e+3, 2.6436993e+2, 45273.656, -575844.5, 29901.924, -0.11441474, -0.16517833, 46709.88, 395862.16, 0.0, 10.004474, 9.996241 
1.6451955e+3, 2.7436626e+2, 107397.836, -496984.6, 30120.545, 0.071974054, -0.15634973, 108895.234, 360086.28, 0.000000016190345, 10.004235, 9.9962225 
1.6452229e+3, 2.8436223e+2, 302625.72, -260383.56, 32461.97, 0.11366358, -0.21550053, 304491.22, 457721.47, 0.0000014563914, 10.004509, 9.997044 
1.6452487e+3, 2.9435807e+2, 537188.94, -85298.79, -2403.7524, -0.039990924, -0.34919015, 537198.25, 592464.2, 0.000008037522, 10.005401, 9.997142 
1.6452743e+3, 3.0435455e+2, 530285.75, -316008.8, -44627.85, -0.1277178, -0.29821658, 532632.6, 532632.6, 0.000025833177, 10.006104, 9.994889 
1.6453008e+3, 3.143529e+2, 710943.56, -58783.902, -34298.53, -0.05593894, 0.04938249, 712468.9, 712468.9, 0.000060087565, 10.006606, 9.996414 
1.6547944e+3, 1.2434857e+2, -2515419.3, -1810048.5, 63857.836, -0.07314342, -0.39004317, -1804314.0, -82955.055, 0.03897044, 9.99326, 10.002591 
1.6548167e+3, 1.3435133e+2, -2200085.5, -1720477.0, -65558.21, -0.27871752, -0.27468896, -1711677.3, -88340.13, 0.024272982, 9.99523, 10.001591 
1.6548443e+3, 1.4435364e+2, -1906429.3, -1479419.0, 2432.6606, 0.0073838453, -0.21825755, -1479405.1, 45911.184, 0.0114189135, 9.996365, 10.002022 
1.6548698e+3, 1.5435633e+2, -1785180.5, -1368516.6, 22077.08, -0.081839524, -0.15687932, -1367350.1, 59937.574, 0.0034161112, 9.996519, 10.002033 
1.6548969e+3, 1.6435784e+2, -1717139.9, -1466937.8, 46402.145, -0.06286429, -0.12534598, -1458609.3, -129337.5, 0.00045137366, 9.997096, 10.000404 
1.6549265e+3, 1.7435798e+2, -1459173.4, -1298708.8, 24930.816, 0.1403892, -0.14813922, -1294924.5, -63653.67, 0.000008273259, 9.998222, 10.000342 
1.6549541e+3, 1.8435778e+2, -1289943.3, -1196245.9, 16469.146, 0.16500969, -0.18330556, -1193435.4, -60163.563, 0.0, 9.998843, 10.0000725 
1.6549793e+3, 1.943572e+2, -1189834.3, -1094335.5, 68632.125, -0.055875033, -0.25280252, -1058476.5, -23202.604, 0.0, 9.998843, 10.0001 
1.6550052e+3, 2.0435585e+2, -1073490.3, -1136127.0, 126969.48, -0.22290176, -0.32991046, -974033.7, -36749.48, 0.0, 9.999606, 9.998776 
1.6550326e+3, 2.1435358e+2, -722857.75, -920356.6, 132608.27, -0.3087602, -0.43476248, -656269.94, 183034.13, 0.0, 10.001359, 9.998739 
1.6550617e+3, 2.2435166e+2, -621093.3, -928340.1, 95537.89, -0.20465241, -0.4479871, -593808.9, 147513.97, 0.0, 10.001845, 9.99778 
1.6550927e+3, 2.3435032e+2, -684101.94, -908548.9, 71948.875, 0.14219224, -0.3622851, -663018.44, -19679.477, 0.0, 10.000744, 9.997772 
1.6551208e+3, 2.4434878e+2, -565759.8, -851562.06, 32806.355, 0.23515223, -0.2635568, -562042.4, -16685.611, 0.0, 10.0011015, 9.997317 
1.6551454e+3, 2.5434715e+2, -143656.05, -594049.94, 30501.066, -0.0003659768, -0.16475165, -141599.88, 305775.6, 0.0, 10.003314, 9.997347 
1.6551709e+3, 2.6434398e+2, 42498.406, -579327.9, 25372.191, -0.12945141, -0.1584144, 43531.945, 392940.03, 0.0, 10.004458, 9.996226 
1.6551977e+3, 2.743388e+2, 107442.86, -499924.1, 24795.957, -0.1219413, -0.29914564, 108453.48, 359912.03, 0.00000005465805, 10.004244, 9.996201 
1.6552255e+3, 2.8433514e+2, 261743.11, -351969.1, 63458.38, -0.09220991, -0.2871131, 268236.06, 421730.53, 0.0000016375968, 10.004535, 9.996403 
1.655254e+3, 2.9433382e+2, 491248.1, -182514.3, 35430.145, -0.03724354, -0.07106529, 493106.06, 548614.0, 0.000008384687, 10.005404, 9.996474 
1.6552812e+3, 3.0433035e+2, 569561.7, -225257.3, -23666.355, -0.05359036, -0.0104052955, 570265.75, 570265.75, 0.000026082529, 10.006068, 9.995528 
1.6553077e+3, 3.143235e+2, 750580.5, 44764.68, -1593.9955, -0.04247559, -0.24893184, 750584.1, 750584.1, 0.000058445014, 10.006519, 9.997166 
1.6647878e+3, 1.2432269e+2, -2194120.8, -1649084.0, 93602.234, -0.15469106, -0.3737653, -1633457.1, 88154.98, 0.041736465, 9.995412, 10.002689 
1.6648126e+3, 1.3432486e+2, -2131385.3, -1665305.3, -28947.809, -0.20909162, -0.33487853, -1663514.1, -39920.773, 0.026087236, 9.995611, 10.001782 
1.6648413e+3, 1.4432697e+2, -1913689.6, -1539098.5, 36101.24, 0.07068584, -0.28433716, -1535651.0, -10077.162, 0.012349877, 9.99656, 10.001512 
1.6648667e+3, 1.5432936e+2, -1533739.9, -1309007.1, 11707.525, -0.1332256, -0.19634123, -1308398.9, 119150.766, 0.003737191, 9.99851, 10.00148 
1.6648942e+3, 1.6433057e+2, -1442335.6, -1377986.1, -6327.3115, -0.13428351, -0.14864457, -1377369.9, -47831.277, 0.00050616945, 9.999171, 10.000013 
1.6649248e+3, 1.7433043e+2, -1492841.3, -1357089.6, -8279.145, 0.15698719, -0.16170086, -1356586.5, -125044.266, 0.000009797576, 9.998178, 9.999963 
1.6649531e+3, 1.8433021e+2, -1357821.6, -1197791.0, -8651.237, 0.21088703, -0.18876617, -1197324.8, -63781.6, 0.0, 9.998238, 10.000357 
1.6649786e+3, 1.9433004e+2, -1046700.25, -986787.8, -31415.738, -0.04916355, -0.2545851, -973335.2, 62204.234, 0.0, 9.9996605, 10.000444 
1.6650052e+3, 2.0432901e+2, -921160.1, -1037300.44, 4023.6082, -0.2227298, -0.32516986, -921020.9, 16524.74, 0.0, 10.000542, 9.999003 
1.665034e+3, 2.1432704e+2, -805054.75, -935391.25, 21348.178, -0.2797844, -0.41981852, -801647.2, 37916.207, 0.0, 10.000689, 9.998959 
1.6650634e+3, 2.2432543e+2, -705877.3, -973529.4, -17464.262, -0.18684079, -0.41163537, -704742.56, 36837.43, 0.0, 10.001284, 9.997738 
1.6650937e+3, 2.3432434e+2, -439162.28, -798079.6, -5454.3037, 0.094871, -0.29488608, -439079.4, 204515.05, 0.0, 10.002458, 9.9977045 
1.6651225e+3, 2.4432251e+2, -279086.22, -740752.0, 15498.573, 0.18135004, -0.20999333, -278566.5, 267049.25, 0.0, 10.003188, 9.997074 
1.6651487e+3, 2.543199e+2, -151068.3, -626969.25, -6238.432, 0.013432927, -0.18218097, -150986.53, 296657.84, 0.0, 10.003389, 9.997085 
1.6651753e+3, 2.6431653e+2, 22448.37, -530507.1, -22641.707, -0.109437555, -0.20270325, 23373.924, 373051.7, 0.0, 10.004075, 9.996742 
1.6652021e+3, 2.7431226e+2, 315278.2, -336315.7, 12280.186, -0.17711751, -0.3128539, 315509.56, 567226.5, 0.00000017528845, 10.005402, 9.996764 
1.6652301e+3, 2.8430882e+2, 477978.16, -272332.8, 83845.664, -0.14851153, -0.2978793, 487233.56, 640983.2, 0.000002156352, 10.006128, 9.996183 
1.6652602e+3, 2.9430687e+2, 566630.94, -174480.89, 77965.375, 0.0034137026, -0.11290395, 574744.1, 630514.1, 0.000009315113, 10.006046, 9.996221 
1.6652878e+3, 3.0430338e+2, 575781.25, -178833.58, 23272.33, 0.0073685227, -0.06382208, 576498.3, 576498.3, 0.000027640684, 10.00592, 9.995919 
1.6653141e+3, 3.14296e+2, 661268.8, 25553.615, 26713.734, -0.020881891, -0.39782065, 662389.44, 662389.44, 0.00006120867, 10.005798, 9.997382 
1.6747817e+3, 1.242981e+2, -2152834.3, -1582406.3, 105913.72, -0.32146654, -0.19376014, -1563375.6, 158483.42, 0.044670317, 9.995477, 10.00314 
1.6748084e+3, 1.3430007e+2, -2092631.0, -1592639.9, -22259.5, -0.2091401, -0.22580276, -1591650.9, 32182.713, 0.028026333, 9.995637, 10.002277 
1.6748387e+3, 1.4430109e+2, -1981572.9, -1684065.9, 104464.53, 0.13927141, -0.26499066, -1651049.1, -125227.9, 0.013357116, 9.996576, 10.00051 
1.6748665e+3, 1.5430081e+2, -1608380.1, -1470560.5, 87979.64, 0.008237908, -0.3324356, -1427716.3, 109.98552, 0.004090086, 9.998538, 10.000357 
1.674894e+3, 1.6430084e+2, -1444935.0, -1391791.8, -40278.652, -0.08354653, -0.33594406, -1370109.8, -40281.74, 0.0005678562, 9.999206, 9.999904 
1.6749203e+3, 1.743015e+2, -1494516.4, -1363474.4, -46526.816, -0.105297536, -0.26535684, -1348635.4, -116812.01, 0.000011659807, 9.998187, 9.999916 
1.6749483e+3, 1.8430153e+2, -1402716.1, -1285338.3, 37574.895, -0.08819775, -0.2384945, -1274340.3, -140517.58, 0.0, 9.998215, 9.999766 
1.6749784e+3, 1.9430085e+2, -1092609.8, -1080847.5, 24675.146, -0.020552242, -0.29059616, -1061362.3, -25535.674, 0.0, 9.999653, 9.999804 
1.6750082e+3, 2.0430069e+2, -897882.25, -986694.56, 11220.46, 0.01268035, -0.25702056, -896486.6, 41341.258, 0.0, 10.000531, 9.999356 
1.6750373e+3, 2.1430136e+2, -779682.7, -877864.0, 28766.041, 0.003132016, -0.12851311, -771875.4, 67948.984, 0.0, 10.000666, 9.999366 
1.6750659e+3, 2.2430077e+2, -676493.44, -906226.4, 22797.613, -0.052106444, -0.06318955, -674253.0, 67578.96, 0.0, 10.001257, 9.998213 
1.6750935e+3, 2.342986e+2, -409755.22, -731312.4, 40471.176, -0.16799334, -0.10063622, -404739.75, 239113.11, 0.0, 10.002435, 9.998175 
1.6751218e+3, 2.4429533e+2, -310952.0, -804561.5, 23625.02, -0.19541492, -0.16409084, -309823.84, 236061.47, 0.0, 10.003174, 9.996644 
1.675151e+3, 2.5429082e+2, -189045.2, -701856.4, 5031.4023, -0.103627615, -0.27703917, -188995.84, 258935.52, 0.0, 10.00337, 9.996581 
1.6751797e+3, 2.642877e+2, 87988.41, -390740.1, 25282.963, -0.071997546, -0.29229507, 89319.96, 439280.66, 0.0, 10.004055, 9.997714 
1.675208e+3, 2.7428642e+2, 383649.2, -182908.73, 65024.957, -0.11909533, -0.21028377, 391016.44, 642984.56, 0.00000020487242, 10.005349, 9.997847 
1.675237e+3, 2.8428304e+2, 479942.0, -252975.23, 83732.8, -0.08203039, -0.2515059, 489386.44, 643383.8, 0.0000023091195, 10.006062, 9.996348 
1.6752668e+3, 2.9427752e+2, 567092.1, -162892.13, 79054.234, 0.059465025, -0.43717933, 575555.25, 631605.94, 0.000010216362, 10.005998, 9.996325 
1.6752939e+3, 3.0427384e+2, 584243.7, -156663.36, 16842.404, 0.037845213, -0.4239957, 584626.4, 584626.4, 0.000031400894, 10.005901, 9.996081 
1.6753198e+3, 3.1427032e+2, 640799.44, -23269.506, 43504.445, -0.026313527, -0.38427144, 643637.4, 643637.4, 0.00007025991, 10.005826, 9.997032 
1.6847765e+3, 1.2427076e+2, -2326735.3, -1637134.5, -48563.555, -0.30411476, -0.021841796, -1633731.4, 88403.06, 0.04776628, 9.994177, 10.003367 
1.6848043e+3, 1.3427183e+2, -2076037.6, -1554023.4, -211146.77, -0.18086022, -0.17160463, -1479310.9, 144802.05, 0.030093629, 9.995615, 10.00257 
1.6848351e+3, 1.4427257e+2, -2015154.6, -1700635.4, -56140.332, 0.14760001, -0.25390625, -1690915.0, -164814.23, 0.0144471, 9.996345, 10.000511 
1.6848648e+3, 1.542723e+2, -1973212.9, -1648580.0, 5507.186, 0.09708823, -0.31655064, -1648486.5, -220380.8, 0.004479329, 9.996043, 10.00034 
1.6848928e+3, 1.642722e+2, -1766859.9, -1552075.4, -71209.24, -0.0070837806, -0.33014295, -1530611.8, -200503.17, 0.0006375465, 9.997019, 9.999857 
1.6849186e+3, 1.7427249e+2, -1268221.6, -1258005.5, -79618.375, -0.16894247, -0.29102492, -1183331.5, 48775.0, 0.00001399049, 9.999757, 9.999882 
1.6849469e+3, 1.8427235e+2, -1026926.75, -1124893.4, -1525.3062, -0.1781159, -0.27061972, -1026903.0, 107204.56, 0.0, 10.000884, 9.999579 
1.6849785e+3, 1.9427174e+2, -1080319.6, -1097702.9, 13040.279, 0.007419696, -0.2942583, -1073339.9, -37228.23, 0.0, 9.999835, 9.999599 
1.6850089e+3, 2.0427164e+2, -1060150.4, -1082392.1, 8164.9834, 0.08919785, -0.23726009, -1057474.9, -119361.086, 0.0, 9.999495, 9.999198 
1.685038e+3, 2.142723e+2, -869502.4, -937499.2, -20258.133, 0.037596535, -0.094138145, -863924.5, -23812.18, 0.0, 10.000122, 9.999216 
1.685067e+3, 2.2427177e+2, -690726.94, -872308.3, -20778.777, -0.056816764, -0.030711982, -688379.5, 53740.246, 0.0, 10.000984, 9.998577 
1.6850954e+3, 2.342698e+2, -418580.84, -690212.56, -9279.801, -0.20694491, -0.08943088, -418264.2, 225873.25, 0.0, 10.00218, 9.998579 
1.6851245e+3, 2.4426691e+2, -296224.34, -736832.06, -24884.678, -0.2401667, -0.16251133, -294823.34, 251341.5, 0.0, 10.003021, 9.99718 
1.6851541e+3, 2.5426295e+2, -147733.0, -621052.8, 24200.316, -0.12567508, -0.2727926, -146498.88, 301704.88, 0.0, 10.003395, 9.997122 
1.6851838e+3, 2.6426017e+2, 32749.395, -400477.9, 73639.484, -0.045498226, -0.29016694, 44924.395, 395153.66, 0.0, 10.003607, 9.997862 
1.6852134e+3, 2.742589e+2, 144456.67, -282861.25, 42596.65, -0.008598225, -0.21515557, 148661.48, 400898.53, 0.0000001121625, 10.003646, 9.997976 
1.685243e+3, 2.842558e+2, 212712.8, -337543.5, 26228.549, 0.014278336, -0.2594691, 213960.17, 368224.4, 0.0000019532256, 10.004036, 9.996741 
1.6852717e+3, 2.9425064e+2, 433983.3, -177682.25, 37393.695, 0.011251615, -0.44599697, 436260.88, 492573.6, 0.000010740185, 10.004876, 9.99676 
1.685299e+3, 3.0424705e+2, 616678.75, -129516.875, 2822.41, -0.054797616, -0.4528783, 616689.44, 616689.44, 0.000036185353, 10.006073, 9.996184 
1.6853264e+3, 3.1424388e+2, 891937.4, 63644.67, 33334.406, -0.044389047, -0.37911823, 893276.75, 893276.75, 0.00008293535, 10.007693, 9.996737 
1.6947725e+3, 1.24240346e+2, -2331224.0, -1645627.6, 8715.384, -0.124804854, 0.12635094, -1645516.9, 76924.305, 0.051028147, 9.994169, 10.003314 
1.6948003e+3, 1.3423997e+2, -2071407.6, -1546422.3, -158091.7, -0.13154843, -0.17589267, -1502491.4, 121942.34, 0.032295942, 9.99562, 10.002619 
1.6948308e+3, 1.442412e+2, -1942303.6, -1551343.4, -69222.48, 0.083039545, -0.25781655, -1539448.9, -13033.588, 0.015627254, 9.996349, 10.001535 
1.6948609e+3, 1.5424384e+2, -1896728.1, -1486136.1, -7871.105, 0.11580475, -0.14228062, -1485985.4, -57596.78, 0.004910431, 9.996024, 10.001465 
1.6948906e+3, 1.6424473e+2, -1764814.4, -1543986.6, 23160.424, 0.07656251, -0.12088579, -1541583.6, -211204.31, 0.0007170378, 9.997001, 9.999922 
1.6949196e+3, 1.7424344e+2, -1268582.6, -1262853.4, 26856.14, -0.041516144, -0.23573802, -1238709.5, -6317.942, 0.000016975888, 9.999772, 9.999843 
1.694949e+3, 1.8424268e+2, -1010713.7, -1093679.8, -33200.31, -0.06807157, -0.28536022, -999063.8, 135333.94, 0.0, 10.000895, 9.99979 
1.6949783e+3, 1.9424273e+2, -1066490.4, -1066497.4, -26169.54, 0.025984332, -0.26589876, -1040324.4, -3929.757, 0.0, 9.999824, 9.999821 
1.6950074e+3, 2.0424189e+2, -1109793.4, -1180473.6, 25808.576, -0.0005579962, -0.26505047, -1101372.8, -162969.36, 0.0, 9.999473, 9.998536 
1.695036e+3, 2.1423994e+2, -923015.6, -1046168.1, 5568.005, -0.18447201, -0.30862868, -922764.44, -82337.72, 0.0, 10.00011, 9.998479 
1.6950662e+3, 2.2423854e+2, -673265.7, -832671.94, 20882.34, -0.21872506, -0.30490407, -670575.5, 71867.305, 0.0, 10.000969, 9.998857 
1.6950992e+3, 2.34238e+2, -399898.75, -643053.44, 38575.516, -0.046925746, -0.25580662, -393925.63, 250522.11, 0.0, 10.002142, 9.998922 
1.69513e+3, 2.4423717e+2, -203177.73, -533931.25, -9117.425, 0.017121578, -0.20630921, -202926.61, 343528.2, 0.0, 10.002978, 9.998594 
1.695158e+3, 2.542361e+2, -48557.043, -406093.63, 39212.727, -0.06776051, -0.17600447, -44306.918, 404156.34, 0.0, 10.003356, 9.998618 
1.6951875e+3, 2.642338e+2, -13801.314, -491467.75, 72726.94, -0.042871486, -0.19930354, -2973.7356, 347511.06, 0.0, 10.00358, 9.997251 
1.6952185e+3, 2.7422985e+2, 87156.414, -399345.84, 46061.31, 0.13239682, -0.3164529, 91479.02, 344001.84, 0.000000030876134, 10.003634, 9.997182 
1.6952479e+3, 2.84227e+2, 255286.6, -253588.69, 53454.477, 0.120489806, -0.31672573, 260841.05, 415390.78, 0.0000016640959, 10.004051, 9.997313 
1.695275e+3, 2.9422584e+2, 483773.56, -76528.016, 69264.04, -0.1456105, -0.17453673, 492208.94, 548768.6, 0.000010799689, 10.00488, 9.997456 
1.6953029e+3, 3.042225e+2, 614730.5, -124923.16, 57337.53, -0.26886326, -0.19429427, 619148.9, 619148.9, 0.00003855348, 10.006039, 9.996232 
1.6953334e+3, 3.1421706e+2, 864447.4, 39081.383, 112750.625, -0.113804236, -0.3462942, 879572.7, 879572.7, 0.00009162134, 10.007558, 9.99663 
1.704767e+3, 1.2420831e+2, -2401231.5, -1709890.0, 129191.33, -0.07102425, 0.034425013, -1686536.9, 36213.402, 0.054460447, 9.99382, 10.003032 
1.704796e+3, 1.3420846e+2, -2188533.5, -1619804.8, -69117.26, -0.07489985, -0.1978545, -1611525.5, 13216.03, 0.034638863, 9.994902, 10.00244 
1.7048267e+3, 1.4421e+2, -1957704.1, -1564822.3, -45921.137, 0.045117117, -0.23475678, -1559526.3, -32804.29, 0.016903277, 9.996274, 10.001474 
1.704857e+3, 1.542125e+2, -1630205.3, -1363413.1, -81616.99, 0.037546866, -0.12814246, -1340425.5, 88271.27, 0.00538814, 9.997878, 10.001413 
1.7048877e+3, 1.6421348e+2, -1549528.8, -1399936.0, -79698.92, 0.037452362, -0.1099942, -1365432.8, -34746.516, 0.0008082668, 9.9983015, 10.000286 
1.704919e+3, 1.7421268e+2, -1622878.0, -1389567.0, -46994.52, 0.060940664, -0.21601492, -1380456.9, -147764.28, 0.000020835996, 9.9971485, 10.000239 
1.7049493e+3, 1.842122e+2, -1523385.3, -1345967.1, -105217.445, 0.056529727, -0.25750202, -1297053.5, -162357.31, 0.0, 9.997396, 9.999746 
1.7049779e+3, 1.9421218e+2, -1106947.1, -1093781.3, -125344.77, 0.010309403, -0.23455885, -974846.6, 61848.7, 0.0, 9.99958, 9.99975 
1.7050067e+3, 2.0421115e+2, -885943.75, -1058277.4, -59210.668, -0.08797385, -0.2521033, -867560.94, 71144.95, 0.0, 10.000949, 9.998662 
1.7050359e+3, 2.142089e+2, -755184.9, -948844.6, -17584.662, -0.2549237, -0.340831, -753601.1, 87128.875, 0.0, 10.001192, 9.998624 
1.705067e+3, 2.2420754e+2, -610742.7, -769494.5, 38549.7, -0.25172138, -0.35559925, -601876.8, 140867.75, 0.0, 10.001259, 9.99915 
1.7051011e+3, 2.3420744e+2, -529667.56, -669975.75, 48509.707, -0.016941404, -0.2918358, -514529.3, 130215.84, 0.0, 10.001101, 9.999235 
1.7051326e+3, 2.4420714e+2, -425906.03, -609181.2, -32439.564, 0.0665855, -0.21994805, -420333.66, 126413.805, 0.0, 10.001311, 9.99888 
1.7051609e+3, 2.5420666e+2, -215588.78, -454612.16, -76153.34, -0.055551793, -0.15873916, -193388.17, 255362.86, 0.0, 10.002073, 9.998901 
1.7051905e+3, 2.642046e+2, -103512.234, -528709.25, -66324.95, -0.049626272, -0.17300145, -93406.625, 257364.22, 0.0, 10.002944, 9.997298 
1.7052221e+3, 2.7420053e+2, 132293.81, -374645.16, -41648.313, 0.1237758, -0.3024963, 135692.7, 388503.3, 0.000000021654612, 10.003935, 9.997206 
1.7052521e+3, 2.8419775e+2, 350577.72, -218942.56, -13694.621, 0.098909914, -0.29093924, 350906.8, 505744.4, 0.0000014988422, 10.004762, 9.997207 
1.7052798e+3, 2.9419672e+2, 555906.6, -56280.926, -56012.516, -0.1832475, -0.12384864, 560989.3, 617836.8, 0.000009998646, 10.005442, 9.997325 
1.7053089e+3, 3.0419323e+2, 593882.75, -112907.69, -96355.52, -0.2589527, -0.15657222, 606783.3, 606783.3, 0.000037198068, 10.005808, 9.996421 
1.7053403e+3, 3.141891e+2, 618863.06, -31131.66, -28081.074, -0.06672183, -0.19953045, 620073.94, 620073.94, 0.00009347102, 10.005664, 9.997055 
1.7147598e+3, 1.2417412e+2, -2440880.3, -1790442.9, 172733.27, -0.18660048, -0.35940278, -1747417.1, -24351.99, 0.058051143, 9.993817, 10.002469 
1.7147914e+3, 1.3417739e+2, -2219088.5, -1683391.4, -24328.352, -0.029824669, -0.23802675, -1682288.8, -57254.523, 0.037118543, 9.9949, 10.002004 
1.7148226e+3, 1.4417909e+2, -2044253.8, -1745255.1, 14550.551, 0.016125567, -0.17799565, -1744548.6, -217529.3, 0.018276531, 9.996277, 10.000237 
1.714853e+3, 1.5417816e+2, -1717868.1, -1553177.4, -19806.004, -0.15236114, -0.28439727, -1550829.0, -121797.18, 0.005915651, 9.997912, 10.000093 
1.7148843e+3, 1.6417828e+2, -1498647.3, -1301386.6, -120332.15, -0.14328173, -0.3102969, -1244428.5, 86602.73, 0.0009130136, 9.998329, 10.00095 
1.7149168e+3, 1.7418012e+2, -1564748.6, -1268425.8, -91791.29, 0.12495314, -0.2358193, -1242295.9, -9285.725, 0.000025810483, 9.997143, 10.001076 
1.7149478e+3, 1.8418083e+2, -1547974.4, -1390975.3, -33604.86, 0.1810417, -0.18758883, -1384084.8, -249081.69, 0.0, 9.99737, 9.999451 
1.7149769e+3, 1.9418009e+2, -1137120.6, -1153656.0, -39836.145, -0.055143636, -0.20032683, -1104703.3, -67689.31, 0.0, 9.999565, 9.999348 
1.7150065e+3, 2.0417947e+2, -824190.6, -926817.94, -46162.332, -0.19493097, -0.19911127, -806482.2, 132539.39, 0.0, 10.000934, 9.999572 
1.7150377e+3, 2.1417916e+2, -689705.25, -805772.9, -7184.806, -0.19154753, -0.19531019, -689262.2, 151760.6, 0.0, 10.00116, 9.999622 
1.7150691e+3, 2.2417866e+2, -594683.06, -728502.5, 31268.209, -0.16843763, -0.1884446, -587737.44, 155288.45, 0.0, 10.001226, 9.999448 
1.715101e+3, 2.3417807e+2, -516660.63, -636564.3, 43241.418, -0.121611804, -0.19808173, -502693.28, 142336.95, 0.0, 10.001074, 9.999478 
1.7151323e+3, 2.441768e+2, -482174.5, -723559.44, -9714.398, -0.09892815, -0.20049083, -481784.2, 65258.723, 0.0, 10.001297, 9.998103 
1.7151625e+3, 2.541747e+2, -278727.75, -584025.8, -44813.797, -0.10276217, -0.2151391, -272285.63, 176780.23, 0.0, 10.002063, 9.998019 
1.7151932e+3, 2.6417267e+2, -61628.72, -440343.2, -30266.5, -0.08152455, -0.20692377, -59225.105, 291861.25, 0.0, 10.002936, 9.9979105 
1.7152245e+3, 2.741709e+2, 180889.16, -268783.5, -2900.6123, -0.03536351, -0.18141559, 180907.86, 434009.22, 0.000000019947626, 10.003912, 9.997945 
1.7152554e+3, 2.8416803e+2, 294595.88, -326246.0, 10344.563, -0.051832687, -0.185677, 294768.22, 449896.6, 0.0000010743616, 10.004723, 9.996489 
1.7152856e+3, 2.9416364e+2, 481116.06, -191934.14, -23733.436, -0.13383739, -0.26740447, 481951.94, 539124.44, 0.000008660495, 10.005356, 9.996435 
1.7153165e+3, 3.041596e+2, 599680.4, -90742.59, -97589.46, -0.06983192, -0.3135239, 613209.3, 613209.3, 0.00003533677, 10.005756, 9.996603 
1.7153473e+3, 3.1415942e+2, 693752.0, 115100.125, -24205.457, 0.05216815, 0.0028893095, 694762.8, 694762.8, 0.00009309258, 10.005703, 9.998043 
1.7247534e+3, 1.2414025e+2, -2432787.5, -1839879.9, 49983.87, -0.21557869, -0.50566274, -1835695.6, -112309.63, 0.06177432, 9.994113, 10.00198 
1.7247866e+3, 1.3414393e+2, -2251660.5, -1735610.4, -148582.92, 0.015985534, -0.3096503, -1695887.5, -70532.04, 0.039721623, 9.994846, 10.001665 
1.7248183e+3, 1.4414561e+2, -2147845.5, -1810062.3, -55069.89, 0.006140648, -0.22589928, -1801310.8, -273967.3, 0.019743169, 9.9956255, 10.00011 
1.72485e+3, 1.541443e+2, -1958890.1, -1679756.0, -1865.2861, -0.16711868, -0.3605922, -1679743.5, -250383.3, 0.006494274, 9.996302, 10.000003 
1.7248817e+3, 1.6414447e+2, -1635403.4, -1364927.5, -102321.25, -0.18885648, -0.3769944, -1330580.8, 779.2695, 0.001032908, 9.997382, 10.00097 
1.7249139e+3, 1.7414686e+2, -1282629.3, -1127195.9, -140431.75, 0.012215448, -0.25129664, -1044410.3, 188924.69, 0.00003215152, 9.99906, 10.001118 
1.7249453e+3, 1.8414785e+2, -1196054.9, -1211113.4, -81858.78, 0.07452183, -0.18218136, -1121379.9, 13946.313, 0.0, 9.999742, 9.99954 
1.724976e+3, 1.9414704e+2, -1207833.3, -1176658.9, -53807.84, -0.058453713, -0.21099606, -1136226.0, -98887.78, 0.0, 9.999035, 9.999443 
1.7250071e+3, 2.0414664e+2, -1095450.4, -1030587.5, -67749.9, -0.13774385, -0.20092104, -987906.7, -48563.184, 0.0, 9.998957, 9.999813 
1.7250386e+3, 2.1414697e+2, -871620.25, -863137.75, -89477.3, -0.13683787, -0.15666229, -777801.25, 63536.63, 0.0, 9.999785, 9.999888 
1.7250702e+3, 2.2414663e+2, -726523.56, -800277.7, -107112.19, -0.13613282, -0.14460891, -650118.06, 93221.27, 0.0, 10.000355, 9.999374 
1.7251016e+3, 2.3414554e+2, -596678.8, -686242.25, -125726.83, -0.13939193, -0.19440423, -507996.53, 137352.36, 0.0, 10.000573, 9.999378 
1.7251332e+3, 2.4414398e+2, -473101.4, -689291.6, -120242.87, -0.13266551, -0.23027684, -419508.84, 127855.02, 0.0, 10.001241, 9.998361 
1.7251647e+3, 2.5414193e+2, -190904.77, -508622.84, -73865.31, -0.109816216, -0.27033514, -174571.69, 274813.53, 0.0, 10.002532, 9.998306 
1.7251962e+3, 2.6414007e+2, 19126.951, -389689.72, -38958.164, -0.08438816, -0.26140833, 22806.354, 374209.5, 0.0, 10.003443, 9.998013 
1.725228e+3, 2.7413875e+2, 180995.31, -258261.31, -62655.117, -0.06617351, -0.19892229, 189757.6, 443171.97, 0.0000000008257635, 10.003872, 9.9980345 
1.7252594e+3, 2.8413606e+2, 204187.84, -335889.16, -58876.574, -0.073658735, -0.2069019, 210531.77, 365971.3, 0.0000005712995, 10.003957, 9.996791 
1.7252904e+3, 2.9413137e+2, 236375.52, -275061.9, -19174.81, -0.09235327, -0.34922192, 237093.42, 294577.8, 0.000007405512, 10.003531, 9.9967375 
1.7253225e+3, 3.0412707e+2, 366233.22, -276118.2, -25157.506, 0.01979388, -0.40399545, 367217.0, 367217.0, 0.00003473045, 10.004468, 9.995949 
1.7253534e+3, 3.1412575e+2, 911205.9, 197553.92, -29230.176, 0.021986516, -0.13284922, 912401.06, 912401.06, 0.00009328825, 10.007289, 9.997853 
1.7347477e+3, 1.2410698e+2, -2469171.0, -1917282.1, 67515.8, -0.18687083, -0.36553705, -1909142.5, -185431.39, 0.06561491, 9.99412, 10.001448 
1.7347819e+3, 1.3410789e+2, -2268245.8, -1774967.9, -122234.91, 0.05095326, -0.41795248, -1746339.4, -120631.695, 0.042436883, 9.9948635, 10.0013895 
1.7348139e+3, 1.441093e+2, -2072445.4, -1655170.6, -32676.867, 0.0011644389, -0.39547485, -1652627.1, -124930.06, 0.021297567, 9.995629, 10.001172 
1.7348477e+3, 1.5411095e+2, -1876081.6, -1505061.0, 23793.504, -0.012634305, -0.3538532, -1503541.4, -73859.46, 0.0071235094, 9.996286, 10.001211 
1.7348799e+3, 1.6411218e+2, -1681041.4, -1457345.3, -42142.156, -0.1085324, -0.30042502, -1449669.4, -117998.05, 0.0011691477, 9.997371, 10.000341 
1.7349099e+3, 1.7411292e+2, -1337446.3, -1245557.1, -74513.02, -0.2916887, -0.25966525, -1203962.6, 29704.291, 0.00004011834, 9.999077, 10.000299 
1.7349415e+3, 1.8411316e+2, -1161183.0, -1141275.3, -103755.2, -0.284903, -0.24146086, -1046997.56, 88668.62, 0.0, 9.999752, 10.000014 
1.7349754e+3, 1.9411294e+2, -1169239.6, -1094711.9, -79864.97, -0.012939163, -0.26720023, -1043845.1, -6176.4507, 0.0, 9.999024, 10.000013 
1.735008e+3, 2.0411266e+2, -1125612.1, -1090078.1, -42983.266, 0.071220644, -0.2587788, -1061334.5, -121662.58, 0.0, 9.998941, 9.999413 
1.7350388e+3, 2.1411243e+2, -909924.06, -938438.0, -55275.855, -0.1047652, -0.22494623, -867096.2, -25421.008, 0.0, 9.999764, 9.999384 
1.73507e+3, 2.2411153e+2, -760588.9, -864579.8, -97922.55, -0.17457792, -0.22073384, -701713.44, 41970.938, 0.0, 10.000328, 9.998945 
1.7351027e+3, 2.3410992e+2, -630154.3, -751882.1, -114108.875, -0.09090031, -0.27735573, -561692.06, 84008.12, 0.0, 10.000554, 9.998938 
1.7351352e+3, 2.4410874e+2, -393348.22, -517769.22, -75684.46, -0.057664763, -0.30749387, -357587.9, 190122.1, 0.0, 10.001215, 9.99955 
1.7351674e+3, 2.5410825e+2, -102995.21, -315151.75, -23448.094, -0.09060144, -0.32434377, -100434.57, 349275.3, 0.0, 10.002486, 9.999657 
1.7351998e+3, 2.641068e+2, -13275.61, -445713.84, -22932.084, -0.07345188, -0.3322517, -12062.929, 339658.84, 0.0, 10.003391, 9.997653 
1.7352325e+3, 2.7410427e+2, 135674.88, -340856.72, -44645.13, 0.0031795523, -0.33886266, 139821.5, 393569.9, 0.0, 10.003819, 9.997494 
1.7352642e+3, 2.8410187e+2, 284215.28, -163839.83, -74800.266, 0.0019427973, -0.34259877, 296372.88, 452143.47, 0.0000002508634, 10.00393, 9.997985 
1.7352942e+3, 2.9409957e+2, 331825.03, -83464.375, -36135.773, -0.07081317, -0.3809011, 334945.88, 392732.6, 0.0000062419017, 10.003558, 9.998041 
1.7353268e+3, 3.0409548e+2, 274713.13, -475917.63, 65440.65, 0.0078995, -0.42099208, 280375.56, 280375.56, 0.000033520028, 10.004505, 9.994562 
1.7353588e+3, 3.1408778e+2, 806459.7, 7061.594, 63815.05, -0.16026989, -0.63018984, 811521.94, 811521.94, 0.00009262438, 10.007174, 9.996599 
1.7447425e+3, 1.2407191e+2, -2458082.0, -1922499.9, 64958.426, -0.122916535, -0.33993348, -1914733.9, -190679.36, 0.06957688, 9.994238, 10.001357 
1.7447774e+3, 1.3407223e+2, -2089570.9, -1673320.0, -90698.68, 0.07738986, -0.46377057, -1654415.8, -28359.395, 0.045260757, 9.996017, 10.001532 
1.7448096e+3, 1.4407387e+2, -1835609.6, -1495740.6, -36553.348, -0.065370694, -0.44482607, -1491853.8, 36189.242, 0.022935338, 9.99706, 10.001579 
1.7448443e+3, 1.5407664e+2, -1747177.4, -1394224.0, -49001.387, -0.0089744255, -0.3343383, -1387547.4, 42468.563, 0.0078018596, 9.9969635, 10.001645 
1.7448774e+3, 1.6407816e+2, -1735455.6, -1517384.1, -102850.52, -0.06526742, -0.26137975, -1476529.9, -144526.98, 0.0013223152, 9.997145, 10.000038 
1.7449087e+3, 1.7407797e+2, -1552925.0, -1390744.1, -103969.34, -0.23843586, -0.27468434, -1339981.3, -105971.97, 0.000049909977, 9.997781, 9.999927 
1.7449409e+3, 1.8407796e+2, -1342480.5, -1210558.5, -164605.31, -0.23839667, -0.2696685, -1099190.0, 36822.07, 0.0000000000000006446772, 9.998429, 10.000178 
1.7449746e+3, 1.9407839e+2, -1141749.5, -1054840.1, -174283.4, -0.0076558404, -0.25148717, -918675.75, 119331.62, 0.0, 9.999102, 10.000248 
1.7450072e+3, 2.0407835e+2, -1031624.5, -1018723.6, -112580.266, 0.06260445, -0.2410897, -912409.1, 27598.307, 0.0, 9.9994755, 9.999644 
1.7450385e+3, 2.1407777e+2, -938825.1, -925814.1, -74120.88, -0.08606982, -0.2637832, -857913.8, -15900.769, 0.0, 9.999452, 9.99962 
1.7450704e+3, 2.2407676e+2, -825990.75, -891606.3, -58843.117, -0.1447981, -0.2853812, -791427.44, -47404.668, 0.0, 9.99986, 9.998986 
1.7451034e+3, 2.3407538e+2, -581671.9, -724609.94, -44449.617, -0.07728813, -0.32383487, -568976.8, 77059.68, 0.0, 10.000873, 9.99897 
1.7451365e+3, 2.4407433e+2, -371540.13, -523998.06, -29146.668, -0.052564576, -0.33511382, -366157.94, 181887.22, 0.0, 10.001438, 9.9994 
1.7451693e+3, 2.5407386e+2, -274080.34, -416142.84, -90872.016, -0.083422035, -0.33132446, -229772.27, 220273.08, 0.0, 10.001392, 9.999489 
1.7452025e+3, 2.640725e+2, -251103.73, -537042.7, -129585.13, -0.048988875, -0.3312273, -201115.77, 150941.1, 0.0, 10.001661, 9.997858 
1.7452362e+3, 2.7407002e+2, -56513.402, -406058.5, -101470.84, 0.058711044, -0.35383043, -29192.465, 224890.05, 0.0, 10.002385, 9.997735 
1.7452681e+3, 2.840677e+2, 217034.28, -176067.7, -130924.93, 0.03722112, -0.36975402, 256647.7, 412751.47, 0.00000012786941, 10.0033865, 9.99816 
1.7452978e+3, 2.9406568e+2, 519360.1, 20813.863, -179235.06, -0.122547895, -0.39765722, 577108.6, 635226.25, 0.0000052633227, 10.004788, 9.998167 
1.7453317e+3, 3.0406258e+2, 499791.06, -289277.3, -20540.08, 0.0044444026, -0.37593892, 500325.38, 500325.38, 0.00003173192, 10.005718, 9.99526 
1.7453668e+3, 3.1405398e+2, 669318.75, 16176.826, 98736.94, -0.023693876, -0.7504476, 683918.7, 683918.7, 0.00009227108, 10.005914, 9.997263 
1.7547375e+3, 1.240351e+2, -2430280.3, -1867067.4, 113690.805, -0.047079388, -0.42525098, -1844983.6, -120567.66, 0.07366958, 9.9942465, 10.001735 
1.7547736e+3, 1.3403708e+2, -2043595.9, -1586975.3, -20764.352, 0.0843275, -0.4406783, -1586032.9, 40367.586, 0.048192136, 9.996044, 10.002128 
1.7548051e+3, 1.4403957e+2, -1853036.5, -1538353.4, -35232.54, -0.21295, -0.35406175, -1534456.9, -6078.1753, 0.024652572, 9.997088, 10.001268 
1.7548396e+3, 1.5404136e+2, -1772570.1, -1453066.8, -52709.582, -0.17951135, -0.2993016, -1444595.6, -14233.16, 0.008527423, 9.996988, 10.001227 
1.7548744e+3, 1.640423e+2, -1733336.0, -1515363.4, -85410.28, -0.08011927, -0.2650379, -1485883.4, -153527.45, 0.0014925194, 9.997153, 10.00005 
1.7549105e+3, 1.7404196e+2, -1550774.5, -1385468.0, -79910.73, 0.16760397, -0.29758492, -1353154.8, -118791.65, 0.00006156021, 9.997773, 9.999969 
1.7549439e+3, 1.8404216e+2, -1351530.6, -1227104.6, -140034.06, 0.2106595, -0.26739204, -1136085.9, 278.3481, 0.0000000010737394, 9.998419, 10.000069 
1.7549731e+3, 1.9404334e+2, -1153378.9, -1076174.0, -146259.7, -0.057488367, -0.16385406, -963508.3, 74846.15, 0.0, 9.999086, 10.00011 
1.7550041e+3, 2.0404369e+2, -974818.56, -897625.0, -113245.555, -0.1846244, -0.14545238, -816579.56, 123770.516, 0.0, 9.999459, 10.0004835 
1.7550379e+3, 2.1404296e+2, -874306.25, -790994.2, -72995.695, -0.094984524, -0.27383482, -748605.06, 93747.055, 0.0, 9.999442, 10.000553 
1.7550711e+3, 2.2404228e+2, -792563.1, -816800.8, -25989.686, -0.061396074, -0.3391851, -776005.7, -31650.27, 0.0, 9.999838, 9.999509 
1.755104e+3, 2.3404181e+2, -554164.9, -659829.2, -4413.3647, -0.1106169, -0.33480647, -553980.9, 92378.0, 0.0, 10.000839, 9.999432 
1.7551371e+3, 2.4404067e+2, -474081.2, -731890.9, -30248.615, -0.13288428, -0.3152318, -470579.7, 77790.68, 0.0, 10.001413, 9.997987 
1.7551704e+3, 2.540388e+2, -387894.63, -652549.25, -90122.05, -0.10338884, -0.29227173, -360120.4, 90270.95, 0.0, 10.001389, 9.9978695 
1.7552043e+3, 2.6403713e+2, -203163.98, -436302.44, -105799.22, -0.029205676, -0.26342362, -162310.66, 190097.52, 0.0, 10.001657, 9.998551 
1.7552389e+3, 2.7403593e+2, 5234.1724, -271945.25, -71793.04, 0.08979033, -0.25520167, 22725.688, 277143.6, 0.0, 10.00236, 9.998668 
1.7552713e+3, 2.840335e+2, 161197.92, -285144.84, -82434.69, 0.02392321, -0.2965528, 175936.06, 332375.78, 0.00000011838554, 10.003352, 9.99743 
1.7553012e+3, 2.9402983e+2, 442882.38, -122167.52, -122881.984, -0.2534667, -0.39727437, 468448.88, 526923.6, 0.000004885681, 10.004715, 9.997222 
1.7553374e+3, 3.040284e+2, 665360.9, 71194.22, -9623.306, -0.014900318, -0.27177155, 665516.7, 665516.7, 0.00003210833, 10.005644, 9.997774 
1.7553768e+3, 3.1402442e+2, 788767.06, 291287.4, 58090.367, 0.38811782, -0.4686595, 795460.2, 795460.2, 0.00009647247, 10.005804, 9.999206 
1.7647326e+3, 1.23998456e+2, -2228211.8, -1752538.3, 102332.4, -0.014300682, -0.43903244, -1731457.5, -6680.843, 0.07790593, 9.995574, 10.001871 
1.7647702e+3, 1.3400123e+2, -2078491.1, -1575906.0, -50701.14, 0.16441244, -0.39894885, -1570842.3, 55910.227, 0.05123237, 9.9956875, 10.002378 
1.7648019e+3, 1.440042e+2, -1998669.8, -1621987.6, -88182.56, -0.19941911, -0.27190405, -1602366.0, -73639.836, 0.026445003, 9.99615, 10.001144 
1.7648368e+3, 1.5400545e+2, -1743743.3, -1456466.4, -93116.445, -0.16988945, -0.2553504, -1428924.5, 1792.4111, 0.009296644, 9.997267, 10.001067 
1.764872e+3, 1.640062e+2, -1615969.1, -1411853.8, -110655.484, -0.052252863, -0.24652031, -1363377.8, -30665.963, 0.0016790463, 9.99776, 10.000465 
1.7649089e+3, 1.7400622e+2, -1579564.9, -1345980.1, -78458.68, 0.25191435, -0.29155824, -1322073.5, -87360.78, 0.000074904594, 9.997347, 10.0004425 
1.7649426e+3, 1.8400642e+2, -1473702.4, -1288535.1, -86032.71, 0.29146343, -0.28646183, -1254733.0, -118020.84, 0.000000009428086, 9.997592, 10.000047 
1.7649719e+3, 1.9400713e+2, -1194917.1, -1104998.0, -90553.95, -0.06966937, -0.22259729, -1048856.8, -10149.147, 0.0, 9.998839, 10.000031 
1.7650034e+3, 2.0400743e+2, -955429.25, -895723.8, -113420.82, -0.21588326, -0.19990817, -808292.8, 132411.44, 0.0, 9.999628, 10.000416 
1.7650378e+3, 2.1400736e+2, -835304.4, -776704.7, -154976.33, -0.03965162, -0.2568814, -648282.8, 194418.27, 0.0, 9.999741, 10.000504 
1.7650719e+3, 2.2400704e+2, -767625.25, -798320.75, -138474.89, 0.032608673, -0.2859844, -643650.2, 101051.13, 0.0, 9.999981, 9.999567 
1.7651051e+3, 2.3400645e+2, -611909.25, -679353.75, -148633.38, -0.050311774, -0.29660273, -493220.63, 153484.44, 0.0, 10.000409, 9.999503 
1.7651384e+3, 2.4400514e+2, -537706.8, -771884.1, -152340.48, -0.104953654, -0.29391572, -462656.53, 86061.72, 0.0, 10.001016, 9.997903 
1.7651719e+3, 2.54003e+2, -323510.66, -631395.1, -107396.81, -0.11120566, -0.28924525, -289750.22, 160992.45, 0.0, 10.001876, 9.997779 
1.7652059e+3, 2.6400122e+2, -90238.04, -376830.56, -82012.88, -0.06404471, -0.26964307, -68428.484, 284332.28, 0.0, 10.00241, 9.998597 
1.7652407e+3, 2.7400002e+2, 24995.184, -255707.23, -113520.87, 0.04372757, -0.26361203, 65158.38, 319927.72, 0.0, 10.002464, 9.99873 
1.765274e+3, 2.8399763e+2, 48218.766, -340462.56, -115863.08, 0.0005412892, -0.30748466, 80135.8, 236926.8, 0.00000012397261, 10.002582, 9.99742 
1.7653053e+3, 2.9399395e+2, 174583.98, -251172.31, -96718.73, -0.21942852, -0.4075226, 195525.47, 254352.17, 0.0000054589764, 10.002874, 9.997218 
1.7653418e+3, 3.0399278e+2, 375997.1, -41295.7, -17023.162, -0.01423611, -0.26848552, 376690.38, 376690.38, 0.000036368274, 10.00354, 9.998011 
1.7653815e+3, 3.1398985e+2, 578838.75, 138470.13, -176035.22, 0.365916, -0.38110772, 640557.8, 640557.8, 0.000106119835, 10.004584, 9.998738 
1.7747279e+3, 1.2396246e+2, -2235916.5, -1779865.9, 78364.91, -0.051421992, -0.34615916, -1766775.9, -41643.48, 0.08231803, 9.995621, 10.001661 
1.7747672e+3, 1.3396464e+2, -2091268.6, -1604233.9, -48787.84, 0.302212, -0.34230816, -1599394.8, 27717.873, 0.054393712, 9.995697, 10.0021715 
1.7747997e+3, 1.4396764e+2, -1994933.9, -1613107.6, -54078.715, -0.035677202, -0.20551886, -1605596.1, -76509.67, 0.02831169, 9.996141, 10.001212 
1.7748359e+3, 1.5396884e+2, -1735709.6, -1442684.4, -49039.453, 0.018778896, -0.20337486, -1434695.3, -3615.454, 0.010105246, 9.997275, 10.00116 
1.7748705e+3, 1.6396993e+2, -1555564.0, -1290751.6, -122598.516, 0.010108138, -0.20247199, -1242709.0, 90361.305, 0.0018804772, 9.997776, 10.00129 
1.7749035e+3, 1.7397077e+2, -1515943.8, -1215866.1, -92953.14, -0.0063574496, -0.25450286, -1189405.9, 45652.1, 0.00008970714, 9.997354, 10.001334 
1.774937e+3, 1.8397075e+2, -1471194.0, -1282193.8, -46407.996, -0.024102924, -0.3243737, -1271413.4, -134357.27, 0.000000028818846, 9.997586, 10.0000925 
1.7749709e+3, 1.9396973e+2, -1200594.3, -1114751.1, -41134.08, -0.06348049, -0.42736113, -1098222.9, -59155.82, 0.0, 9.998828, 9.99997 
1.7750046e+3, 2.0396957e+2, -1022923.1, -1034885.4, -106444.26, -0.04551831, -0.40452862, -922292.06, 18778.303, 0.0, 9.999621, 9.999463 
1.7750387e+3, 2.1397088e+2, -912359.0, -933633.2, -147993.45, 0.06690802, -0.22008751, -774620.9, 68439.83, 0.0, 9.999723, 9.999435 
1.7750728e+3, 2.2397096e+2, -799014.5, -858100.7, -124076.125, 0.11968646, -0.13084465, -701012.8, 44048.227, 0.0, 9.999957, 9.999168 
1.775107e+3, 2.3396938e+2, -637622.9, -729364.7, -128674.82, 0.084219255, -0.20958343, -546887.2, 100187.48, 0.0, 10.000391, 9.99917 
1.7751406e+3, 2.4396776e+2, -460607.2, -602534.75, -121752.664, 0.010569605, -0.2718841, -390647.0, 158441.61, 0.0, 10.000978, 9.999083 
1.7751737e+3, 2.539664e+2, -238487.92, -442172.34, -71868.734, -0.11811784, -0.3221578, -215682.83, 235417.23, 0.0, 10.0018215, 9.999105 
1.7752074e+3, 2.6396465e+2, -133826.55, -457200.6, -77868.28, -0.1658207, -0.34728694, -116052.81, 237062.64, 0.0, 10.002364, 9.998068 
1.7752418e+3, 2.739625e+2, -32299.521, -367303.66, -108606.11, -0.090911746, -0.36465034, -171.35815, 254964.36, 0.0, 10.00243, 9.99798 
1.775276e+3, 2.8396013e+2, 90641.125, -248628.72, -108766.66, -0.050483305, -0.38928866, 122515.984, 279672.72, 0.00000014097031, 10.002564, 9.998059 
1.7753097e+3, 2.9395792e+2, 227896.17, -137191.44, -84162.08, -0.047136195, -0.42347425, 246363.56, 305538.38, 0.000006910917, 10.002858, 9.998011 
1.7753454e+3, 3.0395564e+2, 260581.56, -284740.66, 21594.928, -0.0132051585, -0.36341467, 261435.39, 261435.39, 0.00004275842, 10.003549, 9.996337 
1.7753823e+3, 3.1395265e+2, 396126.22, -237105.53, -157014.73, -0.016033622, -0.28252023, 432921.22, 432921.22, 0.0001174707, 10.004566, 9.996166 
1.7847246e+3, 1.239261e+2, -1882988.8, -1642157.4, 80520.29, -0.063795246, -0.3315705, -1617716.4, 107771.77, 0.08696164, 9.998149, 10.00145 
1.7847641e+3, 1.3392727e+2, -1821554.6, -1514061.8, -31287.98, 0.32492712, -0.39598995, -1510910.4, 116566.8, 0.057701517, 9.997689, 10.001871 
1.7847961e+3, 1.4393009e+2, -1819867.6, -1500444.5, -6354.621, -0.03996581, -0.27047405, -1500318.1, 29134.023, 0.030258754, 9.997227, 10.001464 
1.7848335e+3, 1.539317e+2, -1731191.4, -1407196.6, 13365.456, 0.06003718, -0.25965685, -1406646.3, 24795.541, 0.0109521225, 9.997169, 10.001453 
1.7848682e+3, 1.6393322e+2, -1565579.9, -1276045.4, -77001.164, 0.028202968, -0.24229397, -1256840.9, 76587.664, 0.0020959692, 9.997625, 10.001462 
1.7849007e+3, 1.739345e+2, -1288908.8, -1087603.4, -108053.56, -0.09642605, -0.26484868, -1040585.75, 194826.48, 0.000105867584, 9.998837, 10.001494 
1.7849344e+3, 1.8393476e+2, -1209230.4, -1155632.0, -91701.95, -0.116402686, -0.31378686, -1086893.5, 50514.234, 0.0000000562377, 9.999387, 10.000093 
1.7849702e+3, 1.9393378e+2, -1186745.3, -1108396.5, -86996.03, -0.014019212, -0.40973496, -1052161.5, -12743.311, 0.0, 9.998933, 9.999962 
1.7850049e+3, 2.0393342e+2, -1123826.4, -1129885.4, -121171.9, 0.044326466, -0.39035857, -1005646.2, -64222.156, 0.0, 9.999131, 9.999046 
1.7850384e+3, 2.1393405e+2, -854867.94, -958594.44, -123059.17, 0.046399448, -0.22586821, -773189.56, 70232.086, 0.0, 10.000344, 9.998965 
1.7850724e+3, 2.2393364e+2, -677125.3, -812941.6, -85869.8, 0.055572163, -0.15452485, -635556.8, 109870.45, 0.0, 10.00085, 9.99905 
1.7851071e+3, 2.3393185e+2, -657563.5, -745492.94, -78243.125, 0.07634419, -0.24689338, -611779.25, 35663.64, 0.0, 10.000283, 9.999111 
1.7851414e+3, 2.4393037e+2, -573879.2, -626273.94, -64491.168, 0.036262576, -0.30458012, -530467.56, 18987.508, 0.0, 10.000064, 9.999362 
1.7851749e+3, 2.5392962e+2, -428953.72, -498597.4, -89700.37, -0.0948852, -0.32474092, -367553.34, 83906.484, 0.0, 10.000356, 9.999424 
1.7852092e+3, 2.6392817e+2, -354385.6, -576277.75, -119930.57, -0.1520041, -0.33387938, -301953.7, 51518.668, 0.0, 10.000901, 9.997957 
1.7852439e+3, 2.7392578e+2, -127287.14, -430990.78, -113701.25, -0.0890167, -0.35785678, -89436.695, 166058.78, 0.0, 10.001852, 9.997824 
1.7852788e+3, 2.8392333e+2, 97379.586, -261111.61, -112892.67, -0.021375673, -0.37453812, 129968.22, 287485.66, 0.00000023400877, 10.00268, 9.997917 
1.7853138e+3, 2.9392126e+2, 280913.5, -122149.61, -159192.23, 0.037821434, -0.38102096, 336203.16, 395736.97, 0.000008828617, 10.003269, 9.997913 
1.7853484e+3, 3.0391797e+2, 317358.1, -260112.75, -14063.811, -0.081302725, -0.4195245, 317700.4, 317700.4, 0.000048595, 10.00395, 9.996314 
1.7853858e+3, 3.1391507e+2, 433489.1, -224045.31, -72238.35, -0.14306395, -0.3269087, 441331.84, 441331.84, 0.00012584894, 10.004858, 9.996108 
1.7947228e+3, 1.238893e+2, -1880588.0, -1654364.3, 31678.3, -0.07076389, -0.41186732, -1650012.1, 75832.2, 0.09190124, 9.998224, 10.001316 
1.7947607e+3, 1.3388921e+2, -1839057.9, -1562225.5, -48992.813, 0.21283391, -0.5661263, -1553810.6, 74034.47, 0.06119029, 9.997748, 10.001496 
1.7947914e+3, 1.4389169e+2, -1787324.1, -1444586.3, -16415.258, -0.2412473, -0.47170845, -1443801.9, 86020.375, 0.03230053, 9.997265, 10.001844 
1.7948292e+3, 1.5389402e+2, -1698068.1, -1341531.3, 13265.023, -0.0724034, -0.43134448, -1341038.4, 90764.38, 0.011841973, 9.997175, 10.001908 
1.7948654e+3, 1.63896e+2, -1602229.8, -1350697.0, -36371.566, -0.01972936, -0.36991867, -1345543.3, -11756.836, 0.0023264778, 9.997619, 10.000953 
1.7949003e+3, 1.7389737e+2, -1330811.1, -1178987.8, -60283.797, -0.026258476, -0.32281426, -1157962.8, 77812.92, 0.00012352158, 9.998853, 10.000862 
1.794935e+3, 1.8389843e+2, -1210556.1, -1160847.6, -104640.39, 0.007287513, -0.25506243, -1078150.3, 59617.38, 0.000000085167756, 9.999397, 10.000052 
1.7949699e+3, 1.9389927e+2, -1186549.4, -1106881.6, -103014.35, 0.06742329, -0.17062639, -1036267.75, 3493.5234, 0.0, 9.998926, 9.999977 
1.7950039e+3, 2.0389889e+2, -1119655.1, -1117514.9, -82905.01, 0.038351078, -0.15638052, -1035673.06, -93907.45, 0.0, 9.999113, 9.999141 
1.7950371e+3, 2.1389686e+2, -851094.56, -947348.8, -73939.42, -0.112875946, -0.2709144, -810998.9, 32785.473, 0.0, 10.000325, 9.999054 
1.7950709e+3, 2.2389503e+2, -668544.9, -789247.06, -100784.914, -0.17084275, -0.3528365, -611423.2, 134377.39, 0.0, 10.000825, 9.999225 
1.7951058e+3, 2.338938e+2, -646872.4, -721317.6, -97226.516, -0.08320595, -0.407085, -579986.8, 67823.91, 0.0, 10.000273, 9.999283 
1.7951407e+3, 2.438929e+2, -612133.7, -706272.1, -58093.45, -0.038522277, -0.39199418, -584434.2, -34615.375, 0.0, 10.000066, 9.998813 
1.7951757e+3, 2.538927e+2, -473988.9, -592278.44, -75533.016, -0.06122275, -0.29305676, -437199.63, 14622.409, 0.0, 10.000355, 9.998783 
1.795211e+3, 2.638917e+2, -334642.22, -535176.06, -87587.81, -0.049359005, -0.23388878, -301773.56, 52058.41, 0.0, 10.000899, 9.99824 
1.7952469e+3, 2.738897e+2, -105191.32, -380128.25, -73658.24, 0.022652697, -0.25983626, -86701.086, 169149.55, 0.0, 10.001828, 9.998185 
1.7952824e+3, 2.838871e+2, 35511.793, -382450.8, -89950.08, 0.0624365, -0.2759995, 54047.96, 211922.55, 0.00000044243924, 10.0026455, 9.9971 
1.795317e+3, 2.9388413e+2, 207645.33, -262786.0, -132916.63, 0.02732371, -0.27549353, 242602.27, 302504.4, 0.000011165119, 10.003214, 9.996977 
1.7953508e+3, 3.0387968e+2, 400043.84, -69429.91, 17433.318, -0.2360015, -0.43860072, 400690.34, 400690.34, 0.000053598167, 10.003871, 9.997662 
1.7953913e+3, 3.1387642e+2, 586879.3, 123426.0, 1966.7793, -0.084382564, -0.5383842, 586887.7, 586887.7, 0.00012962573, 10.004735, 9.998556 
1.8047199e+3, 1.2385237e+2, -2272814.8, -1778983.3, -63893.145, -0.027900144, -0.39592835, -1770850.5, -44642.15, 0.097200245, 9.995299, 10.001815 
1.8047573e+3, 1.3385233e+2, -2006780.0, -1607672.4, -73460.836, 0.17900202, -0.5749383, -1594580.5, 33626.527, 0.06490086, 9.996462, 10.001785 
1.8047878e+3, 1.4385484e+2, -1795183.6, -1434450.8, -25183.637, -0.31683862, -0.4975265, -1432701.1, 97480.71, 0.034457777, 9.997149, 10.001972 
1.8048266e+3, 1.5385737e+2, -1638927.1, -1301933.3, -21894.87, -0.07090425, -0.45063394, -1300516.6, 131642.19, 0.0127833225, 9.997531, 10.002011 
1.8048637e+3, 1.6385925e+2, -1595859.9, -1394164.6, -58700.78, 0.03331854, -0.38378695, -1378324.5, -44181.027, 0.0025744103, 9.997869, 10.00053 
1.8048993e+3, 1.7386025e+2, -1470377.3, -1300464.6, -75726.88, 0.035157625, -0.32504082, -1271613.5, -35473.85, 0.00014305822, 9.998136, 10.00037 
1.8049344e+3, 1.8386124e+2, -1339364.5, -1229592.5, -135908.94, 0.051355425, -0.2347667, -1137905.3, 228.94713, 0.00000010953618, 9.99854, 9.999993 
1.8049686e+3, 1.9386242e+2, -1155325.9, -1092043.9, -142439.42, 0.053940468, -0.11425552, -977773.44, 62350.465, 0.0, 9.999139, 9.999975 
1.805003e+3, 2.0386198e+2, -1033979.56, -1042848.56, -92290.836, 0.01077759, -0.120128624, -946016.75, -3889.2007, 0.0, 9.999559, 9.999438 
1.8050374e+3, 2.138592e+2, -917916.2, -939908.56, -67931.51, -0.08774301, -0.3394181, -860096.6, -15945.897, 0.0, 9.999702, 9.999401 
1.8050717e+3, 2.2385736e+2, -779509.4, -861668.0, -109844.36, -0.14096493, -0.43646586, -703314.25, 42852.727, 0.0, 10.000148, 9.999052 
1.8051058e+3, 2.3385714e+2, -550329.9, -701124.8, -141638.28, -0.12736991, -0.36498195, -465271.2, 182899.13, 0.0, 10.001053, 9.999043 
1.8051407e+3, 2.438565e+2, -414890.8, -651486.06, -111290.445, -0.09525086, -0.2943438, -370769.56, 179408.23, 0.0, 10.001592, 9.998453 
1.8051767e+3, 2.5385535e+2, -323559.28, -560573.56, -114213.84, -0.03663239, -0.2531533, -277479.8, 174710.25, 0.0, 10.001565, 9.998417 
1.8052126e+3, 2.6385382e+2, -238332.5, -478399.25, -108232.8, 0.0016665603, -0.22985396, -196741.77, 157462.63, 0.0, 10.001518, 9.998331 
1.8052484e+3, 2.738519e+2, -150258.31, -384609.13, -113785.01, 0.025291115, -0.2611241, -104102.45, 152118.13, 0.0, 10.001444, 9.998338 
1.8052845e+3, 2.838492e+2, -118351.56, -477867.88, -107165.77, 0.06868405, -0.28678557, -88831.195, 69413.91, 0.00000069024054, 10.00168, 9.996911 
1.8053204e+3, 2.9384592e+2, 72122.305, -347662.53, -104102.414, 0.100006506, -0.29482478, 96520.6, 156797.81, 0.000013963075, 10.002369, 9.9968 
1.805354e+3, 3.0384186e+2, 222640.31, -137408.73, 31435.084, -0.21277271, -0.41576064, 225364.23, 225364.23, 0.00005916814, 10.00258, 9.997813 
1.8053953e+3, 3.1383976e+2, 282034.6, 43120.332, -39418.906, -0.015865995, -0.41980308, 288370.38, 288370.38, 0.0001325304, 10.00234, 9.999162 
1.814716e+3, 1.23815246e+2, -2203289.3, -1630474.1, -57764.74, 0.058176707, -0.28853288, -1624707.0, 101875.08, 0.10291468, 9.995228, 10.002951 
1.814754e+3, 1.3381678e+2, -1942553.6, -1477226.3, -30179.021, 0.21454465, -0.40908143, -1475277.1, 153284.84, 0.06887483, 9.99643, 10.002759 
1.8147853e+3, 1.4381975e+2, -1804775.0, -1452279.8, -13106.421, -0.27537823, -0.33575186, -1451793.1, 78736.695, 0.036753505, 9.997142, 10.001851 
1.8148254e+3, 1.538218e+2, -1656510.4, -1340730.1, -4731.453, 0.060659673, -0.30961996, -1340659.3, 91850.19, 0.01378539, 9.997541, 10.001738 
1.814863e+3, 1.6382301e+2, -1620453.6, -1447587.8, -49640.984, 0.17678171, -0.2784241, -1434346.8, -99847.3, 0.002842686, 9.997877, 10.000161 
1.8148978e+3, 1.738231e+2, -1496849.1, -1357826.5, -64479.79, 0.07427457, -0.2720151, -1332525.0, -96020.49, 0.00016504708, 9.99814, 9.999977 
1.8149324e+3, 1.8382311e+2, -1346911.8, -1240882.3, -115215.016, -0.0025664691, -0.25481752, -1167070.1, -28562.146, 0.00000012908751, 9.998523, 9.999923 
1.8149665e+3, 1.9382323e+2, -1158489.3, -1096922.9, -117095.836, -0.07030527, -0.23889162, -1006631.56, 33874.58, 0.0, 9.999131, 9.999946 
1.8150017e+3, 2.0382261e+2, -1000856.7, -973060.5, -86755.71, -0.054402594, -0.28078207, -899096.7, 43413.547, 0.0, 9.999553, 9.999922 
1.8150389e+3, 2.1382102e+2, -880945.44, -861349.2, -60243.957, 0.104828015, -0.43622684, -810111.8, 34410.03, 0.0, 9.99969, 9.999949 
1.8150745e+3, 2.238205e+2, -818409.94, -934534.1, -79416.36, 0.12473549, -0.41146874, -778094.4, -31566.719, 0.0, 10.000114, 9.998568 
1.8151075e+3, 2.3382178e+2, -599386.7, -796025.0, -103539.34, -0.074079365, -0.12784609, -554922.56, 93600.02, 0.0, 10.001021, 9.998409 
1.8151419e+3, 2.4382105e+2, -433144.8, -681401.56, -108411.14, -0.1504408, -0.020969989, -392467.78, 158065.23, 0.0, 10.001557, 9.998264 
1.8151782e+3, 2.538175e+2, -337239.53, -583592.44, -111486.39, -0.0374663, -0.20623675, -294278.53, 158286.11, 0.0, 10.001541, 9.99827 
1.815214e+3, 2.6381454e+2, -242005.42, -488399.53, -110763.945, -0.008415422, -0.3171782, -199533.63, 155056.25, 0.0, 10.001525, 9.998261 
1.8152487e+3, 2.7381256e+2, -153557.25, -394827.34, -112476.86, -0.08642111, -0.3464385, -109256.37, 147348.14, 0.0, 10.001455, 9.998265 
1.8152852e+3, 2.838098e+2, -86051.21, -418752.53, -84237.695, -0.016278807, -0.39026955, -65938.66, 92689.89, 0.000000944594, 10.001713, 9.997303 
1.8153238e+3, 2.9380655e+2, 109845.625, -277459.4, -74203.984, 0.22394817, -0.43840846, 123575.67, 184236.36, 0.000016601005, 10.002399, 9.997272 
1.8153583e+3, 3.0380443e+2, 158132.81, -271321.3, 19582.072, -0.048195813, -0.3569168, 159023.86, 159023.86, 0.00006456091, 10.002582, 9.996892 
1.8153967e+3, 3.1380263e+2, 197830.1, -119141.93, 37487.848, -0.10504442, -0.2122288, 202203.39, 202203.39, 0.00013698086, 10.002275, 9.998084 
1.8247117e+3, 1.2377759e+2, -2057743.6, -1556476.0, -636.73035, 0.059273552, -0.28373796, -1556475.1, 170479.45, 0.10907774, 9.996168, 10.00307 
1.8247503e+3, 1.3378042e+2, -1795894.4, -1421347.1, -28435.117, 0.16352952, -0.26707807, -1419200.6, 209722.17, 0.07313931, 9.997474, 10.002678 
1.8247823e+3, 1.4378314e+2, -1721469.5, -1469698.3, -110081.12, -0.31788087, -0.19165151, -1428356.4, 102537.33, 0.039204508, 9.99797, 10.001334 
1.8248227e+3, 1.537836e+2, -1685242.6, -1417886.6, -133847.11, 0.04983399, -0.26527813, -1362395.8, 70492.43, 0.014855209, 9.997628, 10.001161 
1.8248606e+3, 1.6378401e+2, -1627314.3, -1410550.0, -151923.48, 0.17882432, -0.29681784, -1332311.0, 2573.5286, 0.0031336718, 9.997655, 10.0005245 
1.8248956e+3, 1.7378466e+2, -1447203.6, -1277065.3, -101681.64, 0.04645884, -0.28227976, -1229560.3, 7321.0576, 0.00019006866, 9.9982395, 10.000483 
1.8249306e+3, 1.8378487e+2, -1280405.5, -1177415.3, -94157.26, -0.047031894, -0.28460157, -1121591.5, 17288.777, 0.00000015151502, 9.998846, 10.000202 
1.8249653e+3, 1.9378461e+2, -1095783.3, -1037747.2, -78823.94, -0.111052394, -0.33191228, -982769.6, 58111.37, 0.0, 9.999446, 10.000196 
1.8250012e+3, 2.037842e+2, -993706.5, -982334.1, -77931.19, -0.0679178, -0.36308268, -909881.94, 33001.625, 0.0, 9.99966, 9.9998045 
1.8250388e+3, 2.1378371e+2, -955433.3, -915288.3, -112214.6, 0.1527818, -0.39271075, -821365.06, 23522.438, 0.0, 9.999261, 9.999783 
1.8250749e+3, 2.2378354e+2, -931068.3, -984764.7, -108471.88, 0.2007456, -0.3220025, -846171.4, -99280.38, 0.0, 9.999321, 9.998609 
1.8251084e+3, 2.3378406e+2, -731300.1, -850506.4, -81651.89, -0.023593664, -0.1219549, -689811.4, -40919.37, 0.0, 10.000078, 9.998489 
1.8251432e+3, 2.4378279e+2, -549935.75, -742643.56, -68055.4, -0.124506004, -0.07205255, -528325.25, 22581.307, 0.0, 10.000777, 9.99822 
1.8251798e+3, 2.5377905e+2, -369045.22, -605738.94, -70490.28, -0.033259444, -0.27014157, -349642.84, 103296.51, 0.0, 10.001349, 9.998212 
1.8252158e+3, 2.6377597e+2, -186856.48, -497909.88, -65113.816, -0.0033678762, -0.3742557, -173776.06, 181190.0, 0.0, 10.002067, 9.9979315 
1.8252513e+3, 2.73774e+2, 50248.742, -336470.84, -93627.586, -0.04762621, -0.36773404, 71724.08, 328706.9, 0.00000000006268005, 10.003036, 9.9979 
1.8252881e+3, 2.837713e+2, 180004.33, -290956.78, -93020.4, 0.013867412, -0.38544512, 197711.22, 356718.9, 0.0000012442614, 10.003538, 9.997303 
1.8253262e+3, 2.937682e+2, 241924.81, -202303.23, -117551.34, 0.18318906, -0.42656398, 271113.3, 332151.94, 0.000017774919, 10.003259, 9.99737 
1.8253611e+3, 3.0376664e+2, 206715.78, -228990.31, -23058.62, -0.02364553, -0.2987769, 207932.69, 207932.69, 0.00006613456, 10.002842, 9.997053 
1.8254001e+3, 3.137648e+2, 236635.83, -92090.99, 127511.21, 0.008732722, -0.17563234, 280297.5, 280297.5, 0.00013948514, 10.002499, 9.998168 
1.8347067e+3, 1.2373926e+2, -2133024.5, -1697836.6, 13365.287, -0.05744865, -0.40858328, -1697426.6, 29900.074, 0.11569034, 9.996178, 10.001978 
1.8347462e+3, 1.3374327e+2, -1882125.8, -1590542.8, 16952.902, -0.0006358784, -0.15035634, -1589560.4, 39728.797, 0.07769921, 9.997492, 10.001416 
1.8347788e+3, 1.4374496e+2, -1787548.9, -1611365.4, -126165.78, -0.47062024, -0.060670212, -1545580.6, -14306.702, 0.04181763, 9.997995, 10.000327 
1.8348186e+3, 1.5374258e+2, -1750365.3, -1555035.1, -148266.23, -0.12900405, -0.3240894, -1475157.6, -41860.61, 0.015997248, 9.997636, 10.000212 
1.8348566e+3, 1.6374207e+2, -1549018.1, -1245955.0, -136499.5, 0.012408531, -0.4465712, -1193540.6, 141760.13, 0.0034491862, 9.997644, 10.001661 
1.8348926e+3, 1.7374483e+2, -1345716.6, -1069683.0, -77952.336, -0.064243145, -0.36016116, -1049190.5, 188080.22, 0.00021871291, 9.998251, 10.001903 
1.834929e+3, 1.8374647e+2, -1236748.6, -1086661.8, -72397.3, -0.09608936, -0.32547876, -1057432.1, 81819.62, 0.00000018976193, 9.998845, 10.000827 
1.834965e+3, 1.937465e+2, -1060989.9, -964573.9, -54091.18, -0.0825779, -0.39543954, -940325.94, 100922.875, 0.0, 9.999439, 10.000704 
1.8350011e+3, 2.0374663e+2, -1045995.0, -1088079.5, -89413.03, -0.042996634, -0.3699526, -975181.56, -31933.424, 0.0, 9.999646, 9.999086 
1.835037e+3, 2.1374713e+2, -1018078.06, -1045816.8, -124679.516, 0.046365693, -0.2123284, -906498.9, -61250.297, 0.0, 9.99926, 9.998889 
1.835073e+3, 2.2374645e+2, -895336.75, -907646.1, -85660.63, 0.07530752, -0.16807425, -815610.0, -68352.37, 0.0, 9.999309, 9.999143 
1.8351087e+3, 2.3374401e+2, -682067.6, -745598.3, -50203.227, 0.0075686392, -0.33503628, -654424.2, -5145.651, 0.0, 10.000064, 9.999217 
1.8351448e+3, 2.4374174e+2, -544271.56, -726687.44, -47245.805, -0.03512797, -0.4330625, -532761.2, 18537.412, 0.0, 10.000757, 9.998341 
1.835181e+3, 2.5373998e+2, -369687.6, -603128.7, -46338.17, -0.03817738, -0.4336408, -360825.84, 92488.75, 0.0, 10.00133, 9.998241 
1.8352179e+3, 2.6373807e+2, -231431.9, -586398.9, -31693.734, -0.0010709211, -0.39884767, -228624.28, 126709.84, 0.0, 10.002046, 9.997335 
1.8352559e+3, 2.7373597e+2, -7229.9146, -442898.4, -53674.01, 0.111641675, -0.3342959, -714.74994, 256642.89, 0.0000000003917971, 10.002976, 9.997201 
1.8352929e+3, 2.8373343e+2, 149509.86, -341405.47, -98477.87, 0.130298, -0.28472203, 168527.83, 327912.53, 0.0000014455857, 10.00348, 9.9969845 
1.8353274e+3, 2.9373062e+2, 219483.17, -245354.81, -125496.18, -0.026918525, -0.2692369, 251200.28, 312612.88, 0.000016847913, 10.003239, 9.997087 
1.8353628e+3, 3.0372846e+2, 285149.78, -66364.69, -40888.24, -0.13468958, -0.2334745, 289843.25, 289843.25, 0.00006220702, 10.002846, 9.998168 
1.8354039e+3, 3.137272e+2, 272990.2, -6337.268, 138515.77, 0.14377189, -0.17893985, 330030.75, 330030.75, 0.00013534095, 10.002449, 9.998785 
1.8447025e+3, 1.23701744e+2, -1828053.3, -1665616.9, -65819.69, -0.20096038, -0.36884567, -1642295.0, 85397.836, 0.12272786, 9.998746, 10.001005 
1.8447432e+3, 1.3370448e+2, -2008024.8, -1761884.8, -36852.21, -0.03364084, -0.13906717, -1756485.6, -126814.164, 0.08254445, 9.997121, 10.000393 
1.8447767e+3, 1.4370511e+2, -1986624.4, -1672294.5, -102440.47, -0.39742404, -0.11028662, -1641856.5, -110188.46, 0.04459436, 9.99648, 10.000638 
1.8448158e+3, 1.5370353e+2, -1702616.8, -1475171.5, -13030.719, -0.16629966, -0.34538677, -1474427.4, -40745.695, 0.017215712, 9.997714, 10.000724 
1.8448538e+3, 1.6370353e+2, -1410320.3, -1160031.4, 31024.592, -0.073743895, -0.45152223, -1156243.1, 179435.52, 0.0037916328, 9.998517, 10.001829 
1.8448906e+3, 1.7370641e+2, -1283497.0, -1025120.4, -12286.718, -0.120106846, -0.36809674, -1024537.44, 213108.72, 0.00025177147, 9.998623, 10.002025 
1.8449275e+3, 1.837082e+2, -1228211.6, -1069768.0, -71670.76, -0.11266101, -0.33060333, -1042159.1, 97465.945, 0.00000025167606, 9.998848, 10.000939 
1.8449648e+3, 1.9370845e+2, -1077257.3, -961063.0, -87216.99, -0.04469397, -0.38986507, -914364.7, 127255.875, 0.0, 9.999277, 10.000805 
1.8450011e+3, 2.0370854e+2, -1026090.7, -1108011.8, -129746.15, -0.013039257, -0.3612772, -930993.06, 12627.57, 0.0, 9.999913, 9.998819 
1.8450361e+3, 2.1370864e+2, -807459.1, -981006.75, -129707.56, -0.033786576, -0.21128477, -738176.06, 107449.54, 0.0, 10.00087, 9.998556 
1.8450722e+3, 2.2370747e+2, -600011.56, -759090.44, -83647.0, -0.024790999, -0.1965704, -564124.25, 183514.34, 0.0, 10.001311, 9.999195 
1.8451093e+3, 2.3370454e+2, -552441.7, -671038.4, -97252.08, 0.030464867, -0.42423928, -497835.4, 151826.9, 0.0, 10.000906, 9.99932 
1.8451463e+3, 2.4370252e+2, -505289.75, -696158.2, -98984.72, 0.034515485, -0.50687695, -463226.13, 88453.63, 0.0, 10.000976, 9.998445 
1.8451823e+3, 2.5370216e+2, -293700.03, -553063.06, -96337.23, -0.04519212, -0.38039762, -261832.31, 191852.88, 0.0, 10.001799, 9.998356 
1.8452196e+3, 2.6370078e+2, -240585.64, -614333.5, -81222.17, -0.024693795, -0.28717327, -223697.69, 132004.02, 0.0, 10.002083, 9.997126 
1.8452585e+3, 2.7369797e+2, -241189.6, -582501.56, -77321.766, 0.16263127, -0.26796308, -224489.98, 33243.59, 0.0000000015385294, 10.001486, 9.996958 
1.8452957e+3, 2.836952e+2, -111543.67, -443405.47, -70477.44, 0.18658303, -0.23783123, -97196.64, 62566.625, 0.0000014064119, 10.001589, 9.997194 
1.8453301e+3, 2.9369268e+2, 179745.47, -233822.6, -65300.793, -0.0544919, -0.2185551, 189811.22, 251597.83, 0.000014604548, 10.002838, 9.997358 
1.8453659e+3, 3.0368978e+2, 333791.47, -60343.684, -34471.125, -0.12096978, -0.26384187, 336783.6, 336783.6, 0.00005502757, 10.003258, 9.99801 
1.8454054e+3, 3.136879e+2, 266673.7, -25226.16, 29561.041, 0.052673012, -0.25538203, 269637.28, 269637.28, 0.00012445563, 10.002465, 9.99865 
1.8546994e+3, 1.2366553e+2, -1877298.5, -1781434.8, -142506.38, -0.404761, -0.11288015, -1679015.3, 49033.613, 0.13014582, 9.998835, 10.00013 
1.8547411e+3, 1.3366395e+2, -2060092.8, -1868527.9, -102053.82, 0.058657765, -0.24415272, -1824348.6, -194278.28, 0.08765755, 9.997115, 9.999663 
1.8547761e+3, 1.4366339e+2, -1874836.5, -1436664.0, -70947.63, -0.09487358, -0.3656329, -1425462.8, 106614.58, 0.04753598, 9.99644, 10.002313 
1.8548144e+3, 1.5366653e+2, -1559800.1, -1182498.4, 39344.156, -0.06422674, -0.3303651, -1178439.3, 255601.45, 0.01851746, 9.997709, 10.002769 
1.854852e+3, 1.636687e+2, -1464638.8, -1279028.4, 41969.613, -0.09067818, -0.29908735, -1269979.5, 66035.76, 0.0041650403, 9.998542, 10.000999 
1.8548891e+3, 1.7366946e+2, -1369065.3, -1208385.6, -5773.112, -0.1325836, -0.30459252, -1208178.5, 29828.46, 0.00029041685, 9.998642, 10.00076 
1.8549263e+3, 1.8366998e+2, -1259009.3, -1132741.3, -57591.61, -0.112660915, -0.30479774, -1110419.5, 29581.693, 0.0000003514084, 9.998844, 10.000509 
1.8549642e+3, 1.9367038e+2, -1099480.6, -1006335.1, -68469.77, -0.012655149, -0.31693134, -970100.06, 71896.58, 0.0, 9.999272, 10.000497 
1.8550012e+3, 2.0366989e+2, -1018682.8, -1088629.4, -97062.734, 0.006952778, -0.33541468, -950484.8, -6483.4644, 0.0, 9.999895, 9.998961 
1.8550363e+3, 2.1366817e+2, -796187.2, -953701.7, -90619.055, -0.100108564, -0.38742694, -754884.0, 91135.04, 0.0, 10.00085, 9.9987545 
1.8550725e+3, 2.236666e+2, -631574.1, -819143.9, -92611.45, -0.11324863, -0.40834674, -593554.3, 154480.27, 0.0, 10.0012865, 9.9987955 
1.8551102e+3, 2.3366554e+2, -588940.25, -744744.5, -108897.92, 0.032091536, -0.3982365, -532948.75, 117095.45, 0.0, 10.000894, 9.998822 
1.8551476e+3, 2.4366497e+2, -503797.38, -689209.4, -73188.4, 0.07027822, -0.3107925, -478389.25, 73662.16, 0.0, 10.000957, 9.998502 
1.855184e+3, 2.5366533e+2, -287966.53, -534803.6, -61595.543, -0.068973646, -0.12516949, -273449.78, 180602.89, 0.0, 10.001769, 9.998497 
1.8552211e+3, 2.6366395e+2, -229527.75, -590896.4, -97521.1, -0.08620986, -0.047994882, -204889.9, 151180.22, 0.0, 10.002078, 9.997291 
1.8552594e+3, 2.736599e+2, -227418.81, -558948.9, -95412.0, 0.10065651, -0.16806374, -201920.94, 56190.67, 0.0000000013685529, 10.001504, 9.997114 
1.8552972e+3, 2.8365654e+2, -60609.113, -341434.16, -33680.324, 0.17064472, -0.23662612, -56626.207, 103518.27, 0.0000011448096, 10.001603, 9.997889 
1.855334e+3, 2.9365435e+2, 218287.6, -136495.06, -16742.572, 0.059095286, -0.2600555, 219075.94, 281237.9, 0.000012122182, 10.002759, 9.998068 
1.8553703e+3, 3.0365047e+2, 234792.58, -247641.55, -55132.266, -0.015361846, -0.3828215, 241012.86, 241012.86, 0.000047854388, 10.0031805, 9.996758 
1.8554057e+3, 3.1364882e+2, 226028.16, -113579.95, -41203.84, -0.16164963, -0.20557508, 230955.81, 230955.81, 0.00011210172, 10.002492, 9.998025 
1.8646978e+3, 1.2362694e+2, -2179768.3, -1877588.0, -161514.88, -0.33738706, -0.11245272, -1807510.1, -79082.6, 0.1378835, 9.99655, 10.00054 
1.8647376e+3, 1.3362515e+2, -2125099.3, -1827897.6, -24146.506, 0.03790116, -0.32773638, -1825948.6, -195500.1, 0.09301642, 9.996365, 10.000305 
1.864773e+3, 1.4362483e+2, -1839421.0, -1436439.6, 83908.6, -0.059585705, -0.45698062, -1419666.4, 112786.16, 0.050644647, 9.9967575, 10.002161 
1.8648127e+3, 1.5362921e+2, -1511587.3, -1191106.3, 30073.578, -0.036464356, -0.26962754, -1188308.6, 246097.67, 0.01991141, 9.9981785, 10.002481 
1.864851e+3, 1.6363177e+2, -1461340.8, -1309767.8, -106542.445, -0.05800879, -0.17306095, -1254806.9, 81572.07, 0.0045744055, 9.998705, 10.000708 
1.8648873e+3, 1.736314e+2, -1516985.5, -1312142.4, -97089.01, -0.10721941, -0.25930497, -1273438.3, -35056.996, 0.0003360051, 9.997767, 10.000467 
1.8649249e+3, 1.836311e+2, -1462337.1, -1273517.8, -61327.754, -0.08935404, -0.30635113, -1255347.3, -114963.86, 0.00000050835786, 9.997637, 10.000125 
1.8649636e+3, 1.9363128e+2, -1181805.3, -1090750.1, -75181.22, 0.023195947, -0.30220625, -1048385.8, -6003.8237, 0.0, 9.998904, 10.000094 
1.8650013e+3, 2.0363072e+2, -989111.8, -1017545.25, -99548.91, 0.053542826, -0.32471234, -902769.6, 41616.87, 0.0, 9.999855, 9.999468 
1.8650374e+3, 2.1362925e+2, -841468.44, -903132.8, -65552.22, -0.049446393, -0.41498148, -799859.5, 46539.047, 0.0, 10.000231, 9.999397 
1.8650737e+3, 2.2362787e+2, -749055.8, -890353.9, -62166.926, -0.07057472, -0.44660252, -725598.44, 22812.14, 0.0, 10.0005455, 9.998663 
1.8651111e+3, 2.3362689e+2, -625146.75, -789879.44, -68644.17, 0.043322057, -0.40485007, -600292.56, 50128.07, 0.0, 10.000766, 9.998572 
1.8651484e+3, 2.4362616e+2, -507442.84, -714186.94, -5615.117, 0.065112606, -0.3095522, -507290.47, 45139.92, 0.0, 10.001042, 9.998282 
1.8651855e+3, 2.5362605e+2, -355332.47, -591494.94, -19522.297, -0.06580516, -0.15092097, -353729.53, 100707.92, 0.0, 10.00142, 9.998271 
1.8652229e+3, 2.6362458e+2, -225877.9, -550879.06, -76506.37, -0.09719944, -0.08444648, -208768.73, 147687.34, 0.0, 10.001946, 9.997625 
1.8652609e+3, 2.7362105e+2, -19823.766, -410121.3, -64311.906, 0.03725335, -0.19293846, -9499.756, 248991.7, 0.00000000003100597, 10.002725, 9.997544 
1.8652989e+3, 2.836182e+2, 123044.59, -219943.31, -8311.089, 0.11783143, -0.24724175, 123245.86, 283764.78, 0.00000083303144, 10.002726, 9.998179 
1.8653366e+3, 2.9361668e+2, 37659.45, -189380.4, -31356.799, 0.12038003, -0.23714653, 41910.586, 104441.62, 0.000010183762, 10.001381, 9.99836 
1.8653728e+3, 3.0361333e+2, -31425.182, -383798.4, -10882.618, 0.030864181, -0.3187271, -31089.404, -31089.404, 0.000043141717, 10.001379, 9.996693 
1.8654075e+3, 3.13611e+2, 428205.34, 9234.295, 64396.45, -0.28802222, -0.20439366, 437879.78, 437879.78, 0.00010402645, 10.003773, 9.998248 
1.8746975e+3, 1.2358582e+2, -2068241.5, -1646520.0, -157309.98, -0.012204217, -0.39122376, -1594305.3, 134525.08, 0.14588223, 9.996476, 10.002307 
1.8747322e+3, 1.3358834e+2, -1981844.5, -1534725.0, -25641.182, -0.11860833, -0.38398778, -1533259.4, 97543.555, 0.0986057, 9.996338, 10.002401 
1.874767e+3, 1.4358984e+2, -1986415.8, -1737449.3, 132855.53, -0.33608523, -0.35898077, -1679870.3, -147081.38, 0.053927336, 9.99676, 10.000056 
1.87481e+3, 1.5359162e+2, -1707079.8, -1592557.5, 87062.99, -0.10445679, -0.1592906, -1545613.0, -110834.85, 0.021407956, 9.99818, 9.999693 
1.8748504e+3, 1.6359252e+2, -1445447.3, -1278145.5, -133458.03, 0.0087051485, -0.078448065, -1204289.1, 132482.63, 0.0050250688, 9.99871, 10.000924 
1.8748856e+3, 1.7359212e+2, -1468525.1, -1211601.0, -132822.89, -0.055342168, -0.23472758, -1155281.0, 83489.17, 0.00038988978, 9.997766, 10.001159 
1.8749227e+3, 1.8359157e+2, -1488290.5, -1323932.3, -25749.623, -0.054831106, -0.33268124, -1319992.6, -179220.63, 0.000000733184, 9.997621, 9.999788 
1.8749627e+3, 1.9359107e+2, -1219768.3, -1166325.4, -24106.02, 0.050194077, -0.34436312, -1157058.9, -114282.02, 0.0, 9.998889, 9.999584 
1.8750018e+3, 2.0359097e+2, -930906.56, -894696.7, -81934.18, 0.10954209, -0.33084095, -828890.94, 115885.555, 0.0, 9.999843, 10.000319 
1.8750389e+3, 2.1359177e+2, -768660.4, -750033.8, -49582.37, 0.09993308, -0.2982274, -708897.6, 137867.5, 0.0, 10.000217, 10.000458 
1.8750758e+3, 2.2359122e+2, -742785.44, -872559.75, -54202.66, 0.083030164, -0.31480467, -723125.1, 25642.611, 0.0, 10.000523, 9.998796 
1.8751119e+3, 2.3358855e+2, -629178.7, -795602.94, -57331.113, 0.05204898, -0.44093853, -611340.8, 39451.63, 0.0, 10.000751, 9.998543 
1.8751489e+3, 2.4358612e+2, -542352.0, -783939.44, 7237.437, 0.005832123, -0.4922693, -542135.4, 10681.757, 0.0, 10.001029, 9.997812 
1.8751869e+3, 2.5358444e+2, -396655.2, -675819.6, -366.86108, -0.05381432, -0.43517947, -396654.7, 58184.242, 0.0, 10.001409, 9.997701 
1.875225e+3, 2.635828e+2, -195105.72, -482406.34, -47806.676, -0.078072116, -0.37211257, -187359.56, 169499.39, 0.0, 10.001925, 9.998105 
1.8752627e+3, 2.7358142e+2, 17075.723, -321409.03, -29537.121, -0.04453835, -0.33140084, 19633.88, 278508.13, 0.000000000027705341, 10.002669, 9.998183 
1.8753004e+3, 2.835801e+2, 114226.51, -226305.95, -48660.29, 0.010173726, -0.26627442, 121043.35, 281931.75, 0.0000008486712, 10.002677, 9.9981575 
1.875338e+3, 2.935794e+2, 34556.45, -207177.53, -79690.45, 0.12538168, -0.15764861, 58463.066, 121359.15, 0.000009774076, 10.001427, 9.998219 
1.8753739e+3, 3.0357793e+2, 49609.316, -230103.36, 55772.438, -0.00012288931, -0.09154431, 60319.773, 60319.773, 0.000042146796, 10.001441, 9.997719 
1.8754122e+3, 3.1357262e+2, 473890.1, 151181.05, 141538.56, -0.2017137, -0.39041674, 527171.2, 527171.2, 0.00010191691, 10.003578, 9.999315 
1.8846947e+3, 1.2354738e+2, -2155205.3, -1682560.0, -27156.717, 0.0994978, -0.4859362, -1681004.9, 48200.59, 0.15411249, 9.995874, 10.00227 
1.8847288e+3, 1.3355125e+2, -1600418.1, -1372034.5, -61441.465, -0.22089094, -0.342279, -1356554.4, 274610.4, 0.10442951, 9.998982, 10.00238 
1.8847646e+3, 1.4355323e+2, -1514778.6, -1565935.0, -3401.086, -0.42811182, -0.2475645, -1514553.5, 18592.934, 0.057399224, 10.000254, 9.999546 
1.8848084e+3, 1.5355302e+2, -1746197.9, -1680364.5, 96784.7, -0.090814605, -0.18264256, -1611052.1, -175896.39, 0.023018045, 9.998211, 9.999076 
1.884849e+3, 1.635528e+2, -1646317.9, -1405965.5, -19767.453, 0.08564815, -0.16448303, -1404350.6, -67189.92, 0.005521801, 9.997468, 10.000643 
1.8848844e+3, 1.7355284e+2, -1280882.8, -1146413.4, -86472.95, -0.022397697, -0.25549555, -1104112.4, 135043.05, 0.0004532519, 9.9991665, 10.000933 
1.8849215e+3, 1.8355247e+2, -1128301.6, -1133810.6, -3280.0906, -0.049967777, -0.3286124, -1126772.9, 14381.978, 0.0000010252129, 10.000016, 9.999936 
1.8849619e+3, 1.9355172e+2, -1140102.0, -1104059.3, 49106.336, 0.059863664, -0.3889135, -1069771.9, -26612.377, 0.0, 9.9993305, 9.999796 
1.8850014e+3, 2.035515e+2, -1056850.5, -987553.2, -2232.7144, 0.13096677, -0.3877173, -987481.3, -42321.5, 0.0, 9.999121, 10.000027 
1.8850394e+3, 2.1355243e+2, -854283.75, -833317.06, -81081.64, 0.13683613, -0.30430827, -762043.9, 85106.61, 0.0, 9.999817, 10.000077 
1.8850766e+3, 2.2355215e+2, -721116.0, -813665.56, -139336.52, 0.12107009, -0.28775698, -620571.06, 128580.86, 0.0, 10.000467, 9.999226 
1.885113e+3, 2.3355009e+2, -549560.1, -691763.4, -104593.31, 0.06900455, -0.41120857, -494189.63, 156979.8, 0.0, 10.001024, 9.999119 
1.8851501e+3, 2.4354789e+2, -460287.2, -704195.06, 8849.032, 0.016510507, -0.48885828, -459966.56, 93223.35, 0.0, 10.001416, 9.998176 
1.8851887e+3, 2.5354576e+2, -356983.66, -617935.9, 60290.61, -0.028215438, -0.510046, -343727.47, 111485.63, 0.0, 10.001516, 9.998045 
1.885227e+3, 2.6354405e+2, -248056.11, -495468.63, 43485.215, -0.046953976, -0.478933, -240635.7, 116596.375, 0.0, 10.001506, 9.99822 
1.8852648e+3, 2.735433e+2, -176649.67, -401620.06, 19472.3, -0.027211986, -0.38620016, -174976.69, 84265.12, 0.000000013338914, 10.001287, 9.998295 
1.8853024e+3, 2.8354207e+2, -66780.445, -373849.44, -34498.844, -0.008065999, -0.29842362, -62952.26, 98304.21, 0.0000013771862, 10.001692, 9.997622 
1.8853395e+3, 2.935404e+2, 248886.73, -174790.4, -103500.74, 0.044094373, -0.2245467, 272819.22, 336095.28, 0.000011190357, 10.003207, 9.997583 
1.885375e+3, 3.0353916e+2, 343851.97, -11551.199, -21393.762, -0.110064425, -0.12873772, 345135.16, 345135.16, 0.00004386809, 10.00313, 9.99841 
1.8854155e+3, 3.135345e+2, -6416.431, -21046.256, 49839.926, -0.029749224, -0.44326442, 36642.52, 36642.52, 0.00010319322, 10.000024, 9.999841 
1.8946886e+3, 1.2351194e+2, -2305792.5, -1975490.1, 106698.72, -0.10210542, -0.38459086, -1944021.1, -214471.9, 0.16258536, 9.995828, 10.000223 
1.8947272e+3, 1.335139e+2, -1755484.8, -1680657.0, 54257.42, -0.28659698, -0.19682555, -1652164.4, -20630.406, 0.110513955, 9.999028, 10.000031 
1.8947656e+3, 1.4351477e+2, -1429809.9, -1405814.0, -54692.703, -0.34019452, -0.12635005, -1361818.8, 171708.6, 0.06108175, 10.000335, 10.000665 
1.8948074e+3, 1.5351339e+2, -1627744.5, -1437528.5, 16996.121, -0.0028142093, -0.3443485, -1436021.8, -482.72943, 0.024752133, 9.998221, 10.000738 
1.8948472e+3, 1.635127e+2, -1704608.3, -1522604.8, 25385.994, 0.15705585, -0.4331598, -1519130.3, -181585.66, 0.0060684755, 9.997447, 9.999855 
1.8948835e+3, 1.7351355e+2, -1362767.6, -1320545.3, -16755.258, -0.020788318, -0.32697722, -1314704.3, -75167.12, 0.0005270964, 9.999181, 9.999732 
1.894921e+3, 1.8351376e+2, -1081053.8, -1038259.6, -17047.334, -0.09326847, -0.30048925, -1032298.94, 109233.57, 0.0000013718216, 10.000028, 10.000586 
1.894961e+3, 1.9351318e+2, -1074994.5, -966299.75, 24170.943, 0.035580162, -0.43660343, -961167.1, 82363.055, 0.0, 9.999319, 10.000749 
1.8950002e+3, 2.0351231e+2, -1159036.4, -1197309.1, 16042.406, 0.10126889, -0.4941092, -1153201.5, -207665.25, 0.0, 9.999107, 9.998595 
1.8950382e+3, 2.1351121e+2, -985836.2, -1104513.4, -50713.918, 0.05116011, -0.43197045, -967117.3, -119562.695, 0.0, 9.999804, 9.998224 
1.8950762e+3, 2.2351067e+2, -674205.7, -711759.3, -116799.67, 0.033593368, -0.3666868, -574683.1, 174880.27, 0.0, 10.000445, 9.999936 
1.895114e+3, 2.335114e+2, -473936.25, -529527.1, -80033.91, 0.075644776, -0.32058173, -417008.53, 234543.95, 0.0, 10.000998, 10.000247 
1.895152e+3, 2.4351124e+2, -381973.7, -536658.9, 12936.287, 0.07302353, -0.3083093, -380899.28, 172651.22, 0.0, 10.001393, 9.999338 
1.8951903e+3, 2.5350964e+2, -278766.34, -451752.63, 64491.547, -0.00205572, -0.3918209, -257369.63, 198193.69, 0.0, 10.001495, 9.999199 
1.8952286e+3, 2.635079e+2, -261257.36, -519719.88, 33078.695, -0.016498819, -0.423677, -257091.03, 100488.445, 0.0, 10.001492, 9.998061 
1.8952668e+3, 2.7350637e+2, -204656.61, -463336.34, 11313.765, 0.05965298, -0.36953995, -204162.73, 55434.492, 0.00000004636221, 10.001299, 9.9978695 
1.8953045e+3, 2.835039e+2, -133102.84, -512884.0, 12002.953, 0.030521285, -0.3410764, -132723.88, 28900.826, 0.0000018046524, 10.001697, 9.996664 
1.895341e+3, 2.9349968e+2, 163909.16, -344890.72, -32557.115, -0.12672153, -0.4132098, 165983.97, 229653.94, 0.000012391821, 10.003168, 9.99644 
1.8953761e+3, 3.0349714e+2, 374244.94, 53132.71, -108829.99, -0.31625047, -0.40325496, 407653.34, 407653.34, 0.000044739005, 10.003129, 9.998852 
1.8954177e+3, 3.1349677e+2, -17981.863, -76445.2, 7788.555, 0.18673672, -0.35277018, -16962.053, -16962.053, 0.000103194456, 10.00016, 9.999395 
1.9046855e+3, 1.23473816e+2, -1630729.3, -1654758.6, -62992.42, -0.22331116, -0.271138, -1578616.0, 151307.83, 0.1713416, 10.0006, 10.000225 
1.9047262e+3, 1.3347425e+2, -2034556.5, -1837116.0, -1250.7645, -0.19367826, -0.21712804, -1837108.0, -205185.03, 0.11689223, 9.997213, 9.999831 
1.904766e+3, 1.4347494e+2, -2034127.9, -1609117.1, -27587.926, -0.11311421, -0.18551508, -1607333.9, -73417.055, 0.06499328, 9.99578, 10.00141 
1.9048055e+3, 1.5347469e+2, -1635096.6, -1342328.8, -15742.313, 0.0059705744, -0.37829176, -1341484.8, 94429.69, 0.026617203, 9.997732, 10.001645 
1.9048445e+3, 1.6347454e+2, -1487395.3, -1420677.1, 19472.365, 0.07691891, -0.46514255, -1415409.8, -77496.77, 0.0066676727, 9.998947, 9.999829 
1.904883e+3, 1.7347479e+2, -1422489.1, -1371159.0, 54178.81, 0.03583441, -0.40082908, -1336873.8, -96962.34, 0.0006122247, 9.998861, 9.999537 
1.9049217e+3, 1.8347472e+2, -1222350.8, -1150307.9, 48307.652, 0.018768456, -0.3770184, -1126070.1, 15840.79, 0.0000017786746, 9.9992485, 10.000195 
1.9049609e+3, 1.9347444e+2, -925242.3, -942718.3, -19653.004, 0.04794947, -0.43824822, -912472.3, 131436.5, 0.0, 10.00056, 10.000314 
1.9049998e+3, 2.0347361e+2, -862241.9, -1051456.8, -50558.625, 0.052732024, -0.46514773, -849579.9, 96336.01, 0.0, 10.001138, 9.998616 
1.9050379e+3, 2.1347207e+2, -892018.5, -1046976.9, 20081.43, 0.016899573, -0.4588637, -889458.4, -41521.703, 0.0, 10.000398, 9.99833 
1.9050762e+3, 2.2347133e+2, -733618.1, -748988.2, 34043.53, 0.022340206, -0.41686922, -706403.0, 43543.465, 0.0, 10.000077, 9.999857 
1.9051148e+3, 2.3347233e+2, -548102.75, -578612.4, -19580.883, 0.09399148, -0.33158588, -538535.8, 113398.195, 0.0, 10.000548, 10.000127 
1.9051534e+3, 2.434724e+2, -449815.03, -570107.3, -22394.506, 0.09862554, -0.29001644, -445781.16, 108149.62, 0.0, 10.0009365, 9.999324 
1.9051915e+3, 2.534709e+2, -327182.84, -473335.28, -59926.207, 0.000037714344, -0.36358935, -305753.6, 150189.25, 0.0, 10.001165, 9.999203 
1.9052301e+3, 2.6346916e+2, -238845.83, -468066.22, -119530.05, -0.012888881, -0.4114631, -187857.33, 170101.05, 0.0, 10.001472, 9.998423 
1.9052687e+3, 2.734675e+2, -88542.3, -355631.84, -88820.82, 0.09272673, -0.4095355, -61702.08, 198272.34, 0.000000019098865, 10.001881, 9.998323 
1.9053067e+3, 2.8346524e+2, -13559.801, -391834.75, 23562.96, 0.07505439, -0.4108937, -12097.702, 149899.64, 0.0000013351795, 10.002252, 9.997224 
1.9053444e+3, 2.9346144e+2, 118286.33, -306880.44, 94418.23, -0.061508674, -0.4996153, 138310.97, 202347.25, 0.000011001191, 10.002614, 9.996957 
1.9053802e+3, 3.0345815e+2, 349888.75, -56874.574, -19934.03, -0.21100302, -0.5529502, 350863.3, 350863.3, 0.00004143895, 10.003374, 9.997984 
1.9054197e+3, 3.1345755e+2, 496070.34, 59562.7, 8411.79, 0.16392119, -0.42889872, 496232.4, 496232.4, 0.00009816831, 10.004174, 9.998396 
1.914685e+3, 1.2343242e+2, -1490184.4, -1384145.3, -145468.06, -0.33591476, -0.17350566, -1282335.8, 448000.1, 0.18042894, 10.000726, 10.002436 
1.9147259e+3, 1.3343206e+2, -1893930.3, -1543959.3, -130258.625, 0.06004461, -0.4127, -1500799.8, 131533.63, 0.12358676, 9.997161, 10.001978 
1.9147652e+3, 1.4343362e+2, -2020878.0, -1558723.8, 20214.512, 0.25394723, -0.43583503, -1557841.3, -23526.322, 0.069141634, 9.995676, 10.001807 
1.9148022e+3, 1.5343696e+2, -1631457.1, -1329142.4, 64696.984, -0.08640385, -0.28124526, -1315878.8, 120402.81, 0.028615344, 9.997705, 10.001754 
1.9148408e+3, 1.6343841e+2, -1431064.4, -1311654.3, 25171.55, -0.18924242, -0.24685235, -1306565.0, 31700.21, 0.0073205116, 9.998977, 10.0005665 
1.9148828e+3, 1.7343658e+2, -1363796.1, -1250559.3, 51455.54, 0.13205121, -0.47290322, -1230670.6, 9607.291, 0.00070924795, 9.998864, 10.000364 
1.9149235e+3, 1.8343532e+2, -1325840.3, -1362350.0, 89265.43, 0.27455807, -0.5553813, -1252982.3, -110692.625, 0.0000023137907, 9.999235, 9.998747 
1.9149618e+3, 1.9343548e+2, -1057699.1, -1216020.0, 32821.438, 0.083526045, -0.3895323, -1051164.6, -6869.2705, 0.0, 10.00055, 9.998445 
1.915e+3, 2.0343533e+2, -763051.94, -844506.44, -67923.65, -0.029957375, -0.30074635, -724581.1, 221718.2, 0.0, 10.001129, 10.000042 
1.9150382e+3, 2.1343486e+2, -752089.1, -753797.5, -6706.5605, 0.017966632, -0.38421354, -746182.6, 102115.15, 0.0, 10.000384, 10.000351 
1.9150768e+3, 2.2343403e+2, -791451.06, -867249.3, 43713.566, 0.07024611, -0.43408972, -771495.06, -21192.992, 0.0, 10.000066, 9.999053 
1.9151156e+3, 2.3343284e+2, -642364.4, -771846.44, 1675.5425, 0.10909782, -0.43929908, -642342.7, 9971.825, 0.0, 10.000535, 9.998809 
1.915154e+3, 2.4343136e+2, -528262.8, -732120.9, -11649.206, 0.08017038, -0.42920947, -527599.3, 26731.307, 0.0, 10.00093, 9.998216 
1.9151923e+3, 2.5342962e+2, -404975.44, -634489.75, -45549.035, -0.04106043, -0.4215484, -396266.3, 60084.266, 0.0, 10.001159, 9.998102 
1.915231e+3, 2.634279e+2, -182000.14, -345023.22, -102862.58, -0.054315515, -0.43568158, -132268.23, 226098.77, 0.0, 10.001453, 9.999276 
1.9152702e+3, 2.7342677e+2, -4389.306, -179417.94, -69318.13, 0.063868955, -0.50056523, 19737.588, 280110.22, 0.000000000008915595, 10.00187, 9.999541 
1.9153091e+3, 2.8342593e+2, 121914.055, -109361.41, 34078.71, 0.1060394, -0.5120951, 126831.055, 289207.13, 0.00000047388966, 10.002247, 9.9991665 
1.9153494e+3, 2.934251e+2, 245450.44, -42576.58, 110058.89, 0.18037917, -0.5048774, 282690.47, 347071.63, 0.0000077562645, 10.002602, 9.998785 
1.9153872e+3, 3.0342156e+2, 207616.61, -343106.34, 5097.8784, 0.14851019, -0.59727705, 207663.78, 207663.78, 0.000034680656, 10.003343, 9.996028 
1.9154195e+3, 3.1341904e+2, 402727.7, -133240.33, 89287.9, -0.25612366, -0.4255521, 417210.94, 417210.94, 0.00008782281, 10.004165, 9.99708 
1.924684e+3, 1.2339282e+2, -2047118.1, -1599096.3, 102954.305, -0.2877478, -0.2777881, -1576570.1, 154148.7, 0.18987963, 9.996388, 10.002771 
1.9247235e+3, 1.3339256e+2, -1895019.1, -1536021.1, -50771.703, 0.11643704, -0.5213868, -1528978.8, 103734.78, 0.13060497, 9.997097, 10.00206 
1.9247626e+3, 1.4339389e+2, -1735866.0, -1485869.4, 81590.02, 0.318633, -0.5474484, -1461597.9, 73099.18, 0.07352615, 9.997903, 10.001266 
1.9248003e+3, 1.5339719e+2, -1499134.8, -1342350.6, 75213.805, -0.09573443, -0.3317472, -1312103.6, 124563.64, 0.030745408, 9.998949, 10.001063 
1.9248396e+3, 1.6339877e+2, -1358449.4, -1256974.0, -75060.28, -0.22054037, -0.25148538, -1217111.8, 121540.086, 0.008026891, 9.9994, 10.000737 
1.9248818e+3, 1.7339756e+2, -1344082.5, -1203536.8, -105577.125, 0.15484616, -0.44555712, -1146983.8, 93675.26, 0.0008187495, 9.998853, 10.000689 
1.9249228e+3, 1.833966e+2, -1434523.3, -1425762.8, -9450.427, 0.32528108, -0.50887847, -1419726.8, -277058.22, 0.0000031359323, 9.998536, 9.998648 
1.9249615e+3, 1.9339648e+2, -1338127.3, -1370404.4, 64516.91, 0.110817395, -0.35357472, -1287761.0, -243082.33, 0.0, 9.998705, 9.998273 
1.9250001e+3, 2.033962e+2, -1026252.3, -935230.56, -12053.721, -0.01869494, -0.2841945, -933661.44, 13022.572, 0.0, 9.99917, 10.0003605 
1.9250384e+3, 2.1339583e+2, -750352.44, -709219.2, -77498.95, 0.022181729, -0.3968627, -649604.3, 199073.75, 0.0, 10.000209, 10.000741 
1.9250771e+3, 2.2339492e+2, -673415.7, -827764.44, -67997.35, 0.07115454, -0.46966088, -647733.25, 102948.07, 0.0, 10.000954, 9.998895 
1.9251163e+3, 2.3339331e+2, -564324.44, -763458.06, -37520.92, 0.111592606, -0.4906066, -557489.3, 95209.6, 0.0, 10.001196, 9.998548 
1.925155e+3, 2.4339154e+2, -475854.44, -711267.44, 20831.707, 0.075538926, -0.49208623, -474025.25, 80693.164, 0.0, 10.001311, 9.998175 
1.925193e+3, 2.5338984e+2, -392508.53, -628942.5, 58185.633, -0.06667625, -0.47774288, -378965.03, 77772.74, 0.0, 10.001248, 9.998097 
1.9252323e+3, 2.6338822e+2, -191308.92, -353246.03, 37586.16, -0.070279524, -0.48360813, -183010.31, 175742.97, 0.0, 10.001406, 9.999245 
1.9252725e+3, 2.7338704e+2, 4475.9365, -174095.33, -16414.396, 0.101485856, -0.5516983, 5972.222, 266730.97, 0.0, 10.001935, 9.999542 
1.9253117e+3, 2.8338632e+2, 120902.71, -96368.266, -27550.7, 0.13215911, -0.557369, 124341.8, 287102.7, 0.00000009662299, 10.002179, 9.999291 
1.925351e+3, 2.9338634e+2, 157845.73, -71267.445, -81244.3, 0.11604834, -0.47889572, 183730.77, 248488.92, 0.000005037168, 10.001948, 9.998899 
1.9253908e+3, 3.033829e+2, 143127.17, -416787.0, -135871.8, 0.20679538, -0.5445711, 174356.72, 174356.72, 0.000027606571, 10.003077, 9.995656 
1.9254245e+3, 3.1337875e+2, 627318.1, -27380.365, 56621.254, -0.24739385, -0.50057954, 632178.9, 632178.9, 0.00007513714, 10.005721, 9.997057 
1.934682e+3, 1.2335535e+2, -2188478.3, -1831421.9, 173505.64, -0.115759596, -0.60571676, -1760999.3, -29931.268, 0.1997211, 9.996259, 10.001002 
1.9347186e+3, 1.3335606e+2, -2051678.9, -1839182.4, -15214.955, -0.069824666, -0.53824604, -1838098.5, -205038.83, 0.13795441, 9.997067, 9.999888 
1.9347575e+3, 1.4335608e+2, -1847305.0, -1722574.3, 119502.49, 0.013915187, -0.50046754, -1650142.4, -115082.04, 0.07814733, 9.997943, 9.999585 
1.9347997e+3, 1.5335529e+2, -1610028.0, -1571083.4, 117344.484, -0.036765393, -0.53308415, -1471606.5, -34534.234, 0.033007, 9.998959, 9.999464 
1.934841e+3, 1.6335544e+2, -1385003.1, -1320824.8, -89653.664, -0.020271642, -0.48327228, -1257690.5, 81383.84, 0.008786739, 9.999432, 10.000286 
1.9348799e+3, 1.7335758e+2, -1356101.4, -1235132.8, -127321.8, 0.08677022, -0.31797972, -1154659.0, 86396.94, 0.00094156526, 9.998874, 10.000465 
1.9349195e+3, 1.8335854e+2, -1345369.9, -1238566.4, -9161.227, 0.14245589, -0.23274432, -1237786.3, -94737.93, 0.0000044945964, 9.998528, 9.999935 
1.9349602e+3, 1.9335748e+2, -1232146.5, -1143671.9, 73922.32, 0.11111048, -0.32497725, -1101761.4, -56702.48, 0.0, 9.998677, 9.999841 
1.9350003e+3, 2.0335622e+2, -1084338.3, -1051538.5, 22107.877, 0.06952505, -0.41115496, -1040411.75, -93341.984, 0.0, 9.999149, 9.999574 
1.9350386e+3, 2.1335496e+2, -841247.9, -891312.75, -33996.94, 0.015221212, -0.49279043, -824061.7, 25015.658, 0.0, 10.000179, 9.999506 
1.9350775e+3, 2.2335395e+2, -648507.75, -769143.2, -54064.773, 0.010770948, -0.5210664, -627824.06, 123260.13, 0.0, 10.000921, 9.999313 
1.9351172e+3, 2.3335363e+2, -518555.94, -659517.06, -25241.832, 0.08519769, -0.48626104, -514172.22, 138915.6, 0.0, 10.001158, 9.999278 
1.9351563e+3, 2.433528e+2, -412584.75, -575716.2, 17916.695, 0.06478348, -0.47660008, -410640.13, 144455.4, 0.0, 10.00129, 9.999117 
1.9351941e+3, 2.5335136e+2, -322281.6, -485011.72, 55511.883, -0.09312093, -0.53513914, -305148.72, 151958.84, 0.0, 10.001251, 9.999087 
1.9352336e+3, 2.633498e+2, -244317.11, -467588.34, 50086.543, -0.07613523, -0.5575604, -233595.98, 125524.62, 0.0, 10.001423, 9.998451 
1.9352752e+3, 2.7334812e+2, -76143.09, -345497.7, 3943.096, 0.17913587, -0.56718683, -76085.38, 185049.92, 0.0, 10.0019455, 9.998364 
1.9353138e+3, 2.833463e+2, 21326.537, -306427.7, -36790.945, 0.13300255, -0.5525336, 25405.615, 188558.3, 0.00000006727216, 10.002193, 9.997841 
1.9353494e+3, 2.9334518e+2, 65831.51, -278194.72, -81623.586, -0.2322873, -0.4360196, 84215.14, 149381.06, 0.0000034821967, 10.002007, 9.997456 
1.9353917e+3, 3.0334237e+2, 216966.34, -261597.25, -38273.6, -0.011103498, -0.40034315, 220007.97, 220007.97, 0.000021659534, 10.003073, 9.99672 
1.9354324e+3, 3.1333536e+2, 686894.25, 142498.33, 62500.797, -0.037642326, -0.7871823, 693977.7, 693977.7, 0.000062170744, 10.005528, 9.998316 
1.94468e+3, 1.2331741e+2, -1907406.4, -1751307.6, -17104.754, -0.03524132, -0.6450793, -1749455.4, -18021.865, 0.20999403, 9.998419, 10.000508 
1.9447161e+3, 1.3331805e+2, -1702869.0, -1741765.5, -121580.03, -0.16285367, -0.52127796, -1599191.5, 34235.445, 0.14565058, 9.999781, 9.999264 
1.9447549e+3, 1.4331706e+2, -1583922.1, -1647725.0, 75819.34, -0.12775514, -0.52812654, -1533566.3, 1871.1027, 0.083007626, 9.9999695, 9.9991255 
1.9447985e+3, 1.5331481e+2, -1789899.6, -1703711.8, 149538.92, 0.01310562, -0.6650247, -1591181.3, -153719.56, 0.03539992, 9.997914, 9.999061 
1.9448404e+3, 1.6331418e+2, -1752698.9, -1556780.0, 38449.52, 0.08987817, -0.650105, -1549504.4, -210032.5, 0.009600047, 9.997169, 9.999751 
1.9448781e+3, 1.7331678e+2, -1344399.1, -1293345.8, -19543.646, 0.0062442436, -0.3833011, -1286723.4, -45269.793, 0.0010784023, 9.999228, 9.999894 
1.9449171e+3, 1.8331811e+2, -1036872.9, -1042920.94, 28086.787, -0.026102835, -0.24362396, -1011647.8, 131796.19, 0.0000066792873, 10.000448, 10.000351 
1.9449589e+3, 1.9331738e+2, -1000958.56, -964320.6, 29322.385, 0.04403109, -0.3629351, -948065.25, 97382.97, 0.0, 9.999978, 10.000443 
1.9449995e+3, 2.0331635e+2, -1016054.94, -1007496.2, -16847.299, 0.06813538, -0.46497995, -994393.25, -46938.098, 0.0, 9.999572, 9.999672 
1.9450381e+3, 2.1331508e+2, -957946.06, -947327.8, 15257.496, 0.0041308035, -0.54608136, -936482.1, -87018.23, 0.0, 9.999379, 9.999505 
1.9450773e+3, 2.233142e+2, -860793.4, -870168.56, 39820.105, -0.0033574374, -0.564245, -825385.9, -73915.17, 0.0, 9.999461, 9.999322 
1.9451177e+3, 2.3331417e+2, -676002.8, -734740.6, 13945.93, 0.08233649, -0.5000312, -672859.9, -19387.752, 0.0, 10.000074, 9.999285 
1.9451573e+3, 2.4331348e+2, -495322.47, -628631.9, -91.215164, 0.08140958, -0.47201112, -495322.4, 60156.67, 0.0, 10.000781, 9.999 
1.9451958e+3, 2.533119e+2, -269679.97, -475531.7, -46968.72, -0.05745896, -0.528445, -259469.67, 198022.88, 0.0, 10.001683, 9.998942 
1.9452356e+3, 2.6331016e+2, -131760.22, -457467.28, -86171.1, -0.059450716, -0.54402405, -110367.37, 249140.72, 0.0, 10.002386, 9.998055 
1.9452769e+3, 2.7330813e+2, -7648.623, -363438.6, -90865.766, 0.12658206, -0.5389964, 14214.278, 275741.6, 0.0, 10.00264, 9.997904 
1.9453156e+3, 2.8330567e+2, 89907.1, -317584.8, -77697.83, 0.06341475, -0.5452206, 104219.32, 267771.25, 0.00000004642615, 10.002855, 9.997446 
1.9453515e+3, 2.933036e+2, 211616.08, -227445.7, -46122.184, -0.2649356, -0.48880053, 216408.77, 281982.28, 0.00000243928, 10.003103, 9.99727 
1.9453947e+3, 3.033012e+2, 293557.84, -136700.75, 78088.47, -0.013308305, -0.44723615, 307291.88, 307291.88, 0.000016266107, 10.00321, 9.997517 
1.9454373e+3, 3.1329554e+2, 291710.2, 48848.594, 51124.527, 0.08759657, -0.78286034, 302033.53, 302033.53, 0.00004878855, 10.002404, 9.999168 
1.9546776e+3, 1.232794e+2, -1840094.3, -1646488.8, 35756.695, -0.137475, -0.31500825, -1640096.0, 91716.914, 0.22070916, 9.998466, 10.001378 
1.9547158e+3, 1.3327843e+2, -1621920.5, -1593772.4, -67047.72, -0.17189914, -0.45592913, -1539337.5, 94479.875, 0.15369554, 9.999863, 10.000294 
1.9547552e+3, 1.4327674e+2, -1508485.0, -1509168.3, 11077.636, -0.11458916, -0.63153356, -1497743.8, 38085.586, 0.08810495, 10.000055, 10.000052 
1.9547966e+3, 1.5327586e+2, -1729041.0, -1571363.1, 69194.06, 0.03756542, -0.72334087, -1545305.0, -107470.586, 0.037922986, 9.997889, 9.999981 
1.9548374e+3, 1.632752e+2, -1802980.6, -1652971.3, 92718.62, 0.07986918, -0.739108, -1608718.1, -268876.2, 0.010466628, 9.997131, 9.99911 
1.9548762e+3, 1.7327508e+2, -1411823.0, -1435014.1, 66059.61, -0.10176534, -0.6474845, -1356349.0, -114497.06, 0.0012294218, 9.999232, 9.998921 
1.9549158e+3, 1.8327522e+2, -1069464.1, -1113770.0, 25745.225, -0.1966282, -0.55043095, -1057652.9, 86203.516, 0.000009908067, 10.000462, 9.999857 
1.9549572e+3, 1.932761e+2, -1029276.5, -1023114.56, 13042.819, -0.10795413, -0.46909747, -1012793.75, 33053.438, 0.0, 9.999977, 10.000041 
1.954998e+3, 2.0327647e+2, -955428.5, -876583.3, -26802.066, -0.042455338, -0.44446096, -868335.25, 79505.85, 0.0, 9.999548, 10.000582 
1.9550373e+3, 2.1327609e+2, -877796.3, -775481.4, 10384.086, -0.026445933, -0.55549693, -774438.1, 75400.84, 0.0, 9.999355, 10.000696 
1.955077e+3, 2.2327551e+2, -887479.56, -923249.2, 56576.254, 0.010931001, -0.5979371, -846028.56, -94186.34, 0.0, 9.999448, 9.998965 
1.9551177e+3, 2.3327485e+2, -725522.2, -835047.4, 39530.95, 0.08744778, -0.5319746, -712744.9, -58892.023, 0.0, 10.000062, 9.998603 
1.9551583e+3, 2.4327356e+2, -575424.94, -792446.9, 30366.967, 0.10468034, -0.47678003, -571255.94, -15386.785, 0.0, 10.000771, 9.997879 
1.9551982e+3, 2.5327146e+2, -360013.47, -658130.5, -8423.16, 0.020056155, -0.46406436, -359775.7, 98116.79, 0.0, 10.001658, 9.997702 
1.9552381e+3, 2.6326928e+2, -141869.08, -467697.88, -71609.07, -0.03896929, -0.4481312, -126825.734, 233089.11, 0.0, 10.002338, 9.998009 
1.9552776e+3, 2.7326706e+2, 373.32822, -344358.53, -77043.38, -0.06430557, -0.4793411, 16808.078, 278743.22, 0.0, 10.002622, 9.998048 
1.955317e+3, 2.8326434e+2, 124590.63, -237448.38, -69483.19, -0.08681659, -0.53870505, 137467.94, 301427.3, 0.00000002755418, 10.002825, 9.998009 
1.9553569e+3, 2.9326165e+2, 262831.63, -111449.72, -29004.602, -0.032432202, -0.61362696, 265065.97, 331047.56, 0.0000015750796, 10.003055, 9.998095 
1.9553994e+3, 3.03259e+2, 338118.1, -36980.695, 59804.234, 0.13441594, -0.6851875, 347422.25, 347422.25, 0.000011189694, 10.0031805, 9.998214 
1.9554414e+3, 3.1325775e+2, 319158.44, 79484.16, -67672.88, 0.24711692, -0.6242336, 336946.0, 336946.0, 0.000034931174, 10.002522, 9.99932 
1.9646747e+3, 1.2323704e+2, -2310095.0, -1809703.3, 56354.35, -0.08754735, -0.35210183, -1803435.1, -71209.1, 0.23177752, 9.995083, 10.001712 
1.9647148e+3, 1.3323663e+2, -2103919.5, -1767787.4, -125967.484, -0.07174633, -0.48099986, -1725820.1, -91594.03, 0.1620495, 9.996296, 10.000748 
1.9647545e+3, 1.432356e+2, -1860340.9, -1603041.1, -131967.23, -0.04289839, -0.64087486, -1547391.9, -11160.023, 0.093428105, 9.997318, 10.000704 
1.9647944e+3, 1.532359e+2, -1638890.1, -1449888.3, -114543.02, 0.02136327, -0.68312037, -1395895.0, 42329.418, 0.04057487, 9.9981785, 10.000677 
1.9648348e+3, 1.6323578e+2, -1521592.1, -1485115.3, -5423.7305, 0.021523392, -0.6963339, -1484325.9, -144100.84, 0.011385711, 9.998924, 9.999396 
1.9648753e+3, 1.7323503e+2, -1364243.9, -1386741.5, 65480.32, -0.11253896, -0.6898648, -1309053.3, -66814.28, 0.0013940044, 9.999457, 9.99914 
1.9649158e+3, 1.8323465e+2, -1217379.0, -1214700.3, 27788.902, -0.18012573, -0.64710265, -1188218.5, -43971.2, 0.000014255441, 9.99957, 9.999598 
1.9649565e+3, 1.9323528e+2, -1209771.6, -1150732.3, 2474.5674, -0.11214125, -0.5558243, -1150628.6, -104386.95, 0.0, 9.998907, 9.999682 
1.9649969e+3, 2.0323552e+2, -1077392.0, -967431.1, -33391.535, -0.046054803, -0.5101195, -958085.5, -9847.345, 0.0, 9.998851, 10.000294 
1.9650371e+3, 2.1323527e+2, -800649.2, -769626.3, -101473.89, 0.006045617, -0.5781217, -682485.1, 167751.2, 0.0, 10.000022, 10.000415 
1.9650775e+3, 2.2323467e+2, -689592.2, -867609.06, -114113.24, 0.04396298, -0.591377, -633879.0, 118362.49, 0.0, 10.000983, 9.998606 
1.9651182e+3, 2.3323362e+2, -538841.75, -788679.56, -117185.52, 0.055072397, -0.5216461, -492479.66, 161777.5, 0.0, 10.001535, 9.99821 
1.9651589e+3, 2.4323216e+2, -434696.2, -712273.25, -87648.72, 0.05292493, -0.46377572, -409336.75, 146939.14, 0.0, 10.001678, 9.997993 
1.9651994e+3, 2.532303e+2, -431945.72, -663574.3, -29998.848, 0.017301291, -0.44744465, -428123.53, 30172.93, 0.0, 10.001044, 9.997957 
1.9652396e+3, 2.6322842e+2, -336913.6, -523693.72, -4196.515, -0.038888782, -0.43467906, -336819.34, 23496.602, 0.0, 10.000836, 9.998347 
1.9652791e+3, 2.732265e+2, -145610.13, -373038.47, 3113.0767, -0.099670686, -0.471497, -145567.52, 116765.47, 0.0, 10.001444, 9.998414 
1.9653195e+3, 2.8322405e+2, 27556.371, -254749.1, 10390.9795, -0.059212707, -0.5358403, 27938.32, 192292.02, 0.000000014374923, 10.0020275, 9.998277 
1.965361e+3, 2.9322135e+2, 187880.73, -103553.83, 17632.293, 0.10799098, -0.6403628, 188943.64, 255317.86, 0.0000009626805, 10.002359, 9.99848 
1.9654015e+3, 3.0321866e+2, 250507.1, -127578.67, 54681.63, 0.058781937, -0.72540975, 258256.73, 258256.73, 0.0000070395563, 10.002782, 9.997788 
1.9654438e+3, 3.132175e+2, 482260.94, 79568.24, -142348.0, 0.15473658, -0.5868543, 527497.9, 527497.9, 0.000022435961, 10.003979, 9.998625 
1.9746715e+3, 1.2318983e+2, -2335729.3, -1844483.6, 95776.016, 0.08058632, -0.7996147, -1826471.0, -93794.77, 0.24301729, 9.994999, 10.001515 
1.974713e+3, 1.331924e+2, -2134261.3, -1801621.5, -83163.48, 0.13218346, -0.61159396, -1781988.5, -147333.39, 0.17062773, 9.99617, 10.000577 
1.9747528e+3, 1.4319365e+2, -1850941.1, -1566852.5, -99384.84, 0.069166444, -0.5465112, -1535536.1, 1109.2662, 0.09895461, 9.99724, 10.000993 
1.9747919e+3, 1.5319487e+2, -1611386.8, -1397128.1, -79762.48, -0.05417997, -0.53312355, -1370695.8, 67937.09, 0.04335473, 9.998186, 10.001047 
1.9748323e+3, 1.6319586e+2, -1425659.1, -1297323.1, 10820.637, -0.111442484, -0.50941896, -1296417.3, 44205.49, 0.012356995, 9.998968, 10.0006695 
1.9748755e+3, 1.7319654e+2, -1260876.6, -1176069.6, 84979.85, -0.04045595, -0.5038566, -1123501.4, 119114.04, 0.0015709848, 9.999471, 10.000584 
1.9749174e+3, 1.8319637e+2, -1217868.3, -1213060.8, 9558.435, 0.009615076, -0.52557766, -1205608.5, -60991.69, 0.000019593592, 9.999559, 9.999613 
1.9749567e+3, 1.9319487e+2, -1233039.9, -1195505.9, -19609.258, 0.014545561, -0.619762, -1187130.3, -140498.17, 0.0, 9.998893, 9.999381 
1.9749966e+3, 2.0319349e+2, -1186051.3, -1187185.6, -1567.6993, 0.035053916, -0.65856975, -1184951.3, -236304.77, 0.0, 9.998825, 9.998798 
1.9750379e+3, 2.1319269e+2, -927044.6, -1026679.75, -52342.98, 0.08323234, -0.6078567, -904601.7, -53946.098, 0.0, 9.999998, 9.998662 
1.9750787e+3, 2.231917e+2, -723080.75, -933403.7, -89494.76, 0.07628374, -0.5386786, -690154.44, 62513.633, 0.0, 10.000963, 9.998164 
1.975119e+3, 2.3319046e+2, -555110.75, -816407.5, -92127.22, -0.028790487, -0.4699164, -525895.4, 128789.83, 0.0, 10.001506, 9.998034 
1.9751592e+3, 2.4318925e+2, -349500.56, -528794.5, -103810.24, -0.08790329, -0.43020216, -301986.5, 254713.1, 0.0, 10.001649, 9.999269 
1.9751996e+3, 2.5318834e+2, -319759.2, -432035.97, -52677.992, -0.078993246, -0.4750159, -298913.88, 159792.03, 0.0, 10.001046, 9.999548 
1.97524e+3, 2.6318732e+2, -283862.66, -416946.78, 7654.083, -0.07751706, -0.49924457, -283423.9, 77289.84, 0.0, 10.000851, 9.999073 
1.9752814e+3, 2.7318618e+2, -106909.09, -297210.4, 27349.287, -0.014295332, -0.5117287, -103056.56, 159666.9, 0.0, 10.001459, 9.99893 
1.9753231e+3, 2.8318447e+2, 33443.07, -248150.81, 18473.47, 0.108519346, -0.53541917, 34649.816, 199387.69, 0.000000003091876, 10.00205, 9.99831 
1.9753636e+3, 2.9318216e+2, 193226.78, -113181.36, 24581.703, 0.147605, -0.5936163, 195186.31, 261942.47, 0.0000005616986, 10.002439, 9.998381 
1.9754013e+3, 3.031797e+2, 156570.67, -329998.94, 73950.03, -0.2295043, -0.591113, 167561.5, 167561.5, 0.0000042613397, 10.002824, 9.996373 
1.9754468e+3, 3.1317493e+2, 384918.88, -118490.7, 27276.383, 0.055592094, -0.64471656, 386392.5, 386392.5, 0.000013482754, 10.003946, 9.997287 
1.9846676e+3, 1.2314633e+2, -1911665.0, -1654336.1, 153414.67, 0.06718617, -0.9306646, -1582774.3, 150320.6, 0.25424254, 9.997874, 10.001723 
1.98471e+3, 1.3314942e+2, -1845907.5, -1647348.8, 8926.548, 0.1295012, -0.707036, -1646948.3, -11878.387, 0.17932345, 9.998074, 10.00072 
1.98475e+3, 1.4315106e+2, -1730639.8, -1537657.0, -10708.675, 0.036073074, -0.6014103, -1537064.5, -5.6410003, 0.104643695, 9.99819, 10.000735 
1.9847897e+3, 1.5315266e+2, -1624826.9, -1438814.8, -52243.477, -0.08497698, -0.5175764, -1425146.0, 13901.106, 0.046255346, 9.998258, 10.000711 
1.9848306e+3, 1.6315393e+2, -1528109.6, -1305198.1, -34848.8, -0.110829346, -0.45988384, -1299877.1, 41159.09, 0.013380272, 9.998095, 10.001033 
1.9848748e+3, 1.7315477e+2, -1508148.4, -1237470.3, -40644.36, 0.040692564, -0.4867402, -1231499.0, 11525.853, 0.0017591557, 9.997531, 10.001092 
1.9849169e+3, 1.8315478e+2, -1465374.3, -1307804.9, -130732.875, 0.11037061, -0.5282714, -1233952.4, -88929.586, 0.0000256483, 9.99776, 9.999826 
1.9849558e+3, 1.9315349e+2, -1116189.4, -1121863.0, -128097.195, 0.010382342, -0.6149562, -990897.56, 56138.363, 0.0, 9.999628, 9.99953 
1.9849958e+3, 2.0315208e+2, -917710.6, -1104988.4, -56863.645, -0.020408457, -0.64821845, -901797.2, 47253.996, 0.0, 10.000872, 9.998375 
1.9850382e+3, 2.1315067e+2, -849204.44, -1051696.5, -23879.613, 0.08775689, -0.60317147, -846426.44, 4641.1606, 0.0, 10.0008, 9.998103 
1.9850798e+3, 2.2314915e+2, -748560.2, -923894.25, 4759.7554, 0.111511946, -0.56142855, -748431.06, 4654.0186, 0.0, 10.000696, 9.998357 
1.9851197e+3, 2.3314765e+2, -662697.2, -825964.56, 35417.348, -0.029545443, -0.5556209, -655345.2, -243.13844, 0.0, 10.000589, 9.998406 
1.9851601e+3, 2.4314651e+2, -474442.97, -566038.6, 11853.689, -0.10105996, -0.53833807, -472933.8, 84180.25, 0.0, 10.000703, 9.999463 
1.9852008e+3, 2.5314632e+2, -273061.28, -392747.4, -43785.477, -0.060106926, -0.52760935, -258753.4, 200361.11, 0.0, 10.001305, 9.999691 
1.9852416e+3, 2.6314563e+2, -152280.75, -376123.5, -54039.367, -0.05416295, -0.52017754, -139917.6, 221202.88, 0.0, 10.001849, 9.998873 
1.9852829e+3, 2.7314416e+2, -20481.719, -286857.66, -94932.17, -0.044066597, -0.53595483, 9888.11, 273022.72, 0.0, 10.002194, 9.998644 
1.985325e+3, 2.831425e+2, 134148.2, -224998.67, -131980.28, 0.06340788, -0.52571005, 177432.14, 342582.44, 0.0000000000019738137, 10.002856, 9.998079 
1.9853671e+3, 2.9314074e+2, 389560.94, -43282.43, -139861.69, 0.17084561, -0.50398755, 430820.5, 497986.0, 0.00000025279112, 10.003904, 9.998149 
1.9854051e+3, 3.0313858e+2, 357497.2, -209686.9, -77307.8, -0.1958621, -0.46829212, 367845.53, 367845.53, 0.0000025293446, 10.004106, 9.99658 
1.98545e+3, 3.1313327e+2, 322130.7, -113545.3, 104035.18, 0.02259423, -0.6042528, 345698.4, 345698.4, 0.000008575936, 10.003361, 9.9976015 
1.994663e+3, 1.2310705e+2, -1860099.3, -1584777.0, 143863.03, -0.19327517, -0.70994234, -1523322.3, 210154.97, 0.26535824, 9.99796, 10.002311 
1.9947055e+3, 1.3310799e+2, -1809089.1, -1592589.1, 18028.986, -0.125482, -0.7505489, -1591098.0, 44369.49, 0.18805622, 9.998123, 10.001142 
1.994746e+3, 1.4310782e+2, -1782565.9, -1657047.6, -9701.341, -0.18440786, -0.8138594, -1656302.3, -118830.164, 0.11045076, 9.998237, 9.999894 
1.9947879e+3, 1.5310913e+2, -1701425.6, -1598011.0, -48236.246, -0.08784268, -0.65152085, -1579004.9, -139537.06, 0.04926506, 9.99826, 9.999614 
1.9948299e+3, 1.6310985e+2, -1575679.6, -1396859.1, -54263.406, 0.014713862, -0.55842763, -1381681.1, -40214.695, 0.014456319, 9.998068, 10.000413 
1.994873e+3, 1.7310956e+2, -1547934.3, -1314509.8, -61306.184, 0.117350325, -0.646515, -1299388.0, -55919.15, 0.0019582892, 9.997507, 10.000576 
1.9949146e+3, 1.8310969e+2, -1440328.1, -1251938.9, -77409.14, 0.10326746, -0.6620744, -1224212.3, -78744.8, 0.000032105352, 9.997742, 10.00022 
1.9949539e+3, 1.9311103e+2, -1076481.6, -1035752.25, -52879.402, -0.14297897, -0.5410722, -999451.7, 48002.758, 0.0, 9.999614, 10.000128 
1.9949946e+3, 2.031112e+2, -875965.8, -1014930.25, -47508.035, -0.23143898, -0.4768679, -861276.9, 88176.23, 0.0, 10.0008545, 9.999002 
1.9950381e+3, 2.131091e+2, -809830.2, -964568.06, -24857.322, 0.005514916, -0.56504506, -805935.1, 45538.508, 0.0, 10.000776, 9.9987135 
1.9950807e+3, 2.2310695e+2, -693397.0, -804827.3, 267.6585, 0.13254207, -0.65650654, -693396.4, 60097.383, 0.0, 10.000674, 9.9991865 
1.995121e+3, 2.3310511e+2, -603125.94, -699029.1, 34347.3, 0.030385477, -0.77170295, -592093.7, 63415.33, 0.0, 10.000572, 9.999289 
1.9951616e+3, 2.431039e+2, -535302.7, -690039.6, 27182.703, -0.016064346, -0.77864957, -530666.44, 26854.082, 0.0, 10.000693, 9.998616 
1.9952032e+3, 2.5310415e+2, -361871.1, -575796.75, -18530.969, 0.047212012, -0.6049235, -360277.75, 99245.61, 0.0, 10.001297, 9.998439 
1.995244e+3, 2.6310325e+2, -230072.17, -535083.94, -41093.613, 0.012604968, -0.4987764, -224632.72, 136903.64, 0.0, 10.001836, 9.997789 
1.9952835e+3, 2.7310044e+2, -93075.71, -444376.13, -78432.53, -0.18961613, -0.546018, -76359.97, 187206.1, 0.0, 10.002218, 9.997554 
1.9953254e+3, 2.8309816e+2, 105459.52, -288777.03, -95821.9, -0.18942042, -0.51106507, 127515.73, 293105.72, 0.000000000020942983, 10.002876, 9.997631 
1.9953707e+3, 2.9309717e+2, 354392.53, -107139.92, -99407.23, 0.14675964, -0.38304946, 374892.78, 442494.13, 0.00000015059668, 10.003859, 9.997736 
1.9954124e+3, 3.0309522e+2, 451632.22, 10906.632, -108490.836, 0.11891663, -0.35862452, 476891.13, 476891.13, 0.0000017137112, 10.004005, 9.998138 
1.9954525e+3, 3.1309253e+2, 417241.56, 66237.88, 159884.48, -0.051619142, -0.4353272, 479150.66, 479150.66, 0.00000667037, 10.0034275, 9.998809 
2.0046598e+3, 1.2306476e+2, -2027615.9, -1636903.0, 119398.47, -0.23535769, -0.74620086, -1603305.0, 130582.555, 0.27641812, 9.996686, 10.002449 
2.0047025e+3, 1.3306622e+2, -2013682.0, -1664770.1, -40433.883, -0.15690011, -0.74482286, -1660145.8, -24273.133, 0.1968332, 9.996654, 10.001283 
2.0047432e+3, 1.430658e+2, -1965669.8, -1743342.1, -38071.348, -0.21023367, -0.8436273, -1737003.5, -199123.86, 0.11636926, 9.996981, 9.999904 
2.0047863e+3, 1.5306623e+2, -1736586.8, -1618794.1, 732.1582, -0.059489734, -0.7651728, -1618789.6, -178906.23, 0.05238356, 9.998035, 9.999579 
2.0048289e+3, 1.6306658e+2, -1446962.0, -1361624.6, 47681.03, 0.04907861, -0.7003078, -1340308.1, 1577.7849, 0.015589432, 9.999058, 10.000181 
2.0048709e+3, 1.7306684e+2, -1204547.6, -1179974.0, 55002.434, 0.057728715, -0.707255, -1135902.8, 107981.836, 0.0021699998, 9.99999, 10.000305 
2.0049128e+3, 1.8306726e+2, -1072464.9, -1102046.0, 48535.895, 0.023567395, -0.6672216, -1036515.94, 109365.39, 0.00003871999, 10.000389, 9.999971 
2.0049539e+3, 1.9306833e+2, -1073610.1, -1065113.3, 8462.906, -0.092549674, -0.55089116, -1059892.3, -12020.488, 0.0, 9.9997635, 9.999854 
2.0049956e+3, 2.0306832e+2, -1075299.5, -1100167.3, -51352.8, -0.12507972, -0.4926644, -1034896.7, -85023.91, 0.0, 9.999446, 9.999093 
2.0050383e+3, 2.130664e+2, -927768.4, -1002242.7, -70609.234, 0.001945832, -0.57714516, -885179.06, -33286.816, 0.0, 9.999888, 9.998879 
2.0050804e+3, 2.2306469e+2, -713340.9, -777509.06, -74125.664, 0.072409146, -0.6458603, -664653.7, 89254.96, 0.0, 10.000386, 9.999512 
2.0051216e+3, 2.330638e+2, -512181.38, -615369.25, -83539.31, 0.024183422, -0.6993225, -465588.0, 190326.97, 0.0, 10.001033, 9.9996395 
2.0051628e+3, 2.4306294e+2, -444337.72, -683333.94, -94796.625, 0.0053080223, -0.67984074, -411303.22, 146620.27, 0.0, 10.001471, 9.99829 
2.0052044e+3, 2.5306225e+2, -380113.13, -638213.25, -90885.14, 0.050287478, -0.55028784, -351321.4, 108613.9, 0.0, 10.001399, 9.99796 
2.0052457e+3, 2.6306054e+2, -270061.75, -592519.3, -38679.824, 0.02110108, -0.481497, -265486.9, 96468.79, 0.0, 10.001738, 9.997437 
2.0052864e+3, 2.7305716e+2, -2599.4707, -433588.94, -21723.094, -0.16079663, -0.5518802, -1507.3325, 262481.97, 0.0, 10.002991, 9.997251 
2.0053282e+3, 2.8305432e+2, 163802.61, -307104.84, -30473.521, -0.20601329, -0.54257905, 165766.44, 331784.75, 0.0, 10.003471, 9.997223 
2.0053725e+3, 2.9305276e+2, 64414.074, -307284.84, -61800.12, 0.036061674, -0.42429927, 74419.86, 142456.3, 0.00000011944834, 10.002134, 9.997189 
2.0054159e+3, 3.0305034e+2, 176905.0, -150234.73, -80428.21, 0.17602263, -0.3968805, 195609.1, 195609.1, 0.000001599266, 10.0022335, 9.9978895 
2.0054577e+3, 3.1304717e+2, 666232.06, 175972.53, 70861.1, 0.045222916, -0.51647544, 676268.7, 676268.7, 0.000006235826, 10.005181, 9.998721 
2.0146583e+3, 1.23018816e+2, -2062139.0, -1679669.4, 101658.36, -0.046593223, -1.0981251, -1654328.1, 80003.67, 0.28771394, 9.996623, 10.002077 
2.014701e+3, 1.3302411e+2, -2039229.4, -1697140.6, -38760.867, 0.04335173, -0.6918019, -1692803.8, -56517.727, 0.20582092, 9.99657, 10.001102 
2.0147419e+3, 1.4302512e+2, -1912882.1, -1620405.1, -7053.696, -0.044435583, -0.67289823, -1620235.1, -81953.78, 0.12247417, 9.996921, 10.000776 
2.0147847e+3, 1.5302406e+2, -1662543.8, -1462322.9, 45667.69, -0.015306768, -0.851058, -1452398.6, -12105.405, 0.055639356, 9.998022, 10.00066 
2.014827e+3, 1.6302413e+2, -1430981.6, -1331182.8, 84458.93, -0.035039987, -0.8849618, -1282983.9, 59310.168, 0.016791714, 9.999069, 10.00039 
2.0148687e+3, 1.7302671e+2, -1200720.5, -1177964.9, 94934.29, -0.16074443, -0.66105354, -1093729.0, 150541.66, 0.0023981123, 10.000016, 10.000308 
2.0149113e+3, 1.8302765e+2, -1132973.6, -1233247.1, 34768.66, -0.15268104, -0.5355044, -1122097.6, 24165.902, 0.000045425786, 10.00041, 9.999062 
2.014956e+3, 1.9302537e+2, -1156304.4, -1234520.0, -13440.03, 0.14291726, -0.6418103, -1154059.4, -105771.29, 0.0, 9.999754, 9.998696 
2.0149991e+3, 2.0302337e+2, -1109935.8, -1168441.5, -42656.61, 0.27770433, -0.6919924, -1087465.1, -137154.66, 0.0, 9.999428, 9.998634 
2.0150387e+3, 2.1302257e+2, -951828.9, -1046392.3, -49889.348, 0.061170917, -0.63564545, -930375.56, -78051.98, 0.0, 9.999864, 9.9985895 
2.0150793e+3, 2.2302237e+2, -731836.56, -812336.3, -52512.496, -0.084861174, -0.52664006, -705922.9, 48407.023, 0.0, 10.000367, 9.999283 
2.0151217e+3, 2.3302355e+2, -529305.0, -647921.56, -56245.54, -0.06325288, -0.35224423, -506875.72, 149445.48, 0.0, 10.001015, 9.999427 
2.0151637e+3, 2.4302337e+2, -435253.5, -658802.06, -93473.914, -0.05155544, -0.26163027, -401319.63, 157005.03, 0.0, 10.001447, 9.998471 
2.0152047e+3, 2.5302052e+2, -361483.0, -602886.75, -92652.54, -0.05875762, -0.37179476, -330022.34, 130328.86, 0.0, 10.001412, 9.998197 
2.0152469e+3, 2.630174e+2, -244133.47, -546796.3, -3469.538, -0.04325724, -0.46782777, -244093.7, 118285.7, 0.0, 10.001771, 9.997734 
2.015291e+3, 2.7301416e+2, 19105.014, -382427.13, 29586.352, 0.0029246814, -0.559059, 21273.336, 285680.5, 0.0, 10.002959, 9.997619 
2.0153333e+3, 2.8301078e+2, 129203.984, -364333.44, -67278.766, -0.029689379, -0.61435944, 138211.02, 304649.13, 0.0, 10.003411, 9.996857 
2.0153724e+3, 2.9300755e+2, 32307.527, -406340.75, -114753.555, -0.16993296, -0.60588354, 60514.105, 128986.41, 0.000000073195274, 10.002267, 9.996448 
2.0154162e+3, 3.0300397e+2, 71908.45, -397181.53, 5565.471, -0.017118603, -0.5694934, 71974.47, 71974.47, 0.0000016200496, 10.002365, 9.996127 
2.015464e+3, 3.1299993e+2, 561291.6, 25219.293, 122648.734, 0.16327517, -0.5966673, 588019.94, 588019.94, 0.0000064999763, 10.004919, 9.997799 
2.024656e+3, 1.2297575e+2, -2186693.0, -1750418.1, 22118.748, 0.08657267, -1.0515556, -1749299.5, -14542.261, 0.29983783, 9.995918, 10.00172 
2.0246974e+3, 1.3298087e+2, -2112598.3, -1740703.1, -116701.91, 0.05462798, -0.6538216, -1707115.1, -70400.75, 0.21537028, 9.996098, 10.001027 
2.0247382e+3, 1.4298195e+2, -1920415.9, -1554164.5, -52640.234, -0.080974944, -0.6483441, -1546748.9, -8040.6196, 0.12892798, 9.996563, 10.001409 
2.0247822e+3, 1.5298207e+2, -1679944.6, -1384111.0, -19334.086, -0.031585958, -0.7851424, -1382852.8, 57852.746, 0.05909158, 9.997515, 10.001466 
2.0248255e+3, 1.6298272e+2, -1562827.6, -1410781.3, -13713.72, -0.028705984, -0.80297995, -1409554.3, -66855.305, 0.018083457, 9.998243, 10.00023 
2.024868e+3, 1.729845e+2, -1442676.9, -1339485.5, -43757.445, -0.1475625, -0.6200374, -1323428.9, -78744.71, 0.0026487417, 9.998561, 9.999892 
2.0249112e+3, 1.8298462e+2, -1364662.9, -1362641.0, -121579.586, -0.13278289, -0.54183066, -1242068.1, -95383.195, 0.000052423693, 9.998896, 9.998903 
2.0249556e+3, 1.9298163e+2, -1226513.0, -1279627.4, -101693.65, 0.1608768, -0.70623696, -1147966.0, -99251.28, 0.0, 9.999317, 9.998599 
2.0249987e+3, 2.0297956e+2, -1048380.8, -1113355.8, -39783.215, 0.2922624, -0.7683137, -1029505.44, -78768.125, 0.0, 9.999743, 9.998861 
2.0250387e+3, 2.1297982e+2, -875948.5, -976722.5, -2097.0237, 0.07324936, -0.63348335, -875904.9, -23163.947, 0.0, 10.000238, 9.99889 
2.0250797e+3, 2.2298002e+2, -751900.06, -891412.56, 7447.657, -0.07599636, -0.47794324, -751503.6, 3241.3098, 0.0, 10.000529, 9.998661 
2.0251222e+3, 2.3298018e+2, -681877.9, -815915.44, -46809.32, -0.069632865, -0.3240877, -667149.3, -10400.576, 0.0, 10.000379, 9.998576 
2.0251647e+3, 2.4297923e+2, -523874.84, -699111.75, -94161.5, -0.06081498, -0.25798944, -482872.22, 75888.305, 0.0, 10.000833, 9.998487 
2.0252067e+3, 2.5297642e+2, -170444.33, -485434.06, -95151.195, -0.053112224, -0.38416943, -143932.72, 316852.03, 0.0, 10.002623, 9.998419 
2.0252495e+3, 2.6297352e+2, 1557.9777, -407739.03, -41187.74, -0.025180668, -0.48133212, 5661.5757, 368471.0, 0.0, 10.003367, 9.997923 
2.0252934e+3, 2.7297056e+2, -149354.63, -443597.38, -33534.156, 0.0343075, -0.5590028, -145581.2, 119252.33, 0.0, 10.00172, 9.997794 
2.025336e+3, 2.8296712e+2, -116083.7, -488160.84, -78189.54, -0.0116446, -0.6270491, -100320.5, 66543.664, 0.0, 10.001743, 9.996811 
2.0253757e+3, 2.929635e+2, 482690.7, -191166.5, -83897.21, -0.22583754, -0.65090996, 492979.06, 561880.25, 0.00000008448293, 10.005372, 9.996428 
2.0254199e+3, 3.0295992e+2, 667854.0, -72793.07, 56446.766, -0.06595451, -0.62984705, 672131.3, 672131.3, 0.0000017998096, 10.006284, 9.996476 
2.025467e+3, 3.129566e+2, -227.05281, -233610.27, 240671.56, 0.19609903, -0.62407225, 150550.47, 150550.47, 0.000007117481, 10.0009985, 9.997911 
2.0346521e+3, 1.2293624e+2, -2228847.5, -1814334.9, 15976.04, 0.1176243, -0.5351613, -1813720.1, -78561.01, 0.3135409, 9.995821, 10.001328 
2.0346911e+3, 1.3293646e+2, -2117846.3, -1742909.9, -106922.516, -0.1742516, -0.61808246, -1714561.6, -77403.22, 0.22593072, 9.996063, 10.001028 
2.0347318e+3, 1.429361e+2, -1891460.4, -1499200.6, -26023.818, -0.37024936, -0.7759857, -1497481.6, 41681.055, 0.13594478, 9.996555, 10.001835 
2.0347786e+3, 1.5294021e+2, -1646415.4, -1314942.9, 16984.016, -0.13271593, -0.5637545, -1314074.9, 127046.484, 0.06282382, 9.997493, 10.0019865 
2.0348246e+3, 1.6294236e+2, -1606973.6, -1496368.6, -767.2961, 0.04979669, -0.44023874, -1496363.4, -153262.55, 0.019494196, 9.998218, 9.999656 
2.0348689e+3, 1.7294005e+2, -1507899.3, -1471194.6, -31258.26, 0.089697085, -0.58067924, -1453299.4, -208172.67, 0.0029308582, 9.998542, 9.999 
2.034912e+3, 1.8293798e+2, -1326495.6, -1276916.6, -107526.44, 0.07287333, -0.69232774, -1191359.1, -44211.082, 0.00006041413, 9.998869, 9.999504 
2.0349528e+3, 1.929371e+2, -1160030.5, -1136424.3, -82158.695, -0.054891583, -0.74021244, -1065225.1, -16072.603, 0.0, 9.999296, 9.999591 
2.0349944e+3, 2.0293687e+2, -987776.4, -984383.4, -22656.445, -0.10712851, -0.7148902, -963360.0, -12206.6455, 0.0, 9.999727, 9.999755 
2.0350385e+3, 2.1293812e+2, -817937.1, -852453.0, 19710.336, 0.017000688, -0.5700359, -808997.1, 44148.133, 0.0, 10.000221, 9.999752 
2.0350817e+3, 2.2293767e+2, -824784.5, -1035366.4, 5171.998, 0.07518459, -0.49322677, -824657.56, -69503.516, 0.0, 10.000498, 9.997687 
2.0351231e+3, 2.3293382e+2, -786240.6, -1031313.06, -48570.43, -0.011935327, -0.5982377, -776965.56, -119768.61, 0.0, 10.000371, 9.997103 
2.0351656e+3, 2.4293077e+2, -537977.0, -727225.75, -40481.094, -0.042642947, -0.6454658, -529681.5, 29548.465, 0.0, 10.000827, 9.998298 
2.0352101e+3, 2.5293005e+2, -166956.6, -464668.16, -21520.197, 0.042014796, -0.57627654, -165409.03, 295826.84, 0.0, 10.002561, 9.998592 
2.0352535e+3, 2.6292884e+2, -5395.1655, -402033.75, -77638.99, 0.051260464, -0.5199431, 9260.553, 372506.88, 0.0, 10.003282, 9.998003 
2.035294e+3, 2.729263e+2, -146290.3, -446274.84, -94010.16, -0.07631704, -0.5582601, -119263.95, 146005.19, 0.0, 10.001754, 9.997764 
2.0353363e+3, 2.8292322e+2, -97490.84, -452099.0, 18969.031, -0.15422162, -0.59298974, -96479.016, 70818.48, 0.0, 10.001762, 9.997045 
2.0353816e+3, 2.9292026e+2, 496641.78, -117555.85, 61687.418, -0.15459126, -0.5814046, 502776.16, 572102.0, 0.00000010813648, 10.00518, 9.997026 
2.0354265e+3, 3.0291775e+2, 793033.1, 241298.23, -78652.13, -0.031736843, -0.60113907, 804026.25, 804026.25, 0.0000019628649, 10.006051, 9.998745 
2.035468e+3, 3.129147e+2, 126841.24, -34325.355, 27973.004, 0.1910418, -0.7962807, 131558.33, 131558.33, 0.0000070892706, 10.001276, 9.999144 
2.044648e+3, 1.2289279e+2, -2218996.5, -1785619.0, 44617.563, 0.13807073, -0.4028738, -1781073.3, -45483.387, 0.3294151, 9.99579, 10.001538 
2.0446871e+3, 1.328918e+2, -1904513.9, -1603629.0, -46280.03, -0.23374225, -0.64701706, -1596671.4, 40925.32, 0.23787552, 9.997315, 10.00147 
2.0447287e+3, 1.4289138e+2, -1666455.4, -1440381.9, 17798.502, -0.410401, -0.8226973, -1438989.3, 100610.234, 0.14372098, 9.998269, 10.001479 
2.0447762e+3, 1.5289582e+2, -1600585.6, -1357383.3, -29419.955, -0.1377606, -0.52206856, -1353875.0, 87683.24, 0.06692591, 9.998098, 10.001384 
2.0448229e+3, 1.6289802e+2, -1622722.6, -1498897.4, -77712.445, 0.07542776, -0.35835972, -1461450.0, -117911.0, 0.021061258, 9.998079, 9.999711 
2.0448677e+3, 1.7289522e+2, -1495492.1, -1440190.8, -31124.57, 0.13881598, -0.56897897, -1426208.5, -180639.92, 0.003256253, 9.998513, 9.999229 
2.0449112e+3, 1.8289314e+2, -1273442.1, -1190089.8, -51064.27, 0.11610745, -0.71587527, -1165853.4, -18265.07, 0.00007088071, 9.99897, 10.000051 
2.0449516e+3, 1.9289328e+2, -1095055.3, -1032985.25, -55247.043, -0.08146619, -0.726128, -1000653.0, 48928.332, 0.0, 9.999435, 10.000232 
2.0449933e+3, 2.0289354e+2, -1033209.25, -1040966.3, -59856.656, -0.1542916, -0.67777205, -977105.6, -25528.668, 0.0, 9.999568, 9.999441 
2.0450382e+3, 2.1289417e+2, -1035427.4, -1019592.25, -130864.5, 0.040764745, -0.53796476, -896406.0, -42828.848, 0.0, 9.999006, 9.999186 
2.045082e+3, 2.228933e+2, -980595.56, -1046354.0, -136009.88, 0.14187922, -0.48982322, -873547.2, -117957.016, 0.0, 9.999152, 9.9982605 
2.045124e+3, 2.328895e+2, -651092.9, -867299.1, -21995.834, 0.027958238, -0.67334354, -648877.8, 8749.625, 0.0, 10.000874, 9.997986 
2.045167e+3, 2.4288656e+2, -420429.34, -687355.3, 77321.81, -0.015405131, -0.7572283, -399648.9, 160007.52, 0.0, 10.001705, 9.998148 
2.0452121e+3, 2.528859e+2, -501322.44, -672556.9, 49596.863, 0.09239573, -0.6434613, -487994.44, -26330.14, 0.0, 10.000465, 9.998173 
2.0452559e+3, 2.6288483e+2, -447821.63, -634904.75, -26814.521, 0.10976923, -0.540513, -444054.2, -80378.47, 0.0, 10.000328, 9.997825 
2.0452966e+3, 2.7288285e+2, -6174.2813, -390339.1, -55840.445, -0.046521682, -0.51402634, 1777.8253, 267472.75, 0.0, 10.002771, 9.997652 
2.0453393e+3, 2.8288e+2, 184507.6, -289290.78, 48606.684, -0.113777205, -0.5293283, 189442.72, 357164.3, 0.0, 10.003585, 9.997287 
2.0453857e+3, 2.9287633e+2, -156125.72, -385915.7, 80160.914, -0.025173856, -0.619296, -130925.63, -61170.69, 0.000000079058076, 10.000503, 9.997432 
2.0454304e+3, 3.0287418e+2, -35956.746, -162286.6, -102635.12, 0.058760002, -0.63253945, 21392.959, 21392.959, 0.0000015618384, 10.000383, 9.998694 
2.0454703e+3, 3.1287253e+2, 967628.1, 352212.72, -153470.16, -0.007824593, -0.6604385, 1003776.7, 1003776.7, 0.0000057291886, 10.007141, 9.99898 
2.054643e+3, 1.2284489e+2, -2162008.0, -1689906.4, 100740.19, 0.0800471, -0.7054819, -1669308.4, 66744.72, 0.3476065, 9.995754, 10.002447 
2.0546855e+3, 1.3284668e+2, -1835614.5, -1498698.4, 13872.566, -0.13258752, -0.76425356, -1498128.1, 139901.75, 0.2513395, 9.99733, 10.002419 
2.054729e+3, 1.4284787e+2, -1748644.4, -1602384.8, 23672.748, -0.20011628, -0.7886607, -1598648.6, -58631.32, 0.15236652, 9.998302, 10.000237 
2.0547752e+3, 1.528487e+2, -1729692.8, -1621483.1, -37699.203, -0.057503346, -0.6693475, -1609644.3, -167626.63, 0.071473114, 9.998106, 9.999527 
2.0548204e+3, 1.628494e+2, -1573700.3, -1394188.8, -69336.71, 0.022555714, -0.57358545, -1370526.4, -26509.734, 0.022826005, 9.998067, 10.000435 
2.0548648e+3, 1.7284991e+2, -1396639.0, -1234996.9, -11159.31, -0.026579553, -0.5841537, -1234230.0, 11780.112, 0.0036400491, 9.998511, 10.00064 
2.0549087e+3, 1.8285014e+2, -1238322.1, -1116108.4, -33265.33, -0.033433236, -0.6068372, -1107640.6, 40364.805, 0.00008593674, 9.998963, 10.000564 
2.0549527e+3, 1.9285011e+2, -1078759.1, -996951.94, -33802.375, 0.061598726, -0.66262496, -984792.3, 65209.2, 0.0, 9.999426, 10.000484 
2.0549959e+3, 2.028495e+2, -1142112.3, -1263921.8, -73622.49, 0.129246, -0.65500253, -1107467.8, -155459.19, 0.0, 9.999556, 9.997915 
2.055038e+3, 2.1284798e+2, -1178236.0, -1314262.1, -149187.28, 0.13243623, -0.53729594, -1082289.9, -228252.98, 0.0, 9.998997, 9.997168 
2.0550808e+3, 2.2284685e+2, -843733.5, -757149.0, -88690.125, 0.10955123, -0.4715789, -701749.0, 54304.973, 0.0, 9.99913, 10.000256 
2.055125e+3, 2.3284698e+2, -439751.1, -419364.84, 46896.32, 0.03190059, -0.55925447, -381566.66, 276475.75, 0.0, 10.000833, 10.001081 
2.0551689e+3, 2.4284624e+2, -434644.88, -703594.75, 47653.188, 0.001668017, -0.6089869, -426451.2, 133592.38, 0.0, 10.001648, 9.998064 
2.0552124e+3, 2.5284368e+2, -563026.5, -811317.2, -772.18524, 0.08390363, -0.5980364, -563024.1, -100950.96, 0.0, 10.000511, 9.997199 
2.0552564e+3, 2.6284134e+2, -465661.3, -690805.94, 31339.162, 0.13020933, -0.54587275, -461380.4, -97280.81, 0.0, 10.00041, 9.997402 
2.0553005e+3, 2.728399e+2, -28785.79, -428516.47, 38454.605, 0.0861885, -0.43467006, -25120.023, 240994.02, 0.0, 10.002726, 9.997417 
2.0553447e+3, 2.8283718e+2, 188154.27, -253561.55, -32965.465, 0.06198584, -0.4406663, 190600.95, 358740.47, 0.0, 10.003468, 9.997586 
2.0553876e+3, 2.9283172e+2, -120337.96, -346474.4, -43537.984, 0.11911907, -0.74716043, -112245.22, -42056.266, 0.000000016245838, 10.00065, 9.997633 
2.0554319e+3, 3.0282903e+2, -165818.27, -465261.1, 61927.86, 0.18608858, -0.7251766, -153516.34, -153516.34, 0.00000070083996, 10.000538, 9.996536 
2.0554736e+3, 3.1282932e+2, 803810.3, 76213.83, 157799.23, -0.39777228, -0.3116609, 836559.3, 836559.3, 0.000003415341, 10.00685, 9.99723 
2.0646387e+3, 1.2279854e+2, -1896818.3, -1603267.5, 101428.29, -0.02156274, -0.8433674, -1571631.3, 164871.67, 0.36771804, 9.99757, 10.002536 
2.0646833e+3, 1.3280132e+2, -1953851.3, -1549944.0, -57317.14, -0.028799511, -0.7973371, -1541967.8, 96502.57, 0.26616043, 9.996547, 10.002359 
2.0647283e+3, 1.4280306e+2, -2079373.8, -1786993.3, -59798.367, 0.013751831, -0.7548213, -1775235.9, -234782.86, 0.1618756, 9.996143, 10.000012 
2.0647731e+3, 1.5280248e+2, -1839969.5, -1706314.0, -6460.195, -0.006514397, -0.7497676, -1706002.4, -263534.9, 0.07651462, 9.997484, 9.999247 
2.0648178e+3, 1.628024e+2, -1522638.9, -1351656.6, 8790.184, -0.04230156, -0.72035456, -1351205.9, -6732.0405, 0.024829434, 9.998339, 10.000594 
2.0648623e+3, 1.7280382e+2, -1458294.4, -1232685.6, -23346.836, -0.079750784, -0.66936576, -1230295.0, 16162.877, 0.0041003036, 9.997952, 10.000923 
2.0649068e+3, 1.8280484e+2, -1410531.8, -1200826.1, -96352.914, -0.05570307, -0.6301694, -1163278.1, -14832.29, 0.000108260756, 9.99779, 10.000547 
2.0649517e+3, 1.9280519e+2, -1252307.9, -1091548.6, -126649.375, 0.0888865, -0.636966, -1021925.1, 28515.91, 0.0, 9.99828, 10.000389 
2.0649953e+3, 2.028046e+2, -1211361.5, -1283338.6, -134825.6, 0.1761435, -0.6262692, -1107803.9, -155354.88, 0.0, 9.999019, 9.998046 
2.0650376e+3, 2.1280228e+2, -978696.6, -1196217.1, -56121.38, 0.13544852, -0.6028098, -965070.6, -110588.46, 0.0, 10.000272, 9.997365 
2.0650806e+3, 2.22801e+2, -596748.6, -637783.8, 50044.035, 0.10725328, -0.5659399, -563179.5, 193319.86, 0.0, 10.000822, 10.00026 
2.0651257e+3, 2.328023e+2, -598454.56, -501594.38, -40078.25, 0.10984773, -0.5325843, -487161.6, 171316.42, 0.0, 9.999769, 10.001027 
2.0651704e+3, 2.4280211e+2, -689384.5, -843232.25, -154520.55, 0.08487311, -0.5169588, -593699.3, -33224.043, 0.0, 9.999977, 9.997907 
2.0652133e+3, 2.527987e+2, -203027.38, -660368.75, -153934.97, -0.0040261624, -0.56713545, -156042.02, 306471.2, 0.0, 10.003088, 9.996991 
2.0652571e+3, 2.6279575e+2, 99715.64, -442666.3, -121409.945, -0.016254619, -0.5545371, 125652.45, 490198.53, 0.0, 10.004397, 9.997188 
2.065303e+3, 2.7279404e+2, -233709.86, -546326.5, -125228.27, 0.12599401, -0.44678935, -189732.36, 76831.42, 0.0, 10.001411, 9.997235 
2.0653474e+3, 2.8279117e+2, -248821.92, -449674.7, -165430.86, 0.16359144, -0.46245486, -155720.97, 12870.023, 0.0, 10.000399, 9.997719 
2.0653889e+3, 2.927861e+2, 396711.6, -79560.23, -183075.28, 0.024162134, -0.74769163, 458950.88, 529586.0, 0.0000000000046803165, 10.004132, 9.997787 
2.0654346e+3, 3.0278412e+2, 586119.3, -162354.52, -6732.9707, 0.12039619, -0.639772, 586179.9, 586179.9, 0.0000001520849, 10.005942, 9.996025 
2.0654798e+3, 3.127815e+2, 87977.19, -360478.13, 188582.9, -0.19865644, -0.4552381, 156736.83, 156736.83, 0.0000015016986, 10.002298, 9.99643 
2.074634e+3, 1.2275378e+2, -1949668.6, -1681543.6, 84400.96, -0.2506401, -0.8076533, -1657188.1, 79751.09, 0.38886976, 9.997577, 10.001714 
2.0746806e+3, 1.3275583e+2, -2044819.3, -1691797.9, -107321.6, 0.048614874, -0.7244668, -1661731.8, -22813.8, 0.28190908, 9.996493, 10.001173 
2.0747264e+3, 1.4275685e+2, -2027985.4, -1666260.9, -32379.838, 0.20385699, -0.71238875, -1663385.3, -122477.05, 0.17213808, 9.996078, 10.000875 
2.0747708e+3, 1.5275711e+2, -1739922.8, -1496944.8, 52285.33, -0.0069579924, -0.7603638, -1486171.4, -43263.414, 0.08207624, 9.997472, 10.000692 
2.0748152e+3, 1.627571e+2, -1551060.0, -1410735.1, 8933.151, -0.14227158, -0.7974707, -1410168.6, -65258.844, 0.027111659, 9.99834, 10.00019 
2.0748606e+3, 1.7275685e+2, -1523898.8, -1367448.6, -37052.37, -0.034117725, -0.82548016, -1359117.1, -112204.99, 0.0046569863, 9.997946, 10.000002 
2.0749053e+3, 1.8275703e+2, -1451492.5, -1285223.8, -85685.27, 0.034171727, -0.79196024, -1248971.0, -100059.53, 0.00014131474, 9.997786, 9.999971 
2.0749487e+3, 1.9275838e+2, -1287526.6, -1162919.8, -104350.34, -0.014581346, -0.6503591, -1103688.4, -52787.176, 0.0000000002137382, 9.998268, 9.999907 
2.0749924e+3, 2.0275871e+2, -1092387.3, -1030408.6, -93923.25, -0.03522343, -0.587625, -962494.4, -9594.88, 0.0, 9.998994, 9.999791 
2.0750369e+3, 2.1275699e+2, -819162.44, -856859.44, -5589.1426, 0.028532071, -0.7333414, -818351.25, 36563.203, 0.0, 10.000237, 9.99971 
2.0750816e+3, 2.2275567e+2, -732593.9, -911915.7, 25792.19, 0.11507724, -0.77120733, -728957.9, 27969.486, 0.0, 10.00079, 9.998393 
2.0751269e+3, 2.3275551e+2, -814390.5, -948364.8, -78292.36, 0.24012497, -0.59071994, -778338.94, -119405.28, 0.0, 9.999764, 9.997962 
2.0751713e+3, 2.4275428e+2, -713029.06, -888769.9, -70760.18, 0.20551156, -0.4805964, -688080.1, -127130.22, 0.0, 9.999959, 9.997604 
2.0752145e+3, 2.5275105e+2, -183699.47, -599571.5, -29053.43, -0.1853405, -0.5531224, -181679.56, 281304.03, 0.0, 10.002993, 9.997457 
2.0752583e+3, 2.6274812e+2, 75931.76, -455992.63, -186404.52, -0.3354663, -0.56415796, 134750.31, 499764.47, 0.0, 10.004247, 9.997167 
2.0753036e+3, 2.7274546e+2, -241181.3, -570660.94, -237682.81, 0.0628164, -0.5371454, -116728.56, 150313.47, 0.0, 10.00145, 9.997051 
2.0753479e+3, 2.8274202e+2, -235986.92, -447129.75, -79848.85, 0.17564012, -0.59111065, -209190.81, -40116.023, 0.0, 10.000504, 9.9976845 
2.0753899e+3, 2.927392e+2, 387781.63, -82682.89, -32627.678, -0.3078491, -0.6589204, 390033.66, 461129.88, 0.0, 10.004057, 9.997805 
2.075438e+3, 3.0273938e+2, 625177.7, -30832.262, -78731.4, -0.13049845, -0.3819762, 634494.4, 634494.4, 0.000000026355542, 10.005738, 9.997018 
2.0754878e+3, 3.1273234e+2, 83909.39, -357560.63, -49567.53, 0.37704837, -0.75134516, 89406.305, 89406.305, 0.00000060748965, 10.002281, 9.996443 
2.0846313e+3, 1.2270799e+2, -2036385.9, -1724351.6, 44101.914, -0.22880284, -0.7987005, -1718238.1, 19148.758, 0.40993002, 9.997091, 10.001427 
2.0846777e+3, 1.3270973e+2, -1853306.0, -1635818.6, -100976.25, 0.06170546, -0.72865564, -1596166.3, 43203.586, 0.29801235, 9.997913, 10.000985 
2.0847231e+3, 1.4271037e+2, -1682766.8, -1492801.9, 18500.895, 0.17603, -0.7503371, -1491016.9, 50347.047, 0.18298064, 9.99837, 10.001034 
2.0847681e+3, 1.5271127e+2, -1649565.3, -1425338.3, 20240.975, -0.032936536, -0.760746, -1423525.8, 19829.875, 0.088167645, 9.997967, 10.000955 
2.084813e+3, 1.6271159e+2, -1625152.6, -1446456.5, -74452.22, -0.1516977, -0.7765023, -1419502.3, -74149.53, 0.029713616, 9.99783, 10.000189 
2.0848589e+3, 1.7271106e+2, -1456486.6, -1341682.4, -67909.36, -0.011109277, -0.8290008, -1310165.0, -62806.89, 0.005333032, 9.998439, 9.999939 
2.084904e+3, 1.8271077e+2, -1294031.5, -1255781.0, -54543.586, 0.07278341, -0.8219934, -1217106.8, -67744.65, 0.00018960002, 9.999067, 9.999555 
2.0849478e+3, 1.9271132e+2, -1114599.9, -1135461.3, -75361.92, -0.007964751, -0.71054584, -1048950.3, 2410.6902, 0.000000020895914, 9.999703, 9.999399 
2.0849916e+3, 2.0271134e+2, -901343.56, -917589.7, -104148.33, -0.051708, -0.65242213, -805002.0, 148360.2, 0.0, 10.0002165, 9.999977 
2.085037e+3, 2.1271054e+2, -763102.6, -787473.6, -160893.11, 0.009390047, -0.74180263, -613934.25, 241431.98, 0.0, 10.000439, 10.00009 
2.0850821e+3, 2.2270946e+2, -795597.6, -1012584.56, -212313.73, 0.093719766, -0.75216544, -665663.0, 91713.44, 0.0, 10.000666, 9.997763 
2.085127e+3, 2.3270787e+2, -708843.56, -1003736.4, -184531.27, 0.21932858, -0.6216987, -620086.2, 39313.81, 0.0, 10.000947, 9.997015 
2.085172e+3, 2.4270579e+2, -579026.94, -783008.2, -23005.7, 0.21445017, -0.5511821, -576464.5, -15038.755, 0.0, 10.000703, 9.9979725 
2.0852165e+3, 2.5270322e+2, -665770.94, -745932.3, 47179.77, -0.0827426, -0.62753594, -643945.3, -180495.31, 0.0, 9.999318, 9.998219 
2.085261e+3, 2.627009e+2, -617587.2, -751316.56, -98121.836, -0.22038735, -0.6395586, -565713.56, -200240.86, 0.0, 9.999316, 9.997511 
2.085305e+3, 2.726986e+2, -77256.42, -468960.9, -135076.03, -0.012334099, -0.598691, -35193.477, 232304.16, 0.0, 10.002481, 9.9972515 
2.0853488e+3, 2.8269544e+2, 298644.38, -209317.73, 57457.605, 0.034631062, -0.637967, 305062.53, 474591.75, 0.0, 10.004257, 9.997514 
2.0853938e+3, 2.9269242e+2, 136997.95, -235846.47, 84180.25, -0.22472318, -0.6959564, 155122.94, 226676.53, 0.0, 10.00247, 9.997518 
2.0854427e+3, 3.0269235e+2, 39405.652, -306082.0, -40902.824, -0.008446222, -0.42227864, 44182.164, 44182.164, 0.000000023943258, 10.001673, 9.997089 
2.0854895e+3, 3.1268644e+2, 307767.97, -142320.94, -139638.48, 0.2731652, -0.7067845, 347570.47, 347570.47, 0.0000003255539, 10.00336, 9.997399 
2.094631e+3, 1.2266148e+2, -2034535.9, -1710834.0, 59411.56, 0.028857082, -0.7756889, -1700274.1, 37569.34, 0.42994058, 9.996999, 10.001666 
2.0946749e+3, 1.3266292e+2, -1787123.1, -1535330.3, -60402.027, -0.0199405, -0.818758, -1521590.4, 118236.4, 0.31401625, 9.997926, 10.001912 
2.0947185e+3, 1.4266348e+2, -1716223.6, -1564738.6, 12158.485, -0.122745566, -0.8803803, -1563769.0, -21948.287, 0.19429262, 9.998424, 10.000441 
2.0947652e+3, 1.5266478e+2, -1717962.9, -1570570.5, 3766.3208, -0.1116632, -0.75420463, -1570474.4, -126662.234, 0.094824284, 9.997985, 9.999938 
2.0948115e+3, 1.6266583e+2, -1596876.5, -1384429.1, -61742.258, -0.08828913, -0.65387785, -1367788.8, -21984.684, 0.032688897, 9.997816, 10.000622 
2.0948572e+3, 1.7266642e+2, -1397832.3, -1222013.1, -40839.84, -0.024467321, -0.67164344, -1212989.8, 34806.06, 0.0061590113, 9.998444, 10.000763 
2.0949028e+3, 1.8266606e+2, -1312423.6, -1292731.8, -30923.45, 0.03611365, -0.711688, -1270124.6, -120326.57, 0.00026052183, 9.999064, 9.999301 
2.0949483e+3, 1.926639e+2, -1157108.8, -1221839.4, -47912.13, 0.0889118, -0.8169556, -1131654.6, -79833.55, 0.00000016154512, 9.999696, 9.998809 
2.0949934e+3, 2.026624e+2, -998934.2, -1113220.4, -93092.28, 0.110976465, -0.8256887, -946845.9, 6992.548, 0.0, 10.000188, 9.998646 
2.0950375e+3, 2.126629e+2, -876479.94, -1014775.7, -147707.23, 0.06205019, -0.630525, -782536.25, 73301.33, 0.0, 10.000404, 9.998545 
2.0950818e+3, 2.2266237e+2, -768442.25, -947122.06, -200820.25, 0.025904482, -0.51088935, -637985.94, 119860.36, 0.0, 10.000626, 9.998231 
2.0951259e+3, 2.3265935e+2, -642047.4, -855572.94, -167850.45, 0.034037497, -0.6218919, -549882.9, 109994.336, 0.0, 10.000904, 9.998054 
2.0951712e+3, 2.4265663e+2, -515631.53, -641129.9, -64754.508, 0.0892874, -0.71683866, -488210.84, 73692.59, 0.0, 10.000661, 9.998965 
2.0952192e+3, 2.5265515e+2, -588781.75, -597594.4, -4668.4897, 0.25474375, -0.7848567, -586768.5, -122854.445, 0.0, 9.999366, 9.999214 
2.0952651e+3, 2.6265386e+2, -566939.44, -654170.56, -20184.709, 0.25987744, -0.78096104, -562495.25, -196570.58, 0.0, 9.999352, 9.998158 
2.0953062e+3, 2.72653e+2, -52066.504, -400282.03, -12678.196, -0.123604976, -0.64827687, -51605.51, 216330.52, 0.0, 10.002409, 9.997757 
2.09535e+3, 2.826509e+2, 257343.7, -256477.05, 21123.1, -0.26537663, -0.60885376, 258210.61, 428169.63, 0.0, 10.004095, 9.997265 
2.0954004e+3, 2.9264596e+2, 94928.05, -315550.34, 13411.041, 0.2052261, -0.80569094, 95365.74, 167370.97, 0.0, 10.002436, 9.996988 
2.0954482e+3, 3.0264285e+2, -6791.778, -411057.88, -6274.681, 0.39344412, -0.7620801, -6694.411, -6694.411, 0.000000006969389, 10.0017185, 9.996344 
2.0954864e+3, 3.12641e+2, 458962.25, 172040.5, -50649.926, -0.39745906, -0.5910233, 467640.9, 467640.9, 0.00000012415782, 10.003373, 9.999547 
2.1046284e+3, 1.22613914e+2, -1923654.0, -1688873.8, -20450.307, 0.050778996, -0.738161, -1687105.8, 51208.51, 0.44859928, 9.997842, 10.00149 
2.1046726e+3, 1.3261577e+2, -1799527.4, -1550332.4, -172719.34, -0.028772859, -0.7417893, -1461959.3, 178335.06, 0.3298663, 9.997946, 10.001918 
2.1047166e+3, 1.4261667e+2, -1757462.0, -1589318.9, -164274.73, -0.1468635, -0.7692443, -1488852.6, 53432.152, 0.20615475, 9.9981575, 10.000466 
2.104763e+3, 1.5261732e+2, -1700567.9, -1561019.9, -121091.7, -0.12264667, -0.7067278, -1491038.4, -46758.047, 0.10215144, 9.998103, 9.999944 
2.1048093e+3, 1.6261797e+2, -1555092.9, -1372065.1, -125839.5, -0.09017082, -0.64245975, -1307982.3, 38292.535, 0.036114734, 9.998123, 10.000572 
2.1048555e+3, 1.7261893e+2, -1400390.1, -1227415.8, -165869.69, -0.0378649, -0.618529, -1126839.4, 121424.15, 0.007176738, 9.99844, 10.000732 
2.1049014e+3, 1.8261877e+2, -1361562.4, -1288007.6, -187919.9, 0.02501967, -0.64544886, -1133300.1, 16963.348, 0.0003661867, 9.998598, 9.999564 
2.1049476e+3, 1.926163e+2, -1324714.5, -1263885.4, -144309.4, 0.108790725, -0.81198657, -1146820.3, -94533.586, 0.00000091193453, 9.998373, 9.999163 
2.1049932e+3, 2.0261455e+2, -1253545.0, -1259081.3, -94802.984, 0.1498526, -0.8595978, -1161469.8, -207164.83, 0.0, 9.998537, 9.99844 
2.1050379e+3, 2.126148e+2, -1004365.5, -1119675.3, -65552.375, 0.08593251, -0.6543597, -974720.94, -118412.51, 0.0, 9.999715, 9.998155 
2.1050823e+3, 2.2261414e+2, -769276.9, -920794.3, -88523.164, 0.028653415, -0.5339274, -728520.6, 29798.771, 0.0, 10.000501, 9.998471 
2.105126e+3, 2.326114e+2, -702190.5, -833113.0, -107887.5, -0.002662453, -0.6596083, -641457.9, 18888.844, 0.0, 10.000275, 9.998506 
2.105171e+3, 2.426092e+2, -542765.06, -649340.8, -52994.99, 0.020621384, -0.73360705, -520899.3, 41468.582, 0.0, 10.000452, 9.99901 
2.1052185e+3, 2.526085e+2, -272702.13, -454883.38, -74018.66, 0.15890966, -0.7156839, -246420.44, 217952.38, 0.0, 10.001582, 9.9991255 
2.105265e+3, 2.6260749e+2, -180538.73, -456264.03, -121220.51, 0.18161806, -0.68470526, -134824.38, 231558.02, 0.0, 10.00195, 9.99827 
2.1053082e+3, 2.7260596e+2, -315810.9, -510062.8, -136830.81, -0.07074136, -0.6322497, -245139.0, 23260.932, 0.0, 10.000517, 9.997917 
2.1053533e+3, 2.8260422e+2, -272390.3, -445709.4, -104774.72, -0.14316866, -0.58226687, -223080.69, -52662.445, 0.0, 10.000172, 9.997855 
2.1054028e+3, 2.9260114e+2, 118637.72, -220855.81, -46767.016, 0.22834258, -0.6677156, 124962.3, 197407.88, 0.0, 10.002252, 9.997722 
2.1054502e+3, 3.0259633e+2, 271526.72, -311091.28, 30725.031, 0.3124105, -0.82744706, 273142.56, 273142.56, 0.0, 10.00377, 9.996046 
2.1054898e+3, 3.1259415e+2, 544546.94, 167255.64, 15214.56, -0.41674268, -0.62823147, 545159.5, 545159.5, 0.000000008276096, 10.004139, 9.999158 
2.1146233e+3, 1.2256502e+2, -1966119.9, -1749265.8, -76159.125, -0.25975484, -0.7097186, -1725191.4, 13611.356, 0.46656317, 9.997862, 10.000857 
2.1146709e+3, 1.325682e+2, -1866465.9, -1665804.5, -181752.31, 0.003982834, -0.4817894, -1558529.4, 82245.01, 0.34608045, 9.997944, 10.00087 
2.114717e+3, 1.4256991e+2, -1717044.9, -1514259.1, -160749.4, 0.104000136, -0.38782397, -1425597.0, 117160.28, 0.21890919, 9.9981575, 10.001087 
2.1147615e+3, 1.5256871e+2, -1623737.0, -1412296.4, -120741.94, -0.08076065, -0.6130246, -1357531.9, 87230.484, 0.110347085, 9.998122, 10.001018 
2.1148063e+3, 1.6256781e+2, -1588085.9, -1443271.4, -120082.82, -0.1902421, -0.7505067, -1375454.9, -28688.121, 0.040102176, 9.998138, 10.000067 
2.1148533e+3, 1.7256837e+2, -1465463.4, -1367634.0, -152811.23, -0.07634053, -0.67542535, -1256099.6, -7336.1333, 0.008443992, 9.998456, 9.99976 
2.1148999e+3, 1.8256865e+2, -1308193.4, -1173024.8, -195286.14, 0.016550254, -0.6288582, -1033958.9, 116802.18, 0.00052604213, 9.998583, 10.00036 
2.114945e+3, 1.9256845e+2, -1233765.8, -1071254.4, -149897.36, 0.031089587, -0.6941079, -982005.8, 70752.82, 0.0000034897541, 9.998359, 10.000491 
2.1149905e+3, 2.025678e+2, -1198716.8, -1135721.0, -62374.66, 0.04160053, -0.74911195, -1097342.5, -142580.08, 0.0, 9.998495, 9.999308 
2.1150373e+3, 2.1256617e+2, -960336.9, -1019688.5, -15844.702, 0.06036496, -0.80615246, -956371.8, -99592.06, 0.0, 9.999677, 9.99886 
2.1150832e+3, 2.2256465e+2, -773953.44, -915705.9, -86107.34, 0.07639124, -0.8157118, -733304.25, 25492.91, 0.0, 10.000439, 9.998535 
2.1151271e+3, 2.3256384e+2, -713527.0, -854253.8, -114774.97, 0.08022164, -0.73597, -649263.9, 11546.451, 0.0, 10.000261, 9.998368 
2.115171e+3, 2.4256325e+2, -601025.94, -769214.3, -23666.121, -0.019978557, -0.6118847, -597759.3, -34937.93, 0.0, 10.000447, 9.998188 
2.115215e+3, 2.5256303e+2, -354522.66, -616221.5, -26378.408, -0.34890756, -0.44220915, -351890.28, 112937.805, 0.0, 10.001541, 9.998037 
2.1152608e+3, 2.6256153e+2, -220256.66, -518558.75, -155734.19, -0.42329672, -0.3744164, -153771.05, 213075.42, 0.0, 10.001868, 9.99788 
2.1153103e+3, 2.725576e+2, -318812.88, -526955.7, -186741.39, 0.09879574, -0.5454252, -209101.22, 59785.17, 0.0, 10.000565, 9.997778 
2.115358e+3, 2.8255558e+2, -167823.02, -253678.27, -52582.215, 0.3202674, -0.55963, -142870.81, 28033.844, 0.0, 10.00028, 9.99912 
2.1154016e+3, 2.925572e+2, 235103.92, 20241.727, 36830.832, -0.13215254, -0.3433369, 241241.97, 314122.8, 0.0, 10.002249, 9.999381 
2.1154484e+3, 3.0255243e+2, 258486.88, -296658.22, 39007.36, -0.20975032, -0.6217752, 261214.34, 261214.34, 0.0, 10.003603, 9.996219 
2.1154991e+3, 3.1254736e+2, 307297.8, -282824.25, 90568.83, 0.09522421, -0.6604754, 320885.0, 320885.0, 0.0, 10.003951, 9.996159 
2.1246262e+3, 1.2251854e+2, -2195242.0, -1842039.3, 56446.055, 0.3426522, -0.54566664, -1833237.8, -93977.44, 0.48543465, 9.996224, 10.000948 
2.1246693e+3, 1.3252042e+2, -1955996.1, -1723831.6, -43483.617, 0.070504114, -0.41830713, -1715954.6, -74709.13, 0.3637423, 9.997419, 10.000509 
2.1247141e+3, 1.425208e+2, -1677352.6, -1473349.6, -12674.213, 0.0079207765, -0.4411177, -1472565.1, 70675.32, 0.23315269, 9.9982815, 10.001283 
2.1247597e+3, 1.5251991e+2, -1600493.1, -1355961.8, -29114.773, -0.03806976, -0.67651117, -1352543.0, 92695.71, 0.1197026, 9.998061, 10.001458 
2.1248056e+3, 1.6251904e+2, -1612590.1, -1484642.3, -20162.701, -0.057514902, -0.82967335, -1481540.1, -134299.45, 0.044803485, 9.998101, 9.999798 
2.1248525e+3, 1.725188e+2, -1393382.5, -1387755.9, -14336.329, -0.038432546, -0.78740144, -1375959.4, -126711.99, 0.01004214, 9.999201, 9.999255 
2.1248987e+3, 1.8251893e+2, -1103494.4, -1106163.6, -80821.12, -0.028015884, -0.71589917, -1023996.9, 127252.25, 0.0007722133, 10.00012, 10.000076 
2.1249433e+3, 1.9252008e+2, -942858.6, -955613.5, -160299.16, -0.047102485, -0.6259905, -788810.1, 264426.78, 0.000010944595, 10.000459, 10.000272 
2.124989e+3, 2.0252024e+2, -902669.94, -938404.56, -155602.78, -0.042638257, -0.6038761, -763912.0, 191322.06, 0.0, 10.000296, 9.999794 
2.1250361e+3, 2.1251802e+2, -1015923.3, -966958.6, -117639.73, 0.023875479, -0.7857357, -871280.7, -14026.92, 0.0, 9.998957, 9.999569 
2.1250825e+3, 2.2251643e+2, -1025647.8, -1000032.4, -144023.75, 0.074946575, -0.858838, -868248.0, -108978.18, 0.0, 9.99856, 9.9988575 
2.1251272e+3, 2.3251681e+2, -650209.1, -800835.25, -143452.67, 0.05428438, -0.6791006, -563501.44, 97771.21, 0.0, 10.0006075, 9.998563 
2.1251716e+3, 2.4251682e+2, -439739.34, -711319.94, -53790.02, -0.055532053, -0.50119376, -429473.6, 133806.02, 0.0, 10.001645, 9.998008 
2.1252158e+3, 2.525157e+2, -602428.1, -770860.4, -21641.682, -0.33965635, -0.39061165, -599691.9, -134394.56, 0.0, 9.999995, 9.99772 
2.1252617e+3, 2.6251376e+2, -527958.06, -639684.8, -60380.258, -0.3921207, -0.35446948, -501562.72, -134242.14, 0.0, 9.999636, 9.998122 
2.125311e+3, 2.7251035e+2, -16680.22, -327839.2, -45468.152, 0.051311214, -0.51992816, -10172.294, 259180.77, 0.0, 10.002419, 9.998245 
2.1253589e+3, 2.8250837e+2, 324273.28, -43757.043, 57321.86, 0.21656972, -0.55327517, 332994.66, 504364.44, 0.0, 10.003783, 9.998874 
2.1254031e+3, 2.925097e+2, 131133.34, -89447.52, -10207.722, -0.16237526, -0.31826025, 131604.72, 204956.11, 0.0, 10.001797, 9.998842 
2.1254514e+3, 3.0250606e+2, -56555.0, -363680.22, -62072.82, -0.14185385, -0.4742441, -44483.945, -44483.945, 0.0, 10.00106, 9.996992 
2.1255024e+3, 3.1250158e+2, 41041.355, -304460.84, 74667.24, 0.17661989, -0.56978077, 56487.332, 56487.332, 0.0, 10.00165, 9.997121 
2.1346672e+3, 1.3247246e+2, -1932350.9, -1664930.0, 7653.437, 0.14885749, -0.56190956, -1664711.1, -23005.139, 0.38411817, 9.997385, 10.000922 
2.1347073e+3, 1.4246899e+2, -1694317.8, -1504746.3, -4603.542, -0.5090282, -0.9818025, -1504634.5, 39101.953, 0.24951555, 9.998297, 10.001003 
2.1347581e+3, 1.5247075e+2, -1619218.3, -1394016.5, -36627.332, -0.026421225, -0.92239326, -1388209.1, 57501.125, 0.13052814, 9.99807, 10.001166 
2.1348074e+3, 1.6247167e+2, -1614734.9, -1490331.8, 8671.213, 0.29812405, -0.8809941, -1489730.3, -142034.22, 0.050404422, 9.998107, 9.999756 
2.1348526e+3, 1.7247017e+2, -1392195.1, -1391732.0, 33790.254, 0.06114583, -0.9603831, -1358172.5, -108456.95, 0.012084308, 9.999226, 9.999217 
2.1348977e+3, 1.8246946e+2, -1197780.9, -1304589.3, -60591.76, -0.13313726, -0.91959006, -1170417.6, -18688.719, 0.001155736, 10.00013, 9.998711 
2.1349429e+3, 1.9247107e+2, -1068141.5, -1217730.0, -144840.4, -0.14931841, -0.6091032, -979923.7, 73798.82, 0.000030850606, 10.000465, 9.99847 
2.1349883e+3, 2.024718e+2, -900069.3, -926024.56, -193933.47, -0.12896645, -0.42221746, -718679.75, 237041.34, 0.0, 10.000266, 9.999893 
2.1350344e+3, 2.1247026e+2, -967306.25, -863229.9, -166233.69, -0.038404744, -0.59782887, -741079.6, 116651.875, 0.0, 9.998942, 10.00029 
2.1350802e+3, 2.2246936e+2, -989797.06, -918739.5, -95424.12, 0.0025611124, -0.6692469, -852444.6, -92706.38, 0.0, 9.99853, 9.99943 
2.1351263e+3, 2.3247024e+2, -623792.0, -733515.56, -57525.773, -0.09297838, -0.49250758, -599161.44, 62573.082, 0.0, 10.000551, 9.999053 
2.1351726e+3, 2.4246983e+2, -424772.53, -660710.25, -85744.67, -0.109822266, -0.39920306, -396903.13, 166840.47, 0.0, 10.001565, 9.998392 
2.1352202e+3, 2.5246656e+2, -579802.25, -720631.94, -84216.76, 0.11537392, -0.5404705, -540441.4, -74660.984, 0.0, 9.999981, 9.998071 
2.1352671e+3, 2.624642e+2, -472224.16, -518735.84, 6169.684, 0.1918728, -0.5998836, -471419.66, -103614.36, 0.0, 9.999618, 9.99896 
2.135311e+3, 2.724639e+2, 44639.074, -190033.83, 63614.457, -0.2009173, -0.5510279, 60774.125, 330578.13, 0.0, 10.002374, 9.999214 
2.1353562e+3, 2.8246218e+2, 205315.19, -270046.0, 11907.444, -0.41104814, -0.56226534, 205613.27, 377431.34, 0.0, 10.0037, 9.997354 
2.1354072e+3, 2.9245892e+2, -34395.094, -437455.84, -76477.17, 0.061682742, -0.55987644, -20372.111, 53481.902, 0.0, 10.00181, 9.996448 
2.1354577e+3, 3.0245757e+2, 38099.656, -171582.84, -37157.707, 0.3970324, -0.37702417, 44489.62, 44489.62, 0.0, 10.001092, 9.998291 
2.1354996e+3, 3.1245384e+2, 347860.5, 353070.1, 27964.549, -0.2642208, -0.6538769, 378550.88, 378550.88, 0.0, 10.001599, 10.001647 
2.1446648e+3, 1.3242367e+2, -1815808.0, -1672124.3, -24222.492, 0.13463962, -0.6490741, -1668150.8, -25969.086, 0.40760165, 9.998456, 10.000348 
2.1447062e+3, 1.4242068e+2, -1591418.3, -1501626.0, -140817.75, -0.48588982, -0.96977484, -1398720.6, 145491.31, 0.26811564, 9.999282, 10.000694 
2.1447566e+3, 1.5242295e+2, -1532887.9, -1374755.0, -187362.17, 0.003451611, -0.8461675, -1250459.5, 195723.53, 0.14296411, 9.99878, 10.001055 
2.1448056e+3, 1.6242425e+2, -1587219.3, -1474236.5, -124847.44, 0.32620004, -0.75672776, -1393694.4, -45528.27, 0.057087187, 9.998284, 9.999783 
2.1448511e+3, 1.7242289e+2, -1595976.9, -1485409.4, -91262.19, 0.05497197, -0.82764965, -1433992.3, -183808.13, 0.014719365, 9.997807, 9.999263 
2.1448962e+3, 1.8242183e+2, -1575980.5, -1509316.6, -140251.42, -0.1561899, -0.8131301, -1398490.8, -246290.39, 0.0017550356, 9.997641, 9.998502 
2.1449421e+3, 1.9242208e+2, -1391687.6, -1408101.0, -117306.73, -0.14326112, -0.6097289, -1282300.9, -228093.55, 0.00008036648, 9.9984, 9.9981575 
2.144988e+3, 2.0242217e+2, -1045652.6, -986419.9, -112926.195, -0.11214113, -0.4701648, -899291.0, 56921.223, 0.000000018813253, 9.999223, 9.999982 
2.1450332e+3, 2.1242207e+2, -774852.94, -743921.1, -130301.234, -0.08622723, -0.5257533, -628171.1, 230038.28, 0.0, 10.000148, 10.000526 
2.145079e+3, 2.2242205e+2, -692225.1, -745331.6, -71414.12, -0.076432236, -0.53633463, -642587.5, 117620.26, 0.0, 10.000436, 9.999707 
2.1451257e+3, 2.3242214e+2, -811333.44, -792343.6, -48114.527, -0.105285786, -0.4638187, -752796.06, -90586.04, 0.0, 9.999122, 9.999343 
2.1451728e+3, 2.4242143e+2, -832041.06, -781238.25, -89350.766, -0.056249447, -0.44556856, -713748.4, -149528.06, 0.0, 9.99844, 9.999071 
2.1452206e+3, 2.5241908e+2, -588154.8, -630648.94, -63065.07, 0.19736831, -0.5737538, -542853.8, -76608.51, 0.0, 9.999518, 9.99891 
2.1452679e+3, 2.6241767e+2, -334696.25, -444827.22, 90117.09, 0.27234015, -0.59927064, -284152.56, 84107.49, 0.0, 10.000526, 9.999031 
2.1453132e+3, 2.7241793e+2, -143167.06, -307791.16, 80713.96, -0.15223818, -0.46978945, -110196.78, 160058.0, 0.0, 10.001196, 9.998977 
2.145359e+3, 2.824161e+2, -90156.25, -451878.06, -58268.715, -0.38087097, -0.46678546, -81001.6, 91270.3, 0.0, 10.001831, 9.997012 
2.1454084e+3, 2.9241082e+2, 6456.172, -448366.56, -44112.207, 0.014110742, -0.6268663, 10695.008, 85022.016, 0.0, 10.002229, 9.996168 
2.1454585e+3, 3.0240917e+2, 212503.3, -136852.78, 90270.125, 0.29100662, -0.44780102, 234449.56, 234449.56, 0.0, 10.002474, 9.997876 
2.1455024e+3, 3.124056e+2, 430657.28, 372466.78, -65137.535, -0.16766694, -0.6609356, 472902.28, 472902.28, 0.0, 10.002268, 10.00145 
2.1546616e+3, 1.32374e+2, -1943275.4, -1932818.3, 65027.92, -0.043292705, -0.6755956, -1872809.0, -230135.1, 0.43279883, 9.998433, 9.998573 
2.1547115e+3, 1.4237632e+2, -1613501.8, -1554496.6, -163403.8, 0.096297316, -0.34038392, -1417953.4, 126710.83, 0.28823382, 9.9993515, 10.000269 
2.1547556e+3, 1.5237664e+2, -1526616.6, -1372348.8, -203489.38, 0.03664569, -0.40891528, -1231864.8, 214792.03, 0.15688464, 9.998829, 10.0010805 
2.1548003e+3, 1.6237676e+2, -1579159.3, -1461135.6, -149476.11, -0.026216647, -0.4411384, -1359444.3, -10791.547, 0.06501248, 9.9983, 9.999865 
2.1548472e+3, 1.7237692e+2, -1588470.3, -1465319.8, -109347.15, -0.093598254, -0.37333563, -1401402.8, -150749.0, 0.018139776, 9.997788, 9.999408 
2.154894e+3, 1.823761e+2, -1513907.0, -1376381.8, -123187.266, -0.12276168, -0.37954202, -1304065.0, -151401.52, 0.0026903055, 9.997618, 9.999428 
2.1549417e+3, 1.9237305e+2, -1307379.1, -1231602.6, -82681.836, -0.04593498, -0.62344754, -1178541.4, -123849.47, 0.00019736934, 9.998389, 9.999375 
2.1549883e+3, 2.0237127e+2, -1044083.3, -975611.06, -79776.26, -0.017760096, -0.7482974, -923034.94, 33673.313, 0.0000007869328, 9.999187, 10.000074 
2.1550329e+3, 2.1237327e+2, -798280.06, -785918.7, -91292.89, -0.13568082, -0.57248515, -700597.5, 158091.53, 0.0, 10.000114, 10.0002575 
2.1550784e+3, 2.223743e+2, -702282.25, -751037.75, -102506.414, -0.18207325, -0.4613841, -621294.7, 139385.34, 0.0, 10.000375, 9.999695 
2.1551257e+3, 2.3237251e+2, -810503.0, -785310.5, -96957.51, -0.014822893, -0.5829794, -700134.44, -37434.926, 0.0, 9.9991, 9.999402 
2.1551727e+3, 2.4237154e+2, -763521.0, -637981.5, -71868.195, 0.07360802, -0.62991464, -605330.75, -40620.406, 0.0, 9.99844, 10.000051 
2.1552172e+3, 2.52373e+2, -495107.66, -440311.28, -18018.738, -0.07674314, -0.5044587, -434917.16, 31778.12, 0.0, 9.999532, 10.00021 
2.1552645e+3, 2.6237366e+2, -381063.16, -532689.4, 111888.18, -0.13563834, -0.3823845, -321722.3, 46967.0, 0.0, 10.000497, 9.998437 
2.1553169e+3, 2.723723e+2, -237371.22, -496606.9, 106827.586, 0.119500585, -0.29741254, -199022.05, 71684.81, 0.0, 10.001171, 9.997688 
2.155367e+3, 2.8237006e+2, -52900.938, -362725.4, -42575.78, 0.20486204, -0.277881, -47156.71, 125574.34, 0.0, 10.001787, 9.997641 
2.155408e+3, 2.9236513e+2, 111060.71, -242741.3, -26462.16, -0.27324766, -0.5269699, 113028.96, 187803.34, 0.0, 10.0022745, 9.997559 
2.1554539e+3, 3.023605e+2, 92297.945, -389297.28, 73800.29, -0.4149551, -0.68133146, 103353.414, 103353.414, 0.0, 10.002498, 9.996121 
2.1555082e+3, 3.1235927e+2, 112158.61, -291413.6, -13587.507, 0.19312486, -0.3670649, 112615.56, 112615.56, 0.0, 10.002268, 9.996889 
2.1646596e+3, 1.3232222e+2, -2200218.8, -1978036.9, -54823.56, 0.051292803, -0.6641341, -1965245.6, -322057.47, 0.45757636, 9.996329, 9.999273 
2.1647117e+3, 1.4232744e+2, -1671556.0, -1532713.3, -185477.98, 0.23750654, -0.10769203, -1404090.6, 141062.94, 0.3088363, 9.998677, 10.000828 
2.164754e+3, 1.5232748e+2, -1530897.3, -1341521.5, -228722.7, -0.007974796, -0.24383011, -1188661.6, 258488.55, 0.17204043, 9.998654, 10.001444 
2.1647972e+3, 1.6232742e+2, -1504179.3, -1377024.5, -136656.38, -0.18301933, -0.3318838, -1289880.1, 59267.973, 0.07433442, 9.998604, 10.000318 
2.1648447e+3, 1.7232798e+2, -1364305.3, -1304784.3, -73734.89, -0.164018, -0.2720908, -1255030.5, -3887.722, 0.022589553, 9.999094, 9.999881 
2.1648926e+3, 1.8232757e+2, -1209237.0, -1166752.8, -65852.76, -0.12472352, -0.28925842, -1118800.9, 34345.176, 0.00413868, 9.999433, 9.999994 
2.1649402e+3, 1.92325e+2, -1113402.5, -1073859.3, -73234.8, -0.06586992, -0.54383254, -1017774.06, 37393.07, 0.00045452762, 9.99944, 9.999954 
2.164987e+3, 2.0232344e+2, -1074862.3, -1008969.8, -120053.95, -0.029896418, -0.6768371, -917423.44, 39756.758, 0.000007502901, 9.999051, 9.999912 
2.1650325e+3, 2.1232489e+2, -1175609.6, -1013342.7, -154901.45, -0.06418298, -0.5183165, -919613.1, -60444.34, 0.0, 9.997722, 9.999846 
2.165078e+3, 2.2232564e+2, -1105286.0, -899227.6, -132372.19, -0.07641807, -0.42163888, -834514.75, -73351.37, 0.0, 9.997412, 10.000104 
2.165125e+3, 2.323246e+2, -639165.8, -619404.75, -74581.22, -0.020294407, -0.5386269, -554052.44, 109120.65, 0.0, 9.999923, 10.000138 
2.1651717e+3, 2.423242e+2, -284619.72, -398746.16, -47716.2, -0.014915004, -0.57899106, -267298.5, 297877.47, 0.0, 10.001686, 10.000134 
2.1652168e+3, 2.5232545e+2, -266985.03, -343990.38, -100245.07, -0.16234253, -0.46079814, -198102.75, 269058.97, 0.0, 10.00116, 10.000087 
2.1652642e+3, 2.623256e+2, -347794.13, -520058.53, -12951.288, -0.19505526, -0.37781653, -346825.84, 22333.81, 0.0, 10.000736, 9.998413 
2.1653178e+3, 2.723234e+2, -283812.63, -517483.72, 63702.645, 0.13724366, -0.3790551, -267574.6, 3611.2285, 0.0, 10.000848, 9.997701 
2.1653691e+3, 2.823214e+2, -73903.914, -342936.3, -5250.9565, 0.2782909, -0.34696808, -73801.47, 99406.78, 0.0, 10.0015135, 9.997907 
2.1654108e+3, 2.9231876e+2, 297588.4, -114612.1, -54503.043, -0.25911826, -0.39506686, 304673.25, 379904.03, 0.0, 10.003399, 9.997894 
2.1654566e+3, 3.023141e+2, 350820.8, -233323.64, -19844.846, -0.46548048, -0.5849682, 351494.22, 351494.22, 0.0, 10.004144, 9.9964 
2.1655093e+3, 3.123118e+2, 56030.934, -352267.6, 55034.215, 0.08464304, -0.40274525, 63318.863, 63318.863, 0.0, 10.002022, 9.996597 
2.17466e+3, 1.3226816e+2, -1934806.5, -1551903.1, -2989.4275, 0.42821032, -0.5807788, -1551879.8, 91846.17, 0.48078975, 9.996515, 10.002676 
2.1747066e+3, 1.4227341e+2, -1564768.4, -1356235.9, -120766.62, -0.14916158, -0.3198039, -1300952.6, 244732.84, 0.32934, 9.998629, 10.002451 
2.1747507e+3, 1.5227512e+2, -1487528.4, -1253804.5, -222366.08, -0.17620899, -0.3808677, -1119462.5, 328203.34, 0.18832743, 9.998623, 10.002184 
2.1747959e+3, 1.6227607e+2, -1445538.4, -1268355.4, -119243.81, -0.16398124, -0.4408942, -1208395.4, 141257.61, 0.0852701, 9.9986315, 10.001102 
2.1748437e+3, 1.7227589e+2, -1300030.3, -1183232.0, -47645.152, -0.17138283, -0.54199994, -1166261.9, 85390.64, 0.028395085, 9.999132, 10.000713 
2.1748914e+3, 1.8227603e+2, -1195842.9, -1146947.5, -61432.945, -0.18916976, -0.55861485, -1105276.4, 48373.355, 0.006367479, 9.999463, 10.000117 
2.174938e+3, 1.9227776e+2, -1117394.5, -1086689.3, -70588.76, -0.22532669, -0.37868127, -1029802.9, 25831.816, 0.0009868387, 9.999455, 9.99986 
2.1749847e+3, 2.0227855e+2, -1108211.5, -1073453.9, -158412.84, -0.17514625, -0.2549583, -931469.44, 26159.648, 0.000047582707, 9.999027, 9.999482 
2.1750318e+3, 2.1227683e+2, -1217948.6, -1097729.8, -203000.33, 0.10137181, -0.35953188, -946126.44, -86477.29, 0.00000000032497088, 9.997704, 9.999278 
2.1750784e+3, 2.2227599e+2, -1053877.4, -782921.7, -75141.664, 0.21399084, -0.41470972, -763478.56, -1820.0269, 0.0, 9.997371, 10.000921 
2.1751238e+3, 2.3227811e+2, -549571.56, -423736.0, 28465.229, -0.13095015, -0.34516037, -417596.44, 246037.02, 0.0, 9.999878, 10.001506 
2.1751702e+3, 2.4227907e+2, -348998.38, -505342.97, -44027.637, -0.33530453, -0.3116594, -337452.53, 228167.72, 0.0, 10.001582, 9.999446 
2.1752185e+3, 2.5227654e+2, -383296.66, -566472.06, -123358.47, -0.10695683, -0.4336883, -321243.16, 146400.33, 0.0, 10.001085, 9.998591 
2.175267e+3, 2.6227388e+2, -328147.94, -460027.94, -19943.387, 0.034402408, -0.5579869, -325198.0, 44470.11, 0.0, 10.000657, 9.998861 
2.1753167e+3, 2.7227148e+2, -203800.7, -349530.75, 73113.75, -0.07917964, -0.6811731, -173443.0, 98246.75, 0.0, 10.000842, 9.998854 
2.1753664e+3, 2.822702e+2, -83682.984, -354455.78, 40697.04, -0.133337, -0.64724797, -77698.51, 96004.66, 0.0, 10.001485, 9.997835 
2.1754162e+3, 2.922714e+2, 237815.27, -209603.28, 14800.553, -0.056997314, -0.26831827, 238304.33, 314003.2, 0.0, 10.003281, 9.9972925 
2.1754655e+3, 3.0226952e+2, 443168.22, 10755.971, -76598.47, 0.04848303, -0.20016019, 456336.06, 456336.06, 0.0, 10.003941, 9.998165 
2.1755078e+3, 3.1226408e+2, 338028.8, 200398.5, -92932.63, -0.25773826, -0.5935649, 384851.0, 384851.0, 0.0, 10.002175, 10.000316 
2.1847019e+3, 1.4222212e+2, -2119667.3, -1538141.6, 73429.59, -0.25836983, -0.48421723, -1529013.0, 17171.916, 0.34983045, 9.994648, 10.002509 
2.1847492e+3, 1.5222499e+2, -1757564.3, -1360755.3, -121348.66, -0.084299974, -0.43708357, -1326587.6, 121569.0, 0.2059314, 9.996609, 10.002246 
2.1847937e+3, 1.6222647e+2, -1553040.0, -1293750.8, -50023.637, -0.18336014, -0.45873466, -1284434.6, 65706.19, 0.09816949, 9.997777, 10.00132 
2.1848428e+3, 1.7222662e+2, -1414882.9, -1207653.6, -24853.111, -0.12603134, -0.54836595, -1204714.6, 47422.492, 0.036017943, 9.998215, 10.000991 
2.1848908e+3, 1.8222709e+2, -1341787.3, -1235953.8, -77121.51, -0.10592961, -0.54569596, -1195340.3, -41208.3, 0.009796201, 9.99854, 9.99995 
2.1849373e+3, 1.9222887e+2, -1245977.6, -1189146.4, -115483.16, -0.1998345, -0.32537082, -1098634.3, -42516.176, 0.0020521113, 9.998746, 9.999496 
2.1849833e+3, 2.0222968e+2, -1082765.3, -1023152.6, -201478.48, -0.19800034, -0.1891135, -849287.7, 108825.21, 0.00020967671, 9.999044, 9.999819 
2.1850298e+3, 2.1222809e+2, -882736.4, -868202.25, -175220.6, 0.05447238, -0.33514774, -700098.06, 160030.33, 0.00000086887735, 9.999714, 9.999886 
2.1850765e+3, 2.2222726e+2, -680904.1, -642499.8, 21623.422, 0.1621128, -0.4156035, -632783.2, 129352.25, 0.0, 10.0000925, 10.000577 
2.1851236e+3, 2.3222898e+2, -631077.75, -539587.0, -7856.743, -0.13485448, -0.32345435, -538917.25, 125198.625, 0.0, 9.999652, 10.000818 
2.185171e+3, 2.4222957e+2, -685142.4, -684685.1, -191368.3, -0.28549764, -0.27419567, -493545.3, 72562.09, 0.0, 9.999337, 9.999303 
2.1852195e+3, 2.5222707e+2, -609897.44, -664402.56, -184170.72, -0.021183683, -0.39838213, -450973.84, 17156.877, 0.0, 9.9994755, 9.998698 
2.1852681e+3, 2.6222453e+2, -429010.94, -478270.66, 16241.859, 0.11166364, -0.5277792, -424137.78, -53984.27, 0.0, 9.999837, 9.999126 
2.1853168e+3, 2.7222195e+2, -176459.38, -306117.16, 59652.066, -0.1334369, -0.6949803, -153190.84, 118983.02, 0.0, 10.000906, 9.99912 
2.1853669e+3, 2.8222048e+2, -58568.79, -319796.25, -4118.0356, -0.23122805, -0.70437247, -58503.887, 115683.66, 0.0, 10.00156, 9.998039 
2.1854188e+3, 2.922219e+2, -140465.94, -380166.63, -7197.837, 0.023247838, -0.31749317, -140249.98, -64066.223, 0.0, 10.000636, 9.9973955 
2.185469e+3, 3.0222052e+2, -26936.307, -261055.11, -85729.53, 0.1546439, -0.18886107, 1098.9395, 1098.9395, 0.0, 10.00088, 9.997786 
2.185512e+3, 3.1221583e+2, 732073.8, 430365.72, -291385.13, -0.1975863, -0.45483696, 909339.0, 909339.0, 0.0, 10.00469, 10.0007 
2.194697e+3, 1.4217395e+2, -2278968.8, -1802004.1, 177699.95, -0.2072824, -0.5844918, -1743079.1, -196431.53, 0.371045, 9.994417, 10.000737 
2.1947496e+3, 1.5217738e+2, -1821892.1, -1450315.1, -56410.176, 0.27846572, -0.38989767, -1441940.1, 6679.383, 0.22535217, 9.996525, 10.001482 
2.1947908e+3, 1.6217864e+2, -1585690.4, -1357217.4, -28549.74, -0.26957554, -0.3680251, -1353703.9, -3093.0024, 0.113554515, 9.997781, 10.000836 
2.1948418e+3, 1.7218024e+2, -1437294.0, -1251476.1, -5034.83, -0.046393253, -0.28013423, -1251339.9, 1256.6226, 0.046104282, 9.998208, 10.000681 
2.1948916e+3, 1.821808e+2, -1378516.8, -1310434.6, -66211.29, 0.10531706, -0.23225532, -1270026.1, -115433.945, 0.015073848, 9.998529, 9.999446 
2.1949378e+3, 1.9217832e+2, -1289848.4, -1279201.9, -103420.7, -0.010535971, -0.37748647, -1180967.5, -124349.75, 0.004138987, 9.99874, 9.998882 
2.1949829e+3, 2.0217672e+2, -1013941.3, -875228.06, -182400.6, -0.12776543, -0.47872525, -749442.9, 209189.7, 0.00072646124, 9.999017, 10.00085 
2.1950269e+3, 2.1217847e+2, -764316.0, -618049.06, -145464.05, -0.22224878, -0.45482045, -528368.9, 332239.88, 0.000022642807, 9.99969, 10.0016165 
2.1950723e+3, 2.2217932e+2, -789943.44, -857872.6, 11554.058, -0.2485297, -0.42691693, -788032.0, -25435.912, 0.000000000011542125, 10.000046, 9.99912 
2.1951237e+3, 2.3217721e+2, -821517.06, -934209.3, -22166.08, -0.070139214, -0.46395445, -817313.9, -152693.9, 0.0, 9.99964, 9.9981165 
2.1951738e+3, 2.4217579e+2, -669670.4, -635283.3, -193326.25, 0.0763646, -0.45814186, -458387.56, 108249.01, 0.0, 9.999271, 9.999669 
2.1952197e+3, 2.5217688e+2, -499052.66, -433828.47, -175091.28, 0.07369462, -0.36504966, -288338.03, 180286.8, 0.0, 9.999473, 10.000281 
2.1952668e+3, 2.621771e+2, -429805.0, -468604.75, 37564.547, 0.016333995, -0.32020465, -406926.63, -36306.293, 0.0, 9.9998045, 9.999199 
2.195318e+3, 2.721744e+2, -222180.34, -385361.47, 102528.555, -0.08299102, -0.46263567, -172739.89, 99902.34, 0.0, 10.000851, 9.998594 
2.1953699e+3, 2.8217193e+2, -41422.555, -269054.38, -22853.818, -0.085271716, -0.55332553, -39150.746, 135513.19, 0.0, 10.0015, 9.998416 
2.1954189e+3, 2.9217052e+2, -73408.836, -272411.3, -43840.516, -0.00982173, -0.5061826, -64178.816, 12504.55, 0.0, 10.000773, 9.998069 
2.1954666e+3, 3.021677e+2, -148906.38, -544878.44, 4839.6294, -0.1567623, -0.49242353, -148847.23, -148847.23, 0.0, 10.001033, 9.995749 
2.1955203e+3, 3.1216478e+2, 498168.97, -452.6948, -34405.36, 0.16072884, -0.28906873, 500531.78, 500531.78, 0.0, 10.004477, 9.997821 
2.2046912e+3, 1.421262e+2, -1653092.1, -1565035.3, -371.37137, -0.43284333, -0.5422201, -1565033.8, -17917.428, 0.39437363, 9.998965, 10.000187 
2.204747e+3, 1.5212868e+2, -1606806.1, -1432310.5, -79924.945, 0.31697315, -0.3747062, -1401236.0, 47861.12, 0.24751917, 9.998316, 10.00084 
2.2047888e+3, 1.6212867e+2, -1457599.6, -1344525.1, -58777.5, -0.27669957, -0.4276664, -1319507.1, 31593.738, 0.13222682, 9.998851, 10.000437 
2.2048408e+3, 1.7213126e+2, -1326654.6, -1254833.8, -62229.582, 0.008236138, -0.19469842, -1218896.5, 34183.234, 0.059555795, 9.999196, 10.0001955 
2.2048911e+3, 1.8213227e+2, -1274571.5, -1215525.4, -125160.08, 0.19796942, -0.08327444, -1116453.5, 38618.33, 0.023171267, 9.999042, 9.99986 
2.2049366e+3, 1.9212891e+2, -1363508.8, -1231339.8, -80149.9, 0.05369859, -0.38852012, -1193543.8, -136442.27, 0.008108057, 9.997864, 9.999642 
2.2049814e+3, 2.021267e+2, -1261740.9, -1007133.75, -67526.5, -0.094522804, -0.59559983, -990333.1, -31214.492, 0.0021629941, 9.99736, 10.000747 
2.2050259e+3, 2.1212876e+2, -903624.5, -733626.8, -169832.95, -0.22585736, -0.50223076, -628709.8, 232382.89, 0.00023583506, 9.998936, 10.001187 
2.2050722e+3, 2.2212966e+2, -797852.0, -867550.75, -121761.44, -0.25432858, -0.43627083, -706050.94, 57029.02, 0.0000019906881, 10.000016, 9.999068 
2.2051238e+3, 2.3212698e+2, -842184.1, -923987.9, 13127.238, 0.0000034154918, -0.54091877, -840129.2, -175021.83, 0.0, 9.999421, 9.998291 
2.2051741e+3, 2.4212497e+2, -713906.4, -721671.7, -5384.9277, 0.17818983, -0.5848072, -711150.3, -144021.33, 0.0, 9.999242, 9.999091 
2.2052197e+3, 2.5212574e+2, -398201.88, -479177.53, -136813.69, 0.080820605, -0.44574416, -296010.88, 173113.39, 0.0, 10.000578, 9.999434 
2.2052668e+3, 2.621261e+2, -220382.25, -399045.0, -65234.426, -0.035695978, -0.32141167, -199098.86, 172022.63, 0.0, 10.001374, 9.998927 
2.2053187e+3, 2.7212408e+2, -264131.97, -405295.16, 18777.842, -0.098163635, -0.3847509, -261676.8, 11459.527, 0.0, 10.000561, 9.998599 
2.2053707e+3, 2.8212145e+2, -168561.3, -315931.38, -50314.76, -0.088031426, -0.49840882, -153021.56, 22137.83, 0.0, 10.0005665, 9.998542 
2.2054206e+3, 2.9211867e+2, 342265.88, -55301.34, -103597.734, -0.055290315, -0.59759325, 367641.63, 444833.75, 0.0, 10.003568, 9.998212 
2.2054695e+3, 3.0211776e+2, 476982.53, -181733.38, -48221.965, -0.17091908, -0.42666745, 480493.97, 480493.97, 0.0, 10.005055, 9.996311 
2.2055237e+3, 3.1211412e+2, 22461.621, -219785.66, 150811.84, 0.24482581, -0.34791252, 94767.94, 94767.94, 0.0, 10.001136, 9.997936 
2.214687e+3, 1.4207973e+2, -1604574.8, -1474235.9, -223237.56, -0.7793285, -0.21824232, -1306849.9, 240734.13, 0.4221777, 9.999108, 10.001511 
2.2147417e+3, 1.5207845e+2, -1630086.0, -1472426.8, -64685.43, -0.04790342, -0.40336904, -1449284.3, 309.5471, 0.27423543, 9.99833, 10.000466 
2.214788e+3, 1.620763e+2, -1480876.8, -1389463.8, -45333.156, -0.23120564, -0.64258045, -1370795.0, -19181.355, 0.15564767, 9.998842, 10.000106 
2.21484e+3, 1.7207941e+2, -1371899.9, -1346848.3, -49836.88, 0.014833379, -0.30064493, -1307987.3, -54397.734, 0.07778218, 9.999189, 9.999556 
2.2148897e+3, 1.8208136e+2, -1180519.4, -1028554.5, -154772.98, 0.1355302, -0.09931425, -932118.8, 223453.58, 0.035576556, 9.999065, 10.001171 
2.2149336e+3, 1.9208047e+2, -1212272.9, -920863.25, -123856.01, -0.035033602, -0.35818282, -875334.7, 182235.45, 0.0154146915, 9.997865, 10.001792 
2.2149783e+3, 2.0207955e+2, -1350845.4, -1185037.9, -36100.434, -0.13133222, -0.5354288, -1177518.9, -217947.55, 0.005714695, 9.997326, 9.999541 
2.215027e+3, 2.120789e+2, -1085820.1, -1106989.0, -101530.086, 0.006431569, -0.47624516, -994324.25, -132743.9, 0.0013616167, 9.998913, 9.998633 
2.2150756e+3, 2.2207831e+2, -717613.75, -693223.7, -125414.1, 0.103333294, -0.4366711, -579413.1, 184173.48, 0.00013056793, 9.99998, 10.000284 
2.2151238e+3, 2.32078e+2, -642370.8, -507819.44, -13014.655, 0.060719185, -0.5666506, -506572.16, 159008.69, 0.0000045921656, 9.999409, 10.001155 
2.2151715e+3, 2.4207674e+2, -825227.6, -934260.94, 14161.263, 0.012637576, -0.6682597, -823418.4, -255829.44, 0.000000030624218, 9.999173, 9.99766 
2.2152193e+3, 2.5207362e+2, -623838.44, -938061.2, -81670.38, -0.024450874, -0.6297291, -603879.1, -134250.06, 0.0, 10.000541, 9.996298 
2.2152676e+3, 2.6207167e+2, -270073.3, -490864.13, -81441.05, -0.08268291, -0.51429653, -243283.47, 128371.57, 0.0, 10.001335, 9.99831 
2.2153181e+3, 2.7207136e+2, -229694.95, -335689.53, -15034.841, -0.19367415, -0.4400295, -227603.6, 46049.94, 0.0, 10.000576, 9.999065 
2.2153693e+3, 2.8206924e+2, -191637.39, -346886.38, 11628.205, -0.254498, -0.5251853, -190771.27, -15098.922, 0.0, 10.000512, 9.998344 
2.2154231e+3, 2.9206598e+2, 280578.9, -127022.74, 21396.47, -0.15523638, -0.6316135, 281699.0, 359411.9, 0.0, 10.003343, 9.997816 
2.2154768e+3, 3.0207026e+2, 636236.06, 211634.66, -130552.055, 0.04916833, -0.032421075, 673165.06, 673165.06, 0.0, 10.004803, 9.999129 
2.215521e+3, 3.1206378e+2, 230216.2, 150473.44, 9194.48, -0.14308712, -0.59308404, 231262.63, 231262.63, 0.0, 10.001419, 10.000331 
2.2246921e+3, 1.4203183e+2, -1757831.5, -1727217.6, -235018.38, -0.16002087, -0.0919402, -1507008.3, 41051.82, 0.45833313, 9.998805, 9.999261 
2.2247398e+3, 1.5202911e+2, -1631463.1, -1447086.6, 65.77099, -0.05361262, -0.404681, -1447086.6, 2993.1028, 0.30885017, 9.998199, 10.000704 
2.2247876e+3, 1.6202757e+2, -1473632.6, -1402287.4, 41515.617, -0.16305484, -0.59111893, -1383223.5, -31133.447, 0.18666483, 9.99897, 9.999952 
2.2248386e+3, 1.7202891e+2, -1494938.3, -1432088.9, 37636.516, 0.0027415543, -0.4023915, -1414482.8, -160400.47, 0.103338934, 9.998467, 9.999314 
2.2248875e+3, 1.8202986e+2, -1327664.3, -1103752.5, -81705.42, 0.073325664, -0.28969008, -1077108.6, 78966.11, 0.054786276, 9.998058, 10.001135 
2.2249311e+3, 1.9203033e+2, -1087746.9, -860713.9, -205173.23, -0.088203266, -0.41397154, -739747.9, 318310.84, 0.028543482, 9.998711, 10.001832 
2.2249763e+3, 2.0203018e+2, -1084246.8, -1099698.5, -164426.83, -0.1454322, -0.5003712, -927364.4, 32687.6, 0.013685946, 9.999344, 9.999158 
2.2250271e+3, 2.1202849e+2, -1050823.4, -1156565.8, -92992.88, 0.09942804, -0.48877755, -996722.4, -134650.34, 0.005262215, 9.999434, 9.998049 
2.2250767e+3, 2.2202712e+2, -806746.25, -768253.6, -85448.5, 0.2355412, -0.4749336, -699910.75, 64175.484, 0.001420654, 9.999499, 10.000004 
2.2251226e+3, 2.3202735e+2, -650964.2, -525892.2, -194378.02, 0.012629223, -0.5367083, -384238.2, 281837.94, 0.0002619265, 9.999407, 10.001036 
2.2251692e+3, 2.4202643e+2, -732417.6, -870451.94, -208353.39, -0.1459896, -0.59506994, -581947.9, -13866.953, 0.000035642544, 9.99972, 9.997839 
2.2252198e+3, 2.5202304e+2, -450875.75, -804008.56, -49393.71, -0.06813076, -0.62115544, -444097.03, 26023.71, 0.0000011567587, 10.001506, 9.996756 
2.22527e+3, 2.620205e+2, -121648.53, -509495.0, 53863.23, -0.029693216, -0.56401, -114307.09, 257843.69, 0.0, 10.002737, 9.997507 
2.2253199e+3, 2.7201903e+2, -26294.045, -380594.8, -17892.959, -0.1507999, -0.48326296, -25392.703, 248771.34, 0.0, 10.002595, 9.997784 
2.2253709e+3, 2.8201652e+2, -41799.836, -277276.66, -42958.883, -0.21558689, -0.530456, -34207.49, 141982.23, 0.0, 10.001553, 9.998323 
2.2254248e+3, 2.9201394e+2, -301410.34, -369242.94, 33239.367, -0.09790734, -0.59735113, -287838.0, -209615.83, 0.0, 9.999168, 9.998169 
2.2254792e+3, 3.020185e+2, -111864.44, -80582.35, -79247.055, 0.12447006, -0.02874057, -15447.542, -15447.542, 0.0, 9.999359, 9.999744 
2.2255239e+3, 3.1201106e+2, 891275.8, 437517.16, -196999.06, -0.21591626, -0.72557646, 964867.56, 964867.56, 0.0, 10.0061, 10.000061 
2.2347417e+3, 1.5198089e+2, -1590398.3, -1361193.6, 28140.47, 0.34700215, -0.35510153, -1357789.4, 92762.92, 0.35698506, 9.998, 10.001725 
2.234787e+3, 1.6198282e+2, -1486819.1, -1418148.3, 40059.547, -0.11350889, -0.2444154, -1399723.0, -47195.992, 0.23053116, 9.998919, 9.999869 
2.2348364e+3, 1.7197978e+2, -1496689.3, -1422618.8, 14404.133, -0.05544113, -0.50298107, -1419916.3, -165358.0, 0.14104874, 9.9984045, 9.999413 
2.2348845e+3, 1.8197761e+2, -1439123.4, -1312793.0, -72505.41, -0.021428555, -0.66143215, -1279797.5, -123217.67, 0.08532412, 9.997977, 9.999709 
2.2349295e+3, 1.919783e+2, -1235999.6, -1162368.3, -175316.63, -0.12964639, -0.5641976, -1020043.44, 38524.94, 0.05187056, 9.998692, 9.999733 
2.2349755e+3, 2.019786e+2, -1067703.0, -1055088.3, -151775.83, -0.16782871, -0.48253727, -909488.8, 51072.06, 0.030293982, 9.999303, 9.999489 
2.2350259e+3, 2.1197736e+2, -954896.06, -959508.94, -83726.72, 0.035937257, -0.5447494, -873444.0, -10875.004, 0.015773455, 9.999436, 9.999405 
2.235075e+3, 2.2197597e+2, -937342.94, -1022238.1, -87877.35, 0.11667391, -0.55938715, -882198.4, -117617.93, 0.0069356123, 9.999435, 9.998283 
2.2351201e+3, 2.3197505e+2, -861500.8, -957692.9, -193829.9, -0.17191371, -0.46099943, -709888.9, -43296.164, 0.002541045, 9.999387, 9.998075 
2.235167e+3, 2.4197409e+2, -633131.0, -642981.25, -167789.66, -0.33526435, -0.38161945, -470194.22, 98409.555, 0.00075579167, 9.999638, 9.999433 
2.235221e+3, 2.5197378e+2, -202298.8, -265437.53, 18103.87, -0.08344465, -0.44031325, -197476.2, 273124.94, 0.00014769337, 10.001414, 10.000494 
2.2352737e+3, 2.6197225e+2, -217628.13, -663040.8, 45395.414, 0.081489414, -0.4886671, -213048.63, 159564.47, 0.000007045108, 10.002559, 9.99653 
2.2353238e+3, 2.7196702e+2, -251704.1, -809249.94, -28065.205, -0.018748982, -0.5268214, -250294.94, 24374.98, 0.00000000065814787, 10.0024395, 9.994906 
2.235374e+3, 2.8196323e+2, -50352.652, -265393.34, -130098.516, -0.039048288, -0.52338946, 10905.7, 187617.69, 0.0, 10.001446, 9.998445 
2.2354256e+3, 2.9196298e+2, -216784.94, -217644.66, -64974.414, 0.06362443, -0.46821353, -152238.95, -73521.62, 0.0, 9.999297, 9.999134 
2.2354777e+3, 3.0196282e+2, -183132.02, -271958.22, 74536.484, 0.036988534, -0.38337323, -140779.84, -140779.84, 0.0, 9.99956, 9.998326 
2.235533e+3, 3.119592e+2, 662390.25, 67335.23, -24924.002, 0.0717405, -0.47721073, 663432.4, 663432.4, 0.0, 10.005679, 9.997702 
2.2447346e+3, 1.5192913e+2, -1361610.8, -1399197.6, -18674.188, -0.32750887, -0.5827377, -1353910.4, 97148.945, 0.42759266, 10.000882, 9.999938 
2.2447874e+3, 1.6193314e+2, -1444304.9, -1353740.9, -130573.35, 0.03970392, -0.18295035, -1260820.6, 92194.086, 0.29616648, 9.999012, 10.000453 
2.2448355e+3, 1.7193219e+2, -1478034.9, -1262363.6, -96010.46, 0.052586798, -0.34944665, -1225816.0, 29207.123, 0.19952731, 9.997865, 10.000818 
2.2448826e+3, 1.8193106e+2, -1534576.9, -1388523.6, -30233.367, 0.026537031, -0.49101228, -1382512.6, -225479.8, 0.13536815, 9.997438, 9.999452 
2.244929e+3, 1.9192933e+2, -1283152.0, -1304550.0, -44624.813, -0.0482162, -0.54094315, -1247961.5, -188915.92, 0.09319166, 9.998873, 9.998661 
2.244976e+3, 2.0192757e+2, -950199.2, -1072375.3, -1809.6117, -0.08723977, -0.5778902, -950172.44, 10885.576, 0.06306426, 10.0004, 9.998854 
2.245026e+3, 2.119259e+2, -744540.56, -913409.6, -83482.336, 0.0078011323, -0.62714756, -710238.06, 152830.8, 0.0400799, 10.001155, 9.998907 
2.2450745e+3, 2.219239e+2, -671281.5, -993118.06, -166647.23, 0.017829832, -0.6369064, -600540.56, 164544.8, 0.023131557, 10.001679, 9.997426 
2.2451198e+3, 2.319217e+2, -701880.56, -989207.25, -157145.56, -0.19807835, -0.5728782, -632626.4, 34485.082, 0.011994159, 10.000918, 9.99714 
2.2451675e+3, 2.4191993e+2, -557967.56, -674593.7, -38764.383, -0.26734504, -0.48811015, -546258.56, 22873.115, 0.0054928027, 10.000425, 9.99885 
2.2452234e+3, 2.5192034e+2, -280830.7, -336979.63, -101408.0, 0.053288452, -0.44160616, -203682.72, 267441.3, 0.002050329, 10.001003, 10.000215 
2.2452769e+3, 2.6191914e+2, -427708.84, -714405.06, -274908.47, 0.23178309, -0.44551146, -261019.31, 112114.35, 0.0004876709, 10.000892, 9.996985 
2.2453257e+3, 2.719139e+2, -478236.44, -811525.56, -114277.945, 0.04865244, -0.5685503, -442817.0, -167629.19, 0.000047167257, 10.000411, 9.995875 
2.2453752e+3, 2.8191018e+2, -232713.92, -472011.9, -45990.31, -0.0005204731, -0.5892661, -224179.5, -46952.348, 0.00000034188096, 10.000706, 9.997381 
2.2454275e+3, 2.9190817e+2, 370144.84, -172970.64, -172146.11, 0.096280694, -0.51257783, 420111.4, 499362.53, 0.0, 10.004365, 9.996998 
2.2454785e+3, 3.0190486e+2, 589673.25, 149668.77, -157194.9, -0.086992055, -0.6254066, 640061.9, 640061.9, 0.0, 10.004673, 9.998752 
2.2455354e+3, 3.1190684e+2, -463447.66, -269167.1, -16483.06, 0.21106909, -0.28063166, -267778.56, -267778.56, 0.0, 9.997029, 9.9995575 
2.2547886e+3, 1.6187796e+2, -1479597.6, -1320431.3, -179474.28, 0.2549134, -0.42115802, -1203686.9, 149871.72, 0.39765337, 9.998492, 10.001237 
2.254836e+3, 1.7188607e+2, -1309460.3, -980529.75, -114452.375, 0.31774813, 0.055954255, -944624.94, 310852.88, 0.29298013, 9.997758, 10.00357 
2.2548816e+3, 1.8189044e+2, -1510079.3, -1286989.6, -11135.896, 0.19581382, 0.25662652, -1286435.1, -129003.72, 0.21888196, 9.997226, 10.000246 
2.2549294e+3, 1.9188334e+2, -1301276.8, -1324782.9, 16200.474, 0.12993024, -0.33788985, -1293015.0, -233524.55, 0.16615056, 9.998791, 9.998563 
2.2549778e+3, 2.0187688e+2, -1079712.0, -1314078.6, 38594.64, 0.056190766, -0.79205644, -1073519.9, -111974.59, 0.12546477, 10.0002775, 9.997249 
2.2550265e+3, 2.1187387e+2, -910393.3, -1265233.3, -53114.695, -0.025969695, -0.7494975, -902613.4, -39039.754, 0.0914258, 10.001133, 9.996495 
2.2550747e+3, 2.2187072e+2, -691509.94, -1005447.4, -173122.69, -0.10456517, -0.71614766, -614789.44, 150813.64, 0.062582165, 10.001594, 9.997391 
2.2551218e+3, 2.3186731e+2, -634325.7, -838980.9, -182805.42, -0.09427941, -0.86361897, -527156.8, 140476.08, 0.039919913, 10.000894, 9.998197 
2.2551706e+3, 2.4186407e+2, -758557.2, -1059407.4, -44428.82, 0.011108109, -0.89603555, -752133.2, -182468.69, 0.023601582, 10.000299, 9.996263 
2.2552268e+3, 2.5186306e+2, -568890.7, -917521.1, -74324.59, 0.2955351, -0.6190876, -553706.7, -82021.07, 0.012405956, 10.000934, 9.996254 
2.2552791e+3, 2.618616e+2, -329342.5, -486610.63, -303859.7, 0.3773686, -0.4349035, -94107.11, 279600.0, 0.005154125, 10.000804, 9.99859 
2.2553256e+3, 2.7185985e+2, -171055.39, -173172.53, -135682.94, 0.026315182, -0.6052861, -36426.9, 239288.81, 0.0013586987, 10.000419, 10.000248 
2.2553748e+3, 2.8185746e+2, -382533.9, -773416.8, 8721.621, -0.113026194, -0.71082914, -382339.4, -204604.78, 0.00015517221, 10.000694, 9.995303 
2.255431e+3, 2.9185003e+2, -4991.4985, -882549.1, -30323.344, -0.0028827412, -0.7167134, -3944.9465, 75872.96, 0.0000018672301, 10.004106, 9.992233 
2.2554809e+3, 3.0184543e+2, 694302.06, 429659.9, -345988.88, -0.29986304, -0.7422013, 932409.3, 932409.3, 0.0, 10.0044365, 10.000773 
2.2555302e+3, 3.118522e+2, -6135.972, 576406.06, -90430.15, 0.0021347261, -0.3256509, 590121.0, 590121.0, 0.0, 9.997488, 10.005145 
2.2648299e+3, 1.7183161e+2, -1013780.0, -1760832.3, 273364.75, -0.47917643, -1.1568751, -924434.56, 331554.78, 0.44342524, 10.006034, 9.99365 
2.2648796e+3, 1.8183118e+2, -1123103.5, -1477210.8, -138632.98, 0.03929849, -0.7009306, -1075285.9, 82719.46, 0.3585124, 10.001818, 9.99677 
2.2649302e+3, 1.9182914e+2, -949219.44, -1151278.3, -116218.984, 0.17868105, -0.7064748, -896256.0, 163762.8, 0.29413474, 10.001689, 9.998416 
2.2649802e+3, 2.0182718e+2, -879098.5, -1227914.1, -100940.49, 0.19882832, -0.70509243, -851994.3, 110038.2, 0.24160613, 10.001961, 9.99705 
2.2650276e+3, 2.1182387e+2, -1116696.9, -1432528.6, -110757.14, 0.030716298, -0.63803285, -1081727.9, -217662.38, 0.1940874, 9.999985, 9.995911 
2.265075e+3, 2.2181998e+2, -1069638.9, -1240455.8, -106405.305, -0.100629255, -0.630977, -1018604.3, -252501.8, 0.14888066, 9.99912, 9.996971 
2.2651228e+3, 2.3181504e+2, -728675.8, -947805.3, -218149.33, -0.03738766, -0.87848884, -594122.6, 74021.445, 0.108788945, 10.000517, 9.997647 
2.2651722e+3, 2.4181043e+2, -543614.44, -979924.1, -81883.64, 0.05857898, -1.0016806, -528753.25, 41433.78, 0.07581198, 10.001837, 9.996096 
2.2652261e+3, 2.5180906e+2, -421621.75, -848841.4, 149464.77, 0.10982458, -0.7641167, -374523.16, 97690.33, 0.048806984, 10.001922, 9.996288 
2.2652777e+3, 2.618075e+2, -203050.23, -580681.2, 64561.543, 0.081744045, -0.53648496, -192317.52, 181921.2, 0.026684597, 10.00235, 9.997198 
2.2653286e+3, 2.718064e+2, 533638.6, -14230.795, -117446.195, -0.008328768, -0.4899408, 557753.94, 833999.25, 0.010897145, 10.006073, 9.998647 
2.2653796e+3, 2.8180397e+2, 452922.34, -366904.6, -293727.44, 0.028039804, -0.48939356, 547295.4, 725560.9, 0.002788968, 10.006429, 9.995337 
2.2654335e+3, 2.917954e+2, -243947.72, -868518.56, 32081.336, -0.004970421, -0.6870333, -242304.17, -161955.73, 0.00030285172, 10.001901, 9.993388 
2.2654824e+3, 3.017903e+2, -174346.97, -131393.08, -99245.83, -0.3181512, -0.83300334, -51326.965, -51326.965, 0.0000050005383, 9.999103, 9.99947 
2.2655298e+3, 3.1179267e+2, 658765.7, 492852.47, -219272.4, -0.12574084, -0.53954333, 810249.25, 810249.25, 0.0, 10.003742, 10.001584 
2.274983e+3, 2.0177796e+2, -900785.1, -1129904.0, -104449.89, 0.2724118, -0.3494885, -860316.7, 102207.85, 0.4526298, 10.001672, 9.997915 
2.2750284e+3, 2.117754e+2, -913518.6, -1198834.1, -145645.39, 0.121961325, -0.33213523, -852304.3, 12244.719, 0.38963944, 10.000842, 9.997106 
2.275075e+3, 2.2177142e+2, -955061.1, -1287896.1, -47611.2, -0.020516971, -0.39245388, -948384.44, -181798.42, 0.32267725, 10.00035, 9.996045 
2.275123e+3, 2.3176442e+2, -784985.2, -1204412.0, -143873.9, -0.06603387, -0.6684731, -740377.1, -71728.15, 0.25840095, 10.001069, 9.995592 
2.2751719e+3, 2.4175844e+2, -485807.8, -721961.56, -64192.867, -0.16610251, -0.8594364, -469486.5, 101217.52, 0.20062341, 10.001427, 9.998069 
2.2752222e+3, 2.5175825e+2, -203823.3, -314033.13, 120617.98, -0.48787147, -0.87740844, -126318.82, 346390.28, 0.14660953, 10.00183, 10.000183 
2.2752728e+3, 2.6175684e+2, -478312.03, -1157362.9, 122562.33, -0.6476649, -0.72792166, -456867.88, -82139.016, 0.09444842, 10.002342, 9.993235 
2.2753337e+3, 2.7175385e+2, 15678.383, -1012129.8, 24873.563, -0.087615706, -0.23949854, 16279.985, 293051.72, 0.04983927, 10.005821, 9.991885 
2.2753891e+3, 2.8175014e+2, 473140.63, -158261.52, -432713.8, 0.33540994, 0.036691543, 693077.9, 871890.4, 0.019487608, 10.005845, 9.997051 
2.2754355e+3, 2.917442e+2, 184599.05, 28036.893, -163599.72, 0.007129531, -0.45527476, 287681.7, 368525.72, 0.0047413595, 10.001926, 9.999509 
2.2754829e+3, 3.017399e+2, -380979.16, -640313.25, -93714.38, -0.18404457, -0.83141786, -350658.94, -350658.94, 0.00056257506, 9.999514, 9.995744 
2.2755325e+3, 3.117303e+2, -261653.83, -1248522.0, -124082.54, -0.21738456, -0.864968, -246291.61, -246291.61, 0.000025991088, 10.003106, 9.989892 
2.2851719e+3, 2.4171136e+2, -1527744.1, -1723551.4, -204090.56, -0.05140524, -0.39647657, -1399289.5, -828114.4, 0.45869297, 9.996006, 9.993948 
2.2852296e+3, 2.5171298e+2, -172014.4, -454197.6, 5556.456, -0.0073546, 0.014327781, -171905.05, 301258.9, 0.36361384, 10.003889, 9.998155 
2.2852828e+3, 2.6170337e+2, 505376.2, -407485.9, -211979.84, -0.29127565, -0.54306406, 552199.3, 927458.6, 0.2616725, 10.010512, 9.994632 
2.2853394e+3, 2.7170107e+2, 167010.9, -520877.13, 170894.63, -0.065280646, -0.29606938, 207127.39, 484415.16, 0.16398107, 10.005561, 9.995506 
2.2853889e+3, 2.81698e+2, -574558.6, -864559.94, 148935.88, 0.09521305, -0.13627763, -511696.13, -332378.7, 0.08199046, 9.99934, 9.995336 
2.2854397e+3, 2.9168928e+2, 690571.9, -170079.58, 13037.724, -0.019310668, -0.5546017, 690769.4, 772149.94, 0.029727386, 10.007432, 9.995537 
2.28549e+3, 3.0168414e+2, 1057946.6, 99784.16, -594867.3, 0.085992604, -0.7817503, 1342662.5, 1342662.5, 0.007637147, 10.009207, 9.996215 
2.2855268e+3, 3.116767e+2, -2178760.0, -2031851.6, -150935.72, -0.3737452, -0.7777943, -1937445.5, -1937445.5, 0.0014089696, 9.989302, 9.991196 
2.2953415e+3, 2.7164665e+2, 691391.06, 723245.4, 160485.38, -0.42103133, -0.8576596, 868592.0, 1146401.6, 0.43265525, 10.007416, 10.008394 
2.2953804e+3, 2.8164855e+2, -443210.38, -1260591.1, 178657.75, -0.7058217, -0.9062481, -405866.66, -226093.02, 0.24783087, 10.002285, 9.991163 
2.2954462e+3, 2.9163334e+2, 64993.49, -1817443.5, 408813.3, -0.09568259, -0.91559166, 149942.9, 231872.89, 0.11094876, 10.009037, 9.983436 
2.2955024e+3, 3.016255e+2, 1269041.5, 631831.4, -980551.0, 0.38656786, -0.733325, 1981450.3, 1981450.3, 0.03977125, 10.009187, 10.000027 
2.2955139e+3, 3.1163332e+2, -1418951.0, -263740.28, -960254.1, -0.585721, -0.23893179, 279241.7, 279241.7, 0.011546123, 9.988577, 10.003647 
2.3055066e+3, 2.9162174e+2, 4662624.5, 140037.95, 1172505.1, 2.491027, 0.2586979, 4948529.0, 5030572.5, 0.2874068, 10.058133, 9.974288 
2.3055075e+3, 3.0159548e+2, 1328048.0, 804751.3, 175243.56, -0.04524552, -0.92117864, 1381312.5, 1381312.5, 0.11892084, 10.00953, 10.001695 
2.3054974e+3, 3.116093e+2, -3581942.3, -704606.25, -280350.06, -0.22585939, -0.3263812, -677545.2, -677545.2, 0.040847145, 9.971101, 10.00908 
2.3155054e+3, 3.0159482e+2, 1186683.3, 787124.8, -998560.8, -1.2098962, -1.2227124, 2005253.4, 2005253.4, 0.22595546, 10.009393, 10.002492 
2.3154746e+3, 3.1160784e+2, -3627458.0, -730574.4, -1723294.1, 0.40684125, -0.79029244, 72144.93, 72144.93, 0.082526505, 9.970886, 10.009044 
2.3255174e+3, 3.0165336e+2, 1487810.3, 1092395.1, 685917.2, -1.0685029, -1.2923105, 2003944.9, 2003944.9, 0.26550972, 10.011736, 10.004569 
2.3254459e+3, 3.116673e+2, -3830452.3, -758007.56, 758016.8, 0.54871464, -0.7392499, -581171.6, -581171.6, 0.0995649, 9.96917, 10.009662 
2.3357241e+3, 2.9178137e+2, 6830433.5, 2409905.5, -1682060.4, 1.827744, -0.20112988, 7397685.0, 7478143.5, 0.4028408, 10.086004, 9.987459 
2.3355404e+3, 3.017675e+2, 1701309.8, 1473166.0, -835118.25, 0.14785509, -1.1919664, 2430110.8, 2430110.8, 0.18279268, 10.0108185, 10.007228 
2.3354113e+3, 3.1178308e+2, -3838256.3, -761932.8, -554567.4, 0.2222745, -0.44811106, -665014.56, -665014.56, 0.069179714, 9.969018, 10.009747 
2.346197e+3, 2.7193126e+2, 598887.2, 927743.3, -682442.44, -0.00928419, -1.1694344, 1465286.9, 1740252.8, 0.4679891, 10.004646, 10.013211 
2.3459628e+3, 2.8193852e+2, 273551.22, -144596.6, -250343.88, -0.63022584, -0.9198427, 390642.84, 567552.0, 0.31192252, 10.005577, 9.997548 
2.3457481e+3, 2.9192773e+2, 787290.94, -238104.19, -553505.44, -0.11717489, -1.2556138, 1029064.75, 1108081.4, 0.16374815, 10.009913, 9.994079 
2.345549e+3, 3.0192783e+2, 1140287.8, 1290479.1, 893010.2, 0.38414258, -1.0748863, 2111545.5, 2111545.5, 0.070696294, 10.005225, 10.006931 
2.3453814e+3, 3.119399e+2, -2812953.5, -392535.66, 1324234.5, 0.05914065, -0.39212918, 191190.36, 191190.36, 0.025369002, 9.976824, 10.008402 
2.3583475e+3, 1.8215646e+2, -2008739.5, -1644925.1, -59773.047, 0.98602396, -0.9984535, -1635356.4, -480571.66, 0.43636134, 9.99414, 9.999359 
2.3581123e+3, 1.9215514e+2, -879355.4, -921876.1, -26057.285, 0.481935, -0.9058633, -866985.6, 189820.05, 0.37755844, 10.0013485, 10.000696 
2.3578745e+3, 2.021544e+2, -241694.16, -761592.6, -109911.82, 0.058915745, -0.72873586, -219412.61, 739406.4, 0.3334996, 10.008089, 9.997973 
2.3576419e+3, 2.1214913e+2, -609620.75, -1133394.4, 11014.305, 0.4391012, -0.63672256, -609389.25, 251485.44, 0.30093265, 10.004146, 9.995963 
2.3574063e+3, 2.2214381e+2, -556911.56, -729115.25, -112214.23, 0.81481713, -0.60878783, -501572.4, 261355.33, 0.2780306, 10.002039, 9.999262 
2.3571552e+3, 2.3213562e+2, 35942.254, -324245.9, -268068.6, 0.15402223, -1.1545132, 178795.0, 843795.0, 0.26072758, 10.006222, 10.000036 
2.356906e+3, 2.4213015e+2, 675552.6, 419568.47, -296582.0, -0.47704038, -1.5958813, 870582.0, 1437625.5, 0.24461263, 10.008844, 10.004577 
2.3566699e+3, 2.5213665e+2, 225414.3, 380323.5, -371785.25, -0.32723668, -1.2924533, 682636.56, 1151604.5, 0.22683863, 10.002975, 10.006003 
2.3564382e+3, 2.6214114e+2, -186438.78, 9425.305, -534230.9, 0.0014044245, -1.0057733, 454626.16, 825541.06, 0.20080279, 10.0, 10.003318 
2.3562026e+3, 2.7214086e+2, 719420.75, 683748.9, -905032.1, 0.3670983, -1.288782, 1606792.6, 1879707.0, 0.15457277, 10.005337, 10.005122 
2.3559776e+3, 2.8213942e+2, 448536.0, -238521.31, -287428.03, 0.47650892, -1.3975189, 552921.2, 727850.5, 0.09132977, 10.006312, 9.996346 
2.3557569e+3, 2.921338e+2, 888656.9, -304526.5, -404020.66, -0.031403005, -1.1627622, 1012588.9, 1089582.4, 0.039825507, 10.009891, 9.993475 
2.3555464e+3, 3.0213162e+2, 887614.0, 794797.7, 215006.23, -0.25985458, -1.001017, 1061163.5, 1061163.5, 0.013699513, 10.004651, 10.003262 
2.3553565e+3, 3.1213805e+2, -2975658.3, -818906.5, 162460.39, -0.016369615, -0.51610094, -806737.56, -806737.56, 0.0038559462, 9.97699, 10.0054455 
2.3688018e+3, 1.6239752e+2, -1582064.6, -1415392.3, -163987.69, 0.58260757, -0.91283184, -1314780.4, 33624.676, 0.40914217, 9.997968, 10.000491 
2.3685694e+3, 1.7239192e+2, -1332944.5, -1593230.5, 82157.81, 0.5149395, -0.968805, -1309181.4, -58714.816, 0.31913766, 10.000561, 9.997215 
2.3683392e+3, 1.823908e+2, -1001506.8, -1069542.6, 86330.74, 0.5253732, -0.65803844, -942733.44, 209751.06, 0.25439915, 10.00115, 10.000047 
2.3681143e+3, 1.9239108e+2, -1245179.0, -1070844.4, 75701.79, 1.0165939, -0.4241623, -1042560.9, 11928.341, 0.20803007, 9.998155, 10.000644 
2.367884e+3, 2.0239064e+2, -1369496.8, -1105351.3, -146706.31, 1.2199415, -0.2727587, -1040026.06, -83526.586, 0.1732299, 9.996715, 10.000424 
2.3676401e+3, 2.123867e+2, -1012146.3, -951009.56, -93812.13, 0.47720748, -0.4097836, -882911.1, -24371.568, 0.14628276, 9.998788, 9.999813 
2.3673965e+3, 2.2238362e+2, -762240.0, -924884.6, -217738.17, 0.026739271, -0.36744037, -611133.4, 149438.97, 0.1255273, 10.000573, 9.998502 
2.367159e+3, 2.3238386e+2, -790857.44, -970517.25, -267118.34, 0.6040074, 0.12333629, -598868.94, 63705.945, 0.108250044, 9.999978, 9.997782 
2.3669201e+3, 2.42382e+2, -496663.75, -434125.56, -174537.16, 0.9006869, 0.35454574, -288078.63, 276513.34, 0.091743305, 9.999918, 10.00088 
2.3666742e+3, 2.523752e+2, -138208.55, -44402.715, -223255.53, 0.230219, -0.3018893, 136823.53, 603465.94, 0.0749943, 10.001012, 10.002503 
2.3664352e+3, 2.62367e+2, -156081.88, -432896.38, -98648.12, -0.13792355, -0.8733564, -124524.375, 244185.11, 0.056996346, 10.002248, 9.998254 
2.3662063e+3, 2.7236077e+2, 514817.28, 11988.637, -317073.25, 0.4233732, -1.1197399, 668056.6, 938824.06, 0.036542173, 10.005987, 9.9988985 
2.3659834e+3, 2.8235546e+2, 403707.53, -298139.53, 253800.23, 0.6457654, -1.199552, 485868.16, 658687.0, 0.016714426, 10.005888, 9.996012 
2.3657587e+3, 2.9235026e+2, -245908.86, -729466.9, 277426.84, -0.14459129, -0.9639144, -119689.57, -44812.31, 0.00474778, 10.001391, 9.994541 
2.365543e+3, 3.023465e+2, -610487.06, -166761.63, 540128.9, -0.34135392, -0.8712086, 195295.4, 195295.4, 0.00083393394, 9.995472, 10.000929 
2.3653403e+3, 3.123471e+2, -1381421.3, -294584.78, 339598.13, 0.31281707, -0.639559, -197198.63, -197198.63, 0.000084830135, 9.989072, 10.003163 
2.3790307e+3, 1.5263787e+2, -2584249.8, -2171177.3, 18877.959, 0.40112704, -0.47669402, -2170316.3, -726271.5, 0.38966456, 9.992827, 9.998287 
2.378799e+3, 1.6262548e+2, -1368600.5, -1512246.5, 33472.402, 0.72710043, -1.2875749, -1361183.6, -15004.824, 0.2783617, 10.000331, 9.998565 
2.3785695e+3, 1.7262174e+2, -1249457.9, -1396345.6, 169017.28, 0.7375695, -1.2603657, -1138617.0, 109594.65, 0.19862524, 10.000606, 9.998601 
2.3783378e+3, 1.8261893e+2, -1169455.4, -1231727.0, 71795.22, 0.5409673, -1.1612954, -1122335.3, 27903.375, 0.1461588, 10.000032, 9.999296 
2.3780996e+3, 1.9261649e+2, -1352832.5, -1259686.3, 26230.256, -0.0018331729, -1.0787959, -1252807.6, -200537.3, 0.11113541, 9.998031, 9.99939 
2.3778646e+3, 2.0261505e+2, -1196334.9, -851456.94, -69097.81, -0.15989622, -1.0004174, -838128.0, 116161.82, 0.08556882, 9.997126, 10.00205 
2.3776363e+3, 2.1261477e+2, -887208.9, -604846.94, -25837.709, 0.47088444, -1.0254427, -602502.1, 253788.77, 0.065839775, 9.99834, 10.002538 
2.3774019e+3, 2.226133e+2, -855534.9, -955695.5, -276954.38, 0.80914205, -0.9880285, -624169.4, 134138.0, 0.050801985, 9.999802, 9.998637 
2.3771553e+3, 2.3260993e+2, -797072.06, -1014949.2, -334421.47, 0.51829374, -0.8338457, -554292.94, 106059.234, 0.03887898, 10.000108, 9.997405 
2.3769112e+3, 2.4260533e+2, -513322.47, -656037.44, -196356.13, 0.27222934, -0.77517635, -375759.8, 186640.64, 0.028461132, 10.000714, 9.998879 
2.3766711e+3, 2.526e+2, -135252.88, -284726.63, -236030.44, 0.085983604, -1.0491984, 37590.46, 502026.5, 0.019091535, 10.002035, 10.000146 
2.3764366e+3, 2.6259452e+2, -240366.78, -859371.44, -50842.66, 0.0040638037, -1.1079452, -236218.55, 130261.84, 0.011103972, 10.003191, 9.994886 
2.3762076e+3, 2.7259037e+2, 271024.78, -604668.0, -180647.6, 0.17657347, -0.72043055, 306827.0, 575356.7, 0.004981818, 10.006239, 9.994486 
2.375982e+3, 2.8258502e+2, 439471.4, -257663.7, 113615.74, 0.14372423, -0.54275787, 457520.66, 628108.7, 0.0013230968, 10.005865, 9.996337 
2.3757556e+3, 2.9257688e+2, -64692.582, -416837.66, 117980.85, -0.39093494, -0.76179475, -28819.324, 43847.848, 0.00013422807, 10.00158, 9.996638 
2.37554e+3, 3.025737e+2, -667600.6, -375407.34, 302730.13, 0.006553252, -0.6755899, -185364.5, -185364.5, 0.0000008540735, 9.995746, 9.99942 
2.3753327e+3, 3.125686e+2, -1399355.1, -508850.06, 116864.625, 0.80946964, -0.7904907, -493768.88, -493768.88, 0.0, 9.989684, 10.001465 
2.3892651e+3, 1.4286485e+2, -1735513.1, -1394472.1, -5809.9824, 1.0436982, -1.4796509, -1394373.1, 145445.3, 0.42779988, 9.997037, 10.003013 
2.3890303e+3, 1.5286346e+2, -1311744.5, -1606975.0, 13386.813, 0.6891932, -1.2277594, -1311138.8, 130709.055, 0.29985303, 10.002244, 9.99764 
2.3887974e+3, 1.6286114e+2, -815401.06, -1156861.5, 41733.52, 0.5059312, -1.0004154, -810374.4, 533504.6, 0.19614404, 10.004693, 9.999225 
2.3885679e+3, 1.7285807e+2, -1076806.0, -1193009.6, 92010.97, 0.722127, -1.0137992, -1026087.56, 219813.92, 0.12585048, 10.001281, 9.999692 
2.3883359e+3, 1.8285476e+2, -1313081.0, -1254106.6, 85006.47, 0.710322, -1.0452107, -1193618.3, -45689.223, 0.083471425, 9.998806, 9.999729 
2.388098e+3, 1.9285032e+2, -1180459.8, -1154470.3, 104446.336, 0.21747556, -1.1836723, -1062213.4, -12238.809, 0.057587944, 9.999103, 9.999599 
2.3878616e+3, 2.0284742e+2, -1002638.56, -910214.0, 16464.969, -0.019218832, -1.1949481, -907368.5, 44638.14, 0.03970386, 9.999187, 10.000572 
2.3876303e+3, 2.1284752e+2, -1042835.25, -865295.6, -114212.08, 0.3662452, -1.0006583, -809412.44, 44598.234, 0.026570952, 9.998166, 10.000703 
2.3873958e+3, 2.2284594e+2, -1038491.44, -1038985.8, -397182.56, 0.6032452, -0.867658, -641556.0, 114475.38, 0.017417854, 9.99856, 9.998628 
2.3871522e+3, 2.3284109e+2, -515778.03, -805312.0, -399398.2, 0.39387798, -0.92200494, -235719.89, 422365.56, 0.011141537, 10.001773, 9.998023 
2.3869105e+3, 2.428352e+2, -99745.9, -651421.06, -211877.73, 0.19223322, -0.9745775, -27763.771, 532381.6, 0.006557049, 10.004461, 9.997058 
2.3866726e+3, 2.5282934e+2, 265985.13, -378646.88, -272007.5, 0.062881246, -1.0493935, 365422.22, 827615.44, 0.0031933005, 10.006098, 9.997472 
2.3864391e+3, 2.628237e+2, 173691.98, -646328.4, -75038.664, 0.030638982, -0.9799877, 180502.1, 544744.3, 0.0011075363, 10.006049, 9.994933 
2.3862097e+3, 2.7281877e+2, -64443.816, -732477.2, 35232.08, 0.1675255, -0.6941833, -62590.816, 203702.44, 0.000215239, 10.00382, 9.994743 
2.3859829e+3, 2.8281283e+2, -204999.08, -513005.4, 378629.8, 0.13604519, -0.5904024, 49748.934, 218103.73, 0.0000117093605, 10.001266, 9.996761 
2.385756e+3, 2.9280472e+2, -177857.13, -414742.66, 315339.7, -0.21324687, -0.8251222, 40549.934, 110986.016, 0.000000000865322, 10.000634, 9.9970665 
2.3855369e+3, 3.0280244e+2, -294337.0, -309889.28, 330027.72, 0.21819417, -0.59835625, 28006.184, 28006.184, 0.0, 9.998857, 9.998342 
2.3853193e+3, 3.1279513e+2, -858725.7, -200222.98, 89367.91, 0.5864633, -0.82751733, -188310.05, -188310.05, 0.0, 9.993256, 10.00183 
2.3994866e+3, 1.3309914e+2, -1505026.0, -1614393.3, -36825.94, 0.054969214, -1.4022548, -1493782.0, 141737.92, 0.49041495, 10.002111, 9.999065 
2.3992613e+3, 1.4310166e+2, -1712507.5, -1658184.6, 42693.137, 1.1477087, -0.8063928, -1634745.1, -97228.82, 0.36336, 9.998819, 9.999619 
2.3990284e+3, 1.5310024e+2, -1369029.9, -1473033.5, 173165.14, 0.5433565, -0.67343116, -1240226.9, 199314.52, 0.24041094, 10.000902, 9.999377 
2.3987961e+3, 1.6309807e+2, -1062660.5, -1157000.4, -25027.244, 0.23957135, -0.59220076, -1056432.3, 285134.8, 0.14389461, 10.001834, 10.000497 
2.3985654e+3, 1.730957e+2, -1152182.8, -1129666.5, -47873.48, 0.64064026, -0.6366601, -1091745.3, 151835.8, 0.08188297, 10.000201, 10.000659 
2.398334e+3, 1.8309233e+2, -1237588.8, -1141705.9, 12227.054, 0.8958805, -0.7552821, -1140171.3, 5434.8047, 0.047678713, 9.998994, 10.000418 
2.3981e+3, 1.9308673e+2, -1094823.0, -1040277.9, 46764.55, 0.80404216, -1.0852449, -1013414.3, 34241.996, 0.028905774, 9.999378, 10.0002575 
2.397864e+3, 2.0308267e+2, -1121062.0, -1255512.0, -75188.57, 0.5816302, -1.1470042, -1087428.0, -137729.94, 0.017015342, 9.999625, 9.997983 
2.397624e+3, 2.1308205e+2, -1162141.9, -1291550.3, -156266.89, 0.16555333, -0.70440423, -1057713.0, -205994.17, 0.00915297, 9.998947, 9.9973955 
2.3973857e+3, 2.2307985e+2, -893936.3, -944861.44, -293082.0, 0.0022004652, -0.44091183, -625212.94, 128536.57, 0.0045936005, 9.999439, 9.998848 
2.39715e+3, 2.3307478e+2, -388171.53, -607733.44, -286105.34, 0.2742847, -0.62922776, -191508.17, 464288.28, 0.0022051786, 10.0020485, 9.999237 
2.396914e+3, 2.4306867e+2, -230074.38, -889489.0, -164510.98, 0.35962424, -0.7225504, -191310.81, 366544.4, 0.00090563536, 10.004283, 9.995518 
2.3966761e+3, 2.53062e+2, 47953.105, -757431.2, -204447.03, 0.06970416, -0.64613324, 96879.77, 556801.9, 0.00023936237, 10.005754, 9.995039 
2.3964421e+3, 2.6305497e+2, 287067.66, -347392.5, -135585.31, -0.018735789, -0.66578406, 314827.88, 676815.25, 0.00002500361, 10.005735, 9.997158 
2.3962122e+3, 2.7304754e+2, 159933.9, -262887.66, -57960.137, 0.28699213, -0.935784, 167735.11, 431781.4, 0.00000029662226, 10.0037775, 9.998007 
2.3959848e+3, 2.8304097e+2, -169055.81, -487882.47, 299784.63, 0.4307827, -1.1056191, 11065.0, 177170.64, 0.0, 10.001407, 9.996904 
2.3957588e+3, 2.9303488e+2, -239309.69, -568968.8, 307813.63, 0.2459017, -1.0744357, -54971.633, 13205.153, 0.0, 10.000682, 9.996021 
2.3955336e+3, 3.030336e+2, -352219.97, -451013.88, 175657.47, 0.23060182, -0.6045614, -219146.1, -219146.1, 0.0, 9.99888, 9.9973955 
2.395303e+3, 3.130315e+2, -732287.56, -57994.242, -33138.81, -0.16765018, -0.303637, -56369.52, -56369.52, 0.0, 9.993684, 10.002643 
2.4094866e+3, 1.3333805e+2, -2163148.5, -2363618.0, -297218.06, 0.4624337, -0.7250383, -1949718.5, -316518.34, 0.44509837, 9.998336, 9.995676 
2.4092591e+3, 1.4333118e+2, -1341926.6, -1437607.9, 21848.604, 1.1033181, -0.8817039, -1337173.8, 198110.69, 0.31930798, 10.001779, 10.000036 
2.4090266e+3, 1.5333314e+2, -1462538.1, -1385713.6, 136134.73, 0.6520033, -0.51836765, -1282675.6, 154593.06, 0.20041417, 9.999442, 10.000696 
2.4087945e+3, 1.6333233e+2, -1552210.8, -1382479.0, -51042.055, 0.4164995, -0.38393816, -1368312.0, -29035.36, 0.110025235, 9.998156, 10.000494 
2.4085623e+3, 1.7332731e+2, -1317033.9, -1236789.3, -111761.85, 0.6659212, -0.66953737, -1158166.0, 83152.6, 0.054970514, 9.999177, 10.000354 
2.4083301e+3, 1.8332317e+2, -1124742.6, -1161665.5, -69725.305, 0.8162339, -0.82161117, -1071076.1, 72278.35, 0.027314784, 10.000114, 9.999736 
2.408097e+3, 1.933206e+2, -947018.5, -1048979.5, -92999.016, 0.735613, -0.7837188, -891943.25, 153436.39, 0.013986388, 10.000762, 9.999526 
2.4078621e+3, 2.0331739e+2, -842530.8, -1060377.4, -209863.1, 0.59071004, -0.7467156, -715007.9, 232404.05, 0.006556314, 10.001319, 9.998492 
2.4076232e+3, 2.1331356e+2, -719540.8, -992964.4, -144035.63, 0.31782243, -0.6994552, -657666.7, 191786.11, 0.002469395, 10.001662, 9.998118 
2.4073857e+3, 2.2330937e+2, -554034.6, -841559.6, -144113.95, 0.18859349, -0.65010595, -494237.6, 257258.89, 0.00078321603, 10.002067, 9.998268 
2.4071504e+3, 2.333048e+2, -393902.94, -702275.3, -215687.7, 0.3720002, -0.69678193, -282957.9, 370582.25, 0.00023610769, 10.002442, 9.998373 
2.4069148e+3, 2.4329942e+2, -462247.28, -954328.2, -126491.63, 0.39300627, -0.68623453, -431636.25, 123956.74, 0.000047296035, 10.002515, 9.995906 
2.4066773e+3, 2.532934e+2, -425553.16, -931819.7, -42244.098, 0.07444816, -0.59458065, -422052.44, 35603.36, 0.0000020598873, 10.002299, 9.995491 
2.406443e+3, 2.632866e+2, -274995.3, -583617.5, 17232.342, -0.010859811, -0.62053174, -274036.1, 85684.31, 0.0, 10.001767, 9.997428 
2.4062128e+3, 2.7327886e+2, -180971.05, -412498.25, -79494.06, 0.35843042, -0.91920704, -156304.89, 105478.18, 0.0, 10.001421, 9.998092 
2.4059837e+3, 2.8327248e+2, -277380.34, -473117.84, 162405.52, 0.48638132, -1.1018, -185634.1, -21793.521, 0.0, 10.000382, 9.997494 
2.4057549e+3, 2.9326722e+2, -495799.94, -623570.2, 248880.19, 0.14074403, -1.0621059, -302736.3, -236834.19, 0.0, 9.998609, 9.9966545 
2.4055268e+3, 3.0326575e+2, -586279.6, -494340.78, 184093.8, 0.03299905, -0.65621036, -350563.75, -350563.75, 0.0, 9.997002, 9.997988 
2.4052966e+3, 3.1326354e+2, -425001.1, 130337.43, 87859.58, 0.007794191, -0.44586402, 143906.1, 143906.1, 0.0, 9.995682, 10.002944 
2.4194849e+3, 1.3357165e+2, -1631968.6, -2040009.8, 47998.516, 0.63503313, -0.3502707, -1626398.5, 4533.514, 0.4141115, 10.001687, 9.996277 
2.4192573e+3, 1.4355999e+2, -1161788.5, -1270309.3, 62093.85, 0.98695284, -1.0669699, -1133587.8, 399469.13, 0.28877294, 10.002966, 10.001018 
2.4190252e+3, 1.5356536e+2, -1278611.4, -1196233.8, 82888.13, 0.796691, -0.45578417, -1144864.8, 290135.84, 0.17287976, 10.000347, 10.001725 
2.4187925e+3, 1.6356568e+2, -1475917.3, -1392729.8, -40705.78, 0.6681126, -0.25162637, -1376125.5, -39131.707, 0.08747846, 9.998875, 10.000082 
2.418559e+3, 1.735573e+2, -1314767.3, -1306953.8, -74947.99, 0.688632, -0.8156815, -1235810.8, 3261.2634, 0.038149297, 9.99949, 9.999705 
2.4183257e+3, 1.8355238e+2, -1193526.6, -1312226.0, -34866.46, 0.63709676, -0.95972854, -1184042.8, -42922.277, 0.01570925, 10.000143, 9.998683 
2.418092e+3, 1.9355373e+2, -1025277.75, -1210977.6, -41919.004, 0.4390084, -0.4227729, -1016253.6, 26861.375, 0.0064830934, 10.000751, 9.998416 
2.4178587e+3, 2.0355168e+2, -740027.6, -820889.44, -180761.31, 0.39560834, -0.27533776, -595230.8, 349903.75, 0.0021827125, 10.0012, 10.000192 
2.4176252e+3, 2.1354398e+2, -610723.9, -692303.1, -148531.61, 0.5997516, -0.83664817, -497482.88, 349712.8, 0.00044835047, 10.001336, 10.00034 
2.4173899e+3, 2.2353753e+2, -674743.0, -1014768.2, -165439.97, 0.66025203, -1.0995699, -607532.75, 141718.77, 0.000068581576, 10.001725, 9.99725 
2.4171513e+3, 2.3353389e+2, -528227.44, -952072.8, -199623.64, 0.5077164, -0.8969543, -449013.0, 202279.11, 0.0000096515805, 10.002314, 9.996722 
2.4169141e+3, 2.4352962e+2, -357721.1, -740623.0, -129946.484, 0.3263585, -0.74489313, -317785.88, 235551.03, 0.00000040342232, 10.002513, 9.997385 
2.4166767e+3, 2.5352478e+2, -288486.38, -637370.94, -62366.117, 0.05445256, -0.73001736, -277673.03, 177711.5, 0.0, 10.002246, 9.997543 
2.4164423e+3, 2.635192e+2, -346735.94, -757502.06, -24401.633, 0.00309763, -0.7095324, -345291.44, 12147.667, 0.0, 10.001842, 9.996218 
2.4162117e+3, 2.735125e+2, -277286.44, -689992.2, -85872.43, 0.3600126, -0.7202128, -260131.88, -628.25854, 0.0, 10.001724, 9.9960575 
2.41598e+3, 2.8350672e+2, -176937.33, -329157.66, 109644.24, 0.33370963, -0.7491513, -119576.086, 41983.867, 0.0, 10.000617, 9.998394 
2.4157451e+3, 2.9350156e+2, -368894.94, -355202.22, 186867.1, -0.43522453, -0.8504746, -175056.11, -111444.6, 0.0, 9.998547, 9.998549 
2.415518e+3, 3.034989e+2, -442338.1, -212351.14, 127160.88, -0.31955588, -0.7772339, -155899.61, -155899.61, 0.0, 9.997018, 9.999944 
2.4152946e+3, 3.134969e+2, -387976.7, 118626.984, -139278.45, 0.47287256, -0.6999316, 154393.16, 154393.16, 0.0, 9.9959755, 10.002764 
2.429486e+3, 1.338057e+2, -1193646.3, -1676765.5, 173711.63, 0.51501346, -0.5143038, -1137671.4, 490970.4, 0.3927144, 10.006445, 9.996693 
2.4292558e+3, 1.4379668e+2, -965092.1, -1277353.5, 109877.41, 0.66848314, -0.92281294, -930304.44, 600432.3, 0.2671018, 10.005319, 9.999729 
2.4290244e+3, 1.5379806e+2, -1130680.5, -1280983.8, 44430.79, 0.82478356, -0.5334991, -1118528.9, 314191.72, 0.15331788, 10.002321, 10.000041 
2.4287915e+3, 1.6379651e+2, -1300047.0, -1383626.4, -33319.977, 0.83540046, -0.38652414, -1288389.5, 46344.086, 0.07196278, 10.000449, 9.999391 
2.428556e+3, 1.737899e+2, -1215495.9, -1316796.0, -53063.207, 0.6455954, -0.71202964, -1192789.8, 44007.36, 0.027363949, 10.00044, 9.999181 
2.428322e+3, 1.8378533e+2, -1122523.1, -1262526.5, 26906.34, 0.49323392, -0.7963402, -1117530.3, 21312.691, 0.009079448, 10.000585, 9.998799 
2.4280898e+3, 1.9378461e+2, -978909.7, -1165153.1, 61002.348, 0.38369903, -0.4809465, -960707.8, 80147.12, 0.002868925, 10.000989, 9.998605 
2.4278572e+3, 2.037818e+2, -802434.06, -898359.8, -108834.34, 0.41032514, -0.39429748, -731462.7, 211419.39, 0.00059867656, 10.000985, 9.999758 
2.4276236e+3, 2.1377556e+2, -800847.0, -836266.56, -190291.72, 0.6583821, -0.75210524, -627442.75, 217490.77, 0.000045539302, 10.000282, 9.999847 
2.4273881e+3, 2.2377023e+2, -844423.0, -1006878.8, -193077.3, 0.69614756, -0.9153158, -716183.0, 30797.107, 0.0000022398012, 10.000201, 9.99802 
2.4271494e+3, 2.3376697e+2, -635259.75, -897940.4, -118748.33, 0.4050071, -0.7648819, -589536.6, 59477.355, 0.000000052409952, 10.001153, 9.997636 
2.4269119e+3, 2.4376245e+2, -504931.06, -776108.0, -46033.445, 0.19971526, -0.69875073, -497329.75, 53729.01, 0.0, 10.001382, 9.997672 
2.4266757e+3, 2.537563e+2, -505465.75, -725551.25, -80574.59, 0.105348445, -0.8205415, -479120.56, -26003.865, 0.0, 10.000701, 9.997675 
2.4264419e+3, 2.637509e+2, -472519.9, -782373.44, -17232.916, 0.10025765, -0.806515, -471564.44, -116394.945, 0.0, 10.00084, 9.996512 
2.4262105e+3, 2.7374646e+2, -152521.86, -611208.5, 30990.406, 0.30075777, -0.61964786, -150437.52, 106778.75, 0.0, 10.002509, 9.996212 
2.4259777e+3, 2.837417e+2, -15426.603, -252000.25, 140942.14, 0.25240475, -0.54082006, 50287.824, 209552.86, 0.0, 10.001728, 9.998388 
2.4257413e+3, 2.937363e+2, -554286.44, -424741.97, 106658.484, -0.34091923, -0.66947925, -364728.5, -303410.28, 0.0, 9.997197, 9.998713 
2.4255115e+3, 3.0373234e+2, -687490.94, -186948.34, 74246.95, -0.27117014, -0.7933493, -176167.28, -176167.28, 0.0, 9.994761, 10.001188 
2.4252889e+3, 3.1373167e+2, -380722.44, 135505.67, -328499.47, 0.5934656, -0.71202034, 295165.22, 295165.22, 0.0, 9.995975, 10.002887 
2.4397206e+3, 1.24046765e+2, -1580780.1, -1849813.4, 77808.83, 0.65630966, -0.5674837, -1559897.5, 164376.58, 0.4945379, 10.003066, 9.997669 
2.4394876e+3, 1.3404028e+2, -1436823.6, -1833361.9, 68621.234, 0.35144556, -0.66882896, -1425284.5, 201059.3, 0.37753457, 10.003567, 9.996826 
2.4392548e+3, 1.4403431e+2, -1266457.3, -1585189.9, -66011.48, 0.350066, -0.7169471, -1253326.8, 275078.44, 0.25111943, 10.003278, 9.997998 
2.4390239e+3, 1.5403055e+2, -1237488.6, -1559292.6, -112526.64, 0.820213, -0.64360106, -1202044.8, 228396.69, 0.13882843, 10.002475, 9.997897 
2.4387905e+3, 1.6402692e+2, -1186944.6, -1399937.5, -81409.01, 0.944774, -0.55836874, -1159392.9, 173084.36, 0.060861234, 10.001595, 9.998729 
2.4385533e+3, 1.740234e+2, -1158893.4, -1347031.8, -82786.45, 0.5745698, -0.5299752, -1127652.5, 106860.266, 0.02025213, 10.001088, 9.998659 
2.4383186e+3, 1.8401934e+2, -1072503.5, -1179089.5, 10129.021, 0.37174517, -0.56000984, -1071549.5, 65003.277, 0.0052852775, 10.000678, 9.999324 
2.4380884e+3, 1.9401486e+2, -1022893.6, -1116946.9, 47439.75, 0.40618026, -0.68805975, -1003121.75, 35473.72, 0.0012089658, 10.000391, 9.999221 
2.4378559e+3, 2.0401104e+2, -979347.75, -1118666.4, -145850.3, 0.48276782, -0.68640894, -887375.56, 53258.0, 0.00012403581, 10.000344, 9.998558 
2.4376206e+3, 2.140082e+2, -908606.56, -1056677.1, -180389.69, 0.6059456, -0.5600164, -787650.4, 55013.52, 0.000001917801, 10.0002575, 9.998353 
2.4373843e+3, 2.2400519e+2, -706690.8, -758096.9, -130181.12, 0.53629214, -0.4796534, -599699.56, 144993.6, 0.000000018702426, 10.000358, 9.999656 
2.4371456e+3, 2.3400228e+2, -526131.94, -620643.3, -79850.79, 0.18598977, -0.49066398, -480601.63, 166116.19, 0.0, 10.00093, 9.999652 
2.436909e+3, 2.4399686e+2, -567329.06, -869132.75, -80806.03, 0.04152078, -0.6050839, -547055.6, 1711.3973, 0.0, 10.0012045, 9.997128 
2.4366745e+3, 2.539882e+2, -521408.56, -836555.25, -101930.695, 0.17915219, -0.8927025, -491314.06, -40466.156, 0.0, 10.001021, 9.996765 
2.4364412e+3, 2.639826e+2, -338920.47, -585657.3, 36758.176, 0.21673496, -0.9008503, -333560.78, 19340.773, 0.0, 10.001155, 9.997729 
2.436209e+3, 2.73981e+2, -86411.33, -413590.7, 95181.055, 0.15931125, -0.57297593, -60736.598, 194182.9, 0.0, 10.002218, 9.9977255 
2.4359766e+3, 2.8397742e+2, -122832.12, -388761.3, -10215.537, 0.20805135, -0.43222615, -122440.27, 34517.97, 0.0, 10.001329, 9.997656 
2.4357417e+3, 2.9397136e+2, -621886.5, -593626.9, -49476.754, 0.24982834, -0.52269804, -556301.8, -497279.56, 0.0, 9.997294, 9.997522 
2.435507e+3, 3.0396643e+2, -577071.06, -49998.418, 99964.91, 0.046425637, -0.7085321, -31675.953, -31675.953, 0.0, 9.9951105, 10.001984 
2.4352741e+3, 3.139621e+2, -252454.27, 311514.28, -31270.256, -0.22253509, -1.1017482, 313242.8, 313242.8, 0.0, 9.996355, 10.003913 
2.4497214e+3, 1.2427387e+2, -1749054.8, -1939159.9, -115252.28, 0.8679422, -0.5744712, -1694715.0, 27344.639, 0.485396, 10.000795, 9.998101 
2.4494877e+3, 1.3427e+2, -1674858.3, -1900834.6, -122212.914, 0.51693964, -0.5146425, -1621406.3, 2695.5352, 0.36593336, 10.000682, 9.997734 
2.4492548e+3, 1.4426564e+2, -1436492.5, -1603726.0, -183125.86, 0.44253466, -0.5080657, -1318796.5, 207348.94, 0.23856215, 10.001414, 9.998859 
2.4490239e+3, 1.5426114e+2, -1078819.5, -1390719.1, -153583.92, 0.7837908, -0.59429044, -1015889.44, 412296.97, 0.1275105, 10.003332, 9.998661 
2.4487902e+3, 1.6425732e+2, -875118.06, -1251794.5, -142697.25, 0.8896893, -0.56864333, -827164.5, 503058.78, 0.052560914, 10.003876, 9.998657 
2.4485533e+3, 1.7425478e+2, -962086.4, -1270379.0, -151352.69, 0.6603997, -0.42785525, -900203.25, 332047.94, 0.01541553, 10.002543, 9.998479 
2.4483183e+3, 1.8425114e+2, -996695.1, -1080824.0, -57493.94, 0.5297338, -0.43113583, -967520.75, 166766.63, 0.0031067657, 10.000946, 9.999866 
2.4480867e+3, 1.9424625e+2, -1173591.3, -1124645.0, -30299.465, 0.5474352, -0.65525174, -1110169.5, -73836.516, 0.00048131414, 9.999089, 9.999789 
2.4478532e+3, 2.0424287e+2, -1130530.0, -1033857.8, -104544.875, 0.5680197, -0.7047873, -967015.75, -28651.129, 0.000015932997, 9.998648, 9.999938 
2.447618e+3, 2.1424177e+2, -840101.25, -866850.06, -24455.662, 0.5845473, -0.54204625, -825601.75, 14773.611, 0.0000000054715246, 10.000068, 9.999729 
2.4473816e+3, 2.2423978e+2, -720580.7, -798861.9, 13645.972, 0.5025657, -0.41013488, -718270.1, 24125.14, 0.0, 10.000422, 9.999341 
2.4471441e+3, 2.3423682e+2, -774937.3, -786712.1, -49242.703, 0.28760153, -0.3700812, -731231.3, -86807.06, 0.0, 9.999432, 9.999229 
2.4469082e+3, 2.4423133e+2, -770932.94, -951045.7, -37748.773, 0.18795228, -0.4751285, -763341.4, -216865.86, 0.0, 9.999738, 9.997268 
2.4466741e+3, 2.5422263e+2, -388013.75, -749722.06, -12256.707, 0.24861617, -0.7859126, -387598.9, 60956.152, 0.0, 10.0018425, 9.996963 
2.44644e+3, 2.642169e+2, -210850.72, -453809.94, 60937.215, 0.1957453, -0.8464366, -196423.6, 154185.69, 0.0, 10.001725, 9.9983635 
2.4462053e+3, 2.7421492e+2, -544794.5, -563211.4, 64766.87, 0.019105665, -0.6166189, -488584.75, -235954.14, 0.0, 9.998753, 9.998373 
2.445972e+3, 2.8421172e+2, -606080.2, -554657.6, -28117.992, 0.089620635, -0.49763933, -542267.8, -387603.16, 0.0, 9.997723, 9.998253 
2.4457388e+3, 2.9420704e+2, -322689.9, -400330.5, 15427.96, 0.39244136, -0.5079578, -319736.56, -263022.4, 0.0, 9.999121, 9.997973 
2.4455035e+3, 3.0420205e+2, -147921.8, 9662.709, 168671.67, 0.26136643, -0.64864784, 117037.99, 117037.99, 0.0, 9.998668, 10.000689 
2.4452652e+3, 3.1419727e+2, -331006.47, 242875.77, 68702.72, -0.4749299, -0.95310616, 250985.95, 250985.95, 0.0, 9.99601, 10.003573 
2.4597214e+3, 1.2450111e+2, -1501597.8, -1677988.3, -7099.8936, 0.97010046, -0.51771975, -1501312.4, 218530.25, 0.47722185, 10.0033455, 9.9988985 
2.4594882e+3, 1.3449924e+2, -1400855.1, -1608444.3, -11682.43, 0.6954802, -0.34570384, -1400199.8, 221665.11, 0.3557264, 10.002931, 9.998703 
2.4592553e+3, 1.4449605e+2, -1251666.4, -1387218.8, -76427.44, 0.5825659, -0.3236555, -1217291.9, 306603.78, 0.22774403, 10.002347, 10.000047 
2.4590237e+3, 1.5449159e+2, -1190809.0, -1324612.3, -77626.47, 0.72203505, -0.52300346, -1155232.9, 270700.66, 0.11809006, 10.001843, 9.99987 
2.4587901e+3, 1.6448803e+2, -1175890.4, -1387356.8, -162788.42, 0.7934363, -0.54218554, -1087511.3, 240455.55, 0.04605504, 10.00163, 9.998799 
2.4585539e+3, 1.7448583e+2, -1129216.5, -1350724.9, -144427.1, 0.7669606, -0.37205312, -1057966.1, 172026.14, 0.012013259, 10.001372, 9.998492 
2.4583186e+3, 1.8448271e+2, -1030083.7, -1045446.1, -70706.77, 0.7363738, -0.34614542, -966642.1, 165382.44, 0.0018483637, 10.000484, 10.000336 
2.4580845e+3, 1.9447854e+2, -1176591.5, -1077387.4, -61572.895, 0.6950065, -0.5410726, -1047922.44, -13858.529, 0.00018026956, 9.998854, 10.000232 
2.4578498e+3, 2.0447607e+2, -982723.5, -718428.8, -61013.848, 0.63471633, -0.6262664, -705023.4, 231060.27, 0.0000007906511, 9.99861, 10.002127 
2.4576147e+3, 2.1447593e+2, -691437.25, -540934.06, -12215.461, 0.5438433, -0.59795636, -539949.0, 298128.13, 0.0, 9.999993, 10.002007 
2.4573791e+3, 2.2447431e+2, -789702.9, -982218.75, -76956.68, 0.50466925, -0.49072206, -762721.5, -22629.164, 0.0, 10.000583, 9.99801 
2.457143e+3, 2.344711e+2, -798964.2, -976868.6, -106189.77, 0.51669073, -0.3241693, -749392.9, -107261.555, 0.0, 10.000026, 9.9976425 
2.456908e+3, 2.4446608e+2, -668160.9, -837024.3, 22025.31, 0.4496481, -0.32481748, -665335.3, -121153.945, 0.0, 10.0001545, 9.997857 
2.4566735e+3, 2.5445879e+2, -396094.03, -672754.56, 64128.97, 0.2751446, -0.57247925, -381952.03, 64293.656, 0.0, 10.001425, 9.997703 
2.4564378e+3, 2.6445264e+2, -284164.78, -475832.56, -44384.12, 0.07149121, -0.7182793, -274385.78, 73917.266, 0.0, 10.0011425, 9.998504 
2.4561997e+3, 2.7444825e+2, -543737.06, -558352.1, -46785.05, -0.14076552, -0.74350315, -503692.28, -253343.66, 0.0, 9.99872, 9.998431 
2.4559651e+3, 2.8444526e+2, -472292.97, -323976.2, 8343.273, -0.09978861, -0.6724156, -323508.3, -171130.28, 0.0, 9.997894, 9.999773 
2.4557327e+3, 2.944434e+2, -212926.55, -176707.28, 64727.438, 0.13547361, -0.55854857, -127603.82, -73210.31, 0.0, 9.999108, 9.999534 
2.455501e+3, 3.0443835e+2, -405246.5, -520680.78, 69206.27, 0.39988804, -0.61691624, -372848.28, -372848.28, 0.0, 9.998613, 9.997087 
2.4552624e+3, 3.1443417e+2, -511867.2, -149714.36, -10702.64, -0.08953211, -0.47949466, -149398.34, -149398.34, 0.0, 9.996072, 10.000847 
2.4697238e+3, 1.2473363e+2, -1184625.6, -1539589.5, 81154.24, 0.8594396, -0.5722387, -1166951.6, 550611.9, 0.4678452, 10.007497, 9.998634 
2.4694908e+3, 1.3473114e+2, -1090424.6, -1487174.5, 66418.06, 0.66587806, -0.4079351, -1079601.1, 539989.3, 0.3452084, 10.006346, 9.998297 
2.469256e+3, 1.4472769e+2, -1092845.5, -1349269.3, -77399.98, 0.59818107, -0.3643299, -1071294.0, 450331.0, 0.21743058, 10.003914, 9.999609 
2.4690212e+3, 1.5472339e+2, -1488025.0, -1519657.5, -131263.33, 0.70617896, -0.4924408, -1371628.5, 52037.02, 0.109704144, 9.999824, 9.999433 
2.468786e+3, 1.6472004e+2, -1540312.1, -1377265.1, -70661.04, 0.73422647, -0.5445934, -1350904.1, -25208.52, 0.040704507, 9.998268, 10.0004635 
2.4685504e+3, 1.74718e+2, -1266842.4, -1221356.8, 8973.457, 0.6710101, -0.52555245, -1219650.5, 8062.1313, 0.00953522, 9.999584, 10.000229 
2.4683152e+3, 1.8471564e+2, -1175884.9, -1163773.9, 28296.254, 0.6554932, -0.48367375, -1140892.4, -11156.219, 0.0011160366, 9.999701, 9.999893 
2.4680804e+3, 1.9471306e+2, -1274052.6, -1182387.4, -7357.5127, 0.68756795, -0.45564017, -1181800.6, -150035.58, 0.00006263998, 9.9984455, 9.999702 
2.4678455e+3, 2.0471025e+2, -1088361.6, -876151.25, 19471.717, 0.603629, -0.4966332, -874379.4, 59411.13, 0.0000000031066179, 9.998364, 10.001153 
2.4676104e+3, 2.1470754e+2, -809480.6, -703859.4, -68087.99, 0.39808843, -0.62421817, -670501.94, 165306.9, 0.0, 9.999656, 10.001043 
2.4673757e+3, 2.2470456e+2, -713226.7, -875336.6, -191928.17, 0.34888873, -0.6383161, -585939.8, 151896.44, 0.0, 10.000827, 9.998615 
2.4671412e+3, 2.3470134e+2, -474476.88, -743943.6, -135196.47, 0.48092934, -0.54828924, -418340.75, 221532.7, 0.0, 10.001933, 9.998318 
2.466906e+3, 2.446979e+2, -433117.2, -597506.2, 5303.5244, 0.45924184, -0.4795678, -432946.25, 108961.586, 0.0, 10.001234, 9.998981 
2.4666704e+3, 2.5469407e+2, -742731.3, -712841.94, 55008.41, 0.24720936, -0.48894987, -670784.25, -226844.36, 0.0, 9.998511, 9.998827 
2.4664338e+3, 2.6468915e+2, -826423.94, -768491.06, -33178.336, 0.060482215, -0.5529239, -753413.7, -407425.38, 0.0, 9.997564, 9.998212 
2.4661966e+3, 2.7468354e+2, -581299.56, -622084.25, -64656.094, -0.05386322, -0.6642633, -533896.2, -285845.88, 0.0, 9.998652, 9.998033 
2.4659607e+3, 2.8468052e+2, -294213.4, -140927.33, -27489.318, -0.0824171, -0.6181915, -136146.67, 13934.188, 0.0, 9.9987135, 10.000628 
2.4657255e+3, 2.9467967e+2, -391908.75, -165288.06, -27395.893, -0.10518097, -0.49755844, -162023.23, -109939.51, 0.0, 9.9974785, 10.000392 
2.4654952e+3, 3.0467522e+2, -681783.7, -645073.6, 48894.363, 0.3416905, -0.54378444, -611202.56, -611202.56, 0.0, 9.996702, 9.997143 
2.4652563e+3, 3.1467003e+2, -474731.25, -148085.16, 170208.38, -0.05148951, -0.4960211, -75515.625, -75515.625, 0.0, 9.996421, 10.000681 
2.4797268e+3, 1.249678e+2, -1367303.0, -1675428.8, 49409.47, 0.7027444, -0.6131303, -1359573.9, 355693.38, 0.45571485, 10.005409, 9.997867 
2.4794932e+3, 1.3496399e+2, -1336062.1, -1686688.9, 59391.66, 0.58712894, -0.5141228, -1326275.1, 291030.2, 0.33319858, 10.004064, 9.997578 
2.4792568e+3, 1.4496e+2, -1249830.9, -1504615.8, -167595.0, 0.57529265, -0.44929782, -1166707.5, 352638.94, 0.20679392, 10.002898, 9.998833 
2.4790183e+3, 1.54956e+2, -1306754.0, -1524396.6, -224213.22, 0.6956266, -0.4668186, -1166349.3, 255039.86, 0.10179194, 10.001593, 9.998588 
2.4787812e+3, 1.6495286e+2, -1089849.9, -967843.7, -38792.9, 0.6739094, -0.544375, -956553.9, 366862.03, 0.036105353, 10.000552, 10.002266 
2.4785456e+3, 1.7495081e+2, -1061628.9, -917119.5, -27569.846, 0.5006124, -0.71243435, -912038.3, 313386.7, 0.0076701324, 10.000113, 10.00208 
2.4783103e+3, 1.8494926e+2, -1185876.8, -1257314.1, -111165.84, 0.48312223, -0.6494112, -1104832.1, 22606.746, 0.000687035, 10.0000105, 9.999106 
2.4780755e+3, 1.949484e+2, -1140207.3, -1212805.5, -108072.164, 0.6087451, -0.37580138, -1062501.0, -33045.137, 0.000019881356, 9.999772, 9.998856 
2.4778403e+3, 2.0494473e+2, -1050861.4, -1095655.3, 35382.965, 0.518407, -0.3592271, -1031382.56, -99888.95, 0.0, 9.999641, 9.999031 
2.4776055e+3, 2.1493839e+2, -942391.1, -1013016.3, -14361.451, 0.19826882, -0.6352187, -939582.5, -106032.08, 0.0, 9.999799, 9.998852 
2.4773715e+3, 2.2493349e+2, -684495.75, -693848.7, -143863.06, 0.1237725, -0.8026289, -545233.1, 190362.16, 0.0, 10.000287, 10.000131 
2.4771385e+3, 2.3493016e+2, -503693.16, -577842.9, -95894.88, 0.30148655, -0.8847211, -437955.7, 199671.67, 0.0, 10.000945, 9.999941 
2.476903e+3, 2.4492869e+2, -453967.88, -470164.94, -108685.15, 0.32988903, -0.7642546, -353079.94, 186560.77, 0.0, 10.000482, 10.000229 
2.4766655e+3, 2.5492907e+2, -646835.3, -532866.44, -61053.805, 0.17467757, -0.47657874, -506335.66, -64700.95, 0.0, 9.998572, 10.000045 
2.4764292e+3, 2.649262e+2, -828202.7, -845511.75, -13395.217, 0.107172914, -0.36435074, -820909.4, -477240.88, 0.0, 9.997864, 9.997551 
2.4761946e+3, 2.7492034e+2, -625706.3, -721023.44, -19625.39, 0.16629897, -0.43154117, -621823.7, -376084.34, 0.0, 9.998667, 9.997356 
2.475958e+3, 2.8491685e+2, -292276.2, -110866.33, -68397.83, 0.035601974, -0.41464278, -87968.234, 59809.64, 0.0, 9.998583, 10.000908 
2.4757178e+3, 2.9491532e+2, -372978.56, -115286.85, -69069.89, -0.38291165, -0.3869578, -97941.38, -48153.973, 0.0, 9.997419, 10.000771 
2.4754868e+3, 3.0491304e+2, -425219.44, -132714.64, 34888.08, 0.11601735, -0.40953615, -128610.99, -128610.99, 0.0, 9.996754, 10.000654 
2.4752505e+3, 3.1490985e+2, -184022.64, 378747.1, 94615.164, -0.017306611, -0.5099523, 394228.3, 394228.3, 0.0, 9.99668, 10.004211 
2.4897288e+3, 1.2520501e+2, -1457816.9, -1695130.1, 34551.438, 0.74291694, -0.39906538, -1452888.8, 260060.8, 0.43991724, 10.00395, 9.998306 
2.4894924e+3, 1.3519941e+2, -1538458.6, -1785608.8, 62556.188, 0.5734647, -0.50884855, -1523527.1, 91472.58, 0.31901655, 10.001774, 9.998 
2.4892561e+3, 1.4519462e+2, -1388799.3, -1661957.5, -52945.637, 0.58181876, -0.50231165, -1378896.0, 138150.88, 0.19536594, 10.002036, 9.998046 
2.4890201e+3, 1.5519066e+2, -935715.9, -1404632.3, -89226.31, 0.7726466, -0.43049586, -919311.6, 499778.63, 0.094030365, 10.0046835, 9.9978695 
2.4887823e+3, 1.6518687e+2, -701753.1, -1012711.94, -101757.83, 0.7193635, -0.42804375, -671414.1, 649713.75, 0.032013185, 10.004349, 10.0001 
2.4885432e+3, 1.7518348e+2, -1055972.6, -1147870.5, -227223.89, 0.4375321, -0.51579314, -870098.3, 353059.13, 0.0062260167, 10.001169, 9.999972 
2.4883069e+3, 1.8518095e+2, -1015705.8, -1061408.8, -211189.44, 0.36889285, -0.50393224, -826135.2, 299045.8, 0.00043419475, 10.000717, 10.000095 
2.4880733e+3, 1.9517943e+2, -621610.1, -851501.4, -161422.64, 0.49506193, -0.40383765, -538389.75, 488808.22, 0.00000583165, 10.002875, 9.999828 
2.4878392e+3, 2.0517625e+2, -613634.94, -870071.75, -52288.2, 0.4973497, -0.39585876, -603383.06, 325845.97, 0.0, 10.002585, 9.999162 
2.4876045e+3, 2.1517152e+2, -907489.6, -983770.4, -18191.12, 0.37048933, -0.5179605, -903373.6, -72100.35, 0.0, 9.999988, 9.998961 
2.4873692e+3, 2.2516769e+2, -975869.1, -798333.2, -84460.23, 0.27575934, -0.5928736, -764572.44, -31262.85, 0.0, 9.998142, 10.000441 
2.4871336e+3, 2.3516499e+2, -1059109.1, -809608.9, -98415.66, 0.24000815, -0.6408008, -775462.06, -140125.69, 0.0, 9.996985, 10.000254 
2.4868977e+3, 2.4516296e+2, -888660.4, -617387.4, -127802.01, 0.2046899, -0.617634, -566662.4, -29309.26, 0.0, 9.99725, 10.000759 
2.4866611e+3, 2.5516194e+2, -569413.75, -438738.53, -127285.57, 0.14307462, -0.5301439, -361000.56, 78357.05, 0.0, 9.998873, 10.000535 
2.4864253e+3, 2.6515952e+2, -554761.1, -606715.94, -60372.074, 0.1269666, -0.44684792, -515014.78, -173630.19, 0.0, 9.999272, 9.998512 
2.4861906e+3, 2.7515578e+2, -597685.75, -596059.5, 13558.395, 0.19657834, -0.39921716, -583289.9, -339857.06, 0.0, 9.998388, 9.998341 
2.4859536e+3, 2.85153e+2, -494919.47, -200369.28, -35880.37, 0.096213035, -0.35834855, -196061.55, -50597.77, 0.0, 9.997158, 10.0009775 
2.4857126e+3, 2.9515105e+2, -619607.9, -225272.72, -49754.316, -0.25395522, -0.3733721, -219091.97, -171612.69, 0.0, 9.995684, 10.000855 
2.4854805e+3, 3.0514926e+2, -504534.22, -78708.61, 24606.516, 0.11525662, -0.39397106, -77291.43, -77291.43, 0.0, 9.995844, 10.001446 
2.4852438e+3, 3.1514627e+2, -96918.375, 482410.25, -154237.28, -0.08018418, -0.562644, 520914.44, 520914.44, 0.0, 9.997035, 10.004739 
2.4997303e+3, 1.2544258e+2, -1398797.3, -1639626.5, -34909.68, 0.7625617, -0.17305687, -1393839.0, 316790.56, 0.42027217, 10.0043125, 9.998774 
2.4994917e+3, 1.3543549e+2, -1389024.4, -1644273.5, -42744.484, 0.5481322, -0.48577484, -1382056.6, 230632.6, 0.3025164, 10.003013, 9.998377 
2.4992557e+3, 1.4543003e+2, -1336412.8, -1713849.6, -27850.826, 0.57308227, -0.52919, -1334368.8, 180372.03, 0.18302312, 10.002805, 9.997314 
2.4990225e+3, 1.5542604e+2, -1093014.9, -1576807.4, -46349.26, 0.82662004, -0.39136428, -1088614.4, 328170.0, 0.08629053, 10.003845, 9.9970875 
2.4987839e+3, 1.6542141e+2, -1046790.5, -1504390.4, -207333.56, 0.76115966, -0.2867389, -966824.1, 352011.56, 0.028287582, 10.003313, 9.997168 
2.4985413e+3, 1.7541651e+2, -1263465.3, -1565867.4, -261226.75, 0.40655327, -0.22905833, -1112836.5, 108054.305, 0.0050760456, 10.00111, 9.997131 
2.4983042e+3, 1.8541257e+2, -945222.3, -882521.75, -62579.926, 0.28365642, -0.28553987, -843878.56, 279050.16, 0.00028139996, 10.000566, 10.001404 
2.4980721e+3, 1.9540955e+2, -728031.4, -761142.25, -51977.063, 0.36375475, -0.46443158, -690036.8, 334914.28, 0.0000014559189, 10.001526, 10.001105 
2.4978389e+3, 2.0540735e+2, -737848.8, -827512.5, -132026.5, 0.49973562, -0.46547148, -643250.06, 283719.94, 0.0, 10.001282, 10.000087 
2.4976048e+3, 2.1540596e+2, -897386.44, -879871.4, -102077.74, 0.66333556, -0.34638998, -786176.2, 42808.555, 0.0, 9.99962, 9.999857 
2.4973674e+3, 2.2540434e+2, -965198.3, -830501.1, -124103.81, 0.5488988, -0.22824585, -756649.2, -25645.95, 0.0, 9.99837, 10.000114 
2.4971277e+3, 2.3540269e+2, -1015169.5, -824580.8, -128059.51, 0.2052376, -0.13660002, -760249.8, -127226.4, 0.0, 9.997434, 9.999941 
2.4968912e+3, 2.4539886e+2, -823579.9, -577184.44, -66493.16, 0.07556999, -0.28281373, -560385.6, -25329.592, 0.0, 9.99764, 10.00086 
2.4966569e+3, 2.5539353e+2, -557731.06, -421559.56, -68474.19, 0.11240226, -0.6347745, -393082.47, 44014.0, 0.0, 9.998887, 10.000657 
2.4964216e+3, 2.6539087e+2, -446933.28, -338873.03, -105430.29, 0.10538377, -0.6793464, -274434.6, 64684.555, 0.0, 9.999072, 10.000453 
2.4961853e+3, 2.7539048e+2, -492930.06, -335923.94, -39760.23, 0.07385715, -0.49256167, -326429.22, -85301.86, 0.0, 9.998191, 10.00023 
2.4959482e+3, 2.853891e+2, -497625.1, -215083.72, -114798.14, 0.11859167, -0.4032368, -174321.38, -31179.08, 0.0, 9.9971695, 10.000886 
2.49571e+3, 2.9538715e+2, -591669.25, -233544.52, -104388.64, 0.1784406, -0.4117061, -205338.17, -160178.23, 0.0, 9.995951, 10.000679 
2.4954748e+3, 3.053837e+2, -590167.0, -323728.03, 62363.098, 0.23443612, -0.48995906, -309853.72, -309853.72, 0.0, 9.996112, 9.999644 
2.4952365e+3, 3.1537893e+2, -288699.63, 33512.43, -87729.07, -0.27006385, -0.658757, 55849.965, 55849.965, 0.0, 9.9972315, 10.001568 
2.509731e+3, 1.2567711e+2, -1311828.6, -1630142.3, -51023.145, 0.63790476, -0.13207361, -1303850.0, 404486.84, 0.3973374, 10.005338, 9.998349 
2.5094926e+3, 1.3566978e+2, -1202228.5, -1575146.8, -85602.82, 0.5152825, -0.42612055, -1183517.3, 426882.4, 0.2840601, 10.004909, 9.998014 
2.5092557e+3, 1.4566426e+2, -1176316.3, -1601995.9, -73805.11, 0.49079892, -0.46976325, -1163882.9, 348569.03, 0.16993545, 10.004029, 9.997494 
2.5090203e+3, 1.5566029e+2, -1230206.8, -1626511.4, -84570.95, 0.58256125, -0.34549344, -1212914.0, 201580.6, 0.07858724, 10.00272, 9.997282 
2.508782e+3, 1.6565566e+2, -1222822.0, -1529094.4, -188980.05, 0.65481895, -0.27974218, -1132721.4, 183822.13, 0.02485762, 10.001814, 9.997709 
2.5085422e+3, 1.7565072e+2, -1205579.6, -1476521.5, -125986.27, 0.68098825, -0.266835, -1156050.8, 62544.645, 0.0041356636, 10.001259, 9.997661 
2.5083047e+3, 1.8564716e+2, -1070875.1, -1029192.6, 98864.96, 0.58886296, -0.25951955, -948996.06, 171635.03, 0.00018434241, 10.000079, 10.000627 
2.5080693e+3, 1.9564478e+2, -1231005.9, -1078298.6, 35422.938, 0.42831963, -0.2876733, -1070481.9, -47829.258, 0.00000026313862, 9.998399, 10.00043 
2.5078347e+3, 2.0564234e+2, -1179014.8, -995584.8, -60501.465, 0.45456007, -0.29351825, -977426.8, -52751.0, 0.0, 9.998076, 10.000467 
2.5076005e+3, 2.1564023e+2, -990346.0, -880729.9, -63716.734, 0.6253199, -0.28150693, -851491.9, -24794.256, 0.0, 9.998805, 10.0002365 
2.507364e+3, 2.256386e+2, -850209.9, -767971.06, -86347.55, 0.5812038, -0.18430403, -713452.06, 15263.031, 0.0, 9.999123, 10.000183 
2.5071248e+3, 2.3563744e+2, -770998.3, -700636.2, -74520.125, 0.36007306, -0.045354154, -653410.0, -22681.592, 0.0, 9.999088, 9.99999 
2.5068882e+3, 2.4563353e+2, -684055.2, -580687.8, 2759.2205, 0.22471714, -0.1657257, -580614.25, -47850.887, 0.0, 9.998912, 10.000216 
2.5066537e+3, 2.5562757e+2, -640355.6, -522489.75, -44170.902, 0.17302704, -0.51422197, -507773.78, -72960.1, 0.0, 9.99859, 10.000102 
2.5064173e+3, 2.6562473e+2, -606794.4, -352938.72, -185918.23, 0.115061566, -0.5807426, -254752.66, 82084.66, 0.0, 9.997711, 10.001012 
2.5061795e+3, 2.7562454e+2, -713039.1, -376427.66, -198604.38, 0.060608882, -0.43680638, -284405.7, -45567.36, 0.0, 9.9964075, 10.000807 
2.5059423e+3, 2.856229e+2, -534134.25, -275591.25, -253320.34, 0.12776539, -0.38974282, -120464.6, 20389.285, 0.0, 9.9971075, 10.0005 
2.505706e+3, 2.9562038e+2, -153159.1, -77979.94, -269854.3, 0.27807948, -0.42651275, 156890.25, 199768.5, 0.0, 9.999197, 10.000186 
2.50547e+3, 3.0561727e+2, -212163.33, -201900.55, -110051.68, 0.26095852, -0.42836985, -96860.69, -96860.69, 0.0, 9.998985, 9.999092 
2.5052324e+3, 3.156137e+2, -409372.84, -186533.33, -134141.13, -0.13106427, -0.43132657, -123573.6, -123573.6, 0.0, 9.997114, 10.000115 
2.519732e+3, 1.2591176e+2, -1428336.0, -1746294.5, -42797.047, 0.49256578, -0.12113627, -1422676.3, 283365.56, 0.3720876, 10.004152, 9.997795 
2.5194943e+3, 1.3590454e+2, -1350165.8, -1724091.9, -66415.734, 0.49191797, -0.35174182, -1338719.6, 269386.47, 0.2642935, 10.003661, 9.997523 
2.519256e+3, 1.4589897e+2, -1273743.0, -1630796.1, -73140.39, 0.40179983, -0.39064923, -1259341.5, 250817.75, 0.1564241, 10.003062, 9.997762 
2.5190172e+3, 1.5589482e+2, -1261095.8, -1610815.3, -91223.25, 0.28602567, -0.3114833, -1238730.6, 173471.81, 0.071005695, 10.002345, 9.997572 
2.51878e+3, 1.658903e+2, -1073505.8, -1316878.8, -187723.97, 0.52829915, -0.31063244, -971478.3, 342767.34, 0.021693055, 10.002248, 9.998964 
2.5185442e+3, 1.7588566e+2, -959126.4, -1234714.9, -151636.97, 1.0021727, -0.39723274, -892027.94, 324259.88, 0.0033527806, 10.002419, 9.998767 
2.5183058e+3, 1.85883e+2, -1027336.9, -1165078.0, 8421.157, 0.94922155, -0.2816884, -1026823.94, 91493.07, 0.00011963708, 10.001046, 9.999231 
2.518066e+3, 1.9588189e+2, -1300940.6, -1262247.4, -28967.775, 0.51746464, -0.04343566, -1246759.8, -226424.48, 0.00000002568285, 9.99856, 9.999096 
2.5178292e+3, 2.058788e+2, -1172890.1, -986817.56, -41183.813, 0.37559342, -0.058879778, -978109.8, -55741.563, 0.0, 9.998084, 10.000526 
2.5175947e+3, 2.1587452e+2, -976849.94, -869628.5, -52246.527, 0.43722215, -0.26997095, -848380.6, -23970.994, 0.0, 9.998873, 10.000284 
2.5173593e+3, 2.2587205e+2, -835824.5, -736781.44, -111144.04, 0.51480097, -0.2722885, -664625.6, 61806.535, 0.0, 9.9991045, 10.000414 
2.5171232e+3, 2.35871e+2, -801046.44, -705506.3, -91510.92, 0.5866657, -0.14674562, -650047.4, -21607.588, 0.0, 9.998828, 10.000091 
2.516887e+3, 2.458678e+2, -784222.7, -746411.8, -19587.365, 0.48259503, -0.14588192, -738094.5, -207623.44, 0.0, 9.998716, 9.99918 
2.5166503e+3, 2.5586313e+2, -712029.1, -668985.1, -56740.676, 0.2512777, -0.26017734, -629821.9, -197304.14, 0.0, 9.998568, 9.999114 
2.5164124e+3, 2.6586e+2, -599721.1, -382166.47, -228543.22, 0.1302415, -0.2975438, -237834.11, 96712.25, 0.0, 9.997883, 10.000739 
2.5161734e+3, 2.758582e+2, -689019.94, -401939.3, -223531.9, 0.09171627, -0.28812844, -279828.84, -43268.96, 0.0, 9.9967165, 10.000493 
2.5159365e+3, 2.8585517e+2, -553138.3, -357552.3, -166153.94, 0.10248924, -0.32875097, -262548.53, -123960.34, 0.0, 9.997275, 9.999864 
2.5157005e+3, 2.9585153e+2, -211650.84, -174808.11, -190130.98, 0.10183246, -0.41167334, -2208.18, 38416.656, 0.0, 9.999076, 9.999587 
2.5154656e+3, 3.0585018e+2, -187285.97, -125635.336, -173598.45, 0.20552948, -0.24161498, 19853.336, 19853.336, 0.0, 9.998861, 9.999687 
2.5152257e+3, 3.1584632e+2, -379329.47, -126340.95, -159938.25, -0.24980743, -0.32784685, -48920.918, -48920.918, 0.0, 9.997138, 10.000512 
2.5297332e+3, 1.2614854e+2, -1502662.9, -1825240.0, 6585.5034, 0.5249905, -0.17016198, -1502528.5, 201192.64, 0.34545317, 10.003297, 9.997645 
2.5294957e+3, 1.361427e+2, -1502115.5, -1841865.8, -3016.3906, 0.6377628, -0.23343025, -1502088.6, 103687.6, 0.24384257, 10.002275, 9.997363 
2.529257e+3, 1.4613687e+2, -1422613.8, -1727486.5, 21717.709, 0.57272846, -0.2772022, -1421074.5, 86757.48, 0.14280598, 10.001901, 9.997637 
2.529018e+3, 1.5613127e+2, -1308776.6, -1644238.0, -2584.455, 0.42767188, -0.31956685, -1308756.6, 101128.98, 0.06363828, 10.002022, 9.997488 
2.5287804e+3, 1.6612601e+2, -978002.06, -1309035.8, -78361.43, 0.5430321, -0.36728108, -960389.6, 351546.4, 0.018779567, 10.003087, 9.998596 
2.5285438e+3, 1.761211e+2, -643305.44, -1121442.6, -115818.05, 0.83178204, -0.4414121, -616728.4, 597254.25, 0.0026956405, 10.0047655, 9.99841 
2.5283036e+3, 1.86118e+2, -786475.56, -1113648.5, -124771.055, 0.7741992, -0.31892857, -744323.5, 371692.7, 0.000075759795, 10.002995, 9.998639 
2.5280616e+3, 1.9611633e+2, -1277465.6, -1311873.0, -119604.06, 0.47435108, -0.07500907, -1173834.4, -155795.16, 0.00000000011876218, 9.998997, 9.998536 
2.527825e+3, 2.0611301e+2, -1228380.4, -1092887.5, 16184.426, 0.41107303, -0.048796523, -1090981.1, -170906.0, 0.0, 9.9980545, 9.999805 
2.527592e+3, 2.161087e+2, -979889.2, -935790.8, -41339.184, 0.5066125, -0.19384463, -910988.1, -88869.77, 0.0, 9.999139, 9.999695 
2.5273558e+3, 2.2610566e+2, -853150.1, -719871.0, -171015.83, 0.5231414, -0.23697387, -602969.75, 121175.945, 0.0, 9.998905, 10.000612 
2.527118e+3, 2.3610374e+2, -934182.25, -747028.06, -152588.44, 0.50595176, -0.21948853, -661608.2, -35447.957, 0.0, 9.997832, 10.000276 
2.5268817e+3, 2.4610114e+2, -892671.5, -766386.2, -9402.825, 0.4300246, -0.18484381, -765689.94, -237503.22, 0.0, 9.997826, 9.999475 
2.5266466e+3, 2.5609818e+2, -710049.0, -638969.8, 5762.087, 0.2969726, -0.15634255, -638505.75, -208285.7, 0.0, 9.998456, 9.999374 
2.526409e+3, 2.660955e+2, -458664.5, -310960.97, -145203.23, 0.22376291, -0.15410353, -221907.67, 110337.695, 0.0, 9.99886, 10.000744 
2.52617e+3, 2.7609318e+2, -351206.22, -247701.89, -128923.03, 0.21916604, -0.18649426, -160531.64, 73732.21, 0.0, 9.99908, 10.000409 
2.5259322e+3, 2.8608987e+2, -443640.4, -317984.7, -40099.03, 0.1540792, -0.2354045, -306278.88, -169983.23, 0.0, 9.99811, 9.999718 
2.525694e+3, 2.9608613e+2, -613433.7, -367421.6, -37581.01, -0.006083892, -0.30663812, -361808.75, -323474.4, 0.0, 9.99634, 9.999566 
2.5254592e+3, 3.0608472e+2, -532954.1, -165592.73, 3183.7058, 0.12137131, -0.19179195, -165565.14, -165565.14, 0.0, 9.995963, 10.000795 
2.5252214e+3, 3.1608275e+2, -460156.72, -134883.56, 19019.549, -0.057655346, -0.18422519, -133775.22, -133775.22, 0.0, 9.9964695, 10.000767 
2.5397342e+3, 1.2638594e+2, -1382135.1, -1772206.8, -64185.414, 0.5729152, -0.21243708, -1371845.0, 329548.16, 0.31815028, 10.004533, 9.99744 
2.5394967e+3, 1.3638157e+2, -1305400.4, -1754427.3, -77525.53, 0.7658487, -0.11956632, -1292392.3, 311046.9, 0.22319555, 10.004128, 9.9970875 
2.5392583e+3, 1.4637545e+2, -1215028.3, -1637298.8, -27044.213, 0.75303084, -0.17138763, -1213303.3, 292194.0, 0.12934324, 10.003614, 9.997435 
2.5390196e+3, 1.5636843e+2, -1178462.3, -1609883.8, -28189.457, 0.647684, -0.34051585, -1176628.1, 230932.98, 0.056573536, 10.003096, 9.997211 
2.538781e+3, 1.663625e+2, -1061803.9, -1434203.9, -42587.93, 0.5694165, -0.405525, -1056995.6, 252623.55, 0.016116831, 10.002853, 9.99785 
2.538542e+3, 1.7635736e+2, -974877.56, -1367278.8, -80826.734, 0.5082195, -0.4285206, -958881.0, 252790.86, 0.0021455004, 10.002847, 9.997649 
2.5383005e+3, 1.863534e+2, -922756.6, -1220152.5, -243253.17, 0.45407397, -0.34019613, -786352.5, 327360.66, 0.000046550977, 10.002231, 9.998281 
2.5380573e+3, 1.9635034e+2, -1060124.3, -1254174.5, -201340.45, 0.38736647, -0.19758028, -933650.25, 82095.26, 0.0, 10.000691, 9.99812 
2.5378212e+3, 2.0634684e+2, -1061088.8, -1126292.4, 77776.766, 0.47843003, -0.1156292, -1009357.3, -91574.32, 0.0, 9.99968, 9.998804 
2.5375897e+3, 2.1634315e+2, -1035263.0, -1061795.4, 16055.031, 0.6501433, -0.09465927, -1027702.4, -207880.36, 0.0, 9.999177, 9.998819 
2.537352e+3, 2.2633956e+2, -847894.75, -713546.56, -186861.28, 0.53845894, -0.15842606, -582152.06, 139703.44, 0.0, 9.998907, 10.000664 
2.5371104e+3, 2.3633626e+2, -834970.4, -687340.75, -171322.05, 0.26149082, -0.28445774, -574608.3, 49275.055, 0.0, 9.998446, 10.000399 
2.536875e+3, 2.4633424e+2, -778303.25, -606124.7, 8442.62, 0.22608498, -0.24849147, -605711.7, -79807.7, 0.0, 9.998149, 10.000424 
2.5366423e+3, 2.5633314e+2, -703423.0, -540330.75, 20799.652, 0.3106806, -0.12983282, -537719.94, -109801.016, 0.0, 9.99808, 10.000238 
2.5364062e+3, 2.6633126e+2, -508101.4, -325018.06, -137645.42, 0.35044318, -0.09117447, -251253.55, 78683.74, 0.0, 9.998458, 10.000852 
2.536168e+3, 2.763291e+2, -374686.16, -255674.1, -123145.11, 0.38940004, -0.11607107, -178411.39, 53544.766, 0.0, 9.99889, 10.000453 
2.5359282e+3, 2.8632635e+2, -444776.44, -306864.94, -108706.35, 0.2391787, -0.11862869, -247088.55, -113104.62, 0.0, 9.998036, 9.999838 
2.5356868e+3, 2.9632333e+2, -581542.5, -312843.47, -89125.62, -0.10905472, -0.13126919, -285969.03, -249953.11, 0.0, 9.996376, 9.999931 
2.5354517e+3, 3.063205e+2, -414988.63, 55702.91, 18391.559, 0.03386985, -0.25998577, 56420.44, 56420.44, 0.0, 9.996035, 10.0022955 
2.5352177e+3, 3.1632137e+2, -431819.47, -121117.664, 30045.283, 0.17549504, -0.097526774, -118238.914, -118238.914, 0.0, 9.996613, 10.000815 
2.5497386e+3, 1.2662154e+2, -1226252.0, -1737225.5, -72065.16, 0.6898589, -0.25706035, -1216282.8, 482798.22, 0.29080734, 10.006203, 9.996859 
2.5494987e+3, 1.3661663e+2, -1030080.5, -1629374.3, -104938.45, 0.6281696, -0.15737534, -1012236.7, 588902.06, 0.20276506, 10.006591, 9.996758 
2.5492597e+3, 1.4661098e+2, -873707.4, -1404939.0, -84343.305, 0.66043115, -0.18138939, -860637.8, 642556.56, 0.11625601, 10.005978, 9.9979725 
2.549022e+3, 1.5660505e+2, -907382.56, -1407673.9, -82928.24, 0.7641704, -0.2957434, -893994.6, 511252.97, 0.049887255, 10.004773, 9.997786 
2.5487813e+3, 1.6660096e+2, -1099680.0, -1410741.6, -107098.11, 0.6652502, -0.22375631, -1066372.8, 240916.64, 0.013707004, 10.002395, 9.998242 
2.548539e+3, 1.7659797e+2, -1448648.1, -1552460.5, -85968.46, 0.45799875, -0.06636375, -1400131.1, -190807.33, 0.0016894786, 9.999404, 9.998039 
2.5482982e+3, 1.8659273e+2, -1094884.4, -1281527.5, -77925.63, 0.38744482, -0.12678848, -1066627.5, 44745.426, 0.000027889511, 10.000974, 9.998453 
2.5480577e+3, 1.9658656e+2, -426992.0, -938613.5, -50076.137, 0.39877462, -0.30463478, -422136.75, 591290.9, 0.0, 10.005008, 9.998197 
2.547821e+3, 2.0658201e+2, -526501.6, -921342.06, 77918.91, 0.49566126, -0.29493168, -511681.22, 403791.1, 0.0, 10.003596, 9.998319 
2.5475863e+3, 2.1657844e+2, -1068692.4, -1142191.3, 56574.453, 0.641895, -0.20142215, -1037979.4, -220469.13, 0.0, 9.99923, 9.998242 
2.5473487e+3, 2.2657457e+2, -925744.5, -889515.6, -34061.418, 0.5838451, -0.19083007, -869051.4, -149501.98, 0.0, 9.998975, 9.999418 
2.547109e+3, 2.3657076e+2, -539751.94, -644856.0, -94337.37, 0.40543005, -0.24331483, -484316.7, 137270.05, 0.0, 10.0009165, 9.999491 
2.5468725e+3, 2.4656853e+2, -546444.8, -414966.47, -41970.566, 0.37006992, -0.22768821, -402711.0, 120898.484, 0.0, 9.999423, 10.001107 
2.5466377e+3, 2.5656742e+2, -951849.0, -578858.44, -33341.61, 0.4182914, -0.17814413, -575901.5, -150279.4, 0.0, 9.996044, 10.000942 
2.5464007e+3, 2.665663e+2, -846102.94, -417919.66, -76579.766, 0.39304754, -0.12825134, -404635.63, -77002.61, 0.0, 9.995837, 10.001478 
2.546163e+3, 2.7656528e+2, -571875.94, -296059.9, -52157.61, 0.36052033, -0.09908888, -286526.28, -56883.63, 0.0, 9.997303, 10.000938 
2.545923e+3, 2.8656295e+2, -540327.75, -352229.16, -95524.15, 0.22498982, -0.07438742, -312225.75, -180558.92, 0.0, 9.997386, 9.999832 
2.545681e+3, 2.9656005e+2, -531399.2, -270966.72, -78262.51, -0.04929942, -0.07086325, -249257.67, -215560.44, 0.0, 9.996651, 10.000081 
2.545446e+3, 3.0655646e+2, -287373.0, 216151.1, 33918.65, 0.09515307, -0.33391976, 218425.66, 218425.66, 0.0, 9.996509, 10.003158 
2.5452098e+3, 3.165581e+2, -500924.06, -58795.656, -34538.973, 0.03421635, -0.17670679, -56113.746, -56113.746, 0.0, 9.995761, 10.001636 
2.5597423e+3, 1.2685701e+2, -1416092.3, -1926816.3, -120920.93, 0.77896255, -0.29027057, -1388909.4, 307861.56, 0.2640136, 10.004527, 9.996376 
2.5594997e+3, 1.3685155e+2, -1374337.1, -1867176.5, -117995.84, 0.44186428, -0.20609249, -1347543.1, 251296.97, 0.18291949, 10.00372, 9.996502 
2.559261e+3, 1.4684659e+2, -1103058.0, -1451683.6, -103176.8, 0.51879185, -0.19483031, -1074811.1, 426079.75, 0.10372357, 10.003811, 9.998655 
2.5590247e+3, 1.5684205e+2, -963317.6, -1374697.0, -107641.49, 0.8282053, -0.23847272, -936854.5, 466076.47, 0.04363276, 10.00406, 9.998368 
2.5587818e+3, 1.6684015e+2, -966365.8, -1280543.8, -205095.06, 0.7517792, -0.0035292706, -865112.1, 439841.0, 0.011545958, 10.003041, 9.998823 
2.5585362e+3, 1.7683962e+2, -1148050.6, -1353131.1, -161302.5, 0.46910366, 0.34055656, -1059454.9, 147510.39, 0.0013158798, 10.001236, 9.998524 
2.5582966e+3, 1.8683304e+2, -981402.0, -1204991.6, 32870.34, 0.40036988, 0.11197117, -976669.8, 132352.7, 0.000016496271, 10.001646, 9.998661 
2.5580603e+3, 1.968237e+2, -660288.6, -1042967.3, 4697.589, 0.43162653, -0.408573, -660230.94, 350869.13, 0.0, 10.003361, 9.998281 
2.5578216e+3, 2.0681806e+2, -704452.7, -1044206.7, -115089.88, 0.48390195, -0.49518368, -669137.4, 244014.67, 0.0, 10.002524, 9.997997 
2.5575817e+3, 2.1681441e+2, -1007191.9, -1173795.4, -80899.24, 0.5474205, -0.37817678, -974373.56, -159183.88, 0.0, 9.999912, 9.9977 
2.5573453e+3, 2.2681041e+2, -952408.94, -1096855.8, 41011.855, 0.63584185, -0.2571163, -941576.94, -224343.45, 0.0, 9.999624, 9.997687 
2.5571105e+3, 2.3680645e+2, -677191.1, -860057.25, -19214.926, 0.71180093, -0.15136929, -675193.9, -55915.734, 0.0, 10.000607, 9.99817 
2.556872e+3, 2.4680352e+2, -557312.9, -371609.63, -143075.78, 0.660463, -0.17736539, -293897.16, 227410.39, 0.0, 9.999125, 10.001558 
2.5566322e+3, 2.568014e+2, -896527.94, -498264.1, -118542.74, 0.53864896, -0.2734209, -465650.7, -42323.883, 0.0, 9.996179, 10.00144 
2.5563934e+3, 2.668011e+2, -754957.25, -277382.56, -26977.162, 0.3624034, -0.21691902, -275863.5, 49466.156, 0.0, 9.996034, 10.002353 
2.5561556e+3, 2.7680176e+2, -521974.3, -194721.72, -24250.947, 0.17078775, -0.105278626, -192934.38, 34389.395, 0.0, 9.997303, 10.001639 
2.5559166e+3, 2.8679958e+2, -551575.75, -372104.7, -133678.64, 0.14333816, -0.08673598, -300835.72, -171489.34, 0.0, 9.997349, 9.999726 
2.5556767e+3, 2.9679632e+2, -532405.6, -279781.0, -89614.305, 0.13415122, -0.108792745, -251220.72, -219841.14, 0.0, 9.996667, 10.00002 
2.555441e+3, 3.067925e+2, -278405.63, 220155.03, 25029.006, 0.21920504, -0.39232138, 221408.4, 221408.4, 0.0, 9.99656, 10.003169 
2.5552037e+3, 3.1679365e+2, -325008.38, 295454.25, -151282.66, 0.13974854, -0.31473547, 330374.97, 330374.97, 0.0, 9.995791, 10.004066 
2.5697443e+3, 1.2709111e+2, -1504053.1, -1850979.3, -207869.78, 0.8866785, -0.33108926, -1406777.9, 287705.25, 0.23820965, 10.003038, 9.997705 
2.5694987e+3, 1.3708866e+2, -1712195.5, -1900413.0, -152057.39, 0.48947626, -0.07582618, -1627480.6, -30958.361, 0.16393928, 10.000369, 9.997868 
2.5692597e+3, 1.4708462e+2, -1396545.3, -1481549.9, 9192.293, 0.50048816, -0.09024395, -1395562.6, 102998.15, 0.09187998, 10.001015, 9.999767 
2.5690243e+3, 1.5708002e+2, -1024463.9, -1320118.9, 2947.1956, 0.7356058, -0.24303876, -1024434.5, 376163.38, 0.037844766, 10.003218, 9.999158 
2.5687823e+3, 1.6707684e+2, -828467.75, -1276838.6, -158216.6, 0.70599025, -0.12496686, -778260.06, 524369.7, 0.009625417, 10.004294, 9.998227 
2.5685376e+3, 1.7707452e+2, -672910.06, -1183651.5, -166155.28, 0.54072785, 0.10259965, -623614.1, 581043.2, 0.0010124295, 10.004781, 9.997967 
2.568298e+3, 1.8706822e+2, -864182.06, -1208976.5, -49952.3, 0.5735824, -0.04307632, -857091.0, 249623.75, 0.000009793076, 10.002723, 9.998106 
2.568061e+3, 1.9706018e+2, -1238273.1, -1361866.8, -92689.79, 0.6964189, -0.381114, -1188668.6, -179883.78, 0.0, 9.999572, 9.9979105 
2.5678205e+3, 2.070552e+2, -1035013.25, -1169518.6, -141888.98, 0.5850529, -0.4082336, -945245.56, -34413.848, 0.0, 10.000119, 9.998286 
2.5675786e+3, 2.170518e+2, -624364.44, -939307.2, -102583.32, 0.38947916, -0.29761705, -593898.1, 218967.95, 0.0, 10.002338, 9.998131 
2.567342e+3, 2.2704785e+2, -593961.25, -811879.56, 61327.047, 0.46915057, -0.25080112, -577887.94, 137017.72, 0.0, 10.001614, 9.998677 
2.567107e+3, 2.3704383e+2, -799291.3, -854965.0, 106620.266, 0.66994643, -0.23829915, -716933.9, -99987.61, 0.0, 9.999501, 9.99873 
2.5668675e+3, 2.470404e+2, -785077.56, -621703.9, -52019.836, 0.62776065, -0.25023407, -606546.44, -87564.87, 0.0, 9.998179, 10.000289 
2.5666252e+3, 2.5703752e+2, -821869.75, -581066.9, -92348.62, 0.46939373, -0.28926736, -549729.2, -128717.55, 0.0, 9.997212, 10.000369 
2.5663868e+3, 2.670365e+2, -663676.0, -287478.94, -2545.2236, 0.30246904, -0.22902964, -287461.72, 35562.75, 0.0, 9.996918, 10.001847 
2.5661495e+3, 2.770365e+2, -590332.25, -240217.23, -88468.984, 0.14755024, -0.13922119, -219132.22, 5895.328, 0.0, 9.996903, 10.001513 
2.5659108e+3, 2.8703508e+2, -518463.97, -186325.89, -187526.14, 0.15867867, -0.13470921, -101905.45, 25133.396, 0.0, 9.996864, 10.0012245 
2.5656715e+3, 2.970331e+2, -472920.97, -164193.28, -55223.746, 0.22112036, -0.16878249, -154612.44, -125559.44, 0.0, 9.996711, 10.000789 
2.565434e+3, 3.070286e+2, -499965.56, -122453.39, -2947.5713, 0.17294657, -0.42790645, -122430.38, -122430.38, 0.0, 9.996063, 10.001048 
2.565198e+3, 3.1702915e+2, -411157.22, 201906.48, -419757.7, 0.2866005, -0.2204761, 415142.2, 415142.2, 0.0, 9.995446, 10.003579 
2.5797457e+3, 1.273265e+2, -1323295.8, -1615163.4, -144972.73, 0.98241276, -0.3449194, -1263526.4, 428656.25, 0.21370111, 10.003878, 9.998945 
2.5794977e+3, 1.3732694e+2, -1324387.1, -1569863.8, -116324.086, 0.59049517, 0.07476043, -1278021.9, 316170.66, 0.14602166, 10.002792, 9.999026 
2.5792587e+3, 1.4732352e+2, -1115430.9, -1248762.1, 81488.78, 0.5015195, 0.020426843, -1076812.5, 419409.0, 0.08082498, 10.002656, 10.0007105 
2.5790232e+3, 1.5731852e+2, -1005732.25, -1259958.5, 24473.072, 0.58615696, -0.2636624, -1003397.75, 394860.56, 0.032552794, 10.00311, 9.999636 
2.5787827e+3, 1.673132e+2, -939971.7, -1428345.1, -161245.9, 0.6206956, -0.32700333, -891536.8, 408770.47, 0.007938493, 10.003921, 9.997374 
2.57854e+3, 1.7730802e+2, -754022.1, -1322442.3, -165409.56, 0.61100906, -0.30128762, -709392.25, 492966.84, 0.00076767127, 10.004643, 9.997087 
2.5783e+3, 1.8730256e+2, -839233.3, -1283444.4, -149496.17, 0.769876, -0.2804564, -793607.7, 310805.88, 0.000005913737, 10.003264, 9.997338 
2.578061e+3, 1.9729711e+2, -1087550.3, -1346208.6, -136259.23, 0.9825642, -0.28683016, -1029016.2, -22548.488, 0.0, 10.000852, 9.997405 
2.5778192e+3, 2.072931e+2, -905400.75, -1064719.4, -45156.15, 0.68974, -0.21914348, -893492.1, 15015.651, 0.0, 10.000815, 9.998678 
2.577576e+3, 2.1728994e+2, -640454.8, -861659.1, -52290.76, 0.18911877, -0.12948956, -628716.6, 181822.81, 0.0, 10.001852, 9.998904 
2.577338e+3, 2.2728612e+2, -517865.3, -546976.75, -39888.965, 0.21047331, -0.22531635, -489959.3, 222611.67, 0.0, 10.001139, 10.000734 
2.5771016e+3, 2.3728217e+2, -734465.94, -696822.3, -6236.682, 0.4431776, -0.4030051, -695815.94, -81214.28, 0.0, 9.999392, 9.999875 
2.5768608e+3, 2.4727845e+2, -901005.4, -915261.94, -116167.38, 0.4231544, -0.36356953, -791747.75, -275106.03, 0.0, 9.9984, 9.998173 
2.576618e+3, 2.5727504e+2, -894765.06, -830340.1, -112737.96, 0.2805155, -0.2455617, -745302.9, -326619.28, 0.0, 9.997628, 9.998463 
2.57638e+3, 2.672723e+2, -720941.0, -469286.3, 10436.981, 0.2236087, -0.20148022, -468854.22, -148136.13, 0.0, 9.997169, 10.000489 
2.5761443e+3, 2.772702e+2, -634022.6, -321320.4, -69484.055, 0.20805454, -0.19672726, -306575.9, -83830.44, 0.0, 9.99685, 10.000989 
2.5759056e+3, 2.8726998e+2, -339328.4, 176490.64, -183033.05, 0.21548718, -0.20009284, 234838.0, 359575.8, 0.0, 9.996882, 10.003719 
2.575665e+3, 2.972705e+2, -371626.28, 13248.309, -65538.69, 0.18716104, -0.2227478, 24102.508, 50819.766, 0.0, 9.996836, 10.001955 
2.5754252e+3, 3.0726442e+2, -748781.4, -654405.8, -34876.867, -0.014830775, -0.45995912, -642915.8, -642915.8, 0.0, 9.996116, 9.997378 
2.575188e+3, 3.172619e+2, -716802.4, -445373.0, -502739.7, 0.023590889, -0.17834839, -60352.0, -60352.0, 0.0, 9.995497, 9.999112 
2.589749e+3, 1.275694e+2, -1270220.1, -1815908.1, 27857.686, 1.1582321, -0.2958124, -1268801.6, 420999.25, 0.19073834, 10.005283, 9.996758 
2.5895032e+3, 1.3756685e+2, -1028189.9, -1604966.0, -18412.842, 0.90380937, 0.05617359, -1027602.7, 564240.6, 0.1293133, 10.005949, 9.997222 
2.5892612e+3, 1.47562e+2, -901516.44, -1266945.6, 83083.74, 0.6352999, 0.0042432477, -883513.5, 610373.6, 0.07061929, 10.004782, 9.999533 
2.5890216e+3, 1.5755635e+2, -1068586.9, -1364921.0, -18676.94, 0.4259315, -0.22729887, -1067414.4, 328516.34, 0.02776612, 10.0029955, 9.9989395 
2.588782e+3, 1.6755077e+2, -971424.44, -1367170.5, -121202.734, 0.4799579, -0.3357234, -937254.7, 360726.03, 0.0064744432, 10.003362, 9.99806 
2.5885418e+3, 1.7754543e+2, -732220.3, -1256844.8, -99406.266, 0.6165346, -0.38957387, -714016.4, 486015.34, 0.0005723583, 10.004546, 9.997587 
2.5883e+3, 1.8754126e+2, -654871.3, -1200869.5, -111138.2, 0.6610201, -0.24989827, -633115.94, 468959.44, 0.0000035552432, 10.004557, 9.997285 
2.5880578e+3, 1.9753757e+2, -637713.3, -1152978.8, -74470.97, 0.68241435, -0.063371, -627165.94, 376950.03, 0.0, 10.004041, 9.997194 
2.5878167e+3, 2.0753185e+2, -724144.1, -1060976.0, 76.48715, 0.5507869, -0.10551186, -724144.06, 182028.31, 0.0, 10.002435, 9.997915 
2.5875756e+3, 2.1752581e+2, -878605.4, -1030921.7, -53781.402, 0.34036607, -0.22878855, -861529.94, -53299.42, 0.0, 10.000461, 9.998409 
2.5873363e+3, 2.2752276e+2, -727337.06, -636501.4, -114798.22, 0.29999617, -0.233473, -558463.1, 151792.9, 0.0, 9.999677, 10.000814 
2.5870973e+3, 2.3752087e+2, -723490.5, -671636.9, -166000.53, 0.3499951, -0.21989107, -529550.6, 82718.51, 0.0, 9.99939, 10.000046 
2.5868565e+3, 2.4751715e+2, -688512.75, -748762.06, -187658.95, 0.39105147, -0.2290955, -528575.9, -14268.751, 0.0, 9.999591, 9.998734 
2.586615e+3, 2.57513e+2, -537155.94, -610010.8, -71390.26, 0.4071039, -0.24079923, -493436.5, -77083.73, 0.0, 9.99989, 9.998873 
2.586376e+3, 2.6751047e+2, -545187.5, -398382.22, 94099.016, 0.31412062, -0.1796675, -352442.6, -34057.652, 0.0, 9.998454, 10.000346 
2.5861382e+3, 2.775087e+2, -714364.2, -370964.5, 89597.88, 0.21667823, -0.11245576, -348992.94, -128583.164, 0.0, 9.996355, 10.000882 
2.5858995e+3, 2.8750828e+2, -376040.1, 159733.05, -40681.676, 0.2314784, -0.1227653, 162804.44, 285210.28, 0.0, 9.996649, 10.003707 
2.5856596e+3, 2.9750842e+2, -223246.94, 101475.02, -84081.17, 0.21450923, -0.18213032, 121954.766, 146345.16, 0.0, 9.997799, 10.002089 
2.5854188e+3, 3.0750334e+2, -564428.56, -490285.06, 47453.887, -0.048648234, -0.35977447, -467138.97, -467138.97, 0.0, 9.997065, 9.998045 
2.58518e+3, 3.174999e+2, -696080.44, -472927.88, -88007.3, -0.0024857684, -0.20358522, -442396.63, -442396.63, 0.0, 9.995791, 9.998783 
2.5997525e+3, 1.2781307e+2, -1379375.3, -2133070.0, -71886.88, 1.2725888, -0.22766311, -1372580.0, 314832.3, 0.16945846, 10.005379, 9.994529 
2.5995088e+3, 1.378074e+2, -1089256.9, -1875121.1, -45627.363, 1.1679868, 0.022489503, -1086616.6, 502870.94, 0.11389889, 10.006405, 9.995145 
2.5992644e+3, 1.4780103e+2, -948014.3, -1456049.9, 20241.285, 0.7484544, -0.012302832, -947209.1, 544338.7, 0.061293043, 10.005149, 9.997955 
2.5990206e+3, 1.577946e+2, -1112009.3, -1493453.1, -33140.367, 0.26660562, -0.17319994, -1109151.4, 284449.06, 0.023481091, 10.003133, 9.99799 
2.598781e+3, 1.6778924e+2, -944272.94, -1243836.8, -59583.367, 0.34557712, -0.28638402, -932856.8, 362790.47, 0.0052201967, 10.003071, 9.999051 
2.5985432e+3, 1.7778449e+2, -806545.44, -1215308.8, -68648.44, 0.59717095, -0.37327856, -795324.5, 402365.66, 0.00041937284, 10.003701, 9.9982815 
2.5982994e+3, 1.877816e+2, -716361.2, -1220271.3, -132644.61, 0.44932184, -0.13716872, -683577.9, 416144.63, 0.0000020172258, 10.0040865, 9.997381 
2.5980538e+3, 1.9777924e+2, -644048.0, -1184194.6, -113192.73, 0.1837548, 0.1751426, -621286.56, 380465.5, 0.0, 10.004117, 9.996946 
2.5978142e+3, 2.0777102e+2, -719546.25, -1189996.6, -74326.46, 0.33967122, -0.036819883, -708082.75, 195749.02, 0.0, 10.003022, 9.996753 
2.597576e+3, 2.1776122e+2, -818882.1, -1117734.6, -93010.1, 0.6104105, -0.4205922, -792299.6, 13624.736, 0.0, 10.001361, 9.997384 
2.5973353e+3, 2.277592e+2, -705478.7, -723661.8, -106333.1, 0.5091253, -0.23327938, -607849.2, 100095.99, 0.0, 10.000237, 9.999951 
2.5970933e+3, 2.3775993e+2, -741820.3, -700440.1, -147688.28, 0.29208258, 0.12390898, -571999.7, 37940.473, 0.0, 9.999343, 9.999876 
2.5968537e+3, 2.4775623e+2, -590590.4, -495451.7, -165103.38, 0.43887055, 0.006381867, -371201.47, 140772.36, 0.0, 9.999361, 10.000591 
2.596615e+3, 2.577513e+2, -481488.16, -415131.9, -86114.43, 0.67883176, -0.2666671, -356025.22, 57993.35, 0.0, 9.999536, 10.00039 
2.5963733e+3, 2.677502e+2, -528364.5, -333048.4, -1130.7894, 0.47520515, -0.15058856, -333041.88, -17008.35, 0.0, 9.998314, 10.000867 
2.596131e+3, 2.7775055e+2, -696747.44, -364953.78, 31021.42, 0.15248725, 0.07940901, -362078.3, -144041.08, 0.0, 9.996478, 10.00087 
2.5958934e+3, 2.8774878e+2, -497906.2, -102277.61, -1118.8862, 0.21288908, 0.046045646, -102274.445, 17779.77, 0.0, 9.996674, 10.0019045 
2.5956556e+3, 2.9774657e+2, -267884.84, 47224.504, -60589.438, 0.27940598, -0.08237459, 58473.133, 80545.28, 0.0, 9.9976225, 10.001808 
2.5954136e+3, 3.0774543e+2, -276546.66, 124385.81, -17270.238, 0.01249306, -0.12568995, 125128.36, 125128.36, 0.0, 9.996974, 10.00232 
2.595174e+3, 3.1774408e+2, -379343.28, 137710.44, 65921.48, 0.07721414, -0.18494725, 145982.72, 145982.72, 0.0, 9.995984, 10.002889 
2.6097533e+3, 1.2805153e+2, -1199206.5, -1818365.6, -111449.17, 1.0772748, -0.17872685, -1179756.5, 505331.47, 0.14984336, 10.0058155, 9.996497 
2.60951e+3, 1.3804904e+2, -896581.44, -1626337.8, -35163.535, 0.8900848, 0.20713034, -894891.0, 692232.1, 0.09978398, 10.007175, 9.996475 
2.609266e+3, 1.4804263e+2, -896578.0, -1480176.4, -13449.052, 0.64542466, 0.15174638, -896268.25, 592914.44, 0.052854747, 10.005709, 9.997502 
2.6090226e+3, 1.5803523e+2, -1085853.5, -1509223.1, -18732.59, 0.41715443, -0.058446873, -1085026.4, 306220.7, 0.019694293, 10.003429, 9.997737 
2.6087824e+3, 1.6802977e+2, -1007860.5, -1262937.6, 4283.048, 0.5007825, -0.17274562, -1007788.6, 285504.3, 0.0041638785, 10.002585, 9.99915 
2.6085436e+3, 1.7802516e+2, -1011734.9, -1314965.9, -26788.74, 0.66825557, -0.2505007, -1009386.44, 185945.1, 0.00030229846, 10.002308, 9.998259 
2.6083001e+3, 1.880208e+2, -862396.7, -1323074.0, -78400.96, 0.44710225, -0.13951145, -849419.5, 247957.75, 0.0000010444409, 10.003237, 9.997075 
2.6080546e+3, 1.9801657e+2, -596998.5, -1177925.5, -92831.79, 0.12474264, 0.017623492, -582524.6, 416899.72, 0.0, 10.004517, 9.996792 
2.607814e+3, 2.0800927e+2, -468287.34, -1049566.8, -64569.445, 0.23560597, -0.10541346, -461201.25, 440295.06, 0.0, 10.004673, 9.996919 
2.6075754e+3, 2.1800122e+2, -387516.94, -908012.2, -53680.51, 0.49308118, -0.32532242, -382038.34, 421535.44, 0.0, 10.004325, 9.997391 
2.6073337e+3, 2.279984e+2, -475625.25, -673751.7, -76372.88, 0.5218698, -0.17752713, -449603.16, 255999.61, 0.0, 10.002092, 9.999391 
2.6070914e+3, 2.3799758e+2, -772689.0, -749676.06, -86453.67, 0.46508107, 0.08191812, -673966.5, -66353.34, 0.0, 9.999297, 9.999549 
2.60685e+3, 2.4799357e+2, -736036.8, -549270.4, -103862.38, 0.4829512, -0.055680074, -502983.2, 6665.8184, 0.0, 9.998304, 10.000729 
2.6066092e+3, 2.5798884e+2, -700436.3, -488791.28, -112369.73, 0.5324739, -0.32266077, -440259.16, -28568.602, 0.0, 9.997902, 10.00067 
2.6063675e+3, 2.6798826e+2, -578984.9, -295437.44, -70515.81, 0.38800648, -0.20379846, -278868.9, 34829.438, 0.0, 9.997717, 10.001403 
2.6061258e+3, 2.7798912e+2, -539958.5, -273604.13, -40398.605, 0.20368446, 0.030110376, -267611.6, -51917.195, 0.0, 9.997508, 10.000988 
2.6058874e+3, 2.8798723e+2, -622317.4, -268680.06, -25374.316, 0.24217197, 0.040112227, -266868.66, -149152.1, 0.0, 9.996296, 10.000933 
2.6056483e+3, 2.979847e+2, -723376.6, -214196.89, -46574.1, 0.25048867, -0.03381451, -209971.88, -190227.77, 0.0, 9.994697, 10.001413 
2.6054063e+3, 3.0798483e+2, -516790.47, 156364.55, -136748.16, -0.022492396, -0.014888471, 183083.72, 183083.72, 0.0, 9.994722, 10.003605 
2.605166e+3, 3.1798345e+2, -190387.97, 476507.3, -80219.33, -0.023579326, -0.23780935, 486021.0, 486021.0, 0.0, 9.996249, 10.00507 
2.619754e+3, 1.2829003e+2, -1062161.3, -1503119.8, -7083.7456, 0.82952607, -0.12105644, -1062047.5, 620715.4, 0.1317933, 10.005661, 9.9989 
2.6195106e+3, 1.3829103e+2, -866779.5, -1453952.9, -12437.806, 0.5146265, 0.3819843, -866516.1, 718237.7, 0.086917795, 10.006576, 9.998033 
2.6192677e+3, 1.4828469e+2, -922687.06, -1531566.1, -95645.75, 0.51720273, 0.30022106, -908016.06, 578795.75, 0.0452828, 10.00563, 9.997198 
2.6190254e+3, 1.5827641e+2, -1016470.7, -1508545.1, -79924.8, 0.63998365, 0.031235652, -1003814.5, 385072.56, 0.016388636, 10.004047, 9.997451 
2.6187843e+3, 1.6827086e+2, -853117.25, -1220163.9, -26483.84, 0.69595194, -0.06596239, -851216.2, 439716.22, 0.0032885044, 10.00378, 9.998875 
2.6185438e+3, 1.782662e+2, -823309.0, -1266830.3, -56368.152, 0.7076194, -0.1208791, -816257.2, 376711.66, 0.00021471751, 10.003778, 9.997888 
2.618301e+3, 1.8825965e+2, -829730.4, -1355159.3, -65791.01, 0.49090126, -0.19107783, -821617.7, 273416.7, 0.00000047553752, 10.003657, 9.996657 
2.618057e+3, 1.9825281e+2, -743871.3, -1263883.8, -81434.21, 0.21007355, -0.2610155, -731417.0, 265688.78, 0.0, 10.003566, 9.996664 
2.617815e+3, 2.0824777e+2, -603567.75, -1045952.2, -83417.7, 0.16462624, -0.195043, -588360.9, 310796.75, 0.0, 10.00344, 9.997541 
2.6175737e+3, 2.1824332e+2, -547349.9, -951481.0, -95322.49, 0.21006922, -0.11349705, -525994.6, 275208.47, 0.0, 10.003075, 9.997699 
2.6173323e+3, 2.2823882e+2, -589603.44, -781125.06, -184744.98, 0.46029443, -0.11800114, -477275.7, 225970.8, 0.0, 10.001522, 9.998934 
2.6170903e+3, 2.3823462e+2, -799956.9, -824940.5, -160973.23, 0.72372955, -0.1493011, -650991.44, -45705.12, 0.0, 9.999367, 9.999006 
2.6168454e+3, 2.4823026e+2, -758347.94, -646514.4, -117346.52, 0.4883503, -0.2537436, -572443.1, -65116.582, 0.0, 9.998519, 9.999961 
2.6166e+3, 2.5822616e+2, -708924.06, -534329.0, -115706.9, 0.12398189, -0.38486087, -476681.94, -67317.95, 0.0, 9.9980135, 10.00031 
2.6163602e+3, 2.682253e+2, -540174.9, -227023.9, -78841.54, 0.16337702, -0.31375158, -208294.31, 103078.04, 0.0, 9.997753, 10.001864 
2.6161215e+3, 2.782256e+2, -534450.8, -255101.27, -72430.03, 0.31689185, -0.18161152, -237438.34, -24067.521, 0.0, 9.997465, 10.0011425 
2.615881e+3, 2.8822437e+2, -641363.9, -324654.97, -98993.31, 0.27001908, -0.081738055, -296258.75, -180871.25, 0.0, 9.99636, 10.000523 
2.6156387e+3, 2.982228e+2, -741897.06, -303264.4, -89343.72, 0.098549746, -0.015587356, -285764.47, -268356.34, 0.0, 9.994901, 10.0007105 
2.6153973e+3, 3.0822146e+2, -599946.8, -43185.395, -119713.76, -0.11669379, -0.025647528, -18536.066, -18536.066, 0.0, 9.994815, 10.002202 
2.615158e+3, 3.1821784e+2, -164861.31, 474291.03, 102298.37, -0.2309219, -0.36085916, 490265.0, 490265.0, 0.0, 9.996437, 10.00499 
2.6297566e+3, 1.285317e+2, -1047844.94, -1493938.9, 111703.63, 0.80426276, -0.09337465, -1021437.2, 658952.4, 0.11522528, 10.005644, 9.998959 
2.6295125e+3, 1.3852997e+2, -941012.44, -1503783.4, 32954.508, 0.38462678, 0.14542733, -939089.25, 643312.9, 0.07523348, 10.005997, 9.9979315 
2.6292706e+3, 1.4852281e+2, -944265.1, -1591819.5, -95572.66, 0.55123574, 0.018660462, -930454.06, 554014.56, 0.038526464, 10.005654, 9.99677 
2.6290295e+3, 1.5851443e+2, -894654.1, -1518289.9, -65407.81, 0.87407666, -0.21206476, -887867.94, 498679.2, 0.013526648, 10.005195, 9.99682 
2.6287863e+3, 1.6850857e+2, -636650.3, -1250738.1, 1723.5693, 0.67301565, -0.2372545, -636645.5, 651953.8, 0.00257162, 10.00586, 9.997657 
2.628543e+3, 1.7850351e+2, -461994.25, -1175387.5, -98329.95, 0.35274917, -0.21804805, -448689.16, 741954.56, 0.00015053582, 10.006617, 9.997147 
2.6283008e+3, 1.8849733e+2, -705200.1, -1269938.1, -166767.98, 0.3716208, -0.24126507, -659630.4, 433077.03, 0.0000001940375, 10.004412, 9.996875 
2.6280588e+3, 1.9849116e+2, -1008302.94, -1333229.3, -145253.08, 0.4585574, -0.270809, -952837.8, 41935.332, 0.0, 10.00151, 9.997175 
2.627816e+3, 2.0848781e+2, -988030.6, -1120318.4, -93799.08, 0.37996858, -0.11750078, -939399.6, -42590.3, 0.0, 10.000345, 9.998508 
2.6275724e+3, 2.1848513e+2, -991620.56, -1099805.0, -100832.85, 0.28125557, 0.055127203, -931287.1, -132449.31, 0.0, 9.999755, 9.998269 
2.6273292e+3, 2.2847953e+2, -847312.25, -940477.56, -182199.42, 0.42987013, -0.05584981, -705834.9, -4944.386, 0.0, 9.999907, 9.998615 
2.6270863e+3, 2.3847352e+2, -700826.5, -805730.5, -155639.27, 0.6411102, -0.23714407, -589038.44, 13907.775, 0.0, 10.000174, 9.998744 
2.6268417e+3, 2.4846995e+2, -628900.2, -610699.0, -91900.5, 0.47585246, -0.23613276, -527449.56, -22468.867, 0.0, 9.999538, 9.999709 
2.6265964e+3, 2.584672e+2, -652855.44, -558792.7, -70046.93, 0.1976084, -0.20074327, -521452.72, -114444.76, 0.0, 9.998635, 9.999833 
2.6263547e+3, 2.684647e+2, -594899.94, -366079.63, -85069.03, 0.11836026, -0.20247412, -337919.0, -28886.94, 0.0, 9.997865, 10.0008545 
2.6261142e+3, 2.784627e+2, -624954.4, -360818.0, -152933.53, 0.14710443, -0.20621127, -290820.2, -79768.44, 0.0, 9.997111, 10.000587 
2.625874e+3, 2.884611e+2, -489803.78, -216229.77, -161901.44, 0.20026621, -0.15542053, -141066.88, -27998.006, 0.0, 9.997246, 10.000839 
2.625633e+3, 2.9845965e+2, -383721.03, -151756.95, -123641.875, 0.17678554, -0.099463046, -98212.74, -83128.25, 0.0, 9.997455, 10.000518 
2.6253915e+3, 3.084575e+2, -541599.4, -144442.84, -144364.34, 0.056046806, -0.10925775, -97512.664, -97512.664, 0.0, 9.995791, 10.001028 
2.625151e+3, 3.1845346e+2, -847956.25, -463.10327, 125935.26, -0.11431057, -0.3671099, 17854.625, 17854.625, 0.0, 9.992398, 10.003666 
2.6397592e+3, 1.2877388e+2, -1062202.0, -1530108.3, 116220.21, 0.7754021, -0.099553645, -1034925.0, 643082.94, 0.10009422, 10.005597, 9.998672 
2.6395148e+3, 1.3876896e+2, -996397.75, -1588517.1, 44967.79, 0.32422784, -0.15262128, -993002.25, 587046.4, 0.064671025, 10.005793, 9.997405 
2.639274e+3, 1.4876105e+2, -888864.1, -1627447.5, -104212.62, 0.6143985, -0.2973087, -874441.56, 607681.9, 0.03252671, 10.006283, 9.996224 
2.6390338e+3, 1.5875266e+2, -763553.25, -1545811.3, -59785.44, 1.0460513, -0.46979004, -759010.44, 625193.7, 0.011065214, 10.006482, 9.9960165 
2.6387885e+3, 1.6874628e+2, -726916.9, -1440559.1, 57142.676, 0.5754841, -0.43621716, -722370.3, 563895.9, 0.0019924843, 10.005867, 9.996351 
2.6385424e+3, 1.7874064e+2, -743773.44, -1396904.8, -59020.086, -0.06455618, -0.35172948, -738482.94, 449838.7, 0.00010500866, 10.00505, 9.996384 
2.6383007e+3, 1.8873551e+2, -757342.8, -1251251.4, -197633.73, 0.23205814, -0.26711845, -687997.4, 402379.5, 0.00000008640195, 10.003859, 9.997271 
2.6380605e+3, 1.9873089e+2, -853981.06, -1197187.0, -146087.38, 0.7214636, -0.18359573, -800219.7, 192209.16, 0.0, 10.0022955, 9.997735 
2.637816e+3, 2.0872872e+2, -796299.5, -927066.56, -76436.516, 0.66211545, 0.009257056, -761097.0, 133356.78, 0.0, 10.001217, 9.999418 
2.6375714e+3, 2.1872696e+2, -874604.4, -992628.3, -100317.11, 0.4596642, 0.18925326, -817229.4, -20755.924, 0.0, 10.00033, 9.9987335 
2.6373258e+3, 2.2872064e+2, -799439.25, -945431.8, -153966.1, 0.38860172, 0.0063078846, -702041.8, -3509.5994, 0.0, 10.000349, 9.99837 
2.6370808e+3, 2.3871368e+2, -683641.8, -818728.4, -130792.83, 0.36888802, -0.24437849, -603981.6, -3385.408, 0.0, 10.000377, 9.998561 
2.6368383e+3, 2.4871145e+2, -628021.2, -617644.3, -108367.72, 0.4613951, -0.09946158, -514340.9, -11720.873, 0.0, 9.999561, 9.999655 
2.636595e+3, 2.5871027e+2, -725895.4, -677229.44, -86397.44, 0.5142812, 0.11247069, -611803.8, -207168.78, 0.0, 9.99848, 9.999101 
2.6363498e+3, 2.6870555e+2, -714704.94, -638377.2, -94408.16, 0.14115807, 0.03637781, -574710.94, -268027.66, 0.0, 9.997958, 9.998943 
2.6361048e+3, 2.7870032e+2, -643208.7, -474444.44, -136376.23, -0.24405314, -0.11616391, -398455.7, -189720.27, 0.0, 9.997427, 9.9996605 
2.6358673e+3, 2.886975e+2, -420573.75, -95947.44, -129162.8, 0.07952353, -0.20543921, -50827.26, 59929.863, 0.0, 9.997331, 10.001633 
2.63563e+3, 2.986956e+2, -392805.66, -139252.27, -133750.98, 0.43241557, -0.26562548, -81742.08, -68972.08, 0.0, 9.997308, 10.000681 
2.6353878e+3, 3.0869302e+2, -614389.1, -294492.84, -224279.63, 0.41352764, -0.25334418, -178969.11, -178969.11, 0.0, 9.995772, 10.000015 
2.6351437e+3, 3.186922e+2, -1023712.6, -359176.1, -60791.547, 0.21066731, -0.056023274, -353660.7, -353660.7, 0.0, 9.992387, 10.0012 
2.6497602e+3, 1.2901497e+2, -1016039.4, -1489491.4, 158282.39, 0.60763115, -0.28276977, -967997.94, 707637.44, 0.086346745, 10.005768, 9.998879 
2.6495197e+3, 1.3901116e+2, -1022345.6, -1638972.9, 105358.49, 0.51887983, -0.22307229, -1004840.75, 572828.8, 0.055174176, 10.005705, 9.997103 
2.6492777e+3, 1.4900428e+2, -825530.1, -1699211.6, -8218.315, 0.6170154, -0.18361844, -825452.8, 654288.3, 0.027230898, 10.007174, 9.995285 
2.649036e+3, 1.5899694e+2, -466309.13, -1423654.1, -34414.87, 0.7803007, -0.17227054, -465073.56, 916745.06, 0.008966636, 10.008638, 9.995806 
2.6487914e+3, 1.6899069e+2, -684481.5, -1332343.1, 33262.59, 0.58101875, -0.16531238, -682778.2, 601102.56, 0.0015318943, 10.005798, 9.997122 
2.648546e+3, 1.7898503e+2, -1077041.3, -1456730.6, 29442.668, 0.2875341, -0.1489016, -1074771.6, 111164.625, 0.000073819894, 10.002337, 9.997273 
2.6483023e+3, 1.8898033e+2, -817070.2, -1172923.3, 8970.395, 0.343569, -0.106180735, -816844.25, 271138.84, 0.000000036839044, 10.002997, 9.998219 
2.6480588e+3, 1.9897597e+2, -535113.7, -1024919.8, 47908.887, 0.5066516, -0.059527308, -530471.6, 459555.5, 0.0, 10.004419, 9.997884 
2.6478148e+3, 2.0897126e+2, -541618.7, -946152.06, 18102.523, 0.52866906, -0.027020156, -540810.25, 351266.3, 0.0, 10.003574, 9.99815 
2.6475704e+3, 2.1896683e+2, -621966.7, -913419.94, -67565.234, 0.49436748, 0.00016293889, -607065.5, 187057.61, 0.0, 10.002255, 9.998347 
2.647324e+3, 2.2896221e+2, -523510.8, -712277.3, -68307.2, 0.3603673, -0.053769205, -501386.22, 194779.44, 0.0, 10.001835, 9.999247 
2.6470777e+3, 2.3895767e+2, -502078.44, -696680.9, -28321.795, 0.24340658, -0.13160934, -498040.38, 100166.664, 0.0, 10.001487, 9.998858 
2.646834e+3, 2.4895476e+2, -648893.1, -699327.9, -52747.656, 0.3924882, -0.01229549, -615644.8, -115405.16, 0.0, 9.999731, 9.999011 
2.6465908e+3, 2.5895232e+2, -839343.8, -766394.1, -10918.045, 0.55928904, 0.13961759, -764795.1, -362526.4, 0.0, 9.997855, 9.998788 
2.6463464e+3, 2.689476e+2, -605406.4, -571402.25, 115208.43, 0.25313914, 0.075186506, -471948.1, -167632.92, 0.0, 9.998662, 9.999061 
2.646102e+3, 2.7894256e+2, -316215.75, -334827.88, 136280.88, -0.091484696, -0.047688045, -188923.58, 17440.193, 0.0, 9.999765, 9.999488 
2.6458624e+3, 2.8893957e+2, -395103.44, -155156.95, 55875.035, 0.14519118, -0.08720161, -142783.69, -34393.152, 0.0, 9.997833, 10.000975 
2.645623e+3, 2.9893738e+2, -721456.9, -347752.47, -17108.117, 0.4107646, -0.101045035, -346970.9, -336561.2, 0.0, 9.995283, 10.0002165 
2.645381e+3, 3.089345e+2, -733258.3, -378423.53, -61905.51, 0.51649, -0.07814144, -367933.44, -367933.44, 0.0, 9.995081, 9.999769 
2.645136e+3, 3.1893378e+2, -543630.2, -166306.84, 119838.98, 0.28952637, 0.17445903, -131463.23, -131463.23, 0.0, 9.995876, 10.000833 
2.6597622e+3, 1.2925655e+2, -1028567.06, -1516658.0, 79141.92, 0.496289, -0.41916314, -1016055.25, 657204.25, 0.07391282, 10.005712, 9.998684 
2.659524e+3, 1.3925394e+2, -1084272.5, -1723345.8, 3880.3877, 0.6941385, -0.22201703, -1084248.9, 491039.4, 0.04668156, 10.005447, 9.996644 
2.6592815e+3, 1.4924839e+2, -1056305.3, -1886108.9, -3927.1797, 0.56467384, 0.00083942094, -1056286.6, 421066.66, 0.022587078, 10.005832, 9.994653 
2.659038e+3, 1.5924236e+2, -804087.7, -1581005.4, -36533.875, 0.43526995, 0.192148, -802373.5, 577050.25, 0.0071945633, 10.006256, 9.995878 
2.6587948e+3, 1.6923673e+2, -720801.4, -1226789.5, -97701.05, 0.62011147, 0.17717321, -702591.6, 578889.3, 0.0011704804, 10.005006, 9.998231 
2.6585507e+3, 1.7923146e+2, -876731.06, -1243621.9, -46951.195, 0.7836004, 0.11676004, -870818.0, 312714.28, 0.000052712003, 10.003205, 9.9983225 
2.6583037e+3, 1.8922713e+2, -684126.56, -998538.2, 22666.54, 0.47812063, 0.093195625, -682500.9, 403068.72, 0.000000014947995, 10.003433, 9.9992075 
2.6580566e+3, 1.992227e+2, -621100.6, -1096291.6, 7346.344, 0.1366727, 0.05565227, -620987.1, 366620.94, 0.0, 10.00395, 9.997627 
2.6578125e+3, 2.0921448e+2, -785155.44, -1278590.8, -53574.336, 0.2641716, -0.123044826, -779405.7, 110285.27, 0.0, 10.002819, 9.99624 
2.6575688e+3, 2.1920641e+2, -796554.44, -1064676.6, -77884.17, 0.45025676, -0.2948018, -775572.56, 16201.021, 0.0, 10.001338, 9.997757 
2.6573226e+3, 2.2920454e+2, -550761.7, -587004.06, -56373.387, 0.3309102, -0.1487522, -509668.53, 184122.22, 0.0, 10.0010395, 10.000496 
2.6570755e+3, 2.3920363e+2, -582829.56, -701621.3, -58397.07, 0.17026764, 0.033228543, -558930.25, 36867.85, 0.0, 10.000779, 9.99917 
2.6568297e+3, 2.4919897e+2, -719983.1, -839300.56, -129644.03, 0.2811223, 0.037547503, -636929.8, -139080.52, 0.0, 9.999696, 9.99807 
2.6565844e+3, 2.5919393e+2, -768240.0, -733862.7, -25348.545, 0.42888433, 0.0048330687, -720424.56, -320520.03, 0.0, 9.9983425, 9.998781 
2.656344e+3, 2.6919073e+2, -511486.53, -385367.38, 168295.66, 0.4318261, 0.00089078955, -268705.13, 33226.87, 0.0, 9.998685, 10.000336 
2.6561037e+3, 2.7918807e+2, -388196.5, -363095.75, 123507.53, 0.3953099, 0.014102814, -251502.58, -47548.844, 0.0, 9.99923, 9.9995575 
2.655859e+3, 2.8918582e+2, -546617.75, -424242.25, -47296.83, 0.29705834, 0.16279449, -408093.5, -302109.38, 0.0, 9.997626, 9.999231 
2.6556128e+3, 2.9918376e+2, -761613.25, -463969.13, -68130.02, 0.12806693, 0.32137808, -449115.56, -441101.8, 0.0, 9.995412, 9.999364 
2.6553723e+3, 3.091813e+2, -685733.75, -301596.78, -45242.406, 0.40697023, 0.37587166, -296340.2, -296340.2, 0.0, 9.995164, 10.000264 
2.655128e+3, 3.1917587e+2, -409958.06, 78779.055, 182935.56, 0.17883267, 0.08440403, 139666.8, 139666.8, 0.0, 9.995982, 10.002484 
2.669769e+3, 1.2949918e+2, -1210440.1, -1946823.6, 28302.701, 0.86621326, -0.2001666, -1209354.0, 461530.16, 0.06269228, 10.005814, 9.995591 
2.6695237e+3, 1.394928e+2, -1126036.5, -1776767.5, -131214.9, 0.3903765, -0.13393058, -1100574.3, 472385.9, 0.03911075, 10.005254, 9.996373 
2.6692814e+3, 1.4948775e+2, -1102723.5, -1553588.4, -69131.555, 0.39177558, -0.087131515, -1092361.6, 382649.44, 0.018534988, 10.003978, 9.997818 
2.6690397e+3, 1.59483e+2, -1175529.0, -1576240.1, 7377.8057, 0.50233847, -0.04614744, -1175393.3, 201664.64, 0.0057095317, 10.002884, 9.997534 
2.6687953e+3, 1.6947833e+2, -904951.9, -1343590.1, -44904.246, 0.5439794, 0.013319692, -900402.1, 378704.97, 0.00088893966, 10.00388, 9.997961 
2.66855e+3, 1.794739e+2, -619859.56, -1138506.0, -59343.125, 0.5628543, 0.06258467, -613156.2, 567998.0, 0.0000379645, 10.005068, 9.998135 
2.6683047e+3, 1.8946971e+2, -579360.44, -977569.8, -54450.65, 0.4758607, 0.07594607, -572049.2, 511146.4, 0.0000000057994387, 10.004287, 9.998938 
2.6680592e+3, 1.9946547e+2, -735078.75, -1107563.8, -130768.9, 0.35953254, 0.068162225, -693754.2, 291482.34, 0.0, 10.002989, 9.998007 
2.6678118e+3, 2.0945898e+2, -969621.25, -1235779.0, -131323.14, 0.31744704, -0.035312, -915735.56, -28434.506, 0.0, 10.001001, 9.997404 
2.6675645e+3, 2.1945255e+2, -1069069.3, -1101353.4, -25805.043, 0.31931996, -0.14836554, -1054773.4, -265408.47, 0.0, 9.999065, 9.998594 
2.6673195e+3, 2.294504e+2, -897490.06, -725402.06, 21368.482, 0.37839413, -0.066388324, -722788.4, -31405.283, 0.0, 9.998532, 10.000752 
2.6670742e+3, 2.3944896e+2, -933948.5, -895745.44, -6150.07, 0.4191861, 0.051784914, -894779.75, -301384.72, 0.0, 9.998482, 9.9989395 
2.6668268e+3, 2.4944374e+2, -729456.4, -927751.0, -59926.55, 0.32774425, 0.064644285, -712753.0, -217299.38, 0.0, 9.999999, 9.997311 
2.6665798e+3, 2.594381e+2, -350318.22, -536315.3, 13741.363, 0.25328577, 0.034868483, -349308.5, 48207.566, 0.0, 10.00124, 9.998734 
2.666339e+3, 2.694349e+2, -505913.47, -299250.3, 132288.34, 0.3635155, -0.018839553, -234719.97, 64819.906, 0.0, 9.998384, 10.001059 
2.6660988e+3, 2.7943245e+2, -974990.2, -629606.06, 85248.45, 0.49207714, -0.04463319, -609710.9, -408154.78, 0.0, 9.995146, 9.999686 
2.6658523e+3, 2.8943023e+2, -851474.9, -635511.44, 179.14964, 0.2549372, 0.15223311, -635511.25, -531922.4, 0.0, 9.99583, 9.998638 
2.6656044e+3, 2.994282e+2, -533942.06, -372045.3, 42139.355, -0.05892562, 0.36945555, -361733.8, -356111.75, 0.0, 9.997066, 9.999189 
2.665365e+3, 3.094256e+2, -400006.34, -121066.3, 77158.81, 0.3708951, 0.39600602, -101145.695, -101145.695, 0.0, 9.996951, 10.000634 
2.6651198e+3, 3.1941912e+2, -543872.0, 84673.44, 163406.19, 0.11248236, -0.042872716, 124616.65, 124616.65, 0.0, 9.994771, 10.003098 
2.6797748e+3, 1.29742e+2, -1144210.8, -2263403.5, 66425.79, 1.1415136, 0.023905737, -1140282.0, 528227.25, 0.052579388, 10.007764, 9.992476 
2.6795223e+3, 1.3973196e+2, -990797.25, -1715367.1, -43328.996, 0.02109992, -0.035785973, -988215.44, 582415.1, 0.032382153, 10.006206, 9.996336 
2.679281e+3, 1.4972724e+2, -783501.0, -1014316.25, -50380.26, 0.23898128, -0.20967133, -772983.7, 699683.2, 0.015020994, 10.004487, 10.001335 
2.679041e+3, 1.597235e+2, -1048596.6, -1334525.0, 5982.457, 0.6477299, -0.37354115, -1048471.5, 326218.63, 0.004474846, 10.002975, 9.999155 
2.6787946e+3, 1.6971953e+2, -1002817.5, -1452527.9, 27808.79, 0.4318695, -0.2511995, -1001104.4, 275629.13, 0.00066898135, 10.003455, 9.997427 
2.6785478e+3, 1.7971563e+2, -821806.94, -1304418.5, -4028.5754, 0.16593166, -0.08977213, -821773.3, 357006.1, 0.000027210404, 10.003963, 9.997536 
2.6783055e+3, 1.8971153e+2, -851000.06, -1182981.5, -50673.77, 0.44803584, -0.0014016747, -843437.5, 237390.94, 0.000000001728097, 10.002741, 9.998274 
2.6780626e+3, 1.9970764e+2, -946775.3, -1143990.0, -140278.36, 0.733148, 0.0669875, -873914.25, 108959.64, 0.0, 10.001249, 9.9986 
2.677811e+3, 2.0970444e+2, -857214.9, -943594.6, -175728.83, 0.45098847, 0.12156667, -719446.25, 165457.97, 0.0, 10.000743, 9.9995365 
2.677559e+3, 2.197013e+2, -854558.75, -876567.8, -60237.723, 0.15012649, 0.15018573, -804328.6, -17396.543, 0.0, 10.00001, 9.999688 
2.6773158e+3, 2.2969772e+2, -775185.0, -690110.7, -3615.4644, 0.46348563, 0.071450494, -689957.3, -995.26715, 0.0, 9.999471, 10.0005455 
2.6770735e+3, 2.3969409e+2, -883277.56, -927394.3, -4753.237, 0.7838059, -0.0006565254, -882771.25, -291777.22, 0.0, 9.999063, 9.998447 
2.676825e+3, 2.4968906e+2, -775250.06, -1022614.7, 1824.9917, 0.42388007, 0.089802615, -775236.6, -282183.94, 0.0, 9.999991, 9.996666 
2.6765758e+3, 2.59684e+2, -429795.22, -592187.25, 2198.9504, 0.010645294, 0.16621657, -429765.47, -34654.145, 0.0, 10.000761, 9.998586 
2.676332e+3, 2.6967975e+2, -475627.72, -254134.81, -2980.0376, 0.12891482, -0.010389002, -254094.72, 43047.117, 0.0, 9.998443, 10.001348 
2.676089e+3, 2.79676e+2, -883506.7, -564438.6, 32518.459, 0.30055177, -0.18999478, -561158.2, -361991.28, 0.0, 9.995673, 9.999886 
2.6758432e+3, 2.8967336e+2, -791903.2, -583637.3, 51396.69, 0.07140452, -0.054533478, -571644.06, -470443.16, 0.0, 9.996121, 9.998862 
2.675597e+3, 2.9967102e+2, -515901.72, -337759.3, 64148.516, -0.19394934, 0.10737473, -317063.9, -313829.5, 0.0, 9.997064, 9.9994335 
2.6753592e+3, 3.0966762e+2, -391562.7, -102282.95, 59301.094, 0.39012223, 0.03348862, -90598.445, -90598.445, 0.0, 9.996935, 10.000775 
2.675111e+3, 3.1966498e+2, -612950.6, -33234.594, -121228.21, 0.056490883, -0.008145602, -8904.85, -8904.85, 0.0, 9.994651, 10.00235 
2.689777e+3, 1.2998396e+2, -791898.75, -2051954.4, 88715.71, 0.6908378, -0.18879725, -785683.3, 880458.4, 0.043507773, 10.010075, 9.992821 
2.6895276e+3, 1.3997719e+2, -801592.8, -1572853.4, 55235.344, 0.11765285, 0.0499589, -797657.06, 770575.5, 0.026438631, 10.007296, 9.996785 
2.689284e+3, 1.4997317e+2, -687211.06, -959052.0, -1082.2823, 0.38094842, -0.061861034, -687206.75, 783054.25, 0.01199655, 10.0051, 10.001417 
2.689042e+3, 1.5996957e+2, -968885.44, -1229015.3, 11490.388, 0.7511512, -0.22570336, -968378.9, 403902.66, 0.0034543257, 10.003234, 9.999751 
2.688796e+3, 1.6996485e+2, -1037202.1, -1343798.0, 104456.48, 0.555101, -0.27418885, -1004996.94, 269330.06, 0.000496053, 10.002681, 9.998539 
2.688549e+3, 1.7996038e+2, -1075427.4, -1387407.5, 74622.695, 0.29696414, -0.25214693, -1058497.0, 117877.125, 0.00001910138, 10.002058, 9.997875 
2.6883024e+3, 1.8995756e+2, -1327083.6, -1465744.6, -1510.2554, 0.39012522, 0.00010323753, -1327067.3, -248650.52, 0.0000000002885943, 9.999713, 9.997782 
2.6880565e+3, 1.9995484e+2, -1436534.6, -1364927.5, -13805.366, 0.53811675, 0.2256577, -1362358.0, -381901.25, 0.0, 9.997823, 9.998727 
2.6878086e+3, 2.099507e+2, -855534.5, -859620.6, -4269.8496, 0.47802052, 0.14032483, -852844.1, 29647.39, 0.0, 10.000406, 10.000266 
2.6875603e+3, 2.1994664e+2, -415513.63, -701443.6, 2692.567, 0.39068666, 0.030717365, -415488.28, 369035.6, 0.0, 10.003198, 9.999342 
2.6873145e+3, 2.2994235e+2, -418583.22, -693177.44, -52140.707, 0.48314902, 0.009237123, -409015.94, 277549.34, 0.0, 10.002686, 9.99897 
2.6870692e+3, 2.3993823e+2, -534605.7, -767053.25, -92359.44, 0.5942644, 0.008390835, -502376.66, 86230.02, 0.0, 10.001504, 9.998363 
2.6868215e+3, 2.4993446e+2, -690206.06, -817529.8, -2779.6624, 0.3956397, 0.11644726, -690145.4, -199495.0, 0.0, 9.999876, 9.998123 
2.686574e+3, 2.5993067e+2, -728418.06, -684179.4, 81419.65, 0.15967566, 0.20415613, -621927.94, -229234.63, 0.0, 9.998496, 9.999041 
2.6863286e+3, 2.6992625e+2, -383692.7, -284790.75, 42445.945, 0.1800681, 0.05319468, -269072.28, 25655.979, 0.0, 9.999411, 10.000666 
2.686084e+3, 2.7992195e+2, -235478.45, -271479.5, 27735.47, 0.25270584, -0.12186309, -220414.27, -23653.0, 0.0, 10.000216, 9.999703 
2.6858383e+3, 2.899186e+2, -426443.47, -359731.2, 49823.32, 0.13112469, -0.082902744, -333129.06, -234331.17, 0.0, 9.998436, 9.999278 
2.6855925e+3, 2.9991564e+2, -577561.9, -310127.94, 82005.63, -0.023845915, -0.021515192, -286984.6, -286152.7, 0.0, 9.99641, 9.9999275 
2.6853526e+3, 3.0991247e+2, -472279.03, -81439.86, 108445.0, 0.37062636, -0.122391604, -53366.42, -53366.42, 0.0, 9.996136, 10.001295 
2.685103e+3, 3.1991246e+2, -512631.72, -57751.617, -247465.73, 0.06182631, 0.078457884, 50915.85, 50915.85, 0.0, 9.9956665, 10.001686 
2.6997787e+3, 1.3022752e+2, -1070079.8, -2053524.6, 34249.516, 0.21882309, -0.36658543, -1068888.4, 594870.8, 0.03542616, 10.007438, 9.994079 
2.6995334e+3, 1.4022443e+2, -916029.1, -1594734.0, 52072.164, 0.30755335, 0.13295364, -912057.25, 653754.75, 0.021217732, 10.006304, 9.997114 
2.699288e+3, 1.5022089e+2, -732119.1, -1074130.0, -18670.451, 0.55228865, 0.12309064, -731102.94, 736735.06, 0.0094008325, 10.005183, 10.000569 
2.6990432e+3, 1.6021714e+2, -852789.75, -1145772.4, -4876.0786, 0.80411947, 0.0028758228, -852708.6, 517153.28, 0.002610945, 10.003919, 9.999995 
2.6987973e+3, 1.7021158e+2, -904519.0, -1125003.0, 82431.375, 0.7150617, -0.23718557, -877108.44, 394800.78, 0.00035975053, 10.00293, 9.999921 
2.6985502e+3, 1.8020655e+2, -1067379.9, -1340793.4, -9992.367, 0.53335476, -0.38599104, -1067015.1, 106941.016, 0.000012945302, 10.001929, 9.998261 
2.6982987e+3, 1.9020522e+2, -1198047.0, -1453565.5, -103090.125, 0.30137673, 0.036109503, -1161641.6, -85653.11, 0.000000000007316074, 10.000801, 9.997351 
2.6980478e+3, 2.0020364e+2, -1163790.1, -1243571.3, 9252.807, 0.15413001, 0.41174975, -1162731.1, -184709.77, 0.0, 9.999733, 9.998645 
2.697806e+3, 2.1019733e+2, -726392.9, -779719.06, 108877.86, 0.4787119, 0.09197462, -640960.9, 239111.19, 0.0, 10.001207, 10.000435 
2.697564e+3, 2.2019082e+2, -554411.4, -890482.0, 31618.111, 0.74831724, -0.24484304, -551462.56, 230661.2, 0.0, 10.00276, 9.998262 
2.6973134e+3, 2.3018618e+2, -631747.44, -1031226.8, -75142.27, 0.43081045, -0.119955316, -618080.7, 66095.27, 0.0, 10.002229, 9.99687 
2.697063e+3, 2.4018225e+2, -575385.1, -765898.4, -102309.97, 0.1242854, 0.05136994, -530852.06, 55370.254, 0.0, 10.001125, 9.998559 
2.6968175e+3, 2.5018013e+2, -526129.5, -465413.44, -52071.83, 0.31724775, 0.13563044, -435496.4, 52748.523, 0.0, 9.999818, 10.000574 
2.6965728e+3, 2.60178e+2, -667724.8, -592965.8, 67594.52, 0.50431365, 0.19206385, -553103.8, -162837.45, 0.0, 9.998637, 9.999605 
2.696327e+3, 2.701739e+2, -479524.7, -476873.78, 88216.16, 0.37754944, 0.15773386, -389973.13, -97669.016, 0.0, 9.9993725, 9.99937 
2.6960814e+3, 2.8016964e+2, -297148.0, -346724.28, 13897.973, 0.26120716, 0.093346536, -293517.75, -99174.64, 0.0, 9.999978, 9.999306 
2.695836e+3, 2.901654e+2, -402741.25, -296409.3, -35415.56, 0.36931092, 0.015638907, -285693.5, -189310.56, 0.0, 9.998362, 9.999754 
2.69559e+3, 3.0016175e+2, -518545.6, -210796.53, 41211.637, 0.36198044, -0.04859575, -205373.33, -205373.33, 0.0, 9.996498, 10.000574 
2.6953444e+3, 3.1015995e+2, -407278.47, 38229.367, 104706.43, 0.24221773, -0.089578696, 61611.07, 61611.07, 0.0, 9.996191, 10.002096 
2.6950967e+3, 3.2016087e+2, -541307.4, -137845.66, -366426.06, 0.17909476, 0.15599051, 78709.75, 78709.75, 0.0, 9.995724, 10.001125 
2.7097827e+3, 1.3047922e+2, -1213874.5, -1756436.5, 128722.695, 0.346556, 0.008436789, -1184884.1, 476419.94, 0.028279597, 10.004778, 9.997403 
2.7095377e+3, 1.4047486e+2, -1025296.3, -1599023.3, 172985.69, 0.4573561, 0.13655049, -977175.2, 586178.4, 0.016655728, 10.005293, 9.997575 
2.7092904e+3, 1.5046948e+2, -861050.4, -1371630.1, 72992.4, 0.56243134, 0.10494807, -850820.3, 614583.5, 0.007180266, 10.005321, 9.998429 
2.7090436e+3, 1.6046426e+2, -761632.8, -1220325.6, 23806.93, 0.6795904, 0.02993498, -760400.5, 607049.94, 0.0019164607, 10.005058, 9.998931 
2.7087966e+3, 1.7045933e+2, -849575.1, -1117218.8, 40279.652, 0.61365724, -0.10412173, -843644.56, 425848.03, 0.00025259473, 10.003384, 9.99976 
2.7085492e+3, 1.804549e+2, -1026864.06, -1276803.5, -50613.637, 0.5003228, -0.19343536, -1017003.6, 154528.83, 0.000008335759, 10.002015, 9.998656 
2.708298e+3, 1.9045234e+2, -797431.56, -1165185.9, -68615.625, 0.33535263, 0.033565547, -785046.4, 288521.16, 0.0, 10.00316, 9.998185 
2.7080482e+3, 2.0044962e+2, -506604.16, -916196.5, 61216.86, 0.23289417, 0.2352479, -497650.53, 477952.75, 0.0, 10.004219, 9.998722 
2.7078056e+3, 2.1044366e+2, -506450.44, -753226.94, 117582.055, 0.48573592, 0.008815307, -459397.5, 418257.28, 0.0, 10.003078, 9.999707 
2.7075627e+3, 2.2043778e+2, -701749.2, -955661.8, 6595.243, 0.6973456, -0.2118649, -701578.0, 78127.57, 0.0, 10.001732, 9.998304 
2.7073112e+3, 2.3043406e+2, -783730.44, -1028906.6, -6759.4175, 0.36263034, -0.03984737, -783544.2, -101795.23, 0.0, 10.000869, 9.99754 
2.7070597e+3, 2.4043068e+2, -703465.56, -798743.75, 58995.35, 0.046062965, 0.13991646, -675276.3, -91486.64, 0.0, 10.0001335, 9.998805 
2.7068132e+3, 2.5042704e+2, -532769.0, -485966.84, 20001.428, 0.2159227, 0.09276494, -478583.72, 7240.1606, 0.0, 9.999861, 10.000406 
2.706568e+3, 2.6042372e+2, -544255.75, -539998.3, 55185.98, 0.42136857, 0.045684375, -486900.03, -99045.305, 0.0, 9.999532, 9.999526 
2.706323e+3, 2.704208e+2, -569722.9, -534897.1, 123644.4, 0.36130792, 0.13511035, -427445.5, -137560.33, 0.0, 9.998832, 9.999221 
2.7060777e+3, 2.8041753e+2, -584617.94, -511897.13, 73629.016, 0.30788413, 0.19824922, -466139.88, -274221.9, 0.0, 9.998132, 9.999053 
2.7058318e+3, 2.9041266e+2, -467259.13, -357183.0, -25957.78, 0.41649893, 0.08874793, -351368.8, -257405.95, 0.0, 9.998066, 9.99947 
2.7055842e+3, 3.004083e+2, -338961.34, -127758.805, 5442.1504, 0.40013814, -0.022811413, -127618.67, -127618.67, 0.0, 9.997756, 10.000533 
2.705336e+3, 3.1040707e+2, -378470.78, 60252.797, 20539.174, 0.06691585, -0.011419742, 61212.254, 61212.254, 0.0, 9.996371, 10.002154 
2.7050915e+3, 3.2040697e+2, -414586.44, -111887.98, -405307.75, 0.37121138, 0.13340251, 169406.94, 169406.94, 0.0, 9.996765, 10.000791 
2.7197862e+3, 1.3073151e+2, -1126496.0, -1372101.1, 129592.41, 0.5265202, 0.3668217, -1070763.8, 588077.4, 0.022034014, 10.003882, 10.000508 
2.719541e+3, 1.4072546e+2, -1080739.8, -1610020.9, 91552.445, 0.5703177, 0.092946574, -1065350.9, 495540.9, 0.0127196275, 10.004821, 9.997726 
2.7192923e+3, 1.5071847e+2, -1146624.4, -1745335.1, 39220.246, 0.5356539, 0.051693816, -1144066.1, 318899.3, 0.0053091333, 10.004343, 9.996339 
2.719044e+3, 1.6071196e+2, -1034891.8, -1494615.3, 19124.273, 0.5198158, 0.033577144, -1034097.6, 330936.03, 0.0013547909, 10.003788, 9.997663 
2.7187955e+3, 1.7070787e+2, -862862.2, -1194251.5, 11200.215, 0.4491518, 0.059869327, -862484.06, 404586.53, 0.00016937744, 10.003597, 9.999129 
2.718547e+3, 1.8070403e+2, -830138.6, -1146748.3, -30203.951, 0.37169802, 0.069592856, -827283.0, 341821.38, 0.0000049531877, 10.003218, 9.998973 
2.7182987e+3, 1.9069947e+2, -679756.0, -982824.25, -16193.45, 0.40319762, 0.0031456477, -678893.25, 392252.72, 0.0, 10.0034275, 9.999309 
2.7180514e+3, 2.00695e+2, -622272.8, -986061.25, 48983.207, 0.43850142, -0.05089866, -615792.8, 357395.28, 0.0, 10.003484, 9.998599 
2.7178055e+3, 2.1069035e+2, -650646.0, -945320.25, 64056.188, 0.46476683, -0.062037483, -637323.8, 237910.69, 0.0, 10.002614, 9.998612 
2.717559e+3, 2.2068617e+2, -690966.4, -895493.8, -29033.783, 0.4584342, -0.046197418, -686924.75, 90352.13, 0.0, 10.001563, 9.998802 
2.7173084e+3, 2.30684e+2, -640843.44, -756828.6, -42350.41, 0.29410595, 0.12443954, -627025.9, 52277.02, 0.0, 10.00097, 9.999363 
2.7170575e+3, 2.4068129e+2, -671978.3, -785945.44, 28755.76, 0.12264272, 0.24205123, -665133.8, -83800.766, 0.0, 10.000354, 9.998792 
2.7168086e+3, 2.506747e+2, -592945.75, -686351.9, 7502.193, 0.0702517, 0.01411284, -592347.0, -108952.78, 0.0, 10.000179, 9.99888 
2.716561e+3, 2.6066878e+2, -529354.7, -581377.3, 40710.48, 0.06744881, -0.16714008, -507055.25, -121606.14, 0.0, 9.999832, 9.999104 
2.7163175e+3, 2.706673e+2, -522164.16, -457935.28, 87437.266, 0.2219961, 0.040937684, -396901.4, -109433.96, 0.0, 9.998913, 9.999718 
2.716073e+3, 2.8066567e+2, -607931.25, -555631.0, 49146.6, 0.35313597, 0.23337011, -526110.5, -336623.25, 0.0, 9.998104, 9.998771 
2.7158254e+3, 2.906603e+2, -513402.0, -481036.03, -30055.766, 0.29001242, 0.14526944, -463083.44, -371544.47, 0.0, 9.998172, 9.998577 
2.7155763e+3, 3.0065534e+2, -361593.9, -209170.11, -24323.764, 0.114183836, 0.056312133, -205382.64, -205382.64, 0.0, 9.997895, 9.999912 
2.7153277e+3, 3.106539e+2, -410036.06, -17984.611, -38731.203, -0.103894696, 0.10385366, -14194.943, -14194.943, 0.0, 9.996409, 10.001603 
2.7150866e+3, 3.2065073e+2, -392560.6, -123423.5, -137252.84, 0.48327252, -0.011808605, -65775.93, -65775.93, 0.0, 9.997001, 10.000598 
2.7297866e+3, 1.3097659e+2, -1299354.4, -1556157.6, 200787.4, 0.5423563, 0.053671505, -1189423.1, 467011.53, 0.016666736, 10.00308, 9.999605 
2.729543e+3, 1.4097089e+2, -1133117.0, -1599047.1, 7597.5073, 0.63356704, -0.12878904, -1132993.1, 425488.38, 0.009394019, 10.004283, 9.99806 
2.729293e+3, 1.5096715e+2, -1267774.0, -1676804.3, -14582.106, 0.59698117, 0.056752164, -1267254.9, 193271.72, 0.0037755258, 10.002963, 9.997468 
2.7290437e+3, 1.609632e+2, -1279767.1, -1607507.3, 106651.42, 0.5586574, 0.2165132, -1248117.6, 114455.78, 0.0009149639, 10.002089, 9.997698 
2.7287957e+3, 1.709579e+2, -849184.6, -1274958.8, 144111.98, 0.39250898, 0.18763809, -804993.56, 459630.94, 0.00010647075, 10.004086, 9.998329 
2.7285478e+3, 1.8095265e+2, -497107.4, -1014168.94, 25456.428, 0.2703874, 0.12765771, -495857.13, 670815.6, 0.0000025959862, 10.0056305, 9.998716 
2.7282998e+3, 1.9094728e+2, -609110.4, -938854.75, -32410.457, 0.42847732, -0.01657525, -605955.0, 462763.38, 0.0, 10.00387, 9.999397 
2.728052e+3, 2.009424e+2, -833314.06, -1094215.9, 23346.879, 0.5633177, -0.11361424, -831241.3, 139519.98, 0.0, 10.002068, 9.99853 
2.7278042e+3, 2.1093889e+2, -812873.25, -1051951.4, 72813.766, 0.43979484, 0.012451496, -792442.94, 80358.46, 0.0, 10.001628, 9.99835 
2.727556e+3, 2.2093566e+2, -695443.8, -862427.1, 4663.192, 0.30485085, 0.13529219, -695313.7, 79524.805, 0.0, 10.001394, 9.999103 
2.7273056e+3, 2.3093261e+2, -523511.88, -621558.3, -40610.926, 0.2150143, 0.16154234, -508875.66, 167992.48, 0.0, 10.0014515, 10.00005 
2.7270555e+3, 2.4092919e+2, -492672.44, -689314.56, 1718.3766, 0.14463931, 0.15579304, -492657.44, 86243.19, 0.0, 10.001554, 9.99887 
2.726807e+3, 2.5092325e+2, -390509.75, -637037.8, 23915.986, 0.103276424, 0.025779065, -388211.06, 92745.14, 0.0, 10.001789, 9.998442 
2.7265587e+3, 2.6091772e+2, -319076.63, -537337.3, 52936.938, 0.07818496, -0.06942434, -306914.97, 76094.31, 0.0, 10.001535, 9.998581 
2.726313e+3, 2.7091524e+2, -482698.16, -501384.34, 21032.602, 0.14582267, 0.10047228, -469026.84, -183987.42, 0.0, 9.999468, 9.999146 
2.726067e+3, 2.809127e+2, -657271.44, -578868.4, 29.309494, 0.24035642, 0.23946129, -578868.4, -391798.84, 0.0, 9.997776, 9.998763 
2.7258205e+3, 2.909073e+2, -366445.13, -369033.84, 23088.236, 0.23362006, 0.122054555, -344615.0, -255496.48, 0.0, 9.999023, 9.998926 
2.725572e+3, 3.009024e+2, -124550.18, -147303.47, 12806.458, 0.10932116, 0.03223161, -118796.92, -118796.92, 0.0, 9.999769, 9.999426 
2.7253222e+3, 3.1090036e+2, -364871.9, -114331.05, -80084.15, -0.02665997, 0.11645299, -90920.09, -90920.09, 0.0, 9.997256, 10.000519 
2.7250788e+3, 3.208964e+2, -841675.5, -423538.78, -78170.93, 0.4596449, 0.024622437, -409402.6, -409402.6, 0.0, 9.99431, 9.99982 
2.739787e+3, 1.3122179e+2, -1252813.4, -1668394.1, 151406.64, 0.5392714, -0.20357148, -1203503.0, 450526.06, 0.0121522555, 10.003995, 9.998376 
2.7395445e+3, 1.412159e+2, -1249206.9, -1606458.5, -39704.87, 0.68933415, -0.34228987, -1244847.4, 311229.72, 0.0066637886, 10.003267, 9.998494 
2.7392936e+3, 1.5121591e+2, -1102764.8, -1411817.4, -102390.97, 0.6594309, 0.07273564, -1071920.4, 386166.47, 0.0025666065, 10.003299, 9.999124 
2.7390435e+3, 1.6121495e+2, -1099373.0, -1499837.8, 85368.305, 0.6061079, 0.4045821, -1081934.1, 278171.53, 0.00058720633, 10.003237, 9.997886 
2.7387965e+3, 1.712081e+2, -980560.8, -1425749.3, 192863.36, 0.36151662, 0.27476895, -908630.9, 353542.38, 0.00006222743, 10.003545, 9.997562 
2.738549e+3, 1.8120119e+2, -797780.06, -1209428.1, 5991.3564, 0.1840985, 0.11351751, -797692.9, 366546.0, 0.0000011486238, 10.00378, 9.998269 
2.7383006e+3, 1.9119556e+2, -723522.6, -1022061.1, -98378.98, 0.44041565, -0.03277473, -694019.0, 372266.84, 0.0, 10.003201, 9.999148 
2.738052e+3, 2.0119075e+2, -805713.7, -1100239.6, 2430.7969, 0.62659526, -0.09933652, -805693.6, 162634.42, 0.0, 10.002335, 9.998366 
2.7378026e+3, 2.1118833e+2, -776448.3, -1032668.7, 64174.73, 0.39662287, 0.13528422, -761273.4, 109087.9, 0.0, 10.001866, 9.998369 
2.737553e+3, 2.2118562e+2, -682029.94, -844714.9, -3106.8, 0.17056838, 0.30610827, -681970.6, 90424.36, 0.0, 10.001431, 9.999211 
2.737303e+3, 2.3118068e+2, -517912.06, -608356.44, -49291.3, 0.12952395, 0.13003117, -496241.2, 178196.4, 0.0, 10.001436, 10.000152 
2.737054e+3, 2.4117602e+2, -515145.84, -694728.9, -10149.963, 0.12610638, -0.0074853534, -514574.0, 61903.54, 0.0, 10.001371, 9.998924 
2.736807e+3, 2.5117257e+2, -432086.94, -644461.25, 17090.275, 0.22717275, 0.09697242, -430720.44, 47790.79, 0.0, 10.001446, 9.998556 
2.7365592e+3, 2.611689e+2, -433312.03, -676262.94, -3249.9592, 0.26104617, 0.20079774, -433268.56, -52719.395, 0.0, 10.001104, 9.997838 
2.7363086e+3, 2.7116397e+2, -598975.4, -701344.06, -64526.18, 0.075955436, 0.23935781, -567797.94, -285192.22, 0.0, 9.999278, 9.997869 
2.7360594e+3, 2.8115904e+2, -637132.75, -542629.5, 9153.104, -0.015039079, 0.22726096, -541751.1, -357092.16, 0.0, 9.997789, 9.99901 
2.7358165e+3, 2.91154e+2, -285328.66, -195489.05, 82377.24, 0.2409619, 0.03963469, -146580.28, -59881.387, 0.0, 9.998987, 10.000143 
2.735571e+3, 3.0114943e+2, -177285.33, -234656.77, -31552.84, 0.32219443, -0.08518756, -163327.73, -163327.73, 0.0, 9.999662, 9.998882 
2.7353188e+3, 3.1114638e+2, -490379.97, -364107.38, -189364.45, 0.2120026, 0.041702, -227631.33, -227631.33, 0.0, 9.997193, 9.998844 
2.7350676e+3, 3.211444e+2, -931914.0, -647005.06, -209310.47, 0.18924545, 0.3163165, -536271.56, -536271.56, 0.0, 9.994416, 9.998261 
2.7497908e+3, 1.3147406e+2, -979960.06, -1325484.9, -39372.723, 0.73030543, 0.56404746, -975530.3, 676051.06, 0.008473943, 10.004946, 10.000295 
2.749545e+3, 1.4146233e+2, -1343988.4, -1513865.8, -61641.95, 0.8102948, -0.323142, -1323978.0, 229692.66, 0.0045066965, 10.00201, 9.999735 
2.749294e+3, 1.5146191e+2, -976754.3, -1262771.5, -69577.04, 0.6338541, -0.036512345, -960727.0, 494950.7, 0.001657421, 10.003791, 9.99991 
2.749044e+3, 1.6146114e+2, -797466.56, -1277098.8, 23371.803, 0.51092046, 0.24063598, -796330.4, 561359.25, 0.00035636924, 10.004976, 9.998577 
2.7487972e+3, 1.714552e+2, -1092819.1, -1409288.6, 116443.54, 0.4471833, 0.13506407, -1054591.9, 205155.73, 0.000033695887, 10.002468, 9.998191 
2.74855e+3, 1.8144922e+2, -1234849.9, -1376330.8, 25464.42, 0.40092617, 0.01124439, -1230406.3, -68602.14, 0.00000040337267, 10.000589, 9.998656 
2.7483004e+3, 1.9144443e+2, -883456.2, -1081795.8, -23482.695, 0.5035731, -0.06804723, -880713.8, 183130.75, 0.0, 10.002033, 9.999297 
2.748051e+3, 2.0144008e+2, -684874.5, -1057505.6, 50950.582, 0.5659098, -0.08831956, -678033.5, 287850.0, 0.0, 10.003237, 9.998225 
2.7478012e+3, 2.1143666e+2, -697070.7, -1030661.25, 79222.99, 0.3690017, 0.08298932, -679212.4, 188713.6, 0.0, 10.002575, 9.998043 
2.7475518e+3, 2.2143301e+2, -654088.1, -882099.44, 1086.4613, 0.20828268, 0.19795208, -654082.94, 115885.48, 0.0, 10.001855, 9.998743 
2.7473027e+3, 2.3142767e+2, -562084.56, -705260.2, -69305.53, 0.248224, 0.046727344, -534032.7, 137983.17, 0.0, 10.001465, 9.999473 
2.7470538e+3, 2.414228e+2, -573621.9, -719795.75, -62364.76, 0.29209158, -0.067972615, -550630.44, 23428.336, 0.0, 10.000953, 9.998953 
2.7468053e+3, 2.5141978e+2, -604528.4, -672966.25, -31139.908, 0.28668037, 0.039690178, -592480.4, -116392.41, 0.0, 10.000034, 9.999032 
2.7465558e+3, 2.6141652e+2, -725813.94, -811535.3, -48525.41, 0.2567054, 0.1529633, -703930.9, -325809.22, 0.0, 9.999084, 9.997874 
2.7463046e+3, 2.7141142e+2, -750074.94, -800422.9, -71275.305, 0.10640703, 0.19072898, -699658.56, -419478.22, 0.0, 9.998376, 9.997613 
2.7460548e+3, 2.814063e+2, -631400.6, -524067.22, 85677.49, 0.038854178, 0.17583065, -476636.22, -294400.56, 0.0, 9.997784, 9.999131 
2.745812e+3, 2.9140168e+2, -433047.97, -228267.63, 137208.67, 0.24402465, 0.0077708163, -159456.27, -75183.54, 0.0, 9.997828, 10.000466 
2.745566e+3, 3.0139777e+2, -423431.38, -264641.94, -56896.523, 0.3011395, -0.09795416, -246359.97, -246359.97, 0.0, 9.9976015, 9.999668 
2.7453125e+3, 3.1139603e+2, -496411.4, -262491.1, -80454.914, 0.21559018, 0.06978623, -237491.13, -237491.13, 0.0, 9.996705, 9.999781 
2.7450585e+3, 3.2139432e+2, -594933.8, -440732.38, 160405.44, 0.054059066, 0.32229027, -339859.97, -339859.97, 0.0, 9.996562, 9.998634 
2.7597943e+3, 1.31726e+2, -873525.8, -1040257.94, -93248.75, 0.92379934, 1.2620722, -831811.0, 817324.75, 0.005612605, 10.004667, 10.002389 
2.7595448e+3, 1.4170974e+2, -1180356.0, -1324897.6, -21725.285, 0.8963542, -0.24876603, -1177161.3, 374094.22, 0.0028832825, 10.002661, 10.000723 
2.7592942e+3, 1.5170819e+2, -1005913.8, -1221899.1, 31234.682, 0.58915204, -0.13327552, -1001487.5, 451779.25, 0.0010072654, 10.003344, 10.000409 
2.7590448e+3, 1.617069e+2, -915150.25, -1254759.4, 3660.559, 0.41028526, 0.036010623, -915110.8, 440167.4, 0.00020178876, 10.003827, 9.999288 
2.7587977e+3, 1.7170216e+2, -992421.8, -1260767.1, 22540.363, 0.57179296, -0.034339663, -990541.7, 266781.0, 0.000016564096, 10.002728, 9.999086 
2.7585503e+3, 1.8169756e+2, -1041118.2, -1235226.8, 19673.08, 0.66356623, -0.09705251, -1039144.4, 120221.125, 0.00000009587778, 10.001717, 9.999085 
2.7583e+3, 1.9169384e+2, -809694.6, -1023692.5, 21573.541, 0.5512376, -0.094597235, -807541.44, 253856.0, 0.0, 10.002441, 9.999502 
2.75805e+3, 2.0168994e+2, -749737.44, -1118674.6, 39868.563, 0.44049993, -0.07574686, -745478.3, 217955.42, 0.0, 10.002918, 9.997962 
2.7578005e+3, 2.1168488e+2, -770780.9, -1113251.0, 53697.707, 0.34603363, -0.03238006, -762558.7, 102931.07, 0.0, 10.002268, 9.997625 
2.7575514e+3, 2.2167982e+2, -752285.75, -1020591.7, -240.71835, 0.29863006, -0.0036629138, -752285.56, 15258.949, 0.0, 10.001569, 9.997935 
2.757303e+3, 2.3167461e+2, -661152.25, -870098.8, -61352.164, 0.44294715, -0.043748252, -644469.6, 25124.848, 0.0, 10.001282, 9.998432 
2.7570537e+3, 2.4166982e+2, -597208.6, -727286.8, -67845.164, 0.5047505, -0.07973709, -568263.44, 3376.0676, 0.0, 10.000772, 9.998991 
2.756802e+3, 2.5166613e+2, -580925.25, -597642.7, -57335.96, 0.28499293, -0.08842601, -531341.94, -57667.98, 0.0, 9.999915, 9.999612 
2.756551e+3, 2.6166248e+2, -695512.1, -754491.1, -78182.484, 0.12092574, -0.06507175, -641442.5, -265732.47, 0.0, 9.999101, 9.998263 
2.756301e+3, 2.7165836e+2, -677742.6, -730068.75, -95198.484, 0.2023625, 0.038381416, -605177.5, -327420.16, 0.0, 9.99871, 9.997941 
2.7560517e+3, 2.8165427e+2, -580527.25, -508827.13, 88473.09, 0.2652983, 0.10445417, -449216.66, -269413.88, 0.0, 9.998162, 9.999059 
2.7558064e+3, 2.9165006e+2, -469156.56, -292648.2, 141314.64, 0.20693347, 0.013410116, -214293.17, -132451.28, 0.0, 9.997771, 10.000059 
2.7555585e+3, 3.0164734e+2, -309513.8, 18656.46, -86608.78, 0.057202857, -0.014056264, 40111.113, 40111.113, 0.0, 9.997392, 10.001719 
2.755304e+3, 3.1164908e+2, -260270.72, 216020.39, -116568.94, 0.015554117, 0.19580781, 243019.38, 243019.38, 0.0, 9.996742, 10.003056 
2.7550524e+3, 3.2164535e+2, -426643.34, -103357.3, 295773.0, 0.08319442, -0.0470189, 72060.72, 72060.72, 0.0, 9.996647, 10.000892 
2.7697974e+3, 1.3196835e+2, -923581.9, -1119918.1, -17204.943, 1.058282, 0.54860765, -922085.6, 724665.1, 0.0035006173, 10.004535, 10.001901 
2.7695438e+3, 1.4196149e+2, -1071361.9, -1293411.8, 29324.04, 0.7904521, 0.026407653, -1067554.6, 481238.25, 0.0017261646, 10.003492, 10.000537 
2.7692947e+3, 1.5195985e+2, -1116018.4, -1279108.9, 81918.69, 0.65548354, 0.14569892, -1081976.9, 368829.7, 0.00056712184, 10.0026, 10.000371 
2.7690464e+3, 1.6195767e+2, -1136210.6, -1343175.4, 56258.242, 0.61686736, 0.22842833, -1121906.8, 230919.72, 0.00010351196, 10.002225, 9.99945 
2.7687994e+3, 1.7195241e+2, -889471.06, -1180275.3, 63913.105, 0.7217137, 0.08252779, -876044.2, 378831.06, 0.000006888063, 10.003307, 9.999357 
2.768551e+3, 1.8194745e+2, -705370.06, -1062538.4, 22596.846, 0.73231876, -0.03344124, -703946.1, 452974.5, 0.00000000965895, 10.00399, 9.999168 
2.768299e+3, 1.919436e+2, -705012.9, -983918.7, 8694.03, 0.47028288, -0.036595196, -704742.1, 354212.53, 0.0, 10.003216, 9.999397 
2.768048e+3, 2.0193984e+2, -784497.5, -1061584.4, 16688.621, 0.30044106, -0.018236322, -783496.0, 177493.48, 0.0, 10.002372, 9.998606 
2.7677998e+3, 2.1193577e+2, -799512.1, -1022578.7, 71615.19, 0.39035034, 0.037156615, -778499.5, 84532.39, 0.0, 10.00163, 9.998549 
2.7675512e+3, 2.2193132e+2, -847087.7, -1086013.6, 73534.96, 0.45876992, 0.0775015, -826269.5, -61190.77, 0.0, 10.001014, 9.997747 
2.767301e+3, 2.3192574e+2, -781901.3, -1005243.44, 36300.56, 0.4526976, 0.07071361, -776149.4, -109012.59, 0.0, 10.000804, 9.997723 
2.7670503e+3, 2.4192043e+2, -675711.0, -811826.94, 14963.864, 0.42015138, 0.04993416, -674085.4, -104894.66, 0.0, 10.000452, 9.998555 
2.7667984e+3, 2.519158e+2, -645403.06, -669842.3, -23049.156, 0.2603786, -0.004824097, -631534.7, -160300.56, 0.0, 9.999661, 9.999235 
2.7665472e+3, 2.6191163e+2, -623276.1, -671329.8, -26813.74, 0.13836712, -0.021299202, -611299.25, -238024.55, 0.0, 9.99941, 9.998676 
2.7662975e+3, 2.719082e+2, -272095.78, -447000.6, -5113.2544, 0.17877378, 0.081905805, -271946.4, 3365.9495, 0.0, 10.001129, 9.998715 
2.766048e+3, 2.819047e+2, -111683.71, -271921.4, 110880.86, 0.21470472, 0.1588814, -55004.914, 122345.24, 0.0, 10.001345, 9.9991455 
2.7657998e+3, 2.9190075e+2, -596576.6, -388993.25, 125470.33, 0.10465698, 0.12137758, -329949.1, -250559.14, 0.0, 9.997058, 9.99973 
2.7655497e+3, 3.0189815e+2, -766785.56, -143580.75, -54066.39, -0.027686298, 0.11421577, -138924.97, -138924.97, 0.0, 9.994022, 10.002214 
2.7652982e+3, 3.1189966e+2, -341207.38, 276127.9, -194432.05, 0.11556525, 0.21587057, 332260.94, 332260.94, 0.0, 9.995777, 10.0039215 
2.765046e+3, 3.2189462e+2, -316311.34, -97995.45, 42702.504, 0.030415213, -0.21256709, -89940.086, -89940.086, 0.0, 9.99761, 10.00046 
2.7797985e+3, 1.322115e+2, -1200742.5, -1380704.4, -7464.9785, 1.0736312, -0.20372206, -1200433.4, 443920.38, 0.0020270683, 10.003185, 10.000744 
2.779543e+3, 1.4221428e+2, -1003574.5, -1317939.8, 12034.767, 0.65742713, 0.32803094, -1003114.5, 543204.8, 0.00095042284, 10.004209, 10.000022 
2.779295e+3, 1.522124e+2, -1017519.94, -1254742.9, 54727.945, 0.7318956, 0.44690374, -1005502.8, 442834.88, 0.00028789113, 10.003379, 10.000164 
2.7790478e+3, 1.6220936e+2, -1081098.5, -1325112.5, 70807.6, 0.8375814, 0.46313938, -1062040.1, 288326.7, 0.000045486835, 10.002648, 9.999369 
2.7788004e+3, 1.7220347e+2, -969426.9, -1214796.6, 89901.49, 0.8349074, 0.24938603, -940013.56, 312408.13, 0.0000020728928, 10.002747, 9.99939 
2.7785516e+3, 1.8219796e+2, -886209.2, -1162936.0, -6923.7393, 0.71030366, 0.08005414, -886036.06, 268436.22, 0.00000000000031198744, 10.002805, 9.999052 
2.7782977e+3, 1.9219372e+2, -810526.1, -1054239.4, -28262.902, 0.33848077, 0.049695093, -807291.44, 249219.36, 0.0, 10.002575, 9.999224 
2.7780455e+3, 2.0219012e+2, -774294.0, -962963.6, -18409.371, 0.14562045, 0.06481134, -772514.5, 186029.1, 0.0, 10.002031, 9.999453 
2.7777988e+3, 2.1218783e+2, -760872.2, -856259.4, 18969.139, 0.45185608, 0.17095904, -757238.4, 103326.2, 0.0, 10.001253, 9.999876 
2.7775505e+3, 2.2218467e+2, -910365.4, -1119654.8, 26933.104, 0.61238664, 0.25715417, -906954.94, -144358.33, 0.0, 10.00059, 9.997724 
2.7772975e+3, 2.3217878e+2, -844316.0, -1097769.3, 23738.768, 0.36010224, 0.2618615, -842111.8, -177449.08, 0.0, 10.000637, 9.997174 
2.777045e+3, 2.421729e+2, -728939.3, -918614.3, 3923.475, 0.17636026, 0.2463945, -728858.2, -162132.05, 0.0, 10.00043, 9.997837 
2.7767947e+3, 2.5216746e+2, -678558.06, -780283.3, -28093.824, 0.22485086, 0.19004032, -671315.0, -202536.23, 0.0, 9.999838, 9.998393 
2.776544e+3, 2.621628e+2, -566459.56, -595831.9, 40778.184, 0.21266545, 0.17034383, -537803.56, -166979.9, 0.0, 9.999584, 9.999116 
2.776294e+3, 2.7215996e+2, -234892.06, -318748.22, 75027.75, 0.058719125, 0.24281092, -190871.75, 81980.43, 0.0, 10.000898, 9.999713 
2.7760437e+3, 2.82157e+2, -166982.23, -284516.75, 10855.266, -0.047576483, 0.3025894, -165988.08, 8894.336, 0.0, 10.000897, 9.999277 
2.7757922e+3, 2.9215327e+2, -627648.25, -438382.13, -45587.86, -0.045576524, 0.30417475, -427973.9, -351052.44, 0.0, 9.996985, 9.999429 
2.775541e+3, 3.0214986e+2, -791874.1, -257664.42, -52737.652, -0.0031350134, 0.26906163, -252507.88, -252507.88, 0.0, 9.994275, 10.001316 
2.7752942e+3, 3.1214774e+2, -413456.84, 98517.47, -118503.766, 0.47810915, 0.12674974, 124616.41, 124616.41, 0.0, 9.995886, 10.002653 
2.7750382e+3, 3.2214317e+2, -514599.56, -558352.3, 68178.555, -0.21495165, -0.0529989, -464873.63, -464873.63, 0.0, 9.997756, 9.99726 
2.7897933e+3, 1.3246457e+2, -1545535.9, -1806053.8, 206236.77, 0.6250339, -0.13573393, -1431866.6, 209997.8, 0.0010716101, 10.001918, 9.998432 
2.789545e+3, 1.42465e+2, -934609.44, -1374860.6, 63577.523, 0.6696764, 0.34528747, -925611.94, 618253.9, 0.00047186392, 10.005068, 9.999216 
2.7892953e+3, 1.5246095e+2, -899264.1, -1233906.1, 56053.984, 0.65433204, 0.28950787, -890124.44, 555776.9, 0.00012805255, 10.004355, 9.999835 
2.7890468e+3, 1.6245665e+2, -1019560.3, -1351328.5, 59267.727, 0.6921928, 0.22262645, -1009290.5, 338650.28, 0.000015997204, 10.003316, 9.998865 
2.7887982e+3, 1.7245176e+2, -1154514.1, -1369195.3, 56445.184, 0.69790906, 0.17039162, -1140577.9, 109412.35, 0.00000032895434, 10.001753, 9.998809 
2.7885485e+3, 1.8244739e+2, -1166542.4, -1280882.5, -16654.594, 0.5851708, 0.14418136, -1164165.9, -12132.251, 0.0, 10.0007925, 9.999217 
2.7882951e+3, 1.924443e+2, -958849.4, -1080086.0, -7005.624, 0.22812006, 0.19389059, -958445.9, 95616.305, 0.0, 10.001362, 9.999631 
2.7880433e+3, 2.0244095e+2, -841977.4, -978175.06, -33680.45, 0.070643365, 0.20612782, -834103.7, 121988.83, 0.0, 10.001507, 9.999594 
2.7877963e+3, 2.1243674e+2, -893401.9, -922661.94, -59696.63, 0.41028002, 0.12085885, -846568.7, 11561.472, 0.0, 10.000366, 9.999845 
2.787547e+3, 2.2243282e+2, -976496.9, -1048040.2, -31009.219, 0.5797839, 0.0952187, -964927.4, -204759.52, 0.0, 9.999688, 9.99865 
2.7872938e+3, 2.3242913e+2, -808320.9, -937148.25, 47708.676, 0.25584567, 0.19859928, -792577.0, -130366.73, 0.0, 10.0002775, 9.998444 
2.7870417e+3, 2.4242513e+2, -617711.94, -765362.2, 87168.27, 0.07901894, 0.25860885, -577307.25, -13053.251, 0.0, 10.000775, 9.998717 
2.7867928e+3, 2.5242025e+2, -475728.6, -611024.3, 120543.11, 0.31387123, 0.19744202, -405148.8, 61151.313, 0.0, 10.000929, 9.999028 
2.786543e+3, 2.624158e+2, -452071.16, -583552.7, 222079.06, 0.40651223, 0.18575273, -286206.75, 82136.67, 0.0, 10.000559, 9.998727 
2.7862915e+3, 2.7241257e+2, -549999.75, -550270.3, 168804.36, 0.103997864, 0.2979238, -381330.63, -110951.46, 0.0, 9.999093, 9.998982 
2.7860394e+3, 2.8240922e+2, -613259.5, -489935.8, -10506.383, -0.070870474, 0.3646333, -489047.13, -316632.34, 0.0, 9.9978075, 9.99935 
2.785787e+3, 2.92405e+2, -561226.56, -374180.88, -56457.094, 0.040448412, 0.30267277, -358461.22, -284005.5, 0.0, 9.9973135, 9.999713 
2.7855352e+3, 3.024011e+2, -428113.13, -204558.3, 65535.4, 0.13198498, 0.24311006, -186763.03, -186763.03, 0.0, 9.997311, 10.000215 
2.7852887e+3, 3.12398e+2, -113840.75, 60715.957, 4007.7034, 0.5071371, 0.1638411, 60807.92, 60807.92, 0.0, 9.998745, 10.001012 
2.785032e+3, 3.2239366e+2, -714326.44, -752724.0, 91807.36, -0.2741178, 0.15890229, -639731.94, -639731.94, 0.0, 9.996836, 9.99636 
2.7997887e+3, 1.3271922e+2, -1437126.3, -2004906.4, 239345.83, 0.20023273, 0.10667178, -1349694.4, 289669.9, 0.0005085427, 10.003752, 9.996186 
2.7995473e+3, 1.427153e+2, -1198378.3, -1577837.6, 29231.49, 0.7271765, 0.3074442, -1196139.6, 345277.5, 0.00020750987, 10.003587, 9.998534 
2.7992955e+3, 1.5270917e+2, -1023669.6, -1319330.3, 18344.86, 0.55025345, 0.06416778, -1022535.75, 420932.06, 0.00004888169, 10.0036125, 9.999604 
2.7990445e+3, 1.6270383e+2, -1072558.0, -1435195.5, 31650.334, 0.4638853, -0.072979465, -1069816.4, 275698.53, 0.0000044449, 10.003206, 9.998342 
2.798795e+3, 1.7270021e+2, -1143414.1, -1428960.1, 61734.008, 0.50265324, 0.058604527, -1130639.0, 116917.586, 0.00000002399445, 10.002106, 9.99823 
2.798545e+3, 1.826972e+2, -1090587.6, -1217696.4, 67257.2, 0.42935374, 0.20076758, -1061607.3, 87983.375, 0.0, 10.001202, 9.999455 
2.7982926e+3, 1.9269547e+2, -947764.94, -1018214.2, 85685.84, 0.14315258, 0.34107587, -890345.94, 161261.14, 0.0, 10.001193, 10.000138 
2.7980414e+3, 2.0269215e+2, -914592.56, -1045590.6, -445.19516, 0.023369666, 0.33815503, -914591.06, 39046.69, 0.0, 10.001145, 9.99931 
2.7977926e+3, 2.1268485e+2, -842406.5, -957144.75, -40859.152, 0.31863478, -0.0031322916, -829343.5, 26360.91, 0.0, 10.000967, 9.999321 
2.7975425e+3, 2.2267957e+2, -749186.75, -793730.2, 26508.266, 0.445234, -0.17870656, -736836.0, 20917.379, 0.0, 10.000626, 9.999947 
2.79729e+3, 2.326789e+2, -626227.94, -634153.25, 89070.484, 0.14529996, 0.04345402, -541032.0, 118729.586, 0.0, 10.000598, 10.000373 
2.7970392e+3, 2.426775e+2, -534758.44, -563026.44, 86675.78, 0.04273014, 0.18633507, -461071.84, 100703.98, 0.0, 10.000639, 10.000177 
2.796792e+3, 2.5267377e+2, -396051.22, -424637.72, 94852.66, 0.45616376, 0.10771481, -314420.94, 149386.95, 0.0, 10.000831, 10.0003605 
2.796543e+3, 2.626699e+2, -543284.5, -745990.75, 145384.27, 0.63001347, 0.10744569, -467411.7, -101565.54, 0.0, 10.000441, 9.997671 
2.7962887e+3, 2.7266565e+2, -681426.7, -819755.4, 102517.305, 0.23935957, 0.2893366, -626924.1, -359025.88, 0.0, 9.999068, 9.997149 
2.7960354e+3, 2.826613e+2, -596849.25, -478468.25, -39306.152, 0.03853696, 0.36408997, -466606.03, -296658.72, 0.0, 9.997896, 9.999391 
2.7957836e+3, 2.9265624e+2, -487313.44, -264779.2, -78320.75, 0.2862572, 0.15865381, -239978.28, -167986.72, 0.0, 9.997495, 10.000381 
2.7955312e+3, 3.0265212e+2, -514038.7, -411372.06, 100920.87, 0.31481868, 0.09003866, -349479.38, -349479.38, 0.0, 9.997425, 9.998743 
2.795281e+3, 3.126501e+2, -259109.52, -249733.95, 58072.31, 0.18699859, 0.33075872, -196160.53, -196160.53, 0.0, 9.998774, 9.998868 
2.795028e+3, 3.2264566e+2, -634401.44, -551863.6, -161868.5, -0.06349275, 0.39274812, -426086.03, -426086.03, 0.0, 9.996703, 9.99779 
2.809792e+3, 1.3297231e+2, -1193029.5, -1904587.9, 193.70642, 0.35545698, 0.525157, -1193029.4, 443868.63, 0.00021505407, 10.005498, 9.996036 
2.809549e+3, 1.4296462e+2, -1409928.8, -1571133.1, -12805.645, 0.9493856, 0.31759632, -1408917.9, 130066.15, 0.0000802727, 10.001661, 9.999511 
2.8092963e+3, 1.529604e+2, -1106574.4, -1240994.8, 54107.65, 0.6550695, 0.16028382, -1087501.0, 353514.1, 0.00001589254, 10.00253, 10.000667 
2.8090447e+3, 1.6295697e+2, -977322.56, -1208182.5, 72511.02, 0.4737188, 0.09066992, -956437.0, 386604.75, 0.0000010922375, 10.003083, 9.999957 
2.808794e+3, 1.7295498e+2, -942464.75, -1139317.9, 166632.66, 0.44488335, 0.22112662, -847360.4, 397702.66, 0.0000000065346386, 10.002677, 9.999935 
2.808543e+3, 1.8295237e+2, -940217.06, -1087051.3, 217263.83, 0.40807638, 0.29298717, -784301.1, 362788.25, 0.0, 10.002013, 9.999946 
2.8082928e+3, 1.9294849e+2, -1006648.8, -1043302.44, 224892.14, 0.3768759, 0.22189601, -799338.0, 249787.98, 0.0, 10.000791, 10.0001545 
2.808042e+3, 2.0294432e+2, -1002620.7, -1107112.1, 198638.83, 0.32889047, 0.15522484, -849471.7, 101694.0, 0.0, 10.000623, 9.999137 
2.8077906e+3, 2.1293914e+2, -604025.7, -866953.2, 188265.44, 0.24836151, 0.060870633, -505866.75, 347349.28, 0.0, 10.002717, 9.999093 
2.8075394e+3, 2.2293498e+2, -326540.38, -601781.0, 167873.02, 0.21375155, 0.02920906, -247087.64, 508168.7, 0.0, 10.003597, 9.999823 
2.8072888e+3, 2.3293322e+2, -470765.16, -573047.8, 127220.3, 0.22008616, 0.16411282, -384791.78, 272481.25, 0.0, 10.001738, 10.000234 
2.8070384e+3, 2.4293074e+2, -626083.4, -697091.6, 71873.72, 0.2588673, 0.24548817, -581422.8, -22125.514, 0.0, 10.000413, 9.999358 
2.806789e+3, 2.529263e+2, -516549.75, -586638.56, -22835.566, 0.40530756, 0.18366872, -509766.25, -48424.98, 0.0, 10.000476, 9.999408 
2.8065383e+3, 2.62922e+2, -528243.25, -657302.5, -47175.37, 0.4561175, 0.162273, -512837.97, -149453.6, 0.0, 10.000208, 9.998387 
2.806285e+3, 2.729178e+2, -577505.44, -646414.4, 41052.387, 0.2451603, 0.235379, -558365.06, -292935.78, 0.0, 9.999264, 9.998242 
2.8060317e+3, 2.829136e+2, -474276.03, -449366.4, 33042.066, 0.16009106, 0.2762385, -426509.75, -259036.75, 0.0, 9.998864, 9.999124 
2.80578e+3, 2.929092e+2, -194980.94, -197859.28, -68281.336, 0.35287005, 0.19955838, -128123.61, -58609.875, 0.0, 9.9998255, 9.999716 
2.805527e+3, 3.029051e+2, -241500.97, -317199.0, 52703.71, 0.34037796, 0.186622, -214463.72, -214463.72, 0.0, 9.999473, 9.998395 
2.8052753e+3, 3.1290185e+2, -616275.3, -461998.9, 119375.516, 0.15074585, 0.33166388, -397007.53, -397007.53, 0.0, 9.996497, 9.998506 
2.8050223e+3, 3.2289863e+2, -684957.56, -433665.75, -110584.375, 0.0690207, 0.5015358, -391932.47, -391932.47, 0.0, 9.995735, 9.999071 
2.8197968e+3, 1.3322484e+2, -1171874.3, -1849555.5, -71193.42, 0.5973763, 0.82519126, -1164475.9, 469961.3, 0.00008448367, 10.005467, 9.996423 
2.8195494e+3, 1.4321494e+2, -1225330.4, -1377445.0, 118939.78, 1.1231331, 0.34037846, -1160209.1, 376330.5, 0.000028683487, 10.0024805, 10.000447 
2.819297e+3, 1.5321305e+2, -1035285.3, -1094776.0, 174069.45, 0.7725556, 0.3218395, -888438.0, 550111.5, 0.0000047444546, 10.002534, 10.001672 
2.819045e+3, 1.6321185e+2, -945785.2, -995852.3, 95639.695, 0.52888215, 0.34690857, -871957.06, 468596.6, 0.00000023540856, 10.002451, 10.00172 
2.818793e+3, 1.732114e+2, -904680.2, -894318.3, 131410.02, 0.41500828, 0.42860314, -767987.1, 474566.2, 0.0, 10.001958, 10.001963 
2.818542e+3, 1.8320887e+2, -1004646.0, -1093453.4, 129238.97, 0.4143768, 0.37461877, -912395.4, 232178.58, 0.0, 10.001462, 10.000171 
2.8182936e+3, 1.9320221e+2, -980375.7, -1049161.3, 134269.97, 0.68436384, 0.03384925, -876163.7, 170472.44, 0.0, 10.001044, 9.999993 
2.8180432e+3, 2.031974e+2, -961499.56, -1108395.1, 208958.19, 0.68789065, -0.0835477, -813456.7, 135226.48, 0.0, 10.000998, 9.998948 
2.8177893e+3, 2.1319608e+2, -691145.3, -925188.1, 235610.77, 0.1609651, 0.2173753, -545095.56, 305605.97, 0.0, 10.00219, 9.998946 
2.8175375e+3, 2.2319376e+2, -518479.3, -788845.44, 106574.98, -0.048920806, 0.4105435, -481520.9, 271206.4, 0.0, 10.002682, 9.998981 
2.817289e+3, 2.3318945e+2, -566000.9, -732159.8, 53393.35, 0.3731238, 0.38569126, -550322.9, 104445.09, 0.0, 10.001567, 9.999226 
2.8170386e+3, 2.4318455e+2, -741841.4, -969383.25, 71647.43, 0.5414885, 0.3644968, -721160.94, -164343.13, 0.0, 10.000546, 9.997429 
2.8167844e+3, 2.531784e+2, -691318.9, -908924.4, 16876.91, 0.22248104, 0.34421292, -690017.7, -231130.94, 0.0, 10.000298, 9.997283 
2.8165314e+3, 2.631732e+2, -433887.03, -404944.75, -36184.523, 0.0502497, 0.28546193, -380444.97, -19505.063, 0.0, 9.999953, 10.000249 
2.81628e+3, 2.7316958e+2, -369210.47, -230572.38, 15212.954, 0.17419031, 0.14506331, -228922.66, 34042.23, 0.0, 9.999324, 10.001074 
2.8160286e+3, 2.8316638e+2, -510267.4, -552113.3, 47507.05, 0.25439417, 0.14805442, -479279.94, -314288.25, 0.0, 9.998982, 9.998363 
2.8157756e+3, 2.931637e+2, -320986.72, -445174.94, -26781.207, 0.26422906, 0.39720473, -315457.53, -248433.72, 0.0, 9.999756, 9.998054 
2.815522e+3, 3.0315968e+2, -203797.69, -215908.03, -21954.588, 0.22946526, 0.46253294, -187078.56, -187078.56, 0.0, 9.999365, 9.999147 
2.8152713e+3, 3.131533e+2, -521123.78, -269202.7, 9037.204, 0.38944894, 0.16755411, -268878.9, -268878.9, 0.0, 9.996509, 9.999829 
2.8150138e+3, 3.2315293e+2, -581504.1, -266705.72, 2710.6191, -0.033246152, 0.5051804, -266682.4, -266682.4, 0.0, 9.995916, 10.000141 
2.8298017e+3, 1.3347548e+2, -1034756.4, -1562753.3, 1760.7728, 0.8640181, 0.28059748, -1034750.5, 597222.56, 0.00003446636, 10.005436, 9.998416 
2.829547e+3, 1.4347227e+2, -1134927.1, -1418526.0, 278366.03, 0.87677896, 0.39805079, -964325.06, 569684.44, 0.000010513858, 10.003468, 9.999686 
2.8292954e+3, 1.5346912e+2, -1154811.0, -1305504.3, 285012.0, 0.70602274, 0.39644888, -935354.4, 500685.8, 0.0000015351845, 10.002382, 10.000289 
2.8290442e+3, 1.6346636e+2, -1135823.3, -1162535.5, 132324.63, 0.58398235, 0.38054094, -1016182.44, 321882.5, 0.000000059116555, 10.001464, 10.001052 
2.828791e+3, 1.7346407e+2, -1125969.9, -1067324.3, 87994.79, 0.4468229, 0.34436318, -1003895.2, 236187.17, 0.0, 10.000712, 10.001382 
2.82854e+3, 1.8346135e+2, -1142701.1, -1187979.9, 68103.45, 0.40673196, 0.31104818, -1093572.6, 48533.918, 0.0, 10.000616, 9.999934 
2.8282908e+3, 1.9345737e+2, -901220.56, -1029148.0, 73839.46, 0.58849645, 0.24940337, -867492.8, 176654.14, 0.0, 10.001658, 9.999837 
2.8280407e+3, 2.0345382e+2, -794850.25, -971769.1, 126427.7, 0.5847424, 0.24300763, -729007.94, 217174.72, 0.0, 10.001914, 9.999436 
2.8277877e+3, 2.1345137e+2, -865034.4, -947704.0, 171463.42, 0.18904397, 0.37083116, -729993.8, 118214.01, 0.0, 10.00074, 9.999486 
2.827536e+3, 2.234481e+2, -849928.3, -929036.2, 88113.08, 0.012890838, 0.43104288, -792898.44, -42658.723, 0.0, 10.000328, 9.99915 
2.827286e+3, 2.3344311e+2, -604864.0, -748392.25, 79700.21, 0.27520594, 0.33392003, -569379.75, 82906.58, 0.0, 10.001294, 9.999249 
2.827035e+3, 2.4343844e+2, -600396.5, -849854.3, 131370.94, 0.38450006, 0.32128927, -543974.56, 10358.906, 0.0, 10.0013075, 9.997875 
2.8267804e+3, 2.5343412e+2, -752117.44, -886701.6, 191541.23, 0.15280695, 0.4451321, -616391.6, -160007.95, 0.0, 9.999661, 9.997737 
2.8265274e+3, 2.6342943e+2, -614978.06, -533906.0, 213515.19, 0.032754965, 0.44600692, -357113.0, 1318.4698, 0.0, 9.998899, 9.999862 
2.8262764e+3, 2.734244e+2, -330620.7, -271063.88, 95099.836, 0.14673653, 0.22428115, -201189.23, 59282.418, 0.0, 9.999862, 10.000525 
2.8260243e+3, 2.8342035e+2, -359057.38, -449165.78, 24561.797, 0.23119208, 0.16683564, -352797.22, -190291.16, 0.0, 9.9999075, 9.998617 
2.8257707e+3, 2.9341784e+2, -485984.72, -483538.53, 62820.598, 0.193129, 0.40040022, -421929.13, -357394.25, 0.0, 9.998461, 9.998406 
2.8255165e+3, 3.0341405e+2, -410296.22, -307310.72, 116012.62, 0.14902957, 0.47338086, -231876.6, -231876.6, 0.0, 9.997906, 9.999225 
2.8252655e+3, 3.1340775e+2, -148850.2, -82883.33, 48848.66, 0.3951246, 0.19326378, -56925.285, -56925.285, 0.0, 9.999045, 9.999879 
2.8250077e+3, 3.234059e+2, -279025.13, -51534.414, -5345.02, 0.014471111, 0.35569072, -51408.902, -51408.902, 0.0, 9.997731, 10.000726 
2.8398058e+3, 1.3372773e+2, -1058640.5, -1367585.1, -93712.664, 1.0724367, -0.23434955, -1032437.0, 597054.3, 0.000015684813, 10.0044, 10.000248 
2.839544e+3, 1.4373122e+2, -1157069.8, -1567698.3, 190354.73, 0.5688065, 0.49427366, -1082403.9, 449058.88, 0.000004272105, 10.00392, 9.998442 
2.839294e+3, 1.5372586e+2, -1177741.8, -1511526.5, 234513.88, 0.5954364, 0.43793777, -1056797.8, 376725.4, 0.00000074939715, 10.003067, 9.998544 
2.8390428e+3, 1.6372092e+2, -1102567.0, -1275560.9, 121427.56, 0.6069056, 0.3502399, -1039978.8, 295596.25, 0.00000007213024, 10.002256, 9.999893 
2.8387892e+3, 1.7371646e+2, -1073096.1, -1168500.1, 113504.54, 0.48349512, 0.20773225, -997677.2, 239938.11, 0.0, 10.001627, 10.000245 
2.838537e+3, 1.8371361e+2, -1059348.3, -1196289.1, 158693.73, 0.37484425, 0.25345197, -954983.8, 184659.94, 0.0, 10.001403, 9.999498 
2.838287e+3, 1.9371329e+2, -857758.8, -1033737.2, 154938.4, 0.35146016, 0.5852819, -767568.3, 274085.9, 0.0, 10.00207, 9.999605 
2.838037e+3, 2.0371117e+2, -753701.0, -883924.56, 115415.78, 0.33013558, 0.70898587, -686297.3, 257379.8, 0.0, 10.0019045, 10.000045 
2.8377864e+3, 2.1370603e+2, -839131.1, -851999.6, 133598.64, 0.27811378, 0.49476475, -711811.9, 133909.44, 0.0, 10.000558, 10.000232 
2.8375345e+3, 2.2370097e+2, -870533.9, -884581.06, 104908.69, 0.17881618, 0.3126452, -772413.94, -24648.068, 0.0, 9.999955, 9.999637 
2.837282e+3, 2.3369601e+2, -642445.0, -716988.56, 109876.8, 0.04749238, 0.17452723, -563690.5, 86121.1, 0.0, 10.000827, 9.99969 
2.8370294e+3, 2.4369273e+2, -548779.8, -654165.94, 69552.78, 0.021649769, 0.20958754, -514213.78, 37629.32, 0.0, 10.000919, 9.99941 
2.836777e+3, 2.5369197e+2, -611149.56, -624606.75, 102350.06, 0.15300289, 0.5153892, -515307.2, -61454.49, 0.0, 9.9997835, 9.999482 
2.8365245e+3, 2.6368862e+2, -718258.6, -803814.1, 208529.72, 0.1912766, 0.6312281, -548164.1, -192277.11, 0.0, 9.999134, 9.997899 
2.836273e+3, 2.7368104e+2, -538754.7, -665717.44, 130515.15, 0.12001938, 0.41176128, -457101.34, -199140.3, 0.0, 9.999691, 9.997904 
2.83602e+3, 2.8367507e+2, -310242.8, -292943.0, -13870.136, 0.10036528, 0.26273677, -285246.63, -125229.32, 0.0, 9.999664, 9.999812 
2.8357655e+3, 2.9367176e+2, -358298.44, -224006.19, 5841.4014, 0.13077706, 0.23400944, -223752.58, -161706.4, 0.0, 9.998472, 10.000192 
2.8355104e+3, 3.036685e+2, -448757.66, -403980.25, 143829.44, 0.05879934, 0.29237413, -280807.4, -280807.4, 0.0, 9.997973, 9.99853 
2.835259e+3, 3.136651e+2, -227958.22, -252452.03, 95103.69, 0.1518405, 0.4116088, -144316.13, -144316.13, 0.0, 9.999057, 9.998714 
2.8350052e+3, 3.2365686e+2, -292495.22, -64606.684, -164981.08, 0.28952008, 0.002600213, 21953.537, 21953.537, 0.0, 9.997676, 10.000657 
2.8498077e+3, 1.3398656e+2, -1310997.1, -1664453.5, -49554.367, 1.2232345, -0.033513065, -1304181.1, 322778.25, 0.000007017168, 10.003401, 9.998699 
2.8495446e+3, 1.4398904e+2, -1100350.5, -1551533.6, 131559.34, 0.513411, 0.68522, -1064791.9, 464151.47, 0.0000017375256, 10.004346, 9.998352 
2.8492934e+3, 1.5398139e+2, -1068878.5, -1464449.4, 207324.86, 0.48494658, 0.40100774, -980128.3, 450897.56, 0.00000031278074, 10.0038395, 9.998498 
2.849042e+3, 1.6397649e+2, -885051.7, -1099346.4, 151306.73, 0.5090049, 0.29474482, -806796.06, 526280.44, 0.00000002542409, 10.003444, 10.000534 
2.8487888e+3, 1.7397536e+2, -816996.1, -978733.25, 202007.52, 0.4722666, 0.43210042, -680271.56, 554811.5, 0.0, 10.003102, 10.000838 
2.8485364e+3, 1.839728e+2, -906509.1, -1218564.9, 299463.0, 0.36900064, 0.52387583, -724864.4, 412243.66, 0.0, 10.002884, 9.998623 
2.8482854e+3, 1.9396847e+2, -822594.25, -1136734.5, 270448.6, 0.22074145, 0.57101244, -666912.94, 372244.0, 0.0, 10.002845, 9.99852 
2.848035e+3, 2.0396441e+2, -750542.56, -923768.44, 136560.97, 0.25009033, 0.5865699, -675443.7, 265755.63, 0.0, 10.002096, 9.9996805 
2.8477857e+3, 2.139603e+2, -910386.75, -919943.0, 106240.15, 0.5019388, 0.50957716, -808817.4, 34418.934, 0.0, 10.000211, 9.999933 
2.847534e+3, 2.2395614e+2, -978208.75, -919629.56, 120216.19, 0.4869208, 0.42575213, -825186.4, -79913.45, 0.0, 9.999142, 9.999782 
2.8472793e+3, 2.3395185e+2, -846061.44, -792986.3, 122194.266, 0.09862137, 0.33590198, -694481.1, -47171.61, 0.0, 9.999335, 9.999879 
2.8470257e+3, 2.4394815e+2, -699597.4, -706910.5, 34937.063, -0.045258302, 0.31133127, -668126.06, -118783.7, 0.0, 9.999806, 9.9995775 
2.846774e+3, 2.5394547e+2, -463197.78, -529410.6, -10744.194, 0.15242858, 0.39797473, -461498.0, -10130.148, 0.0, 10.000703, 9.999688 
2.8465217e+3, 2.639419e+2, -527321.8, -685498.44, 70551.55, 0.23999858, 0.46519023, -500426.7, -147024.22, 0.0, 10.000343, 9.998125 
2.8462687e+3, 2.7393663e+2, -724600.75, -736239.94, 129431.07, 0.14374322, 0.45182195, -600858.5, -345402.25, 0.0, 9.998345, 9.998066 
2.846015e+3, 2.839313e+2, -612022.44, -453206.78, 69462.04, 0.09649376, 0.36601812, -427113.06, -269604.4, 0.0, 9.9976635, 9.999673 
2.8457606e+3, 2.9392624e+2, -282911.88, -205746.69, -28816.355, 0.10018698, 0.19116081, -196173.3, -136618.23, 0.0, 9.999084, 10.000013 
2.8455055e+3, 3.039231e+2, -194062.17, -125415.38, 82407.63, 0.016140949, 0.20372553, -70468.89, -70468.89, 0.0, 9.999084, 9.999893 
2.845253e+3, 3.139224e+2, -404786.13, -174261.98, 207893.08, 0.06638847, 0.44407725, -51816.504, -51816.504, 0.0, 9.997172, 10.000148 
2.8449994e+3, 3.23915e+2, -370914.4, -144311.89, -19254.035, 0.31159312, 0.07197283, -142687.55, -142687.55, 0.0, 9.997321, 10.000283 
2.8598082e+3, 1.3424599e+2, -1361367.6, -1857786.3, -16034.234, 1.2468189, 0.2579619, -1360850.4, 263574.84, 0.0000025214665, 10.00381, 9.997163 
2.8595456e+3, 1.4424649e+2, -1183784.3, -1567393.4, 155265.66, 0.494966, 0.84608173, -1128816.9, 397612.94, 0.0000006523475, 10.003678, 9.998562 
2.8592926e+3, 1.5423727e+2, -1267053.4, -1520263.0, 225636.61, 0.40210405, 0.3693335, -1134929.3, 293596.13, 0.000000075691624, 10.002309, 9.998853 
2.8590408e+3, 1.6423307e+2, -1050200.5, -1096013.5, 165261.5, 0.40753305, 0.2802212, -906265.56, 424301.84, 0.00000000026919006, 10.001957, 10.001271 
2.8587884e+3, 1.7423579e+2, -803690.4, -884330.9, 165295.47, 0.43707362, 0.7225668, -673868.56, 558667.0, 0.0, 10.002819, 10.001622 
2.858536e+3, 1.8423326e+2, -977600.7, -1366354.5, 256462.39, 0.34319538, 0.82058537, -850177.44, 284381.0, 0.0, 10.002886, 9.997609 
2.858284e+3, 1.9422348e+2, -995836.25, -1349022.4, 281864.47, 0.13575728, 0.43136567, -839814.4, 196842.89, 0.0, 10.002208, 9.997372 
2.858034e+3, 2.04217e+2, -887677.7, -1074685.0, 113590.36, 0.23573114, 0.3019164, -834056.56, 104667.4, 0.0, 10.001524, 9.998921 
2.8577852e+3, 2.142149e+2, -883533.3, -987789.75, 71171.44, 0.74217635, 0.50201243, -847441.75, -6694.403, 0.0, 10.000746, 9.999209 
2.8575334e+3, 2.2421235e+2, -847042.94, -854956.1, 144172.03, 0.79570556, 0.6200689, -706773.2, 35997.277, 0.0, 10.000033, 9.9998 
2.857277e+3, 2.3420908e+2, -758487.1, -743881.9, 149137.66, 0.2557018, 0.6246636, -601868.2, 42926.098, 0.0, 9.999899, 9.999949 
2.857023e+3, 2.4420406e+2, -709335.9, -770426.56, 82019.766, -0.0005349772, 0.4909888, -652358.3, -105520.77, 0.0, 9.99999, 9.999056 
2.8567713e+3, 2.5419667e+2, -521922.06, -623450.0, 43401.805, 0.13507946, 0.16730846, -505897.56, -56990.645, 0.0, 10.000581, 9.999104 
2.856519e+3, 2.6419234e+2, -428634.06, -461957.34, 19929.848, 0.2103767, 0.11681985, -419318.63, -68371.35, 0.0, 10.0002575, 9.999703 
2.8562644e+3, 2.7419186e+2, -561147.75, -456574.66, 56433.297, 0.19717567, 0.40872148, -431928.78, -178977.52, 0.0, 9.998595, 9.999869 
2.8560102e+3, 2.841885e+2, -664315.3, -628375.44, 106420.31, 0.1517428, 0.4842494, -538418.5, -383432.44, 0.0, 9.997946, 9.998336 
2.855756e+3, 2.9418126e+2, -402131.5, -448572.6, 35458.09, 0.07216521, 0.24918325, -382967.25, -325905.03, 0.0, 9.999058, 9.998363 
2.855501e+3, 3.041778e+2, 30169.303, 356442.53, 29613.77, -0.020228503, 0.16557454, 359108.6, 359108.6, 0.0, 9.999007, 10.003246 
2.8552476e+3, 3.1417957e+2, -144133.1, 366051.03, 135204.48, 0.11826675, 0.2834357, 399666.8, 399666.8, 0.0, 9.997166, 10.003871 
2.85499e+3, 3.2418132e+2, -395433.4, -258115.75, 72130.99, -0.064025015, 0.6622245, -227190.88, -227190.88, 0.0, 9.99754, 9.99942 
2.8698042e+3, 1.345023e+2, -1104408.8, -1410365.3, -27148.05, 0.7716191, 0.30105495, -1102018.5, 519907.06, 0.000000771933, 10.004158, 10.000071 
2.869545e+3, 1.4450319e+2, -1265381.1, -1508592.8, 140357.92, 0.44220698, 0.73902076, -1201276.6, 322639.72, 0.00000022596275, 10.002677, 9.999451 
2.8692925e+3, 1.5449774e+2, -1546242.0, -1577787.4, 214057.5, 0.60462993, 0.5746013, -1347376.9, 78593.586, 0.000000019626157, 10.00005, 9.999547 
2.86904e+3, 1.6449308e+2, -1487807.5, -1500910.0, 277751.88, 0.61130744, 0.4885699, -1216529.6, 111487.24, 0.0, 9.999784, 9.999534 
2.8687868e+3, 1.7448993e+2, -1005567.44, -1199225.3, 198858.27, 0.34358656, 0.53967816, -881216.7, 348831.78, 0.0, 10.002362, 9.99968 
2.8685346e+3, 1.8448627e+2, -856857.06, -1118527.0, 157682.45, 0.24111803, 0.5440591, -782798.0, 349283.94, 0.0, 10.002885, 9.999317 
2.8682843e+3, 1.9448118e+2, -1061972.3, -1167708.0, 277085.78, 0.35156518, 0.43534806, -832755.9, 201370.4, 0.0, 10.000831, 9.999284 
2.8680333e+3, 2.0447634e+2, -1092927.9, -1269385.9, 255682.1, 0.41843948, 0.41779628, -910680.1, 25494.514, 0.0, 10.000539, 9.998052 
2.8677806e+3, 2.1447223e+2, -720667.3, -1035181.9, 205216.97, 0.44826826, 0.5330869, -619382.8, 218840.66, 0.0, 10.002417, 9.998075 
2.8675282e+3, 2.2446807e+2, -419784.66, -650964.06, 219498.78, 0.43467268, 0.55887896, -287300.38, 452963.84, 0.0, 10.002984, 9.999775 
2.8672755e+3, 2.3446374e+2, -471152.28, -606984.5, 214852.44, 0.30567396, 0.4628772, -313737.16, 328559.75, 0.0, 10.001883, 9.999933 
2.8670228e+3, 2.4445908e+2, -582263.2, -712267.4, 174311.34, 0.24378805, 0.37650988, -461228.4, 83108.7, 0.0, 10.000887, 9.999018 
2.86677e+3, 2.544537e+2, -591858.8, -664486.9, 164346.25, 0.29156306, 0.26427656, -459862.4, -13472.382, 0.0, 10.000139, 9.999033 
2.8665164e+3, 2.6444936e+2, -456365.66, -469088.5, 118863.6, 0.27331647, 0.22634739, -343693.38, 4738.0776, 0.0, 10.000045, 9.999754 
2.8662607e+3, 2.7444693e+2, -223326.0, -287099.3, 57900.168, 0.16262025, 0.3213603, -189112.81, 61341.426, 0.0, 10.000886, 9.999928 
2.866006e+3, 2.8444394e+2, -271829.84, -348966.94, 104558.586, 0.11164045, 0.3945684, -198953.19, -46469.203, 0.0, 10.000265, 9.999133 
2.8657517e+3, 2.9443964e+2, -482762.66, -394926.4, 185821.19, 0.09177401, 0.37596476, -247903.92, -193374.5, 0.0, 9.998123, 9.999174 
2.8654963e+3, 3.0443597e+2, -263020.3, 200316.3, 146625.23, 0.028246228, 0.24801421, 242817.94, 242817.94, 0.0, 9.997062, 10.003113 
2.865242e+3, 3.1443414e+2, -116664.22, 359408.44, -22502.684, 0.15405942, 0.02784883, 360469.72, 360469.72, 0.0, 9.99745, 10.003686 
2.8649846e+3, 3.244388e+2, -114249.57, -223852.0, -32882.746, -0.14734244, 0.73584956, -105141.09, -105141.09, 0.0, 9.999941, 9.998484 
2.8798e+3, 1.3475889e+2, -1291598.8, -1164321.4, 22866.365, 0.32939819, 0.32108748, -1160337.9, 459083.72, 0.00000013631846, 10.001437, 10.003071 
2.8795436e+3, 1.4476024e+2, -1282218.4, -1446282.8, 42915.258, 0.39201525, 0.6207254, -1271670.9, 249727.28, 0.000000034246376, 10.002271, 10.000072 
2.879292e+3, 1.5475859e+2, -1259092.0, -1375027.3, 81558.75, 0.8341632, 0.77663183, -1216999.3, 206410.63, 0.0000000006124831, 10.001746, 10.000123 
2.8790393e+3, 1.6475292e+2, -1407181.8, -1716999.6, 318332.72, 0.8278821, 0.6656322, -1208067.4, 117399.48, 0.0, 10.001444, 9.9972515 
2.8787848e+3, 1.7474271e+2, -1242886.9, -1580204.4, 305214.84, 0.23709787, 0.24392828, -1062831.0, 164743.23, 0.0, 10.001886, 9.997293 
2.8785333e+3, 1.8473825e+2, -812813.1, -835253.5, 111383.49, 0.14468326, 0.1824231, -712086.1, 417528.7, 0.0, 10.002067, 10.001654 
2.878285e+3, 1.9473997e+2, -754627.25, -733119.3, 158422.22, 0.6465643, 0.49666867, -585086.5, 446497.2, 0.0, 10.001707, 10.001844 
2.8780326e+3, 2.0473753e+2, -1043845.6, -1363480.9, 242747.22, 0.594966, 0.63306946, -913029.7, 20576.418, 0.0, 10.0013895, 9.996993 
2.877775e+3, 2.1473047e+2, -888435.0, -1243953.6, 247920.52, -0.05271941, 0.5635714, -761132.1, 74555.734, 0.0, 10.001818, 9.99693 
2.877522e+3, 2.2472379e+2, -592523.56, -742740.0, 180603.06, -0.15634225, 0.39624915, -472033.4, 265721.4, 0.0, 10.001832, 9.999702 
2.8772745e+3, 2.3471752e+2, -572310.7, -663140.7, 167719.86, 0.32980412, 0.1149121, -443965.88, 195839.3, 0.0, 10.0012245, 9.999863 
2.8770235e+3, 2.4471425e+2, -618626.06, -712096.7, 135156.11, 0.55476207, 0.16340108, -522353.13, 19480.592, 0.0, 10.00056, 9.999179 
2.8767693e+3, 2.5471407e+2, -596201.06, -649045.2, 130566.25, 0.5156594, 0.5550255, -489410.22, -45569.895, 0.0, 10.0000305, 9.999193 
2.876514e+3, 2.6470998e+2, -528289.75, -610977.94, 145627.39, 0.34804183, 0.5737235, -418251.3, -72368.39, 0.0, 10.00001, 9.998799 
2.8762573e+3, 2.7470165e+2, -317853.16, -446981.22, 102848.26, 0.052443456, 0.18380398, -260982.92, -13018.876, 0.0, 10.0007305, 9.998905 
2.8760016e+3, 2.846986e+2, -106941.484, 7497.8843, 32059.908, -0.0185652, 0.1822302, 15867.3, 165858.27, 0.0, 10.000198, 10.001616 
2.875747e+3, 2.9470092e+2, -290448.5, -18144.406, 99339.87, 0.14221853, 0.5704421, 14243.716, 66206.05, 0.0, 9.998213, 10.001723 
2.875491e+3, 3.046968e+2, -479140.53, -284606.53, 137808.6, 0.12157383, 0.4252877, -213196.11, -213196.11, 0.0, 9.997221, 9.999703 
2.8752363e+3, 3.146861e+2, -360332.34, -180277.38, -10099.138, 0.14457527, -0.30725247, -179712.69, -179712.69, 0.0, 9.9976, 9.999904 
2.8749838e+3, 3.2468706e+2, -142691.98, -316133.97, 188728.63, 0.09477196, 0.25991544, -21713.617, -21713.617, 0.0, 10.000111, 9.997756 
2.8897983e+3, 1.3502052e+2, -1881377.9, -1700194.5, 229858.2, 0.56218153, 0.5947557, -1543720.0, 73138.42, 0.000000000111466114, 9.998452, 10.000838 
2.889543e+3, 1.4501774e+2, -1409232.4, -1597666.3, 80009.68, 0.44879812, 0.6407951, -1379843.6, 139034.13, 0.0, 10.001782, 9.999268 
2.8892913e+3, 1.5501145e+2, -983382.25, -1327212.1, 74777.44, 0.7529256, 0.40574768, -967823.44, 453107.97, 0.0, 10.004005, 9.999361 
2.889039e+3, 1.6500628e+2, -1029964.8, -1469230.3, 216616.42, 0.7761676, 0.35271448, -941115.4, 381865.94, 0.0, 10.003742, 9.997844 
2.8887847e+3, 1.7500162e+2, -1348464.6, -1566992.3, 288019.56, 0.4074195, 0.42818576, -1149680.0, 75353.516, 0.0, 10.000887, 9.997863 
2.8885332e+3, 1.8499729e+2, -1094224.5, -1138853.0, 208947.69, 0.32255095, 0.4262588, -906402.94, 220672.28, 0.0, 10.000848, 10.000153 
2.8882843e+3, 1.949939e+2, -584657.3, -825175.8, 109261.695, 0.59497625, 0.38864568, -542434.5, 486665.25, 0.0, 10.003624, 10.000286 
2.8880316e+3, 2.049905e+2, -637598.75, -992107.4, 31575.354, 0.55921733, 0.42232308, -634808.4, 296323.0, 0.0, 10.003407, 9.998578 
2.8877747e+3, 2.1498641e+2, -1022563.2, -1126827.4, 139070.56, 0.1518902, 0.4793396, -926174.7, -92997.23, 0.0, 10.000104, 9.998563 
2.887521e+3, 2.2498189e+2, -1076137.5, -1016577.25, 196493.16, 0.06477089, 0.46280304, -847620.3, -112396.3, 0.0, 9.998695, 9.999328 
2.8872713e+3, 2.3497692e+2, -892676.5, -868867.56, 162884.75, 0.34562954, 0.35635096, -717452.8, -80182.7, 0.0, 9.999247, 9.9994 
2.8870192e+3, 2.4497312e+2, -741034.1, -736265.56, 119511.01, 0.47510615, 0.3610075, -619115.06, -79808.49, 0.0, 9.999579, 9.999477 
2.886765e+3, 2.5497082e+2, -621445.25, -627167.1, 116157.64, 0.41345805, 0.50868183, -508113.3, -66782.07, 0.0, 9.999726, 9.999481 
2.88651e+3, 2.6496714e+2, -509942.22, -503097.13, 201838.56, 0.302943, 0.51265496, -304652.1, 38715.043, 0.0, 9.999738, 9.999655 
2.8862548e+3, 2.7496138e+2, -420130.2, -409477.22, 248047.75, 0.12451615, 0.3059951, -166698.78, 78721.94, 0.0, 9.999684, 9.999651 
2.885999e+3, 2.849584e+2, -248896.03, -151259.6, 93668.92, 0.055996615, 0.32502693, -94450.7, 52996.484, 0.0, 9.9996195, 10.000798 
2.8857425e+3, 2.949588e+2, -102359.22, -27486.387, -36879.73, 0.09892706, 0.60775083, -12371.876, 37067.78, 0.0, 9.9999485, 10.000814 
2.885486e+3, 3.049538e+2, -148414.95, -357295.13, -15343.758, 0.046121802, 0.5105046, -147293.86, -147293.86, 0.0, 10.000515, 9.997617 
2.8852317e+3, 3.1494266e+2, 283.9041, -272653.06, -65762.39, 0.079169005, -0.050208095, 15302.513, 15302.513, 0.0, 10.001254, 9.997525 
2.8849813e+3, 3.24941e+2, -76481.34, -95493.164, 234721.33, 0.14401546, 0.30975068, 148926.48, 148926.48, 0.0, 9.999734, 9.999486 
2.8997973e+3, 1.3528216e+2, -1647661.1, -1882004.9, 309680.97, 0.8544458, 0.86852276, -1433726.5, 180567.33, 0.0, 10.001353, 9.998184 
2.8995425e+3, 1.4527492e+2, -1382859.1, -1693477.4, 146641.88, 0.5108623, 0.6440786, -1324568.8, 191791.8, 0.0, 10.002443, 9.998288 
2.8992906e+3, 1.5526347e+2, -1168829.0, -1521261.8, 157055.8, 0.6133806, -0.012739553, -1108997.3, 309465.75, 0.0, 10.003192, 9.998417 
2.8990382e+3, 1.6525955e+2, -1044530.75, -1343924.0, 128609.49, 0.6753976, 0.046579417, -996871.1, 323627.22, 0.0, 10.0030775, 9.999023 
2.8987846e+3, 1.7526224e+2, -1121939.6, -1329290.5, 183240.92, 0.6132541, 0.7330089, -1015078.06, 207397.28, 0.0, 10.001889, 9.999011 
2.898533e+3, 1.8525758e+2, -1215729.6, -1488701.6, 301766.7, 0.506319, 0.773216, -1021018.5, 103504.805, 0.0, 10.00128, 9.997541 
2.898283e+3, 1.9524643e+2, -1027099.06, -1319603.4, 253339.44, 0.41837722, 0.21946646, -880826.75, 145806.7, 0.0, 10.0018, 9.997767 
2.898031e+3, 2.0524158e+2, -722034.8, -753503.5, -19956.916, 0.470264, 0.10885808, -712355.6, 216323.73, 0.0, 10.001631, 10.001069 
2.897776e+3, 2.152421e+2, -790731.75, -735746.4, 51245.69, 0.61386263, 0.37399045, -705084.4, 125586.34, 0.0, 10.000495, 10.001059 
2.8975216e+3, 2.2524121e+2, -960112.2, -1028692.75, 223310.92, 0.53951794, 0.6295295, -768474.1, -35791.203, 0.0, 9.999786, 9.998719 
2.897267e+3, 2.3523897e+2, -827053.25, -902127.2, 204112.94, 0.316053, 0.8569676, -657054.44, -22340.006, 0.0, 9.999977, 9.99882 
2.8970128e+3, 2.4523361e+2, -660503.7, -660721.1, 143117.03, 0.18767135, 0.71813864, -517495.3, 19273.684, 0.0, 9.99997, 9.999811 
2.8967586e+3, 2.5522557e+2, -568899.75, -559271.9, 134905.94, 0.13445485, 0.25854287, -429094.0, 9749.715, 0.0, 9.999898, 9.999868 
2.8965056e+3, 2.6522294e+2, -365420.94, -223659.66, 200519.72, 0.18073268, 0.25307935, -81861.61, 259002.45, 0.0, 9.999824, 10.001533 
2.8962535e+3, 2.7522478e+2, -291656.13, -159666.73, 229097.4, 0.3135217, 0.6191331, 12751.899, 255590.89, 0.0, 9.999747, 10.001339 
2.8959972e+3, 2.852214e+2, -472071.34, -618441.1, 88715.4, 0.23023523, 0.6793617, -430249.94, -285377.34, 0.0, 9.999629, 9.997588 
2.8957376e+3, 2.9521367e+2, -367104.0, -548728.3, 6522.4106, -0.048169173, 0.4893292, -366870.06, -319915.13, 0.0, 9.999838, 9.997279 
2.8954813e+3, 3.0520785e+2, -176977.94, -446912.53, 25210.154, -0.1536707, 0.5175009, -174643.66, -174643.66, 0.0, 10.000665, 9.996917 
2.8952286e+3, 3.1520346e+2, -44931.9, -409467.97, -22638.293, -0.025482243, 0.7237125, -43531.402, -43531.402, 0.0, 10.001467, 9.996471 
2.8949758e+3, 3.2519898e+2, 206966.84, 482043.66, 118870.33, -0.07587381, 0.6920983, 526293.5, 526293.5, 0.0, 9.999767, 10.003442 
2.9097992e+3, 1.3553765e+2, -1161321.1, -1564253.5, 230688.13, 0.9896006, 0.7325915, -1056510.3, 555277.5, 0.0, 10.004307, 9.99895 
2.909543e+3, 1.4553049e+2, -1319996.4, -1696717.0, 120413.61, 0.59530973, 0.50061744, -1284796.8, 229059.0, 0.0, 10.003014, 9.997992 
2.9092902e+3, 1.5552436e+2, -1381702.0, -1662015.3, 148451.72, 0.68177104, 0.41328564, -1317697.4, 98219.74, 0.0, 10.001888, 9.99808 
2.9090372e+3, 1.6552031e+2, -1155635.1, -1363887.4, 163300.25, 0.62874603, 0.4603601, -1066088.3, 251867.42, 0.0, 10.002157, 9.999335 
2.9087824e+3, 1.7551848e+2, -850311.3, -1162927.8, 181914.36, 0.3905598, 0.66756195, -766775.6, 453195.47, 0.0, 10.003593, 9.999337 
2.9085296e+3, 1.8551378e+2, -1076648.5, -1364746.6, 220941.39, 0.32500276, 0.66012293, -956945.4, 165071.77, 0.0, 10.001976, 9.998062 
2.908279e+3, 1.9550617e+2, -1578797.5, -1531518.1, 281886.3, 0.4146698, 0.42179957, -1272282.0, -248188.39, 0.0, 9.997773, 9.9982605 
2.9080272e+3, 2.0550175e+2, -1231767.9, -974450.56, 199862.5, 0.4947375, 0.32747483, -865416.0, 60719.09, 0.0, 9.998001, 10.001313 
2.9077736e+3, 2.1550028e+2, -575350.0, -603918.6, 178444.95, 0.56108844, 0.37575948, -410618.6, 417525.88, 0.0, 10.001841, 10.001325 
2.90752e+3, 2.254989e+2, -432554.97, -720125.0, 247388.27, 0.50960845, 0.54921556, -290201.75, 439958.03, 0.0, 10.003168, 9.999211 
2.9072657e+3, 2.354974e+2, -444335.34, -665859.8, 272372.94, 0.34450454, 0.80819243, -261064.77, 371117.8, 0.0, 10.002384, 9.999285 
2.907011e+3, 2.4549308e+2, -455306.7, -592752.9, 217658.31, 0.23055407, 0.77257746, -295779.9, 238448.84, 0.0, 10.001514, 9.999533 
2.9067558e+3, 2.554862e+2, -473195.53, -526704.1, 183652.89, 0.15681416, 0.45793334, -314358.4, 121938.01, 0.0, 10.000616, 9.999746 
2.9065016e+3, 2.654834e+2, -310465.56, -157626.39, 217608.83, 0.14103845, 0.42829493, -3408.698, 334909.6, 0.0, 10.000032, 10.001888 
2.9062486e+3, 2.7548438e+2, -250744.7, -92851.69, 164896.33, 0.1825898, 0.6620954, 11022.342, 251321.53, 0.0, 9.9998255, 10.001758 
2.9059926e+3, 2.8548086e+2, -455931.3, -505369.28, 117045.84, 0.17153454, 0.6394295, -361022.72, -218691.5, 0.0, 9.999324, 9.998491 
2.9057336e+3, 2.954733e+2, -592796.0, -530339.5, 265663.63, 0.007437117, 0.38067636, -294075.03, -249665.7, 0.0, 9.997773, 9.998384 
2.9198006e+3, 1.3579185e+2, -1322805.6, -1485113.0, 147693.0, 1.0364, 0.5182947, -1235438.9, 373855.9, 0.0, 10.002548, 10.000331 
2.919543e+3, 1.4578663e+2, -1423192.1, -1755600.5, 87467.12, 0.6302223, 0.41790918, -1401581.6, 109764.08, 0.0, 10.002357, 9.997902 
2.9192898e+3, 1.5578681e+2, -1321793.0, -1642450.6, 148650.69, 0.75944465, 0.9702063, -1263484.3, 149872.44, 0.0, 10.002346, 9.997994 
2.9190356e+3, 1.6578193e+2, -1143539.4, -1365411.5, 230260.39, 0.5765275, 0.94377106, -998884.6, 316521.22, 0.0, 10.00228, 9.999265 
2.9187796e+3, 1.7577353e+2, -1008491.06, -1229666.9, 218290.47, 0.08912291, 0.49469566, -874374.2, 343106.94, 0.0, 10.002471, 9.999419 
2.918526e+3, 1.8576948e+2, -1059682.6, -1200230.0, 76127.91, 0.084137365, 0.47434044, -1026352.0, 93165.38, 0.0, 10.001424, 9.999456 
2.9182744e+3, 1.9576831e+2, -1284383.4, -1244434.6, 167953.83, 0.47129178, 0.73687166, -1095271.6, -73742.695, 0.0, 9.999167, 9.9995575 
2.9180226e+3, 2.0576464e+2, -1107162.6, -986836.56, 339167.1, 0.51442546, 0.6903746, -702537.8, 221025.28, 0.0, 9.999177, 10.000659 
2.9177698e+3, 2.1575928e+2, -686667.9, -718021.2, 293695.97, 0.29606143, 0.41077468, -408230.47, 417381.84, 0.0, 10.00134, 10.000781 
2.9175177e+3, 2.2575602e+2, -522448.66, -664030.0, 198341.61, 0.2772919, 0.37352878, -382643.22, 344999.75, 0.0, 10.002124, 10.000101 
2.9172656e+3, 2.357542e+2, -474112.0, -586443.7, 220043.28, 0.40512204, 0.5098049, -303179.53, 326481.78, 0.0, 10.00177, 10.000129 
2.917011e+3, 2.4575233e+2, -541841.2, -696162.06, 172155.8, 0.40514675, 0.7065662, -430344.9, 101340.34, 0.0, 10.001188, 9.99898 
2.9167548e+3, 2.557502e+2, -508422.0, -586465.25, 159747.3, 0.31644133, 0.9152551, -382999.44, 50715.402, 0.0, 10.000562, 9.999359 
2.9164982e+3, 2.6574627e+2, -347814.28, -237136.69, 213144.2, 0.10502814, 0.8149658, -72264.6, 263486.28, 0.0, 10.000027, 10.001351 
2.9162416e+3, 2.757413e+2, -284610.8, -116422.586, 153908.39, -0.17610088, 0.49397525, -25132.518, 212656.08, 0.0, 9.999611, 10.001707 
2.9159865e+3, 2.8573847e+2, -214432.16, 14075.838, 86916.8, -0.058352705, 0.3495042, 43378.47, 183184.89, 0.0, 9.999261, 10.002088 
2.9157302e+3, 2.9573697e+2, -246861.84, 126409.586, 174119.75, 0.22266786, 0.2908762, 195019.98, 236831.4, 0.0, 9.998018, 10.002793 
2.9297963e+3, 1.3604584e+2, -1462556.8, -1352470.9, 109861.98, 0.81037164, 0.38310483, -1284634.3, 322176.6, 0.0, 10.000708, 10.00213 
2.929539e+3, 1.4604604e+2, -1441383.0, -1613919.4, 122138.48, 0.37324315, 0.6734774, -1378118.6, 130686.58, 0.0, 10.00156, 9.999266 
2.9292884e+3, 1.5604398e+2, -1161241.0, -1442070.3, 211370.97, 0.6714271, 0.8724005, -1047895.94, 362936.8, 0.0, 10.002904, 9.999107 
2.929036e+3, 1.6603899e+2, -1217295.4, -1528975.0, 216183.3, 0.6784966, 0.8493999, -1106637.0, 206249.44, 0.0, 10.002309, 9.998132 
2.9287806e+3, 1.760318e+2, -1355865.3, -1484858.0, 173666.48, 0.39269248, 0.6367139, -1235105.5, -20146.611, 0.0, 10.000449, 9.998645 
2.9285264e+3, 1.8602839e+2, -1021785.25, -942794.25, 91921.66, 0.35461843, 0.5947259, -882242.3, 234745.13, 0.0, 10.000644, 10.001603 
2.928273e+3, 1.9602756e+2, -718086.56, -776973.56, 203249.38, 0.544098, 0.6848996, -542159.1, 476827.97, 0.0, 10.002208, 10.001308 
2.9280198e+3, 2.060244e+2, -860504.3, -1061664.4, 332938.03, 0.49343076, 0.7081339, -613285.4, 307732.38, 0.0, 10.001709, 9.998923 
2.9277667e+3, 2.1601947e+2, -1022226.4, -1052702.8, 243262.17, 0.24948518, 0.6463944, -793725.56, 29345.271, 0.0, 9.999772, 9.999241 
2.927514e+3, 2.260149e+2, -901808.8, -790881.06, 145874.06, 0.22832187, 0.51706606, -690282.5, 34831.438, 0.0, 9.999265, 10.000609 
2.9272625e+3, 2.3601076e+2, -728023.3, -639536.4, 140315.73, 0.3659224, 0.3597996, -536654.1, 90494.73, 0.0, 9.99972, 10.000754 
2.9270083e+3, 2.4600959e+2, -621265.8, -612495.6, 127230.39, 0.39129212, 0.5335217, -489574.78, 39586.934, 0.0, 10.000108, 10.00008 
2.9267523e+3, 2.5601026e+2, -453008.3, -454056.16, 182511.98, 0.33062467, 0.9112207, -271019.5, 160142.06, 0.0, 10.000476, 10.000316 
2.926496e+3, 2.6600623e+2, -493616.53, -431719.22, 214744.34, 0.18749651, 0.8216283, -245704.86, 87495.37, 0.0, 9.999552, 10.000246 
2.9262385e+3, 2.7599913e+2, -591575.1, -350383.88, 118808.125, -0.018830359, 0.3890089, -301690.78, -66426.55, 0.0, 9.997854, 10.000953 
2.9259828e+3, 2.8599685e+2, -268364.22, 58851.02, 29672.596, 0.037141435, 0.29715398, 61520.027, 198796.77, 0.0, 9.9985485, 10.002763 
2.9257262e+3, 2.9599735e+2, 321667.9, 472188.53, -106554.12, 0.18613568, 0.35130987, 527380.9, 566640.25, 0.0, 10.001542, 10.00352 
2.9397914e+3, 1.3630089e+2, -1270219.8, -1134604.4, 110076.84, 0.5290677, 0.36921328, -1073126.4, 531191.25, 0.0, 10.001517, 10.003227 
2.9395345e+3, 1.4630513e+2, -1370045.8, -1423438.4, 109123.79, 0.08321149, 0.93574953, -1284400.3, 221868.77, 0.0, 10.0013895, 10.000651 
2.939287e+3, 1.5629955e+2, -1247368.0, -1357430.9, 155124.33, 0.56448776, 0.6317059, -1137802.9, 270519.75, 0.0, 10.001769, 10.000235 
2.939036e+3, 1.6629499e+2, -1454237.0, -1749101.5, 110300.29, 0.79859525, 0.6527413, -1417543.1, -107168.664, 0.0, 10.001145, 9.99718 
2.9387817e+3, 1.7629088e+2, -1471067.3, -1602552.4, 166478.48, 0.78957593, 0.83791834, -1357820.5, -145393.47, 0.0, 9.999934, 9.998083 
2.9385272e+3, 1.8628792e+2, -908960.2, -677669.1, 172117.63, 0.6926876, 0.7604186, -585954.2, 528495.9, 0.0, 10.000515, 10.003487 
2.9382724e+3, 1.9628572e+2, -610833.06, -564330.3, 188567.25, 0.5872457, 0.5224663, -397586.3, 618868.06, 0.0, 10.002255, 10.002744 
2.938018e+3, 2.0628312e+2, -977139.2, -1329719.8, 209903.92, 0.45314893, 0.63943774, -879316.56, 39165.668, 0.0, 10.00182, 9.997031 
2.9377633e+3, 2.1628003e+2, -1093342.5, -1269625.6, 195466.44, 0.28388208, 0.94922054, -967063.75, -146537.19, 0.0, 10.000072, 9.99761 
2.9375106e+3, 2.2627437e+2, -836956.7, -723609.4, 194888.16, 0.23043913, 0.76667243, -577321.75, 145258.83, 0.0, 9.999559, 10.000928 
2.9372582e+3, 2.3626728e+2, -664542.2, -549274.56, 175832.72, 0.26330894, 0.28026488, -421871.1, 202767.81, 0.0, 9.999902, 10.001286 
2.937004e+3, 2.4626595e+2, -488247.6, -348678.53, 135613.97, 0.27133268, 0.31482378, -265947.4, 260699.38, 0.0, 10.000154, 10.001875 
2.936749e+3, 2.5626805e+2, -362795.2, -246142.81, 155451.81, 0.2603028, 0.6576524, -138435.23, 290188.88, 0.0, 10.00038, 10.001796 
2.9364938e+3, 2.6626456e+2, -578677.9, -632827.75, 118466.1, 0.33478028, 0.62712973, -484232.16, -153572.4, 0.0, 9.999655, 9.998816 
2.936238e+3, 2.7625751e+2, -630080.6, -523507.13, 61840.72, 0.45771313, 0.34354758, -495162.06, -262431.03, 0.0, 9.99826, 9.999563 
2.935981e+3, 2.8625554e+2, -314668.97, -115959.66, 112904.625, 0.28889197, 0.41347727, -64918.83, 69828.43, 0.0, 9.99886, 10.001425 
2.9357213e+3, 2.9625466e+2, 197666.9, 266704.3, 52469.09, -0.15961282, 0.5034349, 294991.22, 331739.5, 0.0, 10.001321, 10.00221 
2.9497898e+3, 1.3655882e+2, -1420491.8, -1658406.9, 46309.43, 0.47226456, 0.6115968, -1411795.6, 189998.55, 0.0, 10.002387, 9.99923 
2.9495314e+3, 1.4655901e+2, -1415055.6, -1443310.1, 10103.556, 0.00016366142, 0.94185907, -1411814.5, 91981.03, 0.0, 10.001045, 10.000693 
2.9492843e+3, 1.5655302e+2, -1454317.9, -1402998.4, 5875.9736, 0.57108086, 0.58485526, -1402334.3, 3513.4932, 0.0, 10.000091, 10.000741 
2.9490316e+3, 1.6654967e+2, -1457790.6, -1375011.1, 26525.555, 0.7137555, 0.50534046, -1367240.8, -59364.09, 0.0, 9.999479, 10.000559 
2.9487753e+3, 1.7654781e+2, -1403084.1, -1293619.8, 229283.66, 0.538442, 0.5897403, -1112626.3, 97267.34, 0.0, 9.999187, 10.000574 
2.9485223e+3, 1.8654539e+2, -1146469.4, -1129171.8, 265836.38, 0.47468317, 0.6346343, -871843.5, 240073.73, 0.0, 10.000326, 10.00048 
2.9482707e+3, 1.9654258e+2, -765964.8, -898822.3, 91916.84, 0.50061387, 0.6269139, -718985.06, 294959.22, 0.0, 10.002293, 10.000436 
2.9480174e+3, 2.0654005e+2, -749445.75, -962233.7, 34927.01, 0.4988756, 0.7106595, -743859.5, 172112.58, 0.0, 10.0022545, 9.99935 
2.9477626e+3, 2.165376e+2, -830175.1, -928295.0, 179146.16, 0.4491429, 0.8576846, -693492.7, 124509.375, 0.0, 10.00094, 9.999539 
2.9475087e+3, 2.2653344e+2, -717082.06, -708518.94, 281424.38, 0.36434686, 0.7661697, -431343.53, 288697.13, 0.0, 10.000544, 10.000572 
2.947255e+3, 2.3652828e+2, -580439.9, -558191.7, 227351.88, 0.2766906, 0.50954974, -341691.94, 280392.13, 0.0, 10.000662, 10.000872 
2.9470012e+3, 2.4652554e+2, -539575.25, -500595.16, 89354.98, 0.28471085, 0.48796785, -428629.34, 95477.65, 0.0, 10.000331, 10.000752 
2.9467463e+3, 2.565245e+2, -487039.75, -410983.88, -28869.27, 0.3353647, 0.61282504, -401267.1, 24848.346, 0.0, 9.999955, 10.000878 
2.9464918e+3, 2.6652077e+2, -431259.06, -534747.3, -65352.797, 0.45075566, 0.57707095, -399645.88, -71494.016, 0.0, 10.000538, 9.999073 
2.9462364e+3, 2.765154e+2, -122878.32, -275758.4, -48009.152, 0.61736304, 0.43447942, -109052.31, 121154.164, 0.0, 10.001696, 9.999633 
2.945978e+3, 2.865138e+2, -158678.34, -86739.18, 41387.297, 0.37178126, 0.5567935, -67875.2, 64345.79, 0.0, 10.000121, 10.001019 
2.945716e+3, 2.9651204e+2, -416454.84, -63013.22, 90596.38, -0.27813324, 0.6039198, -41144.13, -6909.4204, 0.0, 9.9972315, 10.001903 
2.959788e+3, 1.368166e+2, -1905303.0, -2313806.5, -30592.803, 0.42599466, 0.8789402, -1903024.6, -303751.38, 0.0, 10.000909, 9.995438 
2.9595292e+3, 1.4681198e+2, -1478843.5, -1476750.6, 47400.41, -0.0350296, 0.8843049, -1430385.1, 70946.02, 0.0, 10.000642, 10.000651 
2.959282e+3, 1.5680677e+2, -1374438.8, -1299344.9, 69952.28, 0.61595666, 0.60876906, -1257499.8, 145871.58, 0.0, 10.000373, 10.001314 
2.959027e+3, 1.668045e+2, -1076094.8, -781830.6, 27404.953, 0.5940828, 0.4056787, -779300.1, 526077.06, 0.0, 10.000343, 10.004217 
2.9587677e+3, 1.768041e+2, -1038565.1, -842284.2, 123009.734, 0.15204453, 0.26397488, -783062.2, 424300.88, 0.0, 10.000511, 10.003034 
2.9585162e+3, 1.8680201e+2, -1390419.0, -1685265.5, 250041.67, 0.13067618, 0.46194318, -1247576.0, -138184.78, 0.0, 10.000541, 9.996562 
2.9582685e+3, 1.9679876e+2, -1177612.9, -1406294.4, 181701.34, 0.39111492, 0.79452, -1077269.8, -65825.88, 0.0, 10.0008, 9.99767 
2.958017e+3, 2.0679621e+2, -680668.25, -545313.9, 26263.494, 0.5625472, 0.79688865, -540396.44, 373074.16, 0.0, 10.001078, 10.00278 
2.9577622e+3, 2.1679392e+2, -621472.1, -514378.13, 107222.11, 0.6407473, 0.6172585, -448075.78, 367410.13, 0.0, 10.001022, 10.002343 
2.9575077e+3, 2.2679226e+2, -724833.94, -776902.8, 236251.47, 0.51845, 0.68939984, -513186.75, 204313.05, 0.0, 10.000771, 9.999993 
2.9572532e+3, 2.3679097e+2, -658374.1, -696099.06, 194110.3, 0.33168834, 0.8722455, -482211.97, 137300.25, 0.0, 10.000561, 9.999974 
2.956999e+3, 2.4678619e+2, -694336.6, -849154.4, 60625.063, 0.3521183, 0.82696754, -673421.9, -151861.45, 0.0, 10.000448, 9.9983015 
2.9567444e+3, 2.5677988e+2, -552085.94, -657902.94, -19264.525, 0.4642426, 0.6659905, -548687.9, -125063.1, 0.0, 10.000442, 9.998946 
2.9564896e+3, 2.667759e+2, -318454.5, -352807.44, -13385.418, 0.5150249, 0.6216165, -313854.8, 11807.028, 0.0, 10.000758, 10.000219 
2.9562345e+3, 2.767729e+2, -100000.125, -156896.17, -21546.877, 0.55062246, 0.6062569, -92761.2, 134926.48, 0.0, 10.001396, 10.000589 
2.9559746e+3, 2.8677166e+2, -160435.97, -70161.875, -84010.25, 0.3290003, 0.7103718, -19930.824, 109767.05, 0.0, 10.000019, 10.001188 
2.9557103e+3, 2.9676867e+2, -428032.3, -133625.9, 17313.424, -0.2716158, 0.61821246, -132611.23, -100884.98, 0.0, 9.997432, 10.00132 
2.9697838e+3, 1.3707407e+2, -1958033.9, -2144040.0, -20872.531, 0.33515656, 1.1316664, -1955720.5, -358965.34, 0.0, 9.99969, 9.997191 
2.9695272e+3, 1.470675e+2, -1452354.9, -1305394.1, 140864.2, 0.09381855, 0.79063475, -1219996.9, 278829.97, 0.0, 10.0001335, 10.002075 
2.969282e+3, 1.5706755e+2, -1279779.4, -1192617.5, 195096.0, 0.87986356, 0.9162213, -1036294.1, 364519.0, 0.0, 10.000747, 10.001873 
2.9690275e+3, 1.6706431e+2, -1106024.4, -1133728.5, 55583.914, 0.8391342, 0.77917665, -1062592.5, 240243.05, 0.0, 10.001591, 10.0012 
2.9687685e+3, 1.7705984e+2, -860356.2, -979139.6, -76964.13, 0.34135836, 0.52254933, -822532.4, 382339.1, 0.0, 10.002678, 10.001057 
2.9685155e+3, 1.8705685e+2, -1144717.1, -1256898.1, 19438.996, 0.30553216, 0.5291192, -1141444.1, -34540.83, 0.0, 10.000854, 9.999368 
2.9682657e+3, 1.9705439e+2, -1479173.6, -1316427.3, 207125.63, 0.5277486, 0.6647338, -1175263.6, -166327.66, 0.0, 9.997689, 9.999802 
2.9680133e+3, 2.0705184e+2, -1109193.4, -900293.25, 148717.16, 0.57166, 0.66484815, -823011.06, 87951.414, 0.0, 9.998751, 10.001476 
2.967759e+3, 2.1704942e+2, -594572.06, -593063.5, 26421.967, 0.5111384, 0.58433735, -567385.06, 245598.9, 0.0, 10.001576, 10.00155 
2.9675055e+3, 2.2704816e+2, -565942.56, -642473.8, 49022.043, 0.47131544, 0.687097, -542019.56, 172973.97, 0.0, 10.001593, 10.000526 
2.9672515e+3, 2.3704734e+2, -658455.2, -676305.44, 52100.152, 0.43540493, 0.86717606, -614521.25, 2477.984, 0.0, 10.000449, 10.0001745 
2.9669973e+3, 2.4704237e+2, -592003.25, -846371.3, 56351.85, 0.412444, 0.8116506, -580078.3, -61028.94, 0.0, 10.001323, 9.997913 
2.9667428e+3, 2.5703534e+2, -182730.38, -535825.56, 44916.68, 0.4036608, 0.630433, -177106.17, 244015.1, 0.0, 10.003182, 9.998483 
2.9664865e+3, 2.6703167e+2, -151340.55, -288098.53, -29303.29, 0.38863435, 0.6452898, -145326.19, 177832.0, 0.0, 10.001951, 10.000101 
2.9662296e+3, 2.7702948e+2, -405745.84, -329224.34, -92842.4, 0.3751667, 0.7277252, -267067.97, -41888.734, 0.0, 9.999384, 10.000387 
2.9659706e+3, 2.8702787e+2, -286732.97, -175399.28, -179398.89, 0.32376638, 0.81904376, -43229.074, 83966.44, 0.0, 9.999346, 10.0008 
2.9657072e+3, 2.970237e+2, -50995.816, -28146.123, -116183.76, -0.137294, 0.6569456, 77173.164, 106411.04, 0.0, 10.000389, 10.000627 
2.97978e+3, 1.3732986e+2, -1682328.9, -1761551.1, -48346.05, 0.29616967, 1.223885, -1659439.0, -65188.785, 0.0, 10.000521, 9.999416 
2.9795262e+3, 1.4732298e+2, -1310298.5, -1106897.4, 72235.21, 0.2520484, 0.685764, -1083854.4, 412464.7, 0.0, 10.000563, 10.003228 
2.9792818e+3, 1.573282e+2, -1250781.1, -1171282.5, 72950.1, 1.1197995, 1.2039548, -1127955.1, 270298.44, 0.0, 10.000921, 10.001936 
2.9790282e+3, 1.6732395e+2, -1485889.0, -1756085.1, 25836.475, 1.0869286, 1.1923873, -1483440.6, -183143.25, 0.0, 10.000881, 9.997268 
2.9787707e+3, 1.7731524e+2, -1288748.5, -1457080.4, -4646.901, 0.6306461, 0.9028595, -1288620.3, -86229.32, 0.0, 10.000919, 9.998617 
2.978516e+3, 1.8731147e+2, -972910.06, -699782.8, -64608.516, 0.59657204, 0.67906535, -685270.7, 419150.72, 0.0, 9.999995, 10.003604 
2.978262e+3, 1.973101e+2, -1154820.9, -820143.5, 81140.43, 0.7101878, 0.4898113, -801509.06, 204914.13, 0.0, 9.998453, 10.002837 
2.9780087e+3, 2.0730722e+2, -1215472.5, -1265617.5, 205995.31, 0.5223624, 0.50280035, -1033029.44, -124575.44, 0.0, 9.999382, 9.99866 
2.9777548e+3, 2.1730448e+2, -759022.06, -877038.5, 97431.14, 0.26184794, 0.64603806, -704123.3, 106365.23, 0.0, 10.001335, 9.999713 
2.9775023e+3, 2.2730288e+2, -536317.2, -521804.25, 1088.1532, 0.34887528, 0.72348315, -521723.13, 190777.86, 0.0, 10.001345, 10.001471 
2.9772496e+3, 2.3730098e+2, -594262.7, -578810.56, 16582.162, 0.53634334, 0.7146395, -568242.9, 46268.945, 0.0, 10.0006075, 10.000767 
2.9769957e+3, 2.4729654e+2, -575700.2, -766104.9, 117702.33, 0.42203447, 0.6526959, -519517.84, -2964.101, 0.0, 10.001122, 9.998561 
2.9767406e+3, 2.57291e+2, -286178.97, -571228.06, 94864.93, 0.22233325, 0.567719, -257494.28, 161115.39, 0.0, 10.002417, 9.998604 
2.9764828e+3, 2.6728767e+2, -267085.3, -437780.13, -109557.65, 0.1401868, 0.6660108, -213554.88, 107093.73, 0.0, 10.001556, 9.999266 
2.976223e+3, 2.7728537e+2, -434413.75, -430922.53, -128053.336, 0.10444545, 0.81720287, -304602.9, -81924.09, 0.0, 9.999573, 9.999595 
2.975967e+3, 2.8728303e+2, -318148.1, -266182.78, -110000.89, 0.32534268, 0.9102154, -179137.6, -54430.99, 0.0, 9.99948, 10.000105 
2.9757065e+3, 2.9727954e+2, -90624.44, -64038.08, -49417.332, 0.061322004, 0.891014, -26157.229, 587.4122, 0.0, 10.0002365, 10.000429 
2.989783e+3, 1.3757843e+2, -1515456.8, -1781558.3, -90302.98, 0.7266378, 0.69703925, -1487706.0, 104094.57, 0.0, 10.002082, 9.998545 
2.9895237e+3, 1.4756897e+2, -1336089.5, -1278631.5, -49551.926, 0.24933998, 0.025333758, -1250082.6, 243815.52, 0.0, 10.001058, 10.001823 
2.9892763e+3, 1.5757374e+2, -1294066.1, -1252293.3, -107287.09, 0.7619799, 0.6173143, -1163878.5, 231964.08, 0.0, 10.000898, 10.001385 
2.9890227e+3, 1.6757265e+2, -1552830.6, -1537041.8, -118444.51, 0.8552782, 0.7960909, -1426228.9, -128371.27, 0.0, 9.99934, 9.999515 
2.988766e+3, 1.7756908e+2, -1634834.4, -1436391.9, 69469.92, 0.61325955, 0.80074584, -1414489.5, -214587.92, 0.0, 9.997756, 10.000277 
2.988511e+3, 1.8756732e+2, -1208599.9, -920600.1, 23296.418, 0.5106882, 0.78128505, -918727.9, 183187.42, 0.0, 9.998886, 10.002601 
2.9882574e+3, 1.9756638e+2, -966491.6, -830997.25, -40344.465, 0.60030305, 0.74934876, -819894.25, 184021.78, 0.0, 10.000197, 10.001917 
2.9880065e+3, 2.0756446e+2, -973989.75, -1062640.4, 124265.4, 0.625233, 0.8390951, -886380.94, 19555.742, 0.0, 10.00067, 9.999427 
2.9877552e+3, 2.1756127e+2, -817376.9, -891548.5, 107285.82, 0.5150196, 0.8854326, -740947.9, 67025.875, 0.0, 10.000862, 9.999843 
2.9875e+3, 2.2755677e+2, -674263.7, -682749.0, -39574.6, 0.3222312, 0.72549015, -638705.0, 71311.43, 0.0, 10.000782, 10.000656 
2.9872444e+3, 2.3755261e+2, -472137.63, -487815.47, -67698.54, 0.20044887, 0.54521906, -411825.7, 200226.11, 0.0, 10.001307, 10.001061 
2.986992e+3, 2.4754953e+2, -451884.97, -414629.38, 68575.414, 0.29364628, 0.43629584, -362196.78, 151879.84, 0.0, 10.00071, 10.001183 
2.9867396e+3, 2.5754642e+2, -639958.6, -515502.94, 134471.72, 0.39678124, 0.34964806, -429558.75, -13456.1, 0.0, 9.998997, 10.00065 
2.9864806e+3, 2.6754448e+2, -520882.97, -502133.22, 48615.62, 0.22590072, 0.48593438, -461996.8, -143867.23, 0.0, 9.99955, 9.999804 
2.9862186e+3, 2.775431e+2, -141510.22, -228243.92, 91099.25, -0.014793749, 0.69177276, -83982.29, 136172.78, 0.0, 10.00129, 10.000186 
2.9859635e+3, 2.8754127e+2, -156906.97, -97481.86, 165753.27, 0.33246207, 0.7811777, 41200.895, 163376.7, 0.0, 10.000168, 10.000982 
2.9857033e+3, 2.975392e+2, -431598.53, -202429.98, 284401.25, 0.18047585, 0.8781704, -10397.823, 13798.393, 0.0, 9.997698, 10.000817 
2.999784e+3, 1.3783434e+2, -2079819.6, -2089014.4, 999.3535, 1.0378709, 0.8939023, -2079712.3, -490434.66, 0.0, 9.998402, 9.998184 
2.999522e+3, 1.47823e+2, -1524859.9, -1585439.4, 84818.36, 0.29522622, 0.16589305, -1465085.1, 26313.44, 0.0, 10.000695, 9.999887 
2.99927e+3, 1.5782316e+2, -1239987.3, -1292249.4, -64397.367, 0.35623786, 0.49238297, -1196621.1, 196773.7, 0.0, 10.001496, 10.000846 
2.999015e+3, 1.6782369e+2, -975898.6, -864514.1, -138234.66, 0.46459463, 0.6314783, -771174.7, 524217.97, 0.0, 10.0015135, 10.003127 
2.9987627e+3, 1.7782429e+2, -1003475.44, -882618.8, 134796.5, 0.7627031, 0.6768355, -795325.5, 402066.1, 0.0, 10.0009365, 10.00258 
2.998507e+3, 1.878242e+2, -1088787.3, -1166579.6, 112345.1, 0.52531004, 0.8931955, -1008795.56, 90599.1, 0.0, 10.000916, 9.999983 
2.9982513e+3, 1.9781953e+2, -825107.06, -1028389.06, 70048.35, 0.2924994, 0.7846034, -803307.1, 198134.1, 0.0, 10.002243, 9.999604 
2.9980043e+3, 2.0781709e+2, -892478.06, -841569.7, 130464.305, 0.60554963, 0.80125076, -734099.6, 169366.36, 0.0, 10.000394, 10.001096 
2.997758e+3, 2.1781479e+2, -1142318.8, -1007818.9, 56349.035, 1.0281563, 0.8088923, -987331.9, -181842.31, 0.0, 9.99844, 10.000213 
2.9975003e+3, 2.2781041e+2, -858915.06, -949115.25, -58494.445, 0.59952885, 0.75509584, -830153.0, -122618.71, 0.0, 10.000257, 9.999079 
2.9972404e+3, 2.3780681e+2, -490844.0, -448256.3, -58085.87, 0.020615073, 0.70443964, -407684.2, 201886.42, 0.0, 10.000955, 10.001499 
2.996989e+3, 2.4780731e+2, -192563.14, 79290.65, -5523.4854, 0.23920904, 0.723346, 79402.83, 590958.4, 0.0, 10.000897, 10.004481 
2.9967386e+3, 2.5780827e+2, -324781.22, -37557.043, 36658.9, 0.7132581, 0.68869674, -32952.04, 380581.72, 0.0, 9.9997425, 10.003571 
2.9964787e+3, 2.6780787e+2, -414665.22, -336487.94, 4907.7983, 0.4230771, 0.7975166, -336181.06, -20635.969, 0.0, 9.999775, 10.000833 
2.9962158e+3, 2.778067e+2, -130793.26, -86996.875, -4555.862, -0.117906466, 0.9058992, -86527.98, 131041.61, 0.0, 10.000764, 10.0014105 
2.9959586e+3, 2.87804e+2, 27539.04, 184712.6, -60449.742, 0.17893627, 0.7443051, 205272.45, 324864.7, 0.0, 10.000653, 10.00266 
2.9956964e+3, 2.978016e+2, -169368.73, 52308.21, 71136.22, 0.077017754, 0.6104713, 73172.164, 94778.99, 0.0, 9.999045, 10.001868 
