coord_x,coord_y,stress_xx,stress_yy,tau_xy,velocity_x,velocity_y,stress_1,eps,damage,lx,ly
4.9989733e+0, 1.2524843e+2, -1933735.5, -1666109.4, -1769.9371, 0.005564287, 0.07019124, -1666097.8, 46476.64, 0.0013801174, 9.9978285, 10.001378 
4.9990255e+0, 1.3525027e+2, -1847852.5, -1630105.3, 1064.5585, 0.0028492485, 0.16782844, -1630100.0, -15545.655, 0.0008364695, 9.99799, 10.0008745 
4.999164e+0, 1.4524923e+2, -1707754.0, -1517468.9, 4154.0703, 0.00100216, -0.023478646, -1517378.3, -815.2478, 0.00038681776, 9.998303, 10.000818 
4.9994135e+0, 1.552505e+2, -1550968.8, -1403716.8, -5471.503, 0.0031106863, 0.024405913, -1403513.8, 15035.277, 0.00011816065, 9.998761, 10.000705 
4.9995622e+0, 1.6525121e+2, -1453903.6, -1381840.8, -12992.101, 0.0020356318, 0.05884802, -1379570.0, -59028.92, 0.000016018055, 9.999081, 10.0000305 
4.9996227e+0, 1.7525093e+2, -1328680.4, -1274460.4, -11365.357, -0.0020938236, 0.023988927, -1272174.4, -49631.375, 0.00000013955699, 9.999285, 9.999996 
4.999799e+0, 1.8525043e+2, -1241078.4, -1273936.5, -3877.7717, -0.0007664993, 0.015293429, -1240627.0, -116079.08, 0.0, 9.999612, 9.999171 
5.0000846e+0, 1.9524983e+2, -1082411.3, -1151201.0, -215.59924, 0.005976204, 0.03631012, -1082410.6, -55856.47, 0.0, 10.000048, 9.999131 
5.000199e+0, 2.0524877e+2, -964224.4, -1078865.6, -3327.8704, 0.0028795518, 0.03574108, -964127.9, -35564.16, 0.0, 10.000339, 9.998814 
5.000155e+0, 2.1524729e+2, -845128.0, -974661.25, -4733.403, -0.009588783, 0.00006483817, -844955.25, -14378.374, 0.0, 10.000501, 9.998777 
5.0002664e+0, 2.252458e+2, -747736.94, -932559.25, -2997.7214, -0.010248647, -0.00047378056, -747688.3, -15096.999, 0.0, 10.000736, 9.998281 
5.000515e+0, 2.352443e+2, -607754.25, -817055.2, -5132.9795, -0.00036023185, 0.018753715, -607628.44, 26978.639, 0.0, 10.001036, 9.998256 
5.0006545e+0, 2.4524266e+2, -481484.3, -722724.1, -5132.871, 0.00014013059, 0.036405757, -481375.16, 55248.867, 0.0, 10.001305, 9.998103 
5.0006956e+0, 2.5524086e+2, -350391.63, -612975.6, -2302.0383, -0.007972439, 0.04258903, -350371.47, 88270.63, 0.0, 10.00155, 9.998065 
5.0008726e+0, 2.6523873e+2, -221901.94, -524538.3, -2047.1644, -0.0060186447, 0.03582067, -221888.08, 118775.23, 0.0, 10.001864, 9.997848 
5.001172e+0, 2.7523637e+2, -71390.7, -404281.66, -11072.84, 0.0051922146, 0.009560714, -71022.8, 171664.2, 0.0, 10.002238, 9.99782 
5.001343e+0, 2.852343e+2, 35422.473, -365618.28, -9777.26, 0.0055863718, 0.05214543, 35660.695, 180367.98, 0.000000004221918, 10.002572, 9.997251 
5.0013953e+0, 2.9523245e+2, 182501.22, -236796.44, 3484.1206, -0.0044876854, 0.13682535, 182530.17, 229255.88, 0.0000065845143, 10.002878, 9.997315 
5.0015366e+0, 3.0522805e+2, 320657.84, -63077.62, -2220.1604, -0.0033650824, -0.076723844, 320670.7, 320670.7, 0.0000754208, 10.003139, 9.998053 
5.001822e+0, 3.1522685e+2, 372503.47, -1906.057, -22322.54, 0.015076239, 0.006600497, 373829.66, 373829.66, 0.00026987135, 10.003339, 9.998377 
1.4996916e+1, 1.2524807e+2, -1928274.4, -1653601.6, 3906.9744, 0.016404312, 0.0493093, -1653546.1, 59031.02, 0.00135349, 9.997824, 10.001467 
1.499708e+1, 1.3525006e+2, -1841572.0, -1616371.4, 7274.734, 0.00877955, 0.15215729, -1616136.6, -1581.3743, 0.0008181531, 9.997988, 10.00097 
1.499749e+1, 1.4524904e+2, -1724890.3, -1551844.3, 20762.563, 0.0028769493, -0.030137239, -1549388.0, -32823.99, 0.00037595516, 9.998299, 10.000585 
1.499824e+1, 1.5525013e+2, -1567624.1, -1437484.5, 11631.884, 0.009387586, 0.02562721, -1436453.0, -17900.07, 0.00011312574, 9.998758, 10.000475 
1.4998686e+1, 1.6525085e+2, -1450378.6, -1373654.8, -5999.482, 0.006091426, 0.0680915, -1373188.4, -52643.07, 0.000014709239, 9.999078, 10.000089 
1.4998868e+1, 1.7525074e+2, -1325556.6, -1267159.9, -3395.7383, -0.0062519065, 0.04399096, -1266963.0, -44417.39, 0.00000010097208, 9.999282, 10.000049 
1.4999397e+1, 1.8525009e+2, -1234015.8, -1258214.9, 12366.616, -0.0023536282, 0.014836804, -1228814.1, -104263.06, 0.0, 9.999608, 9.999282 
1.5000254e+1, 1.9524914e+2, -1074876.9, -1135180.3, 16260.603, 0.017964818, -0.010083999, -1070771.8, -44212.363, 0.0, 10.000046, 9.999242 
1.5000597e+1, 2.052482e+2, -966092.25, -1082045.6, 2339.073, 0.008569471, -0.005965476, -966045.06, -37477.12, 0.0, 10.000337, 9.998794 
1.5000467e+1, 2.1524717e+2, -847369.25, -978632.94, 1943.5801, -0.028590959, 0.008896145, -847340.44, -16763.137, 0.0, 10.000498, 9.998752 
1.5000796e+1, 2.2524561e+2, -750657.4, -937618.9, 7965.8335, -0.030937541, 0.004314201, -750318.56, -17725.941, 0.0, 10.000732, 9.998248 
1.5001547e+1, 2.352436e+2, -610741.56, -822988.4, 6567.438, -0.000911956, -0.023689946, -610538.56, 24074.557, 0.0, 10.001035, 9.998217 
1.500196e+1, 2.4524194e+2, -476135.47, -711071.0, 3665.5671, 0.00021214144, -0.009883245, -476078.28, 60551.75, 0.0, 10.001303, 9.998184 
1.5002088e+1, 2.5524056e+2, -344593.03, -600335.0, 7325.086, -0.023916243, 0.030461248, -344383.4, 94260.516, 0.0, 10.001548, 9.998154 
1.5002617e+1, 2.6523852e+2, -237422.75, -556005.5, 11805.457, -0.018091911, 0.03848143, -236985.89, 103678.83, 0.0, 10.001862, 9.997633 
1.5003513e+1, 2.7523595e+2, -87512.28, -437060.75, 3206.555, 0.01547628, 0.015041659, -87482.87, 155208.47, 0.0, 10.002235, 9.997597 
1.5004027e+1, 2.8523386e+2, 59658.52, -314493.8, 1391.5857, 0.016867206, 0.046990987, 59663.695, 204375.39, 0.0000000059189293, 10.002569, 9.997603 
1.5004183e+1, 2.9523215e+2, 206445.75, -186108.31, 15557.618, -0.0137493955, 0.11048461, 207061.36, 253788.58, 0.0000065077284, 10.002875, 9.997665 
1.5004613e+1, 3.0522773e+2, 281670.66, -143257.9, 5228.2354, -0.009702328, -0.09346443, 281734.97, 281734.97, 0.000074264535, 10.003136, 9.997504 
1.5005462e+1, 3.1522635e+2, 332267.25, -84051.98, -11395.817, 0.044857785, 0.02589294, 332578.94, 332578.94, 0.0002663471, 10.003333, 9.997815 
2.4994734e+1, 1.2524743e+2, -1951928.1, -1673234.1, -11906.286, 0.0218487, 0.04321723, -1672726.4, 39856.547, 0.0013145427, 9.9977, 10.001392 
2.4995331e+1, 1.3524938e+2, -1794758.5, -1600138.4, -22680.611, 0.01753137, 0.14733061, -1597530.1, 17031.791, 0.0007913486, 9.998337, 10.000914 
2.4995977e+1, 1.4524837e+2, -1682455.1, -1533418.0, -12245.736, 0.0066246735, -0.029742634, -1532418.5, -15847.646, 0.00036019128, 9.998598, 10.000568 
2.4996848e+1, 1.5524954e+2, -1599711.4, -1454880.3, -4926.634, 0.004838065, 0.035399828, -1454712.9, -36153.85, 0.00010584406, 9.998547, 10.000459 
2.4997616e+1, 1.6525024e+2, -1485334.9, -1391857.3, -8998.087, 0.0027553362, 0.07870294, -1390999.0, -70447.36, 0.000012859098, 9.998844, 10.000076 
2.4998303e+1, 1.7525004e+2, -1301144.3, -1256647.9, -12052.006, 0.00037021696, 0.047730822, -1253593.3, -31040.564, 0.00000006033416, 9.9994545, 10.000038 
2.4999134e+1, 1.8524937e+2, -1205495.1, -1233558.1, -4404.121, 0.0031215237, 0.010710085, -1204820.3, -80262.16, 0.0, 9.999757, 9.999379 
2.5000104e+1, 1.9524844e+2, -1105663.6, -1139083.5, -1701.7126, 0.011181329, -0.022047596, -1105577.1, -79011.74, 0.0, 9.999789, 9.999339 
2.50007e+1, 2.0524752e+2, -1011339.0, -1107815.4, -13500.766, -0.00008568051, -0.018359905, -1009485.3, -80911.76, 0.0, 10.000043, 9.998757 
2.5000948e+1, 2.152465e+2, -850490.25, -983945.0, -15451.727, -0.030003352, 0.0014588393, -848724.56, -18141.229, 0.0, 10.000493, 9.998718 
2.5001526e+1, 2.2524495e+2, -740950.1, -927232.3, -8659.667, -0.033255816, -0.0049654557, -740548.44, -7949.7183, 0.0, 10.000773, 9.9983 
2.5002405e+1, 2.3524293e+2, -626661.1, -824927.8, -3686.5374, -0.01185886, -0.03828199, -626592.56, 8026.123, 0.0, 10.000902, 9.998267 
2.500318e+1, 2.4524128e+2, -485009.0, -721704.25, -143.71739, -0.0064696213, -0.022638045, -485008.9, 51626.566, 0.0, 10.001269, 9.998127 
2.500387e+1, 2.552399e+2, -304065.78, -586326.44, -7322.588, -0.015334433, 0.023748893, -303875.94, 134773.69, 0.0, 10.00185, 9.998104 
2.500471e+1, 2.6523784e+2, -196998.45, -537476.6, -7151.6494, -0.009044055, 0.02977898, -196848.3, 143822.63, 0.0, 10.002143, 9.997625 
2.5005692e+1, 2.7523518e+2, -95196.52, -442199.06, 435.28265, 0.012153365, -0.0027855218, -95195.98, 147502.38, 0.0, 10.002189, 9.997584 
2.5006482e+1, 2.852331e+2, 46339.934, -312807.5, 2506.777, 0.01178998, 0.03073622, 46357.43, 191075.69, 0.0000000086392555, 10.002443, 9.997676 
2.5007066e+1, 2.952316e+2, 209413.48, -176862.47, -5450.353, -0.012185229, 0.10568402, 209490.38, 256222.48, 0.0000063841276, 10.002862, 9.997735 
2.5007787e+1, 3.0522725e+2, 289080.2, -151510.02, -11164.323, -0.010688896, -0.08768705, 289362.9, 289362.9, 0.00007245599, 10.00324, 9.997397 
2.5008935e+1, 3.152258e+2, 362032.3, -85729.41, 8131.4395, 0.04507378, 0.035185046, 362179.94, 362179.94, 0.00026087384, 10.003609, 9.997672 
3.499242e+1, 1.252465e+2, -1968387.1, -1707693.6, 11498.017, 0.0187665, 0.04949047, -1707187.5, 5404.4443, 0.0012623775, 9.997702, 10.001155 
3.499377e+1, 1.352482e+2, -1808589.6, -1629732.1, 1019.62085, 0.027120866, 0.15242082, -1629726.4, -15151.668, 0.000755357, 9.998341, 10.00071 
3.499462e+1, 1.4524722e+2, -1667638.8, -1502702.0, -15241.98, 0.010121073, -0.022958158, -1501305.3, 15278.129, 0.00033918672, 9.998599, 10.000779 
3.499524e+1, 1.5524873e+2, -1586232.1, -1426148.9, -6152.4272, -0.011329865, 0.055442076, -1425912.8, -7345.5313, 0.00009620481, 9.998544, 10.000657 
3.4996346e+1, 1.652494e+2, -1491181.6, -1403118.8, 13892.856, -0.009455791, 0.09052638, -1400979.0, -80419.19, 0.000010539653, 9.99884, 10.000001 
3.4997922e+1, 1.7524888e+2, -1306176.9, -1266921.1, 10689.673, 0.016199721, 0.034276377, -1264199.0, -41634.543, 0.000000028001644, 9.9994545, 9.999968 
3.4999004e+1, 1.8524826e+2, -1199074.1, -1219793.0, -3633.7048, 0.0140834795, 0.002113296, -1198455.3, -73886.26, 0.0, 9.999755, 9.999475 
3.4999633e+1, 1.9524775e+2, -1100171.8, -1126793.5, 269.1101, -0.014799533, 0.0011262323, -1100169.0, -73597.02, 0.0, 9.999785, 9.999425 
3.5000503e+1, 2.0524678e+2, -1015382.9, -1115004.0, 3452.4043, -0.024131617, -0.0014782044, -1015263.4, -86682.81, 0.0, 10.000039, 9.998711 
3.50016e+1, 2.152453e+2, -853581.0, -990150.3, 1683.5236, -0.014670748, -0.022458129, -853560.25, -22965.21, 0.0, 10.000492, 9.998676 
3.500245e+1, 2.2524379e+2, -730747.0, -905426.56, -4182.717, -0.018676853, -0.029533172, -730646.9, 1962.8041, 0.0, 10.0007715, 9.998451 
3.500309e+1, 2.352423e+2, -616976.6, -804734.1, 1930.0441, -0.033816997, -0.025218658, -616956.75, 17667.182, 0.0, 10.000901, 9.998407 
3.5004306e+1, 2.4524069e+2, -498180.8, -747987.1, 21547.857, -0.02089398, -0.002973532, -496335.75, 40304.656, 0.0, 10.001266, 9.997948 
3.500605e+1, 2.5523895e+2, -317029.84, -612594.44, 14376.903, 0.016932346, 0.022882283, -316332.16, 122327.03, 0.0, 10.001847, 9.997925 
3.500714e+1, 2.6523668e+2, -183153.8, -508214.38, -5792.4546, 0.019725753, 0.00884881, -183050.61, 157631.42, 0.0, 10.002142, 9.997827 
3.5007697e+1, 2.75234e+2, -81355.98, -412514.06, 2971.8762, -0.0063327723, -0.04344414, -81329.31, 161378.7, 0.0, 10.002185, 9.997789 
3.5008705e+1, 2.852321e+2, 31467.664, -342612.03, 18276.727, -0.01055108, 0.0027205986, 32358.504, 177085.5, 0.000000011844628, 10.0024395, 9.997474 
3.501004e+1, 2.952308e+2, 194653.78, -206079.34, 10455.326, -0.0012644075, 0.12284773, 194926.39, 241666.81, 0.0000061783935, 10.002857, 9.997537 
3.5011065e+1, 3.0522665e+2, 312683.06, -102032.99, 1999.7865, -0.007152413, -0.059446625, 312692.72, 312692.72, 0.00006980885, 10.003238, 9.997739 
3.5012227e+1, 3.1522524e+2, 381826.63, -43950.305, 25483.596, 0.012445056, 0.035992414, 383346.47, 383346.47, 0.00025299258, 10.003607, 9.99796 
4.4990212e+1, 1.2524508e+2, -1970478.3, -1712399.6, -7632.026, 0.028147545, 0.055976428, -1712174.1, 431.8461, 0.0011988538, 9.997704, 10.001123 
4.4991857e+1, 1.3524684e+2, -1879389.4, -1662835.4, -3170.469, 0.025962437, 0.16359514, -1662789.0, -48200.48, 0.0007112032, 9.997852, 10.000718 
4.4992983e+1, 1.4524584e+2, -1720296.3, -1525432.8, -22785.746, 0.005068071, -0.015851848, -1522803.9, -6206.3438, 0.00031351, 9.998227, 10.000803 
4.499392e+1, 1.5524732e+2, -1545920.4, -1404371.4, -28243.018, -0.010763956, 0.0560537, -1398944.3, 19637.344, 0.000084590996, 9.998811, 10.000679 
4.499536e+1, 1.6524798e+2, -1448477.6, -1381648.0, -6931.826, -0.006606705, 0.08817947, -1380936.6, -60362.617, 0.000007991499, 9.99913, 10.00001 
4.499728e+1, 1.7524745e+2, -1338062.1, -1280908.3, -4003.8967, 0.017836515, 0.03285576, -1280629.1, -58050.8, 0.000000008983813, 9.99923, 9.99998 
4.499865e+1, 1.8524691e+2, -1229382.6, -1230594.3, -21159.188, 0.014308261, 0.005950814, -1208820.6, -84238.39, 0.0, 9.999532, 9.999508 
4.4999504e+1, 1.9524652e+2, -1065037.4, -1106371.6, -22233.314, -0.01735729, 0.01320016, -1055349.1, -28764.86, 0.0, 10.000011, 9.999457 
4.500064e+1, 2.0524554e+2, -978048.7, -1095855.3, -17042.643, -0.02688612, 0.0074671563, -975632.7, -47039.863, 0.0, 10.00029, 9.998722 
4.5002034e+1, 2.1524395e+2, -868184.5, -995106.2, -14705.546, -0.014836421, -0.025322082, -866502.94, -35894.86, 0.0, 10.000384, 9.998694 
4.5003194e+1, 2.2524247e+2, -737716.5, -905732.2, -20407.934, -0.018264454, -0.033407062, -735273.2, -2650.6958, 0.0, 10.0007105, 9.998478 
4.500415e+1, 2.3524109e+2, -564614.06, -776122.06, -23616.607, -0.035217594, -0.021411102, -562009.1, 72626.586, 0.0, 10.001246, 9.998437 
4.5005688e+1, 2.4523951e+2, -464308.28, -729489.1, -1557.7435, -0.02044786, 0.0024123618, -464299.13, 72352.57, 0.0, 10.001488, 9.997969 
4.5007756e+1, 2.5523776e+2, -371421.94, -636508.8, 5976.694, 0.022149017, 0.024619177, -371287.25, 67383.2, 0.0, 10.001464, 9.997945 
4.5009094e+1, 2.6523548e+2, -232966.61, -524425.0, -9844.578, 0.019710895, 0.005744473, -232634.45, 108058.65, 0.0, 10.001765, 9.997897 
4.500983e+1, 2.752328e+2, -52010.223, -390241.88, -11177.183, -0.01983695, -0.054631427, -51641.266, 191077.61, 0.0, 10.002352, 9.997863 
4.5011175e+1, 2.852309e+2, 63009.53, -332216.0, 4032.6433, -0.019175276, -0.0073787146, 63050.67, 207788.42, 0.000000014278152, 10.002677, 9.997431 
4.5012987e+1, 2.9522967e+2, 182049.19, -217717.02, 8250.025, 0.010908868, 0.122477256, 182219.38, 228970.61, 0.0000058442592, 10.002794, 9.997488 
4.5014298e+1, 3.052256e+2, 300487.06, -93803.05, 2540.9485, -0.0001675899, -0.05346622, 300503.44, 300503.44, 0.000066210356, 10.003093, 9.997866 
4.5015705e+1, 3.1522423e+2, 370796.66, -43004.234, 10837.472, 0.005220289, 0.03191958, 371080.3, 371080.3, 0.0002424885, 10.003502, 9.998018 
5.49881e+1, 1.2524323e+2, -1956968.0, -1686190.8, -2136.6868, 0.045057926, 0.064341016, -1686173.9, 26450.87, 0.0011275938, 9.997711, 10.0013 
5.498959e+1, 1.3524531e+2, -1864179.4, -1631037.4, 2625.6858, 0.013355934, 0.18313375, -1631007.9, -16404.59, 0.00066134764, 9.997851, 10.000937 
5.499106e+1, 1.4524421e+2, -1731194.3, -1547437.0, -584.68726, -0.010678577, -0.009110117, -1547435.1, -30822.01, 0.00028458898, 9.998224, 10.000653 
5.499287e+1, 1.5524527e+2, -1555959.5, -1426229.3, -6203.543, 0.0024095993, 0.035875224, -1425933.3, -7331.2144, 0.00007188515, 9.998815, 10.000527 
5.499464e+1, 1.6524592e+2, -1441290.1, -1366952.5, -3646.4773, 0.007913906, 0.07082962, -1366774.0, -46179.613, 0.0000055425044, 9.999132, 10.00011 
5.4996383e+1, 1.752458e+2, -1332092.5, -1267225.0, 310.0251, 0.0053358087, 0.04509631, -1267223.5, -44629.305, 0.00000000116644, 9.999225, 10.000076 
5.4998064e+1, 1.8524535e+2, -1232095.0, -1235028.4, -2917.2786, 0.002422882, 0.02282189, -1230296.5, -105698.984, 0.0, 9.999527, 9.99948 
5.499971e+1, 1.9524474e+2, -1066746.3, -1109893.1, -4182.784, 0.0010377705, 0.013143336, -1066344.5, -39742.277, 0.0, 10.000011, 9.999433 
5.500109e+1, 2.0524381e+2, -972337.25, -1083684.0, -13632.385, -0.010586415, 0.00737735, -970692.5, -42081.938, 0.0, 10.000289, 9.998806 
5.500225e+1, 2.1524248e+2, -863233.9, -984445.1, -10355.368, -0.031768497, -0.0074710753, -862355.56, -31732.986, 0.0, 10.000382, 9.998769 
5.5003756e+1, 2.2524095e+2, -744239.4, -918310.25, -275.86908, -0.03334287, -0.017411646, -744238.94, -11601.699, 0.0, 10.000708, 9.998393 
5.5005574e+1, 2.3523927e+2, -570101.75, -787500.7, -3562.3806, -0.017325066, -0.026593765, -570043.4, 64610.67, 0.0, 10.0012455, 9.99836 
5.5007315e+1, 2.4523774e+2, -448588.8, -696538.5, -2716.965, -0.0070349337, -0.007543616, -448559.03, 88110.35, 0.0, 10.001487, 9.998196 
5.5008984e+1, 2.5523633e+2, -356612.38, -605265.6, 5888.5273, -0.0017027174, 0.028837496, -356473.0, 82210.48, 0.0, 10.001462, 9.998161 
5.5010563e+1, 2.6523423e+2, -237051.27, -531867.25, 12202.299, -0.010318834, 0.019250695, -236547.08, 104157.24, 0.0, 10.001761, 9.997848 
5.501209e+1, 2.7523154e+2, -56010.01, -397555.03, 10431.322, -0.029723175, -0.035904415, -55691.723, 187039.22, 0.0, 10.002349, 9.997813 
5.5013883e+1, 2.852296e+2, 71009.56, -315717.03, 7859.868, -0.016378174, 0.0002398846, 71169.24, 215919.8, 0.000000014996283, 10.002678, 9.997544 
5.501589e+1, 2.952282e+2, 189615.89, -201336.06, 13782.623, 0.021502702, 0.10537368, 190101.17, 236865.63, 0.0000053587105, 10.002791, 9.997602 
5.501747e+1, 3.0522415e+2, 293549.5, -107503.4, 18157.516, 0.007603028, -0.07033635, 294369.88, 294369.88, 0.00006167987, 10.003091, 9.997773 
5.501936e+1, 3.1522277e+2, 358234.06, -67846.91, 28791.982, 0.019935315, 0.022232467, 360170.84, 360170.84, 0.00022941288, 10.003498, 9.9978485 
6.4985734e+1, 1.2524095e+2, -1962690.0, -1679402.3, -18786.725, 0.042049974, 0.062331088, -1678161.8, 34485.76, 0.001052614, 9.997632, 10.001384 
6.498751e+1, 1.352432e+2, -1852532.0, -1609728.0, -21232.045, 0.020634044, 0.18319827, -1607885.4, 6738.432, 0.00060904585, 9.997864, 10.001077 
6.498933e+1, 1.4524212e+2, -1741020.8, -1562816.3, -11322.978, -0.0049318, -0.009055429, -1562099.8, -45466.176, 0.000254567, 9.998203, 10.000558 
6.499162e+1, 1.5524307e+2, -1581565.1, -1448617.8, -13111.094, 0.0017881654, 0.03640122, -1447337.1, -28713.08, 0.00005931439, 9.998684, 10.000438 
6.4993685e+1, 1.6524373e+2, -1450492.9, -1359348.9, -22059.1, 0.004836817, 0.07008464, -1354290.6, -33674.426, 0.0000034805446, 9.999018, 10.0002165 
6.499557e+1, 1.7524368e+2, -1327052.6, -1253088.9, -17291.213, 0.0018203472, 0.041062348, -1249246.3, -26631.807, 0.00000000000024211628, 9.99921, 10.00018 
6.499752e+1, 1.8524323e+2, -1248281.0, -1249805.9, -11865.445, -0.00048287582, 0.016864963, -1237153.5, -112535.95, 0.0, 9.999447, 9.999417 
6.4999574e+1, 1.9524257e+2, -1111377.1, -1137546.0, -15949.901, 0.00056686735, 0.0063093533, -1103831.5, -77207.68, 0.0, 9.999733, 9.999377 
6.500129e+1, 2.0524167e+2, -995830.44, -1083150.5, -30580.865, -0.0093371635, 0.0030817487, -986185.8, -57554.2, 0.0, 10.000076, 9.998912 
6.5002686e+1, 2.1524051e+2, -843110.9, -963428.7, -25498.725, -0.030495547, -0.0055311574, -837930.06, -7288.7036, 0.0, 10.000472, 9.99887 
6.500451e+1, 2.25239e+2, -744823.3, -927540.25, -9972.272, -0.030308416, -0.015579332, -744280.7, -11624.776, 0.0, 10.000742, 9.998314 
6.5006715e+1, 2.3523717e+2, -626854.2, -822559.44, -13002.329, -0.010317266, -0.032395735, -625994.1, 8680.49, 0.0, 10.000891, 9.99829 
6.50087e+1, 2.4523558e+2, -475435.84, -694843.9, -18423.713, -0.00514817, -0.02060317, -473899.56, 62790.563, 0.0, 10.001239, 9.998327 
6.501049e+1, 2.5523424e+2, -302276.3, -564307.25, -16706.764, -0.012758183, 0.0091572255, -301215.4, 137487.33, 0.0, 10.001772, 9.998294 
6.501236e+1, 2.6523224e+2, -203534.19, -518444.13, -11132.995, -0.018833531, 0.0043795463, -203141.1, 137581.4, 0.0, 10.002004, 9.997824 
6.5014327e+1, 2.7522966e+2, -112544.99, -427795.72, -11057.6455, -0.021407986, -0.036323987, -112157.61, 130590.88, 0.0, 10.001973, 9.997787 
6.50165e+1, 2.8522772e+2, 26198.676, -330157.94, -9467.704, -0.0048479447, -0.0015148503, 26450.037, 171218.11, 0.000000013847158, 10.002339, 9.997608 
6.501882e+1, 2.9522625e+2, 231396.92, -173569.36, -7858.7544, 0.022762423, 0.088473886, 231549.36, 278331.7, 0.0000047556837, 10.003046, 9.99767 
6.5020674e+1, 3.0522227e+2, 339296.4, -90479.8, -7832.99, 0.0024076628, -0.08412479, 339439.13, 339439.13, 0.000056396846, 10.0034275, 9.997727 
6.502293e+1, 3.152208e+2, 353769.56, -86002.18, 7161.5073, 0.025018126, 0.0071361894, 353886.16, 353886.16, 0.00021408794, 10.003536, 9.997705 
7.4983114e+1, 1.2523821e+2, -1961737.3, -1678726.5, -10424.971, 0.014869768, 0.046318963, -1678343.0, 34331.54, 0.0009783517, 9.997636, 10.001387 
7.4985605e+1, 1.3524048e+2, -1846878.6, -1600354.6, -11920.17, 0.0420822, 0.1619335, -1599779.6, 14870.64, 0.00055803865, 9.997872, 10.001138 
7.4987763e+1, 1.4523953e+2, -1743301.8, -1568401.1, 6425.395, 0.017479604, -0.016629739, -1568165.4, -51506.566, 0.00022607559, 9.998208, 10.000518 
7.499016e+1, 1.5524076e+2, -1584767.3, -1454415.6, 5025.006, -0.012098432, 0.058723144, -1454222.1, -35574.63, 0.000048170983, 9.99868, 10.0004 
7.499249e+1, 1.6524139e+2, -1442335.5, -1341343.0, -14592.04, -0.016537828, 0.08625273, -1339276.9, -18637.223, 0.0000019773436, 9.999013, 10.000341 
7.4994797e+1, 1.752411e+2, -1318435.0, -1235836.4, -9551.898, 0.0034780514, 0.019921586, -1234746.1, -12107.212, 0.0, 9.999213, 10.000297 
7.4996996e+1, 1.8524057e+2, -1254729.9, -1263454.4, -1127.8948, 0.0020357447, -0.012791441, -1254586.4, -129943.75, 0.0, 9.999448, 9.999323 
7.4999106e+1, 1.9523998e+2, -1117920.4, -1150376.4, -4830.42, -0.019043855, -0.0066015446, -1117216.8, -90567.945, 0.0, 9.99973, 9.99929 
7.500123e+1, 2.0523915e+2, -987143.06, -1064304.9, -15613.385, -0.023410533, -0.0051351017, -984103.5, -55447.54, 0.0, 10.000073, 9.9990425 
7.5003344e+1, 2.1523806e+2, -834487.8, -945246.25, -10484.138, -0.0130685065, -0.019303381, -833504.2, -2839.704, 0.0, 10.000471, 9.998995 
7.500545e+1, 2.252366e+2, -749588.75, -937229.06, -4483.5083, -0.011001743, -0.02837625, -749481.7, -16803.125, 0.0, 10.000741, 9.998247 
7.500755e+1, 2.3523474e+2, -631620.44, -832332.3, -6914.294, -0.015733693, -0.039357457, -631382.56, 3315.022, 0.0, 10.00089, 9.998223 
7.500983e+1, 2.4523304e+2, -472628.78, -688460.06, 1517.5061, -0.015643835, -0.038342625, -472618.1, 64095.996, 0.0, 10.001237, 9.998371 
7.5012267e+1, 2.552315e+2, -299304.5, -557815.44, 2824.4841, -0.012446535, -0.03413879, -299273.63, 139454.64, 0.0, 10.00177, 9.998339 
7.501448e+1, 2.6522952e+2, -203297.02, -517692.56, -12824.179, -0.0074548065, -0.03849759, -202774.78, 137972.84, 0.0, 10.002003, 9.9978285 
7.5016546e+1, 2.752272e+2, -113205.63, -428481.53, -11144.761, 0.0031577868, -0.05612952, -112812.164, 129959.41, 0.0, 10.00197, 9.997784 
7.5019026e+1, 2.852253e+2, 26773.117, -328520.72, 17033.936, 0.013333908, -0.012984347, 27587.91, 172378.3, 0.000000011324871, 10.002337, 9.99762 
7.5021774e+1, 2.952238e+2, 232748.36, -170507.78, 18155.008, 0.013261543, 0.07161931, 233564.08, 280368.9, 0.000004098041, 10.003045, 9.997692 
7.5023896e+1, 3.0521992e+2, 339676.84, -89434.0, -4377.7207, -0.018694367, -0.09422759, 339721.5, 339721.5, 0.000050636394, 10.003427, 9.997734 
7.502638e+1, 3.152184e+2, 346194.13, -100993.54, 13869.466, 0.016065791, -0.012584782, 346623.88, 346623.88, 0.00019707165, 10.003533, 9.997603 
8.498058e+1, 1.2523532e+2, -2015645.8, -1715342.5, -15087.738, 0.013968947, 0.0469614, -1714586.4, -1883.2548, 0.00090933184, 9.997312, 10.001292 
8.498359e+1, 1.3523759e+2, -1817000.9, -1588253.3, -25479.154, 0.043043137, 0.16558766, -1585449.6, 29229.746, 0.0005120121, 9.998088, 10.001117 
8.498608e+1, 1.4523673e+2, -1709137.6, -1542938.1, -16281.9375, 0.01820658, -0.008924253, -1541358.1, -24670.94, 0.00020159004, 9.998404, 10.000598 
8.498868e+1, 1.552381e+2, -1633236.9, -1469403.8, -8279.24, -0.0100273155, 0.07636671, -1468986.4, -50312.555, 0.000039447743, 9.998312, 10.000474 
8.4991294e+1, 1.6523872e+2, -1500300.8, -1371171.4, -19237.105, -0.018006487, 0.0982433, -1368366.5, -47700.402, 0.0000010481418, 9.998624, 10.000324 
8.499398e+1, 1.7523824e+2, -1304294.4, -1230700.5, -25886.0, -0.004786163, 0.013572064, -1222507.5, 159.81575, 0.0, 9.999317, 10.000282 
8.499649e+1, 1.8523769e+2, -1218830.3, -1237438.1, -26303.67, -0.0039660335, -0.023553843, -1200233.5, -75562.68, 0.0, 9.999656, 9.999401 
8.4998834e+1, 1.9523725e+2, -1121080.8, -1142929.6, -16571.4, -0.016467005, -0.009308367, -1112156.9, -85482.01, 0.0, 9.99967, 9.999371 
8.500127e+1, 2.0523645e+2, -1007556.1, -1073673.3, -14950.261, -0.01854636, -0.009608227, -1004332.75, -75651.04, 0.0, 9.999932, 9.999046 
8.500382e+1, 2.1523526e+2, -841551.75, -948318.06, -20105.262, -0.010488208, -0.034369465, -837891.2, -7199.7583, 0.0, 10.000421, 9.998999 
8.5006243e+1, 2.2523382e+2, -738600.2, -926703.25, -22460.656, -0.008407269, -0.041872006, -735955.44, -3250.3904, 0.0, 10.000793, 9.998295 
8.5008574e+1, 2.3523217e+2, -602944.5, -813439.2, -16801.074, -0.011247428, -0.038898956, -601611.9, 33110.066, 0.0, 10.001064, 9.998268 
8.501112e+1, 2.4523044e+2, -481556.6, -705775.56, -6601.3667, -0.010694287, -0.03738417, -481362.4, 55376.582, 0.0, 10.001231, 9.998256 
8.501384e+1, 2.5522864e+2, -374879.75, -606914.8, -17511.99, -0.008889986, -0.044415604, -373565.53, 65190.52, 0.0, 10.001306, 9.998225 
8.5016394e+1, 2.6522666e+2, -241100.8, -527517.06, -35397.535, -0.0013612281, -0.051067352, -236790.94, 103984.78, 0.0, 10.001707, 9.997904 
8.5018873e+1, 2.7522445e+2, -45574.09, -387422.4, -28942.549, 0.017027462, -0.06283791, -43140.99, 199656.66, 0.0, 10.002398, 9.99786 
8.502167e+1, 2.8522253e+2, 77253.01, -312435.03, 914.86676, 0.024812723, -0.024167506, 77255.16, 222071.83, 0.000000007967864, 10.002719, 9.997548 
8.5024625e+1, 2.9522085e+2, 180523.25, -203221.81, -4840.084, 0.010444456, 0.049303982, 180584.28, 227417.45, 0.0000034232567, 10.002719, 9.997624 
8.5027033e+1, 3.0521706e+2, 298126.75, -97647.086, -25747.182, -0.030090217, -0.103937924, 299794.72, 299794.72, 0.00004462947, 10.003088, 9.997841 
8.503002e+1, 3.1521562e+2, 376496.3, -86420.02, 796.1579, 0.016128214, -0.027426347, 376497.66, 376497.66, 0.00017893763, 10.00374, 9.997603 
9.4978094e+1, 1.2523228e+2, -2029737.0, -1744653.0, 14726.27, 0.034018427, 0.065225616, -1743894.3, -31160.895, 0.0008487081, 9.997312, 10.001092 
9.498149e+1, 1.352345e+2, -1824762.1, -1605553.8, 3185.4055, 0.023461267, 0.19370185, -1605507.4, 9203.814, 0.00047347447, 9.998093, 10.000996 
9.498427e+1, 1.4523366e+2, -1693400.8, -1510736.6, -19946.217, -0.0038982625, 0.014041114, -1508584.0, 8134.937, 0.00018256163, 9.998405, 10.000818 
9.4987124e+1, 1.5523516e+2, -1618681.4, -1440024.6, -10516.236, 0.003047877, 0.08898755, -1439407.8, -20704.652, 0.00003354367, 9.998316, 10.000674 
9.4990057e+1, 1.6523571e+2, -1512377.8, -1396356.3, 7097.449, -0.0042479592, 0.10556513, -1395923.8, -75228.09, 0.00000057940093, 9.998625, 10.000152 
9.499312e+1, 1.7523508e+2, -1315569.3, -1253702.8, -33.872353, -0.02294936, 0.02207407, -1253702.8, -31003.29, 0.0, 9.999315, 10.000126 
9.4996e+1, 1.8523459e+2, -1200654.1, -1199570.5, -25895.395, -0.018826013, -0.014639327, -1174211.3, -49509.203, 0.0, 9.999656, 9.999661 
9.4998735e+1, 1.952344e+2, -1103393.1, -1106428.6, -15363.548, 0.0060929446, -0.0016384342, -1089472.5, -62770.41, 0.0, 9.999671, 9.9996195 
9.5001435e+1, 2.0523356e+2, -1016640.7, -1092505.8, 3428.9302, 0.0035051617, -0.010131273, -1016486.06, -87777.16, 0.0, 9.999931, 9.998918 
9.50041e+1, 2.152321e+2, -849888.56, -965446.8, -1598.9307, -0.023984019, -0.050926965, -849866.44, -19144.15, 0.0, 10.000421, 9.998881 
9.5006883e+1, 2.2523071e+2, -727901.3, -904156.7, -12412.062, -0.023617834, -0.056048345, -727031.5, 5703.95, 0.0, 10.0007925, 9.99845 
9.5009774e+1, 2.3522943e+2, -592824.94, -791993.3, -6685.757, 0.0023588394, -0.031439815, -592600.75, 42147.19, 0.0, 10.001063, 9.998417 
9.5012546e+1, 2.4522777e+2, -500867.78, -745697.94, -4238.6646, 0.008867957, -0.016955407, -500794.4, 35970.445, 0.0, 10.00123, 9.997981 
9.50152e+1, 2.5522572e+2, -394021.1, -646464.5, -13929.212, -0.0035743222, -0.0225924, -393254.84, 45531.297, 0.0, 10.001305, 9.997954 
9.5018095e+1, 2.652236e+2, -231670.23, -507555.34, -9487.894, -0.0015117944, -0.034073625, -231344.31, 109462.57, 0.0, 10.001705, 9.998042 
9.5021284e+1, 2.7522144e+2, -35515.703, -366369.56, -3654.8499, 0.018660739, -0.056652583, -35475.332, 207351.44, 0.0, 10.002397, 9.998006 
9.502441e+1, 2.8521937e+2, 66842.08, -333829.06, 82.06322, 0.027595973, -0.034322783, 66842.09, 211688.98, 0.0000000042394483, 10.002718, 9.997401 
9.5027375e+1, 2.9521734e+2, 169001.5, -226583.2, -3697.0366, 0.012721257, 0.020335186, 169036.05, 215903.4, 0.000002739973, 10.002716, 9.997465 
9.5030093e+1, 3.0521378e+2, 311854.06, -67674.53, -929.6526, -0.033462927, -0.114264116, 311856.34, 311856.34, 0.000038513957, 10.003083, 9.998048 
9.503382e+1, 3.152125e+2, 382947.3, -72167.29, 26840.309, 0.02175375, -0.03740085, 384524.75, 384524.75, 0.00016010099, 10.003737, 9.997704 
1.0497566e+2, 1.2522887e+2, -1955268.4, -1711623.6, 4630.1743, 0.033407047, 0.07380245, -1711535.8, 1231.357, 0.00079770345, 9.997836, 10.001064 
1.04979254e+2, 1.3523124e+2, -1898828.4, -1634624.6, 5541.0825, 0.017531462, 0.209951, -1634508.5, -19764.645, 0.0004431459, 9.997558, 10.001054 
1.0498234e+2, 1.4523038e+2, -1769334.8, -1547210.1, -13490.348, -0.010907635, 0.02531387, -1546393.8, -29642.21, 0.00016917764, 9.997884, 10.00082 
1.0498567e+2, 1.5523165e+2, -1551279.8, -1408126.8, -21604.945, 0.0035252078, 0.079921216, -1404937.1, 13800.052, 0.000030278157, 9.998779, 10.0006695 
1.04988985e+2, 1.6523221e+2, -1444368.6, -1368835.9, -11146.588, 0.0020654066, 0.09646761, -1367225.3, -46495.2, 0.0000004316036, 9.999113, 10.000106 
1.0499232e+2, 1.7523171e+2, -1374822.8, -1286704.8, -8440.419, -0.013971922, 0.033202488, -1285903.6, -63170.527, 0.0, 9.998928, 10.000086 
1.0499549e+2, 1.8523128e+2, -1260864.3, -1217398.6, -32159.045, -0.011863345, -0.0008420162, -1200317.5, -75582.51, 0.0, 9.999194, 9.999761 
1.0499852e+2, 1.9523105e+2, -1066287.4, -1078502.8, -34801.824, 0.0076797516, -0.0016728297, -1037061.4, -10326.572, 0.0, 9.999881, 9.999711 
1.0500152e+2, 2.052302e+2, -977273.06, -1082379.6, -22387.037, 0.0037955835, -0.012238867, -972703.44, -43961.766, 0.0, 10.000238, 9.998839 
1.05004475e+2, 2.1522875e+2, -873604.0, -984543.25, -23758.377, -0.02235276, -0.044409882, -868730.1, -37974.56, 0.0, 10.000292, 9.998812 
1.0500757e+2, 2.2522734e+2, -757738.25, -909165.44, -32239.777, -0.02233268, -0.051380385, -751160.0, -18391.271, 0.0, 10.000547, 9.998533 
1.0501079e+2, 2.3522605e+2, -598269.75, -786306.94, -32397.102, 0.0014598725, -0.037556753, -592844.5, 41936.35, 0.0, 10.000989, 9.998491 
1.0501389e+2, 2.4522442e+2, -483746.25, -747906.56, -30429.982, 0.01258608, -0.017394993, -480286.2, 56511.39, 0.0, 10.001393, 9.997889 
1.0501689e+2, 2.552225e+2, -333759.66, -627367.6, -27230.166, 0.011162322, -0.0028357548, -331255.6, 107563.11, 0.0, 10.001761, 9.997866 
1.0502003e+2, 2.6522034e+2, -189116.97, -487008.8, -13706.32, 0.0070712827, -0.012912666, -188487.66, 152352.11, 0.0, 10.001996, 9.998045 
1.050234e+2, 2.75218e+2, -77564.26, -386455.44, -18669.223, 0.0048419633, -0.050872937, -76439.99, 166420.44, 0.0, 10.002107, 9.998008 
1.050269e+2, 2.8521582e+2, 27820.814, -354977.2, -19954.486, 0.01770163, -0.03826001, 28858.19, 173739.52, 0.0000000012344323, 10.00246, 9.997382 
1.05030425e+2, 2.952138e+2, 211323.28, -208860.78, -13828.47, 0.032198247, 0.013927512, 211777.89, 258680.31, 0.0000020653147, 10.0030155, 9.997445 
1.05033435e+2, 3.052104e+2, 356393.88, -48315.7, -7368.301, -0.022410242, -0.09673679, 356527.97, 356527.97, 0.00003243676, 10.003395, 9.998034 
1.0503735e+2, 3.1520903e+2, 355901.56, -97328.85, 2859.6924, 0.007254691, -0.029586354, 355919.63, 355919.63, 0.00014094144, 10.003603, 9.997597 
1.1497328e+2, 1.2522508e+2, -1943661.4, -1689390.9, -5834.8, 0.008745878, 0.06957291, -1689257.0, 23547.469, 0.0007564602, 9.997844, 10.001213 
1.1497684e+2, 1.3522777e+2, -1882233.1, -1599648.3, -3949.7776, 0.020301055, 0.21441045, -1599593.0, 15184.205, 0.00042056636, 9.997554, 10.001296 
1.1498026e+2, 1.4522685e+2, -1786904.5, -1582082.0, 20657.143, -0.008317172, 0.024965119, -1580019.4, -63234.145, 0.00016082273, 9.997877, 10.000584 
1.14984326e+2, 1.5522759e+2, -1566604.5, -1440995.3, 11975.793, -0.00952687, 0.048139162, -1439863.6, -21086.955, 0.000029173776, 9.998784, 10.000442 
1.1498809e+2, 1.6522813e+2, -1436412.8, -1353595.1, -18627.03, 0.00031147987, 0.07096599, -1349598.5, -28828.678, 0.0000005105562, 9.999118, 10.000208 
1.1499159e+2, 1.7522813e+2, -1368082.8, -1272927.1, -14459.267, 0.019642282, 0.04774944, -1270778.5, -48010.48, 0.0, 9.998929, 10.00018 
1.1499495e+2, 1.8522777e+2, -1266452.0, -1228575.1, -6216.2876, 0.014346613, 0.018120164, -1227581.0, -102811.29, 0.0, 9.999192, 9.999685 
1.1499821e+2, 1.9522719e+2, -1071237.9, -1088657.5, -9101.813, -0.012160726, -0.009760932, -1067350.0, -40576.914, 0.0, 9.999881, 9.999641 
1.1500154e+2, 2.0522635e+2, -979277.4, -1086266.8, -20519.611, -0.01847913, -0.015624737, -975476.9, -46696.766, 0.0, 10.000237, 9.998814 
1.1500492e+2, 2.1522519e+2, -875275.56, -987887.7, -21234.17, -0.0064093857, -0.014974137, -871404.7, -40613.523, 0.0, 10.000291, 9.998789 
1.1500829e+2, 2.2522372e+2, -757268.7, -907915.4, -15759.606, -0.0054621873, -0.027897935, -755637.7, -22832.783, 0.0, 10.000546, 9.998543 
1.15011625e+2, 2.35222e+2, -597746.4, -784991.7, -15476.693, -0.014581053, -0.057083238, -596475.75, 38345.02, 0.0, 10.000988, 9.998502 
1.1501515e+2, 2.4522041e+2, -478858.9, -737069.75, -16768.533, -0.00057663413, -0.038264304, -477774.5, 59062.57, 0.0, 10.00139, 9.997965 
1.1501887e+2, 2.5521892e+2, -328269.7, -615409.06, -13589.218, 0.033717018, 0.014858555, -327628.0, 111225.8, 0.0, 10.001759, 9.99795 
1.150222e+2, 2.6521683e+2, -197913.84, -505205.1, -10097.306, 0.023288567, 0.012556323, -197582.4, 143292.05, 0.0, 10.001995, 9.99792 
1.15025215e+2, 2.752142e+2, -87269.375, -406401.7, -13943.011, -0.024871636, -0.046401106, -86661.36, 156237.31, 0.0, 10.002106, 9.997872 
1.15029134e+2, 2.8521195e+2, 34492.21, -339685.9, 761.68604, -0.004638553, -0.036861822, 34493.76, 179413.8, 0.00000000006210851, 10.002454, 9.997489 
1.1503378e+2, 2.9521015e+2, 218886.75, -192292.4, 7232.367, 0.06610378, 0.030038953, 219013.92, 265952.2, 0.0000014487281, 10.003013, 9.99756 
1.1503706e+2, 3.0520704e+2, 340014.63, -81426.53, 104.31937, 0.0008311135, -0.051331773, 340014.66, 340014.66, 0.000026628812, 10.003392, 9.997808 
1.1504058e+2, 3.1520522e+2, 332730.84, -143919.58, 11487.655, -0.030369816, -0.0054237014, 333007.53, 333007.53, 0.00012196842, 10.003596, 9.997279 
1.2497079e+2, 1.2522095e+2, -2035720.1, -1749067.6, -21300.111, 0.004946288, 0.07118489, -1747493.5, -34648.85, 0.0007247361, 9.997279, 10.001077 
1.24974735e+2, 1.3522346e+2, -1791057.0, -1561112.8, -44886.78, 0.02271634, 0.20316337, -1552661.1, 62158.297, 0.00040489552, 9.998204, 10.001247 
1.2497849e+2, 1.4522257e+2, -1685872.4, -1530681.9, -17535.873, -0.004720731, 0.018227234, -1528725.0, -11897.759, 0.00015657058, 9.998557, 10.000608 
1.2498296e+2, 1.5522344e+2, -1621239.9, -1464664.1, -6746.8853, -0.005272268, 0.052359164, -1464373.9, -45556.492, 0.000029665785, 9.998398, 10.000465 
1.2498703e+2, 1.6522405e+2, -1497766.4, -1378881.4, -34823.156, 0.0040202127, 0.07728399, -1369432.3, -48622.21, 0.0000007617598, 9.998678, 10.000248 
1.2499075e+2, 1.7522405e+2, -1302383.4, -1237801.0, -36443.566, 0.021012736, 0.049517974, -1221400.9, 1407.346, 0.0, 9.999363, 10.000213 
1.24994375e+2, 1.8522365e+2, -1201487.5, -1208351.6, -27253.875, 0.013411808, 0.020287061, -1177450.5, -52640.02, 0.0, 9.999684, 9.999588 
1.2499794e+2, 1.9522302e+2, -1108445.5, -1116674.5, -31914.113, -0.016415413, -0.002379752, -1080381.8, -53566.92, 0.0, 9.999669, 9.999552 
1.2500162e+2, 2.0522219e+2, -1012882.5, -1094439.3, -40228.426, -0.020325562, -0.0064115734, -996379.06, -67557.2, 0.0, 9.999972, 9.998885 
1.2500541e+2, 2.152211e+2, -829474.25, -958766.44, -34584.973, -0.00088536873, -0.0066936514, -820804.3, 10027.522, 0.0, 10.000573, 9.998854 
1.2500907e+2, 2.252196e+2, -713283.2, -896357.6, -32070.668, 0.0018595114, -0.020286893, -707827.7, 25018.047, 0.0, 10.000889, 9.998458 
1.2501262e+2, 2.352178e+2, -610122.4, -799727.6, -39224.918, -0.010775421, -0.049881186, -602328.06, 32534.7, 0.0, 10.000941, 9.998423 
1.2501644e+2, 2.4521615e+2, -508718.7, -748177.0, -40003.895, -0.00044818493, -0.034444906, -502212.44, 34667.215, 0.0, 10.001171, 9.997994 
1.2502047e+2, 2.5521463e+2, -355753.22, -625706.56, -40673.52, 0.029169895, 0.0140422555, -349758.13, 89138.22, 0.0, 10.001557, 9.997976 
1.2502412e+2, 2.6521263e+2, -205492.25, -512470.2, -39722.57, 0.019794492, 0.016466064, -200435.48, 140481.11, 0.0, 10.001959, 9.997888 
1.250275e+2, 2.7521002e+2, -50968.6, -393222.44, -37060.93, -0.020523513, -0.030804018, -47001.445, 195938.75, 0.0, 10.002372, 9.997836 
1.2503175e+2, 2.8520772e+2, 64111.34, -329924.72, -18779.496, 0.0017035229, -0.02433618, 65004.336, 209966.73, 0.0, 10.002675, 9.997451 
1.2503673e+2, 2.9520574e+2, 194600.5, -207690.14, -24332.932, 0.06771222, 0.028141612, 196066.95, 243049.48, 0.00000094519226, 10.002863, 9.997526 
1.2504025e+2, 3.0520293e+2, 313035.56, -81746.51, -27019.33, -0.0067671994, -0.02768639, 314876.22, 314876.22, 0.000021325412, 10.003153, 9.997921 
1.250441e+2, 3.1520107e+2, 325371.16, -141502.4, 9672.269, -0.03329111, 0.0027238324, 325571.47, 325571.47, 0.00010374953, 10.003519, 9.9973345 
1.349682e+2, 1.2521656e+2, -2069278.1, -1815528.6, 14490.996, 0.017738663, 0.08284641, -1814703.8, -101816.59, 0.0007016644, 9.997266, 10.000627 
1.3497296e+2, 1.3521829e+2, -1814609.8, -1612881.3, -10207.325, 0.022423271, 0.17495759, -1612366.1, 2504.8093, 0.00039489288, 9.998217, 10.000886 
1.349771e+2, 1.4521751e+2, -1662989.8, -1485751.4, -24920.102, -0.002536408, 0.0035431923, -1482314.1, 34563.91, 0.00015526546, 9.998569, 10.000912 
1.3498154e+2, 1.5521926e+2, -1601140.8, -1422111.0, -12126.419, 0.01304582, 0.093922086, -1421293.4, -2434.0767, 0.000031126172, 9.998394, 10.00076 
1.3498576e+2, 1.6521996e+2, -1501377.6, -1384887.1, -8989.113, 0.009602988, 0.11639305, -1384197.5, -63346.992, 0.0000011270397, 9.998672, 10.00021 
1.349898e+2, 1.752194e+2, -1304644.4, -1242900.1, -10738.092, -0.011094567, 0.03754368, -1241085.9, -18232.121, 0.0, 9.999365, 10.000177 
1.3499378e+2, 1.8521889e+2, -1208567.9, -1223784.0, -28134.78, -0.0159238, 0.005203547, -1187030.6, -62173.207, 0.0, 9.999687, 9.999481 
1.3499771e+2, 1.9521855e+2, -1115739.3, -1132016.4, -31794.691, -0.0062066945, 0.020461341, -1091058.1, -64197.836, 0.0, 9.999669, 9.999446 
1.3500176e+2, 2.0521773e+2, -1001696.75, -1070876.1, -17738.014, -0.0031274538, 0.015549494, -997413.75, -68546.836, 0.0, 9.99997, 9.999047 
1.3500594e+2, 2.1521646e+2, -818947.44, -936375.7, -11935.865, -0.0063289655, -0.019482743, -817746.5, 13131.075, 0.0, 10.00057, 9.999009 
1.3500993e+2, 2.25215e+2, -726780.5, -923563.94, -30196.834, -0.0018546908, -0.027475394, -722251.0, 10640.043, 0.0, 10.000885, 9.998273 
1.3501379e+2, 2.3521341e+2, -622388.2, -825129.3, -36702.938, 0.011107404, -0.016912304, -615948.3, 18958.66, 0.0, 10.000941, 9.998248 
1.3501774e+2, 2.4521162e+2, -509346.78, -749486.44, -25643.053, 0.011312968, -0.007283412, -506639.03, 30286.43, 0.0, 10.001171, 9.997986 
1.3502173e+2, 2.5520965e+2, -356942.88, -628054.06, -25812.428, -0.002496718, -0.0051924074, -354507.16, 84439.164, 0.0, 10.001556, 9.997961 
1.3502586e+2, 2.6520765e+2, -202461.73, -505122.03, -24348.371, -0.0032785838, -0.0009295036, -200515.47, 140450.61, 0.0, 10.001955, 9.99794 
1.3503021e+2, 2.7520555e+2, -46799.023, -383971.2, -21302.018, 0.01434487, -0.0036458904, -45458.523, 197526.44, 0.0, 10.00237, 9.9979 
1.3503475e+2, 2.8520316e+2, 51453.27, -356165.13, -11920.39, 0.033354066, -0.0010479343, 51801.57, 196810.02, 0.0, 10.002674, 9.997272 
1.3503927e+2, 2.9520056e+2, 181397.78, -234384.28, -16478.3, 0.035695646, 0.007715282, 182049.83, 229085.03, 0.0000005800232, 10.002858, 9.997346 
1.3504301e+2, 3.051981e+2, 343594.97, -15711.912, -13716.531, -0.04507276, -0.027055914, 344117.84, 344117.84, 0.000016654767, 10.003144, 9.998379 
1.350479e+2, 3.1519663e+2, 354570.06, -78383.37, 23210.53, -0.0054693515, -0.0043448145, 355810.8, 355810.8, 0.00008670888, 10.003511, 9.997771 
1.4496571e+2, 1.2521148e+2, -1998589.9, -1772654.8, -6362.1196, 0.021143254, 0.08257663, -1772475.8, -59538.313, 0.0006852014, 9.997712, 10.000706 
1.4497098e+2, 1.3521333e+2, -1865710.1, -1620302.8, 6433.788, 0.024568489, 0.1707414, -1620134.1, -5214.7856, 0.00038852147, 9.997792, 10.0010395 
1.4497545e+2, 1.4521271e+2, -1730059.9, -1522596.6, -13769.127, -0.0012615313, 0.00825028, -1521686.8, -4761.6206, 0.00015533686, 9.998127, 10.000873 
1.4498012e+2, 1.5521443e+2, -1560711.6, -1407466.5, -27975.688, 0.016723765, 0.10185747, -1402519.1, 16388.117, 0.00003278088, 9.998691, 10.000717 
1.4498459e+2, 1.652151e+2, -1451368.1, -1353301.9, -25828.293, 0.01002515, 0.12143327, -1346915.3, -26016.447, 0.0000015078091, 9.998982, 10.000277 
1.4498891e+2, 1.7521457e+2, -1350111.8, -1257398.3, -20345.643, -0.0198229, 0.036642514, -1253130.0, -30228.467, 0.0, 9.999021, 10.000243 
1.4499323e+2, 1.8521412e+2, -1258033.6, -1247956.5, -32208.19, -0.022403173, 0.0068958797, -1220395.1, -95490.58, 0.0, 9.999349, 9.999478 
1.4499757e+2, 1.9521385e+2, -1075442.6, -1113534.9, -28537.736, -0.0003071425, 0.03052678, -1060179.0, -33272.227, 0.0, 9.9999485, 9.999439 
1.45002e+2, 2.05213e+2, -954312.94, -1053462.8, -15079.008, 0.0054549677, 0.024317164, -952070.44, -23156.344, 0.0, 10.000319, 9.999 
1.4500646e+2, 2.152116e+2, -835375.75, -949032.06, -25729.938, -0.0044917823, -0.018518534, -829822.3, 1103.8622, 0.0, 10.00048, 9.998965 
1.4501077e+2, 2.2521016e+2, -745624.8, -930092.6, -48985.84, 0.0009201878, -0.022786189, -733423.56, -484.16342, 0.0, 10.000745, 9.998296 
1.4501491e+2, 2.3520872e+2, -596484.7, -810316.25, -40082.06, 0.02133298, 0.0009890468, -589218.4, 45735.277, 0.0, 10.001108, 9.99827 
1.4501908e+2, 2.4520686e+2, -476131.53, -741538.75, -18942.799, 0.017890878, 0.006865894, -474786.38, 62186.227, 0.0, 10.001433, 9.997914 
1.4502329e+2, 2.5520465e+2, -337894.56, -627329.1, -24278.762, -0.009693441, -0.009139753, -335872.13, 103123.63, 0.0, 10.001723, 9.997886 
1.4502777e+2, 2.6520258e+2, -195868.17, -509597.28, -28060.367, -0.011591016, -0.0023161017, -193378.19, 147638.0, 0.0, 10.002032, 9.997872 
1.450326e+2, 2.7520066e+2, -55563.617, -394755.16, -34483.96, 0.01631939, 0.014962229, -52093.305, 190941.0, 0.0, 10.002339, 9.99784 
1.4503741e+2, 2.851982e+2, 46918.918, -352512.66, -25354.574, 0.034880906, 0.015098155, 48521.91, 193580.05, 0.0, 10.002619, 9.997323 
1.4504205e+2, 2.9519543e+2, 187502.06, -227570.72, -12724.138, 0.027006416, 0.0023126386, 187891.75, 234977.9, 0.00000034163278, 10.002882, 9.997381 
1.4504606e+2, 3.051933e+2, 346506.3, -19075.525, -16168.384, -0.056943625, -0.0019525376, 347219.97, 347219.97, 0.000012640429, 10.003182, 9.998338 
1.4505146e+2, 3.1519166e+2, 344521.03, -85359.766, -19429.506, 0.0031623398, 0.007259182, 345397.4, 345397.4, 0.000071064576, 10.00345, 9.997753 
1.5496333e+2, 1.2520565e+2, -1953137.5, -1681052.3, -2951.1362, 0.009428131, 0.065907255, -1681020.3, 31976.043, 0.0006719969, 9.997723, 10.001329 
1.5496877e+2, 1.3520859e+2, -1818127.8, -1520951.6, 9547.913, 0.025023947, 0.19173065, -1520645.3, 94319.49, 0.00038301162, 9.997787, 10.001724 
1.5497354e+2, 1.4520815e+2, -1758974.1, -1580380.4, 7360.095, -0.0051214, 0.03381734, -1580077.6, -63109.363, 0.00015494693, 9.998117, 10.00048 
1.5497868e+2, 1.5520896e+2, -1587188.0, -1463328.0, -6534.7036, 0.0035897708, 0.07522618, -1462984.1, -44022.89, 0.000033834087, 9.998695, 10.000332 
1.549835e+2, 1.6520949e+2, -1437922.3, -1327024.1, -25047.584, 0.0031622283, 0.09094799, -1321629.4, -674.4606, 0.0000017896223, 9.998988, 10.000454 
1.5498805e+2, 1.7520955e+2, -1337784.0, -1231593.8, -18419.61, -0.007050028, 0.047724698, -1228489.4, -5538.0547, 0.0, 9.99902, 10.000421 
1.5499271e+2, 1.852093e+2, -1251479.4, -1233853.8, -9814.027, -0.008302151, 0.026362605, -1229476.4, -104524.69, 0.0, 9.999347, 9.999577 
1.5499753e+2, 1.9520892e+2, -1069049.1, -1100095.0, -5988.728, 0.00014948029, 0.027580798, -1067934.0, -40979.496, 0.0, 9.999948, 9.999532 
1.5500231e+2, 2.0520796e+2, -972564.6, -1091148.9, -9266.005, 0.0039586797, 0.020130401, -971845.0, -42881.637, 0.0, 10.000318, 9.998742 
1.5500702e+2, 2.1520649e+2, -852744.9, -985064.44, -19214.271, 0.0030353947, -0.004921383, -850011.25, -19033.45, 0.0, 10.000479, 9.998719 
1.550116e+2, 2.2520508e+2, -729196.1, -895694.4, -35495.926, 0.008431884, -0.007416455, -721944.5, 11046.411, 0.0, 10.000744, 9.998532 
1.55016e+2, 2.3520376e+2, -580806.1, -777654.56, -26194.992, 0.019958092, 0.0041221105, -577379.94, 57622.902, 0.0, 10.001108, 9.998494 
1.5502053e+2, 2.4520192e+2, -486132.56, -761899.94, -8226.258, 0.018549612, 0.009111649, -485887.4, 51133.543, 0.0, 10.001432, 9.997775 
1.5502515e+2, 2.5519964e+2, -347352.38, -647086.9, -13008.316, 0.0042218515, 0.0017592319, -346788.88, 92255.875, 0.0, 10.001724, 9.99775 
1.5502983e+2, 2.6519746e+2, -208726.4, -536185.5, -16479.61, -0.008312839, 0.010689064, -207899.14, 133167.97, 0.0, 10.002032, 9.997689 
1.5503462e+2, 2.751953e+2, -68120.67, -420175.56, -22779.63, -0.014910444, 0.024862673, -66652.84, 176435.45, 0.0, 10.0023365, 9.997666 
1.5503974e+2, 2.851929e+2, 66135.76, -312118.4, -15868.629, 0.0069210096, 0.02359653, 66800.31, 211911.84, 0.0, 10.002617, 9.9976015 
1.5504506e+2, 2.9519042e+2, 206131.14, -189443.73, -1807.7281, 0.038556386, 0.011500436, 206139.4, 253274.9, 0.00000019535571, 10.002885, 9.9976425 
1.5504934e+2, 3.051885e+2, 308767.2, -97074.8, -5533.18, -0.04734917, 0.047042508, 308842.63, 308842.63, 0.000009261703, 10.0031805, 9.997802 
1.5505473e+2, 3.1518614e+2, 310607.8, -154471.27, -9259.677, -0.01522467, 0.0380667, 310792.1, 310792.1, 0.000056915687, 10.003445, 9.99728 
1.6496095e+2, 1.2520038e+2, -1971795.4, -1696996.5, 32867.17, 0.004135873, 0.07105626, -1693120.1, 19927.596, 0.00065754744, 9.9976225, 10.001267 
1.649667e+2, 1.3520317e+2, -1792771.8, -1507726.5, -10579.471, 0.031283826, 0.18254869, -1507334.4, 107683.07, 0.00037533476, 9.997956, 10.001733 
1.6497177e+2, 1.452028e+2, -1740004.6, -1568795.0, -13681.924, 0.0008264272, 0.03069954, -1567708.5, -50688.38, 0.00015252095, 9.998237, 10.000502 
1.6497727e+2, 1.5520361e+2, -1619310.1, -1476734.8, 2959.0676, 0.004238192, 0.07024884, -1476673.4, -57660.41, 0.000033788867, 9.998466, 10.00035 
1.6498247e+2, 1.6520415e+2, -1471733.3, -1352993.1, -16473.357, 0.008964158, 0.08920327, -1350750.0, -29743.123, 0.0000018950186, 9.998798, 10.000367 
1.6498736e+2, 1.752042e+2, -1313222.1, -1229666.3, -30580.875, 0.011358964, 0.055388495, -1219669.8, 3334.2122, 0.0, 9.99923, 10.000332 
1.6499232e+2, 1.8520395e+2, -1213171.0, -1213833.1, -26246.574, 0.0045730276, 0.034674007, -1187253.4, -62248.53, 0.0, 9.999603, 9.99959 
1.6499735e+2, 1.9520351e+2, -1071818.4, -1099867.3, -29705.32, -0.009806937, 0.029121239, -1052993.3, -25985.37, 0.0, 9.999922, 9.999546 
1.6500242e+2, 2.0520258e+2, -995522.06, -1105550.5, -37034.97, -0.008065812, 0.026103327, -984217.7, -55201.13, 0.0, 10.0001745, 9.998712 
1.6500749e+2, 2.1520121e+2, -870753.2, -996838.5, -29946.947, 0.007726159, 0.015130018, -864001.9, -32971.31, 0.0, 10.000368, 9.998692 
1.6501242e+2, 2.2519979e+2, -724468.8, -889840.4, -34463.926, 0.016435174, 0.010427699, -717573.94, 15469.989, 0.0, 10.000761, 9.998565 
1.6501723e+2, 2.3519833e+2, -544762.56, -756807.9, -41136.086, 0.018835612, 0.0068720975, -537061.94, 97994.53, 0.0, 10.001341, 9.998526 
1.6502206e+2, 2.4519649e+2, -447946.5, -746686.94, -34707.453, 0.014715936, 0.00952823, -443967.22, 93107.42, 0.0, 10.001708, 9.997746 
1.6502695e+2, 2.5519428e+2, -327754.53, -640150.25, -31087.566, 0.0031636385, 0.011119321, -324690.97, 114406.945, 0.0, 10.00187, 9.997726 
1.6503185e+2, 2.651921e+2, -205957.17, -543399.6, -23726.506, -0.013201292, 0.024261268, -204297.08, 136823.44, 0.0, 10.002089, 9.997612 
1.6503681e+2, 2.7518985e+2, -70520.805, -430315.25, -22961.889, -0.028954232, 0.037931412, -69061.31, 174081.47, 0.0, 10.002358, 9.997585 
1.6504222e+2, 2.8518733e+2, 60183.637, -318328.1, -26443.861, -0.0055968547, 0.031878334, 62022.15, 207189.34, 0.0, 10.00259, 9.997571 
1.6504788e+2, 2.9518476e+2, 186992.3, -202190.45, -35796.383, 0.037612643, 0.012910683, 190257.4, 237449.6, 0.00000010392393, 10.00277, 9.997608 
1.6505246e+2, 3.0518308e+2, 288483.5, -121062.06, -29102.824, -0.048773047, 0.08069034, 290541.25, 290541.25, 0.0000064948904, 10.003102, 9.997673 
1.6505824e+2, 3.151804e+2, 326356.1, -147897.2, -5804.035, -0.013883551, 0.049513828, 326427.13, 326427.13, 0.00004432351, 10.003556, 9.99727 
1.7495854e+2, 1.2519568e+2, -2025764.8, -1808111.6, 47838.844, 0.00050726393, 0.10039645, -1798061.0, -84969.66, 0.0006370072, 9.99762, 10.000507 
1.7496477e+2, 1.3519707e+2, -1839616.0, -1606461.6, 2623.4805, 0.04141069, 0.14160244, -1606432.1, 8645.747, 0.00036284848, 9.997963, 10.001051 
1.7497016e+2, 1.4519666e+2, -1708293.8, -1504340.1, -5968.566, 0.014584262, -0.0034181483, -1504165.6, 12915.566, 0.00014707113, 9.998242, 10.000941 
1.7497586e+2, 1.5519844e+2, -1589198.4, -1414237.0, 11774.141, 0.016145227, 0.08826208, -1413448.1, 5614.123, 0.00003249045, 9.998466, 10.000779 
1.7498142e+2, 1.6519912e+2, -1496944.3, -1404956.0, -446.08563, 0.024575228, 0.11768477, -1404953.9, -83899.15, 0.0000018022155, 9.998796, 10.000011 
1.7498681e+2, 1.7519857e+2, -1338089.9, -1281188.9, -14047.498, 0.034160256, 0.059334178, -1277909.8, -54850.273, 0.0, 9.99923, 9.999979 
1.7499202e+2, 1.8519801e+2, -1218228.5, -1224602.3, -14416.373, 0.01409908, 0.031491805, -1206650.9, -81586.875, 0.0, 9.999604, 9.999516 
1.7499708e+2, 1.9519758e+2, -1076562.9, -1109567.0, -17533.482, -0.031105006, 0.034942493, -1068987.1, -41919.98, 0.0, 9.999922, 9.99948 
1.7500237e+2, 2.0519684e+2, -981638.1, -1076579.5, -29925.027, -0.03178636, 0.04238291, -972993.1, -43919.188, 0.0, 10.000174, 9.998911 
1.7500788e+2, 2.1519578e+2, -857614.56, -969244.8, -22096.443, 0.008509593, 0.041655317, -853399.8, -22315.346, 0.0, 10.000366, 9.998882 
1.7501326e+2, 2.251943e+2, -736703.25, -914881.1, -12861.742, 0.023476165, 0.031559825, -735779.56, -2681.314, 0.0, 10.000759, 9.998393 
1.7501853e+2, 2.3519248e+2, -556452.5, -781124.25, -19263.13, 0.016159074, 0.00808781, -554812.8, 80301.95, 0.0, 10.001341, 9.998359 
1.7502366e+2, 2.4519055e+2, -442303.72, -734635.3, -28785.527, 0.00470773, 0.0066543086, -439496.22, 97637.695, 0.0, 10.001706, 9.997829 
1.7502864e+2, 2.5518852e+2, -321892.66, -627624.2, -24775.096, -0.013251711, 0.018914012, -319898.03, 119257.24, 0.0, 10.001868, 9.997813 
1.750338e+2, 2.6518643e+2, -204042.42, -539589.06, -13840.74, -0.025973665, 0.038586836, -203472.48, 137703.94, 0.0, 10.002089, 9.997639 
1.7503919e+2, 2.7518427e+2, -69047.16, -427809.06, -12482.703, -0.028297687, 0.05344785, -68613.36, 174584.52, 0.0, 10.00236, 9.997602 
1.750448e+2, 2.8518152e+2, 35950.086, -368607.7, -19736.178, -0.006354701, 0.039608456, 36910.63, 182135.86, 0.0, 10.00259, 9.997225 
1.750505e+2, 2.9517844e+2, 162762.83, -251635.77, -28055.652, 0.021527894, 0.0071916305, 164653.63, 211909.92, 0.00000004563321, 10.002767, 9.997271 
1.7505541e+2, 3.05177e+2, 308347.97, -79884.87, -12095.059, -0.063258044, 0.10000906, 308724.44, 308724.44, 0.000004309572, 10.003102, 9.997956 
1.75062e+2, 3.1517434e+2, 358346.06, -82296.42, 9364.63, 0.0043587512, 0.04406049, 358544.97, 358544.97, 0.000033325945, 10.003559, 9.99772 
1.8495634e+2, 1.2518999e+2, -2010499.3, -1830972.3, 7951.813, 0.0066838404, 0.103536546, -1830620.6, -117474.7, 0.0006065531, 9.997855, 10.000236 
1.8496281e+2, 1.3519098e+2, -1826606.0, -1624701.1, -4769.066, 0.040334977, 0.12615742, -1624588.5, -9451.089, 0.00034376056, 9.998158, 10.000832 
1.8496853e+2, 1.4519055e+2, -1675934.3, -1482559.8, -13716.714, 0.017273119, -0.010967361, -1481591.6, 35549.348, 0.00013809917, 9.998438, 10.000997 
1.8497463e+2, 1.5519242e+2, -1551106.9, -1389699.6, -25539.809, 0.034540508, 0.08276043, -1385754.8, 33365.82, 0.000029920388, 9.9987, 10.0008335 
1.849805e+2, 1.6519307e+2, -1471158.3, -1403343.5, -35601.63, 0.041055057, 0.1128327, -1388086.0, -66972.836, 0.0000015280342, 9.999021, 9.999915 
1.849861e+2, 1.7519246e+2, -1322019.4, -1283968.1, -30303.148, 0.030958073, 0.057349935, -1267213.1, -44093.94, 0.0, 9.999386, 9.999886 
1.8499157e+2, 1.8519188e+2, -1219411.1, -1226936.4, -25750.828, 0.008425016, 0.032764092, -1197149.5, -72025.21, 0.0, 9.999603, 9.9995 
1.8499695e+2, 1.9519147e+2, -1111310.8, -1127681.4, -24575.408, -0.023824064, 0.03856071, -1093593.4, -66465.93, 0.0, 9.999688, 9.999468 
1.8500254e+2, 2.0519073e+2, -999222.25, -1080641.3, -33503.367, -0.024746789, 0.045551598, -987208.56, -58074.414, 0.0, 10.000034, 9.998951 
1.850083e+2, 2.1518968e+2, -816997.25, -945444.94, -38488.777, 0.0023489771, 0.043223944, -806347.3, 24797.059, 0.0, 10.0006275, 9.99892 
1.8501398e+2, 2.2518821e+2, -709358.4, -902559.44, -30489.873, 0.010818392, 0.032776136, -704660.9, 28497.215, 0.0, 10.000951, 9.998385 
1.850196e+2, 2.351864e+2, -602663.3, -803766.7, -24773.262, 0.0035595666, 0.010335088, -599656.5, 35518.3, 0.0, 10.001025, 9.998355 
1.8502508e+2, 2.4518453e+2, -497438.47, -757860.7, -29834.66, -0.00478968, 0.012686361, -494064.25, 43129.367, 0.0, 10.001314, 9.997859 
1.8503045e+2, 2.551826e+2, -329901.16, -628466.94, -30792.42, -0.017042253, 0.03177144, -326758.47, 112455.75, 0.0, 10.0018015, 9.997839 
1.8503588e+2, 2.6518053e+2, -199309.89, -536170.4, -26974.56, -0.0274262, 0.05252585, -197163.55, 144071.47, 0.0, 10.002117, 9.997648 
1.8504147e+2, 2.751783e+2, -81770.4, -432585.0, -26987.441, -0.030235134, 0.06257564, -79706.45, 163550.03, 0.0, 10.002268, 9.997613 
1.8504737e+2, 2.8517547e+2, 24132.521, -387227.97, -21709.053, -0.0069318097, 0.044480555, 25275.018, 170559.94, 0.0, 10.002565, 9.997108 
1.850534e+2, 2.9517227e+2, 186960.03, -253601.06, -13823.248, 0.024015894, 0.010632955, 187393.33, 234711.2, 0.000000013949684, 10.002992, 9.997148 
1.8505852e+2, 3.0517092e+2, 321502.2, -74020.3, -3693.8093, -0.067063086, 0.120483875, 321536.7, 321536.7, 0.0000026617806, 10.003195, 9.9979515 
1.850653e+2, 3.1516793e+2, 317787.72, -75586.52, -7235.0186, -0.0017305824, 0.02831547, 317920.75, 317920.75, 0.00002394661, 10.003169, 9.997952 
1.9495437e+2, 1.2518328e+2, -1994788.5, -1799045.9, 21073.031, 0.02094026, 0.079196036, -1796802.9, -83590.99, 0.0005643703, 9.997857, 10.000454 
1.9496085e+2, 1.3518487e+2, -1809073.5, -1588756.9, 6871.3496, 0.025953041, 0.13737078, -1588542.8, 26653.4, 0.00031730495, 9.998159, 10.001078 
1.9496685e+2, 1.451845e+2, -1699318.9, -1531325.1, -4073.8333, 0.0056875832, 0.009326969, -1531226.4, -14027.129, 0.00012543245, 9.998439, 10.000661 
1.9497357e+2, 1.5518552e+2, -1573586.1, -1437033.5, -15071.756, 0.0585148, 0.05314504, -1435389.8, -16201.667, 0.000026112697, 9.998703, 10.000508 
1.9497968e+2, 1.65186e+2, -1459651.4, -1379516.0, -22117.977, 0.05688898, 0.07366834, -1373816.6, -52634.227, 0.0000011234973, 9.999021, 10.000078 
1.9498518e+2, 1.7518587e+2, -1310450.3, -1259924.3, -16467.984, 0.0009058487, 0.049828053, -1255030.8, -31847.723, 0.0, 9.999386, 10.000051 
1.9499095e+2, 1.8518555e+2, -1216292.0, -1220357.3, -22646.605, -0.014189878, 0.039101817, -1195587.0, -70401.51, 0.0, 9.999603, 9.999546 
1.94997e+2, 1.9518512e+2, -1108634.5, -1121910.5, -20833.021, 0.011126164, 0.04020683, -1093407.5, -66218.61, 0.0, 9.999687, 9.999508 
1.9500293e+2, 2.0518424e+2, -1007806.7, -1098139.5, -11357.947, 0.011513739, 0.03632803, -1006400.5, -77203.266, 0.0, 10.000032, 9.998832 
1.9500878e+2, 2.1518292e+2, -825269.56, -962236.8, -16036.105, -0.0118929595, 0.019177604, -823417.1, 7793.085, 0.0, 10.000626, 9.998806 
1.950146e+2, 2.2518153e+2, -698866.2, -880407.7, -27967.703, -0.022507489, 0.0138185825, -694655.25, 38568.133, 0.0, 10.000949, 9.998539 
1.9502039e+2, 2.351801e+2, -591889.3, -781323.75, -21456.885, -0.01977027, 0.013406039, -589489.4, 45747.23, 0.0, 10.001025, 9.998509 
1.9502631e+2, 2.4517839e+2, -499204.6, -761743.7, -11809.207, -0.014556116, 0.027715953, -498674.47, 38579.39, 0.0, 10.001315, 9.997832 
1.9503231e+2, 2.5517645e+2, -332152.2, -633195.94, -12471.037, -0.009659776, 0.049093597, -331636.44, 107638.44, 0.0, 10.0018015, 9.9978075 
1.9503808e+2, 2.6517436e+2, -200438.9, -538442.8, -21652.88, -0.019000255, 0.06593722, -199057.45, 142238.94, 0.0, 10.002116, 9.997633 
1.9504368e+2, 2.75172e+2, -82229.55, -433335.94, -21118.541, -0.03629154, 0.06575091, -80963.86, 162354.86, 0.0, 10.002267, 9.997609 
1.9504993e+2, 2.851692e+2, 31774.729, -370932.47, -5773.9873, -0.008638171, 0.04709465, 31857.5, 177203.9, 0.0, 10.002563, 9.997222 
1.9505657e+2, 2.9516622e+2, 193004.89, -241055.34, 2740.6492, 0.043558605, 0.022245876, 193022.2, 240399.42, 0.0000000023315327, 10.002992, 9.997234 
1.9506179e+2, 3.0516484e+2, 301327.06, -116174.72, -5342.357, -0.06152882, 0.14180483, 301395.4, 301395.4, 0.0000014940416, 10.003196, 9.997662 
1.9506814e+2, 3.1516114e+2, 317540.38, -75755.125, -10843.77, -0.036717325, 0.004801269, 317839.13, 317839.13, 0.000016254342, 10.003167, 9.9979515 
2.0495225e+2, 1.2517646e+2, -1950898.3, -1768257.3, 5372.832, 0.012544818, 0.078609616, -1768099.3, -54820.06, 0.0005112227, 9.998119, 10.000539 
2.049592e+2, 1.3517818e+2, -1797633.8, -1571622.8, -24505.273, 0.04447862, 0.13751887, -1568996.3, 46265.348, 0.00028397882, 9.99819, 10.001181 
2.0496543e+2, 1.4517786e+2, -1717148.8, -1558376.1, -29774.816, 0.020294834, 0.018846974, -1552976.1, -35712.035, 0.000109345056, 9.998396, 10.000497 
2.0497216e+2, 1.5517855e+2, -1581270.0, -1457646.4, -28241.088, 0.046888087, 0.045145728, -1451500.4, -32243.383, 0.000021261263, 9.998723, 10.000357 
2.0497856e+2, 1.6517898e+2, -1452109.1, -1355695.3, -27918.33, 0.044535216, 0.060527377, -1348194.6, -26943.08, 0.00000067965186, 9.998984, 10.000259 
2.0498456e+2, 1.7517912e+2, -1326220.4, -1247545.5, -21586.855, 0.009329152, 0.045208663, -1242011.8, -18763.344, 0.0, 9.999191, 10.00023 
2.0499066e+2, 1.8517885e+2, -1231660.0, -1235326.6, -31700.678, 0.0013247018, 0.034000363, -1201739.6, -76489.46, 0.0, 9.99953, 9.999478 
2.0499691e+2, 1.9517826e+2, -1068823.3, -1109693.3, -38731.01, 0.020607049, 0.025438739, -1045466.9, -18211.018, 0.0, 9.999991, 9.999446 
2.050031e+2, 2.0517738e+2, -975293.25, -1074264.6, -23888.113, 0.0154023105, 0.021276003, -969829.2, -40564.973, 0.0, 10.000221, 9.998904 
2.050092e+2, 2.1517622e+2, -876504.56, -978744.7, -14343.2, -0.013760405, 0.013153832, -874530.44, -43255.348, 0.0, 10.000238, 9.9988785 
2.0501527e+2, 2.2517487e+2, -759703.3, -917822.25, -25557.643, -0.03031773, 0.012292366, -755674.94, -22386.908, 0.0, 10.0005665, 9.9984665 
2.0502135e+2, 2.3517336e+2, -573390.3, -780091.2, -36804.797, -0.034063112, 0.01121954, -567032.5, 68270.3, 0.0, 10.001185, 9.998441 
2.050276e+2, 2.4517167e+2, -461915.3, -735074.3, -33270.023, -0.028815653, 0.025810396, -457921.5, 79398.664, 0.0, 10.001534, 9.99791 
2.0503396e+2, 2.5516984e+2, -351772.94, -634112.44, -26326.037, -0.01736229, 0.049487617, -349339.2, 90000.625, 0.0, 10.00163, 9.997883 
2.0504005e+2, 2.6516774e+2, -230896.27, -550840.1, -29810.79, -0.023062348, 0.0670834, -228142.34, 113218.25, 0.0, 10.001898, 9.997653 
2.0504594e+2, 2.7516544e+2, -73647.44, -426947.03, -27919.166, -0.039323457, 0.06688768, -71454.766, 171927.98, 0.0, 10.002316, 9.997629 
2.0505245e+2, 2.8516266e+2, 32499.406, -366565.6, -16079.147, -0.011482918, 0.043213785, 33146.22, 178556.84, 0.0, 10.002551, 9.997258 
2.0505935e+2, 2.9515958e+2, 139910.34, -263594.06, -12993.69, 0.040893607, 0.009058246, 140328.34, 187770.27, 0.000000000097020676, 10.002614, 9.997261 
2.0506477e+2, 3.0515832e+2, 250018.08, -157046.63, -17216.275, -0.06622875, 0.14461474, 250744.9, 250744.9, 0.00000072960836, 10.0029125, 9.997519 
2.0507139e+2, 3.151546e+2, 360336.16, -38125.96, -17221.91, -0.037596717, 0.020045321, 361079.1, 361079.1, 0.000010315381, 10.0033865, 9.998107 
2.1495004e+2, 1.2516953e+2, -1954208.0, -1776281.3, 11424.126, -0.022426784, 0.10356977, -1775550.8, -62202.766, 0.00045034575, 9.998123, 10.000482 
2.1495791e+2, 1.3517083e+2, -1800806.4, -1578935.4, -21174.76, 0.095169045, 0.12585202, -1576932.6, 38401.15, 0.0002457903, 9.998193, 10.00113 
2.1496421e+2, 1.451706e+2, -1716210.3, -1556564.0, -17921.982, 0.05931021, 0.016841354, -1554576.8, -37241.223, 0.00009091271, 9.998397, 10.000509 
2.1497041e+2, 1.5517145e+2, -1579574.4, -1454147.6, -15548.69, -0.0015416957, 0.059133045, -1452248.9, -32921.51, 0.000015871614, 9.998723, 10.000381 
2.1497712e+2, 1.6517201e+2, -1438199.5, -1326811.8, -20267.168, 0.0018097832, 0.07402782, -1323238.8, -1918.3464, 0.00000031009594, 9.998984, 10.000458 
2.1498421e+2, 1.751722e+2, -1312690.0, -1220085.8, -13377.746, 0.055212196, 0.043668117, -1218191.9, 5123.49, 0.0, 9.999193, 10.000417 
2.1499072e+2, 1.8517177e+2, -1243906.3, -1260872.6, -14398.791, 0.053038385, 0.017393956, -1235677.5, -110359.0, 0.0, 9.999531, 9.999303 
2.1499676e+2, 1.9517085e+2, -1080416.4, -1133857.5, -21281.477, 0.0038746626, -0.006092772, -1072977.1, -45648.707, 0.0, 9.999991, 9.99928 
2.1500303e+2, 2.0517014e+2, -956784.4, -1035481.44, -23313.168, -0.014148571, 0.00007339759, -950396.56, -21061.367, 0.0, 10.000219, 9.999171 
2.1500954e+2, 2.1516958e+2, -858401.9, -941083.25, -12914.314, -0.004499035, 0.025509473, -856431.6, -25092.637, 0.0, 10.000238, 9.999138 
2.15016e+2, 2.2516824e+2, -780689.7, -961084.5, -2548.184, -0.013997413, 0.028235417, -780653.75, -47301.734, 0.0, 10.000565, 9.99817 
2.1502246e+2, 2.3516619e+2, -594212.1, -822824.5, -13550.056, -0.04017633, 0.0036869037, -593411.8, 41961.652, 0.0, 10.0011835, 9.998148 
2.1502893e+2, 2.4516433e+2, -449597.88, -709363.4, -30081.416, -0.048145052, 0.0077231512, -446159.88, 91232.66, 0.0, 10.0015335, 9.998087 
2.1503533e+2, 2.5516272e+2, -338848.22, -607177.6, -22366.148, -0.041317914, 0.032912184, -336996.72, 102412.414, 0.0, 10.001629, 9.998069 
2.1504177e+2, 2.6516083e+2, -227949.17, -544175.6, -14158.613, -0.040474933, 0.056093425, -227316.52, 114111.234, 0.0, 10.001895, 9.997701 
2.1504825e+2, 2.7515864e+2, -71313.91, -421662.28, -12124.383, -0.040369943, 0.06527038, -70894.82, 172553.92, 0.0, 10.002315, 9.997666 
2.1505496e+2, 2.8515574e+2, 29610.563, -372522.16, -14633.185, -0.015837368, 0.03278338, 30142.344, 175620.05, 0.0, 10.00255, 9.997218 
2.1506171e+2, 2.9515237e+2, 137887.88, -268583.38, -10156.952, 0.013776297, -0.027879924, 138141.52, 185653.53, 0.0, 10.002617, 9.997227 
2.1506752e+2, 3.0515134e+2, 249999.33, -155685.1, 1040.0006, -0.08325419, 0.13022974, 250001.98, 250001.98, 0.0000002906552, 10.002908, 9.99753 
2.1507508e+2, 3.151483e+2, 381760.72, 7225.5537, -2826.523, -0.008468618, 0.07230794, 381782.03, 381782.03, 0.0000060416633, 10.003384, 9.99842 
2.2494847e+2, 1.2516226e+2, -1946065.1, -1771661.4, 9117.069, 0.00585262, 0.1082739, -1771186.1, -57766.152, 0.0003861587, 9.998178, 10.000488 
2.2495614e+2, 1.3516346e+2, -1774017.6, -1565039.8, -23454.223, 0.091503315, 0.11947625, -1562439.8, 52966.816, 0.00020573656, 9.998373, 10.001138 
2.2496253e+2, 1.4516337e+2, -1691009.4, -1536407.4, -11341.304, 0.04475544, 0.023654072, -1535579.9, -18173.24, 0.00007189719, 9.998535, 10.000582 
2.2496913e+2, 1.5516435e+2, -1579214.8, -1445116.0, -5601.673, 0.00026637822, 0.06874209, -1444882.4, -25485.31, 0.000010694928, 9.998689, 10.000461 
2.2497617e+2, 1.6516489e+2, -1439133.6, -1329399.9, -13033.587, 0.009003588, 0.07817777, -1327873.1, -6482.9253, 0.000000092361944, 9.998987, 10.00044 
2.249835e+2, 1.7516494e+2, -1281126.0, -1206443.4, -22588.293, 0.054450136, 0.036937084, -1200143.0, 23243.455, 0.0, 9.999417, 10.000402 
2.2499025e+2, 1.8516454e+2, -1223609.5, -1250624.3, -25479.318, 0.047240727, 0.012886897, -1208278.6, -82889.23, 0.0, 9.999668, 9.999308 
2.2499654e+2, 1.9516376e+2, -1114391.5, -1149685.0, -19407.816, -0.0042132135, 0.0027380725, -1105807.1, -78408.97, 0.0, 9.999756, 9.999285 
2.250031e+2, 2.0516303e+2, -976613.0, -1044750.0, -24291.459, -0.021108897, 0.007899763, -968839.7, -39434.8, 0.0, 10.000082, 9.999175 
2.2500993e+2, 2.1516234e+2, -801253.5, -913053.0, -34177.047, -0.0076589016, 0.018941553, -791633.4, 39776.43, 0.0, 10.000629, 9.999142 
2.2501674e+2, 2.25161e+2, -732139.8, -938199.44, -20393.916, -0.013630131, 0.021687532, -730140.8, 3281.9119, 0.0, 10.000901, 9.998165 
2.2502354e+2, 2.3515908e+2, -634382.1, -843261.2, -9757.5, -0.03653545, 0.01152925, -633927.3, 1515.6337, 0.0, 10.000912, 9.998139 
2.2503027e+2, 2.451572e+2, -507336.7, -738820.44, -24070.89, -0.04739684, 0.012766768, -504860.2, 32602.275, 0.0, 10.001143, 9.998073 
2.2503686e+2, 2.5515532e+2, -347146.56, -612848.7, -32008.453, -0.049388643, 0.018084837, -343344.97, 96136.086, 0.0, 10.001579, 9.998054 
2.2504357e+2, 2.6515344e+2, -227700.61, -537450.5, -29857.088, -0.050113298, 0.039308675, -224848.92, 116650.69, 0.0, 10.001869, 9.997759 
2.2505037e+2, 2.751515e+2, -110763.45, -434199.8, -26727.666, -0.044611085, 0.063943945, -108569.65, 134948.88, 0.0, 10.002016, 9.997725 
2.2505732e+2, 2.8514865e+2, -1749.7554, -376701.34, -24690.03, -0.02209317, 0.031192796, -130.941, 145415.48, 0.0, 10.002288, 9.997316 
2.2506419e+2, 2.9514524e+2, 149846.38, -253586.77, -11476.323, -0.0006813321, -0.04491562, 150172.58, 197753.23, 0.0, 10.002659, 9.997311 
2.2507034e+2, 3.0514407e+2, 243815.66, -178292.58, 2204.1936, -0.09297082, 0.10467286, 243827.16, 243827.16, 0.000000085825576, 10.002949, 9.997355 
2.2507845e+2, 3.151411e+2, 358102.47, 10414.233, -19848.969, 0.0023919437, 0.07395612, 359231.94, 359231.94, 0.0000031779714, 10.0031595, 9.99855 
2.3494755e+2, 1.2515463e+2, -1941231.3, -1761480.5, 19265.6, 0.09375246, 0.09356984, -1759438.8, -45943.51, 0.00032267286, 9.998178, 10.000558 
2.3495394e+2, 1.3515605e+2, -1770038.6, -1556102.1, -15963.393, 0.032104526, 0.11918878, -1554917.5, 60562.64, 0.0001666326, 9.99837, 10.001202 
2.3496038e+2, 1.4515623e+2, -1682088.1, -1517621.3, -5883.5576, -0.025596403, 0.04001162, -1517411.0, 66.10148, 0.00005400246, 9.998534, 10.000711 
2.3496832e+2, 1.5515721e+2, -1569945.9, -1427135.8, 642.4172, 0.05050868, 0.07375448, -1427132.9, -7666.574, 0.000006396683, 9.998693, 10.000583 
2.3497571e+2, 1.6515757e+2, -1454561.8, -1362075.0, 2961.2305, 0.06345204, 0.07232969, -1361980.3, -40519.145, 0.000000013163342, 9.99899, 10.000214 
2.3498243e+2, 1.7515735e+2, -1295981.9, -1237682.6, -6253.0303, 0.0060348962, 0.02438456, -1237019.5, -13557.826, 0.0, 9.999418, 10.000188 
2.3498927e+2, 1.8515712e+2, -1211083.3, -1224291.6, -22279.893, -0.017483262, 0.020191684, -1194449.4, -68986.22, 0.0, 9.999667, 9.999488 
2.3499629e+2, 1.9515695e+2, -1101930.3, -1124255.5, -15568.29, -0.0048187054, 0.05270059, -1093936.3, -66471.22, 0.0, 9.999758, 9.999459 
2.3500332e+2, 2.0515606e+2, -994903.6, -1082391.9, -3801.8433, -0.0069071106, 0.0451024, -994738.75, -65265.4, 0.0, 10.00008, 9.998917 
2.3501039e+2, 2.1515448e+2, -819003.56, -949511.75, -13447.112, -0.024520284, -0.0068025826, -817632.4, 13855.136, 0.0, 10.0006275, 9.998892 
2.3501748e+2, 2.2515312e+2, -712591.8, -897073.5, -20152.754, -0.030491458, -0.0073436713, -710416.0, 23084.227, 0.0, 10.000898, 9.998448 
2.3502459e+2, 2.3515202e+2, -614457.94, -801908.06, -8724.884, -0.02399553, 0.034694195, -614052.7, 21458.635, 0.0, 10.000912, 9.998423 
2.350316e+2, 2.451502e+2, -522705.72, -770603.94, -7879.6284, -0.0276233, 0.04011014, -522455.5, 15074.532, 0.0, 10.0011425, 9.997855 
2.3503852e+2, 2.5514773e+2, -362984.63, -645093.3, -15561.554, -0.043237902, 0.0050673634, -362128.8, 77426.9, 0.0, 10.001577, 9.997834 
2.3504539e+2, 2.6514566e+2, -222540.39, -526428.06, -24891.646, -0.053423993, 0.017457211, -220515.0, 121061.2, 0.0, 10.001867, 9.997836 
2.350523e+2, 2.7514398e+2, -103998.7, -420339.66, -20928.166, -0.05360671, 0.063125014, -102620.164, 140971.86, 0.0, 10.002016, 9.99782 
2.3505951e+2, 2.851414e+2, 13392.349, -344754.1, -10491.171, -0.03127157, 0.038187224, 13699.402, 159316.16, 0.0, 10.002286, 9.997538 
2.3506682e+2, 2.9513815e+2, 163387.53, -225375.72, 2808.5872, -0.004490681, -0.043465473, 163407.83, 211055.95, 0.0, 10.002658, 9.997505 
2.3507325e+2, 3.0513647e+2, 218656.16, -229450.81, 9213.937, -0.096406356, 0.066332266, 218845.53, 218845.53, 0.000000016806371, 10.002944, 9.997007 
2.350815e+2, 3.151331e+2, 355136.1, 4593.5483, -15418.815, -0.009140666, 0.024753615, 355812.97, 355812.97, 0.0000014346882, 10.003158, 9.99851 
2.4494599e+2, 1.2514727e+2, -1920549.4, -1759586.8, 31158.557, 0.11226312, 0.10051852, -1753765.8, -40197.98, 0.00026299746, 9.998352, 10.000487 
2.4495211e+2, 1.3514866e+2, -1779759.8, -1570208.1, -21351.09, 0.01575653, 0.1318408, -1568054.9, 47498.75, 0.0001305452, 9.998344, 10.001117 
2.449587e+2, 1.4514887e+2, -1674905.3, -1510609.1, -11738.54, -0.04822809, 0.058971282, -1509774.6, 7775.2715, 0.000038366878, 9.998568, 10.000744 
2.4496724e+2, 1.5514964e+2, -1521067.5, -1399201.0, -12157.168, 0.056616977, 0.06730434, -1398000.1, 21540.037, 0.000003303544, 9.99901, 10.000622 
2.449749e+2, 1.6514993e+2, -1427010.0, -1365875.3, -11669.841, 0.07003364, 0.06419859, -1363723.4, -42187.58, 0.00000000018007511, 9.999253, 10.000061 
2.4498159e+2, 1.7514978e+2, -1321023.1, -1266169.8, -16564.953, -0.015506924, 0.039246462, -1261555.5, -38018.75, 0.0, 9.999319, 10.000041 
2.4498871e+2, 1.8514957e+2, -1213184.3, -1216898.8, -31639.824, -0.038411483, 0.038409587, -1183347.3, -57809.008, 0.0, 9.999616, 9.999564 
2.449963e+2, 1.951493e+2, -1042448.2, -1087010.6, -32994.633, 0.0025084107, 0.05477908, -1024916.1, 2623.87, 0.0, 10.00013, 9.999535 
2.4500367e+2, 2.0514837e+2, -957868.7, -1070164.0, -18173.287, 0.006175141, 0.042646915, -955000.9, -25452.559, 0.0, 10.00036, 9.998866 
2.4501084e+2, 2.1514681e+2, -867099.56, -978466.1, -12999.01, -0.027435904, -0.0023461343, -865602.4, -34039.703, 0.0, 10.000322, 9.998841 
2.450181e+2, 2.2514543e+2, -765774.25, -914604.1, -21692.225, -0.037766457, -0.0065280497, -762677.0, -29101.521, 0.0, 10.000499, 9.998522 
2.4502547e+2, 2.3514424e+2, -614657.75, -793810.75, -26852.186, -0.024495423, 0.020111851, -610719.6, 24867.205, 0.0, 10.000876, 9.998495 
2.4503279e+2, 2.4514247e+2, -522520.3, -773885.2, -21762.145, -0.023961537, 0.027816107, -520650.16, 16954.883, 0.0, 10.001159, 9.997824 
2.4504003e+2, 2.5514016e+2, -398118.03, -665640.5, -15337.636, -0.038310207, 0.012909394, -397241.56, 42387.97, 0.0, 10.001351, 9.997802 
2.4504718e+2, 2.6513812e+2, -250635.66, -534489.8, -19579.787, -0.050767094, 0.024524378, -249291.44, 92358.625, 0.0, 10.001651, 9.997885 
2.4505429e+2, 2.7513626e+2, -96392.88, -411434.2, -19246.197, -0.05659527, 0.049290758, -95221.46, 148445.63, 0.0, 10.002046, 9.997867 
2.4506176e+2, 2.8513375e+2, 26741.918, -331744.28, -15634.761, -0.036885515, 0.025338879, 27422.51, 173113.39, 0.0, 10.002349, 9.997596 
2.4506938e+2, 2.9513076e+2, 153144.38, -224951.8, -14315.797, -0.008576076, -0.03583409, 153685.64, 201405.13, 0.0, 10.002566, 9.997552 
2.4507612e+2, 3.0512875e+2, 199468.56, -248052.8, -3005.2844, -0.09876146, 0.042418867, 199488.75, 199488.75, 0.0000000018495133, 10.002854, 9.996922 
2.4508461e+2, 3.1512532e+2, 367358.16, 25321.662, -14636.252, -0.014420682, 0.0034859295, 367983.3, 367983.3, 0.00000052479436, 10.003178, 9.998644 
2.549438e+2, 1.2514016e+2, -1935760.0, -1790284.6, 34527.645, 0.058279447, 0.1290191, -1782505.6, -68868.266, 0.000209724, 9.998347, 10.000278 
2.549507e+2, 1.3514128e+2, -1795750.3, -1605433.0, -21440.398, 0.03789447, 0.1562078, -1603047.5, 12579.639, 0.00009902971, 9.998352, 10.000872 
2.5495747e+2, 1.4514132e+2, -1677739.8, -1517829.9, 4037.6577, -0.027547907, 0.0794488, -1517728.0, -102.69933, 0.000025643241, 9.998574, 10.000691 
2.5496584e+2, 1.5514165e+2, -1524049.9, -1405232.9, 4192.656, 0.017681358, 0.049489204, -1405085.1, 14533.493, 0.0000014046367, 9.999009, 10.000582 
2.549737e+2, 1.6514197e+2, -1433443.0, -1378673.8, -9633.803, 0.027899792, 0.054421335, -1377028.6, -55414.47, 0.0, 9.999251, 9.999974 
2.5498095e+2, 1.7514224e+2, -1326741.4, -1278938.4, -13771.656, -0.012317258, 0.0819021, -1275254.8, -51643.035, 0.0, 9.999322, 9.999951 
2.5498852e+2, 1.8514182e+2, -1214513.1, -1220031.0, -12450.786, -0.017871922, 0.06726962, -1204519.3, -78904.29, 0.0, 9.999618, 9.999541 
2.5499657e+2, 1.951408e+2, -1043491.06, -1089344.6, -13691.464, 0.016589308, 0.008129486, -1039714.0, -12090.786, 0.0, 10.000131, 9.999518 
2.5500414e+2, 2.0513995e+2, -947506.25, -1048227.1, -19641.328, 0.017173497, -0.00049950497, -943811.56, -14181.549, 0.0, 10.000358, 9.999018 
2.5501126e+2, 2.1513933e+2, -856641.3, -956581.0, -13820.769, -0.017145753, 0.03273257, -854765.25, -23129.893, 0.0, 10.000321, 9.998992 
2.550186e+2, 2.2513792e+2, -775787.4, -935132.5, -7736.0996, -0.03630073, 0.02400552, -775412.7, -41764.074, 0.0, 10.000497, 9.998382 
2.550262e+2, 2.3513578e+2, -624628.75, -814025.06, -12506.669, -0.039582808, -0.031527426, -623806.44, 11862.935, 0.0, 10.000874, 9.998358 
2.5503382e+2, 2.45134e+2, -511311.13, -750413.4, -14900.864, -0.038545106, -0.023301953, -510386.1, 27301.365, 0.0, 10.001158, 9.997986 
2.550414e+2, 2.5513265e+2, -386112.2, -640867.3, -7805.784, -0.035112265, 0.040996794, -385873.22, 53829.367, 0.0, 10.001351, 9.997972 
2.5504893e+2, 2.6513076e+2, -250197.14, -533852.3, -4715.3843, -0.042449884, 0.05906469, -250118.77, 91602.58, 0.0, 10.001652, 9.9978895 
2.5505635e+2, 2.751283e+2, -96956.73, -412466.1, -4274.1807, -0.05617805, 0.022213534, -96898.83, 146845.03, 0.0, 10.002045, 9.997861 
2.5506407e+2, 2.8512567e+2, 19500.398, -345722.0, -8275.076, -0.04232422, -0.007300195, 19687.797, 165456.7, 0.0, 10.002345, 9.997502 
2.5507188e+2, 2.9512304e+2, 147084.63, -236896.94, -5924.9023, -0.015019366, -0.021684432, 147176.03, 194970.66, 0.0, 10.002563, 9.997471 
2.5507894e+2, 3.0512086e+2, 210254.67, -225286.81, 9723.732, -0.100846194, 0.032179497, 210471.66, 210471.66, 0.000000000039700524, 10.0028515, 9.99708 
2.5508776e+2, 3.151177e+2, 388754.72, 69491.4, -5408.006, -0.017007107, 0.004047632, 388846.3, 388846.3, 0.00000015406697, 10.003178, 9.998948 
2.6494187e+2, 1.2513234e+2, -1919290.6, -1793194.9, -545.2554, 0.022618316, 0.14290497, -1793192.5, -79477.664, 0.0001649167, 9.9985075, 10.000182 
2.6494947e+2, 1.3513319e+2, -1747421.8, -1596167.0, -52485.43, 0.06190914, 0.15736495, -1579738.8, 35968.523, 0.000073287774, 9.998744, 10.000747 
2.649564e+2, 1.4513326e+2, -1638205.8, -1505116.6, -17453.441, -0.006708938, 0.09347043, -1502865.9, 14839.515, 0.000016155976, 9.998873, 10.000634 
2.6496455e+2, 1.5513362e+2, -1541095.5, -1418476.4, -19302.035, -0.008184419, 0.07082015, -1415509.8, 4188.6406, 0.00000046134082, 9.998915, 10.000536 
2.6497266e+2, 1.6513382e+2, -1454832.5, -1397199.3, -32466.129, 0.0007720769, 0.07005992, -1382605.6, -60910.83, 0.0, 9.999141, 9.999901 
2.6498047e+2, 1.7513385e+2, -1300035.6, -1274029.3, -35732.74, -0.001000054, 0.080604896, -1249007.4, -25312.666, 0.0, 9.999541, 9.99988 
2.649884e+2, 1.8513338e+2, -1187470.1, -1200165.8, -27932.266, -0.0006273891, 0.05999695, -1165173.5, -39475.24, 0.0, 9.999775, 9.999602 
2.649965e+2, 1.9513243e+2, -1079147.6, -1099850.1, -23892.64, 0.009189701, 0.004850552, -1063460.3, -35755.18, 0.0, 9.999858, 9.9995775 
2.6500428e+2, 2.0513166e+2, -982532.44, -1061771.9, -35669.094, 0.007846094, -0.0025062682, -968841.7, -39130.574, 0.0, 10.000103, 9.999047 
2.6501176e+2, 2.1513104e+2, -828126.2, -939645.8, -39215.03, -0.007143089, 0.029102433, -815717.3, 15998.869, 0.0, 10.000504, 9.99902 
2.6501936e+2, 2.251296e+2, -744033.06, -928495.3, -32505.717, -0.024655547, 0.020448992, -738472.56, -4742.646, 0.0, 10.000752, 9.998303 
2.6502702e+2, 2.3512739e+2, -632509.94, -826237.1, -32926.703, -0.043861277, -0.032808594, -627066.5, 8685.209, 0.0, 10.000855, 9.998283 
2.6503482e+2, 2.4512567e+2, -518177.63, -741710.5, -34144.773, -0.048942823, -0.022766635, -513078.34, 24691.004, 0.0, 10.00106, 9.998094 
2.650427e+2, 2.5512445e+2, -377544.44, -624572.44, -31808.117, -0.04186586, 0.041776188, -373514.47, 66268.21, 0.0, 10.001359, 9.99808 
2.6505053e+2, 2.6512253e+2, -252871.64, -533413.25, -27638.697, -0.0423774, 0.052352563, -250174.63, 91626.555, 0.0, 10.001626, 9.997905 
2.6505837e+2, 2.7511993e+2, -122652.35, -423061.13, -26228.629, -0.046816286, 0.002062626, -120379.53, 123445.29, 0.0, 10.001862, 9.997875 
2.650664e+2, 2.851174e+2, -9412.422, -357085.06, -26591.162, -0.03374773, -0.021051235, -7390.401, 138458.78, 0.0, 10.002137, 9.997523 
2.6507437e+2, 2.9511505e+2, 128938.72, -243411.02, -17218.318, -0.016168075, -0.011741003, 129733.234, 177605.84, 0.0, 10.002429, 9.997491 
2.650817e+2, 3.051125e+2, 191823.48, -224182.67, 1219.9628, -0.10340499, 0.006416323, 191827.06, 191827.06, 0.0, 10.002682, 9.997169 
2.6509076e+2, 3.1510964e+2, 360083.03, 72407.11, -24079.006, -0.021814782, -0.0011107983, 362084.56, 362084.56, 0.000000038019415, 10.002912, 9.999094 
2.7494016e+2, 1.2512374e+2, -1916610.4, -1788823.9, 12082.047, -0.00036481253, 0.14179805, -1787691.5, -73891.11, 0.00012966055, 9.998513, 10.000209 
2.7494848e+2, 1.3512442e+2, -1747744.1, -1596150.6, -44528.08, 0.087449074, 0.13625696, -1584039.0, 31755.316, 0.00005392466, 9.998741, 10.000749 
2.749555e+2, 1.4512473e+2, -1643250.4, -1514804.8, -16540.018, 0.014046368, 0.10217661, -1512709.1, 5080.8364, 0.0000098627, 9.99887, 10.000569 
2.7496332e+2, 1.5512556e+2, -1544924.0, -1427068.0, -17672.629, -0.024632849, 0.13067918, -1424475.1, -4695.6836, 0.00000011248763, 9.998918, 10.000476 
2.7497166e+2, 1.6512549e+2, -1458285.4, -1405232.1, -17927.484, -0.014906474, 0.11002882, -1399742.3, -77964.06, 0.0, 9.999145, 9.999844 
2.749802e+2, 1.7512462e+2, -1303432.0, -1281253.1, -20871.21, 0.017738745, 0.035276104, -1268708.1, -44922.582, 0.0, 9.999541, 9.999831 
2.7498832e+2, 1.851242e+2, -1178273.6, -1180687.9, -25051.113, 0.012539931, 0.016629089, -1154400.6, -28612.535, 0.0, 9.999773, 9.999736 
2.7499604e+2, 1.9512424e+2, -1070032.8, -1080912.9, -20465.818, -0.020669045, 0.04550302, -1054296.3, -26510.602, 0.0, 9.999858, 9.999708 
2.7500406e+2, 2.0512347e+2, -989037.1, -1074853.8, -20642.607, -0.023044504, 0.036973406, -984329.9, -54538.27, 0.0, 10.000101, 9.998959 
2.7501237e+2, 2.1512195e+2, -834248.9, -952323.0, -23806.979, 0.0010959437, -0.013484191, -829629.44, 2175.7773, 0.0, 10.000504, 9.998933 
2.750203e+2, 2.251205e+2, -745468.5, -931118.94, -28703.234, -0.0048106946, -0.018018937, -741132.0, -7312.611, 0.0, 10.0007515, 9.998286 
2.7502793e+2, 2.3511913e+2, -633232.94, -828009.1, -28725.648, -0.03738023, 0.015240282, -629084.8, 6749.094, 0.0, 10.000856, 9.998271 
2.750358e+2, 2.4511746e+2, -514582.56, -734475.06, -23168.256, -0.055424124, 0.028244643, -512168.03, 25682.781, 0.0, 10.0010605, 9.998142 
2.7504385e+2, 2.551155e+2, -374603.78, -618199.56, -20459.568, -0.06128162, 0.015845854, -372897.34, 66972.43, 0.0, 10.001357, 9.998125 
2.7505207e+2, 2.6511344e+2, -251013.34, -528673.75, -19230.283, -0.053886548, 0.0057251225, -249687.83, 92201.625, 0.0, 10.001623, 9.997938 
2.7506042e+2, 2.751112e+2, -119885.766, -416888.75, -17014.947, -0.028888537, -0.011392143, -118914.18, 124995.73, 0.0, 10.001861, 9.997918 
2.7506873e+2, 2.8510892e+2, -707.9766, -339273.3, -15453.151, -0.011067773, -0.01739812, -4.11106, 145927.66, 0.0, 10.002137, 9.997646 
2.750768e+2, 2.9510668e+2, 137381.38, -226612.0, -6025.06, -0.015478905, -0.0072561544, 137481.08, 185434.64, 0.0, 10.002432, 9.997605 
2.750843e+2, 3.0510378e+2, 192931.84, -221714.72, 9148.765, -0.11158957, -0.03522602, 193133.61, 193133.61, 0.0, 10.002681, 9.997186 
2.7509356e+2, 3.1510124e+2, 359640.3, 71682.56, -19238.22, -0.03338129, -0.013629245, 360919.9, 360919.9, 0.00000000643165, 10.002911, 9.999089 
2.8493863e+2, 1.2511489e+2, -1924916.1, -1772139.0, 13722.0, 0.0024382744, 0.13624093, -1770916.4, -57027.93, 0.00010364884, 9.998367, 10.000394 
2.849471e+2, 1.3511585e+2, -1742762.1, -1576843.8, -38689.453, 0.07518863, 0.14274056, -1568265.5, 47613.008, 0.000040612387, 9.998703, 10.000899 
2.8495425e+2, 1.4511631e+2, -1642006.3, -1535890.1, -15008.249, -0.0016504297, 0.12461853, -1533808.3, -15935.391, 0.0000062724685, 9.998973, 10.000376 
2.8496248e+2, 1.5511687e+2, -1518575.5, -1434944.0, -26169.621, -0.012352969, 0.1462949, -1427430.3, -7564.161, 0.000000028346124, 9.999188, 10.000292 
2.8497103e+2, 1.6511665e+2, -1421708.8, -1379258.4, -20653.99, 0.0018092069, 0.11637242, -1370867.8, -49001.543, 0.0, 9.999361, 9.999917 
2.8497967e+2, 1.7511575e+2, -1303882.1, -1273012.3, -14819.12, 0.014656933, 0.031892277, -1267049.9, -43177.26, 0.0, 9.999503, 9.999905 
2.8498796e+2, 1.8511537e+2, -1191806.9, -1194628.9, -25292.64, 0.0029735502, 0.016585493, -1167885.9, -42011.395, 0.0, 9.999714, 9.999669 
2.8499594e+2, 1.951155e+2, -1055423.0, -1081455.6, -36371.98, -0.023593612, 0.061676845, -1029808.44, -1936.5122, 0.0, 9.999991, 9.9996395 
2.850042e+2, 2.0511466e+2, -969781.2, -1068804.6, -36291.547, -0.024746982, 0.051373452, -957904.9, -28026.26, 0.0, 10.000247, 9.998931 
2.8501278e+2, 2.1511292e+2, -839301.7, -957389.44, -35473.19, -0.005240319, -0.018141074, -829465.0, 2429.1807, 0.0, 10.000481, 9.998909 
2.8502098e+2, 2.2511153e+2, -752757.7, -934409.0, -42972.53, -0.0092734005, -0.017427724, -743104.8, -9196.735, 0.0, 10.0007, 9.998289 
2.8502885e+2, 2.3511046e+2, -626242.75, -824535.25, -41755.777, -0.033465493, 0.044787105, -617808.7, 18111.447, 0.0, 10.000904, 9.998272 
2.8503695e+2, 2.4510874e+2, -508520.25, -730996.56, -33475.76, -0.04742166, 0.052846078, -503592.34, 34344.938, 0.0, 10.0011, 9.998148 
2.8504524e+2, 2.5510642e+2, -384596.88, -622240.2, -34424.344, -0.05394226, 0.0034422108, -379710.72, 60248.293, 0.0, 10.001286, 9.998132 
2.8505364e+2, 2.6510426e+2, -263943.4, -528278.4, -33450.336, -0.05019918, -0.014466124, -259776.14, 82202.79, 0.0, 10.001507, 9.997997 
2.8506222e+2, 2.7510232e+2, -131048.734, -415113.4, -30005.168, -0.030821757, -0.011331848, -127913.945, 116083.19, 0.0, 10.001753, 9.997982 
2.850708e+2, 2.8510022e+2, -12210.937, -334062.6, -26542.732, -0.010987532, -0.0082078865, -10036.676, 135980.6, 0.0, 10.002012, 9.997742 
2.8507924e+2, 2.9509807e+2, 123856.22, -222434.23, -19751.635, -0.005690119, -0.00023866822, 124979.17, 173017.23, 0.0, 10.0022955, 9.997699 
2.8508702e+2, 3.0509487e+2, 185765.77, -221187.27, -4624.821, -0.10349948, -0.060945705, 185818.33, 185818.33, 0.0, 10.002617, 9.997219 
2.850963e+2, 3.1509274e+2, 356209.6, 57932.676, -36869.656, -0.052125774, 0.0020642236, 360699.4, 360699.4, 0.00000000043435586, 10.002939, 9.998982 
2.9493728e+2, 1.2510581e+2, -1900872.9, -1722686.9, 30692.352, 0.029767727, 0.12653121, -1717548.4, -3569.8694, 0.000085497144, 9.998369, 10.000733 
2.949452e+2, 1.3510749e+2, -1721832.4, -1533917.8, -26106.74, 0.020828286, 0.1757261, -1530358.3, 85601.66, 0.000032281903, 9.998705, 10.001193 
2.9495266e+2, 1.4510795e+2, -1664685.6, -1583665.3, -7451.1396, -0.057844393, 0.16034006, -1582985.6, -65031.402, 0.0000046245973, 9.998976, 10.000047 
2.9496208e+2, 1.5510757e+2, -1540949.8, -1480959.8, -18268.625, 0.02710724, 0.11929719, -1475834.4, -55876.234, 0.00000001715619, 9.9991865, 9.999976 
2.949709e+2, 1.6510731e+2, -1407872.8, -1350059.5, -15713.418, 0.049838707, 0.0910389, -1346064.8, -24105.916, 0.0, 9.999358, 10.000119 
2.9497892e+2, 1.7510726e+2, -1290584.6, -1244728.3, -9215.113, -0.011986138, 0.06969752, -1242945.8, -18989.67, 0.0, 9.9995, 10.0001 
2.949873e+2, 1.8510687e+2, -1211632.3, -1235185.8, -14887.277, -0.031090038, 0.059263684, -1204426.9, -78469.086, 0.0, 9.999711, 9.9993925 
2.9499614e+2, 1.9510624e+2, -1074321.5, -1120916.0, -25686.627, -0.00040829697, 0.053043965, -1062940.6, -34976.89, 0.0, 9.999991, 9.999369 
2.9500473e+2, 2.0510526e+2, -967825.7, -1064463.6, -27558.873, 0.0016803497, 0.0402326, -960519.0, -30546.64, 0.0, 10.000246, 9.998961 
2.9501304e+2, 2.1510397e+2, -837170.8, -952845.4, -26340.146, -0.0266325, 0.014663892, -831455.4, 527.8327, 0.0, 10.00048, 9.998941 
2.9502136e+2, 2.2510266e+2, -751499.75, -931243.56, -35530.164, -0.0389512, 0.02209825, -744731.4, -10735.41, 0.0, 10.000698, 9.998312 
2.9502976e+2, 2.3510133e+2, -624825.4, -821519.25, -33796.69, -0.03394158, 0.05592021, -619180.3, 16830.146, 0.0, 10.000903, 9.998293 
2.9503828e+2, 2.4509947e+2, -511350.44, -736656.0, -26653.877, -0.027061274, 0.05113143, -508240.2, 29788.543, 0.0, 10.001099, 9.998109 
2.9504684e+2, 2.5509712e+2, -387112.8, -627622.5, -27098.393, -0.020362757, 0.0034676758, -384097.4, 55953.09, 0.0, 10.0012865, 9.998095 
2.9505536e+2, 2.6509506e+2, -258557.6, -517151.53, -24462.615, -0.03110622, -0.00979032, -256263.81, 85805.96, 0.0, 10.001507, 9.998074 
2.9506373e+2, 2.7509326e+2, -125434.99, -403388.75, -20753.6, -0.055486795, 0.0011460541, -123893.96, 120192.65, 0.0, 10.001753, 9.998063 
2.950726e+2, 2.8509125e+2, -8046.534, -324807.4, -16593.176, -0.03676299, 0.006768854, -7179.6904, 138926.03, 0.0, 10.00201, 9.997807 
2.9508173e+2, 2.9508913e+2, 127659.74, -213393.63, -8883.158, 0.012376779, 0.00995608, 127890.96, 176017.03, 0.0, 10.002291, 9.997763 
2.9508987e+2, 3.0508578e+2, 188809.0, -214450.3, 7511.7197, -0.07894985, -0.07052063, 188948.88, 188948.88, 0.0, 10.002614, 9.997268 
2.9509893e+2, 3.1508416e+2, 343694.34, 30479.766, -26735.006, -0.082659274, 0.038291194, 345959.97, 345959.97, 0.0, 10.002944, 9.998791 
3.0493584e+2, 1.2509714e+2, -1810074.6, -1691965.5, 56575.824, 0.019140132, 0.1337505, -1669238.3, 44824.285, 0.000073591786, 9.999052, 10.000613 
3.0494392e+2, 1.3509847e+2, -1726913.8, -1554724.4, -41424.125, 0.016168622, 0.16392438, -1545277.1, 70770.52, 0.000027638554, 9.99875, 10.001029 
3.049515e+2, 1.4509887e+2, -1684316.0, -1596775.5, -15330.659, -0.06700412, 0.15062666, -1594168.4, -76125.34, 0.000004191702, 9.998858, 10.000012 
3.0496135e+2, 1.5509841e+2, -1519668.1, -1474032.3, -5527.3296, 0.033215914, 0.10633846, -1473372.3, -53324.78, 0.000000032166714, 9.999348, 9.999946 
3.0497047e+2, 1.650982e+2, -1376119.4, -1342751.9, -11652.394, 0.060046773, 0.08755715, -1339085.5, -17037.6, 0.0, 9.999613, 10.000046 
3.049785e+2, 1.7509829e+2, -1269707.9, -1243092.9, -26579.352, -0.013032396, 0.08893925, -1226675.8, -2631.8242, 0.0, 9.9996805, 10.000025 
3.049871e+2, 1.8509778e+2, -1197713.6, -1245907.9, -30007.867, -0.03314706, 0.07681655, -1183325.1, -57277.793, 0.0, 9.999882, 9.999236 
3.0499634e+2, 1.9509673e+2, -1052216.6, -1126479.3, -32075.629, 0.007534831, 0.045782566, -1040280.8, -12223.363, 0.0, 10.000216, 9.999222 
3.0500513e+2, 2.0509571e+2, -946620.1, -1053017.3, -36726.926, 0.010934072, 0.035388034, -935173.9, -5107.253, 0.0, 10.000388, 9.998971 
3.0501348e+2, 2.1509473e+2, -847396.1, -957042.06, -37487.156, -0.025478456, 0.03968226, -835804.9, -3730.3665, 0.0, 10.000406, 9.998948 
3.0502203e+2, 2.2509338e+2, -765356.6, -938596.44, -41960.855, -0.038002435, 0.044180613, -755728.3, -21640.861, 0.0, 10.000605, 9.998306 
3.0503076e+2, 2.350917e+2, -614346.8, -816699.2, -43086.566, -0.025968697, 0.04288876, -605554.5, 30550.592, 0.0, 10.0009775, 9.99829 
3.0503953e+2, 2.4508986e+2, -490913.5, -722607.4, -38814.61, -0.01510599, 0.03771185, -484583.97, 53539.26, 0.0, 10.001222, 9.998146 
3.0504832e+2, 2.5508788e+2, -376242.13, -618236.9, -33631.035, -0.0066934405, 0.02348219, -371655.25, 68486.51, 0.0, 10.001343, 9.998131 
3.0505687e+2, 2.650859e+2, -263307.13, -520666.06, -29037.652, -0.025151957, 0.016710052, -260071.48, 82088.984, 0.0, 10.00148, 9.998062 
3.050653e+2, 2.750839e+2, -144084.42, -413721.84, -32916.62, -0.0667548, 0.008369636, -140124.2, 104055.25, 0.0, 10.001632, 9.99805 
3.0507433e+2, 2.850819e+2, -30425.408, -333308.38, -31213.863, -0.051323187, 0.014204747, -27242.094, 118956.55, 0.0, 10.001848, 9.997826 
3.0508393e+2, 2.9507995e+2, 103873.57, -222386.25, -27140.0, 0.0104537355, 0.036118545, 106115.805, 154332.88, 0.0, 10.002116, 9.997786 
3.0509242e+2, 3.050766e+2, 173395.8, -200391.64, -3744.529, -0.07149332, -0.058076575, 173433.31, 173433.31, 0.0, 10.002416, 9.997459 
3.0510175e+2, 3.150752e+2, 306771.66, 2548.146, -32301.902, -0.08539044, 0.053512108, 310163.6, 310163.6, 0.0, 10.002736, 9.998698 
3.1493437e+2, 1.2508893e+2, -1850927.9, -1778447.9, 51217.59, -0.033613313, 0.15895383, -1751945.6, -37805.758, 0.00006650563, 9.999059, 10.000017 
3.1494305e+2, 1.3508882e+2, -1770539.1, -1645779.0, -52207.83, 0.056850135, 0.10899756, -1626814.6, -10672.987, 0.000025576577, 9.998753, 10.000403 
3.1495067e+2, 1.4508905e+2, -1665881.3, -1558846.4, 2938.2312, -0.03285069, 0.096967295, -1558765.8, -40626.93, 0.000004447986, 9.998858, 10.000274 
3.1496045e+2, 1.5508936e+2, -1501948.0, -1436677.3, 13139.057, 0.004458999, 0.10567849, -1434131.6, -13997.511, 0.00000006594377, 9.999345, 10.000204 
3.1496978e+2, 1.650893e+2, -1401911.9, -1395840.8, -9440.433, 0.030810712, 0.10503867, -1388959.8, -66826.33, 0.0, 9.99961, 9.999683 
3.149784e+2, 1.7508885e+2, -1294984.5, -1295604.9, -23868.979, 0.009505898, 0.09060693, -1271423.6, -47287.17, 0.0, 9.9996805, 9.999665 
3.1498724e+2, 1.8508808e+2, -1200032.5, -1250665.4, -17652.994, -0.005865492, 0.071053386, -1194485.5, -68342.43, 0.0, 9.999881, 9.999205 
3.1499645e+2, 1.9508699e+2, -1054507.4, -1130926.3, -19256.771, -0.0004093989, 0.039125234, -1049929.1, -21776.082, 0.0, 10.000214, 9.999193 
3.1500542e+2, 2.0508602e+2, -948125.5, -1055268.3, -36076.707, 0.0019762644, 0.03619999, -937110.3, -6948.7837, 0.0, 10.000384, 9.998957 
3.150141e+2, 2.1508521e+2, -848517.2, -959382.25, -36239.23, -0.0032030847, 0.05645387, -837722.44, -5554.126, 0.0, 10.000405, 9.998933 
3.1502292e+2, 2.2508371e+2, -767998.1, -944071.9, -27935.143, -0.007981958, 0.048467617, -763672.3, -29489.68, 0.0, 10.000605, 9.998269 
3.150319e+2, 2.3508157e+2, -616786.1, -821870.4, -28898.977, -0.010152804, 0.005693197, -612791.7, 23412.43, 0.0, 10.0009775, 9.998255 
3.1504077e+2, 2.4507987e+2, -483223.56, -706404.4, -34700.703, -0.012044127, 0.012331999, -477952.7, 60268.26, 0.0, 10.001221, 9.998259 
3.1504956e+2, 2.5507867e+2, -367956.38, -600866.8, -29062.283, -0.015178623, 0.062592, -364384.78, 75848.055, 0.0, 10.001343, 9.998251 
3.150583e+2, 2.650768e+2, -270685.75, -535879.94, -23640.88, -0.033969853, 0.0647973, -268594.75, 73656.3, 0.0, 10.001479, 9.997957 
3.1506696e+2, 2.750742e+2, -151928.89, -429673.53, -26871.336, -0.06532525, 0.010826567, -149353.03, 94922.63, 0.0, 10.001631, 9.997941 
3.1507614e+2, 2.8507212e+2, -32949.957, -337908.22, -21615.111, -0.054533333, 0.014177661, -31425.523, 114870.516, 0.0, 10.001845, 9.997796 
3.150858e+2, 2.9507056e+2, 103424.82, -224054.8, -16814.207, -0.014521896, 0.07580053, 104285.875, 152597.06, 0.0, 10.00212, 9.997772 
3.1509474e+2, 3.050673e+2, 196220.05, -153825.19, 7903.2637, -0.08393584, -0.02550661, 196398.39, 196398.39, 0.0, 10.002419, 9.997778 
3.151047e+2, 3.1506583e+2, 306129.2, 2986.6257, -23287.27, -0.06472901, 0.049856532, 307907.66, 307907.66, 0.0, 10.0027275, 9.998706 
3.24933e+2, 1.2507941e+2, -1908069.4, -1822101.6, 3646.7034, -0.063337564, 0.13233957, -1821947.1, -107715.98, 0.00006287029, 9.998739, 9.99987 
3.2494235e+2, 1.350792e+2, -1712073.3, -1639014.9, -73001.805, 0.08542687, 0.09187386, -1593912.9, 22321.807, 0.000025189593, 9.999247, 10.000211 
3.2495007e+2, 1.4507945e+2, -1573934.6, -1518835.5, -7086.3535, -0.010826747, 0.09323322, -1517938.8, 293.4025, 0.0000050024137, 9.99951, 10.000234 
3.2495978e+2, 1.5507965e+2, -1477240.8, -1428816.9, -20818.332, -0.004284075, 0.09291517, -1421097.4, -869.0259, 0.000000115129794, 9.999532, 10.000168 
3.2496932e+2, 1.650795e+2, -1398967.4, -1407319.3, -47316.76, 0.020957734, 0.09183719, -1355642.6, -33413.95, 0.0, 9.999686, 9.999567 
3.2497835e+2, 1.7507905e+2, -1260921.0, -1291309.5, -43321.332, 0.023145918, 0.08738879, -1230206.6, -5973.9727, 0.0, 9.999969, 9.999555 
3.2498735e+2, 1.8507826e+2, -1167121.4, -1233225.8, -25890.232, 0.0081269555, 0.072324514, -1158188.4, -31948.934, 0.0, 10.000101, 9.999217 
3.2499653e+2, 1.9507718e+2, -1070032.9, -1137515.8, -25198.201, -0.009287, 0.040233314, -1061662.1, -33413.188, 0.0, 10.000102, 9.999202 
3.250057e+2, 2.0507613e+2, -963158.25, -1076357.1, -41600.973, -0.0068263505, 0.03512592, -949514.25, -19255.924, 0.0, 10.000339, 9.998835 
3.2501483e+2, 2.1507515e+2, -799082.06, -948195.06, -50421.2, 0.010257009, 0.051450446, -783633.2, 48634.215, 0.0, 10.000801, 9.998818 
3.250239e+2, 2.2507364e+2, -706579.94, -906012.25, -44620.918, 0.009735259, 0.043852583, -697051.7, 37230.113, 0.0, 10.000991, 9.998343 
3.2503286e+2, 2.3507163e+2, -620121.1, -815228.7, -37244.664, -0.006098283, 0.0059207575, -613253.1, 23048.28, 0.0, 10.000918, 9.998329 
3.2504183e+2, 2.4507003e+2, -516470.72, -725655.94, -42268.246, -0.0155799, 0.018294647, -508252.78, 30064.746, 0.0, 10.001006, 9.998229 
3.250508e+2, 2.5506884e+2, -383755.47, -611949.06, -48361.816, -0.020661743, 0.07519315, -373929.13, 66400.8, 0.0, 10.001249, 9.99822 
3.2505974e+2, 2.6506692e+2, -268119.97, -536006.3, -44130.547, -0.034709014, 0.077304594, -261037.33, 81311.42, 0.0, 10.001503, 9.997946 
3.2506874e+2, 2.750643e+2, -131999.1, -421173.16, -40539.273, -0.054074213, 0.017204594, -126423.4, 117950.67, 0.0, 10.001772, 9.9979315 
3.2507813e+2, 2.8506225e+2, -16287.737, -323963.53, -29172.5, -0.04590956, 0.024762778, -13546.155, 132847.66, 0.0, 10.001934, 9.9978485 
3.2508773e+2, 2.9506087e+2, 85928.92, -226758.58, -19862.17, -0.022229195, 0.10095514, 87185.53, 135592.61, 0.0, 10.001976, 9.997823 
3.2509702e+2, 3.050577e+2, 169457.81, -149498.67, 7112.497, -0.08448954, -0.0011700379, 169616.33, 169616.33, 0.0, 10.002161, 9.9979315 
3.2510743e+2, 3.1505597e+2, 261660.3, -34557.316, -38745.254, -0.051548716, 0.028765999, 266644.3, 266644.3, 0.0, 10.00249, 9.998563 
3.349316e+2, 1.2506862e+2, -1886178.5, -1778019.0, 27974.969, -0.0770062, 0.05410072, -1771211.9, -56875.582, 0.000061273975, 9.998744, 10.000171 
3.3494177e+2, 1.3506965e+2, -1694581.9, -1602665.9, -52982.03, 0.10256949, 0.11256638, -1578486.6, 37840.38, 0.000025556885, 9.999246, 10.000461 
3.3494967e+2, 1.4507012e+2, -1598964.6, -1570716.6, -6166.4937, -0.0011865892, 0.14036274, -1569429.1, -51106.574, 0.0000055599335, 9.999509, 9.999878 
3.349594e+2, 1.5506926e+2, -1501193.9, -1478541.4, -19478.63, 0.0014387581, 0.06984569, -1467335.5, -47005.5, 0.00000016881297, 9.999533, 9.9998255 
3.3496904e+2, 1.6506882e+2, -1388939.5, -1387064.5, -36799.77, 0.024571752, 0.050076306, -1351190.3, -28856.822, 0.0, 9.999688, 9.999706 
3.3497837e+2, 1.7506881e+2, -1251094.1, -1270971.6, -32299.438, 0.028362175, 0.07756745, -1227238.9, -2906.1763, 0.0, 9.999968, 9.999696 
3.3498746e+2, 1.8506831e+2, -1164200.6, -1226354.3, -26011.814, 0.008530372, 0.079369046, -1154751.1, -28414.572, 0.0, 10.000097, 9.999267 
3.3499652e+2, 1.9506727e+2, -1067399.9, -1131973.0, -24691.81, -0.020889547, 0.04908066, -1059040.4, -30695.184, 0.0, 10.000101, 9.999241 
3.350059e+2, 2.0506603e+2, -979722.4, -1110069.8, -24138.236, -0.017756375, 0.032946676, -975395.94, -45039.004, 0.0, 10.000336, 9.998605 
3.3501568e+2, 2.1506457e+2, -814837.56, -980843.75, -32620.053, 0.014023856, 0.024557535, -808657.8, 23713.94, 0.0, 10.0008, 9.998595 
3.3502492e+2, 2.2506319e+2, -693495.56, -878530.7, -47617.105, 0.014100304, 0.030090237, -681960.75, 52424.316, 0.0, 10.00099, 9.998533 
3.3503368e+2, 2.3506185e+2, -606426.56, -787018.1, -39612.08, -0.014852742, 0.042797823, -598119.9, 38277.08, 0.0, 10.000919, 9.998523 
3.3504274e+2, 2.4506025e+2, -528887.25, -751535.0, -33265.68, -0.026886856, 0.055211596, -524023.28, 14389.72, 0.0, 10.001006, 9.998052 
3.35052e+2, 2.550584e+2, -396727.3, -638499.4, -38962.504, -0.024079591, 0.062207244, -390603.47, 49829.414, 0.0, 10.001247, 9.998038 
3.3506134e+2, 2.6505634e+2, -263192.53, -525174.3, -34535.188, -0.027922688, 0.054982368, -258716.47, 83737.08, 0.0, 10.0015, 9.998022 
3.350707e+2, 2.750541e+2, -125407.87, -407377.7, -30395.54, -0.035953034, 0.026109915, -122168.53, 122306.31, 0.0, 10.001772, 9.998026 
3.3508024e+2, 2.8505227e+2, -7787.154, -305966.2, -27938.264, -0.028119456, 0.04508881, -5192.0283, 141300.05, 0.0, 10.001932, 9.997973 
3.3508977e+2, 2.9505098e+2, 93286.92, -210018.03, -17984.795, -0.014389265, 0.113314115, 94349.625, 142854.25, 0.0, 10.001969, 9.997941 
3.3509928e+2, 3.0504787e+2, 167560.33, -151901.75, 18422.816, -0.07399099, 0.015811596, 168619.23, 168619.23, 0.0, 10.002154, 9.997919 
3.3510992e+2, 3.150456e+2, 243026.64, -73906.95, -27007.027, -0.05040446, -0.00905158, 245311.53, 245311.53, 0.0, 10.002492, 9.998291 
3.4493074e+2, 1.2505826e+2, -1815810.8, -1735733.3, 28151.691, -0.059534334, 0.046069976, -1726826.9, -12389.242, 0.000060228966, 9.99919, 10.000245 
3.4494102e+2, 1.3505928e+2, -1662610.8, -1586238.8, -77073.86, 0.09419203, 0.10034184, -1538409.9, 78018.19, 0.000025763518, 9.999458, 10.000472 
3.4494895e+2, 1.4505981e+2, -1586363.6, -1572569.5, -40682.74, -0.030314708, 0.1402765, -1538203.4, -19780.46, 0.000005876301, 9.999629, 9.999806 
3.44959e+2, 1.5505894e+2, -1487585.1, -1479146.3, -33368.98, 0.005456138, 0.07206068, -1449731.0, -29299.734, 0.0000002059256, 9.999657, 9.999762 
3.4496891e+2, 1.6505848e+2, -1373440.6, -1369446.9, -33717.63, 0.03684106, 0.04880248, -1337667.0, -15232.001, 0.0, 9.999751, 9.999796 
3.4497824e+2, 1.7505848e+2, -1248084.8, -1259515.1, -34049.285, 0.019768585, 0.06896962, -1219274.4, 5159.3022, 0.0, 9.999944, 9.999785 
3.449875e+2, 1.85058e+2, -1154746.8, -1221827.8, -35463.266, 0.0007796011, 0.070007086, -1139475.3, -13038.361, 0.0, 10.000161, 9.999267 
3.4499693e+2, 1.9505705e+2, -1024382.94, -1110218.6, -37402.26, -0.0051439973, 0.045997076, -1010372.2, 18072.764, 0.0, 10.000394, 9.999248 
3.4500653e+2, 2.050558e+2, -950269.06, -1102421.3, -24472.213, -0.0011000631, 0.03353804, -946429.8, -15972.978, 0.0, 10.000567, 9.998546 
3.4501636e+2, 2.150543e+2, -835543.56, -997644.8, -20772.84, 0.0075509036, 0.02643124, -832923.94, -451.535, 0.0, 10.000687, 9.998534 
3.4502572e+2, 2.2505288e+2, -715202.7, -892412.5, -45727.336, 0.0018222347, 0.03359511, -704098.94, 30387.234, 0.0, 10.0008545, 9.998504 
3.450347e+2, 2.3505154e+2, -586839.2, -780867.5, -55033.363, -0.015819674, 0.047990706, -572316.75, 64181.438, 0.0, 10.001068, 9.998493 
3.450439e+2, 2.4504985e+2, -503347.75, -747665.94, -49409.72, -0.0231998, 0.056683064, -493733.7, 44781.49, 0.0, 10.001218, 9.997976 
3.4505332e+2, 2.5504783e+2, -393236.44, -645090.06, -47472.7, -0.022161461, 0.054696668, -384585.3, 55951.62, 0.0, 10.0013075, 9.997965 
3.450628e+2, 2.6504585e+2, -271760.25, -518788.1, -36816.664, -0.02616814, 0.05333744, -266389.9, 76167.1, 0.0, 10.001396, 9.998116 
3.4507236e+2, 2.7504387e+2, -162067.53, -415382.78, -32632.092, -0.03321065, 0.04423537, -157931.39, 86644.07, 0.0, 10.001477, 9.998114 
3.4508204e+2, 2.8504205e+2, -52984.258, -328871.16, -36763.527, -0.024261031, 0.057704687, -48169.336, 98423.555, 0.0, 10.001626, 9.997964 
3.4509176e+2, 2.950404e+2, 76925.65, -219371.88, -36749.32, -0.0074297483, 0.0958084, 81415.58, 130024.19, 0.0, 10.001862, 9.997929 
3.4510154e+2, 3.0503774e+2, 169347.5, -130269.72, 7374.2217, -0.05867183, 0.028881226, 169528.89, 169528.89, 0.0, 10.002078, 9.998103 
3.4511235e+2, 3.1503555e+2, 202799.05, -92711.63, -27861.121, -0.04085839, -0.0023696716, 205402.89, 205402.89, 0.0, 10.002215, 9.998295 
3.549304e+2, 1.2504837e+2, -1826579.5, -1758355.0, 43079.68, -0.012100346, 0.11057644, -1737517.3, -22981.854, 0.00005843651, 9.99919, 10.000091 
3.5494006e+2, 1.3504806e+2, -1678140.9, -1619344.0, -65777.48, 0.052474514, 0.055898797, -1576694.3, 39843.92, 0.000025162195, 9.999461, 10.000244 
3.549478e+2, 1.4504859e+2, -1570255.5, -1540130.1, -39147.45, -0.10679188, 0.09357027, -1513247.5, 5285.4927, 0.0000057861466, 9.999633, 10.000028 
3.5495868e+2, 1.5504864e+2, -1472165.0, -1446930.1, -31923.182, 0.009506703, 0.09890541, -1425221.3, -4688.9517, 0.00000020730299, 9.999656, 9.999983 
3.5496888e+2, 1.6504845e+2, -1371388.1, -1365127.1, -26747.477, 0.05873957, 0.088436395, -1341327.6, -18794.18, 0.0, 9.99975, 9.999826 
3.549779e+2, 1.7504802e+2, -1246079.9, -1255578.9, -26291.508, -0.0067617213, 0.062008146, -1224112.4, 423.2003, 0.0, 9.999945, 9.999812 
3.5498744e+2, 1.8504736e+2, -1157418.0, -1227183.1, -26640.314, -0.02007074, 0.04502699, -1148408.8, -21868.186, 0.0, 10.00016, 9.999231 
3.5499772e+2, 1.9504645e+2, -1026322.25, -1114444.3, -28226.842, 0.037532955, 0.029913513, -1018056.1, 10492.299, 0.0, 10.000394, 9.999219 
3.5500753e+2, 2.0504545e+2, -942787.94, -1086439.8, -20130.17, 0.042825934, 0.036060706, -940020.4, -9462.279, 0.0, 10.000565, 9.998656 
3.5501686e+2, 2.1504432e+2, -828254.56, -982262.1, -15762.186, -0.010333742, 0.056878738, -826657.9, 5911.597, 0.0, 10.000685, 9.998641 
3.5502627e+2, 2.2504273e+2, -733323.7, -929530.8, -37827.273, -0.028907526, 0.054048814, -726283.5, 8301.691, 0.0, 10.000853, 9.99825 
3.550358e+2, 2.3504068e+2, -604827.25, -818026.0, -46790.992, -0.010059603, 0.022194706, -595010.06, 41594.957, 0.0, 10.001067, 9.998239 
3.550453e+2, 2.450388e+2, -501434.34, -743600.06, -46415.52, -0.005480871, 0.02327477, -492842.78, 45781.313, 0.0, 10.001217, 9.998005 
3.5505465e+2, 2.550371e+2, -390365.7, -639054.94, -44038.1, -0.016602201, 0.051983047, -382797.7, 57844.47, 0.0, 10.001307, 9.998006 
3.5506415e+2, 2.6503542e+2, -264472.13, -503274.47, -33887.043, -0.031014558, 0.07140159, -259756.53, 82902.766, 0.0, 10.001394, 9.998223 
3.550737e+2, 2.7503365e+2, -155660.13, -401543.13, -29385.209, -0.046676986, 0.07241097, -152197.1, 92478.766, 0.0, 10.001474, 9.99821 
3.5508355e+2, 2.850316e+2, -63587.9, -350299.03, -28650.209, -0.034950923, 0.063280076, -60752.996, 85943.14, 0.0, 10.001623, 9.997818 
3.5509366e+2, 2.9502925e+2, 67854.29, -238169.4, -27353.207, -0.0041882163, 0.048444856, 70279.97, 118998.9, 0.0, 10.001862, 9.9978 
3.551038e+2, 3.0502725e+2, 194436.45, -77791.32, 12709.855, -0.041818526, 0.037140355, 195028.58, 195028.58, 0.0, 10.002075, 9.998466 
3.5511473e+2, 3.150259e+2, 221272.44, -53404.895, -24052.186, -0.029223649, 0.05067301, 223362.67, 223362.67, 0.0, 10.002211, 9.998567 
3.649299e+2, 1.2503809e+2, -1763896.5, -1720546.5, 42952.613, -0.0013008945, 0.14179784, -1694109.8, 20527.285, 0.000055122826, 9.999589, 10.000156 
3.6493957e+2, 1.3503738e+2, -1703218.8, -1632261.9, -53135.867, 0.06775565, 0.047171403, -1603848.8, 12794.131, 0.000023501116, 9.999292, 10.0002365 
3.6494723e+2, 1.450379e+2, -1601011.1, -1552338.4, -15356.102, -0.118970245, 0.08377203, -1547898.5, -29261.203, 0.00000526637, 9.999411, 10.000051 
3.6495835e+2, 1.550381e+2, -1434131.4, -1425479.9, -24720.535, -0.0025407637, 0.09969167, -1404709.4, 15926.172, 0.00000017249042, 9.999903, 10.000011 
3.6496875e+2, 1.6503792e+2, -1319281.6, -1342491.6, -35016.977, 0.05351301, 0.09149209, -1293996.8, 28639.715, 0.0, 10.000117, 9.9998045 
3.6497793e+2, 1.7503741e+2, -1230428.3, -1249893.6, -38230.52, -0.0034381936, 0.05940607, -1200711.0, 23928.13, 0.0, 10.00006, 9.999795 
3.649877e+2, 1.8503672e+2, -1157123.1, -1232345.6, -32183.36, -0.0143593745, 0.041263048, -1145233.1, -18588.477, 0.0, 10.000185, 9.999184 
3.6499816e+2, 1.950358e+2, -1013541.44, -1113407.9, -35606.582, 0.03930497, 0.029847683, -1002146.44, 26506.35, 0.0, 10.000502, 9.999175 
3.6500815e+2, 2.0503478e+2, -927284.4, -1075734.1, -38929.848, 0.04247344, 0.036000773, -917694.75, 12967.731, 0.0, 10.000656, 9.998687 
3.650175e+2, 2.1503365e+2, -831731.06, -980030.7, -40852.645, -0.011397043, 0.05277962, -821222.0, 11451.807, 0.0, 10.000645, 9.998676 
3.6502707e+2, 2.2503208e+2, -748831.75, -939926.75, -49821.96, -0.029973097, 0.050417926, -736622.3, -1932.8334, 0.0, 10.000759, 9.998223 
3.6503685e+2, 2.3503004e+2, -616677.1, -826693.75, -42179.81, -0.010570678, 0.024191102, -608522.4, 28187.047, 0.0, 10.000999, 9.998212 
3.650465e+2, 2.4502817e+2, -502648.7, -741094.25, -36477.285, -0.001992307, 0.025208836, -497193.22, 41535.297, 0.0, 10.001196, 9.998032 
3.650561e+2, 2.5502643e+2, -381923.3, -632439.7, -35297.445, -0.00632324, 0.04755881, -377044.97, 63701.63, 0.0, 10.001352, 9.99803 
3.6506563e+2, 2.6502475e+2, -265086.28, -511977.4, -35413.543, -0.021005897, 0.070008956, -260107.06, 82656.78, 0.0, 10.001426, 9.998149 
3.6507517e+2, 2.7502304e+2, -167758.28, -415527.7, -44542.867, -0.04387939, 0.083586484, -159993.88, 84786.73, 0.0, 10.001427, 9.998137 
3.650851e+2, 2.8502095e+2, -65858.77, -339274.44, -32546.938, -0.039469227, 0.069363765, -62037.84, 84763.39, 0.0, 10.001555, 9.997927 
3.6509538e+2, 2.950185e+2, 62749.375, -229274.48, -13258.701, -0.015008708, 0.031665836, 63350.12, 112174.68, 0.0, 10.001777, 9.997903 
3.6510584e+2, 3.0501696e+2, 176016.78, -90309.195, 19194.383, -0.03862111, 0.064028755, 177393.03, 177393.03, 0.0, 10.001964, 9.998434 
3.6511707e+2, 3.1501547e+2, 213013.77, -58708.543, -49029.965, -0.011970761, 0.06858883, 221590.11, 221590.11, 0.0, 10.002158, 9.998557 
3.7492916e+2, 1.2502742e+2, -1743977.5, -1678228.1, 36229.805, -0.034530114, 0.13901407, -1662181.0, 52561.887, 0.00005010573, 9.999585, 10.000449 
3.7493965e+2, 1.3502723e+2, -1688368.5, -1600917.0, -63089.17, 0.1426022, 0.075116575, -1567882.3, 48859.926, 0.000020857056, 9.9992895, 10.000453 
3.7494716e+2, 1.4502779e+2, -1613844.5, -1578687.1, 3505.706, -0.065254726, 0.11241602, -1578340.9, -59605.21, 0.000004428325, 9.999409, 9.999871 
3.7495792e+2, 1.5502727e+2, -1446390.3, -1450977.4, -5780.338, -0.035442483, 0.07478391, -1442465.1, -21724.055, 0.00000011962439, 9.999902, 9.999837 
3.7496847e+2, 1.6502687e+2, -1323602.6, -1351669.4, -37296.594, 0.015526604, 0.05828823, -1297786.6, 24957.545, 0.0, 10.000118, 9.999742 
3.7497833e+2, 1.7502666e+2, -1234513.4, -1258750.5, -40005.24, 0.0300672, 0.060476955, -1204831.4, 19913.172, 0.0, 10.000061, 9.999734 
3.749882e+2, 1.8502606e+2, -1161286.6, -1241116.9, -20450.084, 0.017615778, 0.05870015, -1156352.9, -29603.623, 0.0, 10.000185, 9.999124 
3.7499827e+2, 1.9502507e+2, -1018170.75, -1122884.9, -23253.691, -0.0014976892, 0.046245277, -1013239.1, 15518.914, 0.0, 10.000501, 9.99911 
3.7500834e+2, 2.0502381e+2, -930769.4, -1082459.5, -39361.906, -0.004400947, 0.033400945, -921163.7, 9606.446, 0.0, 10.000654, 9.998642 
3.7501827e+2, 2.1502228e+2, -834816.75, -986126.44, -40811.543, 0.0029142257, 0.014089401, -824510.94, 8274.421, 0.0, 10.000643, 9.998635 
3.750281e+2, 2.2502089e+2, -734923.5, -910809.0, -41073.824, -0.0026564137, 0.02278574, -725804.5, 8994.68, 0.0, 10.000757, 9.998425 
3.7503776e+2, 2.3501964e+2, -602558.75, -797102.0, -32995.063, -0.018237935, 0.053351995, -597115.06, 39696.49, 0.0, 10.000998, 9.998416 
3.7504756e+2, 2.4501793e+2, -501501.28, -738162.75, -30821.941, -0.014321675, 0.061525732, -497553.0, 41275.613, 0.0, 10.001194, 9.998054 
3.7505758e+2, 2.5501582e+2, -380834.75, -630078.4, -29374.781, 0.0075286943, 0.041882902, -377419.56, 63430.688, 0.0, 10.001352, 9.998046 
3.750673e+2, 2.6501384e+2, -283108.06, -549431.44, -35862.98, 0.0027620182, 0.04988071, -278363.28, 64507.297, 0.0, 10.001425, 9.997892 
3.7507674e+2, 2.7501205e+2, -184866.17, -450777.47, -44205.06, -0.027075227, 0.07761402, -177710.11, 67179.555, 0.0, 10.001425, 9.997896 
3.7508664e+2, 2.850101e+2, -41124.07, -287060.0, -24178.182, -0.04035247, 0.0754826, -38769.633, 108138.59, 0.0, 10.001552, 9.998287 
3.7509686e+2, 2.9500812e+2, 86994.85, -178586.17, -4875.43, -0.04222935, 0.045490976, 87084.32, 136009.81, 0.0, 10.001776, 9.998251 
3.7510768e+2, 3.0500686e+2, 146527.61, -151466.77, 25337.436, -0.051155668, 0.10905067, 148666.61, 148666.61, 0.0, 10.001963, 9.998014 
3.7511942e+2, 3.1500438e+2, 192625.14, -99117.6, -42467.223, 0.0068121306, 0.0534475, 198681.13, 198681.13, 0.0, 10.002151, 9.998282 
3.8492864e+2, 1.250168e+2, -1790386.6, -1706705.8, 49108.918, -0.028276613, 0.13669139, -1684030.3, 30816.281, 0.00004363311, 9.999293, 10.000393 
3.8493946e+2, 1.3501647e+2, -1615514.9, -1582759.9, -81854.6, 0.16869214, 0.07114614, -1515660.5, 101187.37, 0.000017489165, 9.99986, 10.000303 
3.849469e+2, 1.45017e+2, -1515160.6, -1525910.4, -19785.137, -0.064812236, 0.11296335, -1500033.4, 18808.12, 0.0000034194288, 10.000063, 9.999918 
3.8495776e+2, 1.5501644e+2, -1453239.3, -1448749.9, -13398.136, -0.037855405, 0.06588034, -1437409.8, -16562.988, 0.00000006772674, 9.999831, 9.9998865 
3.8496855e+2, 1.6501604e+2, -1350318.9, -1377351.6, -33104.47, 0.015849983, 0.051950824, -1328077.8, -5227.815, 0.0, 9.9999895, 9.999628 
3.8497868e+2, 1.7501587e+2, -1169002.6, -1239421.8, -40261.21, 0.034062702, 0.06968845, -1150726.9, 74123.73, 0.0, 10.000563, 9.999625 
3.8498864e+2, 1.8501519e+2, -1083683.0, -1209993.5, -29642.256, 0.016762583, 0.06716553, -1077072.6, 49783.75, 0.0, 10.000744, 9.999068 
3.8499865e+2, 1.9501396e+2, -1017556.94, -1128268.3, -32133.826, -0.0150052905, 0.037262406, -1008906.06, 19961.14, 0.0, 10.00053, 9.99906 
3.8500872e+2, 2.050127e+2, -945160.0, -1079387.1, -40644.516, -0.020536073, 0.02315909, -933812.06, -2932.9832, 0.0, 10.000512, 9.998731 
3.8501886e+2, 2.1501143e+2, -820920.0, -969240.94, -32598.496, -0.0063258978, 0.020085894, -814071.6, 18820.014, 0.0, 10.000694, 9.998726 
3.8502884e+2, 2.2501008e+2, -723493.5, -908869.25, -32152.97, -0.0062787477, 0.031963814, -718075.0, 16829.941, 0.0, 10.000852, 9.998392 
3.8503873e+2, 2.350087e+2, -606108.9, -802394.75, -42132.55, -0.018116988, 0.05146495, -597447.4, 39471.684, 0.0, 10.000988, 9.998384 
3.8504875e+2, 2.4500704e+2, -514405.66, -738473.7, -50288.87, -0.012924838, 0.061111107, -503636.63, 35299.473, 0.0, 10.001079, 9.998107 
3.8505882e+2, 2.5500512e+2, -410083.53, -638079.0, -46800.207, 0.0076353424, 0.056162775, -400850.8, 40105.06, 0.0, 10.001125, 9.9981 
3.8506868e+2, 2.650032e+2, -300475.9, -559212.5, -40158.418, 0.0049860077, 0.06801946, -294386.25, 48589.297, 0.0, 10.001312, 9.997879 
3.8507834e+2, 2.7500132e+2, -156039.22, -438551.47, -30985.398, -0.019551229, 0.08885352, -152680.72, 92314.45, 0.0, 10.001629, 9.997882 
3.8508832e+2, 2.8499925e+2, -18616.744, -275384.22, -19322.777, -0.033995897, 0.073934406, -17170.771, 129843.984, 0.0, 10.0017, 9.998296 
3.8509855e+2, 2.9499707e+2, 53276.094, -195165.81, -27261.87, -0.042261273, 0.023551952, 56232.4, 105266.16, 0.0, 10.001544, 9.998249 
3.851095e+2, 3.0499604e+2, 96034.98, -184491.66, 11949.263, -0.04366725, 0.11568571, 96543.05, 96543.05, 0.0, 10.001653, 9.997936 
3.8512155e+2, 3.1499332e+2, 181512.38, -88043.695, -32423.758, 0.013489222, 0.046314646, 185357.64, 185357.64, 0.000000000002787424, 10.002002, 9.998431 
3.949284e+2, 1.2500624e+2, -1820361.4, -1767356.1, 72262.28, 0.016484663, 0.13501745, -1716889.8, -1941.8086, 0.0000362571, 9.999287, 9.99998 
3.9493906e+2, 1.3500504e+2, -1651735.9, -1658616.6, -59268.69, 0.14208457, 0.035038218, -1595807.8, 21152.291, 0.000013744367, 9.999862, 9.999782 
3.9494637e+2, 1.4500554e+2, -1496186.5, -1486531.9, -28273.045, -0.12282121, 0.08561329, -1462677.0, 56277.64, 0.0000023661473, 10.000062, 10.000189 
3.9495784e+2, 1.5500559e+2, -1433851.0, -1408592.9, -22068.2, -0.010810977, 0.07257146, -1395795.6, 25157.082, 0.000000028035489, 9.999831, 10.000162 
3.949689e+2, 1.650054e+2, -1361991.8, -1401646.0, -12024.948, 0.05359498, 0.07321514, -1358630.3, -35676.406, 0.0, 9.9999895, 9.999461 
3.9497897e+2, 1.7500502e+2, -1180598.5, -1263265.5, -18343.69, 0.007227247, 0.08768984, -1176710.9, 48246.42, 0.0, 10.000562, 9.999463 
3.9498904e+2, 1.8500404e+2, -1087085.5, -1216806.6, -37813.633, -0.018991567, 0.066883124, -1076867.8, 50098.402, 0.0, 10.000743, 9.999022 
3.949993e+2, 1.9500244e+2, -1020677.4, -1134511.8, -39907.07, -0.002701474, 0.002636169, -1008080.94, 20899.46, 0.0, 10.000528, 9.999017 
3.9500937e+2, 2.0500144e+2, -929360.9, -1046332.75, -33968.83, -0.0073290854, 0.0053612133, -920211.9, 10777.482, 0.0, 10.000511, 9.998959 
3.9501923e+2, 2.1500108e+2, -805446.4, -936560.7, -25315.871, -0.04005292, 0.07052071, -800728.1, 32264.654, 0.0, 10.000692, 9.998952 
3.9502934e+2, 2.2499968e+2, -742289.2, -947273.8, -27104.969, -0.042362552, 0.07747709, -738765.6, -3758.7034, 0.0, 10.000849, 9.99813 
3.950398e+2, 2.3499724e+2, -624532.7, -840543.0, -36642.797, -0.011131606, 0.019046102, -618486.06, 18545.87, 0.0, 10.000987, 9.998123 
3.9504996e+2, 2.4499545e+2, -508712.84, -726442.6, -48691.305, 0.0010763305, 0.024507252, -498320.0, 40730.87, 0.0, 10.001078, 9.99819 
3.950598e+2, 2.549943e+2, -404268.7, -625336.75, -44721.887, -0.0071453126, 0.0893442, -395564.22, 45499.313, 0.0, 10.001122, 9.998189 
3.950698e+2, 2.6499277e+2, -285069.63, -526231.7, -28362.543, -0.01570448, 0.123105206, -281778.88, 61300.043, 0.0, 10.0013075, 9.998108 
3.950799e+2, 2.7499086e+2, -140162.4, -405756.3, -19000.43, -0.022957573, 0.1175788, -138810.02, 106287.15, 0.0, 10.00163, 9.998107 
3.9509013e+2, 2.8498834e+2, -42548.254, -325015.16, -25606.432, -0.02242459, 0.06524433, -40245.727, 106875.03, 0.0, 10.0017, 9.997955 
3.9510033e+2, 2.9498535e+2, 28557.35, -245026.67, -32549.867, -0.01843369, -0.032702126, 32376.676, 81525.734, 0.0, 10.001537, 9.99791 
3.951114e+2, 3.0498454e+2, 112482.65, -149020.33, 25132.215, -0.018934593, 0.08532321, 114876.12, 114876.12, 0.0, 10.001648, 9.998183 
3.9512345e+2, 3.1498238e+2, 220482.13, -6672.224, -18472.672, 0.0025552663, 0.047199737, 221974.56, 221974.56, 0.000000001718879, 10.002001, 9.998989 
4.0492806e+2, 1.2499508e+2, -1724451.6, -1716271.5, 40774.805, 0.025624974, 0.12078646, -1679382.1, 35675.016, 0.000028702449, 9.999927, 10.000022 
4.049388e+2, 1.3499393e+2, -1701227.6, -1690074.4, -57058.027, 0.14551578, 0.033280272, -1638321.1, -21251.87, 0.000010028613, 9.999555, 9.999716 
4.0494603e+2, 1.4499454e+2, -1561046.4, -1520302.5, -18867.336, -0.14529859, 0.09916133, -1512907.8, 6155.3506, 0.0000013962007, 9.999627, 10.000168 
4.049579e+2, 1.5499459e+2, -1400105.9, -1394325.6, -37286.13, -0.0027221027, 0.08789267, -1359817.9, 61243.414, 0.000000006286357, 10.000072, 10.000145 
4.049692e+2, 1.6499434e+2, -1321570.4, -1382190.1, -25615.742, 0.06729837, 0.08351075, -1312195.8, 10867.189, 0.0, 10.000267, 9.999461 
4.049793e+2, 1.7499384e+2, -1229958.0, -1287215.3, -20039.383, -0.0021229973, 0.08550147, -1223641.3, 1426.4697, 0.0, 10.000224, 9.999461 
4.0498942e+2, 1.8499292e+2, -1140952.3, -1231060.6, -36221.96, -0.03342099, 0.065036006, -1128197.1, -1121.4249, 0.0, 10.000323, 9.9991255 
4.0499985e+2, 1.9499156e+2, -1006241.44, -1115491.3, -27585.805, -0.00316354, 0.014537291, -999671.06, 29416.12, 0.0, 10.000576, 9.999125 
4.0500998e+2, 2.0499058e+2, -918375.9, -1049905.5, -27513.428, -0.002340279, 0.017880568, -912852.5, 18243.389, 0.0, 10.000626, 9.9988785 
4.0501982e+2, 2.1499e+2, -843059.3, -963266.0, -42338.016, -0.039771896, 0.06952561, -829644.5, 3457.3098, 0.0, 10.000471, 9.998875 
4.0503e+2, 2.2498855e+2, -785355.2, -958861.6, -35357.016, -0.04523285, 0.07292031, -778426.9, -43310.504, 0.0, 10.000514, 9.998212 
4.0504062e+2, 2.3498628e+2, -652477.1, -844251.94, -19414.068, -0.01502526, 0.021722991, -650531.5, -13392.11, 0.0, 10.000754, 9.99821 
4.0505096e+2, 2.4498454e+2, -520575.66, -736578.7, -23385.234, -0.0020878848, 0.03003304, -518072.9, 21084.904, 0.0, 10.001016, 9.99815 
4.0506098e+2, 2.5498334e+2, -381270.28, -618604.9, -29076.934, -0.007974638, 0.09293715, -377759.88, 63411.53, 0.0, 10.001299, 9.998151 
4.050711e+2, 2.649818e+2, -268072.22, -502900.3, -23349.629, -0.014990588, 0.12050363, -265773.0, 77413.67, 0.0, 10.001358, 9.998244 
4.0508136e+2, 2.7497992e+2, -193025.84, -416398.94, -21535.992, -0.021797104, 0.10515507, -190968.45, 54235.28, 0.0, 10.001203, 9.99824 
4.0509167e+2, 2.8497747e+2, -94582.47, -356078.44, -17919.941, -0.01955006, 0.055189442, -93360.15, 53866.51, 0.0, 10.001369, 9.997901 
4.0510204e+2, 2.9497454e+2, 69014.17, -231578.58, -4035.0864, -0.0117636835, -0.030193018, 69068.33, 118323.27, 0.0, 10.001842, 9.997856 
4.0511334e+2, 3.049737e+2, 150002.53, -139799.75, 50236.93, -0.005940939, 0.08992991, 158464.0, 158464.0, 0.0, 10.001945, 9.998103 
4.0512523e+2, 3.1497118e+2, 194408.42, 8740.753, -19833.771, -0.0010614707, 0.024055613, 196503.5, 196503.5, 0.00000001196501, 10.001701, 9.99924 
4.1492766e+2, 1.24983266e+2, -1689004.5, -1642551.0, 25996.354, -0.0088474285, 0.091732256, -1630916.6, 84258.04, 0.000021697306, 9.999927, 10.000527 
4.1493866e+2, 1.3498314e+2, -1672519.8, -1631748.1, -69933.29, 0.17755203, 0.0649631, -1579290.0, 37885.434, 0.000006740833, 9.999558, 10.000114 
4.1494575e+2, 1.44984e+2, -1584529.5, -1568069.8, -1344.8597, -0.13389356, 0.153864, -1567960.6, -48793.965, 0.0000006540361, 9.999623, 9.999842 
4.1495782e+2, 1.5498345e+2, -1422545.8, -1440534.8, -20280.172, -0.014288016, 0.11299177, -1409355.0, 11817.312, 0.0000000002364484, 10.00007, 9.999828 
4.149693e+2, 1.6498287e+2, -1310739.1, -1359207.6, -27798.242, 0.055454105, 0.08345115, -1298094.6, 25082.928, 0.0, 10.000265, 9.9996195 
4.1497955e+2, 1.749823e+2, -1218934.5, -1263830.3, -21453.98, 0.0038102693, 0.06290363, -1210331.1, 14850.881, 0.0, 10.000221, 9.999622 
4.1498977e+2, 1.8498178e+2, -1123180.9, -1193849.3, -26852.27, -0.028784612, 0.061529055, -1114135.4, 13049.888, 0.0, 10.000322, 9.999382 
4.1500026e+2, 1.9498129e+2, -988794.75, -1078695.6, -17698.133, -0.016875748, 0.073108755, -985436.1, 43751.566, 0.0, 10.000574, 9.999378 
4.1501057e+2, 2.0498009e+2, -945477.56, -1105703.0, -33441.934, -0.006499449, 0.060707666, -938777.8, -7578.9946, 0.0, 10.000624, 9.998497 
4.1502059e+2, 2.1497817e+2, -869971.8, -1018805.0, -47720.586, -0.0072408183, 0.017741622, -855985.44, -22766.664, 0.0, 10.00047, 9.998494 
4.1503078e+2, 2.2497675e+2, -755638.3, -897044.9, -26457.74, -0.016588163, 0.01861996, -750850.1, -15616.936, 0.0, 10.000514, 9.998636 
4.150412e+2, 2.349758e+2, -622761.06, -782171.75, -10095.628, -0.030573633, 0.058503754, -622124.2, 15117.459, 0.0, 10.000752, 9.998636 
4.1505176e+2, 2.4497429e+2, -531810.5, -759324.0, -13032.746, -0.023609959, 0.07696208, -531066.4, 8190.747, 0.0, 10.001013, 9.997995 
4.1506237e+2, 2.5497222e+2, -392325.34, -641618.6, -18385.629, 0.003412402, 0.06775929, -390976.66, 50302.813, 0.0, 10.001298, 9.997993 
4.1507265e+2, 2.6497027e+2, -265538.66, -496830.38, -29432.258, 0.0053453064, 0.061549358, -261852.11, 81446.63, 0.0, 10.001355, 9.998287 
4.150826e+2, 2.749685e+2, -190814.14, -410412.5, -26790.742, -0.017615562, 0.05197169, -187592.95, 57721.934, 0.0, 10.001197, 9.998283 
4.1509297e+2, 2.8496662e+2, -79882.0, -324260.22, -591.6273, -0.026646966, 0.043184284, -79880.57, 67452.05, 0.0, 10.001364, 9.998123 
4.1510376e+2, 2.9496464e+2, 85186.305, -197819.75, 13071.131, -0.023950554, 0.030146021, 85788.734, 135140.42, 0.0, 10.001841, 9.998089 
4.1511527e+2, 3.0496347e+2, 121489.17, -198385.48, 40651.17, -0.006978505, 0.12910043, 126574.47, 126574.47, 0.0, 10.001942, 9.997702 
4.1512695e+2, 3.1495965e+2, 190146.94, 1911.8269, -28632.438, -0.0027092574, -0.028231982, 194405.86, 194405.86, 0.000000036873733, 10.001694, 9.999195 
4.2492723e+2, 1.2497218e+2, -1756581.8, -1662043.0, 42397.746, -0.016889157, 0.11347027, -1645814.6, 69470.45, 0.000015823704, 9.999411, 10.000641 
4.2493856e+2, 1.3497204e+2, -1639768.3, -1616895.1, -83704.58, 0.20036636, 0.08435288, -1543849.5, 73436.33, 0.0000041887733, 9.999789, 10.000106 
4.249455e+2, 1.4497288e+2, -1534275.4, -1545214.5, -12059.912, -0.13790044, 0.17148216, -1526502.6, -7225.5625, 0.00000021832761, 9.999975, 9.999828 
4.2495775e+2, 1.5497221e+2, -1452604.6, -1456558.1, -9276.688, -0.018314017, 0.12422425, -1445096.4, -23812.975, 0.0, 9.999871, 9.999814 
4.249694e+2, 1.6497163e+2, -1351045.4, -1371785.8, -9922.856, 0.05171862, 0.092563264, -1347062.8, -23774.275, 0.0, 9.999959, 9.9996805 
4.2497972e+2, 1.7497116e+2, -1209455.0, -1252300.1, -11886.525, -0.0032912008, 0.073843114, -1206378.3, 18913.545, 0.0, 10.000257, 9.999685 
4.2499006e+2, 1.8497068e+2, -1112158.3, -1184611.3, -30064.8, -0.035690323, 0.07105724, -1101307.6, 25986.951, 0.0, 10.000381, 9.999416 
4.250007e+2, 1.9497018e+2, -1021357.56, -1090592.4, -37923.465, -0.019703666, 0.07770263, -1004627.56, 24669.602, 0.0, 10.000335, 9.999412 
4.250111e+2, 2.0496897e+2, -973320.44, -1117429.8, -48965.355, -0.00471455, 0.06365112, -958257.5, -26949.309, 0.0, 10.000426, 9.99851 
4.250212e+2, 2.149671e+2, -841716.25, -1003272.0, -33845.93, -0.00022048235, 0.02224312, -834912.06, -1584.3737, 0.0, 10.000656, 9.99851 
4.2503148e+2, 2.2496568e+2, -714380.94, -875606.7, -8719.967, -0.009286723, 0.02333006, -713910.7, 21431.102, 0.0, 10.000791, 9.99865 
4.2504203e+2, 2.3496476e+2, -610583.44, -774666.6, -23786.818, -0.027975477, 0.063142344, -607204.7, 30145.422, 0.0, 10.00083, 9.998651 
4.2505267e+2, 2.4496323e+2, -543539.94, -755377.56, -30992.803, -0.025206978, 0.075101964, -539098.6, 266.74506, 0.0, 10.000891, 9.998081 
4.250635e+2, 2.549611e+2, -432802.66, -651515.6, -18864.871, -0.0019140887, 0.051741038, -431187.4, 10200.265, 0.0, 10.000979, 9.998078 
4.2507392e+2, 2.649592e+2, -298291.47, -516262.94, -28634.014, 0.0038166533, 0.047015868, -294592.72, 48813.906, 0.0, 10.001146, 9.998255 
4.25084e+2, 2.7495754e+2, -165631.66, -401526.72, -31768.105, -0.0075148246, 0.055652346, -161428.33, 83993.72, 0.0, 10.001384, 9.998255 
4.250945e+2, 2.8495577e+2, -60696.7, -307408.8, -6971.736, -0.016350383, 0.054609794, -60499.844, 86939.24, 0.0, 10.001462, 9.998192 
4.2510536e+2, 2.949538e+2, 22793.324, -220112.11, -6377.043, -0.023995806, 0.03458669, 22960.627, 72418.6, 0.0, 10.001378, 9.998158 
4.2511705e+2, 3.0495244e+2, 47241.48, -247217.5, 20404.787, -0.00091801654, 0.118498676, 48648.723, 48648.723, 0.0, 10.001488, 9.997585 
4.2512867e+2, 3.1494892e+2, 219132.48, 37696.46, -27303.686, -0.0034288738, -0.00070777256, 223152.27, 223152.27, 0.00000007454206, 10.001798, 9.9993925 
4.3492678e+2, 1.2496187e+2, -1779137.4, -1707362.9, 53704.9, -0.0029856164, 0.1876951, -1678658.3, 36729.547, 0.0000113764345, 9.999405, 10.000333 
4.349385e+2, 1.349606e+2, -1669460.9, -1680092.5, -67510.445, 0.21287309, 0.09263926, -1607057.3, 10342.877, 0.0000025044064, 9.999794, 9.99967 
4.3494526e+2, 1.449611e+2, -1513154.3, -1501581.6, -15163.566, -0.15948224, 0.15208174, -1491137.9, 28256.611, 0.000000047491298, 9.999976, 10.000128 
4.3495765e+2, 1.549609e+2, -1431714.0, -1412839.3, -12740.2, -0.016900364, 0.11960558, -1406421.8, 14972.9795, 0.0, 9.999869, 10.000114 
4.3496937e+2, 1.6496067e+2, -1354979.1, -1378769.0, 1297.1519, 0.053647574, 0.10936234, -1354908.5, -31512.773, 0.0, 9.999954, 9.999635 
4.3497974e+2, 1.7496042e+2, -1212841.0, -1258804.6, -161.15625, -0.024459882, 0.11874515, -1212840.5, 12556.612, 0.0, 10.000255, 9.999641 
4.3499023e+2, 1.849596e+2, -1125880.6, -1212407.4, -31976.266, -0.055480544, 0.09462431, -1115346.1, 12057.468, 0.0, 10.000379, 9.999227 
4.350011e+2, 1.9495821e+2, -1034830.8, -1117990.3, -39363.934, -0.01314412, 0.029198905, -1019153.3, 10262.382, 0.0, 10.000333, 9.999224 
4.350116e+2, 2.0495723e+2, -945038.75, -1058080.3, -40309.18, 0.0018714132, 0.026723476, -932137.44, -713.34216, 0.0, 10.000423, 9.9989195 
4.3502167e+2, 2.1495673e+2, -813321.3, -943704.3, -24793.936, -0.019546824, 0.08217978, -808765.56, 24663.168, 0.0, 10.000654, 9.99892 
4.3503213e+2, 2.2495535e+2, -742064.1, -932593.8, -7554.3833, -0.024511723, 0.08686009, -741765.06, -6322.778, 0.0, 10.000788, 9.99826 
4.3504304e+2, 2.3495312e+2, -638322.6, -832167.7, -22212.563, -0.008979621, 0.036044713, -635809.9, 1654.7697, 0.0, 10.000829, 9.998257 
4.3505374e+2, 2.4495132e+2, -521429.16, -708916.25, -27866.254, -0.008215882, 0.02456748, -517375.06, 22107.514, 0.0, 10.000889, 9.998401 
4.350642e+2, 2.5494996e+2, -410385.6, -604425.44, -15261.729, -0.024640257, 0.0442939, -409192.56, 32303.582, 0.0, 10.000977, 9.998404 
4.350748e+2, 2.6494855e+2, -306079.8, -531726.44, -20065.553, -0.020311242, 0.075519465, -304309.38, 39201.156, 0.0, 10.0011425, 9.99815 
4.350855e+2, 2.749471e+2, -172826.77, -416164.1, -23139.465, 0.006476081, 0.11519117, -170645.94, 74879.414, 0.0, 10.001382, 9.998156 
4.350962e+2, 2.8494498e+2, -67078.21, -319063.9, -10341.166, 0.008825535, 0.08935785, -66654.53, 80891.56, 0.0, 10.001456, 9.998115 
4.3510684e+2, 2.9494205e+2, 16785.836, -232037.06, -9072.926, -0.014415604, -0.015468128, 17116.227, 66689.82, 0.0, 10.001376, 9.998076 
4.3511862e+2, 3.0494067e+2, 57855.383, -224552.19, 31332.766, 0.009896343, 0.058746535, 61289.945, 61289.945, 0.0, 10.001485, 9.997742 
4.3513042e+2, 3.1493884e+2, 249408.48, 101499.76, -12778.396, -0.006795403, 0.09557712, 250504.33, 250504.33, 0.0000001100893, 10.001793, 9.999833 
4.449262e+2, 1.2495081e+2, -1760019.3, -1691654.3, 36124.57, -0.0060696243, 0.21474807, -1676103.1, 39394.25, 0.000008277144, 9.999509, 10.000389 
4.449383e+2, 1.349494e+2, -1710243.9, -1706905.3, -50110.992, 0.22849514, 0.110288315, -1658435.8, -40924.6, 0.0000015575915, 9.999543, 9.999609 
4.4494498e+2, 1.4494975e+2, -1548986.8, -1516695.9, 640.0576, -0.17049907, 0.15814783, -1516683.3, 2823.3652, 0.000000013935479, 9.999721, 10.000148 
4.4495758e+2, 1.5494955e+2, -1420507.8, -1405139.5, -21038.988, -0.013220872, 0.12120971, -1390425.3, 31081.258, 0.0, 9.999937, 10.000134 
4.4496945e+2, 1.6494928e+2, -1339131.1, -1371700.3, -11128.516, 0.061573595, 0.10868765, -1335691.9, -12184.426, 0.0, 10.000067, 9.999629 
4.449799e+2, 1.7494904e+2, -1231790.3, -1268566.4, -9337.081, -0.025321651, 0.11794506, -1229555.4, -4046.5806, 0.0, 10.000129, 9.999635 
4.4499052e+2, 1.8494819e+2, -1151455.5, -1233382.0, -39566.965, -0.058496524, 0.09589821, -1135466.8, -7950.8965, 0.0, 10.000241, 9.999148 
4.4500145e+2, 1.9494675e+2, -1030336.0, -1124507.8, -39250.53, -0.011307905, 0.03496468, -1016121.94, 13406.82, 0.0, 10.0004015, 9.999146 
4.4501206e+2, 2.049458e+2, -933447.44, -1044545.06, -46639.67, 0.0028239575, 0.03432696, -916464.0, 15073.038, 0.0, 10.000469, 9.99899 
4.4502217e+2, 2.1494536e+2, -839197.75, -948188.9, -56936.793, -0.025410993, 0.08920038, -814879.9, 18660.623, 0.0, 10.0004425, 9.998992 
4.4503275e+2, 2.2494397e+2, -786739.6, -961534.75, -40033.867, -0.028758291, 0.09153419, -778006.8, -42452.625, 0.0, 10.000514, 9.998193 
4.4504383e+2, 2.3494162e+2, -663811.2, -852127.75, -30683.67, -0.0036999735, 0.035280153, -658937.8, -21359.502, 0.0, 10.000688, 9.998188 
4.4505462e+2, 2.4493986e+2, -519057.34, -691709.94, -30254.297, -0.0037882172, 0.02470247, -513909.34, 25686.361, 0.0, 10.000835, 9.998545 
4.450651e+2, 2.5493872e+2, -402813.34, -583907.9, -31270.824, -0.031202408, 0.05294754, -397565.7, 44040.582, 0.0, 10.000957, 9.998553 
4.450758e+2, 2.6493737e+2, -323010.72, -540171.94, -37305.914, -0.026690222, 0.08392715, -316780.7, 26839.068, 0.0, 10.001028, 9.998147 
4.4508675e+2, 2.7493584e+2, -221924.3, -440686.84, -33655.805, 0.011761058, 0.11535062, -216863.55, 28772.328, 0.0, 10.001048, 9.998148 
4.450976e+2, 2.8493375e+2, -98562.375, -335108.28, -14078.516, 0.015823679, 0.091487356, -97727.414, 49929.285, 0.0, 10.001243, 9.998107 
4.4510832e+2, 2.949309e+2, 48781.26, -216473.36, -8398.272, -0.014340973, -0.002741054, 49046.895, 98730.0, 0.0, 10.0015955, 9.998078 
4.4512025e+2, 3.0492917e+2, 81160.45, -214330.55, 26695.61, 0.016748704, 0.036298383, 83552.85, 83552.85, 0.00000000000009396187, 10.001648, 9.997734 
4.45132e+2, 3.1492776e+2, 202281.19, 96339.836, -28960.766, -0.01101374, 0.11450291, 209681.19, 209681.19, 0.00000013361628, 10.001394, 9.9999895 
4.5492545e+2, 1.2493896e+2, -1728630.1, -1626551.0, 30264.326, -0.032955844, 0.1899599, -1618252.8, 97361.74, 0.0000061456926, 9.99951, 10.000835 
4.5493802e+2, 1.3493837e+2, -1686650.8, -1657926.5, -46479.824, 0.24657807, 0.13456045, -1623640.5, -6021.3877, 0.0000010596042, 9.999541, 9.999947 
4.5494467e+2, 1.4493881e+2, -1569349.3, -1557737.6, 10631.636, -0.17298572, 0.18831898, -1551429.8, -31816.451, 0.000000007555667, 9.999715, 9.999868 
4.5495754e+2, 1.5493813e+2, -1439976.4, -1445553.9, -12337.681, -0.0099110585, 0.13095756, -1430116.3, -8497.562, 0.0, 9.999938, 9.999857 
4.549696e+2, 1.6493748e+2, -1336105.8, -1365662.3, -9202.567, 0.07317586, 0.092786014, -1333474.6, -9851.303, 0.0, 10.000068, 9.99967 
4.5498025e+2, 1.7493697e+2, -1229085.5, -1262595.9, -6357.683, -0.0060560424, 0.07109323, -1227919.8, -2292.7434, 0.0, 10.000127, 9.999677 
4.5499086e+2, 1.849364e+2, -1150197.8, -1229487.0, -33228.965, -0.045736827, 0.07346426, -1138113.6, -10482.209, 0.0, 10.0002365, 9.999177 
4.5500183e+2, 1.9493581e+2, -1028611.75, -1120371.1, -32866.688, -0.016114816, 0.09388069, -1018054.2, 11582.446, 0.0, 10.0004, 9.999175 
4.5501244e+2, 2.0493467e+2, -952366.25, -1083196.4, -47830.39, -0.0039425306, 0.08633383, -936745.06, -5097.9673, 0.0, 10.000466, 9.998726 
4.5502263e+2, 2.14933e+2, -857714.25, -986577.9, -57607.54, -0.018977484, 0.044485483, -835716.4, -2053.6477, 0.0, 10.0004425, 9.998728 
4.550333e+2, 2.2493151e+2, -769592.56, -925795.7, -33713.953, -0.022738958, 0.03762935, -762626.56, -26949.088, 0.0, 10.000513, 9.998439 
4.5504445e+2, 2.3493019e+2, -646272.44, -815654.75, -24011.084, -0.01230896, 0.06026415, -642934.44, -5243.2227, 0.0, 10.000687, 9.998439 
4.550554e+2, 2.449288e+2, -521461.4, -696159.44, -26027.38, -0.012677919, 0.07535091, -517666.16, 22038.682, 0.0, 10.0008335, 9.998515 
4.5506614e+2, 2.5492737e+2, -405002.9, -587513.44, -26815.008, -0.023940556, 0.077000156, -401144.72, 40573.375, 0.0, 10.000953, 9.99853 
4.5507693e+2, 2.649257e+2, -316823.84, -526619.8, -36666.95, -0.016865386, 0.0723322, -310600.06, 33134.293, 0.0, 10.001024, 9.998242 
4.5508778e+2, 2.749238e+2, -215090.44, -427559.78, -32335.928, 0.0071548284, 0.056598485, -210278.19, 35475.473, 0.0, 10.001052, 9.998237 
4.550987e+2, 2.8492203e+2, -95131.266, -327410.72, -1396.3274, 0.0032695124, 0.060831346, -95122.875, 52648.1, 0.0, 10.001241, 9.99816 
4.551098e+2, 2.9492033e+2, 53241.855, -205366.84, 4169.3213, -0.02554136, 0.07078459, 53309.055, 103095.87, 0.0, 10.001587, 9.998158 
4.5512187e+2, 3.0491796e+2, 67583.57, -239504.14, 16982.559, 0.018091066, 0.050468806, 68519.88, 68519.88, 0.00000000000087855477, 10.0016365, 9.997567 
4.551333e+2, 3.1491554e+2, 194835.13, 80165.36, -34701.504, -0.019982154, 0.048499133, 204518.77, 204518.77, 0.00000014519496, 10.001398, 9.999876 
4.649246e+2, 1.24927126e+2, -1768193.8, -1641964.6, 35873.6, -0.056020107, 0.16290791, -1632481.9, 83247.7, 0.000004581255, 9.999226, 10.000865 
4.649379e+2, 1.3492677e+2, -1654400.5, -1651054.8, -63090.965, 0.2665177, 0.13760445, -1589614.5, 28118.37, 0.0000007444035, 9.999799, 9.99987 
4.6494454e+2, 1.4492717e+2, -1518886.6, -1535566.4, -20879.262, -0.1735742, 0.1919616, -1504743.3, 14984.649, 0.0000000034677494, 10.000072, 9.999849 
4.6495745e+2, 1.5492639e+2, -1438509.3, -1446666.9, -25176.592, -0.012104424, 0.12813784, -1417083.1, 4650.5376, 0.0, 9.999956, 9.999841 
4.6496966e+2, 1.6492575e+2, -1347762.0, -1372025.3, -10544.019, 0.07631718, 0.09095966, -1343820.3, -20081.857, 0.0, 9.999991, 9.999663 
4.6498054e+2, 1.7492531e+2, -1221886.1, -1259881.1, -12011.729, 0.008456388, 0.077848084, -1218407.3, 7334.271, 0.0, 10.000179, 9.99967 
4.6499124e+2, 1.849248e+2, -1140471.6, -1224135.4, -41620.727, -0.03631654, 0.08362277, -1123293.4, 4452.446, 0.0, 10.000299, 9.999185 
4.650021e+2, 1.9492418e+2, -1033642.56, -1121989.8, -42504.69, -0.028815491, 0.10250787, -1016514.0, 13237.246, 0.0, 10.000361, 9.999183 
4.650128e+2, 2.0492302e+2, -961696.3, -1094835.5, -53700.055, -0.0147772785, 0.095138006, -942736.9, -10974.818, 0.0, 10.000433, 9.998663 
4.6502325e+2, 2.1492131e+2, -853091.0, -991795.75, -49228.91, -0.0050978507, 0.05535126, -837394.94, -3616.5837, 0.0, 10.000505, 9.998662 
4.65034e+2, 2.249198e+2, -756816.4, -911627.44, -20751.293, -0.007509789, 0.047840714, -754083.06, -18289.934, 0.0, 10.0005665, 9.99851 
4.65045e+2, 2.3491853e+2, -651590.44, -809630.8, -24475.48, -0.019187907, 0.067424715, -647886.75, -10080.5625, 0.0, 10.000614, 9.998514 
4.6505603e+2, 2.449172e+2, -541480.0, -700505.9, -30417.916, -0.020610146, 0.082041144, -535860.3, 3958.6592, 0.0, 10.000674, 9.998562 
4.6506712e+2, 2.549158e+2, -432014.0, -595988.7, -26391.594, -0.011369649, 0.08517105, -427870.97, 13960.385, 0.0, 10.000748, 9.998571 
4.650781e+2, 2.6491407e+2, -331736.66, -536267.4, -35309.047, 0.0007369295, 0.07087779, -325812.7, 18035.664, 0.0, 10.000932, 9.998221 
4.6508896e+2, 2.7491197e+2, -190649.3, -418007.78, -40279.055, 0.013716911, 0.03532992, -183724.34, 62145.543, 0.0, 10.00123, 9.998216 
4.6509993e+2, 2.8491035e+2, -79809.7, -314125.0, -15081.669, 0.00088672474, 0.053641003, -78842.96, 69042.79, 0.0, 10.00132, 9.998214 
4.6511108e+2, 2.9490915e+2, -3059.6265, -225301.94, -10986.954, -0.03362014, 0.11100269, -2517.7874, 47378.74, 0.0, 10.001169, 9.998223 
4.651234e+2, 3.049063e+2, 12669.679, -273066.1, 6066.869, 0.02276281, 0.04237012, 12798.436, 12798.436, 0.00000000000042122027, 10.001288, 9.997504 
4.6513495e+2, 3.1490377e+2, 229025.28, 81608.22, -34773.87, -0.009724841, 0.037529595, 236816.25, 236816.25, 0.00000014428599, 10.001697, 9.999743 
4.7492352e+2, 1.2491531e+2, -1798659.5, -1703296.6, 45570.855, -0.08295539, 0.13266495, -1685021.9, 30820.953, 0.0000033199578, 9.999217, 10.000448 
4.7493786e+2, 1.3491459e+2, -1690002.8, -1726151.0, -39603.547, 0.28492653, 0.122808315, -1664544.0, -46691.453, 0.00000048107097, 9.999802, 9.999354 
4.7494462e+2, 1.4491482e+2, -1499987.4, -1497604.0, -24549.904, -0.17630357, 0.17269868, -1474216.9, 45633.375, 0.000000000765976, 10.000076, 10.000107 
4.7495735e+2, 1.5491432e+2, -1420507.8, -1408478.6, -28909.537, -0.019937836, 0.11102667, -1384964.6, 36887.414, 0.0, 9.999953, 10.000104 
4.749696e+2, 1.6491406e+2, -1352617.5, -1381349.9, -3208.8103, 0.07009435, 0.10152625, -1352263.5, -28410.664, 0.0, 9.999988, 9.9996 
4.7498077e+2, 1.7491406e+2, -1226235.8, -1269029.5, -4438.542, 0.014519455, 0.13848008, -1225780.1, 72.3893, 0.0, 10.00018, 9.999606 
4.7499156e+2, 1.8491335e+2, -1140850.6, -1224931.0, -39522.07, -0.034252137, 0.12810265, -1125190.1, 2668.9712, 0.0, 10.000299, 9.999179 
4.7500223e+2, 1.9491188e+2, -1033950.75, -1122842.3, -39714.313, -0.049204204, 0.061893854, -1018792.4, 11080.145, 0.0, 10.000361, 9.999177 
4.7501305e+2, 2.0491084e+2, -953498.6, -1076646.9, -50960.25, -0.030160986, 0.060466927, -935145.75, -3263.6511, 0.0, 10.000428, 9.99879 
4.7502396e+2, 2.1491025e+2, -844146.9, -973136.0, -46303.082, 0.014752659, 0.12042266, -829246.7, 4640.824, 0.0, 10.000505, 9.998791 
4.750348e+2, 2.2490884e+2, -764132.8, -926436.2, -19366.975, 0.015121172, 0.121474266, -761853.8, -25952.598, 0.0, 10.000565, 9.99841 
4.7504556e+2, 2.3490663e+2, -658397.2, -823483.5, -22479.723, -0.025823297, 0.05650051, -655390.9, -17467.613, 0.0, 10.000612, 9.99842 
4.7505665e+2, 2.4490504e+2, -533826.7, -684528.5, -27992.695, -0.029076807, 0.044400454, -528795.06, 11143.202, 0.0, 10.000673, 9.9986725 
4.7506803e+2, 2.549041e+2, -424034.75, -580264.4, -23680.53, 0.005436344, 0.077987194, -420524.25, 21421.86, 0.0, 10.000751, 9.998678 
4.7507927e+2, 2.6490247e+2, -341872.28, -557103.5, -24634.293, 0.025024654, 0.08035713, -339088.78, 4872.9785, 0.0, 10.000932, 9.998078 
4.7509035e+2, 2.7490026e+2, -200939.5, -437780.7, -29008.002, 0.029325813, 0.05071362, -197438.39, 48546.316, 0.0, 10.0012245, 9.998083 
4.7510135e+2, 2.848986e+2, -76603.17, -306384.13, -20712.813, 0.0071260207, 0.06914721, -74751.016, 73250.14, 0.0, 10.001315, 9.99827 
4.7511217e+2, 2.948974e+2, 2435.902, -215670.78, -16605.979, -0.041517653, 0.11690087, 3692.9854, 53705.266, 0.0, 10.001177, 9.998286 
4.7512472e+2, 3.0489424e+2, 14393.935, -268668.4, 20182.484, 0.027692566, 0.010368866, 15825.713, 15825.713, 0.0, 10.001286, 9.997536 
4.7513688e+2, 3.1489235e+2, 217583.42, 61058.69, -13007.169, 0.014249839, 0.069623895, 218656.95, 218656.95, 0.00000012581201, 10.001683, 9.999608 
4.8492298e+2, 1.2490319e+2, -1770705.9, -1692694.4, 13039.651, -0.070347555, 0.11766132, -1690572.5, 25388.684, 0.0000022837717, 9.999425, 10.000419 
4.8493752e+2, 1.3490266e+2, -1708739.6, -1746978.9, -26269.137, 0.27518484, 0.13629405, -1695368.8, -77398.805, 0.0000002759338, 9.999723, 9.999249 
4.8494428e+2, 1.4490278e+2, -1508935.8, -1499385.9, -20262.742, -0.21256833, 0.18104641, -1483343.1, 36625.84, 0.000000000009128432, 10.000005, 10.00013 
4.8495746e+2, 1.549023e+2, -1394889.6, -1393746.3, -45606.574, -0.009921788, 0.11780052, -1348707.8, 73262.734, 0.0, 10.000117, 10.000127 
4.8496985e+2, 1.6490202e+2, -1322106.6, -1363381.1, -20167.223, 0.08773788, 0.10446962, -1313888.9, 10082.427, 0.0, 10.000182, 9.999631 
4.8498082e+2, 1.74902e+2, -1214623.9, -1259781.1, -14275.986, -0.00016684426, 0.13667524, -1210489.3, 15481.689, 0.0, 10.000244, 9.9996395 
4.8499164e+2, 1.8490136e+2, -1144708.5, -1224672.3, -48522.848, -0.051286694, 0.12995036, -1121817.3, 6159.549, 0.0, 10.000263, 9.999199 
4.850026e+2, 1.9490004e+2, -1053462.5, -1129949.4, -47473.254, -0.039468966, 0.077422515, -1030744.75, -755.5425, 0.0, 10.000217, 9.999198 
4.850135e+2, 2.0489901e+2, -967328.44, -1076001.6, -54167.492, -0.018051703, 0.072614476, -944941.0, -12942.338, 0.0, 10.0003, 9.998857 
4.8502436e+2, 2.1489827e+2, -837420.25, -962126.56, -53996.1, 0.0044427896, 0.11140406, -817290.1, 16714.785, 0.0, 10.000518, 9.99886 
4.8503524e+2, 2.2489691e+2, -757110.1, -923981.25, -30723.387, 0.0044720382, 0.11322316, -751633.25, -15615.168, 0.0, 10.000617, 9.998402 
4.8504624e+2, 2.3489492e+2, -662458.94, -826832.44, -28121.389, -0.01575956, 0.07148435, -657781.0, -19742.729, 0.0, 10.00059, 9.998408 
4.8505744e+2, 2.4489328e+2, -540684.3, -697254.2, -32852.863, -0.013686131, 0.059505314, -534070.25, 5983.558, 0.0, 10.000666, 9.998589 
4.8506886e+2, 2.54892e+2, -415615.44, -585303.56, -43452.32, 0.009951633, 0.0688688, -405135.75, 36929.117, 0.0, 10.000849, 9.998596 
4.850802e+2, 2.6489034e+2, -329104.88, -543325.5, -41353.152, 0.023751697, 0.06880733, -321399.25, 22681.418, 0.0, 10.000987, 9.998146 
4.8509145e+2, 2.7488843e+2, -219645.25, -439557.9, -30299.576, 0.027769988, 0.059390895, -215546.94, 30553.795, 0.0, 10.001064, 9.998148 
4.8510265e+2, 2.8488684e+2, -104130.49, -337101.2, -27462.402, 0.013823846, 0.089093596, -100937.02, 47179.94, 0.0, 10.001201, 9.998114 
4.851137e+2, 2.948855e+2, 26133.271, -220769.42, -40451.176, -0.017192755, 0.13967718, 32591.635, 82722.19, 0.0, 10.0014105, 9.998139 
4.8512632e+2, 3.048821e+2, 57072.71, -220009.25, 377.1041, 0.05133525, 0.0058797626, 57073.227, 57073.227, 0.0, 10.001457, 9.997787 
4.8513818e+2, 3.1488088e+2, 159380.64, 31016.535, -11834.193, -0.0024576816, 0.10707358, 160462.55, 160462.55, 0.00000009052117, 10.001291, 9.999591 
4.9492282e+2, 1.24890745e+2, -1745554.6, -1639617.4, 6935.9487, -0.027054355, 0.11895957, -1639165.3, 76919.82, 0.0000015131136, 9.999422, 10.000784 
4.9493685e+2, 1.3489091e+2, -1686748.1, -1700810.6, -12826.378, 0.23570703, 0.17658278, -1679152.3, -61066.605, 0.00000014199817, 9.99972, 9.999569 
4.9494353e+2, 1.4489105e+2, -1524949.5, -1532220.6, -14354.232, -0.28527465, 0.21670519, -1513777.6, 6306.709, 0.0, 10.000002, 9.999907 
4.949578e+2, 1.5489031e+2, -1410684.3, -1426922.4, -41305.734, 0.013789749, 0.15146923, -1376707.3, 45382.02, 0.0, 10.000119, 9.999898 
4.949704e+2, 1.6488966e+2, -1312196.8, -1344011.3, -18947.773, 0.12471454, 0.10420726, -1303364.1, 20729.432, 0.0, 10.000188, 9.999762 
4.9498072e+2, 1.7488913e+2, -1205091.4, -1240261.0, -11475.177, -0.03585111, 0.07211684, -1201678.5, 24418.31, 0.0, 10.000245, 9.999773 
4.9499154e+2, 1.848888e+2, -1142101.5, -1218323.1, -49961.23, -0.08830374, 0.08821541, -1117374.8, 10724.609, 0.0, 10.000258, 9.999244 
4.9500316e+2, 1.9488864e+2, -1050070.6, -1123308.8, -48866.5, -0.0018698412, 0.1475884, -1025625.06, 4476.494, 0.0, 10.000218, 9.999243 
4.950142e+2, 2.0488752e+2, -966780.5, -1074416.4, -46488.24, 0.018994318, 0.1312048, -949482.1, -17370.354, 0.0, 10.0002985, 9.998868 
4.9502447e+2, 2.1488538e+2, -836471.3, -960114.8, -45407.035, -0.036336575, 0.028949076, -821587.56, 12542.802, 0.0, 10.000517, 9.998875 
4.950354e+2, 2.24884e+2, -752595.4, -913880.8, -31945.184, -0.04111022, 0.022653518, -746498.6, -10354.945, 0.0, 10.000613, 9.998472 
4.950471e+2, 2.348834e+2, -657363.6, -816921.5, -29162.23, 0.010162696, 0.112362616, -652200.75, -14049.55, 0.0, 10.000592, 9.998475 
4.950585e+2, 2.4488193e+2, -560094.94, -737552.56, -26525.98, 0.024770662, 0.12773159, -556214.75, -16049.0625, 0.0, 10.000666, 9.998312 
4.9506962e+2, 2.5487956e+2, -434786.63, -624835.4, -36291.26, 0.0009928051, 0.05745715, -428092.3, 14095.253, 0.0, 10.000847, 9.998325 
4.950809e+2, 2.6487768e+2, -310410.94, -504279.63, -38638.902, -0.0044554966, 0.035239678, -302993.8, 41211.387, 0.0, 10.000986, 9.998414 
4.950923e+2, 2.748764e+2, -200739.53, -400433.63, -27492.803, 0.007656619, 0.0605216, -197023.61, 49194.477, 0.0, 10.001065, 9.998417 
4.9510393e+2, 2.8487498e+2, -130697.336, -391542.78, -20267.717, 0.019729689, 0.11338017, -129131.93, 19101.238, 0.0, 10.001198, 9.997742 
4.9511567e+2, 2.9487342e+2, 806.1752, -272197.88, -31853.537, 0.036950793, 0.17984985, 4473.514, 54724.75, 0.0, 10.001406, 9.997788 
4.9512818e+2, 3.048699e+2, 88463.35, -152997.14, -5485.588, 0.09235257, 0.028752454, 88587.914, 88587.914, 0.0, 10.001451, 9.998251 
4.9513885e+2, 3.1486928e+2, 166942.89, 47917.27, -11416.041, -0.06333799, 0.14150932, 168027.95, 168027.95, 0.000000050936965, 10.001287, 9.999709 
5.049223e+2, 1.2487882e+2, -1691822.8, -1603208.4, 7967.4976, -0.04011571, 0.15064089, -1602497.6, 113705.83, 0.0000009949754, 9.999749, 10.000875 
5.0493664e+2, 1.3487881e+2, -1698940.5, -1699181.8, -12295.056, 0.2522303, 0.18378818, -1686765.5, -68561.016, 0.000000065122016, 9.999601, 9.999639 
5.0494343e+2, 1.4487872e+2, -1555826.5, -1558903.3, -8344.127, -0.2850863, 0.20171, -1548880.1, -28674.867, 0.0, 9.999841, 9.999801 
5.04958e+2, 1.5487812e+2, -1373878.5, -1421259.4, -28645.383, 0.0047784997, 0.16348827, -1360396.5, 61812.887, 0.0, 10.000423, 9.999791 
5.0497067e+2, 1.6487749e+2, -1270232.0, -1321889.1, -27189.203, 0.11693904, 0.12159884, -1258559.0, 65654.914, 0.0, 10.000466, 9.99978 
5.0498086e+2, 1.748768e+2, -1251778.5, -1260718.9, -29160.098, -0.030220352, 0.0732014, -1226747.9, -529.83826, 0.0, 9.999914, 9.999793 
5.049917e+2, 1.8487643e+2, -1194821.0, -1238326.8, -53199.063, -0.078742966, 0.082904205, -1159099.3, -30878.504, 0.0, 9.999872, 9.999293 
5.050035e+2, 1.9487639e+2, -1022075.25, -1104203.3, -51998.285, 0.00016727652, 0.14762047, -996881.6, 33340.156, 0.0, 10.000386, 9.999293 
5.050146e+2, 2.048753e+2, -929503.94, -1060065.1, -58573.52, 0.02029626, 0.1333507, -907078.1, 25153.498, 0.0, 10.000569, 9.9988365 
5.0502497e+2, 2.1487312e+2, -856666.06, -973441.2, -61808.805, -0.029825106, 0.029150197, -830027.5, 4223.263, 0.0, 10.000394, 9.998842 
5.05036e+2, 2.2487171e+2, -775353.9, -924937.2, -47505.34, -0.03508586, 0.022573024, -761542.2, -25277.91, 0.0, 10.000457, 9.998472 
5.0504774e+2, 2.348711e+2, -632209.06, -804945.2, -50193.96, 0.009251228, 0.113572985, -618682.8, 19588.896, 0.0, 10.000767, 9.998474 
5.0505924e+2, 2.4486963e+2, -525374.6, -728364.44, -43770.855, 0.018943958, 0.13140492, -516338.56, 23947.766, 0.0, 10.000937, 9.998244 
5.050704e+2, 2.5486723e+2, -423171.94, -627077.94, -38373.492, -0.007924362, 0.06460527, -416189.44, 26119.133, 0.0, 10.00096, 9.998256 
5.0508183e+2, 2.648653e+2, -313037.13, -505290.34, -45045.168, -0.007991056, 0.038297843, -303006.34, 41320.62, 0.0, 10.000968, 9.998416 
5.0509346e+2, 2.7486384e+2, -215723.55, -407831.9, -55180.508, 0.017812429, 0.049491152, -201001.86, 45339.383, 0.0, 10.000963, 9.998414 
5.051051e+2, 2.848625e+2, -144319.77, -393687.5, -35908.824, 0.027716568, 0.1055907, -139251.9, 9103.964, 0.0, 10.001085, 9.997781 
5.0511694e+2, 2.948612e+2, -9357.624, -271418.47, -17303.322, 0.02744007, 0.19811448, -8220.061, 42150.98, 0.0, 10.001311, 9.997839 
5.051296e+2, 3.0485776e+2, 88298.95, -137130.9, 94.96867, 0.08910728, 0.04185786, 88298.99, 88298.99, 0.0, 10.001381, 9.998393 
5.051403e+2, 3.148571e+2, 151718.75, 13499.453, -25553.375, -0.046780888, 0.13590246, 156291.66, 156291.66, 0.000000020855737, 10.0013, 9.999466 
5.149212e+2, 1.2486737e+2, -1705970.6, -1631793.0, -18714.613, -0.120081075, 0.21203724, -1627338.9, 88977.88, 0.00000067894854, 9.999745, 10.000681 
5.149369e+2, 1.3486634e+2, -1711439.1, -1725712.3, -16776.193, 0.3219412, 0.1612175, -1700344.6, -82018.23, 0.000000029496794, 9.999603, 9.999456 
5.1494396e+2, 1.4486577e+2, -1554982.5, -1557949.9, 13167.185, -0.21654584, 0.13993038, -1543215.6, -22884.064, 0.0, 9.999844, 9.999806 
5.1495796e+2, 1.5486571e+2, -1372928.1, -1419458.8, -6292.0513, -0.0392565, 0.15289886, -1372092.3, 50238.945, 0.0, 10.000424, 9.999803 
5.149706e+2, 1.6486548e+2, -1276532.8, -1334991.6, -47837.387, 0.062319245, 0.15632574, -1249701.6, 74630.57, 0.0, 10.000466, 9.99969 
5.149812e+2, 1.7486504e+2, -1257870.8, -1273886.9, -49909.79, 0.014300877, 0.13989495, -1215330.6, 11004.305, 0.0, 9.999916, 9.9997015 
5.1499206e+2, 1.848643e+2, -1191046.9, -1230726.8, -34869.29, -0.026077095, 0.115539044, -1170768.4, -42427.45, 0.0, 9.999873, 9.999346 
5.1500356e+2, 1.9486329e+2, -1018209.3, -1096340.8, -32319.844, -0.033906873, 0.07796843, -1006572.94, 23776.92, 0.0, 10.000386, 9.999348 
5.150148e+2, 2.0486234e+2, -935654.0, -1071551.0, -65045.957, -0.015689664, 0.078110315, -909538.8, 22819.508, 0.0, 10.000564, 9.99876 
5.1502585e+2, 2.1486144e+2, -861889.7, -984924.0, -68252.38, 0.02213458, 0.11066765, -831522.44, 2843.8276, 0.0, 10.000396, 9.998763 
5.15037e+2, 2.2486003e+2, -780360.9, -935306.7, -36395.152, 0.020654693, 0.11211056, -772237.9, -35857.855, 0.0, 10.000457, 9.998402 
5.150482e+2, 2.3485808e+2, -636955.8, -814943.3, -38119.867, -0.018913813, 0.07510839, -629135.25, 9264.517, 0.0, 10.000767, 9.998405 
5.1505965e+2, 2.448564e+2, -516811.0, -709743.06, -43192.414, -0.032605015, 0.069217786, -507582.75, 32833.086, 0.0, 10.000934, 9.998374 
5.150713e+2, 2.54855e+2, -414247.44, -608122.3, -37518.516, -0.018052295, 0.08975797, -407240.16, 35187.816, 0.0, 10.000958, 9.998387 
5.15083e+2, 2.6485315e+2, -331772.25, -544141.9, -45256.11, 0.012138153, 0.07817465, -322530.34, 21915.578, 0.0, 10.000967, 9.998151 
5.150948e+2, 2.748508e+2, -233952.52, -446391.88, -54598.82, 0.05629444, 0.027759885, -220741.67, 25728.277, 0.0, 10.000965, 9.998149 
5.1510626e+2, 2.8484938e+2, -114676.305, -331328.06, -27564.133, 0.036046576, 0.06679645, -111224.375, 37260.586, 0.0, 10.001083, 9.99821 
5.1511747e+2, 2.948489e+2, 20144.803, -207585.86, -8780.874, -0.046500545, 0.19342873, 20482.875, 70973.21, 0.0, 10.001302, 9.998281 
5.1513046e+2, 3.0484563e+2, 75496.65, -162244.72, -3723.8694, 0.040747065, 0.04419227, 75554.97, 75554.97, 0.0, 10.001373, 9.998225 
5.151425e+2, 3.148443e+2, 112317.17, -68826.82, -21395.885, 0.041032728, 0.092803694, 114810.05, 114810.05, 0.0000000053166334, 10.001302, 9.9989 
5.2492046e+2, 1.248551e+2, -1791066.9, -1684785.5, -33773.438, -0.14353897, 0.21089438, -1674961.3, 41475.434, 0.0000005002885, 9.999217, 10.00057 
5.249372e+2, 1.3485402e+2, -1600818.6, -1681354.1, -3724.3743, 0.34553763, 0.16087244, -1600646.8, 17800.28, 0.000000016983103, 10.0004, 9.999377 
5.249445e+2, 1.4485322e+2, -1436467.4, -1498745.0, 6845.989, -0.19429627, 0.12270829, -1435723.8, 84730.555, 0.0, 10.0006485, 9.999825 
5.249581e+2, 1.5485331e+2, -1466233.6, -1462078.1, -13752.805, -0.03978201, 0.14859904, -1450247.0, -27794.566, 0.0, 9.999774, 9.999824 
5.249706e+2, 1.6485319e+2, -1390476.9, -1397535.5, -42918.59, 0.055435, 0.16398148, -1350942.8, -26489.943, 0.0, 9.999718, 9.999622 
5.249815e+2, 1.7485279e+2, -1168996.6, -1239125.1, -44572.977, 0.021030888, 0.15954782, -1147348.9, 79106.63, 0.0, 10.000561, 9.99963 
5.249924e+2, 1.8485194e+2, -1076055.8, -1188000.8, -41361.816, -0.017681407, 0.13296516, -1062431.4, 66031.375, 0.0, 10.000717, 9.999232 
5.2500373e+2, 1.9485065e+2, -1064004.3, -1130896.9, -52174.21, -0.038881492, 0.078657284, -1035476.3, -5001.8257, 0.0, 10.000126, 9.999236 
5.250151e+2, 2.0484965e+2, -994808.75, -1093513.4, -75441.31, -0.020144356, 0.07614847, -954010.94, -21527.637, 0.0, 10.000129, 9.998819 
5.2502656e+2, 2.1484894e+2, -804723.25, -950483.4, -68618.53, 0.032951534, 0.12254406, -777503.4, 56985.586, 0.0, 10.000759, 9.998824 
5.2503777e+2, 2.2484753e+2, -713234.44, -912393.44, -39215.574, 0.030449614, 0.12393921, -705790.8, 30711.783, 0.0, 10.000958, 9.998318 
5.250489e+2, 2.3484533e+2, -652282.7, -831674.8, -42781.406, -0.028105387, 0.0704642, -642602.5, -4077.6162, 0.0, 10.000702, 9.998322 
5.250603e+2, 2.448436e+2, -550892.3, -710736.25, -45655.68, -0.044672064, 0.058005016, -538771.0, 1770.1588, 0.0, 10.000633, 9.998512 
5.2507216e+2, 2.548424e+2, -433814.5, -601862.44, -40135.844, -0.01651151, 0.08286839, -424720.75, 17830.285, 0.0, 10.000757, 9.998527 
5.2508396e+2, 2.6484063e+2, -343898.5, -562567.6, -40101.637, 0.01889413, 0.07911812, -336776.25, 7791.8857, 0.0, 10.000938, 9.998037 
5.250959e+2, 2.7483827e+2, -212222.1, -448500.1, -38133.473, 0.05951969, 0.03839456, -206220.1, 40372.953, 0.0, 10.00117, 9.998035 
5.2510744e+2, 2.848367e+2, -89196.29, -309340.38, -20425.277, 0.03644951, 0.06854897, -87317.24, 61291.855, 0.0, 10.001217, 9.998296 
5.2511865e+2, 2.9483607e+2, -7818.0127, -211729.2, -28166.232, -0.048168253, 0.1703327, -3998.9412, 46616.457, 0.0, 10.001069, 9.998364 
5.251317e+2, 3.0483314e+2, 50952.438, -158610.31, -22442.6, 0.04469035, 0.03828985, 53328.92, 53328.92, 0.0, 10.001139, 9.998363 
5.25144e+2, 3.1483185e+2, 115796.8, -88274.28, -11217.951, 0.056957513, 0.08062735, 116411.6, 116411.6, 0.00000000056215, 10.001416, 9.998712 
5.349199e+2, 1.2484205e+2, -1794892.9, -1693083.3, -13806.279, -0.11982685, 0.1480999, -1691244.3, 25318.85, 0.00000041209, 9.999218, 10.000513 
5.349373e+2, 1.348418e+2, -1599102.4, -1679786.4, 42489.117, 0.32002845, 0.18265213, -1580854.3, 37712.215, 0.000000018082496, 10.000406, 9.999386 
5.3494483e+2, 1.4484109e+2, -1433673.9, -1493368.3, -25062.916, -0.22161976, 0.15113415, -1424546.6, 96026.625, 0.0, 10.000649, 9.999861 
5.3495824e+2, 1.5484099e+2, -1463787.1, -1456603.9, -47296.766, 0.0011700519, 0.15143591, -1412762.5, 9810.375, 0.0, 9.999772, 9.999862 
5.3497064e+2, 1.6484064e+2, -1394392.6, -1405809.6, -12788.18, 0.09294636, 0.14641583, -1386096.6, -61521.418, 0.0, 9.999718, 9.999565 
5.3498167e+2, 1.7484008e+2, -1172657.5, -1247254.3, -12356.444, -0.011540433, 0.1320505, -1170664.1, 55915.69, 0.0, 10.000563, 9.999574 
5.349928e+2, 1.8483935e+2, -1095652.9, -1228488.5, -63133.855, -0.05562522, 0.13464296, -1070434.4, 58152.2, 0.0, 10.000716, 9.998956 
5.350041e+2, 1.9483846e+2, -1083590.0, -1172008.3, -74481.945, -0.01652564, 0.14832789, -1041185.06, -10589.217, 0.0, 10.000128, 9.998954 
5.350155e+2, 2.0483722e+2, -981581.94, -1065511.1, -52647.633, 0.0051850765, 0.12742537, -956220.44, -23613.81, 0.0, 10.000127, 9.999013 
5.35027e+2, 2.1483563e+2, -791104.8, -921661.25, -44628.777, 0.0022506379, 0.06489249, -777307.25, 57311.53, 0.0, 10.000756, 9.999024 
5.350384e+2, 2.2483417e+2, -720678.4, -926896.44, -48740.48, -0.0068886825, 0.05667005, -709738.75, 26893.576, 0.0, 10.000955, 9.9982195 
5.350496e+2, 2.3483282e+2, -659194.1, -846583.75, -52191.223, -0.020000022, 0.0987403, -645638.56, -6991.3228, 0.0, 10.000704, 9.998219 
5.350612e+2, 2.4483122e+2, -540560.2, -689526.2, -41127.832, -0.01943966, 0.09718388, -529959.56, 10702.853, 0.0, 10.000634, 9.998657 
5.35073e+2, 2.5482938e+2, -423175.13, -580503.6, -35112.645, -0.004564712, 0.044979043, -415694.38, 26983.334, 0.0, 10.00076, 9.9986725 
5.3508484e+2, 2.648277e+2, -342219.4, -558223.56, -31858.043, 0.011260791, 0.040775612, -337618.72, 7075.077, 0.0, 10.000935, 9.998068 
5.350967e+2, 2.7482617e+2, -211201.48, -444270.25, -29479.367, 0.0265733, 0.07923831, -207530.64, 39180.32, 0.0, 10.001162, 9.998069 
5.351085e+2, 2.8482452e+2, -106865.555, -344997.56, -25789.541, 0.027241386, 0.10906928, -104104.58, 44624.016, 0.0, 10.001211, 9.9980545 
5.3512037e+2, 2.9482284e+2, -24606.867, -247534.56, -32502.506, 0.018273123, 0.13159369, -19964.719, 30781.096, 0.0, 10.001072, 9.998118 
5.3513336e+2, 3.048202e+2, 79689.43, -98158.73, -12595.424, 0.097310305, 0.025830477, 80577.02, 80577.02, 0.0, 10.001137, 9.998778 
5.3514487e+2, 3.148197e+2, 125388.46, -63762.215, 6354.687, -0.0011020445, 0.0984227, 125601.71, 125601.71, 0.0000000000003731001, 10.001398, 9.998888 
5.449198e+2, 1.2482911e+2, -1673438.9, -1636333.0, -26861.96, -0.09516121, 0.10566686, -1622239.8, 94448.81, 0.00000036785775, 10.00006, 10.000496 
5.4493713e+2, 1.3482942e+2, -1707662.8, -1723964.1, 58933.344, 0.30299348, 0.18891238, -1656319.1, -37632.152, 0.000000024396927, 9.999626, 9.999459 
5.449449e+2, 1.4482874e+2, -1563179.3, -1564457.3, -25857.133, -0.23826735, 0.15844736, -1537953.3, -17259.166, 0.0, 9.9998, 9.999782 
5.4495865e+2, 1.5482844e+2, -1352145.9, -1412078.6, -60497.38, 0.027649067, 0.14936988, -1314599.9, 108095.75, 0.0, 10.000579, 9.999779 
5.449711e+2, 1.6482794e+2, -1258037.0, -1348228.6, -24758.543, 0.119491674, 0.13685124, -1251687.5, 73012.17, 0.0, 10.000689, 9.999493 
5.449819e+2, 1.7482725e+2, -1249993.1, -1292291.6, -25611.771, -0.02595801, 0.11676074, -1237927.1, -11221.493, 0.0, 10.000067, 9.999502 
5.44993e+2, 1.848266e+2, -1188626.5, -1270469.4, -68212.27, -0.07545107, 0.12859887, -1150002.5, -21290.68, 0.0, 10.000067, 9.99898 
5.4500467e+2, 1.9482599e+2, -993072.7, -1125599.0, -57135.32, -0.006073792, 0.16832264, -971841.56, 58876.61, 0.0, 10.000737, 9.998979 
5.450161e+2, 2.0482469e+2, -878628.8, -1026144.8, -31502.896, 0.017985834, 0.14520676, -872182.8, 60546.67, 0.0, 10.000877, 9.998921 
5.450275e+2, 2.1482268e+2, -841961.7, -956532.6, -45958.35, -0.011697946, 0.049162183, -825804.7, 8941.297, 0.0, 10.000452, 9.998931 
5.450389e+2, 2.2482117e+2, -789621.7, -939863.9, -52667.883, -0.025102336, 0.032163896, -772998.1, -36238.625, 0.0, 10.000394, 9.998401 
5.450504e+2, 2.3482019e+2, -642928.2, -817843.56, -35339.605, -0.01897129, 0.09213389, -636058.06, 2711.793, 0.0, 10.000726, 9.998405 
5.45062e+2, 2.4481866e+2, -514402.22, -695842.7, -23716.127, -0.011421438, 0.09698755, -511353.5, 29430.896, 0.0, 10.000896, 9.998487 
5.4507387e+2, 2.548166e+2, -416147.22, -596648.4, -41804.816, -0.0027690565, 0.039341863, -406935.2, 35867.926, 0.0, 10.000894, 9.998497 
5.4508567e+2, 2.648149e+2, -342373.9, -542359.56, -45418.59, 0.006844945, 0.03532414, -332542.25, 12277.303, 0.0, 10.000866, 9.99821 
5.450976e+2, 2.7481353e+2, -253587.38, -448562.6, -35389.594, 0.016031967, 0.0771843, -247362.61, -528.57874, 0.0, 10.000801, 9.998213 
5.4510957e+2, 2.8481188e+2, -157048.34, -378828.94, -21653.787, 0.02289461, 0.10477478, -154953.92, -6102.2905, 0.0, 10.000909, 9.997968 
5.4512167e+2, 2.9481012e+2, -12350.36, -251735.25, -17554.523, 0.03241548, 0.12569779, -11069.905, 39801.086, 0.0, 10.001202, 9.998026 
5.451347e+2, 3.0480796e+2, 109940.54, -65280.906, -2665.6304, 0.11038901, 0.061706174, 109981.086, 109981.086, 0.0, 10.001266, 9.998941 
5.4514605e+2, 3.1480715e+2, 79353.67, -83586.98, 3345.2234, -0.0027762705, 0.09144622, 79422.32, 79422.32, 0.000000000015387011, 10.001069, 9.998911 
5.5492e+2, 1.2481632e+2, -1669232.5, -1628624.3, -68310.89, -0.074156515, 0.084764734, -1577663.8, 139149.25, 0.0000003291145, 10.000065, 10.000546 
5.5493665e+2, 1.3481693e+2, -1696242.9, -1700717.0, 42859.715, 0.29213405, 0.17953773, -1655561.9, -36753.547, 0.000000025104656, 9.999628, 9.999618 
5.549446e+2, 1.4481615e+2, -1578406.8, -1595808.6, 3139.359, -0.24863628, 0.14480571, -1577857.8, -57041.39, 0.0, 9.999798, 9.999569 
5.5495936e+2, 1.548157e+2, -1366909.1, -1443512.0, -30618.77, 0.037797656, 0.14283597, -1356174.8, 66645.73, 0.0, 10.000581, 9.999562 
5.5497193e+2, 1.648151e+2, -1264627.4, -1361469.8, -48108.902, 0.13342561, 0.13527653, -1244791.1, 80034.9, 0.0, 10.000688, 9.999402 
5.5498195e+2, 1.7481431e+2, -1256384.0, -1305186.9, -49273.66, -0.023568312, 0.11336041, -1225800.8, 1032.3284, 0.0, 10.000066, 9.999414 
5.54993e+2, 1.8481368e+2, -1166159.5, -1223377.5, -43990.285, -0.0788909, 0.11501088, -1142293.6, -13455.155, 0.0, 10.000064, 9.999305 
5.550053e+2, 1.9481324e+2, -969971.2, -1077271.0, -31672.9, -0.008245426, 0.13838066, -961319.56, 69522.016, 0.0, 10.000735, 9.999311 
5.55017e+2, 2.0481206e+2, -905141.25, -1080795.4, -47107.324, 0.017260883, 0.1281499, -893305.44, 39546.637, 0.0, 10.000875, 9.998547 
5.550279e+2, 2.1481007e+2, -869130.1, -1013012.0, -61764.176, -0.011050079, 0.07477978, -846253.8, -11383.359, 0.0, 10.000452, 9.998544 
5.550392e+2, 2.2480851e+2, -757768.06, -873693.4, -40788.27, -0.026052006, 0.050331708, -744855.1, -7970.9233, 0.0, 10.000394, 9.998856 
5.55051e+2, 2.348074e+2, -610190.56, -749865.2, -22816.22, -0.025334153, 0.05104217, -606557.94, 32334.914, 0.0, 10.000726, 9.998873 
5.5506283e+2, 2.448059e+2, -547995.5, -765060.44, -24082.43, -0.020875705, 0.056823593, -545355.8, -4448.5796, 0.0, 10.000894, 9.9980135 
5.5507463e+2, 2.5480402e+2, -450573.5, -667910.4, -41575.13, -0.012382177, 0.064162105, -442891.94, 35.503525, 0.0, 10.000893, 9.998008 
5.5508655e+2, 2.648022e+2, -325390.78, -506917.84, -47672.28, 0.0035397678, 0.06143286, -313632.78, 31312.775, 0.0, 10.000865, 9.998454 
5.550985e+2, 2.7480042e+2, -235357.05, -411786.28, -37444.55, 0.025981663, 0.03438974, -227738.92, 19223.152, 0.0, 10.000805, 9.998464 
5.551104e+2, 2.8479886e+2, -153929.9, -371707.2, -11521.3, 0.022023348, 0.057788014, -153322.08, -4343.8906, 0.0, 10.000906, 9.998017 
5.5512244e+2, 2.947978e+2, -11518.982, -246402.28, -6630.3267, -0.005510601, 0.15067093, -11331.969, 39659.496, 0.0, 10.001186, 9.998069 
5.5513567e+2, 3.0479625e+2, 103539.2, -75566.72, -9981.266, 0.082817234, 0.14366224, 104093.72, 104093.72, 0.0, 10.001252, 9.998878 
5.551476e+2, 3.1479433e+2, 73403.836, -96562.086, 2267.9404, 0.044843752, 0.06718794, 73434.09, 73434.09, 0.0000000020600701, 10.001072, 9.99882 
5.649201e+2, 1.24803916e+2, -1719767.6, -1670533.3, -90448.42, -0.06125163, 0.10892222, -1601411.9, 115523.4, 0.00000027083397, 9.999795, 10.000387 
5.649367e+2, 1.3480423e+2, -1587258.4, -1652393.5, 26816.527, 0.29874662, 0.1786914, -1577638.6, 41294.324, 0.000000017878008, 10.000392, 9.999581 
5.649448e+2, 1.448033e+2, -1472460.8, -1547524.5, -8188.1924, -0.2375919, 0.1312167, -1471577.9, 49364.68, 0.0, 10.000537, 9.999544 
5.649596e+2, 1.5480302e+2, -1428435.6, -1475143.5, -27313.102, 0.025706168, 0.14849354, -1415853.4, 7091.9326, 0.0, 10.00017, 9.999542 
5.649722e+2, 1.6480252e+2, -1344791.4, -1398163.8, -46547.703, 0.12057503, 0.151113, -1317822.8, 7127.108, 0.0, 10.00013, 9.999417 
5.6498235e+2, 1.7480175e+2, -1201849.4, -1277395.0, -41607.12, -0.009179114, 0.12985034, -1183426.6, 43529.7, 0.0, 10.000434, 9.999428 
5.6499344e+2, 1.8480098e+2, -1098570.0, -1188256.4, -27621.594, -0.06132375, 0.11556299, -1090745.6, 38217.06, 0.0, 10.000518, 9.999327 
5.650058e+2, 1.9480021e+2, -1021078.6, -1099150.1, -38618.156, -0.0153747285, 0.10419094, -1005203.94, 25764.71, 0.0, 10.000373, 9.999335 
5.650176e+2, 2.0479913e+2, -961754.75, -1099636.0, -60721.816, 0.0077988906, 0.099318966, -938826.2, -5848.1387, 0.0, 10.000451, 9.998622 
5.650286e+2, 2.1479774e+2, -817535.4, -979530.06, -41341.906, 0.0017672328, 0.0949266, -807594.7, 27396.332, 0.0, 10.00077, 9.99862 
5.6504005e+2, 2.247962e+2, -697931.06, -857862.94, -17685.93, -0.0068999953, 0.07672357, -695998.6, 41005.86, 0.0, 10.000861, 9.998738 
5.650518e+2, 2.3479459e+2, -620481.5, -768327.06, -43825.516, -0.017326405, 0.038234107, -608466.75, 30551.566, 0.0, 10.000714, 9.998751 
5.650636e+2, 2.4479294e+2, -579695.44, -780508.5, -51787.29, -0.022911562, 0.03639491, -567126.8, -26092.578, 0.0, 10.000677, 9.998012 
5.6507534e+2, 2.5479132e+2, -470075.4, -677035.75, -33590.906, -0.022975827, 0.07006939, -464759.9, -21707.932, 0.0, 10.000757, 9.99801 
5.6508726e+2, 2.6478955e+2, -325103.5, -509871.38, -30209.02, -0.004675387, 0.07632124, -320289.8, 24779.55, 0.0, 10.00088, 9.9984255 
5.650994e+2, 2.7478766e+2, -201684.4, -397862.44, -41184.496, 0.031508278, 0.038474377, -193389.13, 53697.945, 0.0, 10.001048, 9.998441 
5.651114e+2, 2.8478602e+2, -134267.31, -350022.4, -25781.186, 0.025784895, 0.047080506, -131229.42, 17874.662, 0.0, 10.000989, 9.998126 
5.651232e+2, 2.9478493e+2, -79988.95, -268918.53, -16725.752, -0.019902118, 0.12520343, -78519.664, -27402.064, 0.0, 10.00067, 9.998163 
5.6513655e+2, 3.0478382e+2, 27975.62, -111801.016, -8809.166, 0.07007138, 0.16352816, 28528.613, 28528.613, 0.0, 10.000731, 9.998879 
5.65149e+2, 3.1478173e+2, 102139.11, -71561.414, 11965.691, 0.0704563, 0.0660005, 102959.516, 102959.516, 0.000000017271022, 10.001221, 9.99892 
5.7491994e+2, 1.24791965e+2, -1747053.5, -1729578.9, -92435.67, -0.06349632, 0.18039063, -1645468.5, 71585.94, 0.00000019303324, 9.9998045, 9.999978 
5.749374e+2, 1.347914e+2, -1603933.8, -1689015.4, 49906.445, 0.32200572, 0.18754223, -1580897.3, 38163.395, 0.000000007774616, 10.000399, 9.999329 
5.749457e+2, 1.4479019e+2, -1460980.9, -1522982.8, -22142.53, -0.20601445, 0.11807036, -1453885.1, 67187.45, 0.0, 10.000534, 9.999713 
5.7495934e+2, 1.547904e+2, -1415418.6, -1448099.9, -41076.293, -0.010719381, 0.16551507, -1387552.0, 35518.117, 0.0, 10.000169, 9.999728 
5.749719e+2, 1.6479021e+2, -1336971.9, -1381497.5, -35512.734, 0.07801176, 0.18369414, -1317320.6, 7750.4116, 0.0, 10.000128, 9.999534 
5.7498306e+2, 1.747896e+2, -1193981.5, -1261231.0, -29779.213, 0.01617383, 0.16639517, -1182690.5, 44384.746, 0.0, 10.000433, 9.999539 
5.749943e+2, 1.847885e+2, -1118831.1, -1229745.5, -33163.566, -0.024209522, 0.12987117, -1109671.6, 19413.076, 0.0, 10.000515, 9.999043 
5.7500607e+2, 1.9478692e+2, -1041657.25, -1141359.1, -44003.94, -0.0288553, 0.066279784, -1025014.1, 6085.353, 0.0, 10.000371, 9.999046 
5.750178e+2, 2.0478593e+2, -925719.4, -1024250.06, -49462.188, -0.011545866, 0.059562676, -905173.7, 27933.777, 0.0, 10.000448, 9.999141 
5.750297e+2, 2.1478562e+2, -780240.56, -901451.1, -29420.648, 0.025585731, 0.10946633, -773476.9, 61630.953, 0.0, 10.000767, 9.999158 
5.750413e+2, 2.2478423e+2, -745208.2, -956082.7, -23285.455, 0.031136855, 0.11077959, -742667.5, -5547.11, 0.0, 10.000861, 9.998064 
5.7505274e+2, 2.3478171e+2, -669452.0, -870162.06, -48984.973, 0.003549507, 0.052698944, -658134.9, -18988.643, 0.0, 10.000714, 9.998052 
5.7506424e+2, 2.4477977e+2, -547938.6, -714565.5, -49029.836, -0.019021807, 0.034919154, -534582.25, 6583.152, 0.0, 10.000677, 9.998465 
5.75076e+2, 2.547785e+2, -437049.72, -608311.06, -30547.023, -0.03548581, 0.057673823, -431764.3, 11412.484, 0.0, 10.000756, 9.998483 
5.750881e+2, 2.6477703e+2, -345628.94, -551953.44, -24379.395, -0.018499678, 0.08062099, -342787.4, 2403.679, 0.0, 10.000877, 9.998138 
5.751005e+2, 2.7477527e+2, -223265.22, -441295.28, -34627.11, 0.031794336, 0.08753396, -217897.92, 29311.318, 0.0, 10.001041, 9.998146 
5.7511246e+2, 2.847733e+2, -123542.8, -325947.38, -37452.355, 0.03222924, 0.07101319, -116835.02, 32394.518, 0.0, 10.000981, 9.998295 
5.7512397e+2, 2.9477143e+2, -68592.49, -246324.34, -28383.266, -0.014512471, 0.051442817, -64169.82, -12920.617, 0.0, 10.000675, 9.998317 
5.7513726e+2, 3.0477074e+2, 30948.396, -105790.06, 7933.461, 0.068590686, 0.1243531, 31407.152, 31407.152, 0.00000000021282408, 10.000732, 9.99892 
5.751502e+2, 3.1476936e+2, 117492.99, -35193.203, 35426.492, 0.07225396, 0.0889987, 125312.266, 125312.266, 0.0000000699572, 10.001202, 9.999179 
5.8491987e+2, 1.24779314e+2, -1694572.5, -1712710.6, -106485.32, -0.0697325, 0.19436508, -1596770.8, 120408.77, 0.00000011738098, 10.000201, 9.999902 
5.849378e+2, 1.3477878e+2, -1595056.6, -1677323.0, 81757.85, 0.3251314, 0.19889455, -1544667.9, 74516.914, 0.0000000014227642, 10.00043, 9.999392 
5.8494645e+2, 1.4477757e+2, -1472792.3, -1536794.3, -10574.625, -0.1770745, 0.12906983, -1471090.4, 50106.344, 0.0, 10.000488, 9.9996395 
5.8495957e+2, 1.5477772e+2, -1394689.9, -1446388.9, -51274.082, -0.011173066, 0.17653033, -1363117.9, 60077.492, 0.0, 10.000347, 9.999654 
5.84972e+2, 1.6477747e+2, -1303829.8, -1357850.5, -40421.52, 0.06681486, 0.19065805, -1282224.8, 42971.863, 0.0, 10.000321, 9.999602 
5.849835e+2, 1.7477682e+2, -1188931.9, -1250566.8, -37627.215, 0.020684985, 0.16333264, -1171112.6, 56087.742, 0.0, 10.000434, 9.999612 
5.849949e+2, 1.8477577e+2, -1129336.1, -1246499.0, -46117.977, -0.013872141, 0.13178965, -1113361.3, 15848.094, 0.0, 10.000494, 9.998939 
5.850065e+2, 1.947743e+2, -1033072.7, -1149411.3, -44039.06, -0.026238924, 0.089361385, -1018282.4, 12941.296, 0.0, 10.000483, 9.998938 
5.850183e+2, 2.047732e+2, -905966.8, -1006869.06, -46700.195, -0.014498389, 0.074983835, -887670.44, 45562.14, 0.0, 10.00055, 9.99921 
5.850303e+2, 2.1477255e+2, -782805.6, -894522.7, -61590.96, 0.020047583, 0.085357584, -755516.0, 79719.38, 0.0, 10.000714, 9.99923 
5.850421e+2, 2.2477123e+2, -759866.8, -970269.5, -62566.313, 0.028663786, 0.09049852, -742667.7, -5420.08, 0.0, 10.000792, 9.998001 
5.850535e+2, 2.3476915e+2, -664948.75, -875406.6, -41918.027, 0.010100699, 0.082748115, -656907.0, -17636.758, 0.0, 10.000777, 9.997986 
5.8506507e+2, 2.4476725e+2, -530406.2, -696466.4, -26802.13, -0.00841181, 0.06767467, -526187.5, 15101.539, 0.0, 10.000756, 9.99855 
5.850768e+2, 2.5476557e+2, -434892.4, -596869.9, -36985.363, -0.027149554, 0.04196858, -426846.94, 16456.215, 0.0, 10.000728, 9.998574 
5.8508885e+2, 2.6476407e+2, -376611.0, -569914.06, -34674.047, -0.014554874, 0.056953005, -370579.5, -25261.926, 0.0, 10.000678, 9.998111 
5.851013e+2, 2.747626e+2, -288828.72, -476407.7, -25513.094, 0.030594552, 0.10017997, -285420.53, -38087.418, 0.0, 10.000606, 9.998115 
5.8511335e+2, 2.8476065e+2, -165228.94, -347496.03, -26724.451, 0.0354333, 0.084018625, -161391.33, -12037.5625, 0.0, 10.000701, 9.998282 
5.851249e+2, 2.9475835e+2, -27035.895, -229172.6, -32829.76, 0.0020209742, 0.026233222, -21837.578, 29539.393, 0.0, 10.000974, 9.99829 
5.851381e+2, 3.0475783e+2, 53869.637, -104280.68, -5128.223, 0.06910147, 0.12029536, 54035.75, 54035.75, 0.000000006848287, 10.000931, 9.998836 
5.8515084e+2, 3.147565e+2, 36938.777, -52301.62, 17558.44, 0.04624184, 0.09748688, 40269.188, 40269.188, 0.00000018333391, 10.000555, 9.9993725 
5.949199e+2, 1.24765985e+2, -1674350.0, -1672425.6, -119141.21, -0.080913775, 0.15112904, -1554242.8, 163067.55, 0.000000058921596, 10.000208, 10.000176 
5.94938e+2, 1.347664e+2, -1566454.9, -1619732.0, 90722.74, 0.3052917, 0.21009637, -1498540.6, 120764.45, 0.000000000010343272, 10.000436, 9.999784 
5.949472e+2, 1.4476544e+2, -1495691.6, -1584384.6, -15380.07, -0.1537532, 0.16215295, -1493100.4, 28214.281, 0.0, 10.000488, 9.999313 
5.9496033e+2, 1.5476497e+2, -1418778.1, -1496690.5, -56112.766, 0.023678027, 0.18185355, -1389424.5, 33896.277, 0.0, 10.000348, 9.999309 
5.9497255e+2, 1.6476431e+2, -1303161.8, -1355841.4, -37005.105, 0.08577712, 0.17151105, -1284079.5, 41246.97, 0.0, 10.0003195, 9.999618 
5.9498376e+2, 1.7476346e+2, -1186542.0, -1246030.5, -33206.777, 0.002935135, 0.120603465, -1171705.9, 55625.813, 0.0, 10.000435, 9.999642 
5.9499526e+2, 1.8476278e+2, -1124168.8, -1235672.9, -46490.57, -0.03223911, 0.12086268, -1107328.3, 22008.455, 0.0, 10.000493, 9.999013 
5.950071e+2, 1.9476232e+2, -1027854.56, -1138691.1, -44357.17, -0.008885848, 0.17303237, -1012288.75, 19052.576, 0.0, 10.000483, 9.999011 
5.950189e+2, 2.0476095e+2, -932577.0, -1061884.8, -41099.348, -0.0023514584, 0.1451797, -920619.6, 12733.675, 0.0, 10.000549, 9.998834 
5.950307e+2, 2.1475859e+2, -810412.5, -951000.9, -55216.453, -0.015505975, 0.02366665, -791319.2, 44054.152, 0.0, 10.0007105, 9.998844 
5.950424e+2, 2.2475721e+2, -723154.0, -893227.56, -63324.145, -0.014710246, 0.01667736, -702166.25, 35219.73, 0.0, 10.000788, 9.998531 
5.950542e+2, 2.3475687e+2, -626670.3, -795359.7, -42439.582, 0.00129039, 0.12813367, -616594.94, 22795.525, 0.0, 10.000775, 9.998536 
5.9506595e+2, 2.4475533e+2, -548907.5, -735017.8, -28095.768, 0.0070434483, 0.13469279, -544758.56, -3353.3008, 0.0, 10.000756, 9.998286 
5.9507775e+2, 2.5475252e+2, -454402.4, -637391.7, -37767.918, 0.0007674786, 0.023405164, -446913.78, -3482.9133, 0.0, 10.000727, 9.998297 
5.9508973e+2, 2.6475063e+2, -361360.06, -537970.25, -37373.867, 0.006403403, 0.0059911963, -353776.7, -8327.968, 0.0, 10.000677, 9.998331 
5.9510183e+2, 2.7474973e+2, -273079.4, -443863.22, -28061.775, 0.025142591, 0.07653222, -268586.72, -21127.893, 0.0, 10.000607, 9.998339 
5.95114e+2, 2.8474802e+2, -179295.55, -376199.06, -17228.402, 0.032075714, 0.08576245, -177799.48, -28322.498, 0.0, 10.000699, 9.998086 
5.9512615e+2, 2.947457e+2, -42926.21, -260495.47, -22742.12, 0.028478011, 0.04836628, -40574.438, 10926.641, 0.0, 10.000966, 9.998079 
5.95139e+2, 3.0474508e+2, 38300.305, -133528.31, -18990.037, 0.07201182, 0.15171558, 40374.008, 40374.008, 0.000000033052434, 10.000918, 9.998641 
5.951508e+2, 3.147432e+2, 46530.62, -31599.094, 8006.1875, -0.010308505, 0.09207582, 47342.6, 47342.6, 0.00000037488923, 10.000553, 9.9995165 
6.049204e+2, 1.2475318e+2, -1676485.0, -1680630.9, -114051.51, -0.05558402, 0.13985407, -1564487.6, 152947.34, 0.000000021349177, 10.000225, 10.000112 
6.0493803e+2, 1.3475351e+2, -1578591.9, -1619480.0, 85300.04, 0.27414024, 0.18683839, -1511320.3, 108110.59, 0.0, 10.000329, 9.999838 
6.049476e+2, 1.4475268e+2, -1502185.0, -1591888.8, -27350.11, -0.15494251, 0.15099071, -1494503.9, 26935.426, 0.0, 10.0004635, 9.999273 
6.04961e+2, 1.5475228e+2, -1369007.9, -1476394.8, -45361.035, 0.042750362, 0.18233821, -1352411.9, 71032.67, 0.0, 10.000707, 9.999274 
6.049732e+2, 1.6475156e+2, -1249231.4, -1349587.1, -23119.182, 0.1022124, 0.17495537, -1244161.5, 81289.805, 0.0, 10.000774, 9.999441 
6.0498416e+2, 1.7475045e+2, -1172736.8, -1259495.9, -35739.46, -0.0042657647, 0.11692277, -1159910.5, 67549.16, 0.0, 10.000616, 9.999463 
6.0499567e+2, 1.8474971e+2, -1098910.5, -1212456.4, -51875.01, -0.04358526, 0.11462163, -1078779.8, 50685.668, 0.0, 10.000619, 9.999112 
6.050078e+2, 1.9474937e+2, -972186.75, -1100338.0, -47879.168, -0.005105769, 0.16895354, -956274.25, 75193.68, 0.0, 10.000815, 9.999114 
6.050196e+2, 2.0474803e+2, -909928.0, -1067301.3, -40697.164, 0.006508883, 0.14553335, -900026.56, 33453.04, 0.0, 10.000775, 9.998688 
6.050313e+2, 2.147456e+2, -856288.0, -990437.25, -37865.086, -0.012169623, 0.030852012, -846338.1, -10836.864, 0.0, 10.00047, 9.99869 
6.05043e+2, 2.2474416e+2, -765086.0, -890052.7, -42206.78, -0.01738277, 0.017520286, -752166.56, -14652.321, 0.0, 10.0004, 9.99874 
6.050548e+2, 2.3474382e+2, -638473.8, -776940.7, -46743.098, -0.009022519, 0.10817032, -624171.75, 15346.033, 0.0, 10.00059, 9.998752 
6.0506666e+2, 2.4474241e+2, -561667.9, -742762.25, -40187.414, 0.00039450027, 0.115456544, -553150.3, -11619.118, 0.0, 10.000676, 9.998272 
6.050786e+2, 2.5473982e+2, -467743.72, -646388.6, -31417.438, 0.010981379, 0.029556002, -462379.56, -18824.576, 0.0, 10.000647, 9.998274 
6.050905e+2, 2.6473796e+2, -366567.16, -541380.5, -29055.758, 0.019510817, 0.016078958, -361864.3, -16291.422, 0.0, 10.000645, 9.998323 
6.051025e+2, 2.7473685e+2, -264747.56, -440495.7, -37429.207, 0.024924833, 0.06696733, -257108.31, -9523.153, 0.0, 10.000667, 9.998332 
6.0511464e+2, 2.847351e+2, -180036.31, -376827.03, -21232.314, 0.02853601, 0.076528825, -177771.56, -28168.184, 0.0, 10.000694, 9.998084 
6.0512704e+2, 2.9473308e+2, -78782.82, -279969.94, -12927.8125, 0.03254516, 0.060816616, -77955.516, -26330.244, 0.00000000003092486, 10.000728, 9.99806 
6.0513973e+2, 3.047323e+2, -13051.151, -181410.14, -16541.365, 0.064964585, 0.16421, -11441.346, -11441.346, 0.00000008707832, 10.000665, 9.998434 
6.051512e+2, 3.147301e+2, 48135.88, -19853.533, 9872.972, -0.024771221, 0.0936056, 49540.543, 49540.543, 0.0000006525611, 10.000516, 9.999615 
6.149213e+2, 1.2474091e+2, -1705587.8, -1741700.6, -126327.61, 0.0066564973, 0.16188313, -1596032.8, 121520.305, 0.0000000039655865, 10.000227, 9.999692 
6.149379e+2, 1.3474016e+2, -1601075.8, -1665133.5, 88697.04, 0.22958681, 0.1299373, -1538801.9, 80759.74, 0.0, 10.000324, 9.999526 
6.149478e+2, 1.447393e+2, -1484690.4, -1555418.3, -19302.746, -0.183365, 0.095484234, -1479765.3, 41805.215, 0.0, 10.000463, 9.999525 
6.1496174e+2, 1.5473968e+2, -1349090.5, -1436437.6, -35588.887, 0.04438488, 0.17675942, -1336426.3, 87140.36, 0.0, 10.000711, 9.999547 
6.1497414e+2, 1.647392e+2, -1274455.6, -1402635.9, -28742.62, 0.114074476, 0.20014162, -1268305.5, 57265.387, 0.0, 10.000776, 9.999076 
6.149848e+2, 1.7473783e+2, -1199779.5, -1315900.4, -41607.695, -0.002213082, 0.1523822, -1186410.1, 41173.984, 0.0, 10.000617, 9.999075 
6.149962e+2, 1.8473655e+2, -1091279.4, -1196325.6, -45425.926, -0.04980589, 0.1131787, -1074360.4, 55234.703, 0.0, 10.000617, 9.999224 
6.150085e+2, 1.9473547e+2, -963107.25, -1081484.5, -40322.65, -0.015884107, 0.07795056, -950677.4, 80926.08, 0.0, 10.000815, 9.999244 
6.150205e+2, 2.0473444e+2, -904608.7, -1055756.5, -52211.008, 0.010772387, 0.07622622, -888327.25, 45284.277, 0.0, 10.000773, 9.998768 
6.1503214e+2, 2.1473353e+2, -850519.25, -978565.94, -49321.633, 0.027851189, 0.10575517, -833724.25, 1895.0253, 0.0, 10.00047, 9.998771 
6.1504376e+2, 2.2473209e+2, -773139.44, -906796.75, -35835.535, 0.01804101, 0.092908554, -764137.6, -26505.172, 0.0, 10.000399, 9.998625 
6.1505526e+2, 2.3473005e+2, -646521.56, -793412.06, -39327.918, -0.020903261, 0.024810193, -636654.8, 2997.05, 0.0, 10.000589, 9.998639 
6.15067e+2, 2.4472848e+2, -546659.1, -711037.56, -41529.516, -0.027869498, 0.011715335, -536762.7, 4903.951, 0.0, 10.000673, 9.99849 
6.150791e+2, 2.5472745e+2, -452509.78, -614179.8, -32516.867, 0.0015573476, 0.058293313, -446214.75, -2538.9885, 0.0, 10.000644, 9.998497 
6.150912e+2, 2.64726e+2, -382524.97, -574168.3, -28392.111, 0.021845872, 0.08494547, -378407.16, -32716.803, 0.0, 10.000643, 9.998099 
6.151031e+2, 2.74724e+2, -280730.22, -473437.1, -36231.207, 0.0298515, 0.07305447, -274143.47, -26431.611, 0.0, 10.000665, 9.998107 
6.151153e+2, 2.8472206e+2, -168032.81, -351069.2, -19925.975, 0.026047528, 0.05903665, -165888.72, -16156.123, 0.0, 10.00069, 9.998263 
6.1512756e+2, 2.9472038e+2, -67366.1, -255297.17, -11484.825, 0.011601592, 0.062078994, -66666.84, -14917.072, 0.0000000010306047, 10.000723, 9.998232 
6.151402e+2, 3.0471945e+2, -30943.12, -216051.23, -22260.09, 0.043432187, 0.15489559, -28303.871, -28303.871, 0.00000016756015, 10.000654, 9.9982 
6.1515194e+2, 3.1471717e+2, 49643.973, -13889.04, 7395.5205, -0.002885041, 0.09828043, 50493.484, 50493.484, 0.000001002472, 10.0005045, 9.999661 
6.2492174e+2, 1.24728166e+2, -1645438.1, -1744511.6, -148823.63, 0.006361504, 0.14907524, -1538123.5, 179553.7, 0.00000000008306351, 10.000776, 9.999409 
6.2493825e+2, 1.3472746e+2, -1565846.6, -1671182.4, 84281.89, 0.20786017, 0.14340852, -1519129.6, 100557.22, 0.0, 10.000667, 9.999319 
6.249485e+2, 1.4472668e+2, -1453671.6, -1526412.4, -16619.863, -0.16700551, 0.12202022, -1450054.1, 71640.914, 0.0, 10.000614, 9.999651 
6.2496233e+2, 1.5472679e+2, -1342343.9, -1417490.1, -42767.3, 0.03444478, 0.16229682, -1322989.1, 100703.07, 0.0, 10.00069, 9.999687 
6.249747e+2, 1.6472627e+2, -1286346.8, -1422841.3, -39904.11, 0.09933804, 0.17892501, -1275536.9, 50159.813, 0.0, 10.000758, 9.998946 
6.2498564e+2, 1.7472506e+2, -1178819.6, -1321073.5, -35016.28, 0.007325548, 0.16207242, -1170667.4, 57042.004, 0.0, 10.000828, 9.998939 
6.249971e+2, 1.847238e+2, -1073941.6, -1190676.0, -32774.332, -0.034988426, 0.13102108, -1065369.4, 64351.555, 0.0, 10.000748, 9.999199 
6.250091e+2, 1.947225e+2, -1011475.56, -1107364.3, -39501.16, -0.019865137, 0.07834983, -997299.06, 34431.92, 0.0, 10.000494, 9.999221 
6.25021e+2, 2.0472148e+2, -938627.56, -1056808.1, -54671.223, 0.0026432974, 0.07150887, -917215.6, 16523.053, 0.0, 10.000473, 9.998905 
6.250328e+2, 2.1472079e+2, -804351.06, -940476.06, -47907.57, 0.03159631, 0.10913497, -789181.1, 46562.67, 0.0, 10.00072, 9.998912 
6.2504435e+2, 2.2471935e+2, -738900.75, -909065.06, -34665.094, 0.027496802, 0.097974084, -732109.94, 5647.0234, 0.0, 10.000715, 9.998457 
6.2505585e+2, 2.347171e+2, -683128.94, -831050.25, -43284.582, -0.01312846, 0.025958085, -671394.0, -31615.037, 0.0, 10.000424, 9.99846 
6.250676e+2, 2.4471547e+2, -586397.25, -714261.0, -46529.09, -0.026108757, 0.010518746, -571258.0, -29463.68, 0.0, 10.000331, 9.998633 
6.250795e+2, 2.5471458e+2, -468863.56, -605217.9, -43529.723, -0.0087899575, 0.053460848, -456152.16, -12350.058, 0.0, 10.000459, 9.998648 
6.250916e+2, 2.6471326e+2, -397880.38, -581555.06, -34732.39, 0.008238689, 0.084460996, -391532.0, -45716.49, 0.0, 10.000537, 9.998099 
6.251037e+2, 2.7471143e+2, -296157.94, -481466.94, -26526.162, 0.023977475, 0.08983903, -292435.6, -44599.95, 0.0, 10.000561, 9.998102 
6.251159e+2, 2.847095e+2, -185098.86, -352879.78, -7507.4224, 0.022587555, 0.07966547, -184763.61, -34907.78, 0.0, 10.0005455, 9.998321 
6.2512803e+2, 2.9470775e+2, -99319.45, -264955.97, -9491.042, 0.0032564697, 0.06538622, -98777.39, -46903.434, 0.000000004235602, 10.00048, 9.998283 
6.2514055e+2, 3.0470654e+2, -72571.55, -237792.34, -20313.682, 0.030559799, 0.12896773, -70110.66, -70110.66, 0.000000262113, 10.000376, 9.998186 
6.2515235e+2, 3.147047e+2, 26689.287, -3422.0361, 26294.646, 0.0060058367, 0.11591943, 41933.484, 41933.484, 0.0000013873902, 10.000254, 9.999854 
6.3492185e+2, 1.2471491e+2, -1653418.1, -1763462.8, -164490.28, -0.059555706, 0.09828273, -1534991.6, 182816.16, 0.0, 10.000785, 9.999275 
6.349389e+2, 1.3471545e+2, -1573091.5, -1686607.1, 79105.52, 0.2076128, 0.22738136, -1532488.5, 87318.18, 0.0, 10.000669, 9.999212 
6.349497e+2, 1.4471488e+2, -1453287.0, -1526334.6, -15365.276, -0.10606328, 0.2319239, -1450186.6, 71626.14, 0.0, 10.000617, 9.99965 
6.349628e+2, 1.5471368e+2, -1342244.9, -1417479.6, -40020.12, 0.010760356, 0.139524, -1324938.0, 98883.055, 0.0, 10.00069, 9.999687 
6.34975e+2, 1.6471274e+2, -1278779.9, -1407232.9, -38010.695, 0.054571986, 0.11105799, -1268375.0, 57453.74, 0.0, 10.000758, 9.999054 
6.3498664e+2, 1.7471214e+2, -1170396.8, -1304423.0, -32345.775, 0.023114216, 0.1456504, -1162998.9, 64836.727, 0.0, 10.000831, 9.999051 
6.3499814e+2, 1.847114e+2, -1085352.6, -1214481.5, -42339.61, -0.0005813918, 0.16760351, -1072708.3, 57134.625, 0.0, 10.000749, 9.999036 
6.3500965e+2, 1.9471048e+2, -1023079.3, -1132011.4, -49059.09, -0.018199999, 0.16964224, -1004242.25, 27608.242, 0.0, 10.000496, 9.999051 
6.3502127e+2, 2.0470916e+2, -926014.9, -1030328.75, -46564.79, -0.019814746, 0.1315747, -908253.1, 25607.982, 0.0, 10.000472, 9.999088 
6.350332e+2, 2.1470736e+2, -790723.56, -912094.6, -38584.523, -0.0011922207, 0.04155999, -779496.0, 56378.902, 0.0, 10.000719, 9.999107 
6.3504493e+2, 2.2470595e+2, -755198.0, -941874.56, -45592.305, 0.009918978, 0.032343693, -744658.0, -6770.324, 0.0, 10.000711, 9.998234 
6.350565e+2, 2.3470496e+2, -699454.2, -865382.75, -53891.695, 0.0122939525, 0.10878226, -683487.25, -43588.06, 0.0, 10.000425, 9.998223 
6.350682e+2, 2.447034e+2, -581921.94, -705369.1, -42248.887, 0.0027885481, 0.10977758, -568847.3, -26932.97, 0.0, 10.000333, 9.998693 
6.350799e+2, 2.5470123e+2, -463276.03, -593744.9, -38501.37, -0.020171959, 0.018262938, -452761.63, -8828.063, 0.0, 10.000459, 9.998726 
6.3509184e+2, 2.6469973e+2, -383652.94, -551537.1, -33925.168, -0.020703653, 0.018430358, -377056.7, -31108.703, 0.0, 10.000534, 9.998307 
6.3510406e+2, 2.74699e+2, -282410.53, -451616.4, -25384.688, 0.0046035806, 0.114292294, -278684.34, -30727.383, 0.0, 10.000555, 9.99831 
6.3511634e+2, 2.8469747e+2, -190288.33, -361628.84, -9942.852, 0.014384526, 0.1336697, -189713.28, -39739.652, 0.0, 10.000537, 9.998265 
6.3512856e+2, 2.9469517e+2, -104677.164, -274252.47, -11742.328, 0.006827368, 0.07290718, -103867.92, -51870.32, 0.000000008608103, 10.000472, 9.998223 
6.351409e+2, 3.0469358e+2, -60557.508, -211289.6, -25105.293, 0.026907718, 0.09098515, -56486.05, -56486.05, 0.00000035003856, 10.000368, 9.998372 
6.351525e+2, 3.146926e+2, 49167.93, 44896.926, 23825.6, -0.0018768159, 0.1439369, 70953.54, 70953.54, 0.0000017531552, 10.000245, 10.00019 
6.449222e+2, 1.24702215e+2, -1715523.1, -1782243.8, -170676.73, -0.08279473, 0.117613114, -1574977.0, 142956.45, 0.0, 10.000308, 9.999377 
6.4493954e+2, 1.3470268e+2, -1530871.6, -1651911.4, 95234.51, 0.19191886, 0.22692129, -1478554.3, 141377.61, 0.0, 10.000898, 9.999339 
6.449509e+2, 1.447022e+2, -1405906.6, -1526652.1, -8380.01, -0.068929896, 0.2431299, -1405327.8, 116609.195, 0.0, 10.001042, 9.999443 
6.449635e+2, 1.5470076e+2, -1341859.0, -1441572.4, -50707.66, 0.008157616, 0.15006985, -1320603.4, 103344.945, 0.0, 10.000798, 9.99947 
6.449756e+2, 1.6469973e+2, -1286959.6, -1395894.6, -52679.332, 0.037287023, 0.116769865, -1265652.4, 60304.594, 0.0, 10.000636, 9.99919 
6.449873e+2, 1.7469919e+2, -1201477.9, -1303194.5, -45086.29, 0.023120476, 0.14089839, -1184370.5, 43591.957, 0.0, 10.000547, 9.999196 
6.449989e+2, 1.8469852e+2, -1109526.5, -1225461.4, -48466.31, 0.007858454, 0.16289753, -1091934.8, 38033.984, 0.0, 10.000581, 9.999041 
6.4501023e+2, 1.9469772e+2, -984544.2, -1113007.1, -42883.9, -0.013299439, 0.17825986, -971544.1, 60431.21, 0.0, 10.000761, 9.999053 
6.4502186e+2, 2.0469642e+2, -897608.06, -1030488.9, -43793.195, -0.021180889, 0.14627345, -884473.5, 49512.89, 0.0, 10.000728, 9.998963 
6.4503366e+2, 2.1469446e+2, -839702.3, -950603.94, -60751.78, -0.011938885, 0.05354233, -812900.06, 23102.354, 0.0, 10.000446, 9.998974 
6.450454e+2, 2.24693e+2, -787451.5, -939787.5, -66057.31, 0.00045647848, 0.038484246, -762797.25, -24781.768, 0.0, 10.000413, 9.998392 
6.450571e+2, 2.3469205e+2, -653789.2, -824578.56, -45495.426, 0.015240861, 0.104818046, -642426.0, -2400.87, 0.0, 10.000659, 9.99839 
6.4506865e+2, 2.4469054e+2, -543476.5, -703965.7, -27561.123, 0.007589203, 0.107929565, -538875.25, 3164.5767, 0.0, 10.00067, 9.99854 
6.4508027e+2, 2.5468838e+2, -481544.7, -620809.5, -41820.94, -0.025784547, 0.033418633, -469951.1, -25890.885, 0.0, 10.000412, 9.998563 
6.450922e+2, 2.6468682e+2, -408362.72, -542993.06, -44153.785, -0.029682258, 0.0289443, -395173.94, -49098.74, 0.0, 10.0002775, 9.998489 
6.451044e+2, 2.74686e+2, -308971.0, -442671.28, -37233.676, 0.00025138818, 0.09503849, -299301.28, -51217.17, 0.0, 10.000279, 9.998504 
6.451166e+2, 2.8468466e+2, -232308.9, -376861.16, -22188.686, 0.010000731, 0.119462036, -228979.63, -78880.805, 0.0, 10.000227, 9.998309 
6.451287e+2, 2.9468277e+2, -155577.19, -294557.84, -17660.666, -0.0031072488, 0.099539086, -153368.11, -101249.11, 0.000000011710588, 10.000104, 9.9982605 
6.4514095e+2, 3.0468097e+2, -100783.86, -214706.4, -26962.496, 0.010788896, 0.08631369, -94724.79, -94724.79, 0.00000040808163, 10.000023, 9.998514 
6.451526e+2, 3.1468013e+2, 27411.244, 51922.582, 18103.172, -0.0009612574, 0.13855541, 61528.438, 61528.438, 0.0000020409286, 10.000021, 10.000346 
6.549227e+2, 1.2469012e+2, -1690276.9, -1730541.8, -152103.58, -0.05909749, 0.20765582, -1556979.1, 161074.8, 0.0, 10.000309, 9.999732 
6.5494e+2, 1.346892e+2, -1505606.9, -1598754.9, 116116.16, 0.15668872, 0.14113303, -1427072.5, 192989.67, 0.0, 10.0008955, 9.999704 
6.549521e+2, 1.4468865e+2, -1435216.8, -1587796.9, -18576.387, -0.05987619, 0.15296403, -1432987.8, 89079.914, 0.0, 10.001043, 9.9990225 
6.549645e+2, 1.5468809e+2, -1372497.9, -1506218.8, -59882.473, 0.025818886, 0.19351465, -1349601.8, 74472.11, 0.0, 10.000802, 9.999025 
6.549763e+2, 1.646873e+2, -1275722.1, -1373031.3, -56701.613, 0.047183804, 0.19708678, -1249661.6, 76419.66, 0.0, 10.000638, 9.999347 
6.549877e+2, 1.746862e+2, -1189086.8, -1277756.1, -48619.33, 0.0057397643, 0.1477131, -1167623.3, 60466.785, 0.0, 10.000548, 9.999371 
6.5499926e+2, 1.8468516e+2, -1098004.3, -1201005.3, -42781.316, -0.012510163, 0.11682469, -1082552.9, 47545.418, 0.0, 10.000578, 9.99921 
6.550111e+2, 1.9468425e+2, -972542.2, -1088279.6, -36137.215, -0.005967417, 0.10360301, -962185.6, 69919.81, 0.0, 10.000761, 9.999223 
6.5502274e+2, 2.0468323e+2, -928519.3, -1093940.3, -54151.574, -0.002563477, 0.11416528, -912369.25, 21745.408, 0.0, 10.000725, 9.9985285 
6.550342e+2, 2.1468206e+2, -871293.44, -1016782.9, -71025.64, -0.001847115, 0.14334516, -842369.9, -6243.572, 0.0, 10.000449, 9.998519 
6.5504575e+2, 2.2468048e+2, -750797.1, -863704.2, -57853.938, -0.0025316582, 0.11591199, -726417.0, 11723.184, 0.0, 10.000413, 9.998914 
6.550575e+2, 2.3467843e+2, -614707.25, -743716.8, -36205.414, -0.004431539, 0.016348531, -605241.06, 34915.438, 0.0, 10.000659, 9.998946 
6.550692e+2, 2.4467689e+2, -569668.0, -757442.5, -37201.83, -0.012859113, 0.006625202, -562566.2, -20395.383, 0.0, 10.000667, 9.998175 
6.550806e+2, 2.5467595e+2, -509539.66, -678350.4, -51153.184, -0.027750434, 0.095191576, -495248.97, -51066.63, 0.0, 10.000409, 9.998169 
6.5509254e+2, 2.6467454e+2, -397722.2, -520411.28, -44173.8, -0.020892082, 0.11176749, -383472.56, -37275.18, 0.0, 10.000275, 9.998646 
6.551048e+2, 2.7467245e+2, -296492.2, -416560.4, -36621.723, 0.009882224, 0.036476593, -286203.88, -37987.28, 0.0, 10.000278, 9.998684 
6.5511686e+2, 2.8467107e+2, -223258.8, -357982.34, -26756.844, 0.008318646, 0.043264963, -218139.28, -67908.54, 0.0, 10.000226, 9.99844 
6.551286e+2, 2.9467052e+2, -147131.63, -275839.47, -22273.45, -0.028868131, 0.14236668, -143386.11, -91147.61, 0.000000011654482, 10.000098, 9.998392 
6.5514064e+2, 3.0466864e+2, -94822.79, -199751.2, -27567.297, -0.020238925, 0.10968886, -88021.08, -88021.08, 0.00000041978168, 10.000012, 9.998622 
6.5515274e+2, 3.1466728e+2, 25188.701, 50416.223, 18526.22, 0.0058878534, 0.10129728, 60215.133, 60215.133, 0.000002202322, 10.000009, 10.000341 
6.649237e+2, 1.2467748e+2, -1580960.3, -1683676.8, -119757.805, -0.032389592, 0.21386139, -1502012.8, 216164.77, 0.0, 10.001083, 9.999681 
6.649405e+2, 1.3467614e+2, -1518837.8, -1614496.4, 110288.83, 0.11915548, 0.115236305, -1446453.6, 173735.72, 0.0, 10.000847, 9.9996195 
6.6495293e+2, 1.4467567e+2, -1480334.4, -1608013.6, -33239.438, -0.059378523, 0.13864022, -1472199.3, 49994.754, 0.0, 10.000728, 9.999036 
6.649654e+2, 1.546753e+2, -1364372.9, -1500602.6, -39167.22, 0.03342612, 0.19571826, -1353914.9, 70284.11, 0.0, 10.000851, 9.99904 
6.6497713e+2, 1.6467452e+2, -1239795.4, -1362448.3, -25218.354, 0.053901695, 0.2021439, -1234812.6, 91393.57, 0.0, 10.000916, 9.999285 
6.649884e+2, 1.7467321e+2, -1140985.3, -1261515.1, -36357.0, 0.005096074, 0.14051066, -1130867.8, 97348.76, 0.0, 10.000911, 9.999307 
6.6499996e+2, 1.8467204e+2, -1070267.3, -1193967.9, -46956.24, -0.013150817, 0.10189968, -1054462.3, 75763.734, 0.0, 10.000797, 9.999152 
6.650118e+2, 1.9467105e+2, -1006697.94, -1111790.9, -58563.23, -0.00013980227, 0.08563504, -980562.9, 51671.453, 0.0, 10.000557, 9.99916 
6.6502345e+2, 2.0467007e+2, -949390.8, -1099766.1, -66838.4, 0.0053821746, 0.10158439, -923977.5, 10265.791, 0.0, 10.000563, 9.998567 
6.6503483e+2, 2.1466911e+2, -809426.56, -981556.7, -47186.348, 0.0035275915, 0.14695367, -797340.0, 38912.9, 0.0, 10.000853, 9.998565 
6.650464e+2, 2.2466752e+2, -691533.75, -840926.06, -37221.59, -0.0039360765, 0.1202126, -682773.56, 55493.22, 0.0, 10.000846, 9.998861 
6.650579e+2, 2.3466527e+2, -642731.0, -763698.2, -61243.656, -0.018378913, 0.0036318353, -617138.75, 23146.797, 0.0, 10.000495, 9.998888 
6.650695e+2, 2.4466377e+2, -611574.44, -760566.44, -69458.086, -0.023756338, -0.0052048285, -584217.2, -41917.953, 0.0, 10.000305, 9.998328 
6.6508114e+2, 2.546632e+2, -514636.5, -662742.25, -43601.78, -0.017756404, 0.10283585, -502753.7, -58446.742, 0.0, 10.000297, 9.99833 
6.650929e+2, 2.6466176e+2, -406684.8, -538809.8, -21210.254, -0.008755574, 0.11866572, -403363.4, -57041.484, 0.0, 10.000274, 9.998519 
6.65105e+2, 2.7465937e+2, -312981.9, -439600.9, -36851.113, 0.0026240572, 0.02213662, -303037.78, -54692.586, 0.0, 10.000231, 9.998548 
6.6511697e+2, 2.8465798e+2, -226090.13, -342108.3, -41959.863, -0.0032107655, 0.030295536, -212505.33, -62146.2, 0.0, 10.0001335, 9.998592 
6.651286e+2, 2.9465783e+2, -151929.17, -259141.94, -35942.26, -0.028698731, 0.15149601, -140994.94, -88632.65, 0.000000008469742, 9.999985, 9.99856 
6.6514045e+2, 3.0465585e+2, -119360.42, -206416.08, -40028.977, -0.02681473, 0.09646553, -103752.89, -103752.89, 0.00000038345433, 9.999823, 9.998667 
6.651525e+2, 3.1465456e+2, -41265.055, 1107.977, -49.217278, -0.004679302, 0.09541317, 1108.0342, 1108.0342, 0.0000022156387, 9.999625, 10.000187 
6.74925e+2, 1.2466427e+2, -1613242.3, -1752693.4, -127050.53, -0.003227442, 0.12680572, -1538042.0, 180262.16, 0.0, 10.00109, 9.999206 
6.7494094e+2, 1.346636e+2, -1557056.9, -1694561.5, 99786.41, 0.07734879, 0.14979148, -1504630.8, 115682.08, 0.0, 10.000852, 9.999067 
6.749536e+2, 1.4466333e+2, -1448384.6, -1542377.9, -30898.906, -0.06808415, 0.20210177, -1439136.9, 83178.84, 0.0, 10.0007305, 9.999485 
6.749661e+2, 1.5466243e+2, -1330674.1, -1430404.0, -34444.387, 0.027995832, 0.15614268, -1319934.4, 104388.91, 0.0, 10.000849, 9.999522 
6.74978e+2, 1.6466142e+2, -1260377.8, -1404202.4, -25625.643, 0.05369294, 0.13057591, -1255948.4, 70383.37, 0.0, 10.000911, 9.999001 
6.7498946e+2, 1.7466031e+2, -1162389.9, -1306305.1, -36207.82, 0.020839827, 0.118464045, -1153793.8, 74547.62, 0.0, 10.000912, 9.998999 
6.750009e+2, 1.8465921e+2, -1091391.1, -1237738.5, -56094.027, 0.0056375293, 0.11752706, -1072364.4, 57987.113, 0.0, 10.000797, 9.998852 
6.750124e+2, 1.9465815e+2, -1028000.8, -1155889.0, -67716.22, 0.0029006163, 0.1236982, -998808.75, 33553.125, 0.0, 10.000556, 9.9988575 
6.75024e+2, 2.0465694e+2, -914505.6, -1026652.9, -57197.207, 0.00079350354, 0.10895275, -890480.75, 43891.43, 0.0, 10.00056, 9.99907 
6.750357e+2, 2.1465561e+2, -772181.75, -904058.1, -36324.656, 0.0032556606, 0.06490209, -762838.25, 73543.766, 0.0, 10.000851, 9.999098 
6.7504716e+2, 2.2465414e+2, -734789.1, -929960.8, -50044.605, -0.0053841174, 0.05080271, -722705.2, 15690.02, 0.0, 10.000842, 9.998252 
6.7505836e+2, 2.3465253e+2, -688435.7, -858605.56, -73860.3, -0.027234606, 0.06375785, -660849.44, -20437.287, 0.0, 10.000495, 9.998237 
6.750698e+2, 2.4465117e+2, -566012.8, -666078.44, -70129.664, -0.02600927, 0.06969231, -529897.8, 12527.44, 0.0, 10.000306, 9.998977 
6.750816e+2, 2.546501e+2, -465730.22, -561713.1, -43759.434, 0.002326354, 0.05946552, -448775.03, -4341.295, 0.0, 10.0002985, 9.9990225 
6.750933e+2, 2.6464862e+2, -434722.94, -596810.2, -23088.088, 0.0043684808, 0.05338136, -431498.34, -85049.8, 0.0, 10.000273, 9.998121 
6.75105e+2, 2.7464667e+2, -344522.47, -503547.66, -37940.004, -0.02240284, 0.048190933, -335934.56, -87464.38, 0.0, 10.000224, 9.998113 
6.7511684e+2, 2.8464535e+2, -214912.78, -317278.88, -47192.945, -0.025518352, 0.07547974, -196476.3, -45992.01, 0.0, 10.000127, 9.998766 
6.751288e+2, 2.946447e+2, -138126.64, -230108.13, -40758.89, -0.005033766, 0.13004416, -122664.67, -70174.69, 0.0000000040864183, 9.999984, 9.99876 
6.7514044e+2, 3.0464262e+2, -120536.25, -208727.08, -46854.73, -0.011517357, 0.050554805, -100290.61, -100290.61, 0.0000003121116, 9.999822, 9.998651 
6.751517e+2, 3.1464207e+2, -62609.508, -41207.383, -6719.5117, -0.036024828, 0.12395145, -39272.6, -39272.6, 0.0000020914758, 9.999617, 9.9999 
6.849262e+2, 1.2465161e+2, -1581879.3, -1738978.3, -134454.67, -0.011512963, 0.10422898, -1504710.8, 213716.63, 0.0, 10.001311, 9.999194 
6.8494165e+2, 1.3465108e+2, -1533552.6, -1692955.5, 119824.88, 0.056962922, 0.1518402, -1469343.3, 151091.42, 0.0, 10.001058, 9.998978 
6.8495464e+2, 1.4465085e+2, -1419912.8, -1539781.9, 3352.8174, -0.044177525, 0.21500531, -1419819.1, 102618.29, 0.0, 10.000976, 9.999384 
6.8496716e+2, 1.5464951e+2, -1285970.4, -1420690.9, -44331.72, 0.024158128, 0.13702756, -1272691.3, 151757.7, 0.0, 10.001209, 9.999415 
6.8497896e+2, 1.6464838e+2, -1222695.0, -1390252.3, -61225.438, 0.038543724, 0.10565492, -1202707.5, 123751.34, 0.0, 10.001189, 9.9989605 
6.849903e+2, 1.7464747e+2, -1171376.9, -1314932.3, -52947.086, 0.01728357, 0.11709169, -1153961.4, 74505.79, 0.0, 10.000869, 9.99896 
6.8500173e+2, 1.8464644e+2, -1099258.5, -1245291.4, -48336.72, 0.009786263, 0.12786734, -1084708.8, 45767.754, 0.0, 10.00076, 9.998817 
6.850132e+2, 1.9464535e+2, -979140.25, -1134934.6, -39345.28, 0.008300048, 0.13255507, -969767.6, 62719.367, 0.0, 10.000906, 9.998831 
6.8502474e+2, 2.0464396e+2, -872498.3, -1012108.6, -34780.34, 0.0038061894, 0.10462359, -864313.5, 70185.28, 0.0, 10.0008745, 9.999018 
6.850364e+2, 2.146423e+2, -806605.3, -927052.44, -58609.332, -0.0009071173, 0.033502016, -782793.56, 53718.42, 0.0, 10.000642, 9.999042 
6.850478e+2, 2.2464094e+2, -777768.56, -935405.6, -76576.72, -0.010393273, 0.024687488, -746694.6, -8170.2246, 0.0, 10.000481, 9.998389 
6.850588e+2, 2.3463988e+2, -691309.3, -842907.44, -42482.27, -0.025337195, 0.080259316, -680216.25, -39680.465, 0.0, 10.0004015, 9.998388 
6.8507016e+2, 2.446386e+2, -561412.1, -669150.25, -24473.637, -0.023277108, 0.09019346, -556113.4, -13565.512, 0.0, 10.0003605, 9.998928 
6.8508184e+2, 2.546371e+2, -460207.34, -564961.8, -53086.66, -0.002054125, 0.039078735, -438008.66, 6552.243, 0.0, 10.000362, 9.998969 
6.850935e+2, 2.646356e+2, -432660.38, -586100.75, -48624.906, -0.0028202431, 0.02939533, -418549.03, -71973.0, 0.0, 10.000247, 9.998207 
6.85105e+2, 2.7463412e+2, -371378.53, -506166.6, -25933.78, -0.026338838, 0.062389668, -366560.94, -117967.73, 0.0, 9.999995, 9.998203 
6.851168e+2, 2.8463292e+2, -244209.58, -332270.9, -15851.966, -0.026204351, 0.096905574, -241442.97, -90836.87, 0.0, 9.999929, 9.998757 
6.8512887e+2, 2.94632e+2, -125420.305, -224378.56, -24663.4, -0.0034615577, 0.12278719, -119614.11, -66999.74, 0.0000000009738006, 10.0000725, 9.998756 
6.851402e+2, 3.046298e+2, -99648.77, -185139.38, -46399.1, -0.019960212, 0.030697064, -79306.54, -79306.54, 0.00000022618863, 9.999907, 9.998773 
6.851511e+2, 3.1462952e+2, -107646.42, -79278.375, 1829.1221, -0.047147404, 0.118417375, -79160.92, -79160.92, 0.0000018666766, 9.999379, 9.999753 
6.9492704e+2, 1.24639526e+2, -1548480.6, -1672580.9, -135177.69, -0.059070315, 0.14386997, -1461792.0, 256755.06, 0.0, 10.001322, 9.999645 
6.949427e+2, 1.3463868e+2, -1507111.5, -1636338.5, 108714.96, 0.054928076, 0.120620705, -1445258.3, 175296.02, 0.0, 10.001051, 9.999369 
6.949562e+2, 1.4463824e+2, -1467284.6, -1636805.3, 10628.25, 0.010324879, 0.1753712, -1466620.9, 55937.617, 0.0, 10.00097, 9.998721 
6.9496834e+2, 1.546366e+2, -1334241.4, -1522371.5, -34456.4, 0.021179348, 0.13806123, -1328129.3, 96446.43, 0.0, 10.001215, 9.998714 
6.949798e+2, 1.646354e+2, -1209476.0, -1363568.8, -73187.28, 0.007100725, 0.12756982, -1180256.1, 146331.39, 0.0, 10.001193, 9.999142 
6.9499093e+2, 1.746347e+2, -1156822.6, -1283820.5, -65411.12, -0.008522379, 0.1364924, -1129158.4, 99435.17, 0.0, 10.000865, 9.999175 
6.950023e+2, 1.8463376e+2, -1082694.6, -1209673.6, -43997.344, -0.0038796454, 0.13307892, -1068939.8, 61661.15, 0.0, 10.000753, 9.999064 
6.950142e+2, 1.9463263e+2, -961754.6, -1098634.3, -33573.37, 0.01578105, 0.11176267, -953963.4, 78646.086, 0.0, 10.000904, 9.999082 
6.950257e+2, 2.0463113e+2, -915219.9, -1100782.0, -43566.02, 0.014022455, 0.08752509, -905500.56, 29122.465, 0.0, 10.0008745, 9.998409 
6.95037e+2, 2.146292e+2, -852154.94, -1021072.9, -67205.46, -0.010206698, 0.05199059, -828679.25, 7963.3726, 0.0, 10.000639, 9.998397 
6.9504815e+2, 2.2462788e+2, -716805.6, -808613.9, -79898.49, -0.02040245, 0.041545995, -670563.4, 68090.875, 0.0, 10.000479, 9.999261 
6.950593e+2, 2.3462734e+2, -626004.2, -707942.7, -45476.625, -0.0142969275, 0.054530393, -605763.94, 34892.363, 0.0, 10.000403, 9.999315 
6.9507056e+2, 2.4462615e+2, -610885.5, -772125.44, -24951.93, -0.01719145, 0.057192322, -607112.44, -64445.266, 0.0, 10.000361, 9.998221 
6.950819e+2, 2.546242e+2, -514787.03, -677488.7, -52429.88, -0.03067211, 0.040006064, -499355.38, -54667.03, 0.0, 10.000359, 9.9981985 
6.9509345e+2, 2.646227e+2, -395061.84, -506911.94, -57447.863, -0.03011318, 0.043827113, -370812.9, -24108.543, 0.0, 10.000242, 9.998753 
6.9510514e+2, 2.746217e+2, -330025.75, -420079.75, -35056.793, -0.011613633, 0.06607482, -317987.78, -69273.56, 0.0, 9.999995, 9.998795 
6.9511694e+2, 2.8462067e+2, -256861.36, -358159.2, -10915.4375, -0.0079454705, 0.096790515, -255698.5, -104973.945, 0.0, 9.9999275, 9.998581 
6.9512874e+2, 2.946196e+2, -141099.11, -254095.0, -18419.725, -0.024647847, 0.1278215, -138172.28, -85436.6, 0.000000000021633938, 10.00006, 9.998558 
6.9513977e+2, 3.046174e+2, -84226.19, -149860.31, -65430.91, -0.052546177, 0.034419637, -43843.773, -43843.773, 0.00000014519733, 9.999893, 9.999021 
6.951505e+2, 3.1461707e+2, -109840.71, -82385.21, -18853.322, -0.043249957, 0.08957068, -72791.32, -72791.32, 0.0000015881137, 9.999373, 9.999734 
7.049284e+2, 1.2462748e+2, -1535758.9, -1674947.3, -104159.59, -0.061687674, 0.16336237, -1480083.0, 238582.1, 0.0, 10.001446, 9.999569 
7.049439e+2, 1.3462615e+2, -1422015.8, -1614157.1, 83131.46, 0.042416338, 0.10779684, -1391041.5, 229635.33, 0.0, 10.001719, 9.999197 
7.0495766e+2, 1.4462554e+2, -1383231.5, -1601183.4, -17975.002, 0.034109484, 0.15794653, -1381759.0, 140923.47, 0.0, 10.00157, 9.998676 
7.049694e+2, 1.54624e+2, -1360307.4, -1540005.9, -12865.338, 0.016870959, 0.13433278, -1359391.0, 65307.78, 0.0, 10.001059, 9.998669 
7.0498073e+2, 1.6462284e+2, -1259123.3, -1392867.8, -31388.387, -0.005089794, 0.13248375, -1252123.1, 74587.336, 0.0, 10.000875, 9.999093 
7.049919e+2, 1.746221e+2, -1130351.4, -1275916.0, -43563.164, -0.0062155146, 0.14395604, -1118310.3, 110406.81, 0.0, 10.00107, 9.999129 
7.050033e+2, 1.8462111e+2, -1030122.8, -1180169.4, -37190.797, -0.0008113254, 0.13473426, -1021410.5, 109314.63, 0.0, 10.001099, 9.9991 
7.0501494e+2, 1.9461986e+2, -955099.94, -1091970.6, -44061.477, 0.003585592, 0.09778522, -942142.4, 90592.13, 0.0, 10.000934, 9.999113 
7.050264e+2, 2.0461847e+2, -934417.06, -1107395.5, -47597.52, 0.0017833196, 0.080612965, -922184.9, 12562.186, 0.0, 10.00073, 9.998434 
7.050376e+2, 2.1461686e+2, -872256.0, -1027303.75, -21950.55, -0.0042827902, 0.077799335, -869208.3, -32444.69, 0.0, 10.000487, 9.998427 
7.050487e+2, 2.2461557e+2, -724622.94, -809333.5, -28501.71, -0.009652598, 0.06489513, -715926.1, 22848.94, 0.0, 10.000413, 9.999287 
7.0505977e+2, 2.3461463e+2, -604642.25, -694859.25, -61105.742, -0.015311639, 0.035127282, -573798.9, 66981.63, 0.0, 10.000539, 9.99934 
7.050709e+2, 2.4461336e+2, -594801.2, -763032.94, -55784.855, -0.023744557, 0.029993784, -577984.25, -35192.395, 0.0, 10.000466, 9.998233 
7.050822e+2, 2.5461176e+2, -542167.8, -689401.6, -26779.215, -0.034776334, 0.04600441, -537448.44, -92638.4, 0.0, 10.000165, 9.99821 
7.0509356e+2, 2.6461035e+2, -421727.13, -511023.6, -16220.816, -0.031318683, 0.057572268, -418871.9, -72047.09, 0.0, 10.000021, 9.998832 
7.0510525e+2, 2.7460927e+2, -314400.56, -403078.97, -31535.37, -0.009800467, 0.05771076, -304329.8, -55494.36, 0.0, 10.000062, 9.998879 
7.0511687e+2, 2.846082e+2, -265543.34, -361059.9, -22257.246, -0.004341241, 0.07949492, -260611.61, -109765.48, 0.0, 9.999863, 9.998592 
7.051285e+2, 2.946072e+2, -237739.11, -299056.0, -14521.797, -0.020557772, 0.11822873, -234473.78, -181616.77, 0.0, 9.99939, 9.998572 
7.0513934e+2, 3.0460536e+2, -152579.16, -150462.56, -49008.2, -0.053690553, 0.045958184, -102501.234, -102501.234, 0.00000008201181, 9.999284, 9.9993105 
7.0515e+2, 3.14605e+2, -73994.8, -56688.46, -3696.8423, -0.03963892, 0.07213998, -55931.848, -55931.848, 0.0000012936833, 9.999581, 9.999811 
7.1493024e+2, 1.2461546e+2, -1580149.6, -1767417.6, -80785.59, -0.01830333, 0.15759516, -1550116.3, 168665.1, 0.0, 10.001445, 9.998937 
7.149454e+2, 1.346135e+2, -1472684.5, -1721359.5, 92859.1, 0.016168293, 0.113596834, -1441836.1, 178965.94, 0.0, 10.001729, 9.998457 
7.149591e+2, 1.4461277e+2, -1342971.3, -1519147.0, -38106.832, 0.023287602, 0.1628891, -1335082.1, 187727.14, 0.0, 10.001576, 9.999235 
7.149704e+2, 1.546117e+2, -1318242.1, -1451639.3, -32123.39, 0.008640697, 0.12584367, -1310909.5, 113908.664, 0.0, 10.001054, 9.999277 
7.149816e+2, 1.646107e+2, -1278432.1, -1431620.8, -24727.348, -0.00026529902, 0.12004861, -1274539.6, 52287.74, 0.0, 10.00087, 9.998831 
7.1499324e+2, 1.7460972e+2, -1150854.0, -1319114.9, -35396.695, 0.023729488, 0.13899405, -1143710.9, 85126.52, 0.0, 10.001073, 9.998832 
7.1500456e+2, 1.846085e+2, -1043915.2, -1208976.4, -43331.586, 0.018015027, 0.13221347, -1033231.4, 97617.53, 0.0, 10.001099, 9.998902 
7.1501553e+2, 1.9460703e+2, -969262.44, -1120324.3, -50362.902, -0.030294165, 0.091306895, -954011.56, 78850.38, 0.0, 10.000929, 9.99892 
7.1502674e+2, 2.0460595e+2, -888749.44, -1012151.44, -57175.355, -0.034682874, 0.08463007, -866331.25, 68539.55, 0.0, 10.000728, 9.999089 
7.1503824e+2, 2.1460535e+2, -823786.7, -926974.2, -31224.744, 0.015761994, 0.1107478, -815073.7, 21801.219, 0.0, 10.000488, 9.999116 
7.1504945e+2, 2.24604e+2, -779584.56, -924108.44, -24986.268, 0.020746084, 0.09440365, -775386.7, -36499.777, 0.0, 10.000416, 9.998498 
7.150602e+2, 2.3460177e+2, -664839.4, -819078.94, -55951.504, -0.02888359, 0.02202128, -646680.44, -5772.373, 0.0, 10.000535, 9.998488 
7.1507114e+2, 2.4460031e+2, -546161.5, -661166.94, -66502.83, -0.043561593, 0.00848661, -515748.4, 27173.191, 0.0, 10.000463, 9.998935 
7.150825e+2, 2.5459978e+2, -488711.88, -578482.2, -38096.742, -0.01657829, 0.057363257, -474723.94, -29797.863, 0.0, 10.000166, 9.998972 
7.150938e+2, 2.6459864e+2, -446692.47, -563232.56, -15406.427, -0.008471539, 0.07101089, -444690.16, -97752.69, 0.0, 10.000023, 9.998472 
7.151052e+2, 2.745968e+2, -343495.7, -462272.34, -29478.293, -0.021641733, 0.0371028, -336582.13, -87625.27, 0.0, 10.000057, 9.998476 
7.1511656e+2, 2.8459546e+2, -253355.77, -334189.1, -39469.098, -0.016414944, 0.044766, -237280.69, -86309.914, 0.0, 9.999856, 9.99878 
7.151281e+2, 2.945948e+2, -222919.97, -267825.34, -31696.691, 0.00642189, 0.095185556, -206529.33, -153551.05, 0.0, 9.999388, 9.998788 
7.151389e+2, 3.0459368e+2, -129294.195, -102287.34, -38606.49, -0.02589627, 0.06571591, -74890.85, -74890.85, 0.00000004119849, 9.999284, 9.999641 
7.151496e+2, 3.1459346e+2, -64289.566, -34674.49, 5988.6753, -0.04043557, 0.07588042, -33509.32, -33509.32, 0.0000010048329, 9.999573, 9.999967 
7.2493243e+2, 1.24603264e+2, -1441244.5, -1705384.6, -78511.77, 0.0057674265, 0.13705263, -1419670.3, 299230.22, 0.0, 10.002418, 9.998895 
7.249468e+2, 1.3460138e+2, -1495409.3, -1747864.3, 124930.44, -0.0120683685, 0.11628564, -1444039.0, 176881.86, 0.0, 10.001641, 9.998317 
7.2496045e+2, 1.4460069e+2, -1389944.8, -1531104.8, 3093.3662, 0.017374972, 0.17026356, -1389877.0, 133050.77, 0.0, 10.001208, 9.99933 
7.249716e+2, 1.5459962e+2, -1276615.8, -1420523.3, -28784.69, 0.014843092, 0.12381413, -1271071.8, 153864.48, 0.0, 10.001293, 9.999374 
7.249828e+2, 1.6459857e+2, -1217138.1, -1404014.0, -22118.984, 0.007111872, 0.109144256, -1214555.8, 112389.77, 0.0, 10.001299, 9.998813 
7.249943e+2, 1.745975e+2, -1132278.5, -1313129.3, -12585.607, 0.021137582, 0.12091403, -1131406.9, 97549.37, 0.0, 10.001212, 9.998806 
7.2500557e+2, 1.845963e+2, -1062454.3, -1228926.9, -16444.117, 0.010421398, 0.12127645, -1060845.4, 70122.555, 0.0, 10.001019, 9.998804 
7.2501624e+2, 1.9459495e+2, -1008717.2, -1150101.5, -16621.129, -0.038594056, 0.102875665, -1006789.5, 26191.2, 0.0, 10.000706, 9.998823 
7.250273e+2, 2.0459387e+2, -897016.6, -1007024.2, -31378.01, -0.041439734, 0.09689299, -888695.94, 46293.875, 0.0, 10.000632, 9.999169 
7.250389e+2, 2.1459311e+2, -766592.1, -890019.5, -50968.133, 0.012964786, 0.0989825, -748266.25, 88728.27, 0.0, 10.000839, 9.999201 
7.2505e+2, 2.2459173e+2, -741540.94, -919208.4, -49771.047, 0.019071631, 0.08242395, -728548.4, 10458.247, 0.0, 10.000735, 9.998378 
7.250605e+2, 2.3458965e+2, -711979.0, -855962.06, -27957.17, -0.032383323, 0.036866207, -706741.1, -65713.805, 0.0, 10.000273, 9.998362 
7.2507143e+2, 2.4458821e+2, -598340.1, -674354.9, -28966.627, -0.043482095, 0.0262601, -588560.25, -45519.434, 0.0, 10.000052, 9.999042 
7.250827e+2, 2.5458756e+2, -487167.13, -564365.2, -48276.97, -0.0071426556, 0.050339982, -463955.53, -18909.771, 0.0, 10.000119, 9.999091 
7.2509396e+2, 2.645864e+2, -446833.25, -565039.7, -38178.71, 0.001064208, 0.058037505, -435574.53, -88517.6, 0.0, 10.00003, 9.998457 
7.2510505e+2, 2.7458468e+2, -388680.13, -486680.63, -24827.424, -0.022653794, 0.039792214, -382749.28, -133674.03, 0.0, 9.999757, 9.998453 
7.2511625e+2, 2.8458336e+2, -287996.72, -341558.22, -28466.041, -0.021228554, 0.043871526, -275693.94, -124604.7, 0.0, 9.9995775, 9.998863 
7.251276e+2, 2.9458255e+2, -197537.27, -245292.69, -30321.75, 0.0051962184, 0.07076513, -182820.25, -129722.43, 0.0, 9.999518, 9.99888 
7.251383e+2, 3.045818e+2, -98833.71, -89573.54, -38812.77, -0.025053175, 0.07298738, -55115.664, -55115.664, 0.000000018939705, 9.999503, 9.999623 
7.251493e+2, 3.1458145e+2, -78602.5, -52012.758, -22471.646, -0.026004948, 0.071375936, -39197.7, -39197.7, 0.0000007295325, 9.999521, 9.999872 
7.349348e+2, 1.2459086e+2, -1402123.3, -1625349.4, -92722.89, 0.004766853, 0.09992405, -1368632.9, 350389.66, 0.0, 10.002421, 9.999443 
7.3494804e+2, 1.3458982e+2, -1462718.4, -1678148.0, 94139.836, -0.043474767, 0.11645566, -1427378.0, 193654.58, 0.0, 10.001636, 9.998796 
7.349617e+2, 1.445893e+2, -1416196.1, -1584902.9, 4596.3696, 0.0150909675, 0.18004967, -1416071.0, 106966.75, 0.0, 10.0012045, 9.998962 
7.349731e+2, 1.5458778e+2, -1304329.8, -1479698.5, -24481.13, 0.033131056, 0.12752664, -1300976.4, 124076.4, 0.0, 10.001299, 9.998966 
7.3498416e+2, 1.6458647e+2, -1202348.9, -1373677.8, -25522.404, 0.014411475, 0.099188976, -1198627.6, 128437.16, 0.0, 10.001301, 9.999021 
7.349952e+2, 1.7458545e+2, -1115967.3, -1278600.3, -15905.708, -0.015249401, 0.09091311, -1114426.3, 114647.06, 0.0, 10.001209, 9.999044 
7.350062e+2, 1.8458448e+2, -1061579.1, -1226717.5, -28306.834, -0.025170693, 0.1024974, -1056861.8, 74220.28, 0.0, 10.001016, 9.998821 
7.3501706e+2, 1.9458362e+2, -1008066.2, -1149261.0, -28389.998, -0.02257299, 0.13209271, -1002571.6, 30519.104, 0.0, 10.000707, 9.998829 
7.3502815e+2, 2.0458221e+2, -931413.1, -1078656.8, -24893.469, -0.019997094, 0.117352605, -927318.44, 7785.3716, 0.0, 10.000633, 9.998678 
7.350394e+2, 2.1458018e+2, -803283.94, -965022.0, -43048.85, -0.013554214, 0.043765698, -792539.6, 44582.453, 0.0, 10.000834, 9.998689 
7.350504e+2, 2.2457883e+2, -704672.56, -841962.06, -66628.53, -0.015237196, 0.02997725, -677654.0, 61479.977, 0.0, 10.000731, 9.998911 
7.350609e+2, 2.3457827e+2, -671166.4, -771669.5, -45425.65, -0.027192874, 0.079370484, -653677.94, -12539.64, 0.0, 10.000275, 9.99894 
7.3507166e+2, 2.4457705e+2, -630110.3, -741015.4, -27546.37, -0.025199769, 0.08254742, -623645.25, -80495.7, 0.0, 10.000055, 9.998583 
7.350828e+2, 2.5457507e+2, -522772.28, -637547.5, -45301.44, -0.0075257085, 0.02539548, -507046.56, -61877.71, 0.0, 10.000116, 9.99859 
7.3509395e+2, 2.6457366e+2, -425647.84, -520162.97, -47700.258, -0.003598438, 0.019174658, -405759.34, -58576.53, 0.0, 10.000026, 9.998768 
7.3510486e+2, 2.7457294e+2, -365089.13, -437294.78, -34562.4, -0.013884777, 0.06587303, -351212.22, -102021.65, 0.0, 9.999755, 9.998794 
7.351158e+2, 2.8457186e+2, -288203.44, -341926.6, -30770.02, -0.019800598, 0.07654955, -274219.72, -123018.22, 0.0, 9.9995775, 9.998861 
7.351268e+2, 2.9457045e+2, -199347.63, -247995.64, -31377.578, -0.025289154, 0.04389242, -183970.13, -130754.52, 0.0, 9.999513, 9.998864 
7.351375e+2, 3.045697e+2, -125042.305, -143062.06, -37787.195, -0.053050403, 0.067097254, -95205.69, -95205.69, 0.0000000073965225, 9.999499, 9.999258 
7.35149e+2, 3.1456903e+2, -105678.46, -106156.8, -23016.957, -0.0011215085, 0.07037604, -82899.43, -82899.43, 0.0000004773962, 9.999513, 9.999505 
7.449372e+2, 1.245795e+2, -1428838.9, -1628831.3, -61154.676, 0.008078936, 0.12005887, -1411621.0, 307513.6, 0.0, 10.002198, 9.999525 
7.449497e+2, 1.3457824e+2, -1435326.1, -1664141.9, 70642.25, -0.052442614, 0.11374357, -1415274.0, 205872.22, 0.0, 10.0018215, 9.998802 
7.449631e+2, 1.445776e+2, -1371034.1, -1573483.8, -4495.4233, 0.027157605, 0.16802475, -1370934.4, 152218.31, 0.0, 10.001558, 9.998872 
7.449745e+2, 1.5457623e+2, -1273583.0, -1476061.8, -8257.87, 0.03602916, 0.14173073, -1273246.8, 151919.86, 0.0, 10.001558, 9.998867 
7.449854e+2, 1.6457497e+2, -1184168.6, -1357943.5, -11121.429, 0.007072979, 0.1191554, -1183459.9, 143718.39, 0.0, 10.001395, 9.999083 
7.449961e+2, 1.7457381e+2, -1137061.4, -1281429.4, -14996.509, -0.03428251, 0.09170794, -1135520.1, 93667.09, 0.0, 10.001033, 9.99911 
7.4500704e+2, 1.8457277e+2, -1079599.1, -1238983.4, -29777.168, -0.0367073, 0.09369288, -1074217.8, 56978.523, 0.0, 10.000907, 9.99879 
7.450182e+2, 1.9457188e+2, -958280.3, -1129747.4, -33600.1, -0.0047653415, 0.12549695, -951931.25, 81274.086, 0.0, 10.001067, 9.99879 
7.450291e+2, 2.0457044e+2, -896285.56, -1073871.9, -20268.232, -0.00063868845, 0.113714606, -894001.7, 41217.438, 0.0, 10.000926, 9.9985695 
7.4504e+2, 2.1456833e+2, -869654.25, -1009164.25, -8869.615, -0.025843037, 0.042851057, -869092.56, -31854.08, 0.0, 10.000431, 9.998579 
7.4505067e+2, 2.2456698e+2, -771496.0, -862883.44, -31936.758, -0.03132856, 0.030681185, -761441.44, -22191.113, 0.0, 10.000224, 9.999011 
7.450613e+2, 2.3456654e+2, -651835.75, -749983.4, -46113.97, -0.014337717, 0.080955856, -633569.06, 7684.0483, 0.0, 10.000354, 9.999051 
7.45072e+2, 2.4456531e+2, -600934.06, -740753.3, -31767.766, -0.0062288027, 0.08137105, -594054.7, -50790.008, 0.0, 10.000316, 9.998459 
7.450829e+2, 2.5456312e+2, -537829.4, -660238.1, -23010.176, -0.009583247, 0.017949296, -533646.8, -88360.516, 0.0, 10.000079, 9.998452 
7.4509376e+2, 2.645618e+2, -439969.38, -507946.47, -21633.824, -0.013455867, 0.017776297, -433668.4, -86368.79, 0.0, 9.999845, 9.998939 
7.4510455e+2, 2.7456146e+2, -370991.84, -419257.4, -20767.188, -0.015738687, 0.08394244, -363286.47, -113983.27, 0.0, 9.999625, 9.9989805 
7.451154e+2, 2.8456032e+2, -302710.8, -361305.1, -17660.365, -0.01571132, 0.087098666, -297799.6, -146485.34, 0.0, 9.999531, 9.998751 
7.451264e+2, 2.945584e+2, -198072.03, -261410.97, -26248.887, -0.017435947, 0.017205924, -188608.06, -135274.7, 0.0, 9.999582, 9.998739 
7.451371e+2, 3.0455786e+2, -116953.75, -149042.42, -25846.313, -0.048536696, 0.06830268, -102576.836, -102576.836, 0.0000000015345106, 9.999597, 9.999169 
7.451486e+2, 3.1455714e+2, -93418.32, -97423.37, 5814.473, -0.0011492838, 0.07246585, -89271.195, -89271.195, 0.00000026410652, 9.999585, 9.99953 
7.549394e+2, 1.2456924e+2, -1459394.8, -1692195.1, -59284.42, 0.008711595, 0.19825365, -1445167.0, 274069.1, 0.0, 10.002196, 9.999092 
7.5495166e+2, 1.3456665e+2, -1469681.5, -1735363.1, 55211.188, -0.041592415, 0.10730681, -1458664.9, 162596.88, 0.0, 10.001821, 9.998313 
7.549649e+2, 1.4456555e+2, -1358476.6, -1547030.3, -6556.159, 0.051437322, 0.13393915, -1358249.0, 165023.53, 0.0, 10.001557, 9.999053 
7.54976e+2, 1.54565e+2, -1258103.6, -1443880.5, -7909.347, 0.023108082, 0.16838787, -1257767.5, 167510.11, 0.0, 10.001558, 9.999087 
7.549866e+2, 1.6456406e+2, -1189573.6, -1369492.5, -24396.496, -0.016476532, 0.16968861, -1186324.3, 140961.31, 0.0, 10.001395, 9.999004 
7.5499713e+2, 1.745626e+2, -1143485.6, -1295739.1, -28553.242, -0.037783343, 0.122035265, -1138307.0, 90990.6, 0.0, 10.001036, 9.999011 
7.5500804e+2, 1.8456118e+2, -1086016.5, -1251860.1, -24977.857, -0.02650074, 0.0938798, -1082336.3, 48974.21, 0.0, 10.000905, 9.998702 
7.550194e+2, 1.945598e+2, -964698.1, -1142542.3, -27464.904, 0.014442402, 0.083876796, -960553.25, 72771.016, 0.0, 10.001065, 9.998703 
7.550302e+2, 2.0455858e+2, -877529.1, -1034597.5, -38537.445, 0.016176753, 0.08620366, -868583.3, 66752.22, 0.0, 10.000924, 9.99884 
7.550404e+2, 2.1455754e+2, -849253.0, -967042.06, -27789.21, -0.025630679, 0.09546425, -843026.0, -5682.2397, 0.0, 10.000432, 9.998869 
7.550509e+2, 2.245562e+2, -793897.5, -909286.6, -28495.143, -0.031554043, 0.08424858, -787244.3, -47888.73, 0.0, 10.000223, 9.998693 
7.550618e+2, 2.345545e+2, -676597.44, -800809.2, -41125.383, 0.0051481877, 0.042443126, -664215.5, -22843.982, 0.0, 10.000352, 9.998703 
7.5507253e+2, 2.4455298e+2, -587640.2, -712552.3, -40224.906, 0.012892793, 0.024002843, -575807.6, -32421.734, 0.0, 10.000313, 9.998653 
7.5508296e+2, 2.545517e+2, -522866.2, -628860.06, -31662.27, -0.014160516, 0.028104605, -514128.4, -68730.19, 0.0, 10.000077, 9.998669 
7.5509346e+2, 2.6455075e+2, -437058.06, -501490.2, -30012.154, -0.029635403, 0.053324297, -425244.53, -77837.12, 0.0, 9.999843, 9.998984 
7.55104e+2, 2.7455017e+2, -368512.9, -413263.34, -28396.94, -0.029824063, 0.09285648, -354735.2, -105321.97, 0.0, 9.999621, 9.999023 
7.55115e+2, 2.845488e+2, -318767.9, -394257.97, -15877.33, -0.011309752, 0.0751887, -315564.47, -164137.0, 0.0, 9.999529, 9.998526 
7.551264e+2, 2.945465e+2, -215526.81, -297104.84, -23293.79, 0.025285041, -0.0055353134, -209344.08, -155893.4, 0.0, 9.999579, 9.998495 
7.55137e+2, 3.0454627e+2, -103630.85, -120568.22, -25939.416, -0.014768065, 0.08030067, -84812.69, -84812.69, 0.00000000001992495, 9.999594, 9.999367 
7.551479e+2, 3.1454572e+2, -68079.336, -41243.81, 4457.9067, -0.029293464, 0.08139126, -40522.645, -40522.645, 0.000000109993245, 9.99957, 9.999923 
7.649418e+2, 1.2455841e+2, -1436414.1, -1702237.4, -48171.48, 0.02165538, 0.20942196, -1427954.0, 291388.6, 0.0, 10.002442, 9.998906 
7.649537e+2, 1.3455564e+2, -1440726.9, -1747509.4, 67764.164, -0.034270488, 0.12298296, -1426425.4, 194945.34, 0.0, 10.002133, 9.998079 
7.649667e+2, 1.445543e+2, -1322167.3, -1524483.9, 19977.28, 0.06325767, 0.13601866, -1320213.6, 203170.13, 0.0, 10.001785, 9.999099 
7.649772e+2, 1.5455377e+2, -1263946.9, -1441078.4, 7068.514, 0.0034139953, 0.1679622, -1263665.3, 161722.39, 0.0, 10.0014925, 9.999139 
7.649877e+2, 1.6455282e+2, -1201626.0, -1385780.5, -16247.967, -0.035489384, 0.16939907, -1200203.5, 127192.12, 0.0, 10.001356, 9.998912 
7.6499856e+2, 1.7455131e+2, -1094741.6, -1283194.5, -21112.506, -0.020196926, 0.12669198, -1092405.3, 137003.38, 0.0, 10.001417, 9.998914 
7.6500934e+2, 1.8454984e+2, -1037179.06, -1231614.5, -14404.688, -0.0025780578, 0.10037079, -1036117.7, 95304.56, 0.0, 10.001254, 9.998673 
7.650203e+2, 1.945484e+2, -1002155.2, -1163726.5, -12515.695, 0.008911727, 0.08707336, -1001191.44, 32244.936, 0.0, 10.000821, 9.998675 
7.6503086e+2, 2.0454721e+2, -917566.75, -1040416.5, -29447.453, 0.0064374628, 0.08865466, -910872.9, 24574.111, 0.0, 10.000591, 9.998961 
7.6504105e+2, 2.1454634e+2, -815808.4, -936800.56, -31582.3, -0.010324063, 0.10051996, -808060.7, 29392.76, 0.0, 10.000601, 9.998995 
7.650514e+2, 2.2454499e+2, -760456.0, -913841.1, -25446.023, -0.014027256, 0.090376414, -756344.8, -16879.29, 0.0, 10.000544, 9.9985075 
7.6506215e+2, 2.3454307e+2, -683592.2, -827099.8, -27567.04, -0.00294445, 0.04808432, -678478.9, -36994.66, 0.0, 10.000402, 9.998498 
7.6507264e+2, 2.4454151e+2, -597374.0, -699909.44, -32123.07, -0.0016463731, 0.028538791, -588141.56, -44642.523, 0.0, 10.000172, 9.998809 
7.650829e+2, 2.5454038e+2, -545501.06, -620460.4, -28027.738, -0.012577715, 0.029979773, -536180.3, -90671.21, 0.0, 9.999839, 9.998841 
7.6509327e+2, 2.6453945e+2, -468150.22, -530761.0, -26527.813, -0.021492664, 0.053864103, -458422.03, -110904.04, 0.0, 9.999691, 9.998856 
7.651037e+2, 2.7453873e+2, -359161.3, -424868.53, -38987.926, -0.026016438, 0.093324654, -341030.44, -91504.46, 0.0, 9.999755, 9.9988785 
7.651146e+2, 2.8453732e+2, -287991.84, -365127.1, -20879.373, -0.010277935, 0.07627609, -282702.75, -131162.3, 0.0, 9.999679, 9.998654 
7.6512593e+2, 2.9453522e+2, -222954.25, -285021.5, -1047.4985, 0.02449452, -0.0015605709, -222936.58, -169375.08, 0.0, 9.99946, 9.998636 
7.6513654e+2, 3.0453518e+2, -141461.23, -144757.06, 5161.3003, -0.012669985, 0.10151824, -137691.16, -137691.16, 0.0, 9.999359, 9.999313 
7.651475e+2, 3.1453437e+2, -85058.15, -29696.326, 12288.239, -0.011768629, 0.079686925, -27091.371, -27091.371, 0.000000028836135, 9.999367, 10.0001 
7.749445e+2, 1.2454705e+2, -1433244.8, -1693865.0, -43897.758, 0.04071739, 0.15677838, -1426049.5, 293404.03, 0.00000000003061157, 10.002435, 9.998968 
7.749558e+2, 1.345452e+2, -1438535.5, -1742501.6, 55132.37, -0.032741502, 0.16198637, -1428844.8, 192627.98, 0.0, 10.002132, 9.998113 
7.7496845e+2, 1.4454387e+2, -1328236.3, -1538099.3, 7735.6567, 0.059228636, 0.17487004, -1327951.5, 195534.31, 0.0, 10.001788, 9.999004 
7.7497846e+2, 1.5454255e+2, -1271431.3, -1457424.0, -3723.9685, -0.02467506, 0.13834614, -1271356.8, 154140.0, 0.0, 10.001494, 9.999026 
7.7498895e+2, 1.6454124e+2, -1209855.9, -1401996.5, -15079.537, -0.05156254, 0.11704678, -1208679.6, 118828.51, 0.0, 10.001353, 9.998802 
7.7500033e+2, 1.7453997e+2, -1102009.0, -1297971.9, -18679.275, 0.01762052, 0.10650276, -1100244.4, 129275.945, 0.0, 10.001416, 9.998813 
7.75011e+2, 1.8453878e+2, -1035196.3, -1226977.6, -30308.926, 0.03352641, 0.11337313, -1030520.3, 101011.08, 0.0, 10.001251, 9.998707 
7.7502084e+2, 1.9453771e+2, -999660.6, -1158621.6, -28889.61, -0.022234617, 0.13471521, -994573.06, 38968.383, 0.0, 10.00082, 9.998712 
7.750311e+2, 2.045364e+2, -920030.4, -1044834.9, -30453.305, -0.031637743, 0.12086757, -912996.0, 22557.28, 0.0, 10.000588, 9.998932 
7.7504194e+2, 2.1453473e+2, -818524.1, -942250.56, -31409.508, 0.018975222, 0.05832576, -811007.1, 26560.086, 0.0, 10.000601, 9.998958 
7.750523e+2, 2.2453333e+2, -764730.5, -922571.56, -31094.174, 0.020253679, 0.04887843, -758825.9, -19245.977, 0.0, 10.000543, 9.998448 
7.7506214e+2, 2.3453227e+2, -687855.4, -835796.56, -32635.95, -0.03888859, 0.09699944, -680975.75, -39384.594, 0.0, 10.0004015, 9.998439 
7.750723e+2, 2.445309e+2, -589634.56, -683132.25, -44531.496, -0.050859217, 0.0938336, -571819.44, -28215.334, 0.0, 10.000169, 9.998925 
7.7508277e+2, 2.5452918e+2, -536563.25, -601867.9, -40319.285, -0.006516325, 0.022978593, -517332.8, -71713.945, 0.0, 9.999839, 9.998969 
7.7509326e+2, 2.645279e+2, -489349.06, -574989.7, -24554.568, 0.0092632715, 0.020101821, -482808.38, -135177.19, 0.0, 9.999692, 9.998551 
7.751036e+2, 2.7452716e+2, -382558.75, -473198.25, -35632.566, -0.006937294, 0.088866465, -370228.2, -120587.21, 0.0, 9.999753, 9.998548 
7.7511424e+2, 2.84526e+2, -254238.89, -294308.53, -28685.553, -0.015074091, 0.09223268, -239284.36, -87631.42, 0.0, 9.999675, 9.999142 
7.7512497e+2, 2.945245e+2, -187581.8, -209668.86, -8146.908, -0.019197466, 0.023041647, -184901.92, -131235.6, 0.0, 9.999452, 9.999158 
7.751356e+2, 3.0452463e+2, -164089.69, -190096.94, 6085.806, -0.041946102, 0.12766041, -162736.05, -162736.05, 0.0, 9.9993515, 9.999006 
7.7514744e+2, 3.1452313e+2, -90229.82, -39768.332, 11246.958, 0.041866113, 0.07488319, -37375.09, -37375.09, 0.0000000029769756, 9.999364, 10.000032 
7.84947e+2, 1.24536015e+2, -1435407.9, -1680822.1, -40425.715, 0.05209991, 0.1398125, -1428920.4, 290641.34, 0.0000000009851104, 10.002358, 9.999094 
7.849578e+2, 1.3453454e+2, -1438644.3, -1729814.6, 47169.543, -0.041752603, 0.16784851, -1431193.4, 190383.63, 0.0, 10.002077, 9.998227 
7.849702e+2, 1.4453311e+2, -1334187.4, -1549015.3, 6211.7134, 0.05706888, 0.17194456, -1334007.9, 189582.66, 0.0, 10.0017805, 9.998934 
7.849801e+2, 1.545316e+2, -1266171.5, -1463793.5, -2617.8008, -0.01239337, 0.123966604, -1266136.9, 159466.48, 0.0, 10.001569, 9.998947 
7.8499043e+2, 1.6453023e+2, -1207632.8, -1413375.6, -2843.9722, -0.041606963, 0.10474486, -1207593.5, 120022.414, 0.0, 10.001422, 9.998691 
7.850015e+2, 1.7452902e+2, -1119977.5, -1319776.9, -7508.0034, 0.0053939107, 0.113655984, -1119695.9, 109932.24, 0.0, 10.0013485, 9.998696 
7.85012e+2, 1.8452787e+2, -1035223.9, -1213725.8, -27914.771, 0.01887735, 0.12370059, -1030960.3, 100678.54, 0.0, 10.001194, 9.998826 
7.850217e+2, 1.9452678e+2, -971907.56, -1130218.9, -20556.904, -0.017579457, 0.12900357, -969281.75, 64366.227, 0.0, 10.000947, 9.998845 
7.8503186e+2, 2.045254e+2, -900543.75, -1059197.6, -11442.518, -0.021502465, 0.112039596, -899722.75, 35937.637, 0.0, 10.000825, 9.998719 
7.8504264e+2, 2.1452364e+2, -797996.94, -958557.44, -26747.135, 0.018417787, 0.06232082, -793658.44, 44018.184, 0.0, 10.0008545, 9.998724 
7.8505284e+2, 2.2452223e+2, -738301.2, -895066.9, -38278.87, 0.016197965, 0.057980534, -729453.6, 10236.196, 0.0, 10.000661, 9.998579 
7.8506243e+2, 2.3452125e+2, -705628.94, -827358.75, -25994.234, -0.038850043, 0.10060506, -700310.44, -58611.176, 0.0, 10.000208, 9.9985895 
7.850724e+2, 2.4451992e+2, -617061.1, -709670.06, -29955.938, -0.04934084, 0.0976033, -608216.1, -64504.266, 0.0, 10.000038, 9.998805 
7.850828e+2, 2.5451812e+2, -492710.44, -595865.0, -45189.97, -0.0064689484, 0.03497796, -475714.06, -29986.063, 0.0, 10.000206, 9.998833 
7.850931e+2, 2.645168e+2, -427821.44, -539761.94, -30843.81, 0.010701766, 0.032835122, -419885.44, -72144.62, 0.0, 10.00009, 9.998602 
7.851034e+2, 2.7451605e+2, -393484.3, -471882.6, -14284.403, -0.0012240596, 0.09330484, -390962.75, -141212.72, 0.0, 9.99965, 9.998607 
7.8511375e+2, 2.845149e+2, -293002.53, -309821.44, -6350.862, -0.01350546, 0.09110811, -290873.84, -139112.1, 0.0, 9.999395, 9.99917 
7.851242e+2, 2.9451337e+2, -202191.16, -214032.31, -23112.805, -0.029778339, 0.017847812, -184252.67, -130477.12, 0.0, 9.99934, 9.999181 
7.851348e+2, 3.0451345e+2, -172627.7, -206768.95, -12486.262, -0.05348349, 0.12344397, -168548.55, -168548.55, 0.0, 9.999348, 9.998894 
7.8514683e+2, 3.14512e+2, -64632.215, -9760.243, 5629.6206, 0.043245357, 0.087038085, -9188.624, -9188.624, 0.0, 9.999463, 10.000191 
7.949493e+2, 1.2452539e+2, -1422527.1, -1654945.1, -37620.223, 0.0451294, 0.16324048, -1416589.5, 303076.88, 0.0000000034592607, 10.002361, 9.999271 
7.949597e+2, 1.3452357e+2, -1424673.4, -1700726.0, 35575.992, -0.0618813, 0.13933127, -1420162.3, 201521.42, 0.0, 10.002077, 9.998427 
7.94972e+2, 1.4452209e+2, -1337974.0, -1556218.5, -3391.249, 0.05590583, 0.12674657, -1337921.4, 185776.33, 0.0, 10.001778, 9.998885 
7.949822e+2, 1.5452097e+2, -1269660.3, -1470498.9, -10208.984, 0.037073925, 0.12551877, -1269142.6, 156564.55, 0.0, 10.001568, 9.998901 
7.949922e+2, 1.645198e+2, -1215882.6, -1430299.8, -6232.2173, -0.0086483555, 0.13322239, -1215701.6, 112016.805, 0.0, 10.00142, 9.998576 
7.950023e+2, 1.7451853e+2, -1128764.8, -1338338.0, -10088.151, -0.056760363, 0.14789912, -1128280.3, 101451.555, 0.0, 10.0013485, 9.9985695 
7.950126e+2, 1.8451713e+2, -1021346.5, -1184228.6, -37474.695, -0.04785969, 0.13093859, -1013138.25, 118606.02, 0.0, 10.001191, 9.999029 
7.950231e+2, 1.945156e+2, -956414.5, -1097998.1, -30096.13, 0.020681458, 0.06929362, -950282.56, 83473.21, 0.0, 10.000947, 9.999066 
7.950333e+2, 2.0451422e+2, -928126.4, -1116152.3, -11625.899, 0.035005037, 0.06135589, -927410.25, 8357.878, 0.0, 10.000824, 9.998329 
7.9504323e+2, 2.1451305e+2, -828002.4, -1020148.0, -25652.027, -0.012084823, 0.11215929, -824636.7, 13144.764, 0.0, 10.000851, 9.998302 
7.950531e+2, 2.2451167e+2, -717178.25, -850204.44, -55021.336, -0.02731191, 0.11750674, -697370.2, 42424.676, 0.0, 10.000657, 9.998889 
7.9506296e+2, 2.3451003e+2, -681045.0, -776735.9, -43230.38, -0.004760479, 0.059735678, -664407.5, -22599.115, 0.0, 10.000209, 9.998937 
7.950729e+2, 2.4450855e+2, -641261.0, -760383.5, -25021.313, 0.0008873781, 0.040905483, -636218.75, -92396.52, 0.0, 10.00004, 9.998457 
7.950829e+2, 2.5450727e+2, -520181.7, -652325.6, -38292.3, -0.014158622, 0.066221, -509887.4, -64051.15, 0.0, 10.000203, 9.998447 
7.9509294e+2, 2.645062e+2, -400684.1, -482561.78, -46537.89, -0.018561747, 0.090799354, -379640.97, -31794.23, 0.0, 10.000086, 9.998997 
7.9510295e+2, 2.7450538e+2, -363417.53, -408752.25, -30453.902, -0.009206681, 0.102984935, -348121.1, -98267.62, 0.0, 9.999646, 9.9990425 
7.951132e+2, 2.8450397e+2, -323351.72, -372012.03, -8346.365, -0.0064045987, 0.07179737, -321959.94, -170092.8, 0.0, 9.999392, 9.998745 
7.951237e+2, 2.9450193e+2, -235273.52, -282609.8, -24005.836, -0.0140609, -0.008743929, -225230.22, -171341.94, 0.0, 9.999339, 9.998711 
7.951341e+2, 3.0450177e+2, -165534.6, -192307.53, -8902.792, -0.05385279, 0.0965529, -162844.45, -162844.45, 0.0, 9.999349, 9.998993 
7.951458e+2, 3.1450093e+2, -39207.13, 45537.113, 9169.948, -0.00692765, 0.104302555, 46518.016, 46518.016, 0.0, 9.999453, 10.000576 
8.049516e+2, 1.24514654e+2, -1421167.4, -1652954.5, -32844.547, 0.042411763, 0.16991754, -1416603.1, 303168.72, 0.0000000057252847, 10.002363, 9.999287 
8.049617e+2, 1.3451286e+2, -1458601.0, -1713017.0, 12091.433, -0.060961116, 0.14444074, -1458027.6, 163761.27, 0.0, 10.001827, 9.998464 
8.049737e+2, 1.4451128e+2, -1370040.9, -1575743.5, -17390.096, 0.061598253, 0.123978406, -1368581.1, 155222.69, 0.0, 10.001577, 9.998848 
8.049839e+2, 1.5451032e+2, -1243926.0, -1463415.9, -22881.598, 0.04199336, 0.13955581, -1241566.0, 184246.42, 0.0, 10.001766, 9.998855 
8.049937e+2, 1.6450918e+2, -1176796.1, -1403590.3, -20934.951, -0.004715152, 0.14986116, -1174879.9, 152943.33, 0.0, 10.001655, 9.998647 
8.050035e+2, 1.7450783e+2, -1147135.5, -1338645.3, -10887.217, -0.05698925, 0.15131621, -1146518.5, 83317.69, 0.0, 10.001187, 9.998645 
8.0501366e+2, 1.8450631e+2, -1051933.5, -1213748.3, -31766.805, -0.048770715, 0.12481207, -1045920.6, 85929.05, 0.0, 10.001046, 9.998897 
8.050242e+2, 1.9450459e+2, -914938.7, -1094474.4, -51510.746, 0.024418987, 0.057969496, -901209.56, 132654.14, 0.0, 10.001303, 9.998919 
8.050343e+2, 2.0450324e+2, -875362.4, -1079980.5, -41537.277, 0.03788509, 0.055576574, -867251.8, 68624.15, 0.0, 10.001141, 9.998425 
8.0504376e+2, 2.1450235e+2, -876056.56, -1030752.75, -17600.525, -0.018867545, 0.12449962, -874079.3, -36193.17, 0.0, 10.000468, 9.998413 
8.050535e+2, 2.2450095e+2, -785826.44, -895631.9, -31589.658, -0.034261856, 0.12802795, -777387.1, -37487.465, 0.0, 10.000238, 9.998778 
8.050634e+2, 2.3449896e+2, -640893.06, -771180.44, -54358.523, 0.0007958946, 0.045470577, -621192.5, 20724.629, 0.0, 10.000545, 9.998813 
8.050733e+2, 2.4449745e+2, -574379.44, -724349.5, -44524.727, 0.009591393, 0.029124381, -562156.6, -18225.096, 0.0, 10.0004835, 9.99849 
8.0508304e+2, 2.5449654e+2, -549256.56, -661651.5, -27445.713, -0.014549654, 0.08845202, -542912.7, -96970.7, 0.0, 9.999983, 9.998488 
8.0509275e+2, 2.6449555e+2, -454179.53, -500945.56, -33174.953, -0.023189116, 0.113417916, -436975.1, -89023.414, 0.0, 9.999687, 9.999063 
8.051026e+2, 2.7449438e+2, -360898.16, -400007.16, -44935.92, -0.010998382, 0.08591559, -331446.38, -81485.555, 0.0, 9.999632, 9.999109 
8.051128e+2, 2.844929e+2, -304844.97, -378566.1, -18824.176, -0.0009356755, 0.051863145, -300316.5, -148341.63, 0.0, 9.999586, 9.998606 
8.0512327e+2, 2.944911e+2, -213733.66, -288808.0, -11482.404, 0.0031411957, 0.011882201, -212016.72, -158022.56, 0.0, 9.999559, 9.998562 
8.051335e+2, 3.044907e+2, -168053.66, -201771.97, 6028.12, -0.04500107, 0.09884929, -167008.36, -167008.36, 0.0, 9.999366, 9.9989195 
8.051448e+2, 3.144895e+2, -102250.734, 31657.7, 6626.713, -0.028930278, 0.081780836, 31984.834, 31984.834, 0.0, 9.998948, 10.000724 
8.1495386e+2, 1.24503896e+2, -1432020.6, -1675049.0, -40849.066, 0.033418898, 0.16521856, -1425338.3, 294539.16, 0.000000004999778, 10.002361, 9.999135 
8.1496364e+2, 1.3450241e+2, -1468782.0, -1732130.5, -9147.155, -0.04284217, 0.1842499, -1468464.6, 153427.64, 0.0, 10.001821, 9.998334 
8.149754e+2, 1.4450078e+2, -1372080.5, -1580475.8, -12580.617, 0.070354804, 0.1658073, -1371323.8, 152584.44, 0.0, 10.001577, 9.9988165 
8.149852e+2, 1.5449964e+2, -1245653.5, -1468503.9, -14970.729, 0.0023735755, 0.1664301, -1244652.4, 181266.36, 0.0, 10.001772, 9.998818 
8.149951e+2, 1.6449836e+2, -1159139.1, -1367385.1, -37848.402, -0.031230899, 0.15405951, -1152473.6, 175456.22, 0.0, 10.001657, 9.998894 
8.150053e+2, 1.7449696e+2, -1128664.6, -1299382.1, -28525.611, 0.0012293414, 0.12254554, -1124024.4, 105916.92, 0.0, 10.0011835, 9.998916 
8.150153e+2, 1.8449546e+2, -1085105.5, -1281786.1, -23787.53, 0.013259942, 0.10498008, -1082269.4, 49685.375, 0.0, 10.001041, 9.998432 
8.150252e+2, 1.944938e+2, -950621.94, -1168390.0, -41707.64, -0.00592737, 0.09595203, -942907.25, 91063.98, 0.0, 10.001302, 9.998412 
8.150349e+2, 2.0449246e+2, -835960.94, -997664.9, -65757.45, -0.013352309, 0.09512427, -812596.44, 123387.12, 0.0, 10.001138, 9.99899 
8.1504434e+2, 2.1449155e+2, -832184.25, -939935.5, -43367.387, -0.0043022353, 0.09925489, -816898.4, 21092.234, 0.0, 10.000469, 9.999036 
8.15054e+2, 2.244901e+2, -821484.75, -970127.6, -22642.506, -0.006592254, 0.08936167, -818112.2, -78108.11, 0.0, 10.00024, 9.998266 
8.150637e+2, 2.3448804e+2, -681474.6, -854918.4, -42485.055, -0.022444231, 0.056981795, -671627.06, -29601.738, 0.0, 10.000542, 9.9982395 
8.1507343e+2, 2.4448662e+2, -547314.2, -667452.44, -61983.926, -0.023890348, 0.060886282, -521068.16, 22971.389, 0.0, 10.00048, 9.998883 
8.150831e+2, 2.5448596e+2, -517884.22, -596566.6, -46276.816, -0.008593418, 0.10138441, -496486.03, -50440.813, 0.0, 9.999983, 9.998937 
8.150926e+2, 2.6448482e+2, -472090.47, -537961.56, -35939.66, -0.004187338, 0.10227912, -456277.6, -108222.17, 0.0, 9.999686, 9.998809 
8.151022e+2, 2.744831e+2, -381582.06, -442755.34, -46149.58, -0.01096062, 0.046673656, -356803.3, -106731.87, 0.0, 9.99963, 9.9988165 
8.1511235e+2, 2.8448176e+2, -294133.34, -356831.75, -20231.24, -0.0017678179, 0.03298372, -288172.03, -136087.34, 0.0, 9.999587, 9.998755 
8.15123e+2, 2.9448092e+2, -202544.86, -265087.75, -11707.98, 0.021031862, 0.07132556, -200424.98, -146331.05, 0.0, 9.999556, 9.998728 
8.151331e+2, 3.044801e+2, -186654.48, -237862.63, -7673.1133, -0.027116682, 0.12423279, -185529.45, -185529.45, 0.0, 9.999357, 9.998675 
8.151437e+2, 3.144778e+2, -108987.71, 18669.531, -9639.962, -0.03344738, 0.01949442, 19393.383, 19393.383, 0.0000000016901937, 9.998945, 10.000635 
8.24956e+2, 1.2449302e+2, -1508138.5, -1714978.8, -38198.133, 0.03426103, 0.15624066, -1501309.6, 218674.03, 0.0000000017683296, 10.001854, 9.999104 
8.249658e+2, 1.3449168e+2, -1415562.6, -1706372.6, -8895.031, -0.02982788, 0.18838745, -1415290.8, 206706.55, 0.0, 10.002184, 9.998336 
8.249773e+2, 1.4448999e+2, -1300687.5, -1551062.0, -8772.79, 0.077501036, 0.16635345, -1300380.5, 223633.47, 0.0, 10.0020895, 9.998772 
8.2498676e+2, 1.544888e+2, -1279020.0, -1489716.1, -12854.822, -0.0118323965, 0.16788574, -1278238.6, 147786.23, 0.0, 10.001565, 9.998772 
8.2499653e+2, 1.6448744e+2, -1198423.5, -1383772.1, -42005.05, -0.043107405, 0.14962472, -1189348.4, 138688.16, 0.0, 10.001378, 9.998915 
8.250069e+2, 1.7448595e+2, -1065338.6, -1266676.3, -51132.277, 0.020285597, 0.10599871, -1053097.1, 176951.47, 0.0, 10.001609, 9.998935 
8.250168e+2, 1.8448453e+2, -1021512.5, -1248448.4, -39625.023, 0.03539945, 0.09331625, -1014792.6, 117268.91, 0.0, 10.001467, 9.998455 
8.2502615e+2, 1.9448315e+2, -1010468.25, -1194321.8, -18556.94, -0.016136365, 0.10926174, -1008613.94, 25461.727, 0.0, 10.000879, 9.998437 
8.2503563e+2, 2.0448181e+2, -905722.7, -1031426.7, -43322.023, -0.029406069, 0.1079384, -892238.75, 43849.29, 0.0, 10.00066, 9.998989 
8.2504517e+2, 2.144806e+2, -771279.7, -911051.0, -67530.92, 0.006985407, 0.081374176, -743982.9, 94115.19, 0.0, 10.000889, 9.999032 
8.2505465e+2, 2.2447918e+2, -737471.25, -921641.75, -46807.555, 0.0076619415, 0.07086213, -726257.7, 13853.538, 0.0, 10.000783, 9.998339 
8.2506394e+2, 2.3447753e+2, -716844.1, -863465.25, -19522.758, -0.036243215, 0.0738586, -714289.2, -72160.875, 0.0, 10.000262, 9.998315 
8.250734e+2, 2.4447618e+2, -617640.75, -700750.8, -31071.81, -0.044305116, 0.080767535, -607308.6, -63166.945, 0.0, 9.999994, 9.998888 
8.250831e+2, 2.5447518e+2, -509412.44, -592092.2, -48693.504, -0.008566307, 0.084638044, -486877.1, -40726.54, 0.0, 10.000039, 9.9989395 
8.250926e+2, 2.644739e+2, -438576.72, -539017.4, -48019.613, 0.005055976, 0.07677195, -419313.5, -71150.9, 0.0, 9.999991, 9.998654 
8.25102e+2, 2.7447227e+2, -365059.8, -453006.78, -49230.563, -0.0064380616, 0.047938157, -343023.3, -92844.68, 0.0, 9.999823, 9.998652 
8.251119e+2, 2.8447106e+2, -278518.03, -325908.66, -18147.53, -0.0022260423, 0.049777135, -272367.06, -120176.79, 0.0, 9.999594, 9.998964 
8.251224e+2, 2.9447046e+2, -224898.4, -249958.22, -6151.6123, 0.016160518, 0.08636542, -223469.77, -169273.45, 0.0, 9.99929, 9.998958 
8.251323e+2, 3.0446935e+2, -226494.45, -275532.06, 3987.7717, -0.029248836, 0.10602148, -226172.28, -226172.28, 0.0, 9.999162, 9.99851 
8.251428e+2, 3.1446716e+2, -75789.42, 25144.38, 3864.2278, -0.025246115, 0.031988982, 25292.105, 25292.105, 0.000000023716037, 9.999214, 10.00055 
8.3495784e+2, 1.2448209e+2, -1501691.0, -1702029.4, -16935.793, 0.033959292, 0.14601797, -1500269.5, 219820.58, 0.000000000051048894, 10.001852, 9.999195 
8.3496803e+2, 1.3448068e+2, -1403800.0, -1684123.0, 3891.7607, -0.023214007, 0.1563444, -1403746.0, 218357.67, 0.0, 10.002192, 9.998486 
8.3497936e+2, 1.4447893e+2, -1305490.8, -1562250.0, -28255.662, 0.08102246, 0.12436284, -1302418.1, 221702.55, 0.0, 10.002095, 9.998692 
8.349884e+2, 1.5447783e+2, -1285040.6, -1500540.4, -32666.469, -0.00273508, 0.14318979, -1280197.8, 145933.02, 0.0, 10.001559, 9.9987 
8.3499795e+2, 1.6447648e+2, -1212501.5, -1412563.0, -34769.22, -0.04259702, 0.13804983, -1206631.1, 121512.01, 0.0, 10.001374, 9.998719 
8.350083e+2, 1.7447487e+2, -1079777.1, -1297724.8, -41897.945, -0.00027986307, 0.10341174, -1072000.1, 158157.67, 0.0, 10.001612, 9.99872 
8.3501804e+2, 1.8447356e+2, -986395.44, -1175651.0, -60675.957, 0.016013244, 0.09039874, -968613.3, 163556.02, 0.0, 10.001468, 9.998955 
8.3502716e+2, 1.9447261e+2, -972870.06, -1115623.4, -41050.97, -0.008553236, 0.09651562, -961907.1, 72269.766, 0.0, 10.000875, 9.998979 
8.3503646e+2, 2.044713e+2, -944678.25, -1112006.8, -36908.53, -0.01211565, 0.0932212, -936898.8, -709.4087, 0.0, 10.000658, 9.998437 
8.350462e+2, 2.144695e+2, -814397.56, -1000257.94, -59084.21, 0.014223272, 0.0714523, -797205.25, 41002.848, 0.0, 10.000888, 9.998421 
8.350554e+2, 2.244682e+2, -693586.06, -830282.4, -65559.19, 0.00762113, 0.07271061, -667226.9, 72993.91, 0.0, 10.000781, 9.998966 
8.3506423e+2, 2.3446745e+2, -667607.8, -761605.25, -39505.18, -0.041513205, 0.096448064, -653209.94, -10983.898, 0.0, 10.000263, 9.999014 
8.3507335e+2, 2.4446616e+2, -643114.56, -753797.0, -31001.916, -0.052384667, 0.08993912, -635022.6, -90784.8, 0.0, 9.999994, 9.998524 
8.35083e+2, 2.5446418e+2, -539790.9, -654423.7, -46445.164, -0.016706668, 0.039518766, -523335.2, -77077.516, 0.0, 10.000036, 9.998513 
8.3509254e+2, 2.644627e+2, -443384.63, -548886.1, -53906.434, 0.0020288215, 0.03658872, -420712.94, -72439.98, 0.0, 9.9999895, 9.998588 
8.3510184e+2, 2.744618e+2, -368292.16, -459577.75, -55153.684, 0.0016173167, 0.08531181, -342344.5, -92061.85, 0.0, 9.999821, 9.99861 
8.351115e+2, 2.8446084e+2, -261084.84, -288392.47, -28701.91, -0.0021059085, 0.09992246, -242954.61, -90662.81, 0.0, 9.999588, 9.999225 
8.351214e+2, 2.9445976e+2, -206129.92, -209606.77, -16586.848, -0.014386185, 0.06344067, -191190.64, -136889.94, 0.0, 9.999286, 9.999238 
8.351312e+2, 3.0445844e+2, -232756.02, -287549.66, 5262.7144, -0.054988954, 0.04941256, -232255.14, -232255.14, 0.0, 9.999157, 9.99843 
8.351422e+2, 3.144574e+2, -81644.78, 14439.097, 5423.533, -0.010036258, 0.0998146, 14744.264, 14744.264, 0.00000010288848, 9.999207, 10.000481 
8.4496003e+2, 1.2447118e+2, -1429355.9, -1673436.5, -5104.5684, 0.04378261, 0.13524017, -1429249.1, 290946.8, 0.0, 10.002377, 9.999138 
8.4497e+2, 1.344698e+2, -1445923.1, -1704467.0, -7678.303, -0.03224348, 0.14868851, -1445695.3, 176514.48, 0.0, 10.001905, 9.998481 
8.4498113e+2, 1.4446801e+2, -1360493.1, -1579954.1, -44609.652, 0.06970406, 0.10903288, -1351771.9, 172455.14, 0.0, 10.001681, 9.998768 
8.449903e+2, 1.5446696e+2, -1242016.0, -1470370.1, -36045.945, 0.015506365, 0.12288609, -1236461.3, 189774.95, 0.0, 10.001814, 9.998784 
8.449996e+2, 1.6446567e+2, -1169742.8, -1400351.4, -22611.59, -0.022688081, 0.1223985, -1167546.6, 160701.45, 0.0, 10.001704, 9.998644 
8.4500957e+2, 1.7446412e+2, -1130300.6, -1331320.0, -20997.535, -0.015640177, 0.10351824, -1128130.8, 102132.305, 0.0, 10.001306, 9.998637 
8.450191e+2, 1.8446286e+2, -1034065.5, -1183294.1, -55322.98, -0.0052616964, 0.09366675, -1015793.2, 116481.12, 0.0, 10.001073, 9.999092 
8.450282e+2, 1.9446196e+2, -938674.8, -1082129.0, -64896.984, 0.00049719895, 0.088412575, -913673.44, 120607.54, 0.0, 10.001037, 9.999132 
8.450374e+2, 2.0446071e+2, -912501.8, -1101093.9, -46571.18, 0.0049919733, 0.085739106, -901628.4, 34664.46, 0.0, 10.000898, 9.998396 
8.450469e+2, 2.1445902e+2, -854397.06, -1025365.2, -27067.662, 0.011674887, 0.07787788, -850214.06, -11902.883, 0.0, 10.000638, 9.998368 
8.45056e+2, 2.2445776e+2, -737049.6, -838619.2, -40574.746, 0.0018591873, 0.08136557, -722831.3, 17492.178, 0.0, 10.000429, 9.999078 
8.450646e+2, 2.3445702e+2, -655714.0, -742470.7, -58576.99, -0.030301627, 0.09383912, -626202.4, 16125.754, 0.0, 10.000288, 9.999133 
8.450735e+2, 2.4445572e+2, -628744.0, -758327.7, -53957.395, -0.038675543, 0.085592516, -609218.7, -64878.633, 0.0, 10.000143, 9.998421 
8.45083e+2, 2.5445372e+2, -554391.7, -674593.8, -47112.87, -0.01810885, 0.044351663, -538126.8, -91765.71, 0.0, 9.999993, 9.998395 
8.4509236e+2, 2.6445228e+2, -461608.94, -546845.3, -40976.457, -0.004008758, 0.04651131, -445105.4, -96729.195, 0.0, 9.999818, 9.998684 
8.451016e+2, 2.7445146e+2, -389213.28, -457440.78, -32012.348, 0.0037755494, 0.096718945, -376545.22, -126161.234, 0.0, 9.999626, 9.998716 
8.451111e+2, 2.8445053e+2, -290393.03, -319185.16, -15717.868, 0.0031578988, 0.11209867, -283474.8, -131081.63, 0.0, 9.999459, 9.999074 
8.451207e+2, 2.9444924e+2, -216483.98, -232706.8, -36657.434, -0.010377116, 0.072200365, -187051.25, -132646.27, 0.0, 9.999293, 9.999075 
8.451304e+2, 3.0444768e+2, -229148.48, -258212.53, -16193.685, -0.053529, 0.033553228, -221922.4, -221922.4, 0.00000000024035085, 9.999063, 9.998676 
8.451411e+2, 3.144475e+2, -130754.79, 16369.261, 8109.157, -0.019079693, 0.13769694, 16814.871, 16814.871, 0.00000026211356, 9.998759, 10.000709 
8.5496247e+2, 1.244604e+2, -1444698.4, -1706438.3, -14967.432, 0.05148834, 0.12608421, -1443845.3, 276455.72, 0.0, 10.002381, 9.998909 
8.5497165e+2, 1.3445911e+2, -1460193.4, -1732738.9, -26310.824, -0.056627523, 0.16700448, -1457676.6, 164638.64, 0.0, 10.001901, 9.99829 
8.5498255e+2, 1.444573e+2, -1342762.8, -1542931.6, -41342.742, 0.041860245, 0.12317404, -1334560.0, 189772.77, 0.0, 10.0016775, 9.999024 
8.549924e+2, 1.5445621e+2, -1222356.3, -1431549.4, -30107.781, 0.039926376, 0.10811344, -1218109.3, 208231.36, 0.0, 10.0018215, 9.999047 
8.550017e+2, 1.64455e+2, -1167091.8, -1395713.8, -36832.324, 0.013399664, 0.102132894, -1161304.4, 167046.66, 0.0, 10.001708, 9.998673 
8.5501075e+2, 1.7445372e+2, -1128591.3, -1326986.1, -36013.36, -0.026283128, 0.10499858, -1122256.3, 108107.92, 0.0, 10.001302, 9.998669 
8.5502e+2, 1.8445246e+2, -1048974.9, -1213605.8, -57603.566, -0.02930147, 0.10290779, -1030821.4, 101554.9, 0.0, 10.00107, 9.998886 
8.550293e+2, 1.9445121e+2, -953997.6, -1114500.5, -66415.33, 0.00968408, 0.086337656, -930079.5, 104307.93, 0.0, 10.001039, 9.998909 
8.5503846e+2, 2.0445009e+2, -880157.44, -1034097.4, -56772.77, 0.020712052, 0.08597163, -861484.75, 74913.11, 0.0, 10.000898, 9.998856 
8.5504735e+2, 2.1444911e+2, -819708.25, -952912.56, -37392.742, -0.0015433773, 0.100175, -809929.3, 28477.795, 0.0, 10.000635, 9.998867 
8.550563e+2, 2.2444785e+2, -764827.0, -896053.94, -47031.35, -0.010659312, 0.097048685, -749712.06, -9293.019, 0.0, 10.000427, 9.998685 
8.550651e+2, 2.3444624e+2, -686510.8, -806687.2, -63764.457, -0.0045347787, 0.066075146, -658983.4, -16549.195, 0.0, 10.000289, 9.9986925 
8.5507405e+2, 2.4444488e+2, -619106.25, -738910.44, -59704.97, -0.005288629, 0.06673759, -594433.25, -49985.18, 0.0, 10.000145, 9.998554 
8.5508305e+2, 2.5444376e+2, -542416.2, -649906.2, -52699.207, -0.013797395, 0.097778365, -520890.13, -74429.4, 0.0, 9.999993, 9.998565 
8.550921e+2, 2.644426e+2, -443935.3, -510003.5, -48416.355, -0.013093258, 0.106588185, -418357.16, -69884.88, 0.0, 9.999817, 9.998938 
8.5510117e+2, 2.7444133e+2, -371939.06, -420787.94, -38630.83, -0.0017457425, 0.08463679, -350659.06, -100176.64, 0.0, 9.999622, 9.99897 
8.551106e+2, 2.8444013e+2, -329186.16, -399354.97, -21404.918, 0.010711516, 0.08818113, -323172.06, -170677.77, 0.0, 9.999457, 9.998525 
8.5512036e+2, 2.9443887e+2, -257853.88, -318550.03, -41709.957, 0.023118678, 0.10868269, -236619.72, -182110.44, 0.0, 9.999292, 9.998486 
8.5512966e+2, 3.0443713e+2, -190794.9, -177591.13, -26666.95, -0.028194096, 0.0544078, -156721.02, -156721.02, 0.0000000059514194, 9.999059, 9.999232 
8.5513955e+2, 3.144373e+2, -95100.44, 92250.625, -3481.517, -0.053860404, 0.13697317, 92315.3, 92315.3, 0.0000005093443, 9.998752, 10.001234 
8.6496484e+2, 1.2444977e+2, -1433947.8, -1705582.6, -12806.135, 0.047153294, 0.12177013, -1433345.3, 287060.0, 0.00000000000000000000885557, 10.002476, 9.998868 
8.649738e+2, 1.3444863e+2, -1415721.9, -1709955.6, -15579.1045, -0.046502985, 0.17746961, -1414899.3, 207518.66, 0.0, 10.0022, 9.9983015 
8.6498445e+2, 1.4444683e+2, -1307058.6, -1528049.4, -19701.611, 0.04697454, 0.13522361, -1305316.0, 219119.34, 0.0, 10.001934, 9.999003 
8.649941e+2, 1.5444568e+2, -1238590.4, -1442037.3, -31084.152, 0.037738543, 0.114561826, -1233947.1, 192497.23, 0.0, 10.001721, 9.999023 
8.650033e+2, 1.6444448e+2, -1188573.9, -1390365.1, -55398.09, 0.012826906, 0.102593616, -1174365.8, 154088.97, 0.0, 10.001491, 9.9988165 
8.6501217e+2, 1.744433e+2, -1127358.6, -1308682.6, -44887.008, -0.016246727, 0.10107342, -1116855.3, 113610.81, 0.0, 10.001233, 9.998828 
8.650211e+2, 1.844421e+2, -1050241.0, -1225262.1, -44700.246, -0.020263243, 0.102956936, -1039485.5, 92991.945, 0.0, 10.001109, 9.998787 
8.6503035e+2, 1.9444089e+2, -945215.5, -1123222.4, -45346.848, 0.0039043266, 0.099596925, -934329.25, 100160.25, 0.0, 10.001154, 9.998794 
8.650393e+2, 2.0443977e+2, -855278.44, -1003191.6, -54014.516, 0.011016898, 0.09809826, -837653.6, 98846.21, 0.0, 10.000987, 9.999025 
8.6504793e+2, 2.1443881e+2, -818983.6, -931852.6, -58848.742, -0.003079173, 0.0951466, -793882.7, 44625.207, 0.0, 10.00055, 9.999053 
8.6505663e+2, 2.2443756e+2, -782125.1, -913211.3, -57909.12, -0.007656046, 0.0872938, -760207.56, -19688.07, 0.0, 10.000347, 9.998606 
8.650655e+2, 2.3443595e+2, -671911.06, -809965.9, -49268.977, -0.0005711197, 0.0650937, -656131.56, -13595.938, 0.0, 10.000434, 9.998599 
8.6507434e+2, 2.4443465e+2, -594083.44, -722109.25, -43447.89, 0.001822415, 0.078029804, -580731.1, -36181.902, 0.0, 10.000297, 9.998596 
8.650831e+2, 2.5443378e+2, -554326.5, -650307.0, -46362.723, -0.0018763087, 0.1267447, -535589.2, -89029.28, 0.0, 9.999888, 9.998612 
8.650919e+2, 2.644326e+2, -459247.22, -505948.75, -45881.555, -0.0056562657, 0.12988871, -431116.2, -82545.164, 0.0, 9.999664, 9.999038 
8.6510074e+2, 2.744311e+2, -359889.4, -403571.13, -47643.58, -0.008802106, 0.07357084, -329319.06, -78736.53, 0.0, 9.999657, 9.999072 
8.6511004e+2, 2.8442994e+2, -327059.6, -408211.1, -24471.363, 0.0037508071, 0.076147534, -320251.4, -167657.16, 0.0, 9.999515, 9.998436 
8.651197e+2, 2.9442894e+2, -275687.97, -337876.7, -10258.825, 0.033036757, 0.13582715, -274039.38, -219432.11, 0.0, 9.999217, 9.998389 
8.651289e+2, 3.04427e+2, -196317.0, -166907.73, 7765.4443, -0.011639151, 0.059374437, -164983.23, -164983.23, 0.000000027135602, 9.998963, 9.9993515 
8.651383e+2, 3.144271e+2, -102103.43, 86838.95, -6859.101, -0.047970884, 0.1239264, 87087.625, 87087.625, 0.00000083365, 9.998711, 10.001216 
8.749671e+2, 1.24439366e+2, -1422484.5, -1681448.8, -20060.309, 0.020667369, 0.12495154, -1420939.8, 299568.66, 0.0000000055054987, 10.002473, 9.999036 
8.749764e+2, 1.3443846e+2, -1398573.5, -1675124.5, -25770.135, -0.006542179, 0.17927778, -1396192.6, 226324.7, 0.0, 10.002203, 9.998539 
8.749867e+2, 1.4443669e+2, -1329590.6, -1575810.0, -28307.201, 0.08022876, 0.14358658, -1326378.1, 198156.48, 0.0, 10.001938, 9.998673 
8.749955e+2, 1.5443538e+2, -1262433.1, -1491498.1, -38884.723, 0.0098536005, 0.1424836, -1256012.4, 170534.67, 0.0, 10.00172, 9.998684 
8.750044e+2, 1.6443408e+2, -1169415.6, -1350731.4, -65546.05, -0.02403084, 0.12579934, -1148202.5, 180356.08, 0.0, 10.001491, 9.999089 
8.750136e+2, 1.7443289e+2, -1105879.1, -1265056.8, -54594.773, 0.0115972655, 0.09296344, -1088953.9, 141614.4, 0.0, 10.001237, 9.9991255 
8.7502265e+2, 1.8443185e+2, -1049903.0, -1224697.5, -44199.246, 0.018768335, 0.094032444, -1039362.2, 93215.43, 0.0, 10.001109, 9.998792 
8.750313e+2, 1.94431e+2, -946276.5, -1124911.3, -43807.84, -0.01729086, 0.12738076, -936111.56, 98475.27, 0.0, 10.001152, 9.998783 
8.7503994e+2, 2.0442978e+2, -863797.0, -1020300.4, -70105.46, -0.024825806, 0.12191329, -836986.3, 99612.27, 0.0, 10.000984, 9.99891 
8.750486e+2, 2.1442813e+2, -826972.06, -948922.44, -75638.74, 0.0053893104, 0.06323487, -790791.75, 47821.31, 0.0, 10.000552, 9.998935 
8.7505716e+2, 2.244269e+2, -766355.8, -881230.25, -56429.79, 0.00952241, 0.05176423, -743273.75, -2649.2053, 0.0, 10.000349, 9.998825 
8.7506574e+2, 2.3442613e+2, -655383.0, -775337.44, -46047.625, -0.018245613, 0.09100969, -639745.06, 2887.226, 0.0, 10.000432, 9.998838 
8.750744e+2, 2.4442512e+2, -597423.94, -728551.94, -58305.582, -0.017801357, 0.12075095, -575248.7, -30605.459, 0.0, 10.000294, 9.998553 
8.7508315e+2, 2.544238e+2, -558748.9, -659614.06, -61257.332, 0.01576834, 0.13192153, -529834.7, -83176.375, 0.0, 9.999888, 9.9985485 
8.750918e+2, 2.644224e+2, -463351.97, -515006.72, -46293.348, 0.016518906, 0.11634151, -436168.7, -87496.555, 0.0, 9.999665, 9.998976 
8.751003e+2, 2.7442086e+2, -363729.84, -411260.3, -47042.695, -0.01997427, 0.06275209, -334790.22, -84106.05, 0.0, 9.999655, 9.999021 
8.751093e+2, 2.8441992e+2, -303081.25, -357814.38, -35288.23, -0.019521715, 0.07601326, -285791.47, -133098.55, 0.0, 9.999512, 9.998784 
8.751188e+2, 2.944195e+2, -250162.56, -284000.03, -20661.025, 0.020747261, 0.1542523, -240376.97, -185677.95, 0.0, 9.999212, 9.998761 
8.7512785e+2, 3.0441734e+2, -217862.39, -210026.23, -469.40375, -0.003375, 0.04970244, -209998.22, -209998.22, 0.00000006425192, 9.998957, 9.999058 
8.751374e+2, 3.1441683e+2, -138677.5, 11945.172, -15082.167, -0.012014936, 0.0882844, 13440.535, 13440.535, 0.0000011924308, 9.998707, 10.000703 
8.849696e+2, 1.2442941e+2, -1413475.4, -1678896.6, 5423.679, 0.022612387, 0.13678026, -1413364.6, 307242.28, 0.00000006865042, 10.002543, 9.999021 
8.849787e+2, 1.3442843e+2, -1366604.0, -1656116.6, -21767.713, -0.0017014898, 0.17983031, -1364976.4, 257639.7, 0.0, 10.002407, 9.998572 
8.8498867e+2, 1.4442661e+2, -1308651.6, -1571793.3, -26486.188, 0.07832218, 0.14204648, -1306012.1, 218621.53, 0.0, 10.002107, 9.99862 
8.849972e+2, 1.5442535e+2, -1277351.6, -1504428.1, -14860.503, 0.0090690255, 0.15080559, -1276383.3, 150262.69, 0.0, 10.001644, 9.998632 
8.8500583e+2, 1.6442409e+2, -1176427.3, -1352246.6, -28846.14, -0.022409203, 0.13852091, -1171815.5, 156841.9, 0.0, 10.001436, 9.999104 
8.850151e+2, 1.7442288e+2, -1060368.5, -1242065.1, -40084.44, 0.017783169, 0.102324516, -1051918.4, 178748.77, 0.0, 10.001544, 9.999136 
8.8502395e+2, 1.8442184e+2, -1004796.7, -1191784.6, -43277.72, 0.025241442, 0.09836422, -995266.0, 137410.22, 0.0, 10.001369, 9.998893 
8.850323e+2, 1.9442104e+2, -983899.0, -1130735.5, -34771.363, -0.018670311, 0.12638953, -976081.25, 58603.46, 0.0, 10.00084, 9.998893 
8.850407e+2, 2.0441987e+2, -915931.44, -1051752.0, -48147.25, -0.029142028, 0.12171903, -900595.3, 36100.703, 0.0, 10.000655, 9.998852 
8.8504934e+2, 2.1441822e+2, -781169.3, -934207.4, -50102.027, 0.005278019, 0.06981324, -766225.94, 72484.96, 0.0, 10.000899, 9.998868 
8.8505775e+2, 2.24417e+2, -702431.7, -841058.1, -39973.086, 0.010741053, 0.060742613, -691731.3, 48990.93, 0.0, 10.000748, 9.998908 
8.85066e+2, 2.3441632e+2, -697136.3, -785432.25, -41910.39, -0.020831278, 0.09907476, -680411.3, -37682.082, 0.0, 10.000101, 9.998929 
8.8507444e+2, 2.4441537e+2, -659826.6, -749790.8, -49328.67, -0.02083203, 0.12625836, -638050.1, -93310.8, 0.0, 9.999828, 9.9986315 
8.8508314e+2, 2.5441408e+2, -533013.8, -638297.0, -42454.543, 0.017176813, 0.13137075, -518027.56, -71273.836, 0.0, 10.000028, 9.998628 
8.8509166e+2, 2.6441264e+2, -435794.4, -516125.5, -29244.018, 0.02439624, 0.116010524, -426276.13, -77508.21, 0.0, 9.999916, 9.998847 
8.8509995e+2, 2.744111e+2, -408287.3, -448431.8, -37242.254, -0.0044811172, 0.07173909, -386052.56, -135271.02, 0.0, 9.999416, 9.998879 
8.8510877e+2, 2.8441018e+2, -340583.38, -353418.66, -29407.951, -0.0077265617, 0.09022578, -316900.97, -164111.28, 0.0, 9.999159, 9.998983 
8.8511795e+2, 2.9440996e+2, -238047.6, -253512.44, -26195.678, 0.016662192, 0.16800822, -218466.95, -163674.58, 0.0, 9.999189, 9.998981 
8.851269e+2, 3.0440775e+2, -201798.56, -200953.53, -6799.557, -0.0032261459, 0.04499791, -194563.38, -194563.38, 0.00000010587227, 9.99906, 9.999071 
8.851363e+2, 3.144073e+2, -152257.19, -17049.568, -339.81866, 0.008215682, 0.08506104, -17048.715, -17048.715, 0.0000015115112, 9.998712, 10.000501 
8.9497226e+2, 1.24419935e+2, -1429023.9, -1710832.8, 3582.7854, 0.037433032, 0.15626185, -1428978.4, 291721.78, 0.00000033535434, 10.002542, 9.998802 
8.9498085e+2, 1.3441858e+2, -1380314.3, -1684755.6, -26940.592, -0.030845337, 0.18129723, -1377948.6, 244765.08, 0.00000000007521531, 10.002408, 9.998375 
8.9499044e+2, 1.444167e+2, -1290806.6, -1536544.5, -44865.105, 0.04225479, 0.13436046, -1282871.6, 241860.16, 0.0, 10.002113, 9.998859 
8.949991e+2, 1.5441567e+2, -1259143.3, -1466956.4, -32418.074, 0.031177906, 0.13980074, -1254203.5, 172537.13, 0.0, 10.001645, 9.99889 
8.9500767e+2, 1.6441453e+2, -1194513.9, -1389881.4, -26024.607, 0.012928507, 0.13959748, -1191106.5, 137644.22, 0.0, 10.001436, 9.998846 
8.950165e+2, 1.7441328e+2, -1079980.3, -1282913.8, -35778.54, 0.0018965452, 0.12841116, -1073857.0, 156905.23, 0.0, 10.001545, 9.998856 
8.95025e+2, 1.844121e+2, -991189.8, -1163597.8, -62532.45, -0.0018570184, 0.116694726, -970897.6, 161875.25, 0.0, 10.001369, 9.999086 
8.9503324e+2, 1.9441105e+2, -967767.2, -1097773.4, -55240.613, -0.0016158384, 0.09759709, -947465.4, 87317.22, 0.0, 10.000843, 9.999119 
8.9504164e+2, 2.0441005e+2, -915931.75, -1052056.3, -41633.75, -0.003164726, 0.097667895, -904207.75, 32584.275, 0.0, 10.000655, 9.99885 
8.950501e+2, 2.1440907e+2, -782912.25, -937020.9, -41260.594, -0.0044679753, 0.11424911, -772560.6, 66240.62, 0.0, 10.0008955, 9.998851 
8.9505833e+2, 2.2440791e+2, -706449.56, -848479.8, -63102.453, -0.0059750667, 0.11441577, -682464.3, 58348.117, 0.0, 10.000744, 9.99886 
8.950662e+2, 2.3440656e+2, -700393.56, -792932.5, -66218.11, -0.009634663, 0.089432366, -665881.25, -23055.115, 0.0, 10.000105, 9.998877 
8.950744e+2, 2.4440545e+2, -646110.2, -722663.9, -43730.473, -0.008151483, 0.094102, -626271.0, -81433.625, 0.0, 9.999833, 9.998816 
8.95083e+2, 2.544046e+2, -518840.28, -608509.44, -34399.277, 0.0014440689, 0.12536004, -507164.25, -60318.273, 0.0, 10.000025, 9.998834 
8.950915e+2, 2.6440337e+2, -449420.9, -543744.8, -46866.664, 0.016157636, 0.13001467, -430094.25, -81236.07, 0.0, 9.999913, 9.998659 
8.950999e+2, 2.7440175e+2, -423434.75, -480333.75, -55416.086, 0.036557958, 0.10003448, -389592.06, -138717.45, 0.0, 9.999418, 9.99866 
8.9510834e+2, 2.844008e+2, -336582.47, -346069.44, -28151.285, 0.038022324, 0.11811162, -312777.84, -159893.47, 0.0, 9.999162, 9.999033 
8.951171e+2, 2.9440045e+2, -233151.47, -243096.88, -23296.246, 0.015569167, 0.17705794, -214303.11, -159416.02, 0.0, 9.999187, 9.999055 
8.951258e+2, 3.0439833e+2, -182392.97, -158597.05, -18847.523, -0.016174132, 0.04479725, -148206.2, -148206.2, 0.00000013409642, 9.999052, 9.999366 
8.95135e+2, 3.1439832e+2, -146976.38, -3891.4836, -13024.88, 0.011886188, 0.102026165, -2715.5063, -2715.5063, 0.0000016978646, 9.998703, 10.000595 
9.049751e+2, 1.2441072e+2, -1379304.0, -1698772.9, 18964.271, 0.04563563, 0.1674825, -1378182.3, 342609.13, 0.0000010631732, 10.002931, 9.998699 
9.049832e+2, 1.3440935e+2, -1401375.0, -1700119.1, -3166.5122, -0.026861327, 0.19482565, -1401341.4, 221463.9, 0.000000007369457, 10.002285, 9.998329 
9.0499246e+2, 1.4440742e+2, -1309813.8, -1539748.1, -14180.616, 0.04123328, 0.14387114, -1308942.5, 215881.02, 0.0, 10.00196, 9.998911 
9.05001e+2, 1.544063e+2, -1199089.5, -1432331.5, -18078.045, 0.038204756, 0.13564257, -1197696.6, 229135.88, 0.0, 10.002031, 9.998941 
9.050094e+2, 1.6440512e+2, -1139378.1, -1368987.5, -11781.273, 0.019836107, 0.13179888, -1138775.3, 190067.52, 0.0, 10.001839, 9.9987955 
9.050178e+2, 1.7440394e+2, -1114110.5, -1304916.3, -5224.952, -0.006625972, 0.13092554, -1113967.5, 116886.555, 0.0, 10.001336, 9.998804 
9.0502614e+2, 1.844028e+2, -1034308.9, -1189847.3, -31515.578, -0.013376696, 0.12585688, -1028165.75, 104699.29, 0.0, 10.0011, 9.999036 
9.050343e+2, 1.9440168e+2, -920802.6, -1081408.0, -45160.54, 0.0015853143, 0.10856042, -908974.94, 125900.56, 0.0, 10.001192, 9.999063 
9.0504247e+2, 2.0440072e+2, -859416.4, -1007481.94, -35916.832, 0.0030698692, 0.10859728, -851163.8, 85720.69, 0.0, 10.000969, 9.999005 
9.0505064e+2, 2.143999e+2, -850642.0, -951052.56, -22936.893, -0.0120962495, 0.12358036, -845650.6, -6759.063, 0.0, 10.000351, 9.999018 
9.0505874e+2, 2.2439879e+2, -798998.8, -902332.94, -37534.855, -0.012282791, 0.12365697, -786803.9, -45901.676, 0.0, 10.000149, 9.998776 
9.0506667e+2, 2.3439735e+2, -653275.2, -781225.9, -44661.848, 0.004726882, 0.100185946, -639227.94, 3689.377, 0.0, 10.000476, 9.998777 
9.0507466e+2, 2.4439618e+2, -558889.94, -673489.25, -29375.74, 0.007121695, 0.10222902, -551798.75, -6869.616, 0.0, 10.0004015, 9.998879 
9.050828e+2, 2.5439534e+2, -544200.8, -612519.4, -30445.771, -0.007859577, 0.12570152, -532602.0, -85664.984, 0.0, 9.999816, 9.998907 
9.050911e+2, 2.6439416e+2, -499274.78, -570919.1, -40098.426, 0.0035207234, 0.13180189, -481327.88, -132379.05, 0.0, 9.999585, 9.998631 
9.050996e+2, 2.7439263e+2, -369300.38, -458353.66, -36087.973, 0.047645196, 0.11483759, -356512.4, -105547.164, 0.0, 9.999807, 9.998624 
9.05108e+2, 2.8439167e+2, -266818.16, -312635.97, -9863.276, 0.05928477, 0.13739546, -264785.1, -111810.03, 0.0, 9.99964, 9.999032 
9.051163e+2, 2.943913e+2, -264916.28, -257241.03, -11122.462, 0.029849619, 0.1907857, -249312.75, -194334.83, 0.0, 9.998965, 9.9990635 
9.051247e+2, 3.043892e+2, -236872.52, -166479.36, -6610.0693, -0.0076075927, 0.05688374, -165864.03, -165864.03, 0.0000001316986, 9.998599, 9.999529 
9.051336e+2, 3.1438944e+2, -162980.06, -17341.004, -12198.897, 0.006366958, 0.120616995, -16326.279, -16326.279, 0.0000016698094, 9.998615, 10.000546 
9.1497797e+2, 1.2440183e+2, -1373225.5, -1690280.1, -5778.4565, 0.038863838, 0.17420627, -1373120.3, 347759.5, 0.0000026057617, 10.002947, 9.998751 
9.149858e+2, 1.3440076e+2, -1393291.4, -1682123.1, -28009.549, 0.005594241, 0.2199869, -1390600.1, 232290.02, 0.00000007607973, 10.00228, 9.998455 
9.149947e+2, 1.4439884e+2, -1321167.4, -1562551.8, -12759.015, 0.06940393, 0.16919127, -1320494.8, 204413.42, 0.0, 10.001956, 9.998756 
9.150029e+2, 1.5439732e+2, -1210332.4, -1456089.3, -14778.405, 0.029461918, 0.13871977, -1209446.9, 217474.06, 0.0, 10.002033, 9.998777 
9.15011e+2, 1.6439596e+2, -1127919.5, -1346950.1, -30617.314, -0.0021786443, 0.11805724, -1123720.1, 205212.55, 0.0, 10.001845, 9.998944 
9.150191e+2, 1.7439488e+2, -1101984.0, -1280103.6, -24546.813, -0.0092746485, 0.11111392, -1098663.0, 132279.25, 0.0, 10.001337, 9.998974 
9.1502726e+2, 1.843939e+2, -1054892.1, -1232476.1, -29861.451, -0.011220688, 0.1256946, -1050005.3, 82947.01, 0.0, 10.001099, 9.998744 
9.150354e+2, 1.9439298e+2, -943847.6, -1128884.6, -41791.203, -0.010582194, 0.15818821, -934846.75, 100116.375, 0.0, 10.00119, 9.998737 
9.150433e+2, 2.0439193e+2, -839134.56, -965021.4, -58418.047, -0.012757569, 0.15448017, -816202.8, 120770.17, 0.0, 10.000967, 9.999298 
9.150509e+2, 2.1439072e+2, -826611.4, -901754.94, -46863.746, -0.017934702, 0.098604664, -804117.75, 34863.773, 0.0, 10.000353, 9.999355 
9.150589e+2, 2.2438964e+2, -806841.1, -919545.8, -28183.016, -0.008256831, 0.0887915, -800186.56, -59195.25, 0.0, 10.000152, 9.998657 
9.1506726e+2, 2.3438872e+2, -663998.4, -802944.5, -32206.1, 0.020902999, 0.13108197, -656896.4, -13893.675, 0.0, 10.000473, 9.998631 
9.150752e+2, 2.4438764e+2, -563071.8, -681249.6, -49543.68, 0.022426356, 0.15064846, -545049.94, -35.58446, 0.0, 10.000398, 9.998828 
9.150826e+2, 2.5438634e+2, -547557.25, -620017.56, -52160.855, -0.0116379, 0.13270518, -520278.53, -73251.97, 0.0, 9.999819, 9.998855 
9.150905e+2, 2.64385e+2, -490114.06, -553267.8, -33010.54, -0.0134808095, 0.12133926, -476009.5, -126969.86, 0.0, 9.99959, 9.99875 
9.1509914e+2, 2.7438372e+2, -360498.1, -439299.63, -26491.871, 0.027078534, 0.11614718, -352420.0, -101366.664, 0.0, 9.999803, 9.998757 
9.1510755e+2, 2.843829e+2, -272039.78, -320752.75, -33214.684, 0.053335007, 0.14878748, -255208.25, -102146.48, 0.0, 9.99963, 9.998981 
9.151156e+2, 2.9438254e+2, -269480.7, -266081.1, -35660.184, 0.058784984, 0.2091513, -232080.22, -177015.34, 0.0, 9.998963, 9.999004 
9.151236e+2, 3.0438054e+2, -232936.11, -159062.11, -6386.8726, 0.022306604, 0.08032251, -158513.98, -158513.98, 0.00000009563079, 9.998601, 9.999579 
9.1513205e+2, 3.1438065e+2, -174029.0, -40031.004, -9412.936, -0.014695384, 0.13013767, -39373.004, -39373.004, 0.0000014046396, 9.998613, 10.000392 
9.249808e+2, 1.2439341e+2, -1415073.8, -1710899.0, 18410.281, 0.04619822, 0.18528359, -1413932.4, 307030.47, 0.0000053561066, 10.0026655, 9.998742 
9.2498845e+2, 1.3439223e+2, -1321204.8, -1643991.4, -12393.964, 0.017961368, 0.21709625, -1320729.5, 302244.66, 0.00000033393198, 10.002761, 9.998485 
9.2499703e+2, 1.443903e+2, -1240863.0, -1531980.3, 4282.8267, 0.076499894, 0.1691517, -1240800.0, 284192.22, 0.0, 10.002543, 9.998683 
9.250049e+2, 1.5438889e+2, -1226273.5, -1471672.9, 7816.9053, 0.031228388, 0.15479434, -1226024.9, 200979.5, 0.0, 10.001961, 9.998704 
9.250127e+2, 1.6438751e+2, -1164283.4, -1363833.5, -10663.562, -0.0023915553, 0.13530113, -1163715.1, 165301.23, 0.0, 10.001596, 9.998947 
9.250206e+2, 1.7438626e+2, -1077278.8, -1267839.3, -17285.43, -0.006896106, 0.11101812, -1075723.5, 155304.03, 0.0, 10.001506, 9.998978 
9.2502844e+2, 1.8438524e+2, -1026310.1, -1215157.6, -12143.438, -0.009936746, 0.121891595, -1025532.44, 107505.164, 0.0, 10.00128, 9.998775 
9.250364e+2, 1.943845e+2, -984775.75, -1144343.5, 1800.6069, -0.017365512, 0.16914055, -984755.44, 50291.063, 0.0, 10.000893, 9.998775 
9.2504406e+2, 2.0438346e+2, -881598.3, -997445.56, -17556.436, -0.018990567, 0.16957784, -878996.1, 58060.297, 0.0, 10.000729, 9.99919 
9.2505157e+2, 2.1438207e+2, -763543.9, -884767.1, -40160.215, -0.012400178, 0.104674496, -751446.4, 87621.08, 0.0, 10.000844, 9.999235 
9.250593e+2, 2.2438093e+2, -726197.75, -873288.8, -27660.129, -0.003466276, 0.09145014, -721168.3, 19909.61, 0.0, 10.000674, 9.998723 
9.250674e+2, 2.3438008e+2, -706559.25, -814702.56, -16123.643, 0.008741342, 0.13662384, -704206.5, -61118.855, 0.0, 10.000144, 9.998708 
9.2507523e+2, 2.4437903e+2, -634361.25, -722126.9, -27523.686, 0.010064968, 0.15762208, -626443.9, -81345.0, 0.0, 9.999936, 9.99877 
9.250826e+2, 2.5437766e+2, -503698.16, -606437.3, -32222.344, -0.0034387722, 0.14082366, -494428.53, -47316.258, 0.0, 10.000152, 9.998787 
9.250904e+2, 2.6437637e+2, -425300.03, -510669.97, -15473.872, -0.0049399817, 0.13016365, -422581.84, -73456.49, 0.0, 9.999986, 9.998852 
9.2509854e+2, 2.7437517e+2, -422560.22, -455999.0, -11069.097, 0.010499934, 0.124547094, -419228.1, -168090.47, 0.0, 9.999321, 9.998874 
9.251067e+2, 2.8437445e+2, -354568.06, -353128.13, -13905.504, 0.0337356, 0.15412289, -339923.97, -186778.75, 0.0, 9.999032, 9.999047 
9.2511475e+2, 2.9437408e+2, -227201.55, -238554.25, -8458.832, 0.06501697, 0.20888485, -222691.0, -167542.86, 0.0, 9.999223, 9.999069 
9.251226e+2, 3.0437225e+2, -172992.33, -129512.055, 19788.924, 0.039698064, 0.09436106, -121854.31, -121854.31, 0.00000004550982, 9.999009, 9.999587 
9.251305e+2, 3.1437248e+2, -237581.42, -90904.87, 12206.657, -0.013821499, 0.15427884, -89895.95, -89895.95, 0.0000009683944, 9.998264, 10.000211 
9.349836e+2, 1.2438547e+2, -1422199.6, -1723838.4, 21199.273, 0.05259814, 0.1950669, -1420717.0, 300323.4, 0.000009830683, 10.002658, 9.998657 
9.349911e+2, 1.3438383e+2, -1326162.9, -1655376.3, -8097.276, 0.009509352, 0.18850195, -1325963.9, 297092.47, 0.0000009955157, 10.002767, 9.998404 
9.349994e+2, 1.4438194e+2, -1238117.6, -1530234.3, -17274.838, 0.061752602, 0.14824755, -1237099.6, 287974.72, 0.00000000002439963, 10.002558, 9.998689 
9.35007e+2, 1.5438104e+2, -1225564.5, -1470195.6, -14304.024, 0.041429546, 0.18502632, -1224731.0, 202350.9, 0.0, 10.001959, 9.998716 
9.350145e+2, 1.6437979e+2, -1174804.5, -1384963.8, -15381.951, 0.016457811, 0.1832332, -1173684.6, 155408.63, 0.0, 10.001594, 9.998803 
9.350222e+2, 1.7437808e+2, -1088665.0, -1291066.0, -20562.965, -0.00092019286, 0.12984695, -1086597.0, 144512.31, 0.0, 10.001504, 9.998818 
9.3502975e+2, 1.8437688e+2, -1002683.94, -1166069.6, -26721.072, -0.0119232675, 0.115282565, -998424.8, 134695.66, 0.0, 10.001279, 9.999113 
9.3503726e+2, 1.9437633e+2, -957804.6, -1089011.3, -13258.061, -0.018954659, 0.14245857, -956478.3, 78647.04, 0.0, 10.0008955, 9.999153 
9.350448e+2, 2.0437537e+2, -916239.4, -1069954.5, -15324.149, -0.01580966, 0.15429278, -914726.56, 22407.95, 0.0, 10.0007305, 9.998692 
9.350526e+2, 2.1437393e+2, -803345.1, -966794.75, -36078.89, 0.0024475832, 0.14149836, -795735.56, 43413.44, 0.0, 10.000841, 9.998673 
9.350601e+2, 2.2437264e+2, -709880.25, -839022.06, -46785.875, -0.0004822553, 0.13156891, -694712.06, 46449.547, 0.0, 10.000672, 9.99896 
9.350672e+2, 2.3437151e+2, -686150.56, -772590.94, -36301.754, -0.031353824, 0.11784747, -672927.9, -29756.041, 0.0, 10.000145, 9.998997 
9.350748e+2, 2.443704e+2, -638462.25, -731470.5, -21383.828, -0.029412966, 0.12437972, -633781.4, -88598.83, 0.0, 9.999939, 9.998705 
9.3508303e+2, 2.5436938e+2, -510056.53, -619226.0, -23373.318, 0.014378698, 0.14932735, -505262.78, -58068.67, 0.0, 10.000149, 9.998702 
9.350907e+2, 2.6436827e+2, -420210.1, -498364.75, -38286.02, 0.026061881, 0.15717362, -404580.4, -55374.47, 0.0, 9.999979, 9.9989395 
9.350977e+2, 2.7436706e+2, -416022.3, -442124.22, -35548.254, -0.0031679338, 0.14001647, -391205.0, -139987.08, 0.0, 9.99932, 9.99897 
9.351054e+2, 2.843663e+2, -341344.78, -326669.78, -8181.519, 0.00026282508, 0.15373278, -323017.47, -169792.23, 0.0, 9.999034, 9.9992285 
9.351138e+2, 2.9436594e+2, -214281.64, -211612.84, -165.92354, 0.04577555, 0.19060557, -211602.56, -156374.9, 0.0, 9.99922, 9.999256 
9.3512166e+2, 3.043644e+2, -178146.39, -136324.58, -6025.978, 0.041082937, 0.09923542, -135473.63, -135473.63, 0.000000010385675, 9.998995, 9.999546 
9.351289e+2, 3.1436485e+2, -253649.0, -121146.28, -14266.864, 0.0034852305, 0.18473423, -119627.55, -119627.55, 0.00000050425, 9.998254, 10.000007 
9.449866e+2, 1.2437764e+2, -1343585.5, -1699429.0, 33379.574, 0.05708069, 0.18834347, -1340481.4, 380635.63, 0.000016700973, 10.003256, 9.998536 
9.449938e+2, 1.34376e+2, -1365323.3, -1684596.4, 2267.06, 0.012881603, 0.19203652, -1365307.1, 257826.42, 0.0000023433604, 10.002543, 9.998309 
9.450018e+2, 1.4437416e+2, -1295925.6, -1550927.5, -5837.915, 0.06277114, 0.15787171, -1295792.0, 229359.27, 0.0000000053592455, 10.002134, 9.99875 
9.4500905e+2, 1.5437321e+2, -1199562.4, -1449337.6, 1206.4965, 0.045161936, 0.18253471, -1199556.5, 227602.44, 0.0, 10.002104, 9.998789 
9.4501626e+2, 1.64372e+2, -1137115.8, -1372490.1, 7671.599, 0.020115655, 0.18312769, -1136866.0, 192304.1, 0.0, 10.001878, 9.998752 
9.4502354e+2, 1.7437044e+2, -1106122.9, -1305440.8, 8932.077, -0.0040129423, 0.15087055, -1105723.4, 125461.7, 0.0, 10.001412, 9.998762 
9.4503087e+2, 1.8436922e+2, -1021867.2, -1169355.4, -568.9704, -0.017302748, 0.13342856, -1021865.0, 111331.4, 0.0, 10.001123, 9.999165 
9.450382e+2, 1.9436838e+2, -930071.9, -1069357.0, -10716.819, -0.020500697, 0.12727684, -929252.2, 105950.78, 0.0, 10.001059, 9.999209 
9.4504565e+2, 2.0436735e+2, -894702.3, -1072006.9, -5611.958, -0.013694875, 0.13411844, -894524.9, 42687.727, 0.0, 10.000932, 9.99858 
9.450534e+2, 2.1436611e+2, -828613.4, -992442.06, 5671.936, 0.0071648564, 0.15248407, -828417.25, 10808.921, 0.0, 10.000727, 9.998552 
9.450607e+2, 2.2436479e+2, -731631.6, -853980.25, -7365.4785, 0.0029880244, 0.15072462, -731189.8, 10049.303, 0.0, 10.000544, 9.998919 
9.4506747e+2, 2.3436344e+2, -651702.0, -760237.0, -21992.021, -0.034130704, 0.116539344, -647415.2, -4163.894, 0.0, 10.0004, 9.998959 
9.450748e+2, 2.4436228e+2, -607358.4, -712051.1, -8105.9653, -0.037328497, 0.11632561, -606734.44, -61471.875, 0.0, 10.000134, 9.998744 
9.4508284e+2, 2.543614e+2, -571572.8, -643678.8, -934.194, 0.0031792957, 0.15129334, -571560.7, -124287.76, 0.0, 9.999705, 9.998747 
9.4509035e+2, 2.643604e+2, -488818.44, -522688.4, -18379.066, 0.018838042, 0.16599663, -480761.75, -131478.23, 0.0, 9.999471, 9.999018 
9.4509715e+2, 2.7435932e+2, -385974.88, -418556.88, -17802.615, 0.0026657346, 0.15213013, -378134.38, -126840.3, 0.0, 9.999488, 9.999051 
9.451046e+2, 2.8435853e+2, -308054.16, -311966.25, 7899.8604, 0.006394945, 0.15946743, -301871.78, -148570.2, 0.0, 9.9992695, 9.999216 
9.4511265e+2, 2.94358e+2, -285699.63, -247675.8, 983.38226, 0.036219932, 0.18027641, -247650.38, -192344.4, 0.0, 9.998738, 9.99924 
9.451202e+2, 3.043567e+2, -245288.94, -146011.36, -10808.326, 0.034368113, 0.10205596, -144848.28, -144848.28, 0.00000000032400083, 9.998436, 9.999749 
9.4512737e+2, 3.1435737e+2, -223839.9, -96939.63, -1824.4832, 0.016687473, 0.19080733, -96913.41, -96913.41, 0.00000016973306, 9.998416, 10.000095 
9.5498973e+2, 1.24370016e+2, -1351635.1, -1721455.4, 3367.1018, 0.04457483, 0.16717362, -1351604.5, 369587.38, 0.000026645826, 10.003277, 9.998376 
9.5499647e+2, 1.3436885e+2, -1373746.4, -1701697.8, -24435.695, 0.026347056, 0.22800441, -1371935.8, 251269.23, 0.00000475329, 10.002541, 9.998195 
9.5500404e+2, 1.4436702e+2, -1289179.4, -1535382.3, -8409.984, 0.07726013, 0.19718058, -1288892.5, 236330.05, 0.000000046136613, 10.002128, 9.998859 
9.550111e+2, 1.5436545e+2, -1190757.3, -1431032.1, 558.4078, 0.04142373, 0.14719337, -1190756.0, 236479.17, 0.0, 10.002104, 9.998915 
9.55018e+2, 1.643642e+2, -1133862.1, -1366660.8, -9181.927, 0.0064645116, 0.1362785, -1133500.5, 195745.63, 0.0, 10.001881, 9.998791 
9.5502484e+2, 1.7436339e+2, -1102996.8, -1299914.3, -8556.803, -0.017020782, 0.1747595, -1102625.6, 128628.77, 0.0, 10.001415, 9.9988 
9.5503193e+2, 1.8436226e+2, -1037930.4, -1203286.5, -4606.4507, -0.027373573, 0.17655662, -1037802.2, 95462.88, 0.0, 10.001125, 9.99893 
9.5503926e+2, 1.943607e+2, -948399.8, -1107062.5, -13525.685, -0.023238443, 0.12401752, -947255.06, 88023.7, 0.0, 10.001058, 9.998952 
9.550466e+2, 2.0435946e+2, -876609.75, -1034074.25, -13923.497, -0.014477804, 0.10952218, -875388.1, 61902.12, 0.0, 10.00093, 9.998842 
9.550541e+2, 2.143586e+2, -807554.56, -948553.8, -2713.9905, 0.0012357488, 0.13817291, -807502.4, 31796.297, 0.0, 10.000726, 9.998855 
9.5506126e+2, 2.2435746e+2, -753276.44, -899090.4, -13931.826, 0.0063375537, 0.14946309, -751957.25, -10647.037, 0.0, 10.000544, 9.998609 
9.550682e+2, 2.343559e+2, -676206.9, -811215.94, -27242.762, -0.002177463, 0.13185982, -670917.0, -27591.168, 0.0, 10.0004, 9.998609 
9.550751e+2, 2.4435464e+2, -598184.4, -692915.6, -23494.727, -0.016047452, 0.13225754, -592677.44, -47338.664, 0.0, 10.0001335, 9.998876 
9.550821e+2, 2.543537e+2, -560315.6, -619959.75, -16652.125, -0.036910556, 0.1479487, -555981.44, -108632.945, 0.0, 9.999703, 9.998911 
9.5508933e+2, 2.6435283e+2, -483601.38, -512272.25, -18586.443, -0.026315037, 0.15894052, -474464.28, -125106.55, 0.0, 9.999471, 9.999089 
9.5509684e+2, 2.7435195e+2, -380928.84, -408663.0, -16482.54, 0.024775064, 0.1605384, -373255.97, -121889.945, 0.0, 9.999489, 9.99912 
9.551043e+2, 2.843511e+2, -322947.03, -341454.06, -10563.901, 0.04840509, 0.16979335, -318156.9, -164782.67, 0.0, 9.999264, 9.999017 
9.551114e+2, 2.943502e+2, -301647.78, -279338.16, -17797.383, 0.03467877, 0.17631364, -269488.75, -214105.77, 0.0, 9.998733, 9.999025 
9.5511854e+2, 3.0434904e+2, -215745.06, -83404.84, -11788.349, 0.018582523, 0.10229197, -82362.99, -82362.99, 0.0, 9.99843, 10.000182 
9.5512587e+2, 3.1435e+2, -197912.11, -41975.95, -863.02057, 0.020125192, 0.17295201, -41971.17, -41971.17, 0.000000027453995, 9.99841, 10.000476 
9.649927e+2, 1.2436294e+2, -1431242.0, -1744022.4, 8573.688, 0.040486425, 0.17647327, -1431007.1, 290254.84, 0.000040247374, 10.0026655, 9.998513 
9.649992e+2, 1.3436192e+2, -1330341.5, -1661420.8, 5720.022, 0.035492763, 0.23591968, -1330242.6, 293030.13, 0.0000086557575, 10.002757, 9.998365 
9.650065e+2, 1.4436015e+2, -1225243.8, -1515074.4, 29756.412, 0.08736529, 0.20503145, -1222220.3, 303069.47, 0.00000019058375, 10.002613, 9.998763 
9.650132e+2, 1.5435837e+2, -1192648.8, -1444018.5, 19281.725, 0.037364386, 0.14449625, -1191178.3, 236126.58, 0.0, 10.002144, 9.998804 
9.6501976e+2, 1.6435704e+2, -1143196.0, -1369508.4, -2522.1338, 0.001140324, 0.13187231, -1143168.0, 186148.72, 0.0, 10.00181, 9.998804 
9.6502644e+2, 1.7435636e+2, -1066026.6, -1279159.3, -2953.7656, -0.009671581, 0.17996229, -1065985.6, 165337.98, 0.0, 10.0016575, 9.998825 
9.650333e+2, 1.8435523e+2, -1003669.7, -1203437.6, 8036.4585, -0.017005144, 0.18750416, -1003346.94, 129987.4, 0.0, 10.001433, 9.998781 
9.6504027e+2, 1.9435354e+2, -950657.2, -1125741.1, 6011.5225, -0.022347115, 0.13608351, -950451.06, 84898.734, 0.0, 10.001119, 9.998793 
9.650474e+2, 2.0435216e+2, -884317.9, -1031000.8, 2710.6055, -0.020196548, 0.116405755, -884267.8, 53094.43, 0.0, 10.000849, 9.998901 
9.6505463e+2, 2.1435124e+2, -815099.7, -944009.3, -3270.7378, -0.007835749, 0.13097009, -815016.75, 24353.986, 0.0, 10.000639, 9.998927 
9.650617e+2, 2.2435011e+2, -768749.0, -909932.1, -11583.892, 0.00042900196, 0.14136912, -767804.9, -26422.84, 0.0, 10.000451, 9.998579 
9.650685e+2, 2.3434868e+2, -694441.94, -823874.75, -2741.058, 0.002964522, 0.13944618, -694383.94, -50987.08, 0.0, 10.000291, 9.998574 
9.6507525e+2, 2.4434744e+2, -605679.06, -693163.7, 2148.4456, -0.0098848445, 0.1441749, -605626.3, -60216.85, 0.0, 10.000069, 9.998905 
9.650818e+2, 2.5434646e+2, -548430.6, -610124.2, -1349.3088, -0.042296056, 0.15077491, -548401.1, -100981.914, 0.0, 9.999769, 9.998946 
9.650888e+2, 2.643455e+2, -479513.8, -514713.84, -1962.8745, -0.03268526, 0.15402822, -479404.7, -129975.664, 0.0, 9.999519, 9.999049 
9.6509635e+2, 2.743445e+2, -407706.66, -426739.0, -8032.235, 0.031088501, 0.14921534, -404769.94, -153331.3, 0.0, 9.999328, 9.999073 
9.651035e+2, 2.8434372e+2, -341730.9, -344402.06, -8694.913, 0.056457184, 0.16101879, -334269.6, -180822.92, 0.0, 9.999108, 9.999071 
9.651101e+2, 2.9434302e+2, -279962.94, -262006.8, 2061.3977, 0.03120197, 0.18261173, -261773.19, -206320.03, 0.0, 9.998852, 9.999087 
9.65117e+2, 3.0434194e+2, -204162.67, -85923.375, 8892.563, 0.017372172, 0.11773868, -85258.32, -85258.32, 0.0, 9.998545, 10.000111 
9.6512425e+2, 3.143425e+2, -242782.47, -79868.04, -19969.879, 0.034291398, 0.15708734, -77455.87, -77455.87, 0.00000000015790982, 9.998173, 10.000331 
9.749952e+2, 1.2435641e+2, -1401129.1, -1679872.1, 7783.1235, 0.02871537, 0.2094368, -1400912.0, 320415.56, 0.000057975532, 10.002658, 9.998958 
9.75002e+2, 1.3435534e+2, -1297800.9, -1594704.6, 10495.351, 0.037958186, 0.21612126, -1297430.3, 325906.16, 0.000014441633, 10.00276, 9.998821 
9.7500914e+2, 1.4435363e+2, -1246450.1, -1559900.8, 13605.108, 0.08974876, 0.18241249, -1245860.8, 279491.4, 0.0000005546723, 10.002616, 9.998455 
9.750153e+2, 1.5435202e+2, -1217667.5, -1496255.0, 1911.3348, 0.031792346, 0.17465949, -1217654.4, 209713.11, 0.0, 10.002145, 9.998446 
9.750216e+2, 1.6435057e+2, -1143827.4, -1371107.9, -9474.935, 0.0025573573, 0.17007448, -1143433.0, 185948.16, 0.0, 10.001811, 9.998794 
9.750284e+2, 1.743494e+2, -1065432.1, -1277767.0, -8808.079, 0.016898109, 0.16697273, -1065067.4, 166324.98, 0.0, 10.001657, 9.998836 
9.7503495e+2, 1.8434817e+2, -1008423.0, -1212754.6, -4161.635, 0.011809283, 0.16625196, -1008338.3, 125065.5, 0.0, 10.0014305, 9.998719 
9.7504145e+2, 1.9434686e+2, -954917.2, -1135137.4, -6222.3154, -0.019061986, 0.16259724, -954702.6, 80713.125, 0.0, 10.001121, 9.998728 
9.750482e+2, 2.0434551e+2, -893737.94, -1051321.3, -6527.022, -0.032076724, 0.15398532, -893468.06, 43960.27, 0.0, 10.000852, 9.998761 
9.7505516e+2, 2.1434408e+2, -825330.25, -965227.25, -11608.624, -0.021143226, 0.13148378, -824373.56, 15068.336, 0.0, 10.000638, 9.998782 
9.75062e+2, 2.2434282e+2, -752473.25, -875888.1, -18511.816, -0.015836501, 0.12688254, -749756.4, -8302.392, 0.0, 10.00045, 9.998814 
9.750686e+2, 2.343418e+2, -676563.94, -786058.3, -8985.787, -0.018409297, 0.14025335, -675831.44, -32367.344, 0.0, 10.000288, 9.998835 
9.7507524e+2, 2.4434076e+2, -610529.2, -703003.1, -9252.21, -0.019044386, 0.15371385, -609612.56, -64138.203, 0.0, 10.000067, 9.998839 
9.750818e+2, 2.543397e+2, -554212.6, -622631.8, -12339.233, -0.016237933, 0.1585013, -552055.3, -104570.234, 0.0, 9.99977, 9.99886 
9.7508854e+2, 2.6433846e+2, -490411.28, -537232.94, -9002.326, -0.0032438706, 0.1490378, -488740.1, -139242.63, 0.0, 9.999519, 9.998895 
9.7509557e+2, 2.7433705e+2, -419285.3, -449988.88, -14044.376, 0.02127564, 0.11801891, -413830.3, -162318.6, 0.0, 9.999324, 9.998915 
9.751024e+2, 2.8433636e+2, -322252.6, -303085.8, -17395.977, 0.030341791, 0.13497175, -292808.16, -139289.61, 0.0, 9.9991045, 9.999357 
9.7510886e+2, 2.9433644e+2, -257696.5, -215677.2, -6609.885, 0.02189195, 0.20078063, -214661.95, -159145.53, 0.0, 9.998851, 9.999407 
9.7511566e+2, 3.043354e+2, -244248.27, -167526.34, -4556.231, 0.026635382, 0.14879175, -167256.7, -167256.7, 0.0, 9.998537, 9.999554 
9.7512263e+2, 3.1433478e+2, -290403.56, -175101.4, -31223.348, 0.054867923, 0.13125247, -167189.2, -167189.2, 0.0, 9.9981575, 9.999684 
9.8499817e+2, 1.24350026e+2, -1358924.8, -1666820.4, 34593.516, 0.046002332, 0.2112167, -1355085.9, 366303.84, 0.00008015815, 10.002978, 9.998893 
9.850046e+2, 1.343487e+2, -1323348.1, -1613816.8, 1986.8815, 0.028870516, 0.19916873, -1323334.5, 300066.7, 0.000022452736, 10.002614, 9.998761 
9.850115e+2, 1.4434703e+2, -1277820.0, -1569976.6, -8481.745, 0.07824433, 0.16986957, -1277573.9, 247842.75, 0.0000013019285, 10.002378, 9.9985 
9.850176e+2, 1.5434572e+2, -1195696.5, -1478783.4, 10387.037, 0.044117182, 0.1869835, -1195315.9, 232113.22, 0.0, 10.002267, 9.998507 
9.850237e+2, 1.643443e+2, -1122753.0, -1377554.3, 12112.27, 0.01923063, 0.18801485, -1122178.5, 207264.2, 0.0, 10.0020275, 9.998644 
9.8503e+2, 1.7434274e+2, -1080904.3, -1303519.8, -1097.8534, 0.012496474, 0.16467987, -1080898.9, 150558.75, 0.0, 10.001629, 9.998672 
9.8503625e+2, 1.8434136e+2, -1024397.8, -1219526.6, 797.8966, 0.0027596846, 0.15627275, -1024394.56, 109076.18, 0.0, 10.001316, 9.998727 
9.850427e+2, 1.9434017e+2, -953786.6, -1132253.8, 4976.028, -0.013021735, 0.16097593, -953648.0, 81833.47, 0.0, 10.001118, 9.998749 
9.850491e+2, 2.0433886e+2, -887474.0, -1056513.5, 13063.7295, -0.022852832, 0.15915681, -886470.4, 51023.24, 0.0, 10.00093, 9.998688 
9.850558e+2, 2.143374e+2, -813176.94, -968094.75, 12320.156, -0.02474257, 0.14080814, -812203.25, 27304.445, 0.0, 10.000759, 9.998704 
9.8506236e+2, 2.2433609e+2, -743198.44, -869012.44, -1450.0596, -0.025857547, 0.13408513, -743181.75, -1661.413, 0.0, 10.0005045, 9.998834 
9.8506874e+2, 2.3433499e+2, -696195.2, -792533.44, -10141.487, -0.026251124, 0.13799836, -695139.2, -51608.34, 0.0, 10.000142, 9.998861 
9.850752e+2, 2.4433394e+2, -635861.94, -713710.06, -14504.8, -0.020125248, 0.14781216, -633247.25, -87706.11, 0.0, 9.999887, 9.998852 
9.850817e+2, 2.543329e+2, -553598.06, -621289.0, -11401.122, -0.0061271135, 0.15552469, -551729.4, -104178.08, 0.0, 9.99977, 9.99887 
9.8508817e+2, 2.643317e+2, -485657.0, -533512.06, -1488.7667, 0.0069034155, 0.14771941, -485610.72, -136047.34, 0.0, 9.999546, 9.998907 
9.850948e+2, 2.7433035e+2, -439230.06, -457647.44, 4550.63, 0.017936016, 0.117071934, -438167.03, -186589.56, 0.0, 9.999181, 9.99893 
9.8510134e+2, 2.8432962e+2, -347872.7, -308186.0, 2844.3042, 0.025054894, 0.1299648, -307983.2, -154398.92, 0.0, 9.9988985, 9.999421 
9.851077e+2, 2.9432967e+2, -272748.75, -215305.3, -4101.7637, 0.02992876, 0.18742841, -215013.88, -159431.73, 0.0, 9.998715, 9.999474 
9.851142e+2, 3.0432883e+2, -259223.63, -167899.6, 2470.0605, 0.03870712, 0.14738917, -167832.83, -167832.83, 0.0, 9.998406, 9.999613 
9.8512065e+2, 3.1432834e+2, -322194.1, -188042.83, 21724.186, 0.056425046, 0.13870549, -184612.56, -184612.56, 0.0, 9.997927, 9.999707 
9.9500155e+2, 1.2434383e+2, -1400381.9, -1752743.4, 14460.788, 0.07991546, 0.17921178, -1399789.4, 321658.63, 0.00010704937, 10.002978, 9.998303 
9.9500704e+2, 1.3434209e+2, -1365022.3, -1700253.5, -10615.894, 0.007714474, 0.18513502, -1364686.4, 258780.0, 0.000032992957, 10.002613, 9.998169 
9.950136e+2, 1.443404e+2, -1249472.6, -1511155.1, -13218.406, 0.05136985, 0.16768996, -1248806.6, 276676.22, 0.0000026281716, 10.0023775, 9.998904 
9.9502015e+2, 1.5433954e+2, -1162144.8, -1409074.6, 6541.802, 0.071924806, 0.18090454, -1161971.5, 265517.7, 0.00000000019976186, 10.002266, 9.998986 
9.95026e+2, 1.6433826e+2, -1143454.5, -1419989.0, -2786.9912, 0.04890799, 0.184755, -1143426.5, 186074.45, 0.0, 10.002025, 9.998355 
9.9503124e+2, 1.743365e+2, -1104235.1, -1353032.4, -16220.649, -0.02410239, 0.17270117, -1103182.0, 128337.11, 0.0, 10.001633, 9.99833 
9.9503714e+2, 1.8433487e+2, -1018482.0, -1208207.1, -7987.393, -0.04622327, 0.15791932, -1018146.3, 115388.3, 0.0, 10.00132, 9.998803 
9.950438e+2, 1.943335e+2, -946213.6, -1116673.5, -3104.9832, -0.0049149734, 0.13280137, -946157.06, 89389.32, 0.0, 10.001118, 9.998857 
9.950504e+2, 2.0433226e+2, -888452.0, -1058149.9, 5360.479, 0.006410101, 0.1326522, -888282.8, 49274.754, 0.0, 10.000927, 9.998677 
9.950566e+2, 2.1433121e+2, -814645.1, -970826.0, 5186.4653, -0.019899514, 0.15817225, -814473.06, 25094.85, 0.0, 10.000758, 9.998686 
9.950628e+2, 2.243299e+2, -756435.9, -896471.4, -15663.868, -0.031183168, 0.16240962, -754705.2, -13124.395, 0.0, 10.000504, 9.998646 
9.950689e+2, 2.343283e+2, -709916.0, -821262.5, -23877.32, -0.0223697, 0.13230462, -705011.7, -61414.895, 0.0, 10.000142, 9.998664 
9.950751e+2, 2.4432701e+2, -630349.25, -702183.9, -19493.12, -0.015246015, 0.12578753, -625400.5, -79791.09, 0.0, 9.9998865, 9.998931 
9.9508137e+2, 2.5432616e+2, -546755.2, -606892.06, -15051.341, -0.011824795, 0.14244056, -543198.44, -95580.91, 0.0, 9.999769, 9.998969 
9.950876e+2, 2.6432526e+2, -474691.78, -510549.28, -14307.99, -0.0019660546, 0.15224065, -469682.38, -120056.06, 0.0, 9.999544, 9.999066 
9.95094e+2, 2.743243e+2, -428094.63, -433996.97, -8624.876, 0.017385786, 0.14695169, -421930.0, -170294.11, 0.0, 9.999178, 9.999095 
9.951003e+2, 2.8432345e+2, -358364.16, -328755.63, -3965.5198, 0.036199126, 0.14498697, -328233.72, -174589.69, 0.0, 9.998893, 9.999283 
9.951067e+2, 2.9432276e+2, -284183.47, -237740.52, -9018.51, 0.053439938, 0.14047466, -236050.75, -180400.55, 0.0, 9.99871, 9.999322 
9.951128e+2, 3.0432224e+2, -216492.86, -77599.63, -13158.463, 0.052205864, 0.11230705, -76364.016, -76364.016, 0.0, 9.9984, 10.000237 
9.951184e+2, 3.143232e+2, -278356.13, -94470.73, 6191.6567, 0.03378151, 0.17714149, -94262.484, -94262.484, 0.0, 9.997916, 10.000355 
1.0050044e+3, 1.2433776e+2, -1402882.6, -1753119.1, -10269.835, 0.08054823, 0.17273672, -1402581.8, 318925.53, 0.0001389771, 10.002955, 9.998315 
1.00500986e+3, 1.3433608e+2, -1341718.0, -1687267.5, 17922.068, 0.020407293, 0.18383694, -1340791.0, 282733.9, 0.000046326506, 10.002765, 9.998186 
1.0050163e+3, 1.443344e+2, -1230852.3, -1511748.8, 26524.955, 0.06439011, 0.17094113, -1228369.5, 297171.75, 0.00000474816, 10.002547, 9.998819 
1.0050223e+3, 1.5433335e+2, -1169588.8, -1423594.9, 1609.0459, 0.06286956, 0.17551616, -1169578.6, 257971.34, 0.000000004412824, 10.00226, 9.99889 
1.0050279e+3, 1.6433203e+2, -1142468.9, -1415322.0, -21778.602, 0.03573048, 0.17672384, -1140741.5, 188820.8, 0.0, 10.002012, 9.998394 
1.00503296e+3, 1.7433037e+2, -1073698.8, -1332349.1, -6433.3057, -0.021102285, 0.17091715, -1073538.9, 158039.89, 0.0, 10.001817, 9.9983835 
1.0050386e+3, 1.8432876e+2, -988003.9, -1205308.5, 13376.668, -0.04012192, 0.1593078, -987183.56, 146410.42, 0.0, 10.00158, 9.998697 
1.00504495e+3, 1.9432725e+2, -928661.25, -1121228.6, 1371.0304, -0.01199864, 0.13269386, -928651.5, 106956.055, 0.0, 10.001295, 9.998739 
1.0050512e+3, 2.0432594e+2, -880186.1, -1052350.6, 2002.4191, -0.002795695, 0.13027588, -880162.8, 57456.81, 0.0, 10.0009775, 9.9986925 
1.0050573e+3, 2.143249e+2, -832678.6, -976996.2, 4476.43, -0.01732224, 0.15365303, -832539.94, 7089.7046, 0.0, 10.000623, 9.998708 
1.00506335e+3, 2.2432363e+2, -779511.9, -911335.8, -8604.95, -0.022675132, 0.15964673, -778952.56, -37310.31, 0.0, 10.000362, 9.998611 
1.0050692e+3, 2.3432201e+2, -700407.25, -820946.75, -6326.5674, -0.016772669, 0.13397484, -700076.1, -56417.793, 0.0, 10.000226, 9.998625 
1.00507505e+3, 2.4432066e+2, -620416.4, -700143.94, -172.2888, -0.014390674, 0.12610999, -620416.0, -74744.516, 0.0, 9.999968, 9.998905 
1.005081e+3, 2.5431973e+2, -580460.06, -625202.9, -5664.729, -0.017223336, 0.13638559, -579754.0, -132073.36, 0.0, 9.999549, 9.998948 
1.00508705e+3, 2.6431888e+2, -512377.75, -515083.72, -11385.456, -0.0054127895, 0.14717877, -502265.16, -152576.42, 0.0, 9.999229, 9.999186 
1.00509316e+3, 2.743182e+2, -440838.47, -425797.84, -8327.585, 0.025884416, 0.15107934, -422097.47, -170401.94, 0.0, 9.999029, 9.999222 
1.0050993e+3, 2.8431737e+2, -377891.7, -328593.34, 1672.2806, 0.04719145, 0.14415972, -328536.7, -174833.77, 0.0, 9.998718, 9.999367 
1.0051052e+3, 2.9431653e+2, -343637.97, -256989.31, 10883.051, 0.0547973, 0.11713334, -255643.31, -199932.42, 0.0, 9.998261, 9.999405 
1.0051109e+3, 3.0431622e+2, -263114.03, -78727.48, 2739.4648, 0.04737882, 0.09791363, -78686.79, -78686.79, 0.0, 9.997987, 10.000428 
1.00511625e+3, 3.143176e+2, -261845.55, -65520.04, -11483.509, 0.026379885, 0.18835975, -64850.63, -64850.63, 0.0, 9.997941, 10.00054 
1.0150069e+3, 1.243318e+2, -1359318.4, -1660975.4, -24138.553, 0.028619174, 0.1858697, -1357399.1, 364168.8, 0.00017643356, 10.002949, 9.99895 
1.015013e+3, 1.3433075e+2, -1296844.1, -1593086.4, 11915.584, 0.0631269, 0.19464116, -1296365.6, 327210.38, 0.00006271102, 10.002761, 9.998834 
1.0150193e+3, 1.4432912e+2, -1272121.5, -1597687.5, 15816.07, 0.114742346, 0.17924553, -1271355.0, 254236.3, 0.000007860604, 10.002546, 9.99823 
1.0150241e+3, 1.5432729e+2, -1216511.0, -1521881.3, -9030.308, 0.015649788, 0.17131159, -1216244.1, 211366.52, 0.000000028517778, 10.002263, 9.998215 
1.0150293e+3, 1.6432568e+2, -1116656.9, -1362459.0, -29940.793, -0.022682497, 0.1654844, -1113062.5, 216563.69, 0.0, 10.002015, 9.998755 
1.0150352e+3, 1.7432445e+2, -1042909.44, -1268222.3, -14062.241, 0.019835645, 0.15932149, -1042035.2, 189600.72, 0.0, 10.001816, 9.998824 
1.0150408e+3, 1.8432307e+2, -1008267.1, -1247144.4, 1729.4572, 0.019809078, 0.15937501, -1008254.56, 125393.805, 0.0, 10.001578, 9.998412 
1.015046e+3, 1.943215e+2, -952107.5, -1170190.3, -9950.983, -0.035697762, 0.15935035, -951654.4, 84010.15, 0.0, 10.001295, 9.998404 
1.0150517e+3, 2.0431997e+2, -877415.6, -1046774.6, -12261.667, -0.052309006, 0.15155506, -876532.5, 61146.84, 0.0, 10.0009775, 9.998731 
1.0150579e+3, 2.1431853e+2, -828208.94, -967477.94, -9412.449, -0.018080523, 0.12841313, -827575.7, 12116.562, 0.0, 10.000622, 9.998775 
1.0150639e+3, 2.2431725e+2, -772432.8, -896137.6, -15183.957, -0.0019745138, 0.12649919, -770596.3, -28892.182, 0.0, 10.00036, 9.998717 
1.0150695e+3, 2.3431616e+2, -692734.44, -805094.56, -11495.363, -0.009703757, 0.14290234, -691570.44, -47855.41, 0.0, 10.000226, 9.9987335 
1.015075e+3, 2.4431497e+2, -629592.56, -719312.94, -15567.769, -0.017787186, 0.14963734, -626968.1, -81241.06, 0.0, 9.999967, 9.998775 
1.0150804e+3, 2.5431365e+2, -591187.9, -646963.5, -21064.916, -0.024962014, 0.13752128, -584126.25, -136385.83, 0.0, 9.999546, 9.9988 
1.01508625e+3, 2.6431262e+2, -506729.25, -502358.03, -18904.098, -0.0067902743, 0.13140355, -485513.63, -135763.03, 0.0, 9.999224, 9.999275 
1.01509236e+3, 2.7431193e+2, -432656.63, -409250.8, -14262.324, 0.04209916, 0.1280595, -402504.56, -150748.39, 0.0, 9.99903, 9.999335 
1.0150981e+3, 2.843114e+2, -358841.84, -289911.8, -13811.341, 0.05741655, 0.12747854, -287247.44, -133486.8, 0.0, 9.99872, 9.999632 
1.0151032e+3, 2.9431102e+2, -325789.03, -218334.84, -5316.7373, 0.031134145, 0.1208919, -218072.42, -162308.42, 0.0, 9.998254, 9.999675 
1.0151087e+3, 3.0431083e+2, -279348.7, -109540.734, 353.4462, 0.020677056, 0.10780314, -109540.0, -109540.0, 0.0, 9.997974, 10.000222 
1.0151142e+3, 3.1431165e+2, -279388.66, -100525.56, -10560.782, 0.028660603, 0.16584945, -99904.17, -99904.17, 0.0, 9.997935, 10.000302 
1.0250099e+3, 1.2432619e+2, -1408729.8, -1674300.3, 5839.958, 0.046654653, 0.19280595, -1408601.4, 313022.06, 0.00021988727, 10.002566, 9.999041 
1.0250157e+3, 1.3432515e+2, -1280152.8, -1576193.3, 4259.3213, 0.062003247, 0.19404507, -1280091.5, 343539.47, 0.000082442966, 10.002837, 9.998913 
1.0250218e+3, 1.4432356e+2, -1240960.8, -1593215.9, -11357.636, 0.10751553, 0.18234627, -1240595.0, 285051.0, 0.000012107546, 10.002806, 9.9981365 
1.0250264e+3, 1.5432172e+2, -1212469.6, -1531439.8, 4647.987, 0.014317791, 0.18525074, -1212401.9, 215264.13, 0.00000009714164, 10.002341, 9.998111 
1.02503136e+3, 1.6432005e+2, -1113776.8, -1360203.3, 3083.3706, -0.020017613, 0.17766257, -1113738.3, 215943.94, 0.0, 10.002032, 9.998762 
1.0250371e+3, 1.7431866e+2, -1025015.3, -1258601.9, -12962.319, 0.024774935, 0.15231486, -1024298.2, 207394.67, 0.0, 10.001933, 9.998835 
1.02504246e+3, 1.8431722e+2, -1000285.75, -1251211.5, -13995.329, 0.024540305, 0.14990115, -999507.56, 134198.1, 0.0, 10.001668, 9.998341 
1.0250472e+3, 1.9431576e+2, -971249.6, -1187886.1, -7458.9067, -0.035676807, 0.17024168, -970993.1, 64727.996, 0.0, 10.001201, 9.998327 
1.0250526e+3, 2.0431425e+2, -894510.3, -1052361.3, 3751.7861, -0.056149922, 0.16592161, -894421.2, 43314.84, 0.0, 10.00085, 9.9987545 
1.0250585e+3, 2.1431263e+2, -821350.75, -960609.94, 3714.6975, -0.025535604, 0.12305841, -821251.75, 18498.309, 0.0, 10.000654, 9.998805 
1.0250642e+3, 2.2431132e+2, -763554.75, -883375.06, -3222.8945, -0.01014949, 0.11360411, -763468.1, -21706.248, 0.0, 10.000385, 9.998792 
1.0250696e+3, 2.3431042e+2, -716810.5, -807696.3, -2359.815, -0.014578158, 0.14115869, -716749.3, -72978.555, 0.0, 10.000024, 9.998813 
1.0250748e+3, 2.4430934e+2, -665921.1, -738818.8, -6129.2925, -0.017224042, 0.15434684, -665409.3, -119627.51, 0.0, 9.999728, 9.9987545 
1.0250801e+3, 2.54308e+2, -598125.94, -653670.3, -3818.3394, -0.017222961, 0.1403713, -597864.7, -150068.78, 0.0, 9.999512, 9.998771 
1.02508545e+3, 2.6430687e+2, -504239.78, -495602.25, 2572.349, -0.001761151, 0.1275605, -494894.2, -145087.61, 0.0, 9.999217, 9.999324 
1.0250912e+3, 2.7430612e+2, -460083.1, -415570.06, 1446.9758, 0.03209673, 0.11190232, -415523.1, -163710.67, 0.0, 9.998815, 9.999394 
1.02509655e+3, 2.8430563e+2, -397034.25, -312225.78, -13078.374, 0.043455146, 0.11590091, -310254.78, -156438.42, 0.0, 9.998477, 9.999595 
1.0251015e+3, 2.9430547e+2, -332750.88, -226772.5, -27088.215, 0.02806672, 0.13532706, -220250.13, -164431.92, 0.0, 9.998229, 9.999628 
1.0251065e+3, 3.0430532e+2, -272027.22, -94895.555, -14592.567, 0.023058442, 0.123322174, -93701.43, -93701.43, 0.0, 9.997977, 10.00032 
1.02511205e+3, 3.1430578e+2, -307931.47, -104059.02, -3121.902, 0.026923493, 0.1315985, -104011.234, -104011.234, 0.0, 9.997694, 10.000395 
1.0350132e+3, 1.24321e+2, -1443442.0, -1745791.6, 8434.029, 0.119731, 0.19167073, -1443207.0, 278466.56, 0.00026982953, 10.002564, 9.99855 
1.0350182e+3, 1.3431937e+2, -1315394.8, -1648926.4, 15367.781, 0.015567059, 0.18258412, -1314688.1, 309001.0, 0.00010582585, 10.002835, 9.998415 
1.0350241e+3, 1.4431779e+2, -1213300.5, -1535516.0, -27136.375, 0.04055884, 0.18165933, -1211031.1, 314673.44, 0.000017580334, 10.002804, 9.998533 
1.03502914e+3, 1.5431674e+2, -1179907.0, -1463294.6, -12661.292, 0.05675729, 0.21681541, -1179342.5, 248372.88, 0.00000023822265, 10.002339, 9.99858 
1.03503406e+3, 1.6431518e+2, -1137907.5, -1411377.1, -2379.7676, 0.042465433, 0.212193, -1137886.8, 191843.11, 0.0, 10.002035, 9.99841 
1.0350387e+3, 1.7431301e+2, -1053684.9, -1318415.4, -16888.398, -0.0079198405, 0.14993863, -1052611.9, 179137.17, 0.0, 10.001934, 9.998424 
1.0350436e+3, 1.8431127e+2, -991045.9, -1232053.5, -31610.889, -0.028812459, 0.13239941, -986968.7, 146796.33, 0.0, 10.001667, 9.998472 
1.03504874e+3, 1.9431011e+2, -959180.06, -1162701.1, -25702.332, -0.012823121, 0.16658609, -955984.4, 79792.414, 0.0, 10.0012, 9.998501 
1.0350538e+3, 2.0430881e+2, -894160.3, -1051775.8, -5497.8154, -0.014967985, 0.17359208, -893968.8, 43820.457, 0.0, 10.000849, 9.998758 
1.03505895e+3, 2.1430725e+2, -821835.5, -961544.9, -4288.696, -0.040600765, 0.13637269, -821704.0, 18098.863, 0.0, 10.000653, 9.998799 
1.0350642e+3, 2.2430591e+2, -760332.1, -876825.3, -17465.191, -0.04834796, 0.12085097, -757770.0, -15955.01, 0.0, 10.000385, 9.998837 
1.0350693e+3, 2.3430486e+2, -713619.3, -800994.6, -16128.732, -0.032496475, 0.12897995, -710737.2, -66912.12, 0.0, 10.000022, 9.998859 
1.0350746e+3, 2.4430381e+2, -660236.6, -726238.75, -14760.597, -0.014971383, 0.13930658, -657086.0, -111250.43, 0.0, 9.999724, 9.998843 
1.0350798e+3, 2.5430274e+2, -591315.9, -640146.6, -11223.025, 0.0044250158, 0.14406297, -588860.0, -141013.19, 0.0, 9.999514, 9.998862 
1.0350849e+3, 2.6430172e+2, -504516.66, -496974.47, -11674.188, 0.009059281, 0.13638046, -488477.38, -138620.95, 0.0, 9.99922, 9.999314 
1.0350896e+3, 2.743008e+2, -462298.2, -418865.7, -13136.27, -0.005383296, 0.10553882, -415201.7, -163337.75, 0.0, 9.998807, 9.999375 
1.0350946e+3, 2.8430018e+2, -419905.22, -357219.7, -22442.766, 0.0030662217, 0.11073215, -350013.2, -196143.36, 0.0, 9.9984665, 9.999291 
1.03509985e+3, 2.9429996e+2, -354064.9, -271997.44, -34114.434, 0.04195088, 0.15618378, -259668.63, -203795.27, 0.0, 9.998233, 9.999315 
1.03510484e+3, 3.0429977e+2, -245718.81, -42375.008, -22909.627, 0.051270813, 0.14026077, -39825.86, -39825.86, 0.0, 9.997985, 10.000678 
1.0351096e+3, 3.1430003e+2, -281855.88, -48483.76, -11422.7705, 0.018620845, 0.0879881, -47925.99, -47925.99, 0.0, 9.997686, 10.000781 
1.0450162e+3, 1.2431604e+2, -1338797.6, -1711085.3, 2163.8743, 0.1374799, 0.20436472, -1338785.0, 382937.28, 0.00032683904, 10.003349, 9.998411 
1.04502074e+3, 1.343141e+2, -1356130.4, -1684740.9, 42798.94, 0.0067975945, 0.1802227, -1350647.6, 273093.72, 0.00013321284, 10.002624, 9.998271 
1.0450265e+3, 1.443125e+2, -1276625.8, -1557911.4, 8439.564, 0.028791528, 0.18138097, -1276372.8, 249384.33, 0.000024406861, 10.002336, 9.998605 
1.0450316e+3, 1.5431167e+2, -1139285.5, -1434656.5, -7098.033, 0.06412402, 0.2293407, -1139115.0, 288650.66, 0.0000004785213, 10.002577, 9.998662 
1.0450364e+3, 1.6431019e+2, -1083742.3, -1395009.4, -10516.551, 0.05351725, 0.23010725, -1083387.4, 246392.23, 0.0, 10.002449, 9.9983225 
1.0450406e+3, 1.7430787e+2, -1070810.4, -1337299.1, -3051.6926, -0.015992949, 0.16525301, -1070775.4, 161024.72, 0.0, 10.001863, 9.998328 
1.045045e+3, 1.84306e+2, -1016471.2, -1243418.8, -6803.3496, -0.04052152, 0.13931182, -1016267.44, 117549.836, 0.0, 10.001491, 9.998478 
1.04505e+3, 1.943047e+2, -928575.5, -1146582.1, -12762.88, -0.007921539, 0.15764831, -927830.9, 107999.17, 0.0, 10.001405, 9.998512 
1.04505494e+3, 2.0430338e+2, -856187.44, -1036336.2, -2387.5203, -0.0043810937, 0.16435827, -856155.75, 81686.69, 0.0, 10.001123, 9.998732 
1.0450597e+3, 2.14302e+2, -831783.25, -969543.1, -3702.3916, -0.038947873, 0.14845045, -831683.9, 8170.576, 0.0, 10.0006, 9.99877 
1.0450645e+3, 2.2430068e+2, -784853.75, -884124.25, -15687.35, -0.053629216, 0.13602005, -782433.75, -40567.496, 0.0, 10.000197, 9.998878 
1.04506925e+3, 2.3429948e+2, -720116.75, -799250.94, -15697.022, -0.042817082, 0.12262845, -717116.8, -73239.06, 0.0, 9.999956, 9.998903 
1.04507424e+3, 2.4429841e+2, -657888.25, -713088.44, -11971.156, -0.027474063, 0.12488813, -655403.9, -109515.8, 0.0, 9.999687, 9.99895 
1.0450791e+3, 2.5429758e+2, -602474.3, -632277.06, -7461.89, -0.006532792, 0.14066212, -600710.44, -152813.77, 0.0, 9.999382, 9.998979 
1.04508385e+3, 2.6429665e+2, -533143.75, -520930.8, -13706.336, 0.0031115902, 0.14094019, -512032.2, -162126.77, 0.0, 9.999068, 9.999222 
1.0450884e+3, 2.7429566e+2, -478935.72, -439426.63, -22190.895, -0.0015495312, 0.112229735, -429471.28, -177556.84, 0.0, 9.998747, 9.999264 
1.0450932e+3, 2.8429493e+2, -417004.6, -351992.8, -18093.654, 0.0097315665, 0.111197405, -347296.38, -193374.94, 0.0, 9.998469, 9.999325 
1.045098e+3, 2.942946e+2, -350823.25, -264923.84, -5191.449, 0.042511735, 0.14128618, -264611.25, -208685.83, 0.0, 9.998232, 9.999364 
1.0451028e+3, 3.042944e+2, -256286.86, -53030.57, 2353.766, 0.0516262, 0.12513286, -53003.316, -53003.316, 0.0, 9.997937, 10.0006275 
1.0451073e+3, 3.142947e+2, -301221.94, -65257.74, -19176.719, 0.026745616, 0.08484123, -63709.414, -63709.414, 0.0, 9.997586, 10.000712 
1.0550192e+3, 1.2431133e+2, -1323738.8, -1678985.9, -31702.057, 0.08444528, 0.22754934, -1320931.8, 400837.78, 0.00039134276, 10.0033455, 9.998633 
1.0550237e+3, 1.3430944e+2, -1340366.3, -1652206.1, 16597.291, 0.03413667, 0.18780199, -1339485.4, 284301.25, 0.00016489324, 10.0026245, 9.998494 
1.0550292e+3, 1.4430779e+2, -1294409.0, -1596258.5, 14977.502, 0.07041546, 0.18226781, -1293667.6, 232135.28, 0.000032768054, 10.00234, 9.99834 
1.05503395e+3, 1.5430658e+2, -1161091.9, -1478841.3, 2041.147, 0.034635875, 0.22354124, -1161078.8, 266737.47, 0.0000008393984, 10.002572, 9.998362 
1.0550384e+3, 1.643051e+2, -1072409.5, -1370811.9, -31248.479, 0.010122685, 0.2335714, -1069172.3, 260658.27, 0.0, 10.002446, 9.99849 
1.0550426e+3, 1.743033e+2, -1056331.8, -1307371.6, -25445.195, -0.0001835109, 0.19857801, -1053778.6, 178066.9, 0.0, 10.0018635, 9.998533 
1.05504684e+3, 1.8430145e+2, -1024451.94, -1260788.9, -12327.921, -0.011115863, 0.1700508, -1023810.6, 110051.36, 0.0, 10.001493, 9.998359 
1.05505124e+3, 1.9429956e+2, -938811.56, -1167524.4, -16536.66, -0.022475906, 0.14259341, -937622.1, 98258.44, 0.0, 10.001403, 9.998369 
1.0550558e+3, 2.0429803e+2, -860663.8, -1045531.4, -22078.979, -0.026861904, 0.13888879, -858063.5, 79831.55, 0.0, 10.001122, 9.99867 
1.0550604e+3, 2.1429697e+2, -835798.4, -978004.5, -23945.684, -0.021875154, 0.15983813, -831874.5, 8029.6816, 0.0, 10.0006, 9.998712 
1.0550648e+3, 2.2429575e+2, -782614.25, -879825.3, -26402.293, -0.027611054, 0.15884179, -775906.3, -33991.15, 0.0, 10.000198, 9.998907 
1.0550692e+3, 2.3429433e+2, -717165.9, -793576.5, -24946.447, -0.046801586, 0.121564396, -709742.56, -65814.03, 0.0, 9.999958, 9.998941 
1.0550736e+3, 2.4429323e+2, -648896.94, -694819.4, -23538.357, -0.055487983, 0.11184178, -638975.44, -93036.56, 0.0, 9.999688, 9.999076 
1.0550781e+3, 2.5429255e+2, -593538.3, -613221.8, -18615.559, -0.05031822, 0.13136423, -582323.0, -134377.8, 0.0, 9.999378, 9.999112 
1.05508275e+3, 2.642917e+2, -545293.7, -544966.44, -25601.105, -0.020787656, 0.14047176, -519528.44, -169575.13, 0.0, 9.999063, 9.99906 
1.0550875e+3, 2.742907e+2, -491280.78, -465747.13, -33001.69, 0.039430447, 0.12905748, -443128.88, -191165.19, 0.0, 9.998749, 9.999082 
1.0550921e+3, 2.8428993e+2, -393131.56, -303511.9, -26037.031, 0.059621878, 0.11585832, -296496.56, -142525.6, 0.0, 9.998472, 9.999657 
1.0550962e+3, 2.9428947e+2, -326127.7, -212130.1, -13012.094, 0.029449796, 0.095160626, -210663.72, -154689.77, 0.0, 9.998223, 9.999731 
1.0551005e+3, 3.0428928e+2, -287840.38, -115703.54, -10450.673, 0.023625158, 0.08213511, -115071.38, -115071.38, 0.0, 9.997925, 10.000203 
1.0551051e+3, 3.142899e+2, -333311.4, -133625.38, -29812.473, 0.043990485, 0.1203066, -129269.484, -129269.484, 0.0, 9.997594, 10.000239 
1.065022e+3, 1.2430666e+2, -1374462.0, -1704926.4, -28837.234, 0.05861754, 0.23172237, -1371964.4, 349851.5, 0.00046328275, 10.003006, 9.998618 
1.06502675e+3, 1.343048e+2, -1267813.6, -1620515.5, 6715.951, 0.049908996, 0.19801034, -1267685.8, 356146.8, 0.00020096678, 10.003136, 9.9984665 
1.0650321e+3, 1.443031e+2, -1212051.1, -1566472.3, 5347.095, 0.09517755, 0.19281466, -1211970.5, 313878.78, 0.000042859534, 10.00295, 9.99825 
1.0650363e+3, 1.5430167e+2, -1203070.8, -1509221.8, 7051.325, 0.020307746, 0.22071934, -1202908.4, 224956.42, 0.0000013547858, 10.00233, 9.998268 
1.0650404e+3, 1.6430014e+2, -1134671.4, -1393290.9, -23591.758, -0.013073784, 0.22800277, -1132536.9, 197342.64, 0.0, 10.001988, 9.998555 
1.06504455e+3, 1.7429851e+2, -1028614.56, -1285793.3, -27869.068, 0.006483018, 0.2031104, -1025629.2, 206263.69, 0.0, 10.002018, 9.998607 
1.0650486e+3, 1.8429674e+2, -981411.0, -1246828.5, -17758.256, 0.003990791, 0.18167396, -980228.1, 153680.52, 0.0, 10.001819, 9.998297 
1.0650526e+3, 1.9429483e+2, -953633.4, -1182586.3, -17341.07, -0.028371403, 0.15864809, -952327.44, 83600.164, 0.0, 10.001336, 9.998298 
1.0650568e+3, 2.0429322e+2, -884335.44, -1053104.6, -20306.395, -0.037727937, 0.14988296, -881926.56, 56016.11, 0.0, 10.000943, 9.998703 
1.065061e+3, 2.1429202e+2, -821775.1, -966541.5, -15635.731, -0.017142192, 0.15342394, -820105.6, 19847.021, 0.0, 10.000675, 9.998754 
1.0650652e+3, 2.2429077e+2, -764941.2, -878656.6, -14157.615, -0.018117642, 0.14885287, -763205.06, -21241.156, 0.0, 10.000351, 9.99884 
1.0650691e+3, 2.3428942e+2, -721869.06, -803796.3, -21193.61, -0.047145046, 0.12672465, -716711.25, -72734.336, 0.0, 9.99996, 9.99887 
1.0650731e+3, 2.4428837e+2, -658948.8, -690358.3, -26243.604, -0.06111036, 0.12218771, -644069.8, -98082.96, 0.0, 9.99958, 9.999159 
1.06507726e+3, 2.542877e+2, -610376.7, -610998.44, -25248.512, -0.05551856, 0.13254339, -585437.1, -137444.42, 0.0, 9.999218, 9.999205 
1.06508166e+3, 2.642869e+2, -561235.9, -547534.1, -23652.643, -0.024004037, 0.13522986, -529760.2, -179759.58, 0.0, 9.99893, 9.999106 
1.0650863e+3, 2.7428588e+2, -490796.63, -460216.94, -14896.011, 0.04069163, 0.12294438, -454160.34, -202149.55, 0.0, 9.998731, 9.999128 
1.0650906e+3, 2.842852e+2, -394278.0, -299117.94, -10945.536, 0.06303611, 0.11418755, -297875.2, -143857.94, 0.0, 9.998445, 9.9997 
1.0650944e+3, 2.9428488e+2, -346526.16, -217422.95, -22067.752, 0.03121456, 0.102941275, -213755.1, -157736.42, 0.0, 9.998064, 9.99977 
1.0650984e+3, 3.0428466e+2, -303960.94, -126837.445, -14050.694, 0.02556732, 0.08535462, -125729.766, -125729.766, 0.0, 9.9978285, 10.000173 
1.0651028e+3, 3.142852e+2, -314735.25, -128117.12, -3825.4294, 0.04998915, 0.11888812, -128038.734, -128038.734, 0.0, 9.997738, 10.000207 
1.0750249e+3, 1.2430211e+2, -1394140.6, -1744238.1, -31410.848, 0.04674425, 0.2173374, -1391344.8, 330515.66, 0.000542142, 10.003001, 9.99835 
1.0750299e+3, 1.3430025e+2, -1288909.8, -1662134.4, 12519.674, 0.05240582, 0.21078274, -1288490.3, 335388.2, 0.00024133897, 10.003127, 9.998184 
1.0750352e+3, 1.4429851e+2, -1206860.8, -1554783.0, -16190.013, 0.100019045, 0.21329695, -1206109.0, 319786.7, 0.0000548195, 10.002944, 9.998333 
1.07503854e+3, 1.5429698e+2, -1194863.5, -1493080.3, -16126.298, 0.020164734, 0.22183006, -1193994.0, 233916.86, 0.000002073113, 10.002333, 9.998378 
1.0750423e+3, 1.6429535e+2, -1136821.5, -1398714.0, -24723.596, -0.017206796, 0.21378963, -1134507.9, 195418.36, 0.0000000000166348, 10.001992, 9.998516 
1.0750465e+3, 1.7429356e+2, -1032674.06, -1293469.3, -26713.5, 0.0025296176, 0.17892602, -1029965.9, 201975.75, 0.0, 10.002015, 9.998555 
1.0750504e+3, 1.8429194e+2, -982700.56, -1248926.8, -35568.223, 0.0015704267, 0.17530182, -978030.5, 155926.03, 0.0, 10.001815, 9.998284 
1.07505396e+3, 1.9429056e+2, -954414.7, -1184341.8, -36006.203, -0.026319813, 0.20613271, -948908.06, 87062.58, 0.0, 10.001336, 9.998286 
1.07505776e+3, 2.04289e+2, -875105.8, -1034762.1, -32066.232, -0.037507083, 0.19711404, -868906.2, 69078.73, 0.0, 10.000946, 9.998829 
1.0750616e+3, 2.1428724e+2, -812247.2, -946719.75, -26437.094, -0.026040561, 0.12913185, -807236.4, 32762.928, 0.0, 10.000674, 9.998891 
1.0750656e+3, 2.242858e+2, -775748.6, -901180.1, -29548.178, -0.026896726, 0.10695341, -769136.44, -27124.412, 0.0, 10.000351, 9.998687 
1.0750691e+3, 2.3428482e+2, -734275.9, -829870.56, -35787.07, -0.04452523, 0.13833676, -722363.06, -78340.53, 0.0, 9.999961, 9.998692 
1.0750729e+3, 2.442839e+2, -656252.56, -685081.06, -39973.906, -0.04597355, 0.15499458, -628173.5, -82141.89, 0.0, 9.999581, 9.999195 
1.07507676e+3, 2.5428304e+2, -606412.5, -603185.1, -38344.84, -0.025481101, 0.14336476, -566420.06, -118381.17, 0.0, 9.999219, 9.999258 
1.0750808e+3, 2.6428217e+2, -543917.25, -512002.28, -30983.398, -0.008758593, 0.1256031, -493108.5, -143061.6, 0.0, 9.998931, 9.99935 
1.0750847e+3, 2.742813e+2, -473161.1, -422753.06, -21522.764, 0.002995612, 0.09546472, -414813.88, -162758.38, 0.0, 9.998726, 9.999389 
1.0750886e+3, 2.842808e+2, -411267.53, -332717.63, -24639.857, 0.020164045, 0.106205784, -325628.3, -171568.27, 0.0, 9.998437, 9.999473 
1.07509255e+3, 2.9428086e+2, -364513.1, -255512.45, -34643.395, 0.044100393, 0.16015026, -245433.75, -189374.23, 0.0, 9.998067, 9.999508 
1.0750966e+3, 3.0428055e+2, -280225.03, -78987.56, -16303.249, 0.05372177, 0.13125649, -77675.31, -77675.31, 0.0, 9.997834, 10.000499 
1.07510045e+3, 3.1428066e+2, -288842.1, -73459.01, -5576.9165, 0.04314496, 0.08820799, -73314.7, -73314.7, 0.0, 9.997732, 10.000586 
1.0850282e+3, 1.24297805e+2, -1353833.6, -1730938.8, -34661.992, 0.060253948, 0.22199221, -1350674.1, 371229.1, 0.0006273791, 10.003305, 9.998294 
1.0850328e+3, 1.3429591e+2, -1299398.3, -1673708.6, 34151.535, 0.040867057, 0.21721481, -1296307.9, 327613.97, 0.0002858709, 10.003084, 9.998125 
1.0850378e+3, 1.4429416e+2, -1219399.3, -1556467.5, -298.77835, 0.08374284, 0.22053458, -1219398.9, 306540.0, 0.00006870092, 10.002842, 9.998369 
1.0850412e+3, 1.5429261e+2, -1161058.9, -1472520.0, -7900.3657, 0.027580012, 0.22286484, -1160858.6, 267095.13, 0.0000030594845, 10.002547, 9.998415 
1.0850446e+3, 1.6429093e+2, -1107736.5, -1393171.8, -9858.897, -0.0057274513, 0.21290253, -1107396.4, 222573.02, 0.000000000186287, 10.002229, 9.998441 
1.0850483e+3, 1.7428912e+2, -1057713.3, -1314561.5, -14325.575, -0.008649737, 0.1829265, -1056916.8, 175069.13, 0.0, 10.001884, 9.998472 
1.085052e+3, 1.8428753e+2, -1006884.1, -1247327.8, -25910.375, -0.012702385, 0.180068, -1004123.7, 129876.96, 0.0, 10.001594, 9.998402 
1.0850554e+3, 1.9428621e+2, -938879.75, -1162139.5, -16393.96, -0.018725062, 0.20501173, -937682.4, 98330.93, 0.0, 10.00138, 9.998417 
1.0850588e+3, 2.0428468e+2, -858864.6, -1035815.1, -12260.109, -0.025392074, 0.19508897, -858019.25, 80007.914, 0.0, 10.001097, 9.998749 
1.08506225e+3, 2.1428287e+2, -810668.75, -956606.8, -24315.107, -0.033249214, 0.1333665, -806724.2, 33318.438, 0.0, 10.000732, 9.9987955 
1.0850658e+3, 2.2428146e+2, -771456.75, -887405.75, -31096.127, -0.036057726, 0.11408005, -763643.6, -21588.541, 0.0, 10.00033, 9.998792 
1.0850692e+3, 2.342806e+2, -737290.2, -817841.94, -16923.08, -0.033156306, 0.14378041, -733879.25, -89815.52, 0.0, 9.999882, 9.998812 
1.0850726e+3, 2.4427962e+2, -670469.7, -703186.06, -9470.013, -0.0269656, 0.15346888, -667926.25, -121853.21, 0.0, 9.999531, 9.999095 
1.0850762e+3, 2.5427854e+2, -601518.1, -613616.56, -20038.066, -0.015828358, 0.128562, -586636.1, -138552.77, 0.0, 9.999308, 9.999144 
1.0850797e+3, 2.6427767e+2, -529567.6, -489406.38, -24864.943, -0.007867617, 0.11495155, -477526.13, -127434.97, 0.0, 9.998963, 9.99949 
1.08508326e+3, 2.742772e+2, -499923.88, -418084.22, -23794.514, -0.0045548417, 0.11152697, -411668.97, -159573.48, 0.0, 9.9984665, 9.999545 
1.0850868e+3, 2.8427684e+2, -450681.28, -351596.56, -18165.713, 0.012231377, 0.12685122, -348371.13, -194272.44, 0.0, 9.998165, 9.999475 
1.08509056e+3, 2.9427668e+2, -358939.63, -253788.23, -10132.559, 0.047571927, 0.15637532, -252820.75, -196719.94, 0.0, 9.99811, 9.999499 
1.0850945e+3, 3.042763e+2, -265087.25, -72296.8, 7411.9155, 0.058880005, 0.118639454, -72012.26, -72012.26, 0.0, 9.997941, 10.000493 
1.08509816e+3, 3.1427684e+2, -300020.03, -77432.92, -10378.543, 0.036721997, 0.12176542, -76950.055, -76950.055, 0.0, 9.997649, 10.000598 
1.0950319e+3, 1.2429378e+2, -1343155.8, -1706575.6, -52254.81, 0.08925843, 0.24196413, -1335791.4, 386152.47, 0.0007190712, 10.003297, 9.998465 
1.0950357e+3, 1.3429187e+2, -1287469.3, -1649460.9, 26986.955, 0.01375996, 0.21919917, -1285468.4, 338493.47, 0.00033462446, 10.003086, 9.998291 
1.0950403e+3, 1.4429015e+2, -1220470.8, -1558504.3, -11265.437, 0.044888686, 0.21609616, -1220095.8, 305882.56, 0.000084530904, 10.002842, 9.998356 
1.0950438e+3, 1.542886e+2, -1164017.4, -1478086.6, -18608.025, 0.041205723, 0.22281337, -1162918.6, 265074.34, 0.0000043925156, 10.002545, 9.998378 
1.095047e+3, 1.6428697e+2, -1116072.1, -1410131.0, -23245.395, 0.018426232, 0.22471166, -1114245.9, 215762.7, 0.0000000006358386, 10.002227, 9.998325 
1.09505005e+3, 1.7428525e+2, -1066245.0, -1332753.0, -27336.049, -0.028190855, 0.21532522, -1063470.0, 168555.1, 0.0, 10.001885, 9.998347 
1.0950533e+3, 1.8428352e+2, -989600.94, -1211670.5, -35149.6, -0.040302433, 0.19590779, -984170.25, 149870.4, 0.0, 10.001595, 9.998647 
1.0950569e+3, 1.9428183e+2, -919861.25, -1122322.1, -24969.273, -0.0066045034, 0.15606953, -916827.25, 119227.72, 0.0, 10.001378, 9.998692 
1.0950602e+3, 2.042803e+2, -878823.8, -1077216.9, -26713.533, -0.0031178053, 0.14517441, -875289.75, 62779.07, 0.0, 10.001096, 9.998466 
1.095063e+3, 2.14279e+2, -833727.6, -1004570.44, -38362.98, -0.039764352, 0.1659213, -825508.56, 14573.459, 0.0, 10.000731, 9.9984665 
1.0950661e+3, 2.2427782e+2, -746531.0, -836277.2, -48646.91, -0.04684772, 0.16963619, -725221.7, 16871.04, 0.0, 10.000332, 9.999142 
1.0950692e+3, 2.3427679e+2, -708706.9, -758910.56, -34144.71, -0.014523791, 0.143066, -691429.94, -47329.71, 0.0, 9.999883, 9.999216 
1.0950724e+3, 2.4427557e+2, -685930.5, -735875.44, -18676.775, -0.005396785, 0.118307054, -679718.94, -133608.03, 0.0, 9.999534, 9.99887 
1.09507546e+3, 2.5427416e+2, -620681.8, -653467.8, -27838.36, -0.026747452, 0.08891425, -604768.4, -156642.69, 0.0, 9.999308, 9.998871 
1.0950786e+3, 2.6427346e+2, -527411.2, -484669.13, -42426.96, -0.022128124, 0.103260554, -458534.7, -108401.6, 0.0, 9.998961, 9.999523 
1.09508194e+3, 2.7427375e+2, -495504.78, -409715.0, -41387.15, 0.015683295, 0.16960557, -393003.97, -140873.55, 0.0, 9.998469, 9.999601 
1.0950852e+3, 2.8427345e+2, -435155.4, -320190.03, -20468.559, 0.037001885, 0.17603971, -316654.53, -162521.64, 0.0, 9.998168, 9.999689 
1.09508865e+3, 2.9427236e+2, -343677.28, -220981.97, -10861.905, 0.03990592, 0.0939898, -220027.81, -163885.6, 0.0, 9.998105, 9.999727 
1.09509215e+3, 3.0427185e+2, -288863.5, -120240.734, -2775.2085, 0.03878333, 0.048737846, -120195.07, -120195.07, 0.0, 9.997934, 10.000167 
1.0950957e+3, 3.1427374e+2, -323311.25, -126161.086, -19038.344, 0.027222633, 0.21831504, -124339.43, -124339.43, 0.0, 9.99765, 10.000263 
1.1050352e+3, 1.2429022e+2, -1303724.3, -1686626.3, -27647.77, 0.07781904, 0.24985404, -1301738.1, 420240.75, 0.000818133, 10.003564, 9.998473 
1.1050387e+3, 1.3428825e+2, -1283932.6, -1647435.9, 47952.484, 0.008405093, 0.22126925, -1277713.4, 346284.0, 0.00038809632, 10.003106, 9.998297 
1.1050431e+3, 1.4428651e+2, -1225711.5, -1563298.1, 8317.36, 0.040762287, 0.21742661, -1225506.6, 300507.13, 0.000102482416, 10.002815, 9.998336 
1.1050464e+3, 1.5428491e+2, -1142322.5, -1469648.8, 1386.7603, 0.04042748, 0.2202352, -1142316.6, 285712.4, 0.0000061708192, 10.002705, 9.998359 
1.1050494e+3, 1.6428329e+2, -1087160.0, -1394592.8, -4989.5483, 0.022122355, 0.22314258, -1087079.0, 242965.64, 0.0000000015512864, 10.00242, 9.998337 
1.105052e+3, 1.7428163e+2, -1060062.4, -1328394.0, 36.54831, -0.021619318, 0.21942133, -1060062.4, 171998.17, 0.0, 10.001923, 9.998359 
1.1050549e+3, 1.8427992e+2, -993135.06, -1212435.6, -1639.6466, -0.035901975, 0.19934878, -993122.8, 140953.25, 0.0, 10.001565, 9.998655 
1.1050582e+3, 1.9427815e+2, -915965.75, -1119264.6, -10899.433, -0.011164779, 0.15172753, -915383.06, 120707.88, 0.0, 10.0014, 9.998701 
1.10506125e+3, 2.0427662e+2, -879319.44, -1079188.3, -21682.496, -0.005716522, 0.14119561, -876994.3, 61110.516, 0.0, 10.001101, 9.998449 
1.10506386e+3, 2.142754e+2, -851112.7, -1014950.94, -11840.835, -0.026389876, 0.1719983, -850261.4, -10143.835, 0.0, 10.000621, 9.998448 
1.1050664e+3, 2.242742e+2, -753591.5, -839628.8, -17077.71, -0.031320035, 0.1748882, -750325.7, -8197.239, 0.0, 10.000284, 9.999142 
1.1050692e+3, 2.3427302e+2, -671441.9, -740904.75, -32359.553, -0.015132324, 0.13343054, -658703.2, -14566.196, 0.0, 10.000139, 9.999216 
1.10507205e+3, 2.4427181e+2, -640386.8, -711493.0, -26932.768, -0.011051597, 0.10848385, -631337.25, -85189.77, 0.0, 9.999836, 9.998891 
1.1050747e+3, 2.5427064e+2, -616178.56, -648950.5, -15868.869, -0.02349546, 0.09845675, -609754.0, -161593.5, 0.0, 9.999329, 9.998892 
1.10507764e+3, 2.6426995e+2, -531621.9, -487434.28, -20375.28, -0.0141105335, 0.114433795, -479473.34, -129305.61, 0.0, 9.998936, 9.9995165 
1.10508054e+3, 2.7427003e+2, -463500.03, -395031.06, -24378.53, 0.023896685, 0.16009302, -387238.0, -135071.03, 0.0, 9.9986925, 9.999595 
1.1050835e+3, 2.8426975e+2, -402048.75, -298192.13, -6884.2275, 0.04042317, 0.16658089, -297737.78, -143568.6, 0.0, 9.99837, 9.9997425 
1.1050866e+3, 2.94269e+2, -363274.78, -224003.19, -10168.805, 0.030951329, 0.10994485, -223264.64, -167088.92, 0.0, 9.997943, 9.999784 
1.10508986e+3, 3.042684e+2, -329201.0, -129698.86, 5983.4307, 0.02654328, 0.051487718, -129519.56, -129519.56, 0.0, 9.997614, 10.000257 
1.1050933e+3, 3.1427017e+2, -345663.3, -121070.87, 21381.615, 0.02627124, 0.20028958, -119053.42, -119053.42, 0.0, 9.997429, 10.000405 
1.1150381e+3, 1.2428714e+2, -1315303.5, -1708406.0, -54734.28, 0.020315705, 0.24168679, -1307824.8, 414183.5, 0.00092609524, 10.003556, 9.998327 
1.115042e+3, 1.3428509e+2, -1295254.1, -1671027.0, 32034.379, 0.022514287, 0.22154045, -1292542.8, 331485.06, 0.00044726714, 10.003106, 9.998136 
1.11504614e+3, 1.4428331e+2, -1227073.0, -1565615.8, 2734.2168, 0.068351574, 0.22253747, -1227050.9, 298994.16, 0.00012295434, 10.002813, 9.998321 
1.115049e+3, 1.5428162e+2, -1142994.5, -1470573.3, -2785.1514, 0.02324863, 0.21629642, -1142970.9, 285090.34, 0.000008505592, 10.002703, 9.998353 
1.11505166e+3, 1.6427995e+2, -1078091.3, -1375236.4, -23425.72, 0.003284613, 0.20925364, -1076255.9, 253821.11, 0.0000000033697685, 10.0024185, 9.998471 
1.11505434e+3, 1.7427833e+2, -1049480.8, -1306959.4, -18906.768, 0.010073822, 0.19550899, -1048099.8, 183992.08, 0.0, 10.0019245, 9.998506 
1.1150569e+3, 1.8427674e+2, -1008513.6, -1244860.8, -9801.821, -0.0012743912, 0.19068179, -1008107.9, 125998.664, 0.0, 10.001567, 9.998432 
1.1150595e+3, 1.9427523e+2, -933785.7, -1156496.4, -17537.639, -0.033789743, 0.19134495, -932413.1, 103707.56, 0.0, 10.001401, 9.998446 
1.115062e+3, 2.0427369e+2, -862222.9, -1043980.25, -40084.16, -0.03464999, 0.18216316, -853775.5, 84359.28, 0.0, 10.001101, 9.998692 
1.1150647e+3, 2.1427213e+2, -831307.9, -973783.4, -30751.895, 0.005806871, 0.15205716, -824953.75, 15195.1, 0.0, 10.000621, 9.998732 
1.11506715e+3, 2.2427067e+2, -777353.4, -889102.9, -24483.104, 0.009302019, 0.13086107, -772224.8, -30062.904, 0.0, 10.000284, 9.998802 
1.11506924e+3, 2.3426937e+2, -698761.1, -797582.25, -37769.152, -0.035453584, 0.1156442, -685979.1, -41805.688, 0.0, 10.000138, 9.998828 
1.11507155e+3, 2.4426842e+2, -623116.7, -675128.75, -45060.117, -0.044777066, 0.12427739, -597096.5, -50914.23, 0.0, 9.999834, 9.999142 
1.1150742e+3, 2.5426793e+2, -595196.7, -605503.7, -34414.953, -0.00730168, 0.15575656, -565551.5, -117363.984, 0.0, 9.99933, 9.999189 
1.1150768e+3, 2.6426715e+2, -534350.94, -493788.03, -29942.03, 0.015281421, 0.14742339, -477905.1, -127710.11, 0.0, 9.998938, 9.999472 
1.1150792e+3, 2.7426606e+2, -469199.03, -405988.56, -32651.56, 0.018154908, 0.0839957, -392151.34, -139946.48, 0.0, 9.998689, 9.999521 
1.1150817e+3, 2.842658e+2, -409707.94, -312643.34, -21861.432, 0.020136727, 0.09945047, -307946.84, -153739.44, 0.0, 9.9983635, 9.999646 
1.11508444e+3, 2.9426652e+2, -369814.7, -238675.08, -24429.71, 0.020462168, 0.20271268, -234271.95, -178070.9, 0.0, 9.997947, 9.999682 
1.1150874e+3, 3.0426592e+2, -294949.66, -60291.85, -800.07153, 0.02249526, 0.12695338, -60289.125, -60289.125, 0.0, 9.997621, 10.0007305 
1.1150907e+3, 3.142663e+2, -304950.78, -34779.523, 16030.754, 0.028807223, 0.08060705, -33831.656, -33831.656, 0.0, 9.99742, 10.001002 
1.1250414e+3, 1.2428409e+2, -1343528.4, -1729551.9, -61499.832, -0.0053898217, 0.22611108, -1333967.3, 388069.88, 0.0010446907, 10.003396, 9.99826 
1.1250453e+3, 1.3428205e+2, -1242084.1, -1655020.0, 41898.754, 0.023962121, 0.21616167, -1237875.8, 386181.4, 0.0005132032, 10.003513, 9.998049 
1.1250492e+3, 1.4428028e+2, -1166946.5, -1538522.0, 5437.6943, 0.07005727, 0.22467694, -1166866.9, 359207.44, 0.00014641856, 10.003235, 9.998303 
1.1250514e+3, 1.5427853e+2, -1186386.4, -1493546.5, -2874.2815, 0.020243991, 0.21322474, -1186359.5, 241731.89, 0.00001150662, 10.002413, 9.998336 
1.12505384e+3, 1.6427685e+2, -1131070.8, -1394931.5, -14623.469, 0.0023066192, 0.20419227, -1130262.8, 199844.45, 0.0000000061074554, 10.0020275, 9.998525 
1.1250564e+3, 1.7427532e+2, -1001129.56, -1276839.0, -16237.111, 0.018645141, 0.19317207, -1000176.6, 231944.48, 0.0, 10.002228, 9.998566 
1.1250587e+3, 1.8427382e+2, -942702.5, -1218669.0, -13953.607, 0.007979285, 0.19461162, -941998.75, 192136.39, 0.0, 10.002044, 9.998383 
1.1250608e+3, 1.9427232e+2, -945378.75, -1168836.6, -8719.251, -0.036403682, 0.20485881, -945039.06, 91110.414, 0.0, 10.00135, 9.998385 
1.125063e+3, 2.0427078e+2, -886570.6, -1051209.9, -24326.293, -0.040631253, 0.19622475, -883051.5, 55112.22, 0.0, 10.000915, 9.998731 
1.12506546e+3, 2.1426916e+2, -797285.4, -952030.8, -32370.504, 0.007342951, 0.15510829, -790786.9, 49391.16, 0.0, 10.000832, 9.998779 
1.1250676e+3, 2.2426766e+2, -740104.4, -877780.6, -27009.041, 0.0154706, 0.12947474, -734995.4, 7196.146, 0.0, 10.000568, 9.998743 
1.1250693e+3, 2.3426634e+2, -713760.0, -812040.56, -18272.715, -0.029217891, 0.1196293, -710472.6, -66268.82, 0.0, 10.000068, 9.998762 
1.1250713e+3, 2.4426545e+2, -645517.56, -677198.4, -21933.555, -0.039008718, 0.13478325, -634302.5, -88090.42, 0.0, 9.999643, 9.999219 
1.1250736e+3, 2.5426513e+2, -590553.7, -593242.94, -27254.842, -0.0027823313, 0.17354196, -564610.3, -116395.09, 0.0, 9.999319, 9.999278 
1.1250758e+3, 2.6426432e+2, -529205.1, -494136.0, -26247.822, 0.017876644, 0.1576368, -480104.6, -129881.836, 0.0, 9.998987, 9.999445 
1.1250779e+3, 2.7426293e+2, -478470.66, -414823.2, -26971.385, 0.01810845, 0.068016104, -404931.16, -152695.7, 0.0, 9.998644, 9.999482 
1.12508e+3, 2.8426266e+2, -419131.13, -314332.0, -13704.021, 0.01626532, 0.08384273, -312569.63, -158331.61, 0.0, 9.998287, 9.999672 
1.1250823e+3, 2.9426375e+2, -370333.66, -235584.95, -8339.338, 0.011854125, 0.2215436, -235070.81, -178842.58, 0.0, 9.99793, 9.999711 
1.125085e+3, 3.0426306e+2, -299454.72, -63435.535, 8403.014, 0.015376535, 0.13264097, -63136.74, -63136.74, 0.0, 9.997595, 10.000721 
1.1250881e+3, 3.1426314e+2, -321530.63, -32894.75, -13741.369, 0.035034034, 0.058608554, -32242.025, -32242.025, 0.0, 9.997265, 10.00109 
1.1350447e+3, 1.24281116e+2, -1343223.9, -1726901.4, -70015.02, -0.0048947614, 0.20226981, -1330846.6, 391218.78, 0.001174958, 10.00339, 9.99828 
1.1350487e+3, 1.3427922e+2, -1243451.4, -1656370.0, 47068.08, 0.01002159, 0.20705429, -1238154.1, 385930.16, 0.00058639556, 10.003508, 9.998043 
1.13505214e+3, 1.4427754e+2, -1169762.1, -1543154.8, -23210.447, 0.04391458, 0.22562478, -1168324.9, 357776.16, 0.00017311395, 10.003229, 9.998275 
1.1350539e+3, 1.5427572e+2, -1187724.0, -1497676.6, -33722.16, 0.029922377, 0.20996012, -1184097.6, 244021.53, 0.000015247707, 10.0024185, 9.998305 
1.135056e+3, 1.6427407e+2, -1132251.6, -1398519.3, -10599.303, 0.017175548, 0.20669818, -1131830.3, 198304.58, 0.000000009421829, 10.002032, 9.998499 
1.1350585e+3, 1.7427267e+2, -1003235.06, -1281036.6, -8798.007, 0.0024776417, 0.21235333, -1002956.7, 229190.98, 0.0, 10.002227, 9.998538 
1.13506064e+3, 1.8427119e+2, -934749.2, -1201733.3, -38738.25, -0.010068122, 0.21080168, -929242.06, 204919.45, 0.0, 10.002041, 9.9985 
1.1350623e+3, 1.9426954e+2, -935928.7, -1149632.8, -35577.19, -0.019601842, 0.19302997, -930161.5, 106015.26, 0.0, 10.001351, 9.998517 
1.1350641e+3, 2.04268e+2, -897367.0, -1074309.1, -30213.99, -0.02451327, 0.1844288, -892350.0, 45841.145, 0.0, 10.0009165, 9.998571 
1.1350661e+3, 2.1426655e+2, -810141.1, -978861.7, -35788.34, -0.02310356, 0.18107949, -802863.75, 37340.75, 0.0, 10.000832, 9.998595 
1.1350679e+3, 2.2426522e+2, -725933.9, -847821.8, -45700.414, -0.014752723, 0.17037752, -710702.4, 31514.477, 0.0, 10.0005665, 9.99895 
1.1350697e+3, 2.3426396e+2, -697043.4, -777359.4, -37420.117, 0.0026587297, 0.14408875, -682311.2, -38083.38, 0.0, 10.000068, 9.999001 
1.13507144e+3, 2.4426295e+2, -651430.56, -689950.75, -34969.273, 0.005153828, 0.13879883, -630768.2, -84531.43, 0.0, 9.999645, 9.999131 
1.13507286e+3, 2.5426227e+2, -598843.7, -609902.5, -38932.15, -0.011635375, 0.15298702, -565050.25, -116806.98, 0.0, 9.999316, 9.999166 
1.1350746e+3, 2.642615e+2, -530419.6, -495455.25, -38356.5, -0.007948926, 0.14693403, -470784.75, -120534.27, 0.0, 9.998981, 9.999439 
1.1350765e+3, 2.7426064e+2, -477612.5, -414035.84, -38263.883, 0.022477752, 0.11149349, -396078.6, -143820.27, 0.0, 9.998648, 9.999486 
1.1350784e+3, 2.8426033e+2, -409698.06, -296564.5, -26727.537, 0.027937926, 0.11879612, -290568.0, -136307.17, 0.0, 9.998294, 9.999791 
1.1350801e+3, 2.9426068e+2, -362389.94, -217364.45, -20703.324, 0.0016233098, 0.1667859, -214466.81, -158209.6, 0.0, 9.997922, 9.999841 
1.1350824e+3, 3.0425978e+2, -332816.8, -129917.79, -3186.4224, 0.0017889232, 0.06917419, -129867.76, -129867.76, 0.0, 9.997582, 10.00027 
1.13508545e+3, 3.1426078e+2, -346448.06, -86515.945, -23283.688, 0.041213144, 0.13955931, -84446.76, -84446.76, 0.0, 9.9972725, 10.000718 
1.1450484e+3, 1.2427864e+2, -1292767.6, -1699912.5, -62207.79, -0.003700296, 0.195644, -1283475.0, 438613.97, 0.0013167423, 10.003727, 9.998302 
1.1450519e+3, 1.342767e+2, -1297755.1, -1681417.8, 65850.04, 0.0057287216, 0.19476375, -1286767.6, 337340.7, 0.0006665531, 10.003127, 9.998056 
1.1450551e+3, 1.4427505e+2, -1227727.6, -1575492.6, -6428.918, 0.024230812, 0.21801701, -1227608.8, 298516.1, 0.00020295075, 10.00285, 9.998237 
1.1450568e+3, 1.5427323e+2, -1106463.3, -1463284.3, -18762.855, 0.033673473, 0.20611125, -1105479.4, 322663.84, 0.000019742625, 10.002997, 9.998262 
1.1450585e+3, 1.6427161e+2, -1028113.2, -1348405.3, 6749.6724, 0.025688594, 0.20752889, -1027971.0, 302187.9, 0.000000013934886, 10.002748, 9.998498 
1.1450604e+3, 1.7427026e+2, -1040458.9, -1299237.1, 10342.303, -0.010695227, 0.2179099, -1040046.2, 192125.06, 0.0, 10.00197, 9.998537 
1.1450622e+3, 1.8426873e+2, -1003349.5, -1230641.3, -20933.063, -0.02537106, 0.21073072, -1001437.7, 132747.7, 0.0, 10.001553, 9.998537 
1.14506386e+3, 1.9426692e+2, -893128.94, -1124480.1, -25167.459, -0.010793906, 0.17422493, -890422.75, 145779.06, 0.0, 10.001627, 9.998557 
1.1450653e+3, 2.042654e+2, -828509.8, -1041424.1, -19845.527, -0.010758168, 0.16532692, -826675.8, 111540.305, 0.0, 10.001392, 9.998568 
1.1450666e+3, 2.142642e+2, -823648.4, -985825.0, -13479.746, -0.031040734, 0.18642284, -822535.6, 17692.03, 0.0, 10.000742, 9.9985895 
1.14506826e+3, 2.2426297e+2, -765142.5, -865281.8, -21767.72, -0.026455825, 0.18661037, -760615.44, -18376.152, 0.0, 10.000293, 9.998961 
1.1450698e+3, 2.3426166e+2, -690024.06, -772652.5, -30247.352, 0.010489938, 0.15236782, -680135.1, -35884.023, 0.0, 10.000111, 9.999012 
1.1450713e+3, 2.442606e+2, -617567.0, -666031.2, -31937.564, 0.019152712, 0.13777366, -601709.1, -55448.773, 0.0, 9.9998455, 9.999198 
1.1450723e+3, 2.5425988e+2, -571738.4, -589057.8, -23711.158, -0.008988481, 0.14210573, -555155.06, -106888.64, 0.0, 9.999469, 9.999235 
1.1450735e+3, 2.6425916e+2, -522019.44, -495208.03, -18441.28, -0.0129643185, 0.13654388, -485814.75, -135541.58, 0.0, 9.999056, 9.999406 
1.14507504e+3, 2.7425838e+2, -487496.25, -423343.38, -22420.844, 0.013823349, 0.114408836, -416284.25, -164003.69, 0.0, 9.998601, 9.999444 
1.1450767e+3, 2.8425807e+2, -418360.38, -303407.1, -14253.378, 0.026626257, 0.12515172, -301666.16, -147382.94, 0.0, 9.998247, 9.999765 
1.1450784e+3, 2.9425827e+2, -351952.5, -215775.16, -19350.865, 0.023460241, 0.16236018, -213078.78, -156798.14, 0.0, 9.998008, 9.99981 
1.1450802e+3, 3.0425715e+2, -327079.0, -152025.1, 440.48294, 0.016115107, 0.055539694, -152023.98, -152023.98, 0.0, 9.99773, 10.000048 
1.1450825e+3, 3.1425825e+2, -329030.9, -87210.19, -4356.852, 0.01059814, 0.15962407, -87131.71, -87131.71, 0.0, 9.997435, 10.000634 
1.155052e+3, 1.24276735e+2, -1293431.4, -1697367.4, -93446.18, -0.0068358663, 0.20809554, -1272861.1, 449246.06, 0.0014692028, 10.003712, 9.998327 
1.1550551e+3, 1.3427454e+2, -1295337.4, -1676965.0, 43993.754, 0.008757763, 0.17796569, -1290331.5, 333797.28, 0.00075311697, 10.00313, 9.998085 
1.1550578e+3, 1.442729e+2, -1230171.1, -1581976.1, -3701.1814, 0.009560897, 0.20107028, -1230132.3, 296013.06, 0.000235787, 10.002855, 9.99819 
1.1550597e+3, 1.5427114e+2, -1110502.6, -1471086.4, -13086.734, 0.02995419, 0.20284069, -1110028.3, 318134.84, 0.000024990082, 10.002995, 9.99821 
1.1550613e+3, 1.6426954e+2, -1027104.6, -1345399.4, -20678.465, 0.025994416, 0.2078153, -1025766.9, 304411.8, 0.000000023716384, 10.002744, 9.998521 
1.1550624e+3, 1.7426814e+2, -1038282.4, -1294903.0, -19337.885, -0.021931972, 0.21013853, -1036833.3, 195358.02, 0.0, 10.001971, 9.998567 
1.1550637e+3, 1.8426651e+2, -1006257.56, -1237444.3, -21270.553, -0.03944722, 0.19466886, -1004316.8, 129889.375, 0.0, 10.001555, 9.998489 
1.15506545e+3, 1.9426458e+2, -896897.2, -1132411.8, -22574.715, -0.011793023, 0.14853518, -894752.9, 141471.27, 0.0, 10.001626, 9.998503 
1.15506686e+3, 2.0426306e+2, -818808.0, -1020816.7, -43473.395, -0.0017878017, 0.13902234, -809849.56, 128388.61, 0.0, 10.0013895, 9.998711 
1.1550676e+3, 2.1426214e+2, -812385.7, -962563.75, -38802.03, -0.016815925, 0.17120981, -802952.75, 37294.344, 0.0, 10.000742, 9.99875 
1.1550686e+3, 2.2426099e+2, -777357.2, -890811.5, -30785.93, -0.020001765, 0.17817068, -769541.75, -27283.305, 0.0, 10.000293, 9.998786 
1.15506984e+3, 2.3425947e+2, -704394.3, -802392.9, -36925.395, -0.0067204223, 0.14533569, -692038.8, -47765.77, 0.0, 10.00011, 9.998808 
1.1550709e+3, 2.4425843e+2, -603203.25, -635352.06, -45444.207, 0.0014069494, 0.13299751, -571074.3, -24792.045, 0.0, 9.999842, 9.999412 
1.1550719e+3, 2.54258e+2, -554093.7, -553047.56, -37306.8, 0.0033038098, 0.14054647, -516260.16, -67975.74, 0.0, 9.999472, 9.999482 
1.15507275e+3, 2.6425725e+2, -526707.8, -505975.06, -35275.824, 0.00092023914, 0.12492923, -479574.0, -129283.27, 0.0, 9.99906, 9.99933 
1.1550735e+3, 2.7425614e+2, -495345.88, -438455.3, -38938.098, -0.008713131, 0.07702093, -418679.16, -166377.14, 0.0, 9.998596, 9.999343 
1.1550748e+3, 2.8425586e+2, -428970.3, -323422.28, -22730.203, 0.011287157, 0.10401278, -318735.38, -164430.61, 0.0, 9.998239, 9.999633 
1.1550768e+3, 2.942566e+2, -360870.1, -235763.28, -25796.979, 0.07175532, 0.20806436, -230652.72, -174354.9, 0.0, 9.998014, 9.99967 
1.1550783e+3, 3.0425525e+2, -330540.78, -161522.84, -9862.721, 0.053744968, 0.0906422, -160949.27, -160949.27, 0.0, 9.997739, 9.999979 
1.1550792e+3, 3.1425563e+2, -320473.06, -68766.3, -13773.995, -0.05806213, 0.12514114, -68014.79, -68014.79, 0.0, 9.99743, 10.000764 
1.1650553e+3, 1.2427498e+2, -1342227.1, -1718711.8, -87653.21, -0.032367036, 0.2092475, -1322820.0, 399304.13, 0.0016317561, 10.003368, 9.998345 
1.1650585e+3, 1.3427275e+2, -1245283.0, -1650219.5, 56765.926, 0.024400912, 0.17312855, -1237475.9, 386670.06, 0.00084588735, 10.003461, 9.99811 
1.1650608e+3, 1.4427115e+2, -1171017.4, -1550663.0, 11975.633, 0.01276115, 0.19850932, -1170640.0, 355521.66, 0.00027161013, 10.003249, 9.998215 
1.1650624e+3, 1.5426934e+2, -1162122.8, -1493326.4, 7730.766, 0.020170867, 0.19157393, -1161942.4, 266237.38, 0.000031011183, 10.002627, 9.998236 
1.16506375e+3, 1.6426772e+2, -1099866.3, -1384317.9, -3173.5393, 0.017397963, 0.19438596, -1099830.9, 230364.83, 0.00000004774233, 10.002261, 9.9984865 
1.1650646e+3, 1.7426632e+2, -999638.0, -1280866.5, -8162.1875, -0.013225346, 0.20267601, -999401.3, 232807.4, 0.0, 10.002257, 9.998526 
1.16506554e+3, 1.8426473e+2, -944130.4, -1200673.8, -5987.2114, -0.029632049, 0.18999943, -943990.7, 190232.7, 0.0, 10.001952, 9.99855 
1.1650668e+3, 1.9426286e+2, -946951.25, -1148471.3, 1752.0177, -0.023122981, 0.1433595, -946936.0, 89304.305, 0.0, 10.001248, 9.998575 
1.16506785e+3, 2.042614e+2, -893637.4, -1051012.1, -16538.896, -0.014381716, 0.13275355, -891918.06, 46335.688, 0.0, 10.000852, 9.998762 
1.16506845e+3, 2.1426052e+2, -790026.2, -946552.6, -20235.182, -0.0043439167, 0.16229317, -787452.56, 52810.105, 0.0, 10.000873, 9.998797 
1.1650692e+3, 2.242594e+2, -719430.1, -860056.7, -10430.284, -0.0058585373, 0.17047866, -718660.7, 23613.01, 0.0, 10.000678, 9.998811 
1.1650698e+3, 2.34258e+2, -690438.8, -792822.06, -1365.2274, -0.021836717, 0.14499828, -690420.6, -46133.234, 0.0, 10.000195, 9.998833 
1.16507046e+3, 2.4425699e+2, -620071.2, -646074.0, -11149.708, -0.023100672, 0.1360943, -615945.06, -69648.77, 0.0, 9.999738, 9.999388 
1.1650711e+3, 2.542565e+2, -578459.9, -567776.3, -23478.355, -0.0058137947, 0.14017183, -549039.7, -100740.484, 0.0, 9.999318, 9.999454 
1.1650718e+3, 2.642557e+2, -535940.44, -512653.5, -27852.6, 0.0043115243, 0.12420745, -494108.6, -143802.75, 0.0, 9.999007, 9.999309 
1.16507225e+3, 2.7425462e+2, -462966.84, -425899.06, -25959.924, 0.0055143554, 0.08177811, -412535.88, -160219.11, 0.0, 9.99883, 9.999317 
1.1650732e+3, 2.8425434e+2, -400065.56, -322367.75, -8026.9844, 0.02092083, 0.11305966, -321547.16, -167227.19, 0.0, 9.998492, 9.999518 
1.16507456e+3, 2.9425496e+2, -378483.25, -258107.64, -12492.071, 0.054992765, 0.21676287, -256824.94, -200510.14, 0.0, 9.997954, 9.999545 
1.1650758e+3, 3.0425346e+2, -355940.4, -167373.52, 11468.828, 0.034081392, 0.09167049, -166678.53, -166678.53, 0.0, 9.997539, 10.000034 
1.1650768e+3, 3.1425393e+2, -328881.16, -43035.15, 19120.205, -0.04349484, 0.12976943, -41761.87, -41761.87, 0.0, 9.997243, 10.001033 
1.1750581e+3, 1.24273464e+2, -1342218.3, -1718304.1, -93570.8, -0.0810793, 0.20141454, -1320224.0, 401914.97, 0.0018049687, 10.003367, 9.998349 
1.1750623e+3, 1.3427141e+2, -1244192.4, -1647198.9, 60630.89, 0.050312538, 0.18118836, -1235268.4, 388890.6, 0.0009453062, 10.003457, 9.998134 
1.1750642e+3, 1.4426991e+2, -1165485.3, -1537669.1, -10209.263, 0.031205242, 0.21140549, -1165205.4, 360968.0, 0.0003105983, 10.0032425, 9.998307 
1.1750648e+3, 1.5426788e+2, -1155024.8, -1478017.8, -15832.58, 0.0027277772, 0.17226669, -1154250.5, 273942.38, 0.000037854974, 10.002625, 9.998341 
1.1750658e+3, 1.6426618e+2, -1106463.4, -1398992.1, -5676.4644, -0.0018913797, 0.16670069, -1106353.3, 223856.31, 0.00000010132158, 10.002264, 9.998385 
1.17506705e+3, 1.742649e+2, -1007639.4, -1297810.5, -8356.855, 0.013933623, 0.1955498, -1007398.9, 224823.98, 0.0, 10.002257, 9.998409 
1.1750677e+3, 1.8426345e+2, -932365.8, -1175910.4, -31607.246, 0.0016549244, 0.197368, -928330.7, 205905.64, 0.0, 10.00195, 9.998721 
1.1750679e+3, 1.9426185e+2, -933497.25, -1120604.9, -25387.488, -0.04452699, 0.15850428, -930113.75, 106136.09, 0.0, 10.001248, 9.998766 
1.1750684e+3, 2.0426047e+2, -896053.1, -1056555.3, -18644.924, -0.048474964, 0.14584826, -893915.7, 44346.785, 0.0, 10.000854, 9.998724 
1.1750694e+3, 2.1425936e+2, -794221.25, -955027.5, -19775.293, 0.0041501806, 0.15905084, -791825.1, 48448.902, 0.0, 10.000871, 9.99874 
1.17507e+3, 2.2425827e+2, -705401.56, -829991.94, -28234.7, 0.012976029, 0.16357107, -699301.7, 42982.945, 0.0, 10.000673, 9.99902 
1.1750698e+3, 2.3425722e+2, -673919.25, -758839.7, -20039.113, -0.03541938, 0.15080827, -669428.06, -25134.2, 0.0, 10.000195, 9.999066 
1.17506996e+3, 2.4425627e+2, -637617.56, -682743.2, -27699.61, -0.05474268, 0.14580835, -624454.4, -78151.91, 0.0, 9.999739, 9.999135 
1.1750702e+3, 2.542554e+2, -599316.4, -610423.6, -38881.973, -0.036060594, 0.14107399, -565593.44, -117282.945, 0.0, 9.999315, 9.999163 
1.1750707e+3, 2.6425457e+2, -533312.06, -506588.9, -34337.67, -0.0028703408, 0.13499412, -483104.75, -132786.72, 0.0, 9.999003, 9.999352 
1.1750715e+3, 2.742539e+2, -457707.25, -415534.8, -31002.25, 0.0500333, 0.12754314, -399127.47, -146803.1, 0.0, 9.998832, 9.999388 
1.17507204e+3, 2.842535e+2, -409874.34, -343463.0, -26870.1, 0.04902652, 0.15016593, -333953.13, -179624.58, 0.0, 9.998494, 9.999373 
1.17507175e+3, 2.942533e+2, -390131.66, -281450.84, -32111.736, -0.023951432, 0.1890187, -272671.97, -216340.39, 0.0, 9.997951, 9.999387 
1.1750725e+3, 3.042518e+2, -339901.84, -132613.39, 1040.8497, -0.03958726, 0.059811156, -132608.17, -132608.17, 0.0, 9.997532, 10.0002775 
1.1750748e+3, 3.1425336e+2, -294669.03, 27758.184, 11870.059, 0.04207004, 0.1779472, 28194.586, 28194.586, 0.0, 9.997244, 10.001518 
1.1850616e+3, 1.2427211e+2, -1325150.0, -1702057.0, -81925.22, -0.07410513, 0.18501297, -1308112.6, 414039.3, 0.001990702, 10.003451, 9.99842 
1.1850656e+3, 1.3427027e+2, -1272852.3, -1649392.3, 84880.35, 0.051602468, 0.17556407, -1254602.9, 369567.03, 0.0010523666, 10.003209, 9.998239 
1.18506715e+3, 1.4426896e+2, -1205298.3, -1551899.4, 3534.2996, 0.007955122, 0.21810019, -1205262.3, 320920.06, 0.00035315592, 10.00295, 9.998349 
1.1850675e+3, 1.5426692e+2, -1142747.5, -1467800.1, -8535.899, 0.0062414873, 0.17296995, -1142523.5, 285678.3, 0.000045623692, 10.002691, 9.998378 
1.1850681e+3, 1.6426517e+2, -1093127.8, -1395768.9, 10057.379, 0.00873113, 0.16210906, -1092793.9, 237425.16, 0.00000019883093, 10.002369, 9.998357 
1.1850691e+3, 1.7426382e+2, -1052837.8, -1322919.3, 13858.294, 0.004968944, 0.18829942, -1052128.5, 180104.84, 0.0, 10.001962, 9.99838 
1.18506946e+3, 1.8426248e+2, -967394.3, -1182296.4, -15802.879, -0.010698947, 0.19596153, -966238.5, 168007.66, 0.0, 10.001666, 9.998814 
1.1850693e+3, 1.9426113e+2, -886075.5, -1086452.3, -17500.945, -0.039372955, 0.17317016, -884558.44, 151698.63, 0.0, 10.001525, 9.998867 
1.18506946e+3, 2.042598e+2, -843713.1, -1034106.8, -7216.0513, -0.039580207, 0.16021833, -843440.06, 94829.19, 0.0, 10.001224, 9.998699 
1.1850702e+3, 2.1425843e+2, -819746.4, -970178.1, -6606.003, -0.00236611, 0.1523015, -819456.8, 20826.256, 0.0, 10.00071, 9.998713 
1.1850704e+3, 2.2425734e+2, -753103.1, -840675.4, -21586.693, 0.0017986179, 0.15183432, -748071.1, -5777.4644, 0.0, 10.000295, 9.999128 
1.18507e+3, 2.3425657e+2, -692456.6, -754447.44, -22518.59, -0.038166482, 0.15492937, -685140.1, -40840.27, 0.0, 10.0000105, 9.999186 
1.1850697e+3, 2.4425568e+2, -644947.3, -699837.75, -28391.912, -0.05256686, 0.15534954, -632904.06, -86596.12, 0.0, 9.999746, 9.999014 
1.1850696e+3, 2.5425458e+2, -580498.8, -617250.8, -29520.773, -0.032227285, 0.14267242, -564101.94, -115783.14, 0.0, 9.999513, 9.999021 
1.1850698e+3, 2.6425368e+2, -512177.47, -500642.78, -22181.314, -0.0024890578, 0.13476236, -483491.3, -133163.58, 0.0, 9.999167, 9.999314 
1.1850702e+3, 2.7425298e+2, -481918.66, -430405.9, -27614.7, 0.038269144, 0.13219924, -418400.38, -166066.67, 0.0, 9.998682, 9.999357 
1.1850703e+3, 2.8425258e+2, -434480.56, -348712.38, -22385.105, 0.035438657, 0.15214182, -343221.5, -188883.73, 0.0, 9.998299, 9.999431 
1.1850698e+3, 2.9425234e+2, -372571.9, -266487.97, -10403.233, -0.02405928, 0.18026452, -265477.4, -209136.48, 0.0, 9.998042, 9.999446 
1.1850702e+3, 3.0425087e+2, -328646.38, -139908.34, 18956.434, -0.035277694, 0.056118403, -138023.23, -138023.23, 0.0, 9.997664, 10.000163 
1.185072e+3, 3.1425238e+2, -304082.3, 33903.53, -4108.0728, 0.04425216, 0.18093483, 33953.453, 33953.453, 0.0, 9.997134, 10.001613 
1.1950657e+3, 1.2427098e+2, -1317313.3, -1682959.5, -97121.414, -0.017301759, 0.15961842, -1293117.4, 429045.38, 0.0021913827, 10.003441, 9.998555 
1.1950686e+3, 1.3426937e+2, -1260312.9, -1622439.1, 76028.875, 0.02741124, 0.15674125, -1244998.1, 379180.03, 0.0011682742, 10.003206, 9.9984255 
1.1950693e+3, 1.4426838e+2, -1205916.9, -1553787.5, -7046.7544, -0.057343148, 0.21860147, -1205774.1, 320413.75, 0.00039982723, 10.002951, 9.998338 
1.19507045e+3, 1.5426649e+2, -1144138.0, -1471877.9, -18309.248, 0.029380452, 0.19353679, -1143118.4, 285087.9, 0.00005450218, 10.002695, 9.998349 
1.1950709e+3, 1.6426474e+2, -1089985.4, -1389667.8, -5419.6416, 0.046689495, 0.18162526, -1089887.4, 240336.31, 0.00000035173326, 10.002371, 9.998398 
1.1950705e+3, 1.7426318e+2, -1049499.5, -1315762.0, -1631.6847, -0.040225327, 0.18087512, -1049489.5, 182750.08, 0.0, 10.001961, 9.998429 
1.1950705e+3, 1.8426183e+2, -966706.94, -1180932.0, -22513.195, -0.067537114, 0.1845409, -964366.56, 169885.83, 0.0, 10.001665, 9.998824 
1.19507104e+3, 1.9426073e+2, -885315.25, -1085295.0, -23301.78, -0.010252766, 0.1864392, -882636.0, 153625.5, 0.0, 10.001526, 9.998876 
1.1950712e+3, 2.0425941e+2, -844389.2, -1035324.0, -26683.969, 0.008940814, 0.17651168, -840730.1, 97543.36, 0.0, 10.001223, 9.998692 
1.1950707e+3, 2.1425779e+2, -820313.4, -971692.5, -26629.426, -0.023438672, 0.14261031, -815765.56, 24523.836, 0.0, 10.0007105, 9.998702 
1.1950703e+3, 2.2425663e+2, -751783.2, -838314.25, -33741.414, -0.039008506, 0.13537242, -740181.75, 2118.7136, 0.0, 10.000296, 9.999145 
1.1950701e+3, 2.3425606e+2, -691396.6, -752235.8, -33264.152, -0.031203333, 0.15719685, -676740.1, -32435.264, 0.0, 10.00001, 9.999201 
1.1950697e+3, 2.4425524e+2, -645241.94, -700333.44, -37580.44, -0.018737663, 0.16487737, -626193.06, -79880.86, 0.0, 9.999745, 9.999012 
1.1950695e+3, 2.542541e+2, -580685.2, -617501.8, -37887.484, 0.0010105927, 0.14457321, -556970.75, -108647.01, 0.0, 9.999511, 9.999021 
1.19506896e+3, 2.6425296e+2, -522164.66, -521342.53, -39538.28, 0.0013894064, 0.123066224, -482213.2, -131878.53, 0.0, 9.9991665, 9.999174 
1.1950682e+3, 2.742519e+2, -492554.0, -452532.88, -45214.105, -0.026016733, 0.0976869, -423099.16, -170754.69, 0.0, 9.998681, 9.999207 
1.195068e+3, 2.842516e+2, -413630.7, -305675.8, -31751.67, -0.016801598, 0.12090104, -297029.5, -142682.22, 0.0, 9.998299, 9.999725 
1.1950685e+3, 2.9425207e+2, -350669.84, -220170.56, -17809.254, 0.04309789, 0.18859261, -217783.78, -161441.39, 0.0, 9.998038, 9.999765 
1.1950686e+3, 3.0425063e+2, -367254.97, -219640.05, 653.34985, 0.03455936, 0.078546114, -219637.16, -219637.16, 0.0, 9.997662, 9.999618 
1.1950685e+3, 3.1425104e+2, -330916.06, -22260.602, -22021.883, -0.032007437, 0.14953381, -20697.307, -20697.307, 0.0, 9.997135, 10.001226 
1.2050692e+3, 1.2427082e+2, -1300781.4, -1688816.8, -64401.83, -0.008349639, 0.17065756, -1290371.9, 431792.06, 0.0024090873, 10.003616, 9.998429 
1.2050718e+3, 1.3426898e+2, -1275621.5, -1637958.3, 91006.836, 0.03869712, 0.15031551, -1254048.1, 370134.22, 0.0012942023, 10.003135, 9.998353 
1.205072e+3, 1.4426798e+2, -1220367.3, -1554395.6, 8120.47, -0.07789781, 0.21326736, -1220170.0, 306022.25, 0.00045114366, 10.002824, 9.998394 
1.205073e+3, 1.5426625e+2, -1127892.3, -1455874.9, 4374.2417, 0.016945735, 0.19731134, -1127834.0, 300374.8, 0.00006471426, 10.002773, 9.998421 
1.2050732e+3, 1.6426457e+2, -1063227.8, -1368331.5, 11755.332, 0.03988261, 0.18578857, -1062775.5, 267449.53, 0.00000057087306, 10.00252, 9.99847 
1.2050725e+3, 1.7426297e+2, -1038126.1, -1302702.8, 15511.758, -0.04716908, 0.17317143, -1037219.8, 195021.02, 0.0, 10.002007, 9.998496 
1.2050722e+3, 1.8426155e+2, -978365.56, -1196996.9, 2880.4607, -0.07358627, 0.17246655, -978327.6, 155926.75, 0.0, 10.001629, 9.998731 
1.2050725e+3, 1.9426042e+2, -906698.9, -1106515.4, -5593.458, -0.013792169, 0.18070048, -906542.44, 129722.28, 0.0, 10.001428, 9.9987755 
1.20507225e+3, 2.0425919e+2, -848925.25, -1026414.4, -19178.332, 0.005643475, 0.1782411, -846876.6, 91399.7, 0.0, 10.001144, 9.99879 
1.2050714e+3, 2.1425776e+2, -806144.2, -952484.1, -11478.999, -0.03074851, 0.1531887, -805249.25, 35040.57, 0.0, 10.000753, 9.998814 
1.20507054e+3, 2.2425658e+2, -744847.8, -846669.2, -12555.535, -0.045425642, 0.14323549, -743322.44, -1021.6616, 0.0, 10.000392, 9.999042 
1.2050701e+3, 2.342557e+2, -689978.3, -764295.8, -22566.059, -0.029344408, 0.14710045, -683662.94, -39354.52, 0.0, 10.000075, 9.999086 
1.2050696e+3, 2.4425484e+2, -648863.8, -699460.44, -32311.852, -0.013198725, 0.15325986, -633124.8, -86808.16, 0.0, 9.99971, 9.999034 
1.2050688e+3, 2.542539e+2, -612107.44, -628589.25, -30902.795, 0.0025740787, 0.15262185, -588365.6, -140039.61, 0.0, 9.999279, 9.999056 
1.205068e+3, 2.6425284e+2, -548767.5, -527426.75, -24053.877, -0.0017005766, 0.13428433, -511782.78, -161446.75, 0.0, 9.998957, 9.999232 
1.2050669e+3, 2.7425167e+2, -473190.4, -436305.63, -14035.159, -0.032879166, 0.09002034, -431572.44, -179225.89, 0.0, 9.998784, 9.999269 
1.20506644e+3, 2.842513e+2, -386966.22, -302122.16, -5340.799, -0.01800019, 0.1078613, -301787.3, -147437.44, 0.0, 9.998523, 9.999642 
1.20506674e+3, 2.942518e+2, -343328.53, -227438.6, -25335.469, 0.059015166, 0.1887131, -222141.92, -165796.8, 0.0, 9.9981365, 9.999667 
1.20506644e+3, 3.0425042e+2, -367808.78, -228437.16, -13177.229, 0.045342594, 0.09198242, -227202.23, -227202.23, 0.0, 9.997695, 9.999539 
1.2050654e+3, 3.1425035e+2, -316245.6, -486.83228, 6067.0454, -0.04877384, 0.12157831, -370.302, -370.302, 0.0, 9.997173, 10.001357 
1.2150725e+3, 1.242717e+2, -1329273.1, -1746954.3, -85233.9, -0.0468177, 0.21734004, -1312549.5, 409605.75, 0.002645014, 10.003612, 9.998033 
1.2150754e+3, 1.342691e+2, -1297913.3, -1685864.0, 72368.46, 0.08229054, 0.15543133, -1284853.3, 339328.66, 0.0014309159, 10.0031395, 9.998023 
1.2150751e+3, 1.4426783e+2, -1211048.8, -1535426.4, 4030.6567, -0.05788336, 0.20181707, -1210998.6, 315195.9, 0.00050734985, 10.002826, 9.998523 
1.2150753e+3, 1.5426625e+2, -1116517.8, -1431318.6, 2594.1108, -0.030941851, 0.18408118, -1116496.4, 311712.3, 0.000076397075, 10.0027685, 9.998591 
1.2150753e+3, 1.6426471e+2, -1057758.4, -1355950.6, -7373.871, -0.0123280175, 0.17348123, -1057576.1, 272646.56, 0.0000008702971, 10.002515, 9.998558 
1.2150748e+3, 1.7426322e+2, -1032260.56, -1291397.3, -4374.604, -0.018251928, 0.16512987, -1032186.7, 200050.14, 0.0, 10.002009, 9.998572 
1.2150742e+3, 1.8426175e+2, -991271.3, -1224097.4, -6560.23, -0.031857755, 0.16172823, -991086.6, 143164.69, 0.0, 10.00163, 9.998545 
1.2150736e+3, 1.9426028e+2, -921357.06, -1136987.6, -13455.517, -0.049437042, 0.15665087, -920520.7, 115745.5, 0.0, 10.001427, 9.998568 
1.2150729e+3, 2.0425911e+2, -835220.75, -997973.6, -34430.43, -0.04918927, 0.16451283, -828236.7, 110040.734, 0.0, 10.001144, 9.998985 
1.2150721e+3, 2.1425834e+2, -790390.06, -919356.44, -26989.313, -0.02644671, 0.18246777, -784969.7, 55314.2, 0.0, 10.000751, 9.9990425 
1.2150713e+3, 2.242572e+2, -760906.44, -879509.7, -25886.514, -0.019894876, 0.17460021, -755502.6, -13208.268, 0.0, 10.000389, 9.998817 
1.21507004e+3, 2.3425555e+2, -708111.8, -802063.1, -34699.41, -0.03376346, 0.12524426, -696685.75, -52375.652, 0.0, 10.000074, 9.998827 
1.215069e+3, 2.4425445e+2, -645375.9, -692604.06, -48509.7, -0.036608323, 0.121265836, -615038.0, -68717.19, 0.0, 9.999711, 9.999082 
1.2150679e+3, 2.5425407e+2, -606666.56, -618199.44, -46556.723, -0.026051955, 0.16710822, -565520.5, -117195.24, 0.0, 9.999282, 9.999126 
1.2150669e+3, 2.6425335e+2, -530261.3, -489749.94, -30730.207, -0.0111937765, 0.16797449, -473200.22, -122868.664, 0.0, 9.998959, 9.99949 
1.2150662e+3, 2.742523e+2, -454783.63, -396773.84, -19211.328, 0.0099418815, 0.10738768, -390988.53, -138648.73, 0.0, 9.998777, 9.999543 
1.2150654e+3, 2.8425172e+2, -422099.94, -374405.7, -18558.512, 0.023738964, 0.11170443, -368035.2, -213689.81, 0.0, 9.998518, 9.999148 
1.2150646e+3, 2.9425156e+2, -381560.38, -308150.13, -39075.934, 0.027680695, 0.1822456, -291243.75, -234894.75, 0.0, 9.998141, 9.999111 
1.2150636e+3, 3.042502e+2, -335673.88, -163003.13, -31497.94, 0.0008952407, 0.098502025, -157436.84, -157436.84, 0.0, 9.997701, 9.999986 
1.2150629e+3, 3.1425038e+2, -268635.7, 100725.77, -9636.5205, -0.019191802, 0.10133929, 100977.016, 100977.016, 0.0, 9.997164, 10.002057 
1.225076e+3, 1.2427208e+2, -1361025.1, -1768541.8, -100825.35, -0.048769202, 0.22716005, -1337444.0, 384708.2, 0.002898859, 10.003423, 9.997974 
1.22507885e+3, 1.3426957e+2, -1262540.4, -1667196.5, 81322.32, 0.10588431, 0.17233479, -1246808.9, 377368.9, 0.0015783015, 10.003379, 9.998034 
1.225078e+3, 1.4426823e+2, -1176237.9, -1522242.8, 19125.842, -0.06252572, 0.21488994, -1175183.9, 351006.9, 0.0005682736, 10.003083, 9.998488 
1.2250777e+3, 1.5426642e+2, -1159875.3, -1457208.4, 1021.97345, -0.04772065, 0.17739688, -1159871.8, 268335.6, 0.00008951281, 10.002494, 9.998546 
1.22507736e+3, 1.6426483e+2, -1107355.1, -1372630.3, -15734.345, -0.02869161, 0.16141656, -1106425.1, 223796.66, 0.0000012652538, 10.002142, 9.998624 
1.2250769e+3, 1.7426358e+2, -1014005.9, -1273261.9, -13202.447, -0.0148143, 0.1695003, -1013335.25, 218897.95, 0.0, 10.002095, 9.998654 
1.225076e+3, 1.8426222e+2, -961360.1, -1204690.1, -11303.578, -0.023461388, 0.17092207, -960836.2, 173410.13, 0.0, 10.001816, 9.998588 
1.2250748e+3, 1.9426067e+2, -947078.56, -1145073.0, -1149.5688, -0.05939801, 0.15326141, -947071.9, 89190.04, 0.0, 10.001231, 9.998606 
1.2250737e+3, 2.0425946e+2, -881921.94, -1024588.1, -15047.408, -0.06386487, 0.15710892, -880352.1, 57921.56, 0.0, 10.00084, 9.998949 
1.2250729e+3, 2.1425875e+2, -799666.6, -927740.5, -27323.379, -0.025989544, 0.18302673, -794081.06, 46199.113, 0.0, 10.000706, 9.999006 
1.2250716e+3, 2.2425765e+2, -752069.4, -871155.4, -31808.611, -0.014214955, 0.17937824, -744105.7, -1815.3508, 0.0, 10.000434, 9.998852 
1.22507006e+3, 2.3425601e+2, -719828.8, -803546.5, -20356.78, -0.03724303, 0.12929782, -715141.3, -70835.75, 0.0, 9.999976, 9.998864 
1.2250686e+3, 2.4425492e+2, -656333.56, -694518.6, -20580.992, -0.04572541, 0.12128977, -647352.94, -101036.766, 0.0, 9.99962, 9.999111 
1.22506715e+3, 2.5425446e+2, -584366.56, -603560.9, -22202.883, -0.03573303, 0.15970193, -569775.44, -121454.51, 0.0, 9.999419, 9.99916 
1.2250659e+3, 2.6425382e+2, -507987.75, -486810.13, -18260.957, -0.014975264, 0.16716428, -476290.03, -125963.08, 0.0, 9.9991455, 9.999419 
1.2250651e+3, 2.7425292e+2, -463241.53, -409529.38, -34513.188, 0.021061646, 0.12974423, -392654.34, -140319.78, 0.0, 9.998758, 9.999463 
1.22506395e+3, 2.842523e+2, -430918.78, -372310.2, -28822.707, 0.032077353, 0.13247792, -360511.06, -206170.5, 0.0, 9.998431, 9.999204 
1.2250625e+3, 2.9425192e+2, -368370.22, -294459.13, -3208.9468, 0.008808776, 0.17279348, -294320.06, -237974.53, 0.0, 9.9982, 9.999177 
1.2250613e+3, 3.0425066e+2, -320197.6, -177112.47, 1009.7471, -0.01625755, 0.10666448, -177105.34, -177105.34, 0.0, 9.9979, 9.999793 
1.2250605e+3, 3.1425053e+2, -226082.34, 111673.68, -34510.17, 0.012958334, 0.0966395, 115163.695, 115163.695, 0.0, 9.997496, 10.001972 
1.2350797e+3, 1.2427203e+2, -1342503.0, -1729045.0, -103983.03, -0.018801, 0.19823135, -1316306.1, 405848.0, 0.0031684102, 10.00342, 9.998246 
1.2350823e+3, 1.3427043e+2, -1238667.6, -1617120.0, 79412.164, 0.10986187, 0.20046234, -1222679.8, 401489.72, 0.001735363, 10.003377, 9.99838 
1.2350808e+3, 1.4426927e+2, -1191774.9, -1553744.4, -3035.2969, -0.09223884, 0.25177205, -1191749.5, 334430.88, 0.00063353236, 10.003078, 9.998275 
1.2350804e+3, 1.5426683e+2, -1177679.5, -1495963.8, -21318.773, -0.036754526, 0.17725377, -1176258.0, 251946.22, 0.00010392506, 10.0025, 9.998277 
1.2350797e+3, 1.6426502e+2, -1103383.8, -1364929.0, -19389.936, -0.012721822, 0.1501199, -1101954.0, 228267.39, 0.0000017603737, 10.002144, 9.998675 
1.2350787e+3, 1.742641e+2, -1008466.56, -1261656.0, -14924.348, -0.03682325, 0.1848945, -1007589.9, 224639.5, 0.0, 10.002094, 9.998735 
1.2350776e+3, 1.8426302e+2, -943576.7, -1167286.9, -33151.69, -0.049536105, 0.19703883, -938767.3, 195471.83, 0.0, 10.001813, 9.998846 
1.2350762e+3, 1.9426164e+2, -927770.4, -1105299.8, -24078.299, -0.04586403, 0.16991903, -924562.6, 111689.09, 0.0, 10.001232, 9.9988785 
1.23507485e+3, 2.042603e+2, -899904.94, -1062174.1, -22621.912, -0.040133014, 0.15728852, -896810.25, 41454.34, 0.0, 10.000841, 9.998692 
1.2350736e+3, 2.14259e+2, -820792.4, -971556.7, -32888.363, -0.030627796, 0.15609509, -813930.3, 26347.537, 0.0, 10.000705, 9.998706 
1.235072e+3, 2.2425793e+2, -732169.4, -830047.06, -49043.766, -0.029568845, 0.15831168, -711824.0, 30464.139, 0.0, 10.000434, 9.999135 
1.2350701e+3, 2.3425715e+2, -696859.6, -756078.75, -37761.395, -0.040461645, 0.15809858, -678483.25, -34188.727, 0.0, 9.999976, 9.999191 
1.2350682e+3, 2.4425623e+2, -655929.9, -693892.9, -29478.158, -0.041522168, 0.1520553, -639850.56, -93548.05, 0.0, 9.99962, 9.999116 
1.23506665e+3, 2.5425518e+2, -586214.0, -606594.7, -29328.3, -0.029966826, 0.1307355, -565356.1, -117043.46, 0.0, 9.999414, 9.999141 
1.2350651e+3, 2.6425427e+2, -536461.8, -545558.44, -31856.422, -0.015953293, 0.13307457, -508830.66, -158508.67, 0.0, 9.999143, 9.999019 
1.2350636e+3, 2.7425358e+2, -493008.56, -472608.9, -48054.184, 0.0017239008, 0.1581922, -433683.97, -181353.39, 0.0, 9.998762, 9.999029 
1.2350621e+3, 2.842531e+2, -387790.06, -283829.2, -37291.633, 0.0074345698, 0.17077415, -271835.94, -117500.766, 0.0, 9.998436, 9.999809 
1.2350607e+3, 2.9425287e+2, -321768.8, -195414.0, -10144.452, -0.003905019, 0.15872766, -194604.73, -138270.02, 0.0, 9.99819, 9.999862 
1.2350592e+3, 3.0425182e+2, -381651.88, -303122.25, -12664.485, -0.012523019, 0.115486324, -301130.38, -301130.38, 0.0, 9.997891, 9.998933 
1.2350584e+3, 3.1425083e+2, -289722.6, -21525.42, -45965.85, 0.046928577, 0.11974742, -13866.148, -13866.148, 0.0, 9.997499, 10.001056 
1.2450835e+3, 1.2427267e+2, -1276686.8, -1692227.3, -78818.695, -0.0029880672, 0.19691247, -1262239.0, 459909.6, 0.0034511238, 10.003855, 9.998289 
1.2450856e+3, 1.3427109e+2, -1239360.4, -1605871.1, 82555.164, 0.10299114, 0.19322596, -1221623.5, 402539.47, 0.0019010409, 10.003323, 9.998482 
1.2450835e+3, 1.4426999e+2, -1218244.1, -1570548.8, -6337.2686, -0.12633294, 0.24548565, -1218130.1, 308043.16, 0.0007028683, 10.002913, 9.998239 
1.24508314e+3, 1.5426771e+2, -1149541.0, -1486682.8, -8735.991, -0.02380484, 0.19240612, -1149314.8, 278881.22, 0.00011956255, 10.002713, 9.998237 
1.24508224e+3, 1.6426593e+2, -1068635.0, -1347788.3, 4740.019, 0.011295644, 0.16969393, -1068554.6, 261658.56, 0.0000023468863, 10.002383, 9.998677 
1.2450805e+3, 1.7426483e+2, -1040255.5, -1276929.9, 2955.9326, -0.049764246, 0.18526883, -1040218.56, 192004.0, 0.0, 10.001877, 9.998734 
1.245079e+3, 1.8426366e+2, -983280.06, -1184778.8, -28851.61, -0.07101392, 0.18916315, -979230.4, 155002.61, 0.0, 10.001533, 9.99886 
1.2450776e+3, 1.9426237e+2, -903958.7, -1091683.9, -39254.465, -0.037195213, 0.16908586, -896080.9, 140163.77, 0.0, 10.001388, 9.998897 
1.2450759e+3, 2.042611e+2, -862044.44, -1037080.8, -35839.426, -0.024390688, 0.15878955, -854990.44, 83266.41, 0.0, 10.001073, 9.998752 
1.2450741e+3, 2.1425982e+2, -841461.5, -974668.44, -20534.1, -0.04068229, 0.1530321, -838368.0, 1901.8529, 0.0, 10.000533, 9.998767 
1.2450721e+3, 2.2425878e+2, -772926.25, -846359.3, -30335.021, -0.047906093, 0.1543106, -762015.94, -19736.217, 0.0, 10.000139, 9.999165 
1.24506995e+3, 2.3425804e+2, -698322.7, -752744.25, -41646.65, -0.043059323, 0.15733007, -675785.4, -31499.814, 0.0, 9.99995, 9.999226 
1.245068e+3, 2.4425715e+2, -645310.8, -687030.0, -43408.01, -0.03403454, 0.15045746, -618010.5, -71717.11, 0.0, 9.999688, 9.999129 
1.2450661e+3, 2.5425604e+2, -599934.1, -612203.75, -42280.188, -0.019532355, 0.1234069, -563346.0, -115042.266, 0.0, 9.999316, 9.999149 
1.2450642e+3, 2.6425517e+2, -559042.44, -562366.25, -31335.62, -0.012552132, 0.12905659, -529324.7, -179011.66, 0.0, 9.999013, 9.998964 
1.2450623e+3, 2.7425456e+2, -488163.3, -476498.38, -20310.186, -0.015974952, 0.16790281, -461199.8, -208878.39, 0.0, 9.998823, 9.998973 
1.2450604e+3, 2.8425398e+2, -363691.3, -264398.13, -14110.572, -0.009921072, 0.1750085, -262431.8, -108105.22, 0.0, 9.998568, 9.999879 
1.2450589e+3, 2.942536e+2, -315492.1, -183267.52, -34380.754, 0.008800876, 0.13648061, -174862.22, -118534.766, 0.0, 9.998195, 9.999942 
1.2450573e+3, 3.0425292e+2, -383818.94, -315372.28, -31113.637, 0.0066286596, 0.12883279, -303343.1, -303343.1, 0.0, 9.997926, 9.998831 
1.245056e+3, 3.1425184e+2, -248998.33, -13029.595, 2723.7688, 0.048126422, 0.13714176, -12998.158, -12998.158, 0.0, 9.997827, 10.000956 
1.2550874e+3, 1.2427405e+2, -1290700.1, -1721390.8, -95446.87, -0.00188927, 0.22404003, -1270495.6, 451638.9, 0.003745995, 10.003854, 9.99809 
1.2550887e+3, 1.3427164e+2, -1249215.3, -1627549.1, 61814.953, 0.08257927, 0.15091279, -1239371.5, 384786.16, 0.0020748412, 10.003326, 9.998332 
1.2550859e+3, 1.4427045e+2, -1207965.1, -1549190.6, -16062.753, -0.16794032, 0.19518517, -1207210.6, 318958.6, 0.00077620865, 10.002913, 9.998385 
1.255086e+3, 1.5426911e+2, -1136650.9, -1460311.4, -16157.187, -0.0091785295, 0.22091779, -1135846.4, 292336.1, 0.00013646827, 10.002714, 9.998418 
1.255085e+3, 1.642676e+2, -1073151.8, -1357060.1, -14717.141, 0.04182284, 0.2176312, -1072390.9, 257805.81, 0.0000030208696, 10.002381, 9.998614 
1.2550823e+3, 1.742658e+2, -1045335.1, -1288837.1, -16605.697, -0.055672303, 0.17211336, -1044207.9, 188004.48, 0.0, 10.001882, 9.998651 
1.2550804e+3, 1.8426424e+2, -998280.06, -1216530.9, -36064.21, -0.089249246, 0.14974855, -992475.1, 141751.8, 0.0, 10.001534, 9.998642 
1.2550789e+3, 1.9426292e+2, -919965.44, -1125091.0, -44971.848, -0.034590077, 0.15067838, -910538.94, 125701.234, 0.0, 10.001388, 9.998669 
1.2550771e+3, 2.0426188e+2, -836987.7, -984813.44, -56202.42, -0.01874247, 0.15987158, -818046.75, 120203.4, 0.0, 10.001071, 9.999111 
1.2550744e+3, 2.142612e+2, -812925.7, -915494.4, -41581.58, -0.056641594, 0.17314146, -798186.5, 42069.277, 0.0, 10.000533, 9.999173 
1.255072e+3, 2.2426021e+2, -787925.4, -877826.75, -39724.926, -0.069254756, 0.16733357, -772887.44, -30622.69, 0.0, 10.00014, 9.998949 
1.25507e+3, 2.342588e+2, -716560.75, -790792.25, -48911.85, -0.046624407, 0.12824179, -692276.6, -47998.395, 0.0, 9.99995, 9.998964 
1.2550677e+3, 2.4425775e+2, -643648.25, -683962.8, -56987.773, -0.02528084, 0.11775384, -603357.9, -57069.65, 0.0, 9.999688, 9.999151 
1.2550655e+3, 2.5425714e+2, -596545.75, -606177.75, -55628.14, -0.0055182353, 0.13761705, -545525.56, -97231.805, 0.0, 9.999319, 9.99919 
1.2550633e+3, 2.6425654e+2, -538955.56, -521489.72, -38702.02, -0.0061674574, 0.15469246, -490547.6, -140247.78, 0.0, 9.999016, 9.999245 
1.2550607e+3, 2.7425587e+2, -467417.03, -432566.78, -26240.352, -0.03492352, 0.15907592, -418492.84, -166185.94, 0.0, 9.998818, 9.999277 
1.255059e+3, 2.8425506e+2, -397372.94, -333665.75, -26664.346, -0.022182671, 0.14579627, -323978.53, -169663.73, 0.0, 9.998564, 9.999406 
1.2550575e+3, 2.9425412e+2, -352518.9, -261108.08, -47276.504, 0.044849582, 0.10742444, -241055.95, -184732.36, 0.0, 9.998198, 9.999407 
1.2550555e+3, 3.0425394e+2, -336305.56, -217431.9, -35159.23, 0.038392853, 0.14774226, -207811.45, -207811.45, 0.0, 9.997929, 9.999502 
1.2550534e+3, 3.1425366e+2, -200880.73, 89460.07, 3496.184, 0.011179206, 0.15698281, 89502.164, 89502.164, 0.0, 9.997815, 10.001665 
1.265091e+3, 1.2427562e+2, -1306287.6, -1752232.8, -69207.62, -0.029636858, 0.22311588, -1295794.0, 426324.66, 0.0040529678, 10.003846, 9.997882 
1.2650923e+3, 1.3427304e+2, -1233110.5, -1639201.8, 79441.05, 0.10609122, 0.15274186, -1218123.0, 406021.06, 0.0022565385, 10.003522, 9.9981575 
1.265089e+3, 1.4427175e+2, -1172644.4, -1530108.0, 2021.205, -0.15797588, 0.19521564, -1172632.9, 353523.9, 0.0008535736, 10.003149, 9.998402 
1.2650886e+3, 1.5427056e+2, -1130387.6, -1455096.3, -9577.897, -0.02448387, 0.23070098, -1130105.4, 298063.13, 0.00015477135, 10.0027485, 9.998437 
1.2650871e+3, 1.6426899e+2, -1076575.9, -1367978.4, -17919.746, 0.024084114, 0.225496, -1075478.0, 254705.08, 0.0000038088367, 10.002398, 9.998531 
1.2650846e+3, 1.7426692e+2, -1018113.2, -1285348.4, -21138.816, -0.04081522, 0.16249976, -1016451.44, 215750.02, 0.0, 10.002111, 9.998564 
1.2650822e+3, 1.8426533e+2, -967329.94, -1198342.0, -29583.623, -0.067273505, 0.14121787, -963601.6, 170614.81, 0.0, 10.001735, 9.99867 
1.2650803e+3, 1.942643e+2, -939171.6, -1130347.3, -19671.396, -0.043324817, 0.16658951, -937168.5, 99058.664, 0.0, 10.00124, 9.998702 
1.2650779e+3, 2.0426331e+2, -867806.44, -996943.0, -33996.742, -0.036450658, 0.17938146, -859403.2, 78833.35, 0.0, 10.000848, 9.999135 
1.265075e+3, 2.1426244e+2, -803625.5, -908277.44, -48430.934, -0.05291984, 0.16871588, -784652.4, 55591.613, 0.0, 10.0005865, 9.999197 
1.2650724e+3, 2.2426142e+2, -759078.44, -860245.4, -46927.508, -0.057132788, 0.15809248, -740662.8, 1590.2616, 0.0, 10.000323, 9.9989805 
1.26507e+3, 2.3426023e+2, -699012.5, -779122.3, -35249.313, -0.044351667, 0.13935329, -685710.94, -41446.547, 0.0, 10.000056, 9.998994 
1.2650675e+3, 2.4425922e+2, -633533.94, -686349.75, -37743.09, -0.027594598, 0.13328186, -613877.56, -67603.28, 0.0, 9.999788, 9.999086 
1.2650649e+3, 2.5425836e+2, -571105.06, -601415.4, -45899.938, -0.0067147943, 0.13633002, -537923.06, -89640.76, 0.0, 9.999527, 9.999122 
1.2650624e+3, 2.6425773e+2, -503662.53, -491842.0, -39104.098, -0.0024553647, 0.14846031, -458204.06, -107915.65, 0.0, 9.999205, 9.999357 
1.2650599e+3, 2.7425727e+2, -464106.66, -416808.88, -40575.324, -0.019497672, 0.16218516, -393493.66, -141201.19, 0.0, 9.99878, 9.999403 
1.2650575e+3, 2.8425643e+2, -425743.63, -364528.88, -35170.367, -0.008398313, 0.14617407, -348512.6, -194211.92, 0.0, 9.998443, 9.999251 
1.2650557e+3, 2.942552e+2, -359849.3, -284478.25, -29796.74, 0.037787672, 0.09313612, -274121.7, -217807.97, 0.0, 9.998233, 9.999229 
1.2650533e+3, 3.042553e+2, -314174.38, -181831.64, -16669.379, 0.02486136, 0.16083871, -179764.33, -179764.33, 0.0, 9.997973, 9.999724 
1.2650512e+3, 3.14255e+2, -215838.55, 96554.266, -15370.458, 0.015608514, 0.14492418, 97308.7, 97308.7, 0.0, 9.997651, 10.001792 
1.2750943e+3, 1.2427743e+2, -1320808.6, -1781752.5, -76376.7, -0.08766823, 0.19616519, -1308482.9, 413617.22, 0.0043717525, 10.003844, 9.997681 
1.2750965e+3, 1.3427536e+2, -1245416.9, -1665853.9, 66656.38, 0.17177853, 0.19697908, -1235102.3, 389019.38, 0.0024458782, 10.003528, 9.9979725 
1.2750928e+3, 1.4427397e+2, -1180566.3, -1548000.5, -14079.419, -0.09947876, 0.24404955, -1180027.5, 346108.0, 0.00093509414, 10.003154, 9.998278 
1.2750909e+3, 1.5427206e+2, -1139724.0, -1475617.9, -24886.883, -0.07137397, 0.22292139, -1137890.1, 290263.34, 0.00017466526, 10.002751, 9.998295 
1.275089e+3, 1.6427015e+2, -1084069.8, -1383371.4, -29790.115, -0.042436365, 0.19434929, -1081133.5, 249038.19, 0.0000047674703, 10.002397, 9.998426 
1.275087e+3, 1.7426823e+2, -1024711.44, -1299200.5, -32174.637, -0.006895287, 0.15553343, -1020990.5, 211198.8, 0.0, 10.0021105, 9.998469 
1.2750846e+3, 1.8426697e+2, -949188.75, -1160415.4, -48744.074, -0.008730802, 0.16106072, -938482.9, 195718.16, 0.0, 10.001733, 9.998932 
1.2750813e+3, 1.9426653e+2, -918591.44, -1088107.0, -38985.934, -0.063478306, 0.2163071, -910055.1, 126150.18, 0.0, 10.001242, 9.998992 
1.2750784e+3, 2.0426545e+2, -888959.06, -1041461.2, -45563.887, -0.07659825, 0.2174796, -876382.8, 61832.844, 0.0, 10.00085, 9.998829 
1.2750758e+3, 2.1426353e+2, -828272.2, -959696.06, -58712.16, -0.031853292, 0.14035408, -805863.9, 34370.16, 0.0, 10.0005865, 9.998844 
1.2750731e+3, 2.2426243e+2, -740468.1, -821324.56, -57840.113, -0.015333415, 0.126808, -710327.8, 31916.479, 0.0, 10.000321, 9.999249 
1.27507e+3, 2.3426238e+2, -676741.8, -733211.1, -45436.305, -0.03681309, 0.18953454, -651482.06, -7238.1577, 0.0, 10.000057, 9.999309 
1.2750672e+3, 2.4426156e+2, -644404.25, -709114.56, -47940.664, -0.041319504, 0.1957541, -618922.0, -72670.67, 0.0, 9.999788, 9.998931 
1.2750643e+3, 2.5425977e+2, -584212.0, -628641.2, -55070.75, -0.024276512, 0.12019449, -547044.2, -98775.086, 0.0, 9.999526, 9.998937 
1.2750617e+3, 2.642588e+2, -507317.72, -499735.78, -53912.99, -0.0024705047, 0.11100091, -449480.66, -99202.055, 0.0, 9.999205, 9.999304 
1.2750591e+3, 2.742588e+2, -466518.03, -422913.22, -55263.92, 0.02776701, 0.17723586, -385306.47, -133028.56, 0.0, 9.998783, 9.99936 
1.2750565e+3, 2.842582e+2, -414185.34, -341164.56, -42920.523, 0.028281547, 0.1757231, -321326.22, -167042.27, 0.0, 9.998445, 9.999411 
1.2750533e+3, 2.942568e+2, -348556.5, -259251.73, -36250.82, -0.013930478, 0.093955174, -246389.27, -190091.69, 0.0, 9.998224, 9.999407 
1.2750508e+3, 3.0425695e+2, -331692.6, -216646.64, -27254.82, -0.03409327, 0.16854537, -210516.52, -210516.52, 0.0, 9.997966, 9.99949 
1.2750493e+3, 3.1425598e+2, -249048.56, 27894.97, -22132.473, 0.05673894, 0.112757824, 29652.574, 29652.574, 0.0, 9.99765, 10.001321 
1.2850983e+3, 1.2427946e+2, -1258681.6, -1759207.5, -84689.51, -0.08352622, 0.20104876, -1244740.4, 477339.66, 0.0047019916, 10.004307, 9.997612 
1.2851003e+3, 1.3427736e+2, -1201352.5, -1651224.1, 58404.953, 0.1711378, 0.20448133, -1193893.6, 430207.94, 0.0026428213, 10.00386, 9.997911 
1.2850958e+3, 1.442758e+2, -1156356.6, -1545411.8, -19224.164, -0.11863818, 0.24087858, -1155409.0, 370708.22, 0.001020959, 10.00336, 9.998196 
1.2850936e+3, 1.5427372e+2, -1134037.8, -1482346.8, -26649.844, -0.06921714, 0.20916003, -1132010.5, 296126.56, 0.00019628371, 10.002833, 9.998208 
1.2850913e+3, 1.6427176e+2, -1084354.4, -1380906.4, -19005.004, -0.034874458, 0.18281685, -1083141.4, 247014.19, 0.0000059623408, 10.002385, 9.998448 
1.285089e+3, 1.7427008e+2, -1034979.75, -1301114.5, -12448.785, -0.011887198, 0.16454923, -1034398.75, 197772.44, 0.0, 10.002028, 9.998495 
1.2850861e+3, 1.8426888e+2, -960711.0, -1166723.4, -37132.19, -0.01190289, 0.17498887, -954222.56, 179959.86, 0.0, 10.001658, 9.998923 
1.2850827e+3, 1.9426827e+2, -915249.6, -1087559.5, -50236.03, -0.046821702, 0.21375723, -901673.25, 134515.05, 0.0, 10.001269, 9.998981 
1.2850794e+3, 2.0426714e+2, -874226.25, -1032791.8, -51024.406, -0.058131054, 0.21077518, -859226.25, 78972.85, 0.0, 10.000945, 9.998842 
1.2850764e+3, 2.1426536e+2, -809797.7, -948764.25, -37345.543, -0.03643577, 0.14534912, -800397.4, 39818.965, 0.0, 10.000706, 9.998861 
1.2850733e+3, 2.2426434e+2, -726214.4, -812626.6, -32409.3, -0.027330706, 0.13771614, -715410.0, 26815.988, 0.0, 10.000412, 9.999266 
1.28507e+3, 2.3426428e+2, -677561.8, -731500.25, -43139.914, -0.036133662, 0.19832474, -653654.8, -9429.096, 0.0, 10.000044, 9.999327 
1.285067e+3, 2.4426346e+2, -648798.44, -707439.25, -48254.324, -0.031493887, 0.20126653, -621655.0, -75421.83, 0.0, 9.9997425, 9.998964 
1.2850639e+3, 2.5426164e+2, -581643.0, -623817.75, -39608.29, -0.00964555, 0.12143995, -557858.44, -109607.625, 0.0, 9.999528, 9.998969 
1.285061e+3, 2.6426065e+2, -498709.44, -499372.53, -32906.414, 0.008207336, 0.11077326, -466132.9, -115872.586, 0.0, 9.999279, 9.9992695 
1.2850578e+3, 2.7426064e+2, -439009.84, -413968.72, -35170.703, 0.022008212, 0.17756042, -389156.4, -136896.45, 0.0, 9.998991, 9.999322 
1.2850548e+3, 2.8425997e+2, -388241.7, -329668.7, -28353.69, 0.020873746, 0.1757657, -318192.1, -163925.83, 0.0, 9.998628, 9.999402 
1.2850517e+3, 2.9425862e+2, -359957.88, -265271.53, -36444.914, -0.0023571337, 0.09613129, -252868.52, -196588.73, 0.0, 9.998148, 9.999402 
1.2850487e+3, 3.0425897e+2, -355415.3, -226235.75, -20831.684, -0.019196697, 0.18679158, -222959.48, -222959.48, 0.0, 9.997796, 9.999505 
1.285047e+3, 3.1425765e+2, -267800.3, -8555.257, 7603.372, 0.054159634, 0.09701994, -8332.45, -8332.45, 0.0, 9.997639, 10.001077 
1.2951033e+3, 1.2428183e+2, -1255394.1, -1753994.6, -94045.26, -0.022123536, 0.23796436, -1238245.3, 483811.97, 0.0050432403, 10.004313, 9.997645 
1.2951034e+3, 1.3427913e+2, -1199106.9, -1645150.3, 40965.863, 0.104938745, 0.17640115, -1195375.8, 428707.66, 0.0028472822, 10.003856, 9.997955 
1.2950982e+3, 1.4427732e+2, -1160007.1, -1551634.6, -39961.82, -0.21511121, 0.18709132, -1155971.0, 370130.0, 0.0011110725, 10.003354, 9.998157 
1.295097e+3, 1.542755e+2, -1135487.5, -1486540.0, -46296.574, -0.020691833, 0.18942885, -1129484.6, 298634.13, 0.000219555, 10.002837, 9.9981785 
1.2950945e+3, 1.6427389e+2, -1073968.4, -1360482.1, -33439.715, 0.042424586, 0.1897511, -1070117.3, 260017.03, 0.0000074533, 10.002389, 9.998588 
1.2950908e+3, 1.7427254e+2, -1024514.75, -1280102.9, -26172.781, -0.0554468, 0.18891595, -1021862.1, 210284.47, 0.0, 10.00203, 9.998639 
1.2950873e+3, 1.8427111e+2, -979826.06, -1206857.8, -52507.445, -0.075664856, 0.1830454, -968270.44, 165889.66, 0.0, 10.001659, 9.998649 
1.2950845e+3, 1.9426958e+2, -936452.0, -1132216.0, -64976.832, 0.004102793, 0.1608675, -916848.4, 119327.1, 0.0, 10.001271, 9.998675 
1.2950811e+3, 2.0426849e+2, -851577.3, -985949.5, -61242.2, 0.0144921355, 0.16062845, -827853.7, 110332.53, 0.0, 10.000946, 9.999164 
1.2950768e+3, 2.1426794e+2, -783460.0, -894585.2, -46879.55, -0.06626393, 0.18235257, -766325.3, 73865.484, 0.0, 10.000707, 9.999233 
1.2950732e+3, 2.2426715e+2, -742164.7, -846196.75, -46804.176, -0.09171446, 0.18907009, -724207.1, 17991.0, 0.0, 10.000413, 9.999035 
1.29507e+3, 2.34266e+2, -696795.06, -771811.56, -56847.613, -0.043463096, 0.16694579, -666196.6, -21987.268, 0.0, 10.000044, 9.99905 
1.295067e+3, 2.4426495e+2, -633851.0, -676441.8, -56707.477, -0.00073542394, 0.15138976, -594572.2, -48352.98, 0.0, 9.999742, 9.999178 
1.295064e+3, 2.5426406e+2, -563871.8, -587517.2, -47036.055, 0.035421785, 0.13985272, -527195.4, -78968.19, 0.0, 9.99953, 9.999218 
1.2950604e+3, 2.6426333e+2, -499917.9, -502315.72, -43020.277, 0.027998691, 0.14691044, -458079.8, -107846.34, 0.0, 9.99928, 9.999249 
1.2950563e+3, 2.7426282e+2, -442360.56, -419813.16, -44676.164, -0.037743274, 0.1640075, -385010.22, -132771.88, 0.0, 9.998985, 9.999285 
1.2950529e+3, 2.842619e+2, -401572.13, -356816.28, -44586.785, -0.03121058, 0.14721937, -329306.78, -175059.36, 0.0, 9.998624, 9.999218 
1.2950505e+3, 2.9426068e+2, -372431.34, -292297.66, -52932.063, 0.069690004, 0.10028127, -265978.1, -209717.89, 0.0, 9.998152, 9.999215 
1.2950476e+3, 3.042613e+2, -336256.56, -187230.06, -26811.88, 0.06622509, 0.21509916, -182553.02, -182553.02, 0.0, 9.997799, 9.999772 
1.2950441e+3, 3.142601e+2, -271028.88, -10978.206, 6973.4375, 0.0036617585, 0.10796853, -10791.343, -10791.343, 0.0, 9.997621, 10.001069 
1.3051075e+3, 1.2428402e+2, -1208107.4, -1719816.1, -80282.914, -0.03496671, 0.22169982, -1195807.3, 526228.2, 0.0053931605, 10.004595, 9.997744 
1.3051073e+3, 1.3428141e+2, -1211760.0, -1640124.8, 47259.094, 0.110388726, 0.1603745, -1206608.1, 417451.78, 0.0030578668, 10.003723, 9.998054 
1.3051015e+3, 1.4427963e+2, -1192050.3, -1565937.1, -17293.78, -0.21533777, 0.16899309, -1191252.0, 334825.0, 0.0012046372, 10.00313, 9.998165 
1.3050999e+3, 1.5427788e+2, -1124845.9, -1481543.3, -21086.455, -0.017495103, 0.17537856, -1123603.6, 304491.0, 0.000244213, 10.002912, 9.998177 
1.305097e+3, 1.642763e+2, -1047124.1, -1345321.8, -13760.275, 0.04758586, 0.18077545, -1046490.5, 283619.44, 0.000009295233, 10.002564, 9.998607 
1.3050927e+3, 1.7427503e+2, -1018656.7, -1274361.6, -15897.878, -0.04660723, 0.18580243, -1017672.06, 214449.48, 0.0, 10.002059, 9.998664 
1.305089e+3, 1.842736e+2, -971077.94, -1197560.4, -30358.434, -0.06991457, 0.1752288, -967079.2, 167055.83, 0.0, 10.0016985, 9.9986925 
1.3050859e+3, 1.9427192e+2, -897234.44, -1107676.1, -17176.232, -0.004780531, 0.13477845, -895841.75, 140309.44, 0.0, 10.001517, 9.998724 
1.305082e+3, 2.0427085e+2, -812897.2, -969780.56, -12639.969, 0.0032023946, 0.13557239, -811885.3, 126276.36, 0.0, 10.001223, 9.999141 
1.3050777e+3, 2.1427055e+2, -775827.94, -894059.9, -28401.291, -0.063836634, 0.18406102, -769359.4, 70805.266, 0.0, 10.000773, 9.999205 
1.3050736e+3, 2.2426979e+2, -745678.7, -850445.6, -36038.074, -0.08321549, 0.1960464, -734479.4, 7692.7393, 0.0, 10.000401, 9.999012 
1.3050702e+3, 2.3426837e+2, -685549.9, -768712.6, -28526.814, -0.039447267, 0.15016231, -676705.2, -32519.424, 0.0, 10.000132, 9.999029 
1.305067e+3, 2.442673e+2, -611091.4, -662149.56, -20948.492, -0.00076008687, 0.13361372, -603596.6, -57400.883, 0.0, 9.999884, 9.999208 
1.3050635e+3, 2.5426677e+2, -542815.0, -573599.25, -27640.367, 0.03166442, 0.15143657, -526570.0, -78369.22, 0.0, 9.999659, 9.999251 
1.3050596e+3, 2.642661e+2, -500700.44, -507107.66, -40197.414, 0.02388887, 0.16558507, -463579.16, -113372.61, 0.0, 9.999295, 9.999209 
1.3050552e+3, 2.742653e+2, -479881.28, -443155.06, -44173.746, -0.037641082, 0.15936428, -413679.66, -161465.38, 0.0, 9.998751, 9.999237 
1.3050514e+3, 2.8426433e+2, -422791.53, -361808.38, -28536.656, -0.027567329, 0.13538381, -350537.8, -196313.75, 0.0, 9.998456, 9.999264 
1.3050489e+3, 2.9426327e+2, -318755.6, -260193.17, -18930.5, 0.07621613, 0.10230812, -254606.72, -198372.02, 0.0, 9.998494, 9.999271 
1.3050453e+3, 3.0426413e+2, -289096.03, -147561.56, -1819.8898, 0.07507117, 0.2290582, -147538.16, -147538.16, 0.0, 9.998051, 9.999924 
1.3050415e+3, 3.142632e+2, -375780.97, -79707.15, 21026.07, 0.0075974036, 0.13511382, -78221.41, -78221.41, 0.0, 9.996979, 10.000907 
1.3151114e+3, 1.2428616e+2, -1198142.9, -1697082.4, -102443.09, -0.12154334, 0.15983318, -1177928.0, 544085.2, 0.0057472475, 10.004586, 9.997906 
1.3151117e+3, 1.3428427e+2, -1200057.0, -1617270.4, 14684.302, 0.18341461, 0.15497276, -1199540.8, 424490.03, 0.0032716878, 10.00373, 9.998207 
1.3151056e+3, 1.442828e+2, -1187585.5, -1558891.1, -27674.055, -0.12589781, 0.18432027, -1185534.3, 340510.44, 0.0013003696, 10.0031395, 9.99821 
1.3151024e+3, 1.5428083e+2, -1124006.4, -1479391.8, -29440.572, -0.059076406, 0.16664234, -1121584.0, 306480.47, 0.00026992275, 10.00291, 9.998193 
1.315099e+3, 1.6427906e+2, -1054419.1, -1359985.6, -32904.66, -0.017853826, 0.1564184, -1050916.0, 279165.9, 0.00001153221, 10.002561, 9.998508 
1.3150954e+3, 1.7427763e+2, -1024822.1, -1288271.5, -34963.19, 0.011500256, 0.1565036, -1020261.0, 211834.5, 0.0, 10.002063, 9.998568 
1.3150914e+3, 1.8427639e+2, -945667.5, -1145440.4, -38708.45, 0.00023847594, 0.15215693, -938429.5, 195677.36, 0.0, 10.0017, 9.99905 
1.3150866e+3, 1.9427532e+2, -869724.4, -1051062.0, -24595.82, -0.07214756, 0.13355905, -866447.56, 169667.89, 0.0, 10.001519, 9.999113 
1.3150825e+3, 2.0427428e+2, -837905.56, -1022019.9, -30029.896, -0.08973735, 0.13371912, -833131.3, 104994.13, 0.0, 10.001224, 9.998782 
1.3150787e+3, 2.1427326e+2, -805384.56, -955384.94, -45565.395, -0.031510804, 0.15191051, -792628.06, 47509.277, 0.0, 10.000772, 9.998785 
1.3150749e+3, 2.2427231e+2, -733817.44, -825497.8, -47374.445, -0.006333926, 0.16065983, -713736.0, 28411.29, 0.0, 10.000399, 9.999185 
1.3150704e+3, 2.3427144e+2, -670071.5, -737173.2, -38701.89, -0.025080249, 0.14726289, -652402.25, -8247.416, 0.0, 10.0001335, 9.999246 
1.3150664e+3, 2.4427058e+2, -621158.3, -683419.5, -29678.795, -0.031522322, 0.14619589, -609277.94, -63115.086, 0.0, 9.999885, 9.999062 
1.3150626e+3, 2.5426978e+2, -555411.4, -599023.94, -35233.43, -0.02160089, 0.1566691, -535782.06, -87610.8, 0.0, 9.999654, 9.99908 
1.3150588e+3, 2.64269e+2, -506278.7, -518277.56, -58861.08, -0.005300258, 0.16737716, -453112.1, -102932.83, 0.0, 9.999291, 9.999135 
1.3150544e+3, 2.7426812e+2, -484074.4, -452991.03, -63110.02, 0.020248726, 0.16380192, -403537.2, -151349.6, 0.0, 9.9987545, 9.999168 
1.3150506e+3, 2.8426725e+2, -402973.13, -321839.84, -27809.67, 0.029267583, 0.1402782, -313222.88, -159026.75, 0.0, 9.998461, 9.999537 
1.3150468e+3, 2.9426646e+2, -299739.16, -217209.44, -15689.552, 0.014318702, 0.1032127, -214327.38, -158124.27, 0.0, 9.998478, 9.999574 
1.3150428e+3, 3.0426747e+2, -289671.25, -145900.73, -37631.574, 0.004659364, 0.22917438, -136646.45, -136646.45, 0.0, 9.998036, 9.999942 
1.3150391e+3, 3.1426704e+2, -396994.84, -124397.664, -13971.381, 0.06325306, 0.18514486, -123683.46, -123683.46, 0.0, 9.996982, 10.000599 
1.3251159e+3, 1.2428954e+2, -1227910.1, -1719291.4, -49743.09, -0.123941965, 0.13651022, -1222925.1, 499053.88, 0.006101204, 10.004415, 9.997836 
1.3251156e+3, 1.3428776e+2, -1169705.1, -1612214.4, 38316.88, 0.18883276, 0.15195082, -1166411.8, 457584.34, 0.0034858792, 10.0039835, 9.998119 
1.3251089e+3, 1.4428633e+2, -1138926.3, -1535571.0, -6968.144, -0.12435038, 0.18946794, -1138803.9, 387205.97, 0.0013970501, 10.003476, 9.998207 
1.3251053e+3, 1.5428425e+2, -1127613.4, -1481372.9, -9726.66, -0.054447886, 0.16162382, -1127346.3, 300684.0, 0.00029637254, 10.002887, 9.99819 
1.3251014e+3, 1.642824e+2, -1070667.8, -1369668.3, -8323.193, -0.015650466, 0.1442766, -1070436.3, 259612.05, 0.000014169166, 10.002459, 9.99849 
1.3250975e+3, 1.7428096e+2, -1001974.56, -1279254.9, -5714.302, 0.009415483, 0.1442872, -1001856.9, 230205.31, 0.0, 10.00223, 9.9985485 
1.3250932e+3, 1.8427974e+2, -916065.56, -1129413.3, -16354.814, -0.0031346022, 0.14381544, -914819.1, 219254.08, 0.0, 10.001896, 9.999066 
1.325088e+3, 1.9427878e+2, -880653.44, -1054013.8, -29234.777, -0.07603122, 0.13256958, -875856.1, 160224.75, 0.0, 10.001434, 9.999134 
1.3250834e+3, 2.0427775e+2, -864339.25, -1033737.6, -38429.74, -0.09329084, 0.13323665, -856028.75, 82061.97, 0.0, 10.001038, 9.998792 
1.3250795e+3, 2.1427666e+2, -811779.1, -957093.7, -24040.36, -0.03288784, 0.14371273, -807905.25, 32198.082, 0.0, 10.000724, 9.9987955 
1.3250752e+3, 2.242757e+2, -724773.56, -821137.3, -9219.065, -0.006110491, 0.15018477, -723899.5, 18213.992, 0.0, 10.000462, 9.999184 
1.3250707e+3, 2.3427488e+2, -651304.06, -728006.2, -16685.86, -0.024863763, 0.14186852, -647831.44, -3710.7468, 0.0, 10.000263, 9.999246 
1.3250662e+3, 2.4427406e+2, -614669.25, -677870.0, -15777.74, -0.035372388, 0.14460304, -610949.4, -64821.03, 0.0, 9.99992, 9.999083 
1.325062e+3, 2.542733e+2, -592351.1, -613758.1, -8747.13, -0.035278536, 0.15635696, -589231.56, -141095.08, 0.0, 9.999389, 9.9991045 
1.3250577e+3, 2.6427248e+2, -540941.7, -535554.7, -19493.375, -0.018074147, 0.16585986, -518569.63, -168425.08, 0.0, 9.999058, 9.999128 
1.3250533e+3, 2.742716e+2, -450880.25, -438006.94, -19640.19, 0.023292275, 0.15844002, -423775.56, -171622.25, 0.0, 9.998988, 9.999159 
1.3250491e+3, 2.8427073e+2, -381098.78, -309055.97, 6123.3115, 0.033366814, 0.13790594, -308539.25, -154377.67, 0.0, 9.998603, 9.999556 
1.3250448e+3, 2.9427007e+2, -395876.16, -259908.92, -4512.829, 0.0006033197, 0.11060623, -259759.31, -203591.73, 0.0, 9.997805, 9.999605 
1.3250405e+3, 3.0427092e+2, -377024.7, -165218.27, -35170.383, -0.0035282255, 0.21098462, -159530.94, -159530.94, 0.0, 9.997341, 10.000143 
1.3250363e+3, 3.1427082e+2, -351258.16, -107198.91, 6756.0522, 0.07767851, 0.17748378, -107012.03, -107012.03, 0.0, 9.997318, 10.000554 
1.335121e+3, 1.242942e+2, -1248352.9, -1764305.6, -57163.426, -0.050430194, 0.14958796, -1242095.5, 479836.97, 0.0064523267, 10.004425, 9.997523 
1.335119e+3, 1.3429195e+2, -1193575.6, -1660805.4, 21718.62, 0.13017982, 0.15258034, -1192568.3, 431386.97, 0.0036987294, 10.00398, 9.9977865 
1.3351114e+3, 1.4429028e+2, -1142217.9, -1541868.4, -29307.393, -0.20796518, 0.18597497, -1140080.1, 385891.6, 0.0014937153, 10.003473, 9.998166 
1.3351086e+3, 1.5428819e+2, -1126985.1, -1482411.4, -31604.805, -0.0076937242, 0.15913218, -1124196.8, 303794.63, 0.00032323142, 10.002895, 9.9981785 
1.3351046e+3, 1.6428638e+2, -1066273.3, -1362618.1, -18323.242, 0.048516136, 0.14309753, -1065144.6, 264863.97, 0.000017128494, 10.002466, 9.998536 
1.3350992e+3, 1.7428504e+2, -998604.44, -1272892.1, -14843.295, -0.05135516, 0.14818919, -997803.56, 234217.77, 0.00000000003443261, 10.002231, 9.998592 
1.3350943e+3, 1.842837e+2, -937625.5, -1174375.6, -34240.152, -0.078222714, 0.14907555, -932772.94, 201260.97, 0.0, 10.001896, 9.998757 
1.3350901e+3, 1.9428235e+2, -903877.0, -1102778.4, -46882.867, -0.019541742, 0.13224413, -893380.25, 142666.67, 0.0, 10.001435, 9.998798 
1.3350853e+3, 2.0428133e+2, -839075.3, -981356.4, -51460.098, -0.012262294, 0.13483533, -822414.25, 115642.54, 0.0, 10.001038, 9.999152 
1.3350798e+3, 2.1428078e+2, -782800.06, -897239.56, -36526.598, -0.068251595, 0.15788676, -772135.44, 67926.98, 0.0, 10.000725, 9.9992075 
1.3350749e+3, 2.2427994e+2, -735996.4, -844664.2, -17957.22, -0.08123295, 0.16244218, -733105.8, 8964.914, 0.0, 10.000462, 9.9990225 
1.3350707e+3, 2.3427871e+2, -666267.2, -758496.6, -23898.934, -0.03920015, 0.13415247, -660442.25, -16359.395, 0.0, 10.000259, 9.999039 
1.3350664e+3, 2.442778e+2, -603270.25, -653326.3, -34822.28, -0.01418119, 0.1297066, -585414.75, -39322.98, 0.0, 9.999915, 9.999253 
1.3350616e+3, 2.5427732e+2, -578547.0, -585364.6, -28125.176, -0.011413627, 0.15109636, -553624.8, -105528.48, 0.0, 9.99939, 9.9993 
1.3350567e+3, 2.6427668e+2, -535890.8, -525794.4, -22832.81, -0.015974265, 0.16115008, -507458.34, -157355.84, 0.0, 9.99906, 9.999195 
1.335052e+3, 2.7427572e+2, -448318.38, -430332.47, -20613.236, -0.030440569, 0.14320631, -416835.88, -164724.45, 0.0, 9.998977, 9.999217 
1.3350472e+3, 2.8427482e+2, -400116.7, -346642.8, -20675.902, -0.017031614, 0.12862077, -339580.97, -185460.61, 0.0, 9.998593, 9.999303 
1.335043e+3, 2.9427415e+2, -414218.34, -299135.9, -32792.176, 0.033915017, 0.1265063, -290447.84, -234319.84, 0.0, 9.997808, 9.999334 
1.3350382e+3, 3.0427456e+2, -348024.06, -106653.83, -36591.395, 0.047903195, 0.17598501, -101228.57, -101228.57, 0.0, 9.997348, 10.000543 
1.3350333e+3, 3.1427458e+2, -336609.2, -72086.36, 10839.018, 0.04461342, 0.11370971, -71642.96, -71642.96, 0.0, 9.997298, 10.000805 
1.3451257e+3, 1.24299355e+2, -1169702.1, -1743840.8, -36303.56, -0.04511166, 0.17247854, -1167415.6, 554465.94, 0.0067991978, 10.005048, 9.997363 
1.3451232e+3, 1.3429669e+2, -1169042.3, -1668734.3, 42380.234, 0.13383073, 0.15146455, -1165473.4, 458435.28, 0.0039094198, 10.004236, 9.997608 
1.3451152e+3, 1.4429483e+2, -1121520.9, -1543219.3, 4169.235, -0.20838054, 0.17967871, -1121479.8, 404447.3, 0.001589704, 10.003665, 9.998064 
1.3451119e+3, 1.5429266e+2, -1062006.4, -1462256.3, -5639.4243, -0.009681028, 0.15505989, -1061926.9, 366020.34, 0.0003501717, 10.003391, 9.998078 
1.3451073e+3, 1.6429077e+2, -1005493.0, -1345346.3, -1980.0367, 0.044708207, 0.14224295, -1005481.5, 324483.66, 0.000020254476, 10.002936, 9.998428 
1.3451013e+3, 1.7428936e+2, -1001753.56, -1286155.3, -9437.022, -0.05466733, 0.1517906, -1001440.8, 230537.95, 0.0000000014653116, 10.00226, 9.998487 
1.3450961e+3, 1.8428798e+2, -963756.44, -1193369.4, -23112.455, -0.077681035, 0.15464675, -961453.1, 172539.16, 0.0, 10.001744, 9.9987 
1.3450916e+3, 1.9428656e+2, -908503.75, -1110641.9, -16286.95, -0.011564616, 0.13791746, -907199.9, 128806.18, 0.0, 10.001429, 9.998747 
1.3450864e+3, 2.0428552e+2, -827484.2, -971003.94, -18009.377, -0.0048194695, 0.13817531, -825258.8, 112757.35, 0.0, 10.001097, 9.999194 
1.3450804e+3, 2.1428494e+2, -776090.0, -888238.0, -29507.791, -0.07277338, 0.15416396, -768800.0, 71221.47, 0.0, 10.000746, 9.999259 
1.3450752e+3, 2.2428414e+2, -746382.3, -843768.06, -16814.607, -0.09196684, 0.1580135, -743560.9, -1531.7124, 0.0, 10.000366, 9.999074 
1.3450707e+3, 2.3428304e+2, -707062.06, -771603.3, -5438.4146, -0.048396334, 0.1382267, -706607.0, -62566.875, 0.0, 9.999953, 9.999095 
1.3450661e+3, 2.4428222e+2, -639360.06, -660057.44, -10833.373, -0.019059096, 0.13334623, -634726.8, -88678.55, 0.0, 9.999624, 9.999346 
1.345061e+3, 2.542817e+2, -569722.4, -570165.8, -12347.262, -0.008033316, 0.14136323, -557594.9, -109542.086, 0.0, 9.999405, 9.999396 
1.3450558e+3, 2.6428106e+2, -531158.75, -511345.88, -7666.9775, -0.01310485, 0.14365563, -508725.53, -158667.16, 0.0, 9.9990425, 9.999301 
1.3450505e+3, 2.7428025e+2, -510572.8, -447558.47, -3361.3555, -0.03987704, 0.12719503, -447379.7, -195313.77, 0.0, 9.998498, 9.999328 
1.3450454e+3, 2.8427953e+2, -475782.3, -387468.78, -15.517273, -0.02653477, 0.12447502, -387468.78, -233395.25, 0.0, 9.9980955, 9.999261 
1.345041e+3, 2.9427898e+2, -405797.75, -300159.47, 3635.7869, 0.040962186, 0.14218532, -300034.47, -243953.95, 0.0, 9.99789, 9.999287 
1.3450357e+3, 3.0427903e+2, -316958.72, -70157.48, 4584.7544, 0.06409373, 0.14767691, -70072.34, -70072.34, 0.0, 9.99747, 10.000735 
1.3450302e+3, 3.1427935e+2, -410277.84, -93971.195, 34176.52, 0.04249409, 0.09846273, -90320.6, -90320.6, 0.0, 9.996736, 10.000926 
1.3551302e+3, 1.2430508e+2, -1172542.0, -1747572.9, -56333.4, -0.10601368, 0.2047554, -1167075.3, 554750.5, 0.007142125, 10.005038, 9.997343 
1.355128e+3, 1.3430202e+2, -1170151.4, -1671244.5, 11764.183, 0.19423895, 0.14660491, -1169875.4, 453980.66, 0.0041178986, 10.004238, 9.99759 
1.3551195e+3, 1.443e+2, -1133592.9, -1569881.3, -7641.582, -0.13396318, 0.16878963, -1133459.1, 392416.47, 0.0016847139, 10.003671, 9.997879 
1.3551147e+3, 1.5429771e+2, -1076611.0, -1492347.6, -16165.657, -0.058722295, 0.15105005, -1075983.4, 351914.0, 0.00037697863, 10.003389, 9.997873 
1.3551095e+3, 1.6429564e+2, -1022643.44, -1380835.1, -27293.928, -0.024256187, 0.1428996, -1020575.56, 309341.9, 0.000023370363, 10.002934, 9.998186 
1.3551041e+3, 1.7429401e+2, -1017979.2, -1321254.6, -34832.2, -0.004213796, 0.15430036, -1014030.06, 217904.0, 0.0000000068048798, 10.002265, 9.998244 
1.3550986e+3, 1.842926e+2, -950613.75, -1167385.5, -36500.91, -0.0070558507, 0.1605115, -944632.6, 189315.08, 0.0, 10.001749, 9.998877 
1.3550927e+3, 1.9429146e+2, -893308.56, -1079910.1, -28536.055, -0.051708926, 0.14913404, -889042.25, 146915.7, 0.0, 10.001431, 9.998958 
1.3550869e+3, 2.0429033e+2, -845174.25, -1008595.56, -32087.553, -0.0694275, 0.14191179, -839099.7, 98868.96, 0.0, 10.0011, 9.998935 
1.3550815e+3, 2.1428922e+2, -796507.4, -930919.25, -42986.516, -0.048030384, 0.1334352, -783935.6, 56044.36, 0.0, 10.000746, 9.998966 
1.355076e+3, 2.2428839e+2, -729067.44, -807502.2, -32721.646, -0.04111187, 0.13817905, -717209.3, 24778.848, 0.0, 10.000363, 9.999325 
1.3550706e+3, 2.3428793e+2, -687112.25, -729952.2, -21014.736, -0.054207716, 0.15378551, -678525.0, -34532.754, 0.0, 9.999951, 9.999382 
1.3550654e+3, 2.4428731e+2, -637699.8, -656504.44, -19792.56, -0.05112911, 0.15423605, -625189.8, -79191.97, 0.0, 9.999623, 9.999372 
1.3550603e+3, 2.5428647e+2, -569982.75, -569459.0, -19667.56, -0.026408337, 0.12702948, -550051.56, -102046.0, 0.0, 9.999399, 9.999404 
1.355055e+3, 2.6428574e+2, -523308.47, -493825.1, -26537.45, -0.010710906, 0.113580704, -478209.7, -128197.69, 0.0, 9.999037, 9.999425 
1.3550493e+3, 2.742852e+2, -501333.03, -428591.63, -22546.088, -0.007637234, 0.112144284, -422170.34, -170153.67, 0.0, 9.998498, 9.999459 
1.3550438e+3, 2.8428477e+2, -463096.06, -362125.63, -7800.0044, 0.0010362313, 0.1271134, -361526.63, -207505.5, 0.0, 9.998099, 9.999434 
1.3550386e+3, 2.9428455e+2, -395541.34, -276023.56, -1908.9579, 0.018024834, 0.15633075, -275993.1, -219967.56, 0.0, 9.997878, 9.999459 
1.355033e+3, 3.0428427e+2, -320641.6, -75491.53, -20036.4, 0.04214881, 0.124597095, -73864.734, -73864.734, 0.0, 9.997458, 10.000705 
1.3550274e+3, 3.1428507e+2, -410273.53, -94119.875, 9978.573, 0.06837765, 0.12588084, -93805.24, -93805.24, 0.0, 9.996736, 10.000926 
1.3651353e+3, 1.2431068e+2, -1202632.0, -1761227.3, -50334.965, -0.094928406, 0.2017364, -1198132.6, 523638.1, 0.007484305, 10.004827, 9.997351 
1.3651323e+3, 1.343075e+2, -1154264.6, -1661773.0, 9165.207, 0.19921207, 0.13185681, -1154099.1, 469702.66, 0.004325753, 10.004343, 9.997604 
1.3651232e+3, 1.4430557e+2, -1113518.8, -1563238.4, 4364.942, -0.12769459, 0.1628158, -1113476.4, 412344.03, 0.0017791082, 10.003823, 9.99785 
1.365118e+3, 1.5430331e+2, -1097523.9, -1506498.6, 8421.8125, -0.052165013, 0.15181477, -1097350.5, 330491.38, 0.00040358416, 10.003263, 9.997837 
1.3651124e+3, 1.6430113e+2, -1049611.9, -1406632.4, 6086.868, -0.018573992, 0.14047815, -1049508.1, 280354.94, 0.000026350568, 10.002805, 9.998072 
1.3651066e+3, 1.7429924e+2, -996130.94, -1324184.3, 6581.221, 0.0040174033, 0.13774395, -995999.0, 235883.33, 0.000000016360648, 10.002474, 9.998124 
1.3651006e+3, 1.8429777e+2, -907811.4, -1148524.0, 6145.8813, -0.002059627, 0.14456925, -907654.56, 226242.16, 0.0, 10.002051, 9.998861 
1.365094e+3, 1.9429678e+2, -880808.75, -1074860.6, -1725.423, -0.060939223, 0.15080814, -880793.4, 155111.86, 0.0, 10.001521, 9.998949 
1.365088e+3, 2.0429565e+2, -854043.56, -1022832.7, -4750.968, -0.079953805, 0.14783362, -853909.94, 84006.13, 0.0, 10.001082, 9.998845 
1.3650823e+3, 2.1429433e+2, -800441.25, -943034.3, -1770.5807, -0.041561052, 0.12766333, -800419.3, 39510.3, 0.0, 10.000765, 9.998873 
1.3650766e+3, 2.2429343e+2, -723829.44, -799765.94, 5455.65, -0.027921438, 0.12702286, -723439.5, 18499.104, 0.0, 10.00038, 9.999369 
1.3650706e+3, 2.3429304e+2, -691000.94, -725981.06, -966.11725, -0.04885258, 0.1448383, -690974.3, -47032.63, 0.0, 9.999901, 9.9994335 
1.365065e+3, 2.4429251e+2, -659461.25, -660232.8, -3426.033, -0.05348855, 0.14960647, -656399.3, -110453.11, 0.0, 9.999447, 9.99943 
1.3650595e+3, 2.5429177e+2, -619456.4, -586046.06, -726.1974, -0.035842247, 0.12790391, -586030.3, -138077.4, 0.0, 9.999031, 9.999466 
1.3650537e+3, 2.6429108e+2, -578575.5, -512400.8, -12523.357, -0.013116143, 0.11180688, -510110.13, -160151.17, 0.0, 9.998626, 9.999494 
1.3650478e+3, 2.742905e+2, -535268.7, -436953.44, -14476.404, 0.0146136135, 0.09971531, -434866.2, -182902.31, 0.0, 9.998234, 9.999527 
1.365042e+3, 2.8429025e+2, -499544.63, -367873.03, -955.05176, 0.022052705, 0.120620064, -367866.13, -213899.11, 0.0, 9.9978, 9.999538 
1.365036e+3, 2.942903e+2, -470945.47, -299422.78, -1248.9304, 0.006677683, 0.1699436, -299413.7, -243445.06, 0.0, 9.997307, 9.999573 
1.3650301e+3, 3.0428982e+2, -384656.9, -97097.38, -18930.453, 0.030268699, 0.10556538, -95856.52, -95856.52, 0.0, 9.996981, 10.000786 
1.3650241e+3, 3.1429106e+2, -375697.72, -51605.465, 19672.744, 0.07352001, 0.14262131, -50415.676, -50415.676, 0.0, 9.9968605, 10.001158 
1.3751407e+3, 1.2431618e+2, -1202244.1, -1759340.8, -61313.324, -0.020191068, 0.16067423, -1195575.9, 526140.1, 0.007830912, 10.004822, 9.997368 
1.3751362e+3, 1.3431323e+2, -1152880.5, -1656894.6, -9274.451, 0.15244496, 0.1106601, -1152709.9, 471035.4, 0.0045360266, 10.004335, 9.997641 
1.3751265e+3, 1.443116e+2, -1104569.0, -1545033.9, -16994.768, -0.18577643, 0.16393885, -1103914.3, 421846.63, 0.0018739711, 10.003824, 9.997976 
1.3751219e+3, 1.543095e+2, -1087537.1, -1487079.5, -12796.285, 0.0053010276, 0.15539378, -1087127.6, 340652.75, 0.00043006166, 10.003268, 9.997969 
1.375116e+3, 1.6430728e+2, -1048725.0, -1406208.1, -7723.801, 0.055210687, 0.13388093, -1048558.25, 281243.3, 0.000029160963, 10.00281, 9.998073 
1.3751088e+3, 1.7430511e+2, -996273.75, -1325134.8, -6331.475, -0.028929276, 0.10375334, -996151.94, 235671.23, 0.000000027808229, 10.002476, 9.998117 
1.375102e+3, 1.843035e+2, -921725.94, -1178243.6, -14368.133, -0.06082439, 0.10752123, -920923.6, 212915.3, 0.0, 10.002054, 9.998656 
1.3750957e+3, 1.943026e+2, -895544.06, -1106708.5, -22154.68, -0.04084703, 0.14290537, -893244.7, 142602.95, 0.0, 10.001526, 9.998729 
1.3750893e+3, 2.0430155e+2, -848722.06, -1012422.0, -18145.398, -0.039006125, 0.1564657, -846734.9, 91123.11, 0.0, 10.001084, 9.998917 
1.3750829e+3, 2.1430032e+2, -794025.3, -929784.06, -14104.902, -0.054418042, 0.13640818, -792575.3, 47294.805, 0.0, 10.000764, 9.998964 
1.3750768e+3, 2.2429925e+2, -734949.6, -822682.75, -12865.736, -0.05334076, 0.12304845, -733101.9, 8778.552, 0.0, 10.000378, 9.999212 
1.3750708e+3, 2.3429842e+2, -703181.5, -751307.1, -18827.934, -0.03313974, 0.11224749, -696690.94, -52802.816, 0.0, 9.9999, 9.999261 
1.3750647e+3, 2.4429786e+2, -654115.44, -648914.5, -19113.855, -0.027223168, 0.12032802, -632225.0, -86331.945, 0.0, 9.999445, 9.999509 
1.3750583e+3, 2.5429767e+2, -613246.0, -572531.9, -15598.834, -0.03856691, 0.14495166, -567242.6, -119348.1, 0.0, 9.999027, 9.999561 
1.3750522e+3, 2.6429716e+2, -577708.7, -510639.7, -26858.877, -0.022869088, 0.13853006, -501209.53, -151310.33, 0.0, 9.998625, 9.999507 
1.3750462e+3, 2.742962e+2, -535119.6, -436161.47, -27684.428, 0.024717106, 0.088251516, -428943.03, -177035.31, 0.0, 9.998231, 9.999535 
1.37504e+3, 2.842959e+2, -498114.6, -364421.94, -18059.207, 0.034717135, 0.1038231, -362025.47, -208114.13, 0.0, 9.997797, 9.999564 
1.3750333e+3, 2.9429632e+2, -469046.44, -295155.5, -17831.629, 0.0024945994, 0.18729655, -293345.78, -237436.2, 0.0, 9.997304, 9.999603 
1.3750271e+3, 3.0429566e+2, -370717.28, -68908.3, -22740.307, 0.023056658, 0.09441862, -67204.51, -67204.51, 0.0, 9.996983, 10.000978 
1.3750207e+3, 3.1429714e+2, -343848.3, 16186.74, 17577.93, 0.053825237, 0.13418873, 17042.908, 17042.908, 0.0, 9.996853, 10.001627 
1.3851456e+3, 1.2432227e+2, -1234006.3, -1762557.3, -32602.838, -0.0015197517, 0.13529107, -1232002.8, 489653.2, 0.008186499, 10.004552, 9.997476 
1.3851406e+3, 1.3431971e+2, -1155188.0, -1641621.1, 18981.645, 0.15043041, 0.10832585, -1154448.4, 469232.9, 0.0047517163, 10.004251, 9.9977865 
1.3851304e+3, 1.4431828e+2, -1098113.8, -1549396.6, 6459.567, -0.18675844, 0.1773792, -1098021.4, 427673.72, 0.0019706246, 10.003902, 9.997909 
1.3851254e+3, 1.5431584e+2, -1062297.4, -1484487.4, -6588.581, 0.01193377, 0.14422332, -1062194.5, 365523.6, 0.0004566524, 10.003483, 9.997883 
1.385119e+3, 1.6431355e+2, -1016205.75, -1384157.4, -5548.628, 0.060920358, 0.11810788, -1016122.06, 313617.84, 0.00003186285, 10.003006, 9.99813 
1.3851112e+3, 1.7431167e+2, -991659.2, -1315559.1, 1067.1172, -0.034518383, 0.10942753, -991655.7, 240102.61, 0.000000039188958, 10.002476, 9.998182 
1.385104e+3, 1.8431006e+2, -932468.44, -1197682.5, -647.5995, -0.06561111, 0.11510223, -932466.9, 201307.11, 0.0, 10.002042, 9.9985285 
1.3850974e+3, 1.9430879e+2, -875079.25, -1112553.3, -3444.8713, -0.029251328, 0.1288291, -875029.3, 160757.16, 0.0, 10.001736, 9.998588 
1.3850906e+3, 2.0430762e+2, -813265.4, -996409.6, 928.3531, -0.024619525, 0.13915771, -813260.7, 124537.32, 0.0, 10.001334, 9.998905 
1.3850838e+3, 2.1430658e+2, -787716.3, -927078.6, -2350.7954, -0.056077607, 0.13822144, -787676.6, 52131.598, 0.0, 10.00081, 9.9989605 
1.3850771e+3, 2.2430556e+2, -742890.8, -829291.06, -771.9251, -0.060021665, 0.12937893, -742883.94, -1065.8387, 0.0, 10.000336, 9.999187 
1.3850707e+3, 2.3430455e+2, -699959.94, -751910.4, 2870.427, -0.03024073, 0.10401921, -699801.8, -55974.47, 0.0, 9.999933, 9.999239 
1.3850643e+3, 2.4430393e+2, -652129.44, -646663.2, 3928.1003, -0.018193686, 0.10532066, -644610.94, -98778.01, 0.0, 9.9994545, 9.999518 
1.3850576e+3, 2.5430378e+2, -634384.4, -581323.9, 658.8758, -0.028744264, 0.13310489, -581315.75, -133481.88, 0.0, 9.9988785, 9.999572 
1.3850507e+3, 2.6430327e+2, -601280.3, -518377.3, -6899.6865, -0.019007947, 0.12706079, -517807.0, -167968.69, 0.0, 9.998449, 9.999537 
1.3850443e+3, 2.743023e+2, -535211.44, -432308.2, -6860.7607, 0.015224784, 0.073361844, -431852.78, -180005.77, 0.0, 9.998214, 9.999568 
1.3850376e+3, 2.8430206e+2, -490941.94, -354067.0, -2553.6118, 0.027161108, 0.0912594, -354019.38, -200169.53, 0.0, 9.997819, 9.999623 
1.3850306e+3, 2.9430264e+2, -475748.5, -291009.75, -1578.3, 0.016357811, 0.18067251, -290996.25, -235149.9, 0.0, 9.997229, 9.999666 
1.3850242e+3, 3.043017e+2, -415603.38, -116373.03, -8376.767, 0.042309154, 0.070501156, -116138.71, -116138.71, 0.0, 9.996788, 10.000746 
1.3850173e+3, 3.143032e+2, -389219.22, 4950.627, -2362.5664, 0.03734144, 0.1336437, 4964.787, 4964.787, 0.0, 9.996498, 10.001719 
1.39515e+3, 1.2432898e+2, -1219233.1, -1732302.4, -36714.266, -0.03583806, 0.12288613, -1216619.3, 504971.22, 0.008554229, 10.004555, 9.997683 
1.3951452e+3, 1.3432693e+2, -1138140.6, -1605452.4, 7668.2305, 0.18814881, 0.12284253, -1138014.9, 485595.0, 0.0049752374, 10.004249, 9.998035 
1.3951348e+3, 1.4432561e+2, -1115926.6, -1587070.5, -9760.594, -0.13843079, 0.20073092, -1115724.5, 409898.1, 0.0020704775, 10.003904, 9.997649 
1.3951284e+3, 1.543224e+2, -1082796.5, -1527575.8, -22816.95, -0.029971117, 0.12042428, -1081629.0, 346025.3, 0.0004838168, 10.003485, 9.997587 
1.3951214e+3, 1.6432002e+2, -1007853.06, -1368475.1, -26147.832, 0.0016674745, 0.09553141, -1005967.06, 323710.4, 0.000034571214, 10.003012, 9.998235 
1.3951138e+3, 1.7431892e+2, -981264.0, -1295504.4, -19377.422, -0.01494383, 0.15242854, -980073.56, 251613.88, 0.00000005013657, 10.002481, 9.998319 
1.3951065e+3, 1.8431742e+2, -936166.44, -1206047.3, -13804.327, -0.020575186, 0.16526765, -935462.2, 198239.38, 0.0, 10.002044, 9.99847 
1.3950993e+3, 1.943154e+2, -879834.9, -1123087.0, -15502.738, -0.027082782, 0.10885107, -878850.9, 156870.4, 0.0, 10.001737, 9.998515 
1.3950919e+3, 2.043139e+2, -819668.0, -1009928.94, -19041.459, -0.037740346, 0.09571127, -817781.0, 119954.77, 0.0, 10.001334, 9.998813 
1.3950846e+3, 2.1431315e+2, -794206.4, -941144.06, -22373.822, -0.047385685, 0.13334721, -790875.06, 48868.42, 0.0, 10.000811, 9.998864 
1.3950776e+3, 2.2431234e+2, -736060.25, -815422.6, -16864.662, -0.04877866, 0.1460339, -732625.2, 9126.141, 0.0, 10.000337, 9.999283 
1.3950706e+3, 2.3431143e+2, -692600.7, -736349.0, -12302.783, -0.04137803, 0.120009616, -689378.3, -45619.152, 0.0, 9.99993, 9.999348 
1.3950635e+3, 2.4431066e+2, -656219.56, -654574.5, -17606.156, -0.02831126, 0.10381648, -637771.7, -92005.95, 0.0, 9.999452, 9.999466 
1.3950565e+3, 2.5431007e+2, -639106.75, -590969.1, -20468.105, -0.00816693, 0.09216037, -583442.8, -135672.06, 0.0, 9.998877, 9.999507 
1.3950494e+3, 2.6430944e+2, -598448.8, -512818.34, -15633.696, -0.0029915336, 0.07739075, -510053.34, -160277.19, 0.0, 9.998449, 9.999576 
1.3950422e+3, 2.7430886e+2, -532031.2, -425403.22, -13994.999, -0.017060049, 0.058326814, -423596.94, -171815.6, 0.0, 9.998212, 9.999618 
1.3950351e+3, 2.8430882e+2, -484944.06, -341923.84, -23013.645, -0.0042740093, 0.08554571, -338311.9, -184529.64, 0.0, 9.997819, 9.999707 
1.3950282e+3, 2.9430917e+2, -470907.0, -280726.94, -21920.717, 0.04577168, 0.14685887, -278233.0, -222453.53, 0.0, 9.997227, 9.999739 
1.3950214e+3, 3.043079e+2, -460883.94, -210301.63, -18485.54, 0.08570159, 0.031567693, -208945.28, -208945.28, 0.0, 9.996786, 10.000102 
1.3950136e+3, 3.143091e+2, -409256.8, -35927.64, -11987.102, 0.017815858, 0.13102037, -35543.15, -35543.15, 0.0, 9.996494, 10.001441 
1.4051545e+3, 1.243367e+2, -1174151.3, -1725069.9, 4954.684, -0.047474165, 0.14550467, -1174106.8, 547407.94, 0.008937878, 10.004931, 9.997552 
1.4051494e+3, 1.3433422e+2, -1123747.5, -1608873.3, 17087.92, 0.19039296, 0.11249551, -1123146.4, 500391.94, 0.0052097645, 10.004395, 9.997942 
1.4051388e+3, 1.4433284e+2, -1114260.0, -1594197.1, -4286.271, -0.123137005, 0.19209903, -1114221.8, 411330.0, 0.0021755402, 10.003951, 9.997578 
1.405132e+3, 1.5432973e+2, -1065416.6, -1527116.5, -1340.2825, -0.032519337, 0.12960406, -1065412.8, 362169.8, 0.0005121799, 10.003639, 9.997515 
1.4051244e+3, 1.6432732e+2, -984040.75, -1367918.6, -8711.084, -0.0065722363, 0.10930101, -983843.1, 345763.06, 0.000037386584, 10.003223, 9.998136 
1.4051165e+3, 1.74326e+2, -958808.4, -1295686.6, -20390.205, -0.010389532, 0.15519969, -957578.7, 274039.7, 0.00000006103049, 10.002684, 9.998219 
1.4051086e+3, 1.8432441e+2, -920892.06, -1201026.8, -17699.41, -0.009466318, 0.16443415, -919778.2, 213855.22, 0.0, 10.00216, 9.998448 
1.405101e+3, 1.943224e+2, -891025.5, -1130280.6, -15597.77, -0.020713856, 0.11337651, -890012.94, 145639.72, 0.0, 10.001668, 9.998498 
1.4050932e+3, 2.043209e+2, -833428.75, -1015946.94, -14753.08, -0.03241376, 0.098071024, -832243.94, 105423.25, 0.0, 10.001237, 9.998817 
1.4050856e+3, 2.1432003e+2, -781989.8, -934082.06, -11022.317, -0.037613567, 0.12429757, -781195.1, 58480.35, 0.0, 10.000892, 9.998873 
1.4050779e+3, 2.2431919e+2, -726189.06, -811607.0, -8563.249, -0.038448714, 0.13397454, -725339.06, 16344.381, 0.0, 10.000409, 9.999273 
1.4050704e+3, 2.3431835e+2, -720523.94, -751396.9, -13848.316, -0.03653709, 0.11547178, -715222.5, -71531.65, 0.0, 9.999746, 9.999333 
1.4050628e+3, 2.4431759e+2, -683850.75, -662277.2, -16927.887, -0.028216535, 0.100222565, -652991.4, -107294.28, 0.0, 9.999237, 9.9995165 
1.4050554e+3, 2.5431696e+2, -627481.4, -579290.3, -11756.4795, -0.01109973, 0.07931853, -576575.25, -128873.195, 0.0, 9.99893, 9.999561 
1.4050479e+3, 2.6431635e+2, -588124.6, -509910.97, -2220.883, -0.0024510382, 0.06332416, -509847.97, -160140.6, 0.0, 9.998529, 9.999557 
1.4050405e+3, 2.7431586e+2, -562282.06, -442279.44, -6926.773, -0.005695088, 0.054711767, -441880.94, -190168.7, 0.0, 9.998015, 9.999595 
1.405033e+3, 2.843158e+2, -513850.1, -347653.7, -21864.967, 0.007661015, 0.08114301, -344825.25, -191112.34, 0.0, 9.997585, 9.99978 
1.4050256e+3, 2.943161e+2, -461858.0, -268219.28, -21748.947, 0.047513198, 0.12542962, -265806.56, -210096.36, 0.0, 9.997253, 9.999812 
1.4050181e+3, 3.0431482e+2, -476615.75, -251337.47, -3663.9326, 0.09110468, 0.019325811, -251277.89, -251277.89, 0.0, 9.996822, 9.999803 
1.40501e+3, 3.1431568e+2, -436029.5, -43105.324, 25775.002, 0.023809392, 0.12005575, -41421.754, -41421.754, 0.0, 9.996286, 10.0014925 
1.4151596e+3, 1.2434539e+2, -1207056.8, -1792265.5, -11725.899, -0.042439826, 0.19602355, -1206821.9, 514606.9, 0.009343513, 10.004924, 9.997094 
1.4151536e+3, 1.3434166e+2, -1153845.4, -1671000.5, -3611.1194, 0.15960345, 0.08086376, -1153820.3, 469645.66, 0.0054601063, 10.004394, 9.997516 
1.4151426e+3, 1.4434005e+2, -1105420.3, -1577794.0, -17418.541, -0.13891453, 0.15630846, -1104778.8, 420702.84, 0.0022886512, 10.003958, 9.997687 
1.415136e+3, 1.5433785e+2, -1054970.9, -1505921.6, -13250.175, 0.000008138984, 0.16982895, -1054581.9, 372920.8, 0.00054253166, 10.00364, 9.997661 
1.415128e+3, 1.6433544e+2, -1005249.3, -1412297.0, -29515.592, 0.03012977, 0.15705754, -1003120.2, 326405.88, 0.000040406845, 10.003224, 9.997831 
1.415119e+3, 1.7433298e+2, -981363.8, -1344076.6, -41000.246, -0.021055823, 0.119190104, -976786.94, 254763.52, 0.00000007226826, 10.002689, 9.997885 
1.4151105e+3, 1.8433107e+2, -919303.44, -1199388.3, -36958.582, -0.03231743, 0.114645444, -914508.6, 219060.34, 0.0, 10.002166, 9.998457 
1.4151028e+3, 1.9432987e+2, -888201.5, -1125790.8, -34261.84, -0.010692078, 0.14155206, -883359.4, 152220.92, 0.0, 10.001673, 9.998528 
1.4150947e+3, 2.0432861e+2, -826185.6, -1001588.0, -28942.361, -0.009757354, 0.14468367, -821533.4, 116058.6, 0.0, 10.001239, 9.998916 
1.4150865e+3, 2.1432726e+2, -774477.75, -918907.75, -24313.857, -0.02851651, 0.11089643, -770494.5, 69109.516, 0.0, 10.000892, 9.998978 
1.4150783e+3, 2.2432612e+2, -734567.3, -828665.2, -33220.156, -0.03158367, 0.0931592, -724021.3, 17592.994, 0.0, 10.000407, 9.999158 
1.4150703e+3, 2.3432532e+2, -729490.94, -770739.94, -38600.125, -0.01684829, 0.090663485, -706350.9, -62728.695, 0.0, 9.999748, 9.9992 
1.4150622e+3, 2.4432476e+2, -673212.1, -641003.0, -29122.133, -0.01861993, 0.09406977, -623829.1, -78202.3, 0.0, 9.99924, 9.999662 
1.415054e+3, 2.543245e+2, -616162.94, -555368.94, -22611.03, -0.039052457, 0.09568894, -547881.44, -100253.97, 0.0, 9.998926, 9.999727 
1.4150463e+3, 2.64324e+2, -594177.9, -522505.28, -20471.91, -0.019536894, 0.08553528, -517070.06, -167438.31, 0.0, 9.9985285, 9.999472 
1.415039e+3, 2.7432325e+2, -569917.1, -458033.5, -24933.686, 0.046590053, 0.0603299, -452728.47, -201088.66, 0.0, 9.9980135, 9.999489 
1.4150311e+3, 2.8432307e+2, -508391.44, -336321.9, -33537.227, 0.060212087, 0.07610088, -330016.4, -176374.47, 0.0, 9.997584, 9.999859 
1.4150225e+3, 2.943234e+2, -456148.56, -256126.53, -31984.559, 0.01718054, 0.11916724, -251136.52, -195498.48, 0.0, 9.997251, 9.999897 
1.4150147e+3, 3.0432245e+2, -474783.03, -248316.02, -21912.531, 0.05415022, 0.0377967, -246215.28, -246215.28, 0.0, 9.996824, 9.999824 
1.4150065e+3, 3.143229e+2, -413177.38, 4795.502, 4845.8833, 0.052867003, 0.09229728, 4851.677, 4851.677, 0.0, 9.996284, 10.001823 
1.4251643e+3, 1.2435348e+2, -1247335.4, -1822762.1, -24041.342, -0.040233955, 0.20095555, -1246332.6, 475016.75, 0.009778203, 10.004694, 9.996996 
1.425158e+3, 1.3434966e+2, -1123556.5, -1662447.0, 5966.284, 0.14472994, 0.08118053, -1123490.5, 499897.16, 0.005731195, 10.004631, 9.997459 
1.4251468e+3, 1.4434804e+2, -1052237.1, -1550014.9, -3289.7217, -0.14362898, 0.15881163, -1052215.4, 473187.8, 0.0024126782, 10.004317, 9.9977045 
1.4251396e+3, 1.5434575e+2, -1047069.9, -1499817.3, -9887.405, 0.007717941, 0.16019388, -1046854.0, 380570.63, 0.00057587837, 10.003685, 9.997681 
1.4251313e+3, 1.6434328e+2, -1020141.56, -1432061.3, -22264.16, 0.04221552, 0.14517744, -1018941.7, 310506.9, 0.00004378684, 10.003177, 9.997718 
1.4251219e+3, 1.7434075e+2, -967598.9, -1351124.0, -19056.494, -0.015486286, 0.11586461, -966654.3, 264819.8, 0.00000008454083, 10.002845, 9.997761 
1.425113e+3, 1.8433881e+2, -884891.7, -1187603.9, -11425.021, -0.032371026, 0.11548537, -884461.06, 249032.33, 0.0, 10.002424, 9.998413 
1.4251044e+3, 1.9433758e+2, -857642.44, -1114767.6, -14284.356, -0.014893535, 0.14260037, -856851.3, 178653.55, 0.0, 10.001901, 9.998492 
1.425096e+3, 2.0433627e+2, -802387.2, -989198.7, -10810.1, -0.013747207, 0.14436951, -801763.75, 135752.92, 0.0, 10.0014, 9.998922 
1.4250875e+3, 2.143349e+2, -768495.5, -915008.25, -13520.429, -0.02820324, 0.10666975, -767258.3, 72270.53, 0.0, 10.000929, 9.998986 
1.4250788e+3, 2.2433375e+2, -732763.0, -830983.0, -29351.137, -0.028930241, 0.08828145, -724660.4, 16878.775, 0.0, 10.000432, 9.999129 
1.4250702e+3, 2.3433295e+2, -708652.06, -763857.25, -28708.287, -0.01414552, 0.08883943, -696429.2, -52882.11, 0.0, 9.999906, 9.999171 
1.4250615e+3, 2.4433236e+2, -659282.5, -637682.44, -16501.803, -0.014008336, 0.0920418, -628760.6, -83208.54, 0.0, 9.99935, 9.999631 
1.425053e+3, 2.5433204e+2, -642373.94, -571027.0, -24673.184, -0.030676272, 0.089552656, -563325.75, -115772.29, 0.0, 9.99876, 9.9997 
1.4250448e+3, 2.6433158e+2, -630045.56, -534612.94, -25241.258, -0.009113389, 0.08419778, -528348.06, -178790.78, 0.0, 9.99826, 9.999518 
1.425037e+3, 2.7433103e+2, -586009.0, -460270.6, -19009.717, 0.057000086, 0.07315403, -457459.47, -205895.88, 0.0, 9.997877, 9.999539 
1.4250287e+3, 2.8433082e+2, -527970.44, -341242.47, -21495.756, 0.06736045, 0.08240737, -338799.88, -185233.84, 0.0, 9.997431, 9.999899 
1.4250195e+3, 2.9433092e+2, -503061.94, -275002.38, -25354.8, 0.017181292, 0.09658085, -272217.53, -216652.89, 0.0, 9.996914, 9.999928 
1.4250113e+3, 3.0433038e+2, -527759.9, -250555.61, -15686.229, 0.058746852, 0.04919291, -249670.78, -249670.78, 0.0, 9.996362, 10.00003 
1.4250028e+3, 3.1433085e+2, -460258.47, 29321.33, 21952.021, 0.065705284, 0.08133766, 30303.654, 30303.654, 0.0, 9.995756, 10.002245 
1.4351691e+3, 1.24361075e+2, -1229911.3, -1787092.5, -23479.717, -0.039684296, 0.16130504, -1228923.6, 492351.84, 0.010247943, 10.004698, 9.99724 
1.4351624e+3, 1.3435824e+2, -1103596.9, -1619680.8, 3478.4016, 0.14097498, 0.11115221, -1103573.4, 519729.8, 0.0060263164, 10.004628, 9.997754 
1.435151e+3, 1.4435682e+2, -1058574.8, -1563043.6, -26653.826, -0.14311609, 0.19624595, -1057170.5, 468146.0, 0.0025496222, 10.004316, 9.997617 
1.4351432e+3, 1.5435347e+2, -1053741.6, -1515002.8, -34033.348, -0.0086229965, 0.10322736, -1051244.1, 376103.63, 0.0006133146, 10.00369, 9.997575 
1.4351344e+3, 1.6435087e+2, -1014714.06, -1422889.1, -36634.914, 0.030799339, 0.0780291, -1011452.06, 317920.97, 0.000047750204, 10.003185, 9.997778 
1.4351249e+3, 1.7434937e+2, -962436.1, -1341284.1, -31937.309, 0.004486627, 0.14377168, -959762.7, 271626.63, 0.00000010052836, 10.002847, 9.997828 
1.4351155e+3, 1.8434763e+2, -891575.8, -1201605.8, -31565.525, -0.012649121, 0.1644442, -888394.6, 245012.19, 0.0, 10.002424, 9.998318 
1.4351062e+3, 1.9434553e+2, -864294.75, -1129984.0, -34265.887, -0.03439428, 0.116682954, -859946.6, 175479.45, 0.0, 10.001905, 9.998386 
1.435097e+3, 2.0434394e+2, -807837.8, -1001305.94, -29108.27, -0.04563088, 0.09819998, -803553.2, 133887.66, 0.0, 10.001402, 9.998839 
1.4350882e+3, 2.1434297e+2, -774251.94, -927619.7, -31206.455, -0.036893267, 0.11113891, -768145.4, 71304.37, 0.0, 10.00093, 9.9989 
1.4350793e+3, 2.2434208e+2, -729091.9, -823498.9, -49456.68, -0.030502718, 0.11760457, -707927.75, 33530.297, 0.0, 10.000432, 9.999182 
1.4350699e+3, 2.3434123e+2, -704532.25, -755394.06, -48388.375, -0.029233668, 0.11001423, -675299.0, -31833.504, 0.0, 9.999905, 9.99923 
1.435061e+3, 2.4434039e+2, -673351.7, -666953.25, -38458.766, -0.016545078, 0.09452049, -631560.9, -86088.01, 0.0, 9.999349, 9.999432 
1.4350522e+3, 2.5433955e+2, -657995.8, -603447.5, -46067.33, 0.011786247, 0.060348123, -577185.9, -129705.91, 0.0, 9.998758, 9.999479 
1.4350435e+3, 2.6433912e+2, -617028.56, -507816.6, -39028.477, 0.02732972, 0.05883821, -495303.03, -145819.16, 0.0, 9.998259, 9.999703 
1.4350346e+3, 2.7433923e+2, -571198.1, -429154.66, -31577.367, 0.024201285, 0.09519097, -422451.13, -170968.03, 0.0, 9.997874, 9.999756 
1.4350256e+3, 2.8433907e+2, -529091.4, -344308.63, -39377.67, 0.026892122, 0.10187956, -336267.1, -182782.31, 0.0, 9.997432, 9.999877 
1.4350167e+3, 2.9433855e+2, -507238.94, -283468.38, -42927.535, 0.044291828, 0.055231474, -275515.9, -220025.63, 0.0, 9.996911, 9.999872 
1.435008e+3, 3.0433863e+2, -498604.88, -189241.53, -37111.457, 0.10192785, 0.05201166, -184851.89, -184851.89, 0.0, 9.996357, 10.000453 
1.4349985e+3, 3.1433967e+2, -424813.56, 103289.734, -1599.1388, 0.05793295, 0.09523851, 103294.58, 103294.58, 0.0, 9.995754, 10.002754 
1.4451738e+3, 1.2436948e+2, -1151448.0, -1745316.9, 12630.959, -0.058050856, 0.14421971, -1151179.5, 570012.9, 0.010757671, 10.005232, 9.997268 
1.445167e+3, 1.3436674e+2, -1102685.1, -1612052.6, 18664.176, 0.13585621, 0.096855626, -1102002.3, 521216.72, 0.0063480875, 10.004605, 9.997817 
1.4451554e+3, 1.4436539e+2, -1082033.4, -1574481.6, -19055.22, -0.13375951, 0.18772517, -1081297.1, 443934.16, 0.0027010422, 10.004157, 9.997613 
1.445147e+3, 1.54362e+2, -1015743.8, -1496830.9, -19702.719, -0.016580595, 0.09111114, -1014938.2, 412325.03, 0.0006557914, 10.003954, 9.997571 
1.4451376e+3, 1.6435942e+2, -963922.44, -1398375.6, -23775.22, 0.019023722, 0.06802413, -962625.2, 366663.34, 0.000052490832, 10.003537, 9.997774 
1.4451279e+3, 1.74358e+2, -961941.7, -1341406.0, -25723.758, 0.006659072, 0.14268547, -960205.8, 271098.25, 0.00000012546444, 10.002854, 9.997822 
1.445118e+3, 1.8435626e+2, -903080.25, -1207278.3, -20617.809, -0.0043827114, 0.1643, -901689.1, 231632.38, 0.0, 10.002347, 9.998315 
1.4451082e+3, 1.943541e+2, -840693.44, -1118970.3, -16438.488, -0.032796178, 0.10829758, -839725.75, 195615.88, 0.0, 10.00207, 9.998382 
1.4450985e+3, 2.0435247e+2, -786466.44, -1000339.2, -14796.449, -0.046825003, 0.090932705, -785447.6, 151909.17, 0.0, 10.00159, 9.998755 
1.4450893e+3, 2.1435155e+2, -792766.75, -946310.0, -18272.258, -0.0349704, 0.11695144, -790622.25, 48743.523, 0.0, 10.000847, 9.998811 
1.4450796e+3, 2.2435062e+2, -753371.75, -835023.5, -32851.035, -0.027054174, 0.125849, -741795.9, -421.54077, 0.0, 10.000265, 9.999183 
1.4450698e+3, 2.3434965e+2, -706594.75, -755789.9, -35928.832, -0.027458487, 0.10629797, -687650.1, -44267.598, 0.0, 9.999887, 9.999235 
1.4450604e+3, 2.4434875e+2, -667625.75, -666973.2, -27222.98, -0.012758825, 0.08521972, -640074.5, -94684.15, 0.0, 9.999399, 9.999408 
1.445051e+3, 2.543479e+2, -657916.2, -606690.94, -22256.7, 0.02216736, 0.05358384, -598371.75, -150973.92, 0.0, 9.998772, 9.999451 
1.4450417e+3, 2.643475e+2, -625627.06, -509974.72, -8077.3267, 0.035011094, 0.056505006, -509413.3, -160011.86, 0.0, 9.998191, 9.999721 
1.4450322e+3, 2.743477e+2, -599142.9, -439817.2, -15361.193, 0.017489905, 0.09828271, -438349.7, -186949.94, 0.0, 9.997671, 9.999779 
1.445023e+3, 2.8434753e+2, -559264.0, -347129.53, -27188.975, 0.020790264, 0.09632787, -343700.2, -190298.64, 0.0, 9.997174, 9.999982 
1.4450137e+3, 2.943469e+2, -529439.8, -282834.66, -20813.172, 0.05838003, 0.027546583, -281090.38, -225682.28, 0.0, 9.996709, 9.999974 
1.4450045e+3, 3.043475e+2, -511488.3, -190437.61, -21747.152, 0.11943682, 0.06932314, -188971.2, -188971.2, 0.0, 9.996248, 10.000497 
1.4449942e+3, 3.143483e+2, -418756.06, 101118.0, -23259.9, 0.055360757, 0.086118676, 102156.61, 102156.61, 0.0, 9.99582, 10.002707 
1.4551786e+3, 1.2437871e+2, -1164658.0, -1773199.4, -10195.741, -0.09810251, 0.14700489, -1164487.3, 556612.75, 0.011310411, 10.005233, 9.997076 
1.4551717e+3, 1.3437521e+2, -1114564.4, -1636960.5, -4706.1763, 0.12977074, 0.04146379, -1114522.0, 508611.84, 0.0066988743, 10.004607, 9.997644 
1.4551596e+3, 1.4437386e+2, -1075972.1, -1563211.0, -29121.332, -0.11522787, 0.13830675, -1074237.9, 450908.84, 0.0028683406, 10.004163, 9.997688 
1.4551508e+3, 1.5437138e+2, -1009265.0, -1483052.0, -27583.88, -0.019198298, 0.12121962, -1007664.44, 419506.56, 0.000703922, 10.003952, 9.997666 
1.455141e+3, 1.6436896e+2, -969290.3, -1409706.1, -49245.367, 0.0029942123, 0.112011395, -963851.06, 365344.1, 0.000058062662, 10.003536, 9.997698 
1.4551304e+3, 1.7436671e+2, -966826.06, -1353398.1, -51415.03, -0.00934765, 0.11333721, -960104.6, 271113.5, 0.00000016567238, 10.00286, 9.997738 
1.4551203e+3, 1.843648e+2, -896621.3, -1195497.8, -32548.271, -0.0087897545, 0.117527686, -893117.8, 240119.28, 0.0, 10.002353, 9.998394 
1.4551105e+3, 1.9436327e+2, -834365.8, -1106518.1, -26800.438, -0.011428594, 0.11651551, -831751.75, 203499.48, 0.0, 10.002072, 9.998467 
1.4551003e+3, 2.0436184e+2, -793079.5, -1013687.4, -42451.47, -0.019063506, 0.12020859, -785192.56, 152072.03, 0.0, 10.001587, 9.998666 
1.45509e+3, 2.1436061e+2, -799366.8, -960809.44, -46349.547, -0.024498448, 0.123932496, -787006.4, 52270.46, 0.0, 10.000849, 9.998711 
1.4550799e+3, 2.2435941e+2, -756772.6, -842368.7, -48120.266, -0.02140879, 0.113644764, -735171.6, 6116.396, 0.0, 10.000265, 9.999133 
1.45507e+3, 2.3435825e+2, -709618.44, -762307.06, -49525.09, -0.010051768, 0.07779342, -679866.8, -36568.88, 0.0, 9.999887, 9.999191 
1.4550598e+3, 2.4435745e+2, -657761.44, -646603.25, -49875.563, -0.0029191526, 0.06338632, -601995.7, -56691.117, 0.0, 9.999398, 9.999549 
1.4550495e+3, 2.5435713e+2, -647454.7, -584828.06, -44923.01, -0.0001074835, 0.06969923, -561381.9, -114074.98, 0.0, 9.99877, 9.999602 
1.4550397e+3, 2.643568e+2, -636503.94, -532453.44, -27073.973, 0.01232277, 0.07793051, -525830.4, -176520.42, 0.0, 9.99819, 9.999567 
1.4550301e+3, 2.7435645e+2, -611846.56, -465646.53, -33406.992, 0.034417227, 0.08199917, -458374.7, -207061.08, 0.0, 9.997668, 9.999604 
1.4550205e+3, 2.8435615e+2, -542111.2, -311807.66, -43537.133, 0.04737929, 0.06519368, -303852.13, -150535.77, 0.0, 9.997174, 10.000225 
1.4550103e+3, 2.9435596e+2, -510866.34, -244921.53, -36412.184, 0.05728522, 0.013990813, -240026.22, -184708.3, 0.0, 9.99671, 10.000236 
1.4550008e+3, 3.0435696e+2, -535307.06, -240958.75, -36550.81, 0.10749418, 0.10242404, -236487.95, -236487.95, 0.0, 9.996252, 10.000149 
1.45499e+3, 3.1435692e+2, -465629.47, 4281.6826, -41304.855, 0.05430989, 0.07032352, 7884.724, 7884.724, 0.0, 9.995816, 10.002044 
1.4651838e+3, 1.2438814e+2, -1165162.4, -1773362.3, 7530.1406, -0.10224304, 0.12799548, -1165069.1, 555936.75, 0.011904055, 10.005233, 9.997075 
1.4651762e+3, 1.3438466e+2, -1068562.6, -1613765.3, 24543.713, 0.114333466, 0.022865463, -1067460.0, 555579.4, 0.0070781643, 10.004925, 9.99765 
1.465164e+3, 1.443833e+2, -1044212.75, -1560991.8, 1059.3187, -0.119320326, 0.123238355, -1044210.56, 480842.22, 0.0030515608, 10.004442, 9.997567 
1.4651547e+3, 1.543808e+2, -1047572.5, -1515871.9, -14877.702, -0.013517245, 0.11743079, -1047100.3, 379978.16, 0.0007578571, 10.003752, 9.997537 
1.4651445e+3, 1.643784e+2, -997488.3, -1406860.9, -36591.344, 0.007544173, 0.111642115, -994243.4, 334859.2, 0.00006440502, 10.003273, 9.997844 
1.4651333e+3, 1.7437623e+2, -924595.7, -1314419.8, -21577.342, -0.021548672, 0.1046637, -923405.0, 307718.7, 0.00000022299002, 10.003073, 9.997901 
1.4651227e+3, 1.8437433e+2, -866454.75, -1190528.1, -2784.5046, -0.023912942, 0.105888076, -866430.8, 266711.44, 0.0, 10.002604, 9.998306 
1.4651124e+3, 1.9437274e+2, -882145.3, -1141275.1, -11790.234, -0.011775409, 0.11013576, -881609.94, 153547.64, 0.0, 10.001797, 9.99836 
1.465102e+3, 2.0437129e+2, -842586.6, -1034777.44, -28779.303, -0.011294533, 0.1149485, -838369.6, 98801.98, 0.0, 10.001236, 9.998689 
1.4650911e+3, 2.1437004e+2, -777476.06, -946848.6, -23667.096, -0.018878296, 0.11479249, -774231.1, 64952.582, 0.0, 10.000985, 9.99874 
1.4650804e+3, 2.2436883e+2, -723426.7, -827614.94, -22194.799, -0.015986875, 0.10224791, -718895.7, 22299.22, 0.0, 10.0005, 9.999121 
1.4650698e+3, 2.3436764e+2, -735974.06, -776433.0, -22818.436, -0.0022486306, 0.06496792, -725709.06, -82504.016, 0.0, 9.999714, 9.999178 
1.465059e+3, 2.4436688e+2, -701595.06, -671505.44, -25154.273, 0.0018430016, 0.056544743, -657240.1, -112028.54, 0.0, 9.999115, 9.999514 
1.4650482e+3, 2.5436667e+2, -653167.7, -591386.06, -34546.754, -0.005648654, 0.07877797, -575933.4, -128720.02, 0.0, 9.998749, 9.999567 
1.4650379e+3, 2.6436633e+2, -619495.75, -514569.9, -18252.336, 0.008531035, 0.084876314, -511485.5, -162269.16, 0.0, 9.998265, 9.999653 
1.465028e+3, 2.743658e+2, -609697.94, -454158.13, -6265.4487, 0.04829602, 0.06217988, -453906.16, -202685.31, 0.0, 9.997638, 9.999697 
1.4650176e+3, 2.843655e+2, -549507.94, -315193.78, -8201.612, 0.064319216, 0.03876767, -314907.06, -161683.66, 0.0, 9.997123, 10.000227 
1.465007e+3, 2.9436553e+2, -504191.16, -242295.52, -22037.266, 0.05819351, 0.011976166, -240454.13, -185231.16, 0.0, 9.99676, 10.000228 
1.4649968e+3, 3.0436686e+2, -533162.0, -229384.0, -23010.574, 0.10021799, 0.12356684, -227650.88, -227650.88, 0.0, 9.996222, 10.000241 
1.4649858e+3, 3.1436628e+2, -534518.06, -56417.6, 2816.2524, 0.059351172, 0.0299805, -56401.01, -56401.01, 0.0, 9.995462, 10.001796 
1.4751893e+3, 1.2439789e+2, -1151355.8, -1746401.6, -4694.719, -0.07019729, 0.09305966, -1151318.8, 569590.44, 0.012531785, 10.005242, 9.997256 
1.4751808e+3, 1.343951e+2, -1055929.8, -1587249.3, 12677.567, 0.086079955, 0.03807913, -1055627.5, 567307.8, 0.007481693, 10.004926, 9.997833 
1.475168e+3, 1.443937e+2, -1066820.0, -1609015.1, -24812.441, -0.14994995, 0.1403096, -1065686.9, 459262.63, 0.003248854, 10.004445, 9.997236 
1.4751586e+3, 1.543903e+2, -1071677.0, -1567398.1, -40497.215, -0.0005044048, 0.08163948, -1068390.4, 358594.66, 0.00081728253, 10.003757, 9.997181 
1.4751479e+3, 1.6438784e+2, -971609.0, -1355434.5, -46227.277, 0.030933125, 0.07066366, -966119.94, 362890.03, 0.000071419374, 10.003282, 9.998194 
1.4751363e+3, 1.7438658e+2, -896634.75, -1257107.1, -29427.258, -0.031588722, 0.115399174, -894248.25, 336772.5, 0.0000002932695, 10.003075, 9.998295 
1.475125e+3, 1.8438487e+2, -884390.75, -1227664.5, -32539.58, -0.05162166, 0.12720263, -881333.44, 251703.63, 0.0, 10.002602, 9.998053 
1.4751141e+3, 1.9438256e+2, -902085.0, -1184301.5, -42196.69, -0.03430564, 0.08962885, -895910.9, 139149.66, 0.0, 10.0018015, 9.998063 
1.475103e+3, 2.0438084e+2, -833196.06, -1016214.56, -39782.14, -0.024773223, 0.07665137, -824922.75, 112154.85, 0.0, 10.001239, 9.998816 
1.475092e+3, 2.1437986e+2, -766710.56, -924935.56, -32849.934, -0.018890383, 0.08927367, -760161.44, 78924.82, 0.0, 10.000986, 9.998892 
1.475081e+3, 2.2437887e+2, -722909.9, -825985.1, -50954.94, -0.011376325, 0.09026339, -701973.1, 39121.9, 0.0, 10.000497, 9.999134 
1.4750695e+3, 2.3437783e+2, -735657.8, -776235.4, -52072.176, -0.004623816, 0.06813035, -700061.5, -56957.605, 0.0, 9.999714, 9.999179 
1.475058e+3, 2.4437705e+2, -716137.44, -701680.9, -39610.64, -0.00018132519, 0.06504162, -668644.4, -123532.96, 0.0, 9.999114, 9.999308 
1.4750472e+3, 2.5437656e+2, -668984.06, -623700.3, -47226.836, 0.0035349985, 0.08053441, -593968.25, -146851.17, 0.0, 9.998746, 9.999347 
1.4750363e+3, 2.6437613e+2, -597072.6, -468369.94, -40150.76, 0.02263205, 0.07681109, -456871.56, -107750.95, 0.0, 9.998265, 9.999971 
1.4750256e+3, 2.7437583e+2, -585105.75, -403175.9, -28217.1, 0.05754349, 0.03906422, -398899.97, -147778.53, 0.0, 9.997636, 10.00005 
1.4750148e+3, 2.843756e+2, -567232.0, -351387.56, -21526.49, 0.0689292, 0.01830206, -349261.63, -196138.94, 0.0, 9.99712, 9.999979 
1.4750038e+3, 2.9437566e+2, -525463.56, -285516.0, -33966.38, 0.059568662, 0.02127934, -280800.47, -225677.08, 0.0, 9.996756, 9.999933 
1.4749931e+3, 3.0437705e+2, -493916.88, -148794.08, -49389.168, 0.09730175, 0.13146336, -141865.3, -141865.3, 0.0, 9.9962225, 10.000796 
1.4749813e+3, 3.143766e+2, -522093.16, -32007.65, -27011.457, 0.06568186, -0.0117644565, -30523.387, -30523.387, 0.0, 9.995466, 10.001963 
1.4851949e+3, 1.2440838e+2, -1079844.5, -1722983.1, 25687.89, -0.07122667, 0.06556068, -1078820.1, 641984.1, 0.013190479, 10.005796, 9.997149 
1.4851858e+3, 1.344057e+2, -1062600.6, -1604703.0, 19816.89, 0.08209488, 0.034425024, -1061877.1, 560953.06, 0.007906793, 10.004943, 9.997704 
1.4851725e+3, 1.4440423e+2, -1076277.0, -1610644.9, -12247.11, -0.14804202, 0.13723567, -1075996.4, 448848.84, 0.0034585984, 10.00437, 9.997262 
1.4851625e+3, 1.5440074e+2, -1009715.3, -1532180.9, 889.74365, -0.009457034, 0.063869, -1009713.8, 417167.75, 0.0008817144, 10.004163, 9.997227 
1.4851512e+3, 1.6439827e+2, -917563.2, -1331248.0, -4735.3374, 0.023048798, 0.05024005, -917509.0, 411397.53, 0.00007901186, 10.003664, 9.998174 
1.4851393e+3, 1.7439711e+2, -937654.8, -1279865.3, -19780.154, -0.02527146, 0.107226446, -936515.3, 294401.4, 0.00000037325287, 10.002807, 9.998266 
1.4851275e+3, 1.8439543e+2, -935009.44, -1244771.0, -27487.125, -0.04456561, 0.12106562, -932589.25, 200343.53, 0.0, 10.002223, 9.9981165 
1.4851157e+3, 1.9439311e+2, -870425.44, -1160808.5, -11095.416, -0.044422515, 0.07404729, -870002.06, 164953.92, 0.0, 10.001986, 9.998135 
1.4851043e+3, 2.0439139e+2, -797349.25, -1004645.1, -517.4341, -0.03893119, 0.060058475, -797348.0, 139625.05, 0.0, 10.001511, 9.998763 
1.485093e+3, 2.1439043e+2, -807837.06, -951507.75, -10122.8125, -0.020910122, 0.080800176, -807127.4, 31854.76, 0.0, 10.000734, 9.998829 
1.4850813e+3, 2.2438945e+2, -773561.8, -849206.9, -38222.32, -0.007376704, 0.085899726, -757611.8, -16620.777, 0.0, 10.000145, 9.999144 
1.4850692e+3, 2.3438841e+2, -724386.25, -769702.2, -39582.74, -0.0029293299, 0.063257165, -701435.25, -58435.563, 0.0, 9.999788, 9.999187 
1.4850573e+3, 2.4438761e+2, -690746.2, -687145.06, -17784.586, 0.0027048811, 0.059068024, -671070.1, -126062.945, 0.0, 9.99928, 9.999327 
1.4850459e+3, 2.543871e+2, -692351.3, -632912.75, -9160.515, 0.01224212, 0.071775965, -631533.0, -184520.14, 0.0, 9.998578, 9.999364 
1.4850344e+3, 2.643867e+2, -636398.56, -489442.66, -3956.7239, 0.029968698, 0.07037982, -489336.22, -140319.86, 0.0, 9.998006, 9.999951 
1.4850232e+3, 2.7438644e+2, -591812.25, -408937.66, -20637.16, 0.053522278, 0.040606443, -406637.72, -155620.61, 0.0, 9.997603, 10.000025 
1.4850119e+3, 2.8438634e+2, -561005.7, -332331.56, -14137.859, 0.06056286, 0.020624468, -331460.8, -178443.11, 0.0, 9.997095, 10.000121 
1.4850004e+3, 2.9438645e+2, -559138.44, -285066.56, 4575.8667, 0.056471594, 0.015969897, -284990.2, -229973.14, 0.0, 9.996454, 10.000081 
1.4849891e+3, 3.043878e+2, -517759.2, -134996.63, -5560.31, 0.093715444, 0.1053299, -134915.86, -134915.86, 0.0, 9.995952, 10.00102 
1.4849769e+3, 3.1438774e+2, -509479.8, -41655.64, -14975.903, 0.07605308, -0.021313649, -41176.727, -41176.727, 0.0, 9.995623, 10.00182 
1.4952002e+3, 1.2441965e+2, -1108626.6, -1782309.4, -7824.8735, -0.1047939, 0.0456464, -1108535.8, 612155.1, 0.013886545, 10.005794, 9.996743 
1.4951909e+3, 1.3441655e+2, -1093487.1, -1669282.0, -11753.848, 0.1011361, 0.014058568, -1093247.3, 529476.1, 0.008357012, 10.004946, 9.997258 
1.4951773e+3, 1.4441502e+2, -1049030.0, -1556237.9, -22513.742, -0.11568221, 0.117759824, -1048032.6, 476706.84, 0.0036817621, 10.004378, 9.997631 
1.4951664e+3, 1.5441215e+2, -979897.0, -1469965.5, -7058.1655, -0.041822802, 0.06292765, -979795.3, 446972.5, 0.0009511767, 10.004161, 9.997655 
1.4951545e+3, 1.6440971e+2, -944674.7, -1387504.6, -36212.297, -0.018024242, 0.049034424, -941732.94, 387059.28, 0.00008722728, 10.003662, 9.997789 
1.4951423e+3, 1.7440787e+2, -967484.9, -1343791.5, -51900.89, -0.004090656, 0.080997854, -960457.9, 270353.38, 0.0000004647829, 10.002814, 9.997826 
1.49513e+3, 1.8440609e+2, -908282.7, -1191265.9, -38186.785, -0.0057563437, 0.08964893, -903220.2, 229608.5, 0.0, 10.002231, 9.998481 
1.4951177e+3, 1.9440438e+2, -840633.44, -1099972.8, -20120.887, -0.044015322, 0.062392764, -839081.6, 195762.36, 0.0, 10.001988, 9.998551 
1.4951056e+3, 2.044029e+2, -814187.06, -1039168.4, -29211.361, -0.05501885, 0.062789455, -810456.2, 126402.086, 0.0, 10.001508, 9.9985285 
1.4950936e+3, 2.1440174e+2, -826665.75, -991390.0, -39354.723, -0.025687056, 0.08947284, -817746.4, 21124.715, 0.0, 10.000736, 9.998555 
1.4950815e+3, 2.2440055e+2, -773412.94, -849087.9, -52722.766, -0.0055232174, 0.08926336, -746355.4, -5472.6753, 0.0, 10.000145, 9.999145 
1.4950691e+3, 2.3439936e+2, -723020.1, -766855.44, -52433.79, 0.001283643, 0.049925596, -688107.44, -45214.96, 0.0, 9.999787, 9.999208 
1.4950567e+3, 2.4439861e+2, -675356.1, -654963.25, -42947.74, 0.009309851, 0.037813377, -621018.1, -76119.29, 0.0, 9.999278, 9.999549 
1.4950444e+3, 2.5439838e+2, -676054.8, -599090.5, -34485.992, 0.019671617, 0.053354107, -585899.06, -138998.36, 0.0, 9.998576, 9.999597 
1.4950325e+3, 2.6439807e+2, -661323.4, -540795.06, -19134.229, 0.029058969, 0.066256434, -537830.4, -188926.75, 0.0, 9.998004, 9.9996 
1.4950207e+3, 2.743977e+2, -619474.94, -465955.8, -34279.78, 0.035063688, 0.06608647, -458649.13, -207741.17, 0.0, 9.997601, 9.999635 
1.4950086e+3, 2.8439757e+2, -524524.4, -257372.3, -36380.45, 0.0385214, 0.044344597, -252506.67, -99598.01, 0.0, 9.997097, 10.000636 
1.4949967e+3, 2.9439786e+2, -519715.53, -203029.4, -17689.813, 0.04502879, -0.0030613393, -202044.34, -147140.31, 0.0, 9.99645, 10.000648 
1.4949849e+3, 3.0439907e+2, -525414.7, -149878.5, -17682.674, 0.08476422, 0.046188734, -149047.72, -149047.72, 0.0, 9.995948, 10.00092 
1.4949727e+3, 3.1439978e+2, -540616.94, -106372.83, -26412.477, 0.08850988, 0.014124142, -104772.21, -104772.21, 0.0, 9.995624, 10.001375 
1.505206e+3, 1.2443144e+2, -1129298.4, -1799040.5, 1449.6593, -0.11603131, 0.034690093, -1129295.3, 591278.8, 0.014630018, 10.005681, 9.996684 
1.505196e+3, 1.3442808e+2, -1039746.3, -1652910.8, 24389.018, 0.09828527, -0.014620582, -1038777.75, 583831.5, 0.008838281, 10.005363, 9.9971695 
1.505182e+3, 1.4442651e+2, -986351.7, -1512501.5, 19426.963, -0.10808832, 0.084462985, -985635.4, 538990.44, 0.0039210245, 10.004756, 9.997749 
1.5051703e+3, 1.5442418e+2, -1020962.5, -1474772.4, 12459.492, -0.0448599, 0.07038812, -1020620.7, 406028.06, 0.0010264455, 10.003814, 9.997789 
1.505158e+3, 1.6442183e+2, -1014037.75, -1435606.8, -15005.059, -0.02503708, 0.06515227, -1013504.4, 315168.0, 0.00009630864, 10.003248, 9.997658 
1.5051451e+3, 1.744195e+2, -928618.2, -1341262.4, -9726.995, -0.008339326, 0.064478666, -928389.06, 302307.47, 0.000000575819, 10.003152, 9.997679 
1.5051325e+3, 1.8441759e+2, -839013.8, -1153080.1, 317.0809, -0.0057053566, 0.065131396, -839013.5, 293702.1, 0.0, 10.002687, 9.998522 
1.5051197e+3, 1.9441615e+2, -869732.1, -1108458.1, -9520.078, -0.038455445, 0.061522774, -869353.1, 165374.89, 0.0, 10.001766, 9.9986 
1.5051068e+3, 2.0441481e+2, -875508.5, -1068340.3, -23979.732, -0.052484527, 0.071735255, -872571.25, 64169.78, 0.0, 10.001086, 9.998531 
1.5050942e+3, 2.1441355e+2, -831341.5, -993708.6, -14812.247, -0.037371166, 0.091321796, -830001.3, 8753.467, 0.0, 10.000706, 9.998554 
1.5050815e+3, 2.2441232e+2, -762639.75, -845856.3, -14898.0, -0.018896429, 0.08577878, -760053.0, -19285.936, 0.0, 10.00023, 9.9991255 
1.5050687e+3, 2.3441109e+2, -747573.44, -781073.7, -18593.986, 0.0022343113, 0.04319969, -739297.56, -96520.234, 0.0, 9.999631, 9.999186 
1.5050559e+3, 2.4441029e+2, -697390.75, -661252.25, -20079.133, 0.015441496, 0.029261595, -652309.1, -107525.46, 0.0, 9.99911, 9.999586 
1.505043e+3, 2.544101e+2, -657849.2, -585681.44, -27544.47, 0.018007861, 0.04328125, -576369.94, -129584.89, 0.0, 9.998683, 9.999637 
1.5050304e+3, 2.6440984e+2, -650085.7, -535066.25, -9095.592, 0.022180658, 0.057896256, -534351.44, -185563.75, 0.0, 9.998081, 9.999601 
1.5050179e+3, 2.7440953e+2, -669735.44, -490325.22, 3835.8313, 0.027920885, 0.06438807, -490243.25, -239451.3, 0.0, 9.997258, 9.999631 
1.5050055e+3, 2.8440955e+2, -596631.94, -283107.1, 2885.569, 0.03595659, 0.052297853, -283080.56, -130288.805, 0.0, 9.996565, 10.000715 
1.504993e+3, 2.9441e+2, -573205.1, -218802.9, -16013.58, 0.05065976, 0.016612241, -218080.81, -163295.58, 0.0, 9.996043, 10.000735 
1.5049808e+3, 3.0441096e+2, -546768.25, -140700.73, -11198.646, 0.08370715, 0.023002421, -140392.13, -140392.13, 0.0, 9.995717, 10.001095 
1.5049683e+3, 3.1441227e+2, -538493.44, -99984.19, 4177.687, 0.092641115, 0.035509128, -99944.39, -99944.39, 0.0, 9.995614, 10.001424 
1.5152118e+3, 1.2444386e+2, -1110318.5, -1757994.1, -14807.828, -0.10426377, 0.0415075, -1109980.1, 610472.44, 0.015425149, 10.00568, 9.996966 
1.515201e+3, 1.3444032e+2, -1023311.44, -1615920.8, 12322.718, 0.07177385, -0.051551197, -1023055.3, 599432.3, 0.009352654, 10.005355, 9.997428 
1.5151864e+3, 1.4443873e+2, -996387.1, -1533303.9, -15394.417, -0.12743108, 0.038748853, -995946.1, 528557.94, 0.004177719, 10.004756, 9.997607 
1.5151744e+3, 1.5443684e+2, -1031266.9, -1498541.8, -22941.43, -0.020546738, 0.08633954, -1030143.2, 396380.8, 0.0011082345, 10.003823, 9.9976225 
1.5151614e+3, 1.6443464e+2, -1003997.4, -1417812.6, -21254.313, -0.0009559093, 0.09894821, -1002908.56, 325638.1, 0.000106542946, 10.00326, 9.997775 
1.5151481e+3, 1.7443204e+2, -918996.44, -1321688.6, -13526.8125, -0.0387885, 0.05615079, -918542.56, 312030.1, 0.0000007145684, 10.003153, 9.997814 
1.5151347e+3, 1.8442993e+2, -859116.75, -1194587.5, -33060.355, -0.044857398, 0.04601368, -855889.75, 276703.78, 0.0, 10.002685, 9.9982395 
1.5151215e+3, 1.944285e+2, -890507.7, -1153495.4, -44105.086, -0.02851438, 0.07154082, -883308.06, 151299.66, 0.0, 10.001772, 9.998289 
1.5151082e+3, 2.0442715e+2, -858640.5, -1035068.94, -39678.563, -0.03298599, 0.0875214, -850127.6, 86493.4, 0.0, 10.001092, 9.998757 
1.5150948e+3, 2.1442595e+2, -813100.0, -956406.6, -29012.639, -0.057461202, 0.08571319, -807449.2, 31183.87, 0.0, 10.000707, 9.99881 
1.5150814e+3, 2.2442475e+2, -766558.5, -853694.56, -37177.88, -0.04861939, 0.07414665, -752852.06, -12207.858, 0.0, 10.000227, 9.999073 
1.5150684e+3, 2.3442356e+2, -752322.1, -791606.8, -40595.074, -0.00031236548, 0.04361432, -726867.0, -84212.836, 0.0, 9.999633, 9.999113 
1.5150551e+3, 2.4442272e+2, -707679.6, -682943.9, -36120.95, 0.019910937, 0.03336247, -657132.1, -112470.48, 0.0, 9.99911, 9.999437 
1.5150416e+3, 2.5442228e+2, -668873.2, -608188.75, -42588.82, 0.0058343643, 0.040924415, -586238.94, -139573.08, 0.0, 9.99868, 9.999484 
1.5150283e+3, 2.64422e+2, -626444.6, -485501.0, -38057.58, 0.008231719, 0.044608634, -475881.28, -127212.73, 0.0, 9.998078, 9.999944 
1.5150152e+3, 2.7442193e+2, -644210.4, -437036.56, -25380.1, 0.029979171, 0.036645968, -433972.66, -183303.5, 0.0, 9.997256, 9.999999 
1.5150023e+3, 2.844222e+2, -621178.1, -334302.1, -16812.611, 0.050139826, 0.04598271, -333320.16, -180653.17, 0.0, 9.996565, 10.000365 
1.5149893e+3, 2.944229e+2, -600853.06, -276937.78, -34182.438, 0.0724588, 0.074061364, -273369.84, -218708.98, 0.0, 9.996044, 10.000337 
1.5149766e+3, 3.0442333e+2, -514355.3, -74616.984, -14033.858, 0.08940267, 0.03244268, -74169.56, -74169.56, 0.0, 9.995721, 10.001548 
1.5149638e+3, 3.144251e+2, -497875.53, -15220.001, 4276.1006, 0.080993876, 0.039397314, -15182.12, -15182.12, 0.0, 9.99561, 10.002009 
1.5252176e+3, 1.2445686e+2, -1104939.8, -1736051.4, 9520.163, -0.07723291, 0.048037615, -1104796.1, 615529.2, 0.01626901, 10.005641, 9.997136 
1.5252061e+3, 1.3445345e+2, -1065803.5, -1620420.4, 31480.334, 0.057049785, -0.048833128, -1064022.4, 558335.94, 0.009897873, 10.004993, 9.997571 
1.5251908e+3, 1.4445171e+2, -1035371.75, -1560710.8, -1302.3102, -0.1480227, 0.023954494, -1035368.5, 489007.2, 0.00445061, 10.004524, 9.997532 
1.5251784e+3, 1.5444975e+2, -971794.25, -1478822.0, -3525.6035, -0.020134803, 0.073391765, -971769.75, 454626.94, 0.0011963593, 10.0042715, 9.997542 
1.5251648e+3, 1.6444756e+2, -932791.56, -1379864.3, 1905.7434, 0.0051480224, 0.08913574, -932783.44, 395636.0, 0.000118069845, 10.003736, 9.997806 
1.5251508e+3, 1.7444503e+2, -959540.4, -1337533.4, 1616.5818, -0.04816539, 0.050901067, -959533.5, 270911.03, 0.0000008766353, 10.002859, 9.997847 
1.5251371e+3, 1.8444295e+2, -924064.75, -1233719.8, -16851.102, -0.057764083, 0.04450753, -923150.44, 209314.92, 0.0, 10.002273, 9.99817 
1.5251234e+3, 1.9444147e+2, -855536.06, -1145194.5, -11477.934, -0.029849345, 0.07392989, -855081.94, 179398.52, 0.0, 10.00205, 9.998211 
1.5251096e+3, 2.0444006e+2, -788454.0, -996865.3, -6294.144, -0.030026922, 0.087347835, -788264.1, 148230.27, 0.0, 10.001557, 9.998795 
1.5250954e+3, 2.1443881e+2, -806935.5, -948734.94, -12214.793, -0.059725653, 0.07501698, -805891.0, 32615.596, 0.0, 10.0007305, 9.998851 
1.5250815e+3, 2.2443765e+2, -779871.56, -853883.4, -20127.006, -0.05565261, 0.06407658, -774752.3, -34235.31, 0.0, 10.00011, 9.999128 
1.5250678e+3, 2.3443666e+2, -731773.1, -775627.25, -14969.365, -0.012601957, 0.047159385, -727150.7, -84625.67, 0.0, 9.999749, 9.9991665 
1.5250541e+3, 2.444358e+2, -707122.75, -696785.75, -10520.125, 0.010920826, 0.039413884, -690233.06, -145700.25, 0.0, 9.999176, 9.9993105 
1.5250401e+3, 2.5443512e+2, -728638.6, -652481.1, -17002.139, 0.011493094, 0.036632676, -648857.8, -202317.75, 0.0, 9.998339, 9.999345 
1.5250263e+3, 2.644348e+2, -672848.56, -484800.47, -17531.111, 0.016839104, 0.0334581, -483180.06, -134637.0, 0.0, 9.997662, 10.000149 
1.5250124e+3, 2.7443492e+2, -639759.3, -409371.2, -16936.309, 0.026400732, 0.022108205, -408132.8, -157592.03, 0.0, 9.997178, 10.000226 
1.5249988e+3, 2.8443533e+2, -604374.06, -341776.6, 1774.9624, 0.043425083, 0.040776, -341764.6, -189227.47, 0.0, 9.996749, 10.000225 
1.5249854e+3, 2.944361e+2, -561630.2, -275858.3, 1992.6218, 0.07301634, 0.092750154, -275844.44, -221312.95, 0.0, 9.996392, 10.000176 
1.5249723e+3, 3.0443612e+2, -497858.22, -62822.375, 15737.714, 0.085680515, 0.016255861, -62253.797, -62253.797, 0.0, 9.99582, 10.00158 
1.524959e+3, 3.1443822e+2, -571699.44, -20140.256, 581.824, 0.08665333, 0.051705632, -20139.64, -20139.64, 0.0, 9.994975, 10.00228 
1.5352237e+3, 1.24470524e+2, -1101745.3, -1728930.0, -20534.393, -0.034936696, 0.057545114, -1101073.6, 619118.3, 0.017156096, 10.005643, 9.997185 
1.535211e+3, 1.3446744e+2, -1063854.5, -1617397.0, 7103.229, 0.052442245, -0.008783226, -1063763.4, 558457.8, 0.010471109, 10.005, 9.997589 
1.5351953e+3, 1.4446548e+2, -1034566.3, -1560850.0, -12810.1455, -0.17038964, 0.03871284, -1034254.7, 489985.9, 0.004737794, 10.004532, 9.997527 
1.5351824e+3, 1.5446295e+2, -972038.94, -1478315.0, -13238.515, -0.044229396, 0.032558, -971693.0, 454573.3, 0.0012900206, 10.004267, 9.997548 
1.5351686e+3, 1.6446063e+2, -937582.5, -1389940.1, -30262.291, -0.008377473, 0.038626168, -935566.94, 392723.22, 0.00013084838, 10.003735, 9.997739 
1.535154e+3, 1.7445853e+2, -963349.5, -1348038.6, -31142.947, -0.038094983, 0.049739074, -960844.56, 269467.22, 0.0000010420176, 10.002869, 9.99777 
1.5351395e+3, 1.8445665e+2, -913647.94, -1214586.5, -26845.791, -0.046669967, 0.060948927, -911271.9, 221059.02, 0.0, 10.002282, 9.998297 
1.5351254e+3, 1.9445507e+2, -845932.5, -1125311.5, -19837.625, -0.04384891, 0.06774233, -844530.94, 189815.4, 0.0, 10.002049, 9.998349 
1.5351108e+3, 2.0445357e+2, -799647.1, -1019540.94, -36610.31, -0.04487347, 0.0700998, -793712.06, 142649.19, 0.0, 10.001554, 9.998642 
1.5350962e+3, 2.1445216e+2, -818750.75, -973857.75, -42963.01, -0.04539039, 0.060258016, -807645.56, 30729.68, 0.0, 10.000731, 9.998678 
1.5350817e+3, 2.2445107e+2, -768810.3, -831655.44, -34745.582, -0.041843392, 0.05659186, -753385.94, -13000.752, 0.0, 10.000112, 9.999281 
1.5350674e+3, 2.3445038e+2, -719927.56, -751048.56, -28047.521, -0.0355566, 0.05343478, -703413.25, -61023.344, 0.0, 9.999747, 9.999336 
1.5350531e+3, 2.4444957e+2, -715199.4, -713233.1, -40822.61, -0.012080934, 0.046710726, -673381.8, -128984.51, 0.0, 9.999173, 9.999199 
1.5350387e+3, 2.5444862e+2, -738182.2, -672536.25, -47358.16, 0.033362914, 0.031121274, -647738.56, -201330.97, 0.0, 9.998339, 9.9992075 
1.5350243e+3, 2.6444826e+2, -667186.0, -473871.72, -35437.063, 0.04526755, 0.02423669, -467580.4, -119169.06, 0.0, 9.9976635, 10.000223 
1.5350096e+3, 2.7444848e+2, -633408.94, -396915.44, -33638.87, 0.015465758, 0.018308178, -392223.72, -141816.69, 0.0, 9.99718, 10.000312 
1.5349953e+3, 2.8444895e+2, -599913.0, -332745.8, -10355.311, 0.014545715, 0.034585442, -332345.06, -179942.69, 0.0, 9.996749, 10.000288 
1.5349817e+3, 2.9444966e+2, -557494.6, -267361.9, -9344.026, 0.04952793, 0.07520266, -267061.28, -212664.39, 0.0, 9.996391, 10.000236 
1.5349679e+3, 3.0444932e+2, -524708.7, -119149.65, -14041.261, 0.07000809, -0.023451561, -118664.09, -118664.09, 0.0, 9.99582, 10.001194 
1.5349543e+3, 3.1445137e+2, -573294.8, -23342.04, -25141.023, 0.102987826, 0.04740135, -22195.111, -22195.111, 0.0, 9.994972, 10.002261 
1.5452294e+3, 1.24484435e+2, -1097106.5, -1728303.0, -6530.545, -0.034459203, 0.04034801, -1097038.9, 623016.5, 0.018083617, 10.005689, 9.997168 
1.5452161e+3, 1.344817e+2, -1027909.4, -1603862.9, 22133.277, 0.057168793, 0.01277509, -1027060.06, 595021.25, 0.011072248, 10.005271, 9.997553 
1.5451999e+3, 1.4447957e+2, -1010309.06, -1547777.1, 1427.9806, -0.16599442, 0.047521017, -1010305.3, 513796.78, 0.00503925, 10.004697, 9.997537 
1.5451863e+3, 1.5447676e+2, -1018608.25, -1499003.8, 860.2187, -0.06281799, 0.008783279, -1018606.75, 407523.84, 0.0013889177, 10.00394, 9.997564 
1.5451719e+3, 1.6447444e+2, -974895.25, -1397645.9, -10532.854, -0.02995149, 0.009725548, -974633.0, 353521.16, 0.00014484506, 10.003434, 9.99783 
1.5451568e+3, 1.7447272e+2, -901963.0, -1307595.5, 242.5888, -0.04006216, 0.050044958, -901962.9, 328208.84, 0.000001197513, 10.003244, 9.997867 
1.545142e+3, 1.8447092e+2, -851497.44, -1187098.3, 3445.995, -0.043342974, 0.06645832, -851462.06, 280727.78, 0.0, 10.002722, 9.998273 
1.545127e+3, 1.9446906e+2, -885724.9, -1148149.4, -2540.9773, -0.05333371, 0.049279176, -885700.25, 148507.89, 0.0, 10.001793, 9.998316 
1.5451121e+3, 2.0446749e+2, -860063.94, -1048028.3, -19614.533, -0.055843204, 0.044885293, -858038.94, 78184.95, 0.0, 10.001137, 9.998646 
1.5450971e+3, 2.1446621e+2, -805035.44, -966680.25, -13939.478, -0.044686545, 0.04949266, -803842.2, 34394.09, 0.0, 10.000824, 9.998683 
1.545082e+3, 2.2446516e+2, -749167.44, -834237.7, -8471.44, -0.037720438, 0.054008655, -748332.06, -8085.928, 0.0, 10.000299, 9.999172 
1.545067e+3, 2.3446436e+2, -762199.5, -784558.0, -23317.385, -0.037510823, 0.05160089, -747519.94, -105267.23, 0.0, 9.999516, 9.999218 
1.5450521e+3, 2.4446352e+2, -746311.25, -716531.4, -41038.344, -0.017030587, 0.043767933, -687765.2, -143504.7, 0.0, 9.998912, 9.999302 
1.5450372e+3, 2.5446266e+2, -702085.75, -642576.25, -30681.04, 0.027398981, 0.024140734, -629591.44, -183322.08, 0.0, 9.998533, 9.99932 
1.5450221e+3, 2.6446226e+2, -620810.1, -462196.38, -13371.767, 0.043103505, 0.016356358, -461076.97, -112804.08, 0.0, 9.99803, 10.000128 
1.5450068e+3, 2.7446243e+2, -612633.9, -399464.3, -27010.008, 0.024551524, 0.013582536, -396095.22, -145825.39, 0.0, 9.997377, 10.000199 
1.544992e+3, 2.8446287e+2, -599549.1, -322816.56, -8974.22, 0.024876941, 0.02815839, -322525.84, -170260.3, 0.0, 9.996712, 10.000374 
1.5449779e+3, 2.944636e+2, -606264.5, -279525.97, -6902.953, 0.047814675, 0.06220888, -279380.2, -225120.92, 0.0, 9.996011, 10.000336 
1.5449636e+3, 3.0446315e+2, -587683.25, -183883.48, -5872.45, 0.06255285, -0.037993662, -183798.1, -183798.1, 0.0, 9.99554, 10.000884 
1.5449496e+3, 3.1446493e+2, -507947.72, 15735.684, -7230.87, 0.109829105, 0.041856144, 15835.506, 15835.506, 0.0, 9.995393, 10.002325 
1.5552348e+3, 1.2449869e+2, -1103579.8, -1739518.9, -29745.662, -0.068168424, 0.0052642087, -1102191.4, 617723.4, 0.019055314, 10.005682, 9.997093 
1.5552215e+3, 1.3449626e+2, -1034620.7, -1616230.4, 6532.5996, 0.0686429, 0.01709028, -1034547.3, 587390.8, 0.01170499, 10.005267, 9.997469 
1.5552047e+3, 1.444941e+2, -1009552.25, -1546934.8, -26861.293, -0.13972236, 0.05213871, -1008212.94, 515746.72, 0.0053575984, 10.0047, 9.997542 
1.5551901e+3, 1.5449119e+2, -1017080.8, -1497681.1, -27689.938, -0.07751409, 0.0019110234, -1015490.75, 410498.56, 0.0014940343, 10.003946, 9.997571 
1.555175e+3, 1.6448897e+2, -956780.3, -1362039.3, -19577.32, -0.060064714, 0.0015650542, -955836.75, 372174.66, 0.0001602767, 10.003441, 9.998072 
1.55516e+3, 1.7448758e+2, -884569.4, -1271007.4, -7246.275, -0.054977436, 0.050385896, -884433.56, 345590.8, 0.0000013687348, 10.003241, 9.99812 
1.5551446e+3, 1.8448578e+2, -864391.2, -1213182.1, -30749.092, -0.05007478, 0.06113687, -861701.1, 270341.13, 0.0, 10.002717, 9.998097 
1.5551288e+3, 1.944835e+2, -898848.5, -1176901.8, -37354.97, -0.058947265, 0.02047117, -893917.5, 140148.11, 0.0, 10.001798, 9.9981165 
1.5551132e+3, 2.0448184e+2, -848971.2, -1027014.5, -32878.832, -0.06363511, 0.013601319, -843093.56, 92988.5, 0.0, 10.001144, 9.998788 
1.5550977e+3, 2.1448098e+2, -793927.75, -943587.56, -25830.32, -0.058893915, 0.042120956, -789595.0, 48494.746, 0.0, 10.000823, 9.998843 
1.5550822e+3, 2.2447991e+2, -774843.9, -887332.9, -37416.273, -0.044792622, 0.055033658, -763535.25, -23435.191, 0.0, 10.000297, 9.99881 
1.5550667e+3, 2.3447862e+2, -789694.56, -842259.06, -52130.89, -0.01973076, 0.04224955, -757595.44, -115482.11, 0.0, 9.9995165, 9.998822 
1.555051e+3, 2.4447769e+2, -724647.94, -672374.9, -55325.293, -0.0063636783, 0.031020766, -637323.1, -93200.93, 0.0, 9.998914, 9.999605 
1.5550353e+3, 2.544772e+2, -677551.06, -592303.2, -43644.395, -0.007563965, 0.014601912, -573921.94, -127796.43, 0.0, 9.998535, 9.999665 
1.5550198e+3, 2.644769e+2, -639372.44, -501353.94, -36308.258, 0.010572717, 0.0094412975, -492385.22, -144257.31, 0.0, 9.998031, 9.999859 
1.5550046e+3, 2.7447677e+2, -634623.1, -445616.88, -49622.594, 0.051960185, 0.010048753, -433380.88, -183251.78, 0.0, 9.997378, 9.999884 
1.5549892e+3, 2.8447706e+2, -591636.6, -306935.03, -33862.598, 0.07136986, 0.02260534, -302962.8, -150836.16, 0.0, 9.996713, 10.000483 
1.554974e+3, 2.9447788e+2, -597220.8, -260860.47, -31860.164, 0.06382304, 0.04947945, -257869.27, -203750.27, 0.0, 9.996009, 10.000464 
1.554959e+3, 3.0447754e+2, -605818.06, -221480.88, -11181.856, 0.059798803, -0.03108105, -221155.83, -221155.83, 0.0, 9.995538, 10.0006275 
1.5549448e+3, 3.1447875e+2, -498083.72, 34025.82, -4759.802, 0.10344653, 0.016172959, 34068.395, 34068.395, 0.0, 9.995399, 10.002449 
1.5652402e+3, 1.2451359e+2, -1125978.3, -1744649.0, -25166.209, -0.07466313, 0.0033702913, -1124956.3, 594812.4, 0.02008096, 10.005507, 9.997142 
1.5652266e+3, 1.3451113e+2, -1049776.5, -1616984.9, 27249.602, 0.056913886, 0.0044329544, -1048470.44, 573321.9, 0.012375792, 10.005137, 9.997525 
1.5652093e+3, 1.4450891e+2, -1015307.1, -1554854.4, -11785.493, -0.14324236, 0.034880783, -1015049.8, 508764.56, 0.005696882, 10.004685, 9.997495 
1.5651941e+3, 1.5450628e+2, -991851.2, -1490726.8, -18084.412, -0.0738442, 0.019802395, -991196.5, 434645.03, 0.0016071622, 10.004145, 9.997521 
1.5651786e+3, 1.6450413e+2, -932565.5, -1338424.4, -8573.154, -0.055894934, 0.021340212, -932384.5, 395478.56, 0.00017757248, 10.003558, 9.998177 
1.5651631e+3, 1.7450249e+2, -924423.9, -1277878.8, -6906.4653, -0.058938995, 0.03376591, -924288.94, 305588.72, 0.0000016137079, 10.002915, 9.99823 
1.565147e+3, 1.8450063e+2, -911532.1, -1236423.0, -37162.418, -0.056719128, 0.0360308, -907335.5, 224560.06, 0.0, 10.002397, 9.998092 
1.5651308e+3, 1.9449861e+2, -865075.6, -1162099.8, -31922.316, -0.062257767, 0.020860782, -861683.5, 172233.48, 0.0, 10.002038, 9.998102 
1.5651146e+3, 2.0449702e+2, -798779.1, -1005538.44, -22641.373, -0.06403074, 0.022781685, -796328.8, 139604.2, 0.0, 10.001501, 9.998763 
1.5650985e+3, 2.1449602e+2, -806441.1, -952889.1, -29310.184, -0.057059754, 0.0397502, -800792.8, 37149.266, 0.0, 10.0007515, 9.998813 
1.5650824e+3, 2.2449484e+2, -795617.2, -897232.6, -37329.18, -0.04261061, 0.043537404, -783378.2, -43424.836, 0.0, 10.000156, 9.998808 
1.5650663e+3, 2.3449348e+2, -755435.0, -826305.75, -25128.498, -0.020799968, 0.024805848, -747429.5, -105462.52, 0.0, 9.999755, 9.9988165 
1.56505e+3, 2.4449258e+2, -678774.3, -647130.8, -20957.967, -0.010253601, 0.015209305, -636693.0, -92717.484, 0.0, 9.999215, 9.999633 
1.5650336e+3, 2.5449222e+2, -678863.3, -589445.2, -33363.91, -0.012831505, 0.009947307, -578368.5, -132391.11, 0.0, 9.998512, 9.999695 
1.5650176e+3, 2.6449195e+2, -667166.9, -518694.88, -33410.87, 0.006838667, 0.010024918, -511522.84, -163543.38, 0.0, 9.997859, 9.999822 
1.5650019e+3, 2.7449176e+2, -655460.94, -460699.3, -27954.361, 0.0528715, 0.0066830493, -456766.4, -206784.52, 0.0, 9.997259, 9.999836 
1.5649861e+3, 2.8449196e+2, -586568.75, -306830.06, -2718.4724, 0.077524245, 0.013552245, -306803.63, -154823.11, 0.0, 9.996758, 10.000461 
1.5649703e+3, 2.9449275e+2, -545295.2, -237739.14, -13334.608, 0.07574684, 0.038840886, -237162.08, -183189.02, 0.0, 9.996375, 10.000446 
1.5649548e+3, 3.0449274e+2, -576324.44, -213516.05, 11468.089, 0.07187485, -0.0046942704, -213153.9, -213153.9, 0.0, 9.995768, 10.000572 
1.5649399e+3, 3.1449345e+2, -558255.4, 22000.89, 37740.4, 0.098807625, -0.00093287556, 24445.264, 24445.264, 0.0, 9.994913, 10.002601 
1.575246e+3, 1.2452917e+2, -1115212.9, -1722370.5, -48871.176, -0.056082662, 0.03332846, -1111304.3, 608312.25, 0.021171313, 10.005513, 9.997293 
1.5752314e+3, 1.3452631e+2, -1038094.25, -1592698.4, 12931.445, 0.022621594, -0.023203792, -1037792.9, 583850.56, 0.0130914105, 10.00514, 9.997694 
1.5752137e+3, 1.4452405e+2, -1021708.44, -1569159.3, -32936.383, -0.1743262, -0.0017064379, -1019734.0, 503931.97, 0.006060898, 10.004689, 9.9973955 
1.5751985e+3, 1.5452209e+2, -998532.0, -1506291.4, -37962.734, -0.054297205, 0.060623646, -995709.4, 429977.75, 0.0017298949, 10.004151, 9.997413 
1.5751825e+3, 1.645199e+2, -933082.75, -1341750.1, -32646.834, -0.022730868, 0.068119936, -930491.1, 397217.72, 0.00019699363, 10.003567, 9.998151 
1.575166e+3, 1.7451745e+2, -925774.06, -1282196.3, -30905.8, -0.05337365, 0.0016059122, -923114.0, 306617.16, 0.0000019795527, 10.00292, 9.9981985 
1.5751494e+3, 1.8451557e+2, -901193.25, -1216016.5, -51462.652, -0.06412518, -0.007424179, -892994.44, 238755.03, 0.0, 10.002399, 9.998231 
1.5751328e+3, 1.9451438e+2, -855043.44, -1141117.1, -45429.367, -0.06538293, 0.048578035, -848002.4, 185760.03, 0.0, 10.002035, 9.998248 
1.5751159e+3, 2.0451298e+2, -812031.44, -1032682.9, -50274.707, -0.059760943, 0.07014635, -801116.44, 134660.44, 0.0, 10.001498, 9.998579 
1.5750994e+3, 2.1451132e+2, -820492.4, -982762.6, -56846.848, -0.04031729, 0.042518813, -802559.44, 35233.516, 0.0, 10.000753, 9.998608 
1.5750827e+3, 2.2450995e+2, -772002.44, -849296.25, -52719.4, -0.032717746, 0.020664986, -745281.75, -5476.109, 0.0, 10.000159, 9.999137 
1.5750659e+3, 2.3450892e+2, -730045.56, -774074.25, -39621.508, -0.041496925, -0.0008518742, -706733.4, -64919.434, 0.0, 9.999756, 9.999176 
1.575049e+3, 2.4450813e+2, -696013.06, -683128.7, -46392.68, -0.028989892, -0.0037619956, -642733.06, -98912.336, 0.0, 9.999214, 9.999387 
1.5750325e+3, 2.5450772e+2, -698937.06, -631034.25, -58499.254, 0.009528249, 0.011153091, -597347.94, -151522.83, 0.0, 9.99851, 9.999411 
1.5750158e+3, 2.6450744e+2, -654072.75, -491796.53, -54843.27, 0.028493024, 0.018029075, -475000.1, -127172.375, 0.0, 9.997859, 10.000008 
1.5749988e+3, 2.745073e+2, -639780.3, -429375.22, -48672.58, 0.024446676, 0.00038170634, -418661.44, -168832.78, 0.0, 9.997263, 10.000051 
1.5749824e+3, 2.8450748e+2, -597256.3, -330187.78, -15958.738, 0.041581463, -0.00078113854, -329237.56, -177410.03, 0.0, 9.996761, 10.0003 
1.5749668e+3, 2.9450816e+2, -556823.3, -263814.94, -25852.818, 0.08219333, 0.03240419, -261551.36, -207729.84, 0.0, 9.996382, 10.000266 
1.5749508e+3, 3.0450866e+2, -564899.94, -190733.69, -18909.627, 0.09656496, 0.0430903, -189780.45, -189780.45, 0.0, 9.99577, 10.000727 
1.5749347e+3, 3.1450891e+2, -547140.5, 45465.508, 11835.295, 0.08519283, -0.019109804, 45701.78, 45701.78, 0.0, 9.99491, 10.002765 
1.5852515e+3, 1.245452e+2, -1098500.9, -1726190.3, -24052.104, -0.049304966, 0.04119946, -1097580.5, 621878.94, 0.022333793, 10.005692, 9.997179 
1.5852365e+3, 1.3454236e+2, -1042672.06, -1604742.3, 27585.67, 0.0104951775, -0.0042721783, -1041321.44, 580165.7, 0.013856449, 10.005157, 9.9976 
1.5852183e+3, 1.4454001e+2, -1011077.8, -1547447.6, -18889.46, -0.1828756, 0.005961078, -1010413.4, 513097.0, 0.006451957, 10.004697, 9.997539 
1.5852028e+3, 1.545381e+2, -961600.44, -1470806.5, -6582.469, -0.053258147, 0.058087286, -961515.4, 464014.38, 0.0018629513, 10.004333, 9.997567 
1.5851861e+3, 1.6453591e+2, -913407.6, -1350135.8, -5211.9893, -0.019293802, 0.06304359, -913345.44, 414206.03, 0.0002183854, 10.003781, 9.997989 
1.585169e+3, 1.7453332e+2, -924805.44, -1301461.3, -15707.407, -0.05792008, 0.0020618653, -924151.5, 305424.63, 0.000002466339, 10.003015, 9.998018 
1.5851519e+3, 1.8453142e+2, -893601.56, -1192217.3, -30850.602, -0.06654398, -0.0056562996, -890447.6, 241146.94, 0.0, 10.002367, 9.998408 
1.5851347e+3, 1.9453041e+2, -866746.4, -1125073.3, -21351.164, -0.053463705, 0.048188258, -864993.56, 168611.33, 0.0, 10.0018635, 9.99844 
1.5851176e+3, 2.0452905e+2, -835071.75, -1052940.5, -26635.154, -0.04530559, 0.06797157, -831862.8, 103755.91, 0.0, 10.001381, 9.998495 
1.5851003e+3, 2.1452728e+2, -802371.9, -984915.06, -27430.791, -0.038429312, 0.038693134, -798338.94, 39297.66, 0.0, 10.000926, 9.998508 
1.5850829e+3, 2.2452591e+2, -736085.94, -819749.0, -25346.797, -0.03567085, 0.018648611, -729005.94, 10643.286, 0.0, 10.000354, 9.999246 
1.5850656e+3, 2.3452505e+2, -737351.44, -763766.2, -29809.416, -0.039783504, 0.0030432488, -717954.56, -76299.484, 0.0, 9.999648, 9.999297 
1.5850483e+3, 2.4452427e+2, -735089.7, -706974.4, -43246.543, -0.026194004, -0.0051909517, -675558.06, -131896.33, 0.0, 9.998971, 9.999339 
1.5850309e+3, 2.5452363e+2, -729936.06, -652992.1, -40360.508, 0.007910292, -0.007676952, -635705.1, -190036.4, 0.0, 9.998329, 9.999347 
1.5850136e+3, 2.6452336e+2, -658336.2, -489785.97, -26167.611, 0.026307458, 0.0013968176, -485816.88, -138145.58, 0.0, 9.997812, 10.000043 
1.5849961e+3, 2.7452353e+2, -609869.2, -409783.94, -33767.43, 0.02750761, 0.008450285, -404238.84, -154569.64, 0.0, 9.997448, 10.000094 
1.5849793e+3, 2.8452358e+2, -565532.75, -315981.88, -2363.645, 0.04038456, -0.0010477322, -315959.5, -164291.06, 0.0, 9.996986, 10.000288 
1.5849629e+3, 2.945238e+2, -555566.25, -264155.06, -1146.3745, 0.06516824, -0.011715031, -264150.53, -210483.86, 0.0, 9.996398, 10.000255 
1.5849465e+3, 3.0452475e+2, -569837.6, -189046.1, -3497.8591, 0.09264256, 0.0385468, -189013.95, -189013.95, 0.0, 9.995721, 10.000762 
1.5849298e+3, 3.145251e+2, -551912.56, 29073.605, 17271.873, 0.0965184, -0.015999569, 29586.62, 29586.62, 0.0, 9.994941, 10.002635 
1.5952574e+3, 1.245618e+2, -1123498.5, -1778420.0, -53947.13, -0.048171517, 0.035894606, -1119084.5, 600212.1, 0.023573656, 10.005693, 9.996821 
1.5952417e+3, 1.3455927e+2, -1065348.0, -1653426.9, 8523.894, 0.016281394, 0.05676589, -1065224.5, 556098.75, 0.014673638, 10.005165, 9.997261 
1.5952231e+3, 1.4455679e+2, -985152.5, -1495292.1, -33456.293, -0.17396365, 0.053903554, -982967.7, 540379.94, 0.006871107, 10.004704, 9.997895 
1.5952069e+3, 1.5455435e+2, -935175.56, -1415699.6, -20607.291, -0.07018, 0.014873907, -934293.44, 491075.7, 0.0020064185, 10.004331, 9.997948 
1.5951897e+3, 1.6455211e+2, -934347.25, -1393612.3, -34183.66, -0.044119954, 0.010009875, -931816.8, 395573.94, 0.0002413882, 10.00378, 9.997691 
1.5951717e+3, 1.7455004e+2, -947345.2, -1349462.4, -44094.305, -0.07372377, 0.03368241, -942566.8, 286846.0, 0.0000030340082, 10.003018, 9.997688 
1.5951541e+3, 1.8454821e+2, -877677.3, -1160745.1, -50143.113, -0.06695084, 0.039661914, -869057.4, 262373.66, 0.0, 10.002373, 9.998623 
1.5951368e+3, 1.9454673e+2, -849375.2, -1090541.0, -39771.08, -0.027566394, 0.020729946, -842985.75, 190458.44, 0.0, 10.001868, 9.998675 
1.5951191e+3, 2.0454526e+2, -834912.8, -1053803.3, -43853.047, -0.022101682, 0.01823033, -826454.06, 109004.26, 0.0, 10.001385, 9.998488 
1.5951009e+3, 2.1454385e+2, -803847.5, -987820.2, -44273.582, -0.052892033, 0.028739488, -793747.44, 43725.832, 0.0, 10.000924, 9.998491 
1.595083e+3, 2.2454272e+2, -743351.6, -834584.56, -51630.758, -0.05283041, 0.03723317, -720072.5, 19411.799, 0.0, 10.000351, 9.999146 
1.5950654e+3, 2.3454192e+2, -744895.56, -779461.06, -55339.855, -0.017171776, 0.03597374, -704202.56, -62711.965, 0.0, 9.999646, 9.999191 
1.5950474e+3, 2.4454096e+2, -725880.25, -688304.8, -66724.32, -0.0044075637, 0.010677317, -637773.6, -94274.914, 0.0, 9.998971, 9.999469 
1.595029e+3, 2.5453988e+2, -718929.8, -631720.75, -63024.918, -0.019082675, -0.047520436, -598686.56, -153178.08, 0.0, 9.998334, 9.999492 
1.595011e+3, 2.6453963e+2, -666204.25, -507629.66, -39179.6, 0.000120976416, -0.039714385, -498477.63, -150967.13, 0.0, 9.997817, 9.999919 
1.5949939e+3, 2.745403e+2, -619658.75, -430609.78, -45748.902, 0.06007376, 0.032409374, -420120.75, -170617.06, 0.0, 9.997448, 9.999952 
1.5949766e+3, 2.845403e+2, -556169.56, -296737.9, -22721.041, 0.07047705, 0.01282646, -294763.03, -143259.3, 0.0, 9.996985, 10.000422 
1.5949589e+3, 2.9453963e+2, -543798.2, -241835.64, -21544.428, 0.019479407, -0.09787471, -240306.23, -186796.81, 0.0, 9.996405, 10.000405 
1.5949418e+3, 3.0454087e+2, -576741.1, -203858.9, -31445.764, 0.05587688, -0.020641668, -201225.64, -201225.64, 0.0, 9.995721, 10.000661 
1.5949251e+3, 3.1454206e+2, -584022.75, -38616.17, -10039.9795, 0.13107221, 0.02241849, -38431.418, -38431.418, 0.0, 9.994943, 10.002171 
1.6052628e+3, 1.24578714e+2, -1122232.1, -1778525.4, -50524.44, -0.07814078, 0.026341723, -1118365.3, 600765.1, 0.024898542, 10.005713, 9.99681 
1.605247e+3, 1.3457637e+2, -1043377.25, -1640385.6, 44941.875, 0.029133415, 0.06291752, -1040013.0, 581142.7, 0.015547686, 10.005315, 9.997278 
1.6052282e+3, 1.4457387e+2, -972453.44, -1488978.3, 2277.579, -0.14247812, 0.058734316, -972443.4, 550736.8, 0.0073207067, 10.004797, 9.997893 
1.6052109e+3, 1.5457128e+2, -961469.5, -1428224.4, -12680.495, -0.08004165, 0.00358972, -961125.25, 464077.66, 0.0021611145, 10.004152, 9.997946 
1.6051932e+3, 1.6456904e+2, -953917.25, -1391709.6, -29798.984, -0.06518144, -0.005089943, -951898.25, 375326.0, 0.00026594775, 10.0036, 9.997789 
1.6051748e+3, 1.7456721e+2, -920431.8, -1324833.1, -10093.967, -0.070241414, 0.033450812, -920180.06, 309063.75, 0.0000036433328, 10.003156, 9.997789 
1.6051568e+3, 1.8456545e+2, -846697.4, -1152279.8, -8622.8, -0.054852657, 0.043819573, -846454.25, 284807.2, 0.0, 10.002615, 9.998563 
1.6051388e+3, 1.9456378e+2, -841038.25, -1094063.8, -21379.176, -0.027209222, 0.0144311385, -839244.56, 194031.98, 0.0, 10.001961, 9.998605 
1.6051205e+3, 2.0456228e+2, -830943.6, -1040691.3, -30348.354, -0.023616223, 0.006014059, -826640.8, 108650.24, 0.0, 10.001366, 9.998587 
1.605102e+3, 2.1456099e+2, -808063.56, -977976.0, -21591.143, -0.044364616, 0.017712789, -805362.8, 31941.518, 0.0, 10.000846, 9.998594 
1.6050835e+3, 2.2455992e+2, -762316.06, -850327.0, -30103.02, -0.043330446, 0.0311645, -753004.8, -13689.919, 0.0, 10.000252, 9.999084 
1.6050649e+3, 2.3455913e+2, -762017.7, -796224.44, -33835.16, -0.018283695, 0.03907087, -741208.75, -99886.87, 0.0, 9.999566, 9.999113 
1.6050464e+3, 2.445582e+2, -710356.0, -677237.44, -39202.594, -0.007989779, 0.018318964, -651240.25, -107910.14, 0.0, 9.999063, 9.9995 
1.6050275e+3, 2.5455713e+2, -651793.8, -594430.9, -43783.89, -0.015265436, -0.040979616, -570770.6, -125431.375, 0.0, 9.998776, 9.999533 
1.6050091e+3, 2.645568e+2, -606576.25, -480489.78, -25675.639, 0.0060178796, -0.04391026, -475461.8, -128120.14, 0.0, 9.998238, 9.999901 
1.6049914e+3, 2.7455726e+2, -628801.7, -438056.97, -24678.371, 0.061063018, 0.0070220884, -434915.84, -185579.22, 0.0, 9.9974, 9.999923 
1.6049734e+3, 2.845572e+2, -597714.6, -315651.03, 49.193726, 0.06811961, -0.012391617, -315651.03, -164314.3, 0.0, 9.996696, 10.000429 
1.604955e+3, 2.945568e+2, -581906.3, -257711.67, -10746.904, 0.01724844, -0.097902186, -257355.8, -204015.52, 0.0, 9.996135, 10.000424 
1.6049375e+3, 3.0455813e+2, -580707.2, -183652.05, -16857.854, 0.06056126, -0.023012377, -182937.6, -182937.6, 0.0, 9.995601, 10.000856 
1.6049199e+3, 3.1455913e+2, -570967.94, -46491.273, 23620.54, 0.11365763, -0.013934886, -45429.637, -45429.637, 0.0, 9.995096, 10.00204 
1.6152678e+3, 1.24595985e+2, -1102532.3, -1735799.1, -77099.38, -0.1335569, 0.00971948, -1093280.8, 625680.0, 0.026320202, 10.005715, 9.997105 
1.6152525e+3, 1.3459371e+2, -1020755.0, -1593341.8, 30047.996, 0.048335377, 0.020545589, -1019182.44, 601801.6, 0.016488135, 10.00532, 9.997602 
1.6152334e+3, 1.445913e+2, -995111.2, -1537405.0, -22298.785, -0.090903446, 0.026188394, -994195.8, 528812.0, 0.007806816, 10.004803, 9.997557 
1.6152151e+3, 1.5458885e+2, -986125.4, -1481290.5, -35903.375, -0.086214185, 0.021861546, -983535.6, 441495.4, 0.00232983, 10.004159, 9.997579 
1.6151965e+3, 1.6458666e+2, -920403.4, -1323884.6, -46682.234, -0.08580781, 0.015171471, -915072.75, 411979.13, 0.0002927279, 10.003606, 9.998253 
1.6151783e+3, 1.7458484e+2, -885314.1, -1252750.9, -26608.111, -0.04905429, 0.0024689904, -883397.3, 345671.97, 0.000004294035, 10.003158, 9.998285 
1.6151595e+3, 1.8458313e+2, -870298.4, -1201261.1, -33412.22, -0.032242853, 0.00837543, -866958.94, 264127.2, 0.0, 10.002614, 9.998228 
1.6151404e+3, 1.9458158e+2, -867190.56, -1148932.4, -45690.906, -0.05296581, 0.029193284, -859965.94, 173136.13, 0.0, 10.001962, 9.998228 
1.6151215e+3, 2.0458008e+2, -816208.5, -1010934.2, -50092.375, -0.050316688, 0.030957589, -804078.1, 131038.86, 0.0, 10.001368, 9.998791 
1.615103e+3, 2.1457864e+2, -791514.25, -944425.56, -40195.49, -0.014511925, 0.0050062854, -781592.0, 55538.082, 0.0, 10.000848, 9.998825 
1.615084e+3, 2.245775e+2, -765629.44, -858144.5, -55318.34, -0.010008731, 0.00058126455, -739776.75, -635.73645, 0.0, 10.000254, 9.999031 
1.6150643e+3, 2.3457669e+2, -765956.25, -805718.5, -58829.285, -0.04381545, 0.013161556, -723739.5, -82590.21, 0.0, 9.99957, 9.999047 
1.6150452e+3, 2.4457595e+2, -714642.1, -687074.44, -50042.664, -0.037017398, 0.01855327, -648952.0, -105795.62, 0.0, 9.999064, 9.999433 
1.6150266e+3, 2.5457534e+2, -656933.5, -604950.1, -52960.727, 0.017194744, 0.012319871, -571946.8, -126785.59, 0.0, 9.998775, 9.999462 
1.6150077e+3, 2.645748e+2, -601443.1, -470210.75, -55042.313, 0.040665187, -0.011165684, -450181.5, -103016.27, 0.0, 9.998237, 9.999972 
1.6149884e+3, 2.7457425e+2, -621981.44, -426299.38, -54349.24, 0.027520986, -0.068974964, -412217.66, -163048.97, 0.0, 9.997409, 10.000001 
1.6149697e+3, 2.8457427e+2, -606009.1, -334534.78, -20428.016, 0.031799115, -0.07683225, -333006.2, -181838.28, 0.0, 9.996702, 10.0002985 
1.6149516e+3, 2.9457527e+2, -591176.25, -277166.56, -30544.01, 0.05714439, -0.010078959, -274223.1, -221063.34, 0.0, 9.996134, 10.000293 
1.6149336e+3, 3.0457646e+2, -546388.7, -112087.51, -34554.418, 0.10390129, 0.032070056, -109355.44, -109355.44, 0.0, 9.995598, 10.001349 
1.6149142e+3, 3.1457645e+2, -555144.6, -15998.717, 1101.1077, 0.037040263, -0.112674035, -15996.468, -15996.468, 0.0, 9.995106, 10.002246 
1.6252737e+3, 1.2461388e+2, -1109069.8, -1735598.0, -41077.53, -0.120106936, -0.02319935, -1106388.0, 612396.1, 0.027852213, 10.005667, 9.997128 
1.6252576e+3, 1.3461192e+2, -1004995.6, -1580583.8, 57118.387, 0.025864266, 0.014484237, -999382.25, 621422.44, 0.017506469, 10.005414, 9.997645 
1.6252382e+3, 1.4460962e+2, -973179.2, -1528449.4, -6029.251, -0.100551836, 0.029687677, -973113.7, 549713.8, 0.008336993, 10.004967, 9.997538 
1.6252194e+3, 1.5460701e+2, -965439.5, -1473105.0, 3029.8804, -0.0724879, 0.011310708, -965421.4, 459430.97, 0.0025164047, 10.0043125, 9.99756 
1.6252004e+3, 1.6460481e+2, -909610.7, -1311267.0, -5381.8525, -0.067304, 0.0012177231, -909538.56, 417334.72, 0.00032300164, 10.003651, 9.998317 
1.6251813e+3, 1.7460312e+2, -906894.1, -1255670.4, -16452.695, -0.047728565, -0.0035191635, -906119.7, 322769.38, 0.000005034694, 10.002979, 9.998349 
1.6251619e+3, 1.8460144e+2, -899185.8, -1216616.8, -27377.51, -0.0376454, 0.0021711595, -896841.9, 234063.75, 0.0, 10.002424, 9.998213 
1.6251424e+3, 1.9459979e+2, -863259.5, -1149179.5, -14725.515, -0.053032275, 0.015006898, -862503.1, 170419.61, 0.0, 10.002, 9.998207 
1.625123e+3, 2.0459826e+2, -795312.1, -991895.7, -11824.974, -0.050016962, 0.014033145, -794603.4, 140334.13, 0.0, 10.001474, 9.998869 
1.625104e+3, 2.1459696e+2, -789637.6, -934344.94, -14415.153, -0.02043657, -0.010047665, -788215.56, 48733.645, 0.0, 10.000822, 9.998905 
1.6250843e+3, 2.2459584e+2, -759823.3, -858541.56, -31921.502, -0.015584963, -0.013879197, -750400.56, -11440.61, 0.0, 10.000308, 9.9990015 
1.625064e+3, 2.3459497e+2, -711681.2, -782868.56, -33013.598, -0.04170951, -0.0016125026, -698727.94, -57758.656, 0.0, 9.999959, 9.999016 
1.6250443e+3, 2.4459428e+2, -673356.4, -666087.2, -23747.016, -0.030720495, 0.008553641, -645698.25, -102721.95, 0.0, 9.999347, 9.999438 
1.6250251e+3, 2.545938e+2, -707313.6, -628794.56, -22741.785, 0.02355585, 0.014156227, -622683.4, -177703.56, 0.0, 9.998427, 9.999464 
1.6250058e+3, 2.6459327e+2, -657803.3, -500563.88, -21275.916, 0.043232307, -0.007464475, -497735.94, -150752.06, 0.0, 9.997864, 9.999943 
1.6249858e+3, 2.7459255e+2, -580975.3, -409280.0, -29343.924, 0.022105906, -0.07607169, -404403.44, -155414.52, 0.0, 9.9977045, 9.999973 
1.6249664e+3, 2.845926e+2, -544770.44, -303066.75, -6378.835, 0.024369964, -0.081953324, -302898.53, -151910.44, 0.0, 9.997117, 10.000313 
1.6249476e+3, 2.9459378e+2, -603362.25, -280608.63, -6835.336, 0.054948643, 0.0011187234, -280463.94, -227485.9, 0.0, 9.996042, 10.000311 
1.624929e+3, 3.0459467e+2, -573352.44, -111153.59, -1396.7612, 0.10128004, 0.008597849, -111149.375, -111149.375, 0.0, 9.995353, 10.001473 
1.624909e+3, 3.1459507e+2, -557099.94, -13902.838, -2286.798, 0.01690762, -0.106272146, -13893.211, -13893.211, 0.0, 9.995077, 10.0022745 
1.6352801e+3, 1.2463248e+2, -1122111.4, -1767264.3, -60862.395, -0.04265022, -0.06701067, -1116420.0, 602180.25, 0.029505868, 10.00569, 9.996901 
1.6352624e+3, 1.3463098e+2, -1019628.9, -1611559.6, 49088.246, -0.038429387, 0.039527994, -1015585.7, 605032.1, 0.018610746, 10.005421, 9.997427 
1.6352426e+3, 1.446288e+2, -955100.1, -1490709.0, -30274.176, -0.16880143, 0.0642269, -953394.4, 569245.2, 0.008915934, 10.004967, 9.9978 
1.6352239e+3, 1.5462574e+2, -945393.2, -1432286.8, -21162.5, -0.040228337, -0.025314191, -944475.1, 480191.84, 0.00272334, 10.004315, 9.99784 
1.6352044e+3, 1.6462345e+2, -930659.06, -1356389.1, -30991.447, -0.013539654, -0.043405164, -928414.9, 398273.66, 0.00035806478, 10.003655, 9.998006 
1.6351841e+3, 1.7462207e+2, -929430.94, -1305052.4, -41117.266, -0.06691817, 0.014192878, -924982.7, 303720.56, 0.000005927034, 10.002989, 9.998006 
1.635164e+3, 1.8462038e+2, -878113.4, -1174934.4, -43311.07, -0.07123332, 0.023753384, -871922.7, 258797.33, 0.0, 10.002431, 9.998496 
1.6351447e+3, 1.9461839e+2, -841025.6, -1103861.5, -30011.17, -0.029481282, -0.02757521, -837642.44, 195096.05, 0.0, 10.002002, 9.998519 
1.6351247e+3, 2.0461684e+2, -799560.4, -1001099.9, -35949.59, -0.025704987, -0.043860346, -793339.9, 141413.0, 0.0, 10.001474, 9.998807 
1.6351043e+3, 2.1461588e+2, -795346.75, -946773.1, -38505.582, -0.062004413, -0.026420634, -786117.75, 50644.3, 0.0, 10.000823, 9.99882 
1.6350842e+3, 2.246149e+2, -759446.56, -858420.44, -45476.34, -0.059360016, -0.011149912, -741724.44, -2952.5728, 0.0, 10.000309, 9.999002 
1.6350642e+3, 2.3461398e+2, -711510.94, -782720.4, -45109.38, -0.013722841, -0.0057423934, -689647.8, -48865.785, 0.0, 9.999958, 9.999018 
1.635044e+3, 2.4461314e+2, -668988.3, -657392.06, -56623.004, 0.007869917, -0.011730841, -606271.1, -63480.902, 0.0, 9.999346, 9.999499 
1.6350235e+3, 2.5461245e+2, -702147.25, -619677.5, -55782.49, 0.002163016, -0.03512388, -591543.75, -146748.33, 0.0, 9.998432, 9.999526 
1.6350032e+3, 2.6461208e+2, -666566.5, -520354.78, -27207.502, 0.013188448, -0.032498665, -515456.03, -168658.06, 0.0, 9.997869, 9.999805 
1.6349837e+3, 2.7461213e+2, -591125.8, -431050.44, -33810.99, 0.04354348, -0.013514232, -424201.9, -175404.11, 0.0, 9.997705, 9.999825 
1.6349638e+3, 2.846121e+2, -533965.6, -281267.25, -44515.508, 0.04303383, -0.027581884, -273654.7, -122856.87, 0.0, 9.997117, 10.0004635 
1.6349432e+3, 2.946122e+2, -590567.44, -256732.19, -45346.105, 0.004746988, -0.06571589, -250682.3, -197886.45, 0.0, 9.996051, 10.000472 
1.6349238e+3, 3.0461273e+2, -590099.0, -147452.81, -11902.855, 0.048539635, -0.09317493, -147132.97, -147132.97, 0.0, 9.995358, 10.001223 
1.6349046e+3, 3.1461504e+2, -566271.0, -32883.11, -19124.713, 0.05794657, 0.010319605, -32198.268, -32198.268, 0.0, 9.995075, 10.002146 
1.645286e+3, 1.24652356e+2, -1034349.06, -1735859.5, -28783.72, -0.055998765, -0.06936817, -1033170.0, 685234.25, 0.03128647, 10.006376, 9.996783 
1.6452678e+3, 1.3465066e+2, -1022185.4, -1626700.9, 96050.04, -0.05199483, 0.031065896, -1007291.2, 613132.56, 0.019803358, 10.005471, 9.997298 
1.6452475e+3, 1.4464842e+2, -985345.8, -1508459.6, 12215.414, -0.15954833, 0.05763411, -985060.75, 537385.5, 0.009544645, 10.004776, 9.997767 
1.6452283e+3, 1.5464523e+2, -945280.8, -1435754.5, -620.06366, -0.0465713, -0.041973434, -945280.06, 479194.8, 0.0029510262, 10.0043335, 9.997807 
1.6452082e+3, 1.6464289e+2, -908085.5, -1354788.8, -15882.732, -0.02301341, -0.061240975, -907521.5, 418975.8, 0.00039864154, 10.003851, 9.997921 
1.6451871e+3, 1.7464149e+2, -887491.1, -1294476.9, -8854.694, -0.065237954, 0.006418592, -887298.56, 341213.56, 0.0000070009137, 10.00332, 9.997918 
1.6451667e+3, 1.846398e+2, -835113.9, -1146671.3, -8664.329, -0.0647788, 0.017650446, -834873.1, 295655.78, 0.0, 10.002696, 9.998562 
1.6451466e+3, 1.946378e+2, -842211.0, -1096579.6, -13633.408, -0.026874883, -0.042778444, -841482.4, 191064.92, 0.0, 10.001962, 9.998587 
1.645126e+3, 2.0463629e+2, -812916.25, -1003497.2, -23508.615, -0.027305571, -0.061498217, -810059.2, 124502.04, 0.0, 10.001367, 9.998841 
1.645105e+3, 2.1463539e+2, -777074.1, -934492.06, -18467.438, -0.068379276, -0.037938025, -774936.6, 61632.984, 0.0, 10.000936, 9.99885 
1.6450843e+3, 2.2463445e+2, -750191.5, -851783.75, -20240.736, -0.0631829, -0.020616086, -746307.4, -7728.2495, 0.0, 10.000365, 9.99902 
1.645064e+3, 2.3463354e+2, -757308.94, -803271.94, -20775.748, -0.006359077, -0.017535234, -749310.1, -108720.625, 0.0, 9.999639, 9.99903 
1.6450433e+3, 2.446327e+2, -693544.94, -663373.94, -33024.582, 0.01342694, -0.024363069, -642152.5, -99555.05, 0.0, 9.999152, 9.999552 
1.645022e+3, 2.5463206e+2, -624919.75, -576344.56, -33760.57, -0.00988835, -0.04803204, -559042.94, -114440.83, 0.0, 9.998938, 9.999578 
1.6450012e+3, 2.6463175e+2, -610126.0, -499697.25, -6042.806, -0.0014598125, -0.0440953, -499367.56, -152762.8, 0.0, 9.998287, 9.999744 
1.6449812e+3, 2.7463174e+2, -677548.9, -480480.72, -7959.157, 0.044675317, -0.01975981, -480159.78, -231554.39, 0.0, 9.997148, 9.999752 
1.6449606e+3, 2.8463176e+2, -614894.25, -312045.25, -15112.683, 0.047638148, -0.027911749, -311292.97, -160688.06, 0.0, 9.996528, 10.000534 
1.6449393e+3, 2.94632e+2, -524999.75, -215824.3, -23317.635, -0.0016507678, -0.06217383, -214075.61, -161474.53, 0.0, 9.996462, 10.000553 
1.6449192e+3, 3.0463216e+2, -529025.3, -154547.63, 2250.6475, 0.029274367, -0.1112358, -154534.11, -154534.11, 0.0, 9.995937, 10.000893 
1.6448997e+3, 3.1463438e+2, -590546.3, -50802.2, -20046.53, 0.06388077, 0.014849258, -50058.68, -50058.68, 0.0, 9.994937, 10.002088 
1.6552913e+3, 1.2467341e+2, -1037348.56, -1739262.8, -71141.03, -0.14775507, -0.03951991, -1030210.8, 687986.44, 0.03319197, 10.006373, 9.996764 
1.6552734e+3, 1.34671e+2, -1025014.06, -1634147.6, 63239.75, -0.019241132, -0.0060190763, -1018517.8, 601704.7, 0.021082403, 10.005483, 9.997241 
1.6552529e+3, 1.4466852e+2, -1005129.06, -1552615.5, -5304.701, -0.081827365, 0.014816178, -1005077.7, 517169.6, 0.01022268, 10.004788, 9.997458 
1.6552322e+3, 1.5466546e+2, -966620.56, -1482737.6, -16306.088, -0.09161861, -0.041550502, -966105.94, 458170.5, 0.0031992092, 10.004343, 9.99748 
1.6552113e+3, 1.6466303e+2, -898749.94, -1336826.8, -35212.12, -0.09310386, -0.055584583, -895937.7, 430362.06, 0.00044490065, 10.003856, 9.998044 
1.6551907e+3, 1.7466141e+2, -877376.5, -1273906.9, -27924.303, -0.044361364, -0.025079384, -875419.7, 352896.1, 0.000008273259, 10.00332, 9.998061 
1.6551697e+3, 1.8465972e+2, -845729.8, -1169077.3, -35788.086, -0.022528633, -0.013863342, -841816.1, 288516.28, 0.0, 10.002696, 9.998408 
1.6551484e+3, 1.9465798e+2, -853379.94, -1121265.4, -40590.742, -0.045192473, -0.031093586, -847364.56, 184984.75, 0.0, 10.001966, 9.998416 
1.6551273e+3, 2.0465654e+2, -803005.44, -984596.25, -39806.58, -0.05422362, -0.039924193, -794662.7, 139700.13, 0.0, 10.001372, 9.998969 
1.6551062e+3, 2.1465549e+2, -767353.25, -914548.6, -33840.348, -0.042471603, -0.045843687, -759946.06, 76426.016, 0.0, 10.000935, 9.998988 
1.655085e+3, 2.246545e+2, -748995.2, -849611.3, -46963.508, -0.030969717, -0.04284886, -730481.2, 7900.6978, 0.0, 10.000364, 9.999037 
1.6550636e+3, 2.346536e+2, -756226.6, -801949.2, -47022.19, -0.020557856, -0.03656751, -726802.9, -86410.98, 0.0, 9.99964, 9.99904 
1.6550422e+3, 2.4465296e+2, -690421.9, -657691.3, -40880.16, -0.014286015, -0.02883759, -630022.44, -87624.08, 0.0, 9.999154, 9.999591 
1.6550209e+3, 2.5465262e+2, -621908.44, -570879.3, -40277.543, -0.013671947, -0.024697341, -548715.06, -104314.89, 0.0, 9.998939, 9.999617 
1.6549994e+3, 2.646521e+2, -609581.25, -499703.7, -46654.78, -0.0025022235, -0.041875023, -482566.56, -136161.98, 0.0, 9.998289, 9.999744 
1.6549781e+3, 2.7465135e+2, -676912.9, -481179.56, -48771.84, 0.021593822, -0.094385326, -469700.1, -221287.98, 0.0, 9.997153, 9.999746 
1.6549571e+3, 2.8465155e+2, -615275.4, -314238.38, -17578.313, 0.035638813, -0.082985304, -313215.4, -162805.55, 0.0, 9.9965315, 10.000519 
1.6549362e+3, 2.9465306e+2, -524959.3, -216733.78, -24508.717, 0.035915717, 0.012057072, -214797.13, -162402.83, 0.0, 9.996465, 10.000547 
1.6549152e+3, 3.0465296e+2, -557831.1, -214858.67, -33373.477, 0.04267142, -0.04615606, -211641.39, -211641.39, 0.0, 9.995937, 10.00048 
1.6548942e+3, 3.146529e+2, -590171.25, -51494.484, -61566.496, 0.028660702, -0.10251944, -44547.51, -44547.51, 0.0, 9.994943, 10.002081 
1.6652974e+3, 1.2469489e+2, -1056056.5, -1748526.9, -61444.637, -0.16017073, -0.022260293, -1050646.6, 667339.4, 0.03521578, 10.006255, 9.996757 
1.665279e+3, 1.346919e+2, -980909.7, -1618087.9, 79311.4, -0.033864826, -0.042178884, -971185.94, 648830.1, 0.022445045, 10.005827, 9.997185 
1.6652581e+3, 1.446893e+2, -946844.44, -1538373.3, 19347.14, -0.06560597, -0.022272218, -946212.3, 575829.44, 0.010950295, 10.005259, 9.99733 
1.6652365e+3, 1.546865e+2, -948926.25, -1488549.9, 21972.361, -0.08792425, -0.039486542, -948033.06, 476036.16, 0.003468384, 10.004529, 9.99735 
1.665215e+3, 1.6468407e+2, -899106.3, -1336718.0, 6958.3745, -0.096212156, -0.046720654, -898995.7, 427097.13, 0.0004968703, 10.003853, 9.998045 
1.665194e+3, 1.7468216e+2, -889167.75, -1279209.9, 3624.4045, -0.047231987, -0.045699377, -889134.06, 338977.25, 0.0000097975735, 10.003238, 9.998063 
1.6651724e+3, 1.8468042e+2, -850139.8, -1176783.5, -6371.7246, -0.026629841, -0.036447354, -850015.6, 280112.84, 0.0, 10.00269, 9.998358 
1.6651504e+3, 1.9467892e+2, -820388.56, -1111172.1, -3540.4255, -0.05296012, -0.024614658, -820345.44, 211798.19, 0.0, 10.00222, 9.998363 
1.6651285e+3, 2.0467752e+2, -775346.4, -971594.75, -5001.4404, -0.058206048, -0.026029583, -775218.94, 158938.13, 0.0, 10.001565, 9.998964 
1.665107e+3, 2.1467629e+2, -802214.7, -931657.56, -10611.837, -0.034277737, -0.049357552, -801350.5, 34817.7, 0.0, 10.000698, 9.998984 
1.6650853e+3, 2.2467527e+2, -777870.94, -851171.1, -19703.61, -0.023041787, -0.053671625, -772910.2, -34732.32, 0.0, 10.000114, 9.9991455 
1.6650632e+3, 2.3467453e+2, -717727.4, -770642.8, -12992.721, -0.027838098, -0.042985108, -714709.3, -74523.71, 0.0, 9.999851, 9.999152 
1.6650413e+3, 2.4467392e+2, -678612.2, -661803.25, -10121.1875, -0.023191486, -0.033570107, -657052.0, -114860.195, 0.0, 9.999279, 9.999501 
1.6650195e+3, 2.5467348e+2, -712820.8, -625676.1, -21164.074, -0.008088713, -0.029254138, -620808.1, -176612.48, 0.0, 9.9983635, 9.9995165 
1.6649975e+3, 2.6467296e+2, -661959.4, -508921.2, -28590.137, 0.0004897668, -0.04524895, -503754.5, -157554.58, 0.0, 9.997862, 9.9998865 
1.6649753e+3, 2.7467236e+2, -570494.7, -413626.56, -19935.465, 0.0028261386, -0.09799936, -411132.72, -162927.6, 0.0, 9.997815, 9.99989 
1.6649537e+3, 2.8467253e+2, -517074.0, -283797.44, 13284.9795, 0.021794867, -0.09169, -283043.3, -132840.02, 0.0, 9.99728, 10.000365 
1.6649327e+3, 2.946738e+2, -574592.2, -257408.67, -7265.534, 0.056998137, -0.003851348, -257242.33, -205051.56, 0.0, 9.996199, 10.000394 
1.6649109e+3, 3.0467388e+2, -629452.94, -247921.25, -9469.359, 0.04215863, -0.03483848, -247686.38, -247686.38, 0.0, 9.995442, 10.000489 
1.6648892e+3, 3.1467336e+2, -553030.5, -4260.9663, -7099.0107, 0.021924326, -0.13601878, -4169.1475, -4169.1475, 0.0, 9.995073, 10.002341 
1.6753043e+3, 1.2471679e+2, -1057576.5, -1748802.1, -84369.87, -0.102294095, -0.019101292, -1047427.44, 670343.25, 0.037349936, 10.006252, 9.996758 
1.6752842e+3, 1.3471334e+2, -985414.8, -1627169.3, 63746.906, -0.094527565, -0.07868216, -979143.94, 640660.75, 0.023890011, 10.005832, 9.997121 
1.6752629e+3, 1.4471075e+2, -944449.3, -1533512.1, -7684.398, -0.10686817, -0.0549615, -944349.06, 577480.9, 0.0117296865, 10.005261, 9.997363 
1.6752416e+3, 1.5470836e+2, -945649.6, -1482344.4, -4531.819, -0.03925298, -0.03534734, -945611.4, 478242.2, 0.0037604286, 10.004531, 9.997393 
1.6752195e+3, 1.6470599e+2, -907094.7, -1354176.6, -16326.433, -0.039352983, -0.034330677, -906499.25, 419377.56, 0.00055481406, 10.003856, 9.997925 
1.6751969e+3, 1.747037e+2, -897801.75, -1298616.8, -19006.625, -0.07455574, -0.05625937, -896902.5, 330996.7, 0.000011659806, 10.0032425, 9.997929 
1.6751745e+3, 1.8470189e+2, -846520.5, -1170202.5, -23930.617, -0.075577244, -0.051101483, -844760.8, 285156.5, 0.0, 10.002692, 9.998404 
1.6751526e+3, 1.947006e+2, -817139.56, -1104194.1, -20363.691, -0.05165005, -0.023590943, -815702.2, 216228.39, 0.0, 10.002216, 9.998413 
1.6751303e+3, 2.046992e+2, -785454.94, -992570.3, -37034.94, -0.042309463, -0.019589279, -779031.8, 154912.55, 0.0, 10.001563, 9.998822 
1.6751076e+3, 2.1469776e+2, -812463.4, -954128.7, -42416.023, -0.044016823, -0.047802623, -800734.6, 35223.453, 0.0, 10.000701, 9.99883 
1.6750853e+3, 2.2469676e+2, -763056.44, -821877.2, -29833.283, -0.03909305, -0.052200798, -750574.2, -12606.892, 0.0, 10.000119, 9.999346 
1.675063e+3, 2.3469628e+2, -702637.8, -740322.2, -21776.236, -0.029260376, -0.03750725, -692683.56, -52712.64, 0.0, 9.999853, 9.99936 
1.6750407e+3, 2.4469554e+2, -694218.56, -695078.94, -43289.043, -0.015217051, -0.038930647, -651357.56, -109379.3, 0.0, 9.99928, 9.999273 
1.6750179e+3, 2.546946e+2, -729559.1, -661592.9, -53943.44, 0.0038852415, -0.06137895, -631820.6, -187831.73, 0.0, 9.998365, 9.99927 
1.6749954e+3, 2.6469433e+2, -642040.56, -468643.5, -29849.625, 0.0054112445, -0.05460156, -463648.88, -117657.586, 0.0, 9.997865, 10.000163 
1.674973e+3, 2.746948e+2, -549005.0, -370590.6, -19692.174, -0.011855989, -0.030756183, -368442.97, -120458.03, 0.0, 9.99782, 10.000185 
1.6749509e+3, 2.8469464e+2, -538007.6, -328881.53, -25134.6, 0.005293076, -0.053774346, -325903.03, -175917.45, 0.0, 9.997284, 10.000055 
1.674929e+3, 2.9469416e+2, -596154.2, -303509.44, -46437.168, 0.05576788, -0.10823763, -296317.5, -244326.56, 0.0, 9.9962015, 10.000077 
1.6749062e+3, 3.0469495e+2, -597816.2, -183273.42, -23082.072, 0.023381772, -0.07715158, -181992.16, -181992.16, 0.0, 9.995444, 10.000934 
1.6748844e+3, 3.1469584e+2, -516999.44, 68858.78, -14112.727, 0.043641347, -0.082563624, 69198.55, 69198.55, 0.0, 9.99508, 10.002841 
1.6853106e+3, 1.2473891e+2, -1054652.5, -1741939.5, -69258.45, -0.10099535, -0.041710664, -1047742.75, 669810.06, 0.039587405, 10.006267, 9.996797 
1.6852897e+3, 1.3473554e+2, -994983.1, -1636947.1, 83665.29, -0.11250939, -0.08859356, -984258.44, 635327.56, 0.025417004, 10.0057955, 9.997071 
1.6852683e+3, 1.4473303e+2, -946723.2, -1528194.8, 4658.248, -0.094720595, -0.057930868, -946685.9, 574924.7, 0.012563965, 10.005222, 9.997417 
1.6852462e+3, 1.5473059e+2, -937806.3, -1472133.4, 7645.379, -0.032016024, -0.04771148, -937696.94, 485937.5, 0.004078321, 10.0045595, 9.997449 
1.6852234e+3, 1.6472821e+2, -898814.25, -1355250.0, 2583.0457, -0.03523753, -0.047783367, -898799.6, 426858.2, 0.00061949465, 10.003935, 9.997879 
1.6852002e+3, 1.7472595e+2, -887116.5, -1298752.6, 5667.5195, -0.07106315, -0.06341032, -887038.5, 340641.6, 0.00001399049, 10.00334, 9.997881 
1.6851772e+3, 1.847241e+2, -848010.56, -1168004.4, 2890.739, -0.07397458, -0.058403492, -847984.44, 281714.1, 0.0, 10.00267, 9.998428 
1.6851547e+3, 1.9472277e+2, -859069.6, -1121655.0, 3760.428, -0.05429162, -0.03678611, -859015.75, 172696.4, 0.0, 10.001917, 9.998438 
1.6851318e+3, 2.0472138e+2, -814830.0, -1014883.2, -9079.931, -0.044230215, -0.030996595, -814418.75, 119307.48, 0.0, 10.001398, 9.998749 
1.6851085e+3, 2.1471997e+2, -753644.94, -933859.56, -9746.733, -0.039730687, -0.048559815, -753119.3, 82620.81, 0.0, 10.0011425, 9.998755 
1.6850856e+3, 2.2471894e+2, -699771.44, -793146.56, -3768.988, -0.03260075, -0.050046578, -699619.56, 38130.08, 0.0, 10.000564, 9.999328 
1.6850628e+3, 2.3471838e+2, -737521.5, -759005.9, -13375.818, -0.024856362, -0.040961936, -731108.3, -91354.445, 0.0, 9.999624, 9.999341 
1.6850398e+3, 2.4471761e+2, -732584.75, -708659.3, -33599.61, -0.013657909, -0.0480113, -684956.4, -143194.73, 0.0, 9.998998, 9.999315 
1.6850165e+3, 2.5471663e+2, -676024.25, -631122.06, -24127.523, 0.0017430116, -0.07641991, -620615.75, -176843.25, 0.0, 9.998714, 9.999311 
1.6849934e+3, 2.647165e+2, -598507.1, -443935.44, 7289.6675, 0.0043134983, -0.06034607, -443592.44, -97818.68, 0.0, 9.998149, 10.000195 
1.6849706e+3, 2.7471724e+2, -626211.94, -404165.34, -3128.7039, -0.006029774, -0.009106027, -404121.28, -156356.78, 0.0, 9.997276, 10.000215 
1.6849479e+3, 2.8471702e+2, -619211.06, -364825.13, -13524.558, 0.010543394, -0.042275667, -364108.13, -214342.23, 0.0, 9.996716, 10.000082 
1.6849251e+3, 2.9471603e+2, -554180.2, -278663.16, -9847.014, 0.05276188, -0.15089346, -278311.66, -226535.4, 0.0, 9.996471, 10.000118 
1.6849014e+3, 3.0471742e+2, -539794.4, -131154.98, 14772.123, -0.0001850895, -0.07342405, -130621.68, -130621.68, 0.0, 9.99574, 10.001149 
1.6848794e+3, 3.147185e+2, -604653.8, 18989.361, 12146.029, 0.067090936, -0.07675415, 19225.826, 19225.826, 0.0, 9.994511, 10.002773 
1.6953164e+3, 1.2476125e+2, -1051628.9, -1733519.9, -89127.61, -0.14889768, -0.09036268, -1040171.75, 677160.56, 0.041927483, 10.00627, 9.996855 
1.6952957e+3, 1.3475846e+2, -997953.0, -1642088.9, 67087.36, -0.09262544, -0.07534445, -991040.0, 628320.44, 0.027027335, 10.005798, 9.997035 
1.6952741e+3, 1.4475606e+2, -943316.25, -1520490.8, -20340.555, -0.03683432, -0.035598855, -942600.3, 578783.9, 0.013456029, 10.005222, 9.997472 
1.6952504e+3, 1.5475318e+2, -933829.9, -1464406.4, -16755.904, -0.06609544, -0.074858606, -933301.25, 490110.7, 0.0044253534, 10.004561, 9.997502 
1.6952269e+3, 1.6475075e+2, -896307.06, -1351100.3, -19621.56, -0.08141299, -0.08417309, -895462.1, 429973.5, 0.00069218094, 10.003937, 9.997908 
1.695204e+3, 1.7474882e+2, -884368.3, -1294254.4, -15948.225, -0.039162144, -0.067821704, -883748.7, 343705.78, 0.000016975888, 10.003343, 9.997911 
1.6951804e+3, 1.8474704e+2, -847719.1, -1168612.4, -25071.303, -0.026793875, -0.05885619, -845772.1, 283700.25, 0.0, 10.002674, 9.998425 
1.6951564e+3, 1.9474545e+2, -858588.9, -1122662.0, -23993.713, -0.062092684, -0.06274959, -856426.5, 175062.05, 0.0, 10.001924, 9.998428 
1.695133e+3, 2.0474401e+2, -814819.1, -1016466.94, -18997.744, -0.0637656, -0.058723327, -813044.94, 120458.055, 0.0, 10.001403, 9.998736 
1.6951099e+3, 2.1474284e+2, -754490.0, -935686.9, -18577.896, -0.023209946, -0.0523186, -752604.8, 82909.97, 0.0, 10.001141, 9.998745 
1.6950864e+3, 2.2474176e+2, -716431.75, -827448.5, -38169.49, -0.006236331, -0.047887202, -704574.75, 32950.754, 0.0, 10.00056, 9.999095 
1.6950625e+3, 2.3474081e+2, -754578.4, -795042.1, -47358.184, -0.016366664, -0.05313094, -723311.5, -83776.84, 0.0, 9.999625, 9.999095 
1.6950387e+3, 2.4474005e+2, -711485.2, -665412.3, -43733.36, -0.01945678, -0.060447223, -639019.2, -97477.1, 0.0, 9.998999, 9.999613 
1.695015e+3, 2.5473955e+2, -653481.75, -585466.9, -33085.934, -0.014866029, -0.07393244, -572027.6, -128480.79, 0.0, 9.998717, 9.999624 
1.6949914e+3, 2.6473942e+2, -613640.1, -476586.53, -23887.355, -0.0033267697, -0.062103387, -472542.47, -126994.72, 0.0, 9.998152, 9.99997 
1.694968e+3, 2.747397e+2, -642704.1, -439792.88, -33976.453, 0.016418407, -0.032786064, -434254.84, -186710.48, 0.0, 9.99728, 9.9999695 
1.6949448e+3, 2.847396e+2, -593462.06, -312451.84, -21977.635, 0.0345076, -0.05698504, -310743.38, -161198.64, 0.0, 9.996718, 10.000442 
1.6949217e+3, 2.9473934e+2, -525844.8, -220280.17, -17047.06, 0.047320697, -0.1301732, -219332.1, -167785.02, 0.0, 9.996471, 10.00052 
1.694897e+3, 3.0474117e+2, -541760.0, -136870.47, -29878.594, -0.029857932, -0.026308319, -134677.47, -134677.47, 0.0, 9.995744, 10.001109 
1.694874e+3, 3.1474158e+2, -648300.0, -73510.87, -16813.56, 0.081891455, -0.09251785, -73019.46, -73019.46, 0.0, 9.994518, 10.002135 
1.7053227e+3, 1.2478454e+2, -1012619.06, -1702664.8, -67499.31, -0.14842215, -0.1046431, -1006078.4, 711024.9, 0.044376526, 10.006519, 9.996947 
1.7053014e+3, 1.3478185e+2, -993356.1, -1640191.5, 89957.78, -0.1095395, -0.078815654, -981078.44, 638052.06, 0.028724983, 10.005844, 9.997026 
1.7052794e+3, 1.447794e+2, -950447.56, -1523317.9, -1136.9009, -0.02189198, -0.04166274, -950445.3, 570709.1, 0.01440865, 10.005177, 9.997474 
1.705255e+3, 1.5477642e+2, -942377.44, -1468451.8, -1422.2374, -0.05854009, -0.09116754, -942373.56, 480809.28, 0.0048041902, 10.004504, 9.997501 
1.7052308e+3, 1.6477397e+2, -896363.56, -1340981.9, 361.00067, -0.079134814, -0.10640995, -896363.3, 428843.16, 0.00077416754, 10.003894, 9.997998 
1.7052071e+3, 1.7477216e+2, -874877.1, -1279705.5, 7200.2383, -0.039240647, -0.08966632, -874749.06, 352475.1, 0.000020835878, 10.003365, 9.998001 
1.7051831e+3, 1.847704e+2, -826152.06, -1164412.9, -3783.77, -0.024678068, -0.078346804, -826109.75, 303132.0, 0.0, 10.00285, 9.998368 
1.7051585e+3, 1.9476879e+2, -801624.7, -1101475.3, -7073.2905, -0.053784456, -0.07875493, -801457.94, 229800.64, 0.0, 10.002344, 9.99837 
1.7051345e+3, 2.0476738e+2, -775052.7, -994668.1, -396.52145, -0.053487543, -0.07000622, -775051.94, 158221.0, 0.0, 10.001667, 9.998757 
1.7051108e+3, 2.147663e+2, -803453.4, -957051.9, 1658.1863, -0.016148627, -0.056439426, -803435.44, 31848.58, 0.0, 10.000796, 9.998763 
1.7050868e+3, 2.2476517e+2, -778654.6, -865633.8, -13850.5, -0.0008804808, -0.052570283, -776502.3, -39206.973, 0.0, 10.000171, 9.99902 
1.7050622e+3, 2.3476407e+2, -732774.0, -793135.4, -12687.315, -0.011052389, -0.06626271, -730215.7, -90909.19, 0.0, 9.999814, 9.999016 
1.7050378e+3, 2.4476333e+2, -665308.4, -635138.1, -5996.1353, -0.015729824, -0.06875952, -633990.1, -92676.51, 0.0, 9.999283, 9.999683 
1.7050135e+3, 2.5476307e+2, -672284.94, -585904.7, -13689.88, -0.014188706, -0.06466421, -583786.94, -140471.31, 0.0, 9.998554, 9.999698 
1.7049894e+3, 2.647629e+2, -649662.8, -494072.5, -13214.513, -0.004576061, -0.06050211, -492958.16, -147641.4, 0.0, 9.997909, 9.999967 
1.7049654e+3, 2.7476284e+2, -634687.0, -436928.7, -7235.5547, 0.014752278, -0.06433482, -436664.3, -189347.67, 0.0, 9.997341, 9.999959 
1.7049415e+3, 2.8476286e+2, -590206.6, -308614.3, 12036.326, 0.038909543, -0.07944489, -308100.78, -158784.5, 0.0, 9.996733, 10.00046 
1.704918e+3, 2.9476306e+2, -577016.9, -241405.75, -10751.215, 0.06603935, -0.10705443, -241061.69, -189747.34, 0.0, 9.996107, 10.000549 
1.7048925e+3, 3.0476487e+2, -551298.4, -109440.39, -43579.484, -0.02584296, -0.021518556, -105183.26, -105183.26, 0.0, 9.995543, 10.001394 
1.7048687e+3, 3.1476536e+2, -597546.75, -77558.92, 14213.071, 0.069186434, -0.1069657, -77170.72, -77170.72, 0.0, 9.994993, 10.001877 
1.7153296e+3, 1.2480867e+2, -1006104.5, -1687407.8, -90771.85, -0.10696344, -0.09233384, -994218.1, 722648.3, 0.04694064, 10.006526, 9.997056 
1.7153066e+3, 1.3480571e+2, -993117.25, -1638942.8, 65877.94, -0.16250807, -0.09448848, -986465.8, 632430.25, 0.030514274, 10.00585, 9.997033 
1.7152843e+3, 1.4480312e+2, -953501.8, -1530331.3, -26200.672, -0.047891412, -0.07003017, -952314.2, 568606.94, 0.015424435, 10.005182, 9.997424 
1.7152599e+3, 1.548003e+2, -944336.94, -1475270.4, -25700.771, -0.013670844, -0.099346295, -943095.75, 479851.94, 0.0052168, 10.004517, 9.99745 
1.715235e+3, 1.6479786e+2, -885235.7, -1320738.4, -19436.857, -0.034276582, -0.11708792, -884369.94, 440600.72, 0.0008666131, 10.003903, 9.998134 
1.7152102e+3, 1.747959e+2, -864777.2, -1259864.8, -12278.623, -0.07115843, -0.1268077, -864396.0, 362593.28, 0.000025809924, 10.003367, 9.998137 
1.7151855e+3, 1.8479417e+2, -834065.75, -1180852.3, -22952.754, -0.06629251, -0.11462083, -832553.2, 296453.53, 0.0, 10.002847, 9.998258 
1.7151612e+3, 1.9479272e+2, -809925.6, -1118512.1, -25487.06, -0.030943979, -0.08622047, -807834.75, 223187.77, 0.0, 10.002341, 9.998256 
1.7151365e+3, 2.0479141e+2, -771798.7, -987708.2, -32426.082, -0.016568555, -0.06610172, -767033.94, 166002.6, 0.0, 10.001664, 9.998808 
1.7151116e+3, 2.1479028e+2, -799982.7, -950534.1, -30187.502, -0.019577628, -0.060592405, -794155.25, 40892.816, 0.0, 10.000797, 9.998809 
1.7150868e+3, 2.2478916e+2, -774118.06, -857034.8, -27269.887, -0.0166909, -0.06339703, -765953.44, -28893.947, 0.0, 10.000172, 9.999079 
1.715062e+3, 2.3478808e+2, -727912.6, -783993.56, -25008.236, -0.009438666, -0.08048236, -718380.75, -79310.734, 0.0, 9.999816, 9.999079 
1.7150372e+3, 2.4478738e+2, -676201.2, -657946.94, -32160.35, -0.004039257, -0.07358557, -633643.6, -92566.695, 0.0, 9.999282, 9.999528 
1.7150123e+3, 2.5478718e+2, -683709.2, -610338.44, -39268.543, 0.0005489542, -0.04819795, -593285.25, -150205.84, 0.0, 9.998556, 9.999531 
1.7149873e+3, 2.6478693e+2, -634676.56, -464393.16, -33486.074, -0.0015830509, -0.05585457, -458044.8, -112963.54, 0.0, 9.997912, 10.00017 
1.7149624e+3, 2.7478662e+2, -619327.7, -405784.0, -27205.008, -0.011987263, -0.10368788, -402372.66, -155290.8, 0.0, 9.997342, 10.000174 
1.7149381e+3, 2.8478664e+2, -614054.25, -358278.1, -10569.15, 0.02242841, -0.10952221, -357842.1, -208761.0, 0.0, 9.996733, 10.00012 
1.7149146e+3, 2.947871e+2, -601734.9, -293905.4, -31567.13, 0.1056634, -0.07925039, -290701.63, -239622.9, 0.0, 9.996111, 10.000188 
1.7148884e+3, 3.0478835e+2, -508456.94, -23751.97, -63940.1, 0.008550818, -0.059382975, -15459.161, -15459.161, 0.0, 9.995553, 10.00198 
1.7148632e+3, 3.1478977e+2, -582575.4, -49226.176, 19876.418, 0.018185254, -0.11212663, -48486.465, -48486.465, 0.0, 9.995003, 10.002068 
1.7253366e+3, 1.2483355e+2, -982285.0, -1688790.1, -52775.453, -0.077284604, -0.09549558, -978364.44, 738257.1, 0.049625326, 10.006778, 9.996923 
1.7253125e+3, 1.3483043e+2, -994596.8, -1664780.5, 85150.15, -0.17240307, -0.08986112, -983947.3, 634706.1, 0.032398205, 10.0059595, 9.996802 
1.7252897e+3, 1.4482763e+2, -929927.1, -1508038.6, -2016.6387, -0.03680005, -0.0795952, -929920.1, 590760.4, 0.016504591, 10.005307, 9.997518 
1.7252646e+3, 1.5482478e+2, -885061.1, -1435712.0, 8275.529, -0.0050723045, -0.12073336, -884936.75, 537769.25, 0.005664205, 10.004883, 9.997544 
1.7252392e+3, 1.6482234e+2, -846094.75, -1316676.5, 4338.2075, -0.028148215, -0.13688427, -846054.75, 478674.2, 0.00097062945, 10.00424, 9.997999 
1.7252135e+3, 1.7482038e+2, -878511.4, -1282072.6, -8796.078, -0.0671478, -0.13325469, -878319.7, 348428.84, 0.000032150627, 10.003343, 9.997995 
1.7251883e+3, 1.8481863e+2, -864224.1, -1186035.6, -15803.576, -0.060664754, -0.120738015, -863449.94, 265316.6, 0.0, 10.002602, 9.998339 
1.7251635e+3, 1.9481716e+2, -848963.8, -1128142.3, -5036.062, -0.020445049, -0.102924325, -848873.0, 181908.9, 0.0, 10.002034, 9.998338 
1.7251381e+3, 2.0481583e+2, -798197.06, -1005638.3, -13232.771, -0.004817892, -0.083056614, -797356.3, 135439.47, 0.0, 10.001507, 9.99876 
1.7251125e+3, 2.1481475e+2, -770923.8, -941878.6, -19639.326, -0.010544379, -0.068269745, -768696.7, 66110.89, 0.0, 10.001022, 9.998758 
1.7250872e+3, 2.2481366e+2, -726152.2, -822061.06, -12687.181, -0.013631877, -0.06914162, -724502.3, 12316.375, 0.0, 10.000453, 9.999182 
1.7250618e+3, 2.3481265e+2, -725431.06, -770343.1, -7601.1445, -0.016058953, -0.09034573, -724179.44, -85351.34, 0.0, 9.999783, 9.9991865 
1.7250362e+3, 2.4481203e+2, -698435.25, -670771.5, -13840.181, -0.011791768, -0.08126326, -665036.3, -124202.016, 0.0, 9.999142, 9.999505 
1.7250107e+3, 2.5481188e+2, -689075.2, -616037.44, -12256.304, 0.00120025, -0.049279004, -614035.56, -171198.92, 0.0, 9.998535, 9.9995 
1.7249852e+3, 2.648115e+2, -625915.3, -463345.38, -4734.8647, 0.0014274069, -0.063294016, -463207.56, -118367.89, 0.0, 9.997989, 10.000139 
1.7249598e+3, 2.74811e+2, -597893.06, -398465.63, -17914.256, -0.014205749, -0.12657972, -396869.2, -150026.97, 0.0, 9.997505, 10.000144 
1.7249349e+3, 2.848112e+2, -584693.7, -335332.9, 113.858215, 0.014663374, -0.11972991, -335332.88, -186493.08, 0.0, 9.9969, 10.0001955 
1.7249106e+3, 2.9481202e+2, -590070.0, -282387.16, 11210.052, 0.09652273, -0.060141247, -281979.25, -231146.1, 0.0, 9.996168, 10.000238 
1.724884e+3, 3.048124e+2, -533924.4, -49285.246, -32846.94, 0.022894388, -0.12077943, -47069.14, -47069.14, 0.0, 9.995437, 10.001861 
1.7248578e+3, 3.1481445e+2, -637578.4, -82874.45, 20635.844, 0.01700326, -0.09861171, -82107.83, -82107.83, 0.0, 9.994658, 10.002002 
1.7353433e+3, 1.2485919e+2, -1009833.1, -1742272.8, -80266.53, -0.063768856, -0.10882841, -1001140.06, 715228.7, 0.052441813, 10.006772, 9.996553 
1.7353186e+3, 1.3485596e+2, -1024461.44, -1728772.5, 55298.91, -0.14488465, -0.06988856, -1020146.1, 598257.3, 0.03438017, 10.00597, 9.996358 
1.7352954e+3, 1.4485288e+2, -914350.5, -1477502.3, -18125.545, 0.005791984, -0.075376466, -913767.7, 606665.3, 0.017648729, 10.005318, 9.997728 
1.7352693e+3, 1.5484989e+2, -869323.3, -1403790.4, -6987.5366, -0.03198701, -0.15178894, -869231.94, 553226.0, 0.00614607, 10.004886, 9.997764 
1.735243e+3, 1.6484743e+2, -873076.56, -1373366.8, -29097.93, -0.059819836, -0.16185397, -871389.9, 453091.28, 0.0010868844, 10.004241, 9.99761 
1.7352171e+3, 1.7484552e+2, -905093.4, -1339865.1, -41626.797, -0.030495407, -0.11237917, -901143.75, 325358.75, 0.00004011653, 10.003352, 9.997596 
1.7351913e+3, 1.8484369e+2, -845030.6, -1148849.3, -36448.223, -0.012680934, -0.09981866, -840719.2, 287802.22, 0.0, 10.00261, 9.998591 
1.7351654e+3, 1.9484201e+2, -829713.06, -1089997.3, -25280.01, -0.023257658, -0.12832355, -827280.5, 203256.45, 0.0, 10.00204, 9.998598 
1.7351395e+3, 2.0484065e+2, -808812.1, -1028515.2, -31352.695, -0.018249968, -0.1194341, -804425.5, 128125.38, 0.0, 10.001508, 9.998604 
1.7351137e+3, 2.1483967e+2, -782095.5, -965799.3, -36902.887, 0.009456318, -0.07990199, -774959.56, 59603.35, 0.0, 10.001023, 9.998594 
1.7350878e+3, 2.2483866e+2, -715780.56, -800447.25, -36989.477, 0.005919367, -0.07032555, -701897.06, 34676.26, 0.0, 10.00045, 9.999332 
1.7350613e+3, 2.3483776e+2, -715336.5, -749174.9, -31428.38, -0.032743912, -0.09550726, -696562.5, -57981.4, 0.0, 9.99978, 9.999334 
1.7350352e+3, 2.4483721e+2, -692088.7, -657596.7, -35915.156, -0.040156607, -0.091519415, -635001.5, -94415.38, 0.0, 9.99914, 9.999598 
1.7350091e+3, 2.5483707e+2, -682297.4, -602597.3, -33600.484, -0.0128926635, -0.06811325, -590322.3, -147734.33, 0.0, 9.998536, 9.999594 
1.7349833e+3, 2.6483658e+2, -645287.75, -504186.66, -21803.295, 0.003288555, -0.082774594, -500894.38, -156301.78, 0.0, 9.99799, 9.99986 
1.7349574e+3, 2.7483597e+2, -616897.44, -440262.66, -34539.3, 0.004123215, -0.13077547, -433749.03, -187150.75, 0.0, 9.997514, 9.999854 
1.7349316e+3, 2.8483638e+2, -547607.94, -261833.94, -26538.041, 0.011572605, -0.10963472, -259390.42, -110797.45, 0.0, 9.996911, 10.000696 
1.734906e+3, 2.9483768e+2, -556790.8, -214954.67, -13685.927, 0.03553382, -0.053275812, -214407.61, -163828.98, 0.0, 9.996172, 10.000701 
1.7348795e+3, 3.04837e+2, -595584.9, -176970.14, -61775.69, 0.014528916, -0.20295256, -168044.13, -168044.13, 0.0, 9.995434, 10.000985 
1.7348531e+3, 3.14839e+2, -660540.25, -130220.055, 14805.313, 0.058499414, -0.094966464, -129807.05, -129807.05, 0.0, 9.994658, 10.0016775 
1.7453504e+3, 1.24885425e+2, -987005.2, -1730903.3, -72803.836, -0.057967972, -0.10020999, -979947.0, 736164.06, 0.055401865, 10.006963, 9.996537 
1.7453249e+3, 1.3488182e+2, -983981.1, -1716349.9, 81239.37, -0.12955685, -0.090142205, -975077.7, 643070.75, 0.03646279, 10.006307, 9.996281 
1.7453012e+3, 1.4487849e+2, -883298.4, -1472295.6, 15285.341, 0.04138111, -0.1112758, -882902.0, 637278.44, 0.018855356, 10.005589, 9.997633 
1.7452739e+3, 1.5487574e+2, -884789.7, -1421843.5, 4130.5146, -0.043064598, -0.15360674, -884757.9, 537445.9, 0.006660887, 10.00483, 9.997665 
1.7452471e+3, 1.6487332e+2, -879156.3, -1377771.3, -18900.043, -0.08089886, -0.15388025, -878440.94, 445786.0, 0.0012152586, 10.004208, 9.997595 
1.7452209e+3, 1.7487125e+2, -851083.9, -1315618.8, -5541.5615, -0.022161225, -0.1198521, -851017.75, 375232.06, 0.000049896134, 10.003733, 9.997578 
1.7451943e+3, 1.8486936e+2, -777406.3, -1117540.6, 3287.231, 0.0031944988, -0.10936877, -777374.56, 350894.56, 0.0000000000000006446772, 10.003083, 9.998578 
1.7451675e+3, 1.9486779e+2, -800857.25, -1077648.3, -6297.5435, -0.02451635, -0.12706096, -800714.0, 229569.63, 0.0, 10.002248, 9.998581 
1.745141e+3, 2.0486636e+2, -802784.44, -1026512.6, -9967.924, -0.02587504, -0.12218035, -802341.2, 129956.83, 0.0, 10.001556, 9.998592 
1.7451148e+3, 2.1486518e+2, -784376.1, -968086.9, -5205.8438, 0.0067980965, -0.100376874, -784228.7, 50083.02, 0.0, 10.001015, 9.998582 
1.7450881e+3, 2.2486418e+2, -729130.06, -804590.4, -12753.013, 0.0077047558, -0.091103666, -727033.0, 9289.224, 0.0, 10.000351, 9.999351 
1.745061e+3, 2.3486346e+2, -746051.25, -761927.3, -18597.432, -0.02755321, -0.0992773, -733768.56, -95440.01, 0.0, 9.999562, 9.999351 
1.7450342e+3, 2.4486297e+2, -719707.4, -660157.44, -21731.45, -0.03829841, -0.094694205, -653070.44, -112737.66, 0.0, 9.998906, 9.999692 
1.7450075e+3, 2.5486273e+2, -697852.6, -599027.75, -19894.31, -0.02059691, -0.087697975, -595173.2, -152838.5, 0.0, 9.998384, 9.999689 
1.7449811e+3, 2.6486227e+2, -674455.7, -521176.28, 1778.0264, 0.0023755971, -0.10514922, -521155.66, -176816.36, 0.0, 9.997806, 9.999829 
1.7449549e+3, 2.7486172e+2, -670227.7, -469393.22, 7489.297, 0.025380122, -0.14156464, -469114.34, -222769.39, 0.0, 9.997166, 9.99982 
1.7449284e+3, 2.848623e+2, -590407.9, -264656.03, 7580.804, 0.017738406, -0.11187783, -264479.7, -116141.31, 0.0, 9.996543, 10.000854 
1.7449015e+3, 2.9486376e+2, -587036.9, -217634.27, -7681.3735, -0.0073775304, -0.050904978, -217474.61, -167153.06, 0.0, 9.995916, 10.000805 
1.7448749e+3, 3.0486265e+2, -634799.94, -235791.75, -46872.563, 0.031872243, -0.23013605, -230359.45, -230359.45, 0.0, 9.995338, 10.0006275 
1.7448477e+3, 3.1486443e+2, -607552.75, -59876.293, 81399.3, 0.07350449, -0.11654057, -48034.246, -48034.246, 0.0, 9.99483, 10.002077 
1.7553572e+3, 1.2491221e+2, -970593.75, -1691584.6, -90757.24, -0.06299608, -0.07598255, -959344.9, 756503.7, 0.058504287, 10.006964, 9.996816 
1.7553312e+3, 1.3490808e+2, -968044.5, -1680338.9, 56999.574, -0.12733273, -0.14343993, -963512.06, 654376.2, 0.038643576, 10.0063095, 9.996527 
1.7553069e+3, 1.4490454e+2, -910454.94, -1527880.0, -13299.365, 0.06771041, -0.17867568, -910168.6, 609753.75, 0.020121697, 10.0055895, 9.997246 
1.7552789e+3, 1.549023e+2, -911896.25, -1479385.6, -23121.87, -0.04072411, -0.13043837, -910955.7, 510988.1, 0.007206541, 10.004835, 9.997269 
1.7552511e+3, 1.6489996e+2, -856430.44, -1331559.4, -36106.87, -0.09354275, -0.11825159, -853702.2, 470264.5, 0.0013550182, 10.0042095, 9.997912 
1.7552243e+3, 1.7489752e+2, -827741.9, -1268060.1, -22546.705, -0.041985646, -0.15309617, -826590.4, 399400.6, 0.000061482955, 10.003734, 9.997905 
1.7551972e+3, 1.8489565e+2, -796623.25, -1157691.8, -27609.084, -0.01337598, -0.14593755, -794524.3, 333485.6, 0.0000000010737394, 10.003082, 9.998304 
1.7551696e+3, 1.948944e+2, -820337.44, -1119385.1, -36634.457, -0.024761982, -0.10088694, -815915.0, 214107.61, 0.0, 10.002251, 9.998294 
1.7551425e+3, 2.0489293e+2, -793978.6, -1008904.56, -29650.719, -0.0289314, -0.09325871, -789963.1, 142074.55, 0.0, 10.001557, 9.998714 
1.7551155e+3, 2.1489128e+2, -776029.3, -950512.2, -24252.373, -0.019175703, -0.12949434, -772721.06, 61333.35, 0.0, 10.001011, 9.998706 
1.7550883e+3, 2.2489019e+2, -738230.8, -823084.75, -41678.508, -0.009340388, -0.13090248, -721183.9, 14881.973, 0.0, 10.000347, 9.999227 
1.7550609e+3, 2.348897e+2, -754751.2, -780926.06, -46950.824, -0.0018633858, -0.102371275, -719097.9, -81026.81, 0.0, 9.999564, 9.999221 
1.7550333e+3, 2.4488924e+2, -713102.56, -647074.5, -40667.4, -0.008176398, -0.091503106, -627707.56, -87632.54, 0.0, 9.998907, 9.999783 
1.7550059e+3, 2.548889e+2, -690816.44, -585664.2, -37994.824, -0.025184883, -0.10714144, -573372.3, -131295.05, 0.0, 9.998387, 9.999781 
1.7549789e+3, 2.6488853e+2, -658500.1, -489664.22, -21277.66, -0.0041481983, -0.13002843, -487024.0, -142943.67, 0.0, 9.99781, 10.000044 
1.7549522e+3, 2.7488828e+2, -654962.2, -438388.75, -14555.237, 0.04920861, -0.15943512, -437414.9, -191332.06, 0.0, 9.997167, 10.000033 
1.7549251e+3, 2.8488886e+2, -605018.8, -295330.16, -15007.789, 0.032727912, -0.12718295, -294604.56, -146527.75, 0.0, 9.996543, 10.000644 
1.7548972e+3, 2.9489025e+2, -604200.1, -256716.34, -30630.85, -0.036912844, -0.053954434, -254036.88, -203973.9, 0.0, 9.99593, 10.000531 
1.7548706e+3, 3.048894e+2, -618641.56, -206069.48, -65003.84, 0.06916382, -0.19531856, -196070.0, -196070.0, 0.0, 9.995353, 10.000826 
1.7548425e+3, 3.148908e+2, -538086.56, 84573.484, 65452.06, 0.061243422, -0.14861797, 91379.21, 91379.21, 0.0, 9.994827, 10.003072 
1.7653644e+3, 1.24939136e+2, -950380.25, -1670959.5, -63400.586, -0.03767356, -0.09981055, -944844.44, 770739.25, 0.061736837, 10.00709, 9.996904 
1.7653374e+3, 1.3493523e+2, -949716.0, -1661078.5, 64301.87, -0.14152195, -0.15281698, -943950.3, 673670.3, 0.040915806, 10.006413, 9.996609 
1.7653126e+3, 1.4493163e+2, -900513.0, -1528910.3, -2257.0913, 0.07163, -0.19587743, -900504.94, 619150.56, 0.021443395, 10.005695, 9.997187 
1.7652836e+3, 1.5492938e+2, -893674.3, -1477368.9, 11153.393, -0.030888364, -0.14135084, -893461.25, 528216.44, 0.007780004, 10.004996, 9.997204 
1.7652553e+3, 1.6492707e+2, -838918.2, -1314076.9, 7024.3105, -0.08618493, -0.1261243, -838814.4, 484885.94, 0.0015049565, 10.004296, 9.997989 
1.7652279e+3, 1.749247e+2, -843548.25, -1266826.8, 1612.2428, -0.04704564, -0.16225576, -843542.1, 382181.28, 0.00007462167, 10.003591, 9.99798 
1.7652e+3, 1.8492277e+2, -825174.1, -1185048.4, -11271.091, -0.020947509, -0.15628861, -824821.44, 302921.28, 0.000000009428086, 10.002947, 9.99818 
1.765172e+3, 1.949214e+2, -812382.0, -1129728.0, -10145.374, -0.024701925, -0.11082349, -812058.0, 217699.45, 0.0, 10.002368, 9.998166 
1.7651439e+3, 2.049199e+2, -780421.56, -997043.1, -739.15967, -0.029079663, -0.101103045, -780419.06, 151353.75, 0.0, 10.001629, 9.99876 
1.7651162e+3, 2.1491833e+2, -815111.6, -963554.3, -2309.0684, -0.02829413, -0.13431829, -815075.7, 18712.463, 0.0, 10.000721, 9.9987545 
1.7650883e+3, 2.2491722e+2, -786203.6, -853335.06, -15543.2295, -0.018205168, -0.1352899, -782779.5, -46979.832, 0.0, 10.000051, 9.999161 
1.7650603e+3, 2.3491664e+2, -751418.25, -786890.7, -16928.35, -0.0010274958, -0.1088326, -744636.25, -106829.92, 0.0, 9.999621, 9.99915 
1.7650324e+3, 2.4491613e+2, -693347.06, -634829.6, -11828.391, -0.0030240114, -0.10253378, -632529.1, -92717.914, 0.0, 9.999032, 9.9998045 
1.7650041e+3, 2.549157e+2, -704525.75, -589617.1, -15454.708, -0.021616403, -0.12322825, -587574.8, -145761.45, 0.0, 9.998284, 9.999803 
1.7649765e+3, 2.649155e+2, -686431.3, -490100.75, -6736.281, -0.0006802892, -0.13763805, -489869.9, -146055.27, 0.0, 9.997563, 10.000159 
1.7649494e+3, 2.7491552e+2, -690068.75, -441943.44, -8133.7446, 0.053965732, -0.15064527, -441677.1, -195862.8, 0.0, 9.99687, 10.000151 
1.7649214e+3, 2.8491598e+2, -646937.7, -320011.1, -1270.9982, 0.027683245, -0.1368036, -320006.16, -172196.25, 0.0, 9.996277, 10.000601 
1.7648928e+3, 2.9491693e+2, -632482.56, -278593.47, -5005.46, -0.059510503, -0.101868376, -278522.7, -228721.78, 0.0, 9.995773, 10.000455 
1.7648663e+3, 3.049168e+2, -633556.56, -197937.22, -32821.62, 0.11817417, -0.1714837, -195478.16, -195478.16, 0.0, 9.995187, 10.000959 
1.7648369e+3, 3.149176e+2, -555747.1, 125218.65, 69965.99, 0.043529816, -0.20474935, 132333.0, 132333.0, 0.0, 9.994498, 10.003507 
1.7753719e+3, 1.24966316e+2, -960090.25, -1686044.1, -79203.17, 0.0074580093, -0.15993372, -951549.5, 763765.9, 0.06509402, 10.007091, 9.996796 
1.7753436e+3, 1.349632e+2, -956278.5, -1673195.0, 40372.32, -0.1727824, -0.12457306, -954012.1, 663333.9, 0.043276228, 10.006418, 9.996523 
1.775318e+3, 1.4495964e+2, -885108.8, -1495805.6, -28596.053, 0.05342644, -0.17067383, -883772.75, 635607.7, 0.022817332, 10.005696, 9.997418 
1.7752889e+3, 1.5495697e+2, -876626.44, -1443329.1, -14254.734, -0.01634646, -0.18251172, -876268.1, 545137.4, 0.008378489, 10.005004, 9.997435 
1.7752598e+3, 1.6495465e+2, -849225.0, -1337277.6, -19438.459, -0.063638106, -0.17163767, -848452.0, 474975.9, 0.0016638462, 10.004302, 9.997828 
1.7752315e+3, 1.7495269e+2, -854992.9, -1291335.0, -24104.037, -0.039139938, -0.1494185, -853665.4, 371782.25, 0.00008895454, 10.003592, 9.997813 
1.775203e+3, 1.8495068e+2, -825056.2, -1184525.1, -32489.684, -0.021058759, -0.14307733, -822143.3, 305324.84, 0.000000028818846, 10.002943, 9.998187 
1.7751743e+3, 1.9494876e+2, -811625.6, -1128471.0, -30886.297, -0.026115082, -0.15526098, -808642.94, 220845.5, 0.0, 10.002367, 9.998177 
1.7751457e+3, 2.0494725e+2, -782895.4, -1002725.8, -34200.242, -0.028844394, -0.14378902, -777697.56, 153806.27, 0.0, 10.001629, 9.998722 
1.7751169e+3, 2.1494626e+2, -817100.5, -969444.5, -35287.53, -0.022628104, -0.11622838, -809323.8, 24189.926, 0.0, 10.000726, 9.9987135 
1.7750883e+3, 2.2494523e+2, -786345.56, -854909.8, -31055.973, -0.02052304, -0.10553039, -774370.4, -38846.027, 0.0, 10.000053, 9.999149 
1.7750597e+3, 2.3494425e+2, -752047.1, -788932.75, -31702.87, -0.025812073, -0.118164346, -733812.9, -96277.945, 0.0, 9.999621, 9.999138 
1.7750311e+3, 2.4494354e+2, -697093.94, -643053.3, -38884.41, -0.023916448, -0.12798283, -622722.9, -83181.14, 0.0, 9.999032, 9.999749 
1.7750025e+3, 2.549432e+2, -708269.9, -598755.06, -42024.176, -0.010813153, -0.13781138, -584487.8, -142944.16, 0.0, 9.998287, 9.99974 
1.7749742e+3, 2.6494318e+2, -685466.56, -489436.7, -31888.252, 0.011382901, -0.12864526, -484379.84, -140836.83, 0.0, 9.997567, 10.000163 
1.7749459e+3, 2.749435e+2, -687994.4, -439972.25, -32546.322, 0.03369256, -0.11299765, -435772.5, -190232.8, 0.0, 9.996877, 10.000162 
1.7749174e+3, 2.849436e+2, -636513.0, -300412.16, -19549.893, -0.0027136654, -0.14054954, -299278.84, -151740.58, 0.0, 9.996284, 10.000733 
1.7748885e+3, 2.9494375e+2, -622996.56, -260358.75, -22806.395, -0.072954535, -0.1982496, -258930.08, -209393.86, 0.0, 9.995777, 10.00058 
1.7748621e+3, 3.049448e+2, -627248.7, -185120.73, -55835.75, 0.17944825, -0.16266511, -178178.33, -178178.33, 0.0, 9.995186, 10.001049 
1.7748313e+3, 3.1494594e+2, -571959.5, 90280.6, 8687.336, 0.032398567, -0.1700244, 90394.55, 90394.55, 0.0, 9.994501, 10.003266 
1.7853792e+3, 1.2499467e+2, -923934.6, -1686044.9, -31557.283, 0.0153157925, -0.2009344, -922630.1, 792404.94, 0.06858324, 10.007467, 9.9966135 
1.7853498e+3, 1.3499178e+2, -949675.6, -1685512.8, 74182.914, -0.18208854, -0.12862007, -942271.44, 674793.44, 0.0457271, 10.006552, 9.996375 
1.7853239e+3, 1.4498815e+2, -878230.56, -1491229.4, 1957.8999, 0.06336928, -0.1734549, -878224.3, 640876.06, 0.024243942, 10.005752, 9.997421 
1.785294e+3, 1.5498537e+2, -855871.5, -1432887.5, 390.82626, -0.013653752, -0.19591464, -855871.2, 565255.06, 0.009001825, 10.005153, 9.997433 
1.7852642e+3, 1.64983e+2, -834735.0, -1336069.0, -14624.244, -0.06394867, -0.18574215, -834308.75, 488840.16, 0.0018313034, 10.004431, 9.997773 
1.785235e+3, 1.7498107e+2, -861708.6, -1300737.3, -12667.161, -0.037322972, -0.15442386, -861343.44, 363824.88, 0.000104261824, 10.003574, 9.997755 
1.7852059e+3, 1.8497902e+2, -848330.44, -1201565.0, -12929.915, -0.019383946, -0.14768611, -847857.75, 279331.75, 0.0000000562377, 10.002811, 9.998132 
1.7851765e+3, 1.9497694e+2, -847704.56, -1151551.4, -17063.346, -0.028336609, -0.16795684, -846749.3, 182462.08, 0.0, 10.002148, 9.998121 
1.785147e+3, 2.0497543e+2, -789216.5, -998675.56, -22490.174, -0.0333569, -0.15914288, -786828.94, 144398.05, 0.0, 10.001557, 9.998783 
1.7851177e+3, 2.1497452e+2, -767624.7, -939069.25, -17096.389, -0.027667563, -0.12799902, -765936.44, 67299.125, 0.0, 10.001039, 9.99877 
1.7850883e+3, 2.2497357e+2, -745363.6, -835145.4, -6977.686, -0.024464667, -0.11265229, -744824.56, -9579.1455, 0.0, 10.000337, 9.999148 
1.7850593e+3, 2.3497263e+2, -777637.06, -800801.1, -8087.184, -0.027133308, -0.120949544, -775093.0, -137837.11, 0.0, 9.999447, 9.99914 
1.7850299e+3, 2.4497187e+2, -738794.7, -661092.94, -11232.938, -0.025485262, -0.13482752, -659501.6, -120238.57, 0.0, 9.998738, 9.999767 
1.7850006e+3, 2.5497144e+2, -719788.06, -603105.94, -9464.643, -0.01439825, -0.15556575, -602343.2, -161077.45, 0.0, 9.998203, 9.999749 
1.7849717e+3, 2.6497144e+2, -681022.9, -494081.94, 1198.9766, 0.010275683, -0.14234181, -494074.25, -150809.16, 0.0, 9.997627, 10.000102 
1.7849429e+3, 2.7497184e+2, -671451.1, -438792.5, -5224.269, 0.03773206, -0.11183691, -438675.25, -193413.95, 0.0, 9.997021, 10.0001 
1.7849134e+3, 2.8497183e+2, -639162.94, -290178.56, -384.19113, -0.0042010774, -0.15108788, -290178.16, -142917.45, 0.0, 9.996217, 10.000835 
1.7848837e+3, 2.9497182e+2, -697559.8, -280813.75, -7424.5903, -0.08594451, -0.23422875, -280681.53, -231421.95, 0.0, 9.9952, 10.000717 
1.7848572e+3, 3.049734e+2, -683003.06, -207149.98, -20379.48, 0.1997465, -0.16001706, -206278.78, -206278.78, 0.0, 9.994783, 10.001091 
1.784826e+3, 3.1497428e+2, -549545.8, 43381.11, -11914.957, 0.033933733, -0.18860792, 43620.445, 43620.445, 0.0, 9.994907, 10.002746 
1.7953864e+3, 1.250241e+2, -944197.25, -1721977.9, -53592.99, -0.016385322, -0.22622778, -940521.8, 774222.06, 0.072213024, 10.0074625, 9.996357 
1.7953564e+3, 1.3502093e+2, -962843.3, -1713938.3, 40642.188, -0.1724143, -0.16096367, -960650.5, 656126.75, 0.048272654, 10.006565, 9.996173 
1.7953299e+3, 1.4501715e+2, -892483.56, -1521896.1, -21026.063, 0.09677229, -0.20005235, -891781.94, 627033.2, 0.025727246, 10.005761, 9.997203 
1.7952989e+3, 1.5501453e+2, -872082.94, -1465666.5, -20439.838, -0.023679744, -0.18434511, -871379.94, 549460.3, 0.009653613, 10.005149, 9.9972105 
1.7952684e+3, 1.6501209e+2, -833324.25, -1332427.3, -45866.777, -0.08672445, -0.17164017, -829144.2, 493719.5, 0.002008447, 10.004425, 9.997803 
1.7952386e+3, 1.7500985e+2, -857650.75, -1295360.1, -43892.223, -0.042669702, -0.17630549, -853292.75, 371592.94, 0.00012057824, 10.003586, 9.997788 
1.7952086e+3, 1.8500775e+2, -855112.0, -1219203.5, -37412.3, -0.018638724, -0.16861367, -851307.44, 275599.66, 0.000000085167756, 10.002824, 9.998006 
1.7951787e+3, 1.9500594e+2, -855546.06, -1169997.1, -40710.227, -0.03229093, -0.15066388, -850361.06, 178565.86, 0.0, 10.002154, 9.997993 
1.7951484e+3, 2.0500435e+2, -778503.1, -976988.44, -41013.055, -0.04284497, -0.14873837, -770362.5, 160580.31, 0.0, 10.001556, 9.998934 
1.7951186e+3, 2.1500309e+2, -757504.94, -917964.44, -35078.883, -0.043772038, -0.16895431, -750171.4, 82782.71, 0.0, 10.001036, 9.998918 
1.7950886e+3, 2.2500217e+2, -746136.6, -836397.7, -39613.594, -0.031226298, -0.15626986, -731217.2, 3746.2214, 0.0, 10.000333, 9.999143 
1.7950587e+3, 2.350017e+2, -777771.4, -802002.5, -40269.168, -0.0075404313, -0.11838651, -747834.7, -110864.69, 0.0, 9.999448, 9.999132 
1.7950287e+3, 2.4500106e+2, -732199.25, -648157.3, -30326.324, -0.010016487, -0.123546384, -638356.94, -99381.055, 0.0, 9.998739, 9.999857 
1.7949986e+3, 2.550004e+2, -712796.3, -589652.1, -28021.629, -0.034832347, -0.17446117, -583575.6, -142595.67, 0.0, 9.998205, 9.999843 
1.7949691e+3, 2.650002e+2, -689598.2, -513724.75, -20272.768, -0.005673761, -0.17927767, -511418.2, -168436.86, 0.0, 9.997633, 9.999966 
1.7949402e+3, 2.7500042e+2, -680022.5, -459847.2, -25888.588, 0.066722274, -0.15295337, -456844.13, -211864.11, 0.0, 9.997032, 9.999952 
1.79491e+3, 2.8500062e+2, -633504.94, -280073.38, -37862.97, 0.023887979, -0.16976175, -276062.66, -129084.805, 0.0, 9.996222, 10.000903 
1.7948787e+3, 2.950012e+2, -688113.94, -260860.13, -43914.82, -0.10643255, -0.20060553, -256393.1, -207422.55, 0.0, 9.995195, 10.000857 
1.7948516e+3, 3.050024e+2, -684636.2, -211156.5, -12426.863, 0.16654441, -0.17103386, -210830.58, -210830.58, 0.0, 9.994784, 10.001064 
1.7948213e+3, 3.1500295e+2, -589804.6, -47218.914, -58617.566, 0.07292831, -0.2223863, -40958.473, -40958.473, 0.0, 9.994935, 10.002112 
1.805394e+3, 1.2505426e+2, -923405.94, -1723521.9, -38947.1, -0.017170863, -0.21905918, -921514.56, 792932.8, 0.07598657, 10.007704, 9.996228 
1.8053631e+3, 1.3505076e+2, -910791.75, -1695312.1, 47896.715, -0.17167704, -0.17736289, -907878.4, 708605.56, 0.05091939, 10.006993, 9.996095 
1.8053359e+3, 1.4504689e+2, -852268.44, -1508227.9, -5154.784, 0.11012245, -0.21907572, -852227.94, 666294.9, 0.027274583, 10.0060835, 9.997142 
1.8053038e+3, 1.5504447e+2, -891282.56, -1482162.3, 6277.3486, -0.03742883, -0.17561127, -891215.9, 529330.2, 0.0103396075, 10.005052, 9.997143 
1.8052724e+3, 1.6504191e+2, -858927.56, -1359126.5, -11552.77, -0.10317499, -0.16399562, -858660.9, 463909.84, 0.0021974354, 10.004315, 9.99767 
1.8052422e+3, 1.7503925e+2, -825011.3, -1293986.8, -22279.355, -0.041390937, -0.1972905, -823955.3, 400641.6, 0.0001381745, 10.003875, 9.997657 
1.8052116e+3, 1.8503706e+2, -793927.3, -1186336.4, -20703.754, -0.013417743, -0.19391175, -792838.0, 333781.1, 0.00000010953618, 10.003233, 9.998033 
1.8051808e+3, 1.9503546e+2, -819151.94, -1149190.1, -13923.034, -0.03586653, -0.15648139, -818565.6, 210070.75, 0.0, 10.002393, 9.99802 
1.8051499e+3, 2.050339e+2, -785466.06, -982865.0, -13354.584, -0.046319254, -0.1515047, -784566.7, 146085.25, 0.0, 10.001522, 9.998909 
1.8051194e+3, 2.1503247e+2, -819568.06, -949916.7, -21174.646, -0.039266966, -0.18480189, -816214.6, 16450.514, 0.0, 10.000622, 9.998896 
1.8050888e+3, 2.2503154e+2, -804635.0, -852632.25, -28316.293, -0.02607178, -0.17746791, -791515.6, -56841.12, 0.0, 9.999882, 9.999248 
1.8050581e+3, 2.350312e+2, -792803.06, -797882.56, -21357.264, -0.008507059, -0.13636534, -773835.06, -137155.7, 0.0, 9.999296, 9.999233 
1.8050274e+3, 2.4503069e+2, -732666.5, -646129.4, -2685.7322, -0.009752122, -0.13653089, -646046.06, -107361.96, 0.0, 9.998727, 9.999876 
1.8049969e+3, 2.550301e+2, -716606.2, -588809.9, -6786.607, -0.027726704, -0.18191853, -588450.5, -147762.83, 0.0, 9.99817, 9.999865 
1.8049666e+3, 2.6502988e+2, -706797.25, -508958.4, 532.34283, -0.0020340113, -0.1950123, -508956.97, -166267.77, 0.0, 9.997459, 10.000082 
1.8049368e+3, 2.7503e+2, -738381.25, -475963.44, 12838.2295, 0.06192462, -0.19002552, -475336.84, -230648.17, 0.0, 9.99658, 10.00006 
1.8049061e+3, 2.850304e+2, -678642.5, -305302.44, 8888.192, 0.032711677, -0.18970227, -305090.94, -158406.34, 0.0, 9.995928, 10.000872 
1.8048744e+3, 2.9503146e+2, -635754.4, -232824.9, -4588.0874, -0.071346775, -0.16834351, -232772.66, -184099.75, 0.0, 9.995544, 10.00088 
1.8048462e+3, 3.0503213e+2, -634483.1, -174225.53, 45663.223, 0.13911556, -0.19770467, -169738.92, -169738.92, 0.0, 9.995077, 10.001175 
1.8048161e+3, 3.1503323e+2, -666336.06, -91169.61, -33220.938, 0.09722833, -0.20078775, -89257.164, -89257.164, 0.0, 9.99444, 10.00205 
1.8154018e+3, 1.250851e+2, -928353.44, -1728545.8, -49029.957, 0.0032210974, -0.18428494, -925360.44, 788785.1, 0.07990785, 10.007708, 9.996194 
1.81537e+3, 1.3508125e+2, -913833.8, -1693384.6, 22999.518, -0.1840266, -0.18093303, -913155.8, 703029.25, 0.0536782, 10.006973, 9.996118 
1.8153419e+3, 1.4507733e+2, -851793.94, -1501474.5, -43557.324, 0.100602254, -0.23108564, -848886.6, 669337.1, 0.028896155, 10.006064, 9.997201 
1.8153088e+3, 1.5507515e+2, -885789.75, -1473374.6, -31131.803, -0.055611107, -0.16936398, -884144.94, 536099.25, 0.011065856, 10.005065, 9.997198 
1.8152766e+3, 1.6507246e+2, -876254.5, -1399901.0, -27605.994, -0.11525965, -0.16202816, -874803.2, 447467.38, 0.0024006602, 10.0043335, 9.997383 
1.815246e+3, 1.7506926e+2, -844624.06, -1335446.8, -37294.246, -0.035359662, -0.21700689, -841806.5, 382495.88, 0.00015747458, 10.003876, 9.997373 
1.8152149e+3, 1.8506692e+2, -783734.3, -1164565.6, -51170.188, -0.0056492025, -0.22285494, -776978.7, 349347.2, 0.00000012908751, 10.003227, 9.998186 
1.8151832e+3, 1.9506548e+2, -807723.9, -1126722.5, -44137.906, -0.040251866, -0.18460083, -801729.44, 226610.88, 0.0, 10.002396, 9.998175 
1.8151514e+3, 2.0506403e+2, -798613.8, -1011753.3, -46325.14, -0.04579088, -0.16716507, -788980.6, 141374.4, 0.0, 10.001527, 9.99871 
1.8151201e+3, 2.1506263e+2, -832610.0, -978681.3, -53499.992, -0.01718782, -0.17664064, -815111.4, 17258.021, 0.0, 10.000626, 9.998698 
1.8150887e+3, 2.2506164e+2, -789546.1, -822383.1, -49272.63, -0.011424225, -0.17696932, -754028.5, -19649.113, 0.0, 9.999884, 9.999456 
1.8150571e+3, 2.3506111e+2, -777393.3, -767532.6, -41705.88, -0.030151818, -0.17439778, -730466.6, -94082.17, 0.0, 9.999301, 9.999441 
1.815026e+3, 2.4506067e+2, -736187.8, -654873.1, -22510.035, -0.024611322, -0.17443843, -649057.6, -110669.32, 0.0, 9.99873, 9.999816 
1.8149953e+3, 2.5506043e+2, -720027.6, -597911.25, -25986.133, 0.005034186, -0.17953886, -592611.5, -152221.77, 0.0, 9.998175, 9.999801 
1.8149643e+3, 2.650604e+2, -680507.9, -455154.75, -31513.217, 0.0191544, -0.19031458, -450830.9, -108441.46, 0.0, 9.99746, 10.000452 
1.814933e+3, 2.750605e+2, -712906.2, -422606.13, -19049.414, 0.017586533, -0.22057289, -421361.47, -176973.98, 0.0, 9.996576, 10.000429 
1.8149018e+3, 2.8506112e+2, -687046.56, -325162.28, -3671.6624, 0.01813051, -0.20995632, -325125.03, -178743.77, 0.0, 9.995934, 10.000734 
1.8148708e+3, 2.9506257e+2, -638834.4, -247050.6, -15050.471, 0.023843708, -0.14148182, -246473.28, -198105.77, 0.0, 9.995574, 10.0007715 
1.814841e+3, 3.0506256e+2, -616169.5, -139760.72, 21905.732, 0.1182943, -0.24362706, -138755.6, -138755.6, 0.0, 9.995092, 10.001404 
1.8148102e+3, 3.1506386e+2, -621533.7, 3990.1936, -76373.24, 0.059095167, -0.24709103, 13179.963, 13179.963, 0.0, 9.994426, 10.002712 
1.8254098e+3, 1.251163e+2, -885411.8, -1700272.4, -21352.086, 0.025362957, -0.18883014, -884852.7, 828987.2, 0.08398529, 10.008037, 9.996235 
1.8253766e+3, 1.3511255e+2, -964372.3, -1709215.8, 36073.215, -0.20088145, -0.18199074, -962629.3, 653248.1, 0.05656038, 10.006583, 9.996197 
1.8253475e+3, 1.4510861e+2, -908000.94, -1532083.8, -12766.733, 0.09135242, -0.23701006, -907739.9, 610176.25, 0.030601222, 10.005693, 9.997164 
1.825314e+3, 1.5510623e+2, -833253.44, -1451950.5, -6042.279, -0.046051677, -0.19117898, -833194.4, 586744.06, 0.011837186, 10.005455, 9.997155 
1.8252812e+3, 1.6510347e+2, -811902.3, -1379000.4, -4170.7944, -0.10197867, -0.18167496, -811871.7, 510093.97, 0.0026201115, 10.004826, 9.997288 
1.82525e+3, 1.7510039e+2, -862191.06, -1354589.0, -1974.0822, -0.03398621, -0.21657065, -862183.1, 361813.8, 0.00017889238, 10.003804, 9.997274 
1.825218e+3, 1.8509802e+2, -819734.1, -1177891.6, -13360.4795, -0.005931533, -0.22059642, -819236.44, 306784.16, 0.00000015151502, 10.002966, 9.9982195 
1.8251854e+3, 1.9509646e+2, -818019.6, -1127873.8, -16122.1045, -0.033081107, -0.19735862, -817183.0, 210852.69, 0.0, 10.002312, 9.998205 
1.825153e+3, 2.0509496e+2, -791532.06, -1016498.2, -21010.123, -0.03988255, -0.18080184, -789586.75, 140464.08, 0.0, 10.001614, 9.998634 
1.8251209e+3, 2.1509363e+2, -802689.75, -972242.9, -19952.47, -0.020829419, -0.17739181, -800373.44, 31691.717, 0.0, 10.000869, 9.998624 
1.8250886e+3, 2.2509259e+2, -747992.75, -802710.25, -11220.275, -0.015290046, -0.1768518, -745781.3, -11705.718, 0.0, 10.000173, 9.999451 
1.8250565e+3, 2.3509195e+2, -745986.1, -752001.6, -20463.236, -0.025530253, -0.18579023, -728310.8, -92229.375, 0.0, 9.999518, 9.999441 
1.8250248e+3, 2.4509151e+2, -733974.75, -647854.25, -9566.054, -0.015708346, -0.18823685, -646804.5, -108719.37, 0.0, 9.998722, 9.9998665 
1.8249933e+3, 2.5509137e+2, -773946.4, -618365.9, -5064.297, 0.014435316, -0.18730365, -618201.2, -178115.56, 0.0, 9.997783, 9.999849 
1.8249616e+3, 2.6509142e+2, -723868.06, -460422.13, -11995.545, 0.02024829, -0.19661999, -459877.03, -117792.69, 0.0, 9.997097, 10.00059 
1.8249294e+3, 2.7509168e+2, -692800.3, -397042.8, -18698.723, 0.0035805516, -0.2277156, -395865.3, -151784.42, 0.0, 9.996649, 10.000567 
1.8248978e+3, 2.850924e+2, -658103.06, -297729.4, 3246.5127, 0.024729058, -0.21772602, -297700.16, -151626.8, 0.0, 9.996077, 10.000854 
1.8248668e+3, 2.9509383e+2, -662483.3, -243850.86, 10421.005, 0.07929615, -0.15867299, -243591.61, -195532.28, 0.0, 9.99535, 10.000901 
1.8248354e+3, 3.0509394e+2, -691771.1, -166690.48, 43568.37, 0.078486905, -0.26519716, -163099.97, -163099.97, 0.0, 9.994537, 10.001485 
1.8248045e+3, 3.1509557e+2, -669697.5, 41696.977, -56342.945, 0.096180975, -0.24174742, 46131.73, 46131.73, 0.0, 9.993833, 10.003258 
1.8354179e+3, 1.2514788e+2, -888075.06, -1690829.1, -53176.758, 0.035875395, -0.22617416, -884567.8, 828962.3, 0.08822958, 10.008001, 9.996324 
1.8353829e+3, 1.3514464e+2, -956292.4, -1691304.5, -15261.495, -0.2209644, -0.17928274, -955975.6, 659585.94, 0.05957438, 10.0066, 9.996312 
1.8353531e+3, 1.4514068e+2, -914149.0, -1549385.1, -22304.877, 0.0825169, -0.23631242, -913366.75, 604233.5, 0.032396443, 10.005718, 9.997035 
1.8353197e+3, 1.5513767e+2, -843601.94, -1471356.5, -13747.271, -0.014952759, -0.23851074, -843301.06, 576328.06, 0.012657299, 10.005447, 9.997027 
1.8352863e+3, 1.6513497e+2, -809980.4, -1372285.9, -41689.05, -0.06975697, -0.22072624, -806906.4, 514749.78, 0.0028574534, 10.004811, 9.997342 
1.8352537e+3, 1.7513253e+2, -856844.44, -1346145.0, -39135.95, -0.038454358, -0.19792242, -853734.0, 369947.44, 0.00020282652, 10.003813, 9.99733 
1.8352208e+3, 1.8513027e+2, -823747.94, -1190239.5, -37263.6, -0.0152439345, -0.18949783, -819997.44, 305706.72, 0.00000018976193, 10.00298, 9.998129 
1.8351878e+3, 1.951283e+2, -823005.5, -1140849.8, -39421.984, -0.016279649, -0.19561012, -818189.0, 209534.31, 0.0, 10.00232, 9.998114 
1.8351546e+3, 2.0512666e+2, -788477.1, -1011734.06, -48032.703, -0.030185832, -0.19251475, -778581.7, 151158.19, 0.0, 10.001617, 9.998667 
1.8351214e+3, 2.1512537e+2, -799200.0, -967255.2, -46415.86, -0.04995505, -0.18746573, -787232.5, 44520.76, 0.0, 10.000875, 9.998656 
1.8350886e+3, 2.2512431e+2, -762797.2, -834828.3, -34897.43, -0.03777429, -0.17830174, -748663.44, -14899.657, 0.0, 10.000175, 9.99923 
1.8350562e+3, 2.351236e+2, -760693.94, -783774.9, -43576.02, 0.0027155136, -0.17117992, -727156.1, -91385.234, 0.0, 9.99952, 9.999223 
1.8350236e+3, 2.4512309e+2, -723152.7, -625510.6, -43829.313, 0.014462184, -0.1785329, -608723.0, -70947.74, 0.0, 9.998721, 10.000022 
1.8349908e+3, 2.5512284e+2, -762493.06, -595123.94, -38532.523, -0.0015266817, -0.20487987, -586678.94, -146902.8, 0.0, 9.997783, 10.00001 
1.8349583e+3, 2.6512292e+2, -731169.3, -477436.97, -27696.682, -0.00011616934, -0.21379606, -474448.88, -132674.28, 0.0, 9.997102, 10.000473 
1.8349262e+3, 2.7512342e+2, -699594.25, -414475.84, -33753.664, 0.020068927, -0.21125914, -410534.4, -166764.58, 0.0, 9.996659, 10.000444 
1.8348941e+3, 2.8512412e+2, -628904.6, -240204.44, -23650.973, 0.05175976, -0.21545374, -238770.66, -93008.55, 0.0, 9.996087, 10.001245 
1.8348622e+3, 2.9512525e+2, -635151.25, -188738.13, -17692.402, 0.08443217, -0.22553706, -188038.03, -140288.39, 0.0, 9.995355, 10.001278 
1.8348293e+3, 3.0512628e+2, -699508.3, -182190.7, 14180.29, 0.017024714, -0.25012884, -181802.3, -181802.3, 0.0, 9.994533, 10.001382 
1.8347988e+3, 3.1512803e+2, -656900.4, 63475.77, -40580.496, 0.13145407, -0.2084926, 65754.555, 65754.555, 0.0, 9.993846, 10.003405 
1.8454254e+3, 1.2518069e+2, -947890.7, -1713871.6, -1385.5, 0.00464445, -0.23527572, -947888.2, 765319.25, 0.09265209, 10.007563, 9.99636 
1.8453899e+3, 1.3517734e+2, -881586.7, -1647526.0, 12471.1045, -0.20608392, -0.20496185, -881383.7, 733855.44, 0.06272956, 10.007148, 9.996347 
1.8453594e+3, 1.451733e+2, -844852.3, -1537984.6, 6993.444, 0.10561002, -0.2582918, -844781.75, 672496.8, 0.03428884, 10.006327, 9.996819 
1.845325e+3, 1.5517022e+2, -896779.75, -1521147.0, 8955.203, -0.019344715, -0.24786197, -896651.4, 522658.34, 0.013530316, 10.005186, 9.99681 
1.845291e+3, 1.6516751e+2, -858547.6, -1382612.0, -18471.535, -0.07651045, -0.22410867, -857897.4, 463439.63, 0.0031146065, 10.004424, 9.997456 
1.8452576e+3, 1.7516518e+2, -819316.3, -1315666.6, -12689.7, -0.030742751, -0.19952887, -818992.06, 404368.3, 0.00022982711, 10.004021, 9.9974375 
1.845224e+3, 1.851629e+2, -772891.5, -1178893.4, -12317.764, -0.0083519025, -0.1923444, -772518.1, 352865.2, 0.00000025167606, 10.003389, 9.998008 
1.8451902e+3, 1.9516078e+2, -798829.8, -1142287.4, -17810.73, -0.022510113, -0.2031418, -797908.6, 229495.88, 0.0, 10.002545, 9.997993 
1.8451563e+3, 2.0515907e+2, -761296.7, -997003.4, -26048.47, -0.03849676, -0.20020318, -758452.3, 170969.36, 0.0, 10.0018, 9.998678 
1.8451223e+3, 2.1515782e+2, -759258.4, -946708.3, -26759.352, -0.051301897, -0.19048439, -755513.2, 75921.04, 0.0, 10.001147, 9.998665 
1.8450889e+3, 2.2515674e+2, -738507.25, -834815.2, -13930.024, -0.03542729, -0.1807978, -736532.9, -3087.6663, 0.0, 10.000396, 9.999123 
1.8450558e+3, 2.3515588e+2, -764752.8, -797687.3, -15319.771, 0.0068078125, -0.1766185, -758728.56, -123274.79, 0.0, 9.999547, 9.999113 
1.8450224e+3, 2.4515525e+2, -714349.4, -624124.3, -20250.713, 0.01960161, -0.18803115, -619787.56, -82328.23, 0.0, 9.9987955, 9.999994 
1.8449889e+3, 2.5515488e+2, -714117.5, -573712.5, -29946.488, 0.0030288748, -0.22053108, -567592.1, -128130.98, 0.0, 9.998127, 9.999989 
1.8449555e+3, 2.6515502e+2, -704632.6, -460726.3, -17457.92, 0.006446909, -0.22507796, -459483.06, -118024.016, 0.0, 9.997272, 10.000504 
1.8449228e+3, 2.7515566e+2, -757494.44, -439515.94, -11893.734, 0.033072833, -0.2082297, -439071.7, -195619.22, 0.0, 9.996252, 10.000467 
1.84489e+3, 2.8515628e+2, -702160.6, -274203.22, -5609.207, 0.061892506, -0.22505027, -274129.72, -128683.9, 0.0, 9.995582, 10.001253 
1.8448573e+3, 2.9515705e+2, -662235.25, -200123.86, -33776.04, 0.082110666, -0.27308473, -197668.19, -150231.14, 0.0, 9.995166, 10.001288 
1.8448237e+3, 3.0515876e+2, -709483.0, -172388.55, -13286.678, 0.0052411067, -0.23637597, -172060.06, -172060.06, 0.0, 9.994406, 10.001508 
1.8447927e+3, 3.1515995e+2, -692276.94, 47537.53, -1436.3685, 0.15622395, -0.26395503, 47540.32, 47540.32, 0.0, 9.9936, 10.003413 
1.8554321e+3, 1.2521467e+2, -948654.3, -1713511.8, 2768.4631, -0.067125365, -0.21848013, -948644.25, 764228.5, 0.09726632, 10.007589, 9.99635 
1.8553974e+3, 1.352106e+2, -887484.94, -1653138.0, -2886.1987, -0.16596895, -0.25754702, -887474.06, 727436.44, 0.06604009, 10.007137, 9.996315 
1.8553661e+3, 1.4520648e+2, -870168.9, -1586376.0, -35292.04, 0.14988455, -0.30168512, -868434.0, 648517.44, 0.036288604, 10.0063095, 9.996497 
1.8553297e+3, 1.5520374e+2, -917673.6, -1566707.9, -31602.602, -0.056785647, -0.22215678, -916138.5, 502842.44, 0.0144623155, 10.005195, 9.996495 
1.8552949e+3, 1.6520102e+2, -844701.94, -1358399.0, -32776.008, -0.118617415, -0.19312744, -842619.1, 478389.56, 0.0033944603, 10.004442, 9.997615 
1.8552618e+3, 1.7519835e+2, -807395.9, -1293077.9, -27146.0, -0.012706652, -0.21977596, -805883.4, 417150.97, 0.00026073525, 10.004027, 9.997591 
1.8552275e+3, 1.8519591e+2, -784298.75, -1203390.1, -43523.895, 0.011357142, -0.22698984, -779826.44, 345232.0, 0.0000003514084, 10.00339, 9.997841 
1.8551923e+3, 1.951938e+2, -809160.1, -1165780.8, -48194.44, -0.051695928, -0.21966815, -802761.8, 224318.19, 0.0, 10.002551, 9.99783 
1.8551578e+3, 2.0519213e+2, -761534.7, -999301.9, -49769.336, -0.064701535, -0.20410812, -751537.3, 177559.61, 0.0, 10.001804, 9.998662 
1.8551236e+3, 2.1519095e+2, -760396.06, -949787.3, -49873.797, -0.027655032, -0.18661025, -748065.25, 83043.49, 0.0, 10.001147, 9.998646 
1.8550894e+3, 2.2518978e+2, -739474.4, -836817.1, -44839.055, -0.010903311, -0.18447831, -721968.4, 11151.975, 0.0, 10.000393, 9.999112 
1.8550551e+3, 2.351887e+2, -765254.56, -800111.3, -45548.836, -0.013497646, -0.2021546, -733913.6, -98782.734, 0.0, 9.999551, 9.999097 
1.855021e+3, 2.4518788e+2, -729418.94, -656697.06, -44486.777, -0.000787013, -0.2173688, -635602.0, -98463.664, 0.0, 9.998798, 9.99977 
1.8549871e+3, 2.5518748e+2, -728441.1, -605149.56, -54047.746, 0.025735024, -0.23426162, -584811.44, -145669.77, 0.0, 9.998132, 9.999772 
1.8549532e+3, 2.6518765e+2, -692302.5, -436229.0, -55400.336, 0.039227568, -0.23081852, -424757.3, -83618.61, 0.0, 9.997273, 10.000672 
1.8549189e+3, 2.7518845e+2, -746119.75, -416504.16, -47550.54, 0.040707685, -0.21851102, -409781.6, -166652.0, 0.0, 9.996252, 10.0006275 
1.8548855e+3, 2.8518882e+2, -730440.6, -334628.8, -20637.863, 0.05059224, -0.24613714, -333555.66, -188430.14, 0.0, 9.995585, 10.000838 
1.8548523e+3, 2.9518908e+2, -688373.3, -257956.34, -52906.543, 0.066937834, -0.30093735, -251548.5, -204425.39, 0.0, 9.995177, 10.000888 
1.8548183e+3, 3.0519116e+2, -679164.06, -112731.82, -48532.785, 0.05171732, -0.22788328, -108603.55, -108603.55, 0.0, 9.994418, 10.001912 
1.8547861e+3, 3.151929e+2, -711326.0, 3722.1387, 12166.296, 0.14466128, -0.24047709, 3929.084, 3929.084, 0.0, 9.993615, 10.003106 
1.86544e+3, 1.2524876e+2, -878237.44, -1687576.1, 30593.832, -0.050211642, -0.24550489, -877082.56, 835454.2, 0.10208926, 10.00821, 9.996246 
1.8654042e+3, 1.3524482e+2, -912818.5, -1679603.9, -3706.246, -0.17373, -0.25932664, -912800.6, 701773.9, 0.06952267, 10.007035, 9.996182 
1.8653719e+3, 1.4524062e+2, -898228.25, -1598756.1, -28412.063, 0.12829152, -0.3029072, -897077.8, 619538.4, 0.038407587, 10.006118, 9.996502 
1.865335e+3, 1.5523772e+2, -876638.44, -1546473.3, -2253.2368, -0.051567152, -0.24115604, -876630.9, 542016.0, 0.015460411, 10.005487, 9.996491 
1.8652995e+3, 1.6523492e+2, -798417.5, -1348147.6, 8715.655, -0.107194446, -0.2121826, -798279.4, 522395.9, 0.0037005413, 10.004818, 9.997502 
1.8652657e+3, 1.7523229e+2, -802774.94, -1303140.9, -6594.247, -0.019004371, -0.223927, -802688.06, 420012.94, 0.0002965547, 10.004114, 9.9974785 
1.8652308e+3, 1.8522978e+2, -785486.6, -1205632.3, -34855.016, 0.0008043087, -0.22985429, -782614.75, 342111.03, 0.00000050835786, 10.003391, 9.997824 
1.8651949e+3, 1.9522756e+2, -796204.9, -1161484.4, -29742.697, -0.05331757, -0.2321046, -793798.94, 232949.4, 0.0, 10.002651, 9.99781 
1.8651596e+3, 2.0522583e+2, -755352.8, -998661.3, -25138.03, -0.05843888, -0.21936283, -752782.75, 175982.98, 0.0, 10.00186, 9.998638 
1.8651247e+3, 2.1522465e+2, -780650.9, -962059.1, -27168.893, -0.0148172835, -0.19878073, -776669.3, 54108.094, 0.0, 10.001022, 9.99862 
1.8650897e+3, 2.2522344e+2, -756250.56, -840639.44, -20870.96, -0.00055232167, -0.19978946, -751370.94, -18581.857, 0.0, 10.000262, 9.999147 
1.8650545e+3, 2.3522231e+2, -759969.06, -793686.8, -18799.209, -0.015277074, -0.22611642, -751576.56, -116776.695, 0.0, 9.999573, 9.999128 
1.8650198e+3, 2.4522151e+2, -731406.6, -665596.3, -9035.912, -0.0038099538, -0.23694375, -664378.2, -127570.93, 0.0, 9.998823, 9.999696 
1.8649852e+3, 2.552212e+2, -751903.75, -625519.5, -8973.337, 0.0349352, -0.2376608, -624885.56, -186075.19, 0.0, 9.998013, 9.999688 
1.8649505e+3, 2.652213e+2, -701706.3, -451911.56, -20843.598, 0.05338092, -0.23307759, -450184.25, -109375.66, 0.0, 9.99726, 10.000569 
1.8649153e+3, 2.7522182e+2, -710716.9, -409012.5, -33956.4, 0.047273513, -0.23334965, -405237.97, -162436.2, 0.0, 9.996541, 10.000537 
1.8648809e+3, 2.8522214e+2, -719860.7, -337715.88, 4462.847, 0.03860334, -0.25739315, -337663.78, -192865.75, 0.0, 9.995698, 10.000761 
1.8648471e+3, 2.952225e+2, -754993.9, -298629.6, -3614.2585, 0.043148868, -0.2961458, -298600.97, -251806.19, 0.0, 9.9947605, 10.000808 
1.8648133e+3, 3.0522427e+2, -710904.25, -128617.234, -1261.5681, 0.11309627, -0.24737693, -128614.51, -128614.51, 0.0, 9.9942045, 10.0019045 
1.8647793e+3, 3.1522602e+2, -689390.0, -27289.662, 45268.746, 0.09421886, -0.2548815, -24208.908, -24208.908, 0.0, 9.993949, 10.002729 
1.8754491e+3, 1.2528299e+2, -897892.1, -1717130.6, 8854.451, 0.030590868, -0.3112585, -897796.44, 814402.6, 0.10714171, 10.008197, 9.996033 
1.8754108e+3, 1.3527991e+2, -931843.7, -1715314.0, -44158.11, -0.22519077, -0.2133823, -929362.75, 684868.4, 0.073193975, 10.007029, 9.995942 
1.8753771e+3, 1.4527568e+2, -878942.0, -1556683.4, -50476.508, 0.047876585, -0.2631212, -875203.25, 641069.7, 0.04065699, 10.006126, 9.996789 
1.8753408e+3, 1.5527207e+2, -856173.75, -1506177.9, -24492.867, -0.010015421, -0.30149508, -855252.1, 563055.75, 0.016531242, 10.005503, 9.996761 
1.8753049e+3, 1.6526915e+2, -823133.5, -1402927.1, -17560.748, -0.05108623, -0.27830073, -822602.1, 497735.03, 0.0040364075, 10.00483, 9.997123 
1.8752694e+3, 1.752669e+2, -827919.5, -1357078.3, -31885.342, -0.04960412, -0.21271813, -826005.1, 396355.84, 0.00033835645, 10.004119, 9.9971075 
1.8752338e+3, 1.8526447e+2, -776927.7, -1189200.6, -61636.96, -0.039035466, -0.20162094, -767909.9, 356475.97, 0.000000733184, 10.003394, 9.997937 
1.8751977e+3, 1.9526199e+2, -787828.7, -1145805.0, -56375.99, -0.030200137, -0.24086872, -779160.2, 247250.06, 0.0, 10.002656, 9.997918 
1.8751617e+3, 2.052601e+2, -757970.2, -1005593.1, -55723.293, -0.023060592, -0.24597323, -746008.44, 182420.27, 0.0, 10.0018635, 9.99859 
1.8751258e+3, 2.1525887e+2, -783178.1, -969123.0, -57029.336, -0.013252342, -0.22658528, -767080.8, 63359.97, 0.0, 10.001027, 9.99857 
1.87509e+3, 2.2525768e+2, -750263.06, -829472.25, -45861.89, -0.0048340694, -0.22641134, -729271.94, 3180.0464, 0.0, 10.000265, 9.999224 
1.8750542e+3, 2.3525666e+2, -754254.56, -782831.56, -43296.17, -0.0009433542, -0.24838053, -722950.1, -88488.71, 0.0, 9.999575, 9.999204 
1.8750186e+3, 2.4525605e+2, -727083.8, -657779.56, -38423.03, 0.008960562, -0.2471885, -640691.0, -104224.03, 0.0, 9.998825, 9.99975 
1.8749832e+3, 2.5525594e+2, -748399.8, -620801.06, -37766.64, 0.028718565, -0.23066822, -610460.8, -171992.77, 0.0, 9.99802, 9.999719 
1.8749477e+3, 2.652558e+2, -728039.0, -508917.34, -47145.51, 0.046780977, -0.23223546, -499204.22, -158734.64, 0.0, 9.997268, 10.000175 
1.874912e+3, 2.752557e+2, -734460.06, -461722.47, -60340.586, 0.051372893, -0.25416598, -448969.03, -206498.94, 0.0, 9.996553, 10.000171 
1.8748765e+3, 2.8525624e+2, -699575.06, -297565.06, -31283.916, 0.025045771, -0.25742304, -295145.16, -150680.9, 0.0, 9.995704, 10.001035 
1.8748413e+3, 2.952573e+2, -738603.44, -263213.13, -36305.492, 0.006460072, -0.2510187, -260456.47, -214004.6, 0.0, 9.994752, 10.001057 
1.8748082e+3, 3.0525792e+2, -742604.94, -198698.25, -9100.575, 0.18822283, -0.3068466, -198546.02, -198546.02, 0.0, 9.994217, 10.00142 
1.874773e+3, 3.152597e+2, -700332.75, -62162.594, 14989.514, 0.07365886, -0.25717077, -61810.71, -61810.71, 0.0, 9.9939995, 10.002465 
1.8854572e+3, 1.2531856e+2, -909965.9, -1727125.8, 34958.984, 0.022113888, -0.32149196, -908473.0, 803376.5, 0.11244789, 10.008169, 9.995977 
1.885418e+3, 1.3531545e+2, -951677.75, -1731819.5, -23528.035, -0.20164984, -0.21878158, -950968.8, 662913.44, 0.07706858, 10.006936, 9.9958725 
1.8853834e+3, 1.4531115e+2, -865313.6, -1549871.5, -4904.4087, 0.049457423, -0.27244502, -865278.5, 650646.4, 0.043044575, 10.006243, 9.996778 
1.8853466e+3, 1.5530755e+2, -780022.3, -1470495.3, -261.74777, -0.010019772, -0.30685854, -780022.25, 637936.8, 0.017679024, 10.006051, 9.996742 
1.88531e+3, 1.6530448e+2, -758059.4, -1384797.1, -13479.775, -0.04871783, -0.28914273, -757769.6, 562219.9, 0.004404855, 10.005342, 9.997 
1.8852735e+3, 1.75302e+2, -829767.94, -1371655.8, -10665.593, -0.050005868, -0.23547928, -829558.1, 392457.9, 0.0003871751, 10.004168, 9.996983 
1.885237e+3, 1.8529953e+2, -789777.0, -1194645.6, -25348.045, -0.038765036, -0.22021621, -788196.2, 335845.16, 0.0000010250507, 10.003305, 9.99794 
1.8852004e+3, 1.9529723e+2, -777056.25, -1140194.8, -29207.824, -0.023946587, -0.24165809, -774722.06, 251342.13, 0.0, 10.00273, 9.997919 
1.8851636e+3, 2.0529534e+2, -733380.56, -993046.94, -36477.504, -0.02080308, -0.24667001, -728353.6, 199728.94, 0.0, 10.002032, 9.998593 
1.8851267e+3, 2.1529394e+2, -754665.7, -955054.44, -35099.805, -0.024827572, -0.24250081, -748695.5, 81400.375, 0.0, 10.0012245, 9.998571 
1.88509e+3, 2.2529271e+2, -731386.6, -820359.25, -23060.72, -0.013765069, -0.24544817, -725764.75, 6342.6465, 0.0, 10.000399, 9.999221 
1.8850538e+3, 2.3529176e+2, -757589.2, -784539.5, -27298.84, 0.007733231, -0.25900337, -740620.8, -106504.734, 0.0, 9.999556, 9.999199 
1.8850173e+3, 2.4529123e+2, -741996.06, -665283.8, -29231.932, 0.015040971, -0.25155404, -655414.44, -119293.234, 0.0, 9.998728, 9.999743 
1.884981e+3, 2.5529113e+2, -766212.8, -630654.8, -33572.516, 0.015641904, -0.23247677, -622795.8, -184673.5, 0.0, 9.997908, 9.999703 
1.8849447e+3, 2.6529086e+2, -749720.56, -533025.2, -28605.752, 0.042851012, -0.23626941, -529312.56, -189187.44, 0.0, 9.997181, 10.000051 
1.8849087e+3, 2.7529064e+2, -746218.56, -480075.8, -23440.344, 0.076304205, -0.2597723, -478027.1, -235899.34, 0.0, 9.99653, 10.000054 
1.884872e+3, 2.8529125e+2, -695636.1, -279031.22, -980.96106, 0.028333567, -0.2530526, -279028.9, -134908.22, 0.0, 9.995663, 10.001181 
1.8848355e+3, 2.952926e+2, -746667.06, -255662.16, -13278.946, -0.034410972, -0.23974797, -255303.3, -209197.8, 0.0, 9.994652, 10.001155 
1.8848026e+3, 3.0529264e+2, -788551.3, -258903.45, 33592.645, 0.21874112, -0.3334446, -256781.36, -256781.36, 0.0, 9.994066, 10.001079 
1.8847665e+3, 3.152948e+2, -761086.6, -69900.664, 20597.06, 0.04874332, -0.21657474, -69287.42, -69287.42, 0.0, 9.993499, 10.00265 
1.8954644e+3, 1.2535535e+2, -914698.3, -1720802.8, 6788.014, -0.06844691, -0.2805204, -914641.1, 796847.56, 0.118026204, 10.008143, 9.996033 
1.8954256e+3, 1.3535137e+2, -947483.6, -1722099.6, -65106.46, -0.11467512, -0.27106002, -942049.56, 671478.8, 0.08115385, 10.006961, 9.995931 
1.8953903e+3, 1.4534694e+2, -882350.4, -1589898.6, -12142.279, 0.117704995, -0.32736373, -882142.06, 633430.44, 0.04557192, 10.006267, 9.996493 
1.8953522e+3, 1.5534404e+2, -802437.1, -1513310.1, -7419.763, -0.05045773, -0.26149544, -802359.7, 615241.4, 0.018904662, 10.006035, 9.996457 
1.8953148e+3, 1.6534089e+2, -754047.4, -1372931.6, -56429.926, -0.09666385, -0.24669066, -748944.2, 570688.56, 0.0048076166, 10.005324, 9.997091 
1.8952778e+3, 1.753375e+2, -822208.1, -1358883.5, -52787.47, -0.02361882, -0.29023919, -817065.25, 404601.3, 0.00044394817, 10.004177, 9.997067 
1.8952405e+3, 1.8533494e+2, -795301.7, -1210031.3, -46164.902, -0.0034210894, -0.28333902, -790225.06, 333467.7, 0.0000013628122, 10.00332, 9.99783 
1.895203e+3, 1.9533323e+2, -784000.75, -1155954.5, -49611.85, -0.034739546, -0.23457274, -777497.1, 248213.61, 0.0, 10.002733, 9.997811 
1.8951653e+3, 2.0533146e+2, -731048.94, -988439.4, -65730.58, -0.05095992, -0.22224385, -715234.75, 212493.25, 0.0, 10.00203, 9.998628 
1.8951276e+3, 2.1532983e+2, -752998.9, -951753.06, -63838.184, -0.051216602, -0.24744068, -734261.06, 95482.4, 0.0, 10.001222, 9.998597 
1.8950903e+3, 2.2532849e+2, -737040.25, -832759.6, -53896.11, -0.02862963, -0.25773695, -712821.25, 18934.814, 0.0, 10.000398, 9.999137 
1.8950534e+3, 2.3532759e+2, -763243.6, -798034.2, -57536.79, 0.0102820555, -0.25814575, -720530.0, -86765.29, 0.0, 9.99956, 9.999106 
1.895016e+3, 2.4532697e+2, -746477.75, -676223.3, -59062.504, 0.013602932, -0.24972087, -642631.56, -106860.73, 0.0, 9.998732, 9.999668 
1.8949786e+3, 2.5532666e+2, -769942.8, -640251.6, -62758.723, -0.0060006003, -0.24348702, -614855.25, -177081.4, 0.0, 9.997912, 9.999637 
1.8949418e+3, 2.6532644e+2, -738213.1, -511643.03, -51994.89, 0.04074064, -0.24630475, -500280.7, -160504.6, 0.0, 9.997189, 10.0001955 
1.8949056e+3, 2.7532658e+2, -734861.2, -460353.9, -47944.453, 0.11900245, -0.25048858, -452221.06, -210445.75, 0.0, 9.996543, 10.000186 
1.8948679e+3, 2.8532723e+2, -694807.94, -278821.72, -38646.074, 0.04694163, -0.24513122, -275261.88, -131493.88, 0.0, 9.995667, 10.001181 
1.8948297e+3, 2.953282e+2, -751853.3, -268109.25, -44431.082, -0.07790931, -0.26485366, -264062.2, -218305.47, 0.0, 9.994656, 10.001069 
1.8947963e+3, 3.0532846e+2, -801463.2, -290799.84, 17999.158, 0.1940069, -0.32098565, -290166.22, -290166.22, 0.0, 9.994082, 10.000855 
1.8947604e+3, 3.1533012e+2, -710686.3, 35257.78, -74896.96, 0.096355826, -0.24147122, 42703.535, 42703.535, 0.0, 9.993498, 10.003372 
1.9054723e+3, 1.2539223e+2, -983261.2, -1753949.0, 28063.967, -0.052744184, -0.26874012, -982240.6, 728886.7, 0.12386277, 10.007641, 9.996048 
1.9054332e+3, 1.35388e+2, -826478.5, -1648211.1, -55677.26, -0.09139123, -0.29170918, -822723.2, 790445.25, 0.08543655, 10.007858, 9.996005 
1.9053967e+3, 1.4538345e+2, -768433.44, -1535981.5, -9613.683, 0.103276305, -0.359115, -768313.06, 746900.4, 0.048230506, 10.007125, 9.9964485 
1.9053578e+3, 1.5538086e+2, -877905.9, -1555589.8, 9553.931, -0.05143976, -0.25925204, -877771.2, 539468.75, 0.02020504, 10.005538, 9.996406 
1.9053197e+3, 1.6537775e+2, -838366.94, -1406423.3, -21439.457, -0.09006375, -0.2375512, -837558.94, 481712.03, 0.0052449116, 10.004716, 9.997153 
1.9052823e+3, 1.7537424e+2, -760125.44, -1322452.4, -21432.13, -0.021387542, -0.30064097, -759309.75, 461995.9, 0.0005093462, 10.004579, 9.997123 
1.9052441e+3, 1.8537158e+2, -720169.25, -1182607.4, -24285.395, -0.004605105, -0.29966128, -718897.4, 404435.16, 0.000001731659, 10.003877, 9.997748 
1.9052055e+3, 1.9536987e+2, -797695.2, -1171494.8, -26795.066, -0.037020527, -0.24242866, -795784.2, 229566.67, 0.0, 10.002681, 9.997728 
1.9051671e+3, 2.0536813e+2, -769706.5, -1007068.06, -37818.715, -0.05066114, -0.22486418, -763826.5, 163541.64, 0.0, 10.001768, 9.998625 
1.9051288e+3, 2.1536647e+2, -770442.6, -960322.44, -39594.203, -0.045763407, -0.24885358, -762517.1, 66866.4, 0.0, 10.001105, 9.998592 
1.9050905e+3, 2.253651e+2, -750825.9, -845578.56, -33752.324, -0.026125126, -0.26021215, -740032.3, -8635.695, 0.0, 10.000333, 9.999079 
1.9050527e+3, 2.3536411e+2, -781575.9, -813389.25, -35961.617, 0.0025814124, -0.26292822, -758160.06, -124753.72, 0.0, 9.999465, 9.999045 
1.9050147e+3, 2.4536343e+2, -746176.6, -673024.75, -27678.223, 0.0072206473, -0.25836232, -663732.56, -128319.59, 0.0, 9.998724, 9.999693 
1.9049765e+3, 2.5536308e+2, -742844.56, -624100.4, -25133.164, 0.0014533959, -0.25783277, -618999.9, -181583.56, 0.0, 9.998089, 9.999661 
1.904939e+3, 2.6536298e+2, -733025.25, -496069.9, -18842.123, 0.04606651, -0.25660998, -494581.0, -155163.69, 0.0, 9.997171, 10.000309 
1.9049016e+3, 2.7536336e+2, -806489.4, -481798.8, -18159.77, 0.10506999, -0.24870661, -480786.3, -239372.3, 0.0, 9.995999, 10.0002985 
1.9048631e+3, 2.8536394e+2, -774071.6, -318781.56, -4941.5073, 0.04049655, -0.2508729, -318727.94, -175320.4, 0.0, 9.995134, 10.001162 
1.9048245e+3, 2.9536465e+2, -770932.4, -287641.25, -8316.685, -0.04309483, -0.29302236, -287498.2, -242098.28, 0.0, 9.994574, 10.000973 
1.9047901e+3, 3.0536556e+2, -800822.56, -264847.72, 74252.97, 0.17245504, -0.28560653, -254751.05, -254751.05, 0.0, 9.993978, 10.001085 
1.9047536e+3, 3.153667e+2, -755521.0, 69942.086, -56193.387, 0.093898, -0.2882129, 73749.88, 73749.88, 0.0, 9.992954, 10.003869 
1.9154808e+3, 1.254292e+2, -985644.56, -1754845.0, 43439.91, 0.042407423, -0.28363183, -983199.1, 727566.1, 0.12988885, 10.007668, 9.996032 
1.9154407e+3, 1.3542531e+2, -830795.2, -1639023.6, -48393.23, -0.12740566, -0.2819483, -827907.9, 784894.6, 0.0898734, 10.007812, 9.996091 
1.915403e+3, 1.454207e+2, -766444.2, -1518320.6, -64569.508, 0.0144711025, -0.36672023, -760939.44, 753908.4, 0.050999817, 10.007083, 9.996593 
1.9153637e+3, 1.5541795e+2, -866750.5, -1534787.8, -45857.047, -0.018103283, -0.2961677, -863617.4, 553258.4, 0.021572744, 10.005554, 9.996542 
1.9153248e+3, 1.6541506e+2, -833364.7, -1401737.3, -26012.67, -0.036925577, -0.26036915, -832176.6, 486728.03, 0.005715049, 10.004739, 9.997175 
1.9152865e+3, 1.754121e+2, -760109.06, -1320848.6, -26625.635, -0.043445338, -0.27020288, -758847.7, 462086.53, 0.00058369694, 10.004569, 9.99714 
1.9152476e+3, 1.8540941e+2, -726937.2, -1194506.4, -68220.79, -0.041637063, -0.27150035, -717186.75, 405774.75, 0.0000021934447, 10.003863, 9.997675 
1.9152083e+3, 1.9540711e+2, -801865.06, -1182402.1, -69664.43, -0.03305664, -0.2643367, -789512.6, 235472.52, 0.0, 10.0026865, 9.997653 
1.915169e+3, 2.0540525e+2, -771376.25, -1013685.56, -61439.83, -0.022677567, -0.25311494, -756687.94, 170315.7, 0.0, 10.001778, 9.998576 
1.9151302e+3, 2.1540385e+2, -773159.56, -967522.1, -62990.027, -0.010639575, -0.24672632, -754530.9, 74485.91, 0.0, 10.001109, 9.998542 
1.9150911e+3, 2.2540247e+2, -753429.0, -851885.1, -65212.066, -0.008154124, -0.25306994, -720950.1, 10079.723, 0.0, 10.000334, 9.999037 
1.915052e+3, 2.3540126e+2, -783474.0, -818420.06, -66663.84, -0.017527407, -0.27359104, -732031.3, -98989.72, 0.0, 9.999467, 9.999012 
1.9150132e+3, 2.4540053e+2, -737732.94, -657113.0, -50326.16, -0.0048147202, -0.27859867, -632943.4, -97894.83, 0.0, 9.998728, 9.999802 
1.9149749e+3, 2.554003e+2, -734381.4, -609113.75, -48245.59, 0.035903193, -0.27571687, -592686.6, -155636.31, 0.0, 9.998096, 9.999763 
1.9149362e+3, 2.6540038e+2, -726591.25, -484412.7, -62177.492, 0.056197785, -0.2659354, -469381.97, -130332.63, 0.0, 9.997175, 10.000389 
1.9148967e+3, 2.7540085e+2, -799639.4, -469252.63, -60702.79, 0.03039444, -0.25410515, -458452.6, -217408.11, 0.0, 9.996002, 10.000385 
1.9148579e+3, 2.8540134e+2, -776044.25, -324741.13, -25117.066, 0.00882487, -0.2731099, -323347.53, -180307.4, 0.0, 9.995139, 10.00112 
1.9148204e+3, 2.954018e+2, -775455.2, -302379.56, -23713.238, 0.07486333, -0.33079115, -301193.9, -256157.66, 0.0, 9.994593, 10.000864 
1.9147837e+3, 3.054041e+2, -748215.7, -159725.88, 44451.49, 0.14178798, -0.21810968, -156387.19, -156387.19, 0.0, 9.993991, 10.001802 
1.9147457e+3, 3.1540558e+2, -757541.0, 68839.37, -131065.76, 0.026669107, -0.26322022, 89128.555, 89128.555, 0.0, 9.992939, 10.00387 
1.9254889e+3, 1.254669e+2, -887813.8, -1685302.0, 67475.91, 0.050929077, -0.2992026, -882144.94, 828251.0, 0.13599132, 10.008421, 9.996168 
1.9254482e+3, 1.3546361e+2, -960043.56, -1675516.1, -17587.787, -0.103939556, -0.26457536, -959611.5, 652815.6, 0.09439821, 10.006733, 9.996357 
1.9254091e+3, 1.454591e+2, -907638.44, -1583996.3, -24165.479, -0.0036548176, -0.35223746, -906776.2, 607694.94, 0.053849053, 10.006058, 9.996634 
1.9253695e+3, 1.5545608e+2, -772826.75, -1484868.6, -13669.679, -0.017433088, -0.31145325, -772564.44, 643937.25, 0.022995453, 10.006208, 9.996568 
1.92533e+3, 1.654532e+2, -720586.9, -1347260.4, -2778.7039, -0.028460566, -0.27676868, -720574.56, 597956.2, 0.0062141586, 10.005526, 9.997169 
1.9252907e+3, 1.7545047e+2, -823477.8, -1351837.9, -6834.8926, -0.046223037, -0.26196787, -823389.4, 397168.75, 0.00066706445, 10.004139, 9.997133 
1.925251e+3, 1.8544777e+2, -800789.6, -1225905.4, -42839.38, -0.04543228, -0.26326013, -796515.6, 326069.47, 0.000002911813, 10.003342, 9.997709 
1.9252111e+3, 1.9544528e+2, -747685.8, -1153308.6, -37803.29, -0.026053349, -0.278137, -744192.75, 280417.38, 0.0, 10.003049, 9.997676 
1.9251712e+3, 2.0544332e+2, -701329.25, -988130.7, -33550.164, -0.014492709, -0.27162313, -697456.8, 229172.58, 0.0, 10.002298, 9.998499 
1.9251312e+3, 2.1544196e+2, -770865.75, -974688.5, -38702.97, -0.010656998, -0.25418806, -763764.06, 64878.758, 0.0, 10.0011635, 9.998465 
1.9250913e+3, 2.2544059e+2, -758654.06, -849469.94, -33706.516, -0.008409045, -0.25757435, -747511.06, -16855.215, 0.0, 10.000279, 9.999078 
1.9250514e+3, 2.3543936e+2, -760388.94, -802692.8, -29779.145, -0.01043337, -0.28383794, -745014.1, -112346.76, 0.0, 9.999608, 9.99905 
1.9250119e+3, 2.4543864e+2, -742342.9, -654174.6, -17782.045, 0.001425412, -0.29249945, -650723.4, -116049.19, 0.0, 9.998676, 9.999845 
1.9249727e+3, 2.5543845e+2, -815005.4, -643103.94, -21615.582, 0.033571485, -0.287521, -640427.6, -203752.14, 0.0, 9.997525, 9.999803 
1.924933e+3, 2.654386e+2, -778561.8, -503740.94, -33991.35, 0.04080687, -0.27474695, -499599.13, -160925.31, 0.0, 9.9967985, 10.000436 
1.9248927e+3, 2.7543908e+2, -734669.25, -432014.4, -36621.41, 0.0029600698, -0.26677144, -427646.25, -186977.33, 0.0, 9.996427, 10.000435 
1.9248532e+3, 2.8543958e+2, -715556.56, -285365.7, -4920.879, 0.012271506, -0.2915668, -285309.4, -142644.69, 0.0, 9.995514, 10.001208 
1.9248152e+3, 2.954403e+2, -837391.3, -321704.63, 10095.016, 0.13552877, -0.33546418, -321507.1, -276847.97, 0.0, 9.994127, 10.000954 
1.9247764e+3, 3.05443e+2, -815734.44, -141238.86, 88785.67, 0.062294796, -0.20486219, -129747.54, -129747.54, 0.0, 9.993312, 10.0022545 
1.9247389e+3, 3.154444e+2, -791532.2, 25112.992, -121305.016, 0.062715046, -0.30374593, 42750.78, 42750.78, 0.0, 9.992827, 10.003622 
1.9354966e+3, 1.2550525e+2, -882927.44, -1656635.9, 15653.418, -0.016834538, -0.31743076, -882610.9, 827409.2, 0.14206427, 10.008383, 9.996418 
1.9354555e+3, 1.3550279e+2, -934216.25, -1616038.9, -70074.49, -0.0322152, -0.24128196, -927088.8, 684954.3, 0.09894532, 10.006761, 9.996758 
1.9354156e+3, 1.4549854e+2, -909200.3, -1591632.4, -17713.861, 0.03480849, -0.3196345, -908740.8, 605343.75, 0.05674442, 10.006089, 9.996567 
1.9353752e+3, 1.5549518e+2, -780998.7, -1497108.1, -9025.871, -0.04872595, -0.30665973, -780884.94, 635233.44, 0.02445842, 10.006192, 9.996493 
1.9353352e+3, 1.654921e+2, -726980.44, -1356921.4, -53624.2, -0.062311493, -0.28475657, -722448.25, 595701.1, 0.0067374445, 10.005508, 9.997113 
1.9352949e+3, 1.7548928e+2, -824685.3, -1358189.6, -55690.12, -0.032884587, -0.27363324, -818934.06, 401243.8, 0.0007594623, 10.004153, 9.997085 
1.9352545e+3, 1.8548661e+2, -790088.1, -1207664.9, -52692.582, -0.020332493, -0.27419567, -783541.7, 338662.34, 0.0000041218373, 10.003356, 9.997829 
1.9352141e+3, 1.954843e+2, -740320.6, -1137281.1, -48449.906, -0.017574068, -0.28502545, -734492.8, 289733.8, 0.0, 10.003043, 9.99779 
1.9351733e+3, 2.0548232e+2, -711713.9, -1008341.9, -74986.97, -0.026637085, -0.2811753, -693835.0, 232411.34, 0.0, 10.002289, 9.998366 
1.935132e+3, 2.1548074e+2, -779443.6, -992893.75, -78578.66, -0.046440125, -0.26999012, -753636.25, 74626.125, 0.0, 10.001163, 9.9983425 
1.9350913e+3, 2.2547938e+2, -750026.6, -833074.7, -57687.426, -0.027172225, -0.27273548, -720472.6, 9802.678, 0.0, 10.000283, 9.99919 
1.9350512e+3, 2.3547831e+2, -752239.9, -787221.06, -54021.703, 0.022090113, -0.2934232, -712947.9, -80663.445, 0.0, 9.999611, 9.999157 
1.9350106e+3, 2.4547763e+2, -744639.9, -660517.4, -60157.97, 0.023992013, -0.29950944, -629174.75, -94884.14, 0.0, 9.998679, 9.999802 
1.9349696e+3, 2.5547743e+2, -816296.8, -647682.9, -62533.12, -0.0075657796, -0.2946128, -627022.9, -190730.27, 0.0, 9.99753, 9.999771 
1.9349292e+3, 2.6547754e+2, -777276.8, -502975.63, -46876.12, -0.00057577266, -0.28507996, -495186.03, -156894.3, 0.0, 9.996803, 10.000441 
1.9348891e+3, 2.7547792e+2, -733159.06, -432323.47, -50457.203, 0.020306898, -0.2868086, -424086.16, -183797.97, 0.0, 9.996438, 10.000429 
1.934849e+3, 2.8547856e+2, -698066.44, -253229.69, -56991.79, 0.04791588, -0.3046362, -246044.06, -103762.055, 0.0, 9.995527, 10.001425 
1.9348092e+3, 2.9547992e+2, -814129.9, -278620.4, -38248.504, 0.13454986, -0.30467087, -275902.34, -231633.33, 0.0, 9.994144, 10.001245 
1.9347684e+3, 3.0548212e+2, -800233.94, -110318.11, 75330.58, -0.0701439, -0.25632298, -102188.7, -102188.7, 0.0, 9.993315, 10.002466 
1.9347323e+3, 3.154844e+2, -816657.44, -32369.63, -88536.89, 0.12367733, -0.27992243, -22499.078, -22499.078, 0.0, 9.992845, 10.003222 
1.9455044e+3, 1.2554513e+2, -988540.7, -1739197.0, 70551.984, -0.030133126, -0.32533613, -981967.25, 727660.75, 0.14806238, 10.007727, 9.996114 
1.945463e+3, 1.3554242e+2, -833980.25, -1579639.3, -44734.137, 0.007792352, -0.2566057, -831306.1, 780348.94, 0.1034753, 10.007627, 9.996609 
1.945422e+3, 1.4553834e+2, -788415.2, -1519689.8, 5704.705, 0.03707043, -0.31532225, -788370.7, 725324.44, 0.059659157, 10.006949, 9.996644 
1.9453812e+3, 1.5553507e+2, -845292.6, -1520174.3, 21193.75, -0.057957333, -0.2996005, -844627.7, 571099.6, 0.025948646, 10.005714, 9.996563 
1.9453402e+3, 1.6553195e+2, -807094.4, -1397412.0, -25151.662, -0.06618753, -0.28170425, -806024.7, 511733.72, 0.007280604, 10.00497, 9.997091 
1.9452994e+3, 1.7552902e+2, -753848.1, -1325796.6, -25438.502, -0.023673711, -0.27827772, -752718.94, 467069.3, 0.00086072, 10.004652, 9.997065 
1.9452582e+3, 1.8552636e+2, -716840.56, -1166333.6, -22482.082, -0.013831108, -0.2830028, -715718.9, 406095.7, 0.0000060577904, 10.003837, 9.997879 
1.9452168e+3, 1.9552405e+2, -800000.75, -1160344.3, -24847.031, -0.025595913, -0.2950995, -798295.5, 225540.81, 0.0, 10.002612, 9.997838 
1.9451751e+3, 2.0552212e+2, -785295.7, -1042331.56, -49768.93, -0.0328227, -0.2876943, -775995.56, 149859.92, 0.0, 10.0017805, 9.998376 
1.945133e+3, 2.1552062e+2, -762909.44, -984090.6, -44325.816, -0.03861139, -0.2695245, -754357.0, 73514.33, 0.0, 10.001275, 9.998347 
1.9450916e+3, 2.2551927e+2, -730731.44, -826043.0, -27265.7, -0.021208579, -0.26996517, -723482.8, 6401.4277, 0.0, 10.000429, 9.9991665 
1.9450505e+3, 2.3551816e+2, -798582.25, -811626.56, -34675.0, 0.01509373, -0.2919129, -769821.4, -137927.67, 0.0, 9.999306, 9.999134 
1.9450091e+3, 2.455174e+2, -775212.3, -675179.56, -42577.87, 0.017005974, -0.30268267, -659511.0, -125610.62, 0.0, 9.998474, 9.999798 
1.9449674e+3, 2.5551713e+2, -764885.6, -622509.4, -42380.254, -0.00689974, -0.30557418, -610849.25, -174946.05, 0.0, 9.997884, 9.999771 
1.9449261e+3, 2.6551726e+2, -745379.2, -474324.88, -18196.014, -0.0053429455, -0.29677045, -473108.8, -135207.08, 0.0, 9.996968, 10.000556 
1.9448851e+3, 2.755178e+2, -823910.44, -464560.13, -14270.775, 0.0077922917, -0.2954001, -463994.28, -224097.45, 0.0, 9.99577, 10.000527 
1.9448443e+3, 2.8551856e+2, -764670.2, -289502.53, -28554.633, 0.051477436, -0.3045617, -287792.72, -145903.02, 0.0, 9.995092, 10.001383 
1.9448039e+3, 2.955201e+2, -708571.2, -219179.14, -29936.49, 0.1522908, -0.27949405, -217354.7, -173479.97, 0.0, 9.994837, 10.001316 
1.9447613e+3, 3.0552188e+2, -740690.44, -70990.04, 58729.766, -0.12668377, -0.28441003, -65878.71, -65878.71, 0.0, 9.993684, 10.002556 
1.944725e+3, 3.1552497e+2, -968578.75, -110254.445, -51001.273, 0.17677653, -0.2278522, -107234.6, -107234.6, 0.0, 9.991827, 10.003176 
1.9555123e+3, 1.2558629e+2, -1035683.7, -1850947.1, 60896.055, -0.008904986, -0.32883856, -1031160.1, 678061.94, 0.15401207, 10.007761, 9.99533 
1.9554706e+3, 1.3558248e+2, -875679.44, -1665782.3, -47605.69, 0.01832608, -0.30333775, -872821.4, 738441.5, 0.10799254, 10.00763, 9.995995 
1.9554286e+3, 1.455785e+2, -778783.94, -1495431.5, -35450.42, 0.007116499, -0.3326787, -777034.56, 736268.06, 0.06258742, 10.006949, 9.996821 
1.9553867e+3, 1.5557566e+2, -832861.5, -1494732.8, -21358.969, -0.049824867, -0.29016033, -832172.94, 583156.06, 0.027460413, 10.005725, 9.996734 
1.9553453e+3, 1.6557267e+2, -806263.5, -1397348.9, -36222.688, -0.0460964, -0.26944914, -804052.0, 513306.7, 0.007840549, 10.004976, 9.997091 
1.955304e+3, 1.7556962e+2, -755410.25, -1327212.8, -37530.383, -0.019623434, -0.27694455, -752957.5, 466432.63, 0.00097015913, 10.004642, 9.997062 
1.9552617e+3, 1.8556686e+2, -720388.25, -1172236.5, -66980.31, -0.026457539, -0.289312, -710668.44, 410749.06, 0.000008849475, 10.003826, 9.997846 
1.955219e+3, 1.9556446e+2, -800782.9, -1164203.1, -67583.54, -0.050609976, -0.30673373, -788621.6, 234818.3, 0.0, 10.002619, 9.99781 
1.9551767e+3, 2.0556268e+2, -775108.75, -1024127.7, -67393.19, -0.03429526, -0.29080948, -758039.8, 167417.97, 0.0, 10.00179, 9.998498 
1.9551347e+3, 2.155615e+2, -754999.7, -968366.2, -62687.86, 0.009714841, -0.25422361, -737945.0, 89525.61, 0.0, 10.001275, 9.998457 
1.9550923e+3, 2.2556013e+2, -742491.94, -851151.56, -68361.46, 0.0065869894, -0.2506702, -709500.4, 19983.408, 0.0, 10.000428, 9.998997 
1.9550493e+3, 2.355588e+2, -809223.7, -834797.3, -74337.73, -0.032631528, -0.27928755, -746581.06, -115085.03, 0.0, 9.999307, 9.998977 
1.955007e+3, 2.4555786e+2, -773014.3, -672413.1, -63615.855, -0.019853283, -0.30195692, -641614.25, -108109.836, 0.0, 9.998479, 9.999816 
1.9549654e+3, 2.5555745e+2, -761937.5, -618895.5, -64151.17, 0.03366192, -0.31943122, -594340.4, -158832.45, 0.0, 9.997891, 9.999794 
1.9549233e+3, 2.6555774e+2, -729619.9, -443663.03, -62835.574, 0.024402715, -0.30855924, -430464.84, -92960.23, 0.0, 9.996973, 10.000767 
1.9548804e+3, 2.755586e+2, -809940.0, -438417.75, -56883.395, -0.037435327, -0.29529747, -429903.5, -190407.47, 0.0, 9.995778, 10.000706 
1.954839e+3, 2.855594e+2, -785694.8, -336440.97, -37945.156, 0.020566497, -0.2919907, -333258.56, -191769.55, 0.0, 9.995104, 10.001058 
1.954799e+3, 2.9556075e+2, -717954.9, -245024.44, -41408.28, 0.18393616, -0.2552739, -241426.23, -197949.03, 0.0, 9.99486, 10.00113 
1.9547552e+3, 3.055621e+2, -745036.7, -82615.64, -16108.947, -0.099591464, -0.29500988, -82224.13, -82224.13, 0.0, 9.993692, 10.002473 
1.9547163e+3, 3.1556416e+2, -926206.75, -29955.727, -36435.26, 0.11950488, -0.32468367, -28476.965, -28476.965, 0.0, 9.99185, 10.003721 
1.9655207e+3, 1.2562792e+2, -958601.6, -1816977.5, 60327.87, 0.026720421, -0.31954038, -954382.44, 754431.75, 0.15997742, 10.008487, 9.995213 
1.965478e+3, 1.3562387e+2, -873654.25, -1671392.3, -5825.164, 0.0018590761, -0.30787057, -873611.75, 737246.06, 0.11253714, 10.007719, 9.995909 
1.965435e+3, 1.4562005e+2, -784877.44, -1497012.4, -1555.6957, -0.037557792, -0.3167832, -784874.06, 728021.9, 0.065546274, 10.006928, 9.996815 
1.9653928e+3, 1.5561698e+2, -787753.06, -1472689.5, -879.99133, -0.019962294, -0.2944057, -787751.94, 627172.0, 0.028996196, 10.006057, 9.996723 
1.9653507e+3, 1.6561393e+2, -781680.56, -1382930.3, -6503.0103, -0.006140884, -0.28008923, -781610.25, 535343.8, 0.008414881, 10.005141, 9.997108 
1.9653082e+3, 1.7561096e+2, -818475.06, -1354572.9, -8240.336, -0.026081778, -0.28093764, -818348.44, 400636.34, 0.00108632, 10.0042, 9.997084 
1.9652651e+3, 1.8560828e+2, -766558.06, -1188755.8, -41783.035, -0.044649526, -0.28882805, -762462.75, 358548.78, 0.000012483877, 10.00349, 9.997891 
1.9652218e+3, 1.9560595e+2, -747791.2, -1133855.6, -37611.848, -0.050966308, -0.30368206, -744161.0, 278872.47, 0.0, 10.002966, 9.9978485 
1.9651787e+3, 2.0560418e+2, -726117.8, -1000665.94, -37661.46, -0.029296676, -0.28571674, -721045.3, 204005.77, 0.0, 10.002131, 9.998492 
1.965136e+3, 2.1560298e+2, -787976.6, -984359.5, -43753.44, 0.009617879, -0.248367, -778669.6, 48394.375, 0.0, 10.001053, 9.998451 
1.9650924e+3, 2.2560161e+2, -772390.44, -864016.25, -48776.23, 0.0035113117, -0.2482324, -751285.9, -22208.426, 0.0, 10.00022, 9.999006 
1.9650486e+3, 2.356002e+2, -767880.75, -813595.1, -42691.45, -0.036970392, -0.2826282, -742312.6, -111222.44, 0.0, 9.999588, 9.998984 
1.9650055e+3, 2.4559928e+2, -742932.06, -654604.44, -25251.865, -0.022111936, -0.3042924, -647894.94, -114796.664, 0.0, 9.998673, 9.999843 
1.9649631e+3, 2.5559896e+2, -813836.0, -640459.6, -26478.482, 0.03630456, -0.31613898, -636505.94, -201404.98, 0.0, 9.997526, 9.999819 
1.9649199e+3, 2.6559922e+2, -774757.1, -469223.8, -36130.418, 0.026954412, -0.30743182, -465009.38, -127911.414, 0.0, 9.996685, 10.000727 
1.9648762e+3, 2.7559996e+2, -769656.5, -423324.03, -49269.83, -0.03471349, -0.29825902, -416451.2, -177360.9, 0.0, 9.9960785, 10.000662 
1.964834e+3, 2.8560072e+2, -772693.3, -337803.72, -18426.736, 0.020190597, -0.29404917, -337024.34, -195940.52, 0.0, 9.995229, 10.000985 
1.964793e+3, 2.956019e+2, -816295.6, -291664.2, -4376.599, 0.16360241, -0.26652056, -291627.7, -248554.06, 0.0, 9.994187, 10.001131 
1.964749e+3, 3.0560338e+2, -815778.5, -123741.164, -4058.5647, -0.06526515, -0.29176825, -123717.36, -123717.36, 0.0, 9.993242, 10.002405 
1.964708e+3, 3.1560534e+2, -832098.25, 31345.781, 36586.684, 0.08570832, -0.31614164, 32893.293, 32893.293, 0.0, 9.992429, 10.003863 
1.9755295e+3, 1.2566996e+2, -936211.5, -1751757.8, 23867.457, 0.070683815, -0.30502367, -935513.6, 772890.56, 0.1660233, 10.008501, 9.995652 
1.9754852e+3, 1.3566646e+2, -858299.7, -1622673.8, -29597.135, -0.041613046, -0.27606386, -857155.4, 753285.44, 0.11715405, 10.007701, 9.996254 
1.9754413e+3, 1.4566284e+2, -801396.6, -1525556.3, -29903.271, -0.0986493, -0.27175352, -800163.9, 712312.56, 0.06855827, 10.006916, 9.996621 
1.9753993e+3, 1.5565898e+2, -799548.7, -1499169.5, -30913.242, 0.027615188, -0.31035718, -798185.44, 616327.1, 0.030561777, 10.006068, 9.996538 
1.9753563e+3, 1.656557e+2, -778835.8, -1380341.8, -40658.926, 0.048868623, -0.30977088, -776099.9, 540444.9, 0.009002148, 10.005155, 9.997123 
1.9753121e+3, 1.7565297e+2, -816147.7, -1351532.5, -40850.04, -0.04393757, -0.2887699, -813048.75, 405524.13, 0.001207322, 10.004205, 9.997104 
1.9752683e+3, 1.8565048e+2, -759040.3, -1173726.9, -59748.17, -0.06901247, -0.28193188, -750603.44, 369994.13, 0.00001676515, 10.0034895, 9.997997 
1.9752249e+3, 1.9564836e+2, -742060.0, -1121223.8, -56779.32, -0.029729169, -0.28764564, -733739.94, 288878.16, 0.0, 10.00296, 9.99794 
1.9751808e+3, 2.0564651e+2, -736317.7, -1022018.56, -76756.1, -0.020187562, -0.27388585, -717002.3, 207634.23, 0.0, 10.002128, 9.99835 
1.9751364e+3, 2.1564503e+2, -796158.7, -1002704.3, -81052.195, -0.038412858, -0.2506195, -768150.4, 58501.77, 0.0, 10.001055, 9.998327 
1.9750923e+3, 2.2564359e+2, -759889.0, -840215.6, -70925.516, -0.030010182, -0.2610824, -718544.56, 10121.427, 0.0, 10.000226, 9.999168 
1.9750485e+3, 2.3564227e+2, -756492.9, -791744.7, -65721.96, -0.00004227631, -0.3019572, -706074.3, -75397.24, 0.0, 9.999593, 9.999134 
1.9750045e+3, 2.4564159e+2, -740828.4, -652029.4, -67799.21, 0.007983071, -0.30927473, -615385.4, -82702.5, 0.0, 9.998677, 9.999861 
1.9749603e+3, 2.5564152e+2, -812813.1, -640614.4, -67686.43, -0.0021192892, -0.29587474, -617194.06, -182510.83, 0.0, 9.997532, 9.999818 
1.9749163e+3, 2.6564154e+2, -795218.56, -514305.25, -58832.39, 0.0008707979, -0.29385647, -502481.5, -165798.45, 0.0, 9.996694, 10.000415 
1.9748726e+3, 2.756418e+2, -787759.3, -464815.3, -72753.0, 0.016818443, -0.3046429, -449182.25, -210501.36, 0.0, 9.996091, 10.000373 
1.9748294e+3, 2.8564236e+2, -758513.0, -311139.0, -58545.95, 0.048070658, -0.31150463, -303604.25, -162928.77, 0.0, 9.995236, 10.001167 
1.9747864e+3, 2.956434e+2, -801923.56, -265896.16, -42683.297, 0.07985546, -0.31891933, -262518.6, -219852.92, 0.0, 9.9942, 10.001305 
1.9747426e+3, 3.0564567e+2, -822911.4, -142197.19, -39980.18, -0.01669775, -0.2696171, -139857.1, -139857.1, 0.0, 9.993256, 10.002274 
1.9747002e+3, 3.1564757e+2, -865742.06, -48476.223, 10872.404, 0.07465097, -0.27982923, -48331.605, -48331.605, 0.0, 9.992465, 10.003301 
1.9855376e+3, 1.2571305e+2, -910886.94, -1708554.6, 42415.69, 0.024648543, -0.29083103, -908637.9, 799345.44, 0.1721902, 10.008653, 9.995875 
1.9854932e+3, 1.3570957e+2, -879385.1, -1625004.4, -14102.812, -0.0037238596, -0.2680782, -879118.44, 730900.44, 0.12186389, 10.007539, 9.996314 
1.9854483e+3, 1.457061e+2, -816337.1, -1534513.6, -6473.4814, -0.07706558, -0.2485827, -816278.8, 695774.0, 0.07163117, 10.006835, 9.996597 
1.9854052e+3, 1.5570198e+2, -767178.5, -1483272.4, 995.9454, 0.0077778315, -0.3098643, -767177.06, 646914.75, 0.03215903, 10.006314, 9.996526 
1.9853613e+3, 1.6569866e+2, -731220.06, -1345051.8, -12155.495, 0.031247498, -0.31733784, -730979.44, 585144.7, 0.009601614, 10.005444, 9.997221 
1.9853164e+3, 1.7569607e+2, -792491.7, -1329924.3, -6708.849, -0.029438876, -0.29105455, -792407.94, 425742.1, 0.0013315786, 10.004329, 9.99719 
1.9852719e+3, 1.8569364e+2, -779892.94, -1188786.3, -16854.178, -0.04932998, -0.28041616, -779199.4, 340974.97, 0.000021371021, 10.003371, 9.997949 
1.9852275e+3, 1.9569147e+2, -806257.8, -1156161.8, -25935.436, -0.025045415, -0.28463373, -804345.94, 217849.88, 0.0, 10.00254, 9.997901 
1.9851826e+3, 2.0568956e+2, -767235.06, -1029331.25, -46604.133, -0.026465615, -0.27773583, -759194.9, 165019.86, 0.0, 10.001887, 9.998413 
1.9851373e+3, 2.15688e+2, -746157.5, -971394.56, -37751.758, -0.053018145, -0.2674383, -739998.4, 86232.13, 0.0, 10.001371, 9.998387 
1.9850925e+3, 2.2568658e+2, -715519.9, -813238.56, -28979.813, -0.042522706, -0.27840468, -707572.0, 20671.762, 0.0, 10.000509, 9.999215 
1.9850479e+3, 2.3568541e+2, -784630.94, -799625.75, -32637.209, -0.000715956, -0.309828, -758641.06, -128387.45, 0.0, 9.999379, 9.99918 
1.9850029e+3, 2.456848e+2, -775276.4, -667973.3, -41906.2, 0.0075047603, -0.31157857, -653546.8, -121288.06, 0.0, 9.998445, 9.999861 
1.9849575e+3, 2.5568473e+2, -794206.44, -632164.75, -42589.84, -0.012942539, -0.29763117, -621652.7, -187393.44, 0.0, 9.997665, 9.999809 
1.9849129e+3, 2.6568463e+2, -775450.6, -516480.25, -16560.676, -0.0030245446, -0.29994833, -515425.5, -179165.17, 0.0, 9.996882, 10.000307 
1.984869e+3, 2.7568474e+2, -797473.5, -480284.1, -17440.67, 0.03674415, -0.3118733, -479328.0, -241068.25, 0.0, 9.996077, 10.00027 
1.9848245e+3, 2.8568536e+2, -766672.06, -314376.72, -14903.173, 0.05000425, -0.31133038, -313886.2, -173632.06, 0.0, 9.995183, 10.001167 
1.98478e+3, 2.9568633e+2, -806061.2, -272322.25, -13823.923, 0.028899493, -0.32229668, -271964.47, -229719.92, 0.0, 9.994197, 10.001259 
1.984736e+3, 3.0568838e+2, -828327.44, -149182.7, -13454.28, 0.01817493, -0.2858371, -148916.28, -148916.28, 0.0, 9.993239, 10.002232 
1.984692e+3, 3.1569007e+2, -893724.8, -76863.51, 29087.434, 0.028343184, -0.3233997, -75829.05, -75829.05, 0.0, 9.992341, 10.003162 
1.9955449e+3, 1.2575708e+2, -920116.6, -1711638.5, -5687.9873, -0.10372461, -0.27925578, -920075.75, 787476.94, 0.1784836, 10.008628, 9.995865 
1.9955015e+3, 1.3575315e+2, -893678.7, -1655332.3, -44935.953, 0.10052338, -0.27823624, -891036.75, 718555.4, 0.1266637, 10.007561, 9.9960985 
1.9954558e+3, 1.4574982e+2, -808177.75, -1516881.6, -21622.967, 0.011458284, -0.24168995, -807518.6, 704106.4, 0.07476131, 10.006855, 9.996711 
1.9954106e+3, 1.5574591e+2, -761762.2, -1465828.3, -17921.371, -0.07275771, -0.29495364, -761306.3, 652356.25, 0.033786923, 10.006295, 9.996656 
1.9953659e+3, 1.657427e+2, -723920.5, -1325267.3, -52033.383, -0.05072701, -0.3056809, -719451.4, 596242.0, 0.010213246, 10.005424, 9.997369 
1.995321e+3, 1.7574015e+2, -783065.44, -1312074.1, -45737.246, 0.013380445, -0.288415, -779140.2, 438577.3, 0.0014584305, 10.0043335, 9.9973135 
1.9952756e+3, 1.8573761e+2, -791955.9, -1217351.8, -46543.03, 0.0075224005, -0.283987, -786923.1, 332819.66, 0.000025977683, 10.003383, 9.997749 
1.9952299e+3, 1.9573519e+2, -816814.1, -1180814.4, -53847.84, -0.03734557, -0.2930153, -809015.3, 212752.06, 0.0, 10.002548, 9.997729 
1.9951843e+3, 2.0573324e+2, -749985.0, -995590.8, -64041.953, -0.047630526, -0.29555127, -734289.1, 189497.44, 0.0, 10.001892, 9.998645 
1.9951387e+3, 2.157318e+2, -731514.94, -941314.4, -56602.39, -0.037446633, -0.29776204, -717218.25, 108581.89, 0.0, 10.001369, 9.998597 
1.995093e+3, 2.2573051e+2, -720106.25, -823455.0, -70336.84, -0.036734678, -0.2999932, -684502.25, 43309.613, 0.0, 10.000508, 9.999147 
1.9950467e+3, 2.3572952e+2, -788881.5, -809819.56, -72681.67, -0.04003322, -0.30625242, -725918.75, -96098.086, 0.0, 9.999381, 9.999111 
1.995001e+3, 2.4572882e+2, -777025.8, -673730.94, -70529.54, -0.024462443, -0.3116195, -637960.56, -106133.66, 0.0, 9.998449, 9.99982 
1.9949554e+3, 2.5572845e+2, -794538.06, -636122.7, -70629.9, 0.0022440702, -0.32309687, -609205.75, -175375.66, 0.0, 9.997676, 9.999779 
1.99491e+3, 2.6572838e+2, -768223.94, -504690.78, -46853.37, 0.014735923, -0.32533488, -496608.6, -160777.83, 0.0, 9.996892, 10.000385 
1.9948648e+3, 2.7572876e+2, -791126.94, -472500.47, -47668.68, 0.020360876, -0.3189324, -465521.75, -227694.0, 0.0, 9.996096, 10.000317 
1.9948193e+3, 2.8572953e+2, -778986.0, -343756.34, -52670.7, 0.021535162, -0.29347163, -337472.94, -197651.89, 0.0, 9.995197, 10.00096 
1.9947739e+3, 2.9573056e+2, -824607.5, -314377.63, -52364.11, 0.00992321, -0.27892, -309059.0, -267247.25, 0.0, 9.994208, 10.000966 
1.9947293e+3, 3.0573148e+2, -822094.94, -140278.92, -48210.188, 0.03605066, -0.3394817, -136886.92, -136886.92, 0.0, 9.993253, 10.00229 
1.9946846e+3, 3.1573442e+2, -881756.8, -53688.72, -69740.9, 0.06793101, -0.27025464, -47856.14, -47856.14, 0.0, 9.992349, 10.003317 
2.0055534e+3, 1.2580194e+2, -915178.44, -1682537.9, 10491.451, -0.11014616, -0.28612244, -915035.0, 792078.5, 0.18490826, 10.008601, 9.996114 
2.0055093e+3, 1.3579793e+2, -849385.9, -1628023.1, 3327.3015, 0.09361454, -0.29236123, -849371.7, 759781.0, 0.13155921, 10.007946, 9.996096 
2.0054626e+3, 1.4579463e+2, -786801.6, -1507835.1, 28706.793, 0.0069827894, -0.24675508, -785660.56, 725524.7, 0.07795428, 10.007055, 9.996673 
2.0054168e+3, 1.5579091e+2, -821150.1, -1497469.0, 20774.33, -0.062495816, -0.2782796, -820512.6, 592709.6, 0.035448506, 10.005895, 9.996631 
2.0053712e+3, 1.6578774e+2, -773090.2, -1339206.0, -18233.469, -0.04290854, -0.28820702, -772503.5, 542749.3, 0.010838004, 10.005045, 9.997454 
2.0053253e+3, 1.7578511e+2, -761279.1, -1292052.6, -17134.701, 0.007950894, -0.28693023, -760726.56, 456550.7, 0.0015880833, 10.004447, 9.997394 
2.005279e+3, 1.8578254e+2, -741753.25, -1187663.3, -10489.675, 0.0028207125, -0.29006562, -741506.6, 377795.7, 0.00003035943, 10.003709, 9.997793 
2.0052326e+3, 1.9578016e+2, -768946.3, -1152872.1, -1458.1572, -0.03235147, -0.29926094, -768940.8, 252385.55, 0.0, 10.002861, 9.997768 
2.0051862e+3, 2.0577823e+2, -743409.75, -991114.6, -10318.767, -0.04024082, -0.30040392, -742980.6, 180364.48, 0.0, 10.001936, 9.998652 
2.0051397e+3, 2.1577679e+2, -791224.4, -969001.25, -20287.672, -0.032177266, -0.30117178, -788938.56, 36420.13, 0.0, 10.0009575, 9.998604 
2.0050931e+3, 2.2577551e+2, -770198.94, -845696.9, -42264.246, -0.035545446, -0.3028113, -751280.0, -23909.574, 0.0, 10.000161, 9.999161 
2.005046e+3, 2.3577453e+2, -770969.44, -800270.9, -39592.605, -0.04545575, -0.30828866, -743403.8, -114024.555, 0.0, 9.999504, 9.999117 
2.0049994e+3, 2.4577376e+2, -738486.94, -660366.0, -32240.555, -0.030697733, -0.31800202, -648778.94, -117392.6, 0.0, 9.998738, 9.999771 
2.004953e+3, 2.5577328e+2, -768167.4, -627160.8, -34238.805, 0.0021173754, -0.33653685, -619286.75, -185896.11, 0.0, 9.997877, 9.999741 
2.0049067e+3, 2.6577333e+2, -760420.94, -493598.34, -15183.323, 0.00953552, -0.32936862, -492737.13, -157346.67, 0.0, 9.99692, 10.000444 
2.0048603e+3, 2.7577388e+2, -816900.2, -478153.72, -16867.484, -0.00042144553, -0.3043819, -477315.9, -239930.53, 0.0, 9.995894, 10.000372 
2.0048141e+3, 2.8577465e+2, -798393.8, -350567.97, -10813.668, 0.008091808, -0.28470996, -350307.0, -210927.95, 0.0, 9.995057, 10.000979 
2.0047683e+3, 2.9577556e+2, -816452.3, -316247.47, 3164.927, 0.027298735, -0.28217053, -316227.44, -274856.5, 0.0, 9.994294, 10.00091 
2.0047224e+3, 3.0577642e+2, -817319.0, -140453.52, 11664.28, 0.015739322, -0.33914566, -140252.56, -140252.56, 0.0, 9.993298, 10.002265 
2.0046766e+3, 3.1577945e+2, -892203.8, -36579.305, -57231.582, 0.043475583, -0.26495773, -32768.137, -32768.137, 0.0, 9.992192, 10.003506 
2.0155627e+3, 1.2584758e+2, -894078.44, -1627478.6, -22790.197, -0.026507972, -0.30039364, -893370.94, 813295.06, 0.19154756, 10.008608, 9.996581 
2.015516e+3, 1.3584377e+2, -845200.3, -1604002.9, -16108.357, -0.010079118, -0.31165597, -844858.5, 763843.5, 0.13660778, 10.007927, 9.996275 
2.0154688e+3, 1.4584044e+2, -803759.06, -1538617.0, -9173.786, -0.076365575, -0.26512256, -803644.56, 707090.56, 0.081242636, 10.007043, 9.996469 
2.0154233e+3, 1.5583688e+2, -832604.44, -1524037.9, -17483.994, 0.024531778, -0.25871316, -832162.6, 580609.3, 0.037157807, 10.005908, 9.996444 
2.0153768e+3, 1.6583368e+2, -770189.3, -1336878.8, -38639.383, 0.038531575, -0.26324594, -767566.9, 547236.56, 0.011480355, 10.00506, 9.997465 
2.0153292e+3, 1.7583083e+2, -759155.5, -1288590.5, -38051.86, -0.042224277, -0.28664207, -756434.56, 460395.56, 0.0017219548, 10.004448, 9.997418 
2.015282e+3, 1.8582831e+2, -724373.56, -1151509.9, -40575.125, -0.057104353, -0.29854587, -720553.4, 398300.6, 0.000034474768, 10.003705, 9.998045 
2.0152354e+3, 1.9582622e+2, -753870.25, -1122239.6, -32170.373, -0.012220056, -0.3026863, -751081.9, 269791.94, 0.0, 10.00286, 9.997981 
2.0151882e+3, 2.0582439e+2, -757802.2, -1022754.3, -45726.03, -0.008246018, -0.29323265, -750132.7, 172759.16, 0.0, 10.00194, 9.998436 
2.0151407e+3, 2.1582288e+2, -804175.2, -997743.8, -54133.16, -0.03834618, -0.2795203, -790064.94, 34842.246, 0.0, 10.000962, 9.998406 
2.0150931e+3, 2.2582148e+2, -764233.25, -835686.94, -65564.58, -0.039693587, -0.2877377, -725293.3, 1627.0437, 0.0, 10.000167, 9.9992285 
2.0150456e+3, 2.3582034e+2, -765733.8, -791937.75, -63437.727, -0.019218346, -0.3157358, -714059.2, -85128.734, 0.0, 9.999511, 9.999172 
2.0149982e+3, 2.4581951e+2, -742032.5, -670336.1, -63717.207, -0.012590753, -0.3300389, -633074.94, -102137.02, 0.0, 9.998746, 9.999702 
2.0149505e+3, 2.5581905e+2, -771381.8, -637343.8, -66214.51, -0.0161639, -0.33796042, -610150.75, -177208.86, 0.0, 9.997888, 9.999668 
2.0149031e+3, 2.6581928e+2, -756969.75, -489564.7, -54119.383, -0.021482678, -0.31143376, -479026.88, -144086.55, 0.0, 9.996929, 10.00047 
2.0148559e+3, 2.7582008e+2, -810768.9, -469258.34, -53570.543, -0.0284898, -0.2691686, -461052.28, -224118.58, 0.0, 9.995907, 10.00043 
2.0148093e+3, 2.8582057e+2, -780387.56, -315515.47, -39372.297, 0.011254716, -0.2865087, -312204.44, -173275.3, 0.0, 9.995064, 10.001219 
2.014763e+3, 2.9582122e+2, -801731.0, -290135.03, -27991.094, 0.083880745, -0.3349338, -288608.13, -247685.1, 0.0, 9.994308, 10.001084 
2.0147148e+3, 3.0582324e+2, -820475.6, -151913.28, -28320.771, -0.058950357, -0.28064927, -150715.73, -150715.73, 0.0, 9.993315, 10.00218 
2.0146684e+3, 3.1582564e+2, -868907.0, 8170.103, -96019.7, 0.020237833, -0.2620207, 18558.988, 18558.988, 0.0, 9.9922085, 10.003804 
2.0255715e+3, 1.2589447e+2, -903160.1, -1632564.5, 10405.987, 0.00013295072, -0.31012666, -903011.7, 803193.9, 0.19858573, 10.00861, 9.99654 
2.0255236e+3, 1.3589059e+2, -868865.4, -1631651.3, 7688.77, -0.033550072, -0.3071322, -868787.9, 739455.1, 0.1419233, 10.007853, 9.996115 
2.0254757e+3, 1.4588703e+2, -793616.1, -1518079.3, 9390.07, -0.093537696, -0.28393108, -793494.44, 716783.8, 0.0846839, 10.007082, 9.99659 
2.0254295e+3, 1.5588368e+2, -785494.7, -1489278.3, 20707.959, 0.03134251, -0.2669224, -784885.9, 627426.3, 0.038939852, 10.00621, 9.996535 
2.0253819e+3, 1.6588053e+2, -738720.94, -1329479.4, 13869.674, 0.04701754, -0.26598576, -738395.5, 575947.9, 0.012149986, 10.005322, 9.997386 
2.0253335e+3, 1.7587756e+2, -765950.6, -1299009.0, 7876.545, -0.046389267, -0.29103032, -765834.3, 450537.5, 0.0018631266, 10.004437, 9.99735 
2.0252855e+3, 1.8587506e+2, -740827.4, -1154934.5, -8751.272, -0.06203171, -0.29966027, -740642.5, 377753.1, 0.000038512593, 10.003577, 9.998081 
2.0252381e+3, 1.9587308e+2, -769653.56, -1126145.4, -16929.496, -0.010401564, -0.29641983, -768851.4, 251562.92, 0.0, 10.002739, 9.998011 
2.0251901e+3, 2.0587122e+2, -754536.8, -1019763.4, -28213.533, -0.00573253, -0.2889639, -751568.75, 170863.5, 0.0, 10.00196, 9.998445 
2.0251416e+3, 2.1586965e+2, -766829.1, -979068.25, -21542.854, -0.03911725, -0.28361997, -764664.56, 59783.72, 0.0, 10.00122, 9.998408 
2.0250933e+3, 2.2586824e+2, -734760.56, -830535.3, -28720.486, -0.042969897, -0.2885945, -726808.25, -346.26193, 0.0, 10.000412, 9.999145 
2.025045e+3, 2.3586711e+2, -765000.2, -798807.9, -38567.957, -0.023750199, -0.30637088, -739794.3, -111321.67, 0.0, 9.999551, 9.9991045 
2.0249967e+3, 2.4586628e+2, -743906.75, -657831.06, -39141.83, -0.01678009, -0.3214853, -642693.8, -112213.88, 0.0, 9.99868, 9.999817 
2.0249483e+3, 2.5586587e+2, -777310.3, -629253.0, -28829.854, -0.019682318, -0.33548602, -623837.3, -191354.33, 0.0, 9.997805, 9.999763 
2.0248999e+3, 2.658661e+2, -763044.1, -499169.16, -17363.54, -0.030463826, -0.3065486, -498031.5, -163550.27, 0.0, 9.99692, 10.000407 
2.0248516e+3, 2.758669e+2, -797725.06, -466877.4, -23912.2, -0.044397853, -0.2605191, -465158.06, -228682.72, 0.0, 9.9960165, 10.000391 
2.024804e+3, 2.858673e+2, -766674.06, -290005.03, -13329.458, 0.005931464, -0.2944966, -289632.56, -151161.03, 0.0, 9.995081, 10.001383 
2.0247573e+3, 2.9586792e+2, -815439.25, -272317.72, -9455.88, 0.09901739, -0.35945925, -272153.16, -231688.42, 0.0, 9.994115, 10.001297 
2.0247075e+3, 3.0587074e+2, -822072.7, -125810.67, 4911.919, -0.09834251, -0.2504254, -125776.02, -125776.02, 0.0, 9.993189, 10.002419 
2.0246609e+3, 3.1587297e+2, -877453.56, -29726.416, -24142.152, 0.050673064, -0.26578435, -29039.436, -29039.436, 0.0, 9.9923, 10.003498 
2.0355797e+3, 1.2594251e+2, -940037.0, -1692212.1, -21656.457, -0.025307097, -0.31262255, -939413.94, 766319.7, 0.20621671, 10.008595, 9.996038 
2.0355317e+3, 1.359384e+2, -899226.5, -1697830.8, -12783.757, 0.0047695413, -0.27796894, -899021.94, 708753.94, 0.1476267, 10.007868, 9.995655 
2.035483e+3, 1.459344e+2, -768852.25, -1466031.1, -17931.547, -0.061128307, -0.29757434, -768391.4, 741423.4, 0.0883418, 10.007106, 9.996967 
2.0354348e+3, 1.5593123e+2, -763977.25, -1442941.9, -9963.978, -0.03233317, -0.30113086, -763831.06, 648013.2, 0.040825795, 10.006218, 9.996851 
2.0353867e+3, 1.6592816e+2, -750271.7, -1354364.9, -18126.117, -0.007226905, -0.29531354, -749728.25, 564145.75, 0.012860642, 10.005324, 9.997216 
2.0353381e+3, 1.7592524e+2, -776928.1, -1323638.0, -23494.64, -0.010407022, -0.29882333, -775920.3, 439982.94, 0.0020161534, 10.004441, 9.997181 
2.0352894e+3, 1.8592271e+2, -752520.5, -1181209.4, -38788.94, -0.020895218, -0.2933005, -749039.06, 368889.3, 0.000042977983, 10.003582, 9.997901 
2.0352405e+3, 1.9592065e+2, -779282.2, -1147972.6, -45902.17, -0.027262993, -0.28120092, -773653.3, 246295.44, 0.0, 10.002743, 9.997861 
2.0351918e+3, 2.059187e+2, -739393.06, -990099.9, -54302.92, -0.030774187, -0.2874336, -728136.5, 193830.67, 0.0, 10.001964, 9.998649 
2.0351426e+3, 2.15917e+2, -754779.8, -955392.7, -47739.094, -0.0360693, -0.3113193, -743998.9, 79983.85, 0.0, 10.001222, 9.998571 
2.0350935e+3, 2.2591567e+2, -750825.2, -865683.25, -59867.824, -0.047239337, -0.30418617, -725294.9, 701.3929, 0.0, 10.000416, 9.998903 
2.0350441e+3, 2.359147e+2, -777839.7, -827153.2, -69287.74, -0.06015432, -0.28107753, -728952.25, -100945.33, 0.0, 9.999554, 9.99891 
2.034995e+3, 2.4591398e+2, -723357.06, -617573.4, -71494.96, -0.043668654, -0.2925496, -581532.25, -51518.973, 0.0, 9.998686, 10.0000925 
2.0349461e+3, 2.5591362e+2, -758714.44, -593736.06, -60917.67, -0.009579926, -0.3293168, -573680.5, -141665.78, 0.0, 9.997813, 10.000005 
2.0348969e+3, 2.6591372e+2, -772707.94, -522375.22, -51190.703, -0.017915616, -0.31642324, -512311.75, -178297.6, 0.0, 9.996929, 10.000246 
2.0348474e+3, 2.7591422e+2, -806060.4, -488689.47, -57571.902, -0.05134351, -0.2819889, -478568.53, -242556.98, 0.0, 9.996032, 10.0002365 
2.034799e+3, 2.8591466e+2, -760253.3, -279751.53, -50406.504, -0.010660915, -0.30771694, -274520.66, -136513.58, 0.0, 9.99509, 10.001451 
2.034751e+3, 2.9591563e+2, -796594.2, -237148.03, -46210.273, 0.0703264, -0.34884363, -233356.77, -193360.44, 0.0, 9.994127, 10.001534 
2.0347005e+3, 3.059187e+2, -778881.8, -38407.746, -29363.803, -0.10401035, -0.26141885, -37245.137, -37245.137, 0.0, 9.993196, 10.003019 
2.0346531e+3, 3.1592083e+2, -935452.5, -158998.19, 4321.02, 0.052960683, -0.3289945, -158974.14, -158974.14, 0.0, 9.9923315, 10.002599 
2.045588e+3, 1.259913e+2, -941110.9, -1710521.6, -3679.5852, -0.042361338, -0.318588, -941093.3, 764161.7, 0.21452741, 10.008769, 9.995806 
2.0455396e+3, 1.3598724e+2, -869335.3, -1694276.9, 34511.2, 0.015084239, -0.25947657, -867894.06, 739403.2, 0.1537822, 10.008224, 9.995507 
2.0454903e+3, 1.4598286e+2, -730576.56, -1446405.3, 17323.475, -0.03383632, -0.30945072, -730157.56, 779182.06, 0.09225936, 10.007423, 9.996961 
2.045441e+3, 1.5597962e+2, -739767.6, -1431395.9, 1264.6388, -0.0429985, -0.3181215, -739765.3, 671603.75, 0.042841844, 10.006411, 9.996836 
2.0453918e+3, 1.6597654e+2, -734064.8, -1352328.9, -9456.01, -0.02008724, -0.30949727, -733920.25, 579478.6, 0.013625442, 10.00547, 9.997158 
2.0453426e+3, 1.7597362e+2, -759871.7, -1321309.9, -8691.192, 0.0045943377, -0.30681744, -759737.2, 455691.22, 0.002185984, 10.004588, 9.997125 
2.0452932e+3, 1.8597102e+2, -732985.75, -1171870.5, -12833.976, -0.0066067684, -0.3042891, -732610.8, 384843.4, 0.000048782902, 10.003719, 9.997897 
2.0452432e+3, 1.9596884e+2, -763031.0, -1139690.5, -8003.4604, -0.03570857, -0.3003853, -762861.0, 256614.23, 0.0, 10.002857, 9.99786 
2.0451935e+3, 2.0596689e+2, -734108.56, -988293.8, -18368.25, -0.04247991, -0.30701002, -732788.1, 188705.7, 0.0, 10.0020075, 9.998637 
2.0451438e+3, 2.1596523e+2, -763773.1, -960233.6, -28691.723, -0.036853656, -0.32680446, -759668.6, 63840.594, 0.0, 10.001165, 9.998564 
2.0450938e+3, 2.2596394e+2, -772305.44, -869909.3, -39074.41, -0.04601627, -0.31686896, -758589.9, -33067.37, 0.0, 10.000246, 9.998954 
2.0450434e+3, 2.3596305e+2, -815442.25, -839428.6, -27616.572, -0.06270153, -0.29079384, -797327.1, -169794.42, 0.0, 9.999274, 9.998959 
2.0449933e+3, 2.459624e+2, -760138.9, -635579.6, -29297.443, -0.049102724, -0.29486954, -629032.7, -99494.18, 0.0, 9.998438, 10.000087 
2.0449436e+3, 2.559621e+2, -775174.06, -600299.0, -40511.945, -0.01680379, -0.32242703, -591369.8, -159830.31, 0.0, 9.997698, 10.000012 
2.0448935e+3, 2.6596215e+2, -775242.94, -510968.38, -31147.201, -0.024378538, -0.31982654, -507347.0, -173807.77, 0.0, 9.996861, 10.000355 
2.0448433e+3, 2.7596256e+2, -813690.75, -481397.53, -17965.752, -0.0529413, -0.30561414, -480429.0, -244891.88, 0.0, 9.995937, 10.000329 
2.0447938e+3, 2.859632e+2, -766696.56, -286677.44, -5551.045, -0.019927286, -0.3143035, -286613.25, -149082.5, 0.0, 9.995067, 10.001412 
2.0447448e+3, 2.9596448e+2, -777924.2, -222960.63, -11483.163, 0.037509933, -0.3195147, -222723.11, -183206.06, 0.0, 9.994237, 10.001577 
2.0446938e+3, 3.059669e+2, -748408.94, -7608.743, -24434.918, -0.088964105, -0.30679047, -6803.6445, -6803.6445, 0.0, 9.993341, 10.003157 
2.0446457e+3, 3.1596956e+2, -942497.8, -191976.17, 11516.633, 0.07451556, -0.3299838, -191799.5, -191799.5, 0.0, 9.9924135, 10.00233 
2.0555964e+3, 1.2604088e+2, -943703.3, -1709353.1, -22404.459, -0.061860513, -0.3133253, -943048.25, 761720.75, 0.2234626, 10.008829, 9.995788 
2.0555475e+3, 1.3603695e+2, -867220.4, -1678341.6, 17196.447, 0.00066319597, -0.25607556, -866855.94, 739953.06, 0.16037242, 10.008236, 9.99561 
2.0554978e+3, 1.4603223e+2, -755105.7, -1491788.4, -16301.335, -0.0114089195, -0.3259732, -754745.1, 754109.75, 0.09644391, 10.007426, 9.996619 
2.0554475e+3, 1.5602879e+2, -759433.8, -1475292.9, -32489.89, -0.0111170225, -0.31828505, -757962.25, 652924.9, 0.04500157, 10.006425, 9.996531 
2.0553975e+3, 1.6602562e+2, -731057.25, -1349285.8, -39928.523, -0.0016804835, -0.30694556, -728489.1, 584428.8, 0.014454113, 10.005485, 9.997175 
2.0553471e+3, 1.760226e+2, -756671.44, -1317715.6, -39360.953, -0.0010554628, -0.31516114, -753923.5, 461024.5, 0.0023771753, 10.004598, 9.997147 
2.0552966e+3, 1.860199e+2, -721266.2, -1149942.6, -43280.68, -0.016477223, -0.33211124, -716940.06, 400033.8, 0.000057081106, 10.003725, 9.998047 
2.0552458e+3, 1.9601764e+2, -754277.75, -1123448.5, -38349.54, -0.037166245, -0.3512191, -750336.06, 268658.66, 0.0, 10.002862, 9.9979725 
2.0551953e+3, 2.0601574e+2, -749497.7, -1021820.9, -48471.066, -0.04329585, -0.34572685, -741127.56, 179885.66, 0.0, 10.00201, 9.998408 
2.0551448e+3, 2.1601419e+2, -776553.0, -986872.44, -58485.45, -0.042837124, -0.33044675, -761383.5, 61645.19, 0.0, 10.001163, 9.998384 
2.055094e+3, 2.2601293e+2, -750030.0, -824812.3, -74002.54, -0.0399023, -0.32698762, -704508.7, 20532.834, 0.0, 10.000247, 9.999266 
2.0550427e+3, 2.3601201e+2, -796740.6, -802496.2, -61839.94, -0.033535182, -0.33473623, -737711.56, -110660.7, 0.0, 9.999279, 9.999212 
2.0549919e+3, 2.4601144e+2, -779988.56, -679362.0, -56803.047, -0.03488283, -0.32769006, -653793.7, -124737.03, 0.0, 9.9984455, 9.999784 
2.0549409e+3, 2.5601122e+2, -790308.44, -634728.25, -68320.46, -0.043922488, -0.31536698, -608985.8, -177927.31, 0.0, 9.997706, 9.999775 
2.05489e+3, 2.6601136e+2, -748057.3, -456676.6, -66164.58, -0.051321134, -0.31591368, -442356.22, -109298.82, 0.0, 9.996866, 10.000728 
2.0548391e+3, 2.7601182e+2, -788621.75, -432486.13, -52340.406, -0.051109444, -0.3309771, -424953.13, -189900.23, 0.0, 9.995946, 10.000664 
2.0547888e+3, 2.860128e+2, -776395.3, -310865.13, -36806.69, -0.023884045, -0.31518447, -307973.0, -170929.5, 0.0, 9.995079, 10.001243 
2.0547386e+3, 2.960143e+2, -787428.2, -250464.86, -42525.176, -0.0026291697, -0.27644703, -247117.9, -208089.56, 0.0, 9.994266, 10.001377 
2.0546874e+3, 3.060152e+2, -777192.75, -69738.96, -64058.125, -0.047598533, -0.3872587, -63985.457, -63985.457, 0.0, 9.99335, 10.002727 
2.0546377e+3, 3.160185e+2, -908265.1, -124999.22, -33013.23, 0.04663, -0.30406415, -123610.234, -123610.234, 0.0, 9.992421, 10.002791 
2.065606e+3, 1.2609138e+2, -838992.5, -1672174.9, -7953.0986, -0.05580257, -0.29662237, -838916.6, 865357.25, 0.23287056, 10.00996, 9.99556 
2.0655559e+3, 1.36087e+2, -840070.9, -1662204.6, 22214.98, -0.011484932, -0.2776383, -839471.06, 766846.44, 0.16731884, 10.008526, 9.995581 
2.0655054e+3, 1.4608218e+2, -754401.56, -1497918.0, -572.65814, -0.00045653197, -0.35348886, -754401.1, 753963.5, 0.10087082, 10.007503, 9.996534 
2.0654541e+3, 1.5607901e+2, -716013.44, -1461119.0, -1966.1293, 0.0011613525, -0.30948022, -716008.25, 694386.7, 0.047304593, 10.006789, 9.996451 
2.0654029e+3, 1.6607584e+2, -672408.75, -1316268.0, -5007.885, 0.0019798365, -0.29580346, -672369.8, 640056.06, 0.015351148, 10.005881, 9.997209 
2.0653516e+3, 1.7607264e+2, -720046.44, -1295893.4, -2263.3984, -0.0077028708, -0.3231983, -720037.5, 494419.6, 0.0025925308, 10.004836, 9.997179 
2.0653003e+3, 1.8606994e+2, -697385.75, -1138528.6, -8542.834, -0.023319814, -0.34118474, -697220.4, 419262.66, 0.000068847236, 10.003895, 9.998041 
2.0652488e+3, 1.9606778e+2, -732011.25, -1112747.8, -16323.619, -0.03950653, -0.34990516, -731312.7, 287190.3, 0.0, 10.003018, 9.997969 
2.0651972e+3, 2.0606586e+2, -748726.06, -1017525.6, -23288.387, -0.043626003, -0.34591094, -746723.3, 173798.27, 0.0, 10.002003, 9.99844 
2.0651458e+3, 2.1606424e+2, -813053.9, -1000396.9, -15669.052, -0.041101657, -0.3400981, -811752.4, 10785.377, 0.0, 10.000898, 9.998416 
2.065094e+3, 2.2606297e+2, -776806.7, -833871.06, -30156.88, -0.03707716, -0.33865568, -763823.5, -39273.04, 0.0, 10.0000515, 9.999295 
2.065042e+3, 2.3606211e+2, -780853.94, -791319.0, -39648.63, -0.030432373, -0.3429003, -746094.06, -119535.0, 0.0, 9.999377, 9.999239 
2.0649903e+3, 2.4606152e+2, -762586.2, -668895.4, -28529.902, -0.035595324, -0.3371742, -660891.44, -132326.53, 0.0, 9.99856, 9.999799 
2.0649385e+3, 2.5606132e+2, -798960.9, -635985.7, -17510.12, -0.05115955, -0.32927725, -634125.6, -203558.16, 0.0, 9.99764, 9.999796 
2.0648865e+3, 2.660615e+2, -756751.3, -450099.03, -20258.75, -0.05911455, -0.32552952, -448766.47, -116201.11, 0.0, 9.996764, 10.00082 
2.064835e+3, 2.7606216e+2, -785559.75, -420581.72, -28795.627, -0.052957963, -0.32981116, -418323.8, -183765.22, 0.0, 9.995926, 10.000753 
2.0647837e+3, 2.8606313e+2, -784363.9, -312875.28, -14518.246, -0.02634044, -0.3183219, -312428.66, -175879.34, 0.0, 9.99502, 10.001256 
2.0647325e+3, 2.960645e+2, -824995.7, -270452.97, -8425.827, -0.013250158, -0.29689604, -270324.97, -231788.69, 0.0, 9.994021, 10.001354 
2.0646806e+3, 3.060656e+2, -815007.4, -105695.555, -10087.479, -0.036414053, -0.3751906, -105552.125, -105552.125, 0.0, 9.993173, 10.002562 
2.0646296e+3, 3.1606853e+2, -869956.9, -64684.066, 23180.252, 0.014218181, -0.31164873, -64017.363, -64017.363, 0.0, 9.992505, 10.003165 
2.075616e+3, 1.2614268e+2, -877834.8, -1726074.3, -46815.887, -0.034151003, -0.27153578, -875258.75, 828512.0, 0.2425731, 10.009895, 9.995164 
2.075564e+3, 1.361375e+2, -852590.3, -1682325.5, -18386.283, -0.027108947, -0.3154695, -852183.06, 753639.06, 0.17452614, 10.008544, 9.995437 
2.0755127e+3, 1.4613277e+2, -748568.4, -1484259.1, -22740.145, -0.0046213567, -0.38279015, -747866.1, 760002.4, 0.105503134, 10.007528, 9.996629 
2.0754607e+3, 1.561301e+2, -712841.94, -1449777.4, -26240.377, -0.0053854687, -0.29467925, -711908.75, 697985.25, 0.04974121, 10.006782, 9.996534 
2.0754087e+3, 1.66127e+2, -670486.94, -1309962.6, -41525.42, -0.007926451, -0.28113404, -667801.7, 644122.6, 0.01631506, 10.005873, 9.997259 
2.0753562e+3, 1.7612365e+2, -717105.56, -1291344.4, -38300.78, -0.016208315, -0.33190873, -714562.25, 499394.88, 0.0028320914, 10.00484, 9.997211 
2.075304e+3, 1.8612102e+2, -708585.94, -1163202.8, -39322.086, -0.029289545, -0.3325623, -705209.8, 410772.78, 0.000084586965, 10.003897, 9.997873 
2.0752515e+3, 1.9611911e+2, -741211.2, -1131676.3, -47529.625, -0.044596404, -0.29965016, -735508.9, 282492.25, 0.0, 10.003014, 9.997843 
2.075199e+3, 2.0611712e+2, -730111.94, -980016.94, -62838.492, -0.044054825, -0.31057072, -715200.9, 204819.1, 0.0, 10.002003, 9.998699 
2.0751464e+3, 2.1611525e+2, -798257.8, -971341.94, -53523.457, -0.033558913, -0.3558317, -783043.9, 38993.652, 0.0, 10.000902, 9.998616 
2.0750937e+3, 2.2611398e+2, -793588.75, -871502.94, -54153.523, -0.039144747, -0.35048515, -765835.56, -41785.19, 0.0, 10.000059, 9.999035 
2.0750411e+3, 2.3611324e+2, -793981.8, -820790.8, -64265.918, -0.054724313, -0.31575322, -741737.4, -115678.98, 0.0, 9.999382, 9.999037 
2.0749885e+3, 2.461126e+2, -739465.2, -623116.44, -62633.36, -0.051850263, -0.32432562, -595808.7, -67744.305, 0.0, 9.998566, 10.0001135 
2.074936e+3, 2.561122e+2, -779583.75, -598159.5, -51700.03, -0.040398445, -0.3652964, -584461.0, -154393.61, 0.0, 9.997645, 10.000055 
2.0748833e+3, 2.661125e+2, -771355.06, -483125.88, -52128.14, -0.047901344, -0.34863293, -473987.88, -141923.7, 0.0, 9.996772, 10.000592 
2.0748305e+3, 2.7611345e+2, -795826.1, -446380.8, -60417.723, -0.05886119, -0.30099374, -436229.7, -202174.2, 0.0, 9.99594, 10.000572 
2.0747785e+3, 2.861141e+2, -769932.0, -286411.78, -53889.04, -0.029085761, -0.3255139, -280478.56, -144428.86, 0.0, 9.99503, 10.001435 
2.0747264e+3, 2.961148e+2, -813495.06, -250100.33, -48015.87, -0.00072323316, -0.3880851, -246037.44, -207994.58, 0.0, 9.994031, 10.0014925 
2.0746736e+3, 3.0611813e+2, -803368.7, -83137.03, -36617.926, -0.055526275, -0.25331184, -81280.09, -81280.09, 0.0, 9.993177, 10.002716 
2.0746224e+3, 3.1612003e+2, -866509.2, -62738.938, -41153.94, 0.03418347, -0.31636417, -60637.305, -60637.305, 0.0, 9.992523, 10.003173 
2.0856255e+3, 1.2619416e+2, -952064.56, -1757396.4, -31198.549, -0.01529197, -0.2867369, -950857.7, 752408.7, 0.25241977, 10.009273, 9.995245 
2.0855728e+3, 1.3618928e+2, -794358.75, -1618990.3, 10177.833, -0.022408227, -0.32185382, -794233.1, 811080.94, 0.18191458, 10.008985, 9.995656 
2.0855203e+3, 1.4618482e+2, -689211.4, -1448202.3, 6810.659, 0.004845921, -0.37495273, -689150.3, 818207.44, 0.11030424, 10.007995, 9.996681 
2.0854673e+3, 1.5618204e+2, -734577.5, -1453706.9, 5040.217, -0.011317696, -0.30431575, -734542.2, 674842.5, 0.0522941, 10.006615, 9.996586 
2.0854141e+3, 1.6617893e+2, -699466.56, -1321963.6, -3605.8662, -0.016960964, -0.2912482, -699445.7, 611969.3, 0.017337738, 10.0056715, 9.997272 
2.085361e+3, 1.7617571e+2, -694491.06, -1278939.1, -5477.2344, -0.017879482, -0.32676384, -694439.75, 519006.72, 0.0030931365, 10.0049925, 9.997222 
2.0853078e+3, 1.8617311e+2, -692004.75, -1154792.6, -6694.4263, -0.025005678, -0.32568842, -691907.94, 423563.97, 0.000104268714, 10.004011, 9.997874 
2.0852543e+3, 1.961711e+2, -766726.6, -1143572.0, -3455.202, -0.035927307, -0.30150267, -766695.0, 250796.5, 0.0, 10.00284, 9.997843 
2.085201e+3, 2.0616916e+2, -742390.44, -988452.06, -22621.508, -0.039626993, -0.3072373, -740328.0, 179182.34, 0.0, 10.001935, 9.998671 
2.0851475e+3, 2.1616739e+2, -756726.25, -953259.4, -34088.71, -0.038639843, -0.33781508, -750981.5, 70545.68, 0.0, 10.0012, 9.998594 
2.0850937e+3, 2.2616605e+2, -750296.25, -848146.3, -26278.154, -0.047262106, -0.33602718, -743685.75, -20145.434, 0.0, 10.00035, 9.999053 
2.0850402e+3, 2.3616518e+2, -786374.8, -814821.5, -17885.568, -0.061370853, -0.31736612, -777746.5, -152197.19, 0.0, 9.99943, 9.999052 
2.0849869e+3, 2.4616453e+2, -755962.6, -629031.0, -27127.195, -0.05610756, -0.3273418, -623476.56, -95921.19, 0.0, 9.998447, 10.000127 
2.0849334e+3, 2.5616422e+2, -809746.25, -610617.8, -38291.17, -0.0397994, -0.3586383, -603508.5, -173950.89, 0.0, 9.997434, 10.00007 
2.0848799e+3, 2.6616454e+2, -793092.2, -492060.7, -29577.262, -0.04818563, -0.3425266, -489182.16, -157627.84, 0.0, 9.996619, 10.000602 
2.0848264e+3, 2.7616543e+2, -798276.75, -445958.0, -21662.7, -0.065553665, -0.30320457, -444631.03, -211084.83, 0.0, 9.995921, 10.000582 
2.0847735e+3, 2.8616595e+2, -773218.6, -280524.97, -23823.307, -0.029992683, -0.33877534, -279375.72, -143834.66, 0.0, 9.994979, 10.001499 
2.0847204e+3, 2.9616666e+2, -830254.7, -247371.31, -26527.514, 0.018428423, -0.40788525, -246166.52, -208632.33, 0.0, 9.993873, 10.001587 
2.0846662e+3, 3.0617058e+2, -810667.25, -53173.043, 2104.7312, -0.0906272, -0.23363379, -53167.195, -53167.195, 0.0, 9.992985, 10.003015 
2.0846145e+3, 3.1617194e+2, -921264.25, -120539.78, 3301.2253, 0.024054853, -0.37614912, -120526.17, -120526.17, 0.0, 9.992289, 10.002886 
2.0956348e+3, 1.2624589e+2, -932926.6, -1693316.1, -27859.28, -0.0032265228, -0.33367723, -931907.3, 770852.7, 0.26233265, 10.009333, 9.995675 
2.0955817e+3, 1.3624215e+2, -780127.4, -1564961.4, -692.52295, -0.0037580938, -0.30441493, -780126.75, 824668.56, 0.18943974, 10.008947, 9.99611 
2.0955284e+3, 1.4623807e+2, -696784.1, -1447928.5, -37992.14, 0.022385392, -0.34012195, -694867.4, 811967.5, 0.115246244, 10.0079565, 9.996706 
2.0954737e+3, 1.5623468e+2, -731571.2, -1448460.5, -38255.953, -0.018795019, -0.33451918, -729535.44, 679332.4, 0.054943506, 10.006635, 9.996615 
2.0954196e+3, 1.6623159e+2, -700342.75, -1328572.0, -26063.182, -0.027325513, -0.32027197, -699263.3, 611635.1, 0.018407736, 10.0056925, 9.997219 
2.095366e+3, 1.7622879e+2, -696977.8, -1284335.3, -30434.492, -0.015908258, -0.30757514, -695405.06, 517521.2, 0.0033713866, 10.004991, 9.997189 
2.0953117e+3, 1.862261e+2, -681771.56, -1134317.3, -48779.76, -0.01307908, -0.32081667, -676573.3, 438378.8, 0.00012745433, 10.00401, 9.998018 
2.0952573e+3, 1.9622369e+2, -759576.4, -1131179.0, -43385.645, -0.01573428, -0.35186428, -754578.25, 262396.78, 0.0, 10.002846, 9.997928 
2.095203e+3, 2.0622185e+2, -762204.75, -1032746.6, -48530.0, -0.031998836, -0.33242548, -753762.8, 165230.73, 0.0, 10.001944, 9.998364 
2.0951483e+3, 2.1622056e+2, -772849.1, -988038.6, -59735.668, -0.057584077, -0.28659275, -757378.94, 63628.77, 0.0, 10.001202, 9.998357 
2.095094e+3, 2.2621913e+2, -731332.3, -810162.2, -59184.78, -0.06165833, -0.2973364, -699639.06, 23382.256, 0.0, 10.000352, 9.999315 
2.0950395e+3, 2.3621783e+2, -772388.06, -787062.75, -51515.95, -0.051976442, -0.34804317, -727689.56, -102656.51, 0.0, 9.999431, 9.999245 
2.0949851e+3, 2.4621722e+2, -776259.5, -673432.25, -65423.813, -0.049704596, -0.34370297, -641637.5, -114598.49, 0.0, 9.998453, 9.999822 
2.0949307e+3, 2.5621727e+2, -825174.1, -645826.94, -74992.56, -0.052444264, -0.30675918, -618602.1, -189562.89, 0.0, 9.997442, 9.999826 
2.0948762e+3, 2.662175e+2, -774188.9, -456382.4, -56604.15, -0.06240627, -0.30778912, -446601.72, -115564.66, 0.0, 9.996631, 10.000844 
2.0948221e+3, 2.7621788e+2, -782062.75, -417111.94, -50010.26, -0.075136825, -0.3427035, -410382.94, -177350.6, 0.0, 9.995936, 10.000774 
2.0947681e+3, 2.862186e+2, -777880.75, -292570.5, -67058.414, -0.029133404, -0.35659188, -283475.06, -148450.84, 0.0, 9.994986, 10.001415 
2.0947143e+3, 2.962201e+2, -827233.75, -242586.23, -67389.78, 0.043528244, -0.34226564, -234919.06, -197909.05, 0.0, 9.993875, 10.001622 
2.0946585e+3, 3.062225e+2, -779592.4, 8647.549, -27716.271, -0.14800912, -0.3497918, 9620.913, 9620.913, 0.0, 9.992991, 10.003439 
2.0946068e+3, 3.1622553e+2, -951116.56, -191843.72, 26520.348, 0.027789267, -0.35456342, -190918.53, -190918.53, 0.0, 9.992326, 10.00238 
2.1056445e+3, 1.2629965e+2, -832652.06, -1630423.5, 28399.793, -0.0016536918, -0.3439693, -831642.3, 870590.4, 0.2723218, 10.010325, 9.995787 
2.1055904e+3, 1.36296e+2, -840250.2, -1584951.4, 31021.516, -0.0122522, -0.31406367, -838960.2, 765307.0, 0.1970899, 10.00847, 9.99617 
2.1055359e+3, 1.4629212e+2, -761112.06, -1475662.4, -2416.9163, 0.01559224, -0.32982928, -761103.9, 745200.75, 0.12030543, 10.007487, 9.996715 
2.1054804e+3, 1.5628862e+2, -667593.9, -1411764.5, -4060.4045, -0.017390382, -0.3357013, -667571.7, 740767.1, 0.05766689, 10.007106, 9.996637 
2.1054253e+3, 1.6628544e+2, -632331.75, -1294507.8, 5228.8584, -0.023692586, -0.32948717, -632290.5, 678079.75, 0.019511478, 10.006174, 9.997222 
2.1053706e+3, 1.7628263e+2, -710147.56, -1289283.5, 5151.268, -0.013246823, -0.31963107, -710101.75, 502296.44, 0.0036613543, 10.004899, 9.997196 
2.1053156e+3, 1.8627997e+2, -690032.3, -1133413.5, -14523.73, -0.013707186, -0.33117506, -689557.1, 424866.53, 0.00015335975, 10.003938, 9.998056 
2.1052602e+3, 1.962776e+2, -711414.56, -1104756.5, -16872.682, -0.021422941, -0.35952443, -710692.1, 305753.75, 0.0, 10.003167, 9.997952 
2.1052048e+3, 2.0627573e+2, -723256.4, -1020364.0, -11148.623, -0.0341308, -0.34031603, -722838.6, 195626.36, 0.0, 10.002243, 9.998303 
2.1051495e+3, 2.1627434e+2, -772292.7, -992834.25, -6959.8643, -0.050536133, -0.296321, -772073.25, 48407.12, 0.0, 10.001231, 9.998308 
2.105094e+3, 2.2627296e+2, -744599.75, -809755.44, -11551.221, -0.057663474, -0.30410734, -742612.5, -20118.596, 0.0, 10.000236, 9.999371 
2.1050388e+3, 2.3627174e+2, -796244.56, -793205.75, -18765.04, -0.057833143, -0.34836492, -775898.7, -151394.25, 0.0, 9.9992485, 9.999288 
2.1049833e+3, 2.4627121e+2, -782726.1, -682883.9, -22881.781, -0.057820152, -0.33642116, -677889.7, -151379.56, 0.0, 9.998441, 9.999761 
2.104928e+3, 2.5627127e+2, -786585.6, -632266.4, -15766.24, -0.057904568, -0.29149622, -630672.06, -202161.3, 0.0, 9.997733, 9.999777 
2.1048726e+3, 2.6627135e+2, -767398.75, -442939.2, -2952.873, -0.06637441, -0.30300045, -442912.3, -112402.945, 0.0, 9.996636, 10.000931 
2.1048173e+3, 2.762716e+2, -869324.0, -450129.66, -8128.2285, -0.07841031, -0.35977998, -449972.1, -217466.56, 0.0, 9.995302, 10.000853 
2.1047626e+3, 2.862726e+2, -843015.2, -322822.63, -15918.55, -0.03136287, -0.3557654, -322335.94, -187840.55, 0.0, 9.994536, 10.001423 
2.1047083e+3, 2.9627448e+2, -793617.25, -230659.34, -12153.992, 0.048590817, -0.29829517, -230397.08, -193919.72, 0.0, 9.994127, 10.00158 
2.1046513e+3, 3.0627573e+2, -784792.6, -26908.58, -21998.387, -0.14076771, -0.40131998, -26270.59, -26270.59, 0.0, 9.9931, 10.00314 
2.1045986e+3, 3.1627956e+2, -1017118.4, -164528.97, 45284.277, 0.033577114, -0.29736152, -162130.5, -162130.5, 0.0, 9.991626, 10.002902 
2.1156545e+3, 1.2635507e+2, -853805.06, -1646230.1, -12771.876, -0.011094948, -0.32920122, -853599.3, 848089.4, 0.2824445, 10.0103, 9.995657 
2.1155982e+3, 1.3635069e+2, -856063.25, -1614819.8, -16559.775, -0.045523085, -0.34471557, -855702.0, 748028.5, 0.20486346, 10.008519, 9.995912 
2.115543e+3, 1.4634691e+2, -761547.6, -1478417.6, -12397.981, -0.014053823, -0.33731493, -761333.25, 744434.3, 0.12545273, 10.007534, 9.996675 
2.1154876e+3, 1.5634368e+2, -670779.1, -1415030.0, -18629.53, -0.011061863, -0.31139475, -670313.06, 737486.2, 0.06043691, 10.007105, 9.996618 
2.1154316e+3, 1.6634035e+2, -630804.2, -1288891.5, -39636.777, -0.010400816, -0.32283968, -628425.5, 681406.44, 0.020633794, 10.006166, 9.997267 
2.1153755e+3, 1.7633711e+2, -706121.7, -1284023.3, -37741.906, -0.010892664, -0.35985696, -703667.25, 508196.16, 0.0039571086, 10.0049095, 9.99723 
2.115319e+3, 1.8633461e+2, -692616.5, -1142841.3, -41386.867, -0.026817288, -0.35442138, -688843.6, 425043.84, 0.00018105433, 10.00395, 9.997989 
2.1152629e+3, 1.9633274e+2, -713398.6, -1110557.8, -44330.816, -0.05240721, -0.32671052, -708510.6, 307394.66, 0.00000000000010610821, 10.00317, 9.997913 
2.1152067e+3, 2.0633067e+2, -712592.94, -999932.8, -47237.184, -0.04553729, -0.3331464, -705026.6, 212899.22, 0.0, 10.002246, 9.9984455 
2.1151508e+3, 2.1632868e+2, -765263.6, -978688.6, -42542.516, -0.019997992, -0.36394146, -757096.06, 62850.254, 0.0, 10.001228, 9.998408 
2.1150942e+3, 2.2632743e+2, -755173.6, -833254.5, -47244.23, -0.037921432, -0.3515625, -732926.44, -10967.651, 0.0, 10.000238, 9.999211 
2.1150376e+3, 2.3632686e+2, -802704.56, -809354.75, -53220.6, -0.08096947, -0.31764847, -752705.25, -128740.695, 0.0, 9.999256, 9.999175 
2.1149814e+3, 2.4632633e+2, -769532.44, -658182.2, -49025.668, -0.081268094, -0.30851343, -639673.5, -113703.414, 0.0, 9.998448, 9.999929 
2.1149255e+3, 2.5632605e+2, -775888.25, -613688.8, -44978.496, -0.057068836, -0.31668445, -602051.1, -174077.58, 0.0, 9.997745, 9.999901 
2.1148692e+3, 2.6632613e+2, -772587.3, -456285.16, -54218.848, -0.060404666, -0.3273552, -447249.38, -117277.34, 0.0, 9.996643, 10.000839 
2.1148124e+3, 2.7632663e+2, -872356.75, -457626.72, -55115.62, -0.07936605, -0.34896955, -450427.13, -218460.98, 0.0, 9.995302, 10.000803 
2.1147572e+3, 2.8632775e+2, -835506.2, -309010.6, -31116.152, -0.039919306, -0.3368523, -307177.97, -173222.64, 0.0, 9.994539, 10.001518 
2.1147022e+3, 2.963296e+2, -799781.4, -251161.48, -29819.736, 0.034243442, -0.28938964, -249545.42, -213607.36, 0.0, 9.994155, 10.001428 
2.1146451e+3, 3.063304e+2, -864959.5, -196470.23, -81918.445, -0.063798495, -0.36087328, -186578.11, -186578.11, 0.0, 9.993111, 10.001973 
2.1145894e+3, 3.1633222e+2, -882107.1, 117005.086, 50844.34, -0.033559415, -0.37305045, 119585.87, 119585.87, 0.0, 9.991615, 10.004844 
2.1256645e+3, 1.2641172e+2, -873463.6, -1669008.1, 26814.203, -0.03223041, -0.33525, -872560.9, 828571.4, 0.292731, 10.010338, 9.995422 
2.1256074e+3, 1.3640702e+2, -774795.6, -1598339.1, 15764.193, -0.022124046, -0.3481464, -774493.94, 828684.6, 0.21273802, 10.009455, 9.995579 
2.1255508e+3, 1.4640298e+2, -672500.8, -1443853.4, 32982.113, -0.005141437, -0.3407437, -671093.1, 834124.9, 0.13064697, 10.008329, 9.996562 
2.1254942e+3, 1.5639962e+2, -683155.0, -1430723.4, 25045.846, -0.021700194, -0.31864834, -682316.8, 724934.1, 0.06322207, 10.00708, 9.99652 
2.1254376e+3, 1.6639626e+2, -645343.56, -1297690.1, -4614.9077, -0.020907484, -0.3250861, -645310.9, 663972.94, 0.0217594, 10.006085, 9.997241 
2.1253803e+3, 1.7639306e+2, -659842.94, -1263773.3, -8023.076, -0.011953156, -0.3529631, -659736.4, 551578.7, 0.004253351, 10.005244, 9.997205 
2.1253233e+3, 1.863905e+2, -647463.1, -1122326.6, -7477.7007, -0.025211323, -0.35134643, -647345.4, 465994.28, 0.00020970128, 10.00427, 9.997973 
2.1252659e+3, 1.9638848e+2, -706413.1, -1107396.5, -8658.374, -0.051748548, -0.33518502, -706226.25, 309132.4, 0.0000000000129771185, 10.003222, 9.997908 
2.1252087e+3, 2.0638646e+2, -713611.06, -993109.1, -16580.246, -0.04872176, -0.3402283, -712630.94, 204748.02, 0.0, 10.002212, 9.998506 
2.1251519e+3, 2.163846e+2, -762696.56, -970994.9, -18063.664, -0.028271584, -0.36162773, -761141.7, 58256.48, 0.0, 10.001224, 9.998462 
2.1250945e+3, 2.2638339e+2, -746440.56, -829154.25, -15065.106, -0.044044238, -0.34779096, -743782.1, -22371.79, 0.0, 10.000303, 9.999205 
2.1250369e+3, 2.3638275e+2, -778340.94, -797260.7, -10891.565, -0.08103658, -0.31782117, -773374.56, -149958.03, 0.0, 9.999426, 9.999174 
2.1249798e+3, 2.4638218e+2, -777636.6, -654571.6, -7524.8657, -0.08113466, -0.3168769, -654113.25, -128690.62, 0.0, 9.9983635, 9.999992 
2.1249229e+3, 2.5638184e+2, -853428.44, -644931.9, -11946.925, -0.058967255, -0.3341757, -644249.5, -216823.14, 0.0, 9.99719, 9.99995 
2.1248655e+3, 2.663821e+2, -815658.25, -486023.44, -23787.629, -0.057357643, -0.32411483, -484315.7, -154892.25, 0.0, 9.996391, 10.000754 
2.1248081e+3, 2.7638286e+2, -805648.6, -432797.53, -24906.379, -0.06800015, -0.31062046, -431141.16, -199725.75, 0.0, 9.995797, 10.000732 
2.1247515e+3, 2.863836e+2, -804060.56, -290707.53, -685.6934, -0.05065393, -0.33230573, -290706.6, -157298.2, 0.0, 9.994746, 10.001541 
2.1246953e+3, 2.9638487e+2, -911202.2, -313555.5, -5313.2764, -0.013213974, -0.3450294, -313508.25, -278111.2, 0.0, 9.993434, 10.001345 
2.1246384e+3, 3.0638674e+2, -981641.06, -316963.0, -35314.227, 0.0077476697, -0.27053276, -315092.03, -315092.03, 0.0, 9.992592, 10.001394 
2.1245807e+3, 3.1638682e+2, -810819.3, 240523.6, 126180.1, -0.05281647, -0.40898553, 255455.4, 255455.4, 0.0, 9.991722, 10.005639 
2.1356744e+3, 1.2646945e+2, -905092.1, -1709764.8, 5888.868, -0.0630565, -0.35713023, -905049.06, 795516.0, 0.30313945, 10.010314, 9.995067 
2.1356171e+3, 1.3646467e+2, -806406.6, -1661433.9, -10277.026, 0.0442885, -0.3281168, -806283.1, 796330.44, 0.22065814, 10.009458, 9.995139 
2.1355593e+3, 1.4646016e+2, -685341.8, -1464082.0, -6104.971, 0.03200305, -0.34219557, -685294.0, 819364.0, 0.13583955, 10.008342, 9.996401 
2.1355009e+3, 1.5645629e+2, -692683.3, -1452871.5, -14420.7, -0.0486627, -0.35275373, -692409.9, 714285.1, 0.06599327, 10.007101, 9.99636 
2.1354431e+3, 1.6645306e+2, -650790.5, -1313253.6, -32623.494, -0.05292597, -0.3337, -649187.8, 659539.2, 0.022876224, 10.006104, 9.997126 
2.1353854e+3, 1.7645034e+2, -664940.2, -1277357.3, -37432.875, -0.01758927, -0.30349556, -662660.7, 548093.9, 0.004546368, 10.005254, 9.997109 
2.1353275e+3, 1.864475e+2, -645924.6, -1121049.6, -44309.72, -0.01189398, -0.32573777, -641827.7, 470954.1, 0.00023870573, 10.004273, 9.997983 
2.1352693e+3, 1.9644478e+2, -706202.56, -1107412.8, -44804.43, -0.023021977, -0.38099536, -701260.0, 313547.0, 0.0000000000136278775, 10.003221, 9.997911 
2.135211e+3, 2.0644301e+2, -714888.3, -997223.6, -51581.2, -0.045929555, -0.35793176, -705759.9, 211065.25, 0.0, 10.0022135, 9.99848 
2.1351524e+3, 2.16442e+2, -761817.6, -971367.4, -52050.953, -0.075167336, -0.29299298, -749600.7, 69236.516, 0.0, 10.001228, 9.998459 
2.1350943e+3, 2.2644067e+2, -737008.25, -811832.4, -46305.777, -0.07533846, -0.29817876, -714889.75, 5960.2554, 0.0, 10.000309, 9.999324 
2.1350364e+3, 2.3643933e+2, -771754.9, -784995.94, -43835.45, -0.059212685, -0.34920788, -734042.8, -111181.28, 0.0, 9.999427, 9.999261 
2.134978e+3, 2.4643864e+2, -781032.0, -663511.7, -51838.49, -0.058780715, -0.35846347, -643913.8, -119045.33, 0.0, 9.998367, 9.999931 
2.1349196e+3, 2.564386e+2, -855984.1, -652773.5, -53194.99, -0.06658397, -0.34288946, -639690.75, -212820.44, 0.0, 9.997197, 9.999897 
2.1348618e+3, 2.664392e+2, -820331.3, -498518.22, -46518.49, -0.059192695, -0.2934312, -491928.84, -163064.16, 0.0, 9.996399, 10.000667 
2.134804e+3, 2.764402e+2, -808750.06, -445791.44, -51136.703, -0.044555508, -0.2442876, -438724.44, -207870.03, 0.0, 9.995821, 10.000634 
2.1347459e+3, 2.8644007e+2, -808435.2, -304556.34, -52998.555, -0.0644595, -0.34598723, -299042.22, -166186.16, 0.0, 9.994761, 10.001441 
2.1346878e+3, 2.9644004e+2, -913910.1, -319235.53, -52728.19, -0.101819135, -0.47813392, -314596.44, -279739.56, 0.0, 9.993429, 10.00131 
2.1346316e+3, 3.064449e+2, -971132.25, -292803.34, -58006.58, 0.06959501, -0.1133952, -287878.75, -287878.75, 0.0, 9.9925785, 10.001567 
2.1345723e+3, 3.164436e+2, -878609.25, 98001.11, 20779.225, -0.06240231, -0.39603072, 98443.03, 98443.03, 0.0, 9.991723, 10.004662 
2.1456845e+3, 1.2652801e+2, -934067.56, -1730170.5, 21672.89, -0.042993028, -0.3602053, -933478.0, 766513.06, 0.31354663, 10.0101795, 9.99499 
2.1456267e+3, 1.3652329e+2, -797797.0, -1664564.9, 21582.74, 0.04889049, -0.3146271, -797259.94, 804779.6, 0.2285304, 10.0096655, 9.995016 
2.1455677e+3, 1.4651845e+2, -649386.1, -1456244.0, 22964.672, 0.019668268, -0.34598318, -648733.06, 855353.8, 0.14097016, 10.008733, 9.996272 
2.1455081e+3, 1.5651444e+2, -641398.3, -1438007.0, 18417.14, -0.041325737, -0.35840514, -640972.75, 765152.3, 0.06871937, 10.007555, 9.996241 
2.1454492e+3, 1.6651112e+2, -604061.2, -1297162.5, 12965.847, -0.045847543, -0.33642, -603818.7, 704339.2, 0.023972526, 10.0064745, 9.997057 
2.1453907e+3, 1.7650835e+2, -639188.5, -1271000.0, 9989.628, -0.025240147, -0.30395907, -639030.6, 571155.6, 0.0048332447, 10.005465, 9.997049 
2.1453315e+3, 1.865055e+2, -632519.25, -1112607.3, -1077.1552, -0.020014377, -0.3237422, -632516.8, 479696.78, 0.00026769371, 10.004363, 9.997994 
2.1452722e+3, 1.965028e+2, -707460.8, -1107434.3, -1258.8394, -0.021954438, -0.37501672, -707456.9, 306781.56, 0.000000000027357056, 10.003215, 9.9979105 
2.1452129e+3, 2.0650102e+2, -716363.25, -1004113.0, -4099.0103, -0.046751294, -0.349006, -716304.9, 199952.06, 0.0, 10.002235, 9.99842 
2.1451533e+3, 2.1649995e+2, -746985.3, -968098.0, -8943.233, -0.084985934, -0.28308797, -746624.2, 71645.72, 0.0, 10.00135, 9.998421 
2.1450943e+3, 2.2649863e+2, -733159.1, -797740.5, -7908.213, -0.08048742, -0.29101595, -732204.8, -11922.351, 0.0, 10.000286, 9.99943 
2.1450354e+3, 2.3649734e+2, -811575.44, -795109.1, -6308.2534, -0.050665606, -0.34579936, -792970.3, -170677.25, 0.0, 9.99912, 9.999336 
2.1449763e+3, 2.4649662e+2, -812909.1, -691640.0, -14535.7, -0.051028132, -0.355561, -689922.06, -165621.55, 0.0, 9.998208, 9.999812 
2.144917e+3, 2.5649643e+2, -827332.75, -648188.1, -20244.586, -0.068743214, -0.34010345, -645928.8, -219624.95, 0.0, 9.9974375, 9.999809 
2.1448581e+3, 2.66497e+2, -810181.4, -486502.13, -4179.6333, -0.06041635, -0.29469272, -486448.16, -158149.44, 0.0, 9.996442, 10.000727 
2.1447995e+3, 2.7649802e+2, -880444.06, -474867.0, 492.58182, -0.03436224, -0.24849571, -474866.4, -244578.25, 0.0, 9.99531, 10.000679 
2.1447402e+3, 2.864979e+2, -865357.8, -330183.63, 382.12448, -0.059067346, -0.34799013, -330183.34, -197893.9, 0.0, 9.994369, 10.001452 
2.1446806e+3, 2.964978e+2, -893130.94, -300740.0, 9286.165, -0.12106774, -0.48489314, -300594.47, -266303.78, 0.0, 9.99354, 10.001381 
2.144624e+3, 3.0650315e+2, -960471.75, -260816.25, 16385.781, 0.067488484, -0.09029132, -260432.7, -260432.7, 0.0, 9.992541, 10.001801 
2.1445635e+3, 3.165016e+2, -966217.3, 15534.261, 27995.123, -0.07428613, -0.4146308, 16331.907, 16331.907, 0.0, 9.991304, 10.0042925 
2.1556953e+3, 1.2658733e+2, -933919.9, -1709154.0, 7931.194, 0.016431883, -0.34982085, -933838.75, 765572.06, 0.32377848, 10.010237, 9.995108 
2.1556358e+3, 1.3658272e+2, -800176.1, -1647962.1, 5607.5776, -0.0011180241, -0.3060904, -800139.0, 801318.2, 0.23622817, 10.009656, 9.995135 
2.1555758e+3, 1.4657775e+2, -663245.06, -1473849.5, -12973.1, -0.035692967, -0.35067534, -663037.5, 840468.3, 0.145961, 10.00872, 9.996141 
2.1555158e+3, 1.5657383e+2, -649132.44, -1453937.1, -19122.596, -0.005843174, -0.33939162, -648678.3, 756864.7, 0.07136189, 10.007565, 9.996129 
2.1554558e+3, 1.6657028e+2, -606574.5, -1304078.6, -21554.016, -0.0071274503, -0.33453664, -605909.06, 701668.94, 0.025034705, 10.006485, 9.997005 
2.1553957e+3, 1.7656699e+2, -641451.06, -1277043.0, -25797.031, -0.03585827, -0.3475457, -640405.75, 569205.3, 0.005111383, 10.005467, 9.997009 
2.1553354e+3, 1.8656437e+2, -631470.56, -1113412.6, -41772.945, -0.048273914, -0.3410479, -627876.6, 483759.7, 0.00029648433, 10.004371, 9.997988 
2.1552752e+3, 1.965624e+2, -706270.75, -1109754.6, -40309.61, -0.047319748, -0.32219115, -702283.06, 311371.78, 0.00000000007381513, 10.00323, 9.99789 
2.1552148e+3, 2.0656031e+2, -722404.56, -1020506.0, -35227.582, -0.051371697, -0.3180713, -718298.1, 197377.92, 0.0, 10.002247, 9.998303 
2.1551548e+3, 2.1655837e+2, -753071.06, -981205.75, -41026.46, -0.060445726, -0.32796606, -745917.44, 71779.68, 0.0, 10.001348, 9.998335 
2.1550944e+3, 2.265572e+2, -727884.44, -787621.9, -49994.867, -0.061844703, -0.3209878, -699515.5, 20192.918, 0.0, 10.000285, 9.999502 
2.1550344e+3, 2.3655665e+2, -807826.5, -789872.7, -46772.4, -0.05738652, -0.30792677, -751223.56, -129511.2, 0.0, 9.9991255, 9.9993725 
2.1549743e+3, 2.4655591e+2, -824753.9, -719139.0, -43581.727, -0.05912095, -0.31087804, -703477.5, -179757.34, 0.0, 9.998216, 9.999622 
2.1549143e+3, 2.5655523e+2, -834732.9, -667340.3, -51036.258, -0.06742326, -0.32584175, -653007.1, -227279.03, 0.0, 9.997449, 9.999675 
2.1548542e+3, 2.6655537e+2, -793889.75, -456101.9, -47820.535, -0.061796434, -0.33022356, -449462.47, -121735.75, 0.0, 9.996451, 10.000933 
2.1547946e+3, 2.765561e+2, -867013.44, -448457.47, -41260.867, -0.040346913, -0.33296257, -444428.78, -214710.52, 0.0, 9.995311, 10.000862 
2.1547349e+3, 2.865571e+2, -858025.5, -315295.38, -31100.594, -0.03450635, -0.33310354, -313519.0, -181810.47, 0.0, 9.994366, 10.001558 
2.1546748e+3, 2.9655847e+2, -878998.7, -276078.84, -22084.623, -0.06631755, -0.33424744, -275271.0, -241575.16, 0.0, 9.993555, 10.001546 
2.1546155e+3, 3.0656084e+2, -940602.4, -224223.11, -27183.998, -0.008837157, -0.2591713, -223193.05, -223193.05, 0.0, 9.992556, 10.002049 
2.1545549e+3, 3.165618e+2, -927725.7, 91419.77, -73148.0, -0.044815794, -0.35660893, 96643.12, 96643.12, 0.0, 9.99131, 10.004817 
2.165706e+3, 1.2664793e+2, -856533.44, -1669452.8, 27174.443, 0.035663623, -0.31945384, -855626.06, 843191.9, 0.33364093, 10.011194, 9.995013 
2.165645e+3, 1.36643e+2, -800006.44, -1639746.4, 24718.506, -0.016519113, -0.30807903, -799279.44, 801587.5, 0.2436031, 10.009714, 9.995164 
2.1655837e+3, 1.4663795e+2, -674135.25, -1470982.8, 14224.6045, -0.062096212, -0.36616817, -673881.4, 829034.7, 0.1507185, 10.008645, 9.996199 
2.1655235e+3, 1.5663429e+2, -621440.3, -1434630.9, 18897.521, 0.0025432615, -0.33325022, -621001.44, 783949.3, 0.07387556, 10.007773, 9.996159 
2.1654624e+3, 1.6663067e+2, -578797.94, -1296509.3, 19382.12, 0.0027231376, -0.3289245, -578274.94, 728711.06, 0.026047925, 10.006719, 9.996943 
2.1654008e+3, 1.7662717e+2, -629953.1, -1277810.8, 14942.761, -0.04552836, -0.35748002, -629608.7, 579412.44, 0.005378255, 10.005581, 9.996946 
2.1653396e+3, 1.8662451e+2, -604246.5, -1109657.5, -2748.8018, -0.06101513, -0.347115, -604231.5, 506815.56, 0.00032492672, 10.004603, 9.997899 
2.1652783e+3, 1.9662258e+2, -641289.44, -1086348.5, -8832.881, -0.053621165, -0.31225318, -641114.25, 371951.38, 0.000000000201105, 10.003715, 9.997815 
2.1652171e+3, 2.066204e+2, -673347.6, -993189.6, -2334.6204, -0.051280018, -0.3162624, -673330.6, 241756.92, 0.0, 10.002572, 9.998332 
2.165156e+3, 2.1661824e+2, -760212.2, -982604.25, 1316.1387, -0.053486187, -0.3481587, -760204.44, 56905.29, 0.0, 10.001295, 9.998347 
2.1650948e+3, 2.2661708e+2, -739675.2, -808008.4, -11118.426, -0.05578385, -0.33132067, -737911.6, -18790.357, 0.0, 10.000273, 9.999365 
2.1650335e+3, 2.3661669e+2, -777028.75, -786083.56, -22476.512, -0.055999406, -0.29052818, -758628.2, -137503.16, 0.0, 9.999389, 9.9992695 
2.1649724e+3, 2.466159e+2, -793921.1, -695024.8, -7702.2734, -0.05668339, -0.2933399, -694428.56, -171295.66, 0.0, 9.998391, 9.9997015 
2.1649113e+3, 2.5661513e+2, -847041.4, -663714.6, 3339.0054, -0.061076883, -0.3250235, -663653.9, -238512.7, 0.0, 9.997327, 9.999757 
2.1648505e+3, 2.6661518e+2, -811072.7, -458039.0, 939.7876, -0.062621385, -0.34161326, -458036.5, -130896.32, 0.0, 9.99631, 10.000985 
2.1647896e+3, 2.7661592e+2, -861603.1, -437961.8, -4122.288, -0.04977259, -0.34940434, -437921.7, -208789.83, 0.0, 9.995317, 10.000929 
2.164729e+3, 2.866173e+2, -858508.3, -300743.78, 8244.955, -0.01956254, -0.31926313, -300621.94, -169503.86, 0.0, 9.994302, 10.001687 
2.1646684e+3, 2.9661915e+2, -921954.25, -282219.7, 14065.668, -0.021267697, -0.28917477, -281910.56, -248809.72, 0.0, 9.993202, 10.001672 
2.1646072e+3, 3.066203e+2, -1010281.44, -223488.77, 1200.1259, -0.054673098, -0.35339534, -223486.94, -223486.94, 0.0, 9.991937, 10.002349 
2.164546e+3, 3.1662264e+2, -951088.5, 106900.14, -38280.05, -0.026510391, -0.34360602, 108283.38, 108283.38, 0.0, 9.991042, 10.005049 
2.175717e+3, 1.2670963e+2, -884217.4, -1699872.5, -14338.904, 0.021204263, -0.27591014, -883965.4, 814249.2, 0.3429405, 10.011163, 9.994726 
2.1756548e+3, 1.3670404e+2, -808767.3, -1646089.6, -11000.744, -0.0054555545, -0.3190673, -808622.8, 791646.8, 0.2505144, 10.00972, 9.995118 
2.1755923e+3, 1.4669894e+2, -665516.5, -1448469.1, -10593.811, -0.06691313, -0.3900292, -665373.2, 836945.56, 0.1551586, 10.00866, 9.996377 
2.175531e+3, 1.5669565e+2, -614154.8, -1416252.1, -10874.18, -0.013712036, -0.33733597, -614007.44, 790342.06, 0.07622294, 10.007779, 9.9962845 
2.1754688e+3, 1.6669218e+2, -584763.44, -1309434.3, -20507.121, -0.013478016, -0.31934896, -584183.56, 722199.75, 0.02700142, 10.006722, 9.996855 
2.1754062e+3, 1.7668867e+2, -635914.3, -1292693.8, -23629.324, -0.055235855, -0.3384922, -635065.3, 573352.9, 0.005632418, 10.005588, 9.996843 
2.175344e+3, 1.866857e+2, -616092.3, -1136380.0, -33429.023, -0.061124112, -0.3446701, -613953.25, 496494.28, 0.0003529159, 10.004608, 9.997716 
2.175282e+3, 1.9668327e+2, -651084.1, -1106967.4, -41600.7, -0.043464486, -0.34004262, -647319.06, 365152.3, 0.0000000007393769, 10.003712, 9.997678 
2.1752195e+3, 2.0668116e+2, -663033.94, -972859.0, -48276.723, -0.047747213, -0.338863, -655685.75, 258806.23, 0.0, 10.002572, 9.998474 
2.1751569e+3, 2.166794e+2, -754913.75, -973699.75, -42150.285, -0.06551135, -0.34546405, -747074.2, 69434.98, 0.0, 10.001299, 9.998409 
2.1750948e+3, 2.2667812e+2, -762773.8, -858746.2, -42736.78, -0.06320957, -0.32486987, -746501.9, -27979.184, 0.0, 10.000279, 9.999016 
2.1750326e+3, 2.3667727e+2, -793181.8, -821550.5, -55334.793, -0.047980744, -0.2925503, -750242.3, -129710.15, 0.0, 9.9993925, 9.999027 
2.1749707e+3, 2.4667655e+2, -769713.7, -646947.1, -47677.996, -0.04412985, -0.30174586, -630605.9, -108066.375, 0.0, 9.998396, 10.000032 
2.1749087e+3, 2.5667602e+2, -827078.94, -625151.4, -36408.254, -0.051995434, -0.33819416, -618787.44, -194243.47, 0.0, 9.9973345, 10.000021 
2.1748467e+3, 2.666764e+2, -818917.75, -476804.22, -37020.71, -0.06488362, -0.32710528, -472843.97, -146304.0, 0.0, 9.996316, 10.000856 
2.1747847e+3, 2.7667746e+2, -863813.4, -446788.84, -40791.69, -0.06557813, -0.29080543, -442836.22, -214306.94, 0.0, 9.995331, 10.000865 
2.1747231e+3, 2.866784e+2, -846411.4, -279520.06, -34595.336, -0.017031467, -0.3109216, -277416.66, -146897.34, 0.0, 9.994313, 10.00183 
2.1746616e+3, 2.9667944e+2, -916971.25, -273436.38, -33425.258, 0.007998727, -0.37266856, -271704.9, -239196.38, 0.0, 9.993203, 10.001735 
2.1745989e+3, 3.0668172e+2, -994421.3, -187443.44, -45755.188, -0.06149124, -0.34037942, -184857.44, -184857.44, 0.0, 9.991919, 10.002607 
2.1745372e+3, 3.1668434e+2, -954640.6, 94203.91, -12896.557, 0.00048798101, -0.34121183, 94362.46, 94362.46, 0.0, 9.991059, 10.004957 
2.1857278e+3, 1.2677191e+2, -895130.2, -1699937.4, -1385.4116, 0.016666971, -0.29186347, -895127.8, 802477.06, 0.35152143, 10.011157, 9.994727 
2.1856643e+3, 1.367668e+2, -786745.75, -1615582.8, 24652.51, -0.0018745863, -0.29765952, -786013.1, 813642.06, 0.25686517, 10.009936, 9.995223 
2.1856008e+3, 1.4676173e+2, -646695.8, -1450427.8, 32842.03, -0.071304634, -0.36039606, -645356.06, 856348.1, 0.15923141, 10.00892, 9.996235 
2.1855386e+3, 1.567581e+2, -594147.6, -1417044.8, 15066.056, -0.021563716, -0.32740018, -593871.9, 809866.9, 0.078383766, 10.007999, 9.99617 
2.1854754e+3, 1.6675453e+2, -557347.44, -1287865.9, -1246.8326, -0.01594649, -0.31710973, -557345.3, 748427.6, 0.027889527, 10.00689, 9.9969225 
2.1854116e+3, 1.7675106e+2, -619903.4, -1280759.1, 6252.8506, -0.048675206, -0.33614144, -619844.25, 587962.3, 0.0058733155, 10.005686, 9.996876 
2.1853484e+3, 1.8674807e+2, -625056.6, -1155272.5, 8773.179, -0.057117555, -0.33753145, -624911.5, 484924.9, 0.00038038864, 10.004615, 9.997581 
2.1852854e+3, 1.9674556e+2, -673013.5, -1129307.5, 1728.6454, -0.047338195, -0.3275081, -673007.0, 338854.88, 0.000000002893483, 10.003617, 9.997566 
2.1852219e+3, 2.0674333e+2, -665670.56, -976792.6, -18026.625, -0.04811228, -0.33021578, -664629.56, 249253.83, 0.0, 10.002571, 9.998445 
2.1851581e+3, 2.1674146e+2, -727685.1, -963533.7, -23503.98, -0.056838877, -0.3439451, -725365.6, 90535.375, 0.0, 10.001504, 9.998378 
2.185095e+3, 2.2674006e+2, -739178.06, -850581.3, -6642.253, -0.05933677, -0.32843888, -738783.44, -20868.158, 0.0, 10.00046, 9.998982 
2.1850319e+3, 2.3673913e+2, -790824.7, -822439.25, 1909.7179, -0.054797098, -0.30143076, -790709.7, -170783.89, 0.0, 9.999422, 9.999003 
2.184969e+3, 2.4673845e+2, -783105.6, -650327.4, -1660.1053, -0.043159913, -0.30461904, -650306.6, -128373.734, 0.0, 9.998296, 10.000055 
2.184906e+3, 2.567381e+2, -855729.3, -635221.4, -12867.903, -0.033101693, -0.32793552, -634473.0, -210536.95, 0.0, 9.997128, 10.00005 
2.1848428e+3, 2.667385e+2, -837909.56, -479616.53, -6527.001, -0.05016952, -0.31567737, -479497.7, -153566.2, 0.0, 9.996163, 10.000909 
2.1847798e+3, 2.7673948e+2, -865903.6, -443300.5, 1664.8646, -0.06751309, -0.2894794, -443293.97, -215372.8, 0.0, 9.995302, 10.0009 
2.1847174e+3, 2.8674036e+2, -856361.9, -285665.63, -4819.8184, -0.022049962, -0.31905016, -285624.94, -155712.92, 0.0, 9.994257, 10.001813 
2.1846545e+3, 2.9674146e+2, -930575.0, -274426.1, -20221.264, 0.013696058, -0.37161264, -273803.53, -241903.08, 0.0, 9.993092, 10.001779 
2.1845908e+3, 3.067437e+2, -955038.1, -147813.5, -24603.209, -0.038748913, -0.35300505, -147064.33, -147064.33, 0.0, 9.992103, 10.00279 
2.1845278e+3, 3.1674618e+2, -973777.44, 23817.578, 18448.705, -0.015012395, -0.37618354, 24158.637, 24158.637, 0.0, 9.991195, 10.004407 
2.1957387e+3, 1.2683469e+2, -900740.3, -1681843.4, -36567.617, 0.013318398, -0.3585016, -899032.1, 797957.8, 0.35934827, 10.011097, 9.994936 
2.195674e+3, 1.3683105e+2, -782318.0, -1589234.0, -5935.607, -0.0069873487, -0.24948606, -782274.3, 816751.94, 0.26264936, 10.009937, 9.995424 
2.1956094e+3, 1.4682606e+2, -673374.4, -1502509.9, 5449.6914, -0.07767659, -0.2871214, -673338.5, 827736.44, 0.16294047, 10.008932, 9.995809 
2.1955463e+3, 1.5682147e+2, -616307.2, -1463726.5, -15369.121, -0.02470631, -0.30701116, -616028.56, 787091.06, 0.0803596, 10.007997, 9.995854 
2.1954821e+3, 1.6681762e+2, -545703.56, -1263287.6, -42660.344, -0.008476556, -0.32203057, -543176.3, 761979.7, 0.028711872, 10.006889, 9.997099 
2.1954174e+3, 1.7681427e+2, -610097.5, -1262879.8, -35136.09, -0.02882047, -0.34734365, -608211.75, 598975.4, 0.006101037, 10.005693, 9.996997 
2.195353e+3, 1.8681149e+2, -631434.9, -1171134.4, -26622.031, -0.050758556, -0.32467675, -630124.9, 479090.1, 0.00040739242, 10.004621, 9.997471 
2.1952885e+3, 1.9680923e+2, -681020.44, -1146786.8, -34023.344, -0.06608672, -0.278656, -678548.25, 332690.6, 0.000000010094747, 10.003616, 9.99745 
2.1952242e+3, 2.0680673e+2, -679050.44, -1006568.8, -56397.895, -0.052859873, -0.2939321, -669610.9, 243652.45, 0.0, 10.002575, 9.998241 
2.19516e+3, 2.168043e+2, -735765.8, -982327.8, -60557.1, -0.02911112, -0.34268233, -721695.5, 93590.56, 0.0, 10.001508, 9.99825 
2.1950954e+3, 2.2680287e+2, -720574.2, -814039.94, -43674.39, -0.045305826, -0.3407614, -703342.9, 13956.97, 0.0, 10.000464, 9.999234 
2.1950307e+3, 2.3680215e+2, -779271.94, -800407.75, -36769.84, -0.07896838, -0.3172492, -751581.5, -132274.34, 0.0, 9.999426, 9.999156 
2.1949668e+3, 2.4680153e+2, -803761.44, -695510.8, -46339.047, -0.055342875, -0.30188087, -678384.06, -157069.98, 0.0, 9.998301, 9.999745 
2.194903e+3, 2.568012e+2, -870058.7, -667511.06, -55491.74, -0.006137607, -0.2924742, -653304.5, -229986.08, 0.0, 9.997133, 9.999827 
2.1948391e+3, 2.6680136e+2, -820402.75, -446260.63, -39862.66, -0.018387085, -0.30869725, -442060.63, -116744.766, 0.0, 9.996171, 10.001137 
2.1947749e+3, 2.7680188e+2, -855275.2, -424357.4, -32587.803, -0.055499375, -0.35091707, -421906.94, -194598.19, 0.0, 9.995311, 10.00103 
2.1947111e+3, 2.86803e+2, -873061.56, -322768.16, -50277.746, -0.03681387, -0.34377047, -318212.22, -188915.02, 0.0, 9.994262, 10.001558 
2.1946472e+3, 2.9680508e+2, -929171.06, -276086.34, -65000.418, -0.010643255, -0.2769067, -269679.8, -238402.61, 0.0, 9.993106, 10.001764 
2.1945833e+3, 3.0680612e+2, -937312.2, -118474.63, -58176.09, 0.014082323, -0.3981034, -114362.04, -114362.04, 0.0, 9.99213, 10.002981 
2.1945187e+3, 3.1680873e+2, -1049352.5, -137709.38, -39778.496, -0.01858471, -0.39572698, -135976.98, -135976.98, 0.0, 9.991214, 10.003289 
2.2057493e+3, 1.2689948e+2, -946135.3, -1707540.9, -7003.1665, -0.008523403, -0.34633633, -946070.94, 750284.5, 0.36655834, 10.010728, 9.994881 
2.205684e+3, 1.368956e+2, -746754.7, -1573907.3, 15281.606, 0.00028444204, -0.25356376, -746472.44, 851921.4, 0.26796293, 10.010354, 9.995366 
2.2056186e+3, 1.4689066e+2, -639365.8, -1495358.9, 21459.676, -0.06350349, -0.27764383, -638828.2, 861614.3, 0.16633675, 10.009304, 9.995683 
2.205554e+3, 1.5688588e+2, -636747.8, -1485566.1, 18943.783, -0.02746317, -0.30278155, -636325.25, 766164.06, 0.082166925, 10.007911, 9.995744 
2.2054888e+3, 1.6688198e+2, -554146.8, -1267558.5, -4522.0044, -0.014407, -0.31675467, -554118.2, 750408.0, 0.029469643, 10.006842, 9.997089 
2.2054231e+3, 1.7687868e+2, -577399.75, -1249050.8, -9881.14, -0.029179875, -0.3351332, -577254.4, 629302.25, 0.0063146674, 10.005935, 9.996973 
2.2053574e+3, 1.8687579e+2, -614747.6, -1172747.5, -7550.064, -0.044459883, -0.31529686, -614645.5, 493939.94, 0.00043380522, 10.004783, 9.99738 
2.205292e+3, 1.9687335e+2, -700618.06, -1163553.4, -13272.3545, -0.05414924, -0.27739814, -700237.9, 310373.25, 0.000000028477313, 10.003518, 9.99738 
2.2052266e+3, 2.0687081e+2, -682056.6, -1005881.1, -19245.82, -0.048482474, -0.2931398, -680916.8, 231718.98, 0.0, 10.00255, 9.998256 
2.2051612e+3, 2.1686842e+2, -703776.25, -964838.2, -11572.421, -0.036448877, -0.3391034, -703264.25, 111393.76, 0.0, 10.001724, 9.998263 
2.2050957e+3, 2.2686693e+2, -707086.4, -807686.8, -9136.452, -0.044524737, -0.3398889, -706263.4, 10408.636, 0.0, 10.000563, 9.999228 
2.2050303e+3, 2.3686615e+2, -805958.9, -812706.75, -18800.049, -0.061827295, -0.32187924, -790232.44, -171552.61, 0.0, 9.999246, 9.999155 
2.204965e+3, 2.468655e+2, -808250.56, -696706.5, -12440.776, -0.04620598, -0.3073854, -695335.8, -174649.05, 0.0, 9.998272, 9.999748 
2.2049001e+3, 2.5686517e+2, -823892.2, -644795.44, 97.95813, -0.014037263, -0.296831, -644795.44, -222104.48, 0.0, 9.997453, 9.999827 
2.2048353e+3, 2.6686522e+2, -796606.4, -434491.44, 9239.083, -0.011382561, -0.32008997, -434255.84, -109566.695, 0.0, 9.996338, 10.001135 
2.2047703e+3, 2.7686563e+2, -891677.94, -441085.5, -1734.8601, -0.020774458, -0.37192917, -441078.84, -214395.8, 0.0, 9.995063, 10.001032 
2.2047053e+3, 2.8686687e+2, -905525.94, -337210.6, -7616.439, -0.018095907, -0.35445735, -337108.53, -208437.81, 0.0, 9.994038, 10.001565 
2.2046402e+3, 2.9686907e+2, -911197.0, -262300.3, -2937.4788, -0.019728184, -0.27452067, -262287.0, -231637.19, 0.0, 9.993211, 10.001806 
2.2045752e+3, 3.0687022e+2, -927067.8, -124635.23, -16037.14, 0.012232572, -0.38409695, -124314.84, -124314.84, 0.0, 9.992251, 10.002879 
2.20451e+3, 3.1687373e+2, -1096611.9, -146202.06, -29414.018, 0.0078090467, -0.26909533, -145292.61, -145292.61, 0.0, 9.990837, 10.0034075 
2.2157593e+3, 1.2696588e+2, -966124.25, -1750721.1, -21276.55, -0.05042822, -0.27909967, -965547.7, 730157.6, 0.37341124, 10.010738, 9.994583 
2.2156943e+3, 1.3696052e+2, -769065.25, -1607857.3, 3134.2192, 0.011839101, -0.29892528, -769053.56, 828704.3, 0.27296117, 10.01033, 9.995086 
2.2156279e+3, 1.4695558e+2, -638911.4, -1486019.6, -20071.385, -0.038028207, -0.31713447, -638436.06, 861370.4, 0.16949454, 10.009288, 9.9957695 
2.2155617e+3, 1.569512e+2, -635728.2, -1480697.6, -23905.602, -0.030936172, -0.31009662, -635052.4, 766796.7, 0.08383038, 10.007907, 9.995781 
2.2154951e+3, 1.6694744e+2, -566889.06, -1294506.6, -34860.035, -0.032269485, -0.3016733, -565222.7, 738662.44, 0.03016499, 10.006843, 9.996901 
2.2154285e+3, 1.769441e+2, -588618.5, -1273812.6, -43664.297, -0.04865864, -0.30251437, -585847.2, 620069.25, 0.0065121185, 10.005937, 9.996805 
2.215362e+3, 1.8694085e+2, -619721.06, -1185769.5, -53033.4, -0.0392363, -0.30994064, -614795.2, 493153.7, 0.0004590721, 10.004789, 9.997291 
2.2152956e+3, 1.9693784e+2, -701662.4, -1169184.6, -54757.617, -0.01520843, -0.31845763, -695334.7, 314644.53, 0.00000006505372, 10.003528, 9.997339 
2.215229e+3, 2.069355e+2, -667444.75, -978469.94, -47506.98, -0.036790166, -0.32351723, -660350.2, 251651.28, 0.0, 10.002558, 9.998443 
2.2151624e+3, 2.1693365e+2, -696475.44, -950094.25, -43524.54, -0.07965493, -0.33269346, -689213.94, 124804.12, 0.0, 10.00172, 9.998368 
2.2150959e+3, 2.2693214e+2, -725563.9, -847042.2, -57562.316, -0.05703066, -0.32618338, -702621.1, 13411.882, 0.0, 10.000562, 9.9989605 
2.2150297e+3, 2.3693101e+2, -816223.5, -836014.6, -63781.656, -0.004215911, -0.3148244, -761574.3, -143529.42, 0.0, 9.999249, 9.998997 
2.2149634e+3, 2.4693027e+2, -785895.0, -653137.3, -42993.777, -0.016664632, -0.32224658, -640430.0, -120378.125, 0.0, 9.998279, 10.000047 
2.214897e+3, 2.569299e+2, -808066.06, -616112.44, -33505.902, -0.060142606, -0.34326452, -610432.0, -188377.45, 0.0, 9.997465, 10.000021 
2.2148311e+3, 2.6693004e+2, -813859.75, -473286.44, -40107.6, -0.031342812, -0.34992796, -468626.9, -144574.73, 0.0, 9.9963455, 10.000868 
2.2147657e+3, 2.7693075e+2, -900800.8, -462325.56, -49745.44, 0.033774104, -0.3479927, -456752.72, -230708.11, 0.0, 9.995067, 10.000887 
2.2146997e+3, 2.869319e+2, -883841.3, -294125.4, -39945.99, 0.035818532, -0.35134405, -291431.88, -163398.6, 0.0, 9.994041, 10.001862 
2.2146332e+3, 2.9693332e+2, -902526.56, -247693.66, -30252.758, -0.004885704, -0.37775052, -246298.97, -216279.38, 0.0, 9.99322, 10.0019045 
2.2145665e+3, 3.0693603e+2, -959031.94, -195576.97, -62695.098, -0.06453107, -0.30045378, -190462.7, -190462.7, 0.0, 9.992264, 10.00239 
2.2145008e+3, 3.1693816e+2, -993263.2, 63803.176, -94554.96, 0.031007081, -0.2999343, 72194.54, 72194.54, 0.0, 9.99085, 10.004847 
2.2257708e+3, 1.2703247e+2, -922015.4, -1696377.1, -8142.287, 0.013211807, -0.26851863, -921929.75, 773124.0, 0.38015947, 10.011251, 9.994707 
2.225704e+3, 1.3702701e+2, -778725.4, -1611568.9, 35928.01, -0.030104816, -0.2994753, -777178.4, 819928.6, 0.2777882, 10.010292, 9.995082 
2.2256367e+3, 1.4702208e+2, -652784.44, -1489073.3, 5106.8315, -0.062562786, -0.31395924, -652753.25, 846401.6, 0.17248164, 10.009193, 9.995786 
2.2255696e+3, 1.5701777e+2, -624729.2, -1475143.3, 787.97296, -0.012889282, -0.3021539, -624728.44, 776468.44, 0.08537419, 10.008008, 9.995769 
2.225502e+3, 1.6701385e+2, -567906.75, -1314254.3, -164.36842, -0.017063342, -0.29448706, -567906.75, 735327.94, 0.030801505, 10.006928, 9.99672 
2.225434e+3, 1.7701033e+2, -601961.94, -1293971.3, -9503.406, -0.053995162, -0.29684561, -601831.5, 603437.2, 0.006691491, 10.005909, 9.996678 
2.2253667e+3, 1.8700701e+2, -602296.94, -1167654.9, -16739.613, -0.044599544, -0.308868, -601801.75, 505499.6, 0.00048235856, 10.004872, 9.997372 
2.2252993e+3, 1.9700399e+2, -652928.2, -1136482.8, -7549.9063, -0.011603904, -0.32469833, -652810.3, 356520.53, 0.00000011886449, 10.003828, 9.9974165 
2.2252314e+3, 2.0700173e+2, -652816.9, -966746.2, -126.63214, -0.032051366, -0.32626206, -652816.8, 258535.39, 0.0, 10.002644, 9.998479 
2.2251636e+3, 2.1699998e+2, -742437.2, -969829.5, -7901.78, -0.07769119, -0.32601395, -742162.94, 71204.88, 0.0, 10.001401, 9.998384 
2.2250962e+3, 2.2699842e+2, -758483.3, -872457.44, -18740.299, -0.051836964, -0.3199408, -755481.06, -40097.348, 0.0, 10.000383, 9.998869 
2.225029e+3, 2.3699714e+2, -788530.0, -827475.06, -12075.6045, 0.008692184, -0.3134129, -785089.7, -167692.34, 0.0, 9.999466, 9.998948 
2.2249617e+3, 2.4699639e+2, -768915.25, -632247.7, 7023.2827, -0.0019434264, -0.3254145, -631887.7, -112483.625, 0.0, 9.998346, 10.0001545 
2.224894e+3, 2.5699607e+2, -851475.8, -627314.75, 1692.0255, -0.04778542, -0.3527057, -627301.94, -205896.34, 0.0, 9.997133, 10.0001 
2.2248271e+3, 2.6699618e+2, -852438.2, -502021.13, -2993.9065, -0.02554164, -0.35799238, -501995.53, -178591.98, 0.0, 9.996131, 10.00077 
2.2247605e+3, 2.7699688e+2, -883345.1, -460699.63, -2006.577, 0.03484196, -0.3441753, -460690.1, -235293.67, 0.0, 9.995222, 10.00082 
2.2246936e+3, 2.8699803e+2, -863165.6, -277954.0, 1801.2646, 0.047385633, -0.3439854, -277948.47, -150563.55, 0.0, 9.9941635, 10.001911 
2.2246264e+3, 2.9699928e+2, -937568.7, -266459.75, -8218.519, 0.016384242, -0.3928278, -266359.13, -236986.22, 0.0, 9.992996, 10.00188 
2.2245581e+3, 3.0700198e+2, -1025649.0, -218684.52, -27910.475, -0.0783636, -0.3144315, -217720.33, -217720.33, 0.0, 9.9917755, 10.002462 
2.224492e+3, 3.170028e+2, -963047.56, 127849.555, 1038.6322, 0.06847201, -0.4660114, 127850.55, 127850.55, 0.0, 9.990853, 10.005281 
2.2357829e+3, 1.2709945e+2, -919332.0, -1660378.4, -31604.697, 0.13745275, -0.2869281, -917986.5, 776412.3, 0.386946, 10.011165, 9.995139 
2.2357132e+3, 1.3709483e+2, -776608.2, -1587307.4, 11206.134, -0.11564463, -0.2633202, -776453.3, 819989.9, 0.28254464, 10.010265, 9.99528 
2.235645e+3, 1.4708991e+2, -658799.0, -1497389.4, -30509.25, -0.12482217, -0.27735978, -657690.5, 840799.94, 0.17535648, 10.009194, 9.99572 
2.2355777e+3, 1.5708537e+2, -630343.94, -1487643.4, -37090.355, 0.020107169, -0.28190297, -628742.25, 771792.2, 0.08682514, 10.008012, 9.995685 
2.235509e+3, 1.6708113e+2, -580211.2, -1341457.4, -34728.617, 0.021026324, -0.2936639, -578630.1, 723945.8, 0.031388037, 10.00693, 9.996535 
2.23544e+3, 1.7707725e+2, -609409.06, -1309940.3, -44313.74, -0.048967883, -0.3140879, -606617.06, 597997.06, 0.0068541514, 10.005906, 9.9965725 
2.235371e+3, 1.8707415e+2, -587508.25, -1138039.3, -52813.344, -0.059670597, -0.31051373, -582487.56, 524156.44, 0.000503453, 10.004872, 9.997578 
2.2353025e+3, 1.9707164e+2, -642504.2, -1115781.5, -45525.594, -0.041085646, -0.29871118, -638164.8, 370503.03, 0.00000018102605, 10.003827, 9.997561 
2.235234e+3, 2.0706932e+2, -660371.3, -983951.4, -45217.367, -0.033763416, -0.3037184, -654171.4, 256518.31, 0.0, 10.002645, 9.9983635 
2.2351652e+3, 2.170673e+2, -747485.0, -982056.6, -49703.934, -0.033511564, -0.31937343, -737387.75, 75320.77, 0.0, 10.001403, 9.998302 
2.2350964e+3, 2.2706565e+2, -753660.56, -864785.8, -51204.48, -0.031221686, -0.3208053, -733664.56, -18939.48, 0.0, 10.000388, 9.998922 
2.2350278e+3, 2.370644e+2, -785609.5, -823697.8, -47597.33, -0.025416806, -0.3178223, -753387.8, -136649.58, 0.0, 9.999471, 9.998974 
2.2349598e+3, 2.4706373e+2, -775404.25, -647462.2, -39469.008, -0.001980057, -0.316388, -636266.1, -117521.875, 0.0, 9.998349, 10.0000515 
2.2348918e+3, 2.570635e+2, -854441.6, -635538.06, -42623.0, 0.024045544, -0.32289836, -627531.75, -206786.66, 0.0, 9.997137, 10.000045 
2.2348236e+3, 2.670635e+2, -847544.2, -493650.25, -38047.652, 0.0051001487, -0.34352186, -489605.9, -166861.69, 0.0, 9.996134, 10.000829 
2.2347549e+3, 2.770639e+2, -881946.1, -461581.1, -37500.43, -0.022967616, -0.364442, -458261.9, -233522.27, 0.0, 9.995233, 10.000812 
2.2346872e+3, 2.870652e+2, -880524.9, -317059.1, -43993.895, 0.011385294, -0.33206403, -313644.84, -186918.27, 0.0, 9.994171, 10.001641 
2.2346194e+3, 2.970669e+2, -949373.0, -293867.72, -56655.07, 0.03788037, -0.30870563, -289007.06, -260296.95, 0.0, 9.993002, 10.001692 
2.2345503e+3, 3.0706778e+2, -977745.3, -116695.11, -75025.875, -0.016541455, -0.44416976, -110206.77, -110206.77, 0.0, 9.991759, 10.003173 
2.2344819e+3, 3.170715e+2, -1032695.4, -25820.926, 51544.66, 0.01911272, -0.3764259, -23189.094, -23189.094, 0.0, 9.990881, 10.004219 
2.2457935e+3, 1.2716778e+2, -971308.6, -1676513.5, 3574.7822, 0.11507352, -0.29222757, -971290.5, 722439.4, 0.393765, 10.010634, 9.9952135 
2.2457235e+3, 1.3716343e+2, -782448.8, -1584860.5, 36957.766, -0.108354576, -0.23891181, -780750.2, 815021.06, 0.2872669, 10.010245, 9.995312 
2.2456543e+3, 1.4715835e+2, -642916.06, -1483379.1, -14560.876, -0.101922214, -0.27407047, -642663.9, 855156.2, 0.17816103, 10.009331, 9.995767 
2.2455855e+3, 1.5715374e+2, -610338.4, -1471403.5, -12828.276, 0.014240656, -0.28870878, -610147.3, 789717.2, 0.088209726, 10.008155, 9.995724 
2.2455156e+3, 1.671496e+2, -569992.44, -1333742.8, 4530.881, 0.011146347, -0.29112944, -569965.56, 731939.56, 0.031936012, 10.007001, 9.9965515 
2.2454455e+3, 1.7714585e+2, -612439.44, -1307266.5, 7246.722, -0.047453526, -0.29817605, -612363.9, 591578.44, 0.007004258, 10.005874, 9.996604 
2.2453757e+3, 1.8714276e+2, -596581.8, -1133931.1, -2811.8572, -0.059674177, -0.29945254, -596567.1, 509404.94, 0.0005230848, 10.004778, 9.997649 
2.245306e+3, 1.9714019e+2, -658299.44, -1117805.6, -6081.843, -0.050322745, -0.29842052, -658218.94, 349777.03, 0.00000024206346, 10.003699, 9.997607 
2.2452363e+3, 2.0713782e+2, -668828.2, -992348.94, -8895.897, -0.03419422, -0.30538917, -668583.75, 241434.55, 0.0, 10.002611, 9.998319 
2.2451665e+3, 2.1713576e+2, -731723.2, -976123.9, -8519.928, -0.015557657, -0.31958145, -731426.5, 80611.32, 0.0, 10.001524, 9.9982815 
2.2450969e+3, 2.2713414e+2, -740847.25, -850629.6, -2360.5696, -0.020196127, -0.31963712, -740796.5, -26742.518, 0.0, 10.000447, 9.998988 
2.2450271e+3, 2.3713295e+2, -798070.6, -825211.75, 1106.2622, -0.03303688, -0.31541306, -798025.56, -181959.27, 0.0, 9.9993725, 9.999007 
2.2449578e+3, 2.4713223e+2, -795310.1, -668756.0, 3900.5503, -0.0012059512, -0.31163463, -668635.9, -150562.9, 0.0, 9.99827, 9.99994 
2.2448888e+3, 2.5713193e+2, -859023.9, -645817.94, 337.79443, 0.04675881, -0.31307408, -645817.4, -225742.4, 0.0, 9.997147, 9.999966 
2.2448194e+3, 2.671319e+2, -854124.3, -492033.56, 8599.249, 0.02408255, -0.33351406, -491829.47, -169755.22, 0.0, 9.996076, 10.000864 
2.24475e+3, 2.7713227e+2, -911287.44, -473244.94, 6385.026, -0.019696336, -0.36225855, -473151.88, -249081.95, 0.0, 9.99503, 10.000824 
2.244681e+3, 2.8713346e+2, -908835.3, -338506.44, 4267.992, -0.00069474016, -0.33645475, -338474.5, -212416.4, 0.0, 9.994018, 10.001564 
2.2446118e+3, 2.9713517e+2, -956732.4, -301816.6, 1569.1952, 0.014334021, -0.30023652, -301812.8, -273771.4, 0.0, 9.992977, 10.001645 
2.2445427e+3, 3.0713606e+2, -928759.75, -79054.0, -31701.25, 0.07184624, -0.43804553, -77872.914, -77872.914, 0.0, 9.992043, 10.003291 
2.2444724e+3, 3.1714022e+2, -1055705.0, -116640.02, 67233.87, -0.01889935, -0.3292201, -111850.734, -111850.734, 0.0, 9.991073, 10.003498 
2.2558025e+3, 1.2723742e+2, -980828.7, -1691487.3, -1492.032, -0.019235916, -0.26653734, -980825.56, 712221.6, 0.4004619, 10.0107155, 9.995003 
2.2557342e+3, 1.372328e+2, -796227.25, -1601572.9, 25427.41, -0.034804773, -0.22333048, -795425.25, 799666.8, 0.29189858, 10.0102215, 9.995184 
2.255664e+3, 1.4722736e+2, -641885.8, -1470748.0, -48265.53, -0.022238668, -0.29658264, -639084.7, 858059.56, 0.1808963, 10.009299, 9.995892 
2.2555931e+3, 1.572228e+2, -603587.94, -1453551.6, -49769.793, -0.025418129, -0.31682497, -600683.56, 798504.2, 0.0895434, 10.008148, 9.995854 
2.255522e+3, 1.6721913e+2, -559675.94, -1312321.3, -33744.12, -0.036579438, -0.2865388, -558166.06, 743057.6, 0.0324552, 10.007002, 9.996701 
2.2554512e+3, 1.7721595e+2, -605016.5, -1291997.1, -32072.707, -0.049417503, -0.25320166, -603522.44, 599733.06, 0.007146154, 10.00587, 9.996714 
2.2553803e+3, 1.8721262e+2, -601320.5, -1144068.9, -41044.824, -0.048759144, -0.2774206, -598234.06, 507053.34, 0.00054217083, 10.004774, 9.997584 
2.2553095e+3, 1.9720952e+2, -661794.75, -1125700.9, -43844.168, -0.043192368, -0.32196906, -657687.4, 349628.97, 0.00000029306918, 10.003696, 9.997557 
2.2552386e+3, 2.0720714e+2, -668935.2, -994464.56, -46986.414, -0.0343826, -0.3292071, -662288.94, 247050.06, 0.0, 10.002614, 9.998305 
2.2551677e+3, 2.1720524e+2, -730372.56, -975167.44, -46383.69, -0.024055813, -0.32601395, -721878.5, 89478.41, 0.0, 10.001526, 9.99829 
2.2550972e+3, 2.2720377e+2, -736001.25, -842080.0, -40961.176, -0.018640084, -0.31644356, -722025.75, -8654.119, 0.0, 10.000449, 9.999049 
2.2550264e+3, 2.3720267e+2, -795622.44, -822435.1, -38731.47, -0.014961418, -0.30689535, -768042.75, -152660.03, 0.0, 9.999377, 9.999027 
2.2549558e+3, 2.4720179e+2, -804934.4, -690712.8, -38809.22, -0.0013305863, -0.3114399, -678774.4, -161383.02, 0.0, 9.998273, 9.999789 
2.2548854e+3, 2.5720122e+2, -866680.75, -665006.9, -41943.7, 0.014857749, -0.3248168, -656631.4, -237234.89, 0.0, 9.997155, 9.999833 
2.2548154e+3, 2.672013e+2, -854295.9, -494617.94, -32585.695, 0.030575613, -0.32901588, -491689.63, -170294.84, 0.0, 9.996079, 10.000847 
2.2547454e+3, 2.7720183e+2, -910150.0, -472540.66, -33485.12, 0.049648028, -0.33655477, -469993.25, -246605.08, 0.0, 9.99503, 10.000832 
2.2546747e+3, 2.8720263e+2, -900059.5, -322066.34, -35749.508, 0.0109861875, -0.35837758, -319863.6, -194483.23, 0.0, 9.9940195, 10.001679 
2.2546038e+3, 2.9720396e+2, -949970.2, -293020.6, -38228.445, -0.06565541, -0.3730353, -290803.53, -263435.63, 0.0, 9.992993, 10.001702 
2.2545359e+3, 3.072068e+2, -969286.0, -169518.48, -64375.51, 0.19901732, -0.2811658, -164369.88, -164369.88, 0.0, 9.992065, 10.002661 
2.2544631e+3, 3.1720784e+2, -1032729.3, -75716.195, -44201.074, -0.028403698, -0.4174622, -73679.04, -73679.04, 0.0, 9.99109, 10.0037775 
2.2658132e+3, 1.2730789e+2, -883643.5, -1658399.5, 24946.258, -0.07315018, -0.28583756, -882841.06, 809514.0, 0.40673903, 10.012051, 9.994739 
2.2657444e+3, 1.3730307e+2, -800533.56, -1610860.5, 56292.04, -0.008067791, -0.24510394, -796641.75, 797760.44, 0.29626587, 10.010263, 9.995108 
2.2656733e+3, 1.4729767e+2, -667239.9, -1470431.0, -6944.246, 0.014749535, -0.31825915, -667179.8, 829274.75, 0.18349247, 10.009054, 9.996007 
2.2656006e+3, 1.5729356e+2, -600454.75, -1438017.3, -6941.604, -0.041490935, -0.30431992, -600397.2, 798097.06, 0.09081351, 10.008129, 9.995965 
2.2655286e+3, 1.672899e+2, -556584.94, -1302566.5, 3119.5825, -0.055383075, -0.2793448, -556571.94, 743957.94, 0.032947935, 10.006997, 9.996767 
2.2654568e+3, 1.7728655e+2, -613559.7, -1288323.5, 759.0265, -0.045737304, -0.26906565, -613558.8, 589004.1, 0.0072816536, 10.005783, 9.996778 
2.265385e+3, 1.8728328e+2, -610591.5, -1141348.6, -914.093, -0.042240787, -0.29104477, -610589.94, 494004.38, 0.00056088116, 10.004686, 9.9976425 
2.265313e+3, 1.9728035e+2, -664954.44, -1118349.1, 2398.5408, -0.043271713, -0.32281497, -664941.75, 341680.22, 0.00000032053796, 10.003643, 9.99763 
2.265241e+3, 2.0727801e+2, -667450.06, -982870.94, 6243.8906, -0.038419947, -0.33138666, -667326.5, 241317.34, 0.0, 10.002583, 9.998398 
2.2651689e+3, 2.1727614e+2, -728151.94, -966929.7, 13172.701, -0.029787024, -0.33470142, -727427.44, 83233.92, 0.0, 10.001516, 9.998347 
2.2650972e+3, 2.272746e+2, -740506.0, -850452.94, 14832.823, -0.014440614, -0.32698748, -738540.06, -25863.361, 0.0, 10.000451, 9.998987 
2.2650257e+3, 2.3727344e+2, -798280.75, -827770.6, 8373.103, 0.0037583755, -0.31669655, -796069.25, -181380.45, 0.0, 9.999382, 9.998986 
2.2649539e+3, 2.4727257e+2, -794582.94, -683929.06, 14325.964, 0.004847534, -0.31751084, -682104.4, -165407.02, 0.0, 9.9983425, 9.9998 
2.2648823e+3, 2.5727203e+2, -846273.1, -656105.8, 22069.352, -0.0014764513, -0.3257312, -653578.25, -234876.06, 0.0, 9.997306, 9.999818 
2.2648112e+3, 2.6727203e+2, -839490.3, -496939.1, 30648.338, 0.027303744, -0.32913205, -494218.56, -173517.11, 0.0, 9.996228, 10.000756 
2.2647405e+3, 2.7727246e+2, -905254.6, -476153.0, 21871.426, 0.07501847, -0.33803666, -475041.06, -252344.7, 0.0, 9.995097, 10.0007715 
2.2646686e+3, 2.872733e+2, -919843.44, -325475.22, 13164.194, 0.026203817, -0.3564376, -325183.8, -200495.33, 0.0, 9.993864, 10.001727 
2.2645964e+3, 2.9727474e+2, -995062.3, -306236.34, 8369.057, -0.07320301, -0.3607419, -306134.66, -279459.94, 0.0, 9.992657, 10.001768 
2.2645278e+3, 3.0727756e+2, -986457.44, -186831.14, 20041.83, 0.21638502, -0.27241325, -186329.13, -186329.13, 0.0, 9.991994, 10.002572 
2.2644539e+3, 3.1727883e+2, -1009256.94, -40761.973, 7558.2686, -0.04675524, -0.3686642, -40702.992, -40702.992, 0.0, 9.991156, 10.003982 
2.2758247e+3, 1.2737925e+2, -903598.94, -1681971.5, -9317.33, -0.083708026, -0.31933144, -903487.44, 788165.75, 0.4122169, 10.012029, 9.994474 
2.2757542e+3, 1.373742e+2, -808892.44, -1616143.5, 16348.662, -0.020316489, -0.29407606, -808561.5, 785141.25, 0.30012167, 10.010237, 9.995075 
2.2756824e+3, 1.4736915e+2, -666483.56, -1462997.6, -32420.242, 0.018813204, -0.33821985, -665166.1, 830586.75, 0.18582918, 10.009041, 9.99608 
2.2756086e+3, 1.5736575e+2, -599211.1, -1431203.3, -37727.316, -0.04065459, -0.2591481, -597503.9, 800282.8, 0.091983974, 10.008115, 9.996023 
2.2755355e+3, 1.6736174e+2, -559363.1, -1306483.6, -38322.094, -0.054386355, -0.27060795, -557402.6, 742422.8, 0.033409953, 10.006986, 9.99675 
2.2754624e+3, 1.7735758e+2, -612203.25, -1286109.6, -39649.12, -0.039383847, -0.33742368, -609878.5, 591986.75, 0.0074109845, 10.00578, 9.996797 
2.2753894e+3, 1.8735465e+2, -601494.6, -1124059.5, -37024.918, -0.039998885, -0.33539626, -598884.4, 505009.25, 0.0005790108, 10.004687, 9.997764 
2.2753161e+3, 1.9735251e+2, -655544.9, -1099302.4, -34255.324, -0.05099943, -0.30247048, -652916.1, 352998.2, 0.00000031853554, 10.003639, 9.997766 
2.2752431e+3, 2.0735031e+2, -655011.2, -957401.0, -31996.553, -0.04675945, -0.31340697, -651662.6, 256271.89, 0.0, 10.002578, 9.998578 
2.2751702e+3, 2.1734828e+2, -722016.56, -954992.7, -24361.563, -0.034069326, -0.3471772, -719496.4, 90456.33, 0.0, 10.001514, 9.998434 
2.2750977e+3, 2.2734654e+2, -754998.75, -881901.06, -23730.318, -0.008685241, -0.3511682, -750706.44, -38735.938, 0.0, 10.000451, 9.998774 
2.275025e+3, 2.3734514e+2, -805745.94, -845632.56, -30482.656, 0.02040135, -0.34467548, -789262.25, -175276.58, 0.0, 9.999386, 9.998864 
2.2749521e+3, 2.4734446e+2, -782888.25, -662126.25, -25104.512, 0.016239747, -0.3301784, -657115.4, -141123.23, 0.0, 9.998347, 9.99995 
2.2748794e+3, 2.573443e+2, -838796.44, -644599.06, -17249.18, -0.0028769535, -0.31661808, -643078.9, -225085.95, 0.0, 9.997317, 9.999894 
2.2748071e+3, 2.673441e+2, -851731.8, -525544.1, -12747.543, 0.012768647, -0.33394122, -525046.75, -205051.7, 0.0, 9.996237, 10.000559 
2.2747351e+3, 2.7734408e+2, -914063.44, -498662.28, -23566.29, 0.048295137, -0.36647144, -497329.63, -275334.38, 0.0, 9.99511, 10.000614 
2.2746626e+3, 2.8734538e+2, -923684.0, -334870.7, -35398.438, 0.04419934, -0.32915977, -332750.22, -208767.19, 0.0, 9.993865, 10.001665 
2.2745895e+3, 2.9734746e+2, -991926.94, -298172.72, -30108.482, 0.0009692634, -0.2647333, -296868.5, -270905.7, 0.0, 9.992643, 10.001834 
2.2745183e+3, 3.073482e+2, -945117.0, -104598.7, 2428.4202, 0.09412354, -0.41905338, -104591.68, -104591.68, 0.0, 9.992002, 10.003137 
2.274445e+3, 3.1735203e+2, -1046040.44, -123476.57, -80129.35, -0.009743632, -0.30676916, -116568.66, -116568.66, 0.0, 9.9911785, 10.003406 
2.2858371e+3, 1.2745218e+2, -878628.5, -1673038.5, 2308.949, -0.054210622, -0.3299272, -878621.8, 812315.75, 0.4165827, 10.012435, 9.994378 
2.2857639e+3, 1.3744715e+2, -818226.5, -1609777.0, 37520.02, -0.036500398, -0.3129843, -816452.0, 776534.56, 0.30325058, 10.010129, 9.995174 
2.2856909e+3, 1.4744209e+2, -700927.56, -1486297.5, 19240.451, 0.0095095085, -0.35346442, -700456.44, 794580.3, 0.18778728, 10.008814, 9.995988 
2.2856162e+3, 1.5743864e+2, -619054.75, -1445761.3, 7457.2036, -0.041969918, -0.27015948, -618987.5, 778084.1, 0.09300783, 10.0079975, 9.9959755 
2.285542e+3, 1.6743463e+2, -557723.1, -1294333.3, 2520.224, -0.051820666, -0.28439876, -557714.5, 741395.9, 0.033830035, 10.006958, 9.996842 
2.285468e+3, 1.774305e+2, -602433.75, -1271110.4, 7736.8545, -0.032441154, -0.35667315, -602344.25, 598805.5, 0.0075329673, 10.005812, 9.9968815 
2.2853938e+3, 1.8742765e+2, -606782.06, -1120537.5, 10385.876, -0.035338283, -0.34877872, -606572.2, 496605.0, 0.0005966014, 10.004631, 9.997811 
2.2853196e+3, 1.9742565e+2, -680612.44, -1106410.3, 7966.756, -0.05232233, -0.30480742, -680463.44, 324733.4, 0.00000029911314, 10.003452, 9.997804 
2.2852454e+3, 2.0742345e+2, -681144.2, -969595.06, 2112.1821, -0.0455715, -0.31521642, -681128.7, 226088.64, 0.0, 10.002404, 9.998573 
2.2851714e+3, 2.1742138e+2, -736962.6, -960124.25, -4383.476, -0.026683459, -0.35266137, -736876.56, 72359.77, 0.0, 10.001409, 9.998446 
2.2850977e+3, 2.2741969e+2, -759812.25, -875765.3, 6561.226, -0.010204004, -0.35314694, -759442.1, -48188.74, 0.0, 10.000387, 9.998844 
2.285024e+3, 2.3741841e+2, -807223.94, -839533.7, 19824.225, 0.0057467464, -0.3409612, -797805.8, -184538.47, 0.0, 9.999353, 9.998919 
2.2849502e+3, 2.4741767e+2, -786907.94, -664270.0, 24018.982, 0.012105861, -0.33284333, -659733.6, -144459.34, 0.0, 9.998326, 9.999943 
2.2848764e+3, 2.5741738e+2, -842312.75, -644054.6, 19209.625, 0.012091631, -0.32970884, -642210.5, -224934.28, 0.0, 9.99729, 9.999908 
2.284803e+3, 2.6741722e+2, -864189.9, -527605.94, 28784.53, 0.012028723, -0.34172404, -525162.0, -205884.03, 0.0, 9.99614, 10.000588 
2.2847295e+3, 2.774174e+2, -936782.06, -507131.6, 33979.703, 0.02264634, -0.36024526, -504460.84, -283183.72, 0.0, 9.994947, 10.000631 
2.2846563e+3, 2.8741872e+2, -907223.2, -329781.63, 30646.879, 0.053476218, -0.31273028, -328159.66, -204895.19, 0.0, 9.993996, 10.001635 
2.2845826e+3, 2.974207e+2, -931633.06, -269936.38, 35312.625, 0.055490244, -0.25316906, -268057.2, -242811.86, 0.0, 9.993066, 10.001821 
2.2845092e+3, 3.0742127e+2, -997181.0, -117485.984, 44772.332, 0.019019475, -0.43197063, -115213.16, -115213.16, 0.0, 9.991598, 10.00324 
2.2844361e+3, 3.174253e+2, -1122043.8, -136413.31, -44613.688, 0.03454113, -0.31350192, -134398.03, -134398.03, 0.0, 9.990566, 10.003605 
2.2958496e+3, 1.275264e+2, -896383.7, -1676350.3, -41380.875, -0.008116976, -0.32056054, -894194.4, 796015.6, 0.4197196, 10.012249, 9.994427 
2.2957736e+3, 1.3752158e+2, -808944.9, -1584566.0, -13313.468, -0.0598578, -0.30944845, -808716.44, 783539.9, 0.30556187, 10.010159, 9.995349 
2.2956993e+3, 1.475163e+2, -710490.44, -1518417.4, -3785.364, -0.013539442, -0.36460212, -710472.7, 783835.6, 0.1892985, 10.008862, 9.995735 
2.295624e+3, 1.5751214e+2, -630099.0, -1468471.9, -19227.51, -0.046617895, -0.32668877, -629658.25, 766691.56, 0.0938423, 10.007986, 9.995828 
2.2955488e+3, 1.6750842e+2, -550142.9, -1275353.6, -35159.637, -0.049060907, -0.3164698, -548442.25, 749943.6, 0.034190997, 10.00694, 9.996989 
2.2954737e+3, 1.7750499e+2, -596359.94, -1256850.0, -32037.053, -0.026445018, -0.33300993, -594809.6, 605609.1, 0.0076443786, 10.005799, 9.996988 
2.2953983e+3, 1.8750207e+2, -609663.75, -1126486.4, -31403.105, -0.029970124, -0.33522362, -607762.6, 494684.4, 0.00061398605, 10.004624, 9.997776 
2.2953227e+3, 1.9749965e+2, -685150.75, -1117054.4, -31560.646, -0.048993144, -0.3296208, -682856.7, 321614.06, 0.00000029006532, 10.003451, 9.997734 
2.2952476e+3, 2.0749734e+2, -694724.5, -999767.0, -32462.26, -0.036502548, -0.33592874, -691308.2, 215185.16, 0.0, 10.002407, 9.998368 
2.2951728e+3, 2.174953e+2, -741489.6, -971056.2, -39064.65, -0.010736433, -0.3510321, -735024.2, 73489.11, 0.0, 10.001409, 9.998374 
2.2950977e+3, 2.2749397e+2, -736862.94, -829721.9, -30523.398, -0.020384034, -0.33319578, -727728.25, -17201.74, 0.0, 10.000388, 9.999163 
2.2950225e+3, 2.3749314e+2, -792132.2, -810691.94, -18172.977, -0.04130496, -0.3067773, -781006.8, -168471.83, 0.0, 9.999358, 9.999117 
2.294948e+3, 2.4749207e+2, -799228.6, -692015.75, -15583.744, -0.007473626, -0.32610148, -689796.56, -175251.47, 0.0, 9.99833, 9.999753 
2.2948737e+3, 2.574912e+2, -845502.94, -653475.75, -21934.475, 0.040727567, -0.3653071, -651002.1, -234448.88, 0.0, 9.997295, 9.999845 
2.2947988e+3, 2.6749143e+2, -845156.1, -490442.7, -17637.887, 0.023134269, -0.3527748, -489567.8, -171016.69, 0.0, 9.996143, 10.000845 
2.2947238e+3, 2.7749234e+2, -921903.56, -479055.03, -7343.7124, -0.003309347, -0.31968796, -478933.28, -258390.81, 0.0, 9.994953, 10.000824 
2.29465e+3, 2.8749338e+2, -907864.25, -334613.44, -3374.6763, 0.05364775, -0.30881315, -334593.6, -212060.47, 0.0, 9.994005, 10.0016 
2.2945757e+3, 2.9749456e+2, -939174.75, -291844.34, -8613.613, 0.08437806, -0.3248925, -291729.75, -267207.44, 0.0, 9.993087, 10.001664 
2.2945002e+3, 3.0749673e+2, -1030746.3, -185198.11, -16794.453, -0.0018845584, -0.30517882, -184864.67, -184864.67, 0.0, 9.991582, 10.002787 
2.2944267e+3, 3.174995e+2, -1017176.4, 79087.27, 23532.98, 0.059444457, -0.30363667, 79592.21, 79592.21, 0.0, 9.99057, 10.005087 
2.3058608e+3, 1.2760173e+2, -1027961.06, -1763617.3, -8774.677, 0.0076619843, -0.31351125, -1027856.44, 661615.6, 0.42165887, 10.010666, 9.994527 
2.3057836e+3, 1.37597e+2, -722555.75, -1525025.5, 11537.471, -0.072995506, -0.31623408, -722389.94, 869127.25, 0.30706143, 10.010928, 9.9955635 
2.3057081e+3, 1.4759193e+2, -621713.25, -1469563.6, 22035.203, -0.01957575, -0.35741988, -621140.94, 872425.6, 0.19033383, 10.009629, 9.995732 
2.3056318e+3, 1.575875e+2, -648707.6, -1475210.9, 25393.908, -0.03464697, -0.34569278, -647928.1, 747682.1, 0.09444546, 10.007843, 9.995847 
2.3055552e+3, 1.6758382e+2, -590578.8, -1285363.5, 20557.95, -0.040926468, -0.33468026, -589971.06, 707674.8, 0.03446622, 10.0066185, 9.997069 
2.305479e+3, 1.7758062e+2, -621240.94, -1263256.3, 19605.074, -0.030889671, -0.33298156, -620642.8, 579033.75, 0.007736849, 10.00561, 9.997031 
2.3054023e+3, 1.8757762e+2, -623724.06, -1141493.8, 15489.096, -0.032459427, -0.33772743, -623261.1, 478444.8, 0.0006307179, 10.004572, 9.997695 
2.3053259e+3, 1.9757497e+2, -679992.94, -1121095.3, 11007.907, -0.043590643, -0.34499466, -679718.44, 324013.75, 0.0000003218852, 10.003522, 9.997668 
2.3052497e+3, 2.0757273e+2, -691938.94, -1000710.2, 19870.6, -0.033901483, -0.3405421, -690665.5, 215089.27, 0.0, 10.002441, 9.998342 
2.3051739e+3, 2.1757084e+2, -750339.25, -975336.44, 24680.127, -0.014203589, -0.33493996, -747663.9, 60109.758, 0.0, 10.001356, 9.998366 
2.3050977e+3, 2.2756948e+2, -741469.5, -826657.3, 23250.338, -0.023500718, -0.32126302, -735536.94, -25749.764, 0.0, 10.00034, 9.999204 
2.3050214e+3, 2.3756854e+2, -791513.3, -805522.9, 15621.99, -0.04193841, -0.30744943, -781397.56, -169601.23, 0.0, 9.999347, 9.999155 
2.304946e+3, 2.4756755e+2, -808951.94, -693858.6, 22204.584, -0.012716412, -0.32163674, -689723.3, -175917.42, 0.0, 9.998256, 9.999773 
2.3048706e+3, 2.5756678e+2, -869938.4, -661506.1, 28566.762, 0.030654673, -0.35022062, -657661.8, -241848.4, 0.0, 9.997117, 9.999872 
2.3047946e+3, 2.67567e+2, -861243.6, -490991.56, 23236.424, 0.022121785, -0.3408217, -489539.0, -171727.78, 0.0, 9.996008, 10.000903 
2.3047188e+3, 2.7756786e+2, -924251.7, -473473.88, 20875.93, 0.009424097, -0.31536135, -472509.16, -252706.5, 0.0, 9.994915, 10.000878 
2.3046435e+3, 2.8756893e+2, -919308.3, -338866.0, 27578.898, 0.053562216, -0.30431107, -337558.6, -215765.38, 0.0, 9.993927, 10.001605 
2.3045681e+3, 2.9757017e+2, -966488.75, -308839.2, 16426.11, 0.06515221, -0.31728378, -308429.16, -284646.78, 0.0, 9.99292, 10.001625 
2.304492e+3, 3.0757222e+2, -1022102.5, -201067.11, 16776.316, 0.01574048, -0.29371482, -200724.45, -200724.45, 0.0, 9.991731, 10.0026045 
2.3044167e+3, 3.1757435e+2, -993206.0, 122098.305, 107694.195, 0.03648797, -0.33996263, 132402.11, 132402.11, 0.0, 9.990608, 10.005359 
2.3158711e+3, 1.2767786e+2, -1011602.9, -1730568.4, 6889.569, -0.003614247, -0.32070816, -1011536.8, 677189.5, 0.4223961, 10.010784, 9.994698 
2.3157942e+3, 1.3767329e+2, -723483.9, -1507264.5, 5931.8794, -0.08260851, -0.3302817, -723438.94, 867330.75, 0.30772808, 10.010811, 9.995797 
2.3157175e+3, 1.4766878e+2, -624802.94, -1458203.6, -31252.975, -0.016669419, -0.3353553, -623632.56, 869180.6, 0.1908464, 10.009533, 9.995878 
2.3156397e+3, 1.5766439e+2, -642092.4, -1459223.9, -26095.32, -0.0111026075, -0.3340851, -641259.9, 753595.9, 0.094762824, 10.007835, 9.995963 
2.3155618e+3, 1.6766056e+2, -588863.6, -1284411.4, -13234.993, -0.029781127, -0.3417654, -588611.9, 708280.7, 0.03461893, 10.006624, 9.997076 
2.3154841e+3, 1.7765723e+2, -624534.6, -1269593.1, -15714.796, -0.045185108, -0.35486272, -624152.0, 574772.75, 0.0077964473, 10.005602, 9.996995 
2.3154068e+3, 1.8765415e+2, -635205.4, -1165894.5, -21181.84, -0.04283597, -0.35476452, -634361.25, 466594.03, 0.0006449887, 10.004568, 9.997532 
2.3153292e+3, 1.9765148e+2, -685814.7, -1134608.3, -25714.814, -0.0386316, -0.35043976, -684346.06, 318636.44, 0.00000041599793, 10.003522, 9.997579 
2.315252e+3, 2.0764942e+2, -682538.44, -983129.2, -18568.898, -0.03824098, -0.32886893, -681395.7, 223607.38, 0.0, 10.002444, 9.998465 
2.3151745e+3, 2.1764782e+2, -747670.75, -971317.25, -12551.936, -0.0367255, -0.3070924, -746968.44, 60050.598, 0.0, 10.001356, 9.998397 
2.3150979e+3, 2.2764605e+2, -758911.4, -864593.8, -11953.745, -0.01969188, -0.31866735, -757576.2, -48539.426, 0.0, 10.000342, 9.998945 
2.315021e+3, 2.376445e+2, -799774.75, -824891.75, -22124.666, 0.00091293297, -0.34286922, -786892.8, -175840.45, 0.0, 9.999351, 9.999023 
2.3149441e+3, 2.4764398e+2, -793468.25, -663936.25, -21409.58, -0.006108444, -0.31841934, -660489.3, -147431.6, 0.0, 9.99826, 9.99998 
2.314867e+3, 2.576441e+2, -861451.44, -647083.8, -14690.4795, -0.022330945, -0.28133592, -646081.8, -231024.61, 0.0, 9.997125, 9.99997 
2.3147903e+3, 2.6764387e+2, -873588.25, -518523.44, -19942.316, 0.009193963, -0.30505115, -517406.9, -200347.8, 0.0, 9.99601, 10.000717 
2.3147139e+3, 2.7764386e+2, -931805.7, -490352.72, -19521.074, 0.061568163, -0.35070798, -489491.2, -270432.1, 0.0, 9.994914, 10.000766 
2.3146372e+3, 2.876453e+2, -915743.06, -332829.78, -10774.126, 0.048772965, -0.2978274, -332630.7, -211585.25, 0.0, 9.993926, 10.00165 
2.3145601e+3, 2.9764745e+2, -958048.8, -295601.13, -26018.625, -0.010340154, -0.22269465, -294580.78, -271555.53, 0.0, 9.992931, 10.001715 
2.3144838e+3, 3.076474e+2, -1015097.94, -191439.88, -27980.865, 0.08241765, -0.4222727, -190490.42, -190490.42, 0.0, 9.991745, 10.002666 
2.314407e+3, 3.1765127e+2, -1074263.1, -45212.72, 15379.943, 0.012268966, -0.27615815, -44982.906, -44982.906, 0.0, 9.990598, 10.004218 
2.3258823e+3, 1.2775563e+2, -898097.94, -1658104.5, 37322.8, -0.011946346, -0.30996504, -896269.5, 791695.06, 0.42171788, 10.012124, 9.994693 
2.3258044e+3, 1.3775092e+2, -841365.0, -1561375.9, 24307.803, -0.05085049, -0.3263419, -840545.3, 749464.2, 0.30739212, 10.009617, 9.995832 
2.3257263e+3, 1.4774676e+2, -735949.06, -1487129.9, -2678.8247, -0.00040129607, -0.31481254, -735939.5, 756109.7, 0.19070898, 10.008462, 9.996143 
2.325647e+3, 1.5774225e+2, -627282.1, -1430160.3, 10736.968, -0.020182561, -0.34848696, -627138.56, 766953.4, 0.09470853, 10.007864, 9.996144 
2.325568e+3, 1.6773842e+2, -575788.6, -1285202.3, 21267.293, -0.036270343, -0.35736206, -575151.6, 720977.4, 0.034602568, 10.006758, 9.997002 
2.3254892e+3, 1.7773516e+2, -647108.75, -1284277.0, 15953.95, -0.041219674, -0.35298377, -646709.5, 551451.25, 0.007806187, 10.005469, 9.996955 
2.3254108e+3, 1.8773209e+2, -651502.25, -1169712.6, 24074.566, -0.042530607, -0.35369256, -650386.25, 449805.2, 0.0006540901, 10.004446, 9.9975605 
2.3253323e+3, 1.977293e+2, -684319.8, -1130337.1, 30224.295, -0.045807242, -0.35814396, -682281.0, 319938.2, 0.00000058011403, 10.003525, 9.997602 
2.325254e+3, 2.077273e+2, -673535.8, -977975.1, 31805.004, -0.044882953, -0.33292586, -670248.6, 233990.89, 0.0, 10.00251, 9.998465 
2.3251759e+3, 2.1772577e+2, -733273.75, -964388.2, 28510.71, -0.04012777, -0.30229387, -729808.6, 76446.445, 0.0, 10.001461, 9.998391 
2.3250979e+3, 2.277239e+2, -756720.56, -867816.44, 39086.55, -0.019847512, -0.31991318, -744346.94, -36073.28, 0.0, 10.000381, 9.998901 
2.32502e+3, 2.3772217e+2, -812157.94, -832913.8, 43276.58, 0.0055285078, -0.3550762, -778032.4, -167741.48, 0.0, 9.999281, 9.998999 
2.3249419e+3, 2.477217e+2, -804984.2, -666907.7, 35934.72, -0.004394114, -0.32446253, -658115.44, -145819.34, 0.0, 9.998177, 9.999996 
2.3248638e+3, 2.577219e+2, -869639.06, -650383.6, 29539.71, -0.025139378, -0.27338928, -646473.56, -232178.88, 0.0, 9.997072, 9.9999695 
2.3247862e+3, 2.6772168e+2, -862619.9, -517285.22, 31182.822, 0.010394422, -0.29495683, -514492.1, -198195.02, 0.0, 9.996109, 10.000674 
2.3247087e+3, 2.7772155e+2, -901607.4, -480214.7, 37643.273, 0.06645147, -0.34793052, -476878.4, -258579.9, 0.0, 9.995146, 10.000721 
2.3246309e+3, 2.8772303e+2, -929866.0, -340392.3, 39916.64, 0.042657986, -0.2896649, -337701.63, -217416.81, 0.0, 9.99384, 10.0016365 
2.3245525e+3, 2.977254e+2, -1014154.5, -309125.16, 22054.824, -0.012762791, -0.18896656, -308435.9, -286173.78, 0.0, 9.992497, 10.001826 
2.3244756e+3, 3.0772474e+2, -974710.6, -131249.81, 44337.996, 0.08456773, -0.47358897, -128925.51, -128925.51, 0.0, 9.991853, 10.003026 
2.3243973e+3, 3.177299e+2, -1065785.3, -103408.5, 50661.47, -0.0029429067, -0.21568465, -100748.92, -100748.92, 0.0, 9.990928, 10.003658 
2.3358941e+3, 1.278345e+2, -915802.9, -1678495.4, -12172.844, -0.027332932, -0.30681792, -915608.6, 771582.94, 0.41918492, 10.011948, 9.994532 
2.3358144e+3, 1.378297e+2, -843344.1, -1573172.9, -25386.617, 0.009944109, -0.30729887, -842462.1, 746776.1, 0.30572143, 10.00964, 9.995704 
2.3357347e+3, 1.4782569e+2, -710901.56, -1446423.3, -17532.352, 0.023490226, -0.29498792, -710483.94, 780791.94, 0.18971151, 10.008502, 9.996472 
2.335654e+3, 1.5782095e+2, -616410.6, -1403498.0, -13635.325, -0.057556458, -0.3839221, -616174.5, 777145.5, 0.09417357, 10.007844, 9.996341 
2.3355742e+3, 1.6781723e+2, -588308.44, -1310680.9, -23568.172, -0.05806035, -0.37936318, -587540.3, 707816.1, 0.03437121, 10.006745, 9.996834 
2.3354946e+3, 1.7781428e+2, -649586.75, -1293873.1, -25540.063, -0.022879884, -0.32976714, -648575.9, 548810.1, 0.0077513284, 10.005482, 9.996885 
2.335415e+3, 1.8781123e+2, -637808.2, -1144159.0, -7873.952, -0.034207143, -0.33643943, -637685.75, 461730.03, 0.000655266, 10.004452, 9.997737 
2.3353355e+3, 1.9780833e+2, -678839.56, -1118115.6, -2998.5964, -0.06478008, -0.37032852, -678819.06, 322624.8, 0.0000008024406, 10.003515, 9.997695 
2.335256e+3, 2.0780617e+2, -683861.2, -999822.06, -5455.293, -0.054160096, -0.3528585, -683767.0, 219698.7, 0.0, 10.002505, 9.99832 
2.335177e+3, 2.1780454e+2, -737581.8, -974669.8, -8515.185, -0.028265374, -0.3190749, -737276.4, 68206.38, 0.0, 10.001461, 9.998323 
2.335098e+3, 2.2780287e+2, -745893.1, -847115.9, -899.9354, -0.025647515, -0.32303327, -745885.1, -38386.027, 0.0, 10.000383, 9.999045 
2.3350188e+3, 2.378014e+2, -807508.94, -825583.6, 2289.729, -0.029690826, -0.34400466, -807223.4, -197710.45, 0.0, 9.999285, 9.99905 
2.3349397e+3, 2.4780054e+2, -818251.1, -696728.8, -6788.6724, -0.006890527, -0.34152564, -696350.75, -184828.52, 0.0, 9.99818, 9.999792 
2.3348609e+3, 2.5780016e+2, -876924.6, -667877.56, -10585.79, 0.02271487, -0.33049986, -667342.9, -253815.7, 0.0, 9.997077, 9.99985 
2.334782e+3, 2.6780036e+2, -855559.2, -505374.28, -5166.7983, 0.023587938, -0.31136236, -505298.06, -189772.25, 0.0, 9.996115, 10.000756 
2.334703e+3, 2.7780095e+2, -897944.7, -478807.5, -4203.355, 0.015487047, -0.30169895, -478765.34, -261244.56, 0.0, 9.995166, 10.000724 
2.3346242e+3, 2.8780192e+2, -939144.75, -362157.5, -14869.837, 0.036229257, -0.28230214, -361774.53, -242262.5, 0.0, 9.993844, 10.001489 
2.3345454e+3, 2.9780367e+2, -1008986.2, -295232.7, -18677.57, 0.06840992, -0.23134276, -294744.25, -273248.9, 0.0, 9.992477, 10.001935 
2.3344661e+3, 3.0780452e+2, -917651.5, -15164.988, 27501.668, -0.0008284709, -0.41724417, -14327.701, -14327.701, 0.0, 9.991856, 10.003824 
2.3343877e+3, 3.178086e+2, -1088850.3, -161212.52, -28336.469, -0.018126212, -0.33276677, -160347.73, -160347.73, 0.0, 9.990963, 10.003247 
2.345905e+3, 1.2791476e+2, -1006674.75, -1731411.3, 15288.551, -0.011091705, -0.30678597, -1006352.4, 680052.44, 0.41429955, 10.010708, 9.994728 
2.345824e+3, 1.3790973e+2, -790927.94, -1552864.4, 14503.766, 0.021098053, -0.32884097, -790651.94, 797801.5, 0.30233926, 10.010142, 9.995656 
2.3457429e+3, 1.4790586e+2, -661085.44, -1426724.6, 26023.035, 0.021196706, -0.2927874, -660201.94, 830288.1, 0.18762837, 10.008937, 9.996421 
2.3456614e+3, 1.5790111e+2, -654089.06, -1425798.6, 13303.185, -0.062907845, -0.375301, -653859.8, 738675.1, 0.09305686, 10.007566, 9.996317 
2.3455806e+3, 1.6789733e+2, -607955.7, -1316556.6, 7997.292, -0.06477839, -0.37630033, -607865.44, 686706.44, 0.0338909, 10.006592, 9.996863 
2.3455e+3, 1.7789435e+2, -608800.4, -1268309.0, 16293.17, -0.030999165, -0.33110517, -608398.06, 588203.5, 0.007622064, 10.005747, 9.996929 
2.3454192e+3, 1.8789136e+2, -619429.9, -1125435.1, 29310.695, -0.0366039, -0.33571532, -617737.7, 480892.66, 0.0006459468, 10.004544, 9.997817 
2.3453383e+3, 1.9788854e+2, -718157.06, -1133147.5, 28656.883, -0.0592009, -0.36817044, -716187.5, 284469.8, 0.0000010234135, 10.003235, 9.997723 
2.345258e+3, 2.0788622e+2, -724940.56, -1032353.1, 31258.783, -0.05408459, -0.35890782, -721794.25, 180886.63, 0.0, 10.002285, 9.998199 
2.345178e+3, 2.1788436e+2, -742659.25, -980228.7, 26281.463, -0.03699084, -0.33371463, -739786.56, 64913.7, 0.0, 10.001447, 9.998288 
2.345098e+3, 2.2788283e+2, -742916.25, -826780.94, 29512.303, -0.038300704, -0.33250386, -733571.9, -26856.912, 0.0, 10.000329, 9.999207 
2.3450176e+3, 2.378816e+2, -825739.5, -825548.4, 36414.152, -0.04367622, -0.34416062, -789229.7, -180503.52, 0.0, 9.999128, 9.999123 
2.3449378e+3, 2.478806e+2, -822332.25, -716749.6, 35658.836, -0.011961914, -0.34476522, -705834.75, -195097.72, 0.0, 9.998237, 9.999625 
2.3448579e+3, 2.5787997e+2, -834349.6, -657579.2, 31364.832, 0.031186951, -0.3412464, -652179.0, -239434.03, 0.0, 9.99742, 9.999752 
2.3447779e+3, 2.6788023e+2, -839846.4, -493477.16, 29683.43, 0.021961443, -0.31528795, -490951.75, -176208.33, 0.0, 9.996212, 10.000788 
2.3446976e+3, 2.7788094e+2, -936942.6, -491393.78, 26159.973, -0.0035509018, -0.29104233, -489863.06, -273126.22, 0.0, 9.99488, 10.0007715 
2.3446177e+3, 2.878819e+2, -919729.0, -346466.8, 27907.803, 0.030936081, -0.27853495, -345111.4, -226383.19, 0.0, 9.993957, 10.001538 
2.3445381e+3, 2.9788345e+2, -916144.4, -248947.42, 37909.254, 0.08763857, -0.2507254, -246800.38, -226087.11, 0.0, 9.993113, 10.001944 
2.3444575e+3, 3.0788472e+2, -930847.06, -3188.8904, 45394.84, -0.01725908, -0.40010726, -972.79333, -972.79333, 0.0, 9.9916935, 10.003982 
2.344379e+3, 3.1788936e+2, -1157309.5, -163015.17, -36057.797, 0.067636706, -0.281138, -161709.27, -161709.27, 0.0, 9.990375, 10.003511 
2.3559158e+3, 1.2799601e+2, -973343.5, -1671335.5, 7033.879, 0.017122366, -0.32129174, -973272.6, 712335.25, 0.40681434, 10.010776, 9.995169 
2.3558335e+3, 1.379908e+2, -788873.75, -1554041.6, -4856.434, -0.008273276, -0.38106635, -788842.94, 798814.3, 0.2970397, 10.010096, 9.995664 
2.3557514e+3, 1.4798707e+2, -683456.06, -1475049.0, -14841.169, -0.001446543, -0.30400816, -683177.9, 806515.8, 0.18433523, 10.008903, 9.996031 
2.355669e+3, 1.5798251e+2, -665681.94, -1457570.0, -25308.572, -0.043745093, -0.33148706, -664873.94, 726864.6, 0.09130913, 10.007568, 9.996101 
2.3555869e+3, 1.6797854e+2, -595826.94, -1293475.6, -18398.486, -0.061327763, -0.35324967, -595342.06, 698435.0, 0.03314911, 10.006593, 9.997025 
2.3555051e+3, 1.7797525e+2, -602846.9, -1254402.0, -16636.2, -0.0631036, -0.3541506, -602422.4, 593386.4, 0.00741459, 10.0057335, 9.997035 
2.3554233e+3, 1.8797238e+2, -621690.4, -1131057.0, -18200.037, -0.04858529, -0.34918576, -621040.94, 476795.34, 0.000624266, 10.004541, 9.997783 
2.3553416e+3, 1.9796981e+2, -720399.8, -1141803.5, -13323.849, -0.033144735, -0.3527799, -719978.94, 279881.9, 0.0000011501002, 10.003246, 9.997661 
2.3552603e+3, 2.0796731e+2, -731550.94, -1049264.1, 2512.405, -0.046608623, -0.3510474, -731531.1, 170355.1, 0.0, 10.002293, 9.998082 
2.3551789e+3, 2.1796516e+2, -745424.5, -986075.6, -6236.6274, -0.06705119, -0.3473945, -745263.0, 58645.73, 0.0, 10.001441, 9.998254 
2.3550977e+3, 2.2796367e+2, -731473.1, -804563.94, -14534.25, -0.05784071, -0.34913826, -728689.0, -22766.398, 0.0, 10.00033, 9.999363 
2.3550163e+3, 2.3796263e+2, -820143.3, -816578.8, -4000.5862, -0.039143454, -0.3558558, -813981.44, -206049.8, 0.0, 9.999133, 9.999185 
2.3549356e+3, 2.479618e+2, -831762.9, -739666.06, 5081.702, -0.021930384, -0.332146, -739386.5, -229445.17, 0.0, 9.998245, 9.999467 
2.3548548e+3, 2.579613e+2, -839269.5, -672849.25, -5513.4023, -0.005648409, -0.30219504, -672666.8, -260718.13, 0.0, 9.997436, 9.999643 
2.3547734e+3, 2.6796114e+2, -842117.1, -500914.22, -23616.436, 0.0044096583, -0.30719152, -499287.38, -185336.6, 0.0, 9.996218, 10.000737 
2.3546924e+3, 2.7796146e+2, -932192.9, -481098.4, -19588.521, 0.01368178, -0.32215527, -480249.38, -264301.25, 0.0, 9.994872, 10.00085 
2.3546113e+3, 2.8796294e+2, -898914.2, -305786.38, -2037.9623, 0.023822565, -0.27737328, -305779.38, -187845.88, 0.0, 9.993961, 10.001819 
2.3545302e+3, 2.9796487e+2, -919764.3, -268356.7, -276.39987, 0.026193768, -0.23644058, -268356.56, -248442.16, 0.0, 9.993157, 10.001793 
2.3544495e+3, 3.079649e+2, -983330.4, -113720.66, -20539.133, 0.057216637, -0.449682, -113235.82, -113235.82, 0.0, 9.991694, 10.003225 
2.3543687e+3, 3.179712e+2, -1073194.1, 13136.25, -11219.4, 0.047255605, -0.13453661, 13252.109, 13252.109, 0.0, 9.990359, 10.004733 
2.3659265e+3, 1.2807894e+2, -895694.5, -1641774.1, 33891.117, 0.01113765, -0.30519533, -894158.1, 790636.6, 0.3969285, 10.011543, 9.995129 
2.365843e+3, 1.3807312e+2, -823851.1, -1591525.0, 6080.039, -0.0147174, -0.39722848, -823802.94, 763047.44, 0.28993288, 10.009773, 9.995467 
2.3657598e+3, 1.4806935e+2, -718018.7, -1496933.0, 10064.247, -0.008919085, -0.31384313, -717888.7, 770998.94, 0.17988454, 10.008592, 9.996005 
2.3656763e+3, 1.5806499e+2, -655688.44, -1451322.3, 22385.617, -0.038683455, -0.3189599, -655059.1, 735871.9, 0.088954546, 10.007629, 9.996111 
2.3655933e+3, 1.6806106e+2, -592585.1, -1282264.0, 37221.31, -0.054741263, -0.3400432, -590582.1, 702386.75, 0.03215549, 10.006576, 9.9971075 
2.3655103e+3, 1.7805775e+2, -636546.06, -1269321.6, 32404.38, -0.061864916, -0.34883654, -634891.0, 560109.5, 0.0071304333, 10.0055, 9.997041 
2.3654275e+3, 1.8805474e+2, -637209.25, -1158192.5, 18256.033, -0.056554608, -0.344301, -636570.3, 460459.44, 0.00058962713, 10.004527, 9.9976 
2.3653445e+3, 1.9805202e+2, -677640.56, -1128475.3, 14105.021, -0.048260894, -0.34399158, -677199.7, 321856.75, 0.0000011145918, 10.003578, 9.997589 
2.3652622e+3, 2.0804955e+2, -703619.25, -1016251.75, 43888.977, -0.05212353, -0.34721825, -697574.75, 203506.14, 0.0, 10.002407, 9.99825 
2.36518e+3, 2.1804744e+2, -777113.5, -991247.2, 53040.242, -0.05900538, -0.35193077, -764695.7, 38406.23, 0.0, 10.001186, 9.998339 
2.3650977e+3, 2.280459e+2, -739259.2, -821582.94, 36903.54, -0.052244015, -0.3515402, -725138.4, -20021.775, 0.0, 10.00034, 9.999238 
2.3650154e+3, 2.380448e+2, -757815.25, -791609.7, 27845.676, -0.03936216, -0.35173762, -742141.06, -135014.08, 0.0, 9.999591, 9.999131 
2.3649333e+3, 2.48044e+2, -802059.0, -714372.4, 44068.66, -0.02875705, -0.32710648, -696052.3, -186916.25, 0.0, 9.998409, 9.9995575 
2.3648515e+3, 2.5804356e+2, -884546.2, -687603.0, 50095.047, -0.019239418, -0.2982065, -675593.06, -264450.66, 0.0, 9.997102, 9.9997 
2.3647693e+3, 2.6804337e+2, -849529.56, -507830.8, 35120.848, -0.0028142428, -0.30734593, -504258.34, -191113.25, 0.0, 9.996189, 10.000699 
2.364687e+3, 2.7804354e+2, -859668.6, -445303.66, 38010.945, 0.02158233, -0.32794017, -441845.66, -226702.08, 0.0, 9.995376, 10.000848 
2.3646049e+3, 2.88045e+2, -864763.8, -282657.63, 39932.258, 0.009963753, -0.2903337, -279931.03, -162801.66, 0.0, 9.994176, 10.001869 
2.3645225e+3, 2.980469e+2, -971256.5, -297301.84, 21238.55, -0.02790843, -0.25442436, -296633.22, -277522.75, 0.0, 9.992831, 10.001746 
2.3644416e+3, 3.0804712e+2, -986929.3, -162467.38, 26381.084, 0.12351284, -0.41858718, -161624.1, -161624.1, 0.0, 9.9918785, 10.002799 
2.3643582e+3, 3.180513e+2, -1005149.5, 11623.115, 50870.48, -0.04385797, -0.27481195, 14161.894, 14161.894, 0.0, 9.99098, 10.00442 
2.3759376e+3, 1.2816314e+2, -915759.3, -1695013.9, -7118.736, -0.022595664, -0.27298474, -915694.25, 768274.8, 0.3852316, 10.0113735, 9.994657 
2.3758525e+3, 1.3815656e+2, -835916.4, -1648726.0, -32820.223, -0.010386186, -0.38442665, -834593.3, 751440.56, 0.28141, 10.009749, 9.9950905 
2.3757681e+3, 1.481526e+2, -697534.9, -1467876.0, -16824.826, -0.011027027, -0.31985158, -697167.6, 790905.06, 0.174492, 10.008606, 9.996231 
2.3756833e+3, 1.5814841e+2, -643761.75, -1429893.6, -9418.824, -0.0458202, -0.33061054, -643648.9, 746464.8, 0.08608965, 10.007624, 9.9962635 
2.3755993e+3, 1.681447e+2, -592619.44, -1284249.6, -229.49374, -0.045047607, -0.33502507, -592619.4, 699529.8, 0.030945193, 10.006571, 9.997099 
2.3755157e+3, 1.7814158e+2, -643813.4, -1286299.4, -4291.5938, -0.033677228, -0.32107276, -643784.75, 550394.25, 0.0067789513, 10.0055, 9.996927 
2.3754317e+3, 1.8813825e+2, -660219.25, -1207377.6, -14110.432, -0.06307985, -0.32383454, -659855.56, 436356.94, 0.0005433839, 10.004526, 9.997265 
2.3753472e+3, 1.9813503e+2, -685679.6, -1145105.1, -20708.22, -0.10180408, -0.34152406, -684748.1, 313496.94, 0.00000092378025, 10.003572, 9.997481 
2.3752642e+3, 2.0813277e+2, -674254.8, -957495.44, -398.11264, -0.0691695, -0.34710008, -674254.25, 226011.92, 0.0, 10.002411, 9.998655 
2.3751812e+3, 2.1813108e+2, -765145.8, -969744.5, 14566.812, -0.017483387, -0.34801972, -764113.94, 38167.426, 0.0, 10.001195, 9.998486 
2.3750979e+3, 2.2812942e+2, -766691.9, -881793.0, 11008.146, -0.024253186, -0.33876005, -765648.56, -61350.39, 0.0, 10.000348, 9.998824 
2.3750147e+3, 2.3812799e+2, -769757.56, -818880.25, -5833.2847, -0.046685003, -0.33184832, -769074.3, -162761.2, 0.0, 9.999596, 9.998946 
2.3749314e+3, 2.481271e+2, -778689.6, -667817.25, -7207.417, -0.032422718, -0.3311513, -667350.7, -159028.42, 0.0, 9.998412, 9.999879 
2.3748484e+3, 2.5812665e+2, -870160.75, -659359.1, 5371.1636, -0.010161685, -0.33084172, -659222.4, -248895.44, 0.0, 9.997103, 9.999896 
2.3747651e+3, 2.6812673e+2, -852379.2, -516409.5, 4864.604, -0.00041552898, -0.3153204, -516339.06, -204012.23, 0.0, 9.996194, 10.000642 
2.3746821e+3, 2.7812713e+2, -864833.56, -463043.28, 2603.4348, 0.012102839, -0.3077784, -463026.4, -248702.8, 0.0, 9.995399, 10.000718 
2.3745987e+3, 2.8812784e+2, -880815.4, -320094.44, -14057.883, -0.014205479, -0.32058892, -319742.2, -203425.23, 0.0, 9.994188, 10.00161 
2.3745146e+3, 2.981293e+2, -968790.06, -291052.9, -28312.225, -0.067762725, -0.30578977, -289872.22, -271569.44, 0.0, 9.99282, 10.001799 
2.3744339e+3, 3.081315e+2, -984524.8, -159408.48, -304.24393, 0.17486389, -0.29036984, -159408.38, -159408.38, 0.0, 9.991882, 10.002821 
2.374349e+3, 3.1813228e+2, -1080867.6, -151437.22, -52224.023, -0.027508328, -0.45064315, -148512.0, -148512.0, 0.0, 9.990998, 10.003296 
2.385948e+3, 1.2824747e+2, -1003193.25, -1745357.8, 2520.7734, 0.0076669236, -0.30250573, -1003184.7, 679958.56, 0.37246388, 10.010111, 9.99492 
2.3858619e+3, 1.3824171e+2, -816244.75, -1634619.4, 9942.956, -0.028707393, -0.343242, -816123.94, 769076.06, 0.27197877, 10.009814, 9.995151 
2.3857762e+3, 1.4823751e+2, -674012.5, -1465851.3, 23049.441, -0.028095819, -0.29636618, -673342.1, 813899.06, 0.16844818, 10.008796, 9.996148 
2.3856907e+3, 1.5823294e+2, -655771.06, -1442661.9, 17225.215, -0.035719, -0.33436146, -655394.2, 733891.5, 0.08285216, 10.007541, 9.996213 
2.3856057e+3, 1.682292e+2, -601451.9, -1288561.1, 26656.832, -0.0391534, -0.34010392, -600419.25, 690902.44, 0.0295736, 10.006506, 9.997096 
2.3855208e+3, 1.7822611e+2, -635988.7, -1280846.5, 23841.813, -0.04188574, -0.32050064, -635108.44, 558242.7, 0.0063777566, 10.005552, 9.996936 
2.3854358e+3, 1.8822289e+2, -658844.5, -1201229.6, 33368.992, -0.062090833, -0.31306994, -656799.25, 438584.47, 0.0004888644, 10.004519, 9.997307 
2.3853506e+3, 1.982198e+2, -699314.3, -1148840.3, 47413.95, -0.086096294, -0.32068098, -694367.75, 303047.56, 0.0000006457051, 10.003473, 9.9974985 
2.3852661e+3, 2.0821743e+2, -657188.06, -951200.44, 49188.02, -0.066954955, -0.33429474, -649177.25, 250260.03, 0.0, 10.002543, 9.9986315 
2.3851821e+3, 2.1821555e+2, -704225.4, -942112.7, 35729.76, -0.03395128, -0.34657958, -698974.8, 102478.71, 0.0, 10.001628, 9.998463 
2.3850979e+3, 2.2821389e+2, -761483.56, -882010.6, 47564.89, -0.030407974, -0.33354363, -744973.94, -41503.473, 0.0, 10.000402, 9.998793 
2.3850137e+3, 2.3821251e+2, -841591.25, -852635.6, 56816.125, -0.034639012, -0.31946585, -790029.56, -184544.1, 0.0, 9.9991045, 9.998947 
2.3849295e+3, 2.4821152e+2, -798877.5, -666716.25, 48378.242, -0.027713338, -0.33217743, -650899.94, -143404.78, 0.0, 9.998235, 9.999969 
2.3848452e+3, 2.5821096e+2, -812393.2, -622461.6, 44210.34, -0.017862635, -0.3499619, -612675.06, -203174.77, 0.0, 9.997469, 9.999969 
2.384761e+3, 2.682112e+2, -818792.2, -496041.0, 46833.32, -0.010829866, -0.32313776, -489382.53, -177883.73, 0.0, 9.996415, 10.00067 
2.384677e+3, 2.782118e+2, -886637.0, -473450.22, 46974.605, 0.001450448, -0.29627645, -468177.03, -254683.23, 0.0, 9.995256, 10.000711 
2.3845923e+3, 2.882123e+2, -882642.1, -326584.72, 37708.87, -0.0155782895, -0.3209721, -324039.16, -208550.19, 0.0, 9.994208, 10.001552 
2.3845074e+3, 2.982135e+2, -909618.94, -260036.84, 38978.75, -0.05680432, -0.32639766, -257706.25, -240228.73, 0.0, 9.993226, 10.00181 
2.3844248e+3, 3.0821612e+2, -946372.3, -133207.39, 61794.02, 0.12157234, -0.2720214, -128538.34, -128538.34, 0.0, 9.992115, 10.002886 
2.3843394e+3, 3.1821924e+2, -1062571.5, -26702.37, -19265.34, -0.036578353, -0.19070467, -26344.191, -26344.191, 0.0, 9.990634, 10.004323 
2.3959585e+3, 1.2833203e+2, -949884.75, -1644486.9, -3505.2185, 0.06843819, -0.37120178, -949867.06, 732448.25, 0.3593116, 10.010126, 9.995747 
2.3958708e+3, 1.3832825e+2, -790433.56, -1584355.1, -4630.542, -0.06609155, -0.284756, -790406.56, 793945.56, 0.26212132, 10.009778, 9.995514 
2.3957844e+3, 1.4832371e+2, -690769.0, -1516285.6, -15994.236, -0.055790648, -0.25747216, -690459.2, 795937.4, 0.16203932, 10.008777, 9.995788 
2.3956983e+3, 1.5831843e+2, -667903.0, -1478281.6, -20561.932, -0.0148264365, -0.3329483, -667381.6, 721066.94, 0.079385735, 10.007543, 9.995971 
2.3956119e+3, 1.6831447e+2, -601967.4, -1291988.0, -4786.1514, -0.039964437, -0.3513023, -601934.2, 688552.6, 0.028102607, 10.006499, 9.997078 
2.3955256e+3, 1.7831129e+2, -632276.1, -1270150.3, -9865.85, -0.08199975, -0.34001708, -632123.56, 560393.7, 0.0059485687, 10.005531, 9.997023 
2.3954399e+3, 1.8830855e+2, -635638.1, -1153377.4, -4155.4873, -0.053932067, -0.30945814, -635604.75, 458939.8, 0.00043061053, 10.004516, 9.997641 
2.3953545e+3, 1.9830607e+2, -691544.5, -1136397.3, 11678.617, -0.010885085, -0.2849168, -691238.1, 305331.44, 0.00000036108204, 10.003483, 9.997582 
2.3952685e+3, 2.0830333e+2, -686749.9, -1014854.0, 17341.281, -0.05008738, -0.3102243, -685835.9, 212759.98, 0.0, 10.002547, 9.998196 
2.3951825e+3, 2.183008e+2, -718650.3, -971451.5, -350.0891, -0.10689551, -0.3480836, -718649.9, 81969.68, 0.0, 10.001619, 9.998269 
2.3950976e+3, 2.2829929e+2, -738924.5, -836445.44, -717.91925, -0.06866198, -0.3358878, -738919.25, -36284.723, 0.0, 10.0004015, 9.999109 
2.3950127e+3, 2.3829827e+2, -829858.2, -830747.9, 14442.934, -0.0065007275, -0.3138692, -815853.25, -211208.38, 0.0, 9.999109, 9.999099 
2.3949274e+3, 2.4829718e+2, -810004.25, -692955.8, 19655.088, -0.016575852, -0.32908005, -689743.44, -183087.92, 0.0, 9.99824, 9.999789 
2.394842e+3, 2.5829637e+2, -815717.56, -634230.3, 10382.623, -0.04671337, -0.3560177, -633638.25, -224974.7, 0.0, 9.997483, 9.999885 
2.3947568e+3, 2.682966e+2, -810671.9, -481996.0, 1159.6273, -0.036599528, -0.33047962, -481991.9, -171330.13, 0.0, 9.996422, 10.000767 
2.3946716e+3, 2.7829745e+2, -877631.44, -456687.72, 3380.7122, -0.010751224, -0.28739527, -456660.6, -244006.47, 0.0, 9.995258, 10.000829 
2.3945864e+3, 2.8829834e+2, -873753.8, -310453.75, 18.431845, 0.012482326, -0.28941473, -310453.75, -195808.31, 0.0, 9.994211, 10.001664 
2.394501e+3, 2.9829922e+2, -910877.4, -268397.03, 4794.5015, 0.009968846, -0.33552647, -268361.28, -251724.69, 0.0, 9.993244, 10.001748 
2.3944145e+3, 3.0830103e+2, -934315.75, -112513.336, 10848.801, -0.08136291, -0.35906428, -112370.15, -112370.15, 0.0, 9.9921255, 10.003027 
2.39433e+3, 3.183059e+2, -1055318.5, -16975.117, -60746.01, 0.013086267, -0.14001423, -13433.386, -13433.386, 0.0, 9.990647, 10.004389 
2.405968e+3, 1.2841888e+2, -917655.7, -1629697.0, 33505.156, 0.037870605, -0.3368476, -916082.56, 765382.2, 0.3462832, 10.010272, 9.99582 
2.4058801e+3, 1.3841459e+2, -811231.2, -1598596.6, 6600.092, -0.05558279, -0.30230525, -811175.9, 772330.3, 0.25221553, 10.009462, 9.995568 
2.4057928e+3, 1.4841016e+2, -698969.94, -1512293.9, -2957.8633, -0.04843141, -0.27401397, -698959.2, 786590.6, 0.15550281, 10.008614, 9.995889 
2.4057053e+3, 1.584053e+2, -640474.4, -1459632.5, 15984.24, -0.014822035, -0.31276292, -640162.6, 747435.0, 0.07581453, 10.007709, 9.996016 
2.405618e+3, 1.684013e+2, -609050.9, -1302272.3, 34862.66, -0.034225505, -0.33051598, -607302.0, 682334.6, 0.026586052, 10.006475, 9.997016 
2.4055308e+3, 1.7839794e+2, -680152.75, -1292696.3, 30466.03, -0.06916258, -0.33235475, -678641.2, 513028.13, 0.005510842, 10.0052, 9.997024 
2.4054441e+3, 1.8839519e+2, -639200.06, -1139953.4, 33303.61, -0.047725372, -0.30931845, -636994.9, 456701.3, 0.00037306675, 10.004432, 9.997769 
2.4053577e+3, 1.983928e+2, -645595.7, -1105427.0, 32404.805, -0.012396479, -0.28631872, -643323.3, 352396.3, 0.00000014397028, 10.003769, 9.997654 
2.4052708e+3, 2.0839007e+2, -688678.3, -1021118.8, 47097.08, -0.04573338, -0.30556133, -682134.9, 215611.11, 0.0, 10.002564, 9.998141 
2.4051839e+3, 2.1838754e+2, -775390.44, -999257.9, 54233.25, -0.09466555, -0.33798248, -762944.1, 36826.293, 0.0, 10.001238, 9.998259 
2.4050976e+3, 2.2838597e+2, -732453.56, -822456.9, 50724.4, -0.06624664, -0.33338225, -709645.8, -7860.3003, 0.0, 10.000406, 9.9992 
2.4050117e+3, 2.3838493e+2, -744002.5, -783980.94, 50682.945, -0.015543249, -0.31949028, -709509.3, -105713.84, 0.0, 9.999682, 9.99914 
2.4049252e+3, 2.4838391e+2, -774941.44, -682338.2, 59184.74, -0.01979471, -0.32407597, -653495.44, -147689.78, 0.0, 9.998515, 9.999726 
2.4048391e+3, 2.5838315e+2, -853890.06, -653888.56, 56962.766, -0.040606193, -0.33928055, -638802.75, -230989.22, 0.0, 9.997232, 9.9998665 
2.4047527e+3, 2.6838326e+2, -828694.1, -480492.94, 47384.69, -0.04500576, -0.32855895, -474159.8, -164347.16, 0.0, 9.996262, 10.000851 
2.4046665e+3, 2.7838406e+2, -856357.06, -436919.13, 46109.93, -0.03486561, -0.29937127, -431909.94, -220104.6, 0.0, 9.995374, 10.000905 
2.4045803e+3, 2.883851e+2, -855305.3, -296851.13, 36431.793, 0.020056609, -0.28895047, -294484.44, -180689.36, 0.0, 9.994326, 10.0016985 
2.4044941e+3, 2.983859e+2, -918512.1, -272564.78, 36034.316, 0.052337743, -0.342833, -270560.8, -254773.84, 0.0, 9.993199, 10.001738 
2.4044055e+3, 3.0838794e+2, -926063.6, -102813.83, 35412.055, -0.17636423, -0.3440402, -101293.39, -101293.39, 0.0, 9.9921665, 10.00307 
2.4043216e+3, 3.183896e+2, -1041382.44, -105028.945, -40273.19, 0.10725448, -0.45507813, -103299.96, -103299.96, 0.0, 9.991166, 10.003526 
2.4159768e+3, 1.2850727e+2, -921326.94, -1672925.9, 12936.201, -0.060226765, -0.2491961, -921104.3, 759494.44, 0.3336672, 10.010308, 9.995345 
2.4158897e+3, 1.3850102e+2, -815157.3, -1627622.9, -12549.863, -0.013738896, -0.3682951, -814963.56, 767695.94, 0.24250461, 10.009418, 9.995393 
2.4158013e+3, 1.48497e+2, -672446.44, -1458752.6, -27458.162, -0.020872302, -0.32104453, -671488.75, 813210.25, 0.14901328, 10.00857, 9.996312 
2.4157125e+3, 1.5849338e+2, -626719.0, -1428587.5, -17092.693, -0.03418352, -0.27709973, -626354.8, 760380.06, 0.07223909, 10.007672, 9.996249 
2.4156243e+3, 1.6848944e+2, -617249.8, -1321910.9, -10920.968, -0.022869391, -0.28739345, -617080.6, 671693.06, 0.025068834, 10.006469, 9.996887 
2.4155362e+3, 1.7848577e+2, -683909.3, -1306511.8, -7106.2734, -0.013532838, -0.306876, -683828.2, 506981.6, 0.0050805374, 10.0052185, 9.996923 
2.4154483e+3, 1.8848264e+2, -643601.6, -1149915.5, 12673.944, -0.0463278, -0.31344283, -643284.56, 449555.2, 0.00031974292, 10.004429, 9.997705 
2.4153604e+3, 1.9847992e+2, -646546.75, -1102056.3, 2811.5256, -0.08345581, -0.31926024, -646529.4, 348336.34, 0.00000003444413, 10.00374, 9.997695 
2.4152729e+3, 2.084776e+2, -671753.1, -984623.94, -1902.329, -0.050811514, -0.316717, -671741.56, 225146.6, 0.0, 10.002553, 9.9984 
2.4151856e+3, 2.1847562e+2, -766368.94, -982529.25, 14111.385, -0.00535794, -0.3162008, -765451.6, 33455.848, 0.0, 10.00124, 9.998375 
2.415098e+3, 2.2847386e+2, -741309.2, -844156.9, 26373.076, -0.028289367, -0.32574487, -734940.75, -34016.105, 0.0, 10.000414, 9.99905 
2.4150105e+3, 2.3847243e+2, -748999.94, -797454.9, 17314.225, -0.06376408, -0.33714098, -743449.0, -140510.53, 0.0, 9.999689, 9.999047 
2.4149233e+3, 2.4847165e+2, -771931.4, -677900.1, 8690.06, -0.03657708, -0.3173374, -677103.8, -172157.3, 0.0, 9.998517, 9.999759 
2.4148364e+3, 2.5847125e+2, -851408.2, -650376.25, 12117.589, -0.0002631891, -0.2966537, -649648.5, -242697.75, 0.0, 9.997233, 9.999894 
2.4147488e+3, 2.684711e+2, -825950.7, -476806.47, 13244.767, -0.036194783, -0.3176443, -476304.75, -167352.63, 0.0, 9.996263, 10.000879 
2.4146612e+3, 2.784714e+2, -855709.44, -438768.5, 9697.828, -0.076839514, -0.33965665, -438543.06, -227594.17, 0.0, 9.99538, 10.000893 
2.4145742e+3, 2.8847247e+2, -857063.06, -302496.28, -6995.654, -0.0005472294, -0.32220137, -302408.06, -189469.31, 0.0, 9.9943285, 10.001662 
2.414487e+3, 2.984737e+2, -915343.25, -268734.16, -5317.108, 0.06585087, -0.33100337, -268690.44, -253763.16, 0.0, 9.993204, 10.001765 
2.4143977e+3, 3.084767e+2, -946690.4, -146389.81, -5243.556, -0.12035112, -0.22432533, -146355.47, -146355.47, 0.0, 9.992164, 10.002774 
2.4143118e+3, 3.1847796e+2, -984834.94, 1605.3112, -44845.92, 0.045004796, -0.339597, 3639.917, 3639.917, 0.0, 9.991199, 10.00425 
2.4259864e+3, 1.2859571e+2, -852331.25, -1656639.0, 21973.578, -0.12822573, -0.264473, -851731.4, 828000.4, 0.32153547, 10.010932, 9.995207 
2.4258989e+3, 1.3858959e+2, -846041.25, -1652088.6, 19299.207, 0.030719064, -0.35504234, -845579.44, 736212.4, 0.23308767, 10.009051, 9.995399 
2.4258094e+3, 1.4858559e+2, -721140.6, -1458056.0, 17510.209, 0.0051139332, -0.32304034, -720724.8, 763106.2, 0.14266905, 10.008, 9.996586 
2.4257192e+3, 1.585821e+2, -680820.1, -1443434.0, 21166.387, -0.054282334, -0.28655106, -680233.1, 705631.94, 0.06872908, 10.007193, 9.996375 
2.4256301e+3, 1.6857825e+2, -632943.7, -1345347.6, 23117.729, -0.028948253, -0.28231543, -632194.3, 655709.44, 0.023585672, 10.006423, 9.996745 
2.4255413e+3, 1.7857459e+2, -627194.75, -1281526.5, 26951.617, 0.008322308, -0.28616863, -626086.5, 563853.94, 0.0046697017, 10.005628, 9.996895 
2.4254523e+3, 1.885714e+2, -638077.2, -1128030.9, 57374.438, -0.03191935, -0.30856487, -631448.25, 460522.2, 0.00027271867, 10.004392, 9.99787 
2.4253632e+3, 1.9856857e+2, -734874.2, -1131343.9, 59340.13, -0.084426835, -0.3367989, -726183.2, 267813.1, 0.000000003872902, 10.00308, 9.997808 
2.4252748e+3, 2.0856638e+2, -713883.0, -1000245.4, 45965.574, -0.045351267, -0.32660207, -706685.75, 189332.33, 0.0, 10.002249, 9.998436 
2.4251868e+3, 2.185646e+2, -721945.1, -955393.1, 48593.88, 0.013188607, -0.30864415, -712233.94, 85802.234, 0.0, 10.00153, 9.998419 
2.4250981e+3, 2.2856286e+2, -720795.25, -829664.75, 71594.836, -0.018250132, -0.31629607, -685291.4, 14761.445, 0.0, 10.000543, 9.999084 
2.4250095e+3, 2.385614e+2, -776596.6, -806697.44, 71850.98, -0.067605175, -0.3329023, -718236.7, -116170.01, 0.0, 9.99949, 9.999077 
2.4249214e+3, 2.4856056e+2, -772080.5, -674856.56, 59380.465, -0.04488655, -0.31808126, -646727.7, -142652.56, 0.0, 9.99851, 9.999779 
2.4248332e+3, 2.5856018e+2, -808543.0, -627942.44, 62355.926, -0.0070881834, -0.2987087, -608504.8, -202425.31, 0.0, 9.997529, 9.999902 
2.4247447e+3, 2.6856e+2, -803204.56, -469151.4, 62350.19, -0.034890153, -0.31558138, -457893.3, -149812.52, 0.0, 9.99644, 10.000842 
2.424656e+3, 2.7856022e+2, -867299.0, -447910.88, 52772.39, -0.068037026, -0.34186193, -441372.38, -231293.95, 0.0, 9.99532, 10.000856 
2.4245681e+3, 2.885611e+2, -837096.75, -291529.2, 38642.62, -0.017581424, -0.33788335, -288805.72, -176735.94, 0.0, 9.994466, 10.001667 
2.4244797e+3, 2.9856247e+2, -851103.2, -239522.72, 37308.39, 0.023694001, -0.32836542, -237255.2, -223198.53, 0.0, 9.993664, 10.001739 
2.4243903e+3, 3.0856538e+2, -945937.06, -182350.67, 21657.15, -0.0492927, -0.21443264, -181736.92, -181736.92, 0.0, 9.9923315, 10.002443 
2.424302e+3, 3.185662e+2, -950022.2, 136222.11, 32710.227, -0.006894503, -0.34412184, 137206.22, 137206.22, 0.0, 9.9909315, 10.005302 
2.4359964e+3, 1.2868446e+2, -846479.56, -1656298.9, -26000.443, -0.18323106, -0.33755583, -845645.7, 833215.44, 0.30979097, 10.010822, 9.995255 
2.435908e+3, 1.3867977e+2, -836316.7, -1641223.8, -20856.64, 0.07227496, -0.2917421, -835776.6, 745131.7, 0.22394603, 10.009011, 9.995495 
2.4358171e+3, 1.4867546e+2, -706213.9, -1440658.1, -5236.579, 0.027351888, -0.30224505, -706176.56, 776773.7, 0.1364992, 10.008003, 9.996725 
2.4357258e+3, 1.5867145e+2, -674474.1, -1438880.6, -3653.821, -0.07643013, -0.3317992, -674456.6, 710532.44, 0.06532097, 10.007202, 9.996406 
2.4356359e+3, 1.6866772e+2, -644250.4, -1370832.0, -1157.1768, -0.051031757, -0.30344498, -644248.5, 642778.56, 0.02215823, 10.006414, 9.996577 
2.4355464e+3, 1.7866436e+2, -629673.56, -1282325.4, -5045.414, -0.00057045685, -0.26537603, -629634.5, 559427.4, 0.004285311, 10.005601, 9.996905 
2.4354565e+3, 1.886613e+2, -616494.56, -1082926.3, 9721.503, -0.006483611, -0.29520884, -616292.0, 474797.53, 0.00023261055, 10.004384, 9.998187 
2.4353667e+3, 1.9865857e+2, -723673.5, -1111810.1, 19935.285, -0.025802348, -0.34278333, -722652.25, 270461.16, 0.0000000002134854, 10.00309, 9.997941 
2.4352768e+3, 2.0865627e+2, -724958.0, -1026897.6, 21459.934, -0.03333871, -0.33608416, -723440.44, 171696.61, 0.0, 10.002258, 9.998252 
2.4351875e+3, 2.1865435e+2, -725383.6, -963878.4, 19865.176, -0.036819033, -0.3157418, -723740.3, 73417.27, 0.0, 10.001529, 9.9983635 
2.4350981e+3, 2.2865291e+2, -707220.2, -803096.4, 33011.293, -0.033577345, -0.3053535, -696953.44, 2217.589, 0.0, 10.000545, 9.999269 
2.435009e+3, 2.3865178e+2, -768458.6, -791188.25, 33473.47, -0.030447066, -0.30428553, -744473.3, -143292.45, 0.0, 9.999489, 9.9991865 
2.4349195e+3, 2.4865061e+2, -772323.94, -677711.7, 22071.379, -0.047947887, -0.32595104, -672816.1, -169623.89, 0.0, 9.998514, 9.999761 
2.4348298e+3, 2.5864974e+2, -809718.7, -635065.3, 23344.205, -0.06758483, -0.34842294, -631998.94, -226798.2, 0.0, 9.997542, 9.999849 
2.4347407e+3, 2.6864994e+2, -810962.94, -488269.6, 17976.357, -0.040343568, -0.32202628, -487271.25, -180072.06, 0.0, 9.996447, 10.000711 
2.4346516e+3, 2.7865052e+2, -871799.4, -460508.75, 13751.464, -0.000992072, -0.29780418, -460049.5, -250855.9, 0.0, 9.995328, 10.00077 
2.434562e+3, 2.8865093e+2, -836935.6, -296187.38, 8867.386, -0.034043588, -0.33505395, -296042.0, -184853.33, 0.0, 9.99448, 10.001633 
2.4344717e+3, 2.9865205e+2, -857663.44, -259111.39, -1114.4275, -0.09743175, -0.3492936, -259109.31, -245931.9, 0.0, 9.993683, 10.001598 
2.4343833e+3, 3.086537e+2, -962598.0, -218515.92, -39765.395, 0.048222918, -0.33145055, -216396.81, -216396.81, 0.0, 9.992333, 10.002197 
2.4342924e+3, 3.1865487e+2, -990639.4, 54590.867, 1454.664, -0.007779974, -0.4102123, 54592.895, 54592.895, 0.0, 9.990916, 10.004751 
2.4460071e+3, 1.2877527e+2, -887661.0, -1665651.5, -3655.677, -0.116761915, -0.3575413, -887643.8, 790326.94, 0.29824325, 10.010177, 9.995469 
2.4459161e+3, 1.3877103e+2, -851121.9, -1645842.9, 25334.244, 0.029991165, -0.28545356, -850315.06, 729698.4, 0.21499306, 10.008765, 9.99558 
2.4458244e+3, 1.4876659e+2, -714287.75, -1460825.5, 53864.816, -0.0027037521, -0.298336, -710421.25, 771635.75, 0.13048467, 10.0079775, 9.99657 
2.445733e+3, 1.587624e+2, -656471.75, -1437925.9, 39494.914, -0.06593074, -0.33051333, -654480.75, 729617.44, 0.062020566, 10.007352, 9.996338 
2.445642e+3, 1.6875863e+2, -649504.5, -1364633.8, 45195.22, -0.045133427, -0.30651262, -646659.5, 639476.8, 0.02079211, 10.006335, 9.996656 
2.4455515e+3, 1.7875527e+2, -677035.3, -1296137.3, 52470.33, -0.008714673, -0.27365378, -672619.8, 515551.03, 0.0039281216, 10.005235, 9.996985 
2.4454604e+3, 1.8875231e+2, -621741.56, -1076123.8, 55175.105, -0.0072025596, -0.29969063, -615137.7, 475059.88, 0.00019888127, 10.004313, 9.998264 
2.4453697e+3, 1.987497e+2, -672436.1, -1083211.9, 53755.617, -0.013848837, -0.3394788, -665517.94, 326702.25, 0.00000000008671795, 10.003437, 9.997966 
2.445279e+3, 2.0874739e+2, -701068.94, -1024408.6, 62990.473, -0.0290737, -0.32572863, -689231.06, 205013.17, 0.0, 10.00247, 9.998162 
2.4451885e+3, 2.1874543e+2, -733964.6, -969410.06, 63782.02, -0.044701014, -0.30182025, -717796.4, 78469.36, 0.0, 10.001481, 9.998346 
2.4450982e+3, 2.2874396e+2, -709756.3, -791462.75, 68827.57, -0.040373247, -0.29817802, -670570.7, 27708.477, 0.0, 10.000478, 9.999377 
2.445008e+3, 2.3874284e+2, -767781.3, -782029.8, 64306.8, -0.030620083, -0.3036684, -710205.3, -109916.91, 0.0, 9.999464, 9.999257 
2.4449174e+3, 2.4874167e+2, -785346.25, -684883.2, 53699.215, -0.048239313, -0.32538354, -661583.7, -159283.95, 0.0, 9.998435, 9.999747 
2.444827e+3, 2.5874078e+2, -830751.94, -646649.25, 54702.613, -0.06920744, -0.3487319, -631622.0, -227313.39, 0.0, 9.99741, 9.999831 
2.4447368e+3, 2.687409e+2, -801483.75, -487795.06, 53964.08, -0.033936046, -0.32194853, -478771.2, -172463.72, 0.0, 9.996535, 10.000669 
2.444647e+3, 2.7874145e+2, -823444.25, -439858.03, 56102.906, 0.014780553, -0.29663712, -431820.9, -223518.56, 0.0, 9.99568, 10.000737 
2.4445559e+3, 2.8874186e+2, -815733.4, -291820.16, 52583.926, -0.050393004, -0.33180922, -286594.56, -176296.97, 0.0, 9.994656, 10.0015745 
2.4444646e+3, 2.9874286e+2, -886248.3, -285092.5, 35302.28, -0.14396973, -0.34595478, -283026.5, -270739.6, 0.0, 9.99354, 10.001489 
2.4443759e+3, 3.0874395e+2, -932788.5, -204261.69, 1248.964, 0.11537257, -0.37630376, -204259.55, -204259.55, 0.0, 9.992541, 10.002193 
2.4442829e+3, 3.1874734e+2, -912621.25, 883.25665, 76292.16, -0.058572188, -0.22924387, 7211.033, 7211.033, 0.0, 9.991858, 10.0039215 
2.4560183e+3, 1.2886752e+2, -862952.06, -1626651.6, -41095.805, 0.02295699, -0.3504245, -860747.0, 816319.56, 0.28672573, 10.010089, 9.995881 
2.4559234e+3, 1.3886328e+2, -834620.9, -1631228.0, -6638.126, -0.07889071, -0.31432512, -834565.56, 744542.56, 0.20614007, 10.008792, 9.995667 
2.4558313e+3, 1.4885888e+2, -732601.75, -1520748.3, 37105.773, -0.07313033, -0.2984989, -730858.7, 750293.7, 0.12458874, 10.0079975, 9.996134 
2.4557403e+3, 1.5885466e+2, -668595.75, -1465490.6, 14726.656, -0.03366174, -0.2925532, -668323.7, 714871.0, 0.058814056, 10.007325, 9.996164 
2.4556482e+3, 1.688507e+2, -635143.25, -1332548.1, 6709.3223, -0.020213233, -0.29874665, -635078.7, 650155.25, 0.019480761, 10.006314, 9.99689 
2.4555561e+3, 1.7884712e+2, -670487.94, -1282574.9, 16433.047, -0.017656283, -0.30873495, -670047.06, 517222.44, 0.0035945477, 10.005228, 9.997085 
2.4554642e+3, 1.8884426e+2, -630990.06, -1096380.5, 24011.342, -0.030956734, -0.31841433, -629754.5, 459541.3, 0.00017035907, 10.004312, 9.99813 
2.4553724e+3, 1.9884185e+2, -679842.56, -1098380.5, 21315.004, -0.044838514, -0.3261137, -678759.8, 312557.88, 0.00000000016280782, 10.003429, 9.997869 
2.455281e+3, 2.0883965e+2, -703013.5, -1029282.9, 27597.508, -0.031156905, -0.29668355, -700695.6, 192645.03, 0.0, 10.002468, 9.998134 
2.4551897e+3, 2.1883771e+2, -735231.4, -972137.56, 29150.188, -0.0155883785, -0.2667348, -731697.3, 63664.4, 0.0, 10.001475, 9.998334 
2.4550983e+3, 2.2883594e+2, -709129.75, -791983.0, 32562.215, -0.041533753, -0.29422122, -697864.25, -486.20786, 0.0, 10.00048, 9.999375 
2.4550068e+3, 2.388345e+2, -767137.5, -784351.7, 25781.742, -0.07078713, -0.3322142, -748564.1, -149173.53, 0.0, 9.999474, 9.999241 
2.4549155e+3, 2.4883369e+2, -786494.9, -689743.1, 12797.101, -0.044383906, -0.31603044, -688079.1, -186680.58, 0.0, 9.998439, 9.999715 
2.4548244e+3, 2.5883323e+2, -830521.6, -647896.5, 17168.385, -0.010477167, -0.29292423, -646296.56, -242893.27, 0.0, 9.99741, 9.9998255 
2.4547331e+3, 2.688329e+2, -798223.0, -483820.97, 21368.37, -0.01827091, -0.31626877, -482375.3, -176968.97, 0.0, 9.996541, 10.000696 
2.4546416e+3, 2.7883285e+2, -820237.2, -438245.53, 21611.055, -0.03245609, -0.34865522, -437026.78, -229620.69, 0.0, 9.995694, 10.000745 
2.4545501e+3, 2.8883383e+2, -818566.0, -300228.97, 9478.084, -0.06364207, -0.3243135, -300055.72, -190659.4, 0.0, 9.994659, 10.001519 
2.4544583e+3, 2.9883528e+2, -888359.4, -290934.94, -5794.0107, -0.095670186, -0.29016408, -290878.75, -279496.72, 0.0, 9.993538, 10.001453 
2.4543682e+3, 3.08836e+2, -918032.9, -179915.06, -27801.668, 0.12930441, -0.36460903, -178869.38, -178869.38, 0.0, 9.992561, 10.002355 
2.454274e+3, 3.188386e+2, -937451.2, -65856.2, 58825.016, -0.09284781, -0.3027345, -61903.953, -61903.953, 0.0, 9.991919, 10.003435 
2.4660276e+3, 1.2896101e+2, -908536.2, -1653563.0, -3014.5933, 0.032776266, -0.33799177, -908524.0, 767626.1, 0.275151, 10.009524, 9.995889 
2.4659316e+3, 1.3895647e+2, -765858.7, -1601025.8, 11762.098, -0.1118485, -0.330395, -765693.06, 812501.3, 0.19731425, 10.009336, 9.995611 
2.465839e+3, 1.4895196e+2, -708680.4, -1533104.9, 57143.73, -0.0893906, -0.3048354, -704738.4, 775501.4, 0.11875836, 10.008245, 9.995929 
2.465747e+3, 1.5894772e+2, -716813.94, -1497385.0, 47601.723, -0.019076552, -0.2835472, -713921.75, 668361.25, 0.05566865, 10.006988, 9.996106 
2.465654e+3, 1.689438e+2, -663442.2, -1326606.5, 40872.96, -0.01722324, -0.29688653, -660932.56, 623389.0, 0.018208023, 10.006031, 9.997064 
2.4655607e+3, 1.7894022e+2, -679279.7, -1281311.3, 48470.188, -0.0349649, -0.3180504, -675402.25, 510953.94, 0.0032785495, 10.005152, 9.997125 
2.465468e+3, 1.8893734e+2, -653560.1, -1129983.0, 53034.875, -0.040255606, -0.31732962, -647727.75, 440656.0, 0.00014564449, 10.004261, 9.99792 
2.4653752e+3, 1.9893485e+2, -693992.0, -1112937.0, 43551.727, -0.0401347, -0.31117767, -689512.44, 300894.88, 0.00000000021615258, 10.003366, 9.997798 
2.465283e+3, 2.0893262e+2, -701860.7, -1008643.75, 57006.547, -0.028044118, -0.29398558, -691610.2, 200819.83, 0.0, 10.002395, 9.998307 
2.4651909e+3, 2.1893065e+2, -740470.06, -964091.56, 68496.21, -0.015662687, -0.2800832, -721157.3, 73292.87, 0.0, 10.001404, 9.998418 
2.4650984e+3, 2.2892891e+2, -732358.5, -814321.8, 68439.27, -0.03970109, -0.29905194, -693569.0, 2897.7458, 0.0, 10.000376, 9.999269 
2.4650058e+3, 2.3892745e+2, -786326.2, -795843.75, 58243.734, -0.066173956, -0.32589757, -732647.2, -134167.16, 0.0, 9.999358, 9.999214 
2.4649139e+3, 2.4892664e+2, -762707.5, -666485.94, 54820.105, -0.041434668, -0.31530073, -641659.1, -141171.39, 0.0, 9.998559, 9.999813 
2.4648215e+3, 2.5892618e+2, -775148.1, -613930.3, 65346.28, -0.008157195, -0.30008757, -590770.56, -188278.6, 0.0, 9.9977665, 9.999884 
2.4647292e+3, 2.6892582e+2, -782247.6, -477080.9, 65165.31, -0.01999741, -0.32312366, -463748.0, -159252.72, 0.0, 9.99666, 10.000683 
2.464637e+3, 2.7892578e+2, -850531.75, -450727.75, 61211.746, -0.037526738, -0.35256648, -441565.9, -235070.52, 0.0, 9.9954815, 10.00076 
2.4645442e+3, 2.889269e+2, -839423.1, -302028.47, 52177.69, -0.056798402, -0.3175954, -297009.22, -188524.88, 0.0, 9.994487, 10.001587 
2.4644513e+3, 2.989284e+2, -882502.56, -279918.8, 46099.715, -0.07808759, -0.2821099, -276412.44, -265942.94, 0.0, 9.993554, 10.001516 
2.4643603e+3, 3.0892906e+2, -868041.25, -157978.1, 31971.559, 0.11569404, -0.36391893, -156541.44, -156541.44, 0.0, 9.992925, 10.002324 
2.4642658e+3, 3.1893125e+2, -942420.9, -75202.9, 54664.24, -0.06223065, -0.33441123, -71770.77, -71770.77, 0.0, 9.991918, 10.003371 
2.476036e+3, 1.2905551e+2, -914050.06, -1694442.1, -6096.0034, -0.047122557, -0.3202434, -914002.44, 761220.94, 0.26345146, 10.009518, 9.995554 
2.4759407e+3, 1.3905041e+2, -774690.56, -1636182.4, -4374.7217, -0.09657291, -0.337759, -774668.4, 802605.2, 0.18842554, 10.009287, 9.995395 
2.4758469e+3, 1.4904578e+2, -707892.06, -1541169.4, 15011.821, -0.07128382, -0.3172435, -707621.75, 771698.8, 0.11291435, 10.008228, 9.995883 
2.4757537e+3, 1.590415e+2, -711203.7, -1493770.0, 9185.162, -0.018908845, -0.29528776, -711095.94, 670268.1, 0.05253538, 10.006997, 9.996129 
2.4756594e+3, 1.6903776e+2, -653604.44, -1309866.8, 10340.106, -0.031717077, -0.29675263, -653441.56, 629958.56, 0.016952397, 10.006034, 9.99718 
2.4755652e+3, 1.7903443e+2, -682787.4, -1287798.5, 17156.586, -0.06138672, -0.30388284, -682301.25, 503130.88, 0.0029737446, 10.00514, 9.997089 
2.4754716e+3, 1.8903135e+2, -675976.06, -1176233.1, 21840.832, -0.0384826, -0.30013004, -675024.3, 412438.25, 0.00012356685, 10.004252, 9.99761 
2.4753787e+3, 1.9902858e+2, -699343.75, -1123276.4, 11691.819, -0.006316827, -0.2967796, -699021.56, 290468.53, 0.00000000023303823, 10.003356, 9.997735 
2.4752851e+3, 2.0902619e+2, -679405.25, -962484.94, 21755.475, -0.022072436, -0.3157826, -677743.06, 213769.86, 0.0, 10.00239, 9.99863 
2.4751914e+3, 2.1902414e+2, -732927.6, -948501.9, 32318.893, -0.045816667, -0.33771712, -728186.7, 65345.504, 0.0, 10.001397, 9.998531 
2.4750984e+3, 2.2902276e+2, -746515.94, -845582.06, 30226.525, -0.034360114, -0.31053668, -738021.75, -42475.383, 0.0, 10.000378, 9.999056 
2.4750054e+3, 2.3902167e+2, -788758.06, -802858.6, 23629.69, -0.018578092, -0.28215823, -771149.3, -173591.94, 0.0, 9.99936, 9.999168 
2.4749118e+3, 2.4902043e+2, -747125.7, -637232.4, 25800.963, -0.042160522, -0.32506785, -631476.25, -131908.17, 0.0, 9.998566, 10.000013 
2.4748184e+3, 2.590195e+2, -766466.94, -601661.2, 29782.262, -0.07027229, -0.37675074, -596444.4, -194868.55, 0.0, 9.997785, 9.999963 
2.4747254e+3, 2.6901966e+2, -787794.06, -490707.84, 18121.754, -0.03945418, -0.3415542, -489606.53, -186031.69, 0.0, 9.996662, 10.000592 
2.4746323e+3, 2.7902034e+2, -851489.8, -451842.4, 18874.594, 0.0059338096, -0.2944068, -450952.97, -245383.48, 0.0, 9.995471, 10.000761 
2.4745385e+3, 2.8902096e+2, -829667.9, -282043.94, 14772.943, -0.030777141, -0.3178075, -281645.72, -174082.94, 0.0, 9.994481, 10.001731 
2.4744444e+3, 2.9902184e+2, -873076.2, -263634.88, 14378.931, -0.10597869, -0.35683802, -263295.8, -253742.56, 0.0, 9.99356, 10.001629 
2.4743526e+3, 3.0902353e+2, -881043.0, -187665.08, 11795.591, 0.07471892, -0.32981482, -187464.47, -187464.47, 0.0, 9.992932, 10.002119 
2.474257e+3, 3.1902573e+2, -888209.44, 31569.49, -66853.51, -0.07795069, -0.28941947, 36403.29, 36403.29, 0.0, 9.991917, 10.004119 
2.4860452e+3, 1.291502e+2, -888202.2, -1688767.9, 6399.1304, -0.047395047, -0.32773736, -888151.06, 786144.44, 0.25150114, 10.009649, 9.995532 
2.4859494e+3, 1.3914512e+2, -798401.5, -1654053.5, 16031.085, -0.08154047, -0.33832243, -798101.3, 778243.94, 0.17934664, 10.009009, 9.995404 
2.4858545e+3, 1.4914052e+2, -718938.06, -1540879.4, 30812.105, -0.064768985, -0.31920907, -717784.6, 760607.3, 0.10695947, 10.008074, 9.9959545 
2.48576e+3, 1.5913627e+2, -692846.6, -1478227.3, 31038.822, -0.02439006, -0.2992416, -691621.8, 688813.2, 0.04936084, 10.007088, 9.996188 
2.4856651e+3, 1.6913256e+2, -648767.5, -1305147.9, 31650.412, -0.032734096, -0.30210617, -647244.9, 635225.94, 0.015693903, 10.006055, 9.9972 
2.4855699e+3, 1.7912921e+2, -698845.44, -1295257.5, 34243.21, -0.055468995, -0.3092227, -696885.75, 487616.9, 0.002675336, 10.00503, 9.99709 
2.4854755e+3, 1.8912613e+2, -704214.56, -1192227.0, 53651.156, -0.037061375, -0.30294132, -698385.9, 388147.7, 0.00010338961, 10.004075, 9.997583 
2.4853814e+3, 1.9912334e+2, -728089.25, -1130295.1, 57898.664, -0.009447227, -0.29877418, -719920.44, 268641.22, 0.00000000017417703, 10.00314, 9.997786 
2.4852869e+3, 2.0912099e+2, -699873.94, -957487.75, 59601.137, -0.020734927, -0.32144937, -686753.0, 203830.61, 0.0, 10.002193, 9.9987545 
2.4851924e+3, 2.19119e+2, -749799.8, -947519.75, 58658.13, -0.03898093, -0.34699634, -733707.3, 58894.4, 0.0, 10.001247, 9.998608 
2.4850984e+3, 2.2911763e+2, -752088.5, -845823.2, 66679.86, -0.02920462, -0.31959492, -717452.75, -22836.904, 0.0, 10.000335, 9.999072 
2.4850044e+3, 2.3911658e+2, -775535.4, -789123.7, 75812.97, -0.0140646165, -0.28920144, -706212.75, -109585.86, 0.0, 9.999427, 9.999227 
2.4849099e+3, 2.491154e+2, -750472.8, -627166.75, 78177.625, -0.040152136, -0.33423793, -589256.56, -90619.51, 0.0, 9.998499, 10.000112 
2.4848157e+3, 2.5911447e+2, -796267.75, -609632.75, 70864.15, -0.07179536, -0.3899297, -585775.7, -185131.38, 0.0, 9.99756, 10.000012 
2.4847214e+3, 2.691147e+2, -799413.94, -498797.25, 55391.215, -0.043370828, -0.34509018, -488915.75, -186272.72, 0.0, 9.996601, 10.000562 
2.4846275e+3, 2.7911547e+2, -827636.5, -437557.38, 61897.473, 0.002473716, -0.28553998, -427971.13, -223333.88, 0.0, 9.99563, 10.000777 
2.4845327e+3, 2.8911602e+2, -779973.5, -249404.52, 59262.367, -0.03605226, -0.32154927, -242865.75, -136234.64, 0.0, 9.994791, 10.001802 
2.4844375e+3, 2.9911676e+2, -808936.8, -221646.4, 53627.902, -0.11393963, -0.3794125, -216789.58, -208167.08, 0.0, 9.993957, 10.001724 
2.484345e+3, 3.091189e+2, -892453.9, -181537.84, 59880.492, 0.077720664, -0.31836393, -176529.39, -176529.39, 0.0, 9.992811, 10.002216 
2.4842478e+3, 3.191198e+2, -883933.44, 93892.68, -32072.553, -0.14012076, -0.4096793, 94943.52, 94943.52, 0.0, 9.991695, 10.004648 
2.4960546e+3, 1.2924518e+2, -858420.3, -1655936.6, -8160.4595, 0.0017883256, -0.34635606, -858336.8, 815028.2, 0.2391474, 10.009681, 9.995777 
2.495958e+3, 1.3924061e+2, -781452.6, -1628854.5, -5443.758, -0.07152895, -0.33091715, -781417.7, 793991.94, 0.16996016, 10.008983, 9.995591 
2.4958621e+3, 1.4923611e+2, -709755.0, -1527755.8, 60.287724, -0.06982307, -0.3125401, -709755.0, 767699.9, 0.10082043, 10.008048, 9.99606 
2.4957666e+3, 1.592319e+2, -690594.75, -1474064.0, -2570.9878, -0.036980897, -0.29848832, -690586.3, 688911.0, 0.046111982, 10.007063, 9.996232 
2.4956706e+3, 1.6922803e+2, -655611.7, -1319133.8, -3724.9783, -0.024150997, -0.31285515, -655590.8, 625943.9, 0.014423848, 10.006039, 9.997115 
2.4955747e+3, 1.7922452e+2, -698310.94, -1293705.8, 450.09097, -0.024678532, -0.3302801, -698310.56, 485257.7, 0.002381953, 10.00502, 9.997109 
2.4954793e+3, 1.8922159e+2, -691171.8, -1165777.8, 20958.58, -0.03782288, -0.32126707, -690248.1, 395349.3, 0.00008472329, 10.004071, 9.997769 
2.4953838e+3, 1.9921903e+2, -721323.06, -1116232.6, 24480.076, -0.04667441, -0.31177118, -719811.4, 267811.78, 0.00000000005180779, 10.003134, 9.997889 
2.4952886e+3, 2.0921692e+2, -704450.5, -967507.56, 25424.32, -0.0227707, -0.3108079, -702015.75, 187627.58, 0.0, 10.00219, 9.998692 
2.4951936e+3, 2.1921512e+2, -747555.3, -942879.7, 26015.19, 0.00032256087, -0.31387103, -744149.75, 47510.44, 0.0, 10.001241, 9.998647 
2.4950981e+3, 2.2921345e+2, -738176.9, -818895.06, 34114.1, -0.026723031, -0.32951182, -725690.7, -32014.322, 0.0, 10.000338, 9.999258 
2.4950029e+3, 2.392121e+2, -767303.9, -775197.5, 41129.293, -0.056478187, -0.34672648, -729932.44, -134242.95, 0.0, 9.9994335, 9.999322 
2.4949083e+3, 2.4921145e+2, -750704.44, -630244.44, 41221.85, -0.03431993, -0.3396327, -617488.9, -119793.64, 0.0, 9.998504, 10.000092 
2.4948132e+3, 2.5921115e+2, -795669.06, -609855.4, 33966.473, -0.009780354, -0.33196205, -603841.0, -204143.52, 0.0, 9.99756, 10.000014 
2.4947178e+3, 2.6921093e+2, -797667.94, -497118.0, 17786.902, -0.0334016, -0.33494943, -496069.0, -194368.6, 0.0, 9.996602, 10.000576 
2.494622e+3, 2.7921107e+2, -824222.3, -436143.25, 27381.646, -0.05875591, -0.33750877, -434220.8, -230520.86, 0.0, 9.995647, 10.000783 
2.4945267e+3, 2.8921208e+2, -780337.44, -255050.22, 28258.7, -0.07657992, -0.32567164, -253534.36, -147845.14, 0.0, 9.994805, 10.00176 
2.4944311e+3, 2.9921338e+2, -802598.06, -210852.34, 17854.371, -0.09690942, -0.32568583, -210314.13, -202639.1, 0.0, 9.99396, 10.0018 
2.4943379e+3, 3.0921474e+2, -866166.25, -125937.96, 10027.021, 0.13261947, -0.365768, -125802.164, -125802.164, 0.0, 9.992799, 10.002608 
2.4942392e+3, 3.1921744e+2, -926834.0, 402.03845, -30716.152, -0.120926104, -0.30644485, 1418.4451, 1418.4451, 0.0, 9.991715, 10.003996 
2.5060642e+3, 1.2934172e+2, -803537.7, -1639393.6, 27951.668, -0.007896714, -0.34059733, -802604.0, 869814.75, 0.22630446, 10.010064, 9.995732 
2.5059667e+3, 1.3933714e+2, -791439.44, -1635053.4, 19831.316, -0.05513518, -0.32061136, -790973.5, 783490.0, 0.16022472, 10.008804, 9.995635 
2.5058696e+3, 1.4933264e+2, -732616.5, -1526428.3, 27795.39, -0.055606343, -0.31353843, -731644.44, 744864.1, 0.09448443, 10.00777, 9.996201 
2.5057733e+3, 1.5932842e+2, -716399.3, -1473622.8, 27748.926, -0.030319702, -0.31292087, -715383.8, 663167.06, 0.042789638, 10.006803, 9.996357 
2.5056762e+3, 1.6932465e+2, -682177.75, -1321746.5, 35860.5, -0.025254225, -0.32488865, -680173.3, 600413.8, 0.013146541, 10.00581, 9.997203 
2.505579e+3, 1.7932124e+2, -722151.1, -1297671.1, 50927.77, -0.031085202, -0.33760557, -717679.3, 464940.4, 0.0020950995, 10.00483, 9.997168 
2.5054827e+3, 1.8931834e+2, -708905.8, -1172051.1, 66054.0, -0.03848976, -0.32626435, -699669.3, 384979.34, 0.00006742929, 10.003946, 9.997783 
2.5053865e+3, 1.9931583e+2, -731187.9, -1119613.6, 56187.086, -0.04176699, -0.31322974, -723223.5, 263450.78, 0.0000000000010010511, 10.003065, 9.997896 
2.5052902e+3, 2.093137e+2, -732369.9, -982260.5, 53886.645, -0.027605055, -0.30977127, -721245.0, 167449.9, 0.0, 10.002009, 9.998673 
2.505194e+3, 2.193119e+2, -784803.56, -952826.9, 58964.598, -0.011992727, -0.31164026, -766176.2, 24535.953, 0.0, 10.000959, 9.99871 
2.5050983e+3, 2.2931032e+2, -744585.4, -805307.25, 70582.83, -0.024864359, -0.328476, -698110.7, -5383.563, 0.0, 10.000229, 9.9994 
2.505002e+3, 2.3930907e+2, -752146.94, -760564.25, 71412.63, -0.04020903, -0.34694517, -684819.0, -90080.01, 0.0, 9.999514, 9.99938 
2.5049064e+3, 2.4930845e+2, -766894.2, -644878.06, 62084.53, -0.028903069, -0.3294449, -618843.2, -122098.41, 0.0, 9.998429, 10.000023 
2.5048104e+3, 2.5930822e+2, -829320.25, -619515.06, 55305.832, -0.015202007, -0.3097317, -605828.9, -207081.8, 0.0, 9.997307, 10.000066 
2.5047138e+3, 2.6930797e+2, -780926.8, -467105.16, 55532.76, -0.041285165, -0.32977265, -457568.13, -156818.55, 0.0, 9.996629, 10.000766 
2.5046173e+3, 2.7930805e+2, -771588.06, -406370.2, 72098.72, -0.06752192, -0.35510114, -392652.22, -189903.11, 0.0, 9.995996, 10.000816 
2.5045213e+3, 2.8930905e+2, -770599.6, -272436.13, 59975.242, -0.067107745, -0.3277377, -265317.28, -160578.77, 0.0, 9.994973, 10.001556 
2.5044248e+3, 2.9931042e+2, -824626.1, -231077.78, 32156.844, -0.06877762, -0.3025828, -229340.7, -222616.53, 0.0, 9.993857, 10.001707 
2.5043297e+3, 3.093113e+2, -857091.3, -105401.45, 509.41263, 0.08626479, -0.3944345, -105401.1, -105401.1, 0.0, 9.992796, 10.002748 
2.5042307e+3, 3.1931445e+2, -905376.2, -43604.523, 17010.98, -0.114179775, -0.29806513, -43268.867, -43268.867, 0.0, 9.992109, 10.003496 
2.5160733e+3, 1.2943944e+2, -810889.44, -1674488.3, -9276.398, -0.06399245, -0.32251316, -810789.8, 860670.8, 0.21300372, 10.010002, 9.995457 
2.5159752e+3, 1.3943458e+2, -794682.0, -1652211.6, -13091.027, -0.034183614, -0.3085025, -794482.2, 779026.25, 0.15019673, 10.008742, 9.995546 
2.5158775e+3, 1.4942998e+2, -720791.1, -1507666.9, -1175.5214, -0.027200583, -0.31833223, -720789.4, 754764.8, 0.088002264, 10.007743, 9.9963455 
2.5157794e+3, 1.5942572e+2, -703328.4, -1449223.5, -3504.2817, -0.011729656, -0.3364326, -703311.94, 674284.5, 0.03942467, 10.006791, 9.996533 
2.5156814e+3, 1.6942227e+2, -668461.94, -1293936.0, 1719.3502, -0.03643932, -0.33669764, -668457.2, 611172.4, 0.011875434, 10.0058, 9.997401 
2.515583e+3, 1.7941919e+2, -718994.2, -1290579.9, 17527.77, -0.06866515, -0.33359385, -718457.2, 463201.72, 0.0018180277, 10.004821, 9.997225 
2.5154862e+3, 1.8941623e+2, -720271.2, -1195623.4, 35799.19, -0.038564526, -0.3208284, -717590.25, 366098.8, 0.00005168715, 10.00394, 9.997628 
2.5153893e+3, 1.9941354e+2, -738780.44, -1135013.3, 22925.93, -0.002647213, -0.30784684, -737458.4, 248258.19, 0.0, 10.003057, 9.997798 
2.515292e+3, 2.0941123e+2, -732661.5, -984949.56, 14862.338, -0.037431914, -0.31868502, -731789.0, 155950.17, 0.0, 10.002012, 9.998656 
2.515194e+3, 2.194093e+2, -781459.9, -947915.9, 26921.945, -0.075052045, -0.33404806, -777213.94, 12544.054, 0.0, 10.000961, 9.998745 
2.515098e+3, 2.2940819e+2, -736896.7, -791806.25, 46665.344, -0.02247866, -0.31293407, -710208.9, -18440.197, 0.0, 10.000234, 9.999495 
2.5150016e+3, 2.3940739e+2, -750740.4, -761137.9, 38112.83, 0.032586124, -0.29144374, -717473.4, -123697.15, 0.0, 9.999522, 9.999375 
2.514904e+3, 2.4940635e+2, -777017.25, -667829.6, 16700.943, -0.02682891, -0.3069929, -665332.25, -169545.55, 0.0, 9.998431, 9.999867 
2.514806e+3, 2.594056e+2, -823488.6, -609732.56, 19438.8, -0.09652703, -0.32706398, -607979.25, -210185.05, 0.0, 9.99731, 10.000135 
2.5147098e+3, 2.6940584e+2, -754590.3, -414971.34, 32471.947, -0.067769736, -0.32868934, -411894.5, -112103.47, 0.0, 9.996634, 10.001125 
2.5146133e+3, 2.794064e+2, -767159.0, -400661.06, 41282.168, -0.01860594, -0.33177006, -396068.6, -194284.23, 0.0, 9.996004, 10.0008545 
2.5145164e+3, 2.894069e+2, -798200.75, -331833.6, 17061.383, 0.0011569039, -0.32811108, -331210.25, -227430.9, 0.0, 9.994975, 10.001151 
2.5144187e+3, 2.9940775e+2, -845547.6, -276698.06, -9427.004, -0.021522874, -0.3161266, -276541.9, -270770.84, 0.0, 9.993859, 10.001396 
2.51432e+3, 3.0940852e+2, -874913.8, -141173.02, -43437.043, -0.11254545, -0.39778554, -138610.52, -138610.52, 0.0, 9.9927845, 10.00251 
2.5142232e+3, 3.1941023e+2, -874471.06, 11223.147, 84314.98, -0.06020988, -0.43292394, 19178.188, 19178.188, 0.0, 9.992143, 10.00386 
2.526082e+3, 1.2953795e+2, -802018.1, -1657649.0, -6286.688, -0.10670672, -0.31417188, -801971.94, 868522.94, 0.19935596, 10.009847, 9.995667 
2.5259838e+3, 1.3953277e+2, -832777.9, -1655560.3, 21583.705, 0.01713097, -0.35033652, -832212.06, 740332.9, 0.13998076, 10.008264, 9.995753 
2.5258845e+3, 1.495285e+2, -752052.2, -1502397.1, 55208.75, -0.008096158, -0.34663162, -748011.8, 726575.4, 0.08144883, 10.007371, 9.996557 
2.5257856e+3, 1.5952462e+2, -723017.2, -1453426.1, 52655.457, -0.03951709, -0.34213427, -719240.75, 657385.0, 0.036057312, 10.006611, 9.996587 
2.5256866e+3, 1.6952108e+2, -698122.5, -1324623.3, 38854.39, -0.041601513, -0.33963016, -695722.0, 582938.5, 0.010626303, 10.005665, 9.997252 
2.5255877e+3, 1.7951787e+2, -736206.2, -1296589.9, 38475.76, -0.044045642, -0.33648685, -733576.8, 447115.06, 0.0015545833, 10.004699, 9.997238 
2.5254896e+3, 1.8951502e+2, -732284.5, -1179804.0, 73040.85, -0.032563075, -0.3241462, -720665.0, 362055.47, 0.000037920512, 10.003772, 9.997813 
2.5253916e+3, 1.9951245e+2, -763392.5, -1141587.8, 77994.086, -0.019015567, -0.31313846, -747939.44, 236807.0, 0.0, 10.002872, 9.997837 
2.5252932e+3, 2.0951007e+2, -732585.1, -1001294.56, 65163.527, -0.04336831, -0.3206563, -717616.44, 169154.11, 0.0, 10.00209, 9.998503 
2.525195e+3, 2.1950804e+2, -738117.2, -932425.5, 67683.87, -0.06754073, -0.32990968, -716865.1, 71925.88, 0.0, 10.001289, 9.99869 
2.5250977e+3, 2.2950697e+2, -743110.2, -788776.75, 82159.91, -0.024327224, -0.30428723, -680669.75, 10131.457, 0.0, 10.000172, 9.999541 
2.5250006e+3, 2.3950624e+2, -816715.06, -786112.6, 71808.62, 0.02243091, -0.27963772, -727993.1, -135185.14, 0.0, 9.999048, 9.999429 
2.5249022e+3, 2.4950515e+2, -785249.9, -667627.6, 62560.945, -0.03153903, -0.30324462, -640574.75, -145755.72, 0.0, 9.998364, 9.999898 
2.5248033e+3, 2.5950435e+2, -766055.06, -580325.44, 74948.125, -0.095836945, -0.3315586, -553854.2, -157026.69, 0.0, 9.997705, 10.000142 
2.5247058e+3, 2.6950467e+2, -751056.9, -416270.6, 64370.85, -0.06685666, -0.3164718, -404320.28, -105497.11, 0.0, 9.996678, 10.00109 
2.5246087e+3, 2.7950537e+2, -822756.0, -426345.13, 47498.555, -0.014253511, -0.30218604, -420733.22, -219917.98, 0.0, 9.9956255, 10.000856 
2.524511e+3, 2.8950557e+2, -783831.4, -318588.34, 47870.527, 0.012352145, -0.33056888, -313713.84, -210900.97, 0.0, 9.995055, 10.001199 
2.5244126e+3, 2.9950607e+2, -765948.2, -254233.83, 43805.223, -0.008035563, -0.353207, -250510.97, -245703.05, 0.0, 9.994485, 10.001243 
2.524312e+3, 3.095073e+2, -838564.8, -173006.52, -9295.574, -0.15544358, -0.34807205, -172876.7, -172876.7, 0.0, 9.993256, 10.002059 
2.524216e+3, 3.195101e+2, -850555.5, 90514.14, 161786.38, 0.05565888, -0.2492687, 117551.27, 117551.27, 0.0, 9.992018, 10.004464 
2.5360912e+3, 1.2963718e+2, -768369.1, -1600326.1, -52547.676, -0.1436251, -0.3120685, -765063.25, 904458.8, 0.18549938, 10.009748, 9.996195 
2.5359923e+3, 1.3963169e+2, -796607.2, -1596672.9, -16009.742, 0.086109236, -0.4286837, -796287.0, 775286.56, 0.12967974, 10.008286, 9.996147 
2.5358915e+3, 1.4962804e+2, -730334.1, -1470097.9, 30800.309, 0.0008792169, -0.3905355, -729054.0, 744555.56, 0.07489193, 10.007383, 9.996776 
2.535791e+3, 1.5962481e+2, -729831.0, -1466917.5, 22454.068, -0.10359615, -0.3348058, -729147.6, 646494.1, 0.0327245, 10.006579, 9.996512 
2.5356916e+3, 1.696209e+2, -728406.0, -1389340.3, 5716.117, -0.04107011, -0.3361625, -728356.56, 549325.0, 0.009414369, 10.005657, 9.996816 
2.5355926e+3, 1.7961723e+2, -736062.56, -1301094.9, 7785.0815, 0.028894352, -0.34477344, -735955.3, 443763.63, 0.0013089244, 10.004712, 9.997205 
2.5354928e+3, 1.8961468e+2, -700788.0, -1116623.8, 41103.527, -0.024690988, -0.33428693, -696764.06, 384979.63, 0.000026566348, 10.003775, 9.998248 
2.5353935e+3, 1.9961247e+2, -756775.9, -1126960.6, 46989.832, -0.08508919, -0.32444376, -750904.3, 232860.72, 0.0, 10.002863, 9.997945 
2.5352946e+3, 2.0961006e+2, -753071.75, -1044596.4, 37913.453, -0.04403056, -0.31440976, -748221.7, 137568.4, 0.0, 10.002088, 9.998211 
2.5351962e+3, 2.1960793e+2, -749415.3, -957381.3, 34462.383, 0.002728329, -0.3056337, -743853.25, 43959.28, 0.0, 10.001289, 9.998522 
2.5350973e+3, 2.2960655e+2, -744899.7, -794427.4, 38999.367, -0.033694882, -0.3055508, -723466.1, -33640.504, 0.0, 10.0001745, 9.999504 
2.534998e+3, 2.3960553e+2, -810711.4, -775744.75, 36908.773, -0.07295449, -0.30965576, -752387.9, -160553.06, 0.0, 9.99905, 9.999502 
2.5349e+3, 2.4960478e+2, -769775.9, -638011.44, 39123.06, -0.041122664, -0.3161201, -627270.7, -133428.42, 0.0, 9.998369, 10.000102 
2.5348017e+3, 2.5960433e+2, -770908.8, -595246.8, 43444.69, -0.009652838, -0.32121417, -585089.44, -189242.38, 0.0, 9.99772, 10.000036 
2.5347024e+3, 2.6960444e+2, -786716.44, -491776.66, 20502.56, -0.03754595, -0.29216146, -490358.25, -192511.5, 0.0, 9.996677, 10.000575 
2.5346032e+3, 2.7960482e+2, -827357.5, -435253.7, 14472.748, -0.061316967, -0.26658636, -434720.22, -234877.11, 0.0, 9.995616, 10.000804 
2.5345048e+3, 2.8960496e+2, -746066.1, -243070.78, 28229.182, -0.04991306, -0.3379559, -241491.45, -139651.28, 0.0, 9.995061, 10.0017185 
2.5344062e+3, 2.9960525e+2, -763606.3, -257339.69, 10318.692, -0.05160803, -0.41955242, -257129.47, -253293.9, 0.0, 9.994513, 10.001212 
2.534307e+3, 3.0960795e+2, -880185.25, -268006.38, -61027.836, 0.044443678, -0.21964344, -261981.81, -261981.81, 0.0, 9.993285, 10.001396 
2.5342062e+3, 3.196098e+2, -839084.2, 106748.47, 89898.35, -0.06454642, -0.16623801, 115217.195, 115217.195, 0.0, 9.992025, 10.004584 
2.5461e+3, 1.2973753e+2, -826608.7, -1645338.0, 256.42636, -0.12513569, -0.35606885, -826608.6, 841928.7, 0.17156778, 10.009194, 9.996078 
2.546e+3, 1.3973257e+2, -744005.4, -1572725.8, 9472.574, 0.060682815, -0.40850145, -743897.1, 826687.8, 0.119381115, 10.008626, 9.996147 
2.5458983e+3, 1.4972888e+2, -714420.0, -1453601.8, 44667.023, -0.016188763, -0.38043153, -711730.6, 760890.5, 0.06838715, 10.00742, 9.996875 
2.545797e+3, 1.5972556e+2, -773562.75, -1475976.8, 38033.793, -0.10422257, -0.3439861, -771509.3, 603144.56, 0.029457822, 10.006202, 9.996629 
2.5456968e+3, 1.6972177e+2, -737882.9, -1379574.3, 56257.766, -0.040650874, -0.3444465, -732988.06, 543704.3, 0.00825325, 10.00553, 9.996941 
2.545597e+3, 1.7971818e+2, -710320.25, -1289408.0, 79378.92, 0.028233707, -0.34988454, -699636.44, 479092.22, 0.0010847236, 10.004897, 9.997192 
2.5454962e+3, 1.8971545e+2, -708509.06, -1138622.4, 77174.336, -0.026247475, -0.3436707, -695081.06, 385674.8, 0.000017840424, 10.003808, 9.998077 
2.5453958e+3, 1.9971308e+2, -782530.25, -1137965.1, 55341.13, -0.08692719, -0.33551827, -774112.94, 208666.31, 0.0, 10.002687, 9.997951 
2.5452963e+3, 2.0971094e+2, -770226.8, -1032299.3, 73954.86, -0.043380048, -0.31142312, -750797.7, 134003.86, 0.0, 10.001889, 9.998386 
2.545197e+3, 2.1970904e+2, -769030.2, -961795.94, 92932.414, 0.006032866, -0.2912853, -731524.75, 55296.664, 0.0, 10.001142, 9.998559 
2.5450966e+3, 2.2970733e+2, -735648.9, -805555.0, 89696.72, -0.043573838, -0.3119013, -674335.56, 14502.22, 0.0, 10.000313, 9.999357 
2.5449964e+3, 2.3970596e+2, -757707.3, -756281.7, 83546.81, -0.09548254, -0.33601508, -673444.6, -82594.09, 0.0, 9.999448, 9.999439 
2.5448978e+3, 2.4970539e+2, -748652.94, -623648.1, 77690.26, -0.043105736, -0.32335678, -586439.3, -93583.055, 0.0, 9.998504, 10.000133 
2.544799e+3, 2.5970516e+2, -795394.5, -610023.75, 69777.32, 0.014228576, -0.3059215, -586694.25, -191835.4, 0.0, 9.997572, 10.000002 
2.5446987e+3, 2.697051e+2, -767443.7, -496291.03, 66929.95, -0.024197873, -0.2831632, -480670.28, -183809.56, 0.0, 9.996878, 10.000444 
2.5445986e+3, 2.7970523e+2, -750784.2, -400827.75, 84770.99, -0.06631834, -0.26838636, -381374.75, -182514.84, 0.0, 9.9961605, 10.000773 
2.5444993e+3, 2.8970543e+2, -740718.8, -231684.63, 74208.72, -0.07268173, -0.33538708, -221086.86, -120230.484, 0.0, 9.995066, 10.001791 
2.5443998e+3, 2.997059e+2, -836556.1, -288090.88, 28310.65, -0.0805625, -0.40363252, -286633.4, -283783.5, 0.0, 9.993997, 10.001247 
2.5443006e+3, 3.0970877e+2, -814871.44, -230357.5, -1549.6941, 0.11897424, -0.1877966, -230353.39, -230353.39, 0.0, 9.993714, 10.001444 
2.5441968e+3, 3.1970727e+2, -840415.5, 47512.21, 107069.2, -0.17425336, -0.46807492, 60240.504, 60240.504, 0.0, 9.992286, 10.004043 
2.5561094e+3, 1.298389e+2, -849454.3, -1722211.4, -13803.691, -0.0785002, -0.42294124, -849236.06, 818306.2, 0.15768798, 10.009154, 9.995537 
2.5560072e+3, 1.3983501e+2, -760529.3, -1618333.5, -13822.502, -0.03443678, -0.3192602, -760306.6, 809276.0, 0.109169625, 10.008556, 9.995869 
2.5559047e+3, 1.498308e+2, -712008.3, -1458424.1, 3317.596, -0.051714666, -0.3337689, -711993.56, 759630.2, 0.06198857, 10.007406, 9.99685 
2.555803e+3, 1.5982684e+2, -751439.8, -1439812.8, 6452.285, -0.059236743, -0.36568567, -751379.4, 622282.6, 0.026287688, 10.006225, 9.996869 
2.555702e+3, 1.6982356e+2, -700238.1, -1303253.8, 36444.535, -0.043615144, -0.36019182, -698043.5, 577650.3, 0.007155335, 10.005529, 9.997467 
2.5556007e+3, 1.7982052e+2, -717196.7, -1299267.3, 46978.105, -0.032599654, -0.35079697, -713429.56, 464294.06, 0.00088431354, 10.004871, 9.99714 
2.5554994e+3, 1.8981719e+2, -757215.3, -1240404.4, 34873.785, -0.033794638, -0.3520832, -754711.3, 325047.13, 0.00001159609, 10.003804, 9.997384 
2.5553983e+3, 1.9981422e+2, -786003.56, -1149902.6, 22674.8, -0.03577101, -0.34936592, -784596.1, 197193.55, 0.0, 10.002702, 9.997865 
2.5552976e+3, 2.098126e+2, -729159.9, -950459.7, 48147.543, -0.044622585, -0.31226468, -719138.44, 164667.06, 0.0, 10.001898, 9.998947 
2.555197e+3, 2.1981126e+2, -757021.8, -937271.9, 64489.22, -0.05400474, -0.28353366, -736325.44, 49492.79, 0.0, 10.001137, 9.998733 
2.5550964e+3, 2.2980924e+2, -754241.7, -845460.75, 58523.684, -0.052235182, -0.32118595, -725653.8, -37815.52, 0.0, 10.000313, 9.999086 
2.554996e+3, 2.3980746e+2, -771813.94, -788883.9, 49514.582, -0.04829754, -0.36028576, -730104.1, -140248.13, 0.0, 9.999456, 9.999215 
2.554896e+3, 2.498069e+2, -760499.3, -650814.56, 40328.348, -0.039914347, -0.3260232, -637583.0, -145721.2, 0.0, 9.9985075, 9.999947 
2.5547954e+3, 2.5980675e+2, -792447.6, -605914.7, 38021.074, -0.031447057, -0.28688726, -598462.56, -204598.95, 0.0, 9.997574, 10.000033 
2.554695e+3, 2.698066e+2, -746435.75, -455942.25, 42128.8, -0.029123843, -0.29218918, -449955.9, -154090.53, 0.0, 9.996885, 10.000721 
2.554595e+3, 2.7980664e+2, -750006.9, -406261.6, 51966.465, -0.027047796, -0.30948862, -398577.22, -200712.16, 0.0, 9.996184, 10.000729 
2.554494e+3, 2.8980708e+2, -773458.44, -300329.72, 28822.309, -0.043827046, -0.3170241, -298580.38, -198719.53, 0.0, 9.995061, 10.001326 
2.554393e+3, 2.998081e+2, -830249.6, -268675.88, 2175.9636, -0.081342794, -0.2971159, -268667.44, -266816.78, 0.0, 9.993963, 10.001401 
2.5542924e+3, 3.098096e+2, -757531.94, -118112.12, -4596.472, -0.013778796, -0.28224915, -118079.08, -118079.08, 0.0, 9.993737, 10.002208 
2.55419e+3, 3.198093e+2, -871617.56, -9979.348, -56029.047, -0.036564313, -0.48682603, -6351.269, -6351.269, 0.0, 9.992257, 10.00366 
2.5661185e+3, 1.2994184e+2, -849841.6, -1707574.8, 9399.114, -0.033354696, -0.4099386, -849738.6, 816795.1, 0.14400066, 10.008942, 9.995743 
2.5660142e+3, 1.3993807e+2, -814349.56, -1649292.8, 38013.08, -0.09122147, -0.30955777, -812622.5, 755950.25, 0.099142104, 10.008067, 9.995892 
2.5659114e+3, 1.4993365e+2, -740673.94, -1493860.1, 50152.594, -0.07266587, -0.3302437, -737349.06, 733267.1, 0.055755388, 10.00725, 9.996675 
2.5658092e+3, 1.5992945e+2, -723068.44, -1432171.4, 45952.402, -0.031883724, -0.36832628, -720103.0, 652554.06, 0.023244515, 10.006439, 9.996816 
2.5657067e+3, 1.6992618e+2, -708456.25, -1300308.9, 53635.656, -0.039258685, -0.36372584, -703634.9, 571053.6, 0.00613114, 10.005444, 9.997526 
2.5656044e+3, 1.7992322e+2, -771663.7, -1316183.3, 41818.246, -0.0562964, -0.35208228, -768470.8, 408246.4, 0.00070832163, 10.004462, 9.997218 
2.5655028e+3, 1.8992007e+2, -766988.1, -1236198.1, 66801.35, -0.039654847, -0.3390961, -757662.94, 321087.28, 0.000007363407, 10.003705, 9.9974575 
2.565401e+3, 1.9991724e+2, -747464.56, -1128170.3, 94326.69, -0.020334786, -0.3267484, -725375.1, 255405.36, 0.0, 10.002959, 9.997888 
2.565299e+3, 2.099153e+2, -717465.06, -948512.56, 90752.88, -0.043267805, -0.3178014, -686081.25, 196717.84, 0.0, 10.002002, 9.998907 
2.5651976e+3, 2.1991369e+2, -772075.1, -942461.4, 72226.91, -0.068482496, -0.312214, -745578.56, 39235.594, 0.0, 10.001031, 9.998745 
2.5650963e+3, 2.2991203e+2, -767493.1, -845957.94, 81330.32, -0.052494388, -0.31521103, -716427.1, -29596.209, 0.0, 10.000203, 9.999132 
2.564995e+3, 2.3991059e+2, -778425.75, -793034.56, 94475.52, -0.03130354, -0.32173574, -690972.7, -102127.02, 0.0, 9.999424, 9.999199 
2.5648937e+3, 2.4990958e+2, -726610.56, -645755.4, 93805.13, -0.03763081, -0.3224422, -584037.0, -93181.586, 0.0, 9.998797, 9.999838 
2.5647923e+3, 2.5990897e+2, -714887.5, -571057.7, 92148.195, -0.046678998, -0.31925148, -526083.56, -133222.17, 0.0, 9.998125, 10.000003 
2.5646913e+3, 2.6990896e+2, -710317.4, -432609.8, 79565.89, -0.036658637, -0.30833066, -411428.88, -116567.3, 0.0, 9.997115, 10.000767 
2.5645903e+3, 2.7990925e+2, -768156.94, -418275.94, 72755.164, -0.019383095, -0.30471855, -403750.1, -206890.8, 0.0, 9.99608, 10.000692 
2.564489e+3, 2.8990963e+2, -741748.9, -299525.56, 65445.887, -0.02197302, -0.30416974, -290043.38, -191187.45, 0.0, 9.99535, 10.001187 
2.5643873e+3, 2.999106e+2, -724318.75, -193395.28, 64392.605, -0.05621921, -0.27985403, -185697.11, -184850.8, 0.0, 9.9945965, 10.001607 
2.5642848e+3, 3.0991197e+2, -772199.1, -69445.375, 47389.695, -0.079965435, -0.32455084, -66264.086, -66264.086, 0.0, 9.993403, 10.0027 
2.5641832e+3, 3.1991506e+2, -777921.1, 16394.46, -75939.61, 0.06555089, -0.20632552, 23589.408, 23589.408, 0.0, 9.992984, 10.00349 
2.576127e+3, 1.3004594e+2, -813166.25, -1620704.4, -18053.176, 0.0062178, -0.3506757, -812762.9, 852752.44, 0.13067497, 10.008789, 9.996456 
2.5760216e+3, 1.4004172e+2, -798175.9, -1624316.5, 9257.196, -0.12476546, -0.35212803, -798072.2, 769483.7, 0.08941348, 10.008035, 9.9960785 
2.5759178e+3, 1.500373e+2, -757328.4, -1540037.9, 22687.723, -0.08602289, -0.3522991, -756671.3, 712928.4, 0.049754735, 10.00724, 9.996365 
2.5758153e+3, 1.6003315e+2, -744316.4, -1478172.5, 14668.001, -0.018703464, -0.35552996, -744023.3, 627617.9, 0.020359512, 10.006419, 9.996513 
2.575712e+3, 1.7002948e+2, -732121.0, -1348722.3, 18957.518, -0.029357363, -0.35944068, -731538.7, 542138.6, 0.005189294, 10.005427, 9.997205 
2.5756088e+3, 1.8002626e+2, -759607.1, -1290280.6, 13317.374, -0.053062256, -0.35549054, -759273.2, 416435.94, 0.00055638026, 10.004452, 9.997404 
2.575506e+3, 1.9002402e+2, -719766.44, -1138204.3, 41785.484, -0.046286892, -0.30780277, -715634.5, 362097.63, 0.000004588243, 10.003699, 9.9981365 
2.5754032e+3, 2.0002194e+2, -745271.7, -1122669.1, 62693.55, -0.035678074, -0.27094284, -735129.5, 244624.16, 0.0, 10.00295, 9.997932 
2.5753006e+3, 2.1001892e+2, -759623.75, -1037263.0, 54135.273, -0.038574163, -0.32717645, -749441.7, 132341.88, 0.0, 10.002001, 9.9983015 
2.575198e+3, 2.2001627e+2, -780758.94, -963034.4, 40381.85, -0.04420902, -0.37680885, -772213.25, 11596.285, 0.0, 10.001037, 9.998605 
2.575096e+3, 2.3001568e+2, -743196.7, -798733.44, 52212.914, -0.04669299, -0.29368827, -711827.4, -26011.354, 0.0, 10.000211, 9.999456 
2.574994e+3, 2.400153e+2, -767349.1, -772329.9, 67992.32, -0.04590823, -0.22064283, -701801.56, -113981.47, 0.0, 9.999427, 9.999343 
2.574892e+3, 2.5001338e+2, -729416.2, -653777.44, 70252.26, -0.03648207, -0.3139101, -611811.56, -121973.82, 0.0, 9.998802, 9.9997835 
2.5747904e+3, 2.6001176e+2, -721104.1, -589427.4, 60197.285, -0.032714196, -0.40597624, -566055.9, -174203.11, 0.0, 9.998142, 9.999872 
2.574688e+3, 2.7001217e+2, -726023.7, -468359.0, 37571.004, -0.04717945, -0.3307376, -462992.4, -169142.7, 0.0, 9.997121, 10.000523 
2.5745857e+3, 2.80013e+2, -770592.1, -423475.63, 38731.824, -0.04875452, -0.25176403, -419206.38, -223363.34, 0.0, 9.996075, 10.000664 
2.5744838e+3, 2.9001305e+2, -725641.75, -269920.5, 39609.05, -0.014303783, -0.3011719, -266503.5, -168661.52, 0.0, 9.99536, 10.001389 
2.5743815e+3, 3.0001345e+2, -703514.2, -160521.14, 28174.924, -0.012273055, -0.35709903, -159063.11, -159063.11, 0.0, 9.994634, 10.001819 
2.5742784e+3, 3.1001592e+2, -756461.75, -33083.84, -2125.8518, -0.025759973, -0.3095041, -33077.59, -33077.59, 0.0, 9.993381, 10.002965 
2.5741747e+3, 3.2001823e+2, -862711.44, -182592.0, -25872.797, 0.0067382264, -0.26756954, -181609.17, -181609.17, 0.0, 9.993068, 10.002091 
2.5861347e+3, 1.301504e+2, -887520.3, -1633842.3, 17790.787, 0.00056734117, -0.3321121, -887096.5, 777395.9, 0.11787764, 10.00797, 9.996746 
2.586029e+3, 1.4014606e+2, -812769.7, -1621981.4, 19420.902, -0.12195249, -0.3682618, -812303.9, 754229.0, 0.080100395, 10.007809, 9.996202 
2.5859246e+3, 1.501418e+2, -787873.1, -1563674.9, 34920.758, -0.081180654, -0.3521912, -786304.44, 682271.44, 0.044054452, 10.007023, 9.996304 
2.5858212e+3, 1.6013779e+2, -778082.8, -1491211.6, 38802.434, -0.013253717, -0.3366505, -775977.75, 594639.0, 0.017662026, 10.006159, 9.996546 
2.5857165e+3, 1.7013407e+2, -759131.5, -1349558.6, 64934.28, -0.03096643, -0.35298193, -752074.5, 520578.3, 0.004336373, 10.005191, 9.99731 
2.5856122e+3, 1.8013074e+2, -789178.5, -1301043.1, 81078.5, -0.060455002, -0.36341888, -776642.8, 398042.16, 0.0004278275, 10.00424, 9.99743 
2.5855088e+3, 1.9012846e+2, -758634.1, -1161643.9, 74765.305, -0.04789032, -0.3145837, -745210.94, 331497.7, 0.0000027949502, 10.003459, 9.998088 
2.5854054e+3, 2.001264e+2, -779647.75, -1138390.8, 55066.336, -0.03181745, -0.27276054, -771385.5, 207344.88, 0.0, 10.002715, 9.997934 
2.585302e+3, 2.1012348e+2, -764949.06, -1037091.3, 75937.164, -0.0408582, -0.31865337, -745194.0, 135564.95, 0.0, 10.00196, 9.99832 
2.585199e+3, 2.2012088e+2, -758724.0, -954508.7, 97515.95, -0.049949907, -0.36230665, -718441.56, 64342.844, 0.0, 10.001205, 9.998577 
2.585096e+3, 2.3012e+2, -711894.7, -792404.8, 89597.664, -0.041787315, -0.29770297, -653924.44, 30869.19, 0.0, 10.000472, 9.99937 
2.5849932e+3, 2.4011943e+2, -726018.75, -750757.0, 80211.15, -0.032412905, -0.23705973, -657228.6, -70428.87, 0.0, 9.999711, 9.999351 
2.5848904e+3, 2.501178e+2, -725808.3, -641819.3, 87601.445, -0.033875655, -0.30639106, -586666.75, -97852.305, 0.0, 9.99879, 9.999868 
2.584788e+3, 2.601164e+2, -760143.2, -608212.5, 85421.34, -0.038201742, -0.3802541, -569864.5, -179037.38, 0.0, 9.997882, 9.999865 
2.5846845e+3, 2.7011645e+2, -715994.8, -476400.5, 69598.75, -0.047103968, -0.33095154, -457650.38, -164822.7, 0.0, 9.997253, 10.000401 
2.5845817e+3, 2.8011695e+2, -694107.5, -386542.78, 78281.33, -0.04484465, -0.27464402, -367765.1, -172940.77, 0.0, 9.996607, 10.000657 
2.584479e+3, 2.901172e+2, -668153.9, -230930.1, 73316.69, -0.028821893, -0.30809686, -218963.38, -122142.58, 0.0, 9.995711, 10.001485 
2.5843757e+3, 3.001178e+2, -682855.56, -151854.56, 44544.066, -0.030051664, -0.35297683, -148143.83, -148143.83, 0.0, 9.994784, 10.001804 
2.5842723e+3, 3.1012008e+2, -651291.3, 10564.409, -14865.362, 0.06679515, -0.31227627, 10898.118, 10898.118, 0.0, 9.994141, 10.002894 
2.584167e+3, 3.201205e+2, -828798.25, -264221.22, 36853.547, -0.06715166, -0.43980655, -261825.7, -261825.7, 0.0, 9.993734, 10.0012045 
2.596142e+3, 1.3025531e+2, -875887.06, -1631887.5, 15310.652, -0.039666947, -0.33510527, -875577.1, 787887.3, 0.10573115, 10.007977, 9.996751 
2.5960365e+3, 1.4025104e+2, -812257.25, -1619529.5, 1101.7388, -0.095887505, -0.36851, -812255.75, 753248.5, 0.07129906, 10.0077305, 9.996259 
2.5959313e+3, 1.50247e+2, -786579.2, -1555504.0, 4772.009, -0.064493984, -0.33947688, -786549.56, 680996.25, 0.03871459, 10.006956, 9.996397 
2.5958267e+3, 1.6024321e+2, -765454.06, -1456061.8, 7836.3447, -0.017194105, -0.31354424, -765365.1, 604219.4, 0.015178275, 10.006102, 9.996819 
2.5957212e+3, 1.7023973e+2, -730755.5, -1290686.6, 29473.492, -0.043143608, -0.34398958, -729208.3, 542408.5, 0.0035776438, 10.005183, 9.997721 
2.5956157e+3, 1.8023647e+2, -796184.8, -1323223.9, 48714.336, -0.07569197, -0.3733153, -791720.0, 381927.1, 0.00032176587, 10.004267, 9.997268 
2.5955117e+3, 1.9023336e+2, -803629.2, -1261034.6, 48286.805, -0.04553567, -0.35253686, -798587.25, 277093.0, 0.0000016192165, 10.003479, 9.997399 
2.5954077e+3, 2.0023064e+2, -780584.94, -1142682.4, 29823.953, -0.015695646, -0.3247135, -778144.94, 199564.73, 0.0, 10.00272, 9.997906 
2.5953034e+3, 2.1022893e+2, -724136.94, -955822.1, 49083.26, -0.051092524, -0.29283118, -714167.44, 165558.38, 0.0, 10.001968, 9.998877 
2.595199e+3, 2.2022735e+2, -757340.8, -953491.7, 70768.89, -0.08312529, -0.27607572, -734474.0, 47266.434, 0.0, 10.001207, 9.998587 
2.595096e+3, 2.302249e+2, -747830.5, -867886.9, 62733.434, -0.037141062, -0.32904086, -721032.06, -37267.18, 0.0, 10.000471, 9.998855 
2.5949928e+3, 2.402229e+2, -734749.1, -771149.06, 48292.957, 0.0054245666, -0.37065554, -701340.5, -115555.18, 0.0, 9.999715, 9.999211 
2.5948888e+3, 2.5022283e+2, -710731.3, -612586.94, 50556.227, -0.030908326, -0.29605377, -591203.4, -103417.61, 0.0, 9.998792, 10.0000725 
2.5947848e+3, 2.6022297e+2, -753594.25, -595858.94, 55720.637, -0.06734046, -0.23376442, -578161.1, -188376.77, 0.0, 9.997881, 9.999953 
2.5946814e+3, 2.702218e+2, -716281.4, -478743.03, 46763.016, -0.037124492, -0.30968386, -469868.6, -178072.67, 0.0, 9.997256, 10.000385 
2.594578e+3, 2.80221e+2, -691746.5, -388509.28, 49351.54, -0.008365532, -0.38224378, -380679.56, -186875.44, 0.0, 9.99663, 10.000635 
2.5944737e+3, 2.902221e+2, -667796.94, -235685.72, 36762.68, -0.06818519, -0.32409203, -232580.38, -136787.8, 0.0, 9.9957285, 10.001449 
2.594369e+3, 3.0022365e+2, -704193.94, -198360.61, 13512.561, -0.11247265, -0.26001072, -197999.9, -197999.9, 0.0, 9.994788, 10.001487 
2.594267e+3, 3.1022438e+2, -689259.9, -79082.85, -39334.477, 0.17831165, -0.32420403, -76557.64, -76557.64, 0.0, 9.99418, 10.002264 
2.5941598e+3, 3.2022503e+2, -752840.44, -125499.73, 87420.84, -0.098734215, -0.3964942, -113545.305, -113545.305, 0.0, 9.993813, 10.002121 
2.6061493e+3, 1.303609e+2, -835151.9, -1628479.6, 30480.678, -0.058642447, -0.32818815, -833982.5, 828447.56, 0.094303995, 10.008263, 9.996636 
2.6060435e+3, 1.4035651e+2, -874354.1, -1631321.1, 11434.876, -0.05992144, -0.36916304, -874181.44, 690290.25, 0.06307365, 10.007128, 9.996467 
2.6059374e+3, 1.503529e+2, -850570.7, -1532634.3, 32060.518, -0.055812474, -0.33797607, -849067.0, 617441.2, 0.03377912, 10.006243, 9.996893 
2.6058316e+3, 1.6034955e+2, -839153.4, -1467630.6, 53314.777, -0.037478004, -0.30904773, -834662.7, 533879.4, 0.012928134, 10.005478, 9.997036 
2.6057255e+3, 1.7034607e+2, -753372.06, -1305646.6, 55860.27, -0.042669576, -0.3390702, -747778.6, 522795.94, 0.0029162501, 10.005048, 9.997681 
2.6056197e+3, 1.8034278e+2, -749224.56, -1301613.0, 51451.555, -0.054935988, -0.37001806, -744473.06, 428132.7, 0.00023684026, 10.0046, 9.997252 
2.6055148e+3, 1.9033955e+2, -768349.44, -1244367.8, 83354.625, -0.04552008, -0.3568511, -754175.4, 320464.06, 0.00000086705097, 10.003731, 9.997389 
2.60541e+3, 2.0033672e+2, -764923.8, -1133369.6, 99633.24, -0.034346487, -0.33607602, -739707.3, 236962.17, 0.0, 10.002829, 9.997913 
2.6053047e+3, 2.1033503e+2, -711405.75, -947505.7, 90958.62, -0.054215744, -0.30058756, -680428.0, 198257.44, 0.0, 10.002054, 9.998888 
2.6051998e+3, 2.203335e+2, -749625.44, -954341.3, 80359.82, -0.070677795, -0.27720854, -721849.4, 58850.28, 0.0, 10.001286, 9.99854 
2.6050958e+3, 2.3033091e+2, -766842.75, -889234.6, 92865.086, -0.034521878, -0.3348955, -716823.3, -34097.61, 0.0, 10.000399, 9.99874 
2.6049918e+3, 2.403287e+2, -765104.4, -786302.4, 103101.34, 0.0005242918, -0.38476261, -672058.6, -87310.625, 0.0, 9.9995165, 9.999199 
2.604887e+3, 2.503287e+2, -703781.9, -603401.5, 97304.625, -0.02965323, -0.30749124, -544105.44, -57357.25, 0.0, 9.998822, 10.000116 
2.6047826e+3, 2.6032892e+2, -717106.06, -575169.56, 93605.91, -0.059656598, -0.23580639, -528670.56, -139924.78, 0.0, 9.998126, 9.999974 
2.6046783e+3, 2.7032778e+2, -700898.06, -471170.44, 85716.836, -0.029313238, -0.3071318, -442712.7, -151955.67, 0.0, 9.997368, 10.00038 
2.6045743e+3, 2.8032693e+2, -696773.06, -391206.2, 86111.53, -0.0003730283, -0.3817839, -368610.1, -175844.61, 0.0, 9.996604, 10.000626 
2.604469e+3, 2.9032797e+2, -633451.2, -222689.19, 70619.914, -0.069574945, -0.32773536, -210887.03, -116132.24, 0.0, 9.995988, 10.001408 
2.6043636e+3, 3.0032942e+2, -637807.5, -194020.5, 49475.902, -0.12239034, -0.26312396, -188571.55, -188571.55, 0.0, 9.995372, 10.00123 
2.6042607e+3, 3.1032974e+2, -658436.06, -120827.734, 8450.265, 0.16984242, -0.32337856, -120694.945, -120694.945, 0.0, 9.994639, 10.001753 
2.6041538e+3, 3.2033128e+2, -727117.9, -11941.531, 153545.73, -0.04732438, -0.28123832, 19630.408, 19630.408, 0.0, 9.993561, 10.003018 
2.6161566e+3, 1.3046707e+2, -851195.0, -1655842.0, -6592.2524, -0.063508935, -0.31872877, -851141.0, 810249.06, 0.08363052, 10.008144, 9.996483 
2.6160505e+3, 1.4046255e+2, -859378.44, -1590964.8, -18380.908, -0.025143944, -0.3694326, -858916.94, 704516.94, 0.05545651, 10.007039, 9.996788 
2.6159433e+3, 1.5045953e+2, -802003.4, -1432174.0, 4175.8853, -0.057941843, -0.3432672, -801975.7, 663487.44, 0.029269455, 10.006219, 9.997604 
2.6158363e+3, 1.6045672e+2, -828305.25, -1451640.5, 31331.633, -0.06954944, -0.31723878, -826734.4, 540756.2, 0.010919707, 10.005491, 9.997143 
2.6157302e+3, 1.7045304e+2, -783785.1, -1367486.5, 42732.746, -0.03218179, -0.33647677, -780673.25, 488853.3, 0.0023512857, 10.005033, 9.997267 
2.6156244e+3, 1.8044959e+2, -747944.9, -1289926.4, 28107.938, -0.010079198, -0.35549048, -746491.0, 425069.72, 0.00017123236, 10.004555, 9.997357 
2.6155177e+3, 1.9044688e+2, -732200.9, -1168001.8, 49665.027, -0.050005566, -0.33411053, -726612.56, 346974.97, 0.00000042407203, 10.003719, 9.997922 
2.6154116e+3, 2.0044442e+2, -765189.56, -1137027.1, 68887.48, -0.08160914, -0.3154398, -752837.6, 222774.63, 0.0, 10.002836, 9.997888 
2.6153064e+3, 2.1044172e+2, -747777.3, -1023754.44, 63590.28, -0.049804997, -0.3391817, -733829.8, 143808.83, 0.0, 10.002052, 9.998368 
2.6152012e+3, 2.2043937e+2, -757941.1, -970078.3, 50878.914, -0.021413928, -0.3575316, -746369.56, 33292.348, 0.0, 10.001273, 9.998441 
2.6150957e+3, 2.30438e+2, -748138.8, -852299.06, 59625.227, -0.03668921, -0.3127189, -721051.4, -39375.066, 0.0, 10.0004015, 9.998996 
2.6149902e+3, 2.4043679e+2, -760048.06, -778379.8, 73401.94, -0.048899647, -0.28218424, -695241.94, -111553.31, 0.0, 9.999521, 9.999254 
2.6148853e+3, 2.5043523e+2, -714095.7, -626051.44, 71046.58, -0.029685501, -0.34724846, -586493.9, -100791.195, 0.0, 9.998822, 9.999963 
2.6147807e+3, 2.6043412e+2, -720250.4, -585756.3, 65560.38, -0.015720673, -0.39785007, -559086.75, -171373.84, 0.0, 9.998137, 9.999899 
2.6146752e+3, 2.7043444e+2, -701093.6, -473851.72, 55321.895, -0.024259739, -0.32060304, -461099.28, -171388.31, 0.0, 9.997371, 10.000363 
2.61457e+3, 2.8043497e+2, -697920.6, -394616.72, 60156.1, -0.02512155, -0.2556112, -383121.28, -191414.23, 0.0, 9.996602, 10.000607 
2.6144648e+3, 2.9043478e+2, -637947.56, -235231.23, 47674.68, -0.027645353, -0.3201252, -229664.33, -135956.75, 0.0, 9.9959955, 10.001321 
2.614359e+3, 3.004349e+2, -647159.25, -222977.08, 24410.158, -0.06042682, -0.37750494, -221576.98, -221576.98, 0.0, 9.995405, 10.001019 
2.6142535e+3, 3.1043613e+2, -673628.94, -163061.2, -19367.402, 0.020793758, -0.31573325, -162327.6, -162327.6, 0.0, 9.9946785, 10.001448 
2.6141474e+3, 3.2043767e+2, -739096.2, -23049.732, 40391.742, 0.03764554, -0.25686643, -20778.465, -20778.465, 0.0, 9.993492, 10.00298 
2.626164e+3, 1.3057433e+2, -929320.25, -1681135.6, 34147.36, -0.06935354, -0.32814825, -927772.5, 732566.75, 0.07372423, 10.00741, 9.996663 
2.626057e+3, 1.4057021e+2, -908152.5, -1597775.8, 39469.582, -0.0064345784, -0.35533968, -905900.9, 656478.5, 0.0484511, 10.006563, 9.996969 
2.6259488e+3, 1.5056717e+2, -814481.6, -1420424.1, 45645.934, -0.048026487, -0.34463218, -811062.44, 653345.6, 0.025183173, 10.006038, 9.997768 
2.6258412e+3, 1.605643e+2, -821204.06, -1443418.5, 47667.08, -0.07006354, -0.33443615, -817573.5, 548861.9, 0.009147385, 10.005521, 9.99718 
2.6257345e+3, 1.705607e+2, -834307.7, -1398448.8, 73677.94, -0.037728388, -0.34205458, -824843.94, 443627.47, 0.0018771201, 10.004721, 9.997199 
2.6256278e+3, 1.8055733e+2, -830411.44, -1318447.9, 72944.84, -0.017971424, -0.3478559, -819741.94, 350763.47, 0.00012233999, 10.003949, 9.997449 
2.625521e+3, 1.905548e+2, -758938.5, -1156471.1, 75645.85, -0.053201027, -0.32621276, -745030.56, 327499.56, 0.00000019125741, 10.003439, 9.998132 
2.625414e+3, 2.0055245e+2, -756488.9, -1130250.5, 73487.96, -0.079843715, -0.3102775, -742559.0, 231994.11, 0.0, 10.002892, 9.997905 
2.6253077e+3, 2.1054953e+2, -775201.56, -1054637.8, 84354.1, -0.045139056, -0.34425205, -751711.94, 124870.13, 0.0, 10.001946, 9.998204 
2.625202e+3, 2.2054696e+2, -792461.9, -982662.2, 95966.55, -0.014327448, -0.37053856, -752456.06, 26151.56, 0.0, 10.001028, 9.998468 
2.6250955e+3, 2.3054582e+2, -721423.3, -819691.6, 104134.875, -0.04219014, -0.31304935, -655413.06, 25206.219, 0.0, 10.000507, 9.999165 
2.6249892e+3, 2.4054486e+2, -698259.5, -752557.4, 108959.38, -0.06395657, -0.2685641, -613117.7, -30488.709, 0.0, 9.9999695, 9.999212 
2.6248837e+3, 2.5054297e+2, -690496.94, -639603.6, 98238.57, -0.027147032, -0.34805706, -563569.5, -78922.695, 0.0, 9.999098, 9.999734 
2.6247784e+3, 2.6054147e+2, -712064.6, -586872.0, 91189.97, 0.0033949208, -0.41600862, -538861.3, -152200.47, 0.0, 9.998222, 9.999846 
2.624672e+3, 2.70542e+2, -658803.1, -444767.78, 87085.555, -0.030236479, -0.32485807, -413812.0, -125154.99, 0.0, 9.997631, 10.000434 
2.624566e+3, 2.805427e+2, -643294.0, -374056.3, 93572.38, -0.046374995, -0.24226053, -344729.97, -154079.08, 0.0, 9.997009, 10.000547 
2.6244608e+3, 2.9054224e+2, -626682.06, -249629.13, 71630.984, 0.0027777457, -0.31760234, -236479.55, -143825.25, 0.0, 9.996165, 10.001137 
2.6243544e+3, 3.00542e+2, -668319.0, -242895.56, 45137.348, -0.011483283, -0.39124086, -238159.22, -238159.22, 0.0, 9.995309, 10.000925 
2.6242465e+3, 3.1054327e+2, -679138.4, -164431.92, 21729.922, -0.07972085, -0.32056677, -163516.16, -163516.16, 0.0, 9.994646, 10.001449 
2.6241407e+3, 3.2054436e+2, -677283.94, -18442.834, 41029.28, 0.036053423, -0.30509272, -15897.571, -15897.571, 0.0, 9.994034, 10.002746 
2.6361707e+3, 1.3068253e+2, -908797.6, -1634412.5, 5019.2793, -0.08098587, -0.3465996, -908762.94, 750515.94, 0.06458254, 10.007333, 9.99703 
2.6360628e+3, 1.4067914e+2, -903319.56, -1594979.0, 16748.783, -0.0029058405, -0.32771522, -902914.25, 658397.1, 0.04204399, 10.006553, 9.996994 
2.6359543e+3, 1.5067565e+2, -829760.6, -1456087.3, 29149.295, -0.031147797, -0.34230834, -828406.94, 634937.44, 0.021505183, 10.006024, 9.997527 
2.635846e+3, 1.6067235e+2, -826052.56, -1447737.5, 23335.424, -0.050517328, -0.3582358, -825177.9, 540198.2, 0.0075981333, 10.005482, 9.997173 
2.6357386e+3, 1.7066899e+2, -822984.1, -1374598.8, 43634.543, -0.0580829, -0.35542306, -819553.8, 447855.84, 0.0014853183, 10.004713, 9.99737 
2.635631e+3, 1.8066588e+2, -826108.7, -1313768.8, 50314.777, -0.067343935, -0.34774235, -820971.5, 348469.44, 0.000087011875, 10.003962, 9.997478 
2.6355237e+3, 1.9066326e+2, -768989.9, -1173322.4, 59293.125, -0.054728605, -0.32919663, -760474.2, 310993.1, 0.00000008629741, 10.003415, 9.998031 
2.6354167e+3, 2.0066082e+2, -760617.9, -1128792.0, 46141.313, -0.04083092, -0.31500313, -754923.3, 218568.4, 0.0, 10.002843, 9.997941 
2.6353094e+3, 2.1065834e+2, -765434.1, -1034934.25, 48026.176, -0.042813264, -0.31836686, -757131.44, 118384.96, 0.0, 10.001944, 9.998343 
2.6352018e+3, 2.2065608e+2, -781870.7, -966178.8, 71194.69, -0.046871986, -0.3265756, -757572.8, 19965.816, 0.0, 10.001046, 9.998576 
2.635095e+3, 2.3065431e+2, -716736.8, -812315.25, 87324.49, -0.049870983, -0.3384735, -664980.2, 14575.339, 0.0, 10.000512, 9.999215 
2.6349887e+3, 2.4065286e+2, -708638.6, -775850.1, 81721.75, -0.048579354, -0.34178954, -653882.6, -72313.07, 0.0, 9.999971, 9.999055 
2.6348823e+3, 2.5065187e+2, -712805.1, -687560.75, 62587.58, -0.023338068, -0.30307263, -636335.25, -152754.92, 0.0, 9.9991, 9.999407 
2.634776e+3, 2.6065105e+2, -713819.56, -594008.9, 63438.566, -0.008564238, -0.27813488, -566661.1, -181072.02, 0.0, 9.998231, 9.999796 
2.634669e+3, 2.706503e+2, -647367.5, -424335.75, 65188.863, -0.050740812, -0.32432818, -406679.72, -119083.91, 0.0, 9.99764, 10.000573 
2.6345623e+3, 2.8064987e+2, -650354.7, -394026.0, 65108.645, -0.06808289, -0.36075243, -378436.28, -188837.13, 0.0, 9.997026, 10.000405 
2.6344562e+3, 2.906503e+2, -648656.94, -297382.9, 36274.285, 0.021125678, -0.31705695, -293676.2, -202080.94, 0.0, 9.996169, 10.000811 
2.6343495e+3, 3.0065095e+2, -666112.75, -236824.92, 14544.1875, 0.029937346, -0.28147984, -236332.72, -236332.72, 0.0, 9.9952965, 10.000977 
2.63424e+3, 3.1065124e+2, -657903.44, -118875.98, -1590.468, -0.13355261, -0.3366748, -118871.28, -118871.28, 0.0, 9.994632, 10.001772 
2.6341343e+3, 3.2065234e+2, -677038.44, -34805.246, 36932.816, 0.038334142, -0.33611572, -32688.332, -32688.332, 0.0, 9.994095, 10.00261 
2.6461774e+3, 1.3079198e+2, -942309.2, -1640896.4, 47586.316, -0.046470243, -0.3417708, -939082.6, 719122.5, 0.056189388, 10.006979, 9.997151 
2.6460686e+3, 1.4078848e+2, -909257.25, -1611557.3, 47817.797, -0.017012756, -0.33647475, -906016.4, 654222.1, 0.036218345, 10.006536, 9.996887 
2.64596e+3, 1.5078476e+2, -881448.6, -1512603.6, 56302.336, -0.02977621, -0.3505967, -876465.5, 585809.3, 0.018218998, 10.005789, 9.997247 
2.645851e+3, 1.6078125e+2, -882442.3, -1473659.9, 47889.29, -0.030632403, -0.36468935, -878588.4, 485720.6, 0.0062572183, 10.005087, 9.997181 
2.6457423e+3, 1.7077813e+2, -825664.9, -1350949.0, 70379.805, -0.05274768, -0.35524088, -816398.56, 449941.56, 0.0011662919, 10.004594, 9.997586 
2.6456344e+3, 1.8077523e+2, -813599.4, -1298236.0, 73015.83, -0.076358505, -0.34270895, -802837.7, 365531.38, 0.00006210781, 10.004015, 9.997555 
2.6455262e+3, 1.9077249e+2, -845795.3, -1214127.8, 80914.016, -0.056801073, -0.33228537, -828804.2, 241592.64, 0.000000036839044, 10.0029125, 9.997988 
2.6454183e+3, 2.0076999e+2, -882385.0, -1173536.6, 80472.05, -0.034485277, -0.324188, -861623.6, 110798.57, 0.0, 10.001956, 9.998056 
2.6453105e+3, 2.1076776e+2, -759445.5, -1007095.06, 93549.97, -0.04140459, -0.3180324, -728079.56, 146364.27, 0.0, 10.001885, 9.998558 
2.6452026e+3, 2.2076572e+2, -683728.56, -916250.06, 108208.79, -0.050065745, -0.31708667, -641163.25, 135300.14, 0.0, 10.001716, 9.998593 
2.6450953e+3, 2.3076375e+2, -712884.75, -825943.7, 104852.625, -0.04995162, -0.34002098, -650293.9, 28188.936, 0.0, 10.000611, 9.999071 
2.644988e+3, 2.4076207e+2, -773686.0, -809678.2, 97977.39, -0.04424586, -0.3532792, -692065.7, -111566.47, 0.0, 9.999542, 9.999025 
2.6448807e+3, 2.5076124e+2, -695499.06, -674822.2, 106391.46, -0.029505614, -0.2987718, -578268.0, -95759.695, 0.0, 9.999206, 9.99944 
2.6447737e+3, 2.6076055e+2, -637217.3, -567434.6, 120669.42, -0.022324907, -0.2584389, -476713.38, -92197.6, 0.0, 9.998809, 9.999697 
2.644666e+3, 2.707594e+2, -626264.56, -436720.2, 96257.9, -0.053521946, -0.32449627, -396409.63, -109883.125, 0.0, 9.997888, 10.000366 
2.6445588e+3, 2.807586e+2, -665256.6, -408035.06, 79113.17, -0.06010964, -0.3828096, -385650.4, -197116.7, 0.0, 9.99696, 10.000338 
2.6444522e+3, 2.9075915e+2, -618431.0, -279570.97, 74247.11, 0.024631968, -0.32290223, -264016.75, -173488.58, 0.0, 9.99637, 10.000832 
2.6443446e+3, 3.0076e+2, -602434.8, -208822.63, 67729.0, 0.038664762, -0.26613307, -197494.48, -197494.48, 0.0, 9.995752, 10.000944 
2.6442343e+3, 3.107601e+2, -621667.25, -109040.24, 23212.734, -0.12064894, -0.33456513, -107991.266, -107991.266, 0.0, 9.99492, 10.001698 
2.644128e+3, 3.2076105e+2, -673008.2, -1555.7806, 66207.51, 0.06432465, -0.34521925, 4910.2393, 4910.2393, 0.0, 9.993999, 10.002879 
2.6561844e+3, 1.3090238e+2, -942891.2, -1644831.4, 30521.19, 0.0088877315, -0.32349756, -941566.56, 715554.8, 0.048516784, 10.006939, 9.99714 
2.6560742e+3, 1.4089829e+2, -923700.7, -1642686.0, 23035.275, -0.04526509, -0.37252182, -922963.44, 636197.5, 0.030954117, 10.0065, 9.996692 
2.6559648e+3, 1.5089443e+2, -904257.25, -1564576.1, 28269.498, -0.03925394, -0.3672612, -903049.2, 558150.2, 0.015306127, 10.005782, 9.996897 
2.6558557e+3, 1.6089092e+2, -881881.56, -1475003.9, 28332.404, -0.013444534, -0.35808966, -880531.25, 482703.47, 0.005108385, 10.005087, 9.997174 
2.655747e+3, 1.7088802e+2, -815679.3, -1322001.0, 54857.55, -0.030227222, -0.3427253, -809803.94, 455459.28, 0.00090990524, 10.004551, 9.997808 
2.6556376e+3, 1.808853e+2, -817311.5, -1291905.1, 41358.074, -0.05648498, -0.33109385, -813734.3, 353555.8, 0.000044747343, 10.003948, 9.997633 
2.6555285e+3, 1.908824e+2, -845706.94, -1216914.3, 38851.51, -0.061290905, -0.3367807, -841684.25, 227635.16, 0.000000014947995, 10.00292, 9.997968 
2.6554197e+3, 2.008798e+2, -864012.0, -1147655.0, 64731.516, -0.05685067, -0.34296528, -849937.7, 121408.03, 0.0, 10.002003, 9.998215 
2.6553118e+3, 2.1087776e+2, -740948.5, -970400.5, 95905.2, -0.04029126, -0.34119418, -706142.4, 167222.42, 0.0, 10.001887, 9.998813 
2.6552042e+3, 2.2087593e+2, -695654.8, -933827.6, 83119.02, -0.030556232, -0.33665243, -669516.06, 105866.24, 0.0, 10.001678, 9.998492 
2.6550955e+3, 2.3087408e+2, -738683.1, -878672.5, 59658.445, -0.04429206, -0.315863, -716708.3, -39306.71, 0.0, 10.000604, 9.998715 
2.6549867e+3, 2.4087241e+2, -765635.75, -796169.56, 73151.08, -0.054885447, -0.30565438, -706175.44, -126756.68, 0.0, 9.999551, 9.999117 
2.6548794e+3, 2.50871e+2, -666354.7, -617771.75, 96039.23, -0.047546554, -0.34180853, -542999.56, -61568.082, 0.0, 9.999215, 9.99983 
2.6547718e+3, 2.608699e+2, -647725.6, -594719.75, 94732.695, -0.04085633, -0.366394, -522852.5, -139410.77, 0.0, 9.998826, 9.999504 
2.6546636e+3, 2.7086928e+2, -669442.6, -528013.3, 57508.54, -0.03420851, -0.3209259, -507580.84, -222131.88, 0.0, 9.9978895, 9.999741 
2.6545554e+3, 2.8086895e+2, -663265.7, -404591.03, 50354.05, -0.020082584, -0.28974602, -395134.72, -207681.22, 0.0, 9.996957, 10.000366 
2.654448e+3, 2.9086882e+2, -586724.9, -216902.45, 54224.008, 0.0031578555, -0.33992705, -209115.98, -119662.85, 0.0, 9.996377, 10.001262 
2.654339e+3, 3.0086905e+2, -613322.0, -236862.38, 41830.18, -0.0036083257, -0.3674743, -232270.44, -232270.44, 0.0, 9.9957695, 10.000747 
2.65423e+3, 3.1086987e+2, -662115.06, -197513.45, -11089.5, 0.0042352234, -0.30789915, -197248.92, -197248.92, 0.0, 9.994932, 10.001088 
2.654121e+3, 3.2087016e+2, -634505.44, 82340.164, 37802.43, 0.010428163, -0.36391473, 84328.14, 84328.14, 0.0, 9.993977, 10.003469 
2.6661906e+3, 1.3101234e+2, -982060.94, -1673793.4, 32309.896, 0.010998102, -0.3582023, -980555.06, 675487.1, 0.041527368, 10.006652, 9.997076 
2.66608e+3, 1.4100847e+2, -947817.5, -1647908.3, 17781.438, -0.042301137, -0.37951553, -947366.2, 610714.2, 0.026219355, 10.006275, 9.996762 
2.66597e+3, 1.5100479e+2, -908290.2, -1549753.6, 44289.836, -0.04261226, -0.37080473, -905246.6, 554870.8, 0.012739055, 10.005677, 9.997045 
2.66586e+3, 1.610014e+2, -885917.6, -1461736.5, 62190.37, -0.019908767, -0.36100587, -879277.4, 482874.16, 0.004131024, 10.004996, 9.997305 
2.6657504e+3, 1.7099856e+2, -892456.8, -1346164.3, 81413.59, -0.026660306, -0.3491383, -878290.25, 385889.16, 0.00070516614, 10.003975, 9.997915 
2.665641e+3, 1.8099591e+2, -929459.1, -1331550.4, 69989.516, -0.04504581, -0.34011617, -917624.8, 248580.83, 0.000032455195, 10.003123, 9.997754 
2.665531e+3, 1.9099315e+2, -817729.44, -1190053.1, 79851.01, -0.05819006, -0.3434526, -801326.7, 266906.88, 0.0000000057994387, 10.003063, 9.998079 
2.6654214e+3, 2.0099063e+2, -736506.56, -1078934.5, 104754.305, -0.06113802, -0.34764975, -707002.6, 263256.22, 0.0, 10.002854, 9.998272 
2.665313e+3, 2.1098855e+2, -774449.94, -984922.1, 116534.95, -0.044469554, -0.35188758, -722666.8, 149611.55, 0.0, 10.001657, 9.99882 
2.6652047e+3, 2.2098668e+2, -848878.8, -1000411.8, 96718.77, -0.031716183, -0.35181406, -801783.3, -27487.125, 0.0, 10.000603, 9.99855 
2.6650953e+3, 2.3098494e+2, -737878.9, -870193.0, 102417.61, -0.04284968, -0.32582843, -682109.25, -5794.919, 0.0, 10.00058, 9.998781 
2.6649863e+3, 2.4098334e+2, -640849.56, -739785.5, 131121.52, -0.051176693, -0.3104661, -550175.0, 28155.852, 0.0, 10.000431, 9.999077 
2.664878e+3, 2.5098175e+2, -661230.56, -628056.9, 116674.24, -0.048397914, -0.3542507, -526796.3, -46450.707, 0.0, 9.9993105, 9.99971 
2.6647696e+3, 2.6098043e+2, -732695.5, -637565.5, 94062.18, -0.041769844, -0.3873396, -579725.94, -197368.25, 0.0, 9.998258, 9.99948 
2.6646608e+3, 2.7097994e+2, -662596.6, -523151.5, 99874.734, -0.024314817, -0.33183178, -471070.13, -186706.34, 0.0, 9.997936, 9.999748 
2.6645523e+3, 2.8097966e+2, -580589.56, -371627.22, 122200.35, -0.0031280748, -0.2894887, -315331.4, -128963.88, 0.0, 9.997561, 10.000298 
2.6644436e+3, 2.9097927e+2, -539987.75, -209036.02, 84897.734, -0.009413787, -0.34829655, -188528.31, -100158.65, 0.0, 9.996766, 10.001125 
2.664334e+3, 3.009793e+2, -604816.8, -247453.7, 36874.63, -0.03340289, -0.3856912, -243688.45, -243688.45, 0.0, 9.995897, 10.000609 
2.6642248e+3, 3.109801e+2, -663694.3, -215081.83, 12664.622, 0.06879799, -0.3124999, -214724.58, -214724.58, 0.0, 9.995002, 10.00093 
2.664114e+3, 3.2098028e+2, -543344.1, 139958.44, 88459.09, -0.038500834, -0.3711436, 151224.45, 151224.45, 0.0, 9.994552, 10.003584 
2.6761964e+3, 1.3112217e+2, -986863.5, -1688878.5, 20145.299, -0.020247085, -0.42383367, -986285.9, 668677.94, 0.035178117, 10.006633, 9.996981 
2.6760858e+3, 1.4111915e+2, -945532.5, -1621244.8, 1608.039, -0.024428688, -0.36278445, -945528.7, 611466.94, 0.021970017, 10.006153, 9.997005 
2.675975e+3, 1.511158e+2, -888154.44, -1489413.6, 23713.66, -0.04731783, -0.36340907, -887220.6, 571808.44, 0.010481829, 10.00558, 9.997509 
2.6758644e+3, 1.6111262e+2, -882914.0, -1440546.5, 30654.6, -0.044360895, -0.3705337, -881233.94, 479826.63, 0.0033012363, 10.004923, 9.997489 
2.6757535e+3, 1.7110969e+2, -894890.75, -1349424.6, 43115.703, -0.03706772, -0.37177593, -890837.06, 372252.47, 0.00054114196, 10.003962, 9.997902 
2.6756433e+3, 1.8110701e+2, -916362.6, -1310350.1, 55760.38, -0.042024553, -0.36851802, -908623.0, 256493.17, 0.00002352797, 10.003144, 9.997892 
2.6755336e+3, 1.9110467e+2, -805648.5, -1161786.3, 81651.266, -0.04988633, -0.3508623, -787820.8, 279319.1, 0.000000001728097, 10.003043, 9.998286 
2.675424e+3, 2.0110242e+2, -749039.94, -1093843.5, 76369.7, -0.05340307, -0.33838633, -732882.2, 236280.13, 0.0, 10.002801, 9.9981985 
2.675314e+3, 2.1110004e+2, -792449.6, -1022223.2, 68361.016, -0.055084627, -0.3512937, -773649.44, 97535.7, 0.0, 10.001652, 9.998569 
2.6752043e+3, 2.210979e+2, -831587.75, -970889.94, 80508.89, -0.05560297, -0.36629078, -794782.5, -21576.826, 0.0, 10.000625, 9.998745 
2.6750952e+3, 2.3109627e+2, -703333.44, -802167.6, 106091.93, -0.045917656, -0.3707538, -635714.0, 39507.465, 0.0, 10.00059, 9.999246 
2.6749864e+3, 2.4109481e+2, -656239.2, -772786.9, 104428.78, -0.03606409, -0.3660496, -594925.4, -17689.508, 0.0, 10.000429, 9.998853 
2.674877e+3, 2.5109342e+2, -709905.44, -728556.75, 69427.14, -0.030830912, -0.33139727, -649180.44, -169929.52, 0.0, 9.999305, 9.999025 
2.6747674e+3, 2.6109222e+2, -720527.1, -612881.5, 69265.33, -0.029433602, -0.312766, -578985.56, -197722.05, 0.0, 9.998255, 9.999654 
2.6746583e+3, 2.7109128e+2, -611423.4, -419766.34, 90942.305, -0.029505685, -0.36333105, -383482.75, -100211.664, 0.0, 9.997942, 10.000458 
2.674549e+3, 2.8109065e+2, -594363.56, -407247.3, 101193.85, -0.017579049, -0.39817712, -362989.2, -177712.98, 0.0, 9.997585, 10.000045 
2.6744395e+3, 2.9109064e+2, -598470.9, -335299.28, 51383.85, -0.0062913354, -0.34266767, -325622.47, -238344.92, 0.0, 9.996781, 10.000254 
2.6743293e+3, 3.0109084e+2, -606524.56, -254323.4, 108.33219, -0.04061617, -0.2968563, -254323.38, -254323.38, 0.0, 9.995905, 10.000562 
2.6742187e+3, 3.1109062e+2, -636458.7, -157208.72, -21436.078, 0.019782452, -0.3630106, -156251.83, -156251.83, 0.0, 9.994988, 10.001337 
2.6741084e+3, 3.2109168e+2, -578264.6, 51986.418, 107915.87, 0.0029650524, -0.34068248, 69952.37, 69952.37, 0.0, 9.994605, 10.00296 
2.6862022e+3, 1.3123302e+2, -984009.94, -1659845.3, 15345.387, -0.037169185, -0.4392279, -983661.7, 670216.8, 0.029420173, 10.006492, 9.99725 
2.6860908e+3, 1.4123063e+2, -1061940.3, -1637519.6, 23932.084, -0.023689497, -0.34326592, -1060946.9, 494956.8, 0.0181595, 10.005142, 9.997379 
2.6859793e+3, 1.5122755e+2, -1002655.9, -1497309.5, 54354.746, -0.048712734, -0.35686442, -996753.56, 461180.1, 0.008497888, 10.004577, 9.997934 
2.685868e+3, 1.6122456e+2, -986393.4, -1470114.9, 55862.293, -0.047636524, -0.37807623, -980026.0, 379936.72, 0.0025962358, 10.004125, 9.997667 
2.685757e+3, 1.7122164e+2, -928649.8, -1363996.9, 68145.664, -0.037627034, -0.38141018, -918232.1, 343759.75, 0.00040870302, 10.003728, 9.9979105 
2.685646e+3, 1.8121897e+2, -894323.06, -1293954.6, 85097.45, -0.03881539, -0.37771234, -876957.06, 287061.66, 0.000016829097, 10.003277, 9.997937 
2.6855356e+3, 1.912167e+2, -875112.3, -1187909.9, 103191.914, -0.043385997, -0.35538644, -844136.75, 221904.88, 0.0000000002885943, 10.002541, 9.998345 
2.6854256e+3, 2.0121457e+2, -872960.9, -1141404.4, 87170.805, -0.04422821, -0.33931845, -847138.2, 120924.82, 0.0, 10.001904, 9.9983 
2.6853153e+3, 2.1121229e+2, -774674.4, -1001819.1, 98006.18, -0.04878535, -0.35201883, -738233.75, 131850.84, 0.0, 10.00173, 9.998668 
2.6852047e+3, 2.212102e+2, -715609.1, -919003.5, 127155.77, -0.05237827, -0.36703756, -654484.56, 117620.08, 0.0, 10.001446, 9.998701 
2.685095e+3, 2.3120837e+2, -716693.56, -822728.44, 115846.35, -0.050086018, -0.37669146, -642309.2, 31813.486, 0.0, 10.0005665, 9.999113 
2.6849857e+3, 2.412068e+2, -750755.75, -812025.1, 83429.58, -0.041098204, -0.3763985, -692514.25, -116375.836, 0.0, 9.99976, 9.998902 
2.6848757e+3, 2.512056e+2, -669561.4, -695193.8, 98480.62, -0.024298256, -0.33318016, -583066.5, -104915.47, 0.0, 9.999528, 9.999144 
2.6847658e+3, 2.612045e+2, -588756.5, -550694.94, 137433.31, -0.014988434, -0.30806556, -430981.06, -50818.934, 0.0, 9.999172, 9.999635 
2.6846558e+3, 2.712033e+2, -571042.5, -410655.8, 104582.37, -0.029606987, -0.37414446, -359059.75, -76887.46, 0.0, 9.998271, 10.000359 
2.6845458e+3, 2.8120244e+2, -631448.7, -438917.94, 72725.47, -0.027260425, -0.42232236, -414535.0, -230355.14, 0.0, 9.997396, 9.999914 
2.684436e+3, 2.9120255e+2, -593422.25, -352079.88, 69271.945, -0.0054050153, -0.3407993, -333610.34, -247429.33, 0.0, 9.996906, 10.000074 
2.684325e+3, 3.0120274e+2, -536251.1, -228661.1, 52091.613, -0.030439282, -0.27553546, -220078.64, -220078.64, 0.0, 9.99643, 10.000481 
2.6842135e+3, 3.112022e+2, -504042.8, -92692.625, -3476.681, -0.000748416, -0.36976138, -92663.24, -92663.24, 0.0, 9.995902, 10.001335 
2.6841027e+3, 3.2120338e+2, -561832.8, 4621.2417, 124178.86, 0.017831903, -0.31954432, 30648.055, 30648.055, 0.0, 9.994965, 10.002457 
2.6962078e+3, 1.3134466e+2, -963576.3, -1596608.4, -33593.035, -0.05199046, -0.42115533, -961798.6, 690988.2, 0.0242065, 10.00637, 9.99775 
2.6960954e+3, 1.4134279e+2, -1029183.8, -1573913.8, -3683.443, -0.03438255, -0.3222518, -1029158.9, 525646.4, 0.014748633, 10.005147, 9.997815 
2.695983e+3, 1.5133995e+2, -973460.2, -1442705.4, 38460.77, -0.04740372, -0.35209584, -970328.75, 486503.4, 0.006756984, 10.00459, 9.998307 
2.6958716e+3, 1.6133714e+2, -975242.44, -1447541.6, 39916.0, -0.039229285, -0.38491613, -971892.75, 386966.13, 0.0019976485, 10.00412, 9.997828 
2.69576e+3, 1.7133436e+2, -929113.3, -1362963.3, 54874.273, -0.032977648, -0.38059172, -922280.3, 338606.8, 0.00030114106, 10.003714, 9.997928 
2.6956487e+3, 1.8133172e+2, -901786.75, -1305652.5, 63536.97, -0.03674217, -0.37112692, -892026.8, 270887.03, 0.000011617903, 10.003255, 9.99787 
2.6955378e+3, 1.9132927e+2, -882677.4, -1204439.8, 76087.2, -0.039648913, -0.35798183, -865592.25, 199346.67, 0.000000000007316074, 10.00254, 9.998235 
2.695427e+3, 2.0132706e+2, -854591.5, -1106401.9, 74484.47, -0.036952868, -0.34951392, -834209.1, 132751.94, 0.0, 10.001912, 9.998539 
2.6953164e+3, 2.1132526e+2, -745324.5, -942092.6, 93511.8, -0.027532307, -0.3537289, -707974.0, 161003.19, 0.0, 10.00173, 9.99908 
2.6952058e+3, 2.2132346e+2, -740332.44, -966604.1, 103852.9, -0.027666405, -0.35540986, -699893.7, 71100.125, 0.0, 10.001425, 9.998387 
2.6950952e+3, 2.313212e+2, -769738.1, -932324.25, 81005.4, -0.05712269, -0.34450296, -736268.6, -63250.32, 0.0, 10.00056, 9.998365 
2.6949847e+3, 2.4131924e+2, -725399.2, -763026.1, 65552.35, -0.072207704, -0.34070206, -676013.94, -100975.17, 0.0, 9.999771, 9.999236 
2.6948744e+3, 2.5131822e+2, -600737.44, -556208.3, 91119.625, -0.030921197, -0.36324644, -484672.56, -7626.2163, 0.0, 9.999539, 10.000094 
2.6947644e+3, 2.6131728e+2, -606768.25, -594552.4, 112714.8, -0.0009807276, -0.37721384, -487780.16, -108726.49, 0.0, 9.999195, 9.999326 
2.6946536e+3, 2.7131605e+2, -644294.2, -564451.3, 66076.664, -0.022414936, -0.357756, -527172.7, -246104.97, 0.0, 9.998274, 9.999304 
2.6945427e+3, 2.813151e+2, -628785.9, -433026.1, 45288.938, -0.033558227, -0.34286383, -423056.25, -239977.58, 0.0, 9.99739, 9.999961 
2.694432e+3, 2.9131487e+2, -545338.8, -255127.16, 51922.746, -0.012540096, -0.34754753, -246117.2, -161036.53, 0.0, 9.996912, 10.000741 
2.694321e+3, 3.0131492e+2, -545895.94, -256017.67, 36284.77, -0.011330353, -0.34201428, -251544.84, -251544.84, 0.0, 9.996456, 10.000283 
2.6942092e+3, 3.1131506e+2, -537351.1, -180202.2, -24289.807, 0.042710695, -0.30860287, -178557.81, -178557.81, 0.0, 9.9959755, 10.000701 
2.6940963e+3, 3.21315e+2, -587787.25, -53520.8, 53670.617, -0.06781624, -0.32753807, -48182.57, -48182.57, 0.0, 9.994974, 10.002057 
2.7062133e+3, 1.3145836e+2, -1063314.3, -1637454.4, 28070.703, -0.039296556, -0.36039397, -1061945.1, 589728.75, 0.019509211, 10.005606, 9.997831 
2.7060997e+3, 1.4145564e+2, -1033420.44, -1572548.6, 44862.234, -0.023312436, -0.34862152, -1029712.8, 523986.8, 0.0117125, 10.005091, 9.997849 
2.7059874e+3, 1.5145288e+2, -985679.7, -1449162.3, 70394.38, -0.04450452, -0.36881164, -975223.94, 480501.84, 0.0052380944, 10.004509, 9.998298 
2.705875e+3, 1.6145028e+2, -990197.4, -1441330.9, 56607.11, -0.04189728, -0.38383412, -983202.9, 374547.8, 0.0014924785, 10.0039625, 9.997942 
2.7057633e+3, 1.7144783e+2, -954595.0, -1354763.5, 79079.46, -0.030261569, -0.3605668, -939534.5, 320241.03, 0.0002139942, 10.003455, 9.998104 
2.7056512e+3, 1.8144542e+2, -938973.9, -1312308.8, 92991.41, -0.029155826, -0.34381396, -917093.6, 244706.42, 0.0000075416983, 10.002957, 9.997965 
2.7055395e+3, 1.914427e+2, -893553.4, -1206026.9, 113056.555, -0.03389903, -0.35958675, -856938.6, 206888.52, 0.0, 10.002456, 9.998261 
2.7054286e+3, 2.0144029e+2, -846841.25, -1101738.4, 119960.78, -0.032890473, -0.3701861, -799264.9, 166585.89, 0.0, 10.001968, 9.998541 
2.7053174e+3, 2.1143866e+2, -779810.25, -960857.2, 113716.29, -0.028476452, -0.35509995, -724986.25, 142879.6, 0.0, 10.001509, 9.999055 
2.7052066e+3, 2.2143698e+2, -794612.3, -989896.56, 99518.6, -0.03000954, -0.34247243, -752834.44, 17047.197, 0.0, 10.001046, 9.998406 
2.705095e+3, 2.3143464e+2, -769723.56, -929877.44, 121752.32, -0.05522917, -0.3409308, -704074.94, -32168.291, 0.0, 10.000556, 9.998381 
2.704984e+3, 2.414326e+2, -682533.25, -736552.8, 145811.89, -0.068077974, -0.34617937, -561250.6, 12677.095, 0.0, 10.000048, 9.999281 
2.7048737e+3, 2.5143158e+2, -604129.56, -550949.06, 113712.57, -0.036273427, -0.37307906, -460759.22, 15176.015, 0.0, 9.999493, 10.00015 
2.7047628e+3, 2.6143062e+2, -648437.4, -622398.1, 87306.32, -0.008989728, -0.3898535, -547146.0, -169203.38, 0.0, 9.998949, 9.999249 
2.7046514e+3, 2.7142942e+2, -619551.4, -572835.2, 95561.875, -0.019836778, -0.350006, -497818.13, -217861.28, 0.0, 9.998538, 9.999115 
2.70454e+3, 2.8142846e+2, -540724.2, -392898.3, 117421.89, -0.025174847, -0.3196483, -328063.22, -146094.89, 0.0, 9.998013, 9.999932 
2.7044284e+3, 2.9142803e+2, -513297.13, -232336.97, 80828.17, -0.02293109, -0.34752837, -210743.47, -126771.54, 0.0, 9.997107, 10.0008 
2.7043167e+3, 3.014279e+2, -565107.44, -273756.06, 45601.17, -0.02762409, -0.3610656, -266785.53, -266785.53, 0.0, 9.9963665, 10.000202 
2.7042052e+3, 3.114281e+2, -483927.84, -178003.03, 26329.86, 0.086362444, -0.300953, -175753.45, -175753.45, 0.0, 9.9964485, 10.000486 
2.7040905e+3, 3.2142755e+2, -551410.75, -58772.484, 37662.992, -0.09808493, -0.34800616, -55909.723, -55909.723, 0.0, 9.995327, 10.001846 
2.7162185e+3, 1.3157342e+2, -1076370.9, -1662959.1, 7839.8247, -0.012240776, -0.27795672, -1076266.1, 574280.56, 0.015326977, 10.005579, 9.997665 
2.7161044e+3, 1.4156914e+2, -1050429.0, -1609100.9, 25287.865, -0.0020587835, -0.40561655, -1049286.8, 503300.84, 0.009042888, 10.005079, 9.997605 
2.715991e+3, 1.5156636e+2, -1004935.06, -1492738.0, 50674.78, -0.043067064, -0.39840427, -999726.44, 454888.1, 0.003930763, 10.004511, 9.998 
2.7158785e+3, 1.6156395e+2, -984701.94, -1431518.3, 38869.418, -0.053113833, -0.37563238, -981345.8, 375292.2, 0.0010733146, 10.003963, 9.998012 
2.7157658e+3, 1.7156202e+2, -935503.7, -1316379.9, 61356.37, -0.029712105, -0.32585335, -925863.6, 332794.0, 0.0001447889, 10.003456, 9.99837 
2.7156535e+3, 1.8155992e+2, -925031.5, -1284191.1, 74310.82, -0.019921793, -0.30047923, -910263.7, 250414.73, 0.0000045032148, 10.002956, 9.99816 
2.7155414e+3, 1.915569e+2, -882987.5, -1186412.4, 94533.164, -0.02714488, -0.36151275, -855945.44, 206761.81, 0.0, 10.0024605, 9.998396 
2.7154297e+3, 2.0155421e+2, -863573.56, -1137009.0, 102475.734, -0.034251556, -0.40229765, -829431.7, 135301.44, 0.0, 10.0019655, 9.998302 
2.7153182e+3, 2.1155247e+2, -811962.7, -1028063.25, 97282.92, -0.05087217, -0.35594296, -774620.94, 92129.86, 0.0, 10.001507, 9.998596 
2.7152064e+3, 2.2155078e+2, -771380.6, -942081.75, 82370.63, -0.061622985, -0.32495818, -738115.7, 30652.018, 0.0, 10.001043, 9.998738 
2.7150953e+3, 2.3154871e+2, -715913.0, -820242.6, 103461.25, -0.044311386, -0.36467293, -652209.8, 18577.795, 0.0, 10.00056, 9.999134 
2.7149835e+3, 2.4154685e+2, -704794.5, -783483.4, 125701.08, -0.031752013, -0.39182842, -612424.3, -39618.91, 0.0, 10.000046, 9.998962 
2.7148724e+3, 2.515456e+2, -668762.94, -685226.44, 91713.53, -0.041818216, -0.3607373, -584912.44, -110094.28, 0.0, 9.99949, 9.999231 
2.7147606e+3, 2.615445e+2, -632429.1, -591776.0, 68519.69, -0.04687413, -0.33747435, -540631.5, -163802.3, 0.0, 9.998956, 9.999459 
2.714649e+3, 2.715434e+2, -561686.5, -457354.16, 80539.836, -0.02380777, -0.35434544, -413562.13, -134722.55, 0.0, 9.998551, 9.999905 
2.7145377e+3, 2.8154254e+2, -550270.4, -419164.9, 91214.336, -0.0037127342, -0.36311868, -372391.25, -191542.92, 0.0, 9.9980345, 9.999744 
2.7144247e+3, 2.9154205e+2, -564886.8, -339705.13, 43874.867, -0.036883365, -0.3359944, -331458.47, -248604.17, 0.0, 9.997103, 10.000068 
2.7143118e+3, 3.0154175e+2, -559449.3, -260695.38, 34844.098, -0.08186314, -0.3159917, -256685.28, -256685.28, 0.0, 9.996355, 10.0003 
2.7142012e+3, 3.1154123e+2, -446753.0, -110579.83, 36328.68, 0.10584708, -0.37208754, -106698.766, -106698.766, 0.0, 9.996483, 10.000936 
2.7140856e+3, 3.2154158e+2, -558822.94, -65976.625, -94580.945, -0.06002015, -0.3564534, -48449.168, -48449.168, 0.0, 9.995294, 10.001812 
2.7262235e+3, 1.3168778e+2, -1093219.8, -1662033.5, 16895.08, -0.0041481503, -0.2987819, -1092718.4, 556707.5, 0.011673298, 10.005403, 9.997758 
2.726109e+3, 1.4168406e+2, -1078989.6, -1627396.1, 44187.418, 0.009390506, -0.37290666, -1075452.0, 476009.75, 0.0067436546, 10.004893, 9.997567 
2.725995e+3, 1.5168108e+2, -1038102.9, -1521701.5, 78947.516, -0.037102085, -0.37497333, -1025541.0, 427950.1, 0.0028332984, 10.004341, 9.997879 
2.7258816e+3, 1.6167845e+2, -1002186.2, -1435245.9, 73638.77, -0.0499341, -0.3660017, -990006.94, 365509.9, 0.00073641795, 10.003828, 9.998048 
2.7257687e+3, 1.716764e+2, -944665.06, -1308424.8, 88435.11, -0.024125995, -0.33453417, -924304.9, 333232.0, 0.00009205172, 10.003347, 9.998474 
2.725656e+3, 1.816743e+2, -929939.1, -1277342.6, 92542.02, -0.013493777, -0.31699175, -906825.44, 252731.6, 0.0000024128854, 10.00289, 9.998237 
2.7255434e+3, 1.9167155e+2, -880466.44, -1178915.8, 105884.06, -0.027722899, -0.35705054, -846717.25, 214866.13, 0.0, 10.002458, 9.9984455 
2.725431e+3, 2.0166898e+2, -860060.56, -1136396.6, 112108.516, -0.039404556, -0.38796023, -820299.6, 143308.56, 0.0, 10.002001, 9.998285 
2.725319e+3, 2.1166693e+2, -829270.2, -1044858.3, 130276.92, -0.055299714, -0.3651314, -767973.6, 97655.42, 0.0, 10.0014305, 9.998514 
2.725207e+3, 2.2166508e+2, -784884.75, -933746.7, 129970.89, -0.063187055, -0.3464114, -709541.2, 58106.316, 0.0, 10.000893, 9.998865 
2.7250952e+3, 2.3166345e+2, -707807.56, -789767.56, 116512.305, -0.041478824, -0.36253542, -625278.56, 44384.195, 0.0, 10.000507, 9.999366 
2.724983e+3, 2.4166185e+2, -707699.94, -796731.44, 115143.56, -0.023653785, -0.37555405, -628766.5, -57088.637, 0.0, 10.000084, 9.99885 
2.724871e+3, 2.516602e+2, -684624.0, -729323.56, 119989.96, -0.039744183, -0.35489002, -584920.06, -111224.71, 0.0, 9.999545, 9.9988985 
2.724759e+3, 2.6165882e+2, -622286.9, -577612.94, 124055.3, -0.051106535, -0.33850223, -473899.72, -98189.96, 0.0, 9.998994, 9.999534 
2.724647e+3, 2.7165797e+2, -554425.1, -420787.0, 100207.24, -0.033811938, -0.3546059, -367164.06, -89447.14, 0.0, 9.998467, 10.000193 
2.724535e+3, 2.816572e+2, -566936.0, -432619.84, 82716.87, -0.007899935, -0.36922923, -393230.8, -213506.98, 0.0, 9.997951, 9.999689 
2.7244216e+3, 2.9165643e+2, -516469.03, -345037.53, 65391.27, -0.009517387, -0.34763542, -322942.3, -241209.45, 0.0, 9.997568, 9.999803 
2.724308e+3, 3.01656e+2, -462096.94, -209305.19, 84745.65, -0.059275415, -0.32054552, -183524.39, -183524.39, 0.0, 9.997015, 10.00033 
2.7241957e+3, 3.1165588e+2, -520157.6, -121790.34, 66157.04, 0.009266092, -0.35537723, -111090.98, -111090.98, 0.0, 9.995886, 10.001142 
2.7240807e+3, 3.216562e+2, -473975.44, 4549.6567, -120214.37, -0.027248103, -0.36502343, 33052.043, 33052.043, 0.0, 9.995758, 10.0020685 
2.736228e+3, 1.3180193e+2, -1084379.8, -1630644.1, -2279.4495, -0.012650425, -0.37610343, -1084370.3, 563936.6, 0.008562015, 10.005334, 9.998006 
2.7361134e+3, 1.4180008e+2, -1076930.3, -1618971.1, 22911.54, 0.012261737, -0.28133217, -1075963.5, 474361.8, 0.0048220926, 10.004865, 9.997641 
2.7359986e+3, 1.5179676e+2, -1041047.3, -1527051.1, 58104.23, -0.028408054, -0.31784272, -1034197.2, 418160.97, 0.001946369, 10.004329, 9.997851 
2.735885e+3, 1.6179362e+2, -1004660.94, -1438408.9, 55298.406, -0.038751423, -0.3572456, -997722.0, 356666.75, 0.0004778617, 10.003814, 9.998035 
2.7357715e+3, 1.7179105e+2, -946786.0, -1313919.4, 71512.13, -0.016435008, -0.37629923, -933348.3, 323064.5, 0.00005428386, 10.003347, 9.998439 
2.7356583e+3, 1.8178871e+2, -932056.7, -1283171.6, 76339.01, -0.01144967, -0.37943769, -916177.3, 242257.56, 0.0000011019603, 10.002892, 9.998198 
2.735545e+3, 1.9178665e+2, -885410.25, -1187479.4, 90477.445, -0.035319082, -0.34496158, -860383.44, 200071.94, 0.0, 10.002446, 9.998393 
2.7354324e+3, 2.0178457e+2, -851598.4, -1115374.1, 92849.77, -0.050266586, -0.3312974, -822193.06, 140283.16, 0.0, 10.001983, 9.998441 
2.7353197e+3, 2.11782e+2, -811609.2, -1009298.56, 108742.6, -0.043506306, -0.38264692, -763500.7, 101000.164, 0.0, 10.001431, 9.99876 
2.7352074e+3, 2.2177987e+2, -792853.06, -950035.3, 113630.26, -0.04106418, -0.40620723, -733283.44, 33238.24, 0.0, 10.000887, 9.998758 
2.735095e+3, 2.3177883e+2, -728986.44, -834450.6, 102898.27, -0.048695393, -0.33504125, -666095.3, 2437.2354, 0.0, 10.000507, 9.999061 
2.7349824e+3, 2.4177761e+2, -699076.06, -782240.7, 96174.09, -0.048974242, -0.2925966, -635879.8, -65334.87, 0.0, 10.000093, 9.998946 
2.73487e+3, 2.5177538e+2, -664052.0, -689079.94, 98371.54, -0.028886884, -0.35621563, -577401.7, -104834.87, 0.0, 9.99955, 9.999175 
2.7347577e+3, 2.6177356e+2, -630438.5, -595780.9, 104370.836, -0.022539278, -0.39604306, -507310.1, -132725.78, 0.0, 9.998994, 9.999412 
2.7346444e+3, 2.7177307e+2, -578348.1, -468974.0, 79355.99, -0.052841507, -0.34917158, -427286.53, -150697.44, 0.0, 9.998458, 9.999868 
2.7345318e+3, 2.8177246e+2, -559426.4, -417255.53, 65189.16, -0.042748492, -0.32745093, -391890.1, -213295.3, 0.0, 9.997947, 9.999799 
2.7344194e+3, 2.917711e+2, -491542.88, -300816.78, 51530.414, 0.06963999, -0.39058965, -287784.75, -207176.45, 0.0, 9.997593, 10.000098 
2.7343056e+3, 3.017706e+2, -464612.06, -223360.38, 50402.824, 0.044341136, -0.38964707, -213253.52, -213253.52, 0.0, 9.997047, 10.000221 
2.7341884e+3, 3.1177232e+2, -549150.3, -163897.22, 16386.998, -0.2327284, -0.21421498, -163201.45, -163201.45, 0.0, 9.995804, 10.000894 
2.7340773e+3, 3.2177085e+2, -414402.53, 99258.77, -56494.746, 0.10426438, -0.40690842, 105398.92, 105398.92, 0.0, 9.995855, 10.0026865 
2.7462325e+3, 1.3191715e+2, -1164693.3, -1669298.9, 16271.055, -0.008165214, -0.38383204, -1164169.1, 483007.97, 0.005998057, 10.004762, 9.998017 
2.746117e+3, 1.4191528e+2, -1116971.9, -1624439.4, 27132.229, -0.0071016205, -0.29460898, -1115525.4, 433670.9, 0.003278627, 10.004527, 9.997765 
2.7460024e+3, 1.5191221e+2, -1072638.9, -1524157.5, 68497.516, -0.020365776, -0.3209459, -1062476.1, 388750.44, 0.0012639976, 10.004041, 9.998006 
2.7458882e+3, 1.6190925e+2, -1033371.0, -1444891.3, 75278.94, -0.0133724185, -0.35355783, -1020032.6, 333222.63, 0.00029029057, 10.003592, 9.9980955 
2.745774e+3, 1.7190662e+2, -967379.25, -1324913.3, 94104.945, -0.017263414, -0.3772685, -944123.0, 311156.66, 0.000029273891, 10.003216, 9.998424 
2.7456605e+3, 1.8190421e+2, -946910.2, -1290132.4, 96229.52, -0.029257748, -0.38677087, -921771.44, 235531.05, 0.00000039166414, 10.002793, 9.998194 
2.745547e+3, 1.9190212e+2, -925687.56, -1207572.6, 110271.53, -0.035428103, -0.35416713, -887675.94, 171647.83, 0.0, 10.00218, 9.998381 
2.7454334e+3, 2.0190006e+2, -892433.6, -1119925.8, 116807.586, -0.03713265, -0.33619094, -843139.25, 118204.93, 0.0, 10.001644, 9.99857 
2.7453205e+3, 2.1189775e+2, -808807.25, -987611.9, 128911.76, -0.038776, -0.3803857, -741330.56, 122035.59, 0.0, 10.0013685, 9.998937 
2.7452078e+3, 2.2189571e+2, -771367.7, -939476.8, 130099.06, -0.041168295, -0.40423518, -700532.2, 64853.586, 0.0, 10.00104, 9.998754 
2.7450946e+3, 2.3189452e+2, -743519.3, -854529.4, 131116.56, -0.050513234, -0.3382894, -656643.3, 10755.283, 0.0, 10.00047, 9.998938 
2.744982e+3, 2.4189323e+2, -718856.25, -783244.44, 132821.36, -0.050590806, -0.2968302, -614383.0, -44970.938, 0.0, 9.999928, 9.999016 
2.744869e+3, 2.518911e+2, -655783.25, -666935.3, 124834.46, -0.026427923, -0.36106455, -536400.3, -64968.18, 0.0, 9.999536, 9.999331 
2.744756e+3, 2.618893e+2, -619068.5, -596076.44, 125088.14, -0.016691048, -0.40542686, -481957.2, -108508.11, 0.0, 9.999104, 9.999354 
2.7446425e+3, 2.718887e+2, -568396.0, -484422.66, 109177.51, -0.056776002, -0.3548917, -409436.63, -133980.89, 0.0, 9.998622, 9.99968 
2.744529e+3, 2.8188804e+2, -528456.56, -400476.2, 102356.69, -0.049328864, -0.32805815, -343753.34, -166290.69, 0.0, 9.998162, 9.999805 
2.7444166e+3, 2.9188666e+2, -454851.94, -271000.7, 74925.414, 0.078600146, -0.39804116, -244333.98, -164858.39, 0.0, 9.997801, 10.000199 
2.744302e+3, 3.0188614e+2, -435868.2, -224226.3, 45447.16, 0.05511129, -0.40067813, -214879.89, -214879.89, 0.0, 9.9973135, 10.000084 
2.7441835e+3, 3.1188795e+2, -450742.16, -144493.3, 2258.572, -0.26623425, -0.19001731, -144476.64, -144476.64, 0.0, 9.996605, 10.000639 
2.7440733e+3, 3.218861e+2, -387994.88, 144349.5, 14237.363, 0.19031537, -0.4166457, 144730.02, 144730.02, 0.0, 9.995905, 10.002969 
2.7562365e+3, 1.3203311e+2, -1177792.5, -1689160.0, 10318.718, 0.0011239977, -0.3551333, -1177584.4, 468455.7, 0.0039705164, 10.004723, 9.997899 
2.7561206e+3, 1.4203013e+2, -1108237.6, -1604326.0, 13826.619, -0.04517267, -0.37560904, -1107852.5, 440217.88, 0.002097102, 10.004511, 9.997911 
2.7560058e+3, 1.520277e+2, -1054763.1, -1488437.6, 50901.938, -0.015459252, -0.361692, -1048868.8, 401225.4, 0.00076745555, 10.00404, 9.998255 
2.7558914e+3, 1.6202536e+2, -1027667.56, -1433704.0, 59800.785, 0.019569043, -0.35087985, -1019043.3, 333073.22, 0.00016264002, 10.003591, 9.998175 
2.7557766e+3, 1.72023e+2, -971756.6, -1329472.6, 80270.99, -0.024961459, -0.3482546, -954569.7, 299569.0, 0.000014106576, 10.003193, 9.998405 
2.7556622e+3, 1.820206e+2, -952214.06, -1293432.9, 75677.67, -0.062471326, -0.35412452, -936182.94, 219978.63, 0.00000009505926, 10.002757, 9.998191 
2.7555484e+3, 1.920179e+2, -926123.56, -1208674.5, 87334.54, -0.030210169, -0.38271603, -901308.44, 156880.17, 0.0, 10.002177, 9.998376 
2.7554348e+3, 2.020156e+2, -885555.06, -1108006.4, 103552.37, -0.008184137, -0.39358014, -844812.8, 115398.734, 0.0, 10.001651, 9.998651 
2.7553213e+3, 2.1201415e+2, -802395.56, -974809.94, 119826.484, -0.04180369, -0.3584281, -740988.2, 121237.01, 0.0, 10.001368, 9.999027 
2.755208e+3, 2.2201262e+2, -767524.2, -930339.6, 111993.13, -0.06581285, -0.34077322, -710477.3, 53762.625, 0.0, 10.001031, 9.998822 
2.7550945e+3, 2.3201051e+2, -739330.2, -847941.4, 108977.336, -0.04685611, -0.37200212, -671877.2, -5616.1924, 0.0, 10.000475, 9.998983 
2.7549812e+3, 2.4200867e+2, -717791.3, -781304.7, 115822.96, -0.03187489, -0.3890652, -629450.4, -61171.07, 0.0, 9.999925, 9.999034 
2.754868e+3, 2.520074e+2, -656164.75, -667805.3, 110256.98, -0.03473394, -0.36952755, -551574.56, -81283.01, 0.0, 9.999533, 9.999329 
2.7547544e+3, 2.6200616e+2, -617665.1, -596858.1, 107324.09, -0.039613795, -0.35905775, -499434.5, -127131.02, 0.0, 9.999116, 9.999345 
2.7546406e+3, 2.720048e+2, -570593.06, -491949.5, 90087.914, -0.042552315, -0.37410662, -432975.63, -158658.66, 0.0, 9.998629, 9.999628 
2.7545267e+3, 2.8200376e+2, -536058.7, -418973.4, 87872.81, -0.03121406, -0.37908334, -371927.84, -195599.92, 0.0, 9.998169, 9.999678 
2.754413e+3, 2.9200315e+2, -466666.22, -295870.47, 60609.64, -0.0042601856, -0.35899004, -276548.13, -198214.25, 0.0, 9.997799, 10.0000305 
2.754298e+3, 3.020027e+2, -450341.9, -253689.44, 20510.273, -0.034668352, -0.3381807, -251573.06, -251573.06, 0.0, 9.997307, 9.9998865 
2.7541822e+3, 3.1200224e+2, -460875.5, -180173.5, -24922.664, -0.025593016, -0.32980952, -177977.86, -177977.86, 0.0, 9.99666, 10.000372 
2.754067e+3, 3.2200226e+2, -414004.75, 103798.39, 19850.797, 0.04067321, -0.34027869, 104558.29, 104558.29, 0.0, 9.995864, 10.002702 
2.7662405e+3, 1.3214931e+2, -1226684.1, -1695250.5, 44032.99, -0.0033828635, -0.3461315, -1222582.1, 422319.06, 0.002447892, 10.004301, 9.998062 
2.7661246e+3, 1.4214605e+2, -1131189.8, -1601582.6, 41534.57, -0.029016912, -0.40751702, -1127550.5, 419383.03, 0.0012421447, 10.004293, 9.998034 
2.766009e+3, 1.5214396e+2, -1078801.6, -1490067.9, 65478.67, -0.019738607, -0.3696333, -1068628.3, 380326.0, 0.00042746603, 10.003835, 9.99834 
2.765894e+3, 1.6214186e+2, -1058108.8, -1440109.4, 66508.2, 0.0057569356, -0.3418878, -1046860.56, 304113.9, 0.00008183285, 10.003349, 9.998245 
2.7657792e+3, 1.721394e+2, -1027391.9, -1350316.3, 89880.48, -0.020375213, -0.35203403, -1004060.8, 248936.72, 0.000005757098, 10.002792, 9.998452 
2.7656642e+3, 1.8213698e+2, -1008015.4, -1309126.1, 92405.19, -0.047271285, -0.36661988, -981919.56, 173101.25, 0.00000000965895, 10.002335, 9.998283 
2.7655497e+3, 1.9213438e+2, -928315.75, -1200024.6, 110203.09, -0.027931208, -0.392229, -889238.3, 167808.25, 0.0, 10.002126, 9.998458 
2.7654362e+3, 2.0213215e+2, -855776.75, -1087250.4, 126829.484, -0.012230881, -0.40180597, -799814.0, 159254.73, 0.0, 10.00183, 9.998704 
2.765322e+3, 2.1213083e+2, -822190.4, -981835.94, 137017.83, -0.0395852, -0.3576624, -743439.6, 117641.87, 0.0, 10.001226, 9.999043 
2.7652082e+3, 2.2212937e+2, -811459.25, -945011.75, 126361.914, -0.060536243, -0.3328527, -735314.56, 27780.982, 0.0, 10.000709, 9.998875 
2.7650943e+3, 2.3212716e+2, -735187.94, -839409.3, 122659.62, -0.047093175, -0.37952825, -654028.56, 11088.894, 0.0, 10.000482, 9.999036 
2.7649808e+3, 2.4212523e+2, -674346.44, -753215.94, 130030.53, -0.03348106, -0.41028237, -577902.44, -10765.933, 0.0, 10.000198, 9.999092 
2.764867e+3, 2.5212413e+2, -624038.3, -647970.44, 126701.94, -0.03935562, -0.3762595, -508738.63, -39591.69, 0.0, 9.999742, 9.99936 
2.7647528e+3, 2.6212305e+2, -594615.5, -587464.5, 123996.76, -0.044071734, -0.35232496, -466991.72, -95834.06, 0.0, 9.9992895, 9.999322 
2.7646387e+3, 2.7212158e+2, -534976.1, -481120.8, 104064.88, -0.039622802, -0.37506232, -400556.16, -127383.24, 0.0, 9.998907, 9.999564 
2.7645245e+3, 2.821204e+2, -494784.22, -404788.8, 104287.21, -0.02967213, -0.38321844, -336205.66, -161020.55, 0.0, 9.998482, 9.999622 
2.7644098e+3, 2.9212e+2, -439579.84, -290945.06, 83044.42, -0.03454762, -0.3347713, -253819.88, -176630.95, 0.0, 9.998029, 9.999949 
2.7642944e+3, 3.0211937e+2, -423586.72, -254554.44, 41423.055, -0.059248097, -0.3159617, -244949.13, -244949.13, 0.0, 9.99756, 9.999755 
2.764179e+3, 3.1211767e+2, -423720.03, -183312.11, 1437.5758, 0.06142625, -0.41569903, -183303.52, -183303.52, 0.0, 9.997014, 10.000175 
2.7640614e+3, 3.2211885e+2, -327535.16, 120885.92, 42553.234, -0.07899671, -0.29117227, 124888.32, 124888.32, 0.0, 9.996572, 10.002474 
2.776244e+3, 1.3226585e+2, -1194790.4, -1642507.1, 50465.336, -0.017937645, -0.34566727, -1189172.6, 454586.56, 0.0013769695, 10.004359, 9.998394 
2.7761286e+3, 1.4226285e+2, -1133480.1, -1595427.9, 29323.455, 0.01836741, -0.40661922, -1131626.3, 414161.84, 0.0006651574, 10.004242, 9.998102 
2.776012e+3, 1.5226083e+2, -1089356.5, -1501418.4, 47968.176, -0.031933047, -0.3580444, -1083846.3, 363962.2, 0.00021170524, 10.003783, 9.99829 
2.7758962e+3, 1.622587e+2, -1059933.5, -1434605.1, 46921.49, -0.039747108, -0.33213517, -1054146.8, 295682.63, 0.000035174027, 10.003305, 9.998306 
2.7757812e+3, 1.7225596e+2, -1021357.0, -1338327.1, 70437.79, -0.007717622, -0.37953246, -1006409.1, 245445.98, 0.0000017161015, 10.002791, 9.998536 
2.775666e+3, 1.8225348e+2, -995675.1, -1288487.9, 82379.92, -0.0008074193, -0.40905964, -974089.56, 179789.14, 0.00000000000031198744, 10.002353, 9.998418 
2.7755514e+3, 1.9225155e+2, -919082.06, -1180922.5, 103803.78, -0.02971111, -0.3844335, -882923.44, 172974.6, 0.0, 10.002122, 9.998593 
2.7754366e+3, 2.0224965e+2, -858182.4, -1088386.4, 108124.46, -0.044399135, -0.36824936, -815362.3, 142554.4, 0.0, 10.001811, 9.998708 
2.7753228e+3, 2.1224774e+2, -826487.8, -992000.9, 113624.53, -0.03260297, -0.37744418, -768677.0, 91258.3, 0.0, 10.001229, 9.998974 
2.7752084e+3, 2.22246e+2, -810195.6, -943052.44, 113992.44, -0.031782318, -0.3781227, -744688.44, 17264.02, 0.0, 10.000708, 9.99889 
2.7750942e+3, 2.3224446e+2, -731733.8, -833982.2, 115126.11, -0.052840143, -0.36133438, -656890.94, 7077.261, 0.0, 10.000485, 9.999073 
2.77498e+3, 2.4224293e+2, -667899.94, -742632.5, 114815.14, -0.061371893, -0.35658655, -584523.7, -18540.254, 0.0, 10.000207, 9.999162 
2.774866e+3, 2.522413e+2, -619032.25, -639777.2, 108282.29, -0.039864723, -0.38059035, -520626.78, -52628.26, 0.0, 9.999746, 9.999417 
2.7747518e+3, 2.6223993e+2, -597932.9, -595772.4, 108512.234, -0.031703863, -0.38793162, -488335.03, -118322.984, 0.0, 9.999291, 9.999266 
2.774637e+3, 2.722389e+2, -541839.7, -496651.56, 89168.14, -0.051572494, -0.35486993, -427259.5, -155235.98, 0.0, 9.998909, 9.999458 
2.7745223e+3, 2.82238e+2, -492568.9, -402964.06, 86980.336, -0.046090093, -0.33115774, -349925.63, -175892.08, 0.0, 9.99849, 9.999632 
2.774408e+3, 2.9223713e+2, -438867.4, -291638.16, 64614.457, 0.002655968, -0.33104983, -267303.1, -191261.7, 0.0, 9.998033, 9.999947 
2.7742916e+3, 3.0223614e+2, -423304.22, -259160.72, 22517.982, -0.021035055, -0.34617513, -256127.64, -256127.64, 0.0, 9.997577, 9.999718 
2.7741742e+3, 3.1223458e+2, -427327.56, -195097.05, -17767.893, -0.06117171, -0.4269805, -193745.5, -193745.5, 0.0, 9.997028, 10.00009 
2.774058e+3, 3.222357e+2, -334643.22, 89543.586, 4641.1455, -0.0077069914, -0.28770545, 89594.36, 89594.36, 0.0, 9.996616, 10.00225 
2.7862474e+3, 1.323829e+2, -1168560.5, -1626668.0, 58069.59, -0.038481276, -0.3375549, -1161314.3, 481298.34, 0.0006866906, 10.004519, 9.998428 
2.786132e+3, 1.4238022e+2, -1209096.3, -1618676.4, 29151.846, 0.041663922, -0.37116647, -1207031.8, 337606.25, 0.00031106969, 10.003666, 9.9982195 
2.786015e+3, 1.5237786e+2, -1171192.4, -1526452.1, 59793.723, -0.019295638, -0.36760867, -1161398.5, 285262.6, 0.00008866365, 10.003166, 9.998412 
2.7858987e+3, 1.623756e+2, -1123044.4, -1449219.4, 70782.984, -0.0363806, -0.36734244, -1108346.1, 240336.78, 0.000011727656, 10.0028105, 9.998441 
2.785783e+3, 1.7237331e+2, -1030666.0, -1329167.8, 97114.23, -0.008549818, -0.38326904, -1001852.25, 248852.55, 0.00000025139548, 10.002671, 9.998655 
2.785668e+3, 1.8237111e+2, -976807.4, -1270788.8, 106137.57, -0.002705699, -0.3929834, -942493.2, 210232.66, 0.0, 10.002445, 9.998495 
2.7855527e+3, 1.9236909e+2, -942050.25, -1185475.4, 121764.914, -0.028501926, -0.37987542, -891598.25, 163147.45, 0.0, 10.001944, 9.998645 
2.7854377e+3, 2.0236716e+2, -899218.56, -1106113.8, 122717.19, -0.0439295, -0.3720525, -842164.06, 114600.73, 0.0, 10.001532, 9.998716 
2.7853233e+3, 2.1236517e+2, -812897.7, -990047.75, 128639.03, -0.038917758, -0.38723385, -745288.4, 113496.18, 0.0, 10.0013485, 9.998927 
2.7852088e+3, 2.2236335e+2, -755486.75, -911044.4, 129689.62, -0.037633814, -0.3906785, -682040.75, 78761.61, 0.0, 10.001063, 9.998937 
2.785094e+3, 2.3236205e+2, -729232.0, -824901.3, 131925.58, -0.055303976, -0.35732493, -636736.7, 26079.104, 0.0, 10.000473, 9.999139 
2.7849793e+3, 2.4236067e+2, -699209.2, -754235.1, 133209.2, -0.062786184, -0.34078813, -590701.4, -25871.88, 0.0, 9.999983, 9.999187 
2.784865e+3, 2.5235894e+2, -615391.25, -638632.75, 120882.88, -0.041561507, -0.3763376, -505571.8, -38725.74, 0.0, 9.99978, 9.999406 
2.7847502e+3, 2.6235744e+2, -568129.8, -577172.25, 117442.24, -0.032499276, -0.3929635, -455121.78, -86261.02, 0.0, 9.999482, 9.9993 
2.784635e+3, 2.7235654e+2, -529875.25, -486421.88, 106572.9, -0.05793075, -0.3520802, -399383.53, -128512.53, 0.0, 9.9989805, 9.999491 
2.78452e+3, 2.8235573e+2, -484103.06, -399541.13, 113107.71, -0.05094776, -0.32171127, -321070.13, -148189.9, 0.0, 9.998562, 9.999617 
2.7844054e+3, 2.9235467e+2, -386759.6, -271918.88, 87148.6, 0.00817961, -0.33142015, -224974.61, -150084.97, 0.0, 9.99842, 9.999892 
2.7842888e+3, 3.0235362e+2, -337966.78, -219117.0, 39055.676, -0.021162141, -0.35137913, -207431.67, -207431.67, 0.0, 9.998172, 9.999703 
2.7841705e+3, 3.1235224e+2, -327576.94, -145171.92, -2038.2814, -0.093540736, -0.41254038, -145149.16, -145149.16, 0.0, 9.997712, 10.000099 
2.784055e+3, 3.223528e+2, -269448.7, 40037.19, 25623.656, 0.05779228, -0.30446482, 42144.336, 42144.336, 0.0, 9.997422, 10.001517 
2.7962512e+3, 1.3250035e+2, -1190533.6, -1650944.5, 21104.357, -0.06464518, -0.32402092, -1189568.3, 451893.9, 0.0002920807, 10.004429, 9.998304 
2.7961352e+3, 1.4249809e+2, -1198039.5, -1594724.5, 7852.004, 0.04863417, -0.31383443, -1197884.1, 345599.8, 0.000120658704, 10.003659, 9.998388 
2.7960178e+3, 1.5249516e+2, -1149984.5, -1490138.9, 44060.016, 0.008081562, -0.39107978, -1144370.1, 301141.1, 0.000028714185, 10.003195, 9.99865 
2.795901e+3, 1.6249272e+2, -1109359.9, -1425636.3, 63729.477, -0.0061037694, -0.43028253, -1097001.4, 250532.84, 0.0000024460635, 10.002829, 9.998596 
2.795785e+3, 1.7249131e+2, -1025149.3, -1314400.4, 92114.07, -0.020930303, -0.36897212, -998306.0, 251241.88, 0.0000000042322403, 10.002653, 9.998768 
2.7956694e+3, 1.8248962e+2, -980287.0, -1270324.1, 89098.25, -0.03802463, -0.33580872, -955103.1, 196461.31, 0.0, 10.002409, 9.998518 
2.795554e+3, 1.9248705e+2, -944307.94, -1189598.8, 102164.65, -0.025363522, -0.379889, -907330.3, 146259.45, 0.0, 10.001939, 9.99862 
2.795439e+3, 2.0248474e+2, -899624.4, -1108052.4, 113087.195, -0.022383172, -0.40648746, -850055.2, 105557.266, 0.0, 10.001533, 9.998704 
2.7953237e+3, 2.1248305e+2, -814970.1, -995139.25, 122692.33, -0.05871092, -0.38683322, -752842.25, 104787.11, 0.0, 10.0013485, 9.998894 
2.7952087e+3, 2.2248146e+2, -752782.2, -904051.44, 111547.9, -0.07902329, -0.3706338, -693644.7, 66000.586, 0.0, 10.001055, 9.998991 
2.7950937e+3, 2.3247992e+2, -724058.2, -815101.94, 109563.055, -0.054105803, -0.36659572, -650936.5, 10723.713, 0.0, 10.000474, 9.999207 
2.794979e+3, 2.4247845e+2, -702937.3, -762196.3, 121916.53, -0.038886536, -0.36360723, -607101.5, -43426.68, 0.0, 9.99998, 9.999136 
2.794864e+3, 2.5247693e+2, -622590.4, -654548.4, 113189.86, -0.04619354, -0.36451665, -524257.22, -58567.125, 0.0, 9.999781, 9.999298 
2.794749e+3, 2.6247558e+2, -557611.5, -558818.44, 100199.13, -0.053770524, -0.365844, -458014.03, -90310.09, 0.0, 9.999494, 9.999421 
2.7946332e+3, 2.7247444e+2, -517995.28, -462330.84, 86004.22, -0.058097187, -0.3695395, -399767.47, -130051.86, 0.0, 9.998978, 9.99966 
2.794518e+3, 2.8247342e+2, -488609.38, -409650.94, 105012.055, -0.04856567, -0.36336976, -336942.2, -165216.34, 0.0, 9.998561, 9.999549 
2.7944025e+3, 2.9247263e+2, -394958.63, -292223.1, 81919.67, -0.028734181, -0.33497423, -246898.14, -173164.36, 0.0, 9.998431, 9.999748 
2.794286e+3, 3.0247185e+2, -336287.72, -219820.5, 23057.285, -0.058464494, -0.32048273, -215421.9, -215421.9, 0.0, 9.998186, 9.999693 
2.7941686e+3, 3.1247064e+2, -318169.38, -134208.47, -20829.97, -0.009049504, -0.3639972, -131879.38, -131879.38, 0.0, 9.997743, 10.000164 
2.7940512e+3, 3.224698e+2, -376625.1, -195402.36, 48274.05, 0.006924478, -0.34677693, -183345.31, -183345.31, 0.0, 9.997486, 9.999865 
2.8062546e+3, 1.3261797e+2, -1262553.9, -1667099.1, 25701.979, -0.05588366, -0.34155232, -1260927.5, 379381.44, 0.00009960969, 10.003853, 9.998471 
2.8061378e+3, 1.4261594e+2, -1241372.4, -1602569.1, 31902.512, 0.051551115, -0.319005, -1238576.3, 303752.16, 0.0000352416, 10.003306, 9.998505 
2.8060204e+3, 1.5261321e+2, -1160332.6, -1484803.6, 62893.582, 0.0021314584, -0.38742253, -1148568.3, 295785.97, 0.000006022763, 10.003083, 9.998738 
2.8059033e+3, 1.6261086e+2, -1108764.3, -1420262.1, 73000.23, -0.011869911, -0.4239659, -1092505.1, 253871.17, 0.00000016363987, 10.002812, 9.998641 
2.805787e+3, 1.7260939e+2, -1071650.5, -1335386.5, 96958.484, -0.013167685, -0.36914828, -1039841.56, 208549.16, 0.0, 10.002336, 9.998775 
2.805671e+3, 1.8260771e+2, -1040242.0, -1289737.8, 92703.91, -0.027871503, -0.3382803, -1009567.75, 140839.67, 0.0, 10.001967, 9.998591 
2.8055552e+3, 1.9260523e+2, -956579.9, -1188272.5, 109616.664, -0.036069844, -0.3790152, -912938.94, 139492.92, 0.0, 10.001827, 9.998681 
2.8054398e+3, 2.0260301e+2, -883442.56, -1092991.9, 125178.31, -0.039890587, -0.4020737, -824977.1, 129476.64, 0.0, 10.001611, 9.99877 
2.8053242e+3, 2.1260145e+2, -835606.1, -998344.2, 139520.25, -0.06067029, -0.37498796, -755461.0, 101008.36, 0.0, 10.001182, 9.99895 
2.805209e+3, 2.2259991e+2, -779932.25, -906902.1, 130348.82, -0.073502004, -0.35922202, -698430.44, 60054.164, 0.0, 10.000832, 9.999075 
2.8050938e+3, 2.325982e+2, -690859.5, -790881.94, 127093.805, -0.05381951, -0.37848923, -604291.25, 56209.348, 0.0, 10.000674, 9.999274 
2.8049785e+3, 2.4259666e+2, -645766.9, -734690.9, 140951.83, -0.03837691, -0.38622162, -542430.75, 20085.08, 0.0, 10.000379, 9.99913 
2.8048632e+3, 2.5259534e+2, -624999.6, -660139.56, 136036.06, -0.049002178, -0.3642323, -505403.6, -40873.535, 0.0, 9.999789, 9.999252 
2.8047475e+3, 2.625941e+2, -576152.9, -557262.7, 125906.23, -0.059468005, -0.35101143, -440447.78, -73904.85, 0.0, 9.999329, 9.999509 
2.804632e+3, 2.7259293e+2, -473163.63, -428546.75, 106575.89, -0.06551296, -0.36633483, -341969.53, -73415.555, 0.0, 9.999237, 9.999765 
2.804516e+3, 2.8259185e+2, -428260.66, -384033.28, 123517.77, -0.0547779, -0.37280226, -280665.25, -110100.73, 0.0, 9.99899, 9.999518 
2.8044003e+3, 2.9259095e+2, -405357.06, -306415.34, 103019.08, -0.028887607, -0.34843785, -241604.55, -169030.47, 0.0, 9.9984045, 9.999661 
2.8042835e+3, 3.0259016e+2, -361163.34, -238846.02, 49032.68, -0.055219352, -0.32334244, -221617.28, -221617.28, 0.0, 9.998054, 9.999622 
2.8041658e+3, 3.125892e+2, -237939.38, -104089.84, -452.80157, -0.009929216, -0.33613673, -104088.31, -104088.31, 0.0, 9.998333, 10.000084 
2.8040478e+3, 3.2258788e+2, -332910.63, -201733.78, 86844.85, -0.025375754, -0.3486379, -158492.66, -158492.66, 0.0, 9.997908, 9.999615 
2.816258e+3, 1.3273579e+2, -1243282.0, -1622263.1, 1800.462, -0.033852518, -0.38094273, -1243273.5, 395879.16, 0.000023983222, 10.003837, 9.998784 
2.8161407e+3, 1.4273393e+2, -1238004.1, -1596590.0, 20752.945, 0.047236755, -0.36425883, -1236807.0, 304363.94, 0.0000064487667, 10.003311, 9.998544 
2.8160223e+3, 1.5273182e+2, -1165036.6, -1493482.3, 56152.86, -0.026651911, -0.3635923, -1155701.8, 287489.5, 0.00000052844416, 10.003074, 9.998687 
2.815905e+3, 1.6272976e+2, -1111720.9, -1424830.4, 58160.887, -0.039695937, -0.3694642, -1101266.4, 243945.13, 0.0000000005064632, 10.002802, 9.998615 
2.815789e+3, 1.7272758e+2, -1073196.6, -1341973.8, 80984.18, 0.007485156, -0.3813028, -1050681.6, 196551.0, 0.0, 10.002347, 9.998725 
2.8156728e+3, 1.8272555e+2, -1032540.56, -1277014.5, 86828.63, 0.008132621, -0.38499257, -1004840.6, 144412.05, 0.0, 10.001979, 9.998675 
2.8155562e+3, 1.9272368e+2, -949140.06, -1172805.8, 106194.41, -0.060161646, -0.37581074, -906752.8, 144518.73, 0.0, 10.001823, 9.998791 
2.8154403e+3, 2.0272192e+2, -877171.94, -1076766.0, 111947.66, -0.089219406, -0.36567912, -826996.5, 126292.734, 0.0, 10.0015955, 9.998891 
2.815325e+3, 2.1272032e+2, -828603.8, -983095.7, 123440.625, -0.04580402, -0.35398594, -760232.0, 95072.99, 0.0, 10.001177, 9.999059 
2.8152096e+3, 2.2271869e+2, -775460.4, -895412.7, 122122.88, -0.02784782, -0.3572708, -699380.9, 57939.816, 0.0, 10.000819, 9.999161 
2.8150937e+3, 2.3271687e+2, -686213.1, -782651.44, 121453.28, -0.056949, -0.3941358, -603757.2, 55580.086, 0.0, 10.000677, 9.9993305 
2.8149778e+3, 2.427153e+2, -641705.06, -729318.0, 121799.36, -0.06954862, -0.40858355, -556073.94, 5278.5386, 0.0, 10.000388, 9.999165 
2.8148624e+3, 2.5271413e+2, -624525.0, -659475.25, 112552.24, -0.04979875, -0.37438747, -528099.4, -64733.516, 0.0, 9.999786, 9.999261 
2.8147462e+3, 2.6271307e+2, -575617.2, -555413.56, 118471.5, -0.049071316, -0.34692702, -446613.97, -81236.52, 0.0, 9.999322, 9.999526 
2.8146303e+3, 2.7271214e+2, -471742.8, -427711.72, 103950.51, -0.08284986, -0.3384728, -343471.03, -76085.195, 0.0, 9.999244, 9.999769 
2.814514e+3, 2.8271106e+2, -424813.0, -381258.97, 104390.42, -0.072061926, -0.3441079, -296398.28, -127002.39, 0.0, 9.999005, 9.999532 
2.8143984e+3, 2.9270956e+2, -410087.1, -313086.2, 78252.69, 0.018040901, -0.37765354, -269522.66, -198111.7, 0.0, 9.998385, 9.999627 
2.8142813e+3, 3.0270842e+2, -374130.75, -263661.44, 53529.418, -0.014392398, -0.3776268, -241978.83, -241978.83, 0.0, 9.998041, 9.99946 
2.814162e+3, 3.1270793e+2, -250291.95, -140747.11, 12520.4375, -0.13293408, -0.32352573, -139334.31, -139334.31, 0.0, 9.998378, 9.999812 
2.8140455e+3, 3.2270727e+2, -195779.36, 80863.09, 22127.078, 0.033892635, -0.32376987, 82621.734, 82621.734, 0.0, 9.997903, 10.001566 
2.826261e+3, 1.3285418e+2, -1302959.6, -1647332.8, 26413.248, -0.032567915, -0.4160249, -1300945.5, 337045.4, 0.0000033281458, 10.003407, 9.998821 
2.8261432e+3, 1.4285244e+2, -1225546.8, -1583561.6, 31345.252, 0.0377791, -0.38996598, -1222823.1, 317185.28, 0.00000050691085, 10.003367, 9.998605 
2.8260246e+3, 1.5285063e+2, -1189780.3, -1499026.8, 73932.15, -0.026191685, -0.3662128, -1173014.1, 269012.4, 0.0000000023756648, 10.002883, 9.998736 
2.8259072e+3, 1.6284871e+2, -1153822.5, -1438203.4, 80446.98, -0.035283864, -0.3596475, -1132642.8, 211402.83, 0.0, 10.002489, 9.998672 
2.8257906e+3, 1.728464e+2, -1088625.0, -1346563.0, 105298.83, 0.0034956625, -0.3884622, -1051098.3, 194969.81, 0.0, 10.00223, 9.99875 
2.8256738e+3, 1.8284433e+2, -1029715.7, -1269369.8, 116269.234, 0.003473739, -0.39941517, -982578.5, 165510.11, 0.0, 10.001968, 9.998734 
2.825557e+3, 1.9284268e+2, -968599.56, -1175277.1, 134396.53, -0.053014483, -0.37129402, -902405.7, 147699.69, 0.0, 10.001665, 9.998848 
2.825441e+3, 2.0284106e+2, -903812.06, -1078455.6, 133848.9, -0.08008627, -0.3524939, -831319.44, 120802.266, 0.0, 10.001374, 9.99898 
2.8253254e+3, 2.1283937e+2, -838260.56, -979965.44, 140522.88, -0.05001869, -0.3584981, -751738.44, 102399.86, 0.0, 10.001083, 9.999123 
2.8252098e+3, 2.2283772e+2, -773438.06, -883266.56, 142286.27, -0.034960832, -0.3693436, -675836.9, 80317.125, 0.0, 10.000788, 9.999258 
2.8250936e+3, 2.3283616e+2, -709274.56, -783840.25, 143779.22, -0.061816595, -0.39060754, -598023.0, 60145.29, 0.0, 10.000479, 9.999415 
2.8249776e+3, 2.428347e+2, -663599.94, -736976.9, 140305.7, -0.07406908, -0.3968782, -555265.2, 4917.11, 0.0, 10.000231, 9.999186 
2.8248617e+3, 2.5283343e+2, -577187.2, -636769.06, 127116.08, -0.05227852, -0.37228033, -476417.8, -14221.245, 0.0, 10.000115, 9.999256 
2.8247455e+3, 2.6283228e+2, -500120.56, -521814.1, 133567.45, -0.046523727, -0.35137188, -376960.2, -12751.317, 0.0, 9.999854, 9.9995 
2.824629e+3, 2.7283132e+2, -463371.78, -428574.0, 115140.15, -0.0781182, -0.34020808, -329525.6, -63308.3, 0.0, 9.999327, 9.999721 
2.8245124e+3, 2.8283024e+2, -438016.63, -391163.16, 109555.03, -0.06393344, -0.3437696, -302558.13, -134330.52, 0.0, 9.99894, 9.999491 
2.8243965e+3, 2.928286e+2, -334353.9, -284101.2, 80187.336, 0.021637205, -0.38573793, -225195.75, -154951.58, 0.0, 9.998942, 9.999557 
2.8242788e+3, 3.0282736e+2, -274926.16, -208049.03, 66595.99, -0.019551154, -0.3918163, -166968.05, -166968.05, 0.0, 9.998688, 9.999532 
2.8241596e+3, 3.1282708e+2, -317652.53, -165099.89, 50150.58, -0.15753202, -0.32231444, -150090.08, -150090.08, 0.0, 9.997886, 9.99988 
2.8240433e+3, 3.228264e+2, -135673.84, 164760.94, 27691.477, 0.06621905, -0.35061765, 167291.97, 167291.97, 0.0, 9.998089, 10.002048 
2.8362638e+3, 1.3297302e+2, -1311441.9, -1661448.3, 33096.156, -0.038699973, -0.44233772, -1308339.8, 328484.75, 0.00000016214108, 10.003395, 9.998729 
2.8361455e+3, 1.4297146e+2, -1223218.9, -1571749.9, 19835.877, 0.015324541, -0.39881682, -1222093.6, 316747.53, 0.0000000020979667, 10.003337, 9.998701 
2.8360268e+3, 1.5296963e+2, -1180974.4, -1482824.8, 58166.977, -0.014458005, -0.38767448, -1170153.4, 270706.06, 0.0, 10.002889, 9.998848 
2.835909e+3, 1.6296779e+2, -1147124.4, -1427597.1, 70708.766, -0.013648309, -0.38327092, -1130306.6, 212571.25, 0.0, 10.002501, 9.998741 
2.8357917e+3, 1.7296575e+2, -1084141.8, -1340148.4, 96483.664, -0.01816537, -0.39066392, -1051851.8, 193046.19, 0.0, 10.00224, 9.998791 
2.835675e+3, 1.8296385e+2, -1026574.25, -1263850.5, 105172.56, -0.028293975, -0.38803792, -986668.1, 160248.77, 0.0, 10.001971, 9.998772 
2.8355587e+3, 1.9296217e+2, -966401.3, -1172190.3, 123575.73, -0.020693317, -0.36656526, -908490.8, 140443.23, 0.0, 10.00167, 9.998868 
2.835442e+3, 2.0296046e+2, -902154.1, -1073567.0, 123311.984, -0.028261865, -0.36009356, -837689.2, 113262.11, 0.0, 10.001366, 9.999019 
2.8353253e+3, 2.1295859e+2, -836576.5, -977080.56, 130069.74, -0.074692726, -0.38558194, -758999.3, 93970.055, 0.0, 10.001082, 9.999144 
2.8352094e+3, 2.2295703e+2, -766861.0, -869349.2, 131197.22, -0.09679266, -0.39392373, -677255.25, 77729.08, 0.0, 10.000785, 9.999356 
2.835093e+3, 2.3295604e+2, -702594.1, -770441.44, 132181.06, -0.06709197, -0.36672702, -600052.94, 56940.61, 0.0, 10.000479, 9.99951 
2.8349772e+3, 2.4295487e+2, -665696.25, -740540.75, 134677.7, -0.050459776, -0.35027072, -563338.3, -4333.129, 0.0, 10.000225, 9.999165 
2.834861e+3, 2.5295323e+2, -579667.3, -644387.56, 122884.02, -0.058656022, -0.35854095, -484953.97, -23931.486, 0.0, 10.000124, 9.999201 
2.8347445e+3, 2.6295173e+2, -501399.9, -531092.3, 115179.664, -0.061587546, -0.3666349, -400113.6, -37075.89, 0.0, 9.999879, 9.999427 
2.8346276e+3, 2.7295047e+2, -471137.9, -444988.22, 92753.625, -0.047940712, -0.37658253, -364392.44, -99343.39, 0.0, 9.999324, 9.999613 
2.834511e+3, 2.8294924e+2, -445861.97, -407338.66, 105512.516, -0.03178238, -0.3780958, -319344.06, -152283.55, 0.0, 9.998938, 9.999383 
2.8343943e+3, 2.929481e+2, -339606.53, -301404.22, 81269.01, -0.03493783, -0.36271408, -237021.81, -167948.47, 0.0, 9.998969, 9.999426 
2.8342763e+3, 3.0294713e+2, -245045.98, -150776.73, 39043.05, -0.07802663, -0.34625754, -136706.52, -136706.52, 0.0, 9.998706, 9.999918 
2.8341576e+3, 3.1294662e+2, -294662.13, -99632.03, 16212.822, -0.03597272, -0.35199472, -98293.45, -98293.45, 0.0, 9.997805, 10.000371 
2.83404e+3, 3.229454e+2, -271519.5, -118687.74, 103274.05, 0.0024253933, -0.38941395, -66632.17, -66632.17, 0.0, 9.998096, 10.000096 
2.8462663e+3, 1.3309279e+2, -1341104.3, -1670765.0, 51226.62, -0.019000424, -0.41544104, -1333327.5, 302323.5, 0.00000000032983427, 10.003165, 9.998777 
2.8461477e+3, 1.4309093e+2, -1290255.9, -1591224.0, 35096.18, -0.0080745835, -0.4074415, -1286217.4, 251452.88, 0.0, 10.002821, 9.9988165 
2.8460288e+3, 1.5308918e+2, -1221412.8, -1492433.3, 72203.86, -0.024032906, -0.39682236, -1203376.8, 236310.77, 0.0, 10.00257, 9.998934 
2.8459108e+3, 1.6308741e+2, -1161223.8, -1429475.0, 87834.36, -0.012316513, -0.39015087, -1135022.9, 206682.22, 0.0, 10.002384, 9.998784 
2.845793e+3, 1.730855e+2, -1084630.5, -1336828.8, 114756.22, -0.02920102, -0.38868213, -1040230.44, 203493.64, 0.0, 10.002227, 9.998816 
2.845676e+3, 1.8308365e+2, -1019205.25, -1251470.3, 119569.17, -0.045043755, -0.3842169, -968653.75, 177088.72, 0.0, 10.001992, 9.998842 
2.8455597e+3, 1.9308192e+2, -976139.75, -1170921.3, 136850.16, -0.021807695, -0.37464076, -905563.5, 142196.69, 0.0, 10.00158, 9.998919 
2.845443e+3, 2.030802e+2, -916050.56, -1071721.0, 141941.34, -0.017507842, -0.37271002, -832004.1, 117773.11, 0.0, 10.001232, 9.999097 
2.845326e+3, 2.1307847e+2, -844371.75, -973085.7, 151957.95, -0.073781334, -0.3911371, -743704.4, 108089.484, 0.0, 10.0009985, 9.999211 
2.8452092e+3, 2.2307695e+2, -769395.8, -879061.9, 151230.22, -0.10404784, -0.3952216, -663364.8, 90443.78, 0.0, 10.000809, 9.999276 
2.8450933e+3, 2.3307583e+2, -680867.1, -774705.5, 134237.27, -0.0693216, -0.36900994, -585585.56, 70234.266, 0.0, 10.000696, 9.999373 
2.844977e+3, 2.4307461e+2, -622339.44, -710934.1, 129913.35, -0.045879982, -0.3512702, -529378.9, 28453.14, 0.0, 10.000488, 9.999239 
2.8448603e+3, 2.530731e+2, -571547.5, -628755.4, 129671.51, -0.06167118, -0.3567617, -467362.56, -7515.292, 0.0, 10.000133, 9.999302 
2.8447437e+3, 2.6307157e+2, -514778.6, -550622.9, 124922.77, -0.0644662, -0.36718556, -406498.9, -44636.57, 0.0, 9.99985, 9.999304 
2.8446266e+3, 2.7307e+2, -414156.97, -437890.63, 95139.0, -0.037432976, -0.38931078, -330147.56, -66270.54, 0.0, 9.9998045, 9.99943 
2.8445098e+3, 2.8306863e+2, -357673.34, -369184.34, 107813.67, -0.025439722, -0.3949009, -255461.66, -89571.21, 0.0, 9.999557, 9.999351 
2.844392e+3, 2.9306766e+2, -341564.34, -303423.7, 92658.07, -0.06986412, -0.36045757, -227893.83, -159992.45, 0.0, 9.998961, 9.999415 
2.844274e+3, 3.030668e+2, -250274.97, -149457.97, 39945.137, -0.099979945, -0.33581293, -135549.83, -135549.83, 0.0, 9.998664, 9.999943 
2.8441566e+3, 3.1306598e+2, -117379.164, -14960.216, -22005.139, 0.07816366, -0.3715393, -10432.481, -10432.481, 0.0, 9.999034, 10.000359 
2.844037e+3, 3.2306463e+2, -222274.08, -208284.69, 111775.016, -0.06798175, -0.37971798, -103285.73, -103285.73, 0.0, 9.998922, 9.999084 
2.8562692e+3, 1.3321312e+2, -1339877.1, -1656556.4, 35211.848, -0.0024423152, -0.36020583, -1336009.1, 298463.72, 0.0, 10.003119, 9.998894 
2.8561497e+3, 1.4321074e+2, -1283738.3, -1576563.5, 23178.215, -0.026100414, -0.41591537, -1281914.9, 254581.69, 0.0, 10.002816, 9.9989195 
2.8560305e+3, 1.532092e+2, -1216748.6, -1483887.8, 62469.09, -0.041464016, -0.39417985, -1202862.4, 235649.23, 0.0, 10.002572, 9.998994 
2.8559124e+3, 1.6320755e+2, -1160019.3, -1423930.3, 81066.15, -0.026060503, -0.38081264, -1137107.1, 203420.66, 0.0, 10.002369, 9.99883 
2.8557947e+3, 1.7320561e+2, -1083672.5, -1332742.6, 109210.33, -0.037715662, -0.38544956, -1042569.8, 199977.05, 0.0, 10.002216, 9.99885 
2.8556773e+3, 1.8320373e+2, -1016583.5, -1243626.4, 106207.69, -0.057611063, -0.39004666, -974646.94, 169918.63, 0.0, 10.00198, 9.998903 
2.8555602e+3, 1.932019e+2, -972711.1, -1163918.1, 121807.93, -0.05142546, -0.39321798, -913468.9, 133114.88, 0.0, 10.001576, 9.99897 
2.855443e+3, 2.0320028e+2, -909407.5, -1057125.1, 131987.16, -0.042063255, -0.38955387, -832019.06, 116580.74, 0.0, 10.001228, 9.9992 
2.8553265e+3, 2.1319896e+2, -836451.1, -958729.44, 143063.39, -0.048226055, -0.3770883, -742010.3, 108601.945, 0.0, 10.001006, 9.999307 
2.8552097e+3, 2.2319743e+2, -789630.06, -919778.94, 145888.81, -0.061735377, -0.37654847, -694960.25, 57667.008, 0.0, 10.000801, 9.999001 
2.8550932e+3, 2.3319548e+2, -706523.3, -829617.3, 129862.375, -0.07250092, -0.39750057, -624361.4, 30285.957, 0.0, 10.0007, 9.998996 
2.8549767e+3, 2.4319392e+2, -607134.9, -683797.56, 117437.14, -0.073482335, -0.3991091, -521931.7, 34731.344, 0.0, 10.0005045, 9.999419 
2.8548598e+3, 2.5319308e+2, -551921.7, -588202.06, 114745.234, -0.06121022, -0.36627886, -453891.6, 4779.3276, 0.0, 10.000131, 9.999583 
2.854743e+3, 2.631919e+2, -528021.1, -579245.06, 121126.54, -0.05345974, -0.3520898, -429828.34, -69145.88, 0.0, 9.999852, 9.999107 
2.854626e+3, 2.7319002e+2, -433092.56, -482175.56, 94126.44, -0.051466167, -0.37394324, -360360.88, -97659.74, 0.0, 9.999824, 9.999118 
2.8545082e+3, 2.8318837e+2, -349410.9, -359119.5, 85975.94, -0.052588154, -0.38868925, -268152.34, -103435.01, 0.0, 9.999584, 9.999408 
2.8543904e+3, 2.931872e+2, -336122.63, -287726.16, 67801.11, -0.07607892, -0.3876304, -239934.5, -173205.36, 0.0, 9.99894, 9.999535 
2.8542718e+3, 3.0318606e+2, -284934.22, -220352.84, 47269.754, -0.084657595, -0.37764055, -195397.4, -195397.4, 0.0, 9.998659, 9.999459 
2.854156e+3, 3.13185e+2, -151428.55, -108433.12, -7524.7095, 0.15953134, -0.37289238, -107154.25, -107154.25, 0.0, 9.999131, 9.999671 
2.854035e+3, 3.2318372e+2, -185829.1, -136796.84, 68190.75, -0.13097, -0.35338253, -88849.055, -88849.055, 0.0, 9.998938, 9.999569 
2.866271e+3, 1.33333e+2, -1387051.3, -1659130.8, 31207.201, 0.0013908121, -0.35709634, -1383517.6, 249781.33, 0.0, 10.002702, 9.999081 
2.8661516e+3, 1.4333096e+2, -1327380.9, -1585763.1, 23809.574, -0.025460264, -0.3913761, -1325205.1, 210113.64, 0.0, 10.002465, 9.999024 
2.866032e+3, 1.5332936e+2, -1259617.0, -1496118.5, 63646.31, -0.0448974, -0.38479078, -1243576.8, 193757.69, 0.0, 10.002245, 9.999064 
2.8659138e+3, 1.6332766e+2, -1199392.1, -1428700.0, 85232.06, -0.028596021, -0.38342613, -1171182.4, 168168.28, 0.0, 10.002041, 9.998953 
2.865796e+3, 1.7332579e+2, -1130896.4, -1342039.0, 116773.53, -0.028950192, -0.39386383, -1079046.8, 162322.23, 0.0, 10.001836, 9.998969 
2.8656784e+3, 1.8332401e+2, -1058155.9, -1252693.3, 113457.6, -0.04649578, -0.3990147, -1005979.56, 137406.98, 0.0, 10.001645, 9.999003 
2.8655607e+3, 1.9332233e+2, -985936.6, -1160902.5, 130539.97, -0.05944081, -0.39651695, -916276.5, 129126.766, 0.0, 10.001449, 9.999051 
2.8654435e+3, 2.0332077e+2, -901898.56, -1055284.8, 143726.2, -0.057727642, -0.38947183, -815683.56, 131735.08, 0.0, 10.001292, 9.999178 
2.865327e+3, 2.1331942e+2, -814360.44, -954720.7, 143022.63, -0.045039296, -0.37460878, -725227.3, 124204.53, 0.0, 10.00119, 9.999243 
2.8652102e+3, 2.2331786e+2, -755340.5, -899007.9, 147454.5, -0.043957192, -0.3744382, -663153.1, 88294.055, 0.0, 10.00102, 9.999037 
2.8650934e+3, 2.3331583e+2, -703912.5, -824834.94, 160078.05, -0.06729639, -0.40647605, -593258.2, 60209.316, 0.0, 10.000706, 9.999024 
2.8649762e+3, 2.433142e+2, -614412.1, -690966.4, 158391.16, -0.076848425, -0.41358835, -489738.7, 65744.95, 0.0, 10.000476, 9.999381 
2.8648594e+3, 2.5331333e+2, -514097.66, -577313.5, 126848.09, -0.05957049, -0.37608477, -414978.75, 42513.164, 0.0, 10.000426, 9.999514 
2.8647423e+3, 2.6331213e+2, -475276.13, -557787.9, 124266.25, -0.049895126, -0.3567342, -385596.3, -26092.678, 0.0, 10.000232, 9.999071 
2.864625e+3, 2.733103e+2, -434074.2, -488705.63, 116557.04, -0.062279988, -0.37195393, -341674.88, -80152.5, 0.0, 9.999846, 9.999061 
2.864507e+3, 2.8330866e+2, -362119.47, -361013.38, 110740.56, -0.0605816, -0.3848329, -250824.47, -87285.86, 0.0, 9.999489, 9.999436 
2.8643888e+3, 2.933073e+2, -275109.9, -253536.31, 87610.79, -0.057974327, -0.39878464, -176050.78, -110499.95, 0.0, 9.999345, 9.999573 
2.8642705e+3, 3.0330598e+2, -217183.8, -229544.22, 87774.89, -0.06949747, -0.39554778, -135371.81, -135371.81, 0.0, 9.999306, 9.999086 
2.8641537e+3, 3.1330463e+2, -139792.92, -161634.98, 54120.977, 0.10484614, -0.3706941, -95502.09, -95502.09, 0.0, 9.99947, 9.999142 
2.8640333e+3, 3.2330304e+2, -142325.94, -57028.22, 74653.92, -0.1146399, -0.37256536, -13699.562, -13699.562, 0.0, 9.998993, 10.000086 
2.876273e+3, 1.334527e+2, -1374961.8, -1621862.8, 20509.309, 0.0029934011, -0.37893125, -1373269.6, 258856.94, 0.0, 10.002654, 9.999356 
2.8761533e+3, 1.4345156e+2, -1325796.0, -1571952.0, 15845.625, -0.022354532, -0.34668022, -1324780.3, 209357.17, 0.0, 10.002419, 9.999141 
2.8760338e+3, 1.5344965e+2, -1254989.3, -1487035.1, 56218.813, -0.047641966, -0.3759829, -1242086.4, 194069.45, 0.0, 10.002245, 9.999128 
2.8759152e+3, 1.6344783e+2, -1187447.3, -1407334.9, 78241.664, -0.027241938, -0.39835513, -1162448.9, 175724.6, 0.0, 10.002054, 9.999094 
2.8757977e+3, 1.7344612e+2, -1120318.6, -1320466.1, 108984.836, -0.005147269, -0.40864864, -1072431.4, 167758.56, 0.0, 10.001835, 9.999119 
2.8756797e+3, 1.8344453e+2, -1050903.1, -1235218.6, 104879.75, -0.01583735, -0.4066254, -1003444.2, 138761.0, 0.0, 10.001635, 9.999129 
2.8755614e+3, 1.9344315e+2, -976101.7, -1143649.5, 122470.88, -0.052016616, -0.38785002, -911493.75, 132725.31, 0.0, 10.001461, 9.999165 
2.875444e+3, 2.0344162e+2, -912028.9, -1077692.5, 139053.02, -0.070620395, -0.37822375, -833006.3, 113228.06, 0.0, 10.001296, 9.999023 
2.8753272e+3, 2.1343987e+2, -828856.6, -986260.5, 139587.81, -0.06465316, -0.38277313, -747312.6, 100939.664, 0.0, 10.001193, 9.999027 
2.8752103e+3, 2.2343826e+2, -733413.6, -850887.75, 136932.47, -0.058630843, -0.38794726, -643152.25, 107115.77, 0.0, 10.001008, 9.999373 
2.8750935e+3, 2.3343688e+2, -674251.4, -763151.25, 148049.4, -0.052301023, -0.3967857, -564123.06, 88157.18, 0.0, 10.000706, 9.999449 
2.8749764e+3, 2.4343543e+2, -635229.1, -734937.0, 155335.05, -0.05243679, -0.3984056, -521943.88, 32350.23, 0.0, 10.000478, 9.99908 
2.8748593e+3, 2.5343385e+2, -546188.2, -647345.75, 124405.01, -0.059968203, -0.38678962, -462473.16, -6162.658, 0.0, 10.000438, 9.999028 
2.8747416e+3, 2.6343232e+2, -460917.6, -533947.4, 110201.0, -0.06831956, -0.37957197, -381339.44, -23013.396, 0.0, 10.000256, 9.999225 
2.8746238e+3, 2.7343082e+2, -417954.13, -453609.13, 99939.42, -0.07139233, -0.38473606, -334264.6, -73924.02, 0.0, 9.999838, 9.999306 
2.8745058e+3, 2.834294e+2, -362408.7, -363117.66, 103049.26, -0.050814547, -0.38764116, -259713.31, -97359.36, 0.0, 9.999491, 9.999422 
2.874388e+3, 2.9342815e+2, -276461.4, -263375.9, 86932.6, -0.012041743, -0.38909617, -182740.19, -118374.734, 0.0, 9.999371, 9.999495 
2.8742692e+3, 3.0342677e+2, -226371.34, -256652.94, 89493.766, -0.06271875, -0.37659466, -150746.63, -150746.63, 0.0, 9.999342, 9.998883 
2.8741503e+3, 3.1342518e+2, -163609.1, -207433.72, 64797.89, -0.13010785, -0.35111687, -117118.805, -117118.805, 0.0, 9.999462, 9.998828 
2.8740332e+3, 3.234231e+2, -118612.05, 6930.37, 21797.723, 0.052763153, -0.4076077, 10607.377, 10607.377, 0.0, 9.998924, 10.000562 
2.8862748e+3, 1.3357261e+2, -1442412.6, -1621414.0, 19435.813, -0.0011880022, -0.3961004, -1440326.6, 190624.95, 0.0, 10.002043, 9.999658 
2.8861547e+3, 1.4357173e+2, -1395404.5, -1585226.0, 26212.404, -0.018469555, -0.35980633, -1391851.4, 141107.81, 0.0, 10.001854, 9.999322 
2.886035e+3, 1.5357012e+2, -1287842.5, -1488410.6, 71141.15, -0.041990235, -0.37596774, -1265171.4, 169804.03, 0.0, 10.001959, 9.999255 
2.8859165e+3, 1.6356847e+2, -1203390.5, -1411926.1, 84505.18, -0.024553848, -0.3887803, -1173446.1, 163545.72, 0.0, 10.001931, 9.999121 
2.8857985e+3, 1.735668e+2, -1148935.1, -1333580.3, 104876.86, -0.011890845, -0.39366856, -1101534.4, 137473.66, 0.0, 10.001636, 9.999124 
2.8856805e+3, 1.8356524e+2, -1070376.9, -1234847.5, 101836.03, -0.022999115, -0.39247385, -1021718.3, 119304.81, 0.0, 10.00146, 9.999213 
2.8855625e+3, 1.9356386e+2, -964434.44, -1126858.9, 117293.14, -0.045099355, -0.38299748, -902982.4, 140054.23, 0.0, 10.001495, 9.999262 
2.8854448e+3, 2.035624e+2, -889864.4, -1059567.1, 134983.98, -0.057020575, -0.37634236, -815277.9, 129773.28, 0.0, 10.001415, 9.999091 
2.8853276e+3, 2.1356073e+2, -836648.7, -983238.75, 152599.52, -0.06632834, -0.3774994, -740654.7, 106413.586, 0.0, 10.001111, 9.999087 
2.8852105e+3, 2.2355922e+2, -745541.0, -853506.9, 153639.66, -0.066061474, -0.37735757, -636676.5, 112406.664, 0.0, 10.000913, 9.999401 
2.8850934e+3, 2.3355794e+2, -644949.3, -745720.75, 133992.19, -0.044479437, -0.37835735, -552182.56, 98911.87, 0.0, 10.000895, 9.999476 
2.8849766e+3, 2.4355648e+2, -595219.44, -710770.56, 134588.06, -0.03619315, -0.3827758, -506530.1, 46577.88, 0.0, 10.000732, 9.999122 
2.8848588e+3, 2.5355473e+2, -558929.56, -651587.4, 139160.39, -0.061077144, -0.39337218, -458588.84, -3462.9119, 0.0, 10.000347, 9.999041 
2.8847408e+3, 2.6355317e+2, -476461.72, -526511.9, 145920.28, -0.077373736, -0.39494282, -353436.2, 3705.3628, 0.0, 10.000095, 9.999347 
2.884623e+3, 2.7355185e+2, -378882.06, -424275.6, 119882.42, -0.07739248, -0.38884327, -279566.78, -20413.139, 0.0, 10.000069, 9.99939 
2.8845048e+3, 2.835505e+2, -326604.2, -349873.4, 110935.5, -0.047598623, -0.3876057, -226694.86, -65528.477, 0.0, 9.999758, 9.999381 
2.884387e+3, 2.935491e+2, -285749.6, -293420.3, 102600.82, 0.009919959, -0.39013907, -186912.47, -123732.76, 0.0, 9.999426, 9.999256 
2.8842682e+3, 3.035476e+2, -212363.39, -254004.52, 112379.26, -0.056795012, -0.3769735, -118892.25, -118892.25, 0.0, 9.999465, 9.998839 
2.884148e+3, 3.1354573e+2, -129886.68, -215800.88, 100959.99, -0.21559829, -0.35950512, -63124.902, -63124.902, 0.0, 9.999811, 9.99861 
2.8840327e+3, 3.2354352e+2, 42365.39, 68012.21, -12026.52, 0.124121964, -0.40180954, 72769.38, 72769.38, 0.0, 10.0000925, 10.000437 
2.8962758e+3, 1.336926e+2, -1422280.3, -1576480.6, 6800.862, -0.014247863, -0.41614115, -1421980.9, 207794.03, 0.0, 10.002036, 9.999965 
2.896156e+3, 1.4369176e+2, -1377756.8, -1554927.6, 28029.135, -0.01568132, -0.40704957, -1373428.1, 158353.9, 0.0, 10.001883, 9.999516 
2.8960365e+3, 1.5369077e+2, -1279198.3, -1467873.3, 73809.375, -0.028788766, -0.37651092, -1253755.3, 180037.69, 0.0, 10.0019455, 9.999404 
2.895918e+3, 1.6368948e+2, -1211979.8, -1422956.6, 74673.73, -0.02026808, -0.35831466, -1188224.3, 147582.13, 0.0, 10.001901, 9.999061 
2.895799e+3, 1.7368774e+2, -1152943.0, -1346175.5, 93698.98, -0.045706503, -0.36054304, -1114970.3, 122853.76, 0.0, 10.001653, 9.99903 
2.895681e+3, 1.8368608e+2, -1064251.6, -1227716.5, 102295.7, -0.064629346, -0.36709547, -1015046.7, 124793.87, 0.0, 10.001483, 9.999251 
2.8955635e+3, 1.9368452e+2, -960356.1, -1117847.6, 119588.83, -0.0383262, -0.38162786, -895915.3, 145940.0, 0.0, 10.00149, 9.999328 
2.895446e+3, 2.0368314e+2, -874968.25, -1023169.7, 125477.44, -0.025486313, -0.38152483, -803344.94, 140523.66, 0.0, 10.001391, 9.999353 
2.895328e+3, 2.13682e+2, -814263.25, -938524.3, 140784.44, -0.052368086, -0.36072454, -722509.25, 123370.8, 0.0, 10.001119, 9.999392 
2.8952107e+3, 2.2368065e+2, -765858.7, -896399.06, 151123.06, -0.06718475, -0.3484002, -666513.0, 81380.375, 0.0, 10.000915, 9.999106 
2.895094e+3, 2.3367898e+2, -671040.4, -800346.6, 133520.22, -0.04782878, -0.35046342, -587343.6, 62566.367, 0.0, 10.000895, 9.999102 
2.8949764e+3, 2.4367741e+2, -566038.3, -650981.8, 120614.39, -0.041770786, -0.36399552, -480636.38, 71288.6, 0.0, 10.000735, 9.999532 
2.8948584e+3, 2.5367594e+2, -522520.97, -574484.94, 124139.516, -0.062339228, -0.3964322, -421673.63, 32264.45, 0.0, 10.00034, 9.999574 
2.8947404e+3, 2.636746e+2, -472210.72, -520050.8, 145661.58, -0.077552296, -0.40665948, -348518.22, 7432.08, 0.0, 10.000104, 9.999387 
2.8946224e+3, 2.7367344e+2, -385946.16, -442818.84, 115535.16, -0.08171162, -0.38262677, -295399.3, -37437.85, 0.0, 10.000081, 9.999257 
2.8945038e+3, 2.8367195e+2, -328944.5, -362121.97, 88175.266, -0.057988375, -0.3821722, -255811.1, -95835.29, 0.0, 9.999784, 9.999286 
2.8943855e+3, 2.9367006e+2, -319743.6, -355186.34, 100248.61, -0.0023080865, -0.40823355, -235662.08, -173667.28, 0.0, 9.999398, 9.998838 
2.8942665e+3, 3.036682e+2, -200732.95, -219890.92, 122339.31, -0.05471091, -0.41879594, -87598.19, -87598.19, 0.0, 9.999428, 9.999088 
2.8941485e+3, 3.1366587e+2, -139337.89, -226001.08, 113258.836, -0.093887694, -0.4635166, -61404.527, -61404.527, 0.0, 9.999778, 9.998555 
2.8940308e+3, 3.236638e+2, -26696.654, -87943.78, 21024.29, 0.006056328, -0.40898022, -20174.242, -20174.242, 0.0, 10.000151, 9.999339 
2.9062772e+3, 1.3381335e+2, -1458682.3, -1604979.0, 20409.455, -0.007916919, -0.39078316, -1455888.4, 172703.83, 0.0, 10.001826, 9.999874 
2.9061568e+3, 1.438121e+2, -1382732.6, -1553977.3, 22375.078, -0.046090692, -0.41498604, -1379857.4, 150746.13, 0.0, 10.001831, 9.999548 
2.9060376e+3, 1.5381132e+2, -1338591.8, -1491669.1, 59335.94, -0.030774945, -0.367996, -1318285.6, 114326.58, 0.0, 10.001516, 9.999447 
2.905919e+3, 1.638102e+2, -1273531.1, -1437743.5, 67818.45, -0.011812203, -0.34368923, -1249144.3, 85479.9, 0.0, 10.001413, 9.999193 
2.9058e+3, 1.7380852e+2, -1140559.6, -1322671.8, 100960.984, -0.05582226, -0.35529798, -1095658.6, 140982.33, 0.0, 10.001662, 9.9991865 
2.9056817e+3, 1.8380693e+2, -1036745.94, -1209501.8, 110661.15, -0.080971636, -0.36498803, -982742.1, 155914.6, 0.0, 10.001649, 9.999298 
2.905564e+3, 1.9380546e+2, -998548.06, -1133101.5, 124057.695, -0.044609778, -0.37284, -924699.06, 115971.81, 0.0, 10.001212, 9.999357 
2.9054466e+3, 2.0380412e+2, -922107.3, -1038539.75, 130886.82, -0.023452519, -0.37168837, -837073.8, 105609.77, 0.0, 10.001034, 9.99942 
2.905329e+3, 2.1380298e+2, -786842.0, -914763.75, 131319.19, -0.043026775, -0.35827038, -704735.3, 139959.16, 0.0, 10.00126, 9.999487 
2.9052112e+3, 2.238017e+2, -717372.56, -866083.44, 137382.16, -0.056420065, -0.35005727, -635514.75, 111192.48, 0.0, 10.001216, 9.99917 
2.9050937e+3, 2.338001e+2, -690153.44, -800352.0, 150387.45, -0.054176647, -0.35273525, -585089.3, 63634.11, 0.0, 10.000723, 9.999185 
2.9049763e+3, 2.4379864e+2, -609683.25, -658978.25, 148207.94, -0.049557243, -0.3624278, -484087.28, 66650.016, 0.0, 10.000382, 9.999646 
2.9048583e+3, 2.5379738e+2, -511617.88, -548401.1, 121611.07, -0.049379177, -0.38824967, -407015.6, 45732.684, 0.0, 10.000328, 9.999759 
2.90474e+3, 2.637962e+2, -454799.72, -483196.63, 137838.42, -0.058846965, -0.40077013, -330430.4, 24327.932, 0.0, 10.000103, 9.999639 
2.9046217e+3, 2.737952e+2, -417506.3, -418909.2, 132744.23, -0.08107157, -0.3918873, -285461.66, -28694.166, 0.0, 9.9997, 9.999601 
2.904503e+3, 2.83794e+2, -355193.47, -342188.56, 136977.66, -0.053522512, -0.396662, -211559.13, -52779.79, 0.0, 9.999481, 9.999559 
2.9043838e+3, 2.9379252e+2, -406647.0, -329366.06, 162516.63, -0.0056530866, -0.41484734, -200959.4, -140164.97, 0.0, 9.998519, 9.999436 
2.9162782e+3, 1.3393456e+2, -1492223.6, -1655824.0, 24085.563, 0.0051897205, -0.33400986, -1488751.5, 138654.08, 0.0, 10.001751, 9.999558 
2.9161572e+3, 1.4393272e+2, -1390369.4, -1564170.5, 14393.791, -0.1001132, -0.39800856, -1389185.4, 140238.48, 0.0, 10.001808, 9.999489 
2.916038e+3, 1.5393184e+2, -1336434.1, -1495069.3, 47723.816, -0.04563378, -0.35686278, -1323183.6, 108249.19, 0.0, 10.001548, 9.999409 
2.9159197e+3, 1.639307e+2, -1249828.1, -1395471.5, 76517.26, -0.0043857717, -0.34214094, -1217019.0, 116425.16, 0.0, 10.001442, 9.999471 
2.915801e+3, 1.7392921e+2, -1120411.1, -1275647.5, 110982.48, -0.047670066, -0.36895457, -1062597.8, 172860.39, 0.0, 10.001637, 9.999522 
2.9156825e+3, 1.8392783e+2, -1040378.3, -1208030.3, 96847.54, -0.07953356, -0.37696815, -996117.44, 141353.97, 0.0, 10.001609, 9.999328 
2.9155642e+3, 1.9392662e+2, -996457.7, -1132654.4, 107017.766, -0.064238414, -0.358421, -937708.94, 101774.875, 0.0, 10.001227, 9.999353 
2.9154465e+3, 2.039253e+2, -926786.75, -1052806.4, 136919.03, -0.048120715, -0.3530747, -839074.75, 102422.13, 0.0, 10.001052, 9.999314 
2.9153293e+3, 2.1392375e+2, -794529.25, -929185.7, 140457.55, -0.039653484, -0.36808932, -706096.75, 137414.67, 0.0, 10.001251, 9.9993925 
2.915212e+3, 2.239224e+2, -692081.4, -807482.6, 121941.91, -0.043826874, -0.37893978, -614877.6, 130646.48, 0.0, 10.001189, 9.999586 
2.915094e+3, 2.3392126e+2, -653603.06, -724150.44, 131290.14, -0.06281035, -0.3850467, -552930.7, 94604.016, 0.0, 10.000721, 9.999711 
2.914976e+3, 2.4392013e+2, -624000.3, -690732.06, 143775.6, -0.060495194, -0.3810063, -509769.75, 39775.64, 0.0, 10.000391, 9.999423 
2.9148582e+3, 2.5391904e+2, -526269.4, -577903.25, 118950.02, -0.025511859, -0.36558497, -430366.84, 21189.588, 0.0, 10.000324, 9.999556 
2.9147398e+3, 2.6391804e+2, -418559.22, -414663.5, 121199.625, -0.030558618, -0.37440258, -295396.1, 58169.723, 0.0, 10.000126, 10.000101 
2.9146206e+3, 2.7391714e+2, -359769.3, -301531.4, 115765.1, -0.07938395, -0.42019993, -211279.2, 44293.39, 0.0, 9.999703, 10.000411 
2.9145017e+3, 2.8391653e+2, -316416.4, -256929.64, 137461.7, -0.052655064, -0.4347496, -146030.25, 11547.377, 0.0, 9.99947, 10.00015 
2.9143816e+3, 2.939166e+2, -294477.2, -99578.445, 84794.4, 0.005765763, -0.40350887, -67851.7, -8274.264, 0.0, 9.998539, 10.001008 
2.9262793e+3, 1.340549e+2, -1585402.3, -1688418.5, 20265.021, 0.013918986, -0.32864365, -1581559.1, 44667.805, 0.0, 10.001058, 9.999668 
2.9261583e+3, 1.440535e+2, -1433578.9, -1571149.5, 14246.272, -0.09794874, -0.35983917, -1432119.1, 96121.91, 0.0, 10.001449, 9.999616 
2.9260388e+3, 1.5405239e+2, -1319566.0, -1473563.4, 51932.656, -0.070095085, -0.35487467, -1303689.5, 126562.32, 0.0, 10.001605, 9.99953 
2.9259202e+3, 1.6405123e+2, -1230060.5, -1370907.9, 80506.11, -0.03084146, -0.35452554, -1193522.9, 138740.08, 0.0, 10.00151, 9.999609 
2.925802e+3, 1.7405005e+2, -1187565.6, -1290977.4, 102148.375, -0.047800448, -0.36552882, -1124782.3, 109491.58, 0.0, 10.001099, 9.999679 
2.925683e+3, 1.8404888e+2, -1126470.5, -1248056.8, 87938.78, -0.068037264, -0.36429226, -1080357.0, 55928.37, 0.0, 10.001005, 9.999347 
2.925565e+3, 1.9404766e+2, -969171.94, -1117032.1, 99938.06, -0.06034314, -0.34640053, -918790.9, 119507.375, 0.0, 10.001401, 9.999379 
2.925447e+3, 2.0404634e+2, -866072.25, -1008102.25, 131939.08, -0.048924398, -0.34794477, -787250.5, 153060.69, 0.0, 10.0014, 9.999455 
2.9253295e+3, 2.140448e+2, -849667.75, -939100.06, 150597.92, -0.04634639, -0.3786955, -737287.56, 105037.39, 0.0, 10.000798, 9.999544 
2.9252118e+3, 2.2404355e+2, -781419.9, -840652.3, 135598.33, -0.04726248, -0.3913425, -672241.2, 72095.17, 0.0, 10.000529, 9.999678 
2.925094e+3, 2.3404266e+2, -642642.5, -703462.5, 115436.875, -0.051870033, -0.38271025, -553677.25, 92667.555, 0.0, 10.000726, 9.999852 
2.9249758e+3, 2.4404167e+2, -576989.6, -659265.25, 120513.82, -0.049326412, -0.37858516, -490785.75, 57568.656, 0.0, 10.0006695, 9.999509 
2.9248577e+3, 2.540405e+2, -524728.9, -560030.8, 121765.04, -0.034315772, -0.3819944, -419342.13, 31023.832, 0.0, 10.000254, 9.999717 
2.924739e+3, 2.6403967e+2, -446093.0, -407747.38, 127736.766, -0.034587104, -0.38785845, -297752.56, 54620.99, 0.0, 9.999839, 10.000293 
2.9246196e+3, 2.7403933e+2, -365107.72, -265049.3, 88158.164, -0.05303271, -0.4051574, -213713.9, 40661.766, 0.0, 9.999488, 10.00077 
2.9245004e+3, 2.8403914e+2, -326951.5, -224587.36, 97631.3, -0.022481916, -0.41785613, -165535.7, -9158.748, 0.0, 9.999212, 10.000514 
2.92438e+3, 2.940393e+2, -98158.97, 28518.418, -39688.996, -0.013899842, -0.4160771, 39926.004, 98301.766, 0.0, 9.999709, 10.001349 
2.9362795e+3, 1.3417472e+2, -1552236.4, -1630097.3, 39650.953, 0.020437915, -0.3541309, -1535599.0, 89454.336, 0.0, 10.001108, 10.000041 
2.9361594e+3, 1.4417438e+2, -1424522.1, -1539434.9, 23746.314, -0.06284198, -0.31047755, -1419808.4, 107247.96, 0.0, 10.001395, 9.999858 
2.9360393e+3, 1.5417294e+2, -1312776.5, -1445568.4, 55879.977, -0.10330161, -0.3613634, -1292391.1, 136678.75, 0.0, 10.001544, 9.999753 
2.9359204e+3, 1.6417176e+2, -1235205.8, -1371349.0, 66282.1, -0.081703715, -0.37692523, -1208266.5, 122814.664, 0.0, 10.001465, 9.999628 
2.935802e+3, 1.7417096e+2, -1183146.0, -1287519.1, 85532.734, -0.05504666, -0.35091743, -1135136.3, 97952.5, 0.0, 10.001122, 9.999691 
2.9356837e+3, 1.8416993e+2, -1120420.3, -1242508.8, 99559.86, -0.049607743, -0.3342157, -1064680.3, 70418.91, 0.0, 10.001034, 9.999372 
2.935566e+3, 1.9416858e+2, -968664.25, -1110571.0, 115256.45, -0.039200816, -0.3363275, -904272.06, 132841.94, 0.0, 10.001375, 9.999436 
2.935448e+3, 2.0416729e+2, -847604.8, -959510.44, 112952.66, -0.037444506, -0.3542668, -777506.0, 161620.19, 0.0, 10.001355, 9.99981 
2.9353297e+3, 2.1416606e+2, -822620.56, -884034.06, 127054.945, -0.06245917, -0.39127693, -722614.4, 118521.12, 0.0, 10.000801, 9.999921 
2.9352117e+3, 2.2416504e+2, -795661.0, -872622.0, 140515.42, -0.06423578, -0.39112604, -688452.3, 54692.39, 0.0, 10.00054, 9.999454 
2.9350942e+3, 2.341643e+2, -660580.4, -738666.25, 122120.2, -0.02470785, -0.34394136, -571413.75, 73740.055, 0.0, 10.000717, 9.999614 
2.9349762e+3, 2.4416323e+2, -547214.8, -598621.5, 106658.88, -0.023803033, -0.35392314, -463205.9, 83958.43, 0.0, 10.000671, 9.999927 
2.9348567e+3, 2.5416172e+2, -484481.1, -480497.22, 105810.26, -0.079269566, -0.44091153, -376660.13, 72516.75, 0.0, 10.000267, 10.00026 
2.9347375e+3, 2.6416123e+2, -448352.25, -417885.25, 114677.17, -0.08216173, -0.4414364, -317434.2, 33747.066, 0.0, 9.999863, 10.000212 
2.934619e+3, 2.7416196e+2, -374380.97, -285974.75, 74117.734, -0.00086729176, -0.3353057, -243879.8, 9295.728, 0.0, 9.999497, 10.000619 
2.9344994e+3, 2.8416184e+2, -306999.25, -209413.52, 90806.414, 0.024242185, -0.3363252, -155121.23, 56.557426, 0.0, 9.999311, 10.000577 
2.9343778e+3, 2.9416096e+2, -126813.08, -43826.18, -5188.5747, -0.09990802, -0.41246393, -43503.035, 13683.268, 0.0, 9.999763, 10.000826 
2.9462796e+3, 1.3429466e+2, -1514899.8, -1591135.0, 24572.29, -0.012491326, -0.370827, -1507666.0, 116211.52, 0.0, 10.001264, 10.000241 
2.9461595e+3, 1.442945e+2, -1500752.9, -1563038.9, 17621.146, -0.05848461, -0.32663614, -1496113.3, 29765.512, 0.0, 10.0008135, 9.999978 
2.94604e+3, 1.542932e+2, -1414172.1, -1484634.1, 38512.598, -0.08170461, -0.3741222, -1397206.9, 30684.348, 0.0, 10.000802, 9.999845 
2.945921e+3, 1.6429207e+2, -1309463.4, -1401455.6, 47711.266, -0.060631584, -0.39053693, -1289187.3, 40714.754, 0.0, 10.000927, 9.999682 
2.9458028e+3, 1.7429137e+2, -1148299.4, -1259607.3, 70664.95, -0.044129197, -0.36271527, -1114003.9, 117904.695, 0.0, 10.001308, 9.999797 
2.9456842e+3, 1.842905e+2, -1082254.6, -1208233.0, 85920.89, -0.044056892, -0.3457552, -1038707.25, 95210.45, 0.0, 10.001224, 9.999518 
2.9455662e+3, 1.942893e+2, -1062363.1, -1141542.8, 107392.53, -0.038379636, -0.34567854, -987495.44, 48435.504, 0.0, 10.000663, 9.999571 
2.9454482e+3, 2.0428821e+2, -949975.56, -995829.1, 105239.25, -0.036434382, -0.35782725, -865194.7, 72746.65, 0.0, 10.000585, 9.999938 
2.9453298e+3, 2.1428716e+2, -777821.6, -849395.5, 100300.09, -0.053410213, -0.38826978, -707115.3, 132833.64, 0.0, 10.001043, 10.000048 
2.9452118e+3, 2.2428624e+2, -707320.7, -826776.3, 110868.57, -0.052704155, -0.38717714, -641115.0, 100842.234, 0.0, 10.0011215, 9.999494 
2.945094e+3, 2.3428549e+2, -668720.2, -737670.06, 111879.28, -0.021638645, -0.34563395, -586124.7, 57841.69, 0.0, 10.0006275, 9.999669 
2.9449758e+3, 2.4428453e+2, -588822.8, -595833.1, 101649.42, -0.021306027, -0.3564467, -490618.1, 55357.492, 0.0, 10.000279, 10.000137 
2.9448563e+3, 2.5428334e+2, -468992.4, -446571.9, 79666.586, -0.07256772, -0.4382698, -377330.72, 70654.06, 0.0, 10.00025, 10.000505 
2.944737e+3, 2.64283e+2, -412387.44, -411681.6, 74135.92, -0.07715361, -0.43230408, -337897.75, 12090.044, 0.0, 10.000152, 10.00012 
2.944618e+3, 2.7428368e+2, -309388.16, -281041.34, 34850.39, -0.00013267473, -0.3153452, -257592.47, -5608.569, 0.0, 10.000041, 10.0004015 
2.9444984e+3, 2.8428325e+2, -232538.17, -168929.0, 53782.605, 0.020325363, -0.33207214, -138250.78, 15738.366, 0.0, 9.999797, 10.000618 
2.944377e+3, 2.9428297e+2, -134755.38, -35367.555, -993.7633, -0.089447446, -0.351796, -35357.62, 20633.465, 0.0, 9.999641, 10.000936 
2.9562795e+3, 1.3441466e+2, -1524156.4, -1581171.0, -6286.8525, -0.07576115, -0.37752384, -1523471.4, 99229.09, 0.0, 10.001145, 10.000364 
2.9561597e+3, 1.4441414e+2, -1495516.0, -1556736.6, 19149.545, -0.07318852, -0.37555808, -1490019.6, 34685.805, 0.0, 10.000835, 10.000009 
2.9560408e+3, 1.5441327e+2, -1407410.9, -1482247.0, 35916.086, -0.022278786, -0.38159615, -1392963.0, 33751.438, 0.0, 10.000852, 9.999837 
2.9559222e+3, 1.6441223e+2, -1300727.6, -1386957.4, 61291.34, 0.0076997536, -0.39125255, -1268905.8, 59818.883, 0.0, 10.000941, 9.999776 
2.9558036e+3, 1.744114e+2, -1141401.8, -1234372.3, 83469.71, -0.02479182, -0.39402854, -1092346.1, 138386.14, 0.0, 10.00126, 9.999994 
2.9556847e+3, 1.844106e+2, -1074135.1, -1179720.8, 62859.773, -0.05397538, -0.39127058, -1044839.94, 87900.39, 0.0, 10.001173, 9.999739 
2.955566e+3, 1.9440982e+2, -1046672.75, -1112079.1, 86170.89, -0.053843927, -0.37047875, -987208.06, 47541.055, 0.0, 10.000676, 9.999766 
2.955448e+3, 2.0440908e+2, -952294.4, -1005274.9, 120388.26, -0.0407855, -0.35469186, -855516.3, 81240.125, 0.0, 10.000604, 9.999865 
2.9553306e+3, 2.1440813e+2, -786765.4, -865325.75, 116039.12, -0.023780337, -0.3665558, -703538.4, 135226.3, 0.0, 10.00103, 9.999946 
2.9552126e+3, 2.2440715e+2, -690582.8, -784310.2, 95128.68, -0.025468502, -0.37949124, -631400.9, 109372.71, 0.0, 10.001087, 9.999802 
2.955094e+3, 2.3440625e+2, -645644.4, -687231.5, 91389.1, -0.043785784, -0.38803512, -572713.1, 70069.29, 0.0, 10.000617, 10.000021 
2.954975e+3, 2.4440564e+2, -585410.56, -591462.94, 97297.13, -0.040908687, -0.38356325, -491092.56, 53695.29, 0.0, 10.000288, 10.000165 
2.9548565e+3, 2.544054e+2, -470264.6, -450295.7, 78367.055, -0.011927832, -0.36646152, -381279.6, 65509.33, 0.0, 10.000253, 10.000481 
2.954737e+3, 2.6440507e+2, -415032.3, -421959.25, 68363.3, -0.022743551, -0.35514984, -350044.8, -1252.2046, 0.0, 10.000171, 10.000041 
2.9546168e+3, 2.744044e+2, -319517.0, -309824.13, 38346.477, -0.06771099, -0.3567516, -276019.03, -25217.924, 0.0, 10.000076, 10.000186 
2.9544967e+3, 2.8440356e+2, -216339.34, -151424.33, 36863.824, -0.059419222, -0.41336763, -134765.33, 18044.395, 0.0, 9.999856, 10.000714 
2.954377e+3, 2.944045e+2, -88610.39, 56926.07, 4629.6655, 0.0075393054, -0.32427266, 57073.195, 111870.95, 0.0, 9.999654, 10.001566 
2.96628e+3, 1.3453496e+2, -1628851.0, -1660542.6, -2524.604, -0.040454075, -0.3701549, -1628651.1, -7130.52, 0.0, 10.000552, 10.000104 
2.9661602e+3, 1.4453419e+2, -1472130.0, -1554223.1, 21833.389, -0.056757584, -0.37990052, -1466684.4, 56844.797, 0.0, 10.001029, 9.999937 
2.9660407e+3, 1.5453357e+2, -1362154.3, -1466381.6, 23660.383, -0.07886086, -0.35318837, -1357034.6, 68500.51, 0.0, 10.0011835, 9.999789 
2.9659218e+3, 1.6453272e+2, -1300238.3, -1380932.8, 46597.133, -0.056251127, -0.34680015, -1278947.9, 48595.566, 0.0, 10.000914, 9.999834 
2.965803e+3, 1.7453168e+2, -1255760.6, -1292957.8, 59477.652, -0.057779193, -0.3710932, -1212041.4, 17512.186, 0.0, 10.000483, 9.999971 
2.9656845e+3, 1.8453087e+2, -1163753.4, -1208413.9, 30919.459, -0.07015302, -0.3723317, -1147943.8, -16382.206, 0.0, 10.0004835, 9.99988 
2.9655662e+3, 1.9453032e+2, -981730.94, -1059890.6, 54437.547, -0.059882913, -0.34834963, -953798.25, 79769.1, 0.0, 10.001025, 9.999961 
2.9654482e+3, 2.0452957e+2, -889013.5, -989573.9, 81654.58, -0.043547537, -0.33674634, -843400.1, 92174.86, 0.0, 10.001097, 9.999737 
2.9653305e+3, 2.1452862e+2, -867679.3, -913778.3, 75309.5, -0.03633873, -0.34019142, -811970.94, 25613.7, 0.0, 10.000509, 9.9998665 
2.9652128e+3, 2.245277e+2, -780813.75, -800968.7, 57117.66, -0.037619893, -0.3563807, -732891.4, 6702.0293, 0.0, 10.000345, 10.000048 
2.965094e+3, 2.3452678e+2, -622720.1, -650812.7, 43614.145, -0.04597816, -0.39317375, -590946.2, 50655.086, 0.0, 10.000652, 10.00026 
2.9649752e+3, 2.4452631e+2, -526959.44, -558129.0, 44510.1, -0.035659183, -0.39265645, -495384.56, 48220.695, 0.0, 10.000653, 10.000227 
2.9648563e+3, 2.5452638e+2, -448254.7, -448142.5, 27401.994, -0.0026339092, -0.34444353, -420796.53, 24808.07, 0.0, 10.000423, 10.0004225 
2.9647365e+3, 2.645261e+2, -391918.9, -392816.94, 25178.316, -0.010956189, -0.33282837, -367185.63, -19577.9, 0.0, 10.000239, 10.0002165 
2.9646158e+3, 2.7452523e+2, -312595.06, -298171.4, 22533.264, -0.06864357, -0.3725821, -281724.03, -32107.129, 0.0, 10.000085, 10.000265 
2.9644957e+3, 2.845242e+2, -196473.27, -154142.9, 19592.787, -0.067209706, -0.44654188, -146466.42, 5159.9385, 0.0, 10.000052, 10.0006075 
2.9643762e+3, 2.9452497e+2, -18429.326, 85144.59, -34704.047, 0.01573395, -0.3548958, 95697.51, 149313.98, 0.0, 10.000191, 10.001503 
2.976281e+3, 1.3465518e+2, -1667237.1, -1741499.0, 760.3896, 0.057032682, -0.37626368, -1667229.4, -46887.656, 0.0, 10.000562, 9.999541 
2.9761606e+3, 1.4465411e+2, -1478691.0, -1570834.5, 30609.107, -0.02956949, -0.38014197, -1469449.8, 52904.586, 0.0, 10.001045, 9.999814 
2.9760396e+3, 1.5465368e+2, -1359003.3, -1470500.5, 19065.29, -0.2173072, -0.3259139, -1355833.3, 68524.1, 0.0, 10.001228, 9.999741 
2.9759204e+3, 1.6465317e+2, -1285387.6, -1369341.8, 24481.867, -0.20982504, -0.29033887, -1278770.1, 47592.152, 0.0, 10.000998, 9.999873 
2.9758024e+3, 1.7465201e+2, -1256643.4, -1314828.0, 42404.613, -0.1248771, -0.3137302, -1234310.9, -5936.6567, 0.0, 10.000569, 9.999779 
2.975684e+3, 1.8465129e+2, -1150996.0, -1194507.1, 48339.297, -0.08776534, -0.2974785, -1119742.3, 10639.258, 0.0, 10.000538, 9.999949 
2.9755664e+3, 1.9465074e+2, -969367.3, -1033638.25, 74340.68, -0.062508985, -0.29115003, -920513.75, 111872.51, 0.0, 10.001022, 10.000142 
2.9754484e+3, 2.046496e+2, -903888.06, -1016281.8, 61238.64, -0.05711908, -0.31684953, -876969.0, 57428.9, 0.0, 10.001079, 9.999562 
2.9753298e+3, 2.1464862e+2, -867615.0, -916028.56, 52441.47, -0.087303475, -0.31588987, -834063.0, 2346.1155, 0.0, 10.000519, 9.999846 
2.9752117e+3, 2.2464791e+2, -766622.5, -771879.06, 68580.07, -0.08084782, -0.31983954, -700620.4, 37795.895, 0.0, 10.000346, 10.000248 
2.975094e+3, 2.3464717e+2, -611533.94, -628539.44, 54507.555, -0.028001377, -0.35698348, -564869.94, 75552.0, 0.0, 10.000654, 10.000414 
2.974975e+3, 2.4464662e+2, -522710.06, -547690.2, 33879.438, -0.014970654, -0.3780504, -499091.72, 43335.246, 0.0, 10.000646, 10.000302 
2.9748556e+3, 2.546462e+2, -455695.0, -465077.72, 21349.58, -0.05274135, -0.3735176, -438527.4, 5904.6157, 0.0, 10.00043, 10.000302 
2.9747358e+3, 2.6464608e+2, -354228.88, -317990.97, 16220.59, -0.047320757, -0.36314738, -311791.13, 34641.848, 0.0, 10.000253, 10.000724 
2.9746163e+3, 2.7464625e+2, -278317.66, -228234.06, 19714.04, 0.007110794, -0.35512966, -221405.27, 27024.42, 0.0, 10.000089, 10.000746 
2.974496e+3, 2.8464538e+2, -220211.75, -209676.36, 22431.799, -0.008546581, -0.41947457, -191902.05, -41464.742, 0.0, 10.000094, 10.000204 
2.974375e+3, 2.946443e+2, -87563.42, -67853.46, -18862.83, -0.07026125, -0.45391926, -56426.355, -3978.5828, 0.0, 10.00026, 10.000406 
2.986278e+3, 1.3477507e+2, -1512624.8, -1666737.3, -40059.727, -0.2765519, -0.3202404, -1502833.8, 116332.69, 0.0, 10.001615, 9.999558 
2.986162e+3, 1.4477332e+2, -1457112.3, -1535916.0, 12664.104, 0.06206212, -0.40215975, -1455127.1, 66058.74, 0.0, 10.001094, 10.00003 
2.986043e+3, 1.5477228e+2, -1445167.3, -1508770.6, -4605.602, 0.1160443, -0.4231137, -1444835.5, -21640.637, 0.0, 10.000629, 9.9997635 
2.9859233e+3, 1.6477098e+2, -1417857.3, -1458052.3, -14440.688, 0.1013919, -0.45034906, -1413207.3, -87999.67, 0.0, 10.000203, 9.999643 
2.9858038e+3, 1.7477007e+2, -1286054.1, -1319921.6, 12456.932, 0.037087608, -0.44874766, -1281965.9, -54748.113, 0.0, 10.000337, 9.999851 
2.985685e+3, 1.8476897e+2, -1166369.0, -1193751.8, 38452.527, -0.010501147, -0.47973797, -1139243.1, -10014.663, 0.0, 10.000407, 10.000012 
2.9855666e+3, 1.9476831e+2, -1077270.8, -1091725.9, 55523.99, -0.02612807, -0.48125097, -1028505.94, 2727.9287, 0.0, 10.00031, 10.000088 
2.9854488e+3, 2.0476812e+2, -940093.94, -1010471.0, 48913.81, -0.028022358, -0.4211041, -915026.44, 18209.455, 0.0, 10.000728, 9.999776 
2.9853305e+3, 2.1476772e+2, -784032.7, -871341.2, 37238.67, -0.029239992, -0.37349325, -770307.4, 64934.344, 0.0, 10.001066, 9.999896 
2.9852122e+3, 2.2476725e+2, -713836.94, -739008.06, 49452.82, -0.018065806, -0.35649517, -675393.3, 61853.473, 0.0, 10.000669, 10.000323 
2.9850942e+3, 2.3476711e+2, -638107.44, -623956.5, 43752.918, 0.012669784, -0.3475198, -586710.6, 52536.59, 0.0, 10.000397, 10.00057 
2.984975e+3, 2.447669e+2, -548986.44, -542615.06, 14325.82, 0.0003824864, -0.34930936, -531125.0, 10124.147, 0.0, 10.000388, 10.000462 
2.984855e+3, 2.547664e+2, -509735.0, -478581.3, 11700.065, -0.053285733, -0.36968952, -474676.66, -31421.494, 0.0, 10.000003, 10.000417 
2.984735e+3, 2.6476637e+2, -374354.56, -306845.38, 24815.824, -0.049531844, -0.36823827, -298704.9, 46550.434, 0.0, 10.000015, 10.000922 
2.984616e+3, 2.747668e+2, -173459.52, -159764.11, 6063.836, 0.019912811, -0.34867316, -157465.17, 89783.164, 0.0, 10.000712, 10.000929 
2.9844955e+3, 2.847664e+2, -116560.55, -148137.92, -4255.2485, -0.010877662, -0.3792512, -115997.18, 33254.063, 0.0, 10.00075, 10.000339 
2.9843742e+3, 2.9476464e+2, -144130.55, -163942.25, 7951.3257, -0.08798794, -0.47123307, -141334.05, -90064.7, 0.0, 10.000104, 9.999904 
2.9962814e+3, 1.3489273e+2, -1615333.3, -1656528.4, 32583.814, -0.043404106, -0.44294012, -1597382.5, 20630.107, 0.0, 10.000652, 10.000092 
2.996161e+3, 1.4489327e+2, -1615834.5, -1569513.4, 52147.336, -0.044034135, -0.33781087, -1535614.8, -15605.578, 0.0, 9.999809, 10.000423 
2.99604e+3, 1.5489271e+2, -1407956.5, -1501773.3, -36334.67, -0.17608531, -0.3274261, -1395530.3, 26484.13, 0.0, 10.000899, 9.999697 
2.9959205e+3, 1.6489041e+2, -1336809.6, -1474463.1, 24923.334, -0.13367978, -0.41369095, -1332436.0, -8398.569, 0.0, 10.000973, 9.999172 
2.9958022e+3, 1.7489016e+2, -1123669.0, -1225001.3, 16845.115, -0.063087195, -0.34484932, -1120942.1, 105099.51, 0.0, 10.001353, 10.000025 
2.9956836e+3, 1.848904e+2, -1050834.3, -1142792.6, -57674.875, -0.08320407, -0.26438224, -1023053.8, 104985.49, 0.0, 10.0011835, 10.000006 
2.995566e+3, 1.948887e+2, -1012591.8, -1087796.0, -24337.248, -0.047757037, -0.35093215, -1005403.06, 24651.44, 0.0, 10.000838, 9.999874 
2.9954484e+3, 2.0488825e+2, -963467.3, -974166.1, -7322.0474, -0.075614624, -0.34475008, -959748.75, -27690.068, 0.0, 10.000333, 10.000228 
2.9953304e+3, 2.1488726e+2, -811616.94, -877480.94, 6584.346, -0.075049244, -0.37691468, -810965.1, 23104.252, 0.0, 10.000828, 9.999976 
2.9952118e+3, 2.2488637e+2, -658870.0, -722528.3, -20722.45, -0.06288159, -0.39972126, -652718.7, 83360.24, 0.0, 10.0010805, 10.00024 
2.9950935e+3, 2.3488684e+2, -675910.9, -625931.1, -34468.516, -0.011448802, -0.33997267, -608346.7, 29728.121, 0.0, 10.000061, 10.00072 
2.9949746e+3, 2.4488707e+2, -527147.7, -500338.3, -21984.479, -0.0076735513, -0.31917658, -487994.16, 52078.54, 0.0, 10.000399, 10.000745 
2.9948545e+3, 2.5488704e+2, -473383.53, -413431.13, -9006.785, -0.0057761, -0.33396924, -412107.25, 29965.69, 0.0, 10.000048, 10.000838 
2.994735e+3, 2.6488695e+2, -384381.47, -336265.16, 49708.77, -0.015956856, -0.348918, -305098.72, 38975.004, 0.0, 10.000044, 10.0007105 
2.994615e+3, 2.7488688e+2, -180830.47, -193820.17, 39263.77, -0.05335331, -0.35780367, -147528.0, 98545.805, 0.0, 10.000778, 10.0006695 
2.9944944e+3, 2.8488737e+2, -68958.414, -29822.545, -36030.973, -0.105091885, -0.32897413, -8388.831, 139679.84, 0.0, 10.0007105, 10.001147 
2.9943734e+3, 2.9488796e+2, -119701.53, -51786.934, 12198.945, -0.050499585, -0.27624896, -49662.207, 400.56613, 0.0, 9.9999075, 10.000739 
