coord_x,coord_y,stress_xx,stress_yy,tau_xy,velocity_x,velocity_y,stress_1,eps,damage,lx,ly
4.9998778e+0, 1.2513222e+2, -1728166.9, -1695720.8, -869.7041, -0.0022464069, -0.21166135, -1695697.5, 17987.484, 0.0013801174, 9.999793, 10.000227 
4.9997124e+0, 1.3513282e+2, -1688687.0, -1681118.6, 8455.681, -0.010560589, -0.12376473, -1675639.0, -59959.406, 0.0008364695, 9.999632, 9.999732 
4.9997154e+0, 1.4513105e+2, -1558753.0, -1504420.6, 13645.174, -0.007642937, -0.3034555, -1501186.3, 16510.313, 0.00038681776, 9.999578, 10.000293 
4.99991e+0, 1.5513213e+2, -1460063.9, -1418230.0, 4451.144, 0.00899942, -0.22352804, -1417761.6, 1923.4281, 0.00011816065, 9.999637, 10.000183 
4.9999386e+0, 1.6513266e+2, -1398439.0, -1412144.0, 5085.836, 0.008314808, -0.15488195, -1396757.9, -75077.47, 0.000016018055, 9.999707, 9.99952 
4.9998122e+0, 1.7513223e+2, -1288328.4, -1310125.8, 11982.55, -0.008866243, -0.15353425, -1283029.5, -59342.934, 0.00000013955699, 9.999799, 9.999504 
4.9998552e+0, 1.8513153e+2, -1180499.0, -1215305.9, 12362.671, -0.009673726, -0.17116584, -1176555.0, -50860.613, 0.0, 9.999901, 9.999434 
5.000061e+0, 1.9513068e+2, -1069395.6, -1115517.4, 4966.3022, 0.0054957545, -0.20182604, -1068866.9, -41164.54, 0.0, 10.0000105, 9.999394 
5.0001407e+0, 2.0513001e+2, -979064.9, -1056503.8, 5049.561, 0.008520414, -0.19221936, -978737.0, -49027.973, 0.0, 10.00011, 9.999077 
5.0000966e+0, 2.1512944e+2, -869921.5, -956503.44, 11079.185, -0.00043562014, -0.16002564, -868526.25, -36811.332, 0.0, 10.000201, 9.999046 
5.0001514e+0, 2.2512852e+2, -772229.56, -887845.2, 10825.173, -0.0011734832, -0.14407156, -771224.75, -37499.438, 0.0, 10.000324, 9.998786 
5.000296e+0, 2.3512721e+2, -653952.56, -783268.25, 348.00156, 0.0057120537, -0.15646261, -653951.6, -18211.533, 0.0, 10.000478, 9.998757 
5.000337e+0, 2.4512602e+2, -567646.56, -732052.0, -258.22235, 0.004880919, -0.13270476, -567646.1, -29891.996, 0.0, 10.000574, 9.99839 
5.0002784e+0, 2.5512493e+2, -464652.53, -635033.7, 11154.214, -0.003367182, -0.08496141, -463925.4, -24157.932, 0.0, 10.000623, 9.99836 
5.0002724e+0, 2.6512367e+2, -328555.28, -467915.78, 10743.983, -0.006174344, -0.070918575, -327731.8, 14049.104, 0.0, 10.000667, 9.998813 
5.0003135e+0, 2.7512226e+2, -227061.89, -370771.4, -2914.2505, -0.0037359258, -0.09659409, -227002.83, 16791.197, 0.0, 10.000701, 9.99879 
5.000409e+0, 2.851211e+2, -142605.92, -328751.38, -4469.021, -0.0002659398, -0.06676658, -142498.69, 3306.2854, 0.000000004221918, 10.000821, 9.998346 
5.000552e+0, 2.951201e+2, -10865.702, -209372.61, -635.98285, 0.0035828063, -0.0076130326, -10863.664, 36951.656, 0.0000065845143, 10.00103, 9.998393 
5.00052e+0, 3.0511662e+2, 48513.37, -160250.2, -43.928375, -0.004183617, -0.19382429, 48513.38, 48513.38, 0.0000754208, 10.0011215, 9.998356 
5.00037e+0, 3.151172e+2, 116235.59, -10835.85, 5881.841, -0.01735128, 0.034336284, 116507.27, 116507.27, 0.00026987135, 10.001083, 9.999401 
1.499963e+1, 1.2513204e+2, -1710491.6, -1657785.1, -7370.8257, -0.0070318473, -0.23403285, -1656773.8, 56913.383, 0.00135349, 9.999789, 10.00049 
1.4999141e+1, 1.3513327e+2, -1670115.3, -1641811.6, 2297.0845, -0.03144518, -0.10923783, -1641626.4, -25951.398, 0.0008181531, 9.99963, 10.000004 
1.4999145e+1, 1.4513168e+2, -1575356.8, -1537677.0, 15146.913, -0.023060443, -0.2730577, -1532343.1, -14652.99, 0.00037595516, 9.999575, 10.000067 
1.499973e+1, 1.5513241e+2, -1476191.5, -1450899.3, 6735.6997, 0.027049989, -0.20252185, -1449217.3, -29534.701, 0.00011312574, 9.999634, 9.999961 
1.4999814e+1, 1.6513264e+2, -1384862.3, -1383111.3, 7840.5947, 0.024925333, -0.16444804, -1376097.4, -54416.996, 0.000014709239, 9.999704, 9.999722 
1.4999436e+1, 1.7513195e+2, -1275709.6, -1283109.9, 15488.811, -0.026577407, -0.2104416, -1263485.1, -39797.332, 0.00000010097208, 9.999796, 9.999691 
1.4999563e+1, 1.8513142e+2, -1194227.8, -1242711.1, 16295.386, -0.029071629, -0.20963685, -1189259.9, -63565.87, 0.0, 9.999897, 9.9992485 
1.5000182e+1, 1.9513121e+2, -1081985.5, -1141280.6, 9411.513, 0.016521929, -0.15680681, -1080527.6, -52830.313, 0.0, 10.000009, 9.999218 
1.5000421e+1, 2.0513052e+2, -967039.8, -1030782.9, 8038.5464, 0.02548213, -0.14944899, -966041.7, -36337.348, 0.0, 10.000107, 9.999255 
1.5000291e+1, 2.1512929e+2, -858622.3, -932338.9, 14983.763, -0.0011320163, -0.2008578, -855693.1, -23977.459, 0.0, 10.000198, 9.999214 
1.500045e+1, 2.2512831e+2, -790660.06, -925055.8, 16230.578, -0.0037110168, -0.18540774, -788727.75, -55000.723, 0.0, 10.00032, 9.998532 
1.500089e+1, 2.351276e+2, -672170.4, -820741.0, 6520.195, 0.0173144, -0.11243725, -671884.75, -36146.695, 0.0, 10.000476, 9.998501 
1.5001006e+1, 2.451266e+2, -546259.3, -687033.44, 1119.2759, 0.014421944, -0.070812054, -546250.44, -8500.473, 0.0, 10.000572, 9.998701 
1.5000835e+1, 2.5512534e+2, -442837.75, -589090.0, 13267.628, -0.010095652, -0.07138146, -441643.9, -1881.0386, 0.0, 10.000621, 9.998677 
1.5000816e+1, 2.6512375e+2, -352805.25, -517480.56, 11810.552, -0.018565247, -0.08788672, -351962.53, -10183.572, 0.0, 10.000663, 9.998474 
1.5000941e+1, 2.7512193e+2, -252498.16, -422843.53, -1278.9535, -0.01130937, -0.12055649, -252488.55, -8691.147, 0.0, 10.000698, 9.998434 
1.5001225e+1, 2.8512082e+2, -135821.48, -313889.38, 3056.6423, -0.00069325394, -0.07447392, -135769.03, 10039.431, 0.0000000059189293, 10.000818, 9.99845 
1.5001653e+1, 2.951203e+2, -2948.2188, -191913.44, 7801.468, 0.010452551, 0.024194757, -2626.6807, 45186.88, 0.0000065077284, 10.001027, 9.998515 
1.5001562e+1, 3.051167e+2, 57289.31, -141158.03, -1576.4202, -0.012138029, -0.18904547, 57301.83, 57301.83, 0.000074264535, 10.001119, 9.998489 
1.5001106e+1, 3.1511652e+2, 123059.65, 4867.2227, 8421.4, -0.05244837, -0.050285082, 123656.67, 123656.67, 0.0002663471, 10.001078, 9.999512 
2.4999133e+1, 1.2513202e+2, -1739670.3, -1670977.5, -6090.477, -0.025792653, -0.2398627, -1670441.6, 43246.023, 0.0013145427, 9.999588, 10.000497 
2.4998821e+1, 1.3513355e+2, -1665957.5, -1637383.9, -17369.908, -0.027485583, -0.08889145, -1629180.0, -13507.199, 0.0007913486, 9.999649, 10.000026 
2.4998815e+1, 1.4513196e+2, -1565194.8, -1542933.4, -3510.5923, -0.01910659, -0.2497018, -1542392.9, -24704.729, 0.00036019128, 9.999687, 9.999977 
2.499928e+1, 1.5513243e+2, -1468612.1, -1457076.8, -1719.8849, 0.013976128, -0.19761, -1456825.9, -37142.61, 0.00010584406, 9.999728, 9.999874 
2.4999443e+1, 1.6513254e+2, -1370603.0, -1371020.0, 486.3375, 0.01341006, -0.16925088, -1370282.4, -48600.4, 0.000012859098, 9.99978, 9.999768 
2.4999332e+1, 1.7513186e+2, -1265821.0, -1273402.3, -3697.1504, -0.018899519, -0.21662617, -1264316.5, -40628.03, 0.00000006033416, 9.999843, 9.999736 
2.4999566e+1, 1.8513136e+2, -1189829.3, -1239647.6, 1420.8694, -0.019557096, -0.21556243, -1189788.8, -64094.72, 0.0, 9.999923, 9.999257 
2.500014e+1, 1.951312e+2, -1078813.1, -1138480.9, 8815.341, 0.010395906, -0.15985999, -1077538.0, -49840.984, 0.0, 10.000026, 9.9992285 
2.5000432e+1, 2.0513055e+2, -973033.94, -1034529.9, 5283.8647, 0.017754212, -0.14744309, -972583.2, -42879.33, 0.0, 10.00007, 9.999248 
2.5000453e+1, 2.1512936e+2, -880364.5, -943680.6, -2027.4916, 0.0025600607, -0.19324422, -880299.6, -48584.48, 0.0, 10.000052, 9.999207 
2.500074e+1, 2.2512841e+2, -810748.8, -933324.5, 10341.079, 0.00027468384, -0.17592601, -809882.56, -76156.05, 0.0, 10.000176, 9.998546 
2.500128e+1, 2.3512773e+2, -677608.06, -821650.1, 20492.479, 0.010674178, -0.10174668, -674749.4, -39012.176, 0.0, 10.000432, 9.998516 
2.5001526e+1, 2.4512675e+2, -538871.9, -678859.06, 10951.488, 0.007596862, -0.061346926, -538020.3, -271.5196, 0.0, 10.000603, 9.998742 
2.500151e+1, 2.5512546e+2, -429720.94, -577589.44, 2546.2747, -0.007967826, -0.067927234, -429677.1, 10084.301, 0.0, 10.000689, 9.998723 
2.5001624e+1, 2.651238e+2, -339083.9, -522137.4, 1584.6816, -0.011256125, -0.08959958, -339070.2, 2708.0488, 0.0, 10.000806, 9.998374 
2.5001872e+1, 2.7512184e+2, -220360.06, -419152.6, 6957.017, -0.0017157494, -0.1264248, -220116.89, 23681.572, 0.0, 10.00097, 9.998329 
2.5002202e+1, 2.851207e+2, -110968.18, -297570.47, 16282.388, 0.0074986173, -0.07914234, -109558.08, 36251.71, 0.0000000086392555, 10.00097, 9.998489 
2.5002578e+1, 2.951203e+2, -34896.94, -202689.47, 15188.393, 0.0122994725, 0.025883365, -33533.19, 14280.49, 0.0000063841276, 10.000788, 9.998556 
2.5002468e+1, 3.0511668e+2, 20594.62, -148925.66, 5945.7065, -0.018748082, -0.19570477, 20802.902, 20802.902, 0.00007245599, 10.000826, 9.998577 
2.5002122e+1, 3.1511635e+2, 130389.24, 13208.156, 15704.323, -0.059955303, -0.07974945, 132457.39, 132457.39, 0.00026087384, 10.001109, 9.999555 
3.4998378e+1, 1.2513219e+2, -1756892.4, -1707139.8, -4458.2725, -0.061619874, -0.23162687, -1706743.4, 6943.141, 0.0012623775, 9.99959, 10.000248 
3.4998745e+1, 1.3513365e+2, -1681101.1, -1669775.5, -14684.986, -0.0007207613, -0.063758805, -1659699.3, -44025.867, 0.000755357, 9.999653, 9.999802 
3.499872e+1, 1.451319e+2, -1561138.9, -1534460.8, -3041.1216, 0.0019742057, -0.23407924, -1534118.5, -16427.871, 0.00033918672, 9.999688, 10.000035 
3.4998566e+1, 1.5513216e+2, -1465589.8, -1449972.8, -137.01736, -0.031059561, -0.20701094, -1449971.6, -30284.67, 0.00009620481, 9.999725, 9.999925 
3.4998822e+1, 1.6513233e+2, -1378176.8, -1385932.0, 2694.41, -0.027701424, -0.16938221, -1377332.5, -55647.6, 0.000010539653, 9.999777, 9.999668 
3.4999496e+1, 1.7513199e+2, -1272480.5, -1287163.1, -985.5395, 0.012567218, -0.17306614, -1272414.6, -48726.043, 0.000000028001644, 9.999843, 9.999641 
3.4999862e+1, 1.8513136e+2, -1175201.0, -1208819.9, 4862.4106, 0.017222079, -0.18981436, -1174511.9, -48817.055, 0.0, 9.999921, 9.99947 
3.499993e+1, 1.9513065e+2, -1065299.0, -1109529.8, 12981.709, -0.013396941, -0.21032302, -1061770.4, -34068.734, 0.0, 10.000023, 9.99943 
3.5000172e+1, 2.0513013e+2, -987081.0, -1062433.3, 4600.229, -0.015762245, -0.18630327, -986801.2, -57093.523, 0.0, 10.000066, 9.999059 
3.5000584e+1, 2.151297e+2, -893287.7, -970313.3, -2031.5588, 0.009790875, -0.13744114, -893234.1, -61520.527, 0.0, 10.0000515, 9.999025 
3.5001007e+1, 2.2512883e+2, -790556.44, -890613.8, 19651.326, 0.009261632, -0.11687914, -786835.3, -53111.434, 0.0, 10.000173, 9.99884 
3.5001457e+1, 2.3512763e+2, -657798.25, -780338.44, 30467.176, -0.014891004, -0.12455628, -650641.25, -14903.542, 0.0, 10.000431, 9.998801 
3.500189e+1, 2.4512647e+2, -554349.44, -709915.7, 13947.4, -0.016651886, -0.10543009, -553108.8, -15358.198, 0.0, 10.000599, 9.99853 
3.5002303e+1, 2.5512534e+2, -445322.63, -609345.94, 6065.8623, 0.0021401967, -0.07412983, -445098.63, -5335.532, 0.0, 10.000686, 9.998507 
3.5002685e+1, 2.651238e+2, -329497.1, -501591.16, 7398.954, 0.014280817, -0.07698247, -329179.56, 12599.3125, 0.0, 10.000804, 9.998516 
3.5003093e+1, 2.75122e+2, -210329.08, -397143.63, 13534.697, 0.02344422, -0.11375573, -209353.58, 34443.61, 0.0, 10.000965, 9.998483 
3.5003334e+1, 2.851208e+2, -113127.44, -300973.13, 9356.999, 0.02337956, -0.08139675, -112662.49, 33146.527, 0.000000011844628, 10.000966, 9.998468 
3.5003322e+1, 2.951201e+2, -37647.06, -207066.64, 8592.592, 0.007603064, -0.0018618276, -37212.375, 10603.329, 0.0000061783935, 10.000783, 9.9985285 
3.5003236e+1, 3.0511656e+2, 23716.652, -142040.7, 15870.686, -0.024958547, -0.21372594, 25222.535, 25222.535, 0.00006980885, 10.000825, 9.998625 
3.5003406e+1, 3.1511673e+2, 129157.02, 11587.345, 30535.793, -0.04333442, -0.052791093, 136614.86, 136614.86, 0.00025299258, 10.001106, 9.999545 
4.4997874e+1, 1.2513202e+2, -1794736.5, -1721109.1, -31098.215, -0.056527458, -0.21272908, -1709732.1, 3957.8208, 0.0011988538, 9.999311, 10.000289 
4.4998303e+1, 1.3513355e+2, -1688163.6, -1664247.5, -19939.406, -0.0060926597, -0.045818873, -1652955.3, -37279.563, 0.0007112032, 9.999567, 9.999882 
4.4998288e+1, 1.4513174e+2, -1569462.3, -1542503.5, -6412.907, -0.00840085, -0.22192477, -1541055.8, -23362.623, 0.00031351, 9.999649, 10.0 
4.4998142e+1, 1.5513192e+2, -1490684.4, -1466318.4, -11059.076, -0.037814997, -0.19960669, -1462047.5, -42357.1, 0.000084590996, 9.999572, 9.999887 
4.4998515e+1, 1.6513209e+2, -1390839.4, -1389305.3, 2060.9143, -0.030711826, -0.16144115, -1387873.3, -66184.96, 0.000007991499, 9.999679, 9.999693 
4.4999412e+1, 1.7513184e+2, -1250802.9, -1273581.6, 7598.2075, 0.013077035, -0.15886836, -1248501.0, -24810.234, 0.000000008983813, 9.999978, 9.99967 
4.4999862e+1, 1.8513122e+2, -1150504.5, -1193581.5, 4572.3438, 0.017298972, -0.17808998, -1150024.5, -24327.953, 0.0, 10.000077, 9.999499 
4.4999877e+1, 1.9513044e+2, -1069354.3, -1108493.1, -1424.0063, -0.018793456, -0.21029286, -1069302.5, -41598.53, 0.0, 9.999982, 9.999456 
4.5000157e+1, 2.0512986e+2, -995987.6, -1072854.4, -6983.5205, -0.021524595, -0.18728942, -995358.3, -65647.96, 0.0, 10.00003, 9.999004 
4.5000705e+1, 2.151295e+2, -873445.3, -965818.5, -3819.0242, 0.008978685, -0.12745602, -873287.7, -41571.65, 0.0, 10.000211, 9.998979 
4.5001224e+1, 2.2512865e+2, -770230.9, -870037.3, 16457.604, 0.008784545, -0.10945405, -767587.1, -33860.945, 0.0, 10.000266, 9.998938 
4.500172e+1, 2.3512736e+2, -684558.94, -782197.0, 12462.108, -0.019938894, -0.13378309, -682993.44, -47253.563, 0.0, 10.000199, 9.998899 
4.5002326e+1, 2.4512622e+2, -593794.1, -731291.56, 1368.5785, -0.019670838, -0.116630845, -593780.5, -56027.813, 0.0, 10.000338, 9.99851 
4.5003033e+1, 2.5512522e+2, -448771.78, -613274.94, 7450.38, 0.006955187, -0.073016845, -448435.06, -8670.1875, 0.0, 10.000672, 9.998486 
4.5003545e+1, 2.651238e+2, -326155.25, -490395.84, 7864.0366, 0.020737063, -0.0666613, -325779.6, 16000.232, 0.0, 10.000785, 9.998603 
4.5003945e+1, 2.751221e+2, -246283.44, -404347.94, 9665.593, 0.026524462, -0.09945034, -245694.6, -1897.7794, 0.0, 10.000674, 9.998573 
4.5004255e+1, 2.8512096e+2, -136274.34, -311887.8, 7517.0366, 0.027116721, -0.06603889, -135953.16, 9855.0205, 0.000000014278152, 10.000807, 9.99847 
4.5004386e+1, 2.9512024e+2, 23001.727, -178792.92, 8360.96, 0.014975161, 0.012029352, 23347.555, 71162.82, 0.0000058442592, 10.001204, 9.998521 
4.5004302e+1, 3.0511677e+2, 92797.38, -109202.96, 12118.64, -0.024136303, -0.19541559, 93521.82, 93521.82, 0.000066210356, 10.001301, 9.998622 
4.5004454e+1, 3.15117e+2, 116056.45, -4211.769, 24442.846, -0.046220336, -0.02657063, 120834.31, 120834.31, 0.0002424885, 10.001056, 9.999462 
5.4997605e+1, 1.2513152e+2, -1770036.0, -1671708.3, -21619.701, -0.015998863, -0.18171111, -1667164.6, 46533.313, 0.0011275938, 9.999319, 10.000625 
5.499749e+1, 1.3513322e+2, -1661540.0, -1608777.3, -10735.16, -0.04428238, -0.032634217, -1606676.6, 9002.934, 0.00066134764, 9.999567, 10.000263 
5.499751e+1, 1.4513151e+2, -1577857.6, -1559508.3, -9185.475, -0.052222308, -0.21387841, -1555700.4, -38004.574, 0.00028458898, 9.999647, 9.999885 
5.4998e+1, 1.5513171e+2, -1498418.0, -1483552.0, -13279.434, -0.010566546, -0.17685115, -1475766.9, -56072.94, 0.00007188515, 9.999576, 9.999767 
5.499852e+1, 1.6513182e+2, -1379672.1, -1366315.1, 12895.386, 0.0007433846, -0.14630784, -1358471.4, -36779.234, 0.0000055425044, 9.9996805, 9.999849 
5.4999083e+1, 1.7513144e+2, -1240948.6, -1251794.6, 18882.504, -0.017421506, -0.17235748, -1226725.9, -3031.1003, 0.00000000116644, 9.999973, 9.999822 
5.4999566e+1, 1.8513095e+2, -1161940.8, -1216172.0, 1101.8296, -0.020699563, -0.17971095, -1161918.4, -36219.055, 0.0, 10.0000725, 9.999347 
5.499997e+1, 1.951305e+2, -1079640.1, -1129957.1, -4527.232, -0.008280558, -0.16094483, -1079236.0, -51531.793, 0.0, 9.999983, 9.99931 
5.500039e+1, 2.0512979e+2, -989534.5, -1059064.5, -329.4701, -0.0018679108, -0.1515926, -989532.94, -59820.953, 0.0, 10.000029, 9.9991 
5.500082e+1, 2.1512878e+2, -867628.44, -953323.25, 3270.637, -0.0013287171, -0.16367534, -867503.8, -35781.145, 0.0, 10.000209, 9.999066 
5.500138e+1, 2.2512783e+2, -777032.8, -883177.8, 13874.307, -0.0026010694, -0.15455152, -775249.25, -41515.855, 0.0, 10.000262, 9.998849 
5.500207e+1, 2.3512696e+2, -690571.56, -794722.25, 10517.51, -0.0057820994, -0.12921618, -689520.06, -53776.27, 0.0, 10.000199, 9.998814 
5.500283e+1, 2.4512604e+2, -581542.1, -705426.2, 13737.812, -0.0034493667, -0.09608746, -580037.0, -42282.027, 0.0, 10.000336, 9.998689 
5.500368e+1, 2.5512508e+2, -437148.06, -588444.8, 20213.258, 0.0043677413, -0.06473249, -434494.1, 5272.7554, 0.0, 10.000669, 9.998658 
5.500419e+1, 2.6512375e+2, -323808.47, -484462.25, 3634.8813, 0.006804731, -0.05984354, -323726.28, 18054.941, 0.0, 10.000781, 9.998645 
5.500442e+1, 2.751222e+2, -243987.97, -398802.8, 5587.7905, 0.0060267737, -0.082866706, -243786.55, 10.760721, 0.0, 10.000672, 9.998612 
5.5004954e+1, 2.8512123e+2, -134612.89, -308583.78, 21916.232, 0.016269494, -0.033246905, -131894.44, 13912.842, 0.000000014996283, 10.000808, 9.998493 
5.500576e+1, 2.9512078e+2, 24233.758, -175176.7, 23984.262, 0.031614285, 0.068129, 27077.918, 74890.24, 0.0000053587105, 10.001199, 9.998548 
5.5005664e+1, 3.0511725e+2, 87880.73, -118478.5, 3056.3953, -0.018822832, -0.14155853, 87925.99, 87925.99, 0.00006167987, 10.001298, 9.99856 
5.5005264e+1, 3.1511712e+2, 104465.555, -27141.178, 18564.906, -0.07198017, -0.0018461538, 107034.25, 107034.25, 0.00022941288, 10.001052, 9.999306 
6.4996934e+1, 1.2513103e+2, -1773762.6, -1663268.1, -7460.3125, -0.011431171, -0.16050214, -1662766.8, 50937.266, 0.001052614, 9.99925, 10.000714 
6.499691e+1, 1.3513273e+2, -1702117.0, -1611605.4, -15756.475, -0.041425522, -0.028501023, -1608940.9, 6744.2466, 0.00060904585, 9.999217, 10.000412 
6.499699e+1, 1.4513102e+2, -1622234.9, -1584332.9, -17234.967, -0.053946793, -0.21428214, -1577667.9, -59966.88, 0.000254567, 9.999358, 9.999854 
6.4997613e+1, 1.5513128e+2, -1480877.1, -1478391.8, -14815.146, -0.013543491, -0.16754425, -1464767.3, -45068.53, 0.00005931439, 9.999712, 9.999738 
6.499823e+1, 1.6513142e+2, -1347240.9, -1345722.8, 10740.179, -0.0058711506, -0.13648105, -1335714.8, -14017.976, 0.0000034805446, 9.999882, 9.999893 
6.4998865e+1, 1.75131e+2, -1253467.8, -1252937.8, 8170.0737, -0.03159393, -0.17109196, -1245028.4, -21329.117, 0.00000000000024211628, 9.999867, 9.999865 
6.499946e+1, 1.8513046e+2, -1184310.0, -1233774.9, -12786.821, -0.032150824, -0.18046826, -1181200.1, -55496.05, 0.0, 9.999949, 9.999285 
6.5000045e+1, 1.9512999e+2, -1061743.5, -1127622.4, -11630.755, -0.0062413034, -0.15779196, -1059750.4, -32040.8, 0.0, 10.0001335, 9.999252 
6.500053e+1, 2.0512927e+2, -963419.4, -1039378.1, -5003.3794, 0.0014779895, -0.15057394, -963091.2, -33373.85, 0.0, 10.000178, 9.999164 
6.5000886e+1, 2.1512827e+2, -880988.56, -952825.06, -3708.4946, -0.009352084, -0.16991463, -880797.6, -49070.02, 0.0, 10.000088, 9.999127 
6.500152e+1, 2.251273e+2, -798906.25, -898011.0, 8675.999, -0.0077219186, -0.1628209, -798152.44, -64414.176, 0.0, 10.000131, 9.998811 
6.5002435e+1, 2.351264e+2, -679249.56, -792732.56, 9074.55, 0.0061957943, -0.1363353, -678528.5, -42779.35, 0.0, 10.000293, 9.998782 
6.5003294e+1, 2.4512555e+2, -573109.0, -692441.2, 14768.309, 0.00840376, -0.09748249, -571308.5, -33548.715, 0.0, 10.000356, 9.998769 
6.5004134e+1, 2.5512478e+2, -481759.4, -600408.94, 14128.328, 0.00025570169, -0.0558022, -480100.25, -40330.035, 0.0, 10.000321, 9.998744 
6.500473e+1, 2.6512358e+2, -365406.8, -495394.84, -5590.9624, -0.0016258837, -0.048782274, -365166.78, -23383.174, 0.0, 10.000457, 9.998727 
6.500512e+1, 2.7512202e+2, -225272.95, -381326.6, -795.66394, 0.004577408, -0.078302436, -225268.89, 18530.486, 0.0, 10.000764, 9.998688 
6.5005845e+1, 2.851211e+2, -115439.46, -303173.4, 19723.244, 0.01708805, -0.024949992, -113389.73, 32419.352, 0.000000013847158, 10.000956, 9.998459 
6.5006834e+1, 2.9512075e+2, -4922.179, -192086.94, 16909.059, 0.029062502, 0.090506226, -3406.83, 44406.89, 0.0000047556837, 10.001011, 9.998523 
6.5006834e+1, 3.0511728e+2, 66347.555, -118392.984, -8826.813, -0.02047364, -0.118870884, 66768.336, 66768.336, 0.000056396846, 10.001105, 9.998653 
6.5006566e+1, 3.1511706e+2, 133118.11, -16743.453, 19907.467, -0.057106875, 0.0021405527, 135717.52, 135717.52, 0.00021408794, 10.001264, 9.999275 
7.499585e+1, 1.2513053e+2, -1783119.1, -1684159.5, -9130.081, -0.046829876, -0.15280055, -1683324.3, 30384.395, 0.0009783517, 9.999255, 10.000568 
7.4996513e+1, 1.3513201e+2, -1706619.8, -1623367.1, -16554.42, -0.003607662, -0.03532309, -1620196.1, -4503.574, 0.00055803865, 9.999226, 10.000327 
7.499671e+1, 1.4513026e+2, -1617914.5, -1576128.1, -4233.59, -0.018771842, -0.22405674, -1575703.5, -57994.652, 0.00022607559, 9.999362, 9.999908 
7.4997e+1, 1.5513064e+2, -1477845.3, -1471166.3, -1325.3606, -0.04598908, -0.17053089, -1470912.9, -51207.816, 0.000048170983, 9.999708, 9.999789 
7.4997663e+1, 1.6513084e+2, -1351913.0, -1354386.3, 10409.235, -0.051009253, -0.1316688, -1342667.1, -20964.91, 0.0000019773436, 9.999878, 9.999836 
7.499872e+1, 1.7513047e+2, -1257200.8, -1261433.9, 8128.377, -0.033389527, -0.15603313, -1250917.9, -27213.44, 0.0, 9.99987, 9.9998045 
7.499953e+1, 1.8512978e+2, -1181866.0, -1228970.6, -5894.569, -0.020836692, -0.18130785, -1181139.5, -55428.574, 0.0, 9.99995, 9.999317 
7.5000113e+1, 1.9512892e+2, -1059792.6, -1122787.4, -4591.827, -0.013016123, -0.2000697, -1059459.6, -31739.676, 0.0, 10.000131, 9.999287 
7.500057e+1, 2.0512833e+2, -961465.56, -1034461.5, -8361.855, -0.0117199505, -0.18395896, -960519.94, -30793.436, 0.0, 10.0001745, 9.999198 
7.5000894e+1, 2.1512792e+2, -878759.6, -947929.44, -6652.496, -0.017130377, -0.14606191, -878125.6, -46394.707, 0.0, 10.000087, 9.999161 
7.5001645e+1, 2.2512701e+2, -797635.2, -895104.6, 14680.036, -0.008435099, -0.13477483, -795472.25, -61731.29, 0.0, 10.00013, 9.998831 
7.500281e+1, 2.3512568e+2, -678165.75, -790303.4, 15285.939, 0.014359727, -0.15571512, -676119.4, -40363.38, 0.0, 10.000292, 9.998799 
7.5003713e+1, 2.4512477e+2, -574009.5, -693764.6, 13368.149, 0.014966633, -0.12252979, -572535.4, -34768.008, 0.0, 10.000353, 9.998761 
7.5004387e+1, 2.5512433e+2, -482235.06, -601273.94, 12954.011, -0.0069632004, -0.046004467, -480841.72, -41066.71, 0.0, 10.000321, 9.998738 
7.5005144e+1, 2.6512325e+2, -356708.6, -477136.5, 5510.0815, -0.006263954, -0.03316411, -356457.0, -14669.961, 0.0, 10.000456, 9.998852 
7.500605e+1, 2.7512157e+2, -217922.64, -365035.2, 11226.103, 0.020403743, -0.08607799, -217070.92, 26732.127, 0.0, 10.00076, 9.998802 
7.5006914e+1, 2.851206e+2, -122382.49, -316911.8, 21688.377, 0.0276446, -0.041527815, -119993.75, 25819.857, 0.000000011324871, 10.000954, 9.998366 
7.5007623e+1, 2.951202e+2, -10462.766, -203609.84, 18926.256, 0.005652311, 0.07912339, -8625.677, 39193.797, 0.000004098041, 10.001012, 9.998444 
7.5007826e+1, 3.051169e+2, 84202.16, -81264.58, -3475.4316, -0.032430287, -0.12662886, 84275.125, 84275.125, 0.000050636394, 10.001105, 9.998907 
7.5008345e+1, 3.1511682e+2, 140392.78, -540.7617, 29068.246, -0.00629243, -0.0139507, 146152.84, 146152.84, 0.00019707165, 10.001259, 9.999388 
8.499501e+1, 1.2512973e+2, -1840263.5, -1729540.6, -17090.45, -0.0406417, -0.15439814, -1726962.6, -13246.258, 0.00090933184, 9.99894, 10.000409 
8.499593e+1, 1.3513115e+2, -1675257.6, -1617911.4, -26831.174, 0.0030760665, -0.033618648, -1607315.5, 8386.442, 0.0005120121, 9.999483, 10.00024 
8.499627e+1, 1.4512941e+2, -1561643.3, -1539454.4, -16959.176, -0.015819635, -0.22181004, -1530283.1, -12564.929, 0.00020159004, 9.999707, 9.999993 
8.499666e+1, 1.551299e+2, -1482814.9, -1464524.8, -11752.025, -0.04729067, -0.16498142, -1458778.9, -39066.4, 0.000039447743, 9.999636, 9.999869 
8.4997386e+1, 1.651301e+2, -1390174.0, -1379828.6, -1778.4082, -0.05466094, -0.12805463, -1379531.4, -57821.805, 0.0000010481418, 9.999646, 9.999773 
8.4998494e+1, 1.7512959e+2, -1278803.1, -1278668.5, -5079.108, -0.03634584, -0.15786766, -1273656.3, -49942.89, 0.0, 9.999752, 9.999743 
8.4999365e+1, 1.8512891e+2, -1199277.8, -1230429.6, -16311.9, -0.024481134, -0.18246926, -1192299.6, -66579.59, 0.0, 9.999801, 9.99938 
8.499999e+1, 1.9512817e+2, -1104993.5, -1137305.6, -12608.206, -0.020780923, -0.19487035, -1100656.0, -72928.1, 0.0, 9.999789, 9.9993515 
8.500053e+1, 2.0512761e+2, -999210.44, -1052074.8, -16171.14, -0.019843036, -0.17811842, -994656.06, -64922.145, 0.0, 9.999913, 9.999203 
8.5000986e+1, 2.1512717e+2, -866734.56, -941800.56, -17320.566, -0.020796798, -0.14492686, -862930.8, -31192.166, 0.0, 10.000168, 9.999166 
8.500179e+1, 2.2512633e+2, -777634.5, -882095.94, 2269.616, -0.012973231, -0.13042, -777585.2, -43837.113, 0.0, 10.000252, 9.998861 
8.5002935e+1, 2.3512512e+2, -692103.0, -793418.8, 3126.9875, 0.0036504376, -0.13935977, -692006.56, -56244.78, 0.0, 10.000181, 9.998832 
8.5003954e+1, 2.4512418e+2, -594820.2, -707522.94, 1829.1641, 0.009481096, -0.11074567, -594790.5, -57016.94, 0.0, 10.000226, 9.998728 
8.5004836e+1, 2.551235e+2, -475485.38, -601835.2, -514.4705, 0.0030799455, -0.053829852, -475483.28, -35700.008, 0.0, 10.000383, 9.998704 
8.500574e+1, 2.6512238e+2, -332692.44, -460291.34, -3873.0789, 0.0019776255, -0.044788785, -332575.0, 9220.534, 0.0, 10.000598, 9.998899 
8.500677e+1, 2.7512088e+2, -200372.78, -350852.44, -4644.6846, 0.012058423, -0.08657561, -200229.56, 43580.395, 0.0, 10.000855, 9.998854 
8.5007775e+1, 2.8511992e+2, -124442.39, -315532.88, -1960.835, 0.02038187, -0.042151645, -124422.27, 21397.848, 0.000000007967864, 10.000928, 9.998389 
8.500863e+1, 2.951195e+2, -33520.555, -211914.72, 3524.062, 0.013712685, 0.07065269, -33450.97, 14375.519, 0.0000034232567, 10.000841, 9.998468 
8.5008985e+1, 3.0511624e+2, 75587.94, -78762.34, -12060.146, -0.022111814, -0.13200581, 76524.57, 76524.57, 0.00004462947, 10.001016, 9.998968 
8.50098e+1, 3.1511614e+2, 152287.02, -4725.3213, 7328.5317, 0.007260109, -0.028214196, 152628.33, 152628.33, 0.00017893763, 10.001382, 9.9993 
9.499438e+1, 1.251286e+2, -1852833.9, -1755802.6, 3873.4841, 0.0012727911, -0.1641292, -1755648.3, -41920.9, 0.0008487081, 9.99894, 10.000229 
9.499519e+1, 1.3513009e+2, -1681959.9, -1633029.4, -6375.4863, -0.021025676, -0.024074852, -1632212.4, -16498.928, 0.00047347447, 9.999488, 10.000134 
9.499569e+1, 1.4512841e+2, -1551859.8, -1519605.4, -19809.08, -0.045944948, -0.20775266, -1510188.8, 7540.422, 0.00018256163, 9.999709, 10.000129 
9.499654e+1, 1.5512905e+2, -1473701.6, -1446577.3, -13867.041, -0.022844847, -0.15133668, -1440742.9, -21021.803, 0.00003354367, 9.9996395, 9.99999 
9.499737e+1, 1.6512913e+2, -1395731.9, -1391547.1, 2382.766, -0.021995896, -0.1260892, -1390468.5, -68749.55, 0.00000057940093, 9.999647, 9.999692 
9.4998217e+1, 1.7512834e+2, -1284127.6, -1289331.3, -753.0619, -0.040235694, -0.17646427, -1284020.8, -60294.734, 0.0, 9.99975, 9.999671 
9.499898e+1, 1.8512785e+2, -1192251.6, -1215671.5, -16851.934, -0.043246664, -0.18322055, -1183440.6, -57709.293, 0.0, 9.9998, 9.999481 
9.4999677e+1, 1.9512776e+2, -1097973.8, -1122918.1, -12652.638, -0.03184948, -0.14216493, -1092679.5, -64946.26, 0.0, 9.99979, 9.999449 
9.50004e+1, 2.0512715e+2, -1001484.3, -1056750.8, -6665.775, -0.024799695, -0.13290347, -1000691.7, -70952.04, 0.0, 9.999913, 9.999171 
9.5001143e+1, 2.1512601e+2, -868633.25, -945567.75, -7631.288, -0.021671114, -0.16667232, -867883.6, -36132.914, 0.0, 10.000167, 9.99914 
9.5001954e+1, 2.251252e+2, -775298.8, -876938.1, -590.4081, -0.022435173, -0.14974388, -775295.4, -41535.56, 0.0, 10.000251, 9.998898 
9.500282e+1, 2.3512474e+2, -689735.06, -788089.6, 638.71826, -0.026707582, -0.08767548, -689730.94, -53964.34, 0.0, 10.000179, 9.998869 
9.5004e+1, 2.4512376e+2, -598849.2, -715643.0, 7377.226, -0.008831444, -0.061245654, -598385.06, -60606.688, 0.0, 10.000225, 9.9986725 
9.500549e+1, 2.5512227e+2, -480116.03, -610962.8, 5794.4795, 0.02891612, -0.08006045, -479859.9, -40064.777, 0.0, 10.000381, 9.998642 
9.5006543e+1, 2.6512098e+2, -335589.03, -465763.2, 5704.199, 0.022157937, -0.08429877, -335339.56, 6469.6226, 0.0, 10.000595, 9.998863 
9.500729e+1, 2.751199e+2, -201850.38, -353970.2, 4772.3657, -0.022189917, -0.07999343, -201700.81, 42119.363, 0.0, 10.000855, 9.998833 
9.500843e+1, 2.8511915e+2, -114151.45, -294048.53, -6017.9854, -0.006890072, -0.026104767, -113950.36, 31878.22, 0.0000000042394483, 10.000928, 9.998536 
9.500985e+1, 2.951186e+2, -25303.344, -193878.75, 1081.974, 0.051641274, 0.06392121, -25296.398, 22538.39, 0.000002739973, 10.000837, 9.998594 
9.5010316e+1, 3.0511534e+2, 65373.793, -98192.59, 2002.1187, 0.008889565, -0.1359385, 65398.297, 65398.297, 0.000038513957, 10.00101, 9.9988365 
9.5010924e+1, 3.1511506e+2, 131435.58, -47312.875, 23534.313, -0.019777063, -0.040954128, 134482.2, 134482.2, 0.00016010099, 10.001379, 9.999009 
1.0499354e+2, 1.2512739e+2, -1819170.9, -1744840.1, -2254.7786, 0.011187247, -0.15594226, -1744771.8, -31031.912, 0.00079770345, 9.999196, 10.00018 
1.04994535e+2, 1.3512895e+2, -1709851.8, -1642062.5, -3517.1477, -0.023962598, -0.012145122, -1641880.5, -26155.123, 0.0004431459, 9.999279, 10.000173 
1.04995176e+2, 1.4512734e+2, -1589562.8, -1533788.1, -23262.342, -0.05341537, -0.19455533, -1525359.6, -7619.082, 0.00016917764, 9.999433, 10.000165 
1.0499621e+2, 1.5512793e+2, -1465415.5, -1439161.3, -25727.387, -0.02205544, -0.14354111, -1423405.5, -3673.1375, 0.000030278157, 9.9996805, 10.000022 
1.049971e+2, 1.6512801e+2, -1379647.0, -1379373.3, -11161.981, -0.01705914, -0.12346774, -1368347.4, -46616.977, 0.0000004316036, 9.999737, 9.999733 
1.0499792e+2, 1.7512724e+2, -1303186.0, -1293699.8, -4973.5625, -0.036965027, -0.1767819, -1291570.3, -67832.9, 0.0, 9.9995985, 9.999715 
1.0499868e+2, 1.8512684e+2, -1217289.0, -1226369.9, -15695.877, -0.044288877, -0.17649731, -1205490.0, -79748.28, 0.0, 9.999622, 9.999493 
1.04999416e+2, 1.9512692e+2, -1093893.6, -1120243.6, -19179.535, -0.038700446, -0.11958916, -1083799.9, -56057.44, 0.0, 9.999814, 9.999456 
1.05000265e+2, 2.0512633e+2, -992904.8, -1050334.4, -10851.012, -0.031764023, -0.110937305, -990922.94, -61174.19, 0.0, 9.999961, 9.999193 
1.05001226e+2, 2.1512504e+2, -882681.9, -949469.2, -8199.786, -0.024631876, -0.16113882, -881689.9, -49929.125, 0.0, 10.000059, 9.999165 
1.05002165e+2, 2.2512417e+2, -795301.1, -895229.0, -9702.476, -0.02147263, -0.1482704, -794367.8, -60597.28, 0.0, 10.000152, 9.99882 
1.05003074e+2, 2.3512371e+2, -686778.8, -795802.06, -17374.18, -0.022109607, -0.07769286, -684076.94, -48299.34, 0.0, 10.000238, 9.998788 
1.0500431e+2, 2.4512272e+2, -582203.8, -703991.44, -7232.6626, -0.0051097767, -0.0516191, -581775.8, -43986.223, 0.0, 10.000323, 9.998705 
1.0500587e+2, 2.5512114e+2, -474143.8, -604246.1, -2998.2153, 0.027570343, -0.07996958, -474074.78, -34268.363, 0.0, 10.000406, 9.998677 
1.05007075e+2, 2.651199e+2, -359528.78, -481364.78, 1881.3528, 0.02271567, -0.081173964, -359499.75, -17679.531, 0.0, 10.000447, 9.998829 
1.0500802e+2, 2.7511892e+2, -263752.13, -387606.56, 584.35974, -0.013421935, -0.061369136, -263749.38, -19918.707, 0.0, 10.000446, 9.998799 
1.0500929e+2, 2.8511813e+2, -153073.03, -311939.06, -15168.023, -0.0005814752, -0.0105033275, -151637.8, -5798.295, 0.0000000012344323, 10.000655, 9.998546 
1.0501073e+2, 2.951174e+2, 6395.9536, -178003.34, -18220.752, 0.046339393, 0.061086852, 8179.1284, 56026.04, 0.0000020653147, 10.001049, 9.998603 
1.050113e+2, 3.0511433e+2, 92496.266, -79951.65, -14916.251, -0.0011714881, -0.12518126, 93776.97, 93776.97, 0.00003243676, 10.00117, 9.998888 
1.05012216e+2, 3.1511408e+2, 71324.88, -88344.49, 20054.133, -0.010307709, -0.02914011, 73805.11, 73805.11, 0.00014094144, 10.001018, 9.998902 
1.1499251e+2, 1.2512608e+2, -1812156.6, -1731892.6, 1004.2437, -0.01397934, -0.13310915, -1731880.1, -18125.777, 0.0007564602, 9.999203, 10.000266 
1.14993945e+2, 1.3512775e+2, -1697171.3, -1615298.9, -380.29745, -0.011241046, 0.0024781958, -1615297.1, 440.80807, 0.00042056636, 9.999275, 10.000359 
1.14994705e+2, 1.4512616e+2, -1595986.4, -1545744.3, -13617.505, -0.044398684, -0.18189418, -1542290.8, -24538.156, 0.00016082273, 9.999427, 10.000086 
1.1499566e+2, 1.5512657e+2, -1470058.9, -1449920.1, -15674.6, -0.045549944, -0.14261943, -1441359.3, -21612.28, 0.000029173776, 9.999685, 9.999946 
1.1499662e+2, 1.6512671e+2, -1366095.0, -1352446.0, -16854.908, -0.040227134, -0.120266125, -1341086.4, -19342.326, 0.0000005105562, 9.999742, 9.999915 
1.14997596e+2, 1.7512628e+2, -1290790.0, -1268244.6, -9886.459, -0.029381303, -0.15809119, -1264523.5, -40776.45, 0.0, 9.999599, 9.999888 
1.14998445e+2, 1.8512587e+2, -1223919.4, -1239801.8, -8464.685, -0.030638557, -0.16205345, -1220254.0, -94502.6, 0.0, 9.999621, 9.999402 
1.1499919e+2, 1.9512565e+2, -1099838.6, -1132504.0, -11619.487, -0.04180341, -0.12734777, -1096127.1, -68371.625, 0.0, 9.999814, 9.9993725 
1.1500013e+2, 2.0512512e+2, -987856.56, -1039522.5, -7268.626, -0.04148874, -0.11184736, -986853.5, -57092.22, 0.0, 9.999959, 9.999268 
1.1500123e+2, 2.1512425e+2, -877605.8, -938704.9, -4291.0645, -0.030457048, -0.12846781, -877305.94, -45536.996, 0.0, 10.000058, 9.999239 
1.1500242e+2, 2.251232e+2, -809145.2, -923575.6, -6590.6855, -0.011021059, -0.12602718, -808766.9, -74986.555, 0.0, 10.00015, 9.998627 
1.150037e+2, 2.3512201e+2, -700384.7, -823782.44, -13748.181, 0.016627071, -0.10928293, -698871.5, -63076.637, 0.0, 10.000237, 9.998596 
1.1500488e+2, 2.4512099e+2, -574814.75, -688080.0, -4309.854, 0.019487651, -0.08151965, -574651.0, -36843.906, 0.0, 10.000321, 9.998816 
1.1500598e+2, 2.5512013e+2, -465921.5, -586776.0, 141.75407, -0.002487622, -0.05359504, -465921.34, -26104.184, 0.0, 10.000404, 9.998798 
1.15007326e+2, 2.651191e+2, -361329.78, -485025.9, 1338.0643, 0.0026230337, -0.03526773, -361315.28, -19486.594, 0.0, 10.000446, 9.998804 
1.1500898e+2, 2.7511796e+2, -267068.66, -393925.84, 950.0263, 0.03757152, -0.03159741, -267061.53, -23220.059, 0.0, 10.000443, 9.998758 
1.15010336e+2, 2.8511688e+2, -162967.36, -330836.47, -525.07446, 0.039315615, 0.003856023, -162965.72, -17112.766, 0.00000000006210851, 10.000649, 9.998419 
1.1501128e+2, 2.9511595e+2, -1661.7705, -194066.64, -3036.0576, -0.004529215, 0.06213403, -1613.8749, 46248.918, 0.0000014487281, 10.001047, 9.998494 
1.1501194e+2, 3.0511317e+2, 108823.48, -45227.445, -20886.98, -0.05427509, -0.09959548, 111605.2, 111605.2, 0.000026628812, 10.001167, 9.999127 
1.1501367e+2, 3.1511325e+2, 75274.93, -78461.19, 15788.098, 0.03192493, 0.006008505, 76879.555, 76879.555, 0.00012196842, 10.001011, 9.998974 
1.2499191e+2, 1.2512478e+2, -1783390.6, -1716217.0, 15519.439, -0.0034204898, -0.12553398, -1712804.8, 963.28894, 0.0007247361, 9.9993925, 10.000282 
1.2499334e+2, 1.351265e+2, -1669035.3, -1590258.9, 5002.3774, -0.005675577, 0.005997343, -1589942.5, 25808.031, 0.00040489552, 9.999421, 10.000461 
1.2499413e+2, 1.4512499e+2, -1594713.5, -1543134.4, -3518.959, -0.044320375, -0.17744054, -1542895.4, -25131.08, 0.00015657058, 9.999426, 10.000105 
1.24995194e+2, 1.5512536e+2, -1508473.0, -1466440.0, 1604.5015, -0.047645383, -0.14174423, -1466378.9, -46619.895, 0.000029665785, 9.9994135, 9.999964 
1.249962e+2, 1.6512552e+2, -1404023.1, -1370910.3, -7064.6064, -0.043408953, -0.11982004, -1369466.0, -47709.953, 0.0000007617598, 9.999481, 9.999915 
1.24997176e+2, 1.7512512e+2, -1285839.0, -1266448.4, -14979.945, -0.03300993, -0.15380633, -1258300.0, -34541.395, 0.0, 9.999635, 9.999886 
1.2499811e+2, 1.851247e+2, -1213709.4, -1235598.0, -13368.744, -0.029756648, -0.16044018, -1207376.5, -81613.4, 0.0, 9.999693, 9.999397 
1.2499902e+2, 1.9512437e+2, -1123508.9, -1144190.4, -10127.212, -0.033089582, -0.1340951, -1119375.8, -91607.81, 0.0, 9.999653, 9.999371 
1.2500006e+2, 2.0512383e+2, -1027833.7, -1065480.1, -5371.3364, -0.033156876, -0.11685047, -1027082.3, -97308.414, 0.0, 9.999714, 9.999208 
1.2500119e+2, 2.1512301e+2, -908084.25, -960578.9, -13505.238, -0.030440906, -0.12174042, -904813.56, -73032.37, 0.0, 9.999878, 9.999176 
1.2500252e+2, 2.251219e+2, -820722.8, -931456.1, -12724.625, -0.013083681, -0.12114298, -819279.44, -85486.22, 0.0, 10.000079, 9.998607 
1.25004e+2, 2.3512055e+2, -690407.56, -820727.4, -7252.6836, 0.018049655, -0.119325966, -690005.2, -54195.81, 0.0, 10.000314, 9.998581 
1.2500526e+2, 2.4511954e+2, -563406.0, -682655.06, -361.93167, 0.021628786, -0.09020011, -563404.9, -25583.357, 0.0, 10.0004, 9.998816 
1.2500633e+2, 2.5511885e+2, -475905.88, -591901.7, -4546.082, -0.0029690505, -0.043732587, -475727.97, -35898.113, 0.0, 10.000337, 9.998796 
1.2500773e+2, 2.6511788e+2, -366529.53, -492982.13, -4363.7256, -0.00085980527, -0.016723678, -366379.13, -24538.188, 0.0, 10.000435, 9.998755 
1.2500948e+2, 2.7511668e+2, -235664.95, -384904.7, -7009.929, 0.032104675, -0.015593844, -235336.42, 8518.276, 0.0, 10.000684, 9.998706 
1.25011e+2, 2.8511545e+2, -143843.72, -322279.6, -1162.3956, 0.034632534, 0.008485105, -143836.14, 2031.3097, 0.0, 10.000782, 9.998415 
1.2501214e+2, 2.951143e+2, -49684.24, -217191.53, 4406.033, -0.006855171, 0.049610656, -49568.426, -1689.9021, 0.00000094519226, 10.000718, 9.998493 
1.250129e+2, 3.0511186e+2, 67625.53, -57669.05, -19169.676, -0.057931077, -0.08560261, 70492.81, 70492.81, 0.000021325412, 10.000854, 9.999193 
1.2501484e+2, 3.15112e+2, 91812.8, -79109.46, 5147.3823, 0.04161429, 0.018007, 91967.67, 91967.67, 0.00010374953, 10.001161, 9.9988985 
1.3499172e+2, 1.2512352e+2, -1790246.0, -1727895.4, 17342.13, 0.03786874, -0.12873648, -1723396.5, -9615.58, 0.0007016644, 9.999382, 10.000208 
1.3499273e+2, 1.3512519e+2, -1667341.1, -1589672.1, 6885.551, -0.009322181, -0.0030732872, -1589066.5, 26697.09, 0.00039489288, 9.999433, 10.000459 
1.3499345e+2, 1.4512376e+2, -1583947.1, -1523031.6, -5220.2495, -0.055284232, -0.18295702, -1522587.5, -4811.427, 0.00015526546, 9.999435, 10.000237 
1.3499476e+2, 1.5512437e+2, -1500155.3, -1448299.4, 1161.2264, -0.032061994, -0.1396435, -1448273.4, -28504.979, 0.000031126172, 9.99941, 10.000091 
1.349958e+2, 1.6512443e+2, -1418570.6, -1399875.4, -1350.9043, -0.030748434, -0.12119765, -1399778.3, -78011.89, 0.0000011270397, 9.999476, 9.999719 
1.3499665e+2, 1.7512375e+2, -1298745.4, -1293793.5, -8767.416, -0.048943978, -0.16504535, -1287159.1, -63387.004, 0.0, 9.999637, 9.999697 
1.3499768e+2, 1.8512326e+2, -1206731.4, -1221786.1, -15177.084, -0.042701226, -0.17214884, -1197317.5, -71540.46, 0.0, 9.999695, 9.999491 
1.3499886e+2, 1.9512309e+2, -1117456.4, -1131776.4, -11369.966, -0.013701098, -0.13989478, -1111179.9, -83399.984, 0.0, 9.999653, 9.999455 
1.3500002e+2, 2.0512246e+2, -1042172.94, -1094853.0, 641.77264, -0.008310245, -0.12586696, -1042165.1, -112378.47, 0.0, 9.999712, 9.999007 
1.3500112e+2, 2.1512134e+2, -922190.0, -989387.3, -6825.008, -0.025280165, -0.1409213, -921503.8, -89706.305, 0.0, 9.999876, 9.99898 
1.3500243e+2, 2.2512029e+2, -810800.2, -910035.1, -3979.6563, -0.029240329, -0.1325437, -810640.9, -76831.71, 0.0, 10.000075, 9.998755 
1.3500394e+2, 2.3511931e+2, -679757.94, -798445.7, 1752.7389, -0.019436361, -0.10856333, -679732.06, -43910.81, 0.0, 10.000313, 9.998734 
1.3500544e+2, 2.4511832e+2, -570790.25, -697832.44, -2941.3533, -0.00023776155, -0.078857824, -570722.2, -32889.1, 0.0, 10.000399, 9.998713 
1.3500696e+2, 2.5511733e+2, -483925.1, -608263.75, -6512.4136, 0.02564437, -0.05043598, -483584.94, -43740.41, 0.0, 10.000336, 9.998685 
1.3500829e+2, 2.6511627e+2, -372718.94, -504710.94, 4847.0195, 0.012125384, -0.025402239, -372541.2, -30684.287, 0.0, 10.00043, 9.998677 
1.3500953e+2, 2.7511507e+2, -240175.95, -393746.88, 2748.3281, -0.032697804, -0.012857077, -240126.8, 3743.4749, 0.0, 10.000682, 9.998645 
1.3501126e+2, 2.8511384e+2, -135437.53, -304791.66, -3713.8352, -0.01754073, 0.0031549486, -135356.13, 10526.899, 0.0, 10.000781, 9.998536 
1.350133e+2, 2.951126e+2, -42854.09, -202137.88, 2765.1895, 0.036945786, 0.022924645, -42806.098, 5088.1274, 0.0000005800232, 10.000713, 9.9986 
1.350142e+2, 3.051104e+2, 59394.797, -71990.22, -8102.1074, -0.012929656, -0.08464838, 59892.543, 59892.543, 0.000016654767, 10.000844, 9.999099 
1.3501574e+2, 3.1511033e+2, 76040.73, -109350.766, 17348.47, 0.01572805, 0.007531653, 77650.18, 77650.18, 0.00008670888, 10.001153, 9.998693 
1.4499117e+2, 1.251226e+2, -1781075.9, -1734519.3, 30189.441, 0.04140988, -0.11286747, -1719675.6, -5885.6226, 0.0006852014, 9.999492, 10.000109 
1.4499228e+2, 1.3512394e+2, -1675719.6, -1595889.3, 15811.154, 0.0029797922, -0.017582288, -1592871.8, 22903.7, 0.00038852147, 9.999385, 10.000439 
1.4499299e+2, 1.4512253e+2, -1586245.8, -1529055.6, 1316.0885, -0.045099597, -0.19296703, -1529025.4, -11237.483, 0.00015533686, 9.99944, 10.000195 
1.4499429e+2, 1.5512328e+2, -1468888.3, -1438593.0, -6881.8745, -0.031042397, -0.12978375, -1437103.0, -17323.746, 0.00003278088, 9.999646, 10.000043 
1.4499536e+2, 1.6512336e+2, -1390754.4, -1386845.4, -10600.226, -0.031597096, -0.11004252, -1378021.0, -56243.66, 0.0000015078091, 9.999668, 9.999716 
1.4499626e+2, 1.7512253e+2, -1316948.6, -1303018.9, -4034.2805, -0.04569549, -0.16758159, -1301934.8, -78150.664, 0.0, 9.999514, 9.999693 
1.4499736e+2, 1.8512195e+2, -1230632.8, -1244971.6, -6129.2314, -0.03797825, -0.17840226, -1228369.9, -102580.03, 0.0, 9.999581, 9.999387 
1.4499865e+2, 1.951217e+2, -1093704.1, -1132273.6, -17841.674, -0.010168883, -0.14255306, -1086716.6, -58923.316, 0.0, 9.9998665, 9.999351 
1.4499994e+2, 2.05121e+2, -993487.2, -1072898.8, -4913.2573, -0.0040368997, -0.13013813, -993184.4, -63383.453, 0.0, 10.000052, 9.998995 
1.450012e+2, 2.1511982e+2, -883898.0, -972038.94, 1292.7513, -0.019164456, -0.14925812, -883879.0, -52066.82, 0.0, 10.000145, 9.998969 
1.4500253e+2, 2.251188e+2, -805656.5, -910787.25, 2291.6167, -0.030201584, -0.1356824, -805606.6, -71783.04, 0.0, 10.000125, 9.998727 
1.4500391e+2, 2.3511793e+2, -727195.6, -824481.8, -5696.094, -0.036404215, -0.098845065, -726863.25, -91028.37, 0.0, 10.000001, 9.998706 
1.4500555e+2, 2.451169e+2, -610631.75, -716369.75, -9025.92, -0.015933761, -0.07237874, -609866.8, -72019.82, 0.0, 10.000122, 9.998718 
1.4500739e+2, 2.5511575e+2, -462907.84, -598005.2, -4782.561, 0.027666973, -0.061287686, -462738.75, -22879.096, 0.0, 10.000479, 9.998686 
1.450088e+2, 2.651146e+2, -348666.03, -502074.8, 9566.909, 0.01094788, -0.041412167, -348071.72, -6199.0063, 0.0, 10.000633, 9.998597 
1.450099e+2, 2.7511337e+2, -261361.3, -411945.97, 6972.0337, -0.057072677, -0.024005314, -261039.19, -17152.865, 0.0, 10.000572, 9.998572 
1.4501175e+2, 2.8511205e+2, -152394.78, -311753.44, -3889.8723, -0.039921187, -0.012357053, -152299.89, -6400.0693, 0.0, 10.00066, 9.998546 
1.4501414e+2, 2.9511073e+2, -15462.768, -189437.95, -5768.078, 0.040503167, -0.0038656595, -15271.739, 32640.4, 0.00000034163278, 10.000902, 9.998596 
1.4501517e+2, 3.0510885e+2, 77809.086, -61705.117, -16242.172, -0.006332249, -0.076551996, 79675.04, 79675.04, 0.000012640429, 10.000961, 9.999114 
1.4501677e+2, 3.1510866e+2, 16813.164, -144739.83, 14795.263, 0.022198036, -0.00034664493, 18156.959, 18156.959, 0.000071064576, 10.000773, 9.998633 
1.549903e+2, 1.2512197e+2, -1787477.0, -1750186.4, 26714.625, 0.0017889944, -0.08258003, -1736253.8, -22457.766, 0.0006719969, 9.999502, 9.999997 
1.549919e+2, 1.3512279e+2, -1678294.3, -1600620.1, 11714.527, 0.026473751, -0.036272924, -1598891.8, 16894.469, 0.00038301162, 9.999381, 10.000408 
1.549927e+2, 1.451213e+2, -1603045.1, -1562248.8, 8763.621, -0.018410167, -0.20589153, -1560445.9, -42646.098, 0.00015494693, 9.9994335, 9.9999695 
1.5499379e+2, 1.5512213e+2, -1484007.3, -1471005.1, 1262.1213, -0.046464276, -0.11315786, -1470883.8, -51092.027, 0.000033834087, 9.999651, 9.999818 
1.5499489e+2, 1.6512224e+2, -1376110.3, -1357964.0, -17089.979, -0.047783554, -0.08770035, -1347688.0, -25898.629, 0.0000017896223, 9.999674, 9.99991 
1.54996e+2, 1.7512146e+2, -1303777.3, -1275466.4, -9621.726, -0.025368517, -0.16042468, -1272505.9, -48711.32, 0.0, 9.999513, 9.999882 
1.5499714e+2, 1.8512075e+2, -1252192.1, -1289386.8, 4368.6934, -0.018188383, -0.17828205, -1251685.9, -125884.55, 0.0, 9.999579, 9.9990835 
1.5499839e+2, 1.9512022e+2, -1114491.3, -1175372.3, -6890.7314, -0.023670096, -0.14244929, -1113721.1, -85912.48, 0.0, 9.999866, 9.999055 
1.5499982e+2, 2.0511945e+2, -981381.2, -1047502.7, -1672.8748, -0.021855386, -0.1294605, -981338.94, -51522.273, 0.0, 10.000051, 9.999169 
1.550014e+2, 2.1511845e+2, -871946.3, -947186.56, 4977.1357, -0.01364149, -0.14780022, -871618.5, -39793.117, 0.0, 10.000144, 9.999141 
1.5500277e+2, 2.2511744e+2, -819841.6, -939933.06, -2608.999, -0.017728228, -0.13175607, -819784.94, -85948.28, 0.0, 10.000124, 9.998528 
1.5500395e+2, 2.351164e+2, -741405.4, -853816.3, -9890.716, -0.033018786, -0.09005507, -740541.75, -104691.53, 0.0, 10.0, 9.998506 
1.5500557e+2, 2.4511528e+2, -603169.8, -700306.06, 4245.7935, -0.026342385, -0.06979206, -602984.56, -65121.383, 0.0, 10.00012, 9.99883 
1.550076e+2, 2.5511405e+2, -454922.9, -581414.7, 8887.515, 0.000050115155, -0.07654556, -454301.5, -14426.112, 0.0, 10.000479, 9.9988 
1.5500925e+2, 2.6511282e+2, -354123.4, -513237.9, 7301.2974, -0.0073873373, -0.06613163, -353789.06, -11900.429, 0.0, 10.000632, 9.998521 
1.5501064e+2, 2.7511156e+2, -267162.22, -423273.66, 4930.8916, -0.042227298, -0.049218774, -267006.63, -23103.672, 0.0, 10.000568, 9.998496 
1.550125e+2, 2.8511012e+2, -159715.86, -326334.38, 4821.886, -0.032607306, -0.038547684, -159576.42, -13658.508, 0.0, 10.000657, 9.998447 
1.5501466e+2, 2.9510865e+2, -22117.56, -203816.25, 4474.5884, 0.0015498193, -0.031134656, -22007.434, 25924.871, 0.00000019535571, 10.000904, 9.998497 
1.5501578e+2, 3.0510724e+2, 85781.46, -44711.22, -22622.418, -0.04239355, -0.061705355, 89592.05, 89592.05, 0.000009261703, 10.00096, 9.99923 
1.5501785e+2, 3.1510696e+2, 21180.148, -134261.05, 8287.331, 0.052039888, -0.0043013007, 21620.738, 21620.738, 0.000056915687, 10.000768, 9.998707 
1.6498972e+2, 1.251208e+2, -1791858.0, -1762538.9, 13805.217, -0.006164603, -0.08507598, -1757061.8, -43254.58, 0.00065754744, 9.999514, 9.999907 
1.6499133e+2, 1.3512158e+2, -1642540.9, -1585590.4, -3797.5027, 0.020666515, -0.03939899, -1585338.3, 30459.54, 0.00037533476, 9.999635, 10.000388 
1.6499221e+2, 1.4512019e+2, -1584223.4, -1556800.4, 1557.8846, -0.017530557, -0.19889241, -1556712.1, -38901.355, 0.00015252095, 9.9995775, 9.999937 
1.6499348e+2, 1.5512091e+2, -1529732.9, -1496752.8, 7959.99, -0.028491173, -0.11304073, -1494932.0, -75128.05, 0.000033788867, 9.999352, 9.999785 
1.6499464e+2, 1.65121e+2, -1414951.4, -1379994.5, -7491.2896, -0.027160978, -0.08604487, -1378456.8, -56654.707, 0.0000018950186, 9.999422, 9.999881 
1.649957e+2, 1.751203e+2, -1267951.9, -1261865.0, -17955.846, -0.017913923, -0.14764716, -1246696.5, -22889.996, 0.0, 9.999774, 9.999849 
1.649969e+2, 1.8511954e+2, -1200544.6, -1263838.1, 1437.298, -0.017539272, -0.16869499, -1200512.0, -74698.45, 0.0, 9.999931, 9.999088 
1.6499828e+2, 1.9511884e+2, -1107910.3, -1171648.6, 12850.123, -0.024453308, -0.14882919, -1105417.1, -77595.484, 0.0, 9.999908, 9.99906 
1.6499978e+2, 2.0511805e+2, -1004664.1, -1071512.0, 17399.484, -0.024922205, -0.13487646, -1000406.44, -70576.24, 0.0, 9.999946, 9.999056 
1.6500144e+2, 2.151171e+2, -894418.3, -970451.5, 1787.4913, -0.02019471, -0.13681628, -894376.3, -62536.914, 0.0, 10.000043, 9.999029 
1.650029e+2, 2.2511604e+2, -812093.1, -934812.5, -10410.903, -0.020008415, -0.120113716, -811216.2, -77365.08, 0.0, 10.000171, 9.99854 
1.6500421e+2, 2.351149e+2, -692312.25, -828892.06, -1988.1693, -0.023733867, -0.09058735, -692283.4, -56418.31, 0.0, 10.000332, 9.998516 
1.6500588e+2, 2.451137e+2, -566964.7, -691287.3, 19086.414, -0.022015365, -0.07561644, -564100.5, -26221.959, 0.0, 10.000404, 9.9987545 
1.6500786e+2, 2.551124e+2, -473235.84, -597740.7, 9643.539, -0.016734248, -0.081592254, -472493.34, -32601.885, 0.0, 10.000386, 9.998733 
1.6500966e+2, 2.6511115e+2, -372216.28, -519045.8, 2449.9998, -0.024261076, -0.070643045, -372175.44, -30270.643, 0.0, 10.000497, 9.998546 
1.6501132e+2, 2.751099e+2, -242134.64, -408879.97, 6947.021, -0.03838546, -0.05390911, -241845.7, 2073.0007, 0.0, 10.0007305, 9.998516 
1.6501324e+2, 2.8510845e+2, -143693.48, -318546.53, 12724.072, -0.028013574, -0.04394047, -142772.4, 3161.4702, 0.0, 10.000768, 9.998446 
1.6501528e+2, 2.9510704e+2, -67467.41, -225504.52, 19316.266, -0.0118998205, -0.035286725, -65140.707, -17191.945, 0.00000010392393, 10.000594, 9.998496 
1.6501635e+2, 3.0510598e+2, 47305.645, -59241.766, -5567.264, -0.06511108, -0.028183471, 47595.75, 47595.75, 0.0000064948904, 10.000678, 9.999265 
1.6501866e+2, 3.1510544e+2, 57762.668, -110001.84, 16491.578, 0.045600727, -0.006027379, 59368.453, 59368.453, 0.00004432351, 10.00099, 9.998765 
1.7498945e+2, 1.251191e+2, -1796921.9, -1772658.5, 20392.27, 0.012344289, -0.118198335, -1761062.1, -47238.93, 0.0006370072, 9.999512, 9.999838 
1.7499061e+2, 1.3512032e+2, -1642411.3, -1586791.5, 1210.4443, -0.016381104, -0.02834658, -1586765.1, 29045.172, 0.00036284848, 9.99964, 10.000378 
1.7499155e+2, 1.4511915e+2, -1572107.1, -1533059.3, -7818.2383, -0.044400565, -0.17386378, -1531552.0, -13730.881, 0.00014707113, 9.999583, 10.000097 
1.7499332e+2, 1.5511961e+2, -1518492.3, -1473455.4, -159.87587, 0.019935122, -0.12804879, -1473454.9, -53638.953, 0.00003249045, 9.999352, 9.999945 
1.7499462e+2, 1.6511965e+2, -1433038.1, -1417428.1, 5405.292, 0.02716071, -0.10365058, -1415739.1, -93924.1, 0.0000018022155, 9.999421, 9.999625 
1.7499541e+2, 1.7511903e+2, -1285715.9, -1298658.3, -4601.7227, -0.024581749, -0.12966985, -1284246.5, -60426.363, 0.0, 9.999774, 9.999598 
1.7499663e+2, 1.8511832e+2, -1178428.8, -1218241.8, 354.7225, -0.038214266, -0.14986388, -1178425.6, -52599.227, 0.0, 9.999932, 9.999401 
1.749983e+2, 1.9511761e+2, -1086607.4, -1127270.8, 12291.034, -0.013501025, -0.16189255, -1083181.0, -55348.586, 0.0, 9.9999075, 9.999365 
1.7499983e+2, 2.0511678e+2, -1032948.6, -1130005.4, 20865.953, -0.01440823, -0.1463053, -1028652.9, -98811.195, 0.0, 9.999945, 9.998654 
1.7500128e+2, 2.1511576e+2, -922404.4, -1028179.75, 5776.423, -0.039876144, -0.116365366, -922089.9, -90235.65, 0.0, 10.000041, 9.998634 
1.7500289e+2, 2.2511461e+2, -796477.25, -901989.4, -4616.4365, -0.03857858, -0.099975914, -796275.7, -62408.76, 0.0, 10.000169, 9.998766 
1.7500469e+2, 2.3511338e+2, -676768.0, -796825.94, 4312.5674, -0.010390101, -0.101569116, -676613.3, -40733.844, 0.0, 10.000332, 9.998736 
1.7500645e+2, 2.4511209e+2, -585238.7, -729109.8, 18206.03, -0.0047441893, -0.09128778, -582970.56, -45077.34, 0.0, 10.000404, 9.998495 
1.7500818e+2, 2.5511077e+2, -491053.7, -634391.75, 9182.901, -0.023406744, -0.076512076, -490467.78, -50559.855, 0.0, 10.000384, 9.998481 
1.7501e+2, 2.6510957e+2, -363343.56, -500685.63, 11023.56, -0.03954932, -0.0548666, -362464.4, -20543.152, 0.0, 10.000497, 9.9986725 
1.7501196e+2, 2.751084e+2, -233200.38, -390863.6, 16087.32, -0.047701474, -0.038979992, -231575.64, 12358.051, 0.0, 10.000732, 9.99864 
1.75014e+2, 2.8510708e+2, -137594.2, -305807.1, 6119.26, -0.029572288, -0.029055757, -137371.89, 8575.947, 0.0, 10.000768, 9.998534 
1.7501596e+2, 2.9510581e+2, -62350.176, -213792.06, 13614.932, -0.003280841, -0.016031798, -61135.902, -13174.187, 0.00000004563321, 10.000589, 9.998578 
1.7501692e+2, 3.0510512e+2, 44981.39, -63887.965, 5970.234, -0.07703886, 0.024591146, 45307.81, 45307.81, 0.000004309572, 10.000677, 9.999233 
1.750192e+2, 3.1510404e+2, 62074.65, -102288.68, 26720.81, 0.0007517439, -0.0022982357, 66309.58, 66309.58, 0.000033325945, 10.000995, 9.9988165 
1.8498892e+2, 1.2511751e+2, -1788427.4, -1758167.9, 6779.2964, 0.008848275, -0.124443635, -1756718.5, -42879.465, 0.0006065531, 9.999526, 9.999929 
1.8499006e+2, 1.3511886e+2, -1702715.9, -1600800.6, -4861.7983, -0.011655415, -0.03564809, -1600569.3, 15255.246, 0.00034376056, 9.999163, 10.000511 
1.8499103e+2, 1.4511786e+2, -1627287.9, -1558921.9, -5990.911, -0.03525051, -0.16971658, -1558400.9, -40567.51, 0.00013809917, 9.999202, 10.000104 
1.8499292e+2, 1.5511827e+2, -1478289.0, -1453147.5, -10606.557, 0.031655792, -0.13125704, -1449270.6, -29441.762, 0.000029920388, 9.999624, 9.999952 
1.8499431e+2, 1.6511825e+2, -1386740.0, -1400456.3, -1814.24, 0.037697084, -0.10986483, -1386504.1, -64675.46, 0.0000015280342, 9.999763, 9.999577 
1.8499516e+2, 1.7511763e+2, -1310092.9, -1315548.8, 3446.1733, -0.020160839, -0.13122179, -1308425.6, -84591.67, 0.0, 9.999628, 9.999552 
1.8499647e+2, 1.8511693e+2, -1206522.4, -1229704.4, 6899.7676, -0.036537495, -0.14842701, -1204624.3, -78784.234, 0.0, 9.99973, 9.99942 
1.8499829e+2, 1.9511625e+2, -1063005.6, -1113611.4, -3653.303, -0.011971138, -0.16024143, -1062743.3, -34897.645, 0.0, 10.00006, 9.999386 
1.8499993e+2, 2.0511542e+2, -998534.94, -1119736.8, 3879.99, -0.013732014, -0.14175957, -998410.9, -68555.92, 0.0, 10.000209, 9.998598 
1.8500137e+2, 2.1511441e+2, -904214.0, -1025767.44, 14173.694, -0.041423395, -0.105006754, -902583.2, -70715.22, 0.0, 10.000193, 9.998578 
1.8500307e+2, 2.2511324e+2, -782050.6, -898135.25, 12357.702, -0.0435428, -0.08863016, -780749.7, -46868.6, 0.0, 10.000281, 9.998738 
1.85005e+2, 2.351119e+2, -658515.06, -790816.5, 1863.1119, -0.01964638, -0.09650546, -658488.9, -22594.768, 0.0, 10.00047, 9.998712 
1.8500684e+2, 2.4511056e+2, -570646.56, -730400.3, 6573.9224, -0.013782628, -0.089453034, -570376.5, -32467.887, 0.0, 10.000541, 9.99842 
1.8500857e+2, 2.5510913e+2, -479747.25, -637453.75, 10706.706, -0.028097257, -0.0745941, -479023.72, -39099.344, 0.0, 10.0005, 9.9984045 
1.8501045e+2, 2.6510796e+2, -360370.94, -496803.1, 21517.814, -0.04484159, -0.046941202, -357057.66, -15120.156, 0.0, 10.000507, 9.998693 
1.8501249e+2, 2.7510697e+2, -257474.4, -399645.56, 18416.488, -0.057975117, -0.019922042, -255127.52, -11178.93, 0.0, 10.000554, 9.998665 
1.8501464e+2, 2.851056e+2, -153426.77, -312258.4, -3345.4841, -0.036551673, -0.01592632, -153356.33, -7393.1914, 0.0, 10.000654, 9.998544 
1.8501669e+2, 2.951041e+2, -31987.945, -199118.53, -2359.7446, 0.00091660477, -0.022584014, -31954.633, 16024.276, 0.000000013949684, 10.000798, 9.998578 
1.8501765e+2, 3.0510372e+2, 68987.055, -64284.426, -8588.647, -0.083447, 0.053614866, 69538.266, 69538.266, 0.0000026617806, 10.000894, 9.999126 
1.8501996e+2, 3.1510243e+2, 54870.984, -98641.05, 2943.5176, -0.020953013, 0.01533471, 54927.402, 54927.402, 0.00002394661, 10.000916, 9.9988785 
1.9498819e+2, 1.25116e+2, -1770957.1, -1722674.6, -5213.356, -0.018459236, -0.10416006, -1722118.1, -8263.525, 0.0005643703, 9.999529, 10.000172 
1.9498968e+2, 1.351172e+2, -1683082.4, -1560260.1, -17853.078, 0.03255331, -0.060117435, -1557717.6, 58122.64, 0.00031730495, 9.999163, 10.00079 
1.9499066e+2, 1.4511634e+2, -1637626.0, -1580626.5, 9671.159, 0.0066504637, -0.1852822, -1579030.3, -61182.78, 0.00012543245, 9.999202, 9.999954 
1.9499229e+2, 1.5511686e+2, -1488194.9, -1474223.3, 5566.8076, 0.0055398494, -0.12303531, -1472276.4, -52433.434, 0.000026112697, 9.999626, 9.999807 
1.9499373e+2, 1.6511679e+2, -1375308.5, -1376884.6, -7163.8726, 0.0027417357, -0.10526188, -1368889.5, -47046.56, 0.0000011234973, 9.999763, 9.999739 
1.9499494e+2, 1.7511609e+2, -1298974.0, -1292377.4, -1072.1301, -0.0054808874, -0.15185295, -1292207.5, -68359.51, 0.0, 9.999628, 9.999711 
1.9499645e+2, 1.8511538e+2, -1225632.9, -1269265.5, 19201.066, -0.014145469, -0.16378215, -1218386.6, -92532.25, 0.0, 9.99973, 9.999148 
1.9499826e+2, 1.9511476e+2, -1081887.4, -1152544.5, 8764.165, -0.02079688, -0.14361848, -1080816.5, -52955.22, 0.0, 10.000058, 9.999119 
1.9500004e+2, 2.0511398e+2, -978331.25, -1077540.0, 3053.4404, -0.024617614, -0.12052114, -978237.4, -48367.27, 0.0, 10.000207, 9.998889 
1.9500172e+2, 2.1511307e+2, -884515.1, -984610.2, 14125.194, -0.026123114, -0.10353749, -882560.0, -50679.246, 0.0, 10.000192, 9.998861 
1.9500342e+2, 2.2511189e+2, -802103.1, -939440.6, 19180.16, -0.03597078, -0.08648928, -799474.75, -65580.97, 0.0, 10.00028, 9.998455 
1.9500513e+2, 2.3511049e+2, -677933.6, -830882.56, 9151.942, -0.052367244, -0.07556808, -677387.94, -41478.977, 0.0, 10.000468, 9.998437 
1.9500703e+2, 2.4510902e+2, -563080.44, -714769.75, 4706.6626, -0.04988406, -0.069963984, -562934.56, -25009.85, 0.0, 10.000541, 9.998528 
1.9500904e+2, 2.5510752e+2, -472657.2, -622901.06, 9402.512, -0.032156788, -0.07638633, -472071.03, -32130.166, 0.0, 10.0005, 9.998505 
1.9501099e+2, 2.6510635e+2, -366704.47, -510083.06, 22981.68, -0.041554257, -0.047003902, -363110.88, -21157.201, 0.0, 10.000507, 9.998603 
1.9501293e+2, 2.751055e+2, -263377.1, -411695.4, 20249.771, -0.07097785, 0.0035027934, -260662.11, -16698.56, 0.0, 10.000553, 9.998583 
1.9501515e+2, 2.8510395e+2, -158063.08, -321468.34, 1985.9406, -0.05025279, -0.003931323, -158038.94, -12059.035, 0.0, 10.000652, 9.998481 
1.9501749e+2, 2.9510194e+2, -37646.496, -211335.56, 3998.09, -0.0002866411, -0.055604164, -37554.516, 10446.004, 0.0000000023315327, 10.0008, 9.998493 
1.9501853e+2, 3.0510178e+2, 56219.31, -91321.06, -8356.344, -0.08550716, 0.058674254, 56691.082, 56691.082, 0.0000014940416, 10.000896, 9.998939 
1.9502082e+2, 3.151006e+2, 57832.047, -91787.27, 1162.6829, -0.025492087, 0.04998806, 57841.082, 57841.082, 0.000016254342, 10.000913, 9.998927 
2.0498742e+2, 1.2511447e+2, -1866214.1, -1765653.0, 9973.919, -0.0155206425, -0.09845898, -1764673.3, -50803.387, 0.0005112227, 9.998865, 10.000196 
2.0498918e+2, 1.3511558e+2, -1640136.8, -1534379.5, -24997.395, 0.053357933, -0.06597691, -1528768.6, 87087.51, 0.00028397882, 9.999437, 10.000835 
2.0499022e+2, 1.4511484e+2, -1585642.1, -1560855.4, -2425.8293, 0.022440005, -0.18082279, -1560620.1, -42757.77, 0.000109345056, 9.999582, 9.9999075 
2.0499173e+2, 1.5511525e+2, -1535042.4, -1501177.8, 852.69366, 0.0013038357, -0.122771844, -1501156.3, -81297.4, 0.000021261263, 9.999324, 9.999769 
2.0499328e+2, 1.6511516e+2, -1418182.1, -1392248.6, -8196.008, -0.0046124365, -0.109236784, -1389875.5, -68016.65, 0.00000067965186, 9.999445, 9.999786 
2.0499475e+2, 1.7511448e+2, -1251295.0, -1264058.5, -11384.291, -0.0024868043, -0.15778457, -1244625.8, -20762.53, 0.0, 9.999932, 9.999759 
2.0499644e+2, 1.8511376e+2, -1178197.0, -1257674.5, 8993.584, -0.007786559, -0.17041813, -1177192.0, -51322.016, 0.0, 10.000104, 9.999048 
2.049983e+2, 1.9511302e+2, -1100275.5, -1172119.1, 11160.208, -0.017850868, -0.15054417, -1098581.9, -70703.5, 0.0, 9.999979, 9.999023 
2.0500019e+2, 2.0511225e+2, -996277.2, -1080031.6, 4533.8853, -0.020024858, -0.12633812, -996032.5, -66145.12, 0.0, 10.000058, 9.998943 
2.0500208e+2, 2.151114e+2, -859613.1, -966282.7, -2512.1338, -0.015857086, -0.106242694, -859554.0, -27657.09, 0.0, 10.000336, 9.998918 
2.0500383e+2, 2.2511028e+2, -783429.75, -933444.5, 1541.9109, -0.030761324, -0.08615679, -783413.94, -49504.344, 0.0, 10.000422, 9.998428 
2.0500542e+2, 2.3510885e+2, -700625.75, -844628.1, 10055.189, -0.06278576, -0.07327218, -699927.0, -64001.87, 0.0, 10.000325, 9.998411 
2.0500733e+2, 2.451074e+2, -587251.25, -725225.2, 12395.732, -0.06432443, -0.06722183, -586146.44, -48205.4, 0.0, 10.000371, 9.998537 
2.0500949e+2, 2.5510588e+2, -464643.75, -617995.75, 9574.066, -0.039083242, -0.07344984, -464048.3, -24091.332, 0.0, 10.000551, 9.998513 
2.0501156e+2, 2.651047e+2, -345002.72, -506479.34, 21298.055, -0.044329446, -0.044495586, -342240.84, -270.81522, 0.0, 10.000686, 9.998542 
2.0501356e+2, 2.7510375e+2, -236457.7, -405678.7, 19542.938, -0.0727189, 0.0056909267, -234230.06, 9750.443, 0.0, 10.000768, 9.998521 
2.0501587e+2, 2.851021e+2, -138890.25, -318856.72, 2638.068, -0.052698515, -0.008111338, -138851.58, 7146.439, 0.0, 10.000813, 9.998423 
2.0501825e+2, 2.950999e+2, -39821.08, -219916.5, 5206.05, -0.004342268, -0.07134635, -39670.715, 8349.53, 0.000000000097020676, 10.000818, 9.9984255 
2.050193e+2, 3.0509984e+2, 40557.71, -123728.07, -7121.9326, -0.09697497, 0.064079925, 40865.875, 40865.875, 0.00000072960836, 10.000895, 9.998719 
2.0502166e+2, 3.1509835e+2, 73756.28, -78900.69, -5589.481, -0.038104784, 0.044545412, 73960.664, 73960.664, 0.000010315381, 10.000998, 9.998977 
2.1498659e+2, 1.2511289e+2, -1879882.1, -1795126.6, 35072.902, 0.013637879, -0.10570122, -1782495.4, -68610.64, 0.00045034575, 9.998869, 9.999993 
2.149886e+2, 1.3511401e+2, -1653340.9, -1562683.0, -3241.9812, 0.04936192, -0.053579237, -1562567.1, 53305.094, 0.0002457903, 9.99944, 10.00064 
2.1498969e+2, 1.4511332e+2, -1581117.3, -1551915.5, -12699.432, 0.00973025, -0.15657295, -1547165.4, -29287.17, 0.00009091271, 9.999584, 9.999969 
2.1499123e+2, 1.5511347e+2, -1530328.1, -1491291.3, -8067.6465, 0.017990796, -0.13024913, -1489689.6, -69813.19, 0.000015871614, 9.999324, 9.999838 
2.1499291e+2, 1.6511333e+2, -1422858.1, -1401942.3, 10061.624, 0.013702518, -0.1213208, -1397887.9, -76011.19, 0.00000031009594, 9.999445, 9.99972 
2.1499458e+2, 1.7511281e+2, -1255678.8, -1273908.3, 6928.155, -0.012507207, -0.14872989, -1253344.6, -29464.807, 0.0, 9.999935, 9.99969 
2.1499641e+2, 1.8511201e+2, -1172599.3, -1246373.0, 4113.996, -0.019822553, -0.16822924, -1172370.5, -46483.703, 0.0, 10.000105, 9.9991255 
2.1499842e+2, 1.9511102e+2, -1094967.5, -1161160.6, 6959.76, -0.003953554, -0.18145755, -1094243.6, -66346.65, 0.0, 9.999979, 9.999099 
2.1500045e+2, 2.0511016e+2, -1009076.1, -1106104.0, 14939.116, -0.0009694866, -0.1595273, -1006828.1, -76921.22, 0.0, 10.000056, 9.998765 
2.1500248e+2, 2.1510942e+2, -871899.06, -991512.5, 8242.5205, -0.011845089, -0.112567544, -871333.7, -39417.24, 0.0, 10.000335, 9.998745 
2.1500425e+2, 2.2510837e+2, -767524.5, -900052.56, -2413.8076, -0.029311188, -0.08747458, -767480.56, -33552.098, 0.0, 10.00042, 9.998659 
2.1500586e+2, 2.3510703e+2, -685194.2, -812264.1, 6758.019, -0.051790297, -0.0897995, -684835.75, -48893.08, 0.0, 10.000324, 9.998634 
2.1500777e+2, 2.4510565e+2, -593478.0, -738244.9, 18764.69, -0.05780812, -0.08066617, -591085.25, -53127.65, 0.0, 10.000371, 9.998448 
2.1500993e+2, 2.5510427e+2, -470216.16, -629504.6, 16520.992, -0.05028955, -0.066114366, -468520.7, -28547.89, 0.0, 10.00055, 9.998435 
2.1501215e+2, 2.6510304e+2, -348092.78, -512394.63, 24319.857, -0.054214913, -0.039405014, -344568.56, -2581.9292, 0.0, 10.000684, 9.998502 
2.1501441e+2, 2.751018e+2, -239989.36, -412818.94, 22943.521, -0.064227514, -0.0139563065, -236995.42, 7004.2188, 0.0, 10.000768, 9.998472 
2.1501675e+2, 2.8510007e+2, -142783.39, -327053.47, 1975.7242, -0.044452198, -0.028666843, -142762.22, 3255.461, 0.0, 10.000813, 9.998367 
2.1501897e+2, 2.9509807e+2, -43200.746, -227582.31, 5641.0664, -0.014269234, -0.06977255, -43028.32, 5009.9277, 0.0, 10.00082, 9.998373 
2.1501996e+2, 3.0509788e+2, 22624.46, -159471.83, -2813.1348, -0.12015329, 0.07081107, 22667.91, 22667.91, 0.0000002906552, 10.000891, 9.998475 
2.1502243e+2, 3.1509563e+2, 77425.945, -70845.625, -5038.572, -0.06183148, 0.00016400855, 77596.97, 77596.97, 0.0000060416633, 10.000998, 9.999032 
2.2498594e+2, 1.2511119e+2, -1802036.8, -1765604.1, 19645.668, 0.03407716, -0.09717662, -1757028.9, -43127.316, 0.0003861587, 9.999438, 9.999922 
2.2498779e+2, 1.3511221e+2, -1725785.6, -1605266.1, -13511.531, 0.048711218, -0.0478673, -1603769.9, 12120.97, 0.00020573656, 9.998978, 10.000571 
2.2498895e+2, 1.4511162e+2, -1662021.9, -1583704.6, -15286.262, 0.0069910944, -0.14026941, -1580826.8, -62930.926, 0.00007189719, 9.998998, 10.000033 
2.2499084e+2, 1.5511176e+2, -1499971.6, -1468742.3, -11549.054, 0.038240407, -0.123748414, -1464935.4, -45041.695, 0.000010694928, 9.999498, 9.999908 
2.249927e+2, 1.6511154e+2, -1389226.3, -1397916.9, 9918.927, 0.036244005, -0.1200917, -1382742.6, -60848.094, 0.000000092361944, 9.999728, 9.999612 
2.2499444e+2, 1.7511092e+2, -1297225.6, -1305396.9, 3525.5557, -0.010004546, -0.14639376, -1295914.8, -72015.72, 0.0, 9.9997, 9.999588 
2.2499636e+2, 1.8511012e+2, -1210555.3, -1259284.4, -7091.476, -0.021603635, -0.16215107, -1209544.1, -83638.08, 0.0, 9.999822, 9.999174 
2.2499855e+2, 1.9510923e+2, -1074903.0, -1146152.5, -7026.02, 0.004674415, -0.17019406, -1074216.8, -46301.87, 0.0, 10.000093, 9.999146 
2.2500065e+2, 2.0510834e+2, -992067.4, -1102588.8, 7021.665, 0.00785139, -0.1531891, -991623.06, -61697.957, 0.0, 10.000193, 9.998724 
2.2500269e+2, 2.1510741e+2, -905260.2, -1011914.25, 10240.449, -0.013013924, -0.120720744, -904285.9, -72349.32, 0.0, 10.000125, 9.998706 
2.2500455e+2, 2.2510639e+2, -795578.2, -904024.2, -2629.4148, -0.0310628, -0.09569102, -795514.44, -61566.164, 0.0, 10.000186, 9.998744 
2.2500627e+2, 2.3510528e+2, -673016.25, -797542.4, -4566.1675, -0.04508948, -0.08351508, -672849.06, -36888.88, 0.0, 10.000369, 9.998714 
2.2500826e+2, 2.4510394e+2, -573975.25, -733396.75, 8848.798, -0.052021768, -0.0707768, -573485.56, -35510.973, 0.0, 10.000524, 9.998408 
2.250105e+2, 2.5510246e+2, -458859.66, -628755.8, 8903.361, -0.054573014, -0.0639356, -458394.34, -18403.168, 0.0, 10.0006485, 9.998393 
2.2501276e+2, 2.6510113e+2, -348790.88, -516067.22, 13934.997, -0.05999269, -0.038230754, -347637.94, -5632.3887, 0.0, 10.000693, 9.998472 
2.2501515e+2, 2.7509993e+2, -258356.86, -425142.8, 13543.745, -0.063173205, -0.006824576, -257264.2, -13245.916, 0.0, 10.000656, 9.998441 
2.2501752e+2, 2.850982e+2, -160909.63, -332529.6, -2284.8472, -0.04255531, -0.02210724, -160879.2, -14842.955, 0.0, 10.000673, 9.998397 
2.2501972e+2, 2.9509616e+2, -55659.727, -231894.28, 6216.6797, -0.016379112, -0.07038983, -55440.703, -7383.7407, 0.0, 10.000727, 9.998389 
2.2502075e+2, 3.0509585e+2, 15188.688, -181442.48, 10691.266, -0.13050422, 0.06723718, 15768.287, 15768.287, 0.000000085825576, 10.0009165, 9.998312 
2.2502339e+2, 3.1509346e+2, 123085.12, -30532.424, 9754.821, -0.07705346, -0.0064325095, 123702.08, 123702.08, 0.0000031779714, 10.001233, 9.999196 
2.3498547e+2, 1.2510937e+2, -1797627.4, -1756563.4, 4794.4727, 0.040768247, -0.07129718, -1756011.0, -42090.703, 0.00032267286, 9.99944, 9.999983 
2.349868e+2, 1.3511018e+2, -1722618.1, -1597653.6, -30410.568, 0.050643604, -0.048178352, -1590646.1, 25265.793, 0.0001666326, 9.998973, 10.000626 
2.34988e+2, 1.4510974e+2, -1657788.8, -1574370.1, 3331.9963, 0.012674009, -0.13144392, -1574237.3, -56322.066, 0.00005400246, 9.998996, 10.000099 
2.3499055e+2, 1.5511006e+2, -1494865.6, -1459588.1, 7364.742, 0.059768435, -0.10322409, -1458112.3, -38201.742, 0.000006396683, 9.999504, 9.9999695 
2.3499268e+2, 1.6510974e+2, -1398397.6, -1417745.3, 8506.736, 0.05963374, -0.10586434, -1395189.4, -73276.82, 0.000000013163342, 9.999732, 9.999474 
2.3499426e+2, 1.7510879e+2, -1306396.8, -1324641.9, 2875.9968, 0.0040882993, -0.1513941, -1305954.1, -82032.98, 0.0, 9.999701, 9.999455 
2.3499626e+2, 1.851081e+2, -1209666.5, -1257007.4, 3059.0752, -0.01427644, -0.15248738, -1209469.6, -83541.875, 0.0, 9.999821, 9.999189 
2.3499867e+2, 1.9510767e+2, -1073440.1, -1143537.9, 3332.51, 0.006865961, -0.115885146, -1073282.0, -45349.86, 0.0, 10.000095, 9.999164 
2.3500082e+2, 2.0510674e+2, -985273.25, -1088166.1, 4290.941, 0.0048517436, -0.10698725, -985094.6, -55152.477, 0.0, 10.000192, 9.998824 
2.3500273e+2, 2.1510534e+2, -898655.2, -997864.44, 8189.875, -0.020785287, -0.13118115, -897983.7, -66026.45, 0.0, 10.000124, 9.998803 
2.3500466e+2, 2.2510429e+2, -800107.1, -912918.56, 4112.6587, -0.037299227, -0.11091179, -799957.4, -65988.375, 0.0, 10.000184, 9.998684 
2.3500668e+2, 2.3510356e+2, -676628.56, -805038.56, 2738.8022, -0.043433182, -0.054266892, -676570.1, -40592.566, 0.0, 10.000369, 9.998663 
2.3500884e+2, 2.4510226e+2, -574413.4, -734211.25, 13320.215, -0.04793512, -0.038148824, -573310.6, -35318.504, 0.0, 10.000524, 9.998403 
2.3501116e+2, 2.551004e+2, -460050.78, -630684.75, 13706.454, -0.053474005, -0.06679675, -458956.78, -18944.545, 0.0, 10.000647, 9.998381 
2.3501344e+2, 2.6509905e+2, -349904.06, -518140.6, 11931.302, -0.063034445, -0.040350955, -349062.13, -7035.24, 0.0, 10.000692, 9.998459 
2.3501574e+2, 2.7509823e+2, -257981.7, -424481.44, 12276.26, -0.07121818, 0.027056647, -257081.44, -13044.966, 0.0, 10.000657, 9.9984455 
2.3501815e+2, 2.8509653e+2, -154140.13, -317955.66, -45.612114, -0.04804907, 0.011327627, -154140.11, -8086.3584, 0.0, 10.000671, 9.998498 
2.3502049e+2, 2.9509422e+2, -50069.832, -220354.42, 8846.04, -0.012392159, -0.074050665, -49611.523, -1534.9241, 0.0, 10.000727, 9.998469 
2.3502168e+2, 3.0509382e+2, 9084.598, -192978.36, 21714.857, -0.12905532, 0.051584825, 11391.857, 11391.857, 0.000000016806371, 10.000912, 9.998235 
2.3502453e+2, 3.1509176e+2, 141944.39, 9337.019, 17625.727, -0.08900869, 0.022633675, 144247.16, 144247.16, 0.0000014346882, 10.00123, 9.999471 
2.449846e+2, 1.251073e+2, -1873410.4, -1793659.0, 6326.1465, 0.036727782, -0.07029756, -1793160.4, -79219.66, 0.00026299746, 9.99892, 9.999979 
2.4498606e+2, 1.3510808e+2, -1693246.6, -1585668.0, -40455.59, 0.069477916, -0.050667416, -1572152.5, 43780.855, 0.0001305452, 9.999185, 10.000606 
2.4498734e+2, 1.4510778e+2, -1600239.4, -1541889.4, 6250.7305, 0.027648253, -0.1205618, -1541227.3, -23291.988, 0.000038366878, 9.99937, 10.000142 
2.4499e+2, 1.5510811e+2, -1493795.6, -1453287.0, 8894.121, 0.054141432, -0.09581164, -1451420.1, -31490.266, 0.000003303544, 9.999487, 10.000021 
2.4499233e+2, 1.6510777e+2, -1421295.6, -1436587.0, 3062.017, 0.056124605, -0.09963123, -1420705.3, -98773.125, 0.00000000018007511, 9.999609, 9.999404 
2.4499418e+2, 1.7510678e+2, -1304837.8, -1331384.5, 1449.8846, 0.021792835, -0.14158413, -1304758.8, -80817.02, 0.0, 9.999744, 9.999388 
2.4499626e+2, 1.851061e+2, -1201579.3, -1252852.3, 9535.988, 0.0010845311, -0.13865194, -1199863.3, -73914.586, 0.0, 9.999874, 9.999193 
2.4499863e+2, 1.9510572e+2, -1087291.6, -1149551.5, 8649.834, -0.0018548932, -0.09861114, -1086112.3, -58159.695, 0.0, 9.999998, 9.999169 
2.4500082e+2, 2.051048e+2, -1001172.8, -1093624.8, -1465.6799, -0.007997392, -0.089742765, -1001149.56, -71187.4, 0.0, 10.000073, 9.998843 
2.4500287e+2, 2.1510339e+2, -900470.25, -997024.9, -4287.7197, -0.019227149, -0.11689479, -900280.25, -68303.07, 0.0, 10.000103, 9.998819 
2.4500495e+2, 2.2510225e+2, -796758.7, -920376.7, -2464.3665, -0.030373618, -0.100991145, -796709.56, -62719.89, 0.0, 10.000246, 9.998604 
2.4500713e+2, 2.3510137e+2, -663868.44, -807669.44, -6289.1997, -0.039749958, -0.05164135, -663593.94, -27594.074, 0.0, 10.000495, 9.998584 
2.4500938e+2, 2.4510005e+2, -571016.94, -735906.7, -4953.604, -0.047740392, -0.031104045, -570868.25, -32853.492, 0.0, 10.000562, 9.998372 
2.4501166e+2, 2.550983e+2, -490963.6, -649141.2, -6300.5254, -0.05741744, -0.043227408, -490713.0, -50679.043, 0.0, 10.000449, 9.998349 
2.4501397e+2, 2.6509702e+2, -377940.1, -524974.8, -3415.8286, -0.0688518, -0.015646996, -377860.78, -35812.426, 0.0, 10.000471, 9.998518 
2.450163e+2, 2.750961e+2, -259841.42, -419050.7, 847.39233, -0.07665323, 0.03797726, -259836.9, -15778.546, 0.0, 10.000616, 9.998503 
2.450188e+2, 2.8509444e+2, -144023.98, -314621.94, -12538.007, -0.052546762, 0.023452412, -143107.44, 2967.8257, 0.0, 10.000748, 9.998485 
2.4502127e+2, 2.9509225e+2, -32107.195, -214388.23, -12169.889, -0.014321801, -0.047682505, -31298.27, 16798.861, 0.0, 10.000863, 9.998444 
2.4502262e+2, 3.050916e+2, 13710.197, -196517.55, 3223.5278, -0.1281181, 0.05754445, 13759.613, 13759.613, 0.0000000018495133, 10.000971, 9.998181 
2.4502568e+2, 3.150896e+2, 130359.555, 28855.162, -6148.8926, -0.086225174, 0.037235215, 130730.68, 130730.68, 0.00000052479436, 10.001041, 9.999696 
2.5498337e+2, 1.25105e+2, -1878759.6, -1803639.8, 19960.266, 0.020074073, -0.09496636, -1798665.5, -84702.555, 0.000209724, 9.998915, 9.999913 
2.5498557e+2, 1.3510585e+2, -1699179.8, -1600363.9, -30605.734, 0.10032022, -0.056664456, -1591652.5, 24303.04, 0.00009902971, 9.999193, 10.000502 
2.549869e+2, 1.451057e+2, -1596858.6, -1536398.0, 9677.226, 0.046683177, -0.1085826, -1534886.9, -16930.635, 0.000025643241, 9.999377, 10.000176 
2.5498915e+2, 1.5510589e+2, -1490762.5, -1446604.9, 13188.172, 0.020598274, -0.10142399, -1442966.0, -23014.166, 0.0000014046367, 9.999485, 10.000068 
2.5499162e+2, 1.6510563e+2, -1422335.1, -1437988.1, 7794.8184, 0.025181685, -0.10084611, -1419115.6, -97162.17, 0.0, 9.999606, 9.999395 
2.5499412e+2, 1.7510487e+2, -1305057.5, -1332872.1, 6666.029, 0.04098498, -0.116748944, -1303542.4, -79581.31, 0.0, 9.999748, 9.999376 
2.5499633e+2, 1.8510412e+2, -1201421.1, -1252962.3, 13988.962, 0.021889549, -0.12104657, -1197869.1, -71900.36, 0.0, 9.999877, 9.99919 
2.5499842e+2, 1.9510335e+2, -1087194.9, -1149463.1, 13510.162, -0.022795048, -0.11926486, -1084390.0, -56413.83, 0.0, 9.999999, 9.999169 
2.5500068e+2, 2.0510247e+2, -1006075.94, -1103251.8, -368.01526, -0.031671003, -0.10237784, -1006074.5, -76089.08, 0.0, 10.000072, 9.998778 
2.5500306e+2, 2.1510153e+2, -904993.94, -1006150.9, -2653.5015, -0.0090461215, -0.07722765, -904924.4, -72927.97, 0.0, 10.000102, 9.998756 
2.550054e+2, 2.2510026e+2, -804290.25, -935672.94, 6679.2437, -0.011280148, -0.066055395, -803951.56, -69941.27, 0.0, 10.000245, 9.998499 
2.5500765e+2, 2.3509869e+2, -671651.5, -823266.94, 3244.221, -0.035839222, -0.07533408, -671582.1, -35555.063, 0.0, 10.000493, 9.998478 
2.550099e+2, 2.4509735e+2, -574477.56, -742837.7, -9476.386, -0.053718127, -0.04912832, -573945.8, -35903.332, 0.0, 10.000561, 9.998325 
2.5501204e+2, 2.5509626e+2, -493270.47, -654124.0, -10146.885, -0.066885956, 0.006388202, -492632.9, -52576.527, 0.0, 10.00045, 9.998315 
2.5501433e+2, 2.65095e+2, -369634.34, -508160.5, 2156.0176, -0.07767982, 0.034737702, -369600.78, -27530.652, 0.0, 10.000473, 9.998633 
2.5501686e+2, 2.7509356e+2, -252640.75, -404147.47, 6658.485, -0.08208993, 0.025676517, -252348.69, -8264.576, 0.0, 10.000616, 9.998606 
2.550195e+2, 2.850919e+2, -153125.27, -332553.78, -8871.262, -0.059472065, 0.014151029, -152687.72, -6586.8345, 0.0, 10.000744, 9.9983635 
2.5502202e+2, 2.9509026e+2, -40205.645, -230603.7, -7604.5176, -0.024270566, 0.008768057, -39902.402, 8216.149, 0.0, 10.000861, 9.998333 
2.550236e+2, 3.0508924e+2, 10543.678, -202985.27, 6564.8164, -0.1284982, 0.08457367, 10745.318, 10745.318, 0.000000000039700524, 10.000969, 9.998139 
2.5502688e+2, 3.1508687e+2, 143248.25, 54807.824, -6792.9424, -0.072370455, 0.03139101, 143766.95, 143766.95, 0.00000015406697, 10.001044, 9.999874 
2.649824e+2, 1.2510262e+2, -1886694.0, -1801147.8, 9823.899, 0.03542704, -0.09190706, -1800034.0, -86046.914, 0.0001649167, 9.998833, 9.99997 
2.649847e+2, 1.3510351e+2, -1708541.9, -1601899.4, -36117.383, 0.09999521, -0.052244604, -1590818.6, 25160.313, 0.000073287774, 9.999116, 10.000528 
2.6498616e+2, 1.4510344e+2, -1617827.0, -1552408.5, -1162.7596, 0.036833975, -0.09403184, -1552387.8, -34408.92, 0.000016155976, 9.999259, 10.000124 
2.6498854e+2, 1.5510349e+2, -1522795.6, -1466505.6, -5735.0293, 0.022435946, -0.09814295, -1465927.3, -45951.02, 0.00000046134082, 9.999286, 10.000028 
2.6499122e+2, 1.651032e+2, -1440774.6, -1443541.1, -6243.2603, 0.029828636, -0.09963639, -1435763.3, -113785.11, 0.0, 9.999466, 9.999426 
2.6499385e+2, 1.7510256e+2, -1296593.9, -1325456.6, -4784.387, 0.03694079, -0.10782566, -1295821.5, -71836.98, 0.0, 9.999793, 9.999406 
2.6499617e+2, 1.851018e+2, -1195211.8, -1251556.3, -3279.4866, 0.017570518, -0.11117609, -1195021.6, -69029.516, 0.0, 9.999927, 9.999176 
2.6499838e+2, 1.9510096e+2, -1105248.0, -1159864.9, -5572.743, -0.019246913, -0.11535277, -1104685.1, -76684.71, 0.0, 9.999883, 9.999154 
2.6500076e+2, 2.0510009e+2, -1018717.2, -1113397.8, -14334.255, -0.024299407, -0.09704534, -1016594.6, -86584.66, 0.0, 10.000002, 9.998742 
2.6500332e+2, 2.1509919e+2, -882092.4, -999122.5, -14647.626, -0.0020703694, -0.06364767, -880286.94, -48266.49, 0.0, 10.0002775, 9.998721 
2.6500574e+2, 2.2509788e+2, -784960.0, -927369.9, -2285.5999, -0.008436226, -0.053061157, -784923.3, -50888.684, 0.0, 10.000381, 9.99849 
2.6500803e+2, 2.3509622e+2, -697448.2, -836647.75, 1079.079, -0.04143763, -0.070947304, -697439.8, -61387.6, 0.0, 10.0003195, 9.99847 
2.6501036e+2, 2.450949e+2, -588448.7, -746885.6, -4153.5103, -0.0575022, -0.044596773, -588339.9, -50272.41, 0.0, 10.000453, 9.99835 
2.650127e+2, 2.550939e+2, -444193.44, -627589.56, -274.62988, -0.05851316, 0.018420259, -444193.03, -4112.866, 0.0, 10.000775, 9.998341 
2.6501504e+2, 2.650926e+2, -323881.1, -491268.72, 2654.1687, -0.070581794, 0.04398668, -323839.03, 18255.275, 0.0, 10.00081, 9.998588 
2.650174e+2, 2.7509102e+2, -263939.06, -414637.06, -4706.26, -0.09001596, 0.023628965, -263792.22, -19682.15, 0.0, 10.000562, 9.99856 
2.6502004e+2, 2.8508943e+2, -180624.84, -346100.25, -12460.462, -0.06600949, 0.020311797, -179691.81, -33565.418, 0.0, 10.000558, 9.998359 
2.65023e+2, 2.9508802e+2, -53709.066, -237919.4, -3998.4673, -0.012514497, 0.0402745, -53622.316, -5480.7334, 0.0, 10.0007715, 9.998326 
2.650247e+2, 3.0508658e+2, -1369.9075, -219433.06, 10410.382, -0.11538278, 0.07976641, -874.0412, -874.0412, 0.0, 10.000933, 9.998043 
2.6502782e+2, 3.1508425e+2, 147707.33, 61375.383, -12625.311, -0.081209086, 0.039830297, 149515.8, 149515.8, 0.000000038019415, 10.001059, 9.99991 
2.7498165e+2, 1.2510017e+2, -1872648.6, -1773055.1, 24211.1, 0.0771253, -0.06106938, -1767481.4, -53467.816, 0.00012966055, 9.998838, 10.00016 
2.7498353e+2, 1.3510111e+2, -1697627.1, -1578286.6, -26424.848, 0.067612395, -0.036077827, -1572697.4, 43306.336, 0.00005392466, 9.999111, 10.000692 
2.74985e+2, 1.4510106e+2, -1628390.0, -1573237.1, -756.804, -0.0027178028, -0.075709745, -1573226.8, -55223.63, 0.0000098627, 9.999254, 9.999984 
2.749882e+2, 1.551009e+2, -1531983.3, -1486178.8, -4619.7974, 0.05620117, -0.087085664, -1485717.5, -65714.195, 0.00000011248763, 9.999288, 9.999891 
2.7499104e+2, 1.6510047e+2, -1435240.5, -1432954.0, 5563.707, 0.06662926, -0.09747625, -1428417.3, -106410.9, 0.0, 9.99947, 9.999497 
2.7499336e+2, 1.7509982e+2, -1291246.9, -1314511.6, 7347.4688, 0.008659392, -0.11468991, -1289120.8, -65108.695, 0.0, 9.999793, 9.999481 
2.7499583e+2, 1.8509918e+2, -1197897.4, -1256730.5, -5202.1094, -0.012967753, -0.10868041, -1197440.9, -71422.47, 0.0, 9.999926, 9.999141 
2.7499855e+2, 1.9509858e+2, -1107845.5, -1165247.1, -6944.6143, 0.00777898, -0.0862798, -1107017.3, -78991.89, 0.0, 9.999883, 9.999117 
2.7500117e+2, 2.0509762e+2, -1019235.94, -1114004.4, -4029.8992, 0.0128408475, -0.07358389, -1019064.9, -89029.1, 0.0, 10.0, 9.998739 
2.7500364e+2, 2.1509634e+2, -882283.94, -999425.06, -3912.6787, 0.00024878298, -0.07668376, -882153.4, -50103.953, 0.0, 10.000277, 9.998719 
2.75006e+2, 2.2509512e+2, -779318.94, -915164.4, -4688.8105, -0.023699082, -0.06285051, -779157.3, -45094.61, 0.0, 10.00038, 9.998575 
2.7500817e+2, 2.3509397e+2, -691079.7, -823633.1, -887.79724, -0.056413975, -0.039000604, -691073.7, -54998.242, 0.0, 10.00032, 9.998559 
2.7501076e+2, 2.4509266e+2, -581937.2, -733585.5, 7705.6064, -0.059398048, -0.018355932, -581546.6, -43456.832, 0.0, 10.000454, 9.998441 
2.7501374e+2, 2.5509125e+2, -438589.6, -615602.3, 11864.488, -0.03548858, -0.00689123, -437797.88, 2307.5269, 0.0, 10.000773, 9.998424 
2.7501604e+2, 2.6508984e+2, -338339.06, -520312.13, -7092.692, -0.051254544, 0.013020887, -338063.03, 4057.8223, 0.0, 10.000806, 9.998389 
2.7501786e+2, 2.7508843e+2, -277247.16, -441872.13, -13535.402, -0.100445636, 0.03165881, -276141.7, -32005.43, 0.0, 10.000561, 9.998373 
2.7502057e+2, 2.8508693e+2, -173313.16, -331368.8, -4188.849, -0.07163094, 0.040609196, -173202.22, -27050.295, 0.0, 10.000559, 9.99846 
2.7502406e+2, 2.950855e+2, -46690.863, -224388.52, 4384.771, 0.017264325, 0.045702223, -46582.734, 1583.6963, 0.0, 10.000775, 9.998418 
2.750258e+2, 3.0508357e+2, -12064.309, -241696.27, 14546.14, -0.094263636, 0.04279429, -11146.545, -11146.545, 0.0, 10.000934, 9.9978895 
2.7502853e+2, 3.1508166e+2, 140293.67, 46420.86, -12140.527, -0.117274255, 0.05855242, 141838.39, 141838.39, 0.00000000643165, 10.001057, 9.999808 
2.8498065e+2, 1.2509769e+2, -1833504.4, -1748019.3, 34186.67, 0.080873124, -0.030767463, -1736029.3, -21989.805, 0.00010364884, 9.999081, 10.000216 
2.8498256e+2, 1.3509849e+2, -1709535.6, -1581252.1, -34293.215, 0.0677974, -0.023286294, -1572660.3, 43370.215, 0.000040612387, 9.999019, 10.000717 
2.8498417e+2, 1.4509845e+2, -1642189.5, -1589902.1, -6658.335, -0.009698322, -0.058891326, -1589067.6, -71037.89, 0.0000062724685, 9.999204, 9.999893 
2.8498766e+2, 1.5509817e+2, -1487605.5, -1473844.4, -7081.384, 0.05900459, -0.07214331, -1470851.3, -50819.746, 0.000000028346124, 9.999632, 9.99981 
2.849907e+2, 1.6509771e+2, -1389720.9, -1403965.3, -297.6211, 0.071102366, -0.08456515, -1389714.6, -67679.73, 0.0, 9.999753, 9.999559 
2.8499302e+2, 1.7509714e+2, -1316317.0, -1319324.1, -146.64807, 0.005256696, -0.10219129, -1316309.9, -92270.48, 0.0, 9.999592, 9.999545 
2.8499562e+2, 1.850965e+2, -1239257.6, -1283624.5, -12080.915, -0.014478618, -0.0956279, -1236181.3, -110135.65, 0.0, 9.999673, 9.999078 
2.8499857e+2, 1.9509584e+2, -1097007.5, -1167046.6, -16429.193, 0.017788865, -0.07122696, -1093345.1, -65291.598, 0.0, 9.999988, 9.999054 
2.8500128e+2, 2.0509489e+2, -994258.9, -1093022.0, -11264.193, 0.020373901, -0.058488227, -992990.44, -62926.496, 0.0, 10.000133, 9.998819 
2.8500372e+2, 2.1509369e+2, -900516.06, -998769.7, -5327.341, -0.008754491, -0.06355379, -900228.06, -68151.53, 0.0, 10.000112, 9.998803 
2.850062e+2, 2.2509252e+2, -801004.44, -925334.7, -6787.6675, -0.03138447, -0.049677584, -800634.94, -66545.72, 0.0, 10.00023, 9.998578 
2.850087e+2, 2.3509137e+2, -667658.1, -812110.1, -9387.291, -0.045342386, -0.023455838, -667050.6, -30948.816, 0.0, 10.00048, 9.998562 
2.8501138e+2, 2.4509004e+2, -561826.44, -714123.2, -3078.0732, -0.048669066, -0.0099170245, -561764.25, -23648.236, 0.0, 10.000549, 9.9985285 
2.8501424e+2, 2.5508857e+2, -480529.3, -625995.94, 440.9311, -0.04426984, -0.01424206, -480527.97, -40396.477, 0.0, 10.000443, 9.998511 
2.850167e+2, 2.6508716e+2, -383867.3, -550450.25, -17056.943, -0.055068754, 0.0048996285, -382138.75, -39991.773, 0.0, 10.000529, 9.998316 
2.8501877e+2, 2.750858e+2, -248062.95, -435418.84, -14780.648, -0.0745339, 0.03733315, -246904.06, -2741.5413, 0.0, 10.000794, 9.998304 
2.8502148e+2, 2.8508434e+2, -114577.56, -299067.34, 1585.3403, -0.053772062, 0.05179066, -114563.94, 31613.844, 0.0, 10.000946, 9.998495 
2.8502467e+2, 2.950829e+2, -12088.926, -203733.47, 4605.0005, -0.009409234, 0.053574476, -11978.337, 36213.254, 0.0, 10.0009985, 9.998451 
2.850266e+2, 3.0508065e+2, 3432.6243, -230756.81, 16717.123, -0.11317416, 0.013541966, 4619.922, 4619.922, 0.0, 10.001027, 9.997919 
2.8502983e+2, 3.150792e+2, 127778.586, 34215.883, -2244.674, -0.09017946, 0.07523397, 127832.41, 127832.41, 0.00000000043435586, 10.000997, 9.999754 
2.9497936e+2, 1.2509523e+2, -1838990.9, -1760433.8, 35967.836, 0.043652806, -0.00032958857, -1746453.6, -32388.848, 0.000085497144, 9.999085, 10.000129 
2.949819e+2, 1.3509567e+2, -1718166.5, -1599518.1, -36555.598, 0.097252145, -0.015558766, -1589159.6, 26899.625, 0.000032281903, 9.99902, 10.000591 
2.949836e+2, 1.4509562e+2, -1644857.5, -1595985.6, 8906.085, 0.013193654, -0.044467553, -1594413.3, -76354.37, 0.0000046245973, 9.999206, 9.999851 
2.94987e+2, 1.5509537e+2, -1490084.9, -1478642.1, 8636.772, 0.028664079, -0.051109515, -1474003.6, -53942.95, 0.00000001715619, 9.999631, 9.999779 
2.9499015e+2, 1.6509499e+2, -1386201.9, -1396327.3, -6936.7266, 0.041104384, -0.058306787, -1382676.9, -60613.54, 0.0, 9.999751, 9.999612 
2.949928e+2, 1.750945e+2, -1313361.8, -1312396.0, -5897.319, 0.025086062, -0.071232595, -1306961.9, -82895.375, 0.0, 9.999588, 9.999594 
2.9499555e+2, 1.8509375e+2, -1246554.9, -1298119.4, -278.2585, 0.011642794, -0.07299534, -1246553.4, -120479.52, 0.0, 9.99967, 9.9989805 
2.949985e+2, 1.9509277e+2, -1103408.5, -1180530.0, -4421.1865, 0.010029256, -0.07063761, -1103155.9, -75070.734, 0.0, 9.999989, 9.998961 
2.9500118e+2, 2.0509194e+2, -982930.0, -1069146.5, -12136.644, -0.0028964074, -0.052117106, -981254.06, -51159.58, 0.0, 10.000131, 9.998984 
2.9500362e+2, 2.1509121e+2, -889165.3, -975109.7, -5691.905, -0.029756976, -0.024507377, -888790.0, -56688.105, 0.0, 10.000111, 9.998966 
2.950064e+2, 2.2509004e+2, -806682.2, -936650.44, 2417.426, -0.032640796, -0.013624514, -806637.25, -72522.99, 0.0, 10.000228, 9.998501 
2.9500952e+2, 2.3508847e+2, -673176.94, -823365.2, 281.73715, -0.010278051, -0.024398506, -673176.44, -37045.117, 0.0, 10.000479, 9.998485 
2.9501218e+2, 2.4508706e+2, -556201.1, -701947.25, -7248.457, -0.027340677, -0.019274754, -555841.5, -17695.414, 0.0, 10.000547, 9.998612 
2.950143e+2, 2.5508586e+2, -474653.4, -613682.25, -3173.7363, -0.08453518, -0.004613081, -474581.0, -34422.477, 0.0, 10.000443, 9.998596 
2.9501697e+2, 2.6508453e+2, -380781.44, -544087.3, -7416.638, -0.081336565, 0.018267518, -380445.28, -38272.46, 0.0, 10.000529, 9.998359 
2.9502013e+2, 2.7508312e+2, -244678.64, -428542.44, -4852.919, -0.01630234, 0.03992897, -244550.64, -361.67508, 0.0, 10.000794, 9.998352 
2.9502282e+2, 2.8508168e+2, -117137.61, -304034.8, 2951.6553, -0.016698232, 0.0544644, -117091.01, 29113.03, 0.0, 10.000945, 9.998462 
2.9502484e+2, 2.950803e+2, -15054.437, -208667.84, 6891.9053, -0.09241777, 0.064612456, -14809.42, 33407.69, 0.0, 10.000994, 9.99842 
2.9502708e+2, 3.0507782e+2, 17639.232, -200904.19, 15645.329, -0.17102066, -0.0074412073, 18753.586, 18753.586, 0.0, 10.001025, 9.998125 
2.9503167e+2, 3.1507686e+2, 129832.36, 36312.152, -6125.1626, -0.0058399644, 0.08037073, 130231.82, 130231.82, 0.0, 10.001005, 9.999764 
3.049782e+2, 1.2509225e+2, -1877245.4, -1787591.6, 36575.902, 0.026204769, -0.0015630609, -1774563.1, -60469.055, 0.000073591786, 9.998864, 10.000048 
3.0498123e+2, 1.350925e+2, -1658651.4, -1584776.0, -42113.5, 0.10826944, -0.021817524, -1565696.4, 50394.563, 0.000027638554, 9.999489, 10.000467 
3.0498302e+2, 1.4509256e+2, -1580069.6, -1562189.8, -1063.9948, 0.016738499, -0.034748517, -1562126.6, -44036.89, 0.000004191702, 9.99964, 9.999873 
3.049864e+2, 1.5509243e+2, -1531749.5, -1495812.6, 1913.0588, 0.020476632, -0.030700877, -1495711.1, -75620.86, 0.000000032166714, 9.999333, 9.999804 
3.0498973e+2, 1.6509205e+2, -1434374.5, -1422905.3, -10224.59, 0.03807693, -0.038071502, -1416916.9, -94823.766, 0.0, 9.999437, 9.99958 
3.049927e+2, 1.7509143e+2, -1262605.1, -1291500.3, -16341.212, 0.03844737, -0.06044316, -1255240.6, -31142.844, 0.0, 9.999952, 9.999562 
3.0499554e+2, 1.8509068e+2, -1175731.0, -1254398.5, -10145.311, 0.023106227, -0.066295706, -1174443.6, -48338.59, 0.0, 10.000114, 9.999066 
3.0499837e+2, 1.950898e+2, -1103593.8, -1170009.4, -724.8622, 0.0033606468, -0.062606096, -1103585.9, -75470.93, 0.0, 9.999944, 9.999054 
3.0500117e+2, 2.05089e+2, -1001822.75, -1078036.6, -5508.517, -0.011059761, -0.0442979, -1001426.7, -71303.01, 0.0, 10.000002, 9.998985 
3.0500388e+2, 2.150883e+2, -864289.9, -963413.4, -11872.026, -0.024568737, -0.017098114, -862887.8, -30756.465, 0.0, 10.000282, 9.998964 
3.050068e+2, 2.2508712e+2, -780414.6, -922146.56, -6640.358, -0.023802869, -0.006369476, -780104.2, -45960.48, 0.0, 10.0004, 9.998519 
3.0501e+2, 2.3508556e+2, -689490.8, -828933.9, -2428.9941, -0.0075980634, -0.01757419, -689448.5, -53288.023, 0.0, 10.000358, 9.998505 
3.0501267e+2, 2.4508415e+2, -580539.6, -713685.0, -13578.7705, -0.022487083, -0.012096101, -579168.9, -40993.793, 0.0, 10.000381, 9.998612 
3.0501488e+2, 2.5508296e+2, -470796.94, -611759.2, -15808.385, -0.06864423, 0.0038460635, -469045.84, -28858.346, 0.0, 10.000469, 9.998596 
3.0501768e+2, 2.6508164e+2, -363394.9, -527756.44, -12251.425, -0.06814731, 0.021726325, -362486.7, -20284.996, 0.0, 10.000615, 9.998429 
3.0502093e+2, 2.750802e+2, -236806.39, -417077.13, -8816.441, -0.019681199, 0.032736965, -236376.23, 7841.4277, 0.0, 10.000817, 9.998419 
3.0502364e+2, 2.8507882e+2, -125810.266, -312292.56, -8994.427, -0.024225377, 0.052400075, -125377.445, 20854.506, 0.0, 10.000904, 9.998425 
3.050258e+2, 2.9507756e+2, -35240.543, -222274.03, -5631.9873, -0.089297056, 0.08258298, -35071.105, 13172.588, 0.0, 10.000872, 9.998385 
3.050282e+2, 3.050749e+2, 19520.822, -187507.13, 4716.198, -0.15735225, -0.013958677, 19628.205, 19628.205, 0.0, 10.000984, 9.998237 
3.0503288e+2, 3.1507403e+2, 151488.06, 29899.453, -29783.004, 0.00204968, 0.073457055, 158391.44, 158391.44, 0.0, 10.001228, 9.999613 
3.1497705e+2, 1.2508872e+2, -1882636.4, -1799386.4, 66123.41, 0.026249357, -0.034608476, -1762877.1, -48749.797, 0.00006650563, 9.998866, 9.999967 
3.1498063e+2, 1.3508902e+2, -1666276.8, -1601498.9, -18473.748, 0.095177196, -0.039457507, -1596600.8, 19524.303, 0.000025576577, 9.999493, 10.00035 
3.1498247e+2, 1.4508931e+2, -1573502.9, -1549786.1, -13080.286, -0.0046097306, -0.026839714, -1543989.1, -25867.094, 0.000004447986, 9.999645, 9.999957 
3.1498587e+2, 1.550894e+2, -1526494.0, -1484025.8, -9148.246, 0.03318404, -0.0126851, -1482138.9, -62018.406, 0.00000006594377, 9.99933, 9.9998865 
3.149894e+2, 1.650889e+2, -1444024.1, -1442056.5, 8874.177, 0.061286118, -0.025209036, -1434111.8, -111987.46, 0.0, 9.999433, 9.999452 
3.149927e+2, 1.7508796e+2, -1271380.9, -1309750.6, 2940.962, 0.04328325, -0.06890585, -1271156.8, -47023.664, 0.0, 9.999952, 9.999437 
3.1499562e+2, 1.850873e+2, -1156366.6, -1214392.3, -16910.025, 0.016717037, -0.073515914, -1151798.3, -25658.986, 0.0, 10.000114, 9.999341 
3.1499827e+2, 1.9508691e+2, -1084725.5, -1130550.5, -6706.339, -0.003155295, -0.047818683, -1083764.3, -55621.3, 0.0, 9.999941, 9.999327 
3.1500122e+2, 2.0508611e+2, -1013986.1, -1102297.9, 5034.012, -0.0052084406, -0.035670724, -1013700.1, -83548.54, 0.0, 9.999997, 9.99882 
3.1500447e+2, 2.1508488e+2, -876013.2, -987493.25, -910.49164, 0.005527391, -0.04173328, -876005.75, -43840.805, 0.0, 10.00028, 9.9988 
3.150074e+2, 2.2508372e+2, -773048.94, -906574.0, -8188.34, -0.006279141, -0.02831211, -772548.6, -38371.06, 0.0, 10.000398, 9.998626 
3.1501004e+2, 2.3508263e+2, -681911.5, -813365.56, -3710.4272, -0.03761303, -0.0034589458, -681806.9, -45617.42, 0.0, 10.000358, 9.998612 
3.1501293e+2, 2.4508134e+2, -586380.7, -725839.3, -10712.071, -0.034678437, 0.011026565, -585562.6, -47359.41, 0.0, 10.000381, 9.998529 
3.1501606e+2, 2.5507987e+2, -475857.94, -622325.8, -12372.705, 0.000050385752, 0.010830062, -474820.13, -34601.62, 0.0, 10.000469, 9.998524 
3.1501877e+2, 2.6507846e+2, -357111.66, -514601.8, -4877.653, -0.017825902, 0.015713759, -356960.72, -14727.175, 0.0, 10.000615, 9.99852 
3.150211e+2, 2.75077e+2, -231451.53, -405023.53, -925.28143, -0.08433574, 0.01606799, -231446.6, 12802.043, 0.0, 10.0008135, 9.998504 
3.1502405e+2, 2.8507572e+2, -129755.34, -319368.78, -10727.415, -0.0755057, 0.045476675, -129150.37, 17111.283, 0.0, 10.000899, 9.998379 
3.1502753e+2, 2.9507473e+2, -36695.184, -226423.69, -6578.547, -0.0048800744, 0.105543606, -36467.355, 11804.189, 0.0, 10.000876, 9.998354 
3.1503e+2, 3.0507186e+2, 20862.324, -186280.88, 13507.462, -0.07633706, -0.007493343, 21739.41, 21739.41, 0.0, 10.00099, 9.998243 
3.1503338e+2, 3.1507078e+2, 129298.68, -14820.9795, -24139.047, -0.06914284, 0.053883355, 133234.33, 133234.33, 0.0, 10.001222, 9.999309 
3.2497624e+2, 1.2508523e+2, -1764654.9, -1746485.1, 64364.836, 0.018169947, -0.051077697, -1690567.3, 23593.549, 0.00006287029, 9.999696, 9.9999275 
3.2497987e+2, 1.3508561e+2, -1724142.8, -1638982.4, -24462.324, 0.08877854, -0.03917034, -1632455.8, -16297.647, 0.000025189593, 9.999138, 10.000263 
3.2498175e+2, 1.4508595e+2, -1641569.6, -1587492.4, -17846.795, -0.019844014, -0.014351081, -1582133.5, -63978.582, 0.0000050024137, 9.999201, 9.999911 
3.2498547e+2, 1.5508582e+2, -1452290.0, -1452748.3, -24818.275, 0.03686938, -0.018209357, -1427699.8, -7544.057, 0.000000115129794, 9.999858, 9.999846 
3.2498917e+2, 1.6508532e+2, -1364858.6, -1404373.3, -9726.954, 0.068171576, -0.031627364, -1362594.0, -40433.836, 0.0, 9.999978, 9.999447 
3.2499236e+2, 1.7508452e+2, -1325108.1, -1335293.1, -6464.4297, 0.03453181, -0.057576336, -1321971.3, -97803.53, 0.0, 9.999583, 9.999438 
3.2499537e+2, 1.8508397e+2, -1218572.9, -1228532.8, -23161.602, 0.0077813813, -0.058885053, -1199861.9, -73689.12, 0.0, 9.99962, 9.999481 
3.2499832e+2, 1.9508362e+2, -1053915.8, -1100599.5, -24234.762, 0.0016100744, -0.04303726, -1043609.94, -15434.528, 0.0, 10.000087, 9.999463 
3.2500148e+2, 2.0508283e+2, -973310.94, -1082490.9, -12608.753, 0.0056401095, -0.03490117, -971873.75, -41690.06, 0.0, 10.000274, 9.998824 
3.250048e+2, 2.1508165e+2, -888706.8, -992209.3, -6330.683, 0.0150527675, -0.03905119, -888321.06, -56123.855, 0.0, 10.000189, 9.998811 
3.250078e+2, 2.2508052e+2, -787141.7, -902429.75, -7450.0933, -0.00077599566, -0.027461596, -786662.25, -52452.887, 0.0, 10.000255, 9.998723 
3.2501045e+2, 2.3507947e+2, -659012.7, -791683.56, -3791.9875, -0.03913968, -0.007976082, -658904.4, -22684.117, 0.0, 10.000469, 9.998708 
3.2501346e+2, 2.4507822e+2, -552437.06, -718831.6, -9114.31, -0.0345984, 0.010541082, -551939.3, -13705.568, 0.0, 10.000654, 9.9984455 
3.250168e+2, 2.5507683e+2, -431914.44, -610630.1, -12036.724, 0.009699896, 0.023714762, -431107.38, 9142.073, 0.0, 10.000813, 9.99844 
3.2501957e+2, 2.650754e+2, -323646.94, -490172.9, -9466.28, -0.01217544, 0.027129065, -323110.56, 19154.049, 0.0, 10.000809, 9.998594 
3.250217e+2, 2.7507383e+2, -249327.13, -405160.38, -6689.251, -0.094931945, 0.011982893, -249040.52, -4761.033, 0.0, 10.000653, 9.99858 
3.250248e+2, 2.8507254e+2, -151629.55, -330471.72, -8906.773, -0.083079, 0.034880906, -151187.06, -4894.631, 0.0, 10.0007515, 9.998373 
3.2502863e+2, 2.9507157e+2, -7850.066, -213314.81, -3309.7188, 0.009695127, 0.09749146, -7796.765, 40505.75, 0.0, 10.001079, 9.998347 
3.2503128e+2, 3.0506885e+2, 57435.59, -158436.9, 17842.457, -0.056525353, -0.0064350544, 58900.38, 58900.38, 0.0, 10.001198, 9.998334 
3.250345e+2, 3.1506783e+2, 98468.88, -54758.49, -16577.055, -0.07739756, 0.057054702, 100241.77, 100241.77, 0.0, 10.001116, 9.999085 
3.3497572e+2, 1.250818e+2, -1763374.1, -1746914.1, 48275.953, -0.0065447916, -0.04787852, -1706171.8, 8021.8823, 0.000061273975, 9.999708, 9.999919 
3.34979e+2, 1.3508229e+2, -1728742.9, -1647681.5, -44274.2, 0.089817755, -0.02145236, -1628187.8, -11997.537, 0.000025556885, 9.999134, 10.000207 
3.3498088e+2, 1.4508249e+2, -1655366.6, -1614942.8, 7238.134, -0.028661288, 0.0023257101, -1613685.8, -95497.18, 0.0000055599335, 9.999195, 9.999725 
3.3498523e+2, 1.5508172e+2, -1464246.4, -1477648.8, 232.53728, 0.025689686, -0.04558455, -1464242.4, -44046.473, 0.00000016881297, 9.999859, 9.999675 
3.3498898e+2, 1.6508125e+2, -1355275.3, -1385485.5, -24820.705, 0.052146334, -0.05458728, -1341324.6, -19124.326, 0.0, 9.999982, 9.999576 
3.3499172e+2, 1.7508113e+2, -1316268.8, -1316805.6, -20615.691, 0.012354287, -0.027842063, -1295919.8, -71718.12, 0.0, 9.999581, 9.999567 
3.3499488e+2, 1.8508069e+2, -1219458.4, -1229325.1, -5712.5947, -0.0039627245, -0.023596356, -1216843.8, -90638.09, 0.0, 9.999616, 9.999478 
3.3499858e+2, 1.9507992e+2, -1054763.5, -1102160.4, -6461.269, 0.015970815, -0.048424307, -1053898.5, -25686.021, 0.0, 10.000085, 9.999454 
3.350019e+2, 2.0507921e+2, -961554.25, -1057435.1, -15823.868, 0.019176079, -0.041335724, -959010.25, -28790.188, 0.0, 10.000271, 9.998998 
3.3500487e+2, 2.1507855e+2, -876359.56, -966642.2, -8981.192, 0.0030434192, -0.009459984, -875474.8, -43246.605, 0.0, 10.000189, 9.998987 
3.3500794e+2, 2.250775e+2, -780940.1, -889241.44, 342.5298, -0.008532206, -0.004087248, -780939.0, -46699.86, 0.0, 10.000254, 9.998815 
3.3501112e+2, 2.3507608e+2, -652324.5, -777771.9, 4602.8687, -0.013672009, -0.031085636, -652155.8, -15902.953, 0.0, 10.000468, 9.998803 
3.3501422e+2, 2.4507482e+2, -559149.6, -732511.94, -3289.3064, -0.023615334, -0.01339308, -559087.25, -20820.592, 0.0, 10.000653, 9.998352 
3.350171e+2, 2.5507376e+2, -439205.13, -625023.0, -5903.384, -0.04002879, 0.042633865, -439017.78, 1262.6161, 0.0, 10.00081, 9.9983425 
3.3501995e+2, 2.6507238e+2, -320006.22, -482048.4, -15855.997, -0.05118665, 0.05573089, -318469.28, 23825.707, 0.0, 10.000806, 9.998652 
3.3502278e+2, 2.750707e+2, -243628.06, -393902.56, -12361.869, -0.054791335, 0.019062402, -242617.94, 1692.4224, 0.0, 10.000656, 9.998656 
3.3502588e+2, 2.8506926e+2, -149562.02, -326425.9, 3147.4116, -0.049770746, 0.020087443, -149506.03, -3181.6255, 0.0, 10.000752, 9.998401 
3.3502918e+2, 2.9506806e+2, -7359.594, -210640.2, 9351.709, -0.046066463, 0.060230445, -6930.2856, 41406.18, 0.0, 10.001072, 9.998369 
3.3503208e+2, 3.0506575e+2, 68207.37, -134312.25, 13734.639, -0.09787209, -0.010365485, 69134.586, 69134.586, 0.0, 10.00119, 9.998504 
3.350361e+2, 3.150652e+2, 90799.586, -72024.61, -21017.4, -0.028443908, 0.08150732, 93468.766, 93468.766, 0.0, 10.0011215, 9.998964 
3.4497496e+2, 1.2507808e+2, -1825673.6, -1772530.4, 24607.992, -0.029612744, -0.041636012, -1762886.0, -48655.563, 0.000060228966, 9.999262, 9.999958 
3.449785e+2, 1.3507836e+2, -1643558.0, -1609466.0, -71312.5, 0.09902676, -0.03211369, -1553190.5, 63037.816, 0.000025763518, 9.999728, 10.000183 
3.4498033e+2, 1.450786e+2, -1560790.1, -1569098.9, -367.90894, -0.034059588, -0.0035608488, -1560773.9, -42547.58, 0.000005876301, 9.999843, 9.999727 
3.4498477e+2, 1.5507784e+2, -1504888.9, -1496266.5, 5737.473, 0.009409742, -0.05157428, -1493401.0, -73167.08, 0.0000002059256, 9.999576, 9.999682 
3.4498864e+2, 1.6507745e+2, -1399915.6, -1396332.9, -20911.666, 0.037381247, -0.0581292, -1377136.0, -54898.242, 0.0, 9.99963, 9.99967 
3.4499148e+2, 1.7507748e+2, -1244681.5, -1271850.5, -20316.695, 0.006106868, -0.024440572, -1233826.1, -9588.852, 0.0, 10.000028, 9.9996605 
3.4499472e+2, 1.8507707e+2, -1148388.4, -1198319.0, -2302.933, -0.006679239, -0.019444736, -1148282.4, -22041.264, 0.0, 10.000116, 9.99945 
3.449985e+2, 1.9507624e+2, -1083370.1, -1117940.1, -4551.35, 0.013433028, -0.04887214, -1082781.0, -54531.97, 0.0, 9.999899, 9.999433 
3.4500197e+2, 2.050756e+2, -1000823.06, -1061243.0, -16016.09, 0.016602378, -0.040590804, -996840.06, -66584.13, 0.0, 9.999937, 9.999132 
3.4500504e+2, 2.1507515e+2, -861421.75, -944695.9, -12725.525, -0.0016638977, -0.0019268658, -859520.56, -27258.734, 0.0, 10.000227, 9.99912 
3.4500825e+2, 2.250742e+2, -758792.9, -872107.5, -5362.824, -0.011279143, 0.0035921673, -758539.6, -24267.957, 0.0, 10.000377, 9.998873 
3.450116e+2, 2.3507276e+2, -659550.44, -774624.1, -4456.2363, -0.01040145, -0.029730722, -659378.1, -23092.703, 0.0, 10.000391, 9.998862 
3.4501475e+2, 2.4507155e+2, -590889.5, -742428.25, -8836.548, -0.023714641, -0.013279132, -590375.94, -52077.066, 0.0, 10.000412, 9.998401 
3.450176e+2, 2.5507057e+2, -489073.0, -643618.0, -812.9466, -0.05241677, 0.04623737, -489068.72, -48756.863, 0.0, 10.000443, 9.998391 
3.450206e+2, 2.6506922e+2, -347304.38, -495484.8, -6891.03, -0.058920164, 0.059545316, -346984.63, -4658.422, 0.0, 10.00062, 9.99865 
3.4502372e+2, 2.750675e+2, -204284.6, -376035.44, -9130.792, -0.041847162, 0.019478882, -203800.53, 40541.34, 0.0, 10.00093, 9.998648 
3.4502688e+2, 2.85066e+2, -111134.66, -306283.25, 3461.2424, -0.03842737, 0.018259816, -111073.29, 35282.906, 0.0, 10.001009, 9.998416 
3.4503004e+2, 2.9506484e+2, -34089.445, -222179.36, 8722.093, -0.05619993, 0.05745805, -33685.85, 14682.624, 0.0, 10.000881, 9.998383 
3.4503314e+2, 3.0506292e+2, 50278.133, -125711.7, 14287.7295, -0.10028075, 0.016082814, 51430.535, 51430.535, 0.0, 10.000993, 9.998657 
3.4503743e+2, 3.1506222e+2, 109674.43, -70120.875, -26643.979, -0.01510439, 0.07513328, 113539.72, 113539.72, 0.0, 10.001285, 9.9988985 
3.54974e+2, 1.25074e+2, -1819971.3, -1760125.1, 47160.977, -0.053136516, -0.032741126, -1734195.3, -19923.951, 0.00005843651, 9.999258, 10.000046 
3.5497835e+2, 1.3507383e+2, -1641809.6, -1607018.0, -52526.242, 0.10898503, -0.07001616, -1569081.9, 47190.72, 0.000025162195, 9.999731, 10.000198 
3.5498008e+2, 1.450743e+2, -1546223.0, -1540288.6, -9973.843, -0.043951653, -0.029934274, -1532849.9, -14581.899, 0.0000057861466, 9.999848, 9.999923 
3.5498416e+2, 1.5507415e+2, -1491525.1, -1468074.4, -3744.8142, -0.0103128, -0.036881298, -1467490.9, -47220.832, 0.00000020730299, 9.999574, 9.999878 
3.5498813e+2, 1.6507389e+2, -1396624.6, -1389213.8, -6186.0454, 0.02461376, -0.042468175, -1385708.3, -63435.742, 0.0, 9.999628, 9.99972 
3.5499156e+2, 1.7507358e+2, -1241235.5, -1265009.5, -5012.7095, 0.011776885, -0.047259554, -1240221.9, -15946.929, 0.0, 10.000028, 9.999707 
3.5499483e+2, 1.8507314e+2, -1151204.0, -1204117.8, -10493.581, -0.0052081663, -0.045639597, -1149198.9, -22919.813, 0.0, 10.000116, 9.999411 
3.5499823e+2, 1.9507259e+2, -1085604.3, -1122758.8, -12164.466, -0.006470005, -0.045338005, -1081975.9, -53690.76, 0.0, 9.999899, 9.999401 
3.5500172e+2, 2.05072e+2, -994410.0, -1047415.8, -5248.044, -0.0025153998, -0.033330683, -993895.44, -63603.957, 0.0, 9.999935, 9.9992285 
3.5500523e+2, 2.1507142e+2, -855130.3, -931306.0, -1381.0164, -0.000512425, -0.016318267, -855105.25, -22807.18, 0.0, 10.000225, 9.999213 
3.550086e+2, 2.2507058e+2, -757712.2, -869366.1, -4999.317, -0.010921242, -0.0047129313, -757488.8, -23181.754, 0.0, 10.000375, 9.998893 
3.5501182e+2, 2.3506951e+2, -658340.06, -771902.7, -3743.574, -0.03008394, -0.0040051346, -658216.8, -21898.74, 0.0, 10.00039, 9.998882 
3.5501504e+2, 2.4506839e+2, -577446.75, -714434.25, -8108.2935, -0.0356148, 0.010801485, -576968.5, -38638.01, 0.0, 10.000411, 9.998593 
3.550183e+2, 2.5506726e+2, -474818.78, -613929.25, 419.0472, -0.029451761, 0.034208734, -474817.53, -34473.582, 0.0, 10.0004425, 9.998594 
3.5502142e+2, 2.6506588e+2, -352197.75, -505140.94, 4608.1123, -0.037390526, 0.038326122, -352059.03, -9700.719, 0.0, 10.000618, 9.998585 
3.550245e+2, 2.7506423e+2, -210062.22, -387266.66, 2691.9941, -0.057242017, 0.014368236, -210021.33, 34352.586, 0.0, 10.000926, 9.998572 
3.5502777e+2, 2.850629e+2, -111672.14, -306761.28, -2111.2175, -0.049993925, 0.02957333, -111649.29, 34738.44, 0.0, 10.001005, 9.998415 
3.5503125e+2, 2.950619e+2, -32996.05, -220006.47, 4377.7676, -0.024024006, 0.08746716, -32893.63, 15505.03, 0.0, 10.000881, 9.998397 
3.5503444e+2, 3.050603e+2, 58726.45, -107761.89, 25257.555, -0.067263946, 0.07145904, 62473.863, 62473.863, 0.0, 10.000991, 9.998781 
3.5503846e+2, 3.1505886e+2, 108611.72, -71243.48, -17540.266, -0.043578874, 0.043993514, 110306.35, 110306.35, 0.0, 10.001279, 9.998893 
3.6497355e+2, 1.2507012e+2, -1728377.6, -1705587.3, 73670.19, -0.053273536, -0.03082161, -1642436.1, 71873.27, 0.000055122826, 9.999843, 10.000136 
3.64978e+2, 1.3506977e+2, -1677017.9, -1622131.1, -29916.201, 0.112068534, -0.08714991, -1608977.4, 7334.478, 0.000023501116, 9.999481, 10.000215 
3.6497954e+2, 1.450704e+2, -1608642.5, -1564755.1, 2998.3235, -0.060909823, -0.035743162, -1564551.1, -46245.38, 0.00000526637, 9.999395, 9.999973 
3.649837e+2, 1.5507045e+2, -1491814.9, -1462088.3, -3239.7441, -0.0111515485, -0.027858911, -1461739.3, -41433.14, 0.00000017249042, 9.999544, 9.999932 
3.6498782e+2, 1.650702e+2, -1387440.8, -1382857.5, 1064.4264, 0.028502135, -0.035474073, -1382622.4, -60313.793, 0.0, 9.999681, 9.999738 
3.649914e+2, 1.7506973e+2, -1271449.4, -1277039.3, 11.107273, 0.004070358, -0.058694348, -1271449.4, -47137.047, 0.0, 9.99981, 9.999729 
3.6499476e+2, 1.8506931e+2, -1174667.1, -1216488.3, -15065.142, -0.01904239, -0.057330385, -1169805.5, -43488.965, 0.0, 9.999959, 9.999401 
3.6499807e+2, 1.9506891e+2, -1050676.6, -1106835.5, -15383.867, -0.021155223, -0.039173555, -1046738.6, -18417.443, 0.0, 10.000141, 9.999393 
3.6500165e+2, 2.0506836e+2, -952280.3, -1025729.3, -4592.2393, -0.014725204, -0.025970202, -951994.3, -21666.916, 0.0, 10.0002165, 9.999242 
3.650054e+2, 2.1506764e+2, -859757.6, -931465.9, -7180.766, -0.007529614, -0.02424556, -859045.6, -26710.521, 0.0, 10.000184, 9.999231 
3.6500886e+2, 2.2506684e+2, -779252.7, -877008.2, -15425.129, -0.015638852, -0.011543258, -776876.44, -42532.586, 0.0, 10.000216, 9.998918 
3.650121e+2, 2.3506595e+2, -668378.06, -773987.4, -14241.322, -0.035303883, 0.0066852025, -666491.4, -30137.77, 0.0, 10.000309, 9.998906 
3.6501545e+2, 2.4506491e+2, -562804.06, -691414.1, -17604.379, -0.03725258, 0.021199472, -560437.9, -22072.707, 0.0, 10.000443, 9.998735 
3.6501887e+2, 2.5506374e+2, -439102.47, -581364.6, -13907.442, -0.024200961, 0.026469823, -437755.63, 2622.8184, 0.0, 10.000621, 9.998733 
3.6502212e+2, 2.6506248e+2, -341506.16, -499059.63, -7822.9277, -0.032318737, 0.03423669, -341118.7, 1273.0748, 0.0, 10.000686, 9.998594 
3.6502525e+2, 2.750611e+2, -249186.19, -404966.84, -4368.3867, -0.059174016, 0.0353909, -249063.78, -4658.368, 0.0, 10.000652, 9.998583 
3.6502862e+2, 2.8505972e+2, -151974.45, -326191.03, -9544.464, -0.04951192, 0.047644943, -151453.13, -5033.3438, 0.0, 10.000728, 9.998415 
3.6503226e+2, 2.950584e+2, -33676.246, -221061.16, -3625.4763, -0.010760264, 0.07467445, -33606.125, 14827.599, 0.0, 10.000878, 9.998391 
3.6503562e+2, 3.0505723e+2, 70882.32, -99515.68, 23323.262, -0.054049145, 0.09693201, 74017.03, 74017.03, 0.0, 10.001063, 9.998804 
3.6503953e+2, 3.1505564e+2, 116222.01, -66307.1, -30132.834, -0.064976804, 0.051955555, 121067.84, 121067.84, 0.0, 10.001324, 9.998906 
3.7497357e+2, 1.2506646e+2, -1722438.0, -1692116.6, 64493.492, -0.035926133, -0.03511275, -1641025.9, 73319.03, 0.00005010573, 9.999838, 10.000231 
3.7497744e+2, 1.3506623e+2, -1676063.1, -1619782.4, -42306.715, 0.1097419, -0.083203055, -1597111.9, 19234.33, 0.000020857056, 9.999479, 10.000232 
3.749787e+2, 1.4506692e+2, -1615610.1, -1579094.1, 8760.484, -0.08513618, -0.020580824, -1577101.1, -58761.48, 0.000004428325, 9.999394, 9.999875 
3.749834e+2, 1.5506674e+2, -1498267.9, -1475478.1, 2704.2263, 0.0021716566, -0.02395602, -1475161.6, -54819.2, 0.00000011962439, 9.999544, 9.999842 
3.7498766e+2, 1.650664e+2, -1387676.1, -1383213.4, 5778.119, 0.043929137, -0.03622383, -1379250.8, -56904.805, 0.0, 9.9996805, 9.999736 
3.74991e+2, 1.7506593e+2, -1271457.0, -1277219.1, 5270.625, -0.016811647, -0.059273116, -1268331.4, -43981.715, 0.0, 9.99981, 9.999728 
3.7499443e+2, 1.8506555e+2, -1173238.1, -1213666.5, -8445.843, -0.048901826, -0.054637894, -1171544.6, -45191.21, 0.0, 9.99996, 9.999421 
3.7499812e+2, 1.9506523e+2, -1049746.6, -1104758.1, -8170.648, -0.03257156, -0.029982923, -1048558.7, -20201.44, 0.0, 10.00014, 9.999409 
3.750018e+2, 2.0506464e+2, -957010.6, -1034979.0, -5837.923, -0.022235587, -0.018589947, -956575.94, -26212.146, 0.0, 10.000215, 9.999179 
3.750054e+2, 2.1506377e+2, -864158.9, -940144.56, -7922.435, -0.023894174, -0.026097927, -863341.6, -30968.72, 0.0, 10.000182, 9.999173 
3.7500897e+2, 2.250629e+2, -777261.5, -872590.56, -12220.153, -0.0265622, -0.016838273, -775719.94, -41337.62, 0.0, 10.000214, 9.998949 
3.750125e+2, 2.3506208e+2, -666100.2, -768970.2, -10522.939, -0.027274111, 0.002439173, -665034.75, -28642.746, 0.0, 10.000308, 9.998941 
3.7501597e+2, 2.4506111e+2, -556950.7, -678737.06, -11114.568, -0.030457385, 0.017583584, -555944.6, -17541.52, 0.0, 10.000442, 9.998823 
3.7501934e+2, 2.5506002e+2, -433218.25, -569127.1, -7153.9067, -0.037558906, 0.02331261, -432842.72, 7572.617, 0.0, 10.000621, 9.9988165 
3.750227e+2, 2.65059e+2, -336043.34, -487750.03, -9580.17, -0.044363312, 0.047349863, -335440.75, 6985.6963, 0.0, 10.000686, 9.998672 
3.75026e+2, 2.7505803e+2, -243143.94, -391679.94, -5453.7397, -0.049533855, 0.081541225, -242943.97, 1492.5068, 0.0, 10.000649, 9.998675 
3.7502944e+2, 2.850565e+2, -152210.25, -325429.28, -3954.5637, -0.03946046, 0.072112404, -152120.02, -5667.639, 0.0, 10.000723, 9.998423 
3.7503305e+2, 2.950544e+2, -33920.184, -221678.83, 2264.9824, -0.019281426, 0.021068338, -33892.867, 14580.533, 0.0, 10.000879, 9.998386 
3.750366e+2, 3.0505368e+2, 65338.695, -111623.414, 32031.83, -0.063139506, 0.09299038, 70958.305, 70958.305, 0.0, 10.001065, 9.998719 
3.7504068e+2, 3.150525e+2, 117793.96, -61074.813, -21796.293, -0.08358524, 0.10084484, 120411.67, 120411.67, 0.0, 10.001316, 9.998946 
3.849734e+2, 1.2506285e+2, -1732979.6, -1705833.5, 67381.59, -0.031482246, -0.041009966, -1650671.5, 63707.637, 0.00004363311, 9.999804, 10.000153 
3.8497707e+2, 1.3506255e+2, -1651015.9, -1627230.1, -57675.918, 0.11062304, -0.08064008, -1580233.8, 36148.49, 0.000017489165, 9.999733, 10.000059 
3.8497803e+2, 1.450632e+2, -1563855.4, -1558044.6, 1671.0664, -0.10867572, -0.010063124, -1557598.3, -39222.242, 0.0000034194288, 9.999765, 9.999841 
3.8498306e+2, 1.5506288e+2, -1458732.0, -1459964.9, -1156.2719, 0.00061552087, -0.0261263, -1458038.1, -37658.13, 0.00000006772674, 9.99983, 9.99981 
3.8498747e+2, 1.6506249e+2, -1368098.0, -1380140.1, 922.9878, 0.049192913, -0.039828707, -1368027.6, -45643.48, 0.0, 9.999843, 9.99968 
3.8499075e+2, 1.7506208e+2, -1272180.0, -1283358.6, -4241.295, -0.023907026, -0.052133467, -1270753.0, -46364.984, 0.0, 9.999829, 9.999677 
3.8499427e+2, 1.8506171e+2, -1177321.8, -1210874.0, -14081.062, -0.058532935, -0.044446163, -1172195.5, -45804.027, 0.0, 9.99991, 9.999464 
3.849982e+2, 1.9506139e+2, -1055554.0, -1102348.8, -12088.217, -0.034673262, -0.024829658, -1052615.9, -24221.02, 0.0, 10.000078, 9.999455 
3.8500196e+2, 2.0506074e+2, -969960.75, -1049565.1, -15364.316, -0.025159948, -0.018293839, -967098.2, -36696.316, 0.0, 10.000162, 9.9991045 
3.8500547e+2, 2.1505976e+2, -871498.8, -951787.8, -19050.225, -0.036002588, -0.029364867, -867208.06, -34795.7, 0.0, 10.000167, 9.999101 
3.8500908e+2, 2.2505888e+2, -773288.25, -864891.2, -18293.457, -0.03597997, -0.019663798, -769770.1, -35348.04, 0.0, 10.0002165, 9.999 
3.8501284e+2, 2.3505816e+2, -661225.94, -760872.06, -15679.702, -0.023242703, 0.0030682727, -658816.94, -22385.848, 0.0, 10.000316, 9.998994 
3.850164e+2, 2.4505728e+2, -564025.56, -675641.5, -16525.652, -0.024455164, 0.023055553, -561630.2, -23188.992, 0.0, 10.000364, 9.998882 
3.850198e+2, 2.550563e+2, -466682.97, -578549.56, -15142.56, -0.040844705, 0.035416543, -464669.47, -24217.236, 0.0, 10.000362, 9.998877 
3.8502327e+2, 2.6505536e+2, -364139.6, -495098.56, -19061.814, -0.04616849, 0.061182033, -361421.44, -18958.81, 0.0, 10.000466, 9.998727 
3.8502675e+2, 2.7505445e+2, -236946.84, -382731.0, -17177.232, -0.039463285, 0.09258793, -234950.25, 9522.146, 0.0, 10.000665, 9.99873 
3.8503027e+2, 2.8505287e+2, -138228.2, -315342.28, -13566.614, -0.032883078, 0.076624274, -137195.05, 9293.435, 0.0, 10.000803, 9.998454 
3.8503382e+2, 2.950507e+2, -29831.873, -217519.2, -6853.736, -0.030207038, 0.0136605995, -29581.93, 18928.385, 0.0, 10.000896, 9.998407 
3.8503766e+2, 3.050502e+2, 59109.152, -127505.22, 27785.639, -0.062549144, 0.11409016, 63158.387, 63158.387, 0.0, 10.001078, 9.998605 
3.8504213e+2, 3.150486e+2, 125846.1, -46047.996, -30394.188, -0.06711481, 0.088967614, 131062.1, 131062.1, 0.000000000002787424, 10.001322, 9.999047 
3.9497316e+2, 1.2505934e+2, -1751314.3, -1742958.1, 66144.516, -0.04276939, -0.04874039, -1680859.9, 33552.51, 0.0000362571, 9.999801, 9.9999 
3.9497682e+2, 1.3505875e+2, -1676088.4, -1679592.0, -59185.39, 0.111647636, -0.07903561, -1618628.9, -2209.166, 0.000013744367, 9.999734, 9.999701 
3.9497754e+2, 1.450593e+2, -1562757.5, -1554995.8, 4575.1475, -0.13544253, -0.003278645, -1552877.1, -34462.188, 0.0000023661473, 9.999762, 9.999864 
3.9498273e+2, 1.5505885e+2, -1456763.5, -1456129.4, 1442.2047, -0.017184628, -0.035050206, -1454969.8, -34550.74, 0.000000028035489, 9.999831, 9.999836 
3.949873e+2, 1.6505843e+2, -1375705.0, -1396244.6, -219.71872, 0.04251481, -0.04616568, -1375702.6, -53279.23, 0.0, 9.999844, 9.999569 
3.9499062e+2, 1.7505814e+2, -1279860.0, -1298906.8, -4408.7417, -0.018605975, -0.03667825, -1278889.0, -54461.574, 0.0, 9.999827, 9.999572 
3.9499426e+2, 1.8505779e+2, -1172575.0, -1200526.9, -7833.807, -0.04968568, -0.026483705, -1170529.1, -44098.324, 0.0, 9.999908, 9.999536 
3.9499834e+2, 1.9505738e+2, -1050567.1, -1091623.6, -5460.497, -0.028847605, -0.023963291, -1049853.3, -21419.225, 0.0, 10.000076, 9.99953 
3.9500213e+2, 2.0505662e+2, -975994.9, -1061802.4, -15379.856, -0.025049735, -0.024842817, -973321.5, -42879.81, 0.0, 10.00016, 9.999022 
3.9500555e+2, 2.1505558e+2, -877737.56, -964208.0, -18409.92, -0.045186218, -0.033776104, -873981.2, -41527.664, 0.0, 10.000165, 9.999016 
3.9500922e+2, 2.2505476e+2, -768536.9, -854515.94, -14650.572, -0.045665108, -0.020270133, -766109.0, -31645.799, 0.0, 10.000215, 9.999072 
3.9501315e+2, 2.3505414e+2, -656107.4, -750269.7, -11664.15, -0.023924556, 0.008366612, -654684.0, -18213.254, 0.0, 10.000316, 9.999066 
3.9501682e+2, 2.4505343e+2, -562207.44, -671647.5, -16883.906, -0.020296134, 0.037635192, -559661.9, -21182.348, 0.0, 10.000363, 9.998911 
3.9502025e+2, 2.550526e+2, -464931.5, -573915.5, -14966.57, -0.035755247, 0.062248673, -462913.53, -22424.31, 0.0, 10.000359, 9.99891 
3.9502376e+2, 2.6505157e+2, -362224.84, -490058.9, -11820.516, -0.039793983, 0.07542587, -361141.0, -18640.623, 0.0, 10.000462, 9.998764 
3.950275e+2, 2.7505028e+2, -234156.52, -377829.66, -9716.576, -0.030945653, 0.069710925, -233502.36, 11010.714, 0.0, 10.000669, 9.998762 
3.950311e+2, 2.8504884e+2, -134692.44, -308402.38, -10576.622, -0.03150123, 0.061450772, -134050.83, 12477.16, 0.0, 10.000805, 9.998501 
3.9503458e+2, 2.9504728e+2, -27946.13, -211099.11, -3086.0747, -0.04579955, 0.051655542, -27894.146, 20650.34, 0.0, 10.000886, 9.998456 
3.950388e+2, 3.050468e+2, 47279.207, -149749.89, 36599.953, -0.054513786, 0.16008833, 53858.297, 53858.297, 0.0, 10.001068, 9.998457 
3.950439e+2, 3.1504393e+2, 137387.36, -22028.84, -20923.84, -0.02303316, 0.020881338, 140087.92, 140087.92, 0.000000001718879, 10.001324, 9.99921 
4.0497306e+2, 1.250555e+2, -1747667.9, -1740701.6, 33072.23, -0.031691067, -0.04391881, -1710929.6, 3520.708, 0.000028702449, 9.999825, 9.999903 
4.0497684e+2, 1.350548e+2, -1666438.4, -1686703.5, -73812.37, 0.13315861, -0.07640516, -1602066.4, 14392.718, 0.000010028613, 9.99985, 9.999597 
4.049772e+2, 1.4505526e+2, -1550704.5, -1550083.8, -168.7988, -0.14975725, -0.0025645588, -1550040.9, -31586.002, 0.0000013962007, 9.999847, 9.999857 
4.0498233e+2, 1.5505463e+2, -1468479.0, -1462122.8, -7964.24, -0.036572825, -0.05245869, -1456726.0, -36265.7, 0.000000006286357, 9.999752, 9.999833 
4.0498698e+2, 1.6505426e+2, -1387441.4, -1405733.3, -4096.061, 0.031087177, -0.057721578, -1386566.0, -64101.66, 0.0, 9.99978, 9.999535 
4.0499058e+2, 1.7505419e+2, -1266513.0, -1296440.0, -3173.984, -0.013478532, -0.019693159, -1266180.0, -41713.582, 0.0, 9.999936, 9.9995365 
4.0499425e+2, 1.850538e+2, -1161615.8, -1198233.6, -6906.4277, -0.042072877, -0.01034558, -1160356.5, -33886.094, 0.0, 9.999997, 9.999509 
4.0499836e+2, 1.9505307e+2, -1067508.6, -1102451.9, -12750.286, -0.031200169, -0.036980372, -1063350.9, -34874.65, 0.0, 9.999972, 9.999505 
4.0500218e+2, 2.050523e+2, -995955.06, -1068055.5, -22471.645, -0.028211886, -0.04095427, -989524.75, -59040.707, 0.0, 10.00001, 9.999051 
4.050057e+2, 2.1505152e+2, -883346.94, -963277.6, -17322.635, -0.0419854, -0.028316474, -879754.25, -47260.6, 0.0, 10.000111, 9.999048 
4.0500942e+2, 2.2505076e+2, -776486.06, -862011.2, -12062.678, -0.042972315, -0.0064029596, -774817.25, -40314.54, 0.0, 10.000175, 9.99904 
4.0501335e+2, 2.3505008e+2, -674618.3, -762316.8, -17285.506, -0.027772265, 0.018350484, -671334.25, -34823.02, 0.0, 10.000203, 9.999038 
4.0501714e+2, 2.450493e+2, -570801.56, -673454.75, -25518.367, -0.020034863, 0.042066894, -564807.94, -26287.477, 0.0, 10.000294, 9.998931 
4.0502077e+2, 2.5504842e+2, -449922.56, -564299.25, -24629.313, -0.021240948, 0.059317645, -444844.47, -4314.243, 0.0, 10.00045, 9.998933 
4.050244e+2, 2.6504737e+2, -351666.72, -488809.28, -21868.273, -0.027891083, 0.071229175, -348264.1, -5722.6484, 0.0, 10.000549, 9.998731 
4.0502807e+2, 2.7504614e+2, -246386.11, -387918.25, -25710.857, -0.03839567, 0.07080045, -241860.19, 2694.0356, 0.0, 10.000603, 9.998725 
4.0503177e+2, 2.8504467e+2, -151907.36, -320713.28, -32877.215, -0.03980229, 0.065690205, -145730.13, 839.3425, 0.0, 10.000704, 9.998465 
4.0503553e+2, 2.9504302e+2, -38024.22, -220054.7, -31841.77, -0.03592171, 0.05462986, -32615.021, 15971.665, 0.0, 10.0008335, 9.998421 
4.0504003e+2, 3.0504256e+2, 28205.117, -168910.39, 13315.782, -0.033239678, 0.17146301, 29100.572, 29100.572, 0.0, 10.00098, 9.998367 
4.0504515e+2, 3.1503955e+2, 133091.84, 3756.1545, -42837.664, -0.024642166, 0.025312375, 145993.3, 145993.3, 0.00000001196501, 10.001174, 9.99946 
4.1497317e+2, 1.2505132e+2, -1730173.0, -1703371.6, 33769.39, -0.0045110644, -0.028374642, -1680441.3, 34051.99, 0.000021697306, 9.999821, 10.00016 
4.1497707e+2, 1.3505064e+2, -1654776.8, -1664399.9, -71715.28, 0.1732939, -0.07451422, -1587711.9, 28788.45, 0.000006740833, 9.999857, 9.999747 
4.14977e+2, 1.4505109e+2, -1553805.8, -1556152.0, -3250.411, -0.15428376, -0.0088365665, -1551523.3, -33027.477, 0.0000006540361, 9.999846, 9.999816 
4.1498184e+2, 1.5505022e+2, -1471001.1, -1466744.3, -11305.519, -0.05817235, -0.07744972, -1457368.6, -36864.945, 0.0000000002364484, 9.999749, 9.999803 
4.1498658e+2, 1.6504994e+2, -1385449.5, -1400874.8, 1353.4286, 0.013774682, -0.073916696, -1385331.8, -62824.824, 0.0, 9.999777, 9.999569 
4.1499054e+2, 1.7505026e+2, -1264198.5, -1291330.4, 2993.7158, -0.010894687, -0.0012996597, -1263872.1, -39366.93, 0.0, 9.999935, 9.999572 
4.1499433e+2, 1.8504979e+2, -1170530.8, -1216597.6, -8069.248, -0.03833203, 0.0039605666, -1169158.3, -42648.195, 0.0, 9.999996, 9.999383 
4.149982e+2, 1.9504853e+2, -1076752.0, -1121005.5, -13341.061, -0.042294566, -0.06351343, -1073041.3, -44519.742, 0.0, 9.9999695, 9.999379 
4.150021e+2, 2.0504777e+2, -986057.56, -1047022.5, -18844.06, -0.035421185, -0.066711575, -980703.2, -50174.12, 0.0, 10.000008, 9.999196 
4.1500595e+2, 2.1504754e+2, -873342.8, -942008.0, -13097.847, -0.027972648, -0.013103295, -870929.25, -38396.387, 0.0, 10.000109, 9.999195 
4.1500974e+2, 2.2504692e+2, -786060.06, -881536.0, -11194.655, -0.029562538, 0.021884516, -784765.06, -50224.285, 0.0, 10.0001745, 9.998906 
4.150135e+2, 2.3504595e+2, -684139.8, -781622.3, -15921.186, -0.035892352, 0.032830585, -681605.44, -45052.82, 0.0, 10.000201, 9.998906 
4.150174e+2, 2.4504492e+2, -569792.56, -670945.44, -19893.34, -0.025132854, 0.036309112, -566020.9, -27456.713, 0.0, 10.000292, 9.998949 
4.1502145e+2, 2.550438e+2, -448500.06, -561888.44, -18753.316, 0.0012741338, 0.026781734, -445478.94, -4903.713, 0.0, 10.000452, 9.998948 
4.1502512e+2, 2.650428e+2, -359363.5, -504317.28, -20182.139, -0.011747352, 0.04855675, -356605.97, -14020.144, 0.0, 10.000548, 9.998625 
4.1502842e+2, 2.7504194e+2, -254846.39, -403691.7, -23088.281, -0.06322869, 0.09488513, -251347.3, -6751.342, 0.0, 10.000595, 9.99862 
4.150323e+2, 2.8504035e+2, -161093.55, -338388.13, -28299.225, -0.059463996, 0.088760935, -156686.08, -10073.117, 0.0, 10.000698, 9.998346 
4.1503668e+2, 2.9503804e+2, -45138.395, -235640.67, -27351.453, -0.003465211, 0.024381014, -41289.17, 7347.4844, 0.0, 10.000837, 9.998312 
4.1504136e+2, 3.050376e+2, 25264.441, -175205.78, 20213.752, -0.0015509523, 0.1496534, 27282.316, 27282.316, 0.0, 10.000981, 9.9983225 
4.150458e+2, 3.1503546e+2, 154185.17, 50782.27, -35534.89, -0.07656255, 0.095470615, 165219.42, 165219.42, 0.000000036873733, 10.001162, 9.999787 
4.2497298e+2, 1.2504731e+2, -1744212.5, -1685306.6, 52610.406, 0.007878711, -0.017045364, -1654465.9, 60068.254, 0.000015823704, 9.999622, 10.000379 
4.2497703e+2, 1.3504665e+2, -1666198.5, -1658806.9, -56514.29, 0.18815497, -0.07161817, -1605867.6, 10672.333, 0.0000041887733, 9.999732, 9.9998455 
4.2497668e+2, 1.4504714e+2, -1559244.1, -1561741.8, 6076.1636, -0.17109212, -0.0031837623, -1554289.8, -35755.094, 0.00000021832761, 9.999824, 9.999788 
4.2498162e+2, 1.5504634e+2, -1465766.9, -1467300.0, -2995.4646, -0.057388857, -0.063733205, -1463441.4, -42898.992, 0.0, 9.9998, 9.999775 
4.2498645e+2, 1.6504602e+2, -1379783.8, -1396926.0, 16138.902, 0.02106733, -0.064027436, -1370081.3, -47535.215, 0.0, 9.99981, 9.99958 
4.2499042e+2, 1.7504619e+2, -1272459.1, -1294143.6, 15038.588, -0.012085712, -0.0072687203, -1264761.9, -40216.88, 0.0, 9.999873, 9.999582 
4.2499426e+2, 1.8504567e+2, -1185689.9, -1236665.4, 733.7774, -0.041490562, -0.0011226499, -1185679.3, -59128.9, 0.0, 9.9999485, 9.999268 
4.2499822e+2, 1.9504446e+2, -1075009.1, -1133009.5, -3932.5986, -0.040827587, -0.051304672, -1074743.8, -46181.633, 0.0, 10.000037, 9.999264 
4.2500216e+2, 2.050437e+2, -977124.5, -1040324.9, -13275.235, -0.034829825, -0.050945092, -974449.3, -43879.406, 0.0, 10.000059, 9.999217 
4.2500594e+2, 2.1504338e+2, -885449.5, -945338.25, -17517.324, -0.033475526, -0.0076496685, -880702.06, -48128.227, 0.0, 10.000015, 9.999217 
4.2500982e+2, 2.2504275e+2, -800724.7, -894018.75, -13227.643, -0.03429523, 0.024592215, -798885.5, -64303.523, 0.0, 10.000097, 9.9988575 
4.2501375e+2, 2.350418e+2, -672330.06, -781244.3, -12211.879, -0.03317847, 0.04169889, -670977.6, -34383.633, 0.0, 10.000305, 9.998858 
4.2501783e+2, 2.4504068e+2, -549080.4, -669989.0, -15210.595, -0.020210467, 0.04486902, -547196.25, -8590.022, 0.0, 10.000473, 9.998868 
4.25022e+2, 2.550394e+2, -431992.38, -563050.0, -21977.408, 0.003263079, 0.027178327, -428405.13, 12213.516, 0.0, 10.000606, 9.998866 
4.250258e+2, 2.650383e+2, -343867.84, -509621.2, -30209.621, -0.00626484, 0.048906785, -338533.6, 4096.8257, 0.0, 10.00071, 9.99851 
4.2502928e+2, 2.7503738e+2, -235840.48, -406860.44, -33862.19, -0.04774014, 0.104099445, -229379.78, 15261.704, 0.0, 10.000778, 9.998509 
4.2503315e+2, 2.8503582e+2, -141367.48, -325763.75, -31856.23, -0.049468644, 0.10542223, -136019.14, 10639.178, 0.0, 10.000819, 9.998375 
4.250374e+2, 2.9503363e+2, -43611.42, -231707.9, -21833.984, -0.013285915, 0.043386474, -41110.223, 7570.9336, 0.0, 10.0008335, 9.998341 
4.2504227e+2, 3.0503294e+2, -4242.2495, -206162.31, 28637.018, -0.001988607, 0.15021364, -259.4073, -259.4073, 0.0, 10.000851, 9.998173 
4.250469e+2, 3.150308e+2, 124549.86, 55887.918, -34505.715, -0.069140114, 0.11592294, 138893.92, 138893.92, 0.00000007454206, 10.000872, 9.999964 
4.3497255e+2, 1.250435e+2, -1733252.6, -1661910.0, 54066.95, -0.00017425547, -0.009337033, -1632807.3, 81765.44, 0.0000113764345, 9.99962, 10.00054 
4.3497667e+2, 1.3504285e+2, -1662878.6, -1653194.5, -50477.168, 0.17641358, -0.06646794, -1607327.6, 9250.415, 0.0000025044064, 9.999736, 9.999884 
4.349762e+2, 1.4504349e+2, -1560464.8, -1564208.0, 6108.156, -0.20213097, 0.015183234, -1555947.9, -37376.46, 0.000000047491298, 9.999823, 9.999772 
4.3498164e+2, 1.55043e+2, -1467083.5, -1469983.4, -3430.9226, -0.03649887, -0.012795274, -1464808.8, -44231.902, 0.0, 9.9998, 9.999757 
4.3498653e+2, 1.6504247e+2, -1381814.4, -1400231.1, 18453.781, 0.05021767, -0.02931615, -1370399.1, -47817.305, 0.0, 9.999807, 9.999558 
4.3499023e+2, 1.7504199e+2, -1274003.6, -1296817.9, 17938.492, -0.018008128, -0.03716051, -1264152.5, -39566.613, 0.0, 9.999871, 9.999565 
4.3499407e+2, 1.8504147e+2, -1193563.6, -1252353.8, 3889.0645, -0.05282494, -0.024740577, -1193307.4, -66716.16, 0.0, 9.999946, 9.999161 
4.349984e+2, 1.9504091e+2, -1082612.9, -1148218.1, -251.11566, -0.028484339, 0.00015005305, -1082611.9, -54013.797, 0.0, 10.000035, 9.99916 
4.350023e+2, 2.050401e+2, -984916.94, -1055792.6, -14922.968, -0.027888725, 0.006384747, -981903.06, -51296.406, 0.0, 10.000056, 9.999112 
4.350057e+2, 2.1503906e+2, -893072.8, -960651.8, -18684.213, -0.0595812, -0.011915509, -888251.0, -55634.348, 0.0, 10.000013, 9.999113 
4.350097e+2, 2.2503819e+2, -798381.94, -888843.75, -5651.0674, -0.058414306, 0.0021617478, -798030.25, -63403.887, 0.0, 10.000095, 9.998894 
4.350142e+2, 2.3503755e+2, -669888.56, -776210.94, -4261.2554, -0.021070968, 0.044563845, -669718.06, -33082.56, 0.0, 10.000305, 9.998893 
4.3501842e+2, 2.4503656e+2, -561931.9, -696125.3, -10433.414, -0.0064600436, 0.066932455, -561125.56, -22478.715, 0.0, 10.000471, 9.998691 
4.350224e+2, 2.550352e+2, -444775.75, -588938.8, -16628.99, -0.016475728, 0.060032148, -442882.5, -2221.9412, 0.0, 10.000603, 9.99869 
4.3502644e+2, 2.6503384e+2, -352811.13, -527528.0, -27868.85, -0.012815036, 0.071949415, -348473.5, -5798.15, 0.0, 10.000707, 9.998389 
4.3503058e+2, 2.7503255e+2, -243832.94, -423603.63, -31460.16, 0.0058015813, 0.09944736, -238486.36, 6204.427, 0.0, 10.000778, 9.998395 
4.3503433e+2, 2.850312e+2, -129860.94, -300654.2, -31505.646, -0.011972205, 0.11614534, -124234.55, 22471.035, 0.0, 10.000814, 9.998549 
4.3503773e+2, 2.950297e+2, -32341.377, -207061.69, -20822.648, -0.066959135, 0.11013603, -29894.076, 18826.34, 0.0, 10.000829, 9.998512 
4.3504277e+2, 3.050285e+2, -22469.684, -242960.1, 28808.732, -0.036421563, 0.17215829, -18767.758, -18767.758, 0.0, 10.000847, 9.997923 
4.350484e+2, 3.1502557e+2, 127088.33, 61532.19, -30621.39, -0.007680322, 0.07985643, 139166.38, 139166.38, 0.0000001100893, 10.000871, 10.000003 
4.4497216e+2, 1.2503989e+2, -1740048.5, -1666465.1, 56618.594, 0.00079719233, 0.014803042, -1635734.3, 78874.766, 0.000008277144, 9.99958, 10.000527 
4.4497645e+2, 1.3503897e+2, -1679441.1, -1675543.4, -55068.22, 0.18314286, -0.05556033, -1622389.6, -5772.378, 0.0000015575915, 9.999682, 9.999758 
4.4497576e+2, 1.4503954e+2, -1567357.1, -1569594.3, -8382.218, -0.22289182, 0.02619461, -1560019.3, -41407.703, 0.000000013935479, 9.999784, 9.999754 
4.449815e+2, 1.5503925e+2, -1469886.1, -1473218.1, -20772.04, -0.033083152, 0.018807901, -1450713.4, -30098.168, 0.0, 9.999789, 9.999739 
4.4498652e+2, 1.6503866e+2, -1369825.8, -1394726.3, 7875.3364, 0.062089387, -0.00242254, -1367544.0, -44923.66, 0.0, 9.999891, 9.999556 
4.4499025e+2, 1.7503789e+2, -1239908.8, -1280654.0, 8844.026, -0.015684795, -0.039863165, -1238072.0, -13445.555, 0.0, 10.000108, 9.999561 
4.4499415e+2, 1.8503729e+2, -1166999.4, -1249920.6, -8737.181, -0.052736368, -0.029688144, -1166088.8, -39456.4, 0.0, 10.000174, 9.999067 
4.449985e+2, 1.9503687e+2, -1081639.6, -1158081.6, -12669.752, -0.023109326, 0.019764898, -1079594.4, -50955.816, 0.0, 10.000087, 9.999067 
4.450024e+2, 2.0503601e+2, -978708.75, -1055550.3, -21857.41, -0.023755498, 0.025610823, -972926.56, -42278.98, 0.0, 10.000111, 9.999087 
4.450058e+2, 2.150347e+2, -861333.1, -948128.06, -19888.297, -0.063375935, -0.017159646, -856992.94, -24333.623, 0.0, 10.000244, 9.999087 
4.4500986e+2, 2.250337e+2, -771707.9, -889248.5, -6156.7485, -0.06373968, -0.009443529, -771386.25, -36716.11, 0.0, 10.000337, 9.998775 
4.4501454e+2, 2.3503304e+2, -665754.6, -787671.5, -16900.416, -0.022236178, 0.042952012, -663455.2, -26775.12, 0.0, 10.000392, 9.998773 
4.4501892e+2, 2.4503204e+2, -568006.3, -702402.5, -24474.104, -0.0037180483, 0.07306123, -563688.25, -24996.549, 0.0, 10.000443, 9.998661 
4.45023e+2, 2.5503072e+2, -462926.84, -600335.5, -19921.063, -0.009741652, 0.073058225, -460097.03, -19391.947, 0.0, 10.000489, 9.998666 
4.4502714e+2, 2.6502937e+2, -370366.03, -533631.75, -19048.938, -0.00647599, 0.08364691, -368172.97, -25452.969, 0.0, 10.000576, 9.99841 
4.4503134e+2, 2.75028e+2, -253564.42, -426416.0, -12820.498, 0.007553603, 0.102456905, -252618.69, -7882.5684, 0.0, 10.000704, 9.998412 
4.450351e+2, 2.850267e+2, -129669.484, -300628.9, -16018.465, -0.016115554, 0.12520975, -128181.55, 18568.623, 0.0, 10.000815, 9.998549 
4.450385e+2, 2.9502538e+2, -22815.037, -201651.89, -19100.18, -0.07680998, 0.138136, -20797.848, 27965.154, 0.0, 10.000891, 9.99852 
4.4504368e+2, 3.0502376e+2, -27304.541, -251958.56, 28977.076, -0.029426299, 0.15732317, -23627.12, -23627.12, 0.00000000000009396187, 10.00084, 9.997865 
4.4504932e+2, 3.1502098e+2, 105548.78, 63577.297, -15994.714, 0.006504197, 0.083681785, 110949.25, 110949.25, 0.00000013361628, 10.0006695, 10.0001135 
4.5497176e+2, 1.2503643e+2, -1752238.3, -1691717.8, 55016.52, 0.0050034225, 0.052876115, -1659188.6, 55454.75, 0.0000061456926, 9.999581, 10.000354 
4.5497635e+2, 1.3503501e+2, -1698844.1, -1715996.3, -49066.9, 0.2075993, -0.041419014, -1657609.5, -40951.746, 0.0000010596042, 9.999681, 9.999481 
4.5497543e+2, 1.4503531e+2, -1570134.0, -1574597.9, -6557.2134, -0.23572083, 0.028095422, -1565439.3, -46784.168, 0.000000007555667, 9.999781, 9.999722 
4.5498112e+2, 1.550351e+2, -1471791.5, -1477309.0, -20030.256, -0.04985454, 0.032677304, -1454330.9, -33673.156, 0.0, 9.99979, 9.999711 
4.5498633e+2, 1.6503459e+2, -1368012.0, -1391220.3, 15652.404, 0.054328945, 0.018793337, -1360131.4, -37469.625, 0.0, 9.999892, 9.999579 
4.5499045e+2, 1.7503385e+2, -1238511.0, -1277510.5, 17623.994, -0.0056436476, -0.015610541, -1231726.8, -7060.209, 0.0, 10.000107, 9.999584 
4.549944e+2, 1.8503311e+2, -1173732.1, -1262714.0, -11725.427, -0.042604428, -0.017116647, -1172212.9, -45539.1, 0.0, 10.000169, 9.998981 
4.5499852e+2, 1.9503236e+2, -1087869.8, -1170453.8, -15535.727, -0.02652261, 0.006911277, -1085043.9, -56360.387, 0.0, 10.000085, 9.998983 
4.5500252e+2, 2.0503142e+2, -975174.6, -1047511.0, -17151.78, -0.024389727, 0.0066850493, -971313.8, -40620.984, 0.0, 10.000108, 9.999144 
4.550062e+2, 2.150303e+2, -857335.2, -939721.75, -14612.028, -0.046043858, -0.023103848, -854820.4, -22118.646, 0.0, 10.000243, 9.9991455 
4.5501032e+2, 2.2502923e+2, -791489.56, -930081.56, -4283.6104, -0.051143903, -0.010570936, -791357.3, -56643.977, 0.0, 10.000336, 9.998495 
4.5501477e+2, 2.3502822e+2, -685150.1, -827929.2, -14643.465, -0.037103273, 0.036923032, -683663.75, -46936.047, 0.0, 10.000391, 9.998497 
4.550193e+2, 2.4502712e+2, -560079.94, -685558.2, -23063.287, -0.01291069, 0.06415274, -555975.1, -17234.395, 0.0, 10.000442, 9.998777 
4.550238e+2, 2.5502598e+2, -454580.1, -582415.8, -18267.59, 0.021363584, 0.066026784, -452020.9, -11268.623, 0.0, 10.000487, 9.99879 
4.5502788e+2, 2.650248e+2, -359394.25, -510317.28, -14410.589, 0.011587962, 0.083541416, -358030.6, -15265.987, 0.0, 10.000573, 9.998571 
4.550315e+2, 2.750237e+2, -242487.58, -403840.06, -7389.263, -0.04352261, 0.11173225, -242149.89, 2627.8535, 0.0, 10.000705, 9.998567 
4.5503542e+2, 2.8502238e+2, -142653.61, -326625.4, -13561.696, -0.06367234, 0.13162354, -141659.27, 5133.0234, 0.0, 10.000812, 9.998372 
4.5503968e+2, 2.9502076e+2, -33904.535, -223870.6, -16794.426, -0.045882832, 0.12846868, -32431.207, 16377.693, 0.0, 10.000887, 9.998368 
4.5504498e+2, 3.0501866e+2, -19927.188, -234709.19, 22330.998, 0.016648445, 0.106855944, -17629.992, -17629.992, 0.00000000000087855477, 10.000833, 9.997987 
4.5504963e+2, 3.1501678e+2, 117813.44, 89845.836, -18577.563, -0.029981922, 0.11504817, 127082.0, 127082.0, 0.00000014519496, 10.000667, 10.000295 
4.649713e+2, 1.2503235e+2, -1716727.5, -1676588.4, 21887.379, -0.011779564, 0.05897008, -1666962.1, 47722.3, 0.000004581255, 9.999836, 10.000333 
4.649763e+2, 1.3503096e+2, -1711522.1, -1735765.8, -63348.605, 0.23613359, -0.01958666, -1659146.0, -42446.953, 0.0000007444035, 9.999652, 9.99936 
4.6497527e+2, 1.4503111e+2, -1572398.5, -1580387.8, -6164.1743, -0.23152113, 0.043294754, -1569047.8, -50349.844, 0.0000000034677494, 9.999786, 9.999679 
4.64981e+2, 1.5503073e+2, -1421282.0, -1457367.9, -21533.834, -0.05764808, 0.036786158, -1411231.4, 9469.96, 0.0, 10.000155, 9.999671 
4.649863e+2, 1.6503015e+2, -1325966.0, -1377972.5, 3366.2705, 0.045247544, 0.019925315, -1325749.0, -3043.178, 0.0, 10.000212, 9.9995165 
4.6499047e+2, 1.750294e+2, -1264832.4, -1297098.6, -1824.2639, -0.0070416494, -0.009633816, -1264729.5, -40018.313, 0.0, 9.999956, 9.999522 
4.649945e+2, 1.8502869e+2, -1199678.8, -1266627.3, -23729.426, -0.04306888, -0.010163121, -1192121.1, -65403.023, 0.0, 9.999952, 9.99906 
4.6499863e+2, 1.95028e+2, -1064122.1, -1150338.4, -14671.763, -0.032698065, 0.0118070245, -1061693.8, -32967.16, 0.0, 10.00021, 9.999062 
4.650027e+2, 2.0502701e+2, -950424.94, -1047219.6, -17101.094, -0.028246414, 0.009247028, -947492.44, -16756.295, 0.0, 10.000328, 9.99904 
4.6500653e+2, 2.1502575e+2, -856571.94, -951245.2, -27694.871, -0.04155662, -0.023369003, -849065.5, -16318.809, 0.0, 10.000299, 9.99904 
4.6501067e+2, 2.2502463e+2, -797185.7, -935698.75, -13538.595, -0.046225816, -0.010983006, -795874.75, -61115.633, 0.0, 10.000308, 9.998469 
4.6501514e+2, 2.3502363e+2, -692174.56, -833629.7, -5095.93, -0.03891372, 0.039719258, -691991.2, -55217.86, 0.0, 10.000354, 9.998475 
4.6501967e+2, 2.4502257e+2, -552515.75, -677703.4, -3875.7427, -0.019296762, 0.06941391, -552395.9, -13609.902, 0.0, 10.000477, 9.998814 
4.650243e+2, 2.5502145e+2, -424808.0, -564704.2, -6014.5464, 0.012356014, 0.07214226, -424549.88, 16247.125, 0.0, 10.000676, 9.99882 
4.6502846e+2, 2.6502025e+2, -338421.97, -492987.1, -14591.715, 0.0059358114, 0.08107444, -337056.5, 5752.902, 0.0, 10.000686, 9.998637 
4.6503216e+2, 2.7501905e+2, -267299.66, -408259.8, -15403.01, -0.039984614, 0.09246682, -265636.2, -20813.213, 0.0, 10.000503, 9.998633 
4.650362e+2, 2.850178e+2, -170118.7, -344600.06, -8173.703, -0.057440296, 0.122171804, -169736.64, -22900.2, 0.0, 10.000644, 9.99833 
4.650407e+2, 2.9501647e+2, -7503.741, -214722.78, -2945.1968, -0.042314466, 0.15419243, -7461.89, 41388.727, 0.0, 10.001084, 9.998337 
4.6504596e+2, 3.05014e+2, 8654.974, -220563.38, 14337.177, 0.024058146, 0.091429226, 9548.256, 9548.256, 0.00000000000042122027, 10.001026, 9.997991 
4.650501e+2, 3.1501237e+2, 86133.75, 67282.8, -32312.906, -0.038441617, 0.124608755, 110367.8, 110367.8, 0.00000014428599, 10.000479, 10.000232 
4.749707e+2, 1.250276e+2, -1709027.6, -1659826.8, 5265.9595, -0.057648316, 0.031846512, -1659269.5, 55462.844, 0.0000033199578, 9.999832, 10.00045 
4.7497627e+2, 1.3502684e+2, -1709355.1, -1732419.3, -68429.9, 0.26533645, 0.0135184415, -1651492.4, -34751.176, 0.00000048107097, 9.999655, 9.999383 
4.7497523e+2, 1.4502698e+2, -1574437.0, -1585443.0, 8497.527, -0.21419893, 0.07593291, -1569816.3, -51076.465, 0.000000000765976, 9.999789, 9.999642 
4.7498116e+2, 1.5502617e+2, -1424267.0, -1462765.5, -6964.876, -0.0567007, 0.02966961, -1423045.8, -2299.6694, 0.0, 10.000153, 9.999636 
4.7498637e+2, 1.6502534e+2, -1337361.9, -1401122.9, -5988.1836, 0.033848315, -0.00061733986, -1336804.3, -14051.281, 0.0, 10.000209, 9.999358 
4.7499028e+2, 1.7502454e+2, -1275568.3, -1319574.4, -10954.972, -0.023413103, -0.021864476, -1272991.9, -48231.4, 0.0, 9.999957, 9.999367 
4.749943e+2, 1.8502402e+2, -1181888.0, -1229670.5, -14312.219, -0.058070872, -0.007557672, -1177929.1, -51163.76, 0.0, 9.999952, 9.999313 
4.7499874e+2, 1.9502378e+2, -1046394.56, -1113721.5, -4495.372, -0.041613612, 0.03479812, -1046095.75, -17327.963, 0.0, 10.000211, 9.999312 
4.7500294e+2, 2.050228e+2, -970437.5, -1087542.8, -18203.15, -0.035969753, 0.03294047, -967673.2, -36895.684, 0.0, 10.000323, 9.998766 
4.7500676e+2, 2.1502107e+2, -875710.1, -990868.94, -28549.967, -0.051192872, -0.018370379, -869020.6, -36226.28, 0.0, 10.0002985, 9.998768 
4.7501093e+2, 2.2501987e+2, -781548.6, -902815.06, -12207.765, -0.05063747, -0.010664693, -780331.9, -45524.258, 0.0, 10.000306, 9.998696 
4.7501555e+2, 2.350192e+2, -675904.9, -799609.75, -3154.5806, -0.029265728, 0.0504824, -675824.5, -39007.39, 0.0, 10.000353, 9.99871 
4.750201e+2, 2.4501833e+2, -556324.25, -685459.0, 3339.3599, -0.024328483, 0.08754391, -556237.94, -17410.383, 0.0, 10.000475, 9.998761 
4.7502446e+2, 2.5501716e+2, -428624.13, -573074.56, 1624.773, -0.037363704, 0.09145407, -428605.88, 12233.4795, 0.0, 10.000678, 9.998763 
4.7502884e+2, 2.650157e+2, -341314.97, -498626.88, -21804.967, -0.024209214, 0.07738211, -338348.53, 4505.797, 0.0, 10.000684, 9.998599 
4.7503322e+2, 2.7501398e+2, -269649.38, -412224.44, -22192.328, 0.015618081, 0.04542966, -266274.9, -21403.076, 0.0, 10.000499, 9.998608 
4.7503746e+2, 2.8501302e+2, -164150.73, -331394.34, 8411.639, 0.0007077616, 0.096952625, -163728.72, -16845.951, 0.0, 10.00064, 9.998424 
4.7504154e+2, 2.9501262e+2, -514.2116, -200392.98, 13951.045, -0.06849921, 0.21271859, 454.83865, 49343.305, 0.0, 10.001084, 9.998436 
4.7504666e+2, 3.0500972e+2, -643.4207, -238038.89, -7005.1396, -0.009533312, 0.10832437, -436.89056, -436.89056, 0.0, 10.0010195, 9.997874 
4.7505075e+2, 3.1500757e+2, 65518.92, 25874.48, -46266.26, -0.024342133, 0.103528105, 96030.46, 96030.46, 0.00000012581201, 10.000474, 9.9999485 
4.8497015e+2, 1.2502317e+2, -1780657.0, -1688272.6, 3742.8657, -0.07043169, 0.03644842, -1688121.3, 26655.44, 0.0000022837717, 9.999318, 10.000501 
4.8497614e+2, 1.3502258e+2, -1666962.1, -1714625.3, -61887.027, 0.27326208, 0.037357982, -1624476.8, -7692.6675, 0.0000002759338, 9.999957, 9.99936 
4.8497513e+2, 1.4502259e+2, -1505753.1, -1549040.1, 11085.242, -0.22618887, 0.08538932, -1503079.5, 15704.08, 0.000000000009128432, 10.000247, 9.999672 
4.849813e+2, 1.5502162e+2, -1438710.8, -1466752.5, -2236.5068, -0.053630535, 0.02161571, -1438533.5, -17742.965, 0.0, 10.00004, 9.999663 
4.8498654e+2, 1.6502082e+2, -1373146.1, -1425429.4, 648.79675, 0.04021351, -0.0061247633, -1373138.1, -50340.734, 0.0, 9.999993, 9.999297 
4.849903e+2, 1.7502017e+2, -1250962.1, -1314385.5, 2926.0168, -0.025314342, -0.0037065411, -1250827.4, -26023.502, 0.0, 10.000154, 9.999309 
4.8499432e+2, 1.8501961e+2, -1143095.5, -1207309.5, 531.8358, -0.06020004, 0.007002645, -1143091.0, -16281.777, 0.0, 10.000202, 9.999348 
4.8499894e+2, 1.9501913e+2, -1057364.4, -1115149.0, -6914.0767, -0.03814684, 0.01985518, -1056548.6, -27735.156, 0.0, 10.000118, 9.999348 
4.8500323e+2, 2.0501819e+2, -992999.75, -1098860.6, -18138.643, -0.031222854, 0.022052415, -989978.06, -59155.273, 0.0, 10.000169, 9.998763 
4.8500708e+2, 2.1501683e+2, -867698.44, -986921.56, -7900.791, -0.048834726, 0.008364355, -867177.1, -34340.3, 0.0, 10.000354, 9.998769 
4.8501134e+2, 2.2501568e+2, -757261.2, -889542.6, 9605.264, -0.04883126, 0.02057337, -756567.4, -21717.703, 0.0, 10.000466, 9.998711 
4.8501602e+2, 2.3501475e+2, -652651.3, -787384.0, 1282.0818, -0.028177856, 0.052698683, -652639.1, -15777.939, 0.0, 10.000507, 9.998719 
4.8502055e+2, 2.4501377e+2, -553849.06, -684158.94, 2545.9966, -0.028197983, 0.08149362, -553799.3, -14927.177, 0.0, 10.000491, 9.998763 
4.850249e+2, 2.5501275e+2, -466223.06, -590563.9, 4472.127, -0.0505029, 0.0977541, -466062.4, -25179.607, 0.0, 10.000418, 9.998768 
4.850294e+2, 2.6501128e+2, -358697.63, -506129.72, -13898.228, -0.03394046, 0.08429965, -357398.9, -14501.382, 0.0, 10.000562, 9.998606 
4.85034e+2, 2.7500948e+2, -210057.48, -383233.28, -11279.354, 0.022098497, 0.040828895, -209325.94, 35589.805, 0.0, 10.000907, 9.9986105 
4.8503828e+2, 2.850085e+2, -127989.67, -312360.88, 15829.907, 0.008237109, 0.09029896, -126640.41, 20286.357, 0.0, 10.000881, 9.998438 
4.8504224e+2, 2.950082e+2, -84677.66, -238134.73, 14300.29, -0.07476713, 0.21484621, -83356.42, -34424.594, 0.0, 10.000494, 9.998461 
4.8504743e+2, 3.0500522e+2, -57127.047, -239381.72, 886.6925, -0.010569742, 0.08706441, -57122.734, -57122.734, 0.0, 10.00052, 9.998106 
4.8505145e+2, 3.150037e+2, 126728.22, 50640.414, -8095.3633, -0.020872489, 0.12563747, 127579.984, 127579.984, 0.00000009052117, 10.000915, 9.9999075 
4.9496958e+2, 1.2501909e+2, -1782711.1, -1691094.5, 14246.345, -0.059776735, 0.07358993, -1688930.3, 25887.53, 0.0000015131136, 9.999312, 10.0004835 
4.9497595e+2, 1.3501817e+2, -1671830.9, -1724481.3, -35511.926, 0.258563, 0.050074507, -1653950.8, -37122.773, 0.00000014199817, 9.999954, 9.999293 
4.9497494e+2, 1.4501789e+2, -1499644.1, -1536377.6, 4745.8413, -0.26983377, 0.07067876, -1499040.9, 19788.928, 0.0, 10.000246, 9.999761 
4.9498132e+2, 1.5501714e+2, -1432484.1, -1454065.8, -10032.865, -0.052762445, 0.01508762, -1428540.6, -7705.886, 0.0, 10.000041, 9.99975 
4.9498674e+2, 1.6501659e+2, -1369412.9, -1418731.8, 5713.13, 0.059452638, 0.0075127464, -1368759.8, -45920.836, 0.0, 9.999997, 9.999341 
4.9499056e+2, 1.7501633e+2, -1247706.6, -1307973.9, 9583.461, -0.012944279, 0.044682357, -1246219.4, -21377.805, 0.0, 10.0001545, 9.999352 
4.9499464e+2, 1.8501547e+2, -1156906.4, -1235056.5, -2418.7646, -0.050167907, 0.033276193, -1156831.5, -29981.643, 0.0, 10.000198, 9.999159 
4.949992e+2, 1.9501399e+2, -1070276.4, -1142266.3, -9735.441, -0.024359887, -0.033713743, -1068983.0, -40119.168, 0.0, 10.000119, 9.999161 
4.9500355e+2, 2.0501319e+2, -973983.56, -1058824.4, -11605.285, -0.016709814, -0.02388209, -972424.75, -41552.746, 0.0, 10.000166, 9.999039 
4.9500757e+2, 2.1501304e+2, -848213.44, -946503.7, -497.0044, -0.035351947, 0.05594501, -848210.94, -15336.806, 0.0, 10.000353, 9.999047 
4.9501187e+2, 2.2501206e+2, -772546.8, -920560.7, 10860.405, -0.04285261, 0.081258416, -771754.2, -36868.793, 0.0, 10.0004635, 9.998499 
4.9501646e+2, 2.3501025e+2, -667514.25, -818610.6, 2907.3445, -0.03595433, 0.047280412, -667458.3, -30552.762, 0.0, 10.000508, 9.998505 
4.95021e+2, 2.4500898e+2, -550497.56, -676824.5, -572.5942, -0.03136908, 0.052784953, -550494.94, -11575.3125, 0.0, 10.000489, 9.998815 
4.9502555e+2, 2.550082e+2, -462210.7, -581864.6, 2001.5754, -0.029130585, 0.090586044, -462177.22, -21249.668, 0.0, 10.000416, 9.998828 
4.9503002e+2, 2.6500702e+2, -355319.72, -498840.16, -1118.9913, -0.025574237, 0.10014849, -355311.0, -12371.717, 0.0, 10.000561, 9.998656 
4.9503446e+2, 2.750055e+2, -207131.78, -376875.16, 1862.7286, -0.021869833, 0.07718307, -207111.34, 37843.5, 0.0, 10.000906, 9.998655 
4.9503872e+2, 2.8500423e+2, -133907.34, -323679.94, 815.28235, -0.035385847, 0.102246486, -133903.84, 13064.609, 0.0, 10.000876, 9.998363 
4.950429e+2, 2.9500324e+2, -88352.42, -245073.61, 382.15692, -0.06249304, 0.16275588, -88351.49, -39370.89, 0.0, 10.000491, 9.998415 
4.9504825e+2, 3.0500045e+2, -17806.941, -156323.6, 15921.4795, 0.019635044, 0.029014342, -16000.443, -16000.443, 0.0, 10.000514, 9.998679 
4.9505225e+2, 3.1500065e+2, 141033.69, 82288.15, 13560.11, -0.03390003, 0.18239756, 144012.67, 144012.67, 0.000000050936965, 10.000907, 10.000128 
5.049689e+2, 1.2501435e+2, -1761130.1, -1666032.5, -837.7575, -0.0645702, 0.07344625, -1666025.0, 48839.89, 0.0000009949754, 9.9994, 10.000612 
5.049758e+2, 1.3501363e+2, -1692155.0, -1723434.6, -23365.018, 0.2591279, 0.058940507, -1679678.5, -62805.832, 0.000000065122016, 9.999766, 9.9993925 
5.049749e+2, 1.4501327e+2, -1538979.3, -1558923.3, -3337.3794, -0.28441674, 0.06853498, -1538435.6, -19560.418, 0.0, 9.999991, 9.999728 
5.049814e+2, 1.5501255e+2, -1438673.9, -1460676.5, -29799.32, -0.045232758, 0.020266587, -1417910.0, 2970.059, 0.0, 10.000013, 9.999718 
5.0498694e+2, 1.65012e+2, -1348543.0, -1403111.4, -8007.9653, 0.072539166, 0.013004758, -1347392.1, -24508.107, 0.0, 10.000116, 9.999392 
5.049908e+2, 1.7501175e+2, -1227482.0, -1292702.6, -4299.1953, -0.01009996, 0.04425882, -1227199.8, -2313.3643, 0.0, 10.000269, 9.999402 
5.0499487e+2, 1.850109e+2, -1150065.0, -1239476.1, -20331.424, -0.051835258, 0.03438188, -1145658.9, -18764.17, 0.0, 10.0002775, 9.999091 
5.0499934e+2, 1.9500944e+2, -1068664.1, -1148894.6, -18867.645, -0.02605334, -0.022036405, -1064448.5, -35539.645, 0.0, 10.000162, 9.999095 
5.0500375e+2, 2.0500864e+2, -963999.5, -1047523.44, -13064.922, -0.015018689, -0.013179953, -962003.56, -31086.344, 0.0, 10.000206, 9.999098 
5.0500804e+2, 2.1500842e+2, -837320.3, -934648.75, -19384.77, -0.028452495, 0.053095277, -833601.56, -681.7851, 0.0, 10.000399, 9.999106 
5.050124e+2, 2.2500749e+2, -768894.1, -913964.94, -13365.583, -0.03495773, 0.07771879, -767673.06, -32742.65, 0.0, 10.000467, 9.998544 
5.050169e+2, 2.3500584e+2, -679527.1, -819400.5, -2353.1287, -0.03138177, 0.05601138, -679487.56, -42538.66, 0.0, 10.000405, 9.9985485 
5.050215e+2, 2.4500455e+2, -558402.75, -684108.1, 2942.3748, -0.025633562, 0.060546726, -558333.9, -19370.94, 0.0, 10.000451, 9.998783 
5.0502616e+2, 2.5500357e+2, -437284.78, -573702.1, -1213.9099, -0.01836732, 0.08357853, -437273.97, 3698.6318, 0.0, 10.000604, 9.998795 
5.0503063e+2, 2.6500243e+2, -348758.28, -488123.94, -5950.569, -0.022505404, 0.09212902, -348504.66, -5520.289, 0.0, 10.000574, 9.998724 
5.050349e+2, 2.7500108e+2, -281254.2, -405477.97, -3043.4238, -0.03967538, 0.08020626, -281179.7, -36181.305, 0.0, 10.000367, 9.998718 
5.0503916e+2, 2.849999e+2, -191953.7, -341735.22, -594.85535, -0.055170987, 0.10673045, -191951.34, -44940.277, 0.0, 10.000436, 9.99845 
5.0504345e+2, 2.9499897e+2, -43626.85, -212459.05, 10571.522, -0.06388087, 0.16350259, -42967.484, 6054.9883, 0.0, 10.0007515, 9.998513 
5.0504893e+2, 3.0499628e+2, 35040.805, -111360.805, 21604.57, 0.027069515, 0.025368283, 38162.44, 38162.44, 0.0, 10.000793, 9.998853 
5.050529e+2, 3.1499678e+2, 78216.63, 28639.744, -6088.301, -0.038909297, 0.19257699, 78953.36, 78953.36, 0.000000020855737, 10.000577, 9.999919 
5.1496804e+2, 1.2500893e+2, -1742932.9, -1627211.5, -4552.917, -0.09322255, 0.03353492, -1627032.6, 87885.99, 0.00000067894854, 9.999394, 10.000882 
5.149757e+2, 1.3500896e+2, -1672907.0, -1683998.4, -8416.755, 0.27099878, 0.06750859, -1668373.3, -51455.293, 0.000000029496794, 9.999767, 9.999663 
5.1497495e+2, 1.4500874e+2, -1549575.3, -1582035.1, -2635.1958, -0.2761137, 0.0839781, -1549362.8, -30443.453, 0.0, 9.999995, 9.999568 
5.1498157e+2, 1.5500785e+2, -1449334.1, -1483043.5, -28673.879, -0.03289858, 0.036801048, -1432928.3, -12001.6, 0.0, 10.000014, 9.999564 
5.149871e+2, 1.6500708e+2, -1344411.0, -1394265.9, -2587.1785, 0.07829035, 0.010246579, -1344277.1, -21344.15, 0.0, 10.000114, 9.999454 
5.14991e+2, 1.7500642e+2, -1222894.0, -1283696.8, 1589.5834, -0.019483587, -0.005337145, -1222852.5, 2086.001, 0.0, 10.000271, 9.999463 
5.149949e+2, 1.8500589e+2, -1145921.6, -1231388.1, -25303.639, -0.06939081, 0.01102675, -1138992.0, -12048.177, 0.0, 10.000279, 9.9991455 
5.1499933e+2, 1.9500549e+2, -1064629.8, -1140871.0, -22890.063, -0.04395796, 0.054421436, -1058285.4, -29336.773, 0.0, 10.000162, 9.99915 
5.1500386e+2, 2.0500451e+2, -976164.3, -1071387.4, -5968.978, -0.027545255, 0.05334974, -975791.6, -44833.117, 0.0, 10.0002, 9.998937 
5.1500845e+2, 2.1500295e+2, -848571.9, -958261.56, -11891.869, -0.029198313, 0.00031919233, -847297.44, -14323.71, 0.0, 10.0004, 9.998944 
5.150129e+2, 2.2500193e+2, -748164.2, -870454.6, -16008.767, -0.026699023, 0.010128131, -746103.25, -11118.534, 0.0, 10.000465, 9.998843 
5.150175e+2, 2.3500149e+2, -658225.8, -775451.0, -4290.434, -0.015775466, 0.07746439, -658069.0, -21077.64, 0.0, 10.000406, 9.998851 
5.150221e+2, 2.4500048e+2, -567055.44, -701667.56, 8197.559, -0.013442202, 0.102084786, -566558.06, -27555.65, 0.0, 10.000449, 9.998663 
5.1502675e+2, 2.5499892e+2, -445937.0, -591379.06, 4569.2417, -0.019284295, 0.07707668, -445793.6, -4775.603, 0.0, 10.000603, 9.998673 
5.150312e+2, 2.649975e+2, -343901.72, -477839.34, -13849.718, -0.024950529, 0.061736386, -342484.6, 548.02155, 0.0, 10.000572, 9.9987955 
5.1503533e+2, 2.7499622e+2, -275773.22, -394260.72, -10256.511, -0.032485247, 0.05103211, -274891.97, -29845.693, 0.0, 10.000366, 9.9987955 
5.150396e+2, 2.849955e+2, -175388.52, -306144.7, 11148.317, -0.053346977, 0.10353007, -174444.83, -27390.064, 0.0, 10.000431, 9.998696 
5.1504403e+2, 2.9499534e+2, -27453.86, -176529.19, 22578.94, -0.08281121, 0.2145384, -24109.1, 24948.73, 0.0, 10.000743, 9.998763 
5.150496e+2, 3.0499265e+2, 18598.092, -144434.47, 12584.433, 0.00933531, 0.07357721, 19563.762, 19563.762, 0.0, 10.000788, 9.99863 
5.150535e+2, 3.1499207e+2, 35591.227, -60242.254, -7067.5806, -0.03766987, 0.15735163, 36109.65, 36109.65, 0.0000000053166334, 10.000578, 9.999308 
5.249675e+2, 1.2500411e+2, -1697121.5, -1612895.4, 1956.4039, -0.101663984, 0.036544792, -1612849.9, 102115.85, 0.0000005002885, 9.999746, 10.000808 
5.249756e+2, 1.3500412e+2, -1672888.3, -1690518.5, -10560.577, 0.28026265, 0.07218049, -1667947.3, -50981.574, 0.000000016983103, 9.999795, 9.999606 
5.2497506e+2, 1.4500372e+2, -1543120.8, -1576382.8, -11513.468, -0.27079713, 0.0744367, -1539524.3, -20555.535, 0.0, 10.00003, 9.999591 
5.2498186e+2, 1.5500298e+2, -1404906.8, -1459076.6, -25832.232, -0.015562154, 0.038375452, -1394563.1, 26411.434, 0.0, 10.000309, 9.999586 
5.249874e+2, 1.6500223e+2, -1319140.5, -1382584.9, -3090.8196, 0.09064871, 0.0121697085, -1318990.3, 3990.4063, 0.0, 10.00029, 9.999449 
5.2499104e+2, 1.7500147e+2, -1261560.9, -1303140.5, -5154.0146, -0.026455794, -0.012819047, -1260931.5, -35944.363, 0.0, 10.000009, 9.999456 
5.2499497e+2, 1.8500094e+2, -1182830.0, -1249268.8, -30462.594, -0.07953158, 0.00646868, -1170977.3, -43984.91, 0.0, 10.000026, 9.9991455 
5.2499956e+2, 1.9500072e+2, -1041002.75, -1129247.3, -32995.832, -0.04377454, 0.065426886, -1030029.6, -1033.706, 0.0, 10.000324, 9.999152 
5.2500415e+2, 2.0499973e+2, -952474.1, -1060981.1, -15257.376, -0.02113847, 0.06382369, -950369.56, -19363.506, 0.0, 10.000366, 9.998928 
5.250088e+2, 2.1499802e+2, -885263.1, -976694.94, -10178.649, -0.020420061, -0.003841317, -884143.7, -51121.082, 0.0, 10.000152, 9.998938 
5.250134e+2, 2.24997e+2, -786002.6, -881790.4, -12760.414, -0.01822415, 0.003398267, -784331.94, -49298.39, 0.0, 10.000175, 9.998905 
5.250179e+2, 2.3499668e+2, -648634.44, -763665.75, -19530.057, -0.011222623, 0.077819616, -645409.06, -8370.096, 0.0, 10.000442, 9.998915 
5.2502257e+2, 2.4499576e+2, -548621.0, -683240.56, -10234.979, -0.014740232, 0.10399102, -547847.25, -8798.134, 0.0, 10.000535, 9.998749 
5.2502716e+2, 2.5499427e+2, -462433.28, -589791.2, 587.9605, -0.028874489, 0.07588168, -462430.56, -21366.578, 0.0, 10.000449, 9.998758 
5.250316e+2, 2.6499295e+2, -365419.25, -483921.03, -16340.605, -0.031189188, 0.064137004, -363207.28, -20129.572, 0.0, 10.000406, 9.998834 
5.250358e+2, 2.7499175e+2, -268369.8, -385980.22, -15270.33, -0.023550129, 0.06162256, -266419.47, -21328.98, 0.0, 10.000399, 9.9988365 
5.2504015e+2, 2.8499106e+2, -173781.25, -304679.8, 7978.5835, -0.043066904, 0.113023244, -173296.73, -26197.707, 0.0, 10.000441, 9.998702 
5.250446e+2, 2.949908e+2, -57276.17, -190932.02, 460.71103, -0.085195206, 0.21718964, -57274.582, -8171.791, 0.0, 10.000537, 9.998764 
5.250502e+2, 3.0498838e+2, 13203.487, -133393.1, -13632.335, -0.0010609914, 0.09637914, 14460.41, 14460.41, 0.0, 10.000692, 9.998751 
5.2505416e+2, 3.1498772e+2, 65357.188, -68758.66, -1630.0328, -0.052880567, 0.16095546, 65376.996, 65376.996, 0.00000000056215, 10.00088, 9.999104 
5.349673e+2, 1.24999985e+2, -1727707.3, -1678496.6, -16921.465, -0.100724876, 0.086743936, -1673239.6, 41766.125, 0.00000041209, 9.999755, 10.000354 
5.349754e+2, 1.3499907e+2, -1700545.9, -1749263.0, -7443.299, 0.28474122, 0.072899975, -1699434.0, -82418.05, 0.000000018082496, 9.999799, 9.999202 
5.349751e+2, 1.4499825e+2, -1528833.9, -1546091.4, -639.8655, -0.27051872, 0.039849754, -1528810.1, -9786.7, 0.0, 10.000026, 9.9998 
5.3498244e+2, 1.5499793e+2, -1390152.9, -1428495.1, -15579.302, 0.003928299, 0.025291083, -1384620.8, 36402.992, 0.0, 10.000309, 9.999796 
5.3498787e+2, 1.6499746e+2, -1324182.3, -1394065.4, -14699.236, 0.10512412, 0.02068334, -1321216.4, 1810.587, 0.0, 10.000294, 9.999369 
5.34991e+2, 1.7499685e+2, -1266629.6, -1314349.3, -15489.134, -0.032358076, 0.021948535, -1262043.0, -37010.55, 0.0, 10.0000105, 9.999379 
5.34995e+2, 1.8499608e+2, -1187206.1, -1257746.0, -19474.117, -0.083842136, 0.020720828, -1182186.9, -55146.496, 0.0, 10.000024, 9.999088 
5.350001e+2, 1.9499509e+2, -1045024.56, -1137803.5, -21710.5, -0.027175743, 0.010161462, -1040195.56, -11144.499, 0.0, 10.000324, 9.999093 
5.3500473e+2, 2.0499425e+2, -942469.9, -1039508.2, -23697.754, 0.0020796051, 0.01783969, -936991.9, -5932.048, 0.0, 10.000363, 9.999077 
5.350091e+2, 2.1499357e+2, -875083.44, -955452.2, -18031.316, -0.0032035934, 0.03920848, -871223.4, -38156.938, 0.0, 10.000151, 9.999084 
5.350136e+2, 2.2499262e+2, -798720.7, -907614.44, -3140.0718, -0.011236986, 0.05519498, -798630.25, -63553.195, 0.0, 10.000173, 9.998729 
5.350183e+2, 2.3499142e+2, -660806.2, -789239.9, -9274.825, -0.018756803, 0.057576787, -660139.9, -23048.145, 0.0, 10.000442, 9.998739 
5.35023e+2, 2.449904e+2, -528589.5, -641367.5, -13440.219, -0.03077972, 0.06685293, -527009.9, 12093.12, 0.0, 10.000533, 9.999037 
5.350274e+2, 2.5498956e+2, -442386.97, -548473.1, -2241.2258, -0.048065983, 0.079669364, -442339.63, -1228.9948, 0.0, 10.000449, 9.9990425 
5.3503186e+2, 2.649887e+2, -365728.28, -483857.22, -17008.926, -0.04272185, 0.09753664, -363328.0, -20208.04, 0.0, 10.000404, 9.998835 
5.350363e+2, 2.7498767e+2, -268570.84, -385273.06, -15657.905, -0.015475225, 0.11079575, -266506.56, -21375.291, 0.0, 10.000395, 9.998843 
5.350408e+2, 2.849866e+2, -190324.31, -338675.03, 11475.633, -0.02645477, 0.13497035, -189441.86, -42297.906, 0.0, 10.000438, 9.99847 
5.3504527e+2, 2.9498547e+2, -73773.836, -225107.86, 5222.084, -0.07169443, 0.17422813, -73593.85, -24436.816, 0.0, 10.000536, 9.99853 
5.3505087e+2, 3.0498356e+2, 43775.848, -68318.04, -6948.091, -0.0054887873, 0.095261864, 44204.883, 44204.883, 0.0, 10.000687, 9.9992 
5.350546e+2, 3.149838e+2, 77438.09, -40150.918, 12598.572, -0.09121604, 0.20364393, 78772.76, 78772.76, 0.0000000000003731001, 10.000867, 9.999306 
5.4496694e+2, 1.2499513e+2, -1743514.5, -1706847.8, -46128.12, -0.11029435, 0.0906448, -1675543.4, 39509.81, 0.00000036785775, 9.999737, 10.000168 
5.449755e+2, 1.3499412e+2, -1655657.4, -1740797.3, 5793.4395, 0.29778478, 0.07974173, -1655264.9, -38200.234, 0.000000024396927, 10.000164, 9.9990835 
5.4497534e+2, 1.4499313e+2, -1489102.4, -1521503.6, 9739.309, -0.25931823, 0.034018956, -1486400.3, 32673.693, 0.0, 10.000277, 9.999846 
5.4498255e+2, 1.5499294e+2, -1428840.1, -1442136.8, -20804.434, 0.0012162229, 0.027488653, -1413647.6, 7425.4077, 0.0, 10.000022, 9.999841 
5.44988e+2, 1.6499256e+2, -1358611.8, -1404506.5, -21490.326, 0.101325355, 0.027403472, -1350120.0, -27044.844, 0.0, 10.000031, 9.999423 
5.4499125e+2, 1.7499204e+2, -1221753.9, -1286213.3, -12494.441, -0.019855678, 0.029328763, -1219416.8, 5663.2646, 0.0, 10.000293, 9.999435 
5.4499537e+2, 1.8499123e+2, -1145220.0, -1235903.0, -6777.5884, -0.06613188, 0.022014374, -1144716.3, -17628.117, 0.0, 10.000305, 9.999103 
5.450003e+2, 1.9499013e+2, -1080856.0, -1153618.3, -4381.5205, -0.017532866, -0.000306072, -1080593.1, -51493.617, 0.0, 10.0000725, 9.999106 
5.450051e+2, 2.0498931e+2, -985901.4, -1058674.3, -9738.935, 0.008301721, 0.009784965, -984620.56, -53512.51, 0.0, 10.000058, 9.999093 
5.450094e+2, 2.1498881e+2, -857413.8, -945014.94, -14469.341, 0.0047875233, 0.046330895, -855085.75, -21972.164, 0.0, 10.000264, 9.999101 
5.450139e+2, 2.2498794e+2, -773024.9, -893696.5, 7500.9453, -0.005969544, 0.06814473, -772560.4, -37436.76, 0.0, 10.000342, 9.998742 
5.450187e+2, 2.3498671e+2, -681771.0, -797615.1, 14859.869, -0.021088885, 0.0674406, -679895.25, -42756.914, 0.0, 10.000291, 9.998754 
5.4502326e+2, 2.449857e+2, -566418.75, -654443.4, 3050.6147, -0.03787128, 0.075069375, -566313.1, -27163.625, 0.0, 10.000253, 9.999082 
5.450277e+2, 2.5498495e+2, -471620.8, -557328.8, -3895.0127, -0.057307515, 0.0875557, -471444.2, -30287.223, 0.0, 10.000228, 9.999087 
5.4503214e+2, 2.649841e+2, -377377.28, -492475.56, -21731.271, -0.049041543, 0.11048656, -373410.97, -30245.152, 0.0, 10.000338, 9.998807 
5.450368e+2, 2.7498317e+2, -244415.02, -377069.88, -23757.46, -0.013675074, 0.13209769, -240288.6, 4888.0947, 0.0, 10.000575, 9.998813 
5.450413e+2, 2.8498194e+2, -172096.45, -330269.5, 3339.728, -0.020242956, 0.14714177, -172025.97, -24835.508, 0.0, 10.000565, 9.9984665 
5.450458e+2, 2.9498062e+2, -108302.27, -242050.22, 13653.714, -0.06560894, 0.16498, -106922.66, -57717.094, 0.0, 10.000301, 9.998526 
5.4505134e+2, 3.0497912e+2, 8255.726, -74417.56, 12278.465, -0.0091587305, 0.122042656, 10040.757, 10040.757, 0.0, 10.000396, 9.999298 
5.4505527e+2, 3.1497914e+2, 70981.52, -48524.285, 11562.926, -0.10716013, 0.19743364, 72090.02, 72090.02, 0.000000000015387011, 10.000844, 9.99926 
5.5496645e+2, 1.2498953e+2, -1736309.9, -1691660.8, -51339.64, -0.13480942, 0.04759454, -1658001.9, 57106.332, 0.0000003291145, 9.999736, 10.000273 
5.5497587e+2, 1.349893e+2, -1641315.5, -1712479.9, 22695.715, 0.3166683, 0.09271604, -1634693.6, -17582.053, 0.000000025104656, 10.00017, 9.999275 
5.549758e+2, 1.4498843e+2, -1497842.3, -1540867.1, 241.12265, -0.24201715, 0.057841923, -1497840.9, 21278.879, 0.0, 10.000281, 9.999713 
5.549823e+2, 1.5498804e+2, -1437774.9, -1461109.3, -30185.4, -0.025536677, 0.045668203, -1417080.4, 4041.5837, 0.0, 10.000023, 9.999711 
5.549878e+2, 1.6498756e+2, -1346098.4, -1377400.5, -12223.427, 0.07763584, 0.032407284, -1341890.8, -18765.479, 0.0, 10.000028, 9.999611 
5.549919e+2, 1.7498697e+2, -1208653.8, -1258826.6, -2646.0554, 0.009386582, 0.008763723, -1208514.6, 16615.354, 0.0, 10.000292, 9.999623 
5.54996e+2, 1.8498638e+2, -1139381.9, -1223729.3, -15890.395, -0.028564548, 0.010143838, -1136487.5, -9352.102, 0.0, 10.000304, 9.9991865 
5.550004e+2, 1.9498582e+2, -1074955.0, -1141318.6, -12992.249, -0.01565764, 0.03337598, -1072502.1, -43360.82, 0.0, 10.000072, 9.999191 
5.55005e+2, 2.0498495e+2, -994486.7, -1075945.6, -2290.1262, -0.0034313842, 0.038352042, -994422.3, -63271.535, 0.0, 10.000055, 9.998976 
5.550096e+2, 2.1498375e+2, -865876.4, -962255.7, -6516.305, 0.00165419, 0.017824536, -865437.8, -32273.967, 0.0, 10.000262, 9.998983 
5.5501425e+2, 2.2498296e+2, -759001.25, -864086.44, 5335.731, -0.0041183173, 0.04241705, -758731.0, -23557.807, 0.0, 10.00034, 9.998946 
5.5501896e+2, 2.3498258e+2, -667706.06, -768481.06, 13013.837, -0.018836627, 0.10653352, -666052.6, -28873.686, 0.0, 10.000291, 9.998954 
5.5502355e+2, 2.449817e+2, -580133.25, -682735.75, 1698.8525, -0.036795024, 0.12701401, -580105.1, -40916.24, 0.0, 10.000252, 9.998888 
5.550279e+2, 2.5498033e+2, -484803.3, -584806.4, -4615.0796, -0.05837098, 0.09908906, -484590.78, -43387.8, 0.0, 10.000228, 9.9988985 
5.550325e+2, 2.6497918e+2, -381741.63, -501287.0, -12858.028, -0.05221609, 0.10288279, -380374.28, -37158.926, 0.0, 10.000336, 9.998748 
5.550373e+2, 2.7497822e+2, -249360.45, -387207.6, -14368.508, -0.0188854, 0.12606514, -247878.69, -2651.9583, 0.0, 10.000573, 9.998744 
5.5504185e+2, 2.8497714e+2, -158111.64, -300118.88, -7021.4326, -0.025470857, 0.14998107, -157765.31, -10526.72, 0.0, 10.00056, 9.998675 
5.550461e+2, 2.9497623e+2, -94574.4, -211993.8, 3623.3965, -0.06967556, 0.18885694, -94462.695, -45213.977, 0.0, 10.000296, 9.998734 
5.550517e+2, 3.0497503e+2, -8804.99, -108617.3, 28595.871, -0.015344525, 0.17637342, -1192.9031, -1192.9031, 0.0, 10.000389, 9.999066 
5.5505615e+2, 3.149738e+2, 52003.42, -86538.836, 34709.777, -0.10463053, 0.14947796, 60212.99, 60212.99, 0.0000000020600701, 10.000837, 9.9990015 
5.649662e+2, 1.2498411e+2, -1714649.3, -1661378.9, -72377.04, -0.13159901, 0.04435176, -1610891.6, 104270.84, 0.00000027083397, 9.999801, 10.000447 
5.649759e+2, 1.3498427e+2, -1640141.9, -1680657.0, 26137.496, 0.30940402, 0.09933731, -1627330.8, -10169.797, 0.000000017878008, 10.000042, 9.999556 
5.6497604e+2, 1.4498349e+2, -1524912.8, -1556487.1, -8649.163, -0.23998299, 0.061475053, -1522698.8, -3530.6287, 0.0, 10.000107, 9.999689 
5.649824e+2, 1.5498313e+2, -1449055.8, -1468595.4, -31331.164, -0.012598275, 0.05542302, -1426006.5, -4835.9253, 0.0, 9.999956, 9.99969 
5.649879e+2, 1.6498269e+2, -1355030.5, -1373334.6, 1272.1144, 0.090635024, 0.043270733, -1354942.5, -31768.6, 0.0, 9.999931, 9.999684 
5.649921e+2, 1.7498215e+2, -1243067.8, -1267550.6, 602.57544, 0.01513713, 0.016044334, -1243053.0, -17874.756, 0.0, 10.000023, 9.999694 
5.6499624e+2, 1.8498163e+2, -1159653.3, -1225197.1, -25770.018, -0.027964648, 0.017938953, -1150734.8, -23551.992, 0.0, 10.00013, 9.99926 
5.6500053e+2, 1.9498119e+2, -1041882.44, -1116853.5, -23964.926, -0.020096438, 0.044987746, -1034876.6, -5689.3447, 0.0, 10.000263, 9.999267 
5.650051e+2, 2.0498033e+2, -968678.6, -1076140.9, -8905.3545, -0.007490224, 0.053087182, -967945.6, -36748.83, 0.0, 10.000287, 9.998862 
5.650099e+2, 2.1497905e+2, -882431.3, -982841.7, -13378.739, 0.0038382423, 0.03541626, -880679.25, -47467.813, 0.0, 10.000202, 9.998871 
5.6501454e+2, 2.2497822e+2, -777189.75, -861304.94, -7432.5103, -0.0035120714, 0.057564106, -776538.0, -41316.93, 0.0, 10.000167, 9.999049 
5.650192e+2, 2.3497786e+2, -675719.1, -760762.25, -7522.1597, -0.027868986, 0.11452331, -675058.9, -37833.242, 0.0, 10.000187, 9.999057 
5.650237e+2, 2.4497698e+2, -582713.94, -695860.25, -15314.144, -0.04392048, 0.13483965, -580677.9, -41442.21, 0.0, 10.000285, 9.998781 
5.650283e+2, 2.549756e+2, -458437.5, -583861.25, -15945.703, -0.051659662, 0.11336018, -456442.0, -15191.028, 0.0, 10.00046, 9.998794 
5.6503296e+2, 2.6497442e+2, -364127.16, -488655.7, -19836.992, -0.04610654, 0.11972138, -361043.53, -17779.9, 0.0, 10.00044, 9.998784 
5.650376e+2, 2.7497345e+2, -297968.03, -405598.66, -14199.069, -0.02853717, 0.14079258, -296126.34, -50851.957, 0.0, 10.00022, 9.998786 
5.650422e+2, 2.8497234e+2, -193887.97, -313806.25, -6841.4893, -0.035218842, 0.15550664, -193498.9, -46212.348, 0.0, 10.000299, 9.998707 
5.6504655e+2, 2.9497135e+2, -38557.945, -183532.02, -10181.297, -0.062927246, 0.18150285, -37846.42, 11451.178, 0.0, 10.000673, 9.998749 
5.650522e+2, 3.0497053e+2, 29934.24, -92844.414, 14639.53, -0.0148605695, 0.21049368, 31655.652, 31655.652, 0.0, 10.000668, 9.999041 
5.6505656e+2, 3.14969e+2, -22747.148, -114270.555, 39920.406, -0.11907171, 0.15246296, -7781.819, -7781.819, 0.000000017271022, 10.000288, 9.999076 
5.7496625e+2, 1.2497892e+2, -1698012.5, -1630189.4, -85193.82, -0.106684566, 0.08214321, -1572405.9, 142809.55, 0.00000019303324, 9.999813, 10.000657 
5.749756e+2, 1.3497905e+2, -1614577.6, -1628831.1, 35840.87, 0.27444127, 0.10055079, -1585161.9, 32050.951, 0.000000007774616, 10.000045, 9.999911 
5.7497597e+2, 1.4497831e+2, -1519525.9, -1543910.4, -14615.243, -0.2550503, 0.045462947, -1512685.1, 6533.703, 0.0, 10.000101, 9.999778 
5.749829e+2, 1.5497825e+2, -1442155.0, -1454577.0, -36700.97, 0.03825634, 0.055779163, -1411143.1, 10075.703, 0.0, 9.999957, 9.999785 
5.749883e+2, 1.6497798e+2, -1358582.0, -1380736.1, 4576.245, 0.13781375, 0.059160724, -1357674.0, -34453.086, 0.0, 9.99993, 9.999634 
5.7499194e+2, 1.7497756e+2, -1246716.0, -1275317.8, 4344.789, -0.0037768583, 0.051118817, -1246070.6, -20845.924, 0.0, 10.000023, 9.999641 
5.74996e+2, 1.8497698e+2, -1155932.6, -1216807.9, -21155.273, -0.06617345, 0.044961046, -1149302.9, -22072.71, 0.0, 10.000128, 9.999319 
5.7500064e+2, 1.9497621e+2, -1037844.0, -1107967.1, -18864.982, -0.032442287, 0.03486077, -1033091.0, -3853.7766, 0.0, 10.00026, 9.999329 
5.750054e+2, 2.0497546e+2, -976693.75, -1092191.3, -12475.557, -0.0051215864, 0.054572985, -975361.56, -44115.523, 0.0, 10.000284, 9.998754 
5.750101e+2, 2.1497467e+2, -890277.9, -998671.5, -16452.479, 0.01023021, 0.09876181, -887835.7, -54579.2, 0.0, 10.0002, 9.998763 
5.750147e+2, 2.2497372e+2, -776981.0, -860887.44, -6948.9663, -0.005172604, 0.11314784, -776409.44, -41142.133, 0.0, 10.000167, 9.999052 
5.750191e+2, 2.3497258e+2, -675322.3, -759981.6, -6402.628, -0.049334202, 0.09142712, -674840.8, -37562.4, 0.0, 10.000187, 9.999063 
5.750239e+2, 2.4497156e+2, -584339.25, -699077.06, -8948.684, -0.06056463, 0.098346755, -583645.5, -44355.797, 0.0, 10.000284, 9.99876 
5.750289e+2, 2.5497067e+2, -460730.06, -588238.75, -9226.069, -0.03831902, 0.13011968, -460065.97, -18765.06, 0.0, 10.000458, 9.998764 
5.750335e+2, 2.6496983e+2, -355019.06, -469529.6, -28366.027, -0.03168375, 0.16109163, -348377.56, -5066.864, 0.0, 10.000439, 9.998916 
5.750377e+2, 2.749689e+2, -287977.16, -384744.72, -22375.0, -0.04376056, 0.17627637, -283054.0, -37734.168, 0.0, 10.000219, 9.99893 
5.750423e+2, 2.8496754e+2, -204215.05, -334142.1, 6861.0674, -0.05134944, 0.16353974, -203853.75, -56519.23, 0.0, 10.000295, 9.9985695 
5.7504743e+2, 2.9496592e+2, -50704.555, -208001.33, 4290.6245, -0.04812875, 0.14282687, -50587.605, -1235.3972, 0.0, 10.0006695, 9.998582 
5.750529e+2, 3.0496562e+2, 40272.703, -70326.875, -390.42035, -0.010653576, 0.22474001, 40274.08, 40274.08, 0.00000000021282408, 10.000663, 9.999198 
5.750565e+2, 3.1496465e+2, 2545.0476, -59824.754, 30808.803, -0.1537283, 0.20800045, 15197.121, 15197.121, 0.0000000699572, 10.000279, 9.999454 
5.8496636e+2, 1.2497412e+2, -1674006.4, -1636991.6, -50197.74, -0.091055, 0.086903915, -1601998.3, 113264.41, 0.00000011738098, 10.000058, 10.000492 
5.849755e+2, 1.3497423e+2, -1658195.6, -1653298.5, 61102.44, 0.26930803, 0.10684053, -1594595.6, 22665.113, 0.0000000014227642, 9.999764, 9.999877 
5.84976e+2, 1.4497349e+2, -1557716.1, -1552839.3, 1547.9987, -0.24640173, 0.04701386, -1552389.4, -33122.305, 0.0, 9.999799, 9.999862 
5.8498305e+2, 1.5497343e+2, -1410481.8, -1429747.5, -23052.117, 0.048931774, 0.052840535, -1395130.9, 26135.424, 0.0, 10.000134, 9.99987 
5.849884e+2, 1.6497321e+2, -1322557.8, -1371352.1, 12057.894, 0.13953285, 0.060424138, -1319740.6, 3527.2283, 0.0, 10.000213, 9.999562 
5.849918e+2, 1.7497283e+2, -1248601.6, -1284165.3, 10097.462, -0.015573344, 0.063924536, -1245934.6, -20662.713, 0.0, 10.000045, 9.999569 
5.84996e+2, 1.8497229e+2, -1167858.4, -1219591.9, -10477.272, -0.07591916, 0.06273517, -1165817.0, -38539.49, 0.0, 10.000033, 9.999345 
5.8500093e+2, 1.9497155e+2, -1049997.6, -1110858.1, -11394.101, -0.027483523, 0.050861295, -1047934.44, -18649.992, 0.0, 10.000165, 9.999355 
5.8500576e+2, 2.0497078e+2, -985273.06, -1091476.8, -7461.714, 0.0006690839, 0.06706644, -984751.4, -53458.414, 0.0, 10.000206, 9.998796 
5.8501023e+2, 2.1497e+2, -892826.7, -995082.25, -622.4348, 0.0035489923, 0.10581385, -892822.9, -59519.957, 0.0, 10.000163, 9.998806 
5.8501476e+2, 2.2496895e+2, -781160.75, -875470.06, 15255.07, -0.011745908, 0.11602285, -778754.5, -43440.137, 0.0, 10.000192, 9.99894 
5.850194e+2, 2.3496766e+2, -667301.3, -768590.4, 6549.163, -0.043364253, 0.090168335, -666879.56, -29552.174, 0.0, 10.000296, 9.998951 
5.850242e+2, 2.4496661e+2, -582396.9, -697052.25, 109.78817, -0.05681734, 0.09979198, -582396.8, -43057.65, 0.0, 10.000294, 9.99877 
5.8502907e+2, 2.5496584e+2, -499999.9, -605680.6, 2193.056, -0.052672103, 0.14230329, -499954.4, -58605.152, 0.0, 10.000183, 9.998776 
5.850337e+2, 2.6496506e+2, -388015.2, -487259.72, -22115.268, -0.046038948, 0.17968155, -383310.16, -39951.668, 0.0, 10.00022, 9.998899 
5.8503807e+2, 2.7496415e+2, -261579.05, -374079.72, -28109.768, -0.038113113, 0.19668414, -254946.48, -9578.952, 0.0, 10.000408, 9.998913 
5.850427e+2, 2.8496268e+2, -189489.7, -332595.5, 2836.7495, -0.043798022, 0.17665026, -189433.5, -42050.176, 0.0, 10.00042, 9.99852 
5.850478e+2, 2.9496086e+2, -117357.06, -247109.0, 5866.5767, -0.058542747, 0.13954648, -117092.35, -67689.055, 0.0, 10.000243, 9.998519 
5.850532e+2, 3.0496073e+2, -22783.316, -104100.12, -8213.007, -0.028254513, 0.2454916, -21962.094, -21962.094, 0.000000006848287, 10.000244, 9.999167 
5.8505696e+2, 3.149597e+2, 43433.613, -12446.823, 13004.1, -0.14624223, 0.22320826, 46311.613, 46311.613, 0.00000018333391, 10.0004425, 9.999701 
5.949665e+2, 1.2496976e+2, -1710699.9, -1714776.0, -80827.14, -0.08495379, 0.061949875, -1631885.1, 83418.2, 0.000000058921596, 10.000064, 9.999956 
5.949755e+2, 1.3496979e+2, -1686993.6, -1714525.8, 50464.457, 0.29179692, 0.115649655, -1648451.4, -31146.66, 0.000000000010343272, 9.999769, 9.9994545 
5.949761e+2, 1.4496894e+2, -1552699.6, -1542335.5, 14435.533, -0.21683002, 0.06354574, -1532180.1, -12867.2705, 0.0, 9.999798, 9.999934 
5.9498286e+2, 1.5496875e+2, -1405399.3, -1419586.0, -9825.72, 0.017902886, 0.046848785, -1400374.0, 20938.453, 0.0, 10.000134, 9.999941 
5.9498817e+2, 1.6496845e+2, -1329842.9, -1386010.4, 5200.673, 0.09366786, 0.046851948, -1329365.4, -6050.611, 0.0, 10.000211, 9.999463 
5.949918e+2, 1.7496802e+2, -1254791.5, -1297555.4, 4018.5215, -0.021730078, 0.05459841, -1254417.1, -29097.215, 0.0, 10.000047, 9.9994755 
5.9499615e+2, 1.8496758e+2, -1168418.0, -1220669.3, -5592.4614, -0.058981985, 0.071066156, -1167826.1, -40501.38, 0.0, 10.000032, 9.999338 
5.9500134e+2, 1.9496717e+2, -1050467.3, -1112002.1, -6286.721, -0.0065561724, 0.092832945, -1049831.6, -20502.668, 0.0, 10.000165, 9.999348 
5.95006e+2, 2.0496629e+2, -972125.9, -1063818.8, -9497.605, 0.008387359, 0.090182126, -971152.44, -39814.832, 0.0, 10.000204, 9.998987 
5.950102e+2, 2.1496499e+2, -879699.94, -967291.2, -2071.6519, -0.017293349, 0.05698725, -879651.0, -46300.18, 0.0, 10.000161, 9.998998 
5.9501487e+2, 2.2496393e+2, -797390.25, -908740.2, 18674.844, -0.024262179, 0.06629139, -794341.7, -58979.27, 0.0, 10.00019, 9.998713 
5.9502e+2, 2.3496312e+2, -683647.3, -802185.94, 10552.99, -0.011571234, 0.11087954, -682715.2, -45342.57, 0.0, 10.000295, 9.998721 
5.9502465e+2, 2.4496216e+2, -579214.44, -690645.9, -4152.6577, -0.03457386, 0.13972005, -579059.94, -39675.953, 0.0, 10.000294, 9.998814 
5.950288e+2, 2.5496113e+2, -496330.03, -598161.1, -1722.619, -0.09495144, 0.150323, -496300.88, -54904.867, 0.0, 10.000183, 9.998829 
5.950335e+2, 2.6496014e+2, -399669.03, -511282.72, -15170.104, -0.08910167, 0.1755143, -397643.9, -54236.94, 0.0, 10.000219, 9.998734 
5.950387e+2, 2.7495918e+2, -273917.7, -399639.44, -20708.092, -0.015046817, 0.2008967, -270594.63, -25176.979, 0.0, 10.000408, 9.998737 
5.950435e+2, 2.8495774e+2, -187860.42, -328879.84, -4105.0884, -0.016483188, 0.19405511, -187741.03, -40307.918, 0.0, 10.000418, 9.998547 
5.9504765e+2, 2.949561e+2, -116172.664, -243927.61, -1022.6189, -0.09441544, 0.17224067, -116164.48, -66713.58, 0.0, 10.000239, 9.998543 
5.95053e+2, 3.0495584e+2, -38473.586, -134275.03, -1233.3413, -0.06691707, 0.27512196, -38457.71, -38457.71, 0.000000033052434, 10.000235, 9.998964 
5.9505785e+2, 3.149541e+2, 51623.99, 6144.986, 24946.045, -0.10234155, 0.19855186, 62639.34, 62639.34, 0.00000037488923, 10.000436, 9.999831 
6.0496616e+2, 1.2496542e+2, -1818827.8, -1784185.9, -110251.695, -0.09083195, 0.07161461, -1689902.9, 25442.746, 0.000000021349177, 9.999397, 9.999801 
6.049755e+2, 1.3496526e+2, -1622575.8, -1686646.5, 65203.168, 0.29771712, 0.10747467, -1581963.3, 35386.273, 0.0, 10.000227, 9.999425 
6.049765e+2, 1.4496441e+2, -1472232.6, -1512585.5, 26346.232, -0.1889589, 0.06359577, -1459224.6, 60133.227, 0.0, 10.00039, 9.999853 
6.0498273e+2, 1.5496434e+2, -1439767.9, -1444423.4, -9769.541, 0.003877371, 0.06665148, -1432052.6, -10695.939, 0.0, 9.999936, 9.999866 
6.049879e+2, 1.6496404e+2, -1378674.8, -1405890.3, 9816.151, 0.07054092, 0.06764306, -1375503.8, -52144.645, 0.0, 9.999859, 9.9994955 
6.04992e+2, 1.7496346e+2, -1239796.5, -1286645.1, 17632.813, -0.016524298, 0.057140153, -1233901.6, -8536.325, 0.0, 10.0001335, 9.999509 
6.049964e+2, 1.8496299e+2, -1147065.6, -1213267.6, 10065.735, -0.044493765, 0.07024205, -1145569.0, -18198.68, 0.0, 10.000192, 9.999312 
6.0500145e+2, 1.9496267e+2, -1069407.9, -1124270.8, 7395.6235, -0.0043001794, 0.103500575, -1068428.4, -39054.727, 0.0, 10.000049, 9.999319 
6.050061e+2, 2.0496175e+2, -987595.8, -1069458.6, 873.20685, 0.006139051, 0.09724806, -987586.5, -56203.895, 0.0, 10.00009, 9.999003 
6.0501045e+2, 2.1496026e+2, -856737.06, -954688.25, -5383.1206, -0.0158406, 0.044712026, -856442.1, -23045.066, 0.0, 10.000312, 9.999011 
6.0501516e+2, 2.249592e+2, -776479.2, -907149.5, 11533.525, -0.02299234, 0.057471536, -775469.0, -40060.258, 0.0, 10.00037, 9.998636 
6.050203e+2, 2.3495859e+2, -693371.56, -815545.25, 14146.463, -0.015502999, 0.12909202, -691754.94, -54337.266, 0.0, 10.000265, 9.998643 
6.050248e+2, 2.4495761e+2, -589563.8, -696215.7, 2233.122, -0.041790713, 0.16047783, -589517.06, -50087.883, 0.0, 10.000225, 9.998808 
6.05029e+2, 2.5495633e+2, -486373.84, -594237.0, -98.74166, -0.10276077, 0.14910185, -486373.75, -44930.89, 0.0, 10.000255, 9.998821 
6.050337e+2, 2.6495522e+2, -389878.97, -522989.44, -6601.889, -0.09581695, 0.16855432, -389552.34, -46097.125, 0.0, 10.000357, 9.998589 
6.050391e+2, 2.7495423e+2, -267180.1, -412646.5, -10833.383, -0.019946141, 0.20506877, -266377.72, -20910.72, 0.0, 10.0005245, 9.998592 
6.050439e+2, 2.8495282e+2, -165386.81, -309972.6, -3368.8784, -0.021683302, 0.20413765, -165308.36, -17826.139, 0.0, 10.000537, 9.998619 
6.0504794e+2, 2.9495123e+2, -89756.98, -224929.6, 1819.3853, -0.10193348, 0.18223552, -89732.49, -40234.12, 0.00000000003092486, 10.000393, 9.9986 
6.0505325e+2, 3.049508e+2, -49337.418, -169129.11, 10249.393, -0.07496768, 0.27733597, -48466.805, -48466.805, 0.00000008707832, 10.000288, 9.9987 
6.050584e+2, 3.149488e+2, 25668.35, -1869.8928, 32793.055, -0.085518815, 0.19746119, 47465.688, 47465.688, 0.0000006525611, 10.000238, 9.999872 
6.149654e+2, 1.24961145e+2, -1803186.5, -1752188.8, -95158.22, -0.109166056, 0.11699489, -1679172.3, 36216.98, 0.0000000039655865, 9.999398, 10.00002 
6.149756e+2, 1.3496064e+2, -1598213.5, -1635760.4, 96436.01, 0.28498122, 0.08374361, -1518740.6, 98654.15, 0.0, 10.000226, 9.999774 
6.149771e+2, 1.4495993e+2, -1488767.3, -1547182.6, 8324.893, -0.16477817, 0.04809457, -1487604.0, 31797.771, 0.0, 10.000391, 9.999616 
6.149827e+2, 1.5496023e+2, -1455385.9, -1477878.0, -26468.604, 0.0055548744, 0.1113125, -1437873.3, -16474.518, 0.0, 9.999939, 9.999635 
6.149878e+2, 1.6495998e+2, -1366626.9, -1381231.3, 20112.977, 0.068047695, 0.12180459, -1352531.6, -29130.762, 0.0, 9.99986, 9.999664 
6.1499226e+2, 1.7495917e+2, -1228082.8, -1262746.1, 28160.143, -0.0013209822, 0.071259655, -1212348.1, 13059.95, 0.0, 10.000134, 9.999673 
6.1499673e+2, 1.8495852e+2, -1151084.1, -1221357.3, 4045.7566, -0.034526236, 0.05996981, -1150852.0, -23437.895, 0.0, 10.000191, 9.999257 
6.150013e+2, 1.9495803e+2, -1072958.8, -1131720.6, 2189.4954, -0.021679994, 0.08319039, -1072877.3, -43458.484, 0.0, 10.000049, 9.999268 
6.150061e+2, 2.0495714e+2, -999154.0, -1092908.9, 8734.662, -0.007283624, 0.088304974, -998347.2, -66919.24, 0.0, 10.000088, 9.998843 
6.15011e+2, 2.149558e+2, -867858.75, -977640.1, 3071.8647, 0.0060837255, 0.068923675, -867772.9, -34331.164, 0.0, 10.000311, 9.998854 
6.150156e+2, 2.249548e+2, -772098.44, -897687.9, 7226.7505, -0.010152389, 0.09002275, -771683.94, -36230.74, 0.0, 10.000369, 9.998702 
6.1502016e+2, 2.3495409e+2, -688262.0, -804916.9, 10409.446, -0.05498999, 0.14486119, -687340.44, -49877.906, 0.0, 10.000265, 9.998715 
6.1502475e+2, 2.4495299e+2, -593991.0, -705368.3, 2890.73, -0.07829147, 0.16196655, -593916.06, -54441.17, 0.0, 10.000225, 9.998746 
6.1502945e+2, 2.5495154e+2, -491305.75, -604242.8, 1112.4602, -0.07919227, 0.13779569, -491294.78, -49804.848, 0.0, 10.000254, 9.998754 
6.150343e+2, 2.649503e+2, -398881.7, -541532.8, -335.9272, -0.069922015, 0.15868904, -398880.88, -55377.617, 0.0, 10.000356, 9.998463 
6.150393e+2, 2.7494934e+2, -275476.6, -429629.22, -4183.895, -0.052055247, 0.21131723, -275363.13, -29847.668, 0.0, 10.000523, 9.998476 
6.15044e+2, 2.8494793e+2, -157695.63, -293388.8, -8842.137, -0.057638753, 0.20928401, -157121.86, -9591.425, 0.0, 10.000534, 9.998735 
6.1504847e+2, 2.9494628e+2, -82948.79, -210706.88, -3519.5237, -0.08572787, 0.16768736, -82851.91, -33305.95, 0.0000000010306047, 10.000392, 9.998698 
6.1505365e+2, 3.049456e+2, -74229.5, -219279.02, 8119.256, -0.05815169, 0.24894367, -73776.44, -73776.44, 0.00000016756015, 10.000281, 9.998359 
6.150585e+2, 3.149437e+2, 19951.99, -10867.067, 33960.047, -0.098350115, 0.21584521, 41835.066, 41835.066, 0.000001002472, 10.000226, 9.999816 
6.2496525e+2, 1.2495642e+2, -1742835.4, -1711655.9, -107362.94, -0.078647636, 0.13162762, -1618756.8, 96680.38, 0.00000000008306351, 9.999762, 10.000124 
6.2497514e+2, 1.3495609e+2, -1690849.9, -1657109.9, 84529.984, 0.25374728, 0.09590251, -1587783.0, 29657.38, 0.0, 9.999491, 9.999981 
6.2497705e+2, 1.4495559e+2, -1604465.5, -1595745.4, -6416.8784, -0.16906975, 0.06715728, -1592347.5, -72902.32, 0.0, 9.999565, 9.9996805 
6.249828e+2, 1.5495585e+2, -1437352.9, -1461435.1, -18720.902, 0.018452164, 0.119321644, -1427135.0, -5692.47, 0.0, 10.00003, 9.999704 
6.249879e+2, 1.6495562e+2, -1332329.4, -1371340.0, 30831.604, 0.08203906, 0.13001375, -1315351.3, 8093.321, 0.0, 10.000125, 9.999605 
6.249923e+2, 1.7495485e+2, -1272413.8, -1290746.5, 21005.266, 0.0033517273, 0.09107631, -1258661.9, -33210.46, 0.0, 9.99986, 9.999613 
6.249968e+2, 1.849541e+2, -1193709.9, -1241353.0, -5348.002, -0.033633612, 0.07295118, -1193116.9, -65658.63, 0.0, 9.999895, 9.999263 
6.250015e+2, 1.9495337e+2, -1047124.3, -1118805.9, -3466.785, -0.022221027, 0.06997956, -1046957.0, -17492.09, 0.0, 10.000224, 9.999272 
6.2500626e+2, 2.0495248e+2, -961382.7, -1081462.1, 9742.432, -0.008592073, 0.08012843, -960597.4, -29123.488, 0.0, 10.000376, 9.998783 
6.2501127e+2, 2.1495147e+2, -865843.94, -983418.6, 10775.87, 0.0044009467, 0.09761053, -864864.5, -31379.324, 0.0, 10.000354, 9.998794 
6.250159e+2, 2.2495042e+2, -781109.94, -904698.94, 8750.268, -0.015859935, 0.12054184, -780493.5, -44996.508, 0.0, 10.000319, 9.998678 
6.2502027e+2, 2.3494935e+2, -690487.44, -808868.4, 4178.477, -0.06900222, 0.14209624, -690340.2, -52830.754, 0.0, 10.000262, 9.998691 
6.250249e+2, 2.4494813e+2, -591004.1, -709357.0, -1201.6334, -0.085027866, 0.15149796, -590991.94, -51469.223, 0.0, 10.000268, 9.998697 
6.250299e+2, 2.549468e+2, -482829.25, -605686.9, -2370.6125, -0.06400327, 0.14369749, -482783.53, -41246.836, 0.0, 10.000335, 9.998704 
6.2503487e+2, 2.649456e+2, -393817.75, -537289.56, 4450.7505, -0.057410352, 0.16571423, -393679.8, -50129.95, 0.0, 10.000382, 9.998478 
6.2503964e+2, 2.749445e+2, -290653.1, -435187.7, 10349.85, -0.06627716, 0.20675346, -289915.72, -44353.152, 0.0, 10.000411, 9.998492 
6.2504435e+2, 2.8494304e+2, -166895.17, -303821.84, 919.14526, -0.071791716, 0.20335533, -166889.0, -19311.209, 0.0, 10.000497, 9.998681 
6.2504905e+2, 2.949414e+2, -51634.527, -202671.25, -7366.0493, -0.073492534, 0.16590627, -51276.133, -1682.3618, 0.000000004235602, 10.000637, 9.998635 
6.2505406e+2, 3.0494046e+2, -59613.074, -212772.56, -1271.6871, -0.04914043, 0.2250415, -59602.516, -59602.516, 0.000000262113, 10.000383, 9.998354 
6.250584e+2, 3.149389e+2, -36395.133, -15270.834, 50173.055, -0.09817088, 0.22557679, 25439.764, 25439.764, 0.0000013873902, 9.999741, 10.000019 
6.3496584e+2, 1.2495126e+2, -1742334.9, -1712434.6, -130894.22, 0.0017800267, 0.114838034, -1595639.6, 119849.62, 0.0, 9.999767, 10.000116 
6.349741e+2, 1.3495162e+2, -1686969.1, -1648855.3, 73416.27, 0.20190723, 0.14260028, -1592062.9, 25423.436, 0.0, 9.99949, 10.000038 
6.3497627e+2, 1.449514e+2, -1578370.1, -1541777.6, 9825.957, -0.20400694, 0.12008277, -1539306.1, -19818.207, 0.0, 9.999565, 10.000051 
6.349831e+2, 1.549512e+2, -1411347.5, -1407926.8, -1144.802, 0.040465653, 0.09083327, -1407579.0, 13908.754, 0.0, 10.0000305, 10.000072 
6.3498837e+2, 1.649509e+2, -1352511.6, -1413442.5, 20057.188, 0.10971922, 0.092332035, -1346502.0, -23011.666, 0.0, 10.000125, 9.999316 
6.3499206e+2, 1.749505e+2, -1292101.9, -1332400.1, 11023.92, -0.003769534, 0.11643833, -1289283.3, -63787.758, 0.0, 9.999863, 9.999326 
6.349966e+2, 1.8494974e+2, -1189461.9, -1232429.5, 6696.692, -0.04362861, 0.108812205, -1188442.4, -60939.535, 0.0, 9.999895, 9.999324 
6.3500184e+2, 1.9494864e+2, -1042417.9, -1109509.6, 8978.437, -0.0072403657, 0.06372241, -1041237.1, -11725.043, 0.0, 10.000226, 9.999335 
6.350068e+2, 2.049478e+2, -959558.6, -1077207.6, 8282.336, -0.000047728998, 0.07273786, -958978.44, -27458.104, 0.0, 10.000374, 9.998814 
6.350114e+2, 2.1494722e+2, -863520.8, -978765.56, 10121.547, -0.021534927, 0.12988731, -862638.6, -29111.135, 0.0, 10.000355, 9.998826 
6.3501596e+2, 2.249461e+2, -789925.3, -922120.25, 6186.941, -0.04139946, 0.14793575, -789636.4, -54096.273, 0.0, 10.000315, 9.99856 
6.350206e+2, 2.3494442e+2, -698729.3, -826073.0, 2393.9436, -0.05930712, 0.120601855, -698684.4, -61126.066, 0.0, 10.000262, 9.998572 
6.350254e+2, 2.449431e+2, -593953.7, -715381.06, 1098.199, -0.06463227, 0.1293958, -593943.75, -54371.215, 0.0, 10.000268, 9.998656 
6.3503027e+2, 2.5494218e+2, -484943.06, -610351.94, 405.33545, -0.05732283, 0.16818082, -484941.75, -43358.88, 0.0, 10.000336, 9.998672 
6.350352e+2, 2.6494104e+2, -383404.94, -515761.28, 5418.545, -0.05800747, 0.19086894, -383183.5, -39588.62, 0.0, 10.000382, 9.998627 
6.3504004e+2, 2.749397e+2, -280766.63, -413998.2, 11774.713, -0.06620376, 0.1892137, -279734.0, -34125.363, 0.0, 10.000407, 9.99864 
6.3504493e+2, 2.8493816e+2, -183011.7, -335947.66, 6240.3354, -0.068502985, 0.18338434, -182757.5, -35132.914, 0.0, 10.000491, 9.998464 
6.350498e+2, 2.9493666e+2, -67606.38, -234637.44, -1735.2482, -0.06515659, 0.17880641, -67588.36, -17946.805, 0.000000008608103, 10.000632, 9.998418 
6.350545e+2, 3.0493546e+2, -37766.438, -166793.64, -25362.406, -0.04683354, 0.20962328, -32960.082, -32960.082, 0.00000035003856, 10.00038, 9.9986725 
6.350583e+2, 3.1493434e+2, -4138.0513, 51974.04, 28163.625, -0.09010398, 0.2250597, 63671.38, 63671.38, 0.0000017531552, 9.999739, 10.000483 
6.449654e+2, 1.24946415e+2, -1838537.1, -1746795.4, -111072.055, 0.0134030245, 0.10182018, -1672494.9, 43042.14, 0.0, 9.999053, 10.000226 
6.449736e+2, 1.3494712e+2, -1661082.5, -1616852.6, 108798.33, 0.19202015, 0.14757857, -1527944.4, 89586.125, 0.0, 9.999585, 10.000211 
6.4497614e+2, 1.4494714e+2, -1546810.8, -1527953.9, 39462.97, -0.18274485, 0.14048567, -1496808.6, 22721.041, 0.0, 9.999788, 10.000038 
6.449829e+2, 1.5494667e+2, -1452913.9, -1429630.6, -1381.8154, 0.031279743, 0.08402174, -1429548.9, -8016.3105, 0.0, 9.999753, 10.000056 
6.449882e+2, 1.6494632e+2, -1388268.3, -1432829.3, 8505.367, 0.091430224, 0.08121209, -1386700.0, -63164.23, 0.0, 9.999889, 9.999297 
6.4499205e+2, 1.7494605e+2, -1247894.1, -1313429.6, 18995.365, -0.0046845153, 0.12384427, -1242786.5, -17246.893, 0.0, 10.000176, 9.999305 
6.449967e+2, 1.8494534e+2, -1136772.1, -1217483.4, 24507.006, -0.03676621, 0.12556902, -1129913.6, -2366.798, 0.0, 10.000302, 9.999229 
6.4500207e+2, 1.9494417e+2, -1041933.4, -1119566.9, 14247.498, -0.0048344852, 0.08183247, -1039401.25, -9843.839, 0.0, 10.000276, 9.999242 
6.45007e+2, 2.0494327e+2, -974605.5, -1075240.9, 2610.7783, -0.0027825744, 0.08642655, -974537.8, -42971.87, 0.0, 10.000232, 9.998895 
6.4501154e+2, 2.1494266e+2, -886297.6, -980824.6, 7464.1807, -0.030001238, 0.1323497, -885711.9, -52139.266, 0.0, 10.00016, 9.998905 
6.4501625e+2, 2.2494146e+2, -811243.44, -938807.56, 11682.447, -0.045967147, 0.14387153, -810182.4, -74596.96, 0.0, 10.0001955, 9.998504 
6.45021e+2, 2.3493971e+2, -691291.25, -828847.0, 11419.707, -0.051083416, 0.11472173, -690349.7, -52745.297, 0.0, 10.000341, 9.998514 
6.450258e+2, 2.4493842e+2, -574564.1, -713467.25, 11934.258, -0.054321073, 0.1305583, -573546.25, -33927.45, 0.0, 10.000433, 9.9985895 
6.450307e+2, 2.549376e+2, -471061.78, -611099.8, 8424.892, -0.056167293, 0.18582992, -470556.75, -28928.217, 0.0, 10.0004635, 9.998605 
6.450356e+2, 2.649364e+2, -365057.06, -499398.9, 7848.8237, -0.056778822, 0.2014818, -364600.06, -20959.086, 0.0, 10.000477, 9.9986925 
6.450406e+2, 2.749348e+2, -267124.16, -399801.38, 7649.3154, -0.055428203, 0.16814356, -266684.6, -21028.375, 0.0, 10.000468, 9.998708 
6.4504546e+2, 2.849334e+2, -194015.75, -345710.47, 7153.1387, -0.058963258, 0.17231533, -193679.19, -46008.035, 0.0, 10.000435, 9.998423 
6.450503e+2, 2.949323e+2, -109367.38, -259470.1, 11482.062, -0.0679426, 0.21802437, -108494.15, -58809.426, 0.000000011710588, 10.000366, 9.998375 
6.4505476e+2, 3.0493075e+2, -46380.57, -161704.52, -28212.455, -0.05401366, 0.21328647, -39848.73, -39848.73, 0.00000040808163, 10.00028, 9.9987545 
6.450584e+2, 3.1492963e+2, 70314.984, 98240.805, 6841.667, -0.07071215, 0.21208, 99826.89, 99826.89, 0.0000020409286, 10.000206, 10.000576 
6.5496385e+2, 1.24941915e+2, -1821071.9, -1712339.1, -97238.305, -0.042146087, 0.09039727, -1655300.9, 60279.848, 0.0, 9.999059, 10.000461 
6.5497345e+2, 1.3494265e+2, -1641070.5, -1574866.3, 127675.28, 0.22046423, 0.11085898, -1476071.8, 141500.8, 0.0, 9.999583, 10.0005 
6.5497667e+2, 1.4494285e+2, -1575346.3, -1586866.9, 36240.633, -0.10801635, 0.12775244, -1544411.0, -24840.686, 0.0, 9.999787, 9.999635 
6.5498215e+2, 1.5494224e+2, -1480884.1, -1488603.0, -2597.628, -0.010457868, 0.09849217, -1480091.4, -58514.684, 0.0, 9.999757, 9.99965 
6.549874e+2, 1.6494182e+2, -1370895.5, -1397318.1, 18873.404, 0.02567336, 0.09663244, -1361068.9, -37488.016, 0.0, 9.999891, 9.999539 
6.549923e+2, 1.7494155e+2, -1230450.1, -1277757.9, 29694.453, -0.0011479299, 0.11275048, -1216140.0, 9443.395, 0.0, 10.000177, 9.99955 
6.549972e+2, 1.849409e+2, -1154943.8, -1254658.9, 22694.139, -0.015658185, 0.12282935, -1150021.8, -22431.72, 0.0, 10.000299, 9.998976 
6.5500224e+2, 1.9493991e+2, -1059656.6, -1156679.8, 13257.0625, -0.015647108, 0.123112574, -1057877.8, -28277.06, 0.0, 10.000276, 9.998987 
6.5500706e+2, 2.0493889e+2, -966190.7, -1056967.9, -350.14902, -0.017773712, 0.11982585, -966189.4, -34578.55, 0.0, 10.000228, 9.999022 
6.550118e+2, 2.1493779e+2, -877220.75, -962281.25, 4986.0513, -0.022095853, 0.10487314, -876929.44, -43309.023, 0.0, 10.000161, 9.999032 
6.5501654e+2, 2.2493659e+2, -811619.94, -939221.25, 16550.977, -0.031421017, 0.10855229, -809508.06, -73875.41, 0.0, 10.000195, 9.998501 
6.5502137e+2, 2.3493527e+2, -691066.3, -829006.9, 17134.646, -0.04507771, 0.12391436, -688969.75, -51322.117, 0.0, 10.000343, 9.998512 
6.5502626e+2, 2.4493407e+2, -581918.3, -728292.06, 12807.601, -0.055605747, 0.15412435, -580806.1, -41144.64, 0.0, 10.000431, 9.998488 
6.5503114e+2, 2.54933e+2, -478289.6, -625577.94, 9896.159, -0.06230643, 0.19508529, -477627.66, -35953.84, 0.0, 10.000462, 9.998507 
6.5503615e+2, 2.6493162e+2, -366377.4, -501655.34, 7525.4165, -0.055272996, 0.19588952, -365960.06, -22271.81, 0.0, 10.000474, 9.998678 
6.550413e+2, 2.7492982e+2, -267878.4, -401269.66, 7908.935, -0.034728773, 0.14591625, -267411.1, -21706.053, 0.0, 10.000468, 9.998697 
6.550461e+2, 2.849287e+2, -185320.98, -327699.25, 4655.1333, -0.044400778, 0.17349559, -185168.94, -37451.824, 0.0, 10.000435, 9.998547 
6.5505046e+2, 2.9492837e+2, -100952.23, -240988.13, 9028.159, -0.084598675, 0.28112933, -100372.58, -50649.016, 0.000000011654482, 10.0003605, 9.998505 
6.550548e+2, 3.049264e+2, -57578.406, -183154.17, -31200.662, -0.073517464, 0.23173073, -50253.523, -50253.523, 0.00000041978168, 10.000273, 9.9986105 
6.550589e+2, 3.1492463e+2, 51282.055, 60269.953, 4860.8325, -0.04262771, 0.18635689, 62395.918, 62395.918, 0.000002202322, 10.000199, 10.000317 
6.6496295e+2, 1.2493759e+2, -1802883.9, -1720262.5, -85170.65, -0.050442964, 0.100488134, -1666912.6, 48709.594, 0.0, 9.999254, 10.000313 
6.6497284e+2, 1.3493787e+2, -1656575.9, -1597189.4, 107343.2, 0.20834962, 0.087767094, -1515508.3, 102111.01, 0.0, 9.999543, 10.000365 
6.649767e+2, 1.4493814e+2, -1583520.4, -1593268.8, 3425.3193, -0.079644874, 0.119867794, -1582437.1, -62820.355, 0.0, 9.999742, 9.999613 
6.6498196e+2, 1.5493773e+2, -1456043.8, -1479143.9, -5669.401, -0.019781956, 0.11285445, -1454727.4, -33105.98, 0.0, 9.999938, 9.999627 
6.6498715e+2, 1.6493732e+2, -1350108.3, -1382797.0, 24459.496, 0.004113136, 0.11231656, -1337034.9, -13409.472, 0.0, 10.000016, 9.999578 
6.6499233e+2, 1.7493689e+2, -1257921.6, -1286510.3, 18373.81, -0.005561907, 0.10879622, -1248936.6, -23307.477, 0.0, 9.999972, 9.999587 
6.649974e+2, 1.8493627e+2, -1203755.8, -1278966.1, 8898.974, -0.013584573, 0.11961303, -1202717.1, -75081.34, 0.0, 9.9999695, 9.998967 
6.650024e+2, 1.9493547e+2, -1100277.5, -1177610.8, 16984.809, -0.020135606, 0.14074153, -1096711.6, -67066.45, 0.0, 10.000003, 9.998975 
6.6500723e+2, 2.0493445e+2, -980044.9, -1061991.8, 11367.868, -0.02044874, 0.13752508, -978497.1, -46841.934, 0.0, 10.000126, 9.999037 
6.650121e+2, 2.1493317e+2, -849632.5, -946592.56, 7613.3413, -0.0141847795, 0.10301964, -849038.3, -15372.239, 0.0, 10.000342, 9.999051 
6.6501695e+2, 2.2493194e+2, -774144.44, -920729.4, 15577.315, -0.021714794, 0.10328642, -772507.3, -36829.066, 0.0, 10.00045, 9.998505 
6.650218e+2, 2.3493075e+2, -676581.56, -821794.3, 16163.373, -0.043496482, 0.13101311, -674804.2, -37112.207, 0.0, 10.000442, 9.998515 
6.6502666e+2, 2.4492954e+2, -577747.4, -728401.6, 14727.616, -0.055720896, 0.16042571, -576321.1, -36615.246, 0.0, 10.000469, 9.99847 
6.650317e+2, 2.549283e+2, -469758.22, -623540.56, 16885.785, -0.057265475, 0.18594994, -467925.94, -26206.15, 0.0, 10.000529, 9.998487 
6.650367e+2, 2.6492688e+2, -356701.5, -499012.5, 15366.704, -0.052147113, 0.18538977, -355061.13, -11326.544, 0.0, 10.000549, 9.99866 
6.650417e+2, 2.749252e+2, -261004.63, -399848.84, 14750.027, -0.041130457, 0.15030904, -259454.95, -13704.6045, 0.0, 10.0005245, 9.99868 
6.650465e+2, 2.8492415e+2, -172502.67, -316537.44, 7792.511, -0.047336806, 0.18290295, -172082.31, -24320.598, 0.0, 10.000503, 9.99859 
6.6505104e+2, 2.9492375e+2, -77711.13, -224130.11, 5154.9927, -0.07153106, 0.28148183, -77529.87, -27761.645, 0.000000008469742, 10.000498, 9.998553 
6.650553e+2, 3.0492154e+2, -31451.555, -171340.03, -34155.977, -0.06671552, 0.20422678, -23557.324, -23557.324, 0.00000038345433, 10.000457, 9.998602 
6.650592e+2, 3.1492007e+2, 59609.645, 41787.527, 10768.0625, -0.042404406, 0.18812054, 64675.645, 64675.645, 0.0000022156387, 10.000353, 10.000115 
6.7496264e+2, 1.24933444e+2, -1840730.3, -1799499.8, -76880.305, -0.0105982255, 0.12795429, -1740518.8, -24856.998, 0.0, 9.999255, 9.99977 
6.749719e+2, 1.3493277e+2, -1695397.0, -1678972.8, 117141.08, 0.15308832, 0.07797423, -1569756.3, 47914.17, 0.0, 9.99955, 9.999801 
6.749762e+2, 1.44933e+2, -1557608.8, -1540783.5, 8838.895, -0.09928738, 0.11645026, -1536993.8, -17324.967, 0.0, 9.999747, 9.99997 
6.7498213e+2, 1.5493314e+2, -1430464.5, -1426051.0, 1692.6044, 0.0005575636, 0.1265495, -1425476.6, -3810.1753, 0.0, 9.999937, 9.999992 
6.749873e+2, 1.6493285e+2, -1362954.8, -1408310.1, 22339.254, 0.023488523, 0.12772888, -1353799.8, -30130.773, 0.0, 10.000011, 9.999406 
6.749922e+2, 1.7493209e+2, -1269894.3, -1311637.0, 17004.418, -0.018337246, 0.111410916, -1263844.1, -38167.535, 0.0, 9.999973, 9.999414 
6.749972e+2, 1.8493144e+2, -1188177.1, -1246474.9, 9792.942, -0.03128414, 0.115338445, -1186576.1, -58892.29, 0.0, 9.999969, 9.999191 
6.750024e+2, 1.9493085e+2, -1084832.4, -1145318.5, 18144.139, -0.019826692, 0.13438687, -1079807.1, -50116.723, 0.0, 10.000002, 9.999197 
6.7500746e+2, 2.0492996e+2, -987194.44, -1076022.5, 18836.955, -0.012827999, 0.13958962, -983365.0, -51665.92, 0.0, 10.000122, 9.998942 
6.750125e+2, 2.149288e+2, -856271.94, -960449.9, 15886.919, -0.007246957, 0.12551564, -853903.06, -20193.572, 0.0, 10.000341, 9.998957 
6.750175e+2, 2.2492753e+2, -773906.1, -919597.94, 14955.323, -0.01838677, 0.1265228, -772386.75, -36664.54, 0.0, 10.000447, 9.998513 
6.7502224e+2, 2.3492618e+2, -676012.5, -820539.9, 16221.727, -0.046785843, 0.1352905, -674214.1, -36476.734, 0.0, 10.000442, 9.998524 
6.7502713e+2, 2.4492483e+2, -573575.3, -719707.6, 16708.271, -0.05535855, 0.14871302, -571689.3, -31937.234, 0.0, 10.000468, 9.998529 
6.750324e+2, 2.5492352e+2, -465561.16, -615119.25, 19447.107, -0.042942144, 0.15973704, -463073.8, -21307.596, 0.0, 10.000529, 9.998545 
6.750372e+2, 2.649222e+2, -358784.22, -503104.25, 14368.61, -0.049822472, 0.17158268, -357367.56, -13587.826, 0.0, 10.000548, 9.998632 
6.7504185e+2, 2.7492097e+2, -263463.7, -403761.8, 14169.707, -0.07559217, 0.17893186, -262046.9, -16254.569, 0.0, 10.000519, 9.998655 
6.750468e+2, 2.8491974e+2, -175720.69, -322077.34, 7442.867, -0.06857665, 0.1977582, -175343.16, -27537.957, 0.0, 10.000498, 9.998554 
6.750519e+2, 2.9491857e+2, -80522.695, -229236.17, 5609.5166, -0.03070678, 0.2218956, -80311.4, -30493.031, 0.0000000040864183, 10.000495, 9.99852 
6.7505604e+2, 3.049163e+2, -23002.568, -153370.23, -37522.99, -0.035915714, 0.13397013, -12973.99, -12973.99, 0.0000003121116, 10.000455, 9.998727 
6.750592e+2, 3.1491596e+2, 49713.53, 22085.303, 7332.522, -0.07391279, 0.2218547, 51538.973, 51538.973, 0.0000020914758, 10.000349, 9.999982 
6.8496233e+2, 1.2492854e+2, -1776068.5, -1777519.0, -115650.164, 0.013541759, 0.14358558, -1661141.3, 54569.1, 0.0, 9.99974, 9.999688 
6.8497115e+2, 1.3492768e+2, -1681116.4, -1684735.4, 109215.02, 0.11997884, 0.08520742, -1573695.9, 44025.56, 0.0, 9.999704, 9.999685 
6.8497604e+2, 1.44928e+2, -1557692.9, -1523710.4, 10908.961, -0.09958132, 0.13189772, -1520509.9, -791.2354, 0.0, 9.999675, 10.000121 
6.84982e+2, 1.5492818e+2, -1447301.8, -1417349.8, -12655.798, 0.0039429064, 0.13133673, -1412718.4, 8997.007, 0.0, 9.999752, 10.00014 
6.8498725e+2, 1.6492791e+2, -1394979.5, -1421530.1, 1609.1835, 0.026577141, 0.12774682, -1394882.4, -71164.9, 0.0, 9.9997835, 9.999424 
6.849921e+2, 1.7492722e+2, -1299777.6, -1324194.1, 9544.723, -0.014590357, 0.1123886, -1296489.3, -70764.16, 0.0, 9.999761, 9.999431 
6.8499714e+2, 1.8492661e+2, -1201543.5, -1237082.3, 10920.43, -0.028307263, 0.116071895, -1198456.1, -70724.67, 0.0, 9.999809, 9.999331 
6.850023e+2, 1.9492616e+2, -1083135.5, -1127533.8, 13360.744, -0.021649638, 0.13393132, -1079425.0, -49688.85, 0.0, 9.999944, 9.999346 
6.850075e+2, 2.0492533e+2, -1001406.94, -1090633.9, 15647.529, -0.017865527, 0.13856925, -998742.44, -66998.01, 0.0, 10.00006, 9.998871 
6.850127e+2, 2.1492407e+2, -887971.1, -984029.7, 13380.553, -0.01413517, 0.12386976, -886142.1, -52385.82, 0.0, 10.000159, 9.998882 
6.8501776e+2, 2.2492285e+2, -796666.3, -923836.5, 11662.322, -0.021142766, 0.12893437, -795605.6, -59836.68, 0.0, 10.000261, 9.998574 
6.850227e+2, 2.3492163e+2, -682255.06, -815833.7, 16095.962, -0.03893369, 0.14697021, -680342.94, -42560.46, 0.0, 10.000366, 9.998592 
6.850277e+2, 2.4492033e+2, -572687.1, -710786.94, 20138.242, -0.04740281, 0.15759128, -569810.44, -30014.045, 0.0, 10.000439, 9.998605 
6.850328e+2, 2.5491893e+2, -467391.6, -607225.1, 23969.871, -0.046665158, 0.15271422, -463396.88, -21585.986, 0.0, 10.00048, 9.998623 
6.8503773e+2, 2.6491767e+2, -361550.34, -502960.5, 20286.564, -0.05609641, 0.16267687, -358697.6, -14873.55, 0.0, 10.0005245, 9.998645 
6.8504244e+2, 2.7491653e+2, -254482.88, -398025.94, 21948.414, -0.07399333, 0.18154477, -251201.84, -5366.119, 0.0, 10.000575, 9.998667 
6.850474e+2, 2.8491533e+2, -164672.4, -318515.2, 16180.033, -0.06434152, 0.20150189, -162989.13, -15140.582, 0.0, 10.000582, 9.998538 
6.8505245e+2, 2.9491404e+2, -75281.65, -227610.02, 15507.736, -0.029977355, 0.21612187, -73718.92, -23856.363, 0.0000000009738006, 10.000535, 9.998511 
6.850565e+2, 3.049118e+2, -1810.2283, -137126.34, -26981.19, -0.041652378, 0.12952656, 3371.2454, 3371.2454, 0.00000022618863, 10.000574, 9.998781 
6.850598e+2, 3.1491175e+2, 86385.9, 15829.63, 10373.619, -0.06880298, 0.23782472, 87879.48, 87879.48, 0.0000018666766, 10.000705, 9.999767 
6.949622e+2, 1.2492289e+2, -1748183.6, -1723072.6, -112930.74, 0.0217022, 0.14246173, -1622001.5, 93766.74, 0.0, 9.999752, 10.000057 
6.949707e+2, 1.3492261e+2, -1657833.4, -1634833.3, 106367.55, 0.10589822, 0.10891643, -1539345.9, 78425.805, 0.0, 9.999699, 10.00003 
6.9497585e+2, 1.4492317e+2, -1563087.3, -1533176.6, 12635.982, -0.08318632, 0.16532171, -1528553.1, -8787.118, 0.0, 9.999667, 10.00006 
6.949816e+2, 1.549229e+2, -1450872.5, -1426166.1, -8666.012, -0.010656343, 0.12683287, -1423429.6, -1661.7604, 0.0, 9.999758, 10.000078 
6.949869e+2, 1.649226e+2, -1381457.6, -1394046.8, 176.4271, 0.011678083, 0.11175975, -1381455.1, -57684.6, 0.0, 9.999785, 9.999611 
6.94992e+2, 1.7492223e+2, -1287107.5, -1296861.9, 8358.029, 0.0027083028, 0.11160145, -1282307.8, -56533.203, 0.0, 9.999756, 9.99962 
6.9499713e+2, 1.8492183e+2, -1197169.4, -1226649.4, 15423.631, -0.007715063, 0.12182704, -1190575.0, -62796.59, 0.0, 9.999803, 9.999407 
6.950022e+2, 1.9492143e+2, -1077991.3, -1116632.5, 18715.906, -0.025814459, 0.13864766, -1070412.5, -40630.46, 0.0, 9.999942, 9.999421 
6.950074e+2, 2.049205e+2, -1005374.6, -1098877.1, 18825.957, -0.035977878, 0.1334858, -1001726.5, -69935.26, 0.0, 10.000059, 9.998815 
6.950126e+2, 2.1491899e+2, -892604.9, -993149.75, 17125.787, -0.03618422, 0.09830787, -889767.9, -55961.62, 0.0, 10.000157, 9.998821 
6.9501793e+2, 2.2491787e+2, -788306.94, -906258.75, 15215.115, -0.031507216, 0.11070755, -786375.9, -50557.61, 0.0, 10.000259, 9.998696 
6.9502324e+2, 2.3491716e+2, -673804.25, -798533.8, 20204.387, -0.021527732, 0.16629717, -670613.06, -32786.04, 0.0, 10.000366, 9.998712 
6.9502825e+2, 2.4491607e+2, -565659.4, -696208.9, 21380.314, -0.03363788, 0.18678162, -562247.1, -22408.244, 0.0, 10.000438, 9.998705 
6.950331e+2, 2.5491458e+2, -460671.28, -592626.9, 25791.08, -0.068624444, 0.16367622, -455809.47, -13955.688, 0.0, 10.000477, 9.998725 
6.950381e+2, 2.649132e+2, -358565.9, -495909.06, 22005.547, -0.07121601, 0.15682119, -355126.25, -11258.663, 0.0, 10.000521, 9.998694 
6.950433e+2, 2.7491197e+2, -251946.36, -392067.06, 24128.928, -0.038829353, 0.15953788, -247907.75, -2027.428, 0.0, 10.000572, 9.99871 
6.950482e+2, 2.8491095e+2, -164467.6, -317768.28, 14588.975, -0.037293665, 0.19591726, -163091.58, -15200.068, 0.0, 10.00058, 9.998544 
6.950526e+2, 2.949102e+2, -74774.14, -225629.4, 14413.832, -0.070196904, 0.26181895, -73409.29, -23508.295, 0.000000000021633938, 10.00053, 9.998528 
6.950566e+2, 3.0490807e+2, -3658.307, -139687.95, -22617.78, -0.084587194, 0.18788077, 3.7848918, 3.7848918, 0.00000014519733, 10.000569, 9.998765 
6.950609e+2, 3.1490746e+2, 64188.637, -28208.166, 14247.404, -0.03229412, 0.24540947, 66335.67, 66335.67, 0.0000015881137, 10.000696, 9.999469 
7.0496196e+2, 1.249175e+2, -1756012.3, -1701769.4, -85450.24, 0.034498762, 0.14462212, -1639239.8, 76582.234, 0.0, 9.999591, 10.00028 
7.049702e+2, 1.3491727e+2, -1651168.6, -1612278.0, 111255.516, 0.082232006, 0.09835226, -1518781.3, 99042.68, 0.0, 9.999664, 10.000199 
7.0497555e+2, 1.4491802e+2, -1571520.8, -1536865.4, 14547.663, -0.074051544, 0.16620666, -1531568.3, -11752.08, 0.0, 9.999609, 10.000063 
7.0498127e+2, 1.5491784e+2, -1481889.3, -1441313.5, -1235.1768, -0.0097319605, 0.13564564, -1441275.9, -19457.756, 0.0, 9.999546, 10.000075 
7.049866e+2, 1.6491759e+2, -1401409.9, -1391478.6, 9327.655, 0.010227961, 0.12205381, -1385877.3, -62056.85, 0.0, 9.999597, 9.999719 
7.0499176e+2, 1.7491728e+2, -1279176.5, -1280300.9, 11137.768, 0.004822108, 0.1164117, -1268586.8, -42763.484, 0.0, 9.999758, 9.999731 
7.04997e+2, 1.849169e+2, -1189838.8, -1225737.4, 13450.449, -0.004720429, 0.12354224, -1185358.4, -57531.434, 0.0, 9.9998665, 9.999381 
7.050021e+2, 1.9491647e+2, -1083002.1, -1122710.3, 7653.3276, -0.025052795, 0.13936645, -1081578.1, -51746.64, 0.0, 9.999922, 9.99939 
7.050074e+2, 2.0491561e+2, -1007134.7, -1088370.3, 10316.956, -0.037636995, 0.13777496, -1005844.94, -74004.836, 0.0, 9.999997, 9.998918 
7.0501274e+2, 2.1491428e+2, -893527.7, -981337.25, 20628.176, -0.0399098, 0.11026237, -888923.2, -55070.105, 0.0, 10.000099, 9.99893 
7.050181e+2, 2.2491321e+2, -796478.6, -903965.25, 22755.016, -0.03560864, 0.11967147, -791859.8, -55995.477, 0.0, 10.000178, 9.998751 
7.050235e+2, 2.3491241e+2, -688803.3, -799735.8, 22145.021, -0.02535394, 0.16193898, -684546.0, -46672.2, 0.0, 10.000237, 9.998765 
7.0502865e+2, 2.4491139e+2, -582557.9, -699755.9, 18321.664, -0.0342756, 0.18513915, -579760.44, -39875.426, 0.0, 10.000302, 9.998746 
7.050335e+2, 2.5491014e+2, -472184.2, -593540.56, 17282.037, -0.06239166, 0.1814122, -469771.1, -27873.133, 0.0, 10.000378, 9.998766 
7.0503855e+2, 2.6490885e+2, -371325.78, -494485.56, 10424.509, -0.06646267, 0.1764022, -370449.66, -26538.604, 0.0, 10.000401, 9.998762 
7.0504373e+2, 2.7490753e+2, -276528.3, -395856.0, 14003.004, -0.044667054, 0.1630939, -274907.1, -28982.799, 0.0, 10.00037, 9.998781 
7.050487e+2, 2.849065e+2, -181747.4, -326095.72, 8893.989, -0.043802604, 0.19375576, -181201.47, -33265.87, 0.0, 10.000462, 9.998545 
7.050532e+2, 2.9490575e+2, -51230.008, -213686.17, 7784.043, -0.06684905, 0.26488253, -50857.89, -913.1668, 0.0, 10.0006895, 9.998533 
7.050573e+2, 3.049039e+2, 41564.18, -112337.49, -26133.004, -0.08708345, 0.21311143, 45880.586, 45880.586, 0.00000008201181, 10.000855, 9.998816 
7.0506155e+2, 3.1490314e+2, 87065.85, -36370.0, 12010.155, -0.041001927, 0.24840121, 88223.57, 88223.57, 0.0000012936833, 10.000935, 9.999299 
7.149617e+2, 1.249124e+2, -1751466.4, -1692737.6, -74192.39, 0.05135528, 0.1458652, -1642309.9, 73561.33, 0.0, 9.99959, 10.000344 
7.149694e+2, 1.3491169e+2, -1650092.0, -1612056.6, 113793.59, 0.045713995, 0.052971613, -1515702.5, 102175.25, 0.0, 9.999673, 10.000197 
7.149752e+2, 1.4491262e+2, -1567634.5, -1529544.9, 10121.735, -0.07587188, 0.13358742, -1527022.3, -7153.2715, 0.0, 9.999613, 10.000111 
7.149809e+2, 1.5491301e+2, -1479187.4, -1434501.1, -3509.1643, 0.0041391547, 0.15765406, -1434227.3, -12361.155, 0.0, 9.999541, 10.000124 
7.1498626e+2, 1.6491295e+2, -1399170.3, -1385543.6, 15597.182, 0.01981633, 0.15827447, -1375336.5, -51469.902, 0.0, 9.999591, 9.999763 
7.149914e+2, 1.7491241e+2, -1275740.8, -1273867.9, 17981.55, -0.008814096, 0.1263747, -1256798.4, -30927.336, 0.0, 9.999761, 9.999775 
7.149967e+2, 1.8491186e+2, -1200030.6, -1246985.3, 15093.77, -0.020582069, 0.12056264, -1195597.3, -67720.36, 0.0, 9.9998665, 9.999235 
7.1500206e+2, 1.9491129e+2, -1093984.0, -1144421.5, 9637.476, -0.02179473, 0.13691555, -1092205.3, -62321.13, 0.0, 9.999917, 9.999243 
7.150075e+2, 2.0491067e+2, -988636.6, -1049477.5, 13521.863, -0.024780016, 0.15221946, -985766.75, -53876.074, 0.0, 9.999994, 9.9991865 
7.1501297e+2, 2.1490994e+2, -874657.7, -941965.5, 24460.41, -0.026240919, 0.1595872, -866707.56, -32810.99, 0.0, 10.000097, 9.999202 
7.1501833e+2, 2.2490887e+2, -796533.06, -904389.9, 24333.408, -0.034424447, 0.15564021, -791297.4, -55390.223, 0.0, 10.000179, 9.998748 
7.1502346e+2, 2.3490743e+2, -689620.56, -801014.56, 24595.455, -0.050962307, 0.13403395, -684431.7, -46509.04, 0.0, 10.000236, 9.998757 
7.150288e+2, 2.4490635e+2, -584188.44, -702807.44, 20859.527, -0.050032876, 0.15278384, -580627.1, -40692.46, 0.0, 10.000301, 9.998726 
7.1503425e+2, 2.5490564e+2, -474023.5, -597326.0, 20291.195, -0.029959427, 0.20661613, -470770.13, -28826.898, 0.0, 10.000378, 9.99874 
7.1503925e+2, 2.649046e+2, -364488.44, -480671.03, 9238.921, -0.04361197, 0.22176915, -363758.34, -19804.078, 0.0, 10.0004015, 9.998857 
7.1504366e+2, 2.749032e+2, -269905.7, -381613.53, 13221.027, -0.091962665, 0.19077401, -268362.25, -22394.518, 0.0, 10.000367, 9.99888 
7.1504873e+2, 2.8490192e+2, -182908.63, -327486.88, 16973.2, -0.08476429, 0.19373818, -180942.73, -32961.89, 0.0, 10.000458, 9.998536 
7.150544e+2, 2.949008e+2, -52561.945, -215155.89, 16889.49, -0.022280715, 0.22702634, -50826.08, -832.57654, 0.0, 10.000685, 9.998525 
7.150585e+2, 3.0489933e+2, 49515.945, -95190.09, -22878.033, -0.05123727, 0.20677595, 53046.813, 53046.813, 0.00000004119849, 10.000853, 9.998936 
7.1506196e+2, 3.148988e+2, 82035.79, -45265.945, 13847.999, -0.09821864, 0.25732753, 83524.77, 83524.77, 0.0000010048329, 10.000928, 9.999242 
7.249615e+2, 1.2490736e+2, -1675280.0, -1665802.9, -57221.77, 0.04607067, 0.12989554, -1613123.8, 102796.27, 0.0, 10.000153, 10.000258 
7.249688e+2, 1.3490671e+2, -1683802.8, -1646514.8, 107320.75, 0.023261001, 0.061774835, -1556230.6, 61696.145, 0.0, 9.999522, 10.000032 
7.2497475e+2, 1.4490767e+2, -1604002.5, -1544108.5, 14210.461, -0.062754974, 0.15237153, -1540908.0, -20989.957, 0.0, 9.999351, 10.000136 
7.249806e+2, 1.5490788e+2, -1446064.3, -1415782.1, -472.85767, 0.0069468757, 0.15612613, -1415774.6, 6141.985, 0.0, 9.999757, 10.000148 
7.249859e+2, 1.6490784e+2, -1352321.8, -1357625.4, 12481.382, 0.0145587465, 0.15336537, -1342213.6, -18296.445, 0.0, 9.999889, 9.99981 
7.24991e+2, 1.749075e+2, -1275151.4, -1268647.0, 14194.321, -0.017331975, 0.13651483, -1257337.1, -31417.467, 0.0, 9.9997425, 9.99982 
7.2499645e+2, 1.8490705e+2, -1220486.3, -1259135.5, 19913.686, -0.025743736, 0.13842206, -1212062.1, -84137.26, 0.0, 9.999735, 9.999216 
7.25002e+2, 1.9490643e+2, -1101320.1, -1149814.9, 24341.217, -0.018664476, 0.15348865, -1091210.1, -61277.25, 0.0, 9.999876, 9.999225 
7.2500753e+2, 2.0490581e+2, -984889.44, -1037164.56, 26854.72, -0.020007007, 0.16556084, -973552.4, -41612.992, 0.0, 9.999976, 9.999279 
7.25013e+2, 2.1490516e+2, -877269.9, -933039.56, 23429.896, -0.026829446, 0.16851732, -868733.25, -34788.87, 0.0, 10.000034, 9.999293 
7.2501844e+2, 2.2490415e+2, -802092.2, -899201.6, 19479.479, -0.036226913, 0.16278592, -798330.44, -62376.426, 0.0, 10.000107, 9.998818 
7.250237e+2, 2.3490277e+2, -689361.4, -792775.8, 24905.318, -0.049255997, 0.14108424, -683676.0, -45707.344, 0.0, 10.000202, 9.99883 
7.250291e+2, 2.4490169e+2, -587436.5, -702269.3, 25448.879, -0.047299128, 0.15519808, -582049.3, -42068.75, 0.0, 10.00027, 9.998745 
7.250346e+2, 2.5490093e+2, -482563.44, -599063.0, 27825.781, -0.02946697, 0.20011462, -476258.5, -34268.793, 0.0, 10.00031, 9.998761 
7.250396e+2, 2.648999e+2, -368734.13, -485712.22, 13847.25, -0.042875852, 0.22072487, -367117.3, -23116.871, 0.0, 10.000385, 9.998831 
7.2504413e+2, 2.7489868e+2, -251909.66, -376108.47, 7784.8823, -0.088223524, 0.20970452, -251423.6, -5410.8687, 0.0, 10.000504, 9.998853 
7.2504926e+2, 2.8489733e+2, -168608.69, -322795.7, 9724.435, -0.08003018, 0.20835787, -167997.8, -19971.264, 0.0, 10.000565, 9.998517 
7.2505504e+2, 2.9489595e+2, -70005.15, -225366.16, 8649.785, -0.018819422, 0.21367408, -69525.055, -19483.355, 0.0, 10.000572, 9.998509 
7.2505933e+2, 3.048947e+2, 36236.582, -95466.16, -30619.555, -0.05149699, 0.21477571, 43007.25, 43007.25, 0.000000018939705, 10.000735, 9.99899 
7.25063e+2, 3.1489393e+2, 98840.266, -38636.656, -1730.3363, -0.092410125, 0.235359, 98862.04, 98862.04, 0.0000007295325, 10.001051, 9.999228 
7.349614e+2, 1.2490235e+2, -1692707.5, -1702620.0, -70556.67, 0.012246939, 0.094214715, -1626933.1, 89035.26, 0.0, 10.000154, 10.000007 
7.349682e+2, 1.3490237e+2, -1707356.4, -1694137.0, 82232.91, 0.0135460375, 0.12546618, -1618248.6, -277.91293, 0.0, 9.999517, 9.999707 
7.349744e+2, 1.4490324e+2, -1603559.1, -1542496.1, 28365.672, -0.036151115, 0.2225253, -1531352.9, -11389.745, 0.0, 9.999347, 10.000149 
7.349802e+2, 1.5490252e+2, -1444507.4, -1414225.1, 15924.067, -0.003638428, 0.13026533, -1407392.9, 14576.928, 0.0, 9.9997635, 10.000155 
7.349856e+2, 1.6490227e+2, -1349876.3, -1352902.1, 6665.5747, -0.008609874, 0.10624181, -1344554.0, -20582.314, 0.0, 9.999891, 9.999843 
7.349907e+2, 1.7490256e+2, -1272873.3, -1263271.4, 8594.965, -0.022296969, 0.14794463, -1258227.4, -32258.625, 0.0, 9.99974, 9.999858 
7.349962e+2, 1.8490244e+2, -1212492.3, -1241941.3, 24712.541, -0.02173236, 0.1776482, -1198450.0, -70479.42, 0.0, 9.999732, 9.999336 
7.350019e+2, 1.9490191e+2, -1092910.5, -1132550.0, 29688.209, -0.016527532, 0.1888258, -1077034.1, -47056.51, 0.0, 9.999876, 9.999344 
7.3500746e+2, 2.0490108e+2, -990977.2, -1049869.8, 28478.424, -0.024749564, 0.17773052, -979458.8, -47472.73, 0.0, 9.999976, 9.999192 
7.350129e+2, 2.148999e+2, -884026.0, -946279.4, 25595.508, -0.043033905, 0.13766627, -874853.75, -40857.555, 0.0, 10.000031, 9.999205 
7.350185e+2, 2.2489902e+2, -792161.6, -878287.8, 22369.14, -0.042056277, 0.14154266, -786698.4, -50693.598, 0.0, 10.000105, 9.998963 
7.3502415e+2, 2.3489842e+2, -679001.7, -771377.5, 28486.664, -0.021672565, 0.18353078, -670923.5, -32911.715, 0.0, 10.000202, 9.998977 
7.350295e+2, 2.448974e+2, -582646.7, -692554.0, 26628.762, -0.027701657, 0.19247818, -576534.9, -36512.258, 0.0, 10.000271, 9.998812 
7.350345e+2, 2.5489596e+2, -478158.38, -589227.94, 29517.97, -0.061790418, 0.16194594, -470801.0, -28763.668, 0.0, 10.000307, 9.998831 
7.350398e+2, 2.648948e+2, -379463.75, -507396.3, 18139.457, -0.065236114, 0.17339535, -376941.5, -32892.047, 0.0, 10.000383, 9.998683 
7.350452e+2, 2.74894e+2, -263028.06, -399056.3, 12555.033, -0.035196535, 0.22121172, -261878.97, -15819.931, 0.0, 10.000503, 9.998696 
7.350504e+2, 2.8489277e+2, -169786.22, -325252.8, 10217.53, -0.031426854, 0.23853788, -169117.58, -21045.18, 0.0, 10.000565, 9.998501 
7.350552e+2, 2.9489115e+2, -71878.945, -227823.69, 10132.447, -0.058132075, 0.2231291, -71223.35, -21134.107, 0.0, 10.0005665, 9.998495 
7.350597e+2, 3.0488998e+2, 33426.727, -99975.37, -18694.656, -0.09031183, 0.23555806, 35997.027, 35997.027, 0.0000000073965225, 10.0007305, 9.998961 
7.350647e+2, 3.1488857e+2, 96447.86, -41398.5, 8343.72, -0.02921963, 0.19491896, 96951.06, 96951.06, 0.0000004773962, 10.001041, 9.999213 
7.449611e+2, 1.2489754e+2, -1756871.8, -1734410.9, -86577.62, -0.016364232, 0.11041002, -1658338.4, 57678.156, 0.0, 9.999719, 9.999997 
7.44968e+2, 1.3489746e+2, -1626704.0, -1664735.4, 69703.78, 0.010373939, 0.14018372, -1573468.6, 44551.17, 0.0, 10.0001135, 9.99962 
7.449743e+2, 1.4489824e+2, -1510686.9, -1502028.8, 25904.309, -0.007741174, 0.23441209, -1480094.3, 39918.813, 0.0, 10.000002, 10.000113 
7.4497974e+2, 1.548974e+2, -1488157.5, -1439637.5, 10920.5, -0.017718172, 0.13558829, -1437292.9, -15272.399, 0.0, 9.999482, 10.000117 
7.4498504e+2, 1.6489713e+2, -1414259.1, -1381245.6, 8149.3, -0.029814415, 0.108125955, -1379343.6, -55320.926, 0.0, 9.999438, 9.9998665 
7.4499065e+2, 1.7489742e+2, -1251019.9, -1250383.3, 8770.067, -0.013435362, 0.14863135, -1241925.8, -15906.157, 0.0, 9.99988, 9.999879 
7.449962e+2, 1.8489736e+2, -1167660.9, -1217564.1, 15750.726, -0.007682853, 0.18090832, -1163105.4, -35084.48, 0.0, 10.000027, 9.999361 
7.4500173e+2, 1.9489692e+2, -1091636.8, -1129535.4, 12729.208, -0.024405906, 0.19896498, -1087758.3, -57731.145, 0.0, 9.999873, 9.999367 
7.450073e+2, 2.0489609e+2, -1006733.4, -1054330.0, 16179.992, -0.038377915, 0.18582928, -1001754.06, -69718.49, 0.0, 9.999854, 9.999221 
7.450129e+2, 2.148948e+2, -890020.06, -945685.6, 21808.623, -0.045647614, 0.13319887, -882493.5, -48446.98, 0.0, 9.999975, 9.999235 
7.4501854e+2, 2.2489399e+2, -792138.1, -867863.0, 21263.346, -0.038294084, 0.13694654, -786576.0, -50521.668, 0.0, 10.000061, 9.999056 
7.450243e+2, 2.3489363e+2, -686705.8, -764497.56, 22743.004, -0.016783027, 0.19253474, -680544.7, -42485.824, 0.0, 10.000105, 9.999071 
7.450298e+2, 2.4489264e+2, -589247.94, -688390.0, 19773.004, -0.026042957, 0.19707619, -585449.9, -45380.824, 0.0, 10.000195, 9.998877 
7.450349e+2, 2.54891e+2, -469635.88, -578129.8, 21698.818, -0.06785528, 0.14362971, -465457.06, -23372.105, 0.0, 10.000335, 9.998893 
7.450402e+2, 2.648899e+2, -375035.75, -513951.84, 13765.432, -0.066649616, 0.1553843, -373684.84, -29587.555, 0.0, 10.00045, 9.998606 
7.4504584e+2, 2.7488923e+2, -261533.4, -407087.78, 13345.913, -0.018919025, 0.22723988, -260319.83, -14213.701, 0.0, 10.000551, 9.998618 
7.450511e+2, 2.84888e+2, -161532.16, -315305.56, 12549.777, -0.014021683, 0.24676898, -160514.67, -12395.133, 0.0, 10.000595, 9.998554 
7.450558e+2, 2.9488623e+2, -66578.79, -219107.16, 17016.463, -0.05668681, 0.21132804, -64703.45, -14566.284, 0.0, 10.000575, 9.998551 
7.4506044e+2, 3.048853e+2, 27175.982, -129562.59, -68.00195, -0.09044483, 0.2540282, 27176.012, 27176.012, 0.0000000015345106, 10.000802, 9.998723 
7.450661e+2, 3.148835e+2, 126094.65, -42115.22, 6898.6055, -0.008395628, 0.1984104, 126377.1, 126377.1, 0.00000026410652, 10.00131, 9.999079 
7.549605e+2, 1.2489294e+2, -1743124.4, -1705563.3, -59926.95, -0.04688133, 0.17810102, -1661542.9, 54521.047, 0.0, 9.999716, 10.000196 
7.5496817e+2, 1.3489199e+2, -1616396.9, -1643781.5, 83667.86, 0.010774749, 0.104390115, -1545308.4, 72765.84, 0.0, 10.000115, 9.9997635 
7.549746e+2, 1.4489266e+2, -1516931.1, -1514891.8, 4945.354, 0.019547425, 0.18700285, -1510862.0, 9205.802, 0.0, 10.000002, 10.000024 
7.54979e+2, 1.5489261e+2, -1493695.8, -1451168.1, -8385.748, -0.03588591, 0.17376736, -1449574.4, -27505.816, 0.0, 9.999482, 10.000038 
7.5498426e+2, 1.6489242e+2, -1412927.5, -1378436.3, 24251.27, -0.05059991, 0.15953314, -1365924.0, -41854.16, 0.0, 9.999436, 9.9998865 
7.549907e+2, 1.748921e+2, -1249666.5, -1248498.5, 25614.814, 0.0076380637, 0.13729534, -1223461.0, 2610.9001, 0.0, 9.999882, 9.999891 
7.549965e+2, 1.848918e+2, -1173375.6, -1228970.0, 9739.188, 0.013979948, 0.14695671, -1171718.9, -43643.195, 0.0, 10.000025, 9.999284 
7.550014e+2, 1.9489148e+2, -1097299.9, -1140928.6, 6988.504, -0.042822573, 0.18436006, -1096207.9, -66126.65, 0.0, 9.999872, 9.9992895 
7.5500685e+2, 2.0489085e+2, -996802.9, -1033487.0, 19953.367, -0.06133437, 0.18998553, -988042.06, -55954.387, 0.0, 9.999852, 9.999365 
7.550129e+2, 2.1488991e+2, -879609.44, -924063.06, 26150.607, -0.036295768, 0.15532176, -867515.94, -33420.74, 0.0, 9.999975, 9.999384 
7.550187e+2, 2.2488908e+2, -789245.1, -861450.25, 22423.354, -0.027177297, 0.14947899, -782848.25, -46745.68, 0.0, 10.000059, 9.999101 
7.550243e+2, 2.348884e+2, -684224.0, -758716.25, 24378.371, -0.035206787, 0.1680214, -676955.2, -38845.348, 0.0, 10.000102, 9.999112 
7.5502986e+2, 2.4488743e+2, -585332.8, -679765.56, 24761.826, -0.042642843, 0.16903211, -579233.75, -39114.02, 0.0, 10.000193, 9.998937 
7.5503534e+2, 2.5488618e+2, -465700.4, -569937.94, 27132.244, -0.049118843, 0.1457045, -459061.0, -16928.637, 0.0, 10.000335, 9.99895 
7.550408e+2, 2.6488516e+2, -375280.3, -514127.22, 17358.965, -0.048837338, 0.16700326, -373142.94, -28999.242, 0.0, 10.000449, 9.998605 
7.550462e+2, 2.7488437e+2, -262186.22, -406966.22, 17799.008, -0.040792365, 0.22649384, -260030.16, -13876.211, 0.0, 10.000545, 9.998622 
7.550515e+2, 2.8488308e+2, -154258.28, -299412.3, 12117.606, -0.029353246, 0.23230544, -153253.64, -5085.7705, 0.0, 10.000591, 9.998666 
7.5505674e+2, 2.9488128e+2, -58868.766, -203343.61, 16823.436, -0.017165158, 0.18244152, -56935.62, -6750.5776, 0.0, 10.000576, 9.998659 
7.5506157e+2, 3.0488068e+2, -1889.7964, -190241.45, 18377.168, -0.054539803, 0.27416995, -113.5171, -113.5171, 0.00000000001992495, 10.000803, 9.998305 
7.550671e+2, 3.1487876e+2, 105969.06, -80184.58, 25018.344, -0.03388066, 0.24882872, 109272.805, 109272.805, 0.000000109993245, 10.001294, 9.998824 
7.6496077e+2, 1.2488804e+2, -1666994.3, -1664007.6, -38613.27, -0.0106795365, 0.19652076, -1626858.8, 89254.234, 0.0, 10.000215, 10.000243 
7.649677e+2, 1.3488683e+2, -1698453.8, -1685123.6, 78443.63, -0.020856036, 0.1008766, -1613062.4, 5062.756, 0.0, 9.999561, 9.999746 
7.649741e+2, 1.4488746e+2, -1607416.9, -1557916.9, 1394.4943, 0.0003130613, 0.17842513, -1557877.6, -37758.44, 0.0, 9.999378, 10.00003 
7.6497877e+2, 1.5488763e+2, -1447668.5, -1428833.6, -4812.007, -0.024094611, 0.18841568, -1427675.5, -5557.6123, 0.0, 9.999797, 10.000041 
7.6498413e+2, 1.6488747e+2, -1345661.8, -1351144.6, 35909.285, -0.033837985, 0.17701855, -1312389.4, 11729.64, 0.0, 9.999919, 9.999843 
7.6499045e+2, 1.7488693e+2, -1273792.6, -1264968.5, 32249.357, 0.00020171171, 0.13751373, -1236830.8, -10707.668, 0.0, 9.999738, 9.999848 
7.6499623e+2, 1.8488652e+2, -1209270.4, -1246366.6, 14953.473, -0.0012097117, 0.1403704, -1203993.4, -75865.73, 0.0, 9.999779, 9.999283 
7.650013e+2, 1.9488624e+2, -1071477.1, -1128729.6, 17802.459, -0.04846058, 0.18042096, -1066393.0, -36260.223, 0.0, 10.00005, 9.999287 
7.650069e+2, 2.0488566e+2, -950888.9, -1012173.25, 28299.54, -0.0582857, 0.19203281, -939820.06, -7681.2803, 0.0, 10.000171, 9.999357 
7.6501304e+2, 2.1488482e+2, -857216.56, -914161.94, 22100.736, -0.026429655, 0.16726704, -849645.7, -15499.885, 0.0, 10.0001335, 9.999375 
7.6501894e+2, 2.2488399e+2, -774310.4, -844410.44, 13572.747, -0.01986345, 0.15830508, -771774.2, -35621.188, 0.0, 10.00012, 9.999188 
7.6502436e+2, 2.3488322e+2, -673987.8, -744353.4, 18167.793, -0.04064886, 0.1601332, -669573.94, -31413.613, 0.0, 10.000132, 9.999197 
7.6503e+2, 2.448823e+2, -591590.44, -687696.9, 19739.215, -0.04313422, 0.16281359, -587694.2, -47524.332, 0.0, 10.000171, 9.998894 
7.6503587e+2, 2.548812e+2, -482212.56, -582942.06, 13824.347, -0.026582867, 0.15981233, -480349.72, -38168.02, 0.0, 10.000243, 9.998904 
7.650414e+2, 2.648802e+2, -389264.5, -511811.47, 2338.414, -0.031344872, 0.18456118, -389219.9, -45027.28, 0.0, 10.000315, 9.998685 
7.6504654e+2, 2.748794e+2, -281016.13, -406971.3, 7753.381, -0.057172533, 0.22949585, -280540.66, -34337.83, 0.0, 10.000377, 9.998702 
7.65052e+2, 2.84878e+2, -156137.66, -307497.2, 4390.5015, -0.043876436, 0.22546254, -156010.4, -7792.903, 0.0, 10.000609, 9.998602 
7.650578e+2, 2.948761e+2, 4982.73, -180333.45, -4638.059, 0.0070985556, 0.17154634, 5098.738, 55334.88, 0.0, 10.001047, 9.99859 
7.6506275e+2, 3.048757e+2, 46612.6, -177877.16, -799.44904, -0.036511634, 0.29483038, 46615.45, 46615.45, 0.0, 10.0011835, 9.998208 
7.65068e+2, 3.1487384e+2, 68993.17, -82657.69, 27070.8, -0.0632705, 0.28427696, 73680.625, 73680.625, 0.000000028836135, 10.000973, 9.998963 
7.7496195e+2, 1.2488285e+2, -1675725.8, -1680860.8, -50653.395, 0.08635976, 0.1688177, -1627574.8, 88588.42, 0.00000000003061157, 10.000209, 10.000131 
7.7496654e+2, 1.3488203e+2, -1711071.1, -1710485.4, 52685.32, -0.087147966, 0.13069536, -1658092.1, -39919.73, 0.0, 9.999558, 9.999573 
7.749728e+2, 1.4488265e+2, -1600164.5, -1543239.6, 15204.814, -0.06951242, 0.20888665, -1539433.0, -19265.945, 0.0, 9.999379, 10.00013 
7.74979e+2, 1.5488249e+2, -1440826.0, -1415695.4, 11350.379, 0.016138839, 0.17738385, -1411328.0, 10840.378, 0.0, 9.9998, 10.00013 
7.7498454e+2, 1.6488224e+2, -1353769.8, -1367438.5, 28692.469, 0.01894922, 0.15906729, -1331109.0, -6938.631, 0.0, 9.999917, 9.999731 
7.749898e+2, 1.748819e+2, -1281245.5, -1280129.6, 25467.291, -0.036608137, 0.15016764, -1255214.1, -29041.328, 0.0, 9.999736, 9.999744 
7.749955e+2, 1.8488158e+2, -1204128.3, -1234957.9, 24619.521, -0.055015415, 0.16150936, -1190496.0, -62319.516, 0.0, 9.999775, 9.999364 
7.750014e+2, 1.9488123e+2, -1066139.3, -1117549.5, 27994.035, -0.042637397, 0.18724695, -1053838.9, -23657.379, 0.0, 10.000049, 9.999365 
7.750073e+2, 2.0488054e+2, -962584.25, -1035604.2, 26249.13, -0.03139166, 0.19190413, -954127.6, -21938.902, 0.0, 10.000168, 9.999198 
7.750133e+2, 2.1487953e+2, -869276.75, -938725.9, 20442.309, -0.016766429, 0.16842945, -863706.4, -29508.035, 0.0, 10.000131, 9.9992075 
7.7501905e+2, 2.2487873e+2, -765703.0, -826167.7, 13371.965, -0.017133893, 0.16249263, -762877.75, -26672.297, 0.0, 10.000118, 9.999314 
7.7502453e+2, 2.3487814e+2, -664714.06, -725207.4, 18706.871, -0.03437836, 0.16911215, -659396.56, -21186.518, 0.0, 10.000132, 9.999329 
7.750303e+2, 2.4487728e+2, -602095.7, -709050.56, 22050.916, -0.02961476, 0.17861047, -597727.8, -57508.71, 0.0, 10.000169, 9.998748 
7.750364e+2, 2.548761e+2, -493018.0, -604639.75, 16801.994, -0.0016911713, 0.18483312, -490543.7, -48310.84, 0.0, 10.00024, 9.998757 
7.750418e+2, 2.648751e+2, -379044.5, -490002.25, 4842.3354, -0.015025315, 0.20755808, -378833.6, -34589.656, 0.0, 10.000312, 9.9988365 
7.7504677e+2, 2.748743e+2, -270470.28, -385133.06, 10580.555, -0.070256725, 0.23936541, -269502.16, -23249.72, 0.0, 10.000376, 9.998853 
7.750524e+2, 2.8487283e+2, -171156.17, -338557.2, 20223.24, -0.060387455, 0.22838666, -168747.7, -20479.672, 0.0, 10.000608, 9.998388 
7.75059e+2, 2.948707e+2, -12495.71, -214025.55, 13111.865, 0.01481716, 0.17360404, -11646.211, 38644.344, 0.0, 10.001036, 9.998364 
7.75064e+2, 3.0487046e+2, 58845.633, -150230.86, -7252.4404, -0.03702143, 0.31266174, 59096.902, 59096.902, 0.0, 10.001173, 9.998403 
7.750685e+2, 3.148689e+2, 102281.47, -12907.369, 17637.836, -0.103655234, 0.31226036, 104921.67, 104921.67, 0.0000000029769756, 10.00097, 9.999444 
7.849619e+2, 1.2487763e+2, -1717234.4, -1691213.3, -59527.098, 0.07178742, 0.14874691, -1643291.5, 72922.7, 0.0000000009851104, 9.999883, 10.0002165 
7.849662e+2, 1.3487722e+2, -1684481.0, -1693173.8, 44934.387, -0.083522215, 0.14573182, -1643683.3, -25464.164, 0.0, 9.9997225, 9.999613 
7.8497255e+2, 1.4487773e+2, -1576579.4, -1552308.4, 30309.93, -0.04534295, 0.22040552, -1531794.8, -11579.955, 0.0, 9.999627, 9.999949 
7.849787e+2, 1.5487713e+2, -1468524.4, -1449563.0, 6165.5337, 0.015985375, 0.16222982, -1447734.5, -25513.176, 0.0, 9.999699, 9.999947 
7.849843e+2, 1.6487682e+2, -1368112.1, -1370126.3, 9570.983, 0.008568138, 0.1457379, -1359495.4, -35271.17, 0.0, 9.999801, 9.999769 
7.849896e+2, 1.7487684e+2, -1249484.1, -1260665.4, 16560.19, -0.04159292, 0.16955312, -1237596.4, -11373.429, 0.0, 9.999935, 9.999783 
7.849954e+2, 1.8487655e+2, -1168060.0, -1222261.9, 24884.842, -0.053767167, 0.18457246, -1158368.0, -30142.1, 0.0, 10.000042, 9.999322 
7.850015e+2, 1.9487588e+2, -1057992.3, -1117936.5, 18669.875, -0.036776878, 0.18376452, -1052653.0, -22419.201, 0.0, 10.000124, 9.999326 
7.8500754e+2, 2.0487513e+2, -974381.56, -1048498.06, 7341.158, -0.028587645, 0.18448243, -973661.44, -41419.38, 0.0, 10.000118, 9.999133 
7.850133e+2, 2.1487424e+2, -890083.25, -956491.1, 8428.278, -0.024308896, 0.18086274, -889030.3, -54779.438, 0.0, 10.000021, 9.999139 
7.850191e+2, 2.2487341e+2, -775558.4, -830930.5, 6911.1484, -0.021088462, 0.17725065, -774708.8, -38450.625, 0.0, 10.0000515, 9.999313 
7.850248e+2, 2.3487267e+2, -651522.94, -718435.06, 1479.8639, -0.021321315, 0.16691846, -651490.2, -13226.215, 0.0, 10.000222, 9.9993305 
7.850307e+2, 2.4487177e+2, -581944.56, -704223.44, 2467.804, -0.018176913, 0.17646818, -581894.75, -41621.543, 0.0, 10.000329, 9.998703 
7.8503656e+2, 2.5487074e+2, -478570.4, -602945.9, 4186.004, -0.011222047, 0.20153922, -478429.7, -36143.684, 0.0, 10.000362, 9.998709 
7.850421e+2, 2.648697e+2, -364717.34, -488763.06, -9265.292, -0.023065643, 0.22224244, -364029.13, -19731.352, 0.0, 10.000434, 9.998786 
7.8504735e+2, 2.7486858e+2, -246801.2, -379497.94, -19257.244, -0.053786594, 0.2301164, -244063.05, 2245.6584, 0.0, 10.000564, 9.998801 
7.850531e+2, 2.8486714e+2, -169669.81, -330553.47, -4714.5034, -0.04914963, 0.22108081, -169531.78, -21207.803, 0.0, 10.000587, 9.998454 
7.8505945e+2, 2.9486534e+2, -89411.86, -243880.94, 8636.773, -0.00839606, 0.19380686, -88930.45, -38587.07, 0.0, 10.000477, 9.998428 
7.850647e+2, 3.0486494e+2, -14102.02, -202698.4, -8447.116, -0.057152994, 0.3231601, -13724.435, -13724.435, 0.0, 10.000748, 9.998247 
7.8507e+2, 3.1486285e+2, 180658.88, 37461.066, -14627.317, -0.08057814, 0.28245008, 182137.75, 182137.75, 0.0, 10.001454, 9.999557 
7.949604e+2, 1.24872446e+2, -1697320.4, -1650836.6, -54354.29, -0.06777724, 0.13904029, -1614963.6, 101301.836, 0.0000000034592607, 9.999886, 10.000493 
7.949667e+2, 1.3487238e+2, -1666073.0, -1655650.3, 38137.945, -0.00985253, 0.14465752, -1622369.3, -4104.1284, 0.0, 9.999724, 9.99987 
7.949733e+2, 1.4487271e+2, -1609388.8, -1619977.1, 31089.219, 0.07294811, 0.21243003, -1583146.1, -62883.582, 0.0, 9.999626, 9.999485 
7.9497796e+2, 1.5487154e+2, -1501208.5, -1516662.5, 9097.02, -0.028262135, 0.14371139, -1496999.8, -74723.164, 0.0, 9.999696, 9.999487 
7.949833e+2, 1.6487119e+2, -1355293.5, -1343198.5, 14190.917, -0.06909617, 0.13756558, -1333820.3, -9539.928, 0.0, 9.999798, 9.999956 
7.949898e+2, 1.7487174e+2, -1236304.4, -1233689.8, 21866.367, -0.014929606, 0.19535565, -1213091.6, 13181.5, 0.0, 9.999936, 9.999969 
7.9499596e+2, 1.8487145e+2, -1179899.3, -1246171.4, 27380.129, 0.0013364486, 0.20879859, -1170050.8, -41774.836, 0.0, 10.00004, 9.999159 
7.950017e+2, 1.9487022e+2, -1069876.8, -1142280.1, 21591.328, -0.03244438, 0.16869271, -1063927.0, -33637.492, 0.0, 10.000122, 9.99916 
7.950074e+2, 2.0486939e+2, -972512.56, -1044032.5, 3053.0427, -0.051350012, 0.16868457, -972382.5, -40083.91, 0.0, 10.000115, 9.999165 
7.9501307e+2, 2.1486895e+2, -887896.7, -951673.56, 4669.703, -0.04983284, 0.20515577, -887556.56, -53253.49, 0.0, 10.00002, 9.999173 
7.9501903e+2, 2.2486809e+2, -785158.06, -850370.7, 12532.533, -0.033483278, 0.20317893, -782832.5, -46521.707, 0.0, 10.000049, 9.999181 
7.950253e+2, 2.3486681e+2, -661094.9, -738171.4, 7888.0947, -0.002438513, 0.15321504, -660295.9, -21973.87, 0.0, 10.000221, 9.999195 
7.950311e+2, 2.448658e+2, -578252.25, -696294.5, 3587.3179, -0.009625969, 0.15618157, -578143.3, -37811.22, 0.0, 10.000327, 9.998758 
7.9503644e+2, 2.5486514e+2, -474790.13, -594948.75, 5833.916, -0.056830365, 0.21101634, -474507.56, -32166.69, 0.0, 10.000361, 9.998765 
7.950422e+2, 2.64864e+2, -381886.56, -524355.0, -4844.3965, -0.057620306, 0.22899345, -381722.03, -37368.18, 0.0, 10.000434, 9.998543 
7.9504836e+2, 2.7486223e+2, -264695.53, -415949.28, -13816.946, -0.009166331, 0.19892517, -263443.72, -17072.045, 0.0, 10.00056, 9.998553 
7.950541e+2, 2.8486094e+2, -147868.17, -284134.88, -7895.4004, -0.011088504, 0.2019803, -147412.23, 973.0291, 0.0, 10.000583, 9.998775 
7.950593e+2, 2.948601e+2, -66650.64, -195937.83, 5335.494, -0.067345016, 0.23882893, -66430.82, -16036.842, 0.0, 10.000474, 9.998759 
7.95065e+2, 3.0485928e+2, -46981.254, -271356.3, 16847.639, -0.10273855, 0.3332044, -45723.27, -45723.27, 0.0, 10.000749, 9.997776 
7.9507226e+2, 3.1485566e+2, 162900.47, 2804.4507, 11212.066, 0.0016439854, 0.18574302, 163681.86, 163681.86, 0.0, 10.001444, 9.999324 
8.049599e+2, 1.2486712e+2, -1765359.6, -1677207.9, -58260.223, -0.07609106, 0.14654033, -1648229.5, 68088.68, 0.0000000057252847, 9.999389, 10.000554 
8.049665e+2, 1.3486692e+2, -1641598.6, -1638940.3, 3982.9172, -0.0042733448, 0.13683045, -1636070.5, -17752.006, 0.0, 9.999872, 9.999913 
8.0497324e+2, 1.4486717e+2, -1566542.1, -1606692.3, -4507.1074, 0.08849562, 0.19659185, -1566042.4, -45725.723, 0.0, 9.999953, 9.999417 
8.049776e+2, 1.5486614e+2, -1504086.8, -1526265.6, 3464.1223, -0.037297398, 0.15037164, -1503558.3, -81229.12, 0.0, 9.999711, 9.999414 
8.04983e+2, 1.6486578e+2, -1368801.6, -1359464.6, 26019.412, -0.07935081, 0.14906646, -1337698.3, -13364.833, 0.0, 9.999747, 9.999868 
8.0498993e+2, 1.7486612e+2, -1221141.9, -1236164.6, 12216.451, -0.0048754737, 0.193682, -1214312.3, 12016.384, 0.0, 10.000083, 9.99988 
8.049962e+2, 1.8486573e+2, -1164634.5, -1247635.5, 937.74634, 0.011976338, 0.20548499, -1164624.0, -36291.273, 0.0, 10.000184, 9.99908 
8.0500174e+2, 1.9486451e+2, -1087931.6, -1160239.5, 1184.7234, -0.04071727, 0.17575896, -1087912.3, -57566.18, 0.0, 10.000039, 9.999076 
8.050074e+2, 2.0486367e+2, -976014.7, -1038498.2, -9233.235, -0.05999085, 0.1752101, -974678.9, -42323.777, 0.0, 10.000061, 9.9992285 
8.050133e+2, 2.1486317e+2, -848286.1, -924570.4, -5987.774, -0.041446585, 0.19943632, -847818.94, -13459.3955, 0.0, 10.000259, 9.999243 
8.0501926e+2, 2.248623e+2, -749038.3, -845599.56, 5210.5547, -0.024195632, 0.19876695, -748758.0, -12390.56, 0.0, 10.000352, 9.999067 
8.0502546e+2, 2.3486108e+2, -653101.25, -747360.2, 1610.396, -0.0080758985, 0.16526544, -653073.75, -14694.912, 0.0, 10.000332, 9.999079 
8.050313e+2, 2.4486e+2, -575654.9, -694420.94, -4881.9883, -0.018582711, 0.16628467, -575454.56, -35064.8, 0.0, 10.000342, 9.998764 
8.050368e+2, 2.548591e+2, -469840.34, -591710.06, -7281.1416, -0.057884797, 0.19853479, -469406.88, -27006.828, 0.0, 10.000392, 9.998772 
8.0504274e+2, 2.6485792e+2, -372654.56, -522120.94, -7340.2627, -0.05349777, 0.21291232, -372294.94, -27881.717, 0.0, 10.000506, 9.998523 
8.0504906e+2, 2.7485633e+2, -248060.27, -410239.06, -32.155964, -0.0014503585, 0.19961776, -248060.27, -1630.4397, 0.0, 10.000684, 9.998532 
8.0505484e+2, 2.8485504e+2, -127624.17, -284045.38, -7460.4736, -0.0009468448, 0.21104914, -127269.15, 21174.098, 0.0, 10.000763, 9.998688 
8.0506e+2, 2.9485413e+2, -33134.332, -189562.53, -26290.7, -0.05706578, 0.24679716, -28833.91, 21619.025, 0.0, 10.000747, 9.998672 
8.050658e+2, 3.0485296e+2, -39713.79, -267446.13, 4210.763, -0.09680149, 0.31111795, -39635.957, -39635.957, 0.0, 10.000796, 9.99778 
8.0507344e+2, 3.1484932e+2, 98585.69, -3887.8838, 32108.32, 0.000607911, 0.16391978, 107815.03, 107815.03, 0.0, 10.000897, 9.999541 
8.149604e+2, 1.2486174e+2, -1776885.1, -1700261.3, -29615.855, 0.037816253, 0.17702925, -1690149.0, 26222.563, 0.000000004999778, 9.999386, 10.000397 
8.149657e+2, 1.3486093e+2, -1654784.3, -1664700.9, 21216.895, -0.07216048, 0.1229239, -1637954.0, -19575.0, 0.0, 9.999867, 9.999738 
8.149723e+2, 1.4486118e+2, -1542667.0, -1558041.1, -14752.669, -0.0045461426, 0.1741321, -1533718.8, -13341.962, 0.0, 9.999955, 9.999752 
8.149776e+2, 1.5486102e+2, -1479925.0, -1477833.1, -4906.6245, -0.010693444, 0.18231633, -1473862.1, -51483.32, 0.0, 9.999717, 9.999744 
8.149833e+2, 1.6486062e+2, -1394543.5, -1413286.3, 37996.047, -0.02262174, 0.17936988, -1364780.1, -40397.016, 0.0, 9.999749, 9.999498 
8.149899e+2, 1.7485997e+2, -1247876.4, -1290537.1, 24924.04, -0.014727961, 0.1629654, -1236401.4, -10011.874, 0.0, 10.000079, 9.999509 
8.14996e+2, 1.848594e+2, -1164947.4, -1247350.3, -4713.8438, -0.025097156, 0.17431986, -1164678.6, -36282.66, 0.0, 10.000179, 9.9990835 
8.1500155e+2, 1.948588e+2, -1087534.5, -1159538.8, -4283.76, -0.061863728, 0.20649049, -1087280.5, -56877.453, 0.0, 10.000039, 9.999082 
8.150075e+2, 2.0485799e+2, -969733.7, -1025208.2, -2638.5771, -0.055578943, 0.20488119, -969608.44, -37197.32, 0.0, 10.00006, 9.999321 
8.15014e+2, 2.1485692e+2, -841949.0, -911046.56, 1230.2155, -0.001190619, 0.16293572, -841927.06, -7506.9243, 0.0, 10.0002575, 9.999336 
8.1501997e+2, 2.2485608e+2, -755224.06, -858261.6, 3844.9414, 0.005147608, 0.16317089, -755080.8, -18652.887, 0.0, 10.000351, 9.998981 
8.150255e+2, 2.3485549e+2, -659570.44, -760703.7, 986.7886, -0.039166782, 0.20266157, -659560.8, -21126.479, 0.0, 10.000332, 9.998987 
8.1503135e+2, 2.4485436e+2, -579451.94, -702314.1, -3447.6921, -0.046739656, 0.20620339, -579355.25, -38909.277, 0.0, 10.000342, 9.998711 
8.1503767e+2, 2.5485268e+2, -473392.13, -599127.94, -5378.29, -0.01568427, 0.16384888, -473162.5, -30699.154, 0.0, 10.000391, 9.998722 
8.150436e+2, 2.648515e+2, -359341.63, -493818.44, -552.93945, -0.011407643, 0.1746816, -359339.34, -14863.668, 0.0, 10.000504, 9.998718 
8.150494e+2, 2.7485088e+2, -234762.33, -381689.28, 7405.3345, -0.034272086, 0.23531817, -234390.03, 12092.831, 0.0, 10.00068, 9.99873 
8.1505543e+2, 2.8484946e+2, -160562.67, -352807.84, -8499.695, -0.023247574, 0.24975762, -160187.61, -11689.919, 0.0, 10.000764, 9.998217 
8.1506157e+2, 2.9484734e+2, -67344.2, -260983.44, -26165.762, 0.020051049, 0.21264552, -63870.82, -13350.358, 0.0, 10.000747, 9.998182 
8.150672e+2, 3.0484593e+2, -8611.293, -201255.25, 9108.883, -0.04002736, 0.25286376, -8181.5513, -8181.5513, 0.0, 10.000792, 9.998236 
8.1507343e+2, 3.148438e+2, 142321.67, 89669.33, 34993.293, -0.09083397, 0.2125203, 159785.89, 159785.89, 0.0000000016901937, 10.000887, 10.000188 
8.249604e+2, 1.248561e+2, -1722556.0, -1682549.5, -15428.523, 0.07501328, 0.18262117, -1677290.8, 39136.434, 0.0000000017683296, 9.999797, 10.000318 
8.2496506e+2, 1.3485533e+2, -1718118.5, -1704926.5, 30586.988, -0.09808597, 0.14052682, -1680232.4, -61797.42, 0.0, 9.999473, 9.999652 
8.249718e+2, 1.4485551e+2, -1596919.6, -1571393.0, -6752.1133, -0.032210857, 0.18417688, -1569717.0, -49283.89, 0.0, 9.999528, 9.9998665 
8.2497764e+2, 1.548554e+2, -1420201.1, -1435704.0, -13696.963, 0.006772191, 0.18456605, -1412214.4, 10219.334, 0.0, 10.000071, 9.999863 
8.2498354e+2, 1.6485488e+2, -1342137.4, -1417611.3, 22060.385, 0.00021076815, 0.1784076, -1336162.3, -11723.267, 0.0, 10.000238, 9.999231 
8.249898e+2, 1.7485401e+2, -1276006.0, -1334995.6, 16470.135, -0.028295755, 0.1652849, -1271719.0, -45270.02, 0.0, 10.000019, 9.999232 
8.2499593e+2, 1.8485337e+2, -1177247.4, -1236864.0, -3317.0212, -0.042782344, 0.17909017, -1177063.4, -48607.434, 0.0, 10.000025, 9.999229 
8.2500184e+2, 1.9485296e+2, -1042531.9, -1120514.4, 7567.354, -0.051321793, 0.21224177, -1041804.3, -11344.157, 0.0, 10.000274, 9.999235 
8.2500786e+2, 2.0485212e+2, -937110.7, -1026238.25, 6150.871, -0.03862429, 0.20655672, -936688.25, -4219.898, 0.0, 10.000357, 9.99917 
8.2501423e+2, 2.148508e+2, -852110.44, -933308.7, -8742.91, 0.00013507597, 0.15586905, -851179.75, -16699.303, 0.0, 10.000262, 9.999182 
8.250202e+2, 2.2484992e+2, -772313.2, -863125.1, -13118.606, 0.001998276, 0.15996957, -770456.06, -33967.234, 0.0, 10.000218, 9.999012 
8.250258e+2, 2.3484953e+2, -672408.75, -762994.94, -7827.643, -0.03623745, 0.21618716, -671737.4, -33244.094, 0.0, 10.000227, 9.999022 
8.250318e+2, 2.4484843e+2, -578641.8, -706087.8, -269.86035, -0.039688505, 0.22258277, -578641.25, -38136.664, 0.0, 10.000366, 9.9986725 
8.2503825e+2, 2.548466e+2, -438618.53, -586482.75, -1556.1782, -0.005748205, 0.16852854, -438602.16, 3921.2397, 0.0, 10.0006485, 9.998685 
8.2504433e+2, 2.648454e+2, -328178.72, -478848.7, -9140.512, -0.004517694, 0.17733307, -327626.22, 16909.88, 0.0, 10.000719, 9.998717 
8.2505e+2, 2.7484483e+2, -252213.36, -390109.3, -16810.621, -0.037053745, 0.24693707, -250193.6, -3651.0693, 0.0, 10.000561, 9.99873 
8.250561e+2, 2.8484344e+2, -181278.03, -369598.56, -19038.055, -0.023721425, 0.26483232, -179372.69, -30815.318, 0.0, 10.000651, 9.998155 
8.2506263e+2, 2.9484123e+2, -33681.816, -251525.72, -6044.0264, 0.035627536, 0.22344963, -33514.254, 17066.959, 0.0, 10.001007, 9.998121 
8.250682e+2, 3.0483952e+2, 17722.639, -198070.64, 14838.643, -0.028197397, 0.24478973, 18738.21, 18738.21, 0.0, 10.001013, 9.998151 
8.25074e+2, 3.1483796e+2, 102851.56, 72301.45, -4769.939, -0.10529885, 0.26560587, 103579.0, 103579.0, 0.000000023716037, 10.000608, 10.000202 
8.3495975e+2, 1.2485025e+2, -1721693.8, -1682320.9, -19033.264, 0.022365667, 0.16498426, -1674624.4, 41860.15, 0.000000000051048894, 9.999801, 10.0003195 
8.349647e+2, 1.3485019e+2, -1715597.9, -1701691.5, 18584.604, -0.08260627, 0.18960734, -1688801.9, -70316.11, 0.0, 9.999479, 9.999672 
8.3497167e+2, 1.4485022e+2, -1605744.1, -1590173.1, 11927.902, 0.0045314548, 0.2259612, -1583714.6, -63229.383, 0.0, 9.999531, 9.999736 
8.349778e+2, 1.548493e+2, -1429101.5, -1452629.5, 6821.3413, 0.012387047, 0.1563831, -1427266.9, -4773.346, 0.0, 10.000064, 9.999749 
8.3498365e+2, 1.6484863e+2, -1352826.3, -1439703.0, 13930.257, -0.014086322, 0.14732723, -1350647.3, -26146.492, 0.0, 10.0002365, 9.999082 
8.3498967e+2, 1.7484827e+2, -1286792.6, -1358549.4, 8617.185, -0.046213225, 0.20262122, -1285772.4, -59265.598, 0.0, 10.000023, 9.999069 
8.34996e+2, 1.8484773e+2, -1157469.1, -1195836.5, 5443.6514, -0.042621188, 0.22045377, -1156711.8, -28199.5, 0.0, 10.000025, 9.999511 
8.350025e+2, 1.9484699e+2, -1022677.2, -1078315.1, 16795.492, -0.011338556, 0.1913074, -1018000.3, 12517.104, 0.0, 10.00027, 9.999527 
8.3500856e+2, 2.0484602e+2, -964474.5, -1082656.9, 2012.3851, -0.010766747, 0.17916276, -964440.2, -31913.668, 0.0, 10.000354, 9.998784 
8.350141e+2, 2.1484482e+2, -879961.1, -991126.25, -12712.705, -0.0381664, 0.17875065, -878525.8, -43985.797, 0.0, 10.000261, 9.998785 
8.3502007e+2, 2.2484389e+2, -762669.44, -843228.2, -13632.808, -0.034662325, 0.18965676, -760424.94, -23875.195, 0.0, 10.000218, 9.999148 
8.350264e+2, 2.3484324e+2, -661902.4, -741564.06, -7777.512, -0.0004203379, 0.20671256, -661150.2, -22594.799, 0.0, 10.000228, 9.999169 
8.350326e+2, 2.4484226e+2, -579802.94, -708636.0, 9714.971, 0.001841941, 0.21645197, -579074.44, -38509.13, 0.0, 10.000366, 9.998655 
8.3503866e+2, 2.5484088e+2, -440741.16, -590101.44, 9539.917, -0.03011593, 0.21218872, -440134.28, 2445.6914, 0.0, 10.000645, 9.998662 
8.3504474e+2, 2.6483953e+2, -342287.6, -508220.6, -15003.357, -0.035383098, 0.21965885, -340941.94, 3652.48, 0.0, 10.000718, 9.998516 
8.350508e+2, 2.7483824e+2, -266073.13, -419394.34, -22597.326, -0.011161982, 0.23237824, -262811.97, -16203.153, 0.0, 10.000562, 9.9985285 
8.3505696e+2, 2.8483698e+2, -158437.69, -321277.2, -5524.4233, -0.0025183153, 0.25551647, -158250.48, -9628.256, 0.0, 10.000648, 9.998488 
8.350631e+2, 2.9483575e+2, -10883.116, -202006.17, 8391.382, -0.013017911, 0.2825595, -10515.395, 40119.53, 0.0, 10.0009985, 9.998465 
8.350688e+2, 3.048338e+2, -25202.57, -286308.53, 252.68633, -0.06513629, 0.28956065, -25202.326, -25202.326, 0.0, 10.001007, 9.997548 
8.350752e+2, 3.1483158e+2, 61775.5, -13407.527, -20245.19, -0.050245684, 0.30794466, 66880.47, 66880.47, 0.00000010288848, 10.000609, 9.999614 
8.4495914e+2, 1.2484454e+2, -1752636.4, -1698773.4, -21351.377, -0.0018065891, 0.17480344, -1691336.5, 25204.225, 0.0, 9.999595, 10.000304 
8.449646e+2, 1.3484426e+2, -1670801.9, -1678965.8, 3349.7632, -0.062239945, 0.17794822, -1669603.4, -51059.934, 0.0, 9.999785, 9.999678 
8.4497166e+2, 1.4484413e+2, -1562875.4, -1589470.1, 9595.261, 0.030793855, 0.20608895, -1559774.9, -39230.242, 0.0, 9.999912, 9.999556 
8.449776e+2, 1.5484327e+2, -1446476.1, -1481376.6, 1132.1492, -0.0064107813, 0.16090578, -1446439.4, -23886.254, 0.0, 10.000033, 9.999566 
8.449836e+2, 1.6484265e+2, -1365007.5, -1440300.6, -1064.5074, -0.038386796, 0.1633335, -1364992.5, -40432.254, 0.0, 10.00013, 9.999128 
8.449899e+2, 1.7484231e+2, -1256315.4, -1337993.5, 8170.149, -0.037040647, 0.21522371, -1255506.3, -28940.678, 0.0, 10.000207, 9.999121 
8.449963e+2, 1.8484166e+2, -1133749.6, -1196019.4, 5962.827, -0.0237986, 0.22493285, -1133183.8, -4611.8657, 0.0, 10.0002365, 9.999409 
8.450028e+2, 1.948407e+2, -1038677.1, -1097627.4, -12124.294, -0.0077385884, 0.18357319, -1036280.9, -5701.371, 0.0, 10.000209, 9.999424 
8.4500873e+2, 2.0483975e+2, -985703.3, -1091623.5, -31794.06, -0.014049561, 0.17819792, -976892.6, -44303.98, 0.0, 10.000203, 9.998796 
8.4501433e+2, 2.1483882e+2, -885070.9, -992050.56, -16314.987, -0.039864708, 0.20334256, -882638.1, -48038.633, 0.0, 10.000219, 9.998798 
8.4502035e+2, 2.2483781e+2, -749985.1, -844135.7, -2815.2456, -0.0339662, 0.21036638, -749901.0, -13291.322, 0.0, 10.000337, 9.999084 
8.450268e+2, 2.3483676e+2, -617270.9, -727505.3, -13540.017, 0.0036170185, 0.19304164, -615632.1, 22987.049, 0.0, 10.0005665, 9.999102 
8.450331e+2, 2.4483572e+2, -539664.25, -688526.44, -4528.91, 0.002728356, 0.20137538, -539526.6, 1102.9913, 0.0, 10.000639, 9.998661 
8.450391e+2, 2.548347e+2, -455543.66, -596526.7, -3562.0984, -0.039234925, 0.23021995, -455453.72, -12812.537, 0.0, 10.000541, 9.998667 
8.4504527e+2, 2.648334e+2, -366064.5, -523383.78, -23242.783, -0.04412265, 0.24308635, -362702.4, -18047.086, 0.0, 10.000571, 9.998482 
8.450515e+2, 2.7483183e+2, -240799.42, -411012.16, -19252.719, -0.008375927, 0.23263608, -238648.92, 8023.379, 0.0, 10.000753, 9.998492 
8.4505767e+2, 2.848305e+2, -134518.61, -310220.13, -3978.996, -0.001502741, 0.25437832, -134428.55, 14257.562, 0.0, 10.000814, 9.998483 
8.4506387e+2, 2.948295e+2, -51873.465, -221944.13, -16442.887, -0.026355457, 0.3014925, -50298.313, 398.7165, 0.0, 10.000719, 9.998462 
8.4506965e+2, 3.0482736e+2, -64747.55, -304051.94, -24136.314, -0.069713786, 0.29099432, -62337.43, -62337.43, 0.00000000024035085, 10.0007305, 9.997559 
8.4507614e+2, 3.1482556e+2, 96435.12, -90.46654, -1389.7986, -0.026997782, 0.348999, 96455.125, 96455.125, 0.00000026211356, 10.000861, 9.999583 
8.5495865e+2, 1.2483903e+2, -1756055.0, -1706232.8, -6295.9316, -0.01016741, 0.21443368, -1705449.5, 11145.358, 0.0, 9.999597, 10.000253 
8.549646e+2, 1.3483758e+2, -1674210.0, -1685375.9, 9843.835, -0.03704976, 0.10595601, -1668476.1, -49868.71, 0.0, 9.999783, 9.999636 
8.5497177e+2, 1.4483726e+2, -1577197.0, -1619499.9, 13213.84, 0.04462242, 0.12591608, -1573408.8, -52797.875, 0.0, 9.999911, 9.999351 
8.549772e+2, 1.5483737e+2, -1461232.3, -1513970.8, 6536.9595, -0.052384265, 0.19937287, -1460434.0, -37821.89, 0.0, 10.00004, 9.99934 
8.549833e+2, 1.6483699e+2, -1348649.1, -1406946.4, 1740.2068, -0.07592299, 0.22625619, -1348597.3, -23980.24, 0.0, 10.000133, 9.999356 
8.549904e+2, 1.7483611e+2, -1239283.6, -1301864.6, 11149.201, -0.001655986, 0.20171629, -1237356.8, -10731.439, 0.0, 10.000203, 9.999371 
8.5499686e+2, 1.8483518e+2, -1167462.9, -1265427.6, 4656.275, 0.012580851, 0.1920737, -1167242.1, -38607.27, 0.0, 10.000234, 9.998934 
8.5500264e+2, 1.9483413e+2, -1072827.3, -1168919.3, -13368.877, -0.04162427, 0.19040772, -1071002.0, -40355.84, 0.0, 10.00021, 9.998935 
8.550086e+2, 2.0483333e+2, -957112.8, -1032225.1, -32001.102, -0.04967132, 0.20434734, -945328.0, -12673.851, 0.0, 10.000202, 9.999205 
8.550149e+2, 2.1483281e+2, -855670.1, -930649.75, -16092.213, -0.0066184113, 0.22966811, -852362.3, -17703.865, 0.0, 10.000217, 9.999221 
8.5502106e+2, 2.2483176e+2, -768719.75, -883067.9, 4751.241, 0.0027605332, 0.22254321, -768522.6, -31854.266, 0.0, 10.000337, 9.998817 
8.550271e+2, 2.3483013e+2, -636607.94, -767556.44, -4818.285, -0.025185961, 0.17453362, -636430.9, 2253.5193, 0.0, 10.0005665, 9.998827 
8.5503334e+2, 2.448289e+2, -538567.0, -686452.6, -8298.156, -0.03826021, 0.17640637, -538102.8, 2594.3416, 0.0, 10.000639, 9.998676 
8.550397e+2, 2.5482807e+2, -453798.88, -593224.7, -7292.294, -0.034288812, 0.2235595, -453418.5, -10711.848, 0.0, 10.000541, 9.998691 
8.5504603e+2, 2.6482695e+2, -356905.2, -504512.8, -16882.932, -0.031112837, 0.24954419, -354998.8, -10280.331, 0.0, 10.000571, 9.998611 
8.5505205e+2, 2.748256e+2, -232596.25, -392979.4, -11757.892, -0.030222828, 0.24875124, -231738.84, 14993.954, 0.0, 10.000749, 9.998619 
8.550583e+2, 2.848241e+2, -159034.06, -360485.16, -6894.0874, -0.023014449, 0.2619417, -158798.4, -10049.511, 0.0, 10.000812, 9.998139 
8.5506475e+2, 2.9482245e+2, -75956.15, -271991.75, -19161.197, -0.008902219, 0.27918983, -74100.83, -23333.383, 0.0, 10.000718, 9.998118 
8.550706e+2, 3.0482024e+2, -22667.494, -216132.4, -19037.84, -0.044881728, 0.24799596, -20811.88, -20811.88, 0.0000000059514194, 10.000728, 9.998164 
8.550769e+2, 3.1481975e+2, 131856.52, 75682.41, 3295.928, -0.0376608, 0.37837312, 132049.23, 132049.23, 0.0000005093443, 10.000853, 10.000108 
8.6495835e+2, 1.24832556e+2, -1775361.3, -1713583.5, -25959.465, 0.009841524, 0.21373278, -1704123.8, 12535.458, 0.00000000000000000000885557, 9.999457, 10.000268 
8.649644e+2, 1.3483128e+2, -1634864.4, -1661730.3, -10459.236, -0.044917718, 0.11662353, -1631272.6, -12603.043, 0.0, 10.000033, 9.999677 
8.6497164e+2, 1.4483094e+2, -1541739.9, -1607462.4, -14538.044, 0.030114334, 0.13516293, -1538667.6, -17994.47, 0.0, 10.000177, 9.999305 
8.649772e+2, 1.54831e+2, -1484713.3, -1530632.3, -9632.582, -0.048345454, 0.20948781, -1482774.4, -60099.133, 0.0, 9.999902, 9.999292 
8.6498344e+2, 1.6483055e+2, -1379559.9, -1420024.1, -4992.23, -0.066619664, 0.23090225, -1378953.0, -54272.188, 0.0, 9.99991, 9.999374 
8.649906e+2, 1.748296e+2, -1235064.3, -1297014.1, -11619.497, -0.0029625604, 0.19605765, -1232956.5, -6267.1714, 0.0, 10.00022, 9.999396 
8.649971e+2, 1.8482871e+2, -1163906.4, -1270785.5, -21620.643, 0.0073961066, 0.19367994, -1159698.4, -30999.932, 0.0, 10.000289, 9.99887 
8.6500275e+2, 1.9482784e+2, -1093400.0, -1186291.8, -8480.191, -0.04321545, 0.21671194, -1092632.3, -61923.52, 0.0, 10.000101, 9.998868 
8.6500883e+2, 2.0482697e+2, -956591.44, -1023988.1, -12280.745, -0.04434907, 0.22371091, -954423.44, -21706.234, 0.0, 10.000171, 9.999276 
8.650154e+2, 2.1482614e+2, -807269.06, -899180.2, -22734.15, 0.007897408, 0.20992336, -801953.2, 32770.344, 0.0, 10.000514, 9.999295 
8.650216e+2, 2.2482507e+2, -730799.75, -873674.25, -12644.468, 0.012702082, 0.20166275, -729689.4, 7044.1743, 0.0, 10.000635, 9.998738 
8.6502755e+2, 2.3482373e+2, -649398.7, -782624.75, -8855.344, -0.033653166, 0.19120362, -648812.7, -10065.201, 0.0, 10.000518, 9.998747 
8.650338e+2, 2.4482253e+2, -558779.25, -689187.44, -5852.602, -0.047468796, 0.19732584, -558517.1, -17757.154, 0.0, 10.000471, 9.998738 
8.6504036e+2, 2.5482148e+2, -454022.63, -586341.2, -2386.2588, -0.026326269, 0.21440946, -453979.6, -11208.561, 0.0, 10.00051, 9.998753 
8.650467e+2, 2.6482028e+2, -354827.78, -509158.25, -10031.827, -0.021312784, 0.23014262, -354178.44, -9394.774, 0.0, 10.000611, 9.99856 
8.650528e+2, 2.7481896e+2, -233719.89, -399787.13, -19171.67, -0.03351004, 0.2403007, -231535.36, 15262.587, 0.0, 10.000769, 9.998563 
8.650591e+2, 2.848176e+2, -159754.88, -359662.47, -17148.83, -0.028076934, 0.26696217, -158294.45, -9481.269, 0.0, 10.000801, 9.99815 
8.650655e+2, 2.948161e+2, -75887.25, -270309.72, -4225.188, -0.005017242, 0.30005175, -75795.48, -24965.432, 0.0, 10.000712, 9.998133 
8.650714e+2, 3.048136e+2, -12982.171, -196104.78, 159.36966, -0.038168915, 0.23286466, -12982.032, -12982.032, 0.000000027135602, 10.000729, 9.998301 
8.650777e+2, 3.148131e+2, 124492.56, 71210.72, -15215.036, -0.038608268, 0.34638318, 128531.21, 128531.21, 0.00000083365, 10.000805, 10.0001 
8.749583e+2, 1.2482517e+2, -1768569.1, -1698933.3, -1042.9844, 0.048480514, 0.17370185, -1698917.6, 17815.69, 0.0000000055054987, 9.999454, 10.000371 
8.74964e+2, 1.3482538e+2, -1624084.1, -1640005.5, 11326.9375, -0.09088735, 0.21006341, -1618200.3, 529.2266, 0.0, 10.000035, 9.999825 
8.7497133e+2, 1.4482519e+2, -1535256.6, -1595009.1, -24970.672, -0.018453587, 0.23349233, -1526195.4, -5464.3096, 0.0, 10.000181, 9.999389 
8.7497765e+2, 1.5482418e+2, -1477446.5, -1515648.1, -19835.287, 0.006406879, 0.19139494, -1469010.4, -46268.03, 0.0, 9.999902, 9.999395 
8.7498397e+2, 1.6482337e+2, -1391634.9, -1445087.9, 5638.528, -0.009808472, 0.17844142, -1391046.5, -66295.13, 0.0, 9.99991, 9.999204 
8.749904e+2, 1.7482279e+2, -1247754.9, -1324036.1, 61.096764, -0.043372154, 0.19937493, -1247754.9, -20997.502, 0.0, 10.000223, 9.999209 
8.749969e+2, 1.848223e+2, -1139856.6, -1220839.4, -28949.049, -0.042484615, 0.23015074, -1130572.5, -1810.065, 0.0, 10.000288, 9.999213 
8.7500316e+2, 1.9482186e+2, -1068594.0, -1134594.0, -15816.546, -0.013720479, 0.26204994, -1064999.4, -34232.57, 0.0, 10.000099, 9.999224 
8.750095e+2, 2.0482072e+2, -975340.25, -1062630.9, -483.02173, 0.0006906524, 0.23629822, -975337.56, -42560.152, 0.0, 10.000169, 9.999012 
8.7501585e+2, 2.1481885e+2, -826412.3, -938664.75, -10155.338, 0.002484674, 0.14433835, -825501.0, 9293.5, 0.0, 10.000513, 9.999024 
8.750221e+2, 2.2481781e+2, -723957.2, -859587.4, -17664.604, -0.005142678, 0.14717156, -721694.25, 15110.531, 0.0, 10.000635, 9.998836 
8.750282e+2, 2.3481764e+2, -642072.3, -767552.6, -13498.945, -0.022666292, 0.24361023, -640636.5, -1828.4677, 0.0, 10.000517, 9.998851 
8.750345e+2, 2.448167e+2, -550843.0, -673070.7, -5165.5347, -0.02638046, 0.26584154, -550625.1, -9807.483, 0.0, 10.000471, 9.998849 
8.7504095e+2, 2.5481495e+2, -446594.03, -570730.06, -627.5127, -0.016962992, 0.20266856, -446590.84, -3756.7957, 0.0, 10.000508, 9.99886 
8.750474e+2, 2.6481336e+2, -372155.13, -545021.2, -3748.1914, -0.016085131, 0.18415251, -372073.9, -27223.238, 0.0, 10.00061, 9.998315 
8.7505364e+2, 2.7481192e+2, -250818.64, -435174.2, -12512.765, -0.021490702, 0.20734881, -249973.25, -3105.7048, 0.0, 10.000767, 9.998321 
8.7505996e+2, 2.8481093e+2, -135321.88, -308772.66, -20563.498, -0.019526217, 0.26994216, -132917.3, 15961.548, 0.0, 10.0008, 9.9985 
8.750661e+2, 2.948104e+2, -51424.063, -218139.72, -6770.7656, -0.01412489, 0.3630886, -51149.54, -264.63086, 0.0, 10.000707, 9.998494 
8.75072e+2, 3.0480745e+2, -36559.355, -243139.23, 4150.1694, -0.04869971, 0.24542418, -36476.016, -36476.016, 0.00000006425192, 10.00072, 9.997981 
8.7507856e+2, 3.1480548e+2, 88413.52, -2452.525, -11268.428, -0.038900353, 0.24460639, 89790.086, 89790.086, 0.0000011924308, 10.0008, 9.999596 
8.849581e+2, 1.2481835e+2, -1673128.5, -1651008.5, 11740.194, 0.053085953, 0.18501471, -1645939.1, 70862.086, 0.00000006865042, 10.000101, 10.000389 
8.849638e+2, 1.3481864e+2, -1676899.8, -1660072.4, 9849.391, -0.09476079, 0.22702545, -1655532.3, -36735.76, 0.0, 9.99965, 9.999874 
8.8497114e+2, 1.4481844e+2, -1605106.0, -1626833.0, -27729.89, -0.026067847, 0.24379568, -1586187.6, -65389.293, 0.0, 9.999693, 9.999406 
8.849777e+2, 1.5481739e+2, -1415449.6, -1483250.6, -27840.588, 0.006174863, 0.19434865, -1405482.8, 17326.969, 0.0, 10.000318, 9.999417 
8.8498414e+2, 1.6481657e+2, -1316731.0, -1410444.9, -7644.1626, -0.0074789994, 0.18311147, -1316111.5, 8706.926, 0.0, 10.000432, 9.999188 
8.849905e+2, 1.7481609e+2, -1282771.3, -1343611.3, -2264.4548, -0.04364722, 0.21405256, -1282687.1, -55863.355, 0.0, 9.999993, 9.9991865 
8.84997e+2, 1.8481556e+2, -1178789.1, -1225077.8, -25966.32, -0.038710684, 0.23528369, -1167149.8, -38320.87, 0.0, 9.999957, 9.999345 
8.850035e+2, 1.9481497e+2, -1021234.25, -1096403.9, -29666.95, -0.0013092939, 0.23835573, -1010936.44, 19897.412, 0.0, 10.000359, 9.999361 
8.850098e+2, 2.0481388e+2, -938523.4, -1055507.3, -17165.709, 0.008016695, 0.21667223, -936056.56, -3212.7444, 0.0, 10.000469, 9.998916 
8.850161e+2, 2.148123e+2, -869731.4, -970610.9, -14620.486, -0.009049207, 0.16247708, -867655.1, -32795.977, 0.0, 10.000264, 9.998924 
8.850224e+2, 2.2481127e+2, -773373.0, -874733.7, -16606.545, -0.0152602475, 0.16842815, -770721.56, -33852.02, 0.0, 10.000258, 9.998913 
8.850288e+2, 2.3481084e+2, -643371.06, -759568.7, -15321.527, -0.011038712, 0.232715, -641384.75, -2510.0537, 0.0, 10.000471, 9.998928 
8.8503516e+2, 2.4480993e+2, -534076.7, -666346.2, -13039.026, -0.011059138, 0.2519184, -532803.56, 8080.597, 0.0, 10.000593, 9.998836 
8.850415e+2, 2.548084e+2, -430951.88, -564567.9, -18674.895, -0.016793182, 0.21588507, -428390.88, 14507.639, 0.0, 10.000623, 9.998847 
8.850479e+2, 2.648069e+2, -373844.13, -540789.9, -15872.526, -0.018807001, 0.20374283, -372348.44, -27433.951, 0.0, 10.000577, 9.99836 
8.8505435e+2, 2.7480537e+2, -293577.22, -450536.94, -3572.587, -0.0151066305, 0.2119692, -293495.94, -46563.715, 0.0, 10.000451, 9.998366 
8.8506067e+2, 2.8480437e+2, -175324.0, -320279.56, -9228.86, -0.013367679, 0.2684212, -174738.78, -25795.484, 0.0, 10.000493, 9.998568 
8.8506675e+2, 2.9480395e+2, -47196.563, -208518.78, -17729.998, -0.016413681, 0.36498043, -45270.945, 5677.0728, 0.0, 10.000702, 9.998562 
8.850728e+2, 3.0480093e+2, -20437.234, -229368.9, -4663.061, -0.04703325, 0.23624797, -20333.213, -20333.213, 0.00000010587227, 10.000804, 9.998036 
8.850794e+2, 3.1479913e+2, 74471.91, -25590.521, 5214.4854, -0.028203959, 0.24795285, 74742.914, 74742.914, 0.0000015115112, 10.000775, 9.999449 
8.949577e+2, 1.24812126e+2, -1679058.3, -1663595.3, -1515.6444, 0.0061838427, 0.2482791, -1663448.0, 53414.645, 0.00000033535434, 10.000102, 10.000302 
8.9496386e+2, 1.3481116e+2, -1682405.8, -1671418.9, -7430.439, -0.05506753, 0.16885191, -1667671.6, -48801.527, 0.00000000007521531, 9.999649, 9.999796 
8.949712e+2, 1.4481072e+2, -1606406.9, -1630955.5, -6644.5234, 0.009087393, 0.16840117, -1604723.9, -83849.62, 0.0, 9.999699, 9.999376 
8.9497745e+2, 1.5481062e+2, -1418044.4, -1488958.0, -4272.325, -0.053248983, 0.21856183, -1417787.9, 5089.211, 0.0, 10.000319, 9.999378 
8.9498395e+2, 1.6481021e+2, -1307935.0, -1392359.9, -23581.617, -0.06515693, 0.24433114, -1301794.8, 23086.94, 0.0, 10.000432, 9.999312 
8.949909e+2, 1.7480952e+2, -1273156.8, -1323912.9, -18752.54, -0.0047633452, 0.23966138, -1266980.0, -40091.797, 0.0, 9.999993, 9.999321 
8.9499754e+2, 1.8480851e+2, -1184590.4, -1237195.1, -12182.578, 0.017589174, 0.20976676, -1181906.0, -53008.707, 0.0, 9.999957, 9.999262 
8.950038e+2, 1.9480716e+2, -1027099.6, -1108629.3, -14987.308, -0.00686052, 0.14643753, -1024431.9, 6477.502, 0.0, 10.000359, 9.999277 
8.9501e+2, 2.0480648e+2, -933824.5, -1045796.7, -25584.969, -0.023186225, 0.16470768, -928255.5, 4660.628, 0.0, 10.000468, 9.998983 
8.950162e+2, 2.1480647e+2, -864986.25, -960625.5, -22885.635, -0.028176034, 0.2639963, -859792.0, -24874.662, 0.0, 10.000263, 9.998994 
8.9502263e+2, 2.2480546e+2, -769562.4, -866770.06, -9811.711, -0.020038795, 0.26635256, -768581.9, -31654.492, 0.0, 10.0002575, 9.998968 
8.9502937e+2, 2.348034e+2, -639569.8, -751634.0, -7324.8315, 0.00029317467, 0.1591559, -639093.06, -146.14464, 0.0, 10.00047, 9.998983 
8.950358e+2, 2.4480219e+2, -544208.06, -687679.7, -12045.123, -0.0020040693, 0.15515056, -543203.9, -2244.5654, 0.0, 10.000593, 9.99869 
8.9504206e+2, 2.548019e+2, -441230.7, -585747.94, -17102.045, -0.027243158, 0.2537226, -439234.44, 3729.7112, 0.0, 10.000621, 9.998703 
8.950483e+2, 2.6480094e+2, -350695.97, -492450.2, -20833.275, -0.031658646, 0.28952938, -347697.56, -2722.726, 0.0, 10.000575, 9.998693 
8.950548e+2, 2.7479932e+2, -270447.03, -401825.9, -7832.993, -0.014271255, 0.25363013, -269981.66, -22989.844, 0.0, 10.000448, 9.998703 
8.950612e+2, 2.847979e+2, -190569.06, -351844.56, -711.4525, -0.009199888, 0.2624505, -190565.94, -41559.56, 0.0, 10.000492, 9.998352 
8.950675e+2, 2.9479676e+2, -62256.95, -240199.42, -8402.682, -0.017333828, 0.30807436, -61861.047, -10842.131, 0.0, 10.000703, 9.998344 
8.950737e+2, 3.047941e+2, 7733.4136, -170424.16, -5577.742, -0.03917967, 0.20617604, 7907.87, 7907.87, 0.00000013409642, 10.000802, 9.998442 
8.950804e+2, 3.1479394e+2, 87048.52, 3558.5955, 4505.683, -0.009193091, 0.34228936, 87290.98, 87290.98, 0.0000016978646, 10.000764, 9.999654 
9.0495753e+2, 1.2480541e+2, -1720371.1, -1712214.8, 9978.097, -0.009775987, 0.25190976, -1705513.6, 11414.382, 0.0000010631732, 9.999938, 10.00005 
9.049639e+2, 1.3480416e+2, -1593110.3, -1651817.8, -9453.967, -0.049445152, 0.16571, -1591625.4, 27313.926, 0.000000007369457, 10.000362, 9.999587 
9.0497136e+2, 1.4480364e+2, -1498014.6, -1569639.1, -3696.5942, 0.01841715, 0.16489407, -1497824.3, 23120.07, 0.0, 10.000405, 9.9994545 
9.049777e+2, 1.5480381e+2, -1453882.0, -1497448.0, 6324.712, -0.054521106, 0.23294246, -1452982.4, -30038.277, 0.0, 10.000033, 9.999457 
9.049842e+2, 1.6480343e+2, -1369246.1, -1416791.0, -17107.473, -0.06397646, 0.25483894, -1363730.4, -38782.324, 0.0, 9.9999895, 9.999358 
9.049912e+2, 1.7480253e+2, -1221842.5, -1293236.0, -19605.076, 0.008156632, 0.22407305, -1216813.1, 10143.261, 0.0, 10.000322, 9.9993725 
9.049978e+2, 1.8480149e+2, -1123658.3, -1213986.3, -8903.534, 0.028754272, 0.19182178, -1122789.0, 6176.7085, 0.0, 10.000404, 9.999205 
9.05004e+2, 1.948003e+2, -1053658.5, -1128697.1, -10046.92, -0.009925795, 0.15143435, -1052336.6, -21360.152, 0.0, 10.000208, 9.999212 
9.050103e+2, 2.0479967e+2, -965662.3, -1052106.0, -22433.207, -0.030255111, 0.17386836, -960187.4, -27204.512, 0.0, 10.000211, 9.9990635 
9.050165e+2, 2.147996e+2, -834365.25, -936781.9, -19946.234, -0.030456899, 0.2576978, -830617.75, 4367.0376, 0.0, 10.000435, 9.999075 
9.0502304e+2, 2.2479862e+2, -728917.6, -846493.8, -5249.3105, -0.022014156, 0.25829744, -728683.75, 8310.848, 0.0, 10.000535, 9.998974 
9.050298e+2, 2.3479667e+2, -634329.1, -748655.5, -7337.5386, -0.0058136405, 0.16393076, -633860.1, 5152.767, 0.0, 10.0005045, 9.998987 
9.0503633e+2, 2.447955e+2, -564606.3, -696221.8, -12264.562, -0.0065141884, 0.16335614, -563473.2, -22448.148, 0.0, 10.000448, 9.9987 
9.050425e+2, 2.5479516e+2, -478493.97, -602508.8, -6400.181, -0.024664953, 0.2552446, -478164.56, -35133.797, 0.0, 10.0003605, 9.9987135 
9.0504885e+2, 2.6479426e+2, -369275.53, -488490.3, -10130.558, -0.030155092, 0.2879851, -368420.78, -23379.768, 0.0, 10.000393, 9.998808 
9.050552e+2, 2.7479273e+2, -246077.55, -377099.06, -14485.28, -0.022499064, 0.2531059, -244495.2, 2560.8784, 0.0, 10.00056, 9.998819 
9.050617e+2, 2.8479138e+2, -162483.27, -344219.6, -3753.1877, -0.016080962, 0.2619542, -162405.8, -13335.574, 0.0, 10.00071, 9.998301 
9.050683e+2, 2.9479012e+2, -47766.426, -238726.64, 159.39346, -0.0108049745, 0.30681142, -47766.293, 3317.6343, 0.0, 10.000828, 9.998295 
9.0507466e+2, 3.0478767e+2, 17910.88, -146174.64, -8747.352, -0.02751909, 0.21411458, 18375.883, 18375.883, 0.0000001316986, 10.000791, 9.998613 
9.0508103e+2, 3.147879e+2, 57635.383, -15685.599, -18785.326, -0.010546926, 0.37359914, 62168.098, 62168.098, 0.0000016698094, 10.000581, 9.999611 
9.149576e+2, 1.2479825e+2, -1744828.8, -1766846.0, 25525.904, -0.0028137397, 0.19782864, -1728038.8, -11042.061, 0.0000026057617, 9.999954, 9.999667 
9.149639e+2, 1.3479772e+2, -1616339.6, -1699388.3, 6134.764, -0.082948, 0.21756306, -1615889.0, 3114.5125, 0.00000007607973, 10.00036, 9.999263 
9.149715e+2, 1.447973e+2, -1486083.0, -1544599.8, -17095.355, -0.0048644375, 0.2327746, -1481454.8, 39553.434, 0.0, 10.000403, 9.999628 
9.149782e+2, 1.5479703e+2, -1440572.5, -1470148.1, -7267.1826, 0.0015215459, 0.23798819, -1438883.3, -15873.046, 0.0, 10.000035, 9.999644 
9.149848e+2, 1.647963e+2, -1370894.5, -1421776.5, -6173.109, -0.0040558907, 0.21705705, -1370156.3, -45139.36, 0.0, 9.999995, 9.999323 
9.149914e+2, 1.7479515e+2, -1224449.8, -1298909.1, -7305.749, -0.006184293, 0.1682898, -1223739.6, 3288.0264, 0.0, 10.000323, 9.999333 
9.149979e+2, 1.8479455e+2, -1126114.8, -1218920.9, -16570.176, -0.0073541207, 0.18123068, -1123245.0, 5788.6836, 0.0, 10.000402, 9.999171 
9.150042e+2, 1.9479445e+2, -1056340.0, -1134089.4, -17798.686, -0.012509778, 0.252577, -1052459.1, -21424.508, 0.0, 10.000207, 9.999176 
9.1501063e+2, 2.0479351e+2, -960410.25, -1041034.06, -15289.55, -0.015887553, 0.24472108, -957608.1, -24564.53, 0.0, 10.00021, 9.999142 
9.1501707e+2, 2.1479169e+2, -828471.1, -924364.25, -12089.208, -0.016382862, 0.14478381, -826970.56, 8090.462, 0.0, 10.000434, 9.999161 
9.1502357e+2, 2.2479072e+2, -732249.7, -853703.25, -7182.6626, -0.021176862, 0.14447199, -731826.44, 5244.3677, 0.0, 10.000535, 9.998924 
9.1503e+2, 2.347907e+2, -638089.7, -756228.25, -8516.793, -0.030465942, 0.24626485, -637478.8, 1593.4534, 0.0, 10.000504, 9.998936 
9.1503656e+2, 2.447899e+2, -553141.4, -672056.3, -15875.91, -0.02709476, 0.27667612, -551058.3, -9977.239, 0.0, 10.000446, 9.998868 
9.1504306e+2, 2.5478825e+2, -466992.56, -578439.2, -9500.536, -0.010090434, 0.22178775, -466188.47, -23090.48, 0.0, 10.00036, 9.998879 
9.150494e+2, 2.647868e+2, -376199.9, -503497.53, -3811.8184, -0.014754302, 0.20030464, -376085.84, -30973.217, 0.0, 10.000394, 9.998704 
9.1505563e+2, 2.7478564e+2, -253414.44, -392601.72, -7296.264, -0.042610474, 0.21120706, -253033.0, -5908.3223, 0.0, 10.000559, 9.9987135 
9.150622e+2, 2.847848e+2, -156122.36, -329447.3, 521.449, -0.037660327, 0.2674453, -156120.8, -6986.1704, 0.0, 10.000704, 9.9984045 
9.150693e+2, 2.9478413e+2, -41751.676, -223511.36, 5240.4473, 0.0025426133, 0.35988873, -41600.707, 9542.317, 0.0, 10.000816, 9.998404 
9.1507554e+2, 3.047816e+2, 14024.16, -153621.13, -15810.808, -0.011458575, 0.25873703, 15502.262, 15502.262, 0.00000009563079, 10.000786, 9.998566 
9.150814e+2, 3.1478095e+2, 40994.676, -52084.53, -25000.195, -0.03856336, 0.33430034, 47284.465, 47284.465, 0.0000014046396, 10.000588, 9.999358 
9.2495763e+2, 1.2479112e+2, -1689099.8, -1738314.3, -8449.539, -0.010715379, 0.19919585, -1687689.5, 29377.23, 0.0000053561066, 10.000333, 9.999678 
9.249642e+2, 1.347908e+2, -1662945.6, -1716489.9, -1725.839, -0.07782053, 0.23298424, -1662890.0, -43818.355, 0.00000033393198, 10.000017, 9.99931 
9.249718e+2, 1.4479035e+2, -1543616.6, -1567220.5, -16778.66, 0.0019498476, 0.24122564, -1534905.0, -13828.496, 0.0, 9.999988, 9.999673 
9.2497844e+2, 1.547899e+2, -1398492.4, -1443838.4, -18695.986, 0.006560307, 0.2248354, -1391778.3, 31301.576, 0.0, 10.0003, 9.999695 
9.24985e+2, 1.6478918e+2, -1313863.1, -1395144.0, -16943.88, -0.0017563736, 0.20319793, -1310472.4, 14613.856, 0.0, 10.000394, 9.999311 
9.2499167e+2, 1.7478824e+2, -1237150.0, -1306879.3, -16436.898, -0.0073359916, 0.17663625, -1233469.6, -6374.2026, 0.0, 10.000244, 9.999317 
9.2499816e+2, 1.847877e+2, -1145329.8, -1215650.6, -23854.594, -0.009480677, 0.19378145, -1138001.4, -8900.906, 0.0, 10.000217, 9.999283 
9.250045e+2, 1.9478759e+2, -1029430.0, -1107780.5, -14932.861, -0.015362858, 0.25065318, -1026680.4, 4420.878, 0.0, 10.000336, 9.999293 
9.250109e+2, 2.0478663e+2, -938088.56, -1040749.44, -6211.817, -0.015919685, 0.23732881, -937714.06, -4603.426, 0.0, 10.00041, 9.999046 
9.250176e+2, 2.1478474e+2, -835718.4, -939422.06, -17160.158, -0.0091961585, 0.14214166, -832952.6, 2176.5242, 0.0, 10.000434, 9.999058 
9.2502403e+2, 2.2478382e+2, -749471.9, -851285.9, -21750.432, -0.014897331, 0.14731868, -745020.0, -7881.2485, 0.0, 10.000372, 9.99902 
9.2503035e+2, 2.3478395e+2, -672938.7, -761822.5, -13357.276, -0.034485217, 0.2544733, -670974.8, -31836.031, 0.0, 10.0002165, 9.999036 
9.2503685e+2, 2.4478322e+2, -579595.9, -678321.06, -12942.619, -0.031917915, 0.28469464, -577927.4, -36780.734, 0.0, 10.000237, 9.998925 
9.250435e+2, 2.5478157e+2, -448264.06, -563072.1, -15537.49, -0.0058855093, 0.22532393, -446198.47, -3035.3633, 0.0, 10.000461, 9.998936 
9.250499e+2, 2.647801e+2, -356427.88, -500375.7, -12156.067, -0.0069084503, 0.19848257, -355408.53, -10230.338, 0.0, 10.000558, 9.998648 
9.2505616e+2, 2.747788e+2, -265543.44, -404641.63, -12669.265, -0.036620785, 0.20239937, -264398.9, -17207.297, 0.0, 10.000504, 9.998657 
9.250627e+2, 2.84778e+2, -185202.3, -329249.47, -2722.6982, -0.03967269, 0.25938302, -185150.86, -35949.86, 0.0, 10.000443, 9.998531 
9.250697e+2, 2.9477757e+2, -96041.55, -234975.6, 2373.9387, -0.013722388, 0.36141852, -96001.0, -44794.297, 0.0, 10.00038, 9.998536 
9.250762e+2, 3.0477506e+2, -12448.344, -174490.31, -11201.999, -0.022500733, 0.26166126, -11677.612, -11677.612, 0.00000004550982, 10.000639, 9.998493 
9.250823e+2, 3.1477398e+2, 116763.48, -44549.336, -22826.92, -0.031021204, 0.30208167, 119931.44, 119931.44, 0.0000009683944, 10.001234, 9.9991 
9.3495756e+2, 1.2478406e+2, -1662273.1, -1681456.3, -20490.658, -0.04956706, 0.2520797, -1649240.3, 67897.68, 0.000009830683, 10.000328, 10.000071 
9.349646e+2, 1.3478343e+2, -1633708.4, -1656629.3, -13223.241, -0.034840405, 0.2142221, -1627670.4, -8527.322, 0.0000009955157, 10.000022, 9.999718 
9.3497217e+2, 1.4478286e+2, -1547138.0, -1578217.6, -6547.9604, 0.038352065, 0.19408233, -1545814.8, -24666.617, 0.00000000002439963, 10.000001, 9.999592 
9.3497825e+2, 1.5478249e+2, -1405045.0, -1457468.1, -6941.136, -0.041606866, 0.19449465, -1404141.6, 19010.43, 0.0, 10.000299, 9.999603 
9.349848e+2, 1.6478214e+2, -1313386.9, -1393489.8, -22532.127, -0.060365584, 0.21312214, -1307483.8, 17671.926, 0.0, 10.000391, 9.999325 
9.34992e+2, 1.7478183e+2, -1236744.0, -1305619.9, -22075.805, 0.0029510278, 0.24854949, -1230275.8, -3116.713, 0.0, 10.000243, 9.999327 
9.3499863e+2, 1.8478106e+2, -1128326.5, -1180293.1, -20365.756, 0.019997947, 0.2304456, -1121296.1, 7869.5137, 0.0, 10.0002165, 9.999528 
9.350048e+2, 1.947798e+2, -1011045.7, -1070045.0, -10910.609, -0.018591736, 0.14673513, -1009092.7, 22083.17, 0.0, 10.000338, 9.999553 
9.3501115e+2, 2.0477901e+2, -956569.1, -1079572.8, -6356.465, -0.030471727, 0.15182857, -956241.5, -23057.877, 0.0, 10.000411, 9.998779 
9.35018e+2, 2.1477878e+2, -856050.3, -981010.94, -16731.27, -0.01077395, 0.24918528, -853848.94, -18660.05, 0.0, 10.000431, 9.998774 
9.3502456e+2, 2.2477795e+2, -733737.06, -818296.9, -28310.277, -0.0059786215, 0.26692888, -725134.1, 12063.9795, 0.0, 10.00037, 9.999248 
9.3503076e+2, 2.3477647e+2, -656130.6, -726794.3, -19470.965, -0.018657202, 0.1901335, -651120.7, -11908.849, 0.0, 10.000216, 9.999276 
9.350372e+2, 2.4477553e+2, -582826.06, -685653.94, -5339.249, -0.021469211, 0.18892573, -582549.56, -41328.285, 0.0, 10.000239, 9.998875 
9.350439e+2, 2.547752e+2, -452105.8, -571274.9, -6657.4736, -0.013771222, 0.26446483, -451735.03, -8509.045, 0.0, 10.000461, 9.99888 
9.350505e+2, 2.647741e+2, -357728.4, -501978.16, -13959.816, -0.008914225, 0.28063062, -356389.88, -11152.287, 0.0, 10.000553, 9.998638 
9.350569e+2, 2.7477223e+2, -267060.38, -406653.47, -14239.285, -0.00645511, 0.2263362, -265622.7, -18366.059, 0.0, 10.0005, 9.998646 
9.3506336e+2, 2.84771e+2, -174497.5, -307487.1, -4943.9897, -0.023495685, 0.23826064, -174313.95, -25044.914, 0.0, 10.000443, 9.998682 
9.350696e+2, 2.9477045e+2, -84294.83, -211922.58, 802.28534, -0.0624592, 0.3134104, -84289.78, -33015.293, 0.0, 10.000383, 9.998693 
9.350764e+2, 3.047681e+2, -20766.992, -189825.6, 10580.544, -0.06391277, 0.22439577, -20107.383, -20107.383, 0.000000010385675, 10.000632, 9.998391 
9.350839e+2, 3.1476697e+2, 95719.945, -83003.3, 1171.709, 0.0055639204, 0.2690268, 95727.625, 95727.625, 0.00000050425, 10.001213, 9.998844 
9.449579e+2, 1.2477656e+2, -1702499.1, -1686324.5, -6514.969, -0.032943584, 0.24613321, -1684026.8, 33184.953, 0.000016700973, 9.9999895, 10.0002 
9.449647e+2, 1.3477601e+2, -1590945.1, -1616642.3, -18664.268, -0.036465507, 0.20013006, -1581134.4, 38080.66, 0.0000023433604, 10.000234, 9.999889 
9.4497216e+2, 1.4477552e+2, -1512402.6, -1562982.5, -16251.291, 0.026058942, 0.18098772, -1507631.3, 13587.973, 0.0000000053592455, 10.00025, 9.999575 
9.4497836e+2, 1.5477525e+2, -1448525.6, -1480518.5, -11819.756, -0.047114115, 0.19290312, -1444632.5, -21409.893, 0.0, 10.000011, 9.999583 
9.44985e+2, 1.6477498e+2, -1356770.9, -1396832.9, -17333.24, -0.06129059, 0.21280515, -1350312.5, -25087.06, 0.0, 10.000018, 9.99948 
9.4499224e+2, 1.7477475e+2, -1216266.1, -1277108.3, -6479.818, 0.000843179, 0.23853755, -1215583.8, 11643.679, 0.0, 10.000305, 9.999491 
9.44999e+2, 1.8477397e+2, -1110700.3, -1185817.6, -14200.319, 0.019867491, 0.21674089, -1108105.4, 21128.797, 0.0, 10.0004, 9.9994 
9.450051e+2, 1.9477259e+2, -1028960.94, -1094057.6, -34365.176, -0.01274236, 0.13624288, -1014176.8, 17069.623, 0.0, 10.000281, 9.999414 
9.4501156e+2, 2.0477188e+2, -973389.1, -1069445.6, -28664.432, -0.02991065, 0.14723364, -965485.56, -32231.75, 0.0, 10.000217, 9.998942 
9.450181e+2, 2.147719e+2, -875236.0, -971068.25, -5895.536, -0.028810654, 0.2530425, -874874.6, -39618.813, 0.0, 10.000217, 9.998944 
9.4502467e+2, 2.247711e+2, -755896.9, -839211.75, -12816.129, -0.021796161, 0.27052605, -753969.94, -16705.326, 0.0, 10.000263, 9.999155 
9.450311e+2, 2.3476943e+2, -641456.94, -731120.25, -30047.006, -0.009435134, 0.18494831, -632319.1, 6961.7305, 0.0, 10.000366, 9.999174 
9.450376e+2, 2.4476847e+2, -559067.94, -667108.5, -21516.03, -0.008723592, 0.18185815, -554940.7, -13649.842, 0.0, 10.000373, 9.998938 
9.4504416e+2, 2.5476822e+2, -475626.5, -574917.4, -14574.273, -0.020701496, 0.26191464, -473531.44, -30237.361, 0.0, 10.000267, 9.998949 
9.450508e+2, 2.6476723e+2, -398303.8, -516028.03, -16544.428, -0.020929907, 0.28155553, -396022.9, -50718.477, 0.0, 10.000251, 9.998688 
9.450574e+2, 2.7476543e+2, -287110.84, -410722.66, -13004.23, -0.007887352, 0.23058948, -285757.6, -38435.023, 0.0, 10.000338, 9.998695 
9.450638e+2, 2.847641e+2, -175618.6, -316479.25, -7317.0615, -0.018991113, 0.23401777, -175239.53, -25903.563, 0.0, 10.000473, 9.998606 
9.450702e+2, 2.947633e+2, -51425.96, -204677.75, -19222.275, -0.056816805, 0.2892915, -49051.703, 2292.7114, 0.0, 10.000648, 9.998616 
9.4507706e+2, 3.0476114e+2, 6858.3076, -146789.5, 2389.5671, -0.06152197, 0.21085976, 6895.462, 6895.462, 0.00000000032400083, 10.000694, 9.998655 
9.450847e+2, 3.1476027e+2, 16775.27, -104836.44, 19031.959, -0.0056408015, 0.25546896, 19684.15, 19684.15, 0.00000016973306, 10.000601, 9.998989 
9.549585e+2, 1.2476871e+2, -1709397.4, -1705503.6, -681.46936, 0.024358897, 0.18235604, -1705387.9, 11899.256, 0.000026645826, 10.000009, 10.000061 
9.5496446e+2, 1.3476864e+2, -1596707.4, -1628357.9, -9240.174, -0.08479489, 0.19093482, -1594207.3, 25079.738, 0.00000475329, 10.00023, 9.999811 
9.5497173e+2, 1.4476843e+2, -1510401.6, -1557341.6, -24788.24, -0.03789528, 0.20135215, -1499735.3, 21553.715, 0.000000046136613, 10.000244, 9.999617 
9.549787e+2, 1.5476826e+2, -1445606.3, -1474301.3, -20463.256, -0.011065406, 0.21992865, -1434961.9, -11670.622, 0.0, 10.000011, 9.999625 
9.549856e+2, 1.6476779e+2, -1335299.3, -1353004.4, -7275.6147, -0.00648551, 0.20338507, -1332693.1, -7398.1523, 0.0, 10.00002, 9.999781 
9.5499235e+2, 1.7476705e+2, -1194089.1, -1231793.5, 4483.9507, -0.014462328, 0.14729913, -1193563.3, 33736.477, 0.0, 10.000307, 9.999802 
9.549991e+2, 1.8476647e+2, -1145781.6, -1258962.4, -19026.959, -0.011363587, 0.1528755, -1142668.6, -13363.069, 0.0, 10.0004015, 9.998898 
9.550055e+2, 1.9476601e+2, -1066283.1, -1171115.5, -39298.887, 0.0007722051, 0.21931659, -1053187.0, -21874.31, 0.0, 10.000279, 9.998887 
9.5501184e+2, 2.0476526e+2, -932828.4, -984915.0, -29759.148, -0.016242664, 0.22383253, -919326.0, 13994.719, 0.0, 10.000215, 9.999524 
9.55018e+2, 2.1476415e+2, -832203.5, -881573.8, -6537.95, -0.06391576, 0.15489005, -831352.4, 3977.1816, 0.0, 10.0002165, 9.999559 
9.5502454e+2, 2.2476333e+2, -784544.6, -898862.56, -10138.982, -0.062755, 0.15915388, -783652.3, -46314.44, 0.0, 10.000263, 9.998746 
9.550315e+2, 2.3476288e+2, -671843.6, -794280.94, -26113.803, -0.008361846, 0.2376336, -666506.6, -27161.002, 0.0, 10.000365, 9.998741 
9.550381e+2, 2.4476203e+2, -547569.8, -643115.0, -25407.596, 0.004633932, 0.2620012, -541233.56, 121.61542, 0.0, 10.000372, 9.999104 
9.550444e+2, 2.5476077e+2, -463314.2, -548898.06, -18267.238, -0.02777794, 0.21973076, -459578.28, -16211.455, 0.0, 10.000265, 9.999128 
9.5505077e+2, 2.6475954e+2, -390487.75, -500174.72, -13543.332, -0.04387349, 0.20460086, -388840.25, -43462.047, 0.0, 10.000252, 9.998796 
9.550574e+2, 2.747585e+2, -279005.47, -394656.4, -9282.818, -0.042448413, 0.21523179, -278265.13, -30875.984, 0.0, 10.0003395, 9.998806 
9.550643e+2, 2.8475732e+2, -197420.48, -360342.97, -696.1728, -0.027985664, 0.2449549, -197417.52, -48015.836, 0.0, 10.000467, 9.998307 
9.550714e+2, 2.947561e+2, -74444.164, -249948.28, -11583.166, -0.00027075506, 0.28740907, -73682.984, -22266.742, 0.0, 10.000637, 9.99831 
9.550782e+2, 3.0475417e+2, 48928.7, -57774.293, -445.42377, -0.01841769, 0.2200665, 48930.56, 48930.56, 0.0, 10.000686, 9.999272 
9.5508474e+2, 3.1475392e+2, 54811.152, -25431.336, 17124.404, -0.06881969, 0.26044092, 58312.832, 58312.832, 0.000000027453995, 10.000598, 9.9995365 
9.649588e+2, 1.2476172e+2, -1661260.5, -1698512.1, 23565.297, 0.03804428, 0.16957632, -1649849.0, 67505.13, 0.000040247374, 10.000412, 9.999912 
9.649646e+2, 1.3476166e+2, -1625200.5, -1654320.0, 15427.667, -0.08466758, 0.18938957, -1618547.0, 807.77765, 0.0000086557575, 10.00009, 9.9997 
9.649718e+2, 1.4476143e+2, -1536020.0, -1563560.6, 1964.916, -0.044203043, 0.19990127, -1535880.5, -14523.471, 0.00000019058375, 10.000043, 9.999669 
9.6497893e+2, 1.5476118e+2, -1403026.5, -1446885.8, 5602.009, -0.0058686845, 0.20583284, -1402322.3, 21037.014, 0.0, 10.000276, 9.999685 
9.649858e+2, 1.6476063e+2, -1299196.1, -1342355.5, 8167.4927, 0.0013478816, 0.18145788, -1297702.1, 27661.418, 0.0, 10.0002985, 9.99972 
9.649926e+2, 1.747598e+2, -1229317.1, -1255545.9, -8139.133, -0.015959812, 0.12291465, -1226996.8, 372.95264, 0.0, 10.000095, 9.99974 
9.6499926e+2, 1.8475929e+2, -1191483.0, -1277642.9, -26479.34, -0.017793436, 0.13829736, -1183995.8, -54620.67, 0.0, 10.000073, 9.998927 
9.6500576e+2, 1.9475915e+2, -1067430.9, -1167692.3, -5192.1206, -0.006016251, 0.22805037, -1067162.6, -35782.875, 0.0, 10.000256, 9.99892 
9.650121e+2, 2.0475838e+2, -927805.2, -986948.44, -212.81776, -0.018623024, 0.23314945, -927804.44, 5583.4355, 0.0, 10.00027, 9.999482 
9.650183e+2, 2.1475695e+2, -852224.75, -896276.3, -26795.545, -0.057076585, 0.13927442, -839564.25, -4164.671, 0.0, 10.000101, 9.999515 
9.650247e+2, 2.247561e+2, -806798.5, -905763.0, -31119.78, -0.059357274, 0.13904372, -797826.2, -60417.87, 0.0, 10.000093, 9.99878 
9.650317e+2, 2.3475586e+2, -684090.25, -795884.0, -12906.679, -0.022697842, 0.23488149, -682619.5, -43205.74, 0.0, 10.000263, 9.998779 
9.6503836e+2, 2.4475503e+2, -557555.5, -656556.7, -10484.331, -0.010673537, 0.26381418, -556457.4, -15034.336, 0.0, 10.00034, 9.999025 
9.650447e+2, 2.547536e+2, -461039.47, -556542.06, -23274.832, -0.025397679, 0.21326344, -455669.16, -12232.539, 0.0, 10.0003195, 9.999049 
9.650511e+2, 2.6475236e+2, -381364.34, -493333.1, -27478.758, -0.038435586, 0.19459239, -374984.2, -29535.402, 0.0, 10.000305, 9.998817 
9.650576e+2, 2.7475128e+2, -284729.2, -394926.1, -30113.445, -0.0500791, 0.20645408, -277037.06, -29577.693, 0.0, 10.00029, 9.998828 
9.650645e+2, 2.8475025e+2, -219024.44, -366698.78, -10205.39, -0.036958404, 0.24197559, -218322.5, -68851.34, 0.0, 10.000301, 9.998343 
9.650719e+2, 2.9474914e+2, -114572.96, -265299.16, 2863.5015, 0.0032667744, 0.29541168, -114518.58, -63034.04, 0.0, 10.000345, 9.998345 
9.6507883e+2, 3.047474e+2, 17216.842, -70472.2, 4070.4507, -0.0110569, 0.24356262, 17405.383, 17405.383, 0.0, 10.000458, 9.999295 
9.650853e+2, 3.1474707e+2, 58237.37, -28368.492, -23789.3, -0.07203002, 0.2749616, 64341.67, 64341.67, 0.00000000015790982, 10.000643, 9.9994955 
9.749587e+2, 1.2475563e+2, -1672630.9, -1720929.5, 8177.3535, -0.009061147, 0.20217866, -1671284.0, 46128.332, 0.000057975532, 10.000407, 9.999761 
9.749652e+2, 1.3475516e+2, -1635008.9, -1675532.0, 4568.8965, -0.038162347, 0.1956819, -1634500.1, -15082.399, 0.000014441633, 10.000093, 9.999553 
9.7497237e+2, 1.4475457e+2, -1531725.1, -1555314.3, 10629.103, 0.0042967033, 0.17722276, -1527642.4, -6219.455, 0.0000005546723, 10.000045, 9.999725 
9.749789e+2, 1.5475409e+2, -1398499.3, -1437779.0, 14826.355, -0.032850154, 0.15089083, -1393531.3, 29894.89, 0.0, 10.000276, 9.999748 
9.749857e+2, 1.6475357e+2, -1328922.8, -1404239.6, 438.36642, -0.039692167, 0.14730605, -1328920.3, -3489.291, 0.0, 10.0002985, 9.999294 
9.749928e+2, 1.7475307e+2, -1260232.5, -1319529.3, -15953.182, -0.0046924055, 0.16566473, -1256213.0, -28776.008, 0.0, 10.000094, 9.999302 
9.749994e+2, 1.8475254e+2, -1152237.1, -1195719.1, -20753.55, -0.001245841, 0.17287846, -1143921.9, -14479.396, 0.0, 10.000071, 9.999491 
9.7500575e+2, 1.9475195e+2, -1025673.94, -1081503.5, 1237.7705, -0.034183793, 0.1623186, -1025646.5, 5800.9106, 0.0, 10.000257, 9.999512 
9.750121e+2, 2.0475125e+2, -973948.75, -1083252.8, -7458.092, -0.0384523, 0.17494214, -973442.2, -39987.273, 0.0, 10.000272, 9.998821 
9.750188e+2, 2.147504e+2, -900956.75, -997308.8, -33705.406, -0.010057758, 0.20602714, -890336.6, -54871.215, 0.0, 10.0001, 9.998821 
9.750253e+2, 2.2474945e+2, -774582.0, -838588.4, -25972.08, -0.0134671135, 0.20982055, -765369.3, -27893.83, 0.0, 10.000092, 9.999243 
9.750316e+2, 2.3474841e+2, -649877.75, -724259.3, -6791.8076, -0.052663483, 0.17847836, -649262.7, -9777.834, 0.0, 10.000261, 9.999272 
9.7503823e+2, 2.4474753e+2, -579724.1, -702346.56, -11699.843, -0.055006374, 0.18981813, -578617.75, -37123.652, 0.0, 10.0003395, 9.998713 
9.750451e+2, 2.5474676e+2, -484093.7, -604762.25, -23865.842, -0.015879001, 0.24056984, -479544.97, -36041.65, 0.0, 10.00032, 9.998718 
9.7505176e+2, 2.6474556e+2, -386622.4, -503990.1, -27712.201, -0.0068468167, 0.24801406, -380408.2, -34891.98, 0.0, 10.000304, 9.998745 
9.75058e+2, 2.7474388e+2, -289631.47, -404572.88, -29691.227, -0.03255788, 0.20346394, -282414.84, -34881.926, 0.0, 10.000288, 9.998763 
9.7506475e+2, 2.8474283e+2, -194876.48, -316052.5, -8264.752, -0.047693927, 0.22669874, -194315.39, -44771.438, 0.0, 10.0002985, 9.9986925 
9.750717e+2, 2.9474247e+2, -89322.55, -212623.69, 5246.7104, -0.048499484, 0.31534982, -89099.695, -37550.65, 0.0, 10.000343, 9.998709 
9.75079e+2, 3.0474085e+2, -22816.336, -152092.4, 10899.905, -0.041862905, 0.28197253, -21903.754, -21903.754, 0.0, 10.000451, 9.998738 
9.7508645e+2, 3.1473964e+2, 13853.645, -117896.766, -14627.458, -0.02165039, 0.28644145, 15458.1045, 15458.1045, 0.0, 10.000631, 9.998886 
9.8495895e+2, 1.2474887e+2, -1722162.3, -1750674.0, -27699.86, -0.01536739, 0.20755248, -1705265.1, 12212.513, 0.00008015815, 10.000092, 9.999709 
9.8496544e+2, 1.3474822e+2, -1622993.8, -1673399.3, -19658.885, -0.021647835, 0.18735008, -1616233.3, 3251.8198, 0.000022452736, 10.000191, 9.99952 
9.849726e+2, 1.4474756e+2, -1505152.0, -1541095.0, -3783.1895, 0.01348045, 0.16154116, -1504758.1, 16732.982, 0.0000013019285, 10.000221, 9.999739 
9.849789e+2, 1.5474707e+2, -1418809.0, -1445042.4, -3101.8252, -0.050197244, 0.13374387, -1418447.3, 5046.555, 0.0, 10.000127, 9.99977 
9.849857e+2, 1.6474664e+2, -1360444.3, -1433063.8, -10847.494, -0.060401816, 0.14370611, -1358858.5, -33360.496, 0.0, 10.000142, 9.999172 
9.84993e+2, 1.747463e+2, -1240926.9, -1324342.5, -4707.1377, -0.0038656103, 0.19113314, -1240662.1, -13158.541, 0.0, 10.000288, 9.999175 
9.849998e+2, 1.8474567e+2, -1116676.6, -1174258.4, -13961.405, 0.0085374275, 0.1939934, -1113470.1, 16040.009, 0.0, 10.000296, 9.99953 
9.85006e+2, 1.9474472e+2, -1038036.25, -1082666.1, -33419.58, -0.030658565, 0.14225897, -1020166.3, 11351.24, 0.0, 10.000151, 9.999556 
9.850124e+2, 2.0474395e+2, -1000455.1, -1110370.8, -44028.89, -0.038583934, 0.1521232, -984993.44, -51467.848, 0.0, 10.000152, 9.998693 
9.8501897e+2, 2.1474335e+2, -878069.3, -1000917.9, -28916.803, -0.011574545, 0.22204764, -871603.06, -36068.633, 0.0, 10.00032, 9.99869 
9.8502547e+2, 2.2474241e+2, -742166.2, -822271.75, -16374.788, -0.015139558, 0.23261489, -738948.2, -1403.599, 0.0, 10.000313, 9.999247 
9.850318e+2, 2.3474112e+2, -671715.1, -733949.9, -34188.617, -0.05272875, 0.17354876, -656603.2, -17047.057, 0.0, 10.000109, 9.999279 
9.850384e+2, 2.447401e+2, -618690.8, -724733.6, -43447.516, -0.057414584, 0.1738457, -603163.3, -61596.918, 0.0, 10.000089, 9.998679 
9.850453e+2, 2.5473937e+2, -494199.3, -613808.5, -34616.727, -0.026509864, 0.230879, -484903.22, -41327.652, 0.0, 10.000269, 9.99868 
9.8505193e+2, 2.6473826e+2, -386319.47, -506997.03, -30880.74, -0.016901853, 0.25173476, -378876.34, -33288.57, 0.0, 10.0003195, 9.998716 
9.8505837e+2, 2.747368e+2, -300521.56, -412442.94, -31492.002, -0.031334836, 0.22905679, -292268.97, -44665.94, 0.0, 10.000226, 9.998737 
9.850649e+2, 2.8473565e+2, -207078.75, -315365.84, -15732.794, -0.04884257, 0.24243852, -204839.28, -55224.613, 0.0, 10.000188, 9.998751 
9.8507184e+2, 2.947349e+2, -105967.5, -213890.0, -24158.803, -0.06735472, 0.28706995, -100806.3, -49183.785, 0.0, 10.000201, 9.998768 
9.850793e+2, 3.0473334e+2, -30067.69, -157371.28, 434.0357, -0.05587032, 0.25927076, -30066.209, -30066.209, 0.0, 10.00041, 9.99872 
9.8508734e+2, 3.1473246e+2, 40052.473, -111591.87, 13844.757, -0.0074252095, 0.29648572, 41306.1, 41306.1, 0.0, 10.000836, 9.998831 
9.949593e+2, 1.2474146e+2, -1720052.8, -1745962.6, -30421.543, 0.0070611592, 0.18224487, -1699942.6, 17607.318, 0.00010704937, 10.000091, 9.9997425 
9.949655e+2, 1.347409e+2, -1618356.3, -1663667.3, -14816.319, -0.03614789, 0.16464709, -1613941.6, 5614.805, 0.000032992957, 10.00019, 9.999588 
9.9497247e+2, 1.447404e+2, -1506778.6, -1544447.8, -7073.1987, -0.018828224, 0.15366372, -1505494.4, 16066.694, 0.0000026281716, 10.00022, 9.999716 
9.9497896e+2, 1.5474018e+2, -1420222.5, -1447822.3, -6350.91, -0.060095813, 0.15376318, -1418831.3, 4730.428, 0.00000000019976186, 10.000125, 9.999752 
9.949858e+2, 1.6473989e+2, -1348527.4, -1407721.6, -6147.889, -0.06273291, 0.16959366, -1347895.5, -22331.088, 0.0, 10.000138, 9.999348 
9.9499315e+2, 1.7473957e+2, -1227748.5, -1297811.4, 752.6969, -0.015176543, 0.19915739, -1227740.4, -171.21259, 0.0, 10.000291, 9.999356 
9.9500006e+2, 1.8473879e+2, -1150483.0, -1245032.0, -19995.154, 0.008803794, 0.20202321, -1146428.3, -16850.838, 0.0, 10.0002985, 9.9990425 
9.9500644e+2, 1.9473752e+2, -1073293.3, -1155867.8, -39518.367, 0.0036932237, 0.16871214, -1057428.6, -25838.898, 0.0, 10.000151, 9.999053 
9.950127e+2, 2.0473655e+2, -972866.8, -1052662.1, -39206.55, -0.01979715, 0.16487558, -956827.2, -23227.81, 0.0, 10.000149, 9.99909 
9.950188e+2, 2.1473588e+2, -848596.2, -939485.9, -23287.768, -0.062144727, 0.18747246, -842976.8, -7370.55, 0.0, 10.0003195, 9.999112 
9.950253e+2, 2.2473505e+2, -773545.0, -887392.44, -24864.111, -0.06544842, 0.2075899, -768351.6, -30736.23, 0.0, 10.000312, 9.9988 
9.950322e+2, 2.3473398e+2, -704311.7, -801903.25, -42046.13, -0.025045605, 0.21853976, -688695.44, -49068.297, 0.0, 10.000109, 9.998813 
9.9503887e+2, 2.4473278e+2, -602659.06, -691306.94, -37137.36, -0.0205036, 0.21400096, -589157.44, -47517.875, 0.0, 10.000088, 9.998909 
9.9504524e+2, 2.5473145e+2, -476764.88, -577557.25, -27169.5, -0.05720871, 0.18535401, -469907.63, -26254.857, 0.0, 10.000268, 9.99893 
9.9505174e+2, 2.647305e+2, -386354.13, -507088.8, -33977.766, -0.06832305, 0.20901608, -377448.78, -31785.932, 0.0, 10.0003195, 9.998716 
9.9505836e+2, 2.7472997e+2, -301006.84, -413320.28, -34520.055, -0.04957784, 0.28425968, -291245.34, -43575.832, 0.0, 10.000225, 9.998733 
9.950652e+2, 2.8472868e+2, -222553.78, -346996.44, -14969.141, -0.044370178, 0.28819263, -220778.48, -71095.18, 0.0, 10.000185, 9.998534 
9.950721e+2, 2.9472643e+2, -120804.47, -244921.23, -21989.852, -0.05547088, 0.20860204, -117023.68, -65318.984, 0.0, 10.000201, 9.998554 
9.950797e+2, 3.0472493e+2, 3256.599, -87606.73, 17396.686, -0.054955263, 0.1746946, 6473.4785, 6473.4785, 0.0, 10.000407, 9.999202 
9.9508786e+2, 3.147255e+2, 70072.44, -44593.285, 32552.623, -0.034251295, 0.30477932, 78669.31, 78669.31, 0.0, 10.000817, 9.9993 
1.0049592e+3, 1.2473397e+2, -1758755.3, -1757776.6, -38158.29, 0.010590984, 0.16518952, -1720104.5, -2481.2585, 0.0001389771, 9.999793, 9.999806 
1.0049656e+3, 1.3473357e+2, -1612897.8, -1651007.4, -13634.832, -0.041693237, 0.15364805, -1608522.0, 11106.009, 0.000046326506, 10.000183, 9.999679 
1.0049727e+3, 1.4473325e+2, -1497390.3, -1538803.8, -17994.664, -0.02713497, 0.15451726, -1490663.9, 30967.025, 0.00000474816, 10.00028, 9.999725 
1.0049791e+3, 1.5473314e+2, -1435111.9, -1454724.9, -18064.105, -0.04894959, 0.16693069, -1424364.1, -733.38196, 0.000000004412824, 10.00002, 9.999756 
1.004986e+3, 1.6473277e+2, -1365472.4, -1410827.5, -7183.1367, -0.049128808, 0.17284921, -1364361.9, -38727.93, 0.0, 9.999999, 9.999394 
1.0049933e+3, 1.7473216e+2, -1231079.5, -1293522.0, -9986.633, -0.0207152, 0.16913354, -1229521.3, -1880.6044, 0.0, 10.000242, 9.999409 
1.0050003e+3, 1.8473136e+2, -1149360.1, -1263795.6, -32813.402, -0.0017571298, 0.17581989, -1140618.9, -10969.779, 0.0, 10.000389, 9.99887 
1.0050067e+3, 1.9473036e+2, -1043991.9, -1161707.1, -28679.215, 0.0043927077, 0.18682465, -1037376.5, -5716.841, 0.0, 10.000438, 9.998875 
1.005013e+3, 2.0472929e+2, -939000.56, -1033504.7, -27274.967, -0.014681168, 0.18157437, -931693.7, 1976.7351, 0.0, 10.00037, 9.999114 
1.005019e+3, 2.1472816e+2, -867549.94, -945575.5, -41219.56, -0.060701393, 0.15320364, -849808.44, -14127.246, 0.0, 10.000176, 9.999139 
1.0050255e+3, 2.2472726e+2, -802258.44, -911483.06, -44602.094, -0.06707101, 0.17176408, -786359.44, -48668.57, 0.0, 10.00016, 9.998708 
1.00503236e+3, 2.3472662e+2, -676786.06, -799453.2, -35408.57, -0.030406721, 0.23376822, -667298.94, -27599.566, 0.0, 10.000344, 9.998715 
1.005039e+3, 2.4472548e+2, -567013.8, -671893.56, -25082.105, -0.026180897, 0.23931642, -561324.06, -19612.705, 0.0, 10.000323, 9.998928 
1.0050454e+3, 2.5472382e+2, -503880.72, -587414.75, -32858.574, -0.05843118, 0.17751788, -492504.8, -48777.855, 0.0, 10.000071, 9.998956 
1.00505196e+3, 2.6472276e+2, -423605.8, -524413.2, -43615.43, -0.06888916, 0.1872443, -407354.9, -61616.914, 0.0, 10.000063, 9.99872 
1.0050586e+3, 2.747223e+2, -287494.13, -406724.03, -43593.9, -0.054835875, 0.26898968, -273255.38, -25511.398, 0.0, 10.000319, 9.998732 
1.0050655e+3, 2.8472105e+2, -185000.17, -334258.0, -19449.2, -0.044785365, 0.27891415, -182507.45, -32750.045, 0.0, 10.000467, 9.998486 
1.0050727e+3, 2.947188e+2, -80996.55, -231113.22, -16945.752, -0.039773453, 0.20461673, -79107.42, -27328.648, 0.0, 10.000498, 9.998506 
1.0050802e+3, 3.0471733e+2, 9453.952, -66009.65, 17754.037, -0.042404488, 0.16767164, 13422.207, 13422.207, 0.0, 10.000369, 9.999369 
1.0050882e+3, 3.147177e+2, -30068.385, -74672.92, 9697.374, -0.047530133, 0.26353508, -28051.314, -28051.314, 0.0, 10.000053, 9.99946 
1.0149587e+3, 1.2472639e+2, -1751333.1, -1740320.1, -29755.68, -0.025183212, 0.15161142, -1715565.8, 2132.1675, 0.00017643356, 9.999784, 9.99993 
1.01496585e+3, 1.3472626e+2, -1603906.4, -1631196.0, 2368.8318, -0.041516673, 0.15336151, -1603702.3, 15997.104, 0.00006271102, 10.000179, 9.999816 
1.0149731e+3, 1.447261e+2, -1495745.0, -1535658.4, -27269.717, -0.013275276, 0.16313857, -1481909.6, 39790.742, 0.000007860604, 10.000279, 9.999748 
1.0149795e+3, 1.5472601e+2, -1433520.0, -1452158.5, -27750.262, -0.018659184, 0.17390648, -1413566.0, 10134.279, 0.000000028517778, 10.000022, 9.999773 
1.01498626e+3, 1.6472538e+2, -1370944.5, -1422724.0, 859.64, -0.022697508, 0.15540561, -1370930.3, -45224.402, 0.0, 10.000001, 9.999312 
1.0149936e+3, 1.7472416e+2, -1236814.9, -1305066.5, -1032.5583, -0.021466708, 0.10088703, -1236799.3, -9081.829, 0.0, 10.00024, 9.9993305 
1.0150005e+3, 1.8472347e+2, -1139988.0, -1244008.6, -31894.016, -0.023587152, 0.11425964, -1130987.6, -1263.0059, 0.0, 10.000387, 9.999007 
1.0150068e+3, 1.9472331e+2, -1033673.4, -1140671.4, -27433.26, -0.030229827, 0.19572613, -1027049.8, 4677.299, 0.0, 10.000439, 9.999019 
1.0150132e+3, 2.0472226e+2, -963257.56, -1084082.6, -35520.74, -0.025975851, 0.20205486, -953588.75, -19850.559, 0.0, 10.000371, 9.998767 
1.0150198e+3, 2.1472023e+2, -892899.56, -998096.94, -49125.074, -0.009020438, 0.119629115, -873526.75, -37768.027, 0.0, 10.000175, 9.998779 
1.0150261e+3, 2.2471915e+2, -785500.25, -876131.06, -39040.223, -0.021971889, 0.12519181, -771002.4, -33232.004, 0.0, 10.000157, 9.998952 
1.0150324e+3, 2.3471908e+2, -658268.56, -761225.94, -28561.916, -0.06834142, 0.21995871, -650875.9, -11103.591, 0.0, 10.000345, 9.998978 
1.0150388e+3, 2.4471825e+2, -580401.8, -700034.7, -34683.758, -0.07431353, 0.25159433, -571073.7, -29292.496, 0.0, 10.000324, 9.998734 
1.0150457e+3, 2.5471658e+2, -518191.44, -617211.1, -42211.43, -0.03366651, 0.20680779, -502639.53, -58841.605, 0.0, 10.000071, 9.998752 
1.0150524e+3, 2.6471508e+2, -422972.22, -522539.84, -34231.355, -0.022999052, 0.18455553, -412339.03, -66526.016, 0.0, 10.00006, 9.998734 
1.015059e+3, 2.7471384e+2, -285449.66, -402961.1, -32649.834, -0.048232455, 0.18259005, -276987.47, -29161.445, 0.0, 10.0003195, 9.998757 
1.0150659e+3, 2.847128e+2, -179015.33, -322455.63, -17200.045, -0.05062804, 0.21502213, -176981.69, -27145.143, 0.0, 10.000468, 9.998567 
1.0150733e+3, 2.9471204e+2, -77110.76, -220837.48, -14607.846, -0.024661636, 0.2775781, -75641.09, -23796.61, 0.0, 10.000488, 9.998582 
1.0150807e+3, 3.0471054e+2, -910.755, -84872.75, 6640.014, -0.023326404, 0.24082586, -388.88275, -388.88275, 0.0, 10.000358, 9.999245 
1.0150882e+3, 3.147091e+2, -38968.418, -92984.7, 217.63872, -0.052693058, 0.16684051, -38967.54, -38967.54, 0.0, 10.000052, 9.999334 
1.0249585e+3, 1.2471909e+2, -1715162.8, -1703999.4, -35240.363, -0.025949772, 0.17547636, -1673901.4, 43869.203, 0.00021988727, 9.999954, 10.000096 
1.0249657e+3, 1.3471898e+2, -1652851.0, -1635229.3, 3551.952, -0.048446562, 0.16199306, -1634540.3, -14769.457, 0.000082442966, 9.999758, 9.999991 
1.024973e+3, 1.447188e+2, -1561661.8, -1576109.6, -28746.607, -0.022113431, 0.16292143, -1539245.3, -17473.654, 0.000012107546, 9.999864, 9.999672 
1.0249797e+3, 1.5471856e+2, -1405079.1, -1447379.6, -37592.746, -0.0056763, 0.16798127, -1383095.4, 40677.777, 0.00000009714164, 10.000257, 9.999693 
1.0249866e+3, 1.6471784e+2, -1324560.0, -1406489.5, -13213.704, -0.00651118, 0.14821248, -1322481.6, 3297.8896, 0.0, 10.000347, 9.999256 
1.0249938e+3, 1.7471659e+2, -1259610.5, -1322893.3, -14311.487, -0.0224147, 0.09643649, -1256524.4, -28733.379, 0.0, 10.000113, 9.99927 
1.0250006e+3, 1.8471584e+2, -1174725.9, -1250373.1, -39683.547, -0.031750817, 0.1017262, -1157727.9, -27929.348, 0.0, 10.000104, 9.9991 
1.0250072e+3, 1.9471559e+2, -1038328.56, -1131887.9, -39020.38, -0.035823066, 0.16410711, -1024190.8, 7610.7554, 0.0, 10.00036, 9.999117 
1.0250137e+3, 2.0471463e+2, -962056.8, -1101190.1, -52430.86, -0.02491524, 0.18309554, -944511.4, -10699.334, 0.0, 10.000456, 9.998609 
1.0250201e+3, 2.147129e+2, -874857.1, -1007903.2, -52437.73, 0.0022150497, 0.14767808, -856674.6, -20843.898, 0.0, 10.00038, 9.998613 
1.0250265e+3, 2.2471173e+2, -763101.2, -860998.7, -35317.496, -0.012023506, 0.15130009, -751690.1, -13846.727, 0.0, 10.000293, 9.99899 
1.0250326e+3, 2.3471119e+2, -676716.75, -764821.8, -41539.035, -0.072200894, 0.19209175, -660220.8, -20371.59, 0.0, 10.000197, 9.9990225 
1.025039e+3, 2.447103e+2, -594538.94, -714142.1, -53251.68, -0.080249585, 0.21962593, -574265.75, -32407.268, 0.0, 10.00026, 9.998668 
1.025046e+3, 2.5470904e+2, -461904.8, -598411.44, -51816.344, -0.02988844, 0.22452785, -444464.2, -592.59375, 0.0, 10.000492, 9.998677 
1.0250529e+3, 2.647076e+2, -367707.94, -503263.8, -42085.582, -0.012539367, 0.21203983, -355704.63, -9817.934, 0.0, 10.000471, 9.998668 
1.0250593e+3, 2.7470592e+2, -312920.4, -422758.84, -48873.93, -0.033657666, 0.1754629, -294322.4, -46418.758, 0.0, 10.000161, 9.998696 
1.0250663e+3, 2.847048e+2, -226198.2, -328980.7, -30424.42, -0.04326149, 0.19618459, -217867.55, -67952.945, 0.0, 10.000076, 9.99871 
1.02507345e+3, 2.9470432e+2, -101539.055, -216029.1, -21835.656, -0.037198063, 0.27207586, -97515.91, -45596.81, 0.0, 10.00025, 9.998729 
1.02508105e+3, 3.04703e+2, -7031.269, -95452.09, -3091.0103, -0.03216501, 0.2465424, -6923.3457, -6923.3457, 0.0, 10.00035, 9.999174 
1.02508865e+3, 3.1470138e+2, -3464.8606, -86462.414, -9336.289, -0.033172943, 0.16401017, -2427.5964, -2427.5964, 0.0, 10.0003395, 9.999241 
1.0349587e+3, 1.24712124e+2, -1703594.6, -1679461.5, -49033.984, -0.0054154717, 0.23511942, -1641031.3, 76809.57, 0.00026982953, 9.999951, 10.000266 
1.0349654e+3, 1.347118e+2, -1639280.5, -1606514.6, -3097.6038, -0.06503348, 0.1808064, -1606224.4, 13617.124, 0.00010582585, 9.999755, 10.00019 
1.0349725e+3, 1.4471138e+2, -1574076.3, -1601316.0, -14483.347, -0.057241183, 0.15598202, -1567814.8, -45970.594, 0.000017580334, 9.999861, 9.9995 
1.03498e+3, 1.5471084e+2, -1417690.0, -1472771.1, -22415.592, -0.011382108, 0.14853024, -1409720.9, 14128.028, 0.00000023822265, 10.000254, 9.999519 
1.03498705e+3, 1.6471022e+2, -1326891.4, -1412277.3, -22365.104, -0.0009965142, 0.14986318, -1321388.0, 4466.486, 0.0, 10.000349, 9.999216 
1.03499375e+3, 1.7470951e+2, -1262093.6, -1328512.8, -23451.732, -0.026121117, 0.15572262, -1254647.8, -26786.965, 0.0, 10.0001135, 9.999231 
1.03500076e+3, 1.8470854e+2, -1171878.9, -1244440.8, -31546.914, -0.030377155, 0.13981786, -1160081.6, -30211.594, 0.0, 10.000104, 9.999141 
1.0350078e+3, 1.9470726e+2, -1035387.1, -1125318.1, -30030.436, -0.012835366, 0.09315849, -1026281.2, 5601.2886, 0.0, 10.000358, 9.999163 
1.0350143e+3, 2.0470646e+2, -960775.0, -1098076.5, -56242.926, -0.011388944, 0.124771915, -940677.9, -6786.3506, 0.0, 10.000453, 9.9986315 
1.0350203e+3, 2.1470623e+2, -873206.8, -1004551.8, -55982.05, -0.027616488, 0.23589188, -852584.06, -16687.182, 0.0, 10.000379, 9.998636 
1.03502646e+3, 2.247051e+2, -774546.4, -885080.56, -40006.88, -0.038906585, 0.24992524, -761585.9, -23676.453, 0.0, 10.000294, 9.998825 
1.0350331e+3, 2.3470296e+2, -688705.2, -789900.0, -45267.26, -0.044041384, 0.15017937, -671411.3, -31481.541, 0.0, 10.000197, 9.998852 
1.03503965e+3, 2.4470165e+2, -591141.6, -706251.25, -45038.43, -0.04695918, 0.14224087, -575614.2, -33671.402, 0.0, 10.000256, 9.998724 
1.03504635e+3, 2.547013e+2, -457362.56, -589353.4, -42353.633, -0.04758553, 0.22993726, -444940.97, -993.42346, 0.0, 10.000493, 9.998739 
1.035053e+3, 2.6470032e+2, -378970.22, -527329.4, -52738.926, -0.0372906, 0.27015018, -362133.28, -16174.761, 0.0, 10.000473, 9.998502 
1.0350597e+3, 2.7469864e+2, -325579.4, -448293.5, -59843.14, -0.013989224, 0.24925518, -301228.28, -53251.85, 0.0, 10.000156, 9.998524 
1.03506655e+3, 2.846971e+2, -211477.84, -296574.84, -24130.72, -0.026323814, 0.22329028, -205111.45, -55120.184, 0.0, 10.000069, 9.998936 
1.0350734e+3, 2.946957e+2, -83683.195, -179313.53, -13397.466, -0.07906623, 0.18678623, -81841.72, -29839.436, 0.0, 10.000252, 9.99898 
1.0350809e+3, 3.046947e+2, -9442.75, -101841.28, -1449.644, -0.07001947, 0.1823762, -9420.012, -9420.012, 0.0, 10.000354, 9.999129 
1.03508934e+3, 3.1469458e+2, -10097.572, -98639.88, -7220.804, 0.0065669534, 0.25363162, -9512.566, -9512.566, 0.0, 10.000332, 9.999163 
1.0449584e+3, 1.24704584e+2, -1758315.8, -1724052.0, -42947.676, -0.016703883, 0.22994505, -1694945.4, 22968.988, 0.00032683904, 9.999652, 10.000104 
1.04496546e+3, 1.3470422e+2, -1596090.6, -1601894.3, -16407.041, -0.04473206, 0.18714845, -1582330.8, 37585.25, 0.00013321284, 10.00012, 10.000047 
1.04497276e+3, 1.4470373e+2, -1507634.9, -1575013.3, -34667.176, -0.04374516, 0.16597131, -1492983.9, 28935.703, 0.000024406861, 10.000343, 9.999447 
1.04498e+3, 1.5470304e+2, -1420602.4, -1480396.4, -35456.195, -0.030104049, 0.14698283, -1404120.8, 19805.021, 0.0000004785213, 10.000258, 9.999465 
1.0449872e+3, 1.6470239e+2, -1334212.4, -1415135.6, -34781.44, -0.021508455, 0.14912777, -1321317.8, 4613.81, 0.0, 10.000296, 9.999222 
1.0449943e+3, 1.7470187e+2, -1206545.0, -1300272.3, -33014.066, -0.0169351, 0.17153624, -1196083.9, 31852.418, 0.0, 10.00049, 9.999244 
1.0450012e+3, 1.8470089e+2, -1129399.0, -1231608.4, -43567.008, -0.012989236, 0.15937668, -1113348.9, 16596.7, 0.0, 10.00043, 9.99907 
1.0450081e+3, 1.9469944e+2, -1079256.8, -1154746.8, -51369.0, -0.011443589, 0.1020774, -1053256.5, -21296.6, 0.0, 10.0000925, 9.999088 
1.0450144e+3, 2.046986e+2, -1008253.3, -1100147.4, -70374.734, -0.018171439, 0.12486998, -970154.3, -36185.37, 0.0, 10.000038, 9.9988165 
1.0450205e+3, 2.1469851e+2, -869426.8, -980902.3, -57760.266, -0.034079738, 0.23051734, -844896.56, -8924.388, 0.0, 10.000313, 9.99883 
1.04502685e+3, 2.2469741e+2, -769353.1, -904662.56, -42734.152, -0.036086198, 0.24880904, -756986.75, -19002.582, 0.0, 10.000424, 9.998627 
1.04503356e+3, 2.3469521e+2, -680384.4, -809576.1, -52495.58, -0.022885121, 0.16351317, -661743.2, -21737.213, 0.0, 10.000356, 9.99864 
1.0450402e+3, 2.4469377e+2, -582959.1, -696361.8, -47607.52, -0.028226698, 0.14998119, -565623.2, -23602.729, 0.0, 10.000285, 9.998777 
1.0450466e+3, 2.546932e+2, -493629.63, -599070.25, -45466.082, -0.05454438, 0.21054198, -476732.47, -32705.832, 0.0, 10.000213, 9.998807 
1.0450532e+3, 2.6469225e+2, -406912.25, -540629.8, -54124.574, -0.050295375, 0.2523127, -387750.28, -41713.414, 0.0, 10.000282, 9.998502 
1.0450601e+3, 2.7469093e+2, -273690.28, -423999.78, -48901.355, -0.010734024, 0.26392603, -259181.33, -11129.47, 0.0, 10.000515, 9.998518 
1.0450669e+3, 2.8468937e+2, -153674.39, -268692.34, -16401.777, -0.016106589, 0.23850417, -151381.19, -1314.4626, 0.0, 10.000465, 9.998936 
1.04507364e+3, 2.9468766e+2, -108950.85, -190977.8, -26138.693, -0.072130054, 0.16768372, -101329.6, -49248.688, 0.0, 10.000076, 9.998983 
1.0450812e+3, 3.046867e+2, -60560.344, -119211.92, -12496.3545, -0.06628778, 0.1653104, -58008.855, -58008.855, 0.0, 9.999972, 9.999193 
1.0450896e+3, 3.14687e+2, -23211.172, -98496.805, -8142.5293, 0.0076175034, 0.27280545, -22340.582, -22340.582, 0.0, 10.000216, 9.999218 
1.0549574e+3, 1.2469646e+2, -1792875.5, -1794508.9, -31999.75, -0.07725183, 0.15530215, -1761682.0, -43690.92, 0.00039134276, 9.999647, 9.999623 
1.05496615e+3, 1.3469632e+2, -1629485.4, -1671279.5, 2570.369, 0.012145061, 0.1810023, -1629327.9, -9334.216, 0.00016489324, 10.00012, 9.99957 
1.05497375e+3, 1.4469594e+2, -1503433.9, -1567535.5, -37534.445, 0.01814, 0.19308159, -1486127.9, 35869.34, 0.000032768054, 10.000348, 9.999497 
1.05497986e+3, 1.5469521e+2, -1416783.3, -1471693.5, -38792.85, -0.06464287, 0.16411263, -1396713.0, 27290.225, 0.0000008393984, 10.000255, 9.999527 
1.05498694e+3, 1.6469443e+2, -1331009.3, -1408035.3, -28464.773, -0.07253754, 0.14841174, -1321631.9, 4377.9824, 0.0, 10.000294, 9.999272 
1.0549948e+3, 1.7469369e+2, -1202756.3, -1292385.5, -25875.434, 0.004924943, 0.14444925, -1195822.5, 32194.127, 0.0, 10.00049, 9.999298 
1.055002e+3, 1.8469295e+2, -1142131.6, -1258530.9, -56730.03, 0.020656865, 0.15972182, -1119057.0, 10967.409, 0.0, 10.000431, 9.998885 
1.0550078e+3, 1.9469213e+2, -1092727.5, -1182790.3, -64625.625, -0.033543598, 0.18900034, -1058991.6, -26958.217, 0.0, 10.0000925, 9.998896 
1.0550141e+3, 2.046911e+2, -984307.2, -1050429.9, -61797.42, -0.048501678, 0.18356146, -947283.06, -13239.218, 0.0, 10.000038, 9.999158 
1.055021e+3, 2.146898e+2, -844478.56, -928969.1, -47966.55, -0.018300708, 0.13303992, -822806.3, 13249.72, 0.0, 10.000311, 9.999187 
1.0550276e+3, 2.2468875e+2, -785979.2, -938959.56, -46007.355, -0.0048159976, 0.14828633, -773208.94, -35141.695, 0.0, 10.000423, 9.998392 
1.055034e+3, 2.3468797e+2, -697907.4, -846432.06, -55205.742, -0.009673369, 0.23060323, -679635.56, -39558.113, 0.0, 10.000358, 9.998386 
1.0550404e+3, 2.4468668e+2, -579179.94, -689071.8, -50549.535, -0.025164168, 0.24264905, -559464.56, -17373.49, 0.0, 10.000287, 9.998827 
1.05504684e+3, 2.546848e+2, -489410.63, -590155.1, -47827.938, -0.0523697, 0.16815008, -470321.56, -26213.27, 0.0, 10.00021, 9.99887 
1.0550536e+3, 2.646835e+2, -395491.16, -515801.16, -45610.28, -0.05345668, 0.1590484, -380154.94, -34033.555, 0.0, 10.000277, 9.998675 
1.0550604e+3, 2.746828e+2, -261426.8, -398311.5, -39012.34, -0.026110137, 0.21815649, -251088.95, -2959.2964, 0.0, 10.000514, 9.998694 
1.0550674e+3, 2.846817e+2, -170673.16, -304500.13, -29351.254, -0.01473429, 0.24056914, -164518.8, -14378.107, 0.0, 10.000465, 9.99869 
1.0550742e+3, 2.9468018e+2, -127940.33, -229723.98, -39609.934, -0.019249612, 0.21611221, -114342.43, -62187.824, 0.0, 10.000072, 9.99872 
1.05508156e+3, 3.0467904e+2, -48949.42, -93252.46, -4057.4097, -0.023926979, 0.19758435, -48580.9, -48580.9, 0.0, 9.999965, 9.999375 
1.0550894e+3, 3.146787e+2, -8187.0176, -67615.44, 3221.464, -0.034838665, 0.22430207, -8012.9004, -8012.9004, 0.0, 10.0002165, 9.99943 
1.06495716e+3, 1.24688335e+2, -1757072.3, -1775910.1, -60229.566, -0.07784886, 0.13473955, -1705529.6, 12540.601, 0.00046328275, 9.999889, 9.999634 
1.0649663e+3, 1.346883e+2, -1600923.0, -1655431.3, 16926.518, 0.002215264, 0.17137168, -1596094.5, 23977.004, 0.00020096678, 10.000306, 9.99959 
1.064974e+3, 1.4468803e+2, -1488939.0, -1566753.9, -27479.063, 0.004875393, 0.19306408, -1480213.6, 41860.895, 0.000042859534, 10.000474, 9.999441 
1.0649803e+3, 1.5468727e+2, -1410645.8, -1474896.1, -39565.176, -0.053137686, 0.16926862, -1391806.0, 32274.904, 0.0000013547858, 10.000326, 9.99947 
1.0649873e+3, 1.6468644e+2, -1343517.0, -1415467.5, -28423.021, -0.058954332, 0.15221404, -1333643.8, -7555.4673, 0.0, 10.0002165, 9.999257 
1.0649951e+3, 1.7468561e+2, -1251252.4, -1317640.1, -31103.684, -0.00622443, 0.1384736, -1238957.0, -10860.475, 0.0, 10.000165, 9.999281 
1.0650021e+3, 1.8468492e+2, -1161740.4, -1253476.9, -57339.668, 0.0057803476, 0.15612045, -1134180.1, -4076.701, 0.0, 10.000235, 9.999015 
1.0650082e+3, 1.9468443e+2, -1030369.7, -1137571.8, -41441.367, -0.029420491, 0.20278198, -1016217.8, 15890.946, 0.0, 10.000456, 9.999031 
1.0650145e+3, 2.0468338e+2, -933980.9, -1041501.2, -40715.188, -0.034094285, 0.19485007, -920303.06, 13816.341, 0.0, 10.00045, 9.999021 
1.0650214e+3, 2.1468167e+2, -872052.44, -958593.75, -65295.94, -0.004067761, 0.11948282, -836991.06, -855.1379, 0.0, 10.000192, 9.999042 
1.06502794e+3, 2.246806e+2, -811528.75, -928890.3, -64131.12, 0.0043383245, 0.1302729, -783282.94, -45135.625, 0.0, 10.000152, 9.998592 
1.0650343e+3, 2.3468022e+2, -682307.94, -814778.4, -38982.32, -0.011407108, 0.23151392, -671687.94, -31535.13, 0.0, 10.000361, 9.998601 
1.06504075e+3, 2.4467903e+2, -570974.4, -704307.1, -29858.324, -0.026581924, 0.25067565, -564593.3, -22427.943, 0.0, 10.000427, 9.998655 
1.0650472e+3, 2.546769e+2, -484839.13, -608820.4, -46715.62, -0.041050468, 0.1686754, -469207.7, -25021.688, 0.0, 10.000331, 9.998684 
1.0650539e+3, 2.6467544e+2, -397750.34, -502203.34, -51290.074, -0.043161493, 0.1502155, -376776.56, -30576.238, 0.0, 10.000196, 9.998807 
1.06506065e+3, 2.746748e+2, -324789.84, -412355.28, -47749.273, -0.032085605, 0.19934331, -303788.94, -55581.71, 0.0, 10.000009, 9.998841 
1.0650675e+3, 2.846738e+2, -239245.08, -349567.8, -36568.47, -0.018738987, 0.22950101, -228224.66, -78007.54, 0.0, 10.000048, 9.998581 
1.0650746e+3, 2.9467246e+2, -93174.414, -226375.66, -36417.207, -0.0010248962, 0.23095682, -83868.15, -31637.707, 0.0, 10.000368, 9.998599 
1.0650819e+3, 3.0467114e+2, 6863.853, -61533.016, -2418.7832, -0.010181034, 0.20204446, 6949.2837, 6949.2837, 0.0, 10.000327, 9.999417 
1.06508926e+3, 3.1467053e+2, -61573.047, -87447.04, -9736.27, -0.05476135, 0.19456586, -58318.66, -58318.66, 0.0, 9.9998255, 9.999481 
1.07495755e+3, 1.2468026e+2, -1723666.8, -1704967.0, -50811.746, -0.030068021, 0.1699063, -1662652.0, 55498.77, 0.000542142, 9.999885, 10.000121 
1.0749657e+3, 1.3468027e+2, -1566106.8, -1581285.5, 33437.867, -0.077667825, 0.15856397, -1539407.8, 80741.17, 0.00024133897, 10.000299, 10.000102 
1.0749735e+3, 1.4468002e+2, -1500595.8, -1589993.4, -32244.5, -0.08850301, 0.16608779, -1490179.4, 31971.336, 0.0000548195, 10.000469, 9.999284 
1.0749812e+3, 1.5467931e+2, -1422788.6, -1500784.9, -44939.813, 0.0039595487, 0.16311897, -1402285.3, 21872.957, 0.000002073113, 10.000328, 9.99929 
1.07498825e+3, 1.646785e+2, -1349076.3, -1427650.1, -31295.752, 0.019134514, 0.16032442, -1338134.9, -11968.439, 0.0000000000166348, 10.000219, 9.999172 
1.0749949e+3, 1.7467764e+2, -1257483.5, -1330004.1, -33134.71, -0.052130688, 0.1529229, -1244624.4, -16449.023, 0.0, 10.000162, 9.999198 
1.0750017e+3, 1.8467692e+2, -1131558.6, -1190339.4, -50250.465, -0.061483093, 0.14958143, -1102734.8, 27447.074, 0.0, 10.000232, 9.99945 
1.0750089e+3, 1.9467635e+2, -998839.8, -1072091.6, -33657.055, 0.00010653712, 0.1449044, -985723.8, 46461.707, 0.0, 10.000455, 9.999481 
1.0750156e+3, 2.0467547e+2, -976803.7, -1130930.4, -51152.668, 0.024526745, 0.15905271, -961371.9, -27176.65, 0.0, 10.000451, 9.998406 
1.0750216e+3, 2.1467414e+2, -917660.2, -1053328.6, -75641.56, 0.0070323474, 0.18802202, -883891.6, -47679.957, 0.0, 10.000192, 9.998392 
1.07502796e+3, 2.24673e+2, -767069.8, -836685.25, -57694.652, -0.010593832, 0.19423118, -734496.1, 3727.7786, 0.0, 10.000151, 9.999226 
1.0750345e+3, 2.3467202e+2, -634845.3, -716454.8, -31129.525, -0.028452776, 0.16791695, -624326.8, 15904.586, 0.0, 10.000361, 9.999277 
1.07504115e+3, 2.4467087e+2, -598440.7, -761343.8, -33502.156, -0.033407673, 0.17446044, -591819.8, -49576.78, 0.0, 10.000426, 9.998264 
1.0750477e+3, 2.546695e+2, -515027.9, -671543.0, -49868.96, -0.023100985, 0.21044013, -500489.13, -56229.695, 0.0, 10.000331, 9.998253 
1.0750543e+3, 2.646682e+2, -391400.5, -489458.78, -57614.953, -0.021414699, 0.22441117, -364776.9, -18503.545, 0.0, 10.000197, 9.998895 
1.0750607e+3, 2.74667e+2, -317281.34, -396677.34, -53979.465, -0.029591268, 0.20806651, -289974.03, -41689.938, 0.0, 10.000008, 9.99895 
1.0750675e+3, 2.8466573e+2, -237799.14, -345392.38, -25169.047, -0.029239805, 0.20568435, -232202.52, -81906.89, 0.0, 10.000043, 9.998612 
1.0750748e+3, 2.9466444e+2, -91356.65, -222057.88, -22764.115, -0.019495115, 0.21079734, -87505.33, -35197.168, 0.0, 10.000366, 9.998631 
1.07508205e+3, 3.0466306e+2, -854.1152, -77776.07, -18461.404, -0.02692074, 0.1776009, 3347.1885, 3347.1885, 0.0, 10.000326, 9.999307 
1.075089e+3, 3.1466252e+2, -69553.75, -104010.15, -26755.451, -0.055411533, 0.18868557, -54959.555, -54959.555, 0.0, 9.999825, 9.999369 
1.0849578e+3, 1.2467237e+2, -1636290.0, -1662970.6, -36933.816, -0.028293056, 0.19820115, -1610361.1, 107867.58, 0.0006273791, 10.000484, 10.00012 
1.08496584e+3, 1.3467203e+2, -1603069.8, -1597380.5, 15889.825, -0.08866742, 0.15083934, -1584082.6, 36146.914, 0.0002858709, 10.000038, 10.000117 
1.0849735e+3, 1.4467175e+2, -1558268.5, -1602682.1, -51435.14, -0.11254086, 0.14804606, -1524451.0, -2219.8005, 0.00006870092, 10.0000105, 9.999417 
1.08498156e+3, 1.546713e+2, -1397471.5, -1473859.4, -42180.93, -0.0013416689, 0.15806991, -1378762.0, 45474.152, 0.0000030594845, 10.000439, 9.999422 
1.0849888e+3, 1.6467062e+2, -1298692.0, -1403031.8, -23007.27, 0.024352338, 0.16110477, -1293844.1, 32398.932, 0.000000000186287, 10.000563, 9.999175 
1.0849951e+3, 1.7466974e+2, -1231569.0, -1317222.3, -19626.889, -0.046897877, 0.15231822, -1227285.9, 966.0462, 0.0, 10.000341, 9.999198 
1.085002e+3, 1.8466894e+2, -1131824.0, -1191335.4, -39239.28, -0.057658877, 0.1421607, -1112334.1, 17925.072, 0.0, 10.000236, 9.99944 
1.0850093e+3, 1.9466825e+2, -1026454.56, -1086554.5, -57231.258, 0.00003419967, 0.12336251, -991863.8, 40400.934, 0.0, 10.000271, 9.99947 
1.085016e+3, 2.0466745e+2, -986704.6, -1123336.3, -73471.19, 0.022237847, 0.1444783, -954695.6, -20422.197, 0.0, 10.000331, 9.998517 
1.08502194e+3, 2.1466658e+2, -875865.75, -1020259.9, -41544.258, 0.0037165766, 0.20496655, -864766.1, -28480.62, 0.0, 10.000423, 9.998507 
1.0850282e+3, 2.2466546e+2, -739952.3, -835080.56, -16672.951, -0.011357572, 0.2133658, -737114.75, 1182.87, 0.0, 10.000386, 9.999124 
1.0850349e+3, 2.3466407e+2, -665179.25, -743251.94, -50017.195, -0.022919025, 0.1556084, -640768.4, -458.60147, 0.0, 10.000205, 9.999167 
1.08504154e+3, 2.446629e+2, -630307.3, -762186.56, -64838.293, -0.025174666, 0.16093844, -603769.7, -61448.08, 0.0, 10.000145, 9.998394 
1.0850481e+3, 2.54662e+2, -521575.22, -658877.6, -39060.297, -0.016321009, 0.23089631, -511241.0, -66907.89, 0.0, 10.000217, 9.998395 
1.0850546e+3, 2.6466078e+2, -393910.94, -506790.47, -36041.313, -0.012896313, 0.25214195, -383384.84, -37038.605, 0.0, 10.000251, 9.99875 
1.0850609e+3, 2.746592e+2, -293071.72, -402556.4, -52773.24, -0.015943881, 0.21165276, -271776.3, -23415.271, 0.0, 10.000249, 9.998793 
1.0850676e+3, 2.8465778e+2, -218055.44, -321580.66, -26709.887, -0.021104198, 0.19635135, -211570.42, -61196.535, 0.0, 10.000115, 9.998741 
1.08507484e+3, 2.946566e+2, -161556.31, -240247.16, -17089.387, -0.028137373, 0.20294164, -158005.23, -105620.836, 0.0, 9.999817, 9.99877 
1.085082e+3, 3.0465528e+2, -81831.96, -117928.734, -9188.31, -0.035139285, 0.16428281, -79627.71, -79627.71, 0.0, 9.999776, 9.999296 
1.08508915e+3, 3.146549e+2, -34279.73, -86853.78, -11182.352, -0.043591607, 0.19298619, -32000.121, -32000.121, 0.0, 10.000066, 9.99937 
1.0949577e+3, 1.2466467e+2, -1671127.9, -1733283.0, -60706.004, -0.08388418, 0.21529287, -1634007.0, 84296.6, 0.0007190712, 10.000478, 9.99964 
1.09496646e+3, 1.3466367e+2, -1636759.0, -1667681.0, -52.32717, -0.031795077, 0.14984521, -1636758.9, -16446.371, 0.00033462446, 10.000039, 9.999635 
1.094974e+3, 1.4466329e+2, -1529374.5, -1542062.1, -36477.25, -0.06791744, 0.14021093, -1498693.5, 23621.836, 0.000084530904, 10.000009, 9.999834 
1.09498136e+3, 1.5466328e+2, -1367230.5, -1410383.0, -25619.223, -0.07066209, 0.15305135, -1355312.3, 69001.97, 0.0000043925156, 10.000436, 9.999859 
1.09498866e+3, 1.6466285e+2, -1292727.6, -1390075.5, -31155.754, -0.046962958, 0.15406181, -1283610.3, 42707.35, 0.0000000006358386, 10.000561, 9.999266 
1.09499596e+3, 1.74662e+2, -1226106.1, -1306382.1, -28219.719, 0.007965061, 0.13749072, -1217178.8, 11147.0, 0.0, 10.000342, 9.999271 
1.095003e+3, 1.8466108e+2, -1163414.0, -1257135.0, -39259.926, 0.01569794, 0.13372871, -1149141.5, -18806.354, 0.0, 10.000236, 9.998989 
1.0950093e+3, 1.9466013e+2, -1059543.5, -1154841.8, -56399.1, -0.030267766, 0.13735425, -1033359.7, -1013.63086, 0.0, 10.000269, 9.999002 
1.0950156e+3, 2.0465942e+2, -929021.25, -1003411.3, -71169.57, -0.04220276, 0.15144795, -885913.25, 48440.26, 0.0, 10.000329, 9.999341 
1.0950222e+3, 2.14659e+2, -815052.2, -894116.3, -38622.313, -0.015125645, 0.17165239, -799317.0, 37039.88, 0.0, 10.000423, 9.999373 
1.0950287e+3, 2.2465803e+2, -797908.5, -956001.0, -24374.55, 0.0005735643, 0.18839236, -794235.75, -55867.938, 0.0, 10.000388, 9.998293 
1.0950353e+3, 2.3465636e+2, -727679.8, -873100.44, -57017.85, 0.0034848596, 0.19332175, -707989.75, -67602.266, 0.0, 10.000205, 9.998277 
1.09504186e+3, 2.4465515e+2, -584771.1, -667844.06, -62398.508, -0.0033549473, 0.20900466, -551348.56, -8947.764, 0.0, 10.000145, 9.9990425 
1.0950482e+3, 2.5465447e+2, -472250.44, -556282.7, -35888.75, -0.021236002, 0.2307895, -459009.38, -14602.718, 0.0, 10.0002165, 9.999101 
1.0950548e+3, 2.6465327e+2, -420580.16, -561646.3, -35946.273, -0.018502733, 0.23426154, -411948.53, -65529.863, 0.0, 10.000248, 9.998374 
1.0950614e+3, 2.746514e+2, -322282.53, -463241.38, -51716.707, 0.0070594223, 0.20994832, -305343.63, -56905.926, 0.0, 10.000249, 9.998377 
1.095068e+3, 2.8464997e+2, -202861.02, -290335.34, -36559.715, 0.0039501926, 0.20194909, -189593.34, -39141.887, 0.0, 10.000116, 9.998955 
1.0950746e+3, 2.9464903e+2, -145222.6, -205809.58, -27070.068, -0.029328179, 0.20699951, -134889.94, -82431.03, 0.0, 9.999814, 9.999008 
1.0950818e+3, 3.0464777e+2, -76590.43, -106137.68, 824.56384, -0.038281612, 0.16086671, -76567.44, -76567.44, 0.0, 9.999771, 9.999379 
1.0950894e+3, 3.1464764e+2, -26372.447, -70193.66, 1738.5493, -0.023293924, 0.20871674, -26303.58, -26303.58, 0.0, 10.000064, 9.999485 
1.10495776e+3, 1.2465677e+2, -1695198.4, -1755297.1, -60709.914, -0.11611302, 0.20198138, -1657508.1, 60871.953, 0.000818133, 10.000357, 9.999548 
1.1049671e+3, 1.3465573e+2, -1561978.4, -1639982.6, 36105.12, -0.0035096006, 0.1409321, -1547832.1, 72557.19, 0.00038809632, 10.000586, 9.999562 
1.1049746e+3, 1.4465532e+2, -1445004.6, -1511009.5, 6182.884, -0.04453278, 0.1365384, -1444430.4, 77962.17, 0.000102482416, 10.000628, 9.999749 
1.1049816e+3, 1.5465523e+2, -1376559.1, -1424164.3, -23418.145, -0.08389828, 0.14813243, -1366970.5, 57422.25, 0.0000061708192, 10.000414, 9.999775 
1.1049889e+3, 1.646548e+2, -1311915.4, -1383712.4, -51880.156, -0.06582826, 0.14621319, -1284724.6, 41671.52, 0.0000000015512864, 10.000364, 9.999403 
1.1049966e+3, 1.7465399e+2, -1190290.6, -1273095.3, -44516.535, 0.015361196, 0.123312764, -1170899.3, 57503.74, 0.0, 10.00052, 9.999414 
1.1050034e+3, 1.8465316e+2, -1126756.3, -1245640.8, -39356.582, 0.027981322, 0.12347577, -1114908.0, 15503.532, 0.0, 10.000513, 9.998934 
1.10500954e+3, 1.9465233e+2, -1055813.6, -1159697.9, -26378.375, -0.03742139, 0.14365608, -1049499.4, -17077.22, 0.0, 10.000324, 9.998942 
1.1050159e+3, 2.0465165e+2, -931538.75, -988882.06, -44134.016, -0.055092324, 0.1559454, -907580.8, 26848.715, 0.0, 10.000244, 9.999482 
1.1050224e+3, 2.1465115e+2, -823776.8, -881801.3, -66158.92, -0.018568063, 0.15231931, -780548.4, 55884.867, 0.0, 10.000293, 9.999521 
1.10502906e+3, 2.2465023e+2, -805396.8, -960175.7, -54706.457, 0.0026351193, 0.16961685, -788013.25, -49569.887, 0.0, 10.00034, 9.998287 
1.1050356e+3, 2.3464885e+2, -701474.1, -861852.4, -22332.063, 0.006561839, 0.20331535, -698422.56, -57961.71, 0.0, 10.000392, 9.998264 
1.1050421e+3, 2.446477e+2, -557804.8, -655309.4, -16592.154, -0.00013330506, 0.22489995, -555058.7, -12584.782, 0.0, 10.000333, 9.999038 
1.1050484e+3, 2.546468e+2, -481905.28, -561536.3, -44119.914, -0.019486649, 0.22626351, -462291.47, -17809.672, 0.0, 10.000154, 9.999095 
1.1050549e+3, 2.6464555e+2, -438907.7, -556607.06, -51741.117, -0.01866152, 0.21971312, -419396.47, -72902.41, 0.0, 10.000062, 9.998499 
1.10506155e+3, 2.7464387e+2, -339089.8, -456711.22, -27463.021, 0.005369334, 0.19863114, -332993.53, -84482.42, 0.0, 10.000071, 9.998507 
1.1050681e+3, 2.8464258e+2, -220067.44, -309001.2, -8745.645, 0.005448218, 0.20300618, -219215.56, -68691.984, 0.0, 10.000044, 9.998862 
1.1050746e+3, 2.9464176e+2, -128279.77, -209157.0, -25349.26, -0.020200739, 0.22892453, -120991.39, -68460.65, 0.0, 9.99998, 9.998905 
1.10508166e+3, 3.0464032e+2, -63833.516, -90326.62, -3018.424, -0.026932994, 0.16883737, -63493.97, -63493.97, 0.0, 9.999817, 9.999466 
1.10508926e+3, 3.1464016e+2, -91724.914, -85711.18, -3147.189, -0.013612409, 0.20407096, -84365.336, -84365.336, 0.0, 9.999547, 9.999628 
1.114958e+3, 1.24648675e+2, -1675142.3, -1711311.8, -58415.45, -0.13071153, 0.15328944, -1632076.3, 86381.74, 0.00092609524, 10.000348, 9.999853 
1.11496754e+3, 1.3464826e+2, -1538597.6, -1591564.1, 46185.44, -0.006070605, 0.12179072, -1511841.3, 108618.445, 0.00044726714, 10.000586, 9.999895 
1.1149752e+3, 1.4464793e+2, -1486032.9, -1595293.0, -1668.6526, -0.04543943, 0.13479133, -1486007.4, 36455.18, 0.00012295434, 10.000625, 9.999172 
1.11498244e+3, 1.546472e+2, -1419584.3, -1513397.0, -31629.854, -0.04321485, 0.14450517, -1409916.3, 14554.921, 0.000008505592, 10.000414, 9.999163 
1.1149895e+3, 1.646465e+2, -1299404.4, -1357526.6, -47216.21, -0.034350116, 0.13828963, -1273022.6, 53455.656, 0.0000000033697685, 10.000363, 9.999583 
1.1149967e+3, 1.7464584e+2, -1175456.0, -1242360.4, -38719.863, -0.02498829, 0.10938953, -1157739.1, 70744.06, 0.0, 10.00052, 9.999625 
1.11500345e+3, 1.8464531e+2, -1103045.1, -1196235.1, -47093.36, -0.022141412, 0.111464925, -1083391.5, 47096.445, 0.0, 10.000512, 9.999274 
1.11500986e+3, 1.9464493e+2, -1031833.8, -1110252.8, -34098.305, -0.023575144, 0.14286348, -1019081.0, 13411.443, 0.0, 10.000325, 9.999282 
1.1150165e+3, 2.0464417e+2, -969060.5, -1067283.3, -43947.06, -0.018677158, 0.15788543, -952268.4, -17767.436, 0.0, 10.000246, 9.998943 
1.115023e+3, 2.1464303e+2, -863935.6, -964644.9, -65061.484, -0.0072878175, 0.1465235, -832018.8, 4495.2646, 0.0, 10.00029, 9.998954 
1.11502945e+3, 2.2464216e+2, -748980.1, -842662.1, -53798.3, -0.0056433408, 0.15689825, -724488.56, 14035.225, 0.0, 10.000339, 9.999095 
1.11503586e+3, 2.3464158e+2, -641444.1, -737003.2, -20653.0, -0.014423391, 0.18680643, -637171.44, 3357.8635, 0.0, 10.00039, 9.999123 
1.1150423e+3, 2.4464057e+2, -603725.94, -750224.94, -23398.576, -0.01681716, 0.21004625, -600079.5, -57539.01, 0.0, 10.000331, 9.998387 
1.1150487e+3, 2.5463906e+2, -531683.7, -665027.75, -50266.363, -0.0121198585, 0.21728034, -514858.0, -70299.83, 0.0, 10.000154, 9.9983835 
1.1150551e+3, 2.6463768e+2, -395776.66, -467631.7, -51284.61, -0.013780298, 0.20801193, -369087.1, -22514.988, 0.0, 10.000065, 9.999108 
1.1150614e+3, 2.7463654e+2, -293694.4, -361241.03, -26486.633, -0.022739865, 0.1766847, -284547.1, -35965.87, 0.0, 10.000066, 9.999166 
1.1150679e+3, 2.846356e+2, -248242.5, -365693.88, -10772.207, -0.019217478, 0.1987091, -247262.69, -96672.52, 0.0, 10.000036, 9.998477 
1.1150747e+3, 2.946348e+2, -157611.95, -271166.88, -25940.326, -0.0014461626, 0.2693561, -151966.81, -99367.39, 0.0, 9.999984, 9.998478 
1.1150817e+3, 3.04633e+2, -57657.72, -79328.0, -12036.016, -0.0010900568, 0.19050115, -52298.23, -52298.23, 0.0, 9.999825, 9.999538 
1.11508876e+3, 3.1463256e+2, -80861.59, -62262.625, -11506.01, -0.01912283, 0.18779261, -56767.9, -56767.9, 0.0, 9.999542, 9.999791 
1.1249586e+3, 1.2464095e+2, -1634266.1, -1706547.4, -39398.27, -0.11809429, 0.12358122, -1616943.1, 101588.52, 0.0010446907, 10.000694, 9.999719 
1.1249682e+3, 1.3464059e+2, -1491002.4, -1581832.4, 36832.45, -0.015037092, 0.10983372, -1477943.9, 142589.83, 0.0005132032, 10.00097, 9.999777 
1.1249757e+3, 1.4464022e+2, -1439019.5, -1577033.8, -27685.75, -0.07634562, 0.12867695, -1433672.9, 88864.26, 0.00014641856, 10.000967, 9.999132 
1.12498306e+3, 1.5463932e+2, -1391911.0, -1504693.8, -16470.363, -0.032053612, 0.12328757, -1389555.0, 34992.31, 0.00001150662, 10.000623, 9.999122 
1.1249901e+3, 1.646386e+2, -1289344.6, -1360460.9, -3773.5537, -0.018891264, 0.121528484, -1289145.0, 37409.684, 0.0000000061074554, 10.0004635, 9.999516 
1.1249969e+3, 1.7463815e+2, -1179575.1, -1251848.6, -16342.258, -0.050683286, 0.119755976, -1176051.6, 52506.902, 0.0, 10.0005245, 9.999558 
1.1250037e+3, 1.8463764e+2, -1093367.0, -1178218.9, -51600.066, -0.051732834, 0.120918706, -1068990.8, 61572.418, 0.0, 10.000522, 9.9993925 
1.1250104e+3, 1.9463703e+2, -1005181.94, -1083572.8, -55879.793, -0.014792325, 0.11778096, -976121.7, 56447.27, 0.0, 10.000448, 9.999406 
1.12501696e+3, 2.046363e+2, -954196.7, -1068629.9, -51794.598, 0.0012279606, 0.13264166, -934235.44, 341.69666, 0.0, 10.000385, 9.998866 
1.1250232e+3, 2.1463546e+2, -862089.44, -973106.9, -36933.043, -0.0080108, 0.16115129, -850925.3, -14337.141, 0.0, 10.000343, 9.99887 
1.12502955e+3, 2.2463466e+2, -748394.56, -823411.3, -30780.576, -0.014718965, 0.17438045, -737381.56, 1215.6532, 0.0, 10.00026, 9.999265 
1.125036e+3, 2.3463388e+2, -666156.06, -728525.0, -49871.477, -0.018322002, 0.16534172, -638521.9, 2081.9736, 0.0, 10.0001335, 9.999304 
1.1250425e+3, 2.4463284e+2, -635047.5, -762684.7, -55084.5, -0.017333113, 0.17553987, -614562.4, -71947.516, 0.0, 10.000106, 9.998409 
1.12504885e+3, 2.546315e+2, -525660.4, -660194.7, -28248.94, -0.011348621, 0.19922887, -519969.53, -75338.375, 0.0, 10.000188, 9.998401 
1.1250552e+3, 2.6463032e+2, -385376.4, -456123.4, -23922.33, -0.013317756, 0.20398946, -378046.72, -31403.043, 0.0, 10.00011, 9.999166 
1.1250613e+3, 2.7462932e+2, -321775.13, -368648.3, -44755.766, -0.024428606, 0.18441431, -294690.9, -46039.543, 0.0, 9.999846, 9.99922 
1.1250678e+3, 2.846284e+2, -285072.6, -379002.44, -30468.68, -0.020515915, 0.20247662, -276054.97, -125394.805, 0.0, 9.9997635, 9.998517 
1.1250747e+3, 2.946274e+2, -166323.58, -270882.06, -12582.806, 0.0013724987, 0.25112984, -164830.66, -112159.81, 0.0, 9.999907, 9.998517 
1.1250816e+3, 3.0462542e+2, -54464.805, -97262.22, 1382.6946, 0.0028305508, 0.16136639, -54420.18, -54420.18, 0.0, 9.999931, 9.999364 
1.1250885e+3, 3.146253e+2, -49449.227, -56688.453, -18762.174, -0.014444231, 0.20549563, -33960.707, -33960.707, 0.0, 9.9998, 9.999705 
1.1349597e+3, 1.2463362e+2, -1675302.1, -1789810.8, -35571.215, -0.08275016, 0.11216958, -1665151.9, 53448.508, 0.001174958, 10.000689, 9.999149 
1.134969e+3, 1.3463278e+2, -1531417.4, -1665198.0, 47600.527, -0.03382702, 0.10718798, -1516209.4, 104400.99, 0.00058639556, 10.000968, 9.999207 
1.1349759e+3, 1.4463231e+2, -1404827.5, -1505355.0, -39977.055, -0.14035271, 0.1200531, -1390868.1, 131747.22, 0.00017311395, 10.000964, 9.999626 
1.1349834e+3, 1.546316e+2, -1354162.4, -1426878.4, -29282.3, -0.051742494, 0.0832725, -1343836.9, 80783.76, 0.000015247707, 10.000625, 9.999655 
1.1349906e+3, 1.6463114e+2, -1311510.0, -1406531.1, -2926.27, -0.02129804, 0.09451366, -1311419.9, 15205.052, 0.000000009421829, 10.0004635, 9.999199 
1.1349973e+3, 1.7463097e+2, -1204132.1, -1302975.1, -14336.645, -0.06407882, 0.1548046, -1202094.6, 26533.666, 0.0, 10.0005245, 9.9992075 
1.135004e+3, 1.8463017e+2, -1100542.6, -1193200.4, -55295.137, -0.06334148, 0.15174198, -1074733.3, 55903.445, 0.0, 10.000522, 9.99929 
1.1350109e+3, 1.9462867e+2, -1011574.25, -1096713.9, -59324.91, -0.011185446, 0.06884762, -981126.0, 51524.99, 0.0, 10.000447, 9.999316 
1.13501735e+3, 2.0462807e+2, -927645.4, -1013561.5, -54644.473, 0.004274165, 0.08091924, -901095.06, 33562.426, 0.0, 10.000384, 9.999245 
1.13502346e+3, 2.146285e+2, -834391.44, -915795.0, -39063.19, -0.022843929, 0.19660328, -818678.94, 17976.064, 0.0, 10.000343, 9.999264 
1.13502964e+3, 2.246278e+2, -781041.75, -891054.4, -36604.105, -0.027375793, 0.22253713, -769975.7, -31312.441, 0.0, 10.000259, 9.9988 
1.1350363e+3, 2.3462577e+2, -701065.5, -800855.25, -54837.02, -0.005616646, 0.13831255, -676821.3, -36137.4, 0.0, 10.0001335, 9.998808 
1.13504276e+3, 2.4462453e+2, -587030.56, -662955.2, -52560.293, -0.002034616, 0.12035536, -560156.75, -17459.992, 0.0, 10.000105, 9.999095 
1.13504894e+3, 2.546242e+2, -475242.25, -554098.5, -24832.291, -0.019153714, 0.17233843, -468074.03, -23373.563, 0.0, 10.000181, 9.999132 
1.1350552e+3, 2.6462346e+2, -420052.0, -526387.8, -32936.875, -0.019730814, 0.20876017, -410676.63, -63968.273, 0.0, 10.000102, 9.998687 
1.1350614e+3, 2.7462232e+2, -357606.72, -444534.5, -53129.074, -0.0014570055, 0.22224264, -332428.0, -83707.125, 0.0, 9.999852, 9.998696 
1.1350677e+3, 2.8462103e+2, -253946.2, -316495.63, -25348.889, 0.0005831115, 0.21488363, -244963.33, -94230.31, 0.0, 9.999772, 9.998942 
1.1350745e+3, 2.9461962e+2, -135562.89, -204442.61, -6320.608, -0.014915401, 0.17358494, -134987.7, -82242.766, 0.0, 9.999894, 9.998979 
1.1350813e+3, 3.0461767e+2, -83959.82, -154538.9, -2577.6638, -0.018270304, 0.08087589, -83865.805, -83865.805, 0.0, 9.999914, 9.998979 
1.13508835e+3, 3.146185e+2, -68810.57, -98806.83, -20830.07, -0.003473905, 0.26455036, -58140.902, -58140.902, 0.0, 9.999807, 9.999413 
1.144961e+3, 1.24626234e+2, -1536290.9, -1737242.9, -53799.652, -0.078979775, 0.100932345, -1522793.9, 195877.8, 0.0013167423, 10.001707, 9.99902 
1.14497e+3, 1.346253e+2, -1576148.9, -1698168.0, 66675.72, -0.024171572, 0.096902795, -1546782.5, 73900.59, 0.0006665531, 10.000708, 9.999107 
1.1449765e+3, 1.4462483e+2, -1472574.1, -1534047.8, 1226.3512, -0.16364092, 0.11383732, -1472549.6, 50138.297, 0.00020295075, 10.000482, 9.999662 
1.14498414e+3, 1.546242e+2, -1273703.1, -1383419.4, -25298.354, -0.073763385, 0.07755744, -1268150.9, 156541.56, 0.000019742625, 10.001158, 9.999697 
1.1449912e+3, 1.646237e+2, -1210322.4, -1367868.6, -26807.613, -0.032464996, 0.086634256, -1205885.8, 120811.34, 0.000000013934886, 10.001202, 9.999109 
1.1449979e+3, 1.7462336e+2, -1212674.6, -1318314.4, -20304.846, -0.05584432, 0.14085571, -1208906.3, 19795.998, 0.0, 10.000513, 9.999108 
1.1450045e+3, 1.8462254e+2, -1143015.3, -1216974.0, -33537.5, -0.05533916, 0.14339566, -1130072.4, 638.7592, 0.0, 10.000245, 9.999261 
1.14501126e+3, 1.9462122e+2, -1008635.7, -1098171.9, -32819.23, -0.025711326, 0.08006763, -997894.5, 34829.535, 0.0, 10.000481, 9.9992895 
1.1450176e+3, 2.0462058e+2, -897897.9, -989938.1, -41863.094, -0.013451873, 0.08795301, -881705.75, 53024.813, 0.0, 10.00055, 9.999327 
1.1450238e+3, 2.1462078e+2, -816790.5, -897403.4, -50563.883, -0.022568068, 0.17211132, -792433.8, 44295.785, 0.0, 10.0004225, 9.999351 
1.14503e+3, 2.2462009e+2, -778264.1, -893961.8, -45863.816, -0.020913864, 0.19589612, -762289.0, -23551.156, 0.0, 10.0002985, 9.998761 
1.1450365e+3, 2.3461834e+2, -697393.7, -804147.94, -30688.518, -0.007217659, 0.14283857, -689200.5, -48443.88, 0.0, 10.000181, 9.998762 
1.14504285e+3, 2.4461725e+2, -587502.1, -641494.25, -26883.041, -0.0037931015, 0.13393024, -576399.8, -33631.906, 0.0, 10.000009, 9.999288 
1.145049e+3, 2.5461695e+2, -520191.63, -553275.75, -39751.996, -0.011764722, 0.17047203, -493677.2, -48906.81, 0.0, 9.999776, 9.999332 
1.14505515e+3, 2.646162e+2, -471722.97, -560722.56, -50509.46, -0.007986043, 0.19424482, -448906.8, -102128.21, 0.0, 9.999788, 9.998603 
1.1450614e+3, 2.746148e+2, -329783.78, -441578.2, -39456.633, 0.0082531925, 0.19738235, -317260.78, -68467.33, 0.0, 10.000091, 9.998602 
1.1450677e+3, 2.846136e+2, -209525.05, -287986.22, -15036.542, 0.00417239, 0.19818415, -206742.1, -55936.93, 0.0, 10.000049, 9.999004 
1.1450741e+3, 2.9461256e+2, -176109.28, -217272.69, -25436.54, -0.021144766, 0.18616535, -163970.6, -111156.95, 0.0, 9.999587, 9.99904 
1.1450809e+3, 3.0461046e+2, -147000.1, -190151.11, -12837.965, -0.023228295, 0.081034146, -143469.5, -143469.5, 0.0, 9.999505, 9.998931 
1.1450884e+3, 3.1461102e+2, -49187.836, -77504.38, -7659.402, 0.00922321, 0.2415663, -47248.81, -47248.81, 0.0, 9.999895, 9.999516 
1.15496226e+3, 1.24618866e+2, -1515604.1, -1691904.0, -91909.984, -0.11290912, 0.09197422, -1476404.8, 242339.9, 0.0014692028, 10.0016985, 9.999334 
1.15497105e+3, 1.3461821e+2, -1549824.9, -1643613.8, 29273.316, 0.012131068, 0.077310875, -1541438.0, 79313.01, 0.00075311697, 10.000708, 9.999482 
1.15497716e+3, 1.4461787e+2, -1501819.0, -1595133.8, 23646.387, -0.14691998, 0.10869973, -1496169.0, 26585.389, 0.000235787, 10.000482, 9.999243 
1.154985e+3, 1.5461713e+2, -1305414.6, -1449138.9, 280.6864, -0.10004082, 0.107449606, -1305414.1, 119347.79, 0.000024990082, 10.001157, 9.999247 
1.1549923e+3, 1.6461627e+2, -1201094.3, -1348574.1, -51630.246, -0.054878823, 0.09926647, -1184816.0, 141954.39, 0.000000023716384, 10.001202, 9.999242 
1.1549987e+3, 1.7461534e+2, -1201774.4, -1295529.6, -46746.605, -0.027085919, 0.0781462, -1182449.6, 46330.277, 0.0, 10.000512, 9.999266 
1.155005e+3, 1.8461479e+2, -1140172.4, -1211339.8, -26955.447, -0.029282624, 0.09575761, -1131115.4, -329.65036, 0.0, 10.000245, 9.999299 
1.15501136e+3, 1.9461468e+2, -1006066.25, -1093313.5, -24335.932, -0.060275737, 0.15090315, -999737.3, 33050.19, 0.0, 10.000483, 9.999323 
1.15501784e+3, 2.0461392e+2, -913065.56, -1021574.5, -47384.617, -0.054320693, 0.153412, -895286.3, 39509.418, 0.0, 10.00055, 9.99911 
1.1550243e+3, 2.146124e+2, -832724.9, -930241.56, -56195.39, -0.007231816, 0.08811703, -807083.6, 29727.791, 0.0, 10.000422, 9.999126 
1.15503065e+3, 2.2461158e+2, -751664.4, -838328.3, -51402.973, 0.0043849964, 0.09464364, -727766.0, 11054.407, 0.0, 10.000298, 9.999144 
1.1550365e+3, 2.346116e+2, -669240.8, -745378.8, -35329.863, -0.024559557, 0.17882413, -655372.8, -14551.343, 0.0, 10.000179, 9.9991665 
1.1550426e+3, 2.4461107e+2, -608458.5, -684368.4, -35688.254, -0.024860073, 0.21648723, -594315.2, -51487.3, 0.0, 10.000006, 9.998996 
1.155049e+3, 2.5460985e+2, -541923.06, -599542.2, -48054.535, 0.008944414, 0.19304688, -514703.8, -69863.41, 0.0, 9.999781, 9.999013 
1.1550553e+3, 2.6460847e+2, -451098.28, -519002.3, -39867.348, 0.020204527, 0.1593426, -432684.8, -85830.66, 0.0, 9.999792, 9.998887 
1.1550615e+3, 2.746069e+2, -309650.25, -397440.53, -27576.916, 0.0036648663, 0.11036384, -301706.5, -52837.625, 0.0, 10.00008, 9.99891 
1.1550676e+3, 2.8460613e+2, -229396.55, -326088.9, -30415.137, -0.010856985, 0.1530781, -220625.0, -69748.68, 0.0, 10.000034, 9.99875 
1.1550737e+3, 2.9460627e+2, -194479.63, -257526.2, -40374.047, -0.022147834, 0.2874348, -174780.06, -121903.82, 0.0, 9.999596, 9.998759 
1.1550806e+3, 3.046039e+2, -130655.4, -159232.5, 1112.1327, -0.016139125, 0.1600386, -130612.19, -130612.19, 0.0, 9.9995165, 9.999139 
1.1550884e+3, 3.1460294e+2, -21400.25, -17997.918, 8444.735, 0.02070543, 0.14368226, -11084.705, -11084.705, 0.0, 9.999886, 9.99993 
1.1649634e+3, 1.2461179e+2, -1648905.8, -1750170.1, -77197.73, -0.12608893, 0.09539253, -1607217.3, 111597.125, 0.0016317561, 10.000757, 9.999388 
1.1649724e+3, 1.3461113e+2, -1403483.9, -1561542.9, 21854.91, 0.032653075, 0.070260614, -1400517.6, 220302.1, 0.00084588735, 10.001661, 9.999587 
1.16497815e+3, 1.4461078e+2, -1341656.5, -1538603.6, 10437.401, -0.14771594, 0.10347133, -1341104.9, 181718.17, 0.00027161013, 10.001671, 9.999059 
1.1649858e+3, 1.5460993e+2, -1394450.6, -1514161.5, 5279.562, -0.10017469, 0.114091635, -1394218.3, 30613.969, 0.000031011183, 10.00064, 9.99905 
1.16499305e+3, 1.64609e+2, -1322273.5, -1398834.8, -33921.63, -0.055732533, 0.10187472, -1309406.5, 17435.373, 0.00000004774233, 10.000335, 9.999314 
1.1649992e+3, 1.746079e+2, -1139447.5, -1256285.3, -35138.383, -0.033947084, 0.057639733, -1129694.0, 99157.76, 0.0, 10.000901, 9.999347 
1.16500564e+3, 1.8460734e+2, -1033050.3, -1163933.8, -21838.752, -0.0360602, 0.071482755, -1029502.5, 101354.86, 0.0, 10.0009985, 9.999262 
1.1650118e+3, 1.9460739e+2, -998787.75, -1094371.0, -25371.87, -0.060126137, 0.14624329, -992470.5, 40387.523, 0.0, 10.000552, 9.999282 
1.16501816e+3, 2.0460664e+2, -951399.3, -1049096.6, -43511.44, -0.053044755, 0.15602563, -934830.56, 35.926987, 0.0, 10.000327, 9.999028 
1.16502464e+3, 2.1460496e+2, -845833.0, -946150.2, -41922.99, -0.0119777275, 0.08304631, -830620.2, 6263.8696, 0.0, 10.000372, 9.999041 
1.1650309e+3, 2.2460414e+2, -736105.4, -813856.6, -43034.125, -0.0013008043, 0.08583684, -716987.44, 21905.54, 0.0, 10.000331, 9.999295 
1.1650366e+3, 2.3460434e+2, -656948.2, -721206.8, -46723.668, -0.025098259, 0.17191574, -632373.06, 8518.692, 0.0, 10.000186, 9.999329 
1.1650426e+3, 2.4460386e+2, -606837.5, -699343.6, -51267.48, -0.021690587, 0.21340017, -584042.0, -41144.32, 0.0, 10.000086, 9.998854 
1.1650489e+3, 2.5460255e+2, -515232.13, -603780.44, -51462.215, 0.012482919, 0.19460845, -491619.9, -46707.688, 0.0, 10.000039, 9.998859 
1.1650552e+3, 2.6460114e+2, -418845.94, -479029.03, -33434.07, 0.020227183, 0.15742597, -403955.94, -57030.07, 0.0, 9.999909, 9.9991045 
1.1650613e+3, 2.7459967e+2, -352794.84, -393016.63, -26967.602, -0.0021908544, 0.097143225, -339264.97, -90326.9, 0.0, 9.999674, 9.999137 
1.1650675e+3, 2.8459898e+2, -298296.5, -376475.5, -34030.51, -0.011150791, 0.13967797, -285558.75, -134613.69, 0.0, 9.999635, 9.998596 
1.1650736e+3, 2.9459903e+2, -170975.83, -265094.9, -38594.46, -0.0047715255, 0.28392386, -157173.78, -104226.63, 0.0, 9.99984, 9.998589 
1.1650803e+3, 3.045966e+2, -91979.54, -133001.42, 4774.652, -0.0016653398, 0.15284257, -91431.13, -91431.13, 0.0, 9.999751, 9.999206 
1.1650879e+3, 3.145957e+2, -91129.9, -21922.877, 2934.4526, 0.013784211, 0.13688096, -21798.676, -21798.676, 0.0, 9.999278, 10.000197 
1.1749642e+3, 1.2460508e+2, -1665247.4, -1782660.1, -43305.38, -0.118713915, 0.113363355, -1651003.1, 67877.02, 0.0018049687, 10.0007515, 9.999167 
1.17497414e+3, 1.3460414e+2, -1415160.3, -1585731.1, 56137.62, 0.03454899, 0.07712905, -1398342.6, 222545.75, 0.0009453062, 10.00166, 9.999422 
1.1749796e+3, 1.4460362e+2, -1338622.5, -1531857.4, -26500.068, -0.16923815, 0.09972008, -1335054.1, 187839.02, 0.0003105983, 10.001669, 9.999105 
1.1749868e+3, 1.5460272e+2, -1390306.6, -1505049.5, -33877.156, -0.07584628, 0.09725789, -1381051.3, 43851.563, 0.000037854974, 10.000638, 9.999112 
1.1749935e+3, 1.6460189e+2, -1321677.6, -1398210.4, -15685.524, -0.03683776, 0.09341563, -1318587.5, 8323.296, 0.00000010132158, 10.000337, 9.999319 
1.1749998e+3, 1.7460112e+2, -1139039.1, -1255824.0, -13911.483, -0.07742048, 0.07918921, -1137404.9, 91512.555, 0.0, 10.000902, 9.999351 
1.17500626e+3, 1.8460028e+2, -1041025.0, -1180352.1, -38301.39, -0.07769174, 0.07166476, -1031190.06, 99735.336, 0.0, 10.0009985, 9.999149 
1.1750128e+3, 1.945994e+2, -1007313.5, -1111735.4, -42876.992, -0.025682377, 0.06716901, -991964.0, 40970.902, 0.0, 10.00055, 9.999163 
1.1750189e+3, 2.0459881e+2, -947668.25, -1041494.3, -43621.336, -0.010522861, 0.096059054, -930521.5, 4420.66, 0.0, 10.000327, 9.99908 
1.1750248e+3, 2.1459852e+2, -841843.6, -937767.3, -40706.305, -0.03876294, 0.15538737, -826898.06, 10048.988, 0.0, 10.000371, 9.999099 
1.1750308e+3, 2.2459781e+2, -742549.0, -826774.44, -49225.063, -0.040537287, 0.16877851, -719880.6, 19074.523, 0.0, 10.000328, 9.999208 
1.17503695e+3, 2.345966e+2, -663015.1, -734208.06, -52586.027, -0.009710364, 0.12258557, -635110.44, 5856.43, 0.0, 10.000187, 9.999239 
1.175043e+3, 2.4459568e+2, -606251.75, -698095.25, -53771.656, 0.0047408124, 0.12497734, -581461.4, -38484.48, 0.0, 10.000086, 9.998862 
1.1750488e+3, 2.5459507e+2, -515237.4, -602540.25, -52856.086, -0.0010535502, 0.17559047, -490338.03, -45352.72, 0.0, 10.000033, 9.998871 
1.1750548e+3, 2.6459423e+2, -407949.53, -455326.9, -41294.652, -0.0077551124, 0.1886714, -384031.47, -37038.12, 0.0, 9.999904, 9.999271 
1.1750608e+3, 2.7459323e+2, -340179.3, -367590.2, -34388.098, -0.014828576, 0.15587038, -316866.1, -67865.53, 0.0, 9.999677, 9.9993105 
1.1750671e+3, 2.8459215e+2, -305252.38, -391768.8, -26681.16, -0.0029497189, 0.15606384, -297685.8, -146674.81, 0.0, 9.999638, 9.99849 
1.1750738e+3, 2.945909e+2, -180140.53, -282327.38, -30329.371, 0.031275544, 0.17830266, -171816.72, -118790.57, 0.0, 9.999832, 9.998475 
1.1750803e+3, 3.0458853e+2, -93321.68, -133433.08, -10869.731, 0.021607058, 0.061900247, -90565.49, -90565.49, 0.0, 9.999741, 9.999208 
1.1750868e+3, 3.145894e+2, -75546.7, 9757.229, -10909.789, -0.020589802, 0.22351556, 11130.411, 11130.411, 0.0, 9.999281, 10.000413 
1.1849657e+3, 1.2459807e+2, -1512764.9, -1721445.6, -49993.34, -0.10558447, 0.11932245, -1501406.3, 217542.66, 0.001990702, 10.001855, 9.999055 
1.1849756e+3, 1.3459705e+2, -1506880.8, -1636360.5, 53999.45, 0.047682274, 0.081098944, -1487316.5, 133641.84, 0.0010523666, 10.001057, 9.999366 
1.1849807e+3, 1.4459649e+2, -1456418.6, -1581315.5, -34836.65, -0.18694499, 0.09910801, -1447359.0, 75604.53, 0.00035315592, 10.00083, 9.999169 
1.18498765e+3, 1.5459563e+2, -1287596.6, -1447725.1, -42586.113, -0.07855241, 0.09398342, -1276975.4, 147996.64, 0.000045623692, 10.001309, 9.999182 
1.18499435e+3, 1.645948e+2, -1190389.6, -1348191.9, -18605.664, -0.034756433, 0.09245907, -1188225.6, 138754.28, 0.00000019883093, 10.001294, 9.999201 
1.1850005e+3, 1.74594e+2, -1177559.0, -1288121.1, -26634.309, -0.08407522, 0.08807012, -1171477.3, 57509.906, 0.0, 10.000697, 9.999228 
1.1850069e+3, 1.8459307e+2, -1121975.3, -1222793.4, -56678.914, -0.082519576, 0.07811527, -1096532.0, 34464.293, 0.0, 10.000458, 9.999118 
1.1850134e+3, 1.94592e+2, -994753.94, -1108860.4, -55332.03, -0.016878191, 0.055836096, -972329.44, 60678.15, 0.0, 10.000649, 9.999135 
1.18501954e+3, 2.045914e+2, -893866.2, -1007093.0, -49288.13, -0.003021273, 0.08299389, -875417.0, 59597.58, 0.0, 10.000659, 9.999157 
1.18502505e+3, 2.1459137e+2, -823787.0, -919120.2, -45075.547, -0.051029153, 0.16027434, -805849.4, 31167.146, 0.0, 10.000454, 9.999186 
1.18503086e+3, 2.2459066e+2, -759217.7, -843102.25, -54856.0, -0.053434644, 0.17415342, -732106.8, 6917.5693, 0.0, 10.000251, 9.999133 
1.1850371e+3, 2.3458916e+2, -688646.7, -755728.0, -58182.438, -0.0019521232, 0.10747142, -655029.5, -13990.378, 0.0, 10.000051, 9.999157 
1.1850431e+3, 2.4458821e+2, -619827.0, -687934.9, -49606.676, 0.017062495, 0.1043155, -593710.4, -50661.043, 0.0, 9.99992, 9.999012 
1.1850488e+3, 2.545879e+2, -527168.56, -590665.8, -38645.44, -0.0017717726, 0.16756925, -508902.72, -63848.26, 0.0, 9.999875, 9.999028 
1.18505456e+3, 2.6458716e+2, -433214.44, -479717.13, -36335.7, -0.0115533415, 0.18731011, -413327.53, -66265.85, 0.0, 9.9997835, 9.999162 
1.1850605e+3, 2.7458602e+2, -353599.72, -387329.88, -52863.582, -0.012087557, 0.1524989, -314976.16, -65904.97, 0.0, 9.999643, 9.999189 
1.1850668e+3, 2.8458494e+2, -302169.8, -368884.84, -35390.785, 0.0005778096, 0.14963251, -286893.7, -135811.9, 0.0, 9.999569, 9.99868 
1.1850735e+3, 2.9458383e+2, -205900.31, -273031.66, -14153.13, 0.030827781, 0.16996752, -203038.45, -149944.0, 0.0, 9.99956, 9.99867 
1.18507996e+3, 3.0458158e+2, -139826.56, -171078.73, -1771.2957, 0.023269203, 0.06114413, -139726.48, -139726.48, 0.0, 9.999487, 9.999071 
1.1850863e+3, 3.1458235e+2, -62148.145, 24240.422, -18521.584, -0.004892892, 0.22242086, 28043.959, 28043.959, 0.0, 9.999338, 10.0004835 
1.1949676e+3, 1.2459081e+2, -1514152.6, -1722368.4, -76559.42, -0.09169682, 0.11276234, -1489032.9, 229987.34, 0.0021913827, 10.001847, 9.999051 
1.1949768e+3, 1.3458991e+2, -1503588.3, -1628778.0, 23526.092, 0.07091719, 0.0823017, -1499313.1, 121715.94, 0.0011682742, 10.001054, 9.999419 
1.1949814e+3, 1.4458944e+2, -1450747.3, -1570022.0, -19601.336, -0.20196323, 0.10158665, -1447608.6, 75424.805, 0.00039982723, 10.000831, 9.999248 
1.19498864e+3, 1.5458873e+2, -1281810.9, -1436486.3, -24455.62, -0.109455034, 0.10460698, -1278036.4, 147002.89, 0.00005450218, 10.001312, 9.999258 
1.1949955e+3, 1.645878e+2, -1207534.3, -1383865.3, -40175.934, -0.05196488, 0.10076535, -1198811.9, 128236.36, 0.00000035173326, 10.001295, 9.998956 
1.19500145e+3, 1.7458662e+2, -1195559.5, -1325370.5, -49478.574, -0.055129025, 0.084484, -1178851.0, 50209.5, 0.0, 10.000696, 9.998972 
1.19500756e+3, 1.8458572e+2, -1118777.1, -1216448.6, -51524.18, -0.05263538, 0.08936651, -1096622.3, 34447.6, 0.0, 10.000459, 9.999161 
1.1950139e+3, 1.9458514e+2, -990605.94, -1100597.3, -48658.363, -0.03534103, 0.11083055, -972170.25, 60905.527, 0.0, 10.00065, 9.999191 
1.1950199e+3, 2.0458442e+2, -886842.06, -992202.3, -57589.203, -0.0327589, 0.11746824, -861472.75, 73610.28, 0.0, 10.000657, 9.99926 
1.1950255e+3, 2.1458355e+2, -816465.8, -904067.94, -53604.29, -0.049031373, 0.099133104, -791042.94, 46048.926, 0.0, 10.000454, 9.9992895 
1.1950314e+3, 2.2458276e+2, -763198.2, -851459.94, -63457.24, -0.040774792, 0.10270971, -730035.1, 9065.141, 0.0, 10.000251, 9.999076 
1.1950372e+3, 2.345821e+2, -693521.6, -765647.5, -65863.79, -0.0024674775, 0.12557955, -654494.1, -13385.948, 0.0, 10.000049, 9.99909 
1.19504295e+3, 2.4458152e+2, -600366.4, -647284.6, -51853.086, 0.014101221, 0.15051001, -566912.6, -23798.049, 0.0, 9.999918, 9.999292 
1.1950487e+3, 2.5458106e+2, -506324.47, -547279.8, -40092.184, 0.006107328, 0.17006208, -481783.03, -36663.797, 0.0, 9.999874, 9.999328 
1.1950546e+3, 2.6457995e+2, -461482.47, -538426.1, -41457.68, 0.004360631, 0.15337089, -443396.2, -96265.68, 0.0, 9.999783, 9.998759 
1.19506046e+3, 2.7457806e+2, -383998.78, -450377.22, -57571.29, 0.007979356, 0.08935592, -350735.2, -101585.695, 0.0, 9.999642, 9.998757 
1.1950664e+3, 2.8457737e+2, -265797.25, -293332.53, -35224.91, 0.00162722, 0.121772215, -241745.02, -90588.055, 0.0, 9.999568, 9.999199 
1.1950726e+3, 2.9457796e+2, -168218.75, -193330.95, -12381.229, -0.014680998, 0.25450638, -163141.06, -109989.34, 0.0, 9.999554, 9.99922 
1.1950791e+3, 3.045758e+2, -165774.72, -223972.69, -6385.8384, -0.00671396, 0.14686418, -165082.27, -165082.27, 0.0, 9.999481, 9.998711 
1.1950863e+3, 3.1457454e+2, -74163.984, -1114.5321, -22329.383, 0.061516635, 0.14641917, 5170.2847, 5170.2847, 0.0, 9.99934, 10.00031 
1.2049692e+3, 1.24583684e+2, -1596373.1, -1774485.5, -51485.54, -0.08882788, 0.0897735, -1582561.6, 136527.6, 0.0024090873, 10.001337, 9.998939 
1.2049783e+3, 1.3458312e+2, -1421983.8, -1596381.5, 31447.05, 0.08359817, 0.09740054, -1416486.6, 204609.36, 0.0012942023, 10.001644, 9.999357 
1.20498255e+3, 1.4458257e+2, -1338852.5, -1523997.4, -9015.499, -0.2124392, 0.11662809, -1338414.5, 184686.55, 0.00045114366, 10.001633, 9.999176 
1.20499e+3, 1.5458155e+2, -1288838.1, -1447246.8, -24890.016, -0.10579044, 0.09352307, -1285019.4, 140090.28, 0.00006471426, 10.001297, 9.99919 
1.20499685e+3, 1.6458051e+2, -1242093.8, -1408918.1, -53823.426, -0.041463297, 0.08730908, -1226235.9, 100883.69, 0.00000057087306, 10.001096, 9.9988785 
1.20500244e+3, 1.745795e+2, -1147698.5, -1311476.1, -51168.53, -0.04967015, 0.09607718, -1133026.4, 96104.52, 0.0, 10.001065, 9.998889 
1.2050083e+3, 1.8457866e+2, -1049469.8, -1181767.0, -36667.85, -0.053516828, 0.11045939, -1039986.56, 91153.3, 0.0, 10.000928, 9.999173 
1.2050145e+3, 1.9457802e+2, -987651.8, -1096480.1, -36602.523, -0.043710265, 0.12383782, -976486.7, 56659.137, 0.0, 10.000661, 9.999214 
1.2050204e+3, 2.0457716e+2, -918835.2, -1013453.75, -56400.24, -0.037150063, 0.11724971, -892529.56, 42624.582, 0.0, 10.000464, 9.999207 
1.2050261e+3, 2.1457604e+2, -835114.0, -919612.56, -65308.227, -0.037333485, 0.07977253, -799580.5, 37584.895, 0.0, 10.000354, 9.999231 
1.20503165e+3, 2.2457528e+2, -761838.5, -837662.44, -76634.78, -0.029622853, 0.08504929, -714250.7, 24922.496, 0.0, 10.000202, 9.999195 
1.2050371e+3, 2.3457502e+2, -690655.94, -749375.44, -65519.816, -0.010748675, 0.13424565, -648218.44, -7041.4614, 0.0, 10.000006, 9.999222 
1.2050428e+3, 2.4457449e+2, -617618.75, -659965.4, -51858.535, 0.0053869197, 0.15958321, -582777.6, -39594.977, 0.0, 9.99982, 9.999252 
1.20504856e+3, 2.5457367e+2, -542940.4, -569925.4, -66422.07, 0.01801833, 0.14821357, -488654.28, -43463.68, 0.0, 9.999645, 9.999282 
1.2050543e+3, 2.645725e+2, -480757.94, -545652.75, -60974.168, 0.018093131, 0.12730928, -444135.22, -96932.53, 0.0, 9.999643, 9.998776 
1.20506e+3, 2.745709e+2, -352270.72, -432934.13, -43354.613, 0.0032666805, 0.09111304, -333388.66, -84169.22, 0.0, 9.999851, 9.998777 
1.2050659e+3, 2.8457034e+2, -237101.88, -273609.88, -30890.047, -0.009806397, 0.13435593, -219475.47, -68249.59, 0.0, 9.99974, 9.999251 
1.2050719e+3, 2.945709e+2, -209633.25, -207221.81, -48597.438, -0.020295002, 0.25705928, -159815.14, -106594.12, 0.0, 9.999246, 9.999272 
1.2050785e+3, 3.045689e+2, -219019.08, -256087.36, -36451.96, -0.0060949875, 0.16008858, -196659.94, -196659.94, 0.0, 9.999145, 9.998652 
1.205086e+3, 3.1456742e+2, -40847.69, 30235.496, -24306.379, 0.076404825, 0.14402391, 37752.063, 37752.063, 0.0, 9.999503, 10.000446 
1.2149704e+3, 1.2457681e+2, -1613725.5, -1809561.1, -33330.03, -0.09744339, 0.050567873, -1608208.4, 110946.945, 0.002645014, 10.001332, 9.998701 
1.21497996e+3, 1.3457672e+2, -1434376.5, -1623059.1, 42326.094, 0.08287522, 0.12596998, -1425316.8, 195841.45, 0.0014309159, 10.001646, 9.999173 
1.214984e+3, 1.4457597e+2, -1354087.6, -1555620.0, -21932.197, -0.22207057, 0.14413977, -1351728.4, 171437.58, 0.00050734985, 10.001633, 9.99896 
1.2149917e+3, 1.5457411e+2, -1304073.9, -1478507.8, -37504.316, -0.06830931, 0.060315587, -1296352.0, 128830.555, 0.000076397075, 10.001295, 9.998978 
1.2149983e+3, 1.6457298e+2, -1236790.1, -1397773.1, -56433.47, -0.0049394276, 0.05062994, -1218977.9, 108215.7, 0.0000008702971, 10.001094, 9.998956 
1.2150033e+3, 1.7457269e+2, -1141529.9, -1299180.3, -52690.945, -0.069039345, 0.12274064, -1125540.8, 103657.35, 0.0, 10.001066, 9.998973 
1.21500894e+3, 1.8457197e+2, -1050456.3, -1183618.3, -47364.055, -0.08721844, 0.14359222, -1035328.1, 95877.586, 0.0, 10.000927, 9.999161 
1.2150151e+3, 1.9457068e+2, -988645.7, -1098969.3, -47090.586, -0.042520545, 0.0953999, -971279.2, 61937.887, 0.0, 10.000662, 9.999197 
1.2150211e+3, 2.0456964e+2, -933341.7, -1044105.75, -61972.977, -0.017545868, 0.08115781, -905610.44, 29617.072, 0.0, 10.000466, 9.998995 
1.2150266e+3, 2.1456887e+2, -850813.56, -951762.06, -70120.67, -0.017861757, 0.10056449, -814890.1, 22346.625, 0.0, 10.000351, 9.999013 
1.215032e+3, 2.2456828e+2, -742082.94, -795956.56, -84996.95, -0.02165885, 0.12051591, -679856.56, 59386.266, 0.0, 10.000198, 9.999483 
1.21503696e+3, 2.3456797e+2, -668568.06, -703872.06, -73292.38, -0.028102063, 0.1340708, -610831.94, 30413.182, 0.0, 10.000006, 9.999535 
1.2150425e+3, 2.4456717e+2, -641993.94, -711273.5, -58987.75, -0.010409081, 0.13241445, -608227.06, -64974.047, 0.0, 9.999822, 9.998899 
1.2150484e+3, 2.5456578e+2, -569394.5, -625711.06, -72454.48, 0.03452214, 0.10287561, -519819.0, -74551.055, 0.0, 9.999648, 9.998898 
1.2150541e+3, 2.6456487e+2, -450404.6, -482985.22, -53288.547, 0.030231422, 0.108970374, -410971.97, -63694.26, 0.0, 9.999644, 9.999207 
1.2150595e+3, 2.745646e+2, -320765.25, -365341.5, -34233.52, -0.03214327, 0.1550258, -302203.72, -52922.78, 0.0, 9.999841, 9.999247 
1.2150653e+3, 2.8456393e+2, -269057.88, -338701.63, -47726.69, -0.04056735, 0.18576884, -244800.14, -93511.79, 0.0, 9.999733, 9.998809 
1.2150715e+3, 2.9456276e+2, -242698.38, -277412.34, -66558.836, 0.0154471705, 0.18181494, -191270.61, -137968.72, 0.0, 9.99925, 9.998788 
1.21507786e+3, 3.0456078e+2, -197146.44, -211730.3, -23490.256, 0.026839513, 0.10483865, -179842.34, -179842.34, 0.0, 9.999149, 9.998954 
1.21508494e+3, 3.1456095e+2, -8235.998, 102726.43, -6576.1045, 0.02981132, 0.21643741, 103114.805, 103114.805, 0.0, 9.999483, 10.000954 
1.224972e+3, 1.2457018e+2, -1522939.4, -1780212.6, -33421.33, -0.111140475, 0.05437382, -1518668.6, 200551.42, 0.002898859, 10.002021, 9.998569 
1.22498184e+3, 1.3456993e+2, -1425810.0, -1630635.5, 37813.06, 0.097222224, 0.12399247, -1419052.3, 202172.39, 0.0015783015, 10.001758, 9.999066 
1.2249856e+3, 1.4456901e+2, -1377974.4, -1572171.3, -26943.271, -0.2236586, 0.13470979, -1374305.5, 148928.47, 0.0005682736, 10.0014925, 9.998911 
1.22499295e+3, 1.5456729e+2, -1309172.3, -1486594.3, -31231.947, -0.07135146, 0.067639396, -1303834.9, 121414.97, 0.00008951281, 10.001285, 9.998925 
1.22499935e+3, 1.6456614e+2, -1228977.8, -1390265.3, -36944.617, -0.0068989275, 0.058796443, -1220918.0, 106342.84, 0.0000012652538, 10.00113, 9.998989 
1.2250044e+3, 1.7456575e+2, -1143658.9, -1294958.6, -36828.844, -0.06514893, 0.11518453, -1135170.4, 94095.31, 0.0, 10.00103, 9.999019 
1.22500986e+3, 1.8456495e+2, -1060913.8, -1199596.6, -40869.164, -0.07993201, 0.13150911, -1049765.9, 81507.92, 0.0, 10.000904, 9.999062 
1.2250159e+3, 1.9456364e+2, -982320.44, -1107823.3, -48395.46, -0.038006835, 0.09051801, -965826.25, 67460.125, 0.0, 10.000756, 9.99909 
1.2250216e+3, 2.0456263e+2, -918908.94, -1033031.0, -57041.426, -0.016497277, 0.08458439, -895287.4, 40009.25, 0.0, 10.000546, 9.999033 
1.22502685e+3, 2.14562e+2, -860562.9, -950749.5, -45614.86, -0.019700386, 0.113966756, -841514.75, -4210.8525, 0.0, 10.00026, 9.999062 
1.2250321e+3, 2.2456136e+2, -758541.9, -812886.56, -58206.305, -0.02320944, 0.12850566, -721477.9, 17832.537, 0.0, 10.000126, 9.9994 
1.2250371e+3, 2.3456071e+2, -651571.44, -705886.75, -77552.6, -0.026626365, 0.11861644, -596558.9, 44757.1, 0.0, 10.000166, 9.999443 
1.22504234e+3, 2.4455984e+2, -599184.8, -689633.94, -69374.734, -0.011114175, 0.11274739, -561595.6, -18270.918, 0.0, 10.000112, 9.998908 
1.2250481e+3, 2.5455868e+2, -523064.56, -601327.8, -54254.62, 0.025816808, 0.102428906, -495301.88, -49964.28, 0.0, 9.999958, 9.998916 
1.22505374e+3, 2.645579e+2, -442821.06, -478721.38, -32765.404, 0.020123051, 0.12014776, -423411.1, -76064.88, 0.0, 9.999694, 9.99921 
1.2250591e+3, 2.7455762e+2, -402157.94, -403931.75, -49830.363, -0.03562402, 0.1669634, -353206.6, -103857.03, 0.0, 9.999281, 9.99925 
1.22506484e+3, 2.8455687e+2, -345493.44, -375784.2, -63037.08, -0.03652484, 0.18809672, -295807.8, -144449.8, 0.0, 9.99921, 9.998804 
1.225071e+3, 2.9455546e+2, -197458.7, -256325.84, -46026.734, 0.027780443, 0.16569245, -172259.0, -118885.68, 0.0, 9.999564, 9.998781 
1.2250773e+3, 3.0455378e+2, -162691.58, -190918.06, -1672.4956, 0.033120032, 0.110618606, -162592.83, -162592.83, 0.0, 9.999368, 9.998991 
1.22508384e+3, 3.1455377e+2, -140222.08, 57876.098, -9485.144, 0.020925477, 0.20279676, 58329.22, 58329.22, 0.0, 9.998495, 10.0011215 
1.2349739e+3, 1.2456387e+2, -1525305.5, -1783815.0, -36128.67, -0.13429697, 0.099694125, -1520351.1, 198931.69, 0.0031684104, 10.002016, 9.998546 
1.2349839e+3, 1.345628e+2, -1428031.9, -1635019.9, 27222.28, 0.12648691, 0.09140046, -1424511.5, 196782.8, 0.001735363, 10.001757, 9.999038 
1.23498715e+3, 1.445618e+2, -1370681.6, -1556763.1, -36401.83, -0.21817668, 0.08832991, -1363814.0, 159490.42, 0.00063353236, 10.001491, 9.999019 
1.2349938e+3, 1.5456112e+2, -1301382.5, -1471663.3, -39177.426, -0.11768107, 0.11565695, -1292801.3, 132509.86, 0.00010392506, 10.001288, 9.999027 
1.235e+3, 1.645601e+2, -1228990.4, -1390233.9, -41539.72, -0.050520953, 0.11261887, -1218918.0, 108402.58, 0.0000017603737, 10.00113, 9.99899 
1.2350057e+3, 1.7455871e+2, -1143511.8, -1294953.3, -40752.34, -0.038906924, 0.07265187, -1133241.9, 96091.164, 0.0, 10.00103, 9.99902 
1.2350112e+3, 1.8455766e+2, -1074364.6, -1227550.6, -47661.297, -0.033796363, 0.0719079, -1060746.4, 70597.58, 0.0, 10.000903, 9.99887 
1.2350167e+3, 1.9455694e+2, -996450.25, -1137115.0, -54655.004, -0.03167028, 0.1089705, -977710.6, 55642.563, 0.0, 10.000755, 9.99889 
1.23502195e+3, 2.0455621e+2, -898895.06, -991236.5, -68754.305, -0.034722745, 0.12882559, -862247.4, 73113.44, 0.0, 10.0005455, 9.99932 
1.23502694e+3, 2.1455553e+2, -838572.4, -905471.7, -57052.477, -0.043998685, 0.12063459, -805886.8, 31479.553, 0.0, 10.000261, 9.9993725 
1.2350321e+3, 2.2455458e+2, -789651.5, -878191.75, -58188.105, -0.035897404, 0.10933636, -760807.3, -21431.777, 0.0, 10.000128, 9.998952 
1.23503745e+3, 2.3455332e+2, -685853.56, -776938.4, -75974.04, -0.00731559, 0.08756713, -642817.4, -1428.3329, 0.0, 10.000165, 9.998957 
1.2350427e+3, 2.4455254e+2, -574556.9, -638195.44, -75254.6, 0.0025118422, 0.09986194, -524671.06, 18726.264, 0.0, 10.000109, 9.999263 
1.2350477e+3, 2.5455233e+2, -495960.75, -544016.5, -59524.3, -0.010723119, 0.14589679, -455797.66, -10398.322, 0.0, 9.999952, 9.999311 
1.2350531e+3, 2.6455155e+2, -472514.3, -540193.1, -47443.984, -0.014830732, 0.16090155, -448078.2, -100670.24, 0.0, 9.999691, 9.998791 
1.2350586e+3, 2.7455002e+2, -433508.75, -470660.13, -64368.703, -0.0075357337, 0.12972243, -385089.03, -135664.14, 0.0, 9.999287, 9.99879 
1.2350644e+3, 2.8454918e+2, -314143.88, -311728.4, -50392.86, 0.001332768, 0.14356872, -262528.8, -111094.32, 0.0, 9.999215, 9.999242 
1.23507045e+3, 2.9454908e+2, -166317.58, -188130.7, -30763.76, 0.011300794, 0.20483881, -144584.25, -91148.805, 0.0, 9.999549, 9.999257 
1.2350764e+3, 3.0454776e+2, -182896.86, -230223.83, -31256.648, 0.007315017, 0.17460635, -167356.53, -167356.53, 0.0, 9.999354, 9.998729 
1.2350827e+3, 3.1454596e+2, -155220.86, 24964.928, -38753.652, 0.047589507, 0.11902642, 32946.367, 32946.367, 0.0, 9.998502, 10.000893 
1.2449761e+3, 1.2455742e+2, -1475816.0, -1756477.6, -22998.166, -0.13163978, 0.11450433, -1473944.0, 245402.66, 0.0034511252, 10.002345, 9.998574 
1.2449857e+3, 1.3455617e+2, -1405768.4, -1622194.4, 31328.994, 0.13145815, 0.08670825, -1401324.5, 220034.56, 0.0019010409, 10.001901, 9.999055 
1.2449885e+3, 1.4455506e+2, -1360297.0, -1558441.8, -28268.07, -0.23081839, 0.07622777, -1356343.1, 167026.98, 0.0007028683, 10.00159, 9.99896 
1.24499515e+3, 1.5455465e+2, -1274839.6, -1465056.3, -43191.38, -0.12187244, 0.13642505, -1265491.9, 159883.08, 0.00011956255, 10.0015, 9.998969 
1.2450013e+3, 1.6455363e+2, -1193389.9, -1366881.4, -49926.855, -0.047140684, 0.13459115, -1180048.0, 147336.28, 0.0000023468863, 10.001349, 9.999043 
1.24500684e+3, 1.7455195e+2, -1126100.9, -1280422.8, -45763.664, -0.03018484, 0.05721207, -1113550.5, 115848.26, 0.0, 10.001124, 9.999073 
1.2450122e+3, 1.8455084e+2, -1080211.4, -1233071.8, -45779.652, -0.025804088, 0.050735645, -1067549.8, 63860.074, 0.0, 10.0008745, 9.998846 
1.2450174e+3, 1.9455041e+2, -1023882.4, -1153086.5, -40146.105, -0.03059101, 0.12060651, -1012424.4, 20992.588, 0.0, 10.00058, 9.998864 
1.2450225e+3, 2.0454977e+2, -911986.2, -996148.9, -52731.125, -0.03660131, 0.14697497, -886603.4, 48820.777, 0.0, 10.00045, 9.999331 
1.2450273e+3, 2.1454883e+2, -800510.44, -885865.25, -64318.195, -0.046323456, 0.113396, -765998.56, 71433.09, 0.0, 10.000517, 9.999384 
1.2450323e+3, 2.2454779e+2, -758339.0, -869962.75, -65686.14, -0.037688356, 0.09606724, -727955.5, 11486.017, 0.0, 10.000372, 9.998891 
1.2450375e+3, 2.3454665e+2, -716508.44, -797945.1, -52746.23, -0.0067491676, 0.09077602, -690592.4, -49137.945, 0.0, 9.999983, 9.998899 
1.2450426e+3, 2.4454592e+2, -625192.3, -659331.2, -44219.777, 0.0047775693, 0.11067745, -594861.8, -51399.61, 0.0, 9.999749, 9.9992895 
1.2450476e+3, 2.5454572e+2, -532074.1, -558279.25, -56774.07, -0.0071040066, 0.15396924, -486910.3, -41446.39, 0.0, 9.999691, 9.999339 
1.24505274e+3, 2.6454484e+2, -482064.88, -555676.6, -49761.957, -0.008583971, 0.16149843, -456976.28, -109502.71, 0.0, 9.999673, 9.9986925 
1.24505825e+3, 2.7454305e+2, -377089.84, -454825.7, -40946.453, 0.0019994862, 0.11626228, -359501.38, -110008.27, 0.0, 9.9997225, 9.998688 
1.24506384e+3, 2.845422e+2, -265944.53, -275433.84, -23277.137, 0.0056949635, 0.1299801, -246933.4, -95430.71, 0.0, 9.99949, 9.999358 
1.2450696e+3, 2.9454246e+2, -253713.55, -215813.83, -32016.74, 0.0013534075, 0.21081813, -197559.28, -144058.97, 0.0, 9.998887, 9.999384 
1.2450753e+3, 3.0454144e+2, -281124.72, -276871.63, -39928.992, -0.0032956456, 0.20798197, -239012.6, -239012.6, 0.0, 9.998678, 9.998733 
1.2450814e+3, 3.14539e+2, -86898.03, 59534.355, -23145.28, 0.059755653, 0.08108371, 63105.63, 63105.63, 0.0, 9.998963, 10.000907 
1.2549786e+3, 1.2455091e+2, -1471220.3, -1747511.8, -29530.264, -0.10369736, 0.10015738, -1468099.3, 251311.08, 0.0037460001, 10.002347, 9.998635 
1.2549874e+3, 1.3455008e+2, -1401909.4, -1615034.8, 13436.976, 0.108756274, 0.10909753, -1401065.5, 220352.83, 0.0020748412, 10.001904, 9.9991045 
1.2549898e+3, 1.445489e+2, -1375773.9, -1590042.3, -33809.055, -0.26566437, 0.09647244, -1370565.9, 152864.67, 0.00077620865, 10.001588, 9.998744 
1.2549971e+3, 1.5454796e+2, -1289833.4, -1496575.8, -46472.34, -0.084306516, 0.12867521, -1279867.5, 145573.4, 0.00013646827, 10.001501, 9.998754 
1.2550032e+3, 1.6454685e+2, -1186988.5, -1353554.6, -59340.21, 0.00202461, 0.12327206, -1168010.5, 159441.1, 0.0000030208696, 10.0013485, 9.999136 
1.2550078e+3, 1.745455e+2, -1118217.0, -1265070.9, -54672.15, -0.040718812, 0.069713496, -1100098.5, 129363.77, 0.0, 10.001128, 9.999177 
1.2550128e+3, 1.8454458e+2, -1069770.4, -1211679.6, -57591.72, -0.057394408, 0.06930764, -1049339.1, 82131.72, 0.0, 10.000875, 9.998993 
1.255018e+3, 1.9454417e+2, -1013087.56, -1131244.6, -51720.28, -0.036171094, 0.1248797, -993646.9, 39830.18, 0.0, 10.000582, 9.999014 
1.2550229e+3, 2.0454332e+2, -930928.4, -1035591.4, -52071.457, -0.024616823, 0.13753302, -909435.6, 26050.723, 0.0, 10.00045, 9.999062 
1.255028e+3, 2.1454197e+2, -821156.3, -928337.6, -62365.863, -0.027617421, 0.092334725, -792518.9, 44980.313, 0.0, 10.000515, 9.999093 
1.2550327e+3, 2.2454108e+2, -735963.8, -823292.8, -80835.06, -0.02885624, 0.08899524, -687753.94, 51754.004, 0.0, 10.00037, 9.999212 
1.2550373e+3, 2.3454075e+2, -691555.7, -746272.4, -67744.42, -0.02625783, 0.12838405, -645853.9, -4342.156, 0.0, 9.999983, 9.999254 
1.2550423e+3, 2.4454004e+2, -645520.5, -702001.44, -47230.258, -0.0063321497, 0.14553407, -618731.7, -75212.62, 0.0, 9.99975, 9.998998 
1.2550478e+3, 2.545389e+2, -554710.9, -605887.3, -58299.926, 0.034853052, 0.12793778, -516630.9, -71099.99, 0.0, 9.999693, 9.999012 
1.255053e+3, 2.6453778e+2, -467153.9, -524951.8, -47768.453, 0.036882374, 0.12300467, -440223.0, -92680.414, 0.0, 9.999674, 9.998903 
1.2550579e+3, 2.7453673e+2, -361156.97, -420204.7, -37757.62, -0.009425977, 0.12556837, -342750.72, -93196.59, 0.0, 9.999716, 9.998929 
1.255063e+3, 2.8453597e+2, -281717.38, -307134.97, -43840.07, -0.025010161, 0.14637162, -248781.19, -97218.445, 0.0, 9.999484, 9.999145 
1.2550685e+3, 2.9453558e+2, -269435.7, -249833.45, -53615.11, -0.0038350865, 0.18619543, -205130.98, -151563.27, 0.0, 9.998892, 9.999149 
1.255074e+3, 3.045349e+2, -259919.83, -233698.73, -30317.205, -0.0014390541, 0.21313366, -213778.7, -213778.7, 0.0, 9.998682, 9.999027 
1.2550803e+3, 3.1453285e+2, -70844.36, 96652.484, -7789.437, 0.05177739, 0.09482942, 97013.95, 97013.95, 0.0, 9.998947, 10.00117 
1.264981e+3, 1.2454465e+2, -1454788.1, -1749574.8, -4617.861, -0.10725433, 0.07545154, -1454715.9, 264754.44, 0.0040529803, 10.002502, 9.998548 
1.2649894e+3, 1.3454394e+2, -1383939.3, -1619513.1, 12231.274, 0.111540064, 0.11121253, -1383305.9, 238171.4, 0.0022565385, 10.002085, 9.998985 
1.2649915e+3, 1.445426e+2, -1348788.1, -1586082.4, -22081.7, -0.26473248, 0.09248113, -1346750.8, 176740.4, 0.0008535736, 10.001814, 9.998661 
1.2649989e+3, 1.5454136e+2, -1257512.0, -1491291.0, -24591.436, -0.06268968, 0.10072041, -1254953.3, 170551.5, 0.00015477135, 10.001767, 9.998661 
1.2650047e+3, 1.645402e+2, -1157506.5, -1346478.1, -45576.625, 0.019685522, 0.10015608, -1147088.5, 180427.4, 0.0000038088367, 10.001581, 9.999072 
1.2650089e+3, 1.7453918e+2, -1108057.1, -1266572.5, -54287.15, -0.052223723, 0.08551517, -1091247.8, 138276.33, 0.0, 10.001226, 9.999119 
1.2650135e+3, 1.8453829e+2, -1047929.1, -1196607.1, -63056.89, -0.07447051, 0.08813552, -1024787.56, 106744.95, 0.0, 10.001007, 9.999032 
1.2650187e+3, 1.945375e+2, -956643.4, -1099235.3, -65877.14, -0.034509372, 0.1026234, -930867.6, 102673.83, 0.0, 10.00095, 9.999056 
1.2650236e+3, 2.0453657e+2, -894561.9, -1022927.3, -62102.332, -0.01620592, 0.1074251, -869435.44, 66115.85, 0.0, 10.000721, 9.999018 
1.2650284e+3, 2.145355e+2, -858759.5, -951590.06, -54858.652, -0.025329947, 0.09431309, -833314.8, 4247.3765, 0.0, 10.00028, 9.999046 
1.2650329e+3, 2.2453475e+2, -772132.75, -832070.44, -70404.54, -0.028839355, 0.10300175, -725584.06, 13985.817, 0.0, 10.000086, 9.999289 
1.2650374e+3, 2.3453437e+2, -656323.9, -720480.7, -78768.555, -0.024792627, 0.13006651, -603352.2, 38221.504, 0.0, 10.000186, 9.999333 
1.2650423e+3, 2.4453357e+2, -598568.7, -686185.7, -62015.684, -0.0038236014, 0.13596079, -566448.75, -22866.787, 0.0, 10.0001, 9.998938 
1.2650475e+3, 2.5453225e+2, -543403.25, -607368.6, -54814.58, 0.0366092, 0.10841343, -511923.1, -66327.49, 0.0, 9.999801, 9.998949 
1.2650526e+3, 2.6453128e+2, -481416.0, -518484.3, -35263.656, 0.035380807, 0.1151771, -460112.47, -112506.51, 0.0, 9.999518, 9.9990225 
1.2650573e+3, 2.7453077e+2, -421704.34, -435153.78, -34376.152, -0.015623036, 0.15436174, -393401.3, -143788.67, 0.0, 9.999238, 9.999056 
1.2650622e+3, 2.8452986e+2, -346461.38, -352585.16, -46184.973, -0.025827767, 0.1643104, -303236.9, -151614.67, 0.0, 9.999101, 9.999016 
1.2650676e+3, 2.945287e+2, -242874.39, -252797.75, -49760.688, 0.01156704, 0.13897382, -197828.63, -144193.8, 0.0, 9.999143, 9.999008 
1.2650728e+3, 3.0452833e+2, -220052.48, -200250.5, -25188.477, 0.0099562835, 0.19729267, -183086.97, -183086.97, 0.0, 9.998895, 9.999154 
1.2650788e+3, 3.1452683e+2, -164541.95, 53220.625, -15553.034, 0.039637238, 0.12370682, 54325.844, 54325.844, 0.0, 9.998297, 10.0011835 
1.2749831e+3, 1.245387e+2, -1471741.1, -1783187.8, -9483.495, -0.14534236, 0.04174409, -1471452.6, 248072.83, 0.0043717744, 10.002495, 9.998321 
1.2749918e+3, 1.3453788e+2, -1402833.6, -1659274.8, -4160.6147, 0.13958271, 0.09284046, -1402766.1, 218769.02, 0.0024458782, 10.002088, 9.998711 
1.2749937e+3, 1.4453632e+2, -1345638.8, -1580684.0, -25756.68, -0.22919919, 0.06436565, -1342849.4, 180701.88, 0.00093509414, 10.001818, 9.998697 
1.2750006e+3, 1.545349e+2, -1254917.8, -1486975.1, -26503.084, -0.05968823, 0.052998397, -1251929.3, 173636.19, 0.00017466526, 10.00177, 9.99869 
1.2750062e+3, 1.6453378e+2, -1173035.9, -1378579.0, -59259.43, 0.0035681375, 0.06488025, -1157174.9, 170401.8, 0.0000047674703, 10.00158, 9.998853 
1.27501e+3, 1.7453308e+2, -1123579.3, -1299130.6, -68041.03, -0.065827355, 0.10376253, -1100295.8, 129288.02, 0.0, 10.001227, 9.998896 
1.2750146e+3, 1.8453203e+2, -1053159.0, -1207312.1, -66820.766, -0.079570375, 0.105760776, -1028226.7, 103367.69, 0.0, 10.001006, 9.99896 
1.2750198e+3, 1.9453052e+2, -961089.0, -1108763.0, -68508.47, -0.026103724, 0.054676995, -934202.06, 99407.38, 0.0, 10.000951, 9.99899 
1.2750244e+3, 2.0452961e+2, -881853.44, -996873.44, -79043.11, -0.011126264, 0.05751385, -841612.6, 94005.89, 0.0, 10.000722, 9.999196 
1.2750286e+3, 2.1452948e+2, -845387.6, -923872.1, -72010.27, -0.041150298, 0.11898572, -802621.1, 34999.14, 0.0, 10.000279, 9.999238 
1.2750329e+3, 2.2452885e+2, -784315.3, -856886.0, -68574.07, -0.0406162, 0.13760874, -743018.25, -3391.2532, 0.0, 10.000083, 9.99912 
1.2750378e+3, 2.3452759e+2, -669605.6, -748069.3, -75043.26, -0.0031121178, 0.096355185, -624157.94, 17482.023, 0.0, 10.000186, 9.999145 
1.2750424e+3, 2.4452657e+2, -587380.9, -662846.7, -72905.68, 0.0115292445, 0.08256197, -543022.3, 628.10156, 0.0, 10.000099, 9.999099 
1.2750469e+3, 2.5452584e+2, -530676.0, -580664.94, -65488.84, -0.002584551, 0.0954629, -485574.03, -39916.297, 0.0, 9.999799, 9.999134 
1.2750515e+3, 2.6452535e+2, -479627.88, -514744.16, -45219.758, -0.013522723, 0.13729244, -448677.1, -101013.44, 0.0, 9.999517, 9.999049 
1.2750565e+3, 2.7452508e+2, -419900.84, -432175.38, -43725.496, -0.018552978, 0.20262389, -381884.0, -132215.52, 0.0, 9.999241, 9.999076 
1.2750617e+3, 2.8452393e+2, -349204.03, -358568.6, -44520.535, 0.00003802704, 0.18417747, -309120.25, -157439.36, 0.0, 9.999101, 9.998975 
1.2750672e+3, 2.9452178e+2, -247189.81, -259729.77, -46615.36, 0.044498954, 0.07008699, -206424.64, -152723.27, 0.0, 9.999133, 9.998965 
1.275072e+3, 3.045217e+2, -225027.58, -208933.22, -45184.082, 0.029328857, 0.16087762, -171085.33, -171085.33, 0.0, 9.998886, 9.999099 
1.2750769e+3, 3.1452104e+2, -182624.14, 15840.629, -32645.744, 0.019530132, 0.17865285, 21072.645, 21072.645, 0.0, 9.998296, 10.000927 
1.2849857e+3, 1.2453275e+2, -1418514.3, -1769611.0, -8503.359, -0.16006577, 0.01056222, -1418308.5, 301273.2, 0.004702038, 10.002916, 9.99821 
1.2849943e+3, 1.3453186e+2, -1339224.8, -1645085.1, -7242.0854, 0.1515998, 0.069341995, -1339053.4, 282539.34, 0.0026428213, 10.002598, 9.998562 
1.2849958e+3, 1.4453027e+2, -1280825.5, -1544846.1, -17844.098, -0.21951534, 0.043687906, -1279625.0, 243984.36, 0.001020959, 10.002243, 9.998737 
1.2850024e+3, 1.5452899e+2, -1232740.1, -1470805.1, -17214.541, -0.07318066, 0.040645912, -1231501.8, 194119.9, 0.00019628371, 10.001901, 9.998736 
1.2850077e+3, 1.6452785e+2, -1170857.3, -1392507.6, -46822.17, -0.012509521, 0.05395604, -1161372.3, 166260.98, 0.0000059623408, 10.001661, 9.998717 
1.2850115e+3, 1.7452693e+2, -1089341.0, -1299050.4, -50359.164, -0.057464905, 0.08698865, -1077874.8, 151768.31, 0.0, 10.0015335, 9.998748 
1.2850158e+3, 1.8452579e+2, -1018144.4, -1196783.5, -44837.8, -0.06520441, 0.09100938, -1007521.9, 124133.03, 0.0, 10.001274, 9.998902 
1.2850206e+3, 1.9452433e+2, -978124.4, -1122767.6, -46058.953, -0.028534524, 0.050947558, -964703.06, 68966.266, 0.0, 10.000859, 9.998938 
1.285025e+3, 2.0452346e+2, -897883.7, -995795.56, -61269.973, -0.017131012, 0.053027228, -868413.25, 67264.83, 0.0, 10.000575, 9.999274 
1.2850289e+3, 2.1452326e+2, -815018.4, -899390.6, -63044.22, -0.035948038, 0.09904529, -781347.75, 56332.125, 0.0, 10.000447, 9.999325 
1.2850332e+3, 2.2452258e+2, -765177.44, -860095.06, -53445.48, -0.030572644, 0.11492576, -741160.7, -1473.5461, 0.0, 10.000268, 9.999008 
1.285038e+3, 2.3452133e+2, -700924.7, -776362.9, -55394.56, 0.0035905188, 0.08608649, -671626.7, -29925.748, 0.0, 10.000029, 9.999025 
1.2850423e+3, 2.4452037e+2, -620167.94, -662150.06, -57713.816, 0.012275654, 0.07811475, -579746.4, -36035.402, 0.0, 9.9998045, 9.999246 
1.2850465e+3, 2.545198e+2, -549189.9, -571914.2, -53087.918, -0.010606452, 0.08938685, -506261.88, -60545.64, 0.0, 9.999595, 9.999292 
1.285051e+3, 2.6451933e+2, -500495.03, -531254.25, -35439.39, -0.02047023, 0.1307589, -477241.97, -129520.4, 0.0, 9.999401, 9.998992 
1.2850557e+3, 2.7451903e+2, -426372.72, -442923.1, -41340.273, -0.013368226, 0.19560853, -392487.53, -142759.77, 0.0, 9.9992285, 9.999008 
1.2850608e+3, 2.8451785e+2, -342352.5, -341866.97, -33293.207, 0.0039574695, 0.17468686, -308815.66, -157075.42, 0.0, 9.99909, 9.999095 
1.285066e+3, 2.9451585e+2, -260158.38, -251352.55, -23486.537, 0.031951405, 0.058739815, -231859.78, -178100.83, 0.0, 9.9989805, 9.999096 
1.2850706e+3, 3.0451602e+2, -248111.64, -222243.48, -28789.023, 0.016137121, 0.17304307, -203616.53, -203616.53, 0.0, 9.998738, 9.999078 
1.2850752e+3, 3.1451526e+2, -194243.38, -21791.908, -13278.003, 0.025080834, 0.17944802, -20775.55, -20775.55, 0.0, 9.998353, 10.000642 
1.2949888e+3, 1.2452692e+2, -1418840.8, -1771711.4, -10394.51, -0.154061, -0.016922325, -1418534.8, 301103.13, 0.0050433725, 10.002921, 9.998194 
1.2949969e+3, 1.3452597e+2, -1342412.1, -1650833.5, -20171.3, 0.14592, 0.04047456, -1341098.5, 280551.03, 0.0028472822, 10.002594, 9.998525 
1.2949978e+3, 1.4452453e+2, -1277993.9, -1538013.3, -32147.236, -0.2384201, 0.029844452, -1274078.4, 249586.33, 0.0011110725, 10.002238, 9.998787 
1.2950039e+3, 1.5452369e+2, -1227357.3, -1460552.9, -30093.898, -0.10427309, 0.063435994, -1223536.3, 202136.36, 0.000219555, 10.001904, 9.998806 
1.2950091e+3, 1.6452244e+2, -1174373.4, -1400536.5, -52737.89, -0.030524388, 0.06694654, -1162680.3, 165004.58, 0.0000074533, 10.001663, 9.998662 
1.2950133e+3, 1.7452084e+2, -1094002.6, -1309288.0, -55557.633, -0.028283812, 0.035350546, -1080510.6, 149190.89, 0.0, 10.001535, 9.998677 
1.2950173e+3, 1.8451966e+2, -1021371.5, -1203760.0, -60973.906, -0.032358143, 0.04383456, -1002865.2, 128848.56, 0.0, 10.001275, 9.998855 
1.2950213e+3, 1.9451904e+2, -981292.9, -1129421.3, -62124.836, -0.043232445, 0.09126754, -958687.5, 75033.17, 0.0, 10.000859, 9.998893 
1.2950253e+3, 2.0451812e+2, -899656.5, -999179.6, -67730.22, -0.037001833, 0.09371329, -865372.9, 70356.69, 0.0, 10.000573, 9.999252 
1.2950297e+3, 2.1451686e+2, -816248.25, -902311.56, -68474.07, -0.010363954, 0.03475252, -778407.06, 59333.688, 0.0, 10.000448, 9.999305 
1.2950338e+3, 2.2451599e+2, -768695.56, -867819.25, -63219.96, 0.00093817717, 0.035115723, -737925.94, 1823.8372, 0.0, 10.00027, 9.998955 
1.295038e+3, 2.345156e+2, -704788.56, -784403.0, -64352.016, -0.005862699, 0.09892011, -668926.75, -27170.334, 0.0, 10.000028, 9.998972 
1.2950422e+3, 2.44515e+2, -611395.9, -643484.06, -65726.64, -0.003551021, 0.12197301, -559783.44, -16020.0205, 0.0, 9.999802, 9.999375 
1.2950462e+3, 2.5451413e+2, -539483.56, -552021.6, -60419.223, 0.010893897, 0.09030834, -485009.0, -39238.168, 0.0, 9.999596, 9.99943 
1.2950507e+3, 2.6451334e+2, -510562.22, -552454.56, -41478.156, 0.012496554, 0.0962189, -485041.44, -137262.02, 0.0, 9.999401, 9.998846 
1.295055e+3, 2.7451256e+2, -437985.16, -466008.16, -46341.813, -0.0023995056, 0.13498706, -403582.97, -153792.9, 0.0, 9.999224, 9.998853 
1.2950596e+3, 2.845117e+2, -324175.94, -303492.78, -36221.47, -0.015199631, 0.13670215, -276165.47, -124365.46, 0.0, 9.999086, 9.999361 
1.2950644e+3, 2.9451078e+2, -239521.31, -208264.17, -26112.176, -0.026553398, 0.10419521, -193460.89, -139653.28, 0.0, 9.998979, 9.999393 
1.295069e+3, 3.0451128e+2, -246832.11, -219590.19, -42164.125, -0.030455548, 0.23259476, -188901.52, -188901.52, 0.0, 9.998737, 9.999097 
1.295074e+3, 3.1450948e+2, -217546.23, -66578.805, -22644.436, 0.05035436, 0.13817364, -63255.402, -63255.402, 0.0, 9.998339, 10.00034 
1.3049917e+3, 1.2452166e+2, -1408880.0, -1762074.1, 11618.618, -0.15009944, -0.011837937, -1408498.3, 311191.28, 0.0053935107, 10.002972, 9.998236 
1.3049994e+3, 1.3452065e+2, -1328755.4, -1641402.3, -6453.977, 0.14004205, 0.037342675, -1328622.3, 293078.78, 0.0030578757, 10.002678, 9.998548 
1.3050002e+3, 1.4451917e+2, -1260470.8, -1536017.6, -17560.271, -0.24118122, 0.023014862, -1259356.1, 264360.22, 0.0012046372, 10.002388, 9.998728 
1.3050061e+3, 1.5451826e+2, -1200876.1, -1455160.0, -25968.154, -0.09425323, 0.059424806, -1198251.3, 227473.7, 0.000244213, 10.002118, 9.99874 
1.3050109e+3, 1.64517e+2, -1148095.0, -1389256.9, -48407.637, -0.020033486, 0.06332678, -1138741.1, 188996.55, 0.000009295233, 10.00185, 9.998649 
1.305015e+3, 1.7451534e+2, -1084775.8, -1305443.6, -46789.15, -0.028426085, 0.028692257, -1075264.8, 154489.86, 0.0, 10.001602, 9.998671 
1.3050187e+3, 1.8451418e+2, -1009718.94, -1194987.6, -52242.363, -0.03524662, 0.0361029, -996003.0, 135763.67, 0.0, 10.001342, 9.998882 
1.3050224e+3, 1.945136e+2, -949892.2, -1110497.6, -48792.332, -0.042285554, 0.08518369, -936231.0, 97541.85, 0.0, 10.00106, 9.998925 
1.3050261e+3, 2.0451264e+2, -871521.06, -997004.0, -46631.35, -0.03100679, 0.08471759, -856089.8, 79692.49, 0.0, 10.000816, 9.999149 
1.3050303e+3, 2.1451117e+2, -798578.4, -905995.9, -54264.527, 0.0023362373, 0.017506596, -775937.44, 61858.254, 0.0, 10.000622, 9.999195 
1.3050342e+3, 2.2451031e+2, -752019.44, -849731.1, -52792.23, 0.011120094, 0.020632576, -728945.4, 10859.369, 0.0, 10.000341, 9.999044 
1.3050379e+3, 2.345102e+2, -707943.75, -774523.3, -43872.25, -0.009916961, 0.10032347, -686161.0, -44352.41, 0.0, 9.999957, 9.999073 
1.3050418e+3, 2.4450961e+2, -633052.8, -664534.5, -41320.992, -0.010557364, 0.12570791, -604576.0, -60760.633, 0.0, 9.999698, 9.999281 
1.305046e+3, 2.545085e+2, -548095.6, -567925.3, -54440.08, 0.01436466, 0.07986863, -502674.9, -56849.18, 0.0, 9.999587, 9.999325 
1.3050501e+3, 2.6450765e+2, -498754.06, -532074.44, -37090.344, 0.01782428, 0.08047114, -474754.0, -126919.31, 0.0, 9.99942, 9.998977 
1.3050543e+3, 2.7450708e+2, -433062.25, -447823.13, -20960.117, -0.0055670743, 0.12415016, -418221.16, -168378.47, 0.0, 9.999189, 9.998993 
1.3050586e+3, 2.8450632e+2, -351590.47, -316464.44, -8929.823, -0.02432031, 0.12950613, -314324.63, -162473.19, 0.0, 9.998898, 9.999363 
1.305063e+3, 2.945054e+2, -305299.28, -240403.78, -21791.723, -0.038231816, 0.09814732, -233765.28, -179905.61, 0.0, 9.998529, 9.99939 
1.3050674e+3, 3.04506e+2, -283751.1, -213567.89, -38703.523, -0.036690418, 0.22533056, -196416.0, -196416.0, 0.0, 9.998383, 9.99931 
1.3050725e+3, 3.145044e+2, -196394.81, -67181.164, -2275.6118, 0.053445928, 0.13079524, -67141.1, -67141.1, 0.0, 9.9985285, 10.000247 
1.3149947e+3, 1.2451711e+2, -1402811.6, -1748017.1, 10661.762, -0.1510383, 0.03177212, -1402482.6, 317252.53, 0.0057480065, 10.002965, 9.998336 
1.315002e+3, 1.3451596e+2, -1321870.9, -1627961.1, -17626.97, 0.13255769, 0.059020337, -1320859.1, 300887.38, 0.0032717513, 10.002683, 9.998638 
1.3150027e+3, 1.4451423e+2, -1272026.0, -1561485.0, -28599.385, -0.23095594, 0.02223894, -1269227.4, 254536.34, 0.0013003696, 10.002395, 9.998551 
1.3150087e+3, 1.5451284e+2, -1215872.1, -1485900.9, -36506.824, -0.044657085, 0.028663633, -1211023.6, 214754.38, 0.00026992275, 10.002116, 9.99853 
1.3150132e+3, 1.6451156e+2, -1146396.0, -1385386.5, -58913.426, 0.017572721, 0.04314689, -1132662.5, 195128.63, 0.00001153221, 10.001848, 9.998677 
1.3150162e+3, 1.7451054e+2, -1080849.6, -1297863.9, -56381.945, -0.05919178, 0.067165665, -1067075.4, 162726.45, 0.0, 10.001604, 9.998722 
1.3150196e+3, 1.845094e+2, -1002139.94, -1179490.8, -63700.035, -0.07672508, 0.06790898, -981631.9, 150181.3, 0.0, 10.001343, 9.998989 
1.3150236e+3, 1.9450808e+2, -942143.0, -1095032.4, -60035.414, -0.02657645, 0.032255, -921386.6, 112438.77, 0.0, 10.001061, 9.999031 
1.3150273e+3, 2.0450701e+2, -883914.06, -1023392.8, -55272.29, 0.0002479921, 0.025453622, -864666.9, 71169.1, 0.0, 10.000818, 9.998967 
1.3150309e+3, 2.1450622e+2, -812805.7, -935258.3, -61886.332, 0.0007670066, 0.047044583, -786976.94, 50867.484, 0.0, 10.00062, 9.998996 
1.3150345e+3, 2.2450559e+2, -736727.6, -817226.06, -67849.516, -0.0023486398, 0.07156837, -698087.3, 41764.23, 0.0, 10.000338, 9.99927 
1.3150379e+3, 2.3450512e+2, -690592.8, -738854.56, -58589.984, -0.009382318, 0.09027183, -651359.0, -9501.823, 0.0, 9.999958, 9.999318 
1.3150415e+3, 2.4450424e+2, -654611.6, -709663.06, -46264.492, -0.009602813, 0.08911327, -628303.6, -84437.02, 0.0, 9.9997, 9.99897 
1.3150454e+3, 2.5450292e+2, -572140.75, -617263.0, -57799.895, -0.0017609663, 0.058637906, -532654.9, -86774.32, 0.0, 9.999584, 9.998987 
1.3150494e+3, 2.6450235e+2, -472074.8, -476219.22, -44737.574, -0.0058347676, 0.08330556, -429361.47, -81474.29, 0.0, 9.999417, 9.999363 
1.3150534e+3, 2.7450258e+2, -403587.44, -386520.7, -28275.986, -0.023546088, 0.16249049, -365518.5, -115632.87, 0.0, 9.999188, 9.999415 
1.3150574e+3, 2.8450173e+2, -369335.94, -353684.4, -21981.877, -0.024924269, 0.15295005, -338176.8, -186282.34, 0.0, 9.9988985, 9.999107 
1.3150619e+3, 2.9449975e+2, -327119.9, -282948.0, -33944.855, -0.008571214, 0.043373246, -264536.5, -210621.83, 0.0, 9.998517, 9.999104 
1.315066e+3, 3.0450025e+2, -258184.34, -158784.66, -32654.852, -0.007847025, 0.15366766, -149016.73, -149016.73, 0.0, 9.998374, 9.999691 
1.3150707e+3, 3.145001e+2, -188955.86, -50730.332, 8854.912, 0.032734178, 0.16365297, -50165.383, -50165.383, 0.0, 9.998524, 10.000362 
1.324998e+3, 1.2451245e+2, -1341403.4, -1720610.9, 19237.535, -0.14744252, 0.047919963, -1340430.0, 379350.84, 0.006102575, 10.003399, 9.998316 
1.3250047e+3, 1.345111e+2, -1311073.1, -1624738.5, -28526.748, 0.12978408, 0.056360297, -1308499.9, 313293.78, 0.0034860687, 10.002768, 9.998618 
1.3250051e+3, 1.4450924e+2, -1282481.1, -1572266.5, -30499.404, -0.22232668, 0.011714118, -1279305.9, 244505.84, 0.0013970501, 10.002349, 9.998499 
1.325011e+3, 1.5450779e+2, -1207125.5, -1488450.3, -26954.898, -0.024902077, 0.017511165, -1204566.1, 221260.8, 0.00029637254, 10.002206, 9.998469 
1.3250153e+3, 1.6450651e+2, -1124400.9, -1369374.1, -44593.074, 0.032127753, 0.033944663, -1116536.0, 211303.97, 0.000014169166, 10.001977, 9.998724 
1.3250177e+3, 1.7450564e+2, -1073071.9, -1288041.5, -43246.574, -0.06498445, 0.06572115, -1064697.9, 165151.4, 0.0, 10.001632, 9.998776 
1.325021e+3, 1.8450446e+2, -1001500.3, -1186208.1, -52956.457, -0.08478654, 0.06605695, -987394.7, 144466.0, 0.0, 10.001377, 9.998926 
1.3250248e+3, 1.9450298e+2, -920194.7, -1092049.1, -62219.934, -0.017712673, 0.018590037, -900033.2, 133841.75, 0.0, 10.001245, 9.998963 
1.3250284e+3, 2.0450193e+2, -864670.5, -1009924.8, -61860.29, 0.011040563, 0.016204234, -841896.44, 93989.05, 0.0, 10.000933, 9.999005 
1.3250314e+3, 2.1450146e+2, -842027.6, -944017.94, -51988.863, -0.0044423374, 0.06288616, -820198.7, 17692.559, 0.0, 10.000398, 9.999042 
1.3250345e+3, 2.2450082e+2, -773877.4, -838289.9, -50905.31, -0.010666661, 0.08828151, -745845.8, -5947.7344, 0.0, 10.000097, 9.999241 
1.3250378e+3, 2.3450004e+2, -675246.5, -734883.44, -62550.914, -0.005777447, 0.07864536, -635770.25, 6136.213, 0.0, 10.000079, 9.999287 
1.3250412e+3, 2.444991e+2, -624238.5, -695552.3, -51470.168, -0.0058588325, 0.07352167, -597280.8, -53364.28, 0.0, 9.999911, 9.998965 
1.3250448e+3, 2.5449803e+2, -575309.7, -618689.06, -39659.98, -0.012710096, 0.06816581, -551795.9, -105867.48, 0.0, 9.999563, 9.998987 
1.3250485e+3, 2.6449752e+2, -500836.88, -476925.53, -27150.521, -0.020457484, 0.093974516, -459214.9, -111280.664, 0.0, 9.999165, 9.999479 
1.3250522e+3, 2.744976e+2, -466258.94, -403079.28, -33711.023, -0.027675072, 0.14527501, -388470.1, -138536.7, 0.0, 9.9987, 9.999537 
1.3250563e+3, 2.8449678e+2, -426048.78, -381684.97, -21650.992, -0.018415235, 0.13368349, -372870.06, -220928.31, 0.0, 9.998514, 9.9991 
1.3250607e+3, 2.9449508e+2, -304749.25, -272585.3, -14641.322, 0.009392531, 0.052040905, -266918.78, -212958.67, 0.0, 9.998673, 9.999099 
1.3250646e+3, 3.0449548e+2, -220217.77, -104239.04, -8213.771, 0.00419396, 0.13768308, -103660.22, -103660.22, 0.0, 9.998481, 10.000013 
1.3250686e+3, 3.1449556e+2, -280815.88, -85669.65, 29661.273, 0.004377378, 0.13801232, -81260.88, -81260.88, 0.0, 9.997855, 10.000443 
1.3350013e+3, 1.2450773e+2, -1352316.1, -1744067.0, 3018.7031, -0.14421459, 0.036059324, -1352292.9, 367533.0, 0.0064544743, 10.003402, 9.998155 
1.3350074e+3, 1.345061e+2, -1321862.8, -1645619.9, -52895.754, 0.13197573, 0.03094769, -1313439.8, 308402.06, 0.0036991173, 10.002763, 9.998478 
1.3350074e+3, 1.4450428e+2, -1277535.8, -1561109.8, -37754.266, -0.21682116, -0.0073375376, -1272595.3, 251264.55, 0.0014937163, 10.002344, 9.998577 
1.335013e+3, 1.5450317e+2, -1199629.4, -1473895.4, -32171.658, -0.037209265, 0.024908341, -1195906.1, 229965.03, 0.00032323142, 10.00221, 9.998568 
1.3350172e+3, 1.6450194e+2, -1120304.5, -1361674.5, -57881.99, 0.020521441, 0.035077356, -1107141.9, 220741.9, 0.000017128494, 10.00198, 9.998776 
1.3350195e+3, 1.7450066e+2, -1069746.0, -1281564.8, -56842.56, -0.04691893, 0.024488036, -1055456.0, 174440.47, 0.00000000003443261, 10.001633, 9.99882 
1.3350224e+3, 1.8449949e+2, -1017057.44, -1218949.1, -59544.773, -0.060737047, 0.030316409, -1000804.1, 131104.67, 0.0, 10.001379, 9.998701 
1.335026e+3, 1.9449835e+2, -936745.2, -1126694.6, -67591.39, -0.01676674, 0.044339947, -915148.94, 118772.04, 0.0, 10.0012455, 9.998726 
1.335029e+3, 2.0449746e+2, -847366.56, -973770.44, -82317.53, -0.00052381214, 0.05751545, -806786.7, 129143.586, 0.0, 10.000932, 9.999254 
1.3350317e+3, 2.1449685e+2, -822766.2, -904345.8, -72914.17, -0.01452034, 0.06443202, -780007.9, 57927.94, 0.0, 10.000399, 9.999314 
1.3350347e+3, 2.2449605e+2, -792487.7, -877403.56, -53535.813, -0.014840005, 0.06989401, -766617.3, -26673.12, 0.0, 10.000099, 9.998972 
1.335038e+3, 2.3449501e+2, -696468.75, -778640.5, -62958.83, 0.00002056296, 0.06557508, -662375.75, -20419.756, 0.0, 10.000077, 9.998988 
1.3350412e+3, 2.4449424e+2, -605109.75, -654935.3, -63950.363, -0.0006507551, 0.079116866, -561390.94, -17426.34, 0.0, 9.999907, 9.999247 
1.3350444e+3, 2.5449383e+2, -554080.4, -574214.56, -52187.688, -0.01981458, 0.10845782, -510997.7, -65028.473, 0.0, 9.999561, 9.999293 
1.3350475e+3, 2.644932e+2, -510445.16, -497273.34, -44018.465, -0.02738393, 0.11254903, -459350.84, -111374.95, 0.0, 9.999166, 9.99934 
1.3350509e+3, 2.7449217e+2, -478519.6, -427008.03, -49702.73, -0.021319306, 0.07394811, -396784.16, -146798.56, 0.0, 9.998693, 9.999376 
1.335055e+3, 2.844915e+2, -411751.84, -351059.94, -15657.065, -0.007964731, 0.07311274, -347258.84, -195265.98, 0.0, 9.998508, 9.999313 
1.3350594e+3, 2.9449138e+2, -288178.22, -237957.63, -6843.2896, 0.015366501, 0.12479944, -237041.83, -183045.86, 0.0, 9.9986725, 9.999338 
1.3350631e+3, 3.044917e+2, -200153.31, -63070.1, -29218.83, -0.001709699, 0.17715558, -57102.03, -57102.03, 0.0, 9.998483, 10.000296 
1.3350661e+3, 3.1449088e+2, -276825.75, -73877.32, 10545.492, -0.03826869, 0.056953967, -73330.83, -73330.83, 0.0, 9.99784, 10.000531 
1.3450047e+3, 1.2450306e+2, -1373135.8, -1764175.9, 19231.744, -0.13961226, 0.0009244099, -1372192.3, 347677.56, 0.0068022367, 10.003303, 9.998064 
1.3450105e+3, 1.3450147e+2, -1275046.6, -1629566.9, -39670.04, 0.13952786, 0.006659149, -1270661.8, 351224.2, 0.0039100754, 10.003116, 9.998418 
1.3450101e+3, 1.4449973e+2, -1213693.8, -1524977.5, -18817.215, -0.20253481, -0.021098858, -1212560.4, 311342.94, 0.0015897118, 10.002761, 9.998625 
1.3450153e+3, 1.5449873e+2, -1199056.4, -1468152.9, -18350.791, -0.045796838, 0.015581233, -1197810.8, 228102.8, 0.0003501717, 10.002191, 9.998616 
1.3450189e+3, 1.644975e+2, -1148752.5, -1386238.5, -46038.105, 0.010775265, 0.027388457, -1140140.1, 187786.19, 0.000020254476, 10.001831, 9.998679 
1.3450214e+3, 1.744961e+2, -1060352.3, -1288547.3, -55788.945, -0.028492069, 0.0153353475, -1047443.25, 182497.58, 0.0000000014653116, 10.001747, 9.998718 
1.3450241e+3, 1.844949e+2, -1000940.06, -1210910.5, -58868.066, -0.039020326, 0.025245043, -985561.9, 146391.72, 0.0, 10.001489, 9.998703 
1.3450271e+3, 1.944939e+2, -970997.06, -1141895.3, -50004.58, -0.023684874, 0.05130762, -957441.06, 76523.34, 0.0, 10.001005, 9.998736 
1.3450298e+3, 2.04493e+2, -879466.5, -993709.9, -63302.207, -0.015762977, 0.06435668, -851323.56, 84650.21, 0.0, 10.0007305, 9.999214 
1.3450322e+3, 2.1449219e+2, -779793.9, -888367.06, -77422.46, -0.0138519425, 0.05504317, -739522.1, 98459.11, 0.0, 10.000713, 9.999273 
1.3450348e+3, 2.2449131e+2, -734404.2, -846856.2, -58968.934, -0.00861553, 0.054903794, -709152.0, 30838.219, 0.0, 10.000487, 9.998994 
1.3450381e+3, 2.3449038e+2, -704482.1, -778871.6, -46000.43, -0.0011247667, 0.058788206, -682520.4, -40519.477, 0.0, 10.000009, 9.999018 
1.345041e+3, 2.4448974e+2, -647666.0, -664201.3, -44737.29, -0.0058551994, 0.07788036, -610438.8, -66430.68, 0.0, 9.999569, 9.999344 
1.3450436e+3, 2.5448945e+2, -603233.56, -586285.25, -49120.926, -0.024624795, 0.10862085, -544912.9, -98901.67, 0.0, 9.999176, 9.999395 
1.3450466e+3, 2.6448873e+2, -545803.94, -528864.56, -42530.12, -0.023824006, 0.10759518, -493968.97, -145950.27, 0.0, 9.998988, 9.9992075 
1.34505e+3, 2.744875e+2, -435563.88, -421728.94, -48315.54, 0.00011025642, 0.0570082, -379838.2, -129806.25, 0.0, 9.999058, 9.999235 
1.3450538e+3, 2.8448695e+2, -361442.28, -305657.16, -17159.666, 0.006255965, 0.06581313, -300801.44, -148763.2, 0.0, 9.998766, 9.9995 
1.3450575e+3, 2.9448733e+2, -366073.75, -251862.75, -11010.215, -0.008073874, 0.14920695, -250811.03, -196775.7, 0.0, 9.998038, 9.999547 
1.345061e+3, 3.0448738e+2, -290738.66, -106887.02, -37389.12, -0.0236294, 0.16413186, -99574.23, -99574.23, 0.0, 9.997863, 10.000293 
1.3450642e+3, 3.1448665e+2, -210505.67, -53335.926, -19813.172, -0.027683452, 0.057216104, -50876.71, -50876.71, 0.0, 9.998345, 10.000429 
1.355008e+3, 1.2449849e+2, -1375469.3, -1768199.8, 18920.955, -0.13573755, -0.05711299, -1374559.9, 345352.13, 0.007146109, 10.003298, 9.99804 
1.3550137e+3, 1.3449726e+2, -1272631.0, -1624514.1, -46749.813, 0.14984569, -0.018551337, -1266525.9, 355399.75, 0.0041188756, 10.003117, 9.998451 
1.3550133e+3, 1.444957e+2, -1213765.3, -1526101.3, -39943.98, -0.1841667, -0.031531896, -1208737.8, 315203.94, 0.001684743, 10.002765, 9.998616 
1.3550173e+3, 1.5449452e+2, -1200184.1, -1470781.0, -40324.8, -0.051509064, -0.008696388, -1194302.8, 231650.6, 0.00037697863, 10.002191, 9.998598 
1.3550207e+3, 1.6449326e+2, -1164974.1, -1420312.1, -51379.383, 0.0020914108, 0.012176346, -1155023.3, 172943.7, 0.000023370363, 10.001832, 9.9984455 
1.3550234e+3, 1.7449199e+2, -1076845.3, -1323647.0, -59199.15, -0.01129773, 0.037277315, -1063380.0, 166601.77, 0.0000000068048798, 10.00175, 9.998476 
1.3550258e+3, 1.8449081e+2, -985338.1, -1178940.8, -77284.695, -0.022499116, 0.050757043, -958270.9, 173723.67, 0.0, 10.00149, 9.998922 
1.355028e+3, 1.9448969e+2, -953409.44, -1105971.5, -68852.69, -0.03969121, 0.039445926, -926931.1, 107073.84, 0.0, 10.001007, 9.998982 
1.3550302e+3, 2.0448859e+2, -901337.2, -1039908.1, -65969.37, -0.035779808, 0.035886295, -874954.3, 61061.434, 0.0, 10.000733, 9.998896 
1.355033e+3, 2.1448752e+2, -804039.94, -938756.75, -78445.28, -0.0034192293, 0.035262752, -768001.94, 70025.06, 0.0, 10.000713, 9.998928 
1.3550356e+3, 2.244867e+2, -713877.94, -803595.25, -76898.23, 0.006792388, 0.044149723, -669710.56, 70325.06, 0.0, 10.0004835, 9.999293 
1.355038e+3, 2.3448619e+2, -681729.3, -731197.94, -64241.855, -0.010755818, 0.0581517, -637624.7, 4416.2944, 0.0, 10.000006, 9.999347 
1.3550402e+3, 2.4448562e+2, -652658.7, -674491.4, -60046.168, -0.023162028, 0.06922733, -602544.7, -58497.586, 0.0, 9.999568, 9.999274 
1.3550428e+3, 2.5448492e+2, -609808.06, -599401.5, -63111.15, -0.028955799, 0.069345206, -541279.5, -95225.41, 0.0, 9.999173, 9.999307 
1.3550457e+3, 2.6448423e+2, -556445.4, -550328.4, -40025.426, -0.011360953, 0.079335086, -513244.75, -165182.27, 0.0, 9.998984, 9.999062 
1.3550495e+3, 2.7448347e+2, -446391.97, -443909.5, -44204.438, 0.034346584, 0.09494057, -400928.88, -150856.44, 0.0, 9.999056, 9.999084 
1.3550526e+3, 2.8448302e+2, -349296.4, -281021.7, -42197.902, 0.021002011, 0.11235755, -260881.78, -108803.8, 0.0, 9.998768, 9.999669 
1.3550551e+3, 2.944829e+2, -354391.84, -225750.27, -36331.504, -0.06427353, 0.12585792, -216198.58, -162120.39, 0.0, 9.99803, 9.999731 
1.3550584e+3, 3.0448246e+2, -312641.44, -150970.64, -19932.38, -0.064961955, 0.098902136, -148549.44, -148549.44, 0.0, 9.997856, 9.999994 
1.3550632e+3, 3.1448278e+2, -231066.13, -94595.445, 2206.3577, 0.031955153, 0.13107048, -94559.78, -94559.78, 0.0, 9.99834, 10.00015 
1.3650115e+3, 1.2449451e+2, -1343322.0, -1757132.9, 31542.268, -0.13199787, -0.07917141, -1340931.5, 379018.56, 0.0074891904, 10.00354, 9.997999 
1.3650165e+3, 1.3449356e+2, -1290141.4, -1630895.4, -42355.496, 0.1319401, -0.013337305, -1284955.6, 337005.84, 0.0043270662, 10.002989, 9.998468 
1.3650158e+3, 1.4449206e+2, -1240137.0, -1547729.1, -38007.242, -0.18531747, -0.016833372, -1235510.3, 288466.9, 0.0017791736, 10.002623, 9.998535 
1.3650198e+3, 1.5449063e+2, -1164068.5, -1463543.9, -44089.54, -0.029590916, -0.01099386, -1157712.4, 268279.1, 0.00040358416, 10.002483, 9.9985075 
1.365023e+3, 1.6448925e+2, -1114787.9, -1400189.0, -47639.125, 0.020585217, 0.005701199, -1107046.0, 220960.3, 0.000026350568, 10.002194, 9.998409 
1.3650249e+3, 1.744881e+2, -1083877.5, -1330730.9, -40342.41, -0.024296243, 0.044130273, -1077451.8, 152568.39, 0.000000016360648, 10.001718, 9.998443 
1.365027e+3, 1.8448693e+2, -998646.2, -1184289.8, -57980.84, -0.042272914, 0.05959683, -982025.44, 150007.22, 0.0, 10.001394, 9.998932 
1.365029e+3, 1.9448568e+2, -914480.6, -1086074.4, -67200.34, -0.039071396, 0.03415184, -891295.9, 142748.16, 0.0, 10.001269, 9.998993 
1.3650313e+3, 2.0448446e+2, -864417.5, -1028362.9, -60919.72, -0.026570877, 0.023500387, -844259.25, 91796.44, 0.0, 10.001015, 9.998839 
1.3650337e+3, 2.1448338e+2, -824599.0, -954871.2, -52802.773, 0.0006371093, 0.02603192, -805884.94, 32182.262, 0.0, 10.000601, 9.99887 
1.365036e+3, 2.244826e+2, -750773.7, -816658.4, -56266.18, 0.0068672295, 0.039306816, -718515.7, 21559.799, 0.0, 10.000212, 9.999333 
1.3650379e+3, 2.344822e+2, -701594.7, -736036.44, -65790.25, -0.013901872, 0.05849057, -650808.8, -8729.006, 0.0, 9.99985, 9.999389 
1.36504e+3, 2.4448158e+2, -647653.4, -671321.06, -63936.133, -0.024673909, 0.06591429, -594465.1, -50379.195, 0.0, 9.9996, 9.999279 
1.3650422e+3, 2.5448075e+2, -562837.4, -575789.25, -61404.297, -0.022729889, 0.05020875, -507568.47, -61474.203, 0.0, 9.999494, 9.999313 
1.3650449e+3, 2.6448008e+2, -528365.06, -534554.3, -29308.14, -0.007969885, 0.063059956, -501988.63, -153886.25, 0.0, 9.99917, 9.999079 
1.3650481e+3, 2.7447963e+2, -514604.94, -474663.66, -21953.436, 0.021306576, 0.106762074, -464956.38, -214846.4, 0.0, 9.998582, 9.999101 
1.365051e+3, 2.8447926e+2, -418109.63, -315069.72, -21812.082, 0.010561842, 0.13223247, -310642.63, -158527.75, 0.0, 9.998301, 9.99966 
1.3650534e+3, 2.944789e+2, -301690.34, -200538.52, -31979.266, -0.046175517, 0.122515626, -191276.34, -137159.28, 0.0, 9.998394, 9.999727 
1.3650566e+3, 3.0447808e+2, -277240.4, -139706.2, -6141.8457, -0.04221729, 0.05902932, -139432.48, -139432.48, 0.0, 9.998125, 9.999942 
1.3650608e+3, 3.1447917e+2, -360844.47, -146441.89, 35773.195, 0.0063161855, 0.17167829, -140630.61, -140630.61, 0.0, 9.997401, 10.000246 
1.3750151e+3, 1.24491125e+2, -1348603.1, -1768041.5, 13637.913, -0.13289605, -0.069939815, -1348160.3, 371823.78, 0.007836575, 10.003539, 9.997926 
1.3750191e+3, 1.3449045e+2, -1291257.6, -1632096.4, -63497.543, 0.08652362, 0.024956023, -1279812.5, 342180.13, 0.0045376513, 10.002985, 9.998462 
1.3750182e+3, 1.4448892e+2, -1250120.8, -1569107.9, -44770.105, -0.20638084, 0.02524556, -1243956.4, 280052.63, 0.001874079, 10.0026245, 9.998388 
1.3750228e+3, 1.5448709e+2, -1174516.1, -1486002.3, -49399.56, 0.017544495, 0.006823707, -1166869.5, 259158.2, 0.00043006166, 10.002486, 9.998352 
1.3750255e+3, 1.6448553e+2, -1103621.8, -1377671.5, -65700.66, 0.06293946, 0.006683699, -1088684.8, 239359.0, 0.000029160963, 10.002196, 9.998563 
1.3750263e+3, 1.7448446e+2, -1071398.3, -1305505.1, -58798.387, -0.06792166, 0.036871813, -1057460.3, 172594.95, 0.000000027808229, 10.001719, 9.998615 
1.3750279e+3, 1.8448327e+2, -1012272.1, -1213377.8, -64484.95, -0.099282146, 0.05168062, -993371.3, 138696.22, 0.0, 10.001396, 9.998732 
1.3750306e+3, 1.9448191e+2, -929508.8, -1118035.0, -72363.125, -0.022763789, 0.03507158, -904936.1, 129145.22, 0.0, 10.001271, 9.998774 
1.3750327e+3, 2.0448071e+2, -850654.5, -999749.94, -76965.01, 0.010634632, 0.02771713, -818052.9, 118040.08, 0.0, 10.001014, 9.999037 
1.3750343e+3, 2.1447982e+2, -809545.8, -923213.7, -68857.87, -0.0032063448, 0.027103933, -777096.5, 61005.17, 0.0, 10.000598, 9.999089 
1.375036e+3, 2.2447902e+2, -766058.6, -847846.4, -70792.836, -0.010349644, 0.039080832, -725197.2, 14912.565, 0.0, 10.00021, 9.999121 
1.3750377e+3, 2.344784e+2, -717940.94, -770110.06, -79281.82, -0.011307232, 0.060035706, -660562.8, -18445.719, 0.0, 9.99985, 9.999155 
1.3750397e+3, 2.444777e+2, -643214.75, -661870.0, -68393.26, -0.011092032, 0.067931995, -583516.0, -39391.625, 0.0, 9.9995985, 9.999346 
1.3750418e+3, 2.5447696e+2, -557976.3, -564615.44, -64681.613, -0.008264363, 0.052046604, -496529.13, -50397.668, 0.0, 9.999489, 9.9993925 
1.375044e+3, 2.6447636e+2, -516344.47, -509142.44, -50176.086, -0.016108219, 0.059493076, -462438.3, -114299.95, 0.0, 9.999167, 9.999255 
1.375046e+3, 2.7447596e+2, -502083.03, -448340.6, -42725.96, -0.0403221, 0.09163654, -424738.34, -174593.64, 0.0, 9.998579, 9.999283 
1.3750489e+3, 2.8447565e+2, -432002.63, -343465.94, -18449.008, -0.026681341, 0.12462961, -339775.4, -187626.33, 0.0, 9.998299, 9.999466 
1.3750526e+3, 2.9447538e+2, -317302.75, -231629.42, -26371.041, 0.040098857, 0.1426925, -224162.89, -170011.13, 0.0, 9.998387, 9.999517 
1.3750556e+3, 3.0447423e+2, -264118.8, -112339.49, -30217.316, 0.03779463, 0.047692392, -106544.836, -106544.836, 0.0, 9.998123, 10.000131 
1.3750571e+3, 3.144756e+2, -328430.84, -77956.484, 11006.043, -0.10666937, 0.1655321, -77473.805, -77473.805, 0.0, 9.9973955, 10.000719 
1.3850184e+3, 1.2448824e+2, -1351650.3, -1773805.4, 14918.837, -0.14833261, -0.024827942, -1351123.6, 368889.97, 0.00819284, 10.003538, 9.997887 
1.3850223e+3, 1.344871e+2, -1255483.5, -1610089.6, -62562.09, 0.09276518, 0.019895673, -1244769.6, 377256.06, 0.004753623, 10.003213, 9.998503 
1.3850212e+3, 1.4448546e+2, -1215125.3, -1558977.0, -30841.342, -0.18479806, 0.009566053, -1212380.9, 311661.94, 0.001970775, 10.002894, 9.998328 
1.3850252e+3, 1.5448393e+2, -1166493.4, -1489880.4, -29852.748, 0.00305499, 0.02751126, -1163760.6, 262298.72, 0.0004566524, 10.002574, 9.998283 
1.3850275e+3, 1.6448238e+2, -1097648.6, -1370466.9, -53181.85, 0.041247554, 0.031326853, -1087648.3, 240427.02, 0.00003186285, 10.002219, 9.998602 
1.385028e+3, 1.7448102e+2, -1050513.5, -1290651.5, -56499.95, -0.06014346, 0.025941743, -1037884.3, 192204.38, 0.000000039188958, 10.0018425, 9.998658 
1.3850294e+3, 1.8447973e+2, -999322.6, -1214724.6, -53824.297, -0.08285234, 0.031722687, -986622.0, 145479.8, 0.0, 10.001518, 9.998663 
1.3850318e+3, 1.9447851e+2, -936688.1, -1129538.5, -51024.55, -0.024115749, 0.0402651, -924020.1, 110094.62, 0.0, 10.001258, 9.9987 
1.3850336e+3, 2.0447746e+2, -861536.7, -994929.9, -62548.945, 0.003309458, 0.044876274, -836795.8, 99329.58, 0.0, 10.000896, 9.9991255 
1.3850348e+3, 2.144766e+2, -830169.75, -922526.3, -64419.03, -0.0027139254, 0.03835073, -797087.44, 41045.582, 0.0, 10.000411, 9.999184 
1.3850363e+3, 2.2447571e+2, -784276.2, -866273.75, -57337.37, -0.00690577, 0.03957592, -754787.56, -14645.806, 0.0, 10.000126, 9.999034 
1.3850378e+3, 2.3447482e+2, -689394.56, -766314.56, -56306.55, -0.011134783, 0.043829285, -659666.56, -17514.828, 0.0, 10.000091, 9.9990635 
1.3850392e+3, 2.4447413e+2, -623228.56, -652383.1, -50720.81, -0.011502536, 0.054529075, -585031.8, -40872.46, 0.0, 9.999739, 9.999342 
1.385041e+3, 2.5447363e+2, -629523.9, -598869.56, -53680.223, -0.0065203877, 0.065327145, -558371.25, -112207.24, 0.0, 9.998998, 9.9993925 
1.3850428e+3, 2.6447302e+2, -588580.75, -537139.6, -39318.15, -0.015473998, 0.07003284, -515876.53, -167705.84, 0.0, 9.998644, 9.999314 
1.3850446e+3, 2.7447233e+2, -470276.7, -425757.6, -41925.91, -0.04348888, 0.06273736, -400548.53, -150368.9, 0.0, 9.998767, 9.999347 
1.3850474e+3, 2.8447208e+2, -403040.78, -326731.97, -18004.879, -0.029137006, 0.09777471, -322697.1, -170513.81, 0.0, 9.998487, 9.999489 
1.3850507e+3, 2.944723e+2, -412232.53, -274572.6, -9904.987, 0.04325762, 0.16615593, -273863.56, -219682.05, 0.0, 9.997726, 9.999539 
1.3850534e+3, 3.04471e+2, -375745.22, -162811.72, -10402.227, 0.045390334, 0.051899783, -162304.77, -162304.77, 0.0, 9.997344, 10.000159 
1.3850544e+3, 3.1447202e+2, -303401.72, -23917.963, 16376.531, -0.11556846, 0.1332341, -22961.643, -22961.643, 0.0, 9.99739, 10.001092 
1.3950217e+3, 1.2448591e+2, -1351213.4, -1772660.3, 4849.6045, -0.1793599, 0.054190807, -1351157.6, 368880.88, 0.008561277, 10.003537, 9.997896 
1.395026e+3, 1.3448358e+2, -1249778.8, -1597230.8, -74609.24, 0.14760971, -0.029039668, -1234435.3, 387624.7, 0.004977431, 10.00321, 9.998592 
1.3950247e+3, 1.4448173e+2, -1213672.3, -1556363.6, -43618.7, -0.12537909, -0.06517557, -1208207.5, 315870.8, 0.0020706747, 10.002896, 9.998345 
1.395027e+3, 1.5448122e+2, -1165509.5, -1488001.9, -42499.754, -0.072630875, 0.052355576, -1160002.8, 266083.3, 0.0004838168, 10.002575, 9.998297 
1.395029e+3, 1.6447988e+2, -1102517.9, -1381742.5, -68353.84, -0.044636223, 0.08118116, -1086682.9, 241417.11, 0.000034571214, 10.002223, 9.998524 
1.3950305e+3, 1.7447779e+2, -1055641.0, -1302453.3, -71066.18, -0.0028088326, 0.010705769, -1036641.2, 193478.88, 0.00000005013657, 10.001846, 9.998576 
1.3950318e+3, 1.844763e+2, -994963.2, -1206039.0, -64755.566, 0.004287355, -0.00035697778, -976680.5, 155454.45, 0.0, 10.001519, 9.998722 
1.3950329e+3, 1.9447559e+2, -931760.44, -1119763.8, -61235.004, -0.04408586, 0.049693402, -913574.56, 120569.37, 0.0, 10.001259, 9.998767 
1.3950339e+3, 2.0447475e+2, -862820.44, -997660.6, -81150.805, -0.05018926, 0.0735749, -824737.3, 111415.37, 0.0, 10.000896, 9.999107 
1.3950352e+3, 2.1447377e+2, -831433.56, -925992.06, -82964.414, 0.0013417283, 0.05975804, -783222.4, 54938.59, 0.0, 10.000414, 9.999159 
1.3950366e+3, 2.244727e+2, -781964.0, -861941.1, -60195.813, 0.016498225, 0.041173372, -749684.9, -9513.721, 0.0, 10.000128, 9.9990635 
1.3950378e+3, 2.344715e+2, -687622.56, -762007.06, -57597.945, -0.014897423, 0.010579532, -656252.5, -14069.042, 0.0, 10.000087, 9.999096 
1.3950388e+3, 2.4447082e+2, -628265.4, -661890.7, -77532.65, -0.028017063, 0.025619252, -565743.44, -21552.686, 0.0, 9.999734, 9.999279 
1.3950399e+3, 2.544708e+2, -634295.75, -608848.1, -81023.05, -0.018892335, 0.0889796, -539555.9, -93364.08, 0.0, 9.998998, 9.999325 
1.3950416e+3, 2.6447013e+2, -592968.9, -546754.7, -35400.977, -0.0075255944, 0.09346765, -527586.9, -179387.55, 0.0, 9.998645, 9.999248 
1.395044e+3, 2.7446872e+2, -475276.3, -435339.63, -35495.758, 0.0070720627, 0.023443364, -414581.03, -164366.78, 0.0, 9.998763, 9.999284 
1.395046e+3, 2.844685e+2, -387284.4, -293837.28, -44088.402, -0.0015030295, 0.0549168, -276320.06, -124102.88, 0.0, 9.998486, 9.999716 
1.3950476e+3, 2.9446962e+2, -396308.2, -241388.92, -36734.55, -0.03711811, 0.18916474, -233119.78, -178912.92, 0.0, 9.9977255, 9.999768 
1.39505e+3, 3.0446833e+2, -384355.9, -180518.05, -8904.767, -0.020078216, 0.068878956, -180129.78, -180129.78, 0.0, 9.997343, 10.000038 
1.3950527e+3, 3.1446838e+2, -285307.25, 15516.094, 19281.943, -0.02917913, 0.06566751, 16746.977, 16746.977, 0.0, 9.997381, 10.001368 
1.4050254e+3, 1.2448297e+2, -1356516.3, -1770907.0, 23360.102, -0.16332275, 0.04248753, -1355203.5, 364863.9, 0.008945781, 10.003482, 9.997935 
1.4050291e+3, 1.3448083e+2, -1217258.4, -1568537.1, -56726.6, 0.13222532, -0.031696815, -1208325.0, 413761.28, 0.0052122944, 10.003379, 9.99871 
1.4050277e+3, 1.44479e+2, -1192852.8, -1551793.5, -34483.26, -0.1320707, -0.070383675, -1189570.0, 334534.3, 0.0021757921, 10.003064, 9.998296 
1.4050296e+3, 1.5447834e+2, -1181430.8, -1502345.9, -39546.418, -0.06530094, 0.039277516, -1176629.3, 249484.22, 0.0005121799, 10.002494, 9.998237 
1.4050311e+3, 1.6447699e+2, -1114259.8, -1386251.0, -57164.93, -0.03596551, 0.06733078, -1102733.6, 225394.36, 0.000037386584, 10.002138, 9.998532 
1.4050324e+3, 1.7447497e+2, -1024503.8, -1285710.5, -53136.227, -0.0060602026, 0.0059151556, -1014108.25, 216038.86, 0.00000006103049, 10.002054, 9.99859 
1.4050335e+3, 1.8447359e+2, -965653.6, -1188257.5, -51941.902, 0.00068584597, 0.00034065382, -954130.1, 178031.19, 0.0, 10.001705, 9.9987545 
1.405034e+3, 1.944729e+2, -960896.8, -1130127.9, -51990.305, -0.03671526, 0.051140342, -946200.8, 87969.14, 0.0, 10.001043, 9.998799 
1.4050348e+3, 2.0447205e+2, -887529.5, -1011517.3, -62760.9, -0.0441364, 0.073162615, -861306.75, 74872.04, 0.0, 10.000735, 9.999089 
1.4050357e+3, 2.1447101e+2, -766701.94, -896632.5, -64103.984, -0.008673372, 0.05460408, -740399.44, 97788.35, 0.0, 10.000868, 9.999141 
1.4050367e+3, 2.2446994e+2, -721245.2, -833468.6, -52677.27, 0.0045564245, 0.03734507, -700393.1, 39804.797, 0.0, 10.000548, 9.999055 
1.4050376e+3, 2.3446882e+2, -749172.56, -792953.2, -54252.55, -0.012304368, 0.015284367, -712560.5, -70351.0, 0.0, 9.99967, 9.9990835 
1.4050384e+3, 2.4446811e+2, -701677.75, -705101.94, -69256.73, -0.02125293, 0.031244034, -634112.0, -89894.8, 0.0, 9.999264, 9.999209 
1.4050391e+3, 2.544679e+2, -575147.94, -588670.75, -74007.484, -0.020221308, 0.08430767, -507593.63, -61373.46, 0.0, 9.999438, 9.999251 
1.4050405e+3, 2.6446715e+2, -517700.63, -508480.75, -29076.178, -0.0034472414, 0.086749494, -483651.3, -135423.16, 0.0, 9.999154, 9.999266 
1.4050429e+3, 2.744659e+2, -539937.0, -463486.13, -23903.15, 0.032291245, 0.026618024, -456627.8, -206386.39, 0.0, 9.998307, 9.999309 
1.4050445e+3, 2.844657e+2, -479811.28, -335056.88, -36298.816, 0.015877567, 0.056203905, -326464.53, -174220.45, 0.0, 9.997836, 9.999745 
1.4050451e+3, 2.9446667e+2, -381059.38, -231488.69, -45263.063, -0.06105784, 0.17184435, -218857.83, -164622.45, 0.0, 9.997817, 9.999792 
1.4050473e+3, 3.0446538e+2, -378462.78, -188603.52, -24033.387, -0.034931418, 0.059437055, -185608.48, -185608.48, 0.0, 9.99743, 9.999941 
1.40505e+3, 3.144654e+2, -379210.03, 809.5689, 2179.1604, 0.0068159797, 0.0565572, 822.0645, 822.0645, 0.0, 9.996605, 10.00164 
1.4150295e+3, 1.2447942e+2, -1352462.8, -1762071.6, 18003.805, -0.10492528, -0.063304156, -1351672.9, 368427.38, 0.009352521, 10.00348, 9.997997 
1.4150316e+3, 1.3447893e+2, -1208738.1, -1549661.1, -60875.41, 0.047745723, 0.013391736, -1198194.3, 423910.0, 0.0054630674, 10.003375, 9.998841 
1.4150299e+3, 1.4447732e+2, -1200006.8, -1567626.3, -56014.875, -0.20467356, -0.0038692367, -1191661.1, 332459.06, 0.002288969, 10.003067, 9.998187 
1.415033e+3, 1.5447538e+2, -1189949.3, -1520633.5, -61109.66, 0.021464873, -0.011581117, -1179017.8, 247123.7, 0.00054253166, 10.002496, 9.998111 
1.4150342e+3, 1.6447373e+2, -1107829.5, -1373559.1, -62232.523, 0.06275638, -0.009939342, -1093977.1, 234181.61, 0.000040406845, 10.00214, 9.998619 
1.4150338e+3, 1.7447264e+2, -1016897.94, -1270879.8, -56690.48, -0.06990238, 0.011203318, -1004818.7, 225350.81, 0.00000007226826, 10.002057, 9.998692 
1.4150342e+3, 1.8447158e+2, -965042.6, -1187794.5, -76653.12, -0.09443172, 0.03322056, -941213.94, 190966.63, 0.0, 10.001708, 9.998757 
1.4150354e+3, 1.9447051e+2, -960621.3, -1130859.4, -77265.09, -0.0029749477, 0.04476325, -930783.2, 103409.16, 0.0, 10.001048, 9.998793 
1.4150362e+3, 2.0446941e+2, -888507.5, -1014097.4, -60220.94, 0.020196673, 0.04422783, -864298.06, 71905.32, 0.0, 10.000737, 9.999071 
1.4150363e+3, 2.1446835e+2, -768255.8, -899403.1, -59349.902, -0.03419958, 0.022924954, -745385.6, 92827.48, 0.0, 10.000865, 9.999124 
1.4150369e+3, 2.2446744e+2, -725304.44, -840696.44, -84307.45, -0.04500262, 0.027126798, -680840.9, 59381.125, 0.0, 10.000543, 9.999009 
1.4150374e+3, 2.3446678e+2, -752230.56, -800016.4, -87178.516, -0.0043473416, 0.05710401, -685730.06, -43500.387, 0.0, 9.999672, 9.999035 
1.415038e+3, 2.4446599e+2, -707086.44, -717251.5, -64448.42, 0.007832948, 0.070390165, -647520.44, -103282.01, 0.0, 9.999267, 9.999125 
1.4150387e+3, 2.5446498e+2, -581781.7, -601547.4, -66506.59, -0.012667772, 0.053593732, -524427.6, -78178.98, 0.0, 9.9994335, 9.999166 
1.4150396e+3, 2.6446423e+2, -511492.16, -495200.66, -58327.586, -0.0057563726, 0.05204638, -444452.78, -96195.96, 0.0, 9.99915, 9.999359 
1.4150411e+3, 2.7446383e+2, -532996.4, -449065.4, -54444.2, 0.030439438, 0.069292545, -422290.28, -172028.84, 0.0, 9.998306, 9.999409 
1.4150424e+3, 2.844636e+2, -490129.16, -356648.63, -37312.145, 0.02101811, 0.09857338, -346926.75, -194662.47, 0.0, 9.997836, 9.999598 
1.4150433e+3, 2.9446346e+2, -393391.6, -256558.89, -43499.68, -0.034378003, 0.11804203, -243901.08, -189634.63, 0.0, 9.997814, 9.999622 
1.4150451e+3, 3.0446228e+2, -384667.66, -201957.88, -52033.508, -0.0050691087, 0.028908856, -188178.56, -188178.56, 0.0, 9.997431, 9.999849 
1.4150465e+3, 3.144629e+2, -363588.7, 33481.3, -29608.764, -0.009138981, 0.095850825, 35677.027, 35677.027, 0.0, 9.996603, 10.001866 
1.425033e+3, 1.2447712e+2, -1298116.4, -1749266.5, 38805.098, -0.110078685, -0.088553414, -1294803.0, 425318.7, 0.009788711, 10.003917, 9.997875 
1.4250349e+3, 1.3447689e+2, -1230358.4, -1566601.9, -53744.3, 0.039060365, 0.020686593, -1221976.9, 400147.06, 0.0057347612, 10.003256, 9.998781 
1.4250329e+3, 1.444753e+2, -1225292.6, -1573028.9, -48022.3, -0.19938931, 0.0043564956, -1218782.6, 305357.34, 0.0024130836, 10.002865, 9.998246 
1.4250357e+3, 1.544731e+2, -1140549.5, -1489683.3, -40279.4, 0.02470679, -0.034340292, -1135962.8, 290199.88, 0.0005758784, 10.002805, 9.998174 
1.4250366e+3, 1.6447143e+2, -1062351.9, -1357491.1, -39851.52, 0.06238428, -0.03586449, -1057065.5, 271114.44, 0.00004378684, 10.002479, 9.998566 
1.4250357e+3, 1.7447057e+2, -1052740.0, -1294655.1, -47005.453, -0.07582137, 0.015225035, -1043927.56, 186261.61, 0.00000008454083, 10.001841, 9.9986315 
1.4250357e+3, 1.8446952e+2, -992559.5, -1198035.3, -70317.32, -0.10252978, 0.039405253, -970800.0, 161400.27, 0.0, 10.001508, 9.998782 
1.4250366e+3, 1.9446817e+2, -883889.9, -1089853.9, -68442.195, -0.009059681, 0.02018337, -863220.7, 170993.27, 0.0, 10.00156, 9.998827 
1.4250371e+3, 2.0446703e+2, -823277.94, -984959.3, -52232.0, 0.017088763, 0.014037708, -807872.06, 128353.13, 0.0, 10.001196, 9.99905 
1.425037e+3, 2.1446618e+2, -849521.25, -941485.5, -52664.32, -0.034599293, 0.017845025, -825589.94, 12643.443, 0.0, 10.0003195, 9.999098 
1.4250371e+3, 2.2446536e+2, -822013.56, -889797.44, -76573.35, -0.044568382, 0.032907322, -772166.94, -31925.09, 0.0, 9.999888, 9.998987 
1.4250372e+3, 2.3446462e+2, -704414.9, -779090.2, -78515.14, -0.005180945, 0.05541038, -654811.6, -12560.984, 0.0, 10.00001, 9.999016 
1.4250375e+3, 2.4446376e+2, -637966.7, -684730.0, -49068.26, 0.0076521286, 0.063498355, -606994.0, -62733.965, 0.0, 9.999744, 9.999118 
1.4250378e+3, 2.5446275e+2, -644884.9, -632244.9, -45355.19, -0.010421061, 0.0448259, -592771.44, -146501.13, 0.0, 9.999002, 9.999163 
1.4250384e+3, 2.6446202e+2, -597877.7, -533632.56, -42368.18, -0.006951154, 0.04837572, -512586.3, -164308.58, 0.0, 9.998544, 9.999388 
1.4250393e+3, 2.744618e+2, -511410.16, -435614.0, -45274.555, 0.018583661, 0.07713383, -414469.3, -164188.39, 0.0, 9.998439, 9.999438 
1.4250402e+3, 2.844615e+2, -454024.22, -339965.8, -20485.248, 0.014432893, 0.09675033, -336398.2, -184113.75, 0.0, 9.998086, 9.999591 
1.4250411e+3, 2.94461e+2, -448780.63, -284668.13, -16352.594, -0.015479964, 0.08441751, -283054.6, -228765.05, 0.0, 9.997441, 9.999608 
1.4250425e+3, 3.044601e+2, -457032.1, -252071.61, -26159.639, 0.019620664, 0.034123402, -248785.47, -248785.47, 0.0, 9.997001, 9.999711 
1.425043e+3, 3.1446055e+2, -330305.38, 55769.805, -12324.0625, -0.014592481, 0.09247249, 56162.805, 56162.805, 0.0, 9.996803, 10.001922 
1.4350362e+3, 1.24476075e+2, -1319286.1, -1792389.5, 12660.315, -0.17734802, -0.036923133, -1318947.5, 401183.8, 0.0102605745, 10.003912, 9.9975815 
1.4350387e+3, 1.344748e+2, -1247459.9, -1601459.3, -78450.68, 0.10095511, -0.009531255, -1230853.3, 391291.66, 0.0060307956, 10.003255, 9.998541 
1.4350367e+3, 1.4447296e+2, -1210111.1, -1542390.3, -52205.297, -0.122387335, -0.045631275, -1202102.0, 322061.03, 0.002550165, 10.002869, 9.998455 
1.4350377e+3, 1.5447156e+2, -1123230.5, -1454281.9, -42834.33, -0.05497678, -0.029366031, -1117778.0, 308398.63, 0.00061331474, 10.002807, 9.998417 
1.4350381e+3, 1.6447014e+2, -1075567.0, -1386002.5, -64082.695, -0.03617614, -0.009906685, -1062858.8, 265332.47, 0.000047750204, 10.002482, 9.998369 
1.4350381e+3, 1.7446883e+2, -1067859.1, -1327233.6, -71445.72, -0.026000686, 0.017825315, -1049481.3, 180724.5, 0.00000010052836, 10.001844, 9.998406 
1.435038e+3, 1.8446745e+2, -988806.06, -1190761.6, -70520.65, -0.026720917, 0.019094763, -966618.6, 165601.48, 0.0, 10.001509, 9.998833 
1.4350377e+3, 1.9446592e+2, -879020.75, -1080229.6, -66691.51, -0.055963542, -0.023167135, -858923.06, 175311.3, 0.0, 10.00156, 9.998893 
1.4350376e+3, 2.0446493e+2, -825321.5, -989009.44, -83983.29, -0.055036724, -0.018151624, -789898.1, 146346.02, 0.0, 10.001194, 9.999023 
1.4350376e+3, 2.1446458e+2, -851377.7, -946455.9, -85749.11, -0.010988282, 0.03886656, -800871.56, 37376.863, 0.0, 10.000322, 9.999063 
1.4350374e+3, 2.2446375e+2, -821814.5, -890114.4, -74372.48, 0.004908205, 0.053981762, -774126.3, -33868.895, 0.0, 9.999891, 9.998984 
1.4350371e+3, 2.3446234e+2, -704979.2, -779878.75, -73686.86, -0.015826512, 0.01152075, -659771.6, -17499.51, 0.0, 10.000007, 9.999012 
1.435037e+3, 2.4446145e+2, -633129.6, -674029.3, -75276.22, -0.023808666, 0.011743, -575574.94, -31293.168, 0.0, 9.99974, 9.999194 
1.4350368e+3, 2.5446114e+2, -639619.5, -621149.7, -72602.4, -0.01511288, 0.056570843, -557197.2, -110912.03, 0.0, 9.999001, 9.99924 
1.435037e+3, 2.644606e+2, -599661.06, -537607.44, -46569.105, -0.007995402, 0.074137, -512675.8, -164384.83, 0.0, 9.998544, 9.999361 
1.4350376e+3, 2.744598e+2, -514016.94, -440474.78, -47328.76, -0.00496156, 0.053068604, -417311.53, -167012.22, 0.0, 9.998435, 9.999407 
1.4350381e+3, 2.8445935e+2, -445830.6, -323426.94, -42452.184, -0.006637602, 0.053907454, -310144.88, -157840.78, 0.0, 9.998087, 9.999704 
1.4350386e+3, 2.9445928e+2, -441686.9, -269724.25, -38783.71, -0.0075321216, 0.06761439, -261381.86, -207076.86, 0.0, 9.997439, 9.999712 
1.4350396e+3, 3.0445892e+2, -468075.63, -274170.6, -33254.17, 0.03658272, 0.072236754, -268626.13, -268626.13, 0.0, 9.996997, 9.999561 
1.43504e+3, 3.144584e+2, -338658.84, 39152.566, -20320.14, -0.014049766, 0.055611342, 40242.316, 40242.316, 0.0, 9.9968, 10.001809 
1.4450403e+3, 1.24475054e+2, -1359500.6, -1823565.4, 26887.941, -0.16435868, -0.018431617, -1357947.9, 362193.34, 0.010773304, 10.003687, 9.997475 
1.4450422e+3, 1.3447344e+2, -1208041.4, -1589629.8, -51308.273, 0.1035436, -0.016092317, -1201262.9, 420895.06, 0.0063539445, 10.003559, 9.998475 
1.4450397e+3, 1.4447151e+2, -1151694.5, -1514487.4, -20785.488, -0.11971206, -0.05982607, -1150507.5, 373669.7, 0.0027018294, 10.003274, 9.99845 
1.4450404e+3, 1.5447028e+2, -1123196.1, -1453699.1, -29316.615, -0.07126632, -0.026768666, -1120615.8, 305572.88, 0.0006557922, 10.002807, 9.998419 
1.4450404e+3, 1.6446885e+2, -1082372.9, -1391976.3, -59235.027, -0.05090254, -0.0051094554, -1071426.8, 256776.22, 0.000052490832, 10.002451, 9.998342 
1.4450403e+3, 1.7446736e+2, -1012731.2, -1304086.5, -53740.973, -0.013558793, 0.005971235, -1003134.6, 227084.7, 0.00000012546444, 10.00224, 9.998374 
1.4450398e+3, 1.8446589e+2, -948326.7, -1175688.4, -44632.543, -0.008858964, 0.0013104579, -939878.9, 192355.64, 0.0, 10.001807, 9.998792 
1.445039e+3, 1.9446442e+2, -948108.0, -1118185.1, -49484.39, -0.06207978, -0.032159746, -934758.25, 99490.125, 0.0, 10.001107, 9.99885 
1.4450385e+3, 2.0446339e+2, -896268.75, -1023266.0, -74433.586, -0.067965135, -0.025490435, -861928.56, 74329.78, 0.0, 10.000708, 9.9990225 
1.445038e+3, 2.1446298e+2, -799641.7, -921094.56, -74347.234, -0.008685688, 0.024118843, -764372.25, 73891.164, 0.0, 10.000678, 9.999064 
1.4450376e+3, 2.2446215e+2, -752166.44, -856029.9, -54894.195, 0.012323716, 0.04031311, -728531.75, 11740.581, 0.0, 10.000367, 9.998988 
1.445037e+3, 2.3446088e+2, -748494.25, -800602.0, -53850.86, -0.016980741, 0.008869372, -714725.75, -72439.73, 0.0, 9.999707, 9.999014 
1.4450364e+3, 2.4446e+2, -702058.0, -702240.3, -63078.547, -0.02823152, 0.010542071, -639070.56, -94775.22, 0.0, 9.999245, 9.999239 
1.445036e+3, 2.5445965e+2, -631951.44, -612469.4, -64557.695, -0.016401425, 0.04471076, -556921.94, -110622.734, 0.0, 9.99903, 9.999286 
1.4450356e+3, 2.6445913e+2, -575654.44, -518651.84, -30961.352, -0.00818155, 0.058985595, -505070.72, -156766.16, 0.0, 9.998676, 9.999427 
1.445036e+3, 2.7445847e+2, -550670.06, -450083.8, -24601.738, -0.0061312574, 0.042664487, -444389.03, -194077.61, 0.0, 9.99815, 9.999477 
1.445036e+3, 2.84458e+2, -490388.66, -337951.9, -21253.314, -0.01112926, 0.03669299, -335044.16, -182728.13, 0.0, 9.997751, 9.999766 
1.4450361e+3, 2.944578e+2, -427333.25, -257010.11, -23422.256, -0.018172828, 0.032958046, -253847.88, -199529.84, 0.0, 9.997511, 9.999765 
1.4450367e+3, 3.0445793e+2, -452219.3, -257139.44, -10193.212, 0.033142686, 0.08098959, -256608.28, -256608.28, 0.0, 9.997066, 9.999645 
1.4450367e+3, 3.1445718e+2, -398374.13, 10475.305, 15899.778, 0.0046694847, 0.028338918, 11092.7, 11092.7, 0.0, 9.996392, 10.001808 
1.4550447e+3, 1.2447412e+2, -1354965.1, -1814940.8, 17725.834, -0.076623574, -0.03288787, -1354283.0, 365867.53, 0.011330055, 10.003691, 9.997533 
1.4550452e+3, 1.3447294e+2, -1202373.4, -1577203.3, -56107.613, 0.048031576, 0.0008590064, -1194155.0, 428007.66, 0.0067066574, 10.003558, 9.998562 
1.4550422e+3, 1.4447099e+2, -1166317.9, -1545489.3, -39490.234, -0.18944207, -0.036880467, -1162248.8, 361932.94, 0.002869533, 10.003276, 9.998237 
1.4550436e+3, 1.544693e+2, -1138721.1, -1486494.4, -47168.992, -0.027914472, -0.026706332, -1132437.1, 293761.2, 0.00070392614, 10.00281, 9.998193 
1.4550434e+3, 1.6446766e+2, -1072851.5, -1373442.5, -68473.01, 0.012938724, -0.020889254, -1057988.6, 270226.0, 0.000058062662, 10.002455, 9.998467 
1.4550422e+3, 1.7446622e+2, -1001712.94, -1282299.9, -61800.887, -0.03918942, -0.020570114, -988704.06, 241525.42, 0.00000016567238, 10.002243, 9.998523 
1.4550413e+3, 1.8446486e+2, -957495.7, -1195507.5, -70923.33, -0.05009158, -0.013723935, -937964.5, 194278.8, 0.0, 10.001809, 9.998655 
1.4550404e+3, 1.9446363e+2, -958175.4, -1140584.3, -75894.95, -0.028669098, -0.0076344367, -930727.8, 103528.03, 0.0, 10.001113, 9.998694 
1.4550395e+3, 2.0446247e+2, -894584.5, -1020293.56, -77583.32, -0.023089238, -0.009149964, -857589.8, 78677.805, 0.0, 10.000709, 9.9990425 
1.4550386e+3, 2.1446142e+2, -797360.0, -916559.0, -75506.86, -0.028995847, -0.026044192, -760765.0, 77513.195, 0.0, 10.000677, 9.999097 
1.4550376e+3, 2.2446063e+2, -751715.0, -854464.8, -78843.93, -0.024492329, -0.007735062, -708984.94, 31301.646, 0.0, 10.000364, 9.9990015 
1.4550367e+3, 2.3446022e+2, -747324.06, -798549.4, -78251.84, -0.009685474, 0.046375636, -690599.8, -48307.55, 0.0, 9.999708, 9.999028 
1.455036e+3, 2.4445945e+2, -701213.06, -700990.7, -71666.39, -0.0061133117, 0.05811444, -629435.4, -85134.76, 0.0, 9.999246, 9.9992485 
1.4550349e+3, 2.544583e+2, -631736.94, -611722.1, -71563.086, -0.015462006, 0.010543448, -549470.1, -103158.0, 0.0, 9.999027, 9.999293 
1.4550343e+3, 2.6445764e+2, -565097.25, -496273.53, -49336.75, -0.009740866, 0.004852307, -470533.16, -122214.89, 0.0, 9.998673, 9.999582 
1.4550342e+3, 2.744577e+2, -539832.56, -426722.34, -42949.777, 0.012363492, 0.044939987, -412262.22, -161944.84, 0.0, 9.998145, 9.99964 
1.4550339e+3, 2.844574e+2, -488661.47, -334304.16, -29546.37, -0.0005781279, 0.043469585, -328841.84, -176521.44, 0.0, 9.99775, 9.999793 
1.4550333e+3, 2.9445663e+2, -426733.47, -256122.53, -30457.096, -0.049151886, -0.018432794, -250848.42, -196520.11, 0.0, 9.997511, 9.999772 
1.4550334e+3, 3.0445725e+2, -430471.34, -212770.83, -33253.793, 0.0057706106, 0.06264182, -207804.6, -207804.6, 0.0, 9.997068, 9.9999485 
1.4550334e+3, 3.1445697e+2, -395479.8, 17422.078, -11407.429, 0.03714853, 0.026601227, 17736.996, 17736.996, 0.0, 9.9963875, 10.001859 
1.4650488e+3, 1.2447369e+2, -1300558.8, -1789952.0, 42874.395, -0.061218433, -0.043385085, -1296831.1, 423323.2, 0.011928725, 10.004078, 9.997519 
1.4650488e+3, 1.3447252e+2, -1175794.6, -1565268.5, -34658.13, 0.04103671, -0.007881127, -1172734.5, 449431.22, 0.0070884125, 10.003748, 9.998551 
1.4650455e+3, 1.4447056e+2, -1158012.6, -1548732.1, -24070.383, -0.19143195, -0.0442573, -1156535.4, 367649.72, 0.003053339, 10.003368, 9.998168 
1.4650467e+3, 1.5446879e+2, -1125226.4, -1487924.3, -22129.346, -0.014129337, -0.033774216, -1123881.3, 302321.56, 0.0007578694, 10.002936, 9.998121 
1.4650461e+3, 1.6446711e+2, -1063069.3, -1368603.6, -35953.35, 0.026842603, -0.028551834, -1058895.5, 269324.1, 0.00006440502, 10.0025215, 9.998467 
1.4650443e+3, 1.7446564e+2, -1016595.6, -1288658.6, -40467.277, -0.046040714, -0.031115057, -1010704.06, 219530.45, 0.00000022299002, 10.00214, 9.998528 
1.4650428e+3, 1.8446432e+2, -966520.56, -1198359.5, -59032.375, -0.060234506, -0.02056439, -952354.9, 179892.97, 0.0, 10.001743, 9.998667 
1.4650418e+3, 1.9446322e+2, -925431.1, -1123616.8, -52708.395, -0.020726629, -0.0016903277, -912285.1, 121974.25, 0.0, 10.001334, 9.998704 
1.4650406e+3, 2.0446207e+2, -868685.0, -1013015.8, -38757.473, -0.010585002, -0.0021593838, -858935.9, 77335.48, 0.0, 10.00091, 9.998995 
1.4650393e+3, 2.1446082e+2, -832394.25, -939304.75, -42900.1, -0.030198852, -0.03193343, -817308.44, 20975.328, 0.0, 10.000463, 9.999043 
1.4650379e+3, 2.2446004e+2, -789013.3, -864076.7, -56127.67, -0.030829918, -0.015516336, -759025.06, -18732.904, 0.0, 10.000072, 9.999076 
1.4650366e+3, 2.344598e+2, -735615.94, -783513.3, -52174.3, -0.010467431, 0.04898383, -702156.5, -59860.727, 0.0, 9.999748, 9.999111 
1.4650352e+3, 2.4445906e+2, -683556.7, -699848.8, -38934.734, -0.0033787591, 0.061082087, -651925.0, -107620.94, 0.0, 9.999399, 9.999182 
1.4650339e+3, 2.544577e+2, -639528.4, -623632.6, -45058.05, -0.012145285, 0.0018243272, -585826.9, -139508.89, 0.0, 9.99901, 9.999219 
1.465033e+3, 2.644571e+2, -574256.1, -485275.6, -34861.14, -0.006578167, -0.003001366, -473244.34, -124920.62, 0.0, 9.998545, 9.99972 
1.4650322e+3, 2.7445745e+2, -552286.7, -416156.7, -31513.498, 0.01495823, 0.052209225, -409215.4, -158896.25, 0.0, 9.997988, 9.999789 
1.4650315e+3, 2.8445718e+2, -522948.9, -346424.84, -9948.893, 0.004061378, 0.04509714, -345865.88, -193544.34, 0.0, 9.997496, 9.999832 
1.4650306e+3, 2.9445618e+2, -486068.3, -280995.2, -9918.071, -0.039626863, -0.043396614, -280516.63, -226184.5, 0.0, 9.997089, 9.999804 
1.4650305e+3, 3.0445716e+2, -461846.22, -194235.3, -17901.023, 0.006467476, 0.056318738, -193043.17, -193043.17, 0.0, 9.996708, 10.000249 
1.4650297e+3, 3.1445712e+2, -401698.66, 11223.086, -2660.664, 0.02224353, 0.013586574, 11240.229, 11240.229, 0.0, 9.996358, 10.001829 
1.4750524e+3, 1.2447384e+2, -1305335.6, -1800677.5, 25932.22, -0.11379222, -0.046647716, -1303981.6, 416169.9, 0.012562503, 10.004082, 9.997443 
1.4750528e+3, 1.3447227e+2, -1181790.6, -1577904.4, -47117.344, 0.07749099, -0.042128213, -1176263.1, 445903.63, 0.007494929, 10.003751, 9.998463 
1.4750496e+3, 1.4447024e+2, -1153531.1, -1540966.0, -40832.348, -0.13252373, -0.08089759, -1149274.5, 374912.16, 0.003251416, 10.003375, 9.998219 
1.4750494e+3, 1.5446879e+2, -1120367.4, -1478212.0, -38441.754, -0.030096134, -0.047830027, -1116284.4, 309917.3, 0.0008173103, 10.002938, 9.998187 
1.4750484e+3, 1.6446725e+2, -1071384.8, -1387170.8, -51943.734, -0.009069392, -0.027149698, -1063060.0, 265157.66, 0.000071419374, 10.002526, 9.998339 
1.4750466e+3, 1.7446566e+2, -1025582.0, -1308875.6, -55169.516, -0.03585398, -0.026272537, -1015217.3, 215016.72, 0.0000002932695, 10.002146, 9.998386 
1.4750448e+3, 1.844643e+2, -955324.1, -1176021.3, -74993.53, -0.042209722, -0.019726261, -932252.9, 199995.02, 0.0, 10.001746, 9.998818 
1.475043e+3, 1.9446324e+2, -913053.9, -1099088.4, -68303.39, -0.039248638, -0.014123018, -890669.4, 143589.27, 0.0, 10.001338, 9.998871 
1.4750412e+3, 2.044622e+2, -877016.75, -1030497.25, -56193.793, -0.032073267, -0.0042691785, -858642.25, 77627.164, 0.0, 10.00091, 9.998876 
1.4750397e+3, 2.1446122e+2, -841784.56, -959428.3, -59639.824, -0.013695679, 0.005010258, -816839.4, 21440.678, 0.0, 10.000464, 9.998905 
1.4750381e+3, 2.2446036e+2, -780345.56, -845899.44, -68890.984, -0.007823708, 0.0150417965, -736831.6, 3457.501, 0.0, 10.000071, 9.999202 
1.4750361e+3, 2.3445965e+2, -725829.2, -763397.4, -63949.707, -0.020010978, 0.017858962, -677961.9, -35665.645, 0.0, 9.999748, 9.99925 
1.4750344e+3, 2.4445882e+2, -693491.8, -720024.56, -53236.496, -0.021644568, 0.020725155, -651893.6, -107588.2, 0.0, 9.999397, 9.999044 
1.475033e+3, 2.544579e+2, -650744.7, -646199.8, -58700.48, -0.008295331, 0.017822552, -589727.8, -143411.06, 0.0, 9.999007, 9.999065 
1.4750317e+3, 2.6445746e+2, -566009.7, -468446.25, -54383.816, 0.0005146017, 0.033998072, -444171.44, -95850.37, 0.0, 9.998545, 9.999836 
1.4750302e+3, 2.744577e+2, -543337.94, -397528.72, -50738.016, 0.0003301453, 0.06464007, -381610.88, -131294.13, 0.0, 9.997986, 9.999919 
1.475029e+3, 2.8445736e+2, -520140.13, -339865.53, -24599.959, -0.000027705288, 0.043083936, -336568.97, -184249.61, 0.0, 9.997492, 9.999879 
1.4750282e+3, 2.9445645e+2, -484439.4, -276352.03, -23451.678, 0.008099937, -0.042468578, -273741.75, -219412.13, 0.0, 9.997084, 9.999838 
1.4750274e+3, 3.044576e+2, -439390.1, -148134.14, -29758.791, 0.034261025, 0.06046643, -145124.66, -145124.66, 0.0, 9.996708, 10.0005665 
1.4750254e+3, 3.1445786e+2, -408567.94, -4356.467, -16974.928, -0.04422601, 0.012589325, -3644.8547, -3644.8547, 0.0, 9.996362, 10.001721 
1.4850569e+3, 1.2447446e+2, -1227261.3, -1769621.6, 44168.156, -0.10874893, -0.05515942, -1223687.9, 496456.72, 0.01322851, 10.00466, 9.997377 
1.4850569e+3, 1.3447268e+2, -1169330.5, -1583317.3, -27581.652, 0.09035412, -0.060592085, -1167500.9, 454660.8, 0.007923666, 10.003888, 9.99836 
1.4850532e+3, 1.4447066e+2, -1153313.3, -1543428.3, -15174.965, -0.11844343, -0.094845705, -1152723.9, 371458.16, 0.0034621921, 10.003388, 9.998196 
1.4850524e+3, 1.5446931e+2, -1078170.4, -1458616.6, -18081.791, -0.03895876, -0.048730657, -1077312.9, 348883.28, 0.00088177144, 10.003233, 9.9981785 
1.4850508e+3, 1.6446778e+2, -1025410.1, -1362786.8, -37149.21, -0.022304358, -0.025618354, -1021367.94, 306843.84, 0.00007901186, 10.002835, 9.998356 
1.4850487e+3, 1.744661e+2, -1023533.6, -1306241.8, -30549.293, -0.032546967, -0.0357398, -1020270.1, 209958.61, 0.00000037325287, 10.002153, 9.9984 
1.4850466e+3, 1.8446471e+2, -973253.1, -1192679.8, -45127.965, -0.032887813, -0.031877767, -964334.44, 167908.78, 0.0, 10.0016575, 9.998746 
1.4850444e+3, 1.9446367e+2, -910303.8, -1105978.1, -56861.914, -0.037752792, -0.01709152, -894980.06, 139274.33, 0.0, 10.001394, 9.9987955 
1.4850421e+3, 2.0446268e+2, -864778.7, -1019110.7, -55244.93, -0.03373888, 0.000055255412, -847041.6, 89223.22, 0.0, 10.000972, 9.998923 
1.4850402e+3, 2.1446179e+2, -854594.06, -959493.4, -45784.03, -0.013276896, 0.012710276, -837422.3, 851.9974, 0.0, 10.000352, 9.998959 
1.4850381e+3, 2.2446087e+2, -800757.6, -855788.3, -41503.797, -0.0065722354, 0.015401803, -778476.8, -38193.098, 0.0, 9.999931, 9.999201 
1.4850359e+3, 2.3445997e+2, -725981.25, -764433.2, -47581.633, -0.020111902, -0.0019819152, -693888.1, -51595.203, 0.0, 9.999753, 9.999241 
1.4850338e+3, 2.4445923e+2, -688737.25, -708286.06, -43419.316, -0.021221526, 0.0070255017, -654005.75, -109704.44, 0.0, 9.99939, 9.999127 
1.4850318e+3, 2.5445876e+2, -675126.2, -648196.56, -32937.543, -0.0047694957, 0.04209111, -626077.94, -179769.63, 0.0, 9.998798, 9.999152 
1.48503e+3, 2.644584e+2, -603602.4, -488667.94, -23340.82, 0.0034912133, 0.0592857, -484108.75, -135796.52, 0.0, 9.998297, 9.999816 
1.4850281e+3, 2.7445814e+2, -556655.75, -406836.3, -31926.22, -0.0028323047, 0.04416885, -400316.6, -150004.19, 0.0, 9.997909, 9.999891 
1.4850263e+3, 2.844578e+2, -521703.97, -331391.44, -10622.966, -0.0011577267, 0.01859226, -330800.3, -178485.14, 0.0, 9.997443, 9.99996 
1.4850253e+3, 2.9445744e+2, -508871.56, -278677.34, -7963.4526, 0.020055868, -0.018124405, -278402.2, -224082.14, 0.0, 9.996876, 9.999922 
1.4850241e+3, 3.0445868e+2, -462129.25, -124182.47, -6822.584, 0.04146271, 0.07160367, -124044.79, -124044.79, 0.0, 9.996403, 10.000877 
1.4850216e+3, 3.1445888e+2, -458197.88, -33154.355, 2433.4902, -0.04271825, -0.013053256, -33140.42, -33140.42, 0.0, 9.996044, 10.001675 
1.4950621e+3, 1.2447561e+2, -1233539.9, -1782423.4, 10327.54, -0.049354702, -0.067909464, -1233345.6, 486786.78, 0.013933712, 10.004661, 9.997289 
1.4950606e+3, 1.3447383e+2, -1179340.0, -1603767.8, -56463.27, 0.08024298, -0.062920384, -1171956.9, 450193.34, 0.008378451, 10.003889, 9.998218 
1.4950562e+3, 1.444718e+2, -1158024.1, -1555211.1, -23802.139, -0.1482087, -0.0844991, -1156602.9, 367567.9, 0.0036866989, 10.003396, 9.998112 
1.4950556e+3, 1.544704e+2, -1082664.8, -1469057.0, -24240.092, -0.04346026, -0.036785863, -1081150.0, 345035.75, 0.00095130136, 10.003238, 9.998106 
1.4950538e+3, 1.6446881e+2, -1014418.75, -1341204.4, -62581.85, -0.017192429, -0.023830166, -1002843.8, 325357.8, 0.00008722728, 10.00284, 9.998503 
1.495051e+3, 1.7446703e+2, -1011980.0, -1283607.5, -56504.71, -0.036858805, -0.059363768, -1000694.6, 229523.73, 0.0000004647829, 10.002158, 9.998554 
1.4950484e+3, 1.8446556e+2, -993487.3, -1235698.1, -56722.668, -0.03347592, -0.05607291, -980861.75, 151371.8, 0.0, 10.001661, 9.998449 
1.4950459e+3, 1.9446449e+2, -932018.7, -1152347.8, -66842.6, -0.01790864, -0.011537973, -913326.1, 120920.375, 0.0, 10.001398, 9.998475 
1.4950432e+3, 2.0446348e+2, -850280.25, -989195.4, -78368.99, -0.017327437, 0.009263573, -815018.94, 121238.65, 0.0, 10.000972, 9.999129 
1.4950404e+3, 2.1446252e+2, -837403.44, -924778.0, -69193.984, -0.029446347, -0.0077173193, -799259.3, 39007.035, 0.0, 10.000355, 9.999196 
1.4950378e+3, 2.244616e+2, -809836.3, -874708.44, -49448.77, -0.028255315, -0.013672233, -783134.56, -42858.81, 0.0, 9.999931, 9.999071 
1.4950357e+3, 2.3446073e+2, -736610.8, -786247.7, -53838.758, -0.012410156, -0.011258545, -702145.44, -59859.73, 0.0, 9.999751, 9.999092 
1.4950334e+3, 2.4446025e+2, -669141.7, -667056.7, -64406.234, -0.0035727033, 0.018530894, -603684.5, -59392.773, 0.0, 9.999387, 9.999413 
1.4950308e+3, 2.544603e+2, -653818.44, -603592.56, -54081.97, -0.0023913425, 0.07517012, -569077.3, -122784.734, 0.0, 9.998796, 9.999459 
1.4950283e+3, 2.6445985e+2, -614418.3, -510450.25, -37723.348, 0.00076553324, 0.07362792, -498205.06, -149907.9, 0.0, 9.998293, 9.999668 
1.495026e+3, 2.7445874e+2, -569265.3, -432522.2, -45016.184, 0.0040481007, -0.009395063, -419033.34, -168727.1, 0.0, 9.997907, 9.999717 
1.4950238e+3, 2.844584e+2, -514309.4, -316614.66, -30211.715, -0.00015273067, -0.029153928, -312100.78, -159791.63, 0.0, 9.997444, 10.000062 
1.4950219e+3, 2.9445913e+2, -501511.4, -263046.6, -27393.102, -0.0072396663, 0.030248271, -259940.33, -205636.81, 0.0, 9.996873, 10.000031 
1.4950202e+3, 3.0446026e+2, -440792.66, -78753.34, -19828.625, 0.023526253, 0.09019814, -77670.586, -77670.586, 0.0, 9.996398, 10.001192 
1.4950183e+3, 3.1446022e+2, -456496.34, -29494.117, -10118.128, 0.024015745, -0.05073804, -29254.494, -29254.494, 0.0, 9.996044, 10.0017 
1.5050669e+3, 1.2447726e+2, -1251806.9, -1798922.1, 32292.271, -0.03106829, -0.08519249, -1249907.5, 470208.25, 0.014688751, 10.004568, 9.997221 
1.5050648e+3, 1.3447556e+2, -1087018.3, -1573902.6, -29110.295, 0.08047358, -0.059613287, -1085284.0, 536849.1, 0.008865486, 10.004595, 9.998084 
1.5050599e+3, 1.4447346e+2, -1055197.6, -1514647.8, -2554.5232, -0.15306164, -0.07403524, -1055183.5, 468970.78, 0.003927672, 10.004148, 9.998028 
1.5050587e+3, 1.5447183e+2, -1101373.1, -1486728.1, -5123.9404, -0.0447124, -0.042037383, -1101305.0, 324866.53, 0.0010266973, 10.003146, 9.998029 
1.5050565e+3, 1.6447018e+2, -1051160.9, -1357260.8, -40063.934, -0.019783104, -0.032825436, -1046003.94, 282184.2, 0.00009630864, 10.00258, 9.998518 
1.505053e+3, 1.7446852e+2, -954230.56, -1253222.6, -43857.25, -0.04831634, -0.058493767, -947930.2, 282273.25, 0.000000575819, 10.002544, 9.998575 
1.50505e+3, 1.8446705e+2, -927156.06, -1206750.8, -47005.773, -0.04346916, -0.055279177, -919464.94, 212753.48, 0.0, 10.002131, 9.998421 
1.5050472e+3, 1.9446583e+2, -954841.6, -1167278.5, -37290.785, -0.014629099, -0.022474855, -948485.9, 85746.89, 0.0, 10.001259, 9.99844 
1.5050443e+3, 2.0446472e+2, -889073.75, -1012470.44, -38848.992, -0.010926988, -0.007469512, -877861.7, 58383.164, 0.0, 10.000725, 9.999088 
1.5050408e+3, 2.1446373e+2, -804241.56, -913441.56, -50688.246, -0.032875128, -0.022358412, -784340.2, 53913.87, 0.0, 10.000604, 9.999153 
1.5050378e+3, 2.244629e+2, -767747.44, -849044.0, -39228.156, -0.034321077, -0.019623127, -751905.6, -11642.74, 0.0, 10.000198, 9.999118 
1.5050353e+3, 2.3446223e+2, -778129.25, -800551.06, -30042.244, -0.01191686, -0.00065092987, -757274.25, -115003.21, 0.0, 9.999443, 9.999142 
1.5050326e+3, 2.4446183e+2, -729559.06, -682537.9, -36528.094, -0.001153324, 0.027632492, -662608.3, -118332.055, 0.0, 9.998915, 9.999533 
1.5050294e+3, 2.5446177e+2, -664250.94, -594697.94, -41186.848, -0.005509342, 0.05913395, -575569.3, -129291.67, 0.0, 9.998666, 9.999583 
1.5050267e+3, 2.644613e+2, -616665.06, -516596.78, -29368.482, -0.0011928073, 0.05359009, -508614.34, -160332.08, 0.0, 9.9983015, 9.999621 
1.505024e+3, 2.7446035e+2, -590149.0, -448804.97, -28707.834, 0.01342941, -0.006432619, -443196.78, -192906.05, 0.0, 9.997792, 9.999659 
1.5050213e+3, 2.844602e+2, -535361.94, -311814.66, -12826.891, 0.010642507, -0.01560159, -311081.06, -158788.63, 0.0, 9.997236, 10.000195 
1.5050186e+3, 2.9446098e+2, -526434.06, -258510.77, -9161.489, -0.009963649, 0.037762694, -258197.86, -203912.73, 0.0, 9.996633, 10.000178 
1.5050165e+3, 3.0446178e+2, -469338.63, -93833.45, -72.78285, 0.011990835, 0.05760299, -93833.445, -93833.445, 0.0, 9.996207, 10.001181 
1.5050146e+3, 3.1446242e+2, -476524.34, -55978.84, -16891.627, 0.04010702, -0.011074183, -55301.46, -55301.46, 0.0, 9.995978, 10.001551 
1.5150712e+3, 1.2447949e+2, -1252843.5, -1802009.1, 25869.428, -0.05011991, -0.09754879, -1251627.5, 468465.84, 0.015498206, 10.004575, 9.997196 
1.5150696e+3, 1.3447788e+2, -1094836.0, -1589294.4, -28392.084, 0.08752883, -0.0511614, -1093211.0, 528898.8, 0.009387035, 10.004594, 9.997978 
1.5150642e+3, 1.4447574e+2, -1062163.9, -1529858.1, -39062.055, -0.13752349, -0.06292415, -1058923.9, 465208.06, 0.0041865134, 10.00415, 9.997922 
1.5150619e+3, 1.5447368e+2, -1107754.1, -1501528.8, -42891.215, -0.04331442, -0.063620046, -1103136.5, 323016.97, 0.0011086839, 10.003152, 9.997925 
1.5150589e+3, 1.6447194e+2, -1057159.4, -1371845.5, -44166.06, -0.03089987, -0.051049996, -1051078.3, 277092.7, 0.000106542946, 10.002587, 9.998414 
1.5150554e+3, 1.744706e+2, -960988.94, -1268163.4, -45275.86, -0.068760745, -0.034484934, -954454.5, 275729.22, 0.0000007145684, 10.002547, 9.998472 
1.515052e+3, 1.8446918e+2, -911445.7, -1174605.8, -78675.93, -0.06533414, -0.031102063, -889718.2, 242479.56, 0.0, 10.002132, 9.998642 
1.5150483e+3, 1.944677e+2, -937279.75, -1132497.5, -70289.42, -0.028265592, -0.04912908, -914605.25, 119607.734, 0.0, 10.001266, 9.998676 
1.5150449e+3, 2.0446642e+2, -908753.94, -1054363.5, -45433.145, -0.015164035, -0.04887643, -895740.9, 40485.56, 0.0, 10.000729, 9.998799 
1.5150414e+3, 2.1446544e+2, -826880.4, -960370.94, -55158.88, -0.02566202, -0.032116976, -807037.94, 31199.496, 0.0, 10.000602, 9.998833 
1.515038e+3, 2.2446477e+2, -753560.2, -818637.44, -66619.28, -0.026968934, -0.0043065394, -711957.75, 28287.41, 0.0, 10.000194, 9.99933 
1.5150347e+3, 2.3446453e+2, -761124.25, -765576.8, -58055.273, -0.018840853, 0.030235684, -705252.56, -63003.754, 0.0, 9.999444, 9.999382 
1.5150313e+3, 2.44464e+2, -732638.1, -689044.4, -46622.76, -0.014934142, 0.03457057, -659374.9, -115120.11, 0.0, 9.998915, 9.999489 
1.5150279e+3, 2.544631e+2, -668752.6, -603655.6, -49559.688, -0.015651241, -0.006012346, -576911.94, -130648.51, 0.0, 9.998664, 9.999523 
1.5150249e+3, 2.6446274e+2, -613796.5, -510086.4, -46868.95, -0.003665484, -0.0010983073, -492044.06, -143776.53, 0.0, 9.998299, 9.999668 
1.5150219e+3, 2.74463e+2, -587234.2, -442207.5, -46067.613, 0.023074057, 0.053313382, -428811.53, -178545.64, 0.0, 9.997788, 9.999706 
1.5150186e+3, 2.844631e+2, -523328.78, -286679.22, -34792.69, 0.028317954, 0.059754726, -281669.97, -129404.87, 0.0, 9.997235, 10.000368 
1.5150155e+3, 2.9446298e+2, -513609.88, -232599.16, -30365.99, 0.010787421, 0.0037748031, -229355.27, -175090.3, 0.0, 9.996634, 10.000357 
1.5150125e+3, 3.044632e+2, -492306.53, -142521.69, -7506.9814, 0.005826455, -0.028920779, -142360.66, -142360.66, 0.0, 9.99621, 10.000845 
1.51501e+3, 3.144655e+2, -497123.3, -98025.29, -21562.797, -0.001640946, 0.101939686, -96863.66, -96863.66, 0.0, 9.995974, 10.001265 
1.525076e+3, 1.2448236e+2, -1140185.6, -1749769.1, 28226.17, -0.06826884, -0.078142695, -1138881.4, 581184.44, 0.016359234, 10.00538, 9.997168 
1.5250741e+3, 1.3448043e+2, -1134188.9, -1621434.8, -21943.008, 0.09200363, -0.05420619, -1133202.8, 488882.75, 0.00994102, 10.00438, 9.997859 
1.5250683e+3, 1.4447819e+2, -1112039.5, -1552655.1, -29858.947, -0.12820996, -0.07000782, -1110025.3, 414083.13, 0.0044620475, 10.0038, 9.997935 
1.5250653e+3, 1.5447627e+2, -1022050.7, -1457107.9, -24666.148, -0.046080697, -0.05752028, -1020656.7, 405471.3, 0.0011970813, 10.003729, 9.997952 
1.5250617e+3, 1.6447456e+2, -964495.25, -1331997.3, -17522.51, -0.03686669, -0.042306077, -963661.7, 364483.47, 0.000118069845, 10.003247, 9.998369 
1.5250579e+3, 1.7447306e+2, -1004218.7, -1294945.5, -15717.513, -0.06935923, -0.035709254, -1003371.44, 226788.03, 0.0000008766353, 10.002276, 9.998419 
1.525054e+3, 1.8447158e+2, -968112.75, -1203338.1, -52196.71, -0.06754698, -0.036428604, -957050.5, 175123.81, 0.0, 10.001749, 9.99863 
1.5250498e+3, 1.9447011e+2, -865032.75, -1098789.8, -62384.684, -0.040397987, -0.050261017, -849425.7, 184763.63, 0.0, 10.001767, 9.998666 
1.5250458e+3, 2.0446888e+2, -826198.9, -1016125.56, -43626.16, -0.024026902, -0.04505486, -816657.25, 119545.18, 0.0, 10.001304, 9.998784 
1.525042e+3, 2.1446794e+2, -879063.5, -987607.0, -31960.469, -0.015545739, -0.022228379, -870351.94, -32138.838, 0.0, 10.000254, 9.998813 
1.525038e+3, 2.2446726e+2, -838015.2, -857512.75, -33112.07, -0.01373455, 0.0050033415, -813246.6, -73025.58, 0.0, 9.999607, 9.999345 
1.525034e+3, 2.3446694e+2, -758068.25, -762245.56, -41994.316, -0.02319129, 0.029908763, -718110.6, -75885.234, 0.0, 9.999457, 9.999398 
1.5250301e+3, 2.4446638e+2, -706430.7, -673654.0, -37103.84, -0.025837352, 0.03065031, -649480.4, -105248.85, 0.0, 9.9990835, 9.999513 
1.5250266e+3, 2.5446558e+2, -701045.5, -616474.06, -34456.33, -0.018631944, -0.0050700256, -604213.3, -157973.83, 0.0, 9.998431, 9.999547 
1.525023e+3, 2.6446533e+2, -667912.7, -521976.28, -26847.795, -0.0046245446, 0.00337973, -517193.84, -168951.28, 0.0, 9.997867, 9.999794 
1.5250194e+3, 2.7446574e+2, -634324.8, -450021.1, -21133.354, 0.015965525, 0.05871467, -447628.84, -197389.31, 0.0, 9.997403, 9.999839 
1.5250157e+3, 2.844659e+2, -561907.1, -308036.03, -12662.805, 0.026640162, 0.0711391, -307405.97, -155168.25, 0.0, 9.996984, 10.000343 
1.5250123e+3, 2.9446587e+2, -517378.2, -237793.25, -24899.7, 0.028274514, 0.026155928, -235593.0, -181355.94, 0.0, 9.996624, 10.000325 
1.5250088e+3, 3.044657e+2, -500541.22, -152662.38, 3324.2139, 0.007847843, -0.042749528, -152630.63, -152630.63, 0.0, 9.996183, 10.000789 
1.5250055e+3, 3.1446835e+2, -535629.5, -97537.695, 14042.352, -0.029908946, 0.1297797, -97088.05, -97088.05, 0.0, 9.99563, 10.001433 
1.5350813e+3, 1.2448594e+2, -1143953.3, -1756754.8, -16379.077, -0.08364328, -0.024714394, -1143515.8, 576516.75, 0.017266577, 10.005379, 9.997121 
1.5350784e+3, 1.3448322e+2, -1143539.3, -1642299.3, -59283.203, 0.09276663, -0.06786129, -1136589.6, 485469.88, 0.010524842, 10.004388, 9.997714 
1.5350722e+3, 1.4448084e+2, -1100831.8, -1531830.1, -35348.344, -0.12579846, -0.09356507, -1097951.9, 426131.16, 0.0047524855, 10.003812, 9.998074 
1.5350689e+3, 1.5447965e+2, -1010536.94, -1433191.0, -27550.611, -0.05499481, -0.02511761, -1008748.6, 417346.47, 0.0012910978, 10.003729, 9.998117 
1.5350649e+3, 1.6447806e+2, -964331.1, -1332357.0, -52950.53, -0.040720988, -0.007160008, -956864.25, 371246.38, 0.00013084838, 10.003248, 9.998367 
1.5350603e+3, 1.7447595e+2, -1004181.75, -1296722.1, -52309.35, -0.051264863, -0.06075435, -995109.6, 235020.75, 0.0000010420176, 10.002283, 9.9984045 
1.5350558e+3, 1.8447424e+2, -984348.1, -1238597.4, -54017.387, -0.05143575, -0.06926192, -973347.6, 158800.06, 0.0, 10.001755, 9.998385 
1.5350515e+3, 1.944731e+2, -883243.3, -1136626.4, -61673.625, -0.053049166, -0.027462058, -869029.25, 165132.36, 0.0, 10.001766, 9.998407 
1.5350468e+3, 2.0447208e+2, -809077.94, -980307.4, -81485.99, -0.03976075, 0.0014529488, -776498.56, 159674.44, 0.0, 10.001302, 9.999032 
1.5350424e+3, 2.1447125e+2, -859414.3, -947632.44, -71276.41, -0.003186408, 0.007727628, -819702.56, 18478.486, 0.0, 10.000257, 9.999086 
1.5350379e+3, 2.2447038e+2, -850474.25, -884139.3, -40702.56, 0.004288108, 0.009409492, -823260.94, -83070.7, 0.0, 9.999609, 9.999162 
1.5350336e+3, 2.3446947e+2, -772886.9, -793027.56, -47002.527, -0.026239503, -0.0016691656, -734888.0, -92687.23, 0.0, 9.999456, 9.999187 
1.5350291e+3, 2.4446902e+2, -700508.2, -660792.5, -60313.77, -0.035029035, 0.015282048, -617151.7, -72945.21, 0.0, 9.999081, 9.999603 
1.5350251e+3, 2.5446916e+2, -694339.06, -602412.4, -57814.832, -0.015986549, 0.06208416, -574516.5, -128310.71, 0.0, 9.99843, 9.999644 
1.5350208e+3, 2.64469e+2, -652844.7, -491002.44, -43715.844, -0.006511327, 0.066220686, -479949.1, -131741.66, 0.0, 9.997868, 10.000007 
1.5350164e+3, 2.7446848e+2, -618724.44, -418183.03, -37093.99, -0.009423147, 0.007657286, -411541.72, -161329.83, 0.0, 9.997403, 10.000057 
1.5350126e+3, 2.8446865e+2, -578300.3, -342038.84, -24861.754, 0.0045199953, 0.017019223, -339451.0, -187240.52, 0.0, 9.996983, 10.000111 
1.535009e+3, 2.9446968e+2, -535884.06, -275896.8, -36345.87, 0.03954008, 0.1071565, -270911.3, -216709.97, 0.0, 9.996622, 10.000066 
1.535005e+3, 3.044693e+2, -484227.53, -119012.07, -16012.679, 0.015307366, 0.017733019, -118311.34, -118311.34, 0.0, 9.996182, 10.00102 
1.535001e+3, 3.1447077e+2, -489752.66, -2599.103, -371.55582, -0.051563952, 0.04767458, -2598.8196, -2598.8196, 0.0, 9.99563, 10.002086 
1.5450865e+3, 1.244896e+2, -1182518.1, -1766414.3, 1153.6956, -0.08311399, -0.020842634, -1182515.9, 537481.9, 0.018218024, 10.0050745, 9.997201 
1.5450831e+3, 1.3448697e+2, -1054930.1, -1599809.6, -24881.82, 0.08329045, -0.05389391, -1053796.3, 568227.0, 0.011138786, 10.005009, 9.997707 
1.5450762e+3, 1.4448455e+2, -1004287.56, -1492831.1, -3062.5288, -0.13699278, -0.08170391, -1004268.4, 519778.84, 0.00505803, 10.004515, 9.998003 
1.5450726e+3, 1.544832e+2, -1047225.6, -1458730.1, -13380.322, -0.05086378, -0.021948464, -1046791.0, 379269.72, 0.0013904545, 10.00351, 9.998047 
1.5450682e+3, 1.6448149e+2, -1021771.44, -1362092.1, -49469.215, -0.031587068, -0.009819417, -1014726.4, 313350.78, 0.00014484508, 10.002863, 9.998349 
1.5450628e+3, 1.7447935e+2, -950893.94, -1272745.9, -49610.254, -0.051283807, -0.065241806, -943420.56, 286676.66, 0.000001197513, 10.002657, 9.998388 
1.5450577e+3, 1.8447767e+2, -925547.56, -1211852.9, -37378.75, -0.05393946, -0.0688683, -920748.0, 211366.3, 0.0, 10.002167, 9.99837 
1.545053e+3, 1.9447665e+2, -947566.4, -1169660.4, -27350.838, -0.050696403, -0.013375203, -944247.75, 89879.62, 0.0, 10.001333, 9.998388 
1.5450479e+3, 2.0447563e+2, -875556.94, -1010904.1, -50968.813, -0.03828433, 0.016757945, -858510.2, 77628.53, 0.0, 10.00084, 9.999043 
1.5450428e+3, 2.144747e+2, -784000.9, -909863.94, -61419.965, -0.010340574, 0.0090335775, -758996.1, 79151.77, 0.0, 10.000769, 9.999099 
1.5450378e+3, 2.2447377e+2, -752355.0, -837480.6, -35373.734, -0.004240388, 0.0072397236, -739574.44, 582.904, 0.0, 10.000286, 9.999156 
1.5450329e+3, 2.3447296e+2, -796613.25, -805560.1, -26951.365, -0.026542928, 0.0057636932, -773766.56, -131599.69, 0.0, 9.999299, 9.999177 
1.5450281e+3, 2.4447253e+2, -769546.25, -691957.9, -32354.793, -0.030698081, 0.026233338, -680236.5, -136064.33, 0.0, 9.998599, 9.999621 
1.5450233e+3, 2.5447264e+2, -719163.0, -612706.25, -37401.258, -0.0135148475, 0.06874273, -600879.9, -154707.98, 0.0, 9.998253, 9.99966 
1.5450186e+3, 2.6447248e+2, -651834.0, -482907.0, -30512.39, -0.008592767, 0.06671529, -477564.66, -129390.99, 0.0, 9.997842, 10.000075 
1.5450138e+3, 2.7447197e+2, -620964.75, -411721.13, -35908.08, -0.017611599, -0.0003524987, -405730.5, -155552.58, 0.0, 9.997357, 10.000124 
1.5450095e+3, 2.844722e+2, -592093.3, -342291.84, -17792.004, -0.0052405926, 0.012086702, -341030.97, -188855.45, 0.0, 9.996862, 10.000167 
1.5450054e+3, 2.944735e+2, -573812.4, -287737.47, -7284.5767, 0.032735974, 0.12094583, -287552.1, -233387.73, 0.0, 9.996336, 10.000122 
1.545001e+3, 3.04473e+2, -553006.44, -153685.86, 10881.96, 0.015671121, 0.025267925, -153389.53, -153389.53, 0.0, 9.99572, 10.001004 
1.5449966e+3, 3.1447417e+2, -550498.0, 10821.568, 8804.666, -0.026688034, 0.022135083, 10959.642, 10959.642, 0.0, 9.995033, 10.002464 
1.5550917e+3, 1.2449345e+2, -1167903.0, -1735564.5, -10680.295, -0.06335122, -0.057701234, -1167702.1, 552258.44, 0.019218184, 10.00508, 9.997411 
1.5550879e+3, 1.3449173e+2, -1046175.1, -1580553.5, -27319.781, 0.06190749, -0.013339852, -1044782.06, 577194.7, 0.011787167, 10.005008, 9.997841 
1.5550804e+3, 1.444893e+2, -1024175.4, -1534736.6, -39631.625, -0.16416007, -0.03412899, -1021117.3, 502883.25, 0.005381574, 10.004517, 9.997714 
1.5550762e+3, 1.5448694e+2, -1068192.8, -1504002.1, -51074.074, -0.035575155, -0.046101775, -1062287.1, 363737.28, 0.0014961702, 10.003517, 9.997734 
1.5550712e+3, 1.644849e+2, -1022540.4, -1366176.5, -59238.953, -0.011130784, -0.04821237, -1012614.94, 315429.5, 0.00016027692, 10.002872, 9.998317 
1.5550654e+3, 1.7448327e+2, -951891.1, -1275363.5, -57256.26, -0.07076368, -0.05080731, -942055.56, 288004.38, 0.0000013687348, 10.002659, 9.99837 
1.5550597e+3, 1.8448187e+2, -911303.3, -1182510.3, -67885.78, -0.07760797, -0.03645014, -895259.9, 236814.22, 0.0, 10.002167, 9.998572 
1.5550545e+3, 1.944808e+2, -931645.8, -1137996.6, -58478.0, -0.03413941, -0.006614988, -916225.94, 117860.305, 0.0, 10.001339, 9.998604 
1.5550491e+3, 2.0447959e+2, -891129.5, -1044581.9, -55368.06, -0.02045775, 0.0029332433, -873237.9, 62861.61, 0.0, 10.000844, 9.998811 
1.5550433e+3, 2.1447824e+2, -802496.44, -947723.6, -63962.867, -0.038675167, -0.018336639, -778342.4, 59771.344, 0.0, 10.000766, 9.998841 
1.5550376e+3, 2.2447747e+2, -740689.75, -812603.4, -70947.84, -0.04113831, -0.0024033326, -697107.4, 43014.918, 0.0, 10.000282, 9.999329 
1.5550323e+3, 2.344774e+2, -782961.94, -777543.75, -63474.51, -0.02489774, 0.052212857, -716720.5, -74596.78, 0.0, 9.999299, 9.999371 
1.5550269e+3, 2.4447696e+2, -773974.4, -701553.94, -45981.74, -0.0148681225, 0.06333282, -679236.4, -135107.61, 0.0, 9.9986, 9.999556 
1.5550216e+3, 2.5447607e+2, -724353.25, -623877.2, -49128.91, -0.012797494, 0.013986916, -603847.8, -157709.92, 0.0, 9.998254, 9.999582 
1.5550163e+3, 2.6447573e+2, -657063.1, -494156.16, -47401.26, -0.011223291, 0.004845972, -481367.7, -133226.42, 0.0, 9.997843, 9.999998 
1.5550113e+3, 2.744761e+2, -627079.8, -424802.88, -52169.508, -0.01055175, 0.036816817, -412140.44, -162002.95, 0.0, 9.997357, 10.000035 
1.5550062e+3, 2.8447655e+2, -567614.06, -291865.6, -36069.477, -0.0057878466, 0.057228744, -287225.56, -135092.69, 0.0, 9.996863, 10.000513 
1.5550014e+3, 2.944772e+2, -548011.56, -234409.89, -25550.209, 0.003768097, 0.062964246, -232341.86, -178215.38, 0.0, 9.996336, 10.000488 
1.5549965e+3, 3.0447686e+2, -573565.0, -196079.53, -13522.017, 0.0054850494, -0.02402453, -195595.77, -195595.77, 0.0, 9.995718, 10.000715 
1.5549923e+3, 3.144783e+2, -544603.94, 21916.146, -9206.765, 0.040923037, 0.03462577, 22065.73, 22065.73, 0.0, 9.995037, 10.002541 
1.565097e+3, 1.244983e+2, -1094597.1, -1707593.6, 20953.363, -0.07806893, -0.06809178, -1093881.6, 626031.0, 0.020277957, 10.005634, 9.997336 
1.5650928e+3, 1.3449663e+2, -1076598.4, -1610095.9, -7094.387, 0.06493846, -0.0066742687, -1076504.0, 545425.0, 0.012477251, 10.004865, 9.9977045 
1.5650849e+3, 1.4449409e+2, -1067341.6, -1562084.6, -31656.234, -0.15983395, -0.027690904, -1065324.4, 458629.75, 0.005727527, 10.004249, 9.997655 
1.56508e+3, 1.5449156e+2, -1025884.1, -1489252.6, -25461.633, -0.038021438, -0.050025553, -1024489.25, 401489.84, 0.0016100877, 10.003834, 9.997682 
1.5650742e+3, 1.6448946e+2, -964284.6, -1349244.9, -15378.235, -0.015350837, -0.05258497, -963671.25, 364328.63, 0.00017757353, 10.003323, 9.998216 
1.5650679e+3, 1.7448786e+2, -954101.4, -1288351.6, -20149.488, -0.07169619, -0.041080955, -952891.1, 277124.53, 0.0000016137079, 10.002696, 9.998263 
1.565062e+3, 1.8448643e+2, -908069.44, -1175011.0, -45953.15, -0.07650629, -0.026358262, -900380.25, 231649.78, 0.0, 10.002164, 9.998625 
1.565056e+3, 1.9448525e+2, -866775.9, -1100159.6, -49625.883, -0.032986987, -0.012451124, -856661.9, 177380.56, 0.0, 10.001757, 9.998662 
1.56505e+3, 2.0448403e+2, -843952.6, -1024730.0, -38530.145, -0.02174488, -0.0065238853, -836083.0, 99972.586, 0.0, 10.001182, 9.998785 
1.5650438e+3, 2.1448274e+2, -857688.7, -978238.94, -30106.193, -0.045770608, -0.016406257, -850588.2, -12518.732, 0.0, 10.000404, 9.998806 
1.5650377e+3, 2.2448201e+2, -807548.8, -843608.8, -42225.44, -0.046845853, 0.0045517664, -779665.1, -39587.215, 0.0, 9.99982, 9.999337 
1.5650316e+3, 2.3448193e+2, -756587.3, -764175.7, -50996.266, -0.021660445, 0.056817498, -709244.3, -67164.83, 0.0, 9.999478, 9.999375 
1.5650256e+3, 2.4448141e+2, -719990.3, -678117.75, -33827.043, -0.010785436, 0.062261987, -659272.2, -115187.164, 0.0, 9.998981, 9.999533 
1.5650198e+3, 2.5448042e+2, -719606.44, -624149.6, -33411.92, -0.016809568, 0.0031317607, -613616.94, -167521.86, 0.0, 9.998299, 9.999558 
1.5650141e+3, 2.644801e+2, -678421.94, -502149.34, -26078.73, -0.011887955, -0.002505957, -498372.06, -150274.03, 0.0, 9.997688, 10.000017 
1.5650086e+3, 2.7448067e+2, -655513.75, -436695.97, -24217.682, 0.0055789324, 0.04764623, -434047.72, -183955.34, 0.0, 9.997156, 10.000051 
1.5650032e+3, 2.8448108e+2, -600204.3, -303402.9, -15305.532, 0.010538012, 0.057476338, -302615.7, -150527.25, 0.0, 9.996622, 10.00055 
1.5649976e+3, 2.9448134e+2, -582100.5, -246126.97, -30991.398, -0.00015732416, 0.023204489, -243292.14, -189206.9, 0.0, 9.996083, 10.000529 
1.5649922e+3, 3.0448136e+2, -605645.2, -216843.81, -25400.088, 0.0021234422, -0.028556233, -215191.47, -215191.47, 0.0, 9.99552, 10.000668 
1.5649875e+3, 3.1448272e+2, -546071.1, 38721.05, 2593.024, 0.053729475, 0.02987332, 38732.547, 38732.547, 0.0, 9.99495, 10.002698 
1.5751022e+3, 1.2450419e+2, -1119153.9, -1758831.5, -19588.197, -0.12463096, -0.05006464, -1118554.6, 601299.1, 0.021409435, 10.005636, 9.996983 
1.5750979e+3, 1.345017e+2, -1104559.6, -1669619.1, -36115.582, 0.090127975, -0.031559076, -1102260.6, 519619.16, 0.01321677, 10.004871, 9.997293 
1.5750894e+3, 1.4449893e+2, -1054644.0, -1537807.5, -48725.996, -0.1257547, -0.059700754, -1049779.1, 474128.22, 0.006100201, 10.004259, 9.997817 
1.5750836e+3, 1.5449709e+2, -1011586.9, -1460584.8, -40801.22, -0.059173346, -0.034555368, -1007909.3, 418015.28, 0.0017338963, 10.003839, 9.997876 
1.5750773e+3, 1.6449514e+2, -975353.3, -1373896.0, -39081.67, -0.04657527, -0.022658948, -971557.06, 356386.34, 0.00019699702, 10.003328, 9.998044 
1.5750708e+3, 1.7449312e+2, -967025.0, -1316846.0, -43606.36, -0.05531794, -0.035362195, -961671.25, 268292.84, 0.0000019795527, 10.002702, 9.998065 
1.5750644e+3, 1.8449137e+2, -914864.1, -1190639.3, -61966.773, -0.05224975, -0.037506755, -901580.06, 230401.95, 0.0, 10.00217, 9.998515 
1.5750577e+3, 1.9449e+2, -874397.06, -1116048.0, -65006.113, -0.049119405, -0.031173043, -858019.8, 175976.16, 0.0, 10.001756, 9.998553 
1.5750511e+3, 2.0448892e+2, -831517.44, -998546.8, -67332.555, -0.044445504, -0.01198081, -807755.0, 128252.25, 0.0, 10.001179, 9.998966 
1.5750442e+3, 2.1448822e+2, -843890.5, -950007.7, -58845.523, -0.032583784, 0.014781932, -817715.25, 20299.889, 0.0, 10.000404, 9.999 
1.5750377e+3, 2.2448742e+2, -819585.2, -869249.06, -55706.45, -0.022978706, 0.028475687, -783426.7, -43402.6, 0.0, 9.999822, 9.999162 
1.5750311e+3, 2.3448654e+2, -770070.8, -792449.7, -63214.68, -0.018126126, 0.019605357, -717062.9, -75028.74, 0.0, 9.999478, 9.999182 
1.5750246e+3, 2.4448591e+2, -718445.1, -675059.75, -58325.77, -0.019229967, 0.023184173, -634523.25, -90482.25, 0.0, 9.9989805, 9.999555 
1.575018e+3, 2.5448567e+2, -717719.9, -620224.4, -57741.08, -0.027387997, 0.037105124, -593405.1, -147361.64, 0.0, 9.998298, 9.999587 
1.5750119e+3, 2.6448557e+2, -670981.9, -486852.38, -45043.047, -0.013465507, 0.044443853, -476424.25, -128380.11, 0.0, 9.997688, 10.000123 
1.5750061e+3, 2.744856e+2, -647018.4, -420012.4, -42366.12, 0.028021596, 0.02878639, -412363.34, -162320.25, 0.0, 9.997159, 10.000164 
1.5750001e+3, 2.8448564e+2, -619277.6, -343836.53, -34123.074, 0.04180501, 0.010788285, -339672.16, -187629.52, 0.0, 9.996624, 10.000272 
1.5749939e+3, 2.9448587e+2, -602148.8, -289412.28, -49450.4, 0.019381242, 0.0040181144, -281779.4, -227738.78, 0.0, 9.996088, 10.000231 
1.5749878e+3, 3.0448645e+2, -590909.25, -186579.4, -45819.4, 0.003222544, 0.013829994, -181452.08, -181452.08, 0.0, 9.995522, 10.000875 
1.5749818e+3, 3.144873e+2, -530287.8, 71411.266, -12470.588, 0.0007592904, -0.0022583236, 71669.61, 71669.61, 0.0, 9.994949, 10.002924 
1.5851076e+3, 1.24510095e+2, -1141335.5, -1767389.6, -31457.836, -0.13414721, -0.05397161, -1139758.8, 580037.5, 0.022621518, 10.00548, 9.996999 
1.585103e+3, 1.3450776e+2, -1063443.4, -1650330.6, -9204.526, 0.08866989, -0.017786127, -1063299.1, 558521.7, 0.014011323, 10.005167, 9.997281 
1.5850939e+3, 1.4450492e+2, -995275.75, -1514691.8, -13052.407, -0.12769195, -0.05254042, -994947.94, 528901.06, 0.006502475, 10.004698, 9.997763 
1.5850875e+3, 1.5450282e+2, -983719.5, -1453213.4, -24966.965, -0.06246718, -0.04420675, -982395.5, 443472.63, 0.0018684786, 10.004059, 9.99782 
1.5850806e+3, 1.645008e+2, -959871.9, -1374276.9, -30632.264, -0.046109416, -0.033818986, -957619.8, 370267.78, 0.00021839465, 10.00347, 9.997972 
1.5850738e+3, 1.7449887e+2, -935632.94, -1309915.5, -27315.559, -0.046511494, -0.029948127, -933649.9, 296257.7, 0.000002466339, 10.002955, 9.997989 
1.5850666e+3, 1.8449704e+2, -891538.5, -1190829.0, -39290.81, -0.044739246, -0.029821645, -886466.4, 245459.89, 0.0, 10.002381, 9.998411 
1.5850593e+3, 1.9449544e+2, -884850.25, -1133126.1, -42645.387, -0.05491557, -0.03721103, -877729.44, 156213.38, 0.0, 10.001738, 9.998445 
1.585052e+3, 2.0449433e+2, -833486.3, -991221.25, -53488.656, -0.051622458, -0.020649191, -817058.9, 118895.51, 0.0, 10.001131, 9.999039 
1.5850449e+3, 2.1449381e+2, -814009.2, -926473.9, -55393.676, -0.027570155, 0.017157169, -791307.75, 46652.105, 0.0, 10.000571, 9.99908 
1.5850377e+3, 2.2449301e+2, -798822.1, -867009.1, -45553.707, -0.015584113, 0.03029042, -776016.56, -36047.816, 0.0, 9.999998, 9.999092 
1.5850306e+3, 2.344919e+2, -785051.4, -807920.8, -43838.89, -0.020056846, 0.0063052843, -751180.44, -109199.055, 0.0, 9.999413, 9.999106 
1.5850234e+3, 2.4449125e+2, -727568.6, -669876.6, -36317.305, -0.020167224, 0.0073944796, -652343.4, -108354.94, 0.0, 9.998879, 9.999637 
1.5850165e+3, 2.5449124e+2, -695806.3, -600238.44, -32959.05, -0.015972484, 0.035939485, -589974.06, -143986.08, 0.0, 9.998408, 9.99967 
1.5850097e+3, 2.6449117e+2, -652928.94, -491045.4, -25518.889, -0.0005684484, 0.048746105, -487117.97, -139129.67, 0.0, 9.997868, 10.000008 
1.5850033e+3, 2.7449104e+2, -643629.25, -431865.06, -41865.09, 0.030468013, 0.025990384, -423888.88, -173898.84, 0.0, 9.997242, 10.000042 
1.5849967e+3, 2.8449094e+2, -612257.06, -336557.13, -30346.416, 0.04180039, 0.0011850346, -333256.4, -181265.6, 0.0, 9.996657, 10.000305 
1.5849902e+3, 2.9449117e+2, -596224.4, -281360.8, -21423.299, 0.026463082, -0.0072969715, -279909.88, -225922.16, 0.0, 9.996109, 10.000275 
1.5849835e+3, 3.0449215e+2, -599606.44, -201039.14, -17125.037, 0.020166453, 0.042623904, -200304.69, -200304.69, 0.0, 9.995506, 10.000782 
1.5849766e+3, 3.144925e+2, -564333.44, 25384.912, -8230.95, -0.0017568165, -0.015582311, 25499.773, 25499.773, 0.0, 9.994844, 10.002656 
1.5951134e+3, 1.2451612e+2, -1116425.5, -1713563.0, -55228.13, -0.102951206, -0.071318716, -1111360.5, 608378.9, 0.023921112, 10.005482, 9.997368 
1.5951078e+3, 1.3451485e+2, -1037549.9, -1596562.5, -20443.44, 0.058941998, 0.032540906, -1036803.25, 584948.5, 0.014864657, 10.005172, 9.997651 
1.5950981e+3, 1.44512e+2, -1013469.75, -1554588.1, -37674.066, -0.16770181, -0.007540358, -1010859.4, 512919.75, 0.0069359494, 10.004707, 9.997485 
1.5950917e+3, 1.5450881e+2, -1005095.75, -1499157.3, -49131.39, -0.049214486, -0.07797234, -1000257.3, 425552.03, 0.0020141068, 10.004065, 9.997502 
1.5950845e+3, 1.6450647e+2, -957535.8, -1371068.6, -50752.793, -0.015914991, -0.08416257, -951398.0, 376434.1, 0.00024140984, 10.003477, 9.997992 
1.5950766e+3, 1.7450513e+2, -932890.9, -1304934.5, -46477.477, -0.047118, -0.024597337, -927172.56, 302673.44, 0.0000030340082, 10.002957, 9.998022 
1.5950689e+3, 1.845035e+2, -898125.4, -1205070.6, -63562.723, -0.056580223, -0.0026270456, -885483.4, 246379.5, 0.0, 10.002382, 9.998313 
1.5950611e+3, 1.9450158e+2, -891708.06, -1148660.5, -66325.28, -0.051016163, -0.030914089, -875598.0, 158284.88, 0.0, 10.001741, 9.998337 
1.5950532e+3, 2.0450018e+2, -836443.4, -998712.06, -74575.61, -0.044491727, -0.032726984, -807376.5, 128520.56, 0.0, 10.001135, 9.998986 
1.5950455e+3, 2.1449949e+2, -817672.7, -934053.6, -76151.305, -0.032550756, -0.008783665, -780023.94, 57879.934, 0.0, 10.00057, 9.999029 
1.5950376e+3, 2.2449873e+2, -795861.4, -860744.56, -67681.44, -0.026457982, 0.010684812, -753248.1, -13336.197, 0.0, 9.999995, 9.999137 
1.59503e+3, 2.3449798e+2, -781710.06, -801065.1, -64805.33, -0.028664835, 0.016942142, -725863.7, -83942.43, 0.0, 9.999412, 9.999155 
1.5950225e+3, 2.4449739e+2, -718816.3, -651924.5, -53455.094, -0.015618134, 0.014942317, -622314.25, -78386.92, 0.0, 9.998879, 9.999762 
1.5950152e+3, 2.5449705e+2, -686032.2, -580930.4, -49197.24, 0.015805425, -0.00137966, -561495.4, -115566.375, 0.0, 9.998411, 9.999803 
1.5950078e+3, 2.644969e+2, -676454.5, -540824.2, -47654.6, 0.026027422, 0.010273747, -525754.75, -177823.95, 0.0, 9.9978695, 9.999665 
1.5950003e+3, 2.7449688e+2, -669609.8, -486099.44, -63660.434, 0.010533089, 0.040850487, -466178.03, -216244.63, 0.0, 9.997242, 9.99967 
1.594993e+3, 2.844969e+2, -588622.3, -287456.5, -49743.383, 0.007144679, 0.029286465, -279453.1, -127519.78, 0.0, 9.996656, 10.000643 
1.594986e+3, 2.944972e+2, -568532.06, -225694.9, -40310.516, 0.016329208, -0.014557143, -221019.0, -167091.64, 0.0, 9.996116, 10.000655 
1.5949793e+3, 3.0449837e+2, -628058.4, -260157.13, -40818.26, 0.049118157, 0.055674557, -255682.8, -255682.8, 0.0, 9.995506, 10.000377 
1.594972e+3, 3.144983e+2, -619923.7, -90678.85, -31071.986, 0.043948974, 0.0033909807, -88860.86, -88860.86, 0.0, 9.994846, 10.001859 
1.605119e+3, 1.24523245e+2, -1116020.8, -1705501.6, -28944.02, -0.09564439, -0.04569828, -1114602.9, 605068.0, 0.025317777, 10.005458, 9.997436 
1.6051129e+3, 1.3452175e+2, -1031420.9, -1583571.4, -2686.9126, 0.048604734, 0.029069342, -1031407.8, 590276.4, 0.01578268, 10.005177, 9.997739 
1.6051027e+3, 1.4451887e+2, -1004094.75, -1557382.6, -32057.895, -0.17767404, -0.01795757, -1002243.5, 521468.28, 0.0074036275, 10.004808, 9.9974165 
1.605096e+3, 1.5451582e+2, -968168.56, -1489563.8, -27130.166, -0.037659563, -0.06523597, -966760.7, 458980.28, 0.002171756, 10.004357, 9.997426 
1.6050881e+3, 1.6451342e+2, -917728.6, -1356919.0, -24488.193, -0.00022695668, -0.07102487, -916367.44, 411396.94, 0.00026599175, 10.003775, 9.997943 
1.6050796e+3, 1.7451179e+2, -925019.4, -1306145.0, -27458.236, -0.048146073, -0.03457588, -923051.3, 306729.22, 0.0000036433328, 10.003036, 9.997975 
1.6050713e+3, 1.845101e+2, -896888.6, -1206408.3, -42631.793, -0.059844982, -0.01516248, -891124.1, 240673.75, 0.0, 10.0024, 9.998294 
1.605063e+3, 1.9450837e+2, -870888.44, -1140750.1, -39886.867, -0.040738802, -0.02290741, -865116.44, 168699.84, 0.0, 10.001896, 9.998315 
1.6050546e+3, 2.0450693e+2, -807999.6, -992485.9, -45043.67, -0.033637755, -0.025374731, -797589.3, 138241.6, 0.0, 10.001365, 9.998918 
1.6050461e+3, 2.1450591e+2, -788797.06, -928116.25, -48010.3, -0.036398597, -0.026408354, -773854.94, 63985.594, 0.0, 10.000805, 9.998957 
1.6050376e+3, 2.2450511e+2, -761845.56, -839260.75, -41908.887, -0.033296093, -0.010997541, -743503.8, -3654.879, 0.0, 10.00021, 9.99918 
1.6050294e+3, 2.3450461e+2, -755760.6, -783829.3, -41425.62, -0.025431434, 0.016605807, -726056.6, -84201.05, 0.0, 9.99957, 9.999196 
1.6050214e+3, 2.4450405e+2, -706834.75, -648327.3, -31759.459, -0.0096481675, 0.015918666, -634401.8, -90540.5, 0.0, 9.998971, 9.9997425 
1.6050136e+3, 2.5450346e+2, -686052.0, -582755.9, -39449.71, 0.016135408, -0.02362495, -569413.2, -123547.69, 0.0, 9.998421, 9.9997835 
1.6050057e+3, 2.6450327e+2, -688549.56, -552542.06, -38908.84, 0.025718788, -0.010082231, -542197.8, -194330.13, 0.0, 9.997816, 9.999608 
1.6049975e+3, 2.7450353e+2, -688524.44, -502506.72, -32912.17, 0.014662294, 0.05380058, -496855.25, -246987.05, 0.0, 9.997146, 9.999602 
1.6049896e+3, 2.8450355e+2, -602512.9, -290258.72, -13097.256, 0.0075898045, 0.043382708, -289710.34, -137842.1, 0.0, 9.996545, 10.000677 
1.604982e+3, 2.9450348e+2, -580426.6, -225914.72, -30520.365, 0.005322877, -0.038481284, -223306.38, -169441.4, 0.0, 9.996012, 10.000702 
1.6049747e+3, 3.0450475e+2, -632112.75, -247880.39, -28798.514, 0.054108497, 0.030332742, -245733.9, -245733.9, 0.0, 9.995419, 10.000503 
1.604967e+3, 3.1450522e+2, -649131.3, -127389.695, 19075.36, 0.060381874, 0.021559596, -126693.22, -126693.22, 0.0, 9.994746, 10.001654 
1.6151242e+3, 1.24531426e+2, -1130544.5, -1736977.5, -55576.887, -0.10799877, 0.018154046, -1125493.3, 594098.06, 0.026825631, 10.005468, 9.997214 
1.6151182e+3, 1.3452858e+2, -1044352.9, -1611307.5, -13002.926, 0.056765467, -0.023985345, -1044054.8, 577562.6, 0.016776472, 10.005185, 9.997542 
1.6151078e+3, 1.4452554e+2, -994203.44, -1537735.5, -49383.55, -0.1594576, -0.07943129, -989753.06, 533893.2, 0.007912437, 10.004814, 9.997549 
1.6151005e+3, 1.5452386e+2, -957504.44, -1468213.3, -43494.1, -0.030637085, -0.0079510035, -953826.75, 471836.2, 0.0023445075, 10.00436, 9.997571 
1.6150919e+3, 1.6452165e+2, -925102.25, -1373657.8, -52130.344, -0.0019478345, 0.0038148875, -919123.44, 408561.03, 0.00029281192, 10.003779, 9.997828 
1.6150826e+3, 1.7451888e+2, -933235.4, -1325224.6, -54894.1, -0.049979907, -0.059974186, -925693.1, 304018.06, 0.000004294035, 10.003042, 9.997843 
1.6150737e+3, 1.8451689e+2, -892927.25, -1199533.0, -62218.61, -0.055895302, -0.06700838, -880782.44, 250948.78, 0.0, 10.002405, 9.99834 
1.615065e+3, 1.9451582e+2, -867176.94, -1133631.9, -58603.074, -0.025969004, -0.012551278, -854857.56, 178885.55, 0.0, 10.001898, 9.9983635 
1.6150561e+3, 2.0451456e+2, -813257.56, -1003706.9, -66184.55, -0.02114737, 0.0023265497, -792516.2, 143239.94, 0.0, 10.001365, 9.998841 
1.6150469e+3, 2.1451306e+2, -794384.44, -940220.4, -68148.164, -0.04037944, -0.03635461, -767496.56, 70273.46, 0.0, 10.000806, 9.998874 
1.6150378e+3, 2.2451209e+2, -760557.5, -837199.06, -65461.55, -0.038019657, -0.03521198, -723025.1, 16754.705, 0.0, 10.000211, 9.999194 
1.6150291e+3, 2.3451173e+2, -754119.44, -780991.94, -64692.355, -0.011384692, 0.00556648, -701482.75, -59698.156, 0.0, 9.999571, 9.999216 
1.6150203e+3, 2.4451117e+2, -718156.06, -672072.3, -52097.934, -0.0031183553, 0.010744748, -638148.2, -94357.555, 0.0, 9.99897, 9.99958 
1.6150117e+3, 2.545104e+2, -698575.8, -608362.9, -58578.883, -0.017280044, -0.030199148, -579536.44, -133738.75, 0.0, 9.998418, 9.99961 
1.6150032e+3, 2.6451027e+2, -673511.5, -521625.8, -62658.12, -0.0044128164, -0.01162886, -499113.8, -151314.53, 0.0, 9.997815, 9.999822 
1.614995e+3, 2.745109e+2, -670848.0, -468058.75, -56260.45, 0.04046197, 0.06405522, -453496.03, -203700.98, 0.0, 9.997153, 9.999836 
1.6149865e+3, 2.8451076e+2, -621582.75, -331223.16, -32327.07, 0.04159679, 0.042804673, -327667.56, -175871.44, 0.0, 9.99655, 10.000394 
1.6149779e+3, 2.9451e+2, -601373.5, -269700.13, -49103.82, -0.0092487885, -0.07925968, -262583.06, -208781.89, 0.0, 9.996012, 10.000402 
1.61497e+3, 3.045112e+2, -586553.25, -153068.19, -52522.63, 0.0315009, -0.0336176, -146795.14, -146795.14, 0.0, 9.995417, 10.001155 
1.6149615e+3, 3.145133e+2, -621047.94, -70828.91, -10005.117, 0.04193898, 0.05416099, -70647.03, -70647.03, 0.0, 9.994753, 10.002039 
1.6251299e+3, 1.245396e+2, -1090810.4, -1731914.9, -35509.895, -0.12212336, 0.019427722, -1088849.5, 630661.5, 0.028461354, 10.005824, 9.997076 
1.6251235e+3, 1.345365e+2, -1005694.8, -1603128.3, 28736.77, 0.06298112, -0.03758086, -1004315.75, 617223.94, 0.017859455, 10.005507, 9.997443 
1.6251129e+3, 1.4453346e+2, -966957.1, -1521690.5, -17430.342, -0.14414465, -0.08956176, -966410.0, 557158.75, 0.008470986, 10.004994, 9.997571 
1.6251047e+3, 1.5453202e+2, -967998.5, -1469439.8, -21660.17, -0.035592005, 0.0031850159, -967064.6, 458518.78, 0.0025366764, 10.004274, 9.997602 
1.6250956e+3, 1.6452986e+2, -935137.0, -1379426.4, -29257.295, -0.012145411, 0.018128213, -933218.6, 394385.78, 0.0003231681, 10.003716, 9.997816 
1.6250858e+3, 1.7452689e+2, -888841.6, -1305413.0, -23772.31, -0.048382305, -0.064960994, -887489.4, 342143.38, 0.000005034694, 10.003356, 9.997826 
1.6250762e+3, 1.845248e+2, -834386.0, -1172045.8, -31647.195, -0.051664602, -0.07710956, -831445.44, 300207.84, 0.0, 10.002812, 9.998331 
1.625067e+3, 1.9452389e+2, -846374.25, -1124520.9, -33203.93, -0.029816113, -0.009336713, -842465.44, 191198.6, 0.0, 10.002046, 9.998354 
1.6250575e+3, 2.0452264e+2, -814264.0, -1006045.1, -38296.293, -0.022920555, 0.011039312, -806899.5, 128777.18, 0.0, 10.001367, 9.998823 
1.6250478e+3, 2.1452108e+2, -798464.06, -944424.25, -36999.316, -0.029305903, -0.03273383, -789620.9, 48070.324, 0.0, 10.000788, 9.998852 
1.6250382e+3, 2.2451998e+2, -763546.9, -845338.3, -35517.555, -0.02461885, -0.039432038, -750276.6, -10574.606, 0.0, 10.000219, 9.999134 
1.6250288e+3, 2.3451947e+2, -744628.7, -782903.06, -40858.496, -0.00807892, -0.009363404, -718647.75, -76939.66, 0.0, 9.999666, 9.999156 
1.6250195e+3, 2.4451888e+2, -716391.06, -679408.5, -30455.215, -0.0039358214, 0.0008357146, -662270.5, -118555.94, 0.0, 9.999021, 9.999503 
1.62501e+3, 2.5451827e+2, -726472.9, -630959.56, -31576.102, -0.015611485, -0.01522249, -621464.6, -175743.8, 0.0, 9.998267, 9.999526 
1.625001e+3, 2.6451814e+2, -689490.94, -516994.4, -32058.758, -0.0031829444, 0.00023213765, -511228.94, -163506.33, 0.0, 9.997653, 9.999931 
1.624992e+3, 2.745185e+2, -656630.44, -447238.2, -34673.016, 0.03862825, 0.038691565, -441646.1, -191926.53, 0.0, 9.997192, 9.999959 
1.6249831e+3, 2.8451842e+2, -630540.4, -343583.47, -13561.9795, 0.04279497, 0.020267518, -342943.94, -191223.95, 0.0, 9.996525, 10.000319 
1.6249737e+3, 2.9451805e+2, -664330.3, -308999.2, -15440.921, 0.0018604574, -0.052316416, -308329.47, -254607.05, 0.0, 9.995621, 10.0003195 
1.6249652e+3, 3.0451897e+2, -621657.4, -136780.4, -12289.678, 0.03963287, -0.0450804, -136469.11, -136469.11, 0.0, 9.995032, 10.0014515 
1.6249561e+3, 3.1452125e+2, -601342.6, -37481.55, -5864.9995, 0.021754697, 0.02560935, -37420.555, -37420.555, 0.0, 9.994783, 10.0022545 
1.6351356e+3, 1.2454785e+2, -1094888.0, -1740157.8, -62803.99, -0.13423781, -0.03513113, -1088832.1, 630597.25, 0.030239835, 10.00583, 9.997018 
1.635129e+3, 1.345455e+2, -1005890.2, -1604221.9, 17815.465, 0.06364515, -0.015452078, -1005360.2, 616090.94, 0.019041946, 10.005515, 9.997433 
1.635118e+3, 1.4454257e+2, -972391.0, -1534752.9, -44472.246, -0.13521999, -0.052297022, -968895.8, 554583.7, 0.009085153, 10.005003, 9.997478 
1.6351087e+3, 1.5454033e+2, -973330.06, -1482988.0, -48278.293, -0.052172437, -0.029166427, -968797.1, 456704.8, 0.0027512999, 10.004284, 9.997506 
1.635099e+3, 1.6453806e+2, -927525.5, -1365316.4, -43729.14, -0.03117444, -0.024850322, -923200.3, 404323.66, 0.0003583955, 10.003723, 9.9979105 
1.6350892e+3, 1.7453577e+2, -881864.5, -1291643.9, -36959.02, -0.045190156, -0.0501427, -878557.75, 350987.75, 0.000005927034, 10.003358, 9.99792 
1.6350792e+3, 1.8453388e+2, -838901.06, -1181390.9, -59746.313, -0.049556244, -0.04639256, -828777.7, 302786.56, 0.0, 10.002811, 9.998268 
1.6350688e+3, 1.9453251e+2, -850851.3, -1134507.9, -61376.65, -0.052911922, -0.01374609, -838140.4, 195438.89, 0.0, 10.002048, 9.998285 
1.6350585e+3, 2.045312e+2, -812218.56, -1002647.6, -60211.457, -0.040098447, 0.000249747, -794777.75, 140815.11, 0.0, 10.001369, 9.998846 
1.6350487e+3, 2.1452993e+2, -796964.44, -941627.94, -58328.273, -0.0043071383, -0.015039057, -776376.5, 61227.88, 0.0, 10.000789, 9.998872 
1.6350387e+3, 2.2452877e+2, -772195.7, -863554.94, -56398.61, 0.005675633, -0.02253523, -745298.25, -5682.6245, 0.0, 10.000219, 9.99901 
1.6350283e+3, 2.3452777e+2, -754001.0, -802602.6, -60645.1, -0.017160224, -0.028400663, -712969.1, -71342.914, 0.0, 9.999666, 9.999022 
1.6350183e+3, 2.4452715e+2, -716853.25, -680731.3, -57547.027, -0.014316766, -0.013636365, -638477.6, -94844.414, 0.0, 9.999021, 9.9994955 
1.6350086e+3, 2.5452706e+2, -726107.2, -631365.7, -58346.242, 0.019663591, 0.021406213, -603581.44, -157946.11, 0.0, 9.99827, 9.999523 
1.6349989e+3, 2.6452678e+2, -688627.5, -516343.47, -48756.035, 0.028425027, 0.025059024, -503502.66, -155864.52, 0.0, 9.997656, 9.999935 
1.6349891e+3, 2.745263e+2, -656481.0, -447256.97, -50435.03, 0.006882638, -0.022747228, -435733.84, -186091.56, 0.0, 9.997192, 9.99996 
1.6349792e+3, 2.8452647e+2, -621933.7, -326044.53, -45863.75, 0.007962919, -0.023927096, -319098.56, -167458.14, 0.0, 9.996525, 10.000441 
1.6349697e+3, 2.9452765e+2, -654234.7, -290320.3, -47564.2, 0.03450529, 0.04422143, -284206.3, -230577.13, 0.0, 9.995628, 10.000444 
1.6349606e+3, 3.0452806e+2, -624912.0, -144672.22, -21711.63, 0.07543121, -0.002288491, -143692.64, -143692.64, 0.0, 9.995036, 10.001396 
1.6349506e+3, 3.145289e+2, -595949.75, -26276.59, -21357.932, 0.0015398194, -0.065285996, -25476.97, -25476.97, 0.0, 9.994782, 10.002333 
1.6451415e+3, 1.2455728e+2, -1088338.6, -1739677.0, -37668.902, -0.12809046, -0.040821917, -1086167.4, 633169.2, 0.032169797, 10.005901, 9.996985 
1.6451345e+3, 1.3455498e+2, -996493.94, -1598198.5, 58919.496, 0.058652908, -0.018014109, -990778.8, 630578.94, 0.020328723, 10.005584, 9.997441 
1.6451232e+3, 1.4455205e+2, -948701.5, -1540840.3, -11888.209, -0.12947094, -0.046726488, -948462.9, 574923.25, 0.009757314, 10.005249, 9.997316 
1.6451134e+3, 1.5454951e+2, -894340.7, -1464023.1, -21544.662, -0.05488182, -0.036745083, -893527.06, 531885.0, 0.002989391, 10.004913, 9.997333 
1.6451031e+3, 1.6454718e+2, -851058.25, -1323735.6, -29126.992, -0.037811752, -0.031212201, -849270.2, 478164.7, 0.00039926093, 10.004229, 9.997952 
1.6450924e+3, 1.7454514e+2, -912013.06, -1300387.4, -26871.129, -0.049309578, -0.0368465, -910162.75, 319291.16, 0.0000070009137, 10.003127, 9.997971 
1.6450818e+3, 1.8454325e+2, -900630.56, -1211325.9, -41789.063, -0.050064705, -0.03351846, -895108.0, 236364.16, 0.0, 10.002389, 9.998265 
1.6450709e+3, 1.9454165e+2, -846177.94, -1133126.3, -39433.465, -0.05078932, -0.026387742, -840857.5, 192631.69, 0.0, 10.002085, 9.998276 
1.6450602e+3, 2.0454025e+2, -779566.06, -993233.25, -41448.914, -0.03691233, -0.016192352, -771807.2, 163696.3, 0.0, 10.001622, 9.998788 
1.6450498e+3, 2.1453916e+2, -774574.2, -937806.8, -46611.313, -0.0013621083, -0.008653124, -762202.06, 75312.12, 0.0, 10.000974, 9.998808 
1.6450389e+3, 2.2453806e+2, -753445.5, -847590.5, -40569.754, 0.009882081, -0.010606485, -738375.25, 1149.7849, 0.0, 10.0003195, 9.99907 
1.6450281e+3, 2.3453696e+2, -750095.9, -793840.6, -31840.523, -0.010386005, -0.031128561, -733339.0, -91803.15, 0.0, 9.999663, 9.999083 
1.6450174e+3, 2.4453631e+2, -722923.44, -689778.8, -26358.328, -0.006841231, -0.01869279, -675215.9, -131672.89, 0.0, 9.999004, 9.999441 
1.6450071e+3, 2.5453627e+2, -721062.25, -635561.06, -32401.305, 0.025467338, 0.02768497, -624669.7, -179124.4, 0.0, 9.998334, 9.999462 
1.6449966e+3, 2.6453602e+2, -686631.56, -506406.38, -18191.154, 0.031054504, 0.029869372, -504588.6, -157040.31, 0.0, 9.997633, 10.000012 
1.644986e+3, 2.7453542e+2, -692455.8, -455658.66, -14795.175, 0.004904904, -0.033137783, -454737.84, -205185.44, 0.0, 9.996908, 10.000037 
1.6449755e+3, 2.845357e+2, -654148.94, -341775.03, -14885.441, 0.0059978897, -0.029862272, -341067.28, -189517.64, 0.0, 9.996305, 10.000437 
1.6449656e+3, 2.945371e+2, -628687.75, -278231.7, -27801.53, 0.038486235, 0.06467623, -276039.9, -222503.27, 0.0, 9.995805, 10.000441 
1.6449557e+3, 3.0453727e+2, -613565.06, -149695.92, -841.17017, 0.06894057, -0.0032560674, -149694.4, -149694.4, 0.0, 9.995161, 10.0013 
1.6449453e+3, 3.1453797e+2, -639487.8, -26031.816, -12177.432, 0.004880439, -0.07188549, -25790.184, -25790.184, 0.0, 9.994393, 10.00252 
1.6551475e+3, 1.24567844e+2, -1088521.1, -1739833.3, -65481.7, -0.10233347, -0.005465373, -1082002.9, 637230.2, 0.034251634, 10.005911, 9.996982 
1.65514e+3, 1.3456495e+2, -994297.0, -1594857.3, 47619.316, 0.048272427, -0.042115167, -990544.6, 630714.7, 0.02171972, 10.005595, 9.99746 
1.6551284e+3, 1.4456193e+2, -964304.0, -1574098.0, -25194.305, -0.12828392, -0.07055372, -963264.8, 560023.8, 0.010488294, 10.005253, 9.9970875 
1.6551183e+3, 1.5455954e+2, -911745.1, -1500538.8, -33479.785, -0.047344714, -0.022132471, -909847.56, 515466.44, 0.0032513912, 10.004914, 9.997083 
1.6551073e+3, 1.645572e+2, -851849.8, -1325568.0, -69045.305, -0.035492133, -0.0035285442, -841991.5, 485345.9, 0.000446007, 10.004229, 9.997941 
1.6550955e+3, 1.7455499e+2, -910848.44, -1299670.6, -67580.1, -0.061142728, -0.024734046, -899437.44, 329920.47, 0.000008273259, 10.003133, 9.997973 
1.655084e+3, 1.84553e+2, -896429.8, -1204273.6, -54460.29, -0.054584805, -0.037474576, -887079.3, 244297.64, 0.0, 10.002396, 9.998311 
1.6550733e+3, 1.9455126e+2, -843098.0, -1127244.1, -50372.3, -0.024921369, -0.04634074, -834432.44, 198961.45, 0.0, 10.002086, 9.998317 
1.655062e+3, 2.045498e+2, -788869.5, -1012849.2, -65146.74, -0.014860924, -0.037252467, -771299.25, 164109.48, 0.0, 10.001622, 9.998654 
1.6550504e+3, 2.1454874e+2, -784582.0, -958830.6, -70145.03, -0.022149976, -0.014165426, -759853.9, 77566.83, 0.0, 10.000974, 9.998665 
1.655039e+3, 2.2454777e+2, -737242.4, -814370.8, -64910.273, -0.013985705, -0.0043406384, -700304.6, 39125.824, 0.0, 10.0003195, 9.999299 
1.655028e+3, 2.34547e+2, -732971.75, -758545.9, -55427.3, 0.011160877, -0.017426588, -688875.7, -47438.434, 0.0, 9.999662, 9.999326 
1.6550165e+3, 2.4454635e+2, -730074.6, -704785.06, -50717.56, 0.017276721, -0.014089744, -665159.75, -121715.52, 0.0, 9.999004, 9.999339 
1.655005e+3, 2.545459e+2, -729302.9, -653215.9, -56102.27, 0.0002504095, 0.0035493867, -623474.6, -178023.52, 0.0, 9.998335, 9.999342 
1.6549939e+3, 2.645457e+2, -676346.94, -486082.3, -44240.977, 0.0029593226, 0.015677396, -476298.38, -128845.12, 0.0, 9.997635, 10.000153 
1.6549832e+3, 2.745459e+2, -681041.1, -434075.84, -39875.36, 0.029655615, 0.009575514, -427797.16, -178347.0, 0.0, 9.996915, 10.000183 
1.6549721e+3, 2.8454605e+2, -662689.7, -360823.1, -32866.21, 0.03457943, 0.0026287641, -357286.16, -205837.9, 0.0, 9.996309, 10.000305 
1.6549611e+3, 2.9454643e+2, -638017.3, -297852.03, -45472.8, 0.011751848, 0.0052480767, -291878.22, -238432.5, 0.0, 9.995805, 10.000307 
1.6549504e+3, 3.0454654e+2, -624046.4, -170952.4, -28305.658, 0.017648514, -0.050567, -169190.95, -169190.95, 0.0, 9.995157, 10.001157 
1.65494e+3, 3.145483e+2, -619467.25, 14690.114, -44701.156, 0.028370127, 0.0037902037, 17825.555, 17825.555, 0.0, 9.994397, 10.002798 
1.665154e+3, 1.2457861e+2, -1035257.56, -1729686.1, -56982.27, -0.08772999, 0.005102401, -1030612.9, 688514.5, 0.0364795, 10.006377, 9.996825 
1.6651456e+3, 1.3457546e+2, -941365.56, -1585071.5, 57354.418, 0.029677918, -0.044419188, -936295.2, 684861.56, 0.023212655, 10.006047, 9.997311 
1.6651337e+3, 1.4457248e+2, -933256.7, -1547943.3, -22093.336, -0.12908608, -0.06508882, -932463.6, 590721.94, 0.01127895, 10.005425, 9.997184 
1.6651231e+3, 1.5457013e+2, -969235.06, -1516008.0, -5224.616, -0.039928332, -0.022610255, -969185.2, 456024.56, 0.0035382975, 10.004466, 9.997191 
1.6651113e+3, 1.6456775e+2, -918268.0, -1374664.0, -31566.123, -0.028443366, -0.0058849757, -916095.06, 411138.4, 0.000498801, 10.003846, 9.997787 
1.6650988e+3, 1.7456542e+2, -850600.8, -1289354.8, -43234.18, -0.06531749, -0.023601815, -846381.1, 382875.03, 0.0000097975735, 10.003628, 9.997806 
1.6650867e+3, 1.8456331e+2, -795912.25, -1147977.3, -35533.234, -0.059016593, -0.040413685, -792361.75, 338914.34, 0.0, 10.003053, 9.998381 
1.6650753e+3, 1.9456153e+2, -841801.6, -1117551.1, -29259.723, -0.016561074, -0.062872246, -838731.06, 194561.38, 0.0, 10.002057, 9.998397 
1.6650636e+3, 2.0456009e+2, -835173.2, -1032585.1, -33665.87, -0.005360605, -0.057411183, -829589.8, 105716.875, 0.0, 10.001294, 9.998676 
1.6650513e+3, 2.1455911e+2, -807944.75, -968057.2, -27654.215, -0.026137576, -0.026230343, -803303.0, 34015.324, 0.0, 10.000805, 9.998682 
1.6650392e+3, 2.2455825e+2, -752752.06, -818435.44, -27735.24, -0.020455247, -0.009454508, -742607.44, -3279.922, 0.0, 10.000199, 9.999329 
1.6650274e+3, 2.3455755e+2, -761486.3, -768814.1, -35385.46, 0.015191885, -0.016759228, -729575.6, -88241.97, 0.0, 9.999454, 9.999356 
1.6650157e+3, 2.4455693e+2, -745563.1, -702486.2, -26193.473, 0.019088559, -0.01605003, -690112.94, -146772.64, 0.0, 9.998857, 9.999425 
1.6650033e+3, 2.5455645e+2, -707335.1, -633105.0, -17090.516, -0.015319837, -0.009728678, -629359.2, -184012.1, 0.0, 9.9984455, 9.999426 
1.6649915e+3, 2.645564e+2, -644450.06, -468974.4, -10103.496, -0.0113852825, 0.008555844, -468394.6, -121046.39, 0.0, 9.997848, 10.000167 
1.6649802e+3, 2.7455682e+2, -666812.6, -426560.44, -17186.793, 0.03960826, 0.02734801, -425337.2, -175994.13, 0.0, 9.99701, 10.000189 
1.6649687e+3, 2.8455693e+2, -656954.06, -359892.38, 53.498886, 0.050812904, 0.015302711, -359892.38, -208550.44, 0.0, 9.996358, 10.000287 
1.664957e+3, 2.945569e+2, -621432.75, -290584.38, -5081.889, 0.0114429295, -0.020020878, -290506.3, -237163.11, 0.0, 9.995924, 10.0002985 
1.6649452e+3, 3.045573e+2, -622040.3, -185191.63, 4358.058, -0.012672764, -0.040736683, -185148.16, -185148.16, 0.0, 9.995238, 10.001019 
1.6649343e+3, 3.14559e+2, -628937.0, 21611.885, -15566.349, 0.03436602, 0.023537233, 21984.143, 21984.143, 0.0, 9.994285, 10.002899 
1.6751602e+3, 1.2458957e+2, -1056102.5, -1772732.3, -82840.86, -0.083169825, -0.012415833, -1046650.94, 672368.8, 0.03884424, 10.006382, 9.99653 
1.6751514e+3, 1.3458645e+2, -963384.1, -1630045.6, 46051.605, 0.00014790244, -0.027224125, -960218.0, 660832.2, 0.024805574, 10.006051, 9.996996 
1.675139e+3, 1.4458364e+2, -905254.2, -1488893.6, -56516.457, -0.1344222, -0.03273118, -899831.8, 623245.3, 0.01213131, 10.005425, 9.997592 
1.6751277e+3, 1.5458126e+2, -937024.56, -1450621.3, -40278.35, -0.03257737, -0.037026264, -933884.94, 491214.4, 0.0038521264, 10.004474, 9.997638 
1.6751154e+3, 1.6457884e+2, -937938.7, -1417254.8, -41080.168, -0.018147217, -0.036465276, -934443.4, 392679.97, 0.0005580637, 10.003852, 9.997493 
1.6751024e+3, 1.7457637e+2, -874128.8, -1338514.8, -50826.15, -0.06432913, -0.033025667, -868631.06, 360517.84, 0.000011659806, 10.003628, 9.997469 
1.6750897e+3, 1.845742e+2, -789315.5, -1134203.0, -71385.79, -0.0653863, -0.042846356, -775123.9, 356045.97, 0.0, 10.003051, 9.998477 
1.6750772e+3, 1.9457242e+2, -833253.5, -1100838.9, -65841.29, -0.026498673, -0.076524764, -817930.25, 215254.72, 0.0, 10.00206, 9.998511 
1.6750649e+3, 2.0457105e+2, -822909.0, -1008144.7, -52718.125, -0.009850458, -0.0768367, -808956.4, 126241.375, 0.0, 10.001298, 9.998843 
1.6750522e+3, 2.1457028e+2, -796667.75, -944528.56, -45278.758, -0.014380083, -0.04394616, -783904.0, 53303.176, 0.0, 10.000803, 9.998845 
1.6750395e+3, 2.2456944e+2, -764448.94, -842649.5, -55042.6, -0.010631015, -0.024619784, -736032.4, 3184.0906, 0.0, 10.000197, 9.999164 
1.6750269e+3, 2.3456861e+2, -773897.75, -795521.44, -62312.496, 0.0006514254, -0.029436225, -721466.06, -80240.695, 0.0, 9.999455, 9.999172 
1.6750142e+3, 2.4456805e+2, -726375.7, -663669.56, -41500.707, -0.0028338705, -0.024678787, -643009.94, -99778.44, 0.0, 9.998858, 9.999691 
1.6750017e+3, 2.5456792e+2, -687119.44, -592087.3, -30767.828, -0.023952182, -0.011736938, -582995.6, -137761.97, 0.0, 9.998447, 9.999708 
1.6749893e+3, 2.6456797e+2, -652482.0, -486203.53, -39544.18, -0.014076182, 0.0076731797, -477278.25, -130044.61, 0.0, 9.9978485, 10.00005 
1.6749772e+3, 2.7456814e+2, -675980.94, -446247.94, -46864.13, 0.034043238, 0.01845263, -437055.75, -187824.02, 0.0, 9.997012, 10.000053 
1.674965e+3, 2.8456825e+2, -650693.9, -347819.0, -15550.972, 0.053725373, 0.008165484, -347022.66, -195791.45, 0.0, 9.99636, 10.00037 
1.6749531e+3, 2.945685e+2, -612877.7, -274758.44, -19442.174, 0.033102933, -0.0053688437, -273644.16, -220415.05, 0.0, 9.99593, 10.000405 
1.6749403e+3, 3.0456948e+2, -630789.3, -204809.42, -30075.293, -0.025654582, 0.0286295, -202696.52, -202696.52, 0.0, 9.995243, 10.000882 
1.6749285e+3, 3.1456995e+2, -636910.0, 4718.432, -45258.45, 0.020405103, -0.016386217, 7895.0933, 7895.0933, 0.0, 9.994286, 10.002783 
1.6851668e+3, 1.2460117e+2, -1004255.1, -1729511.4, -73694.38, -0.08187222, -0.023772977, -996842.7, 722063.7, 0.04133634, 10.006697, 9.996674 
1.6851573e+3, 1.3459821e+2, -991600.1, -1633160.0, 94084.36, -0.0094687715, -0.03259869, -978087.3, 642847.3, 0.026497012, 10.005815, 9.99709 
1.6851446e+3, 1.4459558e+2, -944056.5, -1512306.6, -8677.461, -0.116537556, -0.023482982, -943924.0, 579035.7, 0.013048092, 10.00518, 9.997548 
1.6851322e+3, 1.54593e+2, -883374.44, -1430324.5, -28816.994, -0.037151955, -0.042435154, -881860.4, 543123.94, 0.004195863, 10.004869, 9.997586 
1.6851193e+3, 1.6459054e+2, -872814.94, -1380766.8, -34466.97, -0.025267843, -0.044760417, -870486.9, 456521.9, 0.0006246736, 10.004278, 9.997539 
1.685106e+3, 1.7458822e+2, -911404.75, -1350838.9, -16284.92, -0.049590886, -0.031971227, -910802.06, 318230.72, 0.00001399049, 10.003347, 9.9975195 
1.6850927e+3, 1.845861e+2, -844777.25, -1163213.3, -29230.244, -0.047564786, -0.03848433, -842116.3, 288936.88, 0.0, 10.00268, 9.998457 
1.6850795e+3, 1.9458425e+2, -797334.44, -1086606.6, -34985.566, -0.029360475, -0.07449049, -793163.3, 239905.78, 0.0, 10.002319, 9.998484 
1.6850662e+3, 2.0458288e+2, -762455.3, -973035.4, -32905.273, -0.016630016, -0.07699499, -757433.3, 177648.58, 0.0, 10.001687, 9.998896 
1.685053e+3, 2.1458212e+2, -802065.75, -940291.44, -34325.73, -0.004911718, -0.045961067, -794011.0, 43079.69, 0.0, 10.000738, 9.998905 
1.6850397e+3, 2.2458133e+2, -787854.6, -853236.8, -36668.38, -0.0034391938, -0.027175292, -771420.56, -32320.934, 0.0, 10.000035, 9.999168 
1.6850263e+3, 2.3458049e+2, -749574.56, -783859.4, -30905.203, -0.016373051, -0.030733004, -731375.9, -90267.29, 0.0, 9.999625, 9.99917 
1.6850129e+3, 2.4457996e+2, -707164.9, -648005.25, -14475.589, -0.018499017, -0.027336612, -644653.2, -101538.66, 0.0, 9.998965, 9.999747 
1.685e+3, 2.5457984e+2, -747840.0, -615019.4, -22245.672, -0.007919434, -0.018987378, -611392.56, -166276.22, 0.0, 9.998004, 9.9997635 
1.6849871e+3, 2.645799e+2, -720595.2, -517478.72, -29528.775, -0.00034721757, -0.0012048649, -513272.97, -166156.81, 0.0, 9.9973755, 10.000062 
1.684974e+3, 2.7458012e+2, -656635.94, -435802.75, -26443.406, 0.0060370853, 0.011694981, -432680.47, -183566.27, 0.0, 9.997142, 10.000062 
1.6849613e+3, 2.8458023e+2, -608263.4, -318779.9, 6312.287, 0.025742602, 0.001408657, -318642.34, -167528.95, 0.0, 9.996615, 10.000446 
1.6849491e+3, 2.9458058e+2, -637541.94, -276198.22, -666.3851, 0.054700147, -0.01502605, -276197.0, -223086.17, 0.0, 9.995716, 10.000499 
1.6849354e+3, 3.0458212e+2, -662331.06, -204780.05, -4434.7876, -0.023225375, 0.06513633, -204737.06, -204737.06, 0.0, 9.994962, 10.001018 
1.6849227e+3, 3.1458208e+2, -626951.6, -7999.199, 9334.992, 0.005803444, -0.038006563, -7858.442, -7858.442, 0.0, 9.994428, 10.002627 
1.6951735e+3, 1.24613345e+2, -970022.8, -1653292.8, -113661.516, -0.08323037, -0.03495056, -951611.4, 767176.6, 0.04395209, 10.006695, 9.997217 
1.6951631e+3, 1.3461068e+2, -958401.8, -1563819.5, 62268.17, -0.00086902734, -0.06035437, -952063.75, 668746.6, 0.028286876, 10.005825, 9.99757 
1.6951501e+3, 1.4460821e+2, -977181.8, -1583509.0, -21895.682, -0.078923024, -0.03737397, -976392.1, 546441.7, 0.01403192, 10.005191, 9.997054 
1.695137e+3, 1.5460528e+2, -920424.9, -1508414.1, -39647.55, -0.056729633, -0.038705844, -917763.56, 507101.22, 0.0045730113, 10.004873, 9.997049 
1.6951233e+3, 1.6460282e+2, -845875.6, -1325275.8, -67945.26, -0.05153914, -0.031214653, -836431.8, 490458.06, 0.0007000776, 10.004279, 9.99792 
1.6951096e+3, 1.7460087e+2, -881089.8, -1289191.5, -50557.863, -0.022006433, -0.021573087, -874919.75, 353988.38, 0.000016975888, 10.003351, 9.997941 
1.6950959e+3, 1.8459892e+2, -854475.9, -1184092.9, -43516.38, -0.0078074154, -0.02747815, -848827.56, 282099.03, 0.0, 10.002682, 9.998313 
1.6950817e+3, 1.9459698e+2, -809502.4, -1111760.1, -47843.15, -0.02667408, -0.05648617, -802110.25, 230834.69, 0.0, 10.002317, 9.998313 
1.6950677e+3, 2.045955e+2, -766731.56, -981779.2, -67482.87, -0.026608897, -0.057879113, -747309.3, 187650.22, 0.0, 10.001685, 9.998837 
1.6950539e+3, 2.1459463e+2, -805388.56, -947912.44, -69249.17, 0.0009283132, -0.033484872, -777283.94, 59685.227, 0.0, 10.00074, 9.998853 
1.6950399e+3, 2.2459386e+2, -775488.7, -828237.1, -52610.684, -0.0006487333, -0.017880652, -743011.56, -4034.221, 0.0, 10.000037, 9.99934 
1.6950256e+3, 2.345932e+2, -737422.06, -758752.25, -44984.824, -0.037464682, -0.02074185, -701855.4, -60871.777, 0.0, 9.999623, 9.999344 
1.6950119e+3, 2.445926e+2, -719116.4, -672407.44, -48715.848, -0.028951766, -0.02394086, -641737.25, -98747.34, 0.0, 9.998962, 9.999582 
1.6949986e+3, 2.5459215e+2, -760224.1, -641311.25, -56812.242, 0.032393184, -0.031097505, -618532.06, -173536.45, 0.0, 9.998006, 9.999583 
1.6949847e+3, 2.6459214e+2, -710300.9, -497150.8, -38232.53, 0.02900454, -0.017467009, -490500.56, -143504.45, 0.0, 9.997377, 10.000201 
1.6949706e+3, 2.7459264e+2, -645230.6, -413994.03, -32977.39, -0.049024954, 0.008350579, -409382.97, -160392.11, 0.0, 9.997148, 10.000209 
1.6949573e+3, 2.8459284e+2, -603562.94, -310523.0, -25387.64, -0.036807086, -0.0047700494, -308339.8, -157350.67, 0.0, 9.99662, 10.000502 
1.6949451e+3, 2.9459292e+2, -632854.4, -265622.5, -33060.66, 0.07574546, -0.050441194, -262669.9, -209680.86, 0.0, 9.995711, 10.000574 
1.6949305e+3, 3.0459505e+2, -633781.56, -145785.55, -24208.4, -0.0063685547, 0.06401149, -144587.56, -144587.56, 0.0, 9.994961, 10.001425 
1.694917e+3, 3.145957e+2, -636545.8, -31626.139, 7388.255, -0.019778859, -0.011398272, -31535.914, -31535.914, 0.0, 9.994443, 10.002459 
1.7051803e+3, 1.2462692e+2, -979779.75, -1662028.5, -58857.125, -0.07975282, -0.024704557, -974739.4, 743914.75, 0.046694633, 10.006661, 9.99717 
1.7051691e+3, 1.3462384e+2, -906485.9, -1553879.4, 79337.414, -0.015878955, -0.079377964, -896904.94, 723775.9, 0.03017741, 10.006273, 9.997425 
1.7051558e+3, 1.4462128e+2, -915981.44, -1564062.1, -12423.784, -0.06018093, -0.052870896, -915743.3, 606961.9, 0.015085283, 10.00567, 9.996957 
1.7051418e+3, 1.5461841e+2, -936606.7, -1527278.0, 1330.364, -0.053723533, -0.037254844, -936603.7, 488132.13, 0.004986618, 10.004811, 9.99695 
1.7051275e+3, 1.6461593e+2, -873433.8, -1333291.8, -27604.555, -0.05475546, -0.026797239, -871782.7, 454978.34, 0.0007858651, 10.004066, 9.997967 
1.705113e+3, 1.7461394e+2, -860172.6, -1273521.4, -38543.46, -0.020914566, -0.029014567, -856609.3, 372170.4, 0.000020835878, 10.00347, 9.9979925 
1.7050986e+3, 1.8461202e+2, -835694.8, -1175227.9, -32796.168, -0.0036033117, -0.03333377, -832556.0, 298241.9, 0.0, 10.002811, 9.998311 
1.7050841e+3, 1.9461022e+2, -845095.9, -1129099.5, -25165.752, -0.021135584, -0.045925952, -842883.2, 189932.06, 0.0, 10.002075, 9.998309 
1.7050694e+3, 2.0460878e+2, -802392.6, -1001901.56, -42910.59, -0.025514023, -0.042993777, -793554.9, 141274.95, 0.0, 10.001455, 9.99881 
1.7050545e+3, 2.1460779e+2, -775352.06, -937173.5, -44066.566, -0.010045799, -0.027583474, -764130.25, 72710.555, 0.0, 10.000963, 9.998818 
1.7050397e+3, 2.2460698e+2, -734581.0, -801467.94, -28051.23, -0.009587209, -0.016428046, -724374.3, 14474.857, 0.0, 10.000289, 9.999402 
1.7050251e+3, 2.346064e+2, -764915.3, -764588.3, -30375.21, -0.027840879, -0.017723823, -734376.1, -93521.96, 0.0, 9.999405, 9.999408 
1.7050107e+3, 2.4460582e+2, -750851.56, -689461.5, -33783.285, -0.01833885, -0.021852931, -674511.2, -131651.03, 0.0, 9.998753, 9.999565 
1.7049965e+3, 2.546053e+2, -709355.56, -618906.4, -30445.404, 0.023768215, -0.034898728, -609613.2, -164746.4, 0.0, 9.998366, 9.999561 
1.7049822e+3, 2.6460525e+2, -655231.2, -463085.7, -4925.996, 0.016123923, -0.024208631, -462959.47, -116092.14, 0.0, 9.997726, 10.000266 
1.7049675e+3, 2.7460587e+2, -694430.75, -430320.97, -7210.344, -0.04871105, 0.0048223934, -430124.28, -181263.45, 0.0, 9.996779, 10.000275 
1.7049536e+3, 2.8460613e+2, -683926.75, -345807.53, -6539.2656, -0.036081184, -0.0068160095, -345681.13, -194822.73, 0.0, 9.996057, 10.00053 
1.7049405e+3, 2.9460612e+2, -644506.75, -267042.03, -16971.855, 0.06348083, -0.0639363, -266280.47, -213421.17, 0.0, 9.995615, 10.00061 
1.7049253e+3, 3.046083e+2, -601563.44, -88003.22, -12071.863, -0.026388317, 0.030634942, -87719.61, -87719.61, 0.0, 9.995002, 10.0018015 
1.7049113e+3, 3.146097e+2, -692440.5, -76377.2, 36166.59, -0.011378054, -0.0025424422, -74261.27, -74261.27, 0.0, 9.99414, 10.002296 
1.715187e+3, 1.2464178e+2, -1020967.2, -1748106.4, -78726.56, -0.07340658, -0.0003072558, -1012541.2, 705965.25, 0.049567204, 10.006674, 9.99656 
1.7151749e+3, 1.3463764e+2, -956897.4, -1659154.1, 65679.086, -0.05638233, -0.087454304, -950807.5, 669738.25, 0.032171488, 10.00628, 9.996687 
1.7151614e+3, 1.4463477e+2, -897309.4, -1523698.1, -43608.832, -0.062324688, -0.06679158, -894287.94, 628285.6, 0.016210536, 10.005671, 9.997234 
1.7151469e+3, 1.5463233e+2, -914568.1, -1481445.4, -30284.654, -0.029944763, -0.03989329, -912954.8, 511643.22, 0.005438976, 10.004813, 9.997264 
1.7151317e+3, 1.6462985e+2, -892806.44, -1374601.9, -50544.043, -0.037436523, -0.032424968, -887561.1, 439061.72, 0.00088351057, 10.004069, 9.997684 
1.7151162e+3, 1.7462736e+2, -881108.75, -1318541.6, -60170.406, -0.047466904, -0.052657068, -872983.06, 355664.66, 0.000025809924, 10.003475, 9.997682 
1.715101e+3, 1.8462537e+2, -825792.3, -1155709.4, -59957.344, -0.035867907, -0.05464521, -815233.9, 315433.28, 0.0, 10.002814, 9.998445 
1.7150863e+3, 1.9462398e+2, -834055.5, -1106981.3, -52168.484, -0.013634203, -0.04354064, -824423.6, 208256.63, 0.0, 10.002077, 9.998461 
1.7150709e+3, 2.046227e+2, -802485.3, -1002191.1, -61322.875, -0.015121378, -0.032624662, -785158.44, 149534.83, 0.0, 10.001454, 9.998809 
1.7150551e+3, 2.1462157e+2, -776873.1, -939805.6, -61484.875, -0.038947172, -0.027758643, -756275.0, 80430.836, 0.0, 10.000959, 9.998803 
1.7150399e+3, 2.2462067e+2, -739525.6, -811049.9, -60271.492, -0.031080501, -0.022238826, -705205.06, 33510.29, 0.0, 10.000285, 9.999339 
1.715025e+3, 2.3462003e+2, -769057.06, -773734.7, -62540.6, 0.011670297, -0.021733377, -708811.56, -68090.766, 0.0, 9.999406, 9.999346 
1.7150098e+3, 2.4461953e+2, -741344.6, -669862.6, -48023.85, 0.011486857, -0.021660568, -645739.56, -103013.64, 0.0, 9.998753, 9.9997 
1.7149943e+3, 2.5461918e+2, -699533.94, -599019.8, -43084.027, -0.037438124, -0.029970767, -583080.1, -138349.78, 0.0, 9.998367, 9.999698 
1.7149794e+3, 2.646192e+2, -656349.44, -466666.78, -38622.52, -0.04092287, -0.02164783, -459104.13, -112373.75, 0.0, 9.997729, 10.000241 
1.7149648e+3, 2.7461973e+2, -696554.6, -434814.6, -41638.813, 0.0075855013, 0.0012405916, -428350.16, -179625.47, 0.0, 9.9967785, 10.000245 
1.7149504e+3, 2.8462002e+2, -684494.56, -346184.0, -22832.879, 0.02735806, -0.0043173316, -344649.94, -193928.2, 0.0, 9.996052, 10.00053 
1.7149356e+3, 2.9462013e+2, -644229.7, -267914.06, -30379.283, 0.012315717, -0.052471854, -265477.38, -212755.47, 0.0, 9.995621, 10.000602 
1.7149197e+3, 3.046216e+2, -578390.94, -43197.188, -43766.15, -0.088342674, -0.034934938, -39641.777, -39641.777, 0.0, 9.995013, 10.002106 
1.7149058e+3, 3.1462398e+2, -699476.94, -91589.734, 29365.592, 0.02345335, -0.004596507, -90174.445, -90174.445, 0.0, 9.994141, 10.0021925 
1.725194e+3, 1.2465641e+2, -954971.75, -1732760.4, -94453.375, -0.063476406, -0.009115252, -943665.8, 774695.94, 0.052573606, 10.007254, 9.996387 
1.7251809e+3, 1.3465215e+2, -964066.7, -1696087.9, 80341.78, -0.082379654, -0.07811683, -955352.6, 665050.94, 0.034271646, 10.006388, 9.996383 
1.725167e+3, 1.4464913e+2, -909665.06, -1518460.9, -24790.637, -0.054318465, -0.06032851, -908657.25, 613775.7, 0.017408991, 10.005543, 9.997332 
1.7251517e+3, 1.5464656e+2, -911826.56, -1467982.4, -27092.607, -0.023712404, -0.057729937, -910509.9, 513947.63, 0.005931395, 10.004783, 9.997371 
1.7251359e+3, 1.6464408e+2, -887097.56, -1377990.1, -37670.34, -0.034274235, -0.054733858, -884223.6, 442258.5, 0.0009943905, 10.004138, 9.997626 
1.7251198e+3, 1.7464167e+2, -866942.4, -1319041.9, -29657.752, -0.048672207, -0.05890303, -865005.1, 363501.6, 0.000032150663, 10.003606, 9.997615 
1.7251039e+3, 1.8463968e+2, -807240.5, -1146087.9, -32202.512, -0.04041803, -0.05787966, -804207.25, 326319.3, 0.0, 10.00294, 9.998449 
1.7250882e+3, 1.946382e+2, -826855.06, -1103187.5, -36488.332, -0.021329982, -0.055736624, -822118.2, 210422.42, 0.0, 10.002126, 9.998465 
1.7250723e+3, 2.0463696e+2, -814041.0, -1001987.75, -43356.074, -0.01994044, -0.041030318, -804521.6, 130031.51, 0.0, 10.00135, 9.99886 
1.725056e+3, 2.1463607e+2, -822455.4, -955739.8, -39754.41, -0.03387468, -0.019311812, -811498.6, 25065.098, 0.0, 10.000623, 9.998855 
1.7250402e+3, 2.2463518e+2, -778392.44, -826471.75, -35190.68, -0.02331245, -0.016097432, -759814.1, -21241.098, 0.0, 10.000006, 9.999367 
1.7250244e+3, 2.3463437e+2, -752547.4, -762377.8, -31391.615, 0.013463082, -0.037895583, -725688.5, -85108.37, 0.0, 9.999507, 9.999373 
1.7250085e+3, 2.4463393e+2, -723850.3, -656091.1, -13628.126, 0.0083257975, -0.034676313, -653452.9, -110868.3, 0.0, 9.998853, 9.999744 
1.7249924e+3, 2.546339e+2, -747467.7, -617359.56, -17231.494, -0.044126064, -0.013316336, -615116.06, -170530.06, 0.0, 9.99802, 9.999739 
1.7249767e+3, 2.6463392e+2, -715524.56, -494542.4, -20395.977, -0.042186446, -0.008344853, -492675.7, -146089.52, 0.0, 9.997322, 10.000245 
1.7249617e+3, 2.7463406e+2, -696716.4, -434461.56, -22284.072, 0.021374242, -0.021032123, -432581.53, -183997.78, 0.0, 9.9967785, 10.000247 
1.7249463e+3, 2.846345e+2, -675964.06, -341032.72, 3634.722, 0.035025347, -0.014093361, -340993.28, -190413.83, 0.0, 9.996109, 10.000537 
1.7249309e+3, 2.946351e+2, -691978.1, -292928.9, -3702.5632, -0.006215719, -0.010428268, -292894.56, -240319.98, 0.0, 9.995304, 10.000583 
1.7249146e+3, 3.046358e+2, -627040.9, -61585.688, -31456.996, -0.08873136, -0.07485477, -59841.08, -59841.08, 0.0, 9.994658, 10.002151 
1.7248999e+3, 3.146387e+2, -691032.3, -75916.06, 46584.047, 0.025329785, 0.0019356972, -72408.164, -72408.164, 0.0, 9.99415, 10.0022955 
1.7352013e+3, 1.2467089e+2, -946298.9, -1704785.8, -125807.91, -0.056710135, -0.04605432, -925976.0, 792243.4, 0.05572609, 10.0072365, 9.996591 
1.7351873e+3, 1.3466732e+2, -959112.9, -1682077.8, 48384.875, -0.09568725, -0.055208363, -955889.06, 664365.7, 0.03648236, 10.006387, 9.996478 
1.7351727e+3, 1.446643e+2, -915513.6, -1530912.0, -53440.97, -0.038124464, -0.037738632, -910907.3, 611376.7, 0.018680964, 10.005548, 9.997246 
1.7351563e+3, 1.5466112e+2, -917109.4, -1481141.4, -54332.484, -0.03683226, -0.08772186, -911923.3, 512390.84, 0.006463896, 10.004792, 9.997277 
1.7351398e+3, 1.646586e+2, -875222.7, -1354601.0, -57421.816, -0.04773088, -0.0899217, -868440.44, 457898.25, 0.0011194024, 10.004143, 9.997786 
1.7351235e+3, 1.7465681e+2, -855367.5, -1295135.4, -48840.477, -0.02636004, -0.04961827, -850008.56, 378348.56, 0.000040117335, 10.003606, 9.99778 
1.735107e+3, 1.8465488e+2, -816828.44, -1165533.8, -61948.88, -0.019720431, -0.044675663, -806150.0, 324226.66, 0.0, 10.002936, 9.99832 
1.73509e+3, 1.9465286e+2, -836807.06, -1124297.8, -65924.45, -0.045479745, -0.08194214, -822410.9, 209985.67, 0.0, 10.002126, 9.998321 
1.7350733e+3, 2.0465161e+2, -807620.5, -988913.2, -70498.1, -0.041169323, -0.067304306, -783433.3, 150976.36, 0.0, 10.00135, 9.998951 
1.735057e+3, 2.1465123e+2, -815278.4, -941432.3, -66141.09, 0.0034393924, -0.0030877122, -786958.7, 49456.27, 0.0, 10.000624, 9.998954 
1.7350404e+3, 2.2465047e+2, -769948.75, -808876.0, -53474.96, 0.011381506, 0.0012209195, -732505.4, 5917.3354, 0.0, 10.000005, 9.999489 
1.7350236e+3, 2.3464932e+2, -744805.3, -745932.06, -48713.543, -0.024362553, -0.065775104, -696651.9, -56219.273, 0.0, 9.999504, 9.999489 
1.735007e+3, 2.4464892e+2, -728412.0, -665222.0, -43668.184, -0.02895308, -0.06032528, -642917.5, -100480.86, 0.0, 9.99885, 9.999684 
1.7349909e+3, 2.5464937e+2, -752017.44, -627098.06, -47098.617, 0.0033495943, 0.015074946, -611330.56, -166896.27, 0.0, 9.99802, 9.999673 
1.7349747e+3, 2.6464933e+2, -713842.56, -491168.1, -40084.63, 0.010951144, 0.015537069, -484172.06, -137736.7, 0.0, 9.997322, 10.00027 
1.7349581e+3, 2.7464887e+2, -693935.9, -430595.8, -41095.67, -0.012996714, -0.060736246, -424331.63, -175893.08, 0.0, 9.996785, 10.00027 
1.734942e+3, 2.846495e+2, -673579.2, -339129.78, -25651.555, -0.01778111, -0.036072176, -337173.78, -186741.6, 0.0, 9.9961195, 10.000546 
1.7349264e+3, 2.9465103e+2, -694751.7, -299428.53, -31679.064, 0.007963003, 0.06024164, -296906.03, -244487.75, 0.0, 9.995304, 10.000539 
1.7349099e+3, 3.0465075e+2, -644264.75, -96387.43, -50592.57, -0.02826801, -0.08489151, -91754.734, -91754.734, 0.0, 9.994654, 10.001914 
1.7348936e+3, 3.1465346e+2, -666922.1, -26834.225, 51499.49, -0.018128868, -0.012235826, -22717.215, -22717.215, 0.0, 9.994155, 10.00263 
1.7452084e+3, 1.2468622e+2, -985856.25, -1702591.5, -100050.25, -0.05520829, -0.06625187, -972152.1, 745916.56, 0.059041493, 10.006879, 9.996775 
1.7451933e+3, 1.3468288e+2, -960868.06, -1672398.4, 70275.72, -0.109139234, -0.06147227, -953993.56, 666108.0, 0.03880943, 10.006345, 9.996565 
1.7451786e+3, 1.4467987e+2, -891146.5, -1516727.5, -28864.648, -0.0180714, -0.049085073, -889817.5, 632313.2, 0.020026464, 10.005719, 9.997259 
1.7451611e+3, 1.5467668e+2, -883780.94, -1463926.8, -23031.8, -0.03948935, -0.09908687, -882868.0, 541292.8, 0.0070355018, 10.005023, 9.997283 
1.745144e+3, 1.646742e+2, -853462.6, -1335671.5, -23692.213, -0.057729885, -0.101271294, -852301.3, 473883.63, 0.0012586741, 10.004257, 9.99786 
1.7451271e+3, 1.7467248e+2, -877886.6, -1297651.5, -22766.846, -0.02633084, -0.060640827, -876655.44, 351547.1, 0.000049903098, 10.003416, 9.997853 
1.7451099e+3, 1.8467063e+2, -856879.75, -1186414.9, -36026.773, -0.013855479, -0.05190299, -852987.06, 277234.4, 0.0000000000000006446772, 10.00267, 9.998303 
1.7450921e+3, 1.9466864e+2, -852469.44, -1134134.5, -31874.793, -0.039861243, -0.082442924, -848907.4, 183334.11, 0.0, 10.00203, 9.998298 
1.7450747e+3, 2.0466736e+2, -803024.5, -984821.75, -33335.695, -0.035885654, -0.0705857, -797104.6, 137150.39, 0.0, 10.001376, 9.998965 
1.7450577e+3, 2.1466687e+2, -803176.9, -933963.9, -35985.566, 0.008110312, -0.018410904, -793929.44, 42331.5, 0.0, 10.000701, 9.998966 
1.7450404e+3, 2.246661e+2, -769452.7, -806213.1, -27214.248, 0.011722345, -0.014210718, -754993.2, -16724.627, 0.0, 9.999999, 9.999509 
1.7450228e+3, 2.3466511e+2, -777902.6, -759752.7, -31120.734, -0.03325265, -0.06877827, -736410.75, -96133.266, 0.0, 9.9992695, 9.999506 
1.7450057e+3, 2.4466479e+2, -761765.6, -675713.4, -29532.148, -0.035199996, -0.059377637, -666553.3, -124272.445, 0.0, 9.998598, 9.999733 
1.744989e+3, 2.5466523e+2, -753369.6, -621944.6, -25075.785, 0.014575066, 0.010666252, -617322.7, -173044.56, 0.0, 9.997988, 9.999722 
1.744972e+3, 2.6466513e+2, -712933.6, -500519.34, -12287.3955, 0.021784797, 0.009090254, -499810.94, -153531.17, 0.0, 9.997374, 10.000178 
1.7449549e+3, 2.746646e+2, -705622.94, -446816.8, -23141.443, -0.025727749, -0.06567577, -444763.88, -196479.4, 0.0, 9.996754, 10.000174 
1.744938e+3, 2.8466526e+2, -664332.44, -326232.3, -14915.977, -0.039083496, -0.037381567, -325575.53, -175297.56, 0.0, 9.996148, 10.00062 
1.7449218e+3, 2.946669e+2, -660009.44, -280011.8, -16753.871, 0.0025856376, 0.06442109, -279274.6, -227012.55, 0.0, 9.995534, 10.000561 
1.744905e+3, 3.046662e+2, -661314.8, -161727.36, -40493.914, 0.02535019, -0.09833841, -158466.42, -158466.42, 0.0, 9.994784, 10.001402 
1.7448874e+3, 3.1466872e+2, -685449.44, -8574.802, 51030.035, -0.0418511, 0.0033366408, -4749.2344, -4749.2344, 0.0, 9.993911, 10.002873 
1.7552152e+3, 1.2470233e+2, -976810.5, -1681284.5, -114554.08, -0.062881045, -0.07450753, -958651.06, 759259.2, 0.06252708, 10.00689, 9.996926 
1.7551996e+3, 1.3469884e+2, -956542.25, -1660715.5, 51428.69, -0.12539037, -0.09259173, -952806.0, 667137.75, 0.041255604, 10.006349, 9.996644 
1.7551844e+3, 1.4469583e+2, -886171.4, -1503769.8, -54484.31, 0.0021312858, -0.08847086, -881401.6, 640571.06, 0.021445237, 10.005715, 9.997353 
1.7551662e+3, 1.5469316e+2, -877526.25, -1450767.1, -48187.17, -0.033172015, -0.094462395, -873503.8, 550494.4, 0.0076450445, 10.005025, 9.997374 
1.755148e+3, 1.6469076e+2, -854363.3, -1338086.9, -54795.53, -0.06557251, -0.09215613, -848233.8, 477787.88, 0.0014118343, 10.004258, 9.997844 
1.7551303e+3, 1.7468864e+2, -878312.0, -1300107.8, -53495.402, -0.04978651, -0.090498924, -871633.06, 356409.97, 0.00006152052, 10.003421, 9.997835 
1.7551124e+3, 1.8468685e+2, -850131.94, -1173264.9, -59796.484, -0.025222655, -0.07772692, -839421.44, 290639.94, 0.0000000010737394, 10.002672, 9.998394 
1.7550947e+3, 1.9468547e+2, -845858.5, -1121358.6, -54836.305, -0.0059729433, -0.05848361, -835345.0, 196731.02, 0.0, 10.002033, 9.998385 
1.7550763e+3, 2.0468414e+2, -807731.56, -994761.94, -58015.766, -0.005813019, -0.05175519, -791197.1, 142892.64, 0.0, 10.001375, 9.998898 
1.7550582e+3, 2.1468294e+2, -808625.94, -945294.94, -60070.113, -0.020959685, -0.06461436, -785976.8, 50125.246, 0.0, 10.000699, 9.998891 
1.75504e+3, 2.2468208e+2, -776033.4, -819659.25, -53871.965, -0.023528932, -0.061774645, -739725.8, -1614.8846, 0.0, 9.999996, 9.999418 
1.7550224e+3, 2.3468167e+2, -784218.6, -773497.8, -57212.87, -0.01442445, -0.04771034, -721394.75, -81279.43, 0.0, 9.99927, 9.999412 
1.7550045e+3, 2.4468143e+2, -750975.56, -653439.5, -51850.625, -0.0123043535, -0.032855924, -631026.0, -88908.07, 0.0, 9.998597, 9.9998865 
1.7549866e+3, 2.546814e+2, -741652.7, -598479.94, -46507.07, -0.013958304, -0.026069038, -584699.3, -140581.19, 0.0, 9.997991, 9.999883 
1.754969e+3, 2.646813e+2, -727108.4, -531408.06, -34650.344, -0.012662334, -0.027200751, -525454.06, -179334.17, 0.0, 9.997378, 9.999965 
1.7549516e+3, 2.7468118e+2, -721459.75, -480398.75, -44540.65, -0.01671229, -0.035168733, -472432.28, -224310.14, 0.0, 9.996755, 9.999943 
1.7549342e+3, 2.8468168e+2, -654555.2, -306602.1, -37012.805, -0.029357469, -0.018501446, -302708.5, -152590.95, 0.0, 9.99615, 10.000754 
1.7549169e+3, 2.9468262e+2, -651342.56, -266118.75, -39038.51, -0.028668087, -0.0014543616, -262202.4, -210095.42, 0.0, 9.99555, 10.000649 
1.7549002e+3, 3.046821e+2, -714504.5, -275898.34, -72685.02, 0.06558455, -0.10990735, -264166.88, -264166.88, 0.0, 9.994799, 10.000612 
1.7548813e+3, 3.146846e+2, -688587.0, -12672.861, 20008.555, -0.0437978, 0.06664221, -12081.082, -12081.082, 0.0, 9.9939, 10.002851 
1.7652223e+3, 1.24719486e+2, -902260.06, -1645312.0, -66991.55, -0.06904648, -0.0796964, -896268.6, 821472.6, 0.066180654, 10.007468, 9.996912 
1.7652059e+3, 1.3471586e+2, -959576.3, -1667834.1, 81510.57, -0.14166144, -0.10620023, -950316.7, 669459.1, 0.04382056, 10.006368, 9.996586 
1.7651904e+3, 1.4471269e+2, -913487.5, -1516093.5, -22639.348, 0.020758139, -0.11312074, -912638.2, 609168.06, 0.022936037, 10.005529, 9.9973545 
1.7651713e+3, 1.5471031e+2, -874101.0, -1448522.1, -21625.113, -0.035765123, -0.09145887, -873288.0, 550541.7, 0.008290655, 10.005052, 9.997375 
1.7651522e+3, 1.6470799e+2, -835131.44, -1324519.1, -39300.09, -0.07485793, -0.08337592, -831995.56, 493857.22, 0.0015780905, 10.004376, 9.997878 
1.7651337e+3, 1.7470571e+2, -867925.75, -1291189.3, -35930.977, -0.051389407, -0.10057234, -864897.25, 362978.06, 0.00007476819, 10.003478, 9.997867 
1.7651153e+3, 1.8470393e+2, -842048.2, -1163989.0, -33357.17, -0.021310283, -0.0904526, -838628.3, 291265.13, 0.000000009428086, 10.002706, 9.99844 
1.7650966e+3, 1.9470276e+2, -836531.4, -1111777.9, -32389.578, 0.0011190919, -0.05482618, -832771.3, 199134.75, 0.0, 10.002076, 9.998429 
1.7650777e+3, 2.0470145e+2, -807709.75, -998374.9, -38359.95, -0.003777546, -0.0470608, -800281.56, 133638.14, 0.0, 10.001391, 9.998865 
1.7650586e+3, 2.1470003e+2, -819379.6, -954202.8, -38913.145, -0.03397374, -0.076535985, -808954.44, 26979.406, 0.0, 10.000644, 9.998856 
1.7650399e+3, 2.2469912e+2, -790027.7, -830631.25, -29007.191, -0.034339327, -0.073848374, -774923.56, -36980.355, 0.0, 9.99992, 9.999379 
1.7650215e+3, 2.3469886e+2, -794771.0, -783156.06, -29054.105, -0.0039004495, -0.041561186, -759334.7, -119388.13, 0.0, 9.999219, 9.99937 
1.7650032e+3, 2.4469857e+2, -752616.6, -653907.9, -22095.309, -0.0049670655, -0.030478036, -649187.7, -107237.96, 0.0, 9.998586, 9.999888 
1.7649844e+3, 2.5469828e+2, -735247.75, -595072.0, -29539.107, -0.03735974, -0.04988179, -589101.5, -145149.52, 0.0, 9.9980345, 9.999885 
1.7649662e+3, 2.646982e+2, -733113.1, -537393.2, -22628.713, -0.03075662, -0.046385627, -534811.0, -188857.55, 0.0, 9.997352, 9.999936 
1.7649485e+3, 2.746984e+2, -757665.9, -500949.22, -18165.666, 0.010134542, -0.021920154, -499670.16, -251716.8, 0.0, 9.996521, 9.999913 
1.7649303e+3, 2.8469875e+2, -693148.44, -322497.7, 991.4707, -0.013515629, -0.014829147, -322495.03, -172545.03, 0.0, 9.995875, 10.000777 
1.7649119e+3, 2.9469934e+2, -671239.2, -276353.4, -11328.348, -0.080715515, -0.036481943, -276028.7, -224085.72, 0.0, 9.995419, 10.000641 
1.7648952e+3, 3.0469936e+2, -728206.2, -314945.44, -37102.14, 0.08421224, -0.07257123, -311640.88, -311640.88, 0.0, 9.994846, 10.0003195 
1.7648754e+3, 3.1470084e+2, -655933.7, 3372.5364, 72129.46, -0.038594425, 0.027034953, 11171.396, 11171.396, 0.0, 9.994126, 10.00285 
1.7752296e+3, 1.2473771e+2, -920279.2, -1673487.3, -98119.516, -0.07921541, -0.07703095, -907707.1, 809854.75, 0.070005216, 10.007456, 9.996714 
1.7752118e+3, 1.3473384e+2, -973343.9, -1696794.3, 41731.836, -0.16046593, -0.10506196, -970944.56, 648653.94, 0.04650608, 10.00638, 9.996381 
1.7751959e+3, 1.447304e+2, -918312.5, -1527168.0, -41373.066, 0.03512308, -0.12544075, -915513.94, 606118.0, 0.02449798, 10.00554, 9.997274 
1.7751761e+3, 1.547281e+2, -879777.7, -1460164.4, -38194.652, -0.04917047, -0.089329995, -877274.94, 546380.7, 0.008970255, 10.005052, 9.997295 
1.7751566e+3, 1.6472584e+2, -830585.2, -1314587.4, -71960.125, -0.08844413, -0.07384276, -820112.94, 505565.3, 0.0017564622, 10.004374, 9.997949 
1.7751373e+3, 1.7472361e+2, -862420.25, -1280916.3, -68534.625, -0.032656163, -0.09237217, -851482.6, 376217.22, 0.00008938392, 10.003482, 9.997937 
1.7751181e+3, 1.8472178e+2, -842043.3, -1164716.0, -56526.168, -0.0037254943, -0.091066524, -832427.56, 297290.6, 0.000000028818846, 10.0027075, 9.998436 
1.7750984e+3, 1.9472045e+2, -836579.6, -1112520.8, -54813.133, -0.019543985, -0.07111161, -826090.25, 205641.84, 0.0, 10.002077, 9.998425 
1.7750789e+3, 2.0471919e+2, -808244.1, -999731.8, -65587.33, -0.031339057, -0.056435324, -787933.75, 145811.44, 0.0, 10.00139, 9.998857 
1.7750593e+3, 2.1471807e+2, -819783.0, -955921.75, -65747.19, -0.032694414, -0.0555205, -793215.56, 42541.434, 0.0, 10.000645, 9.998844 
1.7750399e+3, 2.247172e+2, -789137.25, -829175.8, -54629.445, -0.022489378, -0.051050164, -750974.5, -13208.442, 0.0, 9.99992, 9.99939 
1.7750208e+3, 2.3471662e+2, -793919.06, -781938.9, -54035.105, -0.002695773, -0.049781922, -733562.9, -93791.21, 0.0, 9.999219, 9.999379 
1.7750016e+3, 2.4471611e+2, -763582.2, -677015.75, -41933.926, -0.014642688, -0.052535433, -660033.8, -118257.03, 0.0, 9.998586, 9.99973 
1.7749824e+3, 2.5471577e+2, -746639.0, -619834.9, -48690.516, -0.056918744, -0.062371597, -603295.75, -159515.33, 0.0, 9.998037, 9.999714 
1.7749636e+3, 2.6471576e+2, -721799.6, -515019.88, -52685.688, -0.033760007, -0.04930085, -502369.9, -156588.83, 0.0, 9.9973545, 10.00009 
1.7749454e+3, 2.7471614e+2, -744557.44, -475810.6, -47616.31, 0.04987382, -0.024815124, -467623.4, -219844.86, 0.0, 9.996528, 10.000084 
1.7749263e+3, 2.8471646e+2, -698428.0, -335311.28, -15670.277, 0.0035613172, -0.026082134, -334636.28, -184860.44, 0.0, 9.995882, 10.000687 
1.7749067e+3, 2.94717e+2, -678299.44, -292062.9, -27366.674, -0.15283276, -0.04079859, -290133.5, -238362.88, 0.0, 9.995421, 10.000533 
1.77489e+3, 3.04718e+2, -709674.1, -276850.75, -60661.473, 0.08043532, 0.011472062, -268509.6, -268509.6, 0.0, 9.994846, 10.000582 
1.7748697e+3, 3.1471857e+2, -658359.56, -4192.0513, 10631.783, -0.013368456, -0.005366331, -4019.305, -4019.305, 0.0, 9.994137, 10.002793 
1.7852373e+3, 1.24756515e+2, -940166.5, -1688288.1, -75210.84, -0.05505985, -0.07128697, -932680.25, 784696.9, 0.07401086, 10.007367, 9.996647 
1.7852184e+3, 1.3475253e+2, -906267.4, -1667156.0, 63234.0, -0.1785561, -0.10564036, -901048.1, 718366.5, 0.049315218, 10.006904, 9.996331 
1.7852017e+3, 1.447489e+2, -850478.06, -1497131.4, -14859.227, 0.039835364, -0.14157958, -850136.75, 671313.25, 0.026131643, 10.006044, 9.997239 
1.785181e+3, 1.5474667e+2, -913970.25, -1480975.0, -9023.505, -0.049174752, -0.093877554, -913826.7, 509646.66, 0.009683791, 10.004839, 9.997254 
1.7851606e+3, 1.6474448e+2, -882185.3, -1338091.8, -36004.49, -0.08837803, -0.06994602, -879359.44, 446136.13, 0.0019466943, 10.004015, 9.997959 
1.785141e+3, 1.7474231e+2, -844244.9, -1270920.1, -37682.984, -0.026473796, -0.084065445, -840942.4, 386574.38, 0.00010525793, 10.003603, 9.997946 
1.7851208e+3, 1.847404e+2, -813819.9, -1154739.8, -34330.723, -0.0010286709, -0.08992795, -810397.1, 319138.63, 0.0000000562377, 10.002919, 9.998401 
1.7851004e+3, 1.947388e+2, -859036.25, -1127096.0, -36068.32, -0.032380663, -0.08922079, -854267.94, 177283.58, 0.0, 10.001942, 9.998388 
1.7850801e+3, 2.0473754e+2, -832415.3, -1006916.44, -38939.84, -0.042975612, -0.07525846, -824120.25, 109444.375, 0.0, 10.001207, 9.998895 
1.78506e+3, 2.1473669e+2, -803330.56, -943844.2, -35906.223, -0.024525568, -0.054260164, -794687.0, 40887.395, 0.0, 10.000741, 9.998879 
1.78504e+3, 2.2473584e+2, -756876.44, -815259.2, -27686.232, -0.012123248, -0.046169262, -745835.2, -8252.236, 0.0, 10.000149, 9.999374 
1.7850201e+3, 2.3473509e+2, -766641.56, -770185.7, -30454.66, -0.009658298, -0.060625557, -737907.44, -98317.59, 0.0, 9.999414, 9.999365 
1.7850001e+3, 2.4473451e+2, -760160.7, -680472.4, -14288.635, -0.022829913, -0.06745366, -677987.75, -136392.06, 0.0, 9.9986315, 9.999684 
1.7849803e+3, 2.5473422e+2, -786836.1, -645196.4, -12723.827, -0.047448795, -0.06699259, -644062.44, -200463.14, 0.0, 9.9977865, 9.9996605 
1.784961e+3, 2.6473424e+2, -749766.94, -523021.25, -12682.661, -0.021835556, -0.049422976, -522314.06, -176714.44, 0.0, 9.997139, 10.000138 
1.784942e+3, 2.747346e+2, -712971.94, -454797.84, -16609.09, 0.04558196, -0.031826057, -453733.72, -206136.83, 0.0, 9.99672, 10.000135 
1.7849222e+3, 2.8473487e+2, -688419.7, -334877.3, 6590.02, -0.011437647, -0.037912175, -334754.53, -185159.66, 0.0, 9.99597, 10.000648 
1.7849015e+3, 2.947355e+2, -762772.56, -333657.63, -2310.0022, -0.16746904, -0.039912242, -333645.2, -282055.38, 0.0, 9.994845, 10.0005245 
1.7848846e+3, 3.0473703e+2, -761273.7, -254866.58, -6396.793, 0.0996048, 0.046003878, -254785.78, -254785.78, 0.0, 9.994289, 10.001001 
1.7848638e+3, 3.1473723e+2, -648973.8, -14310.6, 24254.195, -0.023485001, -0.044497475, -13385.055, -13385.055, 0.0, 9.994267, 10.002659 
1.795245e+3, 1.2477591e+2, -940182.25, -1681909.5, -78393.23, -0.009918885, -0.06179598, -931987.4, 785199.8, 0.078202374, 10.007369, 9.996695 
1.7952251e+3, 1.3477191e+2, -903220.06, -1653571.1, 46527.28, -0.19684109, -0.10770143, -900346.06, 718878.3, 0.05224958, 10.006894, 9.996429 
1.7952077e+3, 1.4476815e+2, -853854.44, -1499595.4, -58974.37, 0.0349012, -0.1611322, -848512.6, 672748.1, 0.027840087, 10.006033, 9.997229 
1.7951861e+3, 1.5476598e+2, -914326.1, -1483072.4, -52408.324, -0.038546503, -0.104818135, -909537.2, 513746.06, 0.010434958, 10.004847, 9.997237 
1.7951648e+3, 1.6476384e+2, -884767.75, -1346059.3, -51227.7, -0.077686496, -0.070989996, -879147.25, 446157.88, 0.0021501253, 10.0040245, 9.997901 
1.7951444e+3, 1.7476171e+2, -847567.44, -1278906.9, -51916.105, -0.0341419, -0.07586004, -841406.8, 385919.8, 0.00012252832, 10.003606, 9.99789 
1.7951237e+3, 1.8475968e+2, -818789.94, -1165558.1, -69871.85, -0.01517797, -0.087499626, -805240.56, 324106.28, 0.000000085167756, 10.002919, 9.998327 
1.7951024e+3, 1.947578e+2, -863618.44, -1138179.9, -71360.26, -0.03871649, -0.10914223, -846179.1, 185185.75, 0.0, 10.001946, 9.998311 
1.7950813e+3, 2.0475645e+2, -826177.9, -995131.8, -55835.266, -0.03971409, -0.10289391, -809393.1, 123985.35, 0.0, 10.00121, 9.998976 
1.795061e+3, 2.1475576e+2, -797251.6, -931977.56, -51743.164, -0.010294914, -0.07263583, -779672.7, 55713.867, 0.0, 10.000742, 9.998962 
1.7950402e+3, 2.2475499e+2, -760528.5, -822965.75, -54096.68, -0.0046763946, -0.060147144, -729288.75, 8105.882, 0.0, 10.000148, 9.999323 
1.7950194e+3, 2.3475417e+2, -770402.06, -778720.44, -56712.29, -0.02732033, -0.0753083, -717696.6, -78294.64, 0.0, 9.999415, 9.999307 
1.7949986e+3, 2.4475366e+2, -755328.94, -670589.1, -44946.465, -0.031461842, -0.075305544, -651190.2, -109782.99, 0.0, 9.998631, 9.999754 
1.7949784e+3, 2.5475356e+2, -781261.6, -634207.75, -42997.125, -0.0106538115, -0.061500117, -622558.6, -179149.64, 0.0, 9.997787, 9.999737 
1.7949584e+3, 2.6475358e+2, -753292.6, -531791.8, -27449.32, 0.0031168489, -0.046961688, -528440.9, -183031.3, 0.0, 9.997143, 10.000077 
1.7949383e+3, 2.7475366e+2, -716722.0, -465573.2, -30114.373, -0.0043980954, -0.04801518, -462012.75, -214603.45, 0.0, 9.996731, 10.000057 
1.7949176e+3, 2.8475395e+2, -686682.9, -332700.7, -34343.74, -0.059058305, -0.05194986, -329399.4, -179991.7, 0.0, 9.995975, 10.000661 
1.7948967e+3, 2.947549e+2, -756960.25, -321121.16, -42690.594, -0.12964799, -0.027261868, -316978.97, -265578.66, 0.0, 9.994842, 10.000613 
1.7948793e+3, 3.047564e+2, -721142.5, -171851.83, -4227.4956, 0.13126549, 0.022025213, -171819.3, -171819.3, 0.0, 9.994289, 10.001573 
1.7948578e+3, 3.1475732e+2, -647970.5, -17186.262, -27488.512, -0.047846317, -0.049022168, -15990.625, -15990.625, 0.0, 9.994287, 10.00263 
1.8052529e+3, 1.24795765e+2, -877188.8, -1647101.1, -41673.96, 0.002479914, -0.08717253, -874939.6, 842052.1, 0.082576334, 10.007856, 9.99672 
1.8052316e+3, 1.3479213e+2, -960728.94, -1672627.3, 65298.074, -0.21101603, -0.10421749, -954789.1, 664236.5, 0.055312604, 10.006453, 9.996512 
1.8052137e+3, 1.447884e+2, -917267.6, -1523936.5, -29001.52, 0.044267595, -0.16054572, -915884.4, 605177.2, 0.029629994, 10.0055685, 9.99728 
1.8051912e+3, 1.5478612e+2, -843952.44, -1443449.9, -17467.652, -0.03025317, -0.11973616, -843443.9, 579640.8, 0.011229738, 10.005319, 9.99728 
1.8051691e+3, 1.6478394e+2, -805759.25, -1321230.6, -18509.035, -0.073164985, -0.08630058, -805095.5, 520011.8, 0.0023691375, 10.00463, 9.997778 
1.8051478e+3, 1.7478186e+2, -875590.0, -1306343.0, -25472.066, -0.04099672, -0.07406427, -874088.94, 353040.38, 0.00014156921, 10.003476, 9.997764 
1.8051264e+3, 1.847798e+2, -847597.4, -1169751.1, -36317.51, -0.020682767, -0.08331951, -843553.9, 285595.7, 0.00000010953618, 10.002682, 9.998411 
1.8051045e+3, 1.9477788e+2, -808847.0, -1101797.0, -26586.342, -0.027997116, -0.118729234, -806453.75, 224713.4, 0.0, 10.002281, 9.998398 
1.8050827e+3, 2.047765e+2, -773580.4, -983957.4, -12451.695, -0.029498054, -0.11563068, -772845.94, 160335.16, 0.0, 10.001635, 9.998847 
1.8050615e+3, 2.1477574e+2, -810198.0, -952495.2, -25474.41, -0.019549113, -0.076821856, -805775.0, 29415.56, 0.0, 10.000718, 9.998831 
1.8050401e+3, 2.2477493e+2, -787763.9, -830315.5, -31479.19, -0.017725077, -0.06256015, -771045.0, -33846.0, 0.0, 9.999937, 9.999373 
1.8050186e+3, 2.3477413e+2, -783174.2, -779217.3, -26180.908, -0.02690377, -0.082332924, -754940.2, -115734.41, 0.0, 9.999303, 9.999357 
1.8049973e+3, 2.4477364e+2, -758872.1, -676268.06, -17497.13, -0.0262806, -0.080835, -672714.7, -131503.97, 0.0, 9.998623, 9.999719 
1.8049762e+3, 2.547736e+2, -768783.25, -631962.06, -25027.873, -0.011650212, -0.06037842, -627527.56, -184314.8, 0.0, 9.99789, 9.999702 
1.8049553e+3, 2.6477358e+2, -751179.06, -521652.2, -2333.1948, -0.004459225, -0.046154883, -521628.47, -176415.13, 0.0, 9.997118, 10.000158 
1.8049346e+3, 2.7477372e+2, -776560.06, -486055.7, 5475.4136, -0.013545721, -0.05389815, -485952.53, -238739.9, 0.0, 9.996283, 10.0001335 
1.8049133e+3, 2.8477407e+2, -744410.44, -352817.3, 1578.8738, -0.05493001, -0.055414986, -352810.94, -203601.08, 0.0, 9.995544, 10.00073 
1.8048918e+3, 2.9477516e+2, -730038.75, -294149.56, -2538.337, -0.10640667, -0.023641944, -294134.78, -242933.84, 0.0, 9.9949665, 10.000737 
1.8048732e+3, 3.047763e+2, -690224.7, -136089.4, 43257.35, 0.09313334, -0.028354378, -132732.94, -132732.94, 0.0, 9.994414, 10.001757 
1.804852e+3, 3.147784e+2, -722348.7, -51754.094, -53364.94, -0.024580617, 0.006624841, -47533.945, -47533.945, 0.0, 9.993772, 10.002643 
1.8152604e+3, 1.2481605e+2, -883052.1, -1648644.0, -72069.48, -0.020293744, -0.1440088, -876326.94, 840464.1, 0.087128915, 10.007845, 9.996717 
1.8152378e+3, 1.3481314e+2, -957457.0, -1662344.0, 15940.011, -0.2267167, -0.09631692, -957096.7, 661722.2, 0.058512244, 10.00646, 9.996578 
1.8152192e+3, 1.448096e+2, -910985.2, -1510407.1, -39475.418, 0.060812745, -0.14126986, -908396.7, 612456.44, 0.031511035, 10.005575, 9.997374 
1.8151966e+3, 1.5480703e+2, -838489.56, -1430360.9, -25852.209, -0.025546975, -0.13836043, -837362.5, 585515.8, 0.012074241, 10.005314, 9.997374 
1.8151738e+3, 1.6480471e+2, -819827.2, -1349871.6, -60752.707, -0.07589883, -0.11478574, -812953.0, 511949.53, 0.00260626, 10.004626, 9.997585 
1.8151513e+3, 1.7480268e+2, -888395.75, -1334875.6, -67397.414, -0.048389766, -0.07790378, -878443.75, 348481.63, 0.00016291821, 10.003483, 9.997565 
1.815129e+3, 1.8480073e+2, -830622.3, -1136673.3, -50951.0, -0.019483762, -0.076919414, -822362.94, 306581.66, 0.00000012908751, 10.002689, 9.998636 
1.8151069e+3, 1.9479898e+2, -791571.6, -1067400.6, -40457.1, -0.0020010804, -0.11905589, -785760.0, 245199.13, 0.0, 10.002286, 9.998633 
1.8150847e+3, 2.0479755e+2, -797238.5, -1033750.6, -45780.79, -0.014629778, -0.11480646, -788686.1, 144287.31, 0.0, 10.001636, 9.998506 
1.8150619e+3, 2.1479653e+2, -834732.06, -1004170.25, -58540.81, -0.05447975, -0.06737879, -816473.75, 18513.262, 0.0, 10.000718, 9.998477 
1.8150397e+3, 2.2479562e+2, -777066.44, -808177.8, -54516.87, -0.052744333, -0.053102978, -735929.4, 1067.3566, 0.0, 9.999936, 9.999528 
1.815018e+3, 2.3479488e+2, -771072.3, -755099.25, -48358.566, -0.008465703, -0.08143577, -714072.1, -75070.35, 0.0, 9.999306, 9.999523 
1.8149962e+3, 2.4479435e+2, -768971.06, -698232.6, -43823.918, -0.007963271, -0.08541959, -677285.6, -136278.55, 0.0, 9.998625, 9.999568 
1.8149737e+3, 2.5479412e+2, -779299.8, -655448.4, -50786.492, -0.053613063, -0.06565268, -637286.25, -194274.61, 0.0, 9.997895, 9.99954 
1.814952e+3, 2.6479423e+2, -734732.4, -488078.88, -32603.086, -0.046697453, -0.047868583, -483842.13, -138830.42, 0.0, 9.99712, 10.000389 
1.8149312e+3, 2.7479464e+2, -760207.3, -451448.53, -24856.488, 0.01494549, -0.046514522, -449460.28, -202453.23, 0.0, 9.996279, 10.000374 
1.8149094e+3, 2.8479522e+2, -734696.94, -334428.75, -18834.883, -0.0019843224, -0.046961285, -333544.4, -184542.81, 0.0, 9.995549, 10.000856 
1.814887e+3, 2.9479623e+2, -715667.75, -270860.03, -20225.623, -0.09727453, -0.033533853, -269942.28, -218949.88, 0.0, 9.994991, 10.000888 
1.8148665e+3, 3.0479664e+2, -706186.7, -171700.2, 19693.436, -0.016745994, -0.1091474, -170975.58, -170975.58, 0.0, 9.994426, 10.001506 
1.8148461e+3, 3.1479916e+2, -711486.9, -26661.738, -97410.69, 0.004528718, -0.0015817905, -13075.419, -13075.419, 0.0, 9.993757, 10.002823 
1.8252681e+3, 1.2483773e+2, -910269.1, -1675023.6, -22935.004, -0.02604576, -0.16794261, -909581.9, 806995.06, 0.091859624, 10.007743, 9.99657 
1.8252446e+3, 1.348348e+2, -904440.9, -1644615.1, 33927.12, -0.22277349, -0.1110392, -902889.0, 715716.75, 0.061855942, 10.006912, 9.996482 
1.8252252e+3, 1.4483127e+2, -860973.1, -1487509.4, -12848.344, 0.0821431, -0.1496733, -860709.8, 659930.6, 0.033491302, 10.00595, 9.997354 
1.8252015e+3, 1.5482874e+2, -892185.0, -1458530.1, -6012.364, -0.032023594, -0.14002752, -892121.2, 530544.1, 0.012973145, 10.004956, 9.997351 
1.825178e+3, 1.6482638e+2, -874837.0, -1375150.8, -42804.27, -0.0862573, -0.11746082, -871201.3, 453488.3, 0.0028636272, 10.004246, 9.997593 
1.8251549e+3, 1.7482428e+2, -838356.3, -1309963.8, -36194.613, -0.038632605, -0.08858178, -835594.6, 391118.38, 0.00018711874, 10.003826, 9.99757 
1.825132e+3, 1.8482232e+2, -770222.9, -1117214.9, -19529.879, -0.007451856, -0.08432404, -769127.1, 359605.38, 0.00000015151502, 10.003148, 9.998548 
1.8251091e+3, 1.9482063e+2, -810293.7, -1086351.5, -33652.152, -0.007262507, -0.11054033, -806250.6, 224496.52, 0.0, 10.002203, 9.998542 
1.8250859e+3, 2.048192e+2, -828978.8, -1047119.75, -41623.004, -0.025364978, -0.10333493, -821306.7, 111454.92, 0.0, 10.001411, 9.998521 
1.8250625e+3, 2.1481809e+2, -824372.8, -996916.1, -27801.934, -0.05860911, -0.06694535, -820003.75, 14771.639, 0.0, 10.000782, 9.998496 
1.8250397e+3, 2.248171e+2, -761785.4, -808370.25, -15164.934, -0.055054534, -0.05865956, -757283.75, -20497.96, 0.0, 10.000074, 9.999459 
1.8250173e+3, 2.3481627e+2, -780023.06, -766532.0, -27567.291, -0.013368308, -0.0877467, -744896.94, -106104.96, 0.0, 9.999278, 9.999456 
1.8249947e+3, 2.4481575e+2, -781787.6, -700237.5, -25377.266, -0.010921915, -0.08833475, -692985.4, -152188.08, 0.0, 9.998522, 9.999603 
1.8249716e+3, 2.5481564e+2, -790532.4, -656905.56, -17761.12, -0.050814647, -0.06200087, -654585.1, -211784.3, 0.0, 9.997801, 9.999575 
1.8249491e+3, 2.6481578e+2, -737813.75, -476119.3, 623.63007, -0.04787826, -0.047491424, -476117.8, -131317.5, 0.0, 9.997041, 10.000509 
1.8249272e+3, 2.748162e+2, -758850.4, -437126.38, -2385.0417, 0.003380651, -0.0569967, -437108.7, -190313.39, 0.0, 9.996232, 10.000493 
1.824905e+3, 2.8481686e+2, -730705.75, -325810.78, 6209.815, 0.003921543, -0.055601913, -325715.56, -176926.98, 0.0, 9.995549, 10.000915 
1.8248823e+3, 2.9481798e+2, -716724.06, -263547.8, -894.9397, -0.05502611, -0.03662115, -263546.03, -212768.08, 0.0, 9.99495, 10.0009575 
1.8248604e+3, 3.048183e+2, -751802.9, -202278.14, 35373.125, -0.06815926, -0.1232619, -200010.52, -200010.52, 0.0, 9.994153, 10.001426 
1.8248402e+3, 3.1482068e+2, -741460.4, 1686.565, -58469.66, 0.050280925, -0.019939147, 6258.7383, 6258.7383, 0.0, 9.993365, 10.003207 
1.8352757e+3, 1.2486064e+2, -934750.75, -1714511.9, -31883.137, -0.030878352, -0.16342719, -933449.25, 782901.4, 0.096770585, 10.00773, 9.996278 
1.8352517e+3, 1.3485706e+2, -923951.5, -1681367.8, 4000.2952, -0.2002684, -0.1451234, -923930.4, 694456.06, 0.06534802, 10.006908, 9.996232 
1.8352315e+3, 1.4485337e+2, -870642.7, -1505734.3, -49562.285, 0.10778162, -0.18141542, -866798.1, 653625.44, 0.035576228, 10.005952, 9.997226 
1.8352063e+3, 1.5485117e+2, -900495.2, -1476745.8, -41172.07, -0.0523316, -0.12634705, -897568.4, 524877.75, 0.013930185, 10.004962, 9.997225 
1.835182e+3, 1.6484892e+2, -861575.2, -1349055.0, -57778.15, -0.10724911, -0.09682508, -854820.7, 469648.53, 0.0031431857, 10.0042515, 9.99777 
1.835159e+3, 1.748466e+2, -824308.7, -1282837.8, -50835.227, -0.014031883, -0.10636254, -818740.44, 407752.34, 0.00021471361, 10.003833, 9.997754 
1.8351354e+3, 1.8484452e+2, -797279.5, -1175126.4, -54011.453, 0.012574465, -0.1044281, -789710.44, 338803.5, 0.00000018976193, 10.003154, 9.998149 
1.835111e+3, 1.948428e+2, -838236.25, -1146091.9, -67617.3, -0.044113144, -0.09293321, -824039.5, 206492.14, 0.0, 10.002208, 9.998131 
1.835087e+3, 2.0484138e+2, -803366.0, -994864.9, -64157.184, -0.061551183, -0.081366025, -783858.75, 148687.27, 0.0, 10.001413, 9.998879 
1.8350635e+3, 2.1484032e+2, -797443.0, -942222.0, -49821.74, -0.032983772, -0.076302715, -781955.06, 52601.336, 0.0, 10.000785, 9.998871 
1.83504e+3, 2.2483924e+2, -782627.06, -852079.6, -44021.285, -0.026704237, -0.080602944, -761283.8, -24716.912, 0.0, 10.000074, 9.99916 
1.8350162e+3, 2.348382e+2, -801668.56, -812135.4, -55950.836, -0.044472046, -0.10140515, -750706.9, -112129.81, 0.0, 9.999278, 9.999145 
1.8349928e+3, 2.4483775e+2, -766478.06, -668171.2, -51360.94, -0.03676446, -0.089484885, -646233.06, -105651.03, 0.0, 9.998519, 9.9998255 
1.8349697e+3, 2.54838e+2, -773413.7, -621821.5, -43068.58, -0.0039596506, -0.04853642, -610439.9, -167858.98, 0.0, 9.997802, 9.999817 
1.8349464e+3, 2.6483813e+2, -737937.7, -478074.06, -28626.678, -0.009358918, -0.04510171, -474957.9, -130378.016, 0.0, 9.9970455, 10.000495 
1.834923e+3, 2.7483827e+2, -759572.2, -441219.72, -30727.295, -0.050936215, -0.08672633, -438281.06, -191702.72, 0.0, 9.99624, 10.000463 
1.8349001e+3, 2.8483889e+2, -729436.94, -325699.3, -15579.266, -0.039303795, -0.08435732, -325099.03, -176527.1, 0.0, 9.995559, 10.000912 
1.8348779e+3, 2.948403e+2, -716321.56, -264616.06, -24173.717, 0.014088697, -0.035560038, -263326.06, -212767.36, 0.0, 9.994958, 10.000948 
1.8348545e+3, 3.048413e+2, -746597.5, -191549.13, 2617.1626, -0.060682576, -0.05675812, -191536.78, -191536.78, 0.0, 9.994152, 10.001501 
1.8348333e+3, 3.1484258e+2, -717144.94, 46527.723, -45056.85, 0.027606707, -0.07517874, 49176.895, 49176.895, 0.0, 9.993382, 10.00351 
1.8452835e+3, 1.2488386e+2, -948573.6, -1715071.6, -15569.725, -0.014415286, -0.15953243, -948257.5, 767865.8, 0.101867825, 10.007641, 9.996314 
1.8452585e+3, 1.3488033e+2, -935049.75, -1679803.4, 16951.348, -0.19580346, -0.14187287, -934664.1, 683494.2, 0.0689955, 10.006822, 9.996284 
1.8452375e+3, 1.4487666e+2, -868854.44, -1510292.8, -24731.969, 0.10812472, -0.17624846, -867902.25, 652293.0, 0.037772883, 10.006006, 9.997165 
1.8452112e+3, 1.5487438e+2, -865030.6, -1466541.4, -12940.219, -0.057603814, -0.12155839, -864752.4, 557466.5, 0.014950351, 10.005247, 9.997156 
1.8451864e+3, 1.6487204e+2, -814876.6, -1320633.5, -18441.633, -0.11242745, -0.098942585, -814205.06, 510037.44, 0.003447425, 10.004552, 9.99782 
1.8451628e+3, 1.7486964e+2, -807165.1, -1268800.5, -21378.598, -0.019519791, -0.12169066, -806177.2, 420088.84, 0.0002464442, 10.003928, 9.997803 
1.8451384e+3, 1.8486758e+2, -799103.9, -1191471.0, -33313.773, 0.0054398417, -0.11526595, -796295.5, 331991.97, 0.00000025167606, 10.00321, 9.998008 
1.8451132e+3, 1.9486593e+2, -821536.8, -1154044.5, -29016.607, -0.053019423, -0.080266856, -819023.7, 211281.98, 0.0, 10.002394, 9.997985 
1.8450885e+3, 2.0486446e+2, -773104.4, -969812.75, -19409.955, -0.06432196, -0.06980102, -771207.4, 161113.14, 0.0, 10.001578, 9.998971 
1.8450645e+3, 2.1486323e+2, -794359.5, -929840.25, -26109.959, -0.021679614, -0.09146252, -789501.75, 44829.492, 0.0, 10.000762, 9.998966 
1.84504e+3, 2.2486211e+2, -796864.25, -864136.5, -22506.215, -0.017442543, -0.10152291, -790029.2, -53687.477, 0.0, 10.000001, 9.999111 
1.8450154e+3, 2.348612e+2, -803040.06, -818637.06, -15837.669, -0.053979486, -0.10584786, -793185.0, -154833.72, 0.0, 9.999296, 9.99909 
1.8449911e+3, 2.4486074e+2, -762225.94, -663488.75, -9186.765, -0.045571774, -0.09256149, -662641.3, -122284.836, 0.0, 9.998538, 9.999847 
1.8449676e+3, 2.5486085e+2, -784181.44, -623314.7, -17840.797, 0.008385037, -0.06686594, -621359.8, -179003.55, 0.0, 9.997716, 9.999846 
1.8449436e+3, 2.64861e+2, -754065.75, -490900.16, -11745.9795, 0.0012847648, -0.060730416, -490376.94, -146021.83, 0.0, 9.996961, 10.000445 
1.844919e+3, 2.7486125e+2, -756671.94, -445988.8, -15627.479, -0.06492488, -0.08175831, -445204.75, -198852.23, 0.0, 9.996288, 10.000405 
1.8448956e+3, 2.8486183e+2, -714042.3, -309756.88, 4247.706, -0.048672486, -0.08550655, -309712.25, -161365.52, 0.0, 9.995629, 10.000986 
1.844873e+3, 2.9486302e+2, -719866.2, -257354.06, -3596.81, 0.040148105, -0.068551585, -257326.1, -206990.48, 0.0, 9.994898, 10.001024 
1.8448487e+3, 3.0486465e+2, -767501.3, -196797.38, 20819.148, -0.04522111, -0.029651789, -196038.9, -196038.9, 0.0, 9.993993, 10.001539 
1.8448265e+3, 3.148652e+2, -749628.5, 18942.695, 19069.586, 0.022015983, -0.12539639, 19415.555, 19415.555, 0.0, 9.99321, 10.003405 
1.8552916e+3, 1.2490743e+2, -929458.8, -1670691.5, -21090.605, 0.013539723, -0.15456796, -928859.2, 787035.3, 0.10716609, 10.007662, 9.996646 
1.8552652e+3, 1.3490453e+2, -916933.9, -1632204.3, -10787.682, -0.21379557, -0.10714463, -916771.2, 701150.8, 0.072814226, 10.006817, 9.996613 
1.855243e+3, 1.4490102e+2, -873775.6, -1515312.9, -52345.375, 0.07967716, -0.1402724, -869532.7, 650423.94, 0.04009379, 10.005995, 9.997136 
1.8552166e+3, 1.5489833e+2, -867545.4, -1471870.0, -39877.203, -0.050052274, -0.123986, -864925.4, 557058.7, 0.01604175, 10.005251, 9.997119 
1.855191e+3, 1.6489577e+2, -818837.8, -1331141.1, -41140.574, -0.10445153, -0.118879326, -815555.06, 508454.78, 0.0037802209, 10.00456, 9.997745 
1.8551664e+3, 1.7489335e+2, -811995.44, -1279598.3, -43408.26, -0.054738563, -0.13448228, -807999.9, 418033.44, 0.00028343205, 10.003929, 9.997729 
1.8551412e+3, 1.8489139e+2, -793060.06, -1178866.8, -62862.438, -0.02870149, -0.11830337, -783075.8, 344977.97, 0.0000003514084, 10.003208, 9.998096 
1.8551156e+3, 1.9488993e+2, -814312.56, -1140422.8, -58220.313, -0.036130343, -0.07319664, -804230.25, 225839.86, 0.0, 10.002398, 9.998078 
1.8550903e+3, 2.0488837e+2, -784704.7, -995246.44, -49153.38, -0.036641464, -0.06860081, -773794.6, 158291.33, 0.0, 10.001581, 9.998796 
1.8550651e+3, 2.1488674e+2, -806799.2, -956420.2, -55235.805, -0.026705053, -0.11200936, -788617.2, 45483.453, 0.0, 10.000763, 9.998784 
1.8550399e+3, 2.2488564e+2, -783606.25, -836548.44, -47933.36, -0.028151019, -0.121206485, -755320.4, -19209.713, 0.0, 9.999999, 9.999303 
1.8550147e+3, 2.3488514e+2, -788841.94, -790250.25, -40714.1, -0.04217351, -0.10144979, -748825.9, -110710.52, 0.0, 9.999299, 9.999285 
1.8549898e+3, 2.4488458e+2, -775330.3, -691588.25, -39193.344, -0.038878597, -0.098934986, -676106.9, -135985.47, 0.0, 9.99854, 9.999654 
1.8549651e+3, 2.5488406e+2, -797486.94, -652094.9, -47588.47, -0.017498832, -0.11779038, -637903.75, -195775.94, 0.0, 9.997718, 9.999648 
1.8549404e+3, 2.6488423e+2, -760325.1, -504599.97, -36519.594, -0.016945617, -0.0947125, -499486.9, -155359.98, 0.0, 9.996962, 10.000352 
1.8549155e+3, 2.7488515e+2, -762340.2, -458931.47, -38334.64, -0.038427677, -0.039909843, -454162.94, -208044.4, 0.0, 9.996292, 10.000316 
1.8548913e+3, 2.8488562e+2, -703335.9, -290219.44, -22621.457, -0.027519943, -0.057673283, -288984.4, -140870.58, 0.0, 9.995637, 10.001118 
1.8548676e+3, 2.9488596e+2, -708120.06, -236519.9, -34023.543, 0.015140278, -0.13826236, -234077.92, -183967.81, 0.0, 9.99491, 10.0011635 
1.854843e+3, 3.0488822e+2, -763151.25, -190623.63, -12834.687, -0.015163416, -0.046934646, -190336.05, -190336.05, 0.0, 9.994004, 10.001576 
1.8548195e+3, 3.1489035e+2, -795093.44, -79879.5, 32089.12, 0.014590013, 0.013657479, -78442.664, -78442.664, 0.0, 9.993227, 10.002719 
1.8652995e+3, 1.249322e+2, -844179.9, -1623722.0, 32062.416, 0.020981602, -0.14251898, -842863.4, 872789.4, 0.11269181, 10.008343, 9.996682 
1.865272e+3, 1.3492933e+2, -916397.2, -1628794.9, -357.28885, -0.21497548, -0.09396987, -916397.0, 701282.8, 0.076827675, 10.006837, 9.996626 
1.8652488e+3, 1.4492577e+2, -895205.9, -1519096.9, -27472.748, 0.06911138, -0.13486165, -893998.5, 625716.0, 0.042555172, 10.005829, 9.997188 
1.8652219e+3, 1.54923e+2, -848122.44, -1456449.0, -8090.341, -0.038946938, -0.13025756, -848014.9, 573727.06, 0.017213996, 10.005369, 9.997166 
1.8651956e+3, 1.649204e+2, -804840.7, -1330187.1, -11240.703, -0.09040113, -0.12693588, -804600.25, 519167.53, 0.004146199, 10.004686, 9.997689 
1.86517e+3, 1.7491804e+2, -837845.3, -1298491.5, -14198.994, -0.06304697, -0.13355036, -837408.06, 388383.44, 0.00032700782, 10.003781, 9.99767 
1.8651442e+3, 1.8491608e+2, -816371.75, -1181516.6, -31569.797, -0.039698306, -0.11585636, -813662.4, 314149.34, 0.00000050835786, 10.003013, 9.998172 
1.865118e+3, 1.9491464e+2, -811484.3, -1130408.4, -28629.225, -0.027960295, -0.07649129, -808934.7, 220892.81, 0.0, 10.002382, 9.998154 
1.8650919e+3, 2.0491305e+2, -782305.44, -1005317.44, -21347.346, -0.027341142, -0.07195324, -780280.4, 151563.19, 0.0, 10.001649, 9.998693 
1.8650658e+3, 2.1491137e+2, -807556.25, -968517.9, -23325.713, -0.035784017, -0.109226316, -804244.2, 29615.043, 0.0, 10.000811, 9.998677 
1.8650398e+3, 2.2491026e+2, -783886.6, -830279.56, -15646.458, -0.03581909, -0.11797865, -779102.94, -43233.367, 0.0, 9.999971, 9.999358 
1.8650141e+3, 2.3490976e+2, -809555.06, -793564.1, -19366.951, -0.02892749, -0.10333186, -780607.1, -142733.28, 0.0, 9.99913, 9.999342 
1.8649884e+3, 2.4490918e+2, -794784.94, -712134.56, -15226.225, -0.028454361, -0.100752965, -709418.75, -169538.72, 0.0, 9.998458, 9.999552 
1.8649627e+3, 2.549086e+2, -771122.4, -651821.1, -17781.898, -0.03097434, -0.11509329, -649227.1, -207339.66, 0.0, 9.997955, 9.999535 
1.8649372e+3, 2.649087e+2, -728562.2, -486754.8, -7174.4033, -0.022307176, -0.09551643, -486542.16, -142654.77, 0.0, 9.997171, 10.000373 
1.8649119e+3, 2.7490953e+2, -791696.9, -468824.4, -1005.642, -0.009243051, -0.051333066, -468821.28, -222941.98, 0.0, 9.996076, 10.00035 
1.8648869e+3, 2.8491002e+2, -773804.6, -329397.0, 19707.654, -0.017834783, -0.062481068, -328524.75, -180650.67, 0.0, 9.99518, 10.001067 
1.864862e+3, 2.9491052e+2, -768896.94, -271430.9, -7180.413, -0.030293595, -0.123226225, -271327.28, -221457.63, 0.0, 9.99452, 10.00111 
1.8648373e+3, 3.0491254e+2, -764580.94, -175024.3, 7731.888, 0.021705998, -0.059103057, -174922.92, -174922.92, 0.0, 9.993926, 10.00172 
1.8648124e+3, 3.149149e+2, -796355.0, -102709.16, 74896.086, -0.029736906, 0.013312388, -94714.43, -94714.43, 0.0, 9.993318, 10.002516 
1.8753076e+3, 1.24958046e+2, -869072.2, -1659303.0, 1183.2716, 0.0009929949, -0.12776984, -869070.44, 846328.9, 0.11848167, 10.008317, 9.996423 
1.875279e+3, 1.349547e+2, -937146.56, -1671601.4, -52133.57, -0.20278378, -0.09658661, -933464.44, 683967.44, 0.08106295, 10.006848, 9.99633 
1.8752547e+3, 1.4495093e+2, -884773.3, -1499312.1, -43596.215, 0.071699694, -0.15131314, -881695.94, 637772.6, 0.045173384, 10.005851, 9.99732 
1.8752274e+3, 1.5494835e+2, -839428.94, -1436719.8, -23651.434, -0.02677813, -0.14152634, -838493.8, 582999.25, 0.01847565, 10.005368, 9.997303 
1.8752006e+3, 1.649459e+2, -810108.2, -1340107.3, -44481.758, -0.072874814, -0.12727067, -806400.9, 517116.53, 0.0045495867, 10.004681, 9.997625 
1.8751739e+3, 1.749436e+2, -841727.7, -1308273.6, -46959.848, -0.0477744, -0.11947286, -837047.94, 388493.3, 0.00037849456, 10.003786, 9.997602 
1.8751474e+3, 1.849416e+2, -810952.5, -1172445.4, -54479.3, -0.0312665, -0.10604793, -802920.56, 324641.44, 0.000000733184, 10.003019, 9.998232 
1.8751204e+3, 1.9494e+2, -806775.06, -1121759.6, -51099.23, -0.029708879, -0.08958334, -798692.75, 230885.8, 0.0, 10.002384, 9.998213 
1.8750934e+3, 2.0493847e+2, -785480.4, -1012383.5, -51814.566, -0.0366161, -0.079971835, -774208.2, 157385.83, 0.0, 10.001648, 9.998647 
1.8750665e+3, 2.1493708e+2, -810721.94, -976054.5, -53322.723, -0.049407907, -0.083996266, -795016.4, 38591.44, 0.0, 10.000813, 9.998626 
1.8750396e+3, 2.2493589e+2, -789242.8, -842001.94, -46277.324, -0.041828174, -0.09286788, -762354.44, -26735.26, 0.0, 9.999972, 9.999278 
1.8750133e+3, 2.3493497e+2, -814967.7, -805413.9, -49452.465, -0.016548382, -0.111615755, -760508.1, -122880.805, 0.0, 9.99913, 9.999262 
1.8749869e+3, 2.4493445e+2, -796223.75, -716061.6, -32999.883, -0.015312542, -0.09797455, -704224.6, -164591.55, 0.0, 9.99846, 9.999525 
1.8749607e+3, 2.5493437e+2, -772373.44, -657061.2, -34962.313, -0.033373833, -0.057620607, -647288.94, -205652.98, 0.0, 9.997964, 9.9994955 
1.8749344e+3, 2.6493427e+2, -718519.3, -468020.3, -47676.223, -0.016538536, -0.06332923, -459253.16, -115615.92, 0.0, 9.997178, 10.000499 
1.8749084e+3, 2.749342e+2, -780778.1, -448121.72, -41534.145, 0.020957693, -0.11950978, -443014.38, -197378.44, 0.0, 9.996082, 10.00049 
1.874882e+3, 2.84935e+2, -790675.75, -364724.53, -5414.219, -0.02119843, -0.09960372, -364655.72, -217027.4, 0.0, 9.99518, 10.000825 
1.8748558e+3, 2.9493672e+2, -788195.44, -309723.06, -29642.186, -0.10090358, -0.012448757, -307893.7, -258279.56, 0.0, 9.994511, 10.000853 
1.8748316e+3, 3.0493742e+2, -746198.8, -141188.31, -13894.578, 0.063900426, -0.0772304, -140869.38, -140869.38, 0.0, 9.993938, 10.001949 
1.8748057e+3, 3.1493902e+2, -752030.0, -21148.58, 25478.652, -0.027426131, -0.10344689, -20261.467, -20261.467, 0.0, 9.993361, 10.003055 
1.8853156e+3, 1.2498453e+2, -936813.4, -1705097.3, 31975.158, -0.0023351398, -0.12519331, -935484.9, 779654.56, 0.12457609, 10.00791, 9.996262 
1.8852861e+3, 1.34981e+2, -899242.25, -1669115.5, -31058.322, -0.18240982, -0.09659551, -897991.4, 719183.4, 0.08554439, 10.007241, 9.996156 
1.8852608e+3, 1.4497705e+2, -810470.8, -1465917.3, -10956.76, 0.06594146, -0.1562043, -810287.7, 708925.5, 0.04796014, 10.006418, 9.997288 
1.8852326e+3, 1.5497456e+2, -829890.25, -1435772.6, -3550.1658, -0.037076667, -0.13480201, -829869.5, 591367.4, 0.019831557, 10.005459, 9.997265 
1.885205e+3, 1.6497214e+2, -817204.44, -1342962.1, -30181.633, -0.07676014, -0.11566619, -815477.5, 507783.28, 0.004993115, 10.004633, 9.997628 
1.8851778e+3, 1.7496984e+2, -820489.2, -1297888.9, -28600.61, -0.041538358, -0.10902121, -818781.8, 406502.97, 0.00043901597, 10.003934, 9.9976015 
1.8851504e+3, 1.8496777e+2, -787926.2, -1159065.0, -32518.525, -0.026823798, -0.101395704, -785098.5, 342207.34, 0.0000010252129, 10.00317, 9.99825 
1.8851227e+3, 1.9496608e+2, -810422.06, -1121628.3, -33365.305, -0.037905924, -0.09528604, -806885.06, 222437.83, 0.0, 10.002353, 9.998228 
1.885095e+3, 2.0496455e+2, -796791.5, -1016188.75, -36034.168, -0.045737956, -0.08578668, -791024.75, 140313.45, 0.0, 10.001566, 9.998659 
1.8850671e+3, 2.1496327e+2, -810634.9, -974626.56, -34148.684, -0.047919404, -0.07929899, -803808.1, 29543.006, 0.0, 10.000809, 9.998636 
1.8850398e+3, 2.249621e+2, -777415.56, -845493.9, -23084.256, -0.03662073, -0.082356066, -770326.25, -34963.582, 0.0, 10.000095, 9.999193 
1.8850125e+3, 2.3496112e+2, -778278.2, -797088.5, -27437.615, -0.014525691, -0.09948174, -758678.56, -121306.53, 0.0, 9.999426, 9.999175 
1.8849854e+3, 2.4496059e+2, -776521.7, -701830.56, -8707.115, -0.014489147, -0.083209634, -700828.94, -161451.08, 0.0, 9.998577, 9.999565 
1.8849584e+3, 2.5496057e+2, -831409.0, -681209.3, -6103.0845, -0.029538397, -0.04096476, -680961.75, -239582.06, 0.0, 9.997543, 9.999532 
1.8849315e+3, 2.6496035e+2, -778874.44, -497670.88, -22164.738, -0.0054600434, -0.057081915, -495934.56, -152552.92, 0.0, 9.996769, 10.000491 
1.8849047e+3, 2.749601e+2, -757354.1, -437040.63, -28079.809, 0.036387008, -0.13083282, -434597.66, -189215.72, 0.0, 9.996246, 10.000486 
1.8848772e+3, 2.8496104e+2, -763708.8, -344228.78, 9850.66, -0.026192835, -0.09981548, -343997.6, -196624.61, 0.0, 9.995336, 10.00089 
1.8848497e+3, 2.9496306e+2, -847095.7, -335367.22, 11845.484, -0.12529512, 0.012748959, -335093.16, -285737.28, 0.0, 9.994099, 10.000874 
1.8848257e+3, 3.0496332e+2, -827557.9, -198412.42, 36839.56, 0.10021075, -0.08916951, -196262.64, -196262.64, 0.0, 9.993458, 10.001788 
1.8847986e+3, 3.1496513e+2, -776312.2, 13699.867, -7690.2915, -0.058437027, -0.08311947, 13774.72, 13774.72, 0.0, 9.993003, 10.003463 
1.8953235e+3, 1.2501168e+2, -946054.4, -1715983.6, 23777.205, -0.00016971577, -0.12797232, -945320.75, 769552.3, 0.1310016, 10.007924, 9.996172 
1.8952936e+3, 1.350081e+2, -909701.06, -1681187.3, -52405.125, -0.1565363, -0.096598595, -906157.6, 710751.7, 0.090284005, 10.007226, 9.996083 
1.8952669e+3, 1.4500405e+2, -827656.06, -1494822.8, -44364.332, 0.04969178, -0.15478928, -824718.9, 694230.7, 0.050918397, 10.006404, 9.9970875 
1.8952379e+3, 1.5500157e+2, -843971.2, -1466434.1, -37211.19, -0.07113476, -0.10953762, -841754.56, 579219.06, 0.021282109, 10.005468, 9.997051 
1.8952094e+3, 1.649991e+2, -811332.9, -1333945.9, -55082.42, -0.10391972, -0.087905325, -805590.4, 517407.7, 0.0054779514, 10.004645, 9.997685 
1.8951818e+3, 1.7499663e+2, -816169.8, -1289572.4, -53342.484, -0.044872433, -0.10270869, -810233.7, 414789.0, 0.0005094597, 10.003934, 9.99766 
1.8951535e+3, 1.849945e+2, -790420.0, -1164376.0, -62195.18, -0.02727519, -0.103830464, -780347.2, 346696.9, 0.0000013718216, 10.003168, 9.998216 
1.8951249e+3, 1.9499281e+2, -812465.94, -1126960.9, -62423.83, -0.053320758, -0.09396545, -800528.56, 228532.64, 0.0, 10.002356, 9.998192 
1.8950963e+3, 2.0499125e+2, -792361.3, -1008018.8, -63245.324, -0.05613439, -0.08882536, -775182.0, 155894.7, 0.0, 10.001568, 9.998715 
1.8950681e+3, 2.149899e+2, -806865.4, -967149.0, -60824.49, -0.034008257, -0.09485353, -786397.44, 46692.48, 0.0, 10.000808, 9.99869 
1.89504e+3, 2.2498883e+2, -783574.1, -858835.8, -47281.977, -0.021956129, -0.08642722, -760775.94, -25675.088, 0.0, 10.000095, 9.999103 
1.8950118e+3, 2.3498812e+2, -784499.9, -811538.0, -51103.438, -0.023809271, -0.06674376, -745157.56, -108048.92, 0.0, 9.99943, 9.999075 
1.894984e+3, 2.4498753e+2, -768852.25, -687105.8, -46607.0, -0.026880575, -0.056319404, -665988.44, -126873.46, 0.0, 9.99858, 9.999665 
1.8949561e+3, 2.549871e+2, -823482.5, -665830.25, -43578.64, -0.02099558, -0.066356264, -654586.1, -213466.48, 0.0, 9.997545, 9.999638 
1.8949285e+3, 2.649869e+2, -788356.25, -519059.63, -40652.094, 0.009590438, -0.078014776, -513056.75, -169935.39, 0.0, 9.996774, 10.000343 
1.8949008e+3, 2.749872e+2, -766152.75, -459241.06, -47597.258, 0.032507114, -0.08358176, -452028.94, -206910.94, 0.0, 9.99626, 10.000329 
1.8948725e+3, 2.8498814e+2, -735873.56, -287948.03, -36702.35, -0.034311574, -0.063112065, -284960.63, -137851.92, 0.0, 9.99534, 10.001275 
1.8948442e+3, 2.949895e+2, -826564.75, -292930.9, -27839.938, -0.09864572, -0.05355584, -291482.44, -242386.4, 0.0, 9.994097, 10.001167 
1.8948191e+3, 3.049902e+2, -868904.4, -287991.47, 25947.844, 0.1213267, -0.08913414, -286834.75, -286834.75, 0.0, 9.993468, 10.001171 
1.8947917e+3, 3.1499198e+2, -760203.0, 47795.45, -101669.664, -0.041281972, -0.03357256, 60392.063, 60392.063, 0.0, 9.993004, 10.0036955 
1.9053316e+3, 1.2503949e+2, -917324.06, -1698819.3, 47049.164, -0.0040102554, -0.13200125, -914501.7, 800099.5, 0.1377372, 10.008201, 9.996174 
1.9053009e+3, 1.3503619e+2, -916190.25, -1675215.8, -31753.615, -0.13813406, -0.080277756, -914864.1, 701770.4, 0.09526354, 10.007175, 9.996146 
1.9052732e+3, 1.4503202e+2, -840410.2, -1514945.4, -11032.338, 0.035432458, -0.14392374, -840229.8, 678446.1, 0.054036297, 10.006397, 9.996944 
1.9052434e+3, 1.5502936e+2, -807288.7, -1464570.1, -668.4588, -0.074493624, -0.10169201, -807288.0, 613414.4, 0.02282236, 10.005806, 9.996901 
1.9052142e+3, 1.6502681e+2, -759890.8, -1304372.5, -20160.486, -0.100103214, -0.08162532, -759145.3, 563582.1, 0.0060036085, 10.004986, 9.997724 
1.9051857e+3, 1.7502436e+2, -808263.3, -1281418.4, -20704.74, -0.044670105, -0.09845814, -807359.0, 417392.22, 0.00059038604, 10.003972, 9.997697 
1.9051567e+3, 1.8502219e+2, -802843.3, -1175033.9, -26599.383, -0.029618103, -0.1026224, -800951.94, 325820.8, 0.0000017786746, 10.003105, 9.998172 
1.905127e+3, 1.9502042e+2, -812631.8, -1132196.8, -28800.266, -0.055651344, -0.095175974, -810057.0, 218733.9, 0.0, 10.002378, 9.998143 
1.905098e+3, 2.0501882e+2, -779863.75, -996561.5, -30139.23, -0.05477225, -0.09407342, -775749.94, 155056.7, 0.0, 10.001633, 9.998762 
1.9050689e+3, 2.1501744e+2, -794267.3, -955579.06, -29213.47, -0.025745608, -0.106226474, -789139.8, 43679.605, 0.0, 10.000873, 9.998736 
1.90504e+3, 2.2501639e+2, -790221.56, -869334.56, -13906.1045, -0.014781331, -0.09320243, -787848.44, -53018.152, 0.0, 10.000084, 9.999035 
1.9050112e+3, 2.3501578e+2, -813424.9, -833315.25, -16488.852, -0.026284581, -0.057944898, -804114.2, -167275.92, 0.0, 9.999267, 9.999003 
1.9049823e+3, 2.4501517e+2, -782005.1, -681040.6, -17767.086, -0.03133423, -0.04996785, -678005.3, -139160.63, 0.0, 9.998439, 9.999774 
1.9049536e+3, 2.5501463e+2, -809061.2, -646597.75, -15133.464, -0.016937066, -0.08057624, -645200.06, -204350.81, 0.0, 9.997594, 9.999744 
1.9049251e+3, 2.6501453e+2, -792081.0, -522902.0, 2966.7515, 0.014080016, -0.08861454, -522869.3, -180019.17, 0.0, 9.996759, 10.000323 
1.9048968e+3, 2.7501506e+2, -816833.44, -485224.66, 4429.4087, 0.026411723, -0.06760784, -485165.5, -240320.25, 0.0, 9.995922, 10.000312 
1.9048676e+3, 2.8501594e+2, -777341.9, -294387.03, -4572.998, -0.028831892, -0.0591307, -294343.72, -147507.02, 0.0, 9.995001, 10.001393 
1.9048387e+3, 2.9501694e+2, -832866.25, -291779.53, -11888.184, -0.05049685, -0.09572017, -291518.44, -242691.7, 0.0, 9.994039, 10.001202 
1.9048123e+3, 3.0501828e+2, -881399.25, -296685.47, 77447.11, 0.09146761, -0.06377409, -286601.28, -286601.28, 0.0, 9.993393, 10.001148 
1.9047847e+3, 3.1501934e+2, -806861.2, 36681.438, -72959.61, -0.023000974, -0.08288739, 42945.336, 42945.336, 0.0, 9.9926405, 10.003791 
1.9153395e+3, 1.2506786e+2, -921430.0, -1690111.6, 22422.121, -0.02095187, -0.13959248, -920776.5, 793548.0, 0.14468957, 10.008179, 9.996255 
1.9153081e+3, 1.3506514e+2, -907133.3, -1648900.3, -64037.816, -0.13070653, -0.04623255, -901645.44, 714705.44, 0.100422055, 10.007189, 9.996325 
1.9152793e+3, 1.4506091e+2, -846711.75, -1528332.3, -30595.064, 0.018084856, -0.12014073, -845341.2, 673051.5, 0.057283502, 10.006414, 9.996845 
1.9152494e+3, 1.5505783e+2, -816388.5, -1480222.9, -21227.818, -0.051173434, -0.11094905, -815710.4, 604713.5, 0.024441388, 10.005797, 9.9967985 
1.9152194e+3, 1.6505516e+2, -760757.25, -1303768.0, -57127.824, -0.06930107, -0.09808158, -754812.2, 567637.8, 0.0065677394, 10.004975, 9.997734 
1.9151896e+3, 1.750529e+2, -806815.2, -1280030.8, -56791.74, -0.04327111, -0.09553447, -800094.94, 424376.16, 0.00068205834, 10.003977, 9.997705 
1.9151597e+3, 1.8505076e+2, -806283.56, -1184647.0, -52582.55, -0.03662696, -0.095504194, -799111.94, 327380.53, 0.0000023137907, 10.003113, 9.998104 
1.9151296e+3, 1.9504881e+2, -817064.3, -1142635.8, -54719.816, -0.047485627, -0.09848328, -808113.44, 220399.27, 0.0, 10.002381, 9.998072 
1.9150996e+3, 2.0504713e+2, -777456.56, -992511.56, -57456.348, -0.043254912, -0.10192335, -763068.56, 167460.36, 0.0, 10.001634, 9.99879 
1.9150698e+3, 2.1504581e+2, -791937.75, -951715.5, -55948.824, -0.024059862, -0.11370654, -774294.56, 58245.875, 0.0, 10.0008745, 9.998763 
1.9150402e+3, 2.2504473e+2, -793543.56, -876790.2, -43426.49, -0.01604307, -0.1025833, -775014.06, -40462.414, 0.0, 10.000084, 9.998985 
1.9150104e+3, 2.3504399e+2, -816441.8, -840110.25, -45636.785, -0.023828283, -0.073330425, -781129.8, -144568.16, 0.0, 9.999267, 9.998959 
1.9149807e+3, 2.4504343e+2, -774211.06, -665855.0, -48310.473, -0.029009955, -0.065319695, -647444.06, -108876.23, 0.0, 9.998441, 9.999879 
1.914951e+3, 2.5504312e+2, -800995.9, -632004.3, -45275.395, -0.02041263, -0.083320245, -620638.75, -180069.45, 0.0, 9.997601, 9.999843 
1.9149218e+3, 2.6504314e+2, -783303.06, -506492.38, -27683.777, 0.005757032, -0.0875195, -503750.88, -161182.4, 0.0, 9.996765, 10.000434 
1.9148926e+3, 2.750436e+2, -807183.56, -467194.78, -26315.455, 0.016421689, -0.08386968, -465170.0, -220605.69, 0.0, 9.995928, 10.000435 
1.9148628e+3, 2.850443e+2, -787680.25, -317604.72, -39858.105, -0.00948095, -0.09129801, -314249.06, -167691.25, 0.0, 9.995006, 10.001232 
1.9148332e+3, 2.9504526e+2, -846654.5, -325393.72, -42010.555, 0.019417122, -0.118170924, -322029.63, -273480.47, 0.0, 9.994057, 10.000964 
1.9148049e+3, 3.0504757e+2, -835065.7, -204805.69, 57747.254, -0.004418058, -0.0048055197, -199558.31, -199558.31, 0.0, 9.993408, 10.001774 
1.9147772e+3, 3.1504864e+2, -827660.06, -3986.386, -124196.98, -0.03212991, -0.09210117, 14333.107, 14333.107, 0.0, 9.99263, 10.003517 
1.9253476e+3, 1.250974e+2, -944573.3, -1700365.9, 56929.46, -0.024517184, -0.11860539, -940309.2, 773726.7, 0.1517112, 10.008055, 9.996232 
1.9253157e+3, 1.3509448e+2, -857173.75, -1606828.4, -37544.043, -0.11095428, -0.054900263, -855298.1, 760765.06, 0.105668925, 10.007548, 9.996442 
1.9252858e+3, 1.4509024e+2, -804762.94, -1505969.8, -5970.5933, 0.0017537918, -0.13583443, -804712.1, 713392.7, 0.060616646, 10.006742, 9.996844 
1.925255e+3, 1.550873e+2, -842564.3, -1493845.6, 8744.196, -0.046889786, -0.108871184, -842446.9, 577687.75, 0.02612298, 10.005626, 9.996787 
1.9252245e+3, 1.6508466e+2, -787435.5, -1317052.1, -19816.05, -0.05687657, -0.093541875, -786695.06, 535465.6, 0.0071660383, 10.004798, 9.997726 
1.9251937e+3, 1.750823e+2, -769480.75, -1262945.3, -22177.871, -0.042824488, -0.101518735, -768486.0, 455696.66, 0.00078461214, 10.004241, 9.997694 
1.9251628e+3, 1.8508005e+2, -759591.1, -1174542.6, -22463.902, -0.03677956, -0.103133, -758378.56, 367826.34, 0.0000031359323, 10.0034895, 9.997991 
1.9251321e+3, 1.9507803e+2, -798795.6, -1146640.3, -28403.748, -0.034815133, -0.100298256, -796491.5, 231734.67, 0.0, 10.002563, 9.997955 
1.9251013e+3, 2.0507637e+2, -763232.94, -981221.1, -29721.027, -0.0347082, -0.10024895, -759253.4, 170989.11, 0.0, 10.001716, 9.998826 
1.9250706e+3, 2.1507509e+2, -779713.9, -942176.1, -29372.143, -0.037454344, -0.1097824, -774566.7, 57686.523, 0.0, 10.000945, 9.998793 
1.92504e+3, 2.2507398e+2, -798985.5, -880683.44, -20702.555, -0.030521572, -0.10142828, -794038.94, -59774.332, 0.0, 10.000054, 9.998972 
1.9250096e+3, 2.3507312e+2, -849683.3, -857437.8, -20664.111, -0.017433386, -0.08208349, -832535.8, -196259.94, 0.0, 9.999046, 9.998945 
1.9249791e+3, 2.4507256e+2, -800702.94, -664988.44, -15630.73, -0.015419306, -0.07939259, -663211.44, -124929.586, 0.0, 9.998202, 9.999998 
1.9249485e+3, 2.5507239e+2, -805713.8, -621084.75, -12518.799, -0.01512583, -0.09340389, -620239.75, -179958.33, 0.0, 9.997514, 9.999959 
1.9249184e+3, 2.6507258e+2, -797348.94, -511139.4, -2974.3574, -0.0017410793, -0.089753225, -511108.5, -168829.19, 0.0, 9.996663, 10.00045 
1.9248882e+3, 2.7507305e+2, -845439.3, -483415.47, -10116.972, -0.00019422498, -0.08336619, -483132.97, -238857.56, 0.0, 9.995659, 10.000451 
1.9248578e+3, 2.850737e+2, -799849.2, -322365.3, -14891.957, 0.002784003, -0.09728778, -321901.28, -175631.64, 0.0, 9.994921, 10.00124 
1.924828e+3, 2.950747e+2, -795169.75, -299096.6, -1195.2528, 0.08014604, -0.117016256, -299093.72, -250833.72, 0.0, 9.994408, 10.000974 
1.9247973e+3, 3.050772e+2, -805092.7, -132379.4, 92847.88, -0.08927997, -0.01376327, -119799.77, -119799.77, 0.0, 9.993367, 10.00229 
1.92477e+3, 3.1507847e+2, -979883.9, -100187.805, -93041.52, 0.038611095, -0.13537943, -90454.91, -90454.91, 0.0, 9.991688, 10.003309 
1.9353557e+3, 1.2512793e+2, -954851.44, -1713998.1, 41858.28, -0.023156643, -0.07603378, -952550.44, 761186.6, 0.15866938, 10.008076, 9.996117 
1.9353235e+3, 1.3512418e+2, -859581.7, -1600482.3, -52651.875, -0.08389371, -0.10205545, -855858.7, 759913.06, 0.1109224, 10.007536, 9.996497 
1.9352922e+3, 1.4511997e+2, -803854.7, -1496870.9, -43604.79, -0.016840389, -0.18685026, -801121.8, 716690.9, 0.06399557, 10.00673, 9.996918 
1.9352604e+3, 1.5511777e+2, -837649.5, -1483857.4, -29980.316, -0.06255389, -0.09483703, -836261.56, 583574.0, 0.027851343, 10.005635, 9.996852 
1.9352292e+3, 1.6511524e+2, -788394.5, -1322639.4, -39692.348, -0.06482049, -0.06720161, -785461.6, 536398.7, 0.0077940654, 10.004813, 9.997683 
1.9351979e+3, 1.7511241e+2, -772107.4, -1269812.1, -42103.758, -0.045100182, -0.11591456, -768570.7, 455316.03, 0.0008983571, 10.004245, 9.997646 
1.9351664e+3, 1.8510999e+2, -771088.2, -1198744.8, -56377.81, -0.031820614, -0.12586375, -763780.75, 362130.25, 0.0000044945746, 10.003489, 9.997826 
1.9351348e+3, 1.9510803e+2, -809286.2, -1169322.6, -61180.984, -0.01904208, -0.10138263, -799173.75, 228758.44, 0.0, 10.002565, 9.9978 
1.9351031e+3, 2.051064e+2, -761550.56, -978616.4, -57220.14, -0.030811043, -0.08932952, -747390.6, 182557.58, 0.0, 10.001717, 9.998845 
1.9350712e+3, 2.1510519e+2, -778708.56, -940173.3, -56432.22, -0.0677755, -0.093783915, -760940.6, 71017.766, 0.0, 10.000943, 9.998809 
1.9350396e+3, 2.2510406e+2, -797634.4, -878461.56, -57454.25, -0.05927748, -0.089509405, -767803.75, -33833.934, 0.0, 10.000054, 9.998988 
1.9350086e+3, 2.3510309e+2, -847712.5, -854510.5, -56614.62, -0.0089084245, -0.08412365, -794394.94, -158413.22, 0.0, 9.999048, 9.998964 
1.9349775e+3, 2.451025e+2, -791745.4, -647948.94, -40406.38, 0.008101434, -0.09166393, -637372.75, -99385.1, 0.0, 9.998206, 10.000115 
1.9349463e+3, 2.5510237e+2, -795814.56, -602690.44, -37295.168, -0.0021759146, -0.11250238, -595738.44, -155751.81, 0.0, 9.99752, 10.000084 
1.9349149e+3, 2.6510268e+2, -802914.25, -524016.38, -40110.594, -0.0093720015, -0.09727532, -518362.38, -176378.67, 0.0, 9.996666, 10.000361 
1.9348836e+3, 2.7510336e+2, -852532.2, -499172.22, -46249.64, -0.028988976, -0.064627446, -493219.1, -249239.8, 0.0, 9.995661, 10.000343 
1.9348526e+3, 2.8510407e+2, -785494.3, -295872.44, -33297.9, 0.0039241607, -0.074236155, -293618.3, -147645.5, 0.0, 9.99493, 10.001419 
1.934823e+3, 2.9510528e+2, -770976.06, -257610.7, -18291.371, 0.13141055, -0.09090847, -256959.81, -208999.88, 0.0, 9.99444, 10.0012455 
1.9347899e+3, 3.0510706e+2, -772145.2, -66806.984, 33168.207, -0.16324791, -0.10212175, -65250.7, -65250.7, 0.0, 9.993378, 10.002735 
1.934762e+3, 3.1510982e+2, -973842.75, -88293.3, -82976.195, 0.07365596, -0.107174605, -80585.5, -80585.5, 0.0, 9.991684, 10.003396 
1.9453639e+3, 1.2515883e+2, -906697.56, -1692827.0, 63726.223, -0.025574412, -0.081829935, -901565.25, 811869.0, 0.16551581, 10.008555, 9.996054 
1.9453311e+3, 1.3515519e+2, -869846.8, -1596000.0, -26195.908, -0.065989695, -0.104522064, -868903.0, 746565.06, 0.116144426, 10.007455, 9.996572 
1.9452988e+3, 1.4515114e+2, -814913.4, -1497067.0, -16402.068, -0.03431224, -0.17802607, -814519.2, 702987.8, 0.06739668, 10.006651, 9.996954 
1.9452664e+3, 1.5514874e+2, -781650.8, -1451269.0, -7028.4043, -0.05927525, -0.107531056, -781577.06, 637954.0, 0.029616065, 10.006025, 9.996886 
1.9452342e+3, 1.6514611e+2, -737182.5, -1313757.6, -16858.889, -0.05355375, -0.08303864, -736690.0, 584866.9, 0.008448834, 10.005246, 9.997533 
1.9452022e+3, 1.751433e+2, -767474.3, -1283818.9, -27205.842, -0.042924333, -0.116991445, -766044.8, 457539.47, 0.0010236207, 10.00435, 9.997498 
1.9451699e+3, 1.8514085e+2, -766460.8, -1189233.5, -41558.902, -0.036207616, -0.12279422, -762414.25, 363194.4, 0.0000066785697, 10.003491, 9.997889 
1.9451372e+3, 1.951389e+2, -790594.7, -1153420.4, -31584.684, -0.026891332, -0.10377558, -787865.7, 239763.27, 0.0, 10.002667, 9.997859 
1.9451047e+3, 2.0513724e+2, -754808.4, -989950.25, -23518.014, -0.033164598, -0.09215809, -752479.25, 177166.31, 0.0, 10.001828, 9.998713 
1.9450721e+3, 2.1513593e+2, -782633.2, -956678.75, -34856.813, -0.05717342, -0.09261466, -775911.8, 55745.938, 0.0, 10.000981, 9.998676 
1.9450398e+3, 2.2513478e+2, -782093.56, -857550.1, -42374.938, -0.051131878, -0.089140594, -763085.06, -29415.803, 0.0, 10.000106, 9.9991045 
1.9450077e+3, 2.3513386e+2, -816720.1, -826222.3, -34963.43, -0.01595252, -0.089283876, -786186.5, -150506.97, 0.0, 9.9992075, 9.999081 
1.9449757e+3, 2.451333e+2, -784431.6, -646964.6, -15658.01, 0.0040764357, -0.09609539, -645203.7, -107518.805, 0.0, 9.998271, 10.000089 
1.9449437e+3, 2.551332e+2, -829133.3, -621349.6, -23805.545, 0.010905766, -0.11060712, -618657.1, -178972.83, 0.0, 9.997306, 10.000057 
1.9449115e+3, 2.6513356e+2, -826352.94, -528931.6, -28181.115, -0.007459801, -0.09474141, -526285.0, -184603.42, 0.0, 9.99648, 10.000416 
1.9448788e+3, 2.751342e+2, -835206.06, -485583.78, -23985.277, -0.0554266, -0.067933545, -483946.0, -240268.81, 0.0, 9.995761, 10.000387 
1.9448474e+3, 2.8513503e+2, -788582.3, -287144.5, -4707.665, -0.0013741357, -0.07112266, -287100.3, -141430.88, 0.0, 9.994869, 10.001507 
1.9448175e+3, 2.9513663e+2, -848109.4, -271905.84, 2555.7144, 0.16942742, -0.05993466, -271894.5, -224241.61, 0.0, 9.993817, 10.001445 
1.9447827e+3, 3.0513805e+2, -865138.7, -99702.44, 13146.685, -0.17355905, -0.12548953, -99476.7, -99476.7, 0.0, 9.992696, 10.002835 
1.944754e+3, 3.151419e+2, -982357.1, -74919.04, -51458.84, 0.11914733, -0.024712157, -72010.25, -72010.25, 0.0, 9.991553, 10.00355 
1.9553722e+3, 1.2519006e+2, -915930.4, -1698785.1, 24859.115, -0.041299913, -0.13220088, -915141.75, 797986.1, 0.1722956, 10.008553, 9.996008 
1.9553386e+3, 1.3518737e+2, -868188.6, -1586247.3, -58686.7, -0.058154237, -0.06599847, -863423.8, 751729.4, 0.12135307, 10.007466, 9.996643 
1.9553052e+3, 1.4518361e+2, -815801.8, -1498279.5, -35982.16, -0.05244693, -0.11524443, -813909.94, 703279.25, 0.070822015, 10.006669, 9.996938 
1.9552724e+3, 1.5518019e+2, -782688.9, -1453177.9, -28688.512, -0.041358285, -0.14485735, -781463.6, 637758.1, 0.031415205, 10.006032, 9.996871 
1.9552396e+3, 1.6517727e+2, -754465.9, -1350298.8, -49140.56, -0.027103934, -0.13699685, -750440.3, 570810.44, 0.009128949, 10.005248, 9.997283 
1.9552064e+3, 1.7517485e+2, -783905.9, -1319157.1, -58568.027, -0.037905514, -0.10544107, -777572.2, 445703.78, 0.0011603326, 10.004353, 9.997255 
1.955173e+3, 1.8517259e+2, -747944.6, -1151929.9, -70496.51, -0.051820308, -0.095158376, -735996.2, 389302.3, 0.000009904586, 10.003493, 9.998145 
1.9551395e+3, 1.951706e+2, -772988.6, -1117727.8, -60528.56, -0.059092246, -0.10638674, -762670.0, 264647.44, 0.0, 10.002668, 9.998105 
1.9551064e+3, 2.0516877e+2, -775142.25, -1033134.5, -54023.184, -0.042389262, -0.10793693, -764286.7, 165048.92, 0.0, 10.00183, 9.998417 
1.9550736e+3, 2.1516718e+2, -802346.56, -998289.7, -64711.08, -0.007964747, -0.10662812, -782904.5, 48447.688, 0.0, 10.000981, 9.998392 
1.9550402e+3, 2.2516602e+2, -767309.9, -827831.56, -74746.49, -0.008649196, -0.10070354, -716931.0, 16432.842, 0.0, 10.000107, 9.9993105 
1.9550066e+3, 2.3516533e+2, -802480.75, -797191.7, -67143.3, -0.040256556, -0.097108856, -732640.9, -97270.664, 0.0, 9.999207, 9.999282 
1.9549735e+3, 2.451649e+2, -796812.94, -673780.4, -51046.43, -0.02879821, -0.092299774, -655359.25, -117984.766, 0.0, 9.998274, 9.999905 
1.9549412e+3, 2.5516486e+2, -841336.06, -648142.9, -58608.234, 0.021067638, -0.08596615, -631753.5, -192378.08, 0.0, 9.99731, 9.999873 
1.954908e+3, 2.6516506e+2, -812526.06, -501809.47, -54477.27, 0.0019424427, -0.08085546, -492534.9, -151161.11, 0.0, 9.996484, 10.000603 
1.9548744e+3, 2.7516547e+2, -819880.7, -458531.06, -50141.79, -0.08048349, -0.09831414, -451702.3, -208331.78, 0.0, 9.995777, 10.000567 
1.9548422e+3, 2.851665e+2, -787738.0, -288929.6, -45334.125, -0.015058268, -0.09050809, -284842.9, -139482.06, 0.0, 9.994882, 10.00149 
1.9548114e+3, 2.951687e+2, -841737.9, -258577.23, -37603.523, 0.18608052, -0.01782564, -256162.48, -208822.97, 0.0, 9.9938135, 10.00154 
1.954776e+3, 3.0517e+2, -888830.75, -146336.13, -32721.803, -0.11259237, -0.08517279, -144896.86, -144896.86, 0.0, 9.992683, 10.0025215 
1.954745e+3, 3.1517228e+2, -949088.3, -19802.15, -8309.205, 0.073606625, -0.10310056, -19727.86, -19727.86, 0.0, 9.991602, 10.00391 
1.9653808e+3, 1.2522309e+2, -910871.8, -1705146.5, 64003.203, -0.055993088, -0.13819197, -905747.44, 807055.9, 0.17909208, 10.008713, 9.995877 
1.9653465e+3, 1.3522026e+2, -823101.94, -1571919.9, -17647.826, -0.030213185, -0.07443574, -822686.25, 792144.4, 0.12660073, 10.007908, 9.996542 
1.965312e+3, 1.4521663e+2, -765089.7, -1483821.8, 6145.1724, -0.05276036, -0.09801288, -765037.1, 751828.3, 0.07429433, 10.007125, 9.996821 
1.9652785e+3, 1.5521288e+2, -755935.9, -1452548.4, 4684.857, -0.043244563, -0.1508613, -755904.4, 662996.94, 0.033253133, 10.006291, 9.996749 
1.965245e+3, 1.652098e+2, -738139.4, -1348521.8, -18044.65, -0.024495246, -0.14860591, -737606.4, 583325.5, 0.009832803, 10.005394, 9.997224 
1.9652109e+3, 1.7520742e+2, -773442.2, -1319748.5, -14902.0205, -0.030499281, -0.10401106, -773036.0, 449920.84, 0.0013074497, 10.004454, 9.997201 
1.9651766e+3, 1.8520519e+2, -732905.5, -1141030.0, -25215.95, -0.045233656, -0.09063672, -731353.44, 393625.75, 0.00001424797, 10.003586, 9.998173 
1.9651422e+3, 1.9520314e+2, -754814.8, -1105868.4, -32424.725, -0.056395095, -0.10826699, -751845.0, 275152.84, 0.0, 10.002783, 9.998129 
1.9651082e+3, 2.0520127e+2, -769206.8, -1035555.56, -27412.49, -0.039781503, -0.112314545, -766414.75, 162601.69, 0.0, 10.001897, 9.998365 
1.9650745e+3, 2.1519963e+2, -812487.4, -1008299.4, -21451.127, -0.0023336024, -0.110709675, -810164.94, 20869.25, 0.0, 10.000937, 9.9983425 
1.9650404e+3, 2.2519846e+2, -770362.75, -820867.94, -25764.486, -0.0035114554, -0.10682976, -759539.0, -26493.098, 0.0, 10.000053, 9.999382 
1.9650057e+3, 2.351978e+2, -792367.7, -784502.0, -29144.45, -0.038960643, -0.106577605, -759026.25, -123974.96, 0.0, 9.999245, 9.99935 
1.9649719e+3, 2.4519739e+2, -794883.06, -683810.94, -19113.184, -0.033306334, -0.09754609, -680614.0, -143558.45, 0.0, 9.998336, 9.9998045 
1.9649382e+3, 2.5519735e+2, -846291.75, -660703.5, -21376.545, 0.009139164, -0.08055401, -658273.1, -219215.72, 0.0, 9.997324, 9.999777 
1.9649044e+3, 2.6519755e+2, -820570.3, -491447.75, -9258.39, -0.0015186887, -0.077757955, -491187.53, -150131.55, 0.0, 9.996372, 10.000725 
1.9648701e+3, 2.7519795e+2, -856626.3, -462781.72, -10543.959, -0.05686477, -0.10574448, -462499.63, -219447.89, 0.0, 9.995472, 10.000683 
1.964837e+3, 2.8519902e+2, -835901.1, -325378.7, -17759.97, -0.0018253989, -0.0934554, -324761.63, -179719.86, 0.0, 9.994612, 10.0013685 
1.9648047e+3, 2.9520115e+2, -850645.8, -268099.97, -19060.03, 0.14223088, -0.016084978, -267477.0, -220455.02, 0.0, 9.993779, 10.001489 
1.9647692e+3, 3.0520254e+2, -883776.56, -154305.83, -22404.715, -0.06405868, -0.071965985, -153618.34, -153618.34, 0.0, 9.992767, 10.002424 
1.9647364e+3, 3.1520447e+2, -932989.5, 1656.932, 68632.195, 0.048880883, -0.10438972, 6669.79, 6669.79, 0.0, 9.991654, 10.004033 
1.9753893e+3, 1.2525761e+2, -926401.44, -1730185.5, 27281.338, -0.07158098, -0.11224136, -925476.5, 786986.8, 0.18597223, 10.008725, 9.995693 
1.9753547e+3, 1.352538e+2, -842586.5, -1602838.3, -41635.09, 0.010748175, -0.12303315, -840313.2, 774187.7, 0.13193305, 10.007907, 9.996301 
1.9753191e+3, 1.4525022e+2, -783217.1, -1516285.0, -20078.508, -0.042787332, -0.118534476, -782667.56, 733868.4, 0.07783547, 10.007125, 9.996584 
1.9752845e+3, 1.5524665e+2, -772293.06, -1486348.1, -23352.123, -0.06464134, -0.12763597, -771530.2, 647040.44, 0.03513415, 10.006294, 9.996517 
1.9752501e+3, 1.6524355e+2, -730747.4, -1334221.6, -51800.836, -0.04511159, -0.12148276, -726333.25, 594268.2, 0.010557931, 10.0054, 9.997321 
1.9752154e+3, 1.7524093e+2, -765999.44, -1306184.6, -48296.418, -0.022321729, -0.11182067, -761715.4, 460912.63, 0.0014629598, 10.00446, 9.997292 
1.9751804e+3, 1.8523854e+2, -745641.6, -1169176.5, -53864.11, -0.019315636, -0.1073722, -738898.7, 385752.94, 0.000019581636, 10.003591, 9.997979 
1.9751452e+3, 1.9523646e+2, -767149.1, -1132756.6, -60627.383, -0.02222263, -0.10967958, -757357.75, 269313.6, 0.0, 10.002786, 9.997944 
1.9751102e+3, 2.0523466e+2, -756703.94, -1010813.5, -61729.67, -0.02790227, -0.10630423, -742501.94, 186187.25, 0.0, 10.001899, 9.998536 
1.975075e+3, 2.1523319e+2, -800997.25, -984616.9, -55195.676, -0.040815555, -0.10413251, -785682.8, 45021.805, 0.0, 10.000936, 9.998508 
1.97504e+3, 2.2523199e+2, -775364.2, -832102.3, -54717.367, -0.036041662, -0.106775865, -742098.9, -9382.51, 0.0, 10.000054, 9.999306 
1.9750053e+3, 2.3523116e+2, -797163.3, -796032.3, -57821.395, -0.013878947, -0.118193336, -738773.6, -104049.836, 0.0, 9.9992485, 9.9992695 
1.9749703e+3, 2.4523066e+2, -796104.6, -688080.56, -56488.477, -0.011026236, -0.11202062, -663937.3, -127208.234, 0.0, 9.99834, 9.999775 
1.9749352e+3, 2.5523058e+2, -847090.06, -664745.4, -58512.797, -0.027705692, -0.09562379, -647584.25, -208852.7, 0.0, 9.997331, 9.999748 
1.9749005e+3, 2.6523083e+2, -816140.44, -484397.22, -43229.527, -0.01943199, -0.08622918, -478856.5, -138127.27, 0.0, 9.996379, 10.000771 
1.9748664e+3, 2.7523157e+2, -853559.7, -458077.94, -44099.035, 0.01624098, -0.08830774, -453220.25, -210498.6, 0.0, 9.995476, 10.000714 
1.974832e+3, 2.8523248e+2, -852736.1, -361526.66, -48986.58, 0.03598092, -0.07865019, -356689.03, -211975.86, 0.0, 9.994614, 10.001121 
1.9747972e+3, 2.9523376e+2, -862699.2, -299976.56, -49931.445, 0.025771182, -0.061649155, -295580.38, -248878.03, 0.0, 9.993805, 10.00126 
1.9747624e+3, 3.052354e+2, -875924.3, -143813.89, -70461.875, -0.023251094, -0.08581538, -137093.98, -137093.98, 0.0, 9.99279, 10.002486 
1.9747286e+3, 3.152379e+2, -958524.06, -56402.336, 7469.2944, 0.10254376, -0.063848816, -56340.496, -56340.496, 0.0, 9.991671, 10.003629 
1.9853981e+3, 1.2529255e+2, -912748.06, -1724949.4, 31471.7, -0.064008296, -0.11396004, -911530.4, 800589.4, 0.19296084, 10.008933, 9.995627 
1.9853628e+3, 1.3528824e+2, -832246.5, -1617429.9, -23814.865, 0.023142163, -0.15277584, -831524.9, 782637.9, 0.1373569, 10.008135, 9.996079 
1.9853261e+3, 1.4528477e+2, -759865.75, -1504255.4, 4664.651, -0.053303313, -0.12365028, -759836.5, 756360.3, 0.081443645, 10.007325, 9.996575 
1.9852908e+3, 1.5528134e+2, -760491.2, -1479717.5, 15565.93, -0.07008288, -0.118846536, -760154.44, 658075.9, 0.03705453, 10.0063925, 9.996512 
1.9852555e+3, 1.6527818e+2, -719730.2, -1335612.9, -9725.277, -0.045495365, -0.11474829, -719576.7, 600685.0, 0.011300933, 10.005516, 9.997251 
1.98522e+3, 1.7527533e+2, -735668.25, -1298881.3, -18834.844, -0.018838357, -0.120491445, -735039.1, 487251.25, 0.0016245481, 10.004705, 9.997222 
1.9851841e+3, 1.8527284e+2, -716105.7, -1158009.1, -24119.371, -0.013487878, -0.12075723, -714793.2, 409521.72, 0.00002562413, 10.003809, 9.997949 
1.985148e+3, 1.9527076e+2, -760327.5, -1132329.4, -20015.977, -0.016180659, -0.11882532, -759253.56, 267080.9, 0.0, 10.002849, 9.997916 
1.9851121e+3, 2.05269e+2, -750452.06, -1004237.44, -22908.6, -0.02740792, -0.11139302, -748400.75, 179951.28, 0.0, 10.00193, 9.998565 
1.9850759e+3, 2.152676e+2, -782785.44, -972432.5, -28055.297, -0.05113141, -0.104934655, -778722.2, 51644.69, 0.0, 10.001049, 9.998535 
1.9850399e+3, 2.252664e+2, -766699.8, -833361.4, -29355.87, -0.046086375, -0.105707616, -755615.44, -23236.549, 0.0, 10.000139, 9.999255 
1.9850044e+3, 2.3526551e+2, -807645.0, -805641.6, -30774.4, -0.012150812, -0.117080644, -775852.6, -141465.22, 0.0, 9.999201, 9.999225 
1.9849685e+3, 2.4526507e+2, -802621.56, -676201.2, -26440.117, -0.004437963, -0.11013627, -670894.2, -134502.13, 0.0, 9.998236, 9.999904 
1.9849324e+3, 2.5526506e+2, -849823.75, -651981.4, -16313.774, -0.02372253, -0.09497586, -650645.2, -212252.48, 0.0, 9.997254, 9.99987 
1.9848968e+3, 2.652653e+2, -825226.0, -497534.1, 4013.3164, -0.012280429, -0.09360155, -497484.94, -157094.02, 0.0, 9.996357, 10.00069 
1.984862e+3, 2.7526587e+2, -855062.56, -467002.8, -8366.18, 0.03465526, -0.10059828, -466822.53, -224437.4, 0.0, 9.995506, 10.000636 
1.9848265e+3, 2.8526688e+2, -860682.0, -360015.7, -7633.033, 0.040949874, -0.079471275, -359899.34, -215523.5, 0.0, 9.99454, 10.0011635 
1.9847906e+3, 2.9526824e+2, -913784.56, -325000.72, 12516.528, -0.005184192, -0.057264026, -324734.75, -278370.75, 0.0, 9.993462, 10.001251 
1.9847552e+3, 3.0526948e+2, -908942.06, -169209.13, -7719.0576, 0.015419216, -0.11155048, -169128.58, -169128.58, 0.0, 9.992606, 10.002399 
1.9847198e+3, 3.1527182e+2, -920633.44, -44772.508, 29433.152, 0.05633096, -0.103673756, -43784.523, -43784.523, 0.0, 9.9919615, 10.003566 
1.995407e+3, 1.2532791e+2, -924770.6, -1731625.0, -6317.463, -0.05009974, -0.14070207, -924721.2, 787051.3, 0.20004387, 10.008903, 9.995596 
1.9953707e+3, 1.3532351e+2, -850539.0, -1652433.4, -46195.79, 0.007920757, -0.16400383, -847886.5, 765930.5, 0.14284898, 10.008143, 9.995838 
1.9953331e+3, 1.4532025e+2, -747471.9, -1477464.5, -25325.45, -0.082224615, -0.11334595, -746594.3, 769254.8, 0.0851001, 10.007345, 9.996769 
1.9952972e+3, 1.5531686e+2, -748177.8, -1451367.0, -17029.914, -0.062706925, -0.12312144, -747765.6, 670115.56, 0.0390055, 10.006394, 9.996708 
1.9952612e+3, 1.653136e+2, -737082.4, -1371475.5, -38654.16, -0.030537998, -0.12603058, -734735.8, 585177.6, 0.012058903, 10.005515, 9.997007 
1.9952245e+3, 1.7531055e+2, -750961.2, -1332500.6, -47176.055, -0.021634666, -0.129423, -747159.0, 474785.84, 0.0017907524, 10.004711, 9.99699 
1.9951876e+3, 1.8530796e+2, -707231.5, -1141434.1, -58597.47, -0.028518576, -0.1311055, -699462.5, 424507.44, 0.00003204848, 10.003815, 9.998062 
1.9951507e+3, 1.9530596e+2, -752938.3, -1117573.1, -53935.58, -0.037782148, -0.13491812, -745127.6, 280860.75, 0.0, 10.002848, 9.998019 
1.9951138e+3, 2.0530419e+2, -759154.6, -1023302.5, -54632.35, -0.03843595, -0.12657204, -748301.2, 179704.78, 0.0, 10.001931, 9.998435 
1.995077e+3, 2.1530272e+2, -791185.5, -991029.94, -59134.586, -0.036077928, -0.11261157, -774998.5, 55023.402, 0.0, 10.001051, 9.998408 
1.9950402e+3, 2.2530155e+2, -767760.8, -836965.7, -63387.133, -0.035936944, -0.103606224, -730146.5, 1887.968, 0.0, 10.000142, 9.999231 
1.9950032e+3, 2.3530075e+2, -808694.94, -808692.9, -64501.797, -0.03521802, -0.1030222, -744192.1, -110149.14, 0.0, 9.999201, 9.999206 
1.9949667e+3, 2.4530047e+2, -782911.44, -636622.1, -62712.254, -0.014930387, -0.091688156, -613418.6, -77373.195, 0.0, 9.998239, 10.000175 
1.99493e+3, 2.5530073e+2, -830006.3, -613455.94, -51604.734, 0.019957704, -0.079394646, -601787.1, -163745.19, 0.0, 9.997263, 10.000133 
1.9948936e+3, 2.6530075e+2, -840357.06, -531438.8, -27848.563, 0.01952443, -0.09950928, -528948.4, -188906.36, 0.0, 9.996364, 10.000456 
1.9948569e+3, 2.7530068e+2, -868074.0, -499279.2, -40526.55, -0.00806738, -0.1441957, -494878.28, -252834.77, 0.0, 9.995524, 10.000407 
1.9948207e+3, 2.8530204e+2, -834685.3, -309148.94, -49205.086, 0.008447277, -0.09813953, -304581.66, -160550.47, 0.0, 9.994552, 10.001509 
1.9947845e+3, 2.9530445e+2, -897851.3, -293283.38, -28343.492, 0.05384083, -0.0042396453, -291957.5, -245949.55, 0.0, 9.993464, 10.001469 
1.9947481e+3, 3.0530474e+2, -924561.0, -204562.55, -31287.697, 0.048252292, -0.1447308, -203205.48, -203205.48, 0.0, 9.992615, 10.002154 
1.9947118e+3, 3.1530747e+2, -904598.2, -15643.982, -57681.367, 0.053465858, -0.0877305, -11916.852, -11916.852, 0.0, 9.991982, 10.003755 
2.0054159e+3, 1.2536427e+2, -947145.5, -1712749.0, 7387.52, -0.04542922, -0.14497341, -947074.2, 764342.44, 0.20722744, 10.008648, 9.995848 
2.0053789e+3, 1.3535997e+2, -830146.8, -1636523.0, 7.877857, 0.006509223, -0.15975294, -830146.8, 783312.5, 0.1484083, 10.008347, 9.995845 
2.0053406e+3, 1.4535661e+2, -715457.94, -1467842.8, 5003.6694, -0.083326004, -0.11323748, -715424.7, 800067.3, 0.08880203, 10.007651, 9.996691 
2.0053038e+3, 1.5535301e+2, -737006.6, -1453059.8, -7282.2886, -0.043910474, -0.13714981, -736932.56, 680594.0, 0.040985, 10.006521, 9.996634 
2.0052667e+3, 1.6534974e+2, -723481.4, -1361556.8, -17665.55, -0.016659636, -0.13895442, -722992.7, 596566.2, 0.012830994, 10.005602, 9.997033 
2.0052291e+3, 1.7534682e+2, -723827.7, -1316701.1, -8714.866, -0.03445731, -0.12952769, -723699.6, 497888.97, 0.0019613083, 10.00489, 9.99701 
2.0051913e+3, 1.8534419e+2, -690733.4, -1143567.0, -29445.674, -0.04528031, -0.13231528, -688826.7, 434787.63, 0.000038594175, 10.003976, 9.997967 
2.0051534e+3, 1.9534194e+2, -755832.2, -1128524.9, -40219.207, -0.038853932, -0.14796028, -751541.3, 274093.88, 0.0, 10.002873, 9.997929 
2.0051157e+3, 2.0534013e+2, -759361.44, -1019385.94, -34665.26, -0.03109798, -0.14030665, -754819.4, 172833.95, 0.0, 10.001916, 9.998468 
2.0050782e+3, 2.1533878e+2, -783822.25, -983829.0, -28461.027, -0.026140384, -0.118452534, -779851.06, 49817.01, 0.0, 10.001088, 9.998439 
2.0050403e+3, 2.253377e+2, -771490.6, -833010.2, -30843.807, -0.029872805, -0.10468082, -758690.06, -27010.148, 0.0, 10.000095, 9.999279 
2.0050023e+3, 2.3533694e+2, -840207.56, -818389.6, -27247.871, -0.03948753, -0.10150997, -799948.06, -166260.14, 0.0, 9.998963, 9.999252 
2.0049646e+3, 2.4533667e+2, -806782.4, -641583.0, -24327.03, -0.018861486, -0.09458971, -638075.1, -102384.84, 0.0, 9.998048, 10.000233 
2.0049274e+3, 2.553369e+2, -819752.5, -601279.56, -30552.482, 0.028117705, -0.09105129, -597087.4, -159400.7, 0.0, 9.997306, 10.000194 
2.0048897e+3, 2.6533696e+2, -842206.3, -529982.3, -9067.645, 0.023236096, -0.10742022, -529719.2, -190033.1, 0.0, 9.996346, 10.000471 
2.004852e+3, 2.7533707e+2, -913034.3, -517881.97, -2083.4639, -0.025108282, -0.14128076, -517870.97, -276184.16, 0.0, 9.995207, 10.000431 
2.0048149e+3, 2.853384e+2, -855921.44, -299032.75, -5233.175, 0.0026197291, -0.104257196, -298983.6, -155309.23, 0.0, 9.994322, 10.001687 
2.0047784e+3, 2.9534084e+2, -875395.9, -270903.25, -270.8043, 0.09243024, -0.023665681, -270903.13, -225252.72, 0.0, 9.993572, 10.001569 
2.0047405e+3, 3.0534133e+2, -938325.8, -207369.13, 7384.6167, 0.026456604, -0.14834236, -207294.53, -207294.53, 0.0, 9.992505, 10.002188 
2.0047033e+3, 3.153442e+2, -989909.0, -25554.242, -25925.77, 0.051948026, -0.08640535, -24857.756, -24857.756, 0.0, 9.991273, 10.0040245 
2.0154244e+3, 1.254016e+2, -920806.1, -1651862.6, -14447.018, -0.054143187, -0.12226828, -920520.75, 790531.75, 0.21464522, 10.008695, 9.996354 
2.0153873e+3, 1.3539748e+2, -821795.9, -1603996.9, -7266.82, 0.013349169, -0.14453459, -821728.3, 791362.56, 0.15412103, 10.008342, 9.99608 
2.0153484e+3, 1.4539377e+2, -742291.56, -1516418.8, -30931.285, -0.06440007, -0.12530315, -741057.6, 774069.0, 0.09259341, 10.007644, 9.996332 
2.0153105e+3, 1.5538973e+2, -757866.3, -1500937.3, -45167.805, -0.017613899, -0.15847532, -755130.8, 662036.06, 0.04300929, 10.006542, 9.996298 
2.0152724e+3, 1.653865e+2, -703665.6, -1323939.6, -42482.688, -0.0063853026, -0.15058388, -700769.5, 618429.0, 0.0136215305, 10.00562, 9.997284 
2.0152338e+3, 1.7538403e+2, -708592.25, -1284211.3, -34007.324, -0.05735749, -0.121578716, -706590.06, 514632.6, 0.002137472, 10.004885, 9.997238 
2.015195e+3, 1.8538137e+2, -712383.6, -1187266.9, -69073.36, -0.06452166, -0.12531157, -702540.7, 420708.38, 0.000045179175, 10.003967, 9.997673 
2.0151564e+3, 1.9537866e+2, -774588.6, -1169089.9, -78884.49, -0.02222546, -0.15718421, -759399.7, 265876.22, 0.0, 10.002878, 9.99765 
2.0151179e+3, 2.0537677e+2, -745846.1, -993563.56, -63607.777, -0.00811773, -0.1526691, -730467.9, 196827.05, 0.0, 10.001923, 9.998644 
2.0150791e+3, 2.1537568e+2, -771984.2, -959368.56, -57639.563, -0.022708967, -0.123061635, -755673.9, 73632.44, 0.0, 10.001085, 9.99861 
2.0150402e+3, 2.2537471e+2, -764298.44, -818731.7, -71991.04, -0.029062461, -0.10889737, -714551.06, 16765.033, 0.0, 10.000094, 9.999379 
2.0150013e+3, 2.35374e+2, -832896.56, -804975.56, -67764.805, -0.026977835, -0.11252171, -749748.2, -116424.766, 0.0, 9.998967, 9.999344 
2.0149626e+3, 2.4537356e+2, -817363.75, -665941.2, -51398.37, -0.017557044, -0.118856296, -650143.0, -114815.25, 0.0, 9.9980545, 10.000065 
2.0149243e+3, 2.5537345e+2, -829584.1, -624841.06, -58397.82, -0.0029936314, -0.13119468, -609355.75, -172027.47, 0.0, 9.997315, 10.00003 
2.0148858e+3, 2.6537392e+2, -822139.25, -490761.72, -52440.918, -0.004248819, -0.11698054, -482660.9, -143336.7, 0.0, 9.996354, 10.000738 
2.0148472e+3, 2.7537486e+2, -891785.0, -476807.53, -42906.777, -0.017098151, -0.09066805, -472417.6, -231101.8, 0.0, 9.995216, 10.00071 
2.0148094e+3, 2.853759e+2, -856349.56, -301531.4, -33128.22, 0.025229037, -0.09828043, -299560.34, -156254.03, 0.0, 9.994326, 10.00167 
2.014772e+3, 2.9537725e+2, -875856.2, -276319.0, -31679.828, 0.10695247, -0.12198117, -274649.7, -229356.47, 0.0, 9.9935875, 10.001526 
2.0147319e+3, 3.0537918e+2, -910046.1, -151939.73, -39159.156, -0.06643688, -0.120900474, -149922.38, -149922.38, 0.0, 9.992516, 10.002564 
2.0146947e+3, 3.1538275e+2, -965831.44, 24685.582, -40703.953, 0.07604906, -0.027893927, 26355.441, 26355.441, 0.0, 9.991273, 10.004368 
2.0254336e+3, 1.2544002e+2, -827132.3, -1602448.8, 24103.615, -0.04368941, -0.12191003, -826383.7, 884292.25, 0.22258201, 10.009588, 9.996363 
2.0253955e+3, 1.3543579e+2, -814841.44, -1610268.8, 22566.527, 0.01222493, -0.13877048, -814201.7, 798513.2, 0.16016376, 10.008509, 9.995948 
2.0253561e+3, 1.4543171e+2, -737558.56, -1523203.4, -3301.048, -0.059233528, -0.14478359, -737544.7, 777209.5, 0.09656116, 10.007755, 9.99623 
2.0253173e+3, 1.554277e+2, -675289.1, -1470225.3, -2221.713, -0.017690737, -0.16432159, -675282.94, 741511.56, 0.045112252, 10.0072, 9.996189 
2.0252782e+3, 1.6542448e+2, -629039.75, -1283043.9, -9688.827, -0.007719156, -0.15134867, -628896.2, 689929.94, 0.014441403, 10.006128, 9.99732 
2.0252384e+3, 1.75422e+2, -743440.0, -1296321.9, -16071.357, -0.053658415, -0.12641685, -742973.25, 477877.13, 0.0023222629, 10.004629, 9.997275 
2.0251988e+3, 1.8541938e+2, -758817.56, -1205581.3, -34014.91, -0.05794529, -0.12719612, -756242.6, 366633.6, 0.000051956766, 10.003634, 9.997706 
2.0251594e+3, 1.954168e+2, -744295.8, -1151196.3, -22166.598, -0.016458372, -0.1501345, -743091.8, 281810.3, 0.0, 10.003074, 9.997678 
2.0251198e+3, 2.054149e+2, -715598.9, -974419.44, -10676.901, -0.0037818544, -0.1492552, -715159.2, 211762.0, 0.0, 10.002112, 9.998682 
2.02508e+3, 2.1541367e+2, -809414.8, -972209.94, -15586.547, -0.019587254, -0.133574, -807935.94, 20997.432, 0.0, 10.00081, 9.998652 
2.0250402e+3, 2.2541274e+2, -793172.2, -827867.06, -28906.494, -0.0268719, -0.12241243, -776807.3, -45864.563, 0.0, 9.999879, 9.999419 
2.0250003e+3, 2.354121e+2, -788210.44, -779156.44, -29620.926, -0.024746343, -0.120969325, -753718.56, -120769.67, 0.0, 9.999259, 9.999379 
2.0249607e+3, 2.4541162e+2, -789323.94, -660962.5, -16151.583, -0.016238991, -0.12800843, -658961.4, -124007.6, 0.0, 9.998288, 9.999984 
2.0249213e+3, 2.554114e+2, -877601.7, -656052.6, -17053.795, -0.0044384534, -0.14318816, -654747.6, -217791.45, 0.0, 9.997024, 9.999954 
2.024882e+3, 2.654119e+2, -855672.3, -488762.16, -9361.178, -0.008292776, -0.1251764, -488523.47, -149572.13, 0.0, 9.996047, 10.000899 
2.0248424e+3, 2.7541307e+2, -869119.7, -447915.66, -8603.197, -0.01933557, -0.0938973, -447740.03, -206799.7, 0.0, 9.995297, 10.000867 
2.0248038e+3, 2.8541413e+2, -855435.25, -302801.6, -3690.2314, 0.026560608, -0.106160305, -302776.94, -159846.27, 0.0, 9.994343, 10.00165 
2.0247653e+3, 2.954155e+2, -928109.94, -295405.2, -4243.1265, 0.10793861, -0.12803826, -295376.75, -250458.66, 0.0, 9.993208, 10.001575 
2.024724e+3, 3.0541763e+2, -931814.4, -126282.125, -10228.889, -0.09166584, -0.12678961, -126152.26, -126152.26, 0.0, 9.992211, 10.002888 
2.0246863e+3, 3.1542137e+2, -966224.06, 9140.914, 14946.126, 0.11244132, -0.039902344, 9369.889, 9369.889, 0.0, 9.99134, 10.004228 
2.0354432e+3, 1.2547946e+2, -860608.1, -1655050.6, -15491.834, -0.025989925, -0.13673498, -860306.1, 849981.75, 0.23133814, 10.009599, 9.995899 
2.0354038e+3, 1.354749e+2, -844073.75, -1676749.4, -6733.3354, -0.0008844518, -0.1360006, -844019.3, 768312.2, 0.16672306, 10.008548, 9.995472 
2.0353636e+3, 1.4547043e+2, -730089.4, -1506406.3, -19156.654, -0.070158154, -0.16418456, -729616.94, 784757.94, 0.100800134, 10.007785, 9.996339 
2.0353243e+3, 1.5546675e+2, -673274.4, -1459018.9, -21384.941, -0.042693503, -0.15842906, -672692.8, 743718.3, 0.04733534, 10.007183, 9.996276 
2.035284e+3, 1.654635e+2, -643770.56, -1308648.5, -62918.28, -0.02063632, -0.1456732, -637868.94, 680574.5, 0.015306467, 10.006108, 9.997153 
2.0352432e+3, 1.7546064e+2, -751840.94, -1316826.8, -67880.72, -0.027007828, -0.14261208, -743799.75, 476672.56, 0.0025204436, 10.00464, 9.997131 
2.0352027e+3, 1.8545817e+2, -734437.8, -1158878.9, -52816.39, -0.030092217, -0.13602237, -727964.2, 394532.22, 0.00005943953, 10.003648, 9.998021 
2.0351623e+3, 1.9545622e+2, -723830.6, -1108695.6, -41995.56, -0.022602662, -0.127388, -719301.5, 305213.72, 0.0, 10.003071, 9.9979725 
2.0351218e+3, 2.0545438e+2, -723300.06, -990372.7, -58000.27, -0.017798332, -0.1307839, -711248.0, 215285.52, 0.0, 10.00211, 9.998576 
2.0350808e+3, 2.1545272e+2, -815744.56, -986954.56, -61194.22, -0.018406713, -0.1490591, -796121.5, 32428.727, 0.0, 10.0008135, 9.998551 
2.0350401e+3, 2.2545163e+2, -793504.44, -831011.9, -50712.246, -0.024912743, -0.14463411, -758189.4, -27628.52, 0.0, 9.999886, 9.999395 
2.0349994e+3, 2.3545115e+2, -789024.75, -782539.1, -52142.918, -0.034298968, -0.12758614, -733538.3, -100972.875, 0.0, 9.999263, 9.999356 
2.034959e+3, 2.4545078e+2, -789208.56, -662551.1, -63314.48, -0.015534773, -0.12158271, -636329.56, -101760.24, 0.0, 9.998292, 9.999973 
2.0349185e+3, 2.5545064e+2, -876592.2, -656081.56, -62910.934, 0.023077074, -0.12635936, -639395.9, -202824.63, 0.0, 9.997029, 9.999953 
2.034878e+3, 2.6545092e+2, -851412.1, -482124.97, -37227.36, 0.010613037, -0.13378471, -478409.5, -139841.0, 0.0, 9.996053, 10.000943 
2.0348375e+3, 2.7545157e+2, -865398.6, -444424.16, -36738.65, -0.037021186, -0.15696332, -441242.03, -200680.23, 0.0, 9.995312, 10.000886 
2.0347977e+3, 2.8545302e+2, -856314.6, -307146.53, -47226.53, 0.0031036595, -0.12672222, -303114.84, -160566.66, 0.0, 9.99435, 10.001618 
2.0347583e+3, 2.954556e+2, -917674.5, -276154.16, -47272.637, 0.09654091, -0.027749741, -272689.4, -228164.95, 0.0, 9.993215, 10.001706 
2.0347166e+3, 3.0545646e+2, -913280.25, -88376.16, -43504.39, -0.047225963, -0.18200344, -86088.14, -86088.14, 0.0, 9.992211, 10.003149 
2.0346771e+3, 3.1545994e+2, -993173.25, -55720.81, 39393.223, 0.059627026, -0.13153799, -54068.36, -54068.36, 0.0, 9.991371, 10.003772 
2.045453e+3, 1.2551989e+2, -822013.5, -1670831.8, 13242.197, -0.031410057, -0.16583581, -821807.0, 888082.7, 0.24105182, 10.010267, 9.99544 
2.0454128e+3, 1.3551523e+2, -741516.75, -1654502.6, 37707.21, -0.003687909, -0.13241263, -739962.0, 871973.44, 0.17389539, 10.009634, 9.995102 
2.0453718e+3, 1.4551044e+2, -653057.3, -1465639.3, 16968.055, -0.054388408, -0.17620127, -652703.1, 861279.44, 0.10536977, 10.008402, 9.996352 
2.045331e+3, 1.555069e+2, -748747.3, -1495157.0, 9543.561, -0.046374083, -0.15657216, -748625.25, 667392.0, 0.049711537, 10.006648, 9.9962845 
2.0452897e+3, 1.6550367e+2, -716472.7, -1347576.1, -18617.63, -0.02696601, -0.14089188, -715923.94, 602125.75, 0.016232196, 10.005624, 9.997117 
2.0452482e+3, 1.7550066e+2, -671826.56, -1281408.5, -15557.126, -0.017906146, -0.14572482, -671429.8, 548650.4, 0.0027375778, 10.005208, 9.9971 
2.0452066e+3, 1.8549825e+2, -640107.4, -1098384.0, -6562.974, -0.021792619, -0.14069034, -640013.44, 482090.4, 0.000068615984, 10.004233, 9.998154 
2.0451652e+3, 1.9549645e+2, -754555.75, -1108241.3, -8922.746, -0.03025751, -0.12728325, -754330.75, 269789.6, 0.0, 10.002798, 9.998105 
2.0451236e+3, 2.0549467e+2, -763696.9, -1010571.6, -23672.49, -0.028004479, -0.12939157, -761447.5, 164690.4, 0.0, 10.00184, 9.998566 
2.0450819e+3, 2.1549296e+2, -749689.56, -956251.25, -20969.457, -0.019604446, -0.15007927, -747582.3, 80572.9, 0.0, 10.001275, 9.998539 
2.04504e+3, 2.2549182e+2, -736878.7, -803344.8, -8691.939, -0.019153439, -0.15098926, -735760.8, -5594.4805, 0.0, 10.000277, 9.999396 
2.0449986e+3, 2.3549126e+2, -838724.4, -805767.4, -9024.657, -0.02258975, -0.14057116, -803457.94, -171286.61, 0.0, 9.998921, 9.999359 
2.044957e+3, 2.4549091e+2, -841103.44, -687471.75, -17801.656, -0.0069118603, -0.13105267, -685436.0, -151261.06, 0.0, 9.997938, 9.999971 
2.0449157e+3, 2.5549087e+2, -842862.6, -638969.1, -17050.299, 0.021800952, -0.12553456, -637553.2, -201376.98, 0.0, 9.997259, 9.999958 
2.0448741e+3, 2.654911e+2, -816113.6, -460329.16, 7619.4263, 0.010744604, -0.14215182, -460166.06, -121991.82, 0.0, 9.996279, 10.000983 
2.0448327e+3, 2.7549157e+2, -904656.44, -458854.72, 6816.4644, -0.024649823, -0.1854588, -458750.53, -218581.53, 0.0, 9.995028, 10.000922 
2.0447919e+3, 2.8549325e+2, -906492.94, -326977.84, 667.1207, 0.0039072605, -0.13303632, -326977.1, -184824.2, 0.0, 9.993991, 10.001654 
2.044751e+3, 2.954963e+2, -923054.8, -268652.5, 3880.3638, 0.061826356, 0.011462907, -268629.5, -224505.1, 0.0, 9.993137, 10.001793 
2.044709e+3, 3.0549607e+2, -930039.1, -116230.3, -13575.024, -0.01400769, -0.24762918, -116003.914, -116003.914, 0.0, 9.9921875, 10.002966 
2.0446682e+3, 3.155004e+2, -1013876.2, -45346.293, 59652.926, 0.053299803, -0.091562, -41686.03, -41686.03, 0.0, 9.991144, 10.00395 
2.0554629e+3, 1.255613e+2, -857539.75, -1724714.1, -8096.3, -0.06519727, -0.192449, -857464.2, 852017.0, 0.2516318, 10.01027, 9.994987 
2.0554224e+3, 1.3555661e+2, -767563.6, -1695608.1, 18902.268, 0.00082067656, -0.13416365, -767178.75, 844350.2, 0.18164662, 10.009615, 9.994829 
2.0553806e+3, 1.4555155e+2, -664296.56, -1477673.9, -39521.91, -0.017124586, -0.1883477, -662380.7, 851198.94, 0.11027418, 10.0083885, 9.99627 
2.0553376e+3, 1.5554804e+2, -752611.4, -1504880.1, -47779.4, -0.034316625, -0.1562616, -749588.9, 666025.3, 0.05225656, 10.006666, 9.996212 
2.0552951e+3, 1.6554488e+2, -709978.3, -1337734.5, -31251.56, -0.03122506, -0.13274947, -708426.3, 609219.4, 0.017230444, 10.005643, 9.997178 
2.0552532e+3, 1.7554194e+2, -668860.6, -1274814.6, -30404.768, -0.026837658, -0.13662824, -667338.8, 552336.44, 0.0029790853, 10.005204, 9.9971485 
2.0552106e+3, 1.8553941e+2, -643783.4, -1104915.6, -58323.707, -0.032253943, -0.14291936, -636521.0, 485178.9, 0.00008078298, 10.004226, 9.998115 
2.0551677e+3, 1.955374e+2, -756185.56, -1113156.0, -58753.53, -0.040225387, -0.14881141, -746764.06, 276954.7, 0.0, 10.002801, 9.998072 
2.0551252e+3, 2.055357e+2, -757766.8, -1000685.3, -42958.746, -0.035767194, -0.14376205, -750393.6, 175341.73, 0.0, 10.001846, 9.9986315 
2.0550828e+3, 2.1553433e+2, -745450.75, -947708.0, -41216.363, -0.024725862, -0.1368755, -737374.1, 90375.24, 0.0, 10.001273, 9.9986 
2.0550403e+3, 2.2553317e+2, -736437.7, -802999.75, -58106.125, -0.010407052, -0.14178064, -702756.44, 27003.932, 0.0, 10.000276, 9.999401 
2.0549978e+3, 2.3553233e+2, -837873.8, -805024.44, -57239.895, 0.008586267, -0.15960152, -761899.3, -130131.69, 0.0, 9.998923, 9.999366 
2.054955e+3, 2.4553193e+2, -840107.06, -687436.5, -42801.754, 0.008023691, -0.15630665, -676255.7, -142484.0, 0.0, 9.997944, 9.99997 
2.0549123e+3, 2.55532e+2, -841145.75, -638641.4, -42503.1, -0.011456412, -0.14213535, -630082.25, -194310.13, 0.0, 9.99727, 9.999957 
2.0548701e+3, 2.6553228e+2, -813548.4, -457264.06, -39715.23, -0.00933566, -0.14904094, -452890.66, -115121.375, 0.0, 9.9962845, 10.001003 
2.0548281e+3, 2.7553296e+2, -900847.75, -452715.56, -39803.523, 0.017823359, -0.17598693, -449207.66, -209445.17, 0.0, 9.995031, 10.000965 
2.054786e+3, 2.855347e+2, -898735.7, -312908.13, -31267.832, 0.02794076, -0.12667273, -311243.97, -169498.31, 0.0, 9.993996, 10.00175 
2.0547435e+3, 2.955374e+2, -918371.3, -265182.4, -27266.742, -0.0022595148, -0.024786094, -264046.16, -220326.34, 0.0, 9.99316, 10.001808 
2.0547014e+3, 3.0553648e+2, -980738.56, -222053.45, -56148.164, 0.009356985, -0.3175126, -217920.6, -217920.6, 0.0, 9.992189, 10.002239 
2.0546594e+3, 3.155411e+2, -953201.5, 80295.48, -12237.238, 0.06949789, -0.06739247, 80440.35, 80440.35, 0.0, 9.991137, 10.004821 
2.0654732e+3, 1.2560336e+2, -840989.7, -1707951.6, -7090.423, -0.06937971, -0.20777266, -840931.7, 868136.3, 0.26281923, 10.010555, 9.994964 
2.0654316e+3, 1.3559893e+2, -813999.5, -1700152.9, 42968.586, -0.014125063, -0.14105102, -811920.9, 799192.5, 0.18984152, 10.009214, 9.994992 
2.0653887e+3, 1.4559385e+2, -701243.5, -1496918.3, -7069.9287, -0.0074554677, -0.19901815, -701180.7, 811983.5, 0.11546865, 10.008162, 9.99623 
2.0653448e+3, 1.555904e+2, -660338.5, -1461110.6, -11166.934, -0.024948128, -0.15781023, -660182.8, 755016.0, 0.054967135, 10.007371, 9.996171 
2.0653012e+3, 1.6558722e+2, -617356.6, -1287667.6, 18773.986, -0.028027795, -0.1341464, -616831.2, 700399.06, 0.018306524, 10.006276, 9.997219 
2.065258e+3, 1.7558427e+2, -706050.2, -1287881.4, 19022.818, -0.030462502, -0.14341247, -705428.9, 513830.6, 0.0032483197, 10.0049305, 9.9971895 
2.0652147e+3, 1.855817e+2, -694581.2, -1135918.1, -16351.337, -0.033874806, -0.15321644, -693976.2, 427308.44, 0.00009706255, 10.003909, 9.998053 
2.0651707e+3, 1.9557957e+2, -710748.06, -1097586.5, -19464.88, -0.034612946, -0.161403, -709771.1, 313533.63, 0.0, 10.003142, 9.998013 
2.0651272e+3, 2.0557788e+2, -711718.0, -972561.75, 2394.6401, -0.029725254, -0.15414438, -711696.06, 213625.31, 0.0, 10.00214, 9.998682 
2.065084e+3, 2.1557662e+2, -789083.5, -962414.7, 1222.2734, -0.021925095, -0.14214636, -789074.9, 38259.367, 0.0, 10.00095, 9.998652 
2.0650405e+3, 2.2557548e+2, -775629.2, -817903.3, -20627.291, -0.007031355, -0.14989273, -767232.2, -37887.17, 0.0, 9.999993, 9.999433 
2.0649968e+3, 2.3557457e+2, -791698.6, -778990.2, -18258.775, 0.015395956, -0.17575812, -766011.56, -134658.86, 0.0, 9.999228, 9.999396 
2.0649531e+3, 2.4557418e+2, -791355.1, -656247.1, 5681.951, 0.010389791, -0.1755414, -656008.56, -122652.14, 0.0, 9.998248, 10.000036 
2.0649095e+3, 2.555743e+2, -862667.9, -641535.4, 9822.774, -0.01961654, -0.16096927, -641099.9, -205743.88, 0.0, 9.997094, 10.00002 
2.0648663e+3, 2.6557463e+2, -846625.94, -474691.8, 7271.4355, -0.014615822, -0.16350925, -474549.7, -137197.06, 0.0, 9.996067, 10.000987 
2.0648232e+3, 2.7557537e+2, -884353.7, -445291.06, 3686.9492, 0.028724452, -0.18148614, -445260.1, -205914.56, 0.0, 9.99515, 10.000958 
2.06478e+3, 2.8557706e+2, -861256.56, -291054.7, 14597.288, 0.03465906, -0.14019924, -290681.25, -149351.78, 0.0, 9.994239, 10.001781 
2.0647366e+3, 2.9557952e+2, -902666.5, -258220.34, 10713.639, -0.018777609, -0.06375136, -258042.28, -214736.58, 0.0, 9.993276, 10.001798 
2.0646934e+3, 3.0557892e+2, -997165.75, -252721.27, -3552.5056, 0.010179424, -0.30884254, -252704.31, -252704.31, 0.0, 9.992179, 10.002031 
2.0646504e+3, 3.1558266e+2, -936358.25, 125186.87, 51701.37, 0.050035078, -0.12471649, 127698.984, 127698.984, 0.0, 9.991095, 10.00515 
2.075484e+3, 1.2564604e+2, -835398.1, -1671740.1, -37948.527, -0.053728998, -0.21355814, -833679.8, 874970.7, 0.27430877, 10.0105715, 9.995298 
2.0754404e+3, 1.3564211e+2, -795173.94, -1625976.5, 5525.4424, -0.052111614, -0.14798501, -795137.2, 815552.1, 0.19831488, 10.009194, 9.995509 
2.0753968e+3, 1.4563733e+2, -710106.44, -1502539.0, -31171.125, -0.027486963, -0.2016427, -708882.2, 803854.9, 0.120888695, 10.008143, 9.996198 
2.075352e+3, 1.556338e+2, -664047.5, -1466212.0, -37196.168, -0.019893294, -0.16248009, -662326.44, 752446.56, 0.057827033, 10.007376, 9.996137 
2.0753074e+3, 1.6563053e+2, -614888.7, -1283374.8, -28163.055, -0.019389596, -0.14758992, -613704.3, 703100.8, 0.019458313, 10.006283, 9.997249 
2.075263e+3, 1.7562753e+2, -703778.94, -1284010.0, -27321.309, -0.030582579, -0.16568877, -702495.3, 516338.7, 0.003545439, 10.004931, 9.997217 
2.0752186e+3, 1.8562497e+2, -701591.5, -1151583.5, -42792.676, -0.029100185, -0.17022492, -697558.25, 423300.88, 0.000118070486, 10.00391, 9.997946 
2.0751739e+3, 1.9562289e+2, -717372.44, -1112547.8, -46437.86, -0.01645167, -0.16413867, -711988.75, 310890.9, 0.0, 10.003145, 9.9979105 
2.0751294e+3, 2.0562112e+2, -709444.8, -969297.94, -40338.875, -0.011516708, -0.16056092, -703326.75, 221570.33, 0.0, 10.002143, 9.998705 
2.0750849e+3, 2.156197e+2, -787412.7, -959421.4, -40426.953, -0.013106543, -0.1653351, -778385.0, 48525.953, 0.0, 10.000949, 9.998675 
2.0750403e+3, 2.2561859e+2, -771663.1, -811331.6, -47915.29, -0.010505766, -0.17386432, -739639.2, -10717.85, 0.0, 9.999997, 9.999477 
2.0749956e+3, 2.3561783e+2, -787781.2, -772589.2, -46068.816, -0.0039442107, -0.18921904, -733494.3, -102566.73, 0.0, 9.999231, 9.99944 
2.0749512e+3, 2.4561752e+2, -782210.4, -639160.4, -37320.414, -0.0007295577, -0.18922728, -630009.2, -97078.99, 0.0, 9.998253, 10.000153 
2.0749067e+3, 2.5561765e+2, -854198.25, -625524.3, -33110.656, -0.004298548, -0.18223605, -620826.6, -185897.88, 0.0, 9.997097, 10.000131 
2.0748623e+3, 2.6561806e+2, -851116.75, -485905.28, -27353.14, -0.005661819, -0.1860073, -483868.0, -146942.7, 0.0, 9.996072, 10.00091 
2.0748182e+3, 2.7561867e+2, -887000.06, -455398.25, -29628.902, 0.005364647, -0.20434971, -453373.78, -214454.34, 0.0, 9.995166, 10.000883 
2.0747742e+3, 2.8562018e+2, -863349.0, -300104.72, -22771.191, 0.021057626, -0.17577717, -299185.63, -158280.08, 0.0, 9.994256, 10.001714 
2.07473e+3, 2.9562253e+2, -903998.7, -266458.6, -29395.086, 0.008389915, -0.10506968, -265106.16, -222222.89, 0.0, 9.993294, 10.001735 
2.0746852e+3, 3.0562347e+2, -967871.9, -193842.55, -46540.76, -0.011335369, -0.2094146, -191054.19, -191054.19, 0.0, 9.992187, 10.002433 
2.0746413e+3, 3.156265e+2, -983923.56, 23318.47, -13514.657, 0.04625377, -0.13877971, 23499.77, 23499.77, 0.0, 9.991104, 10.004447 
2.0854948e+3, 1.2569089e+2, -782330.56, -1651319.1, 9382.529, -0.02832475, -0.191698, -782229.3, 925981.44, 0.28585204, 10.011286, 9.995153 
2.0854492e+3, 1.3568647e+2, -833229.7, -1641296.5, 23771.148, -0.073423, -0.1731913, -832531.0, 777723.0, 0.20693293, 10.008932, 9.99553 
2.0854042e+3, 1.4568184e+2, -762704.06, -1518077.9, 21392.836, -0.041168436, -0.219008, -762098.7, 750201.6, 0.12647593, 10.0077305, 9.99628 
2.0853594e+3, 1.5567848e+2, -649740.44, -1448632.0, 25998.988, -0.020289483, -0.16877566, -648895.25, 765438.94, 0.060813107, 10.007462, 9.996214 
2.0853136e+3, 1.6567524e+2, -583901.1, -1275589.0, 7479.6333, -0.018580833, -0.15300083, -583820.25, 732546.06, 0.020676715, 10.006543, 9.997176 
2.0852678e+3, 1.7567211e+2, -682223.6, -1281565.1, 1199.0848, -0.03508484, -0.17281115, -682221.25, 536175.06, 0.0038677107, 10.005117, 9.997144 
2.0852225e+3, 1.8566945e+2, -687875.0, -1153498.6, 5101.029, -0.029510211, -0.17867818, -687819.1, 432603.3, 0.00014387682, 10.004043, 9.997869 
2.085177e+3, 1.9566725e+2, -708499.9, -1115568.6, 2003.3782, -0.0064155557, -0.17596512, -708490.0, 313954.44, 0.0, 10.00324, 9.997843 
2.0851316e+3, 2.0566548e+2, -693810.94, -960551.2, -5063.167, -0.0012551125, -0.16977404, -693714.9, 230747.11, 0.0, 10.00225, 9.998711 
2.085086e+3, 2.1566413e+2, -763321.5, -946707.3, -6434.6714, -0.010302079, -0.16584308, -763096.0, 63378.965, 0.0, 10.001113, 9.998681 
2.0850402e+3, 2.2566302e+2, -761114.7, -805636.94, -5223.76, -0.01449874, -0.17408927, -760510.0, -32024.676, 0.0, 10.000071, 9.999479 
2.0849946e+3, 2.3566219e+2, -806109.7, -780149.3, -8062.0347, -0.013665907, -0.19708799, -777849.4, -147356.9, 0.0, 9.999104, 9.999447 
2.0849492e+3, 2.4566188e+2, -797152.6, -636969.0, -9100.876, -0.0054259733, -0.20020367, -636453.6, -103958.78, 0.0, 9.998114, 10.000234 
2.0849039e+3, 2.556621e+2, -847325.4, -613388.56, -7771.9854, 0.006117366, -0.19056092, -613130.6, -178638.56, 0.0, 9.997109, 10.000207 
2.0848584e+3, 2.656625e+2, -839568.2, -480286.66, 5845.0537, 0.000063519175, -0.19588163, -480191.6, -143703.23, 0.0, 9.996154, 10.000907 
2.084813e+3, 2.7566308e+2, -879747.44, -452433.0, 8650.692, -0.010472068, -0.2207456, -452257.94, -213774.72, 0.0, 9.995221, 10.0008745 
2.0847681e+3, 2.8566453e+2, -869539.5, -303164.1, 16906.762, 0.012178933, -0.19294153, -302659.84, -162190.28, 0.0, 9.994216, 10.001711 
2.0847234e+3, 2.9566696e+2, -924076.3, -273885.75, 13625.664, 0.03460847, -0.112314485, -273600.3, -231153.89, 0.0, 9.993149, 10.001754 
2.0846772e+3, 3.05668e+2, -960192.9, -176096.1, -11028.152, -0.017905924, -0.21477245, -175941.02, -175941.02, 0.0, 9.992179, 10.002558 
2.084632e+3, 3.1567085e+2, -979456.56, -21071.744, 10347.603, 0.025725672, -0.17202534, -20960.035, -20960.035, 0.0, 9.991341, 10.004026 
2.0955063e+3, 1.257376e+2, -836293.06, -1721062.6, -46159.824, -0.0005270999, -0.1484385, -833891.4, 873860.8, 0.29732525, 10.011176, 9.994583 
2.0954578e+3, 1.3573185e+2, -861641.06, -1703543.0, -40158.05, -0.08284744, -0.21592052, -859729.9, 750079.5, 0.21563093, 10.008967, 9.99509 
2.0954119e+3, 1.4572719e+2, -749391.0, -1490215.5, 14763.731, -0.05198221, -0.25147048, -749096.94, 762758.56, 0.13219775, 10.007781, 9.9964695 
2.0953667e+3, 1.557243e+2, -642248.9, -1423606.4, 16459.611, -0.028025996, -0.17620783, -641902.3, 771981.6, 0.06390592, 10.007446, 9.996394 
2.0953201e+3, 1.6572113e+2, -601009.7, -1305118.0, -42647.742, -0.02729443, -0.14957042, -598435.94, 717479.3, 0.021950793, 10.006521, 9.996983 
2.0952727e+3, 1.7571786e+2, -693423.44, -1308418.4, -47659.68, -0.0458084, -0.16432162, -689751.9, 528195.7, 0.0042110207, 10.005131, 9.996956 
2.095226e+3, 1.8571499e+2, -689170.75, -1161036.5, -22595.75, -0.03620861, -0.17914477, -688091.2, 431884.88, 0.00017415002, 10.00406, 9.99781 
2.0951802e+3, 1.9571252e+2, -712543.7, -1124436.5, -26382.695, -0.0049887304, -0.19736405, -710860.7, 311139.66, 0.0, 10.003239, 9.997785 
2.0951338e+3, 2.0571081e+2, -695003.0, -963603.9, -45967.555, 0.00039841724, -0.1812098, -687354.06, 236663.27, 0.0, 10.002248, 9.9986925 
2.0950867e+3, 2.1570979e+2, -764299.56, -949845.0, -45999.336, -0.01513534, -0.14373969, -753521.75, 72505.69, 0.0, 10.001114, 9.998661 
2.0950401e+3, 2.2570863e+2, -764869.9, -814910.25, -39990.23, -0.019827439, -0.15164742, -742717.75, -14679.523, 0.0, 10.000073, 9.999415 
2.0949936e+3, 2.3570749e+2, -809850.56, -788833.1, -43145.92, -0.015363988, -0.19951212, -754934.56, -124886.125, 0.0, 9.9991045, 9.999389 
2.0949472e+3, 2.4570714e+2, -794108.94, -632423.94, -46855.055, -0.004844313, -0.20645714, -619827.1, -87775.836, 0.0, 9.998117, 10.000264 
2.0949009e+3, 2.5570753e+2, -843442.56, -608565.5, -44983.445, 0.008771812, -0.18479937, -600245.06, -166198.02, 0.0, 9.99712, 10.0002365 
2.0948543e+3, 2.657079e+2, -833218.8, -470729.16, -30030.53, 0.00045588106, -0.19360031, -468258.13, -132215.17, 0.0, 9.996165, 10.000969 
2.094808e+3, 2.757084e+2, -873715.25, -444440.97, -27175.158, -0.020393865, -0.23348889, -442727.47, -204689.27, 0.0, 9.995236, 10.000924 
2.0947622e+3, 2.857101e+2, -864851.75, -295511.25, -24571.525, 0.008006051, -0.18890058, -294452.75, -154430.61, 0.0, 9.994222, 10.001762 
2.0947166e+3, 2.957129e+2, -917033.94, -260442.5, -26409.926, 0.058169417, -0.07645505, -259381.94, -217386.84, 0.0, 9.99315, 10.001848 
2.0946695e+3, 3.057121e+2, -974043.25, -208394.03, -45916.297, -0.010366641, -0.356884, -205650.25, -205650.25, 0.0, 9.99219, 10.002333 
2.094623e+3, 3.157166e+2, -953717.1, 18506.701, 33646.156, -0.002104232, -0.12331444, 19669.717, 19669.717, 0.0, 9.991396, 10.004273 
2.1055163e+3, 1.2578443e+2, -1018400.44, -1820145.1, -18469.023, -0.017851945, -0.1744017, -1017975.2, 689317.5, 0.30874723, 10.009435, 9.994733 
2.1054673e+3, 1.3577907e+2, -740858.0, -1613976.1, 12501.225, -0.0736255, -0.21337995, -740679.06, 868666.75, 0.22440878, 10.010074, 9.995168 
2.1054204e+3, 1.4577448e+2, -600581.25, -1434793.4, 57704.49, -0.040773645, -0.2314988, -596608.6, 914782.5, 0.13804023, 10.009107, 9.996271 
2.1053737e+3, 1.5577106e+2, -715088.5, -1478149.9, 37862.14, -0.03300764, -0.19180231, -713214.44, 700210.8, 0.06708833, 10.0070095, 9.996229 
2.1053262e+3, 1.6576777e+2, -681961.06, -1341276.0, -8570.143, -0.033642985, -0.16931652, -681849.7, 633608.0, 0.023268716, 10.005946, 9.997008 
2.1052781e+3, 1.7576472e+2, -618077.25, -1269824.8, 1212.5779, -0.042328477, -0.16399942, -618075.0, 599412.9, 0.0045701233, 10.005647, 9.99697 
2.1052305e+3, 1.8576184e+2, -608240.7, -1136248.3, 19227.965, -0.03303605, -0.17255577, -607541.4, 511975.22, 0.00020816944, 10.004682, 9.997679 
2.1051833e+3, 1.957592e+2, -723930.44, -1142951.0, 10009.889, -0.010317727, -0.19496682, -723691.44, 297851.53, 0.0, 10.00322, 9.997665 
2.1051358e+3, 2.0575738e+2, -708843.4, -968570.0, -3229.3735, -0.0063487184, -0.18287216, -708803.25, 214757.61, 0.0, 10.00215, 9.998705 
2.105088e+3, 2.1575631e+2, -725752.06, -929942.56, -3031.0012, -0.016952494, -0.15062158, -725707.1, 99863.99, 0.0, 10.001376, 9.99867 
2.1050403e+3, 2.2575516e+2, -727824.5, -798212.9, 677.3956, -0.01611763, -0.15793538, -727817.94, -236.11623, 0.0, 10.000337, 9.999402 
2.1049927e+3, 2.3575404e+2, -813134.9, -792032.2, 1534.105, -0.0058784913, -0.19898562, -791921.25, -162329.58, 0.0, 9.999093, 9.999371 
2.1049453e+3, 2.4575365e+2, -804671.8, -646328.75, 2125.9167, 0.00044664167, -0.20410483, -646300.2, -114704.97, 0.0, 9.998087, 10.000182 
2.1048976e+3, 2.5575393e+2, -829513.44, -609660.4, -5630.4824, 0.0038575593, -0.1856515, -609516.25, -175923.63, 0.0, 9.997252, 10.000163 
2.1048504e+3, 2.657543e+2, -818753.1, -451655.4, 2661.0625, 0.0016352253, -0.19796301, -451636.13, -116047.62, 0.0, 9.996215, 10.001075 
2.1048032e+3, 2.7575484e+2, -897401.25, -444054.2, 8314.623, -0.0029072596, -0.24074812, -443901.75, -206319.48, 0.0, 9.995026, 10.001027 
2.1047564e+3, 2.8575653e+2, -880662.9, -299315.1, 18626.844, 0.005630564, -0.1984191, -298718.88, -159153.1, 0.0, 9.994099, 10.001795 
2.1047094e+3, 2.9575938e+2, -885788.3, -246431.56, 13258.825, 0.019974219, -0.08787769, -246156.73, -204617.48, 0.0, 9.993371, 10.001836 
2.1046619e+3, 3.0575848e+2, -966290.7, -215519.55, -16866.445, 0.02581775, -0.36898133, -215140.83, -215140.83, 0.0, 9.992292, 10.0022335 
2.1046141e+3, 3.1576374e+2, -1015122.94, 30730.1, 102497.88, -0.008933122, -0.04952849, 40680.64, 40680.64, 0.0, 9.990802, 10.004641 
2.1155252e+3, 1.258314e+2, -988407.44, -1707564.1, 7184.916, -0.074091926, -0.25865898, -988335.7, 718496.44, 0.32021934, 10.009492, 9.995478 
2.1154775e+3, 1.3582793e+2, -729170.6, -1559586.6, 25592.625, -0.052560568, -0.17094094, -728382.6, 880483.0, 0.23329073, 10.010025, 9.995666 
2.1154296e+3, 1.4582351e+2, -646414.75, -1508945.4, -9679.979, -0.015225234, -0.16604982, -646306.1, 864603.6, 0.14398594, 10.009058, 9.995707 
2.1153806e+3, 1.5581861e+2, -745404.6, -1547789.6, -28317.232, -0.03843158, -0.21391957, -744406.56, 668552.75, 0.07033723, 10.007037, 9.99574 
2.115332e+3, 1.6581507e+2, -663113.25, -1307790.5, -16577.78, -0.039688982, -0.20942913, -662687.25, 652307.3, 0.024616681, 10.00598, 9.997225 
2.1152838e+3, 1.7581256e+2, -605788.56, -1243313.8, -10743.366, -0.027024763, -0.17182328, -605607.56, 611410.94, 0.00493932, 10.005642, 9.997156 
2.1152352e+3, 1.8580985e+2, -624060.56, -1167812.8, -33940.344, -0.022524018, -0.1597301, -621950.2, 497095.34, 0.0002450346, 10.004672, 9.997469 
2.1151863e+3, 1.9580713e+2, -735866.06, -1169986.9, -40120.707, -0.023943901, -0.1689248, -732189.3, 288884.22, 0.00000000000010610821, 10.003225, 9.9974785 
2.1151377e+3, 2.0580505e+2, -705768.06, -965405.7, -29937.357, -0.021706128, -0.17553382, -702360.9, 220732.94, 0.0, 10.002159, 9.998724 
2.1150891e+3, 2.1580358e+2, -724669.7, -927877.25, -30857.299, -0.017250715, -0.1854073, -720087.3, 105019.88, 0.0, 10.001373, 9.998688 
2.1150406e+3, 2.2580247e+2, -726184.5, -795445.3, -44533.633, -0.0050438126, -0.19002828, -704401.2, 22715.94, 0.0, 10.000336, 9.999423 
2.114992e+3, 2.3580173e+2, -811549.2, -790785.25, -42585.56, 0.013014454, -0.19516374, -757334.4, -128211.23, 0.0, 9.999098, 9.999379 
2.1149434e+3, 2.4580127e+2, -818551.56, -677221.1, -29051.469, 0.009284634, -0.1955973, -671482.44, -140354.55, 0.0, 9.998093, 9.999969 
2.1148948e+3, 2.5580114e+2, -841741.8, -637922.5, -38038.434, -0.010531488, -0.19539419, -631054.9, -197924.69, 0.0, 9.997262, 9.999967 
2.1148467e+3, 2.6580152e+2, -807678.44, -431211.3, -42890.67, 0.0032463912, -0.20758465, -426386.63, -91260.77, 0.0, 9.9962225, 10.001213 
2.1147986e+3, 2.758023e+2, -884859.94, -420853.47, -35742.297, 0.03994813, -0.23894295, -418116.38, -181000.48, 0.0, 9.995033, 10.001185 
2.1147503e+3, 2.858038e+2, -879014.7, -298703.44, -9208.811, 0.0014678162, -0.22520424, -298557.34, -159455.7, 0.0, 9.994107, 10.001797 
2.1147017e+3, 2.958061e+2, -891430.1, -264820.94, -14678.286, -0.08504408, -0.16279405, -264477.28, -223396.08, 0.0, 9.993396, 10.001699 
2.1146548e+3, 3.0580747e+2, -964361.94, -214447.36, -72234.914, 0.091119274, -0.2117424, -207552.78, -207552.78, 0.0, 9.992303, 10.002238 
2.1146046e+3, 3.1581e+2, -990300.4, 85212.234, 32512.246, -0.039211154, -0.17712857, 86194.164, 86194.164, 0.0, 9.990786, 10.005025 
2.1255349e+3, 1.2588018e+2, -861591.8, -1624177.8, 44692.023, -0.090852536, -0.27200708, -858981.5, 847371.94, 0.3318127, 10.010819, 9.995687 
2.1254869e+3, 1.3587683e+2, -846375.1, -1605274.3, 32502.852, -0.06485296, -0.17853194, -844985.6, 763400.3, 0.24227116, 10.009021, 9.995738 
2.125438e+3, 1.4587255e+2, -764714.94, -1565920.3, -3768.7026, -0.031681065, -0.16642913, -764697.2, 745731.44, 0.14999606, 10.008126, 9.99576 
2.125388e+3, 1.5586776e+2, -630398.0, -1482212.9, 16860.398, -0.035357255, -0.2104442, -630064.44, 782412.5, 0.073619545, 10.007893, 9.995775 
2.1253383e+3, 1.6586404e+2, -544585.06, -1268923.3, 37092.582, -0.0342051, -0.21279927, -542690.5, 771823.44, 0.025978552, 10.00691, 9.997047 
2.125289e+3, 1.7586121e+2, -653019.2, -1283015.1, 15122.434, -0.031903937, -0.18888813, -652656.4, 563885.06, 0.005313136, 10.005394, 9.997002 
2.1252395e+3, 1.858585e+2, -666369.8, -1178115.9, -12083.0625, -0.027124705, -0.17191003, -666084.6, 452483.63, 0.00028390135, 10.004341, 9.997556 
2.1251898e+3, 1.9585602e+2, -672488.4, -1131111.0, 1326.8534, -0.021041423, -0.1646935, -672484.56, 348108.97, 0.0000000000129771185, 10.003628, 9.99755 
2.1251398e+3, 2.0585386e+2, -652166.0, -951871.0, 16199.263, -0.018195292, -0.17562827, -651293.0, 271321.5, 0.0, 10.0025835, 9.99861 
2.1250904e+3, 2.158521e+2, -742760.44, -947638.3, 4834.5005, -0.017677544, -0.2025896, -742646.4, 81984.445, 0.0, 10.001301, 9.998584 
2.1250407e+3, 2.2585094e+2, -738758.5, -800982.06, -14026.488, -0.0053904722, -0.2060009, -735742.75, -9101.478, 0.0, 10.000251, 9.999424 
2.124991e+3, 2.3585032e+2, -772679.1, -772579.5, -14259.362, 0.01572467, -0.19906066, -758369.9, -129723.516, 0.0, 9.99937, 9.999371 
2.1249413e+3, 2.4584982e+2, -789834.5, -669864.56, 7622.2163, 0.012638907, -0.19874962, -669382.25, -138730.58, 0.0, 9.998321, 9.999908 
2.1248919e+3, 2.5584957e+2, -862943.25, -653499.06, 9498.76, -0.006986329, -0.2028576, -653069.1, -220413.83, 0.0, 9.997143, 9.999915 
2.1248427e+3, 2.6584998e+2, -822888.06, -439286.2, 2304.534, 0.010468431, -0.20739162, -439272.34, -104621.66, 0.0, 9.996125, 10.001203 
2.1247937e+3, 2.7585086e+2, -859687.44, -409349.7, -3287.187, 0.051740542, -0.22828984, -409325.72, -172685.97, 0.0, 9.9952135, 10.001175 
2.1247442e+3, 2.8585216e+2, -894403.6, -308990.34, 15937.675, -0.008460308, -0.23085704, -308556.78, -169929.25, 0.0, 9.994019, 10.001767 
2.1246941e+3, 2.958543e+2, -1003478.1, -319807.13, 9927.643, -0.1285388, -0.18442543, -319663.0, -279053.53, 0.0, 9.992638, 10.001685 
2.1246472e+3, 3.0585653e+2, -968108.44, -160506.13, -11126.438, 0.12542927, -0.16552037, -160352.88, -160352.88, 0.0, 9.99204, 10.002734 
2.1245955e+3, 3.1585777e+2, -909264.5, 62739.13, 55426.15, -0.05239992, -0.3106352, 65889.46, 65889.46, 0.0, 9.991608, 10.004473 
2.1355459e+3, 1.2593049e+2, -888842.2, -1651733.8, 3981.819, -0.079016685, -0.22909217, -888821.44, 817038.3, 0.3435089, 10.010818, 9.995413 
2.1354954e+3, 1.3592583e+2, -869009.2, -1648979.0, -12295.566, -0.10804998, -0.2275272, -868815.44, 739090.9, 0.2512964, 10.009045, 9.995423 
2.1354453e+3, 1.4592165e+2, -732619.94, -1484244.3, -9194.697, -0.08496768, -0.22186166, -732507.44, 777439.94, 0.15601481, 10.008145, 9.9963455 
2.1353957e+3, 1.5591824e+2, -602368.7, -1412636.5, 6131.776, -0.026619248, -0.18478532, -602322.25, 809658.06, 0.07689982, 10.007888, 9.996257 
2.1353452e+3, 1.6591446e+2, -583662.94, -1348738.4, -17285.906, -0.021276439, -0.18438481, -583272.6, 730745.44, 0.027339574, 10.006905, 9.996497 
2.1352942e+3, 1.7591056e+2, -684084.56, -1351062.9, -36472.176, -0.056987703, -0.2131501, -682096.06, 533961.56, 0.0056872666, 10.005405, 9.996531 
2.1352434e+3, 1.8590775e+2, -640702.56, -1128480.5, -36534.39, -0.04647814, -0.20629185, -637981.3, 480104.22, 0.00032414412, 10.004354, 9.997893 
2.1351933e+3, 1.9590577e+2, -652410.0, -1089676.8, -24997.648, -0.0031991373, -0.18020459, -650985.56, 369118.6, 0.0000000000136278775, 10.003626, 9.997837 
2.1351425e+3, 2.0590372e+2, -669749.56, -988654.1, -30466.21, 0.001880236, -0.18130739, -666865.06, 255259.08, 0.0, 10.002581, 9.998362 
2.1350916e+3, 2.1590176e+2, -758141.3, -981008.6, -39667.293, -0.019995887, -0.20317037, -751291.6, 72851.836, 0.0, 10.001303, 9.998357 
2.1350408e+3, 2.2590046e+2, -740647.3, -806937.7, -45468.355, -0.018081674, -0.20875657, -717525.5, 8630.341, 0.0, 10.000256, 9.999382 
2.1349902e+3, 2.358997e+2, -774813.44, -778234.4, -46665.598, 0.0005358195, -0.21061195, -729827.0, -101664.57, 0.0, 9.999372, 9.999333 
2.1349397e+3, 2.4589922e+2, -783249.75, -658035.7, -36620.03, 0.009543163, -0.21087949, -648112.25, -117944.92, 0.0, 9.998324, 9.9999895 
2.1348892e+3, 2.5589913e+2, -856498.0, -643133.3, -33776.277, 0.012865823, -0.20763394, -637914.06, -205745.08, 0.0, 9.997151, 9.999984 
2.1348388e+3, 2.658996e+2, -833981.0, -464726.25, -32693.297, 0.02090341, -0.19861509, -461853.97, -127689.93, 0.0, 9.996132, 10.001027 
2.1347886e+3, 2.7590042e+2, -870560.06, -436244.47, -39822.684, 0.028028553, -0.20960906, -432623.3, -196468.33, 0.0, 9.995228, 10.000985 
2.1347378e+3, 2.8590155e+2, -900454.2, -324057.4, -38736.26, -0.023632875, -0.21388885, -321465.8, -183321.33, 0.0, 9.994025, 10.001662 
2.1346867e+3, 2.9590377e+2, -997278.94, -306402.9, -38106.14, -0.10556886, -0.14989886, -304307.47, -264182.56, 0.0, 9.99263, 10.001783 
2.1346389e+3, 3.0590558e+2, -887933.44, 5349.1284, -14534.765, 0.11536624, -0.24745615, 5585.564, 5585.564, 0.0, 9.992039, 10.003875 
2.1345875e+3, 3.1590936e+2, -1039582.3, -215809.66, -61255.555, -0.009786936, -0.22469163, -211279.63, -211279.63, 0.0, 9.991637, 10.002547 
2.145557e+3, 1.2598184e+2, -895336.1, -1676437.8, 31134.916, -0.068696745, -0.22974257, -894097.06, 811258.3, 0.35520414, 10.01109, 9.995025 
2.1455047e+3, 1.3597685e+2, -821310.06, -1655100.6, 19180.36, -0.10887047, -0.21566203, -820869.06, 786537.44, 0.2602693, 10.009756, 9.995038 
2.1454534e+3, 1.4597231e+2, -672733.6, -1447881.9, 35057.746, -0.10669834, -0.23018199, -671151.3, 838299.94, 0.16196857, 10.008661, 9.996392 
2.1454033e+3, 1.5596892e+2, -624606.1, -1418142.0, 17633.193, -0.034219544, -0.19647461, -624214.44, 787268.5, 0.08013582, 10.007727, 9.996294 
2.145352e+3, 1.6596518e+2, -607089.94, -1367881.3, -21105.496, -0.022339555, -0.18977466, -606504.9, 707015.3, 0.028682737, 10.006785, 9.996421 
2.1452996e+3, 1.7596127e+2, -625338.1, -1330333.0, -8653.155, -0.060102183, -0.2104181, -625231.94, 590328.44, 0.006057383, 10.005851, 9.996456 
2.145248e+3, 1.8595834e+2, -583482.1, -1102019.4, -1551.2885, -0.048283167, -0.20868874, -583477.5, 534111.9, 0.00036523794, 10.004756, 9.997878 
2.1451968e+3, 1.9595626e+2, -663770.94, -1095183.9, -16104.179, -0.00006467564, -0.19380796, -663170.6, 356438.44, 0.000000000027357056, 10.003552, 9.997832 
2.1451451e+3, 2.0595424e+2, -685772.7, -988809.4, -25299.326, 0.004765221, -0.19223717, -683675.06, 237953.3, 0.0, 10.002442, 9.998425 
2.1450928e+3, 2.1595243e+2, -741557.6, -968065.6, -12661.6875, -0.021173013, -0.20440918, -740852.0, 82794.09, 0.0, 10.001398, 9.998398 
2.1450408e+3, 2.2595108e+2, -729019.8, -813613.25, -4521.109, -0.023315618, -0.20909095, -728778.9, -3119.5422, 0.0, 10.000391, 9.9992695 
2.1449892e+3, 2.3595019e+2, -776306.5, -788326.4, -11755.423, -0.008060434, -0.21377209, -769113.8, -141445.86, 0.0, 9.999406, 9.999246 
2.1449378e+3, 2.4594973e+2, -770940.0, -641203.0, -8494.756, 0.007483477, -0.21109776, -640649.2, -110976.72, 0.0, 9.998366, 10.000083 
2.1448863e+3, 2.559498e+2, -830554.44, -621015.4, -4768.6177, 0.023480332, -0.20352808, -620906.9, -189234.55, 0.0, 9.997292, 10.000067 
2.1448347e+3, 2.6595023e+2, -825935.8, -471251.34, 5249.177, 0.016162407, -0.19549124, -471173.7, -137505.63, 0.0, 9.996235, 10.000931 
2.1447831e+3, 2.7595094e+2, -886286.06, -453866.8, 2096.9817, -0.005576807, -0.2067582, -453856.63, -218195.64, 0.0, 9.995167, 10.000892 
2.1447317e+3, 2.8595218e+2, -911200.3, -324344.56, 462.519, -0.018923538, -0.19613263, -324344.2, -186694.83, 0.0, 9.993934, 10.001702 
2.1446799e+3, 2.9595453e+2, -989940.3, -289084.34, 15767.967, -0.031073362, -0.11929736, -288729.78, -249102.28, 0.0, 9.992625, 10.001903 
2.1446304e+3, 3.0595592e+2, -894761.5, 33744.07, 36096.9, 0.06567586, -0.28135648, 35145.273, 35145.273, 0.0, 9.991859, 10.004153 
2.1445791e+3, 3.1596142e+2, -1105798.3, -301214.25, -116280.805, 0.021298552, -0.10651639, -284746.1, -284746.1, 0.0, 9.991424, 10.00206 
2.1555679e+3, 1.2603408e+2, -937765.0, -1738447.1, -3392.214, -0.057032265, -0.26511866, -937750.6, 767091.1, 0.366738, 10.011023, 9.994528 
2.1555144e+3, 1.3602965e+2, -849874.25, -1718317.6, -15298.623, -0.0795191, -0.15228745, -849604.8, 757284.6, 0.2690563, 10.009789, 9.994589 
2.1554619e+3, 1.4602432e+2, -697720.3, -1498448.0, 7985.617, -0.10745853, -0.19936232, -697640.7, 811301.4, 0.16776194, 10.008709, 9.995957 
2.1554106e+3, 1.5601978e+2, -648385.5, -1469291.1, -12082.434, -0.057152882, -0.23986647, -648207.7, 762777.2, 0.08327299, 10.007737, 9.99594 
2.1553583e+3, 1.6601615e+2, -586580.44, -1321970.6, -52874.41, -0.035658725, -0.22336806, -582798.25, 730222.3, 0.029985989, 10.006781, 9.99674 
2.1553054e+3, 1.7601316e+2, -607584.06, -1292981.8, -42041.906, -0.044084292, -0.18284601, -605014.9, 610036.3, 0.006418347, 10.005848, 9.996716 
2.1552527e+3, 1.8601015e+2, -608068.4, -1153766.6, -44360.37, -0.03596546, -0.18226925, -604485.8, 512595.56, 0.00040668165, 10.004755, 9.997526 
2.1552e+3, 1.9600731e+2, -682970.56, -1136281.9, -57619.594, -0.012454257, -0.20653948, -675761.25, 343347.94, 0.00000000007381513, 10.003553, 9.997552 
2.1551472e+3, 2.0600532e+2, -661246.9, -939794.44, -62195.707, -0.009424421, -0.20916013, -647990.4, 273137.66, 0.0, 10.002446, 9.998761 
2.155094e+3, 2.1600401e+2, -721530.44, -927135.3, -49040.88, -0.022250703, -0.20473045, -710432.25, 112707.66, 0.0, 10.001397, 9.998681 
2.1550412e+3, 2.2600274e+2, -742800.2, -843091.2, -39677.555, -0.02208095, -0.20447257, -729001.3, -3848.6963, 0.0, 10.000391, 9.99907 
2.1549885e+3, 2.3600163e+2, -786771.9, -812227.0, -47894.88, -0.011671633, -0.20929766, -749942.3, -122778.1, 0.0, 9.999411, 9.999082 
2.154936e+3, 2.460012e+2, -762937.7, -626915.44, -49242.246, 0.004884498, -0.20181783, -610960.44, -81791.945, 0.0, 9.998372, 10.000179 
2.1548836e+3, 2.560014e+2, -823125.3, -608577.0, -44888.71, 0.021647515, -0.19017519, -599563.8, -168397.45, 0.0, 9.9973, 10.00015 
2.1548308e+3, 2.660017e+2, -825167.8, -473079.5, -35474.95, -0.0052581937, -0.19826232, -469540.75, -136377.13, 0.0, 9.996245, 10.000916 
2.1547778e+3, 2.7600223e+2, -884327.9, -453110.25, -40219.72, -0.05153826, -0.22453809, -449391.03, -214231.95, 0.0, 9.995177, 10.000895 
2.1547256e+3, 2.8600398e+2, -898390.06, -298879.25, -50143.715, 0.0052129873, -0.176047, -294714.13, -157571.48, 0.0, 9.993935, 10.001879 
2.1546738e+3, 2.960067e+2, -980990.7, -273447.66, -28079.545, 0.096918784, -0.08027399, -272335.03, -233218.63, 0.0, 9.992634, 10.0020075 
2.154621e+3, 3.060073e+2, -946929.2, -78312.336, 15566.132, -0.027743524, -0.28417832, -78033.47, -78033.47, 0.0, 9.991871, 10.003381 
2.1545704e+3, 3.1601188e+2, -981982.0, -54631.848, -101575.91, 0.0046966253, -0.13633676, -43636.258, -43636.258, 0.0, 9.991457, 10.003742 
2.1655779e+3, 1.260869e+2, -1019519.44, -1791900.0, 2432.0562, -0.09301991, -0.28049597, -1019511.75, 684811.8, 0.37789747, 10.010271, 9.99452 
2.165525e+3, 1.3608274e+2, -759095.44, -1646571.4, 17357.064, -0.04641112, -0.14764404, -758756.1, 847611.56, 0.27748606, 10.010713, 9.994636 
2.1654712e+3, 1.4607708e+2, -594842.8, -1482071.1, 28008.885, -0.08916359, -0.20822692, -593959.5, 914464.4, 0.17327707, 10.0098, 9.995565 
2.1654183e+3, 1.5607204e+2, -641279.9, -1501434.4, 12527.757, -0.074322775, -0.25740302, -641097.5, 769375.06, 0.08624701, 10.007973, 9.995604 
2.1653649e+3, 1.6606842e+2, -586149.7, -1299564.8, -14211.705, -0.05320114, -0.23326407, -585866.7, 726641.5, 0.031224243, 10.0067005, 9.996933 
2.1653113e+3, 1.760658e+2, -601865.3, -1270177.8, -12711.551, -0.04016463, -0.17639089, -601623.6, 612911.4, 0.0067641987, 10.005808, 9.996889 
2.1652573e+3, 1.860628e+2, -613300.8, -1159321.8, -14980.179, -0.032753043, -0.17874418, -612890.1, 503674.72, 0.00044780553, 10.004737, 9.997494 
2.1652034e+3, 1.9605976e+2, -685960.4, -1141169.9, -6531.634, -0.024769856, -0.218125, -685866.7, 332728.0, 0.00000000020128568, 10.003551, 9.997518 
2.1651495e+3, 2.0605777e+2, -650661.1, -936222.2, -10104.533, -0.019684538, -0.21892601, -650304.06, 270309.9, 0.0, 10.002529, 9.998744 
2.1650955e+3, 2.1605657e+2, -689614.8, -910902.6, -23609.115, -0.018381046, -0.20136158, -687124.0, 135501.0, 0.0, 10.001617, 9.998684 
2.1650416e+3, 2.2605532e+2, -717097.25, -823952.56, -16211.3545, -0.0139505295, -0.19867305, -714691.94, 9945.29, 0.0, 10.000544, 9.9991255 
2.1649878e+3, 2.3605423e+2, -790825.44, -808240.8, -5430.1973, -0.0047419397, -0.20806064, -789271.0, -162622.25, 0.0, 9.999361, 9.999131 
2.1649341e+3, 2.460538e+2, -779621.8, -634397.44, -2318.9175, 0.0024359978, -0.20233396, -634360.4, -105707.44, 0.0, 9.998258, 10.000182 
2.1648803e+3, 2.5605395e+2, -837432.7, -613750.25, -5719.445, 0.0036915604, -0.19253956, -613604.1, -182953.06, 0.0, 9.997198, 10.000162 
2.1648267e+3, 2.660543e+2, -848177.94, -483092.22, 650.1226, -0.020019041, -0.19972995, -483091.06, -150442.58, 0.0, 9.996086, 10.000921 
2.1647729e+3, 2.760549e+2, -915572.8, -466089.5, -2877.0466, -0.045109954, -0.21713543, -466071.1, -231427.42, 0.0, 9.994957, 10.00091 
2.1647197e+3, 2.8605664e+2, -866276.06, -276080.8, -13786.064, 0.024930524, -0.17085342, -275758.97, -139132.08, 0.0, 9.994126, 10.001941 
2.1646668e+3, 2.960591e+2, -874432.0, -225109.94, -3759.9211, 0.11032313, -0.10585917, -225088.16, -186485.77, 0.0, 9.993381, 10.001978 
2.1646126e+3, 3.0605993e+2, -979017.0, -146577.48, 44373.75, -0.06960129, -0.2545747, -144218.8, -144218.8, 0.0, 9.991884, 10.002903 
2.1645615e+3, 3.1606317e+2, -1076960.9, -10982.419, 1793.6638, 0.045849763, -0.20904376, -10979.401, -10979.401, 0.0, 9.990427, 10.004536 
2.1755874e+3, 1.2614022e+2, -1010735.94, -1737105.8, 8315.901, -0.17010573, -0.28165963, -1010640.75, 693160.4, 0.38843298, 10.010326, 9.994872 
2.1755359e+3, 1.3613614e+2, -748772.56, -1590606.8, 23476.24, -0.011121972, -0.19220838, -748118.4, 857723.3, 0.285377, 10.010688, 9.995071 
2.1754812e+3, 1.461305e+2, -627081.4, -1535627.3, -27830.873, -0.056457914, -0.24952437, -626229.6, 881668.2, 0.17840347, 10.009758, 9.995185 
2.175426e+3, 1.5612553e+2, -666103.06, -1551275.8, -44163.996, -0.08885348, -0.2521027, -663905.0, 746042.8, 0.089005195, 10.007962, 9.99527 
2.1753713e+3, 1.6612187e+2, -581975.94, -1290482.4, -42978.93, -0.07679534, -0.22269374, -579378.3, 732606.4, 0.03237914, 10.006701, 9.996999 
2.175317e+3, 1.7611906e+2, -595912.6, -1258117.4, -43762.69, -0.048286617, -0.18924873, -593033.0, 620979.75, 0.0070905834, 10.005807, 9.996975 
2.175262e+3, 1.861162e+2, -596150.7, -1124750.6, -56777.688, -0.03879671, -0.19614814, -590120.9, 525919.9, 0.00048790415, 10.004738, 9.997733 
2.1752065e+3, 1.961135e+2, -673412.2, -1116743.6, -47155.98, -0.037700124, -0.22704534, -668451.8, 349615.13, 0.0000000009394869, 10.003554, 9.997686 
2.1751516e+3, 2.0611142e+2, -675345.3, -989552.6, -41931.08, -0.02676353, -0.22051825, -669845.9, 250241.55, 0.0, 10.002534, 9.998378 
2.1750969e+3, 2.1610993e+2, -709754.3, -953947.44, -56150.438, -0.011830304, -0.19545603, -697461.75, 124640.94, 0.0, 10.001618, 9.998391 
2.175042e+3, 2.2610873e+2, -695348.9, -780349.7, -58899.56, -0.00065332494, -0.19327165, -665217.06, 58897.39, 0.0, 10.0005455, 9.999426 
2.1749873e+3, 2.3610787e+2, -772739.0, -771852.6, -47960.266, 0.010909056, -0.2089589, -724333.5, -98211.016, 0.0, 9.999362, 9.999383 
2.174932e+3, 2.461074e+2, -786905.1, -651037.5, -42038.39, -0.00067484565, -0.21176054, -639082.44, -110955.625, 0.0, 9.9982605, 10.00007 
2.1748772e+3, 2.5610736e+2, -842545.56, -626863.7, -46333.074, -0.0336203, -0.21154514, -617331.6, -187204.22, 0.0, 9.997205, 10.000072 
2.1748225e+3, 2.6610783e+2, -846291.56, -480972.1, -43064.527, -0.028767748, -0.19990636, -475964.22, -143840.61, 0.0, 9.99609, 10.0009365 
2.1747683e+3, 2.7610883e+2, -912654.9, -462651.03, -42040.99, 0.016298473, -0.18155506, -458757.1, -224641.75, 0.0, 9.994964, 10.000933 
2.1747139e+3, 2.8611004e+2, -867977.25, -285419.94, -41792.84, 0.03585956, -0.18535522, -282437.0, -146333.7, 0.0, 9.994147, 10.00187 
2.1746589e+3, 2.9611152e+2, -881765.56, -250629.2, -41812.61, -0.0128101455, -0.2124294, -247871.19, -209783.39, 0.0, 9.99342, 10.001786 
2.1746045e+3, 3.06114e+2, -994846.0, -180720.4, -26272.02, -0.042416427, -0.17131698, -179873.48, -179873.48, 0.0, 9.991887, 10.002668 
2.1745522e+3, 3.1611672e+2, -1109781.3, -74989.61, -824.1412, 0.11075852, -0.15987211, -74988.95, -74988.95, 0.0, 9.990402, 10.004111 
2.1855985e+3, 1.2619466e+2, -918167.0, -1677453.4, 30663.568, -0.1479984, -0.26882052, -916930.7, 786336.1, 0.39812845, 10.011537, 9.994811 
2.1855459e+3, 1.3619009e+2, -796087.4, -1600515.6, 33419.344, -0.03604837, -0.23302968, -794701.4, 810610.25, 0.29259542, 10.010261, 9.99518 
2.1854903e+3, 1.4618479e+2, -697241.2, -1544054.0, -30265.506, -0.084432095, -0.27914307, -696160.9, 811203.75, 0.18307465, 10.009086, 9.995448 
2.1854338e+3, 1.5618043e+2, -652596.7, -1518186.1, -7799.0225, -0.07803747, -0.24373505, -652526.44, 756882.5, 0.091521844, 10.0079775, 9.995486 
2.185378e+3, 1.6617678e+2, -567002.4, -1287902.3, 20309.998, -0.06743127, -0.21667644, -566430.6, 745014.94, 0.033442795, 10.006841, 9.996948 
2.1853222e+3, 1.7617366e+2, -616306.06, -1271257.4, 12018.735, -0.06651132, -0.21058936, -616085.6, 597391.4, 0.0073955827, 10.005685, 9.996942 
2.1852662e+3, 1.8617083e+2, -596994.3, -1115549.0, -10664.338, -0.059412546, -0.21417037, -596775.1, 518729.5, 0.0005264617, 10.004695, 9.997815 
2.18521e+3, 1.9616842e+2, -630590.1, -1087005.5, -12261.406, -0.04454295, -0.22279061, -630261.0, 387266.94, 0.00000000393543, 10.003815, 9.997763 
2.1851541e+3, 2.0616636e+2, -646843.0, -979343.1, 3055.8572, -0.027309112, -0.21762584, -646814.94, 272733.5, 0.0, 10.00275, 9.998342 
2.1850984e+3, 2.1616465e+2, -719650.0, -962722.44, 11061.019, -0.010319313, -0.20820491, -719147.7, 102418.055, 0.0, 10.001572, 9.998351 
2.1850425e+3, 2.261634e+2, -709582.1, -790279.06, 527.8627, -0.0051495745, -0.20446733, -709578.7, 13999.41, 0.0, 10.000464, 9.999394 
2.1849863e+3, 2.3616262e+2, -768550.6, -770948.4, -13221.267, -0.00410579, -0.20889647, -756474.0, -130888.24, 0.0, 9.999399, 9.999369 
2.1849301e+3, 2.4616215e+2, -776982.94, -639081.25, -6471.537, -0.008623838, -0.21435031, -638778.2, -111188.02, 0.0, 9.998302, 10.00013 
2.1848743e+3, 2.5616202e+2, -842395.9, -620960.3, 1183.3582, -0.02223723, -0.22428462, -620954.0, -191362.92, 0.0, 9.997185, 10.00012 
2.1848185e+3, 2.661626e+2, -843528.0, -479101.75, 8286.388, -0.013999488, -0.20610417, -478913.44, -147326.97, 0.0, 9.996111, 10.000937 
2.1847633e+3, 2.761637e+2, -899047.06, -456390.03, 9482.297, 0.023170125, -0.17597897, -456187.0, -222609.83, 0.0, 9.995062, 10.000926 
2.1847078e+3, 2.8616476e+2, -884936.25, -296865.03, 16338.67, 0.018665325, -0.19143274, -296411.44, -160844.77, 0.0, 9.99405, 10.001836 
2.1846516e+3, 2.9616606e+2, -940852.4, -282312.34, 10768.396, -0.056108393, -0.22742786, -282136.28, -244583.66, 0.0, 9.993033, 10.001753 
2.1845967e+3, 3.061685e+2, -1017132.56, -212019.33, 18899.723, 0.004683792, -0.17949945, -211575.92, -211575.92, 0.0, 9.991824, 10.002483 
2.184542e+3, 3.1617072e+2, -1095935.4, -49946.06, 53028.29, 0.05740418, -0.20266423, -47264.57, -47264.57, 0.0, 9.99042, 10.004274 
2.1956106e+3, 1.2624995e+2, -945652.0, -1718952.3, -2484.5444, -0.056834046, -0.25354582, -945644.0, 757079.56, 0.40692657, 10.01154, 9.994413 
2.1955551e+3, 1.3624458e+2, -816643.3, -1624591.3, 4551.92, -0.11450399, -0.27009523, -816617.7, 788159.9, 0.29913002, 10.010202, 9.995032 
2.1954983e+3, 1.4623983e+2, -662175.0, -1448706.9, -59542.215, -0.16387221, -0.29702723, -657693.06, 849131.8, 0.18729956, 10.009044, 9.996215 
2.1954422e+3, 1.5623653e+2, -612068.9, -1422872.9, -42060.336, -0.047201317, -0.2331877, -609892.9, 798964.75, 0.093804985, 10.00798, 9.996143 
2.195385e+3, 1.6623299e+2, -577408.94, -1311471.5, -19373.71, -0.03207656, -0.21567358, -576898.0, 733995.1, 0.03441768, 10.006851, 9.996778 
2.1953274e+3, 1.7622939e+2, -626721.94, -1294551.1, -27074.25, -0.09484777, -0.23882033, -625626.1, 587303.3, 0.0076795984, 10.00569, 9.996781 
2.1952705e+3, 1.8622656e+2, -601507.2, -1126372.8, -40699.1, -0.093747035, -0.23149203, -598370.06, 516587.56, 0.0005633874, 10.004697, 9.997742 
2.1952136e+3, 1.9622442e+2, -632337.5, -1091068.5, -43443.465, -0.047673292, -0.20640244, -628259.5, 388719.38, 0.000000012004619, 10.003812, 9.997738 
2.1951568e+3, 2.0622239e+2, -628135.44, -941692.7, -39161.88, -0.023141852, -0.2113356, -623318.3, 295680.16, 0.0, 10.00275, 9.998602 
2.1950999e+3, 2.1622057e+2, -706764.94, -936921.6, -30175.896, -0.01475763, -0.23788892, -702874.3, 118141.18, 0.0, 10.001572, 9.99853 
2.1950425e+3, 2.2621924e+2, -735118.9, -844912.3, -37745.805, -0.027737632, -0.23082629, -723394.3, -364.93594, 0.0, 10.000467, 9.999021 
2.1949852e+3, 2.3621835e+2, -788878.94, -814837.2, -52337.086, -0.052331064, -0.20769987, -747935.6, -122895.914, 0.0, 9.999402, 9.999068 
2.1949282e+3, 2.4621789e+2, -760397.2, -606818.06, -48964.574, -0.02238478, -0.21021192, -592535.3, -65491.25, 0.0, 9.998307, 10.000351 
2.1948718e+3, 2.5621793e+2, -828494.25, -594718.2, -40754.06, 0.038320847, -0.22996518, -587817.25, -158774.34, 0.0, 9.997191, 10.0002985 
2.194815e+3, 2.6621845e+2, -843888.44, -482831.8, -31898.912, 0.023537552, -0.219401, -480035.25, -148997.3, 0.0, 9.996119, 10.000911 
2.1947576e+3, 2.7621937e+2, -900229.94, -462154.25, -29481.506, -0.03196462, -0.20295179, -460179.13, -227149.13, 0.0, 9.995072, 10.000885 
2.1947011e+3, 2.862207e+2, -887188.7, -303548.66, -23006.113, -0.028877717, -0.18656722, -302643.2, -167625.75, 0.0, 9.994053, 10.00179 
2.1946448e+3, 2.9622284e+2, -932139.2, -266189.66, -30329.445, -0.009480401, -0.14131427, -264811.2, -227814.3, 0.0, 9.993037, 10.001864 
2.194589e+3, 3.0622327e+2, -1016704.75, -215240.75, -29356.938, 0.06451456, -0.2997297, -214166.88, -214166.88, 0.0, 9.991838, 10.002457 
2.1945317e+3, 3.16226e+2, -1026420.3, 93106.766, -48795.504, 0.0016505228, -0.2522684, 95229.53, 95229.53, 0.0, 9.990425, 10.005255 
2.2056223e+3, 1.2630652e+2, -910899.7, -1691751.5, 17551.238, -0.06402168, -0.28516743, -910505.4, 791662.44, 0.41498852, 10.012083, 9.994382 
2.205565e+3, 1.3630137e+2, -872066.06, -1658191.1, 50045.945, -0.124813035, -0.27560067, -868892.9, 735327.7, 0.30510384, 10.009713, 9.995047 
2.2055069e+3, 1.4629689e+2, -714968.3, -1450243.8, 10986.191, -0.17077972, -0.28753084, -714804.2, 791460.94, 0.19115123, 10.008514, 9.996455 
2.2054496e+3, 1.5629353e+2, -595321.8, -1391272.3, 2524.2637, -0.059111595, -0.2500017, -595313.75, 812983.8, 0.09588373, 10.008025, 9.996347 
2.2053917e+3, 1.6629003e+2, -545988.5, -1297491.4, 7484.0293, -0.043827698, -0.23682663, -545913.94, 764418.7, 0.035309844, 10.0070915, 9.996758 
2.205333e+3, 1.762865e+2, -598877.5, -1282244.1, 10560.4375, -0.10283606, -0.24913096, -598714.4, 613653.94, 0.00794281, 10.005894, 9.996765 
2.2052749e+3, 1.8628366e+2, -594332.75, -1123172.3, 10394.215, -0.09886593, -0.2420664, -594128.56, 520268.34, 0.0005986269, 10.004752, 9.997735 
2.2052173e+3, 1.9628142e+2, -656275.3, -1102179.0, 10944.691, -0.05075995, -0.22402114, -656006.8, 360412.4, 0.00000003061151, 10.00365, 9.997738 
2.2051592e+3, 2.0627941e+2, -644047.1, -944933.8, 4099.59, -0.032519583, -0.22569324, -643991.25, 274447.25, 0.0, 10.002627, 9.998637 
2.2051011e+3, 2.162777e+2, -693168.6, -926512.44, -4339.9243, -0.03411123, -0.2437572, -693087.94, 127366.52, 0.0, 10.001654, 9.99856 
2.2050427e+3, 2.2627635e+2, -722072.75, -843149.3, -3221.5583, -0.040282693, -0.23759383, -721987.06, 481.6974, 0.0, 10.000582, 9.998976 
2.2049844e+3, 2.3627535e+2, -784603.25, -816522.8, 7075.2017, -0.048462976, -0.22024858, -783105.3, -158624.78, 0.0, 9.999453, 9.999029 
2.2049265e+3, 2.4627493e+2, -751368.6, -603149.44, 9930.595, -0.018259661, -0.21551299, -602487.06, -76002.28, 0.0, 9.998377, 10.0003395 
2.204869e+3, 2.5627506e+2, -809912.5, -586636.94, 339.43915, 0.035680506, -0.22145644, -586636.44, -158153.72, 0.0, 9.997327, 10.000287 
2.2048108e+3, 2.6627553e+2, -816764.06, -469003.84, 5462.6724, 0.019658796, -0.21671751, -468918.06, -138439.78, 0.0, 9.996306, 10.000913 
2.2047524e+3, 2.762763e+2, -871665.9, -447666.0, 7630.632, -0.036846004, -0.21621248, -447528.7, -215057.28, 0.0, 9.99527, 10.000887 
2.2046949e+3, 2.8627762e+2, -905966.75, -314924.8, 12429.594, -0.031156106, -0.19742012, -314663.53, -180204.58, 0.0, 9.993938, 10.001766 
2.2046377e+3, 2.962798e+2, -1001445.7, -290796.3, 8239.141, 0.0041021444, -0.14517012, -290700.78, -254262.27, 0.0, 9.992528, 10.00194 
2.2045803e+3, 3.0628055e+2, -1031108.94, -187739.6, 20370.895, 0.059088245, -0.29440725, -187247.84, -187247.84, 0.0, 9.991593, 10.002763 
2.2045222e+3, 3.1628457e+2, -993985.06, 119970.62, -1633.8004, 0.016419536, -0.13691954, 119973.016, 119973.016, 0.0, 9.990607, 10.005347 
2.2156332e+3, 1.2636416e+2, -923328.4, -1679120.1, -37096.383, -0.15405263, -0.35407695, -921511.94, 780089.44, 0.42261812, 10.011951, 9.994595 
2.215575e+3, 1.3636006e+2, -870718.4, -1640245.3, -2663.5745, -0.08434309, -0.25475115, -870709.2, 732935.2, 0.31070614, 10.009731, 9.995152 
2.2155157e+3, 1.463556e+2, -723960.56, -1472814.3, -894.385, -0.1246139, -0.25615123, -723959.5, 781729.2, 0.19472551, 10.008567, 9.996243 
2.215457e+3, 1.5635134e+2, -607611.3, -1415254.6, -13997.956, -0.10911865, -0.28953627, -607368.8, 800361.1, 0.09779381, 10.008025, 9.996173 
2.2153983e+3, 1.663478e+2, -542374.4, -1286443.5, -32869.91, -0.09574066, -0.2751443, -540925.1, 768839.8, 0.036125977, 10.007077, 9.996847 
2.2153388e+3, 1.7634481e+2, -593615.6, -1270261.9, -30510.248, -0.09411329, -0.24276468, -592242.7, 619552.56, 0.0081843855, 10.005886, 9.996854 
2.2152798e+3, 1.8634194e+2, -590921.56, -1117368.8, -28537.545, -0.079843625, -0.24749051, -589379.1, 524445.06, 0.0006317918, 10.004753, 9.997777 
2.2152206e+3, 1.963393e+2, -655109.1, -1101529.9, -27103.857, -0.055116378, -0.2726035, -653469.56, 362380.6, 0.000000067517966, 10.003653, 9.997744 
2.2151613e+3, 2.0633735e+2, -657079.0, -974025.7, -30175.346, -0.054943584, -0.25804022, -654231.7, 263638.0, 0.0, 10.002631, 9.998438 
2.215102e+3, 2.1633595e+2, -702526.2, -946516.2, -39033.516, -0.070092544, -0.22601423, -696433.75, 123450.13, 0.0, 10.001652, 9.998426 
2.215043e+3, 2.2633463e+2, -702716.44, -804114.06, -43967.258, -0.04376383, -0.2255418, -686307.2, 35590.31, 0.0, 10.000582, 9.999246 
2.2149841e+3, 2.3633349e+2, -769712.0, -787355.75, -33772.035, 0.0069564558, -0.24647295, -743628.6, -119719.56, 0.0, 9.999456, 9.99923 
2.2149248e+3, 2.4633314e+2, -769101.1, -642236.8, -29733.0, 0.0025958677, -0.23051155, -635614.06, -109700.81, 0.0, 9.998383, 10.000072 
2.2148655e+3, 2.5633338e+2, -824232.25, -619713.94, -38922.71, -0.03580764, -0.19770704, -612556.9, -184645.42, 0.0, 9.997337, 10.000057 
2.2148067e+3, 2.663337e+2, -813745.5, -465975.44, -34207.31, -0.028576663, -0.19684166, -462642.7, -132734.38, 0.0, 9.996315, 10.000932 
2.2147481e+3, 2.7633432e+2, -866737.25, -441990.56, -35990.703, 0.00913452, -0.21493235, -438962.5, -207060.23, 0.0, 9.995284, 10.000921 
2.2146893e+3, 2.8633535e+2, -905426.1, -315073.75, -43489.47, 0.01392056, -0.22740874, -311887.22, -177994.98, 0.0, 9.993939, 10.001767 
2.2146297e+3, 2.9633677e+2, -1000174.3, -285366.8, -36884.8, -0.015087004, -0.25094378, -283468.56, -247589.61, 0.0, 9.992511, 10.001987 
2.2145711e+3, 3.0634052e+2, -984404.1, -92120.055, -10725.723, -0.03138658, -0.13880084, -91991.14, -91991.14, 0.0, 9.991592, 10.003424 
2.2145131e+3, 3.163431e+2, -1097269.8, -107120.31, -12820.178, 0.057906277, -0.1829832, -106954.35, -106954.35, 0.0, 9.990658, 10.003765 
2.2256446e+3, 1.26424e+2, -1031154.8, -1725962.1, -5921.99, -0.15049392, -0.36117744, -1031104.4, 669910.06, 0.4301097, 10.010681, 9.994779 
2.2255847e+3, 1.3641994e+2, -796453.8, -1588714.6, 36337.19, -0.10767021, -0.26375926, -794790.75, 808265.5, 0.31610203, 10.010528, 9.995165 
2.2255246e+3, 1.4641531e+2, -626184.7, -1450745.8, 42587.395, -0.13370915, -0.26419112, -623990.94, 881111.3, 0.19809808, 10.009581, 9.99594 
2.2254649e+3, 1.5641068e+2, -607993.5, -1440619.4, 27727.654, -0.11608512, -0.30269146, -607071.2, 800076.5, 0.099562205, 10.008149, 9.995938 
2.2254048e+3, 1.6640708e+2, -565577.75, -1283668.0, 5656.626, -0.09983974, -0.29124224, -565533.2, 743650.2, 0.03687085, 10.006859, 9.996971 
2.2253445e+3, 1.7640421e+2, -619327.2, -1270687.6, 12052.024, -0.090804696, -0.25825414, -619104.25, 592107.8, 0.008402804, 10.005661, 9.996958 
2.2252841e+3, 1.8640134e+2, -608280.1, -1130461.3, 17725.867, -0.07657261, -0.25980935, -607679.06, 505561.6, 0.0006621151, 10.004659, 9.99773 
2.2252241e+3, 1.9639868e+2, -640147.2, -1097518.9, 11490.023, -0.057892505, -0.28146896, -639858.7, 375408.5, 0.00000012235222, 10.003774, 9.99771 
2.2251639e+3, 2.0639671e+2, -650200.3, -968194.94, 12520.332, -0.05846501, -0.26784563, -649708.1, 267578.94, 0.0, 10.002672, 9.998455 
2.2251035e+3, 2.1639529e+2, -730134.7, -955150.75, 18611.207, -0.070652, -0.23847921, -728605.75, 90695.87, 0.0, 10.001447, 9.998463 
2.2250435e+3, 2.2639404e+2, -720769.9, -797434.5, 15762.836, -0.045318637, -0.23794127, -717655.44, 3658.7334, 0.0, 10.000397, 9.999378 
2.2249834e+3, 2.3639305e+2, -764369.94, -773203.0, 15593.041, 0.003672801, -0.2570957, -752580.0, -129256.08, 0.0, 9.999448, 9.99933 
2.224923e+3, 2.4639265e+2, -770648.3, -658105.8, 22529.682, -0.00486134, -0.24030344, -653763.2, -128434.62, 0.0, 9.998443, 9.99993 
2.2248626e+3, 2.5639272e+2, -824561.2, -631738.44, 22320.324, -0.050121255, -0.2084076, -629188.5, -201859.7, 0.0, 9.997393, 9.999945 
2.2248025e+3, 2.6639298e+2, -824635.8, -471479.25, 27554.703, -0.03768519, -0.21062155, -469342.25, -140015.39, 0.0, 9.996248, 10.000923 
2.2247432e+3, 2.7639356e+2, -899449.94, -455402.94, 20620.656, 0.016313711, -0.22715129, -454447.44, -223126.33, 0.0, 9.995055, 10.0009365 
2.2246832e+3, 2.8639472e+2, -883997.7, -290055.75, 14843.336, 0.02188873, -0.2364873, -289685.03, -156375.33, 0.0, 9.994029, 10.001893 
2.2246224e+3, 2.9639605e+2, -921145.56, -243871.11, 31077.686, -0.022969326, -0.275979, -242448.05, -207151.78, 0.0, 9.993045, 10.002011 
2.2245623e+3, 3.0640012e+2, -958356.5, -81683.86, 25617.496, -0.044204157, -0.12603472, -80935.92, -80935.92, 0.0, 9.991786, 10.003398 
2.2245042e+3, 3.1640086e+2, -1151321.0, -185153.22, -6382.06, 0.103003226, -0.359967, -185111.06, -185111.06, 0.0, 9.99052, 10.003292 
2.2356555e+3, 1.2648572e+2, -1028591.8, -1699220.8, -11027.246, -0.09115869, -0.30968013, -1028410.5, 671999.3, 0.4376478, 10.010743, 9.994934 
2.2355942e+3, 1.3648082e+2, -808711.7, -1596289.4, 29998.334, -0.18439095, -0.29625005, -807570.7, 794887.1, 0.3214084, 10.010494, 9.995104 
2.2355334e+3, 1.4647588e+2, -656752.75, -1500078.5, 1039.8702, -0.18661362, -0.3026515, -656751.44, 847755.7, 0.20132826, 10.009536, 9.995543 
2.2354731e+3, 1.5647134e+2, -631545.6, -1487737.8, -16345.092, -0.08934394, -0.29261884, -631233.7, 775319.1, 0.101212, 10.008127, 9.995627 
2.2354119e+3, 1.664676e+2, -556363.0, -1263814.3, -34148.457, -0.06800266, -0.28862068, -554718.5, 753871.25, 0.03755063, 10.006855, 9.997116 
2.2353499e+3, 1.7646451e+2, -610663.8, -1255589.8, -27824.832, -0.094199166, -0.29320744, -609465.56, 601154.5, 0.00859858, 10.005671, 9.997059 
2.2352886e+3, 1.8646178e+2, -616972.2, -1151627.1, -12797.709, -0.08722205, -0.2771518, -616666.06, 495981.53, 0.00068931613, 10.004667, 9.997583 
2.2352278e+3, 1.9645944e+2, -646607.0, -1111379.6, -20581.848, -0.060328834, -0.2526736, -645697.3, 368974.44, 0.00000018696807, 10.003772, 9.997619 
2.2351664e+3, 2.0645738e+2, -635479.3, -938171.25, -31498.19, -0.045092523, -0.25692835, -632236.4, 284455.84, 0.0, 10.00267, 9.998666 
2.235105e+3, 2.1645562e+2, -717343.94, -929657.06, -23428.836, -0.038150586, -0.28049842, -714789.3, 103919.516, 0.0, 10.001447, 9.99864 
2.2350435e+3, 2.264545e+2, -721641.94, -801114.6, -18211.117, -0.046585254, -0.2735256, -717667.6, 3052.2764, 0.0, 10.000401, 9.999353 
2.234982e+3, 2.364539e+2, -765100.25, -776697.7, -19539.623, -0.061450094, -0.2517454, -750517.06, -127790.914, 0.0, 9.999452, 9.999306 
2.2349209e+3, 2.4645337e+2, -771407.0, -661411.4, -17240.766, -0.041131277, -0.24571499, -658772.4, -134040.61, 0.0, 9.9984455, 9.999908 
2.23486e+3, 2.56453e+2, -823928.6, -633294.2, -18390.63, -0.005524969, -0.255901, -631536.25, -204800.61, 0.0, 9.9974, 9.999933 
2.2347988e+3, 2.6645318e+2, -828109.1, -480176.8, -18504.57, -0.007128332, -0.26029047, -479195.44, -150460.61, 0.0, 9.99625, 10.000865 
2.2347376e+3, 2.7645394e+2, -900121.75, -457876.28, -22519.586, -0.019878272, -0.25482103, -456732.5, -226003.8, 0.0, 9.995055, 10.000922 
2.2346765e+3, 2.8645563e+2, -866236.5, -256221.1, -21783.92, -0.012235728, -0.22246733, -255444.17, -122732.56, 0.0, 9.994038, 10.002124 
2.2346152e+3, 2.964577e+2, -919710.56, -250335.05, -9122.305, -0.024864001, -0.21126871, -250210.75, -215520.89, 0.0, 9.99308, 10.001953 
2.2345547e+3, 3.0645895e+2, -1017307.1, -207812.06, -28850.584, 0.036204435, -0.28437215, -206785.13, -206785.13, 0.0, 9.991799, 10.002527 
2.234494e+3, 3.164617e+2, -1070352.1, -20974.469, -57740.496, 0.04363376, -0.26048756, -17806.941, -17806.941, 0.0, 9.990524, 10.004424 
2.245667e+3, 1.2654789e+2, -923390.7, -1648587.1, 90.26302, -0.079729274, -0.30438325, -923390.7, 776410.0, 0.44526497, 10.012191, 9.99486 
2.2456045e+3, 1.3654277e+2, -839916.1, -1621647.6, 36977.984, -0.17810994, -0.29836333, -838170.9, 763679.44, 0.3266808, 10.010276, 9.995024 
2.2455427e+3, 1.4653765e+2, -726604.5, -1524709.1, 21284.639, -0.16851872, -0.32562774, -726037.25, 777863.75, 0.20446159, 10.0089, 9.995671 
2.245481e+3, 1.5653332e+2, -668335.1, -1497093.3, 37512.758, -0.090385586, -0.3064337, -666640.6, 739303.7, 0.10276487, 10.007817, 9.995711 
2.2454184e+3, 1.665296e+2, -566353.9, -1286140.9, 29321.76, -0.07276506, -0.2937857, -565161.4, 742820.06, 0.03817195, 10.006871, 9.996946 
2.2453554e+3, 1.7652635e+2, -571459.0, -1251209.6, 15163.072, -0.09117003, -0.2940388, -571120.94, 638892.7, 0.008773979, 10.006011, 9.996923 
2.2452933e+3, 1.8652356e+2, -588807.4, -1135639.3, 26489.422, -0.08234293, -0.27899474, -587527.2, 524514.75, 0.00071386946, 10.004855, 9.997601 
2.2452313e+3, 1.9652121e+2, -679342.0, -1123728.8, 29309.533, -0.05827286, -0.25648507, -677417.25, 336648.94, 0.000000258046, 10.003536, 9.997645 
2.245169e+3, 2.0651919e+2, -663409.9, -941109.2, 17397.428, -0.04337733, -0.26058388, -662324.25, 253761.69, 0.0, 10.002439, 9.9987545 
2.2451064e+3, 2.1651752e+2, -709554.3, -917901.75, 16086.591, -0.033936366, -0.2839647, -708319.56, 109781.88, 0.0, 10.001471, 9.998708 
2.2450437e+3, 2.2651634e+2, -718485.4, -807677.75, 19189.611, -0.048064053, -0.27868912, -714532.0, 5581.0693, 0.0, 10.000462, 9.999276 
2.2449812e+3, 2.3651564e+2, -772073.44, -783590.25, 13983.83, -0.07386387, -0.2588494, -762708.8, -140588.31, 0.0, 9.999425, 9.999269 
2.2449192e+3, 2.4651508e+2, -776793.3, -645107.56, 21299.623, -0.04678671, -0.2629434, -641748.1, -117622.125, 0.0, 9.998333, 10.000072 
2.2448574e+3, 2.565147e+2, -844318.4, -628388.06, 32724.45, 0.007603328, -0.2862928, -623537.56, -197408.55, 0.0, 9.997203, 10.000059 
2.244795e+3, 2.6651502e+2, -843593.2, -495851.47, 36038.46, 0.00057071773, -0.27838767, -492155.88, -164028.4, 0.0, 9.996186, 10.000785 
2.2447324e+3, 2.765159e+2, -878523.94, -449885.94, 29539.826, -0.031566534, -0.25153887, -447859.78, -217738.69, 0.0, 9.995222, 10.000893 
2.2446704e+3, 2.865176e+2, -852560.56, -223660.69, 26023.867, -0.016945187, -0.23139375, -222585.67, -90481.875, 0.0, 9.994026, 10.002349 
2.244608e+3, 2.965197e+2, -970761.2, -261297.8, 36200.1, -0.0058212304, -0.23386832, -259455.48, -225375.2, 0.0, 9.992678, 10.0020685 
2.2445464e+3, 3.0652064e+2, -1044686.56, -260736.95, 56667.004, 0.044241846, -0.31894568, -256662.02, -256662.02, 0.0, 9.991789, 10.002166 
2.2444838e+3, 3.1652394e+2, -996303.2, 29010.598, 5402.726, -0.010944123, -0.21174318, 29039.064, 29039.064, 0.0, 9.990976, 10.004545 
2.2556788e+3, 1.2661071e+2, -948219.0, -1672227.4, -35763.254, -0.11194884, -0.31138897, -946456.7, 752728.06, 0.45280424, 10.0121355, 9.994595 
2.2556153e+3, 1.3660567e+2, -854472.8, -1641099.6, -3986.3386, -0.1123127, -0.2750237, -854452.6, 746782.06, 0.33186167, 10.010242, 9.994901 
2.255552e+3, 1.4660047e+2, -698943.2, -1457276.1, -8194.491, -0.102283865, -0.3361919, -698854.6, 804430.5, 0.20749596, 10.008897, 9.99622 
2.2554883e+3, 1.5659644e+2, -642439.6, -1439302.1, 3502.7847, -0.1168279, -0.3403384, -642424.2, 762899.75, 0.10423179, 10.007834, 9.996101 
2.2554249e+3, 1.6659285e+2, -596146.0, -1352646.9, 241.49094, -0.10716551, -0.3049251, -596145.94, 711214.3, 0.038740966, 10.006883, 9.996481 
2.2553614e+3, 1.7658955e+2, -597628.6, -1305185.6, -16229.699, -0.08328465, -0.26398283, -597256.56, 612137.94, 0.008931643, 10.006003, 9.996559 
2.255298e+3, 1.8658651e+2, -579587.7, -1115286.3, -20315.963, -0.06619532, -0.26706308, -578818.3, 532607.0, 0.0007363176, 10.004846, 9.997747 
2.2552346e+3, 1.9658385e+2, -670751.9, -1106544.4, -15505.27, -0.054100744, -0.29095057, -670200.94, 343250.84, 0.0000003336029, 10.003534, 9.9977665 
2.2551711e+3, 2.0658201e+2, -666113.6, -948972.94, -16399.193, -0.05331068, -0.27724424, -665166.0, 250303.42, 0.0, 10.002443, 9.9987 
2.2551075e+3, 2.1658081e+2, -713346.94, -927424.9, -17975.336, -0.05841871, -0.25000528, -711848.06, 105632.86, 0.0, 10.001472, 9.998643 
2.255044e+3, 2.2657943e+2, -728197.6, -828963.4, -18061.172, -0.049741883, -0.2548987, -725058.1, -5563.2764, 0.0, 10.000463, 9.999132 
2.2549807e+3, 2.3657814e+2, -775669.25, -793117.2, -24673.139, -0.033634506, -0.27975094, -758223.2, -136714.94, 0.0, 9.999429, 9.999204 
2.2549175e+3, 2.4657765e+2, -753173.8, -597603.3, -21735.746, -0.022754662, -0.2915858, -594623.56, -71111.1, 0.0, 9.998335, 10.000399 
2.254854e+3, 2.565778e+2, -826222.9, -593206.9, -9276.936, -0.016283207, -0.2984205, -592838.1, -167328.3, 0.0, 9.997208, 10.0003 
2.2547908e+3, 2.6657838e+2, -851628.1, -514568.06, -1245.0347, -0.017318083, -0.2635992, -514563.44, -187057.88, 0.0, 9.99619, 10.000657 
2.2547275e+3, 2.7657935e+2, -882249.1, -461068.13, -9356.818, -0.017636552, -0.21599111, -460860.34, -231361.38, 0.0, 9.995231, 10.0008135 
2.2546643e+3, 2.8658038e+2, -837870.6, -195018.55, -26654.902, 0.010133905, -0.2655786, -193915.23, -62427.89, 0.0, 9.994028, 10.002547 
2.2546008e+3, 2.9658186e+2, -949590.94, -218789.63, -12229.034, 0.033487707, -0.35091445, -218585.05, -185115.98, 0.0, 9.992678, 10.002363 
2.2545373e+3, 3.0658534e+2, -1027832.25, -229327.38, 35206.395, -0.033916883, -0.21682519, -227778.11, -227778.11, 0.0, 9.9918, 10.0023775 
2.254475e+3, 3.1658667e+2, -1057254.8, -106097.64, -109968.18, 0.03697094, -0.30040923, -93549.195, -93549.195, 0.0, 9.991004, 10.00361 
2.2656904e+3, 1.2667495e+2, -973072.6, -1683683.4, -11946.252, -0.108574755, -0.33896628, -972871.9, 725682.9, 0.45987222, 10.01197, 9.994531 
2.2656254e+3, 1.3667029e+2, -854705.56, -1634198.4, 37672.906, -0.09261413, -0.26656625, -852889.06, 747712.0, 0.33671507, 10.010279, 9.994936 
2.265561e+3, 1.4666495e+2, -684723.94, -1459497.1, 45403.848, -0.07202493, -0.33510882, -682072.2, 820581.0, 0.21032971, 10.009108, 9.996096 
2.2654961e+3, 1.5666084e+2, -595294.94, -1423366.1, 23542.8, -0.1152538, -0.33280116, -594626.2, 810066.7, 0.10558888, 10.008253, 9.996007 
2.2654316e+3, 1.6665715e+2, -567328.2, -1337385.3, 21303.799, -0.10770939, -0.3025523, -566739.25, 739990.7, 0.03925735, 10.007094, 9.996482 
2.2653672e+3, 1.7665373e+2, -630851.2, -1320553.3, 34864.855, -0.06884622, -0.27389547, -629093.2, 579671.94, 0.009072715, 10.005775, 9.996561 
2.2653027e+3, 1.866507e+2, -611028.44, -1127836.5, 33699.55, -0.05554224, -0.27582362, -608840.3, 501955.47, 0.00075658486, 10.004624, 9.997765 
2.2652377e+3, 1.966481e+2, -665211.4, -1101484.4, 28907.912, -0.057682514, -0.29163304, -663304.25, 349517.13, 0.00000039837454, 10.003567, 9.997783 
2.2651733e+3, 2.066462e+2, -658143.56, -950560.2, 30377.105, -0.059335534, -0.2817127, -655021.2, 259818.55, 0.0, 10.002525, 9.998647 
2.2651087e+3, 2.1664485e+2, -712626.8, -929412.5, 27693.42, -0.05998388, -0.26286122, -709145.0, 107707.71, 0.0, 10.001493, 9.998617 
2.2650442e+3, 2.266435e+2, -732920.25, -819524.3, 36631.125, -0.04618588, -0.2669711, -719504.5, -638.3538, 0.0, 10.000384, 9.999232 
2.26498e+3, 2.3664235e+2, -799483.06, -795815.1, 47817.69, -0.023457857, -0.28672424, -749796.25, -128918.12, 0.0, 9.999233, 9.999277 
2.2649156e+3, 2.4664189e+2, -775302.9, -615913.75, 39501.39, -0.01607805, -0.29160511, -606661.25, -83778.875, 0.0, 9.998221, 10.000325 
2.264851e+3, 2.5664207e+2, -818243.6, -590189.6, 21162.707, -0.01900133, -0.28947756, -588242.4, -163361.95, 0.0, 9.9972725, 10.000287 
2.2647867e+3, 2.666427e+2, -848819.56, -480591.22, 36069.72, -0.023764133, -0.26165873, -477091.28, -150216.5, 0.0, 9.996074, 10.000943 
2.2647224e+3, 2.7664378e+2, -942148.1, -464833.75, 57963.348, -0.021286849, -0.23081888, -457895.75, -229029.81, 0.0, 9.994719, 10.001032 
2.2646582e+3, 2.866448e+2, -881110.4, -228717.9, 40199.234, 0.02892145, -0.285278, -226250.25, -95395.15, 0.0, 9.9937935, 10.002426 
2.264594e+3, 2.9664624e+2, -885592.8, -188486.81, 28307.725, 0.080829754, -0.36196312, -187339.19, -154500.72, 0.0, 9.993127, 10.002351 
2.2645281e+3, 3.0665013e+2, -999331.06, -188526.92, 62369.35, -0.1029527, -0.19453514, -183757.34, -183757.34, 0.0, 9.991885, 10.002613 
2.2644661e+3, 3.166518e+2, -1116881.5, -85151.92, -73294.9, 0.09160175, -0.26513404, -79971.01, -79971.01, 0.0, 9.990388, 10.004046 
2.2757024e+3, 1.2674055e+2, -989583.94, -1680029.6, -42356.63, -0.09345433, -0.36283025, -986995.2, 710915.9, 0.4659115, 10.011796, 9.994658 
2.2756353e+3, 1.367364e+2, -850335.56, -1610781.3, -1399.4924, -0.11256376, -0.26905695, -850333.0, 749619.1, 0.34087774, 10.0103, 9.995081 
2.27557e+3, 1.4673084e+2, -720319.7, -1547867.3, 20548.975, -0.07070929, -0.32408273, -719809.75, 782197.75, 0.21278432, 10.009153, 9.995395 
2.2755043e+3, 1.5672636e+2, -630191.5, -1499271.6, -4987.2476, -0.0924926, -0.29063857, -630162.9, 773889.6, 0.10678035, 10.008235, 9.995497 
2.2754388e+3, 1.667224e+2, -545067.5, -1284704.4, -23531.21, -0.08367161, -0.2888102, -544319.6, 761771.9, 0.039713424, 10.007069, 9.996864 
2.275373e+3, 1.7671876e+2, -610360.9, -1277476.4, -9943.061, -0.050994325, -0.31963938, -610212.7, 597914.06, 0.009197523, 10.005771, 9.996861 
2.2753072e+3, 1.8671595e+2, -619150.0, -1147562.4, -3695.6514, -0.050270777, -0.30314264, -619124.2, 491030.63, 0.0007745194, 10.004631, 9.997629 
2.2752412e+3, 1.967138e+2, -672480.5, -1119141.9, -8024.7266, -0.069447994, -0.26089683, -672336.4, 339840.3, 0.0000004377447, 10.003572, 9.997662 
2.2751756e+3, 2.0671158e+2, -661830.2, -959524.8, -6352.2144, -0.062290575, -0.27501917, -661694.7, 252503.63, 0.0, 10.002526, 9.998588 
2.27511e+3, 2.1670951e+2, -712550.9, -929777.1, -8877.637, -0.04092164, -0.32240725, -712188.7, 104029.39, 0.0, 10.001491, 9.998618 
2.2750445e+3, 2.2670849e+2, -710875.56, -774805.8, -4939.359, -0.039217416, -0.3135086, -710496.2, 7731.7773, 0.0, 10.000384, 9.999541 
2.2749788e+3, 2.3670816e+2, -786206.75, -770085.44, 6853.6626, -0.04667308, -0.27893552, -767565.56, -147334.47, 0.0, 9.999235, 9.999455 
2.2749136e+3, 2.4670771e+2, -810052.3, -690008.8, 3431.0774, -0.028018067, -0.26282167, -689910.8, -167673.95, 0.0, 9.998224, 9.999818 
2.2748484e+3, 2.5670737e+2, -836844.4, -632314.6, -17300.41, -0.00036727273, -0.26005733, -630861.56, -206619.48, 0.0, 9.997282, 9.999995 
2.2747827e+3, 2.6670793e+2, -798396.06, -377169.2, -16923.441, -0.018257169, -0.2736372, -376490.34, -50254.34, 0.0, 9.996075, 10.001656 
2.2747165e+3, 2.767091e+2, -906236.8, -390539.06, 9675.053, -0.04803733, -0.29838935, -390357.63, -162135.28, 0.0, 9.994714, 10.001547 
2.2746518e+3, 2.8671065e+2, -916698.75, -304178.7, 15131.538, 0.035171777, -0.28959548, -303805.1, -173597.66, 0.0, 9.993795, 10.001909 
2.2745875e+3, 2.9671264e+2, -909811.5, -244783.84, -1109.8073, 0.13420121, -0.2642451, -244781.98, -212592.53, 0.0, 9.993147, 10.001957 
2.2745194e+3, 3.0671507e+2, -979330.9, -149708.16, -1989.1581, -0.1597144, -0.24445811, -149703.39, -149703.39, 0.0, 9.991891, 10.002881 
2.274456e+3, 3.1671762e+2, -993336.8, 167366.45, -27840.955, 0.08349972, -0.26778933, 168033.86, 168033.86, 0.0, 9.990398, 10.005778 
2.2857131e+3, 1.2680711e+2, -1114786.4, -1776402.1, -22373.543, -0.092726834, -0.34429795, -1114030.6, 583228.44, 0.4704504, 10.010255, 9.994641 
2.2856455e+3, 1.3680273e+2, -787999.56, -1563463.6, 7591.9346, -0.12515037, -0.29076812, -787925.25, 811376.4, 0.3440327, 10.010913, 9.995235 
2.2855793e+3, 1.4679725e+2, -650035.3, -1521729.3, 21470.262, -0.06685694, -0.3355132, -649506.75, 851849.8, 0.21468967, 10.009869, 9.995225 
2.2855124e+3, 1.5679291e+2, -662797.4, -1528266.5, 27188.18, -0.07869367, -0.2717757, -661944.1, 741457.1, 0.10774071, 10.008047, 9.995386 
2.2854456e+3, 1.6678894e+2, -575475.3, -1281218.3, 19928.32, -0.07473087, -0.2729993, -574913.0, 730526.8, 0.04009363, 10.006779, 9.9970255 
2.2853787e+3, 1.7678525e+2, -599623.7, -1257149.3, 19450.9, -0.052536722, -0.32368946, -599048.75, 608425.94, 0.009304435, 10.005786, 9.99699 
2.2853115e+3, 1.8678237e+2, -600274.94, -1141699.1, 28248.574, -0.05205863, -0.31528032, -598805.06, 510697.8, 0.00079013465, 10.004781, 9.997594 
2.2852446e+3, 1.9678017e+2, -645033.06, -1107336.8, 29185.063, -0.06739472, -0.2741405, -643197.9, 368327.3, 0.00000045012007, 10.003774, 9.9976425 
2.285178e+3, 2.0677797e+2, -650896.2, -949705.4, 33669.742, -0.05832312, -0.28824693, -647149.3, 266397.53, 0.0, 10.002588, 9.998622 
2.2851114e+3, 2.1677591e+2, -736215.25, -936786.5, 37059.355, -0.03499871, -0.33571336, -729586.9, 85979.48, 0.0, 10.001314, 9.998652 
2.2850446e+3, 2.2677493e+2, -715963.94, -772527.94, 35529.613, -0.03652535, -0.32280812, -698834.2, 18741.518, 0.0, 10.000334, 9.999578 
2.284978e+3, 2.3677471e+2, -746508.1, -747012.75, 26601.86, -0.049365867, -0.28120506, -720157.4, -100579.44, 0.0, 9.999496, 9.999485 
2.2849116e+3, 2.4677424e+2, -800778.2, -687898.25, 36203.484, -0.02860392, -0.2646125, -677284.75, -155700.72, 0.0, 9.998303, 9.999792 
2.2848454e+3, 2.5677383e+2, -888385.0, -655761.1, 50575.973, 0.005808321, -0.26564172, -645240.9, -221650.53, 0.0, 9.996927, 10.000003 
2.2847785e+3, 2.6677436e+2, -816884.3, -375768.28, 32799.945, -0.011754245, -0.28618982, -373342.75, -47758.45, 0.0, 9.995908, 10.001742 
2.2847115e+3, 2.7677557e+2, -852797.3, -359587.4, 12508.566, -0.041194845, -0.31629142, -359270.38, -131700.66, 0.0, 9.995063, 10.001589 
2.2846454e+3, 2.8677732e+2, -899116.44, -316812.84, 24038.373, 0.036278456, -0.27888277, -315822.2, -186268.67, 0.0, 9.994012, 10.001716 
2.28458e+3, 2.967794e+2, -972450.94, -290985.53, 26507.51, 0.11737498, -0.22346155, -289956.0, -258420.36, 0.0, 9.992792, 10.001808 
2.2845112e+3, 3.067807e+2, -1014148.06, -155381.1, 12785.233, -0.119578116, -0.31490502, -155190.8, -155190.8, 0.0, 9.99161, 10.0029745 
2.2844465e+3, 3.1678352e+2, -915607.75, 223705.66, 32882.555, 0.086669035, -0.3273654, 224653.92, 224653.92, 0.0, 9.990859, 10.005939 
2.295723e+3, 1.2687455e+2, -1111307.0, -1781484.1, 50.277042, -0.11499717, -0.29136965, -1111307.0, 585292.6, 0.47332934, 10.010386, 9.994538 
2.2956562e+3, 1.3686942e+2, -789522.75, -1551466.5, 14441.37, -0.13541727, -0.32766083, -789249.1, 809399.6, 0.34606892, 10.010844, 9.995394 
2.2955891e+3, 1.4686422e+2, -647702.6, -1495854.4, -31434.955, -0.06482899, -0.36339277, -646539.1, 854161.3, 0.2159694, 10.009787, 9.995453 
2.2955203e+3, 1.5686038e+2, -653371.0, -1502577.5, -27129.494, -0.07446248, -0.27250692, -652505.2, 750235.06, 0.10842375, 10.00803, 9.995573 
2.2954519e+3, 1.6685663e+2, -578201.8, -1289496.8, -13125.892, -0.079869926, -0.2561814, -577959.7, 726817.06, 0.0403788, 10.006787, 9.996964 
2.2953838e+3, 1.7685305e+2, -601340.8, -1262989.0, -14775.281, -0.07218061, -0.29041556, -601011.06, 605799.5, 0.009389166, 10.005791, 9.99695 
2.2953162e+3, 1.8684986e+2, -597794.56, -1136932.1, -6926.6807, -0.06111706, -0.31371123, -597705.6, 511135.63, 0.0008034216, 10.004777, 9.997631 
2.2952484e+3, 1.9684714e+2, -642288.44, -1100309.5, -7158.559, -0.053860012, -0.32949758, -642176.56, 368691.28, 0.00000044851242, 10.003763, 9.997699 
2.2951804e+3, 2.0684522e+2, -644519.0, -936949.25, -11983.623, -0.049237218, -0.32011864, -644028.75, 268857.6, 0.0, 10.002585, 9.9987135 
2.2951123e+3, 2.168439e+2, -732885.94, -931727.3, -5415.4614, -0.044050794, -0.303923, -732738.56, 82160.62, 0.0, 10.001316, 9.998689 
2.2950447e+3, 2.2684275e+2, -732951.3, -809554.1, 5959.7666, -0.038612057, -0.29621193, -732490.44, -15579.555, 0.0, 10.000337, 9.999326 
2.2949773e+3, 2.3684187e+2, -753976.94, -764958.94, -7660.212, -0.032396175, -0.29525894, -750043.0, -131122.94, 0.0, 9.999502, 9.999361 
2.2949097e+3, 2.4684143e+2, -768192.9, -621727.8, -16850.375, -0.01833665, -0.2981656, -619814.2, -98889.3, 0.0, 9.998305, 10.000248 
2.294842e+3, 2.568414e+2, -868393.94, -615259.4, 1789.8691, -0.005568929, -0.30695674, -615246.75, -192320.88, 0.0, 9.996926, 10.000284 
2.2947742e+3, 2.6684195e+2, -858648.3, -464671.78, 468.6121, -0.0062173847, -0.29928973, -464671.22, -139750.84, 0.0, 9.995912, 10.001133 
2.2947066e+3, 2.7684304e+2, -882733.25, -427881.0, -21719.84, 0.0020664246, -0.2828245, -426846.22, -199936.67, 0.0, 9.995084, 10.001113 
2.2946393e+3, 2.8684464e+2, -887502.0, -295961.3, -25300.32, 0.030977262, -0.25070184, -294881.2, -165986.73, 0.0, 9.99402, 10.001857 
2.2945715e+3, 2.9684648e+2, -967691.4, -278928.78, -24871.768, 0.015183357, -0.23399417, -278031.8, -247154.75, 0.0, 9.992777, 10.001902 
2.2945042e+3, 3.0684656e+2, -1021970.75, -172120.23, -24770.328, 0.038364176, -0.43936092, -171398.88, -171398.88, 0.0, 9.991605, 10.002865 
2.294437e+3, 3.1685126e+2, -1037024.06, -40381.27, 2173.7732, 0.059105355, -0.23972751, -40376.53, -40376.53, 0.0, 9.990907, 10.004104 
2.3057342e+3, 1.26943e+2, -971780.8, -1684352.5, 34477.43, -0.119014196, -0.27417392, -970116.5, 725813.44, 0.47464973, 10.012321, 9.994338 
2.3056665e+3, 1.369378e+2, -854600.44, -1579653.9, 40034.273, -0.12357254, -0.31114876, -852396.6, 745583.2, 0.34704745, 10.010155, 9.995426 
2.3055981e+3, 1.4693287e+2, -749817.06, -1527986.5, -10205.222, -0.053126764, -0.33718354, -749683.25, 750345.2, 0.2166263, 10.008779, 9.995705 
2.305528e+3, 1.5692885e+2, -659704.5, -1482172.6, -51.72373, -0.07329109, -0.28527176, -659704.5, 742364.44, 0.10879885, 10.007888, 9.995777 
2.3054585e+3, 1.6692515e+2, -556432.1, -1279895.4, 26766.809, -0.08396358, -0.27270508, -555443.1, 748661.8, 0.040543243, 10.006954, 9.996949 
2.3053893e+3, 1.7692171e+2, -572578.44, -1247188.8, 27123.121, -0.07981169, -0.2880136, -571489.7, 634647.6, 0.009442171, 10.00599, 9.99696 
2.3053205e+3, 1.8691856e+2, -591375.3, -1123256.1, 32127.605, -0.06317091, -0.3123468, -589441.75, 518725.78, 0.00081348186, 10.004783, 9.997719 
2.3052517e+3, 1.9691578e+2, -681840.9, -1111788.3, 33837.82, -0.045320205, -0.34135875, -679194.06, 331000.34, 0.00000046030908, 10.003465, 9.997761 
2.3051827e+3, 2.0691386e+2, -666861.6, -953611.5, 26306.271, -0.046286713, -0.3306464, -664468.25, 247744.67, 0.0, 10.002462, 9.998655 
2.3051135e+3, 2.1691257e+2, -694152.56, -918116.5, 21625.81, -0.053577688, -0.30389136, -692083.5, 122142.14, 0.0, 10.001611, 9.998637 
2.305045e+3, 2.2691132e+2, -722981.06, -810223.5, 38415.137, -0.041190494, -0.29815158, -708477.1, 7761.2876, 0.0, 10.000434, 9.999271 
2.3049766e+3, 2.369103e+2, -813511.5, -794778.4, 39051.25, -0.018500946, -0.30583203, -763986.06, -145736.77, 0.0, 9.999103, 9.999347 
2.3049077e+3, 2.4690993e+2, -781788.56, -609849.44, 19851.58, -0.013641708, -0.3088387, -607587.25, -87334.04, 0.0, 9.9981365, 10.000408 
2.3048386e+3, 2.5691006e+2, -803900.3, -572928.06, 16481.371, -0.020584723, -0.313356, -571757.94, -149506.2, 0.0, 9.997325, 10.0003805 
2.30477e+3, 2.6691055e+2, -816194.3, -464225.6, 32781.293, -0.00691194, -0.30607685, -461198.47, -136951.14, 0.0, 9.996295, 10.000949 
2.304702e+3, 2.769114e+2, -882186.7, -442327.9, 40862.62, 0.031250183, -0.2923779, -438564.0, -212324.63, 0.0, 9.995156, 10.000976 
2.3046331e+3, 2.8691304e+2, -892863.0, -291316.03, 34266.64, 0.033692576, -0.25421733, -289370.38, -161146.3, 0.0, 9.9939575, 10.001917 
2.3045637e+3, 2.96915e+2, -978687.25, -282479.8, 25934.271, -0.027260939, -0.22596684, -281515.06, -251310.27, 0.0, 9.992698, 10.001914 
2.3044963e+3, 3.0691472e+2, -995048.5, -178688.77, 39254.418, 0.10502808, -0.45977396, -176805.56, -176805.56, 0.0, 9.991876, 10.002688 
2.3044272e+3, 3.169198e+2, -1034468.6, -107459.74, 24535.822, -0.01456284, -0.19782816, -106810.79, -106810.79, 0.0, 9.991227, 10.003484 
2.3157461e+3, 1.270122e+2, -984514.5, -1713529.8, -2375.3967, -0.11540377, -0.2954935, -984506.75, 710745.94, 0.47451147, 10.012262, 9.9941025 
2.3156768e+3, 1.3700762e+2, -859788.25, -1587400.8, -5977.8853, -0.09953688, -0.25205562, -859739.1, 737558.0, 0.34702173, 10.01013, 9.995356 
2.3156069e+3, 1.4700292e+2, -736008.5, -1495472.9, -33709.375, -0.038182095, -0.2689043, -734515.25, 764827.75, 0.21665399, 10.008785, 9.995934 
2.3155357e+3, 1.5699822e+2, -646084.44, -1454051.9, -27010.37, -0.0761788, -0.30762643, -645182.5, 756206.0, 0.10882542, 10.007897, 9.995969 
2.3154654e+3, 1.6699436e+2, -556142.94, -1279562.0, -5011.341, -0.0879778, -0.31635317, -556108.25, 747317.1, 0.040551975, 10.006949, 9.996957 
2.3153953e+3, 1.7699113e+2, -573573.1, -1245214.0, -8125.4443, -0.07813374, -0.31369022, -573474.8, 631981.3, 0.009448968, 10.005967, 9.996986 
2.3153251e+3, 1.8698831e+2, -585756.06, -1110661.1, -15178.365, -0.06072436, -0.31161058, -585317.5, 522165.7, 0.0008183882, 10.004773, 9.997812 
2.315255e+3, 1.969859e+2, -678010.6, -1106799.9, -10200.971, -0.043773986, -0.31222126, -677768.06, 331738.53, 0.0000005206696, 10.003471, 9.997794 
2.3151848e+3, 2.0698367e+2, -680209.7, -984056.7, -3344.497, -0.0496922, -0.32076013, -680172.94, 231355.31, 0.0, 10.002469, 9.998446 
2.3151147e+3, 2.1698175e+2, -704098.1, -939209.8, -10950.875, -0.06459117, -0.33650452, -703589.2, 109957.83, 0.0, 10.001608, 9.998497 
2.3150451e+3, 2.2698055e+2, -714982.6, -794272.3, -10103.25, -0.045184392, -0.32842082, -713715.5, 1843.8711, 0.0, 10.000432, 9.999385 
2.3149756e+3, 2.3697987e+2, -808357.3, -785448.56, -6623.37, -0.010683428, -0.31225365, -783671.44, -166104.7, 0.0, 9.999104, 9.9994135 
2.3149058e+3, 2.4697962e+2, -792798.8, -634853.9, -10877.378, -0.016122099, -0.2957778, -634108.3, -114538.37, 0.0, 9.99814, 10.0002365 
2.3148355e+3, 2.569798e+2, -807873.4, -586474.56, -17180.607, -0.04104144, -0.28271526, -585149.25, -163580.11, 0.0, 9.997343, 10.000281 
2.314766e+3, 2.6698008e+2, -796028.56, -426554.88, -12349.486, -0.014853518, -0.3065632, -426142.56, -102576.44, 0.0, 9.996307, 10.0012045 
2.3146968e+3, 2.769806e+2, -866121.2, -410459.5, -2674.626, 0.04016167, -0.3491422, -410443.8, -184883.94, 0.0, 9.995157, 10.001197 
2.314627e+3, 2.8698245e+2, -895536.8, -297533.4, -12974.313, 0.04426999, -0.2943609, -297252.06, -169709.23, 0.0, 9.993955, 10.001879 
2.3145564e+3, 2.9698506e+2, -983248.1, -296596.63, -17163.086, 0.0020535265, -0.20241189, -296167.9, -266648.6, 0.0, 9.992711, 10.001814 
2.3144875e+3, 3.0698544e+2, -1014926.44, -227071.14, 18941.914, 0.05090325, -0.34054634, -226615.98, -226615.98, 0.0, 9.9919, 10.002347 
2.3144187e+3, 3.1698865e+2, -936554.0, 93937.195, -94611.42, 0.052268505, -0.2461578, 102551.64, 102551.64, 0.0, 9.991229, 10.004869 
2.325758e+3, 1.2708303e+2, -1001437.75, -1717954.1, 6634.591, -0.12362289, -0.27235383, -1001376.3, 693182.75, 0.47275874, 10.0119505, 9.994222 
2.325687e+3, 1.3707824e+2, -849936.44, -1577584.5, 11775.5205, -0.06653584, -0.25698864, -849745.94, 746859.6, 0.34585887, 10.0101795, 9.995432 
2.3256157e+3, 1.4707376e+2, -705145.0, -1471930.8, 13590.741, -0.016362501, -0.25677285, -704904.2, 793744.25, 0.21594186, 10.009006, 9.996029 
2.3255435e+3, 1.5706886e+2, -605003.9, -1420538.3, 16255.866, -0.0790771, -0.3245865, -604680.0, 796015.1, 0.10842119, 10.008169, 9.996063 
2.325472e+3, 1.6706502e+2, -557883.5, -1275164.3, 28383.69, -0.085238345, -0.33867458, -556762.06, 745969.9, 0.04035807, 10.00692, 9.996998 
2.3254009e+3, 1.7706193e+2, -641286.06, -1274481.1, 29085.787, -0.057790697, -0.32356268, -639952.8, 564808.6, 0.009392579, 10.005487, 9.997013 
2.3253296e+3, 1.8705916e+2, -622777.4, -1133743.5, 23138.355, -0.052370183, -0.31268916, -621731.7, 485056.63, 0.00081569265, 10.004548, 9.997759 
2.3252583e+3, 1.9705673e+2, -628627.25, -1086808.6, 17229.309, -0.059504047, -0.3079033, -627980.25, 380831.97, 0.0000006510747, 10.003835, 9.997753 
2.325187e+3, 2.0705442e+2, -644072.3, -968631.06, 27245.688, -0.058748018, -0.32065475, -641801.06, 269033.7, 0.0, 10.002732, 9.998422 
2.3251162e+3, 2.170524e+2, -726932.8, -949875.06, 30332.217, -0.05348706, -0.34438857, -722879.7, 89974.88, 0.0, 10.001454, 9.998494 
2.3250452e+3, 2.270512e+2, -718217.56, -788152.75, 30537.244, -0.042138536, -0.3375248, -706760.44, 8106.1455, 0.0, 10.000381, 9.999449 
2.3249744e+3, 2.370506e+2, -763941.3, -758708.3, 32228.041, -0.026408479, -0.31863558, -728990.75, -112117.71, 0.0, 9.999392, 9.9994545 
2.3249036e+3, 2.4705036e+2, -778014.5, -634477.94, 38332.9, -0.020430123, -0.29803404, -624882.25, -106005.84, 0.0, 9.998278, 10.000171 
2.3248328e+3, 2.5705048e+2, -844738.44, -607114.9, 38339.06, -0.019375406, -0.2791906, -601082.25, -180205.98, 0.0, 9.9971075, 10.00025 
2.3247619e+3, 2.670508e+2, -826953.06, -427159.1, 34907.824, -0.005457447, -0.30123246, -424134.0, -101261.46, 0.0, 9.996039, 10.0013275 
2.3246914e+3, 2.7705142e+2, -884712.25, -407943.25, 32108.041, 0.01771615, -0.34925586, -405790.66, -180925.16, 0.0, 9.994986, 10.001295 
2.3246206e+3, 2.8705314e+2, -875879.25, -284376.78, 22692.682, 0.03791892, -0.31085923, -283507.47, -156657.66, 0.0, 9.994081, 10.001905 
2.3245496e+3, 2.9705572e+2, -902507.5, -257641.34, 21884.0, 0.049073197, -0.21928406, -256899.55, -228072.98, 0.0, 9.993273, 10.001806 
2.3244788e+3, 3.0705687e+2, -1028013.25, -250329.58, 67800.13, 0.019145224, -0.27405125, -244462.88, -244462.88, 0.0, 9.991888, 10.002192 
2.32441e+3, 3.1705898e+2, -1010091.7, 156322.38, -48186.81, 0.10440958, -0.2770183, 158309.67, 158309.67, 0.0, 9.990308, 10.005741 
2.3357692e+3, 1.2715502e+2, -986733.56, -1680817.8, -21624.994, -0.15036422, -0.23847611, -986060.5, 707793.44, 0.4689163, 10.011904, 9.994571 
2.3356973e+3, 1.371496e+2, -841212.75, -1563098.0, -24597.79, -0.028657833, -0.31042352, -840375.56, 755530.3, 0.34319517, 10.010161, 9.995589 
2.3356247e+3, 1.4714538e+2, -704669.9, -1476183.9, -8471.429, 0.008871356, -0.28694057, -704576.9, 793368.9, 0.21425812, 10.0090065, 9.995994 
2.3355512e+3, 1.5714063e+2, -605297.75, -1422819.8, -12543.523, -0.08456303, -0.3369946, -605105.3, 794885.3, 0.10746714, 10.008161, 9.996056 
2.3354788e+3, 1.6713688e+2, -554627.75, -1269746.3, -20589.246, -0.07852247, -0.3435849, -554035.44, 747991.1, 0.039913654, 10.006918, 9.997041 
2.3354065e+3, 1.7713393e+2, -639581.2, -1274861.1, -16025.689, -0.02254212, -0.31876338, -639177.1, 564877.75, 0.009259077, 10.005498, 9.997008 
2.335334e+3, 1.8713097e+2, -635208.06, -1162280.9, -733.2772, -0.03990911, -0.31463414, -635207.0, 470877.2, 0.0008031341, 10.004554, 9.997563 
2.3352614e+3, 1.9712818e+2, -638512.2, -1106212.9, -10603.707, -0.092142455, -0.32838944, -638271.9, 369840.53, 0.0000008441148, 10.003824, 9.997627 
2.3351894e+3, 2.0712599e+2, -636333.5, -952271.8, -18372.498, -0.073571645, -0.3303541, -635268.7, 274864.97, 0.0, 10.002726, 9.99854 
2.3351176e+3, 2.1712433e+2, -720020.6, -936605.94, -12356.767, -0.023730615, -0.3281983, -719317.9, 92831.7, 0.0, 10.001454, 9.998589 
2.3350453e+3, 2.2712314e+2, -717409.6, -788397.9, -5043.481, -0.033822354, -0.3251417, -717053.1, -2891.7683, 0.0, 10.000384, 9.999448 
2.3349732e+3, 2.3712234e+2, -762629.94, -758238.0, -5773.3306, -0.06798212, -0.32539484, -754257.1, -138087.83, 0.0, 9.999396, 9.999458 
2.3349015e+3, 2.4712199e+2, -775598.06, -631631.56, -6898.307, -0.026323287, -0.3167094, -631301.75, -113128.16, 0.0, 9.9982815, 10.000191 
2.3348303e+3, 2.5712207e+2, -843354.25, -605304.56, -5032.2446, 0.04483165, -0.30473953, -605198.25, -185024.3, 0.0, 9.9971075, 10.000265 
2.334758e+3, 2.6712278e+2, -830972.6, -435671.84, -6001.153, 0.02022184, -0.28869355, -435580.75, -113413.44, 0.0, 9.996034, 10.001274 
2.3346855e+3, 2.7712384e+2, -887107.6, -416051.0, -7716.5957, -0.04296495, -0.28491515, -415924.63, -191768.1, 0.0, 9.994993, 10.001238 
2.3346142e+3, 2.87125e+2, -870053.7, -277600.28, -8938.441, 0.011494092, -0.30205753, -277465.44, -151319.56, 0.0, 9.994098, 10.001946 
2.3345435e+3, 2.9712683e+2, -892958.3, -245430.06, -14081.844, 0.113750234, -0.2888069, -245123.97, -216995.2, 0.0, 9.9932995, 10.001881 
2.3344705e+3, 3.0712888e+2, -1019429.6, -230064.69, -1505.3738, 0.013758603, -0.26720512, -230061.81, -230061.81, 0.0, 9.991873, 10.00234 
2.3343992e+3, 3.1713045e+2, -1049167.5, 76635.59, 19360.965, 0.026195135, -0.334913, 76968.45, 76968.45, 0.0, 9.9902935, 10.005204 
2.3457812e+3, 1.2722847e+2, -976571.3, -1683110.6, 15609.892, -0.1288525, -0.26232982, -976226.6, 716905.6, 0.4623661, 10.011946, 9.994514 
2.3457073e+3, 1.3722278e+2, -841495.5, -1581544.1, 2821.5103, -0.017435417, -0.33261967, -841484.7, 753702.6, 0.3385626, 10.010208, 9.995369 
2.3456335e+3, 1.4721861e+2, -703246.0, -1476899.9, 38453.16, 0.013016468, -0.29180872, -701339.44, 795887.5, 0.21132581, 10.009004, 9.99598 
2.3455593e+3, 1.5721375e+2, -617191.7, -1432172.3, 36797.707, -0.0712035, -0.3499785, -615533.56, 783739.44, 0.10584426, 10.008073, 9.996031 
2.3454854e+3, 1.6720998e+2, -549916.75, -1274989.9, 15826.293, -0.06820882, -0.35221022, -549571.44, 751737.94, 0.03918315, 10.006986, 9.996966 
2.345412e+3, 1.7720705e+2, -596051.4, -1260362.9, 16017.16, -0.021643512, -0.31509987, -595665.44, 607672.25, 0.009040109, 10.005836, 9.996942 
2.3453383e+3, 1.8720396e+2, -623548.1, -1160557.0, 45231.566, -0.03679366, -0.31752172, -619765.0, 485603.44, 0.00077866006, 10.004658, 9.997521 
2.3452649e+3, 1.9720095e+2, -689572.8, -1129551.9, 42977.438, -0.081758216, -0.34677225, -685414.06, 321984.7, 0.000001041521, 10.003474, 9.997633 
2.3451918e+3, 2.0719895e+2, -664931.2, -948559.9, 36006.01, -0.07155232, -0.34088174, -660431.7, 248986.66, 0.0, 10.00246, 9.998691 
2.345119e+3, 2.1719758e+2, -704249.0, -916684.2, 43805.42, -0.034628004, -0.3191871, -695570.56, 115860.32, 0.0, 10.001516, 9.998692 
2.3450457e+3, 2.271963e+2, -711758.06, -794584.4, 49890.645, -0.039065387, -0.3220614, -688332.0, 25111.547, 0.0, 10.000468, 9.999362 
2.3449723e+3, 2.3719525e+2, -769113.5, -765509.6, 42766.086, -0.06013668, -0.339578, -724507.5, -109053.33, 0.0, 9.999374, 9.999416 
2.3448996e+3, 2.471949e+2, -764511.7, -616041.8, 41567.99, -0.02158329, -0.33326456, -605196.06, -87737.73, 0.0, 9.998319, 10.0002775 
2.3448272e+3, 2.571951e+2, -817370.3, -586791.56, 47583.117, 0.042660672, -0.31725395, -577358.06, -157900.72, 0.0, 9.997267, 10.000313 
2.3447539e+3, 2.6719576e+2, -815814.44, -443807.2, 45000.445, 0.022726243, -0.29392484, -438441.03, -116989.91, 0.0, 9.996212, 10.001129 
2.3446804e+3, 2.771968e+2, -871956.4, -418782.13, 35878.754, -0.031767946, -0.27827376, -415959.1, -192517.78, 0.0, 9.995148, 10.001142 
2.3446082e+3, 2.871979e+2, -874463.94, -275516.0, 36823.605, 0.016318304, -0.29883808, -273260.56, -147829.38, 0.0, 9.994055, 10.001979 
2.3445362e+3, 2.9719952e+2, -951348.6, -278326.6, 25458.229, 0.107698075, -0.3062687, -277364.94, -249949.33, 0.0, 9.992925, 10.001833 
2.3444621e+3, 3.0720153e+2, -1028850.75, -232472.14, 6284.6353, 0.02543956, -0.2824082, -232422.55, -232422.55, 0.0, 9.991805, 10.002353 
2.3443899e+3, 3.1720382e+2, -1015777.6, 88900.336, 90984.84, 0.08748255, -0.28278884, 96343.984, 96343.984, 0.0, 9.990553, 10.0051565 
2.3557934e+3, 1.2730296e+2, -986274.3, -1736629.1, -19016.076, -0.0825842, -0.3397149, -985792.75, 706605.44, 0.45274913, 10.011834, 9.994151 
2.355717e+3, 1.372975e+2, -855180.75, -1645953.1, -34043.89, -0.031111596, -0.330972, -853717.8, 740735.3, 0.33167386, 10.010218, 9.994884 
2.355642e+3, 1.4729321e+2, -698919.75, -1482004.5, 14012.307, -0.0004722616, -0.2784308, -698669.06, 797825.56, 0.20697875, 10.009025, 9.995928 
2.3555674e+3, 1.5728804e+2, -622081.5, -1444465.8, 6350.1533, -0.04331311, -0.36328703, -622032.5, 776511.6, 0.10349217, 10.008052, 9.995958 
2.3554921e+3, 1.6728413e+2, -563992.94, -1303699.1, -23002.129, -0.056860533, -0.36293775, -563278.4, 737303.6, 0.038155377, 10.006969, 9.996774 
2.3554172e+3, 1.7728116e+2, -604926.2, -1280553.9, -23388.02, -0.05224061, -0.3133538, -604117.56, 598493.6, 0.0087338975, 10.005835, 9.996806 
2.3553428e+3, 1.87278e+2, -618341.9, -1151706.3, 3708.3503, -0.04210468, -0.32200134, -618316.1, 486326.38, 0.00074096443, 10.004661, 9.997583 
2.3552686e+3, 1.9727494e+2, -682989.56, -1117173.6, 3527.5024, -0.033569694, -0.3629271, -682960.94, 323711.97, 0.0000011539311, 10.003474, 9.99772 
2.3551941e+3, 2.0727311e+2, -652516.1, -924723.56, 2936.552, -0.055534568, -0.35068735, -652484.44, 256205.73, 0.0, 10.002463, 9.998856 
2.3551194e+3, 2.1727203e+2, -698494.9, -905252.5, 9574.949, -0.08684452, -0.31804106, -698052.4, 112647.51, 0.0, 10.001513, 9.998775 
2.3550457e+3, 2.2727059e+2, -724705.9, -822809.75, 10345.749, -0.057252903, -0.32899654, -723626.75, -10912.327, 0.0, 10.000469, 9.99917 
2.3549719e+3, 2.372692e+2, -776188.8, -782416.7, 2634.778, -0.004631069, -0.36135238, -775223.7, -160494.86, 0.0, 9.999379, 9.999301 
2.3548977e+3, 2.4726896e+2, -754029.6, -596920.44, 1279.9297, -0.008894271, -0.34648904, -596910.06, -80178.62, 0.0, 9.998324, 10.000408 
2.3548235e+3, 2.5726944e+2, -811607.3, -578872.2, 7382.287, -0.035020195, -0.31523257, -578638.25, -159911.19, 0.0, 9.997278, 10.000364 
2.3547497e+3, 2.672697e+2, -832785.0, -482529.25, 3413.0918, 0.0008605585, -0.31989756, -482495.97, -161771.06, 0.0, 9.996222, 10.00086 
2.3546763e+3, 2.7727014e+2, -882205.4, -442555.1, -5212.9966, 0.061933253, -0.33859065, -442493.3, -219772.05, 0.0, 9.995153, 10.000978 
2.3546024e+3, 2.872718e+2, -873257.7, -272981.28, -7145.0195, 0.053776007, -0.3000613, -272896.25, -148190.19, 0.0, 9.994049, 10.002002 
2.3545279e+3, 2.9727396e+2, -966435.75, -309829.47, -17418.84, 0.0092708515, -0.25432456, -309367.7, -282682.0, 0.0, 9.992919, 10.001622 
2.3544541e+3, 3.0727452e+2, -1045649.7, -271508.75, -35961.426, 0.061667044, -0.34330994, -269841.8, -269841.8, 0.0, 9.991817, 10.002082 
2.3543806e+3, 3.1727806e+2, -970795.75, 178127.03, -1144.8914, 0.13972086, -0.22137745, 178128.17, 178128.17, 0.0, 9.990563, 10.005769 
2.3658045e+3, 1.273788e+2, -1042360.2, -1769904.8, -2751.26, -0.0796114, -0.36235285, -1042349.75, 649303.06, 0.4402783, 10.010822, 9.994408 
2.365727e+3, 1.373732e+2, -797771.8, -1616684.6, 4109.5396, -0.033722866, -0.3692248, -797751.2, 795957.4, 0.32265073, 10.010719, 9.994839 
2.3656508e+3, 1.4736885e+2, -659068.75, -1488820.8, 47286.418, -0.008308172, -0.3019431, -656382.7, 839368.75, 0.20127964, 10.009451, 9.995658 
2.365575e+3, 1.573637e+2, -672989.4, -1494938.0, 34699.61, -0.040340703, -0.35777003, -671527.06, 726274.94, 0.1004436, 10.007743, 9.995758 
2.3654988e+3, 1.673596e+2, -601734.44, -1322562.9, 22900.71, -0.049184572, -0.3664695, -601007.6, 698834.1, 0.03684554, 10.006699, 9.99677 
2.3654228e+3, 1.7735635e+2, -591301.9, -1271501.9, 32360.68, -0.045666717, -0.34108922, -589765.8, 612107.4, 0.008344469, 10.005923, 9.996822 
2.3653471e+3, 1.873533e+2, -594977.9, -1132045.0, 54918.29, -0.039390754, -0.3422788, -589419.7, 514483.44, 0.00069013133, 10.004791, 9.997652 
2.365272e+3, 1.9735049e+2, -674203.56, -1107887.5, 56355.36, -0.03314515, -0.36212218, -667000.1, 338930.7, 0.0000011146645, 10.00352, 9.997759 
2.3651963e+3, 2.0734856e+2, -656633.5, -936071.2, 51494.957, -0.051326875, -0.3557853, -647446.0, 260503.47, 0.0, 10.0024805, 9.998766 
2.3651208e+3, 2.1734722e+2, -697978.2, -909121.56, 38158.855, -0.07782247, -0.33996972, -691293.56, 118668.695, 0.0, 10.001539, 9.998733 
2.3650458e+3, 2.2734581e+2, -719264.44, -809603.44, 43801.797, -0.054755386, -0.3485549, -701514.3, 10461.845, 0.0, 10.000466, 9.99926 
2.3649709e+3, 2.3734461e+2, -779049.9, -778045.94, 57777.195, -0.009735487, -0.37016594, -720768.5, -106780.05, 0.0, 9.999342, 9.999346 
2.3648958e+3, 2.4734433e+2, -751152.6, -609501.6, 53323.96, -0.013959065, -0.3514258, -591672.2, -75680.53, 0.0, 9.998412, 10.000277 
2.3648205e+3, 2.5734466e+2, -780978.06, -575064.3, 37681.676, -0.039073274, -0.31971878, -568385.3, -150396.28, 0.0, 9.997541, 10.00026 
2.3647456e+3, 2.6734474e+2, -811032.3, -474752.94, 33697.543, 0.000015461726, -0.33377114, -471409.44, -151421.08, 0.0, 9.996389, 10.00083 
2.3646714e+3, 2.7734503e+2, -889124.06, -447762.6, 42039.01, 0.07352248, -0.36556408, -443794.13, -221807.97, 0.0, 9.995123, 10.000954 
2.3645961e+3, 2.8734672e+2, -873342.1, -275862.0, 42029.008, 0.068101324, -0.3164837, -272920.0, -148949.67, 0.0, 9.99407, 10.001968 
2.3645206e+3, 2.9734904e+2, -946335.8, -300806.8, 26229.432, 0.0062198453, -0.25161144, -299742.78, -273794.1, 0.0, 9.993069, 10.001608 
2.3644456e+3, 3.073492e+2, -1025525.25, -271199.38, 32992.082, 0.05170083, -0.3689111, -269759.13, -269759.13, 0.0, 9.992002, 10.001993 
2.3643707e+3, 3.173513e+2, -961310.25, 125948.04, 8098.147, 0.090568535, -0.37936014, 126008.35, 126008.35, 0.0, 9.990879, 10.005255 
2.3758145e+3, 1.2745573e+2, -1009081.8, -1688422.9, -4257.45, -0.11230546, -0.35100818, -1009055.1, 681843.0, 0.42571566, 10.010719, 9.995024 
2.3757376e+3, 1.3744977e+2, -784004.94, -1591218.0, -8101.1553, -0.03446239, -0.4360987, -783923.6, 809031.1, 0.31200576, 10.010621, 9.995065 
2.3756601e+3, 1.4744541e+2, -682277.2, -1557177.8, -4942.428, -0.018265828, -0.34983045, -682249.3, 812749.25, 0.19451316, 10.009406, 9.995204 
2.3755823e+3, 1.5744051e+2, -688757.8, -1540468.5, -13762.607, -0.05865658, -0.33644274, -688535.5, 708513.0, 0.09682537, 10.007748, 9.995445 
2.3755054e+3, 1.6743617e+2, -590661.7, -1304086.9, -1764.721, -0.043692175, -0.3659737, -590657.4, 708433.2, 0.03529924, 10.006706, 9.996896 
2.375429e+3, 1.7743249e+2, -584381.75, -1256972.3, 1882.8104, -0.007856756, -0.3954648, -584376.44, 616748.75, 0.007884398, 10.005916, 9.996928 
2.3753518e+3, 1.8742973e+2, -591654.5, -1125264.0, 8827.04, -0.03183215, -0.3750804, -591508.5, 511643.44, 0.0006282468, 10.0047865, 9.997704 
2.3752746e+3, 1.9742747e+2, -677070.2, -1114979.9, 13785.236, -0.07822464, -0.34600487, -676636.6, 328537.66, 0.00000092378025, 10.003519, 9.997713 
2.3751985e+3, 2.074251e+2, -679769.75, -986280.25, 18312.563, -0.0575404, -0.3574614, -678679.56, 228518.2, 0.0, 10.002485, 9.998423 
2.3751228e+3, 2.1742302e+2, -710413.9, -936231.8, 3910.197, -0.012689117, -0.38409394, -710346.2, 98872.766, 0.0, 10.001539, 9.998549 
2.3750462e+3, 2.2742191e+2, -693735.75, -758844.5, 2639.1028, -0.034974314, -0.3784179, -693629.0, 17600.49, 0.0, 10.00047, 9.999609 
2.3749694e+3, 2.3742136e+2, -766764.7, -754321.6, 18381.057, -0.0791583, -0.36527115, -741137.7, -127903.67, 0.0, 9.999344, 9.999511 
2.3748937e+3, 2.4742086e+2, -780004.9, -671859.44, 20197.625, -0.035922, -0.34857875, -668210.4, -152970.28, 0.0, 9.998418, 9.999848 
2.3748183e+3, 2.5742066e+2, -798802.44, -616030.1, 352.60065, 0.034651373, -0.3301663, -616029.5, -198785.25, 0.0, 9.997554, 9.999976 
2.3747419e+3, 2.6742086e+2, -795767.4, -445701.1, -16356.381, 0.018540874, -0.33346847, -444938.53, -125696.36, 0.0, 9.996395, 10.00103 
2.3746653e+3, 2.774214e+2, -881236.0, -433757.72, -3344.0327, -0.016679449, -0.35719037, -433732.75, -212496.36, 0.0, 9.995127, 10.001051 
2.3745899e+3, 2.874226e+2, -881535.4, -295682.0, 3466.3206, 0.055651903, -0.3516013, -295661.5, -172436.63, 0.0, 9.994077, 10.001831 
2.3745143e+3, 2.9742464e+2, -930878.8, -272988.63, -14557.987, 0.124660864, -0.30386066, -272666.66, -247461.03, 0.0, 9.993081, 10.001797 
2.3744366e+3, 3.074258e+2, -1012747.56, -245553.58, -5726.112, -0.025924718, -0.35431424, -245510.83, -245510.83, 0.0, 9.992001, 10.002172 
2.3743618e+3, 3.1742665e+2, -1010517.94, 21678.104, -74137.61, 0.13998777, -0.47004363, 26975.857, 26975.857, 0.0, 9.990883, 10.0045395 
2.3858249e+3, 1.2753308e+2, -1037903.44, -1684439.8, 10633.246, -0.07041621, -0.33973235, -1037728.6, 652411.56, 0.41003588, 10.009966, 9.995431 
2.3857471e+3, 1.3752723e+2, -851688.06, -1619727.0, -2124.379, -0.069921955, -0.44533554, -851682.2, 740512.56, 0.30040768, 10.009706, 9.995305 
2.3856688e+3, 1.4752287e+2, -724488.4, -1571968.5, -6095.8994, -0.047895372, -0.3730432, -724444.5, 769793.4, 0.18706034, 10.008929, 9.995327 
2.3855901e+3, 1.5751815e+2, -657593.5, -1516284.6, 17740.639, -0.038621742, -0.35243997, -657227.1, 739058.94, 0.0928143, 10.007924, 9.995523 
2.385512e+3, 1.675138e+2, -570828.6, -1301047.5, 43614.156, -0.028547524, -0.37937468, -568232.9, 730095.3, 0.03358465, 10.00687, 9.996836 
2.3854344e+3, 1.7751004e+2, -601214.25, -1267681.9, 33853.715, -0.019230988, -0.41081163, -599499.06, 600864.9, 0.007374594, 10.005814, 9.9969015 
2.3853561e+3, 1.8750726e+2, -590960.4, -1116803.5, 31222.725, -0.03780622, -0.3935033, -589112.94, 513277.6, 0.0005591379, 10.004763, 9.997769 
2.385278e+3, 1.9750501e+2, -647346.2, -1097367.8, 37391.973, -0.06669518, -0.36668023, -644260.5, 360151.78, 0.0000006457051, 10.0037155, 9.997736 
2.3852009e+3, 2.075026e+2, -667543.7, -990967.06, 58137.832, -0.051550888, -0.3767653, -657410.44, 249026.19, 0.0, 10.002621, 9.998322 
2.385124e+3, 2.1750043e+2, -719070.0, -946954.94, 59131.668, -0.01900952, -0.4004441, -704640.2, 103819.125, 0.0, 10.001514, 9.998485 
2.3850463e+3, 2.2749937e+2, -671518.4, -743450.06, 48106.598, -0.03855829, -0.38897473, -647419.4, 63050.117, 0.0, 10.000608, 9.999645 
2.3849687e+3, 2.374989e+2, -705086.9, -722171.2, 40850.85, -0.07482838, -0.36871317, -671894.6, -59421.688, 0.0, 9.999762, 9.999527 
2.3848918e+3, 2.4749832e+2, -768392.44, -669245.1, 54178.586, -0.033770025, -0.3590649, -645382.6, -130902.74, 0.0, 9.998517, 9.999816 
2.3848154e+3, 2.5749794e+2, -862351.2, -648746.3, 62937.93, 0.03475293, -0.35324964, -631581.2, -215095.45, 0.0, 9.997134, 9.999949 
2.384738e+3, 2.674982e+2, -817632.6, -455110.75, 46878.7, 0.011301108, -0.34760404, -449146.84, -130663.71, 0.0, 9.996248, 10.001032 
2.3846601e+3, 2.7749887e+2, -826657.8, -408852.13, 42199.28, -0.035170518, -0.35431606, -404632.53, -184156.63, 0.0, 9.995513, 10.001032 
2.3845838e+3, 2.8749982e+2, -846013.06, -283874.25, 45931.79, 0.050159026, -0.3704544, -280145.94, -157679.25, 0.0, 9.99435, 10.001777 
2.3845075e+3, 2.9750144e+2, -931417.8, -265455.9, 31690.316, 0.14662915, -0.35866556, -263951.3, -239500.3, 0.0, 9.993053, 10.001857 
2.3844282e+3, 3.075034e+2, -1009591.1, -213255.72, 30393.71, -0.008845381, -0.348722, -212097.38, -212097.38, 0.0, 9.991895, 10.002442 
2.3843522e+3, 3.1750724e+2, -970128.3, 126184.17, -22013.125, 0.15403657, -0.17674378, 126626.0, 126626.0, 0.0, 9.990802, 10.005292 
2.3958355e+3, 1.2761089e+2, -1003144.2, -1654748.8, 6106.62, 0.010140823, -0.32700726, -1003087.0, 686291.8, 0.39410144, 10.010007, 9.995743 
2.3957558e+3, 1.3760544e+2, -830212.06, -1585199.5, -10314.581, -0.13411747, -0.41454917, -830071.2, 761357.7, 0.28846106, 10.009654, 9.995584 
2.3956768e+3, 1.4760108e+2, -692977.6, -1500678.5, -35268.133, -0.091468416, -0.3837953, -691440.56, 802030.06, 0.17927893, 10.008876, 9.995849 
2.3955981e+3, 1.575965e+2, -637429.94, -1470653.5, -16060.666, 0.009675424, -0.39945003, -637120.44, 758395.4, 0.08858713, 10.007886, 9.995858 
2.3955189e+3, 1.675924e+2, -588197.8, -1336788.9, 6948.133, -0.009891411, -0.40106884, -588133.3, 709422.6, 0.03177517, 10.006845, 9.996604 
2.3954391e+3, 1.7758884e+2, -614343.4, -1293048.0, -2633.2668, -0.07491578, -0.39044538, -614333.1, 585257.75, 0.0068394295, 10.005796, 9.996738 
2.3953606e+3, 1.8758576e+2, -588178.6, -1109889.0, -5544.3, -0.054759618, -0.4000236, -588119.7, 513500.53, 0.00048755822, 10.004752, 9.997825 
2.3952822e+3, 1.9758306e+2, -643675.2, -1089173.0, 126.46383, -0.0053777783, -0.42219636, -643675.1, 359970.5, 0.00000036108204, 10.003708, 9.997799 
2.3952034e+3, 2.0758098e+2, -659970.25, -976389.3, 18194.742, -0.037027225, -0.41112185, -658927.44, 246739.58, 0.0, 10.002621, 9.998425 
2.3951243e+3, 2.1757932e+2, -718562.5, -946723.7, 22531.271, -0.095703624, -0.39020815, -716358.8, 91325.81, 0.0, 10.001513, 9.99849 
2.3950464e+3, 2.2757804e+2, -691213.06, -786073.56, 18501.396, -0.06338024, -0.38152522, -687732.3, 21965.115, 0.0, 10.000611, 9.999354 
2.394969e+3, 2.3757714e+2, -713284.1, -741980.56, 4383.5054, 0.0007776325, -0.37986657, -712629.44, -100923.19, 0.0, 9.999768, 9.999391 
2.3948903e+3, 2.4757658e+2, -742752.7, -618187.0, -99.15919, -0.010626552, -0.38268512, -618186.94, -104475.1, 0.0, 9.99852, 10.000168 
2.3948115e+3, 2.5757638e+2, -847876.6, -619372.5, 16252.257, -0.04885424, -0.39116243, -618222.4, -202508.11, 0.0, 9.997131, 10.000155 
2.3947336e+3, 2.6757666e+2, -834151.94, -490686.4, 19731.701, -0.02339768, -0.3767313, -489556.56, -171844.77, 0.0, 9.996249, 10.00079 
2.394656e+3, 2.7757746e+2, -834330.4, -431132.56, 8616.056, 0.029061308, -0.35013428, -430948.5, -211243.88, 0.0, 9.995536, 10.000871 
2.3945779e+3, 2.8757825e+2, -845367.75, -286404.94, -5617.085, 0.0510688, -0.37434098, -286348.5, -164651.98, 0.0, 9.994361, 10.001758 
2.3944993e+3, 2.9757905e+2, -939850.5, -282845.25, -13848.914, 0.045803525, -0.4413174, -282553.47, -258865.48, 0.0, 9.993048, 10.001743 
2.3944211e+3, 3.075823e+2, -981733.06, -154825.67, -17949.662, 0.124092944, -0.31587377, -154436.22, -154436.22, 0.0, 9.991885, 10.002852 
2.3943418e+3, 3.175857e+2, -1045359.6, -44104.465, 4730.377, 0.052278563, -0.232906, -44082.117, -44082.117, 0.0, 9.990852, 10.004104 
2.4058455e+3, 1.2768994e+2, -937159.06, -1633368.3, 42846.5, 0.0053522782, -0.3380006, -934532.1, 754071.4, 0.37849656, 10.01056, 9.995698 
2.4057652e+3, 1.3768473e+2, -869138.94, -1615688.3, 20770.734, -0.09750957, -0.39186627, -868561.5, 722090.5, 0.27660054, 10.009153, 9.995602 
2.405685e+3, 1.4768036e+2, -744664.94, -1498164.3, -9921.812, -0.074954614, -0.38405284, -744534.3, 748159.25, 0.17144267, 10.008231, 9.996171 
2.4056052e+3, 1.5767586e+2, -673429.94, -1462681.6, -843.2417, -0.00604977, -0.4194906, -673429.06, 721307.75, 0.08428698, 10.007471, 9.996109 
2.4055248e+3, 1.6767193e+2, -627248.3, -1349228.1, 28581.848, -0.018366164, -0.41640186, -626118.56, 670656.56, 0.029931782, 10.006533, 9.996667 
2.4054445e+3, 1.7766851e+2, -648151.0, -1303932.5, 36538.227, -0.06398149, -0.39480695, -646121.5, 552687.2, 0.0062998584, 10.005541, 9.996783 
2.405365e+3, 1.8766533e+2, -620606.75, -1125491.3, 35852.16, -0.04859206, -0.41549432, -618073.56, 482765.63, 0.0004179943, 10.004535, 9.99782 
2.4052854e+3, 1.9766247e+2, -668320.4, -1096218.1, 37092.344, -0.01064576, -0.45326078, -665128.8, 337737.47, 0.00000014397028, 10.003525, 9.997836 
2.4052055e+3, 2.076606e+2, -655739.56, -957082.7, 56508.633, -0.041258477, -0.42809722, -645491.44, 259393.86, 0.0, 10.002582, 9.998572 
2.4051258e+3, 2.176593e+2, -692448.44, -924432.9, 62690.066, -0.094559304, -0.38468137, -676591.4, 130307.93, 0.0, 10.001657, 9.998571 
2.4050467e+3, 2.2765784e+2, -713524.8, -808034.2, 69217.164, -0.062010396, -0.3892085, -676970.06, 31943.99, 0.0, 10.000512, 9.9992485 
2.404968e+3, 2.3765656e+2, -785104.25, -779962.8, 67992.6, 0.0030385023, -0.41109377, -714492.4, -103565.77, 0.0, 9.999296, 9.999354 
2.4048884e+3, 2.4765614e+2, -742446.3, -598657.0, 56140.805, -0.01520127, -0.4090529, -579334.1, -66403.586, 0.0, 9.998445, 10.000336 
2.4048084e+3, 2.576562e+2, -761410.1, -567827.75, 58955.137, -0.06321276, -0.40561345, -551286.5, -136356.6, 0.0, 9.997687, 10.000239 
2.4047297e+3, 2.676564e+2, -797947.56, -487420.75, 66831.195, -0.025631195, -0.39398658, -473648.25, -156719.6, 0.0, 9.996565, 10.000657 
2.4046512e+3, 2.77657e+2, -871846.2, -457955.4, 59846.543, 0.048324797, -0.36808184, -449475.63, -230552.05, 0.0, 9.995325, 10.000785 
2.4045715e+3, 2.876578e+2, -860471.94, -291662.4, 41941.805, 0.03857752, -0.3890024, -288586.4, -167671.05, 0.0, 9.994256, 10.001768 
2.4044915e+3, 2.9765835e+2, -913921.2, -271555.97, 39917.383, -0.008459167, -0.47825378, -269084.97, -246176.22, 0.0, 9.993236, 10.001728 
2.4044138e+3, 3.0766204e+2, -874191.44, -87703.11, 33195.05, 0.19561249, -0.31220937, -86304.54, -86304.54, 0.0, 9.992565, 10.002981 
2.4043325e+3, 3.1766167e+2, -1055629.6, -225118.42, 29745.865, 0.03617067, -0.6122454, -224054.39, -224054.39, 0.0, 9.991554, 10.002515 
2.415855e+3, 1.277699e+2, -940215.06, -1664833.0, 8252.795, -0.065166734, -0.37945902, -940121.06, 747697.25, 0.36351985, 10.010484, 9.995379 
2.4157752e+3, 1.3776504e+2, -868990.8, -1645432.5, -9689.802, 0.011397929, -0.36754313, -868869.9, 720995.1, 0.2650795, 10.00914, 9.995403 
2.4156936e+3, 1.477606e+2, -728029.06, -1479414.0, -30272.328, -0.019577002, -0.36748007, -726811.4, 765095.9, 0.16373453, 10.008235, 9.996318 
2.4156116e+3, 1.577561e+2, -659942.9, -1438385.3, -26057.902, -0.07701107, -0.41767946, -659071.56, 734878.44, 0.08001996, 10.007458, 9.996286 
2.415531e+3, 1.6775228e+2, -609619.6, -1310978.1, -5183.936, -0.04758758, -0.4297404, -609581.3, 686405.56, 0.02810199, 10.006513, 9.996942 
2.4154507e+3, 1.7774895e+2, -637970.9, -1278938.9, 1430.0193, 0.003467687, -0.42445242, -637967.7, 560051.1, 0.0057724975, 10.005516, 9.99697 
2.4153695e+3, 1.8774585e+2, -627471.6, -1137973.0, -243.10664, -0.025699604, -0.43863416, -627471.5, 472577.25, 0.00035396442, 10.004521, 9.997744 
2.4152878e+3, 1.9774307e+2, -669749.75, -1099220.6, 2855.2253, -0.0788081, -0.46099007, -669730.8, 332344.84, 0.00000003444413, 10.00352, 9.997821 
2.4152075e+3, 2.0774138e+2, -644277.1, -933885.8, 24060.771, -0.061248265, -0.4286445, -642291.8, 261800.88, 0.0, 10.00258, 9.998735 
2.4151278e+3, 2.1774025e+2, -684191.56, -906721.94, 27311.219, -0.022174949, -0.3832474, -680888.7, 125215.77, 0.0, 10.001648, 9.998699 
2.4150471e+3, 2.2773863e+2, -709096.8, -800286.56, 24170.96, -0.039031032, -0.41094613, -703086.2, 5034.051, 0.0, 10.000513, 9.999304 
2.4149664e+3, 2.377371e+2, -782444.8, -776460.1, 27287.475, -0.071205735, -0.4633979, -752001.4, -141866.48, 0.0, 9.999299, 9.99938 
2.4148862e+3, 2.4773689e+2, -744914.44, -605806.25, 28028.592, -0.04626443, -0.43848255, -600371.2, -88234.21, 0.0, 9.998447, 10.000287 
2.4148063e+3, 2.577373e+2, -762679.8, -576011.8, 25121.688, -0.0055986037, -0.39267138, -572690.06, -158557.03, 0.0, 9.997705, 10.000177 
2.414726e+3, 2.6773727e+2, -799560.7, -494565.88, 17574.605, 0.0048069544, -0.3994412, -493556.53, -177422.22, 0.0, 9.996575, 10.000607 
2.4146457e+3, 2.7773744e+2, -875183.06, -464509.97, 14356.986, 0.010547297, -0.41607746, -464008.66, -245874.72, 0.0, 9.9953165, 10.000747 
2.4145652e+3, 2.8773847e+2, -856115.0, -282352.3, 3457.589, 0.008776776, -0.41212535, -282331.47, -162208.38, 0.0, 9.994249, 10.001838 
2.4144843e+3, 2.9773968e+2, -905716.1, -260443.42, 8364.518, -0.0055123074, -0.44322613, -260335.02, -238224.77, 0.0, 9.993255, 10.001798 
2.414406e+3, 3.0774218e+2, -897995.9, -148019.92, 11547.747, 0.19105491, -0.37833354, -147842.16, -147842.16, 0.0, 9.992606, 10.00255 
2.4143243e+3, 3.17744e+2, -995845.44, -108226.81, -81351.88, 0.06669816, -0.41497815, -100832.37, -100832.37, 0.0, 9.991573, 10.003314 
2.4258645e+3, 1.2785105e+2, -948129.1, -1668632.4, 17793.926, -0.09818774, -0.3881912, -947689.94, 739331.3, 0.34922916, 10.010169, 9.995484 
2.4257845e+3, 1.378461e+2, -848691.44, -1629495.8, 22633.617, 0.046443965, -0.3924807, -848035.94, 741033.2, 0.25398698, 10.009184, 9.995492 
2.4257019e+3, 1.4784178e+2, -719000.0, -1471094.8, 14465.049, 0.0062390696, -0.38779587, -718721.9, 772388.9, 0.15624703, 10.008222, 9.996387 
2.4256186e+3, 1.5783761e+2, -676025.6, -1438257.8, 16237.704, -0.08447134, -0.41026226, -675679.9, 717470.94, 0.07585374, 10.007275, 9.996372 
2.4255368e+3, 1.6783382e+2, -640863.9, -1311677.1, 27068.338, -0.05785974, -0.42750195, -639773.4, 655413.6, 0.026320646, 10.006223, 9.997073 
2.4254556e+3, 1.7783046e+2, -682991.5, -1286438.1, 27164.074, 0.0023588175, -0.4393134, -681771.2, 515448.0, 0.0052698767, 10.005149, 9.997091 
2.4253733e+3, 1.8782751e+2, -649948.2, -1138228.1, 35606.71, -0.027838519, -0.44559503, -647365.3, 451882.28, 0.00029763248, 10.004328, 9.997831 
2.425291e+3, 1.9782495e+2, -655978.8, -1085485.5, 44959.203, -0.085140996, -0.45271468, -651323.06, 349949.5, 0.000000003872902, 10.003588, 9.99788 
2.4252097e+3, 2.0782316e+2, -659044.2, -941384.5, 54098.766, -0.062010914, -0.4310254, -649033.4, 254257.23, 0.0, 10.002484, 9.998727 
2.425129e+3, 2.1782185e+2, -737949.7, -927992.2, 45495.51, -0.01242343, -0.40212986, -727619.75, 77684.15, 0.0, 10.0012665, 9.9987335 
2.4250473e+3, 2.2782035e+2, -717264.4, -789355.06, 45878.734, -0.036215253, -0.42499453, -694964.9, 12353.317, 0.0, 10.0004, 9.999431 
2.4249654e+3, 2.3781903e+2, -727916.94, -741677.56, 54251.63, -0.08086308, -0.4682481, -680111.1, -70780.4, 0.0, 9.999643, 9.99945 
2.4248846e+3, 2.4781872e+2, -734533.25, -609689.5, 55786.973, -0.050414555, -0.44757485, -588393.56, -77059.78, 0.0, 9.998564, 10.000201 
2.4248037e+3, 2.57819e+2, -813594.5, -604432.6, 48765.184, 0.0047229137, -0.40732688, -593621.94, -180290.44, 0.0, 9.99738, 10.000134 
2.4247225e+3, 2.67819e+2, -810879.5, -491529.3, 44375.074, 0.006465461, -0.41165558, -485477.88, -170145.53, 0.0, 9.996467, 10.000676 
2.4246408e+3, 2.7781916e+2, -831543.9, -438156.25, 47673.227, -0.0029479999, -0.43201444, -432461.34, -215129.67, 0.0, 9.995597, 10.000791 
2.4245593e+3, 2.8782028e+2, -812840.8, -257451.9, 37630.53, 0.016985754, -0.42310765, -254913.84, -135593.58, 0.0, 9.994535, 10.001868 
2.4244778e+3, 2.9782185e+2, -875202.75, -241183.55, 42487.176, 0.02897758, -0.41816935, -238349.05, -217045.19, 0.0, 9.993455, 10.001828 
2.4243975e+3, 3.0782333e+2, -940513.56, -194996.38, 56298.797, 0.10994513, -0.44247046, -190768.86, -190768.86, 0.0, 9.992434, 10.002308 
2.4243154e+3, 3.1782612e+2, -943066.2, 61624.02, -48282.5, 0.08882482, -0.36056116, 63939.004, 63939.004, 0.0, 9.991315, 10.004605 
2.4358742e+3, 1.2793331e+2, -912229.7, -1630927.5, -3004.2673, -0.11514218, -0.36605468, -912217.1, 773996.44, 0.33550414, 10.010202, 9.99585 
2.435793e+3, 1.379278e+2, -830202.44, -1595758.4, -2105.0823, 0.021363853, -0.46284485, -830196.6, 758069.56, 0.24329105, 10.009129, 9.995749 
2.4357097e+3, 1.479237e+2, -717702.5, -1475268.0, -13378.153, 0.009016813, -0.44376862, -717466.4, 772840.0, 0.14900383, 10.008179, 9.996375 
2.435626e+3, 1.5792018e+2, -675665.4, -1440275.1, -14485.277, -0.042431228, -0.3986245, -675391.06, 716949.94, 0.071823716, 10.00725, 9.996373 
2.4355428e+3, 1.6791646e+2, -640715.44, -1312760.4, -8852.764, -0.05676017, -0.40985265, -640598.9, 653778.06, 0.024610158, 10.006212, 9.997073 
2.4354596e+3, 1.7791294e+2, -678624.2, -1279204.5, -5534.5356, -0.06101132, -0.43829194, -678573.2, 517837.47, 0.004799825, 10.00515, 9.997144 
2.4353772e+3, 1.8791021e+2, -636887.7, -1110998.8, 11532.004, -0.050962053, -0.43763122, -636607.4, 461829.56, 0.00024979445, 10.004322, 9.998024 
2.4352947e+3, 1.9790794e+2, -652730.75, -1075047.1, 14935.97, -0.037201397, -0.43216282, -652203.2, 348255.7, 0.0000000002134854, 10.003566, 9.997965 
2.4352121e+3, 2.0790581e+2, -672530.3, -969026.44, 9339.72, -0.047845468, -0.43599293, -672236.44, 230243.81, 0.0, 10.002478, 9.998544 
2.4351294e+3, 2.1790397e+2, -743184.56, -940825.06, 6772.508, -0.06494051, -0.44180202, -742952.75, 61545.918, 0.0, 10.001269, 9.998647 
2.4350472e+3, 2.279029e+2, -704067.8, -764213.25, 19555.93, -0.051462486, -0.4313483, -698268.5, 8240.362, 0.0, 10.000404, 9.999603 
2.4349654e+3, 2.3790227e+2, -721627.2, -730474.9, 21819.21, -0.028851727, -0.4219004, -703787.9, -95273.27, 0.0, 9.999645, 9.999528 
2.4348828e+3, 2.4790156e+2, -744307.8, -631789.75, 9020.853, -0.030393062, -0.43494183, -631071.1, -120549.4, 0.0, 9.998567, 10.0000515 
2.4348003e+3, 2.5790113e+2, -816659.06, -612286.75, 6551.839, -0.039941907, -0.4520664, -612076.9, -199550.28, 0.0, 9.997381, 10.000084 
2.4347183e+3, 2.6790148e+2, -797386.0, -465081.5, 11247.452, -0.022803929, -0.43043032, -464701.25, -150177.69, 0.0, 9.996468, 10.00086 
2.4346362e+3, 2.7790225e+2, -820375.94, -421122.7, 11428.489, 0.012304018, -0.40810108, -420795.8, -204279.25, 0.0, 9.995617, 10.0009 
2.4345542e+3, 2.879031e+2, -817250.44, -272090.0, -6085.41, 0.06884444, -0.4221546, -272022.06, -153514.38, 0.0, 9.994552, 10.001763 
2.4344714e+3, 2.979046e+2, -877714.6, -248708.86, 2260.375, 0.089540325, -0.41703546, -248700.73, -228208.3, 0.0, 9.993459, 10.001778 
2.4343877e+3, 3.079057e+2, -933235.1, -177009.1, 12330.859, -0.066952825, -0.48558322, -176808.08, -176808.08, 0.0, 9.992416, 10.002442 
2.4343072e+3, 3.1790802e+2, -953724.56, 41876.84, -76121.016, 0.16776721, -0.46787104, 47663.22, 47663.22, 0.0, 9.991302, 10.0044775 
2.4458845e+3, 1.280167e+2, -841845.94, -1628338.1, 33593.207, -0.10109977, -0.42310748, -840413.7, 844979.56, 0.322127, 10.010913, 9.99552 
2.4458012e+3, 1.3801141e+2, -878058.75, -1651936.9, 21616.367, 0.008903117, -0.46585038, -877455.44, 709989.9, 0.23289417, 10.00869, 9.995575 
2.445717e+3, 1.4800726e+2, -774157.7, -1493589.0, 30979.67, -0.00096651184, -0.45154092, -772826.1, 716660.2, 0.14198516, 10.007623, 9.996496 
2.4456328e+3, 1.5800372e+2, -702527.6, -1442547.5, 36773.4, -0.038301595, -0.42034382, -700704.75, 690816.6, 0.0679382, 10.006978, 9.996487 
2.4455486e+3, 1.680001e+2, -636732.06, -1300129.0, 45607.99, -0.060790617, -0.4288466, -633611.25, 659944.8, 0.022978287, 10.006188, 9.99717 
2.4454643e+3, 1.7799671e+2, -648528.6, -1259094.4, 53378.383, -0.080120005, -0.4512453, -643897.2, 551691.3, 0.0043641604, 10.005333, 9.997192 
2.4453808e+3, 1.8799397e+2, -662628.0, -1128443.8, 58723.652, -0.059292823, -0.44756344, -655338.94, 442276.22, 0.00021003051, 10.004172, 9.997973 
2.4452978e+3, 1.9799168e+2, -743509.44, -1116973.1, 48618.49, -0.02604702, -0.43835127, -737283.94, 262353.88, 0.00000000008671795, 10.002945, 9.997972 
2.4452141e+3, 2.0798957e+2, -697120.75, -969397.3, 57918.953, -0.04582502, -0.44493824, -685312.25, 216346.45, 0.0, 10.002267, 9.998639 
2.4451303e+3, 2.1798773e+2, -672574.1, -902356.3, 69852.75, -0.07974355, -0.4577621, -653005.6, 150671.14, 0.0, 10.0017395, 9.998682 
2.4450473e+3, 2.2798663e+2, -689750.4, -766479.7, 66628.695, -0.055730704, -0.44433624, -651230.5, 54457.047, 0.0, 10.000547, 9.999516 
2.4449646e+3, 2.3798598e+2, -795624.94, -769771.8, 53272.656, -0.012382422, -0.42609218, -727879.8, -120185.99, 0.0, 9.999161, 9.999489 
2.444881e+3, 2.479853e+2, -766429.6, -637295.06, 52526.727, -0.019365558, -0.43556172, -618627.8, -108927.01, 0.0, 9.998398, 10.0000925 
2.4447976e+3, 2.5798488e+2, -752157.5, -573582.1, 60499.168, -0.042518765, -0.4541742, -555016.0, -143310.36, 0.0, 9.997796, 10.000148 
2.4447143e+3, 2.6798522e+2, -758338.44, -433766.5, 59113.645, -0.026859103, -0.43977857, -423335.5, -109633.46, 0.0, 9.996687, 10.000967 
2.4446313e+3, 2.77986e+2, -843613.44, -426450.06, 53622.223, 0.0136942305, -0.4258022, -419667.72, -203973.3, 0.0, 9.9954405, 10.000946 
2.4445483e+3, 2.8798684e+2, -819631.44, -288651.03, 35132.664, 0.07891152, -0.43214205, -286336.53, -168650.6, 0.0, 9.994607, 10.00162 
2.4444652e+3, 2.9798833e+2, -835088.3, -240791.77, 36750.668, 0.10655196, -0.41244438, -238527.78, -218856.4, 0.0, 9.993805, 10.001666 
2.4443796e+3, 3.0798927e+2, -887005.2, -139556.33, 38230.164, -0.09221472, -0.49977028, -137606.05, -137606.05, 0.0, 9.99267, 10.002576 
2.4442986e+3, 3.179932e+2, -915453.7, -1780.3711, -37059.48, 0.18272251, -0.3307309, -279.66757, -279.66757, 0.0, 9.991844, 10.003909 
2.4558955e+3, 1.2810093e+2, -878086.8, -1719539.9, -27122.44, -0.06932036, -0.5408369, -877213.5, 807349.94, 0.3089099, 10.010736, 9.994799 
2.4558096e+3, 1.380967e+2, -893138.9, -1717698.0, -26583.033, -0.0010274277, -0.41102147, -892282.75, 694326.0, 0.2226981, 10.008688, 9.995125 
2.4557242e+3, 1.480923e+2, -754722.25, -1472327.4, 15443.116, -0.026245737, -0.4172913, -754390.06, 734262.44, 0.13515355, 10.007654, 9.996646 
2.4556391e+3, 1.5808809e+2, -689689.75, -1420581.8, 15776.957, -0.06801384, -0.46820673, -689349.3, 701343.75, 0.06418633, 10.006973, 9.996642 
2.4555542e+3, 1.6808459e+2, -628922.44, -1281901.8, 17194.768, -0.069979005, -0.47910267, -628470.0, 664256.2, 0.021421032, 10.006165, 9.997312 
2.4554695e+3, 1.7808154e+2, -651829.5, -1259845.6, 19054.56, -0.06252099, -0.4784469, -651232.94, 543521.94, 0.003960254, 10.005299, 9.997207 
2.4553847e+3, 1.8807866e+2, -682633.94, -1169014.1, 13294.024, -0.05668194, -0.4731295, -682270.9, 414513.06, 0.00017711989, 10.004162, 9.997704 
2.4553001e+3, 1.9807611e+2, -747809.25, -1129166.1, 13301.867, -0.050902676, -0.46677923, -747345.9, 251464.36, 0.00000000016280782, 10.002954, 9.997887 
2.455216e+3, 2.0807436e+2, -673300.06, -921870.2, 41948.94, -0.05450424, -0.45601732, -666411.6, 234415.36, 0.0, 10.00227, 9.998966 
2.4551319e+3, 2.18073e+2, -666307.56, -887283.0, 43278.77, -0.061395887, -0.44926837, -658133.7, 144705.63, 0.0, 10.001725, 9.9987955 
2.4550477e+3, 2.280714e+2, -716341.56, -822244.4, 14508.743, -0.05175224, -0.4638484, -714389.8, -9534.522, 0.0, 10.000545, 9.999137 
2.4549632e+3, 2.3807004e+2, -808183.06, -798597.44, 9648.398, -0.034648307, -0.4829936, -792617.0, -185747.28, 0.0, 9.999167, 9.99929 
2.4548791e+3, 2.4806987e+2, -749413.25, -604826.6, 30088.365, -0.016720448, -0.4497404, -598815.2, -89943.29, 0.0, 9.9984045, 10.000315 
2.4547954e+3, 2.5807026e+2, -738747.25, -550195.4, 30039.484, -0.0025189638, -0.406614, -545525.25, -134656.75, 0.0, 9.997809, 10.000305 
2.4547109e+3, 2.680702e+2, -757853.5, -435137.13, 9396.809, -0.005623364, -0.4401366, -434863.75, -121995.5, 0.0, 9.996692, 10.000958 
2.4546264e+3, 2.7807024e+2, -847360.6, -433988.06, 12599.074, -0.0056844903, -0.49581724, -433604.44, -218737.7, 0.0, 9.995434, 10.0009 
2.4545422e+3, 2.880715e+2, -829756.2, -311436.0, 6793.623, 0.038318884, -0.45179927, -311346.97, -194492.02, 0.0, 9.994608, 10.001468 
2.4544583e+3, 2.9807332e+2, -841539.4, -262133.3, 1012.1414, 0.07503981, -0.38111997, -262131.53, -243293.7, 0.0, 9.993833, 10.00151 
2.4543738e+3, 3.080737e+2, -884492.9, -140212.9, -3505.3926, 0.07715753, -0.5137363, -140196.39, -140196.39, 0.0, 9.99269, 10.002565 
2.4542888e+3, 3.1807673e+2, -940313.7, -62309.95, -56015.293, 0.053378876, -0.43528023, -58750.688, -58750.688, 0.0, 9.991878, 10.003479 
2.4659055e+3, 1.2818679e+2, -982942.75, -1742843.6, -31223.125, -0.027928272, -0.53726935, -981662.0, 702059.94, 0.29575083, 10.009302, 9.995331 
2.4658176e+3, 1.3818286e+2, -816104.25, -1641613.1, 21923.814, -0.03735658, -0.42524952, -815522.44, 770240.5, 0.21261877, 10.009133, 9.995431 
2.4657315e+3, 1.4817844e+2, -699672.9, -1469776.3, 70318.19, -0.05589055, -0.4276983, -693304.75, 794502.25, 0.12845032, 10.008153, 9.996423 
2.4656458e+3, 1.5817405e+2, -701446.6, -1444246.5, 53364.09, -0.06357694, -0.47185203, -697632.44, 692217.4, 0.060534578, 10.006941, 9.996494 
2.46556e+3, 1.6817051e+2, -680899.94, -1305785.1, 44160.45, -0.059906684, -0.4815632, -677794.56, 614089.2, 0.019923044, 10.005792, 9.997322 
2.4654743e+3, 1.7816746e+2, -735976.1, -1293587.8, 41089.438, -0.05664382, -0.48072597, -732964.6, 460948.1, 0.0035823435, 10.004697, 9.997261 
2.4653885e+3, 1.8816467e+2, -694770.4, -1162315.0, 55599.676, -0.060580425, -0.47528368, -688249.5, 407691.16, 0.00014944437, 10.00403, 9.997809 
2.4653028e+3, 1.9816218e+2, -669613.0, -1086015.4, 76012.734, -0.06439703, -0.46919423, -656171.06, 341794.88, 0.00000000021615258, 10.003468, 9.997935 
2.4652177e+3, 2.0816039e+2, -677302.5, -928633.6, 87346.766, -0.058867466, -0.45952433, -649927.9, 250055.27, 0.0, 10.002269, 9.998919 
2.465133e+3, 2.1815896e+2, -785268.1, -944367.06, 63314.42, -0.050683886, -0.4536293, -763147.4, 38848.723, 0.0, 10.000917, 9.998789 
2.4650475e+3, 2.2815737e+2, -752247.56, -836159.2, 53433.605, -0.048256714, -0.47071725, -726266.3, -22253.912, 0.0, 10.000291, 9.999161 
2.4649622e+3, 2.3815595e+2, -709193.5, -748575.0, 76601.305, -0.04333687, -0.4939813, -649792.6, -43765.348, 0.0, 9.999843, 9.999306 
2.4648774e+3, 2.4815577e+2, -712394.9, -586409.06, 88900.91, -0.017938897, -0.45853344, -540445.6, -32416.31, 0.0, 9.998662, 10.000314 
2.4647927e+3, 2.5815618e+2, -812929.1, -583649.06, 72648.766, 0.010885545, -0.41137624, -562568.1, -152542.64, 0.0, 9.997297, 10.000319 
2.4647075e+3, 2.681561e+2, -764772.4, -434325.56, 51877.598, 0.008964116, -0.44890994, -426372.56, -114347.15, 0.0, 9.996631, 10.000991 
2.4646218e+3, 2.781561e+2, -749563.06, -388078.44, 55296.5, 0.0049525937, -0.5094149, -379808.88, -165784.7, 0.0, 9.996113, 10.000887 
2.4645364e+3, 2.8815734e+2, -786749.75, -300224.9, 47096.875, 0.013309836, -0.45877215, -295707.75, -179695.0, 0.0, 9.994948, 10.001377 
2.4644509e+3, 2.9815906e+2, -878199.6, -285607.53, 44292.45, 0.01612984, -0.3900799, -282315.25, -264318.13, 0.0, 9.993616, 10.001448 
2.4643674e+3, 3.0815932e+2, -849169.56, -132842.39, 52120.51, 0.19956532, -0.52410203, -129069.94, -129069.94, 0.0, 9.992985, 10.002468 
2.4642806e+3, 3.1816188e+2, -859486.25, -60515.1, -19935.922, 0.02810781, -0.47586796, -60017.97, -60017.97, 0.0, 9.992594, 10.003146 
2.4759148e+3, 1.2827398e+2, -908106.75, -1586874.3, -29540.766, 0.012642431, -0.449232, -906823.5, 776046.8, 0.28256422, 10.00924, 9.996682 
2.475826e+3, 1.3826975e+2, -772922.75, -1546944.6, 6572.5054, -0.100781456, -0.4925954, -772866.94, 812042.4, 0.20255136, 10.009056, 9.996182 
2.4757388e+3, 1.4826545e+2, -729793.06, -1545502.6, 29403.383, -0.091376215, -0.47130725, -728734.56, 758217.56, 0.12178732, 10.008111, 9.995911 
2.4756525e+3, 1.5826137e+2, -724957.7, -1500428.8, 13595.905, -0.03221731, -0.43860295, -724719.4, 664274.56, 0.05693007, 10.006928, 9.996117 
2.4755657e+3, 1.6825767e+2, -686503.7, -1321026.4, 6047.283, -0.03572409, -0.44374186, -686446.06, 604584.3, 0.018461518, 10.005793, 9.99722 
2.4754785e+3, 1.7825438e+2, -729748.75, -1283038.4, 9797.189, -0.063977465, -0.46028212, -729575.4, 463487.16, 0.0032235102, 10.0047, 9.9973345 
2.475392e+3, 1.8825185e+2, -667118.25, -1105656.9, 38507.08, -0.07140127, -0.45730662, -663762.7, 431324.06, 0.0001255196, 10.004027, 9.998204 
2.475306e+3, 1.9824973e+2, -663170.3, -1069457.6, 47550.746, -0.06964308, -0.45000914, -657679.3, 339427.66, 0.00000000023303823, 10.003448, 9.998061 
2.4752197e+3, 2.0824751e+2, -707611.2, -991383.8, 35856.645, -0.06032525, -0.45678216, -703150.56, 195978.06, 0.0, 10.002262, 9.998493 
2.4751335e+3, 2.1824555e+2, -795306.06, -966976.56, 24753.059, -0.05003005, -0.46961725, -791808.25, 9339.9795, 0.0, 10.000918, 9.998636 
2.4750476e+3, 2.2824438e+2, -721363.4, -775149.6, 39868.797, -0.045537226, -0.4638209, -700165.3, 2994.315, 0.0, 10.0002985, 9.999578 
2.4749617e+3, 2.3824365e+2, -693754.4, -719285.56, 49847.8, -0.04088777, -0.45597437, -655063.56, -49896.703, 0.0, 9.999848, 9.999507 
2.4748755e+3, 2.4824296e+2, -730505.5, -625817.2, 34432.223, -0.024923127, -0.4631333, -615507.6, -108333.84, 0.0, 9.998665, 10.000045 
2.4747896e+3, 2.5824252e+2, -824791.06, -609367.5, 30118.674, -0.007974122, -0.47473022, -605235.8, -196057.73, 0.0, 9.997295, 10.000145 
2.4747038e+3, 2.682429e+2, -760112.8, -426905.53, 33714.598, 0.016865559, -0.46480706, -423528.44, -112354.28, 0.0, 9.9966345, 10.001043 
2.4746181e+3, 2.782437e+2, -745042.75, -386521.8, 26485.232, 0.049707573, -0.45090032, -384575.8, -171409.9, 0.0, 9.9961405, 10.000888 
2.474531e+3, 2.882443e+2, -790355.06, -312451.34, -7705.672, 0.0027586615, -0.45652458, -312327.13, -197166.72, 0.0, 9.994963, 10.00129 
2.4744432e+3, 2.9824504e+2, -879854.0, -288164.16, 1445.9803, -0.08436445, -0.47282493, -288160.63, -271007.2, 0.0, 9.993606, 10.001438 
2.4743606e+3, 3.0824655e+2, -857989.8, -152680.56, 38697.805, 0.26589537, -0.4823753, -150563.7, -150563.7, 0.0, 9.992989, 10.002332 
2.474273e+3, 3.1824905e+2, -844669.2, -54221.652, -47824.363, 0.051722962, -0.41401973, -51338.652, -51338.652, 0.0, 9.992674, 10.003164 
2.4859233e+3, 1.2836169e+2, -934651.75, -1614853.9, 26013.734, -0.0035329002, -0.44798416, -933658.3, 748352.06, 0.26919782, 10.008909, 9.996563 
2.4858342e+3, 1.3835728e+2, -831275.9, -1578672.9, -1603.5734, -0.10682021, -0.4990617, -831272.44, 752779.1, 0.19235222, 10.008468, 9.996189 
2.4857463e+3, 1.4835314e+2, -767174.1, -1540729.5, 18166.22, -0.0892289, -0.4781862, -766747.75, 719344.8, 0.1150585, 10.007664, 9.996153 
2.4856591e+3, 1.5834932e+2, -733885.8, -1487457.3, 41156.76, -0.021355256, -0.44051564, -731644.7, 656486.7, 0.053314917, 10.00677, 9.996279 
2.485571e+3, 1.6834572e+2, -678104.9, -1317037.9, 49542.96, -0.032662604, -0.44137758, -674286.1, 615881.06, 0.017014302, 10.005847, 9.997219 
2.4854828e+3, 1.7834243e+2, -698471.6, -1268690.6, 60271.523, -0.072523974, -0.45422614, -692170.6, 500028.9, 0.0028780883, 10.004919, 9.997327 
2.4853955e+3, 1.8833986e+2, -687381.75, -1116751.5, 74082.96, -0.07530052, -0.45243376, -674958.94, 419265.34, 0.000104292325, 10.0039, 9.998186 
2.4853088e+3, 1.9833767e+2, -744720.9, -1104182.6, 55012.48, -0.06431935, -0.4497541, -736490.2, 259754.77, 0.00000000017417703, 10.002878, 9.998092 
2.4852215e+3, 2.083354e+2, -723265.56, -989899.06, 59121.066, -0.05718971, -0.46727696, -710744.56, 187522.25, 0.0, 10.002123, 9.998567 
2.4851343e+3, 2.183334e+2, -719179.5, -924516.5, 82819.62, -0.050722156, -0.48949358, -689939.3, 110347.21, 0.0, 10.001421, 9.998683 
2.4850476e+3, 2.283324e+2, -710079.2, -766715.7, 88721.664, -0.04414899, -0.46628654, -645266.0, 57030.445, 0.0, 10.000369, 9.999599 
2.484961e+3, 2.3833191e+2, -780585.56, -757835.06, 68274.97, -0.035324976, -0.43594596, -699994.2, -95692.45, 0.0, 9.999246, 9.999529 
2.4848738e+3, 2.4833101e+2, -743961.7, -632756.9, 57335.184, -0.028636241, -0.46367657, -608490.94, -102180.516, 0.0, 9.99858, 10.000035 
2.4847867e+3, 2.5833023e+2, -726613.56, -564880.25, 72179.85, -0.021683445, -0.5063449, -537352.5, -129035.0, 0.0, 9.997989, 10.0001135 
2.4847002e+3, 2.6833075e+2, -733464.4, -421703.2, 75346.984, 0.018712316, -0.4739055, -404448.2, -94135.56, 0.0, 9.996857, 10.000969 
2.4846138e+3, 2.7833182e+2, -826965.75, -428678.66, 56307.473, 0.07351057, -0.42453048, -420871.28, -208568.84, 0.0, 9.995597, 10.000855 
2.4845256e+3, 2.883321e+2, -798315.5, -309827.6, 25954.172, 0.010512949, -0.4619675, -308452.5, -194152.69, 0.0, 9.994886, 10.001341 
2.4844365e+3, 2.9833245e+2, -773105.5, -232754.42, 48706.46, -0.10251202, -0.5237727, -228399.19, -212102.58, 0.0, 9.994324, 10.0014715 
2.4843535e+3, 3.0833507e+2, -792792.94, -122467.81, 93762.79, 0.27238283, -0.42168278, -109599.62, -109599.62, 0.0, 9.993446, 10.002316 
2.4842644e+3, 3.1833574e+2, -915006.56, -37160.52, -8127.485, -0.0005646397, -0.5299604, -37085.277, -37085.277, 0.0, 9.9919815, 10.00361 
2.4959311e+3, 1.2844993e+2, -975587.3, -1748099.3, 14604.591, -0.0598131, -0.5001529, -975311.3, 705832.06, 0.2554732, 10.008926, 9.995473 
2.4958426e+3, 1.384455e+2, -852777.6, -1648083.0, -14563.152, -0.0737724, -0.45650205, -852511.0, 730678.0, 0.18189041, 10.008425, 9.9957285 
2.4957539e+3, 1.484415e+2, -719544.5, -1439590.4, -7334.4854, -0.063285716, -0.45757502, -719469.75, 765758.2, 0.10818411, 10.007618, 9.99691 
2.4956656e+3, 1.5843786e+2, -701890.2, -1413759.0, 10763.122, -0.03069495, -0.47172424, -701727.5, 685535.2, 0.04965278, 10.006723, 9.996809 
2.4955764e+3, 1.6843453e+2, -677168.7, -1311874.9, 16651.066, -0.047660388, -0.46786734, -676732.2, 612563.4, 0.015571033, 10.005819, 9.997272 
2.4954873e+3, 1.7843147e+2, -707234.2, -1285438.0, 25584.123, -0.08277522, -0.4595622, -706104.4, 485221.34, 0.0025440184, 10.004905, 9.997221 
2.4953991e+3, 1.8842861e+2, -714293.06, -1173753.8, 36636.313, -0.073941775, -0.45782712, -711390.1, 381964.2, 0.00008509108, 10.003898, 9.997799 
2.4953113e+3, 1.98426e+2, -748566.9, -1113849.3, 23194.719, -0.051762044, -0.4635887, -747099.94, 248280.11, 0.00000000005180779, 10.002879, 9.998028 
2.4952234e+3, 2.08424e+2, -686062.2, -914450.0, 35693.92, -0.050574332, -0.4888104, -680613.7, 216784.5, 0.0, 10.002125, 9.999087 
2.4951352e+3, 2.1842238e+2, -705450.7, -895962.75, 53412.563, -0.05543232, -0.5153565, -691497.7, 107914.445, 0.0, 10.001414, 9.998885 
2.4950476e+3, 2.2842133e+2, -738654.7, -827402.1, 46302.07, -0.045044165, -0.47958642, -718896.44, -17472.484, 0.0, 10.000369, 9.999185 
2.4949597e+3, 2.384206e+2, -793212.6, -786452.1, 32285.508, -0.03004605, -0.43352684, -757370.4, -153937.31, 0.0, 9.999249, 9.999333 
2.494872e+3, 2.4841985e+2, -724623.6, -595691.3, 35670.098, -0.029834904, -0.45817557, -586480.9, -81040.85, 0.0, 9.998588, 10.000289 
2.4947841e+3, 2.584193e+2, -716622.2, -550248.1, 41401.418, -0.03265476, -0.5011099, -540514.94, -133070.95, 0.0, 9.998009, 10.000208 
2.4946965e+3, 2.684196e+2, -749091.1, -456938.72, 24108.734, 0.011723218, -0.4772417, -454962.6, -145521.02, 0.0, 9.996862, 10.000727 
2.4946089e+3, 2.7842033e+2, -834105.1, -441974.2, 14928.975, 0.070508294, -0.43904167, -441406.66, -229971.38, 0.0, 9.9955845, 10.000773 
2.4945202e+3, 2.8842077e+2, -784459.2, -281816.66, 5783.268, 0.043456487, -0.47372904, -281750.13, -168318.92, 0.0, 9.994884, 10.001538 
2.4944314e+3, 2.984214e+2, -763280.7, -219920.4, 26575.627, -0.019885246, -0.5232289, -218623.69, -203199.0, 0.0, 9.994351, 10.001549 
2.4943458e+3, 3.084246e+2, -784574.1, -114327.48, 52922.527, 0.18909566, -0.3636899, -110174.46, -110174.46, 0.0, 9.993478, 10.00236 
2.4942563e+3, 3.1842563e+2, -908295.2, -10948.037, -127339.3, 0.048897553, -0.45502695, 6772.2925, 6772.2925, 0.0, 9.991931, 10.003814 
2.5059396e+3, 1.285394e+2, -925702.3, -1729114.0, 27670.686, -0.07795333, -0.4983214, -924750.44, 755515.56, 0.24128881, 10.00927, 9.995438 
2.5058505e+3, 1.3853489e+2, -882512.75, -1665471.6, 44008.99, -0.05088147, -0.4578641, -880046.8, 702266.1, 0.17111507, 10.008074, 9.99578 
2.505761e+3, 1.4853097e+2, -771091.8, -1444800.4, 44029.168, -0.058872428, -0.46382993, -768226.56, 716124.1, 0.10114577, 10.007078, 9.997124 
2.505671e+3, 1.5852746e+2, -765924.0, -1429774.8, 35528.77, -0.057709005, -0.48470908, -764028.0, 622355.9, 0.04594153, 10.006172, 9.996962 
2.5055817e+3, 1.685242e+2, -737485.0, -1337652.3, 35876.043, -0.0629712, -0.47948703, -735348.06, 553067.9, 0.014134729, 10.005382, 9.9973 
2.5054917e+3, 1.785212e+2, -745296.25, -1299872.8, 43866.02, -0.07602677, -0.4682137, -741848.0, 448597.75, 0.0022222549, 10.004632, 9.997249 
2.5054026e+3, 1.885183e+2, -718424.56, -1174240.4, 73288.625, -0.07112022, -0.46908748, -706930.6, 385544.1, 0.00006755128, 10.003869, 9.997806 
2.505314e+3, 1.9851567e+2, -715814.4, -1093235.4, 82368.48, -0.058091737, -0.47642493, -698621.44, 295879.5, 0.0000000000010010511, 10.003087, 9.998067 
2.5052252e+3, 2.0851383e+2, -684344.94, -902562.8, 76714.93, -0.054047193, -0.49134037, -660074.94, 236442.58, 0.0, 10.002094, 9.999181 
2.505136e+3, 2.1851239e+2, -752838.75, -912511.8, 65029.22, -0.052536543, -0.5077463, -729706.0, 68823.64, 0.0, 10.00107, 9.998934 
2.5050473e+3, 2.2851114e+2, -747587.25, -839029.4, 70983.54, -0.045125213, -0.48622474, -708874.44, -8331.162, 0.0, 10.000346, 9.999113 
2.5049588e+3, 2.3851018e+2, -733160.56, -758080.25, 83046.086, -0.033797722, -0.45750496, -661644.8, -59089.9, 0.0, 9.999671, 9.999322 
2.5048703e+3, 2.4850963e+2, -704085.94, -575087.2, 84517.63, -0.028543545, -0.46419203, -533269.1, -28709.32, 0.0, 9.998689, 10.000378 
2.5047818e+3, 2.585094e+2, -768994.44, -570885.9, 74755.195, -0.023571488, -0.48173994, -545843.06, -139282.3, 0.0, 9.997636, 10.000242 
2.504693e+3, 2.6850948e+2, -751231.06, -467163.8, 58837.84, 0.00922927, -0.47312397, -455459.22, -146898.72, 0.0, 9.996894, 10.000639 
2.5046042e+3, 2.7850986e+2, -745682.94, -402435.8, 61494.55, 0.053266242, -0.4610145, -391751.3, -181193.56, 0.0, 9.996209, 10.000741 
2.504515e+3, 2.8851044e+2, -726660.75, -248078.69, 51002.703, 0.048017304, -0.48079467, -242703.69, -130151.59, 0.0, 9.995259, 10.001586 
2.5044256e+3, 2.9851145e+2, -778861.44, -222348.16, 58873.49, 0.01815803, -0.4998012, -216188.13, -201645.89, 0.0, 9.994227, 10.001589 
2.5043383e+3, 3.085143e+2, -803935.25, -110403.74, 81486.97, 0.14694954, -0.37980634, -100958.02, -100958.02, 0.0, 9.993291, 10.002475 
2.5042483e+3, 3.1851542e+2, -826124.8, 8.296141, -114456.586, 0.059556633, -0.47348547, 15572.456, 15572.456, 0.0, 9.99263, 10.003545 
2.5159487e+3, 1.2862983e+2, -883852.56, -1647199.4, -4607.6846, -0.0789442, -0.46425995, -883824.75, 795555.25, 0.2266723, 10.009194, 9.996096 
2.5158584e+3, 1.3862526e+2, -854722.56, -1615015.9, 10060.015, -0.036958292, -0.49157414, -854589.44, 726836.2, 0.1600773, 10.008052, 9.996135 
2.5157672e+3, 1.4862143e+2, -777790.06, -1472614.0, 13827.486, -0.07033499, -0.48710036, -777515.0, 705947.8, 0.09398948, 10.00708, 9.996913 
2.5156766e+3, 1.58618e+2, -772367.25, -1450140.6, 6355.8013, -0.10020054, -0.4806975, -772307.6, 613188.3, 0.042209305, 10.00617, 9.996825 
2.5155863e+3, 1.6861464e+2, -737155.25, -1339340.0, 10506.634, -0.07981585, -0.4787698, -736972.0, 550557.1, 0.012717787, 10.005379, 9.9972925 
2.515496e+3, 1.7861155e+2, -737222.06, -1283018.5, 18650.742, -0.056796588, -0.4797064, -736585.5, 452974.6, 0.0019155459, 10.004625, 9.997371 
2.5154063e+3, 1.8860884e+2, -696996.3, -1128774.1, 46686.2, -0.068436764, -0.48586264, -692006.0, 399580.56, 0.000051715986, 10.003859, 9.998126 
2.5153163e+3, 1.9860652e+2, -711816.3, -1082657.8, 51351.91, -0.08375615, -0.49075687, -704836.75, 288772.6, 0.0, 10.003072, 9.99815 
2.5152266e+3, 2.0860477e+2, -707748.8, -951790.4, 38506.934, -0.067150116, -0.47663805, -701817.0, 193809.03, 0.0, 10.002091, 9.998846 
2.515137e+3, 2.1860333e+2, -761298.4, -931119.8, 32932.617, -0.04499907, -0.4648369, -755135.56, 42504.098, 0.0, 10.001068, 9.99881 
2.5150475e+3, 2.2860181e+2, -728300.25, -801304.2, 48027.54, -0.045720816, -0.4850149, -704477.75, -4822.7725, 0.0, 10.00035, 9.999373 
2.514958e+3, 2.3860052e+2, -721501.06, -737725.8, 53278.89, -0.049722914, -0.51051867, -675720.5, -74052.35, 0.0, 9.999681, 9.99946 
2.5148687e+3, 2.4860027e+2, -711260.94, -592315.25, 42826.965, -0.024594786, -0.48353356, -578499.9, -74829.3, 0.0, 9.998693, 10.00026 
2.5147793e+3, 2.586005e+2, -772795.44, -580063.3, 38488.23, 0.004920509, -0.4472237, -572661.56, -166993.14, 0.0, 9.997635, 10.000183 
2.5146896e+3, 2.6860037e+2, -746056.6, -458473.25, 33387.055, 0.010105701, -0.46128848, -454648.06, -146978.23, 0.0, 9.996897, 10.0007 
2.5146e+3, 2.7860036e+2, -742149.56, -401331.88, 31925.734, 0.013921737, -0.49140832, -398367.06, -188697.05, 0.0, 9.99623, 10.000742 
2.51451e+3, 2.8860116e+2, -734038.56, -267911.25, 11282.046, 0.016740093, -0.48062608, -267638.34, -155976.08, 0.0, 9.995273, 10.001447 
2.5144196e+3, 2.9860258e+2, -778254.6, -222854.69, 21711.922, 0.00887413, -0.44716093, -222007.22, -208358.58, 0.0, 9.994229, 10.001588 
2.5143313e+3, 3.0860385e+2, -795568.5, -88732.98, 45058.42, 0.14614819, -0.4979368, -85872.23, -85872.23, 0.0, 9.993267, 10.002638 
2.5142398e+3, 3.1860518e+2, -840623.4, -46083.027, -47646.35, 0.0047322544, -0.57460266, -43236.01, -43236.01, 0.0, 9.992692, 10.0032015 
2.5259572e+3, 1.2872104e+2, -893314.2, -1653083.8, 31468.252, -0.0915665, -0.48871872, -892013.06, 786472.3, 0.21173874, 10.008946, 9.996158 
2.525866e+3, 1.3871677e+2, -852978.75, -1615861.5, 23221.053, -0.02943578, -0.488312, -852272.6, 728255.7, 0.14888157, 10.007972, 9.996166 
2.525774e+3, 1.4871289e+2, -781336.75, -1479496.3, 32054.865, -0.07369474, -0.48586804, -779868.06, 702697.94, 0.0867889, 10.007033, 9.996877 
2.5256822e+3, 1.5870933e+2, -773365.25, -1447344.3, 35762.035, -0.12014454, -0.48751444, -771473.0, 613127.5, 0.038495474, 10.006133, 9.996859 
2.525591e+3, 1.6870606e+2, -733404.44, -1319865.6, 54369.113, -0.09018087, -0.48838165, -728406.6, 558226.2, 0.011335462, 10.005328, 9.997448 
2.5255004e+3, 1.7870308e+2, -740422.6, -1269369.3, 69135.32, -0.050945863, -0.48975778, -731535.7, 457126.63, 0.001627302, 10.004542, 9.997501 
2.5254095e+3, 1.8870053e+2, -731946.25, -1137518.9, 81911.336, -0.06662153, -0.48853865, -716027.8, 374659.63, 0.000037924143, 10.003591, 9.998192 
2.5253186e+3, 1.9869831e+2, -774284.5, -1107593.8, 71923.4, -0.09084197, -0.48686105, -759426.75, 233282.47, 0.0, 10.002627, 9.998189 
2.5252283e+3, 2.086965e+2, -730139.94, -965862.8, 74096.31, -0.070952274, -0.4773598, -708783.6, 185943.27, 0.0, 10.001958, 9.99881 
2.5251377e+3, 2.1869497e+2, -720344.5, -906385.7, 86354.09, -0.041315068, -0.46958533, -686440.44, 110301.125, 0.0, 10.001334, 9.998848 
2.5250474e+3, 2.2869357e+2, -717747.3, -777034.3, 98589.44, -0.043511037, -0.4873986, -644441.25, 54314.016, 0.0, 10.000347, 9.999538 
2.524957e+3, 2.3869245e+2, -774051.56, -754622.25, 96835.63, -0.049265962, -0.5112195, -667015.2, -66248.85, 0.0, 9.999292, 9.999528 
2.524867e+3, 2.4869208e+2, -736719.06, -619567.06, 83778.95, -0.016852638, -0.48820165, -575917.56, -73147.266, 0.0, 9.9985895, 10.00012 
2.5247768e+3, 2.5869212e+2, -731665.1, -565132.9, 77797.37, 0.020833481, -0.45580053, -534444.25, -129673.914, 0.0, 9.997946, 10.000132 
2.5246862e+3, 2.68692e+2, -718543.56, -434364.56, 74665.56, 0.00864831, -0.47185895, -415941.22, -109169.78, 0.0, 9.9970455, 10.00079 
2.5245953e+3, 2.7869207e+2, -762699.44, -407701.94, 73085.2, -0.00528157, -0.5011372, -393244.3, -184473.72, 0.0, 9.996081, 10.000766 
2.5245047e+3, 2.8869292e+2, -716488.06, -267855.13, 54816.24, 0.02887163, -0.4764111, -261254.52, -150492.42, 0.0, 9.995438, 10.001364 
2.5244138e+3, 2.9869428e+2, -695972.5, -189946.67, 62534.758, 0.049669787, -0.43896306, -182333.17, -169584.06, 0.0, 9.994833, 10.001517 
2.5243232e+3, 3.086949e+2, -750470.75, -78762.625, 58056.24, 0.049494777, -0.5480591, -73781.72, -73781.72, 0.0, 9.993636, 10.002523 
2.5242332e+3, 3.186986e+2, -832898.25, -22193.17, 35347.23, 0.08683881, -0.37239903, -20654.928, -20654.928, 0.0, 9.9926605, 10.00338 
2.5359654e+3, 1.2881291e+2, -905744.7, -1701985.0, 2225.4626, -0.11722086, -0.54924154, -905738.44, 771844.56, 0.19663717, 10.008879, 9.995809 
2.5358737e+3, 1.3880925e+2, -860328.0, -1646217.6, -4861.9307, -0.02928141, -0.4570337, -860297.94, 719324.1, 0.13763838, 10.007924, 9.995981 
2.5357807e+3, 1.4880523e+2, -774771.6, -1474015.9, 3394.375, -0.07288393, -0.46738523, -774755.2, 706906.2, 0.07961674, 10.0070095, 9.996932 
2.5356877e+3, 1.588014e+2, -764634.0, -1429303.1, 7511.524, -0.12492686, -0.5037245, -764549.1, 619149.06, 0.03483924, 10.006109, 9.996997 
2.535596e+3, 1.6879834e+2, -716689.8, -1283490.0, 27997.08, -0.09659286, -0.50593, -715310.25, 570417.7, 0.01000332, 10.00531, 9.997709 
2.5355044e+3, 1.7879568e+2, -735613.6, -1257008.0, 38554.17, -0.057633076, -0.4978486, -732778.2, 454975.63, 0.0013613446, 10.004525, 9.997598 
2.5354126e+3, 1.8879323e+2, -744986.9, -1164521.4, 46196.633, -0.066238396, -0.47845605, -739960.2, 349818.44, 0.000026566368, 10.003585, 9.998012 
2.535321e+3, 1.98791e+2, -775491.94, -1111199.1, 42462.277, -0.08329574, -0.4643458, -770204.3, 221596.97, 0.0, 10.002626, 9.998168 
2.5352296e+3, 2.0878895e+2, -714305.56, -934337.0, 53628.73, -0.067130394, -0.491877, -701930.5, 191890.13, 0.0, 10.001959, 9.99903 
2.5351387e+3, 2.1878724e+2, -709720.5, -884999.6, 59132.23, -0.044442087, -0.5236916, -691637.25, 104199.24, 0.0, 10.001331, 9.999 
2.5350472e+3, 2.287864e+2, -714458.7, -771770.4, 58741.043, -0.038755726, -0.49349517, -677756.56, 20088.295, 0.0, 10.000348, 9.999577 
2.534956e+3, 2.387859e+2, -776512.9, -761353.0, 62367.914, -0.034061562, -0.4565012, -706106.06, -106256.05, 0.0, 9.999293, 9.999484 
2.534865e+3, 2.4878494e+2, -748752.4, -646445.4, 59701.75, -0.0068341703, -0.47768137, -618979.7, -117120.18, 0.0, 9.998592, 9.999937 
2.5347742e+3, 2.5878415e+2, -733960.06, -574501.25, 49050.516, 0.018452333, -0.51199365, -560621.2, -156753.75, 0.0, 9.99796, 10.000064 
2.5346828e+3, 2.6878428e+2, -711300.06, -421666.16, 36340.938, 0.0054726726, -0.5064606, -417176.0, -111310.12, 0.0, 9.997049, 10.000878 
2.534591e+3, 2.787849e+2, -761335.44, -406090.78, 41022.9, 0.0019965477, -0.48718086, -401415.1, -193555.53, 0.0, 9.99608, 10.000781 
2.5345004e+3, 2.8878564e+2, -721082.6, -280567.4, 32420.674, 0.090124026, -0.4708027, -278194.13, -168341.75, 0.0, 9.995445, 10.001275 
2.5344092e+3, 2.9878637e+2, -707215.56, -220822.52, 30183.412, 0.13285427, -0.48675263, -218956.63, -207111.11, 0.0, 9.994859, 10.001296 
2.5343147e+3, 3.0878755e+2, -775550.44, -137402.42, 4014.387, -0.14783117, -0.49657944, -137377.17, -137377.17, 0.0, 9.993658, 10.002113 
2.5342262e+3, 3.187909e+2, -816396.56, -1037.6632, 33660.31, 0.15820658, -0.32968277, 349.56882, 349.56882, 0.0, 9.992694, 10.003521 
2.5459737e+3, 1.2890613e+2, -932313.7, -1723835.1, 12242.533, -0.12496894, -0.5425713, -932124.4, 744544.94, 0.18151891, 10.008523, 9.9958315 
2.545881e+3, 1.3890234e+2, -886825.4, -1657541.3, 23383.879, -0.049300227, -0.46327457, -886116.5, 692593.06, 0.12644866, 10.007606, 9.996057 
2.5457868e+3, 1.488984e+2, -803528.4, -1476310.5, 40753.645, -0.082898505, -0.47760075, -801068.7, 679679.4, 0.07253695, 10.0067, 9.997059 
2.5456932e+3, 1.5889466e+2, -796144.25, -1434165.1, 49729.33, -0.11972393, -0.51444227, -792291.44, 590492.3, 0.031275768, 10.005825, 9.997098 
2.5456005e+3, 1.6889176e+2, -757321.25, -1297262.5, 63264.74, -0.09708504, -0.50497514, -750007.6, 534804.5, 0.008735585, 10.005001, 9.997761 
2.5455084e+3, 1.7888924e+2, -778364.0, -1270276.3, 60930.766, -0.06881915, -0.4851981, -770929.2, 415907.56, 0.0011210148, 10.004204, 9.997658 
2.5454158e+3, 1.888867e+2, -757590.7, -1162229.6, 77498.58, -0.07689762, -0.4802284, -743255.6, 345606.7, 0.000017840424, 10.0034685, 9.998079 
2.5453234e+3, 1.9888437e+2, -753506.8, -1089232.3, 88421.82, -0.08785822, -0.4825172, -731642.56, 259243.25, 0.0, 10.002736, 9.998262 
2.5452313e+3, 2.0888248e+2, -728296.4, -927532.7, 97866.5, -0.06373958, -0.50219524, -688266.3, 204637.13, 0.0, 10.001811, 9.999145 
2.5451395e+3, 2.1888095e+2, -773845.75, -909480.7, 94120.695, -0.03442196, -0.52340573, -725654.94, 69262.35, 0.0, 10.000871, 9.999049 
2.5450474e+3, 2.2888003e+2, -738657.7, -791215.1, 84055.79, -0.03362887, -0.4956314, -676868.56, 20057.883, 0.0, 10.000222, 9.999499 
2.544955e+3, 2.3887944e+2, -731319.06, -740750.44, 82866.44, -0.03419026, -0.46185723, -653034.25, -54101.51, 0.0, 9.999616, 9.999467 
2.5448635e+3, 2.4887845e+2, -714677.94, -621607.6, 96304.09, -0.007028816, -0.49020505, -561184.8, -60242.598, 0.0, 9.998796, 10.000006 
2.5447717e+3, 2.588776e+2, -737805.1, -575492.0, 99709.58, 0.020295339, -0.5323236, -528085.8, -125135.625, 0.0, 9.997937, 10.000065 
2.5446793e+3, 2.688777e+2, -684684.75, -421436.34, 74955.07, 0.005876055, -0.5193037, -401590.44, -96641.336, 0.0, 9.997293, 10.000759 
2.544587e+3, 2.7887833e+2, -682097.3, -376336.4, 65033.688, 0.0031714162, -0.49036887, -363078.9, -156135.53, 0.0, 9.996667, 10.000698 
2.5444955e+3, 2.8887895e+2, -678045.8, -263743.9, 58039.684, 0.10056035, -0.47991723, -255766.7, -146829.45, 0.0, 9.995763, 10.001235 
2.5444037e+3, 2.9887953e+2, -723949.9, -242545.1, 56951.168, 0.14466508, -0.4998612, -235899.4, -224968.14, 0.0, 9.994805, 10.001171 
2.544308e+3, 3.0888063e+2, -697745.44, -123862.43, 36817.28, -0.17840113, -0.5014034, -121510.07, -121510.07, 0.0, 9.994301, 10.001893 
2.5442186e+3, 3.1888077e+2, -759102.06, -38083.027, 78100.945, 0.13599189, -0.6312609, -29720.115, -29720.115, 0.0, 9.9933815, 10.002926 
2.5559816e+3, 1.290004e+2, -913277.75, -1689209.4, -14565.6875, -0.1262222, -0.48858237, -913004.44, 762741.5, 0.16653068, 10.008433, 9.996111 
2.5558874e+3, 1.3899602e+2, -872586.1, -1628257.9, -4098.2573, -0.088126294, -0.49665472, -872563.9, 705227.1, 0.115410216, 10.007532, 9.996293 
2.555793e+3, 1.4899229e+2, -791945.5, -1458884.6, 11472.667, -0.102811, -0.508099, -791748.25, 688078.9, 0.06561025, 10.006673, 9.997204 
2.555699e+3, 1.5898892e+2, -791771.06, -1429412.3, 20187.67, -0.1084071, -0.519825, -791132.56, 590726.44, 0.02783773, 10.005819, 9.997136 
2.5556052e+3, 1.6898616e+2, -767239.2, -1318621.8, 35263.785, -0.09439767, -0.4880884, -764993.0, 518893.72, 0.007544752, 10.004993, 9.997621 
2.555512e+3, 1.7898369e+2, -778767.6, -1269267.9, 34232.074, -0.08548203, -0.45438963, -776390.1, 409521.8, 0.0009082251, 10.00419, 9.997674 
2.5554183e+3, 1.8898089e+2, -740544.8, -1126129.4, 52506.96, -0.09749965, -0.49267158, -733522.56, 354416.66, 0.00001159609, 10.00346, 9.998335 
2.5553253e+3, 1.9897835e+2, -743132.8, -1067171.4, 59359.41, -0.10557219, -0.53920245, -732601.25, 257362.45, 0.0, 10.0027275, 9.998421 
2.5552326e+3, 2.0897701e+2, -728623.56, -929530.6, 62431.227, -0.0610624, -0.50782603, -710803.8, 181172.33, 0.0, 10.001811, 9.999133 
2.5551403e+3, 2.1897608e+2, -779236.1, -921783.44, 64929.93, -0.0131358, -0.46919686, -754094.9, 39889.992, 0.0, 10.00087, 9.998968 
2.555047e+3, 2.2897446e+2, -752333.75, -821581.9, 63150.168, -0.029597396, -0.4942876, -714938.6, -18937.826, 0.0, 10.000226, 9.999292 
2.554954e+3, 2.3897298e+2, -729577.5, -740981.5, 56622.09, -0.05401868, -0.53083026, -678371.06, -80355.65, 0.0, 9.999626, 9.999463 
2.554862e+3, 2.4897254e+2, -691899.6, -577195.25, 62321.08, -0.017605074, -0.5263861, -549852.75, -49833.715, 0.0, 9.998803, 10.000311 
2.5547692e+3, 2.5897247e+2, -734348.0, -570864.0, 70214.84, 0.025288614, -0.51426095, -544847.56, -142828.92, 0.0, 9.997942, 10.000097 
2.5546762e+3, 2.6897225e+2, -709538.06, -476394.6, 51845.207, 0.0076199346, -0.5086003, -465385.4, -161364.02, 0.0, 9.997303, 10.00038 
2.554583e+3, 2.7897224e+2, -691629.1, -403864.72, 36203.652, -0.009877054, -0.5107713, -399379.8, -193357.02, 0.0, 9.996695, 10.000499 
2.5544906e+3, 2.8897274e+2, -673700.6, -259534.31, 19340.75, 0.05082315, -0.5049586, -258633.11, -150615.86, 0.0, 9.995777, 10.001261 
2.5543976e+3, 2.989738e+2, -724515.0, -243989.77, 28810.098, 0.082109764, -0.48102832, -242268.61, -232262.13, 0.0, 9.994801, 10.001166 
2.5543034e+3, 3.0897385e+2, -705114.5, -148441.08, 21688.492, -0.012817532, -0.57603645, -147597.36, -147597.36, 0.0, 9.994336, 10.001711 
2.5542107e+3, 3.1897476e+2, -790736.0, -111279.55, 4883.5156, 0.057241105, -0.6003684, -111244.445, -111244.445, 0.0, 9.993416, 10.002405 
2.5659892e+3, 1.2909505e+2, -957441.3, -1692346.3, 7217.8945, -0.12826474, -0.48829377, -957370.44, 717448.2, 0.15182686, 10.007832, 9.996383 
2.5658944e+3, 1.3909084e+2, -922352.3, -1635636.1, 20637.273, -0.09829635, -0.5030383, -921755.7, 655105.56, 0.10462688, 10.006983, 9.996507 
2.565799e+3, 1.4908727e+2, -826300.7, -1465737.8, 39152.246, -0.110125154, -0.50966704, -823912.3, 654983.3, 0.05889799, 10.006338, 9.997311 
2.565704e+3, 1.5908407e+2, -797329.25, -1424617.3, 43643.516, -0.110954955, -0.51419836, -794307.3, 586618.8, 0.02455538, 10.0057335, 9.997209 
2.5656095e+3, 1.6908121e+2, -786102.25, -1327098.8, 62074.918, -0.096393, -0.49404043, -779071.06, 503883.9, 0.0064406754, 10.00486, 9.997624 
2.5655153e+3, 1.790786e+2, -809136.7, -1274810.1, 70793.31, -0.08650499, -0.47314757, -798612.25, 386369.2, 0.00072310626, 10.003947, 9.997751 
2.5654215e+3, 1.8907608e+2, -773651.3, -1122800.6, 88626.24, -0.08913014, -0.4967247, -752443.1, 334562.97, 0.000007363407, 10.003156, 9.998502 
2.5653276e+3, 1.9907384e+2, -782945.56, -1073922.0, 88025.125, -0.08838901, -0.5259979, -758388.94, 230638.6, 0.0, 10.002406, 9.998527 
2.565234e+3, 2.0907247e+2, -741784.7, -935598.2, 87880.336, -0.05597046, -0.5022643, -707871.44, 183168.94, 0.0, 10.001726, 9.999129 
2.5651407e+3, 2.1907137e+2, -753257.5, -909289.6, 92237.51, -0.020945318, -0.47434822, -710466.8, 82583.336, 0.0, 10.001055, 9.998961 
2.5650468e+3, 2.2906962e+2, -742911.06, -817926.25, 105173.06, -0.029462319, -0.5104625, -668757.6, 26309.494, 0.0, 10.0003, 9.999279 
2.5649533e+3, 2.3906802e+2, -744479.0, -748687.1, 108441.234, -0.042560726, -0.55673325, -638121.4, -41038.688, 0.0, 9.999535, 9.999451 
2.56486e+3, 2.4906766e+2, -689258.75, -578968.5, 92774.22, -0.014760588, -0.5389591, -526187.56, -27101.871, 0.0, 9.998842, 10.000276 
2.5647667e+3, 2.5906774e+2, -707547.8, -561226.2, 79980.29, 0.01751007, -0.508998, -525992.56, -124908.22, 0.0, 9.998147, 10.000061 
2.564673e+3, 2.6906744e+2, -697692.9, -475551.56, 80693.58, 0.005313961, -0.50870425, -449333.7, -146245.52, 0.0, 9.997412, 10.00033 
2.5645792e+3, 2.7906722e+2, -700749.7, -410089.03, 83151.945, -0.0036512027, -0.52184385, -387982.34, -182891.16, 0.0, 9.996647, 10.000477 
2.564486e+3, 2.890677e+2, -657621.2, -249079.39, 63054.105, 0.04374408, -0.5215228, -239569.05, -132483.0, 0.0, 9.995883, 10.001277 
2.5643918e+3, 2.9906872e+2, -680745.4, -225171.22, 76471.7, 0.0658052, -0.49586877, -212677.47, -203602.52, 0.0, 9.995121, 10.001137 
2.5642976e+3, 3.0906862e+2, -709245.7, -168096.88, 76678.47, 0.014075217, -0.594007, -157441.67, -157441.67, 0.0, 9.9943905, 10.001547 
2.5642037e+3, 3.1907254e+2, -743741.25, -19789.652, 4528.361, 0.043626454, -0.30291066, -19761.328, -19761.328, 0.0, 9.993444, 10.003019 
2.5759965e+3, 1.2919004e+2, -936966.06, -1657333.5, -17372.893, -0.134223, -0.52563864, -936547.3, 737340.1, 0.13757831, 10.007762, 9.996671 
2.575901e+3, 1.3918665e+2, -907952.06, -1612370.6, -1149.3646, -0.09129557, -0.48611856, -907950.2, 667971.56, 0.09421351, 10.006947, 9.996685 
2.575805e+3, 1.4918323e+2, -819789.3, -1460098.8, 21384.965, -0.11125201, -0.48692632, -819075.9, 658879.06, 0.052465796, 10.006325, 9.997361 
2.5757092e+3, 1.5917999e+2, -792225.56, -1415329.3, 19126.785, -0.12546597, -0.50014347, -791639.0, 588347.0, 0.021458264, 10.005717, 9.997282 
2.5756142e+3, 1.6917682e+2, -780297.25, -1314493.6, 29435.291, -0.10234146, -0.5200113, -778680.2, 503337.22, 0.0054309773, 10.004848, 9.997719 
2.575519e+3, 1.7917396e+2, -803034.1, -1261686.4, 40638.387, -0.07690708, -0.5340023, -799461.25, 384584.6, 0.00056480465, 10.00394, 9.997848 
2.5754246e+3, 1.8917218e+2, -767646.75, -1112829.1, 61734.49, -0.056997653, -0.491769, -756938.0, 329125.88, 0.000004588243, 10.00316, 9.99857 
2.57533e+3, 1.9917072e+2, -779299.06, -1069190.8, 62602.336, -0.04097326, -0.44895816, -766357.75, 221720.72, 0.0, 10.002414, 9.998559 
2.5752354e+3, 2.0916872e+2, -742615.0, -939796.56, 63894.37, -0.050133612, -0.48702893, -723721.2, 166375.67, 0.0, 10.001732, 9.999101 
2.575141e+3, 2.1916683e+2, -749661.06, -903393.6, 66957.33, -0.060372323, -0.5385487, -724587.6, 67526.086, 0.0, 10.001057, 9.999004 
2.575047e+3, 2.2916551e+2, -731113.25, -795879.0, 76965.984, -0.032652844, -0.54294443, -679995.1, 14130.674, 0.0, 10.000305, 9.999431 
2.5749528e+3, 2.3916452e+2, -748889.06, -759741.5, 80650.85, -0.00009868554, -0.5386391, -673482.06, -77346.945, 0.0, 9.9995365, 9.999377 
2.5748587e+3, 2.4916379e+2, -718166.94, -640044.56, 65843.016, -0.00012494804, -0.5270552, -602548.06, -104405.15, 0.0, 9.998842, 9.999859 
2.5747645e+3, 2.5916332e+2, -713267.25, -577021.1, 51863.246, -0.008663105, -0.51709044, -559525.56, -159377.34, 0.0, 9.9981575, 9.99995 
2.5746703e+3, 2.6916316e+2, -675540.94, -432390.28, 50731.734, 0.00035795267, -0.521012, -422230.0, -120079.95, 0.0, 9.9974165, 10.0006275 
2.5745758e+3, 2.7916324e+2, -690022.8, -388618.25, 54232.363, 0.025815556, -0.5274448, -379157.1, -175008.19, 0.0, 9.996644, 10.000628 
2.5744817e+3, 2.8916374e+2, -661146.44, -257286.3, 33578.89, 0.08322881, -0.52837646, -254513.42, -148369.9, 0.0, 9.995882, 10.0012245 
2.5743866e+3, 2.9916438e+2, -684062.8, -237879.31, 48880.504, 0.0902732, -0.53535134, -232587.1, -224450.95, 0.0, 9.995139, 10.001044 
2.57429e+3, 3.09165e+2, -707235.2, -168524.81, 49842.395, -0.12279924, -0.5525859, -163952.13, -163952.13, 0.0, 9.994403, 10.001541 
2.5741974e+3, 3.1916785e+2, -699142.56, 75646.414, -117093.664, 0.12778999, -0.39469808, 92956.04, 92956.04, 0.0, 9.993418, 10.003696 
2.5860035e+3, 1.2928645e+2, -934227.3, -1645810.4, 24338.186, -0.14950597, -0.5493245, -933395.8, 739545.56, 0.12394338, 10.00761, 9.996835 
2.5859073e+3, 1.3928325e+2, -930855.4, -1618956.4, 40180.09, -0.0911632, -0.5017202, -928517.06, 646456.06, 0.08428129, 10.0066805, 9.996769 
2.5858104e+3, 1.492798e+2, -858812.25, -1487676.5, 65524.715, -0.1122248, -0.50089175, -852057.44, 624949.8, 0.046378158, 10.006046, 9.997297 
2.5857145e+3, 1.5927652e+2, -821420.4, -1424591.3, 52246.74, -0.1289787, -0.5134896, -816928.25, 562111.44, 0.018573785, 10.005481, 9.997331 
2.5856185e+3, 1.6927354e+2, -796392.1, -1300219.9, 59369.26, -0.10473763, -0.52717394, -789490.8, 491578.06, 0.0045212726, 10.004643, 9.997913 
2.5855225e+3, 1.7927091e+2, -819722.8, -1258139.9, 79462.37, -0.077540405, -0.53610766, -805764.8, 377329.94, 0.00043217643, 10.003779, 9.997947 
2.5854272e+3, 1.8926905e+2, -769263.8, -1117896.1, 99554.11, -0.05657696, -0.4985525, -742838.5, 342275.03, 0.0000027949502, 10.003174, 9.998527 
2.585332e+3, 1.9926749e+2, -754370.2, -1061378.3, 89631.766, -0.038611196, -0.46012142, -730117.8, 257011.53, 0.0, 10.002608, 9.998516 
2.5852367e+3, 2.0926541e+2, -733978.25, -941293.1, 86006.99, -0.048072815, -0.49893492, -702943.2, 186205.42, 0.0, 10.001822, 9.999044 
2.5851414e+3, 2.1926348e+2, -754979.6, -900778.0, 87343.13, -0.058960333, -0.5510923, -714111.0, 77055.12, 0.0, 10.001005, 9.999043 
2.5850466e+3, 2.292623e+2, -718058.5, -772454.5, 96749.31, -0.027782101, -0.5511845, -644756.94, 48419.355, 0.0, 10.000329, 9.999577 
2.584952e+3, 2.3926148e+2, -729149.9, -748704.6, 101573.27, 0.00986073, -0.54061216, -636884.5, -41700.996, 0.0, 9.999672, 9.999384 
2.584857e+3, 2.4926054e+2, -715189.7, -658817.25, 101044.83, 0.0059099225, -0.5343493, -582101.06, -84907.41, 0.0, 9.998956, 9.999672 
2.5847623e+3, 2.5925982e+2, -708385.7, -578242.44, 100185.68, -0.007224005, -0.5324046, -523850.72, -124648.73, 0.0, 9.998214, 9.999911 
2.584667e+3, 2.692597e+2, -655914.56, -406575.7, 89382.91, -0.0030446686, -0.5377626, -377844.4, -76641.43, 0.0, 9.997488, 10.000768 
2.584572e+3, 2.7925995e+2, -665744.8, -368825.78, 83161.61, 0.02210358, -0.54123574, -347120.44, -143920.38, 0.0, 9.996782, 10.000695 
2.5844774e+3, 2.8926057e+2, -600462.56, -232395.98, 63911.598, 0.09519024, -0.5266936, -221614.11, -116420.94, 0.0, 9.996322, 10.001181 
2.5843817e+3, 2.9926124e+2, -590421.5, -190120.53, 72502.88, 0.10896936, -0.53080875, -177393.39, -170207.6, 0.0, 9.995774, 10.001065 
2.5842836e+3, 3.0926138e+2, -691686.7, -139972.0, 75650.56, -0.16821887, -0.603285, -129786.89, -129786.89, 0.0, 9.994427, 10.001723 
2.5841904e+3, 3.192629e+2, -683484.1, 57294.926, -78716.67, 0.13271593, -0.5972804, 65567.14, 65567.14, 0.0, 9.993649, 10.003453 
2.5960106e+3, 1.2938397e+2, -928589.94, -1640124.9, -8253.59, -0.17879096, -0.56037635, -928494.2, 743489.2, 0.11103316, 10.007538, 9.996907 
2.5959134e+3, 1.3938053e+2, -930561.5, -1624734.4, 12006.674, -0.09824737, -0.54365236, -930353.94, 643663.1, 0.07491922, 10.006642, 9.996747 
2.5958163e+3, 1.4937694e+2, -869845.6, -1514733.5, 46506.773, -0.11309096, -0.54437715, -866509.0, 609544.6, 0.04069159, 10.006019, 9.997129 
2.5957194e+3, 1.5937363e+2, -823817.4, -1424542.6, 28618.496, -0.12739979, -0.546829, -822457.06, 555630.5, 0.015926639, 10.00544, 9.9973545 
2.5956225e+3, 1.6937128e+2, -778941.56, -1264140.3, 27418.223, -0.10644562, -0.51725197, -777397.1, 502713.25, 0.0037160094, 10.004636, 9.998168 
2.5955257e+3, 1.7936923e+2, -811740.0, -1247647.6, 52567.324, -0.08674043, -0.48862278, -805490.4, 376639.6, 0.00032379632, 10.0038, 9.998012 
2.5954297e+3, 1.8936661e+2, -780184.5, -1144075.9, 79936.83, -0.08428192, -0.51660097, -763398.9, 320756.9, 0.0000016192165, 10.003183, 9.998345 
2.595334e+3, 1.9936416e+2, -764778.94, -1082043.3, 65468.535, -0.07975166, -0.5506319, -751800.25, 234379.92, 0.0, 10.002599, 9.998382 
2.595238e+3, 2.0936252e+2, -739947.7, -955387.0, 55666.215, -0.048902772, -0.5342486, -726414.5, 161781.45, 0.0, 10.001823, 9.99895 
2.5951424e+3, 2.1936122e+2, -754389.44, -901115.56, 60695.07, -0.01845583, -0.51480734, -732536.8, 57671.4, 0.0, 10.001007, 9.999043 
2.5950468e+3, 2.2935994e+2, -710067.8, -757028.06, 73225.625, -0.01696475, -0.53590685, -656649.9, 35569.285, 0.0, 10.00033, 9.999684 
2.594951e+3, 2.3935883e+2, -722847.5, -738147.94, 75644.61, -0.017829595, -0.5635227, -654467.25, -60238.8, 0.0, 9.999678, 9.999456 
2.5948557e+3, 2.4935788e+2, -711652.5, -654184.2, 72355.15, 0.0039822035, -0.56252486, -605066.44, -108828.08, 0.0, 9.998961, 9.999705 
2.5947604e+3, 2.593572e+2, -707731.25, -579572.7, 72060.555, 0.021818813, -0.5572515, -547221.3, -148975.3, 0.0, 9.9982195, 9.999903 
2.594664e+3, 2.693571e+2, -660651.06, -416999.2, 60925.676, -0.0094137145, -0.5589576, -402613.9, -102366.61, 0.0, 9.997486, 10.000698 
2.5945678e+3, 2.793573e+2, -668309.75, -377297.8, 60287.004, -0.027380144, -0.5596839, -365302.97, -163058.05, 0.0, 9.99679, 10.000636 
2.594473e+3, 2.8935817e+2, -598323.8, -235737.72, 47799.953, 0.07856276, -0.5142546, -229542.08, -125306.836, 0.0, 9.996348, 10.001149 
2.5943774e+3, 2.9935914e+2, -573247.7, -163629.28, 36628.965, 0.13469571, -0.4865286, -160379.61, -154155.22, 0.0, 9.995808, 10.001234 
2.5942782e+3, 3.093576e+2, -673425.3, -96713.98, 15459.704, -0.12342353, -0.76163566, -96299.85, -96299.85, 0.0, 9.994396, 10.002038 
2.5941828e+3, 3.193611e+2, -714289.5, -23235.98, 70662.05, 0.047633268, -0.55860686, -16084.6045, -16084.6045, 0.0, 9.993717, 10.002869 
2.606017e+3, 1.2948231e+2, -953074.0, -1659303.8, 355.73764, -0.20109776, -0.5456401, -953073.8, 717944.94, 0.098909326, 10.007283, 9.9968815 
2.6059195e+3, 1.3947834e+2, -950036.44, -1632068.9, 21380.002, -0.09192147, -0.5794197, -949366.9, 623690.3, 0.06618662, 10.006433, 9.996798 
2.6058215e+3, 1.4947504e+2, -910302.4, -1520163.4, 73678.016, -0.110190645, -0.56265575, -901527.56, 573563.6, 0.035447396, 10.005645, 9.997269 
2.605724e+3, 1.5947211e+2, -889772.25, -1446572.0, 69549.58, -0.13037588, -0.53936285, -881216.3, 495905.38, 0.013535386, 10.0049305, 9.997445 
2.6056266e+3, 1.6946962e+2, -797270.25, -1270675.8, 59573.08, -0.10565628, -0.52457464, -789888.7, 489256.78, 0.0030174716, 10.004502, 9.998184 
2.6055294e+3, 1.7946738e+2, -770378.94, -1227268.3, 68305.42, -0.08228832, -0.5148009, -760385.8, 420780.9, 0.00023772329, 10.004088, 9.99801 
2.6054323e+3, 1.894648e+2, -772058.2, -1143282.0, 98223.49, -0.08903291, -0.53643394, -747670.94, 335521.3, 0.00000086705097, 10.003261, 9.99831 
2.6053357e+3, 1.9946238e+2, -798481.44, -1099748.0, 93153.76, -0.092901304, -0.56192404, -772004.56, 213211.78, 0.0, 10.002382, 9.998361 
2.6052392e+3, 2.0946074e+2, -755842.8, -964424.2, 88749.1, -0.05091321, -0.5439276, -723192.06, 164040.39, 0.0, 10.001728, 9.99893 
2.6051432e+3, 2.1945941e+2, -740622.6, -898174.1, 96028.4, -0.006915384, -0.5217284, -695192.6, 94052.53, 0.0, 10.001122, 9.999005 
2.6050466e+3, 2.2945803e+2, -694426.44, -756716.0, 99616.195, -0.015976135, -0.54481554, -621199.8, 70057.42, 0.0, 10.000474, 9.999615 
2.60495e+3, 2.3945683e+2, -703791.94, -723814.2, 89950.15, -0.028096836, -0.57537913, -623297.56, -30030.07, 0.0, 9.999794, 9.9994955 
2.604854e+3, 2.4945605e+2, -689661.8, -626401.75, 89971.14, 0.0017139933, -0.5698093, -562662.7, -67387.22, 0.0, 9.999045, 9.999852 
2.604758e+3, 2.5945553e+2, -695331.2, -570146.2, 98077.734, 0.03083007, -0.55983305, -516389.8, -119108.68, 0.0, 9.998297, 9.999927 
2.604661e+3, 2.694552e+2, -633102.5, -418806.84, 85438.94, -0.0016768186, -0.5716997, -388912.84, -89628.44, 0.0, 9.997746, 10.000558 
2.6045644e+3, 2.7945516e+2, -617970.44, -362326.38, 80044.14, -0.023094336, -0.58328044, -339332.16, -138047.69, 0.0, 9.997182, 10.000546 
2.604469e+3, 2.8945607e+2, -589622.9, -234867.33, 67107.02, 0.06581705, -0.5279245, -222597.45, -119322.83, 0.0, 9.996431, 10.001111 
2.6043725e+3, 2.9945713e+2, -597434.1, -174791.77, 40744.777, 0.11194714, -0.48927408, -170899.61, -165636.47, 0.0, 9.995648, 10.00123 
2.6042727e+3, 3.094553e+2, -595097.6, -63575.715, -17927.658, -0.062217917, -0.7917398, -62971.72, -62971.72, 0.0, 9.994958, 10.001993 
2.6041764e+3, 3.1945974e+2, -633604.75, 1833.2706, 135161.6, 0.05588091, -0.4782756, 29388.098, 29388.098, 0.0, 9.994338, 10.002738 
2.6160237e+3, 1.2958135e+2, -961726.8, -1673356.3, -30351.146, -0.21773075, -0.5179015, -960434.7, 709613.7, 0.08760558, 10.007179, 9.996825 
2.6159254e+3, 1.3957676e+2, -944694.8, -1620469.3, -5290.994, -0.083914496, -0.60987043, -944653.4, 627439.0, 0.058114182, 10.006378, 9.996903 
2.6158267e+3, 1.4957406e+2, -888845.7, -1477722.5, 46389.52, -0.10981053, -0.5604704, -885213.7, 588906.5, 0.030664928, 10.005628, 9.997571 
2.6157284e+3, 1.5957174e+2, -882877.75, -1435031.6, 46869.66, -0.13723561, -0.50069565, -878927.5, 497216.6, 0.011406426, 10.004929, 9.997528 
2.6156306e+3, 1.6956852e+2, -812070.56, -1301093.0, 45616.855, -0.103124216, -0.5468312, -807851.7, 470323.2, 0.002423629, 10.004493, 9.997983 
2.615533e+3, 1.7956547e+2, -778579.9, -1239621.1, 45780.734, -0.07040009, -0.6003172, -774077.9, 406126.13, 0.00017160534, 10.004063, 9.99794 
2.6154354e+3, 1.8956359e+2, -766809.4, -1132507.6, 64644.617, -0.07545618, -0.55622715, -755718.5, 326504.63, 0.00000042407203, 10.003256, 9.998389 
2.615338e+3, 1.9956201e+2, -793553.0, -1092390.0, 64936.426, -0.08104475, -0.50490034, -780052.44, 204186.83, 0.0, 10.002389, 9.99841 
2.6152405e+3, 2.0955993e+2, -754327.5, -963818.75, 66747.06, -0.055274878, -0.5311224, -734868.4, 151390.72, 0.0, 10.001734, 9.998934 
2.6151437e+3, 2.19558e+2, -748305.8, -914628.25, 73713.18, -0.028341834, -0.5695552, -720339.1, 67938.48, 0.0, 10.00112, 9.998897 
2.6150465e+3, 2.2955655e+2, -711546.5, -794330.5, 75333.13, -0.024809863, -0.5770699, -666982.8, 23308.264, 0.0, 10.000477, 9.999358 
2.6149496e+3, 2.3955545e+2, -704278.9, -727538.75, 62670.125, -0.022257803, -0.57741314, -652168.7, -59867.406, 0.0, 9.9998, 9.999471 
2.6148528e+3, 2.49555e+2, -672657.06, -592038.8, 59830.117, -0.0030946971, -0.5545267, -560205.94, -65900.5, 0.0, 9.999045, 10.00009 
2.6147556e+3, 2.5955477e+2, -691641.56, -565724.8, 72656.2, 0.014075597, -0.53644246, -532544.3, -136236.63, 0.0, 9.998305, 9.999956 
2.6146588e+3, 2.69554e+2, -648090.5, -453758.47, 64515.81, 0.025285607, -0.5760591, -434290.34, -135975.44, 0.0, 9.997757, 10.000316 
2.614562e+3, 2.7955347e+2, -625187.44, -382512.66, 54180.48, 0.044542585, -0.61573374, -370965.56, -170645.77, 0.0, 9.997199, 10.000402 
2.6144645e+3, 2.8955415e+2, -595849.8, -247815.25, 34048.14, 0.04871431, -0.573502, -244515.61, -142202.9, 0.0, 9.996426, 10.001027 
2.6143667e+3, 2.9955503e+2, -619201.44, -217539.98, 11007.444, 0.00998406, -0.5376938, -217238.56, -212935.19, 0.0, 9.995631, 10.000948 
2.6142687e+3, 3.0955458e+2, -621337.5, -130821.914, -44376.79, 0.05226229, -0.6591313, -126839.49, -126839.49, 0.0, 9.9950075, 10.001511 
2.6141703e+3, 3.1955636e+2, -649143.06, -37924.63, 57399.723, 0.05970672, -0.5759708, -32580.92, -32580.92, 0.0, 9.99436, 10.00246 
2.6260304e+3, 1.2968053e+2, -1028241.6, -1683858.6, -8655.581, -0.18246837, -0.5293001, -1028127.3, 640948.94, 0.07713505, 10.0064945, 9.997086 
2.625931e+3, 1.396764e+2, -954178.25, -1609483.4, 24772.666, -0.10812047, -0.5977096, -953243.1, 617872.4, 0.05070365, 10.006198, 9.997065 
2.6258317e+3, 1.4967358e+2, -901388.0, -1480421.4, 62245.65, -0.12248754, -0.56378686, -894772.25, 578371.44, 0.02633946, 10.005509, 9.997605 
2.625733e+3, 1.596711e+2, -901058.2, -1442399.4, 53011.133, -0.1261963, -0.52248794, -895915.9, 479252.84, 0.009532112, 10.004796, 9.997538 
2.6256347e+3, 1.6966799e+2, -849078.3, -1321605.5, 63715.375, -0.09298076, -0.5576533, -840637.7, 436561.4, 0.0019275332, 10.004256, 9.9979515 
2.6255363e+3, 1.7966503e+2, -824448.44, -1258294.3, 67231.17, -0.06565494, -0.5991583, -814268.8, 364958.97, 0.00012249968, 10.003742, 9.997962 
2.625438e+3, 1.896631e+2, -785653.56, -1132823.0, 78741.63, -0.06997064, -0.5625948, -768629.0, 312617.94, 0.00000019125741, 10.003097, 9.99846 
2.62534e+3, 1.9966151e+2, -782928.9, -1083136.9, 79296.18, -0.073391534, -0.51791054, -763271.0, 219992.0, 0.0, 10.00245, 9.998442 
2.625242e+3, 2.0965947e+2, -730537.44, -954729.25, 83448.945, -0.055606086, -0.53890765, -702886.4, 182396.33, 0.0, 10.001913, 9.998907 
2.625144e+3, 2.1965754e+2, -715338.75, -900410.0, 86646.766, -0.03657028, -0.5724497, -681104.9, 106196.336, 0.0, 10.001361, 9.998874 
2.6250464e+3, 2.2965607e+2, -701408.0, -793152.2, 96890.61, -0.03221112, -0.58005774, -640079.1, 49236.26, 0.0, 10.00057, 9.999317 
2.624949e+3, 2.3965493e+2, -709509.25, -732689.5, 99286.484, -0.025691032, -0.579535, -621138.7, -29812.428, 0.0, 9.999782, 9.99944 
2.6248515e+3, 2.4965441e+2, -632613.4, -574474.7, 84771.6, -0.0046820343, -0.5595838, -513926.78, -20595.879, 0.0, 9.999332, 10.00007 
2.624754e+3, 2.596541e+2, -613695.5, -532230.56, 78683.875, 0.015928095, -0.544526, -484361.2, -89027.66, 0.0, 9.998864, 9.999913 
2.6246563e+3, 2.6965332e+2, -617176.8, -447844.84, 74286.164, 0.03098899, -0.57631576, -419875.3, -122534.52, 0.0, 9.998014, 10.000229 
2.6245588e+3, 2.7965277e+2, -642414.5, -398117.66, 73606.195, 0.055391647, -0.61014163, -377654.3, -178308.28, 0.0, 9.99712, 10.00033 
2.6244608e+3, 2.8965312e+2, -592011.8, -253890.92, 53656.03, 0.046241958, -0.58906764, -245580.56, -144238.47, 0.0, 9.996492, 10.00095 
2.6243618e+3, 2.9965377e+2, -585107.56, -214744.31, 37809.633, -0.009553849, -0.5697197, -210923.81, -207588.28, 0.0, 9.995931, 10.000819 
2.6242638e+3, 3.09654e+2, -540159.1, -106889.11, 11263.227, 0.080236845, -0.6059314, -106596.51, -106596.51, 0.0, 9.99564, 10.001366 
2.624164e+3, 3.196542e+2, -599160.6, -60323.34, 63013.996, -0.010966485, -0.6627831, -53052.32, -53052.32, 0.0, 9.994912, 10.002035 
2.6360372e+3, 1.2978004e+2, -1001030.25, -1625710.9, -16092.404, -0.121055424, -0.56337935, -1000615.94, 667484.9, 0.06749064, 10.006432, 9.997533 
2.635936e+3, 1.3977711e+2, -941566.0, -1589294.0, 6584.404, -0.15991141, -0.55144155, -941499.06, 628628.9, 0.043938164, 10.006186, 9.9972105 
2.6358363e+3, 1.4977366e+2, -909781.94, -1506596.5, 34241.03, -0.14547364, -0.5712656, -907823.9, 564338.0, 0.022453379, 10.005517, 9.997424 
2.6357377e+3, 1.5977041e+2, -903665.56, -1450482.1, 29712.768, -0.10374791, -0.5897043, -902055.75, 472138.16, 0.00789759, 10.004794, 9.997485 
2.6356384e+3, 1.69768e+2, -843234.1, -1310703.4, 45346.973, -0.07889493, -0.55901474, -838875.9, 437342.22, 0.0015195382, 10.004255, 9.99803 
2.6355395e+3, 1.7976582e+2, -820261.44, -1250275.5, 45610.906, -0.067766845, -0.52958745, -815476.8, 362762.94, 0.00008707493, 10.003739, 9.998021 
2.6354405e+3, 1.897633e+2, -785236.9, -1131194.3, 54257.45, -0.07245489, -0.55878025, -776927.1, 303337.22, 0.00000008629741, 10.003087, 9.998479 
2.635342e+3, 1.9976094e+2, -786389.75, -1087469.5, 57771.918, -0.07376775, -0.5900752, -775684.94, 206602.11, 0.0, 10.002433, 9.998423 
2.6352435e+3, 2.0975934e+2, -735003.4, -964600.8, 64720.082, -0.05286474, -0.5636268, -718016.56, 166286.72, 0.0, 10.001911, 9.998842 
2.635145e+3, 2.1975797e+2, -711739.56, -894410.6, 62647.293, -0.033242896, -0.53618246, -692319.25, 93997.75, 0.0, 10.001362, 9.998918 
2.6350465e+3, 2.297565e+2, -691213.2, -773037.1, 66132.67, -0.039213758, -0.5553399, -654360.7, 33970.094, 0.0, 10.000569, 9.999458 
2.634948e+3, 2.3975517e+2, -713496.7, -742595.06, 75739.36, -0.04281965, -0.5811618, -650921.75, -60578.887, 0.0, 9.9997835, 9.999374 
2.6348504e+3, 2.4975416e+2, -652967.4, -619606.8, 69151.11, -0.0022941474, -0.58701104, -565152.7, -72800.05, 0.0, 9.99934, 9.999758 
2.6347524e+3, 2.5975344e+2, -619544.8, -550566.5, 52810.906, 0.033828076, -0.5869662, -521980.34, -127620.54, 0.0, 9.998885, 9.99978 
2.6346534e+3, 2.697532e+2, -611939.4, -439101.0, 37085.652, 0.0077041197, -0.5699444, -431479.66, -135117.11, 0.0, 9.998018, 10.00029 
2.6345548e+3, 2.7975312e+2, -644372.9, -402167.1, 43528.004, -0.0051865894, -0.55676043, -394582.0, -196218.88, 0.0, 9.997114, 10.000308 
2.6344568e+3, 2.8975308e+2, -597664.56, -266991.22, 30194.283, 0.068758726, -0.56924623, -264256.75, -163893.86, 0.0, 9.996493, 10.000863 
2.634358e+3, 2.9975328e+2, -577314.3, -203944.64, 20932.158, 0.08219461, -0.5882507, -202774.8, -200414.42, 0.0, 9.995948, 10.000889 
2.6342577e+3, 3.0975342e+2, -517183.3, -71117.07, 4060.0007, -0.039620176, -0.652427, -71080.125, -71080.125, 0.0, 9.995684, 10.001594 
2.6341587e+3, 3.1975496e+2, -611354.44, -97228.375, -9684.399, 0.02224766, -0.5824571, -97046.016, -97046.016, 0.0, 9.994951, 10.001768 
2.6460427e+3, 1.2988041e+2, -1037289.3, -1649176.1, 34660.195, -0.1359822, -0.59054625, -1035332.25, 631783.0, 0.058649577, 10.006132, 9.997503 
2.645942e+3, 1.3987756e+2, -940134.94, -1591649.0, 24200.008, -0.15036517, -0.5666445, -939237.3, 629904.9, 0.037796948, 10.006175, 9.997197 
2.6458415e+3, 1.498741e+2, -903708.06, -1503871.6, 43032.645, -0.13394526, -0.58630615, -900638.3, 570537.9, 0.01898788, 10.005552, 9.997421 
2.645742e+3, 1.5987082e+2, -894889.5, -1445444.8, 48000.31, -0.092232324, -0.6078462, -890735.94, 482472.63, 0.006486597, 10.004853, 9.997488 
2.6456425e+3, 1.6986844e+2, -851356.94, -1313858.1, 63485.57, -0.07876008, -0.5721916, -842800.9, 432431.84, 0.0011890252, 10.004202, 9.99803 
2.6455426e+3, 1.7986634e+2, -843296.4, -1254776.3, 56259.504, -0.07709473, -0.535574, -835742.94, 341511.06, 0.00006212847, 10.00356, 9.998074 
2.645443e+3, 1.8986385e+2, -808312.7, -1131337.3, 65142.906, -0.06830413, -0.56856304, -795670.4, 283607.63, 0.000000036839044, 10.00289, 9.998569 
2.6453438e+3, 1.998615e+2, -810928.8, -1091983.0, 75948.76, -0.056320995, -0.6068619, -791718.4, 189581.97, 0.0, 10.002241, 9.99848 
2.6452446e+3, 2.098599e+2, -766197.6, -978291.8, 90227.195, -0.049688794, -0.58068454, -733007.75, 150309.02, 0.0, 10.001699, 9.998847 
2.6451457e+3, 2.1985859e+2, -739804.6, -906783.25, 86067.13, -0.043693054, -0.54816943, -703385.56, 81944.8, 0.0, 10.001171, 9.998921 
2.6450467e+3, 2.2985719e+2, -684778.6, -770228.44, 76666.14, -0.042099345, -0.5570501, -639736.1, 47607.36, 0.0, 10.00062, 9.999451 
2.6449475e+3, 2.3985593e+2, -679503.6, -730011.9, 82081.0, -0.035217553, -0.57519263, -618879.56, -29524.35, 0.0, 10.000039, 9.999333 
2.644849e+3, 2.4985474e+2, -653461.75, -629763.9, 91579.58, -0.0021095597, -0.59023243, -549269.9, -57903.086, 0.0, 9.999386, 9.999663 
2.6447508e+3, 2.598538e+2, -646664.1, -565601.6, 84326.305, 0.026645552, -0.6000349, -512571.63, -119195.78, 0.0, 9.998714, 9.999756 
2.6446512e+3, 2.6985365e+2, -596787.6, -426403.63, 63980.32, 0.00084545254, -0.57659763, -405053.8, -109676.06, 0.0, 9.998105, 10.000333 
2.6445514e+3, 2.7985364e+2, -594636.94, -381786.63, 72082.58, -0.009933498, -0.5556011, -359673.0, -162295.61, 0.0, 9.997477, 10.00027 
2.644453e+3, 2.8985348e+2, -553557.75, -259136.56, 59892.53, 0.07123491, -0.5688107, -247419.27, -148040.75, 0.0, 9.9968605, 10.000736 
2.6443538e+3, 2.9985356e+2, -539076.0, -186520.53, 47875.695, 0.097860016, -0.5878607, -180134.86, -178757.63, 0.0, 9.996222, 10.000873 
2.6442525e+3, 3.0985373e+2, -533467.6, -69004.836, 22608.275, -0.05868106, -0.6549992, -67906.945, -67906.945, 0.0, 9.995535, 10.001677 
2.6441535e+3, 3.1985572e+2, -575915.25, -74755.81, 1767.5765, 0.06634321, -0.5454872, -74749.58, -74749.58, 0.0, 9.995181, 10.001806 
2.6560476e+3, 1.299815e+2, -1047491.2, -1691912.4, 38411.926, -0.20440972, -0.61346805, -1045209.6, 620911.94, 0.050577726, 10.006177, 9.997181 
2.655948e+3, 1.3997799e+2, -949047.6, -1610738.4, 13944.232, -0.09902251, -0.6279004, -948753.9, 619402.25, 0.032256313, 10.006138, 9.997086 
2.655847e+3, 1.4997497e+2, -899715.25, -1494746.9, 17084.762, -0.09945279, -0.60720396, -899225.1, 570960.94, 0.015922232, 10.005527, 9.997499 
2.6557463e+3, 1.5997215e+2, -895535.8, -1445757.0, 23814.684, -0.093214445, -0.5888536, -894506.94, 477707.1, 0.0052813306, 10.004839, 9.997496 
2.6556456e+3, 1.6996932e+2, -858830.6, -1327660.3, 41088.91, -0.092053525, -0.5941067, -855256.75, 418986.13, 0.00092486036, 10.004188, 9.997945 
2.6555458e+3, 1.7996673e+2, -844364.75, -1254115.8, 33167.656, -0.09417551, -0.5997352, -841697.3, 334571.78, 0.000044751974, 10.003542, 9.998089 
2.6554456e+3, 1.8996477e+2, -798941.4, -1113179.0, 41285.063, -0.059006806, -0.5887385, -793607.8, 284680.0, 0.000000014947995, 10.002891, 9.998695 
2.655346e+3, 1.9996302e+2, -802632.9, -1077639.6, 54475.996, -0.024775673, -0.580362, -792234.9, 188069.53, 0.0, 10.002249, 9.998577 
2.655246e+3, 2.0996109e+2, -762859.9, -972671.75, 71306.914, -0.047418106, -0.5929188, -740919.7, 141404.13, 0.0, 10.001699, 9.998888 
2.655146e+3, 2.1995933e+2, -746027.2, -917380.0, 66835.516, -0.071652725, -0.6043135, -723041.6, 61299.95, 0.0, 10.001156, 9.998858 
2.6550466e+3, 2.2995812e+2, -696864.8, -795967.56, 56452.17, -0.040943574, -0.58303195, -671301.7, 15052.207, 0.0, 10.000619, 9.999276 
2.6549476e+3, 2.399571e+2, -679516.94, -733555.2, 58711.453, -0.0062367916, -0.56216234, -641905.8, -53541.84, 0.0, 10.00005, 9.999308 
2.6548478e+3, 2.4995609e+2, -644517.25, -613093.3, 64825.63, -0.006985791, -0.56782925, -562102.75, -71728.99, 0.0, 9.999389, 9.99978 
2.6547486e+3, 2.5995526e+2, -641046.6, -555194.75, 59430.41, -0.01128171, -0.58048207, -524808.94, -132427.2, 0.0, 9.998714, 9.999829 
2.654649e+3, 2.6995465e+2, -595995.8, -425924.88, 40523.72, 0.01586673, -0.60073346, -416762.66, -122375.68, 0.0, 9.998105, 10.000339 
2.6545492e+3, 2.7995428e+2, -596652.94, -391280.97, 48745.97, 0.04865932, -0.6160377, -380298.22, -183908.33, 0.0, 9.997494, 10.000199 
2.6544493e+3, 2.8995436e+2, -564698.2, -287144.25, 35788.273, 0.040491063, -0.5888548, -282603.94, -184214.72, 0.0, 9.996876, 10.00054 
2.6543486e+3, 2.999548e+2, -549075.3, -209705.28, 21590.922, 0.006907514, -0.5575154, -208337.17, -207951.64, 0.0, 9.996226, 10.000713 
2.6542488e+3, 3.0995503e+2, -544095.06, -87172.41, -7473.2607, 0.08449269, -0.60368633, -87050.21, -87050.21, 0.0, 9.995511, 10.001567 
2.6541474e+3, 3.1995577e+2, -556179.94, -43098.98, 49265.617, -0.021488843, -0.6150978, -38411.363, -38411.363, 0.0, 9.995216, 10.00201 
2.6660538e+3, 1.3008323e+2, -1002032.3, -1692646.8, 56878.535, -0.19050084, -0.61123526, -997379.2, 667743.7, 0.04323323, 10.00656, 9.996992 
2.6659536e+3, 1.400793e+2, -981360.3, -1627511.3, 31594.635, -0.0887084, -0.65280324, -979819.1, 587343.2, 0.0272808, 10.005886, 9.99709 
2.665852e+3, 1.5007643e+2, -928801.25, -1488686.6, 35894.543, -0.094569996, -0.6293823, -926509.4, 542681.1, 0.013226269, 10.00523, 9.997679 
2.6657504e+3, 1.6007383e+2, -921233.56, -1444689.1, 48294.453, -0.09333664, -0.60361356, -916815.2, 454400.84, 0.0042593074, 10.004605, 9.997611 
2.6656494e+3, 1.7007107e+2, -883924.9, -1334317.0, 72665.03, -0.093810014, -0.6081923, -872491.5, 400752.75, 0.0007149501, 10.003999, 9.997986 
2.6655486e+3, 1.8006848e+2, -861401.8, -1257287.5, 70506.086, -0.09665136, -0.61564183, -849219.75, 326050.72, 0.00003245581, 10.00341, 9.998127 
2.665448e+3, 1.9006653e+2, -807130.9, -1114762.5, 73948.9, -0.05985833, -0.60462165, -790278.2, 287011.22, 0.0000000057994387, 10.002831, 9.99871 
2.6653478e+3, 2.0006482e+2, -800623.9, -1073195.5, 80285.5, -0.021941291, -0.59181416, -778733.9, 200571.97, 0.0, 10.0022545, 9.998602 
2.665247e+3, 2.1006297e+2, -768277.9, -972020.0, 93770.375, -0.043217078, -0.5975188, -731691.0, 149633.53, 0.0, 10.001654, 9.998912 
2.6651466e+3, 2.2006126e+2, -758911.06, -923031.3, 89186.125, -0.06561573, -0.60591763, -719777.0, 63564.957, 0.0, 10.001071, 9.998857 
2.6650468e+3, 2.3005989e+2, -704365.06, -804555.5, 88474.13, -0.03244096, -0.59361964, -652788.25, 32567.607, 0.0, 10.000595, 9.999226 
2.664947e+3, 2.4005878e+2, -674216.1, -730630.1, 94477.4, 0.0046296446, -0.5778978, -603824.9, -16457.617, 0.0, 10.000091, 9.999305 
2.6648468e+3, 2.5005794e+2, -648156.56, -610607.94, 90898.05, -0.010447337, -0.5683074, -536565.6, -47190.04, 0.0, 9.999351, 9.999812 
2.6647466e+3, 2.6005724e+2, -658297.5, -562863.94, 82578.625, -0.024477806, -0.5676514, -515207.13, -123824.88, 0.0, 9.998599, 9.99983 
2.6646465e+3, 2.700565e+2, -596753.75, -431970.3, 62001.05, 0.022926431, -0.59865874, -411247.9, -117859.0, 0.0, 9.998131, 10.000281 
2.6645464e+3, 2.8005594e+2, -574060.6, -381459.22, 64713.813, 0.07356273, -0.62767965, -361735.34, -166341.89, 0.0, 9.99766, 10.000183 
2.6644453e+3, 2.90056e+2, -542999.56, -275845.25, 60729.55, 0.018735195, -0.6020557, -262688.2, -165295.3, 0.0, 9.997026, 10.000542 
2.664344e+3, 3.000564e+2, -542493.1, -226732.0, 56986.133, -0.049486846, -0.565804, -216762.36, -216762.36, 0.0, 9.996364, 10.000527 
2.6642448e+3, 3.100566e+2, -519905.2, -117410.28, 11611.61, 0.17515995, -0.5800597, -117075.57, -117075.57, 0.0, 9.995866, 10.001184 
2.6641414e+3, 3.200566e+2, -544476.56, 23991.463, 63782.61, -0.092281684, -0.6553252, 31060.033, 31060.033, 0.0, 9.99504, 10.002552 
2.6760602e+3, 1.3018556e+2, -1005134.5, -1707362.8, 32535.703, -0.12630779, -0.5921277, -1003630.3, 660488.94, 0.036570325, 10.006555, 9.996892 
2.675959e+3, 1.401814e+2, -983428.94, -1622366.9, 9180.594, -0.114390984, -0.6487533, -983297.06, 582863.94, 0.02282271, 10.005817, 9.997159 
2.6758564e+3, 1.5017848e+2, -915413.1, -1458243.8, 13677.176, -0.11495636, -0.65075606, -915068.75, 553120.6, 0.010860751, 10.0052, 9.997907 
2.6757547e+3, 1.6017592e+2, -909748.8, -1421168.3, 25891.707, -0.09306845, -0.64276904, -908441.3, 461772.72, 0.0033944212, 10.004598, 9.997779 
2.6756528e+3, 1.7017357e+2, -876987.94, -1319540.5, 50629.25, -0.0866213, -0.61679816, -871269.7, 400968.25, 0.00054737815, 10.003992, 9.998094 
2.6755515e+3, 1.8017136e+2, -860781.25, -1254378.9, 48463.52, -0.090085216, -0.59636307, -854901.8, 319358.75, 0.000023527984, 10.003399, 9.998155 
2.67545e+3, 1.9016902e+2, -813744.1, -1128734.1, 53086.367, -0.071332484, -0.6179376, -805037.94, 271245.7, 0.000000001728097, 10.002827, 9.998618 
2.675349e+3, 2.0016693e+2, -806439.5, -1084589.9, 59393.844, -0.047017556, -0.6344072, -794287.94, 184016.42, 0.0, 10.002246, 9.998529 
2.6752484e+3, 2.1016552e+2, -769909.94, -976838.56, 71760.24, -0.037228715, -0.5931024, -747460.0, 132859.11, 0.0, 10.001657, 9.9988785 
2.6751477e+3, 2.2016422e+2, -755816.44, -918576.7, 69857.68, -0.0314836, -0.55836225, -729945.4, 52387.266, 0.0, 10.001075, 9.998888 
2.6750472e+3, 2.3016246e+2, -698914.94, -795140.25, 71418.56, -0.018945351, -0.5914129, -660914.6, 23435.422, 0.0, 10.000598, 9.999291 
2.6749465e+3, 2.4016091e+2, -674349.06, -731672.8, 70839.54, -0.0065639806, -0.6229311, -626592.75, -40227.375, 0.0, 10.000089, 9.999301 
2.6748458e+3, 2.5016025e+2, -654155.9, -623019.06, 60829.54, -0.011191411, -0.59281325, -575797.3, -87424.57, 0.0, 9.999347, 9.99973 
2.6747447e+3, 2.6015976e+2, -664448.6, -578376.4, 59064.723, -0.016174328, -0.5601983, -548332.06, -157954.34, 0.0, 9.998606, 9.9997225 
2.674644e+3, 2.7015913e+2, -606401.25, -453784.56, 44444.914, 0.016096191, -0.56475604, -441784.84, -149401.34, 0.0, 9.998133, 10.0001335 
2.6745436e+3, 2.8015864e+2, -570362.25, -376046.66, 43241.84, 0.054064155, -0.58015543, -366858.34, -172470.45, 0.0, 9.997664, 10.000221 
2.674442e+3, 2.9015833e+2, -526545.3, -243545.89, 34283.695, 0.013398621, -0.61035347, -239451.86, -143061.97, 0.0, 9.997028, 10.000766 
2.6743397e+3, 3.001583e+2, -559017.3, -265005.63, 35148.82, -0.054338075, -0.62425447, -260862.0, -260862.0, 0.0, 9.996375, 10.000262 
2.6742402e+3, 3.1015834e+2, -572394.44, -231624.39, -7204.3203, 0.16209935, -0.5909277, -231472.16, -231472.16, 0.0, 9.995882, 10.000396 
2.6741362e+3, 3.201582e+2, -477898.56, 171535.55, -32085.395, -0.04172019, -0.6447061, 173116.88, 173116.88, 0.0, 9.9949875, 10.003597 
2.686067e+3, 1.30288e+2, -982852.7, -1677646.9, 24722.473, -0.08133407, -0.61036646, -981974.1, 681140.7, 0.030537931, 10.006588, 9.997082 
2.6859635e+3, 1.4028434e+2, -1054422.1, -1640346.9, 28666.215, -0.11956049, -0.6370211, -1053023.0, 512128.78, 0.018831708, 10.005227, 9.997319 
2.6858607e+3, 1.5028144e+2, -962744.0, -1468406.6, 43856.16, -0.11755595, -0.6468648, -958968.56, 508210.94, 0.008785763, 10.004813, 9.99802 
2.6857585e+3, 1.6027886e+2, -917842.94, -1412070.8, 44206.566, -0.085352264, -0.65253145, -913920.0, 455284.3, 0.0026618522, 10.004488, 9.997891 
2.6856565e+3, 1.7027648e+2, -901660.75, -1320012.0, 63510.742, -0.07664569, -0.638496, -892231.56, 378996.63, 0.0004124163, 10.003778, 9.99819 
2.6855543e+3, 1.8027428e+2, -903741.8, -1270272.3, 65435.652, -0.08004872, -0.6226822, -892410.06, 280840.3, 0.000016829097, 10.003089, 9.998192 
2.6854524e+3, 1.9027215e+2, -829178.25, -1139182.1, 75143.78, -0.07210026, -0.6212132, -811924.06, 263347.88, 0.0000000002885943, 10.00274, 9.998585 
2.6853508e+3, 2.0027019e+2, -787817.7, -1078371.1, 79182.61, -0.05659087, -0.6204577, -767639.9, 209651.98, 0.0, 10.002392, 9.998499 
2.6852494e+3, 2.1026853e+2, -760187.5, -976565.75, 88544.48, -0.035843298, -0.5997439, -728573.2, 150735.98, 0.0, 10.001748, 9.998834 
2.6851484e+3, 2.2026704e+2, -755067.0, -914185.2, 87783.36, -0.017283272, -0.5799359, -716154.25, 65170.223, 0.0, 10.00107, 9.998917 
2.685047e+3, 2.302656e+2, -716889.75, -794183.6, 90060.91, -0.015058022, -0.58742154, -657533.9, 25805.227, 0.0, 10.000439, 9.999372 
2.684946e+3, 2.4026431e+2, -711586.5, -748912.5, 89354.57, -0.011308242, -0.5983957, -638966.75, -53614.563, 0.0, 9.999836, 9.9993 
2.6848444e+3, 2.5026333e+2, -648748.8, -631310.0, 77545.28, -0.006405394, -0.588517, -561995.44, -74633.016, 0.0, 9.999436, 9.999627 
2.684743e+3, 2.602626e+2, -609011.2, -555537.94, 76244.58, -0.0028645725, -0.57445717, -501478.0, -112107.7, 0.0, 9.99901, 9.999681 
2.6846415e+3, 2.7026212e+2, -568465.1, -434086.8, 71570.555, 0.006434075, -0.56159025, -403109.13, -111734.56, 0.0, 9.998393, 10.00014 
2.6845402e+3, 2.8026175e+2, -563011.56, -377257.28, 75808.625, 0.027943436, -0.56067216, -350246.5, -156868.9, 0.0, 9.997742, 10.000173 
2.6844385e+3, 2.9026127e+2, -505427.9, -244724.69, 43892.613, 0.02345359, -0.599142, -237533.19, -142151.94, 0.0, 9.99723, 10.000657 
2.6843363e+3, 3.00261e+2, -513819.84, -244499.6, 30158.59, -0.016476188, -0.62908846, -241163.73, -241163.73, 0.0, 9.996698, 10.000244 
2.684235e+3, 3.102609e+2, -558946.9, -216445.31, 41876.996, 0.102721326, -0.61360615, -211399.44, -211399.44, 0.0, 9.995943, 10.000465 
2.6841316e+3, 3.2026106e+2, -448753.88, 171248.44, 14320.453, 0.018983968, -0.63738096, 171579.02, 171579.02, 0.0, 9.995257, 10.00346 
2.696073e+3, 1.3039073e+2, -966366.2, -1628412.8, -28119.303, -0.055797413, -0.6504369, -965174.0, 696934.2, 0.02508631, 10.006491, 9.99747 
2.6959684e+3, 1.4038798e+2, -1033474.25, -1608841.9, -1151.4952, -0.11071821, -0.6188285, -1033471.94, 530663.6, 0.015265676, 10.005261, 9.99752 
2.6958653e+3, 1.5038517e+2, -957566.94, -1466134.6, 35477.668, -0.10787459, -0.62566596, -955103.94, 511058.38, 0.0069687488, 10.004835, 9.998028 
2.6957628e+3, 1.6038251e+2, -915246.1, -1404595.3, 25467.791, -0.07591156, -0.6419423, -913924.25, 454263.63, 0.002041852, 10.004472, 9.997952 
2.6956597e+3, 1.7037977e+2, -895795.25, -1308728.3, 36243.723, -0.06639749, -0.671093, -892638.25, 377576.6, 0.0003031145, 10.003777, 9.99827 
2.695557e+3, 1.8037735e+2, -901117.6, -1268274.3, 46985.805, -0.068344824, -0.6842019, -895200.1, 277038.84, 0.000011617903, 10.0030985, 9.998203 
2.6954547e+3, 1.9037588e+2, -830425.25, -1143837.5, 64616.965, -0.0651367, -0.6142051, -817625.7, 256628.73, 0.000000000007316074, 10.002744, 9.998553 
2.6953527e+3, 2.0037445e+2, -790196.1, -1082592.0, 60682.777, -0.056605373, -0.55825156, -778102.44, 198167.25, 0.0, 10.002384, 9.998476 
2.6952508e+3, 2.1037193e+2, -764048.1, -984712.3, 63468.344, -0.039764177, -0.6189912, -747095.5, 131199.7, 0.0, 10.001744, 9.998781 
2.695149e+3, 2.2036974e+2, -756152.4, -914301.75, 64472.848, -0.02513386, -0.6674154, -733199.9, 47117.684, 0.0, 10.001056, 9.998925 
2.6950473e+3, 2.303693e+2, -712955.9, -786243.44, 67242.49, -0.020984259, -0.57925236, -673020.8, 9302.287, 0.0, 10.000437, 9.999429 
2.6949453e+3, 2.4036895e+2, -712187.1, -753462.25, 70413.34, -0.015191136, -0.5004206, -659449.25, -75121.484, 0.0, 9.9998455, 9.999267 
2.6948434e+3, 2.5036722e+2, -656791.56, -650719.2, 62120.01, 0.0021566355, -0.55502367, -591561.2, -105216.07, 0.0, 9.999443, 9.999493 
2.6947418e+3, 2.6036566e+2, -605419.6, -552081.6, 55970.35, 0.012742366, -0.6119226, -516751.3, -128390.836, 0.0, 9.9990225, 9.9997015 
2.6946393e+3, 2.7036536e+2, -556482.8, -411094.03, 46060.52, -0.0054224883, -0.59450126, -397730.03, -107367.336, 0.0, 9.998397, 10.000298 
2.694537e+3, 2.803653e+2, -575627.75, -405943.5, 53742.426, -0.008046585, -0.57057816, -390354.4, -197991.6, 0.0, 9.997747, 9.999975 
2.6944354e+3, 2.9036483e+2, -541301.9, -322674.75, 23592.6, 0.048540298, -0.5611707, -320157.78, -225790.5, 0.0, 9.997238, 10.00012 
2.694333e+3, 3.003645e+2, -489188.47, -196650.64, 3991.6265, 0.060800996, -0.56643796, -196596.19, -196596.19, 0.0, 9.996707, 10.000571 
2.6942295e+3, 3.1036434e+2, -478123.5, -49220.41, 11995.133, 0.0017965909, -0.65201986, -48885.203, -48885.203, 0.0, 9.995941, 10.001617 
2.6941267e+3, 3.2036543e+2, -589474.7, -128481.64, 21639.494, 0.055168528, -0.6141574, -127468.086, -127468.086, 0.0, 9.995282, 10.001393 
2.7060786e+3, 1.304948e+2, -1049199.0, -1664605.0, 7633.2515, -0.065770954, -0.65925163, -1049104.4, 611983.25, 0.02018491, 10.005857, 9.997522 
2.7059734e+3, 1.4049199e+2, -990087.06, -1580917.5, 24429.715, -0.09912312, -0.63707554, -989078.7, 574036.5, 0.012098301, 10.005521, 9.997585 
2.7058697e+3, 1.5048923e+2, -951181.7, -1458052.1, 65319.848, -0.10182588, -0.64382696, -942899.3, 522242.38, 0.0053877984, 10.004857, 9.998069 
2.7057666e+3, 1.6048662e+2, -951924.75, -1420339.1, 53431.906, -0.07785209, -0.655568, -945907.1, 421259.7, 0.0015206041, 10.004214, 9.997966 
2.705663e+3, 1.7048408e+2, -900371.6, -1312283.4, 56607.47, -0.06651165, -0.6617971, -892733.94, 376458.2, 0.00021489529, 10.003756, 9.998253 
2.7055594e+3, 1.8048178e+2, -870149.7, -1249127.0, 64477.91, -0.06570788, -0.66313607, -859480.06, 311735.38, 0.0000075416983, 10.003299, 9.998235 
2.705457e+3, 1.9047992e+2, -835060.6, -1139902.5, 88949.12, -0.06621691, -0.6358704, -811004.7, 262229.3, 0.0, 10.002691, 9.998603 
2.7053544e+3, 2.0047823e+2, -828766.3, -1092860.8, 88429.055, -0.060053214, -0.610659, -801891.7, 173359.64, 0.0, 10.0020895, 9.998545 
2.705252e+3, 2.1047617e+2, -782935.8, -985448.06, 95250.78, -0.04216384, -0.62818646, -745175.7, 132096.84, 0.0, 10.001584, 9.998851 
2.7051494e+3, 2.2047438e+2, -753934.8, -914756.56, 100082.016, -0.025593283, -0.6413365, -705962.2, 73329.45, 0.0, 10.001083, 9.998905 
2.7050468e+3, 2.3047353e+2, -708974.0, -797102.1, 92797.91, -0.02433645, -0.58347327, -650309.8, 30991.537, 0.0, 10.0005245, 9.999309 
2.7049446e+3, 2.4047282e+2, -695111.25, -742548.0, 90625.47, -0.019282356, -0.53011394, -625151.8, -41842.26, 0.0, 9.999958, 9.999284 
2.7048424e+3, 2.5047144e+2, -653658.06, -635199.94, 99214.62, 0.0005668447, -0.5605206, -544786.06, -59462.496, 0.0, 9.999411, 9.999612 
2.7047402e+3, 2.6047012e+2, -627455.1, -562528.56, 105202.07, 0.015682459, -0.5982104, -484894.9, -97558.555, 0.0, 9.998877, 9.999697 
2.7046373e+3, 2.704696e+2, -547086.44, -421234.22, 75813.66, -0.006360964, -0.5926088, -385634.16, -96292.91, 0.0, 9.998531, 10.00016 
2.7045345e+3, 2.804693e+2, -527841.4, -393395.25, 65303.766, -0.010032458, -0.5787358, -366897.84, -175553.84, 0.0, 9.998128, 9.999874 
2.7044323e+3, 2.904689e+2, -528009.25, -324355.84, 61783.617, 0.05894574, -0.55365753, -307078.0, -213730.25, 0.0, 9.997371, 10.000042 
2.7043295e+3, 3.0046862e+2, -493082.94, -181441.47, 64336.633, 0.074753076, -0.5499903, -168681.94, -168681.94, 0.0, 9.996612, 10.000719 
2.704225e+3, 3.1046826e+2, -407528.34, 17730.904, 18031.186, -0.018218372, -0.6817783, 18494.064, 18494.064, 0.0, 9.996288, 10.001908 
2.704122e+3, 3.2046983e+2, -579115.5, -230453.88, 11733.208, 0.08886557, -0.5884094, -230059.47, -230059.47, 0.0, 9.995819, 10.00043 
2.7160835e+3, 1.3059986e+2, -1058356.6, -1686432.0, -3148.822, -0.10120623, -0.6494103, -1058340.9, 601715.9, 0.015830822, 10.005848, 9.9973755 
2.7159786e+3, 1.405964e+2, -993729.7, -1587732.0, 7457.9507, -0.08905091, -0.680523, -993636.06, 568454.5, 0.009320901, 10.005501, 9.997549 
2.715874e+3, 1.5059364e+2, -949203.6, -1453651.6, 40319.26, -0.10073244, -0.6893677, -946001.3, 518115.88, 0.0040319785, 10.004843, 9.998109 
2.71577e+3, 1.6059119e+2, -957429.25, -1429405.8, 33134.227, -0.08910806, -0.68516666, -955114.44, 411026.53, 0.0010899781, 10.004197, 9.997914 
2.715666e+3, 1.705893e+2, -910107.25, -1331063.4, 41722.277, -0.07570509, -0.6182113, -906011.9, 362149.25, 0.00014513452, 10.003745, 9.998131 
2.7155623e+3, 1.8058734e+2, -869038.94, -1245487.1, 46055.664, -0.07316211, -0.57649374, -863486.25, 306695.28, 0.0000045032148, 10.003289, 9.998266 
2.715459e+3, 1.9058423e+2, -827077.6, -1123486.3, 67050.984, -0.074471466, -0.6854234, -812615.56, 259595.27, 0.0, 10.002687, 9.998719 
2.7153558e+3, 2.0058161e+2, -820779.94, -1075206.1, 68584.46, -0.068710536, -0.7645734, -803469.7, 170766.11, 0.0, 10.00208, 9.9986725 
2.715253e+3, 2.1058129e+2, -773744.0, -966378.7, 77359.06, -0.04431114, -0.62409234, -746524.06, 129717.2, 0.0, 10.00158, 9.998984 
2.7151498e+3, 2.2058088e+2, -760140.75, -927927.9, 80358.64, -0.024222275, -0.5048725, -727863.56, 50384.23, 0.0, 10.0010805, 9.998818 
2.715047e+3, 2.3057823e+2, -728477.5, -839326.5, 71480.24, -0.026245669, -0.60334563, -693451.44, -13176.809, 0.0, 10.000527, 9.99902 
2.714944e+3, 2.4057592e+2, -690176.25, -732781.3, 69764.445, -0.026893066, -0.6903847, -638534.44, -56236.59, 0.0, 9.999955, 9.999355 
2.7148414e+3, 2.5057596e+2, -628701.25, -583307.0, 78548.16, -0.012412217, -0.6052516, -524242.47, -39944.742, 0.0, 9.999407, 9.999971 
2.7147385e+3, 2.6057613e+2, -631940.25, -574753.06, 89176.19, -0.0009879005, -0.5228675, -509698.44, -123401.73, 0.0, 9.998885, 9.999611 
2.7146354e+3, 2.7057487e+2, -579820.1, -492594.88, 62687.98, 0.0043007154, -0.55077595, -459841.0, -171530.94, 0.0, 9.99854, 9.999669 
2.7145326e+3, 2.8057373e+2, -522938.88, -387272.8, 42312.125, 0.023808477, -0.58576375, -375158.16, -184836.28, 0.0, 9.99814, 9.999913 
2.714429e+3, 2.9057345e+2, -496022.8, -257654.67, 31117.467, 0.04979248, -0.5855794, -253659.44, -161336.78, 0.0, 9.997365, 10.000505 
2.7143246e+3, 3.005734e+2, -505869.9, -205752.52, 46807.69, 0.01663261, -0.5886639, -198621.61, -198621.61, 0.0, 9.996597, 10.000562 
2.7142212e+3, 3.1057262e+2, -459206.6, -95147.72, 8668.921, 0.053521123, -0.69744647, -94941.414, -94941.414, 0.0, 9.996305, 10.001127 
2.714117e+3, 3.2057422e+2, -527667.6, -126933.28, -18563.635, 0.06284136, -0.56460893, -126075.18, -126075.18, 0.0, 9.995835, 10.001132 
2.7260888e+3, 1.3070512e+2, -1047485.8, -1663854.5, 16830.953, -0.112942226, -0.6647737, -1047026.56, 611997.8, 0.012036662, 10.005827, 9.997541 
2.7259833e+3, 1.4070193e+2, -1026847.94, -1601544.3, 33359.52, -0.073479325, -0.6814911, -1024917.94, 536137.3, 0.0069363075, 10.005252, 9.997573 
2.725878e+3, 1.506991e+2, -1001366.4, -1489978.0, 55602.668, -0.086386725, -0.6891325, -995118.8, 467964.28, 0.0028983213, 10.004533, 9.998005 
2.7257738e+3, 1.6069655e+2, -1000461.2, -1444578.0, 49620.75, -0.07889367, -0.6877288, -994984.6, 370123.66, 0.0007454145, 10.003881, 9.997959 
2.725669e+3, 1.7069459e+2, -937568.94, -1327604.6, 77659.03, -0.07311825, -0.63793474, -922675.2, 344453.34, 0.00009216387, 10.003491, 9.998274 
2.7255648e+3, 1.8069267e+2, -891784.44, -1249560.1, 89655.83, -0.076087005, -0.6035609, -870574.7, 298573.66, 0.0000024128854, 10.003109, 9.9983225 
2.7254608e+3, 1.9068985e+2, -847905.2, -1135931.9, 99015.22, -0.074635014, -0.6812683, -817150.5, 254024.78, 0.0, 10.002561, 9.998692 
2.7253574e+3, 2.006874e+2, -829833.56, -1075477.9, 92306.07, -0.065518916, -0.740948, -799014.3, 174184.72, 0.0, 10.002007, 9.998702 
2.725254e+3, 2.1068682e+2, -786427.0, -966479.9, 96547.72, -0.045305215, -0.6312044, -744445.06, 130761.67, 0.0, 10.001473, 9.999033 
2.7251503e+3, 2.2068621e+2, -776553.25, -929432.06, 97761.64, -0.027987184, -0.5337387, -728894.6, 48320.0, 0.0, 10.000946, 9.99887 
2.725047e+3, 2.3068379e+2, -735842.2, -837543.44, 108643.28, -0.030807845, -0.6136593, -666738.06, 12501.296, 0.0, 10.00046, 9.999062 
2.7249435e+3, 2.406816e+2, -685305.44, -727410.6, 124333.445, -0.02922124, -0.68947476, -580254.8, 1006.50183, 0.0, 9.999983, 9.999375 
2.72484e+3, 2.5068152e+2, -605671.5, -574648.3, 109377.97, -0.013024762, -0.6145615, -479687.53, 3574.8232, 0.0, 9.999582, 9.999944 
2.724737e+3, 2.606816e+2, -598269.5, -564055.9, 99491.75, 0.00079822453, -0.5367972, -480210.97, -94948.7, 0.0, 9.999147, 9.999554 
2.7246335e+3, 2.706804e+2, -581040.06, -501721.1, 97333.22, 0.0061296215, -0.55213696, -436277.63, -149001.95, 0.0, 9.998576, 9.999585 
2.72453e+3, 2.8067923e+2, -538688.56, -386313.1, 96414.45, 0.029585768, -0.58201844, -339617.47, -150329.58, 0.0, 9.998001, 9.999984 
2.724426e+3, 2.9067895e+2, -444769.75, -213457.78, 63496.26, 0.060670506, -0.5947854, -197174.08, -105886.16, 0.0, 9.997641, 10.000672 
2.7243212e+3, 3.0067885e+2, -426721.75, -189703.88, 63954.566, 0.020979865, -0.606574, -173548.22, -173548.22, 0.0, 9.997246, 10.000354 
2.724217e+3, 3.1067783e+2, -454493.4, -145820.6, 42801.625, 0.018630765, -0.7018289, -139995.5, -139995.5, 0.0, 9.996575, 10.000645 
2.724112e+3, 3.2067928e+2, -489525.7, -36094.03, -6116.607, 0.03636219, -0.5610873, -36011.535, -36011.535, 0.0, 9.995794, 10.001772 
2.736094e+3, 1.3081075e+2, -1031891.6, -1615714.3, -3888.2988, -0.11407709, -0.69288456, -1031865.75, 626123.6, 0.008814114, 10.005744, 9.997912 
2.7359882e+3, 1.4080837e+2, -1032075.3, -1601319.0, 8411.796, -0.056593142, -0.65317935, -1031951.0, 528060.1, 0.0049493457, 10.005193, 9.997603 
2.7358827e+3, 1.5080541e+2, -1018685.9, -1525241.8, 29178.71, -0.06310818, -0.657242, -1017010.6, 445030.44, 0.0019853457, 10.00452, 9.997771 
2.7357772e+3, 1.6080259e+2, -991596.0, -1428494.1, 32265.506, -0.055202425, -0.6721997, -989226.0, 374843.66, 0.00048208897, 10.003887, 9.998069 
2.7356723e+3, 1.7080005e+2, -915441.7, -1280599.6, 65512.15, -0.06308029, -0.7085461, -904044.06, 362049.84, 0.00005431131, 10.003483, 9.998603 
2.7355677e+3, 1.807979e+2, -891979.4, -1245429.4, 71537.195, -0.077409305, -0.72049546, -878049.44, 290065.34, 0.0000011019603, 10.003086, 9.998364 
2.735463e+3, 1.9079667e+2, -862071.94, -1163064.9, 78324.6, -0.06883614, -0.62674516, -842910.1, 227218.38, 0.0, 10.002547, 9.998513 
2.7353588e+3, 2.0079532e+2, -836456.75, -1088153.3, 72713.88, -0.055197258, -0.56086856, -816960.25, 155183.02, 0.0, 10.001999, 9.99862 
2.7352548e+3, 2.1079266e+2, -788384.94, -971607.3, 77241.04, -0.045970894, -0.6539948, -760167.94, 114001.51, 0.0, 10.001474, 9.999 
2.7351508e+3, 2.2079045e+2, -764995.0, -904075.6, 79556.38, -0.04018284, -0.72083575, -728870.44, 47321.12, 0.0, 10.0009365, 9.999051 
2.7350467e+3, 2.3079026e+2, -712182.6, -789046.1, 91167.46, -0.038754035, -0.60984874, -651677.5, 26517.678, 0.0, 10.00046, 9.999396 
2.7349427e+3, 2.4078996e+2, -689712.7, -739924.4, 107964.664, -0.031498123, -0.51855373, -603973.25, -23773.912, 0.0, 9.999993, 9.999287 
2.7348393e+3, 2.5078806e+2, -635350.6, -639331.94, 93432.56, -0.00091613765, -0.5890696, -543887.5, -61669.555, 0.0, 9.999591, 9.999498 
2.734736e+3, 2.6078644e+2, -596893.6, -563703.44, 79733.78, 0.0188712, -0.64925224, -498856.1, -114621.92, 0.0, 9.999154, 9.999556 
2.7346313e+3, 2.707861e+2, -556956.4, -450923.6, 74840.664, -0.0038315447, -0.6025771, -412223.78, -125985.43, 0.0, 9.9985695, 9.999939 
2.7345273e+3, 2.8078595e+2, -536244.1, -380527.63, 80566.15, 0.00077179156, -0.56028193, -346346.53, -158105.97, 0.0, 9.997994, 10.000029 
2.7344236e+3, 2.907855e+2, -458543.75, -246583.38, 50987.543, 0.09606411, -0.574571, -234956.05, -144713.17, 0.0, 9.997654, 10.000442 
2.7343187e+3, 3.00785e+2, -438831.72, -224280.81, 42914.184, 0.08896716, -0.6002181, -216015.58, -216015.58, 0.0, 9.997281, 10.000103 
2.734211e+3, 3.1078374e+2, -467003.78, -173036.89, 14316.967, -0.14843203, -0.69378436, -172341.27, -172341.27, 0.0, 9.996577, 10.000459 
2.7341083e+3, 3.207848e+2, -458952.06, 20439.219, -72038.81, 0.12550338, -0.59405625, 31030.594, 31030.594, 0.0, 9.995797, 10.002172 
2.7460992e+3, 1.309174e+2, -1114563.6, -1628755.9, 7710.486, -0.08402696, -0.6571584, -1114448.1, 542496.9, 0.006164144, 10.005037, 9.998164 
2.7459925e+3, 1.4091474e+2, -1110233.5, -1622499.3, 17197.93, -0.0700776, -0.6699237, -1109656.8, 449311.94, 0.0033571662, 10.004579, 9.997753 
2.745886e+3, 1.5091191e+2, -1053874.4, -1535125.5, 53328.44, -0.061858166, -0.6665639, -1048035.7, 412961.63, 0.00128494, 10.004254, 9.9978285 
2.7457806e+3, 1.6090924e+2, -983790.0, -1413862.5, 65276.44, -0.037524767, -0.6689455, -974100.6, 388923.72, 0.00029185961, 10.0039, 9.99816 
2.745675e+3, 1.7090686e+2, -947220.4, -1286063.9, 84694.984, -0.052641362, -0.6996613, -927229.94, 337817.2, 0.000029276536, 10.003226, 9.998686 
2.74557e+3, 1.8090478e+2, -958620.06, -1269445.8, 82389.27, -0.07370955, -0.7127383, -938131.94, 228935.31, 0.00000039166414, 10.002598, 9.998431 
2.745465e+3, 1.9090347e+2, -902374.4, -1177703.5, 101556.78, -0.060905192, -0.62963563, -868967.8, 200113.84, 0.0, 10.002257, 9.998549 
2.7453604e+3, 2.0090212e+2, -847693.8, -1090218.8, 105369.516, -0.044292074, -0.5660425, -808309.7, 162786.94, 0.0, 10.001913, 9.998646 
2.7452555e+3, 2.1089949e+2, -798617.25, -976202.75, 110866.57, -0.046236858, -0.6551432, -745369.4, 127753.15, 0.0, 10.001409, 9.998997 
2.7451512e+3, 2.2089723e+2, -762684.9, -899149.4, 114496.03, -0.047608186, -0.72569704, -697631.8, 77513.12, 0.0, 10.000941, 9.99908 
2.7450466e+3, 2.3089707e+2, -679454.44, -770406.6, 107984.71, -0.041517712, -0.61204493, -607760.7, 69387.234, 0.0, 10.000677, 9.999416 
2.7449423e+3, 2.4089687e+2, -641194.0, -720414.7, 105371.29, -0.028415944, -0.51261, -568234.0, 10917.227, 0.0, 10.000349, 9.999247 
2.7448383e+3, 2.508948e+2, -630713.2, -647477.5, 108195.56, 0.0005609381, -0.5887924, -530575.56, -49404.21, 0.0, 9.999673, 9.999399 
2.7447343e+3, 2.60893e+2, -615071.7, -566413.3, 115576.12, 0.01993232, -0.66203856, -472633.47, -89443.94, 0.0, 9.999009, 9.999604 
2.7446294e+3, 2.7089277e+2, -535090.7, -424431.97, 98568.89, -0.005901962, -0.6160612, -366725.2, -81533.086, 0.0, 9.998659, 10.000074 
2.7445248e+3, 2.808927e+2, -495681.4, -362668.88, 90825.04, -0.0019158206, -0.57008725, -316603.94, -129411.26, 0.0, 9.99829, 10.000005 
2.7444208e+3, 2.908921e+2, -456614.63, -260913.83, 65737.84, 0.09713623, -0.5881111, -240882.23, -151685.27, 0.0, 9.99774, 10.0002985 
2.7443156e+3, 3.008915e+2, -456543.84, -231601.83, 65677.6, 0.09171643, -0.6160613, -213829.69, -213829.69, 0.0, 9.997159, 10.000109 
2.744207e+3, 3.1089061e+2, -435297.88, -144239.23, 57426.55, -0.16186374, -0.6795346, -133318.6, -133318.6, 0.0, 9.996741, 10.000575 
2.7441043e+3, 3.208913e+2, -413319.16, 34793.758, -26715.736, 0.20573156, -0.62292486, 36380.883, 36380.883, 0.0, 9.996151, 10.002097 
2.756104e+3, 1.3102482e+2, -1104963.3, -1603239.3, -8261.98, -0.037377924, -0.58513093, -1104826.4, 551067.4, 0.004071888, 10.005007, 9.998353 
2.755996e+3, 1.4102116e+2, -1095381.1, -1591572.9, 4625.1377, -0.10936148, -0.7170283, -1095338.1, 462587.8, 0.0021408112, 10.004571, 9.997971 
2.75589e+3, 1.5101868e+2, -1039830.9, -1502884.4, 43813.332, -0.079182036, -0.7028661, -1035721.8, 424229.0, 0.00077686756, 10.004234, 9.998062 
2.755784e+3, 1.6101652e+2, -985801.6, -1410793.8, 45915.563, -0.026135875, -0.67182726, -980897.56, 381075.25, 0.00016302329, 10.003865, 9.9982 
2.755678e+3, 1.710148e+2, -958007.7, -1305320.4, 59233.637, -0.04162386, -0.6285772, -948183.4, 315806.66, 0.000014106576, 10.00321, 9.998564 
2.755572e+3, 1.8101297e+2, -954516.75, -1259829.5, 65846.13, -0.06658261, -0.6087679, -940921.25, 225086.83, 0.00000009505926, 10.00259, 9.998503 
2.7554667e+3, 1.9101025e+2, -889728.4, -1150494.6, 90790.15, -0.052955084, -0.6857694, -861232.3, 206802.39, 0.0, 10.002251, 9.998741 
2.7553618e+3, 2.0100795e+2, -843579.0, -1078787.0, 89010.19, -0.0370597, -0.7317743, -813692.25, 156365.2, 0.0, 10.001898, 9.9987335 
2.7552566e+3, 2.1100728e+2, -798203.5, -975877.94, 91579.086, -0.046630953, -0.63019687, -759452.4, 112613.55, 0.0, 10.001407, 9.9990015 
2.7551514e+3, 2.2100644e+2, -772930.9, -921771.5, 101526.13, -0.05500706, -0.5542516, -721470.5, 52605.133, 0.0, 10.000944, 9.998924 
2.7550468e+3, 2.3100418e+2, -698627.6, -812999.44, 98902.97, -0.040001184, -0.62473804, -641568.06, 34530.2, 0.0, 10.000686, 9.999123 
2.7549425e+3, 2.4100226e+2, -639861.0, -718058.56, 85189.24, -0.023377024, -0.67623013, -585226.56, -7109.0894, 0.0, 10.000346, 9.999266 
2.7548373e+3, 2.510018e+2, -614483.3, -613085.25, 80986.08, -0.010524587, -0.6126901, -532795.2, -52672.77, 0.0, 9.999667, 9.9996395 
2.7547324e+3, 2.610014e+2, -610730.2, -559258.75, 97462.18, -0.0020947012, -0.56013906, -484191.7, -102064.86, 0.0, 9.999014, 9.999653 
2.7546278e+3, 2.7100036e+2, -543264.44, -443907.75, 85768.695, 0.0012949116, -0.5878564, -394468.94, -110332.16, 0.0, 9.998664, 9.999941 
2.7545226e+3, 2.8099942e+2, -499982.34, -374860.4, 72147.33, 0.019013928, -0.62010545, -341927.3, -155781.69, 0.0, 9.9983, 9.999919 
2.7544174e+3, 2.9099867e+2, -462030.88, -270107.6, 42520.027, 0.05335205, -0.6456109, -261109.3, -172957.84, 0.0, 9.997728, 10.000242 
2.7543113e+3, 3.009983e+2, -438986.47, -188144.42, 47110.9, 0.026444353, -0.6579852, -179588.33, -179588.33, 0.0, 9.997126, 10.000425 
2.7542052e+3, 3.109986e+2, -398385.75, -69294.5, 45275.316, 0.0172426, -0.6501678, -63179.3, -63179.3, 0.0, 9.996741, 10.001094 
2.754099e+3, 3.2099885e+2, -473911.66, -87065.98, -17400.094, 0.118703276, -0.649194, -86284.91, -86284.91, 0.0, 9.996149, 10.001253 
2.7661085e+3, 1.3113211e+2, -1151302.6, -1623442.5, 34468.1, -0.029935047, -0.60892975, -1148799.6, 506042.2, 0.0025030859, 10.004667, 9.998379 
2.7660003e+3, 1.411287e+2, -1104077.4, -1581237.9, 32904.02, -0.090254866, -0.7188336, -1101819.1, 455052.88, 0.0012629003, 10.004448, 9.998099 
2.7658933e+3, 1.5112644e+2, -1086788.5, -1505481.4, 65703.67, -0.07173058, -0.69757277, -1076720.1, 382174.47, 0.00043060674, 10.003828, 9.998239 
2.7657872e+3, 1.6112445e+2, -1071019.4, -1444955.1, 64982.863, -0.025710827, -0.664779, -1060048.4, 300866.56, 0.000081872815, 10.003253, 9.998259 
2.7656806e+3, 1.711226e+2, -1002436.3, -1330144.1, 82714.75, -0.03070072, -0.6321537, -982742.3, 280191.3, 0.000005757098, 10.002926, 9.998527 
2.7655742e+3, 1.8112068e+2, -951187.3, -1250318.6, 93717.44, -0.04917744, -0.6186944, -924251.3, 240701.23, 0.00000000965895, 10.002587, 9.998567 
2.7654684e+3, 1.9111809e+2, -912641.4, -1150354.3, 113549.3, -0.051803038, -0.6915176, -867119.3, 199858.39, 0.0, 10.002049, 9.9988365 
2.7653632e+3, 2.0111585e+2, -889700.94, -1099378.4, 107819.234, -0.046413124, -0.7380216, -844153.0, 124846.76, 0.0, 10.001576, 9.998744 
2.7652574e+3, 2.1111518e+2, -804100.75, -985391.7, 106476.28, -0.045795843, -0.62791705, -754911.3, 116096.97, 0.0, 10.001401, 9.998937 
2.7651522e+3, 2.2111443e+2, -740940.56, -905572.06, 113382.41, -0.044978272, -0.5405881, -683144.06, 89873.65, 0.0, 10.001166, 9.998926 
2.7650473e+3, 2.3111202e+2, -712054.6, -816472.7, 128614.95, -0.031513404, -0.6269528, -625455.94, 49585.418, 0.0, 10.0005865, 9.999144 
2.7649418e+3, 2.411099e+2, -683122.56, -734382.06, 130315.75, -0.01552823, -0.6986081, -575940.1, 1121.9193, 0.0, 10.000036, 9.9993 
2.7648365e+3, 2.511096e+2, -599066.8, -602560.1, 111372.97, -0.012029961, -0.6234172, -489426.78, -10361.128, 0.0, 9.999766, 9.999661 
2.7647313e+3, 2.6110932e+2, -549314.6, -527082.9, 114893.86, -0.010060148, -0.5571372, -422768.4, -41699.88, 0.0, 9.999432, 9.999669 
2.7646258e+3, 2.711081e+2, -523459.0, -435102.16, 108969.516, -0.0037403551, -0.60150117, -361696.2, -78616.375, 0.0, 9.99881, 9.999928 
2.7645206e+3, 2.8110698e+2, -514120.1, -381551.44, 104615.195, 0.018363845, -0.6496183, -323989.28, -138899.13, 0.0, 9.998206, 9.999915 
2.7644148e+3, 2.9110637e+2, -438319.03, -260019.4, 77708.555, 0.0511152, -0.6554308, -230905.48, -143810.95, 0.0, 9.997906, 10.000222 
2.7643082e+3, 3.011061e+2, -372011.34, -146214.27, 74489.09, 0.02740957, -0.65757734, -123854.89, -123854.89, 0.0, 9.997553, 10.000503 
2.7642018e+3, 3.111061e+2, -372397.3, -45298.535, 41140.348, 0.045155875, -0.69554037, -40203.535, -40203.535, 0.0, 9.996878, 10.00119 
2.7640942e+3, 3.211065e+2, -401500.72, -101257.55, -17628.61, 0.048390105, -0.6660037, -100226.03, -100226.03, 0.0, 9.996866, 10.000805 
2.7761123e+3, 1.3123949e+2, -1160334.8, -1637123.3, 29741.908, -0.049594834, -0.689284, -1158486.6, 495301.0, 0.001402301, 10.004645, 9.998294 
2.7760047e+3, 1.4123715e+2, -1105920.9, -1577205.3, 16574.086, -0.03469847, -0.6882019, -1105338.6, 450470.53, 0.00067285605, 10.00441, 9.998147 
2.775897e+3, 1.5123501e+2, -1081652.5, -1491028.9, 41939.3, -0.047943592, -0.6654682, -1077400.1, 380430.4, 0.00021232456, 10.003806, 9.998351 
2.7757898e+3, 1.6123289e+2, -1068039.8, -1436683.1, 49000.457, -0.033038158, -0.6545065, -1061637.8, 298214.25, 0.00003517426, 10.003241, 9.998323 
2.775683e+3, 1.7123035e+2, -1000676.9, -1327692.5, 72728.07, -0.02220616, -0.69382423, -985231.7, 276645.13, 0.0000017161015, 10.002929, 9.998544 
2.7755764e+3, 1.8122812e+2, -948436.2, -1246935.9, 77336.195, -0.029324388, -0.7137147, -929589.6, 234309.0, 0.00000000000031198744, 10.002595, 9.998588 
2.77547e+3, 1.912269e+2, -911047.9, -1149763.3, 93388.34, -0.05699819, -0.6503869, -878854.8, 187056.56, 0.0, 10.002058, 9.998839 
2.7753636e+3, 2.0122553e+2, -894715.7, -1110878.0, 96633.445, -0.07080938, -0.60625327, -857815.56, 110110.0, 0.0, 10.001578, 9.998666 
2.7752584e+3, 2.112232e+2, -814633.8, -1007370.75, 101448.69, -0.04444201, -0.6517417, -771078.3, 98871.62, 0.0, 10.001399, 9.998788 
2.775153e+3, 2.2122124e+2, -733459.3, -886810.44, 97411.52, -0.022378087, -0.6771015, -686166.56, 85803.83, 0.0, 10.001149, 9.999065 
2.775047e+3, 2.312206e+2, -690242.9, -771695.3, 105979.84, -0.017116453, -0.615051, -617433.44, 56543.48, 0.0, 10.000586, 9.999454 
2.7749416e+3, 2.4121983e+2, -681734.0, -733623.7, 115528.11, -0.011010193, -0.5729495, -589273.25, -13288.877, 0.0, 10.000042, 9.999305 
2.7748358e+3, 2.512181e+2, -613477.6, -634837.75, 101680.95, -0.003863753, -0.6221268, -521917.38, -43916.145, 0.0, 9.999773, 9.999439 
2.77473e+3, 2.612166e+2, -549447.06, -530022.44, 95868.94, -0.0061218403, -0.6639513, -443375.1, -63359.38, 0.0, 9.999439, 9.999647 
2.7746236e+3, 2.7121592e+2, -517285.0, -421439.6, 83714.98, -0.024589246, -0.6632087, -372901.0, -90879.28, 0.0, 9.998803, 10.000027 
2.7745178e+3, 2.812155e+2, -510743.13, -372521.38, 88856.39, -0.00702641, -0.65156734, -329063.28, -145038.0, 0.0, 9.998195, 9.999984 
2.7744126e+3, 2.9121545e+2, -437965.9, -260984.72, 67821.65, 0.10151553, -0.6029688, -237983.78, -151959.28, 0.0, 9.997908, 10.000217 
2.7743056e+3, 3.0121505e+2, -384563.47, -180163.08, 54992.824, 0.093683906, -0.6067002, -166306.86, -166306.86, 0.0, 9.9975815, 10.000258 
2.774196e+3, 3.1121257e+2, -405498.88, -113596.31, 11651.976, -0.12987661, -0.85340345, -113131.94, -113131.94, 0.0, 9.996873, 10.000725 
2.7740917e+3, 3.212147e+2, -380543.3, -79281.66, 12640.847, 0.14541958, -0.6209556, -78752.18, -78752.18, 0.0, 9.996934, 10.000937 
2.786116e+3, 1.3134786e+2, -1210317.6, -1657442.9, 41843.383, -0.050854936, -0.69665456, -1206435.5, 446289.84, 0.00069565215, 10.004277, 9.998334 
2.7860084e+3, 1.4134589e+2, -1164919.8, -1590442.5, 27099.117, -0.017166115, -0.66607165, -1163200.9, 391543.1, 0.00031298655, 10.003939, 9.998282 
2.7859e+3, 1.5134376e+2, -1120024.6, -1490177.4, 53487.813, -0.038810316, -0.65837526, -1112450.5, 344314.4, 0.000088700726, 10.003466, 9.998518 
2.7857924e+3, 1.6134162e+2, -1086924.9, -1433834.0, 70344.82, -0.031088833, -0.6629973, -1073203.4, 285582.7, 0.000011727656, 10.003066, 9.998425 
2.7856854e+3, 1.7133911e+2, -1012246.56, -1328607.4, 98629.984, -0.02031756, -0.70427555, -984016.4, 276794.1, 0.00000025139548, 10.002831, 9.998584 
2.7855784e+3, 1.813369e+2, -950393.44, -1249014.0, 97337.45, -0.024696963, -0.7233986, -921467.56, 241364.6, 0.0, 10.002585, 9.998578 
2.7854717e+3, 1.9133578e+2, -893594.1, -1146241.4, 106937.85, -0.04460442, -0.64430195, -854408.3, 210435.97, 0.0, 10.002205, 9.99879 
2.785365e+3, 2.0133454e+2, -863268.7, -1089615.6, 112369.98, -0.053831235, -0.5868787, -816957.8, 149899.97, 0.0, 10.001779, 9.998712 
2.785259e+3, 2.1133205e+2, -841189.1, -1012577.5, 131303.44, -0.031387564, -0.6527108, -770090.2, 98792.88, 0.0, 10.00119, 9.99885 
2.7851534e+3, 2.2132993e+2, -794267.0, -907041.9, 137431.98, -0.0108310105, -0.698981, -702104.5, 68800.1, 0.0, 10.000696, 9.999143 
2.785047e+3, 2.313295e+2, -685360.4, -761152.94, 130430.55, -0.015035312, -0.62279063, -587432.3, 85476.63, 0.0, 10.000588, 9.999522 
2.7849412e+3, 2.4132894e+2, -625424.5, -701415.8, 126272.266, -0.016336937, -0.5653569, -531555.25, 43359.07, 0.0, 10.000412, 9.999345 
2.784835e+3, 2.5132707e+2, -600492.1, -628262.25, 124487.27, -0.0053999578, -0.62890154, -489117.94, -12185.403, 0.0, 9.999866, 9.999437 
2.784729e+3, 2.6132542e+2, -562422.56, -533522.9, 129920.96, -0.0018697479, -0.6874865, -417250.7, -38302.004, 0.0, 9.999343, 9.999668 
2.7846223e+3, 2.7132475e+2, -476342.1, -399053.2, 111091.164, -0.020270223, -0.68143094, -320076.9, -39123.082, 0.0, 9.999081, 10.000043 
2.784516e+3, 2.8132445e+2, -436301.75, -344614.22, 107964.8, -0.0029424187, -0.65726733, -273163.28, -90206.95, 0.0, 9.99875, 9.999904 
2.7844098e+3, 2.9132444e+2, -409344.0, -263695.25, 75102.41, 0.09265387, -0.59316665, -231907.2, -146951.31, 0.0, 9.998181, 10.000064 
2.7843028e+3, 3.0132383e+2, -379653.44, -202635.97, 59336.81, 0.07998174, -0.5985684, -184586.5, -184586.5, 0.0, 9.997726, 10.000031 
2.7841932e+3, 3.1132045e+2, -278962.84, -82857.47, 24716.217, -0.101211146, -0.90510684, -79790.32, -79790.32, 0.0, 9.997878, 10.000448 
2.7840883e+3, 3.2132316e+2, -349412.94, -61105.76, 34994.273, 0.18812615, -0.59638673, -56919.01, -56919.01, 0.0, 9.997144, 10.000956 
2.7961197e+3, 1.3145699e+2, -1207064.8, -1638783.8, 31301.531, -0.04362993, -0.6585572, -1204807.1, 446850.13, 0.0002941432, 10.004228, 9.998485 
2.796012e+3, 1.4145494e+2, -1154881.6, -1563106.4, 12039.288, -0.026934648, -0.6503298, -1154526.9, 399149.3, 0.00012087059, 10.003909, 9.998486 
2.7959028e+3, 1.514528e+2, -1106116.9, -1461210.4, 37001.41, -0.042459648, -0.66742945, -1102302.3, 353394.5, 0.000028714185, 10.003461, 9.998721 
2.795795e+3, 1.6145071e+2, -1080782.0, -1419929.5, 59768.13, -0.029065214, -0.68145305, -1070557.4, 287159.28, 0.0000024460635, 10.003058, 9.998526 
2.7956876e+3, 1.7144872e+2, -1012376.7, -1325992.4, 90790.37, -0.024017759, -0.6750413, -987989.7, 271746.4, 0.0000000042322403, 10.002816, 9.998611 
2.7955803e+3, 1.8144676e+2, -956902.8, -1257465.5, 84373.44, -0.028710842, -0.6693738, -934837.56, 226917.92, 0.0, 10.002561, 9.998533 
2.7954733e+3, 1.9144477e+2, -902994.94, -1162528.4, 92864.09, -0.018594526, -0.6710154, -873189.9, 190586.55, 0.0, 10.00219, 9.998687 
2.7953666e+3, 2.0144297e+2, -855869.9, -1071251.3, 93312.39, -0.0071215364, -0.6630406, -821066.75, 144728.2, 0.0, 10.001763, 9.998847 
2.79526e+3, 2.1144174e+2, -822251.0, -976028.6, 109173.05, -0.009038823, -0.62881196, -765608.4, 102199.39, 0.0, 10.001199, 9.999099 
2.7951533e+3, 2.2144043e+2, -793750.8, -908847.2, 127848.24, -0.014393767, -0.6112094, -711095.7, 58725.266, 0.0, 10.000706, 9.999126 
2.7950472e+3, 2.3143865e+2, -697615.7, -788655.1, 128040.6, -0.025997097, -0.6527214, -607244.1, 64593.72, 0.0, 10.000594, 9.999332 
2.7949408e+3, 2.4143715e+2, -620704.94, -692029.25, 110900.76, -0.0330936, -0.6786532, -539873.5, 33978.734, 0.0, 10.000411, 9.999412 
2.7948344e+3, 2.5143647e+2, -586262.6, -598627.3, 102265.22, -0.017904673, -0.6430802, -489993.06, -14133.466, 0.0, 9.999863, 9.999643 
2.7947277e+3, 2.6143578e+2, -558730.2, -527609.5, 116377.586, -0.0029106364, -0.61858654, -425756.6, -47890.094, 0.0, 9.999348, 9.999707 
2.794621e+3, 2.7143472e+2, -481509.9, -412870.1, 101811.414, 0.013071164, -0.649251, -339749.7, -59874.2, 0.0, 9.999089, 9.999947 
2.7945143e+3, 2.814338e+2, -452246.53, -383411.2, 89885.11, 0.028961753, -0.66968715, -321579.66, -139695.9, 0.0, 9.998772, 9.999629 
2.7944067e+3, 2.914331e+2, -434952.06, -316988.84, 50270.25, 0.005156528, -0.63899446, -298472.53, -214581.94, 0.0, 9.998179, 9.9997 
2.7942988e+3, 3.0143222e+2, -396883.44, -235302.47, 54935.57, -0.02234993, -0.63996834, -218394.34, -218394.34, 0.0, 9.99771, 9.999817 
2.7941936e+3, 3.1143016e+2, -274984.0, -91278.87, 33261.984, 0.20353593, -0.80305225, -85441.86, -85441.86, 0.0, 9.997943, 10.000362 
2.7940834e+3, 3.2143134e+2, -378245.1, -112001.36, -67586.695, 0.00817085, -0.63565254, -95826.91, -95826.91, 0.0, 9.997111, 10.000618 
2.8061232e+3, 1.3156652e+2, -1246838.4, -1645152.4, 51384.55, -0.04452182, -0.6320469, -1240316.3, 410267.06, 0.000099778015, 10.003898, 9.998601 
2.806015e+3, 1.4156406e+2, -1231792.3, -1587604.1, 30047.848, -0.0135047855, -0.67650926, -1229272.5, 323334.13, 0.00003524279, 10.003326, 9.998598 
2.8059056e+3, 1.5156218e+2, -1159866.3, -1475446.5, 49633.195, -0.0332806, -0.67592835, -1152244.3, 302380.3, 0.000006022763, 10.003045, 9.998822 
2.8057975e+3, 1.6156036e+2, -1112328.0, -1426188.3, 69264.945, -0.0218029, -0.673764, -1097721.9, 258920.23, 0.00000016363987, 10.002804, 9.998605 
2.8056896e+3, 1.715584e+2, -1049904.5, -1337924.0, 104263.55, -0.014331836, -0.6696639, -1016123.06, 242538.17, 0.0, 10.002539, 9.99866 
2.8055823e+3, 1.8155646e+2, -997057.8, -1266526.1, 98079.66, -0.018931711, -0.66718936, -965139.9, 195540.48, 0.0, 10.002252, 9.998615 
2.805475e+3, 1.9155443e+2, -951197.7, -1179115.1, 113172.016, -0.014484897, -0.67792475, -904549.75, 158151.66, 0.0, 10.001833, 9.998743 
2.8053677e+3, 2.0155261e+2, -888188.7, -1080842.3, 122698.42, -0.0048077824, -0.6780291, -828522.7, 136197.45, 0.0, 10.0015135, 9.998901 
2.8052607e+3, 2.1155149e+2, -768680.06, -944524.56, 126846.88, -0.011012879, -0.63608986, -702263.56, 164467.88, 0.0, 10.001545, 9.999146 
2.8051537e+3, 2.2155027e+2, -685321.8, -851348.1, 132392.42, -0.021050962, -0.6122577, -612069.4, 156673.92, 0.0, 10.001435, 9.9991665 
2.805047e+3, 2.3154834e+2, -677362.3, -777488.1, 142318.25, -0.029875318, -0.67073613, -576558.44, 94203.05, 0.0, 10.000734, 9.999338 
2.8049403e+3, 2.4154672e+2, -665704.5, -713360.1, 135247.61, -0.030729458, -0.7084153, -552201.75, 20575.322, 0.0, 10.000106, 9.99941 
2.8048337e+3, 2.5154626e+2, -577735.94, -595819.7, 111466.74, -0.016294217, -0.6473307, -474944.94, -162.30255, 0.0, 9.999932, 9.999627 
2.8047267e+3, 2.6154578e+2, -509276.56, -510756.06, 112431.43, -0.0010829284, -0.60074335, -397582.44, -20794.236, 0.0, 9.999723, 9.9996395 
2.80462e+3, 2.715445e+2, -447330.53, -410001.66, 94958.12, 0.013999818, -0.64120287, -331891.06, -53091.76, 0.0, 9.999386, 9.999823 
2.8045124e+3, 2.815433e+2, -419857.78, -373890.75, 82941.516, 0.023859413, -0.67684484, -310807.22, -129997.19, 0.0, 9.999019, 9.999576 
2.8044042e+3, 2.915424e+2, -370866.38, -288881.8, 64606.336, -0.024362361, -0.663825, -253360.39, -170541.84, 0.0, 9.998635, 9.999671 
2.804296e+3, 3.0154154e+2, -322390.75, -208301.75, 102950.484, -0.04139861, -0.6608579, -147648.0, -147648.0, 0.0, 9.998267, 9.99973 
2.804192e+3, 3.115401e+2, -266719.34, -100687.72, 90432.875, 0.31475326, -0.74725163, -60944.703, -60944.703, 0.0, 9.99806, 10.000239 
2.8040788e+3, 3.2154042e+2, -302387.7, -89183.51, -92440.84, -0.10043516, -0.6545734, -54685.227, -54685.227, 0.0, 9.997696, 10.00049 
2.8161263e+3, 1.3167645e+2, -1242734.0, -1635890.9, 28197.852, -0.057123557, -0.6161165, -1240721.9, 408783.03, 0.000023983494, 10.0039, 9.99866 
2.816018e+3, 1.4167333e+2, -1237853.1, -1588608.4, 16584.83, 0.012049849, -0.73137003, -1237070.8, 314464.3, 0.0000064487667, 10.003277, 9.998615 
2.8159082e+3, 1.5167192e+2, -1161951.1, -1478170.6, 41511.17, -0.015212325, -0.6831446, -1156592.6, 296956.25, 0.00000052844416, 10.003034, 9.998812 
2.8157994e+3, 1.6167046e+2, -1104842.8, -1414754.8, 60589.914, -0.008608339, -0.64695066, -1093418.1, 262145.2, 0.0000000005064632, 10.002819, 9.998677 
2.8156918e+3, 1.7166819e+2, -1042613.7, -1324945.3, 95969.13, 0.0023051216, -0.68298167, -1013081.4, 244503.95, 0.0, 10.002545, 9.998748 
2.8155842e+3, 1.8166612e+2, -987207.6, -1244870.1, 85161.17, -0.006957566, -0.7044892, -961604.7, 198000.8, 0.0, 10.002243, 9.99877 
2.815476e+3, 1.9166476e+2, -938577.1, -1154361.5, 97782.09, -0.030181948, -0.6663988, -900860.0, 160759.63, 0.0, 10.001836, 9.998913 
2.8153685e+3, 2.0166329e+2, -890135.7, -1086195.1, 118812.375, -0.04104343, -0.64168113, -834132.25, 129502.26, 0.0, 10.001517, 9.998864 
2.8152615e+3, 2.1166126e+2, -780622.3, -968378.5, 129502.62, -0.03510579, -0.6745398, -714550.3, 151103.88, 0.0, 10.001539, 9.998986 
2.8151545e+3, 2.2165953e+2, -682806.3, -840954.75, 114645.12, -0.032691248, -0.69672984, -622610.1, 145061.0, 0.0, 10.0014105, 9.999251 
2.8150475e+3, 2.3165858e+2, -664122.9, -750089.44, 114076.73, -0.027309587, -0.6748354, -585200.2, 84479.695, 0.0, 10.000731, 9.999529 
2.8149402e+3, 2.4165766e+2, -670773.5, -726625.94, 121765.9, -0.017160976, -0.6530711, -573772.5, -2083.6191, 0.0, 10.000114, 9.999316 
2.8148332e+3, 2.5165647e+2, -595530.8, -634479.7, 105345.74, -0.0007814267, -0.6418709, -507874.6, -34172.68, 0.0, 9.999935, 9.999362 
2.814726e+3, 2.6165527e+2, -522465.47, -540443.7, 100906.3, 0.0019223038, -0.63817257, -430148.66, -54434.152, 0.0, 9.999731, 9.9994335 
2.814618e+3, 2.71654e+2, -459501.25, -436739.47, 80307.85, -0.024693439, -0.660596, -367010.1, -89283.73, 0.0, 9.99939, 9.999638 
2.8145105e+3, 2.8165296e+2, -402777.44, -340910.22, 67333.19, -0.025706967, -0.6765219, -297744.94, -118009.18, 0.0, 9.999027, 9.9998 
2.8144026e+3, 2.9165244e+2, -341748.75, -233054.55, 49725.582, 0.022098241, -0.6623291, -213738.63, -131999.67, 0.0, 9.998651, 10.00005 
2.8142944e+3, 3.016518e+2, -312450.22, -196559.67, 94852.5, 0.029339954, -0.6631166, -143353.47, -143353.47, 0.0, 9.998302, 9.999796 
2.814188e+3, 3.116503e+2, -279036.2, -125870.49, 83480.11, 0.14870359, -0.74725443, -89166.71, -89166.71, 0.0, 9.998056, 10.000069 
2.814077e+3, 3.2165045e+2, -278881.2, -50707.78, -110953.6, 0.011209956, -0.6621554, -5651.536, -5651.536, 0.0, 9.997726, 10.000747 
2.8261295e+3, 1.3178632e+2, -1292888.0, -1670416.9, 32191.959, -0.06114618, -0.662457, -1290162.8, 358263.75, 0.0000033281458, 10.003595, 9.998572 
2.8260204e+3, 1.4178368e+2, -1286711.4, -1609372.8, 33165.508, 0.027879894, -0.7208644, -1283337.6, 267115.1, 0.00000050691085, 10.002931, 9.998638 
2.8259107e+3, 1.5178217e+2, -1183848.9, -1482217.9, 73048.99, -0.009217631, -0.68920547, -1166924.5, 285543.4, 0.0000000023756648, 10.002862, 9.998863 
2.8258017e+3, 1.6178063e+2, -1107037.9, -1406962.6, 86751.73, -0.012884616, -0.6649988, -1083753.1, 270729.97, 0.0, 10.002771, 9.998752 
2.8256935e+3, 1.7177856e+2, -1068015.1, -1331365.5, 114363.266, -0.004439522, -0.68564516, -1025284.75, 231218.64, 0.0, 10.002346, 9.998799 
2.8255856e+3, 1.8177664e+2, -1018904.75, -1252399.0, 102634.72, -0.01138796, -0.69721514, -980204.8, 178317.44, 0.0, 10.00199, 9.998842 
2.8254774e+3, 1.9177522e+2, -926302.1, -1139914.4, 111471.85, -0.026051817, -0.6703322, -878727.1, 181809.27, 0.0, 10.001888, 9.998984 
2.8253692e+3, 2.0177373e+2, -857554.4, -1061484.4, 130948.41, -0.033116315, -0.6558142, -793554.5, 168996.67, 0.0, 10.001712, 9.998935 
2.8252622e+3, 2.117717e+2, -827392.6, -986637.25, 153070.53, -0.031069702, -0.69531155, -734474.2, 130096.52, 0.0, 10.001206, 9.999019 
2.825155e+3, 2.2176993e+2, -774085.5, -886011.7, 142374.48, -0.027558884, -0.7206132, -677070.3, 89517.51, 0.0, 10.000792, 9.999239 
2.8250477e+3, 2.3176906e+2, -668304.94, -757634.1, 122923.625, -0.022408267, -0.6857741, -582182.94, 86413.13, 0.0, 10.00073, 9.999476 
2.82494e+3, 2.4176815e+2, -602330.5, -698050.6, 122364.54, -0.014816608, -0.65498555, -518799.3, 51805.61, 0.0, 10.0006075, 9.999272 
2.8248325e+3, 2.5176674e+2, -555170.0, -620703.94, 120437.67, -0.009006986, -0.6604825, -463121.47, 9498.307, 0.0, 10.00024, 9.999308 
2.824725e+3, 2.617654e+2, -508571.56, -538533.6, 128434.79, -0.01204256, -0.6693667, -394247.03, -19613.0, 0.0, 9.999847, 9.999391 
2.824617e+3, 2.717642e+2, -453381.06, -438858.38, 116513.03, -0.035148527, -0.678154, -329380.66, -52735.285, 0.0, 9.999458, 9.999588 
2.824509e+3, 2.8176323e+2, -392734.34, -338929.7, 105743.414, -0.022341726, -0.6816782, -256720.11, -78065.766, 0.0, 9.999118, 9.999765 
2.8244013e+3, 2.9176256e+2, -289179.2, -213967.47, 57225.69, 0.054826703, -0.67391074, -183097.19, -102438.61, 0.0, 9.9990425, 9.99999 
2.8242925e+3, 3.0176184e+2, -252066.58, -169186.17, 67989.54, 0.054829687, -0.6782955, -131003.086, -131003.086, 0.0, 9.998724, 9.999782 
2.824184e+3, 3.1176054e+2, -345873.78, -161037.11, 55536.48, 0.045166753, -0.7396984, -145634.08, -145634.08, 0.0, 9.997615, 10.000038 
2.8240752e+3, 3.2176033e+2, -184388.5, 31977.816, -44205.56, 0.09206052, -0.7038782, 40660.938, 40660.938, 0.0, 9.998225, 10.001069 
2.8361326e+3, 1.3189627e+2, -1318108.9, -1698006.1, -1804.9493, -0.05433793, -0.7399128, -1318100.3, 329246.2, 0.00000016214108, 10.003492, 9.99843 
2.8360227e+3, 1.4189494e+2, -1278901.8, -1600554.3, 23787.945, 0.026080234, -0.6612104, -1277152.0, 272209.72, 0.0000000020979667, 10.002962, 9.998684 
2.8359127e+3, 1.5189286e+2, -1176001.4, -1469079.4, 73758.79, -0.021287205, -0.6962766, -1158485.4, 292896.75, 0.0, 10.0028715, 9.998951 
2.8358036e+3, 1.6189091e+2, -1108950.6, -1404877.9, 75453.8, -0.034505773, -0.7179739, -1090822.4, 262578.72, 0.0, 10.002743, 9.998781 
2.835695e+3, 1.7188947e+2, -1071196.9, -1334597.6, 97751.2, -0.027151585, -0.6784216, -1038884.2, 216532.1, 0.0, 10.00233, 9.998786 
2.835587e+3, 1.818879e+2, -1019512.25, -1252153.4, 94889.164, -0.025449164, -0.6538554, -985718.06, 171714.1, 0.0, 10.001982, 9.998848 
2.8354788e+3, 1.9188586e+2, -926767.56, -1140735.8, 108840.61, -0.006518556, -0.68896425, -881134.9, 178316.81, 0.0, 10.001886, 9.998981 
2.8353712e+3, 2.0188402e+2, -849136.6, -1040865.2, 116676.16, 0.007859162, -0.71361536, -793993.3, 167475.88, 0.0, 10.001697, 9.999085 
2.8352633e+3, 2.1188276e+2, -813017.44, -957121.8, 133013.16, -0.0033599741, -0.69787115, -733795.0, 129686.1, 0.0, 10.0012045, 9.999224 
2.8351554e+3, 2.218814e+2, -782854.6, -904682.56, 134912.06, -0.014177722, -0.6888379, -695742.3, 69751.45, 0.0, 10.000792, 9.999112 
2.8350478e+3, 2.3187976e+2, -689679.06, -802704.75, 121623.72, -0.016331723, -0.7052388, -612079.9, 55430.348, 0.0, 10.0007305, 9.999168 
2.83494e+3, 2.4187826e+2, -602978.94, -698881.25, 111926.92, -0.023018558, -0.7144735, -529164.1, 40361.09, 0.0, 10.000604, 9.99927 
2.8348318e+3, 2.5187713e+2, -544867.06, -600918.75, 105748.77, -0.044001773, -0.7037917, -463493.4, 8043.058, 0.0, 10.000246, 9.999442 
2.834724e+3, 2.618761e+2, -496514.47, -517643.66, 113081.016, -0.05343862, -0.69373584, -393505.63, -19958.986, 0.0, 9.999863, 9.999528 
2.834616e+3, 2.718751e+2, -445606.88, -423244.94, 101330.125, -0.012316829, -0.6933325, -332480.78, -56925.176, 0.0, 9.999456, 9.999699 
2.8345084e+3, 2.818741e+2, -418137.75, -393104.06, 100247.26, 0.03889014, -0.6958478, -304595.25, -127029.92, 0.0, 9.999122, 9.999393 
2.8344e+3, 2.9187274e+2, -330996.88, -304309.25, 54742.133, 0.06482521, -0.7006355, -261308.08, -181729.83, 0.0, 9.999057, 9.999365 
2.8342903e+3, 3.0187157e+2, -259112.5, -184147.63, 32986.266, 0.025967514, -0.7022463, -171699.84, -171699.84, 0.0, 9.998722, 9.999681 
2.834181e+3, 3.118707e+2, -348513.5, -149552.13, 5128.689, 0.036438815, -0.73244095, -149420.02, -149420.02, 0.0, 9.997538, 10.000156 
2.8340724e+3, 3.2187024e+2, -158982.39, 70258.23, 121491.85, 0.06798013, -0.7369358, 122665.12, 122665.12, 0.0, 9.998289, 10.001302 
2.8461352e+3, 1.3200688e+2, -1411224.6, -1705759.9, 3445.2764, -0.028837752, -0.7543149, -1411184.4, 235077.4, 0.00000000032983427, 10.002687, 9.998768 
2.8460246e+3, 1.4200586e+2, -1269729.4, -1585198.0, 37597.906, -0.010960263, -0.67085457, -1265310.4, 282963.2, 0.0, 10.002977, 9.998783 
2.8459147e+3, 1.5200377e+2, -1226704.4, -1498958.0, 78676.99, -0.027489921, -0.70192915, -1205603.4, 244690.92, 0.0, 10.002549, 9.9989 
2.845806e+3, 1.6200186e+2, -1183967.1, -1431903.3, 76241.01, -0.013284138, -0.7215958, -1162399.0, 189914.39, 0.0, 10.002189, 9.998862 
2.8456968e+3, 1.7200053e+2, -1106031.6, -1336165.5, 107536.34, -0.018943617, -0.68064165, -1063604.3, 190723.06, 0.0, 10.00203, 9.998917 
2.845588e+3, 1.8199907e+2, -1034298.25, -1254435.1, 114938.09, -0.028158529, -0.6552953, -985225.75, 171116.42, 0.0, 10.001867, 9.998883 
2.8454798e+3, 1.91997e+2, -966793.9, -1164193.5, 126624.984, -0.0008673435, -0.6905142, -904946.06, 153416.16, 0.0, 10.001632, 9.998941 
2.845372e+3, 2.0199515e+2, -889382.5, -1057535.4, 124792.766, 0.022514567, -0.7138429, -822986.06, 137393.92, 0.0, 10.001407, 9.999112 
2.8452638e+3, 2.1199396e+2, -811882.0, -951584.4, 127159.26, 0.004463641, -0.6937595, -736651.6, 125739.445, 0.0, 10.001193, 9.999267 
2.845156e+3, 2.2199267e+2, -754450.9, -887536.6, 131018.02, -0.013259608, -0.6831083, -674045.9, 90357.266, 0.0, 10.000976, 9.999139 
2.8450477e+3, 2.3199089e+2, -688947.6, -802795.44, 139121.08, -0.015210778, -0.7121727, -595555.2, 70865.445, 0.0, 10.000742, 9.99916 
2.8449398e+3, 2.4198928e+2, -618300.06, -703114.7, 140868.19, -0.017710665, -0.7313407, -513594.44, 54841.95, 0.0, 10.000488, 9.999295 
2.8448316e+3, 2.5198823e+2, -545727.44, -598788.75, 125014.914, -0.03860427, -0.71631944, -444459.0, 25987.547, 0.0, 10.000232, 9.999462 
2.8447232e+3, 2.619872e+2, -488769.66, -519332.84, 121179.96, -0.046719976, -0.7030232, -381911.53, -9455.358, 0.0, 9.999945, 9.999474 
2.844615e+3, 2.719861e+2, -415155.06, -418830.0, 92722.91, -0.0071022394, -0.7078048, -324251.4, -49784.973, 0.0, 9.999711, 9.999606 
2.8445068e+3, 2.819849e+2, -377728.28, -384340.7, 92613.14, 0.041379474, -0.71535987, -288362.34, -111884.64, 0.0, 9.99944, 9.999303 
2.8443983e+3, 2.9198346e+2, -330028.0, -315891.53, 87271.69, 0.057071738, -0.7204899, -235402.31, -156910.11, 0.0, 9.999117, 9.999256 
2.8442886e+3, 3.0198222e+2, -255448.03, -213188.7, 74331.1, 0.013580015, -0.71079457, -157042.39, -157042.39, 0.0, 9.998891, 9.999396 
2.8441787e+3, 3.1198135e+2, -162622.5, -104052.72, 3560.592, 0.052628875, -0.70413375, -103837.055, -103837.055, 0.0, 9.999012, 9.999758 
2.8440702e+3, 3.219805e+2, -209483.73, 89566.05, 144727.72, 0.06299884, -0.7361263, 148136.83, 148136.83, 0.0, 9.997754, 10.001694 
2.8561375e+3, 1.3211793e+2, -1378526.3, -1619050.4, 21764.027, -0.011991571, -0.7333787, -1376572.8, 268600.9, 0.0, 10.002612, 9.999396 
2.8560266e+3, 1.4211656e+2, -1269743.3, -1574366.8, 27362.754, -0.06527311, -0.7277233, -1267304.9, 279881.9, 0.0, 10.002932, 9.998879 
2.855917e+3, 1.5211494e+2, -1238918.6, -1522688.0, 60068.79, -0.021450229, -0.7017066, -1226727.0, 222477.08, 0.0, 10.002539, 9.998744 
2.8558078e+3, 1.6211334e+2, -1174193.9, -1410748.5, 67359.09, 0.038017526, -0.6848466, -1156358.0, 194862.77, 0.0, 10.002184, 9.99901 
2.8556985e+3, 1.7211176e+2, -1088670.4, -1298918.3, 101519.38, 0.0062359474, -0.6932671, -1047653.1, 205583.19, 0.0, 10.002024, 9.999176 
2.8555894e+3, 1.8211022e+2, -1034881.0, -1253041.1, 105953.87, -0.029005041, -0.6953011, -991893.06, 163358.83, 0.0, 10.001854, 9.9989 
2.855481e+3, 1.9210863e+2, -973556.6, -1178195.3, 117758.39, -0.0076490543, -0.67592645, -919875.06, 137393.14, 0.0, 10.001628, 9.998849 
2.8553727e+3, 2.0210703e+2, -896874.0, -1071463.4, 116756.45, 0.012113106, -0.66546005, -838386.56, 120897.83, 0.0, 10.001399, 9.999021 
2.8552645e+3, 2.1210532e+2, -819670.9, -968175.5, 119631.17, -0.005460164, -0.6855758, -753121.8, 108178.84, 0.0, 10.001193, 9.999152 
2.855156e+3, 2.2210374e+2, -744662.7, -864335.56, 122647.81, -0.023601199, -0.7017648, -668033.44, 95282.08, 0.0, 10.000961, 9.999306 
2.8550482e+3, 2.321025e+2, -669676.9, -763877.6, 130203.51, -0.020788545, -0.7046261, -578316.44, 87010.62, 0.0, 10.000744, 9.999427 
2.85494e+3, 2.4210127e+2, -613400.2, -697098.3, 130829.38, -0.0112146195, -0.7040331, -517889.6, 49448.76, 0.0, 10.000504, 9.99933 
2.8548318e+3, 2.5210008e+2, -551930.0, -611951.5, 114127.23, 0.009905469, -0.69663614, -463933.66, 5416.3047, 0.0, 10.00023, 9.999373 
2.854723e+3, 2.6209876e+2, -507838.34, -560208.9, 111626.445, 0.013294988, -0.6974772, -419367.03, -48004.363, 0.0, 9.9999485, 9.999193 
2.854614e+3, 2.7209708e+2, -439944.2, -472560.56, 83533.14, -0.025408063, -0.721713, -371142.2, -97763.55, 0.0, 9.999719, 9.999235 
2.8545052e+3, 2.8209567e+2, -355905.7, -343073.44, 78374.82, -0.030778665, -0.7379186, -270852.56, -95460.42, 0.0, 9.9994545, 9.999581 
2.8543964e+3, 2.9209486e+2, -294739.4, -240058.31, 74999.14, 0.02741472, -0.7319153, -187571.69, -110172.04, 0.0, 9.999104, 9.999784 
2.8542867e+3, 3.020939e+2, -293788.66, -294947.22, 78309.695, 0.014814173, -0.70601803, -216056.1, -216056.1, 0.0, 9.998899, 9.998832 
2.8541774e+3, 3.1209257e+2, -222317.36, -254838.69, 13156.359, 0.085378446, -0.6462594, -217661.55, -217661.55, 0.0, 9.999127, 9.998668 
2.8540674e+3, 3.2209066e+2, -187467.63, 173489.33, -30009.092, 0.0888011, -0.73651725, 175967.2, 175967.2, 0.0, 9.997587, 10.002352 
2.8661388e+3, 1.3222887e+2, -1466516.5, -1633781.9, 40361.652, -0.026874693, -0.7146237, -1457286.5, 186800.06, 0.0, 10.001882, 9.99965 
2.8660285e+3, 1.4222722e+2, -1357536.0, -1592623.0, 14302.687, -0.05921078, -0.7623801, -1356669.0, 189432.34, 0.0, 10.002224, 9.999094 
2.8659186e+3, 1.5222602e+2, -1284137.3, -1523105.8, 56478.445, -0.02458098, -0.7142653, -1271461.4, 176653.22, 0.0, 10.002141, 9.99893 
2.8658092e+3, 1.6222472e+2, -1197565.9, -1412764.3, 74753.22, 0.031393018, -0.68025625, -1174147.4, 175981.14, 0.0, 10.0019865, 9.999089 
2.8656998e+3, 1.722231e+2, -1137730.3, -1320295.3, 93665.37, 0.014156139, -0.69774455, -1098224.0, 153921.03, 0.0, 10.001678, 9.999195 
2.8655905e+3, 1.8222155e+2, -1081102.8, -1258012.6, 94544.22, -0.0117618125, -0.7059635, -1040086.2, 114074.555, 0.0, 10.00146, 9.999058 
2.865482e+3, 1.9222018e+2, -984318.5, -1160894.5, 125559.77, -0.004251194, -0.6832832, -919113.75, 137060.66, 0.0, 10.00146, 9.999047 
2.8653735e+3, 2.0221876e+2, -892828.06, -1065154.4, 137601.44, 0.004235097, -0.6691513, -816639.0, 141549.86, 0.0, 10.001412, 9.999054 
2.865265e+3, 2.1221703e+2, -825141.06, -976678.3, 142120.92, -0.008587882, -0.686503, -739853.06, 120353.03, 0.0, 10.001185, 9.999096 
2.8651565e+3, 2.2221549e+2, -742376.44, -854615.9, 145120.63, -0.017876022, -0.69862187, -642902.4, 119318.8, 0.0, 10.000942, 9.999381 
2.865048e+3, 2.3221439e+2, -674403.2, -754147.4, 140902.2, -0.01640809, -0.6954588, -567840.25, 96390.41, 0.0, 10.000662, 9.999533 
2.86494e+3, 2.4221328e+2, -621691.5, -699024.2, 136432.4, -0.00813377, -0.69144756, -518552.03, 47688.598, 0.0, 10.0004425, 9.999344 
2.8648317e+3, 2.5221196e+2, -528808.2, -605454.1, 121271.9, 0.013595316, -0.6929051, -439948.16, 28305.32, 0.0, 10.000413, 9.999329 
2.8647226e+3, 2.622105e+2, -462860.13, -542086.7, 124616.73, 0.020170996, -0.70302033, -371712.03, -1444.5852, 0.0, 10.000273, 9.999161 
2.8646132e+3, 2.7220872e+2, -415043.88, -466331.7, 118752.83, -0.021205705, -0.7337282, -319197.66, -46913.582, 0.0, 9.999918, 9.999181 
2.864504e+3, 2.822072e+2, -338437.6, -335319.47, 121939.164, -0.03077646, -0.7523307, -214929.39, -40631.242, 0.0, 9.999587, 9.999566 
2.864395e+3, 2.9220638e+2, -229387.72, -208099.45, 82116.47, 0.012341194, -0.74571824, -135940.13, -59634.082, 0.0, 9.999556, 9.999784 
2.864285e+3, 3.0220553e+2, -222231.08, -265714.13, 74173.164, 0.0037800162, -0.7095594, -166678.67, -166678.67, 0.0, 9.999414, 9.998787 
2.8641763e+3, 3.122045e+2, -260507.5, -288522.38, 86656.22, 0.10877235, -0.60595894, -186733.9, -186733.9, 0.0, 9.998937, 9.998528 
2.864065e+3, 3.2220185e+2, 11943.991, 236532.98, -15682.633, 0.08208689, -0.7539252, 237622.78, 237622.78, 0.0, 9.999108, 10.002048 
2.87614e+3, 1.3233984e+2, -1453011.1, -1620734.5, 58299.152, -0.054394767, -0.6935264, -1434737.8, 208261.36, 0.0, 10.001951, 9.999703 
2.8760305e+3, 1.423379e+2, -1339496.9, -1547800.0, 16055.349, -0.022399696, -0.78244233, -1338266.6, 206749.33, 0.0, 10.0021925, 9.999416 
2.87592e+3, 1.5233704e+2, -1262197.3, -1466446.1, 51272.05, -0.044751234, -0.7406616, -1250049.1, 196975.98, 0.0, 10.00209, 9.999345 
2.8758103e+3, 1.6233607e+2, -1206648.4, -1420204.8, 63652.977, -0.021673646, -0.70272964, -1189115.4, 159920.75, 0.0, 10.001936, 9.999063 
2.875701e+3, 1.7233454e+2, -1152104.3, -1349373.8, 82568.16, 0.012206149, -0.69284236, -1122106.6, 128946.33, 0.0, 10.001673, 9.999 
2.8755918e+3, 1.8233307e+2, -1060340.0, -1216513.3, 92828.55, 0.021262335, -0.6907929, -1017122.6, 135945.7, 0.0, 10.001467, 9.99934 
2.875483e+3, 1.923317e+2, -953329.06, -1095857.1, 126169.67, 0.005402666, -0.711352, -879688.5, 175392.06, 0.0, 10.001456, 9.999496 
2.8753743e+3, 2.0233037e+2, -888343.1, -1050693.5, 130521.336, -0.0055136457, -0.7199084, -815813.3, 141279.86, 0.0, 10.001389, 9.999166 
2.8752655e+3, 2.1232909e+2, -826628.1, -979710.4, 133224.75, -0.007646242, -0.69371843, -749522.4, 109584.98, 0.0, 10.001182, 9.99908 
2.875157e+3, 2.2232781e+2, -745321.44, -858602.4, 134819.72, -0.007939081, -0.67623705, -655727.5, 105393.07, 0.0, 10.000932, 9.999359 
2.8750482e+3, 2.3232654e+2, -678209.7, -761697.2, 130296.73, -0.0019426624, -0.686867, -583133.2, 79998.48, 0.0, 10.000661, 9.999482 
2.8749397e+3, 2.4232523e+2, -622563.94, -701387.2, 133311.28, -0.0058721644, -0.697444, -522960.53, 42182.918, 0.0, 10.000443, 9.999328 
2.8748307e+3, 2.5232384e+2, -530021.8, -610999.9, 119890.97, -0.034609124, -0.7055132, -443967.53, 23189.686, 0.0, 10.000423, 9.999287 
2.8747216e+3, 2.6232243e+2, -442190.1, -504984.0, 113285.98, -0.044557665, -0.7167978, -356030.75, 13139.581, 0.0, 10.000296, 9.999406 
2.8746128e+3, 2.7232102e+2, -392433.47, -419402.2, 104041.88, 0.009684147, -0.74247557, -301005.75, -29823.799, 0.0, 9.999916, 9.999503 
2.8745037e+3, 2.8231955e+2, -363715.8, -392101.03, 117350.05, 0.050023142, -0.7617678, -259703.23, -86508.195, 0.0, 9.999602, 9.99917 
2.874394e+3, 2.9231802e+2, -272576.94, -305692.78, 84079.94, 0.010160681, -0.7637705, -203440.05, -128227.87, 0.0, 9.999586, 9.999102 
2.8742838e+3, 3.0231708e+2, -169712.44, -160806.48, 54508.285, -0.027343841, -0.71911883, -110569.59, -110569.59, 0.0, 9.999434, 9.999497 
2.8741747e+3, 3.1231758e+2, -189085.22, -123990.79, 73932.125, 0.13174804, -0.5762539, -75758.8, -75758.8, 0.0, 9.998874, 9.999684 
2.874063e+3, 3.223149e+2, -98043.82, -22929.652, 54690.27, 0.029049886, -0.73825026, 5857.5176, 5857.5176, 0.0, 9.999235, 10.000207 
2.8861412e+3, 1.3245055e+2, -1424841.4, -1617329.0, 71224.15, -0.073175825, -0.7211439, -1401353.1, 240559.9, 0.0, 10.002181, 9.999619 
2.886032e+3, 1.4244923e+2, -1400994.3, -1559581.3, 15250.506, -0.013051074, -0.74931145, -1399541.0, 144383.97, 0.0, 10.001693, 9.999576 
2.885921e+3, 1.5244822e+2, -1362606.1, -1491059.9, 37280.65, -0.043919638, -0.7438958, -1352570.4, 93364.94, 0.0, 10.0013, 9.999556 
2.885811e+3, 1.624472e+2, -1308595.5, -1444113.5, 56783.05, -0.026884075, -0.7303574, -1287948.6, 59997.563, 0.0, 10.001127, 9.999289 
2.885702e+3, 1.7244607e+2, -1169396.0, -1332958.5, 102775.95, 0.014020818, -0.70430726, -1119834.0, 130125.05, 0.0, 10.001448, 9.99922 
2.885593e+3, 1.8244489e+2, -1035866.0, -1189831.8, 118535.58, 0.026713891, -0.691693, -971508.7, 180462.9, 0.0, 10.001573, 9.99947 
2.8854835e+3, 1.9244356e+2, -990400.6, -1102369.1, 125821.72, 0.004766711, -0.71707684, -908670.2, 145313.66, 0.0, 10.001155, 9.999596 
2.8853747e+3, 2.0244233e+2, -953442.0, -1065394.8, 121515.016, -0.007675109, -0.72604877, -875630.25, 80365.37, 0.0, 10.000869, 9.999316 
2.8852662e+3, 2.1244131e+2, -848455.8, -970964.3, 137115.31, -0.011669601, -0.69062704, -759534.56, 98472.695, 0.0, 10.00095, 9.999251 
2.8851572e+3, 2.2244023e+2, -734162.7, -845247.94, 145568.95, -0.011959346, -0.66854453, -633900.0, 126118.74, 0.0, 10.000976, 9.999429 
2.8850487e+3, 2.3243886e+2, -654016.5, -746590.0, 143220.95, 0.0014415593, -0.6913705, -549788.44, 112242.266, 0.0, 10.000814, 9.999511 
2.8849396e+3, 2.4243748e+2, -597978.94, -684731.6, 153719.3, 0.0044909786, -0.7107768, -481633.28, 82409.79, 0.0, 10.000593, 9.99937 
2.8848305e+3, 2.524361e+2, -548907.3, -616949.25, 143912.5, -0.03294457, -0.71816635, -435049.16, 31007.387, 0.0, 10.000284, 9.9993105 
2.8847215e+3, 2.624348e+2, -459323.72, -494084.06, 140024.27, -0.048953265, -0.7250931, -335605.1, 32463.43, 0.0, 10.000106, 9.999566 
2.8846124e+3, 2.7243367e+2, -335239.22, -374013.44, 114837.086, 0.0011253377, -0.7423889, -238164.25, 31913.18, 0.0, 10.000239, 9.999654 
2.884503e+3, 2.8243232e+2, -308156.63, -367290.56, 122646.305, 0.045366578, -0.75897163, -211563.7, -39474.316, 0.0, 9.999995, 9.999148 
2.8843927e+3, 2.9243058e+2, -315874.25, -355778.03, 139971.4, 0.020631058, -0.7636171, -194439.89, -120331.23, 0.0, 9.999423, 9.998832 
2.8842825e+3, 3.0242935e+2, -167622.89, -149757.66, 115267.0, -0.026175162, -0.73026633, -43077.68, -43077.68, 0.0, 9.9994135, 9.999581 
2.8841728e+3, 3.1242946e+2, -5397.21, -31204.287, 49910.48, 0.055493828, -0.6386784, 33250.754, 33250.754, 0.0, 10.000129, 9.999725 
2.8840628e+3, 3.2242674e+2, 3154.6956, -108434.31, 21617.494, 0.08524614, -0.75368947, 7196.1567, 7196.1567, 0.0, 10.000502, 9.999027 
2.8961426e+3, 1.3256118e+2, -1447613.5, -1647180.0, 51577.836, -0.092971206, -0.77951163, -1435071.5, 205755.81, 0.0, 10.002114, 9.999442 
2.896033e+3, 1.4256106e+2, -1406190.8, -1559614.6, 1959.8367, -0.023449369, -0.6781312, -1406165.6, 136663.84, 0.0, 10.001647, 9.999597 
2.8959218e+3, 1.5255956e+2, -1355828.0, -1482713.6, 25457.813, -0.025530519, -0.72807467, -1350910.8, 93933.85, 0.0, 10.001322, 9.999603 
2.8958118e+3, 1.6255829e+2, -1273637.1, -1380123.8, 65561.77, 0.003771236, -0.7587753, -1242422.1, 104435.305, 0.0, 10.0011635, 9.999711 
2.895703e+3, 1.725577e+2, -1133673.1, -1254936.1, 115326.336, 0.013773181, -0.7324511, -1064011.3, 184852.3, 0.0, 10.00143, 9.999764 
2.8955936e+3, 1.8255693e+2, -1045346.7, -1198048.9, 107678.76, 0.0039479667, -0.70963776, -989697.06, 161174.53, 0.0, 10.001522, 9.999437 
2.8954843e+3, 1.9255574e+2, -1006633.1, -1134067.8, 109400.21, -0.004771809, -0.7027683, -943747.5, 109136.99, 0.0, 10.0011425, 9.999385 
2.895375e+3, 2.0255464e+2, -939971.4, -1036787.7, 120678.375, -0.007874479, -0.6938491, -858354.06, 96542.23, 0.0, 10.000866, 9.999515 
2.8952664e+3, 2.1255372e+2, -824157.9, -920896.6, 141052.38, -0.020438218, -0.68044025, -723412.0, 133493.95, 0.0, 10.000951, 9.999595 
2.8951573e+3, 2.2255269e+2, -725943.1, -825780.94, 141382.81, -0.029061588, -0.67862, -625925.4, 132990.55, 0.0, 10.000964, 9.999569 
2.8950486e+3, 2.3255137e+2, -647986.1, -733991.9, 136891.72, -0.009755912, -0.707089, -547501.75, 113425.81, 0.0, 10.000812, 9.999599 
2.89494e+3, 2.4255006e+2, -591320.25, -671925.2, 142077.0, 0.010380705, -0.728676, -483940.1, 78999.14, 0.0, 10.000596, 9.999456 
2.8948307e+3, 2.525488e+2, -543756.6, -604708.8, 131700.97, 0.023803348, -0.73158216, -439051.6, 25899.852, 0.0, 10.000278, 9.999398 
2.8947213e+3, 2.6254764e+2, -455242.75, -487931.2, 143673.58, 0.010010575, -0.7318187, -326986.72, 39975.727, 0.0, 10.000114, 9.999604 
2.8946114e+3, 2.7254662e+2, -337779.4, -384351.7, 116683.81, -0.05916113, -0.73169535, -242080.86, 26889.951, 0.0, 10.0002575, 9.999575 
2.894501e+3, 2.825455e+2, -272634.97, -301874.53, 94684.48, -0.06579119, -0.73861766, -191448.23, -20467.387, 0.0, 10.000026, 9.999584 
2.894392e+3, 2.925442e+2, -303658.7, -317590.88, 130115.28, 0.048685074, -0.74302, -180323.16, -107329.32, 0.0, 9.999378, 9.999108 
2.8942817e+3, 3.025424e+2, -226454.94, -260650.22, 139868.2, 0.0048957607, -0.7617857, -102643.234, -102643.234, 0.0, 9.999371, 9.998837 
2.8941703e+3, 3.1253907e+2, -100462.38, -240130.77, 74792.41, -0.17261341, -0.88754845, -67970.05, -67970.05, 0.0, 10.000185, 9.998263 
2.894065e+3, 3.225363e+2, -2.6854136, -127343.086, 34059.77, 0.33126414, -0.8828537, 8534.887, 8534.887, 0.0, 10.000559, 9.998871 
2.9061437e+3, 1.3267244e+2, -1527553.6, -1665771.8, 39520.97, -0.08499933, -0.79533195, -1517051.4, 122684.51, 0.0, 10.0014715, 9.999628 
2.9060337e+3, 1.426725e+2, -1482165.5, -1580645.6, 24033.857, -0.026661746, -0.692549, -1476613.1, 65123.332, 0.0, 10.001056, 9.999739 
2.9059225e+3, 1.5267122e+2, -1351024.3, -1467933.8, 56179.7, -0.019763295, -0.7317245, -1328404.3, 115345.3, 0.0, 10.001301, 9.999714 
2.9058126e+3, 1.6267006e+2, -1240603.9, -1354877.5, 88180.805, 0.011159774, -0.76016015, -1192667.0, 153094.31, 0.0, 10.0013485, 9.999794 
2.9057032e+3, 1.726694e+2, -1203516.1, -1278298.9, 108410.31, 0.0029955574, -0.74715626, -1126230.1, 121537.836, 0.0, 10.000906, 9.999857 
2.9055938e+3, 1.8266872e+2, -1163795.4, -1241311.5, 88842.01, -0.014589425, -0.7276044, -1105625.3, 44150.027, 0.0, 10.000647, 9.999564 
2.9054844e+3, 1.9266787e+2, -1038551.5, -1134547.8, 111251.19, -0.010942915, -0.69931805, -965385.9, 86399.31, 0.0, 10.000857, 9.999519 
2.9053754e+3, 2.0266703e+2, -916226.4, -1011167.0, 136213.56, -0.004815081, -0.6798965, -819448.44, 134346.66, 0.0, 10.000965, 9.999642 
2.9052666e+3, 2.1266605e+2, -837736.75, -911074.2, 142842.64, -0.013590488, -0.6848847, -726931.4, 128873.58, 0.0, 10.000786, 9.9997425 
2.9051578e+3, 2.2266506e+2, -766842.56, -836920.94, 131988.25, -0.02022092, -0.6912509, -665321.75, 92492.79, 0.0, 10.000645, 9.999647 
2.9050487e+3, 2.3266397e+2, -672548.94, -736048.56, 125113.52, -0.013319399, -0.7029698, -575219.56, 84604.79, 0.0, 10.0006, 9.999687 
2.9049397e+3, 2.4266289e+2, -588679.7, -652872.7, 130819.52, 0.0021313904, -0.7137239, -486076.78, 75757.31, 0.0, 10.000541, 9.999614 
2.9048306e+3, 2.5266176e+2, -496878.3, -555036.3, 127586.92, 0.024281384, -0.7248705, -395098.56, 68746.13, 0.0, 10.000485, 9.999639 
2.904721e+3, 2.6266074e+2, -429581.53, -455307.0, 150904.94, 0.018603187, -0.7312153, -290992.13, 74861.9, 0.0, 10.000205, 9.999783 
2.904611e+3, 2.7265996e+2, -421139.8, -397604.06, 136472.22, -0.048933562, -0.73128843, -272393.28, -4532.2236, 0.0, 9.999573, 9.999811 
2.9045004e+3, 2.8265917e+2, -350147.97, -291329.72, 128639.4, -0.053482454, -0.7321334, -188780.56, -18912.672, 0.0, 9.999304, 9.999996 
2.90439e+3, 2.9265857e+2, -340430.53, -243538.02, 140348.39, 0.021974754, -0.7216413, -143509.66, -71636.68, 0.0, 9.998737, 9.999923 
2.916145e+3, 1.3278411e+2, -1504504.3, -1604697.0, 13318.33, -0.062477585, -0.7835876, -1502764.1, 135876.42, 0.0, 10.001421, 10.000069 
2.9160342e+3, 1.4278369e+2, -1467894.3, -1549205.6, 26850.486, -0.028228926, -0.76493984, -1459828.0, 80816.74, 0.0, 10.00105, 9.999957 
2.9159233e+3, 1.5278311e+2, -1341391.4, -1447458.8, 64414.45, -0.026521439, -0.75021666, -1310987.8, 131663.6, 0.0, 10.001297, 9.999858 
2.9158133e+3, 1.6278231e+2, -1255321.6, -1382361.6, 76341.03, -0.0028298928, -0.7429535, -1219530.4, 125129.65, 0.0, 10.001335, 9.999613 
2.9157034e+3, 1.727812e+2, -1220452.0, -1315673.6, 91969.32, -0.015300418, -0.7500228, -1164500.5, 82171.34, 0.0, 10.000913, 9.999598 
2.9155937e+3, 1.8278036e+2, -1144099.4, -1203017.9, 92969.37, -0.030824678, -0.74285233, -1076033.5, 72647.945, 0.0, 10.000657, 9.999822 
2.9154846e+3, 1.9277999e+2, -1009248.0, -1073921.3, 119890.78, -0.016251208, -0.7064811, -917409.5, 133276.44, 0.0, 10.000857, 9.999937 
2.9153758e+3, 2.0277941e+2, -915307.5, -1005580.0, 132058.19, -0.0012578412, -0.6851503, -820885.0, 131807.45, 0.0, 10.000949, 9.99969 
2.915267e+3, 2.127783e+2, -840461.56, -916584.2, 135387.67, 0.004921008, -0.7010723, -737886.9, 116817.27, 0.0, 10.000784, 9.999706 
2.915158e+3, 2.2277732e+2, -766272.2, -833873.2, 128814.85, 0.003567094, -0.7045432, -666897.1, 89817.11, 0.0, 10.000636, 9.999673 
2.915049e+3, 2.3277667e+2, -665982.7, -722994.6, 123208.29, -0.0089207655, -0.67950594, -568025.75, 90695.336, 0.0, 10.000602, 9.999778 
2.9149395e+3, 2.4277595e+2, -571204.8, -618937.5, 128467.06, -0.023290765, -0.66906095, -464405.97, 96322.06, 0.0, 10.00055, 9.999841 
2.9148299e+3, 2.5277498e+2, -469688.34, -498469.63, 125121.33, -0.04186511, -0.6957116, -358132.8, 104603.266, 0.0, 10.000485, 10.000025 
2.9147202e+3, 2.6277414e+2, -405594.4, -412450.28, 128000.164, -0.03680512, -0.7209759, -280976.28, 83766.95, 0.0, 10.000229, 10.000069 
2.9146105e+3, 2.727735e+2, -386312.1, -324220.88, 109936.57, 0.044054236, -0.7432116, -241030.42, 25718.305, 0.0, 9.99956, 10.000325 
2.9145005e+3, 2.8277317e+2, -338761.78, -258607.73, 138722.14, 0.08257062, -0.7426808, -154289.48, 14462.323, 0.0, 9.999274, 10.000235 
2.9143873e+3, 2.9277363e+2, -252571.42, -68182.64, 76271.43, -0.07860888, -0.6966368, -40722.79, 30025.043, 0.0, 9.998776, 10.00111 
2.9261455e+3, 1.3289608e+2, -1564944.4, -1622639.1, 5445.484, -0.06792286, -0.76194054, -1564434.9, 73107.24, 0.0, 10.000957, 10.000169 
2.9260343e+3, 1.4289498e+2, -1503593.3, -1565142.4, 24706.09, -0.019788686, -0.8177991, -1494903.0, 44649.777, 0.0, 10.000796, 9.999971 
2.9259238e+3, 1.5289475e+2, -1387787.3, -1470406.4, 56171.19, -0.03242632, -0.7691865, -1359371.0, 82185.36, 0.0, 10.00098, 9.999854 
2.9258138e+3, 1.6289428e+2, -1292399.8, -1392065.4, 55060.527, -0.01372376, -0.7341559, -1267969.8, 75592.53, 0.0, 10.001041, 9.99969 
2.9257035e+3, 1.728933e+2, -1217566.4, -1302692.1, 86501.98, -0.020048084, -0.73749304, -1163722.9, 81850.02, 0.0, 10.000879, 9.999705 
2.925594e+3, 1.8289246e+2, -1129170.6, -1187485.3, 107906.766, -0.033234846, -0.7370066, -1046551.3, 101030.75, 0.0, 10.000717, 9.999902 
2.9254848e+3, 1.9289191e+2, -1036679.5, -1076828.4, 117371.04, -0.02109788, -0.72760206, -937678.56, 111909.695, 0.0, 10.000621, 10.000031 
2.925376e+3, 2.0289136e+2, -958262.4, -1013897.44, 117619.48, -0.0069822967, -0.7161849, -865215.7, 86378.89, 0.0, 10.000597, 9.999804 
2.9252672e+3, 2.1289063e+2, -844159.8, -904827.5, 129551.164, -0.0061660996, -0.7054542, -741438.6, 112164.04, 0.0, 10.000696, 9.99983 
2.9251578e+3, 2.2288992e+2, -750211.94, -818707.4, 130491.47, -0.0067169503, -0.69274217, -649548.8, 106061.65, 0.0, 10.000711, 9.999742 
2.9250488e+3, 2.3288924e+2, -670554.9, -713926.4, 123863.69, -0.008733638, -0.6776922, -566492.94, 91125.24, 0.0, 10.000519, 9.999881 
2.924939e+3, 2.428886e+2, -596632.7, -615715.2, 126830.96, -0.018840622, -0.67036706, -478984.6, 80640.125, 0.0, 10.000303, 9.999986 
2.9248294e+3, 2.5288793e+2, -511324.88, -491882.7, 111398.76, -0.046957448, -0.6872313, -389781.7, 71848.42, 0.0, 10.000077, 10.000271 
2.9247195e+3, 2.6288742e+2, -447145.5, -412682.75, 99903.93, -0.039510638, -0.7029501, -328535.06, 35099.156, 0.0, 9.999848, 10.000257 
2.9246098e+3, 2.7288708e+2, -340961.8, -265389.4, 68020.86, 0.06408322, -0.7191587, -225364.08, 40272.664, 0.0, 9.999702, 10.000665 
2.9244995e+3, 2.8288695e+2, -298757.56, -218864.48, 106318.79, 0.115673035, -0.7283609, -145235.45, 22402.412, 0.0, 9.999437, 10.000445 
2.9243857e+3, 2.9288727e+2, -116870.3, 10357.133, -23220.281, -0.08618737, -0.71490914, 14462.59, 84098.25, 0.0, 9.99962, 10.0012665 
2.9361454e+3, 1.3300821e+2, -1573467.9, -1639990.4, -9172.446, -0.09223312, -0.7378803, -1572226.3, 64216.008, 0.0, 10.000961, 10.000044 
2.9360348e+3, 1.4300634e+2, -1506637.9, -1579472.4, 29814.57, -0.006776469, -0.85834, -1495990.0, 42471.01, 0.0, 10.000833, 9.999854 
2.935924e+3, 1.530062e+2, -1395591.9, -1486747.8, 63437.508, -0.038825046, -0.7899451, -1363056.6, 77407.45, 0.0, 10.000979, 9.9997425 
2.935814e+3, 1.6300596e+2, -1278146.0, -1355476.9, 52999.21, -0.023546861, -0.7323726, -1251207.1, 91260.414, 0.0, 10.001011, 9.999956 
2.935704e+3, 1.7300555e+2, -1193581.9, -1249231.3, 79759.3, -0.01610884, -0.71536714, -1136933.1, 107538.69, 0.0, 10.000862, 10.00008 
2.935594e+3, 1.830049e+2, -1135232.6, -1198714.3, 102880.33, -0.026036225, -0.71652424, -1059308.0, 87170.9, 0.0, 10.0007105, 9.999828 
2.935485e+3, 1.9300367e+2, -1046497.94, -1100016.1, 114147.414, -0.02794598, -0.760662, -956015.06, 92477.08, 0.0, 10.000631, 9.999868 
2.935376e+3, 2.0300288e+2, -945080.25, -986928.8, 120728.39, -0.028351108, -0.7691939, -843476.3, 107024.445, 0.0, 10.000599, 9.999988 
2.9352668e+3, 2.1300301e+2, -825370.06, -864874.5, 133367.44, -0.044116892, -0.69968367, -710300.1, 142200.39, 0.0, 10.000691, 10.000107 
2.9351577e+3, 2.2300276e+2, -744394.94, -803421.56, 125616.75, -0.048178427, -0.6616732, -644871.06, 109632.74, 0.0, 10.000697, 9.999854 
2.9350486e+3, 2.3300168e+2, -664936.1, -698970.4, 115613.64, -0.015626961, -0.69635785, -565093.94, 91421.48, 0.0, 10.0005045, 9.99999 
2.9349396e+3, 2.4300085e+2, -592852.8, -609104.56, 118080.945, 0.010828848, -0.7153166, -482618.5, 75905.7, 0.0, 10.000305, 10.000032 
2.9348296e+3, 2.530006e+2, -503087.0, -478057.94, 102130.49, 0.014850097, -0.69864625, -387678.1, 72848.77, 0.0, 10.000088, 10.000364 
2.9347193e+3, 2.6300058e+2, -434244.2, -391129.97, 93550.086, 0.0033192195, -0.6740008, -316685.38, 45841.465, 0.0, 9.99987, 10.000392 
2.9346082e+3, 2.7300084e+2, -326726.47, -241414.88, 62206.72, -0.011321907, -0.6511105, -208643.92, 55880.38, 0.0, 9.999729, 10.0008135 
2.9344973e+3, 2.830006e+2, -269893.88, -189700.11, 89714.51, 0.012272547, -0.6849553, -131529.73, 34996.793, 0.0, 9.999556, 10.000596 
2.9343858e+3, 2.9299998e+2, -144317.61, -54119.027, -884.93304, 0.00879895, -0.74045616, -54110.344, 14422.107, 0.0, 9.99965, 10.00081 
2.946146e+3, 1.3311952e+2, -1598266.8, -1682723.9, -27480.365, -0.08211638, -0.7678519, -1590112.5, 45237.684, 0.0, 10.000914, 9.999782 
2.946035e+3, 1.4311819e+2, -1472394.3, -1548455.8, 15220.61, -0.018988539, -0.8241586, -1469461.6, 67903.29, 0.0, 10.001003, 9.999987 
2.945924e+3, 1.5311794e+2, -1414245.1, -1476073.5, 59833.516, -0.05085673, -0.78528845, -1377811.4, 61556.824, 0.0, 10.000764, 9.999922 
2.9458138e+3, 1.6311756e+2, -1338444.9, -1375072.8, 56108.297, -0.03744079, -0.7570372, -1297737.4, 43635.38, 0.0, 10.000552, 10.000045 
2.945704e+3, 1.7311712e+2, -1233595.4, -1254970.0, 66871.59, -0.018713623, -0.75525373, -1176562.5, 66815.06, 0.0, 10.0005245, 10.000207 
2.945594e+3, 1.8311656e+2, -1159995.6, -1202354.4, 90300.7, -0.021849912, -0.7555664, -1088423.9, 56959.613, 0.0, 10.000501, 9.9999075 
2.9454848e+3, 1.9311576e+2, -1037813.44, -1090664.4, 116954.13, -0.032728363, -0.7633147, -944336.56, 103056.05, 0.0, 10.000661, 9.999923 
2.9453757e+3, 2.0311518e+2, -921939.0, -965632.44, 125779.06, -0.037170876, -0.7585501, -816123.5, 133275.78, 0.0, 10.000703, 10.000089 
2.9452667e+3, 2.1311502e+2, -860205.3, -870964.6, 124335.47, -0.046131887, -0.72601473, -741133.1, 110268.38, 0.0, 10.000398, 10.000212 
2.9451576e+3, 2.2311476e+2, -796710.94, -815905.4, 114526.555, -0.047046885, -0.70122236, -691380.2, 62024.83, 0.0, 10.000273, 9.999978 
2.9450482e+3, 2.3311414e+2, -663742.3, -682164.0, 106753.58, -0.022041285, -0.70455253, -565803.0, 89609.26, 0.0, 10.000431, 10.000146 
2.9449388e+3, 2.4311358e+2, -571753.3, -594706.56, 109001.0, 0.006481047, -0.7095026, -473626.44, 83792.336, 0.0, 10.000424, 10.000076 
2.9448292e+3, 2.531132e+2, -475995.25, -461472.8, 89606.64, 0.025258156, -0.7055302, -378833.66, 80589.17, 0.0, 10.00025, 10.000404 
2.944719e+3, 2.631133e+2, -400588.3, -368995.6, 76829.06, 0.013182881, -0.67862344, -306355.78, 55066.836, 0.0, 10.0000725, 10.000452 
2.944607e+3, 2.7311376e+2, -292268.56, -230614.58, 38364.664, -0.036178753, -0.6311044, -212226.22, 51191.957, 0.0, 9.999976, 10.000779 
2.944496e+3, 2.8311336e+2, -228498.77, -168692.53, 50494.797, -0.02100223, -0.6769196, -139910.72, 25511.512, 0.0, 9.999831, 10.000604 
2.944385e+3, 2.9311323e+2, -112821.305, -28562.404, -8398.813, 0.060585983, -0.68624085, -27733.379, 39689.855, 0.0, 9.999808, 10.000901 
2.9561466e+3, 1.3323039e+2, -1626138.0, -1729662.3, -18780.48, -0.057742972, -0.8197336, -1622836.3, 11426.42, 0.0, 10.000874, 9.999476 
2.956035e+3, 1.4323045e+2, -1457463.4, -1507256.8, 16549.994, -0.049700957, -0.7319321, -1452464.5, 83800.78, 0.0, 10.000962, 10.000288 
2.955924e+3, 1.5322994e+2, -1393149.3, -1424653.4, 48792.734, -0.067900494, -0.7567905, -1357628.9, 80640.62, 0.0, 10.0007305, 10.000292 
2.9558137e+3, 1.6322906e+2, -1345609.5, -1384267.3, 52493.57, -0.056654632, -0.79467404, -1308999.3, 31278.537, 0.0, 10.000527, 9.999994 
2.9557037e+3, 1.7322807e+2, -1233833.0, -1259709.5, 63918.305, -0.030016068, -0.8418705, -1181556.6, 60731.934, 0.0, 10.000541, 10.000167 
2.955594e+3, 1.832276e+2, -1143306.1, -1172820.8, 91105.05, -0.025430622, -0.84163135, -1065770.9, 78523.34, 0.0, 10.000523, 10.0001 
2.955485e+3, 1.9322814e+2, -1023602.3, -1057615.8, 122809.63, -0.035793137, -0.7382578, -916627.44, 129662.695, 0.0, 10.000646, 10.000156 
2.955376e+3, 2.0322813e+2, -925586.75, -965654.2, 116645.35, -0.03244847, -0.6908666, -827267.2, 121023.8, 0.0, 10.00067, 10.000105 
2.9552668e+3, 2.1322672e+2, -864910.8, -880062.25, 110581.375, -0.017893977, -0.77950543, -761645.94, 88659.57, 0.0, 10.000393, 10.000153 
2.9551578e+3, 2.2322598e+2, -787220.9, -794779.06, 118001.76, -0.016168008, -0.8037022, -672937.75, 79375.84, 0.0, 10.000266, 10.000127 
2.955048e+3, 2.3322666e+2, -649167.4, -650916.5, 111253.81, -0.029746827, -0.6998217, -538784.7, 115523.6, 0.0, 10.000427, 10.000362 
2.9549384e+3, 2.4322677e+2, -564133.0, -581862.7, 102455.45, -0.034904342, -0.6525424, -470159.6, 86148.55, 0.0, 10.000435, 10.000161 
2.9548284e+3, 2.5322586e+2, -473422.88, -457475.53, 82894.41, -0.023584925, -0.70871633, -382172.2, 76145.45, 0.0, 10.000254, 10.000432 
2.954718e+3, 2.6322556e+2, -399252.13, -370488.4, 71400.72, -0.016452976, -0.7189076, -312035.53, 48285.742, 0.0, 10.000089, 10.000435 
2.954607e+3, 2.73226e+2, -300621.34, -253333.23, 42680.934, -0.0028856143, -0.66655326, -228184.84, 34133.21, 0.0, 10.000001, 10.000611 
2.9544955e+3, 2.8322554e+2, -226244.03, -178111.72, 40274.113, 0.0073745893, -0.70485055, -155261.1, 9062.016, 0.0, 9.999882, 10.000519 
2.954384e+3, 2.9322618e+2, -72468.484, 46291.965, 2850.448, 0.0086106565, -0.63759726, 46360.34, 112676.16, 0.0, 9.999844, 10.001401 
2.9661468e+3, 1.3334152e+2, -1621825.9, -1688276.9, -10584.15, -0.055634163, -0.8668566, -1620180.8, 12992.326, 0.0, 10.000734, 9.9998255 
2.966035e+3, 1.433421e+2, -1507886.5, -1540288.5, 34685.023, -0.053864248, -0.7455717, -1485805.3, 49365.254, 0.0, 10.0006485, 10.0002165 
2.9659238e+3, 1.5334131e+2, -1457034.1, -1468247.5, 26223.752, -0.08973464, -0.78278303, -1435824.5, 1352.4812, 0.0, 10.000342, 10.000182 
2.9658136e+3, 1.6334051e+2, -1403331.0, -1421856.8, 37105.33, -0.066752374, -0.8075348, -1374349.9, -35165.22, 0.0, 10.000168, 9.999913 
2.9657036e+3, 1.733398e+2, -1233203.1, -1279957.5, 47022.24, -0.040087882, -0.811147, -1204067.6, 37125.563, 0.0, 10.000627, 9.999991 
2.9655936e+3, 1.8333946e+2, -1101652.4, -1143549.1, 50381.355, -0.04046084, -0.79152167, -1068037.8, 75159.99, 0.0, 10.000759, 10.000193 
2.9654846e+3, 1.9333974e+2, -1056844.4, -1055323.8, 75564.445, -0.049329966, -0.7294108, -980515.8, 64679.383, 0.0, 10.000332, 10.000327 
2.9653755e+3, 2.0333953e+2, -1003767.4, -1014705.25, 67813.03, -0.044481594, -0.70781565, -941203.1, 5994.781, 0.0, 10.000177, 10.000009 
2.9652664e+3, 2.1333835e+2, -861440.4, -886398.1, 58804.65, -0.03160381, -0.767824, -813805.1, 35406.0, 0.0, 10.000445, 10.000086 
2.9651573e+3, 2.2333777e+2, -730122.5, -747846.44, 69466.76, -0.029916793, -0.7817464, -668954.75, 82263.23, 0.0, 10.000568, 10.000306 
2.965048e+3, 2.3333834e+2, -649061.7, -630310.9, 59204.008, -0.047608312, -0.70923126, -579744.5, 73468.26, 0.0, 10.000327, 10.000559 
2.964938e+3, 2.4333853e+2, -597510.06, -579214.5, 51150.746, -0.052853785, -0.67677426, -536400.0, 18811.6, 0.0, 10.000112, 10.000343 
2.964828e+3, 2.5333783e+2, -483687.1, -457325.44, 38435.508, -0.035223696, -0.72075343, -429873.5, 27345.453, 0.0, 10.000145, 10.000494 
2.9647171e+3, 2.6333764e+2, -380801.4, -357107.72, 31319.172, -0.018824369, -0.7275135, -335469.7, 23752.117, 0.0, 10.000184, 10.000488 
2.9646066e+3, 2.7333805e+2, -280409.63, -250388.13, 15182.778, -0.00044163264, -0.6800303, -244048.48, 17170.506, 0.0, 10.000167, 10.000554 
2.9644948e+3, 2.8333756e+2, -205865.55, -172402.83, 10320.78, 0.0041052266, -0.7174379, -169475.67, -6251.405, 0.0, 10.000048, 10.000485 
2.964383e+3, 2.933381e+2, -82699.07, 45607.65, -32337.559, -0.01162967, -0.6489549, 53296.973, 118515.016, 0.0, 9.999787, 10.001426 
2.9761466e+3, 1.3345258e+2, -1621664.8, -1610770.0, -31367.277, -0.0647858, -0.9320761, -1584380.6, 47703.824, 0.0, 10.000405, 10.000514 
2.9760355e+3, 1.4345296e+2, -1529985.9, -1588855.9, 18977.396, -0.04648827, -0.85337853, -1524398.6, 9683.723, 0.0, 10.000664, 9.999875 
2.9759234e+3, 1.5345195e+2, -1446763.8, -1509733.6, -502.45154, -0.11549797, -0.8695897, -1446759.8, -10668.11, 0.0, 10.000612, 9.999768 
2.975813e+3, 1.6345167e+2, -1361538.4, -1411041.5, 40768.51, -0.06865185, -0.8195362, -1338596.0, -501.29547, 0.0, 10.000496, 9.999829 
2.9757035e+3, 1.7345203e+2, -1233729.5, -1311416.4, 62094.273, -0.047431022, -0.69533443, -1199330.1, 40763.418, 0.0, 10.000758, 9.999712 
2.9755938e+3, 1.8345195e+2, -1097949.6, -1142319.3, 36519.46, -0.061782315, -0.63170016, -1077404.6, 64690.926, 0.0, 10.000786, 10.000188 
2.975484e+3, 1.9345063e+2, -1042299.94, -1036681.9, 57400.438, -0.07591063, -0.7418467, -982021.8, 62085.707, 0.0, 10.000381, 10.000431 
2.9753748e+3, 2.0344949e+2, -1010763.9, -1039861.3, 72542.56, -0.08244717, -0.80536366, -951325.5, -5206.496, 0.0, 10.000223, 9.999814 
2.975266e+3, 2.134499e+2, -862986.8, -891018.56, 68254.086, -0.083534785, -0.6989884, -807324.4, 40793.98, 0.0, 10.000451, 10.0000515 
2.9751566e+3, 2.2345006e+2, -718283.5, -717555.3, 64783.67, -0.08117376, -0.64752424, -653134.7, 96983.81, 0.0, 10.000544, 10.000527 
2.9750472e+3, 2.3344927e+2, -635803.5, -602117.4, 49064.2, -0.075256474, -0.732489, -567085.75, 85039.44, 0.0, 10.000322, 10.000756 
2.9749376e+3, 2.4344896e+2, -580392.2, -542080.56, 47873.137, -0.053541526, -0.77463424, -509673.0, 44455.063, 0.0, 10.000104, 10.000603 
2.9748276e+3, 2.5344926e+2, -477616.84, -446180.84, 42629.703, -0.008813946, -0.73556054, -416463.75, 39662.44, 0.0, 10.000152, 10.0005665 
2.9747173e+3, 2.6344964e+2, -366243.3, -331029.0, 28426.473, 0.0023260613, -0.6956504, -315198.53, 42925.0, 0.0, 10.000201, 10.00066 
2.9746056e+3, 2.7345002e+2, -269447.75, -230833.27, 16956.383, -0.04180337, -0.668231, -224444.42, 35675.863, 0.0, 10.000178, 10.000685 
2.9744938e+3, 2.834496e+2, -202690.42, -170388.69, -1831.0446, -0.050632566, -0.7080368, -170285.22, -8160.6626, 0.0, 10.000081, 10.00048 
2.974383e+3, 2.9344904e+2, -132597.69, -57832.367, -32189.057, 0.037732996, -0.7300146, -45883.508, 18246.012, 0.0, 9.999815, 10.0006895 
2.9861444e+3, 1.3356608e+2, -1822922.0, -1733858.6, -39328.227, -0.17759828, -0.63452494, -1718978.4, -88006.69, 0.0, 9.99913, 10.000295 
2.9860356e+3, 1.4356449e+2, -1507357.6, -1571166.5, -16687.607, -0.029566914, -0.7467719, -1503256.9, 29731.05, 0.0, 10.000797, 9.99993 
2.9859254e+3, 1.5356292e+2, -1237001.0, -1427576.4, -36363.465, -0.006257613, -0.8164217, -1230298.3, 204705.78, 0.0, 10.002142, 9.999592 
2.9858142e+3, 1.6356155e+2, -1128798.1, -1308420.8, -44630.668, -0.018111024, -0.8560975, -1118320.0, 218698.47, 0.0, 10.002144, 9.999735 
2.9857042e+3, 1.7356136e+2, -1191490.9, -1262599.8, -1775.5092, -0.02718653, -0.802346, -1191446.6, 47575.35, 0.0, 10.000935, 9.999956 
2.985594e+3, 1.8356055e+2, -1158523.3, -1184772.3, 5669.2793, -0.048513163, -0.82516575, -1157351.3, -16319.887, 0.0, 10.000438, 10.000059 
2.985484e+3, 1.9355921e+2, -996790.6, -1046015.3, 8417.123, -0.07806605, -0.9094077, -995391.1, 47653.37, 0.0, 10.000832, 10.000151 
2.985375e+3, 2.035591e+2, -852664.9, -928164.56, 30381.244, -0.0740066, -0.873955, -841957.8, 103088.47, 0.0, 10.001154, 10.000136 
2.9852661e+3, 2.1356007e+2, -830850.94, -852685.4, 35307.723, -0.039449543, -0.73623866, -804811.1, 42227.637, 0.0, 10.0005665, 10.000265 
2.985157e+3, 2.235604e+2, -813550.6, -752620.2, 37876.484, -0.026104081, -0.6836426, -734477.25, 14559.588, 0.0, 9.999834, 10.000632 
2.985047e+3, 2.3355997e+2, -667215.06, -598868.3, 27936.502, -0.033345513, -0.7474168, -588902.5, 62137.918, 0.0, 10.000028, 10.000921 
2.984937e+3, 2.4355997e+2, -527100.9, -487657.13, 20549.256, -0.03560307, -0.7774118, -478897.0, 74143.04, 0.0, 10.000346, 10.000859 
2.984827e+3, 2.535605e+2, -471639.47, -415323.9, 21211.262, -0.021711586, -0.7462049, -408228.63, 46806.457, 0.0, 10.00007, 10.000819 
2.9847163e+3, 2.63561e+2, -397135.53, -322452.06, 24687.21, -0.015398439, -0.7149376, -315029.28, 42001.004, 0.0, 9.999879, 10.000881 
2.984605e+3, 2.735615e+2, -266182.7, -211087.78, 18987.496, -0.03009087, -0.69801813, -205178.0, 53847.86, 0.0, 10.000104, 10.000869 
2.9844937e+3, 2.8356147e+2, -167568.08, -133638.48, -5138.4063, -0.029016387, -0.7179692, -132877.38, 28148.814, 0.0, 10.000232, 10.000688 
2.9843825e+3, 2.935602e+2, -114096.26, -111474.93, -9209.632, 0.08751529, -0.8022678, -103483.164, -40445.332, 0.0, 10.000147, 10.000243 
2.9961446e+3, 1.3367312e+2, -1419834.9, -1602652.5, 11947.246, -0.054242704, -0.9091375, -1419057.4, 210864.69, 0.0, 10.002169, 9.999731 
2.9960355e+3, 1.4367278e+2, -1596029.1, -1568197.8, 53567.49, -0.06717282, -0.8859827, -1526768.0, 5157.402, 0.0, 9.999979, 10.000351 
2.995926e+3, 1.5367347e+2, -1611199.8, -1618254.0, 38011.95, -0.064574495, -0.7441766, -1576551.6, -142630.92, 0.0, 9.999583, 9.999532 
2.9958144e+3, 1.6367173e+2, -1561741.1, -1534579.9, 35268.758, -0.12506856, -0.79605925, -1510367.4, -174427.89, 0.0, 9.99922, 9.999604 
2.9957035e+3, 1.736711e+2, -1355880.5, -1283033.0, 41035.336, -0.09390418, -0.822147, -1264588.0, -26641.799, 0.0, 9.999526, 10.000507 
2.9955932e+3, 1.836715e+2, -1273057.1, -1277609.6, 6957.2944, -0.086978, -0.74556625, -1268013.1, -128069.54, 0.0, 9.999778, 9.999758 
2.9954845e+3, 1.9367103e+2, -1064875.4, -1144626.9, 18070.623, -0.06740144, -0.6893523, -1060971.9, -19020.2, 0.0, 10.000615, 9.999592 
2.9953754e+3, 2.0367128e+2, -925253.25, -890104.7, -4525.3247, -0.08105297, -0.6336244, -889531.4, 54419.3, 0.0, 10.000312, 10.000815 
2.9952657e+3, 2.1367027e+2, -892344.06, -838617.7, -194.60446, -0.063944116, -0.7448842, -838617.0, 7341.8228, 0.0, 9.999938, 10.000671 
2.995156e+3, 2.2366963e+2, -793271.25, -749554.1, -5901.293, -0.047094043, -0.8054989, -748771.5, -806.70435, 0.0, 9.999994, 10.000578 
2.995047e+3, 2.3367076e+2, -720300.94, -610979.44, -30977.213, -0.0025444685, -0.7219886, -602812.0, 47143.438, 0.0, 9.999599, 10.001044 
2.9949373e+3, 2.4367146e+2, -504199.88, -443402.06, -10067.413, -0.020212077, -0.69852144, -441778.38, 110170.28, 0.0, 10.000359, 10.001156 
2.9948258e+3, 2.5367156e+2, -429043.56, -338157.9, 4442.2964, -0.085521616, -0.7593029, -337941.3, 116004.02, 0.0, 10.00012, 10.001321 
2.994715e+3, 2.6367182e+2, -377710.88, -288520.78, 29653.217, -0.072673894, -0.7933126, -279561.8, 76379.68, 0.0, 9.999897, 10.001109 
2.9946053e+3, 2.7367246e+2, -249490.31, -187886.39, 34806.28, 0.037883032, -0.77773565, -172210.0, 85726.04, 0.0, 10.000138, 10.0010195 
2.9944938e+3, 2.836731e+2, -147041.44, -67692.414, -11110.166, 0.059967145, -0.7603057, -66166.164, 93763.64, 0.0, 10.000175, 10.001144 
2.9943818e+3, 2.9367328e+2, -106997.32, -45698.547, 18048.836, 0.09683379, -0.7584093, -40779.05, 21147.857, 0.0, 9.999993, 10.000741 
