coord_x,coord_y,stress_xx,stress_yy,tau_xy,velocity_x,velocity_y,stress_1,eps,damage,lx,ly
5.0031507e+0, 1.2317637e+2, -999967.7, -1690892.6, -58976.613, 0.00024581052, -0.25891802, -994969.7, 737878.5, 0.0015232522, 10.00625, 9.997149 
5.003325e+0, 1.3317443e+2, -965395.1, -1638663.9, -72883.73, 0.03636168, -0.1812587, -957595.56, 677265.8, 0.00090830727, 10.005898, 9.996999 
5.0030273e+0, 1.4316861e+2, -1017320.06, -1699551.6, -61660.02, 0.03961996, -0.4304129, -1011792.06, 525125.5, 0.0004107197, 10.005241, 9.996221 
5.0019854e+0, 1.5316449e+2, -1113533.9, -1725882.1, 11517.381, -0.004540555, -0.4672751, -1113317.4, 325648.84, 0.0001215813, 10.004039, 9.995946 
5.0012314e+0, 1.6316296e+2, -963427.5, -1299256.6, 71748.45, -0.032138593, -0.32376632, -948741.0, 392246.06, 0.000016053062, 10.003088, 9.998661 
5.0011456e+0, 1.7316575e+2, -893369.06, -1157315.3, 43261.152, -0.019079132, 0.01905886, -886459.44, 356501.25, 0.00000013955699, 10.002651, 9.999172 
5.0010234e+0, 1.8316597e+2, -936238.3, -1186840.8, 21229.402, 0.0039059753, 0.14698963, -934452.6, 210506.7, 0.0, 10.0019455, 9.998637 
5.000779e+0, 1.9316107e+2, -1040569.06, -1212539.8, 39715.832, 0.04344945, -0.20956928, -1031839.94, 15168.07, 0.0, 10.0006695, 9.998404 
5.0005e+0, 2.0315874e+2, -974555.9, -963747.8, 70481.45, 0.062337726, -0.3409604, -898463.5, 50567.723, 0.0, 9.999735, 9.9998865 
5.0001657e+0, 2.1316159e+2, -891881.06, -845384.1, 50991.69, 0.04005463, -0.0913123, -812591.1, 38411.97, 0.0, 9.99951, 10.000134 
4.9998465e+0, 2.2316256e+2, -846533.06, -779270.9, 27134.098, 0.024674572, -0.001894182, -769689.56, -16698.707, 0.0, 9.999179, 10.000074 
4.9995717e+0, 2.3315963e+2, -837458.06, -739078.75, 586.1309, 0.024808465, -0.31807595, -739075.25, -84062.7, 0.0, 9.99863, 9.999945 
4.9992245e+0, 2.4315841e+2, -861639.7, -762605.5, -7221.6504, 0.018841578, -0.41025633, -762081.7, -205059.78, 0.0, 9.998057, 9.999388 
4.9987325e+0, 2.531604e+2, -868819.44, -745387.56, -401.69632, -0.0007502057, -0.154349, -745386.25, -286377.53, 0.0, 9.997464, 9.99912 
4.9985933e+0, 2.631605e+2, -785167.9, -616259.06, 32913.7, -0.0017039598, -0.065691866, -610072.06, -249062.58, 0.000000019594776, 9.997206, 9.999454 
4.999145e+0, 2.731576e+2, -628240.1, -489821.88, 51371.906, 0.033126656, -0.3251829, -472839.5, -209808.36, 0.00000061394036, 9.997609, 9.9994545 
4.9992365e+0, 2.8315654e+2, -564524.7, -455517.3, 45956.26, 0.043513622, -0.35524997, -438728.44, -273689.88, 0.000004739669, 9.9975815, 9.999026 
4.9983272e+0, 2.9315728e+2, -626508.7, -465589.66, 45410.215, 0.0011353131, -0.19084841, -453659.66, -386621.78, 0.00003407196, 9.996611, 9.9987545 
4.9976698e+0, 3.031547e+2, -597616.3, -241106.3, 37295.79, -0.017619785, -0.3770897, -237246.44, -237246.44, 0.00018243087, 9.995673, 10.000418 
4.997572e+0, 3.1315875e+2, -390474.28, 343346.3, -32526.246, 0.005572031, -0.09489244, 344785.22, 344785.22, 0.0005320596, 9.9949875, 10.004769 
1.500943e+1, 1.23176284e+2, -1030939.8, -1735664.5, -81165.31, -0.0014131682, -0.124063194, -1021712.6, 711145.4, 0.0014916157, 10.006177, 9.9968815 
1.5009966e+1, 1.331738e+2, -981119.94, -1661757.9, -83320.06, 0.10839816, -0.073495425, -971068.75, 663812.56, 0.0008891884, 10.005869, 9.99686 
1.5009093e+1, 1.4316908e+2, -898613.3, -1443786.0, -103181.29, 0.12029683, -0.27441794, -879738.4, 657188.8, 0.00039992976, 10.005204, 9.997999 
1.5005937e+1, 1.5316936e+2, -964598.9, -1406225.1, -29500.383, -0.015350561, -0.07662702, -962637.0, 476287.94, 0.000116338786, 10.003999, 9.998162 
1.500372e+1, 1.6316834e+2, -985213.4, -1335545.9, 48082.58, -0.09415778, -0.004221923, -978733.94, 362200.38, 0.000014720188, 10.003052, 9.998436 
1.5003441e+1, 1.7316419e+2, -951818.4, -1269316.4, 31091.512, -0.057331413, -0.27536234, -948802.3, 294169.97, 0.00000010097208, 10.002614, 9.998426 
1.5003057e+1, 1.8316184e+2, -914108.5, -1126582.0, -23136.479, 0.010973266, -0.37925634, -911618.4, 233376.39, 0.0, 10.001892, 9.999077 
1.5002324e+1, 1.9316317e+2, -997422.1, -1110158.6, -4938.049, 0.12918358, -0.17235696, -997206.25, 49778.637, 0.0, 10.00062, 9.999131 
1.50015e+1, 2.0316368e+2, -1001323.7, -1007564.8, 53070.617, 0.18668248, -0.05452497, -951281.94, -2300.1274, 0.0, 9.99969, 9.99961 
1.5000494e+1, 2.1316229e+2, -937093.8, -925088.44, 47673.56, 0.120123245, -0.16861235, -883041.1, -32047.291, 0.0, 9.9994545, 9.999617 
1.4999528e+1, 2.2316125e+2, -892676.3, -860087.2, 6049.8203, 0.0732962, -0.23089206, -859000.4, -105997.67, 0.0, 9.999123, 9.999548 
1.4998707e+1, 2.3316106e+2, -882364.56, -817531.6, -16691.492, 0.07428665, -0.2101385, -813486.75, -158483.25, 0.0, 9.998573, 9.999434 
1.4997679e+1, 2.4316098e+2, -858617.9, -746121.0, -32160.098, 0.056952816, -0.16168423, -737576.25, -180572.66, 0.0, 9.998015, 9.999527 
1.4996207e+1, 2.5316086e+2, -851309.3, -697037.7, -19696.674, -0.0016562748, -0.13619047, -694562.6, -235557.47, 0.0, 9.997414, 9.999481 
1.4995778e+1, 2.6316005e+2, -755232.0, -544483.56, 38931.07, -0.0057099666, -0.18352352, -537521.9, -176510.4, 0.0000000045160005, 9.997169, 9.999969 
1.499745e+1, 2.731586e+2, -599679.94, -419775.13, 70601.4, 0.100026, -0.34101677, -395377.22, -132356.75, 0.00000044568839, 9.997563, 9.999963 
1.4997686e+1, 2.8315872e+2, -554212.4, -419693.8, 17127.613, 0.12928683, -0.29694852, -417547.28, -252529.75, 0.000003862279, 9.997528, 9.9993 
1.4994979e+1, 2.9316023e+2, -614401.44, -426625.72, 12884.772, 0.0028662882, -0.0730566, -425745.72, -358737.53, 0.000030142082, 9.996555, 9.999052 
1.4993e+1, 3.0315652e+2, -699165.8, -439673.22, 6381.5884, -0.053664394, -0.33564332, -439516.38, -439516.38, 0.0001696507, 9.995634, 9.999076 
1.4992681e+1, 3.1315574e+2, -550021.4, 38153.805, -45861.555, 0.013573666, -0.3524457, 41708.27, 41708.27, 0.00050278765, 9.994891, 10.002719 
2.501682e+1, 1.2317771e+2, -841952.7, -1659927.9, 127740.836, 0.053455383, -0.16022964, -822467.94, 910375.9, 0.0014443002, 10.007563, 9.996725 
2.5015357e+1, 1.3317573e+2, -1106148.1, -1735580.9, 113197.0, 0.10253229, -0.04842326, -1086409.8, 548455.75, 0.00085965934, 10.0050745, 9.996735 
2.5013238e+1, 1.4317173e+2, -1081292.4, -1469251.9, 109590.3, 0.09216066, -0.19599192, -1052475.8, 484429.72, 0.0003836544, 10.003684, 9.99855 
2.5010535e+1, 1.531727e+2, -833320.44, -1266894.3, 79857.8, 0.017249119, -0.0000853339, -819079.56, 619812.8, 0.00010888395, 10.004575, 9.9988365 
2.5008163e+1, 1.6317157e+2, -804666.06, -1286674.1, 60296.77, -0.024329865, 0.037243243, -797237.75, 543662.7, 0.000012860042, 10.00447, 9.998078 
2.50065e+1, 1.731658e+2, -1041616.06, -1379240.1, 41491.0, 0.004956606, -0.3403656, -1036591.94, 206363.8, 0.00000006033416, 10.002295, 9.997819 
2.5004908e+1, 1.831628e+2, -1031092.8, -1183552.9, 23451.39, 0.048756257, -0.47213334, -1027567.06, 117418.64, 0.0, 10.001087, 9.999072 
2.5003448e+1, 1.9316559e+2, -807229.3, -1003290.94, 4134.2676, 0.11907105, -0.13675931, -807142.2, 239819.98, 0.0, 10.001858, 9.999266 
2.5002015e+1, 2.0316675e+2, -706459.56, -880053.9, 24205.697, 0.16563706, 0.045285705, -703147.56, 245805.14, 0.0, 10.001777, 9.999479 
2.5000563e+1, 2.1316437e+2, -887452.5, -924178.6, 32300.168, 0.1613174, -0.15245971, -868660.44, -17686.525, 0.0, 9.999893, 9.999411 
2.4999037e+1, 2.2316277e+2, -967466.9, -930175.9, 54103.188, 0.13180299, -0.24607892, -891595.44, -138606.89, 0.0, 9.998745, 9.99925 
2.4997406e+1, 2.3316304e+2, -828619.9, -829927.3, 53781.566, 0.06169611, -0.14905368, -775488.06, -120501.32, 0.0, 9.999101, 9.999095 
2.4995857e+1, 2.4316293e+2, -689130.44, -668943.4, 38944.19, 0.015055254, -0.082668655, -638805.94, -81818.44, 0.0, 9.999206, 9.999474 
2.4994428e+1, 2.5316173e+2, -652603.1, -600331.4, 21941.863, 0.012138088, -0.17003223, -592342.06, -133345.48, 0.0, 9.998782, 9.999475 
2.4993686e+1, 2.6316053e+2, -613493.56, -465591.63, 64688.42, 0.022893984, -0.2596572, -441291.22, -80285.695, 0.00000000030772893, 9.998101, 10.000055 
2.4994339e+1, 2.731601e+2, -685190.9, -448901.75, 62988.78, 0.065244764, -0.32836786, -433159.34, -170152.16, 0.00000033210142, 9.996934, 10.000059 
2.4993978e+1, 2.8316098e+2, -692313.9, -453949.03, 11775.979, 0.06258629, -0.2258639, -453368.7, -288370.44, 0.0000031221457, 9.99643, 9.999598 
2.4991535e+1, 2.9316282e+2, -495573.75, -327124.66, 14321.004, -0.027049966, -0.004323363, -325915.78, -258931.45, 0.000025684236, 9.9971895, 9.99943 
2.4989344e+1, 3.031593e+2, -486435.8, -374076.1, 24949.725, -0.062333856, -0.2617718, -368785.1, -368785.1, 0.0001534223, 9.997259, 9.998745 
2.4987932e+1, 3.1315753e+2, -478768.28, -47927.824, 48334.69, 0.002648698, -0.3211879, -42571.883, -42571.883, 0.00046499635, 9.995905, 10.0016365 
3.5025185e+1, 1.231806e+2, -848769.56, -1666429.4, 33878.78, 0.11398822, -0.3831546, -847368.25, 885438.0, 0.0013817013, 10.007532, 9.996695 
3.501938e+1, 1.3318029e+2, -1105055.3, -1732651.5, 20153.744, -0.01246521, -0.0988273, -1104408.8, 530405.1, 0.0008195207, 10.005078, 9.99675 
3.501539e+1, 1.4317648e+2, -1125066.5, -1557396.6, 116985.02, -0.071715534, -0.20288685, -1095441.4, 441411.66, 0.00036204988, 10.003674, 9.9979515 
3.501568e+1, 1.5317452e+2, -888844.8, -1373001.6, 119140.58, 0.06301599, -0.22767149, -861115.06, 577753.25, 0.000099527024, 10.004545, 9.998119 
3.501448e+1, 1.6317268e+2, -838487.25, -1353656.1, -5483.3506, 0.14997694, -0.20104383, -838428.94, 502456.44, 0.00001054756, 10.004452, 9.997629 
3.5010198e+1, 1.7317054e+2, -1070565.4, -1436663.5, -40080.17, 0.13585475, -0.17621128, -1066228.8, 176682.97, 0.000000028001644, 10.002285, 9.99743 
3.5006514e+1, 1.8316886e+2, -1060110.6, -1238638.5, 30819.115, 0.09190424, -0.13781288, -1054940.1, 89992.38, 0.0, 10.001065, 9.998706 
3.5004097e+1, 1.9316828e+2, -839328.2, -1060259.9, 38859.676, -0.0124238245, -0.098192975, -832692.5, 214247.52, 0.0, 10.001816, 9.998896 
3.500196e+1, 2.0316795e+2, -709284.3, -872171.7, -33732.645, -0.025223678, -0.047767952, -702574.94, 246369.06, 0.0, 10.001723, 9.9995575 
3.500028e+1, 2.1316777e+2, -880868.56, -897183.56, -37104.258, 0.1355925, -0.040450584, -851035.6, -91.996414, 0.0, 9.999841, 9.99962 
3.4998283e+1, 2.2316708e+2, -973129.6, -928374.06, 50356.684, 0.17344038, -0.055427153, -895646.9, -142698.22, 0.0, 9.998692, 9.999289 
3.4995586e+1, 2.3316564e+2, -835419.94, -831202.25, 72582.28, -0.038218156, -0.12944795, -760698.2, -105736.14, 0.0, 9.999048, 9.999112 
3.4993687e+1, 2.4316429e+2, -709542.06, -703149.3, 24857.895, -0.13108318, -0.17867175, -681283.1, -124309.695, 0.0, 9.99917, 9.999257 
3.4993348e+1, 2.5316295e+2, -678796.06, -644397.5, 7588.9478, 0.015707644, -0.24973437, -642797.7, -183814.63, 0.0, 9.998736, 9.999196 
3.499227e+1, 2.6316187e+2, -637647.4, -507635.78, 21774.904, 0.062474687, -0.29988107, -504085.75, -143094.0, 0.00000000006499392, 9.99807, 9.999781 
3.4989685e+1, 2.7316195e+2, -708784.6, -486045.72, 21633.436, -0.10227407, -0.28680813, -483964.03, -220972.2, 0.00000028362408, 9.996886, 9.999826 
3.4988013e+1, 2.8316325e+2, -668464.4, -395506.5, 24283.49, -0.18482758, -0.14913823, -393362.97, -228381.69, 0.0000026203563, 9.996396, 10.000015 
3.4987912e+1, 2.9316506e+2, -460329.22, -246268.75, 46645.027, -0.11753062, 0.02028773, -236546.13, -169579.69, 0.000020827198, 9.997155, 10.000004 
3.498662e+1, 3.0316293e+2, -437043.38, -264797.53, -13923.287, -0.06614799, -0.1679519, -263679.3, -263679.3, 0.0001336939, 9.997233, 9.999506 
3.4983215e+1, 3.1316423e+2, -487748.53, -56817.09, 4733.1724, -0.07710274, 0.012896086, -56765.11, -56765.11, 0.000419702, 9.995864, 10.0015955 
4.5032054e+1, 1.2318494e+2, -1074500.5, -1806599.0, -12821.343, 0.12782046, -0.4083861, -1074276.0, 658486.4, 0.0013094612, 10.006104, 9.996429 
4.5025593e+1, 1.3318473e+2, -781688.6, -1602377.0, -59027.824, -0.0101397475, -0.0904748, -777464.8, 857304.75, 0.000771633, 10.007407, 9.9965315 
4.5020813e+1, 1.4318067e+2, -626599.44, -1359014.4, 29337.008, -0.07262518, -0.19181517, -625426.2, 911385.44, 0.00033630212, 10.007281, 9.9975815 
4.5020023e+1, 1.5317722e+2, -935792.75, -1445273.9, 42131.176, 0.05379723, -0.3205683, -932332.25, 506509.38, 0.000088769266, 10.004425, 9.997693 
4.5018035e+1, 1.6317509e+2, -1063001.0, -1442394.5, -28257.041, 0.14533374, -0.3045952, -1060908.0, 279954.06, 0.000008073466, 10.002826, 9.997807 
4.501359e+1, 1.7317504e+2, -819739.56, -1281131.0, -14400.7, 0.17081437, -0.10097543, -819290.56, 423578.66, 0.000000008983813, 10.003854, 9.997745 
4.500946e+1, 1.8317413e+2, -670351.9, -1060946.3, 94220.01, 0.14616247, 0.0018933009, -648811.8, 496070.38, 0.0, 10.003788, 9.998617 
4.5005903e+1, 1.9317183e+2, -913028.75, -1115470.1, 109812.98, 0.0115424795, -0.11560907, -864902.44, 182002.11, 0.0, 10.001397, 9.99872 
4.5002717e+1, 2.0317034e+2, -957630.56, -1025633.4, 55344.984, -0.039784543, -0.15502301, -926676.9, 22241.385, 0.0, 10.000158, 9.999261 
4.5000324e+1, 2.1317044e+2, -702282.2, -847555.4, 10315.245, 0.09112125, -0.08934481, -701553.4, 149362.33, 0.0, 10.001219, 9.999299 
4.4998023e+1, 2.2316991e+2, -574012.3, -756998.75, 73964.91, 0.14022137, -0.0628231, -547854.25, 205065.69, 0.0, 10.001529, 9.999095 
4.4995776e+1, 2.3316824e+2, -664582.3, -765568.2, 77125.91, 0.017022297, -0.14037922, -622890.94, 32045.307, 0.0, 10.0002985, 9.998958 
4.499381e+1, 2.4316677e+2, -688397.9, -704834.2, 35748.227, -0.043221947, -0.18771958, -659935.3, -102985.76, 0.0, 9.999371, 9.999149 
4.4992366e+1, 2.531655e+2, -626577.0, -631895.06, 27283.568, 0.026764678, -0.23950335, -601823.2, -142864.22, 0.0, 9.999149, 9.999086 
4.4990307e+1, 2.631645e+2, -550098.9, -495551.3, 38289.836, 0.025811449, -0.2672241, -475814.78, -114846.74, 0.00000000016705606, 9.998799, 9.999515 
4.498715e+1, 2.7316454e+2, -538886.5, -438564.3, 25092.654, -0.1065992, -0.22751372, -432638.2, -169667.98, 0.00000025695456, 9.998198, 9.999525 
4.4984928e+1, 2.8316548e+2, -517104.88, -310924.84, 44919.715, -0.17951092, -0.107973725, -301563.38, -136600.25, 0.0000021581377, 9.997393, 10.000114 
4.4984326e+1, 2.9316667e+2, -573133.1, -278486.75, 38061.48, -0.14491501, -0.022870991, -273649.5, -206696.52, 0.000016077325, 9.996291, 10.000199 
4.498273e+1, 3.0316526e+2, -591394.2, -242929.72, -37946.848, -0.10108864, -0.18911816, -238845.28, -238845.28, 0.00011232623, 9.995751, 10.000376 
4.4979364e+1, 3.131686e+2, -446679.2, -17840.854, -17523.404, -0.052357346, 0.102323055, -17125.996, -17125.996, 0.00037058155, 9.996054, 10.001779 
5.503708e+1, 1.2319084e+2, -1100769.0, -1879551.3, 22290.818, -0.008447299, -0.22566937, -1100131.5, 632579.8, 0.0012333252, 10.006177, 9.995894 
5.5033845e+1, 1.3318917e+2, -807556.6, -1662934.5, -7503.99, 0.060122054, -0.014162386, -807490.8, 827240.8, 0.00071976264, 10.007436, 9.9961 
5.502932e+1, 1.4318433e+2, -638278.6, -1386810.0, -54065.855, 0.03600891, -0.15633164, -634393.6, 902386.7, 0.00030775976, 10.007293, 9.997384 
5.5023336e+1, 1.5318085e+2, -942245.5, -1463344.0, -63549.223, -0.072253674, -0.27772868, -934607.44, 504204.34, 0.00007694782, 10.004446, 9.997557 
5.5018634e+1, 1.6317886e+2, -1007562.1, -1328848.0, -19151.754, -0.089147404, -0.27145043, -1006424.56, 334405.5, 0.0000058036258, 10.002833, 9.998583 
5.5016583e+1, 1.7317928e+2, -752813.6, -1137929.8, 29341.504, 0.073756255, -0.11342225, -750591.0, 492237.0, 0.00000000116644, 10.0038395, 9.9987335 
5.501361e+1, 1.8317871e+2, -659772.7, -1034261.9, 22859.176, 0.17282334, -0.047248337, -658382.5, 486451.75, 0.0, 10.003766, 9.998811 
5.500867e+1, 1.9317618e+2, -912188.25, -1112620.5, 20422.557, 0.13578698, -0.18942247, -910128.5, 136727.5, 0.0, 10.001394, 9.99874 
5.5004144e+1, 2.0317397e+2, -1006869.5, -1123972.1, 69281.16, 0.07697098, -0.2766822, -974711.75, -25836.412, 0.0, 10.000141, 9.998594 
5.500058e+1, 2.1317238e+2, -764938.7, -972000.94, 55324.76, -0.01616041, -0.29782367, -751083.6, 99806.48, 0.0, 10.001194, 9.998457 
5.4998136e+1, 2.231712e+2, -605891.9, -818032.5, 38700.58, -0.0126095805, -0.26962212, -599052.25, 153850.17, 0.0, 10.001506, 9.998686 
5.499787e+1, 2.331709e+2, -692239.6, -815599.2, 31074.293, 0.18549371, -0.18077904, -684854.1, -29944.943, 0.0, 10.000266, 9.998629 
5.4996055e+1, 2.4317044e+2, -694384.6, -707924.5, 18008.959, 0.23514783, -0.10855077, -681915.2, -124999.336, 0.0, 9.999334, 9.999143 
5.4991245e+1, 2.5316945e+2, -629141.1, -624920.9, 22637.387, -0.010009668, -0.14117058, -604295.44, -145371.1, 0.0, 9.999101, 9.999154 
5.4987663e+1, 2.631684e+2, -570153.6, -535433.2, 14470.942, -0.12841696, -0.16369893, -530192.8, -169258.22, 0.00000000012003064, 9.998788, 9.9992485 
5.4986644e+1, 2.7316782e+2, -567513.6, -490888.4, 4006.459, 0.013454359, -0.1530126, -490679.5, -227737.17, 0.00000017731924, 9.998165, 9.999183 
5.498467e+1, 2.8316778e+2, -538174.0, -348988.6, 2303.3816, 0.046202652, -0.10252327, -348960.56, -184016.75, 0.0000014062957, 9.997371, 9.999863 
5.4980654e+1, 2.931675e+2, -593265.8, -308104.7, 899.9747, -0.15160243, -0.13670519, -308101.84, -241157.3, 0.00001153016, 9.996243, 10.000017 
5.4977524e+1, 3.031662e+2, -522840.06, -94351.6, -36147.76, -0.20519765, -0.330646, -91323.54, -91323.54, 0.000091940805, 9.995724, 10.0014105 
5.4976046e+1, 3.1317043e+2, -418585.5, 45560.887, 4409.2266, -0.009595815, -0.06708088, 45602.77, 45602.77, 0.00032222702, 9.996028, 10.002227 
6.5044236e+1, 1.2319653e+2, -905135.3, -1766843.4, 13679.885, 0.03158409, -0.07114751, -904918.2, 827744.06, 0.0011590816, 10.007455, 9.996048 
6.504042e+1, 1.3319352e+2, -1108061.5, -1766786.3, 25714.424, 0.09072691, -0.025036413, -1107059.1, 527632.25, 0.0006684028, 10.00519, 9.996469 
6.503509e+1, 1.4318861e+2, -1115832.9, -1617865.1, 20515.395, 0.052014764, -0.19903348, -1114995.9, 421743.38, 0.00027853777, 10.004017, 9.997375 
6.502784e+1, 1.5318638e+2, -837539.0, -1421400.4, 8315.078, -0.1007268, -0.1844097, -837420.56, 601340.44, 0.00006500659, 10.005205, 9.997477 
6.502214e+1, 1.6318484e+2, -654104.8, -1147787.8, 44113.02, -0.13800983, -0.13587631, -650194.06, 690581.94, 0.000003953751, 10.005212, 9.99868 
6.5019554e+1, 1.7318396e+2, -902592.3, -1196969.6, 25405.9, 0.044816915, -0.1211884, -900415.75, 342367.78, 0.00000000000024211628, 10.002748, 9.998856 
6.501614e+1, 1.8318275e+2, -972780.94, -1187690.3, -7578.9233, 0.1589971, -0.12411603, -972514.0, 172279.84, 0.0, 10.001632, 9.998782 
6.501097e+1, 1.9318092e+2, -646432.3, -991677.9, -21883.395, 0.13676044, -0.18850458, -645050.75, 401757.3, 0.0, 10.00325, 9.998677 
6.500624e+1, 2.0317878e+2, -505719.53, -933620.8, 35771.156, 0.091883, -0.24718389, -502749.8, 446077.03, 0.0, 10.003803, 9.998136 
6.500239e+1, 2.1317601e+2, -669664.0, -985446.75, 36641.313, 0.0019809422, -0.33331907, -665468.2, 185386.1, 0.0, 10.002107, 9.997923 
6.499937e+1, 2.2317424e+2, -717165.1, -895077.3, 30069.86, -0.00327573, -0.32173964, -712220.3, 40653.246, 0.0, 10.000838, 9.998484 
6.499802e+1, 2.3317459e+2, -665902.8, -816850.7, 25827.664, 0.16459003, -0.1536792, -661605.94, -6730.1855, 0.0, 10.000502, 9.998513 
6.499533e+1, 2.4317452e+2, -601725.3, -671047.2, 32327.496, 0.19956294, -0.032110266, -588989.56, -32109.834, 0.0, 9.999988, 9.999092 
6.499008e+1, 2.531735e+2, -633777.8, -630700.1, 26241.066, -0.032019835, -0.063340075, -605952.8, -147064.13, 0.0, 9.999075, 9.999134 
6.4986205e+1, 2.631723e+2, -634281.44, -578248.06, 30096.014, -0.13133807, -0.09358355, -565146.56, -204246.38, 0.00000000000043891748, 9.998403, 9.999138 
6.498513e+1, 2.7317122e+2, -557817.8, -502321.47, 30234.766, 0.04159305, -0.12356656, -489031.84, -226118.88, 0.00000007111923, 9.998301, 9.999037 
6.4982635e+1, 2.831708e+2, -421640.56, -252561.5, 44629.613, 0.07872612, -0.11600827, -241504.31, -76587.42, 0.0000006300397, 9.997992, 10.000229 
6.497728e+1, 2.931709e+2, -415805.44, -164681.25, 86166.18, -0.15715304, -0.1617304, -137959.23, -71048.11, 0.000007787418, 9.997207, 10.000539 
6.4973277e+1, 3.0317044e+2, -417239.13, -24591.871, 77547.8, -0.23110123, -0.31026277, -9831.091, -9831.091, 0.0000752456, 9.99637, 10.001572 
6.4971626e+1, 3.1317377e+2, -562798.3, -88999.484, 17792.709, -0.015048653, -0.1386384, -88332.25, -88332.25, 0.00028007472, 9.995321, 10.001638 
7.505314e+1, 1.2320193e+2, -835424.7, -1631640.8, -73650.38, 0.15219979, 0.05475119, -828669.3, 903946.7, 0.0010923342, 10.007497, 9.996955 
7.5045145e+1, 1.331978e+2, -1023440.3, -1600296.3, -59134.14, 0.031099673, -0.12361176, -1017440.8, 617208.4, 0.0006218639, 10.005229, 9.997593 
7.5037974e+1, 1.4319345e+2, -1096488.8, -1584465.3, 40182.22, -0.07417166, -0.3151288, -1093202.1, 443486.4, 0.00025198673, 10.004048, 9.997589 
7.5033426e+1, 1.5319385e+2, -837422.06, -1423369.3, 59617.402, -0.075351626, -0.040122297, -831417.8, 607271.5, 0.00005461447, 10.005216, 9.997459 
7.502837e+1, 1.63193e+2, -695622.44, -1231590.8, -26945.852, -0.04720918, 0.10536809, -694271.1, 646428.56, 0.0000026473901, 10.005201, 9.99811 
7.502232e+1, 1.7318906e+2, -949717.56, -1298055.4, -66174.37, 0.034479603, -0.12144511, -937569.94, 305165.8, 0.0000000011733428, 10.002764, 9.998154 
7.501689e+1, 1.8318628e+2, -989121.0, -1224782.3, 23973.434, 0.0600818, -0.22694044, -986706.94, 158053.52, 0.0, 10.001644, 9.998523 
7.50127e+1, 1.9318607e+2, -659894.1, -1018025.94, 45099.77, -0.026189758, -0.11364241, -654302.0, 392458.72, 0.0, 10.0032425, 9.998501 
7.500885e+1, 2.031848e+2, -527302.94, -972408.3, -8776.172, -0.038016297, -0.06444772, -527129.94, 421642.56, 0.0, 10.0037775, 9.997881 
7.500556e+1, 2.131813e+2, -693963.94, -1029160.8, -25557.105, 0.09807185, -0.19614264, -692026.5, 158781.64, 0.0, 10.002075, 9.997639 
7.5001544e+1, 2.2317903e+2, -722843.7, -899922.1, 5298.788, 0.1192537, -0.21986237, -722685.25, 30148.016, 0.0, 10.000809, 9.998463 
7.4996054e+1, 2.3317926e+2, -671010.3, -817198.44, 18746.35, -0.0896574, -0.067127615, -668644.6, -13808.295, 0.0, 10.000457, 9.998531 
7.499147e+1, 2.4317905e+2, -612812.9, -685279.94, -614.7441, -0.19448747, 0.040261794, -612807.7, -55966.484, 0.0, 9.999953, 9.999007 
7.498877e+1, 2.531778e+2, -647588.4, -651995.44, -5792.6826, -0.07986765, -0.003697943, -643594.25, -184743.19, 0.0, 9.999042, 9.999004 
7.4985814e+1, 2.6317632e+2, -636084.5, -576951.1, 18531.703, -0.019768134, -0.054033473, -571623.5, -210759.23, 0.0, 9.998381, 9.999157 
7.4982405e+1, 2.7317473e+2, -561128.06, -499037.78, 32153.496, -0.07219382, -0.13924605, -485387.88, -222506.14, 0.000000009748358, 9.998258, 9.999079 
7.497862e+1, 2.8317457e+2, -353056.13, -106537.18, 16578.506, -0.13200434, -0.14882259, -105427.26, 59454.703, 0.00000018216522, 9.997975, 10.001239 
7.497408e+1, 2.9317683e+2, -333907.8, 12403.774, 60315.707, -0.20873514, -0.10249062, 22608.045, 89460.24, 0.000005368871, 9.997174, 10.001772 
7.496989e+1, 3.03178e+2, -475734.63, -144586.45, 40908.434, -0.21622568, -0.12809363, -139607.67, -139607.67, 0.00006268461, 9.996362, 10.000749 
7.496582e+1, 3.1317845e+2, -691834.8, -340920.3, -13527.232, -0.14622499, -0.11978329, -340399.63, -340399.63, 0.00024571895, 9.99525, 9.999941 
8.506025e+1, 1.2320744e+2, -1117740.0, -1727762.3, 10646.246, 0.22439513, 0.044747435, -1117554.3, 615008.5, 0.0010348387, 10.005368, 9.997321 
8.5050833e+1, 1.3320363e+2, -887900.44, -1472847.3, -31519.346, 0.04737863, -0.15716419, -886206.94, 748384.25, 0.0005823543, 10.0059, 9.998139 
8.504276e+1, 1.4319982e+2, -851277.7, -1457523.9, 66978.914, -0.07990291, -0.33098242, -843965.94, 692658.25, 0.0002306962, 10.005692, 9.997672 
8.503846e+1, 1.5320008e+2, -985762.25, -1494657.8, 86895.66, -0.03904567, -0.06783326, -971333.6, 467292.66, 0.000047004232, 10.004193, 9.997463 
8.50332e+1, 1.631991e+2, -969064.6, -1397691.9, -5133.4883, 0.0052473587, 0.0749954, -969003.2, 371635.1, 0.0000019118118, 10.003473, 9.997801 
8.50261e+1, 1.7319493e+2, -757830.06, -1246307.0, -31085.096, 0.063631006, -0.1357735, -755859.8, 486816.5, 0.000000010944706, 10.004256, 9.997791 
8.5019934e+1, 1.8319175e+2, -629629.7, -1105265.1, 101410.09, 0.067261234, -0.24122362, -608910.6, 535795.1, 0.0, 10.004346, 9.998045 
8.5015684e+1, 1.9319083e+2, -728204.1, -1105772.6, 99620.766, -0.03734937, -0.14865337, -703531.6, 343183.3, 0.0, 10.003012, 9.99801 
8.501157e+1, 2.0318949e+2, -780816.25, -1087421.5, 10125.062, -0.05131434, -0.07671931, -780482.25, 168246.64, 0.0, 10.002004, 9.997951 
8.500763e+1, 2.1318732e+2, -741183.25, -1030064.44, 11567.439, 0.12080177, -0.09496186, -740720.8, 110031.86, 0.0, 10.001657, 9.997838 
8.5002846e+1, 2.2318548e+2, -655717.3, -888962.06, 87567.33, 0.14357261, -0.07762751, -626501.4, 126272.414, 0.0, 10.001364, 9.99827 
8.499643e+1, 2.3318446e+2, -586051.0, -806960.44, 75744.664, -0.13107857, -0.023464588, -562574.75, 92213.72, 0.0, 10.001175, 9.998254 
8.499121e+1, 2.4318339e+2, -482762.63, -617821.2, 38403.664, -0.2565695, 0.01545206, -472606.34, 84194.31, 0.0, 10.000828, 9.999049 
8.4988457e+1, 2.5318226e+2, -462920.78, -547490.9, 41377.09, -0.07294273, -0.025816383, -446044.28, 12763.708, 0.0, 10.000249, 9.999138 
8.4985024e+1, 2.631811e+2, -477129.22, -512315.22, 83938.04, 0.008394648, -0.052134022, -408960.28, -48141.902, 0.0, 9.999518, 9.999058 
8.498031e+1, 2.7317983e+2, -540827.06, -506911.8, 74886.12, -0.11534402, -0.08659752, -447087.3, -184252.58, 0.0, 9.9984665, 9.99893 
8.497551e+1, 2.8317976e+2, -479801.5, -170686.83, 1826.7284, -0.1944971, -0.080909245, -170676.03, -5840.0464, 0.000000023853914, 9.997111, 10.001217 
8.4970593e+1, 2.9318187e+2, -606470.94, -115062.16, -54642.22, -0.17617917, -0.048827287, -109059.53, -42252.195, 0.0000039776505, 9.995285, 10.001807 
8.496611e+1, 3.031836e+2, -680461.3, -258952.7, -34373.527, -0.16111091, -0.016075347, -256167.98, -256167.98, 0.000053629374, 9.995027, 10.0006075 
8.496146e+1, 3.1318307e+2, -374300.47, -219638.7, -9518.132, -0.21751678, -0.083204314, -219055.16, -219055.16, 0.00021910039, 9.997563, 9.999656 
9.5065385e+1, 1.23213075e+2, -1125212.8, -1743165.5, 15227.351, 0.17873149, -0.09672053, -1124837.8, 607664.8, 0.0009850853, 10.005373, 9.997212 
9.5057327e+1, 1.3321093e+2, -887353.25, -1477882.0, -12111.145, 0.09564114, -0.12653603, -887104.94, 747413.1, 0.0005502334, 10.005924, 9.998094 
9.504928e+1, 1.4320758e+2, -848322.2, -1452774.4, 20875.133, -0.007988198, -0.25213036, -847602.1, 688944.94, 0.00021494731, 10.005698, 9.997699 
9.5042795e+1, 1.5320514e+2, -982050.1, -1490316.9, 33970.934, -0.03807087, -0.2654314, -979789.7, 458782.03, 0.00004212777, 10.00421, 9.997482 
9.5036525e+1, 1.632032e+2, -971993.6, -1405493.0, 7801.4414, -0.02101592, -0.21619792, -971853.25, 368737.44, 0.0000015636334, 10.00348, 9.997745 
9.5030725e+1, 1.7320162e+2, -761812.6, -1256623.8, 2679.9316, 0.09032504, -0.16177157, -761798.1, 480807.0, 0.00000002590431, 10.004263, 9.997718 
9.50251e+1, 1.8319914e+2, -681138.5, -1209445.6, 62872.813, 0.14135125, -0.16345085, -673759.2, 470870.34, 0.0, 10.004334, 9.9973345 
9.501976e+1, 1.9319516e+2, -789910.7, -1229726.1, 52665.305, 0.058146622, -0.29451177, -783692.25, 262978.8, 0.0, 10.002996, 9.997165 
9.501428e+1, 2.0319292e+2, -756538.25, -1033365.4, -12236.329, 0.009470853, -0.28059262, -755998.44, 192697.34, 0.0, 10.001988, 9.998328 
9.500842e+1, 2.1319401e+2, -700128.06, -938492.1, 3505.5579, 0.026203465, -0.03237703, -700076.56, 150611.44, 0.0, 10.001628, 9.998482 
9.500315e+1, 2.2319359e+2, -687555.0, -948003.25, 77156.37, 0.028514596, 0.10351038, -666413.94, 86281.4, 0.0, 10.001333, 9.997879 
9.4999015e+1, 2.3319012e+2, -635383.3, -900165.44, 71179.0, 0.0011434107, -0.0252183, -617461.9, 37270.836, 0.0, 10.001133, 9.997635 
9.499443e+1, 2.4318759e+2, -474242.44, -591255.56, 15235.243, -0.025181236, -0.10543305, -472291.3, 84466.82, 0.0, 10.0007925, 9.999246 
9.4988996e+1, 2.53187e+2, -442452.34, -496824.66, 23173.662, -0.05062561, -0.13091488, -433915.88, 24843.271, 0.0, 10.000215, 9.999502 
9.49837e+1, 2.6318657e+2, -498244.28, -552391.44, 45372.75, -0.08299565, -0.089895174, -472481.66, -111718.836, 0.0, 9.999501, 9.998792 
9.4978714e+1, 2.731865e+2, -574814.25, -568728.5, 38452.13, -0.1302728, 0.027852105, -533199.06, -270426.34, 0.0, 9.998426, 9.998526 
9.497318e+1, 2.831863e+2, -556040.0, -323497.4, -66052.95, -0.14754319, 0.08886974, -306045.06, -141266.06, 0.000000004406078, 9.997089, 10.000175 
9.4966704e+1, 2.93186e+2, -697674.9, -292989.25, -118863.79, -0.10319053, 0.00018107415, -260659.5, -193883.08, 0.0000031202694, 9.995236, 10.0006075 
9.4961774e+1, 3.0318722e+2, -644412.0, -180715.73, 35515.098, -0.10452218, 0.026824372, -178011.36, -178011.36, 0.00004667503, 9.995009, 10.001154 
9.4958204e+1, 3.1318772e+2, -303838.53, -60139.6, 98031.88, -0.32344624, -0.028425489, -25599.992, -25599.992, 0.0001974869, 9.997506, 10.000778 
1.05069265e+2, 1.23219155e+2, -1184898.8, -1816999.8, 41645.703, 0.046839204, -0.19970204, -1182166.8, 550272.44, 0.0009401373, 10.005139, 9.996821 
1.0506309e+2, 1.3321793e+2, -996830.2, -1572235.3, -21144.834, 0.11193194, -0.1026037, -996054.25, 638396.9, 0.0005235282, 10.005336, 9.997736 
1.0505564e+2, 1.4321527e+2, -913684.1, -1471164.3, -39347.816, 0.08653793, -0.14466213, -910920.56, 625555.06, 0.00020298566, 10.005191, 9.997817 
1.0504762e+2, 1.5321207e+2, -932174.8, -1446374.6, -31242.008, 0.0147023965, -0.25087133, -930283.56, 508220.75, 0.000039018407, 10.004464, 9.997665 
1.0504037e+2, 1.6320945e+2, -909507.6, -1405966.5, 1803.0591, -0.009620515, -0.26743245, -909501.06, 431026.8, 0.0000013719641, 10.004049, 9.997462 
1.0503483e+2, 1.7320746e+2, -785118.75, -1310933.4, -22571.402, 0.07472829, -0.21662761, -784151.6, 458395.4, 0.000000029941347, 10.004301, 9.997319 
1.05029166e+2, 1.8320501e+2, -713836.5, -1230294.3, -4644.7773, 0.12671019, -0.19136736, -713794.7, 430777.6, 0.0, 10.0041275, 9.997288 
1.0502322e+2, 1.9320187e+2, -781916.0, -1223540.3, 31200.586, 0.10549242, -0.24173413, -779722.56, 266884.56, 0.0, 10.003033, 9.9971895 
1.05016924e+2, 2.031999e+2, -714887.0, -1019922.0, 31990.996, 0.060950376, -0.20143335, -711568.06, 237061.95, 0.0, 10.002307, 9.998264 
1.0500996e+2, 2.1320006e+2, -602327.56, -899186.4, -3793.8013, -0.016107367, -0.038312588, -602279.1, 248350.78, 0.0, 10.002337, 9.998406 
1.0500416e+2, 2.2319902e+2, -613902.5, -935748.56, 31251.963, -0.03256665, 0.049424894, -610895.94, 141746.38, 0.0, 10.001939, 9.997674 
1.0500067e+2, 2.3319565e+2, -711319.9, -960924.75, 44850.914, 0.07654516, -0.047454562, -703505.4, -48826.38, 0.0, 10.00072, 9.9974165 
1.04995936e+2, 2.431932e+2, -645098.25, -683916.2, 5454.677, 0.1038606, -0.10264712, -644346.4, -87642.16, 0.0, 9.9996605, 9.999155 
1.0498879e+2, 2.5319263e+2, -632834.2, -595050.5, -24865.494, -0.027257299, -0.11825615, -582714.25, -124008.04, 0.0, 9.998934, 9.999443 
1.04982235e+2, 2.6319245e+2, -674536.9, -619977.1, -9153.678, -0.11470362, -0.058861792, -618482.4, -257773.86, 0.0, 9.9982195, 9.998941 
1.0497692e+2, 2.7319288e+2, -686423.25, -599736.7, 21188.11, -0.10652045, 0.0924548, -594835.06, -332122.63, 0.0, 9.997563, 9.998727 
1.0497092e+2, 2.8319255e+2, -538435.75, -381822.6, -22655.201, -0.10024283, 0.15423061, -378611.22, -213891.02, 0.0000000012345152, 9.997498, 9.999582 
1.0496374e+2, 2.93191e+2, -270075.75, -172521.0, -49443.797, -0.0836787, 0.010689266, -151843.92, -85111.33, 0.0000025058646, 9.998538, 9.999846 
1.04958445e+2, 3.031918e+2, -211777.6, 38139.953, 109330.01, -0.08213122, 0.042013593, 79216.555, 79216.555, 0.000040625986, 9.997929, 10.001258 
1.0495445e+2, 3.1319278e+2, -760089.5, -206637.44, 113630.19, -0.27287638, 0.0043597533, -184216.16, -184216.16, 0.00017793833, 9.994053, 10.001446 
1.15071565e+2, 1.2322555e+2, -1229082.6, -1920535.0, 39066.363, -0.26458234, -0.28060356, -1226882.4, 505491.56, 0.0008951554, 10.005187, 9.99609 
1.1506793e+2, 1.3322459e+2, -1042163.9, -1667679.9, -13067.431, 0.051964242, -0.088635765, -1041891.0, 592499.44, 0.00049772963, 10.005343, 9.997074 
1.15061775e+2, 1.4322288e+2, -904083.25, -1448464.4, -63533.348, 0.17071703, -0.003016535, -896766.75, 639642.75, 0.00019212971, 10.005178, 9.99798 
1.1505274e+2, 1.5322086e+2, -903246.9, -1389912.3, -53705.26, 0.06853443, -0.02620021, -897390.8, 541033.25, 0.000036673922, 10.004484, 9.998041 
1.15044594e+2, 1.6321784e+2, -943798.1, -1484949.8, 2360.0818, -0.004203374, -0.08308505, -943787.8, 396662.1, 0.0000012546313, 10.004076, 9.996912 
1.1503829e+2, 1.7321242e+2, -833712.8, -1414692.9, -9123.45, -0.020337727, -0.30451018, -833569.56, 408932.8, 0.000000014917205, 10.0043125, 9.996603 
1.1503208e+2, 1.8320933e+2, -673793.2, -1140502.4, -39313.063, -0.005406311, -0.32518458, -670504.8, 474029.28, 0.0, 10.0041, 9.997919 
1.1502591e+2, 1.9321097e+2, -719526.9, -1088619.1, -8516.155, 0.059790716, 0.01103213, -719330.5, 327192.9, 0.0, 10.003012, 9.998126 
1.15019366e+2, 2.0321041e+2, -754233.6, -1096219.1, 22309.27, 0.06708601, 0.16217497, -752784.44, 195747.19, 0.0, 10.002283, 9.997753 
1.1501208e+2, 2.1320543e+2, -663778.56, -1018986.5, 407.7166, -0.046062462, -0.11245299, -663778.06, 186800.63, 0.0, 10.002304, 9.997601 
1.1500574e+2, 2.2320178e+2, -618635.7, -938695.94, -9545.053, -0.07566811, -0.23760086, -618351.3, 134263.61, 0.0, 10.001908, 9.997668 
1.1500126e+2, 2.3320098e+2, -704037.8, -938587.2, 1804.7502, 0.055814147, -0.09325366, -704023.9, -49396.13, 0.0, 10.000687, 9.997587 
1.1499563e+2, 2.4320017e+2, -678858.44, -742989.2, -28732.727, 0.09884754, 0.020593688, -667868.5, -111229.23, 0.0, 9.999616, 9.998771 
1.1498768e+2, 2.5319916e+2, -673957.25, -669801.0, -50719.836, -0.039556738, 0.011727508, -621116.75, -162467.34, 0.0, 9.998889, 9.998951 
1.14980474e+2, 2.6319867e+2, -636602.3, -535333.5, -36881.76, -0.118811995, 0.04178924, -523325.22, -162669.75, 0.0, 9.998194, 9.9995365 
1.14974804e+2, 2.73199e+2, -633397.06, -483839.06, 990.8833, -0.08331486, 0.10630554, -483832.5, -221178.45, 0.0, 9.997535, 9.999539 
1.1496861e+2, 2.8319854e+2, -553412.06, -407926.34, 2474.978, -0.08771671, 0.11471297, -407884.25, -243224.61, 0.00000000007947066, 9.9974785, 9.999413 
1.1496161e+2, 2.9319674e+2, -301710.7, -230292.44, -6026.2603, -0.15991598, -0.013328221, -229787.52, -163111.86, 0.000001910546, 9.998506, 9.999466 
1.1495592e+2, 3.0319735e+2, -238536.13, -8608.564, -5311.6226, -0.13410479, 0.032994177, -8485.925, -8485.925, 0.000034739915, 9.997898, 10.000947 
1.1494994e+2, 3.1319818e+2, -755405.9, -176316.98, -25844.578, -0.14806256, 0.004558551, -175165.83, -175165.83, 0.00015856141, 9.993971, 10.001689 
1.250775e+2, 1.2323406e+2, -1077306.9, -1850455.1, 62750.297, -0.2396026, -0.20512873, -1072247.0, 660044.3, 0.0008477927, 10.006264, 9.996045 
1.2507287e+2, 1.3323231e+2, -1136986.4, -1721685.0, 41367.88, 0.046301562, -0.08332634, -1134074.0, 500241.44, 0.00047088074, 10.004735, 9.996996 
1.2506619e+2, 1.4323035e+2, -1090975.1, -1588918.9, 38744.76, 0.15124243, -0.00055137696, -1087978.4, 448359.2, 0.00018172163, 10.004121, 9.997521 
1.2505762e+2, 1.5322801e+2, -809490.44, -1408361.4, -22058.97, 0.06442672, 0.0015565912, -808679.06, 629678.0, 0.000035016423, 10.005404, 9.997468 
1.2504941e+2, 1.6322494e+2, -711764.1, -1354244.5, -17312.852, -0.0039351014, -0.03580745, -711297.94, 629086.56, 0.0000011945414, 10.005592, 9.997078 
1.2504204e+2, 1.7321995e+2, -919954.0, -1423736.3, 32831.68, -0.03652766, -0.24073923, -917823.4, 324608.47, 0.0000000007525214, 10.0035715, 9.996903 
1.2503506e+2, 1.8321703e+2, -916926.6, -1261085.8, 55258.094, -0.030413175, -0.26014334, -908272.0, 236189.42, 0.0, 10.002448, 9.997887 
1.2502879e+2, 1.9321838e+2, -720017.9, -1101659.1, 9036.853, 0.047004834, 0.059729107, -719804.0, 326649.9, 0.0, 10.00307, 9.998008 
1.2502201e+2, 2.0321749e+2, -645197.94, -1064332.8, -1746.8152, 0.06374699, 0.1902105, -645190.6, 303275.13, 0.0, 10.00312, 9.997568 
1.2501425e+2, 2.1321213e+2, -733791.7, -1075904.0, 10675.873, -0.03717624, -0.10346261, -733458.9, 117057.76, 0.0, 10.001923, 9.997393 
1.2500726e+2, 2.2320847e+2, -719389.2, -948712.9, 40978.934, -0.068304636, -0.23117787, -712286.44, 40265.836, 0.0, 10.001045, 9.998016 
1.250018e+2, 2.332084e+2, -652168.94, -861492.9, 67065.27, 0.03868602, -0.058391258, -632525.3, 22031.037, 0.0, 10.000817, 9.998053 
1.24995425e+2, 2.4320789e+2, -578407.6, -752438.94, 58584.65, 0.07207598, 0.078315616, -560523.9, -3958.7307, 0.0, 10.000555, 9.998254 
1.24987245e+2, 2.532063e+2, -531503.25, -685868.4, 16382.856, -0.03623445, 0.08527712, -529783.7, -71199.33, 0.0, 10.000228, 9.998199 
1.2497956e+2, 2.6320523e+2, -448987.1, -435368.25, -11528.428, -0.08987436, 0.09930224, -428788.4, -68191.516, 0.0, 9.999441, 9.999621 
1.2497291e+2, 2.7320507e+2, -577915.94, -426236.16, -27683.479, -0.036931027, 0.08516945, -421341.53, -158745.17, 0.0, 9.997791, 9.999806 
1.2496597e+2, 2.832045e+2, -675471.2, -460537.94, 11146.112, -0.053864893, 0.065779634, -459961.47, -295360.8, 0.00000000021645001, 9.996613, 9.999467 
1.2495877e+2, 2.9320344e+2, -620914.2, -380250.38, 37524.58, -0.18106441, 0.0074993432, -374535.22, -307923.94, 0.0000014014497, 9.996298, 9.999499 
1.249528e+2, 3.0320403e+2, -558030.56, -181195.22, -20050.893, -0.1268626, 0.06008723, -180131.34, -180131.34, 0.000028974657, 9.995774, 10.0007925 
1.2494574e+2, 3.1320468e+2, -608337.9, -84749.46, -62153.715, -0.0052961768, 0.02969607, -77472.5, -77472.5, 0.0001384936, 9.994887, 10.001881 
1.350867e+2, 1.232447e+2, -1041523.25, -1770343.6, -2198.9663, 0.031956654, 0.028471952, -1041516.6, 690674.75, 0.00080389285, 10.006245, 9.996602 
1.3507774e+2, 1.3324116e+2, -1093513.4, -1637436.0, -14175.74, 0.048921358, -0.08323861, -1093144.1, 541081.5, 0.0004473886, 10.004771, 9.997552 
1.3506879e+2, 1.4323771e+2, -1166771.9, -1756511.3, 65111.73, -0.012539533, -0.1319757, -1159668.5, 376590.75, 0.00017426605, 10.004158, 9.996355 
1.3506213e+2, 1.5323359e+2, -916050.4, -1628635.9, 31215.646, -0.034989588, -0.16364802, -914685.56, 523617.06, 0.000034802648, 10.0054, 9.995959 
1.3505471e+2, 1.6323078e+2, -657674.5, -1235865.4, -75519.54, -0.043543093, -0.11794363, -647973.44, 692357.6, 0.0000012825121, 10.005566, 9.997906 
1.3504589e+2, 1.7323002e+2, -824473.4, -1227167.8, -40583.4, -0.02053829, -0.028978253, -820424.06, 421911.72, 0.0, 10.003583, 9.998244 
1.3503794e+2, 1.8322812e+2, -966690.7, -1367276.0, 58776.168, 0.003549241, 0.0040221014, -958244.8, 186109.73, 0.0, 10.002454, 9.997159 
1.3503169e+2, 1.9322413e+2, -800678.0, -1269379.9, 37776.67, 0.019677395, -0.098541886, -797652.8, 248746.06, 0.0, 10.003068, 9.99686 
1.3502474e+2, 2.0322113e+2, -640222.94, -1048827.3, -37768.4, 0.015433312, -0.11601168, -636761.2, 311671.16, 0.0, 10.003097, 9.997686 
1.3501634e+2, 2.1322009e+2, -711172.1, -1020220.7, -31393.068, -0.029838871, -0.01270813, -708015.5, 142428.5, 0.0, 10.001885, 9.997792 
1.3500862e+2, 2.2321905e+2, -674676.94, -850907.7, 22495.885, -0.04766285, 0.06820979, -671850.6, 80604.16, 0.0, 10.00102, 9.9987 
1.3500212e+2, 2.3321787e+2, -601172.4, -751209.6, 61415.094, -0.020821322, 0.052180257, -579239.44, 75225.91, 0.0, 10.000795, 9.99882 
1.3499518e+2, 2.432163e+2, -630323.0, -851007.3, 44443.027, -0.016186014, 0.06715719, -621709.0, -65226.773, 0.0, 10.000518, 9.997595 
1.349874e+2, 2.532141e+2, -604111.2, -828455.3, 7449.506, -0.051581636, 0.10161804, -603864.06, -145353.03, 0.0, 10.000195, 9.997235 
1.3497938e+2, 2.6321217e+2, -484820.28, -504260.56, -68025.17, -0.058307335, 0.11389173, -425824.3, -65291.816, 0.0, 9.999418, 9.99916 
1.3497102e+2, 2.73211e+2, -607458.25, -477500.34, -86882.37, -0.013424913, 0.031361844, -433985.94, -171446.36, 0.0, 9.997747, 9.999476 
1.3496281e+2, 2.8321037e+2, -656895.8, -412924.56, -11615.887, -0.039683975, 0.00935917, -412372.75, -247829.31, 0.000000004047862, 9.996578, 9.999809 
1.3495518e+2, 2.932109e+2, -593754.06, -314234.72, 29752.914, -0.17640468, 0.066952996, -311102.8, -244562.67, 0.0000011638989, 9.996257, 9.999973 
1.3494898e+2, 3.0321178e+2, -562914.6, -180007.45, -51498.023, -0.09015595, 0.11802201, -173202.31, -173202.31, 0.00002372901, 9.995732, 10.000819 
1.3494158e+2, 3.132123e+2, -606304.9, -64602.664, -82065.516, 0.070895284, 0.082123905, -52443.047, -52443.047, 0.000118264084, 9.994827, 10.002047 
1.4509298e+2, 1.2325222e+2, -1270662.4, -1852352.9, -94574.28, 0.12732674, 0.07031129, -1255672.3, 476449.56, 0.0007721713, 10.004539, 9.996867 
1.450831e+2, 1.3324857e+2, -970737.75, -1550256.6, -140211.5, 0.07360584, -0.08031854, -938596.94, 695557.6, 0.00043265577, 10.005479, 9.997816 
1.4507355e+2, 1.4324532e+2, -958927.1, -1633081.4, -20588.416, -0.017021516, -0.132362, -958298.94, 577885.8, 0.00017165886, 10.005487, 9.996561 
1.4506693e+2, 1.5324111e+2, -1137381.6, -1717635.8, 62660.42, -0.012608893, -0.18896073, -1130692.3, 307537.22, 0.000036189802, 10.003801, 9.996121 
1.4505923e+2, 1.6323854e+2, -1043551.94, -1400089.5, -99.319786, -0.0056238575, -0.1374065, -1043551.94, 296704.4, 0.0000016374781, 10.002821, 9.998096 
1.4504953e+2, 1.7323866e+2, -869284.2, -1230347.5, -59626.746, 0.0072765755, 0.019363852, -859692.1, 382561.56, 0.0, 10.00319, 9.998413 
1.4504088e+2, 1.8323703e+2, -853601.5, -1308657.4, 43191.41, 0.015433483, 0.0672587, -849538.25, 294731.63, 0.0, 10.003217, 9.9971895 
1.4503427e+2, 1.9323209e+2, -881896.06, -1311420.0, 103620.69, -0.00001935599, -0.12931973, -858204.8, 188116.8, 0.0, 10.002518, 9.996838 
1.4502709e+2, 2.0322883e+2, -788354.5, -1110626.8, 63660.6, -0.00407764, -0.17410748, -776235.0, 172121.94, 0.0, 10.002041, 9.997769 
1.450187e+2, 2.1322897e+2, -692016.75, -1002132.4, 37397.426, 0.014662119, 0.03834344, -687570.7, 162788.3, 0.0, 10.001977, 9.997872 
1.4501049e+2, 2.2322845e+2, -598718.6, -831139.5, 60704.805, 0.010031594, 0.17379026, -583818.6, 168547.22, 0.0, 10.001622, 9.998546 
1.450027e+2, 2.3322651e+2, -628152.06, -788893.9, 19577.824, -0.03762714, 0.103755355, -625801.9, 28581.557, 0.0, 10.00072, 9.998599 
1.4499487e+2, 2.432245e+2, -731168.75, -877879.56, -13882.378, -0.055668883, 0.07824525, -729866.7, -173462.69, 0.0, 9.999727, 9.997793 
1.449871e+2, 2.5322253e+2, -821818.9, -899226.7, 33435.902, -0.015909346, 0.10784112, -809376.4, -350947.34, 0.0, 9.998558, 9.997536 
1.4497878e+2, 2.6322064e+2, -691062.3, -625867.3, 38292.57, 0.006536327, 0.11169927, -608176.44, -247726.98, 0.0, 9.998097, 9.998961 
1.4496936e+2, 2.7321905e+2, -453491.78, -436120.4, 20851.76, -0.011809376, 0.020426005, -422217.66, -159757.44, 0.0, 9.998948, 9.999182 
1.4496028e+2, 2.832183e+2, -360387.75, -301770.6, 57355.664, -0.054811966, 0.016319139, -266669.03, -102203.2, 0.000000009906891, 9.998742, 9.999536 
1.449522e+2, 2.932192e+2, -586045.06, -337565.56, 30534.191, -0.10658431, 0.1350576, -333868.4, -267407.1, 0.0000010384059, 9.996427, 9.99973 
1.449453e+2, 3.0321953e+2, -635671.1, -180195.1, -30877.758, 0.0032352642, 0.1293267, -178111.36, -178111.36, 0.000019000812, 9.995082, 10.001129 
1.4493625e+2, 3.1321985e+2, -459559.97, 50586.18, -24188.701, 0.022423556, 0.03299542, 51730.527, 51730.527, 0.0000984148, 9.995635, 10.002452 
1.5509616e+2, 1.23256676e+2, -1263075.4, -1849996.4, -72650.85, -0.031265736, -0.07368317, -1254216.1, 477865.94, 0.00075306726, 10.004592, 9.996858 
1.5508875e+2, 1.3325456e+2, -969088.2, -1546950.9, -101131.44, 0.080729224, -0.070948705, -951900.44, 682201.1, 0.00042570572, 10.005474, 9.997843 
1.5508021e+2, 1.4325322e+2, -853372.7, -1410583.5, -70544.53, 0.091054134, -0.0011358296, -844580.3, 691532.9, 0.00017194104, 10.005473, 9.998096 
1.5507185e+2, 1.5325056e+2, -1007641.25, -1449165.8, 2058.0774, 0.08986877, -0.08083004, -1007631.7, 430506.2, 0.00003796533, 10.003808, 9.997959 
1.550629e+2, 1.632482e+2, -1075913.9, -1466378.6, -1990.9917, 0.06870296, -0.09778002, -1075903.8, 264257.0, 0.000002057836, 10.002818, 9.997644 
1.5505284e+2, 1.7324594e+2, -933770.06, -1364219.1, -40384.03, 0.010109423, -0.088894226, -930014.06, 312170.72, 0.0, 10.003192, 9.997494 
1.5504372e+2, 1.8324387e+2, -801257.3, -1200562.4, 21068.205, -0.033342306, -0.06277473, -800148.75, 344057.78, 0.0, 10.003218, 9.997932 
1.5503637e+2, 1.9324224e+2, -808379.5, -1153180.9, 80298.75, -0.05097275, -0.033854045, -790596.4, 255625.86, 0.0, 10.002497, 9.9979315 
1.5502892e+2, 2.0324057e+2, -791082.4, -1111910.0, 54553.58, -0.032888807, 0.015221675, -782059.8, 166180.13, 0.0, 10.002018, 9.997774 
1.5502109e+2, 2.1323875e+2, -710603.2, -1033109.1, 38116.14, 0.04697833, 0.050091617, -706159.56, 144102.31, 0.0, 10.0019455, 9.997675 
1.5501274e+2, 2.2323671e+2, -676579.7, -985515.8, 28175.873, 0.06574512, 0.08871696, -674031.0, 78254.29, 0.0, 10.001589, 9.997503 
1.5500343e+2, 2.332343e+2, -717306.4, -969405.0, -11210.116, -0.04269562, 0.093766525, -716808.9, -62497.67, 0.0, 10.000695, 9.997375 
1.5499441e+2, 2.4323244e+2, -660922.9, -725498.94, -59807.574, -0.082136534, 0.11044756, -625244.25, -68913.42, 0.0, 9.999697, 9.998854 
1.549862e+2, 2.5323156e+2, -718048.9, -676604.75, -7464.2783, 0.030850211, 0.10207158, -675301.4, -216962.47, 0.0, 9.998524, 9.999082 
1.5497755e+2, 2.6323053e+2, -689726.7, -616260.1, 55033.688, 0.06620171, 0.093650624, -586826.7, -226478.55, 0.0, 9.998072, 9.999037 
1.549678e+2, 2.7322915e+2, -477088.0, -478019.75, 57535.473, -0.06976121, 0.047301304, -420016.5, -157657.45, 0.0, 9.998917, 9.998909 
1.549583e+2, 2.8322828e+2, -423073.47, -427916.66, -13163.738, -0.13596939, 0.082514085, -412110.44, -247741.98, 0.000000005626964, 9.998724, 9.998676 
1.5494965e+2, 2.9322833e+2, -658527.0, -480742.66, -53406.89, -0.014753655, 0.21034387, -465932.78, -399558.06, 0.00000082513446, 9.996389, 9.998766 
1.5494154e+2, 3.0322725e+2, -600635.5, -96061.34, -29693.578, 0.11404055, 0.09836121, -94319.92, -94319.92, 0.000014599608, 9.995041, 10.001719 
1.5492958e+2, 3.1322736e+2, -418355.75, 146831.73, 14835.299, -0.22552653, -0.10804945, 147220.88, 147220.88, 0.00007959566, 9.995595, 10.003128 
1.6510151e+2, 1.23264246e+2, -1100481.1, -1725506.0, 87728.11, 0.0023484642, -0.12807159, -1088401.1, 643608.56, 0.00073584815, 10.005512, 9.997267 
1.6509359e+2, 1.332629e+2, -1133030.3, -1577305.4, 76423.16, 0.087140374, -0.08873867, -1120251.6, 513769.63, 0.00041828363, 10.004149, 9.998266 
1.6508447e+2, 1.4326257e+2, -1156025.0, -1511269.5, 78182.24, 0.08719316, 0.039335202, -1139579.9, 396443.06, 0.0001702519, 10.003206, 9.998494 
1.6507557e+2, 1.5326037e+2, -1074452.4, -1439019.0, 36511.64, 0.11702775, -0.031771906, -1070831.8, 367211.2, 0.000038202248, 10.003161, 9.998341 
1.6506626e+2, 1.6325794e+2, -1028781.8, -1490625.4, 18862.9, 0.09961885, -0.05943118, -1028012.7, 312054.28, 0.0000021679652, 10.003334, 9.9972315 
1.6505624e+2, 1.7325477e+2, -879567.5, -1402071.6, 7227.767, 0.0011274416, -0.08765606, -879467.56, 362634.38, 0.0, 10.003836, 9.996924 
1.650468e+2, 1.8325241e+2, -707367.44, -1121322.1, 29052.34, -0.070051394, -0.06653496, -705338.44, 438788.47, 0.0, 10.003722, 9.998232 
1.6503842e+2, 1.9325183e+2, -791000.0, -1089962.5, 26165.723, -0.08711917, 0.018683868, -788727.25, 257403.3, 0.0, 10.002381, 9.99842 
1.6503036e+2, 2.0325062e+2, -863134.56, -1143001.0, 14857.801, -0.06165806, 0.083333895, -862348.0, 85794.266, 0.0, 10.001509, 9.997807 
1.650228e+2, 2.1324812e+2, -765159.5, -1067414.0, 10399.058, 0.04496212, 0.05828839, -764802.1, 85367.87, 0.0, 10.001604, 9.997606 
1.650144e+2, 2.232455e+2, -704960.75, -1012288.75, 16252.618, 0.08225335, 0.04654354, -704103.6, 48095.22, 0.0, 10.001457, 9.997378 
1.6500427e+2, 2.332428e+2, -718037.8, -983559.9, 43936.055, -0.02783313, 0.036229555, -710956.56, -56728.914, 0.0, 10.000762, 9.997239 
1.6499442e+2, 2.4324103e+2, -565262.75, -656485.75, 27684.924, -0.07686838, 0.06343385, -557518.25, -1272.0051, 0.0, 10.000257, 9.999059 
1.649853e+2, 2.5324106e+2, -460331.53, -520552.6, -18580.209, 0.009506557, 0.118349664, -455060.3, 3184.9338, 0.0, 10.000154, 9.99937 
1.6497606e+2, 2.6324052e+2, -504006.66, -517998.56, -6222.5156, 0.05202872, 0.13731606, -501639.75, -141390.39, 0.0, 9.999298, 9.9991255 
1.6496636e+2, 2.7323878e+2, -749462.8, -603141.0, 10988.927, -0.009195938, 0.04743859, -602320.3, -340056.75, 0.0, 9.997014, 9.998969 
1.6495638e+2, 2.8323767e+2, -829601.75, -620895.4, -5265.0654, -0.05600971, 0.05463068, -620762.7, -456487.78, 0.00000000009995645, 9.995926, 9.998698 
1.6494642e+2, 2.9323786e+2, -537167.25, -420173.38, 20629.27, -0.011939601, 0.1982266, -416642.44, -350363.25, 0.00000049216277, 9.997218, 9.998782 
1.6493742e+2, 3.032368e+2, -308212.4, 22168.293, 50105.38, 0.097004324, 0.09545612, 29600.076, 29600.076, 0.000010365808, 9.997131, 10.001532 
1.6492487e+2, 3.132374e+2, -652734.56, -28789.3, -831.676, -0.18376325, -0.041564927, -28788.191, -28788.191, 0.000061981555, 9.994255, 10.002563 
1.7510878e+2, 1.2327485e+2, -1043212.25, -1603060.1, 33858.598, 0.1575819, -0.09099894, -1041171.94, 690733.7, 0.0007083498, 10.005497, 9.998115 
1.7509754e+2, 1.3327353e+2, -1078859.3, -1463585.5, 23040.012, 0.0597053, -0.12680188, -1077484.4, 556429.8, 0.00040183635, 10.004149, 9.999044 
1.7508636e+2, 1.4327323e+2, -1201101.0, -1611373.1, 63358.008, -0.05431638, -0.010041212, -1191539.5, 344375.63, 0.00016254805, 10.003229, 9.997799 
1.7507796e+2, 1.5327048e+2, -1143644.6, -1583942.4, 38606.234, 0.027483048, -0.04223621, -1140285.3, 297659.9, 0.000035862322, 10.003169, 9.997341 
1.7506918e+2, 1.6326785e+2, -1052845.9, -1542142.5, 31132.168, 0.048790675, -0.017234901, -1050873.0, 289101.2, 0.000001917206, 10.003337, 9.996878 
1.7505962e+2, 1.7326516e+2, -897362.3, -1436842.1, 29472.469, -0.056454144, 0.02653889, -895757.0, 346247.84, 0.0, 10.003827, 9.996689 
1.7504999e+2, 1.8326269e+2, -720439.8, -1144310.0, -11834.67, -0.1308678, 0.056861136, -720109.6, 423921.28, 0.0, 10.003699, 9.998088 
1.7504026e+2, 1.9326083e+2, -802429.9, -1109418.9, -21545.29, -0.15205182, 0.027447904, -800925.1, 245121.63, 0.0, 10.002361, 9.998298 
1.7503129e+2, 2.0325899e+2, -860999.6, -1135663.9, 5585.51, -0.12868577, 0.033429734, -860886.06, 87177.71, 0.0, 10.001493, 9.997865 
1.7502378e+2, 2.132571e+2, -761279.94, -1055173.6, 18715.486, -0.028167572, 0.059138756, -760092.9, 89990.766, 0.0, 10.001585, 9.9977 
1.7501533e+2, 2.2325489e+2, -655667.44, -901441.56, -6441.5254, 0.022141945, 0.04957248, -655498.75, 96607.3, 0.0, 10.001422, 9.998156 
1.7500508e+2, 2.3325196e+2, -658642.8, -854179.4, 22061.002, -0.03208027, -0.07325352, -656184.7, -2051.4316, 0.0, 10.000732, 9.998142 
1.7499472e+2, 2.4325025e+2, -614890.7, -754799.25, 15852.322, -0.08161548, -0.06569885, -613117.0, -56966.227, 0.0, 10.0002365, 9.99839 
1.7498428e+2, 2.53251e+2, -536774.2, -670503.94, -19627.836, -0.11442495, 0.15455136, -533952.94, -75804.42, 0.0, 10.000116, 9.998357 
1.7497429e+2, 2.6325062e+2, -495489.6, -497135.38, -82127.336, -0.06134719, 0.24440485, -414181.03, -54027.594, 0.0, 9.999285, 9.999276 
1.749649e+2, 2.7324787e+2, -727423.4, -549969.4, -73357.16, 0.13748719, 0.019457776, -523571.4, -261397.3, 0.0, 9.996978, 9.999354 
1.7495444e+2, 2.8324643e+2, -771255.44, -493984.28, 16844.955, 0.1501373, -0.064953096, -492964.66, -328779.38, 0.0, 9.995901, 9.99958 
1.7494245e+2, 2.932478e+2, -474454.75, -284277.84, 76363.66, -0.14194217, 0.09731503, -257410.48, -191235.34, 0.00000022526268, 9.99719, 9.99973 
1.7493281e+2, 3.0324814e+2, -374616.1, -112752.3, -34748.305, -0.08589645, 0.11235876, -108219.78, -108219.78, 0.0000067412816, 9.997123, 10.0006075 
1.7492196e+2, 3.1324995e+2, -793896.8, -304237.75, -95224.484, 0.08179034, 0.23760815, -286371.28, -286371.28, 0.000045960638, 9.994184, 10.000706 
1.8511368e+2, 1.2328707e+2, -1286578.9, -1728006.1, 82814.59, 0.18510732, 0.023979371, -1271553.8, 460234.03, 0.00066496537, 10.003849, 9.998049 
1.8510158e+2, 1.3328478e+2, -1115178.4, -1508942.5, -13801.968, 0.058182303, -0.08843251, -1114695.1, 519110.63, 0.00037404476, 10.004, 9.99881 
1.850899e+2, 1.4328387e+2, -1097210.0, -1623302.0, 20520.96, -0.06975084, 0.0053052073, -1096410.8, 439402.6, 0.00014888965, 10.00421, 9.99724 
1.8508184e+2, 1.5328068e+2, -966761.1, -1569130.9, 18766.324, 0.02377355, -0.008225429, -966177.06, 471673.03, 0.000031670865, 10.004687, 9.996712 
1.8507306e+2, 1.6327807e+2, -885344.3, -1403539.4, 24784.281, 0.05893677, 0.03510414, -884161.6, 455717.7, 0.0000015372582, 10.004252, 9.997384 
1.8506284e+2, 1.732763e+2, -1096784.1, -1452234.3, 79740.94, -0.028918734, 0.10081728, -1079714.9, 162182.55, 0.0, 10.0021105, 9.997413 
1.8505278e+2, 1.8327397e+2, -1122276.4, -1374204.3, 105873.52, -0.08788235, 0.11490667, -1083692.1, 60228.11, 0.0, 10.001097, 9.997759 
1.8504308e+2, 1.932708e+2, -853450.8, -1196004.5, 65294.84, -0.09792436, 0.008028541, -841426.9, 204523.05, 0.0, 10.002276, 9.997744 
1.8503377e+2, 2.032683e+2, -679616.1, -1033217.25, 67174.75, -0.087107144, -0.02330858, -667284.75, 280688.88, 0.0, 10.002677, 9.997994 
1.8502516e+2, 2.1326718e+2, -752405.94, -1019794.9, 82313.805, -0.042011056, 0.052105334, -729097.94, 120887.125, 0.0, 10.001512, 9.997976 
1.8501599e+2, 2.2326551e+2, -747202.2, -892469.94, 58530.04, -0.009315819, 0.0630464, -726554.5, 25445.986, 0.0, 10.000551, 9.998644 
1.8500577e+2, 2.3326287e+2, -723308.25, -825929.2, 53411.902, 0.0021799004, -0.08698738, -700553.9, -46530.29, 0.0, 10.000023, 9.998684 
1.8499517e+2, 2.4326116e+2, -721743.7, -840569.94, 67108.77, -0.028141802, -0.098042764, -691526.94, -135486.28, 0.0, 9.999655, 9.998081 
1.84984e+2, 2.532614e+2, -643617.5, -775215.2, 65683.016, -0.12735683, 0.12109786, -616444.6, -158399.72, 0.0, 9.999615, 9.997877 
1.849731e+2, 2.632607e+2, -472486.4, -496432.94, -15238.145, -0.11548414, 0.20940019, -465080.28, -105026.055, 0.0, 9.999494, 9.999175 
1.8496257e+2, 2.7325788e+2, -398599.7, -388652.38, -49086.49, 0.09781838, -0.02181978, -344288.22, -82213.11, 0.0, 9.999234, 9.999368 
1.8495122e+2, 2.8325635e+2, -350491.8, -244762.6, 58384.33, 0.10639788, -0.13176693, -218865.56, -54779.863, 0.0, 9.998585, 10.0 
1.8493883e+2, 2.9325783e+2, -434385.7, -210250.45, 83466.01, -0.22117695, -0.006521339, -182583.6, -116511.89, 0.000000073239775, 9.997233, 10.000215 
1.8492895e+2, 3.0325902e+2, -518768.44, -165653.11, -69858.31, -0.12549426, 0.057179663, -152335.05, -152335.05, 0.000003933053, 9.996057, 10.000762 
1.8491769e+2, 3.1326136e+2, -666868.3, -264967.97, -33105.254, 0.19298881, 0.22653183, -262259.28, -262259.28, 0.000032239117, 9.995139, 10.000524 
1.9511612e+2, 1.2330076e+2, -1347742.8, -1862721.1, 72407.734, 0.02203926, 0.20820275, -1337755.6, 393901.5, 0.00060699787, 10.003884, 9.997107 
1.9510557e+2, 1.3329658e+2, -1199237.4, -1679587.1, -6800.7573, 0.049290948, 0.021953618, -1199141.0, 434555.16, 0.0003377058, 10.003994, 9.997635 
1.9509497e+2, 1.4329454e+2, -1127071.3, -1688916.6, 32287.748, 0.005753972, 0.08886913, -1125221.9, 410494.9, 0.00013163647, 10.004217, 9.996791 
1.9508702e+2, 1.5329102e+2, -990244.94, -1613593.5, 40668.082, 0.06543015, 0.07363808, -987602.9, 450154.38, 0.000026707117, 10.004668, 9.996416 
1.9507772e+2, 1.6328865e+2, -794643.06, -1210957.9, -40917.047, 0.09158841, 0.10313731, -790659.7, 549122.25, 0.0000011234973, 10.0042305, 9.998718 
1.9506578e+2, 1.7328818e+2, -979594.7, -1208667.5, 2666.2078, 0.046548504, 0.1329583, -979563.7, 262216.13, 0.0, 10.00211, 9.999084 
1.9505508e+2, 1.8328623e+2, -1157653.8, -1451232.4, 126373.305, 0.02267537, 0.111909434, -1110749.1, 33045.477, 0.0, 10.001107, 9.997231 
1.9504678e+2, 1.9328171e+2, -921983.56, -1338115.0, 114919.61, 0.034810763, -0.039039783, -892356.5, 153483.92, 0.0, 10.002274, 9.996771 
1.9503765e+2, 2.032786e+2, -671077.25, -1008006.6, 35316.035, 0.024164759, -0.082038544, -667415.3, 280456.38, 0.0, 10.002644, 9.998184 
1.9502683e+2, 2.1327828e+2, -727169.06, -959854.25, 41073.355, -0.035473805, 0.031356037, -720131.7, 129743.27, 0.0, 10.00148, 9.998402 
1.9501626e+2, 2.232774e+2, -736987.4, -864822.44, 30526.639, -0.043688186, 0.08896882, -730071.8, 21810.775, 0.0, 10.000524, 9.998847 
1.9500622e+2, 2.3327552e+2, -715331.7, -802257.9, 36620.03, 0.03848999, -0.0011148519, -701961.1, -48062.547, 0.0, 9.999991, 9.998861 
1.9499572e+2, 2.4327375e+2, -721282.4, -835263.56, 59636.645, 0.05240486, -0.031794548, -695783.9, -139867.97, 0.0, 9.999634, 9.998128 
1.9498433e+2, 2.5327227e+2, -647269.7, -776353.2, 67457.65, -0.064429484, 0.014451525, -618451.0, -160516.19, 0.0, 9.999584, 9.997885 
1.9497238e+2, 2.6327074e+2, -496570.4, -543501.44, -26639.543, -0.14519419, 0.03395119, -484535.28, -124583.67, 0.0, 9.999482, 9.998858 
1.949592e+2, 2.7326873e+2, -428067.88, -446891.78, -55290.652, -0.17288418, -0.07717919, -381393.8, -119427.16, 0.0, 9.999217, 9.99898 
1.9494654e+2, 2.8326738e+2, -352880.44, -249174.33, 10818.684, -0.22769557, -0.14990208, -248057.73, -84081.06, 0.0, 9.998584, 9.9999695 
1.9493552e+2, 2.93268e+2, -442948.9, -220369.58, 35600.17, -0.28467005, -0.11293673, -214814.22, -148844.67, 0.000000013907536, 9.997197, 10.000164 
1.949258e+2, 3.0326942e+2, -429869.44, 28946.352, -109895.83, -0.05271085, -0.072695665, 53910.38, 53910.38, 0.0000021091166, 9.996021, 10.002111 
1.9491176e+2, 3.1327176e+2, -561611.25, -34805.477, -49437.703, 0.06936142, -0.0725462, -30206.186, -30206.186, 0.000021823846, 9.995093, 10.002124 
2.0512155e+2, 1.2331225e+2, -1008626.2, -1757877.3, 78651.54, 0.047470056, 0.15523963, -1000458.9, 731084.25, 0.0005398398, 10.006481, 9.996573 
2.0511027e+2, 1.333077e+2, -990863.44, -1663916.4, 19413.795, 0.031819277, 0.005079937, -990303.9, 643284.8, 0.00029627755, 10.005792, 9.9968815 
2.0509905e+2, 1.4330569e+2, -1038620.44, -1623024.0, 97406.25, -0.03293279, 0.111078076, -1022812.7, 512797.6, 0.00011230499, 10.004731, 9.996994 
2.0509063e+2, 1.5330265e+2, -1177418.6, -1659538.4, 146830.0, 0.03511229, 0.108133085, -1136221.8, 301423.06, 0.000021362854, 10.003188, 9.996815 
2.0508091e+2, 1.6330041e+2, -1039219.75, -1326178.4, 61283.895, 0.07604915, 0.1244779, -1026679.75, 312987.66, 0.00000067965186, 10.002542, 9.998738 
2.0506871e+2, 1.7329946e+2, -773106.8, -1115451.5, -27555.076, 0.05729386, 0.113399476, -770903.1, 470766.56, 0.0, 10.003557, 9.999026 
2.0505781e+2, 1.8329737e+2, -761402.8, -1245030.0, 63386.74, 0.052907586, 0.07363416, -753233.0, 390452.7, 0.0, 10.003766, 9.997363 
2.0504947e+2, 1.9329323e+2, -887254.3, -1304142.0, 128559.38, 0.06979675, -0.052217297, -850797.44, 194929.4, 0.0, 10.002435, 9.99693 
2.0504e+2, 2.032904e+2, -833721.5, -1064924.1, 84057.36, 0.058484737, -0.08503259, -806391.7, 141363.52, 0.0, 10.001434, 9.998377 
2.0502833e+2, 2.1329011e+2, -774131.1, -962209.5, 63114.336, -0.009441836, 0.013900687, -754914.94, 94843.6, 0.0, 10.001067, 9.998588 
2.0501691e+2, 2.2328942e+2, -717639.44, -868376.8, 49382.844, -0.039007403, 0.08295573, -702902.06, 48863.145, 0.0, 10.000719, 9.998724 
2.0500605e+2, 2.3328793e+2, -669520.7, -801995.3, 22492.738, 0.0032026304, 0.05188384, -665805.9, -12027.241, 0.0, 10.000405, 9.998662 
2.0499513e+2, 2.4328633e+2, -648591.44, -728898.9, 50169.28, 0.023367507, 0.024533452, -624485.7, -68692.09, 0.0, 9.999824, 9.998769 
2.0498419e+2, 2.5328472e+2, -706354.1, -714125.75, 110948.74, 0.0054408, -0.025651941, -599223.2, -141413.38, 0.0, 9.998789, 9.998697 
2.0497221e+2, 2.6328328e+2, -660283.9, -622671.75, 92918.19, -0.0518304, -0.039594267, -546675.6, -186852.19, 0.0, 9.998356, 9.998861 
2.0495811e+2, 2.73282e+2, -461339.0, -481701.84, 78520.97, -0.19299135, -0.06643761, -392342.13, -130507.19, 0.0, 9.999068, 9.998814 
2.0494469e+2, 2.8328088e+2, -308596.13, -216417.2, 101935.31, -0.28320292, -0.10771439, -150636.0, 13208.012, 0.0, 9.998844, 10.00007 
2.0493326e+2, 2.932811e+2, -489375.38, -225903.69, 120920.14, -0.20876794, -0.12477428, -178821.16, -112982.45, 0.0000000026409164, 9.996816, 10.000308 
2.0492263e+2, 3.0328244e+2, -469458.16, -8142.586, -1203.1089, 0.0436427, -0.09155736, -8139.448, -8139.448, 0.000001406237, 9.99583, 10.00195 
2.049065e+2, 3.1328335e+2, -307219.88, 95047.57, -72387.4, -0.046640247, -0.22038557, 107677.055, 107677.055, 0.000015573223, 9.996823, 10.002174 
2.1512955e+2, 1.23321675e+2, -1022962.1, -1782530.9, 43090.652, 0.18122414, -0.118413866, -1020525.44, 710918.94, 0.0004683899, 10.006457, 9.996419 
2.1511552e+2, 1.3331822e+2, -1014226.75, -1709065.3, -5368.7437, -0.029227907, -0.12521875, -1014185.25, 619297.06, 0.00025231487, 10.005779, 9.996579 
2.1510196e+2, 1.4331739e+2, -982038.25, -1505434.0, 42111.164, -0.22326188, 0.08192339, -978671.75, 556821.9, 0.00009201369, 10.004729, 9.997804 
2.1509254e+2, 1.5331557e+2, -1103409.3, -1505514.6, 92321.79, -0.10195277, 0.09748178, -1083225.6, 354287.53, 0.0000158798, 10.003188, 9.99787 
2.1508262e+2, 1.6331333e+2, -1128950.1, -1512532.0, 80004.56, -0.017664067, 0.10589465, -1112932.4, 226603.81, 0.00000031009594, 10.002539, 9.997463 
2.1507148e+2, 1.7331016e+2, -896516.4, -1367771.6, 15773.999, -0.027287094, 0.04301003, -895989.0, 345577.84, 0.0, 10.003542, 9.9973 
2.150608e+2, 1.8330736e+2, -712075.5, -1136769.5, 25878.744, -0.031400662, 0.0018320039, -710504.44, 433088.63, 0.0, 10.003738, 9.998122 
2.1505104e+2, 1.9330536e+2, -800029.25, -1118484.8, 82683.86, -0.02444263, -0.03244045, -779841.0, 265768.63, 0.0, 10.002417, 9.998213 
2.1504077e+2, 2.033037e+2, -824283.25, -1040753.56, 61784.566, -0.015940662, -0.030515797, -807890.25, 139734.23, 0.0, 10.001413, 9.998552 
2.1502954e+2, 2.133027e+2, -780661.0, -969015.44, 53350.277, -0.0040067625, 0.000006552287, -766599.56, 83036.055, 0.0, 10.001039, 9.998553 
2.1501778e+2, 2.2330154e+2, -755506.7, -941282.06, 34090.734, -0.03199816, 0.044582352, -749448.44, 2199.9634, 0.0, 10.000691, 9.998238 
2.1500508e+2, 2.3330006e+2, -714322.44, -886529.9, 15243.255, -0.14033763, 0.0697294, -712983.56, -59319.395, 0.0, 10.00037, 9.998096 
2.1499333e+2, 2.4329895e+2, -564588.0, -550658.1, 11683.676, -0.14598705, 0.07257145, -544020.94, 11652.862, 0.0, 9.999806, 10.000003 
2.1498348e+2, 2.5329867e+2, -598150.94, -479792.28, 74536.05, 0.048459165, 0.0015859517, -443799.06, 13870.876, 0.0, 9.998747, 10.000327 
2.1497253e+2, 2.6329836e+2, -643756.0, -581155.5, 107026.68, 0.13772067, -0.010617031, -500946.0, -141276.3, 0.0, 9.998326, 9.999158 
2.149592e+2, 2.732976e+2, -466481.4, -484491.78, 110176.0, 0.00072342297, 0.012134886, -364943.2, -103263.08, 0.0, 9.999036, 9.998808 
2.1494554e+2, 2.8329688e+2, -291244.38, -174970.03, 38118.727, -0.08857297, -0.0018154413, -163587.66, 99.873665, 0.0, 9.998821, 10.000366 
2.1493195e+2, 2.9329717e+2, -469981.78, -180920.84, 45112.1, -0.027470618, -0.0481445, -174044.06, -108364.75, 0.000000034055795, 9.996791, 10.000631 
2.1491942e+2, 3.032981e+2, -595441.56, -264561.5, 18014.771, 0.13574557, 0.00093530316, -263583.56, -263583.56, 0.0000015569075, 9.99581, 10.000199 
2.149017e+2, 3.1329623e+2, -430624.66, -155058.56, -12227.466, -0.22777015, -0.19801852, -154517.08, -154517.08, 0.000013189906, 9.996798, 10.00047 
2.2513454e+2, 1.23333976e+2, -1204669.0, -1812355.6, 32101.826, 0.11525152, -0.10452713, -1202977.9, 528348.25, 0.0003969175, 10.004953, 9.996939 
2.2512054e+2, 1.3333127e+2, -1187195.4, -1746493.1, 20775.424, -0.031599563, -0.08071463, -1186424.8, 446931.22, 0.00020875153, 10.004398, 9.996982 
2.2510651e+2, 1.4333068e+2, -1099505.9, -1533731.0, 74025.58, -0.19211385, 0.11497877, -1087233.1, 448130.84, 0.00007221627, 10.003799, 9.99806 
2.25096e+2, 1.5332817e+2, -1095783.9, -1478321.0, 58582.125, -0.069483444, 0.041069817, -1087013.6, 350374.4, 0.000010698434, 10.003137, 9.998087 
2.2508563e+2, 1.6332573e+2, -1083805.9, -1483857.5, 113721.03, 0.017890105, 0.014233031, -1053738.8, 285673.3, 0.000000092361944, 10.002819, 9.997525 
2.2507522e+2, 1.733232e+2, -963428.75, -1400376.5, 179806.66, 0.015655052, 0.01376204, -898951.6, 342486.28, 0.0, 10.003082, 9.997302 
2.2506441e+2, 1.8332097e+2, -827228.0, -1167010.9, 193044.75, 0.0022253026, 0.020597473, -739963.06, 403496.7, 0.0, 10.002839, 9.998345 
2.2505291e+2, 1.9331944e+2, -904590.3, -1139252.5, 158818.23, -0.035533383, 0.006636745, -824463.0, 221009.48, 0.0, 10.001576, 9.998471 
2.2504157e+2, 2.03318e+2, -908310.75, -1090098.6, 134165.8, -0.048481166, 0.018187204, -837148.6, 110337.13, 0.0, 10.000876, 9.998474 
2.2503057e+2, 2.1331666e+2, -759514.94, -973941.4, 119629.945, -0.0115621295, 0.029428935, -706085.7, 143414.61, 0.0, 10.001252, 9.998416 
2.2501883e+2, 2.2331527e+2, -666222.0, -875633.75, 104289.99, -0.019934615, 0.04896408, -623145.2, 128369.625, 0.0, 10.001208, 9.99844 
2.2500561e+2, 2.3331366e+2, -703265.4, -852817.5, 136013.3, -0.11788409, 0.036928877, -622828.44, 30701.375, 0.0, 10.000321, 9.998353 
2.2499317e+2, 2.4331246e+2, -575096.5, -561305.7, 139801.19, -0.1385449, 0.019530898, -428229.94, 127309.11, 0.0, 9.999757, 9.999953 
2.2498219e+2, 2.5331217e+2, -444017.06, -418330.16, 68199.71, -0.0064442526, -0.04173902, -361775.1, 95760.98, 0.0, 9.999858, 10.000214 
2.2497085e+2, 2.633122e+2, -468464.97, -435652.13, 35648.418, 0.09333764, -0.03927116, -412815.97, -53282.688, 0.0, 9.999267, 9.999703 
2.2495851e+2, 2.7331245e+2, -655744.8, -499009.5, 81934.766, 0.11269589, 0.015599288, -463998.16, -202464.38, 0.0, 9.997407, 9.999493 
2.2494482e+2, 2.833123e+2, -590058.1, -306651.9, 48181.996, 0.06561784, 0.016945643, -298684.47, -135149.3, 0.00000000075483947, 9.996709, 10.000482 
2.2492918e+2, 2.9331234e+2, -290124.16, -101332.29, 19636.533, -0.041808672, -0.05414729, -99311.49, -33781.973, 0.0000002669958, 9.998051, 10.000572 
2.2491582e+2, 3.0331284e+2, -295423.1, -225149.98, 12632.853, 0.07401959, -0.0022361407, -222948.0, -222948.0, 0.0000027230408, 9.998311, 9.999265 
2.2489975e+2, 3.1331033e+2, -468401.94, -234371.73, 68930.04, -0.09832942, -0.16584328, -215578.58, -215578.58, 0.000014136897, 9.996781, 9.999942 
2.3513643e+2, 1.2334907e+2, -1129102.8, -1652096.1, 3809.2563, -0.21006435, 0.1798784, -1129075.0, 602113.8, 0.000330381, 10.004944, 9.998044 
2.3512527e+2, 1.3334668e+2, -1113532.1, -1595566.9, -641.4077, -0.0065971604, 0.13213699, -1113531.3, 519679.75, 0.00016829677, 10.004405, 9.998016 
2.3511249e+2, 1.4334537e+2, -1118274.0, -1570283.4, 45285.832, 0.019248562, 0.20767266, -1113781.6, 421441.06, 0.000054111682, 10.003789, 9.997815 
2.3510079e+2, 1.5334047e+2, -1127692.3, -1549613.3, 37032.56, 0.083432324, -0.057633236, -1124466.5, 312802.6, 0.0000063974335, 10.003158, 9.997587 
2.3508973e+2, 1.6333762e+2, -991833.6, -1292121.3, 115229.53, 0.13799931, -0.15023501, -952713.06, 386582.0, 0.000000013163342, 10.002815, 9.998844 
2.3507972e+2, 1.7333847e+2, -843315.75, -1149514.4, 193452.22, 0.15154503, 0.02054894, -749710.44, 491573.72, 0.0, 10.003074, 9.999028 
2.3506847e+2, 1.8333809e+2, -857026.06, -1219500.8, 151033.75, 0.11755489, 0.12506044, -802343.56, 340943.72, 0.0, 10.0028, 9.998005 
2.350549e+2, 1.933354e+2, -956962.94, -1247403.6, 112358.95, -0.0019427085, 0.06769572, -918571.0, 126745.266, 0.0, 10.001574, 9.997732 
2.3504221e+2, 2.0333318e+2, -932294.2, -1134903.1, 135166.16, -0.07727501, 0.058664273, -864683.0, 82656.85, 0.0, 10.000855, 9.998177 
2.3503132e+2, 2.1333197e+2, -780376.8, -1007013.3, 138832.84, -0.069810934, 0.102153644, -714486.9, 134865.7, 0.0, 10.001207, 9.99821 
2.3501994e+2, 2.2333056e+2, -613278.5, -754152.8, 76171.63, -0.035588533, 0.09666816, -579968.3, 171396.1, 0.0, 10.001162, 9.999296 
2.3500757e+2, 2.333287e+2, -632472.7, -697691.3, 105553.22, 0.038713392, -0.04413251, -554606.44, 98768.96, 0.0, 10.000289, 9.9994335 
2.3499449e+2, 2.4332684e+2, -672991.06, -759638.25, 134370.39, 0.009077492, -0.13468926, -575132.75, -19742.908, 0.0, 9.999736, 9.998601 
2.3498021e+2, 2.5332516e+2, -580026.25, -691325.3, 74820.41, -0.19850245, -0.15785283, -542429.0, -85019.95, 0.0, 9.999819, 9.998357 
2.3496708e+2, 2.633247e+2, -414591.72, -316786.22, -26080.875, -0.2150883, -0.12581958, -310266.13, 49148.508, 0.0, 9.99924, 10.000532 
2.3495589e+2, 2.7332637e+2, -565189.9, -298255.2, 15136.976, 0.10315096, -0.06086525, -297399.56, -36003.04, 0.0, 9.997355, 10.000895 
2.3494233e+2, 2.8332713e+2, -602037.44, -324033.22, 78312.89, 0.14040126, -0.050530598, -303490.7, -140103.58, 0.00000003119879, 9.996675, 10.0003805 
2.3492478e+2, 2.9332656e+2, -323792.13, -166653.36, 74336.28, -0.29730585, -0.14167406, -137060.67, -71670.945, 0.00000087505157, 9.998029, 10.000135 
2.3491172e+2, 3.0332664e+2, -297861.75, -229702.39, -32255.2, -0.17420822, -0.10083937, -216858.48, -216858.48, 0.0000050395365, 9.998311, 9.999234 
2.3490044e+2, 3.1332567e+2, -426843.16, -129825.53, 32208.23, 0.2800272, -0.12238761, -126373.04, -126373.04, 0.00001767749, 9.996709, 10.000692 
2.4514046e+2, 1.23363316e+2, -1274698.4, -1685902.3, 133872.89, -0.23746036, 0.19608101, -1234955.4, 496092.6, 0.00027182553, 10.003789, 9.998371 
2.4512973e+2, 1.3336071e+2, -1187421.9, -1607849.4, 62378.28, 0.03320664, 0.10645094, -1178362.1, 454710.1, 0.00013254705, 10.003795, 9.998232 
2.4511677e+2, 1.4335947e+2, -1102529.0, -1541837.8, 94119.91, 0.07120773, 0.16768259, -1083213.5, 451870.0, 0.000038459784, 10.003811, 9.997997 
2.4510422e+2, 1.533557e+2, -1005051.06, -1471739.1, 126612.33, 0.07589808, -0.0011945633, -972914.2, 464205.25, 0.000003303544, 10.003929, 9.997748 
2.4509251e+2, 1.6335335e+2, -874651.7, -1212512.3, 194113.2, 0.10077971, -0.06185716, -786254.6, 552886.06, 0.00000000018007511, 10.003522, 9.999049 
2.4508229e+2, 1.733536e+2, -976527.94, -1190626.0, 155762.42, 0.15421751, 0.026554065, -894575.8, 346559.34, 0.0, 10.00206, 9.999233 
2.4507082e+2, 1.8335302e+2, -1073390.1, -1315441.5, 75502.01, 0.1514879, 0.09836799, -1051770.3, 91369.73, 0.0, 10.001279, 9.998079 
2.4505703e+2, 1.9335094e+2, -929096.06, -1228889.9, 88726.72, 0.048476048, 0.0947855, -904804.8, 140359.47, 0.0, 10.001743, 9.997777 
2.4504392e+2, 2.0334892e+2, -813356.44, -1057326.4, 160434.33, -0.027246598, 0.095771715, -733798.6, 213387.38, 0.0, 10.001585, 9.998359 
2.4503224e+2, 2.1334718e+2, -922834.9, -1053444.0, 186314.33, -0.04165188, 0.06826716, -790711.7, 58489.89, 0.0, 10.000136, 9.99841 
2.4502037e+2, 2.2334562e+2, -844283.0, -835845.0, 144163.45, -0.019972434, 0.026712017, -695838.8, 55374.82, 0.0, 9.999446, 9.999563 
2.45008e+2, 2.333444e+2, -630025.7, -663503.56, 113496.375, 0.06255713, -0.08104183, -532040.5, 121178.8, 0.0, 10.000166, 9.999727 
2.4499471e+2, 2.4334298e+2, -624339.2, -744043.3, 135773.97, 0.043041013, -0.14156286, -535810.5, 19419.791, 0.0, 10.000107, 9.99853 
2.4497983e+2, 2.533413e+2, -760855.4, -794532.8, 192869.47, -0.15750721, -0.15108837, -584091.0, -126840.19, 0.0, 9.998647, 9.998216 
2.4496591e+2, 2.633407e+2, -592826.7, -414012.0, 151071.34, -0.19476344, -0.12055616, -327873.84, 31384.674, 0.0, 9.998057, 10.000438 
2.4495366e+2, 2.7334213e+2, -319967.16, -190557.53, 80499.39, 0.060887896, -0.06826769, -151981.83, 109260.87, 0.0, 9.999079, 10.000808 
2.4493974e+2, 2.8334284e+2, -249986.8, -166726.48, 93854.95, 0.09526846, -0.052791487, -105683.26, 57551.152, 0.00000009380251, 9.999151, 10.000264 
2.4492307e+2, 2.9334226e+2, -421242.75, -227495.13, 100101.5, -0.2393224, -0.13727894, -185067.66, -119828.336, 0.0000015673739, 9.997424, 10.000008 
2.4490975e+2, 3.0334222e+2, -558201.44, -278633.3, 17317.557, -0.09483013, -0.12568884, -277564.7, -277564.7, 0.000007492646, 9.996199, 9.999918 
2.4489658e+2, 3.1334347e+2, -419827.88, 14100.315, 134877.02, 0.254677, -0.008780171, 52606.824, 52606.824, 0.000021673697, 9.996163, 10.00194 
2.5514632e+2, 1.2337685e+2, -1298051.3, -1742353.6, 115168.336, -0.05025485, -0.034144785, -1269972.8, 460930.47, 0.00022232093, 10.003816, 9.997974 
2.551338e+2, 1.3337344e+2, -1224070.1, -1684002.4, 62867.953, 0.054318294, -0.15152209, -1215631.6, 417307.88, 0.000102322854, 10.003793, 9.997712 
2.5511938e+2, 1.4337298e+2, -1068895.4, -1464857.8, 94422.414, -0.05918268, -0.0028762468, -1047531.8, 487414.7, 0.00002586704, 10.003779, 9.998542 
2.5510618e+2, 1.5337372e+2, -951143.6, -1356771.1, 134369.11, -0.13064222, 0.2012154, -910670.56, 526270.0, 0.0000014046367, 10.003916, 9.998543 
2.5509384e+2, 1.6337276e+2, -940752.0, -1344651.9, 144742.5, -0.12712164, 0.26940626, -894238.3, 444712.2, 0.0, 10.003499, 9.998155 
2.5508282e+2, 1.7336859e+2, -1060447.5, -1366586.4, 102835.79, -0.008356792, 0.036924854, -1029111.25, 211879.13, 0.0, 10.002068, 9.998021 
2.5507137e+2, 1.8336591e+2, -1039433.25, -1244561.1, 79807.07, 0.07227493, -0.05281128, -1012041.3, 130975.305, 0.0, 10.001276, 9.9985695 
2.5505918e+2, 1.9336604e+2, -871795.7, -1106912.5, 111423.44, 0.07861851, 0.085505806, -827381.4, 217635.31, 0.0, 10.00173, 9.998621 
2.5504655e+2, 2.0336512e+2, -776907.1, -972651.2, 115089.016, 0.07118213, 0.12113643, -723701.6, 223323.28, 0.0, 10.001545, 9.9989605 
2.5503322e+2, 2.1336222e+2, -886198.8, -973377.06, 134379.92, 0.034151495, -0.079367444, -788515.25, 60533.215, 0.0, 10.000116, 9.998971 
2.5501996e+2, 2.2336042e+2, -868422.8, -880020.56, 154846.86, -0.011923773, -0.16514806, -719266.25, 31797.123, 0.0, 9.999421, 9.999271 
2.5500682e+2, 2.3336072e+2, -667954.8, -733578.3, 144694.25, -0.0777855, -0.07401433, -552398.7, 100663.27, 0.0, 10.000128, 9.999266 
2.5499377e+2, 2.4336088e+2, -542648.25, -567405.25, 90937.35, -0.0696452, -0.0022007283, -463250.78, 91809.96, 0.0, 10.000078, 9.999756 
2.5498095e+2, 2.5336057e+2, -656428.7, -569167.5, 139531.27, 0.08210075, -0.024229521, -466604.38, -9542.901, 0.0, 9.998609, 9.999781 
2.549672e+2, 2.6336017e+2, -669938.94, -566965.1, 173393.5, 0.12492167, -0.022094956, -437575.8, -78510.77, 0.0, 9.998029, 9.999403 
2.5495172e+2, 2.7335975e+2, -434904.0, -420617.03, 125183.32, -0.051797226, -0.0056740865, -302373.53, -41301.086, 0.0, 9.999039, 9.999249 
2.5493693e+2, 2.8335947e+2, -264190.2, -190264.92, 41019.16, -0.10967224, 0.011039969, -172011.55, -8934.341, 0.00000013915765, 9.99913, 10.000111 
2.54924e+2, 2.9335928e+2, -420148.75, -210390.75, 33961.125, 0.105347596, -0.042475224, -205029.27, -139950.11, 0.0000020008988, 9.997361, 10.000155 
2.5490978e+2, 3.033595e+2, -466933.75, -75666.53, 2798.5994, 0.28473818, -0.0761637, -75646.516, -75646.516, 0.000009108913, 9.996143, 10.001337 
2.5488773e+2, 3.1336367e+2, -307917.6, 259251.22, 158659.03, -0.2641253, 0.17062739, 300617.28, 300617.28, 0.000024996654, 9.996109, 10.003652 
2.6515043e+2, 1.2339156e+2, -1270786.1, -1735443.6, 53121.89, -0.026655372, -0.09647958, -1264790.4, 465963.13, 0.00018274266, 10.004034, 9.997907 
2.651374e+2, 1.33388e+2, -1425149.4, -1806237.1, 16427.219, 0.102364734, -0.21164009, -1424442.6, 208350.13, 0.00007863555, 10.002517, 9.997486 
2.6512238e+2, 1.4338724e+2, -1353254.6, -1558053.8, 98586.51, -0.025529519, -0.09644226, -1313510.0, 221292.69, 0.000016698672, 10.001639, 9.998933 
2.651092e+2, 1.5338849e+2, -1189017.3, -1415243.4, 118324.23, -0.12075189, 0.10994572, -1138438.0, 298351.5, 0.00000046303515, 10.00204, 9.999046 
2.6509652e+2, 1.6338784e+2, -1141223.3, -1460953.4, 108067.586, -0.13944368, 0.18788682, -1108123.5, 230672.6, 0.0, 10.002207, 9.997981 
2.650844e+2, 1.7338362e+2, -1111765.9, -1425241.6, 118614.1, -0.046790153, -0.020162906, -1071943.1, 168896.39, 0.0, 10.001863, 9.997719 
2.650723e+2, 1.8338096e+2, -982342.56, -1191796.0, 163487.05, 0.024151742, -0.09920368, -892915.5, 249951.98, 0.0, 10.00156, 9.998794 
2.6506045e+2, 1.9338132e+2, -913185.8, -1092501.8, 158321.27, 0.060595766, 0.030860957, -820898.25, 223967.31, 0.0, 10.001296, 9.99893 
2.6504788e+2, 2.033808e+2, -838398.8, -943911.2, 106559.94, 0.08538895, 0.067352146, -772250.7, 174618.58, 0.0, 10.000881, 9.999473 
2.6503384e+2, 2.1337861e+2, -839211.5, -890434.9, 111112.39, 0.08599583, -0.11630671, -750797.2, 98087.055, 0.0, 10.000184, 9.999504 
2.6501995e+2, 2.2337733e+2, -856898.4, -910066.3, 177638.11, 0.035250325, -0.16726074, -703866.06, 47029.023, 0.0, 9.999652, 9.998954 
2.650063e+2, 2.3337796e+2, -803993.3, -853840.06, 165409.36, -0.10228752, 0.0022931779, -661640.2, -8743.618, 0.0, 9.999428, 9.998777 
2.6499298e+2, 2.4337842e+2, -629347.2, -530243.9, 62418.215, -0.10647862, 0.10423963, -500099.88, 54794.668, 0.0, 9.999145, 10.00046 
2.6498023e+2, 2.5337845e+2, -567685.6, -417665.53, 54443.992, 0.14466518, 0.022622699, -399989.78, 56897.375, 0.0, 9.99876, 10.000742 
2.6496628e+2, 2.6337808e+2, -595420.4, -538534.9, 147054.72, 0.20276561, -0.025246156, -417197.5, -58310.156, 0.0, 9.998575, 9.9993305 
2.6495004e+2, 2.7337733e+2, -493638.9, -476471.94, 198179.05, -0.10457471, -0.018369764, -286690.6, -25791.992, 0.0, 9.998764, 9.998993 
2.6493514e+2, 2.8337708e+2, -346162.44, -244950.95, 117265.42, -0.17300498, 0.022948071, -167837.78, -4933.8296, 0.00000017298198, 9.998626, 9.999981 
2.64923e+2, 2.933774e+2, -366811.88, -188785.36, 74969.83, 0.25507185, 0.029243367, -161420.64, -96518.08, 0.0000022405377, 9.997744, 10.000118 
2.649079e+2, 3.03377e+2, -315292.94, 31330.19, 46479.37, 0.44334, -0.07805349, 37454.492, 37454.492, 0.00001010162, 9.997022, 10.001654 
2.6488274e+2, 3.13381e+2, -213028.22, 328235.0, 117888.45, -0.39424774, 0.11204514, 352796.8, 352796.8, 0.00002797797, 9.996647, 10.003867 
2.751527e+2, 1.2340728e+2, -1262858.0, -1707633.6, -17379.137, -0.22525473, -0.0060313903, -1262180.0, 468420.38, 0.00015401121, 10.0039835, 9.998121 
2.7514032e+2, 1.3340427e+2, -1414788.0, -1786452.4, -42750.465, 0.13455938, -0.08050325, -1409934.0, 222698.67, 0.00006218876, 10.002528, 9.997613 
2.7512565e+2, 1.4340222e+2, -1334356.6, -1525164.4, 97540.16, 0.13037919, -0.10944827, -1293320.1, 241331.83, 0.000011000163, 10.001661, 9.999151 
2.7511322e+2, 1.5340014e+2, -1169252.6, -1376940.8, 137006.02, 0.065750904, -0.26093027, -1101183.3, 335481.88, 0.00000012675623, 10.002052, 9.999304 
2.7510047e+2, 1.6339879e+2, -1105196.5, -1385116.6, 95542.414, 0.023611527, -0.28937387, -1075695.1, 262980.63, 0.0, 10.002201, 9.998504 
2.7508673e+2, 1.7339867e+2, -1073793.1, -1342009.4, 107855.73, -0.006443268, -0.14652249, -1035802.9, 204879.95, 0.0, 10.001845, 9.998297 
2.750734e+2, 1.8339808e+2, -993512.44, -1205963.4, 149772.11, -0.03039132, -0.047398373, -916120.0, 226573.97, 0.0, 10.001521, 9.998714 
2.750608e+2, 1.933968e+2, -930354.3, -1120493.6, 151462.31, -0.043572035, -0.06433426, -846597.0, 198113.7, 0.0, 10.001267, 9.998749 
2.750478e+2, 2.0339611e+2, -812974.8, -885924.3, 79640.586, -0.015161822, -0.05163476, -761853.7, 184864.16, 0.0, 10.000855, 9.999886 
2.7503404e+2, 2.1339636e+2, -805951.7, -813899.06, 88803.9, 0.07761715, -0.04350639, -721032.6, 127676.46, 0.0, 10.00015, 10.000046 
2.7502024e+2, 2.2339635e+2, -889623.0, -969492.94, 163838.66, 0.09069817, 0.0163093, -760922.5, -10213.318, 0.0, 9.999615, 9.998565 
2.750064e+2, 2.3339596e+2, -847608.56, -936990.25, 160717.52, -0.043894373, 0.13919024, -725483.94, -72759.445, 0.0, 9.999394, 9.998223 
2.7499226e+2, 2.433955e+2, -618005.8, -500775.1, 45598.535, -0.10160351, 0.17234147, -485127.47, 69605.18, 0.0, 9.999121, 10.000671 
2.749775e+2, 2.533948e+2, -549246.2, -371917.0, 42092.297, -0.010174352, -0.01856119, -362432.88, 94295.97, 0.0, 9.998723, 10.001076 
2.7496293e+2, 2.6339436e+2, -536774.8, -406434.75, 147644.98, 0.0037049616, -0.13204116, -310216.53, 48509.504, 0.0, 9.998536, 10.000255 
2.7494854e+2, 2.733947e+2, -425342.88, -327983.0, 210243.73, -0.13786967, -0.11581518, -160857.08, 99865.37, 0.00000000009324417, 9.998734, 10.000027 
2.7493423e+2, 2.8339553e+2, -353760.44, -255790.56, 89020.02, -0.13367346, -0.026177915, -203167.98, -40452.34, 0.00000023612336, 9.998605, 9.999914 
2.749199e+2, 2.9339647e+2, -389722.66, -230875.36, 46016.316, 0.15761931, 0.06995772, -218507.84, -153797.75, 0.0000024950837, 9.997711, 9.999847 
2.7490383e+2, 3.0339468e+2, -373281.38, -75993.54, 25757.79, 0.32937104, -0.13549617, -73778.32, -73778.32, 0.000010927285, 9.996981, 10.000927 
2.7488157e+2, 3.1339514e+2, -322035.44, 123319.76, 120931.04, -0.1993836, -0.20773517, 154038.36, 154038.36, 0.000030095847, 9.996558, 10.002498 
2.8515604e+2, 1.234219e+2, -1540534.6, -1799337.5, -31404.137, -0.17809048, -0.011590169, -1536778.4, 193680.48, 0.00013396669, 10.001895, 9.998497 
2.8514236e+2, 1.3342002e+2, -1353262.5, -1717041.3, -48156.645, 0.07787862, -0.010596659, -1346995.6, 285483.28, 0.00005158786, 10.002779, 9.997968 
2.851271e+2, 1.4341788e+2, -1139266.6, -1435331.0, 102051.0, 0.043892805, -0.06874138, -1107499.1, 426998.7, 0.000007917708, 10.00302, 9.999111 
2.8511578e+2, 1.5341458e+2, -1163109.8, -1387374.0, 108636.43, 0.11502994, -0.33003643, -1119115.4, 317406.3, 0.000000046223818, 10.002145, 9.999191 
2.851032e+2, 1.6341294e+2, -1214812.4, -1399086.8, 41131.8, 0.12681706, -0.3945002, -1206048.1, 132486.5, 0.0, 10.001292, 9.998843 
2.8508794e+2, 1.734142e+2, -1235066.3, -1375061.9, 31248.496, -0.0011287746, -0.15331428, -1228407.9, 12121.674, 0.0, 10.0005455, 9.998698 
2.8507364e+2, 1.8341455e+2, -1203673.9, -1277961.9, 91521.62, -0.073177606, 0.004284512, -1142046.0, 486.32214, 0.0, 9.999956, 9.998972 
2.8506124e+2, 1.9341329e+2, -1156817.0, -1206073.4, 116537.16, -0.040207174, -0.031907413, -1062334.0, -17785.53, 0.0, 9.999607, 9.998963 
2.8504813e+2, 2.0341258e+2, -983900.8, -954733.44, 65973.41, -0.0056314906, -0.03941563, -901751.06, 44804.836, 0.0, 9.999618, 10.00001 
2.8503364e+2, 2.1341287e+2, -786854.7, -791908.0, 37262.777, 0.02099726, -0.03866461, -752033.0, 96514.51, 0.0, 10.000228, 10.000159 
2.8501958e+2, 2.2341295e+2, -772258.44, -868693.44, 105496.805, 0.035154156, 0.0075302194, -704482.4, 46064.15, 0.0, 10.000233, 9.998958 
2.8500634e+2, 2.334127e+2, -854884.0, -889318.75, 167090.88, 0.029068481, 0.100872256, -704125.75, -51567.33, 0.0, 9.9991255, 9.998679 
2.8499222e+2, 2.4341229e+2, -711845.8, -579836.7, 112732.25, 0.010492684, 0.12528105, -515207.53, 39358.43, 0.0, 9.998619, 10.000374 
2.8497636e+2, 2.534115e+2, -498426.75, -396165.84, 49108.137, -0.023064801, -0.028266193, -376402.5, 80163.38, 0.0, 9.999283, 10.000641 
2.849613e+2, 2.6341105e+2, -399321.84, -289966.84, 88240.72, -0.04661547, -0.13951279, -240836.56, 117727.695, 0.0, 9.999257, 10.00071 
2.8494778e+2, 2.734115e+2, -505992.38, -293268.03, 106901.89, -0.043021526, -0.17599706, -248829.25, 11727.32, 0.0000000018932573, 9.997864, 10.000685 
2.8493345e+2, 2.8341252e+2, -557936.5, -375029.5, -7249.1274, -0.004357643, -0.09773445, -374742.66, -212196.64, 0.00000028816427, 9.997293, 9.999731 
2.849174e+2, 2.9341394e+2, -321154.88, -227346.92, -54942.86, 0.11514423, 0.07886263, -202010.33, -137473.77, 0.0000027347362, 9.99832, 9.999577 
2.8490075e+2, 3.0341166e+2, -123503.72, -14401.138, -79204.54, 0.23318811, -0.14178348, 27220.344, 27220.344, 0.000011893844, 9.998937, 10.000414 
2.84881e+2, 3.1341013e+2, -143437.17, 87198.65, 24267.947, 0.007061767, -0.35112476, 89724.51, 89724.51, 0.000031796684, 9.998317, 10.001402 
2.9516008e+2, 1.2343573e+2, -1509353.8, -1739678.8, -23913.03, 0.015661845, -0.0951064, -1506897.3, 223428.94, 0.00011753868, 10.001913, 9.998902 
2.9514346e+2, 1.334353e+2, -1315390.8, -1640454.9, -12823.532, -0.09919663, -0.00095343014, -1314885.6, 317445.0, 0.000043879696, 10.002788, 9.99849 
2.9512668e+2, 1.4343408e+2, -1162275.5, -1480526.6, 73780.086, -0.31018803, 0.016664533, -1146003.1, 388337.75, 0.000006249525, 10.003007, 9.99881 
2.9511675e+2, 1.5343171e+2, -1200529.3, -1456382.3, 77953.21, -0.008799221, -0.10695045, -1178649.6, 257709.89, 0.000000022963759, 10.00211, 9.998733 
2.9510465e+2, 1.634302e+2, -1209696.8, -1383935.8, 9951.739, 0.13447799, -0.1369873, -1209130.3, 129243.29, 0.0, 10.00127, 9.998958 
2.9508796e+2, 1.7343022e+2, -1216815.6, -1339399.1, 8104.325, -0.06448623, -0.043182828, -1216282.3, 24097.152, 0.0, 10.000557, 9.998936 
2.9507306e+2, 1.8343036e+2, -1163987.8, -1195939.9, 73177.53, -0.13848497, 0.05535703, -1105062.6, 37319.477, 0.0, 9.999956, 9.999536 
2.9506165e+2, 1.9343068e+2, -1115102.0, -1118519.4, 107333.445, 0.03206449, 0.11683715, -1009463.6, 34916.066, 0.0, 9.999602, 9.999567 
2.9504862e+2, 2.034301e+2, -1001947.4, -985085.2, 81591.95, 0.074743286, 0.09601625, -911489.9, 34894.426, 0.0, 9.999589, 9.999814 
2.9503247e+2, 2.1342799e+2, -817320.5, -844342.06, 65239.137, -0.124210425, -0.109165564, -764207.8, 84192.85, 0.0, 10.000182, 9.999821 
2.9501784e+2, 2.2342704e+2, -696817.6, -699281.5, 69534.36, -0.16618322, -0.19695802, -628504.3, 121903.55, 0.0, 10.000179, 10.000146 
2.950061e+2, 2.334282e+2, -759473.94, -680103.9, 128080.4, 0.0840144, -0.108473934, -585701.25, 66696.945, 0.0, 9.999078, 10.000138 
2.9499277e+2, 2.4342883e+2, -772062.6, -700342.3, 124457.68, 0.19816737, -0.030048357, -606681.56, -52287.668, 0.0, 9.998597, 9.9995575 
2.949766e+2, 2.5342843e+2, -588711.25, -580728.2, 79198.09, 0.06542133, -0.022239754, -505421.13, -49021.258, 0.0, 9.999267, 9.999385 
2.9496127e+2, 2.6342794e+2, -402736.56, -292835.38, 44365.98, 0.016759934, -0.061570466, -277160.84, 81243.11, 0.0, 9.999239, 10.000698 
2.9494748e+2, 2.734275e+2, -496850.5, -265859.72, 55141.516, 0.13164599, -0.20723616, -253371.63, 7030.91, 0.0000000016821552, 9.997823, 10.000895 
2.9493257e+2, 2.8342795e+2, -582941.2, -417491.75, 11891.113, 0.17558311, -0.18791746, -416641.47, -254245.56, 0.00000022409213, 9.997256, 9.999457 
2.9491547e+2, 2.9342955e+2, -348497.66, -279161.78, -7630.893, 0.07761138, 0.044870816, -278331.9, -213948.03, 0.0000026529046, 9.998295, 9.999235 
2.948986e+2, 3.0342773e+2, -143720.45, -52032.426, -94126.75, 0.11297564, -0.102807626, 6820.8354, 6820.8354, 0.000012290724, 9.998921, 10.000161 
2.9488066e+2, 3.1342563e+2, -203481.84, -33960.9, 12318.318, 0.1167426, -0.34005472, -33070.46, -33070.46, 0.000033071607, 9.9983, 10.000576 
3.051626e+2, 1.2345109e+2, -1507637.4, -1704774.5, 53193.305, 0.086313345, -0.10460094, -1494200.1, 235976.16, 0.00010203088, 10.001782, 9.9992075 
3.0514646e+2, 1.3345079e+2, -1351893.8, -1614255.3, 60564.746, -0.050668616, -0.032879543, -1338587.5, 293589.94, 0.000037393846, 10.00234, 9.998892 
3.0512935e+2, 1.434498e+2, -1274450.0, -1540784.1, 101788.586, -0.30072325, -0.016547922, -1240003.3, 294182.56, 0.000005305537, 10.002272, 9.998747 
3.0511808e+2, 1.5344839e+2, -1359007.0, -1552994.9, 104767.125, -0.034070116, -0.026384983, -1313228.5, 122969.83, 0.000000032202816, 10.00111, 9.998551 
3.0510527e+2, 1.6344717e+2, -1302629.4, -1417701.1, 87016.16, 0.106871545, -0.0217131, -1255847.5, 82363.44, 0.0, 10.000581, 9.999058 
3.0508903e+2, 1.734463e+2, -1110027.1, -1267253.9, 81137.164, -0.040239498, -0.032070525, -1075665.8, 164557.58, 0.0, 10.001203, 9.999118 
3.0507413e+2, 1.8344602e+2, -920513.56, -1033352.6, 132523.38, -0.09674586, -0.004251484, -832899.75, 309328.1, 0.0, 10.001434, 9.999941 
3.0506188e+2, 1.9344673e+2, -888069.2, -957286.3, 145424.58, 0.029893257, 0.05235054, -773191.75, 271026.7, 0.0, 10.00094, 10.000029 
3.050483e+2, 2.0344643e+2, -914756.7, -965616.8, 128208.82, 0.050861865, 0.04161492, -809480.25, 136739.64, 0.0, 10.000286, 9.999614 
3.050322e+2, 2.1344438e+2, -961572.2, -951411.5, 108282.49, -0.12560119, -0.12502117, -848090.25, 149.88768, 0.0, 9.999348, 9.999492 
3.0501732e+2, 2.2344355e+2, -848748.44, -716541.0, 94066.36, -0.16832271, -0.20194481, -667674.4, 82573.04, 0.0, 9.998895, 10.000647 
3.050048e+2, 2.3344497e+2, -680207.1, -566867.56, 82376.516, 0.03906959, -0.15293331, -523550.56, 128680.48, 0.0, 9.999305, 10.000804 
3.0499125e+2, 2.4344586e+2, -671339.7, -663504.9, 86479.734, 0.15015517, -0.08381839, -580853.9, -26631.094, 0.0, 9.999342, 9.99945 
3.0497572e+2, 2.5344577e+2, -684241.1, -651841.44, 113072.36, 0.08097392, -0.022250045, -553814.4, -97585.27, 0.0, 9.998724, 9.999155 
3.049607e+2, 2.6344553e+2, -504641.9, -389113.5, 112257.74, 0.06511509, -0.0061135213, -320629.9, 37603.926, 0.0, 9.998744, 10.0002775 
3.0494666e+2, 2.7344507e+2, -219730.02, -184441.6, 66004.0, 0.1652076, -0.1074211, -133764.17, 126470.74, 0.00000000014964384, 9.999952, 10.000428 
3.049317e+2, 2.8344503e+2, -119952.49, -174306.67, 19502.646, 0.20996505, -0.11617068, -113678.91, 48554.215, 0.00000013461268, 10.00035, 9.999633 
3.0491486e+2, 2.934457e+2, -186098.22, -168977.56, 42904.19, 0.1432769, -0.007397958, -133788.05, -69560.97, 0.0000024042524, 9.999278, 9.999514 
3.0489773e+2, 3.034446e+2, -174316.77, -107562.75, -15477.726, 0.1417366, -0.08694641, -104148.664, -104148.664, 0.000011913728, 9.998883, 9.9998 
3.0487937e+2, 3.1344387e+2, -105133.92, -74047.44, 62110.03, 0.11396926, -0.12973617, -25565.305, -25565.305, 0.0000326923, 9.999337, 9.999811 
3.1516343e+2, 1.23467855e+2, -1488059.0, -1668196.5, 46932.47, -0.028367242, -0.046475925, -1476564.8, 253445.8, 0.00008939399, 10.001803, 9.999448 
3.1515115e+2, 1.3346669e+2, -1330504.9, -1566470.1, 83087.88, 0.17657669, -0.09416971, -1304184.0, 327834.13, 0.000032789787, 10.002331, 9.999223 
3.1513485e+2, 1.4346518e+2, -1271534.6, -1530998.8, 61392.105, 0.012482332, -0.15041043, -1257741.8, 276289.5, 0.000005063762, 10.002252, 9.998825 
3.1511956e+2, 1.5346462e+2, -1355465.9, -1547619.8, 61905.25, -0.0055788457, -0.08283648, -1337249.1, 98789.18, 0.00000006594377, 10.001117, 9.998585 
3.15105e+2, 1.6346376e+2, -1293625.4, -1400881.0, 94830.9, 0.012307632, -0.04722072, -1238309.0, 99739.055, 0.0, 10.0005865, 9.999172 
3.1509104e+2, 1.7346242e+2, -1103305.6, -1250390.8, 106961.05, 0.033196308, -0.11706748, -1047043.8, 193018.08, 0.0, 10.001192, 9.999239 
3.1507668e+2, 1.8346152e+2, -903824.25, -997018.06, 116270.33, 0.008822754, -0.16646785, -825161.2, 316907.97, 0.0, 10.001423, 10.000198 
3.150618e+2, 1.9346143e+2, -870354.75, -914784.0, 129286.31, -0.08247015, -0.22117084, -761388.44, 282676.38, 0.0, 10.000915, 10.000334 
3.1504703e+2, 2.0346154e+2, -934541.9, -996406.06, 90066.07, -0.10801054, -0.19874878, -870244.3, 75818.6, 0.0, 10.000243, 9.999423 
3.1503263e+2, 2.1346207e+2, -987985.6, -996845.7, 75711.555, -0.023418672, -0.080172464, -916574.56, -68508.984, 0.0, 9.999309, 9.999198 
3.1501782e+2, 2.2346257e+2, -863848.06, -742519.6, 99381.75, -0.016520137, -0.0013523052, -686749.8, 63314.93, 0.0, 9.998871, 10.000481 
3.1500235e+2, 2.3346296e+2, -695339.2, -591994.94, 102860.96, -0.1440453, -0.03756469, -528556.75, 123501.05, 0.0, 9.999275, 10.0006485 
3.1498745e+2, 2.4346328e+2, -628789.5, -570526.44, 64738.867, -0.16902708, -0.044155154, -528666.6, 25387.043, 0.0, 9.999323, 10.000097 
3.1497356e+2, 2.5346354e+2, -633273.4, -536474.25, 90792.85, -0.01321463, -0.027343953, -481986.2, -25932.63, 0.0, 9.998682, 9.999968 
3.1495953e+2, 2.6346385e+2, -565222.06, -511262.53, 146092.9, 0.06671052, 0.034794483, -389679.03, -31625.744, 0.0, 9.998726, 9.999449 
3.149452e+2, 2.734642e+2, -298973.72, -346843.78, 117196.34, 0.0121755805, 0.12368585, -203293.25, 56760.53, 0.00000000001473293, 9.999939, 9.999321 
3.1493062e+2, 2.8346378e+2, -78377.36, -84999.79, -13315.959, 0.05846774, 0.112689264, -67967.1, 94091.22, 0.000000108201135, 10.000339, 10.000252 
3.1491545e+2, 2.9346228e+2, -126944.66, -37434.99, 6082.005, 0.2634262, -0.086567774, -37023.62, 27043.639, 0.0000022594174, 9.999241, 10.000435 
3.148981e+2, 3.0346212e+2, -208643.7, -173333.69, -2826.0068, 0.28324458, -0.09904934, -173108.94, -173108.94, 0.000011524727, 9.998863, 9.999356 
3.148768e+2, 3.1346512e+2, -152734.31, -162876.22, 87457.64, -0.098233216, 0.28874147, -70200.74, -70200.74, 0.00003194629, 9.999298, 9.999217 
3.2516485e+2, 1.2348366e+2, -1525341.1, -1678531.0, -38851.75, -0.044455573, 0.021190502, -1516051.0, 213808.6, 0.00008196154, 10.001509, 9.999518 
3.2515404e+2, 1.3348262e+2, -1532613.9, -1641471.9, -8263.323, 0.30939105, -0.033312716, -1531990.3, 99876.17, 0.000031147985, 10.000844, 9.999425 
3.2513806e+2, 1.434809e+2, -1464906.1, -1581375.6, -19984.686, 0.186096, -0.13727322, -1461572.4, 72308.77, 0.0000056203494, 10.000742, 9.999203 
3.2512134e+2, 1.5348043e+2, -1250450.0, -1446565.3, 1912.8136, 0.038223326, -0.104275845, -1250431.4, 185454.1, 0.00000011513348, 10.001627, 9.999028 
3.251059e+2, 1.6347985e+2, -1081064.3, -1275441.9, 64695.695, -0.017676454, -0.076385796, -1061500.4, 276390.5, 0.0, 10.001957, 9.999369 
3.2509223e+2, 1.7347904e+2, -1079105.9, -1224641.3, 71261.35, 0.031355236, -0.10688737, -1050024.1, 189874.66, 0.0, 10.001296, 9.999366 
3.2507786e+2, 1.8347825e+2, -1003231.6, -1060064.0, 65073.645, 0.015539561, -0.14734793, -960640.3, 181264.38, 0.0, 10.000812, 10.000055 
3.2506227e+2, 1.9347754e+2, -921701.25, -960990.7, 33346.734, -0.10588889, -0.24555545, -902643.0, 141263.9, 0.0, 10.000657, 10.000138 
3.2504705e+2, 2.0347762e+2, -897594.1, -969178.8, -20928.596, -0.13659312, -0.22088869, -891924.44, 53981.875, 0.0, 10.000456, 9.999507 
3.250325e+2, 2.1347919e+2, -860819.3, -919161.44, -12770.008, -0.0048762667, -0.012575814, -858146.6, -10246.378, 0.0, 10.000114, 9.999343 
3.2501748e+2, 2.2348009e+2, -738519.56, -690956.4, 61342.555, 0.02054415, 0.10261311, -648946.8, 100949.13, 0.0, 9.999764, 10.000407 
3.2500172e+2, 2.334798e+2, -671876.75, -592425.75, 67598.1, -0.14130035, 0.0054678954, -553744.5, 98150.68, 0.0, 9.999479, 10.000549 
3.2498664e+2, 2.4347968e+2, -597324.25, -520993.94, 20356.91, -0.18477894, -0.048639953, -515904.22, 37989.39, 0.0, 9.999388, 10.00041 
3.2497272e+2, 2.534801e+2, -459252.16, -407387.56, 9926.958, -0.012379415, -0.056855522, -405552.44, 50337.22, 0.0, 9.9996805, 10.000373 
3.2495853e+2, 2.6348066e+2, -469180.22, -475712.13, 83415.336, 0.062352233, 0.0086769415, -388966.9, -31080.508, 0.0, 9.999436, 9.999348 
3.249438e+2, 2.7348128e+2, -556294.75, -493512.84, 118478.49, -0.030498717, 0.14658187, -402337.3, -142450.77, 0.00000000010851988, 9.998274, 9.999115 
3.2492906e+2, 2.8348088e+2, -450910.47, -270204.38, 5859.2686, -0.000988749, 0.15313199, -270014.6, -108122.2, 0.00000014601811, 9.997803, 10.000203 
3.2491398e+2, 2.9347917e+2, -229257.94, -90613.32, -52210.34, 0.23131216, -0.06632234, -73151.41, -9248.101, 0.000002235968, 9.998558, 10.000399 
3.24897e+2, 3.034793e+2, -167256.94, -204065.81, -72879.74, 0.26677585, -0.026902795, -110493.695, -110493.695, 0.000011294619, 9.999371, 9.998899 
3.2487687e+2, 3.1348193e+2, -60096.793, -132280.17, 11567.988, -0.052349303, 0.3666191, -58288.24, -58288.24, 0.000031418378, 10.000008, 9.999078 
3.3516666e+2, 1.2349863e+2, -1528310.0, -1689931.4, -89802.78, -0.039291188, 0.10670136, -1488311.4, 241410.34, 0.00007849747, 10.0015335, 9.999427 
3.3515504e+2, 1.3349849e+2, -1523715.1, -1628518.4, -30545.63, 0.31883547, 0.13587199, -1515462.3, 116260.73, 0.000031046704, 10.000869, 9.999501 
3.3513895e+2, 1.4349686e+2, -1413942.9, -1476853.3, 2123.335, 0.19317216, 0.005598484, -1413871.4, 119865.03, 0.0000062556137, 10.000749, 9.999915 
3.3512324e+2, 1.5349595e+2, -1189901.0, -1321586.6, 39452.89, 0.055595957, -0.08643776, -1178985.6, 256752.55, 0.00000016895437, 10.001633, 9.999881 
3.3510786e+2, 1.6349556e+2, -1064615.6, -1240747.6, 45080.74, -0.026767068, -0.0999122, -1053747.9, 283990.38, 0.0, 10.001952, 9.999611 
3.3509257e+2, 1.7349617e+2, -1069821.4, -1203871.4, 48722.047, -0.07653177, -0.0032183244, -1053983.9, 185749.98, 0.0, 10.001287, 9.999515 
3.3507752e+2, 1.8349613e+2, -1046437.94, -1141865.9, 52284.99, -0.10622577, 0.04655564, -1023368.1, 118366.66, 0.0, 10.000777, 9.999511 
3.3506325e+2, 1.9349499e+2, -972807.1, -1061194.8, 31317.512, -0.08370761, -0.02754817, -962835.6, 80909.61, 0.0, 10.000633, 9.999462 
3.350482e+2, 2.0349462e+2, -875069.8, -915804.5, -35398.047, -0.07579565, -0.025446367, -854597.9, 91152.17, 0.0, 10.000429, 9.999886 
3.350317e+2, 2.1349564e+2, -827812.6, -839004.8, -22396.69, -0.102744445, 0.071654186, -810323.5, 37421.32, 0.0, 10.000066, 9.999916 
3.3501628e+2, 2.2349606e+2, -741069.25, -687743.1, 46403.5, -0.08501333, 0.104002245, -660887.94, 88854.05, 0.0, 9.999726, 10.000448 
3.3500278e+2, 2.3349547e+2, -681811.7, -603270.8, 58964.695, 0.011748086, -0.017365599, -571696.3, 80046.89, 0.0, 9.999436, 10.000497 
3.349886e+2, 2.4349517e+2, -598206.1, -520072.84, 25260.803, 0.06704909, -0.09032138, -512617.34, 41125.184, 0.0, 9.999373, 10.0004225 
3.3497307e+2, 2.5349545e+2, -462032.13, -408356.5, 23724.37, 0.047311313, -0.11129733, -399373.72, 56363.98, 0.0, 9.99966, 10.000376 
3.3495763e+2, 2.6349586e+2, -428735.97, -388102.0, 43300.22, 0.023661505, -0.087429486, -360589.2, -2855.1748, 0.0, 9.99942, 9.999957 
3.3494243e+2, 2.734962e+2, -510230.84, -388122.38, 76278.44, -0.0023118078, -0.04801948, -351472.88, -91738.56, 0.000000000044508567, 9.99823, 9.99986 
3.3492684e+2, 2.8349635e+2, -507660.0, -381511.47, 21551.908, -0.008285908, -0.0040664626, -377931.06, -216195.1, 0.00000018850986, 9.997771, 9.999454 
3.3491024e+2, 2.9349646e+2, -308110.8, -250431.31, -18493.934, -0.0038136959, 0.061897554, -245010.92, -181276.13, 0.0000021997091, 9.998537, 9.999312 
3.3489424e+2, 3.0349606e+2, -204607.16, -276448.84, -50575.676, 0.046864804, 0.13475297, -178494.1, -178494.1, 0.000010789971, 9.999352, 9.998408 
3.3487943e+2, 3.134938e+2, -53258.363, -100800.27, 34295.15, 0.18491933, 0.06786972, -35301.44, -35301.44, 0.000030295108, 9.999936, 9.999328 
3.4516984e+2, 1.23514526e+2, -1544473.4, -1741588.9, 27839.32, 0.12718138, 0.09066624, -1540617.0, 188950.7, 0.00007534767, 10.001616, 9.999033 
3.4515586e+2, 1.3351509e+2, -1414791.4, -1604352.9, 73831.2, 0.2761986, 0.21702673, -1389428.8, 242135.92, 0.000030350302, 10.001737, 9.999252 
3.451389e+2, 1.435137e+2, -1242172.4, -1378481.9, 108157.516, 0.063727036, 0.11893055, -1182487.0, 351089.72, 0.0000064393853, 10.001858, 10.000058 
3.4512478e+2, 1.5351255e+2, -1127094.5, -1270371.0, 93464.04, 0.03656159, -0.01670846, -1080972.1, 354606.97, 0.00000020627503, 10.001967, 10.000074 
3.4511015e+2, 1.6351193e+2, -1113036.1, -1286088.9, 23237.777, 0.023057565, -0.05447423, -1109970.0, 227610.53, 0.0, 10.00171, 9.999417 
3.4509388e+2, 1.735124e+2, -1155325.6, -1271487.0, -15259.023, -0.045593563, 0.05332074, -1153354.6, 86224.14, 0.0, 10.000816, 9.999275 
3.4507823e+2, 1.8351237e+2, -1123233.8, -1173007.8, 18274.508, -0.08187143, 0.112297416, -1117244.9, 24335.896, 0.0, 10.000224, 9.999563 
3.450641e+2, 1.9351135e+2, -1036793.4, -1081770.6, 50852.402, -0.032992113, 0.042321194, -1003678.9, 39910.86, 0.0, 10.000147, 9.999557 
3.4504882e+2, 2.0351094e+2, -923726.0, -921998.75, 8726.3955, -0.02856673, 0.027945887, -914093.3, 31500.8, 0.0, 10.000014, 10.000047 
3.4503144e+2, 2.1351153e+2, -861377.75, -835718.25, -12519.479, -0.11243287, 0.065665886, -830622.0, 16968.648, 0.0, 9.999745, 10.000094 
3.4501562e+2, 2.2351168e+2, -771064.56, -714524.94, 47748.27, -0.10957903, 0.06665116, -687305.3, 62283.68, 0.0, 9.999583, 10.000328 
3.4500265e+2, 2.3351116e+2, -667652.3, -613493.8, 45004.168, 0.051125214, -0.030346088, -588050.1, 63539.867, 0.0, 9.999617, 10.000334 
3.4498852e+2, 2.4351092e+2, -603897.4, -546012.44, 4184.0127, 0.123767875, -0.08083966, -545711.6, 7877.827, 0.0, 9.999441, 10.00021 
3.4497225e+2, 2.5351113e+2, -588721.5, -495649.13, -21087.451, 0.04095057, -0.08489015, -491094.25, -35508.49, 0.0, 9.998901, 10.000144 
3.4495628e+2, 2.6351133e+2, -531740.94, -413533.47, -31896.512, -0.01279489, -0.07907959, -405475.9, -47892.105, 0.0, 9.998608, 10.0001745 
3.4494096e+2, 2.735113e+2, -414738.53, -305215.7, -39589.137, 0.0018849161, -0.108398855, -292404.1, -32818.363, 0.0, 9.998737, 10.00018 
3.4492522e+2, 2.8351152e+2, -317524.75, -293003.9, -44581.34, -0.0068681445, -0.0697974, -259027.83, -97442.555, 0.00000016974016, 9.999095, 9.999423 
3.449086e+2, 2.9351246e+2, -132890.84, -180965.78, -14014.699, -0.08179733, 0.08489794, -129103.65, -65525.805, 0.0000019719364, 9.999802, 9.999183 
3.448931e+2, 3.0351135e+2, -109745.21, -266571.13, -7328.483, -0.038106453, 0.11295328, -109403.5, -109403.5, 0.0000096256135, 10.000145, 9.998099 
3.448799e+2, 3.135072e+2, -63308.28, -85810.05, 56136.24, 0.25230083, -0.11579215, -17306.57, -17306.57, 0.00002817607, 9.99976, 9.999524 
3.5517406e+2, 1.2353125e+2, -1588416.0, -1839928.1, -5266.3994, 0.36499605, -0.019445848, -1588305.8, 141093.08, 0.000070242415, 10.001644, 9.998343 
3.5515627e+2, 1.3353245e+2, -1445838.5, -1677075.0, 80343.086, 0.1341269, 0.22277097, -1420664.1, 210727.69, 0.000028414861, 10.001774, 9.9987335 
3.5513785e+2, 1.4353144e+2, -1268995.9, -1441693.4, 108406.32, -0.24279448, 0.21225096, -1216751.5, 316650.5, 0.0000061402175, 10.001889, 9.999611 
3.55126e+2, 1.5353015e+2, -1158428.4, -1334765.6, 99894.04, -0.051269103, 0.10584469, -1113358.4, 322050.3, 0.00000020731169, 10.001965, 9.999635 
3.5511267e+2, 1.6352887e+2, -1159068.3, -1372772.0, -10061.156, 0.09645784, 0.052840725, -1158595.6, 178823.11, 0.0, 10.001673, 9.998839 
3.5509604e+2, 1.7352779e+2, -1199597.4, -1360914.1, -45962.46, 0.08062985, 0.06383859, -1187420.8, 52012.688, 0.0, 10.000806, 9.998666 
3.550798e+2, 1.8352696e+2, -1083597.9, -1085507.1, 9061.544, 0.047284633, 0.05479783, -1075440.9, 66001.38, 0.0, 10.000203, 10.000174 
3.5506478e+2, 1.9352663e+2, -981911.06, -960807.44, 51585.656, 0.013119297, -0.029568207, -918705.5, 124735.14, 0.0, 10.000118, 10.0004 
3.5504898e+2, 2.0352656e+2, -930356.4, -930575.06, -3056.826, -0.022089403, -0.056124546, -927406.94, 18031.898, 0.0, 9.9999895, 10.0 
3.5503167e+2, 2.135269e+2, -879392.6, -866389.9, -18865.87, -0.06990614, -0.024695031, -852936.56, -5499.223, 0.0, 9.999715, 9.999899 
3.550155e+2, 2.2352706e+2, -795587.8, -758212.06, 45567.566, -0.09005919, -0.0016741357, -727649.1, 21787.1, 0.0, 9.999552, 10.000043 
3.5500124e+2, 2.335269e+2, -692429.8, -660342.44, 49935.797, -0.059774064, -0.03181987, -623936.3, 27499.318, 0.0, 9.999596, 10.000024 
3.5498634e+2, 2.4352688e+2, -638737.4, -614464.44, -16672.605, -0.04652458, -0.020798614, -605978.9, -52543.832, 0.0, 9.999424, 9.999749 
3.549701e+2, 2.5352708e+2, -626661.06, -566646.9, -39725.67, -0.07040468, 0.01971673, -546868.9, -91434.336, 0.0, 9.998868, 9.999673 
3.5495424e+2, 2.63527e+2, -549625.94, -443815.0, -32427.87, -0.08124155, 0.036559872, -434667.63, -77231.66, 0.0, 9.998578, 9.999979 
3.5493916e+2, 2.7352652e+2, -430646.13, -334719.25, -30626.346, -0.05989342, -0.027057147, -325775.2, -66334.44, 0.0, 9.998721, 9.999985 
3.5492414e+2, 2.8352636e+2, -266188.56, -188188.73, -24935.729, -0.035439778, -0.041655283, -180898.44, -19457.21, 0.00000011654808, 9.999102, 10.00014 
3.54909e+2, 2.935269e+2, -72046.33, -55106.004, 16955.059, -0.033438545, -0.016672341, -44623.13, 18811.22, 0.0000016005947, 9.999798, 10.0000515 
3.548935e+2, 3.035251e+2, -117853.625, -277669.06, -14941.353, -0.019769862, -0.10686207, -116468.734, -116468.734, 0.00000802472, 10.000127, 9.99803 
3.548778e+2, 3.1352246e+2, -59743.832, -64310.355, 43828.18, 0.04865309, -0.16186683, -18139.482, -18139.482, 0.000025457135, 9.999706, 9.999695 
3.651754e+2, 1.23547815e+2, -1638240.1, -1858400.6, -111618.36, 0.35764435, 0.016769957, -1591552.0, 137683.78, 0.00006379951, 10.00128, 9.998394 
3.651584e+2, 1.3354796e+2, -1313022.4, -1583911.8, 41915.754, 0.13655898, 0.128758, -1306684.9, 324550.88, 0.000025621956, 10.00256, 9.998994 
3.6514032e+2, 1.4354679e+2, -1178261.0, -1428802.9, 60314.816, -0.21840198, 0.09764662, -1164497.1, 368750.16, 0.000005426268, 10.002649, 9.9993305 
3.651273e+2, 1.5354621e+2, -1383005.1, -1483011.8, 39949.45, -0.04538538, 0.10126654, -1369006.1, 66245.11, 0.00000017249042, 10.000592, 9.99928 
3.6511344e+2, 1.6354533e+2, -1425107.4, -1474346.4, 5145.452, 0.10542945, 0.095153905, -1424575.4, -87315.664, 0.0, 9.999732, 9.999078 
3.6509734e+2, 1.7354393e+2, -1152200.9, -1300222.6, 36920.195, 0.12869227, 0.04461548, -1143503.1, 95771.984, 0.0, 10.000969, 9.999004 
3.650812e+2, 1.83543e+2, -911918.8, -1019831.0, 91295.99, 0.10553946, 0.011414714, -859826.7, 281457.38, 0.0, 10.001453, 10.000024 
3.6506525e+2, 1.9354278e+2, -933148.7, -962405.1, 48739.965, 0.026493492, -0.037633065, -896889.1, 146393.44, 0.0, 10.000559, 10.000178 
3.6504903e+2, 2.0354275e+2, -919352.8, -934048.9, -30824.398, -0.016014803, -0.04264194, -895012.7, 50268.06, 0.0, 10.000112, 9.999914 
3.650324e+2, 2.1354306e+2, -778236.06, -825218.6, -44793.434, -0.0027275474, -0.007222953, -751147.8, 96130.99, 0.0, 10.00045, 9.9998255 
3.6501616e+2, 2.2354312e+2, -697972.5, -746236.5, 15932.499, -0.013061449, 0.022385284, -693187.44, 56091.285, 0.0, 10.000367, 9.999737 
3.6500078e+2, 2.3354274e+2, -729747.4, -718004.1, 8950.808, -0.05726685, 0.0060662543, -713170.94, -61889.438, 0.0, 9.999504, 9.999675 
3.6498517e+2, 2.4354252e+2, -714295.6, -669790.06, -37068.55, -0.08112574, 0.025202414, -648807.9, -95523.93, 0.0, 9.998984, 9.999581 
3.6496896e+2, 2.5354257e+2, -608059.9, -571176.7, -39329.535, -0.07544613, 0.06349921, -546179.75, -90893.95, 0.0, 9.999057, 9.999551 
3.6495316e+2, 2.6354235e+2, -497676.9, -410467.38, -3056.0642, -0.061251923, 0.06737906, -410360.4, -53071.832, 0.0, 9.998901, 10.000053 
3.6493805e+2, 2.7354178e+2, -477149.38, -348511.25, 11873.167, -0.02059626, -0.008732289, -347424.53, -88132.63, 0.0, 9.998359, 10.000071 
3.649231e+2, 2.8354183e+2, -417491.6, -243350.75, 34222.89, 0.009724498, -0.017853513, -236866.56, -75576.55, 0.000000055764154, 9.99798, 10.000305 
3.6490816e+2, 2.9354265e+2, -345731.56, -163099.52, 15830.862, 0.005719143, 0.021200709, -161737.42, -98455.93, 0.0000011854916, 9.997824, 10.0002575 
3.6489248e+2, 3.035408e+2, -388291.84, -297914.56, -14764.037, -0.0134645095, -0.1279256, -295563.88, -295563.88, 0.0000066145303, 9.997798, 9.999013 
3.6487597e+2, 3.135404e+2, -234197.52, -29680.44, 117995.914, -0.018314669, -0.06978387, 24201.484, 24201.484, 0.00002317202, 9.998007, 10.0007515 
3.751736e+2, 1.2356422e+2, -1580060.3, -1746891.0, -95895.86, 0.026721248, 0.19344158, -1536376.8, 192701.6, 0.000057927627, 10.001318, 9.999139 
3.7516218e+2, 1.3356173e+2, -1242122.1, -1438317.8, 94807.93, 0.24401687, -0.058123287, -1203795.1, 427300.2, 0.0000224533, 10.002563, 9.99999 
3.7514615e+2, 1.4355978e+2, -1191336.8, -1446489.8, -3930.8535, 0.08723506, -0.21938196, -1191276.3, 341835.4, 0.0000044720077, 10.002611, 9.999228 
3.751285e+2, 1.535608e+2, -1399396.1, -1524390.6, -35376.746, 0.006081461, -0.029680008, -1390078.1, 45028.31, 0.00000011962439, 10.000624, 9.998981 
3.751123e+2, 1.6356127e+2, -1351695.0, -1326860.9, 31668.205, 0.009580162, 0.07440957, -1305262.4, 31841.324, 0.0, 9.999752, 10.000079 
3.7509778e+2, 1.7356086e+2, -1065792.1, -1123803.8, 86888.76, 0.06447101, -0.000067563145, -1003195.6, 235908.45, 0.0, 10.000977, 10.000213 
3.7508225e+2, 1.8356036e+2, -976708.2, -1148293.4, 64146.38, 0.05724161, -0.020552028, -955378.75, 185728.67, 0.0, 10.001429, 9.999152 
3.750653e+2, 1.9355977e+2, -1023984.75, -1144526.3, 17144.19, -0.028944151, 0.012769697, -1021593.8, 21522.314, 0.0, 10.000532, 9.998939 
3.7504894e+2, 2.0355953e+2, -935173.8, -962327.06, -27491.42, -0.042163957, 0.066536725, -918089.3, 27030.75, 0.0, 10.00009, 9.999732 
3.7503344e+2, 2.1355997e+2, -782082.56, -825347.5, -27111.436, 0.051558677, 0.115348466, -769030.9, 78084.7, 0.0, 10.000415, 9.999843 
3.750176e+2, 2.2355981e+2, -727845.4, -798249.06, -13948.844, 0.08669455, 0.13798435, -725182.5, 23934.352, 0.0, 10.000323, 9.9994 
3.750012e+2, 2.3355867e+2, -761649.3, -775167.1, -20827.09, 0.0248776, 0.08023842, -746511.9, -95383.82, 0.0, 9.999463, 9.999301 
3.7498492e+2, 2.4355787e+2, -710298.8, -652805.44, -41326.133, -0.010623598, 0.05721584, -631211.06, -78075.055, 0.0, 9.998949, 9.999716 
3.7496877e+2, 2.5355762e+2, -596680.1, -543501.56, -32014.607, -0.0084875105, 0.04420909, -528474.44, -73334.9, 0.0, 9.999039, 9.999749 
3.749529e+2, 2.6355729e+2, -478119.38, -366954.94, -24272.518, 0.016617306, 0.012718899, -361886.2, -4744.2627, 0.0, 9.99889, 10.000358 
3.749375e+2, 2.7355704e+2, -458153.66, -298862.4, -4710.4204, 0.08103016, -0.0641872, -298723.22, -39583.29, 0.0, 9.998315, 10.000432 
3.7492195e+2, 2.8355786e+2, -454281.97, -310517.1, 23981.467, 0.0899968, 0.0026494362, -306622.25, -145490.61, 0.00000003400916, 9.997939, 9.999866 
3.749059e+2, 2.9355976e+2, -391103.16, -249330.84, 12228.132, -0.006186908, 0.20470409, -248283.88, -185164.34, 0.0000008994765, 9.997786, 9.999686 
3.7488982e+2, 3.035585e+2, -249569.03, 1083.6604, -12163.326, -0.060220465, 0.058950614, 1672.522, 1672.522, 0.000005653272, 9.997751, 10.00109 
3.7487403e+2, 3.1356105e+2, -100744.22, 262409.7, 126505.57, -0.031003362, 0.16688049, 302133.1, 302133.1, 0.000021689997, 9.997939, 10.002792 
3.8517463e+2, 1.23579174e+2, -1443107.6, -1637214.3, -70538.68, -0.034586377, 0.17191638, -1420181.5, 308752.3, 0.00005289425, 10.002078, 9.999521 
3.8516405e+2, 1.3357712e+2, -1464407.6, -1485714.6, 95112.984, 0.27071834, -0.090937935, -1379353.4, 251591.05, 0.000019117226, 10.000777, 10.000527 
3.851487e+2, 1.4357573e+2, -1482519.8, -1575169.8, -17425.256, 0.19071685, -0.23092976, -1479350.9, 53603.543, 0.0000034247098, 10.000551, 9.999341 
3.851303e+2, 1.5357709e+2, -1203909.6, -1423124.1, -35629.688, 0.059528153, -0.01338969, -1198264.0, 236683.7, 0.00000006772674, 10.001938, 9.999043 
3.8511345e+2, 1.6357763e+2, -984855.94, -1160429.1, 25441.8, 0.021496788, 0.10111806, -981243.56, 355700.94, 0.0, 10.002306, 9.999996 
3.8509852e+2, 1.7357689e+2, -1083898.3, -1141041.5, -17792.582, 0.04706124, 0.0017479049, -1078811.1, 160135.38, 0.0, 10.000887, 10.000138 
3.8508275e+2, 1.8357626e+2, -1169717.6, -1266691.0, -70396.08, 0.03186829, -0.021015562, -1132725.9, 8225.165, 0.0, 10.00021, 9.998928 
3.8506603e+2, 1.9357574e+2, -1004564.4, -1164753.8, -55262.23, -0.018957121, 0.044898547, -987349.9, 55610.895, 0.0, 10.000788, 9.99868 
3.8504955e+2, 2.0357539e+2, -849794.6, -927031.0, -55545.703, -0.017042087, 0.1032396, -820761.56, 124204.77, 0.0, 10.000695, 9.999684 
3.850335e+2, 2.1357532e+2, -926697.5, -897778.7, -63562.695, 0.06490704, 0.10316862, -847051.5, -86.86491, 0.0, 9.999425, 9.9998255 
3.850173e+2, 2.2357479e+2, -948179.44, -911041.1, -24368.326, 0.10330594, 0.09117069, -898973.2, -150004.75, 0.0, 9.998842, 9.999337 
3.850011e+2, 2.3357353e+2, -766711.75, -783529.75, -14044.394, 0.072260894, 0.029182782, -758751.4, -107770.305, 0.0, 9.999465, 9.999238 
3.849846e+2, 2.4357283e+2, -627600.94, -612979.4, -30591.61, 0.041449923, 0.017213946, -588837.1, -35848.68, 0.0, 9.999515, 9.999715 
3.849677e+2, 2.5357294e+2, -670567.5, -581815.44, -44430.598, 0.0075117755, 0.044723853, -563395.7, -108407.805, 0.0, 9.998538, 9.999729 
3.8495153e+2, 2.6357263e+2, -552393.0, -409845.7, -24790.926, 0.018012457, 0.018163102, -405657.28, -48667.15, 0.0, 9.9984045, 10.000298 
3.8493672e+2, 2.7357185e+2, -263547.25, -212290.4, -40752.55, 0.10746312, -0.10939502, -189777.5, 69216.3, 0.0, 9.999682, 10.000366 
3.84921e+2, 2.8357264e+2, -179700.52, -188984.88, -52134.87, 0.111516036, -0.038841408, -132001.56, 28984.418, 0.000000026095549, 9.999878, 9.999762 
3.849036e+2, 2.9357526e+2, -333046.88, -230907.7, -41012.31, -0.03735919, 0.24804108, -216478.34, -153511.63, 0.0000006696504, 9.998234, 9.999593 
3.848872e+2, 3.035741e+2, -259016.94, 8684.489, -50671.883, -0.09191137, 0.10760509, 17954.889, 17954.889, 0.000004955279, 9.997635, 10.001196 
3.8487256e+2, 3.135767e+2, -34852.434, 232056.4, -107094.414, 0.0008941515, 0.21266727, 269713.94, 269713.94, 0.000021234744, 9.998663, 10.002235 
3.951782e+2, 1.23592794e+2, -1441436.5, -1640260.8, -145282.66, 0.093523026, -0.034212302, -1364809.4, 363991.88, 0.000047781286, 10.002111, 9.999486 
3.9516404e+2, 1.3359389e+2, -1450720.1, -1471595.8, 51066.547, 0.18075551, 0.013882101, -1409035.6, 221748.84, 0.000015762651, 10.00084, 10.000595 
3.95148e+2, 1.4359437e+2, -1454392.1, -1526799.0, 18126.11, 0.056732103, 0.044577036, -1450108.0, 82669.5, 0.0000023761816, 10.000593, 9.999653 
3.9513242e+2, 1.5359496e+2, -1174672.3, -1366666.0, 19948.39, 0.07037423, 0.1462408, -1172621.4, 262154.25, 0.000000028035489, 10.001955, 9.999422 
3.9511657e+2, 1.6359437e+2, -1062947.5, -1320205.5, -19921.818, 0.09791297, 0.17011455, -1061414.0, 275369.03, 0.0, 10.002293, 9.998909 
3.9509943e+2, 1.7359206e+2, -1175455.3, -1331691.4, -69535.68, 0.042641554, 0.046809416, -1148990.1, 89812.2, 0.0, 10.000888, 9.998832 
3.9508274e+2, 1.8359068e+2, -1143912.1, -1208620.5, -60941.727, 0.0006743487, 0.0066426327, -1107268.6, 33545.902, 0.0, 10.000189, 9.999337 
3.9506727e+2, 1.9359075e+2, -960110.2, -1064168.8, -29358.281, 0.014726438, 0.06293334, -952398.75, 90417.29, 0.0, 10.000752, 9.999388 
3.9505073e+2, 2.0359032e+2, -850130.6, -917131.25, -98725.08, 0.023693139, 0.06820701, -779376.9, 165442.86, 0.0, 10.000652, 9.999773 
3.9503235e+2, 2.1358907e+2, -935202.5, -901848.9, -109040.766, 0.004444516, -0.04747765, -808217.0, 38609.637, 0.0, 9.999372, 9.999821 
3.950153e+2, 2.23588e+2, -938488.06, -884045.44, -13616.877, 0.008437925, -0.12043091, -880829.6, -131995.73, 0.0, 9.998808, 9.999541 
3.950004e+2, 2.3358725e+2, -753858.06, -749936.7, 14070.108, 0.04836218, -0.15522492, -737691.3, -86849.91, 0.0, 9.9994335, 9.999485 
3.9498416e+2, 2.4358732e+2, -642489.9, -636605.8, -62019.016, 0.037343495, -0.09880791, -577459.1, -24617.36, 0.0, 9.999486, 9.999567 
3.949656e+2, 2.535886e+2, -689774.3, -611132.06, -77107.164, -0.0656195, 0.06222337, -563898.8, -109067.82, 0.0, 9.998492, 9.999551 
3.949489e+2, 2.6358843e+2, -591089.0, -480817.78, 10996.859, -0.09081674, 0.08420517, -479731.8, -122898.94, 0.0, 9.9983635, 9.999832 
3.9493564e+2, 2.735861e+2, -301042.66, -287431.16, 12593.452, 0.02101831, -0.14548285, -279922.13, -21068.04, 0.0, 9.999668, 9.999859 
3.949202e+2, 2.8358603e+2, -161607.7, -148673.08, -103702.43, 0.03460491, -0.142986, -51236.492, 109617.03, 0.000000010243951, 9.999869, 10.000042 
3.94901e+2, 2.935891e+2, -307023.34, -167545.97, -99559.82, -0.12734364, 0.14500965, -115729.555, -52906.21, 0.00000051187845, 9.998193, 10.00005 
3.9488438e+2, 3.0358738e+2, -404145.72, -283005.84, -24718.418, -0.142085, 0.0059179887, -278156.22, -278156.22, 0.0000058094397, 9.997596, 9.999209 
3.948715e+2, 3.1358704e+2, -273550.4, -253302.77, -68152.414, 0.010542604, 0.06521341, -194526.34, -194526.34, 0.000025375839, 9.998624, 9.998918 
4.051822e+2, 1.23610444e+2, -1348258.4, -1670273.5, -48916.957, 0.24465545, -0.007450548, -1340991.5, 387636.78, 0.000041727923, 10.003068, 9.998819 
4.0516618e+2, 1.3361141e+2, -1117606.0, -1389245.4, 103510.14, 0.18218438, 0.095620304, -1082658.8, 547957.25, 0.000012294109, 10.003463, 9.999897 
4.051496e+2, 1.4361174e+2, -1097668.1, -1392636.9, 39585.61, 0.026208105, 0.1672117, -1092448.0, 440163.66, 0.0000014181285, 10.00321, 9.9993105 
4.0513396e+2, 1.5361112e+2, -1211756.4, -1415012.8, -12054.595, 0.04141484, 0.17527992, -1211043.9, 223575.89, 0.000000006286357, 10.001829, 9.999151 
4.051181e+2, 1.6360985e+2, -1227209.8, -1395359.1, -49048.305, 0.08090083, 0.14518395, -1213948.5, 122683.625, 0.0, 10.001163, 9.99893 
4.0510073e+2, 1.7360777e+2, -1055750.6, -1269676.0, -11709.605, 0.049557205, 0.04109643, -1055111.6, 183536.73, 0.0, 10.0016985, 9.998863 
4.0508384e+2, 1.8360645e+2, -959481.4, -1118753.4, 44505.676, 0.031976305, 0.0041312026, -947888.9, 192770.72, 0.0, 10.0014515, 9.999348 
4.050681e+2, 1.9360624e+2, -1090805.0, -1125406.0, 21426.82, 0.072587244, 0.033743065, -1080566.1, -37902.813, 0.0, 9.999847, 9.999405 
4.050512e+2, 2.0360574e+2, -1054298.6, -1019038.7, -59976.17, 0.07977677, 0.03201495, -974155.0, -29487.396, 0.0, 9.999268, 9.999739 
4.0503237e+2, 2.1360469e+2, -785109.06, -835955.5, -77226.74, 0.022668777, -0.058796965, -729228.44, 117444.125, 0.0, 10.000427, 9.999765 
4.0501502e+2, 2.2360362e+2, -686313.1, -803522.25, -3393.9695, 0.007678472, -0.113380365, -686214.94, 62465.277, 0.0, 10.000721, 9.99917 
4.05e+2, 2.3360254e+2, -765501.94, -806436.3, -33919.465, 0.06234597, -0.13892893, -746353.06, -95660.87, 0.0, 9.999568, 9.999036 
4.049837e+2, 2.4360222e+2, -697019.0, -652199.1, -122550.59, 0.06594471, -0.09697043, -550026.3, 2669.6194, 0.0, 9.999065, 9.999661 
4.049651e+2, 2.5360325e+2, -497448.25, -494603.53, -116479.516, -0.019884333, 0.0191862, -379537.7, 75147.93, 0.0, 9.999718, 9.999755 
4.0494823e+2, 2.6360318e+2, -451640.38, -454731.13, -2155.2456, -0.048521847, 0.052059907, -450533.72, -93847.305, 0.0, 9.999498, 9.999464 
4.0493435e+2, 2.7360138e+2, -608516.4, -486652.3, -111.43092, 0.023853071, -0.07836401, -486652.22, -227947.61, 0.0, 9.997781, 9.999398 
4.0491855e+2, 2.8360087e+2, -544859.56, -347903.13, -115287.59, 0.012655188, -0.08920915, -294759.47, -134050.89, 0.0000000008315615, 9.997299, 9.99991 
4.0489948e+2, 2.936019e+2, -202870.36, -120730.86, -154141.3, -0.1287021, 0.0029976636, -2281.7644, 60412.582, 0.00000071034475, 9.998923, 10.000016 
4.0488318e+2, 3.0359995e+2, -164250.13, -174927.66, -42814.08, -0.098916695, -0.16070923, -126443.234, -126443.234, 0.000009258835, 9.99927, 9.9991455 
4.0487015e+2, 3.1359988e+2, -518504.28, -449351.06, 74044.72, 0.08470194, -0.06124996, -402207.66, -402207.66, 0.000036115405, 9.997258, 9.998232 
4.151864e+2, 1.23631746e+2, -1427890.3, -1845508.1, -67902.86, 0.33263752, 0.22503708, -1417126.9, 311291.78, 0.000034934303, 10.003107, 9.997596 
4.1517022e+2, 1.3362971e+2, -1211974.0, -1591917.9, 120177.38, 0.23045984, 0.16269967, -1177152.9, 453285.9, 0.000008861853, 10.003489, 9.998493 
4.151532e+2, 1.43628e+2, -1162163.1, -1529528.3, -5518.6553, 0.05595137, 0.15041068, -1162080.3, 370375.3, 0.00000066326567, 10.003223, 9.998365 
4.1513488e+2, 1.5362574e+2, -1270433.0, -1538085.1, -59081.938, -0.05867439, 0.08348299, -1257971.4, 176506.9, 0.0000000002364484, 10.001838, 9.9983015 
4.1511795e+2, 1.6362421e+2, -1155732.4, -1248950.9, -40967.26, -0.05718056, 0.032298785, -1140287.4, 196203.63, 0.0, 10.001167, 9.999934 
4.1510233e+2, 1.7362404e+2, -965424.9, -1079455.8, 12160.374, 0.028620752, -0.012509676, -964142.5, 274342.6, 0.0, 10.001686, 10.0001745 
4.1508588e+2, 1.836235e+2, -988293.44, -1174930.5, -9233.311, 0.08340518, -0.02885801, -987837.75, 152649.28, 0.0, 10.001434, 9.998969 
4.1506842e+2, 1.9362226e+2, -1137934.4, -1219201.1, -36637.83, 0.114990376, -0.03951672, -1123855.8, -81353.086, 0.0, 9.999831, 9.998767 
4.1505092e+2, 2.0362173e+2, -1067809.4, -1044702.0, -32899.164, 0.120268874, -0.00067060435, -1021386.75, -76877.36, 0.0, 9.999253, 9.999572 
4.1503343e+2, 2.1362227e+2, -797611.06, -850280.8, -29057.063, 0.07618657, 0.07354475, -784730.7, 61771.063, 0.0, 10.000379, 9.999689 
4.150163e+2, 2.2362167e+2, -760481.8, -951873.8, -37892.94, 0.057230383, 0.11572699, -753252.56, -4745.4194, 0.0, 10.000693, 9.998167 
4.1499975e+2, 2.3361929e+2, -850330.44, -974033.56, -74572.516, 0.07570833, 0.07396608, -815297.1, -164763.11, 0.0, 9.999532, 9.997903 
4.1498306e+2, 2.4361753e+2, -677271.3, -605589.75, -109612.17, 0.091055885, 0.021529071, -526107.5, 26443.867, 0.0, 9.999041, 9.999991 
4.1496617e+2, 2.5361684e+2, -460817.53, -413988.6, -87955.43, 0.106404625, -0.091018476, -346384.4, 108168.58, 0.0, 9.999698, 10.000319 
4.1494936e+2, 2.6361677e+2, -469147.34, -486781.25, -58793.35, 0.108611286, -0.08216289, -418513.5, -61961.973, 0.0, 9.999483, 9.9992485 
4.149327e+2, 2.7361777e+2, -640824.6, -540926.4, -62746.992, 0.07366142, 0.100017585, -510675.13, -252130.3, 0.0, 9.997726, 9.999051 
4.1491586e+2, 2.8361717e+2, -590322.5, -432815.4, -73074.16, 0.008374133, 0.12688403, -404135.47, -243584.69, 0.00000000001177225, 9.997256, 9.99935 
4.1489893e+2, 2.9361355e+2, -245572.06, -206068.27, -86748.84, -0.084545374, -0.18370694, -136851.08, -74269.9, 0.0000013013552, 9.998906, 9.999438 
4.1488355e+2, 3.036117e+2, -23424.717, 118411.61, -100663.31, 0.0034021211, -0.39628023, 170629.5, 170629.5, 0.000013961503, 9.999269, 10.001161 
4.1486818e+2, 3.1361547e+2, -385244.66, -148910.64, 3851.383, 0.14620689, -0.14898826, -148847.89, -148847.89, 0.00004972542, 9.997161, 10.00034 
4.2518964e+2, 1.2364936e+2, -1453236.5, -1910155.4, -166057.83, 0.34780636, 0.22882794, -1399262.0, 328981.6, 0.000028282533, 10.0031595, 9.997128 
4.251732e+2, 1.3364625e+2, -1272711.4, -1690679.0, 83247.31, 0.18861242, 0.11921423, -1256741.1, 373535.56, 0.0000061498936, 10.003366, 9.997877 
4.2515668e+2, 1.4364424e+2, -1167655.8, -1551868.3, -26992.172, 0.08428851, 0.12017586, -1165768.8, 366528.84, 0.00000022304816, 10.003266, 9.998195 
4.251379e+2, 1.53642e+2, -1197732.6, -1514332.1, -42194.215, 0.036050986, 0.06420642, -1192205.8, 242113.53, 0.0, 10.002381, 9.998205 
4.2512035e+2, 1.6364057e+2, -1102551.3, -1216182.8, 19098.607, 0.05389111, 0.029244103, -1099427.3, 236903.27, 0.0, 10.001505, 9.999996 
4.2510396e+2, 1.7364067e+2, -1094039.3, -1131237.9, -17161.982, 0.07631812, 0.002280546, -1087331.0, 150991.58, 0.0, 10.000755, 10.000269 
4.250869e+2, 1.836402e+2, -1117852.4, -1240347.4, -83763.266, 0.08758228, -0.011689084, -1075333.1, 64990.5, 0.0, 10.000563, 9.9989395 
4.2506889e+2, 1.9363873e+2, -932321.7, -1126062.5, -76575.04, 0.10803931, -0.041751973, -905710.8, 136629.05, 0.0, 10.001271, 9.998711 
4.2505127e+2, 2.0363787e+2, -769287.25, -953742.56, -28162.75, 0.11823729, -0.012596856, -765083.1, 179266.48, 0.0, 10.001532, 9.999097 
4.2503437e+2, 2.1363798e+2, -740863.94, -884585.3, -61055.99, 0.10520258, 0.07512955, -718428.3, 127920.23, 0.0, 10.001032, 9.999141 
4.250172e+2, 2.2363733e+2, -742350.5, -908308.44, -71297.16, 0.0838536, 0.12760976, -715927.5, 32427.725, 0.0, 10.000673, 9.998475 
4.2499945e+2, 2.3363541e+2, -662134.6, -832836.06, -3372.44, 0.04217287, 0.08856047, -662068.06, -11693.56, 0.0, 10.000608, 9.998352 
4.249823e+2, 2.4363361e+2, -527554.1, -587062.0, 29348.691, 0.050494142, 0.027040757, -515515.2, 36876.074, 0.0, 10.000295, 9.999519 
4.2496622e+2, 2.5363204e+2, -519014.25, -512907.63, -38482.113, 0.15083124, -0.109505944, -477357.9, -22954.115, 0.0, 9.999597, 9.999692 
4.249495e+2, 2.6363158e+2, -490725.4, -481625.1, -66858.945, 0.18721828, -0.10562797, -419161.63, -62755.184, 0.0, 9.999269, 9.99939 
4.2493165e+2, 2.7363306e+2, -353100.6, -371963.44, -38113.07, 0.10927689, 0.09848951, -323269.34, -64876.43, 0.0, 9.999573, 9.999324 
4.2491412e+2, 2.8363258e+2, -363497.22, -354218.06, 10435.632, 0.029346576, 0.13074939, -347437.16, -187039.05, 0.0000000012455732, 9.998947, 9.999076 
4.2489746e+2, 2.936287e+2, -578331.6, -405179.22, 10179.917, -0.014652212, -0.17026074, -404582.78, -342147.63, 0.0000019618685, 9.996788, 9.999095 
4.2488202e+2, 3.036279e+2, -417508.53, 69792.95, -17173.557, 0.09129622, -0.30996072, 70397.44, 70397.44, 0.000018429422, 9.995953, 10.002428 
4.248649e+2, 3.136317e+2, -252240.44, 98678.0, 6303.116, 0.10298773, -0.20992291, 98791.18, 98791.18, 0.00006268099, 9.99729, 10.001979 
4.3519175e+2, 1.2366366e+2, -1428075.0, -1875201.8, -176267.42, 0.22267967, 0.03166192, -1366944.1, 361155.0, 0.000022534432, 10.003235, 9.997331 
4.3517512e+2, 1.3366115e+2, -1263561.1, -1677472.4, 98006.48, 0.03357707, -0.027789045, -1241527.9, 388600.6, 0.000004463296, 10.003385, 9.997962 
4.3516e+2, 1.4366044e+2, -1135301.8, -1475503.6, -54381.406, 0.08099274, 0.075609215, -1126820.3, 405317.72, 0.00000006720731, 10.00323, 9.9987335 
4.351428e+2, 1.536598e+2, -1154098.8, -1425187.9, -72393.74, 0.27563787, 0.11663105, -1135977.5, 298166.28, 0.0, 10.002389, 9.998813 
4.3512502e+2, 1.6365887e+2, -1158751.1, -1338251.3, -13149.017, 0.36221915, 0.13344052, -1157793.0, 178358.52, 0.0, 10.001526, 9.999149 
4.3510562e+2, 1.736577e+2, -1167063.8, -1286763.5, -41209.508, 0.1573145, 0.08584792, -1154248.5, 83912.24, 0.0, 10.00077, 9.999197 
4.3508676e+2, 1.8365662e+2, -1099183.1, -1197629.0, -67416.164, 0.013998573, 0.058674507, -1064932.5, 75236.055, 0.0, 10.000547, 9.999239 
4.3506926e+2, 1.936556e+2, -900523.9, -1053662.8, -45803.664, 0.01586887, 0.022296412, -887869.7, 154305.42, 0.0, 10.0012455, 9.999221 
4.3505207e+2, 2.0365411e+2, -831949.9, -1073802.0, -44157.56, 0.036486033, -0.0035837372, -824139.75, 120048.69, 0.0, 10.001491, 9.998291 
4.3503517e+2, 2.1365191e+2, -817790.9, -1034173.75, -77199.914, 0.07361954, -0.04794671, -793071.8, 53140.746, 0.0, 10.000991, 9.998131 
4.3501762e+2, 2.2365065e+2, -635507.7, -678110.5, -79626.76, 0.051169917, -0.068674885, -574382.4, 173841.22, 0.0, 10.000636, 10.000074 
4.34999e+2, 2.3365086e+2, -527312.0, -542618.94, -3140.6099, -0.071836926, -0.09205873, -526692.7, 123520.74, 0.0, 10.000566, 10.000365 
4.3498126e+2, 2.4365042e+2, -622873.6, -777422.25, 2219.7146, -0.08867068, -0.07560731, -622841.75, -70626.375, 0.0, 10.000263, 9.998226 
4.3496504e+2, 2.536489e+2, -651144.7, -778605.94, -62414.527, 0.069658756, -0.02982666, -625672.4, -171434.9, 0.0, 9.99956, 9.997884 
4.3494844e+2, 2.6364776e+2, -457779.63, -410609.16, -61796.45, 0.15072052, -0.015160212, -368050.13, -11799.355, 0.0, 9.999255, 9.999886 
4.349311e+2, 2.7364722e+2, -292061.28, -245533.86, -20814.527, 0.08831031, -0.097565964, -237581.47, 20668.438, 0.0, 9.99957, 10.000195 
4.3491322e+2, 2.8364697e+2, -364078.75, -353246.72, -62304.31, 0.037902698, -0.08834515, -296123.47, -135872.33, 0.000000012355592, 9.998941, 9.999083 
4.3489486e+2, 2.9364747e+2, -598736.0, -431927.78, -66917.914, 0.043799512, 0.057665147, -408400.8, -346146.53, 0.0000026583295, 9.996723, 9.998942 
4.3487835e+2, 3.0364874e+2, -390482.1, 135987.38, 15736.255, 0.12890619, 0.11738209, 136457.31, 136457.31, 0.000022356537, 9.995907, 10.002907 
4.3486002e+2, 3.136483e+2, -185059.97, 252041.47, 74059.625, -0.13177426, -0.268258, 264248.75, 264248.75, 0.000073377385, 9.997238, 10.003054 
4.451953e+2, 1.2367994e+2, -1027451.6, -1611131.9, -156384.06, 0.13381778, -0.062720016, -988192.6, 739747.25, 0.000017853961, 10.005696, 9.997953 
4.451777e+2, 1.3367888e+2, -1327222.1, -1648268.5, 139874.84, -0.0053408253, -0.031814564, -1274830.6, 355122.97, 0.0000032818623, 10.002704, 9.9984865 
4.4516286e+2, 1.4367902e+2, -1389222.6, -1583193.4, 57168.926, 0.14169274, 0.12323687, -1373627.1, 158326.64, 0.000000052414343, 10.001425, 9.998865 
4.4514534e+2, 1.5367799e+2, -1081887.6, -1378368.9, 788.80566, 0.2724661, 0.11584484, -1081885.5, 352077.34, 0.0, 10.002836, 9.998918 
4.451271e+2, 1.636765e+2, -948682.75, -1324925.9, 8728.249, 0.32957914, 0.103757285, -948480.4, 387496.63, 0.0, 10.003336, 9.998373 
4.4510704e+2, 1.7367454e+2, -1017391.2, -1314920.1, -19412.084, 0.15078314, 0.06845845, -1016130.0, 221866.78, 0.0, 10.002232, 9.998299 
4.4508782e+2, 1.8367316e+2, -932137.0, -1116410.6, 7913.3867, 0.012759301, 0.06207794, -931797.75, 208210.86, 0.0, 10.001684, 9.999252 
4.4507062e+2, 1.9367261e+2, -775056.44, -974638.1, 3143.4387, -0.010836853, 0.058898795, -775006.94, 267001.53, 0.0, 10.002022, 9.999389 
4.4505325e+2, 2.03671e+2, -833981.0, -1122965.4, -40988.977, 0.00068475003, 0.028539145, -828279.7, 115742.7, 0.0, 10.001687, 9.997856 
4.4503558e+2, 2.1366762e+2, -970375.25, -1166648.0, -52476.7, 0.060159586, -0.08199833, -957225.75, -111165.97, 0.0, 10.000199, 9.997603 
4.4501773e+2, 2.236659e+2, -798344.7, -726420.94, -34448.617, 0.06435225, -0.12991525, -712583.6, 35492.027, 0.0, 9.999388, 10.000342 
4.4499958e+2, 2.3366687e+2, -622292.8, -546190.5, -78467.6, -0.022573832, -0.11361649, -497034.7, 153021.44, 0.0, 9.999728, 10.000746 
4.4498166e+2, 2.4366683e+2, -732808.7, -860359.44, -132736.98, -0.04077952, -0.068922505, -649321.0, -97267.36, 0.0, 9.999637, 9.997958 
4.4496408e+2, 2.536651e+2, -787550.7, -884553.4, -101633.11, 0.05823052, -0.010046391, -723439.1, -269359.63, 0.0, 9.998799, 9.997522 
4.4494686e+2, 2.6366365e+2, -601117.56, -477535.88, -19368.932, 0.11902185, -0.007817948, -474571.3, -118474.914, 0.0, 9.998262, 9.999901 
4.449301e+2, 2.7366257e+2, -477147.78, -328745.7, -38449.77, 0.101438485, -0.1475969, -319375.3, -61275.85, 0.0, 9.998274, 10.000246 
4.4491193e+2, 2.836624e+2, -481884.0, -364006.2, -154023.56, 0.067440145, -0.15009168, -258029.8, -97930.65, 0.00000003060041, 9.997929, 9.999497 
4.4489178e+2, 2.9366407e+2, -539054.06, -347392.8, -130505.164, 0.0580966, 0.06285163, -281312.63, -219221.81, 0.000003132682, 9.996892, 9.999437 
4.448747e+2, 3.0366623e+2, -415515.2, 49741.703, 22851.791, 0.16921984, 0.21176483, 50861.41, 50861.41, 0.000025258936, 9.996058, 10.002238 
4.4485697e+2, 3.136652e+2, -422864.66, 99760.16, -15481.777, -0.0832337, -0.15039141, 100218.375, 100218.375, 0.00008019797, 9.9957485, 10.002735 
4.5519987e+2, 1.2369805e+2, -969819.94, -1468914.6, -273743.78, 0.0025153093, -0.065024436, -848949.25, 878817.7, 0.00001401141, 10.005609, 9.99897 
4.551808e+2, 1.3369913e+2, -1260202.5, -1515703.9, 30546.713, 0.024300458, 0.08886993, -1256601.3, 373153.66, 0.0000022113788, 10.002735, 9.99938 
4.551652e+2, 1.4369975e+2, -1396232.0, -1612505.6, 87872.875, 0.22341046, 0.25257334, -1365030.4, 166716.97, 0.000000026277823, 10.001487, 9.998634 
4.551455e+2, 1.5369654e+2, -1107770.8, -1435217.0, 60742.5, -0.001401412, 0.06479309, -1096865.9, 336911.1, 0.0, 10.00285, 9.998521 
4.551266e+2, 1.6369352e+2, -999056.9, -1424525.1, -25982.37, -0.061733004, -0.047608227, -997476.06, 338330.1, 0.0, 10.003314, 9.997699 
4.5510814e+2, 1.7369115e+2, -1066682.9, -1420663.4, -58480.715, 0.02871797, -0.053322863, -1057271.6, 180560.05, 0.0, 10.002243, 9.997568 
4.5508993e+2, 1.8368974e+2, -952099.1, -1155156.3, 13104.947, 0.04754077, -0.007823786, -951256.9, 188588.08, 0.0, 10.001674, 9.99899 
4.550727e+2, 1.9368981e+2, -793453.44, -1006037.9, 21056.486, -0.01425565, 0.07012235, -791387.9, 250451.97, 0.0, 10.001994, 9.9991865 
4.5505473e+2, 2.0368852e+2, -845248.0, -1134912.1, -93653.41, -0.026809806, 0.087895244, -817606.06, 126245.41, 0.0, 10.001637, 9.9978 
4.5503548e+2, 2.1368505e+2, -980459.9, -1173359.9, -105542.75, 0.027504122, -0.029033834, -933934.8, -88044.27, 0.0, 10.00014, 9.997585 
4.550174e+2, 2.2368303e+2, -880178.4, -887666.25, -32437.639, 0.08779448, -0.05903681, -851269.3, -103357.64, 0.0, 9.999347, 9.999257 
4.5500112e+2, 2.336834e+2, -712790.9, -728084.6, -60798.133, 0.1517885, 0.020543793, -659160.6, -9257.73, 0.0, 9.999701, 9.999509 
4.5498335e+2, 2.4368282e+2, -683190.75, -748763.2, -161853.39, 0.15908884, 0.04696153, -550836.25, 1069.8978, 0.0, 9.9996, 9.998742 
4.549632e+2, 2.5368056e+2, -716662.2, -725954.2, -130435.24, 0.08335306, -0.053064954, -590790.25, -136860.34, 0.0, 9.998751, 9.998635 
4.5494464e+2, 2.6367918e+2, -643294.0, -555877.7, -24471.143, 0.06364411, -0.08527501, -549493.5, -193549.92, 0.0, 9.998225, 9.99938 
4.5492855e+2, 2.7367914e+2, -539229.0, -446681.63, -33364.188, 0.11302317, -0.04558012, -435907.78, -177966.27, 0.0, 9.998229, 9.999456 
4.5491007e+2, 2.836789e+2, -424335.6, -236971.28, -190127.31, 0.083542444, -0.050682966, -118698.87, 41242.996, 0.000000022691747, 9.997893, 10.00039 
4.5488805e+2, 2.936785e+2, -461984.28, -180469.31, -166489.05, -0.012855998, -0.15745248, -103210.12, -41265.277, 0.0000032965943, 9.996859, 10.000604 
4.5487094e+2, 3.0368018e+2, -549693.06, -224528.61, 6020.3877, 0.180411, -0.03849179, -224417.17, -224417.17, 0.000026467469, 9.996043, 10.000361 
4.5485562e+2, 3.1368235e+2, -556683.44, -155658.89, -4623.9014, 0.1944997, 0.14672218, -155605.6, -155605.6, 0.00008171888, 9.995664, 10.001018 
4.6520317e+2, 1.2371853e+2, -1532922.8, -1745369.0, -174970.48, -0.023404067, 0.033735033, -1434455.9, 293113.16, 0.000011288882, 10.001751, 9.998934 
4.6518385e+2, 1.3371837e+2, -1088970.0, -1465915.6, 31054.98, -0.00060819474, 0.08884897, -1086428.6, 543137.5, 0.0000014723416, 10.004036, 9.9991045 
4.6516877e+2, 1.437181e+2, -970897.06, -1473607.9, 36370.11, 0.2704786, 0.20417194, -968279.4, 563286.94, 0.0000000044160173, 10.004688, 9.998046 
4.651478e+2, 1.5371451e+2, -1173752.6, -1536684.1, -17867.72, -0.046589054, 0.040108662, -1172875.1, 260726.36, 0.0, 10.00269, 9.997902 
4.651284e+2, 1.6371147e+2, -1203744.1, -1496240.8, -65043.094, -0.13634484, -0.050961528, -1189932.5, 145698.69, 0.0, 10.001807, 9.997929 
4.6511075e+2, 1.737096e+2, -959564.25, -1328548.0, -25761.488, 0.0425767, -0.041917585, -957774.3, 279875.3, 0.0, 10.002811, 9.997925 
4.6509278e+2, 1.8370816e+2, -804949.75, -1115337.9, 75788.695, 0.11007899, -0.0076995003, -787432.7, 352229.75, 0.0, 10.002825, 9.998706 
4.650747e+2, 1.9370736e+2, -935060.44, -1118740.0, 63242.625, 0.026434746, 0.022392096, -915391.6, 126275.71, 0.0, 10.001215, 9.998789 
4.6505603e+2, 2.0370601e+2, -973598.1, -1170436.9, -26087.691, -0.0049499366, 0.045384195, -970199.3, -26518.867, 0.0, 10.000637, 9.998039 
4.650365e+2, 2.1370378e+2, -726997.3, -1015454.94, -18118.918, 0.040782105, 0.02025945, -725863.7, 119843.42, 0.0, 10.001719, 9.99791 
4.6501818e+2, 2.2370212e+2, -571863.5, -814895.4, 78067.52, 0.11201769, 0.03725189, -548947.25, 198778.5, 0.0, 10.001796, 9.998573 
4.6500173e+2, 2.3370133e+2, -689943.44, -812001.4, 70229.164, 0.21972418, 0.0842659, -657931.1, -8199.754, 0.0, 10.000269, 9.998658 
4.6498355e+2, 2.437001e+2, -684023.06, -719986.44, -12639.13, 0.22933482, 0.083519906, -680025.44, -128283.76, 0.0, 9.999468, 9.999004 
4.6496248e+2, 2.5369805e+2, -518118.8, -582772.25, -35767.44, 0.08646293, -0.0368235, -502234.25, -48474.03, 0.0, 9.999905, 9.999063 
4.649432e+2, 2.6369685e+2, -479928.88, -494154.84, 32454.453, 0.040448215, -0.06933284, -453817.1, -98046.4, 0.0, 9.999408, 9.999239 
4.6492657e+2, 2.7369696e+2, -681534.5, -539288.7, 54871.883, 0.1360112, 0.0079146, -520581.8, -262813.47, 0.0, 9.997349, 9.999247 
4.6490768e+2, 2.8369638e+2, -609896.0, -366149.78, -64196.06, 0.11576578, -0.0025739968, -350276.06, -190503.75, 0.00000001636591, 9.996791, 10.000034 
4.6488556e+2, 2.9369476e+2, -220549.98, -103299.47, -157171.48, -0.033257846, -0.19215381, 5824.482, 67610.25, 0.0000038137496, 9.998688, 10.000252 
4.648679e+2, 3.0369547e+2, -260500.48, -144680.52, -85751.55, 0.16580264, -0.1299094, -99116.38, -99116.38, 0.000027236774, 9.99828, 9.999833 
4.6485108e+2, 3.136985e+2, -797322.9, -306368.3, 29610.334, 0.25412592, 0.1913261, -304588.9, -304588.9, 0.00008037478, 9.994164, 10.000701 
4.7520497e+2, 1.2374111e+2, -1586929.8, -1882637.8, -100669.88, -0.035914715, 0.22100407, -1555911.6, 171437.03, 0.000009638264, 10.001858, 9.997939 
4.7518682e+2, 1.3373671e+2, -1180543.8, -1657110.0, 120935.74, -0.11444061, -0.01801539, -1151611.1, 477775.28, 0.0000011941617, 10.004045, 9.9977865 
4.7517335e+2, 1.4373428e+2, -1034221.4, -1605683.1, -20902.58, 0.24880041, -0.005495884, -1033457.8, 497950.72, 0.0000000025241675, 10.004685, 9.997144 
4.7515187e+2, 1.5373193e+2, -1228461.5, -1655768.0, -89528.05, 0.08323877, 0.040114637, -1210462.1, 222973.9, 0.0, 10.002715, 9.997076 
4.7513217e+2, 1.6373026e+2, -1121156.4, -1332084.4, -43189.61, 0.053077593, 0.08495393, -1112655.5, 222797.28, 0.0, 10.001834, 9.999044 
4.751147e+2, 1.7372979e+2, -862240.1, -1125335.3, 17061.568, 0.1505122, 0.09815214, -861138.3, 376313.3, 0.0, 10.002808, 9.999322 
4.750962e+2, 1.8372835e+2, -827617.7, -1157002.9, 23246.928, 0.16294837, 0.06366448, -825985.06, 313476.72, 0.0, 10.002798, 9.998435 
4.7507638e+2, 1.9372523e+2, -972422.06, -1194906.1, 5383.8506, 0.06899794, -0.08518157, -972291.8, 69199.47, 0.0, 10.0012045, 9.998274 
4.7505707e+2, 2.0372345e+2, -940546.06, -1095708.4, -199.56267, 0.027323605, -0.10031306, -940545.8, 2963.7554, 0.0, 10.000611, 9.998566 
4.750385e+2, 2.1372385e+2, -684369.4, -918250.6, 26622.438, 0.062090393, 0.07085209, -681377.25, 164132.0, 0.0, 10.001683, 9.998594 
4.7501993e+2, 2.2372314e+2, -596590.4, -860162.25, 29327.346, 0.10161144, 0.15918952, -593366.6, 154151.39, 0.0, 10.001765, 9.99828 
4.7500134e+2, 2.3372065e+2, -728071.3, -879862.44, 15661.423, 0.14777021, 0.07704699, -726472.25, -76930.48, 0.0, 10.000218, 9.9982195 
4.749821e+2, 2.4371865e+2, -708694.25, -765001.56, -7150.8794, 0.13408223, 0.03916833, -707800.3, -156239.9, 0.0, 9.999438, 9.99871 
4.749619e+2, 2.537175e+2, -541758.4, -628124.1, -14089.975, 0.028768145, 0.03683178, -539517.8, -85947.016, 0.0, 9.999885, 9.998762 
4.7494242e+2, 2.637166e+2, -462193.06, -452635.7, -35525.387, 0.013915061, 0.041024897, -421569.03, -65991.41, 0.0, 9.999389, 9.999532 
4.7492394e+2, 2.7371606e+2, -662282.4, -486779.7, -19548.91, 0.13259652, 0.012692936, -484628.53, -227049.02, 0.0, 9.997294, 9.999633 
4.7490466e+2, 2.8371495e+2, -731546.7, -613138.75, -11452.594, 0.12857345, -0.002592273, -612041.2, -452451.25, 0.0000000367379, 9.996764, 9.998352 
4.748843e+2, 2.9371288e+2, -362106.2, -397705.3, -79633.63, -0.036597945, -0.035826787, -298307.1, -236693.16, 0.000004802636, 9.998683, 9.998235 
4.7486544e+2, 3.0371204e+2, -195567.3, -7620.531, -218730.31, 0.0856952, -0.057765674, 136468.98, 136468.98, 0.000029242266, 9.99827, 10.000778 
4.7484288e+2, 3.137135e+2, -720381.2, -131950.84, -97467.69, -0.0008858111, -0.02551451, -116226.484, -116226.484, 0.000080926366, 9.994101, 10.001928 
4.8521012e+2, 1.2376142e+2, -1045742.0, -1678086.5, -135371.55, 0.09348518, 0.28859866, -1017980.6, 709169.3, 0.0000080909895, 10.00582, 9.997429 
4.8519114e+2, 1.3375585e+2, -1111135.5, -1704288.8, 103084.58, -0.12711862, 0.00040680994, -1093731.0, 535470.0, 0.0000009766787, 10.00486, 9.997067 
4.8517793e+2, 1.4375271e+2, -1111491.3, -1635131.9, -28860.168, 0.27578297, -0.019475339, -1109905.5, 421325.44, 0.000000012333141, 10.004129, 9.997206 
4.851557e+2, 1.53751e+2, -1054883.0, -1551401.9, -41276.082, 0.14302336, 0.07263386, -1051475.1, 381776.47, 0.0, 10.00382, 9.997258 
4.851353e+2, 1.6374977e+2, -899805.56, -1196037.6, 64726.473, 0.11460297, 0.13891174, -886280.4, 448982.7, 0.0, 10.00323, 9.999306 
4.8511732e+2, 1.7374931e+2, -923598.5, -1124387.4, 45368.406, 0.16198319, 0.1255217, -913823.4, 323436.56, 0.0, 10.002253, 9.999594 
4.8509836e+2, 1.837477e+2, -1007597.3, -1269012.0, -12186.097, 0.15880565, 0.06821478, -1007030.44, 132241.1, 0.0, 10.001668, 9.998211 
4.8507813e+2, 1.9374418e+2, -926472.8, -1203315.6, -23553.906, 0.10382465, -0.09439767, -924483.1, 116824.23, 0.0, 10.001656, 9.997995 
4.8505855e+2, 2.0374238e+2, -798189.3, -988412.6, 15982.656, 0.07557852, -0.10812091, -796855.75, 146470.3, 0.0, 10.00143, 9.998906 
4.8504e+2, 2.1374339e+2, -770310.94, -910550.75, 25846.332, 0.0870971, 0.08097891, -765699.06, 79618.01, 0.0, 10.000886, 9.999031 
4.85021e+2, 2.2374292e+2, -771020.75, -940685.4, -189.53152, 0.09485902, 0.16630779, -771020.5, -23698.35, 0.0, 10.000551, 9.998311 
4.850012e+2, 2.3374e+2, -678279.9, -857149.56, 6020.4604, 0.09898792, 0.043648418, -678077.44, -28726.723, 0.0, 10.000565, 9.998205 
4.8498133e+2, 2.4373788e+2, -622538.5, -737822.6, 25862.168, 0.08258722, -0.0026976294, -617002.56, -65631.11, 0.0, 10.000092, 9.998581 
4.8496133e+2, 2.5373703e+2, -703755.0, -721179.5, 24651.758, 0.0385033, 0.040622495, -686321.25, -232942.0, 0.0, 9.998837, 9.998628 
4.849416e+2, 2.637362e+2, -625511.1, -539105.8, -7930.441, 0.05036279, 0.05967422, -538384.0, -182997.81, 0.0, 9.998305, 9.99946 
4.8492217e+2, 2.7373514e+2, -426285.06, -379443.9, -32181.055, 0.14904314, -0.008281, -363063.16, -105670.12, 0.0, 9.99894, 9.999578 
4.8490232e+2, 2.8373408e+2, -481800.38, -486993.38, 40972.87, 0.13893113, -0.0192738, -443341.8, -283938.63, 0.00000008825205, 9.998458, 9.998398 
4.84882e+2, 2.93733e+2, -722040.7, -566392.56, 121318.664, -0.007980587, 0.04001893, -500081.97, -438664.53, 0.0000054540624, 9.996195, 9.998272 
4.848621e+2, 3.0373204e+2, -600468.3, -181818.89, 11188.659, 0.071539626, -0.0023186647, -181520.08, -181520.08, 0.000030858784, 9.9953985, 10.000963 
4.8483735e+2, 3.1373236e+2, -315295.3, 56737.863, 43479.293, -0.09639074, -0.09843798, 61751.69, 61751.69, 0.00008250138, 9.996913, 10.001866 
4.952179e+2, 1.2377978e+2, -1049062.8, -1687318.6, -158190.95, 0.267227, 0.2590911, -1012006.7, 714963.0, 0.000006279439, 10.005825, 9.997365 
4.951965e+2, 1.3377574e+2, -1128046.8, -1730462.0, 69487.82, -0.08372389, 0.14128602, -1120135.4, 508874.9, 0.000000682882, 10.004822, 9.996907 
4.9518248e+2, 1.4377327e+2, -1042179.3, -1490272.3, -44312.01, 0.30705383, 0.15138933, -1037839.3, 493195.28, 0.000000011256939, 10.004122, 9.998205 
4.9515915e+2, 1.5377171e+2, -973866.3, -1383496.3, -49137.29, 0.097673364, 0.14367007, -968054.5, 464994.06, 0.0, 10.003821, 9.99841 
4.9513763e+2, 1.6377002e+2, -936469.7, -1273830.1, 26827.217, 0.016704379, 0.12361106, -934349.7, 400712.3, 0.0, 10.003235, 9.99877 
4.9511853e+2, 1.7376815e+2, -978327.06, -1236949.5, 11986.869, 0.04891655, 0.04521795, -977772.7, 259301.95, 0.0, 10.002248, 9.998824 
4.950992e+2, 1.837662e+2, -1021748.2, -1293144.9, -19399.084, 0.06845414, 0.005362482, -1020368.56, 118723.04, 0.0, 10.001646, 9.998055 
4.950798e+2, 1.9376414e+2, -932411.06, -1213306.4, -21794.447, 0.09832731, -0.0060155415, -930730.1, 110385.95, 0.0, 10.001644, 9.997933 
4.9506032e+2, 2.0376274e+2, -787016.06, -961874.56, -5647.706, 0.10635925, 0.014955475, -786833.9, 156297.0, 0.0, 10.001411, 9.999098 
4.9504083e+2, 2.1376243e+2, -759798.06, -882406.3, 8630.234, 0.07610239, 0.051666684, -759193.56, 85936.93, 0.0, 10.000853, 9.999243 
4.9502116e+2, 2.2376142e+2, -751564.56, -891772.2, -5316.555, 0.05163457, 0.056518216, -751363.25, -4224.904, 0.0, 10.000513, 9.998667 
4.9500123e+2, 2.3375936e+2, -656335.3, -804187.9, 9714.704, 0.036223054, -0.019284979, -655699.7, -6540.7007, 0.0, 10.000532, 9.998586 
4.9498105e+2, 2.4375768e+2, -619780.2, -728603.2, -18390.352, 0.03808718, -0.045282945, -616756.3, -65580.79, 0.0, 10.000074, 9.998654 
4.9496058e+2, 2.5375658e+2, -707677.25, -721717.7, -19559.242, 0.073752485, -0.029652193, -693916.56, -240730.47, 0.0, 9.998802, 9.998642 
4.9494058e+2, 2.6375547e+2, -661060.75, -605963.44, 5569.995, 0.11411067, -0.01807821, -605405.94, -250208.97, 0.0, 9.998276, 9.999016 
4.9492115e+2, 2.7375418e+2, -465790.53, -456152.25, -2631.4346, 0.14295393, -0.061185125, -455480.6, -198270.95, 0.0, 9.998918, 9.999063 
4.9490055e+2, 2.8375384e+2, -354404.6, -218967.25, -34814.867, 0.108050175, -0.048253965, -210542.02, -51330.44, 0.00000018947561, 9.998443, 10.000247 
4.948784e+2, 2.937551e+2, -575079.25, -249776.83, 41671.25, 0.010666011, 0.030883696, -244523.58, -183328.31, 0.000005346717, 9.996143, 10.000471 
4.9485773e+2, 3.0375555e+2, -655109.25, -283754.7, 56013.99, 0.091346845, 0.032116115, -275489.66, -275489.66, 0.000029419843, 9.995347, 10.000289 
4.9483436e+2, 3.1375527e+2, -422299.72, -163390.7, 134607.25, -0.10788401, -0.021083077, -106089.81, -106089.81, 0.000078988014, 9.996906, 10.000357 
5.0522363e+2, 1.2379815e+2, -1243619.9, -1756770.6, -76910.64, 0.3388974, 0.10266284, -1232340.5, 494443.06, 0.000004653961, 10.004405, 9.997565 
5.052006e+2, 1.3379553e+2, -1381402.0, -1833628.4, 132779.03, -0.052339427, 0.11079433, -1345298.8, 283513.75, 0.00000039131208, 10.003002, 9.99708 
5.051865e+2, 1.437936e+2, -1240526.0, -1546579.5, 77549.4, 0.3804025, 0.1510679, -1221997.8, 308835.1, 0.000000003537473, 10.002599, 9.99855 
5.051629e+2, 1.5379211e+2, -940491.9, -1326012.3, 14737.819, 0.09129847, 0.11657263, -939929.3, 492916.2, 0.0, 10.003876, 9.998777 
5.051409e+2, 1.6379035e+2, -837147.8, -1252555.1, 14834.457, -0.011510714, 0.07857329, -836618.75, 498241.22, 0.0, 10.004026, 9.998535 
5.0512135e+2, 1.7378815e+2, -986333.9, -1276971.0, 16674.525, 0.104698434, 0.000016150721, -985380.4, 251497.06, 0.0, 10.002345, 9.998504 
5.051016e+2, 1.8378624e+2, -1030508.6, -1324074.5, 71013.945, 0.14746395, -0.006890076, -1014232.7, 124663.3, 0.0, 10.001703, 9.997815 
5.0508195e+2, 1.9378479e+2, -788372.06, -1167258.9, 60529.656, 0.10213843, 0.06752478, -778937.0, 261979.17, 0.0, 10.00274, 9.99772 
5.0506204e+2, 2.037833e+2, -603770.5, -889309.44, 8236.142, 0.07823626, 0.09722046, -603533.1, 339399.5, 0.0, 10.002732, 9.998961 
5.0504184e+2, 2.1378176e+2, -746620.7, -889446.7, -18037.62, 0.087168425, 0.021935955, -744377.94, 100565.53, 0.0, 10.001003, 9.99912 
5.050216e+2, 2.2378056e+2, -799680.44, -861454.6, 4086.1099, 0.06866421, -0.0054913512, -799411.3, -52458.91, 0.0, 9.999954, 9.999144 
5.050012e+2, 2.3377997e+2, -695761.44, -761330.3, 30956.854, 0.009507127, 0.011636995, -683455.44, -34496.938, 0.0, 9.999993, 9.999141 
5.049806e+2, 2.43779e+2, -647416.06, -721567.2, -11796.712, 0.009130441, 0.019184854, -645584.5, -94616.586, 0.0, 9.999804, 9.998832 
5.0495994e+2, 2.5377738e+2, -629359.7, -667775.5, -14721.006, 0.11163249, -0.029169431, -624367.4, -171383.97, 0.0, 9.999277, 9.998781 
5.0493944e+2, 2.6377615e+2, -614960.4, -592226.0, 61545.797, 0.15717912, -0.033981055, -541006.44, -186010.58, 0.0, 9.9986315, 9.998937 
5.04919e+2, 2.7377543e+2, -639301.7, -553335.75, 76880.31, 0.09627246, -0.011455243, -508238.53, -251234.0, 0.00000000061010413, 9.99779, 9.998937 
5.0489765e+2, 2.8377518e+2, -470742.88, -210260.61, -6936.478, 0.035262313, -0.00610633, -210076.03, -51070.863, 0.00000027554938, 9.997363, 10.000828 
5.0487524e+2, 2.9377607e+2, -324377.9, -52189.688, -55906.555, 0.015281475, -0.036164124, -41154.094, 19836.12, 0.000004532087, 9.997539, 10.001157 
5.0485396e+2, 3.0377722e+2, -393047.0, -146805.67, -34133.914, 0.0997384, -0.0039503225, -142161.63, -142161.63, 0.0000250645, 9.997101, 10.000388 
5.048307e+2, 3.137779e+2, -622519.1, -281647.2, 133010.88, -0.090691686, 0.03691574, -235888.1, -235888.1, 0.0000692816, 9.995619, 10.000172 
5.152273e+2, 1.2381659e+2, -1206057.9, -1689599.0, -107343.234, 0.23784839, -0.16049969, -1183299.5, 543291.8, 0.000004007093, 10.004449, 9.998005 
5.152036e+2, 1.338153e+2, -1341010.9, -1760582.8, 81065.13, -0.06725613, -0.06869103, -1325893.1, 302714.06, 0.0000002699113, 10.00305, 9.997556 
5.1519e+2, 1.4381379e+2, -1252072.9, -1586101.0, 109810.08, 0.45445538, 0.00071764167, -1219207.0, 311418.06, 0.0000000025194304, 10.002662, 9.99825 
5.1516676e+2, 1.538122e+2, -969556.7, -1384390.8, 66793.6, 0.08106434, -0.006292905, -959067.25, 473575.34, 0.0, 10.00387, 9.998378 
5.1514506e+2, 1.6381073e+2, -838475.94, -1247874.5, -38556.516, -0.00887243, 0.003954252, -834876.4, 499780.84, 0.0, 10.003995, 9.998582 
5.151256e+2, 1.738093e+2, -977088.9, -1262248.1, -45083.66, 0.28271776, -0.0060882135, -970130.9, 266537.72, 0.0, 10.002364, 9.998596 
5.1510537e+2, 1.8380782e+2, -1050124.5, -1368591.8, 94451.62, 0.34712687, 0.035930138, -1024219.06, 114465.47, 0.0, 10.00172, 9.997499 
5.150845e+2, 1.9380616e+2, -819433.6, -1225247.0, 104528.73, 0.07632035, 0.12541266, -794091.8, 246616.03, 0.0, 10.002709, 9.997337 
5.150637e+2, 2.0380405e+2, -646106.44, -964638.2, -47933.98, -0.040228236, 0.13632885, -639049.5, 303682.28, 0.0, 10.002677, 9.99847 
5.150429e+2, 2.1380126e+2, -784915.3, -962458.25, -80951.695, 0.086169645, -0.013546624, -753547.06, 91209.56, 0.0, 10.000974, 9.998632 
5.15022e+2, 2.2380023e+2, -761995.7, -777607.9, -5803.1304, 0.11144226, -0.025934713, -760075.0, -13309.69, 0.0, 9.9999275, 9.999733 
5.1500094e+2, 2.3380186e+2, -649103.8, -656571.8, 35122.61, -0.023412587, 0.14034478, -617517.25, 31231.873, 0.0, 9.99996, 9.999876 
5.1497996e+2, 2.4380188e+2, -630769.2, -681271.06, -32808.82, -0.044260487, 0.19435327, -614619.3, -63870.918, 0.0, 9.999777, 9.999123 
5.149593e+2, 2.5379947e+2, -615293.9, -632319.4, -30193.096, 0.11246832, 0.038644426, -592436.44, -139664.9, 0.0, 9.999249, 9.99904 
5.14938e+2, 2.6379827e+2, -599566.9, -554386.06, 28889.018, 0.14248207, 0.012995255, -540303.56, -185520.81, 0.0, 9.998609, 9.9992075 
5.149155e+2, 2.7379885e+2, -626347.3, -517801.97, 50026.016, -0.03669154, 0.14152126, -498263.22, -241485.63, 0.0000000018853024, 9.997753, 9.999199 
5.148935e+2, 2.8379804e+2, -527457.0, -321982.5, -6941.1963, -0.12458491, 0.107783616, -321748.28, -162964.08, 0.00000034744536, 9.997336, 10.000073 
5.148723e+2, 2.937956e+2, -389654.9, -185778.61, -43988.844, -0.043417227, -0.16655897, -176692.42, -115888.305, 0.0000038784074, 9.99753, 10.000243 
5.148508e+2, 3.0379683e+2, -325520.6, -7304.319, -86573.87, 0.058176655, -0.119214855, 14724.049, 14724.049, 0.000021208403, 9.997104, 10.001347 
5.148262e+2, 3.1380033e+2, -548694.4, -105888.05, 96206.914, -0.119276255, 0.08684782, -85888.79, -85888.79, 0.00006028198, 9.995531, 10.001417 
5.252318e+2, 1.2383731e+2, -1183858.3, -1674800.4, -55377.41, 0.24126631, -0.2352654, -1177689.3, 548694.4, 0.0000048999923, 10.004578, 9.998048 
5.2520716e+2, 1.3383608e+2, -1071478.0, -1619420.9, 52073.51, -0.10282262, -0.14942767, -1066573.1, 561824.8, 0.00000045582777, 10.004837, 9.99767 
5.2519363e+2, 1.438344e+2, -1026574.2, -1520257.6, 90061.91, 0.4670654, -0.0842347, -1010657.5, 519760.7, 0.0000000012440385, 10.004399, 9.997861 
5.2517027e+2, 1.5383305e+2, -1131702.5, -1514178.4, 34941.184, 0.103776254, -0.021157576, -1128536.6, 303900.9, 0.0, 10.002975, 9.997918 
5.2514833e+2, 1.6383173e+2, -1059664.4, -1359706.4, -74145.945, 0.0007319013, 0.030389208, -1042341.7, 292112.16, 0.0, 10.002496, 9.998541 
5.2512807e+2, 1.7383032e+2, -797143.4, -1172141.5, -92117.01, 0.24387397, 0.020325312, -775737.1, 460728.78, 0.0, 10.003584, 9.99863 
5.2510756e+2, 1.8382905e+2, -757972.25, -1154001.5, 69069.09, 0.31251222, 0.056006856, -746272.0, 392206.7, 0.0, 10.003405, 9.998165 
5.2508694e+2, 1.9382802e+2, -990765.0, -1221570.5, 152286.67, 0.12878734, 0.13267669, -915094.4, 125398.23, 0.0, 10.001162, 9.998107 
5.250659e+2, 2.038263e+2, -1029884.5, -1161019.6, 72488.77, 0.05128703, 0.14313291, -997708.9, -55197.11, 0.0, 10.000095, 9.998366 
5.250444e+2, 2.138235e+2, -812736.2, -1001939.5, 53615.426, 0.14848433, 0.017765297, -798599.25, 45939.773, 0.0, 10.0008955, 9.998401 
5.250228e+2, 2.238223e+2, -635069.3, -733294.8, 114278.31, 0.15912163, 0.010131038, -559797.2, 186753.48, 0.0, 10.000876, 9.999579 
5.250012e+2, 2.338235e+2, -716299.4, -705443.25, 81718.49, 0.034067262, 0.14907195, -628972.75, 19566.313, 0.0, 9.999575, 9.999726 
5.249797e+2, 2.4382356e+2, -736494.56, -706714.1, -1143.3624, 0.000008260849, 0.2061828, -706670.3, -156132.11, 0.0, 9.998946, 9.999344 
5.249585e+2, 2.5382197e+2, -576927.25, -584669.9, -2950.5503, 0.106857404, 0.10663686, -575931.0, -123377.25, 0.0, 9.999392, 9.999296 
5.249365e+2, 2.6382118e+2, -480848.25, -469004.2, 32860.04, 0.10905537, 0.097771995, -441536.8, -86976.25, 0.0, 9.999296, 9.999466 
5.249134e+2, 2.7382153e+2, -524621.7, -437533.72, 47199.895, -0.050395265, 0.17448299, -416860.03, -160304.0, 0.00000000009174081, 9.998317, 9.999479 
5.2489096e+2, 2.8382054e+2, -556577.06, -390181.7, 27128.54, -0.113791026, 0.12584649, -385870.44, -227305.52, 0.00000033351301, 9.997379, 9.999582 
5.248696e+2, 2.9381797e+2, -577513.06, -348829.56, 4319.7676, -0.011675132, -0.1006166, -348747.97, -288158.13, 0.000003888586, 9.996553, 9.999594 
5.248472e+2, 3.0381924e+2, -426408.03, -12773.5205, -50298.586, 0.045021165, -0.024362557, -6744.998, -6744.998, 0.000020489533, 9.996226, 10.001731 
5.2482194e+2, 3.1382152e+2, -342697.22, 84403.766, 69496.23, -0.14260226, 0.0071869027, 95427.4, 95427.4, 0.000057556197, 9.996539, 10.002246 
5.352367e+2, 1.2386008e+2, -1200612.3, -1714938.1, -20167.125, 0.256773, -0.1408287, -1199822.6, 526339.6, 0.0000065441736, 10.004611, 9.997751 
5.3521115e+2, 1.3385774e+2, -1094664.3, -1658214.6, 60893.824, -0.19649884, -0.1361194, -1088159.5, 540025.2, 0.00000084453274, 10.0048065, 9.9974165 
5.3519726e+2, 1.438554e+2, -1061820.3, -1592798.0, 41005.164, 0.38521278, -0.10346627, -1058672.3, 471539.78, 0.00000000014366745, 10.004389, 9.997372 
5.3517354e+2, 1.5385462e+2, -1169761.8, -1592819.5, -16031.939, 0.12058905, 0.068215236, -1169155.1, 263075.5, 0.0, 10.002972, 9.997382 
5.3515065e+2, 1.6385332e+2, -1067768.3, -1375658.3, -47358.246, -0.024271045, 0.15771644, -1060648.5, 273601.13, 0.0, 10.002493, 9.99843 
5.351289e+2, 1.7385113e+2, -803853.75, -1181981.0, -46249.027, -0.03729131, 0.07424972, -798279.2, 437990.2, 0.0, 10.003568, 9.998568 
5.3510815e+2, 1.8384999e+2, -647505.56, -918288.44, -3327.4111, 0.024589853, 0.052990966, -647464.7, 490813.44, 0.0, 10.003376, 9.999798 
5.350891e+2, 1.938504e+2, -864255.25, -955116.06, 69617.82, 0.21879473, 0.090188496, -826555.9, 213714.63, 0.0, 10.0011425, 9.999948 
5.350687e+2, 2.0385003e+2, -1015980.25, -1127628.4, 85766.23, 0.30811265, 0.123765744, -969470.7, -27198.021, 0.0, 10.000075, 9.998604 
5.350462e+2, 2.1384849e+2, -816670.06, -1001311.1, 87884.82, 0.23511554, 0.117584996, -781527.56, 62762.668, 0.0, 10.000856, 9.998424 
5.350239e+2, 2.2384681e+2, -704556.5, -872208.44, 70644.7, 0.17617735, 0.10278443, -678758.25, 67550.26, 0.0, 10.000849, 9.99864 
5.3500193e+2, 2.3384488e+2, -794032.6, -859601.2, 35643.004, 0.14534523, 0.033797033, -778389.25, -130060.984, 0.0, 9.999543, 9.998683 
5.349798e+2, 2.43844e+2, -733561.2, -694378.06, 5594.7456, 0.10577956, 0.05024858, -693594.9, -143257.13, 0.0, 9.99892, 9.999441 
5.3495747e+2, 2.5384483e+2, -562850.8, -551301.0, 17200.766, 0.053256113, 0.17025009, -538931.56, -86600.59, 0.0, 9.999373, 9.999534 
5.34935e+2, 2.6384488e+2, -462801.47, -426425.3, -217.77277, 0.020677868, 0.21697015, -426424.03, -72094.305, 0.0, 9.999277, 9.999767 
5.349124e+2, 2.7384347e+2, -506869.03, -391175.5, 14598.427, 0.018152874, 0.08714849, -389361.88, -133022.27, 0.0, 9.998278, 9.999816 
5.348899e+2, 2.8384265e+2, -576301.3, -429681.2, -8572.423, 0.036524877, 0.048640184, -429181.7, -270834.56, 0.00000019037492, 9.997368, 9.999319 
5.348671e+2, 2.938433e+2, -608871.25, -403853.03, -22697.834, 0.08130089, 0.17651585, -401370.2, -341024.47, 0.000003945089, 9.996509, 9.999238 
5.348433e+2, 3.0384463e+2, -451354.97, -54456.586, -41146.72, 0.03125667, 0.29639462, -50235.766, -50235.766, 0.000021599248, 9.996188, 10.001462 
5.348177e+2, 3.1384125e+2, -322815.47, 140915.9, 89213.99, -0.24053745, -0.2248227, 157487.0, 157487.0, 0.000060066017, 9.996487, 10.002652 
5.452412e+2, 1.2388257e+2, -1144447.1, -1686145.1, -8089.7236, 0.22553132, -0.03989328, -1144326.4, 581620.75, 0.000007658713, 10.004992, 9.997771 
5.452152e+2, 1.338801e+2, -1197696.4, -1692919.1, 42885.797, -0.22191592, -0.059869006, -1194009.9, 433959.56, 0.0000011634298, 10.004035, 9.997551 
5.452011e+2, 1.4387755e+2, -1245923.4, -1662278.5, 49715.703, 0.39984834, -0.06233634, -1240069.3, 289928.13, 0.0000000022874875, 10.003043, 9.997543 
5.451762e+2, 1.538768e+2, -1247476.5, -1610319.1, 30250.486, 0.12897462, 0.09502759, -1244971.8, 187042.33, 0.0, 10.00235, 9.997561 
5.4515284e+2, 1.6387561e+2, -1128751.8, -1370331.9, 101098.93, -0.026065504, 0.17313108, -1092026.0, 242004.86, 0.0, 10.001934, 9.9987335 
5.4513156e+2, 1.7387371e+2, -1026191.2, -1254897.6, 127749.66, -0.040212933, 0.087697566, -969089.94, 266958.1, 0.0, 10.001895, 9.998875 
5.451105e+2, 1.8387255e+2, -894079.0, -1033731.75, 77251.79, 0.018980894, 0.048401494, -859772.94, 278283.9, 0.0, 10.001666, 9.99983 
5.450901e+2, 1.9387257e+2, -853845.4, -949739.4, 125.1439, 0.206502, 0.04916139, -853845.25, 186207.53, 0.0, 10.001208, 9.999954 
5.45069e+2, 2.0387223e+2, -869634.75, -1033110.3, 5913.066, 0.2889101, 0.07370453, -869421.1, 72633.4, 0.0, 10.0009775, 9.998817 
5.450468e+2, 2.1387126e+2, -768975.6, -948434.56, 26002.844, 0.20537831, 0.09919873, -765283.9, 78781.82, 0.0, 10.001058, 9.998687 
5.450246e+2, 2.2386986e+2, -711078.8, -889009.56, 5548.7905, 0.16026084, 0.102261044, -710905.94, 35175.207, 0.0, 10.000869, 9.998513 
5.450022e+2, 2.3386772e+2, -694241.1, -831866.9, 21695.16, 0.1838053, 0.031686928, -690902.1, -42798.35, 0.0, 10.000317, 9.9985 
5.449796e+2, 2.4386656e+2, -636469.06, -665087.06, 51061.254, 0.1536825, 0.034480907, -597749.8, -47633.07, 0.0, 9.999652, 9.999296 
5.449564e+2, 2.53867e+2, -650760.7, -608203.0, 31910.482, 0.03925214, 0.12871905, -591127.4, -139013.56, 0.0, 9.998829, 9.999408 
5.449335e+2, 2.638669e+2, -607535.1, -474620.9, -15115.037, -0.0016889381, 0.16266465, -472923.7, -118810.38, 0.0, 9.998194, 9.999956 
5.44911e+2, 2.7386582e+2, -552439.9, -388716.84, -18376.52, 0.076524176, 0.040895715, -386679.6, -130559.805, 0.0, 9.997859, 10.000036 
5.448882e+2, 2.838653e+2, -500196.47, -374768.8, -12818.4795, 0.11389902, 0.01577846, -373472.22, -215348.4, 0.00000011177434, 9.997816, 9.999476 
5.448644e+2, 2.9386622e+2, -349662.56, -263270.7, 6877.9307, 0.08078531, 0.15848947, -262726.56, -202607.08, 0.0000044340386, 9.998223, 9.999375 
5.448401e+2, 3.038674e+2, -282801.4, -52283.23, -15760.802, 0.019320294, 0.28621474, -51210.637, -51210.637, 0.000024114986, 9.997694, 10.000746 
5.448154e+2, 3.1386387e+2, -466737.5, 32466.584, 41620.152, -0.06554632, -0.17229746, 35912.79, 35912.79, 0.00006615612, 9.995672, 10.002299 
5.5524486e+2, 1.23904854e+2, -1114411.6, -1624887.5, -16858.688, 0.08221011, 0.07574679, -1113855.4, 611881.5, 0.000007849199, 10.005002, 9.998186 
5.552193e+2, 1.3390315e+2, -1161086.6, -1613903.6, 4880.307, -0.21986607, 0.08079138, -1161034.0, 466717.7, 0.0000012983855, 10.004028, 9.9980955 
5.5520487e+2, 1.4390084e+2, -1189156.8, -1549286.1, 15132.496, 0.46405667, 0.038528547, -1188522.0, 341252.1, 0.00000001610604, 10.00306, 9.998312 
5.551783e+2, 1.5389958e+2, -1187960.3, -1492017.8, 8046.5283, 0.090830654, 0.0646164, -1187747.5, 244040.78, 0.0, 10.002374, 9.998362 
5.5515474e+2, 1.6389863e+2, -1077676.0, -1270095.5, 92948.695, -0.038264874, 0.09157451, -1040110.6, 293687.28, 0.0, 10.001956, 9.999411 
5.551358e+2, 1.7389797e+2, -983632.94, -1160607.6, 128660.55, 0.18961726, 0.06398353, -915968.0, 319834.5, 0.0, 10.00187, 9.999533 
5.5511457e+2, 1.8389674e+2, -1006691.9, -1259748.1, 56635.086, 0.24904966, 0.04701918, -994594.94, 143219.9, 0.0, 10.001631, 9.998297 
5.5508983e+2, 1.938946e+2, -985019.8, -1218225.1, -13680.353, 0.05955353, 0.011583572, -984220.06, 55619.19, 0.0, 10.001189, 9.998123 
5.5506676e+2, 2.038929e+2, -853383.9, -995950.5, 4769.03, -0.033417646, -0.0073592104, -853224.56, 88632.414, 0.0, 10.000963, 9.99908 
5.5504614e+2, 2.1389188e+2, -739197.94, -877244.94, 32848.516, 0.025355328, -0.037287153, -731780.1, 112084.61, 0.0, 10.001017, 9.999196 
5.550247e+2, 2.238915e+2, -672013.5, -797193.56, -16353.468, 0.07738112, 0.010910596, -669912.4, 75955.82, 0.0, 10.000825, 9.999163 
5.550019e+2, 2.3389202e+2, -656434.8, -740244.0, 4814.787, 0.11799898, 0.14080891, -656159.1, -8293.4375, 0.0, 10.000261, 9.999155 
5.5497885e+2, 2.4389122e+2, -668431.8, -723971.06, 18722.523, 0.11095216, 0.16106935, -662709.9, -112834.92, 0.0, 9.9996195, 9.998907 
5.549552e+2, 2.538884e+2, -693016.56, -686209.56, 5534.3525, 0.033585187, -0.018755797, -683115.94, -231213.89, 0.0, 9.998789, 9.998891 
5.549319e+2, 2.6388726e+2, -609250.94, -471266.75, -32029.508, 0.012087119, -0.06741782, -464194.4, -110282.76, 0.0, 9.998164, 9.999991 
5.5490905e+2, 2.738885e+2, -553348.4, -382377.2, -26787.773, 0.08436061, 0.036195893, -378278.34, -122381.65, 0.0, 9.997823, 10.000097 
5.5488575e+2, 2.838884e+2, -459033.53, -288950.78, -2030.5315, 0.07911412, 0.022994667, -288926.53, -131030.93, 0.00000024371042, 9.99781, 10.000072 
5.5486137e+2, 2.9388657e+2, -301266.25, -164350.52, 27792.428, -0.055631377, -0.17599484, -158924.02, -99011.23, 0.0000057652805, 9.998227, 10.000055 
5.5483735e+2, 3.038874e+2, -369450.94, -233201.2, -82847.98, -0.029881332, -0.067806356, -194065.72, -194065.72, 0.000028463612, 9.997695, 9.999501 
5.548151e+2, 3.138892e+2, -551206.3, -130649.29, -35992.785, 0.32389915, 0.15604115, -127591.14, -127591.14, 0.00007494189, 9.995618, 10.001203 
5.6525046e+2, 1.2392703e+2, -1238763.0, -1706540.6, 91271.21, 0.18713586, 0.07359859, -1221585.3, 503934.5, 0.000006982231, 10.004234, 9.997997 
5.652226e+2, 1.3392572e+2, -1194884.6, -1642317.9, 4226.3027, -0.27772588, 0.1274472, -1194844.6, 432688.28, 0.0000012057895, 10.003834, 9.997999 
5.652068e+2, 1.4392355e+2, -1091608.4, -1425745.9, 6777.353, 0.3449379, 0.0754571, -1091471.0, 438082.25, 0.000000037787355, 10.003405, 9.998992 
5.651807e+2, 1.53922e+2, -1018840.6, -1324093.8, -11869.386, 0.063306265, -0.003009806, -1018379.8, 413185.38, 0.0, 10.003163, 9.999135 
5.651572e+2, 1.6392118e+2, -1014156.5, -1234771.8, 46483.61, -0.0055270772, -0.009916307, -1004762.4, 328809.38, 0.0, 10.002376, 9.999452 
5.651376e+2, 1.7392118e+2, -1137854.0, -1239556.4, 21192.477, 0.2435058, 0.035593957, -1133614.6, 101957.55, 0.0, 10.00083, 9.999492 
5.6511605e+2, 1.8392035e+2, -1224521.1, -1388970.0, 7495.446, 0.30368844, 0.06981831, -1224180.3, -86597.32, 0.0, 10.000245, 9.998072 
5.650912e+2, 1.9391818e+2, -1013109.1, -1255068.6, 50679.27, 0.07918599, 0.053995207, -1002923.0, 36686.145, 0.0, 10.001104, 9.997905 
5.650677e+2, 2.0391634e+2, -828255.6, -971838.7, 106350.82, -0.037308853, 0.026359288, -771733.0, 169895.92, 0.0, 10.001088, 9.999185 
5.650464e+2, 2.1391496e+2, -910585.3, -941645.9, 97045.75, 0.023403421, -0.05148507, -827835.06, 15803.668, 0.0, 9.999766, 9.999355 
5.6502455e+2, 2.2391464e+2, -926211.9, -890567.3, 39090.645, 0.07820725, -0.0169929, -865427.8, -119787.09, 0.0, 9.998949, 9.999426 
5.6500155e+2, 2.3391587e+2, -833706.4, -790490.1, 28645.428, 0.12907535, 0.15260498, -776216.9, -128585.266, 0.0, 9.998891, 9.999467 
5.6497836e+2, 2.4391542e+2, -766368.1, -767784.0, 48996.297, 0.13758315, 0.19057907, -718074.6, -168437.36, 0.0, 9.99895, 9.9989195 
5.6495464e+2, 2.5391233e+2, -630598.2, -659134.94, 62497.035, 0.08425501, -0.014962714, -580761.44, -129094.94, 0.0, 9.999236, 9.9988575 
5.6493086e+2, 2.6391095e+2, -507683.5, -451926.1, 28057.639, 0.061393104, -0.07057975, -440251.63, -86572.71, 0.0, 9.998996, 9.999721 
5.64907e+2, 2.739122e+2, -548352.1, -406858.9, -2834.548, 0.09804672, 0.063861415, -406802.16, -151136.02, 0.0, 9.997988, 9.99984 
5.648833e+2, 2.839121e+2, -530266.44, -307740.06, 23640.732, 0.09104639, 0.057598837, -305256.22, -147590.47, 0.00000046127252, 9.997256, 10.00021 
5.6485957e+2, 2.939101e+2, -472613.2, -224633.97, 11783.721, 0.0057406356, -0.17771806, -224075.28, -164392.63, 0.000007729108, 9.996956, 10.000255 
5.648352e+2, 3.039104e+2, -466156.3, -343718.78, -105287.38, 0.014409092, -0.104678355, -283146.03, -283146.03, 0.000034443015, 9.997292, 9.998943 
5.6481206e+2, 3.139132e+2, -182693.13, -25027.86, -21208.053, 0.3242784, 0.2840134, -22224.928, -22224.928, 0.00008580813, 9.998443, 10.000573 
5.752574e+2, 1.2394916e+2, -1281342.9, -1813053.9, 104886.805, 0.44028455, -0.035990268, -1261400.5, 463895.2, 0.0000051545812, 10.004308, 9.997231 
5.75225e+2, 1.3394791e+2, -1242699.5, -1742860.6, -11995.747, -0.43132493, 0.092995636, -1242412.0, 384900.72, 0.00000084591676, 10.003839, 9.997306 
5.752072e+2, 1.4394583e+2, -1051190.5, -1340722.9, -7464.576, 0.022597218, 0.060870785, -1050998.1, 478335.4, 0.00000002938157, 10.003397, 9.999582 
5.7518345e+2, 1.5394416e+2, -974673.9, -1223113.8, -17313.62, 0.01397493, -0.10077778, -973473.06, 457871.1, 0.0, 10.003125, 9.999848 
5.7515997e+2, 1.6394326e+2, -1055511.4, -1318312.9, -11496.154, 0.032564808, -0.12679797, -1055009.5, 278342.4, 0.0, 10.002358, 9.998888 
5.75137e+2, 1.7394342e+2, -1183663.8, -1343179.8, -33194.03, 0.091336936, 0.002270541, -1177032.1, 58324.13, 0.0, 10.000862, 9.998766 
5.751148e+2, 1.839435e+2, -1143980.8, -1226656.6, 28450.646, 0.15244389, 0.11869699, -1135136.4, 2223.364, 0.0, 10.00027, 9.999173 
5.750938e+2, 1.9394338e+2, -926248.3, -1066562.0, 87143.45, 0.22436978, 0.17793946, -884530.4, 154832.14, 0.0, 10.00107, 9.999216 
5.750716e+2, 2.039425e+2, -838168.7, -983904.75, 60176.74, 0.23412615, 0.17776309, -816532.8, 124838.164, 0.0, 10.001048, 9.999122 
5.750476e+2, 2.1394044e+2, -933687.75, -980146.4, 49543.49, 0.15651248, 0.055269424, -902198.1, -58809.926, 0.0, 9.999723, 9.999113 
5.75024e+2, 2.2393924e+2, -933765.0, -897937.9, 29129.438, 0.12566915, 0.015246072, -881654.6, -136255.23, 0.0, 9.998913, 9.9993925 
5.75001e+2, 2.3393929e+2, -842043.7, -798138.5, 31118.59, 0.17509264, 0.06970388, -782008.56, -134607.1, 0.0, 9.998851, 9.999435 
5.7497793e+2, 2.4393916e+2, -738855.9, -711225.9, 54804.19, 0.19253875, 0.12384901, -668522.25, -119118.375, 0.0, 9.998945, 9.999313 
5.749546e+2, 2.5393873e+2, -604696.3, -598128.56, 76922.58, 0.15515752, 0.14369747, -524419.8, -73012.37, 0.0, 9.999204, 9.999293 
5.749305e+2, 2.6393804e+2, -547845.44, -535408.25, -7943.3564, 0.115943395, 0.1586451, -531538.8, -178124.13, 0.0, 9.998989, 9.999154 
5.7490486e+2, 2.7393693e+2, -599119.5, -508848.6, -37774.25, 0.077401616, 0.12339817, -495127.4, -239699.06, 0.0, 9.997965, 9.999156 
5.748808e+2, 2.839364e+2, -559697.44, -358738.94, 4974.852, 0.10988385, 0.12743755, -358615.84, -201181.38, 0.0000006054728, 9.997213, 9.99988 
5.7485884e+2, 2.939369e+2, -502870.25, -273326.22, 6422.066, 0.23534626, 0.17343388, -273146.7, -213718.47, 0.000009214798, 9.996896, 9.9999485 
5.7483363e+2, 3.0393654e+2, -456190.47, -318901.9, -66705.64, 0.11992577, 0.18718453, -291829.53, -291829.53, 0.00003883035, 9.997273, 9.9991255 
5.748059e+2, 3.1393555e+2, -183387.45, -27248.129, 22636.898, -0.16029513, 0.17356193, -24032.482, -24032.482, 0.00009398202, 9.998447, 10.000558 
5.8526236e+2, 1.2397141e+2, -1090160.5, -1694466.8, 73001.47, 0.44257516, -0.08543805, -1081466.8, 643610.0, 0.0000028849724, 10.005512, 9.9974575 
5.8522856e+2, 1.3397023e+2, -1288463.1, -1728920.6, -30689.297, -0.42632726, 0.020511387, -1286335.1, 340756.5, 0.0000003255817, 10.00337, 9.997624 
5.852095e+2, 1.4396854e+2, -1304752.0, -1473374.9, 29472.752, 0.006956452, 0.01381395, -1299749.0, 229360.16, 0.0000000021906112, 10.001713, 9.999477 
5.8518577e+2, 1.5396725e+2, -1287895.9, -1389611.3, -46901.563, 0.048299715, -0.095914, -1269570.8, 161548.47, 0.0, 10.001046, 9.999701 
5.8516186e+2, 1.6396663e+2, -1222629.1, -1372252.8, -29925.154, 0.05269033, -0.0963307, -1216866.0, 116259.445, 0.0, 10.001095, 9.999125 
5.851378e+2, 1.7396699e+2, -965262.4, -1203848.6, 13882.442, 0.0118733365, 0.024896046, -964457.3, 270669.03, 0.0, 10.00222, 9.999064 
5.851152e+2, 1.8396705e+2, -822381.3, -1046389.75, 88402.26, 0.058817614, 0.1142313, -791697.4, 345431.06, 0.0, 10.002363, 9.999408 
5.850949e+2, 1.9396666e+2, -926754.06, -1039593.0, 61831.094, 0.24170046, 0.12170907, -899470.25, 139661.94, 0.0, 10.000947, 9.999463 
5.850729e+2, 2.0396607e+2, -945855.1, -1016246.5, 3836.7917, 0.30844745, 0.12838936, -945646.6, -4508.9604, 0.0, 10.000224, 9.999296 
5.850482e+2, 2.1396512e+2, -792024.4, -890515.8, 15938.403, 0.2059298, 0.09605836, -789509.3, 53637.168, 0.0, 10.000604, 9.999302 
5.8502406e+2, 2.2396415e+2, -710864.0, -798130.56, 18192.395, 0.1647589, 0.07419426, -707223.4, 37932.758, 0.0, 10.0004835, 9.999323 
5.850007e+2, 2.3396315e+2, -737112.7, -760315.6, 6188.925, 0.22528124, 0.03385146, -735565.1, -88397.74, 0.0, 9.999625, 9.999326 
5.8497715e+2, 2.4396275e+2, -701795.6, -650875.0, 51191.383, 0.22849686, 0.050391268, -619162.0, -69990.75, 0.0, 9.999016, 9.999696 
5.849535e+2, 2.539633e+2, -622121.3, -556419.56, 71133.984, 0.14177456, 0.1221201, -510917.25, -59753.24, 0.0, 9.998868, 9.999742 
5.849291e+2, 2.63963e+2, -576262.8, -575051.56, -7846.0405, 0.09474654, 0.16239557, -567787.8, -214620.0, 0.0, 9.998912, 9.998913 
5.849038e+2, 2.739614e+2, -427352.72, -463675.1, -19179.85, 0.11126817, 0.10922324, -419099.97, -163910.58, 0.0, 9.999306, 9.9988165 
5.848796e+2, 2.8396094e+2, -246949.53, -200014.47, 55764.168, 0.16490427, 0.13592327, -162981.02, -5784.763, 0.00000055145284, 9.999326, 9.999949 
5.848569e+2, 2.9396242e+2, -221474.48, -123016.31, 80739.25, 0.26798022, 0.27006572, -77681.51, -18502.518, 0.000008696917, 9.998769, 10.0000725 
5.848315e+2, 3.0396196e+2, -281113.3, -224056.0, 62560.57, 0.12198175, 0.2623004, -183826.31, -183826.31, 0.000037738446, 9.998437, 9.99921 
5.84804e+2, 3.1395945e+2, -222447.83, -74638.05, 115743.42, -0.18200532, 0.088295735, -11216.781, -11216.781, 0.000093645554, 9.9983, 10.0002985 
5.9526527e+2, 1.2399378e+2, -1012765.06, -1524807.8, 28901.295, 0.16391689, -0.08060532, -1011138.94, 713723.3, 0.0000011094934, 10.005476, 9.998639 
5.952332e+2, 1.3399272e+2, -1203361.6, -1550558.4, -111874.43, -0.3030505, -0.08730475, -1170435.6, 456433.56, 0.000000025767086, 10.003363, 9.998855 
5.952135e+2, 1.4399165e+2, -1353802.9, -1581170.1, -4033.1125, 0.23057096, -0.06358923, -1353731.4, 175148.84, 0.0, 10.001736, 9.998726 
5.951876e+2, 1.539912e+2, -1348584.3, -1527069.1, -65871.72, 0.119009495, 0.006536384, -1326906.5, 103983.945, 0.0, 10.001093, 9.998735 
5.9516275e+2, 1.6399121e+2, -1149243.4, -1223724.3, 3911.041, 0.024001708, 0.075156115, -1149038.5, 183853.97, 0.0, 10.001112, 10.000137 
5.951396e+2, 1.7399181e+2, -879270.44, -1025613.25, 60691.426, -0.029637085, 0.099959925, -857376.06, 377507.53, 0.0, 10.002218, 10.000292 
5.951168e+2, 1.8399101e+2, -868847.1, -1132600.8, 41186.78, -0.017280187, 0.06029816, -862565.1, 274324.44, 0.0, 10.002322, 9.998834 
5.950945e+2, 1.9398805e+2, -986525.2, -1157083.8, 11644.51, 0.096241556, -0.11045748, -985733.8, 53184.21, 0.0, 10.0009165, 9.9986725 
5.950717e+2, 2.0398708e+2, -916695.5, -948878.6, 9045.926, 0.15448622, -0.11999359, -914327.2, 26601.416, 0.0, 10.000196, 9.999771 
5.950481e+2, 2.1398902e+2, -757621.6, -807485.9, 35456.52, 0.1355122, 0.07674849, -739208.94, 103703.98, 0.0, 10.000555, 9.999896 
5.9502447e+2, 2.2398943e+2, -722905.7, -817858.9, -13791.715, 0.15672433, 0.1636882, -720943.06, 23967.588, 0.0, 10.000456, 9.999202 
5.950005e+2, 2.3398747e+2, -758078.8, -794832.9, -23678.285, 0.2399464, 0.050034143, -746482.9, -99553.58, 0.0, 9.999585, 9.999109 
5.9497607e+2, 2.4398617e+2, -675504.25, -594712.44, 38653.543, 0.20642948, -0.02900429, -579198.4, -30258.74, 0.0, 9.999003, 10.00009 
5.9495103e+2, 2.5398594e+2, -592056.3, -488190.4, 67810.46, 0.0030581658, -0.082496546, -454710.88, -3774.1501, 0.0, 9.998841, 10.000224 
5.949268e+2, 2.6398578e+2, -571037.2, -561154.75, 2366.8606, -0.04006715, -0.061557274, -560617.1, -207678.55, 0.0, 9.998898, 9.999017 
5.9490365e+2, 2.739855e+2, -425776.4, -458217.53, 717.5858, 0.15744664, 0.015555215, -425760.53, -170810.67, 0.0, 9.999294, 9.998861 
5.948795e+2, 2.8398558e+2, -210978.61, -129246.4, 34271.58, 0.21496852, 0.072927736, -116777.9, 40173.64, 0.0000003359344, 9.99934, 10.000429 
5.9485364e+2, 2.9398653e+2, -185141.52, -46486.4, 62540.22, 0.05274998, 0.09746224, -22445.928, 36489.723, 0.00000683328, 9.99876, 10.000606 
5.948285e+2, 3.0398655e+2, -288085.38, -230209.6, 56860.855, -0.020594008, 0.10665975, -195346.55, -195346.55, 0.0000338567, 9.998407, 9.999181 
5.9480643e+2, 3.1398517e+2, -267204.53, -151397.13, 104962.664, 0.21854918, 0.05750375, -89425.89, -89425.89, 0.00008915562, 9.998232, 9.999804 
6.052685e+2, 1.24019615e+2, -1380350.0, -1682230.5, 218131.63, 0.07677802, 0.0090281265, -1266027.4, 458584.4, 0.00000031635014, 10.002853, 9.998834 
6.052375e+2, 1.3401805e+2, -1245037.8, -1546979.0, -46283.848, -0.18531938, -0.06480247, -1238102.3, 388520.13, 0.000000000013925105, 10.002979, 9.999061 
6.0521674e+2, 1.4401689e+2, -1202582.6, -1523238.1, 72141.53, 0.33343396, -0.05581645, -1187099.6, 341533.94, 0.0, 10.002837, 9.998593 
6.0518914e+2, 1.5401644e+2, -1130905.8, -1440124.4, 62174.793, 0.08892787, 0.03229136, -1118872.5, 311771.34, 0.0, 10.002666, 9.998573 
6.051635e+2, 1.6401646e+2, -995938.3, -1156321.6, 150933.92, -0.058308713, 0.11260318, -905215.5, 427430.6, 0.0, 10.002194, 10.000079 
6.0514116e+2, 1.7401701e+2, -1029409.44, -1102496.6, 112815.266, -0.042076226, 0.13818076, -947366.7, 287271.13, 0.0, 10.001209, 10.000251 
6.051184e+2, 1.8401596e+2, -1126866.0, -1248078.5, 41194.457, 0.0028068759, 0.07425735, -1114191.3, 22454.262, 0.0, 10.000514, 9.998911 
6.0509497e+2, 1.940125e+2, -1075496.5, -1185759.3, 64547.703, 0.091181114, -0.15773737, -1045740.5, -7063.1265, 0.0, 10.000253, 9.99879 
6.050714e+2, 2.0401135e+2, -970139.0, -982797.94, 108213.34, 0.13452455, -0.18667084, -868070.2, 72619.16, 0.0, 9.999861, 9.999705 
6.050478e+2, 2.1401358e+2, -960194.4, -915303.25, 81309.55, 0.12156489, 0.049198374, -853398.06, -10725.48, 0.0, 9.999201, 9.999814 
6.050241e+2, 2.240143e+2, -856075.25, -873159.3, 38567.18, 0.12731569, 0.16837777, -825115.5, -80447.24, 0.0, 9.999505, 9.99928 
6.05e+2, 2.3401265e+2, -510201.9, -661424.0, 47688.805, 0.1621663, 0.0733792, -496419.16, 150264.27, 0.0, 10.00123, 9.999229 
6.049754e+2, 2.4401131e+2, -336787.28, -448970.16, 60430.48, 0.12802263, -0.009211966, -310428.2, 238266.3, 0.0, 10.001417, 9.999921 
6.0495e+2, 2.540105e+2, -522310.0, -477115.47, 24893.201, -0.0072132065, -0.09681892, -466092.7, -15393.971, 0.0, 9.99942, 10.000019 
6.049256e+2, 2.640104e+2, -610515.06, -522174.66, -997.8176, -0.019555109, -0.08244515, -522163.4, -169463.67, 0.0, 9.998367, 9.999548 
6.049025e+2, 2.740111e+2, -469436.97, -409529.72, 40283.035, 0.15571073, 0.029503515, -389284.3, -134585.86, 0.0, 9.998686, 9.999495 
6.0487825e+2, 2.840112e+2, -295807.28, -192708.13, 59925.95, 0.18603823, 0.06312696, -165210.39, -8512.183, 0.00000016006682, 9.998858, 10.000225 
6.0485184e+2, 2.9401088e+2, -193985.33, -84808.14, 15151.572, 0.00037268738, -0.00909871, -82744.42, -24049.414, 0.0000051844427, 9.998846, 10.000299 
6.04827e+2, 3.0401093e+2, -259667.13, -188084.42, -18909.947, -0.01638072, 0.009562825, -183396.06, -183396.06, 0.000029848581, 9.998476, 9.999439 
6.0480577e+2, 3.140102e+2, -368860.88, -175723.48, 33423.09, 0.37358537, -0.006489754, -170103.06, -170103.06, 0.00008365637, 9.997435, 10.000023 
6.1527175e+2, 1.240487e+2, -1413316.4, -1766462.1, 232558.84, 0.10026228, 0.18633936, -1297893.4, 426434.6, 0.000000083479186, 10.00293, 9.998213 
6.1524135e+2, 1.3404605e+2, -1298212.0, -1658601.1, -42569.02, -0.10837489, 0.08097636, -1293252.0, 333100.7, 0.0, 10.002989, 9.998288 
6.152193e+2, 1.4404403e+2, -1171811.6, -1458996.5, 60355.633, 0.2930909, 0.025702765, -1159642.8, 368728.34, 0.0, 10.002827, 9.999043 
6.151903e+2, 1.5404283e+2, -1087122.3, -1355954.5, 58625.668, -0.070941426, -0.017421007, -1074893.8, 355487.34, 0.0, 10.0026865, 9.9991455 
6.1516404e+2, 1.6404225e+2, -1072461.9, -1310776.0, 114927.734, -0.22889297, 0.02106495, -1026069.0, 306318.5, 0.0, 10.002181, 9.999023 
6.151423e+2, 1.7404248e+2, -1116193.8, -1283370.1, 79972.37, -0.057478487, 0.13659061, -1084098.9, 150291.03, 0.0, 10.001213, 9.999008 
6.1511976e+2, 1.8404184e+2, -1078604.5, -1143135.1, 25555.371, 0.08444129, 0.14888832, -1069710.0, 66686.74, 0.0, 10.000493, 9.9996395 
6.150962e+2, 1.9403991e+2, -1012334.9, -1054068.9, 59078.637, 0.18590668, -0.021783158, -970546.4, 67864.2, 0.0, 10.000246, 9.999699 
6.150721e+2, 2.040388e+2, -1013837.06, -1069545.8, 82078.15, 0.20997056, -0.071194485, -955015.7, -14595.07, 0.0, 9.999844, 9.999115 
6.1504716e+2, 2.1403882e+2, -1016564.94, -1026627.56, 59738.527, 0.12733874, 0.016017308, -961646.2, -119220.42, 0.0, 9.999175, 9.999062 
6.1502284e+2, 2.2403882e+2, -837639.56, -828708.4, 92601.02, 0.0419427, 0.08976615, -740465.3, 3963.3918, 0.0, 9.999478, 9.999598 
6.149993e+2, 2.3403867e+2, -483766.75, -600252.75, 117310.5, -0.04411466, 0.103011064, -411036.47, 235393.02, 0.0, 10.001203, 9.999663 
6.1497515e+2, 2.4403812e+2, -394305.6, -564350.75, -6309.375, -0.043689452, 0.1102903, -394071.8, 154364.05, 0.0, 10.001398, 9.999138 
6.1495036e+2, 2.54037e+2, -593386.56, -618211.75, -48723.945, 0.08084438, 0.08222569, -555519.0, -105068.76, 0.0, 9.99939, 9.999066 
6.1492544e+2, 2.6403692e+2, -543832.0, -378465.16, -240.72972, 0.12408299, 0.10702909, -378464.8, -26013.625, 0.0, 9.998345, 10.000543 
6.149003e+2, 2.7403817e+2, -390825.75, -235652.34, 56076.61, 0.056593735, 0.15505958, -217508.78, 36925.766, 0.0, 9.998642, 10.000708 
6.148757e+2, 2.8403777e+2, -365744.03, -332268.47, 57118.06, 0.035499062, 0.114226416, -289486.28, -133050.86, 0.00000012615395, 9.998831, 9.999281 
6.148515e+2, 2.940354e+2, -283753.47, -264297.94, 18442.643, 0.0736334, -0.050419617, -253174.8, -194717.13, 0.000004328694, 9.998816, 9.999083 
6.148266e+2, 3.0403504e+2, -226802.66, -110589.57, -57948.24, 0.097980864, -0.027631532, -86632.914, -86632.914, 0.000026339554, 9.998439, 9.999989 
6.148014e+2, 3.1403455e+2, -317664.03, -48135.934, -6038.258, 0.17478724, -0.09533668, -48000.727, -48000.727, 0.00007734693, 9.997349, 10.000937 
6.252753e+2, 1.2407575e+2, -1101182.3, -1647060.9, 243348.66, 0.054850552, 0.12532371, -1008451.75, 715608.2, 0.000000013492005, 10.005209, 9.997935 
6.252439e+2, 1.340734e+2, -1316547.3, -1708599.1, -39390.938, -0.14497532, 0.09137773, -1312628.6, 313454.88, 0.0, 10.003045, 9.997917 
6.2522066e+2, 1.4407146e+2, -1308319.9, -1509765.0, 121933.42, 0.20234956, 0.056954924, -1250888.1, 277213.53, 0.0, 10.001837, 9.999167 
6.2519294e+2, 1.540699e+2, -1124265.1, -1353821.1, 91984.75, -0.05821415, -0.037995312, -1091954.1, 338158.97, 0.0, 10.002358, 9.999314 
6.25167e+2, 1.6406873e+2, -1113349.6, -1407605.0, 108224.516, -0.15038301, -0.03733321, -1077832.6, 254292.95, 0.0, 10.002225, 9.998341 
6.251444e+2, 1.7406802e+2, -1192124.4, -1402788.8, 94557.28, 0.044220775, 0.06145144, -1155908.1, 78231.8, 0.0, 10.001051, 9.998263 
6.2512106e+2, 1.8406765e+2, -1010053.94, -1058250.4, 105502.97, 0.15547925, 0.11871582, -925932.0, 210214.0, 0.0, 10.000732, 10.000111 
6.250966e+2, 1.9406761e+2, -774131.44, -872202.56, 113908.83, 0.13960905, 0.07746478, -699152.06, 338989.13, 0.0, 10.001587, 10.000304 
6.2507206e+2, 2.04067e+2, -728632.4, -971727.7, 112466.72, 0.12327707, 0.062733226, -684582.4, 255563.6, 0.0, 10.001976, 9.998759 
6.2504745e+2, 2.1406552e+2, -683567.94, -912696.0, 101341.98, 0.113588125, 0.044678107, -645177.3, 196987.77, 0.0, 10.001672, 9.998636 
6.2502307e+2, 2.2406477e+2, -676176.75, -752027.6, 150058.33, 0.06665549, 0.06845587, -559325.44, 184849.89, 0.0, 10.0005865, 9.999593 
6.2499917e+2, 2.3406501e+2, -889778.2, -792181.0, 140419.22, -0.027272077, 0.11685938, -692322.75, -46149.227, 0.0, 9.998393, 9.999702 
6.2497485e+2, 2.4406491e+2, -922973.6, -822769.44, 34961.05, -0.029444704, 0.16800317, -811777.4, -263600.6, 0.0, 9.997775, 9.999113 
6.249499e+2, 2.540643e+2, -592654.7, -619027.7, 53437.766, 0.101878375, 0.19307525, -550800.5, -100612.84, 0.0, 9.999399, 9.999055 
6.24925e+2, 2.6406422e+2, -251884.84, -238064.11, 123548.52, 0.14924929, 0.21773507, -121232.84, 230955.34, 0.0, 10.000353, 10.000541 
6.249e+2, 2.740647e+2, -141551.75, -115215.71, 82412.984, 0.080556765, 0.18864417, -44925.383, 209250.33, 0.0, 10.00035, 10.000715 
6.248751e+2, 2.8406394e+2, -220511.95, -282904.8, 43587.285, 0.053342395, 0.11860178, -198107.36, -41928.074, 0.000000116905284, 9.999908, 9.999106 
6.248504e+2, 2.940617e+2, -294392.16, -294354.53, 68715.555, 0.08702334, -0.011885607, -225657.78, -167454.83, 0.000004282829, 9.99884, 9.998868 
6.2482536e+2, 3.0406144e+2, -207854.47, -110251.195, 37023.504, 0.12951633, 0.040899888, -97796.49, -97796.49, 0.000025214384, 9.998604, 9.999911 
6.247998e+2, 3.140604e+2, 24268.578, 150630.66, 15308.572, 0.18147577, -0.080459476, 152458.83, 152458.83, 0.00007395699, 9.999529, 10.00126 
6.3527906e+2, 1.24101e+2, -1101347.8, -1638927.6, 163529.6, -0.11341553, -0.14849482, -1055511.0, 668294.56, 0.0000000049225286, 10.005172, 9.998012 
6.3524526e+2, 1.3410023e+2, -1317602.4, -1710386.6, -123363.14, -0.31784242, -0.023163179, -1282071.4, 343743.06, 0.0, 10.003041, 9.997909 
6.352208e+2, 1.4409915e+2, -1319679.1, -1538234.4, 127839.72, 0.032596696, 0.04082385, -1260776.5, 267049.28, 0.0, 10.001854, 9.998966 
6.351968e+2, 1.5409757e+2, -1138566.3, -1385996.0, 117618.164, 0.08328082, -0.036787048, -1091578.4, 338262.47, 0.0, 10.002365, 9.999092 
6.3517207e+2, 1.6409576e+2, -1137500.0, -1450979.4, 65963.74, 0.12518145, -0.072977066, -1124185.1, 207675.69, 0.0, 10.002199, 9.998054 
6.351473e+2, 1.7409366e+2, -1210023.8, -1446363.8, 53852.527, 0.22285257, -0.085881986, -1198331.3, 35556.676, 0.0, 10.001075, 9.997955 
6.3512206e+2, 1.8409336e+2, -992248.5, -1024045.44, 128850.88, 0.18079048, -0.014076443, -878319.0, 257574.61, 0.0, 10.000746, 10.000339 
6.3509613e+2, 1.9409554e+2, -758082.3, -833934.56, 149133.5, -0.0745013, 0.13852909, -642128.0, 395741.72, 0.0, 10.001565, 10.000578 
6.3507134e+2, 2.040959e+2, -744065.7, -991106.0, 99509.72, -0.14669982, 0.21139155, -708968.6, 230897.2, 0.0, 10.001922, 9.998652 
6.3504845e+2, 2.1409364e+2, -701539.6, -937932.44, 92471.99, 0.04459689, 0.1320784, -669664.5, 172226.5, 0.0, 10.001619, 9.998489 
6.3502467e+2, 2.2409214e+2, -707793.06, -804330.6, 70338.99, 0.16378175, 0.103923455, -670753.9, 73154.62, 0.0, 10.000531, 9.999258 
6.3499963e+2, 2.3409165e+2, -919260.1, -845153.9, 61386.688, 0.17677537, 0.11374936, -810504.44, -164588.7, 0.0, 9.998358, 9.999354 
6.349743e+2, 2.4409172e+2, -872825.6, -712830.56, 80656.46, 0.13336486, 0.16432613, -679227.6, -131310.75, 0.0, 9.997748, 9.999882 
6.349485e+2, 2.5409245e+2, -533650.6, -491221.28, 118820.35, 0.013650321, 0.23802334, -391736.6, 58173.617, 0.0, 9.999373, 9.999948 
6.3492405e+2, 2.6409224e+2, -327797.8, -392306.47, 126665.64, 0.01868531, 0.24804863, -229344.34, 122566.44, 0.0, 10.000341, 9.999485 
6.349015e+2, 2.7409056e+2, -233955.3, -300049.1, 86118.66, 0.19760439, 0.12524405, -174760.55, 79162.13, 0.0, 10.000322, 9.999457 
6.3487667e+2, 2.8408957e+2, -174017.47, -185590.08, 1248.998, 0.20944323, 0.072583616, -173884.2, -17953.871, 0.0000001448745, 9.999902, 9.999782 
6.3484836e+2, 2.9408985e+2, -240582.55, -171924.83, 31031.824, -0.009318272, 0.11369544, -159977.94, -102048.445, 0.0000050785306, 9.998796, 9.999732 
6.348231e+2, 3.0409038e+2, -263927.06, -219403.22, 67945.81, 0.03213718, 0.23264372, -170165.31, -170165.31, 0.000027373664, 9.998575, 9.999176 
6.34801e+2, 3.1408793e+2, -11163.035, 97830.83, 62175.563, 0.327989, 0.05447189, 126012.29, 126012.29, 0.00007720963, 9.999455, 10.000929 
6.4528364e+2, 1.2412889e+2, -1405401.5, -1717061.6, 118760.164, -0.038910158, -0.12618951, -1365305.6, 358228.3, 0.0000000021351345, 10.002782, 9.99863 
6.4524835e+2, 1.3412744e+2, -1309911.6, -1641998.9, -147626.97, -0.29394785, -0.12809844, -1253774.6, 371770.63, 0.0, 10.002821, 9.998482 
6.452224e+2, 1.4412646e+2, -1259852.8, -1550859.3, 162569.48, -0.022229305, -0.06612932, -1187181.8, 340373.25, 0.0, 10.0024395, 9.998601 
6.4519966e+2, 1.5412593e+2, -1259194.1, -1493073.1, 131630.16, 0.17202339, 0.0053259367, -1200061.6, 229502.67, 0.0, 10.001744, 9.998656 
6.4517504e+2, 1.6412446e+2, -1188880.8, -1451761.9, 96009.266, 0.23427369, 0.015092687, -1157550.4, 174031.88, 0.0, 10.00174, 9.998271 
6.451487e+2, 1.7412171e+2, -956223.4, -1291594.9, 119649.016, 0.17928985, -0.08891856, -917913.0, 315698.7, 0.0, 10.002678, 9.998246 
6.4512265e+2, 1.8412083e+2, -790357.94, -1021825.25, 176698.77, 0.077038966, -0.050949194, -694864.9, 440757.56, 0.0, 10.002543, 9.999488 
6.4509696e+2, 1.941225e+2, -924515.2, -1019400.8, 100147.38, -0.10581136, 0.145037, -861141.4, 176466.38, 0.0, 10.00088, 9.999631 
6.450724e+2, 2.0412265e+2, -979730.5, -1072765.3, 42761.316, -0.14443602, 0.23409724, -963062.44, -23454.838, 0.0, 10.000165, 9.998937 
6.4504945e+2, 2.1412061e+2, -797484.5, -942287.4, 69942.36, 0.030011863, 0.13642703, -769218.7, 72410.05, 0.0, 10.000774, 9.99887 
6.450253e+2, 2.2411937e+2, -636409.2, -777343.0, 38659.67, 0.15659136, 0.11545444, -626501.0, 117142.01, 0.0, 10.001049, 9.999196 
6.4499956e+2, 2.3411919e+2, -571149.4, -688514.8, 34965.785, 0.21467808, 0.1668189, -561522.0, 84125.98, 0.0, 10.000798, 9.999254 
6.4497393e+2, 2.4411908e+2, -446731.25, -499306.16, 116694.22, 0.1796017, 0.20416994, -353400.25, 194249.52, 0.0, 10.00064, 9.999957 
6.449484e+2, 2.54119e+2, -341892.44, -388401.97, 96894.5, 0.014984079, 0.18651502, -265501.2, 184146.64, 0.0, 10.000644, 10.000045 
6.44924e+2, 2.6411825e+2, -373115.88, -447373.13, 58136.29, -0.0062042135, 0.15243252, -341263.63, 10388.549, 0.0, 10.00017, 9.99919 
6.44901e+2, 2.7411652e+2, -445158.1, -439238.78, 76789.695, 0.18042693, 0.05522876, -365351.72, -111685.48, 0.000000000000000000046744374, 9.999034, 9.99912 
6.44876e+2, 2.8411573e+2, -338270.22, -273236.78, 29992.951, 0.20804274, 0.043193746, -261516.48, -105842.64, 0.00000034821963, 9.998821, 9.999693 
6.448479e+2, 2.9411638e+2, -90182.305, -106838.33, -16380.643, 0.019147018, 0.12574153, -80134.21, -22462.729, 0.000006846114, 9.999861, 9.999665 
6.448225e+2, 3.0411693e+2, -117913.66, -123262.99, 5092.1646, 0.074458405, 0.24108887, -114836.45, -114836.45, 0.000033104992, 9.999464, 9.999408 
6.4479893e+2, 3.1411543e+2, -293713.47, 29730.604, 70735.664, 0.29772115, 0.13067037, 44523.582, 44523.582, 0.000088752815, 9.997211, 10.001541 
6.552889e+2, 1.2415913e+2, -1338668.6, -1558586.9, 105344.78, 0.19128917, 0.14873244, -1296350.0, 426897.2, 0.0000000012982254, 10.002701, 9.999754 
6.552529e+2, 1.3415505e+2, -1236309.1, -1487273.5, -148949.14, -0.12883092, -0.2239026, -1167030.9, 458244.53, 0.0, 10.002816, 9.999544 
6.5522504e+2, 1.4415346e+2, -1290963.1, -1623235.4, 130422.84, -0.0074148225, -0.25939047, -1245885.3, 281403.38, 0.0, 10.00247, 9.998092 
6.5520155e+2, 1.5415494e+2, -1298810.9, -1586652.0, 107813.13, 0.17569108, 0.0814142, -1262907.1, 166376.98, 0.0, 10.00179, 9.997995 
6.5517604e+2, 1.6415471e+2, -1136239.1, -1350041.9, 121499.29, 0.14904018, 0.22079511, -1081307.4, 249982.98, 0.0, 10.001772, 9.998952 
6.551485e+2, 1.7415209e+2, -899298.2, -1176731.1, 156508.67, -0.11197736, 0.04776443, -828880.2, 404431.94, 0.0, 10.002687, 9.999031 
6.551227e+2, 1.8414995e+2, -923419.3, -1289717.1, 115985.766, -0.18247667, 0.0012336804, -889782.06, 245551.73, 0.0, 10.002509, 9.997664 
6.55099e+2, 1.9414851e+2, -1074638.4, -1321896.3, 40202.81, 0.0025259193, 0.09505565, -1068265.9, -30910.508, 0.0, 10.000844, 9.997571 
6.550749e+2, 2.0414734e+2, -939000.25, -981745.06, 55953.508, 0.08434607, 0.13430656, -900476.25, 38894.188, 0.0, 10.000134, 9.999578 
6.550502e+2, 2.1414642e+2, -738565.56, -811866.94, 97410.52, 0.026249355, 0.058606315, -671138.94, 170239.22, 0.0, 10.000738, 9.999783 
6.5502495e+2, 2.2414641e+2, -630439.44, -752155.06, 27662.775, 0.011737535, 0.10208066, -624447.4, 118931.35, 0.0, 10.000997, 9.999393 
6.549988e+2, 2.341476e+2, -569116.6, -672371.1, 28561.664, 0.053852398, 0.27725673, -561742.6, 83627.45, 0.0, 10.000751, 9.999386 
6.5497357e+2, 2.4414697e+2, -495828.66, -595071.9, 112715.914, 0.07678728, 0.28595278, -422295.16, 125080.63, 0.0, 10.000612, 9.999312 
6.549498e+2, 2.5414383e+2, -394516.97, -492489.3, 100189.29, 0.074449934, 0.031942766, -331979.44, 117422.086, 0.0, 10.000624, 9.999338 
6.5492475e+2, 2.6414227e+2, -336538.34, -368887.34, 14217.838, 0.045466285, -0.07335469, -331177.72, 20235.03, 0.0, 10.000156, 9.999739 
6.5489805e+2, 2.7414277e+2, -406676.63, -346732.3, 37595.063, -0.020940697, -0.0074333134, -328624.13, -75219.414, 0.0000000002377775, 9.998979, 9.999785 
6.5487266e+2, 2.841425e+2, -407027.56, -406011.94, 61307.836, -0.003928413, 0.037236575, -345209.8, -189801.03, 0.0000008000927, 9.99878, 9.998799 
6.54849e+2, 2.9414108e+2, -168354.83, -258454.95, 27119.549, 0.13691838, 0.017702635, -160821.83, -103391.83, 0.0000102621225, 9.99982, 9.998641 
6.548234e+2, 3.0414093e+2, -27258.1, 64067.105, -76197.42, 0.21995825, 0.055504598, 107236.484, 107236.484, 0.000043104363, 9.999465, 10.000697 
6.547932e+2, 3.141429e+2, -194308.05, 264983.6, 2699.152, -0.011717342, 0.14607958, 264999.44, 264999.44, 0.000108066146, 9.997096, 10.003214 
6.652906e+2, 1.2418787e+2, -1757559.5, -1721638.3, 148348.98, 0.25621316, 0.2781144, -1590166.6, 132806.16, 0.00000000035571668, 9.99964, 10.000115 
6.6525656e+2, 1.3418403e+2, -1356626.5, -1512188.4, -165519.95, 0.01953563, -0.102012366, -1251523.0, 373474.03, 0.0, 10.001836, 9.999851 
6.652283e+2, 1.4418203e+2, -1200464.0, -1597579.4, 62261.277, 0.042406525, -0.18915002, -1190931.3, 336081.53, 0.0, 10.00318, 9.99792 
6.652035e+2, 1.5418251e+2, -1040341.94, -1485009.5, 60618.08, 0.10825506, 0.07358155, -1032226.44, 396790.22, 0.0, 10.003674, 9.997781 
6.6517735e+2, 1.6418219e+2, -909235.3, -1238605.8, 69472.75, 0.032883868, 0.21382198, -895181.4, 435842.0, 0.0, 10.0033245, 9.998966 
6.6515005e+2, 1.7418064e+2, -1028391.25, -1229232.6, 41819.844, -0.17741124, 0.14297761, -1020031.4, 213003.39, 0.0, 10.001769, 9.9991045 
6.6512436e+2, 1.8417856e+2, -1157155.4, -1427467.4, 22974.166, -0.18561845, 0.10448894, -1155216.8, -20160.982, 0.0, 10.001013, 9.997441 
6.651007e+2, 1.9417566e+2, -1024146.1, -1328009.8, 70957.23, 0.072773255, 0.07916476, -1008393.1, 28697.105, 0.0, 10.001316, 9.997307 
6.650762e+2, 2.0417388e+2, -839022.0, -942729.25, 147991.48, 0.16670233, 0.07430315, -734062.75, 205048.13, 0.0, 10.00086, 9.999496 
6.650503e+2, 2.1417347e+2, -945580.8, -918359.4, 111873.29, 0.04112682, 0.0570673, -819271.9, 21841.813, 0.0, 9.99935, 9.999717 
6.650246e+2, 2.241735e+2, -889658.44, -893278.1, 42181.66, -0.031203793, 0.11705285, -849247.8, -106134.3, 0.0, 9.99929, 9.999246 
6.649988e+2, 2.3417415e+2, -515640.6, -666574.8, 18807.955, -0.03335102, 0.2532797, -513332.22, 131777.55, 0.0, 10.001198, 9.999213 
6.6497386e+2, 2.4417323e+2, -381572.4, -576563.44, 50994.04, 0.00060598383, 0.2563127, -369041.72, 178077.02, 0.0, 10.001557, 9.998983 
6.6495e+2, 2.5417012e+2, -537516.5, -600706.5, 51693.35, 0.084468484, 0.039740156, -508527.28, -59381.49, 0.0, 9.99981, 9.998986 
6.649247e+2, 2.6416874e+2, -452898.1, -388153.25, 3540.1055, 0.07235246, -0.041849107, -387960.28, -36804.914, 0.0, 9.999196, 10.000069 
6.64897e+2, 2.7416974e+2, -207592.5, -204840.83, 3099.2227, -0.07539152, 0.03566377, -202825.78, 50315.082, 0.0000000023427176, 10.000146, 10.0001955 
6.648716e+2, 2.8416952e+2, -212065.05, -349410.47, 50944.438, -0.063105814, 0.07937413, -195231.75, -40088.21, 0.0000014418595, 10.000275, 9.998471 
6.64849e+2, 2.9416743e+2, -273848.78, -348026.06, 58254.758, 0.18522066, 0.025626237, -241878.14, -184706.36, 0.000014782389, 9.99926, 9.998296 
6.6482323e+2, 3.0416623e+2, -105149.49, 6445.4067, -90687.79, 0.282941, -0.013995606, 57126.266, 57126.266, 0.000056755354, 9.999024, 10.000512 
6.647907e+2, 3.1416854e+2, 185918.67, 409180.34, -146026.6, -0.09480704, 0.13120025, 481357.03, 481357.03, 0.00013493579, 9.999878, 10.002868 
6.752889e+2, 1.2421535e+2, -1767947.5, -1761349.5, 204195.42, 0.11104077, 0.27806273, -1560426.5, 162282.52, 0.0000000023126079, 9.999728, 9.999796 
6.752595e+2, 1.3421428e+2, -1377226.0, -1562849.8, -84000.47, 0.118278995, 0.21134809, -1344857.5, 279853.28, 0.0, 10.001876, 9.99948 
6.75232e+2, 1.4421205e+2, -1192585.6, -1580517.1, 79267.32, 0.082507506, 0.11889619, -1177013.8, 349714.2, 0.0, 10.003173, 9.998041 
6.7520547e+2, 1.5420884e+2, -1030960.44, -1461241.3, 82557.7, -0.07670732, -0.0076763057, -1015663.94, 413096.84, 0.0, 10.003653, 9.997954 
6.751789e+2, 1.6420716e+2, -952397.0, -1319161.6, 12519.033, -0.15128826, 0.01198613, -951970.2, 378808.94, 0.0, 10.003285, 9.998433 
6.751531e+2, 1.7420755e+2, -1070198.5, -1317266.3, -12541.892, -0.059934106, 0.19701079, -1069563.5, 163214.56, 0.0, 10.001773, 9.998501 
6.7512745e+2, 1.8420668e+2, -1065863.9, -1237684.6, 24657.334, 0.016431835, 0.2535185, -1062395.4, 72392.11, 0.0, 10.001011, 9.998745 
6.75102e+2, 1.9420397e+2, -925980.6, -1116536.8, 84795.59, 0.062578276, 0.09983804, -893711.8, 143100.47, 0.0, 10.001285, 9.998773 
6.750761e+2, 2.0420223e+2, -901055.25, -1064121.4, 91915.07, 0.07230518, 0.058539666, -859722.44, 79106.58, 0.0, 10.000825, 9.998682 
6.750497e+2, 2.1420172e+2, -1020180.1, -1067080.3, 57382.055, 0.039981592, 0.13269615, -981641.44, -140806.0, 0.0, 9.999323, 9.998711 
6.7502415e+2, 2.242007e+2, -927670.4, -966595.44, 101011.25, -0.0090835905, 0.16119085, -844263.75, -101416.65, 0.0, 9.999264, 9.998755 
6.749996e+2, 2.3419887e+2, -550722.25, -732391.8, 95925.54, -0.08255024, 0.094144054, -509448.5, 135418.17, 0.0, 10.001168, 9.9987755 
6.7497456e+2, 2.4419789e+2, -389488.72, -585977.75, -7400.8687, -0.08755647, 0.11759485, -389210.34, 157667.58, 0.0, 10.001529, 9.99893 
6.749491e+2, 2.5419793e+2, -546856.56, -608823.0, -12079.339, 0.0063935043, 0.2194321, -544585.1, -95705.695, 0.0, 9.999762, 9.998954 
6.749236e+2, 2.641978e+2, -450902.28, -375496.7, 29058.031, 0.04008365, 0.25813317, -365598.3, -14719.365, 0.0, 9.99916, 10.000173 
6.7489785e+2, 2.7419746e+2, -201731.64, -189533.08, 44377.656, -0.018214688, 0.18588701, -150837.52, 102037.68, 0.0000000015372758, 10.0001335, 10.000307 
6.748725e+2, 2.841968e+2, -187638.55, -301627.84, 14142.225, -0.0077853804, 0.16844955, -185910.17, -31031.564, 0.0000017821444, 10.000287, 9.998792 
6.748476e+2, 2.941956e+2, -258255.17, -303045.38, 23001.008, 0.11277283, 0.1687568, -248547.52, -191653.1, 0.000018938657, 9.999205, 9.9986315 
6.748216e+2, 3.0419296e+2, -238052.98, -260005.6, -65003.176, 0.21382196, 0.048045643, -183105.9, -183105.9, 0.00007225524, 9.998985, 9.998697 
6.747916e+2, 3.1419206e+2, 8796.539, 44234.895, -93551.36, -0.020488182, 0.075181924, 121730.35, 121730.35, 0.00016863653, 9.999872, 10.000357 
6.852894e+2, 1.2424179e+2, -1495608.4, -1682792.9, 253501.17, 0.08099993, 0.17055728, -1318974.1, 403471.5, 0.0000000036242784, 10.001814, 9.999338 
6.852618e+2, 1.3424172e+2, -1299090.1, -1578297.8, -39010.543, 0.13517454, 0.2554569, -1293742.1, 330700.84, 0.0, 10.002651, 9.998997 
6.852347e+2, 1.4423971e+2, -1270850.6, -1596807.6, 67151.35, 0.076502845, 0.20190549, -1257558.6, 268901.34, 0.0, 10.00254, 9.998236 
6.852084e+2, 1.5423596e+2, -1346234.3, -1586937.5, 64125.168, -0.026145399, -0.0036307743, -1330216.8, 98278.49, 0.0, 10.001366, 9.998199 
6.8518186e+2, 1.6423395e+2, -1301698.5, -1507058.8, 13896.128, -0.055561587, -0.02347954, -1300762.5, 29753.98, 0.0, 10.00097, 9.998265 
6.85156e+2, 1.7423433e+2, -1109005.6, -1361693.3, 8977.441, 0.073439986, 0.18178943, -1108687.0, 123831.19, 0.0, 10.001612, 9.998281 
6.851298e+2, 1.8423365e+2, -925345.0, -1133154.9, 47902.55, 0.12079173, 0.25759944, -914834.5, 219691.5, 0.0, 10.001818, 9.999073 
6.8510306e+2, 1.9423145e+2, -880864.9, -1049262.9, 24312.203, 0.042654626, 0.11381032, -877425.1, 159118.28, 0.0, 10.001402, 9.999174 
6.8507665e+2, 2.0422983e+2, -829117.0, -1069063.8, 2023.2009, 0.017876517, 0.07814983, -829099.94, 109457.99, 0.0, 10.001494, 9.9983225 
6.850508e+2, 2.1422896e+2, -618311.75, -920969.56, 2329.2568, 0.06806778, 0.15710312, -618293.8, 222275.22, 0.0, 10.002285, 9.998286 
6.850252e+2, 2.2422767e+2, -555841.7, -788395.1, 99555.51, 0.048716825, 0.18255559, -519044.66, 223538.73, 0.0, 10.001819, 9.99875 
6.850001e+2, 2.3422572e+2, -768689.7, -833695.6, 121104.09, -0.0646056, 0.10190807, -675802.7, -31199.922, 0.0, 9.999653, 9.998811 
6.8497485e+2, 2.4422465e+2, -756707.5, -775608.0, 42107.59, -0.08633757, 0.11873589, -723002.75, -176388.02, 0.0, 9.999055, 9.998823 
6.849493e+2, 2.542247e+2, -434791.34, -566263.1, 25996.844, 0.016961452, 0.23165405, -429837.44, 18779.732, 0.0, 10.00058, 9.998851 
6.849239e+2, 2.642244e+2, -204654.69, -288806.0, 61100.4, 0.06872949, 0.27408397, -172543.95, 178075.27, 0.0, 10.00099, 9.999887 
6.848985e+2, 2.742236e+2, -255899.9, -249221.52, 35049.617, 0.052637424, 0.18923227, -217352.39, 35268.434, 0.00000000039754933, 9.999903, 10.0000105 
6.848727e+2, 2.84223e+2, -297270.75, -317104.56, -19540.516, 0.03575497, 0.17351004, -285274.72, -130651.22, 0.0000019350068, 9.999374, 9.999126 
6.848461e+2, 2.9422238e+2, -165211.48, -211589.06, -14794.609, 0.035153925, 0.19877177, -160893.9, -104263.86, 0.000022513892, 9.999643, 9.999047 
6.8481976e+2, 3.0421978e+2, -156957.05, -288961.97, -19967.91, 0.10002096, 0.08315401, -154002.7, -154002.7, 0.000087464054, 9.99982, 9.9981 
6.847913e+2, 3.1421793e+2, -101678.64, -136582.5, 55611.3, -0.014173897, 0.087082855, -60845.184, -60845.184, 0.00020410729, 9.999652, 9.999221 
6.9529146e+2, 1.24267295e+2, -1525758.0, -1756066.8, 244615.4, 0.08152803, -0.03985892, -1370547.4, 351635.4, 0.00000000017840025, 10.001868, 9.998802 
6.9526356e+2, 1.3426673e+2, -1343002.0, -1666573.1, -8019.412, 0.0377173, 0.056534365, -1342803.4, 281387.34, 0.0, 10.0026455, 9.998388 
6.952365e+2, 1.4426528e+2, -1254599.1, -1561139.6, 21757.393, -0.005155011, 0.07726176, -1253062.5, 273143.9, 0.0, 10.002529, 9.9984865 
6.952122e+2, 1.5426387e+2, -1317342.0, -1537793.9, 23459.56, 0.20408194, 0.07549423, -1314873.3, 113347.016, 0.0, 10.001408, 9.998518 
6.951861e+2, 1.6426244e+2, -1288346.6, -1487127.6, 27719.994, 0.2580491, 0.09249494, -1284553.5, 45682.668, 0.0, 10.001002, 9.998384 
6.951588e+2, 1.74261e+2, -1099809.5, -1345264.0, 35211.33, 0.18021865, 0.10323314, -1094858.3, 137396.69, 0.0, 10.001621, 9.998388 
6.951314e+2, 1.8425961e+2, -967555.75, -1217399.1, 30947.84, 0.095290326, 0.12581232, -963779.4, 170491.0, 0.0, 10.001803, 9.998501 
6.951039e+2, 1.9425818e+2, -927537.4, -1143374.5, 11257.611, -0.020263564, 0.12186237, -926951.8, 109330.93, 0.0, 10.00139, 9.998532 
6.950777e+2, 2.0425671e+2, -825454.25, -1057567.8, 23752.332, -0.034620937, 0.13270707, -823048.56, 115248.4, 0.0, 10.001476, 9.998411 
6.9505334e+2, 2.1425515e+2, -615099.7, -904399.44, 35237.55, 0.08768097, 0.13075323, -610869.5, 229444.75, 0.0, 10.002241, 9.998423 
6.950277e+2, 2.2425443e+2, -530916.6, -726346.0, 22185.436, 0.10820679, 0.18485762, -528429.75, 213892.25, 0.0, 10.001774, 9.999197 
6.950003e+2, 2.3425469e+2, -743572.6, -769065.7, 42241.746, -0.010604716, 0.27577925, -712196.2, -67877.94, 0.0, 9.9996, 9.999278 
6.949745e+2, 2.4425349e+2, -770057.7, -793657.3, 86237.66, -0.03023549, 0.2592955, -694816.3, -148487.39, 0.0, 9.999014, 9.998718 
6.949506e+2, 2.5425035e+2, -448683.75, -589616.56, 87877.164, 0.08012474, 0.06919666, -406509.53, 41849.49, 0.0, 10.000557, 9.998702 
6.9492555e+2, 2.6424846e+2, -255156.81, -392739.38, 24774.836, 0.12976141, -0.0040431917, -250831.53, 99544.95, 0.0, 10.000986, 9.999175 
6.948989e+2, 2.7424824e+2, -315963.63, -365247.06, -2470.1802, 0.10021628, 0.043645933, -315840.13, -63462.31, 0.0000000054780975, 9.999866, 9.999232 
6.948721e+2, 2.8424802e+2, -278469.5, -270002.2, -16034.483, 0.028632194, 0.093122296, -257651.86, -103273.24, 0.000002355568, 9.99934, 9.999465 
6.948445e+2, 2.9424772e+2, -138194.23, -148877.7, 2140.484, -0.10678602, 0.10577798, -137781.33, -81401.44, 0.000026314181, 9.999616, 9.99949 
6.9481754e+2, 3.0424657e+2, -106020.86, -178958.16, -26903.35, -0.10822854, 0.079088464, -97171.164, -97171.164, 0.00010198075, 9.999807, 9.998859 
6.9478965e+2, 3.1424657e+2, -89062.55, -92778.37, 67581.42, -0.15667509, 0.18612732, -23313.504, -23313.504, 0.00023747227, 9.999584, 9.999551 
7.052937e+2, 1.24292724e+2, -1410320.6, -1724196.5, 110044.8, 0.084396, -0.088804305, -1375583.4, 346346.78, 0.0, 10.002759, 9.998596 
7.05266e+2, 1.3429202e+2, -1466071.8, -1748270.8, -105556.76, 0.06778046, 0.011251225, -1430957.5, 192984.69, 0.0, 10.001894, 9.998192 
7.052385e+2, 1.4429072e+2, -1402793.6, -1593954.0, -60128.82, 0.009421407, 0.042012118, -1385453.3, 140504.66, 0.0, 10.001349, 9.998828 
7.052141e+2, 1.542904e+2, -1262257.6, -1463753.4, -61614.363, 0.25936228, 0.10820601, -1244910.4, 183050.94, 0.0, 10.001598, 9.998925 
7.051879e+2, 1.642893e+2, -1171367.3, -1443840.8, -27023.197, 0.30358148, 0.14114448, -1168713.1, 161261.06, 0.0, 10.001868, 9.9982605 
7.051602e+2, 1.7428711e+2, -1049866.4, -1337389.8, -44486.066, 0.15052713, 0.09528194, -1043140.8, 188859.27, 0.0, 10.002043, 9.998235 
7.051329e+2, 1.8428557e+2, -913981.3, -1196336.5, -52757.88, 0.0435323, 0.11193705, -904445.56, 229571.8, 0.0, 10.0021925, 9.998458 
7.0510566e+2, 1.942847e+2, -795419.44, -1086778.9, -39621.434, -0.023427922, 0.1717128, -790127.5, 245897.17, 0.0, 10.002321, 9.998479 
7.0507944e+2, 2.042834e+2, -762516.06, -1022980.5, -820.0554, -0.024160521, 0.19882715, -762513.44, 175524.16, 0.0, 10.00189, 9.998451 
7.050546e+2, 2.1428144e+2, -838365.06, -1005598.94, -3996.16, 0.06858175, 0.15024443, -838269.6, 1788.626, 0.0, 10.000684, 9.998478 
7.0502865e+2, 2.242804e+2, -719603.5, -803751.94, -38754.28, 0.09884674, 0.16432881, -704475.1, 37592.906, 0.0, 10.0004225, 9.999314 
7.0500135e+2, 2.3428048e+2, -468083.84, -622386.0, -52668.73, 0.044705965, 0.22676384, -451820.34, 192244.13, 0.0, 10.001435, 9.9994 
7.0497537e+2, 2.4427947e+2, -364808.6, -552439.1, 35175.25, 0.029770153, 0.2037076, -358431.03, 187640.83, 0.0, 10.001599, 9.999128 
7.04951e+2, 2.5427696e+2, -403064.97, -519874.28, 76810.805, 0.0686696, 0.030554056, -364976.1, 83118.54, 0.0, 10.000662, 9.999131 
7.049256e+2, 2.642753e+2, -416014.78, -507859.06, 21825.861, 0.088375986, -0.028266802, -411091.94, -60981.44, 0.0, 10.000047, 9.998836 
7.048986e+2, 2.7427474e+2, -347659.7, -423069.25, 12330.317, 0.08900446, 0.027783966, -345694.75, -93576.875, 0.000000016182126, 9.999835, 9.998845 
7.048716e+2, 2.842743e+2, -224959.11, -224196.98, 41015.652, 0.04011216, 0.065913446, -183560.63, -29438.79, 0.0000029996863, 9.999618, 9.999648 
7.048442e+2, 2.9427394e+2, -157661.47, -132310.34, 39365.094, -0.0764778, 0.050137516, -103630.375, -47508.82, 0.000030264622, 9.999366, 9.999727 
7.048173e+2, 3.0427343e+2, -146006.02, -129188.21, 2830.5544, -0.07681227, 0.04276701, -128724.586, -128724.586, 0.00011479558, 9.999239, 9.9994755 
7.047897e+2, 3.1427306e+2, -110256.45, -47853.78, 80753.76, -0.08945689, 0.056968573, 7516.777, 7516.777, 0.0002649436, 9.999192, 10.000053 
7.15296e+2, 1.24318115e+2, -1397780.9, -1702718.6, 46647.02, 0.015701754, 0.0058595026, -1390804.9, 330881.44, 0.0, 10.002779, 9.998731 
7.152691e+2, 1.343175e+2, -1447952.3, -1719700.1, -137005.13, 0.1773793, 0.09655094, -1390870.0, 232827.11, 0.0, 10.001933, 9.998368 
7.152406e+2, 1.4431608e+2, -1363640.9, -1527705.9, -58391.29, 0.0725471, 0.084790416, -1344981.4, 180731.97, 0.0, 10.001411, 9.999254 
7.152144e+2, 1.5431565e+2, -1225801.6, -1399092.5, -46474.11, 0.11455131, 0.09786573, -1214124.8, 213591.83, 0.0, 10.001639, 9.9993515 
7.151875e+2, 1.643146e+2, -1194813.5, -1493666.1, -22147.916, 0.065411, 0.12906858, -1193181.0, 136547.61, 0.0, 10.001874, 9.997915 
7.151605e+2, 1.7431271e+2, -1076325.0, -1396770.4, -32396.297, -0.04151733, 0.15235528, -1073082.6, 158670.2, 0.0, 10.002061, 9.99782 
7.1513397e+2, 1.8431152e+2, -883549.6, -1132535.5, -49804.68, -0.06891295, 0.20537315, -873956.75, 259810.11, 0.0, 10.002186, 9.9989 
7.151082e+2, 1.9431111e+2, -765483.3, -1015102.25, -29456.02, -0.00692996, 0.25945535, -762054.5, 273714.34, 0.0, 10.002277, 9.998992 
7.1508175e+2, 2.0430999e+2, -773264.8, -1030766.4, -46303.17, 0.011249403, 0.27831697, -765191.8, 172587.27, 0.0, 10.001832, 9.998423 
7.1505433e+2, 2.143078e+2, -851998.25, -1020095.3, -47695.31, -0.025081426, 0.2139316, -839408.25, 392.72906, 0.0, 10.000628, 9.998403 
7.15028e+2, 2.2430554e+2, -739079.9, -834506.56, -10834.087, -0.009942257, 0.12032843, -737865.3, 3956.3389, 0.0, 10.000379, 9.999126 
7.150031e+2, 2.3430316e+2, -485430.16, -652291.8, -10473.667, 0.067246065, -0.043715615, -484775.28, 159065.83, 0.0, 10.001407, 9.99921 
7.149773e+2, 2.4430269e+2, -303265.63, -418441.25, 479.3007, 0.058421735, -0.047881804, -303263.63, 242579.63, 0.0, 10.001574, 10.000062 
7.1495044e+2, 2.543046e+2, -338249.9, -375816.84, 42999.28, -0.05773008, 0.12186011, -310110.5, 137713.19, 0.0, 10.000623, 10.000139 
7.149238e+2, 2.6430494e+2, -416006.66, -500745.44, 8395.531, -0.09578936, 0.20710267, -415182.88, -65362.01, 0.0, 10.000014, 9.9989 
7.1489733e+2, 2.743032e+2, -354926.25, -426430.8, 9286.108, -0.0327363, 0.14352135, -353739.97, -101899.13, 0.000000020828322, 9.999785, 9.998846 
7.148712e+2, 2.8430188e+2, -225500.55, -220934.66, 28735.322, 0.033748884, 0.092626944, -194391.73, -40538.633, 0.0000037479972, 9.999597, 9.999683 
7.148454e+2, 2.9430118e+2, -160864.47, -130833.625, 35920.55, 0.09893267, 0.040371105, -106916.43, -51062.074, 0.000034324887, 9.999336, 9.999752 
7.148191e+2, 3.0430034e+2, -112175.016, -56678.625, -1142.6971, 0.16972116, -0.023384769, -56655.105, -56655.105, 0.00012562028, 9.999225, 9.999979 
7.147908e+2, 3.1429762e+2, -74552.58, 46515.105, 94292.69, 0.09377812, -0.3039614, 98032.4, 98032.4, 0.00028501154, 9.999109, 10.000737 
7.2529835e+2, 1.2434382e+2, -1488934.6, -1701881.3, 68241.06, 0.024203828, 0.060103074, -1468942.9, 252496.25, 0.0, 10.001939, 9.999154 
7.252717e+2, 1.3434348e+2, -1381574.6, -1628686.4, -81392.266, 0.2480748, 0.12802708, -1357175.3, 266269.22, 0.0, 10.002134, 9.998897 
7.252427e+2, 1.4434212e+2, -1245120.5, -1482805.9, 19013.451, 0.101364866, 0.10063768, -1243609.1, 281850.06, 0.0, 10.002279, 9.9991455 
7.2521555e+2, 1.5434173e+2, -1115352.9, -1362029.1, -15465.569, 0.036406294, 0.13430285, -1114387.0, 313076.28, 0.0, 10.002468, 9.9992075 
7.251886e+2, 1.6434063e+2, -1117743.9, -1438856.5, -3658.005, -0.027441718, 0.16222638, -1117702.3, 211773.19, 0.0, 10.002323, 9.998077 
7.251624e+2, 1.7433862e+2, -1107994.8, -1389650.4, 20119.633, -0.03135191, 0.1534848, -1106564.8, 124933.68, 0.0, 10.001747, 9.998018 
7.251363e+2, 1.8433736e+2, -1005235.44, -1177805.1, 23885.848, -0.0040792446, 0.18230721, -1001990.4, 131521.61, 0.0, 10.001292, 9.999021 
7.2511035e+2, 1.9433694e+2, -948080.44, -1089083.0, 10422.93, 0.05092422, 0.22354467, -947314.1, 88200.06, 0.0, 10.000966, 9.999114 
7.2508335e+2, 2.0433594e+2, -908802.94, -1076641.0, -22215.195, 0.050136454, 0.24193105, -905912.3, 31610.51, 0.0, 10.000814, 9.998599 
7.2505504e+2, 2.1433406e+2, -806554.56, -980024.44, -11703.058, -0.016048828, 0.19131555, -805768.56, 33772.484, 0.0, 10.000854, 9.998572 
7.2502834e+2, 2.2433187e+2, -708486.1, -832768.5, 75803.09, -0.022605427, 0.098558605, -672608.75, 68952.57, 0.0, 10.000643, 9.99901 
7.250036e+2, 2.3432921e+2, -686151.44, -764985.9, 73153.664, 0.049607106, -0.0792633, -642471.3, 1113.2238, 0.0, 10.000098, 9.999064 
7.249778e+2, 2.443289e+2, -583931.3, -552005.0, 28582.658, 0.052514162, -0.0577587, -535229.94, 10356.25, 0.0, 9.999637, 10.000078 
7.2495055e+2, 2.5433162e+2, -532037.25, -465465.53, -10788.534, -0.0378859, 0.19009627, -463760.8, -16200.281, 0.0, 9.999272, 10.000175 
7.249236e+2, 2.643324e+2, -520219.25, -501300.84, -44500.082, -0.06976104, 0.29616496, -465265.72, -115712.164, 0.0, 9.999088, 9.999342 
7.2489685e+2, 2.7433056e+2, -415456.4, -404105.72, -15158.46, -0.018060733, 0.17453848, -393595.0, -142022.4, 0.000000011844985, 9.999147, 9.999308 
7.2487086e+2, 2.8432924e+2, -279685.56, -250356.66, 31047.914, 0.064092174, 0.098361105, -230684.27, -77099.52, 0.0000046664522, 9.999251, 9.9996395 
7.248455e+2, 2.943286e+2, -151339.7, -136568.42, 20930.256, 0.17799143, 0.06260306, -121758.945, -66171.9, 0.00003902921, 9.99945, 9.999654 
7.248193e+2, 3.0432802e+2, -104078.125, -40167.445, -43018.785, 0.27000389, 0.025815548, -18533.986, -18533.986, 0.00013569239, 9.999228, 10.0000925 
7.247908e+2, 3.143249e+2, -144607.89, 66278.15, 9878.229, 0.22622256, -0.30963993, 66739.85, 66739.85, 0.0002996597, 9.998385, 10.001227 
7.3530066e+2, 1.2436985e+2, -1431904.3, -1588101.5, 43062.43, 0.04422594, 0.083103746, -1420818.9, 300369.7, 0.0, 10.0019655, 9.999919 
7.3527396e+2, 1.3436997e+2, -1317966.0, -1503831.5, -73413.92, 0.25456417, 0.11283687, -1292467.0, 330717.4, 0.0, 10.002167, 9.999738 
7.3524463e+2, 1.4436883e+2, -1288359.0, -1572602.3, 21633.57, 0.064511806, 0.09034683, -1286721.9, 238473.92, 0.0, 10.002284, 9.998522 
7.352175e+2, 1.5436861e+2, -1165848.0, -1469678.6, -3010.5295, -0.02068378, 0.2132215, -1165818.1, 261383.56, 0.0, 10.002481, 9.99846 
7.3519105e+2, 1.643674e+2, -1070106.5, -1342351.1, -27239.492, -0.019756334, 0.23607694, -1067407.8, 261807.1, 0.0, 10.00233, 9.998737 
7.351659e+2, 1.7436486e+2, -1055123.9, -1279493.5, 1631.2976, 0.14248487, 0.101171345, -1055112.0, 176125.19, 0.0, 10.001743, 9.998778 
7.3513967e+2, 1.8436311e+2, -1020807.5, -1205517.4, 8247.305, 0.20014104, 0.050505582, -1020440.0, 112812.62, 0.0, 10.001274, 9.998839 
7.35112e+2, 1.9436222e+2, -969172.6, -1127330.3, 1950.8723, 0.112571, 0.07055285, -969148.56, 66111.85, 0.0, 10.000945, 9.99886 
7.350843e+2, 2.0436135e+2, -883090.44, -1017917.56, -24515.217, 0.05825353, 0.09384299, -878771.3, 58497.105, 0.0, 10.000789, 9.999016 
7.3505664e+2, 2.1436034e+2, -775260.3, -911063.1, -6502.4463, 0.05149104, 0.083650075, -774949.6, 64328.117, 0.0, 10.000835, 9.999054 
7.3502946e+2, 2.2435945e+2, -719718.56, -848007.06, 52354.29, 0.021330604, 0.10049593, -701065.1, 40221.13, 0.0, 10.000608, 9.998923 
7.350028e+2, 2.343586e+2, -701716.2, -787990.8, 55660.555, -0.042774495, 0.11614549, -674433.9, -31139.146, 0.0, 10.000057, 9.998928 
7.349767e+2, 2.443581e+2, -651570.8, -682957.44, 10967.287, -0.023870857, 0.16841969, -648118.4, -102817.27, 0.0, 9.9995985, 9.999196 
7.3495126e+2, 2.5435805e+2, -605074.44, -604253.7, -21048.682, 0.09720523, 0.232894, -583611.4, -136306.17, 0.0, 9.999219, 9.999247 
7.349248e+2, 2.6435775e+2, -468775.8, -385103.16, -45772.97, 0.14195204, 0.23841608, -364927.84, -15619.342, 0.0, 9.999048, 10.000159 
7.348972e+2, 2.743569e+2, -355564.78, -271695.9, -7621.1626, 0.09690602, 0.12359962, -271009.0, -19696.307, 0.000000051096855, 9.999113, 10.000236 
7.348704e+2, 2.8435633e+2, -290584.97, -269589.8, 35257.27, 0.084048316, 0.08367511, -243300.52, -89983.82, 0.0000058850314, 9.999236, 9.999513 
7.348444e+2, 2.9435626e+2, -174440.56, -171645.16, 34155.42, 0.10669943, 0.12053812, -138858.86, -83539.28, 0.000043358832, 9.999395, 9.999437 
7.3481756e+2, 3.0435663e+2, -134655.77, -94084.43, -72558.48, 0.17396319, 0.20770392, -39029.266, -39029.266, 0.00014281429, 9.99919, 9.999739 
7.347894e+2, 3.1435522e+2, -144932.86, 87887.49, -11713.588, 0.22339208, 0.0777036, 88475.34, 88475.34, 0.00030710292, 9.998299, 10.001413 
7.4530244e+2, 1.24396965e+2, -1459117.1, -1663347.3, 131004.3, 0.028205395, 0.09430096, -1395131.0, 325789.84, 0.0, 10.002047, 9.999361 
7.45276e+2, 1.3439646e+2, -1244869.3, -1519760.3, -66639.47, 0.20579171, 0.11280951, -1229566.3, 393358.03, 0.0, 10.002898, 9.99927 
7.452467e+2, 1.4439502e+2, -1222601.5, -1550175.4, -33193.27, 0.025754936, 0.08854173, -1219271.9, 305667.78, 0.0, 10.002774, 9.998441 
7.4521995e+2, 1.5439491e+2, -1300617.0, -1540631.3, -20004.408, 0.024500178, 0.22655861, -1298961.1, 127983.73, 0.0, 10.001584, 9.9984045 
7.451935e+2, 1.6439378e+2, -1226807.0, -1390192.3, -7505.207, 0.059354268, 0.24985729, -1226462.9, 102493.44, 0.0, 10.001137, 9.998983 
7.4516803e+2, 1.743913e+2, -1051249.0, -1246886.4, -19361.738, 0.19251727, 0.09222009, -1049351.3, 181625.11, 0.0, 10.001636, 9.999052 
7.4514127e+2, 1.8438946e+2, -950627.3, -1183523.6, -31028.986, 0.21662104, 0.022297045, -946564.2, 186427.67, 0.0, 10.001805, 9.9987335 
7.451129e+2, 1.943883e+2, -889071.7, -1103528.6, -35317.586, 0.08603514, 0.027732084, -883405.1, 151597.83, 0.0, 10.001555, 9.99873 
7.4508506e+2, 2.043873e+2, -792264.0, -966975.1, -53049.01, 0.034066666, 0.04439418, -777417.8, 159594.52, 0.0, 10.001381, 9.999082 
7.450581e+2, 2.143865e+2, -704965.4, -867137.7, -68586.31, 0.092188604, 0.0439518, -679848.7, 159171.31, 0.0, 10.00128, 9.999142 
7.450309e+2, 2.2438608e+2, -628366.56, -793410.25, -24236.24, 0.07699979, 0.09928303, -624881.2, 116142.73, 0.0, 10.001189, 9.999021 
7.4500334e+2, 2.3438607e+2, -547287.0, -703670.25, -12367.897, -0.037380923, 0.19027606, -546314.9, 96709.47, 0.0, 10.001069, 9.999024 
7.449767e+2, 2.4438529e+2, -520648.8, -654144.9, -27837.773, -0.030039294, 0.21979804, -515076.44, 29957.502, 0.0, 10.000645, 9.998892 
7.449511e+2, 2.5438341e+2, -531379.44, -607161.7, -24439.703, 0.13617152, 0.13796772, -524181.34, -77125.63, 0.0, 9.999888, 9.998906 
7.449246e+2, 2.6438263e+2, -384731.25, -308162.47, -15629.08, 0.20161198, 0.09870806, -305095.16, 43967.95, 0.0, 9.999467, 10.000487 
7.4489695e+2, 2.7438307e+2, -275860.53, -190226.81, -25285.682, 0.14543171, 0.07601805, -183317.94, 67735.57, 0.00000017449423, 9.999478, 10.000617 
7.448697e+2, 2.8438324e+2, -295946.13, -260604.64, -2389.472, 0.10578859, 0.08383157, -260443.81, -107393.18, 0.0000070142673, 9.999145, 9.999622 
7.44843e+2, 2.943831e+2, -318134.56, -231602.72, 8734.127, 0.090173036, 0.10607458, -230729.95, -175673.73, 0.000045203302, 9.998363, 9.999527 
7.4481606e+2, 3.043836e+2, -288425.9, -210585.17, -66230.81, 0.14926404, 0.21947873, -172685.52, -172685.52, 0.00014394909, 9.998309, 9.99937 
7.447885e+2, 3.1438372e+2, -28455.934, 139650.05, -23064.098, 0.27376175, 0.28017643, 142757.0, 142757.0, 0.00030552503, 9.999112, 10.001382 
7.553034e+2, 1.2442503e+2, -1576366.4, -1914935.3, 121694.52, -0.09617155, 0.089647174, -1537163.9, 183473.98, 0.0, 10.002088, 9.997613 
7.552776e+2, 1.34423e+2, -1366606.3, -1769765.1, -33100.285, 0.07483492, 0.12231956, -1363906.8, 258757.64, 0.0, 10.002889, 9.997559 
7.552489e+2, 1.4442076e+2, -1194957.3, -1488695.1, -77374.55, -0.04342897, 0.09152217, -1175822.3, 348868.0, 0.0, 10.002753, 9.998875 
7.552227e+2, 1.5442078e+2, -1255433.8, -1452526.8, -59568.984, 0.12989037, 0.18453614, -1238828.8, 187862.6, 0.0, 10.001608, 9.999 
7.551958e+2, 1.6441989e+2, -1230540.5, -1408148.4, 4303.526, 0.16901997, 0.2078528, -1230436.3, 98263.055, 0.0, 10.001179, 9.99884 
7.5516874e+2, 1.7441794e+2, -1066159.6, -1278334.5, 3568.864, 0.09302367, 0.123764664, -1066099.6, 164616.03, 0.0, 10.001637, 9.998837 
7.5514126e+2, 1.8441637e+2, -954466.9, -1185730.9, -41147.46, 0.020900873, 0.09289514, -947363.9, 185365.7, 0.0, 10.0017805, 9.99873 
7.5511307e+2, 1.9441514e+2, -894762.2, -1105650.0, -40410.92, -0.060422685, 0.08962258, -887283.75, 147458.23, 0.0, 10.001515, 9.998735 
7.5508565e+2, 2.0441388e+2, -817956.7, -1010570.0, -60527.613, -0.052274115, 0.09295665, -800515.56, 136238.78, 0.0, 10.001339, 9.998802 
7.550592e+2, 2.1441254e+2, -733501.44, -914080.9, -69272.57, 0.07464012, 0.070003115, -709989.06, 128778.336, 0.0, 10.001228, 9.998843 
7.550324e+2, 2.2441179e+2, -617189.3, -756011.1, -31061.537, 0.11152824, 0.09479553, -610556.25, 130217.52, 0.0, 10.001129, 9.999307 
7.550051e+2, 2.3441172e+2, -529669.56, -657933.6, -12516.727, 0.028992472, 0.14606522, -528459.5, 114313.13, 0.0, 10.001032, 9.999354 
7.5497764e+2, 2.4441047e+2, -506882.8, -621005.0, -58619.508, -0.0019525635, 0.1026868, -482137.97, 62645.984, 0.0, 10.000623, 9.99913 
7.5495e+2, 2.5440767e+2, -518133.44, -576537.25, -49453.586, 0.03449364, -0.09912689, -489903.6, -43091.43, 0.0, 9.999873, 9.9991255 
7.5492275e+2, 2.6440704e+2, -399927.06, -334386.13, -18695.87, 0.06263731, -0.124746434, -329428.1, 19389.396, 0.0, 9.999448, 10.000314 
7.5489587e+2, 2.7440906e+2, -297156.75, -223755.7, -18637.701, 0.08270312, 0.03226455, -219294.45, 31500.623, 0.0000002213921, 9.999434, 10.000406 
7.5486875e+2, 2.8440988e+2, -278148.94, -216143.16, -33373.895, 0.09096176, 0.10035011, -201593.92, -48807.164, 0.000006955663, 9.999111, 9.999945 
7.548413e+2, 2.9440913e+2, -301215.75, -183359.06, -17164.967, 0.08217422, 0.023304932, -180910.0, -126113.28, 0.000043838252, 9.998303, 9.999888 
7.548144e+2, 3.0440885e+2, -320917.78, -264512.97, -38538.645, 0.15068327, 0.056051195, -244959.72, -244959.72, 0.0001394824, 9.998256, 9.9990225 
7.5478804e+2, 3.1440994e+2, -49772.727, 107539.97, 19353.82, 0.29583415, 0.25360048, 109886.04, 109886.04, 0.0002957357, 9.999063, 10.001184 
7.653062e+2, 1.2445124e+2, -1327056.0, -1798897.9, -10545.246, -0.107434176, 0.04008401, -1326820.4, 393559.44, 0.0, 10.0037985, 9.997586 
7.652802e+2, 1.3444978e+2, -1512451.1, -1835465.6, -36233.742, 0.1076495, 0.12444516, -1508436.6, 113964.21, 0.0, 10.00186, 9.997603 
7.652512e+2, 1.4444755e+2, -1424464.3, -1605566.8, 1642.3235, -0.0003119049, 0.09224346, -1424449.4, 99977.21, 0.0, 10.001202, 9.998821 
7.652246e+2, 1.5444677e+2, -1148981.5, -1409810.9, -31363.113, 0.12418253, 0.11324292, -1145263.3, 281171.47, 0.0, 10.002368, 9.998931 
7.651974e+2, 1.6444582e+2, -1016335.3, -1284491.1, 15508.318, 0.14193666, 0.124941595, -1015441.4, 313001.72, 0.0, 10.002564, 9.9990225 
7.6517004e+2, 1.7444466e+2, -1061535.5, -1253058.9, 35114.805, 0.070473395, 0.10050372, -1055300.4, 175151.34, 0.0, 10.001572, 9.9990425 
7.6514244e+2, 1.8444365e+2, -1052642.4, -1216423.0, 24354.467, 0.010349187, 0.108858734, -1049097.5, 83362.7, 0.0, 10.001036, 9.9988785 
7.651144e+2, 1.944427e+2, -949543.8, -1115004.0, 30207.729, -0.045087367, 0.12094763, -944201.4, 90268.33, 0.0, 10.001065, 9.998888 
7.6508695e+2, 2.044414e+2, -878667.0, -1061510.4, 25720.635, -0.02864051, 0.118101545, -875117.75, 61365.156, 0.0, 10.001015, 9.998609 
7.6506025e+2, 2.1443948e+2, -802806.25, -973890.9, 16273.528, 0.08208645, 0.06376688, -801272.06, 37229.523, 0.0, 10.000859, 9.998613 
7.6503325e+2, 2.2443832e+2, -717672.06, -792838.25, 44334.004, 0.12262877, 0.05456701, -697134.6, 43377.426, 0.0, 10.000396, 9.999402 
7.650057e+2, 2.3443802e+2, -742534.6, -748315.9, 36863.05, 0.07063357, 0.07311716, -708449.06, -65936.195, 0.0, 9.999524, 9.999457 
7.6497793e+2, 2.4443696e+2, -688305.56, -687965.9, -512.90906, 0.031183794, 0.03474842, -687595.44, -143073.56, 0.0, 9.999291, 9.999309 
7.649495e+2, 2.544349e+2, -510650.53, -550275.1, -816.51434, 0.004879946, -0.10945303, -510633.72, -64091.82, 0.0, 9.999837, 9.999317 
7.6492196e+2, 2.644345e+2, -332401.34, -342585.84, 28788.516, 0.013255021, -0.10920844, -308258.2, 40287.49, 0.0, 10.000084, 9.999952 
7.648954e+2, 2.7443597e+2, -251413.69, -245219.92, 4285.977, 0.07588816, 0.033095192, -243029.06, 7501.0146, 0.00000016204108, 9.999931, 10.000021 
7.648683e+2, 2.8443643e+2, -203642.48, -186308.94, -42438.508, 0.118724816, 0.09026398, -151661.28, 863.95233, 0.0000062859385, 9.999649, 9.999892 
7.6484054e+2, 2.9443553e+2, -174090.19, -122308.7, -63690.965, 0.13235922, -0.0006945441, -79447.22, -24912.033, 0.000041485197, 9.999184, 9.999881 
7.648132e+2, 3.044344e+2, -182129.3, -223922.48, -36954.535, 0.15989622, -0.0417364, -160572.31, -160572.31, 0.00013263787, 9.999327, 9.99878 
7.647869e+2, 3.1443554e+2, 73340.02, 127366.2, 18655.273, 0.23373565, 0.18785459, 133181.86, 133181.86, 0.0002807991, 10.000091, 10.000816 
7.753103e+2, 1.2447598e+2, -1233848.0, -1583675.4, -110951.914, -0.09146319, -0.044349693, -1201626.1, 518515.84, 0.00000000003061157, 10.003706, 9.999109 
7.7528363e+2, 1.344769e+2, -1392650.0, -1596458.6, -109325.94, 0.25162792, 0.11653162, -1345099.8, 277033.34, 0.0, 10.001897, 9.999228 
7.7525353e+2, 1.4447527e+2, -1453590.9, -1678218.1, 32773.543, 0.10613662, 0.083394356, -1448906.9, 75243.24, 0.0, 10.001255, 9.998297 
7.752256e+2, 1.5447293e+2, -1196971.4, -1507569.0, 17023.475, -0.015516732, 0.016659709, -1196041.1, 230133.7, 0.0, 10.002359, 9.998264 
7.751981e+2, 1.6447164e+2, -984765.9, -1213857.1, -20137.709, -0.04483918, 0.004806647, -983009.2, 345177.66, 0.0, 10.00254, 9.999519 
7.751719e+2, 1.744715e+2, -1020465.44, -1170242.3, 1371.4534, 0.08529012, 0.026096767, -1020452.9, 209731.39, 0.0, 10.001579, 9.999609 
7.751448e+2, 1.8447132e+2, -1031467.44, -1171544.5, 19444.898, 0.13729745, 0.073373474, -1028818.25, 103365.43, 0.0, 10.001033, 9.999189 
7.7511686e+2, 1.9447102e+2, -934899.4, -1075210.0, 33570.188, 0.08679337, 0.120192535, -927281.2, 106905.31, 0.0, 10.001023, 9.999182 
7.750889e+2, 2.0446981e+2, -896087.9, -1084241.0, 15546.868, 0.06360149, 0.11969315, -894811.94, 41386.383, 0.0, 10.000959, 9.998478 
7.750611e+2, 2.1446739e+2, -821362.44, -1000078.56, 13112.8, 0.075935915, 0.027196502, -820405.44, 17816.89, 0.0, 10.000811, 9.998454 
7.750331e+2, 2.2446573e+2, -733696.44, -816208.3, 8090.9873, 0.072517976, -0.01652555, -732910.56, 7327.865, 0.0, 10.000351, 9.999265 
7.750051e+2, 2.3446491e+2, -757535.06, -770383.75, 7234.8286, 0.05164595, -0.035806555, -754283.94, -112038.18, 0.0, 9.999483, 9.999326 
7.749772e+2, 2.4446473e+2, -685433.5, -672060.2, 13403.169, 0.033765897, 0.013108083, -663768.3, -119520.4, 0.0, 9.999249, 9.999439 
7.7494955e+2, 2.5446522e+2, -504670.34, -530393.6, 24318.916, 0.01715699, 0.110081635, -490021.4, -43776.84, 0.0, 9.9998045, 9.999471 
7.749222e+2, 2.6446497e+2, -376802.56, -429576.3, 22524.045, 0.027159195, 0.1488591, -368496.5, -20249.104, 0.0, 10.00006, 9.999369 
7.748954e+2, 2.7446374e+2, -299991.03, -340524.06, 3140.4976, 0.07874879, 0.082505055, -299749.16, -49490.49, 0.00000014054619, 9.999903, 9.999384 
7.748683e+2, 2.8446284e+2, -235097.4, -243937.66, -62732.645, 0.13984095, 0.052853826, -176629.36, -24362.67, 0.000005985507, 9.9996195, 9.999507 
7.748405e+2, 2.944621e+2, -202718.6, -179259.05, -75648.04, 0.20359258, 0.022959009, -114436.78, -60163.95, 0.000039454848, 9.999174, 9.999494 
7.748124e+2, 3.0446008e+2, -194668.89, -250089.23, -10597.597, 0.14213894, -0.08060607, -192711.53, -192711.53, 0.00012495591, 9.999326, 9.998603 
7.747846e+2, 3.1446052e+2, 31470.818, 44750.406, 57940.887, -0.026494458, 0.09087753, 96430.71, 96430.71, 0.00026321306, 10.000066, 10.000264 
7.853122e+2, 1.24503046e+2, -1684090.0, -1760085.5, -48835.24, -0.10045413, 0.021838391, -1660211.1, 59670.016, 0.0000000009851104, 10.000441, 9.999474 
7.852857e+2, 1.3450396e+2, -1256567.9, -1481895.1, -129192.67, 0.24550675, 0.14156754, -1197814.4, 424055.38, 0.0, 10.002631, 9.999655 
7.8525573e+2, 1.4450254e+2, -1180143.6, -1523144.8, -18379.318, 0.11322427, 0.09374413, -1179161.6, 344720.97, 0.0, 10.003034, 9.998505 
7.8522724e+2, 1.5450037e+2, -1337841.9, -1552589.8, 18786.217, -0.023196865, 0.024116049, -1336210.9, 89693.02, 0.0, 10.001301, 9.998462 
7.851997e+2, 1.6449909e+2, -1241659.5, -1348941.3, 15012.792, -0.045682255, 0.009201762, -1239598.3, 88316.805, 0.0, 10.000829, 9.9994135 
7.851739e+2, 1.744988e+2, -982759.2, -1163543.6, -19247.236, 0.118506946, 0.02635185, -980732.75, 249182.03, 0.0, 10.001894, 9.999497 
7.851468e+2, 1.8449827e+2, -898554.94, -1115124.5, -56437.86, 0.19057646, 0.04592488, -884729.8, 247188.0, 0.0, 10.001976, 9.999123 
7.851183e+2, 1.9449735e+2, -971905.0, -1098165.3, -76017.305, 0.14070717, 0.03661146, -936221.94, 97703.97, 0.0, 10.000793, 9.999134 
7.850899e+2, 2.0449625e+2, -940532.4, -1048250.3, -49251.7, 0.10032601, 0.02439514, -921408.3, 14527.329, 0.0, 10.000407, 9.99899 
7.8506196e+2, 2.144948e+2, -766763.1, -914073.25, -5995.434, 0.07748533, -0.023433222, -766519.5, 71429.19, 0.0, 10.000929, 9.998987 
7.850338e+2, 2.2449367e+2, -641656.9, -777867.2, -3493.105, 0.072847575, -0.03981123, -641567.3, 98392.234, 0.0, 10.001011, 9.9992075 
7.850055e+2, 2.3449285e+2, -605128.8, -707481.1, -11141.55, 0.08988951, -0.048932455, -603930.06, 38038.426, 0.0, 10.000577, 9.9992285 
7.849775e+2, 2.4449272e+2, -532384.7, -611575.2, 27749.557, 0.08597469, 0.015188328, -523628.9, 20342.28, 0.0, 10.000364, 9.999312 
7.8494996e+2, 2.544933e+2, -424560.8, -506978.7, 10671.896, 0.056320228, 0.1323959, -423201.38, 22765.941, 0.0, 10.000421, 9.999331 
7.849224e+2, 2.644927e+2, -396662.88, -459824.03, -11474.056, 0.048577245, 0.14961605, -394643.06, -46669.008, 0.0, 10.000012, 9.999184 
7.848948e+2, 2.7449054e+2, -435907.16, -424492.9, -4681.308, 0.074183345, 0.013166655, -422818.6, -172824.48, 0.0000001311964, 9.999055, 9.999212 
7.848673e+2, 2.8448942e+2, -335182.2, -337635.25, -11775.79, 0.113953345, -0.012575189, -324569.22, -172564.11, 0.000005888669, 9.999128, 9.999102 
7.8483987e+2, 2.9448926e+2, -57165.793, -155599.1, -35041.734, 0.17177796, 0.055820536, -45965.543, 8041.4575, 0.000037310834, 10.000375, 9.999077 
7.848115e+2, 3.0448714e+2, -58515.215, -179797.6, 13725.446, 0.08553428, -0.034450214, -56981.316, -56981.316, 0.00011684081, 10.00023, 9.998656 
7.8478307e+2, 3.1448686e+2, -249933.69, -137325.66, 81845.86, -0.09130764, 0.06071275, -94287.41, -94287.41, 0.00024566453, 9.99832, 9.999866 
7.953116e+2, 1.2453229e+2, -1714955.0, -1853773.4, 5933.686, -0.21775676, 0.21757655, -1714701.9, 4897.1187, 0.0000000034592607, 10.000574, 9.998766 
7.952867e+2, 1.3453113e+2, -1300328.4, -1576858.1, -42799.6, 0.07636592, 0.19668338, -1293855.6, 327753.5, 0.0, 10.002654, 9.998991 
7.952577e+2, 1.4452948e+2, -1121113.0, -1395296.8, -79857.68, 0.0043125977, 0.12211823, -1099549.8, 424072.7, 0.0, 10.00301, 9.999394 
7.952294e+2, 1.5452904e+2, -1262079.0, -1407152.8, -42455.613, 0.052184206, 0.12521748, -1250567.8, 175054.44, 0.0, 10.001347, 9.999439 
7.952019e+2, 1.6452809e+2, -1285777.0, -1446528.4, 46301.16, 0.085078634, 0.12505539, -1273394.8, 54233.996, 0.0, 10.000856, 9.998729 
7.95176e+2, 1.7452651e+2, -1039482.5, -1277984.3, 24942.459, 0.13803846, 0.09310041, -1036901.94, 192741.28, 0.0, 10.001881, 9.998719 
7.951483e+2, 1.845245e+2, -932633.0, -1177128.4, -98225.65, 0.14298081, 0.024638895, -898059.8, 233601.84, 0.0, 10.001936, 9.998716 
7.9511845e+2, 1.9452181e+2, -1000591.4, -1156262.9, -115282.51, 0.07740906, -0.124792516, -939328.4, 94357.97, 0.0, 10.000785, 9.998739 
7.950898e+2, 2.0452082e+2, -863287.5, -882734.2, -35664.07, 0.043929517, -0.1595729, -836045.06, 99648.28, 0.0, 10.000386, 10.000136 
7.9506266e+2, 2.1452175e+2, -688605.2, -739988.56, 17612.492, 0.053856373, -0.09353075, -683147.9, 154532.5, 0.0, 10.000878, 10.000208 
7.9503495e+2, 2.2452217e+2, -648994.0, -781299.94, -22122.564, 0.08662607, -0.019241754, -645392.94, 94282.38, 0.0, 10.000958, 9.99921 
7.9500663e+2, 2.3452194e+2, -615112.0, -720098.75, -24255.11, 0.14694227, 0.03585128, -609779.25, 31901.05, 0.0, 10.000539, 9.999163 
7.9497856e+2, 2.4452098e+2, -564578.3, -675002.9, 24850.508, 0.1486486, 0.04270433, -559243.56, -15552.231, 0.0, 10.000346, 9.998888 
7.9495066e+2, 2.5451902e+2, -461500.6, -575976.6, 15413.446, 0.08177149, -0.047813486, -459461.56, -13750.591, 0.0, 10.000383, 9.998878 
7.949223e+2, 2.6451746e+2, -381859.34, -420745.0, -50800.1, 0.036167167, -0.1157381, -346908.47, 817.9606, 0.0, 9.999975, 9.999469 
7.948934e+2, 2.7451628e+2, -419613.7, -382004.97, -36109.426, 0.017892886, -0.18780725, -360097.0, -110359.8, 0.000000103459534, 9.999019, 9.999522 
7.9486537e+2, 2.8451616e+2, -370288.9, -406605.72, 31148.889, 0.0017865606, -0.108160466, -352392.06, -200651.61, 0.000005445095, 9.999109, 9.998638 
7.9483837e+2, 2.94517e+2, -93671.445, -227423.69, 19989.518, -0.0196503, 0.10817107, -90747.88, -37011.24, 0.000034263594, 10.000355, 9.998595 
7.9481035e+2, 3.0451566e+2, -40550.18, -134516.16, -54820.65, -0.061320234, 0.1018155, -15334.103, -15334.103, 0.000108508386, 10.000199, 9.998979 
7.9478216e+2, 3.1451485e+2, -279162.9, -173029.64, 12257.478, -0.03073791, 0.111691296, -171632.4, -171632.4, 0.00023086925, 9.998217, 9.999666 
8.053143e+2, 1.2456028e+2, -1258425.8, -1668871.5, 60818.934, -0.16698451, 0.21158311, -1249603.4, 469719.63, 0.0000000057252847, 10.003864, 9.998455 
8.0528873e+2, 1.345588e+2, -1399666.1, -1659066.4, 41762.367, 0.045167886, 0.18988469, -1393108.4, 228228.05, 0.0, 10.002116, 9.998693 
8.052597e+2, 1.4455688e+2, -1350062.6, -1517256.6, -25274.756, -0.013585076, 0.1112794, -1346325.4, 177026.94, 0.0, 10.00149, 9.999288 
8.0523187e+2, 1.5455613e+2, -1120582.0, -1349848.4, -75216.49, 0.121808894, 0.091948904, -1098108.3, 327247.16, 0.0, 10.002372, 9.999336 
8.0520403e+2, 1.6455516e+2, -1071128.9, -1315206.1, 16723.684, 0.15029825, 0.08491662, -1069988.4, 257373.23, 0.0, 10.002209, 9.998982 
8.051767e+2, 1.7455399e+2, -1190654.5, -1320839.0, 64673.395, 0.08334024, 0.06457367, -1163988.0, 65383.6, 0.0, 10.000714, 9.998988 
8.051488e+2, 1.8455221e+2, -1122449.0, -1260319.6, 18299.244, 0.07146193, 0.00171297, -1120061.5, 11326.171, 0.0, 10.000605, 9.998783 
8.051202e+2, 1.9454953e+2, -800208.6, -1055474.9, 28139.736, 0.11426602, -0.14745733, -797143.4, 236268.98, 0.0, 10.002147, 9.998776 
8.0509174e+2, 2.0454855e+2, -601275.75, -751995.5, 60061.594, 0.11419421, -0.18385366, -580269.06, 355150.3, 0.0, 10.002171, 10.0001745 
8.050634e+2, 2.1454947e+2, -764976.2, -770500.2, 15907.139, 0.0726741, -0.121910594, -751593.0, 85813.2, 0.0, 10.00033, 10.00026 
8.0503535e+2, 2.2454977e+2, -781831.06, -847086.9, -17680.729, 0.0795728, -0.061944954, -777348.44, -37946.477, 0.0, 10.000052, 9.999195 
8.0500764e+2, 2.3454925e+2, -455894.28, -644035.06, -18956.242, 0.14339904, -0.034144405, -454003.34, 187405.89, 0.0, 10.001635, 9.999157 
8.049795e+2, 2.4454829e+2, -377606.03, -571573.3, 3913.7737, 0.15168232, -0.03449799, -377527.1, 165893.14, 0.0, 10.001572, 9.999009 
8.049508e+2, 2.5454664e+2, -568995.94, -613647.44, 26592.533, 0.09688144, -0.106935225, -556599.9, -111162.69, 0.0, 9.999583, 9.999007 
8.04922e+2, 2.645454e+2, -506447.53, -489333.63, 20303.469, 0.051354207, -0.14331709, -475857.6, -128407.41, 0.0, 9.999159, 9.999392 
8.0489314e+2, 2.7454466e+2, -199042.61, -286874.5, -3350.8184, 0.022994258, -0.16761677, -198914.97, 50543.92, 0.00000004701224, 10.000577, 9.999427 
8.0486524e+2, 2.845446e+2, -129920.234, -289802.75, 64577.453, 0.0017595604, -0.071222894, -107095.484, 44366.41, 0.0000040934947, 10.000755, 9.998648 
8.0483824e+2, 2.945453e+2, -213308.06, -282452.06, 82860.4, -0.020119654, 0.12727322, -158096.61, -104636.836, 0.000029452855, 9.999525, 9.998616 
8.048099e+2, 3.045442e+2, -168280.13, -198671.2, 1427.4669, -0.068922706, 0.14900087, -168213.22, -168213.22, 0.000100260084, 9.999333, 9.998955 
8.0478126e+2, 3.145426e+2, -11344.687, -70197.37, 23897.336, -0.029605689, 0.081936456, -2863.3462, -2863.3462, 0.00022208261, 10.000167, 9.999433 
8.1531966e+2, 1.24587305e+2, -1259772.4, -1668865.3, -26105.078, -0.038070213, 0.03019189, -1258113.3, 460937.6, 0.000000004999778, 10.003853, 9.99846 
8.152914e+2, 1.3458697e+2, -1394167.6, -1650457.3, -22157.633, 0.09235932, 0.11733437, -1392266.1, 228786.3, 0.0, 10.00213, 9.998744 
8.1526154e+2, 1.445848e+2, -1424055.6, -1673846.3, 1283.1451, 0.012288712, 0.061440963, -1424049.0, 99023.45, 0.0, 10.001503, 9.998208 
8.1523466e+2, 1.545818e+2, -1198517.3, -1513649.4, -32562.664, 0.15381649, -0.06617143, -1195187.8, 229913.9, 0.0, 10.002378, 9.99821 
8.1520605e+2, 1.6458054e+2, -992008.75, -1150003.8, -35690.426, 0.124136455, -0.100808784, -984320.56, 342790.9, 0.0, 10.002205, 10.000117 
8.1517583e+2, 1.7458126e+2, -1100715.0, -1138986.8, 11752.205, -0.07916653, -0.055905737, -1097394.4, 131704.97, 0.0, 10.000733, 10.000227 
8.151481e+2, 1.845813e+2, -1090508.1, -1190783.0, 68759.21, -0.060063995, -0.02290855, -1055548.0, 75548.07, 0.0, 10.000591, 9.999267 
8.1512344e+2, 1.945804e+2, -775290.7, -994207.2, 90661.164, 0.20899898, -0.039878584, -742620.3, 290484.72, 0.0, 10.002105, 9.999217 
8.150955e+2, 2.0457932e+2, -685686.2, -912538.8, -8074.0337, 0.2702552, -0.05764801, -685399.2, 249715.63, 0.0, 10.002108, 9.999102 
8.1506395e+2, 2.1457797e+2, -851168.75, -940908.3, -50666.668, 0.0947939, -0.10816533, -828359.8, 8766.308, 0.0, 10.000292, 9.99911 
8.1503475e+2, 2.2457653e+2, -785478.44, -846664.7, 32180.191, 0.0110375425, -0.16269302, -771669.94, -32531.047, 0.0, 10.000017, 9.999216 
8.150082e+2, 2.3457484e+2, -458249.4, -638564.0, 44462.945, 0.036875688, -0.25993857, -447881.63, 193273.31, 0.0, 10.00159, 9.999217 
8.149801e+2, 2.4457467e+2, -333751.03, -474655.6, -70288.07, 0.053993467, -0.21719983, -304684.78, 238472.83, 0.0, 10.00154, 9.999693 
8.1495005e+2, 2.5457618e+2, -524348.0, -513557.38, -44932.54, 0.06319612, -0.043896638, -473697.38, -28552.012, 0.0, 9.999546, 9.999716 
8.1492126e+2, 2.6457664e+2, -543943.9, -559340.75, 67507.43, 0.059450712, 0.072525, -483697.34, -136552.94, 0.0, 9.999128, 9.998924 
8.14894e+2, 2.745757e+2, -242711.4, -367802.8, 57386.02, 0.049034055, 0.08709309, -220374.13, 28783.695, 0.000000004527389, 10.000537, 9.99889 
8.148668e+2, 2.845749e+2, -95918.625, -218757.47, 17435.766, 0.074627124, 0.10921338, -93491.734, 57676.6, 0.0000024308686, 10.000748, 9.999142 
8.148395e+2, 2.9457408e+2, -182764.75, -212005.1, 40553.656, 0.14034404, 0.109582946, -154276.36, -101099.97, 0.000024457544, 9.999489, 9.999121 
8.1481034e+2, 3.045728e+2, -199058.47, -249910.08, 34716.367, 0.034408145, 0.09761237, -181452.92, -181452.92, 0.00009519151, 9.999287, 9.998621 
8.1478024e+2, 3.145704e+2, -42192.707, -125668.43, 67809.93, -0.17323579, -0.010564455, -4304.9736, -4304.9736, 0.00022313076, 10.0001335, 9.999068 
8.2532334e+2, 1.2461617e+2, -1512457.0, -1765382.4, -47741.883, 0.053184878, 0.020391177, -1503745.4, 215018.39, 0.0000000017683296, 10.001998, 9.99869 
8.252934e+2, 1.3461529e+2, -1390209.1, -1622931.5, -35547.62, 0.0932406, 0.02776309, -1384900.4, 235868.94, 0.0, 10.002041, 9.998976 
8.2526296e+2, 1.446132e+2, -1364849.1, -1643130.8, 83826.77, -0.010403553, -0.032613438, -1341548.9, 181239.34, 0.0, 10.001901, 9.998225 
8.2523626e+2, 1.5461065e+2, -1307092.8, -1566082.5, 123793.56, 0.12239139, -0.11575276, -1257440.3, 167373.44, 0.0, 10.001633, 9.998209 
8.2520777e+2, 1.646093e+2, -1117734.0, -1256532.4, 81903.24, 0.1119208, -0.13781866, -1079781.5, 247044.19, 0.0, 10.001543, 9.999701 
8.2517743e+2, 1.7460938e+2, -991784.44, -1136970.1, 550.7394, -0.034591205, -0.11263469, -991782.4, 237039.6, 0.0, 10.0016985, 9.999775 
8.251494e+2, 1.8460955e+2, -950410.94, -1079197.4, 31894.295, -0.023098944, -0.062438514, -942945.06, 187873.14, 0.0, 10.001366, 9.999659 
8.2512414e+2, 1.9460969e+2, -994665.75, -1049758.0, 45479.063, 0.1667747, -0.020387502, -969041.06, 63774.99, 0.0, 10.00039, 9.999657 
8.2509613e+2, 2.0460895e+2, -944837.75, -1069145.9, -36784.523, 0.21351936, -0.0127958525, -934768.4, 54.29142, 0.0, 10.000461, 9.99882 
8.25065e+2, 2.146072e+2, -665667.1, -885109.56, -24519.121, 0.102007136, -0.073484875, -662960.9, 173878.84, 0.0, 10.001713, 9.998808 
8.2503563e+2, 2.2460538e+2, -563895.0, -741950.1, 102750.69, 0.026235854, -0.14867319, -516968.1, 221888.6, 0.0, 10.001546, 9.999202 
8.2500845e+2, 2.3460336e+2, -736746.4, -771841.44, 100801.73, -0.0043141837, -0.27821437, -651976.25, -11101.271, 0.0, 9.999674, 9.999226 
8.2497996e+2, 2.4460311e+2, -649629.9, -623638.5, -36784.086, 0.0028880974, -0.24263933, -597621.9, -54744.113, 0.0, 9.999365, 9.999714 
8.2495016e+2, 2.5460488e+2, -323451.22, -410400.97, -71735.4, 0.057996403, -0.045604814, -283045.03, 161818.06, 0.0, 10.000911, 9.999762 
8.2492137e+2, 2.6460546e+2, -273355.9, -432884.75, 42906.55, 0.07245673, 0.08267184, -262548.06, 84312.53, 0.0, 10.000998, 9.998895 
8.248939e+2, 2.746045e+2, -412103.44, -450330.13, 63998.41, 0.04793917, 0.09327542, -364425.2, -115551.39, 0.0, 9.999378, 9.9988785 
8.248665e+2, 2.8460348e+2, -363478.06, -325321.25, 35001.613, 0.071931824, 0.08656198, -304536.2, -153650.4, 0.000001518397, 9.998818, 9.999338 
8.2483906e+2, 2.9460233e+2, -170639.1, -181560.3, 27022.44, 0.15589145, 0.030013414, -148531.05, -95634.05, 0.000022006743, 9.999467, 9.999339 
8.2480997e+2, 3.0460158e+2, -148008.3, -188072.81, 56012.484, 0.06944739, 0.046597216, -108553.664, -108553.664, 0.00009542949, 9.999478, 9.998952 
8.2478005e+2, 3.1459942e+2, -210126.31, -133225.92, 124515.54, -0.12173532, -0.07566282, -41359.055, -41359.055, 0.0002328845, 9.998672, 9.999713 
8.3532524e+2, 1.2464669e+2, -1484279.4, -1701718.0, -61075.566, 0.027164098, 0.15736638, -1468298.6, 250164.27, 0.000000000051048894, 10.001973, 9.999137 
8.352947e+2, 1.3464384e+2, -1354136.8, -1554093.4, -28724.262, 0.020120457, -0.0784583, -1350092.3, 270393.78, 0.0, 10.002067, 9.999434 
8.352639e+2, 1.4464216e+2, -1293057.4, -1501280.1, 69945.984, -0.11030194, -0.16769779, -1271743.0, 250755.81, 0.0, 10.001929, 9.9991865 
8.352366e+2, 1.5464246e+2, -1236421.1, -1419314.3, 115757.875, -0.010526869, -0.065519795, -1180347.0, 244146.64, 0.0, 10.001632, 9.999216 
8.352091e+2, 1.6464125e+2, -1249778.0, -1529873.6, 83303.195, 0.077745594, -0.03606669, -1226875.5, 99630.88, 0.0, 10.001537, 9.997829 
8.351813e+2, 1.7463832e+2, -1127816.0, -1425337.3, 13559.499, 0.17289582, -0.11098714, -1127199.4, 101340.266, 0.0, 10.001723, 9.997785 
8.3515245e+2, 1.8463701e+2, -928826.56, -1037136.6, -4702.7905, 0.13763699, -0.11996692, -928622.75, 201930.22, 0.0, 10.001374, 9.999946 
8.3512247e+2, 1.9463739e+2, -967732.06, -993441.0, 12898.079, -0.04900851, -0.09061499, -962376.7, 70168.2, 0.0, 10.000381, 10.00005 
8.350936e+2, 2.046375e+2, -913829.94, -995095.25, 3232.3457, -0.083802395, -0.046557583, -913701.56, 20840.557, 0.0, 10.000421, 9.999347 
8.3506626e+2, 2.1463715e+2, -635602.4, -811352.7, 26892.246, 0.05847703, -0.020426266, -631579.56, 204967.19, 0.0, 10.001663, 9.999336 
8.350378e+2, 2.2463632e+2, -577435.56, -754809.8, 31423.006, 0.08775524, -0.022272406, -572033.25, 166521.84, 0.0, 10.001479, 9.999146 
8.35008e+2, 2.3463486e+2, -747011.2, -786286.8, 33301.0, -0.017875098, -0.08674617, -727988.94, -87420.39, 0.0, 9.9996395, 9.9991455 
8.34979e+2, 2.4463369e+2, -700317.8, -722348.1, 12482.286, -0.03683683, -0.10872639, -694685.44, -152105.16, 0.0, 9.999335, 9.999052 
8.34951e+2, 2.546327e+2, -376041.78, -516195.06, -8632.878, 0.04599935, -0.11862477, -375512.03, 69079.22, 0.0, 10.000892, 9.999047 
8.349222e+2, 2.6463184e+2, -242665.02, -363578.13, -17519.15, 0.051831458, -0.12191983, -240177.83, 106422.17, 0.0, 10.000975, 9.999382 
8.348926e+2, 2.7463093e+2, -383059.28, -378082.3, 6047.3286, -0.026282076, -0.15711455, -374031.47, -125423.875, 0.0, 9.999323, 9.999405 
8.348641e+2, 2.846303e+2, -377327.5, -339028.4, 54621.133, -0.053085636, -0.14762883, -300297.28, -149682.64, 0.0000012583888, 9.998759, 9.999269 
8.348368e+2, 2.946299e+2, -185087.28, -201986.81, 58377.77, -0.02206384, -0.11943324, -134550.92, -81928.85, 0.000022643984, 9.999427, 9.999219 
8.3480877e+2, 3.046306e+2, -76102.766, -32827.59, 27866.934, -0.007145247, -0.003023955, -19184.146, -19184.146, 0.000101563375, 9.999452, 10.000033 
8.347806e+2, 3.1462964e+2, -111688.914, 86524.695, 107184.8, 0.05263234, -0.11391721, 133399.88, 133399.88, 0.0002494841, 9.998599, 10.001265 
8.45326e+2, 1.24674916e+2, -1654559.3, -1760290.5, 1903.3604, -0.02453014, 0.00097142794, -1654525.0, 63655.598, 0.0, 10.000713, 9.999341 
8.452976e+2, 1.3467331e+2, -1436044.9, -1574130.5, 6035.0444, 0.1326762, -0.12530717, -1435781.6, 184411.92, 0.0, 10.0014305, 9.999601 
8.4526694e+2, 1.4467238e+2, -1322183.1, -1495506.8, 52126.848, 0.023278167, -0.1563105, -1307714.0, 214486.33, 0.0, 10.001652, 9.999354 
8.4523755e+2, 1.5467274e+2, -1246049.9, -1405642.3, 32069.055, -0.06626293, -0.06568502, -1239846.9, 184348.08, 0.0, 10.001488, 9.999379 
8.452096e+2, 1.6467157e+2, -1255859.3, -1560114.8, 52162.105, -0.014378245, -0.029950658, -1247164.9, 79043.055, 0.0, 10.001612, 9.997588 
8.4518355e+2, 1.7466864e+2, -1109415.8, -1444891.1, 99837.17, 0.21921532, -0.07977537, -1081952.5, 146289.7, 0.0, 10.001974, 9.997529 
8.451547e+2, 1.8466683e+2, -898040.5, -1055728.5, 85925.83, 0.21554212, -0.10978292, -860267.06, 269993.66, 0.0, 10.001731, 9.999645 
8.451228e+2, 1.9466625e+2, -934290.06, -1012941.75, 44834.88, -0.06341795, -0.145087, -913977.94, 118283.95, 0.0, 10.000767, 9.999732 
8.450935e+2, 2.0466608e+2, -913451.6, -964373.1, 65524.08, -0.124069266, -0.124121785, -868615.5, 65645.84, 0.0, 10.000289, 9.999624 
8.450674e+2, 2.1466622e+2, -815969.25, -867133.8, 65976.47, 0.074200295, -0.0779405, -770788.94, 65471.58, 0.0, 10.000287, 9.999619 
8.450391e+2, 2.24666e+2, -728817.94, -816971.06, 23359.78, 0.13113122, -0.03745254, -723010.44, 15252.636, 0.0, 10.000402, 9.999231 
8.450085e+2, 2.3466535e+2, -597788.25, -703949.2, 24426.71, 0.025068056, -0.030125886, -592437.56, 47832.09, 0.0, 10.000634, 9.999225 
8.449791e+2, 2.446641e+2, -516935.78, -661785.56, 87378.14, -0.018451534, -0.050144244, -475869.25, 66413.0, 0.0, 10.000713, 9.998804 
8.449513e+2, 2.5466204e+2, -440800.53, -575145.9, 92234.7, 0.011614873, -0.14064549, -393870.56, 50432.4, 0.0, 10.000569, 9.998795 
8.4492236e+2, 2.6466066e+2, -348111.97, -401649.4, 27719.527, 0.014557386, -0.18738395, -336345.8, 9969.817, 0.0, 10.000198, 9.999493 
8.448922e+2, 2.7465993e+2, -335244.5, -337660.28, 11424.397, -0.00461279, -0.21697703, -324964.3, -76644.59, 0.0000000050987805, 9.999586, 9.999552 
8.448632e+2, 2.8465933e+2, -304887.2, -314599.03, 105169.81, -0.041060373, -0.20911418, -204461.25, -54135.703, 0.0000017148438, 9.999297, 9.99918 
8.448354e+2, 2.9465875e+2, -213124.8, -221602.81, 102882.19, -0.08742388, -0.19252181, -114394.32, -62059.727, 0.000025402682, 9.999265, 9.999159 
8.448076e+2, 3.0465934e+2, -121414.03, -45541.813, 11140.601, -0.043547645, -0.08745965, -43939.824, -43939.824, 0.00011168263, 9.999093, 10.000124 
8.447803e+2, 3.146588e+2, -54297.656, 178057.78, -614.33435, 0.16757683, -0.16955827, 178059.4, 178059.4, 0.00027089723, 9.998717, 10.001836 
8.553254e+2, 1.24701336e+2, -1653535.5, -1774693.8, 14093.551, -0.17066766, -0.40253213, -1651917.8, 65994.78, 0.0, 10.000781, 9.999211 
8.553015e+2, 1.3470374e+2, -1450905.9, -1598806.4, 34652.703, 0.38516468, -0.11144088, -1443189.4, 176702.33, 0.0, 10.001409, 9.99944 
8.552718e+2, 1.4470382e+2, -1357551.1, -1569656.8, 46138.027, 0.33618525, -0.010236184, -1347949.6, 173943.28, 0.0, 10.001649, 9.99885 
8.552389e+2, 1.5470165e+2, -1276434.5, -1481110.3, 35411.51, -0.0930091, -0.11955322, -1270481.1, 153434.45, 0.0, 10.001539, 9.9988365 
8.5520947e+2, 1.6470046e+2, -1162682.0, -1376599.1, 63943.965, -0.19574153, -0.115260266, -1145025.4, 180902.6, 0.0, 10.001649, 9.998832 
8.551842e+2, 1.7470029e+2, -1018070.6, -1252436.5, 116998.71, 0.08176923, -0.021961184, -969662.06, 258267.95, 0.0, 10.001958, 9.99886 
8.551562e+2, 1.8469894e+2, -966332.06, -1187989.9, 47997.36, 0.18257417, -0.031276718, -956385.2, 173557.27, 0.0, 10.001688, 9.998758 
8.5512507e+2, 1.9469619e+2, -1000293.4, -1154388.5, 12862.966, 0.0798574, -0.1879903, -999227.0, 32740.559, 0.0, 10.00078, 9.998756 
8.5509557e+2, 2.0469469e+2, -912092.25, -960834.1, 60754.402, 0.050651945, -0.25087216, -871002.94, 62977.29, 0.0, 10.000283, 9.999653 
8.55068e+2, 2.1469449e+2, -813799.1, -856894.56, 69770.27, 0.10795544, -0.24453717, -762324.94, 73655.26, 0.0, 10.0002575, 9.999705 
8.550394e+2, 2.2469452e+2, -724055.6, -793860.75, 27759.623, 0.12027744, -0.193785, -714362.4, 23617.264, 0.0, 10.000345, 9.999419 
8.550098e+2, 2.3469473e+2, -587825.2, -677656.5, 38091.363, 0.08490039, -0.11774129, -573848.0, 66130.9, 0.0, 10.000607, 9.99942 
8.549803e+2, 2.4469432e+2, -510246.38, -638372.8, 78521.164, 0.018877376, -0.074411124, -472970.22, 69013.89, 0.0, 10.000675, 9.998984 
8.5495096e+2, 2.5469303e+2, -433429.78, -550678.9, 90302.79, -0.078221366, -0.106515795, -384390.8, 59606.652, 0.0, 10.000527, 9.998984 
8.549218e+2, 2.646921e+2, -374109.13, -443497.63, 1666.4604, -0.0610715, -0.10415093, -374069.13, -28062.816, 0.0, 10.000147, 9.99923 
8.548926e+2, 2.7469155e+2, -363449.7, -385413.38, -6168.0254, 0.07940175, -0.08638105, -361836.1, -113825.88, 0.0000001292932, 9.99954, 9.999247 
8.548637e+2, 2.846906e+2, -314098.2, -325072.88, 102455.086, 0.077901065, -0.09756775, -216983.61, -66965.1, 0.000003149254, 9.999261, 9.9991255 
8.548348e+2, 2.9468888e+2, -222708.63, -233185.06, 106695.3, -0.08153182, -0.18729044, -121123.04, -69088.89, 0.000029420804, 9.999223, 9.999104 
8.5480636e+2, 3.0468774e+2, -198283.78, -188628.16, -4331.485, -0.08024781, -0.2035113, -186969.88, -186969.88, 0.00012215794, 9.999033, 9.999167 
8.5477895e+2, 3.1468612e+2, -107399.234, 88823.03, -7122.7603, 0.14285843, -0.28980285, 89081.24, 89081.24, 0.00029314935, 9.998635, 10.001262 
8.653275e+2, 1.2473316e+2, -1563642.5, -1734629.6, 69018.56, -0.067425214, -0.33448085, -1539260.1, 178338.95, 0.00000000000000000000885557, 10.0014105, 9.999177 
8.6530226e+2, 1.3473438e+2, -1514139.8, -1639081.3, 89500.78, 0.34124228, -0.15594812, -1467463.9, 152124.89, 0.0, 10.001002, 9.999361 
8.6527276e+2, 1.4473408e+2, -1442092.6, -1647288.8, 133237.95, 0.2935429, -0.071872495, -1376527.9, 145066.38, 0.0, 10.001231, 9.998518 
8.652415e+2, 1.5473217e+2, -1196273.3, -1481188.8, 127012.445, -0.015565163, -0.1204255, -1147874.0, 275743.0, 0.0, 10.002256, 9.998492 
8.65212e+2, 1.6473113e+2, -1086650.5, -1294918.3, 97206.9, -0.11262858, -0.10223752, -1048330.7, 277297.44, 0.0, 10.001978, 9.99923 
8.6518484e+2, 1.7473108e+2, -1234399.4, -1309951.4, 78994.016, 0.04156519, -0.03838687, -1184613.5, 43013.008, 0.0, 10.000267, 9.999279 
8.651566e+2, 1.847299e+2, -1206201.1, -1356509.1, 42582.004, 0.13406423, -0.03102086, -1194976.0, -65338.516, 0.0, 10.00027, 9.998282 
8.6512727e+2, 1.9472735e+2, -841747.9, -1132113.4, 37024.24, 0.15736109, -0.11716272, -837101.3, 194562.19, 0.0, 10.002111, 9.998261 
8.6509764e+2, 2.0472555e+2, -636924.25, -859599.75, 49831.74, 0.13109311, -0.17014894, -626281.3, 307399.13, 0.0, 10.002313, 9.999367 
8.650679e+2, 2.1472453e+2, -781745.3, -872692.7, 22847.979, 0.052001145, -0.21753302, -776328.06, 59359.836, 0.0, 10.00062, 9.999419 
8.6503875e+2, 2.2472423e+2, -752118.2, -783601.8, 22670.918, 0.039231736, -0.1951332, -740259.75, -2570.0222, 0.0, 10.000044, 9.999637 
8.650105e+2, 2.3472464e+2, -562450.2, -640002.4, 30188.543, 0.10355749, -0.12597676, -552084.3, 87601.88, 0.0, 10.0006695, 9.999646 
8.6498153e+2, 2.4472432e+2, -527912.8, -630488.8, 40466.86, 0.08750891, -0.09015462, -513870.66, 27818.396, 0.0, 10.000487, 9.999125 
8.6495155e+2, 2.547231e+2, -582397.06, -605476.2, 40259.67, -0.018944401, -0.1291096, -552055.8, -108355.61, 0.0, 9.999438, 9.999129 
8.64922e+2, 2.6472226e+2, -464572.97, -520098.94, -4558.538, -0.024458278, -0.11303406, -464201.22, -118492.77, 0.0000000005766255, 9.999662, 9.998937 
8.648931e+2, 2.747217e+2, -135095.67, -312272.6, -20450.121, 0.08842845, -0.065439425, -132765.9, 114948.4, 0.000000514823, 10.001254, 9.998926 
8.64864e+2, 2.847205e+2, 3569.5208, -208307.61, 49603.25, 0.07718336, -0.067232914, 14607.286, 164332.77, 0.0000053955687, 10.001596, 9.998804 
8.648348e+2, 2.9471835e+2, -43945.223, -179732.05, 23605.152, -0.06836242, -0.16981867, -39958.742, 11785.878, 0.00003455936, 10.000596, 9.998808 
8.6480576e+2, 3.047164e+2, -135871.4, -229247.14, -77606.13, -0.068245836, -0.2254735, -91991.79, -91991.79, 0.000132535, 9.999757, 9.998539 
8.647777e+2, 3.1471533e+2, -88804.664, 49104.047, -61681.89, 0.14831258, -0.19604011, 72666.49, 72666.49, 0.00031326473, 9.998965, 10.000826 
8.753314e+2, 1.247697e+2, -1559776.5, -1721605.6, 40007.39, 0.16963562, 0.13705248, -1550426.1, 166820.02, 0.0000000055054987, 10.001388, 9.999275 
8.752998e+2, 1.3476522e+2, -1503274.5, -1627114.1, 72263.68, -0.0049606343, -0.2596589, -1470030.8, 149253.8, 0.0, 10.001053, 9.999415 
8.7527007e+2, 1.4476344e+2, -1449287.8, -1679947.4, 163699.61, -0.10038083, -0.31431445, -1364371.4, 156930.8, 0.0, 10.001303, 9.998261 
8.752452e+2, 1.5476425e+2, -1217933.0, -1515968.6, 166837.03, 0.12874492, -0.06547585, -1143252.6, 280047.34, 0.0, 10.002213, 9.998275 
8.7521696e+2, 1.647635e+2, -1117466.6, -1350329.0, 29979.146, 0.18019392, 0.006035853, -1113669.0, 211640.55, 0.0, 10.001939, 9.998871 
8.751853e+2, 1.7476103e+2, -1253330.9, -1363411.3, 17125.016, 0.056014977, -0.13148323, -1250728.3, -23396.906, 0.0, 10.000326, 9.998885 
8.751559e+2, 1.8475981e+2, -1206167.5, -1363637.8, 105566.84, 0.037825443, -0.10417316, -1153207.6, -23863.242, 0.0, 10.0003, 9.9982195 
8.751292e+2, 1.9475973e+2, -850044.75, -1141402.9, 109908.08, 0.13546789, 0.060049288, -813234.94, 218114.67, 0.0, 10.002072, 9.998219 
8.7509954e+2, 2.047586e+2, -692640.2, -955043.8, -15221.093, 0.08790062, 0.10538403, -691760.25, 241602.22, 0.0, 10.002228, 9.998752 
8.7506676e+2, 2.1475628e+2, -832436.0, -969166.1, -37861.926, -0.12319774, -0.0072455476, -822651.8, 12732.311, 0.0, 10.000582, 9.9987755 
8.750371e+2, 2.2475511e+2, -739120.94, -749479.94, 39665.914, -0.14283183, -0.05031664, -704297.8, 33095.863, 0.0, 10.0000105, 9.999888 
8.7501067e+2, 2.3475508e+2, -548357.25, -601163.75, 56705.543, 0.050714113, -0.05207249, -512209.3, 127181.78, 0.0, 10.000625, 9.999937 
8.7498266e+2, 2.4475417e+2, -528065.1, -619830.44, -2071.963, 0.15335922, -0.09702041, -528018.4, 13378.217, 0.0, 10.000439, 9.999222 
8.749527e+2, 2.5475225e+2, -585148.6, -598075.2, 4293.5464, 0.15336257, -0.21554065, -583852.5, -140440.88, 0.0, 9.999383, 9.999206 
8.7492293e+2, 2.64751e+2, -490702.56, -570230.25, 51100.254, 0.092823476, -0.22674704, -465717.7, -120294.37, 0.0000000691861, 9.9996395, 9.998607 
8.7489325e+2, 2.7475035e+2, -161670.63, -361871.44, 45109.035, -0.027467739, -0.15233341, -151976.16, 95456.086, 0.000001269736, 10.00123, 9.998598 
8.748641e+2, 2.8474918e+2, -37462.66, -294637.22, 9162.687, -0.08821808, -0.1079791, -37136.625, 112309.37, 0.000008177336, 10.001598, 9.998212 
8.7483525e+2, 2.9474708e+2, -89589.516, -268690.44, -11618.959, -0.08548315, -0.14536132, -88838.9, -37371.17, 0.000040999803, 10.000567, 9.998213 
8.748059e+2, 3.0474517e+2, -156976.4, -264572.53, -107567.89, -0.036889613, -0.15491338, -90503.59, -90503.59, 0.00014405875, 9.999724, 9.998309 
8.7477636e+2, 3.14746e+2, -115880.14, 7321.6494, -77671.48, 0.10084356, 0.09024007, 44854.65, 44854.65, 0.00033067827, 9.99891, 10.000564 
8.8533336e+2, 1.247999e+2, -1741549.6, -1847507.8, -38413.406, 0.287065, 0.15241106, -1729088.9, -12137.572, 0.00000006865043, 10.000307, 9.998939 
8.853012e+2, 1.3479526e+2, -1314384.8, -1579147.9, -50099.0, -0.047500577, -0.22325198, -1305222.0, 313771.0, 0.0, 10.002534, 9.999035 
8.8527125e+2, 1.447935e+2, -1255783.5, -1540775.9, -6717.6987, -0.17214377, -0.27529624, -1255625.3, 265384.4, 0.0, 10.002435, 9.99867 
8.8524634e+2, 1.5479448e+2, -1503845.9, -1605628.3, 35627.457, 0.13259216, -0.0556386, -1492614.4, -69611.086, 0.0, 10.000042, 9.998704 
8.8521844e+2, 1.6479367e+2, -1399455.0, -1501679.5, -14201.639, 0.23217589, -0.0036566677, -1397518.6, -72506.64, 0.0, 10.000077, 9.99873 
8.8518745e+2, 1.7479098e+2, -920921.2, -1219915.0, -19006.3, 0.12310703, -0.14826286, -919717.8, 307318.63, 0.0, 10.002688, 9.998732 
8.85158e+2, 1.8478952e+2, -841553.9, -1183757.4, 50798.945, 0.09371515, -0.13904326, -834172.2, 294879.88, 0.0, 10.002785, 9.998259 
8.8513035e+2, 1.9478923e+2, -1131327.9, -1270997.9, 53770.535, 0.15046392, 0.0018676084, -1113025.5, -81966.09, 0.0, 10.000118, 9.998269 
8.8510054e+2, 2.0478842e+2, -1079750.0, -1127555.6, -17417.146, 0.10701641, 0.06888879, -1074077.5, -141008.06, 0.0, 9.999506, 9.998879 
8.850683e+2, 2.1478696e+2, -754157.3, -917279.0, 11149.146, -0.04074009, 0.02834687, -753398.75, 81684.21, 0.0, 10.001056, 9.998904 
8.850383e+2, 2.2478572e+2, -607947.8, -744298.1, 81817.98, -0.067914456, -0.0010500146, -569624.0, 167470.05, 0.0, 10.001167, 9.999363 
8.8501066e+2, 2.3478466e+2, -718184.5, -742811.06, 26844.107, 0.03967077, -0.04923542, -700964.4, -61861.273, 0.0, 9.999722, 9.999398 
8.849823e+2, 2.4478348e+2, -629995.7, -646338.06, -31271.639, 0.12024055, -0.10531342, -605845.3, -64734.082, 0.0, 9.999635, 9.99943 
8.84953e+2, 2.5478196e+2, -327103.8, -450101.44, -20719.004, 0.17028414, -0.2038228, -323707.47, 119412.52, 0.00000000006372724, 10.001039, 9.99943 
8.8492346e+2, 2.6478055e+2, -309853.1, -516153.63, 36765.92, 0.12174196, -0.22909565, -303496.72, 41636.336, 0.00000025387644, 10.001036, 9.9983 
8.8489354e+2, 2.747791e+2, -421911.25, -519218.22, 22167.043, -0.032519467, -0.20421042, -417099.44, -169948.1, 0.0000021793016, 9.999594, 9.998299 
8.8486433e+2, 2.8477815e+2, -345672.75, -396994.44, 25790.738, -0.10131475, -0.14370896, -334951.72, -185788.13, 0.00001103343, 9.9992895, 9.998617 
8.8483566e+2, 2.9477733e+2, -115932.875, -232000.7, 76174.86, -0.07450392, -0.090695485, -78203.83, -27031.924, 0.00004783983, 10.000175, 9.998651 
8.848058e+2, 3.047754e+2, -47154.49, -187444.13, 21728.303, -0.043946747, -0.1394988, -43866.242, -43866.242, 0.00015538944, 10.000371, 9.998535 
8.847751e+2, 3.147762e+2, 4002.957, 57915.586, 73412.63, 0.050585613, 0.08743927, 109164.5, 109164.5, 0.00034428985, 9.999762, 10.000509 
8.953331e+2, 1.2482466e+2, -1783515.6, -1945628.6, 27331.781, 0.21714897, -0.22043705, -1779031.6, -62325.44, 0.00000033567557, 10.0003605, 9.998239 
8.9530575e+2, 1.3482472e+2, -1377467.1, -1695392.9, 33569.766, 0.15425299, -0.046942547, -1373961.1, 244749.66, 0.00000000007521531, 10.002478, 9.998263 
8.9527553e+2, 1.4482436e+2, -1186046.1, -1388466.3, -97881.83, 0.009232377, 0.024763228, -1146457.3, 374258.06, 0.0, 10.002398, 9.999737 
8.952448e+2, 1.5482305e+2, -1421044.9, -1447576.4, -50917.965, -0.038366117, -0.089477934, -1381692.9, 41031.688, 0.0, 10.000099, 9.999763 
8.9521646e+2, 1.6482195e+2, -1389856.0, -1496173.8, 76281.88, 0.022243654, -0.11938093, -1350037.5, -25304.645, 0.0, 10.000135, 9.99874 
8.95191e+2, 1.7482097e+2, -925763.56, -1221770.1, 82697.28, 0.20994979, -0.09536504, -904226.8, 322514.28, 0.0, 10.002648, 9.99874 
8.9516246e+2, 1.8481903e+2, -844122.2, -1169791.3, -49784.727, 0.25961983, -0.14079653, -836681.6, 292078.63, 0.0, 10.002703, 9.998394 
8.9513063e+2, 1.94816e+2, -1123851.5, -1252882.4, -42946.688, 0.15874445, -0.29023504, -1110864.4, -80072.37, 0.0, 10.000107, 9.998399 
8.9510053e+2, 2.0481516e+2, -1020183.9, -1003302.4, 33769.75, 0.15386578, -0.27145934, -976934.44, -44134.457, 0.0, 9.999499, 9.999738 
8.9507234e+2, 2.1481664e+2, -700077.1, -793402.25, 72760.75, 0.25166878, -0.10585533, -660301.7, 174481.81, 0.0, 10.001005, 9.99978 
8.9504236e+2, 2.2481614e+2, -711299.5, -946156.0, 24511.523, 0.21594584, -0.04051818, -708768.56, 28021.438, 0.0, 10.001108, 9.998007 
8.9501035e+2, 2.3481345e+2, -821431.75, -949509.5, -24433.025, 0.030631762, -0.116482176, -816929.06, -178107.25, 0.0, 9.999686, 9.997996 
8.949803e+2, 2.4481224e+2, -610198.75, -599897.7, 15598.864, -0.04766015, -0.118439585, -588621.06, -47788.055, 0.0, 9.999612, 9.999761 
8.949523e+2, 2.5481245e+2, -308028.72, -401192.94, 36023.973, -0.011032983, -0.08226503, -295724.34, 147099.55, 0.0000000002378373, 10.0009985, 9.999785 
8.949235e+2, 2.6481107e+2, -332945.63, -560596.25, -21194.508, 0.018499974, -0.105264075, -330989.22, 13846.886, 0.00000030747992, 10.001018, 9.998004 
8.9489394e+2, 2.7480796e+2, -455033.38, -572462.5, -29285.318, 0.04015742, -0.22033346, -448135.22, -201263.44, 0.0000026197797, 9.999524, 9.997968 
8.948647e+2, 2.8480738e+2, -251339.08, -187167.53, 55780.336, 0.006460894, -0.17335455, -154903.16, -6024.966, 0.000013141425, 9.999228, 10.000087 
8.948358e+2, 2.948093e+2, -14798.381, -16326.0, 116910.9, -0.080263585, 0.00279588, 101351.195, 152206.64, 0.00005419451, 10.000147, 10.000148 
8.9480525e+2, 3.048071e+2, -1124.1625, -85526.74, 39.886414, -0.13694721, -0.18348503, -1124.1436, -1124.1436, 0.0001662128, 10.000348, 9.999241 
8.9477354e+2, 3.1480533e+2, 10225.882, 85751.35, 65169.48, -0.09252754, -0.28554246, 123308.5, 123308.5, 0.0003568497, 9.9997015, 10.000726 
9.0533286e+2, 1.2485153e+2, -1630634.0, -1776917.5, -25008.95, 0.12959804, -0.2505933, -1626476.6, 89972.06, 0.0000010657902, 10.000997, 9.999095 
9.053085e+2, 1.3485332e+2, -1653908.9, -1739639.5, 73875.79, 0.30229077, 0.016530568, -1611363.0, 7070.966, 0.000000007369457, 10.000194, 9.9990635 
9.052786e+2, 1.4485335e+2, -1480932.3, -1549476.1, -75313.25, 0.18537414, 0.09609245, -1432459.6, 87974.07, 0.0, 10.000457, 9.999563 
9.0524524e+2, 1.548509e+2, -1178563.3, -1353324.6, -126882.164, -0.07908067, -0.11193642, -1111884.0, 310570.47, 0.0, 10.001862, 9.999562 
9.052163e+2, 1.6484977e+2, -1134973.5, -1307265.3, 7432.608, -0.085352875, -0.1642959, -1134653.5, 189809.27, 0.0, 10.001599, 9.999331 
9.0519196e+2, 1.7484994e+2, -1328159.9, -1346880.5, 48562.492, 0.19358477, -0.086331606, -1288063.8, -61605.004, 0.0, 9.999593, 9.99935 
9.051636e+2, 1.8484871e+2, -1288126.0, -1336089.0, -66627.805, 0.27258873, -0.11517238, -1241295.3, -112825.24, 0.0, 9.999444, 9.998823 
9.0513104e+2, 1.9484584e+2, -927629.44, -1112922.9, -43919.855, 0.1392481, -0.28925782, -917746.3, 112752.06, 0.0, 10.001248, 9.998816 
9.051009e+2, 2.0484492e+2, -741245.2, -893332.0, 27279.84, 0.14638041, -0.29081187, -736500.0, 196007.02, 0.0, 10.001527, 9.999513 
9.0507334e+2, 2.1484603e+2, -836645.3, -886791.3, -27397.016, 0.3038931, -0.13860986, -824580.06, 9915.313, 0.0, 10.000189, 9.99953 
9.0504354e+2, 2.2484541e+2, -861719.9, -1025743.6, -68288.42, 0.2782002, -0.06939225, -837011.25, -100508.04, 0.0, 10.00011, 9.997941 
9.0501106e+2, 2.3484287e+2, -579508.2, -841162.5, -25958.414, 0.053041674, -0.12184286, -576957.75, 61575.367, 0.0, 10.001383, 9.997922 
9.0498054e+2, 2.4484172e+2, -402096.2, -513121.63, 47440.66, -0.052905973, -0.106827274, -384586.47, 155958.03, 0.0, 10.0011015, 9.999636 
9.049521e+2, 2.5484198e+2, -582631.8, -545291.8, 21266.285, -0.031506248, -0.053974785, -535663.0, -93125.81, 0.0, 9.99917, 9.999673 
9.049234e+2, 2.6484078e+2, -557967.5, -610695.25, 6303.968, 0.001409368, -0.07774669, -557224.25, -212677.25, 0.0000002007212, 9.999225, 9.998525 
9.048944e+2, 2.74838e+2, -147216.05, -365133.53, 54247.133, 0.05480126, -0.2117802, -134458.89, 112117.055, 0.0000025589381, 10.001381, 9.998501 
9.048653e+2, 2.8483763e+2, 19942.21, -69633.16, 76208.57, 0.056300003, -0.16349426, 63549.563, 212129.0, 0.000014744336, 10.001145, 9.999974 
9.0483594e+2, 2.9483977e+2, -276900.72, -149903.11, 1825.1101, 0.0051377187, 0.043392457, -149876.89, -99320.086, 0.00006127167, 9.998389, 10.0000725 
9.0480524e+2, 3.048372e+2, -297461.94, -214904.95, -125121.09, -0.06629949, -0.18362811, -124429.12, -124429.12, 0.00017929857, 9.998248, 9.999368 
9.04774e+2, 3.1483454e+2, 131117.38, 109098.48, -112254.04, -0.0561013, -0.38923734, 232900.56, 232900.56, 0.00037394426, 10.000675, 10.00042 
9.1533214e+2, 1.24880426e+2, -1463450.8, -1448371.9, -52043.438, -0.057280988, 0.023183392, -1403324.6, 312853.44, 0.000002613721, 10.001073, 10.001312 
9.153093e+2, 1.3488126e+2, -1496656.5, -1420107.9, 47441.62, 0.36142144, -0.025411801, -1397426.1, 220734.52, 0.00000007607973, 10.000218, 10.001244 
9.1528046e+2, 1.4488076e+2, -1575110.8, -1746864.1, -26619.01, 0.3181456, -0.04142385, -1571079.9, -50917.055, 0.0, 10.000461, 9.998208 
9.152476e+2, 1.5487818e+2, -1275894.0, -1551802.4, -65489.605, -0.035972733, -0.12693092, -1261138.5, 161053.16, 0.0, 10.001844, 9.998207 
9.152174e+2, 1.648773e+2, -1061340.8, -1146547.5, -66911.99, -0.13348974, -0.14271468, -1024620.4, 299579.66, 0.0, 10.001567, 10.000449 
9.1519004e+2, 1.7487809e+2, -1247346.9, -1180633.8, -22072.996, 0.04271009, -0.11603095, -1173991.9, 52195.785, 0.0, 9.9995985, 10.000487 
9.1516143e+2, 1.8487862e+2, -1236928.0, -1230276.9, -4137.2725, 0.10891152, -0.060847476, -1228294.3, -100114.21, 0.0, 9.999444, 9.99955 
9.151315e+2, 1.9487874e+2, -881264.8, -1010173.1, 27901.84, 0.057175998, -0.007396954, -875484.7, 154693.89, 0.0, 10.001221, 9.999534 
9.151015e+2, 2.0487763e+2, -843024.9, -1093399.8, -25789.752, 0.047773592, 0.0007789238, -840396.0, 91794.64, 0.0, 10.001476, 9.998164 
9.150714e+2, 2.148751e+2, -940513.6, -1089383.3, -73480.31, 0.08313979, -0.07269617, -910354.44, -76136.68, 0.0, 10.000134, 9.998164 
9.1504174e+2, 2.2487357e+2, -783290.94, -855293.7, -25929.375, 0.0906234, -0.085935175, -774925.3, -38692.324, 0.0, 10.0000725, 9.999131 
9.1501266e+2, 2.3487295e+2, -498292.38, -665309.0, 26121.826, 0.068868645, -0.068536, -494302.2, 143934.45, 0.0, 10.00135, 9.9991455 
9.1498286e+2, 2.4487199e+2, -449154.25, -601725.7, -27426.406, 0.06067978, -0.06746831, -444373.8, 95871.2, 0.0, 10.0010605, 9.999048 
9.1495234e+2, 2.5487056e+2, -634034.8, -640320.25, -47517.3, 0.070833124, -0.12008851, -589556.4, -147296.75, 0.0, 9.999117, 9.999048 
9.14923e+2, 2.6486972e+2, -466326.88, -412638.63, 83928.555, 0.037499674, -0.14713754, -351365.72, -7100.338, 0.00000011562638, 9.99919, 9.999902 
9.1489494e+2, 2.7486932e+2, -49565.258, -161866.14, 142801.81, -0.039832756, -0.18090595, 47728.855, 293992.0, 0.0000025826089, 10.001375, 9.999903 
9.148659e+2, 2.8486896e+2, -110667.47, -335714.25, -31260.063, -0.0032114862, -0.11524435, -106405.99, 41860.902, 0.000017158924, 10.001124, 9.998157 
9.1483575e+2, 2.9486853e+2, -420662.72, -430360.03, -100290.68, 0.15069783, 0.022454249, -325103.56, -274825.9, 0.000070174305, 9.998307, 9.998189 
9.1480565e+2, 3.0486548e+2, -343775.66, -287512.7, -39011.3, 0.1530979, -0.13509303, -267547.78, -267547.78, 0.00019601652, 9.998152, 9.998914 
9.1477644e+2, 3.1486377e+2, 63370.777, -19506.363, -12829.57, 0.09864991, -0.20117474, 65311.383, 65311.383, 0.00039683623, 10.0006275, 9.9995575 
9.253343e+2, 1.2491099e+2, -1436981.0, -1486830.1, 140731.55, 0.034710776, 0.15083528, -1318983.9, 396896.22, 0.0000053718704, 10.001478, 10.000848 
9.253088e+2, 1.3491021e+2, -1502009.6, -1479531.6, 39489.918, 0.29261023, -0.0064348322, -1449712.5, 168167.86, 0.00000033393198, 10.000426, 10.000735 
9.2528e+2, 1.4490949e+2, -1631055.6, -1711556.8, 7071.651, 0.2598919, -0.045611333, -1630439.1, -110554.69, 0.0, 9.999824, 9.9987545 
9.252494e+2, 1.5490805e+2, -1536035.8, -1614451.5, 91317.81, 0.06557755, -0.07159562, -1475864.5, -53964.715, 0.0, 9.9998, 9.998757 
9.252193e+2, 1.6490734e+2, -1322216.0, -1314037.0, 57614.91, -0.010686155, -0.078655764, -1260366.6, 63539.93, 0.0, 9.999958, 10.0000725 
9.251899e+2, 1.7490734e+2, -1176818.3, -1190912.4, -13872.201, 0.04104147, -0.089718394, -1168305.8, 57598.563, 0.0, 10.000276, 10.000092 
9.2516094e+2, 1.8490785e+2, -1084591.0, -1123619.5, -321.81677, 0.0752929, -0.031938806, -1084588.4, 43309.258, 0.0, 10.000349, 9.999846 
9.251324e+2, 1.9490875e+2, -1021800.7, -1042550.25, -8665.416, 0.08693126, 0.06800015, -1018657.9, 11229.436, 0.0, 10.000109, 9.9998455 
9.2510253e+2, 2.0490767e+2, -1024856.0, -1203001.0, -68024.79, 0.07359278, 0.07333526, -1001851.4, -69952.87, 0.0, 10.000317, 9.997972 
9.250714e+2, 2.1490437e+2, -828673.3, -1059894.1, -36930.0, 0.03721592, -0.057637956, -822918.2, 11015.427, 0.0, 10.0009985, 9.997954 
9.25042e+2, 2.2490256e+2, -621444.8, -733810.56, 56093.906, 0.06222291, -0.1057543, -598236.0, 137714.27, 0.0, 10.000999, 9.9995165 
9.250142e+2, 2.3490225e+2, -623748.5, -682458.9, 35306.387, 0.14969094, -0.095185, -607187.8, 30760.08, 0.0, 10.000301, 9.999535 
9.2498446e+2, 2.4490145e+2, -572739.7, -700506.8, -64192.99, 0.15745749, -0.08294999, -546059.2, -6103.9053, 0.0, 10.00038, 9.998701 
9.2495257e+2, 2.549e+2, -344515.78, -539163.44, -72838.875, 0.08451893, -0.10252982, -320277.16, 121696.586, 0.0, 10.001272, 9.998705 
9.249229e+2, 2.6489928e+2, -201466.75, -240143.9, 67034.87, 0.029823821, -0.11651175, -151036.75, 192941.48, 0.00000007319143, 10.000809, 10.000309 
9.2489547e+2, 2.7489927e+2, -372318.34, -267994.22, 44023.58, 0.00055173034, -0.15852247, -251899.72, -5930.3535, 0.0000027897247, 9.998947, 10.000339 
9.248663e+2, 2.8489843e+2, -450896.44, -585044.7, -135121.16, 0.03563092, -0.123917736, -367117.44, -219140.03, 0.000020132902, 9.999152, 9.997395 
9.248355e+2, 2.9489678e+2, -16926.88, -324215.2, -127424.53, 0.14392598, -0.033884387, 29037.424, 79040.734, 0.00008107723, 10.001455, 9.997404 
9.248054e+2, 3.048942e+2, 139057.03, -38069.914, 21682.307, 0.16423793, -0.11137833, 141672.56, 141672.56, 0.00021777536, 10.0013895, 9.999066 
9.247773e+2, 3.1489357e+2, -209949.03, -168381.25, 75145.91, 0.2269523, -0.08306151, -111197.99, -111197.99, 0.000428338, 9.9988165, 9.999407 
9.3533844e+2, 1.2494295e+2, -1640613.8, -1898099.6, 88116.23, 0.28496084, 0.13393442, -1613346.4, 102212.47, 0.000009857008, 10.001433, 9.998047 
9.353072e+2, 1.3494022e+2, -1695919.5, -1893340.0, 3359.295, 0.074667096, 0.066282816, -1695862.4, -78269.7, 0.0000009955157, 10.000476, 9.997872 
9.352772e+2, 1.4493962e+2, -1467983.8, -1388562.1, 2505.0627, -0.0041522435, 0.0749531, -1388483.1, 131114.25, 0.00000000002439963, 9.999884, 10.000945 
9.352504e+2, 1.549404e+2, -1378355.0, -1291340.8, 92110.36, 0.18395212, 0.04895333, -1232979.4, 188601.16, 0.0, 9.999815, 10.00097 
9.3522173e+2, 1.6493976e+2, -1444395.0, -1568492.6, 61820.242, 0.22911665, 0.026337948, -1418855.0, -95270.62, 0.0, 9.999963, 9.998323 
9.351913e+2, 1.749377e+2, -1296379.1, -1446614.9, 2147.4631, 0.14206666, -0.014807027, -1296348.4, -70739.125, 0.0, 10.000309, 9.998321 
9.351619e+2, 1.849365e+2, -1097156.6, -1146783.4, -11311.406, 0.12981805, -0.029314468, -1094700.1, 32921.527, 0.0, 10.000337, 9.999696 
9.351335e+2, 1.9493604e+2, -1035619.2, -1064491.5, -12586.556, 0.18542741, -0.051824506, -1030902.7, -1280.089, 0.0, 10.00008, 9.999709 
9.35104e+2, 2.049352e+2, -963130.1, -1067900.5, -47862.14, 0.1835532, -0.06186583, -944557.7, -12928.495, 0.0, 10.000284, 9.998916 
9.350734e+2, 2.1493389e+2, -768926.5, -925846.6, -7660.468, 0.12530251, -0.08832513, -768553.44, 65088.887, 0.0, 10.000954, 9.998898 
9.350439e+2, 2.2493246e+2, -660739.1, -802026.9, 25771.975, 0.1520177, -0.123964086, -656184.94, 79469.54, 0.0, 10.000944, 9.999073 
9.350157e+2, 2.3493078e+2, -663998.1, -754435.5, 13107.486, 0.26766428, -0.20391613, -662136.7, -24469.875, 0.0, 10.000252, 9.999064 
9.349853e+2, 2.4493007e+2, -584755.6, -716692.5, -35037.547, 0.20399539, -0.15343386, -576028.25, -36353.387, 0.0, 10.000341, 9.998608 
9.349527e+2, 2.5493026e+2, -355164.03, -557071.44, -35052.582, -0.03622548, -0.0026443298, -349251.78, 92427.56, 0.0, 10.001251, 9.998594 
9.349229e+2, 2.6492953e+2, -244129.17, -322693.3, -6996.411, -0.057570715, 0.015319962, -243510.98, 100174.61, 0.00000003612581, 10.000782, 9.999756 
9.3489593e+2, 2.749278e+2, -422653.66, -356006.72, -23856.11, 0.1472515, -0.14214455, -348347.66, -102652.54, 0.0000027028154, 9.998875, 9.99977 
9.3486655e+2, 2.849261e+2, -432231.94, -531307.4, -50637.414, 0.14270607, -0.18581802, -410930.88, -263219.7, 0.000022320448, 9.999089, 9.997793 
9.3483484e+2, 2.9492447e+2, 16385.066, -264141.0, -31209.941, -0.07857314, -0.13325591, 19815.383, 69549.234, 0.000092742026, 10.001493, 9.997799 
9.3480426e+2, 3.049233e+2, 196658.72, 76882.43, -78995.555, -0.09651876, -0.12523915, 235901.23, 235901.23, 0.0002446386, 10.001411, 9.999847 
9.3477637e+2, 3.1492415e+2, -190415.13, -90388.48, -17541.428, 0.23772159, -0.030736987, -87401.48, -87401.48, 0.00047061927, 9.998662, 10.000013 
9.4533914e+2, 1.2497133e+2, -1825437.6, -1968995.5, -98143.055, 0.29188687, 0.048959624, -1775625.9, -60347.785, 0.000016753027, 10.000077, 9.998222 
9.4530755e+2, 1.3496959e+2, -1666286.9, -1864771.3, 814.839, 0.0635463, 0.06829682, -1666283.5, -48980.0, 0.000002343361, 10.000623, 9.997999 
9.4527745e+2, 1.4496931e+2, -1348933.9, -1344420.9, 32656.725, -0.009257516, 0.10921017, -1313942.8, 205363.52, 0.0000000053592455, 10.000757, 10.000825 
9.452507e+2, 1.5496962e+2, -1280192.4, -1259727.1, -48316.098, 0.19837624, 0.04754758, -1220572.0, 200722.88, 0.0, 10.00055, 10.000834 
9.4522244e+2, 1.6496892e+2, -1344684.8, -1512854.9, -69960.4, 0.27577442, 0.021040173, -1319386.3, 3913.264, 0.0, 10.000609, 9.998396 
9.451927e+2, 1.749672e+2, -1206142.1, -1395245.5, -7005.0474, 0.22994472, 0.004728292, -1205883.0, 19438.098, 0.0, 10.000893, 9.998392 
9.4516313e+2, 1.8496588e+2, -1061064.4, -1155338.5, 19630.082, 0.21053787, -0.012857285, -1057140.3, 70194.66, 0.0, 10.000703, 9.999454 
9.451338e+2, 1.9496484e+2, -1059109.1, -1104542.8, 3277.8564, 0.2123459, -0.06751937, -1058873.9, -29531.332, 0.0, 10.000045, 9.999447 
9.451042e+2, 2.049641e+2, -976297.5, -1031502.3, -7233.416, 0.19363365, -0.073874004, -975365.44, -44016.992, 0.0, 10.000013, 9.999294 
9.450744e+2, 2.1496363e+2, -796190.06, -892892.1, -18053.596, 0.15908347, -0.056878965, -792929.5, 40423.367, 0.0, 10.000573, 9.999304 
9.450448e+2, 2.2496253e+2, -702558.25, -828606.06, -24132.498, 0.16913445, -0.07546822, -698095.9, 37265.797, 0.0, 10.00068, 9.999021 
9.4501555e+2, 2.3496072e+2, -653025.4, -753398.2, -14244.515, 0.23149891, -0.16578911, -651043.0, -13666.657, 0.0, 10.000345, 9.999024 
9.449853e+2, 2.4495988e+2, -603685.8, -718086.5, 4319.5664, 0.18275681, -0.12984338, -603522.94, -64137.754, 0.0, 10.000176, 9.998677 
9.449539e+2, 2.5495994e+2, -505485.3, -619753.25, 10056.063, 0.02177857, 0.0028398659, -504607.1, -63218.258, 0.0, 10.000176, 9.99868 
9.4492406e+2, 2.64959e+2, -380474.56, -462223.47, -5660.215, 0.018086273, 0.027852416, -380084.5, -36686.402, 0.000000027783642, 10.000164, 9.999094 
9.448957e+2, 2.7495697e+2, -283085.75, -363693.5, -39280.766, 0.18414092, -0.09235136, -267110.16, -21695.705, 0.000002328807, 10.000155, 9.999102 
9.448661e+2, 2.8495523e+2, -220874.95, -338263.66, 34889.7, 0.14493963, -0.14487329, -211288.14, -63857.867, 0.000023776485, 10.000151, 9.998608 
9.4483525e+2, 2.9495388e+2, -132220.39, -242904.92, 78388.67, -0.109775476, -0.14678688, -91606.67, -42161.355, 0.00010394975, 10.000079, 9.998623 
9.448048e+2, 3.049533e+2, 31243.232, -13354.637, -65264.367, -0.12169925, -0.11529944, 77912.984, 77912.984, 0.00027361658, 10.000322, 9.999753 
9.447764e+2, 3.1495377e+2, 115499.086, 39331.87, -87560.21, 0.2814473, -0.051358853, 172899.25, 172899.25, 0.00052026927, 10.000829, 9.999872 
9.553365e+2, 1.2499673e+2, -1633607.3, -1565755.5, -77317.51, -0.0042685834, -0.090290524, -1515248.3, 199783.05, 0.00002677623, 10.000061, 10.00099 
9.553096e+2, 1.3499857e+2, -1478373.4, -1468052.8, 19336.89, 0.20342378, 0.011279081, -1453199.5, 163811.83, 0.0000047533053, 10.000591, 10.000734 
9.5528007e+2, 1.4499861e+2, -1512488.3, -1674099.6, 19107.225, 0.17628917, 0.05777548, -1510259.9, 8751.589, 0.000000046136613, 10.000713, 9.998585 
9.552501e+2, 1.5499601e+2, -1436100.4, -1585079.3, -49156.85, 0.07013976, -0.0705851, -1421342.6, -302.88367, 0.0, 10.000557, 9.998598 
9.5522135e+2, 1.6499518e+2, -1221141.6, -1253456.3, -60269.75, 0.102202244, -0.08763555, -1174901.0, 148147.05, 0.0, 10.000598, 10.00018 
9.5519406e+2, 1.7499603e+2, -1086089.1, -1138410.0, 8034.338, 0.27192032, -0.02422001, -1084883.3, 140154.38, 0.0, 10.00086, 10.00017 
9.551646e+2, 1.8499608e+2, -1090334.6, -1209797.9, -8837.138, 0.27891892, 0.021431942, -1089684.5, 37352.516, 0.0, 10.000672, 9.999096 
9.551331e+2, 1.9499518e+2, -1084310.0, -1156800.1, -16877.691, 0.1287035, 0.017777285, -1080573.0, -51525.785, 0.0, 10.000042, 9.999091 
9.5510304e+2, 2.0499437e+2, -990604.44, -1057531.6, 9319.401, 0.07001502, 0.030742545, -989331.0, -58274.523, 0.0, 9.999996, 9.9991255 
9.550744e+2, 2.1499357e+2, -817186.56, -923024.44, 6707.7183, 0.10116517, 0.032462526, -816763.2, 16302.261, 0.0, 10.000514, 9.999126 
9.550446e+2, 2.2499284e+2, -683304.75, -776740.5, -41686.26, 0.07717718, 0.039874505, -667410.3, 67661.234, 0.0, 10.000627, 9.999403 
9.550137e+2, 2.3499209e+2, -633815.44, -704005.8, -22677.686, 0.0019407006, 0.018979212, -627126.06, 9950.035, 0.0, 10.000299, 9.999389 
9.549842e+2, 2.4499087e+2, -592062.4, -683298.4, 816.6758, 0.052062813, -0.013571649, -592055.1, -52969.18, 0.0, 10.0001335, 9.998936 
9.549562e+2, 2.549891e+2, -493064.8, -585061.94, 13987.1, 0.22751759, -0.09043005, -490985.22, -49883.32, 0.0, 10.000139, 9.998936 
9.549263e+2, 2.6498777e+2, -440807.3, -578090.9, -7207.6226, 0.22919804, -0.07999975, -440429.94, -97314.47, 0.000000030362223, 10.000125, 9.998318 
9.5489466e+2, 2.7498677e+2, -342891.5, -482039.3, -32488.87, 0.057690345, -0.014561183, -335679.63, -90551.91, 0.000002140531, 10.00013, 9.998303 
9.5486486e+2, 2.8498593e+2, -137130.86, -155877.66, 28984.127, -0.006991236, -0.0022171554, -116042.15, 31092.361, 0.000025776937, 10.000115, 9.999875 
9.548368e+2, 2.9498526e+2, -52377.95, -62776.273, 80980.91, 0.034723543, -0.06481161, 23570.527, 72706.04, 0.00011520068, 10.000015, 9.999889 
9.548071e+2, 3.049844e+2, -53964.746, -170233.16, -42848.703, 0.07680299, -0.072301224, -39879.855, -39879.855, 0.0003025404, 10.000239, 9.998714 
9.547773e+2, 3.1498244e+2, 46855.98, -94890.89, -58751.066, 0.2699888, -0.14709568, 68040.85, 68040.85, 0.00057311467, 10.000801, 9.998959 
9.653367e+2, 1.2502375e+2, -1806435.9, -1594699.8, -6129.3345, 0.09312994, -0.11209924, -1594522.5, 120246.17, 0.000040530904, 9.998636, 10.00148 
9.653096e+2, 1.3502601e+2, -1622266.5, -1480706.5, -88008.14, 0.2187941, -0.02083638, -1438547.5, 178196.17, 0.000008656152, 9.99936, 10.00124 
9.652801e+2, 1.450266e+2, -1651297.4, -1708624.9, -94924.086, 0.16560476, 0.041724548, -1580803.8, -62065.54, 0.00000019058375, 9.9996195, 9.998875 
9.6524984e+2, 1.550246e+2, -1580199.9, -1622499.0, 3313.186, 0.055821378, -0.05472254, -1579941.9, -159180.39, 0.0, 9.999434, 9.998881 
9.65221e+2, 1.6502424e+2, -1385959.3, -1285833.3, 47474.066, 0.08395726, -0.06000762, -1266902.9, 55862.57, 0.0, 9.999268, 10.000598 
9.651938e+2, 1.750254e+2, -1304589.3, -1198330.0, 11881.8, 0.25132838, -0.00679191, -1197017.6, 27733.242, 0.0, 9.999161, 10.000579 
9.6516454e+2, 1.8502557e+2, -1232393.0, -1275746.4, -23875.006, 0.26185843, 0.030006966, -1221822.4, -95073.414, 0.0, 9.999684, 9.999124 
9.6513337e+2, 1.9502462e+2, -974214.25, -1101040.4, -12920.707, 0.1192414, 0.019786833, -972911.3, 55849.133, 0.0, 10.000787, 9.999118 
9.6510357e+2, 2.0502405e+2, -835110.1, -948865.8, 37927.94, 0.082385816, 0.039960984, -823624.1, 107143.33, 0.0, 10.000929, 9.999419 
9.650752e+2, 2.1502373e+2, -850260.44, -906577.8, 61368.16, 0.15057608, 0.060250822, -810899.0, 21871.82, 0.0, 10.000154, 9.999411 
9.650453e+2, 2.2502334e+2, -756248.2, -823530.2, 34722.59, 0.11107313, 0.09373318, -741542.75, -6768.358, 0.0, 10.000176, 9.999301 
9.650139e+2, 2.3502283e+2, -538459.3, -666171.9, 8793.65, -0.030632056, 0.106675275, -537856.7, 98922.33, 0.0, 10.000993, 9.999314 
9.649845e+2, 2.4502133e+2, -444825.5, -604429.3, -4992.6846, 0.028431423, 0.046044406, -444669.47, 94121.73, 0.0, 10.00111, 9.999006 
9.649572e+2, 2.5501877e+2, -426867.25, -545075.56, -13292.933, 0.29297704, -0.11393271, -425390.88, 15420.825, 0.0, 10.000565, 9.999002 
9.6492726e+2, 2.6501736e+2, -378287.06, -563317.8, 11880.21, 0.29140645, -0.10858273, -377527.4, -34702.074, 0.000000012060779, 10.00062, 9.998182 
9.648949e+2, 2.7501693e+2, -194835.77, -425750.06, 27988.365, 0.02028426, 0.026863657, -191491.81, 53341.652, 0.0000023356135, 10.001211, 9.998169 
9.648651e+2, 2.8501597e+2, -66730.086, -152946.23, 20871.273, -0.016220603, 0.047227725, -61943.316, 84898.74, 0.000028836348, 10.000727, 9.999603 
9.648379e+2, 2.9501456e+2, -191140.3, -162827.23, -56077.65, 0.1896036, -0.06230971, -119146.836, -70296.63, 0.00012695143, 9.999205, 9.999596 
9.648082e+2, 3.0501372e+2, -162577.95, -277225.06, -123502.88, 0.19999036, -0.031466138, -83743.68, -83743.68, 0.00033048782, 9.999726, 9.998226 
9.6477777e+2, 3.1501147e+2, 209071.22, -53546.668, -114794.85, 0.18067013, -0.08488179, 252175.28, 252175.28, 0.00062489236, 10.0020685, 9.998636 
9.75339e+2, 1.2505212e+2, -1897146.6, -1797387.4, 24843.572, 0.4439593, -0.03548938, -1791542.8, -77050.15, 0.000058506626, 9.998693, 10.000061 
9.7530776e+2, 1.3505203e+2, -1714673.0, -1683883.0, -52545.31, 0.082465746, -0.036223203, -1644523.9, -28026.37, 0.00001444443, 9.9994, 9.999828 
9.7527754e+2, 1.4505343e+2, -1471867.1, -1338636.1, -100995.15, -0.05733358, 0.04953573, -1284265.5, 234218.02, 0.0000005546723, 9.99963, 10.001411 
9.752499e+2, 1.5505525e+2, -1403752.6, -1256003.1, 303.75616, 0.11405154, 0.08221384, -1256002.5, 164459.11, 0.0, 9.9994335, 10.001399 
9.752213e+2, 1.6505589e+2, -1442678.9, -1406289.8, 39213.47, 0.17393258, 0.09381877, -1381255.5, -58801.61, 0.0, 9.999277, 9.999767 
9.751919e+2, 1.7505528e+2, -1356637.5, -1316052.3, 12721.485, 0.13891843, 0.052862316, -1312394.4, -87933.72, 0.0, 9.999199, 9.999755 
9.75163e+2, 1.8505444e+2, -1204242.8, -1218849.8, 15499.497, 0.13146824, 0.011181975, -1194412.1, -67942.59, 0.0, 9.999691, 9.999511 
9.7513443e+2, 1.950533e+2, -951771.56, -1047242.0, 32861.363, 0.14705302, -0.05912897, -941554.06, 86927.25, 0.0, 10.000754, 9.999503 
9.751056e+2, 2.0505325e+2, -789170.06, -846116.8, 4588.3965, 0.19016872, -0.041394573, -788802.7, 141677.92, 0.0, 10.000892, 10.000144 
9.7507656e+2, 2.1505414e+2, -804941.75, -805918.4, 35534.895, 0.26563388, 0.02968082, -769891.8, 62577.168, 0.0, 10.00012, 10.00012 
9.750467e+2, 2.2505404e+2, -801148.1, -909456.06, 60589.055, 0.22977822, 0.08482334, -774039.0, -39568.67, 0.0, 10.000146, 9.998724 
9.750162e+2, 2.3505291e+2, -587703.5, -755497.56, 42077.098, 0.089952715, 0.0940782, -577743.25, 58741.938, 0.0, 10.000938, 9.998725 
9.7498614e+2, 2.4505126e+2, -457524.0, -623662.4, -30157.021, 0.07345648, 0.054223105, -452219.34, 86281.445, 0.0, 10.001076, 9.998893 
9.7495663e+2, 2.5504902e+2, -438573.9, -564193.6, -29476.068, 0.17640942, -0.06457746, -432001.38, 8516.734, 0.0, 10.000537, 9.998887 
9.7492665e+2, 2.650478e+2, -347742.66, -489420.25, 32339.094, 0.16364096, -0.06115455, -340710.06, 1817.7177, 0.0000000034767167, 10.00058, 9.998705 
9.748964e+2, 2.7504742e+2, -163456.1, -350614.28, 56237.63, 0.04016965, 0.025877424, -147857.72, 96673.81, 0.0000028342504, 10.001172, 9.998701 
9.748669e+2, 2.850453e+2, -207189.89, -436487.94, -39761.78, 0.09001918, 0.00019454092, -200490.67, -53937.42, 0.000032308424, 10.000691, 9.997674 
9.7483826e+2, 2.9504153e+2, -334570.16, -448979.63, -107688.63, 0.30215198, -0.14889328, -269835.47, -221243.73, 0.00013865711, 9.999154, 9.997656 
9.748079e+2, 3.0504096e+2, -169751.56, -272713.53, -37036.313, 0.19476885, 0.0049409415, -157813.45, -157813.45, 0.0003574127, 9.99965, 9.998292 
9.7477746e+2, 3.150409e+2, 225221.0, -3581.7207, -17172.62, -0.06998186, 0.15608735, 226502.7, 226502.7, 0.0006733306, 10.00201, 9.998998 
9.8533696e+2, 1.250821e+2, -1806607.9, -1758711.0, 145184.52, 0.3441689, 0.06681486, -1635513.0, 78688.875, 0.00008108169, 9.999337, 10.000017 
9.8530686e+2, 1.3508154e+2, -1753886.3, -1705880.9, 142787.63, 0.07600219, 0.025569456, -1585092.6, 31117.43, 0.000022462764, 9.999149, 9.999799 
9.8527735e+2, 1.4508282e+2, -1523446.5, -1317749.3, 64804.395, -0.0047017913, 0.080365345, -1299035.3, 219160.84, 0.0000013019285, 9.99908, 10.001817 
9.852496e+2, 1.5508473e+2, -1400605.8, -1207817.1, 11371.301, 0.1575673, 0.0805267, -1207148.8, 213023.31, 0.0, 9.999255, 10.001812 
9.8522085e+2, 1.6508554e+2, -1382659.1, -1371002.9, 27338.166, 0.18874745, 0.08609524, -1348878.5, -26716.389, 0.0, 9.999663, 9.999824 
9.851912e+2, 1.7508516e+2, -1202463.9, -1232673.5, 56438.723, 0.10692481, 0.061505385, -1159143.6, 65023.387, 0.0, 10.000228, 9.999826 
9.851627e+2, 1.850845e+2, -1109136.6, -1156350.8, 90024.77, 0.11120302, 0.028138226, -1039675.2, 86499.18, 0.0, 10.000272, 9.999659 
9.8513514e+2, 1.9508353e+2, -1078814.0, -1091609.3, 83161.24, 0.19370599, -0.04070132, -1001804.7, 26379.941, 0.0, 9.999808, 9.999654 
9.8510647e+2, 2.0508341e+2, -926766.9, -905068.56, 17404.04, 0.24080008, -0.03956468, -895409.06, 34775.05, 0.0, 9.999909, 10.000216 
9.850767e+2, 2.1508403e+2, -741038.94, -765352.5, -6706.1587, 0.25848228, -0.004911826, -739311.94, 92862.28, 0.0, 10.000517, 10.000208 
9.850471e+2, 2.2508366e+2, -723527.0, -892826.8, 33668.777, 0.23504485, 0.027674273, -717077.0, 17101.223, 0.0, 10.00077, 9.998539 
9.850178e+2, 2.3508225e+2, -637986.75, -799926.75, 39520.31, 0.17672135, 0.027948624, -628856.8, 7339.924, 0.0, 10.00068, 9.998546 
9.849877e+2, 2.450809e+2, -498549.6, -666100.75, -26826.693, 0.13541348, 0.036963996, -494359.16, 43851.746, 0.0, 10.000901, 9.998682 
9.849568e+2, 2.550795e+2, -320837.8, -531612.06, -44139.96, 0.108412586, 0.022493007, -311967.44, 128254.58, 0.0, 10.001451, 9.998671 
9.849269e+2, 2.65078e+2, -261279.8, -486069.28, -17179.01, 0.097939484, 0.027014157, -259974.5, 82260.766, 0.00000001775074, 10.00133, 9.998372 
9.848979e+2, 2.7507636e+2, -275454.4, -441263.9, -67025.15, 0.11434277, 0.020087592, -251749.72, -7498.315, 0.000003544514, 10.000557, 9.998378 
9.848685e+2, 2.8507385e+2, -205976.67, -464181.38, -126059.805, 0.1811226, -0.0134880515, -154639.31, -8362.635, 0.000035208486, 10.000824, 9.997422 
9.848386e+2, 2.9507056e+2, 69581.26, -286377.6, -72725.836, 0.29031137, -0.091511235, 83866.555, 132177.61, 0.00014828902, 10.002064, 9.9973755 
9.8480827e+2, 3.0506983e+2, 199927.25, -110561.51, 100460.266, 0.1484007, 0.0673819, 229596.6, 229596.6, 0.00038101713, 10.002255, 9.998151 
9.84779e+2, 3.15069e+2, 149334.61, -30862.738, 84149.73, -0.083384335, 0.1596736, 182519.95, 182519.95, 0.0007157471, 10.001432, 9.999099 
9.953309e+2, 1.2511352e+2, -1724388.3, -1589337.1, 135921.97, -0.21508737, 0.18779531, -1505091.5, 208806.03, 0.000108580556, 9.999351, 10.00117 
9.9530697e+2, 1.3511424e+2, -1672874.9, -1534490.8, 131636.61, 0.1650389, 0.15554959, -1454969.1, 160915.47, 0.000033028722, 9.99914, 10.0009775 
9.952792e+2, 1.451145e+2, -1629243.3, -1539477.6, 64431.125, 0.26168418, 0.12841159, -1505837.6, 12041.495, 0.0000026281716, 9.999082, 10.0002985 
9.9524885e+2, 1.5511316e+2, -1498098.8, -1419093.1, 21739.688, 0.14827204, -0.047475923, -1413506.1, 6385.6045, 0.00000000019976186, 9.999287, 10.000349 
9.9521965e+2, 1.6511339e+2, -1321384.1, -1243689.4, 44279.17, 0.10018395, -0.072520226, -1223632.1, 98256.19, 0.0, 9.999665, 10.000695 
9.951916e+2, 1.7511502e+2, -1143465.4, -1107781.0, 78592.26, 0.11734414, 0.017907932, -1045031.06, 178838.97, 0.0, 10.0002165, 10.0006895 
9.9516344e+2, 1.8511567e+2, -1119272.0, -1169120.4, 66475.99, 0.15845181, 0.07372964, -1073201.4, 52662.957, 0.0, 10.0002365, 9.999589 
9.951353e+2, 1.9511522e+2, -1084889.1, -1102165.5, 67941.68, 0.22363892, 0.06644888, -1025038.7, 2832.782, 0.0, 9.999797, 9.999589 
9.9510604e+2, 2.0511451e+2, -971717.75, -987822.2, 34445.305, 0.20221101, 0.039076645, -944396.0, -14517.615, 0.0, 9.999868, 9.999666 
9.950757e+2, 2.1511345e+2, -788938.1, -848386.44, 18451.934, 0.09971215, -0.039027132, -783676.56, 48209.38, 0.0, 10.000447, 9.999671 
9.9504656e+2, 2.2511229e+2, -715084.6, -860349.3, 26139.535, 0.098758556, -0.0726112, -710524.1, 23373.098, 0.0, 10.000706, 9.998792 
9.9501866e+2, 2.3511095e+2, -628521.06, -767879.3, 39908.78, 0.19640505, -0.09080836, -617901.44, 18011.492, 0.0, 10.000628, 9.998791 
9.9498904e+2, 2.4511027e+2, -529401.06, -721348.94, -9548.383, 0.17765325, -0.007380094, -528927.25, 8994.061, 0.0, 10.000861, 9.9983225 
9.9495775e+2, 2.5511014e+2, -351423.28, -587382.6, -19099.502, 0.051880542, 0.14400859, -349887.3, 90036.36, 0.0, 10.001415, 9.998305 
9.949279e+2, 2.6510796e+2, -351678.06, -667540.7, -50280.83, 0.059106022, 0.1598051, -343867.22, -1919.4349, 0.000000028595345, 10.001301, 9.997141 
9.948993e+2, 2.7510372e+2, -369612.63, -623112.0, -92441.8, 0.19389743, 0.015419909, -339483.5, -95489.82, 0.000003781716, 10.000498, 9.997159 
9.948697e+2, 2.8510168e+2, -105363.57, -243763.36, -80206.914, 0.21083194, 0.010092216, -68630.59, 77382.29, 0.000036350866, 10.000774, 9.998959 
9.948391e+2, 2.9510173e+2, 181737.63, -57714.39, -16324.871, 0.11598711, 0.113116845, 182845.47, 230852.27, 0.00015374523, 10.002087, 9.998932 
9.9480945e+2, 3.051004e+2, 170880.19, -175025.83, 69414.93, 0.028820707, 0.15497078, 184290.2, 184290.2, 0.0003968945, 10.002273, 9.9977 
9.947821e+2, 3.1509545e+2, 116509.94, -66737.49, 63099.383, 0.072047345, -0.12038998, 136135.66, 136135.66, 0.00074672204, 10.0013, 9.998912 
1.0053307e+3, 1.2514299e+2, -1724113.0, -1566051.4, 98353.914, -0.16508925, 0.19048522, -1518910.3, 194696.81, 0.00014134821, 9.999264, 10.001367 
1.0053062e+3, 1.3514298e+2, -1691694.9, -1518415.4, 1814.0967, 0.19141054, 0.057441268, -1518396.4, 97201.85, 0.000046426092, 9.998905, 10.001199 
1.0052784e+3, 1.4514309e+2, -1685569.3, -1604626.6, -25756.953, 0.29437086, 0.02355106, -1597125.5, -79531.61, 0.00000474816, 9.998876, 9.999944 
1.00524805e+3, 1.5514217e+2, -1543758.3, -1482482.8, -906.37366, 0.1534648, -0.07382612, -1482469.4, -62863.465, 0.000000004412824, 9.999163, 9.999972 
1.00521915e+3, 1.6514234e+2, -1371832.6, -1256609.9, 37781.848, 0.10325387, -0.08837286, -1245326.1, 76277.67, 0.0, 9.999267, 10.000801 
1.0051915e+3, 1.7514363e+2, -1279995.4, -1160395.0, 10677.805, 0.1423027, -0.046266273, -1159449.3, 64139.117, 0.0, 9.999225, 10.000807 
1.00516334e+3, 1.8514447e+2, -1239941.6, -1208588.4, -24602.81, 0.17581834, 0.015926616, -1195092.1, -69511.75, 0.0, 9.999324, 9.99976 
1.00513466e+3, 1.9514479e+2, -1121526.5, -1101043.1, -14235.285, 0.2046672, 0.06636709, -1093748.1, -66167.37, 0.0, 9.999469, 9.999754 
1.00510515e+3, 2.0514424e+2, -1033093.4, -1044064.3, -4865.585, 0.15696415, 0.058849536, -1031246.44, -101659.31, 0.0, 9.999562, 9.999425 
1.005075e+3, 2.151428e+2, -933244.9, -944338.44, -6156.085, 0.038108498, -0.034129705, -930505.3, -98905.266, 0.0, 9.999574, 9.99943 
1.0050463e+3, 2.2514164e+2, -795629.2, -864633.4, 25203.018, 0.040254787, -0.07037076, -787404.44, -53793.3, 0.0, 10.000004, 9.999101 
1.00501895e+3, 2.3514065e+2, -579693.94, -710638.2, 33302.43, 0.16051513, -0.08517864, -571711.0, 63910.65, 0.0, 10.000816, 9.999093 
1.0049899e+3, 2.4513999e+2, -474821.47, -710203.6, 2132.6768, 0.16593516, -0.009237709, -474802.16, 62827.58, 0.0, 10.001295, 9.998194 
1.0049593e+3, 2.551396e+2, -354057.63, -600400.3, 3097.8777, 0.06735017, 0.12687895, -354018.7, 85617.24, 0.0, 10.001454, 9.998196 
1.00492954e+3, 2.651375e+2, -316800.88, -658388.1, 5976.958, 0.093916036, 0.15896931, -316696.34, 24963.74, 0.000000017098808, 10.001587, 9.99706 
1.0049007e+3, 2.7513358e+2, -201259.56, -551763.25, 42329.37, 0.23616293, 0.05716949, -196220.03, 47483.0, 0.000003428396, 10.0016985, 9.997067 
1.0048708e+3, 2.8513154e+2, -4931.0835, -204446.47, 70873.67, 0.22209828, 0.061292488, 17682.277, 163404.67, 0.00003625069, 10.001498, 9.998881 
1.00484006e+3, 2.951313e+2, 15283.872, -146165.02, 1114.971, 0.06466633, 0.14379218, 15291.571, 63010.6, 0.00015665985, 10.000973, 9.99886 
1.0048107e+3, 3.0512962e+2, -97422.65, -326985.63, -692.1774, 0.019422181, 0.16379702, -97420.555, -97420.555, 0.0004073917, 10.000519, 9.997502 
1.00478396e+3, 3.1512448e+2, -56660.773, -149171.28, -1560.1399, 0.19533421, -0.11053204, -56634.47, -56634.47, 0.0007688647, 10.000091, 9.998933 
1.0153351e+3, 1.2517095e+2, -1764895.0, -1663999.1, 86496.03, 0.33166686, 0.08633637, -1614314.4, 99013.055, 0.0001798155, 9.999311, 10.000675 
1.0153044e+3, 1.3516828e+2, -1726679.9, -1606696.4, -6959.456, 0.11647228, -0.24610321, -1606294.0, 9051.246, 0.000062927356, 9.998961, 10.000569 
1.0152752e+3, 1.4516906e+2, -1641896.9, -1518052.5, -19038.383, 0.08112349, -0.21500447, -1515191.8, 2144.2708, 0.000007860604, 9.998893, 10.00053 
1.0152471e+3, 1.5517178e+2, -1507906.0, -1401927.4, 12359.267, 0.13613987, -0.0040869582, -1400505.1, 18808.719, 0.000000028517778, 9.999138, 10.000536 
1.01521894e+3, 1.6517243e+2, -1414771.6, -1343991.5, 32144.816, 0.15227534, 0.028306682, -1331572.1, -10263.177, 0.0, 9.999253, 10.00021 
1.01519085e+3, 1.7517108e+2, -1314789.9, -1241680.5, 14351.069, 0.1470451, -0.13480482, -1238964.4, -15643.916, 0.0, 9.999257, 10.000235 
1.0151623e+3, 1.8517114e+2, -1214059.1, -1152977.5, -22542.186, 0.13043892, -0.14176819, -1145559.3, -20238.852, 0.0, 9.999317, 10.000144 
1.0151332e+3, 1.9517238e+2, -1097682.5, -1046385.2, -5199.752, 0.10021932, -0.038377054, -1045863.44, -18552.623, 0.0, 9.999443, 10.000142 
1.0151039e+3, 2.051727e+2, -1036468.5, -1040750.06, -8519.968, 0.06798236, 0.019297693, -1029824.44, -100515.06, 0.0, 9.999519, 9.999469 
1.01507455e+3, 2.1517208e+2, -933376.1, -939826.06, -1766.0779, 0.034173477, 0.005362318, -932924.25, -101607.84, 0.0, 9.999551, 9.999474 
1.0150461e+3, 2.2517169e+2, -778604.1, -815721.94, 51091.645, 0.02017978, 0.025175927, -742805.06, -9484.595, 0.0, 9.9999485, 9.999461 
1.0150185e+3, 2.3517142e+2, -562717.9, -663392.75, 67386.01, 0.027647398, 0.04513159, -528943.9, 106378.875, 0.0, 10.000764, 9.999442 
1.0149902e+3, 2.4517013e+2, -474619.47, -696817.7, 2967.421, 0.06205992, 0.03547519, -474579.84, 62755.637, 0.0, 10.00124, 9.998311 
1.0149613e+3, 2.551678e+2, -350303.0, -585030.2, 12457.099, 0.12150467, -0.033220526, -349643.75, 89715.13, 0.0, 10.001419, 9.998319 
1.01493195e+3, 2.6516646e+2, -245261.89, -500314.78, 9057.09, 0.16830331, 0.015574512, -244940.67, 96431.88, 0.000000011022683, 10.001545, 9.998166 
1.01490214e+3, 2.7516595e+2, -129375.875, -396672.78, 55224.85, 0.20395097, 0.14338455, -118415.57, 124962.63, 0.0000031084232, 10.001674, 9.998145 
1.014872e+3, 2.8516352e+2, -137030.22, -471319.88, 48926.41, 0.17939144, 0.14456221, -130016.54, 15387.258, 0.000035475463, 10.001469, 9.99706 
1.01484135e+3, 2.9515925e+2, -125709.44, -416076.22, -14667.618, 0.10419875, 0.0029233308, -124970.4, -77522.26, 0.000157892, 10.000876, 9.99705 
1.0148119e+3, 3.0515745e+2, -106617.5, -320522.75, -15987.626, 0.08416264, 0.09870253, -105429.164, -105429.164, 0.00041497048, 10.000412, 9.997598 
1.0147843e+3, 3.1515625e+2, -57099.11, -118261.32, -4052.563, 0.20403332, 0.20872234, -56831.758, -56831.758, 0.00078651373, 9.999965, 9.999201 
1.0253358e+3, 1.2519906e+2, -1674968.1, -1635806.1, 60908.652, 0.44524473, 0.028926853, -1591408.4, 121642.945, 0.00022439056, 9.99999, 10.000543 
1.0253034e+3, 1.3519715e+2, -1700528.0, -1604479.0, -14216.33, 0.10642164, -0.22081767, -1602419.0, 12645.969, 0.0000828242, 9.999181, 10.000482 
1.0252738e+3, 1.4519827e+2, -1666690.0, -1502153.5, 10587.844, 0.0765937, -0.16209583, -1501475.0, 15577.672, 0.000012107546, 9.998596, 10.000783 
1.0252459e+3, 1.5520117e+2, -1609172.0, -1421925.4, 12406.881, 0.1653114, 0.039226178, -1421106.9, -2079.9292, 0.00000009714164, 9.998315, 10.000795 
1.025218e+3, 1.6520178e+2, -1530416.0, -1406892.5, 61736.938, 0.1881662, 0.0601795, -1381327.5, -60305.406, 0.0, 9.998494, 10.000143 
1.0251902e+3, 1.7520022e+2, -1344721.0, -1264090.8, 70218.84, 0.16882943, -0.11595308, -1223436.8, -399.89008, 0.0, 9.999086, 10.000165 
1.0251615e+3, 1.852003e+2, -1169676.6, -1116560.3, 46450.945, 0.12127406, -0.124825716, -1089611.1, 35426.063, 0.0, 9.999561, 10.000274 
1.02513224e+3, 1.9520177e+2, -1017065.44, -990812.9, 37886.605, 0.039945677, -0.010436751, -963843.1, 63181.97, 0.0, 9.999934, 10.000282 
1.0251035e+3, 2.0520228e+2, -911401.56, -959455.25, 35414.113, 0.04587521, 0.049165405, -892633.0, 36388.758, 0.0, 10.000283, 9.999662 
1.02507554e+3, 2.1520182e+2, -773039.5, -841378.56, 43999.563, 0.13581753, 0.032992326, -751499.8, 79527.43, 0.0, 10.000561, 9.999665 
1.0250474e+3, 2.2520165e+2, -705574.7, -786459.7, 95222.57, 0.12956205, 0.06755392, -642562.25, 90466.99, 0.0, 10.000472, 9.999412 
1.0250189e+3, 2.3520164e+2, -680720.6, -724932.75, 73781.445, 0.03921447, 0.121443465, -625804.7, 9224.025, 0.0, 9.999979, 9.999398 
1.02499075e+3, 2.452001e+2, -606256.7, -754637.4, 16351.907, 0.037624046, 0.08659477, -604476.06, -67432.34, 0.0, 10.000323, 9.998351 
1.0249627e+3, 2.5519702e+2, -349879.75, -579763.06, 6851.6924, 0.117347926, -0.06258042, -349675.72, 89398.445, 0.0, 10.001407, 9.998359 
1.0249334e+3, 2.6519576e+2, -194614.42, -413215.3, -44545.723, 0.16487275, -0.03524743, -185885.61, 155199.98, 0.00000001218603, 10.001612, 9.998737 
1.0249032e+3, 2.751962e+2, -193528.6, -362560.25, -44913.133, 0.18588963, 0.1267737, -182335.94, 60743.953, 0.0000027111198, 10.000952, 9.998726 
1.02487326e+3, 2.8519407e+2, -211516.34, -539460.1, 9732.777, 0.18923467, 0.14519046, -211227.75, -66125.01, 0.00003356216, 10.001103, 9.996764 
1.0248435e+3, 2.9518947e+2, 14681.238, -381112.25, 51321.24, 0.18068579, 0.0042910725, 21227.62, 68380.58, 0.00015613875, 10.0019865, 9.996755 
1.0248135e+3, 3.0518758e+2, 121236.86, -186958.77, 87802.555, 0.13579027, 0.09593614, 144495.83, 144495.83, 0.00041835016, 10.001879, 9.997808 
1.0247839e+3, 3.1518695e+2, 80021.234, -16511.348, 93234.97, 0.15140589, 0.240122, 136742.53, 136742.53, 0.00079985755, 10.0007515, 9.999521 
1.035333e+3, 1.2522751e+2, -1647120.6, -1584338.6, 25604.586, 0.1485631, 0.02271806, -1575220.5, 137556.14, 0.00027553758, 10.000026, 10.000876 
1.0353027e+3, 1.3522926e+2, -1680474.5, -1551555.0, -41833.3, 0.122995175, 0.10231963, -1539170.3, 75588.555, 0.000106410545, 9.999141, 10.000862 
1.0352739e+3, 1.4523049e+2, -1667532.5, -1506020.4, -2719.5308, 0.21952964, 0.15347448, -1505974.6, 10770.728, 0.000017580353, 9.998598, 10.000759 
1.0352448e+3, 1.5523031e+2, -1595045.8, -1414653.0, 8909.43, 0.19618173, 0.049196564, -1414214.0, 4530.969, 0.00000023822265, 9.9984045, 10.000804 
1.0352165e+3, 1.6523057e+2, -1493254.6, -1345704.3, 79948.086, 0.17528228, 0.012197328, -1310693.1, 10048.913, 0.0, 9.99856, 10.000532 
1.0351893e+3, 1.7523108e+2, -1320239.0, -1212000.4, 95839.25, 0.17280014, 0.0045786677, -1156055.8, 66681.84, 0.0, 9.999078, 10.000528 
1.035161e+3, 1.8523188e+2, -1185010.1, -1139726.9, 55593.25, 0.10944371, 0.057589024, -1102341.4, 22390.158, 0.0, 9.999523, 10.0001335 
1.0351316e+3, 1.9523285e+2, -1029283.44, -1011947.44, 54110.074, -0.013336515, 0.13536254, -965815.5, 60909.066, 0.0, 9.999912, 10.000149 
1.0351039e+3, 2.052329e+2, -895007.9, -913765.1, 40223.105, 0.055438362, 0.13924465, -863084.5, 65640.31, 0.0, 10.000233, 9.999999 
1.0350778e+3, 2.15232e+2, -756612.06, -798205.6, 57681.707, 0.30094087, 0.044056784, -716092.56, 114640.19, 0.0, 10.000518, 9.999983 
1.0350498e+3, 2.252315e+2, -747076.56, -857602.7, 71123.85, 0.3273275, 0.05406437, -712269.6, 20467.883, 0.0, 10.000409, 9.998953 
1.03502005e+3, 2.3523131e+2, -716247.56, -792350.25, 59815.0, 0.15344028, 0.13433048, -683406.5, -48666.605, 0.0, 9.9999485, 9.99895 
1.0349912e+3, 2.4522987e+2, -619705.44, -771313.94, 53703.953, 0.05100446, 0.13708177, -602609.75, -65855.15, 0.0, 10.000274, 9.9982605 
1.034963e+3, 2.552272e+2, -357171.75, -593041.4, 51393.727, 0.01748459, 0.037163086, -346460.03, 92321.766, 0.0, 10.001393, 9.998276 
1.03493385e+3, 2.6522535e+2, -197199.58, -409528.13, -72987.48, 0.048897162, 0.0053687366, -174530.53, 166268.84, 0.00000000560088, 10.001575, 9.998778 
1.0349038e+3, 2.7522415e+2, -199810.6, -358344.97, -64174.234, 0.1411849, 0.0005959677, -177089.45, 65719.875, 0.0000022721786, 10.000878, 9.99879 
1.0348746e+3, 2.852231e+2, -131634.47, -357039.97, 41338.223, 0.21035075, 0.057762314, -124292.41, 20527.924, 0.00003115889, 10.001033, 9.998051 
1.0348463e+3, 2.9522216e+2, 102875.0, -195978.08, 93671.055, 0.25362995, 0.15253133, 129807.63, 176639.67, 0.00015172908, 10.001977, 9.998031 
1.0348153e+3, 3.0522016e+2, 140423.63, -144258.34, 47961.266, 0.13418877, 0.1549675, 148286.63, 148286.63, 0.00041655955, 10.001873, 9.998101 
1.0347827e+3, 3.1521648e+2, 89141.805, 31025.328, 66572.08, -0.0596863, -0.032826472, 132721.17, 132721.17, 0.00080520567, 10.000643, 9.999893 
1.04533255e+3, 1.2525754e+2, -1669761.5, -1627996.8, 105990.414, 0.10304848, 0.002962652, -1540851.1, 171629.5, 0.0003338259, 10.000002, 10.000591 
1.0453016e+3, 1.352603e+2, -1786978.4, -1628335.9, -12379.48, 0.14746779, 0.20880805, -1627375.6, -12919.181, 0.00013404706, 9.998507, 10.000647 
1.0452732e+3, 1.4526114e+2, -1660270.0, -1505698.5, 91850.07, 0.29239964, 0.23192874, -1462944.6, 53503.035, 0.000024406929, 9.998667, 10.000728 
1.04524404e+3, 1.5525948e+2, -1318300.0, -1287189.0, 88218.516, 0.18914486, -0.015825568, -1213165.0, 205294.83, 0.0000004785213, 10.000329, 10.000753 
1.04521535e+3, 1.6525975e+2, -1258951.4, -1235816.3, 97898.51, 0.12761512, -0.044229776, -1148804.3, 171652.19, 0.0, 10.000191, 10.000495 
1.0451876e+3, 1.7526169e+2, -1409166.3, -1256256.3, 78528.01, 0.12093686, 0.0949026, -1223111.9, -672.2578, 0.0, 9.998483, 10.000504 
1.04515955e+3, 1.8526256e+2, -1389245.1, -1231097.3, 84446.66, 0.09048639, 0.15233143, -1194482.3, -70049.47, 0.0, 9.998089, 10.000197 
1.04513146e+3, 1.952624e+2, -1181502.6, -1079546.1, 89815.305, 0.03472036, 0.11142803, -1027250.1, -814.7504, 0.0, 9.998842, 10.000201 
1.0451041e+3, 2.0526227e+2, -1029899.5, -1010377.94, 60156.676, 0.09300004, 0.108211994, -959195.3, -30757.191, 0.0, 9.999448, 9.999712 
1.0450775e+3, 2.1526197e+2, -866138.2, -879752.4, 22631.637, 0.260032, 0.10146435, -849312.1, -18869.623, 0.0, 9.999898, 9.999719 
1.04504965e+3, 2.2526142e+2, -731401.94, -834309.5, 33694.71, 0.27698004, 0.11137008, -721351.06, 11096.891, 0.0, 10.000446, 9.999095 
1.0450205e+3, 2.352606e+2, -542529.9, -693757.44, 56007.547, 0.15567869, 0.11555443, -524046.44, 110408.22, 0.0, 10.001075, 9.999085 
1.0449919e+3, 2.4525939e+2, -498882.38, -674061.8, 97703.94, 0.07153169, 0.1156177, -455254.66, 81211.55, 0.0, 10.000922, 9.998622 
1.04496375e+3, 2.552577e+2, -531185.1, -636682.44, 122675.14, 0.02531506, 0.07848494, -450398.72, -11915.601, 0.0, 10.000021, 9.998638 
1.0449347e+3, 2.6525614e+2, -403086.13, -529833.1, 16046.999, 0.041118372, 0.06547665, -401086.03, -60587.223, 0.0000000009945924, 10.000257, 9.998585 
1.0449047e+3, 2.752545e+2, -125455.07, -343688.7, -4198.6943, 0.11670478, 0.038260657, -125374.32, 117140.516, 0.0000020282196, 10.001479, 9.9986 
1.0448756e+3, 2.8525332e+2, -21081.764, -239442.22, 61581.676, 0.19489066, 0.066948526, -4911.9834, 139614.1, 0.000028619394, 10.001505, 9.998633 
1.0448477e+3, 2.9525265e+2, -85764.36, -220396.02, 49445.184, 0.27757055, 0.12743452, -69556.26, -23023.66, 0.00014518836, 10.000393, 9.998626 
1.0448165e+3, 3.0525103e+2, -62902.95, -198326.53, -15555.414, 0.14886224, 0.11745787, -61139.15, -61139.15, 0.0004080561, 10.000288, 9.998492 
1.0447831e+3, 3.152482e+2, 178204.16, 120142.555, -3388.8337, -0.10398283, -0.023626396, 178401.28, 178401.28, 0.00079624756, 10.001041, 10.000324 
1.0553336e+3, 1.2528893e+2, -1729556.6, -1743720.9, 30322.082, 0.19195232, -0.040625155, -1705500.6, 6665.1797, 0.00039971265, 9.99997, 9.999809 
1.0553e+3, 1.3529047e+2, -1828729.8, -1729881.0, -62627.766, 0.133037, 0.11709746, -1699524.4, -85367.66, 0.00016604259, 9.998574, 9.999915 
1.0552717e+3, 1.4529055e+2, -1656957.8, -1514781.8, 149185.88, 0.26366544, 0.105617106, -1420612.6, 95544.04, 0.000032768716, 9.998731, 10.000637 
1.0552437e+3, 1.5528883e+2, -1333891.9, -1307550.5, 149124.78, 0.11276608, -0.13983977, -1171015.9, 247153.9, 0.0000008393984, 10.000276, 10.00064 
1.0552145e+3, 1.6528946e+2, -1298472.9, -1305783.6, 29378.541, 0.009287229, -0.104433276, -1272523.1, 47641.15, 0.0, 10.000138, 10.00004 
1.0551847e+3, 1.752921e+2, -1431849.5, -1315075.0, 20727.445, -0.02203784, 0.14952499, -1311505.0, -89362.21, 0.0, 9.998531, 10.000077 
1.0551571e+3, 1.8529244e+2, -1365770.0, -1189037.4, 108003.88, 0.029056516, 0.16080873, -1137856.4, -13715.923, 0.0, 9.998117, 10.000473 
1.0551313e+3, 1.9529064e+2, -1166976.6, -1046542.5, 121354.9, 0.14195849, -0.074260615, -971285.9, 54870.188, 0.0, 9.998829, 10.000435 
1.0551039e+3, 2.052905e+2, -1097750.1, -1145052.6, 72043.17, 0.120037064, -0.040385243, -1045575.25, -117414.7, 0.0, 9.999418, 9.998803 
1.0550747e+3, 2.1529177e+2, -931643.25, -1008684.25, 43112.707, -0.01585495, 0.19942254, -912349.1, -82193.01, 0.0, 9.999863, 9.998852 
1.05504684e+3, 2.2529143e+2, -689509.25, -736150.2, 53750.918, -0.048769865, 0.23706155, -654237.9, 77922.3, 0.0, 10.000397, 9.999793 
1.05502024e+3, 2.3528956e+2, -496934.16, -592641.56, 82208.76, 0.009840342, 0.06559429, -449665.53, 184507.13, 0.0, 10.001044, 9.999795 
1.0549928e+3, 2.4528867e+2, -447136.03, -557076.7, 59454.387, 0.061569694, 0.021143997, -421133.75, 115044.22, 0.0, 10.000881, 9.999445 
1.0549647e+3, 2.5528857e+2, -481963.8, -524980.7, 94575.34, 0.10884451, 0.05757282, -406482.0, 31695.795, 0.0, 9.999979, 9.999426 
1.0549357e+3, 2.6528808e+2, -443706.66, -600935.1, 61258.918, 0.10996736, 0.14233245, -422657.2, -82473.38, 0.000000000012280949, 10.000201, 9.998121 
1.05490565e+3, 2.7528727e+2, -161417.63, -411816.1, 48018.438, 0.06626903, 0.24245746, -152525.03, 89670.73, 0.0000016155456, 10.0014515, 9.998145 
1.0548762e+3, 2.8528482e+2, -37977.246, -267785.1, 16650.53, 0.09990647, 0.17387146, -36777.113, 107442.84, 0.00002530106, 10.001474, 9.998455 
1.0548474e+3, 2.9528084e+2, -106597.266, -246394.97, 14107.39, 0.21046239, -0.07818167, -105187.86, -58931.94, 0.00013660942, 10.0003195, 9.998484 
1.0548168e+3, 3.0528006e+2, -40608.855, -135297.5, 12168.495, 0.14483352, -0.0205061, -39070.08, -39070.08, 0.00039378775, 10.000212, 9.998964 
1.0547848e+3, 3.1528226e+2, 203929.86, 190164.83, 39151.758, -0.053496055, 0.29189074, 236799.44, 236799.44, 0.00077582727, 10.000974, 10.000838 
1.06533304e+3, 1.253194e+2, -1942197.9, -1868983.9, -66387.97, 0.21769325, -0.0399322, -1829779.0, -117913.68, 0.00047318285, 9.998612, 9.999602 
1.0652991e+3, 1.3531956e+2, -1656375.8, -1670934.1, -121260.8, 0.112268165, 0.0006642069, -1542175.9, 71693.99, 0.00020250746, 9.99986, 9.9997 
1.06527075e+3, 1.4531969e+2, -1563161.0, -1504899.1, 104205.76, 0.25475177, 0.01903551, -1425829.1, 90042.12, 0.000042863663, 9.999532, 10.000315 
1.0652419e+3, 1.5531951e+2, -1705918.5, -1520425.4, 77698.66, 0.050281387, -0.038485542, -1492180.1, -74307.664, 0.0000013547858, 9.997871, 10.000335 
1.0652128e+3, 1.6532019e+2, -1574380.4, -1400278.6, -871.6062, -0.05391455, -0.0012833424, -1400274.3, -80407.82, 0.0, 9.998075, 10.000389 
1.0651837e+3, 1.7532164e+2, -1209681.3, -1171395.4, 39147.05, -0.031044878, 0.098767966, -1146961.5, 74892.19, 0.0, 9.999898, 10.000409 
1.0651566e+3, 1.8532193e+2, -1042953.94, -1050450.5, 139575.52, 0.055850103, 0.0966616, -907076.4, 216774.84, 0.0, 10.000407, 10.000321 
1.065131e+3, 1.9532102e+2, -1042638.06, -1002639.56, 114716.13, 0.18195313, -0.030477732, -906192.44, 119666.88, 0.0, 9.999748, 10.000295 
1.0651034e+3, 2.053211e+2, -1059198.1, -1087697.5, 117404.89, 0.1326571, 0.012832369, -955181.3, -27320.31, 0.0, 9.999517, 9.999148 
1.065074e+3, 2.1532202e+2, -936873.6, -973620.2, 171861.36, -0.06457859, 0.18332593, -782406.25, 47451.23, 0.0, 9.999669, 9.999184 
1.0650464e+3, 2.2532155e+2, -784188.25, -796847.5, 204359.88, -0.10891165, 0.19983251, -586060.0, 145802.56, 0.0, 9.999815, 9.999658 
1.0650204e+3, 2.3531973e+2, -669100.9, -687495.7, 163288.61, -0.016530214, 0.046718538, -514750.88, 119125.625, 0.0, 9.99992, 9.999683 
1.06499314e+3, 2.45319e+2, -575608.75, -600338.44, 59266.152, 0.06703894, 0.01658136, -527431.3, 8449.117, 0.0, 9.999929, 9.9996 
1.0649648e+3, 2.5531918e+2, -487956.4, -511049.94, 34244.508, 0.14211424, 0.06514556, -463364.38, -25487.803, 0.0, 9.999872, 9.99957 
1.0649361e+3, 2.6531863e+2, -448611.38, -613508.94, 52330.188, 0.14484139, 0.14086224, -433406.44, -93523.23, 0.0, 10.00021, 9.998032 
1.0649069e+3, 2.7531743e+2, -255402.56, -465239.28, 57477.438, 0.08465543, 0.21230811, -240690.17, 1209.4915, 0.00000091217555, 10.000842, 9.998073 
1.0648773e+3, 2.85315e+2, -89870.45, -286705.47, 864.7736, 0.082009405, 0.14365928, -89866.66, 54057.39, 0.00002073869, 10.001102, 9.9985 
1.06484726e+3, 2.9531127e+2, 4578.505, -191398.72, 6716.4824, 0.13604443, -0.08589161, 4808.421, 50765.375, 0.00012474366, 10.001074, 9.998498 
1.064817e+3, 3.0531043e+2, 76535.35, -147813.28, 20559.295, 0.106118605, -0.0071765655, 78403.84, 78403.84, 0.00037290223, 10.001302, 9.998353 
1.06478676e+3, 3.1531247e+2, 269083.4, 158769.45, -49923.664, 0.024330398, 0.34983593, 288321.75, 288321.75, 0.00074591686, 10.00167, 10.00029 
1.0753307e+3, 1.2534912e+2, -1924268.8, -1823336.8, -51120.465, 0.10605482, -0.0018027789, -1801968.8, -90391.945, 0.00055371417, 9.998585, 9.999926 
1.07529834e+3, 1.3534781e+2, -1645844.9, -1633284.4, -75229.13, 0.056459717, -0.13718462, -1564073.9, 49519.32, 0.00024334127, 9.999801, 9.999981 
1.07527e+3, 1.4534865e+2, -1603107.3, -1590635.0, 38607.31, 0.22984266, -0.031328958, -1557763.4, -42173.676, 0.00005483326, 9.999533, 9.99973 
1.075239e+3, 1.5535143e+2, -1732328.1, -1589841.3, 25847.068, -0.0392381, 0.26199684, -1585297.5, -167729.13, 0.000002073113, 9.997931, 9.999831 
1.0752104e+3, 1.6535196e+2, -1491640.4, -1238721.4, 65631.91, -0.10106891, 0.2537167, -1222704.4, 96857.984, 0.0000000000166348, 9.998117, 10.001477 
1.0751846e+3, 1.7535046e+2, -1136315.3, -1020376.0, 108605.29, 0.05633557, -0.051216535, -955237.6, 266333.13, 0.0, 9.9999, 10.001445 
1.0751578e+3, 1.8535115e+2, -1089488.5, -1137379.1, 109580.37, 0.13048553, -0.03301905, -1001267.75, 122296.21, 0.0, 10.000367, 9.999744 
1.07513025e+3, 1.9535363e+2, -1079985.4, -1075448.4, 93191.21, 0.119638346, 0.23358831, -984498.06, 41046.938, 0.0, 9.999728, 9.9998045 
1.07510254e+3, 2.053541e+2, -954420.06, -865859.8, 117706.82, 0.09893009, 0.26049525, -784379.75, 143159.8, 0.0, 9.999495, 10.000685 
1.07507505e+3, 2.1535279e+2, -840033.0, -764593.06, 180122.48, 0.07317936, 0.0550312, -618283.4, 211262.94, 0.0, 9.99963, 10.00064 
1.07504785e+3, 2.2535186e+2, -857822.44, -936407.9, 202913.14, 0.05472532, 0.004113091, -690432.6, 41122.203, 0.0, 9.999759, 9.998727 
1.0750209e+3, 2.3535116e+2, -741528.75, -824896.44, 170086.19, 0.04319607, 0.057834838, -608093.0, 25472.559, 0.0, 9.999866, 9.998767 
1.074993e+3, 2.4535042e+2, -621822.4, -686274.7, 54348.934, 0.054698337, 0.098493345, -590863.6, -55290.2, 0.0, 9.999883, 9.999036 
1.07496426e+3, 2.5534955e+2, -528884.3, -590803.25, 38334.453, 0.08704797, 0.09948721, -510568.88, -72989.44, 0.0, 9.999845, 9.999038 
1.074936e+3, 2.653477e+2, -432650.13, -572062.06, 73498.445, 0.114236444, 0.054094333, -401059.78, -61462.105, 0.000000000031670343, 10.000174, 9.998336 
1.0749083e+3, 2.7534494e+2, -240781.9, -423892.28, 85844.15, 0.14011711, -0.06149983, -206831.84, 34795.523, 0.00000057346807, 10.000795, 9.998381 
1.07487865e+3, 2.853439e+2, -74756.375, -248287.58, -3572.57, 0.10439787, -0.019402552, -74682.86, 68955.18, 0.00001665899, 10.001069, 9.998782 
1.0748471e+3, 2.9534423e+2, 16646.316, -162191.77, 15053.756, 0.010547896, 0.13035077, 17904.617, 63537.477, 0.000111651505, 10.001054, 9.998711 
1.07481726e+3, 3.0534214e+2, -51959.977, -408624.13, 37221.793, -0.010932208, 0.1676775, -48116.883, -48116.883, 0.00034802445, 10.001282, 9.996572 
1.07478894e+3, 3.1533834e+2, 132642.9, -102570.74, -21212.951, 0.05399446, 0.12337994, 134540.7, 134540.7, 0.00071029784, 10.001583, 9.998536 
1.085328e+3, 1.2537856e+2, -2115493.0, -1836043.1, -50864.45, 0.07185075, 0.06175781, -1827072.9, -115779.03, 0.00064071716, 9.996934, 10.000636 
1.0852967e+3, 1.3537815e+2, -1838928.1, -1652234.6, -40879.605, 0.010487182, -0.05107939, -1643675.8, -30376.568, 0.00028839763, 9.998158, 10.000644 
1.0852694e+3, 1.453791e+2, -1658261.1, -1562784.1, 68781.23, 0.24706492, 0.007999883, -1526797.9, -11505.742, 0.00006873226, 9.998938, 10.000203 
1.0852383e+3, 1.5538149e+2, -1501609.5, -1431354.4, 117708.16, 0.03147818, 0.22060649, -1343644.0, 73627.63, 0.0000030594845, 9.999317, 10.000249 
1.08520985e+3, 1.6538203e+2, -1348003.4, -1206287.6, 188317.48, -0.036507413, 0.20981751, -1075938.4, 243326.94, 0.000000000186287, 9.999266, 10.0011425 
1.085184e+3, 1.7538086e+2, -1311433.5, -1141510.8, 120078.586, 0.0650373, -0.029520823, -1079375.9, 141896.17, 0.0, 9.998859, 10.001112 
1.0851571e+3, 1.8538138e+2, -1301263.8, -1237450.5, 78221.86, 0.10241128, -0.012099696, -1184878.1, -61611.184, 0.0, 9.998904, 9.999762 
1.08512916e+3, 1.9538334e+2, -1139579.6, -1101439.1, 97604.055, 0.0689198, 0.20199732, -1021059.75, 4192.239, 0.0, 9.999313, 9.999824 
1.0851018e+3, 2.0538367e+2, -905243.94, -824404.6, 109216.18, 0.064063415, 0.20498087, -748368.6, 178878.27, 0.0, 9.99976, 10.000837 
1.0850751e+3, 2.1538244e+2, -746420.94, -703576.94, 59806.473, 0.08794466, -0.007814706, -661471.6, 167779.92, 0.0, 10.000204, 10.000781 
1.0850481e+3, 2.2538194e+2, -829740.6, -893795.0, 60640.605, 0.106526546, -0.036678787, -793189.2, -61933.62, 0.0, 9.999825, 9.998987 
1.0850209e+3, 2.3538202e+2, -888688.8, -868784.0, 108526.2, 0.12022752, 0.06642691, -769754.8, -136495.22, 0.0, 9.998738, 9.999009 
1.0849929e+3, 2.453811e+2, -688134.2, -745620.2, 115753.67, 0.08299386, 0.09205431, -597608.25, -62338.723, 0.0, 9.99954, 9.998795 
1.0849642e+3, 2.5537926e+2, -239051.11, -475365.3, 114438.64, 0.0034362662, 0.021184342, -192717.17, 244568.3, 0.0, 10.001942, 9.99882 
1.0849364e+3, 2.6537737e+2, -161674.2, -413464.78, 96786.12, 0.051664036, -0.030612571, -128770.32, 210533.95, 0.000000020287489, 10.001917, 9.998582 
1.0849093e+3, 2.7537537e+2, -367622.84, -458012.38, 98529.805, 0.21266499, -0.09835207, -304417.0, -63090.41, 0.0000009638229, 9.999812, 9.998616 
1.08487986e+3, 2.8537494e+2, -227610.67, -332872.44, 66501.58, 0.17622085, 0.0026041607, -195433.13, -52101.375, 0.000015514439, 10.000068, 9.998681 
1.0848484e+3, 2.953759e+2, 190581.13, -86220.63, 42534.656, -0.028476754, 0.22276531, 196969.75, 242291.92, 0.000103128805, 10.002292, 9.998631 
1.08481884e+3, 3.0537313e+2, 62514.645, -385142.3, 50631.33, -0.021693181, 0.20802423, 68169.76, 68169.76, 0.00032888047, 10.002214, 9.99628 
1.0847909e+3, 3.1536743e+2, -96714.87, -240025.69, 94114.22, 0.17618936, -0.00011669006, -50082.566, -50082.566, 0.0006831545, 10.000142, 9.998273 
1.0953248e+3, 1.2540798e+2, -2032962.6, -1677340.1, -39847.824, 0.041333877, 0.14769708, -1672929.9, 38083.945, 0.000734217, 9.9969845, 10.001701 
1.0952942e+3, 1.3541064e+2, -1772230.4, -1508865.0, 8173.0664, -0.06788654, 0.24198306, -1508611.6, 104375.41, 0.00033773432, 9.998137, 10.001638 
1.0952686e+3, 1.4541103e+2, -1565517.4, -1366227.5, 78620.53, 0.2564868, 0.12898773, -1338946.0, 176032.34, 0.0000845864, 9.998919, 10.001562 
1.0952395e+3, 1.5540995e+2, -1416291.1, -1252928.8, 132176.08, 0.2184317, -0.14002368, -1179231.9, 237749.16, 0.0000043925156, 9.999314, 10.001474 
1.0952105e+3, 1.6541062e+2, -1461317.5, -1448507.4, 165875.33, 0.099782564, -0.107199274, -1288913.5, 30060.121, 0.0000000006358386, 9.999289, 9.999474 
1.09518185e+3, 1.7541271e+2, -1414294.3, -1366972.4, 108570.78, -0.035457406, 0.14606927, -1279514.3, -58555.633, 0.0, 9.998903, 9.999546 
1.0951544e+3, 1.8541257e+2, -1261935.4, -1153788.6, 89023.37, -0.05776007, 0.14042468, -1103703.0, 19257.756, 0.0, 9.9989, 10.000336 
1.0951278e+3, 1.9541042e+2, -1107414.6, -1028634.6, 116522.6, 0.00014257153, -0.1142303, -945024.25, 79954.305, 0.0, 9.999289, 10.000335 
1.09510094e+3, 2.0541003e+2, -995578.06, -1003522.06, 121147.414, -0.0039900932, -0.14325257, -878337.56, 48643.855, 0.0, 9.9997225, 9.999628 
1.0950738e+3, 2.1541108e+2, -830486.8, -866393.56, 77694.805, -0.054620475, -0.00802809, -768698.06, 60274.242, 0.0, 10.000152, 9.99969 
1.095047e+3, 2.2541186e+2, -741982.06, -696212.5, 15398.98, 0.011961022, 0.07069336, -691513.94, 39450.277, 0.0, 9.999758, 10.000376 
1.09502025e+3, 2.3541231e+2, -800209.7, -677187.6, 77419.91, 0.17563932, 0.0706816, -639817.7, -6859.594, 0.0, 9.998701, 10.000342 
1.0949928e+3, 2.4541108e+2, -685845.44, -732513.94, 202521.66, 0.11059943, -0.004457676, -505318.2, 29650.727, 0.0, 9.999506, 9.998902 
1.09496474e+3, 2.5540838e+2, -234166.03, -458955.16, 202550.4, -0.14388025, -0.17197615, -114916.02, 322078.5, 0.0, 10.001915, 9.998946 
1.094937e+3, 2.654078e+2, -156501.11, -390821.38, 14368.267, -0.07594421, -0.10837999, -155623.36, 183378.77, 0.00000010014453, 10.001865, 9.998763 
1.0949097e+3, 2.754089e+2, -363510.53, -438128.4, 31772.344, 0.259548, 0.117020965, -351815.0, -110819.32, 0.0000018004142, 9.99976, 9.998778 
1.09488085e+3, 2.854082e+2, -268553.66, -409236.6, 148908.7, 0.26089582, 0.20791854, -174208.39, -31203.115, 0.000016749296, 10.000027, 9.99818 
1.094851e+3, 2.9540604e+2, 158126.63, -152092.58, 126974.664, -0.0098083215, 0.16338979, 203470.39, 248498.7, 0.00009990713, 10.002279, 9.998191 
1.0948217e+3, 3.0540323e+2, 148151.67, -196275.86, -30181.088, 0.035101183, 0.10226686, 150776.34, 150776.34, 0.00031833374, 10.002173, 9.997593 
1.0947925e+3, 3.1540003e+2, -24426.73, -67961.44, 32005.586, 0.31210673, 0.012723663, -7487.815, -7487.815, 0.0006679341, 10.000045, 9.999504 
1.10532224e+3, 1.2543724e+2, -1921100.6, -1607823.5, 11592.666, 0.05917241, 0.13181679, -1607395.1, 103330.52, 0.00083503575, 9.997677, 10.001846 
1.105292e+3, 1.3544017e+2, -1912711.3, -1568690.0, 18312.744, -0.045735564, 0.24449521, -1567718.0, 44977.914, 0.0003918232, 9.997126, 10.001719 
1.1052667e+3, 1.4544062e+2, -1756637.5, -1463802.8, 37223.15, 0.26294506, 0.13376388, -1459145.4, 55541.465, 0.000102570426, 9.997635, 10.001508 
1.1052383e+3, 1.5543938e+2, -1476139.6, -1287796.5, -19178.77, 0.18486601, -0.14693858, -1285863.4, 130827.91, 0.0000061708192, 9.998929, 10.001418 
1.1052096e+3, 1.6543987e+2, -1459609.3, -1452478.8, -2928.221, 0.08205158, -0.1281706, -1451430.4, -132744.6, 0.0000000015512864, 9.999329, 9.999425 
1.1051813e+3, 1.7544186e+2, -1395135.3, -1360176.6, 47871.83, 0.008328223, 0.1180621, -1326692.9, -106020.914, 0.0, 9.999058, 9.999515 
1.1051538e+3, 1.8544176e+2, -1207228.9, -1106649.5, 99428.72, -0.025096688, 0.11025259, -1045516.0, 77156.52, 0.0, 9.999183, 10.000524 
1.10512674e+3, 1.9543979e+2, -1052364.3, -983766.0, 90879.28, -0.04284167, -0.14614967, -920928.75, 103757.84, 0.0, 9.999587, 10.000499 
1.10509984e+3, 2.0543922e+2, -1052476.0, -1076873.0, 107262.08, -0.06373922, -0.1799052, -956721.06, -30029.51, 0.0, 9.999531, 9.999218 
1.10507324e+3, 2.1543983e+2, -1010444.6, -995863.3, 111997.695, -0.07916676, -0.04750522, -890919.25, -62230.11, 0.0, 9.999105, 9.999304 
1.1050464e+3, 2.2544041e+2, -762720.9, -701682.2, 33296.88, -0.004977296, 0.029820584, -687033.94, 43649.773, 0.0, 9.999599, 10.00041 
1.1050197e+3, 2.3544087e+2, -489158.56, -521351.2, -14233.886, 0.14288376, 0.026801905, -483767.8, 148909.36, 0.0, 10.000815, 10.00039 
1.10499255e+3, 2.4544023e+2, -560523.75, -620965.94, 85247.28, 0.10672032, -0.016748399, -500299.2, 34383.35, 0.0, 10.000151, 9.999355 
1.1049652e+3, 2.5543863e+2, -786558.1, -675772.0, 101704.16, -0.08384181, -0.12002435, -615354.4, -178655.95, 0.0, 9.997914, 9.999383 
1.1049375e+3, 2.6543835e+2, -625554.3, -589102.1, -53267.758, -0.04501454, -0.06043187, -551028.6, -212326.6, 0.00000018749917, 9.998522, 9.999013 
1.1049094e+3, 2.754391e+2, -104810.03, -288751.2, -40016.28, 0.18787432, 0.10723849, -96481.61, 144214.72, 0.0000025324416, 10.0014305, 9.9990015 
1.1048813e+3, 2.8543806e+2, -18557.576, -298465.53, 100652.414, 0.23033762, 0.15171365, 13877.611, 156586.98, 0.000018771152, 10.001792, 9.998089 
1.1048533e+3, 2.9543537e+2, -175787.28, -319624.75, 100745.016, 0.12112081, 0.06689373, -123924.5, -79186.08, 0.0001004618, 10.000018, 9.998125 
1.1048241e+3, 3.05433e+2, -5029.163, -210388.25, -60594.105, 0.14365941, 0.027245093, 11516.8545, 11516.8545, 0.00031494282, 10.00084, 9.998152 
1.10479355e+3, 3.1543106e+2, 546423.0, 274470.75, -69503.43, 0.24412303, 0.001785624, 563156.5, 563156.5, 0.0006609371, 10.003679, 10.000111 
1.11531995e+3, 1.2546651e+2, -1974883.1, -1707263.1, -55385.883, 0.046339, 0.019599812, -1696253.5, 14175.629, 0.000944546, 9.997635, 10.001182 
1.1152901e+3, 1.3546725e+2, -1961306.0, -1675642.9, 6922.2236, 0.045007594, -0.009683824, -1675475.3, -63053.313, 0.00045159098, 9.997163, 10.000965 
1.11526415e+3, 1.4546828e+2, -1839360.0, -1651290.6, 83455.14, 0.23504318, 0.04241596, -1619598.3, -105184.77, 0.00012308804, 9.997697, 10.000194 
1.1152345e+3, 1.5546988e+2, -1561888.5, -1460885.4, 31785.81, -0.09394508, 0.17617644, -1451714.9, -35314.215, 0.000008505592, 9.998905, 10.000242 
1.115207e+3, 1.6546986e+2, -1365105.3, -1249079.4, -16099.519, -0.11816261, 0.122305565, -1246886.9, 71513.5, 0.0000000033697685, 9.999293, 10.000841 
1.1151819e+3, 1.7546844e+2, -1298193.6, -1162390.1, 42549.855, 0.16041595, -0.107916154, -1150159.9, 70250.43, 0.0, 9.999069, 10.000869 
1.1151548e+3, 1.8546915e+2, -1219478.5, -1131866.4, 109558.85, 0.15315697, -0.093084, -1057680.4, 64720.434, 0.0, 9.999183, 10.00035 
1.1151257e+3, 1.9547145e+2, -1066475.9, -1008516.8, 106446.87, -0.10600916, 0.094829656, -927175.2, 97201.086, 0.0, 9.999567, 10.000338 
1.1150985e+3, 2.0547116e+2, -1035237.06, -1032570.9, 84191.58, -0.15458733, 0.08013964, -949701.8, -23323.887, 0.0, 9.999493, 9.999539 
1.1150729e+3, 2.1546865e+2, -999895.25, -962880.44, 102558.46, -0.027094144, -0.1328708, -877172.9, -48770.65, 0.0, 9.999057, 9.999554 
1.1150463e+3, 2.2546762e+2, -860128.0, -893394.1, 75470.34, 0.012973184, -0.16202916, -799479.56, -69065.44, 0.0, 9.999556, 9.999115 
1.11501895e+3, 2.3546778e+2, -577649.3, -697419.0, 29936.967, -0.014683748, -0.065821804, -570583.3, 61833.094, 0.0, 10.000781, 9.999199 
1.11499205e+3, 2.4546865e+2, -514886.0, -513849.28, -2837.6328, 0.036041282, 0.058117114, -511483.06, 22926.791, 0.0, 10.000095, 10.000118 
1.11496545e+3, 2.5547e+2, -741116.3, -573488.8, 30835.3, 0.14710487, 0.17453292, -567996.56, -131599.53, 0.0, 9.997877, 10.000104 
1.1149376e+3, 2.6546896e+2, -610185.06, -547188.8, 54478.76, 0.108355984, 0.10646891, -515757.84, -177352.98, 0.00000020790911, 9.998478, 9.999323 
1.1149086e+3, 2.7546585e+2, -84201.984, -243163.06, 69073.93, -0.050044376, -0.14400196, -58381.22, 182049.14, 0.0000030041272, 10.001415, 9.999323 
1.1148813e+3, 2.8546432e+2, -1926.1234, -254201.05, 29687.406, 0.038185984, -0.1758337, 1520.3695, 143965.34, 0.000021469468, 10.00175, 9.998411 
1.1148555e+3, 2.9546395e+2, -164096.13, -282536.7, 47688.52, 0.3280826, -0.062047377, -147281.97, -102830.19, 0.00010445724, 9.999962, 9.998405 
1.1148263e+3, 3.0546257e+2, -26995.49, -246652.03, 49606.56, 0.2712792, -0.011192481, -16312.103, -16312.103, 0.00031704624, 10.000805, 9.997918 
1.1147937e+3, 3.1546023e+2, 530894.4, 243243.13, 50781.336, -0.13303076, -0.046015482, 539596.0, 539596.0, 0.00065944524, 10.003677, 9.999898 
1.1253169e+3, 1.2549429e+2, -2115256.3, -1744854.9, -160909.63, 0.042219892, -0.070190154, -1684716.6, 25437.021, 0.0010643419, 9.996535, 10.001458 
1.1252879e+3, 1.3549522e+2, -1749037.5, -1552195.4, -13182.059, 0.052701373, -0.10293445, -1551316.6, 60826.125, 0.00051804923, 9.998529, 10.001152 
1.1252621e+3, 1.4549656e+2, -1723497.4, -1611883.1, 108862.48, 0.21128166, -0.019160857, -1545356.9, -31225.184, 0.00014661087, 9.998563, 10.000047 
1.1252323e+3, 1.5549849e+2, -1863205.1, -1622186.9, 128478.73, -0.09740951, 0.1612762, -1566544.9, -150426.36, 0.00001150662, 9.996908, 10.0001 
1.1252052e+3, 1.6549855e+2, -1666101.8, -1368957.3, 117705.875, -0.11114373, 0.11387711, -1327981.6, -9864.014, 0.0000000061074554, 9.997123, 10.001061 
1.12518094e+3, 1.7549703e+2, -1308006.9, -1145037.4, 82036.68, 0.1671112, -0.1502455, -1110894.4, 109233.04, 0.0, 9.998905, 10.001067 
1.1251543e+3, 1.8549776e+2, -1163704.6, -1124510.1, 93579.875, 0.172671, -0.1333278, -1048497.5, 73620.67, 0.0, 9.999646, 10.000181 
1.1251256e+3, 1.9550024e+2, -1077424.6, -1030518.6, 81572.15, -0.067980975, 0.091340244, -969094.94, 54999.047, 0.0, 9.999555, 10.000198 
1.1250984e+3, 2.0550038e+2, -1029622.44, -970918.0, 56038.383, -0.09887503, 0.09888314, -937010.0, -10918.606, 0.0, 9.999285, 10.000057 
1.12507254e+3, 2.1549845e+2, -993514.7, -905485.75, 79927.375, 0.048519623, -0.109095596, -858255.2, -30147.04, 0.0, 9.99887, 10.000033 
1.1250459e+3, 2.2549722e+2, -977067.0, -988634.56, 149840.4, 0.057440683, -0.16241574, -832898.75, -102777.055, 0.0, 9.9989195, 9.998773 
1.1250185e+3, 2.354966e+2, -805221.8, -841482.1, 162908.11, -0.04685193, -0.107773215, -659438.1, -27305.393, 0.0, 9.999372, 9.99889 
1.1249917e+3, 2.4549738e+2, -554965.0, -538716.4, 74308.24, 0.014484202, 0.02413143, -472089.63, 62038.336, 0.0, 9.9998455, 10.000065 
1.1249651e+3, 2.5549915e+2, -390588.63, -410749.6, 43686.473, 0.21075425, 0.18750706, -355834.7, 80276.86, 0.0, 10.000309, 10.00005 
1.12493776e+3, 2.6549804e+2, -315846.66, -394658.56, 121195.57, 0.18897776, 0.11189744, -227811.66, 110307.97, 0.00000016860811, 10.00046, 9.999412 
1.1249098e+3, 2.754945e+2, -230158.88, -301509.3, 104067.625, -0.011294329, -0.19354132, -155821.39, 84327.18, 0.0000038179373, 10.000371, 9.999418 
1.1248825e+3, 2.8549293e+2, -145481.83, -323771.8, -20513.006, 0.034457963, -0.23279087, -143152.16, -988.9748, 0.000026281929, 10.00076, 9.998412 
1.1248557e+3, 2.9549295e+2, 55696.176, -174908.88, -33010.17, 0.28677642, -0.083027236, 60328.4, 104495.2, 0.00011318937, 10.001463, 9.998422 
1.1248271e+3, 3.0549172e+2, 74654.836, -207967.13, 39285.45, 0.2476898, -0.0069449446, 80014.02, 80014.02, 0.0003258272, 10.001555, 9.99782 
1.1247964e+3, 3.1548926e+2, 147376.08, 42998.824, 41458.793, -0.10137916, -0.045429602, 161839.4, 161839.4, 0.00066508714, 10.001096, 9.99977 
1.135313e+3, 1.255208e+2, -2032678.0, -1574040.3, -121222.086, -0.017073035, -0.1481063, -1543971.5, 165924.61, 0.0011953667, 9.996551, 10.002618 
1.1352854e+3, 1.355241e+2, -1684256.0, -1397430.9, 59841.98, -0.060027372, -0.05453696, -1385446.4, 226411.25, 0.00059164723, 9.998452, 10.002248 
1.13526e+3, 1.4552553e+2, -1668577.0, -1487707.0, 42685.074, 0.14593288, -0.060891647, -1478139.4, 35701.906, 0.00017336896, 9.998513, 10.000927 
1.1352315e+3, 1.5552546e+2, -1799551.1, -1502360.6, 76059.26, 0.117462546, -0.16478409, -1484026.0, -68183.26, 0.000015247707, 9.996958, 10.000899 
1.135204e+3, 1.6552626e+2, -1722669.5, -1499778.6, 179143.08, 0.044052113, -0.12925524, -1400244.6, -82408.74, 0.000000009421829, 9.997177, 10.000138 
1.1351782e+3, 1.755276e+2, -1367720.3, -1272608.6, 148852.36, -0.005454734, -0.01791944, -1163900.0, 55923.42, 0.0, 9.998919, 10.000185 
1.13515235e+3, 1.8552758e+2, -1179163.6, -1153030.9, 86099.35, 0.004017461, -0.024055947, -1079012.1, 42812.64, 0.0, 9.999629, 9.999993 
1.13512635e+3, 1.9552635e+2, -1092731.6, -1052961.4, 81128.05, 0.032500654, -0.15237457, -989317.0, 34520.934, 0.0, 9.999515, 10.000064 
1.1350994e+3, 2.0552708e+2, -989444.56, -878214.56, 34658.54, 0.0628859, -0.11501578, -868299.1, 57531.008, 0.0, 9.999242, 10.000716 
1.13507204e+3, 2.1552928e+2, -954796.44, -813989.6, 67095.66, 0.10947773, 0.025100553, -787138.44, 40667.938, 0.0, 9.99882, 10.000687 
1.13504514e+3, 2.2552924e+2, -943407.06, -906472.94, 160447.23, 0.088460386, 0.028461507, -763433.5, -33627.094, 0.0, 9.998867, 9.99936 
1.13501854e+3, 2.3552734e+2, -775742.2, -770768.4, 182719.13, 0.0077140527, -0.10383209, -590519.25, 41307.082, 0.0, 9.9993305, 9.999393 
1.1349914e+3, 2.4552636e+2, -621288.06, -668699.56, 87642.7, 0.004296834, -0.12594756, -554201.75, -20364.174, 0.0, 9.999811, 9.999191 
1.1349641e+3, 2.55526e+2, -450791.7, -529425.75, 64061.883, 0.068512134, -0.087133504, -414943.88, 20898.434, 0.0, 10.000281, 9.999248 
1.134938e+3, 2.6552564e+2, -330301.56, -418514.44, 115357.38, 0.16133763, -0.045238998, -250906.17, 86939.9, 0.00000020663475, 10.000431, 9.999263 
1.1349131e+3, 2.755251e+2, -247771.17, -331987.97, 107944.89, 0.275687, -0.033872917, -174012.33, 65838.055, 0.0000055002247, 10.000343, 9.999226 
1.1348847e+3, 2.8552386e+2, -176348.92, -379130.78, 3483.4668, 0.18374039, -0.010980171, -176289.1, -34424.87, 0.00003348498, 10.000724, 9.998049 
1.1348537e+3, 2.9552212e+2, 29777.055, -222877.84, -2861.2993, -0.06398724, 0.0011314048, 29809.453, 73694.7, 0.00012691141, 10.001436, 9.998106 
1.13482654e+3, 3.0552047e+2, 72596.336, -198132.86, 16216.951, 0.02445597, 0.040488135, 73564.29, 73564.29, 0.00034269853, 10.001498, 9.997911 
1.13480136e+3, 3.155182e+2, 127544.04, 38256.56, 35619.64, 0.29038298, 0.010398034, 140012.67, 140012.67, 0.0006829697, 10.000951, 9.9998 
1.1453098e+3, 1.2555009e+2, -2033073.5, -1578279.5, -7011.9487, 0.016574573, -0.08576879, -1578171.4, 131436.14, 0.0013373722, 9.99654, 10.00261 
1.1452819e+3, 1.3555284e+2, -2059475.9, -1579938.6, 102429.3, -0.12048408, -0.043323178, -1558976.0, 52597.6, 0.000672049, 9.995864, 10.002258 
1.14525646e+3, 1.4555407e+2, -1936092.0, -1584184.9, 19713.611, 0.040962614, -0.08635688, -1583084.0, -69525.555, 0.0002032588, 9.996546, 10.001207 
1.1452297e+3, 1.5555373e+2, -1597885.1, -1379061.8, -4285.3726, 0.20373094, -0.24571155, -1378977.8, 36583.77, 0.000019742625, 9.998229, 10.001134 
1.14520304e+3, 1.655547e+2, -1497484.8, -1392437.9, 141926.38, 0.15800108, -0.20253874, -1293627.9, 23924.563, 0.000000013934886, 9.99873, 10.000125 
1.14517674e+3, 1.7555666e+2, -1455680.4, -1317555.4, 165318.36, -0.007791521, -0.028012328, -1207453.8, 12080.401, 0.0, 9.998327, 10.000161 
1.1451507e+3, 1.8555667e+2, -1441710.9, -1281413.6, 111048.19, -0.023201343, -0.025776401, -1224611.5, -103075.3, 0.0, 9.997849, 9.999963 
1.1451249e+3, 1.9555506e+2, -1411110.5, -1207603.3, 109853.64, 0.059000496, -0.19319208, -1159618.4, -136062.97, 0.0, 9.997349, 10.000037 
1.1450983e+3, 2.0555572e+2, -1177243.8, -989732.06, 75675.73, 0.09298099, -0.150027, -963001.5, -37452.117, 0.0, 9.998041, 10.000532 
1.1450712e+3, 2.155582e+2, -840115.8, -775371.3, 36862.34, 0.098673895, 0.038254626, -758684.44, 68839.02, 0.0, 9.99968, 10.000541 
1.1450444e+3, 2.2555849e+2, -768199.1, -777548.06, 70013.53, 0.09035698, 0.05962732, -702704.2, 26815.52, 0.0, 9.999875, 9.99976 
1.1450182e+3, 2.355569e+2, -814676.4, -749948.75, 72822.77, 0.06643184, -0.08287606, -702622.1, -71087.234, 0.0, 9.998882, 9.999757 
1.1449914e+3, 2.4555561e+2, -688525.2, -718451.9, 58699.906, 0.035349663, -0.14435309, -642911.44, -109362.98, 0.0, 9.999427, 9.999034 
1.1449641e+3, 2.555545e+2, -324185.6, -483322.38, 74346.53, 0.00076696597, -0.1673054, -294857.1, 140704.17, 0.0, 10.001225, 9.999105 
1.14493825e+3, 2.655544e+2, -205614.61, -377738.94, 90216.53, 0.0994495, -0.080190465, -166994.3, 170569.3, 0.00000038376965, 10.001366, 9.999097 
1.1449136e+3, 2.7555504e+2, -282523.03, -366769.28, 79209.72, 0.30462122, 0.06401273, -234932.52, 4626.274, 0.0000075917305, 10.000172, 9.999073 
1.14488564e+3, 2.8555384e+2, -195941.89, -380660.94, 68270.41, 0.2110175, 0.09266557, -173448.77, -31876.46, 0.00004126663, 10.000556, 9.998119 
1.1448549e+3, 2.9555118e+2, 134273.47, -169071.95, 82515.625, -0.11632373, 0.0063657705, 155266.44, 198866.69, 0.00014267156, 10.002142, 9.998136 
1.14482835e+3, 3.0554938e+2, 269238.4, -165355.36, 51239.723, -0.01172377, 0.06020513, 275198.0, 275198.0, 0.0003640664, 10.003108, 9.997363 
1.1448042e+3, 3.1554723e+2, 460128.8, 138155.66, 4590.5176, 0.34770176, 0.096306555, 460194.25, 460194.25, 0.00071067613, 10.003497, 9.999258 
1.1553069e+3, 1.2558179e+2, -2105921.3, -1722570.3, -49270.88, 0.05836796, 0.088116825, -1716338.9, -7046.7236, 0.001489488, 9.996514, 10.001627 
1.1552772e+3, 1.3558173e+2, -2114031.8, -1703305.0, 86733.26, -0.17076834, -0.06236938, -1685740.6, -74452.28, 0.00075867696, 9.995913, 10.001381 
1.15525134e+3, 1.4558247e+2, -1954159.9, -1638710.5, 79990.234, -0.13498095, -0.089370295, -1619586.4, -106306.375, 0.0002361324, 9.996608, 10.000811 
1.1552274e+3, 1.5558325e+2, -1618050.6, -1421553.5, 58012.16, 0.12904508, -0.102253504, -1405704.8, 9569.538, 0.000024990082, 9.998226, 10.000845 
1.1552022e+3, 1.6558383e+2, -1445861.9, -1278433.4, 120276.69, 0.1895136, -0.12585592, -1215605.6, 101661.53, 0.000000023716384, 9.998698, 10.000924 
1.1551764e+3, 1.7558433e+2, -1405462.0, -1206202.9, 150796.34, 0.11837964, -0.17793511, -1125096.1, 94162.25, 0.0, 9.9983, 10.000937 
1.1551494e+3, 1.8558522e+2, -1433841.9, -1269189.0, 86032.74, 0.04991009, -0.129372, -1232438.6, -111187.414, 0.0, 9.997861, 10.000045 
1.1551215e+3, 1.9558628e+2, -1405777.3, -1202506.9, 96915.48, -0.026702132, -0.037339672, -1163705.9, -140459.11, 0.0, 9.997368, 10.000067 
1.15509495e+3, 2.0558622e+2, -1248627.6, -1135941.9, 129857.34, -0.04701245, -0.014280442, -1050731.0, -125481.195, 0.0, 9.998034, 9.999532 
1.1550697e+3, 2.1558526e+2, -911114.75, -913029.7, 95827.78, -0.020110503, -0.07337209, -816239.7, 11019.59, 0.0, 9.999636, 9.999618 
1.15504384e+3, 2.2558506e+2, -763753.75, -753433.6, 27833.334, 0.031172577, -0.06874942, -730286.06, -1025.208, 0.0, 9.999812, 9.999955 
1.1550175e+3, 2.3558535e+2, -804385.8, -719606.75, 45114.734, 0.09710191, -0.04345149, -700091.44, -68834.12, 0.0, 9.998847, 9.999981 
1.15499124e+3, 2.4558519e+2, -657185.8, -645263.1, 121351.98, 0.070593275, -0.029590653, -529726.2, 3533.8586, 0.0, 9.999391, 9.999554 
1.1549651e+3, 2.5558463e+2, -295450.16, -417040.56, 138371.23, -0.02740464, -0.05229095, -205107.5, 230160.6, 0.0, 10.001194, 9.999576 
1.15493834e+3, 2.6558435e+2, -225623.19, -409950.94, 41053.688, -0.033194467, 0.0060113277, -216893.14, 120379.19, 0.0000005356376, 10.001326, 9.998895 
1.154911e+3, 2.7558425e+2, -298578.75, -386446.38, 45102.86, 0.027885627, 0.09530445, -279548.72, -40274.2, 0.000008957139, 10.000114, 9.998964 
1.1548848e+3, 2.8558278e+2, -164491.5, -299415.75, 126955.97, 0.07151174, 0.072569154, -88186.61, 53100.965, 0.000047151985, 10.00049, 9.998708 
1.1548594e+3, 2.9558015e+2, 163264.64, -107037.8, 150537.48, 0.10647719, -0.07145903, 230418.61, 273729.34, 0.00015594735, 10.002131, 9.998569 
1.1548328e+3, 3.0557853e+2, 172150.44, -363933.56, 68241.25, 0.10638707, 0.05243892, 180700.88, 180700.88, 0.00038533346, 10.003099, 9.996001 
1.1548039e+3, 3.1557631e+2, 366305.03, -49317.684, 33687.676, -0.039267797, 0.21627238, 369017.84, 369017.84, 0.0007418619, 10.003466, 9.997984 
1.1653025e+3, 1.256092e+2, -2149018.3, -1756704.0, -168530.5, -0.009950376, 0.04619945, -1694249.3, 14769.672, 0.0016512593, 9.996281, 10.001499 
1.1652753e+3, 1.3560867e+2, -1980235.5, -1649723.5, -408.43222, 0.0017313301, -0.1460594, -1649723.0, -38701.563, 0.0008513687, 9.99687, 10.00129 
1.1652487e+3, 1.4560975e+2, -1923258.6, -1654431.6, 52480.57, -0.07135692, -0.120469496, -1644549.6, -131537.64, 0.00027198074, 9.996959, 10.000531 
1.165224e+3, 1.5561119e+2, -1864546.8, -1565963.9, 23918.48, 0.06184479, -0.037831184, -1564060.0, -149057.98, 0.00003101119, 9.99665, 10.000614 
1.165199e+3, 1.656118e+2, -1711848.9, -1350401.8, 60792.04, 0.11977645, -0.07660066, -1340451.0, -23456.38, 0.00000004774233, 9.996635, 10.001422 
1.1651741e+3, 1.7561178e+2, -1575240.9, -1236875.4, 62918.26, 0.13296479, -0.22907388, -1225554.6, -6565.7075, 0.0, 9.996914, 10.001395 
1.1651477e+3, 1.8561299e+2, -1402314.0, -1255663.1, 18296.057, 0.08493479, -0.17068896, -1253415.0, -132436.67, 0.0, 9.998079, 10.000034 
1.1651201e+3, 1.9561504e+2, -1029728.75, -1022190.0, 14185.721, -0.01962951, 0.021765128, -1011281.4, 11683.762, 0.0, 9.999949, 10.000063 
1.16509385e+3, 2.0561484e+2, -944813.44, -987698.2, 75882.664, -0.054985445, 0.027569747, -887401.8, 37567.832, 0.0, 10.000113, 9.999544 
1.16506875e+3, 2.1561283e+2, -1014700.3, -959807.4, 105303.914, -0.031144409, -0.13826269, -878431.9, -51443.535, 0.0, 9.998916, 9.9996395 
1.1650428e+3, 2.256126e+2, -881596.94, -808436.44, 65418.145, 0.005697098, -0.13892324, -770065.75, -41075.098, 0.0, 9.998996, 9.99997 
1.1650164e+3, 2.356136e+2, -627846.9, -632716.3, 59634.7, 0.054040264, -0.041340254, -570597.2, 60384.05, 0.0, 10.000054, 9.999993 
1.1649906e+3, 2.456139e+2, -635103.7, -640001.7, 112475.516, 0.06468042, 0.020037835, -525050.5, 7929.6206, 0.0, 9.999568, 9.999503 
1.1649652e+3, 2.5561357e+2, -783034.56, -658212.94, 79484.66, 0.043321162, 0.028164973, -619564.75, -184578.84, 0.0, 9.997866, 9.999527 
1.1649385e+3, 2.6561287e+2, -592728.75, -564769.8, 13622.303, -0.008859184, 0.03507697, -559230.25, -222236.73, 0.00000056359414, 9.998713, 9.999087 
1.16491064e+3, 2.7561182e+2, -83016.16, -264701.1, 33342.977, -0.085331, 0.010335888, -77090.305, 161913.11, 0.0000092835935, 10.001522, 9.999124 
1.16488546e+3, 2.856102e+2, 134001.69, -177898.69, 97101.734, -0.008096995, -0.027358918, 161761.06, 302778.66, 0.000049926817, 10.00263, 9.998516 
1.16486244e+3, 2.9560807e+2, 193610.89, -105143.4, 49480.8, 0.19420616, -0.10284318, 201592.83, 244628.66, 0.00016435768, 10.002403, 9.998447 
1.16483584e+3, 3.056067e+2, 53845.84, -391762.4, -867.7627, 0.16296278, 0.03945591, 53847.53, 53847.53, 0.00040264626, 10.002158, 9.99627 
1.16480514e+3, 3.1560394e+2, 125511.29, -147143.39, 80939.38, -0.1688339, 0.12638058, 147728.34, 147728.34, 0.00076983025, 10.001723, 9.998162 
1.175297e+3, 1.2563293e+2, -2108479.5, -1676025.5, -116473.42, -0.21132503, -0.19489782, -1646650.9, 62131.164, 0.0018234614, 9.9963, 10.002043 
1.1752757e+3, 1.35634e+2, -1943621.9, -1568472.9, 23591.213, 0.34337324, -0.2899484, -1566995.1, 43774.97, 0.0009506097, 9.996844, 10.001862 
1.175248e+3, 1.4563608e+2, -1940517.8, -1685956.6, 39569.977, 0.16374223, -0.1811393, -1679947.5, -167194.67, 0.00031097958, 9.996937, 10.000327 
1.1752197e+3, 1.556378e+2, -1869596.8, -1587423.3, 21950.945, -0.037101313, -0.048472274, -1585725.9, -170983.4, 0.00003785508, 9.996697, 10.000443 
1.1751937e+3, 1.6563879e+2, -1689915.8, -1320515.4, 69178.71, -0.08460204, -0.050740127, -1307985.0, 8747.671, 0.00000010132158, 9.996699, 10.001596 
1.1751698e+3, 1.7563914e+2, -1560121.8, -1210554.9, 80599.555, 0.011611057, -0.18547396, -1192866.1, 25857.93, 0.0, 9.996935, 10.001566 
1.1751455e+3, 1.8564011e+2, -1412469.1, -1274598.1, 85404.125, 0.05214355, -0.15280324, -1233779.5, -113063.55, 0.0, 9.99807, 9.999909 
1.1751207e+3, 1.9564144e+2, -1037866.5, -1030403.94, 82036.65, 0.037340183, -0.020872373, -952013.75, 70695.414, 0.0, 9.999912, 10.000024 
1.17509484e+3, 2.0564167e+2, -882304.9, -847137.06, 25627.074, 0.025321502, -0.022099731, -833641.4, 91065.97, 0.0, 10.000064, 10.000534 
1.17506824e+3, 2.1564098e+2, -956125.75, -829204.2, 68333.3, 0.023667678, -0.15652241, -799408.8, 27301.32, 0.0, 9.998873, 10.000558 
1.17504165e+3, 2.2564107e+2, -902367.1, -840345.56, 99751.28, -0.020813884, -0.1562553, -766895.94, -38186.563, 0.0, 9.998946, 9.999776 
1.1750149e+3, 2.3564172e+2, -649369.8, -664019.44, 96774.07, -0.10200259, -0.07779295, -559643.75, 71062.5, 0.0, 9.999999, 9.9998045 
1.17498934e+3, 2.4564181e+2, -688861.75, -741700.0, 42931.93, -0.022087362, 0.008701181, -664871.4, -132163.25, 0.0, 9.999519, 9.998832 
1.1749646e+3, 2.5564137e+2, -827301.6, -742416.3, 30569.713, 0.18113309, 0.06768881, -732553.25, -297838.44, 0.0, 9.997829, 9.998968 
1.1749388e+3, 2.6563996e+2, -562421.25, -489432.56, 117431.25, 0.14547314, 0.000027205939, -402955.63, -66228.13, 0.0000005132723, 9.99866, 9.99963 
1.1749124e+3, 2.7563766e+2, -56576.42, -203575.66, 140095.28, -0.076463, -0.20119949, 28129.146, 266875.22, 0.000009280944, 10.001497, 9.999555 
1.1748876e+3, 2.8563598e+2, 53950.395, -341101.34, 85309.516, -0.07508854, -0.20510535, 71585.35, 212347.88, 0.000050485156, 10.002614, 9.997404 
1.174864e+3, 2.9563475e+2, 130417.555, -232750.17, 43947.215, 0.09769193, -0.08721985, 135659.97, 178437.36, 0.00016787817, 10.002377, 9.997587 
1.17483765e+3, 3.056337e+2, 192653.55, -80570.01, -18791.41, 0.12125486, 0.009801731, 193939.9, 193939.9, 0.00041124242, 10.002069, 9.9984455 
1.1748076e+3, 3.156301e+2, 236556.38, 116402.28, 83809.98, -0.11085673, -0.20489684, 279597.53, 279597.53, 0.0007823202, 10.001592, 10.000031 
1.1852945e+3, 1.2565927e+2, -2084098.1, -1703065.8, 19196.947, -0.10082275, -0.28799525, -1702101.1, 6418.3315, 0.0020081834, 9.996649, 10.001681 
1.185272e+3, 1.3566104e+2, -2141623.0, -1684141.6, 31754.018, 0.367365, -0.2872775, -1681948.0, -71443.516, 0.0010574218, 9.995579, 10.0016775 
1.1852439e+3, 1.4566357e+2, -2000047.6, -1615103.9, 115985.57, 0.09744293, -0.17049605, -1582858.0, -70375.68, 0.00035351914, 9.996112, 10.001202 
1.1852174e+3, 1.5566558e+2, -1620705.3, -1379498.6, 161027.03, -0.0021255054, -0.09920263, -1298918.3, 115547.18, 0.00004562391, 9.998032, 10.001221 
1.18519165e+3, 1.6566661e+2, -1467727.0, -1296302.4, 177246.38, -0.051479053, -0.09220663, -1185131.8, 131324.55, 0.00000019883093, 9.998585, 10.000855 
1.18516676e+3, 1.7566687e+2, -1436227.8, -1223691.3, 119850.43, -0.04824899, -0.16386007, -1169781.3, 48672.46, 0.0, 9.998099, 10.000915 
1.1851429e+3, 1.8566766e+2, -1415209.5, -1224745.4, 161876.7, 0.012558571, -0.14031497, -1132165.8, -11718.266, 0.0, 9.997838, 10.00036 
1.1851203e+3, 1.9566883e+2, -1322069.4, -1118543.1, 187154.63, 0.10458281, -0.07002672, -1007274.4, 15164.8, 0.0, 9.997757, 10.000455 
1.1850947e+3, 2.056694e+2, -1163376.8, -969212.9, 80760.24, 0.11470705, -0.06350596, -940012.94, -15579.471, 0.0, 9.998075, 10.000658 
1.1850675e+3, 2.156694e+2, -974314.94, -827215.3, 55542.06, 0.070054196, -0.14035021, -808599.56, 17831.367, 0.0, 9.9987, 10.000658 
1.1850409e+3, 2.2566967e+2, -869527.56, -852511.94, 102410.586, -0.0065336246, -0.11139696, -758256.4, -29826.514, 0.0, 9.999297, 9.99952 
1.1850146e+3, 2.3567013e+2, -684425.8, -708562.7, 80107.5, -0.11400735, -0.027006937, -615482.75, 14947.634, 0.0, 9.999872, 9.999561 
1.184989e+3, 2.4566978e+2, -497501.16, -633534.25, 27636.023, -0.058204047, 0.018205635, -492101.06, 40334.676, 0.0, 10.000767, 9.998972 
1.1849637e+3, 2.5566873e+2, -221882.4, -440432.75, 65631.73, 0.124368474, 0.0028904926, -203687.63, 230758.11, 0.0, 10.001948, 9.999055 
1.18493885e+3, 2.6566732e+2, -174730.69, -367979.7, 167290.61, 0.14130174, -0.036355067, -78165.01, 258294.1, 0.0000005059796, 10.001602, 9.999048 
1.18491404e+3, 2.7566555e+2, -301681.4, -378645.44, 93827.92, 0.027802832, -0.12773637, -238750.69, -274.45248, 0.000009346627, 10.000057, 9.999045 
1.1848894e+3, 2.8566402e+2, -250510.61, -419210.28, 84672.21, -0.019007996, -0.12285158, -215343.6, -74852.59, 0.000050141156, 10.000235, 9.998009 
1.1848649e+3, 2.9566273e+2, 71923.586, -198272.28, 159335.13, -0.007420011, -0.066922866, 145725.47, 188229.34, 0.0001672216, 10.001711, 9.998142 
1.1848394e+3, 3.0566174e+2, 305685.47, -3257.5103, 54336.52, 0.06815174, -0.001159763, 314963.47, 314963.47, 0.00040719297, 10.002735, 9.998659 
1.1848117e+3, 3.156577e+2, 484405.66, 228362.33, -10350.314, 0.05580581, -0.2787548, 484823.38, 484823.38, 0.00076922314, 10.003311, 9.999977 
1.1952949e+3, 1.2568794e+2, -2163251.3, -1862571.5, 42317.53, 0.2599064, -0.26113114, -1856729.4, -148495.3, 0.0022081332, 9.996635, 10.000587 
1.1952647e+3, 1.3568981e+2, -2188717.0, -1796304.4, 796.8965, 0.06359565, -0.1513494, -1796302.8, -186078.39, 0.0011730703, 9.995639, 10.000879 
1.1952363e+3, 1.4569229e+2, -1866924.1, -1350352.5, 183957.33, -0.2722553, -0.09854178, -1291539.3, 220660.86, 0.00040013902, 9.996156, 10.003002 
1.1952168e+3, 1.556945e+2, -1515035.5, -1152539.8, 226721.86, 0.12648574, -0.18490764, -1043522.94, 370648.7, 0.00005450229, 9.997996, 10.002798 
1.1951924e+3, 1.656953e+2, -1582604.4, -1527029.0, 150220.02, 0.16172022, -0.19287238, -1402048.3, -85882.28, 0.00000035173326, 9.998551, 9.999289 
1.1951644e+3, 1.7569499e+2, -1533392.9, -1426150.9, 104839.12, -0.08779286, -0.16378143, -1362016.0, -143838.4, 0.0, 9.998104, 9.999522 
1.19514e+3, 1.8569575e+2, -1344806.0, -1083060.0, 153900.58, -0.073854655, -0.13094375, -1011910.44, 108261.85, 0.0, 9.997854, 10.001326 
1.1951184e+3, 1.9569723e+2, -1265553.6, -997956.44, 187509.81, 0.14640641, -0.124717064, -901403.1, 120751.97, 0.0, 9.997741, 10.001292 
1.19509354e+3, 2.05698e+2, -1217671.0, -1076090.9, 96571.28, 0.17946103, -0.0987054, -1027142.7, -102994.43, 0.0, 9.998051, 9.999935 
1.1950662e+3, 2.1569814e+2, -1028373.06, -928806.25, 80757.11, 0.067729004, -0.089175284, -883720.8, -57570.816, 0.0, 9.998658, 9.999978 
1.1950403e+3, 2.2569847e+2, -901713.2, -908371.5, 118633.34, 0.0063783866, -0.0044441163, -786362.25, -58210.906, 0.0, 9.999248, 9.999162 
1.1950156e+3, 2.356989e+2, -710297.06, -751830.94, 107079.125, -0.01520859, 0.10924886, -621989.7, 8163.458, 0.0, 9.999828, 9.999285 
1.1949896e+3, 2.4569784e+2, -437194.53, -503528.16, 68160.516, -0.081424244, 0.050780613, -394559.66, 137602.89, 0.0, 10.000742, 9.999879 
1.1949628e+3, 2.5569564e+2, -176060.97, -336281.6, 108842.4, -0.17948265, -0.1673022, -121025.695, 313152.63, 0.0, 10.001911, 9.999787 
1.1949385e+3, 2.6569504e+2, -306739.34, -634477.7, 104346.17, -0.068479985, -0.06675464, -276337.5, 59850.355, 0.0000006389743, 10.001564, 9.99724 
1.1949159e+3, 2.756955e+2, -413029.1, -598672.6, 47565.938, 0.1947748, 0.24116585, -401551.28, -163357.53, 0.000009277396, 10.000009, 9.99756 
1.19489126e+3, 2.8569442e+2, -90961.9, -74826.836, 137178.08, 0.13355951, 0.23187575, 54520.73, 194723.23, 0.000049688064, 10.000175, 10.000404 
1.1948651e+3, 2.9569212e+2, 210611.33, 98935.35, 223485.13, -0.17138293, -0.052421384, 385128.47, 427343.03, 0.00016438575, 10.001667, 10.000207 
1.19484104e+3, 3.0569094e+2, 155071.31, -300579.22, 79021.5, -0.04552799, 0.0105485115, 168386.56, 168386.56, 0.00039412206, 10.002674, 9.996642 
1.1948171e+3, 3.1568712e+2, 319453.25, -96013.46, 25701.0, 0.25513738, -0.05131184, 321037.1, 321037.1, 0.00073558954, 10.003239, 9.997777 
1.2052923e+3, 1.2571506e+2, -2159138.0, -1843911.8, 41265.035, 0.34339598, -0.2706405, -1838599.5, -130632.76, 0.0024257244, 9.996601, 10.000732 
1.2052605e+3, 1.3571711e+2, -1957976.5, -1671195.1, -11179.966, 0.020951325, -0.15999272, -1670760.0, -60806.32, 0.0012988481, 9.9971485, 10.001016 
1.2052323e+3, 1.4571917e+2, -1796540.4, -1366369.4, 155990.47, -0.32583922, -0.1313524, -1315758.1, 196176.11, 0.00045139206, 9.996851, 10.00256 
1.2052135e+3, 1.5572087e+2, -1819712.6, -1341395.4, 30816.934, 0.09640155, -0.22706664, -1339418.1, 74495.6, 0.00006471426, 9.996084, 10.002426 
1.20519005e+3, 1.6572206e+2, -1828661.1, -1606196.4, -22917.91, 0.16700666, -0.19758911, -1603859.9, -287954.78, 0.00000057087306, 9.996688, 9.999644 
1.2051631e+3, 1.7572288e+2, -1473906.1, -1362901.9, 57206.734, -0.04638377, -0.09252836, -1338697.8, -120792.234, 0.0, 9.998359, 9.999834 
1.2051386e+3, 1.8572359e+2, -1224905.8, -1051618.8, 91452.836, -0.051643997, -0.06855472, -1012283.25, 107617.195, 0.0, 9.998785, 10.001094 
1.205116e+3, 1.9572407e+2, -1204648.8, -994568.0, 34663.21, 0.11092076, -0.13943838, -988996.3, 32896.125, 0.0, 9.998263, 10.001064 
1.2050912e+3, 2.0572463e+2, -1113187.1, -1061285.9, -17809.39, 0.105556846, -0.10789002, -1055762.6, -131873.7, 0.0, 9.9989195, 9.999617 
1.2050647e+3, 2.1572517e+2, -783095.4, -842603.8, -19692.893, -0.033354532, -0.026975915, -777168.75, 48720.465, 0.0, 10.000473, 9.999698 
1.2050397e+3, 2.2572555e+2, -718488.8, -784762.44, 14642.478, -0.036932457, 0.05564565, -715397.9, 12492.012, 0.0, 10.00035, 9.999483 
1.2050158e+3, 2.3572569e+2, -812531.1, -766645.6, 47756.004, 0.062218398, 0.112289496, -736607.2, -106715.8, 0.0, 9.99898, 9.999593 
1.2049902e+3, 2.4572481e+2, -670600.56, -624511.9, 55042.37, -0.013079669, 0.05834002, -587884.6, -55985.36, 0.0, 9.999179, 9.999798 
1.2049635e+3, 2.5572303e+2, -376315.1, -440518.84, 8424.137, -0.22594126, -0.11132406, -375228.16, 58684.766, 0.00000000020898414, 10.000557, 9.999727 
1.2049392e+3, 2.6572254e+2, -281153.4, -572983.2, 19205.387, -0.14189783, -0.018666198, -279894.94, 56025.332, 0.00000074892756, 10.001539, 9.997665 
1.2049166e+3, 2.7572292e+2, -59321.582, -385908.16, 120290.95, 0.16625845, 0.244746, -19798.176, 218125.31, 0.000008958339, 10.002263, 9.997929 
1.2048925e+3, 2.8572184e+2, 170622.8, 11098.119, 195850.34, 0.14658621, 0.23156688, 302330.03, 442263.13, 0.000049074697, 10.002151, 10.000041 
1.2048671e+3, 2.9571944e+2, 143198.27, 28450.584, 60524.855, -0.12210695, -0.022692025, 169221.16, 211169.55, 0.00016160097, 10.001373, 9.999861 
1.2048439e+3, 3.057184e+2, 55828.406, -362383.6, -53014.36, 0.016710326, 0.06943338, 62444.082, 62444.082, 0.0003810888, 10.002048, 9.996519 
1.2048212e+3, 3.1571472e+2, 347480.94, -131006.305, 17866.27, 0.32477635, 0.03867047, 348147.13, 348147.13, 0.000699887, 10.003651, 9.997332 
1.2152871e+3, 1.2574095e+2, -2070592.8, -1658831.8, 120600.79, 0.14592363, -0.31014872, -1626109.4, 81604.61, 0.0026624324, 9.996606, 10.001994 
1.2152593e+3, 1.3574319e+2, -1897292.0, -1539537.6, 3473.963, 0.18247601, -0.2989034, -1539503.9, 70186.34, 0.0014356553, 9.997124, 10.001932 
1.2152312e+3, 1.4574444e+2, -1970495.9, -1727206.8, 121605.74, -0.124348134, -0.26064524, -1676847.4, -165164.55, 0.0005075534, 9.996848, 10.000084 
1.2152075e+3, 1.5574493e+2, -1963450.6, -1650527.4, 16000.683, -0.12209017, -0.2344852, -1649711.4, -236022.81, 0.000076397075, 9.996132, 10.00028 
1.21518455e+3, 1.6574715e+2, -1672653.6, -1294043.1, 36884.004, -0.060899414, -0.11441617, -1290483.4, 25187.512, 0.0000008702971, 9.996735, 10.001763 
1.21516235e+3, 1.7575061e+2, -1342821.8, -1091224.0, 116933.72, 0.043922488, 0.04407454, -1045270.56, 172366.03, 0.0, 9.998357, 10.0017 
1.2151383e+3, 1.8575117e+2, -1320595.9, -1249504.4, 66414.305, 0.039785095, 0.04037316, -1209721.8, -90090.06, 0.0, 9.99878, 9.999738 
1.2151128e+3, 1.9574948e+2, -1292495.9, -1176470.0, 24659.898, -0.04507812, -0.11498515, -1171446.4, -149796.72, 0.0, 9.9982605, 9.999818 
1.2150876e+3, 2.0574945e+2, -1113364.5, -1055928.5, 35000.61, -0.15097605, -0.08766158, -1039372.1, -115718.6, 0.0, 9.998896, 9.999663 
1.2150629e+3, 2.1575058e+2, -784596.06, -829363.75, 34382.047, -0.26754528, 0.04564934, -765953.56, 59694.016, 0.0, 10.000404, 9.99982 
1.2150387e+3, 2.257509e+2, -659594.75, -649860.0, -43619.84, -0.17022873, 0.06836559, -610836.8, 116807.91, 0.0, 10.000293, 10.000438 
1.2150149e+3, 2.357506e+2, -762062.8, -650719.3, 8171.0684, 0.08320358, -0.017807899, -650122.9, -20478.234, 0.0, 9.99893, 10.000414 
1.2149906e+3, 2.4575065e+2, -754387.06, -784640.3, 102946.88, 0.10182076, 0.042656373, -665461.4, -133815.63, 0.0, 9.999121, 9.998724 
1.2149658e+3, 2.5575086e+2, -437959.22, -558108.0, 62798.5, -0.048022155, 0.17618485, -411128.0, 22521.129, 0.00000000018849695, 10.000517, 9.998936 
1.2149411e+3, 2.6574984e+2, -95265.78, -184251.23, 43004.95, -0.11307393, 0.10789282, -77879.37, 257776.52, 0.00000061447383, 10.001523, 10.000345 
1.21491626e+3, 2.7574784e+2, 93254.69, -62634.258, 152304.36, -0.11436858, -0.13879837, 186400.72, 424066.6, 0.00000822272, 10.002233, 10.000165 
1.21489294e+3, 2.857461e+2, -70740.56, -478668.66, 163822.27, -0.036331475, -0.13546851, -13095.996, 126587.5, 0.000047693058, 10.002099, 9.996703 
1.2148707e+3, 2.9574457e+2, -68177.336, -401193.13, 43289.055, 0.10521825, 0.024112955, -62642.15, -20934.775, 0.00015870755, 10.001331, 9.99693 
1.21484816e+3, 3.0574378e+2, 178934.02, -92367.49, 3665.4785, 0.22629756, 0.17821686, 178983.53, 178983.53, 0.00037049488, 10.00199, 9.998401 
1.2148235e+3, 3.1574032e+2, 436745.2, 76754.55, 90543.68, 0.16385518, -0.018798774, 458235.53, 458235.53, 0.0006721112, 10.003561, 9.998802 
1.2252823e+3, 1.2576671e+2, -2140200.0, -1642562.8, 122038.445, 0.05281827, -0.27532873, -1614245.9, 93219.25, 0.0029179724, 9.9959, 10.002458 
1.22525595e+3, 1.35769e+2, -2045532.0, -1571251.3, -107799.875, 0.2064428, -0.2959875, -1547899.1, 61539.305, 0.0015834377, 9.995931, 10.0022955 
1.2252295e+3, 1.4577036e+2, -2046314.6, -1802287.4, 82756.87, 0.03661451, -0.2501345, -1776869.5, -265439.03, 0.00056846405, 9.996503, 9.999731 
1.2252041e+3, 1.5577103e+2, -1770079.9, -1591065.8, 117132.05, -0.14642398, -0.16560899, -1533156.9, -119720.47, 0.00008951281, 9.997605, 9.999976 
1.225181e+3, 1.6577318e+2, -1464278.5, -1140878.0, 160549.64, -0.13711369, -0.06526674, -1074711.6, 240707.22, 0.0000012652538, 9.997939, 10.002235 
1.2251603e+3, 1.7577635e+2, -1409219.6, -1075860.4, 115259.3, 0.03211888, 0.01657448, -1039890.6, 177493.8, 0.0, 9.997702, 10.002121 
1.2251368e+3, 1.8577692e+2, -1421276.3, -1342397.1, 50462.64, 0.04120516, 0.015400798, -1317790.1, -198410.63, 0.0, 9.998287, 9.999336 
1.2251113e+3, 1.9577548e+2, -1135445.5, -1138994.0, 65722.766, -0.078995734, -0.07481053, -1071473.1, -50075.668, 0.0, 9.999514, 9.999467 
1.22508645e+3, 2.057754e+2, -1045087.9, -1018928.9, 107305.945, -0.17778149, -0.03788913, -923908.25, -506.02332, 0.0, 9.999345, 9.999704 
1.2250622e+3, 2.1577625e+2, -1114478.3, -985018.9, 98418.875, -0.25219855, 0.06490745, -931951.25, -106553.35, 0.0, 9.998124, 9.999851 
1.2250383e+3, 2.2577624e+2, -866501.44, -760511.56, -3618.1758, -0.16237643, 0.05806488, -760388.2, -32990.824, 0.0, 9.9989195, 10.000337 
1.22501455e+3, 2.3577553e+2, -435149.28, -503103.94, -44038.406, 0.043406036, -0.05966279, -413504.3, 215895.8, 0.0, 10.001212, 10.000328 
1.22499086e+3, 2.4577565e+2, -389884.88, -597717.0, 67460.47, 0.096888036, 0.0042260922, -369908.0, 161492.03, 0.0, 10.001569, 9.998836 
1.2249673e+3, 2.557763e+2, -426204.16, -538563.1, 108226.164, 0.040561654, 0.17038505, -360444.97, 72953.91, 0.0, 10.000539, 9.999061 
1.2249429e+3, 2.6577532e+2, -205249.42, -239349.77, 41113.277, -0.04572347, 0.10613992, -177791.06, 157613.86, 0.0000003685213, 10.000779, 10.000326 
1.22491784e+3, 2.757731e+2, 44930.395, -94095.99, -67929.79, -0.15613824, -0.16094315, 72610.516, 310027.88, 0.000007319039, 10.001934, 10.000094 
1.22489505e+3, 2.8577107e+2, -46856.203, -539496.0, -57490.105, -0.055111177, -0.15482691, -40236.18, 99202.92, 0.000046575948, 10.002572, 9.996057 
1.2248738e+3, 2.9576907e+2, 109129.25, -377059.06, 19090.55, 0.2057485, 0.025834816, 109877.7, 151346.27, 0.0001562628, 10.002815, 9.996383 
1.22485094e+3, 3.057681e+2, 381088.5, 90155.99, 65514.19, 0.26476914, 0.14703909, 395160.78, 395160.78, 0.00036177837, 10.003021, 9.999158 
1.2248251e+3, 3.1576523e+2, 405024.63, 108624.016, 45791.33, 0.0006028942, -0.06508624, 411937.75, 411937.75, 0.00065232813, 10.003123, 9.99924 
1.23527735e+3, 1.2579237e+2, -2153177.0, -1665675.8, 121963.19, -0.054640874, -0.1697519, -1636865.6, 70354.04, 0.0031899144, 9.995887, 10.002302 
1.2352506e+3, 1.3579473e+2, -2047874.5, -1579543.5, -103204.57, 0.06668476, -0.16337942, -1557809.3, 51386.57, 0.0017411282, 9.995948, 10.002228 
1.2352271e+3, 1.4579695e+2, -1932075.3, -1577559.1, 119267.125, 0.12915571, -0.111780435, -1541170.1, -29994.063, 0.0006337289, 9.996547, 10.001258 
1.235203e+3, 1.557991e+2, -1673556.9, -1397580.3, 156606.92, -0.023634337, -0.028353253, -1326842.6, 86316.55, 0.00010392506, 9.997626, 10.001299 
1.2351793e+3, 1.658001e+2, -1535143.5, -1289630.1, 143724.48, -0.10999124, -0.048740447, -1223373.8, 91776.65, 0.0000017603737, 9.997944, 10.001211 
1.2351565e+3, 1.7580026e+2, -1472359.8, -1208584.1, 111377.266, -0.117396004, -0.16755477, -1167847.3, 49300.105, 0.0, 9.997705, 10.001208 
1.2351339e+3, 1.8580098e+2, -1389503.6, -1275592.5, 90705.84, -0.0806921, -0.13576543, -1225443.0, -106300.914, 0.0, 9.998283, 9.999798 
1.2351114e+3, 1.9580202e+2, -1107684.0, -1077707.6, 107987.48, -0.026143862, -0.023988698, -983673.1, 37463.1, 0.0, 9.9994955, 9.999898 
1.2350875e+3, 2.0580238e+2, -1045962.1, -1013059.9, 53130.418, -0.015449489, 0.036281876, -973891.94, -50756.07, 0.0, 9.999312, 9.999758 
1.2350626e+3, 2.1580224e+2, -1122929.6, -995082.7, 64708.02, -0.03250826, 0.032652866, -968048.25, -142908.31, 0.0, 9.99809, 9.999799 
1.23503834e+3, 2.2580159e+2, -956352.9, -933207.2, 76741.6, -0.06165156, 0.027140299, -867170.75, -140023.44, 0.0, 9.998862, 9.999178 
1.2350144e+3, 2.358005e+2, -511908.78, -648999.25, 37016.938, -0.09746249, -0.012908228, -502552.13, 126605.65, 0.0, 10.001159, 9.9993515 
1.2349909e+3, 2.4579978e+2, -303067.56, -411954.1, 22929.887, -0.07153978, -0.05666457, -298435.88, 232725.98, 0.0, 10.001542, 10.000125 
1.2349674e+3, 2.557993e+2, -364788.34, -401094.84, 80696.49, -0.0022290724, -0.13279147, -300228.47, 132933.38, 0.0, 10.000491, 10.00003 
1.2349443e+3, 2.6579902e+2, -412113.2, -654348.5, 80672.95, 0.02123329, -0.021277012, -387705.53, -52538.06, 0.00000016286783, 10.000717, 9.997506 
1.2349215e+3, 2.7579883e+2, -132808.95, -452018.1, -22979.691, 0.011365028, 0.19541954, -131163.14, 106015.18, 0.0000066111284, 10.001889, 9.997656 
1.2348987e+3, 2.8579664e+2, 100443.93, -227927.14, -52533.83, 0.048463784, 0.18335712, 108643.695, 247844.4, 0.000046430763, 10.002544, 9.99821 
1.23487584e+3, 2.9579288e+2, 240839.66, -97482.8, 36529.69, 0.1216962, -0.027708706, 244738.94, 285971.44, 0.00015647624, 10.002787, 9.998317 
1.23485215e+3, 3.057912e+2, 341185.66, 12487.384, 70124.3, 0.07288095, -0.037160743, 355520.75, 355520.75, 0.00036044128, 10.002993, 9.998639 
1.2348258e+3, 3.1578955e+2, 341650.13, 4696.286, 65057.676, -0.25749442, -0.07875198, 353774.9, 353774.9, 0.0006474148, 10.003008, 9.998576 
1.24527335e+3, 1.2581712e+2, -2345958.3, -1772065.3, 120049.94, 0.023611967, -0.120693885, -1747964.6, -40985.027, 0.003475539, 9.994631, 10.002169 
1.24524474e+3, 1.3581972e+2, -2038747.6, -1585045.8, -95914.875, -0.10566278, -0.07253628, -1565602.1, 43354.027, 0.0019075654, 9.99605, 10.00214 
1.24522336e+3, 1.4582193e+2, -1851031.1, -1464278.5, 96525.04, 0.11214014, -0.05578734, -1441526.4, 69408.22, 0.0007030745, 9.996785, 10.001919 
1.24520056e+3, 1.5582387e+2, -1734847.9, -1365194.0, 60464.344, 0.008795791, -0.060166087, -1355555.1, 57359.305, 0.00011956255, 9.996943, 10.00185 
1.2451771e+3, 1.6582477e+2, -1683807.4, -1424299.9, 29601.156, -0.08159836, -0.08444867, -1420966.1, -106059.555, 0.0000023468863, 9.997198, 10.000648 
1.2451541e+3, 1.7582497e+2, -1527253.1, -1288362.0, 22404.105, -0.12115351, -0.14382607, -1286279.0, -69371.89, 0.0, 9.997562, 10.00073 
1.2451321e+3, 1.8582577e+2, -1404526.6, -1230126.4, 49849.77, -0.07387787, -0.109837085, -1216883.1, -97981.76, 0.0, 9.997945, 10.000274 
1.2451107e+3, 1.9582687e+2, -1247205.6, -1098607.1, 58570.11, 0.022194587, -0.03738843, -1078297.5, -57405.375, 0.0, 9.998329, 10.0003195 
1.24508716e+3, 2.0582739e+2, -1096809.4, -1051834.8, -26625.188, 0.041297924, 0.024066634, -1039471.25, -116581.93, 0.0, 9.999017, 9.9996395 
1.245062e+3, 2.1582744e+2, -865704.9, -883270.56, -33865.2, 0.011396118, 0.04913819, -839502.1, -14610.583, 0.0, 9.999909, 9.999692 
1.24503806e+3, 2.2582653e+2, -788593.4, -895654.4, 58670.125, -0.034788426, 0.04222889, -762702.8, -35800.832, 0.0, 10.000197, 9.998794 
1.24501504e+3, 2.358248e+2, -696010.9, -774328.56, 64731.246, -0.09363852, -0.024291983, -659515.56, -30595.777, 0.0, 10.000046, 9.999027 
1.2449916e+3, 2.4582383e+2, -423031.66, -448267.66, -228.5752, -0.10157664, -0.08828899, -423029.56, 107895.15, 0.0, 10.000632, 10.00031 
1.2449678e+3, 2.558234e+2, -172531.8, -298837.34, -33818.71, -0.072267726, -0.17748277, -164046.73, 268874.03, 0.0, 10.001775, 10.000113 
1.2449457e+3, 2.6582286e+2, -242689.2, -688559.25, 40751.15, 0.009983339, -0.043784566, -238995.28, 95935.81, 0.000000050542315, 10.002376, 9.996471 
1.2449248e+3, 2.7582207e+2, -92746.68, -531788.4, 61076.496, 0.1290159, 0.2216123, -84408.49, 152544.48, 0.000006130949, 10.0025835, 9.996777 
1.244902e+3, 2.8581995e+2, 179837.08, -94328.64, 19952.121, 0.119073845, 0.21091673, 181281.47, 320255.3, 0.0000467863, 10.002692, 9.999052 
1.2448774e+3, 2.9581663e+2, 290885.38, 9910.866, -2776.2627, 0.015831314, -0.041105583, 290912.78, 331908.34, 0.00016088788, 10.002776, 9.999056 
1.2448545e+3, 3.0581442e+2, 294228.06, -73975.53, -5008.774, 0.019815743, -0.1081182, 294296.2, 294296.2, 0.00037296483, 10.002939, 9.998069 
1.2448304e+3, 3.158127e+2, 317648.06, -77548.36, -30177.135, -0.099274136, -0.09706335, 319939.1, 319939.1, 0.00066910277, 10.003143, 9.997948 
1.2552689e+3, 1.2584125e+2, -2347995.0, -1790499.5, 101651.695, 0.10852631, -0.10789676, -1772543.1, -65800.69, 0.0037739007, 9.994673, 10.0020275 
1.2552387e+3, 1.3584411e+2, -2042156.4, -1596141.9, -42580.91, -0.33683178, -0.02614973, -1592113.0, 16605.506, 0.0020822603, 9.996066, 10.002055 
1.2552188e+3, 1.4584552e+2, -1858046.6, -1485545.9, 97512.84, -0.038320694, -0.077959694, -1461563.1, 49141.164, 0.0007764397, 9.99681, 10.001762 
1.2551966e+3, 1.5584566e+2, -1741700.1, -1383112.8, 69588.586, -0.08091106, -0.24800462, -1370081.6, 42617.27, 0.00013646827, 9.996956, 10.00172 
1.2551744e+3, 1.6584744e+2, -1696658.8, -1453566.0, 36743.996, -0.08543196, -0.16836525, -1448133.5, -133448.75, 0.0000030208696, 9.997205, 10.000444 
1.2551528e+3, 1.7585045e+2, -1533291.0, -1306045.6, 38026.902, -0.013281358, 0.07241694, -1299851.1, -83187.56, 0.0, 9.9975815, 10.0006 
1.255131e+3, 1.8585119e+2, -1366525.0, -1153933.4, 58368.62, 0.024131924, 0.07935093, -1138962.1, -20304.459, 0.0, 9.997956, 10.000792 
1.2551092e+3, 1.9585018e+2, -1218063.9, -1033385.4, 76342.17, 0.021290865, -0.11507745, -1005913.7, 14750.471, 0.0, 9.998307, 10.000776 
1.2550855e+3, 2.0585054e+2, -1123664.0, -1096486.4, -502.1477, -0.042121504, -0.0738587, -1096477.1, -173815.73, 0.0, 9.998969, 9.999358 
1.2550603e+3, 2.1585187e+2, -887339.06, -918738.6, -815.6463, -0.14885925, 0.10877193, -887317.9, -62665.5, 0.0, 9.999869, 9.999469 
1.2550375e+3, 2.25851e+2, -767997.6, -840265.0, 47466.63, -0.11622024, 0.09488188, -744476.25, -17814.389, 0.0, 10.000143, 9.9992 
1.2550162e+3, 2.358485e+2, -683174.25, -736303.2, 66960.67, 0.01881833, -0.090044565, -637701.25, -9015.8125, 0.0, 9.999996, 9.999312 
1.254993e+3, 2.4584791e+2, -494829.25, -586640.5, 38179.383, -0.02863775, -0.07891521, -481027.3, 49660.348, 0.0, 10.000586, 9.999382 
1.2549682e+3, 2.5584862e+2, -235114.31, -419174.16, 11167.43, -0.20570582, 0.039730787, -234439.23, 198236.47, 0.0, 10.001735, 9.999305 
1.2549469e+3, 2.6584667e+2, -192448.2, -576759.94, 45671.305, -0.1201083, 0.03052545, -187095.22, 147601.52, 0.00000007625481, 10.00234, 9.997256 
1.2549277e+3, 2.7584285e+2, -53790.723, -437338.0, 75347.414, 0.15388227, -0.09501537, -39519.8, 197222.06, 0.0000061180435, 10.002525, 9.997453 
1.2549047e+3, 2.8584096e+2, 134514.4, -178170.7, 20688.9, 0.11215275, -0.07759762, 135877.36, 274636.13, 0.00004818149, 10.002646, 9.998499 
1.2548786e+3, 2.9584035e+2, 243237.4, -77211.91, 8486.791, -0.1470455, -0.0021769996, 243462.0, 284219.16, 0.00017152917, 10.002726, 9.998482 
1.2548581e+3, 3.0583775e+2, 242760.2, -174477.4, 1060.7701, 0.07215241, -0.050439656, 242762.9, 242762.9, 0.00040416623, 10.002906, 9.9973955 
1.2548389e+3, 3.1583446e+2, 254915.64, -176904.58, -11460.814, 0.4198106, -0.1316456, 255219.61, 255219.61, 0.0007265205, 10.003011, 9.997329 
1.2652633e+3, 1.2586406e+2, -2430914.5, -1834938.1, 32992.504, 0.10723777, -0.1293357, -1833117.3, -126598.92, 0.004085261, 9.994121, 10.001995 
1.2652346e+3, 1.3586654e+2, -2084483.6, -1611603.0, -48774.766, -0.31932548, -0.08647965, -1606624.6, 1873.8307, 0.0022650692, 9.995763, 10.0020895 
1.2652165e+3, 1.4586821e+2, -1914984.3, -1525839.0, 50737.625, 0.059633784, -0.109262034, -1519332.5, -8850.085, 0.00085386867, 9.996488, 10.001635 
1.2651932e+3, 1.5586899e+2, -1840758.8, -1447515.8, 12620.262, -0.08207094, -0.20081306, -1447111.1, -34638.992, 0.00015477135, 9.996359, 10.001561 
1.2651713e+3, 1.6587059e+2, -1767811.8, -1523225.4, 7970.12, -0.08471687, -0.112413436, -1522965.9, -208505.02, 0.0000038088367, 9.996879, 10.000118 
1.2651514e+3, 1.7587289e+2, -1493362.8, -1316929.1, -10509.745, 0.064890034, 0.08925693, -1316305.3, -99857.32, 0.0, 9.99799, 10.000325 
1.2651297e+3, 1.8587382e+2, -1311935.6, -1093109.4, -24090.025, 0.08726129, 0.11012228, -1090488.8, 27951.268, 0.0, 9.998189, 10.001094 
1.265107e+3, 1.9587363e+2, -1282691.9, -1031908.9, -28883.055, -0.0021173512, -0.032190844, -1028625.3, -8188.2314, 0.0, 9.997734, 10.0010605 
1.2650836e+3, 2.0587371e+2, -1234840.0, -1137205.5, -50631.676, -0.08833093, -0.038778447, -1115690.0, -193254.8, 0.0, 9.998158, 9.999462 
1.2650596e+3, 2.1587396e+2, -978494.25, -952294.5, -36640.06, -0.17043307, 0.025632415, -926482.94, -102048.28, 0.0, 9.999197, 9.999558 
1.2650374e+3, 2.2587343e+2, -824370.8, -850392.06, -14063.847, -0.11517634, 0.030813105, -818222.44, -91782.12, 0.0, 9.999679, 9.999355 
1.2650162e+3, 2.358723e+2, -711995.6, -738825.4, -20021.842, 0.038671535, -0.032917727, -701310.0, -72859.29, 0.0, 9.999753, 9.999412 
1.2649938e+3, 2.4587142e+2, -585735.94, -713800.6, -2295.8032, 0.015797859, -0.015692035, -585694.8, -55237.766, 0.0, 10.0003195, 9.998637 
1.2649705e+3, 2.5587058e+2, -351705.47, -544832.56, -26884.564, -0.13403718, 0.0234565, -348032.78, 84429.164, 0.0, 10.001227, 9.998688 
1.2649488e+3, 2.6586837e+2, -293711.47, -545416.56, -22536.836, -0.096879065, -0.02478158, -291709.53, 42774.33, 0.00000015326442, 10.001305, 9.997971 
1.2649286e+3, 2.758651e+2, -256931.48, -464693.53, -6392.192, 0.075041614, -0.16142213, -256735.0, -20216.617, 0.000006713193, 10.000829, 9.998079 
1.2649061e+3, 2.8586325e+2, -35085.57, -327503.22, -15908.789, 0.048036207, -0.14162761, -34222.61, 104312.76, 0.000050966704, 10.001759, 9.997904 
1.2648822e+3, 2.9586232e+2, 346250.13, -88197.16, -44873.35, -0.119048834, -0.043625556, 350836.6, 391377.53, 0.00018813205, 10.003687, 9.997946 
1.2648621e+3, 3.058595e+2, 394901.9, -101978.375, -62560.31, 0.14831685, -0.08311715, 402657.6, 402657.6, 0.00045240793, 10.003961, 9.997386 
1.2648426e+3, 3.1585717e+2, 272240.47, -155641.95, -44603.313, 0.50784296, -0.06807388, 276840.56, 276840.56, 0.0008183063, 10.003068, 9.997449 
1.275255e+3, 1.2588592e+2, -2415546.0, -1822911.8, -1283.66, -0.15329716, -0.17068557, -1822909.0, -116605.35, 0.0044096503, 9.994199, 10.002044 
1.2752327e+3, 1.358874e+2, -2076520.6, -1595132.6, 14992.237, -0.09952222, -0.23698556, -1594666.1, 13625.671, 0.0024558255, 9.995771, 10.002195 
1.2752159e+3, 1.4589028e+2, -1917825.5, -1543891.0, 43909.31, 0.33873236, -0.14051647, -1538804.1, -28537.805, 0.00093550276, 9.996532, 10.0014925 
1.2751901e+3, 1.558938e+2, -1851270.1, -1478882.0, 15149.26, -0.033019833, 0.059978984, -1478266.8, -66032.5, 0.00017466526, 9.996394, 10.001332 
1.275168e+3, 1.6589424e+2, -1794243.5, -1587685.9, 44434.273, -0.11473949, 0.06856482, -1578532.8, -264297.88, 0.0000047674703, 9.996913, 9.999661 
1.2751496e+3, 1.7589256e+2, -1518648.6, -1371845.5, 30662.902, 0.07565864, -0.08454096, -1365698.3, -149440.14, 0.0, 9.997997, 9.999946 
1.275128e+3, 1.8589392e+2, -1305765.8, -1082621.6, -44600.195, 0.07618226, -0.0075875823, -1074037.5, 44208.668, 0.0, 9.998195, 10.001165 
1.2751038e+3, 1.9589734e+2, -1273278.5, -1015718.6, -37032.168, -0.084465444, 0.2043134, -1010499.9, 9710.124, 0.0, 9.997745, 10.001167 
1.2750812e+3, 2.0589697e+2, -1205794.0, -1074313.9, -16771.17, -0.13283052, 0.123249814, -1072208.3, -149997.94, 0.0, 9.998144, 9.999902 
1.2750597e+3, 2.1589385e+2, -958478.75, -897337.0, 3209.004, -0.09048622, -0.19388829, -897169.06, -72931.766, 0.0, 9.999139, 9.999963 
1.2750375e+3, 2.2589393e+2, -839945.44, -867430.75, -17112.023, -0.06969522, -0.14060172, -831740.9, -105504.8, 0.0, 9.999614, 9.9992695 
1.275015e+3, 2.358962e+2, -727772.44, -761538.8, -9257.6455, -0.06848695, 0.14386925, -725400.8, -97185.06, 0.0, 9.999708, 9.999278 
1.274994e+3, 2.4589427e+2, -631812.94, -798755.1, 27963.984, -0.0034805927, 0.09364021, -627253.3, -97019.55, 0.0, 10.000274, 9.9980755 
1.274974e+3, 2.5588936e+2, -389807.78, -613466.25, 7653.6943, 0.10935782, -0.22397025, -389546.2, 42733.156, 0.0, 10.001183, 9.998237 
1.2749517e+3, 2.65888e+2, -256595.61, -460183.06, -45114.434, 0.0421667, -0.19780615, -247046.28, 87245.41, 0.00000020123079, 10.001265, 9.998577 
1.2749273e+3, 2.7588904e+2, -232387.58, -398743.97, -9979.557, -0.14932466, 0.034608368, -231791.05, 4490.989, 0.0000075115454, 10.000763, 9.998566 
1.2749062e+3, 2.8588682e+2, -87385.57, -422872.72, 53335.074, -0.122206345, 0.03083268, -79110.57, 59193.44, 0.000055155855, 10.001705, 9.99727 
1.2748878e+3, 2.9588225e+2, 299932.25, -169722.47, 25879.248, 0.065558665, -0.17194623, 301353.97, 341702.72, 0.00020861672, 10.003624, 9.997414 
1.2748668e+3, 3.0587956e+2, 434287.0, -11418.032, -98713.49, 0.20163515, -0.20779108, 455171.22, 455171.22, 0.00051069446, 10.0039215, 9.998028 
1.2748414e+3, 3.1588104e+2, 311825.0, -42742.188, -63726.273, 0.05349922, 0.11772969, 322930.66, 322930.66, 0.0009331976, 10.002944, 9.998282 
1.2852499e+3, 1.2590852e+2, -2153307.0, -1692702.4, 16341.485, -0.16315842, -0.1885366, -1692123.4, 13959.829, 0.0047468157, 9.995961, 10.002096 
1.285229e+3, 1.3591048e+2, -1969540.0, -1545201.1, 87202.35, -0.07027073, -0.21093741, -1527979.8, 80084.8, 0.0026545508, 9.996519, 10.002174 
1.2852126e+3, 1.4591298e+2, -1894181.5, -1605906.3, 63872.754, 0.34855518, -0.11447318, -1592387.9, -82343.97, 0.0010215283, 9.997013, 10.0008335 
1.2851876e+3, 1.5591586e+2, -1733070.1, -1482305.0, -10992.684, 0.02049638, 0.0873007, -1481824.0, -69802.18, 0.00019628371, 9.997465, 10.000792 
1.2851657e+3, 1.6591625e+2, -1658710.0, -1461914.4, 69576.016, -0.07142501, 0.08424823, -1439801.0, -125778.85, 0.0000059623408, 9.99758, 10.000207 
1.2851469e+3, 1.7591487e+2, -1565818.1, -1344259.1, 119141.56, 0.055106968, -0.09066727, -1292352.4, -76314.67, 0.0, 9.997455, 10.000399 
1.2851258e+3, 1.85916e+2, -1369615.1, -1173070.9, 49041.47, 0.050270543, -0.027502397, -1161513.8, -43486.457, 0.0, 9.998018, 10.0006275 
1.2851024e+3, 1.9591884e+2, -1103169.3, -987237.8, 3548.3289, -0.0730202, 0.18065545, -987129.3, 32869.5, 0.0, 9.999145, 10.000689 
1.2850805e+3, 2.0591843e+2, -1014081.75, -963529.7, -1124.2166, -0.08072097, 0.1078201, -963504.7, -41504.727, 0.0, 9.999386, 10.000063 
1.2850596e+3, 2.1591559e+2, -972293.0, -887465.56, -9747.44, 0.0022176618, -0.19661207, -886359.9, -62336.75, 0.0, 9.998977, 10.000109 
1.2850377e+3, 2.2591555e+2, -858152.9, -888044.4, -18731.459, -0.0062136278, -0.15638927, -849135.25, -123112.51, 0.0, 9.999546, 9.999158 
1.285015e+3, 2.3591742e+2, -574742.6, -697122.8, -26020.008, -0.08494205, 0.100881614, -569440.06, 58566.195, 0.0, 10.000807, 9.9991865 
1.2849943e+3, 2.459156e+2, -535160.25, -755554.56, 25413.775, -0.013892369, 0.06655145, -532267.7, -2243.4045, 0.0, 10.000949, 9.998048 
1.2849754e+3, 2.5591114e+2, -517298.2, -676018.7, 34785.418, 0.16592464, -0.20156348, -510009.28, -77942.14, 0.0, 10.000315, 9.998224 
1.284953e+3, 2.659098e+2, -332747.38, -502299.28, -16004.352, 0.089301065, -0.17245191, -331249.94, 2829.361, 0.00000014147287, 10.000763, 9.998529 
1.2849283e+3, 2.7591053e+2, -61419.484, -319292.7, -39344.344, -0.16911224, 0.03378065, -55550.207, 180520.77, 0.00000765521, 10.0019455, 9.998543 
1.2849082e+3, 2.8590843e+2, -40655.406, -384873.84, 58186.457, -0.10910975, 0.033564914, -31085.658, 107006.305, 0.00005963982, 10.0019655, 9.997407 
1.2848914e+3, 2.9590422e+2, -40206.664, -317384.25, 74564.15, 0.18420364, -0.14774655, -21421.17, 18713.287, 0.00023270557, 10.001221, 9.997556 
1.2848702e+3, 3.0590147e+2, 224212.61, -111025.65, -35056.625, 0.23819312, -0.19718178, 227839.33, 227839.33, 0.0005779569, 10.002471, 9.998041 
1.2848434e+3, 3.1590316e+2, 646750.44, 155341.6, -71484.35, -0.14285831, 0.14950025, 656937.94, 656937.94, 0.0010646739, 10.005087, 9.998613 
1.2952466e+3, 1.2593186e+2, -2153065.3, -1688760.0, -33286.137, -0.10295846, -0.1975452, -1686385.8, 19470.813, 0.0050962004, 9.995944, 10.002135 
1.295224e+3, 1.3593562e+2, -1984966.9, -1572939.5, 110236.39, -0.2367733, -0.032664664, -1545300.3, 62517.38, 0.0028611089, 9.996512, 10.001982 
1.2952068e+3, 1.4593625e+2, -1972102.9, -1776504.6, 73082.125, 0.06825081, -0.044314638, -1752215.0, -242399.13, 0.00111182, 9.997044, 9.999653 
1.2951852e+3, 1.5593553e+2, -1791645.9, -1608577.3, 8463.4, 0.03954758, -0.092777416, -1608186.8, -196354.98, 0.000219555, 9.997478, 9.999923 
1.2951641e+3, 1.6593687e+2, -1550823.5, -1239555.0, 59202.26, -0.0017328741, -0.044779044, -1228675.3, 85144.67, 0.0000074533, 9.997587, 10.001728 
1.2951437e+3, 1.7593977e+2, -1478864.0, -1165601.0, 118882.47, -0.02525339, 0.05852421, -1125594.5, 90193.04, 0.0, 9.997464, 10.001618 
1.2951231e+3, 1.8594003e+2, -1449412.6, -1342258.1, 84367.37, -0.022376386, 0.043683674, -1295893.5, -178109.34, 0.0, 9.998031, 9.999462 
1.2951022e+3, 1.9593829e+2, -1178315.5, -1141445.6, 44148.887, -0.005947669, -0.09220085, -1112037.4, -92235.0, 0.0, 9.999136, 9.999635 
1.295081e+3, 2.0593818e+2, -1025057.44, -982082.44, -21642.736, 0.02589683, -0.080426864, -973072.06, -51268.703, 0.0, 9.999366, 9.999945 
1.2950593e+3, 2.1593916e+2, -988727.3, -909468.06, -16353.26, 0.070560135, 0.00873318, -906226.5, -82433.9, 0.0, 9.998924, 9.999982 
1.2950377e+3, 2.2593826e+2, -877475.7, -917328.8, 24245.559, 0.03671283, -0.019807385, -866018.9, -140218.3, 0.0, 9.9994955, 9.998981 
1.2950163e+3, 2.35936e+2, -588582.25, -716311.6, 20825.97, -0.050388817, -0.16248949, -585272.44, 42549.86, 0.0, 10.000762, 9.999076 
1.294995e+3, 2.4593548e+2, -506626.56, -684229.9, -3751.6, -0.056460205, -0.09044342, -506547.34, 23281.096, 0.0, 10.000898, 9.998561 
1.2949741e+3, 2.5593606e+2, -497564.44, -623074.2, 23041.215, -0.0030969265, 0.09376647, -493468.2, -61643.074, 0.0, 10.000263, 9.998613 
1.294953e+3, 2.6593375e+2, -391041.34, -613373.6, 26417.49, 0.0042304853, 0.051035464, -387945.53, -54098.395, 0.000000052184554, 10.000717, 9.997789 
1.2949318e+3, 2.7592948e+2, -109860.945, -406566.63, 6123.009, -0.019951, -0.17220457, -109734.64, 126151.94, 0.000006761853, 10.001888, 9.997972 
1.2949118e+3, 2.85928e+2, 18079.545, -252854.92, 25497.771, 0.04814481, -0.13282943, 20458.268, 158357.88, 0.000062792315, 10.001916, 9.998341 
1.2948926e+3, 2.959283e+2, 259.95007, -216585.53, 66630.99, 0.18699393, 0.046852857, 19097.494, 58993.715, 0.00025879944, 10.001143, 9.99829 
1.2948725e+3, 3.0592516e+2, 164634.47, -215904.1, 64431.336, 0.20737663, -0.035238437, 175247.73, 175247.73, 0.0006519277, 10.002399, 9.99735 
1.2948486e+3, 3.1592318e+2, 608638.7, 109681.766, 34620.17, -0.14160062, 0.0070389416, 611029.3, 611029.3, 0.0012067992, 10.004957, 9.998354 
1.305243e+3, 1.2595427e+2, -2305436.8, -1734298.5, -154747.8, -0.0008280428, -0.06485548, -1695065.3, 10577.5205, 0.0054552136, 9.994782, 10.00238 
1.3052204e+3, 1.3595697e+2, -1953121.4, -1556017.0, -6566.011, -0.24723516, -0.0072091687, -1555908.4, 51702.49, 0.003073975, 9.99673, 10.001991 
1.3052027e+3, 1.459573e+2, -1914041.3, -1705828.3, -6721.03, -0.07424592, -0.06826694, -1705611.5, -196001.94, 0.0012055306, 9.997262, 10.00003 
1.3051827e+3, 1.5595719e+2, -1847163.8, -1598068.1, 28392.965, 0.06599071, -0.093911864, -1594872.8, -183255.11, 0.000244213, 9.9969425, 10.000249 
1.3051622e+3, 1.6595857e+2, -1594769.6, -1296351.8, 67240.19, 0.051127847, -0.042244155, -1281900.9, 31704.22, 0.000009295233, 9.997447, 10.001403 
1.3051412e+3, 1.7596106e+2, -1336435.4, -1128468.3, -13805.817, -0.075341724, 0.052895118, -1127555.9, 88021.26, 0.0, 9.998584, 10.001333 
1.305121e+3, 1.8596096e+2, -1322373.5, -1271083.5, -43087.082, -0.0603623, 0.011031415, -1246587.0, -129010.42, 0.0, 9.998855, 9.999555 
1.3051015e+3, 1.9595891e+2, -1265112.8, -1175738.1, -3311.007, 0.04941259, -0.16755222, -1175615.6, -156018.7, 0.0, 9.998505, 9.999703 
1.3050805e+3, 2.0595899e+2, -1140037.5, -1067435.0, -39737.773, 0.07585456, -0.12332465, -1049913.6, -128316.84, 0.0, 9.998711, 9.999674 
1.3050582e+3, 2.159606e+2, -941419.5, -910527.6, -51233.273, 0.044519555, 0.053005416, -872462.56, -48880.16, 0.0, 9.999355, 9.999766 
1.3050368e+3, 2.2595966e+2, -847341.06, -884475.7, 26196.7, -0.0017600933, 0.02077565, -833799.0, -108207.92, 0.0, 9.999625, 9.999144 
1.3050164e+3, 2.3595688e+2, -742024.44, -773084.6, 33147.617, -0.0566094, -0.19022183, -720949.25, -93332.484, 0.0, 9.999632, 9.999232 
1.3049954e+3, 2.4595658e+2, -652230.0, -748692.9, -19204.424, -0.059168197, -0.105105974, -648547.25, -118926.5, 0.0, 9.999871, 9.998615 
1.3049741e+3, 2.5595793e+2, -491007.06, -615615.06, -32360.254, -0.024255995, 0.15241382, -483104.4, -51493.805, 0.0, 10.000282, 9.998659 
1.304954e+3, 2.6595545e+2, -371856.03, -610339.56, 32997.434, 0.027650872, 0.09405733, -367374.6, -33740.715, 0.000000019202236, 10.000881, 9.997727 
1.3049346e+3, 2.7595028e+2, -143397.6, -430026.0, 45589.023, 0.09042896, -0.21368167, -136321.23, 99359.63, 0.0000058574187, 10.001688, 9.997906 
1.3049147e+3, 2.8594866e+2, 74037.22, -238873.36, 11512.109, 0.12480423, -0.18076688, 74460.19, 212155.06, 0.00006594774, 10.002356, 9.998224 
1.3048942e+3, 2.959494e+2, 250621.23, -111847.15, -29281.643, 0.1425563, 0.054897573, 252971.48, 292658.5, 0.00028478247, 10.002933, 9.998146 
1.3048752e+3, 3.0594593e+2, 248105.73, -251302.6, 4255.5464, 0.195709, -0.01996331, 248142.0, 248142.0, 0.00072544854, 10.003288, 9.996688 
1.3048542e+3, 3.1594267e+2, 382695.03, -32297.635, -48370.203, -0.007825462, -0.040658135, 388258.34, 388258.34, 0.0013484193, 10.003526, 9.998079 
1.3152385e+3, 1.2597598e+2, -2267201.5, -1673588.8, -74446.15, 0.04687131, 0.18817246, -1664394.6, 41044.402, 0.005819013, 9.994851, 10.002769 
1.3152182e+3, 1.3597505e+2, -1942462.3, -1534957.9, 59778.813, -0.1483009, -0.11558422, -1526369.6, 81069.305, 0.0032902497, 9.996729, 10.002139 
1.3151993e+3, 1.4597654e+2, -1783610.4, -1436557.5, -27639.748, -0.1352247, -0.16840869, -1434370.0, 75051.055, 0.0013013786, 9.997269, 10.001876 
1.3151798e+3, 1.5598081e+2, -1745382.5, -1390890.4, 22050.059, 0.06537942, 0.065235786, -1389524.1, 21856.258, 0.00026992275, 9.996963, 10.00166 
1.3151596e+3, 1.6598122e+2, -1736889.0, -1600230.8, 101768.22, 0.05549192, 0.075580366, -1545980.8, -232602.2, 0.00001153221, 9.9974785, 9.999307 
1.3151392e+3, 1.7597896e+2, -1454413.8, -1377915.9, 27480.777, -0.12892263, -0.10164271, -1369067.3, -153663.55, 0.0, 9.998598, 9.999617 
1.3151196e+3, 1.8597905e+2, -1232455.1, -1083472.5, -60557.152, -0.10630317, -0.11891511, -1061963.1, 55438.84, 0.0, 9.998851, 10.000845 
1.3151003e+3, 1.959807e+2, -1191783.0, -1017774.7, -11603.932, 0.060987376, -0.051444497, -1017004.25, 2377.9597, 0.0, 9.99848, 10.000801 
1.3150789e+3, 2.0598088e+2, -1172812.9, -1128362.1, -21576.158, 0.039468188, -0.02579555, -1119611.8, -198231.2, 0.0, 9.998679, 9.99927 
1.3150561e+3, 2.1597996e+2, -970864.44, -961528.25, -24844.857, -0.10901745, -0.061383303, -940916.75, -117524.93, 0.0, 9.999311, 9.999437 
1.315035e+3, 2.2597979e+2, -819227.75, -815825.06, 22443.129, -0.16146173, -0.028937612, -795018.9, -69625.33, 0.0, 9.999579, 9.9996395 
1.3150151e+3, 2.3598006e+2, -721981.44, -720162.06, 41196.75, -0.14490211, 0.017481633, -679864.94, -52475.387, 0.0, 9.999582, 9.999622 
1.3149953e+3, 2.459789e+2, -689565.06, -814312.0, -8054.314, -0.06284978, 0.023680454, -689047.2, -159645.92, 0.0, 9.999819, 9.998191 
1.3149753e+3, 2.559768e+2, -521689.47, -665976.06, -8882.679, 0.068201184, -0.023368541, -521144.7, -89721.11, 0.0, 10.000225, 9.998342 
1.314956e+3, 2.6597494e+2, -336904.72, -527624.9, 60094.996, 0.11916526, -0.040654246, -319548.56, 13891.043, 0.000000054232096, 10.0008335, 9.998319 
1.3149366e+3, 2.7597305e+2, -123972.305, -375999.9, 82636.68, 0.1173099, -0.07672865, -99293.375, 136159.64, 0.0000056747863, 10.001631, 9.998303 
1.3149166e+3, 2.859704e+2, -12959.491, -411058.72, 31065.395, 0.0760576, -0.09840397, -10549.909, 126927.53, 0.00007077781, 10.002318, 9.997061 
1.3148959e+3, 2.959673e+2, 162811.63, -278411.13, -928.06616, 0.009341819, -0.13383135, 162813.58, 202322.63, 0.0003102898, 10.002867, 9.997035 
1.3148782e+3, 3.0596355e+2, 199701.69, -341656.56, 9570.094, 0.15946479, -0.15520245, 199870.81, 199870.81, 0.0007935088, 10.003244, 9.996088 
1.3148597e+3, 3.1596157e+2, 339326.72, -84391.234, -29502.117, 0.1753483, 0.013936893, 341370.97, 341370.97, 0.00147785, 10.003376, 9.99779 
1.3252336e+3, 1.2599428e+2, -2044865.6, -1541307.0, -49630.496, 0.0012684001, 0.18024118, -1536462.0, 168799.8, 0.006183249, 9.996249, 10.003012 
1.3252155e+3, 1.3599335e+2, -2045167.8, -1576326.4, 31723.15, -0.039729472, -0.12723489, -1574189.6, 33072.324, 0.0035072896, 9.995999, 10.002196 
1.3251963e+3, 1.4599538e+2, -1845821.0, -1406260.6, -104708.21, -0.12276536, -0.15828095, -1382592.4, 126645.086, 0.0013982238, 9.996588, 10.002408 
1.3251771e+3, 1.5599987e+2, -1538609.4, -1236061.8, -151816.58, 0.049846005, 0.04410313, -1173018.0, 238173.75, 0.00029637254, 9.99814, 10.002158 
1.3251577e+3, 1.6600052e+2, -1565622.6, -1496239.0, -10089.213, 0.06260957, 0.04391885, -1494801.6, -181615.14, 0.000014169166, 9.998564, 9.999493 
1.325138e+3, 1.7599848e+2, -1508797.1, -1388594.8, 65413.043, -0.09032666, -0.13016517, -1359864.5, -144654.72, 0.0, 9.998157, 9.999754 
1.3251182e+3, 1.8599874e+2, -1304264.5, -1123222.3, -13574.298, -0.08844607, -0.1332368, -1122210.1, -5003.1313, 0.0, 9.99839, 10.00079 
1.3250987e+3, 1.9600058e+2, -1098880.9, -974399.56, -69348.46, 0.032430343, -0.041253973, -943457.0, 75729.33, 0.0, 9.999127, 10.000785 
1.3250776e+3, 2.0600073e+2, -1019094.2, -1015461.56, -68393.625, 0.013882143, -0.036684442, -948860.1, -27675.854, 0.0, 9.999559, 9.999624 
1.3250555e+3, 2.1599968e+2, -885956.5, -886386.6, -27881.725, -0.10275612, -0.122668, -858289.0, -35093.523, 0.0, 9.9997425, 9.999748 
1.325035e+3, 2.2599962e+2, -776226.44, -820584.75, 10400.337, -0.13677421, -0.08156849, -773909.0, -48713.13, 0.0, 9.999994, 9.999403 
1.3250154e+3, 2.3600017e+2, -627056.75, -696701.4, -31703.514, -0.113038376, 0.017154774, -614786.56, 12402.789, 0.0, 10.000342, 9.999411 
1.3249959e+3, 2.4599856e+2, -522788.63, -759595.8, -65086.98, -0.029793816, -0.00078221905, -506078.47, 23126.828, 0.0, 10.00108, 9.997954 
1.3249767e+3, 2.5599548e+2, -268150.47, -564110.94, -67546.68, 0.094615966, -0.12627967, -253463.23, 177773.48, 0.0, 10.002063, 9.998149 
1.3249575e+3, 2.659937e+2, -156713.4, -447109.88, -33030.3, 0.123025134, -0.12101303, -153003.86, 180248.08, 0.00000008813443, 10.002099, 9.998268 
1.324938e+3, 2.7599266e+2, -147233.66, -394377.8, -63407.492, 0.08503139, -0.06342751, -131915.23, 103342.55, 0.000005758402, 10.001499, 9.998247 
1.3249181e+3, 2.8598985e+2, -132065.25, -498854.66, -65074.38, 0.026211148, -0.08829836, -120862.19, 16422.666, 0.000075127005, 10.001638, 9.996782 
1.3248979e+3, 2.959858e+2, 76676.38, -346193.8, -44487.875, -0.04693723, -0.19259971, 81306.02, 120632.25, 0.00033054428, 10.00239, 9.996797 
1.324881e+3, 3.0598235e+2, 170162.5, -368093.66, 20926.922, 0.13511704, -0.16267116, 170974.89, 170974.89, 0.00084821245, 10.003094, 9.995977 
1.3248634e+3, 3.159807e+2, 401197.1, -49288.72, -2744.8186, 0.20392127, 0.043423917, 401213.8, 401213.8, 0.0015816313, 10.00376, 9.997851 
1.3352281e+3, 1.2600961e+2, -2034816.3, -1520071.9, 299.1179, -0.18288662, -0.06284573, -1520071.6, 185035.64, 0.0065457188, 9.9962635, 10.003145 
1.3352126e+3, 1.3601193e+2, -2045682.3, -1577523.6, 23909.09, 0.042872064, -0.050177995, -1576305.8, 30773.688, 0.0037237175, 9.996009, 10.002179 
1.3351935e+3, 1.4601378e+2, -1888677.1, -1499813.6, -52851.477, -0.07838328, -0.05949323, -1492758.5, 16300.089, 0.0014951822, 9.996599, 10.001763 
1.3351747e+3, 1.560148e+2, -1560137.3, -1280020.0, -91924.14, -0.02006306, -0.14748871, -1252548.1, 158499.42, 0.00032323142, 9.998132, 10.001863 
1.3351561e+3, 1.6601683e+2, -1408006.0, -1166174.9, -29658.78, 0.029184746, -0.12314433, -1162590.6, 150434.98, 0.000017128494, 9.9985485, 10.001768 
1.3351372e+3, 1.7601964e+2, -1376468.8, -1112644.6, 54772.453, 0.0025944456, -0.032798428, -1101725.3, 113269.97, 0.00000000003443261, 9.998155, 10.001648 
1.3351174e+3, 1.8602e+2, -1397553.0, -1321583.5, 6680.428, -0.04236081, -0.034940533, -1321000.5, -204008.25, 0.0, 9.998404, 9.999425 
1.335097e+3, 1.9601859e+2, -1176613.4, -1132993.1, -39392.605, -0.07249782, -0.1384146, -1109775.9, -90766.89, 0.0, 9.999112, 9.999703 
1.3350768e+3, 2.060187e+2, -947004.9, -858409.9, -67161.64, -0.039387316, -0.14953443, -822252.7, 98754.28, 0.0, 9.999525, 10.00072 
1.3350566e+3, 2.1601981e+2, -834143.44, -766350.44, -17092.377, 0.026621573, -0.1259958, -762284.9, 60707.93, 0.0, 9.999684, 10.000605 
1.3350366e+3, 2.2601908e+2, -850378.6, -959918.7, 18423.572, 0.02984679, -0.13575894, -847363.0, -122364.805, 0.0, 9.999929, 9.998478 
1.3350168e+3, 2.3601715e+2, -693300.56, -822716.0, -10410.954, -0.0005324042, -0.194504, -692468.44, -65451.652, 0.0, 10.000292, 9.998571 
1.3349973e+3, 2.4601547e+2, -531789.44, -770194.9, -31329.73, -0.0064505674, -0.18031901, -527741.06, 1292.6138, 0.0, 10.00104, 9.997902 
1.334978e+3, 2.5601384e+2, -280933.63, -587112.3, -31197.932, 0.0068233996, -0.15008259, -277787.06, 153263.39, 0.0, 10.002042, 9.998003 
1.3349582e+3, 2.6601166e+2, -209590.45, -548959.8, -60242.39, -0.009892945, -0.14374961, -199213.92, 133858.08, 0.00000008397673, 10.002065, 9.997584 
1.3349381e+3, 2.7600902e+2, -196436.75, -478663.8, -74466.44, -0.047486983, -0.18302909, -177993.77, 57103.41, 0.0000056271715, 10.001426, 9.997703 
1.3349189e+3, 2.8600687e+2, -95926.96, -412892.78, -41773.684, -0.06941402, -0.15031941, -90513.945, 46604.63, 0.000076498116, 10.001585, 9.9974 
1.3349001e+3, 2.9600492e+2, 108213.04, -267592.16, -8272.192, -0.062573865, -0.10350326, 108395.04, 147533.14, 0.00034050437, 10.002327, 9.997372 
1.3348836e+3, 3.0600253e+2, 193106.83, -303253.13, 48185.75, 0.07267141, -0.020332873, 197741.34, 197741.34, 0.000882415, 10.003034, 9.996445 
1.3348652e+3, 3.1599987e+2, 403056.38, -4985.7764, 33214.2, -0.0032924265, 0.040222187, 405742.3, 405742.3, 0.0016524276, 10.003602, 9.998227 
1.3452247e+3, 1.2602757e+2, -1986215.9, -1591394.0, 161009.88, -0.17276908, -0.17790581, -1534059.5, 170863.55, 0.0069055543, 9.997012, 10.002292 
1.3452087e+3, 1.360305e+2, -1983683.5, -1623906.5, 51732.94, 0.025206937, -0.031394687, -1616615.5, -9720.414, 0.0039389143, 9.996751, 10.001514 
1.34519e+3, 1.4603232e+2, -1910165.6, -1523397.9, 25798.953, -0.08267084, -0.0062725353, -1521684.6, -12808.033, 0.0015916337, 9.996515, 10.001639 
1.3451721e+3, 1.5603192e+2, -1768042.9, -1386244.6, 10325.149, -0.009849295, -0.22347495, -1385965.6, 24913.133, 0.0003501717, 9.996746, 10.001794 
1.345154e+3, 1.6603391e+2, -1535867.1, -1179363.3, -1324.201, 0.027906151, -0.22303188, -1179358.4, 133497.6, 0.000020254476, 9.997474, 10.002192 
1.3451351e+3, 1.7603764e+2, -1296350.3, -1028137.7, -58818.594, -0.030306619, -0.080773264, -1015805.9, 199008.89, 0.0000000014653116, 9.9985075, 10.00206 
1.3451155e+3, 1.8603854e+2, -1336269.9, -1233676.1, -80508.695, -0.06747816, -0.07660226, -1189510.9, -72705.61, 0.0, 9.998575, 9.999945 
1.3450955e+3, 1.9603738e+2, -1313371.0, -1154971.4, -716.50555, -0.07016999, -0.2053342, -1154968.1, -136149.69, 0.0, 9.997989, 10.0000925 
1.3450758e+3, 2.0603748e+2, -1114656.4, -1014127.44, -13718.657, -0.03927325, -0.19812916, -1012288.94, -91470.77, 0.0, 9.998709, 10.000039 
1.3450564e+3, 2.1603844e+2, -781992.7, -807449.4, -106714.555, 0.004736261, -0.12444599, -687250.06, 135558.63, 0.0, 10.0003395, 9.999998 
1.3450369e+3, 2.260373e+2, -708593.94, -920469.6, -106568.375, 0.024014192, -0.13746071, -664266.56, 60552.65, 0.0, 10.001019, 9.998227 
1.3450179e+3, 2.3603469e+2, -596132.8, -800307.2, -93033.13, 0.032789674, -0.23848182, -560100.7, 66742.83, 0.0, 10.001058, 9.998359 
1.3449985e+3, 2.4603279e+2, -547973.4, -781517.6, -76520.29, 0.0064253053, -0.23629549, -525135.06, 3726.9219, 0.0, 10.00095, 9.9978695 
1.3449788e+3, 2.5603124e+2, -467006.25, -677437.44, -84269.97, -0.04697932, -0.19475563, -437419.22, -6541.9565, 0.0, 10.000774, 9.997994 
1.3449593e+3, 2.660292e+2, -362719.47, -614601.44, -85298.086, -0.050971273, -0.17617945, -336552.28, -3655.0637, 0.00000006157407, 10.00098, 9.997653 
1.3449398e+3, 2.7602676e+2, -183200.72, -461819.88, -53277.188, -0.020774394, -0.20661582, -173360.66, 61560.406, 0.0000055913592, 10.001472, 9.99779 
1.344921e+3, 2.8602442e+2, -2027.6986, -365175.5, 16544.125, -0.02761417, -0.19530946, -1275.5466, 135668.17, 0.00007685254, 10.002214, 9.997429 
1.344903e+3, 2.9602224e+2, 235142.86, -189895.9, -9546.359, -0.05283235, -0.17757227, 235357.16, 274322.13, 0.00034429008, 10.003132, 9.997515 
1.3448863e+3, 3.060205e+2, 222357.58, -238916.98, 7964.1553, 0.047401126, -0.06325401, 222495.03, 222495.03, 0.00089966063, 10.003006, 9.99691 
1.3448676e+3, 3.16018e+2, 212591.44, -62808.594, -27027.2, -0.04565792, -0.03561027, 215218.77, 215218.77, 0.0016931547, 10.00215, 9.998526 
1.3552237e+3, 1.2604769e+2, -2115927.5, -1854919.0, 193720.7, -0.007859342, -0.21089101, -1751844.4, -47130.53, 0.0072628423, 9.997007, 10.000474 
1.355204e+3, 1.3604914e+2, -2070348.8, -1800288.9, 37711.785, -0.13248341, -0.07316946, -1795121.5, -188413.25, 0.004152666, 9.996741, 10.000306 
1.3551857e+3, 1.4605117e+2, -1890087.5, -1486093.3, 25873.523, -0.17327219, 0.013239337, -1484442.9, 24246.854, 0.0016872559, 9.99653, 10.001892 
1.3551694e+3, 1.5605125e+2, -1755380.3, -1368601.6, 25895.977, 0.036747772, -0.17917621, -1366875.5, 43809.773, 0.0003769789, 9.996781, 10.001898 
1.3551515e+3, 1.6605172e+2, -1621760.8, -1369345.6, 31261.994, 0.016304044, -0.26449078, -1365531.5, -52853.28, 0.000023370363, 9.997516, 10.000873 
1.3551319e+3, 1.7605259e+2, -1361220.6, -1163101.8, -21811.84, -0.2158505, -0.28041327, -1160728.8, 53938.754, 0.0000000068048798, 9.998507, 10.001136 
1.3551128e+3, 1.8605457e+2, -1177287.8, -906591.94, -108211.09, -0.20533472, -0.25052696, -868651.94, 247991.97, 0.0, 9.998581, 10.00219 
1.3550942e+3, 1.960571e+2, -1188479.4, -899834.6, -13422.448, -0.007901562, -0.23201813, -899211.8, 119401.8, 0.0, 9.998, 10.001842 
1.3550746e+3, 2.0605712e+2, -1282178.0, -1361223.5, 40266.434, -0.028672293, -0.17988934, -1265278.9, -344661.34, 0.0, 9.998701, 9.9976635 
1.3550547e+3, 2.1605548e+2, -933684.3, -1113603.1, -46630.42, -0.20374271, -0.12658854, -922317.06, -99673.266, 0.0, 10.000295, 9.997922 
1.3550359e+3, 2.260541e+2, -687412.6, -860337.8, -110379.74, -0.19246493, -0.094054684, -633663.0, 90996.58, 0.0, 10.000951, 9.998672 
1.355018e+3, 2.3605284e+2, -577546.94, -748706.06, -88235.766, -0.051475346, -0.10797125, -540206.2, 86462.97, 0.0, 10.001001, 9.998739 
1.3549991e+3, 2.4605054e+2, -555085.75, -784173.94, -88316.07, -0.031395566, -0.1606668, -524992.1, 3697.7617, 0.0, 10.000895, 9.99788 
1.3549791e+3, 2.5604755e+2, -466993.4, -666920.1, -82803.84, -0.098069936, -0.2658267, -437152.5, -6434.403, 0.0, 10.000727, 9.998092 
1.3549605e+3, 2.660462e+2, -313041.16, -500461.75, -70258.555, -0.033747446, -0.2262645, -289628.06, 43100.957, 0.000000036385206, 10.000932, 9.998461 
1.3549428e+3, 2.760458e+2, -147500.55, -373481.06, -25997.229, 0.12759288, -0.12863976, -144548.34, 90181.48, 0.000005925218, 10.001409, 9.99843 
1.3549247e+3, 2.860425e+2, -50282.01, -451536.4, 48232.453, 0.09925481, -0.2136599, -44565.703, 92195.03, 0.00007723303, 10.002161, 9.996858 
1.3549061e+3, 2.9603735e+2, 191463.06, -265610.88, 25555.756, -0.059791278, -0.43669462, 192887.5, 231698.17, 0.00034439715, 10.003068, 9.9970255 
1.3548891e+3, 3.0603582e+2, 248588.34, -166794.58, -28382.158, 0.021381, -0.30639762, 250518.66, 250518.66, 0.0009018356, 10.002937, 9.997433 
1.3548703e+3, 3.160347e+2, 192806.33, -61669.875, -44734.383, 0.0040917047, -0.19019796, 200441.14, 200441.14, 0.0017005159, 10.001976, 9.998614 
1.3652202e+3, 1.2606531e+2, -2207409.8, -1883427.5, -42079.7, -0.01102923, -0.12313738, -1878051.4, -173508.02, 0.0076198755, 9.996288, 10.000636 
1.3652003e+3, 1.3606583e+2, -2138212.3, -1772542.9, -101484.89, -0.12911378, -0.13842061, -1746265.9, -139720.89, 0.004366158, 9.995996, 10.000864 
1.3651831e+3, 1.460682e+2, -1901188.9, -1497620.5, -16761.566, -0.07801933, -0.041935258, -1496925.6, 11597.011, 0.0017823466, 9.996483, 10.001833 
1.3651665e+3, 1.5606959e+2, -1604360.0, -1309902.1, -44871.84, -0.0021610905, -0.096371345, -1303216.0, 107290.15, 0.0004035849, 9.99787, 10.0017805 
1.365149e+3, 1.6606984e+2, -1524105.8, -1347628.3, -9728.93, -0.009886426, -0.18428345, -1347093.5, -34592.22, 0.000026350568, 9.998292, 10.000645 
1.3651311e+3, 1.7606951e+2, -1443466.1, -1229043.4, 1975.6934, -0.11636245, -0.29999346, -1229025.1, -14522.83, 0.000000016360648, 9.998054, 10.000898 
1.3651122e+3, 1.8607105e+2, -1230782.9, -978057.9, -167857.2, -0.11076555, -0.28061196, -894316.8, 222167.16, 0.0, 9.998424, 10.00177 
1.3650927e+3, 1.960737e+2, -1024941.9, -852736.2, -271497.47, -0.017949387, -0.21150064, -654015.25, 364438.97, 0.0, 9.9992695, 10.001551 
1.3650735e+3, 2.0607385e+2, -1128549.4, -1215865.8, -137240.11, -0.06047191, -0.16887388, -1028190.56, -107735.484, 0.0, 9.999451, 9.9983 
1.3650544e+3, 2.1607237e+2, -1056106.3, -1107750.4, -11840.977, -0.20182922, -0.1646425, -1053520.8, -231044.64, 0.0, 9.999183, 9.998495 
1.3650362e+3, 2.2607134e+2, -843163.1, -934090.9, 4440.399, -0.19859387, -0.12452728, -842946.8, -118458.49, 0.0, 9.999881, 9.998678 
1.3650186e+3, 2.3607054e+2, -552209.06, -735264.7, -18703.104, -0.094121076, -0.09097797, -550317.7, 76177.44, 0.0, 10.001171, 9.99875 
1.365e+3, 2.460685e+2, -487169.66, -742155.7, -54571.082, -0.045535896, -0.121383704, -475981.47, 52532.254, 0.0, 10.00133, 9.997953 
1.3649805e+3, 2.560656e+2, -457950.84, -654699.75, -52871.83, -0.041211583, -0.22495243, -444642.88, -14102.267, 0.0, 10.000762, 9.998152 
1.3649619e+3, 2.660639e+2, -327404.6, -529053.44, -43999.086, 0.021237107, -0.21326847, -318222.28, 14332.75, 0.000000033203506, 10.00093, 9.998264 
1.3649443e+3, 2.7606297e+2, -131206.45, -379318.84, -85592.58, 0.1286811, -0.1554494, -104544.266, 130017.5, 0.000006027052, 10.001586, 9.998302 
1.3649265e+3, 2.8605974e+2, -127605.164, -468163.16, -6902.13, 0.10412689, -0.23543647, -127465.33, 9125.926, 0.00007556622, 10.001546, 9.997039 
1.3649087e+3, 2.9605505e+2, -82338.52, -375496.97, 19419.754, -0.009046983, -0.4280125, -81057.695, -42422.215, 0.00033622416, 10.001092, 9.997221 
1.364892e+3, 3.060533e+2, 134667.02, -220991.84, -9518.815, 0.05527796, -0.32925642, 134921.6, 134921.6, 0.0008816784, 10.002144, 9.997446 
1.3648733e+3, 3.1605124e+2, 489486.2, 37286.59, -94642.01, 0.007596415, -0.30515492, 508495.0, 508495.0, 0.0016647578, 10.004178, 9.998245 
1.3752148e+3, 1.2608033e+2, -2073121.1, -1586055.9, -68754.77, -0.2104814, 0.038872764, -1576536.4, 127874.99, 0.0079810945, 9.996224, 10.002704 
1.3751975e+3, 1.3608088e+2, -1983061.6, -1449802.8, -107030.76, -0.014255061, -0.21607406, -1429122.5, 177279.16, 0.0045821774, 9.995994, 10.003082 
1.375182e+3, 1.4608361e+2, -1920922.1, -1545893.4, 26111.127, 0.15161195, -0.16901757, -1544084.1, -35710.715, 0.0018779465, 9.99651, 10.001492 
1.3751628e+3, 1.5608695e+2, -1624484.6, -1351280.3, 7273.4844, -0.15821302, 0.0101025095, -1351086.8, 59254.266, 0.00043006244, 9.997868, 10.0015 
1.3751467e+3, 1.6608837e+2, -1470152.4, -1235045.4, -23690.729, -0.09479153, 0.011013006, -1232681.9, 79642.41, 0.000029160963, 9.998284, 10.001424 
1.3751325e+3, 1.7608854e+2, -1418036.8, -1174574.6, -875.3724, 0.21907872, -0.13102236, -1174571.5, 39746.387, 0.000000027808229, 9.998041, 10.001282 
1.3751134e+3, 1.8608807e+2, -1435469.1, -1406013.0, -141374.25, 0.1624811, -0.16732442, -1278601.8, -162277.13, 0.0, 9.998436, 9.998828 
1.3750908e+3, 1.9608717e+2, -1183564.5, -1181637.3, -238567.56, -0.13431606, -0.16016413, -944031.4, 74308.59, 0.0, 9.999264, 9.999298 
1.3750719e+3, 2.0608774e+2, -881922.9, -698882.25, -151526.73, -0.17388701, -0.17224261, -613381.9, 306948.34, 0.0, 9.999428, 10.00186 
1.3750553e+3, 2.160892e+2, -844244.8, -657119.6, -12224.019, -0.038911693, -0.22859195, -656324.5, 165980.4, 0.0, 9.999133, 10.001614 
1.3750377e+3, 2.2608902e+2, -880678.8, -994214.75, 49427.426, -0.043719288, -0.22025502, -862176.1, -137871.11, 0.0, 9.9998045, 9.998302 
1.3750196e+3, 2.360878e+2, -583458.5, -786659.6, 27710.633, -0.13960646, -0.1908235, -579747.4, 46574.375, 0.0, 10.001118, 9.998421 
1.375001e+3, 2.4608663e+2, -487218.6, -734494.6, -81557.17, -0.07840743, -0.124319345, -462742.03, 65592.35, 0.0, 10.001289, 9.998028 
1.3749826e+3, 2.5608543e+2, -467190.3, -666042.2, -64624.484, 0.087295465, -0.06870273, -448033.63, -17688.574, 0.0, 10.000722, 9.998096 
1.3749635e+3, 2.6608232e+2, -417660.28, -707225.2, -23113.252, 0.073448665, -0.12838836, -415826.97, -83451.586, 0.000000022673568, 10.000891, 9.997061 
1.374944e+3, 2.7607793e+2, -209292.02, -525981.06, -59383.465, -0.062022105, -0.2945451, -198523.02, 35896.18, 0.0000059199137, 10.001524, 9.997324 
1.3749266e+3, 2.8607592e+2, -63063.043, -322848.72, -28354.52, -0.05526717, -0.26180634, -60004.28, 76432.766, 0.000072404306, 10.001494, 9.998062 
1.3749105e+3, 2.9607552e+2, -35229.758, -258191.19, 21837.664, 0.058696575, -0.1275294, -33111.03, 5326.9697, 0.00031917673, 10.001003, 9.998075 
1.3748945e+3, 3.060731e+2, 86241.33, -305512.75, 68830.71, 0.096947834, -0.110983685, 97982.88, 97982.88, 0.0008365919, 10.00208, 9.996893 
1.3748765e+3, 3.1606728e+2, 403222.66, -108925.72, -10338.006, -0.12591463, -0.39608696, 403431.25, 403431.25, 0.0015832804, 10.004051, 9.997295 
1.3852108e+3, 1.2609689e+2, -2386657.3, -1723180.1, 120101.586, -0.10326604, 0.10936215, -1702108.8, 2145.688, 0.008351057, 9.99401, 10.002828 
1.3851932e+3, 1.3609786e+2, -1938568.0, -1407541.1, -63602.16, -0.04880503, -0.11626886, -1400029.6, 206209.58, 0.004803759, 9.996212, 10.003268 
1.3851795e+3, 1.4610001e+2, -1849304.6, -1502460.1, 15725.906, 0.22306152, -0.14281182, -1501748.6, 6467.482, 0.0019753822, 9.996962, 10.001574 
1.3851604e+3, 1.5610336e+2, -1778846.1, -1416958.9, 16782.59, -0.12302638, 0.029912435, -1416182.3, -5998.8345, 0.00045665295, 9.996774, 10.001575 
1.3851443e+3, 1.661051e+2, -1692610.5, -1330115.9, -40860.406, -0.07838885, 0.053516787, -1325567.1, -13403.283, 0.00003186285, 9.9967165, 10.001523 
1.3851304e+3, 1.7610574e+2, -1585664.0, -1241550.8, -69875.88, 0.25112116, -0.05317507, -1227903.0, -13749.707, 0.000000039188958, 9.996841, 10.001396 
1.3851118e+3, 1.8610528e+2, -1535905.6, -1457437.9, -50039.586, 0.19552638, -0.09288235, -1433085.1, -316925.2, 0.0, 9.99775, 9.99881 
1.38509e+3, 1.9610412e+2, -1191431.4, -1181147.8, 52673.6, -0.12866147, -0.10939046, -1133365.6, -115187.6, 0.0, 9.999189, 9.999336 
1.3850716e+3, 2.061047e+2, -831650.44, -645029.56, 43503.03, -0.15982275, -0.13900311, -635386.9, 284779.9, 0.0, 9.999643, 10.002126 
1.385055e+3, 2.1610628e+2, -774077.75, -595022.44, -63705.98, 0.012323048, -0.20919614, -574669.94, 247467.28, 0.0, 9.999487, 10.001873 
1.3850379e+3, 2.2610597e+2, -944339.94, -1022373.7, -44053.234, 0.013225517, -0.22751825, -924509.56, -200372.3, 0.0, 9.999351, 9.998334 
1.38502e+3, 2.3610438e+2, -848816.56, -912619.3, -46116.234, -0.10185955, -0.23542748, -824642.94, -198485.7, 0.0, 9.999279, 9.998447 
1.3850021e+3, 2.4610314e+2, -648218.6, -809494.8, -139326.17, -0.054950297, -0.17896456, -567877.6, -39706.543, 0.0, 10.000185, 9.998037 
1.3849838e+3, 2.561021e+2, -312426.03, -589953.2, -140661.14, 0.094402745, -0.10908433, -253601.94, 176579.16, 0.0, 10.001788, 9.9981 
1.384965e+3, 2.660993e+2, -235622.42, -626946.2, -55413.563, 0.081320256, -0.13245134, -227926.89, 104282.62, 0.0000000049794013, 10.002179, 9.996988 
1.3849458e+3, 2.760953e+2, -169036.84, -512100.16, -15951.171, -0.040808946, -0.25342238, -168296.78, 65954.35, 0.0000059839426, 10.001822, 9.997273 
1.3849285e+3, 2.8609356e+2, 32147.715, -277752.13, 12754.9795, -0.022500962, -0.19478308, 32671.805, 168939.16, 0.00006977907, 10.002158, 9.998052 
1.3849127e+3, 2.9609337e+2, 259074.55, -105165.46, -25177.783, 0.09298009, -0.04072305, 260806.7, 299072.88, 0.0002993371, 10.002996, 9.998154 
1.3848974e+3, 3.060905e+2, 265902.6, -220261.14, 56342.17, 0.117389716, -0.06940722, 272346.75, 272346.75, 0.0007809698, 10.003323, 9.996879 
1.3848804e+3, 3.160846e+2, 272750.5, -201618.83, 2582.4097, -0.09815316, -0.36282304, 272764.56, 272764.56, 0.0014803475, 10.003271, 9.997036 
1.3952081e+3, 1.2611467e+2, -2488866.0, -1942615.8, 116818.055, 0.2065547, 0.06870559, -1918682.3, -214605.73, 0.008733579, 9.994046, 10.001304 
1.3951874e+3, 1.3611668e+2, -2057543.6, -1660644.0, 13999.048, -0.25876448, 0.1435725, -1660150.9, -54092.043, 0.005033633, 9.996241, 10.001513 
1.3951753e+3, 1.4611737e+2, -1809988.6, -1425985.5, 783.9031, 0.10706501, 0.021296198, -1425984.0, 82067.23, 0.002076125, 9.996982, 10.0020895 
1.3951589e+3, 1.56119e+2, -1752730.9, -1361120.8, 14782.284, 0.050780833, -0.02684673, -1360563.6, 49468.434, 0.00048381835, 9.996769, 10.001959 
1.3951418e+3, 1.6612017e+2, -1726406.0, -1409809.8, -42726.125, -0.013503763, -0.045035608, -1404145.0, -92126.55, 0.000034571214, 9.996751, 10.000963 
1.3951243e+3, 1.7612104e+2, -1594975.8, -1268640.3, -55840.99, -0.036285233, -0.07589026, -1259349.5, -45340.883, 0.00000005013657, 9.996868, 10.001202 
1.3951074e+3, 1.8612264e+2, -1332666.0, -1040079.06, -1564.9467, -0.039176594, -0.060961805, -1040070.7, 75920.12, 0.0, 9.997769, 10.001662 
1.3950902e+3, 1.9612454e+2, -1040076.8, -861927.56, 100978.336, -0.043242093, -0.05257462, -816351.06, 201617.98, 0.0, 9.999165, 10.00154 
1.3950722e+3, 2.0612463e+2, -1039549.6, -1068393.9, 31045.516, -0.064537026, -0.06623932, -1019739.9, -99774.35, 0.0, 9.999608, 9.999234 
1.3950536e+3, 2.1612355e+2, -959498.4, -969279.56, -65931.8, -0.08842897, -0.11467973, -898276.0, -76302.44, 0.0, 9.999441, 9.999325 
1.3950364e+3, 2.2612213e+2, -921663.2, -966697.4, -51958.223, -0.06770033, -0.15289389, -887552.75, -163567.28, 0.0, 9.999309, 9.998737 
1.3950203e+3, 2.3612042e+2, -829762.94, -862208.0, -37434.785, -0.01583564, -0.21851732, -805186.75, -179186.1, 0.0, 9.999231, 9.998816 
1.3950028e+3, 2.4611816e+2, -659215.6, -824513.7, -83172.49, -0.01899899, -0.275957, -624610.56, -96587.74, 0.0, 10.000145, 9.997956 
1.3949841e+3, 2.5611556e+2, -319702.63, -591642.1, -82570.06, -0.05859086, -0.35168144, -296595.1, 133454.33, 0.0, 10.001732, 9.998116 
1.3949665e+3, 2.661148e+2, -166728.1, -474798.88, -71964.78, 0.010586907, -0.22927125, -150746.33, 181312.02, 0.0000000011462398, 10.002136, 9.9980545 
1.3949497e+3, 2.761152e+2, -119823.64, -395636.84, -16678.465, 0.15552081, -0.019614229, -118818.75, 115238.13, 0.000005942459, 10.001759, 9.998107 
1.3949326e+3, 2.8611267e+2, -50380.82, -439375.3, 41074.457, 0.14980966, -0.014904865, -46091.02, 89990.33, 0.000067021225, 10.002113, 9.996963 
1.3949154e+3, 2.9610822e+2, 188159.53, -246053.38, 11410.404, 0.04462588, -0.1783049, 188459.17, 226582.25, 0.0002811343, 10.002963, 9.997207 
1.3949002e+3, 3.0610523e+2, 311263.22, -118627.42, 52159.668, 0.06585426, -0.21736947, 317501.34, 317501.34, 0.00073353417, 10.003293, 9.997588 
1.3948849e+3, 3.1610322e+2, 281264.94, -147770.44, 18125.533, 0.019182323, -0.19075683, 282029.3, 282029.3, 0.0013939677, 10.003118, 9.997483 
1.4052032e+3, 1.2613073e+2, -2174630.3, -1762908.4, -5388.6533, 0.2144317, 0.018144334, -1762837.8, -58921.055, 0.009133226, 9.99607, 10.00156 
1.4051841e+3, 1.3613302e+2, -2014859.1, -1668525.9, 75814.9, -0.23276368, 0.13741884, -1652656.6, -46760.043, 0.005275387, 9.996653, 10.001259 
1.4051728e+3, 1.4613351e+2, -1840658.5, -1482618.1, 29115.674, 0.17324612, 0.030519655, -1480265.9, 27626.45, 0.0021822979, 9.996956, 10.001708 
1.4051563e+3, 1.5613468e+2, -1751373.5, -1388152.5, -28788.377, 0.10566545, -0.0304924, -1385885.0, 23995.572, 0.00051218417, 9.996896, 10.001711 
1.4051387e+3, 1.6613606e+2, -1604412.0, -1274965.1, -25793.719, -0.023407765, -0.053733025, -1272957.9, 38906.742, 0.000037386584, 9.997263, 10.001642 
1.4051208e+3, 1.7613757e+2, -1375888.4, -1092336.9, 39355.31, -0.13249598, -0.088709325, -1086976.0, 126870.305, 0.00000006103049, 9.998064, 10.001837 
1.4051047e+3, 1.8613957e+2, -1269134.4, -988685.5, 24335.191, -0.08988169, -0.0684291, -986589.56, 129233.29, 0.0, 9.998121, 10.001845 
1.4050893e+3, 1.9614185e+2, -1235853.6, -943571.4, -75407.05, 0.02779753, -0.043169875, -925263.56, 92532.984, 0.0, 9.997773, 10.001648 
1.4050719e+3, 2.0614162e+2, -1286952.8, -1272066.3, -121717.59, 0.014520383, -0.05457819, -1157564.5, -237766.39, 0.0, 9.998277, 9.998481 
1.4050531e+3, 2.161397e+2, -1014687.2, -1066616.9, -69079.62, -0.0752265, -0.11029622, -966853.9, -145035.67, 0.0, 9.999374, 9.998687 
1.4050363e+3, 2.2613819e+2, -753043.5, -863548.44, 6667.237, -0.07136993, -0.14166991, -752642.7, -28811.303, 0.0, 10.000388, 9.998917 
1.4050205e+3, 2.361368e+2, -508676.44, -687175.75, -7510.1606, -0.010335267, -0.19223669, -508361.03, 117480.05, 0.0, 10.001356, 9.99899 
1.4050034e+3, 2.4613464e+2, -544427.0, -767895.2, -58956.88, -0.0070716585, -0.24660617, -529826.56, -1964.7957, 0.0, 10.000928, 9.997968 
1.4049849e+3, 2.5613198e+2, -617235.9, -728904.5, -58230.72, -0.04885898, -0.3289495, -592396.25, -162506.36, 0.0, 9.999658, 9.998175 
1.404968e+3, 2.6613128e+2, -379411.5, -535953.4, -39817.28, 0.033596307, -0.22582139, -369865.8, -37967.977, 0.0000000047036606, 10.0005, 9.998422 
1.4049523e+3, 2.761319e+2, 45661.004, -280566.0, -55224.547, 0.1985459, -0.026710575, 54755.996, 288648.34, 0.0000060153247, 10.002747, 9.998421 
1.4049357e+3, 2.8612942e+2, 99976.74, -398230.75, 4147.1885, 0.19595817, -0.018348308, 100011.26, 235928.03, 0.00006434686, 10.003284, 9.996678 
1.4049186e+3, 2.9612473e+2, 140345.2, -293000.94, 27011.994, 0.08169368, -0.17861827, 142022.45, 179984.75, 0.000270618, 10.002736, 9.996993 
1.4049037e+3, 3.0612126e+2, 275496.75, -116319.695, 84279.65, 0.09308311, -0.26454014, 292856.2, 292856.2, 0.0007094771, 10.002955, 9.997777 
1.404889e+3, 3.1612015e+2, 383503.84, -64988.277, -7285.014, 0.07703647, -0.16626245, 383622.13, 383622.13, 0.0013509236, 10.003689, 9.997771 
1.415196e+3, 1.2614557e+2, -2038113.3, -1477696.3, -80707.43, -0.13881426, -0.024589125, -1466304.9, 237465.1, 0.009556688, 9.996054, 10.003538 
1.4151828e+3, 1.361471e+2, -1946621.5, -1515279.5, 104079.34, -0.02133608, -0.12301782, -1491479.3, 114270.99, 0.0055341963, 9.996611, 10.002329 
1.4151719e+3, 1.4614859e+2, -1919674.6, -1659297.5, 20782.523, 0.36208653, -0.107356384, -1657649.1, -149910.78, 0.0022969088, 9.996997, 10.000483 
1.4151524e+3, 1.5615042e+2, -1809872.1, -1512226.3, -24341.326, 0.0106638335, 0.018623965, -1510248.8, -100520.62, 0.0005425403, 9.996903, 10.00086 
1.4151348e+3, 1.661528e+2, -1470989.6, -1002045.9, -2011.805, -0.14221273, 0.028384069, -1002037.25, 309664.25, 0.000040406845, 9.997279, 10.003509 
1.4151195e+3, 1.7615533e+2, -1282086.4, -891208.3, 66519.84, -0.08225723, -0.08713531, -880198.06, 333467.94, 0.00000007226826, 9.998038, 10.003229 
1.4151038e+3, 1.8615626e+2, -1433208.4, -1334174.0, 3959.0586, -0.006811273, -0.105865635, -1334015.9, -218361.0, 0.0, 9.998137, 9.999469 
1.4150874e+3, 1.9615617e+2, -1375126.5, -1232761.0, -79099.74, 0.04554376, -0.080702685, -1197530.6, -179871.34, 0.0, 9.99777, 9.999666 
1.4150706e+3, 2.0615569e+2, -1193843.3, -1076979.4, -86424.71, 0.042199094, -0.102100074, -1031087.2, -111423.12, 0.0, 9.998265, 9.999825 
1.4150535e+3, 2.1615483e+2, -939380.75, -897752.2, -24047.582, 0.02106009, -0.1891747, -886762.06, -65091.777, 0.0, 9.999317, 9.999875 
1.415037e+3, 2.2615412e+2, -765684.2, -874092.4, 38773.46, -0.03779299, -0.19022784, -753243.94, -29568.973, 0.0, 10.000319, 9.9988785 
1.4150208e+3, 2.361535e+2, -522350.06, -699643.3, 24864.098, -0.12353603, -0.15674931, -518929.06, 106749.44, 0.0, 10.001291, 9.998934 
1.4150037e+3, 2.4615261e+2, -542282.25, -757006.3, -111368.734, -0.06695963, -0.08847271, -494952.3, 32735.656, 0.0, 10.000893, 9.998062 
1.414986e+3, 2.561514e+2, -619566.3, -724365.5, -85499.24, 0.08557972, -0.036400747, -571687.1, -141984.88, 0.0, 9.999613, 9.998229 
1.4149694e+3, 2.6614878e+2, -411560.25, -593716.0, 42911.715, 0.10508144, -0.109657735, -401957.47, -70229.88, 0.000000079284355, 10.000457, 9.998046 
1.4149536e+3, 2.7614522e+2, 18867.28, -328108.06, 26281.877, 0.042666927, -0.28831887, 20846.725, 254606.47, 0.0000071917057, 10.0027075, 9.998115 
1.4149378e+3, 2.8614354e+2, 137072.47, -313683.9, -19187.25, 0.071307555, -0.21571721, 137887.73, 273663.6, 0.00006590789, 10.003248, 9.997277 
1.4149222e+3, 2.961429e+2, 164045.48, -232231.64, 21922.967, 0.16713145, -0.032267544, 165254.63, 203038.19, 0.00027570056, 10.002677, 9.997444 
1.4149073e+3, 3.0613863e+2, 237781.83, -175526.28, 110496.12, 0.15026869, -0.19335404, 265467.9, 265467.9, 0.0007188543, 10.002882, 9.997396 
1.4148918e+3, 3.1613517e+2, 351887.03, -102431.13, 35416.19, -0.019102667, -0.3042701, 354631.3, 354631.3, 0.0013622937, 10.003574, 9.997564 
1.4251925e+3, 1.2616043e+2, -2134952.0, -1540730.1, -88464.266, -0.057511423, -0.07913297, -1527839.8, 175782.22, 0.010011913, 9.99546, 10.003395 
1.42518e+3, 1.361616e+2, -1949075.0, -1519274.1, 32145.23, 0.032316357, -0.19918285, -1516883.3, 88724.59, 0.0058154534, 9.996612, 10.0023 
1.425168e+3, 1.4616421e+2, -1899073.1, -1555650.4, -33903.33, 0.30361146, -0.114908636, -1552335.4, -44752.195, 0.002423067, 9.996752, 10.001306 
1.425149e+3, 1.5616658e+2, -1868308.6, -1469520.5, 56763.72, 0.02721585, -0.01989456, -1461598.1, -52034.992, 0.00057589856, 9.996198, 10.001492 
1.4251322e+3, 1.6616876e+2, -1644669.4, -1194371.1, 65298.934, -0.0939523, -0.0013688471, -1185093.1, 126446.89, 0.00004378684, 9.99656, 10.00253 
1.4251177e+3, 1.7617086e+2, -1395734.5, -1038853.44, -83547.04, -0.04498136, -0.06772987, -1020263.2, 193251.83, 0.00000008454083, 9.997663, 10.002392 
1.4251022e+3, 1.8617132e+2, -1428814.3, -1327042.8, -146234.67, 0.024210047, -0.09844064, -1223093.3, -107583.45, 0.0, 9.998159, 9.999501 
1.4250857e+3, 1.9617073e+2, -1285025.8, -1177967.9, -57750.12, 0.076101035, -0.12656042, -1152754.0, -135236.5, 0.0, 9.998346, 9.99976 
1.4250691e+3, 2.0617063e+2, -1070867.3, -959712.25, 11742.218, 0.05258547, -0.14224444, -958485.4, -38968.016, 0.0, 9.9988575, 10.000343 
1.4250526e+3, 2.1617077e+2, -865127.75, -806116.3, 637.39795, -0.006903359, -0.1825178, -806109.4, 15403.44, 0.0, 9.999582, 10.000375 
1.425037e+3, 2.2617032e+2, -832015.7, -891231.8, 41052.42, -0.044740964, -0.18685207, -811008.2, -87493.38, 0.0, 9.999791, 9.999018 
1.4250217e+3, 2.3616953e+2, -740311.25, -787405.7, 30552.906, -0.07725665, -0.18704563, -725284.5, -99763.82, 0.0, 9.99971, 9.999096 
1.4250049e+3, 2.4616885e+2, -566199.75, -741212.9, -92321.84, -0.014890239, -0.11501857, -526502.9, 1024.0963, 0.0, 10.000623, 9.998299 
1.424987e+3, 2.561682e+2, -226557.88, -513200.97, -65485.73, 0.1058826, -0.034053184, -212305.8, 217228.48, 0.00000000006254562, 10.002227, 9.998416 
1.4249708e+3, 2.661652e+2, -166506.75, -527139.94, 91784.805, 0.11034778, -0.12511446, -144490.64, 187072.53, 0.00000036239143, 10.002361, 9.997586 
1.4249557e+3, 2.7616078e+2, -172094.6, -462110.72, 59111.07, 0.04098421, -0.35104197, -160509.38, 73096.24, 0.000010031926, 10.001578, 9.997733 
1.4249404e+3, 2.8615904e+2, -60482.87, -415855.4, -23112.64, 0.060095172, -0.26339668, -58985.984, 76637.51, 0.000074052536, 10.00192, 9.997219 
1.4249247e+3, 2.9615897e+2, 214630.55, -206418.0, -45567.496, 0.1417004, -0.016259706, 219505.58, 257132.25, 0.00029689216, 10.003027, 9.997449 
1.42491e+3, 3.0615473e+2, 311198.13, -122952.29, 61592.344, 0.122466594, -0.18827873, 319767.03, 319767.03, 0.0007596193, 10.003298, 9.9975605 
1.4248951e+3, 3.1615168e+2, 298392.84, -69217.555, 16488.36, 0.0039362945, -0.27359092, 299130.9, 299130.9, 0.0014259805, 10.002933, 9.998105 
1.4351921e+3, 1.2617545e+2, -2280441.3, -1846961.0, -84834.945, 0.32847294, -0.1338494, -1830949.6, -127478.336, 0.010506618, 9.9954815, 10.001272 
1.4351754e+3, 1.3617674e+2, -2026261.4, -1671931.4, 75617.87, -0.097261176, -0.089067645, -1656468.5, -51001.637, 0.006123269, 9.996587, 10.001258 
1.4351617e+3, 1.4618059e+2, -1698230.1, -1154039.6, -59794.41, -0.031173412, 0.009908792, -1147547.0, 359877.3, 0.002563054, 9.9968, 10.004051 
1.4351462e+3, 1.5618317e+2, -1727485.3, -1176629.5, 43402.08, 0.115233764, -0.14348117, -1173230.8, 236154.7, 0.0006133788, 9.996194, 10.003508 
1.4351305e+3, 1.6618414e+2, -1896775.3, -1726367.5, 99453.086, 0.06926074, -0.13235494, -1680611.0, -369231.97, 0.000047750204, 9.9965925, 9.998867 
1.4351153e+3, 1.761843e+2, -1605574.4, -1475949.1, -41233.805, -0.057450254, -0.02764507, -1463944.4, -250553.2, 0.00000010052836, 9.997665, 9.999393 
1.4350998e+3, 1.8618485e+2, -1261516.9, -982681.9, -144406.42, -0.028910983, -0.045711905, -921374.56, 194011.53, 0.0, 9.998168, 10.001863 
1.4350842e+3, 1.9618554e+2, -1143793.1, -880850.6, -43929.285, 0.08359332, -0.18227705, -873705.6, 143665.81, 0.0, 9.998326, 10.001812 
1.4350675e+3, 2.0618647e+2, -1091907.1, -998782.06, 33155.707, -0.0022085586, -0.17116465, -988183.7, -68825.63, 0.0, 9.998835, 10.000086 
1.4350504e+3, 2.1618754e+2, -888811.8, -844895.94, 28835.656, -0.20131715, -0.0928739, -830609.6, -9263.616, 0.0, 9.999535, 10.000133 
1.435036e+3, 2.261868e+2, -820325.44, -849963.44, 32357.305, -0.1356985, -0.13122833, -799555.1, -76204.055, 0.0, 9.999721, 9.999333 
1.4350232e+3, 2.3618491e+2, -727796.06, -744587.25, 39308.906, 0.094655685, -0.2744031, -695996.2, -70628.9, 0.0, 9.9996395, 9.999424 
1.4350069e+3, 2.4618344e+2, -546618.9, -690001.1, -37245.64, 0.100631915, -0.31756714, -537521.06, -10142.472, 0.0, 10.000571, 9.998677 
1.434988e+3, 2.5618222e+2, -214563.13, -481208.94, -10109.353, -0.028809698, -0.3263016, -214180.39, 215206.69, 0.000000006122379, 10.002192, 9.998655 
1.4349723e+3, 2.6618055e+2, -204610.11, -597925.56, 58102.992, 0.011990185, -0.2724144, -196206.33, 135199.03, 0.0000008787704, 10.002322, 9.997121 
1.4349584e+3, 2.761785e+2, -214691.64, -540642.8, 44443.65, 0.15699708, -0.20645681, -208740.38, 24689.506, 0.000014099222, 10.001531, 9.997221 
1.4349428e+3, 2.8617585e+2, -119604.03, -526164.4, 15092.792, 0.10908066, -0.15065005, -119044.516, 16415.375, 0.0000867421, 10.001864, 9.996488 
1.4349261e+3, 2.961726e+2, 166313.81, -300636.7, -694.01215, -0.049608987, -0.15022138, 166314.84, 203809.98, 0.00032959942, 10.002992, 9.996823 
1.4349118e+3, 3.0616912e+2, 362062.38, 189.3024, 46269.8, -0.04144092, -0.26073414, 367884.84, 367884.84, 0.0008277893, 10.003237, 9.998431 
1.4348991e+3, 3.161699e+2, 369962.75, 113032.31, 26757.854, 0.08140596, -0.05536338, 372719.84, 372719.84, 0.0015411857, 10.002793, 9.999426 
1.4451887e+3, 1.2619035e+2, -2029413.0, -1796595.9, -118573.22, 0.34954247, -0.12438068, -1746840.1, -43514.17, 0.011047917, 9.997508, 10.00064 
1.4451727e+3, 1.3619256e+2, -2090609.5, -1706047.3, 122829.74, 0.008200817, 0.017079424, -1670163.6, -64850.145, 0.00646129, 9.996145, 10.001241 
1.4451575e+3, 1.461959e+2, -1796171.8, -1180745.3, -62466.14, -0.09374419, 0.05749765, -1174468.9, 332805.06, 0.0027186894, 9.996056, 10.004218 
1.4451426e+3, 1.5619723e+2, -1585869.5, -1091529.5, -152307.0, 0.09623599, -0.23923708, -1048371.4, 360872.4, 0.0006559602, 9.9971, 10.003649 
1.4451279e+3, 1.6619796e+2, -1793712.9, -1707828.3, 345.38455, 0.115895264, -0.24540849, -1707826.9, -396586.94, 0.000052490832, 9.997447, 9.998576 
1.4451137e+3, 1.7619851e+2, -1652326.4, -1520191.1, 91827.33, 0.03657865, -0.07031832, -1473134.1, -259883.52, 0.00000012546444, 9.997445, 9.999193 
1.445098e+3, 1.861998e+2, -1325970.8, -965609.4, -2780.3845, 0.01827171, -0.03198072, -965587.9, 149651.16, 0.0, 9.997507, 10.002302 
1.4450817e+3, 1.9620143e+2, -1215681.0, -871761.44, -47417.207, 0.028385049, -0.11939882, -865343.7, 151870.73, 0.0, 9.997637, 10.002208 
1.4450657e+3, 2.0620215e+2, -1201415.8, -1072143.3, 6766.9624, -0.035878945, -0.13763595, -1071789.9, -152586.81, 0.0, 9.998185, 9.999892 
1.4450502e+3, 2.1620227e+2, -971799.3, -900308.1, -5496.4453, -0.13943978, -0.13315561, -899888.06, -78687.664, 0.0, 9.999044, 9.999984 
1.4450361e+3, 2.262015e+2, -864535.56, -871744.3, -28958.01, -0.0769258, -0.16676216, -838958.44, -115752.36, 0.0, 9.99942, 9.99933 
1.4450227e+3, 2.3620017e+2, -748899.6, -751314.44, -49375.61, 0.08658491, -0.2566439, -700716.7, -75499.07, 0.0, 9.999479, 9.999454 
1.445007e+3, 2.4619852e+2, -567278.5, -684538.2, -84483.63, 0.085328, -0.3271004, -523073.78, 4156.512, 0.0, 10.000363, 9.998814 
1.44499e+3, 2.5619668e+2, -261082.92, -492468.7, -91825.93, -0.0220922, -0.41301364, -229070.55, 200173.55, 0.000000012932129, 10.001818, 9.998762 
1.4449745e+3, 2.6619545e+2, -199134.6, -610501.56, -68192.16, 0.007185076, -0.31068325, -188125.05, 143133.7, 0.0000016431604, 10.002421, 9.996986 
1.4449601e+3, 2.7619463e+2, -77199.234, -483557.8, -60509.426, 0.12189723, -0.11124694, -68380.375, 164893.08, 0.000019264668, 10.002515, 9.997137 
1.4449449e+3, 2.8619173e+2, 63339.71, -420100.06, 17294.605, 0.07094871, -0.08297822, 63957.617, 199262.9, 0.000103277154, 10.003046, 9.996643 
1.4449291e+3, 2.961873e+2, 292415.5, -226352.2, 53377.89, -0.077582106, -0.21639048, 297850.78, 335200.88, 0.00037424423, 10.003812, 9.996928 
1.4449151e+3, 3.0618396e+2, 391053.56, -42241.84, 26719.963, -0.054425564, -0.2935734, 392695.06, 392695.06, 0.0009254781, 10.003673, 9.99794 
1.4449023e+3, 3.161853e+2, 397504.75, 133558.78, -106652.73, 0.12214495, 0.0126976725, 435212.88, 435212.88, 0.0017116047, 10.00296, 9.999487 
1.4551827e+3, 1.2620509e+2, -1973802.1, -1689740.9, -134531.34, -0.030936068, -0.08003052, -1636140.8, 67045.07, 0.011640448, 9.997541, 10.001361 
1.455172e+3, 1.3620922e+2, -2031222.4, -1575314.3, 82233.19, 0.30812687, 0.1246761, -1560935.1, 44211.176, 0.0068325973, 9.996114, 10.002154 
1.4551552e+3, 1.4621036e+2, -1955011.4, -1515286.9, -30482.576, 0.055277646, 0.033973977, -1513183.9, -6053.411, 0.0028915813, 9.996076, 10.001907 
1.455138e+3, 1.5620907e+2, -1703579.8, -1334542.0, -112393.445, -0.07227462, -0.30164573, -1303006.5, 106128.27, 0.00070428615, 9.9971, 10.001978 
1.4551243e+3, 1.6621043e+2, -1579899.0, -1276989.8, -5375.27, 0.0058550388, -0.33334422, -1276894.4, 34225.76, 0.000058062662, 9.997491, 10.001516 
1.4551128e+3, 1.7621349e+2, -1485127.8, -1171768.8, 96321.94, 0.19894677, -0.19894129, -1144528.8, 68565.086, 0.00000016567238, 9.997431, 10.0015955 
1.4550968e+3, 1.8621612e+2, -1422616.4, -1165494.4, -4509.3433, 0.11845068, -0.056016237, -1165415.3, -50345.895, 0.0, 9.997506, 10.00093 
1.4550778e+3, 1.962184e+2, -1304046.0, -1055827.1, -36118.363, -0.12917893, 0.06182677, -1050678.4, -33631.844, 0.0, 9.997641, 10.000943 
1.4550635e+3, 2.0621762e+2, -1211685.3, -1091944.1, 33209.8, -0.08891371, -0.040353272, -1083350.3, -164297.86, 0.0, 9.998176, 9.999762 
1.4550522e+3, 2.1621493e+2, -987026.3, -923326.4, 27660.258, 0.13539362, -0.3078298, -912992.1, -91915.69, 0.0, 9.999003, 9.999848 
1.4550371e+3, 2.2621444e+2, -892288.2, -915661.0, -31907.193, 0.08242056, -0.29458973, -869994.56, -146914.34, 0.0, 9.999362, 9.999056 
1.4550199e+3, 2.3621531e+2, -779140.06, -798193.1, -35286.29, -0.1418758, -0.13109314, -752116.94, -127045.35, 0.0, 9.999414, 9.999164 
1.4550056e+3, 2.4621405e+2, -579839.6, -701712.9, -33225.195, -0.105342306, -0.14443018, -571370.3, -44287.78, 0.0, 10.00032, 9.998717 
1.454993e+3, 2.5621143e+2, -271183.06, -504738.13, -36963.285, 0.09076239, -0.3001883, -265472.72, 163633.38, 0.000000017460069, 10.001777, 9.998698 
1.4549775e+3, 2.6620984e+2, -192694.75, -584831.5, -67581.055, 0.051945593, -0.24019003, -181374.58, 149749.45, 0.000002726617, 10.002366, 9.9971895 
1.4549603e+3, 2.7620897e+2, -61766.52, -441735.94, -47098.164, -0.11903604, -0.073325254, -56015.625, 177122.6, 0.000025068905, 10.002473, 9.997444 
1.4549462e+3, 2.862066e+2, 136674.16, -257094.17, 44653.688, -0.10257529, -0.06655193, 141674.42, 276835.6, 0.00012317942, 10.003, 9.997785 
1.454934e+3, 2.962032e+2, 340941.25, -121360.46, 83999.64, 0.028653286, -0.21080929, 355730.75, 392922.34, 0.0004300027, 10.003783, 9.997669 
1.4549197e+3, 3.061992e+2, 247785.28, -321233.9, -2724.0645, 0.048189297, -0.279871, 247798.33, 247798.33, 0.0010507621, 10.003598, 9.996054 
1.4549045e+3, 3.1619763e+2, 282498.88, -85934.59, -109628.11, 0.032410268, -0.07771715, 312651.28, 312651.28, 0.0019351782, 10.002875, 9.998018 
1.4651795e+3, 1.262199e+2, -2094939.5, -1653164.3, -56191.535, -0.03910137, -0.07237499, -1646129.1, 56910.715, 0.012283002, 9.996304, 10.00221 
1.4651687e+3, 1.3622372e+2, -1984482.8, -1496102.3, 43716.746, 0.36328167, 0.025780978, -1492219.9, 112777.08, 0.00723705, 9.996191, 10.002664 
1.4651513e+3, 1.462239e+2, -2005279.4, -1690318.6, 32469.389, 0.06448861, -0.10424157, -1687006.3, -180012.77, 0.0030819494, 9.996385, 10.000556 
1.4651361e+3, 1.562234e+2, -1732568.4, -1464839.5, 3785.5093, 0.0045838957, -0.22889854, -1464786.0, -55787.285, 0.0007585455, 9.997391, 10.000949 
1.4651224e+3, 1.662252e+2, -1561650.9, -1137934.0, 10682.443, 0.07626969, -0.23960154, -1137664.9, 173314.17, 0.00006440502, 9.997061, 10.002676 
1.4651094e+3, 1.7622823e+2, -1634031.4, -1134806.9, -17181.826, 0.19500835, -0.222044, -1134216.1, 78729.34, 0.00000022299002, 9.995949, 10.002559 
1.4650942e+3, 1.8623026e+2, -1517551.9, -1265659.6, -50954.51, 0.13330054, -0.15193078, -1255742.6, -140817.88, 0.0, 9.997101, 10.000432 
1.4650774e+3, 1.9623174e+2, -1039880.9, -981019.94, -33970.84, -0.031453818, -0.06792007, -965504.06, 51407.195, 0.0, 9.999689, 10.0004635 
1.4650635e+3, 2.0623119e+2, -962380.7, -1026066.56, 8854.951, 0.003661193, -0.099278934, -961172.44, -42254.29, 0.0, 10.0001135, 9.999285 
1.4650513e+3, 2.1622933e+2, -982889.0, -964609.8, -29307.754, 0.16024755, -0.23446435, -943049.6, -122111.68, 0.0, 9.999215, 9.999466 
1.4650366e+3, 2.2622882e+2, -887025.8, -901463.2, -57662.184, 0.087994605, -0.21268429, -836132.2, -113189.31, 0.0, 9.999346, 9.999164 
1.4650199e+3, 2.3622912e+2, -663976.25, -733885.0, -40705.695, -0.12439587, -0.117962375, -645276.5, -20337.871, 0.0, 10.000162, 9.999247 
1.4650062e+3, 2.4622801e+2, -615862.2, -746584.4, -21005.17, -0.08495329, -0.10714304, -612569.9, -85620.24, 0.0, 10.000201, 9.998464 
1.464994e+3, 2.5622597e+2, -562807.4, -655580.56, -45280.02, 0.10711181, -0.17732276, -544371.2, -115400.94, 0.000000044837254, 9.999826, 9.998596 
1.4649789e+3, 2.662243e+2, -398845.38, -592139.75, -36786.977, 0.050149817, -0.1683716, -392080.94, -61093.406, 0.0000038968087, 10.000559, 9.998011 
1.4649622e+3, 2.7622288e+2, -81982.516, -366744.8, 17282.502, -0.15778752, -0.13693026, -80937.46, 152065.23, 0.000030358568, 10.001966, 9.998206 
1.4649485e+3, 2.862211e+2, 32150.057, -275444.34, 74642.555, -0.13923799, -0.12208071, 49306.33, 184325.3, 0.00014195647, 10.002144, 9.998075 
1.4649366e+3, 2.9621908e+2, 39380.324, -237589.97, 35819.35, 0.02133463, -0.15276757, 43937.695, 80974.33, 0.00048668167, 10.001596, 9.99792 
1.4649229e+3, 3.0621547e+2, 52069.914, -422258.25, 30220.61, 0.060895097, -0.19064955, 53987.59, 53987.59, 0.0011866849, 10.002276, 9.995992 
1.4649081e+3, 3.1621227e+2, 402416.16, -19729.71, 54163.47, 0.06673581, -0.1478524, 409254.8, 409254.8, 0.0021861894, 10.003661, 9.998092 
1.4751789e+3, 1.2623493e+2, -2009644.4, -1485399.3, 12420.874, 0.24554735, -0.09297561, -1485105.1, 217781.56, 0.012969953, 9.996338, 10.003354 
1.4751627e+3, 1.3623644e+2, -1980942.4, -1485096.8, 36426.96, 0.13227351, -0.25318632, -1482435.0, 122427.12, 0.0076708426, 9.996176, 10.002747 
1.4751463e+3, 1.4623667e+2, -2031355.4, -1752646.0, 59032.305, -0.10954706, -0.35304832, -1740658.3, -233796.33, 0.0032881629, 9.996413, 10.000118 
1.4751363e+3, 1.5624027e+2, -1769026.3, -1531054.8, 38315.07, 0.28436103, -0.025944615, -1525037.9, -116201.79, 0.00081847684, 9.997355, 10.000509 
1.4751215e+3, 1.6624224e+2, -1598435.8, -1223818.6, -37653.04, 0.27785435, 0.03678963, -1220071.6, 90744.74, 0.000071419374, 9.997092, 10.002074 
1.4751035e+3, 1.762428e+2, -1661395.5, -1200213.1, -40006.223, -0.009357471, -0.1393071, -1196768.5, 16036.308, 0.0000002932695, 9.995981, 10.002095 
1.4750904e+3, 1.8624237e+2, -1483780.9, -1205786.6, 42881.938, 0.026349489, -0.31685984, -1199322.1, -84518.29, 0.0, 9.99714, 10.000827 
1.4750803e+3, 1.962415e+2, -1025862.06, -949587.3, 52264.3, 0.27446187, -0.5039501, -923025.25, 93782.9, 0.0, 9.999674, 10.00069 
1.4750655e+3, 2.0624286e+2, -1024028.75, -1145700.6, -32933.625, 0.18898238, -0.30923837, -1015686.44, -96886.4, 0.0, 10.000078, 9.998479 
1.475048e+3, 2.1624553e+2, -1039084.2, -1065729.8, -52328.957, -0.10258593, 0.087699525, -998408.7, -177623.8, 0.0, 9.999151, 9.9988 
1.4750342e+3, 2.2624467e+2, -860872.5, -834116.4, -31126.324, -0.09411969, 0.07674438, -813614.94, -90820.65, 0.0, 9.999285, 9.999658 
1.4750223e+3, 2.3624162e+2, -644387.56, -679687.56, -9502.552, 0.09767132, -0.2142486, -641992.06, -17173.281, 0.0, 10.000103, 9.999648 
1.4750081e+3, 2.4624044e+2, -649397.0, -810258.1, -40357.504, 0.09788147, -0.20581679, -639839.75, -113008.4, 0.0, 10.000167, 9.998047 
1.4749926e+3, 2.5624034e+2, -583551.3, -690349.7, -45809.914, -0.01363572, -0.04389087, -566594.06, -137756.98, 0.000000082863835, 9.999784, 9.998383 
1.4749786e+3, 2.6623878e+2, -306406.5, -384783.44, 14878.979, -0.044500932, -0.09420032, -303676.97, 27173.107, 0.0000048986644, 10.000495, 9.999462 
1.4749655e+3, 2.7623633e+2, -7713.982, -197419.6, 70082.81, -0.029928673, -0.30683857, 15368.175, 248235.6, 0.00003468843, 10.0019045, 9.999395 
1.4749514e+3, 2.8623515e+2, -26656.56, -382500.38, 49868.04, -0.07946536, -0.24465935, -19800.15, 115078.95, 0.00015714212, 10.002074, 9.997374 
1.4749365e+3, 2.962348e+2, 5557.0967, -299006.66, 31297.143, -0.1577669, -0.050378684, 8739.946, 45627.664, 0.0005383698, 10.001551, 9.997522 
1.474924e+3, 3.0623254e+2, 169913.11, -151887.38, 82804.2, -0.06871289, -0.033457916, 189969.84, 189969.84, 0.0013174523, 10.002182, 9.997887 
1.4749128e+3, 3.1622928e+2, 499798.6, 221649.11, 125229.11, 0.14368679, -0.19246551, 547871.2, 547871.2, 0.0024261724, 10.00351, 9.999819 
1.4851747e+3, 1.262494e+2, -2080214.8, -1558453.9, 57703.234, 0.21676484, -0.15171, -1552148.5, 150593.22, 0.013700781, 9.996029, 10.002999 
1.4851592e+3, 1.3625017e+2, -2193792.0, -1698630.4, -104413.016, 0.23097345, -0.26756054, -1677513.8, -72784.57, 0.00813248, 9.995182, 10.001764 
1.4851433e+3, 1.462506e+2, -2113099.5, -1672878.3, 12910.994, 0.01267416, -0.35796058, -1672500.0, -165773.31, 0.0035089266, 9.995353, 10.00117 
1.485133e+3, 1.5625522e+2, -1817106.1, -1457428.8, 88918.28, 0.26374474, -0.038609385, -1436647.4, -27959.926, 0.0008836724, 9.9966135, 10.001368 
1.4851187e+3, 1.6625722e+2, -1606857.1, -1331056.6, 8208.34, 0.25305083, 0.040101573, -1330812.6, -20144.223, 0.00007901186, 9.997498, 10.001136 
1.4851011e+3, 1.7625707e+2, -1393852.9, -1164467.0, -22694.12, 0.041085705, -0.109073445, -1162243.3, 50423.25, 0.00000037325287, 9.998224, 10.001258 
1.4850886e+3, 1.8625616e+2, -1301296.4, -1146942.8, 76549.69, 0.07387054, -0.28663114, -1115417.6, -745.84467, 0.0, 9.998519, 10.0005665 
1.4850792e+3, 1.9625491e+2, -1193008.8, -1045936.2, 22780.34, 0.2653964, -0.48512065, -1042488.56, -25809.178, 0.0, 9.998601, 10.000545 
1.4850646e+3, 2.0625632e+2, -1163085.9, -1160517.6, -63614.535, 0.15957113, -0.30606514, -1098174.3, -179504.44, 0.0, 9.998901, 9.998942 
1.485047e+3, 2.1625929e+2, -983600.75, -995661.4, 5334.484, -0.13257648, 0.07470326, -981579.94, -160929.67, 0.0, 9.999343, 9.9991865 
1.4850336e+3, 2.2625849e+2, -818141.06, -833058.0, 68605.3, -0.09966391, 0.06229758, -756590.0, -33930.547, 0.0, 9.999667, 9.9994755 
1.4850226e+3, 2.3625535e+2, -674266.4, -706911.7, 24454.768, 0.12692031, -0.22022742, -661187.25, -36500.953, 0.0, 9.999954, 9.999531 
1.4850086e+3, 2.4625449e+2, -570937.1, -731768.6, 6313.891, 0.114314914, -0.19245249, -570689.6, -43993.977, 0.0, 10.000526, 9.998415 
1.4849928e+3, 2.5625503e+2, -341575.1, -537153.75, 51880.03, -0.04483147, -0.0011781389, -328665.3, 100029.0, 0.00000011463164, 10.001289, 9.998709 
1.4849795e+3, 2.6625362e+2, -185505.52, -345724.63, 82838.85, -0.05058006, -0.043063734, -150376.98, 180329.56, 0.000005857849, 10.001412, 9.999286 
1.4849676e+3, 2.76251e+2, -121592.72, -267878.22, 3490.4226, 0.03600865, -0.25677115, -121509.484, 111217.586, 0.000039061, 10.001194, 9.999251 
1.484954e+3, 2.8624964e+2, 3277.002, -350074.78, -14204.84, -0.004891736, -0.21503688, 3847.1206, 138587.39, 0.00017263576, 10.002211, 9.997525 
1.4849396e+3, 2.9624912e+2, 366162.9, -106846.32, 13953.575, -0.12019978, -0.046798978, 366574.16, 403323.03, 0.000590196, 10.003955, 9.997683 
1.484927e+3, 3.0624738e+2, 443802.16, 5066.83, 6267.3384, -0.067487635, -0.0026986008, 443891.66, 443891.66, 0.0014389781, 10.003935, 9.99814 
1.4849155e+3, 3.1624404e+2, 392395.66, 164860.81, -91706.38, 0.10368747, -0.19030541, 424755.2, 424755.2, 0.0026341805, 10.002777, 9.999793 
1.4951672e+3, 1.2626398e+2, -2187713.0, -1795135.6, 65363.633, -0.15808067, -0.18918626, -1784538.6, -81940.9, 0.014485426, 9.9960985, 10.001323 
1.4951582e+3, 1.3626501e+2, -2335398.8, -1993100.9, -128724.75, 0.60742474, -0.023951728, -1950095.6, -345499.28, 0.008627366, 9.995193, 9.999737 
1.4951424e+3, 1.462658e+2, -1930655.3, -1311780.5, 52320.45, 0.3791679, -0.12484268, -1307388.5, 199197.75, 0.0037456865, 9.995408, 10.0036335 
1.4951262e+3, 1.5626852e+2, -1673550.5, -1159626.9, 136805.14, -0.09040979, -0.24661618, -1125478.8, 283071.84, 0.0009542572, 9.996612, 10.003416 
1.4951132e+3, 1.6627032e+2, -1688024.9, -1511570.1, 28186.424, -0.03727215, -0.20800908, -1507177.0, -196644.0, 0.00008722728, 9.997544, 9.999876 
1.495102e+3, 1.7627117e+2, -1483108.8, -1348170.9, 4337.6597, 0.30708802, -0.12849218, -1348031.5, -135501.33, 0.0000004647829, 9.99822, 10.0 
1.4950888e+3, 1.8627162e+2, -1361233.0, -1277920.8, 74223.914, 0.22858785, -0.059664335, -1234462.8, -119934.75, 0.0, 9.99854, 9.9996605 
1.4950743e+3, 1.9627193e+2, -1231922.5, -1129121.6, 30573.543, -0.09692761, -0.01883714, -1120716.1, -104190.89, 0.0, 9.998606, 9.999973 
1.4950609e+3, 2.0627151e+2, -1041380.8, -905568.3, -52280.54, -0.12264813, -0.095470294, -887774.44, 30753.348, 0.0, 9.998887, 10.000701 
1.4950481e+3, 2.1627064e+2, -891878.9, -793540.3, 25399.736, 0.033183385, -0.27114373, -787367.3, 33166.348, 0.0, 9.999291, 10.0006 
1.4950345e+3, 2.262703e+2, -888889.4, -971196.8, 73446.016, 0.025692657, -0.24727619, -845853.1, -123315.17, 0.0, 9.999623, 9.998551 
1.4950207e+3, 2.3627023e+2, -729595.4, -807377.94, 40913.383, -0.078275196, -0.13138524, -712038.1, -87496.6, 0.0, 9.999892, 9.998872 
1.4950073e+3, 2.4627015e+2, -497170.47, -564032.1, 31546.3, -0.081106566, -0.064165026, -484636.22, 41906.547, 0.0, 10.000462, 9.9995985 
1.4949943e+3, 2.5627005e+2, -292860.2, -424732.6, 82957.48, -0.024819726, -0.05646235, -252826.92, 175715.88, 0.00000015644366, 10.00124, 9.999506 
1.4949815e+3, 2.662688e+2, -323905.97, -620622.8, 71022.94, -0.0068835975, -0.012271619, -307781.9, 22775.793, 0.000006865855, 10.001357, 9.997427 
1.4949685e+3, 2.7626675e+2, -233935.97, -490749.44, 10452.9375, -0.004731925, 0.019983303, -233511.22, -929.01245, 0.000043953176, 10.001148, 9.997745 
1.4949568e+3, 2.862644e+2, 62166.37, -213879.97, 50020.965, 0.035322838, -0.029830506, 70950.875, 205554.4, 0.00018936973, 10.002149, 9.998489 
1.4949457e+3, 2.962619e+2, 407160.97, -14386.072, 75768.86, 0.09382358, -0.15593596, 420366.0, 456988.22, 0.0006395796, 10.00392, 9.998337 
1.4949317e+3, 3.062597e+2, 325193.3, -214689.88, -40870.133, 0.021291167, -0.10279348, 328269.75, 328269.75, 0.0015390768, 10.003836, 9.99667 
1.4949158e+3, 3.162564e+2, 242379.66, -115953.73, -115085.26, -0.15457843, -0.14004672, 276157.38, 276157.38, 0.0027885751, 10.002657, 9.9979105 
1.5051647e+3, 1.2627862e+2, -2243478.0, -1822918.8, 74077.2, -0.0009989011, -0.15875563, -1810252.3, -107796.45, 0.015336173, 9.995723, 10.001311 
1.5051532e+3, 1.3627945e+2, -2010919.1, -1859385.9, 8185.8047, 0.4759569, -0.0021613555, -1858944.9, -254487.67, 0.0091627855, 9.997509, 9.9995365 
1.5051387e+3, 1.4628081e+2, -1671916.8, -1223390.1, 134588.16, 0.3627015, -0.017586043, -1186104.1, 320337.2, 0.0040015904, 9.99735, 10.003303 
1.5051231e+3, 1.5628189e+2, -1739816.3, -1219162.3, 12420.627, -0.04495235, -0.27055258, -1218866.1, 189554.38, 0.001031135, 9.996271, 10.003174 
1.5051112e+3, 1.6628349e+2, -1762098.4, -1538985.5, -61858.582, 0.010805878, -0.24522625, -1522982.9, -212577.98, 0.000096309515, 9.996996, 9.999952 
1.505101e+3, 1.7628528e+2, -1377117.8, -1292912.6, -3574.2737, 0.34567428, -0.08087696, -1292761.1, -80367.57, 0.000000575819, 9.998925, 10.000038 
1.505088e+3, 1.8628582e+2, -1288855.8, -1281147.5, 88229.97, 0.2681696, 0.0140429055, -1196687.5, -82295.96, 0.0, 9.999212, 9.999307 
1.5050733e+3, 1.9628564e+2, -1254948.0, -1169223.0, 80343.43, -0.064410046, 0.03953489, -1121023.6, -104628.836, 0.0, 9.998581, 9.999705 
1.50506e+3, 2.0628515e+2, -1056426.5, -895926.56, -26230.375, -0.08052651, -0.040527847, -891748.5, 26649.498, 0.0, 9.998723, 10.000843 
1.505048e+3, 2.1628448e+2, -872084.7, -770679.5, -79038.44, 0.095602594, -0.21149468, -727478.8, 92922.664, 0.0, 9.999376, 10.000715 
1.5050347e+3, 2.2628422e+2, -854859.4, -968613.6, -35686.156, 0.06789981, -0.17638335, -844591.1, -122186.266, 0.0, 9.999929, 9.998418 
1.5050206e+3, 2.3628421e+2, -660851.75, -787107.5, -20911.39, -0.085491605, -0.04264283, -657478.4, -33070.11, 0.0, 10.000426, 9.998752 
1.5050077e+3, 2.4628347e+2, -546895.06, -594847.2, -68756.98, -0.07687927, -0.031068748, -498053.75, 28361.518, 0.0, 10.000167, 9.999519 
1.5049952e+3, 2.5628236e+2, -552350.0, -557079.06, -119342.04, 0.024577908, -0.11927111, -435349.06, -6924.846, 0.00000020302433, 9.999498, 9.999428 
1.5049829e+3, 2.662815e+2, -409570.3, -668497.3, -38243.08, 0.022593891, -0.025653709, -404040.0, -73604.24, 0.0000077496, 10.000796, 9.997368 
1.5049703e+3, 2.7628082e+2, 73331.52, -350940.4, 22479.533, -0.04008086, 0.14549568, 74519.25, 306968.7, 0.0000483451, 10.003289, 9.997677 
1.5049592e+3, 2.862781e+2, 200763.44, -159684.08, 34336.363, 0.0039490764, 0.07269282, 204005.17, 338479.53, 0.00020450291, 10.003159, 9.998376 
1.5049486e+3, 2.962744e+2, 43034.754, -193986.23, -35024.195, 0.11035934, -0.16510591, 48101.895, 84606.4, 0.00068072864, 10.001448, 9.998287 
1.5049346e+3, 3.0627224e+2, 70502.74, -313096.38, -80016.05, 0.016651616, -0.11874109, 86524.35, 86524.35, 0.001608345, 10.001951, 9.996912 
1.504918e+3, 3.1627014e+2, 373660.88, -81798.66, -40182.832, -0.23798768, -0.054455142, 377178.8, 377178.8, 0.0028741395, 10.00366, 9.997678 
1.5151665e+3, 1.2629367e+2, -2134316.0, -1603605.3, 117078.75, 0.5814729, -0.041170765, -1578924.5, 123387.89, 0.016257107, 9.995737, 10.002827 
1.5151441e+3, 1.3629365e+2, -1907943.5, -1637867.3, 60453.465, -0.18914862, -0.18419471, -1624952.9, -20642.078, 0.009740974, 9.997479, 10.001069 
1.5151319e+3, 1.4629583e+2, -1875530.3, -1663009.9, 82401.484, -0.06425036, -0.013416489, -1634803.6, -128513.58, 0.0042781597, 9.997416, 10.000251 
1.5151234e+3, 1.5629545e+2, -1913044.3, -1578857.4, -10941.062, 0.34604907, -0.11218598, -1578499.5, -170203.75, 0.0011151112, 9.996276, 10.0007 
1.5151115e+3, 1.6629688e+2, -1659319.4, -1334950.3, 6555.561, 0.33881384, -0.072131164, -1334817.8, -24535.588, 0.000106548556, 9.997028, 10.001338 
1.5150978e+3, 1.7629954e+2, -1289256.6, -1110083.0, 59997.12, 0.12254911, 0.034808073, -1091848.5, 120407.33, 0.0000007145684, 9.998922, 10.001294 
1.5150863e+3, 1.8629888e+2, -1270374.1, -1248682.5, 58500.945, 0.1565262, -0.058831498, -1200030.5, -85769.07, 0.0, 9.999235, 9.99952 
1.5150757e+3, 1.9629617e+2, -1258799.6, -1175354.1, 64977.934, 0.31951842, -0.30156648, -1139857.0, -123569.94, 0.0, 9.998573, 9.999668 
1.515062e+3, 2.0629734e+2, -1161296.0, -1111668.9, -8150.8833, 0.23624207, -0.13225684, -1110364.5, -192084.6, 0.0, 9.998711, 9.99937 
1.5150467e+3, 2.1630079e+2, -961477.1, -948381.56, -52049.168, 0.015392558, 0.25366157, -902469.94, -82216.57, 0.0, 9.999337, 9.9995165 
1.5150338e+3, 2.2630025e+2, -817179.6, -873169.1, -20665.02, -0.01641519, 0.2742277, -810378.56, -88118.766, 0.0, 9.999857, 9.999108 
1.5150225e+3, 2.3629723e+2, -641231.25, -732479.3, -1333.491, 0.06464246, 0.043309577, -641211.8, -16925.271, 0.0, 10.000367, 9.999156 
1.5150096e+3, 2.4629447e+2, -653036.56, -801693.25, -99426.83, 0.08028995, -0.08922391, -603226.25, -76913.234, 0.0, 10.000108, 9.998129 
1.5149951e+3, 2.5629187e+2, -627660.6, -704052.7, -125274.6, 0.06290019, -0.18548365, -534888.5, -106549.44, 0.00000026346208, 9.999457, 9.998441 
1.5149833e+3, 2.6629165e+2, -293750.72, -416456.22, 54479.426, -0.008343295, -0.08411422, -273053.7, 57288.14, 0.0000083363275, 10.000746, 9.999123 
1.5149729e+3, 2.7629295e+2, 162278.52, -153488.31, 104365.766, -0.11433594, 0.10851208, 193655.2, 425985.72, 0.000050820046, 10.003239, 9.999056 
1.514961e+3, 2.862907e+2, 102394.5, -349890.44, -35270.23, -0.147944, 0.093876496, 105128.43, 239482.06, 0.000217125, 10.003091, 9.997106 
1.5149479e+3, 2.9628646e+2, -21079.26, -317942.3, -75149.15, -0.12541583, -0.07135217, -3139.7751, 33256.84, 0.00071596226, 10.0014, 9.997461 
1.5149352e+3, 3.0628484e+2, 189876.53, -29055.9, -14987.476, -0.13108842, -0.05142854, 190897.77, 190897.77, 0.0016555461, 10.0018215, 9.998916 
1.514922e+3, 3.1628492e+2, 462653.78, 143882.5, 34377.082, -0.22825556, 0.029739676, 466318.94, 466318.94, 0.0029053993, 10.003516, 9.999285 
1.5251616e+3, 1.2630625e+2, -2451964.5, -1709027.1, 22295.818, 0.64584327, 0.06818715, -1708358.6, -6165.3994, 0.017244658, 9.993386, 10.003212 
1.5251409e+3, 1.363055e+2, -1961388.6, -1548106.4, -105006.94, -0.21567604, -0.26889992, -1522956.6, 81237.164, 0.010359608, 9.996605, 10.002114 
1.5251301e+3, 1.4630838e+2, -1875552.5, -1732692.1, -88969.44, 0.0025987679, -0.043747608, -1690026.6, -183860.48, 0.0045741852, 9.99773, 9.999615 
1.5251204e+3, 1.563082e+2, -1753514.1, -1567096.1, -14180.494, 0.35972914, -0.059365287, -1566023.6, -157850.61, 0.0012060112, 9.997646, 10.000121 
1.5251084e+3, 1.6630922e+2, -1583761.8, -1291658.9, 70578.73, 0.30545557, -0.037360393, -1275499.5, 34664.543, 0.000118081814, 9.99753, 10.001394 
1.5250954e+3, 1.7631131e+2, -1474025.6, -1188235.0, 11728.769, 0.06474066, 0.010210801, -1187754.5, 24387.424, 0.0000008766353, 9.997611, 10.001392 
1.5250847e+3, 1.8631083e+2, -1387832.4, -1271071.5, -42390.81, 0.13603641, -0.0869317, -1257304.5, -143159.22, 0.0, 9.998282, 9.999827 
1.5250751e+3, 1.9630872e+2, -1124624.3, -1092008.8, -34718.613, 0.35903266, -0.29869846, -1069958.6, -53793.934, 0.0, 9.999405, 9.999843 
1.5250616e+3, 2.0630963e+2, -1021599.75, -1115633.1, -49510.156, 0.25376523, -0.12563883, -1000338.9, -82178.18, 0.0, 9.999976, 9.998731 
1.525046e+3, 2.1631242e+2, -866426.5, -956844.2, -44441.7, -0.03743859, 0.2562439, -848240.5, -28098.541, 0.0, 10.000226, 9.999027 
1.5250337e+3, 2.2631192e+2, -784046.94, -812511.75, -13204.267, -0.019775944, 0.27908993, -778865.06, -56717.063, 0.0, 9.999888, 9.999508 
1.5250236e+3, 2.363094e+2, -789094.44, -765199.75, -19253.127, 0.179666, 0.054522265, -754488.3, -130318.984, 0.0, 9.999189, 9.999494 
1.5250103e+3, 2.4630693e+2, -658190.25, -824147.8, -34303.348, 0.16365466, -0.051818553, -651379.3, -125186.27, 0.0, 10.000149, 9.99796 
1.5249954e+3, 2.5630456e+2, -254827.22, -539297.4, 22968.643, 0.02057294, -0.10810848, -252984.63, 175233.03, 0.0000003530132, 10.002078, 9.998311 
1.5249842e+3, 2.6630396e+2, -161833.92, -357102.8, 150786.77, -0.03488328, -0.04100622, -79832.26, 250392.53, 0.00000861748, 10.001673, 9.9990835 
1.5249752e+3, 2.763044e+2, -325964.0, -385737.94, 54932.69, -0.04093506, 0.0710364, -293314.34, -61092.742, 0.000051570143, 9.999876, 9.999077 
1.5249631e+3, 2.8630283e+2, -246237.52, -472213.84, -54639.37, -0.105085485, 0.099765435, -233719.55, -99481.04, 0.00022934856, 10.0005, 9.997515 
1.524949e+3, 2.9630017e+2, 179789.72, -178273.22, 21776.465, -0.20018648, 0.05518936, 181109.25, 217376.14, 0.00074981863, 10.002591, 9.997852 
1.5249375e+3, 3.0629826e+2, 459385.9, 131205.52, 82360.336, -0.16446012, 0.010844261, 478895.3, 478895.3, 0.0016944248, 10.003537, 9.9992 
1.5249266e+3, 3.162981e+2, 490280.78, 165857.78, -23450.389, -0.11392622, 0.05112205, 491967.1, 491967.1, 0.002915754, 10.00365, 9.999385 
1.5351501e+3, 1.2631658e+2, -2494502.0, -1824475.5, 74307.4, 0.12885706, 0.16625239, -1816333.6, -114237.62, 0.018294634, 9.993489, 10.0023775 
1.535143e+3, 1.3631542e+2, -1926355.1, -1466552.5, 4551.2793, 0.32021078, -0.24255899, -1466507.5, 137594.2, 0.011016667, 9.996569, 10.002694 
1.535133e+3, 1.4631876e+2, -1755604.6, -1490251.5, -100482.08, 0.49687985, -0.09426657, -1456495.8, 49570.598, 0.0048880493, 9.997751, 10.001275 
1.5351142e+3, 1.563203e+2, -1671633.5, -1385075.0, -15168.089, -0.03202931, -0.09601983, -1384274.4, 23776.25, 0.0013030368, 9.997609, 10.001385 
1.5351018e+3, 1.6632071e+2, -1665064.9, -1475479.6, 64550.28, -0.1179849, -0.11834163, -1455588.5, -145540.28, 0.00013086536, 9.997582, 10.0001135 
1.535094e+3, 1.7632079e+2, -1550993.8, -1346574.5, 21914.686, 0.13833618, -0.14401291, -1344251.5, -132201.4, 0.0000010420176, 9.997604, 10.00031 
1.5350834e+3, 1.8632184e+2, -1357682.4, -1215269.3, -4396.5674, 0.16334008, -0.061240356, -1215133.6, -101092.43, 0.0, 9.998306, 10.000199 
1.5350711e+3, 1.9632326e+2, -1099601.1, -1038737.94, 7034.8306, 0.021680163, 0.03989553, -1037935.44, -21907.572, 0.0, 9.999396, 10.000214 
1.5350585e+3, 2.0632207e+2, -1013671.25, -1091225.4, -44582.066, -0.06441825, -0.02386106, -993361.75, -75321.51, 0.0, 9.999942, 9.998914 
1.5350455e+3, 2.163194e+2, -862053.6, -937191.5, -35312.367, -0.10111374, -0.20497093, -848063.0, -27995.727, 0.0, 10.000178, 9.999186 
1.5350339e+3, 2.2631925e+2, -787904.2, -802058.75, -45047.137, 0.016622096, -0.15982483, -749381.75, -27312.164, 0.0, 9.999808, 9.9996195 
1.5350232e+3, 2.3632059e+2, -778051.7, -732319.75, -28620.049, 0.2225044, -0.01059819, -718552.94, -94495.664, 0.0, 9.999144, 9.999743 
1.5350102e+3, 2.4632083e+2, -593680.9, -670633.25, 36682.004, 0.12962984, 0.08015571, -578997.06, -52941.414, 0.0, 10.000072, 9.999047 
1.534996e+3, 2.5632042e+2, -214287.66, -441910.9, 84434.75, -0.14050065, 0.11212855, -186387.2, 241673.08, 0.0000004707298, 10.002026, 9.999003 
1.5349853e+3, 2.663183e+2, -301624.44, -633674.25, 76577.055, -0.09733767, 0.10387813, -284815.22, 45269.965, 0.000008627056, 10.001611, 9.997216 
1.534977e+3, 2.763151e+2, -428988.2, -586009.1, 9774.414, 0.13309784, 0.036665484, -428382.1, -196259.33, 0.00005249565, 9.999818, 9.997729 
1.5349655e+3, 2.863144e+2, -115448.586, -183742.84, 22859.582, 0.079681, 0.092945226, -108503.29, 25626.39, 0.0002422958, 10.000424, 9.999534 
1.5349522e+3, 2.963153e+2, 288326.28, 51718.465, 101822.266, -0.15220602, 0.20547058, 326110.75, 362227.4, 0.0007832617, 10.00257, 9.999443 
1.5349415e+3, 3.0631226e+2, 338209.6, -96755.15, 83437.92, -0.11748072, 0.064950556, 353665.97, 353665.97, 0.0017341241, 10.0034485, 9.997667 
1.5349317e+3, 3.163095e+2, 374603.13, -28099.016, -7125.452, 0.011960324, -0.0070683495, 374729.2, 374729.2, 0.0029360482, 10.00348, 9.998116 
1.5451455e+3, 1.2632558e+2, -1971503.6, -1648159.1, 88463.16, 0.1248636, 0.06680325, -1625539.1, 76466.58, 0.019406972, 9.997399, 10.001706 
1.5451391e+3, 1.3632572e+2, -2102092.5, -1547601.8, 40291.387, 0.3431701, -0.19737197, -1544689.4, 59313.152, 0.0117135905, 9.995345, 10.002721 
1.54513e+3, 1.463292e+2, -1968328.0, -1497498.8, -89075.82, 0.5330482, -0.08965846, -1481210.0, 24756.676, 0.0052204016, 9.995883, 10.002122 
1.5451115e+3, 1.5633172e+2, -1567802.4, -1267961.1, -80079.945, -0.08046036, -0.074218325, -1247914.1, 160026.28, 0.0014059248, 9.998012, 10.002003 
1.5450995e+3, 1.6633204e+2, -1565478.3, -1484659.8, -16606.932, -0.15954748, -0.10213991, -1481380.4, -171441.6, 0.00014487762, 9.998523, 9.999588 
1.545092e+3, 1.7633133e+2, -1489696.4, -1365955.0, -10275.819, 0.16471182, -0.1573228, -1365107.5, -153158.34, 0.000001197513, 9.998229, 9.999874 
1.5450817e+3, 1.8633273e+2, -1383419.5, -1207469.5, 7723.7676, 0.17548048, -0.02959331, -1207131.1, -93193.37, 0.0, 9.998051, 10.000374 
1.5450692e+3, 1.9633532e+2, -1282127.1, -1099953.6, -4615.012, -0.039261006, 0.16931987, -1099836.8, -83922.695, 0.0, 9.998041, 10.000441 
1.5450574e+3, 2.0633388e+2, -1171230.5, -1128104.0, -42617.355, -0.1012251, 0.05074408, -1101905.3, -183977.8, 0.0, 9.998697, 9.999263 
1.545046e+3, 2.1633013e+2, -901964.4, -921563.8, -34720.59, -0.052816316, -0.27216148, -875687.06, -55725.07, 0.0, 9.999766, 9.99949 
1.5450345e+3, 2.2632992e+2, -735437.75, -775481.4, -69125.875, 0.06844915, -0.24583647, -683492.5, 38471.29, 0.0, 10.000162, 9.999633 
1.5450229e+3, 2.3633187e+2, -634727.44, -660829.4, -64475.32, 0.22076757, -0.037645463, -581995.5, 41950.42, 0.0, 10.000118, 9.999766 
1.5450102e+3, 2.4633262e+2, -547589.3, -638353.4, 8756.863, 0.110376924, 0.09871982, -546752.2, -20812.182, 0.000000000009610117, 10.000346, 9.999137 
1.5449972e+3, 2.563326e+2, -399477.8, -525050.6, -34488.047, -0.15387458, 0.1642783, -390629.34, 37312.277, 0.0000005675007, 10.000731, 9.999057 
1.5449871e+3, 2.6633027e+2, -355062.28, -665453.7, -36534.957, -0.060730048, 0.13467328, -350819.9, -20851.227, 0.000008574752, 10.001276, 9.997156 
1.5449788e+3, 2.7632645e+2, -129600.33, -447422.16, 27302.291, 0.23756543, 0.015408384, -127272.0, 104739.33, 0.000054083343, 10.001899, 9.997682 
1.5449677e+3, 2.8632593e+2, 183749.83, -17637.85, 74809.79, 0.16472994, 0.08006029, 208498.22, 342514.63, 0.0002552126, 10.002393, 9.999721 
1.5449551e+3, 2.963274e+2, 327854.63, 77205.66, -2953.975, -0.13841033, 0.23420857, 327889.44, 363887.38, 0.00081674213, 10.002817, 9.999497 
1.5449445e+3, 3.0632403e+2, 231478.78, -201275.75, -60974.883, -0.1387526, 0.0832208, 239906.0, 239906.0, 0.0017830138, 10.002928, 9.997204 
1.5449345e+3, 3.1632125e+2, 248571.45, -113255.99, -99789.5, -0.0027392805, 0.05727586, 274267.8, 274267.8, 0.0029880614, 10.002676, 9.997933 
1.555147e+3, 1.2633373e+2, -2002228.5, -1715252.3, -73710.4, 0.52013326, -0.19579549, -1697426.9, 4491.174, 0.020587768, 9.997415, 10.001234 
1.5551296e+3, 1.3633664e+2, -2141806.0, -1617811.1, -11577.19, -0.15930714, -0.121170454, -1617555.5, -13661.101, 0.012455585, 9.995313, 10.002246 
1.5551215e+3, 1.4633982e+2, -1955044.1, -1483851.4, -12109.389, 0.07831128, -0.028204715, -1483540.4, 22325.605, 0.0055746003, 9.99593, 10.002197 
1.555112e+3, 1.5634267e+2, -1567364.1, -1263717.1, -7696.422, 0.15437818, 0.016234234, -1263522.1, 144317.47, 0.001515748, 9.997999, 10.002036 
1.5551008e+3, 1.6634344e+2, -1547966.8, -1455802.8, -35131.9, 0.11890214, 0.020974318, -1443938.3, -134105.02, 0.00016035176, 9.998547, 9.999779 
1.5550898e+3, 1.7634295e+2, -1477271.1, -1338386.3, -17832.424, 0.113100864, -0.029767582, -1336133.3, -124294.69, 0.0000013687348, 9.998221, 10.000069 
1.5550795e+3, 1.8634363e+2, -1382247.8, -1209733.9, 2323.3606, 0.13321693, 0.016133847, -1209702.6, -95869.03, 0.0, 9.998068, 10.000351 
1.5550691e+3, 1.9634499e+2, -1283204.5, -1098002.1, 3910.0059, 0.13049738, 0.09656184, -1097919.6, -82097.18, 0.0, 9.998023, 10.000463 
1.555058e+3, 2.0634511e+2, -1139094.9, -1057793.4, -8584.534, 0.09929339, 0.10500742, -1056896.8, -139075.22, 0.0, 9.998674, 9.99976 
1.555047e+3, 2.1634448e+2, -876728.3, -862551.2, 3338.4363, 0.06811903, 0.043795288, -861804.4, -41977.395, 0.0, 9.999729, 9.999916 
1.555035e+3, 2.263438e+2, -753394.94, -796644.0, -74364.586, 0.08689986, 0.009670929, -697574.56, 24257.133, 0.0, 10.000092, 9.999522 
1.5550222e+3, 2.3634312e+2, -657319.6, -696484.9, -58795.92, 0.12996835, -0.033093605, -614931.0, 8904.9, 0.0, 10.000069, 9.999544 
1.5550102e+3, 2.463422e+2, -623973.3, -781440.94, 18524.063, 0.06398828, 0.0007129151, -621823.5, -95976.87, 0.0, 10.000277, 9.998191 
1.5549989e+3, 2.563411e+2, -447927.94, -612176.4, -13715.111, -0.060588073, 0.047068708, -446790.56, -18928.771, 0.0000005355393, 10.000673, 9.9984865 
1.5549894e+3, 2.6633978e+2, -247314.84, -424478.47, -13399.469, 0.026170682, 0.048535082, -246307.13, 83568.41, 0.000008556659, 10.001201, 9.998847 
1.5549807e+3, 2.7633837e+2, -47662.813, -268413.1, 58050.363, 0.23373288, -0.000066168024, -33328.227, 198559.77, 0.00005618316, 10.0018635, 9.998923 
1.5549697e+3, 2.8633732e+2, 54444.363, -274438.03, 86382.31, 0.113162085, 0.05654438, 75752.484, 209652.22, 0.0002694524, 10.002339, 9.997985 
1.5549573e+3, 2.9633638e+2, 224038.4, -129143.45, 18108.219, -0.20582049, 0.13592704, 224964.4, 260876.13, 0.00085449836, 10.002775, 9.9981 
1.5549459e+3, 3.0633342e+2, 240824.38, -147481.17, -70982.05, -0.28290418, 0.06514386, 253393.03, 253393.03, 0.0018514995, 10.002796, 9.997631 
1.554935e+3, 3.163331e+2, 296871.94, 29685.52, -94249.54, -0.24550286, 0.23350814, 326772.22, 326772.22, 0.00309052, 10.002524, 9.998974 
1.5651432e+3, 1.2634337e+2, -2198069.8, -1782528.9, -154664.81, 0.46387854, -0.27994618, -1731282.4, -29458.76, 0.021849003, 9.995951, 10.001484 
1.565125e+3, 1.3634787e+2, -1899798.3, -1524285.1, -7538.724, -0.22454755, -0.037263453, -1524133.9, 79651.72, 0.013250772, 9.997052, 10.002067 
1.5651172e+3, 1.4635053e+2, -1866046.5, -1516674.5, 11010.528, 0.006024582, 0.05234305, -1516327.9, -10562.775, 0.0059556314, 9.996882, 10.001509 
1.5651098e+3, 1.5635282e+2, -1891697.6, -1471540.4, -49302.715, 0.23800743, 0.10702814, -1465832.6, -58084.68, 0.0016345053, 9.996004, 10.001571 
1.565099e+3, 1.6635376e+2, -1748362.0, -1442301.8, -43778.52, 0.18965012, 0.09565285, -1436162.8, -126425.23, 0.00017771397, 9.996705, 10.000758 
1.5650876e+3, 1.7635387e+2, -1383732.6, -1201424.8, 17077.904, 0.0586563, 0.0067131193, -1199838.8, 11893.065, 0.0000016137079, 9.998473, 10.000884 
1.5650775e+3, 1.8635418e+2, -1325722.1, -1215247.0, 12904.391, 0.09727847, -0.0027310199, -1213759.8, -100030.33, 0.0, 9.998596, 10.000058 
1.5650676e+3, 1.9635466e+2, -1332004.0, -1147246.9, -4016.7124, 0.1992608, 0.017949333, -1147159.6, -131431.13, 0.0, 9.997791, 10.000241 
1.5650572e+3, 2.0635548e+2, -1217990.0, -1057983.0, 21878.121, 0.164522, 0.08827929, -1055045.5, -137324.16, 0.0, 9.997971, 10.0000925 
1.5650462e+3, 2.1635652e+2, -994353.56, -890910.25, 10687.549, 0.05569895, 0.1602341, -889817.56, -70107.06, 0.0, 9.998801, 10.000164 
1.5650344e+3, 2.2635567e+2, -819630.4, -871498.06, -90028.516, 0.051318683, 0.11891104, -751874.9, -30157.21, 0.0, 9.999825, 9.999135 
1.5650223e+3, 2.3635368e+2, -553827.0, -683344.75, -106247.46, 0.10226595, -0.014835754, -494158.22, 129577.21, 0.0, 10.000935, 9.999218 
1.5650111e+3, 2.4635227e+2, -515137.66, -711584.0, -897.47723, 0.09539801, -0.026805092, -515133.56, 10616.888, 0.0, 10.00094, 9.998355 
1.5650004e+3, 2.5635117e+2, -491710.0, -615113.2, 39787.17, 0.048688244, 0.004530283, -479994.28, -52230.543, 0.00000039469393, 10.000287, 9.998655 
1.564991e+3, 2.6635006e+2, -307534.56, -432160.53, 38542.73, 0.093311146, 0.00935148, -296577.84, 33195.992, 0.000008163994, 10.0007, 9.999037 
1.5649821e+3, 2.7634898e+2, -61156.96, -272335.28, -16444.344, 0.18626416, -0.023963999, -59884.12, 171897.9, 0.000058034057, 10.001754, 9.998956 
1.5649715e+3, 2.8634754e+2, -66465.63, -400505.0, -1044.5338, 0.0875452, 0.03195271, -66462.37, 67336.1, 0.00028458447, 10.001808, 9.997375 
1.56496e+3, 2.9634592e+2, -28983.701, -307916.25, -1200.9452, -0.13222277, 0.10464958, -28978.531, 6841.2563, 0.0008964679, 10.001288, 9.997587 
1.5649492e+3, 3.063431e+2, 149512.42, -162200.75, -35140.895, -0.20272055, 0.054421417, 153424.92, 153424.92, 0.0019393243, 10.002028, 9.997903 
1.5649384e+3, 3.1634286e+2, 481448.06, 180639.89, -89727.305, -0.18580918, 0.20574169, 506179.28, 506179.28, 0.0032447896, 10.003504, 9.999557 
1.5751335e+3, 1.2635481e+2, -2128972.0, -1646264.9, -164701.44, -0.11947818, -0.16992952, -1595423.1, 106295.88, 0.023204513, 9.995971, 10.002427 
1.5751253e+3, 1.3635977e+2, -1897894.0, -1513422.6, 31240.25, 0.08201642, 0.077690944, -1510900.8, 92771.984, 0.014108494, 9.997034, 10.002145 
1.5751167e+3, 1.4636163e+2, -1957034.9, -1723828.1, -29945.447, 0.24985845, 0.17128845, -1720044.4, -214383.08, 0.0063687824, 9.996949, 10.000062 
1.575105e+3, 1.5636228e+2, -1953280.4, -1608260.4, -65491.844, 0.14314027, 0.2001095, -1596247.0, -188582.95, 0.00176415, 9.996039, 10.000616 
1.5750943e+3, 1.6636321e+2, -1621006.0, -1187259.6, 19976.555, 0.018151008, 0.12720135, -1186341.6, 123308.734, 0.00019721544, 9.996741, 10.002491 
1.5750852e+3, 1.7636421e+2, -1291170.5, -1002438.4, 75047.4, -0.037935138, -0.04031412, -984097.1, 227530.64, 0.0000019795527, 9.9984455, 10.002262 
1.5750754e+3, 1.8636447e+2, -1363338.4, -1296652.9, -23164.69, 0.025986038, -0.08158103, -1289395.9, -175771.39, 0.0, 9.998605, 9.999498 
1.5750648e+3, 1.9636433e+2, -1363584.8, -1212736.9, -23678.8, 0.12892045, -0.06820944, -1209107.3, -193475.23, 0.0, 9.99779, 9.999793 
1.5750541e+3, 2.063651e+2, -1208185.9, -1034615.4, 49861.3, 0.048855767, 0.0037391959, -1021311.56, -103685.65, 0.0, 9.997955, 10.000259 
1.5750432e+3, 2.1636635e+2, -999977.44, -889532.1, 47255.438, -0.12617385, 0.081969365, -872073.1, -52461.22, 0.0, 9.998748, 10.000196 
1.575033e+3, 2.2636557e+2, -877003.94, -975706.0, -51912.72, -0.07951865, 0.085667245, -854727.75, -133106.44, 0.0, 9.999756, 9.998453 
1.5750232e+3, 2.3636356e+2, -592587.75, -748067.7, -68552.05, 0.093464, 0.014483484, -566679.8, 56964.844, 0.0, 10.000867, 9.998806 
1.5750127e+3, 2.4636282e+2, -443660.53, -543400.3, -30017.45, 0.1509823, 0.021041228, -435323.44, 90327.44, 0.0, 10.000854, 9.999551 
1.5750018e+3, 2.5636286e+2, -439115.63, -495256.1, 28272.582, 0.13834725, 0.04344847, -427345.22, 301.8239, 0.00000029448665, 10.000243, 9.999496 
1.5749918e+3, 2.663611e+2, -411456.56, -639049.56, 76564.71, 0.10268006, 0.025507305, -388096.97, -58433.273, 0.000007127328, 10.000657, 9.99764 
1.5749826e+3, 2.763582e+2, -146475.28, -437532.47, 22718.729, 0.049372625, -0.053587787, -144712.63, 86980.836, 0.000058357444, 10.0017, 9.997848 
1.5749729e+3, 2.863566e+2, -49842.926, -354084.28, -23339.377, 0.033596985, 0.012911499, -48062.9, 85649.11, 0.0002965317, 10.001749, 9.9977255 
1.5749632e+3, 2.9635596e+2, -15709.559, -270263.78, -1721.8921, 0.04366836, 0.14719528, -15697.912, 20024.434, 0.0009377396, 10.001243, 9.997869 
1.5749538e+3, 3.0635285e+2, 142557.92, -152741.97, 19055.9, 0.061609022, 0.05140324, 143782.53, 143782.53, 0.0020368665, 10.001941, 9.998003 
1.574945e+3, 3.1635043e+2, 479376.94, 218280.56, -19775.387, 0.09260012, -0.033200137, 480866.22, 480866.22, 0.0034293896, 10.00335, 9.999876 
1.5851295e+3, 1.2636666e+2, -1980902.6, -1604121.1, -121785.38, -0.17258556, -0.04666272, -1568184.5, 133422.66, 0.024665277, 9.997128, 10.002155 
1.5851232e+3, 1.3637e+2, -1969135.9, -1598308.5, -17.15079, 0.19024487, 0.08722948, -1598308.5, 5268.1196, 0.0150364665, 9.996769, 10.001681 
1.5851136e+3, 1.4637133e+2, -1889005.5, -1692110.5, -9630.379, 0.21950504, 0.15120547, -1691640.6, -186072.03, 0.0068181083, 9.99743, 10.000041 
1.5851021e+3, 1.5637173e+2, -1528240.4, -1404626.0, 40138.16, 0.107198894, 0.15719022, -1392736.5, 14834.618, 0.0019058621, 9.9989605, 10.000605 
1.5850915e+3, 1.663729e+2, -1397854.8, -1078230.5, 75566.79, -0.009335981, 0.10721873, -1061265.3, 248290.45, 0.0002187055, 9.998268, 10.0025015 
1.5850821e+3, 1.7637439e+2, -1601676.8, -1149696.6, 2651.8193, -0.077404566, -0.012435636, -1149681.0, 61849.82, 0.000002466339, 9.996304, 10.002283 
1.5850729e+3, 1.8637484e+2, -1601233.9, -1397675.4, -72542.13, 0.004052841, -0.04013864, -1374469.1, -260943.66, 0.0, 9.996922, 9.999613 
1.5850635e+3, 1.9637477e+2, -1159121.9, -1102681.6, -36138.348, 0.14308865, -0.034252785, -1085050.4, -69519.3, 0.0, 9.999148, 9.999889 
1.585053e+3, 2.0637506e+2, -945031.4, -923243.0, 34140.35, 0.06933907, -0.0046033897, -898300.8, 19227.877, 0.0, 9.999834, 10.000121 
1.5850423e+3, 2.1637556e+2, -878841.8, -842702.44, 2850.5828, -0.11706428, 0.013261023, -842479.0, -22956.922, 0.0, 9.999623, 10.000105 
1.5850328e+3, 2.263751e+2, -876812.7, -944669.25, -39135.785, -0.06643608, 0.038701944, -858945.8, -137417.05, 0.0, 9.999627, 9.998729 
1.5850237e+3, 2.3637412e+2, -725608.75, -786594.75, 1032.7668, 0.11231599, 0.04550855, -725591.25, -102048.48, 0.0, 9.999841, 9.999039 
1.5850136e+3, 2.4637386e+2, -455324.3, -539866.3, 8694.863, 0.16434298, 0.08405659, -454439.34, 71105.41, 0.0, 10.000752, 9.999611 
1.5850028e+3, 2.5637397e+2, -174568.95, -372921.5, -29071.813, 0.13506134, 0.111518346, -170395.8, 257143.88, 0.00000023115544, 10.002087, 9.999443 
1.5849932e+3, 2.6637176e+2, -213879.16, -604034.56, 30841.992, 0.09193231, 0.08459614, -211456.14, 118104.67, 0.0000061293663, 10.002278, 9.99709 
1.584984e+3, 2.763682e+2, -158131.84, -488669.88, 24463.953, 0.03784972, -0.007139094, -156331.02, 75266.53, 0.00005923624, 10.001828, 9.997426 
1.5849751e+3, 2.863663e+2, 44160.8, -276616.94, 2680.8635, 0.06448162, 0.030239442, 44183.207, 177801.3, 0.00030706255, 10.002256, 9.998011 
1.5849662e+3, 2.9636553e+2, 277654.75, -104738.31, 8371.445, 0.13177179, 0.12476305, 277837.94, 313465.5, 0.0009776513, 10.00315, 9.998085 
1.5849572e+3, 3.063627e+2, 365685.53, -62110.844, 48114.574, 0.13184959, 0.055290032, 371030.25, 371030.25, 0.0021344225, 10.00352, 9.997884 
1.5849486e+3, 3.163596e+2, 499226.97, 212061.38, -27968.357, 0.12035927, -0.08450522, 501925.56, 501925.56, 0.0036116547, 10.003525, 9.999766 
1.5951306e+3, 1.2637912e+2, -2081581.1, -1826518.8, -113087.97, 0.19414918, 0.09626887, -1783600.3, -82113.68, 0.026239868, 9.997184, 10.000585 
1.595119e+3, 1.3637877e+2, -2035373.9, -1736819.6, -3994.8574, 0.07515679, -0.010546955, -1736766.1, -133270.6, 0.016040104, 9.996774, 10.000727 
1.5951078e+3, 1.4637983e+2, -1793897.9, -1507759.6, 42159.0, -0.114342615, -0.003926726, -1501677.3, 3808.2393, 0.0073062, 9.997475, 10.00129 
1.5951009e+3, 1.5638135e+2, -1472890.1, -1284498.5, 84965.26, 0.08847172, -0.0063148877, -1251840.4, 155627.61, 0.002060233, 9.998937, 10.001444 
1.5950906e+3, 1.6638295e+2, -1511830.5, -1318605.3, -5051.6094, 0.05747712, 0.047679164, -1318473.3, -9020.574, 0.00024185247, 9.998283, 10.000844 
1.5950784e+3, 1.7638451e+2, -1691770.6, -1339841.5, -47281.484, -0.0961838, 0.09444322, -1333599.9, -122160.02, 0.0000030340082, 9.99632, 10.000968 
1.5950698e+3, 1.8638544e+2, -1540590.9, -1281009.6, 7751.609, -0.0093731675, 0.12344017, -1280778.3, -167347.0, 0.0, 9.996958, 10.000397 
1.5950634e+3, 1.9638604e+2, -1123040.9, -1020258.1, 40971.98, 0.20727937, 0.12246115, -1005924.44, 9500.167, 0.0, 9.999121, 10.000468 
1.5950543e+3, 2.0638543e+2, -981573.7, -996779.56, 21148.25, 0.18615916, 0.06827841, -966703.25, -49273.813, 0.0, 9.999819, 9.999625 
1.5950437e+3, 2.1638416e+2, -903580.56, -880956.4, -708.1708, 0.036785707, -0.04744045, -880934.25, -61493.37, 0.0, 9.999568, 9.999867 
1.5950336e+3, 2.2638437e+2, -802793.25, -776502.44, -35407.023, 0.03748711, -0.014346286, -751879.4, -30440.305, 0.0, 9.999558, 9.999919 
1.5950237e+3, 2.3638543e+2, -674094.5, -666326.8, 20819.877, 0.120913886, 0.080457486, -649031.6, -25602.16, 0.0, 9.999782, 9.999895 
1.5950137e+3, 2.4638534e+2, -545826.44, -712321.25, 57617.19, 0.08991885, 0.16477382, -527832.25, -2400.2285, 0.0, 10.000684, 9.998461 
1.5950036e+3, 2.5638446e+2, -248708.98, -514497.78, 18548.22, -0.0012881462, 0.20700765, -247420.83, 180021.39, 0.00000009760233, 10.002035, 9.998495 
1.5949948e+3, 2.663821e+2, -205756.77, -577169.5, 9949.01, 0.021035554, 0.19436058, -205490.45, 123974.54, 0.0000054247644, 10.002228, 9.997302 
1.5949868e+3, 2.7637896e+2, -150603.56, -463611.34, 22026.408, 0.11061589, 0.12187589, -149061.16, 82433.53, 0.000061938634, 10.001783, 9.99762 
1.5949781e+3, 2.863765e+2, 49390.965, -250970.13, 34906.14, 0.12768942, 0.080111474, 53394.188, 186912.44, 0.0003177167, 10.0021925, 9.998219 
1.594969e+3, 2.963744e+2, 283426.9, -85859.305, 45621.137, 0.092470884, 0.02211222, 288979.4, 324517.47, 0.0010084098, 10.003117, 9.998236 
1.594959e+3, 3.063726e+2, 321581.66, -125415.25, 45495.42, -0.042334493, 0.07047644, 326165.2, 326165.2, 0.0022061244, 10.00342, 9.997488 
1.594949e+3, 3.1637058e+2, 436300.7, 128831.805, -364.65463, -0.19383752, 0.07786747, 436301.13, 436301.13, 0.0037405496, 10.003352, 9.999262 
1.6051282e+3, 1.2638922e+2, -2329033.5, -1999340.0, -107475.97, 0.3154701, 0.1289809, -1967398.6, -266008.53, 0.027939666, 9.995719, 10.000104 
1.6051157e+3, 1.3638884e+2, -1947181.5, -1717783.1, -9106.585, 0.05626271, 0.054278653, -1717422.3, -114021.72, 0.01712635, 9.997478, 10.000516 
1.6051038e+3, 1.4638957e+2, -1796047.3, -1444031.5, 31427.154, -0.24831425, 0.0045730313, -1441247.8, 64143.63, 0.007836914, 9.997195, 10.001857 
1.6050982e+3, 1.5639094e+2, -1828669.4, -1416618.8, 16076.439, 0.06735405, -0.06963515, -1415992.5, -8621.395, 0.0022287087, 9.996325, 10.001793 
1.6050889e+3, 1.6639265e+2, -1703186.4, -1514501.5, -52610.07, 0.10288393, 0.03268123, -1500823.9, -191466.42, 0.00026665046, 9.997423, 9.999916 
1.6050768e+3, 1.7639449e+2, -1244902.9, -1206822.0, -50830.074, -0.048880816, 0.19898994, -1171583.3, 39765.707, 0.0000036433328, 9.99974, 10.0002365 
1.6050683e+3, 1.8639544e+2, -1100152.3, -1015645.9, 22358.598, 0.0028556027, 0.23596257, -1010094.9, 103245.09, 0.0, 9.99975, 10.000873 
1.6050617e+3, 1.9639589e+2, -1190795.8, -1009905.7, 24523.709, 0.17290536, 0.17409319, -1006639.94, 8690.643, 0.0, 9.998455, 10.000864 
1.6050531e+3, 2.0639528e+2, -1187363.8, -1097215.6, 24096.016, 0.16291076, 0.10262983, -1091179.1, -173844.3, 0.0, 9.99842, 9.999608 
1.6050431e+3, 2.1639413e+2, -951883.5, -899179.9, 26120.563, 0.044099998, 0.0016684501, -888427.75, -69081.484, 0.0, 9.999221, 9.999906 
1.6050336e+3, 2.2639441e+2, -718257.7, -693252.9, -22144.664, 0.0631908, 0.020845111, -680325.06, 41017.4, 0.0, 9.999967, 10.000287 
1.6050243e+3, 2.3639558e+2, -524601.06, -568393.5, -34050.656, 0.15572743, 0.08888294, -506014.03, 117315.25, 0.0, 10.0007105, 10.00011 
1.605015e+3, 2.4639487e+2, -501553.53, -790537.44, 18661.215, 0.10421734, 0.15201797, -500353.47, 24985.406, 0.0, 10.00141, 9.997584 
1.6050054e+3, 2.5639305e+2, -289607.34, -608059.44, -16386.576, -0.029307846, 0.18768932, -288766.38, 138595.16, 0.000000007673713, 10.002075, 9.997839 
1.6049968e+3, 2.6639083e+2, -200430.8, -503442.47, -41232.266, 0.017692124, 0.1792135, -194920.33, 134461.45, 0.0000049766613, 10.001961, 9.997938 
1.6049889e+3, 2.7638838e+2, -176166.06, -425159.25, -6001.3994, 0.16692138, 0.11574765, -176021.5, 55379.223, 0.00006397672, 10.001383, 9.998082 
1.6049801e+3, 2.8638577e+2, -103526.266, -378451.53, 34143.598, 0.14770289, 0.070021294, -99349.35, 34075.83, 0.0003242289, 10.00137, 9.997742 
1.6049707e+3, 2.963832e+2, 49592.66, -242918.05, -21840.783, 0.02146932, 0.011768898, 51214.445, 86665.88, 0.0010201149, 10.001703, 9.997835 
1.6049613e+3, 3.0638164e+2, 122750.73, -238327.53, -32617.262, -0.097803704, 0.107620865, 125673.484, 125673.484, 0.002230063, 10.002115, 9.99734 
1.6049524e+3, 3.1637955e+2, 282793.5, -914.84186, -78943.35, -0.16112028, 0.12652841, 303280.5, 303280.5, 0.003781236, 10.002509, 9.998783 
1.6151227e+3, 1.2639695e+2, -2272628.3, -1906901.5, 34057.98, 0.16596122, 0.034488965, -1903757.0, -202439.17, 0.02978273, 9.995818, 10.000692 
1.6151136e+3, 1.3640058e+2, -1915458.6, -1645486.4, 35733.797, 0.08916341, 0.29958373, -1640836.8, -37548.37, 0.018308382, 9.997447, 10.00103 
1.6151011e+3, 1.4640072e+2, -1800863.3, -1460628.3, -10003.04, -0.24163496, 0.17810595, -1460334.4, 44950.395, 0.008418617, 9.997219, 10.001733 
1.6150941e+3, 1.5640055e+2, -1838151.4, -1438250.4, 4648.508, 0.007641401, -0.03431529, -1438196.4, -30916.377, 0.0024150687, 9.99634, 10.001636 
1.6150862e+3, 1.6640204e+2, -1705491.6, -1540039.1, 30292.875, 0.08648817, 0.063466646, -1534667.3, -225397.72, 0.0002938315, 9.9975, 9.999706 
1.6150774e+3, 1.7640437e+2, -1258977.3, -1235092.0, 22254.535, 0.02969695, 0.30210823, -1221778.1, -10520.931, 0.000004294035, 9.99973, 10.000049 
1.6150682e+3, 1.864049e+2, -1090272.1, -995090.9, -30316.305, -0.002272067, 0.29826564, -986255.0, 126996.086, 0.0, 9.999751, 10.001012 
1.6150585e+3, 1.9640441e+2, -1179425.3, -984583.0, -8958.724, -0.003279619, 0.12719402, -984171.94, 31076.22, 0.0, 9.998448, 10.00104 
1.6150494e+3, 2.0640472e+2, -1162179.6, -1036442.9, 46767.176, -0.04978873, 0.11245377, -1020955.7, -103711.88, 0.0, 9.9983835, 10.000041 
1.6150407e+3, 2.1640548e+2, -939155.2, -860075.3, 59076.953, -0.12197792, 0.1630718, -828527.3, -9289.197, 0.0, 9.999168, 10.000197 
1.6150327e+3, 2.2640528e+2, -763841.75, -771223.3, 480.0066, -0.023037575, 0.14798778, -763810.7, -42571.844, 0.0, 9.999895, 9.999786 
1.6150253e+3, 2.364045e+2, -569297.6, -645704.3, -1807.5648, 0.17229767, 0.06935715, -569254.9, 53988.18, 0.0, 10.000647, 9.999608 
1.6150169e+3, 2.4640246e+2, -552295.5, -881599.4, 39049.453, 0.1545698, 0.056820445, -547728.25, -22462.955, 0.0, 10.001344, 9.996992 
1.615008e+3, 2.5639972e+2, -324828.22, -667925.06, 8717.751, 0.0124058975, 0.055789802, -324606.84, 102690.85, 0.00000000987263, 10.002016, 9.997457 
1.6149992e+3, 2.6639774e+2, -144650.1, -370312.06, -66295.28, 0.041131765, 0.03318795, -126615.13, 202697.47, 0.000004852554, 10.001885, 9.99889 
1.6149904e+3, 2.7639613e+2, -137243.42, -330184.84, -15897.123, 0.16581528, -0.039300438, -135942.38, 95375.72, 0.00006378427, 10.001327, 9.998758 
1.6149808e+3, 2.8639403e+2, -194682.8, -557277.75, 42531.332, 0.07815575, 0.0061220382, -189760.81, -56421.293, 0.0003243143, 10.001321, 9.996538 
1.614971e+3, 2.9639187e+2, -29440.834, -395873.44, 966.2551, -0.13287926, 0.10234322, -29438.287, 5929.8687, 0.0010147305, 10.001647, 9.996815 
1.6149636e+3, 3.063896e+2, 108624.56, -235312.95, -21784.674, -0.08779815, 0.16558427, 109998.89, 109998.89, 0.002212131, 10.001999, 9.997405 
1.614958e+3, 3.1638622e+2, 227758.34, -64474.086, -43857.504, 0.13869366, 0.058063824, 234198.45, 234198.45, 0.003740974, 10.002331, 9.998411 
1.625118e+3, 1.2640512e+2, -1880510.1, -1615247.0, 35068.777, 0.00086847664, 0.07319133, -1610689.1, 90553.04, 0.03179242, 9.99806, 10.001624 
1.625111e+3, 1.3640913e+2, -2172729.3, -1719934.3, -61621.188, 0.17938232, 0.32415757, -1711698.0, -108492.625, 0.019603958, 9.995458, 10.001481 
1.6250992e+3, 1.4640926e+2, -2023836.8, -1561007.0, -42546.777, -0.076829545, 0.17735994, -1557128.4, -51926.45, 0.009062119, 9.995674, 10.001781 
1.6250916e+3, 1.5640987e+2, -1555923.9, -1286663.5, -14391.719, 0.020848341, 0.039281007, -1285896.5, 121294.15, 0.002624408, 9.998221, 10.001761 
1.625084e+3, 1.6641146e+2, -1522593.3, -1405643.1, 43936.91, 0.06508275, 0.115041025, -1390976.0, -81798.08, 0.00032476612, 9.998566, 10.000107 
1.6250762e+3, 1.7641325e+2, -1553007.9, -1338409.5, 68634.72, 0.042857576, 0.2614355, -1318335.9, -107168.625, 0.000005034694, 9.997551, 10.000384 
1.6250671e+3, 1.864135e+2, -1384103.4, -1150511.3, 8445.869, 0.027108092, 0.22201528, -1150206.3, -37042.84, 0.0, 9.997796, 10.000888 
1.6250573e+3, 1.9641301e+2, -1128890.8, -963700.44, 5370.588, 0.023709392, 0.05895913, -963526.0, 51635.793, 0.0, 9.998829, 10.000993 
1.6250485e+3, 2.0641364e+2, -1001157.8, -949054.9, 71435.9, -0.0350993, 0.07330723, -899068.44, 18085.924, 0.0, 9.99944, 10.000135 
1.6250402e+3, 2.1641485e+2, -845879.1, -818208.06, 54193.953, -0.12503786, 0.16025147, -776111.44, 43032.633, 0.0, 9.999814, 10.000181 
1.625033e+3, 2.2641447e+2, -698759.44, -818102.2, -4591.8496, -0.032519232, 0.16893907, -698583.0, 22565.37, 0.0, 10.000671, 9.999092 
1.6250263e+3, 2.3641318e+2, -438079.78, -646918.1, -35694.676, 0.15535088, 0.10798449, -432147.38, 191013.66, 0.0, 10.001816, 9.9990425 
1.6250184e+3, 2.4641123e+2, -427992.34, -776340.9, 28596.002, 0.14711045, 0.106968194, -425660.5, 99521.83, 0.0, 10.002004, 9.99739 
1.6250098e+3, 2.564089e+2, -355694.4, -650964.94, 56859.742, 0.015623279, 0.10861022, -345123.47, 82085.13, 0.000000011745934, 10.001654, 9.997748 
1.625001e+3, 2.6640657e+2, -155091.81, -399645.97, -39618.17, 0.034702472, 0.04595137, -148833.73, 180392.88, 0.0000048598445, 10.001923, 9.998668 
1.6249919e+3, 2.7640414e+2, 29766.008, -276717.9, -86376.37, 0.13880856, -0.08275375, 52433.043, 283672.7, 0.000062331186, 10.002592, 9.998516 
1.6249825e+3, 2.8640196e+2, 34027.35, -485128.7, -2585.9429, 0.030765548, -0.019046621, 34040.23, 167302.64, 0.0003208773, 10.003064, 9.99619 
1.6249728e+3, 2.964e+2, 209501.53, -307557.44, -3623.0608, -0.20273548, 0.13870363, 209526.9, 244815.89, 0.0010017316, 10.003414, 9.996568 
1.6249663e+3, 3.063972e+2, 312262.78, -115736.01, 7802.412, -0.070786245, 0.14457941, 312404.97, 312404.97, 0.0021707555, 10.00329, 9.997619 
1.6249621e+3, 3.1639367e+2, 298433.72, -52265.73, -12302.712, 0.29184446, 0.0073382747, 298864.78, 298864.78, 0.0036458434, 10.002859, 9.998271 
1.6351137e+3, 1.2641414e+2, -1789371.4, -1436681.1, -13738.99, -0.25404328, 0.26380143, -1436146.8, 265012.47, 0.03398967, 9.998078, 10.002881 
1.6351075e+3, 1.3641478e+2, -2148315.8, -1677515.9, -141605.42, 0.28762934, 0.14447977, -1638206.4, -35057.156, 0.02102759, 9.995495, 10.001752 
1.6350977e+3, 1.464153e+2, -1991651.1, -1514532.0, 41038.242, 0.19715908, 0.011412302, -1511028.0, -5886.564, 0.009775217, 9.995751, 10.002067 
1.6350903e+3, 1.5641911e+2, -1531750.5, -1233376.1, 69614.21, 0.05698863, 0.16001675, -1217933.5, 189168.11, 0.002860367, 9.998204, 10.002138 
1.635082e+3, 1.6642095e+2, -1453266.3, -1262243.6, 1408.5205, -0.0076921475, 0.19108483, -1262233.3, 46848.99, 0.00036087315, 9.998568, 10.001091 
1.635073e+3, 1.764212e+2, -1495858.4, -1220944.8, 41841.51, -0.041478127, 0.08372283, -1214717.6, -3638.461, 0.000005927034, 9.997559, 10.001186 
1.6350652e+3, 1.864213e+2, -1400792.9, -1194104.8, 42304.43, 0.048391864, 0.015857121, -1185781.3, -72704.65, 0.0, 9.997829, 10.000576 
1.6350582e+3, 1.9642161e+2, -1148801.8, -1006926.0, 44435.87, 0.21373063, -0.03631965, -994157.7, 20914.35, 0.0, 9.998834, 10.000696 
1.63505e+3, 2.0642196e+2, -1020030.8, -981674.8, 79249.44, 0.16377819, -0.025145646, -919315.9, -2248.2422, 0.0, 9.9994135, 9.999925 
1.6350411e+3, 2.1642224e+2, -875769.0, -868753.9, 76138.016, -0.00945961, -0.009532033, -796042.7, 23021.568, 0.0, 9.999763, 9.99986 
1.6350338e+3, 2.2642204e+2, -776412.7, -959798.6, 35524.17, -0.021033844, 0.084961556, -769771.75, -48700.563, 0.0, 10.000585, 9.998163 
1.6350272e+3, 2.3642161e+2, -491278.22, -739084.3, 5112.414, 0.06617087, 0.20096299, -491172.78, 131910.7, 0.0, 10.00174, 9.998444 
1.6350195e+3, 2.4642117e+2, -349141.47, -589708.7, 11013.988, 0.040127035, 0.29868343, -348638.25, 176452.06, 0.0, 10.001905, 9.998719 
1.6350107e+3, 2.5642064e+2, -296630.22, -514695.9, 53956.45, -0.057646584, 0.35267383, -284010.03, 143084.28, 0.000000006263202, 10.0016, 9.998709 
1.6350022e+3, 2.6641738e+2, -258941.88, -608399.06, -17635.2, -0.045118935, 0.23857284, -258054.19, 71068.35, 0.000005059976, 10.001885, 9.997255 
1.6349937e+3, 2.7641243e+2, -59896.504, -450513.9, -54571.22, 0.038484298, -0.009067829, -52415.89, 178749.38, 0.000060572125, 10.002535, 9.997352 
1.634985e+3, 2.8640935e+2, 51329.055, -430957.16, 8276.168, -0.04589569, -0.0059345993, 51471.03, 184666.0, 0.00031406162, 10.002988, 9.9966 
1.634976e+3, 2.9640752e+2, 232580.84, -250918.75, 15401.936, -0.23169646, 0.122324914, 233070.97, 268286.44, 0.0009812723, 10.003377, 9.996976 
1.6349694e+3, 3.0640438e+2, 327196.63, -61852.063, -13131.557, -0.09294683, 0.056668114, 327639.38, 327639.38, 0.002112942, 10.003205, 9.998023 
1.6349642e+3, 3.1640172e+2, 291697.22, -20454.537, -363.58533, 0.21276687, -0.035854306, 291697.66, 291697.66, 0.0035190757, 10.002688, 9.998557 
1.6451117e+3, 1.2642248e+2, -2226075.0, -1640129.6, 173577.95, -0.09948101, 0.17360353, -1592570.0, 108500.64, 0.036383986, 9.995098, 10.002885 
1.6451028e+3, 1.3642225e+2, -1811750.3, -1569364.4, -46321.375, 0.1280265, 0.018449817, -1560813.8, 42256.48, 0.022584815, 9.998044, 10.001269 
1.6450943e+3, 1.4642337e+2, -1682601.1, -1384359.5, 107818.86, 0.18200362, -0.022042235, -1349464.3, 155593.86, 0.010560797, 9.99794, 10.001919 
1.6450879e+3, 1.5642725e+2, -1840974.6, -1391165.4, 97170.5, 0.11331844, 0.14679791, -1371071.6, 35948.516, 0.0031241647, 9.996108, 10.0020685 
1.6450797e+3, 1.6642873e+2, -1710295.6, -1342539.8, 6834.1494, 0.014787307, 0.12202635, -1342412.8, -33410.51, 0.0004029895, 9.996608, 10.001493 
1.6450705e+3, 1.7642851e+2, -1324461.3, -1108980.8, -4133.8706, -0.1021658, -0.06755017, -1108901.5, 102097.664, 0.0000070009137, 9.998603, 10.00146 
1.6450633e+3, 1.8642908e+2, -1236085.8, -1175653.1, -26831.166, 0.016715968, -0.07228983, -1165459.9, -52465.61, 0.0, 9.999235, 10.000015 
1.6450578e+3, 1.964302e+2, -1137796.3, -1061128.9, -52113.355, 0.26300552, 0.015610687, -1034768.9, -19781.799, 0.0, 9.999166, 10.000164 
1.6450503e+3, 2.0643005e+2, -958880.56, -968693.2, -2146.9863, 0.23390706, 0.008321833, -958431.4, -41443.23, 0.0, 9.999893, 9.9997835 
1.6450422e+3, 2.1642916e+2, -695589.56, -794445.6, -8554.115, 0.043542188, -0.08319586, -694854.8, 124139.19, 0.0, 10.001057, 9.999738 
1.6450348e+3, 2.2642894e+2, -694612.6, -933892.25, -13789.652, 0.0006167388, 0.021131989, -693820.56, 27180.883, 0.0, 10.001209, 9.998041 
1.6450281e+3, 2.3642913e+2, -631998.25, -813059.25, 2543.407, 0.04120008, 0.20998923, -631962.56, -8952.632, 0.0, 10.000792, 9.9984 
1.6450204e+3, 2.4642886e+2, -479556.13, -589339.7, -11469.823, 0.0044955336, 0.29764208, -478370.6, 46643.734, 0.0, 10.000746, 9.999277 
1.6450118e+3, 2.5642842e+2, -357520.1, -492403.6, -30320.928, -0.08876481, 0.30145547, -351017.6, 75998.48, 0.000000005166704, 10.000963, 9.999168 
1.6450039e+3, 2.6642573e+2, -292902.6, -625074.3, -22280.506, -0.048855823, 0.22813652, -291414.8, 37624.402, 0.000005473011, 10.0016575, 9.997249 
1.6449966e+3, 2.7642167e+2, -38387.656, -440497.94, 26227.383, 0.06836715, 0.072293885, -36684.21, 194391.28, 0.000058693688, 10.002689, 9.997343 
1.6449885e+3, 2.8641826e+2, 70965.51, -419501.38, 101076.96, 0.016449694, 0.043370195, 90979.11, 224086.92, 0.00030246936, 10.003122, 9.996607 
1.6449802e+3, 2.964155e+2, 201724.86, -262964.38, 62460.8, -0.1370818, 0.07800463, 209974.03, 245109.22, 0.0009507113, 10.003168, 9.996984 
1.6449733e+3, 3.064121e+2, 274203.22, -98500.586, -11598.465, -0.009777429, -0.009252947, 274563.8, 274563.8, 0.0020459425, 10.002859, 9.997946 
1.6449669e+3, 3.1641054e+2, 233658.84, -38832.03, -53200.938, 0.23773828, 0.012329143, 243677.4, 243677.4, 0.0033928652, 10.002232, 9.99865 
1.6551116e+3, 1.2643053e+2, -2283230.3, -1783415.3, 244913.02, 0.35013855, -0.1490707, -1683414.0, 17559.465, 0.03897044, 9.995215, 10.001821 
1.6550963e+3, 1.3643157e+2, -1902394.4, -1747633.8, 42562.85, -0.3355096, -0.050011948, -1736700.4, -133732.67, 0.024272982, 9.998005, 10.000059 
1.6550891e+3, 1.4643349e+2, -1725272.9, -1471870.6, 32477.299, -0.1535946, 0.07306479, -1467774.4, 37177.605, 0.0114189135, 9.997937, 10.001313 
1.6550845e+3, 1.5643443e+2, -1876592.5, -1470895.6, 49914.105, 0.14803702, 0.011054734, -1464844.8, -57899.965, 0.0034161112, 9.996136, 10.001508 
1.6550772e+3, 1.6643497e+2, -1707566.0, -1357567.9, 76084.125, 0.073428094, -0.07486043, -1341743.8, -32807.63, 0.00045137366, 9.996687, 10.001355 
1.6550684e+3, 1.7643538e+2, -1337271.4, -1139450.1, 63782.543, -0.17507571, -0.19100603, -1120668.3, 90257.58, 0.000008273259, 9.998615, 10.0012455 
1.6550615e+3, 1.864368e+2, -1296207.9, -1305290.8, -34077.047, -0.10417647, -0.05028824, -1266371.0, -153454.9, 0.0, 9.999253, 9.999121 
1.6550557e+3, 1.9643876e+2, -1194029.8, -1175299.9, -44075.785, 0.13712512, 0.21071512, -1139605.1, -124697.93, 0.0, 9.999154, 9.999388 
1.6550493e+3, 2.06438e+2, -968890.44, -976204.56, 40257.76, 0.13095646, 0.17893581, -932124.0, -15208.986, 0.0, 9.999843, 9.999755 
1.6550428e+3, 2.1643572e+2, -700152.56, -788101.2, 30814.787, -0.00500928, -0.04978991, -690430.56, 128501.68, 0.0, 10.000992, 9.999812 
1.655036e+3, 2.2643518e+2, -658160.06, -843110.5, -34647.87, -0.018242786, -0.018668368, -651882.4, 69056.945, 0.0, 10.001137, 9.998702 
1.655029e+3, 2.3643568e+2, -603290.7, -740027.56, -3374.7253, 0.03696283, 0.13664082, -603207.44, 19732.898, 0.0, 10.000731, 9.998932 
1.6550212e+3, 2.4643436e+2, -506783.2, -630344.94, -6505.293, -0.013932983, 0.10902521, -506441.63, 18512.469, 0.0, 10.000676, 9.99903 
1.6550125e+3, 2.5643203e+2, -369432.66, -500271.44, -12032.152, -0.11430733, -0.05099889, -368335.38, 58639.285, 0.00000000856411, 10.000896, 9.999144 
1.655006e+3, 2.6643142e+2, -209562.08, -440729.53, 13511.88, -0.015556718, 0.010577688, -208774.98, 120202.73, 0.0000057188686, 10.001603, 9.998544 
1.6550004e+3, 2.7643174e+2, 30706.96, -287191.16, 68202.89, 0.18946081, 0.16100867, 44721.59, 275693.0, 0.000057056757, 10.002644, 9.998421 
1.6549933e+3, 2.8642866e+2, 35163.43, -479889.34, 100478.555, 0.1699622, 0.14029591, 54071.086, 187072.05, 0.00029092102, 10.003058, 9.996226 
1.6549852e+3, 2.9642373e+2, 163584.89, -329651.97, 71089.07, 0.03891602, -0.0039731166, 173626.36, 208676.69, 0.000922006, 10.003108, 9.996557 
1.6549776e+3, 3.0642012e+2, 212927.39, -187356.7, -37807.547, 0.13308872, -0.064565964, 216467.08, 216467.08, 0.0019963956, 10.002716, 9.997392 
1.6549699e+3, 3.164201e+2, 187113.23, -79937.67, -61409.227, 0.2892829, 0.1629856, 200557.64, 200557.64, 0.0033154383, 10.002015, 9.998459 
1.6651082e+3, 1.2643838e+2, -1959211.9, -1615362.9, -3041.5747, 0.37592155, -0.18322644, -1615336.0, 85556.82, 0.041736465, 9.9973345, 10.001994 
1.6650935e+3, 1.3643977e+2, -2210640.5, -1826780.1, -22061.143, -0.2773811, -0.12312222, -1825516.4, -222635.16, 0.026087236, 9.995583, 10.0006895 
1.6650873e+3, 1.4644238e+2, -1991608.3, -1665948.4, 25858.395, -0.052802246, 0.07248761, -1663907.9, -159049.5, 0.012349877, 9.996403, 10.000714 
1.6650808e+3, 1.5644185e+2, -1571193.9, -1385125.8, 37972.094, 0.058532346, -0.0776317, -1377674.9, 29191.492, 0.003737191, 9.998501, 10.000954 
1.6650745e+3, 1.66442e+2, -1373236.6, -1228494.5, 91747.05, 0.018107887, -0.1594415, -1184010.6, 124851.93, 0.00050616945, 9.999138, 10.001047 
1.6650684e+3, 1.7644288e+2, -1285895.5, -1147279.3, 53311.027, -0.051496327, -0.20052631, -1129147.9, 81701.125, 0.000009797576, 9.999116, 10.000941 
1.6650617e+3, 1.864441e+2, -1281958.9, -1330027.6, -34275.24, -0.0142999515, -0.050412968, -1264131.1, -151289.33, 0.0, 9.999479, 9.998844 
1.6650544e+3, 1.9644545e+2, -1070378.9, -1140940.9, -5205.0283, 0.05466132, 0.17270005, -1069997.0, -55157.668, 0.0, 10.0001135, 9.999155 
1.6650482e+3, 2.0644468e+2, -983480.4, -1004433.2, 94076.89, 0.035661303, 0.15920357, -899298.4, 17549.85, 0.0, 9.999835, 9.999568 
1.6650426e+3, 2.1644276e+2, -989677.44, -938519.75, 66072.22, -0.022613691, -0.013326699, -893247.94, -74384.75, 0.0, 9.999047, 9.999723 
1.6650362e+3, 2.2644211e+2, -865036.4, -881474.0, 3660.6272, -0.013628915, -0.019584198, -864258.0, -143388.28, 0.0, 9.999458, 9.999242 
1.6650295e+3, 2.364422e+2, -597268.8, -687637.9, 12861.745, 0.023285756, 0.042471807, -595473.94, 27397.531, 0.0, 10.000564, 9.999365 
1.665022e+3, 2.4644096e+2, -467246.75, -636224.8, 9656.958, -0.0024214885, 0.015495355, -466696.66, 58187.54, 0.0, 10.001047, 9.998817 
1.665014e+3, 2.5643894e+2, -333949.75, -504210.6, 1407.6239, -0.062129993, -0.092106126, -333938.1, 92965.31, 0.0000000057748837, 10.001222, 9.998964 
1.6650079e+3, 2.6643822e+2, -168820.9, -417006.28, 3238.1877, 0.011088091, -0.036133606, -168778.67, 160130.33, 0.0000055479773, 10.001871, 9.998574 
1.6650029e+3, 2.7643827e+2, 65579.63, -258037.06, -54475.86, 0.14657994, 0.08808073, 74503.71, 305409.8, 0.000055266635, 10.002822, 9.998537 
1.6649964e+3, 2.8643572e+2, 82548.586, -371955.1, -30260.648, 0.1807367, 0.0715256, 84554.47, 217484.13, 0.00028143296, 10.003013, 9.996991 
1.6649894e+3, 2.9643172e+2, 159671.63, -263581.3, 12751.087, 0.16712102, -0.05604086, 160055.42, 195023.63, 0.00090238696, 10.002792, 9.997161 
1.664982e+3, 3.0642855e+2, 326139.97, -186306.44, -27819.188, 0.24113058, -0.06998509, 327645.78, 327645.78, 0.0019752881, 10.003709, 9.996931 
1.6649732e+3, 3.164287e+2, 638052.7, 121179.6, -68321.35, 0.28416398, 0.21742858, 646931.06, 646931.06, 0.0033031823, 10.005177, 9.998338 
1.6751008e+3, 1.2644576e+2, -1865942.5, -1416290.4, -156112.3, -0.10841512, 0.030764055, -1367405.3, 333425.8, 0.044670317, 9.997286, 10.003449 
1.6750945e+3, 1.3644703e+2, -2044653.3, -1487414.3, -60261.13, 0.24665618, -0.19152582, -1480972.0, 121836.85, 0.028026333, 9.995594, 10.003035 
1.6750886e+3, 1.4645016e+2, -2015574.5, -1734077.4, 104496.32, 0.41459563, -0.018960457, -1699527.3, -194751.55, 0.013357116, 9.996475, 10.000214 
1.6750771e+3, 1.5644954e+2, -1609949.8, -1468817.6, 110486.7, -0.18921947, -0.12242541, -1408284.9, -1500.7496, 0.004090086, 9.998509, 10.000379 
1.6750717e+3, 1.6644977e+2, -1407011.1, -1301585.5, 84644.445, -0.18891306, -0.14445509, -1254582.0, 54199.914, 0.0005678562, 9.999152, 10.000538 
1.6750705e+3, 1.7645101e+2, -1318805.8, -1208795.0, 57751.82, 0.23230487, -0.094158605, -1184045.4, 26722.873, 0.000011659807, 9.99909, 10.000531 
1.6750638e+3, 1.8645109e+2, -1253293.5, -1273069.1, -14121.662, 0.23527972, -0.06434836, -1245942.1, -133171.81, 0.0, 9.999485, 9.999234 
1.6750538e+3, 1.9645031e+2, -1053812.9, -1102057.4, 14417.334, -0.026866883, -0.09144038, -1049832.8, -35049.484, 0.0, 10.000093, 9.999433 
1.6750467e+3, 2.0645007e+2, -1008571.06, -1052488.8, 58476.8, -0.097804844, -0.044924743, -968066.1, -51278.18, 0.0, 9.999816, 9.999247 
1.6750415e+3, 2.1645023e+2, -1013140.75, -978604.94, 50654.37, -0.044607818, 0.023025451, -942356.06, -123568.734, 0.0, 9.999004, 9.999472 
1.6750357e+3, 2.2644962e+2, -851600.4, -834393.9, 42906.4, -0.029927982, 0.012868509, -799236.7, -78443.086, 0.0, 9.999377, 9.999602 
1.6750295e+3, 2.3644865e+2, -587108.0, -651825.7, 54253.535, -0.03418182, -0.06974412, -556296.1, 66507.59, 0.0, 10.000501, 9.99964 
1.6750231e+3, 2.4644862e+2, -490190.16, -667334.06, 10977.956, -0.0112377815, 0.022985352, -489512.44, 35292.87, 0.0, 10.000974, 9.99864 
1.6750163e+3, 2.5644913e+2, -367457.94, -556634.44, 18845.674, 0.027154164, 0.18730605, -365598.8, 61203.22, 0.0000000017385277, 10.001148, 9.998637 
1.6750096e+3, 2.664461e+2, -268192.03, -608615.3, 35968.477, -0.014889551, 0.10055237, -264433.2, 64399.254, 0.0000048816705, 10.001802, 9.997294 
1.6750033e+3, 2.764411e+2, -2677.5164, -386183.75, -16469.156, -0.099297635, -0.15664057, -1971.5701, 228910.1, 0.00005151775, 10.00276, 9.997691 
1.6749977e+3, 2.8643927e+2, 201275.53, -105854.445, -41370.03, -0.0043396987, -0.17168286, 206750.42, 339646.5, 0.00026894332, 10.002928, 9.998859 
1.6749926e+3, 2.9643938e+2, 257957.13, -44956.26, 25615.527, 0.1940793, -0.071866624, 260108.0, 294997.47, 0.0008797798, 10.002722, 9.998701 
1.6749859e+3, 3.064374e+2, 279052.72, -246168.61, 25530.031, 0.25732115, -0.014301423, 280290.75, 280290.75, 0.0019584836, 10.003565, 9.99658 
1.6749772e+3, 3.1643617e+2, 607370.1, 102672.54, 2372.6975, 0.13225733, 0.17107394, 607381.25, 607381.25, 0.0033176232, 10.0050125, 9.998274 
1.6850962e+3, 1.2645224e+2, -2331902.5, -1619632.1, -107406.4, -0.13071677, 0.07762185, -1603788.3, 96981.15, 0.04776628, 9.994038, 10.00355 
1.685091e+3, 1.3645422e+2, -1703750.8, -1237026.1, -96424.53, 0.2452154, -0.15863897, -1217889.6, 384847.5, 0.030093629, 9.997548, 10.003853 
1.6850859e+3, 1.4645681e+2, -1685556.8, -1576010.1, 40865.195, 0.40557593, -0.08150778, -1562445.4, -57738.48, 0.0144471, 9.998747, 10.0002 
1.685076e+3, 1.5645581e+2, -1619585.4, -1487749.9, 62793.695, -0.13573973, -0.21797056, -1462628.1, -55911.477, 0.004479329, 9.998506, 10.000247 
1.685071e+3, 1.6645612e+2, -1596940.4, -1479993.8, 17925.24, -0.12752223, -0.18207349, -1477307.9, -168591.9, 0.0006375465, 9.998218, 9.999769 
1.6850694e+3, 1.7645764e+2, -1511706.9, -1364792.8, -26326.6, 0.25547865, -0.032530572, -1360217.6, -149512.81, 0.00001399049, 9.998034, 9.999972 
1.6850628e+3, 1.8645732e+2, -1426304.5, -1306098.3, -76233.375, 0.2624332, -0.043570794, -1269124.5, -156414.72, 0.0, 9.998095, 9.999671 
1.6850536e+3, 1.9645575e+2, -1277360.3, -1169034.0, -52513.293, 0.021606173, -0.19021338, -1147756.5, -133030.64, 0.0, 9.99838, 9.999802 
1.6850467e+3, 2.0645571e+2, -1074055.6, -1071513.6, 13133.94, -0.05936351, -0.14703536, -1059589.4, -142861.33, 0.0, 9.999316, 9.999356 
1.6850413e+3, 2.1645667e+2, -773482.8, -849700.9, 28835.799, -0.035492625, -0.009944228, -763802.7, 54918.21, 0.0, 10.0006075, 9.999575 
1.6850358e+3, 2.2645633e+2, -642165.3, -760847.1, 21040.031, -0.02094166, 0.012249143, -638545.7, 82179.96, 0.0, 10.000925, 9.99937 
1.6850303e+3, 2.3645523e+2, -574642.75, -665286.44, -19132.348, -0.019624397, -0.058694493, -570769.94, 51967.43, 0.0, 10.000673, 9.999469 
1.6850244e+3, 2.4645512e+2, -479187.75, -651274.56, -57759.926, 0.01902323, 0.029153349, -461598.72, 63141.04, 0.0, 10.001, 9.998735 
1.6850181e+3, 2.5645554e+2, -288641.3, -515184.78, -38571.55, 0.072597675, 0.17403547, -282254.16, 144483.2, 0.0000000018399801, 10.001662, 9.99868 
1.6850118e+3, 2.6645264e+2, -200345.22, -594467.25, 63297.07, 0.001430443, 0.107965775, -190429.03, 138338.8, 0.0000039092515, 10.00235, 9.997127 
1.6850057e+3, 2.764478e+2, 42119.895, -369868.9, 74648.25, -0.1414738, -0.115618296, 55228.336, 286045.63, 0.000046398793, 10.003103, 9.997629 
1.6850004e+3, 2.864463e+2, 258703.48, -39323.203, -18086.469, -0.045242276, -0.11831584, 259797.1, 392625.47, 0.000254962, 10.003153, 9.999209 
1.6849953e+3, 2.964469e+2, 291003.6, 840.0578, -67194.375, 0.18454242, -0.0026123428, 305808.66, 340623.66, 0.0008516274, 10.002822, 9.998966 
1.6849898e+3, 3.0644435e+2, 295850.63, -291813.56, -34733.37, 0.27438918, 0.009136059, 297896.4, 297896.4, 0.0019291163, 10.003891, 9.9961195 
1.684983e+3, 3.1644037e+2, 676423.6, 74667.36, -102800.53, 0.1838831, -0.025038518, 693500.9, 693500.9, 0.0033162325, 10.005702, 9.997776 
1.6950935e+3, 1.2645754e+2, -2393191.3, -1769123.1, -22650.068, 0.17186725, -0.07731946, -1768302.1, -67591.34, 0.051028147, 9.994143, 10.002446 
1.6950831e+3, 1.364615e+2, -1760814.1, -1341965.8, 20017.164, -0.30289617, -0.02311644, -1341011.4, 261653.78, 0.032295942, 9.997495, 10.003142 
1.6950798e+3, 1.4646222e+2, -1653764.3, -1508614.8, 28034.178, -0.101322696, -0.13030837, -1503388.4, 1264.3331, 0.015627254, 9.998736, 10.0006695 
1.6950776e+3, 1.5646078e+2, -1605126.9, -1456760.6, 56950.273, 0.16808294, -0.35270128, -1437421.3, -30758.637, 0.004910431, 9.998502, 10.000464 
1.6950719e+3, 1.6646118e+2, -1653774.1, -1607969.8, 5043.3726, 0.1364567, -0.26269156, -1607421.1, -298757.63, 0.0007170378, 9.998258, 9.998872 
1.6950648e+3, 1.7646286e+2, -1559231.9, -1468942.1, -27356.668, -0.0140411835, -0.009786289, -1461300.3, -250642.8, 0.000016975888, 9.998054, 9.999249 
1.6950588e+3, 1.864628e+2, -1388464.5, -1236901.8, -70667.41, 0.028799344, 0.011071226, -1209065.1, -96405.164, 0.0, 9.998132, 10.000131 
1.6950534e+3, 1.9646177e+2, -1247051.8, -1103424.1, -32645.027, 0.16062601, -0.12800531, -1096352.5, -81685.07, 0.0, 9.998368, 10.000258 
1.6950478e+3, 2.0646164e+2, -1042859.7, -996524.2, 57278.32, 0.10640172, -0.14226563, -957905.6, -41237.69, 0.0, 9.99927, 9.999894 
1.695042e+3, 2.1646212e+2, -757479.5, -806227.0, 73309.97, -0.03965909, -0.10394983, -704597.6, 114066.06, 0.0, 10.000557, 9.999901 
1.6950366e+3, 2.2646216e+2, -705049.8, -875178.6, 5826.756, -0.043966584, -0.016035955, -704850.5, 15815.772, 0.0, 10.000855, 9.998616 
1.6950315e+3, 2.3646188e+2, -629579.25, -761190.2, -16196.08, 0.025982514, 0.07094134, -627615.5, -4942.466, 0.0, 10.000592, 9.998852 
1.6950256e+3, 2.4646032e+2, -472531.53, -610424.4, -34689.043, 0.04260716, 0.019505577, -464296.75, 60392.566, 0.0, 10.000888, 9.99907 
1.6950195e+3, 2.5645807e+2, -272029.97, -461389.2, -6758.316, 0.035261232, -0.1330947, -271789.06, 154921.33, 0.0000000033657745, 10.001585, 9.999086 
1.6950144e+3, 2.664577e+2, -147507.56, -465524.0, 89176.15, 0.004968703, -0.016575253, -124208.36, 204507.89, 0.0000030031388, 10.002266, 9.998052 
1.69501e+3, 2.7645835e+2, 73533.586, -285559.0, 104942.87, -0.033878844, 0.2149787, 101953.34, 332667.1, 0.000041424442, 10.003027, 9.9982395 
1.6950041e+3, 2.8645673e+2, 164197.2, -217874.58, -36438.754, 0.009165498, 0.24397273, 167641.38, 300368.44, 0.00024197955, 10.003072, 9.998024 
1.6949973e+3, 2.9645395e+2, 205510.08, -160464.23, -59899.082, 0.097981036, 0.13632135, 215064.34, 249812.61, 0.0008207898, 10.002744, 9.9979 
1.6949934e+3, 3.0644888e+2, 230439.89, -385197.34, 31098.457, 0.240708, -0.02381966, 232006.81, 232006.81, 0.0018789137, 10.003726, 9.995548 
1.6949902e+3, 3.1644166e+2, 590093.4, -39224.434, -30855.402, 0.32902172, -0.32670552, 591602.6, 591602.6, 0.0032641466, 10.005454, 9.997093 
1.7050901e+3, 1.2646252e+2, -1983823.5, -1697574.8, 6320.2363, 0.24823207, -0.21515335, -1697435.3, 3218.3772, 0.054460447, 9.997477, 10.001336 
1.7050807e+3, 1.3646623e+2, -1953942.0, -1581835.0, -20895.703, -0.2595806, -0.029222442, -1580665.3, 21952.203, 0.034638863, 9.99682, 10.001773 
1.7050768e+3, 1.4646642e+2, -1899676.5, -1584609.5, -68138.65, -0.16704227, -0.14879578, -1570504.9, -65891.7, 0.016903277, 9.996881, 10.001039 
1.7050758e+3, 1.5646602e+2, -1720209.0, -1464339.6, -50733.52, 0.1900692, -0.30641058, -1454647.4, -48034.61, 0.00538814, 9.997515, 10.000882 
1.7050707e+3, 1.6646664e+2, -1563555.5, -1528335.3, -19101.418, 0.16950975, -0.23328367, -1519965.0, -211353.98, 0.0008082668, 9.998718, 9.9992 
1.7050636e+3, 1.7646785e+2, -1212836.5, -1269523.1, 27913.432, -0.04160907, -0.05841029, -1201399.1, 9209.408, 0.000020835996, 10.000292, 9.999542 
1.7050579e+3, 1.8646815e+2, -1045867.7, -1074118.4, -23493.436, -0.0004922847, -0.013647221, -1032580.1, 80027.36, 0.0, 10.000488, 10.000116 
1.7050527e+3, 1.9646797e+2, -1019089.6, -995514.94, -24398.895, 0.17213503, -0.06559359, -980205.25, 34401.617, 0.0, 9.999941, 10.000243 
1.7050473e+3, 2.0646758e+2, -1005689.9, -996714.9, 53725.92, 0.1292401, -0.09574456, -947289.4, -30679.72, 0.0, 9.99961, 9.999721 
1.705042e+3, 2.1646714e+2, -922290.8, -899661.56, 8342.332, -0.037101347, -0.13369632, -896918.6, -78304.83, 0.0, 9.999489, 9.999772 
1.705037e+3, 2.2646706e+2, -824274.25, -902703.7, -34100.254, -0.038995698, -0.06581673, -811521.5, -90904.95, 0.0, 9.999914, 9.998877 
1.7050323e+3, 2.3646714e+2, -608512.3, -728488.5, 6611.013, 0.05452598, 0.028812215, -608149.1, 14469.635, 0.0, 10.000645, 9.9990425 
1.7050269e+3, 2.4646556e+2, -460656.38, -643873.9, 4589.9546, 0.060928196, -0.010911279, -460541.44, 64094.164, 0.0, 10.001139, 9.998721 
1.7050208e+3, 2.564631e+2, -292141.88, -488533.0, -27581.482, 0.0139544355, -0.15241975, -288341.8, 138318.48, 0.0000000026261497, 10.001529, 9.998923 
1.7050168e+3, 2.6646292e+2, -197828.47, -409110.88, 42562.742, 0.04544914, -0.050739024, -189576.52, 139085.72, 0.0000021613648, 10.001578, 9.998769 
1.7050137e+3, 2.7646407e+2, -119334.39, -327044.2, 32827.668, 0.116585255, 0.16312301, -114269.61, 116381.36, 0.000036573332, 10.001473, 9.99871 
1.7050081e+3, 2.8646204e+2, 69557.23, -353801.63, -64094.277, 0.11870394, 0.17924155, 79047.99, 211716.81, 0.00022739316, 10.002819, 9.99721 
1.705001e+3, 2.9645818e+2, 487865.47, -101450.41, -78757.15, 0.08033458, 0.047188286, 498209.16, 532912.7, 0.0007810647, 10.00502, 9.9972105 
1.7049973e+3, 3.0645335e+2, 470985.4, -257758.25, 50742.367, 0.19328982, -0.06572003, 474501.63, 474501.63, 0.0017955845, 10.005333, 9.9956455 
1.7049955e+3, 3.1644717e+2, 444285.13, -136004.47, -1041.5648, 0.35370275, -0.27267033, 444287.0, 444287.0, 0.00313733, 10.004543, 9.996863 
1.7150855e+3, 1.2646723e+2, -2061414.1, -1849587.6, 11592.473, 0.017240407, -0.34725076, -1848955.1, -148357.83, 0.058051143, 9.997444, 10.000303 
1.7150833e+3, 1.3646874e+2, -2101295.5, -1884600.0, -34164.266, 0.30268925, -0.15678899, -1879341.3, -276750.03, 0.037118543, 9.996818, 9.999691 
1.7150769e+3, 1.4646961e+2, -1869132.5, -1540502.9, -48156.773, 0.12860171, -0.12569353, -1533591.4, -29005.227, 0.018276531, 9.996949, 10.001315 
1.7150706e+3, 1.564715e+2, -1683335.4, -1388585.4, -16792.607, -0.10616545, -0.08949066, -1387631.8, 18935.879, 0.005915651, 9.997509, 10.00141 
1.7150673e+3, 1.6647242e+2, -1454586.9, -1300088.3, 33594.66, -0.06025641, -0.10090288, -1293099.4, 15459.907, 0.0009130136, 9.9987135, 10.000765 
1.7150657e+3, 1.7647268e+2, -1132467.9, -1091559.3, 79139.69, 0.13056132, -0.17446543, -1030273.3, 180284.58, 0.000025810483, 10.000251, 10.000781 
1.7150597e+3, 1.8647337e+2, -1077926.9, -1139646.3, -48347.3, 0.12185332, -0.11449896, -1051430.0, 61122.36, 0.0, 10.00048, 9.999671 
1.7150511e+3, 1.9647442e+2, -1056127.9, -1071227.8, -37646.094, 0.010974977, -0.002474817, -1025282.06, -10738.176, 0.0, 9.999934, 9.999727 
1.7150454e+3, 2.0647354e+2, -1068081.4, -1125121.3, 44908.32, -0.046062868, -0.008300107, -1043402.2, -126849.125, 0.0, 9.999606, 9.99884 
1.7150412e+3, 2.1647164e+2, -972613.9, -987996.4, 12826.914, -0.06859937, -0.105994664, -965349.0, -146777.2, 0.0, 9.999421, 9.999196 
1.7150371e+3, 2.2647093e+2, -752606.44, -733329.06, -9658.293, -0.039325044, -0.14657523, -729322.75, -8745.265, 0.0, 9.999822, 10.000087 
1.7150328e+3, 2.3647094e+2, -557480.2, -604450.0, 36711.496, 0.018536678, -0.17695893, -537384.44, 85190.61, 0.0, 10.000567, 9.999933 
1.7150275e+3, 2.464708e+2, -538969.4, -789670.5, 13627.509, 0.011108036, -0.056748357, -538230.8, -13651.315, 0.0, 10.001063, 9.997756 
1.7150219e+3, 2.5647053e+2, -355611.9, -604436.44, -9260.292, -0.032328304, 0.11463895, -355267.75, 71320.38, 0.0000000000058928205, 10.00146, 9.998159 
1.7150187e+3, 2.6646823e+2, -177111.95, -347948.1, 33660.84, 0.077347144, 0.010698503, -170718.81, 157887.86, 0.0000014626683, 10.0015, 9.9992285 
1.7150167e+3, 2.7646485e+2, -110194.05, -284502.63, 48182.98, 0.26699513, -0.27310187, -97761.84, 132868.58, 0.000032081512, 10.001378, 9.999046 
1.7150122e+3, 2.8646204e+2, 19175.62, -435419.22, 16033.266, 0.2269167, -0.319882, 19740.4, 152395.7, 0.00021176567, 10.002716, 9.996699 
1.715006e+3, 2.9645962e+2, 449749.34, -158156.03, 1044.9738, 0.06597495, -0.26266056, 449751.16, 484432.06, 0.0007336498, 10.004923, 9.996866 
1.7150016e+3, 3.0645782e+2, 495171.4, -172543.67, 16778.41, 0.062966906, -0.093403496, 495592.75, 495592.75, 0.0016879381, 10.005191, 9.996299 
1.7149985e+3, 3.164562e+2, 429991.44, -103919.18, -14848.699, 0.17509109, 0.09633118, 430404.06, 430404.06, 0.002958108, 10.004303, 9.997192 
1.7250828e+3, 1.2647213e+2, -1921419.6, -1731681.1, -59062.1, -0.025860596, -0.2884991, -1714798.4, -14247.4375, 0.06177432, 9.998177, 10.000762 
1.7250814e+3, 1.364722e+2, -1967123.9, -1836811.8, -21461.46, 0.3793271, -0.23736723, -1833368.1, -230810.56, 0.039721623, 9.997816, 9.999531 
1.7250746e+3, 1.4647372e+2, -1768903.0, -1501299.0, 56739.074, 0.16095382, -0.1231039, -1489765.9, 14781.148, 0.019743169, 9.99767, 10.001241 
1.7250682e+3, 1.5647613e+2, -1618607.4, -1347352.8, 52014.668, -0.099079095, -0.03925434, -1337720.6, 68805.73, 0.006494274, 9.997894, 10.001517 
1.7250657e+3, 1.6647735e+2, -1548008.6, -1274880.9, 68592.16, -0.044489283, -0.05873099, -1258622.8, 49890.914, 0.001032908, 9.99777, 10.001392 
1.7250648e+3, 1.764779e+2, -1488513.5, -1202592.9, 36447.95, 0.15367197, -0.1674071, -1198019.8, 12486.347, 0.00003215152, 9.997545, 10.001319 
1.7250592e+3, 1.864787e+2, -1371807.0, -1288041.5, -90338.15, 0.12784532, -0.11751772, -1230349.4, -117850.65, 0.0, 9.998494, 9.99961 
1.725051e+3, 1.964797e+2, -1020919.94, -1062205.3, -63319.695, -0.019047193, -0.0026029062, -974963.0, 39528.23, 0.0, 10.000211, 9.999654 
1.7250454e+3, 2.0647863e+2, -875182.9, -1065011.1, 48227.82, -0.07281751, -0.010138655, -863632.9, 52869.895, 0.0, 10.001064, 9.998559 
1.7250416e+3, 2.1647637e+2, -694414.0, -883993.2, 50551.363, -0.07317765, -0.11577924, -681776.8, 136748.36, 0.0, 10.001452, 9.998938 
1.725038e+3, 2.2647546e+2, -590181.94, -675325.6, -17323.404, 0.009756064, -0.15102461, -586792.25, 133740.67, 0.0, 10.001033, 9.999897 
1.7250341e+3, 2.3647545e+2, -619608.0, -653586.1, -78015.766, 0.12728222, -0.16326083, -556752.9, 65778.39, 0.0, 10.000224, 9.999761 
1.7250292e+3, 2.4647523e+2, -558803.9, -792136.94, -49782.258, 0.07830074, -0.046292216, -548626.56, -24091.373, 0.0, 10.000906, 9.997809 
1.7250234e+3, 2.5647488e+2, -213381.42, -539834.06, -16726.623, -0.067993164, 0.110702015, -212526.63, 214015.94, 0.0000000000049057277, 10.002455, 9.998122 
1.7250204e+3, 2.6647183e+2, -3173.783, -315634.8, -16957.568, 0.029860936, -0.03859438, -2256.1738, 326311.56, 0.0000011502509, 10.002917, 9.998766 
1.7250188e+3, 2.7646735e+2, 72475.625, -233239.7, -72179.56, 0.2590526, -0.38819405, 88660.42, 319263.06, 0.000029088935, 10.002785, 9.998722 
1.7250152e+3, 2.8646484e+2, 102608.35, -340746.0, -22513.668, 0.24345115, -0.4172304, 103748.664, 236373.16, 0.0002003837, 10.003061, 9.99718 
1.7250104e+3, 2.9646358e+2, 290083.56, -186389.31, 5323.925, 0.081143245, -0.29206803, 290143.03, 324781.56, 0.0006934499, 10.003629, 9.997287 
1.7250058e+3, 3.064621e+2, 310400.03, -268948.34, -27080.453, 0.042325187, -0.10969823, 311663.1, 311663.1, 0.0015927763, 10.00393, 9.996257 
1.7250027e+3, 3.1646147e+2, 394500.84, -130133.71, -121333.58, 0.18670805, 0.18936539, 421202.94, 421202.94, 0.0027959824, 10.004061, 9.997152 
1.7350818e+3, 1.2647747e+2, -1786043.3, -1469291.5, -4101.4395, 0.013099849, -0.02537151, -1469238.4, 231273.4, 0.06561491, 9.998189, 10.002666 
1.7350748e+3, 1.3647652e+2, -1856860.0, -1597082.3, -36138.242, -0.06503721, -0.27983525, -1592148.8, 10368.8125, 0.042436883, 9.997764, 10.001205 
1.7350698e+3, 1.4647868e+2, -1797826.3, -1559458.3, 58962.063, -0.105494894, -0.14894968, -1545671.0, -41173.9, 0.021297567, 9.997664, 10.00084 
1.7350687e+3, 1.5647994e+2, -1642573.6, -1392979.6, 62082.65, 0.14868465, -0.14495909, -1378390.3, 28097.79, 0.0071235094, 9.997884, 10.001204 
1.7350656e+3, 1.6648157e+2, -1557823.9, -1309748.9, 54772.992, 0.15175852, -0.096333876, -1298193.6, 10279.024, 0.0011691477, 9.997821, 10.001133 
1.735061e+3, 1.7648357e+2, -1499541.4, -1230983.1, 40837.44, -0.008513158, -0.03317747, -1224910.6, -14458.145, 0.00004011834, 9.99756, 10.0011215 
1.7350563e+3, 1.8648408e+2, -1347648.8, -1243948.3, -32765.277, -0.024394326, -0.020213367, -1234463.3, -122016.38, 0.0, 9.998522, 9.999898 
1.7350517e+3, 1.9648376e+2, -1009147.3, -1025758.8, -3297.68, 0.04466978, -0.06430013, -1008516.6, 5933.028, 0.0, 10.000161, 9.9999275 
1.7350474e+3, 2.0648272e+2, -858137.4, -1019981.1, 56234.65, 0.002002487, -0.09798279, -840516.44, 75943.21, 0.0, 10.0010195, 9.99889 
1.7350428e+3, 2.1648134e+2, -702144.06, -882803.25, 62871.113, -0.100997366, -0.15007986, -682418.2, 136055.06, 0.0, 10.00138, 9.998979 
1.7350395e+3, 2.2648071e+2, -711642.56, -912110.56, -53282.426, 0.045850154, -0.06821818, -698360.6, 22121.785, 0.0, 10.000964, 9.998304 
1.7350367e+3, 2.3648061e+2, -714165.0, -832234.5, -90772.01, 0.331887, 0.06443836, -664919.25, -42431.004, 0.0, 10.000149, 9.9985695 
1.7350315e+3, 2.4647883e+2, -502635.72, -653234.9, 6278.881, 0.21269323, 0.017287403, -502374.38, 22129.158, 0.0, 10.000809, 9.998812 
1.7350252e+3, 2.5647607e+2, -178970.17, -449578.56, 40335.58, -0.13719091, -0.16033606, -173085.89, 253438.36, 0.000000000000012544113, 10.0023775, 9.998779 
1.7350216e+3, 2.6647365e+2, -114436.84, -523681.2, -24990.695, -0.14967206, -0.1974374, -112916.42, 215629.89, 0.0000010511417, 10.002818, 9.997383 
1.7350194e+3, 2.7647156e+2, -11606.66, -383882.5, -65149.664, 0.037688285, -0.17412774, -534.53, 230033.38, 0.000028849088, 10.0026865, 9.997729 
1.735017e+3, 2.864705e+2, 187500.06, -148340.89, -6855.186, 0.098932736, -0.09718095, 187639.94, 320216.2, 0.00019663657, 10.002984, 9.998541 
1.735014e+3, 2.9646975e+2, 350009.03, -42427.01, 32404.908, 0.07529507, -0.05096392, 352666.84, 387246.5, 0.00067238376, 10.003541, 9.99832 
1.7350101e+3, 3.064658e+2, 237035.23, -381643.97, -29126.254, 0.059304662, -0.11843983, 238403.42, 238403.42, 0.0015421496, 10.00377, 9.99555 
1.7350076e+3, 3.1646213e+2, 320424.34, -204534.53, -79693.54, 0.25507197, -0.070236176, 332255.88, 332255.88, 0.002716189, 10.00375, 9.996773 
1.7450795e+3, 1.2648197e+2, -2075826.1, -1608338.0, 142120.44, 0.069191, 0.058397293, -1568523.1, 131949.55, 0.06957688, 9.996249, 10.002599 
1.7450713e+3, 1.3648127e+2, -1937142.8, -1602445.4, -100280.14, -0.1512374, -0.19577754, -1574700.0, 27775.396, 0.045260757, 9.997059, 10.001519 
1.7450671e+3, 1.4648357e+2, -1815036.4, -1538985.0, 4912.735, -0.11387781, -0.08257148, -1538897.6, -34445.69, 0.022935338, 9.997428, 10.001093 
1.7450663e+3, 1.5648481e+2, -1645608.8, -1382457.5, 39904.137, 0.123412766, -0.10348526, -1376539.5, 29900.646, 0.0078018596, 9.997816, 10.001305 
1.7450637e+3, 1.6648583e+2, -1480194.8, -1353564.1, 39489.586, 0.13887154, -0.08111544, -1342258.6, -33827.64, 0.0013223152, 9.998708, 10.000404 
1.74506e+3, 1.7648683e+2, -1192044.9, -1153192.3, -15953.92, 0.024451755, -0.043406576, -1147480.8, 62941.043, 0.000049909977, 9.999974, 10.000493 
1.7450559e+3, 1.864869e+2, -1086694.9, -1121053.4, -98910.37, -0.003653413, -0.047077287, -1003483.0, 108937.87, 0.0000000000000006446772, 10.000327, 9.999868 
1.7450516e+3, 1.9648641e+2, -1003359.06, -1020355.44, -104666.54, 0.012587095, -0.10559448, -906846.3, 107578.48, 0.0, 10.000187, 9.99995 
1.7450482e+3, 2.064859e+2, -982874.6, -1047949.4, -64460.363, 0.024962071, -0.10467901, -943205.25, -26775.33, 0.0, 10.000023, 9.999174 
1.7450447e+3, 2.1648543e+2, -895953.1, -955906.1, -71588.39, 0.029808797, -0.09356063, -848318.5, -29883.32, 0.0, 9.999953, 9.999165 
1.7450407e+3, 2.2648476e+2, -787756.0, -1001439.9, -125956.86, 0.08676048, 0.0013309374, -729430.4, -8985.01, 0.0, 10.000672, 9.997834 
1.745036e+3, 2.3648398e+2, -489775.53, -764002.7, -89127.98, 0.17174724, 0.116049565, -463353.38, 159104.64, 0.0, 10.001864, 9.998212 
1.745032e+3, 2.4648154e+2, -284373.22, -512885.25, 28359.791, 0.119403325, 0.00032607914, -280906.2, 243571.25, 0.0, 10.002157, 9.999123 
1.7450285e+3, 2.564782e+2, -223183.3, -442880.1, -2447.8315, -0.021537215, -0.26962537, -223156.03, 203344.31, 0.0, 10.001954, 9.999027 
1.7450252e+3, 2.6647654e+2, -219160.4, -585836.2, -34230.063, -0.03528779, -0.236694, -215992.33, 112523.29, 0.0000010008785, 10.002145, 9.997285 
1.7450218e+3, 2.7647597e+2, -28626.967, -407007.72, 8861.284, 0.018283384, -0.047556434, -28419.559, 202105.66, 0.00002996529, 10.002625, 9.997605 
1.7450197e+3, 2.8647456e+2, 174268.9, -180404.34, 47337.81, 0.09103359, 0.0142578995, 180478.31, 313016.25, 0.00019663884, 10.003019, 9.998301 
1.7450184e+3, 2.9647228e+2, 316086.06, -76231.06, -46070.543, 0.16593593, -0.066246636, 321423.6, 355979.44, 0.00066985126, 10.003379, 9.998171 
1.7450145e+3, 3.0646795e+2, 395163.03, -209546.28, -56773.91, 0.105724126, -0.21060185, 400447.16, 400447.16, 0.001546799, 10.004427, 9.996426 
1.7450123e+3, 3.164649e+2, 752347.1, 141033.5, 1732.5275, 0.2319586, -0.1967248, 752352.0, 752352.0, 0.0027465455, 10.006112, 9.998015 
1.755076e+3, 1.2648545e+2, -2230136.8, -1902965.9, 193549.05, 0.07388325, -0.056057833, -1813131.9, -112696.24, 0.07366958, 9.996191, 10.000536 
1.7550705e+3, 1.3648662e+2, -2012387.5, -1750174.0, -75088.69, 0.05145997, 0.022105008, -1730193.8, -127763.81, 0.048192136, 9.997036, 10.0005045 
1.7550665e+3, 1.464886e+2, -1749469.6, -1411188.4, 10830.49, 0.07207727, 0.09191361, -1410842.0, 93567.195, 0.024652572, 9.997445, 10.001983 
1.7550609e+3, 1.564908e+2, -1611153.8, -1308884.0, 64053.79, -0.20947856, 0.08466827, -1295870.8, 110511.7, 0.008527423, 9.997805, 10.001821 
1.75506e+3, 1.6649008e+2, -1565964.6, -1533952.8, 79961.055, -0.122682564, -0.015886182, -1468411.4, -160022.61, 0.0014925194, 9.998717, 9.999165 
1.7550617e+3, 1.7648768e+2, -1273118.4, -1312244.0, 27951.568, 0.20528768, -0.19510809, -1258563.8, -48149.902, 0.00006156021, 9.999939, 9.999418 
1.7550577e+3, 1.8648718e+2, -1107304.0, -1163766.1, -107340.25, 0.13498549, -0.19438952, -1024544.5, 87875.7, 0.0000000010737394, 10.000321, 9.999578 
1.7550501e+3, 1.9648777e+2, -1023346.56, -1056449.4, -104543.36, -0.16875792, -0.11950106, -934052.5, 80363.01, 0.0, 10.000163, 9.999714 
1.7550473e+3, 2.064882e+2, -969908.4, -1017895.44, -73414.27, -0.060595345, -0.025926942, -916666.25, -253.1185, 0.0, 10.000005, 9.999391 
1.7550473e+3, 2.1648861e+2, -884923.7, -919529.9, -64417.375, 0.2803475, 0.05033664, -835526.0, -17114.531, 0.0, 9.999892, 9.999446 
1.7550415e+3, 2.2648753e+2, -753807.0, -917633.0, -83873.12, 0.08998333, 0.058114097, -718483.3, 1939.1409, 0.0, 10.000609, 9.998441 
1.7550322e+3, 2.364856e+2, -468804.75, -704788.6, -44729.797, -0.39738297, -0.0027376877, -460610.9, 161829.72, 0.0, 10.001798, 9.99865 
1.7550305e+3, 2.464834e+2, -326724.16, -580740.44, 16185.178, -0.26440394, -0.089481615, -325697.03, 198760.03, 0.0, 10.002068, 9.998702 
1.7550331e+3, 2.564811e+2, -247260.36, -472637.34, -1732.8472, 0.22910129, -0.2147801, -247247.03, 179224.75, 0.0, 10.001868, 9.998863 
1.755031e+3, 2.6648036e+2, -151169.98, -428963.1, -20406.51, 0.31531152, -0.14848836, -149678.94, 178797.56, 0.00000094846536, 10.002072, 9.998398 
1.7550258e+3, 2.764805e+2, 6382.4106, -311539.16, 33583.65, 0.15423162, 0.001925449, 9891.293, 240366.53, 0.000030532858, 10.002533, 9.998302 
1.7550237e+3, 2.8647694e+2, 30820.813, -459669.56, 56332.19, 0.1652402, -0.077206455, 37207.336, 169717.84, 0.00019885889, 10.002931, 9.9964285 
1.755023e+3, 2.9647106e+2, 202738.86, -282979.03, -16466.686, 0.28568462, -0.33564717, 203296.47, 237864.5, 0.00068659626, 10.003255, 9.99681 
1.755019e+3, 3.064687e+2, 526617.7, 111497.03, -3878.6104, 0.09603652, -0.35249218, 526653.94, 526653.94, 0.0016033906, 10.004235, 9.998717 
1.7550166e+3, 3.1647038e+2, 873687.9, 468112.06, 110281.484, 0.035359178, -0.107212216, 901735.25, 901735.25, 0.002866251, 10.005827, 10.000393 
1.7650737e+3, 1.2648748e+2, -2067767.9, -1795802.6, 60285.52, 0.18383831, -0.093283385, -1783038.4, -82622.02, 0.07790593, 9.997179, 10.000785 
1.7650673e+3, 1.3648985e+2, -1861323.1, -1660481.5, -94376.19, -0.026914729, 0.08383512, -1623093.8, -20695.223, 0.05123237, 9.997996, 10.000656 
1.7650653e+3, 1.4649048e+2, -1615561.9, -1399926.4, -28590.475, 0.14650671, 0.034819905, -1396200.1, 108191.555, 0.026445003, 9.998599, 10.001502 
1.7650597e+3, 1.5649258e+2, -1438195.9, -1277197.4, -86593.64, -0.18219405, 0.07047741, -1239465.5, 166901.34, 0.009296644, 9.999221, 10.001356 
1.7650586e+3, 1.6649207e+2, -1521613.6, -1501953.1, -41681.64, -0.14130378, 0.009503958, -1468958.3, -160586.69, 0.0016790463, 9.998981, 9.999251 
1.7650607e+3, 1.7648986e+2, -1508285.3, -1413670.6, -8787.359, 0.18288545, -0.16432486, -1412861.4, -202465.86, 0.000074904594, 9.99827, 9.999524 
1.765057e+3, 1.8648964e+2, -1337820.8, -1249399.6, -67373.62, 0.12299207, -0.15263973, -1213026.3, -100627.58, 0.000000009428086, 9.998631, 9.999807 
1.76505e+3, 1.964907e+2, -1065480.1, -1053242.1, -39937.566, -0.1864535, -0.049886238, -1018957.5, -4568.899, 0.0, 9.999769, 9.99993 
1.7650473e+3, 2.064911e+2, -960118.1, -1003222.3, -11782.743, -0.054747928, 0.026213972, -957107.5, -40721.73, 0.0, 10.000043, 9.99947 
1.7650478e+3, 2.1649113e+2, -881364.06, -903824.75, -16174.674, 0.33121485, 0.058361582, -872903.25, -54516.18, 0.0, 9.999871, 9.9995575 
1.7650424e+3, 2.2648989e+2, -732996.25, -878123.75, -4064.4448, 0.12440297, 0.027827784, -732882.5, -12484.462, 0.0, 10.000626, 9.998703 
1.7650338e+3, 2.3648788e+2, -442178.9, -678244.2, -10865.138, -0.42332363, -0.06294591, -441679.88, 180734.55, 0.0, 10.001917, 9.998776 
1.7650324e+3, 2.4648565e+2, -407448.66, -693962.25, -20792.326, -0.26704416, -0.11830108, -405947.63, 118484.92, 0.0, 10.001839, 9.998036 
1.7650351e+3, 2.564834e+2, -407498.0, -607864.8, -62182.934, 0.28771582, -0.17383002, -389768.6, 36682.184, 0.0, 10.001022, 9.998343 
1.7650335e+3, 2.6648235e+2, -222165.16, -422759.9, -74669.625, 0.39817348, -0.13129444, -197422.08, 131035.29, 0.0000007067664, 10.00142, 9.998752 
1.7650293e+3, 2.7648202e+2, 21859.47, -278920.56, -90028.79, 0.23939262, -0.06398821, 46747.35, 277205.22, 0.00002910251, 10.002528, 9.998529 
1.7650272e+3, 2.86478e+2, 74303.32, -478361.3, -16192.779, 0.20334849, -0.17456536, 74777.35, 207274.08, 0.00020251243, 10.003395, 9.996074 
1.7650263e+3, 2.9647204e+2, 313392.8, -272038.63, -1447.9308, 0.24945998, -0.40878025, 313396.4, 347952.72, 0.0007165525, 10.004197, 9.996428 
1.765023e+3, 3.064703e+2, 479005.25, 45961.97, -54391.805, 0.08268712, -0.3241748, 485732.56, 485732.56, 0.0016822153, 10.004075, 9.99835 
1.7650211e+3, 3.1647098e+2, 517327.56, 252643.83, -121153.42, 0.02833312, -0.14130232, 564408.44, 564408.44, 0.0029981984, 10.003507, 10.00005 
1.7750724e+3, 1.2648839e+2, -1886670.1, -1447929.4, 1071.7599, 0.2934642, -0.03692681, -1447926.8, 252484.75, 0.08231803, 9.997192, 10.003327 
1.7750613e+3, 1.3649106e+2, -1769719.8, -1477653.6, -60714.54, -0.4320165, -0.0089414045, -1465535.1, 136845.48, 0.054393712, 9.997988, 10.00197 
1.7750633e+3, 1.4648916e+2, -1744086.6, -1666785.8, -15798.118, 0.059318442, -0.26211122, -1663681.6, -159281.89, 0.02831169, 9.998608, 9.999648 
1.7750622e+3, 1.5649025e+2, -1539154.5, -1481099.9, -65073.023, 0.14442062, -0.14122911, -1438873.5, -32481.2, 0.010105246, 9.999203, 9.999955 
1.7750593e+3, 1.6649197e+2, -1426993.6, -1308999.0, -74219.32, 0.017903604, 0.0022096604, -1273185.0, 35193.027, 0.0018804772, 9.998994, 10.000572 
1.7750564e+3, 1.7649333e+2, -1423709.0, -1233968.5, -24396.281, -0.08265613, 0.05614097, -1230881.9, -20515.426, 0.00008970714, 9.998257, 10.000761 
1.7750537e+3, 1.8649425e+2, -1283037.5, -1142346.5, -30891.97, -0.084152825, 0.08549244, -1135862.3, -23505.775, 0.000000028818846, 9.998655, 10.000531 
1.7750508e+3, 1.9649519e+2, -1026362.44, -965259.9, -1079.8406, -0.08636088, 0.10351152, -965240.8, 49103.785, 0.0, 9.999743, 10.0005455 
1.7750481e+3, 2.0649461e+2, -964324.5, -1013650.8, -24579.773, -0.009480188, 0.05900094, -954167.6, -37819.402, 0.0, 10.000045, 9.999397 
1.7750458e+3, 2.1649301e+2, -897953.4, -923838.4, -11492.935, 0.13993445, -0.0645213, -893587.0, -75224.83, 0.0, 9.999811, 9.999448 
1.7750432e+3, 2.264918e+2, -753004.2, -902876.25, 42001.54, 0.13926934, -0.07888101, -742036.0, -21663.695, 0.0, 10.000546, 9.998573 
1.7750405e+3, 2.3649082e+2, -467520.25, -716321.1, 32109.156, 0.04497717, -0.05883, -463443.2, 158936.66, 0.0, 10.001848, 9.998549 
1.7750375e+3, 2.4648829e+2, -486601.66, -840220.8, -57729.836, 0.052445102, -0.079913564, -477415.63, 46988.824, 0.0, 10.0017605, 9.997069 
1.7750345e+3, 2.5648496e+2, -480781.06, -744744.9, -77064.69, 0.119287245, -0.1447857, -459929.13, -33491.3, 0.0, 10.00096, 9.997431 
1.7750329e+3, 2.6648247e+2, -263812.16, -493395.53, -36152.145, 0.17450665, -0.18292193, -258253.89, 70205.06, 0.00000032366296, 10.001348, 9.998303 
1.7750317e+3, 2.7648047e+2, -12704.532, -318260.94, -41593.35, 0.21751916, -0.2396991, -7143.9023, 223329.6, 0.00002512301, 10.0024, 9.998317 
1.7750302e+3, 2.8647783e+2, 131074.84, -339841.7, 9261.214, 0.13576984, -0.25925928, 131256.9, 263753.16, 0.00020058491, 10.003294, 9.997081 
1.7750283e+3, 2.964751e+2, 332782.0, -211369.81, 27900.998, -0.0016263685, -0.27512816, 334208.84, 368730.88, 0.0007351485, 10.004106, 9.996891 
1.7750262e+3, 3.064726e+2, 250770.88, -387288.88, -82504.02, -0.011313432, -0.12129627, 261266.38, 261266.38, 0.001725204, 10.00391, 9.995446 
1.7750257e+3, 3.164685e+2, 262719.25, -180965.47, -71146.09, 0.13071284, -0.12268051, 273848.56, 273848.56, 0.003037665, 10.003149, 9.9972105 
1.7850682e+3, 1.2648958e+2, -2090487.9, -1554465.5, 84814.18, 0.23511578, -0.09281578, -1541365.6, 159030.97, 0.08696164, 9.995884, 10.003164 
1.7850594e+3, 1.3649233e+2, -1735859.9, -1514592.3, -72313.55, -0.43183696, -0.0013731152, -1493055.4, 109311.91, 0.057701517, 9.998463, 10.001476 
1.7850628e+3, 1.464897e+2, -1658789.3, -1648304.9, -62890.684, 0.13472341, -0.29488322, -1590438.3, -86042.84, 0.030258754, 9.999297, 9.99944 
1.785061e+3, 1.5649103e+2, -1614636.8, -1535549.4, -8265.74, 0.13077949, -0.12775129, -1534694.8, -128307.42, 0.0109521225, 9.99876, 9.999795 
1.7850578e+3, 1.6649328e+2, -1462783.0, -1271456.1, -13888.561, -0.008074296, 0.048613418, -1270453.3, 37913.543, 0.0020959692, 9.998516, 10.001055 
1.7850552e+3, 1.7649524e+2, -1332979.5, -1146814.1, -31795.045, -0.036058187, 0.11354044, -1141533.6, 68813.67, 0.000105867584, 9.998692, 10.001151 
1.7850532e+3, 1.8649581e+2, -1250529.5, -1133731.3, -60231.832, -0.025166145, 0.095730424, -1108235.6, 4103.842, 0.0000000562377, 9.998917, 10.000465 
1.7850503e+3, 1.964959e+2, -1106732.3, -1010346.0, -98392.97, -0.077412814, 0.036214955, -948977.5, 65357.418, 0.0, 9.999217, 10.00049 
1.7850478e+3, 2.0649508e+2, -1012750.06, -1035714.6, -148846.19, -0.015912658, -0.033059224, -874943.94, 41396.31, 0.0, 9.999712, 9.99941 
1.7850457e+3, 2.1649358e+2, -813308.25, -883296.3, -138509.2, 0.13609235, -0.14455192, -705440.9, 112911.51, 0.0, 10.000389, 9.999454 
1.7850444e+3, 2.264926e+2, -734540.4, -890479.9, -51182.977, 0.1944955, -0.13648184, -719241.8, 1118.8485, 0.0, 10.000663, 9.998605 
1.785043e+3, 2.3649198e+2, -636566.75, -797697.8, -65096.996, 0.18331884, -0.08185684, -613554.2, 8811.812, 0.0, 10.000694, 9.998547 
1.78504e+3, 2.4648972e+2, -534658.0, -888581.94, -121231.28, 0.14525913, -0.0632317, -497114.6, 27274.81, 0.0, 10.001539, 9.996842 
1.7850362e+3, 2.564865e+2, -229495.64, -663237.75, -97406.42, 0.090261504, -0.09156296, -208625.11, 217797.98, 0.0, 10.002846, 9.997086 
1.7850342e+3, 2.6648334e+2, -99715.75, -503535.3, -47077.695, 0.11879603, -0.13841644, -94300.016, 234152.39, 0.00000018370703, 10.002854, 9.997507 
1.7850336e+3, 2.7648017e+2, -78119.93, -417566.3, -88487.87, 0.17926128, -0.23419762, -56437.63, 174042.05, 0.000020759246, 10.002217, 9.99773 
1.7850323e+3, 2.8647777e+2, 78608.914, -274259.53, -22712.4, 0.0682898, -0.24754694, 80064.79, 212563.69, 0.00019242596, 10.002576, 9.997864 
1.7850308e+3, 2.9647624e+2, 300940.9, -156212.78, -44232.285, -0.12458365, -0.21026531, 305181.28, 339691.5, 0.0007320917, 10.0036, 9.997508 
1.7850307e+3, 3.0647382e+2, 313953.1, -390963.5, -52990.21, 0.015562342, -0.061780207, 317914.25, 317914.25, 0.0017092776, 10.004492, 9.995142 
1.7850305e+3, 3.1646854e+2, 484989.97, -186893.5, 118906.55, 0.19606186, -0.14043869, 505412.66, 505412.66, 0.0029507587, 10.005161, 9.996204 
1.7950611e+3, 1.2649122e+2, -2284717.8, -1950471.0, 40650.363, -0.10619529, -0.25362504, -1945598.3, -245228.02, 0.09190124, 9.995903, 10.000342 
1.7950615e+3, 1.3649382e+2, -1897414.8, -1839268.9, 21427.145, -0.09012172, 0.10924654, -1832225.9, -229869.03, 0.06119029, 9.998442, 9.999213 
1.795064e+3, 1.4649224e+2, -1565257.1, -1459911.9, -86972.75, 0.31285438, -0.059806686, -1410905.3, 93471.89, 0.03230053, 9.99931, 10.000749 
1.795056e+3, 1.5649487e+2, -1543629.5, -1384446.8, -24116.574, -0.2580844, 0.109712586, -1380873.3, 25478.535, 0.011841973, 9.998743, 10.000841 
1.7950538e+3, 1.6649602e+2, -1484753.4, -1322900.9, -14356.437, -0.26016837, 0.15085824, -1321637.4, -13299.244, 0.0023264778, 9.998531, 10.0007 
1.7950572e+3, 1.764956e+2, -1360216.3, -1207110.6, -21462.836, 0.27631202, 0.013529003, -1204158.8, 6179.211, 0.00012352158, 9.998703, 10.000735 
1.7950548e+3, 1.864944e+2, -1306656.5, -1255204.8, -53902.363, 0.24038891, -0.11389159, -1221203.9, -108857.14, 0.000000085167756, 9.998938, 9.999621 
1.7950483e+3, 1.9649301e+2, -1161238.5, -1118223.3, -82157.51, -0.20069228, -0.23763342, -1054804.9, -40446.53, 0.0, 9.999195, 9.999761 
1.7950465e+3, 2.0649268e+2, -1012506.75, -1029363.1, -127636.81, -0.12490846, -0.22850165, -893020.1, 23340.133, 0.0, 9.999682, 9.99947 
1.7950477e+3, 2.1649289e+2, -813229.94, -874074.8, -110172.85, 0.27634135, -0.1766949, -729356.3, 89000.89, 0.0, 10.000347, 9.999538 
1.7950456e+3, 2.2649229e+2, -735215.06, -875797.3, -52964.684, 0.24431375, -0.1421832, -717494.25, 2869.065, 0.0, 10.000597, 9.998735 
1.7950416e+3, 2.3649128e+2, -637550.94, -779754.44, -51153.297, -0.045110486, -0.13943785, -621062.06, 1311.9592, 0.0, 10.000612, 9.998708 
1.7950399e+3, 2.4648982e+2, -515748.5, -826944.8, -74147.19, -0.033683445, -0.073147856, -498984.88, 25403.875, 0.0, 10.001443, 9.9973135 
1.7950396e+3, 2.5648805e+2, -226749.08, -635411.9, -51693.977, 0.15685001, -0.002110199, -220311.44, 206094.9, 0.0, 10.002757, 9.997317 
1.7950378e+3, 2.6648492e+2, -194488.72, -684530.75, -75260.76, 0.17262183, 0.012283266, -183190.64, 145247.2, 0.00000013255313, 10.002779, 9.9963045 
1.7950349e+3, 2.7648097e+2, -155938.02, -557902.9, -96626.83, 0.0705623, -0.042609014, -133916.67, 96560.17, 0.0000188634, 10.002132, 9.996805 
1.7950337e+3, 2.8647786e+2, 96374.94, -219053.86, 9355.872, -0.064414285, -0.117390126, 96652.195, 229156.13, 0.00018750537, 10.002485, 9.998292 
1.795034e+3, 2.964756e+2, 335932.4, -55058.8, 6263.342, -0.18022007, -0.20567793, 336032.72, 370553.7, 0.00072378875, 10.003481, 9.998258 
1.7950359e+3, 3.0647397e+2, 431099.84, -107069.42, -31199.621, 0.07561215, -0.124803826, 432902.56, 432902.56, 0.0016648213, 10.004319, 9.997175 
1.7950349e+3, 3.1647065e+2, 528103.0, -39424.13, 154555.5, 0.095205806, -0.20844008, 567463.5, 567463.5, 0.0028005545, 10.004938, 9.997311 
1.8050571e+3, 1.2649173e+2, -2143758.5, -1874850.5, -237392.9, -0.13298354, -0.18873511, -1736479.9, -36110.453, 0.097200245, 9.996843, 10.000406 
1.8050598e+3, 1.3649407e+2, -1992040.4, -1848751.8, 57981.164, -0.06585353, 0.12113456, -1828229.3, -225873.3, 0.06490086, 9.99763, 9.999546 
1.8050624e+3, 1.4649281e+2, -1699448.4, -1447954.8, -52795.79, 0.27403644, -0.06937873, -1437321.0, 67049.086, 0.034457777, 9.99806, 10.001429 
1.805055e+3, 1.5649605e+2, -1589568.1, -1355719.9, -47678.137, -0.20339929, 0.09528287, -1346372.6, 59963.492, 0.0127833225, 9.998204, 10.001303 
1.8050529e+3, 1.6649663e+2, -1484156.9, -1384790.4, -27707.158, -0.21702541, 0.094530135, -1377586.8, -69259.805, 0.0025744103, 9.9988165, 10.0001335 
1.805056e+3, 1.7649513e+2, -1241330.8, -1209464.8, -63565.203, 0.23209228, -0.09334771, -1159866.1, 50471.453, 0.00014305822, 9.999793, 10.000186 
1.8050541e+3, 1.864935e+2, -1245336.8, -1291396.3, -107881.766, 0.240422, -0.20969488, -1158054.0, -45701.613, 0.00000010953618, 9.999635, 9.99904 
1.8050484e+3, 1.96492e+2, -1234544.8, -1199441.9, -118589.234, -0.08783612, -0.28645414, -1097112.4, -82745.06, 0.0, 9.998896, 9.999344 
1.8050468e+3, 2.0649213e+2, -1039652.0, -991622.7, -93245.85, -0.054432016, -0.24046604, -919348.75, -2984.5032, 0.0, 9.999281, 9.999918 
1.8050474e+3, 2.1649307e+2, -794665.2, -832485.4, -59574.867, 0.21449855, -0.1593416, -751071.25, 67280.734, 0.0, 10.0003395, 9.999823 
1.8050459e+3, 2.2649226e+2, -689404.06, -919381.0, -36732.926, 0.18244965, -0.12555598, -683679.4, 36682.137, 0.0, 10.001199, 9.998143 
1.8050428e+3, 2.3649046e+2, -474554.6, -749610.06, -94900.01, -0.036960937, -0.1417066, -444989.88, 177393.14, 0.0, 10.001937, 9.998276 
1.8050417e+3, 2.4648887e+2, -379493.7, -691119.44, -114625.98, -0.018547084, -0.10602034, -341872.44, 182525.06, 0.0, 10.00207, 9.997949 
1.8050417e+3, 2.5648743e+2, -316492.78, -619814.06, -94157.984, 0.13978817, -0.06768948, -289641.03, 136766.92, 0.0, 10.001875, 9.997858 
1.8050402e+3, 2.6648432e+2, -254547.25, -709485.25, -59981.816, 0.16947936, -0.0727374, -246771.77, 81665.89, 0.00000007008213, 10.002368, 9.9963255 
1.8050379e+3, 2.764803e+2, 3846.4236, -493815.16, -9800.625, 0.10466664, -0.13330655, 4039.356, 234517.36, 0.000018211342, 10.003294, 9.996687 
1.805037e+3, 2.8647724e+2, 152748.42, -268383.78, 85726.63, -0.013571038, -0.15654096, 169530.38, 302037.22, 0.00018362651, 10.003196, 9.997611 
1.8050374e+3, 2.9647505e+2, 184013.7, -176382.7, -12164.601, -0.13576025, -0.15997265, 184423.83, 218949.55, 0.00070967065, 10.002632, 9.997838 
1.8050407e+3, 3.064725e+2, 405443.47, -24635.043, -89734.64, 0.15294544, -0.20967388, 423415.34, 423415.34, 0.001610557, 10.003722, 9.998031 
1.8050398e+3, 3.1647018e+2, 642566.44, 65157.42, -69840.48, 0.07355204, -0.2587961, 650893.9, 650893.9, 0.0026597357, 10.005455, 9.997815 
1.815056e+3, 1.2649108e+2, -1952458.0, -1502468.5, -278197.13, 0.04763975, 0.08618395, -1369669.6, 330724.25, 0.10291468, 9.996869, 10.003168 
1.8150543e+3, 1.3649313e+2, -1793186.0, -1440436.5, 89824.9, -0.39695385, 0.037357338, -1418880.5, 183483.06, 0.06887483, 9.997608, 10.002442 
1.8150575e+3, 1.4649151e+2, -1691561.5, -1439407.3, -53714.105, -0.032201935, -0.31710595, -1428441.9, 75931.56, 0.036753505, 9.998081, 10.001487 
1.8150578e+3, 1.5649459e+2, -1590079.4, -1364277.4, -33534.98, 0.23916706, -0.17065935, -1359402.3, 46937.414, 0.01378539, 9.998232, 10.001234 
1.8150547e+3, 1.6649525e+2, -1536695.3, -1500977.8, 3362.1484, 0.05782914, -0.11372995, -1500664.0, -192331.97, 0.002842686, 9.998845, 9.999323 
1.8150516e+3, 1.7649393e+2, -1293933.8, -1320137.1, -32991.375, -0.19339208, -0.20414285, -1271537.8, -61192.24, 0.00016504708, 9.999796, 9.999427 
1.8150508e+3, 1.8649308e+2, -1265022.6, -1335038.5, -139522.2, -0.062235367, -0.18960133, -1156183.4, -43827.063, 0.00000012908751, 9.999647, 9.998734 
1.8150505e+3, 1.9649285e+2, -1241641.1, -1216334.5, -132276.31, 0.21344456, -0.114879, -1096107.6, -81745.23, 0.0, 9.998907, 9.999221 
1.8150482e+3, 2.0649327e+2, -982492.94, -876286.2, -58240.926, 0.14692974, -0.07848554, -850573.44, 65780.414, 0.0, 9.999291, 10.000707 
1.8150447e+3, 2.164939e+2, -765820.94, -765221.25, -17996.414, -0.081998676, -0.10409363, -747522.2, 70816.6, 0.0, 10.000302, 10.000304 
1.8150449e+3, 2.2649236e+2, -794640.7, -1115264.6, -11848.597, -0.033548065, -0.089851685, -794203.44, -73846.82, 0.0, 10.001101, 9.996847 
1.8150468e+3, 2.3648958e+2, -555228.2, -900111.56, -64200.0, 0.15939392, -0.077891216, -543665.06, 78727.71, 0.0, 10.001865, 9.997276 
1.8150455e+3, 2.4648693e+2, -338022.75, -590205.56, -125483.76, 0.1349067, -0.14604284, -286223.13, 238191.94, 0.0, 10.002003, 9.998674 
1.8150423e+3, 2.5648448e+2, -266983.94, -503633.66, -89447.86, -0.003218936, -0.28582007, -236979.13, 189449.52, 0.0, 10.001816, 9.998684 
1.8150418e+3, 2.6648137e+2, -186637.34, -552020.7, -28268.291, 0.059151225, -0.3881925, -184463.27, 143989.81, 0.0000000874347, 10.00229, 9.997448 
1.8150425e+3, 2.7647793e+2, 35341.46, -404573.72, 25177.41, 0.22910574, -0.5048266, 36777.734, 267262.06, 0.00001648955, 10.003198, 9.997343 
1.815042e+3, 2.864758e+2, 5713.5396, -556740.6, 59536.555, 0.14647914, -0.3515201, 11946.495, 144454.64, 0.000172326, 10.003114, 9.995673 
1.8150409e+3, 2.9647458e+2, 62527.582, -418526.22, -7037.7607, -0.058664266, -0.07968115, 62630.52, 97156.58, 0.0006744758, 10.002577, 9.996205 
1.8150446e+3, 3.064693e+2, 341364.56, -117785.125, -24173.217, 0.15679543, -0.29895186, 342633.72, 342633.72, 0.0015389696, 10.003561, 9.997462 
1.8150435e+3, 3.1646475e+2, 602072.5, 64541.07, -45908.457, -0.10963936, -0.5267271, 605965.2, 605965.2, 0.002550941, 10.005138, 9.997938 
1.8250532e+3, 1.2649119e+2, -1841209.1, -1385697.6, -109065.45, 0.06612556, 0.19534345, -1360930.3, 339468.94, 0.10907774, 9.997276, 10.003833 
1.825052e+3, 1.364929e+2, -1854148.0, -1403870.0, 96633.72, -0.3237318, 0.022982782, -1384007.6, 218357.19, 0.07313931, 9.996879, 10.003077 
1.8250544e+3, 1.4649102e+2, -1831359.3, -1572088.4, -121023.83, -0.11926878, -0.3446558, -1524376.4, -20000.725, 0.039204508, 9.997428, 10.000866 
1.8250562e+3, 1.5649322e+2, -1528265.3, -1392134.0, -157722.81, 0.23403887, -0.22796343, -1288416.5, 117936.195, 0.014855209, 9.998914, 10.000713 
1.8250537e+3, 1.664939e+2, -1483823.4, -1489040.1, -113814.47, 0.06490774, -0.14105283, -1372587.4, -64240.76, 0.0031336718, 9.999265, 9.999202 
1.8250504e+3, 1.7649323e+2, -1421438.8, -1392251.0, -107643.49, -0.252842, -0.15386027, -1298216.6, -87861.516, 0.00019006866, 9.998964, 9.999333 
1.82505e+3, 1.8649267e+2, -1262001.3, -1315411.9, -171662.69, -0.10294235, -0.11644608, -1114979.0, -2616.2842, 0.00000015151502, 9.999602, 9.998885 
1.8250507e+3, 1.9649242e+2, -961831.4, -1076073.6, -140063.4, 0.23916246, -0.052996453, -867689.25, 146677.9, 0.0, 10.000815, 9.999262 
1.8250485e+3, 2.0649217e+2, -750105.7, -813064.56, -101259.73, 0.16482393, -0.059169237, -675545.06, 240819.34, 0.0, 10.001102, 10.000264 
1.825045e+3, 2.1649183e+2, -705590.1, -774085.2, -160740.95, -0.12449109, -0.14052396, -575488.8, 242869.84, 0.0, 10.00089, 9.999955 
1.8250456e+3, 2.264901e+2, -823222.3, -1111547.4, -113057.36, -0.054041583, -0.13792, -784177.9, -63800.586, 0.0, 10.000823, 9.997008 
1.8250486e+3, 2.3648764e+2, -694874.9, -946766.0, -68321.19, 0.2047948, -0.11074757, -677537.25, -55128.25, 0.0, 10.000817, 9.997462 
1.8250476e+3, 2.4648514e+2, -398843.25, -587675.25, -100674.45, 0.18131228, -0.18846084, -355238.5, 169190.92, 0.0, 10.001458, 9.998947 
1.8250445e+3, 2.5648266e+2, -156982.08, -425936.06, -110536.2, -0.000422722, -0.35570186, -117383.47, 309059.66, 0.0, 10.002474, 9.998894 
1.8250442e+3, 2.6647988e+2, -77072.92, -500157.0, -103493.94, 0.04546945, -0.43466738, -53113.31, 275351.9, 0.00000011582431, 10.003052, 9.997437 
1.8250455e+3, 2.7647698e+2, 64666.945, -395134.7, -152282.2, 0.21054839, -0.49142978, 110527.36, 341019.53, 0.000015405387, 10.003406, 9.997314 
1.8250453e+3, 2.8647447e+2, 66663.57, -532250.44, -74251.36, 0.1694609, -0.3744379, 75731.7, 208251.0, 0.00016003105, 10.003557, 9.99563 
1.8250448e+3, 2.9647228e+2, 198400.11, -375669.44, -18430.5, 0.0101991305, -0.18512847, 198991.2, 233536.22, 0.000630276, 10.003606, 9.996009 
1.8250483e+3, 3.0646694e+2, 232684.98, -264092.7, 36528.813, 0.19946851, -0.35423583, 235356.64, 235356.64, 0.0014615827, 10.003225, 9.996617 
1.8250483e+3, 3.1646338e+2, 244713.9, -126652.16, -102593.32, -0.01666376, -0.39296, 271171.34, 271171.34, 0.0024735162, 10.002704, 9.997828 
1.8350486e+3, 1.2649207e+2, -1936946.3, -1570486.1, -111051.05, -0.15163496, 0.13733868, -1539460.3, 160925.11, 0.11569034, 9.9973, 10.002413 
1.8350534e+3, 1.364935e+2, -1961532.8, -1610000.5, 91116.29, 0.10283487, 0.085193306, -1587787.0, 14571.164, 0.07769921, 9.996881, 10.001547 
1.8350527e+3, 1.4649154e+2, -1923687.8, -1769124.4, -72022.32, -0.050581533, -0.14417677, -1740766.8, -236391.7, 0.04181763, 9.997445, 9.99951 
1.8350504e+3, 1.5649198e+2, -1596107.4, -1534850.5, -104632.23, -0.2564389, -0.076718606, -1456456.0, -50081.27, 0.015997248, 9.9989195, 9.999724 
1.8350501e+3, 1.6649258e+2, -1442209.4, -1407877.5, -130238.02, -0.24059606, 0.0117364125, -1293679.0, 14691.272, 0.0034491862, 9.999286, 9.99975 
1.835052e+3, 1.7649294e+2, -1380315.4, -1312904.0, -108083.0, 0.008001276, 0.048717063, -1233393.0, -23026.092, 0.00021871291, 9.998986, 9.999868 
1.8350513e+3, 1.8649209e+2, -1220953.6, -1234992.9, -129005.95, 0.060521446, 0.0028032963, -1098776.4, 13596.256, 0.00000018976193, 9.999621, 9.999429 
1.8350486e+3, 1.964907e+2, -948090.1, -1045202.2, -97416.17, -0.04469912, -0.10130737, -887799.5, 126582.15, 0.0, 10.000805, 9.999476 
1.8350476e+3, 2.0648892e+2, -870023.56, -1059387.1, -112341.8, -0.04044266, -0.17468952, -817785.94, 98608.99, 0.0, 10.001086, 9.998584 
1.8350476e+3, 2.1648687e+2, -796534.7, -952347.6, -162774.84, 0.041467093, -0.26193285, -693983.2, 124427.81, 0.0, 10.000844, 9.9987545 
1.8350479e+3, 2.2648546e+2, -727814.56, -893436.7, -115332.9, 0.0701482, -0.26456094, -668642.0, 51781.656, 0.0, 10.000734, 9.998549 
1.835048e+3, 2.3648445e+2, -612434.75, -759751.6, -57022.547, 0.06218327, -0.24683996, -592942.06, 29491.746, 0.0, 10.000749, 9.99878 
1.8350482e+3, 2.4648328e+2, -424929.53, -620933.44, -65170.5, 0.07677166, -0.23953849, -405238.75, 119203.87, 0.0, 10.001362, 9.99877 
1.835048e+3, 2.5648195e+2, -191871.5, -483926.6, -68322.2, 0.107284114, -0.27036023, -176678.8, 249772.78, 0.0, 10.002412, 9.998528 
1.8350476e+3, 2.6647985e+2, -172659.14, -686891.3, -92236.04, 0.07253804, -0.19353314, -156615.63, 171857.81, 0.000000090536304, 10.002995, 9.996184 
1.8350469e+3, 2.7647737e+2, 1287.701, -511167.06, -130595.18, 0.0006077148, -0.0930804, 32649.563, 263152.0, 0.000015281848, 10.003336, 9.996552 
1.8350473e+3, 2.8647316e+2, 176002.38, -286869.13, -79620.13, -0.0077459873, -0.21186832, 189315.22, 321856.28, 0.00015247648, 10.003476, 9.9973545 
1.8350483e+3, 2.9646814e+2, 269518.13, -204418.31, -9699.668, 0.014414877, -0.4765497, 269716.56, 304300.25, 0.00059416186, 10.003513, 9.997225 
1.8350519e+3, 3.0646542e+2, 119173.414, -472663.4, 13279.992, 0.21017908, -0.35196498, 119471.25, 119471.25, 0.0013942111, 10.00311, 9.995236 
1.8350524e+3, 3.1646708e+2, 160207.28, -247865.92, -144637.94, 0.10586957, 0.2470136, 206272.8, 206272.8, 0.002412024, 10.002488, 9.997088 
1.8450452e+3, 1.2649111e+2, -2085854.5, -1727109.3, -128512.63, -0.19042212, 0.05663878, -1685823.6, 14564.565, 0.12272786, 9.996711, 10.001504 
1.8450522e+3, 1.3649127e+2, -1752741.5, -1627933.8, 8356.829, 0.21470535, -0.0030694008, -1627376.6, -24997.643, 0.08254445, 9.998834, 10.000472 
1.8450505e+3, 1.4649072e+2, -1781158.9, -1674595.6, -86679.35, -0.060317375, -0.05281043, -1626131.3, -121747.21, 0.04459436, 9.998313, 9.999738 
1.8450478e+3, 1.5649125e+2, -1862363.5, -1630558.8, -5747.1045, -0.3153261, -0.004392633, -1630416.4, -224033.58, 0.017215712, 9.996951, 10.00002 
1.8450488e+3, 1.6649163e+2, -1653044.5, -1483059.4, 28216.387, -0.22624135, 0.03324297, -1478498.0, -170118.34, 0.0037916328, 9.997731, 9.999984 
1.8450524e+3, 1.7649181e+2, -1269377.6, -1241402.0, 15974.282, 0.10844999, 0.03099654, -1234156.9, -23780.545, 0.00025177147, 9.9996805, 10.000021 
1.845052e+3, 1.8649073e+2, -1142922.1, -1232348.1, -55533.715, 0.12153326, -0.02517361, -1116338.3, -3954.3003, 0.00000025167606, 10.000304, 9.999114 
1.8450488e+3, 1.9648896e+2, -1058664.8, -1143410.3, -100312.375, -0.080559656, -0.13520764, -992142.94, 22254.195, 0.0, 10.000227, 9.999084 
1.8450484e+3, 2.0648684e+2, -1019865.8, -1214118.8, -103381.74, -0.045875065, -0.18349959, -975142.56, -58726.813, 0.0, 10.000411, 9.997848 
1.8450493e+3, 2.1648456e+2, -841945.2, -1038441.8, -94508.125, 0.12524685, -0.22024532, -803868.44, 14568.333, 0.0, 10.000802, 9.998189 
1.8450493e+3, 2.2648288e+2, -643238.75, -785145.7, -56670.4, 0.13068517, -0.25702143, -623385.1, 97064.91, 0.0, 10.001041, 9.999137 
1.8450487e+3, 2.364816e+2, -513285.97, -665669.9, -78744.26, 0.030919418, -0.3221969, -479906.6, 142551.88, 0.0, 10.001239, 9.999184 
1.8450494e+3, 2.4648078e+2, -414760.4, -670197.5, -99372.99, 0.05932097, -0.27065313, -380654.9, 143810.88, 0.0, 10.001677, 9.998275 
1.8450509e+3, 2.5648022e+2, -241128.78, -550145.5, -138656.45, 0.15120837, -0.17326778, -188035.5, 238436.58, 0.0, 10.002264, 9.99814 
1.8450506e+3, 2.664782e+2, -201142.16, -689103.7, -109946.26, 0.096463025, -0.07861245, -177513.52, 150981.27, 0.00000009817215, 10.002751, 9.996284 
1.8450497e+3, 2.7647537e+2, -15288.37, -504209.16, -62743.01, -0.042888205, -0.019211829, -7364.9897, 223161.66, 0.000013983585, 10.003167, 9.996673 
1.8450508e+3, 2.864713e+2, 203631.47, -231623.44, -39721.906, -0.017794875, -0.15008698, 207226.84, 339790.5, 0.00014182324, 10.00349, 9.9977255 
1.8450527e+3, 2.964667e+2, 331901.4, -131354.27, -91682.53, 0.08443431, -0.41100353, 349386.28, 383988.47, 0.00055530254, 10.00375, 9.997617 
1.8450554e+3, 3.0646488e+2, 298510.34, -346077.2, -6409.9233, 0.19578099, -0.23939353, 298574.1, 298574.1, 0.0013186435, 10.004156, 9.995616 
1.845056e+3, 3.1646517e+2, 544140.2, -39059.793, -81604.06, 0.097635314, 0.19556174, 555343.4, 555343.4, 0.002319509, 10.004996, 9.997326 
1.8550427e+3, 1.264886e+2, -2105497.3, -1785117.4, 38149.855, -0.13272397, -0.024058541, -1780637.3, -80232.49, 0.13014582, 9.996779, 10.0010605 
1.8550488e+3, 1.3648629e+2, -1796994.8, -1720944.4, 60262.984, -0.02268343, -0.24650043, -1687712.6, -85286.02, 0.08765755, 9.998836, 9.999831 
1.8550475e+3, 1.464886e+2, -1659302.1, -1433381.8, -146009.7, -0.1972904, -0.07393514, -1361737.4, 142665.33, 0.04753598, 9.998344, 10.001422 
1.855048e+3, 1.5649098e+2, -1750246.1, -1407455.1, -35591.684, 0.004026501, -0.014782685, -1403798.8, 2579.0574, 0.01851746, 9.996988, 10.001535 
1.8550493e+3, 1.6649099e+2, -1650471.4, -1488359.0, 98942.91, 0.04423923, -0.07625916, -1441509.8, -133134.63, 0.0041650403, 9.997775, 9.999925 
1.8550512e+3, 1.7648982e+2, -1284180.1, -1278084.3, 82617.31, 0.013368998, -0.20652916, -1198458.8, 11924.595, 0.00029041685, 9.999701, 9.99976 
1.8550515e+3, 1.8648852e+2, -1225151.5, -1410498.1, -63052.387, 0.037870046, -0.20219398, -1205735.8, -93338.67, 0.0000003514084, 10.000331, 9.997883 
1.8550508e+3, 1.964871e+2, -1128471.4, -1290638.6, -97637.12, 0.08410507, -0.1563902, -1082639.4, -68225.14, 0.0, 10.000235, 9.998073 
1.8550503e+3, 2.0648581e+2, -1009323.2, -1193391.9, -93301.85, 0.09748682, -0.0865988, -970302.0, -53874.2, 0.0, 10.000411, 9.997993 
1.8550499e+3, 2.1648467e+2, -840823.1, -1027227.6, -76207.086, 0.09449164, -0.026712902, -813633.6, 4804.4614, 0.0, 10.000763, 9.998285 
1.8550499e+3, 2.2648227e+2, -677962.8, -846509.0, -51642.06, 0.083281785, -0.1188298, -663398.4, 57059.215, 0.0, 10.000987, 9.998746 
1.8550505e+3, 2.364791e+2, -553504.9, -741171.94, -62363.297, 0.06766808, -0.3303532, -534671.1, 87811.836, 0.0, 10.001197, 9.998691 
1.8550514e+3, 2.4647768e+2, -487248.06, -805178.56, -79559.586, 0.0743298, -0.26484975, -468450.34, 56047.676, 0.0, 10.001607, 9.997383 
1.8550526e+3, 2.5647733e+2, -287264.66, -629823.7, -110137.36, 0.095595025, -0.067074865, -254909.92, 171596.36, 0.0, 10.002194, 9.997626 
1.8550533e+3, 2.6647475e+2, -111784.74, -486952.3, -97983.79, 0.07605997, -0.08612105, -87735.59, 240795.67, 0.00000008466028, 10.002677, 9.997709 
1.8550538e+3, 2.7647096e+2, 44423.04, -358982.1, -38319.203, 0.035789825, -0.2654815, 48030.695, 278597.06, 0.000011475633, 10.0030775, 9.997714 
1.8550552e+3, 2.8646883e+2, 115231.37, -393381.47, -35157.094, 0.08080122, -0.184427, 117650.05, 250238.61, 0.00012571365, 10.003388, 9.996667 
1.8550573e+3, 2.9646787e+2, 276202.28, -223047.77, -73258.08, 0.16643532, 0.016365826, 286729.9, 321331.84, 0.0005079534, 10.003641, 9.997044 
1.8550585e+3, 3.0646506e+2, 417582.6, -64572.273, 11988.502, 0.08574202, 0.0031797825, 417880.5, 417880.5, 0.0012265765, 10.004024, 9.997604 
1.8550599e+3, 3.164596e+2, 590008.9, 123497.87, -15153.589, -0.027609942, -0.33246556, 590500.6, 590500.6, 0.002180596, 10.004731, 9.998562 
1.8650402e+3, 1.2648576e+2, -1739244.9, -1584228.9, 91744.805, -0.17674324, -0.11132252, -1541634.4, 158791.39, 0.1378835, 9.999152, 10.001431 
1.8650463e+3, 1.3648325e+2, -2211590.8, -1960804.9, 58236.113, -0.019265972, -0.326702, -1947941.4, -345488.28, 0.09301642, 9.996161, 9.999478 
1.8650453e+3, 1.4648649e+2, -1908649.5, -1543538.5, -157646.48, -0.16092159, -0.04200002, -1484890.9, 19529.455, 0.050644647, 9.9966135, 10.001459 
1.8650469e+3, 1.564878e+2, -1391912.8, -1234515.4, -170983.55, 0.0712072, -0.099845424, -1124988.5, 281416.28, 0.01991141, 9.999453, 10.001556 
1.8650489e+3, 1.664874e+2, -1351102.5, -1369777.5, -94699.83, 0.102135226, -0.18812998, -1265280.9, 43125.48, 0.0045744055, 9.999945, 9.999688 
1.8650505e+3, 1.7648645e+2, -1383105.9, -1343880.9, -130229.305, 0.009922983, -0.27368957, -1231795.5, -21381.717, 0.0003360051, 9.999106, 9.999588 
1.8650515e+3, 1.864858e+2, -1275099.4, -1411371.8, -194102.14, 0.026914516, -0.20939024, -1137521.8, -25099.719, 0.00000050835786, 9.999899, 9.998081 
1.8650518e+3, 1.9648522e+2, -907608.5, -1166232.1, -134311.5, 0.09692299, -0.099724755, -850476.94, 163954.7, 0.0, 10.00168, 9.99823 
1.8650517e+3, 2.0648372e+2, -733985.8, -1057137.5, -114052.06, 0.10126372, -0.057003375, -697787.5, 218659.52, 0.0, 10.002309, 9.998005 
1.8650511e+3, 2.1648176e+2, -618297.3, -926609.1, -120767.016, 0.059499227, -0.077563025, -576624.94, 241839.84, 0.0, 10.00233, 9.998215 
1.8650514e+3, 2.2647962e+2, -523065.9, -822945.94, -103913.81, 0.06966855, -0.11671563, -490577.63, 229906.02, 0.0, 10.00227, 9.998291 
1.8650524e+3, 2.3647739e+2, -436428.53, -724743.25, -124644.914, 0.101482764, -0.18934606, -390013.88, 232488.69, 0.0, 10.002175, 9.998332 
1.8650533e+3, 2.4647531e+2, -421176.22, -763073.6, -82810.914, 0.08688459, -0.17908235, -402174.66, 122348.74, 0.0, 10.0020075, 9.997479 
1.865054e+3, 2.5647336e+2, -337311.78, -638531.7, -48929.645, 0.042395484, -0.15079291, -329563.06, 96981.83, 0.0, 10.001774, 9.997769 
1.8650556e+3, 2.664709e+2, -149886.16, -436142.13, -26439.254, 0.05341001, -0.20188642, -147464.64, 181102.66, 0.000000065173005, 10.002124, 9.9983225 
1.8650572e+3, 2.764682e+2, 43741.152, -310722.0, -46288.652, 0.09797046, -0.32825345, 49686.188, 280276.38, 0.000009431519, 10.00285, 9.998162 
1.865059e+3, 2.8646657e+2, -13580.065, -505823.56, -48597.594, 0.13885304, -0.19025026, -8828.059, 123781.44, 0.00011324194, 10.002725, 9.996211 
1.8650602e+3, 2.9646578e+2, 38740.086, -367172.56, -59154.652, 0.1666204, 0.07461161, 47185.14, 81810.14, 0.0004702692, 10.002154, 9.996755 
1.8650612e+3, 3.0646253e+2, 212897.23, -110393.875, 15610.986, 0.056215912, -0.002979817, 213649.3, 213649.3, 0.0011462662, 10.002379, 9.998078 
1.8650639e+3, 3.164574e+2, 386058.2, 26552.17, -115158.86, -0.029751768, -0.3517935, 419782.84, 419782.84, 0.002038564, 10.003306, 9.998578 
1.8750374e+3, 1.2648278e+2, -1660139.9, -1446544.4, 41882.227, -0.39753067, -0.19785091, -1438625.6, 261824.11, 0.14588223, 9.999186, 10.002518 
1.8750447e+3, 1.3648224e+2, -2214651.5, -1971545.1, -31904.818, 0.18488841, -0.24104217, -1967427.6, -364969.9, 0.0986057, 9.9961815, 9.999396 
1.8750435e+3, 1.4648451e+2, -2017405.4, -1775796.5, -54377.35, -0.003030859, 0.045329206, -1764122.3, -259685.97, 0.053927336, 9.996644, 9.999843 
1.8750443e+3, 1.5648173e+2, -1489113.8, -1439453.1, -78780.46, -0.14875075, -0.26154327, -1381682.5, 24780.818, 0.021407956, 9.999467, 10.000116 
1.875047e+3, 1.6648091e+2, -1378664.8, -1432928.3, -130097.23, -0.09244432, -0.3037777, -1272900.3, 35572.67, 0.0050250688, 9.999967, 9.999247 
1.8750504e+3, 1.7648174e+2, -1387779.0, -1358337.1, -143683.9, 0.060595382, -0.17224433, -1228622.1, -18154.695, 0.00038988978, 9.999123, 9.999483 
1.8750517e+3, 1.8648258e+2, -1158586.8, -1174318.1, -130489.61, 0.039465077, -0.04752482, -1035725.94, 76732.64, 0.000000733184, 9.999919, 9.9997 
1.875052e+3, 1.9648328e+2, -818080.0, -972899.6, -73024.56, -0.07616249, 0.03547163, -789071.5, 225377.69, 0.0, 10.00165, 9.999572 
1.8750523e+3, 2.0648053e+2, -747769.8, -1085308.8, -117980.61, -0.07954053, -0.0961541, -710620.5, 205853.42, 0.0, 10.0022955, 9.997824 
1.8750526e+3, 2.1647586e+2, -642147.44, -970175.0, -116745.57, -0.017549748, -0.36573505, -604840.44, 213676.7, 0.0, 10.002294, 9.997938 
1.8750535e+3, 2.2647493e+2, -571139.75, -905831.56, -109816.85, 0.04145078, -0.2387962, -538324.7, 182203.31, 0.0, 10.002194, 9.997759 
1.8750547e+3, 2.364762e+2, -468097.78, -770724.9, -121793.15, 0.09598675, 0.08552194, -425170.84, 197348.94, 0.0, 10.002092, 9.998055 
1.875055e+3, 2.4647342e+2, -360207.2, -612278.3, -93356.914, 0.050448157, -0.02480596, -329397.38, 195147.13, 0.0, 10.0019045, 9.998567 
1.875055e+3, 2.5646833e+2, -285617.66, -516236.75, -46138.5, -0.049300168, -0.41432276, -276729.56, 149858.69, 0.0, 10.00171, 9.998642 
1.875057e+3, 2.6646665e+2, -177084.45, -479726.7, -3836.0337, -0.015529908, -0.41054976, -177035.83, 151566.67, 0.00000004605578, 10.00206, 9.998059 
1.8750602e+3, 2.7646703e+2, 14597.8545, -347327.3, -18372.855, 0.09039823, -0.20367348, 15528.147, 246127.36, 0.000008317367, 10.002748, 9.997961 
1.8750612e+3, 2.8646454e+2, -18214.215, -496411.75, -76852.164, 0.08866864, -0.14985138, -6166.658, 126460.4, 0.00010637397, 10.002638, 9.996321 
1.8750612e+3, 2.964604e+2, 15474.942, -388300.7, -61962.137, 0.044324297, -0.22957566, 24769.504, 59442.902, 0.00044669944, 10.00204, 9.996667 
1.8750636e+3, 3.0645707e+2, 129363.19, -257394.95, 38050.027, 0.037028223, -0.2528689, 133071.08, 133071.08, 0.0010870952, 10.002267, 9.997122 
1.8750691e+3, 3.164566e+2, 264158.5, -159450.6, -8359.019, 0.15453403, -0.03522886, 264323.38, 264323.38, 0.0019200526, 10.003038, 9.997421 
1.8850362e+3, 1.2647782e+2, -2178634.3, -1587611.1, -105678.88, -0.23136891, -0.19427717, -1569283.4, 131215.39, 0.15411249, 9.995173, 10.003353 
1.8850414e+3, 1.3647781e+2, -1798373.4, -1739754.9, -215454.81, 0.111482, -0.23015092, -1551625.0, 50875.043, 0.10442951, 9.998895, 9.999704 
1.8850416e+3, 1.464805e+2, -1549509.8, -1586613.3, -131755.31, -0.03738166, 0.102025926, -1435006.5, 69468.15, 0.057399224, 10.000028, 9.999522 
1.8850438e+3, 1.5647635e+2, -1499414.1, -1468335.9, -79832.12, -0.13841298, -0.31203976, -1402544.6, 3971.7827, 0.023018045, 9.999508, 9.999893 
1.8850468e+3, 1.6647598e+2, -1408365.6, -1426606.0, -98398.66, -0.076871835, -0.31058463, -1318665.5, -10142.973, 0.005521801, 9.999675, 9.999432 
1.8850498e+3, 1.7647833e+2, -1188178.3, -1240319.0, -72956.65, 0.03901557, -0.043259766, -1136773.9, 73728.88, 0.0004532519, 10.000391, 9.999691 
1.8850516e+3, 1.8647872e+2, -1131367.8, -1119994.9, -81722.27, 0.031906113, 0.0046385564, -1043761.44, 68735.12, 0.0000010252129, 9.99992, 10.000075 
1.8850525e+3, 1.9647774e+2, -1201563.1, -1117036.5, -116281.36, -0.044223476, -0.12088319, -1035576.2, -21075.932, 0.0, 9.998831, 9.999941 
1.8850535e+3, 2.0647538e+2, -1095885.8, -1212525.1, -135864.08, -0.04811029, -0.24858192, -1006353.4, -89833.21, 0.0, 9.999732, 9.998183 
1.8850547e+3, 2.164724e+2, -688304.6, -959849.7, -110956.85, -0.018366365, -0.38590714, -648732.94, 169814.78, 0.0, 10.001846, 9.998221 
1.8850556e+3, 2.264715e+2, -614542.1, -960921.9, -121783.55, 0.03862472, -0.25017738, -576010.56, 144549.39, 0.0, 10.002052, 9.997443 
1.8850563e+3, 2.3647174e+2, -619451.5, -869258.0, -123958.82, 0.10719019, 0.003675361, -568381.4, 54182.684, 0.0, 10.001161, 9.997827 
1.8850568e+3, 2.4646945e+2, -433774.63, -599215.4, -90507.3, 0.06767582, -0.07270643, -393880.84, 130704.02, 0.0, 10.001199, 9.998994 
1.885057e+3, 2.564658e+2, -248483.53, -464680.28, -101314.375, -0.03641286, -0.35762355, -208427.05, 218187.28, 0.0, 10.001827, 9.99894 
1.8850592e+3, 2.6646426e+2, -214989.92, -535993.06, -69214.64, 0.0059617874, -0.3313376, -200701.84, 127926.66, 0.000000017635879, 10.001972, 9.99771 
1.8850626e+3, 2.7646405e+2, -126956.805, -434477.28, -101911.09, 0.11201689, -0.1501324, -96250.02, 134382.95, 0.000007212163, 10.001872, 9.997777 
1.8850635e+3, 2.8646156e+2, -41216.32, -435944.72, -132688.64, 0.07341526, -0.12702422, -759.3624, 131900.45, 0.00009804042, 10.002191, 9.996942 
1.8850632e+3, 2.9645762e+2, 168852.19, -271412.7, -96111.89, 0.0006611143, -0.24560362, 188919.22, 223620.27, 0.00041857266, 10.002902, 9.997055 
1.8850665e+3, 3.0645406e+2, 249375.72, -260913.63, 60132.6, 0.053283133, -0.27299187, 256366.0, 256366.0, 0.0010223346, 10.00333, 9.996602 
1.8850724e+3, 3.1645462e+2, 316759.2, -112036.8, 40826.3, 0.15893182, 0.0915808, 320611.72, 320611.72, 0.0018036569, 10.003277, 9.9976425 
1.895036e+3, 1.2647077e+2, -2132152.5, -1513336.5, 4856.952, 0.20694229, -0.128495, -1513298.4, 187275.72, 0.16258536, 9.99521, 10.003932 
1.8950365e+3, 1.3647002e+2, -1751795.6, -1639079.5, -93232.36, -0.28392836, -0.3007569, -1586494.9, 16084.561, 0.110513955, 9.998871, 10.000393 
1.8950391e+3, 1.4647454e+2, -1484043.0, -1448480.3, -148723.88, -0.30587748, 0.12839021, -1316478.5, 188056.17, 0.06108175, 10.00002, 10.000512 
1.8950453e+3, 1.564717e+2, -1435523.6, -1337368.1, -87454.06, 0.062174093, -0.24957606, -1286162.1, 120401.16, 0.024752133, 9.99951, 10.00081 
1.8950485e+3, 1.6647257e+2, -1349973.0, -1312004.0, -74677.82, 0.09492285, -0.20717512, -1253935.4, 54620.168, 0.0060684755, 9.999701, 10.000209 
1.895049e+3, 1.7647618e+2, -1150521.3, -1162305.5, -52854.277, -0.08483375, 0.112016775, -1103231.6, 107289.08, 0.0005270964, 10.000388, 10.000231 
1.8950509e+3, 1.8647411e+2, -1187670.8, -1236360.3, -126081.984, -0.03746452, -0.06103389, -1083604.8, 28932.238, 0.0000013718216, 9.999919, 9.999276 
1.8950534e+3, 1.9646864e+2, -1241444.3, -1198587.4, -136715.53, 0.14641997, -0.55844575, -1081631.1, -67046.984, 0.0, 9.998828, 9.999383 
1.8950553e+3, 2.0646836e+2, -1033381.5, -1085003.4, -59345.12, 0.13926369, -0.50585485, -994477.3, -77892.34, 0.0, 9.999736, 9.99906 
1.895057e+3, 2.1647117e+2, -644559.8, -856604.5, -43183.934, 0.018692313, -0.150514, -636102.5, 182455.73, 0.0, 10.001786, 9.998962 
1.8950576e+3, 2.2646903e+2, -634850.94, -982488.56, -159133.22, 0.020021625, -0.16596381, -573008.25, 147574.05, 0.0, 10.001961, 9.997342 
1.8950574e+3, 2.3646405e+2, -641237.0, -896078.5, -143566.52, 0.08941586, -0.41992375, -576701.0, 45934.402, 0.0, 10.001083, 9.997679 
1.8950582e+3, 2.4646355e+2, -461390.3, -641952.5, -71582.25, 0.083935946, -0.29715887, -436455.53, 88187.59, 0.0, 10.001126, 9.998739 
1.8950595e+3, 2.5646564e+2, -278920.8, -511076.6, -74647.945, 0.041262746, 0.016027136, -256990.02, 169634.48, 0.0, 10.001752, 9.998659 
1.895062e+3, 2.6646355e+2, -256317.7, -604236.75, -74465.414, 0.07204185, 0.026282003, -241049.81, 87597.32, 0.0000000071100716, 10.001894, 9.99728 
1.8950647e+3, 2.764592e+2, -155291.81, -469933.94, -93268.27, 0.11685303, -0.16697706, -129722.5, 100970.125, 0.0000064261117, 10.001779, 9.997577 
1.8950656e+3, 2.8645757e+2, 24424.02, -286841.3, -112177.54, 0.036304258, -0.10869061, 60638.496, 193346.7, 0.00008702771, 10.00212, 9.998007 
1.8950659e+3, 2.9645723e+2, 205953.05, -170774.52, -55636.543, -0.031340085, 0.029669354, 213997.88, 248707.89, 0.00037869054, 10.002788, 9.997808 
1.8950696e+3, 3.0645353e+2, 217024.84, -283550.13, 59625.9, 0.0062236227, -0.03983576, 224029.16, 224029.16, 0.0009392416, 10.003163, 9.996514 
1.8950734e+3, 3.1645152e+2, 318554.53, -6032.3247, 75226.21, -0.08926854, 0.06248036, 335141.34, 335141.34, 0.0016761859, 10.002896, 9.998534 
1.905034e+3, 1.2646441e+2, -1547885.3, -1335874.9, 61655.605, 0.25842667, -0.08280583, -1319248.5, 381388.78, 0.1713416, 9.999791, 10.003206 
1.9050346e+3, 1.3646217e+2, -1920138.9, -1679710.6, -37146.543, -0.28561008, -0.41963547, -1674102.3, -71445.69, 0.11689223, 9.997557, 10.000731 
1.9050384e+3, 1.464685e+2, -1772979.3, -1496952.4, -118348.61, -0.2536955, 0.123797454, -1453157.9, 51435.926, 0.06499328, 9.997615, 10.001311 
1.9050446e+3, 1.5646751e+2, -1493300.5, -1292526.0, -82237.07, 0.059808362, -0.14397454, -1263142.1, 143461.88, 0.026617203, 9.99878, 10.001482 
1.9050477e+3, 1.6646814e+2, -1466428.0, -1336907.1, -93781.484, 0.102010824, -0.17092025, -1287698.8, 20898.74, 0.0066676727, 9.998764, 10.000487 
1.905049e+3, 1.7647061e+2, -1432851.1, -1271940.4, -109447.914, -0.02492233, 0.0049620913, -1216557.9, -5985.5796, 0.0006122247, 9.9983425, 10.000457 
1.9050509e+3, 1.8646878e+2, -1262604.5, -1291683.6, -149361.47, 0.00000763713, -0.14540467, -1127076.5, -14489.063, 0.0000017786746, 9.999494, 9.999096 
1.9050531e+3, 1.9646426e+2, -848531.6, -1020509.25, -121944.99, 0.10713654, -0.5290175, -785307.0, 229321.1, 0.0, 10.001579, 9.999277 
1.9050561e+3, 2.0646477e+2, -716365.4, -880303.2, -41648.668, 0.14098845, -0.41544098, -706391.3, 210231.9, 0.0, 10.001705, 9.999508 
1.9050594e+3, 2.1646824e+2, -765711.56, -863603.6, -69742.375, 0.12674944, -0.036913518, -729453.6, 89137.86, 0.0, 10.000739, 9.999414 
1.9050598e+3, 2.2646609e+2, -768334.3, -978013.1, -178946.97, 0.12063025, -0.10899026, -665777.25, 54837.008, 0.0, 10.000744, 9.997959 
1.9050588e+3, 2.3646079e+2, -573431.25, -813219.44, -114314.086, 0.11229174, -0.4574714, -527668.1, 94999.08, 0.0, 10.001327, 9.998134 
1.9050597e+3, 2.464606e+2, -378807.47, -644172.7, 6245.8667, 0.07903807, -0.29889807, -378660.56, 146012.52, 0.0, 10.001885, 9.99835 
1.9050615e+3, 2.564633e+2, -193550.86, -497171.34, -23393.715, 0.030176144, 0.1099249, -191758.97, 234893.48, 0.0, 10.00246, 9.998405 
1.9050641e+3, 2.664613e+2, -158570.63, -522087.63, -6660.881, 0.07602649, 0.11819267, -158448.61, 170226.34, 0.000000016068412, 10.002413, 9.997595 
1.905067e+3, 2.7645677e+2, -92266.86, -416894.16, 19988.75, 0.14589193, -0.11514938, -91040.69, 139679.53, 0.000006012808, 10.002093, 9.997798 
1.905068e+3, 2.8645498e+2, 106335.99, -255536.64, 18502.543, 0.04090123, -0.08278438, 107279.57, 240016.77, 0.00007622204, 10.002724, 9.997929 
1.9050688e+3, 2.964545e+2, 381126.38, -82744.29, -35312.152, -0.08850851, 0.04807793, 383799.1, 418538.8, 0.00033460214, 10.003989, 9.997828 
1.9050725e+3, 3.064514e+2, 236656.13, -233342.95, 25732.736, -0.0036742399, 0.020586412, 238060.8, 238060.8, 0.0008477371, 10.0031185, 9.996892 
1.9050764e+3, 3.164479e+2, 43557.914, -85792.48, 10115.938, 0.029204015, -0.06666866, 44344.258, 44344.258, 0.0015470556, 10.000737, 9.999044 
1.9150294e+3, 1.2645842e+2, -1674222.1, -1588391.8, -70754.86, -0.20174079, -0.095048904, -1548554.5, 152137.22, 0.18042894, 9.999766, 10.001134 
1.9150357e+3, 1.3645427e+2, -1924104.1, -1686641.9, -93078.98, 0.059902027, -0.58833015, -1654506.3, -51774.66, 0.12358676, 9.997563, 10.000675 
1.9150394e+3, 1.4646238e+2, -1718501.6, -1406204.9, -74457.94, 0.07003372, 0.09215019, -1389361.1, 115291.0, 0.069141634, 9.997683, 10.001937 
1.915041e+3, 1.5646374e+2, -1461451.0, -1227020.0, -45844.68, -0.18393585, 0.001479866, -1218373.6, 188265.84, 0.028615344, 9.998774, 10.001946 
1.9150445e+3, 1.6646278e+2, -1473030.0, -1360424.6, -116053.336, -0.10883333, -0.1947717, -1287737.5, 20910.549, 0.0073205116, 9.998802, 10.000308 
1.9150494e+3, 1.7646171e+2, -1435778.4, -1286281.8, -108125.48, 0.17398168, -0.3552887, -1229582.6, -18926.025, 0.00070924795, 9.998375, 10.000343 
1.9150513e+3, 1.8646273e+2, -1229894.6, -1229334.5, -72138.26, 0.09545688, -0.24053061, -1157475.8, -44828.08, 0.0000023137907, 9.999516, 9.999516 
1.9150518e+3, 1.9646451e+2, -827378.6, -970235.6, -54476.035, -0.19609645, -0.03263259, -808975.8, 205656.89, 0.0, 10.001551, 9.999637 
1.9150557e+3, 2.0646453e+2, -724197.44, -890808.3, -81290.445, -0.08520429, 0.016841851, -691107.3, 225528.4, 0.0, 10.001675, 9.999453 
1.9150615e+3, 2.1646367e+2, -761253.9, -844515.1, -93355.04, 0.26166254, -0.03402119, -700667.7, 117979.64, 0.0, 10.000692, 9.999568 
1.9150624e+3, 2.2646274e+2, -684573.3, -787253.56, -158593.84, 0.2906567, -0.068171546, -569216.7, 151438.67, 0.0, 10.000668, 9.999308 
1.9150604e+3, 2.3646174e+2, -509050.1, -661432.3, -85385.76, 0.13361913, -0.11691472, -470804.25, 151856.98, 0.0, 10.00125, 9.999213 
1.9150609e+3, 2.4646032e+2, -428678.2, -728627.75, 25191.75, -0.00032288098, -0.09876294, -426577.16, 98100.39, 0.0, 10.001801, 9.997813 
1.9150627e+3, 2.5645867e+2, -231897.33, -549550.5, -1148.813, -0.1170786, -0.070339546, -231893.17, 194806.1, 0.0, 10.00235, 9.998096 
1.9150655e+3, 2.664576e+2, -97507.17, -379197.7, -26261.13, -0.035508744, -0.01798724, -95079.84, 233631.06, 0.000000038925435, 10.002335, 9.998618 
1.9150689e+3, 2.7645674e+2, -57961.773, -325906.34, 21964.176, 0.13710997, 0.015320269, -56173.246, 174544.08, 0.000005434598, 10.00201, 9.998462 
1.9150706e+3, 2.864536e+2, 7857.7075, -444258.44, 60492.832, 0.008568995, -0.03712906, 15811.676, 148559.53, 0.00006479501, 10.00265, 9.996671 
1.9150715e+3, 2.9644915e+2, 291460.3, -235689.3, 7039.61, -0.22675328, -0.18383685, 291554.28, 326346.88, 0.00028719942, 10.003848, 9.996847 
1.9150755e+3, 3.0644777e+2, 282935.8, -110137.43, -65241.344, -0.049924105, -0.050305218, 293481.47, 293481.47, 0.00074736646, 10.002998, 9.99779 
1.9150783e+3, 3.1644645e+2, 22018.03, -60140.004, -91890.87, 0.15499006, -0.014982128, 81593.95, 81593.95, 0.0014044553, 10.000463, 9.999337 
1.9250284e+3, 1.264537e+2, -1883208.4, -1736865.5, -87721.54, -0.21629919, -0.048775394, -1695804.1, 4935.7524, 0.18987963, 9.99855, 10.000552 
1.9250348e+3, 1.364494e+2, -1598884.4, -1521073.4, -14393.325, 0.10770501, -0.5761694, -1518496.3, 84282.72, 0.13060497, 9.999694, 10.00088 
1.9250382e+3, 1.4645688e+2, -1458589.3, -1334047.6, -9527.194, 0.085623264, 0.05212934, -1333323.0, 171383.03, 0.07352615, 9.999715, 10.001485 
1.9250396e+3, 1.5645769e+2, -1441884.6, -1262922.9, -72966.35, -0.21999413, -0.043843146, -1236944.1, 169756.14, 0.030745408, 9.999112, 10.00153 
1.925043e+3, 1.6645673e+2, -1394062.8, -1305468.3, -154530.86, -0.1594935, -0.22993131, -1189010.9, 119698.16, 0.008026891, 9.999288, 10.00045 
1.9250481e+3, 1.7645605e+2, -1185516.5, -1141052.3, -127713.0, 0.11888511, -0.3649388, -1033650.8, 177062.6, 0.0008187495, 9.999998, 10.000556 
1.925051e+3, 1.8645781e+2, -1092792.9, -1084183.8, -35711.332, 0.07191798, -0.22399569, -1052518.5, 60177.957, 0.0000031359323, 10.000116, 10.000226 
1.9250527e+3, 1.9646052e+2, -1017671.75, -997265.2, -9447.716, -0.17537206, 0.0046974593, -993562.9, 21109.047, 0.0, 9.999957, 10.000224 
1.9250561e+3, 2.0646076e+2, -975116.1, -1019098.1, -64730.336, -0.10580966, 0.055472005, -928743.25, -12068.23, 0.0, 9.999984, 9.999386 
1.9250606e+3, 2.1645984e+2, -833894.94, -876286.7, -82673.71, 0.14536463, 0.0034842552, -769743.2, 48948.125, 0.0, 10.000188, 9.99959 
1.9250622e+3, 2.2645961e+2, -631820.1, -697790.1, -144666.38, 0.21152204, 0.0081592295, -516425.97, 204266.14, 0.0, 10.000762, 9.999877 
1.925062e+3, 2.3645966e+2, -433172.3, -568611.56, -142946.42, 0.16173747, 0.0068595433, -342716.0, 279969.47, 0.0, 10.001524, 9.999723 
1.925063e+3, 2.4645789e+2, -476683.38, -729347.1, -32435.674, 0.061401732, -0.041965645, -472585.9, 52117.59, 0.0, 10.001374, 9.998014 
1.9250646e+3, 2.5645527e+2, -449026.34, -643766.7, -11574.543, -0.071217954, -0.12697431, -448340.8, -21606.969, 0.0, 10.000796, 9.998207 
1.9250675e+3, 2.6645428e+2, -223449.44, -449330.84, -38246.676, -0.030566227, -0.06156862, -217149.17, 111595.44, 0.000000047147957, 10.001526, 9.998519 
1.9250709e+3, 2.764541e+2, 90524.78, -249667.44, -89640.1, 0.08082951, 0.045836117, 112699.41, 343444.7, 0.000004366453, 10.003019, 9.998496 
1.925073e+3, 2.8645107e+2, 51544.383, -356510.38, -2379.8652, -0.009799394, -0.03401972, 51558.26, 184332.66, 0.000052245967, 10.002679, 9.997253 
1.9250748e+3, 2.9644674e+2, -23018.658, -333710.25, 61067.676, -0.16213635, -0.2218892, -11446.577, 23369.88, 0.00023780671, 10.001454, 9.997324 
1.9250779e+3, 3.0644566e+2, 206324.55, -126026.29, 23435.896, -0.058956917, -0.087177806, 207969.02, 207969.02, 0.0006401483, 10.002368, 9.99799 
1.9250818e+3, 3.1644565e+2, 570791.4, 144255.83, -106608.4, 0.2581938, 0.06444479, 595952.8, 595952.8, 0.0012396647, 10.004436, 9.998858 
1.9350304e+3, 1.2645021e+2, -1809795.0, -1620312.8, -85978.89, 0.093860365, 0.055737145, -1587115.4, 113666.92, 0.1997211, 9.998623, 10.001483 
1.9350316e+3, 1.3644764e+2, -1570768.0, -1459473.3, 20179.629, -0.19052407, -0.38020974, -1455927.4, 146870.94, 0.13795441, 9.999675, 10.001386 
1.9350347e+3, 1.4645207e+2, -1563333.9, -1549305.5, -33942.863, -0.26727074, 0.011595799, -1521659.6, -16905.041, 0.07814733, 9.999724, 9.999913 
1.93504e+3, 1.5644944e+2, -1532453.0, -1453247.6, -83548.98, -0.094710015, -0.2700453, -1400390.5, 6395.034, 0.033007, 9.999133, 10.000184 
1.935043e+3, 1.6645005e+2, -1357558.1, -1237624.9, -131803.81, -0.10506021, -0.2640562, -1152787.4, 155992.5, 0.008786739, 9.999319, 10.000903 
1.9350448e+3, 1.7645352e+2, -1147740.4, -1065033.6, -101071.23, -0.22044407, -0.02955987, -997183.1, 213560.34, 0.00094156526, 10.000006, 10.001076 
1.9350494e+3, 1.8645394e+2, -1023010.9, -940802.6, -43777.094, -0.11415165, -0.10195378, -921856.94, 190877.98, 0.0000044945964, 10.00012, 10.001209 
1.9350557e+3, 1.964523e+2, -961609.56, -875789.25, -8482.902, 0.11808287, -0.40564314, -874958.8, 139786.55, 0.0, 9.999938, 10.001065 
1.9350576e+3, 2.0645352e+2, -984987.7, -1037258.75, -60692.625, 0.02283112, -0.28650504, -945042.5, -28301.889, 0.0, 9.9999695, 9.999271 
1.935057e+3, 2.164566e+2, -852235.6, -902286.06, -66605.65, -0.25923067, 0.07312489, -806109.06, 12615.877, 0.0, 10.000133, 9.999439 
1.9350594e+3, 2.264565e+2, -663916.44, -741519.8, -118150.01, -0.16163957, 0.11009749, -578359.8, 142367.16, 0.0, 10.000665, 9.99962 
1.9350636e+3, 2.364545e+2, -452828.63, -584468.56, -115643.9, 0.15103924, -0.07235832, -385585.53, 237154.25, 0.0, 10.001426, 9.999655 
1.935066e+3, 2.4645345e+2, -422913.2, -603802.1, -61123.977, 0.20599157, -0.09902347, -404195.66, 120553.9, 0.0, 10.001307, 9.998913 
1.9350673e+3, 2.56453e+2, -416661.75, -561566.56, -17079.502, 0.11332278, -0.055817638, -414675.84, 12081.183, 0.0, 10.000734, 9.998802 
1.9350697e+3, 2.6645133e+2, -323417.16, -636936.75, 14181.987, 0.027692681, -0.0139821395, -322776.94, 5999.968, 0.00000001782158, 10.001443, 9.99727 
1.9350725e+3, 2.7644885e+2, 19954.586, -360888.5, -39845.113, -0.07173817, -0.015944574, 24078.66, 254883.02, 0.0000032438913, 10.002884, 9.997789 
1.935075e+3, 2.864475e+2, 205034.47, -27134.016, -61095.28, -0.076557085, -0.03145569, 220130.19, 352945.13, 0.00004227561, 10.002615, 9.999556 
1.935078e+3, 2.9644704e+2, 98934.24, -62766.387, 40066.887, 0.01960926, -0.058763307, 108317.67, 143131.08, 0.00019775891, 10.001377, 9.999225 
1.93508e+3, 3.064451e+2, 146491.3, -215707.95, 95511.36, -0.11123222, -0.06021469, 170134.17, 170134.17, 0.0005462684, 10.002225, 9.99744 
1.9350848e+3, 3.164438e+2, 446123.2, -18422.87, -14478.294, 0.09071279, 0.015303959, 446573.97, 446573.97, 0.001078696, 10.004074, 9.997889 
1.9450311e+3, 1.2644699e+2, -1493739.0, -1483357.1, 18338.77, 0.18071462, 0.041993212, -1469488.8, 231327.94, 0.20999403, 10.001181, 10.001405 
1.9450314e+3, 1.364453e+2, -1565795.9, -1522708.1, 13695.864, -0.20000891, -0.24194154, -1518723.3, 84102.51, 0.14565058, 10.000033, 10.000711 
1.9450335e+3, 1.4644863e+2, -1634261.5, -1626692.9, -34388.76, -0.33997944, 0.09226013, -1595880.8, -91088.06, 0.083007626, 9.999422, 9.999527 
1.9450395e+3, 1.5644532e+2, -1540611.3, -1487393.6, 1812.3125, -0.06889833, -0.21968496, -1487332.0, -80503.305, 0.03539992, 9.999211, 9.999908 
1.9450428e+3, 1.6644596e+2, -1320469.4, -1208178.0, 18315.771, -0.07051583, -0.20958534, -1205266.0, 103556.29, 0.009600047, 9.999509, 10.00102 
1.9450445e+3, 1.7644961e+2, -1109786.6, -1034587.3, 10023.178, -0.25404054, 0.033180572, -1033274.3, 177509.52, 0.0010784023, 10.000202, 10.001194 
1.945049e+3, 1.8644984e+2, -1110547.1, -970418.6, -27508.629, -0.12670046, -0.06916757, -965211.9, 147564.8, 0.0000066792873, 9.999471, 10.001312 
1.9450551e+3, 1.964479e+2, -1240923.1, -999460.1, -56522.78, 0.17377505, -0.41538987, -986884.0, 27905.959, 0.0, 9.997983, 10.001152 
1.9450574e+3, 2.0644912e+2, -1157103.0, -1107502.1, -53511.574, 0.069822766, -0.30468947, -1073323.4, -156538.38, 0.0, 9.998736, 9.99938 
1.9450572e+3, 2.1645229e+2, -742858.5, -834736.56, -56597.38, -0.2724781, 0.05473914, -715902.7, 102865.85, 0.0, 10.000813, 9.999578 
1.9450599e+3, 2.2645247e+2, -545966.1, -631879.25, -89840.555, -0.19772877, 0.087487936, -489340.63, 231426.7, 0.0, 10.001244, 10.000093 
1.9450642e+3, 2.3645091e+2, -522321.94, -575924.8, -43473.934, 0.11184208, -0.09663215, -498051.84, 124723.08, 0.0, 10.00076, 10.000039 
1.9450672e+3, 2.4645029e+2, -441607.78, -619127.44, -2220.3433, 0.20182393, -0.0931347, -441580.0, 83200.98, 0.0, 10.001217, 9.998849 
1.9450693e+3, 2.5645015e+2, -189771.53, -450584.4, -40171.313, 0.15074079, -0.013110181, -183724.42, 243062.13, 0.0, 10.002282, 9.998819 
1.9450717e+3, 2.6644853e+2, -159987.33, -492392.03, 66324.6, 0.03533121, -0.0005268609, -147242.27, 181562.73, 0.000000002142629, 10.002279, 9.997858 
1.9450742e+3, 2.7644613e+2, -118261.3, -379635.5, 125872.85, -0.12662415, -0.04784643, -67501.18, 163328.48, 0.0000029419668, 10.001708, 9.998235 
1.9450775e+3, 2.864454e+2, 91222.336, -88876.8, 31748.871, -0.05238978, -0.014655047, 96655.305, 229490.67, 0.000037407608, 10.001874, 9.999484 
1.9450815e+3, 2.9644588e+2, 272523.13, 32273.188, -54380.688, 0.17679366, 0.05617379, 284258.94, 319086.47, 0.0001742076, 10.002513, 9.999333 
1.9450821e+3, 3.064433e+2, 131558.8, -166760.55, 23372.08, -0.08779951, -0.047485575, 133378.8, 133378.8, 0.00047795317, 10.0018835, 9.997936 
1.9450861e+3, 3.164418e+2, 27834.563, -146608.9, 32868.27, -0.0013884754, -0.022437653, 33822.023, 33822.023, 0.0009377281, 10.000833, 9.998584 
1.9550301e+3, 1.264444e+2, -1549451.1, -1604586.4, 3474.5144, -0.069428265, -0.053915933, -1549233.0, 151606.58, 0.22070916, 10.001221, 10.000343 
1.9550338e+3, 1.3644242e+2, -1685959.1, -1777600.6, -20377.395, 0.036554106, -0.15812255, -1681632.4, -78771.29, 0.15369554, 10.000055, 9.998859 
1.9550346e+3, 1.4644651e+2, -1569957.5, -1508896.0, -46745.523, -0.19308305, 0.2946988, -1483594.3, 21226.447, 0.08810495, 9.999478, 10.000322 
1.9550376e+3, 1.5644518e+2, -1485552.5, -1378693.1, 1733.95, -0.18564667, 0.09218076, -1378665.0, 28167.068, 0.037922986, 9.999227, 10.000656 
1.955042e+3, 1.664443e+2, -1333400.8, -1238079.4, 40932.926, -0.11153575, -0.06951651, -1222914.5, 85923.43, 0.010466628, 9.999523, 10.000806 
1.9550471e+3, 1.7644434e+2, -1129124.0, -1079144.5, 28142.713, -0.028121473, -0.16924603, -1066497.9, 144336.72, 0.0012294218, 10.000217, 10.000881 
1.9550496e+3, 1.8644546e+2, -1163589.8, -1084451.4, -87108.91, -0.019828646, -0.12165238, -1028345.75, 84476.72, 0.000009908067, 9.99949, 10.000519 
1.9550511e+3, 1.9644707e+2, -1283986.8, -1093500.8, -88627.47, -0.040986195, -0.032289438, -1058643.5, -43836.35, 0.0, 9.998, 10.0005 
1.9550554e+3, 2.064473e+2, -1143839.5, -1070151.8, 21680.889, -0.007954304, -0.010089055, -1064246.0, -147435.64, 0.0, 9.998698, 9.999654 
1.9550614e+3, 2.1644685e+2, -724568.44, -776117.0, 14001.455, 0.05580117, -0.04305819, -721010.94, 97811.734, 0.0, 10.00073, 10.000018 
1.9550638e+3, 2.2644746e+2, -475670.8, -465627.88, -109855.77, 0.04504859, -0.053908445, -360678.88, 360135.0, 0.0, 10.001151, 10.001283 
1.9550638e+3, 2.3644878e+2, -475400.66, -457424.3, -47804.406, -0.004288244, -0.06802275, -417770.44, 205021.77, 0.0, 10.000677, 10.00089 
1.9550663e+3, 2.4644825e+2, -531518.8, -784308.6, 34161.246, -0.011766772, -0.028416416, -526983.7, -2184.624, 0.0, 10.001123, 9.997759 
1.95507e+3, 2.5644666e+2, -244558.81, -540809.5, -2138.2317, -0.0003233723, 0.01067022, -244543.39, 182279.1, 0.0, 10.002192, 9.998237 
1.9550732e+3, 2.6644605e+2, -5958.225, -157632.42, 37866.344, -0.05430691, 0.014287399, 2969.7969, 331796.97, 0.00000003752054, 10.002204, 10.0002 
1.9550759e+3, 2.7644593e+2, -14130.108, -146975.2, 115170.32, -0.14699517, -0.0374494, 52399.05, 283221.22, 0.0000033154865, 10.001637, 9.999868 
1.9550799e+3, 2.8644472e+2, -98528.96, -459173.72, 45741.82, -0.015031385, 0.023782521, -92817.81, 40018.563, 0.000035477744, 10.001771, 9.99699 
1.955085e+3, 2.9644328e+2, 132490.06, -228486.31, -31784.76, 0.2574771, 0.14678113, 135267.42, 170125.2, 0.00015969804, 10.002398, 9.997591 
1.9550845e+3, 3.0644044e+2, 221020.8, 31318.64, -39706.316, -0.07051139, -0.0021079679, 228996.36, 228996.36, 0.00042261675, 10.001816, 9.999337 
1.9550873e+3, 3.1643912e+2, 141791.66, 149823.45, 127608.83, -0.0025198597, -0.098966494, 273479.56, 273479.56, 0.0008022784, 10.000619, 10.000702 
1.96503e+3, 1.2644129e+2, -1854939.3, -1800618.3, -83825.77, -0.093108006, 0.0043500364, -1739662.6, -38791.49, 0.23177752, 9.99908, 9.999841 
1.9650345e+3, 1.3643871e+2, -1720570.0, -1830442.4, -67997.5, 0.09031404, -0.11664594, -1688089.8, -85188.43, 0.1620495, 9.99999, 9.998523 
1.965035e+3, 1.4644234e+2, -1477548.8, -1411719.9, -42060.17, -0.107848, 0.27860314, -1391226.3, 113637.016, 0.093428105, 9.99989, 10.000837 
1.9650371e+3, 1.5644103e+2, -1397174.0, -1290080.4, -29825.5, -0.17280273, 0.02534891, -1282334.3, 124535.36, 0.04057487, 9.999625, 10.001094 
1.9650416e+3, 1.6644026e+2, -1417061.1, -1294321.1, 17017.75, -0.08033732, -0.13640891, -1292005.3, 16868.887, 0.011385711, 9.999025, 10.000654 
1.9650473e+3, 1.764405e+2, -1425645.3, -1241001.8, 2029.1599, 0.064398855, -0.20031984, -1240979.4, -30108.291, 0.0013940044, 9.99828, 10.000698 
1.9650495e+3, 1.8644191e+2, -1213081.3, -1151015.3, -73725.984, 0.02673521, -0.09635271, -1102057.1, 10801.346, 0.000014255441, 9.999329, 10.000146 
1.9650501e+3, 1.964438e+2, -808049.6, -894952.8, -54064.766, -0.10550251, 0.05960051, -782139.56, 232702.86, 0.0, 10.0014, 10.000227 
1.9650549e+3, 2.0644376e+2, -804006.6, -868821.5, 69420.164, -0.032426193, 0.046679556, -759802.06, 157044.08, 0.0, 10.000856, 10.000005 
1.9650622e+3, 2.164427e+2, -982428.5, -869001.9, 60170.715, 0.14990218, -0.08312669, -843029.56, -24169.467, 0.0, 9.9988165, 10.000308 
1.9650649e+3, 2.2644335e+2, -730475.6, -605447.75, -90558.06, 0.12681891, -0.095077015, -557921.94, 162929.52, 0.0, 9.999478, 10.001129 
1.9650649e+3, 2.3644492e+2, -325235.28, -401401.0, -141615.97, -0.026682425, -0.06333753, -216670.98, 406159.4, 0.0, 10.0017605, 10.000763 
1.9650672e+3, 2.4644446e+2, -383553.34, -678667.25, -48293.242, -0.07462814, -0.028813064, -375851.5, 148984.39, 0.0, 10.001981, 9.998074 
1.965071e+3, 2.5644293e+2, -401789.22, -596298.3, 3619.3142, -0.06775094, -0.011192161, -401721.9, 25133.545, 0.0, 10.001017, 9.998426 
1.9650747e+3, 2.664421e+2, -230433.53, -311761.34, -43179.688, -0.04490091, -0.015131809, -211784.38, 117078.445, 0.00000006167767, 10.000867, 9.999783 
1.9650784e+3, 2.7644145e+2, -101210.73, -238197.17, -174688.36, -0.02559807, -0.07313832, 17932.252, 248796.77, 0.000003603985, 10.00125, 9.999429 
1.9650826e+3, 2.8643999e+2, -97550.49, -511950.53, -180431.66, 0.052468024, 0.0033333644, -30000.75, 102882.92, 0.00003404662, 10.002005, 9.996516 
1.9650866e+3, 2.9643846e+2, 191712.55, -248263.08, -139971.88, 0.1638802, 0.16862248, 232467.45, 267375.2, 0.00014753208, 10.003001, 9.997173 
1.965088e+3, 3.064353e+2, 442249.9, 130030.77, -209121.16, 0.025797432, 0.009123241, 547103.6, 547103.6, 0.00037400261, 10.003383, 9.999263 
1.9650896e+3, 3.1643248e+2, 531939.3, 307920.1, -124167.39, 0.03996103, -0.21061613, 587153.2, 587153.2, 0.0006789099, 10.003382, 10.000493 
1.9750305e+3, 1.2643754e+2, -1841880.6, -1789123.1, 22357.268, 0.025461856, 0.19894473, -1780923.3, -80010.93, 0.24301729, 9.999146, 9.999889 
1.9750328e+3, 1.3643405e+2, -1638084.3, -1663901.5, -47529.344, -0.075699456, -0.12539072, -1601741.8, 1205.3247, 0.17062773, 10.000004, 9.999666 
1.9750348e+3, 1.4643617e+2, -1464155.1, -1387972.5, -56577.105, -0.13997301, 0.052405417, -1357858.9, 147061.1, 0.09895461, 9.999903, 10.00102 
1.9750379e+3, 1.5643293e+2, -1384765.1, -1273866.8, -37644.76, -0.07470136, -0.41021678, -1262295.5, 144646.0, 0.04335473, 9.999659, 10.001203 
1.9750413e+3, 1.6643386e+2, -1414078.9, -1297309.0, -16959.855, -0.029989319, -0.40258187, -1294895.6, 14035.541, 0.012356995, 9.999064, 10.000615 
1.9750449e+3, 1.7643797e+2, -1424376.8, -1246122.9, -6214.8184, -0.008721798, -0.07037712, -1245906.4, -35011.277, 0.0015709848, 9.998311, 10.000649 
1.9750485e+3, 1.8643901e+2, -1209757.0, -1146467.4, 2776.6877, -0.03031723, -0.0027683817, -1146345.8, -33459.117, 0.000019593592, 9.999338, 10.000173 
1.975052e+3, 1.9643803e+2, -805215.6, -883126.9, 8760.64, -0.07266854, -0.13728182, -804242.7, 210653.67, 0.0, 10.001376, 10.000319 
1.9750556e+3, 2.0643844e+2, -782317.44, -812918.06, -10886.037, -0.06388028, -0.13249423, -778840.0, 138053.27, 0.0, 10.000812, 10.000409 
1.9750592e+3, 2.164398e+2, -982191.7, -858393.75, 11225.297, -0.025650743, -0.0557886, -857384.1, -38503.035, 0.0, 9.998773, 10.000402 
1.9750631e+3, 2.2643994e+2, -850602.44, -837420.9, -6458.6157, -0.0045790146, -0.033257194, -834783.9, -113902.414, 0.0, 9.9994, 9.999573 
1.975067e+3, 2.3643932e+2, -413542.66, -562914.75, -66077.44, 0.005449697, -0.0734799, -388507.94, 234381.63, 0.0, 10.001669, 9.999693 
1.9750696e+3, 2.4643898e+2, -281939.72, -446720.84, -88024.32, -0.03434745, -0.07469395, -243762.94, 281127.53, 0.0, 10.001888, 9.999713 
1.9750717e+3, 2.564389e+2, -342103.53, -458314.22, -20605.082, -0.10120355, -0.07215796, -338558.25, 88328.26, 0.0, 10.000961, 9.999398 
1.9750762e+3, 2.6643652e+2, -464236.7, -778558.0, -34878.89, -0.0055941604, -0.090011016, -460412.84, -131500.06, 0.000000055759365, 10.000787, 9.996615 
1.9750819e+3, 2.7643284e+2, -285392.72, -602026.2, -148594.97, 0.18305671, -0.14723048, -226581.23, 4374.8643, 0.0000036492006, 10.001183, 9.996955 
1.975085e+3, 2.8643146e+2, -10212.888, -316034.63, -149813.22, 0.09206897, -0.03376335, 50945.707, 183919.36, 0.00003269789, 10.001934, 9.9979 
1.9750865e+3, 2.9643133e+2, 244871.8, -117101.484, -95890.39, -0.16336152, 0.13596581, 268704.9, 303682.0, 0.00013821624, 10.0029125, 9.9981165 
1.9750923e+3, 3.0642778e+2, 285978.78, -149342.28, -219208.77, 0.10203745, 0.0027607419, 377233.44, 377233.44, 0.0003400128, 10.003201, 9.997427 
1.9750959e+3, 3.164221e+2, 339676.22, -29730.646, -79505.07, 0.30330932, -0.32753244, 356060.84, 356060.84, 0.000593647, 10.003164, 9.998252 
1.9850314e+3, 1.2643236e+2, -1679373.6, -1767809.4, 169861.77, 0.112844855, 0.105828576, -1548068.8, 152888.92, 0.25424254, 10.000729, 9.999408 
1.9850324e+3, 1.364299e+2, -1635131.6, -1589024.5, 3571.8523, -0.09123609, -0.1813087, -1588749.4, 14233.777, 0.17932345, 9.999692, 10.000351 
1.9850355e+3, 1.4643177e+2, -1596836.3, -1475900.8, -23327.596, -0.012402485, -0.048231646, -1471557.1, 33403.13, 0.104643695, 9.999095, 10.000746 
1.9850376e+3, 1.564293e+2, -1451727.3, -1334373.0, -38611.816, -0.052074846, -0.40259454, -1322808.6, 84168.09, 0.046255346, 9.999345, 10.000914 
1.9850403e+3, 1.6643037e+2, -1287011.4, -1258557.5, -26804.557, -0.08152864, -0.360346, -1242438.3, 66527.625, 0.013380272, 10.000035, 10.000414 
1.9850436e+3, 1.7643407e+2, -1062233.4, -1093630.1, -32483.334, -0.093046986, -0.04803845, -1041854.0, 169079.7, 0.0017591557, 10.000892, 10.000454 
1.985048e+3, 1.8643455e+2, -1022574.25, -1066032.1, -6270.996, -0.06651741, -0.02216026, -1021687.44, 91242.664, 0.0000256483, 10.000661, 10.000086 
1.985053e+3, 1.9643296e+2, -1029135.9, -1004247.2, -23514.777, -0.03371185, -0.21167351, -990086.9, 24858.441, 0.0, 9.999887, 10.000206 
1.9850564e+3, 2.0643336e+2, -851504.3, -872540.2, -99865.7, -0.04615326, -0.19062415, -761604.2, 155337.83, 0.0, 10.000453, 10.000168 
1.985059e+3, 2.16435e+2, -554137.6, -678317.4, -129885.484, -0.08525519, -0.06091811, -472264.34, 346662.34, 0.0, 10.001828, 10.000162 
1.9850628e+3, 2.2643514e+2, -598452.1, -734185.56, -71328.75, -0.06473461, -0.020440554, -567862.3, 153065.48, 0.0, 10.001208, 9.999412 
1.9850674e+3, 2.3643433e+2, -744454.7, -730692.1, -35448.414, -0.013692544, -0.062213358, -701463.3, -78524.47, 0.0, 9.999439, 9.99961 
1.985071e+3, 2.4643387e+2, -508776.72, -519583.06, -61093.035, -0.002486828, -0.09021748, -452848.4, 72091.19, 0.0, 10.000189, 10.000024 
1.9850741e+3, 2.564336e+2, -117253.445, -339138.5, -103340.33, -0.027665123, -0.13629532, -76579.79, 350355.25, 0.0, 10.00246, 9.999499 
1.9850786e+3, 2.6643085e+2, -176586.73, -745328.75, -60945.0, 0.045521453, -0.13929607, -170129.34, 158837.5, 0.00000004684117, 10.003211, 9.99568 
1.9850838e+3, 2.764269e+2, -69352.42, -582839.4, -30712.205, 0.17000648, -0.12550399, -67522.016, 163495.4, 0.000003631824, 10.003018, 9.996212 
1.9850866e+3, 2.8642553e+2, 81608.76, -182643.52, 2743.1477, 0.049057983, -0.021361582, 81637.23, 214670.73, 0.00003088302, 10.002196, 9.998682 
1.9850878e+3, 2.9642534e+2, 13543.26, -170507.83, 884.1091, -0.23576984, 0.06675306, 13547.507, 48580.16, 0.00012805937, 10.001085, 9.998624 
1.9850959e+3, 3.064219e+2, 78090.63, -334634.47, -43248.773, 0.19767147, -0.031570558, 82573.9, 82573.9, 0.00031190852, 10.002118, 9.996681 
1.9850993e+3, 3.164173e+2, 434122.9, -57531.07, 65063.574, 0.3033029, -0.17712493, 442587.44, 442587.44, 0.00053848536, 10.004085, 9.997638 
1.9950321e+3, 1.2642542e+2, -1732523.5, -1902270.0, 159766.66, 0.08260154, -0.3020176, -1636485.5, 64524.73, 0.26535824, 10.000746, 9.998385 
1.9950332e+3, 1.3642624e+2, -1619023.8, -1564534.6, -36507.594, -0.007001036, -0.27902034, -1546226.3, 56783.43, 0.18805622, 9.999715, 10.000563 
1.995037e+3, 1.464291e+2, -1636970.1, -1567370.4, -24658.61, 0.22480376, -0.02714222, -1559519.6, -54534.68, 0.11045076, 9.999141, 10.000072 
1.9950362e+3, 1.5642996e+2, -1497185.9, -1431463.8, -21015.35, -0.14545976, 0.030537494, -1425318.5, -18341.072, 0.04926506, 9.999368, 10.000212 
1.9950384e+3, 1.6642955e+2, -1309939.6, -1306843.4, 2136.929, -0.28354812, -0.024345512, -1305752.8, 3228.0256, 0.014456319, 10.00004, 10.000075 
1.9950433e+3, 1.7642874e+2, -1086675.0, -1143945.9, -7251.65, -0.22659408, -0.12995298, -1085771.1, 125216.19, 0.0019582892, 10.000886, 10.000113 
1.9950482e+3, 1.8642847e+2, -1037145.8, -1095794.3, -39967.28, -0.12771273, -0.15411597, -1016898.94, 96090.945, 0.000032105352, 10.000661, 9.999883 
1.9950531e+3, 1.964284e+2, -1051106.1, -1045961.56, -37740.355, -0.025140405, -0.16666235, -1010705.94, 4285.215, 0.0, 9.999877, 9.999924 
1.9950573e+3, 2.0642826e+2, -916184.94, -1001459.25, -51321.27, -0.023113413, -0.13805385, -892100.25, 24894.305, 0.0, 10.000426, 9.999297 
1.995061e+3, 2.1642815e+2, -604014.94, -765234.9, -88643.76, -0.07007498, -0.10048337, -564809.7, 254188.47, 0.0, 10.001755, 9.999601 
1.9950637e+3, 2.264288e+2, -523606.53, -561894.4, -139328.94, -0.10454483, -0.05302271, -402112.47, 318879.1, 0.0, 10.001134, 10.000631 
1.9950657e+3, 2.3642986e+2, -689018.25, -604906.25, -73421.98, -0.13079053, -0.029391872, -562348.44, 60630.9, 0.0, 9.999392, 10.000496 
1.9950709e+3, 2.4642894e+2, -599226.94, -684541.9, 21264.096, -0.04458409, -0.08061333, -594220.8, -69235.61, 0.0, 10.000091, 9.9989395 
1.995078e+3, 2.564269e+2, -181073.75, -452469.2, -24513.582, 0.107316, -0.19853483, -178877.34, 248124.16, 0.0, 10.00238, 9.998755 
1.995082e+3, 2.6642507e+2, -114520.57, -590321.94, -71323.055, 0.058638915, -0.14309189, -104059.195, 224965.31, 0.000000042002604, 10.003101, 9.996797 
1.9950841e+3, 2.7642345e+2, -15316.088, -447847.0, -35088.574, -0.10618715, -0.0072716093, -12488.059, 218562.61, 0.0000035134383, 10.002929, 9.997177 
1.995087e+3, 2.864219e+2, 68080.69, -185243.5, -48115.9, -0.14897628, 0.033365138, 76911.86, 209978.1, 0.00002820436, 10.002085, 9.998719 
1.9950902e+3, 2.964202e+2, 11795.41, -169129.95, -17048.627, -0.12059404, -0.040535994, 13387.889, 48465.23, 0.00011358282, 10.00106, 9.998645 
1.9950984e+3, 3.064176e+2, 55073.36, -339620.6, 30775.287, 0.25394306, -0.056469217, 57458.574, 57458.574, 0.00027727842, 10.001951, 9.996717 
1.9950993e+3, 3.16418e+2, 453140.0, 42869.023, 8312.733, -0.1373345, 0.26886228, 453308.38, 453308.38, 0.0004862089, 10.00386, 9.998411 
2.0050319e+3, 1.2642026e+2, -1909690.0, -1961737.8, -7942.2505, 0.06803685, -0.34721163, -1908505.0, -207444.77, 0.27641812, 9.99929, 9.998632 
2.0050314e+3, 1.3642319e+2, -1770310.3, -1556496.6, -151985.45, -0.085137926, -0.20295465, -1477584.6, 125453.25, 0.1968332, 9.998308, 10.001385 
2.0050369e+3, 1.4642537e+2, -1699549.6, -1639649.5, -44332.105, 0.30298135, -0.040774055, -1616098.8, -111077.78, 0.11636926, 9.998897, 9.99969 
2.0050365e+3, 1.5642656e+2, -1370198.4, -1423986.5, -30117.953, -0.09758758, 0.09850707, -1356714.5, 50298.254, 0.05238356, 10.000476, 9.999741 
2.0050387e+3, 1.664258e+2, -1330152.4, -1333196.1, -28273.26, -0.25400653, 0.037437957, -1303360.0, 5659.7397, 0.015589432, 9.999967, 9.999936 
2.0050432e+3, 1.764241e+2, -1475403.9, -1346634.0, -23857.965, -0.1848202, -0.14428319, -1342355.9, -131322.16, 0.0021699998, 9.998284, 9.999972 
2.0050482e+3, 1.8642375e+2, -1324218.5, -1260510.5, -11512.971, -0.09414906, -0.15655625, -1258493.8, -145456.94, 0.00003871999, 9.998813, 9.999638 
2.0050532e+3, 1.9642411e+2, -949653.7, -1024482.8, -22560.623, -0.029594027, -0.10123031, -943378.06, 71656.21, 0.0, 10.000694, 9.999675 
2.0050578e+3, 2.0642364e+2, -860010.25, -980323.4, -1898.5055, -0.02633678, -0.09024536, -859980.25, 57059.996, 0.0, 10.000838, 9.999245 
2.005062e+3, 2.164228e+2, -856193.6, -897564.8, 9575.813, -0.05374262, -0.12246675, -854084.7, -35034.406, 0.0, 10.000066, 9.999509 
2.005065e+3, 2.2642314e+2, -586088.56, -629068.6, -96929.47, -0.07143348, -0.08193062, -508295.44, 212751.23, 0.0, 10.000872, 10.000294 
2.005067e+3, 2.3642416e+2, -240688.88, -420970.03, -156116.47, -0.092664175, -0.024171995, -150558.33, 472477.1, 0.0, 10.002618, 10.000204 
2.0050722e+3, 2.4642323e+2, -280798.28, -529292.7, -33321.844, -0.02476723, -0.066979855, -276407.56, 248634.69, 0.0, 10.00225, 9.998972 
2.0050792e+3, 2.564212e+2, -427489.88, -552464.8, -5924.938, 0.08643333, -0.18658066, -427209.63, -150.33858, 0.0, 10.000591, 9.998934 
2.0050836e+3, 2.6642025e+2, -400137.63, -588904.5, -5599.934, 0.032394886, -0.121146485, -399971.63, -70900.45, 0.000000029896977, 10.000547, 9.998026 
2.0050862e+3, 2.764199e+2, -150093.9, -403428.3, 23151.783, -0.1213989, 0.019171067, -147995.48, 83085.09, 0.0000031274246, 10.00153, 9.998152 
2.0050897e+3, 2.86418e+2, 84134.516, -219625.7, -14245.782, -0.10186193, 0.0027777238, 84801.16, 217900.66, 0.000025154262, 10.00236, 9.998359 
2.0050932e+3, 2.9641527e+2, 255540.58, -93603.2, -32009.682, -0.0032357026, -0.12884052, 258450.98, 293573.66, 0.00009776422, 10.002919, 9.998269 
2.005101e+3, 3.064135e+2, 233207.52, -223635.4, 68385.56, 0.24590452, -0.058492545, 243224.61, 243224.61, 0.00024026696, 10.00303, 9.997004 
2.0051028e+3, 3.1641346e+2, 321217.4, -26822.336, -61744.02, -0.12027928, 0.19633043, 331846.5, 331846.5, 0.00043207125, 10.002941, 9.998401 
2.0150305e+3, 1.2641682e+2, -1804949.9, -1748731.1, -109150.62, -0.03095333, -0.047762733, -1664128.5, 36979.285, 0.28771394, 9.999323, 10.000145 
2.015027e+3, 1.3642062e+2, -1676378.6, -1388594.6, -156536.31, -0.36950034, 0.033866677, -1319863.6, 283205.03, 0.20582092, 9.99831, 10.002796 
2.0150346e+3, 1.464205e+2, -1707680.4, -1659201.8, 10211.919, 0.16186029, -0.09532314, -1657138.4, -152069.23, 0.12247417, 9.998903, 9.999553 
2.0150384e+3, 1.5641913e+2, -1385228.6, -1456085.1, 15479.443, 0.04126204, -0.1880192, -1381994.5, 25087.879, 0.055639356, 10.000471, 9.99952 
2.015041e+3, 1.664192e+2, -1321751.0, -1317863.0, -94838.68, -0.049021494, -0.16262779, -1224948.4, 84133.65, 0.016791714, 9.99998, 10.000039 
2.0150435e+3, 1.764201e+2, -1467051.6, -1335181.6, -63527.023, -0.0073117884, -0.0921348, -1309557.3, -98483.8, 0.0023981123, 9.99831, 10.000039 
2.015048e+3, 1.8642029e+2, -1340765.3, -1302700.5, 54828.97, -0.015158591, -0.036961265, -1263694.5, -150622.31, 0.000045425786, 9.998842, 9.999336 
2.0150535e+3, 1.9642006e+2, -967414.75, -1054276.1, 39000.2, -0.093555585, -0.00851346, -952473.9, 62601.215, 0.0, 10.000664, 9.999486 
2.0150578e+3, 2.0641954e+2, -813182.1, -873655.6, -35432.85, -0.113276884, -0.03802011, -796838.3, 120240.94, 0.0, 10.000799, 9.999996 
2.0150618e+3, 2.1641883e+2, -842578.5, -853272.56, -1023.75745, -0.076553114, -0.124060735, -842481.4, -23397.273, 0.0, 10.0, 9.999845 
2.0150666e+3, 2.2641802e+2, -736826.44, -920244.56, -32210.617, -0.017298171, -0.103586175, -731334.3, -10239.584, 0.0, 10.000773, 9.9983425 
2.0150712e+3, 2.3641714e+2, -354382.7, -645148.56, -100238.23, 0.054794, -0.04532818, -323176.0, 299932.3, 0.0, 10.002558, 9.998696 
2.0150748e+3, 2.4641663e+2, -218497.31, -374028.38, -96503.23, -0.00049235875, -0.046568997, -172325.97, 352786.13, 0.0, 10.002149, 10.000083 
2.0150778e+3, 2.5641632e+2, -357673.66, -391166.75, -48118.21, -0.12528926, -0.10342027, -323471.13, 103638.75, 0.0, 10.000533, 10.000064 
2.015083e+3, 2.6641616e+2, -320540.0, -407043.88, 27087.137, -0.08575724, -0.0815389, -312758.2, 16350.769, 0.0000000091701935, 10.000476, 9.9993105 
2.0150897e+3, 2.7641603e+2, -87235.984, -259377.19, 67073.94, 0.06765692, -0.048652805, -64187.1, 166922.19, 0.0000023642951, 10.0014715, 9.999168 
2.0150943e+3, 2.8641385e+2, -792.4907, -361388.75, 490.30817, 0.10776127, -0.0877836, -791.82404, 132341.1, 0.000021595964, 10.002223, 9.997445 
2.015097e+3, 2.9641047e+2, 189427.33, -217517.67, -10010.836, 0.05830547, -0.19600332, 189673.45, 224843.25, 0.0000838711, 10.002858, 9.997446 
2.0151025e+3, 3.064091e+2, 228735.95, -184171.28, 56636.65, 0.08803839, -0.068335146, 236363.64, 236363.64, 0.00020805722, 10.002844, 9.997354 
2.0151082e+3, 3.164062e+2, 253982.6, -92199.32, -74072.1, 0.10026015, -0.14135467, 269165.78, 269165.78, 0.00038199394, 10.002678, 9.998048 
2.0250294e+3, 1.2641245e+2, -2051482.5, -1829238.1, -47696.54, 0.018444952, 0.03371882, -1819434.3, -118279.164, 0.29983783, 9.997456, 10.000427 
2.025026e+3, 1.3641602e+2, -1464529.1, -1294419.8, -139901.48, -0.3884159, 0.08957529, -1215746.8, 387369.6, 0.21537028, 9.999942, 10.002807 
2.0250334e+3, 1.4641492e+2, -1510285.8, -1564377.3, -41576.65, 0.102593504, -0.13807063, -1487732.3, 17392.598, 0.12892798, 10.000275, 9.999549 
2.0250387e+3, 1.564131e+2, -1604092.4, -1566891.0, -32817.953, 0.10612639, -0.27443916, -1547769.0, -140627.64, 0.05909158, 9.99899, 9.999466 
2.0250414e+3, 1.6641371e+2, -1334040.9, -1331794.1, -129424.484, 0.018779786, -0.18518242, -1203488.1, 105648.22, 0.018083457, 9.999939, 9.999959 
2.0250435e+3, 1.7641565e+2, -886742.75, -1059344.6, -122275.85, -0.023568187, -0.0020465923, -823379.94, 387739.97, 0.0026487417, 10.002327, 9.999997 
2.025048e+3, 1.864156e+2, -896516.8, -1059372.5, 5347.937, -0.0421225, 0.015561149, -896341.4, 216777.98, 0.000052423693, 10.001757, 9.999602 
2.0250535e+3, 1.964144e+2, -1112933.6, -1099632.3, 27907.496, -0.095201164, -0.083725646, -1077593.9, -62465.883, 0.0, 9.999548, 9.999712 
2.0250581e+3, 2.0641394e+2, -960656.5, -948717.0, -34924.207, -0.11258986, -0.113915704, -919256.0, -2125.5122, 0.0, 9.999808, 9.999952 
2.0250624e+3, 2.1641389e+2, -619221.56, -748327.8, -67904.914, -0.100862086, -0.13140218, -590082.75, 229047.27, 0.0, 10.001549, 9.999814 
2.0250674e+3, 2.2641297e+2, -636712.56, -862150.3, -20718.008, -0.02863432, -0.12517732, -634824.4, 86316.945, 0.0, 10.001419, 9.998428 
2.0250727e+3, 2.364116e+2, -691091.3, -801882.5, 52294.645, 0.066328175, -0.12501003, -670306.8, -47147.99, 0.0, 10.000227, 9.99874 
2.0250764e+3, 2.4641123e+2, -396278.0, -488536.6, 50817.973, 0.0032632402, -0.09785418, -373775.1, 151387.16, 0.0, 10.001051, 9.999826 
2.0250793e+3, 2.564114e+2, -5277.181, -244598.3, -14017.856, -0.15877032, -0.080961764, -4458.9053, 422698.88, 0.0, 10.003054, 9.999859 
2.0250842e+3, 2.6641086e+2, 25343.217, -218552.05, -36742.918, -0.12118274, -0.10185247, 30758.322, 359918.28, 0.000000001074916, 10.002747, 9.999518 
2.0250908e+3, 2.764099e+2, -143853.13, -274346.38, -82564.27, 0.03662053, -0.17007469, -103866.766, 127299.25, 0.0000018159459, 10.001026, 9.999285 
2.0250958e+3, 2.8640816e+2, -135519.28, -461575.06, -92493.33, 0.089035705, -0.14671233, -111108.89, 22078.27, 0.000018189116, 10.001445, 9.997133 
2.0250997e+3, 2.964061e+2, 217336.9, -220076.16, -81504.04, 0.040062815, -0.09125549, 232030.16, 267246.22, 0.000072167386, 10.003124, 9.997298 
2.0251048e+3, 3.0640486e+2, 463023.22, -3064.5063, 9712.743, -0.030166605, 0.017089084, 463225.53, 463225.53, 0.00017965614, 10.0041065, 9.998011 
2.025112e+3, 3.164011e+2, 534828.0, 51053.813, -122591.47, 0.1422302, -0.19293204, 564119.9, 564119.9, 0.00033365883, 10.004522, 9.998164 
2.0350277e+3, 1.264075e+2, -2116359.5, -1975633.6, -57885.85, 0.07608733, -0.08057949, -1954882.8, -253684.03, 0.3135409, 9.997497, 9.999408 
2.0350277e+3, 1.3640942e+2, -1541256.8, -1459994.9, -68261.76, -0.21076317, -0.025480576, -1421186.9, 181993.86, 0.22593072, 9.9999695, 10.001364 
2.0350336e+3, 1.4640863e+2, -1497645.6, -1541198.3, -90475.16, 0.06240697, -0.1647631, -1426363.0, 78825.18, 0.13594478, 10.000321, 9.999714 
2.0350374e+3, 1.5640825e+2, -1592627.0, -1549576.6, -60003.164, 0.05591698, -0.17101532, -1507354.6, -100163.4, 0.06282382, 9.999015, 9.999574 
2.0350403e+3, 1.6640916e+2, -1347227.1, -1367919.0, -45666.645, -0.1085554, -0.042218637, -1310749.1, -1564.4872, 0.019494196, 9.9999695, 9.999689 
2.0350434e+3, 1.7641069e+2, -896307.1, -1078278.5, -51947.465, -0.28030753, 0.12355795, -882521.94, 328651.9, 0.0029308582, 10.002316, 9.999874 
2.0350482e+3, 1.8640958e+2, -838979.8, -937516.7, -80921.9, -0.22932205, -0.00838648, -793507.94, 319671.6, 0.00006041413, 10.001749, 10.000443 
2.0350534e+3, 1.9640699e+2, -1069876.0, -1010257.4, -31150.316, -0.07444785, -0.32478142, -996951.3, 18242.723, 0.0, 9.999549, 10.000326 
2.0350583e+3, 2.0640674e+2, -1017731.6, -1064966.8, 26513.473, -0.08484684, -0.31692538, -1005842.1, -88646.8, 0.0, 9.999799, 9.999159 
2.0350634e+3, 2.1640784e+2, -656125.56, -811351.8, -12089.844, -0.17471819, -0.14253514, -655189.56, 163999.36, 0.0, 10.001485, 9.999415 
2.0350677e+3, 2.2640789e+2, -505475.53, -561991.06, -68958.16, -0.16301706, -0.14302064, -459209.97, 261977.72, 0.0, 10.001307, 10.000542 
2.0350714e+3, 2.3640734e+2, -592502.2, -582078.3, 31071.174, -0.090303704, -0.2671084, -555785.0, 67404.3, 0.0, 10.000166, 10.000277 
2.0350769e+3, 2.464068e+2, -525072.9, -734373.3, 123389.836, -0.06404789, -0.22734879, -467930.88, 57264.785, 0.0, 10.000959, 9.998182 
2.0350833e+3, 2.5640628e+2, -120628.586, -470455.25, 48317.066, -0.061661612, -0.12056917, -114077.836, 313127.06, 0.0, 10.002988, 9.998342 
2.0350869e+3, 2.6640424e+2, -59942.14, -362820.47, -104624.27, -0.14280145, -0.17207594, -27315.936, 301909.0, 0.000000023664393, 10.002618, 9.998583 
2.0350888e+3, 2.7640128e+2, -209163.14, -394298.06, -121718.13, -0.25595155, -0.34960663, -148812.2, 82439.78, 0.0000019634658, 10.000964, 9.998487 
2.0350944e+3, 2.864007e+2, -139556.27, -439542.13, -34934.313, -0.20858231, -0.18818848, -135541.78, -2277.5283, 0.000016146072, 10.001321, 9.997342 
2.0351017e+3, 2.9640192e+2, 246118.34, -151984.13, -11079.373, -0.09071134, 0.16665822, 246426.45, 281690.47, 0.000062268045, 10.003075, 9.997796 
2.035107e+3, 3.064006e+2, 472150.3, 90677.72, 17060.729, -0.22468771, 0.19399124, 472911.8, 472911.8, 0.00015400637, 10.0038185, 9.998774 
2.0351155e+3, 3.1639585e+2, 547569.56, 161281.28, 7368.461, 0.009359892, -0.18933557, 547710.06, 547710.06, 0.00028777323, 10.004209, 9.999045 
2.0450264e+3, 1.2640266e+2, -1802685.5, -1804146.3, -130388.4, 0.11113947, -0.098099954, -1673025.5, 28221.203, 0.3294151, 9.999588, 9.999623 
2.0450275e+3, 1.3640383e+2, -1870511.6, -1652810.5, -57414.23, -0.12719361, -0.059847333, -1638596.6, -35359.03, 0.23787552, 9.9978695, 10.000772 
2.045033e+3, 1.4640369e+2, -1716996.0, -1626691.4, -27093.197, 0.060516257, -0.11297489, -1619186.6, -113947.97, 0.14372098, 9.998668, 9.999894 
2.0450373e+3, 1.5640363e+2, -1308079.6, -1392427.3, -2822.3083, 0.04950057, -0.11155473, -1307985.3, 99252.016, 0.06692591, 10.000939, 9.999731 
2.0450407e+3, 1.6640408e+2, -1311814.0, -1377782.3, 9963.702, -0.07182576, -0.021393307, -1310342.0, -1107.1843, 0.021061258, 10.000336, 9.999441 
2.0450446e+3, 1.7640473e+2, -1515039.3, -1401726.9, -4232.6396, -0.18644819, 0.078199714, -1401569.0, -190336.33, 0.003256253, 9.998175, 9.999641 
2.0450494e+3, 1.8640354e+2, -1245930.0, -1146718.8, -64840.17, -0.14473836, -0.04202739, -1114685.1, -1446.0975, 0.00007088071, 9.9990225, 10.0003195 
2.0450541e+3, 1.9640142e+2, -771346.75, -876034.1, -95350.07, -0.045319263, -0.3041496, -714917.75, 300332.06, 0.0, 10.001655, 10.00023 
2.0450589e+3, 2.064011e+2, -819746.4, -974462.2, -37789.445, -0.06536439, -0.29479367, -811009.6, 106241.89, 0.0, 10.001181, 9.999117 
2.0450638e+3, 2.1640189e+2, -1018034.9, -981411.25, -26703.555, -0.1451775, -0.14599445, -967344.0, -148096.31, 0.0, 9.998997, 9.999442 
2.0450683e+3, 2.2640218e+2, -723716.06, -641309.9, -114554.086, -0.13232264, -0.13781615, -560774.2, 160469.38, 0.0, 9.999688, 10.000779 
2.0450726e+3, 2.3640203e+2, -304703.72, -418529.28, -159662.38, -0.07416835, -0.24304852, -192113.88, 431126.78, 0.0, 10.00203, 10.000503 
2.0450787e+3, 2.4640162e+2, -352820.0, -637853.25, -32759.463, -0.03470458, -0.20930359, -349103.34, 176142.44, 0.0, 10.002077, 9.998307 
2.0450856e+3, 2.5640106e+2, -444058.13, -624645.75, 8737.965, -0.017905964, -0.11482135, -443636.3, -16380.922, 0.0, 10.000762, 9.99835 
2.0450892e+3, 2.6639903e+2, -322854.53, -567633.94, -93590.06, -0.10732178, -0.13040344, -291171.72, 38106.195, 0.00000011200642, 10.001143, 9.997889 
2.0450906e+3, 2.7639604e+2, -23176.416, -362139.03, -105184.92, -0.24505322, -0.24173379, 6811.0264, 238119.5, 0.000002326167, 10.002497, 9.997965 
2.0450963e+3, 2.863949e+2, 45385.793, -293567.94, 30030.803, -0.18793002, -0.14147158, 48025.914, 181350.64, 0.000014696717, 10.002327, 9.997865 
2.045104e+3, 2.9639518e+2, -6780.035, -222195.3, 53441.63, -0.0608266, 0.070629485, 5749.3555, 41079.273, 0.000053738604, 10.0011215, 9.998249 
2.0451102e+3, 3.063947e+2, 106119.68, -106373.5, 68919.2, -0.1619256, 0.17183606, 126515.086, 126515.086, 0.00013193817, 10.001387, 9.9985895 
2.0451188e+3, 3.1639093e+2, 395741.6, 176388.14, -17735.637, -0.012174272, -0.08486159, 397166.34, 397166.34, 0.00024974035, 10.002744, 9.999873 
2.0550258e+3, 1.2639803e+2, -1725328.9, -1644179.9, -155655.9, 0.04122917, -0.019433329, -1523897.1, 177400.48, 0.3476065, 9.999623, 10.001064 
2.0550247e+3, 1.3639913e+2, -1844891.1, -1616769.4, -94105.805, -0.20526679, -0.028535062, -1582959.4, 20328.568, 0.2513395, 9.997923, 10.001037 
2.0550315e+3, 1.4639996e+2, -1699764.0, -1597737.3, 55677.984, 0.01469288, 0.0007655881, -1573236.4, -67959.08, 0.15236652, 9.998697, 10.000079 
2.055038e+3, 1.5639925e+2, -1292936.9, -1363678.1, 60258.645, 0.025380809, -0.09073984, -1258434.9, 148844.6, 0.071473114, 10.000953, 9.999941 
2.0550427e+3, 1.6639844e+2, -1325815.6, -1413265.9, -78029.46, 0.069559306, -0.12089973, -1280095.4, 29191.896, 0.022826005, 10.000364, 9.999188 
2.0550469e+3, 1.7639774e+2, -1538035.5, -1455525.0, -58087.41, 0.2110288, -0.12598817, -1425533.1, -214236.48, 0.0036400491, 9.998199, 9.999264 
2.0550513e+3, 1.8639746e+2, -1311182.4, -1292257.9, 32464.045, 0.14788252, -0.08122438, -1267905.1, -154606.28, 0.00008593674, 9.99906, 9.999304 
2.055056e+3, 1.9639745e+2, -828545.0, -994816.2, -15824.277, -0.060633935, -0.027213424, -827052.4, 188244.27, 0.0, 10.001651, 9.999417 
2.0550598e+3, 2.0639682e+2, -773891.75, -875946.8, -126000.5, -0.11235297, -0.05550513, -688978.4, 228322.39, 0.0, 10.001168, 9.999798 
2.0550637e+3, 2.163958e+2, -996963.2, -932912.94, -82266.62, -0.054352265, -0.152623, -876657.75, -57349.34, 0.0, 9.998974, 9.999785 
2.0550695e+3, 2.2639549e+2, -847039.4, -877033.6, -28611.111, 0.005292374, -0.1289657, -829733.1, -108420.87, 0.0, 9.999603, 9.9992 
2.0550762e+3, 2.3639558e+2, -391408.66, -582400.1, -84042.66, 0.06365104, -0.058011003, -359693.53, 263620.3, 0.0, 10.001958, 9.999412 
2.0550816e+3, 2.4639562e+2, -244550.77, -379876.72, -86585.125, 0.026335066, -0.038261503, -202326.25, 322986.9, 0.0, 10.001944, 10.00014 
2.0550859e+3, 2.563956e+2, -349616.66, -412770.66, -20828.043, -0.067296326, -0.07132534, -343366.25, 83945.0, 0.0, 10.0007, 9.999834 
2.0550908e+3, 2.6639482e+2, -372155.2, -647432.0, -45455.668, -0.070160314, 0.009228312, -364843.44, -35521.676, 0.00000017468948, 10.001047, 9.997387 
2.0550957e+3, 2.7639368e+2, -51453.9, -412834.9, -56503.82, 0.0015301824, 0.12963268, -42825.254, 188514.1, 0.0000023499456, 10.002448, 9.997646 
2.0551012e+3, 2.8639042e+2, 64851.59, -207815.5, -21828.885, 0.05325707, -0.011627944, 66588.086, 199959.98, 0.000012296112, 10.002152, 9.998529 
2.0551065e+3, 2.9638577e+2, 11077.851, -174631.64, 27582.988, 0.06277797, -0.3633101, 15088.089, 50502.86, 0.00004437096, 10.001079, 9.998593 
2.055114e+3, 3.0638644e+2, -25524.46, -310652.4, 101208.06, 0.063864954, -0.08790774, 6747.3696, 6747.3696, 0.00011165042, 10.001122, 9.997302 
2.0551218e+3, 3.163855e+2, 383822.84, 219126.33, 43326.07, -0.008607731, 0.044301152, 394525.03, 394525.03, 0.0002193155, 10.002462, 10.0003 
2.0650236e+3, 1.2639277e+2, -2209135.5, -1802180.3, -127962.76, 0.06812352, -0.00662761, -1765288.1, -63936.633, 0.36771804, 9.995914, 10.001356 
2.0650235e+3, 1.3639402e+2, -1476943.3, -1479417.6, -67039.46, -0.2576782, 0.01244274, -1411129.5, 192211.02, 0.26616043, 10.000862, 10.000819 
2.0650315e+3, 1.4639522e+2, -1301495.1, -1407601.4, 8534.148, -0.00061651587, 0.091036215, -1300813.0, 204513.47, 0.1618756, 10.001719, 10.000051 
2.0650388e+3, 1.5639393e+2, -1414863.9, -1418582.8, -13724.153, 0.0401376, -0.05900532, -1402873.8, 4460.3555, 0.07651462, 10.000043, 9.999976 
2.0650437e+3, 1.6639279e+2, -1234921.9, -1362621.3, -135522.48, 0.11238421, -0.13196345, -1148961.3, 160382.11, 0.024829434, 10.000954, 9.999267 
2.0650484e+3, 1.7639197e+2, -769340.6, -1082658.1, -96856.414, 0.2808514, -0.15886578, -741817.0, 469534.06, 0.0041003036, 10.0034685, 9.999291 
2.0650527e+3, 1.8639192e+2, -788218.5, -1090597.8, 37749.957, 0.19121407, -0.06895231, -783576.94, 329775.2, 0.000108260756, 10.002872, 9.998848 
2.0650567e+3, 1.963922e+2, -1012282.7, -1129644.5, 20382.477, -0.087089956, 0.05746343, -1008843.6, 6506.9033, 0.0, 10.000588, 9.999003 
2.0650607e+3, 2.0639104e+2, -847874.3, -940031.0, -120981.71, -0.10656927, 0.010329778, -764493.06, 152866.94, 0.0, 10.000777, 9.999551 
2.0650655e+3, 2.1638909e+2, -511050.97, -730278.9, -145225.25, 0.031967536, -0.15560378, -438715.5, 380660.22, 0.0, 10.002442, 9.999509 
2.0650713e+3, 2.2638817e+2, -472450.6, -747020.44, -25119.781, 0.08625134, -0.15317921, -470171.38, 251214.13, 0.0, 10.002396, 9.998748 
2.0650779e+3, 2.3638791e+2, -503057.75, -669220.4, -16211.557, 0.08206801, -0.07465227, -501490.84, 121900.7, 0.0, 10.001341, 9.999109 
2.065083e+3, 2.4638847e+2, -319929.66, -344714.88, -73658.24, 0.022777414, -0.026695607, -257628.8, 267756.66, 0.0, 10.001119, 10.000778 
2.065087e+3, 2.5638938e+2, -208287.77, -273755.97, -100800.47, -0.08009109, -0.029894382, -135039.53, 292333.94, 0.0, 10.001369, 10.000465 
2.0650923e+3, 2.6638892e+2, -288594.38, -548331.6, -63855.06, -0.032850564, 0.023017425, -273744.88, 55634.723, 0.00000012472299, 10.00136, 9.99792 
2.0650986e+3, 2.763877e+2, -206143.25, -441010.22, -12551.892, 0.108705476, 0.08801446, -205474.36, 25921.611, 0.0000018192295, 10.001193, 9.998054 
2.0651045e+3, 2.8638488e+2, 88436.03, -245981.47, 9867.458, 0.14918375, -0.0016547404, 88726.93, 222151.33, 0.000008845643, 10.002517, 9.998097 
2.0651096e+3, 2.9638076e+2, 483865.8, 3865.5442, -54876.48, 0.08729679, -0.25302988, 490059.7, 525522.94, 0.000033808126, 10.004552, 9.998145 
2.0651169e+3, 3.0637947e+2, 415015.38, -88805.32, 40284.664, 0.096128196, -0.15866062, 418216.13, 418216.13, 0.00009162271, 10.0040455, 9.997454 
2.065125e+3, 3.163785e+2, 328430.0, 232389.27, 23143.684, 0.10902799, -0.051400073, 333716.16, 333716.16, 0.0001905405, 10.001876, 10.000692 
2.0750198e+3, 1.2638645e+2, -2265817.3, -1929880.1, 22881.738, 0.04038831, -0.09472894, -1928328.8, -226916.17, 0.38886976, 9.9959545, 10.000463 
2.0750237e+3, 1.3638848e+2, -1503966.1, -1540769.0, 49031.793, -0.36293244, 0.065435894, -1469996.5, 133399.25, 0.28190908, 10.000909, 10.000238 
2.0750329e+3, 1.4638944e+2, -1312868.3, -1438134.9, -49449.805, -0.045119077, 0.16093434, -1295700.4, 209685.95, 0.17213808, 10.001769, 9.999789 
2.075039e+3, 1.5638758e+2, -1420257.6, -1438995.5, -51848.71, 0.04082109, -0.020655164, -1376938.1, 30464.525, 0.08207624, 10.000085, 9.9998255 
2.0750438e+3, 1.6638696e+2, -1196806.3, -1284864.0, -47347.918, -0.0063548004, -0.062838495, -1176179.4, 133225.67, 0.027111659, 10.000967, 9.999789 
2.0750488e+3, 1.7638737e+2, -741522.0, -1018942.1, -25225.455, -0.020440014, -0.015416734, -739246.94, 472149.34, 0.0046569863, 10.003448, 9.999741 
2.0750532e+3, 1.8638678e+2, -777478.0, -1073270.6, -54882.71, -0.0610469, -0.00648594, -767623.1, 345777.13, 0.00014131474, 10.0028925, 9.998959 
2.0750566e+3, 1.9638546e+2, -1017194.56, -1139643.6, -42638.895, -0.159079, -0.04927755, -1003810.0, 11603.037, 0.0000000002137382, 10.0005865, 9.998938 
2.0750618e+3, 2.0638369e+2, -926433.56, -1099315.3, -60054.51, -0.10210963, -0.0915202, -907619.7, 9810.52, 0.0, 10.000763, 9.998461 
2.0750684e+3, 2.1638176e+2, -583301.75, -862175.5, -89794.0, 0.06668189, -0.14783208, -556890.5, 262558.78, 0.0, 10.002365, 9.998639 
2.0750734e+3, 2.263802e+2, -445326.53, -664240.56, -65435.934, 0.060551286, -0.2082416, -427258.25, 294205.38, 0.0, 10.002288, 9.999365 
2.0750782e+3, 2.3637891e+2, -483617.53, -611442.56, -41648.133, -0.055155408, -0.29303285, -471245.22, 152229.75, 0.0, 10.001271, 9.999538 
2.075083e+3, 2.4637988e+2, -372428.06, -433207.06, -67492.11, -0.102374434, -0.18654649, -328799.28, 196666.19, 0.0, 10.001028, 10.000216 
2.0750882e+3, 2.563822e+2, -233280.75, -315755.78, -87471.016, -0.106670335, 0.0046924115, -177814.02, 249629.84, 0.0, 10.001322, 10.000201 
2.0750935e+3, 2.6638114e+2, -203998.92, -339781.3, -77039.11, -0.057996392, -0.07864559, -169204.97, 160247.48, 0.000000021824269, 10.001229, 9.999412 
2.075099e+3, 2.7637798e+2, -138872.58, -287213.66, -133.92006, 0.034555152, -0.35482907, -138872.45, 92607.29, 0.00000084431264, 10.001139, 9.999135 
2.0751059e+3, 2.8637782e+2, -45290.887, -484341.97, 78893.97, 0.026982643, -0.1409991, -31544.648, 101942.75, 0.000005133315, 10.002356, 9.996534 
2.0751128e+3, 2.963795e+2, 379053.72, -198277.02, 10538.243, -0.060321555, 0.3453851, 379246.0, 414728.0, 0.000023674193, 10.004467, 9.996801 
2.0751184e+3, 3.063734e+2, 443174.97, 82372.17, -52192.977, -0.16595016, -0.05223442, 450573.38, 450573.38, 0.00007214658, 10.00362, 9.998806 
2.0751275e+3, 3.1637192e+2, 278850.47, 240078.22, -50700.11, 0.13067171, -0.15322863, 313744.4, 313744.4, 0.0001581692, 10.001471, 10.000909 
2.0850194e+3, 1.2637955e+2, -1624219.8, -1685934.6, -43331.047, 0.14661829, -0.0153339915, -1601881.6, 99600.914, 0.40993002, 10.001067, 9.999768 
2.0850244e+3, 1.3638072e+2, -1726711.0, -1622388.5, -4932.6406, -0.27728108, 0.04297396, -1622155.8, -18682.295, 0.29801235, 9.999033, 10.00041 
2.0850344e+3, 1.4638183e+2, -1677549.1, -1639614.4, -136939.89, 0.054415055, 0.14938132, -1520334.5, -14870.676, 0.18298064, 9.999087, 9.999597 
2.0850389e+3, 1.5638068e+2, -1358356.6, -1437788.4, -131559.69, -0.0030345528, 0.067629494, -1260648.8, 146826.7, 0.088167645, 10.000682, 9.999576 
2.0850436e+3, 1.6638009e+2, -1228497.6, -1265381.8, -106511.73, -0.096231654, 0.02525779, -1138843.1, 170633.58, 0.029713616, 10.000606, 10.000105 
2.0850497e+3, 1.7638016e+2, -1277935.9, -1240710.4, -115992.88, -0.09293554, 0.0026666466, -1141846.4, 69622.85, 0.005333032, 9.999604, 10.00006 
2.0850547e+3, 1.8637925e+2, -1168442.0, -1239198.6, -176057.28, -0.067424186, -0.044084944, -1024243.56, 89231.03, 0.00018960002, 10.000104, 9.999168 
2.0850584e+3, 1.963777e+2, -861381.06, -1047507.3, -157264.31, -0.08954259, -0.12959199, -771707.2, 243781.39, 0.000000020895914, 10.001574, 9.9991 
2.0850635e+3, 2.0637643e+2, -793882.94, -1053283.8, -91041.43, -0.048880868, -0.12216264, -765119.6, 152382.58, 0.0, 10.001759, 9.998295 
2.0850699e+3, 2.1637529e+2, -748025.56, -953809.3, -68789.29, 0.047742687, -0.079893425, -727148.7, 92367.09, 0.0, 10.001289, 9.998527 
2.0850746e+3, 2.2637393e+2, -607934.75, -712133.9, -63751.195, 0.020253193, -0.13293432, -577702.2, 143825.19, 0.0, 10.00103, 9.999651 
2.0850787e+3, 2.3637238e+2, -525160.5, -613503.06, -68569.48, -0.09158068, -0.26883155, -487766.66, 135771.77, 0.0, 10.000897, 9.999713 
2.085084e+3, 2.4637273e+2, -445561.47, -527260.3, -67167.57, -0.095231995, -0.20404999, -407796.9, 117737.98, 0.0, 10.000781, 9.999684 
2.0850895e+3, 2.563742e+2, -352333.34, -422643.75, -93739.055, -0.04372411, -0.04388061, -287374.1, 140148.73, 0.0, 10.000722, 9.99975 
2.0850952e+3, 2.6637313e+2, -154970.52, -299670.0, -120440.62, -0.027028563, -0.11760175, -86819.625, 242711.75, 0.0, 10.00149, 9.999561 
2.0851004e+3, 2.763704e+2, 97409.9, -159143.88, -156210.81, -0.03590011, -0.36562863, 171263.61, 402817.25, 0.000000115745564, 10.002699, 9.999266 
2.0851074e+3, 2.8637025e+2, -31797.465, -469104.6, -29791.822, -0.059266936, -0.15917796, -29777.21, 103783.39, 0.0000020138657, 10.002394, 9.996625 
2.085115e+3, 2.9637176e+2, -98384.484, -412519.53, -4023.3206, -0.1204846, 0.30234614, -98332.96, -62776.21, 0.000014488007, 10.0011215, 9.996939 
2.08512e+3, 3.063668e+2, 124033.6, -50009.074, -69784.125, -0.24413717, -0.002178066, 148558.39, 148558.39, 0.000052987816, 10.001291, 9.999037 
2.0851293e+3, 3.1636545e+2, 347463.28, 168649.56, -180479.58, 0.14685984, -0.09530158, 459467.63, 459467.63, 0.0001235067, 10.002334, 10.000029 
2.0950218e+3, 1.2637241e+2, -1662751.6, -1778663.0, -98427.36, 0.2501192, 0.26271492, -1606484.8, 95073.37, 0.42994058, 10.001107, 9.999137 
2.0950256e+3, 1.3637069e+2, -1663213.8, -1528682.8, -57710.297, -0.06562559, -0.059448946, -1507319.1, 96255.26, 0.31401625, 9.999076, 10.001302 
2.0950355e+3, 1.4637229e+2, -1680788.1, -1655519.3, -84942.94, 0.22170785, 0.05942649, -1582276.3, -76716.664, 0.19429262, 9.99912, 9.999477 
2.0950383e+3, 1.5637319e+2, -1369069.9, -1468096.3, -84395.695, -0.15082589, 0.21042575, -1320735.4, 86817.31, 0.094824284, 10.000709, 9.999336 
2.0950432e+3, 1.6637215e+2, -1216023.8, -1249828.6, -146989.14, -0.21834032, 0.12574117, -1084968.4, 224590.6, 0.032688897, 10.000649, 10.000203 
2.0950505e+3, 1.7637025e+2, -1261783.9, -1216019.8, -138318.53, 0.019723257, -0.10155169, -1098703.4, 112866.81, 0.0061590113, 9.999636, 10.000221 
2.0950566e+3, 1.8636936e+2, -1143310.5, -1191216.9, -124093.25, 0.11365508, -0.17339481, -1040879.8, 72695.35, 0.00026052183, 10.000125, 9.999485 
2.0950618e+3, 1.9636895e+2, -839352.1, -998066.9, -108255.71, 0.077011436, -0.17570682, -784482.5, 231094.84, 0.00000016154512, 10.001558, 9.999445 
2.0950659e+3, 2.0636904e+2, -750143.9, -954129.2, -114321.81, 0.0078681875, -0.08469941, -698930.9, 218647.1, 0.0, 10.001725, 9.998989 
2.09507e+3, 2.1636951e+2, -716314.0, -870774.8, -80547.55, -0.060029246, 0.046036232, -681953.9, 137623.1, 0.0, 10.00122, 9.999127 
2.095075e+3, 2.2636911e+2, -624666.44, -724027.06, -71564.55, -0.08124279, 0.06555029, -587228.4, 134350.75, 0.0, 10.000931, 9.999618 
2.0950799e+3, 2.363682e+2, -544882.2, -633023.0, -67057.664, -0.076263726, -0.0030480092, -508709.66, 114873.49, 0.0, 10.00081, 9.9996195 
2.0950854e+3, 2.4636686e+2, -497593.7, -607421.6, -73806.25, -0.024009557, -0.07543569, -460513.6, 65081.27, 0.0, 10.000664, 9.999189 
2.0950915e+3, 2.563652e+2, -401353.5, -514878.34, -83519.664, 0.061090577, -0.17643793, -357133.22, 70478.62, 0.0, 10.00068, 9.999138 
2.0950969e+3, 2.6636454e+2, -254425.95, -479290.34, -77680.76, -0.010797334, -0.114132345, -230200.56, 99418.8, 0.0, 10.001382, 9.998378 
2.0951018e+3, 2.7636456e+2, 24582.945, -286718.47, -112993.695, -0.16501592, 0.029821465, 61272.344, 292892.97, 0.0, 10.002602, 9.998434 
2.0951086e+3, 2.8636202e+2, 48959.418, -244957.98, -84498.37, -0.18987776, -0.056311585, 71520.13, 205165.11, 0.00000039293647, 10.002162, 9.998273 
2.0951162e+3, 2.9635784e+2, -5632.993, -200233.25, -27217.61, -0.13556033, -0.3332706, -1897.9136, 33786.76, 0.000007661527, 10.001035, 9.998442 
2.0951211e+3, 3.0635825e+2, 4874.9033, -199550.83, -43595.57, -0.2876953, -0.12558562, 13783.789, 13783.789, 0.000036947218, 10.000916, 9.998172 
2.0951313e+3, 3.1635743e+2, 176326.27, -76501.98, -10497.291, 0.08243241, -0.04870018, 176761.36, 176761.36, 0.00009412645, 10.001912, 9.998527 
2.1050218e+3, 1.2636286e+2, -1941253.3, -1968287.3, -65596.19, 0.24891686, 0.24136728, -1887795.9, -186139.47, 0.44859928, 9.999029, 9.998713 
2.1050265e+3, 1.3636169e+2, -1439660.5, -1370229.9, -28305.607, 0.048423886, -0.10044485, -1360152.8, 243513.8, 0.3298663, 10.000731, 10.002118 
2.1050353e+3, 1.4636554e+2, -1407318.5, -1477118.0, -12492.014, 0.2314278, 0.17618193, -1405150.1, 100477.64, 0.20615475, 10.000994, 9.999849 
2.1050388e+3, 1.5636499e+2, -1465805.9, -1489731.0, 7187.5967, -0.1258642, 0.14994255, -1463812.8, -56180.52, 0.10215144, 9.999888, 9.999566 
2.1050441e+3, 1.663636e+2, -1344295.0, -1338918.4, -54585.938, -0.13444553, 0.03562563, -1286954.6, 22687.744, 0.036114734, 9.999856, 9.999951 
2.105052e+3, 1.763627e+2, -1124370.6, -1170258.3, -69614.81, 0.14735968, -0.07458707, -1074016.1, 137630.58, 0.007176738, 10.000659, 10.000041 
2.1050581e+3, 1.8636224e+2, -1009919.56, -1107892.1, -38521.28, 0.19524282, -0.103776835, -996587.75, 117059.9, 0.0003661867, 10.000963, 9.999653 
2.1050628e+3, 1.9636166e+2, -910212.2, -1013364.7, -48492.887, 0.06071788, -0.13688523, -890995.3, 124655.37, 0.00000091193453, 10.001003, 9.999603 
2.105067e+3, 2.063619e+2, -839813.5, -975368.94, -105014.23, -0.0039115227, -0.048684377, -782604.0, 135046.0, 0.0, 10.001, 9.999197 
2.1050715e+3, 2.1636276e+2, -736214.9, -864126.06, -115212.46, -0.018941067, 0.10057704, -668397.06, 151249.03, 0.0, 10.001006, 9.99928 
2.1050762e+3, 2.263623e+2, -676064.44, -770170.1, -123027.3, -0.031833816, 0.118303016, -591399.06, 130249.5, 0.0, 10.000681, 9.999411 
2.1050806e+3, 2.3636091e+2, -647234.75, -709396.0, -139324.98, -0.06114829, 0.022416783, -535565.75, 88090.68, 0.0, 10.000227, 9.999369 
2.1050861e+3, 2.4635908e+2, -521303.06, -655373.4, -108669.19, -0.009525527, -0.06681838, -460656.2, 65016.484, 0.0, 10.000659, 9.998864 
2.1050927e+3, 2.5635698e+2, -286297.22, -486580.03, -117926.22, 0.08112845, -0.17924319, -231729.58, 195964.78, 0.0, 10.001598, 9.998889 
2.1050987e+3, 2.6635674e+2, -256255.98, -466370.22, -48138.164, 0.023254825, -0.07476471, -245752.38, 83946.39, 0.0, 10.001298, 9.998512 
2.1051036e+3, 2.7635756e+2, -304011.25, -422464.75, 281.4555, -0.13259926, 0.14032294, -304010.6, -72317.945, 0.0, 10.00024, 9.998642 
2.1051103e+3, 2.863551e+2, -153670.98, -245053.7, 35894.492, -0.12717189, -0.0005894963, -141258.0, -7544.1484, 0.00000006547354, 10.0003605, 9.999133 
2.1051182e+3, 2.963502e+2, 62752.477, -89935.625, 11502.967, -0.04071235, -0.4265364, 63614.207, 99369.53, 0.0000047361223, 10.001194, 9.999115 
2.105124e+3, 3.0635092e+2, 109843.21, -213630.83, 23906.254, -0.12754618, -0.18860777, 111600.45, 111600.45, 0.00002876755, 10.001861, 9.997642 
2.1051328e+3, 3.1634986e+2, 201131.94, -59307.81, 58680.293, 0.029673489, -0.079310164, 213742.7, 213742.7, 0.00007804994, 10.00201, 9.998617 
2.1150188e+3, 1.2635088e+2, -1942077.9, -1995332.1, -35537.03, 0.0044080983, -0.09088139, -1924299.1, -222521.55, 0.46656317, 9.99913, 9.99848 
2.1150272e+3, 1.3635378e+2, -1402887.4, -1300671.4, 20248.197, -0.003643686, -0.08157825, -1296806.5, 306943.38, 0.34608045, 10.000791, 10.002878 
2.1150345e+3, 1.4636128e+2, -1356186.4, -1385771.4, -40661.93, 0.010295308, 0.47368652, -1327709.8, 177961.55, 0.21890919, 10.001078, 10.000618 
2.1150403e+3, 1.5635593e+2, -1404159.4, -1384743.4, -23641.178, 0.012175508, -0.120660536, -1368894.5, 38820.902, 0.110347085, 9.999975, 10.000267 
2.1150464e+3, 1.6635448e+2, -1377124.9, -1418027.4, -30900.854, 0.086052954, -0.24035068, -1360520.5, -50793.43, 0.040102176, 9.999904, 9.999381 
2.1150537e+3, 1.7635736e+2, -1157238.9, -1243098.5, -40348.406, 0.24488518, 0.087093204, -1141253.9, 70445.89, 0.008443992, 10.000679, 9.999529 
2.1150583e+3, 1.8635768e+2, -1006756.2, -1104109.3, -41460.582, 0.12538323, 0.15582137, -991492.25, 122202.234, 0.00052604213, 10.000977, 9.999671 
2.1150616e+3, 1.9635572e+2, -911210.94, -1017514.94, -41774.867, -0.17803077, -0.017831657, -896759.1, 118950.77, 0.0000034897541, 10.001012, 9.99957 
2.1150671e+3, 2.0635495e+2, -863903.3, -1017351.1, -107433.22, -0.13774869, -0.01486468, -808610.4, 109108.89, 0.0, 10.000967, 9.998925 
2.1150742e+3, 2.1635514e+2, -768673.5, -912720.7, -112131.195, 0.12385503, 0.096381195, -707427.44, 112295.0, 0.0, 10.00093, 9.998981 
2.1150784e+3, 2.2635345e+2, -722185.25, -841067.6, -142239.53, 0.10470175, 0.027522687, -627466.4, 94270.17, 0.0, 10.000572, 9.998978 
2.1150805e+3, 2.3635046e+2, -683896.3, -771818.75, -143591.25, -0.086742826, -0.18149854, -577687.5, 46071.22, 0.0, 10.000169, 9.998969 
2.1150859e+3, 2.4634935e+2, -546677.0, -685949.56, -73958.734, -0.11104919, -0.17550464, -514730.25, 11039.061, 0.0, 10.000565, 9.998698 
2.1150935e+3, 2.5634938e+2, -295806.88, -490707.38, -84597.17, -0.024888214, -0.05689256, -264209.72, 163562.63, 0.0, 10.001529, 9.998895 
2.1150999e+3, 2.663495e+2, -175566.39, -266144.9, -91905.84, 0.005435919, 0.0003097732, -118396.86, 211374.92, 0.0, 10.001164, 9.9999485 
2.1151052e+3, 2.763494e+2, -220661.6, -240424.13, -23883.02, 0.004068068, -0.01933498, -204696.44, 27074.008, 0.0, 10.0002, 9.999911 
2.1151125e+3, 2.863488e+2, -179438.25, -262798.03, 62274.29, 0.017942695, -0.027437318, -146182.83, -12409.6875, 0.00000005479561, 10.000215, 9.999078 
2.1151206e+3, 2.9634812e+2, 31143.133, -138281.4, 58683.492, 0.077074714, -0.028791577, 49483.867, 85259.695, 0.0000044705935, 10.001106, 9.998829 
2.1151279e+3, 3.0634445e+2, 11432.555, -283087.75, 22289.873, 0.06243049, -0.19157372, 13109.942, 13109.942, 0.0000269908, 10.00133, 9.997396 
2.115134e+3, 3.1634232e+2, 200333.16, 48895.7, 79536.3, -0.08664062, -0.19910738, 234429.48, 234429.48, 0.000073670686, 10.001577, 9.999555 
2.1250239e+3, 1.2635125e+2, -1735380.5, -2429210.8, 167408.14, 0.42173812, 0.761959, -1697100.1, 4675.7065, 0.48543465, 10.002885, 9.993691 
2.1250284e+3, 1.3634622e+2, -1453833.6, -1304802.3, 26146.727, 0.07762164, -0.12154816, -1300348.1, 303476.8, 0.3637423, 10.000145, 10.003221 
2.1250327e+3, 1.4635481e+2, -1671606.6, -1568707.4, -42443.5, -0.1581739, 0.5575535, -1553459.8, -47723.875, 0.23315269, 9.9988165, 10.000222 
2.1250415e+3, 1.5634865e+2, -1334643.6, -1372737.6, -101836.78, 0.12395362, -0.0878142, -1250088.0, 157700.83, 0.1197026, 10.000626, 10.000077 
2.1250483e+3, 1.6634697e+2, -1207097.6, -1345794.6, -121833.89, 0.22694443, -0.22061606, -1136258.0, 173544.97, 0.044803485, 10.001159, 9.999291 
2.125054e+3, 1.7634988e+2, -1152349.9, -1259435.5, -112173.46, 0.19662154, 0.12759513, -1081595.9, 130179.42, 0.01004214, 10.0008, 9.999362 
2.1250583e+3, 1.8635002e+2, -1051295.4, -1142510.0, -106137.31, 0.034656253, 0.19514024, -981381.44, 132390.3, 0.0007722133, 10.00073, 9.999528 
2.1250622e+3, 1.9634771e+2, -929043.75, -1040596.75, -127979.15, -0.21023966, -0.00023973694, -845214.8, 170575.92, 0.000010944595, 10.000947, 9.999441 
2.1250682e+3, 2.063468e+2, -925842.2, -1064582.9, -199634.95, -0.11778971, 0.00032855506, -783868.4, 133933.72, 0.0, 10.000622, 9.998763 
2.125075e+3, 2.1634685e+2, -905927.25, -993656.7, -203050.73, 0.16322175, 0.115424626, -742057.25, 77750.19, 0.0, 10.000049, 9.998848 
2.125079e+3, 2.2634518e+2, -670112.6, -775810.44, -155398.27, 0.13665166, 0.03450236, -558822.44, 162998.14, 0.0, 10.000759, 9.999336 
2.1250817e+3, 2.3634234e+2, -361146.9, -576542.2, -110669.81, -0.08848075, -0.19415636, -314421.16, 309418.53, 0.0, 10.002218, 9.999322 
2.1250872e+3, 2.4634162e+2, -376123.84, -580824.44, -25442.145, -0.110384695, -0.1783224, -373009.03, 152836.16, 0.0, 10.00164, 9.9988985 
2.1250942e+3, 2.563422e+2, -523909.97, -586245.8, -14575.376, -0.016277516, -0.026268167, -520670.34, -92828.26, 0.0, 9.999899, 9.9990225 
2.1251008e+3, 2.663419e+2, -308817.13, -356134.6, -49892.73, 0.02622685, 0.001961405, -277257.94, 52587.35, 0.0, 10.000366, 9.999713 
2.1251068e+3, 2.7634075e+2, 38561.598, -133355.81, -124103.86, 0.026476458, -0.09790403, 103568.67, 335423.84, 0.0, 10.002073, 9.999738 
2.1251138e+3, 2.8634065e+2, 55079.805, -149992.47, -90076.7, 0.05145357, -0.048425395, 89026.164, 222880.45, 0.000000117451826, 10.001813, 9.99909 
2.1251217e+3, 2.963416e+2, -63414.816, -170475.44, -98405.48, 0.10785732, 0.109584406, -4922.2197, 30920.875, 0.0000050467984, 10.000405, 9.9989395 
2.1251294e+3, 3.0633762e+2, 5010.931, -219406.38, -24503.68, 0.11048811, -0.12639567, 7655.2803, 7655.2803, 0.000026928557, 10.000951, 9.998038 
2.125136e+3, 3.163367e+2, 262314.53, 93150.63, -6349.8228, -0.05038598, -0.065517865, 262552.56, 262552.56, 0.00007094617, 10.001899, 9.999717 
2.1350303e+3, 1.3633879e+2, -1457168.6, -1315608.3, -82098.64, 0.24331996, -0.21258432, -1277991.0, 325902.8, 0.38411817, 10.000177, 10.003185 
2.13503e+3, 1.463462e+2, -1774905.6, -1798698.6, 8106.906, -0.33803922, 0.45156133, -1772406.0, -266585.13, 0.24951555, 9.998878, 9.998616 
2.1350427e+3, 1.5634312e+2, -1395910.3, -1519265.1, -47563.65, 0.16771102, 0.2537089, -1379700.5, 28152.145, 0.13052814, 10.00066, 9.999 
2.1350498e+3, 1.6634078e+2, -1176240.3, -1292643.5, -136743.69, 0.23418462, 0.075459555, -1085827.4, 224045.56, 0.050404422, 10.001213, 9.999641 
2.1350525e+3, 1.763401e+2, -1136674.1, -1236179.3, -121092.625, -0.041642122, 0.038204987, -1055511.6, 156362.8, 0.012084308, 10.000841, 9.999501 
2.1350576e+3, 1.8633921e+2, -1070752.3, -1192190.6, -100793.13, -0.13704707, 0.016802374, -1013802.06, 100077.87, 0.001155736, 10.000766, 9.99917 
2.1350645e+3, 1.9633764e+2, -947392.4, -1080409.5, -119731.39, -0.08497932, -0.073383644, -876937.5, 138955.81, 0.000030850606, 10.000952, 9.999166 
2.1350698e+3, 2.0633727e+2, -936184.44, -1076432.9, -226597.39, -0.009262949, -0.003342088, -769108.75, 148791.48, 0.0, 10.000581, 9.998702 
2.1350743e+3, 2.1633774e+2, -908622.0, -985216.7, -209840.83, 0.065364346, 0.1597778, -733612.4, 86289.8, 0.0, 9.99999, 9.998935 
2.1350789e+3, 2.263374e+2, -606035.5, -616540.0, -98866.56, 0.010858645, 0.14256194, -512281.78, 209619.67, 0.0, 10.0006485, 10.000482 
2.1350837e+3, 2.3633644e+2, -303311.63, -433590.7, -64336.043, -0.109544486, -0.01410739, -276896.34, 347004.2, 0.0, 10.00212, 10.000351 
2.1350893e+3, 2.4633572e+2, -355242.63, -510610.75, -97089.21, -0.07349226, -0.07133841, -308583.9, 217318.34, 0.0, 10.001527, 9.999434 
2.135095e+3, 2.5633514e+2, -514816.63, -555723.75, -59009.18, 0.05839349, -0.08482549, -472816.75, -44911.293, 0.0, 9.999849, 9.999254 
2.1351011e+3, 2.6633367e+2, -458344.97, -637738.06, 11925.535, 0.021389233, -0.077910826, -457555.66, -127633.59, 0.0, 10.000253, 9.9978285 
2.1351074e+3, 2.7633148e+2, -94317.516, -387383.97, -65908.33, -0.112622306, -0.09837073, -80177.49, 151771.17, 0.00000000014169585, 10.001979, 9.998037 
2.135114e+3, 2.8633037e+2, 26255.08, -156201.73, -150276.45, -0.12364498, -0.07552557, 110826.66, 244787.13, 0.000000256191, 10.001597, 9.999141 
2.1351211e+3, 2.9633042e+2, -52456.13, -132384.53, -119096.766, 0.0035349857, -0.018457377, 33202.824, 69161.766, 0.0000052967753, 10.000324, 9.999246 
2.135128e+3, 3.0632907e+2, 42456.953, -17574.816, 23449.057, -0.16312738, -0.09562463, 50530.586, 50530.586, 0.000025183504, 10.000483, 9.99962 
2.135137e+3, 3.163299e+2, 124675.195, -26238.564, 68490.945, -0.18080458, -0.002079393, 151123.9, 151123.9, 0.0000632292, 10.001249, 9.999182 
2.1450302e+3, 1.3633257e+2, -1689106.5, -1502386.6, -99347.75, 0.30071086, -0.047502276, -1459415.9, 144539.45, 0.40760165, 9.998661, 10.001955 
2.1450317e+3, 1.463362e+2, -1410624.4, -1634354.3, -49916.203, -0.19431065, 0.3151366, -1399992.9, 105928.055, 0.26811564, 10.001765, 9.998352 
2.145043e+3, 1.5633507e+2, -1337858.0, -1506041.9, -21439.416, 0.10469965, 0.32628182, -1335168.1, 72766.9, 0.14296411, 10.001189, 9.998835 
2.14505e+3, 1.6633315e+2, -1241713.6, -1323244.1, -125612.44, 0.16878775, 0.19830748, -1150417.1, 159534.4, 0.057087187, 10.000751, 9.999652 
2.1450537e+3, 1.7633148e+2, -1170658.6, -1247228.1, -133518.58, -0.0013370893, 0.059988458, -1070044.4, 141918.75, 0.014719365, 10.000593, 9.999547 
2.1450591e+3, 1.8633062e+2, -1078843.8, -1165791.8, -71018.2, -0.0528149, 0.024324084, -1039049.7, 74918.7, 0.0017550356, 10.000602, 9.999425 
2.1450661e+3, 1.9632983e+2, -955903.2, -1058976.4, -59212.695, -0.009254369, -0.008454996, -928940.3, 87033.61, 0.00008036648, 10.000794, 9.999391 
2.1450707e+3, 2.0632945e+2, -851087.0, -991081.94, -136462.19, 0.007925227, 0.030266926, -767717.06, 150261.53, 0.000000018813253, 10.000967, 9.999108 
2.145074e+3, 2.1632946e+2, -706231.1, -850577.0, -93502.72, -0.0215765, 0.10550342, -660286.75, 159694.48, 0.0, 10.001218, 9.9992695 
2.145079e+3, 2.2632948e+2, -631037.3, -658735.75, -17809.066, -0.03470008, 0.1250596, -622326.3, 99651.85, 0.0, 10.000601, 10.000217 
2.1450852e+3, 2.3632932e+2, -702406.44, -654531.1, -95982.61, -0.036263045, 0.07761391, -579546.25, 44427.438, 0.0, 9.999498, 10.000099 
2.1450908e+3, 2.4632838e+2, -617499.7, -640706.25, -200585.55, 0.030934239, 0.012690738, -428182.1, 97795.87, 0.0, 9.999745, 9.999402 
2.1450959e+3, 2.563269e+2, -377176.94, -497500.5, -208825.97, 0.12998489, -0.08702167, -220019.3, 207969.3, 0.0, 10.000825, 9.999188 
2.1451023e+3, 2.6632518e+2, -402823.1, -641031.94, -46424.742, 0.076663196, -0.09152566, -394095.13, -64087.48, 0.0, 10.0007515, 9.99757 
2.1451086e+3, 2.7632317e+2, -400846.56, -565432.06, -23473.365, -0.079449125, -0.06185055, -397564.22, -165531.69, 0.00000000016893417, 10.000005, 9.997765 
2.1451153e+3, 2.8632206e+2, -230821.39, -333854.97, -100442.5, -0.067803174, -0.0078097675, -169454.72, -35408.176, 0.0000002738674, 10.000039, 9.998685 
2.1451221e+3, 2.963213e+2, -47218.14, -149637.23, -122205.52, 0.06275478, 0.0206043, 34073.664, 70128.86, 0.0000047479944, 10.000457, 9.999059 
2.1451287e+3, 3.0632037e+2, 48534.965, 48745.46, -3766.1086, -0.10549268, -0.05625343, 52407.793, 52407.793, 0.00002151286, 10.000165, 10.000274 
2.1451382e+3, 3.163211e+2, -107070.914, -39206.74, -49066.33, -0.07079146, -0.02576557, -13482.386, -13482.386, 0.000053598036, 9.999213, 10.000074 
2.1550278e+3, 1.3632813e+2, -1853208.4, -1792670.0, 172519.58, 0.15520824, 0.41437218, -1647784.3, -43780.32, 0.43279883, 9.998669, 9.999384 
2.1550374e+3, 1.4632455e+2, -1351598.5, -1493802.3, -70024.5, 0.16409753, 0.11065653, -1322906.0, 183132.89, 0.28823382, 10.001873, 9.999332 
2.1550423e+3, 1.5632443e+2, -1291590.4, -1403844.4, -34927.832, -0.11202766, 0.12918295, -1281609.9, 126426.29, 0.15688464, 10.00124, 9.999525 
2.1550491e+3, 1.6632418e+2, -1259230.6, -1370801.3, -135734.83, -0.030925555, 0.16525179, -1168264.6, 141773.36, 0.06501248, 10.000805, 9.999297 
2.1550572e+3, 1.76324e+2, -1173599.1, -1255473.4, -133882.03, 0.26560706, 0.19806197, -1074535.4, 137505.95, 0.018139776, 10.000606, 9.999483 
2.1550626e+3, 1.8632405e+2, -1020249.44, -1053295.9, -66632.58, 0.2204977, 0.2139468, -968121.94, 145916.84, 0.0026903055, 10.000638, 10.000184 
2.1550669e+3, 1.9632412e+2, -901439.44, -948263.1, -46905.332, -0.025958464, 0.19031233, -872427.75, 143606.38, 0.00019736934, 10.000809, 10.000141 
2.1550706e+3, 2.0632322e+2, -797425.44, -876768.3, -128861.67, -0.12735666, 0.10011226, -702266.75, 215771.25, 0.0000007869328, 10.000952, 9.999901 
2.155074e+3, 2.163218e+2, -678965.94, -782983.9, -87052.375, -0.1388659, -0.04843838, -629569.56, 190477.11, 0.0, 10.001164, 9.99976 
2.1550794e+3, 2.2632116e+2, -760945.56, -907824.2, -61939.043, -0.058377292, -0.02130276, -738313.1, -16259.913, 0.0, 10.000515, 9.998547 
2.155086e+3, 2.3632093e+2, -818287.6, -880611.2, -121587.92, 0.08059928, 0.08688843, -723931.75, -99871.875, 0.0, 9.999439, 9.998573 
2.1550918e+3, 2.463195e+2, -676101.6, -735593.2, -161167.52, 0.13859828, 0.07381657, -541957.9, -15884.325, 0.0, 9.999639, 9.9987955 
2.1550971e+3, 2.563173e+2, -413903.4, -558235.94, -170676.52, 0.15536545, -0.039129283, -300763.3, 127329.39, 0.0, 10.000762, 9.9988 
2.1551035e+3, 2.6631606e+2, -329302.6, -460421.63, -77443.38, 0.115720466, -0.045322392, -293395.22, 36708.805, 0.0, 10.000638, 9.998859 
2.1551104e+3, 2.7631548e+2, -336397.47, -421992.72, -38724.27, 0.06357892, -0.007910853, -321478.5, -89367.734, 0.0, 9.999963, 9.998769 
2.1551174e+3, 2.863149e+2, -323702.72, -484549.8, -86721.625, 0.117329255, 0.115313835, -285852.9, -151733.02, 0.000000100631844, 9.999883, 9.997712 
2.1551242e+3, 2.96314e+2, -133165.66, -304083.22, -94047.98, 0.21273305, 0.2210831, -91548.78, -55414.605, 0.0000031808088, 10.000347, 9.998053 
2.1551307e+3, 3.0631047e+2, -48153.7, -23333.656, -46888.85, 0.038495686, -0.043152813, 12759.652, 12759.652, 0.000016571294, 9.99966, 9.999993 
2.1551384e+3, 3.1631204e+2, -93939.14, 72450.8, 50495.03, 0.011928812, 0.059916276, 86575.664, 86575.664, 0.000044980578, 9.998853, 10.001015 
2.1650274e+3, 1.3631806e+2, -1646987.5, -1743901.9, 240579.81, 0.15742318, 0.32746592, -1450033.4, 154067.28, 0.45757636, 10.0007515, 9.99908 
2.1650393e+3, 1.4631584e+2, -1417367.8, -1463914.6, -33843.36, 0.22062755, 0.12906185, -1399567.8, 106556.09, 0.3088363, 10.000911, 10.000053 
2.165044e+3, 1.5631562e+2, -1328619.3, -1373404.0, -30461.383, -0.037249874, 0.07577798, -1313205.4, 94915.805, 0.17204043, 10.000711, 10.000017 
2.16505e+3, 1.6631576e+2, -1310076.8, -1393767.5, -100724.35, 0.021538706, 0.12759334, -1242851.4, 67267.95, 0.07433442, 10.000424, 9.999311 
2.1650577e+3, 1.7631584e+2, -1163935.9, -1241421.0, -74605.375, 0.26170182, 0.1802436, -1118613.3, 93507.4, 0.022589553, 10.000626, 9.999569 
2.1650632e+3, 1.8631622e+2, -995534.0, -1021543.5, -18352.623, 0.21390466, 0.21417269, -986045.6, 128070.28, 0.00413868, 10.00071, 10.000374 
2.1650676e+3, 1.9631687e+2, -887749.44, -924704.2, -52408.133, -0.019986073, 0.23010638, -850656.8, 165450.06, 0.00045452762, 10.000813, 10.000308 
2.1650718e+3, 2.0631604e+2, -831027.0, -864823.2, -173747.08, -0.08426144, 0.12543866, -673358.2, 244750.98, 0.000007502901, 10.000602, 10.000147 
2.1650757e+3, 2.1631429e+2, -786650.2, -821520.2, -180029.78, -0.0568942, -0.07568796, -623213.1, 196905.95, 0.0, 10.000373, 9.999876 
2.1650808e+3, 2.2631335e+2, -725039.56, -954129.94, -112050.63, -0.0034156793, -0.049775664, -679347.6, 42782.043, 0.0, 10.001046, 9.997968 
2.1650867e+3, 2.363129e+2, -431293.44, -749105.94, -102997.21, 0.06255178, 0.09414196, -400833.3, 223307.69, 0.0, 10.00234, 9.998074 
2.1650925e+3, 2.463116e+2, -338502.88, -584477.56, -85084.25, 0.13817243, 0.11893339, -311940.2, 214215.39, 0.0, 10.001989, 9.99871 
2.1650983e+3, 2.5630972e+2, -428233.6, -557937.7, -60086.41, 0.20185062, 0.046661466, -404676.56, 23496.357, 0.0, 10.000645, 9.998849 
2.1651044e+3, 2.6630878e+2, -288737.22, -384167.94, 28785.852, 0.16294906, 0.031780664, -280726.66, 49454.31, 0.0, 10.000685, 9.999355 
2.1651112e+3, 2.7630824e+2, -67588.18, -241971.98, -623.63525, 0.077151254, 0.029909723, -67585.95, 164599.06, 0.0, 10.001609, 9.999206 
2.1651186e+3, 2.8630772e+2, -32758.61, -342673.72, -19395.588, 0.1543149, 0.13339178, -31549.482, 102642.73, 0.0000000029805467, 10.001862, 9.997737 
2.1651255e+3, 2.9630688e+2, 39375.355, -218151.11, 16842.783, 0.24732682, 0.25580105, 40472.24, 76676.63, 0.0000013452404, 10.001542, 9.998056 
2.1651314e+3, 3.0630362e+2, 65897.734, -46540.973, 67672.984, 0.10664865, 0.039919667, 97657.06, 97657.06, 0.000010696579, 10.000746, 9.999322 
2.1651374e+3, 3.1630322e+2, 54425.133, 108784.164, 81036.18, -0.03156924, 0.026289219, 167077.39, 167077.39, 0.000035608395, 10.000025, 10.000693 
2.1750288e+3, 1.363021e+2, -1489846.3, -1498734.9, 123921.58, 0.17677559, -0.343446, -1370289.4, 233958.73, 0.48078975, 10.001221, 10.000869 
2.1750376e+3, 1.463103e+2, -1397995.1, -1427244.9, -20314.107, -0.075518176, 0.38843566, -1387589.0, 118584.65, 0.32934, 10.000969, 10.000409 
2.1750478e+3, 1.5630862e+2, -1316509.8, -1347274.1, -36545.31, 0.27535093, 0.16461873, -1292241.4, 115948.88, 0.18832743, 10.000721, 10.000236 
2.1750529e+3, 1.6630769e+2, -1273902.8, -1338910.9, -97271.31, 0.24130917, 0.079660095, -1203848.4, 106349.35, 0.0852701, 10.00052, 9.999655 
2.1750551e+3, 1.7630698e+2, -1140533.4, -1201830.5, -59928.367, -0.059057895, 0.012144652, -1103871.1, 108330.75, 0.028395085, 10.000672, 9.999815 
2.1750605e+3, 1.863071e+2, -1020798.6, -1088544.8, -18853.406, -0.12606445, 0.037714377, -1015905.3, 98294.914, 0.006367479, 10.00077, 9.999883 
2.1750686e+3, 1.9630793e+2, -915986.0, -984454.56, -48654.805, -0.031675093, 0.116645336, -890728.44, 125464.68, 0.0009868387, 10.000815, 9.999895 
2.1750739e+3, 2.0630775e+2, -853329.5, -912522.5, -186767.6, 0.06835227, 0.11078872, -693827.94, 224365.4, 0.000047582707, 10.0006, 9.999825 
2.1750784e+3, 2.163068e+2, -811377.7, -861243.94, -176995.13, 0.17353019, 0.022253135, -657568.2, 162631.28, 0.00000000032497088, 10.0003195, 9.99963 
2.1750827e+3, 2.263059e+2, -712783.3, -900857.8, -63839.082, 0.076561734, 0.037127618, -693161.3, 29047.244, 0.0, 10.000928, 9.998387 
2.1750872e+3, 2.3630501e+2, -415189.47, -692166.94, -59017.887, -0.12966277, 0.09348033, -403138.38, 221081.03, 0.0, 10.002241, 9.99851 
2.175093e+3, 2.4630445e+2, -328451.84, -524285.03, -139959.84, -0.042466257, 0.1455755, -255557.38, 270668.72, 0.0, 10.001832, 9.999193 
2.1750994e+3, 2.5630403e+2, -413920.97, -507330.0, -96089.82, 0.21949452, 0.16671605, -353786.5, 74444.74, 0.0, 10.000561, 9.999234 
2.1751052e+3, 2.6630294e+2, -331507.22, -439545.13, 58478.566, 0.14981563, 0.13969126, -305915.94, 24325.527, 0.0, 10.000549, 9.999036 
2.1751113e+3, 2.7630126e+2, -97724.15, -279022.47, 38513.75, -0.08990766, 0.055440277, -89881.79, 142374.95, 0.0, 10.001507, 9.998995 
2.1751185e+3, 2.8630012e+2, -3572.0283, -223212.6, -34505.45, -0.06214106, 0.05661803, 1721.201, 135987.81, 0.0, 10.001626, 9.998662 
2.1751255e+3, 2.962994e+2, 73217.05, -131788.7, 6569.2236, 0.07919769, 0.08938656, 73427.336, 109699.41, 0.00000028754212, 10.001467, 9.998687 
2.1751308e+3, 3.062981e+2, -72811.73, -236465.7, 21761.936, -0.048112463, 0.11623796, -69967.37, -69967.37, 0.0000061160813, 10.000386, 9.998161 
2.1751365e+3, 3.1629547e+2, -157475.05, -194847.84, 40023.2, -0.17085178, -0.007044556, -131990.89, -131990.89, 0.00002746077, 9.999457, 9.998878 
2.1850379e+3, 1.46304e+2, -1369970.6, -1456088.8, 60449.297, -0.16460632, 0.33069664, -1338812.4, 167416.5, 0.34983045, 10.001572, 9.999834 
2.1850479e+3, 1.5630277e+2, -1164856.5, -1348023.4, 20193.658, 0.11524308, 0.25488982, -1162656.6, 245590.06, 0.2059314, 10.002454, 9.99941 
2.1850559e+3, 1.6629986e+2, -1036404.7, -1173488.3, -67350.52, 0.40761432, -0.013473283, -1008852.4, 301422.0, 0.09816949, 10.002103, 10.000108 
2.1850556e+3, 1.7630047e+2, -1035905.7, -1110477.8, -35714.742, -0.091220856, 0.008821421, -1021560.44, 190703.44, 0.036017943, 10.001264, 10.000175 
2.1850602e+3, 1.8630096e+2, -1096464.0, -1136946.1, 31771.428, -0.21470402, 0.0618483, -1079033.8, 35224.8, 0.009796201, 10.000307, 9.999768 
2.1850689e+3, 1.9630094e+2, -1126825.9, -1108783.6, 22288.303, -0.0010114071, 0.069518365, -1093760.0, -77498.99, 0.0020521113, 9.99947, 9.999683 
2.1850751e+3, 2.0630063e+2, -1018841.0, -1066123.0, -88761.77, 0.16004182, 0.09955538, -950625.8, -32360.375, 0.00020967671, 9.999797, 9.999154 
2.1850796e+3, 2.1630026e+2, -751799.6, -880464.4, -118499.5, 0.23292257, 0.13265987, -681295.9, 138974.13, 0.00000086887735, 10.000942, 9.999196 
2.1850838e+3, 2.2629927e+2, -681762.3, -783908.44, 7980.4946, 0.10281193, 0.10498809, -681142.56, 41135.12, 0.0, 10.000684, 9.999319 
2.1850881e+3, 2.3629783e+2, -743205.3, -760012.2, 42648.25, -0.13239738, 0.016297825, -708140.5, -83852.72, 0.0, 9.999608, 9.9993105 
2.1850935e+3, 2.4629745e+2, -597884.25, -697291.56, -53936.0, -0.06519761, 0.07006372, -574242.56, -47949.414, 0.0, 10.000159, 9.998815 
2.1850999e+3, 2.562975e+2, -269609.9, -481603.34, -87258.555, 0.16867751, 0.1801977, -238313.64, 189984.06, 0.0, 10.001723, 9.998862 
2.185106e+3, 2.662967e+2, -234530.28, -414313.75, 40088.625, 0.13638352, 0.20923458, -225996.3, 104311.055, 0.0, 10.001284, 9.998868 
2.1851122e+3, 2.7629519e+2, -367449.28, -422307.28, 19432.465, -0.046781607, 0.162662, -361263.25, -128940.7, 0.0, 9.999693, 9.9988985 
2.1851191e+3, 2.862939e+2, -298850.5, -314609.9, -41004.305, -0.04981381, 0.12054946, -264975.66, -130643.164, 0.0, 9.999362, 9.999134 
2.1851255e+3, 2.962926e+2, -126846.55, -183587.98, -58373.05, 0.003190622, 0.06220251, -90314.95, -53974.535, 0.000000027227998, 9.9999, 9.999089 
2.1851309e+3, 3.0629173e+2, -179995.17, -292383.2, -31159.148, -0.052323893, 0.10347044, -171934.53, -171934.53, 0.0000044959556, 9.999618, 9.998177 
2.1851352e+3, 3.162898e+2, -269311.88, -185213.08, 27870.422, -0.17151013, 0.07201507, -176815.36, -176815.36, 0.000025056414, 9.998346, 9.999507 
2.1950398e+3, 1.4629601e+2, -1428786.3, -1605538.9, -3373.5247, -0.16787107, -0.09124206, -1428722.0, 77576.84, 0.371045, 10.001569, 9.998622 
2.1950434e+3, 1.5629789e+2, -1272746.1, -1603317.6, 47142.016, -0.57265335, 0.35699737, -1266154.8, 142137.36, 0.22535217, 10.002461, 9.997552 
2.1950589e+3, 1.6629231e+2, -1003820.0, -1109647.4, -101950.93, 0.46914515, -0.12781313, -941869.2, 368480.0, 0.113554515, 10.002155, 10.000596 
2.1950594e+3, 1.7629607e+2, -1007621.75, -1047810.9, -62427.58, 0.12106542, 0.16596207, -962134.4, 250174.17, 0.046104282, 10.001265, 10.000629 
2.1950617e+3, 1.8629748e+2, -1075388.1, -1099456.3, 915.7748, -0.11568742, 0.2719706, -1075353.3, 38940.758, 0.015073848, 10.000332, 10.000018 
2.1950689e+3, 1.9629583e+2, -1123879.3, -1102927.1, 5751.4233, 0.023508178, 0.09672934, -1101452.1, -85140.98, 0.004138987, 9.999477, 9.999718 
2.1950747e+3, 2.0629466e+2, -1096111.9, -1228256.5, -48619.13, 0.121162824, 0.1038274, -1080151.4, -161825.53, 0.00072646124, 9.999802, 9.998038 
2.195079e+3, 2.1629442e+2, -812923.9, -990930.5, -81581.47, 0.07580336, 0.25394624, -781191.44, 39141.37, 0.000022642807, 10.000875, 9.998465 
2.1950838e+3, 2.2629328e+2, -598939.2, -582524.1, -35518.504, 0.015264572, 0.15873337, -554277.2, 168061.64, 0.000000000011542125, 10.000554, 10.000763 
2.1950892e+3, 2.3629121e+2, -673001.3, -604772.5, 18112.855, -0.0017746317, -0.13791162, -600262.2, 24085.586, 0.0, 9.999562, 10.000398 
2.1950945e+3, 2.4629031e+2, -709048.1, -893974.3, -725.0378, -0.0030388637, -0.11028506, -709045.3, -182686.11, 0.0, 10.000022, 9.997524 
2.1951e+3, 2.5629002e+2, -359641.0, -651907.75, -38020.445, 0.00068324077, 0.090883255, -354776.0, 73597.05, 0.0, 10.001657, 9.99772 
2.1951064e+3, 2.662899e+2, -272158.9, -446703.4, -24444.016, 0.04399326, 0.24383837, -268800.28, 61580.07, 0.0, 10.001106, 9.99872 
2.1951137e+3, 2.7628967e+2, -385613.88, -437949.88, -24685.752, 0.13586463, 0.33307922, -375807.56, -143421.98, 0.0, 9.999612, 9.998819 
2.1951199e+3, 2.8628838e+2, -319464.16, -329373.0, -27140.758, 0.08249942, 0.29907322, -296829.3, -162433.45, 0.0, 9.999253, 9.99908 
2.195125e+3, 2.9628643e+2, -145507.8, -194046.95, -29001.21, -0.050188318, 0.17914997, -131960.95, -95551.24, 0.000000020729713, 9.999784, 9.99907 
2.1951301e+3, 3.0628404e+2, -156118.52, -153071.52, -70942.8, -0.11622908, 0.017169558, -83635.87, -83635.87, 0.0000055230016, 9.9992695, 9.999272 
2.195134e+3, 3.1628305e+2, -242483.72, -15263.506, 108410.35, -0.13519904, -0.058415942, 28161.607, 28161.607, 0.000029811183, 9.997917, 10.000847 
2.205041e+3, 1.4628775e+2, -1480443.9, -1669747.9, -158126.11, -0.18917808, -0.2741215, -1390805.6, 115576.02, 0.39437363, 10.00139, 9.998402 
2.2050437e+3, 1.5629248e+2, -1384553.6, -1608497.0, 25785.455, -0.725533, 0.4146941, -1381623.0, 26721.516, 0.24751917, 10.001179, 9.99814 
2.205061e+3, 1.6628619e+2, -1271873.1, -1265908.3, -91004.61, 0.5626479, -0.16998027, -1177837.3, 132572.0, 0.13222682, 10.000213, 10.000365 
2.2050607e+3, 1.762901e+2, -1220584.8, -1204687.0, -114734.47, 0.21782003, 0.19181599, -1097626.4, 114743.59, 0.059555795, 9.999944, 10.000186 
2.2050628e+3, 1.862919e+2, -1074190.3, -1063593.5, -59083.008, -0.047096126, 0.3397656, -1009571.75, 104780.78, 0.023171267, 10.000174, 10.000358 
2.2050694e+3, 1.9629084e+2, -927115.4, -963252.5, -52038.582, 0.090867, 0.18793371, -890097.75, 126265.87, 0.008108057, 10.000626, 10.00014 
2.2050752e+3, 2.0628966e+2, -939299.94, -1077768.8, 11422.373, 0.15113121, 0.13649416, -938364.06, -19988.041, 0.0021629941, 10.000547, 9.99872 
2.2050789e+3, 2.1628897e+2, -857019.6, -956597.8, 93884.96, 0.00800297, 0.17838414, -800538.56, 19844.986, 0.00023583506, 10.000319, 9.998977 
2.2050837e+3, 2.2628812e+2, -679905.2, -669911.3, 77692.836, 0.0044595795, 0.11926851, -597054.9, 125332.88, 0.0000019906881, 10.000213, 10.000324 
2.2050904e+3, 2.3628703e+2, -603627.25, -617553.4, -11249.779, 0.12599118, -0.03763157, -597359.94, 27031.438, 0.0, 10.000224, 10.000002 
2.2050957e+3, 2.4628587e+2, -612526.94, -853537.5, 40582.35, 0.08771167, -0.011356728, -605877.0, -79471.11, 0.0, 10.000705, 9.997477 
2.2051008e+3, 2.5628483e+2, -379753.7, -657960.25, 68463.945, -0.0813821, 0.11194292, -363818.16, 64607.43, 0.0, 10.001547, 9.997707 
2.2051072e+3, 2.6628435e+2, -245501.5, -476943.72, 37582.51, -0.0074339397, 0.24702787, -239551.67, 90885.32, 0.0, 10.001466, 9.998348 
2.205115e+3, 2.7628374e+2, -217775.34, -392041.9, 20735.086, 0.22405134, 0.34338728, -215342.16, 17105.328, 0.0, 10.000907, 9.998518 
2.2051206e+3, 2.8628314e+2, -146028.55, -207445.2, 67997.69, 0.17383422, 0.3633657, -102126.64, 32325.49, 0.0, 10.000291, 9.999417 
2.2051245e+3, 2.962822e+2, -118641.93, -145282.94, 70011.3, -0.07941679, 0.32387993, -60695.207, -24239.223, 0.00000007580395, 9.999815, 9.999396 
2.2051303e+3, 3.0627853e+2, -35720.387, -84871.0, 9247.423, -0.032060664, 0.00044683355, -34038.113, -34038.113, 0.0000083740215, 10.000012, 9.999406 
2.2051351e+3, 3.1627902e+2, 128294.84, 154640.95, 55428.14, 0.041628733, 0.08515532, 198439.89, 198439.89, 0.000042885644, 10.000457, 10.000808 
2.2150423e+3, 1.4628123e+2, -1424172.3, -1525197.9, -55217.504, -0.23747523, 0.00611965, -1399848.5, 106609.53, 0.4221777, 10.0014105, 9.99933 
2.2150485e+3, 1.5628608e+2, -1233483.3, -1235402.5, -1548.1085, -0.36968997, 0.41399696, -1232621.4, 175786.55, 0.27423543, 10.001161, 10.001163 
2.2150618e+3, 1.6628112e+2, -1328535.4, -1382332.5, -123569.984, 0.5995783, -0.14141461, -1228970.1, 81487.91, 0.15564767, 10.000215, 9.999535 
2.21506e+3, 1.7628255e+2, -1303169.5, -1380232.9, -118043.56, 0.1462847, 0.09841054, -1217528.0, -5079.945, 0.07778218, 9.999945, 9.998955 
2.2150627e+3, 1.862843e+2, -1041757.75, -1012278.3, -42317.727, -0.07091543, 0.2835653, -982206.8, 132226.73, 0.035576556, 10.0002365, 10.0007 
2.2150709e+3, 1.9628584e+2, -878948.56, -859788.8, -35897.145, 0.15736823, 0.3453349, -832215.25, 184204.52, 0.0154146915, 10.000616, 10.000868 
2.2150762e+3, 2.0628542e+2, -771156.3, -724634.0, -489.08438, 0.18350288, 0.19602527, -724628.8, 193789.28, 0.005714695, 10.000529, 10.001161 
2.215079e+3, 2.1628381e+2, -737657.4, -698427.1, 90506.04, -0.02370978, -0.09196687, -625435.0, 194988.61, 0.0013616167, 10.000273, 10.000771 
2.2150843e+3, 2.2628392e+2, -866028.2, -1029198.75, 73520.086, -0.003410843, 0.004694104, -837789.25, -115365.45, 0.00013056793, 10.000096, 9.997914 
2.2150913e+3, 2.3628508e+2, -744129.5, -894574.06, -1179.2705, 0.20580077, 0.3038904, -744120.25, -119699.67, 0.0000045921656, 10.00016, 9.99813 
2.215097e+3, 2.4628398e+2, -562305.3, -707223.5, 65161.813, 0.13208067, 0.35697013, -537315.0, -10880.445, 0.000000030624218, 10.000536, 9.998556 
2.215102e+3, 2.5628158e+2, -330711.0, -532531.2, 96681.336, -0.13128422, 0.23433742, -291870.88, 136587.31, 0.0, 10.001448, 9.998615 
2.215108e+3, 2.6627955e+2, -311924.06, -573800.3, 3276.5088, -0.09153774, 0.20792939, -311883.1, 18598.88, 0.0, 10.001302, 9.997755 
2.2151154e+3, 2.7627745e+2, -270802.8, -468849.25, 2265.9307, 0.16521288, 0.20772691, -270776.88, -38268.445, 0.0, 10.000774, 9.998049 
2.2151206e+3, 2.8627792e+2, -151081.55, -151580.34, 41132.215, 0.12121042, 0.33087677, -110197.98, 24305.215, 0.0, 10.000025, 9.999918 
2.2151238e+3, 2.9627943e+2, -113142.48, -104898.46, 68030.08, -0.14477488, 0.48109534, -40865.63, -4381.9224, 0.00000027397763, 9.999713, 9.999709 
2.2151315e+3, 3.062745e+2, -122067.46, -196438.42, 20651.338, 0.05673701, 0.056572374, -116717.805, -116717.805, 0.000015050563, 9.999763, 9.998737 
2.215135e+3, 3.162769e+2, -100908.37, -184688.9, 55580.434, -0.031710703, 0.40050533, -73199.94, -73199.94, 0.00007034586, 9.999924, 9.998713 
2.2250511e+3, 1.4627808e+2, -1024468.2, -1237339.9, -106330.805, 0.2729246, 0.4487755, -980455.25, 526038.0, 0.45833316, 10.005817, 10.000654 
2.2250512e+3, 1.5627824e+2, -1375582.5, -1235101.3, -15737.657, -0.13685137, 0.21724115, -1233359.8, 175124.63, 0.30885017, 9.999369, 10.002104 
2.22506e+3, 1.6627805e+2, -1257749.4, -1257898.5, -62594.203, 0.40312082, 0.05572067, -1195229.8, 115255.8, 0.18666483, 10.000327, 10.000376 
2.2250603e+3, 1.7627802e+2, -1039750.1, -1149350.9, 62767.48, 0.10324111, 0.052371137, -1011226.8, 201262.05, 0.103338934, 10.001478, 9.999843 
2.2250634e+3, 1.8627916e+2, -990339.94, -1007040.5, 169384.03, -0.03829047, 0.14528996, -829100.5, 285379.94, 0.054786276, 10.000711, 10.00054 
2.2250703e+3, 1.9628118e+2, -1046270.25, -961624.44, 136237.52, 0.092225686, 0.27213356, -861287.3, 155175.7, 0.028543482, 9.999537, 10.000691 
2.2250757e+3, 2.062812e+2, -897036.9, -800678.0, 68347.836, 0.119463116, 0.18085413, -765235.1, 153222.88, 0.013685946, 9.999724, 10.001027 
2.2250795e+3, 2.1627992e+2, -716275.6, -710230.25, -41159.547, 0.000045586694, -0.05982948, -671982.5, 148479.27, 0.005262215, 10.000513, 10.000582 
2.2250849e+3, 2.2627956e+2, -754778.0, -1038838.1, -35150.58, 0.027736625, 0.030276665, -750492.94, -28024.941, 0.001420654, 10.00111, 9.997369 
2.2250918e+3, 2.3627992e+2, -564195.44, -855565.0, 16982.967, 0.16369668, 0.30150717, -563208.9, 61265.37, 0.0002619265, 10.001586, 9.99772 
2.2250979e+3, 2.462787e+2, -404054.13, -610931.6, 102901.6, 0.122804664, 0.34995666, -361587.72, 164900.61, 0.000035642544, 10.00152, 9.998753 
2.225104e+3, 2.5627652e+2, -337437.6, -513767.4, 65429.79, -0.052864406, 0.22743806, -315811.28, 112695.64, 0.0000011567587, 10.001272, 9.99885 
2.2251093e+3, 2.6627448e+2, -383771.06, -579884.0, -40014.676, -0.04014857, 0.17952955, -375920.75, -45392.223, 0.0, 10.000682, 9.998009 
2.225115e+3, 2.762725e+2, -342697.53, -475256.34, 4615.99, 0.08775846, 0.16122328, -342536.97, -109984.61, 0.0, 10.000174, 9.998284 
2.2251199e+3, 2.86273e+2, -190193.34, -214811.5, 51548.957, 0.0726161, 0.29385987, -149504.23, -14955.97, 0.0, 9.999929, 9.999539 
2.2251241e+3, 2.9627398e+2, -78681.69, -144313.25, 4625.8794, -0.090411104, 0.44508854, -78357.24, -41819.684, 0.00000073017384, 10.000183, 9.999214 
2.2251318e+3, 3.0626982e+2, -23308.783, -153155.16, -24603.865, 0.07567711, 0.11182863, -18803.084, -18803.084, 0.00002755439, 10.000441, 9.998719 
2.225135e+3, 3.162702e+2, 23106.791, -78308.055, -26741.637, -0.056216706, 0.26708096, 29726.13, 29726.13, 0.000118261974, 10.000519, 9.999173 
2.2350511e+3, 1.5626931e+2, -1456568.0, -1329242.9, -64199.137, -0.1029376, -0.11718138, -1302492.8, 106077.55, 0.35698506, 9.9991665, 10.001339 
2.2350559e+3, 1.662768e+2, -1142131.6, -1010042.25, -6826.172, -0.075299956, 0.40581834, -1009690.44, 300802.72, 0.23053116, 10.000283, 10.002629 
2.2350612e+3, 1.762761e+2, -885954.5, -807588.1, 79821.24, 0.04487399, 0.029839333, -757851.4, 454645.06, 0.14104874, 10.001414, 10.00263 
2.2350647e+3, 1.8627605e+2, -1041513.8, -1100709.9, 110926.766, -0.023991466, -0.09567338, -956304.25, 158193.72, 0.08532412, 10.000674, 9.999896 
2.2350676e+3, 1.9627665e+2, -1118008.4, -1102243.9, 107704.0, -0.14701802, -0.033865105, -1002134.06, 14361.257, 0.05187056, 9.999502, 9.999726 
2.2350733e+3, 2.062771e+2, -1091385.9, -1189707.4, 100552.44, -0.101908885, 0.10922313, -1028620.0, -110124.9, 0.030293982, 9.99967, 9.99837 
2.2350806e+3, 2.1627714e+2, -874419.8, -1025118.1, -7215.031, 0.034840208, 0.2609318, -874075.2, -53575.938, 0.015773455, 10.000452, 9.9984455 
2.2350861e+3, 2.2627491e+2, -696318.2, -871639.9, -20066.549, 0.026414543, 0.18882225, -694050.8, 28471.03, 0.0069356123, 10.000927, 9.998596 
2.2350913e+3, 2.3627153e+2, -502993.16, -708884.4, 35007.688, -0.0496506, -0.04266014, -497203.6, 127349.68, 0.002541045, 10.001507, 9.998759 
2.2350982e+3, 2.4627e+2, -479896.47, -723382.94, 84360.32, -0.013785013, -0.02714529, -453524.6, 73043.15, 0.00075579167, 10.001339, 9.998061 
2.235107e+3, 2.5626972e+2, -384159.84, -577227.1, 58672.14, 0.089222424, 0.09271453, -367728.2, 60842.633, 0.00014769337, 10.001129, 9.998479 
2.2351111e+3, 2.6626927e+2, -370702.66, -475834.4, -75180.6, 0.048421524, 0.17076685, -331533.63, -958.04736, 0.000007045108, 10.000378, 9.998857 
2.2351138e+3, 2.762687e+2, -315552.3, -382711.3, -8485.398, -0.059728358, 0.19821878, -314496.78, -81915.62, 0.00000000065814787, 10.000038, 9.998971 
2.2351186e+3, 2.8626794e+2, -308693.94, -411763.16, 38949.51, -0.059676666, 0.23869024, -295630.72, -161039.06, 0.0, 9.999741, 9.998263 
2.2351253e+3, 2.9626614e+2, -213431.0, -366404.2, 20620.188, -0.0058210446, 0.24297993, -210700.22, -174085.58, 0.0000012574419, 9.999957, 9.997785 
2.2351304e+3, 3.0626395e+2, -81999.21, -147325.84, -28089.654, -0.15632166, 0.16302033, -71582.125, -71582.125, 0.000044073433, 9.999939, 9.998976 
2.2351362e+3, 3.162634e+2, 60798.598, 156525.97, 50110.824, -0.017480657, 0.17275456, 177958.94, 177958.94, 0.00018419352, 9.99992, 10.00105 
2.245052e+3, 1.5626301e+2, -1129741.0, -1385161.9, 74381.96, -0.19572304, -0.6905673, -1109659.0, 298957.66, 0.42759266, 10.004279, 9.998201 
2.2450544e+3, 1.6627319e+2, -1191483.4, -1130764.1, 130969.4, -0.24715781, 0.2938944, -1026681.6, 283837.28, 0.29616648, 10.000416, 10.001642 
2.245062e+3, 1.7627248e+2, -1144042.9, -1042144.56, -42284.004, 0.045395885, 0.030174062, -1026883.75, 185644.02, 0.19952731, 9.999898, 10.001582 
2.2450651e+3, 1.8627246e+2, -1203213.3, -1180800.0, -147126.66, 0.029777506, -0.049999125, -1044453.75, 70078.195, 0.13536815, 9.999516, 9.999912 
2.2450666e+3, 1.9627318e+2, -1134699.0, -1114393.0, -112413.125, -0.18395156, 0.023521116, -1011675.3, 4854.7695, 0.09319166, 9.999381, 9.999717 
2.2450727e+3, 2.0627348e+2, -1060588.3, -1216922.1, 71967.86, -0.13746716, 0.16740276, -1032503.44, -113970.81, 0.06306426, 10.000027, 9.998037 
2.2450818e+3, 2.1627286e+2, -828994.4, -1052810.3, 104073.87, 0.07581451, 0.30191022, -788079.7, 32464.71, 0.0400799, 10.000965, 9.998031 
2.2450879e+3, 2.2627012e+2, -659255.94, -889361.25, 76685.336, 0.0774616, 0.21775493, -636041.6, 86529.32, 0.023131557, 10.001322, 9.998301 
2.2450925e+3, 2.3626643e+2, -576685.4, -767283.75, 3273.1309, -0.052940845, -0.020990524, -576629.1, 47974.434, 0.011994159, 10.001087, 9.998565 
2.245099e+3, 2.4626486e+2, -573781.75, -739280.2, 37116.38, -0.04577527, -0.012275524, -565838.8, -39221.574, 0.0054928027, 10.0005455, 9.9983425 
2.2451064e+3, 2.5626504e+2, -544790.8, -614941.75, 72758.87, 0.021487517, 0.11848394, -499094.16, -70479.195, 0.002050329, 9.999841, 9.998849 
2.2451109e+3, 2.6626423e+2, -492559.72, -563448.4, -59202.75, 0.03205852, 0.16046414, -459002.13, -128381.05, 0.0004876709, 9.999644, 9.99862 
2.2451147e+3, 2.7626267e+2, -248707.92, -376546.3, -67981.92, 0.011819608, 0.11068132, -219314.7, 13318.722, 0.000047167257, 10.000596, 9.998757 
2.2451192e+3, 2.8626117e+2, -281064.38, -436316.63, -40208.773, 0.0019922995, 0.10408126, -271268.78, -136617.28, 0.00000034188096, 10.000108, 9.9979105 
2.2451243e+3, 2.9625866e+2, -315261.78, -467050.0, -10496.092, -0.06980986, 0.095518574, -314539.4, -277855.97, 0.0000013302117, 9.999478, 9.997326 
2.2451296e+3, 3.0625927e+2, -189219.81, -212432.14, 3122.3245, -0.18233459, 0.30191877, -188807.16, -188807.16, 0.0000584347, 9.999203, 9.998905 
2.245137e+3, 3.162568e+2, -13793.378, 241790.0, 31121.781, 0.13076667, 0.1449887, 245525.05, 245525.05, 0.00025944764, 9.99882, 10.002174 
2.2550555e+3, 1.6626729e+2, -1531116.8, -1780438.9, 149378.23, -0.24171978, -0.26451164, -1461216.1, -150653.3, 0.39765337, 10.000052, 9.996837 
2.2550623e+3, 1.7626715e+2, -1457941.8, -1685497.0, -84617.27, 0.05498, 0.05235557, -1429925.8, -217343.25, 0.29298013, 9.999877, 9.996893 
2.2550654e+3, 1.862684e+2, -1205491.8, -1138140.3, -160639.97, 0.0671601, 0.27804396, -1007684.1, 106897.95, 0.21888196, 9.999324, 10.000375 
2.2550671e+3, 1.9627038e+2, -1101590.8, -1019342.1, -107580.63, -0.07802623, 0.41692275, -945293.5, 71276.766, 0.16615056, 9.99927, 10.000479 
2.2550735e+3, 2.0626988e+2, -950873.8, -960241.8, 103585.95, -0.07848026, 0.32829428, -851866.0, 66708.89, 0.12546477, 9.999926, 9.999872 
2.2550826e+3, 2.1626681e+2, -756875.1, -878609.06, 129884.44, 0.052907612, 0.04760938, -674303.06, 146297.05, 0.0914258, 10.000918, 9.999272 
2.2550896e+3, 2.2626512e+2, -802885.25, -1161359.9, 70072.58, 0.10078954, 0.11427351, -789674.7, -67057.836, 0.062582165, 10.001195, 9.996494 
2.2550954e+3, 2.3626453e+2, -684334.25, -976282.06, 161.49573, 0.1109962, 0.3570264, -684334.2, -59708.15, 0.039919913, 10.001003, 9.997178 
2.2550994e+3, 2.4626328e+2, -556483.8, -610901.7, -2307.1062, -0.0601558, 0.40681306, -556386.1, -29749.563, 0.023601582, 10.000167, 9.999396 
2.2551033e+3, 2.5626245e+2, -491452.38, -469240.9, 48814.59, -0.3097045, 0.30100486, -430284.66, -1644.8132, 0.012405956, 9.999709, 9.999901 
2.2551087e+3, 2.662591e+2, -623386.9, -785054.5, -57700.082, -0.16711532, 0.1283605, -604906.0, -274238.03, 0.005154125, 9.999439, 9.997194 
2.2551174e+3, 2.7625453e+2, -362513.72, -547966.8, -38933.086, 0.21452507, -0.101861365, -354671.9, -121964.12, 0.0013586987, 10.000328, 9.997702 
2.2551206e+3, 2.8625283e+2, -340747.84, -439984.66, -97485.625, 0.12106939, -0.096505046, -280979.63, -146253.48, 0.00015517221, 9.999629, 9.9980955 
2.2551213e+3, 2.9625154e+2, -333240.25, -436786.66, -24531.547, -0.3185496, -0.005988336, -327722.44, -290977.78, 0.0000026982873, 9.999252, 9.997608 
2.2551292e+3, 3.0625543e+2, -261432.33, -294866.66, -14902.636, -0.18265982, 0.52143794, -255754.13, -255754.13, 0.000065484004, 9.998957, 9.998437 
2.2551355e+3, 3.1624803e+2, -80698.41, 185368.53, 230025.45, 0.058786567, -0.049102128, 318059.75, 318059.75, 0.00034262595, 9.998494, 10.001947 
2.2650598e+3, 1.7626432e+2, -858682.25, -1044460.56, 133145.72, -0.37656948, -0.09202591, -789225.56, 423373.3, 0.44342524, 10.004088, 10.000293 
2.2650678e+3, 1.8626094e+2, -953815.3, -1429596.5, 211512.25, 0.13999137, -0.3647055, -873383.1, 241262.19, 0.3585124, 10.003708, 9.996268 
2.265069e+3, 1.9626315e+2, -1013316.9, -1358373.5, -45402.723, 0.07346585, 0.21803482, -1007442.75, 9196.272, 0.29413474, 10.001582, 9.99694 
2.2650747e+3, 2.0626287e+2, -800999.3, -879142.9, 21907.887, -0.012709829, 0.30740565, -795276.5, 123368.984, 0.24160613, 10.00111, 9.999923 
2.2650823e+3, 2.1626067e+2, -659156.56, -802617.25, -66458.6, -0.087309435, 0.111862026, -633101.5, 187562.3, 0.1940874, 10.001665, 9.999462 
2.2650899e+3, 2.262595e+2, -577214.75, -888514.25, -69705.06, -0.03767496, 0.13887413, -562319.4, 160352.92, 0.14888066, 10.00222, 9.997897 
2.2650965e+3, 2.3625927e+2, -574252.0, -803351.8, 43617.81, 0.10254436, 0.29064927, -566228.7, 58443.324, 0.108788945, 10.001283, 9.998246 
2.2651011e+3, 2.4625738e+2, -510984.25, -748393.3, 74376.18, 0.051889326, 0.30513176, -489608.16, 37081.887, 0.07581198, 10.001106, 9.998032 
2.2651057e+3, 2.5625467e+2, -242116.61, -509790.97, -80550.74, -0.13671425, 0.16472617, -219746.19, 208971.28, 0.048806984, 10.002093, 9.998533 
2.2651103e+3, 2.6625165e+2, -202728.58, -509293.97, -190253.8, -0.06627389, 0.06593873, -111691.625, 219051.22, 0.026684597, 10.001977, 9.997896 
2.2651179e+3, 2.762493e+2, -88236.74, -316319.06, -14340.613, 0.16922638, -0.04831666, -87338.62, 145420.19, 0.010897145, 10.001707, 9.998663 
2.2651209e+3, 2.8624728e+2, -162292.5, -342261.3, -25840.12, 0.12629451, -0.11988001, -158655.84, -23878.723, 0.002788968, 10.000762, 9.998242 
2.2651237e+3, 2.9624447e+2, 149060.0, -187662.16, 79859.13, -0.17462434, -0.195943, 167039.83, 203846.73, 0.0003034348, 10.0025, 9.997754 
2.2651328e+3, 3.062475e+2, 66118.27, -346294.16, -23556.797, 0.11773868, 0.29766747, 67459.47, 67459.47, 0.000074942734, 10.002171, 9.996518 
2.265135e+3, 3.1624046e+2, 75736.22, 114657.82, 28939.26, 0.066298485, 0.09380098, 130071.13, 130071.13, 0.00045627917, 10.000118, 10.000723 
2.2750774e+3, 2.0625277e+2, -1000201.7, -1229137.6, 60360.664, 0.09771211, 0.13954037, -985262.06, -66520.555, 0.4526298, 10.000566, 9.997671 
2.2750838e+3, 2.1625435e+2, -881914.4, -1023388.94, 31815.967, -0.1472753, 0.48239812, -875088.6, -54352.875, 0.38963944, 10.0002985, 9.998542 
2.2750913e+3, 2.2625335e+2, -775794.7, -591607.0, -889.4599, -0.13979992, 0.307491, -591602.7, 131133.81, 0.32267725, 9.998668, 10.002049 
2.2750966e+3, 2.3624973e+2, -680081.56, -514863.38, 33553.453, -0.021777978, -0.31492132, -508309.16, 116441.97, 0.25840095, 9.998889, 10.001618 
2.2751038e+3, 2.4624585e+2, -897538.75, -1412006.0, 91944.57, 0.16545449, -0.42576775, -881600.4, -354809.63, 0.20062341, 10.0005, 9.993751 
2.275114e+3, 2.5624168e+2, -522142.88, -1040771.9, -45263.504, 0.45764932, -0.31688538, -518222.13, -89374.56, 0.14660953, 10.001816, 9.994987 
2.2751155e+3, 2.6624256e+2, -184212.56, -259567.58, -208911.72, 0.21926051, 0.012376645, -9607.9375, 321230.88, 0.09444842, 10.00117, 10.000065 
2.2751167e+3, 2.762474e+2, 55802.79, 72603.05, -27112.123, -0.16439597, 0.30079898, 92586.53, 325367.44, 0.04983968, 10.001403, 10.001563 
2.2751199e+3, 2.862446e+2, -243888.58, -386218.1, -58577.63, -0.07240358, 0.026825689, -222880.89, -88077.94, 0.019500945, 10.000262, 9.998156 
2.2751302e+3, 2.9623795e+2, 86375.15, -239357.55, 123177.164, 0.2159129, -0.46609718, 127709.836, 164575.75, 0.004786881, 10.002208, 9.997519 
2.2751386e+3, 3.0623662e+2, -249330.11, -876609.56, -142514.06, 0.4705265, -0.23580062, -218470.0, -218470.0, 0.0007184054, 10.00171, 9.993062 
2.2751337e+3, 3.1623378e+2, -247105.73, -350272.78, -200857.58, -0.076676, 0.40850732, -91313.695, -91313.695, 0.000778247, 9.99941, 9.997787 
2.2851072e+3, 2.4623784e+2, -1141376.4, -684561.4, -74785.15, 0.6815957, 0.35697106, -672629.94, -145758.22, 0.45869297, 9.994685, 10.001886 
2.2851074e+3, 2.5623736e+2, 174387.69, 143861.86, 58314.887, -0.52513635, -0.09177934, 219403.98, 648284.4, 0.36361384, 10.00457, 10.004154 
2.2851093e+3, 2.6624566e+2, 65551.26, -197425.6, 113033.805, -0.6795473, 0.6016083, 107457.89, 438256.53, 0.26167566, 10.003954, 9.999433 
2.2851191e+3, 2.7624264e+2, 122723.586, -80188.71, 47292.813, -0.10457918, 0.2661168, 133204.73, 366029.72, 0.1640845, 10.002983, 9.999932 
2.285123e+3, 2.862389e+2, 30073.36, -293538.78, -77181.05, 0.120117225, 0.012601042, 47538.363, 182400.48, 0.0825175, 10.002394, 9.997802 
2.2851329e+3, 2.9623705e+2, 734885.9, 88933.47, 169664.95, 0.036626425, 0.017171554, 776738.2, 813621.75, 0.03076659, 10.006694, 9.997701 
2.2851391e+3, 3.06234e+2, 125032.99, -294484.9, -132231.95, 0.30283672, -0.13084254, 163233.92, 163233.92, 0.009048616, 10.002439, 9.996763 
2.2851317e+3, 3.1623423e+2, -820514.44, 66633.07, 264147.1, 0.08318882, 0.414914, 139326.08, 139326.08, 0.0039550546, 9.992479, 10.0039835 
2.2951196e+3, 2.7623194e+2, -721630.0, -1130239.3, -53557.387, -0.3831571, -0.4852029, -714726.75, -481805.25, 0.43463287, 9.999422, 9.9942045 
2.2951289e+3, 2.8623098e+2, -443491.3, -667609.0, -171520.77, 0.42810205, -0.19595397, -350668.34, -215721.05, 0.25416043, 9.999676, 9.996496 
2.2951318e+3, 2.9624394e+2, 567586.44, 141401.83, 270778.78, -0.74921674, 1.2468727, 699065.56, 735904.2, 0.12163638, 10.005535, 9.9986725 
2.2951342e+3, 3.0624086e+2, 334283.72, 793556.56, -516017.94, -0.46181098, 0.5625912, 1128727.5, 1128727.5, 0.05353621, 9.999712, 10.005791 
2.2951284e+3, 3.162428e+2, 33873.367, 1883665.8, -6699.676, 0.5107589, 0.16098459, 1883690.0, 1883690.0, 0.030430974, 9.992203, 10.016951 
2.305154e+3, 2.9626113e+2, 1154165.4, -602306.06, 45111.9, -0.07551415, 0.80833936, 1155323.3, 1191966.5, 0.35810888, 10.018794, 9.987263 
2.3051327e+3, 3.0623218e+2, -2096039.9, -1050806.6, 656399.6, -0.07455377, -1.8158308, -734382.9, -734382.9, 0.20931283, 9.98586, 9.9994955 
2.3051287e+3, 3.1624332e+2, 1028472.5, 69421.27, 198630.94, 0.27140418, 0.22520997, 1067983.5, 1067983.5, 0.15874733, 10.010151, 9.99587 
2.3504922e+3, 2.7590743e+2, -551118.25, -1038910.3, 576050.5, 1.0374922, 1.3023717, -169458.98, 66705.13, 0.44724444, 10.000273, 9.993827 
2.3500922e+3, 2.858835e+2, 34851.83, -349577.9, -628599.25, -1.091653, -0.1140217, 499967.6, 638357.25, 0.34786272, 10.002989, 9.99753 
2.3497461e+3, 2.958823e+2, 585821.9, 650451.94, 381700.97, 1.328715, -0.053880256, 1001203.3, 1041586.3, 0.267908, 10.003762, 10.004241 
2.3493801e+3, 3.0587792e+2, -561718.56, -1623592.0, -45390.72, 0.81431305, 1.0052379, -559781.8, -559781.8, 0.21120298, 10.002985, 9.987134 
2.3641714e+3, 1.763349e+2, -1114424.9, -1154637.3, 53627.426, -0.21581413, 0.94792026, -1077258.4, 134741.88, 0.43640533, 10.000538, 9.999851 
2.3638083e+3, 1.863248e+2, -158889.7, -732139.9, -219952.0, 0.22899802, 0.6647909, -84221.52, 1029873.4, 0.37759876, 10.010579, 9.998509 
2.3634358e+3, 1.9632225e+2, -1085333.6, -1131476.4, -34374.594, 0.10657429, 1.1373587, -1067005.8, -50886.316, 0.33353576, 9.999335, 9.9989195 
2.363064e+3, 2.0631787e+2, -2263705.5, -1469510.1, 181899.22, -0.020947829, 1.4184927, -1429831.0, -511665.06, 0.30097625, 9.989862, 10.000463 
2.362695e+3, 2.1630707e+2, -2585402.5, -1540861.5, 192475.33, 0.36732143, 0.94791, -1506523.3, -686245.44, 0.2781388, 9.98671, 10.00091 
2.3623294e+3, 2.2629403e+2, -2163612.8, -1206999.5, 222494.31, 0.797602, 0.2228998, -1157782.8, -435386.9, 0.26103717, 9.988627, 10.001583 
2.361958e+3, 2.3629083e+2, -1063601.4, -585585.2, -193677.22, 0.60443074, 0.31957263, -516964.03, 107442.65, 0.24560687, 9.995202, 10.002239 
2.3615848e+3, 2.462841e+2, -761147.6, -1195270.8, 10412.872, 0.32008788, 0.48820654, -760898.0, -234427.38, 0.23007017, 10.000096, 9.994849 
2.3612165e+3, 2.5627324e+2, 167297.27, -320002.1, 180744.11, 0.19779, 0.62687033, 227017.98, 655604.5, 0.20981891, 10.005454, 9.997808 
2.360844e+3, 2.6626936e+2, 949976.94, 1035804.06, -187453.5, 0.3492044, 0.43675607, 1185193.4, 1515813.6, 0.17452675, 10.005909, 10.008145 
2.3604812e+3, 2.7626237e+2, -625223.9, -479555.38, 73810.2, 0.6715465, -0.0733444, -448694.03, -216018.45, 0.12457976, 9.997078, 9.999139 
2.360103e+3, 2.862578e+2, 115656.61, -373952.56, -449907.34, 0.37307972, 0.4131048, 383049.16, 517766.75, 0.08129897, 10.00284, 9.996601 
2.359729e+3, 2.9626164e+2, 690761.25, 603006.7, 191919.95, -0.18788496, 1.3225793, 843755.75, 880439.0, 0.054102425, 10.003818, 10.002568 
2.3593758e+3, 3.0624226e+2, 935179.5, 732972.7, -78802.66, 0.55025417, 0.0033301956, 962262.5, 962262.5, 0.037734542, 10.005438, 10.002696 
2.3748979e+3, 1.5672234e+2, -1323137.4, -785049.5, 332262.97, -0.430184, 1.2007465, -626561.8, 777638.0, 0.40915266, 9.996463, 10.008408 
2.3745334e+3, 1.6671236e+2, -1081320.9, -1389966.4, 146408.36, 0.14901769, 0.6921921, -1022921.0, 283371.8, 0.31913948, 10.002879, 9.997573 
2.3741621e+3, 1.7670271e+2, -1809599.6, -1643394.3, 164899.53, -0.14493023, 0.60359335, -1541840.8, -333453.72, 0.25440004, 9.996012, 9.998382 
2.3737973e+3, 1.8669246e+2, -1685866.1, -1416395.9, 123989.805, 0.1411874, 0.36750263, -1368027.1, -257538.22, 0.20803122, 9.995693, 9.999412 
2.3734327e+3, 1.9668426e+2, -1035247.9, -1038439.06, 63118.844, 0.5244682, 0.2703103, -973704.44, 38867.465, 0.17323056, 9.999364, 9.999636 
2.3730613e+3, 2.0668052e+2, -487372.4, -592539.5, 21635.814, 0.31016397, 0.5380308, -483095.25, 431513.75, 0.14628343, 10.002307, 10.000937 
2.3726863e+3, 2.1667974e+2, 15717.917, -267434.47, 9879.727, -0.13272758, 1.0265284, 16062.221, 832678.94, 0.1255341, 10.005252, 10.001251 
2.372315e+3, 2.2667478e+2, 175867.13, -184832.11, 123075.19, -0.33119863, 1.1069123, 213860.1, 932517.3, 0.10829949, 10.005831, 10.000776 
2.3719463e+3, 2.3666644e+2, 289878.34, -59170.68, 46380.145, -0.31271705, 0.91058654, 295936.0, 916661.94, 0.09199208, 10.005796, 10.000914 
2.3715757e+3, 2.4665895e+2, 87608.164, -250474.92, 21054.33, -0.21289662, 0.8003984, 88914.29, 611713.3, 0.07586676, 10.004089, 9.999536 
2.3712087e+3, 2.566494e+2, -370921.4, -619983.7, 151540.42, -0.046242967, 0.73879015, -299308.47, 125590.664, 0.05915913, 10.000959, 9.997609 
2.3708354e+3, 2.666416e+2, -39148.813, 65691.375, -172849.8, 0.08036441, 0.5896472, 193894.97, 520867.2, 0.040411502, 10.000379, 10.002087 
2.3704666e+3, 2.7663404e+2, -626072.4, -583823.94, 83808.41, 0.1787354, 0.4217833, -518518.53, -289481.5, 0.021716034, 9.997763, 9.997956 
2.3700976e+3, 2.866257e+2, -252300.58, -552176.56, -72852.7, 0.35927993, 0.6027211, -235538.48, -104422.766, 0.009480061, 10.0005665, 9.996103 
2.3697346e+3, 2.9661986e+2, 432615.3, 250450.73, 329933.22, 0.6555639, 0.7530826, 683807.7, 716982.06, 0.0043082237, 10.003169, 9.999967 
2.369371e+3, 3.0660534e+2, 898202.94, 291275.25, -133073.48, 0.17447716, 0.24936028, 926098.2, 926098.2, 0.0024600276, 10.007158, 9.998335 
2.3852608e+3, 1.4710298e+2, -1300376.6, -1931755.0, 79095.914, 0.5404779, 0.7582069, -1290618.6, 207811.83, 0.38967812, 10.004411, 9.994321 
2.3848945e+3, 1.5708676e+2, -1964778.1, -2174835.8, -39858.605, 0.04049653, 0.3209621, -1957469.3, -556856.9, 0.27836215, 9.997854, 9.995198 
2.3845257e+3, 1.6707894e+2, -1504963.1, -1442799.3, -184452.23, -0.053520966, 0.42357594, -1286828.5, 15867.372, 0.19862524, 9.998438, 9.999229 
2.3841536e+3, 1.7707679e+2, -1090687.4, -1247848.8, -50967.035, -0.18361689, 0.93953305, -1075606.1, 129110.82, 0.1461588, 10.000962, 9.998712 
2.3837857e+3, 1.8707009e+2, -1097009.6, -1212164.0, 120639.2, -0.15849178, 1.0807428, -1020912.0, 85873.33, 0.11113541, 10.000175, 9.998668 
2.3834217e+3, 1.9706072e+2, -1211904.6, -1186659.9, 86993.7, 0.1428313, 0.9262977, -1111377.6, -102496.73, 0.08556882, 9.998443, 9.999036 
2.3830588e+3, 2.070524e+2, -943729.9, -767979.06, 70254.31, 0.6078253, 0.73366344, -743347.75, 167613.77, 0.065839775, 9.998582, 10.001217 
2.3826951e+3, 2.1704486e+2, -672912.7, -575673.9, 11584.419, 1.0417235, 0.5250487, -574312.9, 238719.48, 0.050802168, 9.999761, 10.00132 
2.3823227e+3, 2.2703926e+2, -534746.56, -461772.75, 38212.348, 0.7052033, 0.48161295, -445425.22, 269656.22, 0.038884565, 10.000055, 10.001264 
2.3819473e+3, 2.3703334e+2, -467922.8, -475455.8, -27167.467, 0.005801672, 0.49639952, -444261.97, 172870.53, 0.028499383, 10.000293, 10.00034 
2.381576e+3, 2.4702705e+2, -301888.28, -344407.44, -131245.38, 0.17926031, 0.47935855, -190191.78, 329001.9, 0.019239577, 10.000726, 10.000374 
2.3812117e+3, 2.5701952e+2, -508207.4, -660404.1, -13420.615, 0.8266254, 0.50172335, -507033.06, -85762.766, 0.011432521, 9.99988, 9.997854 
2.3808345e+3, 2.6701388e+2, -1212.8661, -256937.64, -268162.28, 0.5647823, 0.7465807, 168010.25, 491334.22, 0.005416997, 10.002191, 9.998854 
2.3804548e+3, 2.770076e+2, -3529.0151, -366279.06, -73549.414, -0.26923987, 0.91534173, 10816.211, 236197.44, 0.001679893, 10.002351, 9.997273 
2.3800905e+3, 2.8699288e+2, 272050.75, -219327.56, 8946.841, 0.12669252, 0.44262582, 272213.6, 399735.53, 0.00032890108, 10.003779, 9.996883 
2.379742e+3, 2.969809e+2, 97525.04, -275389.06, 280800.53, 1.6364505, 0.005973718, 248136.48, 277773.63, 0.0001013413, 10.002246, 9.996902 
2.3793672e+3, 3.0697402e+2, -60796.055, -1006602.0, 269601.16, -0.39178056, 0.88993996, 10655.639, 10655.639, 0.00013852355, 10.003899, 9.991139 
2.395625e+3, 1.374609e+2, -1955640.5, -846275.3, -358571.1, -0.64684534, 0.062716454, -740468.7, 852446.8, 0.4278187, 9.991027, 10.012922 
2.3952544e+3, 1.4746056e+2, -1209158.0, -1746863.1, -207444.52, 0.11224913, 0.38543302, -1138430.0, 356506.97, 0.29985437, 10.004335, 9.995796 
2.394886e+3, 1.5745398e+2, -1765905.6, -1889162.1, -208263.4, 0.03579537, 0.80849254, -1610343.4, -213313.5, 0.19614404, 9.998324, 9.996973 
2.3945193e+3, 1.6744886e+2, -1200712.8, -981086.7, -73039.84, 0.1228456, 0.9009798, -959014.5, 340066.56, 0.12585048, 9.998962, 10.002512 
2.394153e+3, 1.7744476e+2, -723283.25, -802441.1, 6388.848, 0.23675062, 0.9172147, -722770.94, 478340.8, 0.083471425, 10.002312, 10.001386 
2.3937832e+3, 1.874367e+2, -892352.75, -1102566.9, 2826.9365, 0.1361762, 0.8080383, -892314.75, 210874.56, 0.057587944, 10.00153, 9.998779 
2.3934126e+3, 1.9742703e+2, -1101257.5, -1106087.3, 13794.768, 0.018642517, 0.6262084, -1089667.8, -84381.75, 0.03970386, 9.999078, 9.999276 
2.3930463e+3, 2.0742062e+2, -1013233.9, -838951.6, 62556.832, 0.21766219, 0.6279637, -818822.4, 88526.586, 0.026570952, 9.998308, 10.000793 
2.3926817e+3, 2.1741536e+2, -862543.1, -697816.75, 22638.69, 0.5321915, 0.7087752, -694762.1, 114637.55, 0.017417854, 9.99861, 10.000941 
2.3923118e+3, 2.2741018e+2, -682624.6, -518371.9, 1495.6859, 0.39431232, 0.7212711, -518358.28, 193090.92, 0.011141793, 9.998972, 10.001335 
2.3919402e+3, 2.3740374e+2, -585769.56, -532186.2, -36754.063, 0.047826197, 0.6906128, -513495.4, 100015.29, 0.0065593217, 9.999504, 10.000268 
2.3915681e+3, 2.4739751e+2, -342530.84, -338308.22, -147871.95, 0.06580822, 0.67691284, -192532.5, 323036.88, 0.0032030866, 10.000376, 10.000515 
2.3912002e+3, 2.5739095e+2, -421096.56, -594334.44, -7242.229, 0.32928818, 0.75511706, -420794.34, -3163.3113, 0.0011282732, 10.000451, 9.997975 
2.3908293e+3, 2.6738113e+2, -28975.396, -499867.47, -119574.43, 0.42431074, 0.72492546, -351.5934, 319373.28, 0.00023273825, 10.003097, 9.996676 
2.3904584e+3, 2.7736935e+2, 415946.9, -171369.28, -18496.436, 0.26316792, 0.50601476, 416528.8, 638366.7, 0.000018051116, 10.005358, 9.997094 
2.3900898e+3, 2.8735843e+2, 428858.44, -105536.61, -37430.81, 0.2366618, 0.38410372, 431467.5, 555413.4, 0.000004039042, 10.004751, 9.997155 
2.389731e+3, 2.973538e+2, 79458.445, -345281.16, 176058.77, 0.9700593, 0.7816276, 142946.61, 168940.2, 0.000013542408, 10.002374, 9.99634 
2.389366e+3, 3.0734044e+2, -136593.23, -371176.0, 298347.2, 0.07629648, 0.7400825, 66690.336, 66690.336, 0.000052298794, 10.000462, 9.997147 
2.4059914e+3, 1.278453e+2, -2366979.8, -2297131.8, -211563.3, -0.18824162, 0.49329054, -2117629.3, -430479.75, 0.490425, 9.996382, 9.996941 
2.4056184e+3, 1.3783155e+2, -1867140.3, -2019303.8, -171534.34, -0.23399962, 0.080725364, -1755572.1, -166280.44, 0.36336076, 9.998993, 9.997043 
2.4052483e+3, 1.4782499e+2, -1516673.6, -1764679.9, -42334.94, -0.09835472, 0.3279299, -1509646.1, -18271.889, 0.24041095, 10.000612, 9.997313 
2.4048787e+3, 1.5782124e+2, -1309947.0, -1486087.0, 35110.12, 0.00017433685, 0.8937919, -1303206.4, 90226.41, 0.14389461, 10.000875, 9.998476 
2.4045128e+3, 1.6781679e+2, -1014776.7, -821472.25, 124568.25, 0.1626559, 0.98457414, -760457.44, 535017.3, 0.08188297, 10.000094, 10.00303 
2.4041489e+3, 1.7781161e+2, -1156259.8, -974709.8, -23480.467, 0.39901334, 0.84814286, -971722.1, 225792.77, 0.047678713, 9.998949, 10.0016575 
2.4037786e+3, 1.878032e+2, -1269627.1, -1297228.1, -169667.83, 0.3009067, 0.6821969, -1113199.5, -13603.327, 0.028905774, 9.998935, 9.99867 
2.403405e+3, 1.9779387e+2, -1137482.6, -1132592.0, -167025.58, 0.03202224, 0.53425443, -967993.8, 33695.29, 0.017015342, 9.99893, 9.999154 
2.4030364e+3, 2.0778881e+2, -871011.06, -736424.6, -23984.91, -0.0027486775, 0.6306623, -732278.0, 171459.98, 0.00915297, 9.999153, 10.001087 
2.4026696e+3, 2.1778482e+2, -773202.8, -703017.94, -7345.2974, 0.09918631, 0.81768453, -702257.44, 103518.3, 0.0045936005, 9.999445, 10.000502 
2.4023017e+3, 2.2777952e+2, -583285.3, -546216.0, -42313.18, 0.11425075, 0.8742871, -518556.1, 189274.61, 0.0022051786, 10.000008, 10.000628 
2.4019335e+3, 2.3777272e+2, -484613.34, -540399.94, -127312.85, 0.0644383, 0.84805113, -382174.0, 227727.39, 0.0009056362, 10.000458, 9.999759 
2.4015605e+3, 2.4776687e+2, -194426.23, -249123.84, -281120.13, -0.07870384, 0.8675131, 60672.273, 572627.3, 0.00023937336, 10.0013685, 10.000618 
2.4011889e+3, 2.577609e+2, -324760.1, -560332.94, -187230.02, -0.19175848, 0.9447009, -221348.14, 192658.9, 0.000025130046, 10.001163, 9.997882 
2.4008235e+3, 2.677479e+2, -198441.02, -695059.56, -132495.48, 0.20510603, 0.6604544, -165303.05, 150828.5, 0.00000030344088, 10.002418, 9.995674 
2.4004607e+3, 2.7773267e+2, -155.67839, -377840.72, -32506.38, 0.67764646, 0.13825092, 2621.639, 220900.69, 0.000000006555133, 10.00246, 9.997122 
2.4000886e+3, 2.8772703e+2, 224185.11, -180901.25, -49620.977, 0.32340437, 0.49727225, 230174.86, 350514.16, 0.00000087941476, 10.0032015, 9.997411 
2.3997177e+3, 2.9772788e+2, 35876.547, -362147.5, 175767.44, -0.05131182, 1.5173324, 102382.85, 124720.57, 0.0000071974287, 10.002001, 9.9964485 
2.3993677e+3, 3.0770835e+2, 157421.7, 509450.63, 340782.72, 0.7519889, 0.46738654, 716990.5, 716990.5, 0.00003374468, 9.999225, 10.003817 
2.4159826e+3, 1.282105e+2, -2175643.8, -1898165.5, -123044.734, 0.056803636, 0.47500408, -1851463.1, -167877.75, 0.4450997, 9.996213, 9.999863 
2.4156116e+3, 1.3820611e+2, -1612056.5, -1667920.9, -53211.113, -0.17957893, 0.75347567, -1579891.8, 5747.903, 0.31930807, 9.99971, 9.999155 
2.4152417e+3, 1.4819786e+2, -1363697.9, -1508142.9, -21296.71, -0.16735744, 0.6824586, -1360623.4, 127101.58, 0.20041417, 10.001143, 9.998821 
2.414872e+3, 1.5818837e+2, -1175791.5, -1357245.9, 49410.902, -0.11305729, 0.5371826, -1163209.1, 226611.88, 0.110025235, 10.001615, 9.999013 
2.4145053e+3, 1.6818227e+2, -1114238.3, -1145425.4, 67948.37, 0.039734375, 0.6116973, -1060117.1, 231763.03, 0.054970514, 10.000615, 10.000311 
2.4141397e+3, 1.7817686e+2, -1263516.8, -1248130.3, -69218.32, 0.24122459, 0.71945107, -1186179.0, 7752.0566, 0.027314784, 9.999181, 9.999597 
2.413771e+3, 1.8816942e+2, -1283838.5, -1369228.9, -177943.25, 0.3403061, 0.7653131, -1143540.0, -47532.156, 0.013986388, 9.999088, 9.998119 
2.4134009e+3, 1.9816123e+2, -1040282.6, -1058197.0, -162741.38, 0.35947278, 0.7822939, -886252.1, 111840.82, 0.006556314, 9.999455, 9.999416 
2.4130318e+3, 2.0815493e+2, -672047.6, -474441.63, -41122.023, 0.24335682, 0.65118563, -466225.7, 433923.0, 0.002469395, 9.999806, 10.002575 
2.4126634e+3, 2.1814911e+2, -617991.2, -570746.2, 13321.938, 0.121570185, 0.52863854, -567248.7, 234949.17, 0.00078321603, 10.000242, 10.001023 
2.4122961e+3, 2.281438e+2, -607312.8, -771110.25, -36005.613, 0.16326605, 0.6954375, -599747.56, 104508.695, 0.00023610769, 10.00075, 9.998721 
2.4119294e+3, 2.3813777e+2, -477413.63, -693072.25, -130178.11, 0.22586633, 0.9189412, -416205.97, 190119.31, 0.000047296035, 10.00118, 9.998352 
2.4115574e+3, 2.4812855e+2, -266099.13, -447688.75, -328636.28, 0.10308615, 0.75202274, -15945.992, 492468.0, 0.0000020598873, 10.001592, 9.999151 
2.411185e+3, 2.5811854e+2, -267944.84, -488784.1, -284077.4, -0.05200618, 0.5251304, -73581.805, 336925.13, 0.0, 10.001382, 9.998251 
2.4108174e+3, 2.6811114e+2, -215320.36, -407479.28, -177780.6, 0.119402036, 0.6155576, -109317.65, 203258.45, 0.0, 10.001087, 9.9982605 
2.4104519e+3, 2.7810425e+2, -159756.55, -227059.78, -40623.023, 0.3678849, 0.6939412, -140657.23, 73984.06, 0.0, 10.000346, 9.9991865 
2.410082e+3, 2.8809586e+2, 59604.527, -137989.11, -25068.096, 0.15412252, 0.63185334, 62735.234, 179458.64, 0.0000001537889, 10.0015, 9.998554 
2.4097143e+3, 2.980898e+2, 227719.81, -221531.03, 163738.28, 0.019119311, 0.8947986, 281063.47, 299846.56, 0.000003139397, 10.0030985, 9.996876 
2.4093631e+3, 3.0807418e+2, -128037.08, 174557.97, 13170.426, 1.1423918, 0.28632507, 175130.13, 175130.13, 0.000017109696, 9.998181, 10.001977 
2.4259754e+3, 1.2857604e+2, -1425610.0, -1530184.0, 6722.2876, 0.029203929, 0.3451141, -1425179.6, 254836.88, 0.4141129, 10.002439, 10.000082 
2.425603e+3, 1.3857576e+2, -1603840.0, -1643830.5, -81273.664, -0.34348315, 0.98557246, -1540138.1, 41891.105, 0.28877336, 9.999799, 9.999266 
2.425235e+3, 1.4856735e+2, -1381316.1, -1452347.0, -72753.734, -0.2320031, 0.84415877, -1335872.0, 148235.98, 0.17287979, 10.000642, 9.999501 
2.4248679e+3, 1.5855654e+2, -1117583.8, -1356963.1, -94645.13, -0.036652405, 0.49524552, -1084684.6, 301522.44, 0.08747846, 10.002111, 9.998791 
2.4244997e+3, 1.6854888e+2, -1149172.5, -1374363.5, -111046.47, 0.054550447, 0.5297276, -1103625.5, 184657.64, 0.038149297, 10.001308, 9.998345 
2.4241316e+3, 1.7854223e+2, -1262551.9, -1391794.5, -170532.17, 0.14453845, 0.6891983, -1144807.8, 45543.805, 0.01570925, 9.999847, 9.998278 
2.4237634e+3, 1.8853484e+2, -1095977.0, -1243242.8, -147366.08, 0.30124304, 0.7510775, -1004872.06, 87555.1, 0.0064830934, 10.000252, 9.998417 
2.4233952e+3, 1.985271e+2, -861076.25, -968586.56, -94523.73, 0.4706649, 0.792778, -806091.56, 188414.5, 0.0021827125, 10.000703, 9.999427 
2.4230258e+3, 2.0852052e+2, -720857.6, -505171.63, -88479.35, 0.3594791, 0.633046, -473520.16, 423044.63, 0.00044835047, 9.999529, 10.002479 
2.4226566e+3, 2.1851403e+2, -975612.6, -772239.2, -141881.14, 0.17036848, 0.43270722, -699368.06, 99252.36, 0.000068581576, 9.997958, 10.000733 
2.4222898e+3, 2.285087e+2, -898410.94, -957756.75, -69612.805, 0.18184136, 0.62171066, -852410.7, -151731.69, 0.0000096515805, 9.999015, 9.99825 
2.4219243e+3, 2.3850285e+2, -663565.44, -870788.2, -53501.64, 0.26813576, 0.9057832, -650567.44, -47820.46, 0.00000040342232, 10.000311, 9.997552 
2.4215534e+3, 2.4849164e+2, -383806.47, -610306.2, -172266.0, 0.24639302, 0.6409487, -290898.38, 213959.14, 0.0, 10.001288, 9.99816 
2.421182e+3, 2.5847933e+2, -285565.94, -465858.9, -114340.89, 0.15718424, 0.25840527, -230109.44, 176866.14, 0.0, 10.00113, 9.998549 
2.4208115e+3, 2.6847643e+2, -3951.2097, -44905.285, -64891.313, 0.0660324, 0.6354713, 43617.26, 352617.3, 0.0, 10.001433, 10.00058 
2.4204421e+3, 2.784758e+2, -50257.81, -93859.22, -29222.701, -0.015501823, 1.1653615, -35599.813, 175402.19, 0.0, 10.000743, 9.999933 
2.420075e+3, 2.8846338e+2, -26732.684, -157735.02, 8268.548, -0.043327663, 0.68692136, -26212.855, 86905.78, 0.0000000009564638, 10.000798, 9.998777 
2.4197128e+3, 2.9844958e+2, -158031.14, -358465.34, 82507.79, 0.19848877, 0.09774155, -128436.83, -113188.1, 0.0000004799063, 10.000209, 9.997361 
2.4193521e+3, 3.0844343e+2, -152475.75, -220698.75, -335798.84, 0.80061084, 0.48639274, 150939.72, 150939.72, 0.0000055147566, 9.999504, 9.998703 
2.4359667e+3, 1.2894568e+2, -1487362.8, -1748276.8, -78211.52, -0.4421384, 0.46000737, -1465714.3, 210691.63, 0.39271495, 10.002739, 9.997804 
2.4355927e+3, 1.3894038e+2, -1595272.4, -1748372.4, -119762.45, -0.69422275, 0.81589, -1529685.4, 48777.34, 0.26710206, 10.000353, 9.998269 
2.435229e+3, 1.4893347e+2, -1300575.1, -1393420.9, -26263.469, -0.2739856, 0.84605, -1293660.9, 186863.31, 0.15331793, 10.00115, 9.999724 
2.4348664e+3, 1.5892573e+2, -1070410.0, -1362306.0, -77535.73, 0.232987, 0.7974983, -1051092.8, 331499.72, 0.07196278, 10.002525, 9.998554 
2.4344961e+3, 1.6891676e+2, -1167559.3, -1502025.5, -176365.63, 0.22567268, 0.7865573, -1091745.5, 192938.64, 0.027363949, 10.001654, 9.99732 
2.4341245e+3, 1.789076e+2, -1183695.3, -1341890.3, -185159.98, 0.099751286, 0.7819136, -1061445.8, 125333.42, 0.009079448, 10.000339, 9.998371 
2.4337554e+3, 1.8889864e+2, -910342.8, -973163.7, -113904.56, 0.10789955, 0.5753957, -823597.1, 265263.88, 0.002868925, 10.000757, 10.000018 
2.4333867e+3, 1.9888994e+2, -753306.25, -904054.1, -79922.49, 0.164026, 0.3945291, -718821.94, 272117.38, 0.00059867656, 10.001372, 9.999547 
2.4330176e+3, 2.0888527e+2, -923142.0, -943958.9, -181786.47, 0.25832313, 0.633663, -751466.25, 141524.39, 0.000045539302, 9.99959, 9.999442 
2.432649e+3, 2.1888095e+2, -1091522.6, -895742.3, -193548.72, 0.30768862, 0.90847456, -776737.2, 18302.451, 0.0000022398012, 9.997444, 10.000122 
2.4322812e+3, 2.2887412e+2, -733932.1, -527754.94, -5188.847, 0.11795105, 0.7571149, -527624.44, 169480.06, 0.000000052409952, 9.998617, 10.0014 
2.4319148e+3, 2.3886675e+2, -476364.03, -478172.66, 42048.688, -0.042929918, 0.58475447, -435209.94, 163964.25, 0.0, 10.0003, 10.000239 
2.4315481e+3, 2.4886085e+2, -376078.03, -498655.8, -64935.58, 0.28193823, 0.71238124, -348075.5, 153159.84, 0.0, 10.000887, 9.999116 
2.4311809e+3, 2.5885457e+2, -252841.16, -379688.47, 24398.182, 0.60542923, 0.8533444, -248310.19, 154990.1, 0.0, 10.001041, 9.9991665 
2.4308084e+3, 2.6884636e+2, -54070.926, -179251.72, 16198.681, 0.2660303, 0.75527084, -52008.75, 253363.9, 0.0, 10.001522, 9.999632 
2.430436e+3, 2.7883834e+2, 33066.94, -178921.73, -16418.053, -0.10490494, 0.6695149, 34330.95, 241772.83, 0.0, 10.001813, 9.998839 
2.430072e+3, 2.8882834e+2, -103625.945, -314856.25, -32071.156, 0.27296728, 0.5416992, -98863.93, 10676.295, 0.0, 10.000747, 9.997735 
2.4297121e+3, 2.9881835e+2, -288719.84, -347991.13, 58266.715, 0.8918765, 0.3965788, -252985.14, -241344.67, 0.000000008678429, 9.998994, 9.998021 
2.4293423e+3, 3.0881593e+2, 159415.25, 45640.953, -409907.22, 0.47067758, 1.0115892, 516363.9, 516363.9, 0.0000009202062, 10.001092, 9.999809 
2.4463366e+3, 1.1932992e+2, -1696281.6, -1556356.3, 241914.63, 0.48522615, 1.5074915, -1374490.6, 396158.0, 0.49454084, 9.999608, 10.002938 
2.445959e+3, 1.2931311e+2, -1775844.6, -2003418.6, -252303.38, -0.6872307, 0.58114547, -1612856.5, 59950.87, 0.37753466, 10.000437, 9.997173 
2.4455884e+3, 1.3930742e+2, -1371823.4, -1621059.9, -122865.66, -0.61859167, 0.9306288, -1321439.6, 253427.58, 0.25111946, 10.00228, 9.998288 
2.4452247e+3, 1.492995e+2, -1167905.6, -1303333.9, -18630.57, -0.2052361, 0.82355744, -1165389.4, 311546.13, 0.13882844, 10.002031, 10.000013 
2.4448621e+3, 1.5929125e+2, -1287947.0, -1467164.0, -75332.71, 0.30610302, 0.70357466, -1260488.5, 118518.2, 0.060861234, 10.000914, 9.998593 
2.444491e+3, 1.6928317e+2, -1304816.5, -1572315.3, -125871.914, 0.26613677, 0.7779325, -1254901.4, 26192.123, 0.02025213, 10.000754, 9.9972315 
2.4441181e+3, 1.7927451e+2, -1159018.0, -1315442.4, -59344.67, 0.09114322, 0.83715975, -1139052.1, 44134.715, 0.0052852775, 10.000467, 9.998484 
2.4437483e+3, 1.8926507e+2, -813440.9, -854893.8, -2860.782, -0.023432368, 0.5412558, -813244.4, 272024.94, 0.0012089658, 10.001127, 10.000648 
2.4433792e+3, 1.9925591e+2, -733108.3, -923252.25, -77442.586, -0.057735443, 0.26419446, -705558.8, 281788.56, 0.00012403581, 10.001673, 9.999259 
2.4430102e+3, 2.0925164e+2, -822914.94, -1077371.6, -137908.4, 0.17638497, 0.66368, -762511.25, 126889.01, 0.000001917801, 10.0011215, 9.997759 
2.4426416e+3, 2.1924782e+2, -762821.56, -788261.3, -3327.888, 0.40027475, 1.144741, -762393.44, 29058.2, 0.000000018702426, 9.999963, 9.999633 
2.4422735e+3, 2.2923996e+2, -442630.25, -195455.44, 130461.83, 0.07437762, 0.7986942, -139337.14, 554184.25, 0.0, 9.999818, 10.003094 
2.4419062e+3, 2.3923174e+2, -486165.4, -334631.56, -9303.551, -0.25735515, 0.36423746, -334062.5, 261529.2, 0.0, 9.999601, 10.001571 
2.441542e+3, 2.4923003e+2, -385982.88, -396029.84, -148514.47, 0.26887473, 0.78966284, -242406.95, 255206.7, 0.0, 10.000363, 10.000067 
2.4411775e+3, 2.5922853e+2, -299491.6, -415855.47, -70225.25, 0.83626866, 1.3159182, -266477.47, 133157.86, 0.0, 10.000768, 9.99907 
2.4408042e+3, 2.6921552e+2, -120979.41, -352106.4, -40776.832, 0.36129546, 0.8199596, -113996.29, 187755.02, 0.0, 10.001656, 9.998384 
2.440431e+3, 2.792008e+2, -17619.076, -318192.5, -72958.266, -0.156029, 0.16873796, -845.90625, 203036.52, 0.0, 10.001963, 9.997822 
2.4400698e+3, 2.891939e+2, -43213.74, -349007.38, -55982.7, 0.6108082, 0.40254614, -33287.035, 72668.87, 0.0, 10.001463, 9.997145 
2.4397098e+3, 2.99189e+2, -185723.61, -259817.31, 112040.02, 1.3093241, 0.8146942, -104764.37, -96750.445, 0.0, 9.999526, 9.998386 
2.43933e+3, 3.0918428e+2, 279782.47, 329463.1, -11843.747, -0.2475125, 1.0312731, 332142.16, 332142.16, 0.00000009975268, 10.001034, 10.001748 
2.4563247e+3, 1.19683616e+2, -1601665.4, -1514621.1, 137429.48, -0.12259624, 0.57350856, -1413986.9, 353185.25, 0.4853975, 10.000433, 10.002755 
2.455953e+3, 1.296776e+2, -1600289.9, -1751524.9, -147292.86, -0.68600607, 0.63394195, -1510338.0, 158893.16, 0.36593348, 10.001184, 9.998652 
2.4555877e+3, 1.396763e+2, -1236506.6, -1430068.0, -77856.71, -0.28357875, 1.2826953, -1209077.1, 362172.4, 0.23856215, 10.002835, 9.999533 
2.4552213e+3, 1.4966498e+2, -1099314.0, -1212200.5, -48218.02, -0.0881437, 0.7591273, -1081522.4, 391824.6, 0.1275105, 10.0022545, 10.000593 
2.4548547e+3, 1.5965283e+2, -1166093.8, -1310293.0, -86111.15, 0.121053725, 0.18709248, -1125883.6, 249568.98, 0.052560914, 10.001351, 9.999466 
2.4544841e+3, 1.6964783e+2, -1190827.1, -1403382.8, -122652.73, 0.16318965, 0.478715, -1134813.0, 142699.66, 0.01541553, 10.001041, 9.998254 
2.4541126e+3, 1.7964324e+2, -1059523.9, -1215184.4, -24815.229, 0.12545861, 0.8592671, -1055663.6, 123906.766, 0.0031067657, 10.000909, 9.998959 
2.4537429e+3, 1.8963549e+2, -808121.1, -925746.0, 44492.43, -0.014226828, 0.77080816, -793187.5, 288453.25, 0.00048131414, 10.001463, 10.000006 
2.453374e+3, 1.9962709e+2, -658316.3, -855128.3, -55513.906, -0.11204996, 0.62015927, -643737.7, 339977.22, 0.000015932997, 10.002031, 9.999542 
2.4530046e+3, 2.0962006e+2, -652192.0, -857247.0, -124595.8, 0.1381069, 0.65408343, -593362.75, 292423.66, 0.0000000054715246, 10.001683, 9.999 
2.4526358e+3, 2.1961327e+2, -604254.2, -716969.25, 57452.055, 0.38728973, 0.748724, -580132.44, 207725.08, 0.0, 10.001056, 9.999597 
2.4522686e+3, 2.29606e+2, -558439.2, -527342.56, 132465.22, 0.22388397, 0.6497081, -409516.28, 280410.63, 0.0, 10.000196, 10.000642 
2.4519016e+3, 2.3959868e+2, -595446.6, -499464.03, -45905.24, 0.009991126, 0.5268602, -481044.1, 110951.41, 0.0, 9.999304, 10.000584 
2.451533e+3, 2.4959436e+2, -400566.66, -345816.75, -165939.47, 0.054673232, 0.6832601, -205009.38, 289030.13, 0.0, 10.000002, 10.000598 
2.451165e+3, 2.5959015e+2, -266343.2, -380421.8, -102593.164, 0.16654189, 0.89519465, -205999.2, 190083.48, 0.0, 10.00087, 9.999275 
2.4507986e+3, 2.6957962e+2, -159390.72, -434922.2, -81699.36, 0.2839838, 0.6727982, -136987.22, 161190.84, 0.0, 10.001609, 9.997862 
2.4504319e+3, 2.7956814e+2, 100688.0, -161831.92, -124420.484, 0.38167855, 0.3619806, 150286.1, 350567.75, 0.0, 10.002322, 9.998719 
2.4500625e+3, 2.8956085e+2, 222816.4, 14676.787, -97695.04, 0.36848527, 0.37072697, 261487.08, 363838.88, 0.0, 10.002244, 9.99927 
2.4496949e+3, 2.9955435e+2, 84949.98, -198473.97, 103135.43, 0.4001956, 0.49281543, 118506.945, 122925.6, 0.0, 10.001624, 9.997804 
2.449329e+3, 3.0954844e+2, 186707.6, 34345.004, 5444.07, 0.21282642, 0.8573879, 186901.86, 186901.86, 0.000000000000427524, 10.001529, 9.999429 
2.4663155e+3, 1.2004701e+2, -1520350.5, -1539794.1, 101493.79, -0.575572, 0.42664233, -1428113.9, 335489.0, 0.47722235, 10.002046, 10.001589 
2.4659526e+3, 1.3004166e+2, -1488895.4, -1576903.4, -44669.06, -0.20738038, 0.5046137, -1470196.3, 195458.23, 0.3557266, 10.001615, 9.999812 
2.4655835e+3, 1.4004023e+2, -1335563.3, -1412502.4, -69477.15, -0.25615522, 1.0476449, -1294616.4, 273055.16, 0.22774403, 10.001555, 10.000281 
2.4652146e+3, 1.5003052e+2, -1583165.3, -1387837.3, -108856.12, -0.11350933, 0.62255245, -1339255.3, 130501.43, 0.11809006, 9.99836, 10.001084 
2.464846e+3, 1.6001977e+2, -1973148.4, -1636991.4, -89107.07, 0.07260092, 0.13944282, -1614832.0, -242980.1, 0.04605504, 9.995487, 10.000025 
2.4644765e+3, 1.7001534e+2, -1557180.8, -1490678.8, -55753.465, 0.11283626, 0.41184667, -1459013.9, -185108.55, 0.012013259, 9.998147, 9.999056 
2.4641067e+3, 1.8001157e+2, -1076313.3, -1190757.4, -2742.3691, 0.11558934, 0.8026507, -1076247.5, 99706.13, 0.0018483637, 10.000669, 9.999252 
2.4637371e+3, 1.900049e+2, -1094144.0, -1093733.3, 60524.414, -0.013868406, 0.83163214, -1033413.9, 44602.207, 0.00018026956, 9.999657, 9.999713 
2.4633679e+3, 1.9999729e+2, -1207369.8, -1148563.8, -19910.553, -0.10760816, 0.7901953, -1142456.8, -162370.88, 0.0000007906511, 9.99843, 9.99926 
2.4629985e+3, 2.0998797e+2, -869432.75, -945058.25, -148198.95, 0.0928847, 0.59081995, -754298.7, 127876.516, 0.0, 10.000149, 9.999133 
2.4626297e+3, 2.1997882e+2, -615497.7, -811434.2, -76614.77, 0.32269368, 0.44141468, -589097.1, 195166.86, 0.0, 10.001386, 9.998796 
2.4622633e+3, 2.299724e+2, -721248.4, -799614.4, 41824.543, 0.33244815, 0.5595644, -703120.0, -16790.861, 0.0, 9.999974, 9.998848 
2.4618965e+3, 2.3996615e+2, -832741.44, -731429.44, -28260.727, 0.25372842, 0.6996351, -724079.4, -135686.78, 0.0, 9.998219, 9.999511 
2.4615245e+3, 2.4995896e+2, -467671.0, -366723.2, -95989.14, -0.12467924, 0.5891615, -308746.5, 181714.97, 0.0, 9.999492, 10.000705 
2.4611536e+3, 2.5995147e+2, -342274.34, -453750.25, -79047.01, -0.4016042, 0.4737161, -301290.28, 91242.16, 0.0, 10.00051, 9.9989605 
2.4607933e+3, 2.6994333e+2, -285117.97, -532764.56, -43811.19, 0.27250615, 0.5142945, -277595.78, 17012.754, 0.0, 10.000921, 9.99752 
2.4604322e+3, 2.7993557e+2, -61985.47, -169637.94, -95018.64, 0.8606185, 0.5931483, -6606.3647, 190073.38, 0.0, 10.000896, 9.999377 
2.4600534e+3, 2.899277e+2, 123463.64, 159684.55, -151495.6, -0.066251844, 0.3823055, 294148.34, 392897.06, 0.0, 10.000698, 10.001039 
2.4596804e+3, 2.9991764e+2, -371337.6, -671365.3, -16230.791, -0.54680395, 0.09237932, -370462.1, -369618.84, 0.0, 9.999564, 9.99557 
2.4593323e+3, 3.0990982e+2, -236218.47, -595261.56, 98564.49, 0.96383435, 0.65577054, -210940.25, -210940.25, 0.0, 10.000475, 9.995606 
2.4763128e+3, 1.2041631e+2, -1537874.4, -1612236.9, 22286.568, -0.46191004, 0.7765531, -1531706.6, 228270.19, 0.46784535, 10.002302, 10.000424 
2.4759546e+3, 1.304052e+2, -1446113.3, -1500632.6, -24632.414, 0.46731383, 0.2587488, -1436632.6, 225446.39, 0.34520847, 10.001685, 10.000523 
2.475576e+3, 1.4039971e+2, -1279402.9, -1329096.3, -117073.46, -0.5223931, 0.3280109, -1184568.5, 379561.75, 0.21743059, 10.0016775, 10.0009365 
2.4752048e+3, 1.5039635e+2, -1519370.3, -1305876.8, -233293.08, -0.24506533, 0.49044693, -1156068.4, 310094.97, 0.109704144, 9.998589, 10.001624 
2.4748357e+3, 1.6039221e+2, -1879777.8, -1521812.3, -70145.95, 0.14775124, 0.6160926, -1508557.5, -140353.42, 0.040704507, 9.995817, 10.000652 
2.474468e+3, 1.7038527e+2, -1467432.3, -1372427.4, 82112.12, 0.11084325, 0.58033025, -1325067.4, -54792.355, 0.00953522, 9.998418, 9.999744 
2.4740998e+3, 1.803783e+2, -972995.0, -1065560.9, 36114.26, 0.022716621, 0.58640134, -960572.3, 211773.84, 0.0011160366, 10.001039, 9.999931 
2.47373e+3, 1.9037199e+2, -1082891.1, -1049631.4, -4332.2183, -0.0012939533, 0.6124664, -1049076.3, 25328.021, 0.00006263998, 9.999549, 10.000071 
2.4733602e+3, 2.0036496e+2, -1322700.9, -1289715.0, 7582.4556, -0.012677772, 0.6287928, -1288055.5, -311585.66, 0.0000000031066179, 9.998014, 9.99848 
2.4729915e+3, 2.1035439e+2, -1026077.0, -1248429.5, -62445.11, 0.068318054, 0.48662746, -1009740.3, -131164.78, 0.0, 10.000038, 9.997122 
2.472623e+3, 2.2034413e+2, -580383.8, -832983.4, -92006.35, 0.16887158, 0.38938093, -550424.8, 230253.72, 0.0, 10.001769, 9.998468 
2.4722561e+3, 2.303389e+2, -680367.9, -702065.25, -54663.414, 0.2963256, 0.5800643, -635487.0, 47244.08, 0.0, 9.999895, 9.999571 
2.4718891e+3, 2.4033369e+2, -834109.94, -714411.7, -9933.201, 0.3695048, 0.77377015, -713592.94, -128809.93, 0.0, 9.998098, 9.999696 
2.4715197e+3, 2.5032532e+2, -537420.1, -491021.7, -21423.387, 0.15716606, 0.6064181, -482643.0, 4220.903, 0.0, 9.999376, 9.999923 
2.4711514e+3, 2.603164e+2, -309850.1, -438406.84, -43852.176, -0.0034196703, 0.41701448, -296316.38, 92632.805, 0.0, 10.00072, 9.998959 
2.4707879e+3, 2.703081e+2, -273098.25, -466262.7, -35526.168, 0.34284613, 0.40408143, -266771.63, 24254.84, 0.0, 10.000731, 9.998077 
2.4704236e+3, 2.8030086e+2, -160751.84, -275066.6, -99187.39, 0.6269011, 0.5113146, -103431.695, 89662.414, 0.0, 10.000444, 9.998872 
2.4700493e+3, 2.902935e+2, -220995.55, -215935.34, -270802.75, 0.24607, 0.5065007, 52349.113, 147515.22, 0.0, 9.999182, 9.999219 
2.4696821e+3, 3.0028346e+2, -509604.44, -678485.6, -66445.53, 0.41614223, 0.34370437, -486596.3, -486596.3, 0.0, 9.99832, 9.996141 
2.4693215e+3, 3.1027305e+2, 97245.83, -91062.61, 234502.08, 0.4836475, 0.42132318, 255789.55, 255789.55, 0.0, 10.001222, 9.99875 
2.4863079e+3, 1.2078268e+2, -1865541.8, -1738692.3, -64609.617, -0.33811665, 0.7593107, -1711579.1, 44803.598, 0.45571485, 9.998634, 10.00068 
2.4859473e+3, 1.3077152e+2, -1720181.3, -1550716.9, 21305.34, 0.40155518, 0.1424973, -1548079.4, 110401.67, 0.33319858, 9.998554, 10.001498 
2.4855684e+3, 1.4076594e+2, -1634260.4, -1488933.3, -85912.06, -0.5891334, 0.13451274, -1449076.3, 111454.07, 0.20679392, 9.998717, 10.000999 
2.4851975e+3, 1.5076357e+2, -1317216.8, -1282657.5, -259545.75, -0.24637505, 0.44913706, -1039816.8, 422743.3, 0.10179194, 10.000393, 10.000924 
2.4848281e+3, 1.6076054e+2, -1080885.1, -1180277.4, -116103.5, 0.19540581, 0.74395734, -1004289.0, 360306.53, 0.036105353, 10.001557, 10.000281 
2.4844609e+3, 1.7075221e+2, -1020782.6, -1148797.0, 27728.93, 0.080433786, 0.55723524, -1015034.44, 251640.03, 0.0076701324, 10.001463, 9.999818 
2.4840938e+3, 1.8074362e+2, -955791.44, -1097415.1, -130063.36, -0.05174747, 0.39433122, -878512.8, 290242.53, 0.000687035, 10.001349, 9.999557 
2.4837235e+3, 1.9073743e+2, -858882.8, -987751.56, -273732.13, -0.00038945006, 0.4429227, -642103.6, 428709.47, 0.000019881356, 10.001329, 9.999613 
2.4833535e+3, 2.0073059e+2, -931017.75, -1178384.6, -224485.47, 0.06758712, 0.5038759, -798398.06, 174480.23, 0.0, 10.001059, 9.997772 
2.4829851e+3, 2.1071988e+2, -859697.25, -1241641.3, -107375.89, 0.043733634, 0.390746, -831580.5, 43405.88, 0.0, 10.0015335, 9.996421 
2.4826172e+3, 2.2070962e+2, -589348.8, -852056.0, -103594.516, 0.058070023, 0.33775693, -553413.5, 223676.66, 0.0, 10.001791, 9.998323 
2.4822493e+3, 2.3070468e+2, -427892.72, -528245.4, -133881.84, 0.25156388, 0.5175388, -335093.5, 344044.94, 0.0, 10.00141, 10.000035 
2.4818818e+3, 2.4069966e+2, -523406.06, -616445.56, -61986.156, 0.4271553, 0.70460624, -492425.03, 88762.18, 0.0, 10.000479, 9.999221 
2.4815151e+3, 2.5069085e+2, -528826.75, -602361.0, -34153.457, 0.38331765, 0.5723328, -515411.4, -32137.055, 0.0, 9.999942, 9.9988785 
2.481149e+3, 2.6068145e+2, -508728.72, -563652.2, -83036.5, 0.35600105, 0.41068983, -448730.7, -63364.86, 0.0, 9.9994955, 9.9986925 
2.4807824e+3, 2.7067304e+2, -246810.77, -380973.47, -71897.62, 0.37299556, 0.32891345, -215560.16, 71883.21, 0.0, 10.000609, 9.998715 
2.4804148e+3, 2.8066534e+2, -142679.97, -384269.9, -158428.38, 0.3423733, 0.37342143, -64248.992, 125266.86, 0.0, 10.001084, 9.997817 
2.4800459e+3, 2.906583e+2, -176368.31, -412468.75, -280574.75, 0.6161655, 0.57418495, 9979.303, 101573.91, 0.0, 10.000461, 9.997237 
2.4796844e+3, 3.0065036e+2, -249742.3, -374554.78, 41623.938, 1.3885787, 0.7252597, -237134.6, -237134.6, 0.0, 9.999345, 9.99774 
2.4793099e+3, 3.1064013e+2, 342304.88, 532915.9, 251548.75, -0.21706963, 0.41356745, 706608.3, 706608.3, 0.0, 10.000676, 10.003339 
2.4962977e+3, 1.21147305e+2, -1665755.5, -1549678.4, -61027.21, -0.59740186, 0.5317089, -1523498.1, 229309.28, 0.43991756, 9.999577, 10.002423 
2.4959345e+3, 1.3114013e+2, -1574176.3, -1381587.4, 35991.75, -0.074223965, 0.17938627, -1375080.9, 279783.47, 0.31901658, 9.999098, 10.002939 
2.4955615e+3, 1.4113729e+2, -1611836.9, -1520129.9, -49793.984, -0.49876532, 0.36592412, -1498293.0, 58593.223, 0.19536594, 9.999064, 10.000532 
2.4951921e+3, 1.511309e+2, -1391361.9, -1501048.3, -195838.78, -0.14576569, 0.4346565, -1242832.0, 216126.55, 0.094030365, 10.000653, 9.99918 
2.4948232e+3, 1.6112383e+2, -1089371.0, -1298698.1, -71994.5, 0.18900552, 0.4838753, -1067000.4, 294035.06, 0.032013185, 10.001998, 9.999215 
2.4944559e+3, 1.7111523e+2, -1002843.06, -1203896.8, 24666.707, 0.036115717, 0.34558383, -999861.0, 263252.16, 0.0062260167, 10.001855, 9.999244 
2.494088e+3, 1.8110669e+2, -983511.6, -1223613.0, -137246.3, -0.11537545, 0.25454623, -921220.0, 243971.06, 0.00043419475, 10.001635, 9.998546 
2.4937186e+3, 1.9109938e+2, -886720.5, -1180888.6, -289394.28, -0.0040171486, 0.34746107, -709177.44, 358085.97, 0.0000058323185, 10.001884, 9.99803 
2.4933492e+3, 2.0109184e+2, -722939.25, -985467.25, -249568.33, 0.09919438, 0.4320718, -572219.94, 397117.7, 0.000000000090419006, 10.002069, 9.998606 
2.4929807e+3, 2.1108316e+2, -612493.2, -859897.0, -123150.75, 0.06801613, 0.31897298, -561643.5, 309777.25, 0.0, 10.002073, 9.998781 
2.4926126e+3, 2.2107445e+2, -467078.03, -671469.3, -96796.234, 0.06449698, 0.22025205, -428513.38, 344990.97, 0.0, 10.00209, 9.999407 
2.4922447e+3, 2.3106733e+2, -330390.03, -508841.1, -138838.16, 0.2465838, 0.18532246, -254578.53, 420993.47, 0.0, 10.002186, 9.999799 
2.4918765e+3, 2.410605e+2, -372766.53, -633410.94, -104157.766, 0.38656387, 0.23478761, -336257.34, 241381.58, 0.0, 10.001885, 9.998411 
2.4915081e+3, 2.510535e+2, -578773.0, -782523.6, -124099.34, 0.30991122, 0.40851858, -520089.22, -40375.26, 0.0, 10.000238, 9.9975 
2.4911408e+3, 2.6104572e+2, -539669.94, -562716.4, -97547.97, 0.30363122, 0.50023615, -452966.9, -71172.78, 0.0, 9.999168, 9.99886 
2.4907783e+3, 2.710364e+2, -140507.56, -221053.28, -33701.844, 0.5577648, 0.24422336, -128266.45, 155612.67, 0.0, 10.000836, 9.999716 
2.4904129e+3, 2.8102788e+2, 86248.88, -187021.23, -161437.23, 0.6409055, 0.11923746, 161111.14, 347068.78, 0.0, 10.002235, 9.998625 
2.4900381e+3, 2.9102296e+2, 76570.65, -227019.69, -259523.64, 0.36890373, 0.47753897, 225431.92, 313446.16, 0.0, 10.001885, 9.997844 
2.4896722e+3, 3.0101693e+2, 8172.379, -295227.34, 123188.33, 0.7560147, 0.7859179, 51890.56, 51890.56, 0.0, 10.001327, 9.997306 
2.4893084e+3, 3.1100264e+2, 83860.77, 201453.42, 95286.5, 0.26393834, 0.22967334, 254623.72, 254623.72, 0.0, 9.999834, 10.001416 
2.5062943e+3, 1.21515624e+2, -1478133.4, -1408773.0, -71300.086, -0.33072957, 0.51747805, -1364166.3, 385032.9, 0.42027465, 10.001446, 10.003091 
2.5059265e+3, 1.3150975e+2, -1505609.5, -1339053.3, -13860.776, -0.16048397, 0.28057197, -1337907.6, 313334.4, 0.30251706, 9.999768, 10.002946 
2.5055557e+3, 1.4150713e+2, -1766569.6, -1663387.6, -114927.07, -0.2784718, 0.51287293, -1589003.0, -35741.76, 0.18302314, 9.998321, 9.9998255 
2.5051862e+3, 1.5149887e+2, -1587919.0, -1700107.0, -163277.02, -0.05529809, 0.46418303, -1471369.1, -16017.223, 0.08629053, 9.999641, 9.998248 
2.5048175e+3, 1.6149005e+2, -1278597.5, -1415638.1, 6531.7393, 0.15520875, 0.40799603, -1278286.9, 79157.984, 0.028287582, 10.000762, 9.998996 
2.5044504e+3, 1.714815e+2, -1120366.8, -1245374.6, 136165.19, 0.015499505, 0.25909716, -1033045.06, 226474.0, 0.0050760456, 10.0009985, 9.999363 
2.5040826e+3, 1.8147288e+2, -1087968.0, -1325194.5, 47665.39, -0.109845646, 0.18569916, -1078749.0, 82846.34, 0.00028139996, 10.001159, 9.998081 
2.5037134e+3, 1.9146447e+2, -873979.8, -1245317.4, -896.18207, -0.04903682, 0.23779164, -873977.6, 189701.47, 0.0000014559199, 10.002306, 9.997385 
2.503344e+3, 2.0145613e+2, -639028.5, -926257.44, 28402.838, 0.03832534, 0.3121393, -636246.8, 329515.25, 0.0, 10.002583, 9.998778 
2.5029755e+3, 2.1144846e+2, -788654.7, -839013.5, 3464.274, 0.066376545, 0.23783726, -788417.5, 79417.75, 0.0, 10.000435, 9.999717 
2.502607e+3, 2.2144073e+2, -921263.25, -845583.4, -45644.83, 0.105832845, 0.16960657, -824133.25, -54225.316, 0.0, 9.9988165, 9.999793 
2.5022393e+3, 2.3143269e+2, -637911.56, -641721.94, -27252.879, 0.23415114, 0.020206785, -612497.4, 59485.49, 0.0, 10.000025, 9.999921 
2.501871e+3, 2.4142465e+2, -559007.2, -810793.56, 9787.412, 0.32224768, -0.021411506, -558627.3, 15433.367, 0.0, 10.000995, 9.997633 
2.501501e+3, 2.5141782e+2, -409283.97, -814802.25, 12426.954, 0.22982869, 0.28021514, -408903.5, 67233.266, 0.0, 10.001925, 9.996461 
2.5011337e+3, 2.614105e+2, -144050.86, -387853.63, 88269.23, 0.2358693, 0.50753766, -115448.414, 262767.16, 0.0, 10.001981, 9.998707 
2.5007737e+3, 2.714004e+2, -108399.984, -160516.4, 103650.11, 0.65995115, 0.15339912, -27582.682, 252726.06, 0.0, 10.000876, 10.000114 
2.50041e+3, 2.813915e+2, -169912.02, -244850.31, -141544.14, 0.8455654, -0.04933412, -60961.62, 121429.125, 0.0, 10.000203, 9.999218 
2.50003e+3, 2.913886e+2, 105441.625, -112723.96, -234716.92, 0.06312178, 0.4216879, 255185.2, 339608.4, 0.0, 10.001665, 9.9987335 
2.4996585e+3, 3.013828e+2, 29445.139, -405225.7, 116598.62, -0.13648412, 0.7230577, 58746.95, 58746.95, 0.0, 10.001996, 9.996235 
2.4993089e+3, 3.1136417e+2, -290375.34, -418264.5, 187519.17, 0.91789, -0.050934453, -156197.88, -156197.88, 0.0, 9.9991455, 9.997501 
2.5162938e+3, 1.2188547e+2, -1481901.6, -1384250.1, -80118.445, 0.11640626, 0.61551845, -1339252.0, 406325.7, 0.3973432, 10.001128, 10.003348 
2.515921e+3, 1.3187888e+2, -1510967.9, -1397647.5, -50047.74, -0.0011633105, 0.38259012, -1378709.0, 268918.72, 0.28406283, 10.000048, 10.002157 
2.5155503e+3, 1.4187504e+2, -1693982.3, -1657218.9, -84606.79, -0.008372196, 0.5625507, -1589020.0, -39361.242, 0.16993596, 9.998942, 9.999563 
2.51518e+3, 1.5186717e+2, -1523033.9, -1654995.5, -89617.555, 0.016555818, 0.5597545, -1477727.9, -25985.094, 0.078587286, 10.000029, 9.998367 
2.5148112e+3, 1.6185898e+2, -1157316.8, -1244630.3, 52483.504, 0.05952438, 0.5256311, -1132706.1, 221119.77, 0.024857625, 10.0011015, 10.000027 
2.5144452e+3, 1.7185104e+2, -993871.06, -1047849.7, 158361.27, 0.040894795, 0.33014086, -860215.7, 395676.03, 0.0041356636, 10.001251, 10.000615 
2.5140783e+3, 1.8184274e+2, -947024.2, -1119132.6, 104531.83, -0.03227086, 0.17313367, -897681.9, 260280.44, 0.00018434241, 10.001516, 9.99932 
2.513708e+3, 1.9183403e+2, -736611.06, -1045292.3, 99492.9, -0.16372342, 0.08785244, -707321.94, 352721.72, 0.00000026313862, 10.002659, 9.99859 
2.513338e+3, 2.0182532e+2, -650512.6, -1021919.2, 44212.54, -0.19554736, 0.07894259, -645322.06, 316806.6, 0.0, 10.002891, 9.997966 
2.5129688e+3, 2.118172e+2, -979172.3, -1162443.9, -58909.594, 0.048560433, 0.1605911, -961870.25, -97653.55, 0.0, 10.000116, 9.99766 
2.5125998e+3, 2.2181006e+2, -981581.25, -823289.7, -10610.836, 0.23724261, 0.27681172, -822581.56, -56289.992, 0.0, 9.998144, 10.000278 
2.512232e+3, 2.3180577e+2, -628205.1, -480932.25, 70122.69, 0.2615005, 0.3851477, -452885.28, 215442.78, 0.0, 9.999391, 10.00134 
2.5118646e+3, 2.4179946e+2, -504117.4, -712823.94, 152171.55, 0.28522137, 0.41284293, -423955.66, 146429.84, 0.0, 10.001046, 9.998277 
2.5114983e+3, 2.5178757e+2, -203899.55, -686649.3, 181221.53, 0.32091606, 0.18949737, -143441.56, 329061.66, 0.0, 10.003185, 9.996746 
2.511132e+3, 2.6177678e+2, 57129.473, -439386.6, 151768.27, 0.3704352, 0.1034731, 99845.07, 474457.5, 0.0, 10.003986, 9.997395 
2.5107664e+3, 2.717692e+2, -295349.66, -519995.53, 47217.04, 0.50392425, 0.24101803, -285828.88, -9136.443, 0.0, 10.000736, 9.997729 
2.5103995e+3, 2.8176165e+2, -370679.7, -355371.56, -89100.14, 0.5399465, 0.34237713, -273597.3, -94828.13, 0.0, 9.998865, 9.999107 
2.510026e+3, 2.917551e+2, 183261.25, 5871.95, -115131.38, 0.18315999, 0.38438174, 239900.63, 320730.78, 0.0, 10.001809, 9.999491 
2.5096577e+3, 3.0174795e+2, 267721.16, -173795.45, 81332.44, 0.18186864, 0.46736872, 282226.97, 282226.97, 0.0, 10.003105, 9.997298 
2.509302e+3, 3.1173605e+2, -285985.4, -355398.78, 173696.44, 1.0250281, 0.27928206, -143562.17, -143562.17, 0.0, 9.998881, 9.99808 
2.5262865e+3, 1.22256145e+2, -1887228.1, -1606671.8, 56790.566, 0.1777344, 0.51380324, -1595612.1, 146321.95, 0.3720946, 9.997608, 10.002426 
2.525915e+3, 1.3224803e+2, -1473828.6, -1524776.3, 38369.22, -0.016855998, 0.28519678, -1453246.9, 190755.95, 0.26429734, 10.0012245, 10.00031 
2.5255463e+3, 1.4224151e+2, -1176496.3, -1462812.4, -16097.677, 0.13391602, 0.341027, -1175594.0, 370468.06, 0.15642525, 10.003323, 9.998871 
2.5251752e+3, 1.5223424e+2, -1120969.1, -1460270.5, -30770.916, 0.04420494, 0.41542074, -1118201.1, 329937.2, 0.071005836, 10.003069, 9.998216 
2.5248057e+3, 1.622267e+2, -1047093.0, -1260586.3, 40093.734, 0.017849596, 0.48042116, -1039811.8, 310403.3, 0.021693112, 10.002216, 9.999367 
2.5244397e+3, 1.7221901e+2, -1159449.3, -1203467.8, -21510.498, 0.053193375, 0.37277263, -1150683.4, 101601.65, 0.00335279, 10.000489, 9.999895 
2.5240728e+3, 1.8221112e+2, -1223145.0, -1205368.5, -130108.87, 0.03494205, 0.26502106, -1083844.6, 70510.445, 0.00011963712, 9.999444, 9.999725 
2.523703e+3, 1.9220272e+2, -956592.5, -1047178.9, -113802.84, -0.16858248, 0.093287915, -879400.75, 177027.83, 0.00000002568285, 10.000711, 9.999513 
2.5233328e+3, 2.0219421e+2, -846603.6, -1162557.5, -220889.2, -0.25542265, 0.030698469, -733013.3, 225495.17, 0.0, 10.001734, 9.99756 
2.522962e+3, 2.1218592e+2, -772361.8, -1168126.6, -215578.02, -0.0024954954, 0.1447074, -677615.94, 182985.22, 0.0, 10.001972, 9.996729 
2.5225928e+3, 2.2217894e+2, -447263.56, -595676.94, -25627.732, 0.22376508, 0.34098604, -442962.84, 319714.13, 0.0, 10.001945, 10.000013 
2.522226e+3, 2.3217608e+2, -161833.5, -241510.58, -27264.422, 0.2358736, 0.56699514, -153397.22, 511301.78, 0.0, 10.002538, 10.001468 
2.5218597e+3, 2.4217047e+2, -239034.84, -565464.94, -26726.404, 0.25488442, 0.6327001, -236861.1, 329886.9, 0.0, 10.002811, 9.998435 
2.5214952e+3, 2.5215605e+2, -262557.06, -666747.9, 35624.37, 0.351791, 0.086072594, -259441.23, 209443.69, 0.0, 10.002591, 9.997164 
2.5211293e+3, 2.621436e+2, -267631.0, -729619.6, -57267.316, 0.41760442, -0.1651021, -260638.08, 110369.29, 0.0, 10.002339, 9.996195 
2.520759e+3, 2.7213857e+2, -267099.75, -713389.44, -72333.53, 0.32678074, 0.37924525, -255668.89, 17402.438, 0.0, 10.001841, 9.995856 
2.5203893e+3, 2.8213188e+2, -66815.53, -257237.31, -14548.227, 0.24782662, 0.6992449, -65710.45, 109435.37, 0.0, 10.001178, 9.998664 
2.5200224e+3, 2.9212078e+2, 124968.27, 5390.728, -36046.945, 0.302482, 0.27200612, 134994.11, 212238.97, 0.0, 10.001308, 9.999723 
2.5196582e+3, 3.0211294e+2, 24261.344, -187606.34, -74549.0, 0.6304929, 0.23384021, 47863.332, 47863.332, 0.0, 10.001, 9.99822 
2.519289e+3, 3.121067e+2, -200820.03, -172289.56, -1925.5155, 0.45593894, 0.46425638, -172160.2, -172160.2, 0.0, 9.998931, 9.999286 
2.5362757e+3, 1.2262793e+2, -1864639.8, -1739971.8, 166339.67, -0.084022515, 0.36050162, -1624670.1, 113601.48, 0.34545884, 9.998666, 10.000721 
2.5359082e+3, 1.3261664e+2, -1555650.5, -1800569.3, 159101.23, -0.16313162, 0.04827377, -1477337.6, 163038.6, 0.24384478, 10.00163, 9.998005 
2.5355428e+3, 1.4260629e+2, -1198393.5, -1539732.6, 8080.665, 0.12242135, -0.09952432, -1198202.4, 344272.44, 0.14280652, 10.003438, 9.998173 
2.5351715e+3, 1.5259969e+2, -1086289.9, -1449723.3, -30808.477, 0.0333416, 0.066991, -1083696.8, 360846.28, 0.06363834, 10.003337, 9.998154 
2.534801e+3, 1.625926e+2, -1152197.9, -1566156.3, 145.54364, -0.019938128, 0.27064747, -1152197.9, 194421.1, 0.0187796, 10.002565, 9.997084 
2.5344333e+3, 1.7258443e+2, -1352079.3, -1641437.4, -96142.75, 0.027706934, 0.41887388, -1323047.5, -74336.42, 0.0026956536, 10.0006275, 9.996825 
2.5340658e+3, 1.8257649e+2, -1214549.9, -1211799.3, -134727.81, 0.058911365, 0.5011493, -1078439.8, 72353.85, 0.00007576087, 9.999552, 9.999616 
2.5336993e+3, 1.9256915e+2, -904649.6, -938945.94, -101491.13, 0.04552657, 0.37824923, -818868.1, 233987.0, 0.00000000011876218, 10.000702, 10.000257 
2.5333303e+3, 2.0256157e+2, -699129.0, -886949.3, -223574.98, -0.013589495, 0.29405308, -550542.0, 404379.53, 0.0, 10.001846, 9.999392 
2.532957e+3, 2.1255381e+2, -501196.47, -793290.94, -198300.16, -0.115594305, 0.25764352, -400965.9, 456031.03, 0.0, 10.002761, 9.998918 
2.532586e+3, 2.225455e+2, -325407.66, -714263.4, 4856.0894, -0.104530185, 0.23398915, -325347.03, 433730.88, 0.0, 10.003519, 9.998441 
2.532222e+3, 2.3253639e+2, -171098.45, -600306.44, -64353.695, 0.14197738, 0.1385308, -161657.2, 499506.34, 0.0, 10.003964, 9.998332 
2.531857e+3, 2.4252795e+2, -90188.3, -493277.3, -154538.39, 0.28743744, 0.116647825, -37759.76, 525484.5, 0.0, 10.003793, 9.998469 
2.5314894e+3, 2.5252014e+2, -223493.81, -523743.66, -115122.17, 0.21838194, 0.13205308, -184434.69, 280888.34, 0.0, 10.0023, 9.998297 
2.5311226e+3, 2.625124e+2, -213834.63, -459503.13, -116338.79, 0.21905307, 0.1904509, -167485.64, 199915.92, 0.0, 10.001645, 9.998384 
2.5307557e+3, 2.7250612e+2, 74923.914, -290432.47, -32670.818, 0.40589198, 0.37689617, 77822.41, 347290.25, 0.0, 10.003038, 9.998199 
2.5303876e+3, 2.8249797e+2, 157207.45, -277905.7, -5832.3604, 0.4820374, 0.45700637, 157285.61, 328835.5, 0.0, 10.003285, 9.997488 
2.530017e+3, 2.9248545e+2, -142722.92, -409797.56, -132779.7, 0.3382746, 0.13100046, -87944.91, -14277.263, 0.0, 10.000715, 9.997149 
2.52965e+3, 3.0247572e+2, -300918.84, -412548.28, -171028.77, 0.5151785, 0.08694853, -176827.69, -176827.69, 0.0, 9.99907, 9.9976015 
2.5292823e+3, 3.1247127e+2, -45741.234, -74413.0, -150272.95, 0.48438185, 0.50958496, 90878.09, 90878.09, 0.0, 9.99985, 9.999556 
2.5462696e+3, 1.2299528e+2, -1554345.1, -1655323.6, -9934.695, -0.0830008, 0.18217698, -1553377.0, 181285.66, 0.3181562, 10.00176, 9.999769 
2.5459027e+3, 1.3298565e+2, -1492872.0, -1818672.5, 67232.18, -0.26866254, 0.05954947, -1479543.3, 157211.64, 0.22319707, 10.002358, 9.997463 
2.5455374e+3, 1.4297506e+2, -1332273.9, -1659592.4, -60229.574, -0.055913165, -0.07272237, -1321543.0, 217315.36, 0.12934339, 10.002506, 9.997824 
2.5451666e+3, 1.5296769e+2, -1265771.4, -1586434.3, -123324.13, -0.07858169, 0.037199248, -1223828.1, 217104.77, 0.05657354, 10.0021715, 9.997822 
2.5447965e+3, 1.6295995e+2, -1307057.1, -1737900.4, -52524.785, -0.05288214, 0.22375923, -1300746.1, 42269.746, 0.016116831, 10.001905, 9.996221 
2.544428e+3, 1.7295122e+2, -1164652.5, -1687236.0, -1526.4095, 0.041415613, 0.4132674, -1164648.0, 80470.73, 0.0021455006, 10.002507, 9.995603 
2.5440606e+3, 1.8294296e+2, -846268.0, -1059086.6, 76440.68, 0.11469824, 0.5645244, -821657.75, 325551.0, 0.000046550977, 10.0022, 9.999391 
2.543694e+3, 1.9293593e+2, -907176.06, -933409.75, 64224.793, 0.13240585, 0.4790733, -854742.3, 194525.78, 0.0, 10.000672, 10.000305 
2.5433257e+3, 2.0292872e+2, -911872.25, -914659.6, -112938.43, 0.089222364, 0.41689274, -800318.94, 151010.94, 0.0, 10.000093, 10.000043 
2.542952e+3, 2.129212e+2, -636227.9, -751551.8, -189721.66, -0.1427794, 0.30821735, -495599.13, 357798.34, 0.0, 10.001413, 9.999848 
2.5425813e+3, 2.2291185e+2, -598456.4, -993907.44, -39006.414, -0.21694432, 0.1746352, -594645.56, 160838.7, 0.0, 10.002332, 9.997085 
2.5422183e+3, 2.328988e+2, -527690.9, -1001742.3, 24481.74, 0.077805564, -0.13306886, -526429.9, 131180.61, 0.0, 10.002553, 9.9962435 
2.5418532e+3, 2.4288869e+2, -324194.03, -612094.9, -52657.156, 0.25664666, -0.17525336, -314865.3, 244845.5, 0.0, 10.002225, 9.998409 
2.5414833e+3, 2.5288546e+2, -395852.47, -527059.0, -68123.54, 0.07564774, 0.24074341, -366879.8, 94870.086, 0.0, 10.000786, 9.998997 
2.5411156e+3, 2.6288086e+2, -328165.56, -301907.72, -51339.42, 0.050938718, 0.5027383, -262045.1, 101753.586, 0.0, 9.9999485, 10.000291 
2.5407523e+3, 2.7287313e+2, -97712.47, -114792.85, -861.8747, 0.46467716, 0.31138217, -97669.09, 168200.4, 0.0, 10.0007515, 10.000507 
2.5403857e+3, 2.8286412e+2, -191654.5, -599560.0, -87788.09, 0.67388105, 0.21320474, -173563.39, -5609.3706, 0.0, 10.001561, 9.996116 
2.540011e+3, 2.9285154e+2, -80581.92, -644605.56, -109267.78, 0.3088354, 0.09907009, -60153.477, 9923.121, 0.0, 10.0023, 9.994774 
2.539641e+3, 3.0283856e+2, 29825.85, -361915.75, -20225.805, 0.2826619, -0.06176203, 30867.348, 30867.348, 0.0, 10.001798, 9.996652 
2.5392762e+3, 3.1283337e+2, 28224.373, 78336.16, -13296.11, 0.5445823, 0.3319906, 81645.45, 81645.45, 0.0, 9.999836, 10.0006275 
2.5562665e+3, 1.2336e+2, -1518309.0, -1662446.5, -14017.266, 0.056674883, 0.019802488, -1516958.5, 214127.0, 0.29081702, 10.002158, 9.999468 
2.5558972e+3, 1.333549e+2, -1407611.8, -1670211.1, 91295.96, -0.39744806, 0.28765652, -1378991.0, 254147.16, 0.20276809, 10.00258, 9.99841 
2.5555298e+3, 1.433467e+2, -1298472.1, -1635316.9, -74789.4, -0.4377763, 0.33327863, -1282613.3, 252608.33, 0.11625642, 10.00271, 9.997887 
2.55516e+3, 1.5333763e+2, -1251715.8, -1598540.6, -123146.95, -0.2866579, 0.29490754, -1212438.3, 224875.39, 0.04988728, 10.00234, 9.997648 
2.5547913e+3, 1.6332845e+2, -1181647.4, -1560911.0, -8070.1704, -0.11082653, 0.3124456, -1181475.8, 157932.27, 0.013707004, 10.0022545, 9.997279 
2.5544253e+3, 1.733191e+2, -990732.25, -1445684.5, 57288.555, 0.11516498, 0.3185272, -983629.25, 257878.4, 0.0016894786, 10.002996, 9.997036 
2.5540575e+3, 1.8331032e+2, -768625.0, -1037510.3, 63753.875, 0.18917915, 0.33493796, -754274.56, 389322.3, 0.000027889511, 10.0028, 9.999243 
2.5536874e+3, 1.933028e+2, -922980.1, -1022371.1, 34063.035, 0.010568085, 0.2796926, -912426.75, 133236.88, 0.0, 10.000911, 9.999579 
2.5533175e+3, 2.0329508e+2, -1003886.0, -1106731.0, -57621.703, -0.037829593, 0.27120274, -978078.06, -30343.605, 0.0, 10.000085, 9.998731 
2.5529492e+3, 2.1328712e+2, -745599.7, -967228.3, -132303.8, 0.13107722, 0.27466097, -683833.25, 165979.6, 0.0, 10.001335, 9.998416 
2.552581e+3, 2.2327879e+2, -537460.6, -841672.7, -14832.95, 0.19332296, 0.28516704, -536739.1, 215155.05, 0.0, 10.0022135, 9.998187 
2.552214e+3, 2.3326987e+2, -450146.38, -784179.9, 76597.7, 0.11920458, 0.24633677, -433419.28, 220561.78, 0.0, 10.002307, 9.997857 
2.5518468e+3, 2.4326107e+2, -385361.6, -650989.4, -15572.017, 0.08751304, 0.24803239, -384451.8, 171616.98, 0.0, 10.001834, 9.998325 
2.551477e+3, 2.5325346e+2, -536307.06, -671646.06, -70162.36, 0.081621334, 0.3021671, -506498.78, -48349.785, 0.0, 10.0001335, 9.998321 
2.551109e+3, 2.6324657e+2, -446116.56, -352918.94, -13893.544, 0.13851292, 0.37572765, -350891.8, 9326.909, 0.0, 9.999089, 10.000359 
2.550744e+3, 2.7324054e+2, -310362.53, -208075.17, -7943.292, 0.3783911, 0.35793895, -207462.0, 54810.54, 0.0, 9.999231, 10.000606 
2.5503775e+3, 2.8323323e+2, -173215.89, -360939.88, -157.73747, 0.4653532, 0.3403699, -173215.77, -8877.074, 0.0, 10.000669, 9.998189 
2.5500068e+3, 2.932229e+2, 400136.6, -133178.47, 108651.09, 0.20179996, 0.2114376, 421422.28, 487856.25, 0.0, 10.004367, 9.997304 
2.5496393e+3, 3.0321094e+2, 547850.56, -99865.54, 73621.54, 0.40149316, 0.010895561, 556113.25, 556113.25, 0.0, 10.005308, 9.996753 
2.549268e+3, 3.132019e+2, -105591.375, -219807.84, -5762.869, 0.42291442, 0.107519515, -105301.34, -105301.34, 0.0, 9.999932, 9.998518 
2.5662604e+3, 1.2372569e+2, -1516544.4, -1705080.0, -62871.453, -0.13759269, 0.085930236, -1497501.9, 230000.06, 0.26402995, 10.002358, 9.998955 
2.5658935e+3, 1.3372013e+2, -1625464.3, -1826448.0, -75417.016, -0.28908107, 0.31647396, -1600312.4, 29251.846, 0.18292515, 10.000871, 9.998136 
2.5655243e+3, 1.4371303e+2, -1628365.3, -1734200.8, -262645.63, -0.41775277, 0.44201693, -1413359.5, 118279.51, 0.1037245, 9.999976, 9.998538 
2.5651538e+3, 1.5370457e+2, -1462529.6, -1639185.4, -246801.05, -0.34619293, 0.36555222, -1288726.6, 144996.14, 0.043632858, 10.00058, 9.998212 
2.5647858e+3, 1.6369577e+2, -1308223.3, -1539004.8, -71992.664, -0.140198, 0.3509586, -1287606.8, 48203.965, 0.011545959, 10.00106, 9.997982 
2.5644216e+3, 1.7368671e+2, -1171869.4, -1449898.8, -47188.324, 0.19544904, 0.2872088, -1164078.6, 73823.3, 0.0013158798, 10.001436, 9.997741 
2.5640538e+3, 1.8367788e+2, -985199.75, -1209960.4, -122718.09, 0.28122854, 0.2705474, -931179.75, 208809.11, 0.000016496271, 10.001633, 9.9986105 
2.563681e+3, 1.936699e+2, -951701.5, -1152758.3, -166141.02, -0.043232586, 0.23610963, -858042.4, 184021.42, 0.0, 10.001229, 9.998532 
2.563311e+3, 2.0366164e+2, -907144.4, -1143689.9, -157072.39, -0.09712873, 0.25445572, -828795.2, 115347.555, 0.0, 10.001125, 9.997975 
2.5629455e+3, 2.1365298e+2, -759442.7, -1056202.3, -129387.88, 0.28251356, 0.24387036, -710952.5, 135276.1, 0.0, 10.001616, 9.997666 
2.5625786e+3, 2.2364557e+2, -560572.56, -753020.56, -16467.623, 0.43020064, 0.3509845, -559173.6, 189129.11, 0.0, 10.001636, 9.999072 
2.5622094e+3, 2.336401e+2, -604008.06, -717549.0, 29865.75, 0.115671724, 0.5224546, -596631.44, 53726.07, 0.0, 10.000651, 9.999109 
2.56184e+3, 2.4363248e+2, -604547.5, -758454.6, -91935.234, -0.03798485, 0.5646848, -561609.7, -9175.848, 0.0, 10.00036, 9.998293 
2.5614706e+3, 2.5362158e+2, -449815.16, -666521.44, -71932.055, 0.080988646, 0.3055304, -428112.06, 26431.31, 0.0, 10.000898, 9.997986 
2.5611025e+3, 2.636131e+2, -242460.14, -297905.7, 42741.03, 0.21166573, 0.2587369, -219238.34, 137388.83, 0.0, 10.000691, 9.99996 
2.560736e+3, 2.7360857e+2, -257130.31, -231268.06, 36253.28, 0.28544867, 0.4284057, -205708.73, 52959.383, 0.0, 9.999819, 10.000165 
2.560369e+3, 2.836022e+2, -203362.81, -122043.29, 90523.875, 0.22780903, 0.44818178, -63467.03, 97256.62, 0.0, 9.999377, 10.000452 
2.560002e+3, 2.9359376e+2, -26691.525, -18781.031, 178983.38, 0.036921322, 0.20830353, 156290.8, 219086.31, 0.0, 10.00006, 10.000156 
2.5596386e+3, 3.0358532e+2, -93278.664, -436446.6, -127560.414, 0.58880186, 0.20469916, -51057.305, -51057.305, 0.0, 10.001033, 9.996496 
2.5592622e+3, 3.1357354e+2, -40679.453, -189494.92, -165296.55, 0.50022817, 0.080554076, 66184.6, 66184.6, 0.0, 10.0004225, 9.998478 
2.5762552e+3, 1.2408981e+2, -1488414.6, -1756938.0, -44282.65, -0.28554007, 0.12091518, -1481300.5, 242635.64, 0.23823424, 10.00279, 9.998352 
2.575891e+3, 1.3408175e+2, -1641840.5, -1906012.5, -102366.1, 0.0044283406, 0.17834179, -1606817.1, 19210.748, 0.16394804, 10.001034, 9.997498 
2.575521e+3, 1.4407468e+2, -1498194.1, -1520384.8, -214742.98, -0.12387428, 0.2826968, -1294260.0, 233843.25, 0.09188185, 10.000214, 9.999938 
2.5751483e+3, 1.5406846e+2, -1301043.9, -1376981.3, -193637.8, -0.28568435, 0.28169325, -1141687.4, 288473.5, 0.03784501, 10.000875, 9.999899 
2.57478e+3, 1.6406143e+2, -1242264.5, -1459809.5, -35971.36, -0.17018433, 0.33784163, -1236470.9, 95757.71, 0.009625426, 10.001324, 9.998388 
2.5744176e+3, 1.7405353e+2, -1117472.1, -1392478.6, -22483.313, 0.27832073, 0.37855548, -1115646.1, 118661.46, 0.0010124295, 10.001671, 9.9980135 
2.57405e+3, 1.840454e+2, -1016876.0, -1312534.5, -134697.66, 0.39305457, 0.45102486, -964712.9, 171677.23, 0.000009793076, 10.001787, 9.997829 
2.5736767e+3, 1.9403717e+2, -968016.25, -1267315.4, -179157.84, 0.06364233, 0.50027883, -884229.5, 154245.44, 0.0, 10.001552, 9.997596 
2.5733063e+3, 2.0402817e+2, -774623.9, -982991.06, -144966.83, -0.049128886, 0.4539736, -700286.9, 240274.44, 0.0, 10.001578, 9.998872 
2.5729394e+3, 2.1401832e+2, -620715.6, -873814.3, -102569.3, 0.16994134, 0.22733535, -584368.7, 258280.02, 0.0, 10.0020275, 9.998736 
2.5725716e+3, 2.2401032e+2, -517327.6, -678086.75, -41413.527, 0.2422803, 0.19435234, -507286.2, 237437.4, 0.0, 10.001692, 9.999545 
2.5722027e+3, 2.3400496e+2, -644981.44, -710016.5, -29285.703, 0.0863773, 0.3587703, -633737.75, 13042.002, 0.0, 10.000229, 9.999364 
2.571834e+3, 2.4399869e+2, -520535.1, -512069.3, -50643.2, 0.02347064, 0.43907624, -465482.44, 83359.65, 0.0, 10.000036, 10.000142 
2.5714657e+3, 2.5399113e+2, -194140.2, -332842.47, 16726.342, 0.12559378, 0.33418843, -192151.66, 258761.3, 0.0, 10.001716, 9.999899 
2.571098e+3, 2.639835e+2, -89898.016, -287214.63, 60547.785, 0.24355982, 0.2950398, -72800.13, 280185.78, 0.0, 10.002013, 9.999392 
2.57073e+3, 2.7397597e+2, -265584.84, -351098.06, 21731.604, 0.35563502, 0.2842348, -260379.06, -5320.8076, 0.0, 10.000258, 9.999134 
2.5703618e+3, 2.8396824e+2, -330790.8, -136210.83, 51471.453, 0.30967948, 0.20469463, -123434.23, 33694.86, 0.0, 9.998282, 10.000877 
2.569993e+3, 2.9396105e+2, -605213.9, -242870.44, 72279.12, 0.13894837, 0.04453254, -228984.56, -169795.58, 0.0, 9.995831, 10.000658 
2.56963e+3, 3.0395526e+2, -726021.8, -651095.9, -78478.414, 0.6650822, 0.23607342, -601597.1, -601597.1, 0.0, 9.996271, 9.997328 
2.5692558e+3, 3.139429e+2, 301490.34, 287327.9, -173323.5, 0.4671047, -0.040654115, 467877.22, 467877.22, 0.0, 10.001388, 10.001306 
2.5862527e+3, 1.24456435e+2, -1472730.3, -1729773.3, -15740.268, -0.17539552, 0.14443173, -1471770.0, 248581.28, 0.21372877, 10.002763, 9.998534 
2.585886e+3, 1.3444965e+2, -1588997.8, -1835055.6, 20468.684, 0.07482842, 0.26892358, -1587306.6, 35120.64, 0.1460315, 10.001201, 9.997912 
2.5855154e+3, 1.4444211e+2, -1396656.0, -1510807.3, 12615.496, -0.06486132, 0.34538978, -1395278.5, 129227.414, 0.0808275, 10.001145, 9.999477 
2.585144e+3, 1.5443462e+2, -997914.44, -1285051.3, -85597.14, -0.26457876, 0.27529714, -974333.94, 452242.94, 0.032553293, 10.003294, 9.999352 
2.584776e+3, 1.6442727e+2, -879104.4, -1250968.6, -60116.1, -0.17765741, 0.3118764, -869627.44, 459018.53, 0.007938516, 10.003718, 9.998654 
2.5844124e+3, 1.7441997e+2, -1057395.1, -1335083.4, -36046.848, 0.25021723, 0.36847124, -1052792.3, 177922.06, 0.00076767127, 10.001984, 9.99825 
2.584045e+3, 1.844122e+2, -1087595.6, -1396016.8, -93139.195, 0.3903344, 0.48804176, -1061651.3, 71141.89, 0.000005913737, 10.001531, 9.997374 
2.5836727e+3, 1.944038e+2, -931008.0, -1306659.3, -91359.68, 0.13802797, 0.5622144, -909967.5, 124917.12, 0.0, 10.00209, 9.997053 
2.583302e+3, 2.043946e+2, -653632.2, -870159.0, -48110.324, 0.029050166, 0.513168, -643423.8, 293549.63, 0.0, 10.002212, 9.999328 
2.582934e+3, 2.1438447e+2, -620273.5, -811010.3, -48316.547, 0.08647977, 0.19708048, -608732.5, 230325.7, 0.0, 10.001795, 9.999267 
2.5825655e+3, 2.24376e+2, -584419.25, -724496.94, -71808.01, 0.100948974, 0.097241394, -554149.44, 186985.9, 0.0, 10.001313, 9.999413 
2.582196e+3, 2.3436987e+2, -622541.25, -715731.2, -88399.22, 0.050153796, 0.1947202, -569208.7, 73991.86, 0.0, 10.000483, 9.999202 
2.581828e+3, 2.4436441e+2, -471418.75, -348260.8, -87261.58, 0.076698445, 0.3007989, -303038.3, 242215.27, 0.0, 9.9997835, 10.001389 
2.5814605e+3, 2.5435975e+2, -460444.56, -307058.3, -73326.87, 0.17827536, 0.33126032, -277644.6, 169646.6, 0.0, 9.9992485, 10.00126 
2.5810924e+3, 2.6435268e+2, -513501.34, -571583.25, -126432.82, 0.27718177, 0.3003301, -412817.06, -63460.53, 0.0, 9.999461, 9.998665 
2.5807238e+3, 2.7434266e+2, -355644.3, -492136.34, -111004.9, 0.36384302, 0.096370764, -293584.53, -42128.313, 0.0, 10.000076, 9.998242 
2.5803545e+3, 2.8433424e+2, -130553.125, -41553.387, -98772.375, 0.37886944, -0.013784237, 22280.58, 175815.45, 0.0, 9.99967, 10.000864 
2.5799847e+3, 2.9432824e+2, -294761.2, -89757.81, -86057.48, 0.2894354, -0.068766624, -58421.965, -2838.4312, 0.0, 9.997952, 10.000692 
2.5796193e+3, 3.043233e+2, -460201.84, -398055.8, -40024.156, 0.58472586, 0.14749955, -378458.66, -378458.66, 0.0, 9.997577, 9.998428 
2.579252e+3, 3.1431463e+2, 88079.266, 185369.55, -73337.21, 0.6507937, 0.11053248, 224728.36, 224728.36, 0.0, 9.999928, 10.0013075 
2.5962514e+3, 1.2482635e+2, -1448239.6, -1620850.6, -66786.69, 0.075804725, 0.30616352, -1425416.4, 291320.78, 0.19076471, 10.002374, 9.999638 
2.5958797e+3, 1.3482212e+2, -1469633.9, -1607367.4, -19170.543, -0.021642266, 0.56864834, -1467015.4, 151763.66, 0.12932351, 10.001402, 9.999412 
2.5955084e+3, 1.4481369e+2, -1483011.1, -1783933.6, 105410.445, -0.20644009, 0.5820535, -1449760.8, 71102.87, 0.070622586, 10.001498, 9.99743 
2.5951406e+3, 1.5480211e+2, -1102427.6, -1578949.6, 13623.742, -0.27627274, 0.34013584, -1102038.5, 320941.88, 0.027766839, 10.003596, 9.997155 
2.594773e+3, 1.6479261e+2, -790141.75, -1135561.8, -103402.19, -0.19839168, 0.24736631, -761554.06, 563514.44, 0.0064744665, 10.003986, 9.999329 
2.594406e+3, 1.7478529e+2, -952498.5, -1197093.6, -77850.94, 0.07193925, 0.237521, -929822.06, 297305.7, 0.0005723583, 10.002293, 9.999061 
2.594038e+3, 1.8477733e+2, -1013908.5, -1306000.8, -47436.023, 0.20771825, 0.27500498, -1006398.0, 122805.88, 0.0000035552432, 10.001777, 9.997883 
2.5936684e+3, 1.9476879e+2, -829700.7, -1202008.8, -31385.508, 0.1708181, 0.29883277, -827073.44, 204223.3, 0.0, 10.002513, 9.997579 
2.593299e+3, 2.0476033e+2, -593898.5, -852798.4, -31254.086, 0.13733518, 0.30026156, -590178.94, 343200.53, 0.0, 10.00266, 9.999236 
2.5929296e+3, 2.1475191e+2, -595666.3, -834403.9, -45096.906, 0.13436715, 0.19869784, -587431.6, 248019.83, 0.0, 10.002083, 9.998985 
2.59256e+3, 2.247435e+2, -594734.3, -794679.94, -77136.16, 0.11051792, 0.1509598, -568435.44, 169094.52, 0.0, 10.00152, 9.998823 
2.5921902e+3, 2.3473544e+2, -590406.8, -774017.56, -101434.78, 0.053933915, 0.12580973, -545401.25, 94211.69, 0.0, 10.0009985, 9.99855 
2.5918213e+3, 2.4472837e+2, -499591.3, -436943.0, -157460.92, 0.120488144, 0.1365048, -307720.78, 233959.25, 0.0, 9.999895, 10.000724 
2.5914535e+3, 2.547225e+2, -681461.2, -494660.22, -191055.45, 0.3240313, 0.122278534, -375397.03, 68331.664, 0.0, 9.99806, 10.000544 
2.591085e+3, 2.647158e+2, -666018.2, -594009.4, -132123.31, 0.35925972, 0.13564463, -493072.6, -147280.42, 0.0, 9.998196, 9.9991045 
2.5907162e+3, 2.74708e+2, -263477.2, -390692.34, -106235.125, 0.25456256, 0.1044607, -203263.02, 44610.27, 0.0, 10.000449, 9.998753 
2.5903472e+3, 2.8470004e+2, 62526.934, 10823.742, -196966.02, 0.25105482, 0.021955362, 235330.61, 385278.22, 0.0, 10.001187, 10.000484 
2.5899774e+3, 2.946922e+2, 485.54102, 2366.536, -225478.83, 0.28457424, -0.16351426, 226906.83, 278918.1, 0.0, 10.000204, 10.000237 
2.58961e+3, 3.0468562e+2, -239489.44, -359539.4, -185150.14, 0.44821617, -0.06392847, -104877.38, -104877.38, 0.0, 9.999381, 9.997819 
2.589247e+3, 3.146804e+2, -124554.266, 159824.86, -48849.184, 0.94256914, 0.27887663, 167981.95, 167981.95, 0.0, 9.998124, 10.001995 
2.6062438e+3, 1.2519604e+2, -1976326.1, -1902481.4, 27710.332, -0.008391595, 0.35847673, -1893239.6, -180127.28, 0.1694871, 9.99844, 9.999442 
2.6058742e+3, 1.351908e+2, -1245349.5, -1480156.6, 13118.076, -0.095248185, 0.47704035, -1244618.9, 370540.6, 0.11391, 10.003065, 9.999572 
2.6055053e+3, 1.4518215e+2, -1195496.8, -1767539.1, 78513.81, -0.15171365, 0.5138054, -1184916.4, 332330.25, 0.061296422, 10.004151, 9.996255 
2.6051387e+3, 1.5517038e+2, -1404970.0, -1874657.0, 68234.89, -0.102311045, 0.36440384, -1395257.9, 24112.303, 0.023481611, 10.002076, 9.995869 
2.60477e+3, 1.6516036e+2, -1106660.0, -1253675.9, -37638.867, -0.09697419, 0.27197343, -1097584.0, 223879.67, 0.005220199, 10.001654, 9.999642 
2.6044002e+3, 1.7515224e+2, -934444.8, -1169282.6, -52163.113, -0.089734465, 0.1567871, -923379.56, 300147.0, 0.00041937284, 10.002345, 9.999234 
2.6040316e+3, 1.8514366e+2, -958829.56, -1273668.3, -31050.018, 0.02936846, 0.12669228, -955796.56, 169809.45, 0.0000020172258, 10.002133, 9.997934 
2.603664e+3, 1.9513476e+2, -1033103.7, -1296580.9, -41779.242, 0.20502979, 0.09567939, -1026637.5, 1062.9467, 0.0, 10.0011015, 9.997616 
2.603295e+3, 2.0512691e+2, -816045.44, -943653.3, -35044.2, 0.23317611, 0.14432473, -807054.9, 122722.45, 0.0, 10.0011, 9.999353 
2.6029247e+3, 2.1511993e+2, -684102.8, -877879.5, -7350.1284, 0.13979584, 0.176767, -683824.44, 148013.72, 0.0, 10.001519, 9.998951 
2.6025546e+3, 2.2511175e+2, -582155.94, -839435.5, -14504.298, 0.07178112, 0.18407899, -581340.8, 152575.23, 0.0, 10.001839, 9.998362 
2.6021844e+3, 2.3510247e+2, -518384.38, -794024.94, -10958.424, 0.019048762, 0.08386011, -517949.4, 118060.34, 0.0, 10.001744, 9.998054 
2.6018152e+3, 2.4509391e+2, -346365.66, -459584.47, -102543.56, 0.14814875, 0.021017486, -285843.5, 252247.08, 0.0, 10.001396, 9.999838 
2.6014468e+3, 2.550862e+2, -401163.84, -466666.0, -131407.81, 0.4320125, -0.07573605, -298487.28, 141669.67, 0.0, 10.000464, 9.999578 
2.6010776e+3, 2.6507953e+2, -396113.88, -429072.38, 21380.283, 0.40550816, -0.015990345, -385599.0, -43376.832, 0.0, 9.999918, 9.999412 
2.6007086e+3, 2.7507374e+2, -353552.44, -396765.3, 29752.936, 0.12044845, 0.11894705, -338388.28, -94101.5, 0.0, 9.999691, 9.999082 
2.60034e+3, 2.850658e+2, -100540.664, -114590.55, -147856.4, 0.11544135, 0.046979077, 40457.594, 186818.11, 0.0, 10.000266, 10.000073 
2.5999704e+3, 2.9505596e+2, 75955.93, -32352.303, -135754.08, 0.22989821, -0.2828881, 167958.72, 216399.64, 0.0, 10.001022, 9.999614 
2.5996014e+3, 3.050479e+2, -100171.0, -423877.72, -105405.57, 0.27007258, -0.22499205, -68874.56, -68874.56, 0.0, 10.000916, 9.996631 
2.599234e+3, 3.15041e+2, -140365.58, -114654.03, -93427.65, 0.39964303, 0.06783143, -33201.82, -33201.82, 0.0, 9.999192, 9.99958 
2.616233e+3, 1.2556502e+2, -1828172.5, -1802823.5, 187085.4, -0.35305306, 0.28888214, -1627983.8, 81503.3, 0.14987738, 9.999317, 9.999761 
2.6158705e+3, 1.3555627e+2, -1229647.1, -1524396.8, 154176.78, -0.1394255, 0.10417799, -1163738.5, 447827.38, 0.09979477, 10.003362, 9.999075 
2.615505e+3, 1.4554785e+2, -1195302.9, -1769493.9, 11951.643, 0.040202744, 0.19778821, -1195054.1, 318597.72, 0.052857112, 10.004137, 9.9962435 
2.6151374e+3, 1.5553944e+2, -1369313.3, -1850691.6, 13335.608, 0.23284942, 0.40174064, -1368944.0, 46802.39, 0.019694533, 10.0022745, 9.995946 
2.614767e+3, 1.6553023e+2, -1084897.8, -1255609.8, 11811.397, 0.10374566, 0.38660988, -1084084.4, 233749.83, 0.004163879, 10.001846, 9.999535 
2.6143944e+3, 1.7552067e+2, -900294.9, -1175010.5, -3709.0015, -0.24956352, 0.14973205, -900244.8, 319668.63, 0.00030229846, 10.002668, 9.999031 
2.6140255e+3, 1.8551128e+2, -931268.5, -1289090.8, -57715.977, -0.16192552, 0.06507342, -922189.4, 199810.98, 0.0000010444409, 10.002424, 9.99769 
2.6136592e+3, 1.9550203e+2, -1017724.56, -1309518.8, -65536.27, 0.2626901, 0.040796068, -1003681.2, 20412.563, 0.0, 10.001248, 9.997469 
2.61329e+3, 2.0549445e+2, -745800.8, -793424.7, 6818.109, 0.30076683, 0.06651248, -744843.94, 181322.0, 0.0, 10.001063, 10.000403 
2.612919e+3, 2.1548828e+2, -583886.9, -722087.5, 39644.938, 0.046215665, 0.08863555, -573321.8, 254897.94, 0.0, 10.001731, 9.99991 
2.6125488e+3, 2.2548111e+2, -489436.7, -740075.25, 34705.266, -0.05560021, 0.1291611, -484719.9, 245568.33, 0.0, 10.002219, 9.998867 
2.6121798e+3, 2.354732e+2, -381235.8, -675426.3, 49293.707, -0.017447552, 0.13124903, -373196.0, 259172.08, 0.0, 10.002426, 9.998548 
2.611811e+3, 2.4546432e+2, -248592.89, -490774.78, -41341.8, 0.17410773, 0.052904874, -241730.08, 292722.0, 0.0, 10.002398, 9.999144 
2.6114422e+3, 2.554549e+2, -195787.7, -456372.1, -59798.676, 0.4771582, -0.12362324, -182720.44, 253816.84, 0.0, 10.002239, 9.998803 
2.6110724e+3, 2.6544696e+2, -210900.77, -350747.72, 47811.414, 0.450986, -0.13353612, -196117.56, 142497.64, 0.0, 10.001223, 9.999324 
2.6107022e+3, 2.7544045e+2, -404825.22, -425703.06, 44708.555, 0.20278156, -0.041760325, -369353.06, -128667.266, 0.0, 9.999338, 9.999056 
2.610334e+3, 2.8543347e+2, -100530.47, -12548.847, 27294.879, 0.19960469, -0.06290794, -4768.991, 137980.69, 0.0, 9.999837, 10.00097 
2.6099664e+3, 2.9542595e+2, 306280.94, 160620.19, 66555.17, 0.30026418, -0.22702998, 332110.84, 376919.03, 0.0, 10.002265, 10.000332 
2.609596e+3, 3.054187e+2, 154983.89, -287880.56, 40546.97, 0.19733238, -0.1109549, 158665.61, 158665.61, 0.0, 10.002602, 9.99675 
2.6092237e+3, 3.1540847e+2, 362293.53, 362656.06, -72886.43, 0.0094160205, -0.14170521, 435361.44, 435361.44, 0.0, 10.001628, 10.001678 
2.6262265e+3, 1.2592927e+2, -1495393.3, -1654815.3, -11862.069, -0.41793138, 0.19424348, -1494515.5, 211397.44, 0.13183594, 10.001955, 9.999469 
2.6258668e+3, 1.359216e+2, -1482746.0, -1690553.5, -54949.477, -0.09733152, 0.11245375, -1469110.6, 138872.9, 0.08692923, 10.001632, 9.998694 
2.6255018e+3, 1.4591357e+2, -1507002.3, -1809609.3, -247853.36, 0.1316456, 0.18136233, -1367919.8, 142144.77, 0.04528474, 10.001388, 9.997324 
2.6251337e+3, 1.559055e+2, -1485600.5, -1808011.5, -171837.56, 0.3417767, 0.29315737, -1411189.0, 962.3496, 0.01638905, 10.001058, 9.996832 
2.624763e+3, 1.6589713e+2, -1184330.3, -1392114.6, -88277.75, 0.19694796, 0.3463519, -1151890.0, 162343.81, 0.0032885466, 10.001543, 9.998747 
2.6243904e+3, 1.7588833e+2, -1002495.7, -1310008.6, -149879.42, -0.22337928, 0.239048, -941531.7, 274782.06, 0.00021471751, 10.002344, 9.99827 
2.624021e+3, 1.8587887e+2, -906868.1, -1224871.5, -235395.8, -0.15270053, 0.14061534, -781805.2, 336595.44, 0.00000047553752, 10.002406, 9.99813 
2.623654e+3, 1.9586912e+2, -958895.8, -1246261.5, -171823.31, 0.29563424, 0.008533674, -878596.5, 141895.11, 0.0, 10.00155, 9.997745 
2.6232848e+3, 2.0586143e+2, -728969.3, -789023.8, -76476.664, 0.30375394, 0.003327464, -676836.25, 245727.06, 0.0, 10.00119, 10.000376 
2.6229128e+3, 2.1585533e+2, -719286.7, -792413.75, -121859.875, -0.020593511, 0.011090655, -628623.1, 195996.02, 0.0, 10.000833, 9.999865 
2.6225433e+3, 2.2584894e+2, -680733.75, -742957.2, -148875.66, -0.093214035, 0.069334015, -559753.7, 166925.73, 0.0, 10.000547, 9.99964 
2.622175e+3, 2.3584232e+2, -723469.5, -779098.75, -96952.22, 0.014943856, 0.10387312, -650420.9, -21677.271, 0.0, 9.99984, 9.999081 
2.621806e+3, 2.4583387e+2, -543545.4, -669602.5, -125514.29, 0.18419065, 0.045988217, -466123.1, 64700.246, 0.0, 10.000537, 9.998804 
2.6214364e+3, 2.5582397e+2, -341619.8, -582409.8, -81383.0, 0.39307395, -0.1572913, -316693.97, 116221.48, 0.0, 10.001482, 9.998303 
2.621067e+3, 2.6581538e+2, -190681.38, -362055.78, -19156.563, 0.42981425, -0.20241626, -188566.13, 146434.0, 0.0, 10.001461, 9.999133 
2.6206964e+3, 2.7580807e+2, -262625.1, -380386.94, -6200.837, 0.31979558, -0.17794436, -262299.5, -25222.697, 0.0, 10.000421, 9.998851 
2.620328e+3, 2.8580195e+2, 4957.3623, 112989.72, 63716.26, 0.28119618, -0.1381218, 142505.03, 281636.4, 0.0, 10.000257, 10.001628 
2.6199615e+3, 2.957966e+2, 105743.11, 109234.6, 53927.43, 0.28631935, -0.16961063, 161444.53, 202615.05, 0.0, 10.000691, 10.000744 
2.6195914e+3, 3.0579036e+2, 6443.6123, -321376.6, -103650.24, 0.18096626, 0.01239558, 36466.21, 36466.21, 0.0, 10.001416, 9.997102 
2.6192218e+3, 3.1577554e+2, 112344.32, -303277.97, -72703.695, 0.273333, -0.5136013, 124695.164, 124695.164, 0.0, 10.002266, 9.996809 
2.6362234e+3, 1.2629089e+2, -1491794.4, -1677974.0, -5390.4624, -0.32539868, 0.13036403, -1491638.5, 210729.56, 0.11528488, 10.002056, 9.999232 
2.6358628e+3, 1.3628677e+2, -1440876.6, -1662342.9, -48395.242, -0.041833423, 0.43362778, -1430763.0, 173647.66, 0.07524954, 10.00185, 9.998796 
2.635496e+3, 1.4627859e+2, -1326226.8, -1470449.5, -232244.5, 0.10269945, 0.36345792, -1155156.0, 351333.16, 0.038529173, 10.001556, 9.999598 
2.6351267e+3, 1.562681e+2, -1303316.9, -1496981.3, -148290.77, 0.20927122, 0.015359931, -1223042.9, 185545.86, 0.013527696, 10.001357, 9.998822 
2.6347578e+3, 1.6626067e+2, -1230514.8, -1564415.0, -40796.523, 0.18953806, 0.14879051, -1225602.4, 85064.57, 0.0025719018, 10.001846, 9.997431 
2.634389e+3, 1.7625497e+2, -1006074.7, -1412238.9, -118381.016, 0.06582621, 0.488214, -974089.94, 238642.22, 0.00015054179, 10.002716, 9.997398 
2.634019e+3, 1.8624604e+2, -767134.2, -979176.0, -257663.2, 0.09169176, 0.39325, -594532.1, 520281.1, 0.0000001940375, 10.002599, 9.999721 
2.6336488e+3, 1.962353e+2, -807956.2, -1023925.1, -183862.6, 0.23778498, 0.01574515, -702712.8, 314190.22, 0.0, 10.00192, 9.999097 
2.6332784e+3, 2.0622654e+2, -816867.94, -1019920.25, -97717.48, 0.21552579, -0.065118566, -777481.9, 141503.63, 0.0, 10.001397, 9.998685 
2.632908e+3, 2.1621917e+2, -783947.06, -958527.9, -169548.9, 0.072326206, -0.013834659, -680537.6, 140523.22, 0.0, 10.000943, 9.998672 
2.6325387e+3, 2.2621226e+2, -616088.2, -544906.5, -217500.45, 0.104814194, -0.04147843, -360104.16, 363020.0, 0.0, 10.000251, 10.001152 
2.63217e+3, 2.3620579e+2, -678564.2, -584650.0, -158317.8, 0.2579837, -0.13874355, -466472.34, 158706.89, 0.0, 9.999379, 10.000636 
2.631799e+3, 2.4619937e+2, -527806.56, -511326.84, -92156.76, 0.19176759, -0.13797335, -427042.3, 100195.93, 0.0, 9.999986, 10.000156 
2.6314273e+3, 2.561929e+2, -258951.8, -397893.53, -34445.1, 0.02800077, -0.12502623, -250881.28, 178419.16, 0.0, 10.001416, 9.999593 
2.6310593e+3, 2.6618573e+2, -139537.88, -350459.3, -19343.092, 0.19628333, -0.07903852, -137778.64, 193592.83, 0.0, 10.001854, 9.999025 
2.630693e+3, 2.7617845e+2, -97491.41, -308200.53, -11612.342, 0.5497085, -0.03238874, -96853.375, 136591.84, 0.0, 10.001569, 9.998795 
2.6303244e+3, 2.8617084e+2, -27844.627, -45361.996, 12540.069, 0.52591187, -0.073280476, -21307.303, 114207.96, 0.0, 10.000608, 10.000384 
2.6299542e+3, 2.9616326e+2, -200313.17, -171919.19, -40809.543, 0.27686396, -0.19975686, -142907.69, -105327.39, 0.0, 9.999142, 9.999569 
2.629584e+3, 3.0615497e+2, -111410.414, -387943.0, -114707.45, 0.0472939, -0.17135118, -70023.24, -70023.24, 0.0, 10.000638, 9.997023 
2.6292235e+3, 3.161447e+2, 364941.56, 17100.887, -185518.58, 0.8391039, -0.23664315, 445315.2, 445315.2, 0.0, 10.003143, 9.998574 
2.6462206e+3, 1.2665361e+2, -1611246.0, -1704391.0, 62895.93, -0.103255786, 0.014006531, -1579556.9, 119248.37, 0.100167856, 10.000974, 9.999574 
2.645857e+3, 1.3664988e+2, -1497575.3, -1660533.8, 36039.703, -0.10096759, 0.32480165, -1489960.5, 110884.67, 0.06469216, 10.00133, 9.9990425 
2.64549e+3, 1.4664236e+2, -1343808.5, -1415214.9, -194354.13, 0.01412358, 0.2829926, -1181905.4, 321012.8, 0.03253055, 10.001168, 10.000137 
2.6451206e+3, 1.5663253e+2, -1413304.1, -1498046.1, -209004.14, 0.18580128, -0.067412205, -1242419.4, 162592.19, 0.011066901, 10.0004015, 9.999263 
2.644753e+3, 1.6662583e+2, -1366154.4, -1586888.0, -17572.32, 0.23801473, 0.09043152, -1364764.1, -57679.344, 0.0019930317, 10.000757, 9.997789 
2.6443863e+3, 1.7662108e+2, -1218518.5, -1487548.1, 8834.941, 0.22474505, 0.50064397, -1218228.8, -9083.555, 0.00010503105, 10.001166, 9.997627 
2.6440153e+3, 1.8661293e+2, -911371.2, -947764.7, -154025.69, 0.19960466, 0.4306722, -774471.06, 336747.84, 0.00000008640195, 10.001172, 10.000618 
2.6436424e+3, 1.9660284e+2, -986452.6, -1054287.4, -130920.586, 0.1701142, 0.027972605, -885127.3, 128173.43, 0.0, 10.000482, 9.9995775 
2.6432723e+3, 2.06594e+2, -1005545.3, -1193032.0, 2192.3616, 0.17772245, -0.030424984, -1005519.7, -90133.79, 0.0, 10.000494, 9.997916 
2.6429033e+3, 2.1658601e+2, -909402.8, -1092876.8, 6740.5186, 0.19953994, 0.044109806, -909155.5, -91683.78, 0.0, 10.000441, 9.997985 
2.6425338e+3, 2.2657841e+2, -560122.25, -460732.25, -91403.16, 0.25912285, -0.04105018, -406388.16, 313152.13, 0.0, 10.000395, 10.001659 
2.6421636e+3, 2.3657124e+2, -607226.3, -509959.72, -115807.8, 0.34251052, -0.2550588, -432987.9, 188609.14, 0.0, 9.99971, 10.000997 
2.6417923e+3, 2.4656574e+2, -443905.9, -414668.78, -90732.695, 0.16927868, -0.2063046, -337384.56, 186263.38, 0.0, 10.000346, 10.000639 
2.64142e+3, 2.5656128e+2, -273822.8, -359494.72, -134269.61, -0.1763109, -0.06137649, -175721.75, 249972.64, 0.0, 10.001143, 9.999989 
2.6410532e+3, 2.6655522e+2, -198999.58, -343429.53, -163363.4, 0.07093862, 0.04182409, -92601.55, 235151.69, 0.0, 10.001307, 9.999329 
2.6406893e+3, 2.7654812e+2, -236790.0, -389639.66, -84865.38, 0.67853737, 0.068738125, -199009.36, 30811.436, 0.0, 10.000678, 9.998668 
2.6403204e+3, 2.8653926e+2, -116441.31, -233180.1, -58755.797, 0.7043735, -0.024443703, -91990.24, 39914.625, 0.0, 10.00066, 9.999053 
2.639947e+3, 2.9652968e+2, -95624.79, -270648.03, -51125.02, 0.26884803, -0.21884179, -81785.28, -47790.895, 0.0, 10.000527, 9.998218 
2.6395753e+3, 3.0651894e+2, -6678.4434, -337954.3, 23189.402, -0.21296895, -0.37301034, -5063.0557, -5063.0557, 0.0, 10.001371, 9.997006 
2.639212e+3, 3.165099e+2, 314175.47, 163222.58, 141605.95, 0.026366303, -0.33212364, 399163.78, 399163.78, 0.0, 10.002054, 10.000112 
2.6562175e+3, 1.2701686e+2, -1522509.3, -1583886.4, 98180.4, 0.11021898, -0.18670209, -1450333.0, 244899.53, 0.08642747, 10.001244, 10.00033 
2.6558504e+3, 1.3701122e+2, -1439313.6, -1576710.3, 62852.707, -0.27265924, -0.12420087, -1414899.5, 182388.17, 0.055198986, 10.001473, 9.999564 
2.655483e+3, 1.4700513e+2, -1385158.1, -1522204.8, -192360.86, -0.12919158, 0.006907691, -1249480.1, 249871.64, 0.027235191, 10.001263, 9.99934 
2.655115e+3, 1.5699866e+2, -1371374.6, -1490343.5, -188564.03, 0.2654058, 0.07888299, -1233135.0, 168286.23, 0.0089680515, 10.000726, 9.999157 
2.654748e+3, 1.6699223e+2, -1182951.6, -1236890.8, 29789.213, 0.3123996, 0.13645084, -1169737.1, 133751.95, 0.0015322798, 10.000915, 10.00011 
2.6543805e+3, 1.76986e+2, -1025775.6, -1164792.6, 48788.855, 0.19065809, 0.18524806, -1010361.94, 195193.1, 0.00007382683, 10.001479, 9.999698 
2.6540092e+3, 1.8697932e+2, -895191.0, -935724.1, -142735.27, 0.14230658, 0.17561397, -771290.7, 336327.03, 0.000000036839044, 10.001246, 10.000676 
2.6536357e+3, 1.9697234e+2, -939144.3, -991418.25, -111592.1, 0.12671088, 0.089580014, -850669.2, 159009.92, 0.0, 10.000613, 9.999945 
2.6532665e+3, 2.0696561e+2, -918052.06, -1026075.56, 51695.797, 0.23452343, 0.16516927, -897299.4, 14447.487, 0.0, 10.000562, 9.999024 
2.652899e+3, 2.1695906e+2, -804725.25, -956134.56, 73820.64, 0.38931465, 0.2900829, -774691.2, 39125.992, 0.0, 10.00077, 9.998766 
2.6525277e+3, 2.2695097e+2, -638692.6, -684308.25, -40400.46, 0.28171396, 0.2265154, -615106.5, 100784.6, 0.0, 10.000639, 10.000015 
2.6521543e+3, 2.3694232e+2, -631921.06, -721264.0, -80357.56, 0.0878926, 0.04052073, -584653.0, 33312.285, 0.0, 10.000355, 9.9992485 
2.6517865e+3, 2.4693403e+2, -550020.3, -736205.75, -64182.383, 0.21321572, 0.028743612, -530039.44, -9991.286, 0.0, 10.000763, 9.99824 
2.6514208e+3, 2.5692627e+2, -336535.97, -545791.94, -180573.33, 0.43930876, 0.080291025, -232468.63, 189662.58, 0.0, 10.001368, 9.998599 
2.6510513e+3, 2.6691964e+2, -73931.07, -28031.72, -249904.0, 0.44219342, 0.040358923, 199974.17, 524163.63, 0.0, 10.001075, 10.001594 
2.6506805e+3, 2.7691346e+2, -151372.92, -146623.95, -130524.95, 0.45580688, -0.061597094, -18451.887, 207785.75, 0.0, 10.000379, 10.000482 
2.6503125e+3, 2.86906e+2, -62613.508, -246102.2, -19590.125, 0.509903, -0.06825417, -60545.285, 67764.36, 0.0, 10.001177, 9.998723 
2.6499435e+3, 2.9689816e+2, 190493.64, -130282.97, -12221.459, 0.40815645, -0.053024046, 190958.6, 221348.44, 0.0, 10.002481, 9.998227 
2.6495713e+3, 3.068894e+2, 129840.58, -159625.97, 31987.385, -0.13692825, -0.06875369, 133333.19, 133333.19, 0.0, 10.001836, 9.998 
2.649204e+3, 3.168815e+2, 30766.072, 25044.701, 120069.36, -0.1883663, 0.016510228, 148008.81, 148008.81, 0.0, 10.000098, 10.000114 
2.6662123e+3, 1.2738386e+2, -1410425.1, -1485299.5, 67819.71, 0.08587268, -0.06973936, -1370395.9, 321236.1, 0.073997386, 10.001868, 10.000728 
2.6658455e+3, 1.3737582e+2, -1652530.0, -1666734.3, 23218.533, -0.16944607, -0.2968933, -1635351.6, -41645.39, 0.046710845, 9.999886, 9.999699 
2.6654777e+3, 1.4737009e+2, -1418229.6, -1526312.4, -118376.7, -0.06010208, -0.14564347, -1342142.1, 153625.4, 0.022592422, 10.000978, 9.999437 
2.6651102e+3, 1.5736538e+2, -1028404.4, -1300295.5, -69303.38, 0.26270115, 0.09818033, -1011758.5, 386064.0, 0.0071954923, 10.003002, 9.999369 
2.664742e+3, 1.6735926e+2, -1027465.0, -1016642.6, 49323.926, 0.27375108, 0.103707306, -972433.94, 327450.78, 0.001170623, 10.0013485, 10.001412 
2.6643732e+3, 1.7735262e+2, -1475931.4, -1278886.3, 19566.596, 0.13894017, -0.02522241, -1276962.1, -75012.53, 0.00005271245, 9.997977, 10.000596 
2.6640025e+3, 1.8734652e+2, -1135826.8, -1081402.8, -130194.27, 0.11709113, 0.00087803113, -975607.1, 128402.336, 0.000000014947995, 9.999754, 10.000393 
2.6636305e+3, 1.9734085e+2, -665784.2, -885399.5, -138343.89, 0.15391958, 0.07037609, -598965.8, 407099.25, 0.0, 10.002634, 9.9997015 
2.6632616e+3, 2.0733543e+2, -612410.94, -797758.75, -50892.734, 0.2786105, 0.23327442, -599356.3, 308765.1, 0.0, 10.002322, 9.999738 
2.6628935e+3, 2.1733013e+2, -857889.56, -967269.1, -51062.832, 0.436104, 0.40189248, -837757.0, -27578.84, 0.0, 10.000366, 9.998883 
2.6625216e+3, 2.2732146e+2, -678279.2, -861292.2, -112747.38, 0.2798731, 0.3472248, -624577.5, 87681.63, 0.0, 10.0010805, 9.998568 
2.6621476e+3, 2.3731151e+2, -486395.25, -832441.6, -115602.35, -0.0066339606, 0.16711949, -451329.7, 163019.63, 0.0, 10.002181, 9.997598 
2.6617822e+3, 2.4730173e+2, -559737.0, -914609.1, -26052.084, 0.3401368, 0.1645203, -557834.7, -41383.824, 0.0, 10.001476, 9.99666 
2.66142e+3, 2.57292e+2, -641295.9, -808740.9, -37931.656, 0.9209299, 0.17751378, -633103.9, -214547.28, 0.0, 9.999793, 9.997558 
2.6610476e+3, 2.6728466e+2, -128903.69, 105129.4, -171363.73, 0.68904185, 0.02945584, 195618.03, 516235.28, 0.0, 10.000007, 10.003035 
2.6606715e+3, 2.772787e+2, -94896.02, -7866.3496, -137736.05, 0.16722631, -0.19848102, 93065.21, 315721.22, 0.0, 10.000307, 10.001474 
2.6603046e+3, 2.8727257e+2, -191575.27, -323176.0, -28439.479, 0.28305012, -0.102353714, -185692.34, -60975.598, 0.0, 10.000356, 9.998592 
2.6599398e+3, 2.9726654e+2, -185096.39, -307718.66, -17818.354, 0.5058675, 0.09547137, -182559.67, -155773.75, 0.0, 9.999883, 9.998273 
2.6595682e+3, 3.0726057e+2, -31073.84, -105678.664, -15034.126, 0.043389596, 0.28325498, -28158.16, -28158.16, 0.0, 10.00017, 9.999172 
2.6591972e+3, 3.1724653e+2, 9660.499, -37847.176, -93416.89, -0.22254843, -0.35339656, 82296.29, 82296.29, 0.0, 10.000191, 9.999645 
2.6762065e+3, 1.2775263e+2, -1411512.5, -1450012.9, 7652.481, -0.066666834, 0.1880221, -1410047.3, 277972.47, 0.0627766, 10.0016985, 10.00104 
2.6758417e+3, 1.3774224e+2, -1575963.8, -1569429.9, -1726.9438, 0.13245317, -0.28858817, -1569001.5, 21111.383, 0.03914479, 10.000133, 10.000265 
2.675474e+3, 1.4773634e+2, -1328952.4, -1371757.6, -9191.294, 0.1365976, -0.23250632, -1327062.3, 165110.72, 0.01854302, 10.001126, 10.00043 
2.675106e+3, 1.5773208e+2, -911493.06, -1136548.8, -10922.455, 0.14049882, -0.033253368, -910964.2, 483256.94, 0.005710628, 10.003324, 10.000344 
2.6747352e+3, 1.6772673e+2, -990380.7, -956172.44, -62148.688, 0.110491276, -0.011027968, -908817.2, 387457.1, 0.0008890518, 10.00141, 10.001797 
2.674364e+3, 1.7772096e+2, -1437974.0, -1234102.9, -26520.014, 0.04853842, -0.08091433, -1230709.5, -32380.217, 0.000037964888, 9.99811, 10.000828 
2.6739958e+3, 1.8771411e+2, -1146948.3, -1157286.3, 26108.031, 0.1546309, -0.092071004, -1125502.5, -25104.809, 0.0000000057994387, 9.999977, 9.999764 
2.6736286e+3, 1.9770715e+2, -559598.5, -873034.7, -40028.926, 0.30422282, -0.08516554, -554567.2, 447900.78, 0.0, 10.003505, 9.999366 
2.6732576e+3, 2.0770143e+2, -529950.4, -748489.25, -131600.2, 0.2861416, 0.056872908, -468168.84, 436357.7, 0.0, 10.002829, 9.999841 
2.6728854e+3, 2.1769597e+2, -803801.75, -939257.8, -103138.164, 0.22168751, 0.209311, -748141.94, 58440.6, 0.0, 10.000686, 9.998927 
2.6725167e+3, 2.2768593e+2, -645175.06, -909615.7, -46533.21, 0.33534396, 0.050677206, -637225.6, 71452.37, 0.0, 10.001552, 9.99802 
2.6721492e+3, 2.3767456e+2, -302352.03, -733225.0, -81270.7, 0.49350148, -0.2151674, -287532.56, 323252.1, 0.0, 10.003369, 9.99771 
2.67178e+3, 2.4766715e+2, -370640.63, -639118.3, -80498.04, 0.61632156, -0.08595369, -348354.72, 164508.08, 0.0, 10.001963, 9.998325 
2.671411e+3, 2.5766096e+2, -630086.5, -699001.94, -4015.5776, 0.7468455, 0.13966997, -629853.25, -214920.97, 0.0, 9.999384, 9.998519 
2.6710382e+3, 2.676529e+2, -332716.53, -239174.05, -54850.125, 0.49346048, 0.025456151, -213861.42, 103142.85, 0.0, 9.999631, 10.000867 
2.6706648e+3, 2.7764457e+2, -128297.945, -180555.28, -121944.95, 0.14645159, -0.22310498, -29713.822, 189359.23, 0.0, 10.00073, 10.000084 
2.6702976e+3, 2.8763747e+2, -278804.28, -316624.0, -102056.49, 0.285426, -0.19594395, -193920.55, -72777.38, 0.0, 9.999546, 9.99904 
2.6699314e+3, 2.976311e+2, -449689.88, -321259.38, -49172.434, 0.5084936, -0.074893706, -304594.94, -281382.75, 0.0, 9.997548, 9.999317 
2.6695633e+3, 3.0762655e+2, -65513.047, 163605.55, 83140.664, 0.3350211, 0.06238067, 190595.53, 190595.53, 0.0, 9.998722, 10.001707 
2.6691934e+3, 3.1761616e+2, 209604.3, 140264.36, 27990.709, -0.0060791136, -0.43459484, 219493.13, 219493.13, 0.0, 10.001196, 10.000378 
2.686202e+3, 1.2811774e+2, -1707181.5, -1665755.6, 17597.152, 0.06486112, 0.06812379, -1659289.8, 25147.617, 0.052667595, 9.999876, 10.000343 
2.6858366e+3, 1.3810839e+2, -1379992.9, -1479873.4, -61480.945, 0.1832365, -0.26871476, -1350724.9, 235799.52, 0.032421984, 10.001575, 10.000187 
2.6854682e+3, 1.4810352e+2, -1319518.6, -1219542.4, -51894.543, 0.14196561, -0.20897812, -1197476.0, 291096.53, 0.015032093, 10.000507, 10.001793 
2.6850995e+3, 1.5809998e+2, -1598230.9, -1405228.0, -39648.277, 0.09856531, -0.07213248, -1397400.6, -6790.9136, 0.0044763535, 9.998331, 10.000899 
2.6847282e+3, 1.6809435e+2, -1239092.3, -1190053.6, -172340.73, 0.040838618, -0.03639098, -1040496.75, 252170.95, 0.00066900725, 10.000209, 10.000768 
2.6843566e+3, 1.7808814e+2, -876824.75, -1048351.8, -212228.9, -0.018657438, -0.06649006, -733685.5, 461044.84, 0.000027210404, 10.002354, 10.000062 
2.6839897e+3, 1.8808106e+2, -941684.75, -1038134.7, -76266.68, 0.15252264, -0.10683672, -899675.3, 197124.11, 0.000000001728097, 10.001341, 9.999906 
2.6836246e+3, 1.9807376e+2, -1190234.6, -1192307.3, -94677.71, 0.38148674, -0.15416445, -1096587.6, -97717.07, 0.0, 9.999272, 9.99921 
2.6832527e+3, 2.0806722e+2, -854415.75, -926399.94, -228256.13, 0.3033093, -0.08535424, -659331.5, 241604.34, 0.0, 10.000719, 9.99962 
2.682879e+3, 2.180609e+2, -608211.06, -867560.0, -196455.13, 0.13271502, -0.010343942, -502492.06, 300507.28, 0.0, 10.002158, 9.998708 
2.6825124e+3, 2.2805122e+2, -594588.06, -841932.1, -39673.11, 0.4047783, -0.15776777, -588380.44, 116712.0, 0.0, 10.001747, 9.998381 
2.6821482e+3, 2.380405e+2, -690052.2, -878898.44, -19096.057, 0.8123373, -0.39330795, -688140.56, -80945.87, 0.0, 10.0005665, 9.998055 
2.681776e+3, 2.4803439e+2, -448814.88, -549160.06, -121091.75, 0.7456853, -0.22022973, -367913.06, 141345.7, 0.0, 10.000884, 9.9994545 
2.6814017e+3, 2.5803003e+2, -415485.53, -574609.6, -79641.1, 0.50615096, 0.074877664, -382473.94, 28833.803, 0.0, 10.000795, 9.998684 
2.68103e+3, 2.6802155e+2, -278574.47, -446033.75, -30939.906, 0.31248695, 0.03690443, -273040.84, 40347.742, 0.0, 10.001039, 9.998748 
2.6806593e+3, 2.7801162e+2, -202500.03, -396947.75, -72709.305, 0.16804817, -0.16380832, -178319.1, 37161.523, 0.0, 10.001019, 9.998456 
2.6802906e+3, 2.8800327e+2, -165565.31, -223502.58, -144887.83, 0.29874283, -0.23298955, -46778.527, 70783.56, 0.0, 10.000159, 9.999372 
2.679922e+3, 2.9799595e+2, -270486.6, -157271.64, -69859.91, 0.44591975, -0.24850821, -123963.53, -104328.39, 0.0, 9.998459, 10.000002 
2.679558e+3, 3.0799195e+2, 42910.8, 437315.38, 73086.86, 0.603499, -0.21416754, 450423.4, 450423.4, 0.0, 9.998515, 10.003686 
2.6791885e+3, 3.1799093e+2, -69128.98, 1976.2991, 61587.02, 0.055362996, 0.044162005, 37535.902, 37535.902, 0.0, 9.999318, 10.000328 
2.6961976e+3, 1.2848037e+2, -1656419.4, -1776564.1, 102628.805, 0.2761429, -0.31582567, -1597574.4, 83302.0, 0.04360755, 10.00082, 9.999115 
2.69583e+3, 1.3847409e+2, -1354452.0, -1459442.1, -17299.39, -0.007372124, -0.23530117, -1351675.0, 231267.44, 0.026483878, 10.001712, 10.000252 
2.6954606e+3, 1.484711e+2, -1189110.1, -951961.94, -110466.14, 0.0070370296, -0.11187153, -908478.7, 576491.4, 0.012009026, 10.000522, 10.00364 
2.6950917e+3, 1.584687e+2, -1521909.3, -1322526.8, -40921.137, 0.1294566, -0.013056073, -1314454.9, 72536.73, 0.0034556554, 9.99864, 10.001314 
2.694722e+3, 1.6846165e+2, -1371068.0, -1531721.5, -42927.293, 0.054004256, 0.037832692, -1360317.1, -71246.33, 0.00049606664, 10.000474, 9.998296 
2.694352e+3, 1.7845365e+2, -843269.3, -1152679.0, -159037.08, -0.07507662, 0.05370581, -776103.94, 415056.97, 0.00001910138, 10.003081, 9.99899 
2.693984e+3, 1.8844686e+2, -813021.4, -820102.56, -172792.95, 0.08752165, -0.010920009, -643732.75, 449489.38, 0.0000000002885943, 10.001544, 10.001303 
2.6936164e+3, 1.9844037e+2, -1155429.4, -1087989.8, -123432.914, 0.33078116, -0.101969115, -993753.7, 1523.3083, 0.0, 9.999094, 10.000014 
2.6932472e+3, 2.0843218e+2, -902466.06, -1021471.25, -118415.65, 0.3770322, -0.17781915, -829443.9, 67914.305, 0.0, 10.000653, 9.999019 
2.6928774e+3, 2.1842414e+2, -431559.88, -717584.2, -151284.3, 0.36495534, -0.22859329, -366390.8, 433049.78, 0.0, 10.003064, 9.999296 
2.6925078e+3, 2.2841926e+2, -393799.75, -475114.34, -100891.85, 0.43647984, -0.075692445, -325681.22, 375807.8, 0.0, 10.001945, 10.000812 
2.6921386e+3, 2.384147e+2, -671445.1, -692781.9, -15424.177, 0.5631057, 0.08529728, -663359.3, -59825.996, 0.0, 9.999913, 9.999641 
2.6917684e+3, 2.4840616e+2, -521262.56, -668119.3, -40243.727, 0.5697818, 0.015803317, -510957.53, -5338.4893, 0.0, 10.000728, 9.998719 
2.691397e+3, 2.5839716e+2, -238377.28, -531880.6, -52445.65, 0.52097076, -0.07528829, -229287.38, 178422.67, 0.0, 10.002173, 9.998309 
2.6910263e+3, 2.683903e+2, -110386.38, -372601.94, -25858.852, 0.4325932, 0.0646568, -107860.59, 201918.97, 0.0, 10.002219, 9.998685 
2.690656e+3, 2.783836e+2, -118391.664, -385435.78, -38888.65, 0.36559227, 0.20821938, -112843.72, 99002.63, 0.0, 10.001705, 9.998197 
2.6902854e+3, 2.883744e+2, -111361.016, -279784.38, -142351.66, 0.38572297, 0.11988959, -30177.41, 83757.11, 0.0, 10.000879, 9.998628 
2.6899144e+3, 2.9836497e+2, -153170.45, -226623.97, -101226.51, 0.4116269, -0.025426809, -82214.06, -66190.125, 0.0, 9.9998, 9.998868 
2.6895496e+3, 3.0835703e+2, -203885.7, 8316.705, -67959.63, 0.5851608, -0.1680716, 28215.412, 28215.412, 0.0, 9.998148, 10.000926 
2.68918e+3, 3.1835324e+2, -351048.97, -72743.25, -28681.813, 0.08514494, 0.03165265, -69818.086, -69818.086, 0.0, 9.997113, 10.000883 
2.706195e+3, 1.2884946e+2, -987384.3, -1593616.0, 114935.89, 0.2710589, -0.2705975, -966325.06, 710931.06, 0.035537582, 10.006213, 9.997788 
2.7058244e+3, 1.3884166e+2, -1428997.6, -1569925.8, 12996.987, -0.030233549, -0.2228633, -1427809.0, 151532.63, 0.0212677, 10.0014925, 9.999596 
2.7054542e+3, 1.4883849e+2, -1102947.9, -869504.25, -114625.58, -0.012627197, -0.121172674, -822632.06, 658737.94, 0.009415013, 10.000972, 10.003986 
2.705085e+3, 1.5883619e+2, -1170261.9, -1167829.4, -108750.39, 0.12541322, -0.032858536, -1060288.5, 323099.88, 0.0026133023, 10.001145, 10.001177 
2.7047157e+3, 1.6882916e+2, -1462265.6, -1619972.9, 30658.146, 0.058127925, 0.04491221, -1456515.4, -171046.11, 0.00036005196, 10.000069, 9.997868 
2.7043468e+3, 1.7882107e+2, -1500782.3, -1495206.1, 28673.436, -0.068029545, 0.10465505, -1469185.5, -281622.38, 0.000012952271, 9.998701, 9.99875 
2.7039775e+3, 1.8881449e+2, -1043935.5, -874559.8, -59067.2, 0.05585675, 0.040969834, -855995.7, 233625.34, 0.000000000007316074, 9.999702, 10.0018215 
2.7036086e+3, 1.9880815e+2, -973432.94, -993998.44, -42800.348, 0.24948737, -0.06865424, -939697.44, 51974.24, 0.0, 10.000345, 10.000061 
2.703241e+3, 2.0879932e+2, -1042419.7, -1121637.0, 20228.041, 0.4083143, -0.188493, -1037553.4, -143793.73, 0.0, 9.999857, 9.998712 
2.7028736e+3, 2.187905e+2, -1037403.44, -1020741.2, -28126.578, 0.52485263, -0.28212026, -999737.9, -203887.02, 0.0, 9.998983, 9.999183 
2.702502e+3, 2.287877e+2, -638992.25, -505901.94, -171662.45, 0.42389765, 0.031387415, -388337.75, 309544.28, 0.0, 9.999907, 10.001568 
2.7021295e+3, 2.387861e+2, -597455.44, -632053.75, -196413.63, 0.2884614, 0.4017596, -417580.63, 182320.14, 0.0, 10.000338, 9.999853 
2.7017605e+3, 2.4877618e+2, -466623.16, -681154.5, -146800.6, 0.38036034, 0.19165991, -392074.8, 109923.46, 0.0, 10.0013075, 9.998333 
2.7013925e+3, 2.5876462e+2, -330164.03, -626663.4, -128947.695, 0.5134859, -0.13116106, -281930.94, 122181.13, 0.0, 10.001796, 9.997842 
2.7010223e+3, 2.68759e+2, -274849.78, -441730.63, -141060.66, 0.5039536, 0.13374893, -194398.72, 111773.086, 0.0, 10.00106, 9.998765 
2.7006516e+3, 2.7875477e+2, -443850.9, -568168.9, -142183.44, 0.45593783, 0.50756186, -350833.0, -142614.39, 0.0, 9.999604, 9.997958 
2.7002797e+3, 2.8874508e+2, -251389.97, -420965.16, -193186.97, 0.42252088, 0.415704, -125203.3, -14894.215, 0.0, 10.000247, 9.997965 
2.699907e+3, 2.98734e+2, -150103.47, -400991.72, -105167.3, 0.33932027, 0.18855977, -111851.57, -99440.48, 0.0, 10.0005865, 9.9973 
2.69954e+3, 3.0872208e+2, -199179.31, -342648.84, -39413.082, 0.46608493, -0.09630461, -189065.02, -189065.02, 0.0, 9.999709, 9.9977665 
2.6991716e+3, 3.187125e+2, -191496.14, 159445.31, 209818.03, 0.15604353, -0.22272408, 257495.3, 257495.3, 0.0, 9.997539, 10.00229 
2.7161935e+3, 1.292224e+2, -1125059.4, -1800553.6, -55478.17, 0.13683957, 0.009085748, -1120533.3, 553067.4, 0.02840032, 10.0057745, 9.996572 
2.71582e+3, 1.3921027e+2, -1472598.3, -1683416.6, -59701.734, 0.03521592, -0.2528729, -1456865.4, 118864.805, 0.016710699, 10.001562, 9.998784 
2.715449e+3, 1.4920555e+2, -1149158.6, -988991.25, -63430.773, 0.018136878, -0.21736838, -966914.0, 510859.84, 0.0071977535, 10.001078, 10.003099 
2.715079e+3, 1.5920247e+2, -1116478.9, -1125588.1, -87829.99, 0.05444735, -0.12699547, -1033085.5, 346714.34, 0.0019202116, 10.001433, 10.001327 
2.7147093e+3, 1.691969e+2, -1316994.0, -1345024.1, -4443.317, 0.053463407, -0.02623764, -1316306.5, -34444.9, 0.00025324232, 10.000175, 9.999711 
2.7143395e+3, 1.7919068e+2, -1409525.3, -1330033.0, 45960.133, 0.020676315, 0.058991883, -1309016.5, -125085.22, 0.000008369746, 9.99877, 9.999858 
2.7139705e+3, 1.8918432e+2, -1082864.0, -959633.2, 35055.992, 0.067487344, 0.0319821, -950358.7, 135631.4, 0.0, 9.999704, 10.0012455 
2.7136016e+3, 1.99178e+2, -900786.8, -973146.06, 1980.9911, 0.15431115, -0.0213237, -900732.56, 87313.805, 0.0, 10.0008955, 9.999938 
2.7132338e+3, 2.0917058e+2, -1033974.1, -1082442.1, 2012.125, 0.36803213, -0.0028415187, -1033890.75, -143770.31, 0.0, 9.99977, 9.999025 
2.7128658e+3, 2.1916284e+2, -1186240.5, -1196103.8, 1092.2537, 0.55749905, 0.015622682, -1186120.9, -393920.88, 0.0, 9.998383, 9.998272 
2.712494e+3, 2.2915478e+2, -917890.25, -1000642.56, -104413.96, 0.37380207, 0.064619295, -846953.2, -152665.06, 0.0, 9.999533, 9.998361 
2.7121222e+3, 2.3914735e+2, -574439.9, -773240.8, -202731.11, 0.15091221, 0.14017351, -448052.06, 148317.78, 0.0, 10.00112, 9.998507 
2.7117538e+3, 2.491405e+2, -310063.13, -486029.9, -174024.42, 0.23496787, 0.20078407, -203045.03, 295393.06, 0.0, 10.001842, 9.99943 
2.711386e+3, 2.591334e+2, -228758.7, -478347.6, -180256.36, 0.377517, 0.22344872, -134313.55, 266193.53, 0.0, 10.002048, 9.998731 
2.711014e+3, 2.691253e+2, -368919.38, -486744.38, -251709.89, 0.30593243, 0.21042022, -169319.69, 133266.17, 0.0, 10.000398, 9.998781 
2.710641e+3, 2.791174e+2, -545297.5, -530569.3, -201071.5, 0.2314902, 0.20444183, -336727.13, -132064.34, 0.0, 9.998534, 9.998718 
2.710271e+3, 2.8910863e+2, -176061.95, -220247.22, -124474.266, 0.255637, 0.07686471, -71734.94, 35005.113, 0.0, 10.00007, 9.999417 
2.7099007e+3, 2.990995e+2, 136314.98, -141706.97, -20509.574, 0.25820374, -0.082990535, 137819.81, 146639.83, 0.0, 10.002013, 9.998389 
2.709535e+3, 3.0909017e+2, 134646.28, -129948.984, 61127.08, 0.53346443, -0.1630078, 148085.34, 148085.34, 0.0, 10.001772, 9.998232 
2.7091634e+3, 3.1908172e+2, -328956.53, -142638.02, -65520.008, 0.21230645, -0.15781662, -121904.695, -121904.695, 0.0, 9.997623, 10.000153 
2.7261883e+3, 1.2959267e+2, -1519915.5, -1843759.8, -91439.63, -0.08622587, -0.09540938, -1495880.8, 174093.03, 0.022174302, 10.002334, 9.997931 
2.7258152e+3, 1.3958275e+2, -1466418.8, -1697478.1, 53380.38, 0.05838189, -0.22647655, -1454682.8, 117395.43, 0.012780927, 10.001669, 9.998641 
2.7254435e+3, 1.4957649e+2, -1272287.0, -1252722.5, 91017.68, 0.060026083, -0.20372061, -1170962.9, 303174.34, 0.0053271013, 10.001101, 10.00126 
2.725073e+3, 1.5957123e+2, -1357915.6, -1360175.5, 1483.1396, 0.07967854, -0.15380174, -1357181.0, 19004.55, 0.0013580795, 10.000297, 10.000266 
2.7247033e+3, 1.6956504e+2, -1256552.0, -1262460.0, -30304.88, 0.09933632, -0.112822644, -1229057.5, 49192.047, 0.00016970174, 10.000392, 10.00017 
2.724333e+3, 1.7955887e+2, -1232671.8, -1277441.4, -46126.785, 0.1039027, -0.05991315, -1203785.1, -23470.664, 0.0000049540654, 10.000172, 9.9995365 
2.723964e+3, 1.895523e+2, -1023510.3, -1067644.9, -72968.73, 0.07561043, -0.02974815, -969345.06, 113035.19, 0.0, 10.000739, 9.99999 
2.7235952e+3, 1.9954583e+2, -939524.8, -1050973.6, -176566.97, 0.08445873, -0.0013150345, -810097.6, 174346.2, 0.0, 10.000912, 9.999389 
2.7232268e+3, 2.0953964e+2, -822321.0, -897452.94, -183830.17, 0.3145934, 0.076813, -672257.7, 214247.33, 0.0, 10.000891, 9.999739 
2.722858e+3, 2.1953304e+2, -955761.3, -1136785.0, -86659.266, 0.5269278, 0.15236968, -920964.7, -132392.95, 0.0, 10.000227, 9.997785 
2.722487e+3, 2.2952218e+2, -916158.75, -1185729.6, 14014.032, 0.3307645, 0.04437471, -915432.2, -224743.48, 0.0, 10.000367, 9.996678 
2.7221158e+3, 2.3951133e+2, -776554.3, -963155.6, 53489.746, 0.08572917, -0.05504423, -762308.9, -169502.27, 0.0, 10.000167, 9.997657 
2.7217478e+3, 2.4950646e+2, -427562.75, -461077.88, 40232.664, 0.1327953, 0.18937702, -400737.25, 94119.33, 0.0, 10.000716, 10.000126 
2.7213794e+3, 2.5950226e+2, -388017.7, -526497.5, -56160.164, 0.20723055, 0.45640415, -368105.3, 28792.115, 0.0, 10.000856, 9.998978 
2.7210054e+3, 2.6949212e+2, -302438.94, -437290.56, -169441.38, 0.10261958, 0.2244238, -187500.77, 111491.77, 0.0, 10.000809, 9.998907 
2.720631e+3, 2.794812e+2, -312325.66, -365873.53, -63424.344, -0.0013348446, -0.09154163, -270255.63, -69162.06, 0.0, 9.999929, 9.999181 
2.7202624e+3, 2.894731e+2, -191339.56, -80780.95, 23251.121, 0.07658129, -0.2576637, -76090.13, 27071.19, 0.0, 9.999344, 10.000723 
2.7198943e+3, 2.994659e+2, -265638.0, -214575.8, 42753.7, 0.12381006, -0.34688017, -190310.16, -185089.78, 0.0, 9.998752, 9.999459 
2.719531e+3, 3.0945987e+2, -138822.3, -132458.52, 65413.24, 0.64835906, -0.20734993, -70149.83, -70149.83, 0.0, 9.999334, 9.999383 
2.719152e+3, 3.1945312e+2, -487021.63, -633606.6, -581136.0, 0.001578066, -0.041769937, 25425.395, 25425.395, 0.0, 9.998337, 9.99644 
2.7361807e+3, 1.2996188e+2, -1408327.3, -1473621.9, -107504.31, -0.4031948, -0.40836498, -1328622.3, 337735.8, 0.01683331, 10.001726, 10.000788 
2.7358097e+3, 1.3995826e+2, -1388154.8, -1608035.3, 40497.387, 0.009726553, -0.13183866, -1380933.1, 187461.2, 0.009463002, 10.00198, 9.999106 
2.7354383e+3, 1.4995028e+2, -1418656.8, -1605734.8, 80111.2, 0.097194485, -0.10576479, -1389039.9, 81430.94, 0.0037922803, 10.001312, 9.998723 
2.735068e+3, 1.5994179e+2, -1428312.1, -1577448.6, 6393.3525, 0.1557246, -0.14442681, -1428038.5, -55486.117, 0.0009170214, 10.000607, 9.99861 
2.7346975e+3, 1.6993321e+2, -1299655.3, -1376913.1, -2544.5571, 0.17759664, -0.22473544, -1299571.5, -24934.291, 0.0001065257, 10.0005245, 9.999308 
2.7343276e+3, 1.7992498e+2, -1252436.6, -1440115.9, -17140.166, 0.1672581, -0.2730062, -1250884.1, -74163.766, 0.0000025959862, 10.000678, 9.998173 
2.7339584e+3, 1.8991703e+2, -1121083.0, -1359151.1, -52461.49, 0.09778069, -0.17826828, -1110035.0, -31228.559, 0.0, 10.001085, 9.997844 
2.7335894e+3, 1.9990961e+2, -873907.5, -1030981.4, -178475.73, 0.05706624, -0.076800495, -757453.06, 223433.36, 0.0, 10.001383, 9.999291 
2.7332202e+3, 2.0990363e+2, -636885.7, -627441.44, -189363.97, 0.21960083, -0.095591016, -442740.72, 440203.16, 0.0, 10.001359, 10.001372 
2.732851e+3, 2.198979e+2, -644198.7, -738738.44, -85637.664, 0.38758352, -0.102331385, -593651.1, 191347.13, 0.0, 10.001271, 10.000012 
2.732481e+3, 2.298914e+2, -660796.8, -762170.94, 50755.973, 0.3553347, -0.023913134, -639752.8, 47311.67, 0.0, 10.000819, 9.999368 
2.7321112e+3, 2.3988445e+2, -665362.06, -764242.6, 161123.98, 0.2807138, 0.04441322, -546263.7, 42872.773, 0.0, 10.000291, 9.998955 
2.7317423e+3, 2.4987687e+2, -511647.84, -575235.8, 164204.98, 0.20457886, 0.050240982, -376187.13, 115027.125, 0.0, 10.000449, 9.999475 
2.7313727e+3, 2.598697e+2, -389846.22, -500341.56, 56531.21, 0.1465023, 0.07655811, -366049.1, 27238.201, 0.0, 10.0007105, 9.999222 
2.731e+3, 2.6986253e+2, -163871.84, -287864.34, -34941.887, 0.10237883, 0.09792971, -154703.0, 140652.42, 0.0, 10.001384, 9.99967 
2.7306265e+3, 2.798549e+2, -64453.88, -232832.55, 24714.215, 0.108946234, 0.068152785, -60901.34, 136525.17, 0.0, 10.0015335, 9.999333 
2.7302554e+3, 2.8984654e+2, -347031.6, -248667.98, 9214.641, 0.1671071, -0.047527257, -247812.2, -148311.52, 0.0, 9.998655, 9.999922 
2.7298847e+3, 2.9983863e+2, -686486.7, -379752.94, 65037.56, 0.19362168, -0.14042546, -366532.66, -364962.06, 0.0, 9.995708, 9.9997835 
2.729521e+3, 3.0983216e+2, -452753.34, -140844.1, 163341.84, 0.6052838, -0.1446943, -70961.6, -70961.6, 0.0, 9.996579, 10.000639 
2.7291462e+3, 3.1982595e+2, -49430.137, -349796.56, -255721.73, 0.15990525, -0.010623599, 96947.95, 96947.95, 0.0, 10.001044, 9.997065 
2.746175e+3, 1.3033502e+2, -2002180.4, -1730471.1, 33177.773, -0.22857767, -0.2716123, -1726478.5, -63773.547, 0.012335995, 9.997526, 10.001013 
2.7458072e+3, 1.4033179e+2, -1035050.7, -1506800.5, -76964.73, 0.108885124, 0.025170544, -1022811.6, 541925.56, 0.0067410422, 10.004746, 9.998458 
2.7454352e+3, 1.503218e+2, -1041823.4, -1572138.6, -96266.84, 0.17077604, -0.05662107, -1024889.0, 441943.72, 0.002584837, 10.004551, 9.997388 
2.7450636e+3, 1.6031142e+2, -1132932.6, -1541720.6, -77408.87, 0.23682337, -0.16922282, -1118765.4, 250166.92, 0.0005889778, 10.003105, 9.997647 
2.744693e+3, 1.7030251e+2, -1033746.9, -1309908.1, -30829.232, 0.24314663, -0.23730324, -1030347.1, 240672.16, 0.00006228534, 10.00259, 9.9987755 
2.7443227e+3, 1.8029386e+2, -1130870.5, -1421503.3, 14675.945, 0.22209673, -0.2755012, -1130131.4, 42973.73, 0.0000011486238, 10.001702, 9.997807 
2.7439535e+3, 1.9028553e+2, -1158756.8, -1357513.3, 151350.84, 0.16388854, -0.2244542, -1077074.0, -1879.9872, 0.0, 10.000767, 9.997986 
2.743584e+3, 2.0027779e+2, -1123255.3, -1145734.3, 171965.19, 0.10367093, -0.14093788, -962162.7, 15114.992, 0.0, 9.999681, 9.999325 
2.7432138e+3, 2.1027192e+2, -788746.6, -665941.9, 61820.86, 0.16889726, -0.14433537, -640211.75, 239124.6, 0.0, 10.0001955, 10.001659 
2.742844e+3, 2.202665e+2, -718280.4, -693952.56, 32480.83, 0.2601646, -0.14600234, -671432.7, 109955.945, 0.0, 10.000453, 10.000709 
2.742475e+3, 2.302617e+2, -523408.0, -527329.25, 18559.434, 0.32145932, -0.024032544, -506705.94, 176726.23, 0.0, 10.001077, 10.000839 
2.7421057e+3, 2.4025658e+2, -561021.0, -695800.56, 13888.102, 0.34646803, 0.102622345, -559604.8, 25875.338, 0.0, 10.000958, 9.999104 
2.7417362e+3, 2.5024688e+2, -621649.2, -722188.1, 7673.095, 0.22346772, -0.068263784, -621067.0, -133487.27, 0.0, 10.000095, 9.998635 
2.7413657e+3, 2.602376e+2, -629829.6, -622663.1, -80492.0, 0.08898821, -0.20455894, -545674.6, -155999.44, 0.0, 9.999105, 9.999155 
2.7409938e+3, 2.7023333e+2, -325849.78, -266929.72, -123528.29, 0.122978, 0.016813379, -169397.1, 122318.516, 0.0, 9.99985, 10.000548 
2.740622e+3, 2.8022894e+2, -280772.56, -378778.4, -107346.3, 0.19148573, 0.24864747, -211773.3, -18016.943, 0.0, 10.000256, 9.998943 
2.7402484e+3, 2.9022023e+2, -316834.44, -357851.53, -176888.28, 0.277712, 0.17605534, -159269.78, -63431.215, 0.0, 9.999407, 9.998802 
2.739875e+3, 3.0021143e+2, -386871.44, -249372.92, -29307.242, 0.25992027, 0.07072524, -243386.81, -243386.81, 0.0, 9.997845, 9.999648 
2.7395093e+3, 3.1020433e+2, -275169.88, 53788.883, 104884.34, 0.40570197, -0.0847473, 84384.34, 84384.34, 0.0, 9.997334, 10.001612 
2.7391452e+3, 3.201992e+2, -128725.06, -231764.25, 108317.516, 0.604733, 0.039219465, -60299.035, -60299.035, 0.0, 9.9997835, 9.998508 
2.75617e+3, 1.307095e+2, -1944425.9, -1855720.4, 343628.78, 0.15885489, 0.058714006, -1553593.9, 105445.82, 0.008664529, 9.998567, 9.999668 
2.7558067e+3, 1.4070308e+2, -1092955.8, -1610626.4, 36425.79, 0.23638612, 0.16299227, -1090405.3, 470701.7, 0.0045890985, 10.004651, 9.99779 
2.755434e+3, 1.5069151e+2, -1077502.5, -1607217.6, -127848.29, 0.26266843, -0.040898103, -1048260.25, 414956.56, 0.001677919, 10.004388, 9.997228 
2.755061e+3, 1.6068037e+2, -1096773.0, -1519531.9, -79476.95, 0.30822703, -0.21269454, -1082325.4, 282997.22, 0.00035822205, 10.003314, 9.997701 
2.7546895e+3, 1.7067319e+2, -1010109.1, -1309116.4, -27837.248, 0.29050705, -0.096875146, -1007539.6, 259854.77, 0.000033741435, 10.002771, 9.998703 
2.7543184e+3, 1.8066648e+2, -911509.94, -1064482.0, 4567.8687, 0.26166064, 0.0037008638, -911373.6, 258087.03, 0.00000040337267, 10.002096, 10.000065 
2.753949e+3, 1.9065967e+2, -890360.7, -816003.1, 154233.33, 0.28631273, -0.12354768, -694530.8, 376991.88, 0.0, 10.000825, 10.0016775 
2.7535787e+3, 2.006533e+2, -1055253.6, -1052027.3, 236589.3, 0.29720926, -0.17426889, -817045.6, 156537.52, 0.0, 9.999855, 9.999897 
2.7532077e+3, 2.1064831e+2, -939827.8, -995629.8, 157049.95, 0.24250394, 0.086724006, -808219.7, 67422.99, 0.0, 10.000216, 9.999418 
2.7528372e+3, 2.2064264e+2, -813802.4, -944669.6, 110289.9, 0.19391191, 0.2847214, -750996.3, 26710.832, 0.0, 10.000682, 9.998862 
2.7524674e+3, 2.3063296e+2, -598112.6, -767048.4, 59040.848, 0.12574796, 0.11122662, -579524.0, 100275.234, 0.0, 10.001438, 9.999019 
2.7520978e+3, 2.4062347e+2, -517700.06, -806233.8, -43270.035, 0.08597121, -0.031321015, -511350.78, 70539.15, 0.0, 10.001774, 9.997959 
2.7517283e+3, 2.5061497e+2, -676771.44, -845058.4, -109101.055, 0.12712365, 0.012346682, -623135.5, -139155.78, 0.0, 10.000096, 9.997805 
2.7513582e+3, 2.6060715e+2, -666374.4, -567612.8, -151153.39, 0.1628, 0.05984765, -457978.47, -71916.93, 0.0, 9.998523, 9.99981 
2.7509868e+3, 2.706021e+2, -339683.16, -108101.49, -147994.44, 0.179638, 0.07787888, -35983.117, 252120.4, 0.0, 9.99906, 10.002007 
2.7506152e+3, 2.8059676e+2, -333732.4, -369838.34, -144685.13, 0.24223375, 0.09813311, -205978.33, -15829.662, 0.0, 9.999756, 9.999233 
2.7502424e+3, 2.9058716e+2, -234350.75, -404438.22, -227225.06, 0.36546233, -0.0054812026, -76776.14, 15465.603, 0.0, 10.000375, 9.998007 
2.7498683e+3, 3.005779e+2, -51261.68, -158752.16, -118914.125, 0.32022557, -0.08441706, 25488.746, 25488.746, 0.0, 10.00044, 9.99903 
2.749497e+3, 3.1057215e+2, -149554.28, 15283.72, -75018.65, 0.04674938, -0.028400496, 44312.867, 44312.867, 0.0, 9.998584, 10.000777 
2.749136e+3, 3.2056668e+2, -524575.0, -490475.94, 117027.37, 0.56746626, 0.13567668, -389262.66, -389262.66, 0.0, 9.99733, 9.997919 
2.7661672e+3, 1.3107802e+2, -1338413.3, -1723650.3, 248284.81, 0.35240865, 0.051351354, -1216791.0, 438634.97, 0.0058009475, 10.003424, 9.9982395 
2.765802e+3, 1.4107017e+2, -1602520.0, -1826308.0, -101691.59, 0.17882036, 0.091150604, -1563213.9, -5704.312, 0.0029651523, 10.001026, 9.998054 
2.76543e+3, 1.5106088e+2, -1350879.6, -1562208.9, -173315.94, 0.2864795, -0.0386579, -1253558.0, 206039.64, 0.0010274169, 10.00174, 9.998813 
2.765058e+3, 1.6105163e+2, -1210753.6, -1486437.0, -22629.322, 0.40860772, -0.15082847, -1208908.4, 152776.55, 0.00020335741, 10.002174, 9.998481 
2.7646852e+3, 1.7104442e+2, -1143422.9, -1323598.3, 59224.34, 0.30768317, -0.08509541, -1125699.1, 138057.13, 0.000016580547, 10.0016775, 9.999122 
2.7643126e+3, 1.8103798e+2, -991671.4, -1009642.1, 96562.28, 0.21303324, -0.0012010189, -903677.3, 262141.42, 0.00000009587778, 10.001183, 10.000879 
2.7639434e+3, 1.9103229e+2, -583522.1, -532608.9, 54509.32, 0.27896255, -0.13322617, -497904.84, 569961.1, 0.0, 10.002363, 10.002884 
2.7635735e+3, 2.0102684e+2, -681177.25, -917056.94, -15442.799, 0.32288963, -0.17918004, -680170.5, 289743.78, 0.0, 10.002646, 9.999476 
2.7632013e+3, 2.1102194e+2, -932362.3, -1127900.1, -16821.895, 0.21664584, 0.16764162, -930925.7, -58948.906, 0.0, 10.000893, 9.99816 
2.7628297e+3, 2.2101589e+2, -1094274.3, -1213505.9, 75282.46, 0.09797725, 0.4425532, -1057861.5, -283812.22, 0.0, 9.999353, 9.997657 
2.7624607e+3, 2.310037e+2, -812631.75, -977194.1, 157240.02, 0.0061246473, 0.10598998, -717445.7, -41279.1, 0.0, 10.000433, 9.998058 
2.7620915e+3, 2.4099205e+2, -669859.56, -965902.25, 94473.8, -0.052599706, -0.14731145, -642280.2, -64000.75, 0.0, 10.001141, 9.997165 
2.7617213e+3, 2.509849e+2, -583307.7, -835559.5, 51326.64, 0.07920689, 0.08180323, -573264.0, -92906.19, 0.0, 10.00092, 9.997464 
2.761351e+3, 2.6097822e+2, -449547.63, -449506.13, 53079.5, 0.2015679, 0.28353137, -396447.38, -14018.334, 0.0, 9.999997, 9.999906 
2.7609792e+3, 2.7097148e+2, -335526.03, -55586.203, -32612.781, 0.2064852, 0.10709492, -51837.047, 232647.4, 0.0, 9.998903, 10.002437 
2.760608e+3, 2.8096423e+2, -584848.75, -525549.9, -116456.84, 0.25355983, -0.07263451, -435027.4, -248482.1, 0.0, 9.998196, 9.998916 
2.7602363e+3, 2.9095376e+2, -339410.13, -521572.63, -157763.97, 0.41093254, -0.21520615, -248323.16, -159675.02, 0.0, 9.999939, 9.99741 
2.7598622e+3, 3.0094436e+2, -65324.51, -276456.84, -82295.69, 0.3127368, -0.23291326, -37037.043, -37037.043, 0.0, 10.000842, 9.998021 
2.7594855e+3, 3.1093982e+2, -107328.84, -109912.47, -98515.89, -0.3091449, 0.06427382, -10096.294, -10096.294, 0.0, 9.999512, 9.999461 
2.759125e+3, 3.209322e+2, -657892.2, -627535.5, 283328.47, 0.3513373, 0.1337019, -358979.13, -358979.13, 0.0, 9.99681, 9.997192 
2.7761644e+3, 1.314428e+2, -1399264.6, -1920687.0, 148654.58, 0.3698766, -0.17421792, -1359861.6, 291983.06, 0.0036677546, 10.003713, 9.996744 
2.7757943e+3, 1.4143427e+2, -1473370.1, -1584067.6, -93112.08, -0.047630884, -0.14301725, -1420398.3, 133537.25, 0.001797831, 10.001134, 9.9996605 
2.7754244e+3, 1.5143022e+2, -1124647.3, -1104713.5, -101435.26, 0.24071415, -0.028313082, -1012756.7, 443216.66, 0.00058470643, 10.001785, 10.001931 
2.7750546e+3, 1.6142505e+2, -1030246.9, -1184831.4, -5855.394, 0.49857116, -0.002961554, -1030025.4, 327995.38, 0.00010500734, 10.002462, 10.000414 
2.7746794e+3, 1.7141597e+2, -1048323.6, -1156380.8, 62783.844, 0.2652642, -0.24364483, -1019521.7, 240584.02, 0.0000068884756, 10.001784, 10.000229 
2.7743056e+3, 1.8140769e+2, -1015599.4, -1125780.9, 152711.3, 0.044710994, -0.3870477, -908345.6, 253838.2, 0.00000000965895, 10.001467, 9.999942 
2.773937e+3, 1.9140221e+2, -696997.3, -867327.8, 122853.59, 0.062276166, -0.2705641, -632676.4, 431560.97, 0.0, 10.00277, 10.0004 
2.7735677e+3, 2.0139645e+2, -595945.4, -913197.56, -73805.43, 0.08550457, -0.16125175, -579615.9, 386678.8, 0.0, 10.003382, 9.999142 
2.7731937e+3, 2.1138911e+2, -841137.75, -997379.9, -116400.43, 0.02767966, -0.10775084, -779073.4, 89300.69, 0.0, 10.001148, 9.998933 
2.7728212e+3, 2.2138177e+2, -968273.1, -969697.5, 86124.96, 0.006832753, -0.06213696, -882857.44, -112405.31, 0.0, 9.999406, 9.999312 
2.7724558e+3, 2.3137368e+2, -692821.06, -710209.0, 249625.45, 0.15592091, -0.16155735, -451738.2, 220790.77, 0.0, 10.000333, 9.999959 
2.7720892e+3, 2.4136586e+2, -524395.5, -693855.25, 204863.11, 0.2667328, -0.2080292, -387431.78, 187172.84, 0.0, 10.001278, 9.998953 
2.7717176e+3, 2.513596e+2, -377240.5, -581252.7, 187507.42, 0.2346447, -0.017915614, -265788.7, 210883.5, 0.0, 10.0016775, 9.998847 
2.771345e+3, 2.6135284e+2, -354246.72, -561804.3, 153133.73, 0.21281837, 0.14244696, -273039.1, 105704.63, 0.0, 10.001335, 9.998484 
2.770971e+3, 2.713435e+2, -563572.5, -554652.75, -23909.436, 0.18963997, 0.030167136, -534790.75, -253958.78, 0.0, 9.998997, 9.998976 
2.7705985e+3, 2.813342e+2, -739133.75, -675001.0, -37670.184, 0.23733862, -0.090002365, -657597.25, -474676.97, 0.0, 9.997443, 9.998245 
2.770229e+3, 2.9132494e+2, -270774.06, -386983.7, 5384.083, 0.38614136, -0.16327842, -270525.16, -185512.98, 0.0, 9.999944, 9.998333 
2.769857e+3, 3.0131656e+2, 41583.2, -296402.0, 21525.586, 0.3110956, -0.11517656, 42948.6, 42948.6, 0.0, 10.001873, 9.997376 
2.7694803e+3, 3.1131086e+2, -70747.88, -287053.75, -62240.883, -0.20571727, 0.23039532, -54117.066, -54117.066, 0.0, 10.000599, 9.997714 
2.769118e+3, 3.212995e+2, -485917.5, -200200.11, 80015.12, 0.6327335, -0.03646757, -179318.08, -179318.08, 0.0, 9.9964905, 10.000276 
2.7861616e+3, 1.3181296e+2, -905325.3, -1590791.9, 186745.1, 0.1805472, -0.2180033, -857751.25, 790462.44, 0.0021556194, 10.006773, 9.9975 
2.7857903e+3, 1.4180298e+2, -1266135.4, -1471967.1, 80962.43, 0.053555217, -0.37586796, -1238106.3, 312206.97, 0.0010016497, 10.0025, 9.999775 
2.7854183e+3, 1.5180027e+2, -1353048.9, -1217821.8, -53243.383, 0.19471899, -0.10870361, -1199374.6, 252969.88, 0.0002997044, 10.000241, 10.001894 
2.7850467e+3, 1.617967e+2, -1538511.9, -1375176.4, -102311.86, 0.36257958, 0.058368035, -1325934.4, 28446.432, 0.00004641634, 9.998765, 10.000883 
2.784673e+3, 1.717879e+2, -1242766.0, -1164479.8, -62932.203, 0.20736113, -0.24512173, -1129510.5, 126949.64, 0.0000020738605, 10.000101, 10.0009775 
2.7843e+3, 1.8177941e+2, -1148255.4, -1259062.4, 55253.434, 0.034192912, -0.4472509, -1125412.5, 33125.516, 0.00000000000031198744, 10.000868, 9.9993105 
2.7839318e+3, 1.9177328e+2, -1084771.4, -1180829.4, 138203.06, 0.0346225, -0.30790284, -986489.56, 74111.266, 0.0, 10.000681, 9.999234 
2.7835622e+3, 2.0176695e+2, -1019148.44, -1124032.4, -18576.275, 0.024931759, -0.17213097, -1015955.56, -53289.676, 0.0, 10.000544, 9.999047 
2.7831867e+3, 2.117585e+2, -762529.6, -882972.7, -82419.63, -0.076512605, -0.2833925, -720674.56, 144075.52, 0.0, 10.001386, 9.999597 
2.782814e+3, 2.217506e+2, -652674.1, -741113.4, 127145.18, -0.07487374, -0.35322073, -562278.5, 204549.83, 0.0, 10.001269, 9.999979 
2.7824503e+3, 2.3174474e+2, -658760.1, -591649.06, 201084.22, 0.2534786, -0.32476074, -421339.84, 247543.95, 0.0, 10.000142, 10.000855 
2.782085e+3, 2.4173926e+2, -746004.44, -683829.9, 71856.35, 0.4647947, -0.24054009, -636624.4, -65687.77, 0.0, 9.999278, 9.999987 
2.7817124e+3, 2.517339e+2, -502249.63, -491801.03, 45083.39, 0.277819, -0.10598383, -451640.25, 21352.742, 0.0, 10.00021, 10.000157 
2.7813387e+3, 2.617273e+2, -552808.5, -812776.9, -31829.076, 0.12430759, 0.015729314, -548968.25, -173906.42, 0.0, 10.000649, 9.997094 
2.7809632e+3, 2.7171618e+2, -572083.4, -861992.25, -91002.22, 0.14484355, -0.045146443, -545885.25, -268711.6, 0.0, 10.00025, 9.996263 
2.7805895e+3, 2.8170556e+2, -495001.34, -613304.44, 93595.96, 0.20500542, -0.086079165, -443432.03, -264151.7, 0.0, 9.999384, 9.997732 
2.7802217e+3, 2.9169735e+2, -286920.22, -312646.75, 149793.39, 0.33726177, -0.10550547, -149438.78, -68075.31, 0.0, 9.999497, 9.999055 
2.779851e+3, 3.0168983e+2, -309382.66, -536316.75, 56474.293, 0.27155042, 0.011761213, -296105.4, -296105.4, 0.0, 9.999789, 9.996736 
2.7794755e+3, 3.1168315e+2, -269939.84, -516462.5, 11876.834, -0.016079733, 0.3697273, -269368.97, -269368.97, 0.0, 9.999841, 9.996497 
2.779111e+3, 3.2166854e+2, -31187.908, 446761.84, -139243.3, 0.9394209, -0.24160098, 484369.13, 484369.13, 0.0, 9.997754, 10.004137 
2.7961588e+3, 1.3218623e+2, -843096.3, -1306044.3, 26058.303, -0.11188363, -0.23326139, -841634.2, 802919.3, 0.0011582791, 10.006069, 9.999811 
2.795789e+3, 1.42175e+2, -1347078.0, -1622922.3, -12022.887, 0.35965836, -0.61358815, -1346554.9, 200101.6, 0.00050213956, 10.002415, 9.998781 
2.7954108e+3, 1.5217079e+2, -1529172.5, -1592309.5, -103211.78, 0.10155591, -0.2590418, -1452809.3, -4095.1587, 0.0001341216, 10.000281, 9.999304 
2.7950352e+3, 1.6216654e+2, -1537527.0, -1432233.1, -61815.36, -0.0019549157, 0.031734556, -1403683.8, -52917.547, 0.00001642319, 9.998999, 10.000386 
2.7946657e+3, 1.7216024e+2, -1201792.5, -1110213.3, 7104.8467, 0.14283015, -0.029762534, -1109665.4, 143155.52, 0.0000003300107, 10.000216, 10.001303 
2.7942967e+3, 1.8215345e+2, -1041122.06, -1108379.3, 71285.3, 0.23960078, -0.114752084, -995931.4, 158949.72, 0.0, 10.001129, 10.000234 
2.793928e+3, 1.9214566e+2, -1022269.9, -1039766.0, 138822.72, 0.294197, -0.22893575, -891919.9, 165036.39, 0.0, 10.0006, 10.00026 
2.7935582e+3, 2.0213862e+2, -964419.2, -992574.5, 34537.65, 0.26105222, -0.25764686, -941200.4, 17824.154, 0.0, 10.000469, 9.999975 
2.793182e+3, 2.1213259e+2, -672086.94, -768378.44, 7895.8096, -0.021067172, -0.18343577, -671443.8, 189638.23, 0.0, 10.001707, 10.000229 
2.7928087e+3, 2.2212575e+2, -577867.56, -813194.25, 142135.02, -0.15017895, -0.14765374, -511012.56, 252135.84, 0.0, 10.002211, 9.999029 
2.7924427e+3, 2.3211695e+2, -761233.06, -844309.5, 127197.516, 0.15627666, -0.23789364, -668963.1, -3727.2952, 0.0, 10.000283, 9.999047 
2.7920756e+3, 2.4210957e+2, -778546.4, -682272.4, 33685.105, 0.32143986, -0.23822917, -671656.9, -104347.234, 0.0, 9.998956, 10.000154 
2.7917027e+3, 2.5210524e+2, -493455.34, -408375.7, 28866.895, 0.006418951, -0.06640431, -399506.03, 69848.625, 0.0, 9.999876, 10.0009165 
2.7913293e+3, 2.6209968e+2, -410287.9, -543779.8, -60112.555, -0.16070017, 0.049551606, -387208.8, -15798.286, 0.0, 10.000734, 9.9989 
2.790957e+3, 2.720901e+2, -245242.78, -465881.56, -40401.383, 0.11752595, -0.060913976, -238077.55, 35425.844, 0.0, 10.00145, 9.998404 
2.790585e+3, 2.8208026e+2, -216014.97, -480147.3, 169013.61, 0.34206915, -0.1557705, -133588.55, 42012.477, 0.0, 10.0013275, 9.997687 
2.7902138e+3, 2.9207036e+2, -404089.34, -496648.06, 158200.03, 0.3118181, -0.22923847, -285538.4, -207835.08, 0.0, 9.999256, 9.997892 
2.7898425e+3, 3.0206248e+2, -436637.47, -402942.06, 142797.16, 0.23882255, -0.12871824, -276002.16, -276002.16, 0.0, 9.998056, 9.9984865 
2.7894726e+3, 3.120595e+2, -56433.95, -92946.23, 226181.67, 0.40762198, 0.3395552, 152227.16, 152227.16, 0.0, 9.999903, 9.999387 
2.7890992e+3, 3.2204804e+2, 258000.14, 438966.84, -49072.09, 0.51751316, -0.08129312, 451417.0, 451417.0, 0.0, 10.000363, 10.002823 
2.8061554e+3, 1.3256204e+2, -1437336.9, -1408186.5, 65632.97, -0.103755414, -0.19668657, -1355529.9, 285345.16, 0.00056117884, 10.001186, 10.001474 
2.805784e+3, 1.4255269e+2, -1425693.5, -1715443.5, 66667.78, 0.3522565, -0.4744208, -1411090.1, 131863.75, 0.00022472383, 10.002135, 9.99828 
2.8054062e+3, 1.5254664e+2, -1135845.1, -1538014.3, 81800.93, 0.14780687, -0.1891729, -1119843.5, 325187.9, 0.00005269784, 10.003557, 9.998106 
2.8050306e+3, 1.6254047e+2, -840702.6, -1187868.9, 217319.38, 0.0485532, 0.03934117, -736151.25, 610953.0, 0.0000047753, 10.004216, 9.999533 
2.8046608e+3, 1.7253329e+2, -778177.2, -980176.44, 212645.28, 0.16749671, -0.02920558, -643764.5, 605403.25, 0.00000002399446, 10.003453, 10.000628 
2.804292e+3, 1.825265e+2, -832578.06, -987553.75, 184549.77, 0.28815192, -0.061598256, -709908.5, 441319.94, 0.0, 10.002535, 10.000373 
2.8039235e+3, 1.925196e+2, -824125.56, -879478.7, 187498.9, 0.3831522, -0.13371861, -662271.56, 391022.94, 0.0, 10.001735, 10.000795 
2.8035533e+3, 2.0251264e+2, -916648.56, -1002452.06, 65157.727, 0.35942423, -0.16670607, -881536.94, 73823.73, 0.0, 10.000952, 9.999678 
2.8031772e+3, 2.1250606e+2, -798823.4, -859094.8, -20116.232, 0.04389501, -0.12979005, -792726.2, 64695.56, 0.0, 10.000969, 9.999953 
2.8028035e+3, 2.2249898e+2, -860328.25, -1037399.8, 36624.6, -0.14297803, -0.08193387, -853052.0, -93562.49, 0.0, 10.000697, 9.998216 
2.8024355e+3, 2.3248932e+2, -871277.25, -1001523.6, 83282.58, 0.08399845, -0.17637499, -830679.06, -169092.33, 0.0, 10.000017, 9.9980955 
2.8020665e+3, 2.4248095e+2, -802109.44, -691147.0, 98288.29, 0.17020336, -0.20576464, -633762.1, -70091.26, 0.0, 9.998823, 10.000146 
2.801693e+3, 2.5247625e+2, -811781.75, -505715.88, 88846.695, -0.17609487, -0.11021162, -481794.53, -16077.4375, 0.0, 9.9974985, 10.001369 
2.8013206e+3, 2.624713e+2, -841254.2, -581150.3, -21669.69, -0.32904115, -0.013879262, -579357.3, -211591.97, 0.0, 9.997078, 10.000398 
2.800951e+3, 2.72464e+2, -374271.47, -283235.56, -34661.81, 0.11887845, -0.114782475, -271540.53, -1707.1007, 0.0, 9.999526, 10.000579 
2.80058e+3, 2.824555e+2, -315234.34, -573123.9, 71993.234, 0.41697624, -0.20032695, -296497.75, -124581.12, 0.0, 10.000849, 9.997291 
2.800206e+3, 2.9244414e+2, -364350.1, -602858.8, 78968.64, 0.23273355, -0.32413587, -340574.22, -266538.75, 0.0, 10.00008, 9.996776 
2.799833e+3, 3.0243593e+2, -168714.3, -56731.582, 160169.77, 0.16513944, -0.25605983, 56951.414, 56951.414, 0.0, 9.998982, 10.000413 
2.7994698e+3, 3.1243598e+2, -15395.081, 268559.8, 209738.14, 0.80699867, 0.22023301, 379856.28, 379856.28, 0.0, 9.998723, 10.002435 
2.7990833e+3, 3.2242936e+2, -51471.996, -51581.77, -164170.02, -0.4095127, 0.18267754, 112643.15, 112643.15, 0.0, 9.999772, 9.999708 
2.8161505e+3, 1.3294025e+2, -1353114.3, -1230846.5, 96022.01, -0.013086618, -0.08334001, -1178149.0, 459028.63, 0.0002454923, 10.00115, 10.002722 
2.8157768e+3, 1.429345e+2, -1412122.1, -1669519.4, 112545.07, 0.08646779, -0.073022135, -1369853.8, 169363.63, 0.000090556605, 10.002046, 9.998645 
2.8154045e+3, 1.5292712e+2, -1121541.0, -1512935.9, 153794.47, 0.3462153, 0.06463162, -1068340.4, 372962.4, 0.000018083496, 10.003562, 9.998285 
2.8150323e+3, 1.6291833e+2, -883098.2, -1314448.4, 229383.11, 0.47252542, 0.05798949, -783920.4, 559476.1, 0.000001252134, 10.004369, 9.998597 
2.8146586e+3, 1.7290686e+2, -853373.06, -1190221.5, 219658.17, 0.23586628, -0.28070587, -745000.56, 500501.66, 0.0000000065346386, 10.0036745, 9.999088 
2.814286e+3, 1.8289855e+2, -812332.5, -1012298.0, 184372.75, 0.09503422, -0.3516376, -702577.6, 445001.8, 0.0, 10.0028515, 10.000027 
2.813917e+3, 1.9289604e+2, -799494.5, -894876.2, 190814.86, 0.1959219, 0.048931047, -650501.0, 399105.03, 0.0, 10.002017, 10.000553 
2.8135464e+3, 2.0289011e+2, -955648.56, -1181719.3, 67690.38, 0.2557351, 0.19389926, -936930.44, 14734.262, 0.0, 10.001348, 9.9982605 
2.8131726e+3, 2.1287733e+2, -926439.44, -1134591.1, -23087.697, 0.16181147, -0.19384906, -923909.3, -70122.2, 0.0, 10.000982, 9.998066 
2.8127995e+3, 2.2286725e+2, -798785.44, -895311.25, 25515.943, 0.08945213, -0.36776605, -792455.56, -36572.086, 0.0, 10.000633, 9.999218 
2.8124294e+3, 2.3286198e+2, -707196.9, -741001.9, 103923.88, 0.11312568, -0.171216, -618809.94, 39123.637, 0.0, 10.000347, 9.99973 
2.8120583e+3, 2.4285534e+2, -718230.06, -624578.5, 83906.914, 0.13192026, -0.13328981, -575315.6, -15319.242, 0.0, 9.999279, 10.000375 
2.8116855e+3, 2.5284618e+2, -983579.9, -637300.5, 40035.28, 0.06779059, -0.43850192, -632732.06, -170650.13, 0.0, 9.9965315, 10.00093 
2.8113133e+3, 2.628391e+2, -1030064.7, -633124.1, 74663.09, 0.06020728, -0.53558165, -619544.8, -255395.61, 0.0, 9.995576, 10.000779 
2.8109437e+3, 2.7283552e+2, -448740.53, -273328.9, 74330.63, 0.23851886, -0.30263084, -246067.95, 20118.5, 0.0, 9.998765, 10.001042 
2.8105733e+3, 2.828304e+2, -218175.33, -435614.5, 85030.914, 0.33903193, -0.10647707, -188872.44, -20632.443, 0.0, 10.00108, 9.998143 
2.8101987e+3, 2.9282162e+2, -101982.484, -378126.4, 96565.94, 0.13306837, -0.052989647, -71564.55, -1231.89, 0.0, 10.001427, 9.997693 
2.8098255e+3, 3.0281267e+2, 51297.824, 38969.62, 124430.305, 0.079392865, -0.11634092, 169716.61, 169716.61, 0.0, 10.000541, 10.00031 
2.80946e+3, 3.128043e+2, -244657.36, 77821.625, 51426.77, 0.7164665, -0.4081035, 85824.23, 85824.23, 0.0, 9.997481, 10.001724 
2.809078e+3, 3.2280096e+2, -32274.564, -106845.67, 34094.246, -0.18498327, -0.06781871, -19036.559, -19036.559, 0.0, 10.000155, 9.999151 
2.8261444e+3, 1.3331619e+2, -1350501.5, -1171281.3, -68979.805, -0.046598468, 0.001273896, -1147806.5, 485691.56, 0.000102913014, 10.000993, 10.0031595 
2.825771e+3, 1.4331053e+2, -1691394.0, -1819840.4, 814.9127, 0.08226415, -0.006786899, -1691388.9, -155854.9, 0.00003434366, 10.000235, 9.998463 
2.8254002e+3, 1.5330222e+2, -1355038.4, -1628080.0, 28661.13, 0.31768107, 0.020475514, -1352062.3, 85564.54, 0.0000055031255, 10.002012, 9.998218 
2.8250292e+3, 1.6329323e+2, -1132819.4, -1432339.6, 53224.38, 0.47529203, -0.022522867, -1123642.6, 216077.47, 0.0000002527922, 10.0026655, 9.998599 
2.8246546e+3, 1.7328252e+2, -1194425.8, -1359196.6, 134618.95, 0.25332823, -0.30418438, -1118983.4, 122834.195, 0.0, 10.001396, 9.99901 
2.824281e+3, 1.8327412e+2, -1128684.9, -1242527.9, 210345.27, 0.058084566, -0.3482798, -967695.4, 176200.58, 0.0, 10.001007, 9.999341 
2.823911e+3, 1.9327082e+2, -810746.8, -977895.44, 191183.14, 0.06868146, 0.029816326, -685669.1, 360262.75, 0.0, 10.002275, 9.999858 
2.8235406e+3, 2.0326437e+2, -819919.25, -1186470.6, 65521.47, 0.14074767, 0.19525826, -808559.25, 139437.2, 0.0, 10.002639, 9.997591 
2.823168e+3, 2.1325047e+2, -842700.3, -1159605.8, 96995.25, 0.25657785, -0.24953796, -815369.94, 34760.363, 0.0, 10.001894, 9.997441 
2.8227955e+3, 2.232397e+2, -723084.6, -831940.9, 186534.86, 0.2662018, -0.44404238, -583199.44, 169034.31, 0.0, 10.001064, 9.999439 
2.822423e+3, 2.3323561e+2, -683929.2, -664984.94, 144115.38, 0.12779014, -0.18047023, -530030.75, 124240.98, 0.0, 10.000253, 10.000291 
2.8220505e+3, 2.4322933e+2, -681746.75, -634797.5, -704.8365, 0.079125434, -0.13039538, -634786.94, -78457.89, 0.0, 9.999673, 10.000121 
2.8216776e+3, 2.5321776e+2, -588869.44, -500302.8, -41416.34, 0.22869097, -0.6408945, -483953.4, -25518.791, 0.0, 9.999489, 10.000448 
2.821306e+3, 2.6320952e+2, -535202.7, -398952.25, 128144.72, 0.30544505, -0.8197532, -321949.53, 38562.28, 0.0, 9.999028, 10.000714 
2.820936e+3, 2.7320778e+2, -387001.16, -224157.3, 152006.69, 0.25472465, -0.4242605, -133139.19, 129394.48, 0.0, 9.999139, 10.001187 
2.8205657e+3, 2.8320494e+2, -428813.4, -453849.22, 77371.375, 0.1829261, -0.032166302, -362953.84, -198386.95, 0.0, 9.999305, 9.9988575 
2.8201923e+3, 2.9319888e+2, -267275.38, -331450.4, 81021.87, 0.048930764, 0.1655255, -212218.45, -145586.75, 0.0, 9.999754, 9.998811 
2.8198183e+3, 3.03189e+2, -141361.44, -135025.67, 12303.88, 0.0056986813, -0.029321827, -125488.4, -125488.4, 0.0, 9.999582, 9.999577 
2.819448e+3, 3.1317216e+2, -194893.17, -41422.45, -57416.363, 0.48362482, -1.0622436, -22319.643, -22319.643, 0.0, 9.9984455, 10.000439 
2.8190777e+3, 3.2317257e+2, -73750.88, -51089.67, 486694.2, 0.37070262, -0.2910808, 424405.78, 424405.78, 0.0, 9.999558, 9.999816 
2.8361377e+3, 1.3369016e+2, -1343731.8, -1174817.5, -137719.92, -0.14561844, 0.0077411667, -1097720.4, 532113.9, 0.00004648075, 10.001008, 10.003151 
2.8357658e+3, 1.4368227e+2, -1634311.9, -1806086.5, 70822.1, 0.23192798, -0.2041699, -1608878.0, -76987.89, 0.000014306027, 10.000675, 9.998346 
2.8353927e+3, 1.5367271e+2, -1359615.4, -1649792.3, 123334.45, 0.030393869, -0.2742939, -1314277.9, 119718.36, 0.0000019516297, 10.002064, 9.998046 
2.8350204e+3, 1.6366531e+2, -1023023.2, -1214298.9, 35431.523, 0.050950013, -0.2121783, -1016670.9, 319402.6, 0.00000005936716, 10.00269, 10.000087 
2.8346488e+3, 1.7366071e+2, -1086877.8, -1139685.6, 100697.15, 0.2414173, -0.030267145, -1009180.4, 228929.39, 0.0, 10.001369, 10.000549 
2.8342772e+3, 1.8365325e+2, -1148483.0, -1318226.9, 266832.34, 0.2374704, -0.046291072, -953350.06, 186827.64, 0.0, 10.00111, 9.99879 
2.833906e+3, 1.9364187e+2, -846820.3, -1118189.3, 262155.06, 0.017379796, -0.358719, -687317.5, 354972.88, 0.0, 10.002524, 9.998788 
2.833535e+3, 2.0363338e+2, -625498.06, -902499.6, 65772.23, 0.0072334697, -0.40908396, -610674.2, 333699.25, 0.0, 10.003145, 9.999295 
2.8331634e+3, 2.1362811e+2, -624238.3, -826136.75, 123346.24, 0.27754486, -0.18247016, -565797.94, 280623.78, 0.0, 10.002393, 9.9994955 
2.832791e+3, 2.2362049e+2, -759059.0, -1017148.2, 220821.73, 0.36215436, -0.110720694, -632340.5, 116156.29, 0.0, 10.0015135, 9.997962 
2.832417e+3, 2.336099e+2, -802957.0, -977930.1, 140328.22, 0.14972267, -0.26155746, -725077.56, -74471.23, 0.0, 10.000499, 9.998041 
2.8320432e+3, 2.436016e+2, -599291.9, -613915.3, 37256.16, 0.014084595, -0.27669314, -568636.75, -15947.726, 0.0, 10.0003, 9.999966 
2.8316694e+3, 2.5359595e+2, -292270.03, -361179.13, 16535.426, 0.0054881563, -0.18441725, -288507.63, 166231.7, 0.0, 10.001507, 10.000441 
2.831297e+3, 2.635894e+2, -178201.88, -243459.58, 122492.02, 0.0024336462, -0.1874159, -84067.42, 272731.4, 0.0, 10.001531, 10.000576 
2.830926e+3, 2.7358216e+2, -343715.5, -243739.84, 98329.234, -0.036133524, -0.3062985, -183421.64, 75445.83, 0.0, 9.999609, 10.000826 
2.830556e+3, 2.8357556e+2, -497104.75, -380729.75, 81384.89, 0.05516682, -0.30675152, -338870.84, -177939.64, 0.0, 9.998363, 9.999819 
2.8301865e+3, 2.9356927e+2, -369005.56, -268829.5, 86088.7, 0.29376492, -0.22492416, -219317.95, -156323.38, 0.0, 9.998561, 9.99982 
2.829814e+3, 3.0356172e+2, -230934.14, -212457.64, 36722.945, 0.34314072, -0.23436403, -183828.75, -183828.75, 0.0, 9.9991, 9.999278 
2.8294402e+3, 3.135514e+2, 10809.227, -40857.637, -37972.07, 0.42588118, -0.53991514, 30902.303, 30902.303, 0.0, 10.000252, 9.999583 
2.8290683e+3, 3.235471e+2, -79471.75, 232100.45, 442864.53, 0.2265614, -0.29520229, 545780.3, 545780.3, 0.0, 9.998287, 10.002378 
2.846133e+3, 1.3406551e+2, -1308527.3, -1358024.5, 31852.018, -0.056283735, 0.017916447, -1292939.3, 333209.88, 0.000024388144, 10.0021105, 10.00137 
2.8457633e+3, 1.4405383e+2, -1100510.8, -1611870.8, 74550.22, 0.35835057, -0.44374928, -1089864.0, 438382.9, 0.000007474148, 10.004632, 9.997766 
2.8453884e+3, 1.5404627e+2, -1323317.9, -1671675.6, 101004.195, 0.080346294, -0.2863792, -1296150.9, 134184.81, 0.0000012508747, 10.002492, 9.997685 
2.8450155e+3, 1.6403987e+2, -1184117.5, -1296068.5, -27486.078, 0.04148097, -0.104832046, -1177733.3, 154671.13, 0.000000073245815, 10.00163, 10.000022 
2.8446442e+3, 1.7403553e+2, -904754.9, -1049734.8, -76977.96, 0.2898253, 0.086052105, -871507.44, 362932.1, 0.0, 10.00265, 10.000532 
2.844273e+3, 1.8402793e+2, -1027721.9, -1299182.8, 56194.363, 0.30130947, 0.05396376, -1016549.06, 119960.36, 0.0, 10.002148, 9.998412 
2.8439006e+3, 1.9401453e+2, -1270880.1, -1374354.6, 108451.95, -0.013231042, -0.44871414, -1202456.8, -163816.48, 0.0, 9.999868, 9.998304 
2.843529e+3, 2.0400564e+2, -1112580.4, -1056393.1, -73978.36, -0.07332897, -0.55406463, -1005353.6, -64628.063, 0.0, 9.999459, 10.000009 
2.843158e+3, 2.1400365e+2, -736211.2, -792316.1, -117308.01, 0.23135649, -0.116896145, -643648.1, 199092.94, 0.0, 10.001245, 10.000283 
2.8427854e+3, 2.2399738e+2, -790060.75, -1133190.8, -55980.727, 0.34864643, 0.06444533, -781158.6, -36354.58, 0.0, 10.001769, 9.997027 
2.8424108e+3, 2.339841e+2, -837078.44, -1131799.3, -4355.0884, 0.16474454, -0.27300546, -837014.06, -190069.92, 0.0, 10.000888, 9.996787 
2.8420365e+3, 2.4397527e+2, -590838.2, -621542.8, 25560.23, -0.020790903, -0.27510104, -576374.1, -27339.06, 0.0, 10.000442, 9.999827 
2.8416622e+3, 2.5397313e+2, -419115.22, -441041.44, 9145.059, -0.16626766, 0.15949798, -415801.72, 35250.79, 0.0, 10.00074, 10.000251 
2.8412887e+3, 2.6396742e+2, -372477.63, -389113.03, 19593.129, -0.25233984, 0.27255386, -359509.78, -6406.6987, 0.0, 10.000471, 10.000064 
2.8409165e+3, 2.73956e+2, -423162.84, -352809.34, -26720.88, -0.25666428, -0.2233669, -343811.34, -88603.55, 0.0, 9.999395, 10.000168 
2.8405467e+3, 2.8394642e+2, -452818.75, -273003.56, -1750.4142, -0.031428892, -0.521485, -272986.53, -115690.81, 0.0, 9.998326, 10.000562 
2.84018e+3, 2.939394e+2, -420605.88, -192508.34, 14930.63, 0.51137686, -0.62281126, -191535.19, -132173.38, 0.0, 9.997784, 10.000714 
2.8398085e+3, 3.0393457e+2, -389244.72, -345520.84, -4489.8687, 0.59901017, -0.39241952, -345064.56, -345064.56, 0.0, 9.998284, 9.998746 
2.8394327e+3, 3.139324e+2, -49368.65, -152734.53, -53021.83, 0.33687478, 0.17412531, -27008.084, -27008.084, 0.0, 10.000224, 9.998814 
2.8390563e+3, 3.2392025e+2, 107746.37, 600540.44, 155142.11, -0.16779841, -0.45990816, 645314.44, 645314.44, 0.0, 9.998401, 10.004833 
2.85613e+3, 1.3444114e+2, -1469061.4, -1760210.8, 225310.28, 0.07722552, -0.04295089, -1346388.5, 276068.03, 0.00001298758, 10.002368, 9.998513 
2.855762e+3, 1.4442538e+2, -1177224.5, -1717309.1, 20814.922, 0.46163303, -0.7095837, -1176423.5, 348179.47, 0.000003738906, 10.004364, 9.997184 
2.8553873e+3, 1.544227e+2, -1364683.9, -1742741.9, 39089.773, 0.4226356, -0.018880302, -1360684.5, 65962.57, 0.00000051506584, 10.002399, 9.997253 
2.8550145e+3, 1.6441636e+2, -1247425.0, -1468423.8, 13735.714, 0.408454, 0.24512455, -1246574.6, 82143.87, 0.00000002542409, 10.001798, 9.998764 
2.854641e+3, 1.7440584e+2, -973596.1, -1252657.5, -21308.834, 0.34900743, -0.020242177, -971978.4, 258841.19, 0.0, 10.002897, 9.9990225 
2.8542674e+3, 1.8439744e+2, -964256.75, -1202075.8, -23908.088, 0.21655981, -0.072001204, -961877.06, 171023.5, 0.0, 10.002308, 9.998991 
2.8538936e+3, 1.9439071e+2, -1255109.9, -1287475.8, 19389.215, 0.00042537617, 0.03382086, -1246037.5, -211071.0, 0.0, 9.99962, 9.999025 
2.853521e+3, 2.0438254e+2, -1234869.8, -1242461.3, -15519.997, -0.06966976, 0.009800755, -1222688.1, -285642.53, 0.0, 9.999125, 9.998911 
2.8531504e+3, 2.1437323e+2, -812672.4, -976694.6, -71822.836, 0.04276381, -0.14373116, -785668.2, 53465.875, 0.0, 10.001307, 9.999005 
2.8527784e+3, 2.243657e+2, -605890.25, -843554.1, -119143.38, 0.14106208, -0.108037904, -556448.06, 184760.4, 0.0, 10.002157, 9.998824 
2.8524056e+3, 2.3435922e+2, -617512.6, -800883.2, -43653.438, 0.1867277, 0.040351514, -607650.8, 35626.082, 0.0, 10.001395, 9.998814 
2.852032e+3, 2.4435152e+2, -519077.44, -579355.2, 33091.18, 0.16072479, 0.032208666, -504457.2, 40893.96, 0.0, 10.000869, 9.999926 
2.8516582e+3, 2.54343e+2, -430789.66, -467204.28, 15553.424, 0.049393453, -0.137513, -425050.88, 22374.23, 0.0, 10.000706, 10.000106 
2.8512847e+3, 2.6433554e+2, -475703.0, -538596.6, -4926.8843, 0.004856127, -0.1562929, -475319.38, -125824.27, 0.0, 10.000187, 9.999176 
2.8509122e+3, 2.7432844e+2, -459831.6, -476246.25, -71713.58, 0.03717467, -0.10429664, -395857.22, -144288.8, 0.0, 9.999591, 9.99923 
2.8505397e+3, 2.843207e+2, -365856.34, -187906.11, -68472.38, 0.12726916, -0.19406858, -164609.06, -10967.418, 0.0, 9.998691, 10.000989 
2.8501683e+3, 2.9431254e+2, -435176.28, -150157.23, -80457.33, 0.2875782, -0.45309904, -129013.63, -73300.9, 0.0, 9.997457, 10.001171 
2.8497967e+3, 3.0430663e+2, -478045.63, -445505.34, 26014.695, 0.29927346, -0.330634, -431091.9, -431091.9, 0.0, 9.997922, 9.998234 
2.8494263e+3, 3.1430355e+2, 2330.2754, -186020.25, -18248.348, 0.337765, 0.1986686, 4081.976, 4081.976, 0.0, 10.000853, 9.998278 
2.8490487e+3, 3.2428977e+2, 25998.305, 232707.84, -299039.2, -0.13819896, -0.45757252, 445749.44, 445749.44, 0.0, 9.999214, 10.001941 
2.8661278e+3, 1.3481359e+2, -1279736.8, -1554734.1, 160642.34, 0.21740815, -0.08541758, -1205783.6, 413024.28, 0.0000059629547, 10.003223, 9.999491 
2.8657573e+3, 1.4480026e+2, -1274612.8, -1708635.8, -75992.836, 0.330961, -0.59600747, -1261691.9, 259237.67, 0.0000015122073, 10.003493, 9.997655 
2.8653824e+3, 1.5479717e+2, -1334477.3, -1685231.0, 4679.2637, 0.36991823, -0.0032029382, -1334414.9, 88559.59, 0.0000000966577, 10.002439, 9.997631 
2.8650093e+3, 1.6478999e+2, -1297605.8, -1569446.0, 117880.79, 0.41797537, 0.19834971, -1253608.9, 71444.695, 0.00000000026919006, 10.001808, 9.998063 
2.8646365e+3, 1.7477794e+2, -1235475.9, -1483938.4, 122759.195, 0.34562013, -0.13656616, -1185055.4, 42118.445, 0.0, 10.001565, 9.99808 
2.8642622e+3, 1.847697e+2, -1019805.7, -1214432.5, 68895.36, 0.17472047, -0.11526211, -997886.25, 131370.16, 0.0, 10.001868, 9.999114 
2.8638873e+3, 1.9476572e+2, -861786.9, -1081346.9, 62505.91, -0.018264905, 0.2473629, -845239.4, 186057.55, 0.0, 10.002276, 9.999146 
2.8635147e+3, 2.0475768e+2, -864544.5, -1129186.1, 123673.51, -0.08872082, 0.26995906, -815746.75, 117628.81, 0.0, 10.0020075, 9.998278 
2.863144e+3, 2.1474475e+2, -867624.2, -1082236.0, 133475.39, -0.04570072, -0.1720117, -803669.4, 31831.15, 0.0, 10.001331, 9.998247 
2.8627723e+3, 2.2473662e+2, -664601.1, -779823.3, 9901.147, 0.036802474, -0.17780787, -663756.5, 73824.49, 0.0, 10.001374, 9.999633 
2.8624e+3, 2.3473376e+2, -511434.94, -645903.9, -39798.27, 0.19514336, 0.2374807, -500538.9, 139073.16, 0.0, 10.0017185, 9.99971 
2.8620273e+3, 2.4472643e+2, -454051.78, -560646.9, -20560.91, 0.27067366, 0.22240628, -450223.34, 91456.234, 0.0, 10.001411, 9.999778 
2.861654e+3, 2.547136e+2, -504296.44, -546151.06, -42775.03, 0.2446182, -0.3674976, -477603.84, -33811.35, 0.0, 10.000429, 9.999683 
2.8612804e+3, 2.647051e+2, -602193.6, -680735.94, -49708.14, 0.24711041, -0.43619475, -578115.56, -232240.63, 0.0, 9.999686, 9.998436 
2.8609073e+3, 2.7470124e+2, -587101.0, -629513.7, -51955.105, 0.3000377, 0.0069480785, -552191.0, -304266.75, 0.0, 9.999127, 9.998401 
2.860533e+3, 2.8469512e+2, -286784.6, -145558.8, -55597.086, 0.23520097, 0.124156505, -126298.35, 23686.535, 0.0, 9.999255, 10.000997 
2.860157e+3, 2.9468614e+2, -79119.914, 11300.784, -118959.4, 0.014988376, -0.21620922, 93351.25, 145411.77, 0.0, 9.999963, 10.001072 
2.859785e+3, 3.0467862e+2, -206896.02, -360666.6, 76645.54, -0.04642656, -0.22829361, -175218.48, -175218.48, 0.0, 9.999992, 9.997815 
2.85942e+3, 3.1467313e+2, -196227.34, -336210.38, 82863.195, 0.30136195, 0.08583115, -157751.72, -157751.72, 0.0, 9.999723, 9.997795 
2.8590417e+3, 3.2465896e+2, -122930.61, -288409.6, -458332.34, -0.068931885, -0.38618118, 260070.56, 260070.56, 0.0, 10.000116, 9.997949 
2.876125e+3, 1.3518532e+2, -1087224.8, -1083378.5, 217156.0, 0.28063992, -0.033305254, -868137.2, 747036.8, 0.0000021473002, 10.002877, 10.002904 
2.8757504e+3, 1.4517723e+2, -1215014.4, -1514741.3, -107792.016, -0.01028474, -0.2500627, -1180275.1, 336962.2, 0.00000043033984, 10.00317, 9.999143 
2.8753737e+3, 1.5516934e+2, -1244314.5, -1480413.3, -7000.5405, -0.06595545, -0.275912, -1244107.1, 175213.61, 0.000000019645139, 10.00234, 9.999087 
2.8750008e+3, 1.6516128e+2, -1300327.4, -1585302.4, 124583.67, 0.083125524, -0.22690862, -1253543.3, 67861.54, 0.0, 10.001824, 9.997954 
2.8746307e+3, 1.7515263e+2, -1234199.5, -1497858.0, 136663.64, 0.27515408, -0.19386268, -1176144.9, 47348.25, 0.0, 10.001598, 9.997977 
2.8742576e+3, 1.8514471e+2, -1017866.5, -1249819.6, 119204.05, 0.18743259, -0.1236747, -967529.6, 158044.14, 0.0, 10.001994, 9.998827 
2.8738824e+3, 1.9513766e+2, -798019.3, -1091893.9, 122468.26, -0.10676471, -0.019768061, -753673.94, 273971.38, 0.0, 10.002854, 9.99881 
2.87351e+3, 2.0512995e+2, -703819.8, -948184.9, 122489.38, -0.119790405, 0.011155552, -652993.0, 276727.6, 0.0, 10.002677, 9.99918 
2.8731403e+3, 2.1512105e+2, -769993.9, -941414.4, 156590.52, 0.090104274, -0.10058099, -677191.25, 154613.66, 0.0, 10.001583, 9.999088 
2.8727683e+3, 2.2511262e+2, -756233.4, -1009565.9, 93846.95, 0.17234993, -0.09093273, -725255.75, 8634.311, 0.0, 10.001513, 9.997999 
2.872395e+3, 2.3510507e+2, -539178.9, -843062.3, 13660.768, 0.14556392, 0.03907548, -538566.0, 97405.08, 0.0, 10.002281, 9.998098 
2.8720215e+3, 2.4509743e+2, -388855.22, -571351.4, -61421.766, 0.20702167, 0.09035, -370108.56, 167938.13, 0.0, 10.001996, 9.999447 
2.871648e+3, 2.5508896e+2, -482726.84, -570077.94, -91010.04, 0.32213995, -0.017912151, -425454.97, 14668.819, 0.0, 10.000679, 9.999419 
2.871274e+3, 2.6508105e+2, -504590.03, -496882.6, -47952.555, 0.32176262, -0.07178274, -452629.16, -110430.64, 0.0, 9.999754, 9.999667 
2.8708985e+3, 2.7507406e+2, -476509.25, -440053.47, -15649.707, 0.21944155, -0.04893277, -434257.03, -189988.66, 0.0, 9.999288, 9.999624 
2.870526e+3, 2.8506702e+2, -272113.38, -347943.9, 90467.875, 0.21652587, 0.010397548, -211936.83, -65598.24, 0.0, 10.000268, 9.999115 
2.8701547e+3, 2.9505935e+2, 222824.55, -55624.57, -22773.959, 0.24776119, 0.007998821, 224674.9, 273087.7, 0.0, 10.002954, 9.99917 
2.8697813e+3, 3.0505198e+2, 225762.95, -46189.777, -7367.1978, 0.07540081, 0.058013875, 225962.38, 225962.38, 0.0, 10.002497, 9.998768 
2.869409e+3, 3.1504533e+2, -212733.53, -230010.14, 17154.771, -0.020465448, 0.16413876, -202164.89, -202164.89, 0.0, 9.999107, 9.998822 
2.8690392e+3, 3.250317e+2, 209824.6, -201569.06, -69396.29, 0.20508848, -0.26918072, 221215.38, 221215.38, 0.0, 10.002736, 9.997256 
2.8861183e+3, 1.3555591e+2, -1346689.0, -1219615.5, 240695.05, 0.09486769, -0.25693268, -1034212.5, 577328.9, 0.0000003382392, 10.001137, 10.0028 
2.8857455e+3, 1.4555326e+2, -1500151.4, -1548059.8, -118214.72, 0.037291568, 0.027541785, -1403488.3, 110068.38, 0.000000039050374, 10.000755, 10.000071 
2.8853676e+3, 1.5554394e+2, -1226443.0, -1388684.3, -65577.27, -0.17133667, -0.24323928, -1203251.9, 212398.34, 0.0000000006124831, 10.002106, 9.999833 
2.884995e+3, 1.6553532e+2, -1109988.1, -1492072.6, 61926.438, -0.053796493, -0.2936361, -1100202.0, 217534.86, 0.0, 10.003155, 9.99794 
2.8846255e+3, 1.755272e+2, -934287.44, -1361121.3, 91536.6, 0.20542067, -0.22109196, -915485.25, 304332.94, 0.0, 10.003721, 9.997885 
2.8842527e+3, 1.8551913e+2, -900623.9, -1229310.8, 65833.32, 0.14766364, -0.14888382, -887928.3, 233971.53, 0.0, 10.0030155, 9.99845 
2.8838778e+3, 1.9551079e+2, -1055236.9, -1257901.4, 69029.48, -0.1255142, -0.153915, -1033958.8, -9974.184, 0.0, 10.001305, 9.998408 
2.8835055e+3, 2.0550312e+2, -962528.1, -1059552.3, 33556.07, -0.0890453, -0.1108821, -952053.5, -25994.53, 0.0, 10.000861, 9.999292 
2.883136e+3, 2.1549599e+2, -831647.8, -969668.44, 11824.714, 0.219067, -0.07717076, -830642.06, -2517.0815, 0.0, 10.001186, 9.999083 
2.882764e+3, 2.2548732e+2, -811749.8, -1121556.6, 22857.445, 0.27177897, -0.06224831, -810072.5, -79859.87, 0.0, 10.001542, 9.9972 
2.88239e+3, 2.354771e+2, -685064.1, -1020643.1, 37727.004, 0.121352136, -0.12561926, -680875.0, -48553.938, 0.0, 10.001783, 9.997111 
2.882016e+3, 2.4546953e+2, -514049.28, -666546.4, -56189.35, 0.15884031, 0.0006166689, -495582.0, 38817.664, 0.0, 10.001327, 9.999093 
2.881642e+3, 2.5546408e+2, -607902.4, -675996.75, -72842.2, 0.35081014, 0.22743933, -561543.1, -125089.586, 0.0, 10.000054, 9.998979 
2.8812668e+3, 2.654564e+2, -400047.72, -370279.56, -31613.637, 0.31183738, 0.19064093, -350221.44, -11696.938, 0.0, 10.000185, 10.000313 
2.8808904e+3, 2.7544668e+2, -174486.3, -238584.3, -70694.35, 0.09865059, -0.14620268, -128915.52, 111697.22, 0.0, 10.001157, 10.000096 
2.8805193e+3, 2.854388e+2, -279953.56, -548525.5, 85262.766, 0.1796615, -0.106758125, -255172.05, -112479.945, 0.0, 10.001089, 9.997332 
2.8801525e+3, 2.954322e+2, -289317.0, -512866.13, 50447.125, 0.4866445, 0.17388424, -278460.16, -233693.63, 0.0, 10.000367, 9.997271 
2.8797776e+3, 3.0542502e+2, -37158.824, -73527.66, -115099.15, 0.19276996, 0.2907221, 61183.523, 61183.523, 0.0, 10.000283, 9.999649 
2.879398e+3, 3.1541747e+2, -47106.977, -70474.016, -115951.99, -0.3847439, 0.2245384, 57748.637, 57748.637, 0.0, 9.99992, 9.999533 
2.8790385e+3, 3.254055e+2, 5033.3433, -264050.56, 286229.53, 0.5039222, -0.12624495, 186764.83, 186764.83, 0.0, 10.001247, 9.997509 
2.8961104e+3, 1.3592593e+2, -1538557.6, -1567631.3, 135539.83, -0.16479068, -0.6524832, -1416777.3, 191132.48, 0.0000000028010363, 10.000874, 10.000555 
2.8957427e+3, 1.4592865e+2, -1465974.9, -1478071.0, -48383.723, 0.34511903, 0.2551462, -1423262.6, 86622.08, 0.0, 10.00074, 10.000566 
2.8953645e+3, 1.55921e+2, -1185021.8, -1319605.5, 4349.964, -0.023400761, 0.10978586, -1184881.4, 227081.2, 0.0, 10.002149, 10.000297 
2.8949916e+3, 1.659116e+2, -1067027.5, -1425611.5, 101149.34, -0.037423708, -0.057050902, -1040463.2, 273590.94, 0.0, 10.003232, 9.99836 
2.8946215e+3, 1.7590119e+2, -863734.94, -1283560.0, 124243.01, 0.086122766, -0.24611016, -829722.06, 386432.0, 0.0, 10.004003, 9.998277 
2.894248e+3, 1.8589297e+2, -889297.7, -1258849.0, 3760.279, 0.05706978, -0.18861313, -889259.44, 228976.14, 0.0, 10.003214, 9.9981575 
2.893873e+3, 1.95886e+2, -1081169.1, -1303682.8, 8633.444, -0.048149478, -0.01276624, -1080834.6, -60527.535, 0.0, 10.001227, 9.998144 
2.893501e+3, 2.0587708e+2, -1037127.9, -1209303.9, 52534.867, 0.06464581, -0.031199874, -1022364.25, -99970.34, 0.0, 10.000784, 9.99833 
2.8931317e+3, 2.1586688e+2, -847297.6, -1063120.3, 21310.273, 0.31011716, -0.19914073, -845213.56, -20723.107, 0.0, 10.001392, 9.998364 
2.8927594e+3, 2.2585875e+2, -669242.2, -879714.9, 22870.688, 0.33731198, -0.18118726, -666785.7, 59784.32, 0.0, 10.001749, 9.998765 
2.8923857e+3, 2.3585168e+2, -551233.56, -781394.4, 56809.53, 0.20116505, -0.07827556, -537975.25, 90666.555, 0.0, 10.001907, 9.9987 
2.8920105e+3, 2.458438e+2, -520125.6, -673171.2, -57844.418, 0.18352602, -0.05482753, -500722.8, 29998.354, 0.0, 10.001272, 9.999076 
2.891634e+3, 2.5583553e+2, -599929.3, -672308.3, -55491.52, 0.2432393, -0.09321698, -569869.4, -137065.69, 0.0, 10.000084, 9.998986 
2.8912598e+3, 2.6582724e+2, -419698.5, -581672.1, 84117.23, 0.23510844, -0.09691891, -383918.13, -49034.668, 0.0, 10.000895, 9.998532 
2.8908867e+3, 2.7581847e+2, 9925.424, -330194.28, -23323.574, 0.15905009, -0.14132246, 11517.377, 248482.27, 0.0, 10.003185, 9.998488 
2.8905144e+3, 2.8581002e+2, -129177.586, -418033.03, -43820.527, 0.1993553, -0.11380704, -122676.164, 16373.245, 0.0, 10.0018635, 9.99785 
2.8901428e+3, 2.9580176e+2, -575009.8, -601295.56, -11276.758, 0.3249737, -0.042646915, -570835.06, -529698.44, 0.0, 9.998194, 9.9977 
2.8897694e+3, 3.057928e+2, -378848.75, -374608.34, 16328.347, 0.16805083, -0.053006433, -360263.13, -360263.13, 0.0, 9.998549, 9.99843 
2.8893957e+3, 3.1578332e+2, 141644.92, -117947.3, -73798.664, -0.040181555, -0.16672271, 161158.14, 161158.14, 0.0, 10.001827, 9.9983225 
2.8890288e+3, 3.2577702e+2, -108545.875, -65007.285, 59543.793, 0.27029663, 0.021035964, -23378.111, -23378.111, 0.0, 9.999345, 9.999862 
2.9061073e+3, 1.3630211e+2, -1614616.6, -1660246.0, 193535.9, 0.13728477, -0.5157174, -1442555.3, 161661.23, 0.00000000011876347, 10.000636, 10.000036 
2.905736e+3, 1.4630125e+2, -1274041.8, -1484347.5, 39969.805, 0.18167844, 0.11510952, -1266701.4, 239529.6, 0.0, 10.002525, 9.999657 
2.905361e+3, 1.5629378e+2, -1097177.5, -1355600.6, 5724.5044, 0.046342175, 0.06707058, -1097050.8, 311257.94, 0.0, 10.003144, 9.999551 
2.9049888e+3, 1.6628507e+2, -1167935.1, -1430567.5, 17766.258, 0.04816295, -0.027747544, -1166738.8, 143655.61, 0.0, 10.002377, 9.998724 
2.9046172e+3, 1.7627528e+2, -1345780.3, -1488795.8, 44987.793, 0.07289826, -0.20611952, -1332805.6, -120317.67, 0.0, 10.00059, 9.998514 
2.9042438e+3, 1.862671e+2, -1037727.25, -1310625.5, -10005.587, 0.040466137, -0.17083308, -1037360.9, 77207.25, 0.0, 10.002137, 9.998317 
2.9038697e+3, 1.9625998e+2, -524375.9, -1032354.25, 34368.254, 0.02723492, -0.031423096, -522061.16, 494578.2, 0.0, 10.005083, 9.998134 
2.9034972e+3, 2.0625071e+2, -480598.25, -986408.2, 99754.3, 0.12404768, -0.0608886, -461635.9, 457093.97, 0.0, 10.004853, 9.997869 
2.9031265e+3, 2.1623972e+2, -673200.5, -1022360.4, 115466.3, 0.28918022, -0.26441967, -638470.56, 182365.34, 0.0, 10.002819, 9.997938 
2.902754e+3, 2.262319e+2, -678266.25, -754311.2, 98693.35, 0.29435414, -0.24887465, -610524.4, 112385.05, 0.0, 10.001181, 9.999877 
2.90238e+3, 2.362262e+2, -842599.0, -828167.1, 81266.766, 0.20446882, -0.12059995, -753796.56, -128834.41, 0.0, 9.999553, 9.999501 
2.902004e+3, 2.4621785e+2, -685394.0, -805537.3, -73258.68, 0.1609792, -0.15185732, -650726.9, -123681.22, 0.0, 10.000404, 9.998565 
2.9016268e+3, 2.5620762e+2, -367251.2, -638524.2, -112038.516, 0.13969707, -0.35071194, -326961.9, 102188.18, 0.0, 10.002064, 9.998257 
2.9012537e+3, 2.6619896e+2, -317975.97, -663637.25, 115432.43, 0.1605883, -0.29694095, -282972.34, 48262.52, 0.0, 10.002181, 9.997334 
2.900883e+3, 2.7619112e+2, -357249.75, -656626.7, 87463.69, 0.19696014, -0.13281853, -333570.03, -100260.27, 0.0, 10.001312, 9.997153 
2.9005086e+3, 2.8618202e+2, -293882.25, -399649.97, -64805.95, 0.16340011, -0.1463985, -263120.94, -127722.42, 0.0, 10.000332, 9.998707 
2.900132e+3, 2.9617208e+2, -476043.94, -517854.25, 13997.96, 0.08960147, -0.30564937, -471790.22, -434293.7, 0.0, 9.998769, 9.997976 
2.899763e+3, 3.061626e+2, -215189.1, -492750.9, 204280.16, 0.304655, -0.28490683, -107007.414, -107007.414, 0.0, 10.00058, 9.996596 
2.8993982e+3, 3.1615302e+2, 245454.52, -318331.66, 55211.473, 0.6972265, -0.20735335, 250810.48, 250810.48, 0.0, 10.003694, 9.996008 
2.899019e+3, 3.2614395e+2, 279110.56, 238191.67, -257783.89, -0.021928834, -0.23746972, 517245.63, 517245.63, 0.0, 10.001528, 10.000862 
2.9161057e+3, 1.366805e+2, -1544449.1, -1553441.3, 256033.73, 0.5397575, -0.19886428, -1292872.0, 307627.53, 0.0000000000007792345, 10.000791, 10.0007 
2.9157266e+3, 1.4667144e+2, -1421007.0, -1745826.4, 52072.895, -0.3007316, -0.31311625, -1412863.3, 89730.82, 0.0, 10.002322, 9.997967 
2.9153574e+3, 1.5666263e+2, -1198926.8, -1563430.4, 22545.58, 0.040846583, -0.31624943, -1197537.5, 207149.22, 0.0, 10.003107, 9.998149 
2.9149857e+3, 1.6665585e+2, -1143908.4, -1368815.3, -47701.242, 0.19718172, -0.18628852, -1134209.5, 172546.94, 0.0, 10.002294, 9.9992 
2.9146117e+3, 1.7664969e+2, -1305422.9, -1405625.4, 6480.0557, 0.16410045, -0.039877918, -1305005.6, -96187.18, 0.0, 10.000541, 9.999129 
2.9142398e+3, 1.8664122e+2, -938872.94, -1142562.8, 129727.47, 0.101348855, -0.12135972, -875788.75, 235110.95, 0.0, 10.002271, 9.99941 
2.9138687e+3, 1.9663177e+2, -340036.13, -831368.3, 145676.97, 0.04504587, -0.31481126, -300091.28, 712898.2, 0.0, 10.005827, 9.999163 
2.913495e+3, 2.0662397e+2, -320664.72, -853691.6, 30546.219, 0.0447036, -0.2682444, -318919.94, 596145.9, 0.0, 10.00565, 9.99842 
2.9131207e+3, 2.1661662e+2, -547089.0, -888169.25, 58316.99, 0.056726266, -0.15311043, -537393.7, 279745.28, 0.0, 10.003315, 9.998638 
2.9127455e+3, 2.2660811e+2, -682740.1, -746311.94, 48350.09, 0.05237744, -0.2423868, -656663.5, 62554.105, 0.0, 10.001073, 10.000004 
2.9123703e+3, 2.3659919e+2, -932306.4, -886794.56, 54149.63, 0.028748926, -0.43128327, -850813.6, -229516.02, 0.0, 9.998945, 9.999411 
2.9119968e+3, 2.4659091e+2, -831389.25, -1097328.1, 47582.0, 0.087739386, -0.33640063, -823132.25, -299747.2, 0.0, 10.000318, 9.9966135 
2.9116234e+3, 2.5658268e+2, -228788.75, -706407.9, -42916.51, 0.17832471, -0.14114971, -224963.13, 200515.44, 0.0, 10.003544, 9.997087 
2.9112494e+3, 2.6657435e+2, -89948.82, -332733.84, 36611.004, 0.16446537, -0.12198557, -84548.164, 243011.31, 0.0, 10.002773, 9.999327 
2.9108754e+3, 2.765661e+2, -412187.2, -450995.03, 84240.266, 0.08628258, -0.18859638, -345144.97, -115512.52, 0.0, 9.999918, 9.99923 
2.9105002e+3, 2.8655797e+2, -339261.25, -296508.16, 83056.45, 0.0897835, -0.24534875, -232121.47, -100413.33, 0.0, 9.999478, 9.999829 
2.910126e+3, 2.9655004e+2, -296894.34, -342865.66, 193091.67, 0.23350468, -0.29954883, -125425.03, -91640.53, 0.0, 9.999587, 9.998779 
2.9261e+3, 1.3705263e+2, -1447786.8, -1621583.5, -73913.484, 0.48126644, -0.13813847, -1420603.9, 176249.1, 0.0, 10.001994, 9.999641 
2.9257208e+3, 1.4704238e+2, -1650735.8, -1722714.1, -30676.969, -0.30964458, -0.42528945, -1639435.5, -140478.19, 0.0, 10.000196, 9.999142 
2.925353e+3, 1.5703441e+2, -1296331.8, -1541848.9, 96804.22, 0.019703224, -0.4573266, -1262755.0, 138280.78, 0.0, 10.002142, 9.998766 
2.924982e+3, 1.6702802e+2, -1006943.4, -1330382.6, -3962.5405, 0.22199328, -0.28491348, -1006894.9, 296207.7, 0.0, 10.003393, 9.9989195 
2.924608e+3, 1.7702253e+2, -834857.75, -1176453.1, 2337.4133, 0.25703296, -0.052273165, -834841.75, 370320.13, 0.0, 10.003821, 9.999108 
2.9242355e+3, 1.8701454e+2, -950890.56, -1048777.5, 132458.84, 0.121004276, -0.14603287, -858622.1, 248616.9, 0.0, 10.001771, 10.00029 
2.923864e+3, 1.9700512e+2, -1323112.8, -1216787.5, 135019.5, -0.013751617, -0.43365875, -1124841.5, -115514.58, 0.0, 9.998714, 9.999941 
2.923491e+3, 2.0699894e+2, -1106093.4, -1097899.1, 31774.506, 0.004426786, -0.33003923, -1069958.8, -158571.95, 0.0, 9.999727, 9.99957 
2.923116e+3, 2.1699408e+2, -741188.7, -913835.4, 95514.47, 0.048349198, -0.08035221, -698769.1, 114666.734, 0.0, 10.001728, 9.99922 
2.92274e+3, 2.2698453e+2, -483067.8, -757230.06, 18053.494, -0.0023290294, -0.23711628, -481884.1, 233640.92, 0.0, 10.002925, 9.99903 
2.922363e+3, 2.3697294e+2, -385435.7, -737402.6, -42329.613, -0.063726395, -0.61202013, -380416.44, 237214.77, 0.0, 10.00324, 9.998358 
2.9219905e+3, 2.4696502e+2, -492675.1, -1006135.7, 117682.19, 0.020279486, -0.40265477, -466988.06, 52729.48, 0.0, 10.003019, 9.9959135 
2.92162e+3, 2.5695866e+2, -405589.8, -827861.56, 135356.34, 0.17630222, 0.041717473, -365927.6, 55868.918, 0.0, 10.002543, 9.996719 
2.9212448e+3, 2.6695052e+2, -151452.66, -201702.11, 34007.063, 0.14118211, 0.024106083, -134295.8, 189578.39, 0.0, 10.001686, 10.000745 
2.9208672e+3, 2.7694178e+2, -300900.22, -214156.0, 2857.423, -0.027235704, -0.25131893, -214061.98, 11886.811, 0.0, 9.999911, 10.000869 
2.9204923e+3, 2.8693497e+2, -215565.0, -96121.766, 71064.3, 0.012506714, -0.32885993, -63016.63, 64991.785, 0.0, 9.9997835, 10.001031 
2.9201204e+3, 2.9692978e+2, -287540.75, -217768.6, 159244.08, 0.4113654, -0.27327177, -89634.07, -59578.383, 0.0, 9.999143, 9.9998665 
2.9360932e+3, 1.3742162e+2, -1609801.4, -1907518.6, -346577.63, 0.30614287, -0.1577249, -1381466.5, 211777.23, 0.0, 10.001726, 9.997825 
2.935717e+3, 1.4741401e+2, -1402817.6, -1225417.9, 58927.715, -0.029216675, -0.31619915, -1207627.6, 287690.72, 0.0, 10.000228, 10.002557 
2.9353476e+3, 1.5740883e+2, -1123818.1, -1190291.6, 155759.88, -0.09073557, -0.38824308, -997788.4, 399569.7, 0.0, 10.002128, 10.001201 
2.9349774e+3, 1.6740134e+2, -1064521.1, -1475085.0, 23746.934, 0.13608368, -0.36001495, -1063152.3, 236283.14, 0.0, 10.0034485, 9.997922 
2.934606e+3, 1.7739314e+2, -813539.3, -1215319.3, -1941.5762, 0.32689345, -0.29857066, -813529.94, 387995.2, 0.0, 10.004125, 9.998714 
2.93423e+3, 1.8738696e+2, -905210.3, -938405.5, -15926.556, 0.10220636, -0.2454782, -898804.94, 204782.31, 0.0, 10.001661, 10.001122 
2.9338533e+3, 1.9738124e+2, -1338730.0, -1085097.6, 41491.38, -0.21733297, -0.23990697, -1078482.6, -72841.04, 0.0, 9.997963, 10.001222 
2.9334837e+3, 2.0737642e+2, -1068015.5, -826351.94, 144233.23, 0.069555625, -0.18768427, -759025.44, 148660.53, 0.0, 9.998897, 10.001836 
2.933116e+3, 2.1737169e+2, -658390.6, -762270.06, 200581.25, 0.5299793, -0.12184631, -503133.4, 306595.8, 0.0, 10.001758, 10.000262 
2.9327407e+3, 2.273615e+2, -585842.44, -1172719.4, 66601.47, 0.41198456, -0.17987141, -578379.1, 133452.27, 0.0, 10.003716, 9.995835 
2.9323623e+3, 2.373492e+2, -211075.48, -832082.44, -51234.656, 0.0709871, -0.32271764, -206876.88, 407078.6, 0.0, 10.005127, 9.99683 
2.9319876e+3, 2.4734163e+2, -92943.484, -452779.06, 47313.7, 0.005918149, -0.21873277, -86826.336, 429205.9, 0.0, 10.00417, 9.99918 
2.9316142e+3, 2.5733587e+2, -276389.16, -505744.94, 130718.7, 0.06581722, -0.016692527, -217175.14, 200916.47, 0.0, 10.002252, 9.999089 
2.931239e+3, 2.6732737e+2, -374018.25, -537325.2, 36746.01, 0.12230761, -0.04393575, -366130.9, -45956.42, 0.0, 10.001079, 9.998757 
2.930862e+3, 2.773179e+2, -304001.88, -333292.84, -66494.96, 0.1305088, -0.20421545, -250558.66, -28294.67, 0.0, 10.000315, 9.999883 
2.9304862e+3, 2.8731015e+2, -123342.96, 48276.52, 2995.671, 0.13523696, -0.40783155, 48328.793, 172659.1, 0.0, 9.999888, 10.002026 
2.9301137e+3, 2.9730493e+2, -124965.61, -74765.09, -35382.34, 0.496294, -0.44600257, -56484.1, -30112.686, 0.0, 9.999831, 10.000584 
2.946085e+3, 1.377944e+2, -1513634.5, -1920790.1, -220302.66, -0.03436337, -0.12187347, -1417250.4, 172338.58, 0.0, 10.002673, 9.9972725 
2.945714e+3, 1.4778517e+2, -1166934.9, -1133786.8, 135838.14, 0.24449451, -0.40522704, -1013515.25, 478165.5, 0.0, 10.001968, 10.002339 
2.9453427e+3, 1.5778151e+2, -1498051.9, -1371717.4, 22939.904, 0.032944858, -0.3205146, -1367681.0, 26024.03, 0.0, 9.999584, 10.001183 
2.9449725e+3, 1.6777411e+2, -1500955.8, -1611706.8, -38602.055, 0.16328111, -0.33869737, -1488828.9, -193047.98, 0.0, 10.000159, 9.998563 
2.944602e+3, 1.7776535e+2, -1138746.3, -1313222.8, 18970.324, 0.3186195, -0.40339422, -1136707.5, 61168.13, 0.0, 10.001664, 9.999214 
2.9442248e+3, 1.8776058e+2, -885372.3, -860229.44, -72267.11, 0.11274515, -0.26908115, -799448.44, 300476.13, 0.0, 10.001562, 10.001676 
2.943846e+3, 1.9775702e+2, -953669.7, -859720.7, 2186.9119, -0.1643035, -0.106640175, -859669.8, 142288.9, 0.0, 10.000478, 10.001546 
2.9434776e+3, 2.077518e+2, -790995.06, -682299.3, 90403.07, 0.15837176, -0.123978645, -631165.44, 272841.2, 0.0, 10.000746, 10.001939 
2.9431123e+3, 2.1774594e+2, -769678.1, -859754.2, -20108.586, 0.70369905, -0.20146656, -765392.94, 40666.94, 0.0, 10.001222, 9.999846 
2.9427385e+3, 2.2773622e+2, -882603.06, -1400800.1, -28866.27, 0.5843177, -0.1713418, -881000.0, -172839.8, 0.0, 10.002119, 9.994994 
2.942361e+3, 2.3772487e+2, -606262.1, -1054396.8, 46406.332, 0.18844256, -0.14926793, -601507.0, 8773.12, 0.0, 10.002604, 9.996499 
2.9419842e+3, 2.4771759e+2, -244863.63, -294352.47, 11764.741, 0.0028327685, -0.12854588, -242209.23, 270140.2, 0.0, 10.002168, 10.001216 
2.9416078e+3, 2.5771192e+2, -379198.03, -422999.94, -36757.246, -0.05958165, -0.12869775, -358311.75, 56087.313, 0.0, 10.0010195, 10.00025 
2.9412326e+3, 2.6770344e+2, -487555.6, -743734.06, -44647.965, 0.08796707, -0.12547573, -479997.16, -163514.13, 0.0, 10.000991, 9.997366 
2.9408568e+3, 2.7769378e+2, -294784.16, -439136.75, -23857.176, 0.26587605, -0.1748995, -290943.47, -72363.19, 0.0, 10.000895, 9.998862 
2.94048e+3, 2.8768504e+2, -13077.384, 167711.4, 26894.55, 0.18910421, -0.47303942, 171627.47, 292282.22, 0.0, 10.000378, 10.002605 
2.9401067e+3, 2.97679e+2, -164685.81, -74875.984, -58902.055, 0.51773435, -0.6186229, -45714.02, -23014.592, 0.0, 9.99956, 10.000681 
2.9560766e+3, 1.3816853e+2, -1506924.3, -1917920.5, -167931.42, -0.45039657, -0.17685793, -1447035.0, 138880.1, 0.0, 10.002673, 9.997307 
2.955712e+3, 1.4815609e+2, -1375138.1, -1568766.5, 33934.684, 0.52577436, -0.5994031, -1369363.0, 118680.92, 0.0, 10.001929, 9.999396 
2.9553384e+3, 1.5815248e+2, -1579956.6, -1565017.1, -37359.88, 0.320809, -0.23113093, -1534387.5, -144311.42, 0.0, 9.999638, 9.999849 
2.9549673e+3, 1.6814637e+2, -1318158.1, -1253061.3, 15180.474, 0.27363938, -0.22524184, -1249695.3, 42443.17, 0.0, 10.000217, 10.001009 
2.9545954e+3, 1.781397e+2, -978636.4, -1011391.44, 44621.73, 0.16858445, -0.3153229, -947481.6, 246726.84, 0.0, 10.001746, 10.00126 
2.9542202e+3, 1.8813536e+2, -855348.6, -821063.7, -103116.055, 0.19102398, -0.22978134, -733674.9, 362575.97, 0.0, 10.001623, 10.001927 
2.9538444e+3, 1.9813146e+2, -921711.06, -938168.6, -9772.982, 0.2578444, -0.1015425, -917163.94, 81123.695, 0.0, 10.001046, 10.000748 
2.9534724e+3, 2.0812316e+2, -941508.75, -1138142.3, 63892.746, 0.22486189, -0.17653702, -922571.6, -22202.207, 0.0, 10.001269, 9.998597 
2.9531017e+3, 2.1811375e+2, -785370.3, -967657.7, -95301.31, 0.18219182, -0.31133988, -744644.7, 57817.516, 0.0, 10.001482, 9.999 
2.9527304e+3, 2.281062e+2, -612201.9, -755809.5, -56660.684, 0.257934, -0.3320378, -592538.7, 111995.36, 0.0, 10.001762, 9.999593 
2.9523575e+3, 2.3809882e+2, -469586.47, -670679.56, 57216.723, 0.31531554, -0.34014076, -454446.53, 152157.97, 0.0, 10.0021105, 9.999381 
2.9519796e+3, 2.4809118e+2, -479224.22, -655155.3, -30528.38, 0.11865214, -0.31946895, -474077.34, 34603.21, 0.0, 10.001547, 9.999081 
2.9516014e+3, 2.5808382e+2, -440625.84, -533099.7, -131461.63, -0.10113316, -0.2933071, -347507.06, 63246.86, 0.0, 10.000872, 9.999599 
2.9512265e+3, 2.6807716e+2, -259829.94, -360460.9, -73573.68, 0.06634734, -0.24649532, -221012.19, 91804.78, 0.0, 10.001326, 9.999867 
2.950852e+3, 2.780705e+2, -8388.285, -141445.08, -3127.0408, 0.29161227, -0.22061263, -8314.835, 206565.19, 0.0, 10.002103, 10.000357 
2.950472e+3, 2.8806263e+2, 17793.92, 21599.871, -18486.506, -0.009297706, -0.3947468, 38281.09, 155232.47, 0.0, 10.001206, 10.001232 
2.9500973e+3, 2.9805598e+2, -88632.68, -154928.05, -27925.195, 0.286374, -0.45366392, -78437.71, -59425.12, 0.0, 10.000461, 9.9997225 
2.966076e+3, 1.3854133e+2, -1544080.8, -1884027.8, -147512.86, -0.03950595, -0.26041707, -1488996.4, 93266.24, 0.0, 10.002269, 9.9977045 
2.9657078e+3, 1.4853017e+2, -1267679.1, -1637751.9, 28603.861, 0.5083625, -0.5005135, -1265481.3, 218898.34, 0.0, 10.003246, 9.998262 
2.9653332e+3, 1.585244e+2, -1129929.0, -1383335.0, 65501.395, 0.35488877, -0.24096343, -1113999.4, 272437.1, 0.0, 10.002928, 9.999495 
2.9649606e+3, 1.6851929e+2, -1288118.8, -1086444.8, 92247.61, 0.29730847, -0.20411338, -1050615.3, 237871.8, 0.0, 9.999797, 10.00234 
2.9645875e+3, 1.7851433e+2, -1701306.0, -1273803.1, 79500.62, 0.16323584, -0.25317162, -1259497.5, -68961.195, 0.0, 9.99645, 10.0020075 
2.964214e+3, 1.8850955e+2, -1213866.5, -1027143.25, -63682.01, 0.22537075, -0.21476382, -1007492.5, 85089.58, 0.0, 9.999339, 10.001606 
2.963841e+3, 1.9850439e+2, -725468.7, -951412.7, -7262.9126, 0.42740685, -0.17444268, -725235.5, 269396.0, 0.0, 10.0028925, 9.999766 
2.9634678e+3, 2.084951e+2, -813414.75, -1231780.0, 136234.92, 0.21683478, -0.21880525, -772963.0, 123762.99, 0.0, 10.0028925, 9.997147 
2.9630935e+3, 2.1848461e+2, -795684.1, -1000580.06, 107054.82, -0.12220541, -0.32469773, -749955.44, 48877.47, 0.0, 10.001571, 9.998729 
2.9627225e+3, 2.284782e+2, -574444.3, -420123.84, 46046.832, 0.04123844, -0.3928481, -407428.56, 293460.9, 0.0, 10.000644, 10.002447 
2.962352e+3, 2.384731e+2, -704704.4, -602225.25, 1396.8359, 0.35476118, -0.4486171, -602206.2, 724.676, 0.0, 9.999748, 10.00099 
2.9619744e+3, 2.4846533e+2, -635212.25, -844075.5, -11252.252, 0.14222744, -0.43697727, -634607.8, -129598.52, 0.0, 10.000993, 9.998036 
2.961595e+3, 2.5845692e+2, -300939.28, -508111.2, 19579.889, -0.17238833, -0.41289613, -299105.0, 107991.88, 0.0, 10.002051, 9.999189 
2.9612207e+3, 2.6845157e+2, -106164.945, -84322.414, 8071.8867, 0.03449055, -0.33377656, -81663.2, 227481.56, 0.0, 10.001531, 10.001652 
2.9608467e+3, 2.784468e+2, -226898.88, -173278.63, -49860.164, 0.28588405, -0.2783055, -143477.64, 67706.8, 0.0, 10.000337, 10.000972 
2.9604638e+3, 2.8843975e+2, -312613.38, -296791.06, -99036.516, -0.21115164, -0.31224436, -205350.23, -92096.2, 0.0, 9.999666, 9.9997635 
2.9600886e+3, 2.984319e+2, -415913.22, -425052.2, 84470.09, 0.04165778, -0.35818884, -335889.1, -320550.97, 0.0, 9.998766, 9.998662 
2.976078e+3, 1.3891536e+2, -1496048.0, -1803471.0, -72439.39, 0.5944453, -0.16125692, -1479834.0, 98768.69, 0.0, 10.00232, 9.998239 
2.9757014e+3, 1.4890622e+2, -1280642.8, -1604225.0, 37270.633, 0.2532566, -0.229158, -1276405.4, 204292.83, 0.0, 10.002957, 9.998645 
2.9753274e+3, 1.5889737e+2, -1099094.5, -1297824.0, -4381.2056, 0.13953264, -0.32226643, -1098997.9, 283787.25, 0.0, 10.0028, 10.000153 
2.974953e+3, 1.6889314e+2, -1292632.5, -1064563.1, -62555.855, 0.24950211, -0.24209079, -1048531.9, 236292.02, 0.0, 9.999629, 10.002589 
2.9745787e+3, 1.7888929e+2, -1714114.3, -1310904.1, 32142.81, 0.2777371, -0.1799678, -1308357.9, -121499.14, 0.0, 9.996443, 10.001775 
2.9742062e+3, 1.888828e+2, -1244144.0, -1153323.9, 82538.195, 0.19924127, -0.23719172, -1104528.8, -15606.977, 0.0, 9.99954, 10.000678 
2.973835e+3, 1.9887577e+2, -603383.56, -876514.2, 53280.344, 0.16443254, -0.30941123, -593358.06, 397632.97, 0.0, 10.003581, 9.999981 
2.9734632e+3, 2.0886883e+2, -636131.0, -960191.75, 82126.93, 0.14817949, -0.23078614, -616506.0, 276557.56, 0.0, 10.003267, 9.99886 
2.9730907e+3, 2.1886185e+2, -679516.44, -837236.1, 79400.64, 0.08879517, -0.14117241, -646468.56, 148668.45, 0.0, 10.001815, 9.999768 
2.9727167e+3, 2.2885516e+2, -671421.4, -610794.5, 14088.034, 0.10417469, -0.18935774, -607680.75, 89520.36, 0.0, 10.000477, 10.001274 
2.9723427e+3, 2.3884879e+2, -716241.56, -576874.06, -30789.105, 0.14100397, -0.27620772, -570375.2, 28884.828, 0.0, 9.999459, 10.001334 
2.9719666e+3, 2.4884269e+2, -400439.13, -410858.8, 79582.83, -0.04781892, -0.30367166, -325895.8, 175419.63, 0.0, 10.001157, 10.000957 
2.9715905e+3, 2.5883624e+2, -33295.18, -266817.72, 100719.125, -0.24007457, -0.32661638, 4143.2144, 407518.16, 0.0, 10.003303, 10.000271 
2.9712158e+3, 2.688287e+2, -198997.14, -377626.0, -52625.316, 0.07467381, -0.33996797, -184646.28, 120799.97, 0.0, 10.001894, 9.999501 
2.9708403e+3, 2.788212e+2, -396837.16, -382771.56, -160250.84, 0.40661466, -0.357105, -229399.25, -21881.738, 0.0, 9.999638, 9.999905 
2.970458e+3, 2.8881434e+2, -416697.97, -304234.06, -151905.66, 0.05527314, -0.3682783, -198486.52, -88900.375, 0.0, 9.998724, 10.000202 
2.9700822e+3, 2.988089e+2, -545386.06, -408368.0, -47941.664, 0.30700582, -0.19918688, -393259.5, -381612.72, 0.0, 9.997543, 9.999384 
2.9860744e+3, 1.3928978e+2, -1652594.8, -1744340.9, 67100.414, 0.75032526, -0.18563622, -1617185.5, -42250.426, 0.0, 10.000684, 9.999447 
2.9856938e+3, 1.492829e+2, -1635307.0, -1719298.4, 133142.67, 0.027596733, -0.09362636, -1537693.9, -60687.656, 0.0, 10.000293, 9.999147 
2.985321e+3, 1.592729e+2, -1599107.4, -1551372.4, 96036.25, 0.10309154, -0.33899912, -1476282.3, -97176.39, 0.0, 9.999432, 10.000051 
2.9849458e+3, 1.6926794e+2, -1143802.6, -1082803.3, -35175.453, 0.20979998, -0.26272383, -1066746.1, 214405.94, 0.0, 10.001072, 10.001761 
2.984571e+3, 1.7926328e+2, -916194.1, -1038375.56, 48782.016, 0.2679643, -0.18935968, -899107.1, 284087.63, 0.0, 10.002431, 10.000762 
2.9841998e+3, 1.8925586e+2, -1068048.3, -1114562.1, 169473.83, 0.18613747, -0.27868336, -920243.0, 165023.19, 0.0, 10.000954, 10.000264 
2.983829e+3, 1.9924845e+2, -1209894.4, -1110722.9, 155377.23, 0.08678335, -0.381621, -997211.0, -9872.144, 0.0, 9.999207, 10.000468 
2.983458e+3, 2.0924303e+2, -990680.8, -970781.3, 137005.14, 0.088666394, -0.26819828, -843365.1, 46030.1, 0.0, 10.000149, 10.000282 
2.9830858e+3, 2.1923853e+2, -801509.44, -833057.3, 111194.234, 0.15893693, -0.061839156, -704975.9, 86467.47, 0.0, 10.000765, 10.000287 
2.9827103e+3, 2.2923216e+2, -730346.9, -743339.2, 36062.465, 0.097629406, -0.030158576, -700200.1, -6690.987, 0.0, 10.000607, 10.000273 
2.9823336e+3, 2.3922484e+2, -648801.06, -547926.75, 42853.063, -0.02160774, -0.11131639, -532180.1, 63402.152, 0.0, 9.999983, 10.001274 
2.9819596e+3, 2.4922012e+2, -386527.03, -152441.33, 126713.16, -0.16210198, -0.1541174, -96987.07, 400632.2, 0.0, 10.00022, 10.003167 
2.9815862e+3, 2.5921544e+2, -443407.66, -443063.97, 6678.4634, -0.21059664, -0.17587839, -436555.13, -36900.363, 0.0, 10.000461, 10.000415 
2.9812106e+3, 2.6920566e+2, -608722.9, -767325.3, -163884.39, 0.13475059, -0.30356687, -505961.53, -204210.23, 0.0, 9.999949, 9.997743 
2.9808334e+3, 2.7919543e+2, -569454.94, -545417.06, -143875.63, 0.4514965, -0.45010102, -413059.25, -209205.11, 0.0, 9.998847, 9.999156 
2.9804525e+3, 2.8918916e+2, -175005.77, -79269.375, -69669.19, 0.28423136, -0.44471022, -42608.523, 63307.21, 0.0, 9.999981, 10.001124 
2.9800746e+3, 2.9918703e+2, -74839.6, -70462.484, -93300.58, 0.41819882, -0.017875548, 20675.197, 28615.482, 0.0, 10.000378, 10.000311 
2.9960662e+3, 1.3966298e+2, -1472559.0, -1447558.8, 126979.08, 0.5114508, -0.4456925, -1332466.0, 238810.28, 0.0, 10.000995, 10.00135 
2.995685e+3, 1.4965928e+2, -1587302.8, -1620377.9, 71909.98, -0.18857399, -0.12911604, -1530053.1, -56739.11, 0.0, 10.000266, 9.999865 
2.9953143e+3, 1.5964983e+2, -1616720.4, -1614733.0, 114685.36, 0.16315262, -0.3557414, -1501037.0, -125626.82, 0.0, 9.999529, 9.999579 
2.9949403e+3, 1.6964214e+2, -1292598.6, -1378481.4, 20522.61, 0.21066757, -0.392633, -1287946.5, -10459.18, 0.0, 10.000994, 9.999785 
2.994565e+3, 1.7963535e+2, -882899.44, -1066464.3, 40735.53, 0.09212223, -0.3725788, -874265.75, 305288.66, 0.0, 10.002846, 10.000367 
2.9941934e+3, 1.8962856e+2, -974146.2, -995538.75, 88499.5, 0.11984774, -0.43102682, -895698.94, 185919.11, 0.0, 10.001298, 10.000912 
2.993823e+3, 1.9962204e+2, -1214996.0, -1016189.56, 121315.9, 0.25796035, -0.4873737, -958753.56, 24925.121, 0.0, 9.998738, 10.001341 
2.993451e+3, 2.0961827e+2, -944043.75, -765244.7, 206091.97, 0.13264965, -0.34115362, -629997.44, 255716.22, 0.0, 9.999673, 10.001923 
2.9930773e+3, 2.1961394e+2, -714574.44, -738543.75, 133402.98, -0.09724465, -0.23990321, -592618.8, 195136.94, 0.0, 10.001091, 10.00078 
2.9927018e+3, 2.2960715e+2, -768518.56, -856583.0, 18619.076, -0.10055025, -0.19070704, -764743.8, -74915.93, 0.0, 10.000703, 9.999477 
2.9923275e+3, 2.3960106e+2, -579963.25, -557878.4, 52628.258, 0.013958413, -0.08721962, -515146.6, 76745.73, 0.0, 10.000602, 10.000917 
2.9919556e+3, 2.4959686e+2, -415520.4, -265928.84, 82891.08, 0.11947034, -0.008330166, -229076.34, 264849.63, 0.0, 10.000404, 10.002332 
2.9915828e+3, 2.5959197e+2, -559559.25, -480521.34, -91353.03, 0.18950132, 0.013273776, -420505.75, -24540.047, 0.0, 9.99952, 10.000657 
2.9912037e+3, 2.6958215e+2, -658836.06, -629470.56, -201269.69, 0.25326246, -0.2225293, -442348.78, -144281.19, 0.0, 9.998872, 9.999254 
2.990823e+3, 2.7957192e+2, -443503.13, -298992.94, -65711.5, 0.26981977, -0.50839716, -273581.25, -73407.99, 0.0, 9.99887, 10.000877 
2.990445e+3, 2.8956497e+2, 146214.77, 241474.84, 94547.83, 0.12981522, -0.7235065, 299712.22, 401943.84, 0.0, 10.001433, 10.002707 
2.9900685e+3, 2.9956436e+2, 311483.7, -12547.397, -64722.652, 0.24738745, -0.20635405, 323933.22, 328165.97, 0.0, 10.003433, 9.999388 
3.0060604e+3, 1.400371e+2, -1446143.1, -1225699.1, 73783.67, 0.48630595, -0.51862985, -1203282.9, 364326.25, 0.0, 10.000284, 10.003175 
3.0056807e+3, 1.5003781e+2, -1077130.0, -1207374.1, 91660.97, -0.06936619, 0.05748451, -1029812.7, 439787.44, 0.0, 10.003057, 10.001313 
3.0053103e+3, 1.6002901e+2, -1070468.9, -1399734.8, 134426.83, 0.30140576, -0.19512613, -1022558.7, 349131.13, 0.0, 10.00344, 9.999162 
3.0049372e+3, 1.7002209e+2, -1112342.9, -1518905.5, 67039.164, 0.4376426, -0.004631103, -1101573.9, 172191.66, 0.0, 10.003125, 9.997798 
3.0045658e+3, 1.8001482e+2, -1027949.4, -1267444.3, 75570.414, 0.6050557, 0.11143414, -1006097.56, 169745.19, 0.0, 10.002381, 9.999208 
3.0041885e+3, 1.9000822e+2, -1241697.8, -1184496.9, -81258.47, 0.26161978, 0.11069765, -1126952.5, -49049.15, 0.0, 9.99966, 10.000407 
3.003812e+3, 1.9999835e+2, -1298294.8, -1055000.3, 27046.396, -0.00019043528, -0.23253079, -1052029.8, -72035.77, 0.0, 9.998133, 10.0013685 
3.0034417e+3, 2.0999454e+2, -682183.0, -361222.63, 250122.92, -0.15218754, -0.290338, -224523.8, 657498.3, 0.0, 10.000287, 10.004366 
3.0030707e+3, 2.1999064e+2, -496792.22, -713031.1, 154029.23, -0.29864013, -0.29139587, -416723.4, 367330.6, 0.0, 10.002938, 10.000042 
3.0026984e+3, 2.2998045e+2, -352942.5, -935698.44, -108168.96, 0.041247, -0.38462058, -333512.4, 352651.97, 0.0, 10.004756, 9.996937 
3.0023265e+3, 2.3997243e+2, -141229.39, -389852.13, -171843.64, 0.38691196, -0.3482455, -53447.496, 534805.5, 0.0, 10.003828, 10.000487 
3.001947e+3, 2.4996717e+2, -92266.48, -28140.855, 14296.675, -0.15633495, -0.46057948, -25097.844, 465199.47, 0.0, 10.0023155, 10.002979 
3.001568e+3, 2.599623e+2, -410560.34, -414105.94, 5041.3184, -0.5837031, -0.5053278, -406989.22, -14650.494, 0.0, 10.000595, 10.000561 
3.0011937e+3, 2.6995915e+2, -291166.2, -481719.7, -256124.86, 0.04993324, -0.0500576, -113170.914, 181211.45, 0.0, 10.00156, 9.998931 
3.0008176e+3, 2.7995455e+2, 157085.22, 95526.72, -254651.6, 0.43597415, 0.19476838, 382810.94, 579248.1, 0.0, 10.00256, 10.001792 
3.0004394e+3, 2.8994557e+2, 443035.9, 615876.44, -53.849617, 0.15149127, -0.4343881, 615876.5, 714380.6, 0.0, 10.002564, 10.004676 
3.0000633e+3, 2.999411e+2, 11375.62, -380271.63, -226503.64, 0.17211974, -0.44209793, 114969.42, 115504.12, 0.0, 10.002509, 9.997211 
