coord_x,coord_y,stress_xx,stress_yy,tau_xy,velocity_x,velocity_y,stress_1,eps,damage,lx,ly
4.9979138e+0, 1.2570885e+2, -2235566.3, -1698873.4, -40525.836, 0.027459063, -0.10555117, -1695830.5, 12194.0625, 0.0013801174, 9.995268, 10.002387 
4.9980688e+0, 1.3570632e+2, -2118295.8, -1746914.3, -15694.489, 0.0028243216, -0.45925933, -1746252.1, -136204.63, 0.0008364695, 9.996074, 10.000995 
4.998261e+0, 1.45709e+2, -1889216.0, -1519675.9, -13903.677, -0.008693593, -0.3217988, -1519153.5, -7132.594, 0.00038681776, 9.996689, 10.001579 
4.9984884e+0, 1.5571097e+2, -1735075.9, -1412780.8, -22754.244, -0.009044063, -0.28215683, -1411182.3, 2819.934, 0.00011816065, 9.997153, 10.001416 
4.9988335e+0, 1.6571224e+2, -1613705.0, -1407610.1, -11362.016, -0.004927679, -0.24703921, -1406985.6, -90994.06, 0.000016018055, 9.997762, 10.000487 
4.9992704e+0, 1.7571275e+2, -1411176.5, -1260984.1, 4385.799, 0.0024866057, -0.25208077, -1260856.1, -42866.914, 0.00000013955699, 9.998487, 10.000471 
4.9995166e+0, 1.8571325e+2, -1244315.6, -1154576.9, 2560.993, -0.0018900735, -0.23852, -1154503.9, -34518.582, 0.0, 9.999067, 10.000252 
4.999621e+0, 1.9571376e+2, -1084230.9, -1035549.5, -6893.3135, -0.014615796, -0.21665649, -1034592.2, -12612.5625, 0.0, 9.999532, 10.000172 
4.9998513e+0, 2.0571353e+2, -975732.25, -1015459.25, -13536.629, -0.013079106, -0.21553548, -971558.3, -47576.36, 0.0, 9.999962, 9.999428 
5.0001717e+0, 2.157127e+2, -823205.4, -898167.4, -18971.305, -0.0012516305, -0.24861819, -818677.6, 7313.1074, 0.0, 10.000366, 9.999366 
5.000433e+0, 2.2571173e+2, -705991.1, -860067.5, -11905.518, 0.0033642978, -0.2471095, -705076.56, 22923.932, 0.0, 10.000795, 9.998748 
5.000649e+0, 2.3571067e+2, -544544.25, -734012.1, -235.01979, 0.00263136, -0.2373366, -544543.94, 85467.445, 0.0, 10.001243, 9.998725 
5.00087e+0, 2.4570912e+2, -391610.06, -639274.8, 2268.7922, -0.0005165789, -0.24840114, -391589.28, 140436.44, 0.0, 10.001748, 9.99846 
5.001099e+0, 2.5570723e+2, -219086.2, -515491.1, -7526.7886, -0.005432973, -0.28951824, -218895.19, 215147.73, 0.0, 10.002304, 9.998369 
5.001349e+0, 2.6570532e+2, -106393.7, -504126.13, -7078.3057, -0.005636601, -0.27115548, -106267.77, 229793.31, 0.0, 10.002809, 9.997531 
5.0016165e+0, 2.7570346e+2, 56067.906, -378844.8, 276.87735, -0.0018510201, -0.21862236, 56068.086, 294147.63, 0.0, 10.003267, 9.997497 
5.001872e+0, 2.8570026e+2, 182447.22, -325331.38, 10648.416, 0.0014554741, -0.2608263, 182670.44, 322780.03, 0.000000010220777, 10.003713, 9.996977 
5.002116e+0, 2.956958e+2, 342935.22, -200326.02, 22672.188, 0.003682401, -0.40881774, 343879.75, 386030.53, 0.000007764773, 10.004155, 9.996949 
5.002292e+0, 3.0569282e+2, 378575.56, -285414.88, 24599.025, -0.001558366, -0.3458894, 379485.66, 379485.66, 0.000084165236, 10.004612, 9.995815 
5.00248e+0, 3.1568924e+2, 637681.0, 151629.86, 13119.067, -0.004725175, -0.2879312, 638034.9, 638034.9, 0.0002979415, 10.005047, 9.99861 
1.4993735e+1, 1.2570493e+2, -2188617.0, -1599189.6, -13629.367, 0.08174587, -0.34933186, -1598874.6, 109186.914, 0.00135349, 9.995259, 10.0030775 
1.4994207e+1, 1.357065e+2, -2074103.1, -1653860.1, 14145.448, 0.008425426, -0.36078107, -1653384.5, -43339.617, 0.0008181531, 9.99607, 10.0016365 
1.4994782e+1, 1.457096e+2, -1905305.3, -1550944.8, 2519.3726, -0.026003106, -0.20007168, -1550926.9, -38912.594, 0.00037595516, 9.996681, 10.0013685 
1.4995465e+1, 1.5570931e+2, -1747912.1, -1437755.3, -4229.8774, -0.027116925, -0.36361724, -1437697.6, -23679.904, 0.00011312574, 9.997148, 10.001248 
1.4996503e+1, 1.657103e+2, -1582331.1, -1341321.4, 14950.406, -0.01465869, -0.37304074, -1340397.5, -24388.807, 0.000014709239, 9.997757, 10.000946 
1.4997812e+1, 1.7571208e+2, -1383501.0, -1202630.3, 31323.77, 0.007481719, -0.2951535, -1197359.1, 20633.049, 0.00000010097208, 9.998484, 10.0008745 
1.4998549e+1, 1.8571267e+2, -1261489.6, -1188213.6, 19552.795, -0.005667311, -0.2776283, -1183322.6, -63335.594, 0.0, 9.99906, 10.000025 
1.4998864e+1, 1.9571242e+2, -1099998.1, -1066847.1, 11106.643, -0.04384915, -0.30924913, -1063470.1, -41480.09, 0.0, 9.999526, 9.99996 
1.4999552e+1, 2.0571217e+2, -985219.7, -1033125.75, 892.6044, -0.03937211, -0.2945889, -985203.06, -61209.43, 0.0, 9.999954, 9.999311 
1.5000515e+1, 2.1571188e+2, -830369.75, -911233.0, -2781.1587, -0.0036880923, -0.25879976, -830274.25, -4275.923, 0.0, 10.000359, 9.999281 
1.5001297e+1, 2.2571117e+2, -682608.2, -809642.9, 3940.8057, 0.010000744, -0.24855413, -682486.06, 45519.4, 0.0, 10.000789, 9.999098 
1.5001945e+1, 2.3571013e+2, -524985.44, -691751.3, 17538.916, 0.007859496, -0.26664218, -523160.84, 106853.47, 0.0, 10.001236, 9.999019 
1.500261e+1, 2.4570882e+2, -409468.06, -674932.4, 22195.432, -0.0016093133, -0.25754175, -407625.1, 124401.77, 0.0, 10.001742, 9.998219 
1.5003295e+1, 2.5570723e+2, -233272.22, -542929.9, 13744.596, -0.016517825, -0.24216367, -232663.34, 201379.25, 0.0, 10.0022955, 9.998185 
1.5004048e+1, 2.65705e+2, -91200.59, -470691.7, 9572.25, -0.01678398, -0.26176763, -90959.3, 245104.72, 0.0, 10.002801, 9.997765 
1.5004848e+1, 2.757023e+2, 69475.28, -348562.9, 18003.828, -0.00574207, -0.31142703, 70249.23, 308338.53, 0.0, 10.003259, 9.99771 
1.5005618e+1, 2.8569975e+2, 204821.1, -276871.53, 26252.82, 0.0046747094, -0.31505483, 206247.67, 346360.44, 0.000000009053116, 10.003705, 9.9973135 
1.5006346e+1, 2.956972e+2, 364185.78, -154120.53, 40542.574, 0.010718938, -0.30804235, 367337.9, 409474.03, 0.0000075983085, 10.004148, 9.997271 
1.5006879e+1, 3.0569407e+2, 362186.38, -317391.44, 40797.46, -0.004171267, -0.2625401, 364626.8, 364626.8, 0.00008248214, 10.004605, 9.9956 
1.500743e+1, 3.1568894e+2, 618978.0, 116256.125, 27925.14, -0.015047228, -0.3361325, 620524.44, 620524.44, 0.00029304955, 10.0050335, 9.998373 
2.4989344e+1, 1.2570281e+2, -2105324.0, -1549456.1, 10562.416, 0.089820035, -0.42215925, -1549255.5, 158825.36, 0.0013145427, 9.995793, 10.003161 
2.4990238e+1, 1.3570529e+2, -2106226.8, -1662895.5, -9141.878, 0.016885709, -0.34965283, -1662707.0, -52650.676, 0.0007913486, 9.995824, 10.001695 
2.4991313e+1, 1.4570855e+2, -1958380.1, -1573173.8, -20913.297, -0.022062344, -0.17908898, -1572041.8, -60017.098, 0.00036019128, 9.996303, 10.001401 
2.499259e+1, 1.5570791e+2, -1748279.5, -1434827.3, -10505.546, -0.028567255, -0.37973008, -1434475.6, -20444.564, 0.00010584406, 9.997131, 10.001276 
2.499413e+1, 1.6570881e+2, -1591182.0, -1343585.6, -3951.6465, -0.02421786, -0.40061522, -1343522.6, -27500.045, 0.000012859098, 9.997689, 10.000963 
2.4995884e+1, 1.7571068e+2, -1447055.0, -1231872.4, -21313.576, -0.011701258, -0.31485417, -1229781.6, -11776.898, 0.00000006033416, 9.998043, 10.000887 
2.4997269e+1, 1.8571126e+2, -1320817.9, -1218123.0, -32744.412, -0.019459525, -0.29751724, -1208570.9, -88571.125, 0.0, 9.998658, 10.000013 
2.499838e+1, 1.9571096e+2, -1108078.3, -1071416.0, -26498.969, -0.042087913, -0.33505166, -1057525.6, -35521.848, 0.0, 9.999475, 9.999954 
2.4999565e+1, 2.057108e+2, -968797.8, -1019646.2, -29918.852, -0.037780166, -0.31274918, -954959.7, -30953.088, 0.0, 10.000043, 9.999362 
2.5000796e+1, 2.1571073e+2, -818370.8, -899357.7, -21498.014, -0.014259606, -0.26097313, -813017.94, 12991.073, 0.0, 10.000416, 9.999334 
2.5002e+1, 2.2571005e+2, -665439.94, -793012.1, -15420.352, -0.0024456878, -0.25351432, -663602.44, 64413.11, 0.0, 10.000871, 9.999172 
2.5003192e+1, 2.3570894e+2, -497700.13, -671431.25, -23071.246, 0.001073167, -0.2872688, -494688.5, 135336.5, 0.0, 10.001393, 9.999083 
2.5004393e+1, 2.4570763e+2, -404425.44, -675231.3, -17491.146, 0.00017133608, -0.2782217, -403300.38, 128737.08, 0.0, 10.001788, 9.998195 
2.5005603e+1, 2.557061e+2, -264533.22, -558532.44, -10770.802, -0.0044337, -0.25444615, -264139.16, 169913.56, 0.0, 10.002083, 9.99818 
2.500674e+1, 2.6570392e+2, -128810.086, -468828.0, -8615.491, -0.010257687, -0.2781043, -128591.92, 207481.5, 0.0, 10.002457, 9.997943 
2.500783e+1, 2.7570128e+2, 30570.58, -349197.9, -3845.2092, -0.015881583, -0.34124106, 30609.508, 268707.34, 0.0, 10.0029125, 9.997872 
2.5009072e+1, 2.85699e+2, 177673.05, -280304.88, -2208.2346, -0.008608478, -0.3306408, 177683.7, 317802.66, 0.000000009457464, 10.003478, 9.997399 
2.5010392e+1, 2.956969e+2, 362040.34, -146362.78, -8681.059, 0.0032382142, -0.28806117, 362188.53, 404327.25, 0.0000073463098, 10.004095, 9.99735 
2.5011483e+1, 3.0569366e+2, 362910.5, -319216.44, -9608.708, -0.004852658, -0.25230306, 363045.84, 363045.84, 0.00008001909, 10.0046215, 9.99558 
2.501268e+1, 3.1568834e+2, 626025.25, 117784.414, -13714.334, 0.0038215043, -0.3427092, 626395.06, 626395.06, 0.00028603757, 10.005095, 9.998354 
3.4984735e+1, 1.257025e+2, -2143326.5, -1627294.6, 7055.5464, 0.046582077, -0.32850054, -1627198.3, 80884.53, 0.0012623775, 9.995791, 10.002627 
3.4986153e+1, 1.357027e+2, -2142452.3, -1738259.8, -5057.27, 0.024658749, -0.42673564, -1738196.5, -128114.25, 0.000755357, 9.995826, 10.001176 
3.498784e+1, 1.457058e+2, -1937478.9, -1530212.0, 8892.94, -0.0013576963, -0.25974205, -1530017.9, -17965.875, 0.00033918672, 9.9963045, 10.001696 
3.498986e+1, 1.557068e+2, -1731377.1, -1399264.5, 19954.83, -0.01598612, -0.32799307, -1398069.9, 15972.087, 0.00009620481, 9.997129, 10.001522 
3.499171e+1, 1.6570777e+2, -1621517.3, -1405080.9, 8803.557, -0.036407672, -0.33002588, -1404723.4, -88690.4, 0.000010539653, 9.997684, 10.000544 
3.4993467e+1, 1.7570855e+2, -1473606.1, -1286311.5, -6014.7705, -0.058632836, -0.31138888, -1286118.5, -68091.7, 0.000000028001644, 9.998041, 10.000514 
3.4995663e+1, 1.8570903e+2, -1306451.1, -1187251.6, -2589.3337, -0.04695165, -0.29934207, -1187195.5, -67172.12, 0.0, 9.998653, 10.000228 
3.499817e+1, 1.9570935e+2, -1094191.8, -1041447.56, 3887.6702, -0.011431238, -0.29304433, -1041162.5, -19141.412, 0.0, 9.999469, 10.000162 
3.4999886e+1, 2.0570943e+2, -953978.7, -986595.9, -16401.89, -0.010905365, -0.2707302, -947157.4, -23136.531, 0.0, 10.000034, 9.999593 
3.5001004e+1, 2.1570922e+2, -805228.5, -870294.75, -6278.018, -0.035687905, -0.25375754, -804628.3, 21394.535, 0.0, 10.000408, 9.999537 
3.5002533e+1, 2.2570838e+2, -679115.75, -819791.56, 3568.2305, -0.037286177, -0.26374528, -679025.3, 49005.65, 0.0, 10.000864, 9.998993 
3.500438e+1, 2.3570706e+2, -509344.72, -694194.56, -3060.349, -0.020266503, -0.29843196, -509294.06, 120749.33, 0.0, 10.001387, 9.99893 
3.5006207e+1, 2.4570556e+2, -391209.2, -645792.56, -6994.273, 0.0020699177, -0.31189245, -391017.2, 141040.3, 0.0, 10.001781, 9.9984 
3.500802e+1, 2.557039e+2, -253050.16, -531960.0, 1220.4402, 0.027635278, -0.32453895, -253044.83, 181028.39, 0.0, 10.002072, 9.998367 
3.500942e+1, 2.6570216e+2, -120063.29, -449669.53, 7578.1963, 0.010757196, -0.32046312, -119889.15, 216200.16, 0.0, 10.002453, 9.998077 
3.5010552e+1, 2.757004e+2, 38802.633, -330067.78, 14733.294, -0.03625039, -0.30690464, 39390.17, 277495.22, 0.0, 10.002905, 9.998008 
3.5012233e+1, 2.8569797e+2, 165435.98, -303842.22, 20726.982, -0.041393407, -0.30910176, 166349.67, 306477.84, 0.000000011907709, 10.00347, 9.997242 
3.5014236e+1, 2.9569486e+2, 349971.56, -168433.22, 14961.829, -0.022561561, -0.34843084, 350403.0, 392561.63, 0.000006964684, 10.004085, 9.997203 
3.5016105e+1, 3.0569166e+2, 374403.28, -293452.8, 7118.4033, -0.005629395, -0.31579015, 374479.13, 374479.13, 0.00007659062, 10.004615, 9.99576 
3.5018224e+1, 3.1568754e+2, 639465.3, 147757.52, 736.3539, 0.045706313, -0.3034255, 639466.44, 639466.44, 0.00027652088, 10.005088, 9.998563 
4.498011e+1, 1.2570116e+2, -2265254.8, -1707495.9, -14045.608, 0.043367594, -0.27546358, -1707142.4, 953.9394, 0.0011988538, 9.995046, 10.00244 
4.4982314e+1, 1.3570043e+2, -2072812.8, -1730164.0, -1434.9207, 0.029498933, -0.43990803, -1730158.0, -120053.48, 0.0007112032, 9.996413, 10.000951 
4.4984558e+1, 1.4570338e+2, -1832576.8, -1490032.5, 1736.6232, 0.0018319717, -0.27685982, -1490023.6, 22052.965, 0.00031351, 9.997069, 10.001603 
4.498697e+1, 1.5570483e+2, -1728013.1, -1407745.0, -18232.63, -0.021243293, -0.28946358, -1406710.4, 7352.4487, 0.000084590996, 9.997196, 10.001433 
4.4989377e+1, 1.6570579e+2, -1621994.1, -1406893.4, -19533.262, -0.037989177, -0.2881761, -1405133.9, -89079.86, 0.000007991499, 9.997687, 10.00053 
4.499182e+1, 1.7570618e+2, -1412627.0, -1258023.4, -5014.9927, -0.048360717, -0.3062038, -1257860.9, -39809.926, 0.000000008983813, 9.998465, 10.0005045 
4.4994545e+1, 1.8570668e+2, -1275350.1, -1173402.0, -200.70737, -0.03452646, -0.2901086, -1173401.6, -53354.426, 0.0, 9.998872, 10.000217 
4.4997457e+1, 1.9570735e+2, -1162900.0, -1074154.1, -11339.943, -0.0055776173, -0.24834573, -1072728.0, -50686.01, 0.0, 9.998997, 10.000166 
4.4999588e+1, 2.0570737e+2, -1027443.3, -1000940.8, -36389.7, -0.013798125, -0.24192752, -975464.7, -51423.09, 0.0, 9.999438, 9.999783 
4.5001137e+1, 2.1570681e+2, -835620.1, -865717.0, -30662.398, -0.04839304, -0.27968574, -816512.5, 9532.998, 0.0, 10.000116, 9.99971 
4.50032e+1, 2.2570603e+2, -710012.25, -845900.8, -17447.111, -0.048499834, -0.28703588, -707807.94, 20245.258, 0.0, 10.0007, 9.998893 
4.5005658e+1, 2.3570505e+2, -539902.0, -717282.06, -19341.275, -0.022046499, -0.2766727, -537817.5, 92245.93, 0.0, 10.001213, 9.998856 
4.5007956e+1, 2.4570364e+2, -396969.25, -629714.56, -26423.426, 0.0054111574, -0.2867365, -394007.13, 138069.67, 0.0, 10.00166, 9.9985695 
4.501013e+1, 2.5570187e+2, -243586.5, -510520.9, -21305.004, 0.032493398, -0.32780138, -241896.77, 192196.14, 0.0, 10.002064, 9.99852 
4.5011982e+1, 2.657001e+2, -107994.55, -446942.38, -15698.19, 0.017313568, -0.32987118, -107269.05, 228839.69, 0.0, 10.002549, 9.99805 
4.5013636e+1, 2.7569842e+2, 63279.598, -321188.94, -22414.635, -0.026643066, -0.30741608, 64581.97, 302705.75, 0.0, 10.003085, 9.997983 
4.501572e+1, 2.8569594e+2, 152010.48, -318513.5, -20509.68, -0.036463864, -0.30974412, 152902.8, 293050.53, 0.000000014300223, 10.003414, 9.997169 
4.501802e+1, 2.9569268e+2, 277775.94, -211467.58, -19916.531, -0.028832573, -0.3559463, 278585.38, 320765.66, 0.000006428048, 10.003623, 9.99713 
4.5020467e+1, 3.056893e+2, 341126.6, -300828.9, -14019.46, -0.016804123, -0.34046903, 341432.6, 341432.6, 0.00007216027, 10.004349, 9.995838 
4.5023444e+1, 3.1568557e+2, 688141.6, 178503.42, -35966.14, 0.04527282, -0.2966356, 690667.25, 690667.25, 0.00026447006, 10.005387, 9.998632 
5.4975414e+1, 1.2569879e+2, -2250951.0, -1680646.8, 34943.51, 0.06644709, -0.259938, -1678513.8, 29607.877, 0.0011275938, 9.995057, 10.00262 
5.4978734e+1, 1.3569859e+2, -2065842.4, -1716271.8, 46902.16, 0.028393202, -0.3849309, -1710088.3, -99965.27, 0.00066134764, 9.996415, 10.001046 
5.498146e+1, 1.4570121e+2, -1866642.6, -1559637.6, 6140.5938, -0.01679689, -0.23100041, -1559514.9, -47416.438, 0.00028458898, 9.997065, 10.001127 
5.498387e+1, 1.5570195e+2, -1757252.9, -1469169.1, -10784.554, -0.051972147, -0.26536816, -1468766.0, -54672.145, 0.00007188515, 9.997199, 10.001011 
5.4987097e+1, 1.657028e+2, -1593509.8, -1348515.1, 8967.487, -0.03654735, -0.27595684, -1348187.4, -32101.56, 0.0000055425044, 9.99769, 10.00093 
5.499094e+1, 1.7570357e+2, -1387743.9, -1206164.3, 22960.277, 0.016548773, -0.29833522, -1203306.0, 14771.016, 0.00000000116644, 9.998463, 10.000861 
5.499391e+1, 1.8570425e+2, -1292474.5, -1207176.4, 3940.1438, 0.013909055, -0.26930627, -1206994.8, -86923.65, 0.0, 9.998865, 9.9999895 
5.499622e+1, 1.9570494e+2, -1177264.6, -1103209.0, -4553.464, -0.02998203, -0.2012015, -1102930.0, -80863.46, 0.0, 9.998994, 9.999968 
5.4998654e+1, 2.0570463e+2, -1016613.3, -977519.06, -11158.38, -0.05178823, -0.2276356, -974558.44, -50489.438, 0.0, 9.999434, 9.999946 
5.500118e+1, 2.157035e+2, -826671.6, -845547.3, -4718.499, -0.056432106, -0.3385366, -825557.8, 519.19336, 0.0, 10.00011, 9.999853 
5.500399e+1, 2.2570297e+2, -712033.8, -847857.94, 1363.333, -0.040308595, -0.3241009, -712020.1, 16062.096, 0.0, 10.00069, 9.998883 
5.5007017e+1, 2.3570293e+2, -540709.8, -717758.9, 314.9334, -0.008348929, -0.22081909, -540709.25, 89375.87, 0.0, 10.001208, 9.998855 
5.500963e+1, 2.4570188e+2, -387134.47, -608417.5, -11847.557, 0.005267508, -0.20381562, -386501.97, 145593.53, 0.0, 10.001656, 9.998718 
5.501193e+1, 2.5570002e+2, -235845.84, -492929.28, -5014.7163, 0.004831498, -0.26433805, -235748.06, 198363.78, 0.0, 10.002057, 9.998645 
5.5014414e+1, 2.656978e+2, -121440.71, -473819.84, 4154.4917, 0.004956341, -0.30777135, -121391.734, 214740.05, 0.0, 10.002545, 9.997868 
5.501707e+1, 2.7569538e+2, 49524.57, -347613.4, -2786.726, 0.007552379, -0.34205616, 49544.125, 287698.1, 0.0, 10.003077, 9.997805 
5.501951e+1, 2.8569296e+2, 152105.44, -317879.13, -13733.997, 0.0003388824, -0.3316433, 152506.44, 292684.0, 0.00000001499631, 10.003412, 9.997174 
5.5021733e+1, 2.956904e+2, 278557.0, -208902.28, -8128.4453, -0.021654304, -0.3088153, 278692.53, 320896.06, 0.000005758176, 10.003619, 9.99715 
5.502455e+1, 3.0568668e+2, 339009.03, -304406.56, 25395.414, -0.044121727, -0.3278687, 340009.84, 340009.84, 0.00006691841, 10.004346, 9.995816 
5.502832e+1, 3.1568247e+2, 682428.0, 169086.56, 1785.588, -0.00883381, -0.3274333, 682434.2, 682434.2, 0.00025031035, 10.005379, 9.998572 
6.4971304e+1, 1.2569547e+2, -2034080.4, -1550236.5, -17396.842, 0.08173793, -0.25049704, -1549611.9, 158544.27, 0.001052614, 9.996434, 10.002848 
6.497465e+1, 1.3569564e+2, -2146215.8, -1735705.1, -1851.7109, 0.010888225, -0.35839453, -1735696.8, -125544.44, 0.00060904585, 9.995783, 10.001215 
6.4977854e+1, 1.4569809e+2, -2015619.9, -1646028.9, -15213.323, -0.034899253, -0.22305742, -1645403.6, -133274.53, 0.000254567, 9.996107, 10.000997 
6.4981127e+1, 1.5569852e+2, -1767350.0, -1487514.9, -7257.139, -0.046132408, -0.2755714, -1487326.8, -73198.766, 0.00005931439, 9.9971895, 10.000889 
6.4984953e+1, 1.6569941e+2, -1584018.6, -1340266.9, 4563.4604, -0.021593451, -0.27947864, -1340181.4, -24061.56, 0.0000034805446, 9.99774, 10.000963 
6.498923e+1, 1.7570043e+2, -1468793.3, -1240807.9, -9968.223, 0.027905015, -0.27723333, -1240372.9, -22264.447, 0.00000000000024211628, 9.997889, 10.000901 
6.4992625e+1, 1.8570107e+2, -1356471.5, -1220654.4, -24682.207, 0.024356168, -0.26269877, -1216307.9, -96205.914, 0.0, 9.998353, 10.000142 
6.499536e+1, 1.9570147e+2, -1158057.5, -1078722.3, -4808.037, -0.01797885, -0.2404062, -1078431.9, -56333.047, 0.0, 9.999061, 10.000103 
6.4998347e+1, 2.0570114e+2, -979001.4, -975384.94, -1690.7375, -0.042218544, -0.26656646, -974717.6, -50616.17, 0.0, 9.999763, 9.999801 
6.500149e+1, 2.1570022e+2, -783566.3, -837432.0, -19882.734, -0.053768355, -0.34100407, -777022.25, 49086.55, 0.0, 10.000463, 9.999738 
6.500471e+1, 2.256998e+2, -687963.0, -809822.44, -27241.441, -0.039279953, -0.32442594, -682150.5, 45962.492, 0.0, 10.000743, 9.99912 
6.500801e+1, 2.3569973e+2, -600253.06, -722690.9, -9453.715, -0.004337908, -0.24754299, -599527.4, 30587.285, 0.0, 10.000697, 9.999067 
6.501107e+1, 2.4569874e+2, -466287.75, -664200.56, -10578.683, 0.0080358675, -0.2262089, -465723.9, 66400.75, 0.0, 10.001187, 9.998561 
6.5013975e+1, 2.55697e+2, -240661.98, -510289.2, -27872.158, 0.003176832, -0.25867024, -237810.9, 196330.2, 0.0, 10.002089, 9.99851 
6.501692e+1, 2.656948e+2, -114392.2, -462447.03, -27354.027, 0.0005871172, -0.30110648, -112255.54, 223906.08, 0.0, 10.00256, 9.997938 
6.501991e+1, 2.756922e+2, 1890.4063, -363548.84, -15531.765, 0.0024745653, -0.3561692, 2549.3435, 240734.23, 0.0, 10.00272, 9.997867 
6.502288e+1, 2.8568992e+2, 139207.08, -321101.22, -8515.546, 0.001961903, -0.33503923, 139364.55, 279571.56, 0.000000013847158, 10.003311, 9.997201 
6.5025765e+1, 2.9568774e+2, 366542.97, -162051.55, -2583.0938, -0.008736614, -0.2767629, 366555.6, 408784.88, 0.00000502331, 10.004205, 9.99719 
6.502906e+1, 3.056837e+2, 376512.66, -284002.78, 34307.527, -0.039286803, -0.33067936, 378289.84, 378289.84, 0.000061189545, 10.004593, 9.995836 
6.5033156e+1, 3.1567943e+2, 566158.44, 106892.98, 7230.2495, -0.023357317, -0.34007263, 566272.25, 566272.25, 0.00023465088, 10.004604, 9.998516 
7.4967766e+1, 1.2569116e+2, -2013902.8, -1510093.1, -45480.305, 0.08090619, -0.2544793, -1506020.4, 202180.02, 0.0009783517, 9.996441, 10.00312 
7.4970007e+1, 1.3569154e+2, -2127896.3, -1700937.8, -21266.867, -0.033712085, -0.36456722, -1699881.0, -89687.82, 0.00055803865, 9.995795, 10.001448 
7.4973696e+1, 1.4569396e+2, -1999441.4, -1614031.6, 24922.557, -0.063256055, -0.2556368, -1612426.8, -100257.734, 0.00022607559, 9.996114, 10.001213 
7.497874e+1, 1.5569448e+2, -1754375.9, -1460787.6, 31603.564, -0.005025467, -0.3191995, -1457424.1, -43258.87, 0.000048170983, 9.9971895, 10.001073 
7.4982965e+1, 1.6569555e+2, -1607666.9, -1387875.4, 9832.196, 0.004523155, -0.29838824, -1387436.4, -71280.13, 0.0000019773436, 9.997734, 10.000638 
7.498663e+1, 1.7569676e+2, -1487431.1, -1279991.8, -2011.7129, -0.021484084, -0.24350429, -1279972.3, -61827.24, 0.0, 9.997891, 10.00063 
7.4990636e+1, 1.8569712e+2, -1318943.5, -1143000.1, 1798.223, -0.010975469, -0.27183193, -1142981.8, -22841.865, 0.0, 9.998354, 10.000675 
7.49949e+1, 1.956969e+2, -1125852.1, -1011148.06, 22275.643, 0.028004479, -0.36541465, -1006974.0, 15164.734, 0.0, 9.999058, 10.000569 
7.499866e+1, 2.0569688e+2, -1011122.44, -1040273.9, 24357.904, 0.012337263, -0.3585625, -997312.25, -73173.16, 0.0, 9.999756, 9.999358 
7.5002044e+1, 2.15697e+2, -810853.1, -892884.75, 5354.03, -0.045535315, -0.28656065, -810505.1, 15635.745, 0.0, 10.000458, 9.999358 
7.5005347e+1, 2.2569647e+2, -653811.3, -738322.94, -29506.094, -0.05063122, -0.28847578, -644529.1, 83616.37, 0.0, 10.000739, 9.999613 
7.500861e+1, 2.3569545e+2, -570842.6, -661150.06, -8235.625, -0.013925466, -0.3569998, -570097.75, 60054.516, 0.0, 10.000694, 9.999492 
7.501229e+1, 2.456942e+2, -498938.88, -730751.56, 22934.582, 0.010030265, -0.35517117, -496691.6, 35472.797, 0.0, 10.001183, 9.998106 
7.501627e+1, 2.556928e+2, -269850.4, -569242.2, 4401.618, 0.022504505, -0.30938458, -269785.7, 164394.9, 0.0, 10.002082, 9.998109 
7.501948e+1, 2.65691e+2, -91844.37, -414885.56, -22299.174, -0.00014099861, -0.30892152, -90312.34, 245885.83, 0.0, 10.002557, 9.998266 
7.502216e+1, 2.7568892e+2, 22223.918, -320008.53, -6679.1025, -0.04591719, -0.35004914, 22354.22, 260570.84, 0.0, 10.002714, 9.998169 
7.502582e+1, 2.8568685e+2, 142196.86, -314059.7, 24493.027, -0.03642944, -0.32102966, 143507.94, 283744.1, 0.000000011324871, 10.003307, 9.997251 
7.5030106e+1, 2.9568475e+2, 369748.56, -153579.47, 29096.111, 0.0036883308, -0.26100692, 371361.28, 413618.8, 0.0000042980337, 10.004198, 9.9972515 
7.5033957e+1, 3.0568045e+2, 380338.9, -275349.25, 34096.61, -0.009312452, -0.34798318, 382107.2, 382107.2, 0.00005527223, 10.00459, 9.995896 
7.503793e+1, 3.1567648e+2, 562499.2, 101013.07, 4816.3433, -0.007991062, -0.33201617, 562549.44, 562549.44, 0.00021799354, 10.004598, 9.998478 
8.49634e+1, 1.2568682e+2, -2192788.5, -1617112.1, -31832.936, 0.057488166, -0.26187563, -1615357.3, 92885.94, 0.00090933184, 9.995303, 10.002934 
8.496626e+1, 1.3568725e+2, -2006096.8, -1664976.9, -42565.473, -0.033791397, -0.34659696, -1659745.6, -49508.637, 0.0005120121, 9.996729, 10.001245 
8.49705e+1, 1.4568953e+2, -1832409.0, -1517544.8, -12181.146, -0.047864415, -0.24775398, -1517074.1, -4860.4473, 0.00020159004, 9.997191, 10.001355 
8.4976065e+1, 1.5569016e+2, -1782139.5, -1460487.6, -12554.43, 0.021997664, -0.31447735, -1459998.4, -45790.832, 0.000039447743, 9.996943, 10.001193 
8.4980655e+1, 1.6569111e+2, -1676928.4, -1435817.5, -24633.244, 0.02028771, -0.30358228, -1433326.6, -117127.39, 0.0000010481418, 9.997324, 10.000505 
8.498454e+1, 1.7569205e+2, -1453613.6, -1276540.1, -23146.82, -0.033917207, -0.2634237, -1273564.4, -55373.242, 0.0, 9.99818, 10.000514 
8.4989035e+1, 1.8569238e+2, -1252504.8, -1102395.8, -29780.42, -0.026955482, -0.29401225, -1096703.5, 23482.82, 0.0, 9.998773, 10.000752 
8.499397e+1, 1.956923e+2, -1103788.1, -991448.4, -44266.496, 0.024999805, -0.37914634, -976102.0, 46081.074, 0.0, 9.999172, 10.0006485 
8.499837e+1, 2.056925e+2, -1052394.9, -1054383.1, -39063.48, 0.023296263, -0.3573637, -1014312.9, -90131.39, 0.0, 9.999448, 9.99941 
8.500235e+1, 2.1569288e+2, -929320.94, -945460.1, -21870.69, -0.018563116, -0.26595297, -914078.6, -87897.13, 0.0, 9.999623, 9.9994 
8.500608e+1, 2.2569226e+2, -710901.0, -772353.3, -58254.54, -0.03305258, -0.27434886, -675766.06, 52420.918, 0.0, 10.000376, 9.999554 
8.500963e+1, 2.3569092e+2, -445989.47, -605690.5, -80304.766, -0.025738405, -0.36752638, -412592.66, 217603.81, 0.0, 10.001574, 9.999448 
8.5013664e+1, 2.4568957e+2, -384365.0, -665735.56, -52320.35, -0.0077876737, -0.37914312, -374951.1, 157258.14, 0.0, 10.001928, 9.998193 
8.501807e+1, 2.5568822e+2, -328664.9, -589010.6, -30320.293, 0.016411383, -0.33755633, -325180.4, 109044.03, 0.0, 10.001641, 9.998185 
8.5021764e+1, 2.6568657e+2, -162339.73, -450394.84, -43956.09, -0.0028251046, -0.32427534, -155781.52, 180459.22, 0.0, 10.002078, 9.998253 
8.5025007e+1, 2.756847e+2, 72500.78, -296477.8, -55358.637, -0.049440235, -0.33985853, 80627.37, 318885.06, 0.0, 10.003061, 9.998163 
8.5029185e+1, 2.8568268e+2, 163145.13, -306961.2, -41201.285, -0.038352903, -0.30905917, 166728.78, 307006.22, 0.000000007967864, 10.003463, 9.997226 
8.503391e+1, 2.9568043e+2, 257858.73, -208458.36, -43511.72, 0.0029114725, -0.2625231, 261884.05, 304184.13, 0.00000360919, 10.003432, 9.997244 
8.5038257e+1, 3.0567592e+2, 312931.94, -283617.13, -30517.125, -0.0097879935, -0.37695882, 314489.0, 314489.0, 0.000049311082, 10.004022, 9.996114 
8.5042727e+1, 3.1567267e+2, 627416.94, 136642.02, -54542.566, -0.010063769, -0.31139338, 633405.5, 633405.5, 0.0002005972, 10.005024, 9.998518 
9.495814e+1, 1.2568247e+2, -2237948.5, -1711730.3, 18265.076, -0.0017486673, -0.27216515, -1711097.0, -2812.5476, 0.0008487081, 9.995307, 10.002284 
9.496345e+1, 1.3568272e+2, -2050639.4, -1759514.1, 7353.484, 0.010398625, -0.30342972, -1759328.5, -149044.61, 0.00047347447, 9.996737, 10.000593 
9.496828e+1, 1.4568481e+2, -1826594.3, -1506193.9, -22430.184, 0.009385396, -0.19734557, -1504631.3, 7632.0767, 0.00018256163, 9.997195, 10.001431 
9.4973063e+1, 1.5568553e+2, -1776980.9, -1451358.9, -18018.053, 0.02557135, -0.26308057, -1450364.9, -36109.945, 0.00003354367, 9.996949, 10.001253 
9.4977945e+1, 1.6568607e+2, -1673960.6, -1429495.5, 7577.4604, 0.015933046, -0.2970703, -1429260.9, -113011.85, 0.00000057940093, 9.997324, 10.000549 
9.4982964e+1, 1.7568626e+2, -1452153.5, -1273311.5, 8488.751, -0.01085076, -0.337565, -1272909.5, -54662.547, 0.0, 9.998179, 10.000537 
9.498782e+1, 1.856868e+2, -1278394.5, -1155948.8, -15372.068, -0.02604072, -0.32824895, -1154048.4, -33807.215, 0.0, 9.998772, 10.000385 
9.4992584e+1, 1.9568768e+2, -1125355.1, -1036449.94, -29166.688, -0.032312103, -0.28137985, -1027735.5, -5503.6973, 0.0, 9.999173, 10.000339 
9.499744e+1, 2.05688e+2, -1015193.6, -976420.2, -32870.332, -0.014010828, -0.26264265, -957645.3, -33416.695, 0.0, 9.999444, 9.999948 
9.50024e+1, 2.1568783e+2, -897502.75, -878458.5, -11982.596, 0.023635378, -0.27894947, -872675.25, -46444.684, 0.0, 9.9996195, 9.999863 
9.5006895e+1, 2.2568715e+2, -754810.7, -862192.7, -13527.999, 0.00985477, -0.2818553, -753132.7, -24895.32, 0.0, 10.00037, 9.99894 
9.501103e+1, 2.3568615e+2, -484067.4, -682724.25, -38421.39, -0.043018416, -0.28012106, -476895.4, 153352.0, 0.0, 10.001565, 9.998923 
9.501519e+1, 2.4568483e+2, -340985.9, -574605.1, -63995.457, -0.048478715, -0.2979246, -324604.28, 207654.92, 0.0, 10.001924, 9.998821 
9.5019364e+1, 2.5568324e+2, -290516.34, -508638.53, -37367.723, -0.019176368, -0.3443514, -284292.25, 149980.45, 0.0, 10.0016365, 9.998739 
9.5023775e+1, 2.6568148e+2, -188062.92, -502851.97, -7427.8423, -0.01083549, -0.34787238, -187887.75, 148401.64, 0.0, 10.002074, 9.997895 
9.5028436e+1, 2.7567965e+2, 48927.72, -344199.44, -20674.268, -0.014495597, -0.32509127, 50011.973, 288320.0, 0.0, 10.003056, 9.997839 
9.5032936e+1, 2.8567737e+2, 156084.13, -320755.63, -43811.465, -0.009998596, -0.29722798, 160076.05, 300406.63, 0.0000000042394483, 10.00346, 9.997132 
9.5037186e+1, 2.956747e+2, 251071.44, -220582.2, -40863.656, -0.014007009, -0.28108236, 254585.66, 296942.5, 0.000002925069, 10.003424, 9.997165 
9.5041955e+1, 3.056702e+2, 338056.6, -229515.08, 7183.753, -0.043095145, -0.41803637, 338147.5, 338147.5, 0.000043225835, 10.004014, 9.996488 
9.504747e+1, 3.1566796e+2, 634414.25, 153309.53, -18688.0, -0.039949954, -0.28336295, 635139.06, 635139.06, 0.00018228758, 10.005015, 9.998637 
1.0495368e+2, 1.2567727e+2, -2091469.5, -1644832.3, -24025.385, -0.028812962, -0.27350083, -1643543.6, 64792.367, 0.00079770345, 9.996329, 10.002249 
1.0496013e+2, 1.3567775e+2, -2101019.5, -1791024.0, 11654.48, 0.020365905, -0.2757794, -1790586.4, -180252.98, 0.0004431459, 9.996425, 10.000526 
1.0496546e+2, 1.4567961e+2, -1881687.6, -1559626.4, -25845.424, 0.02172649, -0.17807017, -1557565.5, -45249.73, 0.00016917764, 9.996932, 10.001192 
1.0497028e+2, 1.556801e+2, -1675405.9, -1426960.5, -45963.016, 0.013253985, -0.24186428, -1418729.9, -4419.826, 0.000030278157, 9.997751, 10.001035 
1.04975596e+2, 1.6568056e+2, -1532654.8, -1345925.9, -15528.886, 0.0042868657, -0.28035268, -1344643.3, -28338.916, 0.0000004316036, 9.998226, 10.000689 
1.0498135e+2, 1.756808e+2, -1404757.6, -1236843.1, -8845.74, -0.0035561102, -0.3299316, -1236378.4, -18077.992, 0.0, 9.998446, 10.000657 
1.0498671e+2, 1.8568137e+2, -1293048.3, -1181738.1, -25605.52, -0.013908378, -0.31464198, -1176130.4, -55835.867, 0.0, 9.998753, 10.0002165 
1.0499179e+2, 1.9568226e+2, -1142963.8, -1062340.0, -25620.363, -0.025645472, -0.250832, -1054887.3, -32600.969, 0.0, 9.999126, 10.000184 
1.04997024e+2, 2.0568237e+2, -964482.0, -946452.2, -38123.766, -0.01636872, -0.24591264, -916292.0, 7992.8, 0.0, 9.999767, 9.999997 
1.0500236e+2, 2.1568187e+2, -750012.3, -802306.6, -54923.152, 0.008353642, -0.29959142, -715330.0, 110958.664, 0.0, 10.000612, 9.999907 
1.05007395e+2, 2.2568126e+2, -693355.7, -845870.4, -51149.02, -0.00091909757, -0.29274875, -677790.4, 50504.9, 0.0, 10.000851, 9.99882 
1.050122e+2, 2.3568061e+2, -627887.25, -764271.5, -40542.38, -0.035908755, -0.24512818, -616745.6, 13558.02, 0.0, 10.000629, 9.998815 
1.05016746e+2, 2.4567941e+2, -453270.3, -613404.0, -75102.34, -0.043435894, -0.2526297, -423559.84, 108754.54, 0.0, 10.001085, 9.998959 
1.050211e+2, 2.5567776e+2, -219537.95, -460871.97, -86297.8, -0.030702516, -0.3172153, -191854.58, 242472.77, 0.0, 10.002065, 9.998861 
1.0502597e+2, 2.6567584e+2, -133064.34, -495358.78, -56021.13, -0.021262517, -0.33437186, -124599.64, 211745.9, 0.0, 10.002532, 9.997727 
1.050313e+2, 2.7567375e+2, -28899.748, -399572.22, -56928.4, -0.010068532, -0.32095155, -20353.64, 218013.67, 0.0, 10.002597, 9.997681 
1.0503623e+2, 2.856714e+2, 111122.086, -336284.47, -71006.086, -0.008747306, -0.29501405, 122120.79, 262511.06, 0.0000000012344323, 10.003123, 9.9971895 
1.0504075e+2, 2.9566887e+2, 339655.66, -171292.84, -56847.02, -0.028129973, -0.2726458, 345903.94, 388318.5, 0.0000022309773, 10.004002, 9.997227 
1.05046056e+2, 3.0566415e+2, 413713.88, -189220.7, -8505.121, -0.05813691, -0.4320632, 413833.84, 413833.84, 0.00003695323, 10.004515, 9.996527 
1.0505222e+2, 3.1566224e+2, 571150.9, 94622.24, -65778.32, -0.050028823, -0.27296776, 580064.0, 580064.0, 0.00016279944, 10.004702, 9.998385 
1.1495001e+2, 1.2567121e+2, -2048728.8, -1558267.0, -22960.293, -0.032251865, -0.26718915, -1557194.5, 151203.11, 0.0007564602, 9.996338, 10.002839 
1.1495623e+2, 1.356723e+2, -2064028.8, -1714325.1, 17782.936, -0.01219268, -0.2672601, -1713423.1, -103037.164, 0.00042056636, 9.996424, 10.001054 
1.1496198e+2, 1.4567386e+2, -1922908.9, -1644026.9, 5265.148, -0.020742955, -0.19330272, -1643927.5, -131556.13, 0.00016082273, 9.996928, 10.000614 
1.14967726e+2, 1.5567385e+2, -1710601.8, -1501816.5, -15584.188, -0.018775817, -0.25107262, -1500659.8, -86286.516, 0.000029173776, 9.997759, 10.000517 
1.1497362e+2, 1.6567458e+2, -1513787.5, -1308569.4, -8239.663, -0.017863091, -0.25170663, -1308239.1, 8126.179, 0.0000005105562, 9.998233, 10.000942 
1.14979655e+2, 1.7567569e+2, -1388040.4, -1203199.6, 455.27338, -0.018000523, -0.2393276, -1203198.5, 15153.047, 0.0, 9.99845, 10.000888 
1.14985645e+2, 1.8567607e+2, -1292186.8, -1179325.5, -11842.044, 0.0030378567, -0.25335, -1178096.4, -57750.04, 0.0, 9.998751, 10.000235 
1.14991605e+2, 1.95676e+2, -1143669.5, -1063512.9, -9696.35, 0.042211127, -0.2884247, -1062356.6, -40009.85, 0.0, 9.999125, 10.000176 
1.14997104e+2, 2.0567565e+2, -995669.4, -1010251.2, -6831.4146, 0.013434788, -0.30747098, -992969.0, -68619.01, 0.0, 9.9997635, 9.999562 
1.15002215e+2, 2.1567506e+2, -777236.9, -857646.2, -25166.908, -0.0677486, -0.32807186, -770009.56, 56346.176, 0.0, 10.000607, 9.99953 
1.1500757e+2, 2.2567458e+2, -668177.75, -792562.06, -60075.297, -0.06906053, -0.30731824, -643900.8, 84459.95, 0.0, 10.000846, 9.999188 
1.15013115e+2, 2.3567428e+2, -606403.6, -718617.56, -45277.52, -0.008351551, -0.26166794, -590413.1, 39951.934, 0.0, 10.000625, 9.99913 
1.1501831e+2, 2.4567331e+2, -479166.6, -666127.1, -38692.95, 0.0037985614, -0.2422665, -471475.2, 60899.375, 0.0, 10.0010805, 9.998599 
1.1502325e+2, 2.556718e+2, -242605.4, -507461.44, -51138.746, -0.0230866, -0.25590503, -233074.44, 201313.86, 0.0, 10.002059, 9.998545 
1.15028344e+2, 2.6566964e+2, -132157.53, -492750.53, -54480.883, -0.037650023, -0.2833802, -124105.97, 212303.25, 0.0, 10.002529, 9.997747 
1.1503361e+2, 2.7566698e+2, -28796.76, -398028.88, -51868.965, -0.039017975, -0.32872635, -21648.697, 216786.92, 0.0, 10.002591, 9.997695 
1.1503909e+2, 2.8566474e+2, 124074.05, -307231.6, -38624.316, -0.03658209, -0.30435142, 127505.625, 267962.22, 0.00000000006210851, 10.003115, 9.997393 
1.1504457e+2, 2.9566288e+2, 352558.84, -143316.88, -24136.043, -0.0468759, -0.23755439, 353730.88, 396204.1, 0.0000015849012, 10.003997, 9.997421 
1.1505055e+2, 3.056579e+2, 392733.0, -230837.28, -1835.2695, -0.061403926, -0.41794276, 392738.4, 392738.4, 0.000030721083, 10.004507, 9.996244 
1.1505697e+2, 3.1565544e+2, 526109.8, 4576.165, -58771.527, -0.047759295, -0.28043786, 532650.75, 532650.75, 0.00014243484, 10.004686, 9.997774 
1.2494638e+2, 1.2566516e+2, -2086295.6, -1578466.4, -22278.572, -0.016405929, -0.24244374, -1577490.9, 130966.97, 0.0007247361, 9.996091, 10.002821 
1.24952726e+2, 1.3566603e+2, -2009015.6, -1689658.1, -28224.416, -0.023349667, -0.26208892, -1687182.9, -76735.234, 0.00040489552, 9.996811, 10.001037 
1.2495897e+2, 1.4566727e+2, -1844159.5, -1610383.6, -23801.15, -0.04123527, -0.21807136, -1607985.0, -95549.35, 0.00015657058, 9.997486, 10.000577 
1.2496556e+2, 1.5566726e+2, -1658040.0, -1481747.0, -7327.54, -0.030162128, -0.2706125, -1481443.0, -67005.93, 0.000029665785, 9.998142, 10.000469 
1.24971926e+2, 1.6566803e+2, -1487587.1, -1315454.9, -19996.334, -0.023216054, -0.25576022, -1313162.5, 3266.571, 0.0000007617598, 9.998495, 10.000769 
1.2497815e+2, 1.7566921e+2, -1376553.0, -1215896.8, -44137.75, -0.020950433, -0.21974364, -1204569.4, 13846.481, 0.0, 9.998606, 10.000726 
1.2498448e+2, 1.8566945e+2, -1260847.1, -1162303.5, -58461.44, 0.0028631175, -0.24037988, -1135119.8, -14707.75, 0.0, 9.998956, 10.000254 
1.24990925e+2, 1.9566911e+2, -1089662.1, -1035780.94, -56823.45, 0.044207603, -0.30478373, -999835.1, 22579.303, 0.0, 9.999489, 10.000192 
1.2499693e+2, 2.0566872e+2, -982550.06, -1014303.0, -33816.535, 0.0144842705, -0.32255378, -961068.5, -36650.64, 0.0, 9.999899, 9.999469 
1.250026e+2, 2.1566828e+2, -839679.56, -896707.2, -29238.97, -0.07021443, -0.3190204, -827352.8, -930.20197, 0.0, 10.000216, 9.999451 
1.2500833e+2, 2.2566782e+2, -681955.4, -784766.0, -76108.13, -0.07019166, -0.3020229, -641518.6, 86908.79, 0.0, 10.000688, 9.999319 
1.250141e+2, 2.3566738e+2, -503289.94, -656502.2, -79020.64, -0.0046178787, -0.28172216, -469838.06, 160594.17, 0.0, 10.00128, 9.999241 
1.2501973e+2, 2.456664e+2, -403422.47, -653339.1, -56394.688, 0.0071804924, -0.2571924, -391286.13, 141156.33, 0.0, 10.001703, 9.998387 
1.2502526e+2, 2.55665e+2, -266122.2, -540232.25, -60021.688, -0.024511347, -0.24047224, -253555.4, 180901.5, 0.0, 10.00199, 9.998353 
1.2503071e+2, 2.6566294e+2, -146895.63, -479551.75, -65646.695, -0.04369479, -0.25895005, -134409.5, 202067.47, 0.0, 10.002341, 9.997928 
1.2503618e+2, 2.7566034e+2, 6142.7715, -362892.7, -51635.875, -0.048038166, -0.314203, 13231.556, 251733.08, 0.0, 10.002752, 9.997859 
1.2504211e+2, 2.8565812e+2, 131979.23, -308051.25, -25820.598, -0.048550833, -0.2937109, 133489.19, 274011.22, 0.0, 10.003186, 9.997354 
1.250482e+2, 2.9565626e+2, 293280.44, -174397.25, -32508.826, -0.062090423, -0.22172241, 295529.34, 338068.16, 0.0000010474641, 10.0036, 9.997399 
1.2505475e+2, 3.056513e+2, 330590.5, -236310.69, -10680.348, -0.06415016, -0.4102339, 330791.63, 330791.63, 0.000024841802, 10.003975, 9.996464 
1.2506154e+2, 3.15649e+2, 458327.06, -48005.953, -34158.8, -0.03825524, -0.27555203, 460621.13, 460621.13, 0.00012195601, 10.004305, 9.997599 
1.3494277e+2, 1.2565914e+2, -2133650.0, -1674816.6, 246.42545, 0.011579866, -0.19634375, -1674816.5, 33699.79, 0.0007016644, 9.996083, 10.002163 
1.3494961e+2, 1.3565893e+2, -2048670.0, -1774979.9, -238.34761, -0.018476116, -0.25792602, -1774979.6, -164461.16, 0.00039489288, 9.996823, 10.000445 
1.3495643e+2, 1.456598e+2, -1805491.8, -1533000.5, -753.5049, -0.046041586, -0.2508029, -1532998.5, -20489.502, 0.00015526546, 9.9974985, 10.0011015 
1.3496374e+2, 1.5566033e+2, -1626790.4, -1417351.4, 16829.834, -0.02745856, -0.30140784, -1416007.6, -1505.9906, 0.000031126172, 9.998144, 10.000911 
1.3497047e+2, 1.6566089e+2, -1531273.3, -1405474.3, -16218.165, -0.01833571, -0.29439238, -1403417.0, -86921.0, 0.0000011270397, 9.998493, 10.000153 
1.3497682e+2, 1.756613e+2, -1415698.5, -1298181.6, -38347.56, -0.015439248, -0.2731686, -1286775.4, -68281.89, 0.0, 9.9986105, 10.000159 
1.3498324e+2, 1.856615e+2, -1258205.3, -1157342.8, -39083.266, -0.017644238, -0.2763105, -1143971.0, -23479.521, 0.0, 9.998958, 10.000287 
1.3498975e+2, 1.9566159e+2, -1086707.6, -1029898.44, -36757.46, -0.024063421, -0.29922113, -1011849.5, 10639.684, 0.0, 9.999489, 10.000233 
1.3499652e+2, 2.0566161e+2, -966223.3, -979226.9, -22435.227, -0.018129392, -0.2913439, -949366.75, -24878.316, 0.0, 9.999893, 9.999712 
1.3500349e+2, 2.1566154e+2, -825361.5, -865457.7, -15711.413, -0.002229811, -0.27263597, -819938.56, 6550.633, 0.0, 10.000208, 9.999669 
1.3500965e+2, 2.2566092e+2, -690884.4, -801531.6, -54297.566, -0.0078180265, -0.2761209, -668690.75, 59804.51, 0.0, 10.00068, 9.999208 
1.3501514e+2, 2.3565988e+2, -510509.38, -670850.94, -56868.918, -0.028604485, -0.30596438, -492387.6, 138117.73, 0.0, 10.001276, 9.999145 
1.35021e+2, 2.4565867e+2, -408675.88, -662949.6, -46184.684, -0.037398804, -0.2982937, -400547.03, 131971.13, 0.0, 10.0016985, 9.998324 
1.350271e+2, 2.556573e+2, -270425.44, -547667.2, -48493.79, -0.0385915, -0.2709584, -262187.88, 172345.3, 0.0, 10.001984, 9.998306 
1.3503307e+2, 2.6565564e+2, -124985.99, -432597.13, -50805.72, -0.042319212, -0.26148847, -116812.01, 219736.81, 0.0, 10.002335, 9.998254 
1.3503899e+2, 2.7565378e+2, 27786.135, -317687.38, -35185.73, -0.04392613, -0.27712426, 31333.305, 269898.4, 0.0, 10.002751, 9.99817 
1.3504528e+2, 2.856515e+2, 111618.59, -348961.56, -11053.477, -0.050741427, -0.26254562, 111883.72, 252470.34, 0.0, 10.0031805, 9.997076 
1.3505165e+2, 2.9564902e+2, 275793.3, -208400.22, -16201.295, -0.07858355, -0.22617552, 276334.8, 318946.25, 0.0000006413962, 10.003591, 9.99717 
1.3505867e+2, 3.0564433e+2, 378357.56, -133634.52, 882.6319, -0.0690263, -0.41183063, 378359.06, 378359.06, 0.000019439243, 10.003962, 9.997175 
1.3506593e+2, 3.1564292e+2, 475745.8, -9359.4375, -22205.352, -0.03188465, -0.26114476, 476760.13, 476760.13, 0.000102001, 10.004296, 9.997868 
1.4493905e+2, 1.2565148e+2, -2028255.9, -1652843.0, -46932.23, -0.008634507, -0.21460196, -1647064.6, 61526.242, 0.0006852014, 9.996928, 10.001905 
1.4494692e+2, 1.3565135e+2, -1929633.5, -1739624.1, -15481.076, -0.014353678, -0.24600643, -1738371.0, -127777.72, 0.00038852147, 9.997734, 10.000249 
1.4495435e+2, 1.4565212e+2, -1725226.8, -1480411.1, -35843.754, -0.027727382, -0.24685618, -1475271.1, 37313.516, 0.00015533686, 9.997987, 10.001228 
1.4496197e+2, 1.5565282e+2, -1671239.4, -1427282.9, -49174.81, 0.0007537302, -0.29301378, -1417743.6, -3168.7397, 0.00003278088, 9.997788, 10.001015 
1.4496906e+2, 1.6565327e+2, -1573408.8, -1440142.1, -60768.7, 0.0020010043, -0.29431126, -1416593.1, -100022.99, 0.0000015078091, 9.998265, 10.000024 
1.4497574e+2, 1.7565338e+2, -1327674.6, -1270033.8, -48392.484, -0.018026669, -0.29066172, -1242529.6, -23958.56, 0.0, 9.999276, 10.000031 
1.4498244e+2, 1.8565355e+2, -1153884.5, -1119558.8, -48458.37, -0.03227366, -0.2832741, -1085313.6, 35256.35, 0.0, 9.999727, 10.000176 
1.4498916e+2, 1.9565386e+2, -1056312.3, -1025729.7, -58155.457, -0.042533074, -0.27501786, -980888.75, 41677.715, 0.0, 9.999742, 10.00014 
1.4499637e+2, 2.05654e+2, -945939.1, -948737.5, -47703.52, -0.024255773, -0.26000017, -899614.25, 24950.232, 0.0, 9.999943, 9.999898 
1.4500391e+2, 2.1565402e+2, -802642.1, -835668.6, -46050.375, 0.016046153, -0.25103006, -770233.75, 56329.984, 0.0, 10.000284, 9.999836 
1.450104e+2, 2.2565335e+2, -711135.9, -827097.25, -81871.65, 0.003845769, -0.25982496, -668793.44, 59776.87, 0.0, 10.000608, 9.999067 
1.4501604e+2, 2.3565213e+2, -571258.6, -713697.3, -88100.445, -0.048190445, -0.29278618, -529191.25, 101391.33, 0.0, 10.000917, 9.999023 
1.4502229e+2, 2.4565089e+2, -457355.75, -668589.3, -71777.43, -0.056920033, -0.28907976, -435274.03, 97321.24, 0.0, 10.0012865, 9.998484 
1.45029e+2, 2.5564966e+2, -300987.75, -546515.3, -58382.35, -0.033929843, -0.2651668, -287812.4, 146795.88, 0.0, 10.001705, 9.998447 
1.450354e+2, 2.65648e+2, -147418.81, -450024.56, -63433.355, -0.035914145, -0.2583944, -134659.66, 201964.03, 0.0, 10.002209, 9.998195 
1.4504164e+2, 2.7564606e+2, 22911.41, -325893.56, -78263.75, -0.052756432, -0.27821803, 39667.082, 278308.28, 0.0, 10.002744, 9.9981165 
1.450483e+2, 2.8564382e+2, 94175.06, -353991.7, -60621.918, -0.05769635, -0.25771517, 102230.39, 242893.17, 0.0, 10.003048, 9.997105 
1.4505513e+2, 2.956415e+2, 222233.84, -229292.67, -43659.074, -0.0695479, -0.20450081, 226416.6, 269103.0, 0.0000003644557, 10.003201, 9.997215 
1.4506258e+2, 3.0563727e+2, 362179.47, -85532.96, -18171.188, -0.055338718, -0.37709674, 362915.75, 362915.75, 0.000014553311, 10.003608, 9.997676 
1.4507006e+2, 3.156359e+2, 454838.2, -7760.923, -61274.934, -0.037069798, -0.27115157, 462816.9, 462816.9, 0.0000830069, 10.004102, 9.9979725 
1.5493518e+2, 1.256421e+2, -2013818.1, -1627438.8, -19530.717, -0.09325982, -0.3010405, -1626454.0, 82228.48, 0.0006719969, 9.996946, 10.002071 
1.5494463e+2, 1.3564326e+2, -1913512.4, -1708060.3, 12777.362, -0.017381426, -0.22823493, -1707268.6, -96596.24, 0.00038301162, 9.99774, 10.0004635 
1.5495272e+2, 1.456442e+2, -1745286.1, -1521647.0, -44312.098, 0.008740754, -0.20685636, -1513187.0, -524.03595, 0.00015494693, 9.997986, 10.000945 
1.5496027e+2, 1.556447e+2, -1687438.8, -1462222.9, -53467.344, 0.050483122, -0.24458611, -1450174.1, -35517.313, 0.000033834087, 9.997794, 10.000772 
1.5496764e+2, 1.6564515e+2, -1546705.5, -1385874.8, -23581.492, 0.03257877, -0.25481427, -1382488.5, -65836.8, 0.0000017896223, 9.99827, 10.000394 
1.5497485e+2, 1.7564543e+2, -1304566.9, -1222537.4, -12061.377, -0.033923764, -0.27156216, -1220800.8, -2151.9692, 0.0, 9.999278, 10.000357 
1.5498203e+2, 1.8564562e+2, -1172303.3, -1157597.4, -48374.402, -0.046501983, -0.26141, -1116020.3, 4627.152, 0.0, 9.999725, 9.999916 
1.549892e+2, 1.9564587e+2, -1072616.8, -1059771.3, -56210.066, -0.014433994, -0.23328197, -1009618.2, 13028.354, 0.0, 9.999742, 9.999907 
1.5499648e+2, 2.0564587e+2, -937408.5, -930119.94, -35439.28, -0.006981808, -0.22902264, -898138.06, 26508.166, 0.0, 9.999938, 10.000029 
1.5500386e+2, 2.1564567e+2, -795077.5, -819785.3, -32665.857, -0.01933662, -0.25513518, -772507.56, 54138.895, 0.0, 10.000282, 9.999947 
1.5501058e+2, 2.2564507e+2, -723568.6, -851570.1, -70852.7, -0.03982012, -0.25464937, -692090.6, 36562.227, 0.0, 10.000604, 9.998901 
1.5501678e+2, 2.3564412e+2, -581465.75, -733839.7, -75560.25, -0.06595979, -0.24304551, -550350.3, 80313.69, 0.0, 10.000913, 9.998888 
1.550236e+2, 2.4564311e+2, -432019.38, -614601.25, -56518.535, -0.054846246, -0.22982652, -415940.03, 116733.734, 0.0, 10.001281, 9.9988575 
1.5503088e+2, 2.5564206e+2, -278228.16, -498780.88, -41575.406, -0.016374275, -0.22351146, -270651.25, 164031.1, 0.0, 10.001703, 9.998776 
1.5503767e+2, 2.6564002e+2, -179258.17, -514399.94, -43576.26, -0.029612673, -0.25057, -173684.92, 163016.78, 0.0, 10.002202, 9.997755 
1.5504414e+2, 2.7563715e+2, -6226.9316, -383842.38, -58762.047, -0.078369826, -0.31763297, 2705.9192, 241435.73, 0.0, 10.002733, 9.997723 
1.5505122e+2, 2.8563508e+2, 115531.6, -308108.25, -55749.508, -0.072310075, -0.28065667, 122745.21, 263495.72, 0.0, 10.00304, 9.997424 
1.5505862e+2, 2.956338e+2, 244927.69, -182110.17, -34699.676, -0.041722313, -0.15734452, 247728.89, 290492.63, 0.00000019831394, 10.0032, 9.99754 
1.5506645e+2, 3.0563006e+2, 381171.22, -44540.246, 635.29443, -0.030163588, -0.30657822, 381172.16, 381172.16, 0.000010333069, 10.003602, 9.997959 
1.550739e+2, 3.1562796e+2, 450893.44, -14011.517, -40222.047, -0.06574455, -0.30295643, 454347.66, 454347.66, 0.00006547037, 10.004094, 9.9979315 
1.6493231e+2, 1.2563366e+2, -1957500.6, -1606684.8, 9911.401, -0.0950997, -0.31170815, -1606404.9, 102359.49, 0.00065754744, 9.997359, 10.002014 
1.6494238e+2, 1.3563474e+2, -1953501.8, -1727770.0, 24128.04, -0.0012497607, -0.2463426, -1725219.9, -114465.18, 0.00037533476, 9.997468, 10.000456 
1.6495085e+2, 1.4563549e+2, -1746724.1, -1550658.1, -39590.445, 0.01875967, -0.23056003, -1542965.6, -30217.879, 0.00015252095, 9.998098, 10.00069 
1.6495861e+2, 1.5563606e+2, -1510526.4, -1402778.3, -49092.12, 0.039734982, -0.23536567, -1383765.8, 30976.387, 0.000033788867, 9.99912, 10.000541 
1.6496634e+2, 1.6563652e+2, -1394861.1, -1302657.3, -34940.637, 0.026199926, -0.23930539, -1290912.5, 25824.488, 0.0000018950186, 9.999268, 10.000484 
1.6497402e+2, 1.7563674e+2, -1378596.4, -1249424.4, -45416.45, -0.01784919, -0.26993313, -1235054.6, -16321.191, 0.0, 9.998731, 10.000436 
1.649816e+2, 1.8563694e+2, -1287269.6, -1220298.0, -74769.84, -0.024668366, -0.2612316, -1171858.0, -51125.797, 0.0, 9.998968, 9.99985 
1.649891e+2, 1.956372e+2, -1066903.4, -1064618.9, -69994.63, -0.0007968903, -0.22385731, -995757.1, 26974.854, 0.0, 9.999814, 9.999839 
1.649965e+2, 2.0563711e+2, -924662.7, -940470.7, -65077.29, -0.005865322, -0.21609075, -867011.1, 57721.977, 0.0, 10.000096, 9.999882 
1.6500382e+2, 2.1563676e+2, -853585.2, -861744.94, -83047.375, -0.03412108, -0.24355358, -774517.5, 52217.97, 0.0, 9.999939, 9.999825 
1.6501093e+2, 2.256362e+2, -762233.7, -846832.44, -99474.58, -0.046999373, -0.24314576, -696438.5, 32302.62, 0.0, 10.000237, 9.99911 
1.6501787e+2, 2.356355e+2, -570807.3, -706814.4, -77742.77, -0.04712118, -0.22926049, -535522.8, 95226.445, 0.0, 10.000893, 9.999083 
1.650251e+2, 2.4563454e+2, -418828.44, -610166.56, -65064.85, -0.037323605, -0.21854082, -398799.6, 133958.42, 0.0, 10.001379, 9.99884 
1.6503254e+2, 2.556334e+2, -276419.34, -499364.56, -79986.71, -0.021537924, -0.21857855, -250691.31, 184075.89, 0.0, 10.001722, 9.998763 
1.6503966e+2, 2.6563135e+2, -225197.13, -540938.25, -80087.19, -0.03662485, -0.24479198, -206044.88, 130742.07, 0.0, 10.001905, 9.997715 
1.6504657e+2, 2.7562848e+2, -119085.0, -441226.5, -67252.04, -0.07037232, -0.30679336, -105608.836, 133206.7, 0.0, 10.00197, 9.997696 
1.6505396e+2, 2.8562635e+2, 33048.633, -317655.7, -49397.582, -0.06576239, -0.29066473, 39873.586, 180709.94, 0.0, 10.002344, 9.997693 
1.650616e+2, 2.9562494e+2, 221501.25, -167417.33, -33407.258, -0.048878506, -0.20468955, 224350.0, 267199.06, 0.000000103924, 10.002928, 9.99777 
1.6507003e+2, 3.056218e+2, 366591.25, -65453.137, -8571.827, -0.028972864, -0.29994103, 366761.25, 366761.25, 0.000006944009, 10.003562, 9.997833 
1.6507812e+2, 3.1561965e+2, 446764.47, -54669.02, -82196.29, -0.058088023, -0.28824055, 459894.5, 459894.5, 0.000049939055, 10.00423, 9.997585 
1.7493045e+2, 1.2562616e+2, -1977622.8, -1648799.1, 8787.832, -0.019775882, -0.24405906, -1648564.4, 60271.867, 0.0006370072, 9.997361, 10.001723 
1.7494018e+2, 1.356258e+2, -1969291.4, -1762061.4, 31536.29, 0.029756323, -0.30042976, -1757368.4, -146528.55, 0.00036284848, 9.997474, 10.000218 
1.7494875e+2, 1.4562595e+2, -1761884.3, -1583491.4, -1754.9584, -0.0044637094, -0.31991926, -1583474.1, -70635.14, 0.00014707113, 9.998104, 10.000463 
1.7495698e+2, 1.5562688e+2, -1525215.9, -1435067.1, -13505.898, -0.038607143, -0.26620135, -1433087.1, -18255.957, 0.00003249045, 9.999126, 10.000316 
1.7496513e+2, 1.6562735e+2, -1407656.9, -1330342.8, -56247.246, -0.02325021, -0.2483886, -1300749.4, 16077.019, 0.0000018022155, 9.999272, 10.000293 
1.749732e+2, 1.756273e+2, -1390590.6, -1274599.3, -62031.867, 0.026984, -0.28651136, -1247674.6, -28849.193, 0.0, 9.998732, 10.000263 
1.749811e+2, 1.8562745e+2, -1278290.5, -1201209.1, -43311.87, 0.028885374, -0.282787, -1181773.1, -60948.434, 0.0, 9.998965, 9.999983 
1.7498888e+2, 1.9562781e+2, -1060147.0, -1050484.0, -39862.28, -0.005178389, -0.24748586, -1015161.44, 7661.568, 0.0, 9.999813, 9.999936 
1.7499644e+2, 2.0562772e+2, -954601.06, -1001895.25, -71568.45, -0.024463601, -0.22174816, -902874.25, 21951.086, 0.0, 10.000093, 9.999461 
1.7500378e+2, 2.1562728e+2, -879506.9, -914362.5, -86341.07, -0.032017827, -0.21693407, -808852.3, 17978.645, 0.0, 9.999933, 9.999466 
1.7501141e+2, 2.2562678e+2, -722544.3, -762999.06, -75361.98, -0.021517994, -0.22516586, -664742.4, 64092.918, 0.0, 10.000232, 9.999688 
1.750193e+2, 2.3562624e+2, -534831.3, -631691.9, -53217.305, 0.0037041833, -0.2524585, -511306.25, 119532.28, 0.0, 10.00089, 9.999599 
1.7502677e+2, 2.4562517e+2, -447656.44, -668965.44, -52705.75, -0.00857181, -0.25644565, -435745.4, 97102.836, 0.0, 10.001375, 9.998439 
1.7503396e+2, 2.556237e+2, -301874.7, -550688.0, -67267.32, -0.052444547, -0.2504869, -284853.22, 150009.56, 0.0, 10.001716, 9.998414 
1.7504133e+2, 2.6562202e+2, -201302.03, -490658.63, -78345.51, -0.059590064, -0.24187712, -181451.22, 155428.28, 0.0, 10.001902, 9.998063 
1.750489e+2, 2.7562004e+2, -95229.26, -391622.16, -62551.965, -0.034541924, -0.24722716, -82568.83, 156329.7, 0.0, 10.001969, 9.998037 
1.7505653e+2, 2.856176e+2, 46624.367, -288596.44, -28121.787, -0.044522375, -0.2874627, 48967.14, 189887.56, 0.0, 10.00234, 9.997893 
1.7506407e+2, 2.95615e+2, 230194.14, -147532.17, -10571.032, -0.095475495, -0.34367037, 230489.75, 273432.03, 0.00000004563321, 10.00292, 9.9979105 
1.7507334e+2, 3.0561244e+2, 329837.78, -141764.23, 16140.28, -0.056368478, -0.35624415, 330389.53, 330389.53, 0.0000044345684, 10.00356, 9.997311 
1.7508273e+2, 3.1561103e+2, 402947.88, -145328.58, -54233.88, -0.023846522, -0.22335333, 408261.03, 408261.03, 0.00003672069, 10.004226, 9.996965 
1.8492842e+2, 1.2561731e+2, -1914928.9, -1642114.6, -37443.938, 0.0156118665, -0.23881637, -1637068.8, 71853.5, 0.0006065531, 9.997893, 10.001512 
1.8493819e+2, 1.3561682e+2, -1855372.1, -1721780.6, -5046.2144, 0.041069496, -0.29435772, -1721590.3, -110663.46, 0.00034376056, 9.998318, 10.000087 
1.8494703e+2, 1.4561667e+2, -1709282.1, -1571889.9, -20133.922, -0.0067810067, -0.33268547, -1569000.1, -56071.11, 0.00013809917, 9.998524, 10.00034 
1.8495579e+2, 1.5561743e+2, -1619123.3, -1493200.9, -26307.447, -0.038447678, -0.2839677, -1487925.8, -73002.6, 0.000029920388, 9.998538, 10.0002 
1.8496428e+2, 1.6561785e+2, -1454511.3, -1357622.1, -72628.54, -0.019544873, -0.2625711, -1318763.9, -1844.9586, 0.0000015280342, 9.998971, 10.000251 
1.849725e+2, 1.7561789e+2, -1247840.1, -1211205.4, -68186.375, 0.032731783, -0.28890744, -1158918.9, 59998.402, 0.0, 9.999735, 10.000215 
1.8498059e+2, 1.8561792e+2, -1147032.1, -1156668.9, -48594.875, 0.031999663, -0.2844342, -1103017.4, 17900.328, 0.0, 9.999947, 9.999816 
1.8498862e+2, 1.9561805e+2, -1083926.3, -1078990.3, -68811.36, -0.008482667, -0.2576737, -1012602.7, 10316.117, 0.0, 9.999723, 9.9997835 
1.8499641e+2, 2.0561793e+2, -988606.4, -1016072.94, -97336.95, -0.022873923, -0.2288464, -904038.7, 20882.945, 0.0, 9.99985, 9.999481 
1.8500401e+2, 2.1561763e+2, -831013.44, -889042.9, -79787.14, -0.017292975, -0.21120557, -775129.2, 51796.797, 0.0, 10.000258, 9.999483 
1.8501195e+2, 2.2561716e+2, -683444.1, -749498.94, -69161.914, -0.0054576043, -0.2152674, -639828.3, 89101.82, 0.0, 10.000523, 9.999641 
1.8502015e+2, 2.3561653e+2, -568979.56, -652558.4, -94949.43, 0.012316029, -0.2443213, -507030.1, 123904.07, 0.0, 10.000675, 9.99956 
1.8502788e+2, 2.456154e+2, -516868.38, -695586.0, -98668.125, -0.010514077, -0.25685754, -473109.2, 59835.41, 0.0, 10.000872, 9.998498 
1.8503521e+2, 2.5561386e+2, -386393.75, -584152.44, -80510.78, -0.066823035, -0.2646498, -357761.88, 77198.02, 0.0, 10.001104, 9.998478 
1.8504296e+2, 2.6561236e+2, -238455.48, -488458.9, -80945.664, -0.06869137, -0.24806911, -214535.64, 122438.8, 0.0, 10.001561, 9.998241 
1.8505108e+2, 2.7561083e+2, -52083.57, -351782.75, -78650.99, -0.02399509, -0.22883527, -32696.996, 206292.06, 0.0, 10.002185, 9.998206 
1.850591e+2, 2.8560835e+2, 81902.695, -271733.47, -54772.246, -0.033740815, -0.28038076, 90191.695, 231202.73, 0.0, 10.002584, 9.997891 
1.850669e+2, 2.9560536e+2, 212925.84, -157322.7, -53970.883, -0.09880706, -0.37296247, 220632.72, 263669.0, 0.000000013949684, 10.002809, 9.997895 
1.8507662e+2, 3.0560327e+2, 266874.88, -162795.67, -4759.3984, -0.05685947, -0.34417996, 266927.56, 266927.56, 0.0000026902987, 10.003088, 9.997393 
1.8508646e+2, 3.1560156e+2, 287205.16, -187012.94, -31075.709, -0.030059943, -0.24935897, 289232.9, 289232.9, 0.000025863523, 10.003374, 9.997087 
1.9492622e+2, 1.2560709e+2, -1922825.0, -1660795.0, -25970.508, 0.0030117221, -0.29727152, -1658245.8, 50776.688, 0.0005643703, 9.997903, 10.00138 
1.9493638e+2, 1.3560784e+2, -1855956.9, -1724876.4, 10724.569, 0.027948098, -0.22691183, -1724004.6, -112989.21, 0.00031730495, 9.998326, 10.000063 
1.949457e+2, 1.4560765e+2, -1709588.6, -1573488.0, -20443.012, 0.0066112755, -0.26720002, -1570483.6, -57465.79, 0.00012543245, 9.998528, 10.000328 
1.9495511e+2, 1.556077e+2, -1619028.0, -1493577.9, -23414.916, 0.038100936, -0.288219, -1489350.0, -74331.92, 0.000026112697, 9.99854, 10.000197 
1.9496381e+2, 1.6560802e+2, -1447189.3, -1342367.0, -44230.547, 0.034229755, -0.28230622, -1326197.8, -9183.239, 0.0000011234973, 9.998971, 10.000356 
1.9497187e+2, 1.7560847e+2, -1242113.5, -1200133.8, -40922.703, -0.004039724, -0.27694395, -1175131.9, 43877.1, 0.0, 9.999739, 10.000289 
1.9498003e+2, 1.8560836e+2, -1179219.5, -1223755.4, -57619.676, -0.019859841, -0.26606062, -1139714.5, -18703.184, 0.0, 9.999948, 9.999354 
1.9498828e+2, 1.9560787e+2, -1112834.0, -1138729.1, -75462.04, -0.013811987, -0.25432822, -1049216.8, -26197.445, 0.0, 9.999722, 9.999374 
1.9499645e+2, 2.056077e+2, -956759.06, -949029.4, -82501.67, -0.0045168716, -0.23698898, -870302.06, 54720.035, 0.0, 9.9998455, 9.999944 
1.9500452e+2, 2.1560778e+2, -803736.75, -831693.7, -64246.94, 0.0063168816, -0.22774704, -751965.2, 75055.58, 0.0, 10.000255, 9.999879 
1.9501251e+2, 2.256073e+2, -731103.4, -847630.3, -64166.594, -0.001736226, -0.21416424, -702695.1, 26330.818, 0.0, 10.000519, 9.998969 
1.9502047e+2, 2.356064e+2, -611433.94, -739668.5, -88423.96, -0.024158966, -0.20525862, -566327.5, 64708.63, 0.0, 10.00067, 9.998964 
1.950284e+2, 2.4560523e+2, -481659.1, -621753.0, -90486.56, -0.045735303, -0.21983802, -437275.28, 95771.836, 0.0, 10.000869, 9.999006 
1.950363e+2, 2.5560385e+2, -353820.97, -515489.66, -70207.414, -0.06917452, -0.26190048, -327588.66, 107469.984, 0.0, 10.0011, 9.998951 
1.9504456e+2, 2.656024e+2, -238736.66, -488445.38, -58208.94, -0.06751689, -0.26296136, -225834.38, 111237.46, 0.0, 10.001558, 9.998243 
1.9505309e+2, 2.756008e+2, -52836.508, -352395.3, -55871.277, -0.041960396, -0.25055385, -42755.13, 196332.02, 0.0, 10.00218, 9.998205 
1.9506164e+2, 2.8559855e+2, 66920.445, -301397.53, -46842.008, -0.037274703, -0.2700106, 72784.37, 213892.66, 0.0, 10.002579, 9.99769 
1.9507006e+2, 2.95596e+2, 199800.89, -182813.6, -43562.168, -0.06446869, -0.29663506, 204697.94, 247829.19, 0.0000000023315327, 10.002801, 9.997725 
1.9507994e+2, 3.055942e+2, 312103.97, -67486.44, 4850.9966, -0.035724644, -0.2650307, 312165.97, 312165.97, 0.0000015022418, 10.003082, 9.99805 
1.9508931e+2, 3.1559137e+2, 343739.4, -69383.75, -15414.192, -0.08514253, -0.35166168, 344313.75, 344313.75, 0.000017298122, 10.003372, 9.997896 
2.0492421e+2, 1.2559682e+2, -1891357.6, -1650646.8, -51137.06, -0.00004115167, -0.31217387, -1640233.6, 68889.836, 0.0005112227, 9.998141, 10.001335 
2.0493485e+2, 1.355978e+2, -1837570.5, -1709493.0, -8561.365, 0.036399145, -0.22389574, -1708923.3, -97809.15, 0.00028397882, 9.998425, 10.000122 
2.0494445e+2, 1.455976e+2, -1684353.3, -1551125.6, -40399.785, 0.022430107, -0.2714721, -1539832.1, -26716.314, 0.000109345056, 9.998656, 10.000421 
2.0495404e+2, 1.5559773e+2, -1572386.4, -1462192.5, -36095.504, 0.06322758, -0.29514304, -1451421.6, -36307.344, 0.000021261263, 9.998821, 10.0002775 
2.0496294e+2, 1.6559802e+2, -1462289.0, -1375233.1, -52728.84, 0.050885495, -0.28397125, -1350387.0, -33275.418, 0.00000067965186, 9.998977, 10.000128 
2.0497122e+2, 1.7559837e+2, -1344543.6, -1272485.9, -76644.734, -0.012543872, -0.26554748, -1223824.1, -4715.631, 0.0, 9.999134, 10.000085 
2.0497958e+2, 1.8559821e+2, -1245536.0, -1241532.6, -92023.695, -0.03297379, -0.25782016, -1151488.9, -30377.299, 0.0, 9.999432, 9.999482 
2.0498805e+2, 1.9559768e+2, -1086963.3, -1113243.8, -66187.336, -0.015860274, -0.26266223, -1032624.4, -9505.645, 0.0, 9.999844, 9.999492 
2.0499645e+2, 2.055975e+2, -928600.75, -944991.6, -69332.33, -0.0003126359, -0.24680507, -866981.1, 58140.113, 0.0, 10.000081, 9.999858 
2.050048e+2, 2.155976e+2, -820986.3, -849760.75, -93530.06, 0.012255559, -0.22647735, -740743.4, 86376.94, 0.0, 10.000179, 9.999792 
2.0501286e+2, 2.2559708e+2, -768993.25, -880173.6, -90742.445, -0.0074578235, -0.20599715, -718167.0, 10959.561, 0.0, 10.00032, 9.998841 
2.0502076e+2, 2.3559608e+2, -643904.94, -767423.06, -75578.22, -0.052074548, -0.19463429, -608061.5, 23076.908, 0.0, 10.0005, 9.998857 
2.0502906e+2, 2.4559495e+2, -481741.16, -600572.94, -67653.31, -0.06171818, -0.20851342, -451116.94, 82031.945, 0.0, 10.000777, 9.999195 
2.0503765e+2, 2.5559378e+2, -336260.16, -486743.03, -71571.41, -0.045435876, -0.25056785, -307656.8, 127501.336, 0.0, 10.001133, 9.999132 
2.050463e+2, 2.6559243e+2, -242580.25, -481311.38, -58489.094, -0.0447364, -0.2532908, -229020.61, 108149.26, 0.0, 10.001493, 9.998324 
2.0505501e+2, 2.7559093e+2, -96740.664, -365461.97, -53324.586, -0.05142836, -0.24286737, -86545.805, 152638.4, 0.0, 10.001844, 9.998278 
2.0506383e+2, 2.8558868e+2, -8892.606, -342117.8, -45572.074, -0.05049825, -0.25918987, -2772.5447, 138432.81, 0.0, 10.002075, 9.997653 
2.0507261e+2, 2.9558617e+2, 110845.36, -229931.78, -30473.945, -0.057589266, -0.2784224, 113549.04, 156778.08, 0.000000000097020676, 10.002209, 9.997686 
2.0508294e+2, 3.0558464e+2, 254050.06, -76895.7, 15067.534, -0.02030407, -0.22959398, 254734.66, 254734.66, 0.0000007350318, 10.002604, 9.998218 
2.0509255e+2, 3.1558126e+2, 349134.4, -14984.518, -39548.293, -0.08877588, -0.3856049, 353380.38, 353380.38, 0.000010898163, 10.003185, 9.998363 
2.1492235e+2, 1.255865e+2, -1888374.3, -1645462.9, -44784.117, -0.0022276107, -0.28215972, -1637469.4, 71755.68, 0.00045034575, 9.998145, 10.0013685 
2.1493354e+2, 1.3558666e+2, -1827227.3, -1689651.9, 3020.9631, 0.06370705, -0.2867953, -1689585.5, -78362.61, 0.0002457903, 9.99843, 10.000256 
2.1494326e+2, 1.4558654e+2, -1669315.5, -1520871.0, -34791.758, 0.036376186, -0.3468542, -1513121.3, 101.94644, 0.00009091271, 9.99866, 10.000626 
2.1495257e+2, 1.5558751e+2, -1560458.3, -1437908.5, -29144.656, 0.03285667, -0.30505595, -1431330.5, -16118.354, 0.000015871614, 9.998822, 10.000444 
2.1496166e+2, 1.6558784e+2, -1502151.0, -1457614.4, -47311.848, 0.02491701, -0.26739788, -1427592.3, -110382.26, 0.00000031009594, 9.998976, 9.999563 
2.1497051e+2, 1.7558758e+2, -1378871.0, -1344433.5, -69563.945, 0.0040801438, -0.25495198, -1289989.0, -70772.94, 0.0, 9.999137, 9.99959 
2.1497923e+2, 1.8558744e+2, -1194874.0, -1136343.9, -76757.84, -0.011320043, -0.25988343, -1083461.4, 37756.87, 0.0, 9.999432, 10.000204 
2.1498789e+2, 1.9558743e+2, -1041701.1, -1018991.06, -50484.45, -0.017182268, -0.28277445, -978600.4, 44616.48, 0.0, 9.999842, 10.000139 
2.149964e+2, 2.0558733e+2, -973989.7, -1037939.9, -66007.266, -0.013118435, -0.2582874, -932620.56, -7401.416, 0.0, 10.000075, 9.999223 
2.1500482e+2, 2.155871e+2, -861930.7, -933576.94, -88964.46, -0.0026873355, -0.20636645, -801847.75, 25376.76, 0.0, 10.000174, 9.999219 
2.1501301e+2, 2.2558649e+2, -741029.3, -821053.2, -84646.53, -0.02571557, -0.1905696, -687414.4, 41817.613, 0.0, 10.000316, 9.999249 
2.1502103e+2, 2.3558556e+2, -618364.4, -713259.1, -67890.39, -0.07473743, -0.21272196, -582984.5, 48256.6, 0.0, 10.000495, 9.999229 
2.1502985e+2, 2.4558458e+2, -491095.2, -619628.9, -55082.64, -0.061214767, -0.22215642, -470719.72, 62530.26, 0.0, 10.000774, 9.999067 
2.1503924e+2, 2.555836e+2, -343982.25, -501678.84, -57709.207, -0.000110003195, -0.23079118, -325119.72, 110138.79, 0.0, 10.001128, 9.999033 
2.1504821e+2, 2.6558247e+2, -233293.73, -460604.38, -45786.258, -0.0040061036, -0.21943483, -224417.78, 112850.81, 0.0, 10.001487, 9.998469 
2.1505679e+2, 2.755811e+2, -88328.75, -346309.06, -39899.27, -0.056942813, -0.2073397, -82298.86, 156981.63, 0.0, 10.001837, 9.998412 
2.1506566e+2, 2.8557873e+2, -856.43097, -324786.7, -42090.438, -0.07661489, -0.24739845, 4523.3174, 145825.72, 0.0, 10.002071, 9.997775 
2.1507458e+2, 2.9557586e+2, 117787.0, -216502.3, -24517.916, -0.08286311, -0.31661627, 119575.66, 162905.44, 0.0, 10.002212, 9.997778 
2.1508557e+2, 3.055745e+2, 232242.95, -120552.22, 36393.6, -0.015308306, -0.2371518, 235958.11, 235958.11, 0.00000029764618, 10.002598, 9.99792 
2.150961e+2, 3.155713e+2, 356063.38, 2505.388, -11497.7705, -0.05231056, -0.34756362, 356436.88, 356436.88, 0.0000064156898, 10.003172, 9.998488 
2.2492078e+2, 1.2557626e+2, -1849538.1, -1648713.5, -9765.471, 0.008252938, -0.28255668, -1648239.8, 61084.75, 0.0003861587, 9.99851, 10.00117 
2.2493221e+2, 1.3557622e+2, -1801697.1, -1688989.1, 23182.83, 0.075128004, -0.29874822, -1684407.0, -73082.234, 0.00020573656, 9.998659, 10.00015 
2.2494201e+2, 1.4557593e+2, -1643464.3, -1519667.5, -34290.004, 0.03593543, -0.36328283, -1510804.1, 2522.5784, 0.00007189719, 9.998886, 10.000525 
2.249514e+2, 1.5557696e+2, -1514680.6, -1425615.4, -54466.137, 0.016752636, -0.3059552, -1399793.8, 15521.4375, 0.000010694928, 9.99918, 10.000357 
2.2496071e+2, 1.6557717e+2, -1451608.9, -1437123.4, -63401.348, 0.013338599, -0.27494448, -1380552.5, -63238.227, 0.000000092361944, 9.999339, 9.999529 
2.2496985e+2, 1.7557664e+2, -1344847.9, -1331007.0, -45796.582, 0.010657717, -0.28616682, -1291610.9, -72288.33, 0.0, 9.999383, 9.999563 
2.249788e+2, 1.8557656e+2, -1179785.6, -1127832.3, -55752.54, -0.0017553105, -0.28393283, -1092301.8, 29022.398, 0.0, 9.99953, 10.000216 
2.2498767e+2, 1.9557688e+2, -1052470.9, -1023576.2, -84521.625, -0.017275628, -0.27622947, -952276.06, 71043.81, 0.0, 9.999765, 10.000145 
2.2499634e+2, 2.0557678e+2, -991374.6, -1058668.6, -106058.03, -0.022557328, -0.24389666, -913754.25, 11568.155, 0.0, 10.00001, 9.999112 
2.2500484e+2, 2.1557635e+2, -855776.06, -941089.9, -90528.69, -0.021434441, -0.20213379, -798357.75, 28972.686, 0.0, 10.000262, 9.999125 
2.2501335e+2, 2.2557569e+2, -701625.8, -780853.3, -75773.86, -0.032104485, -0.19645058, -655735.6, 73602.43, 0.0, 10.000496, 9.999438 
2.2502187e+2, 2.3557484e+2, -575052.9, -673532.56, -76427.12, -0.051545057, -0.22866629, -533377.0, 97968.34, 0.0, 10.000711, 9.999399 
2.2503085e+2, 2.4557403e+2, -481238.3, -626605.8, -66446.055, -0.04331166, -0.22668318, -455443.63, 77909.4, 0.0, 10.000894, 9.998961 
2.2504018e+2, 2.555732e+2, -363087.94, -521939.22, -69452.336, -0.015093368, -0.20736457, -337005.0, 98355.92, 0.0, 10.001045, 9.998935 
2.2504938e+2, 2.6557195e+2, -261685.88, -466271.9, -57354.074, -0.022710944, -0.20308293, -246704.2, 90667.54, 0.0, 10.001258, 9.99854 
2.2505848e+2, 2.7557033e+2, -129474.24, -358693.63, -57549.566, -0.05593916, -0.22405057, -115836.77, 123548.53, 0.0, 10.001523, 9.998479 
2.2506773e+2, 2.8556794e+2, -16963.598, -330852.66, -63262.71, -0.06897049, -0.27216998, -4693.0083, 136714.4, 0.0, 10.001953, 9.997791 
2.25077e+2, 2.955652e+2, 156928.03, -199800.13, -56679.45, -0.07661802, -0.3330512, 165717.11, 209151.3, 0.0, 10.002489, 9.997761 
2.2508822e+2, 3.0556384e+2, 222710.1, -156327.4, -85.85573, -0.01143191, -0.23370501, 222710.11, 222710.11, 0.000000091080636, 10.002665, 9.9976425 
2.2509883e+2, 3.1556076e+2, 279958.25, -19517.807, -42245.742, -0.06641846, -0.3105243, 285803.56, 285803.56, 0.000003445728, 10.002585, 9.99862 
2.3491944e+2, 1.2556615e+2, -1879354.9, -1712220.8, -11159.115, 0.022401921, -0.31037724, -1711479.0, -2057.4934, 0.00032267286, 9.998518, 10.0007305 
2.3493078e+2, 1.3556646e+2, -1826982.3, -1740789.8, 29948.305, 0.06702637, -0.25873497, -1731405.6, -119986.12, 0.0001666326, 9.998655, 9.999796 
2.3494072e+2, 1.455658e+2, -1673498.8, -1581224.0, -23417.713, 0.016739432, -0.3201973, -1575621.3, -62194.883, 0.00005400246, 9.998883, 10.000106 
2.3495053e+2, 1.5556607e+2, -1538792.9, -1478258.8, -43073.68, 0.010370272, -0.29783705, -1455881.4, -40457.52, 0.000006396683, 9.99919, 9.999991 
2.3496002e+2, 1.6556598e+2, -1414110.8, -1361063.9, -62538.273, 0.0107353935, -0.3070589, -1319657.0, -2232.5476, 0.000000013163342, 9.999347, 10.000047 
2.3496918e+2, 1.7556554e+2, -1312989.9, -1265050.4, -43133.438, 0.004160124, -0.3595554, -1239674.0, -20245.82, 0.0, 9.999384, 10.000015 
2.3497829e+2, 1.8556556e+2, -1229960.8, -1230922.4, -47207.56, -0.0077567752, -0.33084908, -1183231.5, -61802.246, 0.0, 9.999526, 9.99951 
2.3498742e+2, 1.95566e+2, -1097606.8, -1117131.4, -75094.984, -0.01911478, -0.2422961, -1031642.2, -8214.358, 0.0, 9.999765, 9.999502 
2.3499626e+2, 2.0556588e+2, -962442.8, -998134.5, -96984.945, -0.03197191, -0.2032305, -881675.5, 43755.527, 0.0, 10.000008, 9.999529 
2.3500486e+2, 2.1556534e+2, -829349.3, -884708.44, -80285.01, -0.04757971, -0.21381964, -772106.3, 55331.734, 0.0, 10.000256, 9.999515 
2.3501387e+2, 2.255647e+2, -704781.6, -786056.7, -68301.3, -0.030045865, -0.22323254, -665942.9, 63501.793, 0.0, 10.00049, 9.999407 
2.3502325e+2, 2.3556395e+2, -577368.75, -677415.2, -67734.81, 0.014172972, -0.24148154, -543187.9, 88263.18, 0.0, 10.000708, 9.999374 
2.3503207e+2, 2.4556325e+2, -488466.66, -641090.75, -61336.24, -0.0110445535, -0.22206898, -466872.28, 66585.8, 0.0, 10.000891, 9.998864 
2.3504046e+2, 2.5556257e+2, -370933.47, -536840.7, -62949.906, -0.09326352, -0.18076482, -349752.6, 85712.92, 0.0, 10.001039, 9.998836 
2.3504983e+2, 2.65561e+2, -262300.1, -466453.22, -48380.45, -0.103544734, -0.20331287, -251415.19, 86064.125, 0.0, 10.001253, 9.998542 
2.3506002e+2, 2.7555868e+2, -128964.69, -356829.97, -46320.984, -0.053602826, -0.2918757, -119908.38, 119590.16, 0.0, 10.001519, 9.998493 
2.3507005e+2, 2.8555635e+2, -24505.764, -345345.97, -43239.99, -0.032631177, -0.33333975, -18780.432, 122739.875, 0.0, 10.001948, 9.997695 
2.3507982e+2, 2.955541e+2, 147536.47, -218369.95, -37313.434, -0.044535443, -0.32926667, 151302.75, 194845.11, 0.0, 10.002484, 9.997636 
2.350909e+2, 3.0555266e+2, 204131.27, -193173.19, -4492.848, -0.011301238, -0.22055149, 204182.06, 204182.06, 0.000000018380936, 10.002658, 9.997393 
2.351007e+2, 3.155496e+2, 287293.16, -1543.9437, -36325.82, -0.13969745, -0.27113447, 291791.66, 291791.66, 0.0000016180604, 10.002574, 9.998749 
2.4491827e+2, 1.2555537e+2, -1881085.3, -1714322.3, -69536.27, 0.053387184, -0.31709495, -1689132.3, 20395.367, 0.00026299746, 9.99851, 10.00072 
2.449296e+2, 1.3555598e+2, -1757115.1, -1699281.6, 5568.2, 0.06262336, -0.24132454, -1698750.4, -87228.46, 0.0001305452, 9.999102, 9.9998665 
2.4493961e+2, 1.455552e+2, -1641870.3, -1597398.6, -36772.844, 0.00049346, -0.30485997, -1576661.5, -63130.984, 0.000038366878, 9.999236, 9.9998255 
2.449496e+2, 1.5555507e+2, -1588698.1, -1530200.5, -46228.918, 0.009602686, -0.2944293, -1504744.6, -89211.57, 0.000003303544, 9.998969, 9.999742 
2.4495932e+2, 1.6555499e+2, -1433656.4, -1355443.8, -65952.95, 0.01496079, -0.29813653, -1317874.8, -341.09195, 0.00000000018007511, 9.999148, 10.000182 
2.4496868e+2, 1.755549e+2, -1257373.0, -1224684.8, -77879.7, 0.0016412945, -0.3292738, -1161452.6, 58080.496, 0.0, 9.999708, 10.000136 
2.4497789e+2, 1.8555486e+2, -1187079.1, -1229082.0, -79493.18, -0.017565427, -0.30453235, -1125860.0, -4325.243, 0.0, 9.999901, 9.999342 
2.4498703e+2, 1.9555485e+2, -1104354.6, -1137020.5, -66934.63, -0.035566416, -0.24126972, -1051789.0, -28251.326, 0.0, 9.999791, 9.999353 
2.4499616e+2, 2.0555457e+2, -970782.2, -986842.56, -74323.98, -0.036755763, -0.21959317, -904055.9, 21486.209, 0.0, 9.999884, 9.999666 
2.4500525e+2, 2.1555406e+2, -836522.2, -874237.44, -80155.85, -0.026731983, -0.24145009, -773035.56, 54512.063, 0.0, 10.000145, 9.999641 
2.4501446e+2, 2.2555359e+2, -718345.9, -795621.94, -75924.164, -0.014889474, -0.23821966, -671793.6, 57758.906, 0.0, 10.00041, 9.999379 
2.4502376e+2, 2.3555313e+2, -583244.3, -683597.9, -76996.695, -0.0013329175, -0.22529504, -541517.9, 90039.11, 0.0, 10.000682, 9.999344 
2.4503274e+2, 2.4555232e+2, -494177.4, -648902.8, -71099.41, -0.030764148, -0.21117608, -466468.16, 67096.84, 0.0, 10.000874, 9.998818 
2.4504143e+2, 2.5555128e+2, -378923.72, -545920.4, -69300.72, -0.096347846, -0.20351994, -353911.38, 81664.234, 0.0, 10.001006, 9.998788 
2.4505118e+2, 2.655496e+2, -255920.58, -470706.2, -45952.46, -0.097558744, -0.23012319, -246502.25, 91088.31, 0.0, 10.001328, 9.998477 
2.4506177e+2, 2.7554742e+2, -94707.94, -347207.44, -50903.508, -0.04466947, -0.29862222, -84832.13, 154777.1, 0.0, 10.001784, 9.998433 
2.450721e+2, 2.8554523e+2, 5088.175, -329000.66, -42912.742, -0.031745743, -0.3218116, 10512.134, 152141.86, 0.0, 10.002143, 9.997713 
2.4508213e+2, 2.955432e+2, 140767.66, -220767.88, -31147.627, -0.059087172, -0.30390245, 143431.5, 187081.8, 0.0, 10.002436, 9.997642 
2.4509332e+2, 3.0554128e+2, 167634.27, -218741.64, -4965.594, -0.023297815, -0.23392522, 167698.06, 167698.06, 0.000000001915935, 10.002443, 9.997319 
2.4510308e+2, 3.1553844e+2, 244008.94, -5336.9585, -20065.453, -0.14037065, -0.2612905, 245613.33, 245613.33, 0.00000063402746, 10.002203, 9.998901 
2.5491723e+2, 1.2554382e+2, -1851927.9, -1652703.6, -53238.74, 0.095367186, -0.3049888, -1639369.1, 70274.625, 0.000209724, 9.998504, 10.001146 
2.5492865e+2, 1.3554479e+2, -1719759.9, -1626264.0, 27196.795, 0.054457575, -0.24727139, -1618928.3, -7296.0073, 0.00009902971, 9.999119, 10.0003605 
2.5493866e+2, 1.455441e+2, -1648810.6, -1614730.9, -48144.133, -0.021074971, -0.31748426, -1580700.1, -67060.68, 0.000025643241, 9.999249, 9.9997 
2.549486e+2, 1.5554398e+2, -1598081.3, -1548404.6, -54629.742, 0.010650944, -0.29582736, -1513231.8, -97588.7, 0.0000014046367, 9.998963, 9.9996195 
2.5495857e+2, 1.6554423e+2, -1453115.0, -1394308.1, -45337.625, 0.023178982, -0.24802849, -1369673.9, -52031.934, 0.0, 9.999142, 9.999919 
2.5496837e+2, 1.7554471e+2, -1272417.0, -1257731.8, -57407.355, -0.0012167947, -0.1944575, -1207199.4, 12438.263, 0.0, 9.999716, 9.999907 
2.549776e+2, 1.855444e+2, -1159274.4, -1172619.4, -84234.08, -0.036419597, -0.20435049, -1081448.9, 40191.77, 0.0, 9.999907, 9.999726 
2.549865e+2, 1.9554348e+2, -1079488.6, -1084901.3, -69835.19, -0.0703529, -0.27302903, -1012307.3, 11342.277, 0.0, 9.999789, 9.999712 
2.54996e+2, 2.0554288e+2, -982064.6, -1008682.75, -64747.52, -0.04026715, -0.29361224, -929272.44, -3616.88, 0.0, 9.999878, 9.999519 
2.5500605e+2, 2.1554253e+2, -846630.7, -894133.5, -69468.56, 0.037608765, -0.28392565, -796965.44, 30693.742, 0.0, 10.000141, 9.999506 
2.5501513e+2, 2.2554235e+2, -720399.44, -799530.2, -66282.5, 0.010215753, -0.24108656, -682771.6, 46890.023, 0.0, 10.000408, 9.999353 
2.5502345e+2, 2.3554236e+2, -585985.25, -688079.3, -66384.24, -0.100902624, -0.18044904, -553290.6, 78372.63, 0.0, 10.000676, 9.999316 
2.5503284e+2, 2.4554127e+2, -494328.4, -648188.75, -66764.09, -0.10726061, -0.1935227, -469397.4, 64276.31, 0.0, 10.000869, 9.998825 
2.5504312e+2, 2.5553933e+2, -378373.56, -544318.6, -62835.395, -0.029795267, -0.2749668, -357265.72, 78425.51, 0.0, 10.001004, 9.9988 
2.5505337e+2, 2.6553777e+2, -265497.63, -490794.88, -29039.416, -0.009820999, -0.28415927, -261814.84, 75890.71, 0.0, 10.001328, 9.99834 
2.5506365e+2, 2.7553654e+2, -104573.89, -367331.53, -33455.895, -0.03444403, -0.24594155, -100380.99, 139336.55, 0.0, 10.001781, 9.998297 
2.5507385e+2, 2.8553465e+2, 13088.662, -310421.1, -32919.4, -0.07098222, -0.23946503, 16404.457, 158140.33, 0.0, 10.002134, 9.997845 
2.5508392e+2, 2.9553232e+2, 149246.77, -199982.81, -20631.55, -0.12487226, -0.2582448, 150461.39, 194219.48, 0.0, 10.002422, 9.997791 
2.5509548e+2, 3.055297e+2, 172258.4, -207701.61, -13858.171, -0.051995385, -0.27377367, 172763.17, 172763.17, 0.000000000039700524, 10.002436, 9.9974 
2.5510588e+2, 3.1552708e+2, 255635.69, 18000.463, -17575.824, -0.08135242, -0.28613943, 256928.58, 256928.58, 0.00000021774382, 10.002205, 9.999063 
2.649157e+2, 1.2553245e+2, -1841846.4, -1637064.0, -56153.418, 0.09403993, -0.2628371, -1622676.9, 87081.805, 0.0001649167, 9.998526, 10.001243 
2.6492772e+2, 1.3553332e+2, -1779649.5, -1633751.0, 3491.0635, 0.075257994, -0.23224798, -1633667.5, -21920.113, 0.000073287774, 9.998614, 10.000552 
2.64938e+2, 1.4553279e+2, -1663014.5, -1592374.6, -71462.84, -0.0013997563, -0.3099785, -1547979.9, -34227.477, 0.000016155976, 9.999026, 9.999961 
2.6494795e+2, 1.5553306e+2, -1473325.1, -1460215.0, -51973.13, 0.014551098, -0.27607948, -1414385.3, 1366.0756, 0.00000046134082, 9.9997, 9.99987 
2.6495793e+2, 1.6553336e+2, -1370778.5, -1368101.9, -26434.145, 0.020153409, -0.226404, -1342972.1, -25222.693, 0.0, 9.999765, 9.999799 
2.6496783e+2, 1.7553368e+2, -1336470.5, -1300930.4, -28403.824, -0.006734937, -0.17922321, -1285195.9, -65448.53, 0.0, 9.99933, 9.999797 
2.6497725e+2, 1.8553334e+2, -1223475.0, -1193310.9, -56545.867, -0.03924365, -0.19251919, -1149870.3, -28119.484, 0.0, 9.999422, 9.999819 
2.649864e+2, 1.955325e+2, -1048452.06, -1060689.0, -65637.914, -0.066864245, -0.2622759, -988648.06, 35110.41, 0.0, 9.999963, 9.999795 
2.649961e+2, 2.0553185e+2, -918081.7, -983785.44, -64153.77, -0.03821751, -0.28801292, -878857.56, 46906.734, 0.0, 10.000342, 9.999467 
2.650063e+2, 2.1553136e+2, -786215.56, -871940.94, -62819.43, 0.03157157, -0.2870156, -753029.0, 74739.49, 0.0, 10.000586, 9.999445 
2.650156e+2, 2.2553109e+2, -693931.8, -810212.94, -67463.86, 0.0038837714, -0.24171849, -663012.3, 66759.96, 0.0, 10.00069, 9.999145 
2.650241e+2, 2.3553099e+2, -598084.6, -715498.7, -82069.36, -0.10164412, -0.16883542, -555886.3, 75889.31, 0.0, 10.000686, 9.999125 
2.650338e+2, 2.455298e+2, -479552.94, -632429.1, -78247.51, -0.10093917, -0.18752524, -446604.28, 87182.71, 0.0, 10.000934, 9.998903 
2.6504442e+2, 2.555277e+2, -318455.78, -507370.94, -70390.92, -0.014859664, -0.29093465, -295112.2, 140692.72, 0.0, 10.001381, 9.998873 
2.650549e+2, 2.6552624e+2, -227767.64, -479346.72, -31253.074, -0.0034483885, -0.28981417, -223943.28, 113875.195, 0.0, 10.001617, 9.998279 
2.6506522e+2, 2.7552536e+2, -121341.125, -381261.06, -30522.043, -0.05073605, -0.21245794, -117805.07, 122023.41, 0.0, 10.001693, 9.998242 
2.6507568e+2, 2.855236e+2, -39321.375, -332062.84, -33451.133, -0.08081813, -0.19179384, -35547.61, 106298.46, 0.0, 10.001761, 9.997874 
2.650862e+2, 2.955212e+2, 59621.08, -237629.53, -31841.838, -0.10280477, -0.22136377, 62993.746, 106862.75, 0.0, 10.001784, 9.99784 
2.6509777e+2, 3.055182e+2, 119204.45, -205338.33, -23639.44, -0.039258063, -0.2891533, 120917.29, 120917.29, 0.0, 10.001952, 9.997648 
2.6510787e+2, 3.1551623e+2, 280927.06, 48622.176, -9185.489, -0.106346026, -0.26058596, 281289.72, 281289.72, 0.000000083141636, 10.002304, 9.999222 
2.749137e+2, 1.2552123e+2, -1856553.0, -1669462.9, -64135.176, 0.03623274, -0.18791951, -1649588.4, 60284.117, 0.00012966055, 9.998535, 10.001016 
2.7492678e+2, 1.3552159e+2, -1788674.1, -1649794.4, 7551.84, 0.121009156, -0.19516705, -1649385.0, -37517.617, 0.00005392466, 9.998604, 10.000447 
2.749376e+2, 1.4552125e+2, -1618025.3, -1497736.3, -46633.695, 0.056083944, -0.28202865, -1481775.1, 32094.19, 0.0000098627, 9.99902, 10.000614 
2.7494767e+2, 1.555223e+2, -1428000.0, -1368698.9, -27908.348, 0.015436169, -0.23487811, -1357630.5, 58227.574, 0.00000011248763, 9.99971, 10.000494 
2.749575e+2, 1.6552244e+2, -1367445.4, -1363590.6, -43996.117, -0.00064333953, -0.23355901, -1321479.6, -3623.433, 0.0, 9.999775, 9.9998255 
2.7496704e+2, 1.755218e+2, -1334934.4, -1297855.6, -42891.95, -0.018466441, -0.2841655, -1269667.8, -49805.332, 0.0, 9.99933, 9.999818 
2.7497676e+2, 1.8552163e+2, -1239061.0, -1224515.3, -36667.793, -0.029667815, -0.26988503, -1194406.0, -72540.95, 0.0, 9.999417, 9.999606 
2.749867e+2, 1.9552189e+2, -1062809.4, -1090146.1, -45214.375, -0.028315552, -0.20863178, -1029242.56, -5378.1567, 0.0, 9.999961, 9.999594 
2.7499652e+2, 2.0552148e+2, -915454.56, -977271.94, -55286.613, -0.033895098, -0.20226675, -883023.25, 42844.938, 0.0, 10.000338, 9.999514 
2.7500615e+2, 2.1552056e+2, -785177.06, -868684.3, -53277.254, -0.047863606, -0.25106037, -759241.5, 68634.27, 0.0, 10.00058, 9.99947 
2.7501586e+2, 2.2551973e+2, -722767.75, -868548.06, -67983.305, -0.038302265, -0.24078788, -695984.94, 33899.605, 0.0, 10.000684, 9.998747 
2.7502576e+2, 2.3551902e+2, -623747.5, -768407.5, -80483.36, -0.0074312547, -0.19032495, -587868.44, 44025.703, 0.0, 10.000684, 9.998762 
2.7503562e+2, 2.4551788e+2, -469128.5, -610762.8, -61909.42, -0.015248948, -0.1941045, -445882.66, 88022.33, 0.0, 10.000933, 9.999052 
2.7504542e+2, 2.5551638e+2, -309799.44, -488080.88, -53911.074, -0.055693433, -0.2524954, -294764.97, 141151.95, 0.0, 10.001374, 9.999009 
2.7505574e+2, 2.6551506e+2, -227497.23, -476566.6, -29247.297, -0.08236367, -0.24723998, -224108.92, 113820.43, 0.0, 10.001609, 9.9983015 
2.7506647e+2, 2.755139e+2, -120450.33, -377313.75, -26803.451, -0.09683529, -0.19801992, -117683.23, 122258.81, 0.0, 10.001684, 9.998274 
2.750776e+2, 2.855121e+2, -45162.46, -343642.16, -32750.25, -0.065551996, -0.17982711, -41611.24, 100349.17, 0.0, 10.001759, 9.997797 
2.7508903e+2, 2.9550976e+2, 56061.324, -245606.02, -30227.635, -0.0015644473, -0.19338216, 59060.375, 103043.46, 0.0, 10.001785, 9.997785 
2.751002e+2, 3.055068e+2, 147320.73, -147136.23, -12352.138, 0.0072436105, -0.2801137, 147837.98, 147837.98, 0.0, 10.001953, 9.998047 
2.7510905e+2, 3.1550574e+2, 289451.03, 69143.36, 12691.39, -0.22343956, -0.19547254, 290179.72, 290179.72, 0.000000039236188, 10.002292, 9.99937 
2.849124e+2, 1.255101e+2, -1806971.3, -1670179.8, -23422.023, 0.03501112, -0.16365469, -1666280.5, 43702.773, 0.00010364884, 9.998982, 10.000795 
2.8492564e+2, 1.3551034e+2, -1745235.3, -1640736.0, 56331.363, 0.12903297, -0.1696376, -1616153.1, -4172.953, 0.000040612387, 9.998952, 10.000342 
2.8493667e+2, 1.4551012e+2, -1616938.4, -1480889.0, -4933.7524, 0.067211516, -0.25025323, -1480710.3, 33271.152, 0.0000062724685, 9.998959, 10.000759 
2.8494716e+2, 1.5551141e+2, -1527903.9, -1400302.3, -26990.78, 0.030367566, -0.1926331, -1394827.9, 21139.453, 0.000000028346124, 9.998954, 10.000642 
2.8495717e+2, 1.6551153e+2, -1428601.6, -1382302.4, -64417.36, 0.011137711, -0.20406342, -1337001.3, -19036.234, 0.0, 9.999311, 9.99992 
2.849667e+2, 1.7551069e+2, -1232325.6, -1238753.5, -59812.797, -0.017683178, -0.28428787, -1175640.5, 44332.008, 0.0, 9.999995, 9.999903 
2.8497663e+2, 1.8551052e+2, -1130953.4, -1186959.4, -44581.38, -0.024729643, -0.26944566, -1106309.8, 15665.68, 0.0, 10.000223, 9.9994755 
2.8498694e+2, 1.9551088e+2, -1056018.3, -1100885.9, -47992.1, -0.0070760124, -0.18300435, -1025475.5, -1501.0739, 0.0, 10.000068, 9.999469 
2.8499684e+2, 2.055106e+2, -935341.0, -985381.3, -51892.855, -0.02701631, -0.15908897, -902751.44, 23225.807, 0.0, 10.000195, 9.999527 
2.8500634e+2, 2.155098e+2, -788302.75, -868994.3, -53909.543, -0.08063989, -0.196619, -761313.4, 66669.984, 0.0, 10.000555, 9.999479 
2.8501642e+2, 2.2550862e+2, -696107.5, -872763.9, -61702.11, -0.06359231, -0.2147786, -676690.5, 53304.47, 0.0, 10.00094, 9.998595 
2.8502697e+2, 2.3550715e+2, -538587.25, -744641.1, -56964.69, 0.01334805, -0.22526732, -523887.72, 108123.28, 0.0, 10.001343, 9.998609 
2.8503695e+2, 2.4550596e+2, -414469.97, -605792.25, -46145.703, 0.0045515234, -0.21494135, -403921.5, 130100.9, 0.0, 10.0014, 9.998861 
2.850465e+2, 2.5550506e+2, -350814.75, -528118.2, -64418.79, -0.07571941, -0.19638744, -329881.3, 106148.62, 0.0, 10.001182, 9.998826 
2.85057e+2, 2.6550364e+2, -280000.7, -509166.63, -50000.703, -0.0990681, -0.18996559, -269566.38, 68477.51, 0.0, 10.00128, 9.998237 
2.8506833e+2, 2.7550173e+2, -133582.75, -389457.38, -55710.66, -0.073048435, -0.20350997, -121979.26, 118083.81, 0.0, 10.001619, 9.998221 
2.8507963e+2, 2.854999e+2, -25938.955, -323595.78, -60665.28, -0.044156954, -0.19115888, -14049.687, 128031.766, 0.0, 10.001844, 9.997893 
2.850907e+2, 2.9549813e+2, 94835.766, -214942.47, -46517.914, -0.017892689, -0.16196041, 101670.35, 145769.05, 0.0, 10.002003, 9.9978895 
2.8510198e+2, 3.0549514e+2, 166420.17, -130805.375, -33451.945, -0.014891065, -0.2574375, 170138.58, 170138.58, 0.0, 10.002055, 9.99811 
2.8511137e+2, 3.1549424e+2, 223102.0, 5093.085, -28499.854, -0.20119154, -0.16424228, 226766.14, 226766.14, 0.000000022768178, 10.001972, 9.999084 
2.9491192e+2, 1.2549907e+2, -1821193.3, -1701972.5, -34017.0, 0.08253392, -0.19325952, -1692949.5, 17141.2, 0.000085497144, 9.998992, 10.000573 
2.9492423e+2, 1.3549967e+2, -1752108.3, -1656548.5, 56407.336, 0.09352213, -0.15590328, -1630404.8, -18319.543, 0.000032281903, 9.99896, 10.000231 
2.9493526e+2, 1.4549941e+2, -1643185.1, -1536517.6, -5348.3223, 0.025655944, -0.21307549, -1536250.1, -22161.92, 0.0000046245973, 9.998962, 10.000376 
2.949463e+2, 1.5550041e+2, -1552559.6, -1450504.1, -25889.986, 0.05357831, -0.14743416, -1444311.9, -28232.992, 0.00000001715619, 9.99895, 10.0002985 
2.949569e+2, 1.6550069e+2, -1418003.4, -1359359.3, -39535.164, 0.050000057, -0.13581003, -1339459.3, -21383.508, 0.0, 9.999307, 10.000079 
2.949668e+2, 1.7550036e+2, -1221999.6, -1217356.8, -34888.246, -0.008284739, -0.1796562, -1184712.8, 35364.83, 0.0, 9.999995, 10.00005 
2.949768e+2, 1.8549995e+2, -1135059.4, -1195382.9, -50824.176, -0.028399015, -0.1916696, -1106121.0, 15961.074, 0.0, 10.000222, 9.999418 
2.9498702e+2, 1.9549946e+2, -1059577.9, -1108289.6, -52382.613, -0.0061389846, -0.18541774, -1026165.7, -2077.1404, 0.0, 10.000068, 9.999418 
2.949971e+2, 2.0549917e+2, -937655.75, -988927.75, -38753.15, -0.021168038, -0.15870383, -916826.6, 9264.859, 0.0, 10.00019, 9.999506 
2.9500702e+2, 2.1549907e+2, -790160.3, -871737.25, -39459.953, -0.070555665, -0.124429025, -774196.8, 53894.695, 0.0, 10.000549, 9.999464 
2.9501724e+2, 2.2549771e+2, -690298.6, -859008.7, -47119.99, -0.07571289, -0.16439545, -678030.3, 52073.53, 0.0, 10.000934, 9.998693 
2.9502773e+2, 2.3549534e+2, -535146.1, -735875.06, -42326.64, -0.04255784, -0.27350754, -526586.0, 105540.31, 0.0, 10.001335, 9.9986725 
2.9503787e+2, 2.4549407e+2, -451867.47, -682744.25, -54971.402, -0.04510592, -0.24974383, -439447.06, 94692.16, 0.0, 10.001397, 9.998335 
2.9504764e+2, 2.554937e+2, -386430.8, -601734.1, -70723.47, -0.07884682, -0.12427521, -365277.63, 70866.484, 0.0, 10.00118, 9.9983225 
2.9505873e+2, 2.654919e+2, -291266.25, -532143.2, -37508.85, -0.057089623, -0.11977889, -285560.6, 52601.633, 0.0, 10.001279, 9.998079 
2.950708e+2, 2.7548894e+2, -144047.1, -409896.84, -42543.793, 0.0121438075, -0.22801638, -137404.78, 102786.67, 0.0, 10.001614, 9.998084 
2.9508168e+2, 2.854871e+2, -8126.26, -285511.06, -55630.42, -0.023221554, -0.22348961, 2614.6882, 144823.66, 0.0, 10.00184, 9.9981575 
2.950914e+2, 2.9548627e+2, 111432.234, -178183.53, -39774.71, -0.15248689, -0.12735276, 116795.42, 161011.34, 0.0, 10.001993, 9.998147 
2.9510313e+2, 3.0548328e+2, 146564.39, -170174.64, -36674.02, -0.10613099, -0.2219002, 150755.28, 150755.28, 0.0, 10.002047, 9.997843 
2.9511482e+2, 3.1548154e+2, 175896.08, -93394.25, -21055.525, -0.057403143, -0.18050776, 177532.44, 177532.44, 0.000000019534246, 10.001974, 9.998406 
3.0491087e+2, 1.254879e+2, -1890061.4, -1736173.3, -52300.676, 0.10098865, -0.20622714, -1720081.0, -9880.158, 0.000073591786, 9.998529, 10.00056 
3.0492318e+2, 1.3548873e+2, -1701764.8, -1625847.3, 58639.465, 0.07999009, -0.15117908, -1593953.0, 18239.68, 0.000027638554, 9.999277, 10.000288 
3.0493435e+2, 1.454884e+2, -1570501.9, -1539064.0, -5947.891, 0.009937519, -0.20100152, -1537976.3, -23779.316, 0.000004191702, 9.999626, 10.000038 
3.0494562e+2, 1.5548903e+2, -1477920.3, -1450358.8, -25769.63, 0.05525165, -0.14039075, -1434916.6, -18723.92, 0.000000032166714, 9.999618, 9.999978 
3.049565e+2, 1.654893e+2, -1377943.4, -1337907.6, -32176.67, 0.06596085, -0.11480892, -1320030.1, -1839.9911, 0.0, 9.999575, 10.000096 
3.0496678e+2, 1.754893e+2, -1292538.4, -1249473.3, -39851.336, 0.015417183, -0.1285454, -1225709.3, -5519.97, 0.0, 9.999503, 10.000066 
3.049769e+2, 1.8548886e+2, -1193781.6, -1219117.9, -58191.848, -0.018727962, -0.14598612, -1146895.0, -24701.459, 0.0, 9.999801, 9.999458 
3.0498707e+2, 1.9548807e+2, -1005597.6, -1077705.9, -53642.355, -0.027345732, -0.17385647, -977018.94, 47183.035, 0.0, 10.000422, 9.999456 
3.049974e+2, 2.0548764e+2, -879514.2, -976029.1, -44088.215, -0.03271697, -0.15642133, -862406.94, 63799.496, 0.0, 10.000655, 9.99937 
3.0500787e+2, 2.1548752e+2, -796543.4, -888399.56, -54160.09, -0.04043127, -0.10949849, -771459.44, 56748.027, 0.0, 10.000565, 9.999342 
3.0501822e+2, 2.2548634e+2, -714360.44, -850511.9, -53288.32, -0.05745836, -0.13455927, -695984.2, 34233.64, 0.0, 10.00068, 9.998874 
3.050285e+2, 2.3548432e+2, -577383.75, -738080.44, -43870.773, -0.08022835, -0.22780032, -566187.0, 66048.695, 0.0, 10.000967, 9.998835 
3.0503896e+2, 2.4548285e+2, -474313.06, -721675.5, -48729.867, -0.07324703, -0.21708831, -465059.56, 69190.57, 0.0, 10.001365, 9.998083 
3.0504954e+2, 2.5548187e+2, -304963.66, -589685.6, -45343.906, -0.04214672, -0.1287651, -297916.75, 138344.81, 0.0, 10.001856, 9.99808 
3.0506065e+2, 2.654799e+2, -210784.67, -503639.0, -4219.2773, -0.016776903, -0.12714514, -210723.9, 127557.81, 0.0, 10.001877, 9.997986 
3.050723e+2, 2.7547708e+2, -164989.31, -430056.3, -5969.4634, 0.005153647, -0.20910935, -164854.95, 75454.336, 0.0, 10.001515, 9.997992 
3.050832e+2, 2.8547522e+2, -47290.16, -310943.53, -17775.793, -0.041716635, -0.20020463, -46097.098, 96229.94, 0.0, 10.0016, 9.998097 
3.0509344e+2, 2.9547417e+2, 114443.57, -182300.23, -28388.586, -0.14908698, -0.11604494, 117135.01, 161470.69, 0.0, 10.002037, 9.998098 
3.0510524e+2, 3.0547136e+2, 166473.9, -154500.88, -36810.83, -0.10334016, -0.19601223, 170641.42, 170641.42, 0.0, 10.002157, 9.997898 
3.0511698e+2, 3.154694e+2, 160291.5, -132914.73, 6084.068, -0.039337207, -0.17814511, 160417.69, 160417.69, 0.000000009333619, 10.002005, 9.99812 
3.1490922e+2, 1.2547661e+2, -1877270.1, -1709466.9, -35004.535, 0.08400959, -0.19898808, -1702457.6, 7855.7026, 0.00006650563, 9.9985285, 10.000745 
3.1492245e+2, 1.3547762e+2, -1683005.5, -1589871.3, 87298.01, 0.07896412, -0.15364134, -1537496.8, 74805.54, 0.000025576577, 9.9992895, 10.00053 
3.14934e+2, 1.4547715e+2, -1589915.1, -1582055.4, -6872.1396, 0.009358712, -0.212991, -1578068.9, -63761.344, 0.000004447986, 9.999637, 9.999739 
3.14945e+2, 1.5547726e+2, -1499173.4, -1493718.9, -25467.51, 0.032219186, -0.1738447, -1470833.0, -54524.438, 0.00000006594377, 9.999615, 9.999681 
3.1495595e+2, 1.6547737e+2, -1388670.6, -1359170.5, -35419.035, 0.0561297, -0.14233889, -1335552.9, -17244.506, 0.0, 9.99957, 9.999953 
3.1496662e+2, 1.7547749e+2, -1301231.9, -1267877.8, -40907.145, 0.048235696, -0.13002959, -1240378.8, -20071.408, 0.0, 9.999504, 9.999939 
3.1497687e+2, 1.8547723e+2, -1183732.6, -1198643.1, -35608.656, -0.0022453927, -0.13057603, -1154807.1, -32497.414, 0.0, 9.999802, 9.999599 
3.14987e+2, 1.9547667e+2, -997411.0, -1060049.1, -30964.418, -0.07431131, -0.14978956, -984688.3, 39626.582, 0.0, 10.000418, 9.99958 
3.149977e+2, 2.0547596e+2, -898569.9, -1013340.1, -47918.06, -0.065597475, -0.15307729, -881194.06, 45128.11, 0.0, 10.000646, 9.999118 
3.1500888e+2, 2.1547513e+2, -813391.25, -922184.2, -56093.746, 0.0058349115, -0.15118301, -789650.1, 38681.184, 0.0, 10.00056, 9.999113 
3.1501934e+2, 2.2547449e+2, -696434.44, -812597.2, -42915.023, -0.012531967, -0.12544589, -682299.9, 48037.035, 0.0, 10.000677, 9.999136 
3.1502923e+2, 2.3547404e+2, -560280.25, -701546.06, -32091.564, -0.10333761, -0.089598924, -553331.75, 79007.72, 0.0, 10.000962, 9.999088 
3.1504023e+2, 2.4547231e+2, -473990.97, -719736.94, -30973.043, -0.08380005, -0.11794958, -470147.34, 64208.047, 0.0, 10.001359, 9.998099 
3.1505206e+2, 2.5546953e+2, -304848.88, -587461.25, -27909.771, 0.027327618, -0.20777899, -302119.0, 134263.22, 0.0, 10.001847, 9.998099 
3.150629e+2, 2.6546752e+2, -213598.97, -508964.28, -18554.955, 0.017373681, -0.20940676, -212437.9, 125964.39, 0.0, 10.001874, 9.9979515 
3.150728e+2, 2.754661e+2, -168846.77, -437390.4, -17329.922, -0.09547324, -0.14867447, -167733.03, 72683.93, 0.0, 10.001513, 9.997943 
3.150842e+2, 2.8546417e+2, -75056.484, -367307.97, -2004.1957, -0.10124081, -0.12370351, -75042.74, 67393.4, 0.0, 10.001595, 9.997713 
3.1509677e+2, 2.954619e+2, 89963.39, -232773.84, -11646.336, -0.020458132, -0.12819794, 90383.12, 134841.2, 0.0, 10.002037, 9.997751 
3.1510827e+2, 3.0545938e+2, 191752.19, -102976.65, -43525.78, -0.016440948, -0.1802586, 198045.72, 198045.72, 0.0, 10.00216, 9.998251 
3.1511784e+2, 3.154578e+2, 166710.23, -117220.42, 6206.256, -0.15292805, -0.1613131, 166845.83, 166845.83, 0.0000000005270663, 10.001993, 9.998234 
3.2490802e+2, 1.2546532e+2, -1793880.1, -1681485.1, -59272.207, 0.08279024, -0.15372744, -1656004.3, 54422.9, 0.00006287029, 9.999155, 10.000632 
3.2492167e+2, 1.3546634e+2, -1718126.5, -1608694.3, 50247.277, 0.08262189, -0.10491245, -1589122.9, 23293.52, 0.000025189593, 9.999057, 10.000513 
3.2493347e+2, 1.4546585e+2, -1648543.3, -1598587.5, -45338.72, 0.016359005, -0.17130399, -1571801.6, -57380.207, 0.0000050024137, 9.999186, 9.999842 
3.2494447e+2, 1.5546578e+2, -1519315.1, -1492183.6, -35685.625, 0.028702727, -0.16090764, -1467572.3, -51149.145, 0.000000115129794, 9.999429, 9.999782 
3.2495546e+2, 1.654658e+2, -1385166.8, -1370628.4, -28960.771, 0.046748925, -0.13740341, -1348038.5, -29614.81, 0.0, 9.999651, 9.999835 
3.2496616e+2, 1.7546591e+2, -1253476.0, -1256428.6, -33571.934, 0.034415867, -0.11309719, -1221347.9, -924.7444, 0.0, 9.999884, 9.999834 
3.2497674e+2, 1.8546568e+2, -1162258.0, -1181243.0, -23856.338, -0.0013551575, -0.10894212, -1146075.0, -23649.898, 0.0, 9.99992, 9.999661 
3.2498738e+2, 1.9546518e+2, -1084321.1, -1095908.8, -26594.469, -0.04493127, -0.12893791, -1062896.6, -38467.53, 0.0, 9.999794, 9.999635 
3.249983e+2, 2.0546441e+2, -981855.4, -1061219.5, -36007.93, -0.04603858, -0.13817583, -967953.5, -41516.57, 0.0, 10.000106, 9.99905 
3.2500935e+2, 2.1546341e+2, -785848.4, -915807.6, -31920.488, -0.016216364, -0.14602953, -778431.4, 50016.47, 0.0, 10.000779, 9.999051 
3.2502005e+2, 2.2546276e+2, -654865.6, -800628.0, -33032.84, -0.025476525, -0.11429675, -647729.06, 82724.664, 0.0, 10.0009985, 9.999063 
3.250305e+2, 2.3546241e+2, -581744.25, -718803.0, -47918.676, -0.06514113, -0.05959481, -566652.6, 65802.98, 0.0, 10.000846, 9.999025 
3.250417e+2, 2.4546064e+2, -525832.8, -731117.9, -40601.266, -0.04940523, -0.0955568, -518094.4, 16377.187, 0.0, 10.000945, 9.99822 
3.2505345e+2, 2.5545773e+2, -383003.0, -612622.25, -32131.229, 0.011320553, -0.21398516, -378591.53, 57907.63, 0.0, 10.001258, 9.99821 
3.2506436e+2, 2.6545578e+2, -251133.61, -533501.56, -32442.623, -0.010194288, -0.20912793, -247454.06, 91064.12, 0.0, 10.001644, 9.997894 
3.2507455e+2, 2.7545467e+2, -88053.99, -404966.1, -34016.934, -0.09994342, -0.11366094, -84443.79, 156086.66, 0.0, 10.002094, 9.997887 
3.2508618e+2, 2.8545257e+2, 2188.7441, -338736.06, -3589.5002, -0.08923169, -0.09741299, 2226.5327, 144777.92, 0.0, 10.002163, 9.997636 
3.2509893e+2, 2.954498e+2, 64027.887, -253928.05, 6972.97, 0.002435473, -0.14300804, 64180.734, 108759.05, 0.0, 10.001896, 9.997674 
3.251103e+2, 3.0544776e+2, 154074.17, -111938.74, -28203.295, -0.01357811, -0.14552371, 157031.47, 157031.47, 0.0, 10.001863, 9.998333 
3.251198e+2, 3.1544626e+2, 171940.9, -114247.21, 3267.6252, -0.15932253, -0.12943669, 171978.22, 171978.22, 0.0, 10.0020275, 9.998239 
3.349072e+2, 1.2545407e+2, -1821027.8, -1742710.4, -76095.99, 0.07978354, -0.06866679, -1696288.6, 14253.306, 0.000061273975, 9.999177, 10.000202 
3.349208e+2, 1.3545494e+2, -1739832.9, -1651345.5, 48764.93, 0.0913239, -0.0035844927, -1629744.5, -17209.854, 0.000025556885, 9.999046, 10.000226 
3.349328e+2, 1.4545453e+2, -1614449.3, -1525471.0, -35314.55, 0.03073853, -0.07399168, -1513158.8, 1379.7039, 0.0000055599335, 9.999174, 10.000349 
3.3494398e+2, 1.5545462e+2, -1483851.5, -1419715.1, -25279.285, 0.034712844, -0.098754615, -1410949.4, 5586.543, 0.00000016881297, 9.9994335, 10.000277 
3.3495492e+2, 1.6545463e+2, -1389995.9, -1383093.0, -21124.33, 0.026055677, -0.09664257, -1365140.0, -46604.535, 0.0, 9.99966, 9.999746 
3.3496544e+2, 1.7545457e+2, -1259683.8, -1269125.0, -24657.88, -0.028477041, -0.07922165, -1239298.8, -18762.135, 0.0, 9.999881, 9.999749 
3.3497646e+2, 1.8545422e+2, -1164926.4, -1185185.9, -28943.088, -0.019037692, -0.081904925, -1144391.6, -21851.922, 0.0, 9.999912, 9.999638 
3.349882e+2, 1.954536e+2, -1086376.1, -1099877.8, -29161.473, 0.056585465, -0.11076216, -1063194.3, -38649.582, 0.0, 9.999792, 9.999609 
3.3499905e+2, 2.0545298e+2, -974460.7, -1044716.94, -10942.331, 0.021392293, -0.11047764, -972795.94, -46245.316, 0.0, 10.0001, 9.999166 
3.350092e+2, 2.1545233e+2, -779607.9, -901975.8, -7161.996, -0.10991403, -0.094824746, -779190.1, 49367.04, 0.0, 10.000773, 9.999148 
3.350203e+2, 2.2545114e+2, -684445.06, -860558.94, -39462.81, -0.10028456, -0.101170935, -676006.75, 54561.78, 0.0, 10.000992, 9.998654 
3.350323e+2, 2.354495e+2, -608462.6, -773674.25, -52146.727, 0.029805277, -0.13568345, -593380.2, 39203.797, 0.0, 10.000843, 9.998651 
3.3504343e+2, 2.4544789e+2, -510694.63, -699607.9, -29244.854, 0.026133694, -0.14828059, -506270.94, 28327.758, 0.0, 10.000944, 9.998437 
3.3505368e+2, 2.5544637e+2, -369578.22, -583483.5, -19389.455, -0.09164848, -0.1488584, -367834.88, 68777.7, 0.0, 10.001252, 9.998413 
3.350651e+2, 2.6544464e+2, -258416.84, -546843.1, -16231.841, -0.100864254, -0.12808807, -257506.23, 81123.38, 0.0, 10.001636, 9.997807 
3.350775e+2, 2.7544272e+2, -93490.9, -414324.1, -17577.703, -0.01754001, -0.10409203, -92530.734, 148119.0, 0.0, 10.002087, 9.997827 
3.3508912e+2, 2.854404e+2, 16320.483, -307910.84, -14086.332, -0.013382072, -0.119558774, 16931.318, 159603.98, 0.0, 10.002156, 9.997851 
3.351e+2, 2.954379e+2, 75712.07, -227305.11, -796.86536, -0.08114448, -0.15883544, 75714.164, 120410.45, 0.0, 10.001885, 9.997862 
3.3511132e+2, 3.0543655e+2, 138873.06, -141403.31, -23462.822, -0.09538937, -0.092772074, 140823.63, 140823.63, 0.0, 10.001854, 9.998135 
3.3512264e+2, 3.1543472e+2, 165125.27, -127854.81, 14027.627, -0.07498253, -0.0884061, 165795.36, 165795.36, 0.0, 10.002026, 9.998145 
3.44906e+2, 1.2544237e+2, -1879537.9, -1769132.9, -83296.92, 0.06313728, -0.033819366, -1724406.9, -13747.936, 0.000060228966, 9.998768, 10.0002165 
3.4491977e+2, 1.3544312e+2, -1759943.6, -1650038.4, 83406.11, 0.09498079, 0.00951205, -1605109.1, 7543.2715, 0.000025763518, 9.9988575, 10.000326 
3.4493214e+2, 1.4544287e+2, -1626245.0, -1523746.9, 8975.218, 0.052894305, -0.052395027, -1522966.9, -8312.458, 0.000005876301, 9.999062, 10.000414 
3.4494352e+2, 1.554432e+2, -1497612.0, -1418796.8, -18100.348, 0.052419133, -0.06053289, -1414838.6, 1811.171, 0.0000002059256, 9.999308, 10.000342 
3.449546e+2, 1.6544323e+2, -1414514.0, -1395534.8, -27368.049, 0.03786836, -0.059470236, -1376057.9, -57408.598, 0.0, 9.9994955, 9.99974 
3.449652e+2, 1.7544304e+2, -1292221.1, -1285741.6, -26404.268, -0.027601898, -0.05575237, -1262379.0, -41727.406, 0.0, 9.999661, 9.999741 
3.4497637e+2, 1.8544261e+2, -1175460.3, -1199372.6, -33351.684, -0.018571364, -0.06122002, -1151986.4, -29330.902, 0.0, 9.999879, 9.999556 
3.4498826e+2, 1.9544199e+2, -1041004.2, -1085718.4, -38340.13, 0.06650851, -0.08290155, -1018978.8, 5681.912, 0.0, 10.000139, 9.999537 
3.4499937e+2, 2.0544134e+2, -951907.6, -1029099.3, -14501.441, 0.036642738, -0.0816315, -949273.25, -22606.99, 0.0, 10.000236, 9.9992075 
3.450098e+2, 2.154407e+2, -861205.3, -937474.6, -17756.918, -0.09435309, -0.070448995, -857273.9, -28601.652, 0.0, 10.000196, 9.999183 
3.450212e+2, 2.2543935e+2, -758779.7, -910846.44, -42301.35, -0.08803357, -0.08736112, -747804.56, -17119.432, 0.0, 10.000544, 9.998526 
3.4503338e+2, 2.3543742e+2, -563430.3, -765591.25, -35957.438, 0.035334203, -0.13728029, -557225.2, 75478.836, 0.0, 10.001211, 9.9985285 
3.4504458e+2, 2.4543591e+2, -432252.66, -659891.4, -15930.797, 0.024155939, -0.13593274, -431143.16, 103575.12, 0.0, 10.001474, 9.998454 
3.450549e+2, 2.5543478e+2, -346257.5, -569994.1, -21849.49, -0.10098814, -0.09876957, -344143.7, 92584.86, 0.0, 10.001403, 9.998433 
3.4506652e+2, 2.654331e+2, -290313.1, -553188.6, -12916.749, -0.10706522, -0.079768434, -289679.9, 49065.145, 0.0, 10.001378, 9.997887 
3.4507924e+2, 2.7543092e+2, -190561.38, -452997.28, -4317.6035, -0.012351823, -0.09142648, -190490.36, 50277.043, 0.0, 10.001384, 9.9979 
3.4509096e+2, 2.854285e+2, -76207.35, -344856.94, -9992.4375, -0.009269073, -0.12008945, -75836.195, 66954.64, 0.0, 10.001487, 9.997919 
3.4510174e+2, 2.9542616e+2, 51404.746, -233443.06, -8984.73, -0.086924836, -0.1522473, 51687.863, 96501.24, 0.0, 10.001694, 9.997912 
3.451131e+2, 3.0542514e+2, 148073.66, -142353.58, -20491.332, -0.106330365, -0.049816396, 149512.31, 149512.31, 0.0, 10.00194, 9.998086 
3.45125e+2, 3.1542292e+2, 200899.44, -86368.164, 26436.543, -0.049642507, -0.08513134, 203312.06, 203312.06, 0.0, 10.002169, 9.99836 
3.549044e+2, 1.254302e+2, -1847523.6, -1700993.1, -90656.12, 0.027394695, -0.05145552, -1657698.0, 53080.313, 0.00005843651, 9.99876, 10.000688 
3.5491848e+2, 1.3543089e+2, -1723532.0, -1576562.8, 89991.3, 0.08051016, -0.066657946, -1533864.6, 78904.68, 0.000025162195, 9.998865, 10.000827 
3.5493135e+2, 1.4543092e+2, -1651498.3, -1579600.8, 18836.494, 0.068460934, -0.10648849, -1574964.6, -60195.63, 0.0000057861466, 9.999075, 10.000026 
3.5494313e+2, 1.5543152e+2, -1524418.4, -1473642.9, -8126.538, 0.08194541, -0.047473785, -1472373.9, -55609.14, 0.00000020730299, 9.999303, 9.9999695 
3.5495457e+2, 1.654316e+2, -1410333.4, -1385776.5, -21743.99, 0.08173889, -0.025751635, -1373083.8, -54318.83, 0.0, 9.999491, 9.999808 
3.5496542e+2, 1.7543128e+2, -1287540.8, -1277013.1, -18938.943, 0.03078927, -0.042527787, -1262620.1, -41851.715, 0.0, 9.999665, 9.999799 
3.549764e+2, 1.8543082e+2, -1184554.3, -1219171.9, -23948.305, -0.007719897, -0.045803722, -1172314.5, -49541.973, 0.0, 9.999882, 9.999419 
3.5498756e+2, 1.9543028e+2, -1049591.8, -1103779.1, -28424.291, -0.01877925, -0.046630837, -1037417.0, -12639.615, 0.0, 10.000138, 9.999414 
3.549992e+2, 2.0542951e+2, -955144.8, -1034223.56, -16530.186, -0.0038336057, -0.052766416, -951828.5, -25044.25, 0.0, 10.000228, 9.999176 
3.550112e+2, 2.1542852e+2, -863843.94, -941825.9, -17077.953, 0.026149403, -0.07270318, -860267.9, -31474.951, 0.0, 10.000192, 9.999156 
3.5502267e+2, 2.2542739e+2, -749869.3, -890723.75, -17600.975, 0.007040884, -0.07298509, -747703.2, -16899.568, 0.0, 10.000537, 9.998667 
3.5503376e+2, 2.3542617e+2, -555371.6, -747635.8, -11521.191, -0.05058347, -0.06514749, -554683.7, 78132.266, 0.0, 10.001205, 9.998654 
3.5504526e+2, 2.4542467e+2, -446011.16, -686692.6, -19497.414, -0.057666566, -0.059502136, -444441.9, 90388.74, 0.0, 10.001467, 9.998274 
3.550571e+2, 2.5542295e+2, -357940.8, -592522.3, -23951.873, -0.023001835, -0.0633437, -355520.22, 81326.914, 0.0, 10.001395, 9.998282 
3.5506862e+2, 2.6542115e+2, -274066.3, -518340.88, -12792.952, -0.034973662, -0.06385252, -273398.16, 65466.414, 0.0, 10.001373, 9.998129 
3.550799e+2, 2.7541918e+2, -175826.94, -421451.8, -2737.6958, -0.08644728, -0.07495826, -175796.42, 65086.99, 0.0, 10.00138, 9.998117 
3.5509175e+2, 2.854169e+2, -83009.516, -358154.56, -3406.897, -0.078523226, -0.09894225, -82967.336, 59938.62, 0.0, 10.001483, 9.99783 
3.5510406e+2, 2.9541448e+2, 44612.313, -246423.53, -226.42946, -0.02371764, -0.12513556, 44612.49, 89542.31, 0.0, 10.001688, 9.997826 
3.5511556e+2, 3.0541357e+2, 153424.28, -129887.5, -12330.077, -0.055025127, -0.016759288, 153959.89, 153959.89, 0.0, 10.001933, 9.998175 
3.5512674e+2, 3.1541085e+2, 234816.28, -12654.944, 37559.395, -0.09428037, -0.1113926, 240391.19, 240391.19, 0.0, 10.002154, 9.998874 
3.6490315e+2, 1.254179e+2, -1895086.8, -1715316.5, -91056.3, 0.040778767, -0.07588455, -1677254.0, 33643.59, 0.000055122826, 9.998398, 10.000763 
3.649173e+2, 1.3541852e+2, -1684205.9, -1542357.1, 70445.87, 0.066115245, -0.11343454, -1513317.1, 99571.875, 0.000023501116, 9.999068, 10.000963 
3.6493048e+2, 1.4541872e+2, -1622360.4, -1581747.8, -15230.112, 0.059594996, -0.13590948, -1576671.0, -61783.543, 0.00000526637, 9.999345, 9.99988 
3.6494228e+2, 1.5541944e+2, -1546271.5, -1499058.6, -25743.768, 0.07460184, -0.05133118, -1487736.5, -70853.484, 0.00000017249042, 9.999215, 9.999837 
3.6495405e+2, 1.654195e+2, -1434508.5, -1402591.6, -25502.88, 0.08855141, -0.021436483, -1388465.8, -69582.09, 0.0, 9.999347, 9.999762 
3.6496538e+2, 1.7541908e+2, -1285069.0, -1280628.5, -32677.963, 0.060436845, -0.044036254, -1250095.5, -29207.154, 0.0, 9.999704, 9.999754 
3.649765e+2, 1.854186e+2, -1171274.0, -1219012.4, -37192.914, 0.01298255, -0.04435006, -1150949.8, -28056.924, 0.0, 10.0, 9.999363 
3.6498758e+2, 1.954181e+2, -1035704.06, -1103224.1, -37396.45, -0.03570161, -0.03510212, -1019083.2, 5814.3604, 0.0, 10.000258, 9.999361 
3.6499938e+2, 2.0541723e+2, -927135.25, -1027247.8, -30625.076, -0.018063653, -0.043729838, -918509.94, 8395.368, 0.0, 10.000447, 9.999119 
3.650118e+2, 2.1541607e+2, -812591.2, -922310.3, -34087.094, 0.04875317, -0.07591422, -802863.6, 26052.078, 0.0, 10.0005665, 9.999109 
3.650234e+2, 2.2541505e+2, -738691.0, -873221.0, -26527.205, 0.025571145, -0.07030086, -733649.2, -2723.818, 0.0, 10.000561, 9.9987755 
3.6503437e+2, 2.3541415e+2, -657603.56, -784917.0, -24194.736, -0.07031197, -0.04069935, -653160.6, -20226.186, 0.0, 10.000452, 9.998762 
3.6504608e+2, 2.4541269e+2, -561880.06, -733567.9, -24850.92, -0.078042954, -0.04049188, -558355.4, -23406.764, 0.0, 10.000632, 9.998355 
3.6505842e+2, 2.5541076e+2, -401461.66, -604766.0, -11853.391, -0.013187581, -0.073569015, -400772.9, 36193.996, 0.0, 10.001058, 9.998362 
3.6507013e+2, 2.65409e+2, -276092.2, -514171.13, -2451.1875, -0.021419447, -0.07573675, -276066.94, 62916.99, 0.0, 10.001335, 9.998177 
3.650813e+2, 2.754073e+2, -154364.06, -405990.56, -7959.7427, -0.0906094, -0.06377945, -154112.52, 86887.85, 0.0, 10.001504, 9.998165 
3.6509326e+2, 2.854052e+2, -57311.363, -344030.28, -6566.1997, -0.082279734, -0.075589545, -57161.066, 85860.68, 0.0, 10.001651, 9.997848 
3.651059e+2, 2.954028e+2, 51171.832, -244169.47, 2509.7656, -0.011186216, -0.1021563, 51193.16, 96238.97, 0.0, 10.001736, 9.997819 
3.6511746e+2, 3.0540165e+2, 116285.19, -165842.55, -14058.373, -0.048511803, -0.0062376214, 116983.984, 116983.984, 0.0, 10.001755, 9.998014 
3.6512887e+2, 3.153986e+2, 200759.63, -504.05716, 13860.4375, -0.07517589, -0.12229732, 201709.67, 201709.67, 0.0, 10.001794, 9.999132 
3.7490207e+2, 1.2540548e+2, -1918533.0, -1763820.9, -79655.37, 0.09220631, -0.10706085, -1730141.3, -19124.154, 0.00005010573, 9.998396, 10.000431 
3.7491623e+2, 1.35406e+2, -1700808.5, -1577920.9, 96672.62, 0.05203285, -0.12923618, -1524818.0, 88193.43, 0.000020857056, 9.999071, 10.000719 
3.749295e+2, 1.4540626e+2, -1614322.9, -1565613.0, -20323.324, 0.02394671, -0.13894174, -1558247.3, -43237.746, 0.000004428325, 9.999347, 9.9999895 
3.74941e+2, 1.5540692e+2, -1538232.4, -1482934.9, -29186.715, 0.02062563, -0.07182277, -1470380.1, -53375.625, 0.00000011962439, 9.999218, 9.999946 
3.7495297e+2, 1.6540694e+2, -1445152.5, -1425765.8, -12474.299, 0.047875814, -0.04591178, -1419661.4, -100655.84, 0.0, 9.999351, 9.999601 
3.749651e+2, 1.7540641e+2, -1295321.6, -1302763.5, -18649.318, 0.058871653, -0.060831267, -1280025.6, -59014.188, 0.0, 9.999707, 9.999601 
3.7497678e+2, 1.8540592e+2, -1169639.6, -1215750.8, -28225.83, 0.0402428, -0.057605978, -1156249.9, -33233.246, 0.0, 9.999999, 9.999386 
3.7498832e+2, 1.9540544e+2, -1034584.75, -1100751.5, -27068.857, 0.0116000725, -0.048638336, -1024922.0, 99.39494, 0.0, 10.0002575, 9.999379 
3.749999e+2, 2.0540456e+2, -933789.0, -1040092.5, -26526.262, -0.00975877, -0.05399783, -927537.5, -507.9438, 0.0, 10.000443, 9.999033 
3.7501156e+2, 2.1540338e+2, -818595.25, -933582.06, -29221.14, -0.029737236, -0.08058013, -811595.5, 17445.072, 0.0, 10.000561, 9.999035 
3.7502334e+2, 2.2540231e+2, -734011.44, -862476.5, -31542.588, -0.0359664, -0.079200044, -726684.5, 4365.966, 0.0, 10.000556, 9.998853 
3.7503526e+2, 2.3540135e+2, -651417.25, -771549.9, -26926.803, -0.028187482, -0.0639338, -645657.9, -12598.426, 0.0, 10.000448, 9.998856 
3.750471e+2, 2.4539997e+2, -539316.3, -685400.44, -9191.993, -0.04126294, -0.079077385, -538740.2, -3668.0679, 0.0, 10.000627, 9.998688 
3.7505886e+2, 2.5539818e+2, -380482.03, -560243.56, 4232.667, -0.073492475, -0.12801935, -380382.4, 56705.45, 0.0, 10.001053, 9.998669 
3.75071e+2, 2.6539665e+2, -287530.4, -536792.06, 2726.3696, -0.06841374, -0.113934726, -287500.6, 51602.582, 0.0, 10.00133, 9.998024 
3.750834e+2, 2.7539527e+2, -164912.3, -425161.6, -1089.0712, -0.031236041, -0.058328643, -164907.73, 76210.71, 0.0, 10.001492, 9.998039 
3.7509546e+2, 2.8539333e+2, -49742.53, -325357.88, -3620.6565, -0.027374985, -0.05094658, -49694.977, 93443.38, 0.0, 10.001638, 9.997981 
3.751072e+2, 2.9539105e+2, 57020.086, -230899.5, 6117.6064, -0.053467385, -0.08246673, 57150.01, 102311.234, 0.0, 10.001732, 9.997911 
3.751188e+2, 3.0538943e+2, 87412.84, -225666.2, -14201.052, -0.089823075, -0.016249454, 88055.68, 88055.68, 0.0, 10.001754, 9.997604 
3.751314e+2, 3.1538615e+2, 198993.02, -246.21898, 15516.672, -0.0054350602, -0.11636706, 200194.2, 200194.2, 0.0, 10.001779, 9.999141 
3.849009e+2, 1.2539288e+2, -1855318.8, -1770909.5, -106677.78, 0.10901267, -0.119270936, -1698391.0, 12748.328, 0.00004363311, 9.998996, 10.000092 
3.8491523e+2, 1.3539362e+2, -1735600.4, -1625289.3, 78444.79, 0.052211236, -0.09319638, -1584550.5, 28583.578, 0.000017489165, 9.998961, 10.000447 
3.8492876e+2, 1.4539385e+2, -1633345.5, -1576563.3, -49740.652, 0.02581869, -0.090545565, -1547681.4, -32548.611, 0.0000034194288, 9.999224, 9.999974 
3.8494018e+2, 1.5539402e+2, -1481211.3, -1456945.1, -72079.13, 0.0014281152, -0.071527384, -1395985.0, 21146.516, 0.00000006772674, 9.999617, 9.999932 
3.849523e+2, 1.653938e+2, -1393899.6, -1407205.1, -53979.41, 0.026213586, -0.06442597, -1346164.6, -27030.29, 0.0, 9.999727, 9.999548 
3.8496467e+2, 1.7539331e+2, -1307210.4, -1313554.1, -52808.54, 0.048806563, -0.07160787, -1257478.5, -36338.473, 0.0, 9.999646, 9.9995575 
3.849767e+2, 1.853929e+2, -1197115.9, -1222566.4, -50817.508, 0.046375528, -0.061359596, -1157454.5, -34309.98, 0.0, 9.9997835, 9.999444 
3.849887e+2, 1.9539253e+2, -1054543.1, -1103700.8, -48627.11, 0.036784347, -0.046181623, -1024636.0, 512.2086, 0.0, 10.0000925, 9.999437 
3.8500038e+2, 2.0539176e+2, -959254.7, -1047179.44, -47652.73, 0.0028334935, -0.046019737, -938382.9, -11227.406, 0.0, 10.000247, 9.999079 
3.8501173e+2, 2.1539067e+2, -856798.94, -946755.2, -41980.742, -0.05675418, -0.066925526, -840251.4, -11085.572, 0.0, 10.000276, 9.999082 
3.8502362e+2, 2.253896e+2, -738328.3, -853304.56, -35714.418, -0.060302123, -0.07398175, -728137.75, 3037.741, 0.0, 10.000478, 9.998953 
3.8503602e+2, 2.3538853e+2, -589122.25, -730400.2, -31323.902, -0.014702922, -0.07940272, -582488.7, 50696.074, 0.0, 10.000829, 9.998955 
3.8504806e+2, 2.453872e+2, -495112.5, -660874.7, -23471.45, -0.019371701, -0.096076556, -491853.13, 43343.71, 0.0, 10.0009165, 9.998716 
3.850598e+2, 2.553856e+2, -418403.06, -574970.56, -33684.695, -0.06817583, -0.12956671, -411463.53, 25747.65, 0.0, 10.000778, 9.9987 
3.8507205e+2, 2.6538417e+2, -349032.7, -552637.1, -30897.92, -0.06980073, -0.11492572, -344447.06, -5221.217, 0.0, 10.000848, 9.998147 
3.8508466e+2, 2.753828e+2, -215976.73, -436131.44, -15724.869, -0.030591736, -0.07152882, -214859.23, 26381.715, 0.0, 10.001081, 9.998162 
3.8509694e+2, 2.8538102e+2, -95954.12, -340854.72, -12018.962, -0.026789976, -0.05516032, -95365.68, 47893.63, 0.0, 10.00129, 9.998043 
3.851088e+2, 2.9537904e+2, 27101.656, -240964.31, -10947.248, -0.054352578, -0.06394676, 27547.975, 72827.89, 0.0, 10.001505, 9.997952 
3.8512048e+2, 3.0537704e+2, 67242.65, -249732.19, -23260.03, -0.0928392, -0.024362307, 68940.41, 68940.41, 0.0, 10.001677, 9.997476 
3.8513345e+2, 3.1537405e+2, 211689.06, 21579.258, 23211.299, 0.024226267, -0.084036104, 214482.0, 214482.0, 0.000000000002787424, 10.001797, 9.999282 
3.948997e+2, 1.253801e+2, -1879823.1, -1822646.6, -121742.04, 0.08291943, -0.11103193, -1726181.3, -14916.576, 0.0000362571, 9.999001, 9.999733 
3.9491427e+2, 1.3538134e+2, -1756413.4, -1668698.3, 79437.914, 0.06090538, -0.0041037467, -1621815.1, -8558.2295, 0.000013744367, 9.998961, 10.000151 
3.949283e+2, 1.4538148e+2, -1644943.5, -1599819.6, -33834.84, 0.058526594, 0.011003888, -1581714.1, -66456.914, 0.0000023661473, 9.999219, 9.999817 
3.9493993e+2, 1.553807e+2, -1490733.5, -1478151.5, -57510.746, 0.013719492, -0.049885284, -1426588.8, -9324.509, 0.000000028035489, 9.999621, 9.999784 
3.9495197e+2, 1.6538009e+2, -1389392.3, -1399107.5, -58802.43, 0.019586442, -0.07639211, -1335247.1, -15977.073, 0.0, 9.999733, 9.999601 
3.9496407e+2, 1.7537974e+2, -1302885.1, -1304488.5, -54902.906, 0.02664581, -0.07549093, -1248778.1, -27503.957, 0.0, 9.999645, 9.99962 
3.9497632e+2, 1.8537952e+2, -1190797.9, -1209234.1, -39390.984, 0.026514549, -0.054656938, -1159560.8, -36284.125, 0.0, 9.999782, 9.9995365 
3.949888e+2, 1.9537936e+2, -1048046.9, -1089675.8, -36671.945, 0.036221668, -0.027817851, -1026694.1, -1415.9962, 0.0, 10.00009, 9.999536 
3.9500076e+2, 2.0537882e+2, -947544.94, -1021999.0, -47240.96, 0.015522898, -0.019911917, -924625.8, 2657.4226, 0.0, 10.000243, 9.999253 
3.950122e+2, 2.1537794e+2, -845100.0, -921557.0, -39508.41, -0.036640476, -0.035524115, -828352.75, 938.6512, 0.0, 10.000272, 9.999257 
3.9502418e+2, 2.2537689e+2, -731070.75, -836765.2, -22881.428, -0.05155439, -0.05500775, -726329.9, 4970.5786, 0.0, 10.000471, 9.999069 
3.9503664e+2, 2.3537567e+2, -582582.0, -715932.6, -18256.217, -0.032206636, -0.08753262, -580127.9, 53182.55, 0.0, 10.000825, 9.999056 
3.95049e+2, 2.4537435e+2, -515081.25, -701203.9, -29462.016, -0.015801959, -0.091747396, -510528.94, 24793.773, 0.0, 10.000912, 9.998443 
3.9506125e+2, 2.5537294e+2, -436156.56, -610348.6, -37552.188, -0.0028597729, -0.07978177, -428405.94, 8931.037, 0.0, 10.0007715, 9.998461 
3.9507326e+2, 2.6537144e+2, -322072.5, -494758.2, -22177.709, -0.030317916, -0.08046529, -319269.75, 20082.223, 0.0, 10.00084, 9.9985485 
3.9508516e+2, 2.7536982e+2, -189854.45, -381464.1, -6176.2827, -0.091200285, -0.10160298, -189655.58, 51712.07, 0.0, 10.00108, 9.998538 
3.950976e+2, 2.8536823e+2, -97602.59, -344257.88, -4714.54, -0.08364581, -0.08634759, -97512.51, 45871.832, 0.0, 10.00129, 9.99802 
3.9511067e+2, 2.953667e+2, 24062.25, -243582.98, -2198.2856, -0.020808, -0.045436505, 24080.305, 69482.05, 0.0, 10.00149, 9.997942 
3.9512244e+2, 3.0536455e+2, 75136.05, -229423.44, -18941.043, -0.0634488, -0.030451585, 76309.49, 76309.49, 0.0, 10.001661, 9.9976225 
3.9513507e+2, 3.153623e+2, 229289.83, 61184.97, 28356.625, 0.0029860595, -0.029909313, 233944.28, 233944.28, 0.000000001718879, 10.001787, 9.9995575 
4.048983e+2, 1.2536664e+2, -1953004.1, -1849091.0, -188456.14, 0.071293, -0.07827538, -1705560.5, 5837.3457, 0.000028702449, 9.998463, 9.999811 
4.0491325e+2, 1.3536756e+2, -1699312.6, -1628322.5, 55808.605, 0.044668216, -0.01586702, -1597677.6, 15714.939, 0.000010028613, 9.999297, 10.000267 
4.0492785e+2, 1.4536782e+2, -1576535.5, -1556591.4, -39544.223, 0.068689145, 0.0014453353, -1525781.3, -10390.032, 0.0000013962007, 9.999643, 9.999909 
4.0493962e+2, 1.5536723e+2, -1500496.8, -1472191.0, -47866.668, 0.027309338, -0.050207566, -1436428.8, -19032.48, 0.000000006286357, 9.999508, 9.99988 
4.0495172e+2, 1.6536683e+2, -1398916.8, -1402040.0, -39969.04, 0.026195992, -0.062276, -1360478.9, -41078.492, 0.0, 9.99966, 9.999617 
4.049638e+2, 1.7536668e+2, -1243878.4, -1274592.3, -40662.707, 0.016344618, -0.04259924, -1215769.3, 5633.5776, 0.0, 10.000043, 9.999634 
4.0497607e+2, 1.8536635e+2, -1146546.0, -1185593.9, -32405.107, 0.00911923, -0.03319967, -1128237.8, -4831.5054, 0.0, 10.000076, 9.999556 
4.049886e+2, 1.9536583e+2, -1083375.0, -1104110.9, -36377.68, 0.019994354, -0.04441212, -1055916.6, -30505.8, 0.0, 9.999836, 9.999558 
4.0500087e+2, 2.0536533e+2, -979941.75, -1024092.25, -43349.742, 0.015164885, -0.040096153, -953370.1, -25954.863, 0.0, 9.999962, 9.999374 
4.050128e+2, 2.1536484e+2, -817128.06, -894499.94, -41014.207, -0.010298794, -0.029969389, -799433.44, 29986.1, 0.0, 10.000406, 9.999377 
4.0502495e+2, 2.2536388e+2, -719929.1, -834529.25, -34703.543, -0.027830541, -0.043835334, -710239.4, 21188.564, 0.0, 10.000564, 9.99904 
4.0503725e+2, 2.3536251e+2, -635773.2, -743912.7, -41922.918, -0.03586878, -0.08753883, -621424.6, 12015.376, 0.0, 10.000471, 9.999034 
4.0504965e+2, 2.4536131e+2, -550195.44, -698057.5, -40503.01, -0.025002385, -0.089597024, -539827.7, -4376.301, 0.0, 10.000584, 9.998622 
4.050621e+2, 2.5536022e+2, -408222.28, -576735.75, -16531.682, 0.00097152905, -0.0648646, -406615.78, 30846.318, 0.0, 10.000876, 9.998641 
4.050742e+2, 2.6535878e+2, -295684.22, -475200.38, 2880.627, -0.027468713, -0.071557894, -295638.03, 43838.227, 0.0, 10.000992, 9.99861 
4.0508607e+2, 2.75357e+2, -201993.81, -380609.88, -7459.419, -0.10116628, -0.11269792, -201682.83, 39810.47, 0.0, 10.000968, 9.998598 
4.0509877e+2, 2.8535554e+2, -121272.29, -346128.1, -8298.316, -0.090525866, -0.090823665, -120966.45, 22542.201, 0.0, 10.001085, 9.998106 
4.0511212e+2, 2.953543e+2, 3362.2832, -242317.27, 1159.0505, -0.010698093, -0.0276938, 3367.7512, 48890.77, 0.0, 10.001299, 9.998043 
4.0512395e+2, 3.053519e+2, 60834.355, -218799.22, -9128.174, -0.06633364, -0.05533635, 61132.01, 61132.01, 0.0, 10.001487, 9.99778 
4.051367e+2, 3.153503e+2, 223834.14, 68959.52, 30218.533, -0.004133383, -0.007822419, 229521.4, 229521.4, 0.00000001196501, 10.001701, 9.999654 
4.148967e+2, 1.2535246e+2, -1917803.3, -1772864.8, -170305.77, 0.06551197, -0.023687305, -1660250.6, 51288.848, 0.000021697306, 9.99845, 10.0003395 
4.1491207e+2, 1.3535222e+2, -1659537.4, -1548491.1, 87744.41, -0.0018257601, -0.13171194, -1500178.4, 113362.8, 0.000006740833, 9.999307, 10.000812 
4.149273e+2, 1.4535283e+2, -1551678.4, -1506425.0, -44575.863, 0.04955698, -0.12215857, -1479061.9, 36473.098, 0.0000006540361, 9.999649, 10.000252 
4.1493928e+2, 1.5535359e+2, -1476296.3, -1421714.8, -51667.89, 0.04003963, -0.072701566, -1390573.0, 26954.697, 0.0000000002364484, 9.999507, 10.000228 
4.1495153e+2, 1.6535398e+2, -1401458.4, -1406127.8, -25862.54, 0.04287914, -0.021503406, -1377825.4, -58300.25, 0.0, 9.999655, 9.999591 
4.1496384e+2, 1.7535411e+2, -1246323.4, -1279137.4, -26314.219, 0.013564092, 0.027820665, -1231720.3, -10194.167, 0.0, 10.000041, 9.999603 
4.1497594e+2, 1.8535341e+2, -1150743.0, -1194492.9, -42331.98, -0.010965258, 0.0033699942, -1124968.0, -1434.6815, 0.0, 10.000077, 9.999495 
4.149881e+2, 1.9535194e+2, -1087717.4, -1112244.9, -43986.113, -0.014190694, -0.0949066, -1054317.4, -28771.018, 0.0, 9.999832, 9.999505 
4.1500065e+2, 2.0535131e+2, -975883.94, -1014317.0, -27027.846, -0.0010958501, -0.1057264, -961937.56, -34385.914, 0.0, 9.999956, 9.999444 
4.150135e+2, 2.1535134e+2, -813781.8, -885896.56, -24365.229, 0.018989414, -0.049957708, -806321.4, 23228.936, 0.0, 10.0004, 9.999439 
4.1502586e+2, 2.2535057e+2, -732580.75, -859773.06, -38623.316, 0.0072523397, -0.040702213, -721771.0, 9786.989, 0.0, 10.000559, 9.998869 
4.1503778e+2, 2.3534907e+2, -646082.5, -764565.06, -43966.215, -0.02930207, -0.07974078, -631550.1, 2023.4036, 0.0, 10.000467, 9.998894 
4.1505e+2, 2.4534804e+2, -507396.44, -607649.9, -29761.625, -0.050346535, -0.08967275, -499227.0, 36355.79, 0.0, 10.000577, 9.999246 
4.1506237e+2, 2.5534737e+2, -367758.72, -491493.44, -5538.044, -0.058592964, -0.08448811, -367511.34, 70075.375, 0.0, 10.00087, 9.999229 
4.1507483e+2, 2.653461e+2, -315748.72, -515531.03, 1144.0, -0.0637407, -0.08821768, -315742.16, 23856.756, 0.0, 10.000987, 9.998335 
4.1508737e+2, 2.753443e+2, -221122.73, -418343.13, -6913.3047, -0.06613785, -0.105078675, -220880.7, 20737.387, 0.0, 10.000959, 9.9983425 
4.151002e+2, 2.8534296e+2, -108064.0, -317108.16, -917.8979, -0.053096224, -0.069729194, -108059.97, 35572.49, 0.0, 10.00108, 9.998308 
4.1511324e+2, 2.9534188e+2, 18339.033, -210920.83, 8857.165, -0.027703619, -0.01029488, 18680.71, 64324.516, 0.0, 10.001298, 9.998259 
4.1512507e+2, 3.0533907e+2, 72235.14, -195339.95, -1980.222, -0.10528396, -0.09647789, 72249.8, 72249.8, 0.0, 10.001488, 9.99794 
4.151384e+2, 3.153379e+2, 217051.22, 58607.473, 33857.55, -0.009344971, -0.01959267, 223982.92, 223982.92, 0.000000036873733, 10.001686, 9.999589 
4.2489517e+2, 1.2533803e+2, -1846386.1, -1712490.8, -119291.76, 0.050364837, -0.05001144, -1642644.8, 69035.68, 0.000015823704, 9.998831, 10.000569 
4.249111e+2, 1.35338e+2, -1710108.1, -1546499.8, 124920.99, -0.005887221, -0.1627532, -1478981.5, 134697.17, 0.0000041887733, 9.998845, 10.001049 
4.2492688e+2, 1.453389e+2, -1630698.8, -1547142.8, -42736.402, 0.0698262, -0.13483395, -1529156.1, -13486.454, 0.00000021832761, 9.999119, 10.000228 
4.249387e+2, 1.5533966e+2, -1479523.6, -1424786.8, -80974.695, 0.03727828, -0.08288126, -1366680.4, 50983.086, 0.0, 9.999493, 10.000214 
4.249511e+2, 1.6534008e+2, -1392063.6, -1387257.4, -57573.86, 0.036004137, -0.034786742, -1332036.5, -12375.508, 0.0, 9.99966, 9.999717 
4.2496374e+2, 1.7534025e+2, -1288550.8, -1285781.9, -48413.82, 0.01894509, 0.0064859428, -1238732.8, -17071.428, 0.0, 9.999694, 9.999725 
4.24976e+2, 1.8533973e+2, -1172711.1, -1199905.1, -59205.63, -0.004226638, -0.0070100822, -1125561.3, -1894.4103, 0.0, 9.999905, 9.99954 
4.249881e+2, 1.953386e+2, -1021109.25, -1074709.0, -53612.45, -0.01789356, -0.07715219, -987971.44, 37705.64, 0.0, 10.000268, 9.999552 
4.250007e+2, 2.0533796e+2, -912170.44, -978318.06, -29090.955, -0.011358438, -0.09307256, -901197.0, 26485.49, 0.0, 10.000374, 9.99949 
4.2501366e+2, 2.153377e+2, -831668.3, -889484.4, -29677.68, 0.0065996777, -0.07190025, -819146.4, 10537.467, 0.0, 10.000256, 9.999484 
4.2502612e+2, 2.2533697e+2, -770896.9, -870479.3, -39383.98, -0.0035708565, -0.0615281, -757203.7, -25512.605, 0.0, 10.000262, 9.998939 
4.2503816e+2, 2.353359e+2, -653017.44, -759463.25, -28350.225, -0.035715047, -0.06677399, -645937.6, -12234.428, 0.0, 10.000384, 9.998968 
4.2505047e+2, 2.4533501e+2, -510819.53, -596624.8, -18400.494, -0.053743854, -0.07212023, -507040.1, 28671.02, 0.0, 10.000499, 9.999359 
4.2506307e+2, 2.5533426e+2, -398529.2, -494404.4, -33012.117, -0.06033921, -0.0887617, -388261.84, 49453.734, 0.0, 10.000608, 9.999335 
4.2507574e+2, 2.6533297e+2, -331121.34, -526042.44, -32625.348, -0.06624827, -0.09485454, -325805.6, 13921.951, 0.0, 10.000894, 9.998308 
4.2508847e+2, 2.753313e+2, -169394.39, -395523.72, -23653.578, -0.0704137, -0.09685291, -166946.67, 74798.99, 0.0, 10.001324, 9.998323 
4.2510143e+2, 2.8533e+2, -49262.13, -293481.22, -20672.344, -0.0567145, -0.054605316, -47524.645, 96235.05, 0.0, 10.001503, 9.998266 
4.2511463e+2, 2.953289e+2, 42844.836, -201542.9, -31447.934, -0.028645424, 0.0025292428, 46826.695, 92598.34, 0.0, 10.001476, 9.998239 
4.2512646e+2, 3.0532578e+2, 84982.96, -174408.52, -48098.78, -0.11421383, -0.11753171, 93614.66, 93614.66, 0.0, 10.001512, 9.998074 
4.2514005e+2, 3.1532493e+2, 184922.31, 15990.43, -22451.05, -0.005739563, -0.020309638, 187855.14, 187855.14, 0.00000007454206, 10.001583, 9.999346 
4.3489367e+2, 1.2532337e+2, -1852114.3, -1725401.6, -130767.73, 0.014498351, -0.16071737, -1643450.6, 68369.95, 0.0000113764345, 9.9988365, 10.000478 
4.349103e+2, 1.3532494e+2, -1714706.4, -1558036.1, 128759.11, 0.031073071, -0.10715159, -1485655.4, 128149.49, 0.0000025044064, 9.998851, 10.000968 
4.3492657e+2, 1.4532605e+2, -1659108.3, -1605028.9, -27676.152, 0.12636189, -0.033886008, -1593376.0, -77580.984, 0.000000047491298, 9.999115, 9.999832 
4.3493798e+2, 1.5532543e+2, -1506825.6, -1480555.6, -66950.73, 0.013114656, -0.08113419, -1425463.5, -7659.947, 0.0, 9.999489, 9.999832 
4.349504e+2, 1.6532509e+2, -1373936.1, -1348899.1, -57135.332, -0.0014832705, -0.10345134, -1302927.0, 16881.22, 0.0, 9.999657, 9.999982 
4.3496352e+2, 1.753251e+2, -1269863.1, -1246745.4, -45865.613, 0.029377107, -0.10645666, -1211004.6, 10803.964, 0.0, 9.999692, 9.999994 
4.349762e+2, 1.8532534e+2, -1162179.8, -1177538.5, -46217.516, 0.025277229, -0.06386068, -1123008.0, 798.64734, 0.0, 9.999903, 9.999695 
4.349886e+2, 1.9532579e+2, -1011356.75, -1053357.5, -40209.39, 0.005292462, 0.008439638, -986994.06, 38809.027, 0.0, 10.000263, 9.999701 
4.35001e+2, 2.0532526e+2, -911738.75, -975915.0, -33822.844, -0.0186303, -0.002520018, -897204.6, 30603.3, 0.0, 10.000367, 9.999509 
4.3501332e+2, 2.1532388e+2, -830566.6, -885733.8, -32923.367, -0.050989382, -0.09526814, -815199.06, 14621.157, 0.0, 10.000249, 9.999513 
4.3502578e+2, 2.2532314e+2, -750662.44, -827189.9, -35467.0, -0.0641106, -0.10545752, -736753.1, -4925.9497, 0.0, 10.000256, 9.999239 
4.350383e+2, 2.3532297e+2, -634000.1, -719150.8, -23395.809, -0.05786732, -0.049784347, -627995.4, 5834.0215, 0.0, 10.0003805, 9.999248 
4.350511e+2, 2.4532217e+2, -538366.4, -653100.25, -14827.125, -0.0385599, -0.037898853, -536481.25, -644.60895, 0.0, 10.000496, 9.998973 
4.3506417e+2, 2.553208e+2, -424422.78, -547624.2, -27739.795, -0.010418559, -0.077058494, -418465.03, 19383.693, 0.0, 10.000606, 9.998971 
4.350769e+2, 2.653194e+2, -316434.63, -494536.25, -17063.426, -0.03979439, -0.091463, -314814.56, 25047.527, 0.0, 10.000889, 9.998527 
4.3508932e+2, 2.7531797e+2, -156562.34, -366441.44, -7815.9136, -0.11661932, -0.088297874, -156271.67, 85604.42, 0.0, 10.001313, 9.998529 
4.351025e+2, 2.8531665e+2, -70675.65, -334761.06, -22337.088, -0.10437457, -0.045024842, -68799.64, 75090.74, 0.0, 10.001491, 9.997989 
4.3511617e+2, 2.9531524e+2, 23247.021, -239403.33, -30807.914, -0.019457454, 0.011551602, 26812.28, 72718.695, 0.0, 10.001464, 9.997984 
4.3512815e+2, 3.0531198e+2, 92079.18, -158239.11, -45960.79, -0.098711856, -0.11942223, 100251.23, 100251.23, 0.0, 10.001506, 9.998187 
4.3514165e+2, 3.1531125e+2, 156248.17, -42511.41, -23941.99, -0.003978184, -0.016136061, 159091.47, 159091.47, 0.0000001100893, 10.001579, 9.998945 
4.448929e+2, 1.2530944e+2, -1822078.0, -1735227.4, -153056.1, 0.040144037, -0.17281973, -1619555.5, 92400.01, 0.000008277144, 9.999152, 10.000257 
4.4490936e+2, 1.3531096e+2, -1635564.4, -1543526.9, 104972.77, 0.022507837, -0.10216279, -1474928.9, 139012.78, 0.0000015575915, 9.999496, 10.000757 
4.44926e+2, 1.4531212e+2, -1576555.0, -1566012.6, -39583.098, 0.12896933, -0.012655003, -1531351.3, -15419.485, 0.000000013935479, 9.999686, 9.999825 
4.4493744e+2, 1.553113e+2, -1482524.0, -1468903.5, -53060.402, 0.002096427, -0.08047104, -1422218.1, -4275.967, 0.0, 9.999658, 9.999831 
4.4494998e+2, 1.6531089e+2, -1361657.4, -1337024.4, -39177.67, -0.010773762, -0.11239949, -1308272.9, 11674.363, 0.0, 9.999716, 10.000035 
4.4496337e+2, 1.7531094e+2, -1241424.3, -1226423.3, -44402.74, 0.036063816, -0.11439901, -1188892.0, 33054.8, 0.0, 9.999861, 10.0000515 
4.4497624e+2, 1.8531129e+2, -1153663.3, -1166839.8, -51461.68, 0.037572075, -0.06835423, -1108369.8, 15574.429, 0.0, 9.999935, 9.999751 
4.4498876e+2, 1.9531184e+2, -1052320.1, -1066676.5, -54339.266, 0.013376576, 0.0077817347, -1004686.94, 21253.352, 0.0, 9.999955, 9.999757 
4.4500113e+2, 2.053115e+2, -967997.7, -994495.3, -57983.75, -0.020072538, 0.009526305, -921768.4, 6175.43, 0.0, 9.999945, 9.999585 
4.4501325e+2, 2.1531041e+2, -874870.25, -897886.56, -53483.94, -0.06685452, -0.06136527, -831670.4, -1716.6154, 0.0, 9.999907, 9.999594 
4.450258e+2, 2.253098e+2, -755538.44, -806509.75, -43621.938, -0.08295634, -0.07331604, -730502.9, 1456.191, 0.0, 10.000126, 9.999443 
4.4503865e+2, 2.3530959e+2, -593214.3, -678754.0, -40052.754, -0.07029922, -0.042055104, -577388.2, 56572.164, 0.0, 10.000571, 9.999433 
4.450518e+2, 2.4530867e+2, -503634.13, -669198.25, -35290.234, -0.04020218, -0.036679517, -496425.78, 39543.19, 0.0, 10.000875, 9.998679 
4.4506514e+2, 2.553071e+2, -378492.63, -555892.6, -42638.336, 0.0032962717, -0.06530341, -368776.56, 69207.72, 0.0, 10.001053, 9.998698 
4.45078e+2, 2.6530564e+2, -286699.7, -465290.22, -32019.135, -0.027047208, -0.080213994, -281132.6, 58865.848, 0.0, 10.001029, 9.99866 
4.4509035e+2, 2.7530426e+2, -217021.73, -381955.0, -30570.023, -0.11891406, -0.086538516, -211537.97, 30473.166, 0.0, 10.000837, 9.9986515 
4.4510362e+2, 2.853029e+2, -160558.02, -385338.84, -37950.41, -0.10766665, -0.047131848, -154323.64, -10298.214, 0.0, 10.000903, 9.997925 
4.451176e+2, 2.953014e+2, -20586.102, -263601.75, -31986.9, -0.009983852, 0.009145719, -16446.35, 29596.314, 0.0, 10.001177, 9.997955 
4.4512957e+2, 3.052985e+2, 115934.22, -118484.086, -26367.084, -0.10536509, -0.10228904, 118863.36, 118863.36, 0.00000000000009396187, 10.001547, 9.998441 
4.4514313e+2, 3.1529793e+2, 202050.64, -42341.555, -6330.533, -0.033794437, -0.004802312, 202214.52, 202214.52, 0.00000013361628, 10.001987, 9.998752 
4.548929e+2, 1.2529624e+2, -1844829.5, -1785115.4, -151207.48, 0.12126867, -0.08615766, -1660845.4, 51239.938, 0.0000061456926, 9.999165, 9.9999075 
4.5490828e+2, 1.3529603e+2, -1659759.3, -1595052.0, 119432.74, -0.036260843, -0.15034014, -1503668.3, 110421.19, 0.0000010596042, 9.999499, 10.000403 
4.549251e+2, 1.452971e+2, -1550177.5, -1510342.4, -39223.65, 0.06971871, -0.07422982, -1486269.0, 29811.324, 0.000000007555667, 9.999682, 10.000209 
4.5493704e+2, 1.5529726e+2, -1455709.8, -1414161.4, -52351.027, -0.00143246, -0.079655014, -1378613.3, 39465.8, 0.0, 9.999662, 10.000204 
4.5494986e+2, 1.652975e+2, -1371258.0, -1358264.5, -34632.73, 0.0035826485, -0.059140842, -1329524.4, -9446.533, 0.0, 9.999722, 9.9998865 
4.5496327e+2, 1.7529786e+2, -1252702.8, -1248812.5, -38435.15, 0.036556724, -0.01653329, -1212273.3, 9802.728, 0.0, 9.999857, 9.9999 
4.5497608e+2, 1.852976e+2, -1158066.4, -1174180.4, -50819.457, 0.029085359, -0.020684006, -1114669.3, 9410.467, 0.0, 9.9999275, 9.999704 
4.5498863e+2, 1.9529675e+2, -1055770.8, -1072790.4, -52969.977, 0.0018227594, -0.0784368, -1010631.44, 15457.304, 0.0, 9.999951, 9.999717 
4.5500106e+2, 2.0529668e+2, -959416.6, -975558.9, -60186.234, -0.020488039, -0.05636164, -906762.75, 21327.357, 0.0, 9.999939, 9.999718 
4.550134e+2, 2.1529728e+2, -865749.8, -878434.1, -53654.12, -0.043975044, 0.029042194, -818064.3, 12020.296, 0.0, 9.999904, 9.999728 
4.550261e+2, 2.2529694e+2, -749154.0, -792021.6, -27176.969, -0.062866345, 0.034199588, -735975.75, -3888.9253, 0.0, 10.00012, 9.999545 
4.5503914e+2, 2.3529577e+2, -587270.94, -665523.25, -23071.709, -0.07603418, -0.042156644, -580975.06, 53120.95, 0.0, 10.000567, 9.999526 
4.5505247e+2, 2.452945e+2, -518815.84, -699195.9, -29378.064, -0.061497908, -0.067086525, -514151.72, 21956.328, 0.0, 10.000869, 9.998477 
4.5506594e+2, 2.5529313e+2, -393789.47, -584308.44, -36002.49, -0.02198166, -0.054973748, -387213.06, 50909.46, 0.0, 10.001039, 9.99851 
4.55079e+2, 2.6529166e+2, -284888.44, -459333.72, -39498.0, -0.030835204, -0.061927397, -276362.03, 63774.773, 0.0, 10.0010195, 9.998706 
4.5509157e+2, 2.752901e+2, -214093.67, -375967.0, -35962.656, -0.08355146, -0.09055326, -206463.66, 35687.117, 0.0, 10.000837, 9.998693 
4.5510486e+2, 2.8528875e+2, -150932.75, -364444.75, -28348.32, -0.072379746, -0.060519118, -147233.02, -3068.1428, 0.0, 10.0009, 9.99807 
4.551188e+2, 2.9528743e+2, -9439.22, -237730.73, -20942.463, -0.005033197, -0.0035422118, -7533.9507, 38646.563, 0.0, 10.001165, 9.998138 
4.551308e+2, 3.052853e+2, 140367.25, -64033.86, -9859.189, -0.13736771, -0.06750643, 140841.7, 140841.7, 0.00000000000087855477, 10.001533, 9.998821 
4.551444e+2, 3.152849e+2, 199633.73, -42416.02, 1522.9271, -0.10387669, 0.012483312, 199643.31, 199643.31, 0.00000014519496, 10.001967, 9.998759 
4.6489248e+2, 1.2528229e+2, -1807897.3, -1778250.5, -156734.94, 0.14850138, -0.06889552, -1635639.5, 76582.836, 0.000004581255, 9.999471, 9.9998045 
4.649075e+2, 1.3528165e+2, -1670013.0, -1613883.0, 139328.64, -0.05995831, -0.16361713, -1499820.9, 114410.27, 0.0000007444035, 9.999488, 10.00028 
4.6492466e+2, 1.4528279e+2, -1548503.4, -1487826.4, -20279.61, 0.06287355, -0.08212739, -1481672.5, 34548.434, 0.0000000034677494, 9.9996, 10.000402 
4.6493667e+2, 1.5528326e+2, -1431029.6, -1380391.8, -50480.51, -0.007213586, -0.078455195, -1349236.5, 68979.44, 0.0, 9.999738, 10.000399 
4.6494952e+2, 1.6528364e+2, -1365475.3, -1361881.8, -34351.297, -0.003995384, -0.051008835, -1329280.3, -9066.886, 0.0, 9.99979, 9.999828 
4.6496296e+2, 1.7528398e+2, -1267701.4, -1262355.3, -32253.041, 0.028113928, -0.0034764635, -1232664.6, -10452.571, 0.0, 9.999781, 9.999844 
4.6497586e+2, 1.8528365e+2, -1174069.5, -1179687.9, -37830.992, 0.021616897, -0.012645071, -1138943.6, -14726.983, 0.0, 9.999808, 9.999724 
4.6498844e+2, 1.9528271e+2, -1064401.9, -1074552.9, -35156.895, -0.0050356626, -0.08256717, -1033955.94, -7729.4727, 0.0, 9.999882, 9.999738 
4.6500108e+2, 2.0528261e+2, -931267.75, -953145.75, -37635.066, -0.021192474, -0.06748394, -903014.1, 25213.598, 0.0, 10.000095, 9.999796 
4.6501365e+2, 2.1528327e+2, -784898.8, -831577.3, -37278.742, -0.034980126, 0.015672322, -764256.0, 65965.336, 0.0, 10.000426, 9.999798 
4.6502656e+2, 2.2528292e+2, -696380.4, -785225.2, -20328.303, -0.050828975, 0.024215104, -691950.06, 40273.848, 0.0, 10.000561, 9.99938 
4.6503976e+2, 2.3528168e+2, -605665.7, -691303.94, -36944.84, -0.06688358, -0.042606667, -591930.44, 42304.152, 0.0, 10.000514, 9.999373 
4.650531e+2, 2.4528044e+2, -562300.94, -704137.25, -41675.504, -0.0643511, -0.06357688, -550962.0, -14715.567, 0.0, 10.000503, 9.998619 
4.6506646e+2, 2.552792e+2, -458823.78, -601164.8, -24464.959, -0.045364164, -0.05299911, -454736.22, -16476.791, 0.0, 10.000528, 9.998641 
4.6507967e+2, 2.6527783e+2, -336089.16, -490169.66, -20720.643, -0.047317274, -0.052821685, -333351.3, 6921.4736, 0.0, 10.000695, 9.99865 
4.650926e+2, 2.7527636e+2, -196830.06, -372188.2, -26197.307, -0.067835055, -0.06756173, -193000.02, 49286.355, 0.0, 10.000978, 9.99865 
4.6510598e+2, 2.8527498e+2, -109049.42, -326867.4, -16887.672, -0.05871414, -0.04799172, -107747.875, 36552.82, 0.0, 10.001113, 9.998225 
4.6511975e+2, 2.9527354e+2, -5948.162, -217275.92, -10137.393, -0.023387594, -0.01921923, -5462.9854, 40853.836, 0.0, 10.001107, 9.998308 
4.6513203e+2, 3.05272e+2, 106294.03, -59632.906, 1174.7483, -0.15138818, -0.038442366, 106302.34, 106302.34, 0.00000000000042122027, 10.001205, 9.99901 
4.651463e+2, 3.152714e+2, 106887.53, -91270.15, -13717.387, -0.08092778, 0.00082736125, 107832.6, 107832.6, 0.00000014428599, 10.001346, 9.998724 
4.7489157e+2, 1.2526757e+2, -1798139.8, -1757914.1, -164719.84, 0.10608459, -0.12320609, -1612083.8, 100283.17, 0.0000033199578, 9.999468, 9.999946 
4.7490704e+2, 1.3526784e+2, -1660750.0, -1598129.3, 142929.67, -0.055975243, -0.13802361, -1483120.8, 131245.9, 0.00000048107097, 9.9995, 10.000384 
4.7492465e+2, 1.4526929e+2, -1545463.8, -1485300.0, -14911.546, 0.10233907, -0.031300638, -1481807.0, 34546.355, 0.000000000765976, 9.999616, 10.000414 
4.749363e+2, 1.5526927e+2, -1430796.4, -1378663.9, -44861.492, -0.01731495, -0.07755072, -1352845.6, 65507.438, 0.0, 9.999733, 10.000414 
4.74949e+2, 1.6526927e+2, -1364284.9, -1358173.1, -34701.12, -0.03707397, -0.08927357, -1326393.6, -6039.7446, 0.0, 9.9997835, 9.999857 
4.749625e+2, 1.752693e+2, -1265166.6, -1257204.6, -31381.057, 0.0030728565, -0.07506804, -1229553.0, -7197.824, 0.0, 9.999782, 9.999878 
4.7497553e+2, 1.8526947e+2, -1166940.0, -1165539.0, -35811.277, 0.007477144, -0.042772464, -1130421.4, -6066.392, 0.0, 9.99981, 9.999821 
4.7498828e+2, 1.952697e+2, -1057661.5, -1060880.9, -31297.168, -0.008779572, -0.005524253, -1027932.6, -1579.0059, 0.0, 9.999883, 9.999831 
4.750011e+2, 2.0526932e+2, -932152.06, -952877.1, -25516.047, -0.024620187, -0.023779994, -914974.56, 13382.177, 0.0, 10.000086, 9.999802 
4.7501397e+2, 2.1526839e+2, -785796.7, -832534.2, -24685.947, -0.04398687, -0.10039906, -775172.9, 55191.0, 0.0, 10.000422, 9.999794 
4.750271e+2, 2.2526771e+2, -727061.5, -847156.1, -22959.514, -0.051792756, -0.102459595, -722821.8, 9548.508, 0.0, 10.000553, 9.998959 
4.750405e+2, 2.3526728e+2, -633861.5, -748412.06, -37874.656, -0.04624124, -0.045133017, -622471.3, 11904.82, 0.0, 10.000507, 9.998985 
4.750537e+2, 2.4526648e+2, -530560.75, -637044.8, -41203.414, -0.05243872, -0.02755596, -516479.44, 19904.895, 0.0, 10.000496, 9.999083 
4.7506675e+2, 2.552653e+2, -427521.22, -536714.9, -22790.928, -0.070956506, -0.05741806, -422955.22, 15439.836, 0.0, 10.00053, 9.9990835 
4.7508e+2, 2.6526412e+2, -347079.94, -512765.9, -10676.2705, -0.079490535, -0.05158694, -346394.84, -5988.331, 0.0, 10.000693, 9.998496 
4.750935e+2, 2.75263e+2, -208176.03, -392709.72, -15429.917, -0.07568885, -0.019182112, -206894.75, 35523.58, 0.0, 10.000965, 9.998515 
4.7510698e+2, 2.852615e+2, -99487.18, -303769.0, -17745.725, -0.070047066, -0.010817295, -97957.09, 46476.258, 0.0, 10.001099, 9.998391 
4.751204e+2, 2.9525968e+2, 4557.761, -193840.69, -8668.18, -0.069064446, -0.03860982, 4935.7603, 51387.69, 0.0, 10.0011, 9.998473 
4.751332e+2, 3.0525863e+2, 105263.19, -59311.82, 5607.207, -0.15304708, -0.016652023, 105454.01, 105454.01, 0.0, 10.001196, 9.999017 
4.7514865e+2, 3.1525746e+2, 100496.52, -101306.92, -15472.145, 0.019694952, -0.034492914, 101675.875, 101675.875, 0.00000012581201, 10.001333, 9.99866 
4.8489085e+2, 1.2525356e+2, -1717770.1, -1707534.6, -149565.84, 0.06418981, -0.13574007, -1562999.0, 149505.63, 0.0000022837717, 9.999974, 10.000045 
4.849065e+2, 1.3525407e+2, -1621542.6, -1574218.5, 157408.92, -0.070159756, -0.13263842, -1438703.1, 175798.3, 0.0000002759338, 9.999746, 10.00043 
4.8492458e+2, 1.4525561e+2, -1541243.9, -1498663.3, 301.98486, 0.1312108, -0.011746045, -1498661.0, 17826.229, 0.000000000009128432, 9.999713, 10.000275 
4.849361e+2, 1.5525536e+2, -1436627.9, -1396722.6, -44430.113, -0.012876691, -0.068150505, -1367970.6, 50519.543, 0.0, 9.999758, 10.000278 
4.8494872e+2, 1.6525517e+2, -1350907.9, -1341930.3, -36070.574, -0.04390417, -0.095427915, -1310070.3, 10422.441, 0.0, 9.999834, 9.999944 
4.8496234e+2, 1.752551e+2, -1228502.9, -1229814.8, -29616.828, 0.00090245827, -0.09963634, -1199534.6, 22959.572, 0.0, 9.999991, 9.999965 
4.8497546e+2, 1.8525544e+2, -1117267.0, -1131346.9, -31644.924, 0.007636146, -0.060873076, -1091888.4, 32603.58, 0.0, 10.000106, 9.999913 
4.8498824e+2, 1.9525605e+2, -1011036.6, -1028901.7, -28774.31, -0.012546674, 0.0069603594, -989840.25, 36646.21, 0.0, 10.000161, 9.999917 
4.850012e+2, 2.052556e+2, -937031.6, -981707.3, -28258.387, -0.025917904, -0.010981223, -923348.44, 5142.057, 0.0, 10.000165, 9.999568 
4.8501432e+2, 2.1525417e+2, -845617.06, -886546.5, -46119.453, -0.03602936, -0.11413958, -815625.75, 14877.203, 0.0, 10.000119, 9.99957 
4.8502755e+2, 2.2525337e+2, -781699.44, -864888.0, -36935.67, -0.039233822, -0.12106942, -767667.06, -35156.266, 0.0, 10.000142, 9.999034 
4.8504096e+2, 2.3525316e+2, -669559.1, -757728.25, -17031.783, -0.035693515, -0.049663436, -666383.44, -31869.133, 0.0, 10.000229, 9.999055 
4.8505428e+2, 2.4525246e+2, -536104.6, -642133.6, -14391.733, -0.0421488, -0.02507007, -534185.9, 2335.769, 0.0, 10.000468, 9.999062 
4.8506755e+2, 2.5525126e+2, -384224.34, -517667.06, -33259.0, -0.059145518, -0.05427788, -376394.38, 62138.336, 0.0, 10.000836, 9.999065 
4.8508084e+2, 2.652501e+2, -313683.84, -497068.56, -36716.063, -0.07514773, -0.047335092, -306605.97, 33938.313, 0.0, 10.000926, 9.998491 
4.8509425e+2, 2.7524894e+2, -238460.23, -408472.25, -31634.56, -0.08739565, -0.014917667, -232764.72, 9791.591, 0.0, 10.000762, 9.998507 
4.8510778e+2, 2.8524736e+2, -154588.69, -323937.75, -33627.676, -0.07776046, -0.018328143, -148155.61, -3583.555, 0.0, 10.000692, 9.998448 
4.8512146e+2, 2.9524538e+2, -48806.652, -213240.97, -34272.797, -0.053741626, -0.06312089, -41949.203, 4642.112, 0.0, 10.000707, 9.9985285 
4.8513448e+2, 3.0524483e+2, 67778.47, -97526.555, -17119.506, -0.13393342, 0.013042063, 69532.8, 69532.8, 0.0, 10.001025, 9.9988365 
4.8514995e+2, 3.1524304e+2, 130272.914, -91234.25, -62395.215, 0.0062140296, -0.047487386, 146639.42, 146639.42, 0.00000009052117, 10.001555, 9.998623 
4.948903e+2, 1.252403e+2, -1712633.0, -1699788.8, -162804.08, 0.007056471, -0.104971305, -1543280.3, 169355.17, 0.0000015131136, 9.999987, 10.0000925 
4.9490592e+2, 1.3524032e+2, -1623179.4, -1577263.8, 150639.67, -0.10435421, -0.14902543, -1447842.5, 166793.25, 0.00000014199817, 9.999743, 10.000412 
4.9492446e+2, 1.4524175e+2, -1562679.8, -1542520.9, 3393.1577, 0.14583868, -0.023721194, -1541965.0, -25341.932, 0.0, 9.999708, 9.999976 
4.9493593e+2, 1.5524153e+2, -1456172.9, -1438076.4, -41632.555, -0.0027934765, -0.04652307, -1404520.3, 14107.018, 0.0, 9.999762, 9.999992 
4.9494866e+2, 1.6524139e+2, -1339171.3, -1320198.1, -31608.885, -0.03356953, -0.06377897, -1296683.0, 23946.578, 0.0, 9.999845, 10.000089 
4.949625e+2, 1.7524138e+2, -1218277.4, -1209150.5, -22957.586, 0.020613944, -0.077370875, -1190307.3, 32322.078, 0.0, 9.999993, 10.000106 
4.9497572e+2, 1.8524152e+2, -1112142.8, -1119552.0, -29701.973, 0.02006765, -0.06671107, -1085915.3, 38712.42, 0.0, 10.0001, 9.999997 
4.9498835e+2, 1.9524178e+2, -1005771.06, -1018312.44, -26242.229, -0.021205774, -0.045455422, -985060.7, 41564.387, 0.0, 10.000162, 9.99999 
4.9500132e+2, 2.0524144e+2, -970324.1, -1049762.4, -30707.5, -0.03101057, -0.029900452, -959838.06, -31209.06, 0.0, 10.00016, 9.999103 
4.9501464e+2, 2.152406e+2, -876626.06, -950503.6, -46638.336, -0.013742707, -0.028162254, -854070.25, -23431.521, 0.0, 10.000116, 9.999133 
4.9502793e+2, 2.252399e+2, -744418.9, -786115.75, -34216.3, -0.017050229, -0.03352063, -725199.7, 7445.642, 0.0, 10.000136, 9.9995775 
4.9504116e+2, 2.352393e+2, -633099.8, -682598.8, -13088.0625, -0.038108975, -0.054837584, -629852.25, 4796.9995, 0.0, 10.000231, 9.999571 
4.950548e+2, 2.4523835e+2, -571363.1, -714459.75, -1087.5691, -0.037071776, -0.055019826, -571354.8, -34696.406, 0.0, 10.000464, 9.998567 
4.9506882e+2, 2.5523704e+2, -418628.63, -587049.0, -19046.602, -0.014908276, -0.0446788, -416501.5, 22170.973, 0.0, 10.000828, 9.998593 
4.950821e+2, 2.652357e+2, -305564.84, -478384.97, -43246.543, -0.039578345, -0.04062064, -295346.97, 45339.31, 0.0, 10.000918, 9.998624 
4.9509478e+2, 2.7523422e+2, -230148.7, -390784.72, -36555.86, -0.106995486, -0.053567123, -222220.95, 20479.307, 0.0, 10.000759, 9.99863 
4.951084e+2, 2.8523254e+2, -159459.25, -332824.72, -33172.33, -0.08563964, -0.0689139, -153328.72, -8612.063, 0.0, 10.000688, 9.998389 
4.9512282e+2, 2.9523078e+2, -53493.555, -221279.89, -31132.523, 0.014971196, -0.09041, -47903.215, -1168.47, 0.0, 10.0007, 9.998476 
4.9513587e+2, 3.0523065e+2, 40770.23, -150668.11, 3748.2544, -0.0985113, 0.051924575, 40843.59, 40843.59, 0.0, 10.001014, 9.998476 
4.951502e+2, 3.152282e+2, 126613.83, -93647.8, -47691.51, -0.12411898, -0.04135336, 136496.67, 136496.67, 0.000000050936965, 10.001535, 9.998615 
5.0489026e+2, 1.2522684e+2, -1736291.3, -1704852.6, -181661.78, 0.017212814, -0.07677112, -1538231.4, 174538.03, 0.0000009949754, 9.999802, 10.000146 
5.0490534e+2, 1.3522674e+2, -1607027.1, -1570468.5, 133920.81, -0.13966532, -0.1312669, -1453585.3, 161184.8, 0.000000065122016, 9.999856, 10.000405 
5.049242e+2, 1.4522807e+2, -1539362.8, -1538943.4, 3392.818, 0.13688034, -0.012244718, -1535753.9, -18995.74, 0.0, 9.999902, 9.9999075 
5.0493574e+2, 1.5522769e+2, -1434534.6, -1435036.8, -28066.348, -0.0056981337, -0.045150258, -1406718.3, 12045.571, 0.0, 9.999941, 9.9999275 
5.0494856e+2, 1.6522759e+2, -1315280.5, -1304323.8, -11009.356, -0.03484519, -0.057936214, -1297505.0, 23260.434, 0.0, 9.999989, 10.000129 
5.049625e+2, 1.7522779e+2, -1213231.0, -1202971.1, -11206.315, 0.020531693, -0.05230179, -1195776.4, 26986.027, 0.0, 10.0000105, 10.000141 
5.049758e+2, 1.852278e+2, -1124011.8, -1146232.0, -28984.43, 0.021260157, -0.04783091, -1104081.1, 20681.096, 0.0, 10.000109, 9.999811 
5.0498855e+2, 1.9522756e+2, -997141.0, -1034183.9, -47204.594, -0.021363223, -0.05511409, -964954.25, 61810.504, 0.0, 10.000307, 9.999811 
5.050016e+2, 2.052272e+2, -927911.44, -1020267.7, -44610.06, -0.027817028, -0.039811414, -909883.06, 18886.115, 0.0, 10.000411, 9.999185 
5.0501496e+2, 2.152267e+2, -827703.56, -918038.56, -21347.92, -0.0044976734, -0.012281295, -822912.7, 7862.439, 0.0, 10.000413, 9.999212 
5.0502837e+2, 2.2522604e+2, -689452.2, -764694.3, -4193.63, -0.006171937, -0.014959855, -689219.1, 43561.95, 0.0, 10.000534, 9.999535 
5.050417e+2, 2.352252e+2, -558945.3, -651360.3, -28119.979, -0.029286148, -0.054652285, -551061.5, 83725.61, 0.0, 10.00076, 9.99953 
5.050555e+2, 2.4522416e+2, -528802.6, -689637.6, -18941.438, -0.028066639, -0.063749515, -526602.0, 10195.036, 0.0, 10.000739, 9.998605 
5.0506955e+2, 2.552229e+2, -464091.84, -604908.6, 1368.6327, -0.0049648876, -0.05389341, -464078.56, -25268.012, 0.0, 10.000498, 9.99863 
5.0508296e+2, 2.6522163e+2, -365961.8, -501618.3, -8405.157, -0.0273204, -0.047689103, -365443.0, -24619.412, 0.0, 10.000479, 9.998674 
5.0509566e+2, 2.7522022e+2, -241770.73, -391021.4, -10028.894, -0.09130894, -0.05770491, -241099.86, 1737.0479, 0.0, 10.000658, 9.998674 
5.051093e+2, 2.8521848e+2, -142497.0, -330720.16, -5765.6724, -0.06998831, -0.07931338, -142320.55, 2533.392, 0.0, 10.000831, 9.998335 
5.051238e+2, 2.9521656e+2, -17665.594, -210522.73, -4371.6885, 0.028612284, -0.11082368, -17566.547, 29306.8, 0.0, 10.000975, 9.998418 
5.0513697e+2, 3.0521652e+2, 34350.387, -161370.8, 47422.367, -0.08609119, 0.046354007, 45235.258, 45235.258, 0.0, 10.001002, 9.998409 
5.051512e+2, 3.1521365e+2, 58295.953, -85917.85, 6191.5576, -0.14644247, -0.07832309, 58561.29, 58561.29, 0.000000020855737, 10.000891, 9.99898 
5.148908e+2, 1.2521315e+2, -1733675.5, -1697285.0, -183877.25, 0.086933516, -0.051852576, -1530705.0, 182202.13, 0.00000067894854, 9.999791, 10.000203 
5.1490474e+2, 1.352134e+2, -1604704.0, -1567844.5, 137350.63, -0.18508999, -0.07343719, -1447692.6, 167211.45, 0.000000029496794, 9.999864, 10.000421 
5.149236e+2, 1.4521465e+2, -1527383.3, -1517006.1, 3715.0955, 0.09123917, 0.02956662, -1515813.3, 1078.6719, 0.0, 9.999912, 10.000053 
5.1493555e+2, 1.5521379e+2, -1423973.4, -1413670.3, -25943.605, -0.024635717, -0.06532324, -1392371.8, 26528.588, 0.0, 9.999942, 10.000073 
5.149484e+2, 1.6521372e+2, -1319275.3, -1311999.3, -10722.909, -0.050476093, -0.07874941, -1304314.0, 16586.72, 0.0, 9.999986, 10.000078 
5.1496226e+2, 1.7521438e+2, -1216962.3, -1211431.1, -9676.231, -0.005508661, -0.023903161, -1204133.0, 18760.578, 0.0, 10.000013, 10.000082 
5.149758e+2, 1.852143e+2, -1155981.1, -1213512.9, -22486.865, 0.0031779343, -0.002278013, -1148234.9, -23339.559, 0.0, 10.000113, 9.999348 
5.149889e+2, 1.9521347e+2, -1027974.5, -1098289.3, -39164.336, -0.01540107, -0.022334628, -1010502.2, 16403.295, 0.0, 10.000306, 9.9993725 
5.1500213e+2, 2.0521288e+2, -885786.56, -930666.2, -45148.492, -0.01929997, -0.04067505, -857808.8, 71102.27, 0.0, 10.0004015, 9.9998045 
5.150153e+2, 2.1521246e+2, -786272.06, -832064.1, -20516.254, -0.01173948, -0.06633896, -778424.9, 52487.504, 0.0, 10.000412, 9.999804 
5.1502883e+2, 2.252118e+2, -733777.1, -855655.0, 3756.037, -0.010556739, -0.06566884, -733661.5, -743.2959, 0.0, 10.000529, 9.998912 
5.1504266e+2, 2.352109e+2, -601129.44, -738207.7, -18963.895, -0.012671036, -0.050526872, -598554.3, 36373.816, 0.0, 10.000756, 9.998936 
5.1505625e+2, 2.452099e+2, -490812.38, -609679.1, -28762.477, -0.019929474, -0.053246684, -484218.44, 52719.27, 0.0, 10.000734, 9.999156 
5.150698e+2, 2.5520882e+2, -426798.78, -527057.44, -6877.9907, -0.0319164, -0.081670314, -426329.16, 12617.897, 0.0, 10.000496, 9.9991665 
5.150833e+2, 2.6520783e+2, -369234.2, -507550.75, -1952.2771, -0.040528804, -0.06826286, -369206.63, -28250.104, 0.0, 10.000475, 9.998636 
5.150967e+2, 2.7520692e+2, -244425.14, -396219.44, -2304.3403, -0.045715738, -0.028401677, -244390.17, -1423.4974, 0.0, 10.000656, 9.99864 
5.151105e+2, 2.852051e+2, -147439.16, -339318.72, -802.80927, -0.036780052, -0.05140844, -147435.8, -2451.358, 0.0, 10.000824, 9.998279 
5.151243e+2, 2.9520267e+2, -23559.764, -220068.55, 2329.3127, -0.015654936, -0.12702459, -23532.158, 23475.635, 0.0, 10.000963, 9.998358 
5.151378e+2, 3.052024e+2, 46725.996, -132242.11, 42562.02, -0.10051385, -0.0035667685, 56332.414, 56332.414, 0.0, 10.000988, 9.998616 
5.151528e+2, 3.151994e+2, 106722.29, 17440.227, -1702.8838, -0.07365936, -0.16054387, 106754.76, 106754.76, 0.0000000053166334, 10.000879, 9.999696 
5.2489054e+2, 1.2520014e+2, -1695161.4, -1699923.0, -124062.12, 0.06968014, -0.03291369, -1573457.3, 139577.52, 0.0000005002885, 10.00015, 10.00001 
5.2490467e+2, 1.3520004e+2, -1594147.6, -1590210.8, 172617.44, -0.18575898, -0.06612919, -1419550.5, 195485.45, 0.000000016983103, 10.000053, 10.000175 
5.2492386e+2, 1.4520107e+2, -1495899.4, -1499589.6, 30891.152, 0.1205772, 0.026840398, -1466798.3, 50227.234, 0.0, 10.000119, 10.000073 
5.2493554e+2, 1.552002e+2, -1378044.0, -1389592.1, -10339.077, -0.032671124, -0.072659664, -1371976.0, 47056.99, 0.0, 10.00025, 10.000091 
5.249483e+2, 1.652e+2, -1280216.8, -1310742.4, -3550.083, -0.072029546, -0.09136277, -1279809.3, 41225.008, 0.0, 10.000328, 9.999923 
5.249624e+2, 1.7520043e+2, -1170817.9, -1206690.0, -12605.755, -0.011633182, -0.04235518, -1166831.3, 56198.594, 0.0, 10.000403, 9.9999275 
5.249761e+2, 1.852003e+2, -1109494.0, -1193381.5, -9408.276, 0.0075325486, -0.016673522, -1108451.8, 16580.43, 0.0, 10.000441, 9.999329 
5.249893e+2, 1.9519961e+2, -1013222.06, -1093188.3, 6035.0684, -0.010118427, -0.021893786, -1012769.2, 14271.57, 0.0, 10.000417, 9.999354 
5.250026e+2, 2.0519894e+2, -873602.8, -935207.56, -8482.752, -0.013200159, -0.04153892, -872456.1, 56590.793, 0.0, 10.00053, 9.999711 
5.25016e+2, 2.151983e+2, -739729.6, -819843.5, -39274.625, -0.003537313, -0.082568765, -723687.94, 107362.77, 0.0, 10.000777, 9.99971 
5.250296e+2, 2.2519755e+2, -700040.1, -850785.06, -22868.648, -0.001217993, -0.07821815, -696647.25, 36410.195, 0.0, 10.00081, 9.998811 
5.2504337e+2, 2.3519677e+2, -623812.4, -759635.6, -8123.856, -0.004847611, -0.043427445, -623328.25, 11738.737, 0.0, 10.000646, 9.998842 
5.25057e+2, 2.4519578e+2, -504214.3, -600478.8, -19133.951, -0.012656919, -0.048365224, -500550.6, 36525.73, 0.0, 10.000575, 9.999296 
5.2507037e+2, 2.551946e+2, -403978.03, -500544.6, -29253.945, -0.023932993, -0.097986065, -395807.2, 43278.31, 0.0, 10.000587, 9.999304 
5.250839e+2, 2.6519376e+2, -334140.5, -491201.44, -24711.688, -0.034950633, -0.07733624, -330344.16, 10749.439, 0.0, 10.000718, 9.9986315 
5.2509755e+2, 2.7519315e+2, -201592.17, -375173.4, -23513.252, -0.04553515, -0.006138211, -198463.47, 44637.96, 0.0, 10.000951, 9.998643 
5.2511126e+2, 2.851914e+2, -125793.47, -319371.47, -23690.434, -0.046055228, -0.031826302, -122936.36, 22182.518, 0.0, 10.000932, 9.9983635 
5.2512497e+2, 2.9518872e+2, -60417.05, -230843.66, -12587.312, -0.03776968, -0.13767275, -59492.395, -12348.942, 0.0, 10.00068, 9.99842 
5.251388e+2, 3.0518815e+2, -5329.83, -177219.16, 24602.873, -0.08886616, -0.038539007, -1877.701, -1877.701, 0.0, 10.000715, 9.998438 
5.251541e+2, 3.1518543e+2, 139098.84, 62417.01, -53166.957, -0.032971907, -0.15083878, 166307.53, 166307.53, 0.00000000056215, 10.000975, 9.999959 
5.3488946e+2, 1.251879e+2, -1727849.1, -1771799.8, -127412.81, -0.059886146, -0.018152906, -1620530.5, 92621.02, 0.00000041209, 10.000167, 9.999509 
5.3490514e+2, 1.3518663e+2, -1630894.6, -1669214.5, 169875.03, -0.14316949, -0.112108134, -1479102.5, 136063.39, 0.000000018082496, 10.000063, 9.999631 
5.3492504e+2, 1.4518732e+2, -1502445.0, -1512554.1, 35451.715, 0.2242456, -0.022538727, -1471689.4, 45469.895, 0.0, 10.000116, 9.999986 
5.349357e+2, 1.5518692e+2, -1384339.0, -1403170.5, -5047.0107, -0.03642031, -0.06597679, -1383071.8, 36089.855, 0.0, 10.000253, 9.999995 
5.349483e+2, 1.6518645e+2, -1298784.0, -1350906.6, -2157.918, -0.10859655, -0.092967115, -1298694.9, 22471.027, 0.0, 10.000334, 9.999644 
5.3496295e+2, 1.7518598e+2, -1188745.0, -1244588.6, -9075.546, -0.00074597134, -0.10842826, -1187307.1, 35864.16, 0.0, 10.000405, 9.999667 
5.349767e+2, 1.8518583e+2, -1079414.6, -1130518.0, -10951.215, 0.03079801, -0.091960065, -1077166.8, 48006.07, 0.0, 10.000438, 9.999762 
5.349898e+2, 1.9518599e+2, -984647.2, -1034150.7, 5649.8086, -0.009906794, -0.055568434, -984010.56, 43160.23, 0.0, 10.000417, 9.99976 
5.350032e+2, 2.0518543e+2, -930913.2, -1053059.1, 143.09697, -0.014251186, -0.043088976, -930913.0, -1736.2596, 0.0, 10.000525, 9.998904 
5.3501695e+2, 2.1518418e+2, -795604.06, -934533.8, -29491.973, 0.016464934, -0.06152282, -789602.75, 41587.41, 0.0, 10.000771, 9.998927 
5.350306e+2, 2.2518332e+2, -671884.4, -790967.94, -29978.043, 0.017394213, -0.05382477, -664763.5, 68435.49, 0.0, 10.000804, 9.999225 
5.35044e+2, 2.3518279e+2, -595839.94, -701789.94, -13598.655, -0.009062276, -0.033829547, -594122.4, 41081.465, 0.0, 10.000646, 9.99924 
5.350576e+2, 2.4518175e+2, -522833.44, -638942.44, -19010.906, -0.0095443595, -0.04990091, -519800.0, 17413.08, 0.0, 10.000574, 9.999033 
5.350714e+2, 2.5518027e+2, -421895.06, -538588.4, -27769.928, 0.013924507, -0.103796884, -415623.6, 23602.416, 0.0, 10.000589, 9.999042 
5.3508484e+2, 2.651794e+2, -332433.6, -487493.63, -16268.928, -0.015433247, -0.07672769, -330745.03, 10490.017, 0.0, 10.000717, 9.998657 
5.35098e+2, 2.7517894e+2, -200596.03, -370986.72, -14317.422, -0.09335583, 0.008008438, -199401.36, 43839.96, 0.0, 10.00094, 9.998676 
5.351116e+2, 2.8517726e+2, -111820.3, -288049.63, -33731.668, -0.10016237, -0.020675587, -105584.445, 39672.867, 0.0, 10.000922, 9.998584 
5.3512555e+2, 2.9517466e+2, -46971.543, -203621.16, -20232.24, -0.042505234, -0.14277714, -44400.62, 2879.7808, 0.0, 10.000682, 9.998607 
5.351398e+2, 3.051737e+2, -44330.563, -257171.0, 34508.74, -0.057325184, -0.059358865, -38875.332, -38875.332, 0.0, 10.000712, 9.9978895 
5.351552e+2, 3.151715e+2, 124902.516, 36563.563, -42714.113, -0.031645313, -0.06884757, 142177.64, 142177.64, 0.0000000000003731001, 10.000959, 9.999787 
5.4488945e+2, 1.2517422e+2, -1758008.8, -1782166.4, -196479.34, -0.06434974, -0.03551605, -1573237.3, 140047.88, 0.00000036785775, 9.999945, 9.999543 
5.449051e+2, 1.3517296e+2, -1555308.1, -1635005.6, 136401.48, -0.17305301, -0.12599725, -1453053.8, 162245.33, 0.000000024396927, 10.000591, 9.99961 
5.4492545e+2, 1.4517364e+2, -1432299.3, -1491885.6, 7480.6816, 0.22951613, -0.029387018, -1431374.5, 85918.375, 0.0, 10.000655, 9.999867 
5.4493624e+2, 1.5517339e+2, -1397092.0, -1422865.6, -39354.965, -0.00956048, -0.047340658, -1368567.6, 50727.105, 0.0, 10.000222, 9.999875 
5.4494876e+2, 1.6517285e+2, -1343207.8, -1379940.6, -19963.105, -0.08258051, -0.07065151, -1334447.6, -13147.694, 0.0, 10.000063, 9.999576 
5.4496324e+2, 1.7517214e+2, -1234008.4, -1273134.0, -11985.999, 0.008839632, -0.1029019, -1230628.5, -7321.02, 0.0, 10.000127, 9.999604 
5.449771e+2, 1.8517187e+2, -1083463.8, -1124428.9, -13891.171, 0.03171833, -0.09928494, -1079197.6, 46112.004, 0.0, 10.000377, 9.999832 
5.449903e+2, 1.9517201e+2, -920900.8, -995806.9, -26181.998, -0.012939115, -0.072067544, -912656.75, 114650.055, 0.0, 10.000823, 9.999827 
5.450039e+2, 2.0517148e+2, -868261.7, -1042207.7, -22343.201, -0.014947456, -0.051937733, -865437.56, 63875.047, 0.0, 10.001039, 9.998733 
5.4501796e+2, 2.151703e+2, -769513.5, -940779.5, -5184.549, 0.02404081, -0.04747003, -769356.7, 61969.766, 0.0, 10.00103, 9.998759 
5.4503155e+2, 2.2516933e+2, -644589.7, -777965.44, -5690.768, 0.023908472, -0.0421272, -644347.3, 88989.21, 0.0, 10.000993, 9.999222 
5.450447e+2, 2.3516853e+2, -554250.7, -682065.9, -22026.137, -0.012356339, -0.04746635, -550561.44, 84781.93, 0.0, 10.000934, 9.999236 
5.4505837e+2, 2.4516748e+2, -465146.2, -622649.7, -26724.594, -0.017186157, -0.059319813, -460735.2, 76617.49, 0.0, 10.001021, 9.998929 
5.450722e+2, 2.551662e+2, -334025.28, -507152.56, -24500.246, 0.0068095247, -0.082540095, -330624.9, 108739.2, 0.0, 10.001243, 9.998941 
5.450857e+2, 2.6516512e+2, -279444.7, -463777.53, -17060.426, -0.014324553, -0.06821068, -277879.0, 63495.813, 0.0, 10.00109, 9.998641 
5.4509896e+2, 2.7516413e+2, -253123.06, -398648.66, -20045.672, -0.076287165, -0.036122248, -250412.33, -7026.61, 0.0, 10.000589, 9.998656 
5.451125e+2, 2.8516257e+2, -146841.9, -298722.28, -35317.56, -0.09033382, -0.055425283, -139031.02, 6369.621, 0.0, 10.000654, 9.998639 
5.4512626e+2, 2.9516068e+2, 35362.61, -158093.47, -35624.97, -0.0614706, -0.110056795, 41714.402, 89131.58, 0.0, 10.001225, 9.998656 
5.4514074e+2, 3.051593e+2, 14491.234, -254671.22, 16885.201, -0.05836328, -0.06033714, 15546.348, 15546.348, 0.0, 10.001226, 9.99766 
5.4515606e+2, 3.1515718e+2, 83704.31, 9102.738, -39832.523, -0.020199787, -0.043101083, 100974.38, 100974.38, 0.000000000015387011, 10.000709, 9.99972 
5.5489063e+2, 1.2515903e+2, -1714114.8, -1692057.8, -171050.67, 0.054080356, -0.08852436, -1531680.4, 181756.33, 0.0000003291145, 9.9999485, 10.00016 
5.549046e+2, 1.3515908e+2, -1514201.1, -1552589.0, 159952.5, -0.28502774, -0.10692052, -1372295.1, 243140.44, 0.000000025104656, 10.000603, 10.000171 
5.549251e+2, 1.4516011e+2, -1443747.3, -1518296.5, -10440.733, 0.12355986, 0.008376714, -1442312.6, 75113.234, 0.0, 10.000666, 9.999681 
5.54937e+2, 1.551596e+2, -1408684.3, -1447823.5, -54954.664, 0.04447064, -0.01570107, -1369918.8, 49513.77, 0.0, 10.000225, 9.999703 
5.5494964e+2, 1.6515921e+2, -1332760.6, -1357603.8, -18620.92, 0.0035834988, -0.023819475, -1322798.5, -1361.7732, 0.0, 10.00006, 9.99973 
5.5496347e+2, 1.7515896e+2, -1224172.5, -1252166.1, -9206.408, 0.012532476, -0.0246538, -1221416.1, 2021.9999, 0.0, 10.000125, 9.999749 
5.5497724e+2, 1.8515846e+2, -1104648.6, -1168277.1, 2086.964, 0.0048848176, -0.03746249, -1104580.3, 20861.943, 0.0, 10.000375, 9.999533 
5.54991e+2, 1.951577e+2, -941334.06, -1037592.9, -9056.656, -0.022301288, -0.070704825, -940489.4, 86959.35, 0.0, 10.000819, 9.999542 
5.550049e+2, 2.0515707e+2, -836149.1, -973896.1, -23326.74, -0.0190165, -0.06845615, -832306.06, 97148.48, 0.0, 10.001031, 9.999205 
5.5501884e+2, 2.1515658e+2, -738664.6, -875112.8, -4846.4106, 0.014837186, -0.04145007, -738492.75, 92967.03, 0.0, 10.001023, 9.999214 
5.5503243e+2, 2.2515556e+2, -674531.94, -839135.25, -8514.229, 0.014520057, -0.043692775, -674092.7, 59377.383, 0.0, 10.000988, 9.998805 
5.5504566e+2, 2.35154e+2, -583311.4, -742262.2, -23485.03, -0.01817155, -0.083476946, -579914.06, 55571.348, 0.0, 10.000933, 9.998823 
5.5505913e+2, 2.4515295e+2, -461942.97, -615340.2, -18796.162, -0.038521558, -0.0771497, -459673.4, 77821.914, 0.0, 10.001018, 9.9989805 
5.550729e+2, 2.551524e+2, -331231.3, -499558.2, -15855.183, -0.047471862, -0.035552368, -329750.88, 109749.13, 0.0, 10.001235, 9.998998 
5.550866e+2, 2.65151e+2, -284225.13, -472979.66, -36359.4, -0.034618333, -0.051806737, -277463.5, 64049.516, 0.0, 10.001085, 9.99858 
5.5510026e+2, 2.7514875e+2, -257902.13, -409520.5, -36931.977, -0.0018015198, -0.13699053, -249384.55, -5849.91, 0.0, 10.000592, 9.998581 
5.5511385e+2, 2.851473e+2, -155606.73, -316001.44, -13516.059, -0.023346333, -0.13568659, -154475.75, -8926.794, 0.0, 10.00065, 9.998522 
5.5512714e+2, 2.951468e+2, 25372.168, -175052.67, -13810.469, -0.09842399, -0.04275275, 26319.316, 73873.59, 0.0, 10.001208, 9.998548 
5.551416e+2, 3.0514494e+2, 17974.984, -242482.38, -3123.5981, -0.09429833, -0.040389027, 18012.44, 18012.44, 0.0, 10.001205, 9.997753 
5.5515695e+2, 3.1514233e+2, 87626.53, 18902.457, -55056.71, -0.008126455, -0.08055896, 118164.34, 118164.34, 0.0000000020600701, 10.000701, 9.99979 
5.6489086e+2, 1.2514488e+2, -1645714.1, -1638986.3, -127262.45, 0.06669464, -0.072811045, -1515043.3, 198533.81, 0.00000027083397, 10.000332, 10.000338 
5.649046e+2, 1.3514513e+2, -1612486.4, -1585069.3, 159317.1, -0.31068143, -0.087712206, -1438872.0, 176701.13, 0.000000017878008, 9.999862, 10.000306 
5.649253e+2, 1.4514609e+2, -1556801.9, -1574496.8, -19861.074, 0.117323145, 0.01598199, -1543906.8, -26342.85, 0.0, 9.999897, 9.999666 
5.6493735e+2, 1.551456e+2, -1375043.3, -1432817.5, -52030.113, 0.048923988, -0.0057459394, -1344419.1, 75151.945, 0.0, 10.0004635, 9.99969 
5.649501e+2, 1.6514526e+2, -1222824.6, -1301617.5, -11968.079, 0.0066286447, -0.009326947, -1221046.9, 100527.72, 0.0, 10.000806, 9.999753 
5.6496394e+2, 1.751451e+2, -1103697.8, -1192266.4, -15249.97, 0.00974554, -0.0035984006, -1101145.6, 122429.164, 0.0, 10.000945, 9.999764 
5.649778e+2, 1.8514453e+2, -1041727.4, -1149928.9, -1390.7748, 0.00607846, -0.019121729, -1041709.5, 83869.984, 0.0, 10.000859, 9.999425 
5.6499183e+2, 1.9514355e+2, -986130.06, -1070563.0, 852.11255, -0.0120210955, -0.06320779, -986121.44, 41466.992, 0.0, 10.000561, 9.999441 
5.650057e+2, 2.0514292e+2, -889341.94, -974041.0, -12344.726, -0.015671834, -0.06844354, -887579.44, 42014.613, 0.0, 10.000556, 9.999433 
5.650196e+2, 2.1514261e+2, -749618.94, -854991.2, -13811.552, -0.0023203758, -0.04614774, -747838.7, 83757.76, 0.0, 10.000839, 9.99944 
5.650333e+2, 2.2514163e+2, -668001.3, -843219.6, -13992.292, 0.0040934184, -0.051041704, -666891.0, 66714.84, 0.0, 10.001065, 9.998739 
5.650469e+2, 2.3514e+2, -542973.56, -729761.9, -3604.2805, 0.0033191661, -0.090936944, -542904.06, 92717.9, 0.0, 10.001241, 9.99876 
5.6506044e+2, 2.4513891e+2, -450484.8, -617779.0, 5335.8076, -0.015012798, -0.082116306, -450314.8, 87317.78, 0.0, 10.001131, 9.998909 
5.6507385e+2, 2.551383e+2, -405182.53, -543643.06, -2600.9014, -0.049816664, -0.035686366, -405133.7, 34504.39, 0.0, 10.000762, 9.998923 
5.6508744e+2, 2.651369e+2, -315861.72, -476977.9, -19076.28, -0.04486421, -0.055088848, -313633.9, 28017.227, 0.0, 10.000822, 9.998678 
5.651012e+2, 2.7513468e+2, -151276.31, -346036.78, -9074.838, -0.0036865815, -0.15167555, -150854.39, 92817.61, 0.0, 10.001276, 9.998685 
5.651148e+2, 2.851333e+2, -81625.34, -288077.03, 24278.31, -0.018467331, -0.14197128, -78808.69, 66876.65, 0.0, 10.001193, 9.998452 
5.6512815e+2, 2.9513302e+2, -66726.23, -228880.08, 25500.475, -0.0850379, -0.019771006, -62810.55, -15121.187, 0.0, 10.000616, 9.998464 
5.651426e+2, 3.051308e+2, -57849.938, -247626.4, 44381.586, -0.07904502, -0.065093994, -47983.688, -47983.688, 0.0, 10.000547, 9.998035 
5.651574e+2, 3.151286e+2, 128211.82, 46604.92, 5120.189, -0.04003532, -0.09372088, 128531.82, 128531.82, 0.000000017271022, 10.000943, 9.999866 
5.7489014e+2, 1.2513196e+2, -1665784.3, -1686360.8, -140826.05, -0.042563375, 0.015692081, -1534871.1, 178833.86, 0.00000019303324, 10.000354, 10.000004 
5.7490504e+2, 1.3513117e+2, -1635498.5, -1633470.3, 141344.48, -0.25100857, -0.06594174, -1493136.3, 122575.24, 0.000000007774616, 9.999863, 9.999974 
5.749261e+2, 1.4513162e+2, -1545628.4, -1550307.4, -27.703741, 0.20958948, -0.005778616, -1545628.3, -27921.432, 0.0, 9.999892, 9.999835 
5.7493734e+2, 1.551314e+2, -1362645.9, -1407546.5, -30045.37, -0.0028298937, -0.017929219, -1347589.6, 72120.23, 0.0, 10.000465, 9.999863 
5.749501e+2, 1.6513103e+2, -1231148.8, -1320345.3, -7342.384, -0.08072631, -0.027901264, -1230548.4, 91165.055, 0.0, 10.00081, 9.999623 
5.749647e+2, 1.7513056e+2, -1111956.1, -1210766.3, -9569.368, -0.0027233684, -0.0402377, -1111037.9, 112679.25, 0.0, 10.000949, 9.999637 
5.7497895e+2, 1.8513006e+2, -1035824.9, -1137848.3, -13445.792, 0.03077541, -0.044623896, -1034082.56, 91638.71, 0.0, 10.000859, 9.999508 
5.749926e+2, 1.9512954e+2, -980777.56, -1058660.5, -9843.56, 0.0133403335, -0.05011231, -979552.7, 48173.297, 0.0, 10.000557, 9.999524 
5.7500637e+2, 2.0512898e+2, -891307.1, -977300.3, -2479.0186, -0.008310531, -0.05173655, -891235.7, 38495.26, 0.0, 10.000552, 9.999413 
5.7502013e+2, 2.1512836e+2, -751277.5, -857184.3, -2699.5762, -0.03085072, -0.059710197, -751208.75, 80527.59, 0.0, 10.0008335, 9.999428 
5.7503426e+2, 2.2512753e+2, -648499.8, -801551.4, -8030.291, -0.011167713, -0.06335965, -648079.6, 85664.17, 0.0, 10.00106, 9.999028 
5.7504857e+2, 2.3512651e+2, -524206.72, -688988.5, 3329.9558, 0.048357584, -0.0714096, -524139.47, 111613.73, 0.0, 10.001233, 9.999044 
5.750622e+2, 2.4512534e+2, -464840.25, -646835.94, -9312.368, 0.04889002, -0.07492853, -464364.97, 73399.75, 0.0, 10.001127, 9.998712 
5.750751e+2, 2.5512403e+2, -419633.6, -573118.3, -15341.304, -0.0061842296, -0.08104279, -418115.2, 21663.033, 0.0, 10.000759, 9.998722 
5.7508826e+2, 2.6512286e+2, -299346.63, -442063.5, -2201.9653, -0.048695292, -0.07740004, -299312.7, 42476.5, 0.0, 10.000818, 9.99892 
5.751017e+2, 2.7512178e+2, -134521.92, -309088.88, 7846.857, -0.082179554, -0.08286551, -134169.9, 109628.484, 0.0, 10.0012665, 9.998943 
5.751154e+2, 2.8512052e+2, -83457.81, -290385.44, 1277.5917, -0.07695573, -0.075571336, -83449.92, 62360.453, 0.0, 10.001185, 9.99844 
5.7512933e+2, 2.9511935e+2, -69017.945, -233767.39, 5226.4688, -0.03169768, -0.040980067, -68852.31, -21029.527, 0.0, 10.000615, 9.998431 
5.7514375e+2, 3.0511683e+2, -28348.566, -185619.6, 58473.242, -0.020541795, -0.13485894, -8990.8955, -8990.8955, 0.00000000021282408, 10.000545, 9.998463 
5.751575e+2, 3.151158e+2, 130676.61, 57022.563, 25236.139, -0.11946553, -0.08755811, 138493.64, 138493.64, 0.0000000699572, 10.000921, 9.999947 
5.848903e+2, 1.2511827e+2, -1706162.1, -1717706.5, -138175.33, -0.046137173, 0.034724995, -1573638.5, 140200.83, 0.00000011738098, 10.000133, 9.999893 
5.849052e+2, 1.3511728e+2, -1564943.6, -1612296.4, 149331.66, -0.24037784, -0.053231098, -1437423.0, 178424.92, 0.0000000014227642, 10.000407, 9.999855 
5.849264e+2, 1.4511746e+2, -1460342.0, -1501038.4, 27923.625, 0.22812241, -0.018909616, -1446139.1, 71706.65, 0.0, 10.000445, 9.999905 
5.849375e+2, 1.5511718e+2, -1373937.8, -1405532.0, -12267.529, -0.024138922, -0.04332147, -1369733.9, 50114.48, 0.0, 10.000357, 9.999928 
5.849503e+2, 1.6511683e+2, -1294101.8, -1349435.0, 8563.659, -0.10861146, -0.054619435, -1292806.8, 29044.648, 0.0, 10.000372, 9.999635 
5.849655e+2, 1.7511645e+2, -1177398.8, -1241145.4, 16046.981, 0.0004838701, -0.058915325, -1173587.1, 50267.51, 0.0, 10.000495, 9.999646 
5.849798e+2, 1.851161e+2, -1071409.4, -1156249.1, 6618.4326, 0.04486142, -0.050237097, -1070896.3, 54961.758, 0.0, 10.000622, 9.999495 
5.849933e+2, 1.9511575e+2, -953848.1, -1047040.2, 1816.1655, 0.015962001, -0.038523924, -953812.75, 74048.67, 0.0, 10.00075, 9.99951 
5.85007e+2, 2.051151e+2, -865767.25, -979542.3, 10491.085, -0.0044423393, -0.040780965, -864807.94, 65059.496, 0.0, 10.000792, 9.999281 
5.8502114e+2, 2.1511416e+2, -770854.44, -880894.75, 337.67368, -0.013093295, -0.0660506, -770853.4, 61022.566, 0.0, 10.000762, 9.999299 
5.8503526e+2, 2.251134e+2, -686018.3, -801523.5, -15315.935, 0.0034574834, -0.065971196, -684021.94, 49861.03, 0.0, 10.000724, 9.99919 
5.850495e+2, 2.3511277e+2, -593053.3, -704483.94, -14808.651, 0.04285538, -0.050926343, -591118.9, 44769.797, 0.0, 10.000683, 9.999204 
5.8506304e+2, 2.4511167e+2, -504607.25, -656971.2, -24461.645, 0.04088858, -0.057893038, -500776.3, 37122.88, 0.0, 10.000815, 9.998793 
5.8507603e+2, 2.5511017e+2, -363459.44, -536188.25, -10681.239, -0.00062903005, -0.09312604, -362801.44, 77112.77, 0.0, 10.001103, 9.998809 
5.8508927e+2, 2.651091e+2, -258739.19, -425735.44, 9521.454, -0.037721664, -0.08379472, -258198.08, 83726.375, 0.0, 10.001112, 9.99889 
5.8510286e+2, 2.7510837e+2, -194153.92, -342093.75, -2075.3865, -0.07180854, -0.048684727, -194124.81, 49805.953, 0.0, 10.000874, 9.998907 
5.851165e+2, 2.851071e+2, -125958.52, -313394.22, -28739.49, -0.06930303, -0.03780082, -121650.9, 24292.0, 0.0, 10.000904, 9.998418 
5.851303e+2, 2.9510555e+2, 8372.738, -198956.86, -28071.55, -0.02978909, -0.038217224, 12106.274, 60064.9, 0.0, 10.001159, 9.998408 
5.851446e+2, 3.05103e+2, 63805.613, -106626.81, 28358.988, -0.0125163635, -0.15096158, 68400.51, 68400.51, 0.000000006848287, 10.001031, 9.99877 
5.851582e+2, 3.151025e+2, 78615.38, 24457.93, -10069.804, -0.12579833, -0.085721396, 80427.11, 80427.11, 0.00000018333391, 10.000595, 9.99988 
5.948915e+2, 1.2510385e+2, -1695167.6, -1699191.9, -118658.22, 0.05256013, -0.014904123, -1578504.5, 135475.13, 0.000000058921596, 10.000148, 10.000014 
5.949052e+2, 1.3510351e+2, -1555735.5, -1595280.9, 158901.22, -0.28504604, -0.05154131, -1415381.5, 200600.84, 0.000000000010343272, 10.000415, 9.999969 
5.949263e+2, 1.4510363e+2, -1463179.8, -1508344.3, 23253.578, 0.16551052, -0.024258127, -1453347.8, 64632.56, 0.0, 10.000449, 9.999854 
5.949379e+2, 1.5510297e+2, -1377170.6, -1413014.4, -14483.662, -0.017905032, -0.082161196, -1372049.6, 47936.293, 0.0, 10.000359, 9.999877 
5.94951e+2, 1.651027e+2, -1284118.0, -1328360.5, 12495.423, -0.08090961, -0.089730985, -1280832.9, 41155.324, 0.0, 10.000369, 9.999781 
5.949661e+2, 1.7510283e+2, -1166660.4, -1219280.4, 21303.123, 0.015287572, -0.059368886, -1159117.3, 64870.004, 0.0, 10.000496, 9.999796 
5.949804e+2, 1.8510264e+2, -1079218.5, -1172453.1, 10936.508, 0.043592837, -0.035586014, -1077952.9, 48036.555, 0.0, 10.000622, 9.999384 
5.949938e+2, 1.9510214e+2, -961720.2, -1063379.8, 6890.203, -0.0075273416, -0.026951555, -961255.3, 66739.3, 0.0, 10.000749, 9.999399 
5.9500784e+2, 2.0510127e+2, -883856.4, -1015738.06, 8555.644, -0.0077863256, -0.034916233, -883303.6, 46699.73, 0.0, 10.000786, 9.999035 
5.9502244e+2, 2.1510002e+2, -789111.25, -916954.25, -37.967335, 0.047007736, -0.06640927, -789111.25, 42904.117, 0.0, 10.000754, 9.999055 
5.950364e+2, 2.250992e+2, -684510.56, -797315.8, -17608.086, 0.044408295, -0.059958305, -681825.94, 52197.56, 0.0, 10.000718, 9.999222 
5.9504956e+2, 2.3509878e+2, -591401.2, -700139.7, -15469.73, -0.015827382, -0.02819847, -589243.25, 46784.977, 0.0, 10.000679, 9.999235 
5.9506303e+2, 2.4509795e+2, -480689.94, -606058.0, -13912.3955, -0.041794367, -0.030037189, -479164.6, 58871.242, 0.0, 10.00081, 9.9991455 
5.950768e+2, 2.550967e+2, -339300.3, -484424.13, 406.7829, -0.035011776, -0.07203583, -339299.16, 100746.95, 0.0, 10.001097, 9.999168 
5.950906e+2, 2.6509556e+2, -279483.56, -468316.7, -227.2866, -0.015223051, -0.07378737, -279483.28, 62573.734, 0.0, 10.001109, 9.9986 
5.9510463e+2, 2.7509445e+2, -216181.81, -386812.78, -9442.071, 0.016937874, -0.049281962, -215660.92, 28408.13, 0.0, 10.000869, 9.998603 
5.9511805e+2, 2.850931e+2, -131300.31, -322643.53, -19304.24, -0.0047963643, -0.029158615, -129372.17, 16710.621, 0.0, 10.000896, 9.998359 
5.9513086e+2, 2.9509172e+2, 4256.9023, -204903.94, -18652.707, -0.07942912, -0.009544082, 5907.305, 54003.957, 0.0, 10.001148, 9.998372 
5.951452e+2, 3.0508932e+2, 77384.06, -76582.39, 11259.364, -0.054279584, -0.11157749, 78203.086, 78203.086, 0.000000033052434, 10.001022, 9.998981 
5.9515935e+2, 3.150887e+2, 67199.76, 2467.4087, -16692.256, -0.07345404, -0.078927204, 71250.62, 71250.62, 0.00000037488923, 10.000588, 9.999733 
6.048922e+2, 1.2508938e+2, -1623095.1, -1665110.0, -127975.875, 0.0859716, -0.050270867, -1514414.0, 199707.23, 0.000000021349177, 10.0006485, 10.000006 
6.049051e+2, 1.3508953e+2, -1620656.9, -1627267.0, 123055.11, -0.30649784, -0.034378484, -1500862.5, 115257.555, 0.0, 9.999975, 9.99996 
6.049262e+2, 1.4508973e+2, -1544976.6, -1532799.0, 7448.284, 0.14879309, -0.0056349128, -1529267.5, -11150.032, 0.0, 9.999826, 9.999985 
6.049384e+2, 1.550891e+2, -1366677.6, -1392665.9, -16673.982, -0.003922113, -0.07395661, -1358532.5, 61589.62, 0.0, 10.000367, 10.000011 
6.049516e+2, 1.6508888e+2, -1260549.9, -1318779.6, 2461.1584, -0.067588106, -0.082849026, -1260446.0, 61677.848, 0.0, 10.000539, 9.999764 
6.0496634e+2, 1.7508906e+2, -1193833.3, -1233997.4, -2908.5151, 0.0011392853, -0.044535, -1193623.8, 30499.203, 0.0, 10.000318, 9.99978 
6.049807e+2, 1.8508886e+2, -1112788.9, -1186884.3, -2695.1807, 0.023878478, -0.023487201, -1112691.0, 13434.534, 0.0, 10.000383, 9.9994 
6.0499454e+2, 1.9508824e+2, -960292.94, -1061118.6, 1129.3896, -0.014265696, -0.02765479, -960280.3, 67851.19, 0.0, 10.000752, 9.999413 
6.050086e+2, 2.050874e+2, -867466.3, -1000958.25, 7767.5103, -0.010565623, -0.036310174, -867015.9, 63123.844, 0.0, 10.000869, 9.999097 
6.0502315e+2, 2.1508631e+2, -789065.56, -910801.9, 21113.557, 0.03980824, -0.057241343, -785507.7, 46642.418, 0.0, 10.000727, 9.999111 
6.05037e+2, 2.2508551e+2, -701061.56, -815212.4, 13712.028, 0.03789036, -0.048551988, -699437.56, 34720.977, 0.0, 10.000648, 9.999133 
6.050502e+2, 2.3508494e+2, -604225.4, -715948.94, 5225.3438, -0.01735693, -0.023013059, -603981.56, 32183.86, 0.0, 10.000633, 9.999147 
6.050638e+2, 2.4508414e+2, -492826.4, -599923.0, 2621.1816, -0.044628892, -0.02087602, -492762.28, 45410.32, 0.0, 10.000676, 9.999251 
6.050776e+2, 2.5508317e+2, -378741.28, -492653.6, -3407.5146, -0.044793148, -0.047486957, -378639.44, 61540.438, 0.0, 10.000779, 9.999266 
6.0509163e+2, 2.65082e+2, -313876.78, -489354.7, -13246.775, -0.0151633285, -0.052943822, -312882.4, 29308.34, 0.0, 10.00089, 9.998563 
6.0510576e+2, 2.750806e+2, -201020.31, -383378.94, -5287.2017, 0.04252024, -0.051784642, -200867.14, 43338.55, 0.0, 10.000989, 9.998569 
6.051193e+2, 2.8507915e+2, -100157.78, -302656.75, 10458.061, 0.017185127, -0.041060843, -99619.1, 46601.004, 0.0, 10.001089, 9.998403 
6.05132e+2, 2.950779e+2, 17019.098, -195237.9, 16391.195, -0.08889347, -0.016551543, 18277.42, 66509.82, 0.00000000003092486, 10.001219, 9.998405 
6.051462e+2, 3.0507582e+2, 86702.2, -80010.336, 18060.475, -0.05516981, -0.0834915, 88636.31, 88636.31, 0.00000008707832, 10.001121, 9.998911 
6.051603e+2, 3.1507483e+2, 73256.14, -30771.738, -27162.99, -0.04671831, -0.08032936, 79921.66, 79921.66, 0.0000006525611, 10.000787, 9.99941 
6.1489254e+2, 1.2507488e+2, -1633076.8, -1688959.5, -144254.61, 0.049106885, -0.06661201, -1514082.4, 200181.08, 0.0000000039655865, 10.00066, 9.999838 
6.149051e+2, 1.350754e+2, -1631780.4, -1649559.8, 96203.17, -0.3086875, 0.0007494908, -1544057.1, 72203.72, 0.0, 9.999972, 9.999808 
6.1492634e+2, 1.4507577e+2, -1523293.0, -1488109.6, 25285.605, 0.17241411, 0.038629167, -1474898.3, 43358.914, 0.0, 9.9998255, 10.000293 
6.14939e+2, 1.5507558e+2, -1344112.4, -1347319.3, 4635.9463, 0.0138248475, -0.018197192, -1340810.4, 79446.32, 0.0, 10.000371, 10.000321 
6.14952e+2, 1.6507536e+2, -1272725.9, -1344769.9, -6495.475, -0.07434961, -0.032556895, -1272144.9, 50113.33, 0.0, 10.000542, 9.999585 
6.149663e+2, 1.7507516e+2, -1206172.0, -1260134.4, -10907.244, -0.04545803, -0.014173269, -1204050.8, 20210.896, 0.0, 10.0003195, 9.9996 
6.149807e+2, 1.850747e+2, -1104243.8, -1168486.0, 10056.938, -0.018752096, -0.014410462, -1102706.1, 23560.146, 0.0, 10.0003805, 9.999528 
6.149953e+2, 1.95074e+2, -951053.1, -1041897.1, 15550.817, -0.007980834, -0.041732818, -948464.8, 79807.234, 0.0, 10.0007515, 9.999545 
6.150094e+2, 2.0507346e+2, -842648.44, -947952.0, 1625.6896, -0.016395507, -0.046132684, -842623.4, 87653.25, 0.0, 10.000862, 9.999464 
6.150231e+2, 2.1507305e+2, -764108.44, -857772.1, 16123.668, -0.03801085, -0.037325576, -761410.56, 70869.44, 0.0, 10.000721, 9.999478 
6.15037e+2, 2.250723e+2, -717549.44, -847720.44, 12310.3, -0.020285513, -0.029901946, -716395.5, 17892.36, 0.0, 10.00064, 9.998914 
6.150514e+2, 2.350712e+2, -619442.8, -746818.7, 5363.5684, 0.034165658, -0.03499018, -619217.4, 17082.873, 0.0, 10.00063, 9.998938 
6.1506516e+2, 2.4507025e+2, -503050.4, -621014.5, 5887.735, 0.028372696, -0.030115321, -502757.28, 35552.285, 0.0, 10.000674, 9.999107 
6.150785e+2, 2.550695e+2, -390031.44, -514966.6, 1612.277, -0.03543099, -0.020675784, -390010.66, 50304.914, 0.0, 10.000773, 9.999115 
6.150922e+2, 2.6506838e+2, -300928.88, -461184.16, -9541.266, -0.042309806, -0.022375235, -300362.8, 41962.87, 0.0, 10.000883, 9.998759 
6.151064e+2, 2.7506685e+2, -186703.31, -352472.38, -1048.6505, 0.0049753613, -0.053041026, -186696.69, 57643.902, 0.0, 10.000983, 9.998784 
6.151201e+2, 2.8506538e+2, -89812.266, -280661.88, 14801.284, -0.0036712824, -0.06903913, -88671.18, 57683.547, 0.0, 10.001085, 9.998556 
6.151334e+2, 2.9506406e+2, 24755.14, -177332.3, 22765.582, -0.066943, -0.059620235, 27287.988, 75654.164, 0.0000000010306047, 10.00121, 9.998533 
6.1514765e+2, 3.0506244e+2, 58511.555, -135749.08, 5131.8296, -0.024871811, -0.07069217, 58647.027, 58647.027, 0.00000016756015, 10.001109, 9.998532 
6.15161e+2, 3.15061e+2, 35247.574, -105851.625, -30486.416, -0.052665886, -0.07388336, 41552.824, 41552.824, 0.000001002472, 10.0007715, 9.998899 
6.248928e+2, 1.250612e+2, -1728951.9, -1748446.9, -110340.62, 0.04024971, -0.040080056, -1627929.0, 86468.766, 0.00000000008306351, 10.000054, 9.9997225 
6.249054e+2, 1.3506132e+2, -1591073.3, -1639132.6, 117867.336, -0.2890391, -0.0047660484, -1494811.0, 121588.164, 0.0, 10.000291, 9.999725 
6.249265e+2, 1.4506155e+2, -1465220.3, -1459638.1, 55657.992, 0.19259006, 0.02309524, -1406701.3, 111696.016, 0.0, 10.000221, 10.000298 
6.2493896e+2, 1.5506181e+2, -1397549.0, -1372048.1, 11877.58, -0.003026308, 0.013278807, -1367373.0, 53019.6, 0.0, 10.000001, 10.00033 
6.249521e+2, 1.6506171e+2, -1348118.8, -1386999.8, -8741.33, -0.101868935, 0.010736831, -1346243.9, -23850.293, 0.0, 10.0000515, 9.999532 
6.249665e+2, 1.7506121e+2, -1199756.5, -1262683.5, -5227.087, -0.05397874, 0.005999599, -1199325.3, 25074.727, 0.0, 10.000389, 9.999549 
6.249811e+2, 1.850607e+2, -1085912.5, -1141255.0, 22849.518, -0.017627528, -0.0070240325, -1077697.8, 48707.152, 0.0, 10.000426, 9.999693 
6.249957e+2, 1.9506012e+2, -1027665.94, -1060773.5, 29640.293, -0.01005856, -0.037695136, -1010270.1, 18138.523, 0.0, 10.000147, 9.999707 
6.250098e+2, 2.0505969e+2, -950136.2, -992855.94, 5532.462, -0.02371932, -0.04023016, -949431.3, -19019.602, 0.0, 10.000094, 9.999526 
6.250234e+2, 2.150594e+2, -825089.4, -880058.4, -4428.087, -0.05283615, -0.02503351, -824734.94, 7679.401, 0.0, 10.000273, 9.999541 
6.2503755e+2, 2.2505873e+2, -732852.56, -845606.0, -3163.036, -0.029945605, -0.017196588, -732763.9, 1657.3988, 0.0, 10.000495, 9.998998 
6.250521e+2, 2.3505768e+2, -595962.7, -726872.6, 10699.189, 0.041197494, -0.026580287, -595094.0, 41338.61, 0.0, 10.000753, 9.999016 
6.2506604e+2, 2.4505667e+2, -485852.72, -622400.5, 20568.3, 0.04505277, -0.02736074, -482821.78, 55620.78, 0.0, 10.0008335, 9.999022 
6.250794e+2, 2.5505573e+2, -401465.34, -529839.56, 18956.021, -0.016446233, -0.027651865, -398724.75, 41726.363, 0.0, 10.000735, 9.99903 
6.2509316e+2, 2.6505464e+2, -306088.94, -455476.63, 13791.293, -0.0354449, -0.027418815, -304826.44, 37634.797, 0.0, 10.0008135, 9.998832 
6.2510717e+2, 2.7505338e+2, -168396.38, -335748.44, 11520.075, -0.01412493, -0.04248366, -167607.1, 76866.234, 0.0, 10.001075, 9.998855 
6.2512106e+2, 2.850519e+2, -69392.85, -259740.5, 15273.313, -0.022059005, -0.063191205, -68175.125, 78311.625, 0.0, 10.001178, 9.998655 
6.2513465e+2, 2.950504e+2, 18227.57, -170174.13, 17185.203, -0.058365922, -0.08111631, 19782.3, 68282.125, 0.000000004235602, 10.001121, 9.998625 
6.251489e+2, 3.0504924e+2, 61188.38, -141619.36, 7305.528, -0.014918874, -0.046830248, 61451.2, 61451.2, 0.000000262113, 10.001158, 9.998469 
6.251619e+2, 3.1504765e+2, 112990.52, -69445.53, -403.77985, -0.07280579, -0.06368055, 112991.414, 112991.414, 0.0000013873902, 10.0013075, 9.998892 
6.34893e+2, 1.2504834e+2, -1731879.1, -1755596.4, -89539.016, 0.05435441, 0.030145977, -1653416.9, 61106.797, 0.0, 10.000056, 9.999674 
6.3490605e+2, 1.3504727e+2, -1591592.3, -1641073.5, 125519.625, -0.25107062, -0.052714847, -1488398.3, 128136.9, 0.0, 10.000295, 9.99971 
6.3492686e+2, 1.4504704e+2, -1485962.9, -1503955.5, 44301.094, 0.20439716, -0.05335481, -1449753.9, 68783.836, 0.0, 10.000227, 9.99999 
6.349384e+2, 1.5504785e+2, -1419095.5, -1416719.0, 3826.8667, -0.058805577, 0.019498646, -1413900.1, 6629.644, 0.0, 9.999999, 10.000025 
6.3495153e+2, 1.6504791e+2, -1343331.5, -1376818.5, 2874.62, -0.1566087, 0.04613864, -1343086.5, -20556.684, 0.0, 10.000049, 9.999603 
6.3496715e+2, 1.7504725e+2, -1194111.8, -1252225.4, 8032.0415, -0.028283136, 0.015468673, -1193022.1, 31515.701, 0.0, 10.000393, 9.9996195 
6.3498193e+2, 1.8504679e+2, -1072246.6, -1112661.9, 11493.894, 0.022619117, -0.0016931564, -1069206.5, 57334.945, 0.0, 10.000425, 9.999889 
6.349957e+2, 1.950466e+2, -1013756.8, -1031991.25, 19326.074, -0.023920076, -0.014312939, -1001505.3, 27035.639, 0.0, 10.000147, 9.999905 
6.3500977e+2, 2.0504615e+2, -968156.3, -1029495.75, 11192.176, -0.037335344, -0.017419117, -966177.94, -35633.094, 0.0, 10.00009, 9.999277 
6.3502413e+2, 2.150454e+2, -842488.25, -915905.94, 2997.9348, -0.009009529, -0.021857379, -842366.06, -9812.892, 0.0, 10.000271, 9.999296 
6.350384e+2, 2.2504483e+2, -707529.1, -791434.0, 5865.6865, 0.004627368, -0.012710445, -707121.0, 27438.031, 0.0, 10.000488, 9.9993725 
6.350525e+2, 2.3504439e+2, -570825.1, -673067.2, 21006.021, 0.0012560636, 0.0015441714, -566677.6, 69884.88, 0.0, 10.000746, 9.999389 
6.3506645e+2, 2.4504341e+2, -489841.44, -629019.6, 16094.138, 0.0019518683, -0.01227598, -488004.6, 50566.977, 0.0, 10.000825, 9.9989805 
6.350804e+2, 2.550419e+2, -404232.06, -534563.25, 15699.839, 0.008515241, -0.064906105, -402367.5, 38218.867, 0.0, 10.0007305, 9.999001 
6.350943e+2, 2.6504079e+2, -309655.13, -462667.88, 23113.768, 0.0014395153, -0.06465481, -306239.84, 36357.34, 0.0, 10.000812, 9.998783 
6.3510823e+2, 2.7504003e+2, -172992.64, -344224.75, 22342.568, -0.02046966, -0.02249065, -170125.38, 74478.836, 0.0, 10.001069, 9.9988 
6.35122e+2, 2.850387e+2, -67565.62, -254597.13, 12762.597, -0.04363506, -0.028200554, -66698.74, 79917.87, 0.0, 10.001172, 9.998693 
6.351357e+2, 2.950369e+2, 19212.256, -164629.39, 15683.813, -0.0656397, -0.07888563, 20540.668, 69173.836, 0.000000008608103, 10.001106, 9.99867 
6.351499e+2, 3.0503628e+2, 76483.15, -107576.836, 12050.824, -0.026999537, -0.0076979543, 77268.79, 77268.79, 0.00000035003856, 10.001146, 9.998709 
6.351627e+2, 3.150348e+2, 144205.31, -2375.9253, 13583.273, -0.11473591, -0.033627857, 145453.42, 145453.42, 0.0000017531552, 10.001298, 9.999358 
6.4489317e+2, 1.2503418e+2, -1712753.0, -1739650.1, -91314.52, 0.064047284, 0.0054242895, -1633902.0, 80759.26, 0.0, 10.000158, 9.999736 
6.449063e+2, 1.3503346e+2, -1579909.1, -1624241.3, 113464.625, -0.25739294, -0.051964566, -1486465.6, 130203.24, 0.0, 10.00033, 9.999806 
6.4492697e+2, 1.450331e+2, -1494215.3, -1529215.8, 29255.184, 0.18888463, -0.06208428, -1477625.5, 41047.598, 0.0, 10.000263, 9.9998 
6.449384e+2, 1.5503354e+2, -1408373.1, -1432473.5, -2970.2473, -0.06460254, -0.0056430968, -1408012.5, 12657.116, 0.0, 10.000165, 9.999836 
6.449516e+2, 1.6503358e+2, -1322085.6, -1345739.1, 18125.398, -0.15691128, 0.018930757, -1312269.8, 10400.036, 0.0, 10.000105, 9.999789 
6.449673e+2, 1.7503321e+2, -1230540.9, -1249240.5, 30344.654, -0.025462909, -0.0003644818, -1208138.3, 16535.783, 0.0, 10.000054, 9.999804 
6.4498216e+2, 1.8503293e+2, -1125161.8, -1151114.3, 20419.133, 0.02494843, -0.006665228, -1113944.5, 12732.089, 0.0, 10.000119, 9.999773 
6.449959e+2, 1.9503273e+2, -997023.44, -1036477.3, 3143.5078, -0.027805148, -0.007871015, -996774.56, 31902.766, 0.0, 10.000319, 9.99979 
6.4501e+2, 2.0503224e+2, -917734.94, -1008943.75, -1552.0786, -0.034453332, -0.0062535587, -917708.5, 12973.655, 0.0, 10.000454, 9.999242 
6.450247e+2, 2.1503145e+2, -808936.7, -904096.56, 4354.568, 0.012934055, -0.013201761, -808737.8, 23953.453, 0.0, 10.000521, 9.999257 
6.4503896e+2, 2.2503081e+2, -708884.7, -786286.7, 646.05316, 0.018113744, -0.009533152, -708879.3, 25818.309, 0.0, 10.000452, 9.999426 
6.4505273e+2, 2.3503034e+2, -639212.3, -699768.3, -9813.03, -0.021727473, -0.003940155, -637661.8, -960.658, 0.0, 10.00025, 9.999444 
6.4506674e+2, 2.4502951e+2, -564407.7, -655715.25, -18919.982, -0.026852908, -0.009156903, -560642.5, -21933.723, 0.0, 10.000275, 9.999062 
6.450809e+2, 2.5502834e+2, -428791.44, -537408.06, -11814.602, 0.0024803407, -0.035350233, -427521.16, 13199.326, 0.0, 10.000524, 9.999081 
6.4509517e+2, 2.6502728e+2, -302712.4, -456946.94, 12444.7705, 0.004135846, -0.03325448, -301714.72, 41015.77, 0.0, 10.000851, 9.998803 
6.4510936e+2, 2.750263e+2, -144246.48, -328026.1, 15181.294, -0.021712217, -0.015339944, -143000.86, 101738.2, 0.0, 10.001258, 9.998819 
6.451232e+2, 2.8502488e+2, -51776.523, -253877.56, -13614.24, -0.04749979, -0.029571889, -50863.543, 95889.02, 0.0, 10.00131, 9.9986315 
6.4513665e+2, 2.950231e+2, -25.375908, -181048.98, -19579.969, -0.07168857, -0.073781736, 2068.2295, 50838.02, 0.000000011710588, 10.001005, 9.998606 
6.451509e+2, 3.050226e+2, 52849.81, -125556.12, -19565.215, -0.032823887, 0.014958958, 54970.26, 54970.26, 0.00000040808163, 10.001012, 9.99865 
6.451641e+2, 3.1502077e+2, 171524.27, 38793.934, -35140.46, -0.11469387, -0.037020765, 180253.63, 180253.63, 0.0000020409286, 10.001364, 9.99961 
6.5489346e+2, 1.2501873e+2, -1698573.4, -1713032.6, -73526.13, 0.069383115, -0.11906196, -1631922.4, 82888.56, 0.0, 10.000168, 9.999914 
6.549061e+2, 1.3501996e+2, -1566045.9, -1594676.0, 117302.18, -0.31434733, -0.0025109772, -1462188.5, 154611.81, 0.0, 10.000327, 10.0000105 
6.549267e+2, 1.4501974e+2, -1499813.4, -1540482.0, 21934.604, 0.1392059, -0.0031233006, -1490237.6, 28565.656, 0.0, 10.000261, 9.999723 
6.5493894e+2, 1.5501896e+2, -1413167.1, -1443868.0, -5941.935, -0.024956211, -0.06215428, -1412057.3, 8754.288, 0.0, 10.00017, 9.999757 
6.549522e+2, 1.6501877e+2, -1300823.4, -1302267.6, 15070.013, -0.10693032, -0.07106261, -1286458.3, 36354.973, 0.0, 10.000107, 10.000087 
6.5496725e+2, 1.7501917e+2, -1209670.8, -1206200.3, 28360.383, -0.04852659, -0.042148303, -1179522.1, 45286.47, 0.0, 10.000054, 10.000099 
6.549819e+2, 1.8501908e+2, -1155819.8, -1214124.4, 26670.14, -0.015617203, -0.022848196, -1145460.6, -18650.436, 0.0, 10.000115, 9.999342 
6.549962e+2, 1.9501849e+2, -1027388.1, -1099455.9, 10959.092, -0.025087385, -0.020115681, -1025758.44, 3059.2346, 0.0, 10.000317, 9.999359 
6.5501064e+2, 2.0501795e+2, -907070.44, -985534.44, 238.2773, -0.018838478, -0.008224414, -907069.7, 23754.033, 0.0, 10.000448, 9.999405 
6.550252e+2, 2.150175e+2, -798219.5, -881060.25, 7462.4004, 0.010401888, 0.0013234011, -797552.7, 35275.887, 0.0, 10.000516, 9.999417 
6.550393e+2, 2.250167e+2, -728046.9, -824947.1, -7804.9067, 0.0065296204, -0.0063555073, -727422.25, 7414.457, 0.0, 10.000447, 9.999164 
6.5505284e+2, 2.3501553e+2, -657333.6, -737919.2, -16633.104, -0.031099344, -0.042352434, -654035.44, -17187.156, 0.0, 10.000252, 9.999182 
6.550668e+2, 2.4501497e+2, -551056.25, -628086.6, -9808.892, -0.0458614, -0.018850105, -549826.9, -10972.781, 0.0, 10.000275, 9.999251 
6.5508103e+2, 2.5501502e+2, -415513.53, -509591.78, -1526.2332, -0.036848772, 0.057367723, -415488.78, 25364.914, 0.0, 10.000522, 9.999273 
6.550957e+2, 2.6501414e+2, -297723.94, -445812.34, 27580.734, -0.028859146, 0.06255706, -292753.94, 50107.375, 0.0, 10.000847, 9.998882 
6.551106e+2, 2.7501225e+2, -141180.45, -317374.38, 31747.127, -0.02245787, -0.017574036, -135634.72, 109242.8, 0.0, 10.00124, 9.998901 
6.5512455e+2, 2.850105e+2, -64797.203, -278072.94, -25089.844, -0.04014937, -0.06140138, -61885.38, 85008.664, 0.0, 10.001297, 9.998472 
6.551376e+2, 2.9500893e+2, -11331.595, -204924.86, -30085.56, -0.08141295, -0.06654377, -6763.8887, 42145.8, 0.000000011654482, 10.001005, 9.998442 
6.5515184e+2, 3.0500814e+2, 30298.346, -173479.66, -6547.77, -0.036214996, 0.01887313, 30508.521, 30508.521, 0.00000041978168, 10.001017, 9.998318 
6.551658e+2, 3.150056e+2, 170016.44, 41032.816, -13299.683, -0.08125322, -0.072164185, 171373.52, 171373.52, 0.000002202322, 10.001342, 9.999636 
6.6489357e+2, 1.2500437e+2, -1627965.1, -1689358.0, -68433.68, 0.04010578, -0.13284497, -1583658.6, 131292.45, 0.0, 10.000695, 9.999824 
6.649063e+2, 1.3500577e+2, -1640440.8, -1635777.0, 82521.12, -0.2982729, 0.0059478153, -1555554.8, 61384.773, 0.0, 9.999844, 9.999961 
6.649268e+2, 1.4500558e+2, -1581336.8, -1553166.3, 13127.023, 0.15844558, -0.001595478, -1547997.6, -29055.438, 0.0, 9.999587, 9.999962 
6.649392e+2, 1.550049e+2, -1404812.3, -1413386.4, 10077.451, -0.015478631, -0.072598435, -1398147.9, 22800.299, 0.0, 10.0001135, 9.999993 
6.649524e+2, 1.650048e+2, -1280563.1, -1297849.4, 18376.367, -0.105706, -0.08308552, -1268898.8, 54050.1, 0.0, 10.000272, 10.000036 
6.649672e+2, 1.7500523e+2, -1212211.5, -1212540.1, 3171.39, -0.053193133, -0.045938212, -1209200.1, 15744.3545, 0.0, 10.000062, 10.00005 
6.6498196e+2, 1.8500511e+2, -1161410.8, -1213473.5, 19837.219, -0.017992986, -0.027591705, -1154713.8, -27767.043, 0.0, 10.000065, 9.99937 
6.6499656e+2, 1.9500443e+2, -1030442.4, -1098073.5, 36973.68, -0.018551735, -0.036061704, -1014152.6, 14802.455, 0.0, 10.000284, 9.999384 
6.6501105e+2, 2.05004e+2, -916608.1, -988732.56, 31498.525, -0.017790819, -0.017055154, -904788.8, 26171.656, 0.0, 10.000377, 9.999418 
6.650255e+2, 2.1500385e+2, -822521.8, -890203.1, 26275.607, -0.009229646, 0.01966085, -813518.6, 19444.383, 0.0, 10.000341, 9.999437 
6.650395e+2, 2.250031e+2, -740159.0, -841193.06, 12011.535, -0.013058067, 0.021508733, -738750.6, -3779.786, 0.0, 10.000411, 9.999068 
6.650533e+2, 2.3500174e+2, -615508.8, -728386.5, 14372.783, -0.031229751, -0.02366257, -613707.44, 23276.832, 0.0, 10.000586, 9.999086 
6.650673e+2, 2.4500099e+2, -476053.6, -597135.5, 30092.672, -0.045535073, -0.011423523, -468987.03, 70004.62, 0.0, 10.000812, 9.999206 
6.650817e+2, 2.5500086e+2, -335812.72, -476281.03, 19181.45, -0.05446539, 0.049982045, -333240.53, 107752.2, 0.0, 10.001091, 9.999227 
6.650964e+2, 2.6499996e+2, -275584.72, -424266.1, 27733.06, -0.0496151, 0.051291734, -270580.22, 72419.88, 0.0, 10.000954, 9.998978 
6.6511124e+2, 2.7499825e+2, -258321.25, -362653.38, 31800.87, -0.03248694, -0.020435985, -249392.36, -4378.193, 0.0, 10.000388, 9.999 
6.6512555e+2, 2.849965e+2, -177415.6, -352545.9, -6074.589, -0.039852593, -0.05622865, -177205.16, -30174.781, 0.0, 10.000613, 9.998289 
6.6513896e+2, 2.9499483e+2, 70380.25, -186084.75, -14897.478, -0.07023969, -0.056949753, 71242.71, 120290.6, 0.000000008469742, 10.0016575, 9.998256 
6.6515344e+2, 3.049935e+2, 140387.78, -150797.98, -8155.9033, -0.02400998, -0.0006250091, 140616.05, 140616.05, 0.00000038345433, 10.001905, 9.998044 
6.651672e+2, 3.1499073e+2, 168678.13, 42693.484, -7075.689, -0.062184665, -0.09273292, 169074.28, 169074.28, 0.0000022156387, 10.001322, 9.999656 
6.7489356e+2, 1.2499121e+2, -1652702.5, -1743924.4, -89761.89, -0.028333923, -0.03299596, -1597628.0, 117453.03, 0.0, 10.000705, 9.999447 
6.7490697e+2, 1.3499093e+2, -1662963.3, -1682878.6, 47976.008, -0.21443032, -0.02646776, -1623922.5, -6836.2124, 0.0, 9.9998455, 9.999636 
6.7492723e+2, 1.4499064e+2, -1541588.5, -1471082.3, 29406.082, 0.24274749, -0.05885223, -1460427.9, 58661.547, 0.0, 9.999589, 10.0005245 
6.749391e+2, 1.5499143e+2, -1365286.6, -1331354.8, 30465.055, -0.040686864, -0.037659943, -1313450.1, 107628.945, 0.0, 10.000112, 10.000557 
6.7495215e+2, 1.6499174e+2, -1309780.1, -1357400.0, 9548.044, -0.15919973, -0.017452102, -1307937.0, 15139.293, 0.0, 10.000267, 9.99963 
6.7496735e+2, 1.7499146e+2, -1240666.4, -1271697.1, -4272.4204, -0.043441907, -0.011065736, -1240088.9, -15007.34, 0.0, 10.000062, 9.999644 
6.7498237e+2, 1.8499108e+2, -1128402.1, -1144727.4, 26976.438, 0.013382133, -0.020451035, -1108380.4, 18705.545, 0.0, 10.000064, 9.999843 
6.74997e+2, 1.9499062e+2, -997650.5, -1029700.2, 45224.746, -0.011302995, -0.055094425, -965695.4, 63393.973, 0.0, 10.000281, 9.999856 
6.750112e+2, 2.049904e+2, -926559.25, -1007945.44, 29032.477, -0.034993026, -0.032282278, -917264.2, 13828.101, 0.0, 10.00037, 9.9992895 
6.750254e+2, 2.1499045e+2, -832007.75, -909389.56, 25248.912, -0.048485905, 0.04016633, -824498.06, 8596.5625, 0.0, 10.000338, 9.999308 
6.750396e+2, 2.2498998e+2, -736027.3, -831523.2, 17716.213, -0.04448055, 0.07175877, -732846.56, 2253.6218, 0.0, 10.000406, 9.999137 
6.750539e+2, 2.3498894e+2, -610878.5, -718600.3, 21503.395, -0.024572777, 0.05063687, -606744.6, 30364.734, 0.0, 10.000584, 9.999154 
6.750683e+2, 2.4498758e+2, -496167.53, -637928.6, 39909.14, -0.02889529, 0.012477606, -485704.44, 53417.246, 0.0, 10.000808, 9.998927 
6.7508274e+2, 2.549859e+2, -357123.88, -518209.1, 30432.035, -0.05558529, -0.05277616, -351566.4, 89570.83, 0.0, 10.001081, 9.998944 
6.7509717e+2, 2.6498482e+2, -268854.4, -408891.1, 6025.5566, -0.06410568, -0.061925434, -268595.63, 74550.836, 0.0, 10.000947, 9.999085 
6.751115e+2, 2.7498427e+2, -249892.34, -345880.34, 10752.475, -0.05476616, -0.025238825, -248702.61, -3553.343, 0.0, 10.000392, 9.999113 
6.75126e+2, 2.8498295e+2, -191250.95, -382243.72, 32132.86, -0.04777435, -0.017914753, -185989.8, -38827.75, 0.0, 10.000616, 9.998083 
6.751409e+2, 2.949808e+2, 51709.297, -218908.61, 25730.904, -0.044156104, -0.04326549, 54134.113, 103318.5, 0.0000000040864183, 10.001632, 9.998043 
6.751556e+2, 3.0497873e+2, 121960.15, -184147.94, -29688.773, -0.0032117295, -0.0393288, 124813.016, 124813.016, 0.0000003121116, 10.001884, 9.997826 
6.751685e+2, 3.1497598e+2, 167977.34, 42056.043, -21097.387, -0.067931116, -0.10825742, 171418.06, 171418.06, 0.0000020914758, 10.001318, 9.999652 
6.84894e+2, 1.2497726e+2, -1743816.9, -1782574.9, -86138.72, -0.016183818, -0.0033326028, -1674904.1, 40314.195, 0.0, 10.000058, 9.999494 
6.849072e+2, 1.3497666e+2, -1553240.8, -1620742.9, 65825.42, -0.20537716, -0.039626665, -1513018.0, 104208.13, 0.0, 10.000562, 9.999716 
6.8492705e+2, 1.4497626e+2, -1421683.6, -1414113.1, 48052.1, 0.22919948, -0.08433856, -1369697.4, 149532.44, 0.0, 10.000417, 10.000516 
6.849389e+2, 1.5497738e+2, -1413415.5, -1355875.6, 5435.9, -0.04907582, -0.030501837, -1355366.6, 65850.11, 0.0, 9.999789, 10.000544 
6.8495214e+2, 1.6497776e+2, -1379696.9, -1392860.0, -10999.826, -0.1626642, 0.00077119, -1373460.0, -50246.62, 0.0, 9.999797, 9.999612 
6.849676e+2, 1.7497735e+2, -1186027.0, -1247328.3, 2353.2205, -0.041766673, -0.004234947, -1185936.9, 39283.484, 0.0, 10.000447, 9.999625 
6.849827e+2, 1.8497702e+2, -1043074.0, -1088029.5, 25356.213, 0.019036744, -0.014731079, -1031666.8, 95557.17, 0.0, 10.000583, 9.999982 
6.8499726e+2, 1.949768e+2, -999259.7, -1013519.1, 18125.244, -0.005299737, -0.039562788, -986912.3, 42311.977, 0.0, 10.000201, 10.000003 
6.850115e+2, 2.049766e+2, -954316.3, -1022056.94, 4778.6987, -0.030909438, -0.022055939, -953980.9, -22754.262, 0.0, 10.000185, 9.99928 
6.850258e+2, 2.1497643e+2, -802923.25, -896630.3, 8043.0737, -0.04910631, 0.02940954, -802237.9, 30993.152, 0.0, 10.000543, 9.999296 
6.850402e+2, 2.2497584e+2, -688520.1, -812595.25, 712.57935, -0.045981653, 0.053140786, -688516.0, 46721.457, 0.0, 10.000749, 9.999102 
6.850546e+2, 2.3497483e+2, -581201.06, -707237.06, -4828.0186, -0.023470037, 0.03772149, -581016.4, 56229.75, 0.0, 10.000802, 9.9991255 
6.850691e+2, 2.4497342e+2, -522263.2, -665687.2, 11758.5, -0.021848153, 0.0013553703, -521305.56, 17953.43, 0.0, 10.000694, 9.99879 
6.850837e+2, 2.5497156e+2, -462734.28, -584033.9, 11873.686, -0.040505286, -0.066648014, -461582.9, -20306.568, 0.0, 10.000422, 9.998809 
6.850981e+2, 2.649703e+2, -333206.8, -466972.47, -15340.631, -0.052352462, -0.0745661, -331470.06, 11817.802, 0.0, 10.000622, 9.998843 
6.851123e+2, 2.749696e+2, -132028.4, -316509.9, -38074.387, -0.05614054, -0.03382186, -124479.305, 120814.31, 0.0, 10.001319, 9.998868 
6.85127e+2, 2.849683e+2, -68306.9, -307137.9, -11657.878, -0.0507038, -0.018379426, -67739.195, 79566.91, 0.0, 10.001394, 9.998223 
6.8514216e+2, 2.9496637e+2, -56467.19, -254451.83, 5512.986, -0.038192492, -0.033818584, -56313.797, -6988.733, 0.0000000009738006, 10.000818, 9.99819 
6.8515706e+2, 3.0496398e+2, -15784.321, -264757.13, -30197.543, 0.0018633547, -0.06243107, -12174.057, -12174.057, 0.00000022618863, 10.001, 9.997698 
6.8517035e+2, 3.1496155e+2, 260996.45, 79491.34, -14137.744, -0.049532644, -0.08400434, 262091.06, 262091.06, 0.0000018666766, 10.001992, 9.999584 
6.948951e+2, 1.2496254e+2, -1710281.6, -1715958.4, -56524.332, 0.07501975, -0.05107016, -1656524.5, 58838.53, 0.0, 10.000068, 9.999948 
6.949071e+2, 1.3496293e+2, -1518271.3, -1547862.9, 83621.38, -0.27785563, -0.034946557, -1448146.9, 169211.88, 0.0, 10.000562, 10.000216 
6.949263e+2, 1.449625e+2, -1463741.8, -1500860.1, 21701.648, 0.11015461, -0.07862272, -1453745.6, 65617.24, 0.0, 10.000415, 9.999921 
6.949387e+2, 1.5496276e+2, -1454713.9, -1442512.1, -17090.316, -0.045855004, -0.05102278, -1430466.4, -9105.685, 0.0, 9.999793, 9.999948 
6.949523e+2, 1.6496293e+2, -1355115.1, -1342117.4, 12330.044, -0.12199857, -0.029214485, -1334678.3, -11318.513, 0.0, 9.999797, 9.999961 
6.94968e+2, 1.7496295e+2, -1161497.9, -1196417.9, 26943.127, -0.052379314, -0.026094679, -1146852.0, 78508.586, 0.0, 10.000445, 9.999976 
6.94983e+2, 1.8496299e+2, -1056202.3, -1113963.1, 9973.561, -0.005778823, -0.010957038, -1054528.6, 72832.08, 0.0, 10.000577, 9.999806 
6.9499743e+2, 1.9496301e+2, -1011991.9, -1039378.9, 4164.2437, -0.003115778, 0.008836063, -1011372.75, 17986.986, 0.0, 10.000198, 9.999827 
6.95012e+2, 2.0496264e+2, -947738.3, -1007721.9, 17204.52, -0.009128228, 0.01210139, -943154.06, -11790.643, 0.0, 10.000181, 9.999381 
6.950267e+2, 2.1496181e+2, -796729.75, -882953.75, 22062.03, -0.015729971, -0.011966012, -791412.6, 41959.484, 0.0, 10.000538, 9.999393 
6.950411e+2, 2.2496077e+2, -698435.0, -832089.75, 1771.7943, -0.02229554, -0.032766048, -698411.5, 36970.82, 0.0, 10.000744, 9.998971 
6.9505537e+2, 2.349595e+2, -591232.0, -727617.9, -2362.6267, -0.030964963, -0.060390014, -591191.1, 46203.07, 0.0, 10.000799, 9.998988 
6.950698e+2, 2.4495852e+2, -521819.97, -664507.0, 928.03827, -0.028307088, -0.045006704, -521813.94, 17589.582, 0.0, 10.000693, 9.998799 
6.9508433e+2, 2.5495788e+2, -461643.78, -582300.2, 2127.968, -0.012669404, 0.004430477, -461606.28, -20195.96, 0.0, 10.000423, 9.99882 
6.95099e+2, 2.6495644e+2, -373615.2, -551130.3, 10308.684, -0.0175375, 0.008695459, -373018.53, -29594.014, 0.0, 10.000623, 9.998265 
6.951137e+2, 2.7495423e+2, -175555.55, -403629.03, -10344.067, -0.042284973, -0.044016976, -175087.36, 70359.22, 0.0, 10.001305, 9.998277 
6.951284e+2, 2.8495258e+2, -37675.918, -240599.28, -32748.145, -0.054855153, -0.054245517, -32521.87, 114939.95, 0.0, 10.001382, 9.998687 
6.951428e+2, 2.9495153e+2, -23382.504, -185135.61, -15321.599, -0.056149594, -0.028665649, -21944.002, 27525.889, 0.000000000021633938, 10.000816, 9.998667 
6.951579e+2, 3.0494925e+2, -18226.205, -270083.6, 5627.3867, -0.010957572, -0.07086268, -18100.531, -18100.531, 0.00000014519733, 10.001, 9.997662 
6.9517267e+2, 3.149474e+2, 246983.3, 57869.1, 28226.266, -0.018478008, -0.030471394, 251106.31, 251106.31, 0.0000015881137, 10.00196, 9.999452 
7.048952e+2, 1.2494798e+2, -1689400.1, -1695430.4, -35359.496, 0.08033677, -0.086160675, -1656927.5, 58578.203, 0.0, 10.000165, 10.000042 
7.0490724e+2, 1.3494903e+2, -1611506.4, -1578917.6, 61125.332, -0.2863081, -0.01646933, -1531952.1, 85542.68, 0.0, 9.9998665, 10.000336 
7.049262e+2, 1.4494868e+2, -1548628.8, -1557197.4, -1285.7301, 0.08777412, -0.053974774, -1548440.0, -28941.406, 0.0, 9.999901, 9.999782 
7.04939e+2, 1.5494847e+2, -1368237.4, -1416765.0, -5495.1733, -0.028137129, -0.056368556, -1367622.9, 53878.21, 0.0, 10.000457, 9.999803 
7.0495284e+2, 1.6494843e+2, -1232072.4, -1272056.5, 40957.645, -0.095253065, -0.051641557, -1206488.0, 117013.625, 0.0, 10.000595, 10.000057 
7.0496833e+2, 1.7494853e+2, -1176941.3, -1192407.4, 35695.92, -0.052291725, -0.052607477, -1148150.4, 77350.305, 0.0, 10.000293, 10.000076 
7.0498335e+2, 1.8494855e+2, -1106157.3, -1152086.0, 4905.8477, -0.018798534, -0.03594095, -1105639.1, 21861.127, 0.0, 10.000297, 9.999679 
7.049977e+2, 1.9494854e+2, -959590.5, -1029292.8, 207.78326, -0.0155613525, -0.009424375, -959589.9, 69910.52, 0.0, 10.000623, 9.999692 
7.050123e+2, 2.0494801e+2, -876590.5, -980316.44, 14198.456, -0.012407559, -0.009830074, -874682.06, 56823.305, 0.0, 10.000698, 9.999321 
7.0502734e+2, 2.1494699e+2, -803724.9, -892402.8, 5927.671, -0.001777628, -0.04888845, -803330.4, 30185.182, 0.0, 10.000518, 9.999337 
7.050419e+2, 2.2494589e+2, -740400.9, -861040.5, -16274.8545, -0.009219512, -0.06808081, -738243.9, -2717.454, 0.0, 10.000494, 9.998892 
7.0505595e+2, 2.3494473e+2, -621135.44, -750811.3, -17587.432, -0.03772548, -0.07669307, -618792.44, 18745.541, 0.0, 10.000631, 9.998909 
7.0507044e+2, 2.449438e+2, -505537.22, -675022.56, -18631.832, -0.039610222, -0.045350045, -503513.16, 36034.504, 0.0, 10.000884, 9.998635 
7.050852e+2, 2.5494307e+2, -350242.3, -546918.7, -32109.291, -0.012924346, 0.016034339, -345132.9, 96422.57, 0.0, 10.001267, 9.998657 
7.051e+2, 2.6494157e+2, -285569.22, -512326.28, -7770.6436, -0.0120673515, 0.020477884, -285303.25, 58267.6, 0.0, 10.001244, 9.998233 
7.051148e+2, 2.7493918e+2, -251115.77, -442722.22, 11232.614, -0.036940094, -0.04357368, -250459.52, -4865.4194, 0.0, 10.000798, 9.998252 
7.0512944e+2, 2.849375e+2, -127835.47, -289721.28, -13324.554, -0.05294619, -0.05352285, -126746.08, 20863.506, 0.0, 10.000787, 9.998636 
7.051438e+2, 2.9493657e+2, 35896.566, -161681.31, -35337.6, -0.05982828, -0.016936695, 42026.645, 91643.766, 0.0, 10.001245, 9.998622 
7.051591e+2, 3.0493408e+2, 52801.773, -211578.63, -7181.144, -0.01104237, -0.08459001, 52996.684, 52996.684, 0.00000008201181, 10.001384, 9.997878 
7.051746e+2, 3.149327e+2, 133901.0, 3518.5432, 33676.746, 0.020671794, -0.01600961, 142085.64, 142085.64, 0.0000012936833, 10.00118, 9.999455 
7.1489453e+2, 1.2493366e+2, -1710299.1, -1738922.1, -38939.766, -0.009040678, -0.10939078, -1683124.1, 32521.469, 0.0, 10.000164, 9.999745 
7.149076e+2, 1.34935e+2, -1630202.6, -1617731.4, 48910.234, -0.23563026, 0.016755529, -1574660.9, 42973.074, 0.0, 9.999867, 10.000068 
7.1492684e+2, 1.4493476e+2, -1527349.8, -1513353.9, 16642.31, 0.15673904, -0.010596495, -1502298.1, 17338.598, 0.0, 9.999902, 10.000081 
7.149398e+2, 1.5493453e+2, -1346736.3, -1372736.3, 16375.295, 0.00039650392, -0.04739042, -1338828.1, 82809.65, 0.0, 10.000459, 10.000105 
7.149535e+2, 1.6493432e+2, -1242394.1, -1292912.4, 29251.492, -0.087347984, -0.06758002, -1229005.1, 94633.6, 0.0, 10.000593, 9.999915 
7.149687e+2, 1.749341e+2, -1186679.8, -1213112.9, 25092.273, -0.04479023, -0.084541954, -1171536.1, 54103.93, 0.0, 10.000295, 9.999934 
7.149836e+2, 1.8493378e+2, -1113542.3, -1167178.8, 16277.791, -0.02495611, -0.09076933, -1108988.8, 18653.725, 0.0, 10.000295, 9.999576 
7.1499807e+2, 1.9493335e+2, -967558.44, -1045188.4, 12838.204, -0.046793032, -0.093529, -965490.4, 64155.74, 0.0, 10.000619, 9.999586 
7.1501267e+2, 2.0493275e+2, -892485.6, -1011801.7, 6475.231, -0.044717316, -0.087113306, -892135.25, 39517.023, 0.0, 10.000691, 9.999108 
7.1502775e+2, 2.1493195e+2, -819558.4, -924256.9, -424.5744, -0.009927319, -0.08205247, -819556.7, 14104.668, 0.0, 10.000513, 9.999122 
7.1504235e+2, 2.249312e+2, -741896.25, -863735.4, -12007.039, -0.00963192, -0.054680362, -740724.25, -5054.464, 0.0, 10.000492, 9.998875 
7.1505654e+2, 2.3493053e+2, -623034.75, -753932.75, -11564.781, -0.047047667, -0.013051112, -622020.9, 15656.662, 0.0, 10.0006275, 9.99889 
7.150711e+2, 2.4492922e+2, -529779.9, -724464.1, -4856.505, -0.059448767, -0.00025148163, -529658.8, 10032.465, 0.0, 10.00088, 9.998298 
7.150861e+2, 2.5492728e+2, -375750.0, -598202.4, -16697.246, -0.043940954, -0.028149784, -374503.7, 67207.65, 0.0, 10.00126, 9.998309 
7.1510094e+2, 2.649257e+2, -251022.81, -439726.47, -24400.453, -0.038295396, -0.036364812, -247918.75, 95807.75, 0.0, 10.00124, 9.9987335 
7.1511555e+2, 2.749245e+2, -215831.56, -368351.56, -4898.999, -0.043671384, -0.033809114, -215674.38, 30062.203, 0.0, 10.000793, 9.998765 
7.1513027e+2, 2.8492308e+2, -165386.39, -367496.38, 3116.3718, -0.049257684, -0.018253472, -165338.34, -17588.51, 0.0, 10.000786, 9.998103 
7.1514505e+2, 2.9492143e+2, -3618.9224, -241291.42, -16432.096, -0.054990076, 0.003004163, -2488.2266, 47278.207, 0.0, 10.001234, 9.99808 
7.1516055e+2, 3.0491856e+2, 83232.55, -145912.06, -14262.48, -0.00310367, -0.10181245, 84116.87, 84116.87, 0.00000004119849, 10.001372, 9.998336 
7.1517617e+2, 3.1491753e+2, 140211.19, 22230.182, 30069.088, 0.057557594, -0.039897174, 147432.7, 147432.7, 0.0000010048329, 10.001156, 9.999595 
7.248944e+2, 1.24919884e+2, -1716050.5, -1753596.0, -46119.277, -0.03299776, -0.062303573, -1685029.6, 30751.947, 0.0, 10.000172, 9.999642 
7.2490776e+2, 1.3492069e+2, -1591809.3, -1608878.1, 43103.35, -0.21526188, 0.017536743, -1556403.5, 61371.63, 0.0, 10.000175, 9.999979 
7.249268e+2, 1.4492029e+2, -1495900.8, -1485189.0, 27614.242, 0.16072206, -0.025033057, -1462416.0, 57362.914, 0.0, 10.000062, 10.000197 
7.249398e+2, 1.5492038e+2, -1409730.3, -1390292.1, 13522.42, -0.010887877, -0.041796394, -1383358.4, 38417.94, 0.0, 9.999972, 10.000217 
7.2495365e+2, 1.6492029e+2, -1322764.5, -1341051.0, 14008.88, -0.096471444, -0.052557725, -1315179.1, 8596.802, 0.0, 10.000082, 9.99983 
7.24969e+2, 1.7491995e+2, -1177245.3, -1218432.9, 12012.704, -0.03575139, -0.071361944, -1173997.6, 51780.59, 0.0, 10.0004015, 9.9998455 
7.249841e+2, 1.8491939e+2, -1080102.6, -1163759.0, 12473.602, -0.0103669595, -0.091653384, -1078282.4, 49500.508, 0.0, 10.000578, 9.999463 
7.2499865e+2, 1.9491857e+2, -975906.3, -1060800.0, 7977.667, -0.040485073, -0.12179695, -975163.1, 54626.62, 0.0, 10.000614, 9.999479 
7.250133e+2, 2.0491786e+2, -902796.4, -1027095.75, -1233.1893, -0.05044496, -0.11712158, -902784.1, 29012.889, 0.0, 10.000666, 9.999015 
7.2502816e+2, 2.1491721e+2, -794639.06, -922641.4, -437.1098, -0.0322063, -0.08725463, -794637.56, 39167.203, 0.0, 10.000728, 9.99903 
7.250428e+2, 2.2491649e+2, -697933.1, -856250.2, -1561.3591, -0.02950987, -0.046650458, -697917.75, 37895.57, 0.0, 10.000852, 9.998754 
7.2505736e+2, 2.3491569e+2, -569181.0, -741332.7, -10803.409, -0.044430185, -0.0051648263, -568505.7, 69316.97, 0.0, 10.001055, 9.998772 
7.2507215e+2, 2.4491426e+2, -503380.22, -709674.9, 3219.7366, -0.05146787, -0.0008191021, -503329.97, 36507.566, 0.0, 10.001052, 9.998317 
7.250871e+2, 2.5491217e+2, -435377.6, -623985.25, 17651.506, -0.048996106, -0.045612033, -433739.84, 8118.4893, 0.0, 10.000837, 9.998335 
7.2510195e+2, 2.6491055e+2, -310342.75, -471024.25, -771.6029, -0.0458621, -0.057866678, -310339.03, 33534.695, 0.0, 10.000845, 9.99871 
7.251165e+2, 2.7490944e+2, -173844.39, -351077.38, -22330.979, -0.04267069, -0.045996204, -171074.03, 74809.53, 0.0, 10.001094, 9.99874 
7.2513133e+2, 2.8490806e+2, -107782.01, -346102.75, -4361.877, -0.03951975, -0.021340089, -107702.2, 40194.4, 0.0, 10.001207, 9.998047 
7.251465e+2, 2.949064e+2, -14035.637, -252316.81, 10586.645, -0.03728486, 0.008286865, -13566.205, 36346.85, 0.0, 10.001187, 9.998028 
7.251618e+2, 3.0490354e+2, 53992.426, -139654.52, 6759.1064, 0.002760334, -0.10281562, 54228.063, 54228.063, 0.000000018939705, 10.001085, 9.998517 
7.2517717e+2, 3.1490245e+2, 91960.44, -18122.574, 28821.06, 0.059644848, -0.06654313, 99049.6, 99049.6, 0.0000007295325, 10.000897, 9.999442 
7.3489493e+2, 1.2490667e+2, -1709754.1, -1741056.8, -38349.152, 0.0001980446, 0.054309983, -1683985.4, 31928.139, 0.0, 10.000172, 9.999729 
7.3490775e+2, 1.3490605e+2, -1585209.6, -1594595.5, 42020.586, -0.22951908, -0.01647507, -1547620.8, 70297.836, 0.0, 10.000174, 10.000077 
7.349262e+2, 1.4490527e+2, -1500305.1, -1494367.5, 22179.932, 0.09275299, -0.10039621, -1474958.6, 44966.61, 0.0, 10.000062, 10.0001335 
7.349393e+2, 1.5490605e+2, -1414483.5, -1401164.1, 11314.878, -0.067829184, -0.040107604, -1394694.5, 27221.854, 0.0, 9.999975, 10.000142 
7.349534e+2, 1.6490634e+2, -1326278.6, -1347965.9, 25099.145, -0.12896226, -0.006927001, -1309780.9, 14132.053, 0.0, 10.000081, 9.9997835 
7.3496956e+2, 1.749061e+2, -1180571.4, -1225343.5, 24413.4, -0.028484358, -0.012444002, -1169834.3, 56080.96, 0.0, 10.000401, 9.999799 
7.3498505e+2, 1.849054e+2, -1088226.4, -1179930.5, 12828.698, 0.021103228, -0.038349576, -1086465.5, 41455.684, 0.0, 10.000575, 9.999354 
7.349997e+2, 1.9490422e+2, -983808.06, -1077170.6, 9537.245, -0.0004600065, -0.0948616, -982843.75, 47087.496, 0.0, 10.000612, 9.999368 
7.3501414e+2, 2.0490335e+2, -901006.4, -1022450.9, 163.43025, -0.033647392, -0.10094548, -901006.1, 30933.287, 0.0, 10.000662, 9.999049 
7.3502845e+2, 2.149028e+2, -793402.0, -918678.44, 2409.4604, -0.07204448, -0.06397489, -793355.6, 40590.105, 0.0, 10.000721, 9.999061 
7.350432e+2, 2.2490178e+2, -714917.4, -890144.94, 4810.0674, -0.07221978, -0.043173283, -714785.44, 21171.398, 0.0, 10.000846, 9.998524 
7.3505855e+2, 2.3490027e+2, -586354.6, -775933.7, -2771.6257, -0.033466324, -0.050642394, -586314.1, 51658.92, 0.0, 10.001049, 9.998537 
7.350735e+2, 2.4489892e+2, -476672.3, -653946.44, -5494.087, -0.019990107, -0.045893077, -476502.2, 63484.215, 0.0, 10.001051, 9.998701 
7.350881e+2, 2.5489774e+2, -408820.4, -567185.5, 9899.776, -0.033200186, -0.037915964, -408203.94, 33792.867, 0.0, 10.000831, 9.998729 
7.3510283e+2, 2.648961e+2, -348720.03, -549350.7, 7985.1934, -0.039741337, -0.045001816, -348402.72, -4389.9585, 0.0, 10.000838, 9.998175 
7.351176e+2, 2.7489397e+2, -213707.61, -432231.28, -11893.376, -0.037871167, -0.07648795, -213062.2, 32972.4, 0.0, 10.001087, 9.998186 
7.351327e+2, 2.8489247e+2, -79717.734, -286609.53, -5171.0283, -0.027616136, -0.05964049, -79588.57, 68460.93, 0.0, 10.001202, 9.998458 
7.351479e+2, 2.9489154e+2, 14468.399, -190175.05, 11403.68, -0.012144893, -0.002331127, 15101.903, 65159.13, 0.0, 10.001175, 9.998461 
7.351629e+2, 3.0488908e+2, 45753.45, -155567.4, -352.69437, 0.0016987711, -0.089276716, 45754.07, 45754.07, 0.0000000073965225, 10.00108, 9.998411 
7.351777e+2, 3.1488764e+2, 59683.414, -82864.81, 23844.29, 0.01822203, -0.079205014, 63566.133, 63566.133, 0.0000004773962, 10.000889, 9.9990015 
7.448949e+2, 1.2489181e+2, -1818635.1, -1762873.4, -58141.195, 0.023513524, 0.05488925, -1726273.8, -10213.45, 0.0, 9.999293, 10.000003 
7.449078e+2, 1.3489147e+2, -1642561.5, -1591128.8, 23279.93, -0.22389042, -0.016072912, -1582156.8, 35904.523, 0.0, 9.999648, 10.000352 
7.44926e+2, 1.448907e+2, -1536789.0, -1529178.1, 4795.492, 0.067955665, -0.10347907, -1526861.6, -6794.528, 0.0, 9.999884, 9.999982 
7.449392e+2, 1.548913e+2, -1400251.5, -1411612.9, -12420.259, -0.074936986, -0.047750924, -1392274.5, 29786.295, 0.0, 10.000147, 9.999988 
7.449537e+2, 1.6489144e+2, -1300331.9, -1349347.6, 1639.9639, -0.12622158, -0.014918679, -1300277.0, 23782.201, 0.0, 10.000319, 9.99966 
7.4496996e+2, 1.748911e+2, -1190443.9, -1244039.9, -6106.494, -0.027047306, -0.016884435, -1189756.9, 36305.918, 0.0, 10.000394, 9.999673 
7.4498546e+2, 1.848905e+2, -1103079.9, -1178041.9, -18812.76, 0.017971972, -0.030694934, -1098623.5, 29444.473, 0.0, 10.000433, 9.999436 
7.4500006e+2, 1.948896e+2, -1004221.8, -1077889.5, -9111.446, -0.0122301765, -0.06653286, -1003111.6, 26963.203, 0.0, 10.000431, 9.999452 
7.4501467e+2, 2.0488872e+2, -920962.25, -1045419.6, -9384.219, -0.04501708, -0.0728592, -920258.7, 11824.388, 0.0, 10.000582, 9.99893 
7.450292e+2, 2.1488781e+2, -776260.6, -923276.94, -20202.598, -0.07345891, -0.058618136, -773535.0, 60557.97, 0.0, 10.000896, 9.998943 
7.450442e+2, 2.248866e+2, -692531.5, -878576.56, -18734.62, -0.06716971, -0.053086992, -690663.7, 45442.113, 0.0, 10.000996, 9.998531 
7.450595e+2, 2.34885e+2, -613358.8, -787564.75, -9409.796, -0.026066309, -0.0679143, -612852.0, 25269.941, 0.0, 10.000858, 9.998549 
7.450745e+2, 2.4488369e+2, -508397.22, -667764.44, -18889.234, -0.009096826, -0.061688628, -506188.94, 33945.793, 0.0, 10.000828, 9.998713 
7.450891e+2, 2.5488263e+2, -394886.9, -559501.6, -33544.027, -0.017420055, -0.043224912, -388314.0, 53830.156, 0.0, 10.000922, 9.998737 
7.4510384e+2, 2.64881e+2, -338401.47, -553446.56, -26273.143, -0.03098973, -0.045733225, -335238.1, 8922.215, 0.0, 10.000947, 9.998095 
7.4511856e+2, 2.7487877e+2, -244744.6, -456607.47, -12938.356, -0.04836198, -0.07927834, -243957.38, 2226.2754, 0.0, 10.000914, 9.998103 
7.451336e+2, 2.8487718e+2, -106960.42, -287073.5, -264.2677, -0.04045138, -0.07253252, -106960.03, 41239.367, 0.0, 10.00096, 9.998571 
7.451491e+2, 2.948762e+2, 10152.147, -178815.72, -8215.422, -0.009050117, -0.032785077, 10508.643, 60715.832, 0.0, 10.001087, 9.998581 
7.45164e+2, 3.0487424e+2, 70945.89, -146361.36, -26997.328, -0.0049683223, -0.07358574, 74249.695, 74249.695, 0.0000000015345106, 10.0012665, 9.9983835 
7.4517864e+2, 3.148729e+2, 135162.9, -74868.1, -811.02094, -0.0035490338, -0.048767917, 135166.05, 135166.05, 0.00000026410652, 10.00153, 9.998748 
7.5489414e+2, 1.24875255e+2, -1788718.5, -1700023.8, -40098.246, 0.021620765, -0.06652864, -1684583.5, 31638.654, 0.0, 9.999288, 10.000438 
7.549076e+2, 1.3487692e+2, -1612830.9, -1527104.0, 35483.2, -0.20222132, 0.019214747, -1514322.8, 103880.34, 0.0, 9.999639, 10.000795 
7.5492597e+2, 1.4487663e+2, -1553772.6, -1563617.6, 12228.792, 0.08282495, -0.032116026, -1545512.8, -25308.44, 0.0, 9.999881, 9.999747 
7.5493973e+2, 1.548761e+2, -1416260.6, -1445683.9, -1842.41, -0.03449427, -0.06402526, -1416145.8, 6063.689, 0.0, 10.00015, 9.999753 
7.5495434e+2, 1.6487557e+2, -1313418.1, -1377629.1, 3503.1404, -0.09265277, -0.078021295, -1313227.6, 10987.108, 0.0, 10.000322, 9.999464 
7.5497025e+2, 1.7487496e+2, -1204189.1, -1273794.9, -3023.03, -0.035930734, -0.08628543, -1204058.0, 22163.014, 0.0, 10.000398, 9.999468 
7.5498545e+2, 1.848747e+2, -1084593.4, -1138844.6, -19905.094, -0.02503277, -0.070314914, -1078073.6, 50149.38, 0.0, 10.000429, 9.999707 
7.549999e+2, 1.9487478e+2, -985420.8, -1038215.2, -8926.645, -0.07837036, -0.03689905, -983952.3, 46267.867, 0.0, 10.000428, 9.999725 
7.550148e+2, 2.04874e+2, -940863.1, -1085701.8, 1062.9009, -0.08688042, -0.03287881, -940855.3, -8627.577, 0.0, 10.000576, 9.998656 
7.5503045e+2, 2.1487229e+2, -796703.1, -964263.94, -8192.634, -0.0416964, -0.07059188, -796303.5, 37942.766, 0.0, 10.000889, 9.998667 
7.5504565e+2, 2.2487094e+2, -676059.8, -842195.5, -24668.813, -0.01993831, -0.07637987, -672474.2, 63785.94, 0.0, 10.000986, 9.998786 
7.550604e+2, 2.3486994e+2, -596431.44, -750668.4, -14227.96, -0.025006449, -0.057769816, -595129.94, 43139.32, 0.0, 10.000851, 9.998806 
7.550753e+2, 2.448686e+2, -533904.2, -719944.25, -15950.427, -0.020570513, -0.048631977, -532546.56, 7735.8013, 0.0, 10.000824, 9.998356 
7.550902e+2, 2.5486687e+2, -421281.78, -613633.0, -29066.186, -0.005648075, -0.059452914, -416985.53, 25314.361, 0.0, 10.000918, 9.998367 
7.551048e+2, 2.6486528e+2, -313384.06, -501144.63, -27637.654, -0.023804436, -0.05893093, -309400.4, 34915.633, 0.0, 10.000945, 9.998455 
7.5511914e+2, 2.7486378e+2, -219028.44, -401917.34, -12704.211, -0.07748334, -0.05851237, -218150.17, 28180.8, 0.0, 10.000907, 9.998482 
7.5513417e+2, 2.8486216e+2, -121081.336, -314983.6, 4727.708, -0.08076651, -0.062153347, -120966.13, 27380.28, 0.0, 10.000954, 9.9983835 
7.551499e+2, 2.9486045e+2, -5421.2104, -208840.2, -1751.743, -0.032012906, -0.075779125, -5406.1265, 44956.0, 0.0, 10.001077, 9.998381 
7.5516504e+2, 3.0485907e+2, 74415.945, -136240.56, -17539.865, -0.022959819, -0.051356163, 75866.375, 75866.375, 0.00000000001992495, 10.001253, 9.998459 
7.5518006e+2, 3.1485844e+2, 127455.54, -85089.51, 11251.515, -0.015599849, 0.035342183, 128049.5, 128049.5, 0.000000109993245, 10.001505, 9.99869 
7.6489353e+2, 1.24859765e+2, -1737938.4, -1679052.3, -17465.217, 0.0159494, -0.09510468, -1674261.9, 42111.906, 0.0, 9.999649, 10.000409 
7.6490724e+2, 1.3486175e+2, -1621765.5, -1534868.0, 12412.252, -0.19967774, 0.026829604, -1533129.8, 85222.41, 0.0, 9.999594, 10.000763 
7.649257e+2, 1.448616e+2, -1583766.8, -1581953.6, -12012.252, 0.078134395, -0.009779074, -1570813.8, -50461.05, 0.0, 9.999692, 9.999713 
7.649402e+2, 1.5486091e+2, -1427963.8, -1455414.3, -10755.19, -0.0057750586, -0.05145047, -1424251.8, -1892.7806, 0.0, 10.000087, 9.999718 
7.649548e+2, 1.6486025e+2, -1325861.3, -1383319.8, -2014.9829, -0.06651687, -0.07718482, -1325790.6, -1425.232, 0.0, 10.000233, 9.99947 
7.649703e+2, 1.7485951e+2, -1244060.3, -1291769.9, 5789.8213, -0.055512782, -0.09944304, -1243367.6, -16995.156, 0.0, 10.000117, 9.99948 
7.649855e+2, 1.8485919e+2, -1117163.6, -1163853.6, -6538.3296, -0.05890031, -0.084903754, -1116265.4, 12109.555, 0.0, 10.000247, 9.999622 
7.650002e+2, 1.9485928e+2, -960570.5, -1035940.6, -23893.313, -0.09245517, -0.04057174, -953634.4, 76738.16, 0.0, 10.000642, 9.999638 
7.6501536e+2, 2.0485856e+2, -927134.94, -1075583.0, -23770.37, -0.086415745, -0.029627178, -923421.56, 8958.29, 0.0, 10.000655, 9.998688 
7.6503104e+2, 2.1485691e+2, -887183.8, -1004689.7, -11307.161, -0.033748947, -0.064807445, -886105.7, -51708.137, 0.0, 10.000254, 9.998695 
7.6504636e+2, 2.2485562e+2, -772387.8, -879750.94, -13051.987, -0.011865719, -0.06985242, -770823.94, -34413.297, 0.0, 10.00029, 9.998862 
7.650612e+2, 2.3485467e+2, -599319.75, -743653.2, -18261.523, -0.024373915, -0.052790083, -597045.1, 41373.793, 0.0, 10.000796, 9.998879 
7.650761e+2, 2.4485333e+2, -504738.06, -712428.1, -20644.13, -0.025110917, -0.045631558, -502705.94, 37726.477, 0.0, 10.001053, 9.998298 
7.6509106e+2, 2.5485152e+2, -407030.1, -613632.9, -12503.998, -0.013491426, -0.058846794, -406276.06, 36175.492, 0.0, 10.001047, 9.998305 
7.651058e+2, 2.6485008e+2, -291096.47, -480828.53, -10224.204, -0.02766513, -0.045547478, -290547.1, 53919.543, 0.0, 10.001059, 9.998539 
7.6512015e+2, 2.7484894e+2, -187535.61, -376808.06, -18753.834, -0.0683717, -0.016718797, -185695.3, 60782.445, 0.0, 10.001081, 9.998569 
7.651352e+2, 2.8484726e+2, -110294.87, -314051.8, -4054.6416, -0.06956476, -0.028700324, -110214.22, 38279.42, 0.0, 10.001046, 9.998345 
7.6515096e+2, 2.9484504e+2, -22735.14, -221953.05, -483.7131, -0.030719237, -0.08734232, -22733.965, 27780.215, 0.0, 10.0009775, 9.998338 
7.651661e+2, 3.0484396e+2, 50160.69, -134874.98, -1641.2217, -0.035901494, -0.03726761, 50175.246, 50175.246, 0.0, 10.001029, 9.998577 
7.651813e+2, 3.1484318e+2, 87588.734, -88108.984, 26121.277, -0.027538551, 0.020639727, 91389.99, 91389.99, 0.000000028836135, 10.00116, 9.998835 
7.74893e+2, 1.2484545e+2, -1773282.0, -1752646.8, -15882.834, -0.0049002348, -0.020598128, -1744024.5, -27510.582, 0.00000000003061157, 9.99965, 9.999904 
7.7490664e+2, 1.3484597e+2, -1658974.9, -1611428.9, 9183.961, -0.22266254, 0.0068002944, -1609716.6, 8791.967, 0.0, 9.999593, 10.000237 
7.7492505e+2, 1.4484553e+2, -1570846.8, -1556115.5, -38.920715, 0.045321167, -0.0389875, -1556115.5, -35603.098, 0.0, 9.999695, 9.999888 
7.749404e+2, 1.5484573e+2, -1415691.5, -1431068.3, 4522.371, 0.0069890805, -0.011522411, -1414460.1, 8049.6597, 0.0, 10.00009, 9.999884 
7.749553e+2, 1.6484551e+2, -1310981.1, -1351764.0, -7220.2715, -0.052015997, -0.012294929, -1309740.6, 14770.428, 0.0, 10.00023, 9.999687 
7.749701e+2, 1.7484479e+2, -1228367.0, -1258976.8, 1852.1254, -0.089154236, -0.0547183, -1228255.4, -1738.797, 0.0, 10.000116, 9.999706 
7.7498543e+2, 1.8484403e+2, -1148244.3, -1228087.5, 7188.926, -0.08821673, -0.073931895, -1147602.1, -19078.723, 0.0, 10.000244, 9.999184 
7.750012e+2, 1.948432e+2, -992550.44, -1102046.3, -8736.406, -0.058863405, -0.07719652, -991857.75, 38673.746, 0.0, 10.000639, 9.999186 
7.750164e+2, 2.0484243e+2, -904918.3, -1027674.7, -39587.945, -0.048389982, -0.063267775, -893258.94, 39280.258, 0.0, 10.000648, 9.999021 
7.7503115e+2, 2.1484171e+2, -863989.06, -955688.4, -26325.307, -0.05221541, -0.041363154, -856968.94, -22422.32, 0.0, 10.00025, 9.999033 
7.7504635e+2, 2.2484066e+2, -780441.2, -896404.75, 4366.619, -0.04520863, -0.033973288, -780277.0, -43719.945, 0.0, 10.000288, 9.998749 
7.7506196e+2, 2.3483925e+2, -608351.3, -761047.56, 1349.4742, -0.028870312, -0.052119054, -608339.4, 30231.281, 0.0, 10.00079, 9.998764 
7.7507716e+2, 2.4483788e+2, -490177.2, -679582.3, -21304.775, -0.027805384, -0.052500967, -487810.34, 52774.387, 0.0, 10.00104, 9.998529 
7.7509177e+2, 2.5483653e+2, -391296.75, -578947.75, -11911.232, -0.043193083, -0.04407485, -390543.7, 52055.67, 0.0, 10.001038, 9.9985485 
7.751066e+2, 2.6483533e+2, -305655.56, -509939.44, -9415.551, -0.04429368, -0.0069902777, -305222.5, 39389.793, 0.0, 10.001053, 9.9983425 
7.751216e+2, 2.7483425e+2, -203838.8, -408307.66, -16561.498, -0.029249033, 0.049579628, -202506.03, 44117.605, 0.0, 10.001071, 9.998359 
7.751368e+2, 2.8483245e+2, -102458.22, -295276.06, -6932.463, -0.016854528, 0.02960497, -102209.3, 46431.543, 0.0, 10.001036, 9.99848 
7.751521e+2, 2.948299e+2, -14466.859, -203373.67, -236.59927, -0.009947244, -0.077433094, -14466.563, 36197.523, 0.0, 10.000971, 9.998469 
7.75167e+2, 3.0482885e+2, 57642.42, -117244.09, 4756.7593, -0.046825003, -0.035766345, 57771.703, 57771.703, 0.0, 10.0010195, 9.998703 
7.751822e+2, 3.1482738e+2, 103506.195, -50220.184, 32307.703, -0.053897955, -0.060414556, 110020.086, 110020.086, 0.0000000029769756, 10.001138, 9.999107 
7.8489244e+2, 1.2483048e+2, -1850818.4, -1811838.4, -36180.53, -0.003023873, 0.037691783, -1790232.3, -73570.49, 0.0000000009851104, 9.999208, 9.999712 
7.849065e+2, 1.3483025e+2, -1633952.5, -1623496.4, 3735.564, -0.20191382, 0.011617291, -1622299.0, -3634.628, 0.0, 9.999869, 10.000022 
7.8492486e+2, 1.4482962e+2, -1510689.9, -1511757.4, -1175.9042, 0.04162006, -0.048939165, -1509932.3, 10737.614, 0.0, 10.000039, 10.000029 
7.8494006e+2, 1.5483019e+2, -1450434.4, -1431078.5, 868.98676, -0.014562529, 0.0009102265, -1431039.5, -8376.636, 0.0, 9.999779, 10.000034 
7.849551e+2, 1.6483016e+2, -1364815.3, -1375907.3, -13695.434, -0.068565145, 0.014091741, -1355585.5, -30923.727, 0.0, 9.999855, 9.999702 
7.849704e+2, 1.7482954e+2, -1199716.0, -1244166.3, -22486.125, -0.079182215, -0.021606574, -1190325.0, 36341.945, 0.0, 10.000309, 9.999715 
7.849859e+2, 1.8482868e+2, -1132572.8, -1232699.4, -16222.887, -0.06844724, -0.04407864, -1130009.9, -1334.9806, 0.0, 10.000403, 9.999076 
7.8500164e+2, 1.9482762e+2, -1077655.6, -1154842.0, -7641.4434, -0.04904601, -0.06185695, -1076906.4, -46220.51, 0.0, 10.000106, 9.999081 
7.8501695e+2, 2.0482673e+2, -951159.3, -1040861.2, -29446.244, -0.043542657, -0.058299057, -942356.8, -9662.414, 0.0, 10.000294, 9.9991 
7.850318e+2, 2.14826e+2, -748516.56, -891338.1, -37054.285, -0.04671796, -0.042357776, -739475.4, 95225.414, 0.0, 10.001007, 9.99911 
7.85047e+2, 2.2482501e+2, -661042.2, -840211.9, -17992.85, -0.044001427, -0.033197645, -659253.1, 77457.4, 0.0, 10.001115, 9.998736 
7.850625e+2, 2.3482369e+2, -639912.25, -777777.3, -15444.583, -0.03879726, -0.041705236, -638203.25, 520.77313, 0.0, 10.000581, 9.998749 
7.8507775e+2, 2.4482244e+2, -566978.7, -701956.5, -30368.541, -0.034633573, -0.033822212, -560460.8, -19723.818, 0.0, 10.000452, 9.998658 
7.850928e+2, 2.548213e+2, -423711.22, -580175.0, -30818.389, -0.031321213, -0.01812287, -417859.8, 24889.7, 0.0, 10.000754, 9.998676 
7.851078e+2, 2.6482013e+2, -327732.03, -507313.75, -27810.572, -0.025025873, 0.010822415, -323523.8, 21237.8, 0.0, 10.000844, 9.998462 
7.851227e+2, 2.7481893e+2, -245759.17, -415587.0, -12788.477, -0.015532695, 0.042710833, -244801.56, 1972.0449, 0.0, 10.000727, 9.998474 
7.8513783e+2, 2.848172e+2, -138873.61, -308173.47, 10600.467, -0.007122422, 0.018825583, -138212.45, 10578.101, 0.0, 10.000766, 9.998521 
7.8515315e+2, 2.9481488e+2, -16929.98, -199667.23, 7848.053, 0.00013712846, -0.06855408, -16593.549, 34218.94, 0.0, 10.000935, 9.99851 
7.8516793e+2, 3.0481413e+2, 49492.06, -108306.83, 7938.944, -0.046317816, -0.0057109166, 49890.465, 49890.465, 0.0, 10.000909, 9.998817 
7.85183e+2, 3.1481215e+2, 66342.42, -26993.434, 28725.254, -0.06062094, -0.09137187, 74474.46, 74474.46, 0.0, 10.000707, 9.999473 
7.948918e+2, 1.2481484e+2, -1841004.0, -1792372.8, -9140.13, 0.004127935, 0.0791821, -1790711.6, -73894.36, 0.0000000034592607, 9.99921, 9.999846 
7.94907e+2, 1.3481458e+2, -1625733.1, -1608306.5, 28130.523, -0.13843077, 0.040612474, -1587570.8, 31248.605, 0.0, 9.999877, 10.000123 
7.9492515e+2, 1.4481387e+2, -1501905.9, -1494426.4, -12989.925, 0.064475596, -0.038970612, -1484648.6, 36176.28, 0.0, 10.000044, 10.000145 
7.949392e+2, 1.5481432e+2, -1441598.0, -1411969.9, -8600.135, -0.077443935, -0.013493016, -1409654.5, 13163.406, 0.0, 9.999776, 10.000166 
7.949544e+2, 1.648143e+2, -1379434.8, -1405602.0, 2007.5706, -0.12383989, 0.0016119811, -1379281.6, -54464.336, 0.0, 9.99985, 9.999501 
7.9497117e+2, 1.7481378e+2, -1214649.9, -1275980.0, -4838.3384, -0.027986929, -0.0007221192, -1214270.5, 12552.83, 0.0, 10.000311, 9.999496 
7.94987e+2, 1.848132e+2, -1117050.4, -1199742.5, -28102.887, -0.0029619115, 0.003610508, -1108403.8, 20425.605, 0.0, 10.000401, 9.999303 
7.9500157e+2, 1.9481255e+2, -1061833.4, -1120990.9, -18808.924, -0.06655411, 0.0047086375, -1056359.6, -25524.209, 0.0, 10.000102, 9.999314 
7.950169e+2, 2.0481147e+2, -964096.6, -1066722.0, -4396.268, -0.07581573, -0.014895795, -963908.7, -31063.4, 0.0, 10.000288, 9.998925 
7.950331e+2, 2.148099e+2, -762596.75, -918350.7, -9808.797, -0.021174045, -0.06667916, -761981.44, 72878.07, 0.0, 10.000997, 9.99893 
7.950485e+2, 2.2480874e+2, -657188.25, -829741.5, -38351.82, -0.01291658, -0.0669619, -649048.1, 87822.62, 0.0, 10.001103, 9.998814 
7.950629e+2, 2.3480803e+2, -634520.9, -766106.0, -35146.504, -0.056179155, -0.022155754, -625721.6, 13157.199, 0.0, 10.000579, 9.998831 
7.9507804e+2, 2.4480708e+2, -565558.1, -699088.56, -19950.379, -0.04875749, 0.010126434, -562641.1, -21752.006, 0.0, 10.000451, 9.998678 
7.95094e+2, 2.5480592e+2, -423808.72, -578416.44, -18579.02, 0.01398504, 0.020886194, -421607.47, 21294.168, 0.0, 10.000745, 9.9986925 
7.951091e+2, 2.6480457e+2, -299240.8, -445916.75, -32500.646, 0.022630034, 0.009368754, -292361.88, 52552.473, 0.0, 10.0008335, 9.998889 
7.951233e+2, 2.74803e+2, -215556.13, -352353.0, -15976.496, -0.027980356, -0.039592586, -213715.02, 33212.85, 0.0, 10.000724, 9.998911 
7.9513824e+2, 2.8480145e+2, -144592.78, -319410.16, 17301.195, -0.040094238, -0.06003885, -142896.98, 6045.8794, 0.0, 10.000762, 9.9984455 
7.95154e+2, 2.948e+2, -24444.422, -212589.58, 15796.86, -0.011126362, -0.052407764, -23127.32, 27831.55, 0.0, 10.000921, 9.998429 
7.951688e+2, 3.0479977e+2, 58141.438, -88316.85, -875.1404, -0.04647089, 0.058270708, 58146.664, 58146.664, 0.0, 10.000901, 9.998959 
7.951838e+2, 3.147974e+2, 98798.37, 38756.57, 20696.434, -0.056528438, -0.080485, 105241.1, 105241.1, 0.0, 10.000714, 9.999922 
8.048916e+2, 1.2479851e+2, -1730104.8, -1738092.1, -1072.5555, 0.03453157, 0.06168381, -1729963.3, -12985.827, 0.0000000057252847, 9.999968, 9.999855 
8.0490696e+2, 1.347985e+2, -1647079.4, -1620155.5, 20288.287, -0.11885569, 0.049939565, -1609269.1, 9708.014, 0.0, 9.999739, 10.000108 
8.0492496e+2, 1.4479782e+2, -1554487.1, -1523225.0, -37220.973, 0.06060546, -0.024022678, -1498486.1, 22496.297, 0.0, 9.999701, 10.000112 
8.049391e+2, 1.54798e+2, -1414244.1, -1403327.3, -46679.465, -0.07567895, -0.020801956, -1361788.3, 61190.105, 0.0, 9.999985, 10.000125 
8.049544e+2, 1.6479795e+2, -1349584.6, -1388119.6, -27785.023, -0.11640853, -0.008586795, -1335040.3, -10062.096, 0.0, 10.000042, 9.99953 
8.0497134e+2, 1.7479762e+2, -1279756.1, -1303735.1, -17572.32, -0.020212263, 0.006086822, -1270472.8, -43490.39, 0.0, 9.999849, 9.999528 
8.049872e+2, 1.847972e+2, -1175199.6, -1216532.3, -37048.49, 0.0029651583, 0.018386511, -1153443.1, -24456.186, 0.0, 9.999955, 9.999402 
8.0500185e+2, 1.9479662e+2, -1011622.6, -1086007.9, -39239.02, -0.06295084, 0.017765738, -994750.56, 36241.668, 0.0, 10.0004015, 9.99941 
8.0501735e+2, 2.0479561e+2, -925509.3, -1036019.94, -13274.725, -0.07358198, -0.0039728275, -923937.1, 9063.941, 0.0, 10.000502, 9.999033 
8.050336e+2, 2.1479411e+2, -867527.75, -956058.7, 1540.2427, -0.021472456, -0.05884293, -867500.94, -32486.984, 0.0, 10.000222, 9.9990425 
8.050491e+2, 2.24793e+2, -783430.75, -896739.6, -29816.729, -0.006834963, -0.058672093, -776063.6, -39038.72, 0.0, 10.000264, 9.998757 
8.050637e+2, 2.3479228e+2, -627525.9, -769688.3, -38668.34, -0.03289162, -0.008535326, -617688.75, 21345.006, 0.0, 10.000657, 9.998768 
8.050789e+2, 2.4479125e+2, -515451.47, -661096.75, -21290.92, -0.024431283, 0.012278893, -512402.9, 28641.762, 0.0, 10.000736, 9.998802 
8.0509466e+2, 2.547899e+2, -452008.56, -577738.9, -13515.356, 0.019925222, -0.008020107, -450572.13, -7514.2085, 0.0, 10.00049, 9.998819 
8.0510974e+2, 2.6478863e+2, -338767.28, -450226.88, -30594.6, 0.023773652, -0.024253396, -330921.6, 14147.796, 0.0, 10.0005, 9.999019 
8.0512416e+2, 2.7478746e+2, -199517.25, -329943.03, -38122.133, -0.015082639, -0.048712518, -189191.95, 57887.496, 0.0, 10.000772, 9.999041 
8.051391e+2, 2.847861e+2, -133085.86, -310359.63, -14171.441, -0.029839538, -0.05742789, -131960.14, 17132.719, 0.0, 10.000827, 9.998476 
8.051547e+2, 2.9478467e+2, -60238.69, -226889.64, -9817.921, -0.02047256, -0.052287363, -59662.28, -8552.948, 0.0, 10.000664, 9.998455 
8.0516964e+2, 3.0478442e+2, 35180.723, -131384.89, -28369.414, -0.05391341, 0.07071291, 39880.016, 39880.016, 0.0, 10.000881, 9.9986725 
8.0518514e+2, 3.1478205e+2, 210178.39, 96420.49, -42588.492, -0.027402535, -0.03837808, 224355.72, 224355.72, 0.0, 10.001463, 9.999957 
8.14892e+2, 1.24781564e+2, -1736567.3, -1754403.9, -9062.401, 0.0716377, -0.0120934555, -1732770.9, -15629.362, 0.000000004999778, 9.999981, 9.999737 
8.1490636e+2, 1.3478206e+2, -1658053.5, -1640351.4, 10506.859, -0.15189357, 0.03942414, -1635464.4, -16327.204, 0.0, 9.999731, 9.999971 
8.1492424e+2, 1.4478154e+2, -1569353.5, -1553495.6, -28732.715, 0.02141099, -0.0022815166, -1531617.9, -10475.786, 0.0, 9.999696, 9.9999075 
8.1493974e+2, 1.5478128e+2, -1427571.5, -1434083.3, -34834.496, -0.010546849, -0.020994551, -1395841.0, 27302.732, 0.0, 9.999995, 9.99991 
8.149551e+2, 1.6478114e+2, -1330752.4, -1350356.0, -35931.977, -0.0484823, -0.018314369, -1303309.3, 21835.094, 0.0, 10.000048, 9.999785 
8.149708e+2, 1.7478111e+2, -1261388.1, -1263957.4, -24843.504, -0.06130124, -0.00243184, -1237796.0, -10652.124, 0.0, 9.999843, 9.999804 
8.149866e+2, 1.8478072e+2, -1178445.9, -1221883.9, -21794.455, -0.056465715, 0.0004629323, -1169396.1, -40248.637, 0.0, 9.999948, 9.99937 
8.150025e+2, 1.9477989e+2, -1014709.4, -1092225.0, -22201.426, -0.041336697, -0.021044632, -1008801.0, 22354.895, 0.0, 10.0004, 9.999369 
8.150181e+2, 2.0477922e+2, -899189.25, -980421.7, -24374.27, -0.039954703, -0.02545918, -892436.9, 40724.598, 0.0, 10.000498, 9.999416 
8.1503356e+2, 2.1477872e+2, -840673.44, -899281.5, -8993.064, -0.0506787, -0.01994396, -839324.5, -4160.432, 0.0, 10.000217, 9.999435 
8.150492e+2, 2.2477783e+2, -796668.56, -923537.7, -16726.477, -0.030041682, -0.008562079, -794500.4, -57327.535, 0.0, 10.00026, 9.998575 
8.15065e+2, 2.3477651e+2, -642275.9, -798758.7, -23462.576, 0.025482241, -0.00012304765, -638833.7, 354.69974, 0.0, 10.000649, 9.998572 
8.150802e+2, 2.4477501e+2, -501486.66, -630782.06, -30942.703, 0.033142738, -0.02673896, -494463.06, 46740.39, 0.0, 10.00073, 9.999014 
8.1509477e+2, 2.547733e+2, -436338.9, -545131.2, -22423.615, -0.012959708, -0.10358512, -431898.34, 11319.886, 0.0, 10.000489, 9.999045 
8.151098e+2, 2.647724e+2, -350357.94, -474148.47, -20843.172, -0.021900998, -0.0883909, -346942.7, -1716.1627, 0.0, 10.000498, 9.998856 
8.1512517e+2, 2.7477232e+2, -212621.75, -355568.5, -26717.105, 0.012216749, 0.016784083, -207791.48, 39436.574, 0.0, 10.000764, 9.998869 
8.1514037e+2, 2.8477114e+2, -123601.18, -289597.34, -21140.895, 0.012390566, 0.025240293, -120951.03, 28289.387, 0.0, 10.000821, 9.998622 
8.151552e+2, 2.9476878e+2, -50857.53, -207175.53, -14685.413, -0.029300224, -0.075073965, -49489.863, 1774.4852, 0.0, 10.000661, 9.998592 
8.1517035e+2, 3.0476806e+2, -15283.946, -234281.02, -5894.3726, -0.06887595, 0.02840749, -15125.412, -15125.412, 0.0, 10.000873, 9.99797 
8.15187e+2, 3.1476614e+2, 178838.42, 37037.13, -19792.559, 0.00691721, 0.034598272, 181549.23, 181549.23, 0.0000000016901937, 10.001437, 9.999562 
8.24892e+2, 1.247649e+2, -1704105.4, -1725673.6, -18173.5, 0.06403036, -0.045171034, -1693757.3, 23547.186, 0.0000000017683296, 10.000149, 9.99985 
8.2490623e+2, 1.3476573e+2, -1595665.6, -1602205.3, 11759.617, -0.1575971, 0.032957986, -1586729.8, 32566.656, 0.0, 10.000124, 10.000044 
8.24924e+2, 1.4476536e+2, -1534113.5, -1564154.1, -8953.864, 0.011882582, 0.0149134705, -1531647.1, -10346.816, 0.0, 10.000056, 9.9996605 
8.2493997e+2, 1.5476495e+2, -1442725.3, -1469536.5, -19396.922, 0.008244108, 0.0051955893, -1432552.3, -9247.211, 0.0, 10.000013, 9.999658 
8.2495534e+2, 1.6476461e+2, -1330815.1, -1341990.9, -34847.33, -0.028628971, -0.003113585, -1301110.5, 24197.24, 0.0, 10.000013, 9.999858 
8.249706e+2, 1.7476435e+2, -1221698.5, -1236767.1, -39764.715, -0.07229098, -0.018305594, -1188760.6, 38547.688, 0.0, 10.000081, 9.999875 
8.2498646e+2, 1.8476392e+2, -1147990.5, -1201146.8, -28182.902, -0.072838776, -0.024900919, -1135830.1, -6518.6104, 0.0, 10.000132, 9.999422 
8.250028e+2, 1.9476327e+2, -1045740.25, -1101228.1, -22945.387, -0.036887016, -0.033587527, -1037481.2, -6163.2246, 0.0, 10.000162, 9.999421 
8.2501864e+2, 2.0476274e+2, -939640.9, -996906.4, -46504.39, -0.028449237, -0.028388793, -913661.44, 19661.047, 0.0, 10.000208, 9.999442 
8.250339e+2, 2.1476233e+2, -830598.2, -891834.44, -59946.176, -0.046660997, -0.01574908, -793903.5, 41421.242, 0.0, 10.000276, 9.999458 
8.250495e+2, 2.2476147e+2, -778084.75, -894939.56, -57180.133, -0.027877051, -0.010120983, -754760.5, -17427.451, 0.0, 10.000303, 9.998752 
8.250655e+2, 2.3476012e+2, -682679.1, -797804.3, -37603.74, 0.030375024, -0.022436218, -671484.94, -32136.799, 0.0, 10.000285, 9.998754 
8.2508075e+2, 2.4475878e+2, -544287.3, -642366.75, -40850.23, 0.034184143, -0.045919485, -529502.0, 11859.351, 0.0, 10.000399, 9.999093 
8.250953e+2, 2.5475746e+2, -405711.0, -521241.2, -44455.688, -0.022095472, -0.09175301, -390585.0, 52787.563, 0.0, 10.000661, 9.9991255 
8.251104e+2, 2.647566e+2, -314628.78, -473714.8, -42132.652, -0.032150757, -0.070166215, -304159.28, 41221.688, 0.0, 10.000817, 9.998704 
8.25126e+2, 2.7475616e+2, -210598.88, -372094.7, -48414.7, 0.010460878, 0.014131188, -197196.86, 50189.87, 0.0, 10.0008545, 9.998711 
8.251413e+2, 2.847549e+2, -118303.68, -285326.5, -55645.977, 0.022626428, 0.024247484, -101462.555, 47937.273, 0.0, 10.000851, 9.998637 
8.251562e+2, 2.947528e+2, -30285.91, -194782.0, -60299.734, -0.0028091893, -0.050824203, -10549.649, 40871.168, 0.0, 10.000793, 9.998613 
8.2517135e+2, 3.0475166e+2, -40704.484, -263467.0, -19738.512, -0.04890692, 0.01850913, -38969.02, -38969.02, 0.0, 10.000771, 9.997818 
8.251879e+2, 3.1474948e+2, 88181.76, 5109.4487, 799.1112, 0.00039427512, 0.0094325375, 88189.445, 88189.445, 0.000000023716037, 10.000765, 9.999665 
8.348914e+2, 1.24748595e+2, -1679549.5, -1676615.9, -17370.014, -0.008876967, -0.035072602, -1660650.9, 56814.543, 0.000000000051048894, 10.000153, 10.000187 
8.349066e+2, 1.347496e+2, -1571687.1, -1557481.0, 12104.929, -0.13952081, 0.029483283, -1550549.0, 68905.195, 0.0, 10.000142, 10.000342 
8.349243e+2, 1.4474936e+2, -1555008.5, -1609274.9, -12304.936, 0.027608078, 0.02453695, -1552348.8, -30891.896, 0.0, 10.000066, 9.999346 
8.349396e+2, 1.5474905e+2, -1465404.0, -1514715.9, -20784.68, -0.024095263, 0.057448056, -1457812.3, -34350.406, 0.0, 10.000007, 9.999351 
8.3495504e+2, 1.6474842e+2, -1339165.6, -1358574.5, -32986.367, -0.06285879, 0.039499838, -1314485.9, 10981.966, 0.0, 10.000008, 9.999747 
8.3497083e+2, 1.747474e+2, -1228447.6, -1253032.9, -36249.06, -0.056858763, -0.039318964, -1202463.5, 25011.457, 0.0, 10.000089, 9.999761 
8.3498675e+2, 1.8474685e+2, -1139400.9, -1183325.3, -27993.168, -0.050544705, -0.058168814, -1125782.9, 3695.7263, 0.0, 10.000133, 9.999544 
8.350027e+2, 1.9474678e+2, -1037456.44, -1082429.3, -21829.656, -0.053048443, -0.021481657, -1028603.25, 2875.0452, 0.0, 10.0001545, 9.999553 
8.350187e+2, 2.047462e+2, -963554.0, -1045217.75, -45167.617, -0.04275764, -0.012475357, -943497.8, -10014.155, 0.0, 10.000201, 9.999114 
8.3503443e+2, 2.1474501e+2, -854544.4, -941183.5, -57356.992, -0.013789575, -0.044865157, -825986.2, 9509.263, 0.0, 10.000273, 9.999121 
8.3505e+2, 2.24744e+2, -742538.2, -820555.44, -58994.453, -0.004018307, -0.06261299, -710821.9, 26683.34, 0.0, 10.0003, 9.999265 
8.350653e+2, 2.3474318e+2, -645212.56, -719845.06, -38329.48, -0.018011717, -0.07451093, -629034.4, 10478.306, 0.0, 10.000283, 9.99929 
8.350806e+2, 2.4474265e+2, -547881.25, -649171.1, -32114.867, -0.022138163, -0.044317454, -538557.25, 2960.7654, 0.0, 10.000395, 9.999049 
8.35096e+2, 2.5474238e+2, -411396.34, -531264.06, -33861.184, -0.015112834, 0.023596985, -402492.38, 41028.535, 0.0, 10.000652, 9.999061 
8.351113e+2, 2.647412e+2, -325959.94, -495596.16, -41120.22, -0.01452396, 0.026155755, -316517.84, 29015.01, 0.0, 10.000809, 9.998558 
8.351265e+2, 2.74739e+2, -222551.47, -394612.3, -45958.52, -0.02018926, -0.05631672, -211045.14, 36510.07, 0.0, 10.000843, 9.998563 
8.351419e+2, 2.847375e+2, -128461.96, -303805.97, -56912.92, 0.0005226418, -0.05732668, -111609.03, 37961.53, 0.0, 10.000839, 9.998516 
8.3515745e+2, 2.947368e+2, -39386.742, -211730.89, -60111.12, 0.04751122, 0.022593932, -20492.297, 31086.014, 0.0, 10.000785, 9.998501 
8.3517253e+2, 3.0473536e+2, -14278.106, -208742.22, -19412.545, -0.0044674175, 0.043807894, -12359.168, -12359.168, 0.0, 10.00077, 9.998195 
8.3518815e+2, 3.147319e+2, 126243.96, 85402.67, 1027.9329, -0.05256589, -0.12580036, 126269.82, 126269.82, 0.00000010288848, 10.000758, 10.00022 
8.448913e+2, 1.2473279e+2, -1675406.6, -1694912.8, 3607.5261, -0.033656996, -0.0006596742, -1674760.8, 42859.66, 0.0, 10.000267, 10.000006 
8.4490687e+2, 1.3473333e+2, -1587635.8, -1587565.4, -10154.042, -0.12111692, 0.037307374, -1577446.5, 42167.953, 0.0, 10.0001335, 10.000137 
8.449245e+2, 1.4473292e+2, -1541474.3, -1583955.9, -32003.152, 0.044129256, 0.01921995, -1524304.5, -2686.3826, 0.0, 10.000079, 9.999512 
8.449396e+2, 1.5473272e+2, -1429409.8, -1477672.4, -3011.038, -0.03177671, 0.042851683, -1429222.6, -5602.018, 0.0, 10.00017, 9.999525 
8.44955e+2, 1.647321e+2, -1317763.4, -1376194.6, 3353.1487, -0.073600575, 0.031595383, -1317571.5, 8054.6157, 0.0, 10.000276, 9.999497 
8.449711e+2, 1.7473106e+2, -1201661.3, -1269264.3, -13115.384, -0.052108757, -0.02393074, -1199206.0, 28429.094, 0.0, 10.0004, 9.999499 
8.4498703e+2, 1.8473038e+2, -1110496.9, -1172585.6, -23244.555, -0.042065643, -0.041833926, -1102759.0, 26881.35, 0.0, 10.000342, 9.999517 
8.450029e+2, 1.9473006e+2, -1050187.8, -1090863.1, -29160.041, -0.05381945, -0.028499993, -1034973.7, -3331.898, 0.0, 10.000076, 9.999534 
8.4501874e+2, 2.0472932e+2, -993854.9, -1066939.5, -37805.71, -0.040509734, -0.02949598, -977817.6, -44169.215, 0.0, 10.000023, 9.999051 
8.4503484e+2, 2.147281e+2, -870269.25, -956037.44, -30833.81, 0.004146703, -0.05879705, -860335.06, -24674.03, 0.0, 10.000196, 9.999056 
8.450504e+2, 2.2472715e+2, -732357.3, -804098.6, -39499.16, 0.005865045, -0.0716993, -714871.75, 22798.383, 0.0, 10.000321, 9.999366 
8.4506536e+2, 2.3472653e+2, -621502.4, -696797.44, -52613.383, -0.042557508, -0.07524317, -594454.44, 45220.83, 0.0, 10.000396, 9.999394 
8.4508073e+2, 2.4472608e+2, -550140.0, -657610.56, -60397.895, -0.04706575, -0.038738962, -523033.53, 18646.395, 0.0, 10.000411, 9.998982 
8.4509665e+2, 2.5472578e+2, -459600.6, -562262.8, -64480.438, -0.0023984597, 0.031444773, -428514.44, 15169.797, 0.0, 10.000356, 9.99899 
8.451121e+2, 2.6472458e+2, -382621.94, -498672.38, -61254.96, 0.005191032, 0.024246156, -356272.4, -10575.987, 0.0, 10.000317, 9.998774 
8.45127e+2, 2.7472234e+2, -284521.66, -398932.16, -40776.92, -0.027671637, -0.07906731, -271475.94, -23758.355, 0.0, 10.00031, 9.998787 
8.451424e+2, 2.8472096e+2, -177880.98, -327284.47, -26795.146, -0.015396726, -0.08238464, -173220.7, -23489.3, 0.0, 10.000501, 9.998516 
8.451583e+2, 2.9472044e+2, -25648.518, -205312.19, -23912.246, 0.04621402, 0.012408792, -22520.393, 29217.203, 0.0, 10.000881, 9.998497 
8.451735e+2, 3.047187e+2, 14695.196, -192628.25, -1640.7166, 0.00306218, 0.005556903, 14708.18, 14708.18, 0.00000000024035085, 10.000961, 9.998212 
8.45189e+2, 3.1471574e+2, 125130.555, 93965.31, -12586.682, -0.045409314, -0.1177994, 129578.98, 129578.98, 0.00000026211356, 10.000711, 10.000301 
8.5489166e+2, 1.2471757e+2, -1726343.6, -1802039.0, -3633.1917, -0.027858058, 0.058300767, -1726169.6, -8400.785, 0.0, 10.000274, 9.999268 
8.5490716e+2, 1.3471694e+2, -1641820.8, -1699152.4, -15794.025, -0.1026099, 0.057739336, -1637757.8, -17981.104, 0.0, 10.000131, 9.999373 
8.549247e+2, 1.4471611e+2, -1493724.4, -1484901.0, -30122.576, 0.05762559, 0.0009656008, -1458868.8, 62915.03, 0.0, 10.000077, 10.000194 
8.549399e+2, 1.5471596e+2, -1378201.0, -1374763.9, 1998.4336, -0.020976014, -0.03955383, -1373846.8, 49934.46, 0.0, 10.000181, 10.000227 
8.549554e+2, 1.647157e+2, -1346722.9, -1437023.6, 7540.764, -0.0674283, -0.030168999, -1346097.5, -20315.043, 0.0, 10.000279, 9.999078 
8.549714e+2, 1.7471534e+2, -1232461.3, -1332600.4, -8167.7896, -0.059943084, 0.026072945, -1231799.5, -4011.2087, 0.0, 10.000397, 9.999065 
8.549873e+2, 1.8471453e+2, -1122528.4, -1196657.3, -33728.523, -0.050642703, 0.024445914, -1109479.1, 20317.432, 0.0, 10.000338, 9.999355 
8.5500306e+2, 1.9471313e+2, -1060538.1, -1113475.6, -38990.707, -0.043043416, -0.05355196, -1039880.8, -8072.7466, 0.0, 10.00008, 9.999377 
8.550189e+2, 2.0471215e+2, -980570.8, -1038913.1, -32898.895, -0.025663711, -0.08009256, -965772.7, -31956.307, 0.0, 10.00002, 9.999246 
8.55035e+2, 2.1471165e+2, -856621.94, -926707.6, -24246.785, 0.0045408322, -0.058133442, -849051.3, -13230.088, 0.0, 10.000191, 9.99926 
8.550507e+2, 2.2471102e+2, -755043.7, -849549.94, -37857.64, -0.0013153858, -0.037216887, -741748.8, -3921.1829, 0.0, 10.000314, 9.999058 
8.550657e+2, 2.3471019e+2, -644236.44, -743544.94, -49100.65, -0.048113346, -0.027341181, -624059.3, 15776.368, 0.0, 10.000394, 9.999074 
8.550812e+2, 2.4470912e+2, -557498.6, -672614.2, -62541.914, -0.045697354, -0.03105819, -530060.0, 11786.841, 0.0, 10.000409, 9.998881 
8.550971e+2, 2.547077e+2, -466749.8, -576030.3, -65625.4, 0.013586773, -0.063293226, -435995.38, 7866.3125, 0.0, 10.00035, 9.998899 
8.5511255e+2, 2.6470673e+2, -344274.25, -417692.03, -61938.723, 0.025249202, -0.06987275, -308983.5, 36887.453, 0.0, 10.000311, 9.999332 
8.551274e+2, 2.7470624e+2, -245103.16, -315726.34, -40001.2, -0.018802674, -0.05502005, -227057.42, 20816.537, 0.0, 10.000304, 9.999362 
8.551428e+2, 2.8470525e+2, -170763.33, -311731.72, -12859.968, -0.031408545, -0.052758355, -169599.77, -19716.965, 0.0, 10.000496, 9.998625 
8.551586e+2, 2.9470363e+2, -21097.604, -192754.7, -8336.116, -0.008164656, -0.07812348, -20693.73, 31205.064, 0.0, 10.000867, 9.99859 
8.551741e+2, 3.047017e+2, -9945.936, -240642.31, -10467.653, -0.027593598, -0.094883576, -9471.948, -9471.948, 0.0000000059514194, 10.000947, 9.9978895 
8.551902e+2, 3.1470066e+2, 97349.336, 40430.438, -21234.268, 0.0076685348, 0.007292939, 104398.12, 104398.12, 0.0000005093443, 10.000694, 9.999942 
8.648922e+2, 1.2470135e+2, -1662453.0, -1785414.6, -25751.055, -0.022914534, 0.045624096, -1657278.0, 60647.805, 0.00000000000000000000885557, 10.000775, 9.999139 
8.6490774e+2, 1.3470042e+2, -1569234.6, -1680550.6, 7319.3223, -0.08793677, 0.02858986, -1568755.4, 51181.305, 0.0, 10.0007, 9.999227 
8.64925e+2, 1.446995e+2, -1430139.9, -1463434.5, -7234.641, 0.06457618, -0.026600033, -1428635.8, 93309.19, 0.0, 10.000553, 10.000112 
8.649401e+2, 1.546993e+2, -1357385.0, -1373963.0, -37469.313, -0.020352256, -0.062886894, -1327298.8, 96644.24, 0.0, 10.000364, 10.000144 
8.649556e+2, 1.6469908e+2, -1346344.5, -1424322.6, -39696.62, -0.06459051, -0.050473798, -1329692.1, -3748.1128, 0.0, 10.000225, 9.999192 
8.649718e+2, 1.7469887e+2, -1261198.0, -1332146.4, -12795.101, -0.048609246, 0.008500057, -1258961.0, -31012.912, 0.0, 10.000137, 9.999193 
8.6498773e+2, 1.8469813e+2, -1156335.1, -1225669.9, -15506.356, -0.033064745, 0.013776565, -1153025.3, -23069.326, 0.0, 10.000161, 9.99924 
8.650034e+2, 1.9469672e+2, -1035966.3, -1115511.3, -19801.402, -0.02099783, -0.053216904, -1031309.7, 658.7773, 0.0, 10.000309, 9.999252 
8.6501914e+2, 2.0469576e+2, -928722.8, -1008252.5, -13070.544, -0.018244268, -0.07660365, -926629.75, 7347.346, 0.0, 10.000352, 9.999296 
8.65035e+2, 2.1469526e+2, -841308.75, -912921.6, -16490.148, -0.026337126, -0.058908243, -837694.06, -1712.8691, 0.0, 10.000269, 9.999317 
8.650506e+2, 2.2469458e+2, -771162.8, -869677.75, -26445.682, -0.03300071, -0.038638733, -764512.56, -26524.809, 0.0, 10.000257, 9.998947 
8.650662e+2, 2.3469366e+2, -663719.3, -765304.94, -24583.623, -0.037642814, -0.027834497, -658082.9, -18085.48, 0.0, 10.000314, 9.998962 
8.6508167e+2, 2.4469247e+2, -572928.8, -676483.8, -29874.291, -0.032035828, -0.03935999, -564928.5, -22918.754, 0.0, 10.000289, 9.998912 
8.650971e+2, 2.5469095e+2, -488797.1, -582603.94, -25142.188, -0.015360294, -0.08748462, -482483.4, -38457.934, 0.0, 10.000182, 9.998934 
8.651125e+2, 2.6469007e+2, -356021.6, -425423.0, -29457.883, -0.007390096, -0.08557309, -345204.13, 829.8937, 0.0, 10.00024, 9.999312 
8.6512786e+2, 2.746899e+2, -223482.23, -308195.0, -52617.016, -0.008898426, -0.035485845, -198291.5, 49743.047, 0.0, 10.000465, 9.999336 
8.6514336e+2, 2.846891e+2, -158192.8, -288054.94, -45051.766, -0.018661853, -0.022870105, -144094.1, 5947.677, 0.0, 10.000507, 9.998782 
8.651589e+2, 2.9468745e+2, -81915.555, -203064.9, -37835.58, -0.039187662, -0.06710782, -71070.195, -19012.996, 0.0, 10.000369, 9.998758 
8.6517465e+2, 3.046852e+2, -91093.695, -278019.9, -29824.834, -0.044958644, -0.12034133, -86450.37, -86450.37, 0.000000027135602, 10.000383, 9.997903 
8.651914e+2, 3.146847e+2, 61571.664, 11618.188, -20651.578, 0.066597775, 0.034378506, 69003.65, 69003.65, 0.00000083365, 10.000497, 9.999838 
8.748929e+2, 1.2468413e+2, -1624341.6, -1707706.0, -29544.576, -0.034221295, -0.042901013, -1614932.8, 103158.62, 0.0000000055054987, 10.00078, 9.99967 
8.7490845e+2, 1.3468379e+2, -1531524.4, -1604456.3, 5383.765, -0.08555226, -0.05438618, -1531129.0, 88965.266, 0.0, 10.000709, 9.999744 
8.7492555e+2, 1.446831e+2, -1492793.4, -1595091.1, -14864.844, 0.055812646, -0.06655888, -1490677.1, 31424.219, 0.0, 10.00056, 9.999205 
8.749404e+2, 1.5468276e+2, -1422058.9, -1508790.3, -44321.563, -0.030775467, -0.025633449, -1403416.6, 20689.318, 0.0, 10.000366, 9.999218 
8.7495583e+2, 1.6468227e+2, -1298444.4, -1325177.8, -44576.88, -0.06637629, -0.026206452, -1265273.3, 60837.125, 0.0, 10.000226, 9.999873 
8.7497216e+2, 1.746817e+2, -1210111.4, -1227258.6, -15779.988, -0.023166833, -0.07642107, -1200726.3, 27387.848, 0.0, 10.000142, 9.999912 
8.7498826e+2, 1.8468122e+2, -1162011.3, -1236939.5, -11129.584, 0.0048606116, -0.0755468, -1160393.0, -30274.943, 0.0, 10.000158, 9.999165 
8.7500405e+2, 1.9468087e+2, -1043240.44, -1129993.5, -14196.201, 0.009699867, -0.028638123, -1040976.44, -8853.667, 0.0, 10.000305, 9.999155 
8.750195e+2, 2.0468011e+2, -935796.5, -1021637.1, -17035.238, -0.021409636, -0.01924947, -932539.44, 1590.7245, 0.0, 10.000345, 9.9992075 
8.750346e+2, 2.1467894e+2, -847203.3, -925390.8, -19486.531, -0.091461785, -0.061732553, -842615.9, -6475.396, 0.0, 10.000269, 9.999232 
8.7505025e+2, 2.246779e+2, -766522.44, -859494.6, -25706.127, -0.09255504, -0.077271774, -759888.25, -21737.854, 0.0, 10.000254, 9.99902 
8.7506664e+2, 2.3467697e+2, -659219.25, -754604.7, -22144.326, -0.013712468, -0.07412789, -654329.0, -14169.086, 0.0, 10.000308, 9.99904 
8.7508214e+2, 2.4467614e+2, -561899.44, -652633.1, -34777.004, -0.008997046, -0.06069838, -550103.44, -7934.9653, 0.0, 10.000283, 9.999079 
8.750965e+2, 2.5467542e+2, -477409.28, -558893.8, -28463.703, -0.09161692, -0.044923637, -468451.3, -24275.328, 0.0, 10.000181, 9.999098 
8.751119e+2, 2.6467448e+2, -397287.78, -511001.2, -20960.262, -0.094843864, -0.028268883, -393547.3, -47361.29, 0.0, 10.000239, 9.998725 
8.751283e+2, 2.746733e+2, -266748.88, -396551.2, -42320.934, -0.0028872408, -0.020572683, -254169.6, -5970.513, 0.0, 10.000458, 9.9987335 
8.7514424e+2, 2.8467244e+2, -145828.89, -260912.2, -50200.414, 0.016945744, 0.007546733, -127008.76, 23199.135, 0.0, 10.0005, 9.998972 
8.751592e+2, 2.9467174e+2, -67810.234, -171420.67, -41478.34, -0.05183109, 0.04007874, -53251.05, -1038.1246, 0.0, 10.000359, 9.9989805 
8.7517494e+2, 3.0466923e+2, -69273.7, -230059.08, -24441.158, -0.052959587, -0.07383594, -65640.48, -65640.48, 0.00000006425192, 10.000373, 9.998237 
8.7519246e+2, 3.1466776e+2, 69314.86, 32657.713, -14261.952, 0.118657045, -0.045099087, 74209.98, 74209.98, 0.0000011924308, 10.000477, 9.999991 
8.8489366e+2, 1.2466733e+2, -1657330.1, -1709843.8, -24793.836, -0.021738838, -0.09639314, -1647473.9, 70779.945, 0.00000006865043, 10.000495, 9.999795 
8.84909e+2, 1.3466732e+2, -1557188.3, -1604129.0, -23348.822, -0.085751586, -0.083814725, -1547552.4, 72700.91, 0.0, 10.000478, 9.999858 
8.8492596e+2, 1.4466682e+2, -1519971.0, -1625751.3, -31632.344, 0.051470708, -0.075681336, -1511233.4, 11025.442, 0.0, 10.000449, 9.999049 
8.849409e+2, 1.5466633e+2, -1420522.9, -1525344.3, -2603.9482, -0.014340119, -0.033167474, -1420458.3, 3807.5723, 0.0, 10.000453, 9.999062 
8.849563e+2, 1.6466573e+2, -1275280.8, -1313982.5, 3301.977, -0.04559782, -0.038545676, -1275001.1, 51270.715, 0.0, 10.000387, 9.999871 
8.849724e+2, 1.7466502e+2, -1196711.5, -1221862.4, -24625.467, -0.01668054, -0.10088435, -1181636.3, 46640.074, 0.0, 10.000237, 9.999904 
8.849885e+2, 1.8466459e+2, -1144895.1, -1216098.1, -30820.281, 0.003252217, -0.100919716, -1133407.8, -3128.075, 0.0, 10.00022, 9.999279 
8.8500434e+2, 1.946645e+2, -1027039.1, -1108088.1, -18194.617, 0.0035594099, -0.04156667, -1023142.06, 9139.674, 0.0, 10.000357, 9.999281 
8.8501984e+2, 2.0466384e+2, -931725.56, -1027482.44, -17685.371, -0.02069498, -0.024434369, -928563.7, 5724.4976, 0.0, 10.000407, 9.999137 
8.850351e+2, 2.1466261e+2, -839572.9, -930136.3, -21073.482, -0.06967873, -0.06545008, -834909.4, 1390.377, 0.0, 10.000359, 9.999156 
8.850507e+2, 2.2466151e+2, -756867.8, -847302.9, -24217.023, -0.07383722, -0.08496409, -750791.2, -12480.846, 0.0, 10.000288, 9.999086 
8.8506675e+2, 2.3466058e+2, -670848.56, -752369.94, -22945.348, -0.027872771, -0.08994375, -664834.0, -24514.14, 0.0, 10.000195, 9.99911 
8.850822e+2, 2.446599e+2, -565647.44, -652770.75, -37310.094, -0.029718272, -0.06811544, -551853.56, -9526.495, 0.0, 10.000252, 9.999092 
8.8509685e+2, 2.546594e+2, -432246.97, -535464.4, -44069.293, -0.08730962, -0.027058221, -415991.38, 28340.414, 0.0, 10.000484, 9.999112 
8.851123e+2, 2.6465836e+2, -368031.72, -516986.16, -28165.416, -0.089570425, -0.0149604585, -362883.9, -16540.813, 0.0, 10.000526, 9.998547 
8.8512856e+2, 2.7465662e+2, -294045.28, -429701.28, -20493.186, -0.025707949, -0.044902705, -291017.03, -42655.207, 0.0, 10.000359, 9.998552 
8.851444e+2, 2.846556e+2, -186569.48, -294701.63, -25673.38, 0.0008100855, -0.015224367, -180783.55, -30411.006, 0.0, 10.000283, 9.998843 
8.851598e+2, 2.9465526e+2, -87542.6, -195373.03, -43570.887, -0.019314002, 0.06381634, -72137.74, -19762.555, 0.0, 10.000283, 9.998853 
8.851755e+2, 3.046527e+2, -67635.375, -191994.39, -36034.336, -0.019665342, -0.06461295, -57948.586, -57948.586, 0.00000010587227, 10.000222, 9.998572 
8.851924e+2, 3.1465134e+2, 23223.56, 24845.338, -30097.818, 0.08954369, -0.058864977, 54143.188, 54143.188, 0.0000015115112, 10.000099, 10.000119 
8.948943e+2, 1.2465098e+2, -1680610.5, -1757577.5, -30698.268, -0.008360184, -0.115452535, -1669866.3, 48546.316, 0.00000033567557, 10.000492, 9.999469 
8.9490944e+2, 1.3465114e+2, -1581604.0, -1654691.0, -23918.637, -0.08815743, -0.053763397, -1574472.3, 45940.668, 0.00000000007521531, 10.000478, 9.999511 
8.949264e+2, 1.4465076e+2, -1473079.8, -1530833.0, -34035.863, 0.051820386, -0.048398886, -1457321.1, 65095.848, 0.0, 10.000457, 9.999698 
8.9494175e+2, 1.5465012e+2, -1373500.5, -1428489.9, -1845.5919, 0.022230305, -0.08664855, -1373438.6, 50983.316, 0.0, 10.000455, 9.999726 
8.9495707e+2, 1.646495e+2, -1325519.8, -1418120.6, -2410.0112, -0.00983093, -0.09051586, -1325457.1, 970.63794, 0.0, 10.000386, 9.999157 
8.9497244e+2, 1.7464893e+2, -1249542.1, -1331416.1, -29957.1, -0.031812746, -0.06485047, -1239751.8, -11317.289, 0.0, 10.0002365, 9.999152 
8.9498824e+2, 1.8464832e+2, -1123729.3, -1172073.8, -27398.18, -0.041936245, -0.060588665, -1111364.5, 19075.834, 0.0, 10.000218, 9.999582 
8.950042e+2, 1.9464764e+2, -1002790.9, -1058280.3, -13338.792, -0.0423195, -0.0916879, -999751.0, 32693.936, 0.0, 10.000358, 9.999623 
8.9502025e+2, 2.0464697e+2, -935998.75, -1035533.5, -20956.982, -0.019347426, -0.09295592, -931766.25, 2684.6633, 0.0, 10.000403, 9.9990835 
8.9503646e+2, 2.146463e+2, -845452.94, -940682.5, -23080.15, 0.03363781, -0.069823086, -840154.0, -3695.4375, 0.0, 10.000351, 9.999087 
8.950519e+2, 2.246455e+2, -753211.6, -838546.9, -28941.182, 0.017105917, -0.060841467, -744322.3, -5855.0713, 0.0, 10.000281, 9.99915 
8.950664e+2, 2.3464452e+2, -666432.7, -743022.25, -26155.668, -0.082239, -0.07694371, -658352.8, -17875.768, 0.0, 10.000193, 9.999175 
8.9508176e+2, 2.4464369e+2, -576426.2, -674595.7, -29466.51, -0.09662115, -0.06412141, -568260.7, -25775.287, 0.0, 10.000249, 9.998944 
8.9509815e+2, 2.54643e+2, -443631.63, -557444.06, -34282.08, -0.010199903, -0.03207122, -434103.06, 10389.464, 0.0, 10.000477, 9.998965 
8.951137e+2, 2.6464176e+2, -353578.66, -485900.9, -34932.977, 0.00021632394, -0.041387893, -344922.63, 1582.0844, 0.0, 10.000521, 9.998764 
8.9512837e+2, 2.746399e+2, -279714.28, -398065.8, -25899.494, -0.07897881, -0.10531441, -274294.72, -25772.045, 0.0, 10.00035, 9.998775 
8.9514405e+2, 2.8463864e+2, -217714.23, -357660.7, -24772.322, -0.06788193, -0.087553754, -213458.63, -62923.02, 0.0, 10.000275, 9.998415 
8.951608e+2, 2.9463804e+2, -119522.805, -260890.23, -40415.914, 0.0483493, 0.008434084, -108783.96, -56240.457, 0.0, 10.000279, 9.998405 
8.951764e+2, 3.0463564e+2, -45886.637, -147311.14, -40058.805, 0.04558034, -0.09085005, -31973.504, -31973.504, 0.00000013409642, 10.000223, 9.9988785 
8.9519143e+2, 3.1463528e+2, 27853.357, 37673.543, -32625.51, -0.02430953, -0.021491185, 65756.375, 65756.375, 0.0000016978646, 10.000086, 10.000214 
9.04895e+2, 1.246352e+2, -1665822.9, -1762057.8, -16957.393, 0.010890872, -0.09883826, -1662922.4, 55644.21, 0.0000010657902, 10.000639, 9.999369 
9.049101e+2, 1.3463508e+2, -1581157.0, -1664618.8, 10294.999, -0.071986616, -0.05719745, -1579905.9, 40663.957, 0.000000007369457, 10.000524, 9.999421 
9.04927e+2, 1.4463468e+2, -1457568.9, -1506818.9, -2466.248, 0.06085097, -0.05559964, -1457445.8, 65128.11, 0.0, 10.000495, 9.999843 
9.049424e+2, 1.5463415e+2, -1345019.9, -1398822.4, -11674.196, 0.035367154, -0.09635147, -1342596.0, 81980.984, 0.0, 10.00058, 9.999871 
9.049578e+2, 1.6463356e+2, -1296814.1, -1432569.3, -15020.457, 0.0049023163, -0.09500715, -1295172.1, 31410.553, 0.0, 10.000703, 9.998906 
9.0497315e+2, 1.7463286e+2, -1172623.6, -1322731.8, -6887.646, -0.02357637, -0.055968393, -1172308.3, 56283.1, 0.0, 10.000889, 9.998897 
9.0498877e+2, 1.8463199e+2, -1047073.75, -1149693.5, -4017.747, -0.036491483, -0.057463843, -1046916.7, 83683.195, 0.0, 10.000811, 9.99945 
9.050046e+2, 1.946309e+2, -1001431.8, -1072701.9, -26585.2, -0.03375191, -0.11505527, -992607.5, 40000.754, 0.0, 10.000433, 9.999488 
9.050207e+2, 2.0463015e+2, -956705.5, -1034894.0, -43634.773, -0.007291804, -0.12156042, -937213.44, -2598.4814, 0.0, 10.0002165, 9.999179 
9.0503687e+2, 2.1462978e+2, -861929.9, -937013.0, -34978.8, 0.046596058, -0.07873861, -848159.75, -11540.181, 0.0, 10.000189, 9.999191 
9.050522e+2, 2.2462915e+2, -768727.06, -847591.8, -35952.137, 0.025259357, -0.057139747, -754797.75, -16171.124, 0.0, 10.000182, 9.999135 
9.050666e+2, 2.3462819e+2, -664880.4, -744312.5, -40880.895, -0.0841659, -0.06963113, -647599.8, -6963.3774, 0.0, 10.000213, 9.999157 
9.05082e+2, 2.4462724e+2, -579941.56, -679339.44, -36371.816, -0.101564065, -0.066240765, -568054.06, -25408.059, 0.0, 10.000238, 9.998917 
9.0509844e+2, 2.5462627e+2, -477316.47, -576667.6, -33639.89, -0.011438507, -0.058115546, -466997.84, -22342.285, 0.0, 10.00026, 9.998938 
9.051141e+2, 2.6462504e+2, -386900.63, -488862.6, -41425.492, 0.0067443657, -0.0713774, -372191.94, -25524.42, 0.0, 10.0002365, 9.9988785 
9.051288e+2, 2.746235e+2, -298451.8, -393784.8, -42002.12, -0.059337847, -0.11535216, -282586.66, -33904.496, 0.0, 10.000163, 9.998895 
9.0514433e+2, 2.846223e+2, -227203.08, -357261.34, -19721.479, -0.054408755, -0.10075742, -224278.38, -73584.086, 0.0, 10.000187, 9.998462 
9.051609e+2, 2.9462144e+2, -109747.08, -249999.69, -1773.4481, 0.032724366, -0.0365539, -109724.66, -57020.195, 0.0, 10.000322, 9.998459 
9.051765e+2, 3.0461916e+2, -22336.771, -131986.38, 3766.9927, 0.031195717, -0.12905651, -22207.51, -22207.51, 0.0000001316986, 10.00037, 9.998912 
9.0519166e+2, 3.1461948e+2, 42717.72, 19467.55, -14401.662, -0.0112591935, 0.004144866, 49600.754, 49600.754, 0.0000016698094, 10.000295, 9.9999895 
9.1489583e+2, 1.2462007e+2, -1649234.0, -1733489.8, -25502.63, 0.022021199, -0.043543134, -1642116.1, 76598.78, 0.000002613721, 10.000663, 9.999555 
9.149109e+2, 1.3461919e+2, -1567337.1, -1635322.8, 5831.0215, -0.044467393, -0.09633363, -1566840.6, 53882.773, 0.00000007607973, 10.000521, 9.999624 
9.1492754e+2, 1.4461863e+2, -1485377.6, -1563780.1, 497.11624, 0.06925672, -0.10129671, -1485374.5, 37354.3, 0.0, 10.000491, 9.999454 
9.149428e+2, 1.5461855e+2, -1372914.3, -1457212.3, -7552.0005, 0.021106234, -0.060547315, -1372243.0, 52486.875, 0.0, 10.000583, 9.999469 
9.1495836e+2, 1.6461796e+2, -1280296.5, -1400647.4, -9797.578, -0.0052769803, -0.04761702, -1279504.1, 47231.555, 0.0, 10.000711, 9.999123 
9.1497433e+2, 1.7461684e+2, -1155297.8, -1287758.8, -25.688087, 0.0042539276, -0.07306519, -1155297.8, 73448.5, 0.0, 10.000892, 9.999136 
9.149901e+2, 1.8461564e+2, -1086817.4, -1232154.6, -18814.604, 0.015364099, -0.09176773, -1084421.3, 46336.695, 0.0, 10.00081, 9.998884 
9.150057e+2, 1.9461435e+2, -1044038.3, -1160460.6, -40985.023, 0.025208784, -0.11220511, -1031057.4, 1713.9016, 0.0, 10.000429, 9.998887 
9.1502106e+2, 2.0461348e+2, -941851.4, -1003383.9, -46332.22, 0.010479998, -0.10972007, -917000.75, 17778.98, 0.0, 10.000212, 9.999398 
9.1503626e+2, 2.1461312e+2, -844044.06, -899633.9, -36117.457, -0.032222606, -0.092065684, -826264.56, 10517.892, 0.0, 10.000187, 9.999449 
9.1505164e+2, 2.2461253e+2, -775613.1, -861527.75, -36360.32, -0.05047435, -0.07420009, -762290.75, -23502.5, 0.0, 10.00018, 9.999041 
9.1506726e+2, 2.3461166e+2, -672786.06, -759843.5, -39182.78, -0.03877671, -0.06694324, -657748.25, -16950.574, 0.0, 10.000208, 9.999053 
9.150827e+2, 2.4461062e+2, -574025.7, -666708.0, -35983.445, -0.051072747, -0.07233676, -561695.6, -18887.371, 0.0, 10.0002365, 9.999005 
9.150979e+2, 2.5460935e+2, -472099.66, -564577.06, -31933.28, -0.091661625, -0.10386351, -462144.5, -17323.996, 0.0, 10.000254, 9.999024 
9.1511357e+2, 2.6460826e+2, -386412.16, -487030.06, -43815.074, -0.070334256, -0.10563499, -370007.16, -23175.803, 0.0, 10.000233, 9.998894 
9.1512984e+2, 2.7460745e+2, -297292.53, -391095.28, -42917.566, 0.023976114, -0.07911827, -280619.9, -31779.592, 0.0, 10.00016, 9.998915 
9.151454e+2, 2.8460658e+2, -194222.64, -287823.03, -15739.566, 0.031059, -0.05826212, -191646.81, -40798.01, 0.0, 10.000182, 9.99894 
9.1516024e+2, 2.9460543e+2, -76873.3, -178164.14, 4129.2485, -0.065005496, -0.068596035, -76705.24, -23847.021, 0.0, 10.000306, 9.99896 
9.15176e+2, 3.0460322e+2, -37594.94, -161842.53, 1208.1053, -0.061591625, -0.17561486, -37583.195, -37583.195, 0.00000009563079, 10.0003605, 9.998712 
9.151932e+2, 3.1460375e+2, 8875.409, -50064.543, -14168.128, 0.107600465, 0.006610057, 12104.292, 12104.292, 0.0000014046396, 10.000291, 9.999514 
9.248964e+2, 1.2460412e+2, -1721621.9, -1762566.1, -32247.43, 0.046995576, -0.04793448, -1703897.1, 14973.043, 0.0000053718704, 10.000147, 9.9996 
9.2491174e+2, 1.3460298e+2, -1528254.4, -1609619.4, -10393.67, -0.017679065, -0.13203765, -1526947.6, 93932.53, 0.00000033393198, 10.00076, 9.999685 
9.249284e+2, 1.4460233e+2, -1427227.9, -1570970.6, -24758.559, 0.078474626, -0.13532414, -1423083.0, 99803.836, 0.0, 10.001043, 9.999138 
9.249435e+2, 1.546022e+2, -1340102.8, -1476887.1, -29534.162, 0.010575576, -0.06542747, -1333998.3, 90891.62, 0.0, 10.000964, 9.999147 
9.2495906e+2, 1.646016e+2, -1248210.0, -1366033.5, -28266.146, -0.011123924, -0.04633741, -1241779.8, 85116.45, 0.0, 10.000855, 9.999288 
9.2497534e+2, 1.7460047e+2, -1167120.0, -1273502.1, -23683.459, 0.03122292, -0.09052686, -1162085.6, 66820.23, 0.0, 10.000726, 9.999313 
9.2499113e+2, 1.8459937e+2, -1116400.9, -1257084.3, -34987.137, 0.05234648, -0.10425161, -1108180.1, 22736.422, 0.0, 10.000653, 9.998789 
9.250064e+2, 1.945983e+2, -1019043.44, -1159417.4, -22188.863, 0.042947426, -0.09169444, -1015619.56, 17309.092, 0.0, 10.00065, 9.998787 
9.250214e+2, 2.0459737e+2, -887802.7, -979759.9, -10835.886, 0.007916015, -0.09006167, -886543.1, 48394.805, 0.0, 10.000595, 9.999374 
9.250363e+2, 2.1459657e+2, -802430.3, -881906.06, -22438.531, -0.05602109, -0.11245439, -796532.8, 40411.09, 0.0, 10.0004835, 9.999427 
9.2505175e+2, 2.2459584e+2, -740004.7, -841440.0, -25500.234, -0.06669605, -0.10884021, -733954.9, 4995.791, 0.0, 10.000414, 9.999066 
9.250677e+2, 2.3459516e+2, -645075.2, -743265.06, -20888.004, -0.014576379, -0.085624054, -640816.44, 141.86192, 0.0, 10.000385, 9.999081 
9.250833e+2, 2.4459422e+2, -568867.2, -665149.4, -18671.777, -0.018731132, -0.08219356, -565373.0, -22404.895, 0.0, 10.000276, 9.998997 
9.2509806e+2, 2.5459296e+2, -496888.84, -577696.7, -23540.656, -0.08948318, -0.11149963, -490531.25, -45550.582, 0.0, 10.000088, 9.999015 
9.251136e+2, 2.6459196e+2, -409037.28, -496558.2, -32392.932, -0.0772971, -0.1047574, -398352.56, -51361.383, 0.0, 10.000071, 9.998907 
9.2513007e+2, 2.745913e+2, -283587.9, -382586.2, -33526.242, 0.032738425, -0.06384601, -273302.66, -24303.549, 0.0, 10.000247, 9.998931 
9.2514575e+2, 2.8459057e+2, -167264.17, -258038.6, -17859.123, 0.043129537, -0.03641894, -163876.94, -12870.78, 0.0, 10.000297, 9.99909 
9.2516047e+2, 2.945896e+2, -80805.164, -162443.98, -24935.166, -0.06299028, -0.046086334, -73791.664, -20778.41, 0.0, 10.000203, 9.999119 
9.2517626e+2, 3.0458736e+2, -57580.92, -169496.72, -30385.566, -0.057412136, -0.16132545, -49863.324, -49863.324, 0.00000004550982, 10.000215, 9.998732 
9.251936e+2, 3.1458744e+2, 3353.5166, -73970.06, -31270.643, 0.1195187, -0.02863566, 14416.842, 14416.842, 0.0000009683944, 10.000344, 9.999325 
9.3489677e+2, 1.2458733e+2, -1731614.4, -1780851.5, -15751.276, 0.06433901, -0.12502626, -1727006.6, -7974.2393, 0.000009857008, 10.000135, 9.99948 
9.349128e+2, 1.3458656e+2, -1534982.5, -1625190.0, 13860.857, 0.0053758356, -0.16124138, -1532900.8, 88138.49, 0.0000009955157, 10.000768, 9.999574 
9.349295e+2, 1.4458588e+2, -1440446.4, -1603878.6, -28493.78, 0.08489638, -0.15165366, -1435621.0, 87425.83, 0.00000000002439963, 10.001064, 9.998903 
9.3494433e+2, 1.5458521e+2, -1356954.0, -1512429.0, -32584.42, -0.0004982677, -0.11034287, -1350401.1, 74654.984, 0.0, 10.000965, 9.998905 
9.349598e+2, 1.6458452e+2, -1240997.0, -1350356.5, -33998.906, -0.017969409, -0.09207954, -1231288.9, 95774.96, 0.0, 10.000852, 9.999397 
9.3497634e+2, 1.745838e+2, -1159100.6, -1256251.5, -28355.213, 0.053168185, -0.10898277, -1151430.3, 77639.51, 0.0, 10.000724, 9.999433 
9.34992e+2, 1.845832e+2, -1091463.4, -1205258.9, -36408.098, 0.068944745, -0.09408841, -1080811.9, 50263.31, 0.0, 10.000651, 9.999146 
9.350068e+2, 1.9458279e+2, -992226.3, -1104090.0, -22596.795, 0.017111393, -0.053234093, -987834.2, 45245.848, 0.0, 10.00065, 9.999167 
9.350218e+2, 2.0458183e+2, -906138.56, -1017752.3, -16662.064, -0.017291013, -0.062184617, -903704.25, 31384.943, 0.0, 10.000594, 9.999115 
9.350371e+2, 2.145802e+2, -823454.25, -924861.0, -26548.979, -0.029561482, -0.13917752, -816924.06, 20179.563, 0.0, 10.000479, 9.999135 
9.350525e+2, 2.2457913e+2, -731832.0, -823218.06, -27747.746, -0.02905862, -0.15978079, -724066.75, 15046.754, 0.0, 10.000407, 9.999194 
9.350682e+2, 2.3457871e+2, -635608.3, -722503.4, -21692.844, -0.013562025, -0.12513454, -630493.9, 10624.244, 0.0, 10.00038, 9.999227 
9.350836e+2, 2.4457806e+2, -576132.4, -680136.06, -26369.166, -0.007249131, -0.0956233, -569828.75, -26703.342, 0.0, 10.000275, 9.998896 
9.3509895e+2, 2.545771e+2, -503964.97, -592977.7, -29418.203, -0.012020193, -0.08325395, -495121.1, -49985.016, 0.0, 10.000089, 9.99891 
9.351143e+2, 2.6457614e+2, -408489.16, -495499.28, -26442.771, -0.020821229, -0.07057111, -401083.4, -53936.445, 0.0, 10.000072, 9.998914 
9.3512964e+2, 2.745751e+2, -284841.66, -382932.1, -25598.299, -0.03360934, -0.066722155, -278563.22, -29404.992, 0.0, 10.000237, 9.998934 
9.3514544e+2, 2.8457436e+2, -178676.19, -280499.9, -21034.836, -0.019680642, -0.032343883, -174501.92, -23336.086, 0.0, 10.000289, 9.99894 
9.3516153e+2, 2.945739e+2, -92054.81, -185476.38, -26219.215, 0.025750581, 0.02506645, -85199.336, -32029.932, 0.0, 10.000199, 9.998963 
9.351774e+2, 3.045717e+2, -44647.668, -140908.56, -26125.273, 0.031725354, -0.09226778, -38014.35, -38014.35, 0.000000010385675, 10.000208, 9.99893 
9.35193e+2, 3.1457052e+2, 5229.5195, -65409.945, -23225.828, 0.02148995, -0.10198111, 12181.794, 12181.794, 0.00000050425, 10.000325, 9.9993925 
9.4489735e+2, 1.2457071e+2, -1660062.1, -1748477.3, -44973.742, 0.08356476, -0.12963971, -1641206.8, 77989.49, 0.000016753027, 10.000635, 9.999462 
9.449135e+2, 1.3457018e+2, -1539155.5, -1625124.8, -2876.5571, 0.010022671, -0.14458244, -1539059.4, 82141.516, 0.000002343361, 10.000731, 9.999591 
9.4493043e+2, 1.4456959e+2, -1468773.1, -1595709.3, -38379.24, 0.08184281, -0.1330299, -1458071.4, 65135.66, 0.0000000053592455, 10.000781, 9.999094 
9.4494545e+2, 1.5456888e+2, -1367190.3, -1495440.0, -11073.771, 0.025184756, -0.116630055, -1366241.0, 58974.777, 0.0, 10.000802, 9.9991 
9.4496095e+2, 1.6456816e+2, -1253875.4, -1365028.6, -2128.0613, 0.009351408, -0.10692686, -1253834.6, 73388.836, 0.0, 10.0008, 9.999321 
9.44977e+2, 1.7456746e+2, -1157890.0, -1264597.4, -13891.351, 0.047308028, -0.11363378, -1156111.3, 73118.61, 0.0, 10.000772, 9.999351 
9.449925e+2, 1.8456693e+2, -1064106.5, -1168519.4, -31142.113, 0.04825243, -0.099090494, -1055523.6, 75711.055, 0.0, 10.000742, 9.999352 
9.450073e+2, 1.9456662e+2, -967143.6, -1067911.4, -30101.715, 0.0029805647, -0.0695962, -958836.4, 74401.55, 0.0, 10.00072, 9.999381 
9.450224e+2, 2.045658e+2, -900123.7, -1016425.2, -25412.113, -0.014943728, -0.07422302, -894813.56, 40431.973, 0.0, 10.000643, 9.9991 
9.4503784e+2, 2.1456438e+2, -822706.44, -927022.2, -17854.0, -0.000107374784, -0.12774833, -819735.25, 17522.955, 0.0, 10.000497, 9.999111 
9.450532e+2, 2.2456327e+2, -740493.7, -839166.75, -12371.197, 0.0011895474, -0.1454253, -738966.25, 302.5187, 0.0, 10.000399, 9.999089 
9.450685e+2, 2.3456256e+2, -645685.6, -739510.25, -26303.164, -0.0140928095, -0.13118364, -638814.8, 2462.0354, 0.0, 10.000364, 9.999117 
9.450839e+2, 2.4456188e+2, -555516.56, -662950.0, -34340.977, -0.013424452, -0.10174556, -545477.56, -2193.0688, 0.0, 10.000385, 9.9989605 
9.450994e+2, 2.5456122e+2, -444304.16, -555729.7, -26362.5, 0.006365152, -0.0674348, -438381.75, 6910.0825, 0.0, 10.000463, 9.998985 
9.4511473e+2, 2.6456025e+2, -363440.16, -476593.13, -16498.67, -0.00011637092, -0.057024878, -361083.56, -13781.284, 0.0, 10.000392, 9.99889 
9.451298e+2, 2.745589e+2, -297625.16, -391875.44, -19033.6, -0.03629926, -0.08245977, -293926.5, -44610.176, 0.0, 10.000161, 9.998909 
9.4514555e+2, 2.84558e+2, -225488.9, -320182.44, -14076.041, -0.021757502, -0.056990433, -223440.83, -72114.86, 0.0, 10.000042, 9.998787 
9.4516194e+2, 2.945575e+2, -126907.49, -219468.28, -21579.283, 0.052751966, 0.016240725, -122123.805, -68793.18, 0.0, 10.000034, 9.998809 
9.451778e+2, 3.0455557e+2, -28422.34, -114388.04, -8118.172, 0.051115073, -0.07216542, -27662.418, -27662.418, 0.00000000032400083, 10.000238, 9.999098 
9.451931e+2, 3.1455463e+2, 65290.99, -29690.61, -10775.34, -0.01377737, -0.081749156, 66498.07, 66498.07, 0.00000016973306, 10.00071, 9.999453 
9.5489794e+2, 1.2455437e+2, -1649453.9, -1733206.8, -50131.207, 0.08203036, -0.056979705, -1626009.8, 93350.72, 0.00002677623, 10.000663, 9.999555 
9.5491403e+2, 1.3455391e+2, -1529714.8, -1604993.5, 585.2866, -0.008411654, -0.07911105, -1529710.1, 91654.15, 0.0000047533053, 10.000728, 9.999732 
9.5493096e+2, 1.4455359e+2, -1426867.4, -1506954.6, -38039.355, 0.06343949, -0.07864882, -1411679.8, 111686.76, 0.000000046136613, 10.000772, 9.999707 
9.549468e+2, 1.5455328e+2, -1322840.6, -1403257.0, -9287.304, 0.08408849, -0.08364295, -1321781.9, 103586.445, 0.0, 10.000802, 9.999732 
9.5496225e+2, 1.6455263e+2, -1271837.4, -1403625.9, -3570.236, 0.066113204, -0.08881531, -1271740.6, 55633.74, 0.0, 10.000804, 9.999055 
9.5497733e+2, 1.7455155e+2, -1178344.6, -1307801.3, -14523.632, 0.010889165, -0.103610486, -1176735.1, 52650.13, 0.0, 10.000774, 9.999054 
9.549926e+2, 1.845506e+2, -1060572.8, -1161455.8, -33239.445, -0.013733842, -0.117792256, -1050605.6, 80788.94, 0.0, 10.000742, 9.999401 
9.550079e+2, 1.9454981e+2, -963447.6, -1059953.5, -30990.656, -0.0030733417, -0.13997997, -954352.75, 79049.1, 0.0, 10.000718, 9.999437 
9.550233e+2, 2.0454931e+2, -885967.56, -986293.5, -32187.227, 0.010537459, -0.12608464, -876529.0, 58877.402, 0.0, 10.000639, 9.99931 
9.550386e+2, 2.1454914e+2, -807365.5, -894548.25, -23673.871, 0.02926621, -0.07991527, -801351.8, 36055.785, 0.0, 10.000493, 9.999336 
9.5505375e+2, 2.245483e+2, -763987.7, -887250.8, -15642.604, 0.02101815, -0.06704396, -762033.56, -22617.139, 0.0, 10.000395, 9.998761 
9.5506877e+2, 2.3454669e+2, -670608.25, -791078.25, -27112.543, -0.019633578, -0.1050218, -664787.6, -23353.334, 0.0, 10.000361, 9.998765 
9.5508397e+2, 2.4454565e+2, -541052.94, -632159.4, -32010.646, -0.040296994, -0.10208618, -530930.5, 12514.56, 0.0, 10.000381, 9.999173 
9.550994e+2, 2.545453e+2, -428983.8, -522275.3, -22814.006, -0.036256738, -0.06177875, -423703.63, 21743.977, 0.0, 10.000455, 9.999219 
9.551149e+2, 2.645443e+2, -366609.13, -483045.6, -25502.924, -0.018142859, -0.06028582, -361268.25, -13811.524, 0.0, 10.00039, 9.998847 
9.551305e+2, 2.745427e+2, -301136.44, -399009.97, -26837.072, 0.01626648, -0.11199327, -294260.72, -44787.324, 0.0, 10.000159, 9.998862 
9.5514613e+2, 2.845414e+2, -237523.63, -343843.75, -14900.298, 0.029569197, -0.1115706, -235474.89, -83988.32, 0.0, 10.000036, 9.998628 
9.5516163e+2, 2.9454052e+2, -139940.0, -244520.84, -19910.846, 0.016542831, -0.066245794, -136277.5, -82781.17, 0.0, 10.000026, 9.998641 
9.551775e+2, 3.0453914e+2, -18782.074, -93699.93, 8743.555, -0.0004480102, -0.09553749, -17775.16, -17775.16, 0.0, 10.000234, 9.999243 
9.55194e+2, 3.145396e+2, 66900.89, -22278.904, 10790.184, -0.0037534304, 0.022165043, 68187.86, 68187.86, 0.000000027453995, 10.00069, 9.999513 
9.6489865e+2, 1.24538034e+2, -1620738.5, -1714157.5, -22669.262, 0.07594263, -0.023396868, -1615528.1, 103994.734, 0.000040530904, 10.000841, 9.999597 
9.6491504e+2, 1.3453762e+2, -1516535.6, -1589175.8, 27496.86, 0.012613786, -0.047459647, -1507301.1, 114224.82, 0.000008656152, 10.000779, 9.999813 
9.649319e+2, 1.4453733e+2, -1412299.5, -1488960.3, -26815.006, 0.07726137, -0.05376615, -1403851.0, 119676.54, 0.00000019058375, 10.000828, 9.999803 
9.649478e+2, 1.5453708e+2, -1290225.5, -1376376.9, -41631.777, 0.094635256, -0.06399546, -1273395.3, 152133.05, 0.0, 10.000979, 9.999829 
9.6496326e+2, 1.6453645e+2, -1229120.4, -1370207.3, -46280.703, 0.07061211, -0.0751093, -1215293.9, 112239.66, 0.0, 10.001045, 9.999167 
9.649782e+2, 1.7453541e+2, -1132858.0, -1272695.4, -27248.285, 0.0041367123, -0.096443534, -1127736.0, 101807.58, 0.0, 10.001032, 9.999169 
9.6499336e+2, 1.8453448e+2, -1044805.8, -1167284.5, -38880.746, -0.016494235, -0.11209606, -1033505.75, 98047.375, 0.0, 10.000909, 9.999281 
9.650088e+2, 1.9453362e+2, -982483.44, -1083135.3, -52481.984, 0.014768253, -0.12922107, -960097.25, 73464.57, 0.0, 10.00065, 9.9993105 
9.6502405e+2, 2.045331e+2, -890785.7, -978825.94, -58829.44, 0.029035062, -0.11278081, -861330.1, 74236.484, 0.0, 10.000566, 9.999395 
9.6503913e+2, 2.14533e+2, -771712.3, -866561.8, -60634.453, 0.023835585, -0.067564666, -742158.8, 95408.055, 0.0, 10.000692, 9.999433 
9.650542e+2, 2.2453228e+2, -723235.4, -865174.94, -47977.75, 0.010968593, -0.050179888, -708539.7, 31034.826, 0.0, 10.000665, 9.998783 
9.650693e+2, 2.3453079e+2, -656563.2, -782099.25, -34775.215, -0.011894033, -0.07815317, -647573.75, -5982.7476, 0.0, 10.000449, 9.998784 
9.650845e+2, 2.4452965e+2, -548973.06, -638057.3, -26739.703, -0.029801512, -0.085254095, -541563.2, 2039.1836, 0.0, 10.000337, 9.999154 
9.650998e+2, 2.5452894e+2, -444808.28, -531581.4, -36827.063, -0.04094027, -0.077069394, -431285.9, 14321.696, 0.0, 10.000356, 9.999203 
9.651152e+2, 2.645279e+2, -383344.7, -499756.63, -57155.926, -0.0259955, -0.07829619, -359974.1, -12356.681, 0.0, 10.000315, 9.998769 
9.651307e+2, 2.7452648e+2, -304546.63, -409760.7, -63379.26, 0.019888498, -0.09899942, -274786.0, -25153.49, 0.0, 10.000175, 9.998781 
9.651462e+2, 2.8452525e+2, -209922.6, -314915.0, -32329.248, 0.0315332, -0.099826254, -200766.28, -49121.082, 0.0, 10.000158, 9.998768 
9.651616e+2, 2.945241e+2, -86113.88, -201465.38, -16048.108, 0.0023089836, -0.09341953, -83922.83, -30267.15, 0.0, 10.000322, 9.998795 
9.651777e+2, 3.0452275e+2, 3891.676, -93370.484, 23729.82, -0.006503829, -0.122608446, 9372.391, 9372.391, 0.0, 10.000438, 9.999146 
9.6519476e+2, 3.1452328e+2, 20428.006, -64081.145, 4100.275, 0.024513327, 0.011355311, 20626.479, 20626.479, 0.00000000015790982, 10.000456, 9.999339 
9.748992e+2, 1.24521695e+2, -1620908.3, -1713754.4, -29446.373, 0.044665825, -0.03715751, -1612356.9, 107326.18, 0.000058506626, 10.000837, 9.999601 
9.749164e+2, 1.3452142e+2, -1514378.4, -1585864.5, 27056.516, 0.06944559, -0.051090658, -1505292.6, 116392.04, 0.00001444443, 10.000784, 9.999834 
9.7493315e+2, 1.4452091e+2, -1442978.8, -1553797.8, -21435.248, 0.1181724, -0.058390986, -1438977.1, 84712.04, 0.0000005546723, 10.000832, 9.999356 
9.7494835e+2, 1.5452029e+2, -1323002.6, -1444416.3, -35230.06, 0.05264663, -0.057259526, -1313520.6, 112174.58, 0.0, 10.000978, 9.999364 
9.749637e+2, 1.6451971e+2, -1194985.4, -1299567.8, -47864.07, 0.016916638, -0.06418746, -1176387.0, 151313.34, 0.0, 10.001045, 9.999653 
9.7497946e+2, 1.7451915e+2, -1095831.6, -1195968.9, -27652.738, 0.02418307, -0.091207914, -1088702.9, 141001.42, 0.0, 10.001032, 9.999698 
9.7499484e+2, 1.8451858e+2, -1064962.4, -1208884.4, -49343.56, 0.035976533, -0.08206875, -1049669.9, 82039.98, 0.0, 10.000907, 9.998997 
9.750098e+2, 1.94518e+2, -1005072.7, -1129942.6, -62347.035, 0.05336213, -0.03882327, -979273.44, 54443.99, 0.0, 10.0006485, 9.99899 
9.750247e+2, 2.045172e+2, -893487.8, -983833.94, -56306.734, 0.036773782, -0.034887426, -866473.25, 69252.625, 0.0, 10.000563, 9.999363 
9.7503936e+2, 2.1451607e+2, -773785.06, -870049.3, -55815.414, -0.01903515, -0.08919412, -748214.7, 89520.73, 0.0, 10.000688, 9.999411 
9.7505444e+2, 2.2451527e+2, -699501.2, -814646.1, -56774.61, -0.032341156, -0.09436514, -676216.1, 63526.402, 0.0, 10.000659, 9.999132 
9.750699e+2, 2.3451488e+2, -631554.6, -729140.25, -42718.715, 0.005691069, -0.049784206, -615496.6, 26250.049, 0.0, 10.000444, 9.999149 
9.750852e+2, 2.445139e+2, -565651.1, -672504.4, -27487.84, 0.013944487, -0.049189467, -558994.56, -15238.624, 0.0, 10.000334, 9.9989195 
9.751004e+2, 2.5451222e+2, -463640.13, -569603.9, -35346.82, -0.013535192, -0.11392369, -452931.53, -7159.9595, 0.0, 10.00035, 9.998945 
9.751155e+2, 2.64511e+2, -393077.72, -518181.34, -61724.543, -0.028047308, -0.114466354, -367750.94, -19966.66, 0.0, 10.000306, 9.998647 
9.751304e+2, 2.7451035e+2, -313111.4, -427504.03, -66793.21, -0.027449057, -0.045446094, -282371.66, -32578.324, 0.0, 10.000175, 9.998659 
9.751459e+2, 2.8450945e+2, -180130.53, -254717.64, -27147.234, -0.018384602, -0.021561805, -171296.2, -19494.717, 0.0, 10.000164, 9.999179 
9.751619e+2, 2.9450828e+2, -56280.395, -137291.8, -8642.32, 0.0010127992, -0.066512115, -55368.688, -1559.8284, 0.0, 10.000312, 9.999241 
9.7517854e+2, 3.0450642e+2, -22352.842, -143634.97, 24177.99, 0.024094172, -0.15247609, -17710.572, -17710.572, 0.0, 10.000418, 9.998812 
9.751955e+2, 3.1450558e+2, -11625.342, -124954.6, 8183.605, 0.059245948, -0.11630428, -11037.446, -11037.446, 0.0, 10.000431, 9.998934 
9.8489994e+2, 1.24505445e+2, -1625499.1, -1739941.1, -7500.637, 0.03903689, -0.06045541, -1625009.6, 94831.76, 0.00008108169, 10.00091, 9.999386 
9.8491746e+2, 1.3450506e+2, -1441400.4, -1574501.5, 31947.746, 0.07406395, -0.063239396, -1434129.4, 187715.5, 0.000022462764, 10.001387, 9.999622 
9.8493415e+2, 1.4450443e+2, -1353832.8, -1525534.5, -23412.285, 0.10215641, -0.06564369, -1350697.6, 173153.64, 0.0000013019285, 10.001507, 9.999225 
9.849493e+2, 1.5450384e+2, -1301615.8, -1447075.3, -13125.852, 0.03863171, -0.051523432, -1300440.8, 125416.83, 0.0, 10.0011835, 9.999246 
9.8496467e+2, 1.6450329e+2, -1218030.8, -1311316.9, -29303.451, 0.0130387815, -0.046907265, -1209589.6, 118273.17, 0.0, 10.000891, 9.999645 
9.849804e+2, 1.7450282e+2, -1153239.6, -1223571.0, -50871.375, 0.040211625, -0.065175526, -1126562.6, 103303.92, 0.0, 10.000638, 9.999697 
9.849957e+2, 1.8450235e+2, -1089565.6, -1199621.4, -68557.39, 0.050568745, -0.05487371, -1056683.4, 75187.56, 0.0, 10.000647, 9.999186 
9.850105e+2, 1.945019e+2, -941913.94, -1076779.3, -43181.773, 0.038188748, -0.01938314, -929272.7, 104603.484, 0.0, 10.000984, 9.999193 
9.850253e+2, 2.0450105e+2, -841261.8, -973319.8, -25163.99, 0.014085149, -0.023282507, -836629.25, 99255.305, 0.0, 10.000983, 9.999232 
9.8503995e+2, 2.1449971e+2, -800427.25, -898979.6, -36033.152, -0.023193294, -0.08633948, -788658.1, 49238.887, 0.0, 10.000574, 9.999267 
9.85055e+2, 2.2449881e+2, -719949.9, -813379.94, -43330.207, -0.02460549, -0.09764296, -702948.4, 36956.58, 0.0, 10.000472, 9.99923 
9.8507065e+2, 2.3449852e+2, -580984.75, -692107.75, -49304.73, 0.01748646, -0.054707307, -562262.8, 79644.35, 0.0, 10.000739, 9.999262 
9.850859e+2, 2.4449758e+2, -525948.25, -665779.6, -48066.363, 0.030883107, -0.049166985, -511019.53, 32896.223, 0.0, 10.000663, 9.998807 
9.851008e+2, 2.544959e+2, -500491.78, -601630.56, -49117.38, 0.0086098295, -0.10330509, -480564.5, -34632.117, 0.0, 10.000158, 9.998817 
9.8511577e+2, 2.644946e+2, -429116.03, -536922.25, -51962.31, -0.011119723, -0.103534594, -408148.4, -60202.36, 0.0, 10.000065, 9.998633 
9.851307e+2, 2.7449384e+2, -267307.63, -405671.8, -49953.094, -0.027851546, -0.04621907, -251158.16, -1202.2847, 0.0, 10.000493, 9.998654 
9.8514616e+2, 2.8449288e+2, -126616.26, -239874.33, -31925.16, -0.02419302, -0.0223816, -118237.12, 33727.24, 0.0, 10.000582, 9.999079 
9.8516226e+2, 2.9449174e+2, -78384.01, -159576.53, -54765.543, 0.005639748, -0.051953066, -50809.004, 3162.3193, 0.0, 10.000212, 9.999136 
9.8517877e+2, 3.044899e+2, -73879.11, -168698.69, -21352.107, 0.027096119, -0.13105321, -69292.74, -69292.74, 0.0, 10.000068, 9.998807 
9.8519576e+2, 3.1448874e+2, -40793.95, -142760.0, -14614.764, 0.04387215, -0.12744486, -38740.57, -38740.57, 0.0, 10.000246, 9.998899 
9.9490094e+2, 1.24489315e+2, -1658500.3, -1808869.5, 6246.7085, 0.04135069, -0.09930506, -1658241.3, 61756.313, 0.000108580556, 10.000913, 9.998912 
9.9491835e+2, 1.3448864e+2, -1473936.8, -1642926.0, 51453.043, 0.021381764, -0.082944065, -1459503.4, 162502.34, 0.000033028722, 10.00139, 9.999151 
9.9493486e+2, 1.4448798e+2, -1339343.3, -1496963.4, -34994.215, 0.022012012, -0.073358834, -1331923.3, 192089.77, 0.0000026281716, 10.001512, 9.999419 
9.9495053e+2, 1.5448774e+2, -1284714.0, -1412533.6, -24653.96, 0.048519354, -0.04688187, -1280123.6, 145891.5, 0.00000000019976186, 10.001184, 9.999482 
9.9496603e+2, 1.6448726e+2, -1253459.8, -1384505.3, -39784.32, 0.054686848, -0.024807967, -1242327.3, 85693.21, 0.0, 10.000888, 9.999145 
9.9498117e+2, 1.7448649e+2, -1191081.5, -1302409.1, -60219.656, 0.04832242, -0.019049622, -1164740.0, 65289.914, 0.0, 10.000638, 9.999156 
9.949961e+2, 1.8448584e+2, -1043338.2, -1103598.0, -58470.023, 0.021678522, -0.029671127, -1007691.56, 124344.375, 0.0, 10.000646, 9.999846 
9.9501073e+2, 1.9448537e+2, -891533.1, -971732.75, -30851.865, -0.033304725, -0.068726, -881038.1, 152999.2, 0.0, 10.000981, 9.999917 
9.9502563e+2, 2.0448475e+2, -857562.1, -1006180.8, -40907.766, -0.042272937, -0.07719207, -847046.2, 88996.05, 0.0, 10.000978, 9.999009 
9.9504083e+2, 2.1448393e+2, -820206.2, -938938.0, -51762.34, 0.0071616094, -0.05985208, -800808.9, 37242.664, 0.0, 10.000569, 9.998995 
9.950561e+2, 2.2448294e+2, -730623.2, -834653.2, -35937.582, 0.029785274, -0.060238235, -719415.75, 20645.643, 0.0, 10.000467, 9.999087 
9.9507135e+2, 2.3448175e+2, -591123.9, -711999.7, -38764.227, 0.019863807, -0.09265181, -579760.6, 62311.332, 0.0, 10.000732, 9.999128 
9.9508643e+2, 2.4448076e+2, -527361.06, -667195.9, -65824.484, 0.016964281, -0.086825974, -501250.84, 42830.594, 0.0, 10.000655, 9.998801 
9.9510115e+2, 2.5448e+2, -500098.22, -601776.2, -66670.68, 0.022313422, -0.04563145, -467094.6, -21004.88, 0.0, 10.000162, 9.998815 
9.9511623e+2, 2.6447877e+2, -422521.38, -525799.4, -37626.324, 0.021052197, -0.04245663, -410267.3, -62165.06, 0.0, 10.000074, 9.998706 
9.951316e+2, 2.7447695e+2, -263220.16, -394546.22, -32305.174, 0.010160771, -0.09605979, -255703.55, -5583.704, 0.0, 10.000481, 9.998738 
9.9514705e+2, 2.8447556e+2, -169482.28, -323957.22, -43315.258, 0.005454699, -0.099762015, -158165.6, -6031.9727, 0.0, 10.00056, 9.998512 
9.951625e+2, 2.9447457e+2, -120225.55, -246461.03, -65215.074, 0.010675917, -0.052403428, -92586.164, -38443.574, 0.0, 10.000212, 9.998538 
9.951785e+2, 3.0447322e+2, -53778.617, -128982.57, -14479.672, -0.0000188581, -0.063415095, -51087.05, -51087.05, 0.0, 10.000073, 9.999078 
9.9519527e+2, 3.1447268e+2, -25850.496, -103154.78, -2601.0034, -0.02934485, -0.029873323, -25763.08, -25763.08, 0.0, 10.000209, 9.99919 
1.00490235e+3, 1.2447337e+2, -1506059.1, -1741362.8, -33138.33, 0.039949056, -0.069750376, -1501481.3, 218674.25, 0.00014134821, 10.001983, 9.998862 
1.0049196e+3, 1.3447268e+2, -1486639.8, -1653713.4, 44833.813, 0.015412014, -0.050544478, -1475369.1, 146794.38, 0.000046426092, 10.001323, 9.999111 
1.0049358e+3, 1.444719e+2, -1419479.1, -1533363.6, -31223.07, -0.0056960494, -0.051242176, -1411480.6, 112691.15, 0.00000474816, 10.000954, 9.999437 
1.0049517e+3, 1.5447155e+2, -1323449.9, -1429459.8, -40655.184, 0.053331614, -0.038452704, -1309653.9, 116521.03, 0.000000004412824, 10.000909, 9.9995 
1.00496694e+3, 1.6447103e+2, -1252943.3, -1378190.6, -41365.78, 0.063099824, -0.023960687, -1240514.6, 87665.97, 0.0, 10.000864, 9.999201 
1.0049816e+3, 1.7447032e+2, -1157766.5, -1278772.5, -17215.564, 0.024700796, -0.017711809, -1155364.9, 74824.055, 0.0, 10.000834, 9.999224 
1.00499645e+3, 1.8446973e+2, -1027546.6, -1086038.5, -3360.6938, -0.0049215136, -0.030933782, -1027354.1, 104839.95, 0.0, 10.000711, 9.999934 
1.0050115e+3, 1.9446929e+2, -958890.56, -994049.44, -24074.242, -0.028589541, -0.07703869, -946660.5, 87534.63, 0.0, 10.000476, 10.000007 
1.00502655e+3, 2.0446876e+2, -928167.75, -1040497.75, -52776.984, -0.022282012, -0.0812954, -907261.9, 28937.371, 0.0, 10.000497, 9.999004 
1.0050417e+3, 2.144681e+2, -782020.8, -921650.9, -45625.41, 0.022323696, -0.04479005, -768434.25, 69772.76, 0.0, 10.000837, 9.998983 
1.0050568e+3, 2.244671e+2, -685762.44, -822321.0, -18617.725, 0.03410783, -0.04257533, -683269.7, 56947.656, 0.0, 10.000817, 9.999002 
1.0050717e+3, 2.3446563e+2, -652514.2, -751649.75, -20715.402, 0.0044687446, -0.09520722, -648359.6, -6128.7144, 0.0, 10.000356, 9.999037 
1.0050867e+3, 2.4446455e+2, -574549.4, -685362.0, -40448.957, -0.0033455095, -0.094491616, -561355.56, -17114.352, 0.0, 10.000313, 9.998839 
1.0051016e+3, 2.54464e+2, -405499.53, -550150.75, -39080.094, 0.015496046, -0.036893208, -395616.6, 50630.707, 0.0, 10.00079, 9.998864 
1.0051166e+3, 2.6446286e+2, -317261.38, -479012.34, -13767.9795, 0.020992441, -0.025951086, -316097.84, 32160.766, 0.0, 10.000818, 9.998667 
1.0051319e+3, 2.7446097e+2, -297572.0, -416207.47, -19224.023, 0.008980008, -0.083742015, -294534.66, -44258.223, 0.0, 10.000268, 9.998691 
1.0051473e+3, 2.8445932e+2, -256644.03, -396351.78, -21183.646, 0.009588159, -0.094631486, -253502.64, -101209.766, 0.0, 10.000093, 9.998239 
1.005163e+3, 2.9445794e+2, -112066.48, -274382.06, -24389.49, 0.02754411, -0.058637787, -108480.92, -54173.445, 0.0, 10.000406, 9.998252 
1.0051787e+3, 3.044568e+2, -11975.64, -91828.56, 24120.209, 0.003362201, -0.04469104, -5255.4844, -5255.4844, 0.0, 10.000288, 9.999229 
1.0051947e+3, 3.1445688e+2, -106570.49, -123690.55, 24782.615, -0.070825756, 0.035379454, -88911.21, -88911.21, 0.0, 9.999576, 9.999352 
1.0149041e+3, 1.24457635e+2, -1475045.8, -1678066.1, -57273.844, 0.011449071, 0.027511338, -1460002.9, 260312.23, 0.0001798155, 10.001988, 9.999293 
1.0149213e+3, 1.3445726e+2, -1457051.5, -1591773.9, 20857.682, 0.051900454, 0.034478433, -1453896.3, 168421.27, 0.000062927356, 10.001321, 9.9995365 
1.01493694e+3, 1.4445627e+2, -1431915.3, -1558804.5, -34274.098, 0.014716738, -0.00019664838, -1423249.3, 101077.4, 0.000007860604, 10.00095, 9.999266 
1.0149525e+3, 1.5445532e+2, -1338380.1, -1460896.3, -41682.37, 0.047822885, -0.025479335, -1325543.8, 100792.73, 0.000000028517778, 10.00091, 9.999285 
1.0149675e+3, 1.6445467e+2, -1209088.0, -1288215.9, -43692.098, 0.03121685, -0.04214964, -1189708.8, 138633.63, 0.0, 10.000868, 9.999817 
1.0149818e+3, 1.7445439e+2, -1110489.8, -1180813.3, -18305.621, -0.034485664, -0.060496915, -1106010.0, 124332.86, 0.0, 10.000834, 9.999896 
1.0149969e+3, 1.8445405e+2, -1061093.5, -1155519.6, -13433.105, -0.033412803, -0.059798416, -1059219.6, 73125.414, 0.0, 10.00071, 9.999458 
1.0150128e+3, 1.9445369e+2, -996895.25, -1072770.9, -33346.316, 0.04717489, -0.045812923, -984323.1, 50026.043, 0.0, 10.000474, 9.999467 
1.015028e+3, 2.0445311e+2, -914010.94, -1010475.4, -42665.047, 0.06871457, -0.036051206, -897848.6, 38506.418, 0.0, 10.000493, 9.999213 
1.0150425e+3, 2.144523e+2, -765292.4, -885884.2, -32892.527, 0.018986082, -0.040318433, -756904.1, 81458.836, 0.0, 10.000832, 9.999232 
1.01505704e+3, 2.2445133e+2, -689637.25, -828585.0, -35875.46, -0.015540477, -0.044565376, -680921.2, 59451.1, 0.0, 10.000809, 9.998963 
1.0150717e+3, 2.3445016e+2, -656360.2, -759592.9, -37735.06, -0.03078105, -0.06273428, -644037.7, -1654.004, 0.0, 10.000354, 9.998983 
1.0150867e+3, 2.44449e+2, -569624.06, -674703.4, -25093.945, -0.03222694, -0.07023426, -563938.94, -19544.35, 0.0, 10.00031, 9.998915 
1.015102e+3, 2.544479e+2, -400997.03, -538549.94, -20330.836, -0.016473303, -0.074785575, -398055.0, 48349.85, 0.0, 10.000778, 9.99895 
1.0151171e+3, 2.6444682e+2, -328919.3, -499796.75, -32152.951, -0.016135054, -0.055669766, -323069.56, 25345.809, 0.0, 10.000802, 9.998532 
1.0151318e+3, 2.744458e+2, -307128.22, -437145.03, -37819.523, -0.03436889, -0.015166682, -296927.53, -46501.58, 0.0, 10.000272, 9.998545 
1.0151472e+3, 2.844442e+2, -257842.83, -401678.75, -10665.31, -0.0153092025, -0.010336946, -257056.31, -104614.07, 0.0, 10.000103, 9.9981985 
1.0151636e+3, 2.944419e+2, -118053.664, -281838.38, -10319.165, 0.04866, -0.06306664, -117406.07, -62940.207, 0.0, 10.000383, 9.998213 
1.0151792e+3, 3.044406e+2, -11997.048, -84773.44, 660.95013, 0.027805904, -0.066635355, -11991.046, -11991.046, 0.0, 10.000258, 9.999291 
1.01519406e+3, 3.1444126e+2, -101576.0, -112730.266, 2418.6262, -0.09657168, 0.0619525, -101074.14, -101074.14, 0.0, 9.999576, 9.999428 
1.0249055e+3, 1.244415e+2, -1535615.9, -1690885.6, -31200.709, -0.012675934, 0.042621233, -1529580.8, 190894.36, 0.00022439056, 10.001504, 9.999436 
1.0249227e+3, 1.3444124e+2, -1446285.6, -1573729.3, 15381.283, 0.062143568, 0.04886311, -1444455.5, 178020.38, 0.0000828242, 10.001338, 9.999653 
1.02493785e+3, 1.4444032e+2, -1398236.8, -1528522.3, -30867.734, 0.0046912082, 0.009841425, -1391293.5, 133190.66, 0.000012107546, 10.001119, 9.9993925 
1.0249533e+3, 1.5443964e+2, -1345067.6, -1449098.5, -13945.054, 0.03400694, -0.0032811915, -1343230.8, 83260.836, 0.00000009714164, 10.0008, 9.999418 
1.0249681e+3, 1.6443908e+2, -1238213.9, -1289780.8, -12501.339, 0.021982344, -0.02164895, -1235343.0, 93152.92, 0.0, 10.000616, 9.999927 
1.0249826e+3, 1.744387e+2, -1136125.1, -1181723.9, -30681.996, -0.027258568, -0.06027586, -1120698.9, 109797.83, 0.0, 10.000608, 10.0 
1.0249977e+3, 1.8443835e+2, -1092371.1, -1186697.9, -39660.695, -0.022351218, -0.060663793, -1077911.8, 54587.414, 0.0, 10.000566, 9.999313 
1.0250132e+3, 1.9443806e+2, -1003931.7, -1093501.0, -32613.117, 0.04414997, -0.023015784, -993315.25, 41188.51, 0.0, 10.000501, 9.999311 
1.0250283e+3, 2.0443746e+2, -905891.75, -990815.56, -16211.666, 0.05503887, -0.011619529, -902902.25, 33607.656, 0.0, 10.000482, 9.999352 
1.025043e+3, 2.1443656e+2, -799133.9, -884573.9, -14101.972, -0.0020760098, -0.042865507, -796866.5, 41651.53, 0.0, 10.0005245, 9.999389 
1.0250575e+3, 2.244357e+2, -728006.3, -842879.94, -32545.848, -0.032076485, -0.046967424, -719426.3, 21099.758, 0.0, 10.000528, 9.999 
1.0250721e+3, 2.3443492e+2, -635553.06, -745795.94, -30545.033, -0.028688366, -0.027297301, -627655.7, 14878.175, 0.0, 10.0004835, 9.999014 
1.0250872e+3, 2.444338e+2, -561481.0, -683896.5, -4968.322, -0.025152065, -0.02865516, -561279.7, -16734.895, 0.0, 10.000425, 9.998795 
1.0251025e+3, 2.5443223e+2, -474635.16, -588865.94, -17090.225, -0.022248974, -0.069398664, -472133.06, -25573.365, 0.0, 10.000337, 9.9988165 
1.02511756e+3, 2.644309e+2, -406113.1, -545180.2, -49559.66, -0.024438422, -0.062013607, -390258.84, -41686.336, 0.0, 10.000308, 9.998458 
1.0251321e+3, 2.7443e+2, -300893.78, -441190.6, -53206.0, -0.032440457, -0.0026824572, -282998.56, -32416.365, 0.0, 10.000348, 9.998478 
1.0251474e+3, 2.844285e+2, -228237.64, -380952.03, -10142.071, -0.016721983, 0.013691494, -227567.03, -74969.71, 0.0, 10.000281, 9.998253 
1.0251636e+3, 2.944263e+2, -158981.61, -294382.5, -2216.7583, 0.027890593, -0.037174188, -158945.33, -104325.89, 0.0, 10.000072, 9.998276 
1.0251792e+3, 3.0442482e+2, -51391.133, -101336.15, 2718.3262, 0.014759767, -0.058474913, -51243.62, -51243.62, 0.0, 9.999978, 9.999311 
1.0251941e+3, 3.144249e+2, -38694.76, -82701.51, -5970.5854, -0.068947904, 0.008480065, -37899.094, -37899.094, 0.0, 10.000007, 9.999427 
1.0349067e+3, 1.24425e+2, -1549853.9, -1718658.0, -31583.791, -0.047803067, -0.030414293, -1544138.0, 176496.86, 0.00027553758, 10.001497, 9.9992485 
1.0349238e+3, 1.3442469e+2, -1461429.6, -1605237.3, 10455.512, 0.03988741, -0.008554674, -1460673.5, 161964.48, 0.000106410545, 10.001338, 9.999436 
1.0349385e+3, 1.4442414e+2, -1367800.9, -1465979.3, -43101.21, -0.043233808, -0.019909766, -1351564.3, 173079.08, 0.000017580353, 10.001121, 9.999822 
1.03495374e+3, 1.5442453e+2, -1311316.3, -1378836.8, -25408.855, 0.008365518, 0.02761829, -1302823.0, 123816.4, 0.00000023822265, 10.000799, 9.999901 
1.0349689e+3, 1.6442432e+2, -1266079.0, -1348519.8, -14616.946, 0.032024644, 0.036274664, -1263564.1, 65076.844, 0.0, 10.000618, 9.999523 
1.0349839e+3, 1.7442334e+2, -1168398.9, -1248987.9, -30896.143, 0.041954726, -0.017019719, -1157917.3, 72732.46, 0.0, 10.000608, 9.999538 
1.0349987e+3, 1.8442269e+2, -1080140.5, -1161503.4, -43483.867, 0.022747463, -0.031768825, -1061275.1, 71380.68, 0.0, 10.000566, 9.999487 
1.0350128e+3, 1.9442245e+2, -989225.94, -1062608.9, -35465.348, -0.039519086, -0.007016142, -974887.5, 59770.703, 0.0, 10.000499, 9.999525 
1.0350276e+3, 2.0442191e+2, -901686.3, -981215.2, -16466.486, -0.06580426, -0.0076057473, -898411.75, 38251.496, 0.0, 10.000478, 9.999421 
1.0350431e+3, 2.1442091e+2, -795224.2, -875766.0, -12680.8, -0.044087, -0.053655084, -793274.8, 45397.06, 0.0, 10.000521, 9.999452 
1.0350582e+3, 2.2442022e+2, -721055.6, -827344.75, -35470.234, -0.02004922, -0.04922564, -710305.9, 30372.287, 0.0, 10.000523, 9.99911 
1.035073e+3, 2.3441996e+2, -627936.56, -729951.9, -31939.01, 0.006069558, 0.010414257, -618762.2, 23919.016, 0.0, 10.000482, 9.9991255 
1.03508785e+3, 2.4441892e+2, -583888.2, -729391.75, -8517.138, 0.011866863, 0.026728053, -583391.3, -38699.605, 0.0, 10.00042, 9.998486 
1.03510305e+3, 2.544169e+2, -498028.7, -637827.25, -18780.684, -0.0063900454, -0.023184732, -495549.63, -48838.016, 0.0, 10.000337, 9.998481 
1.035118e+3, 2.6441514e+2, -409461.2, -552010.44, -47611.72, -0.008431129, -0.043277755, -395021.5, -46292.11, 0.0, 10.000306, 9.998412 
1.0351328e+3, 2.7441365e+2, -303903.78, -445750.1, -49909.918, 0.008280577, -0.038312472, -288102.72, -37358.32, 0.0, 10.0003395, 9.998452 
1.0351478e+3, 2.8441226e+2, -217575.69, -356299.34, -16592.787, -0.0006992211, -0.018299747, -215618.63, -62860.836, 0.0, 10.00027, 9.998427 
1.03516296e+3, 2.9441103e+2, -144641.3, -265160.66, -6597.294, -0.03906417, 0.011560261, -144281.23, -89512.51, 0.0, 10.000074, 9.998475 
1.0351786e+3, 3.0440947e+2, -54441.63, -109689.78, 5214.5254, -0.0401903, -0.026365006, -53953.77, -53953.77, 0.0, 9.999985, 9.999252 
1.03519484e+3, 3.144079e+2, -49529.31, -99150.6, -668.3354, 0.00029249687, -0.114230596, -49520.31, -49520.31, 0.0, 9.999979, 9.999328 
1.0449083e+3, 1.2440954e+2, -1477517.5, -1694387.6, 8609.759, -0.06563064, -0.06299168, -1477176.3, 243608.75, 0.0003338259, 10.002035, 9.999157 
1.0449249e+3, 1.3440925e+2, -1507909.0, -1641759.6, 45457.004, 0.03298219, -0.024944585, -1493931.1, 128857.44, 0.00013404706, 10.001078, 9.999311 
1.0449391e+3, 1.4440872e+2, -1448233.4, -1507025.3, -2554.8005, -0.06553682, -0.028354798, -1448122.5, 76671.68, 0.000024406929, 10.000581, 9.999799 
1.0449544e+3, 1.5440917e+2, -1339905.8, -1395244.3, -24861.432, 0.014804478, 0.026343416, -1330377.3, 96412.52, 0.0000004785213, 10.000612, 9.999879 
1.0449695e+3, 1.6440894e+2, -1282121.9, -1368949.5, -19910.89, 0.044121366, 0.040717833, -1277773.8, 51018.094, 0.0, 10.000562, 9.999411 
1.0449844e+3, 1.744079e+2, -1201314.3, -1277364.1, -11610.653, 0.031519104, -0.0068213195, -1199581.1, 31220.908, 0.0, 10.000438, 9.999426 
1.0449989e+3, 1.844072e+2, -1084943.6, -1152295.9, -5674.9185, -0.0014898314, -0.022771584, -1084468.9, 48339.55, 0.0, 10.000485, 9.999587 
1.0450132e+3, 1.9440702e+2, -943275.94, -1027743.3, -5663.302, -0.0684554, -0.0077002896, -942897.94, 91911.83, 0.0, 10.000761, 9.999637 
1.045028e+3, 2.0440651e+2, -864794.75, -960590.2, -1452.7273, -0.08713911, -0.01035852, -864772.75, 72041.164, 0.0, 10.00072, 9.999445 
1.0450435e+3, 2.1440564e+2, -827850.25, -889057.25, -2921.8804, -0.04304782, -0.0467294, -827711.06, 11110.453, 0.0, 10.000288, 9.999471 
1.04505874e+3, 2.2440492e+2, -764635.4, -851813.8, -17440.129, -0.009195153, -0.04385741, -761275.94, -20447.875, 0.0, 10.000238, 9.999079 
1.04507364e+3, 2.3440444e+2, -602949.44, -722046.9, -26040.059, 0.010237407, -0.0017273059, -597504.8, 45328.188, 0.0, 10.000671, 9.999087 
1.0450885e+3, 2.4440338e+2, -547546.8, -715370.44, -15827.504, 0.016345525, 0.014686667, -546067.2, -1223.1029, 0.0, 10.000683, 9.998454 
1.0451034e+3, 2.544016e+2, -525975.75, -653915.1, -6515.9263, 0.0065497356, -0.010880171, -525644.75, -78782.3, 0.0, 10.000158, 9.998455 
1.0451183e+3, 2.643999e+2, -445636.56, -572875.7, -2380.8257, 0.007517501, -0.023914307, -445592.03, -96711.88, 0.0, 10.000074, 9.99838 
1.0451334e+3, 2.7439815e+2, -275398.88, -435868.4, -4920.1953, 0.020236026, -0.035994258, -275248.16, -24351.057, 0.0, 10.000551, 9.998417 
1.0451483e+3, 2.8439668e+2, -167897.02, -326146.13, 3090.78, 0.0066525885, -0.027645115, -167836.67, -14925.339, 0.0, 10.000585, 9.998483 
1.04516305e+3, 2.9439548e+2, -147158.4, -259061.72, -1650.5638, -0.035610173, -0.0015094826, -147134.06, -92212.53, 0.0, 10.000027, 9.998539 
1.0451785e+3, 3.04394e+2, -106466.14, -142104.64, 16312.502, -0.040696904, -0.030451069, -100127.09, -100127.09, 0.0, 9.9996605, 9.999186 
1.0451945e+3, 3.1439257e+2, -117042.74, -140874.9, 11146.235, -0.0056555932, -0.09904938, -112642.23, -112642.23, 0.0, 9.999556, 9.999244 
1.0549101e+3, 1.2439517e+2, -1475312.8, -1690339.8, -13256.154, -0.08279938, -0.056520764, -1474498.6, 246426.16, 0.00039971265, 10.002037, 9.999185 
1.054926e+3, 1.3439506e+2, -1508781.6, -1644433.1, 10819.233, 0.039631065, 0.0008085325, -1507924.1, 115002.375, 0.00016604259, 10.0010805, 9.999292 
1.0549397e+3, 1.4439416e+2, -1482378.1, -1578766.5, -3277.7747, -0.0654251, -0.01519748, -1482266.9, 42669.098, 0.000032768716, 10.000583, 9.999306 
1.0549554e+3, 1.5439361e+2, -1378327.0, -1473807.6, -23042.184, 0.048428718, -0.006719774, -1373057.1, 53884.758, 0.0000008393984, 10.000607, 9.999343 
1.05497025e+3, 1.6439304e+2, -1270573.4, -1344871.0, -25530.88, 0.051715408, -0.0061991564, -1262646.0, 66301.51, 0.0, 10.000561, 9.999577 
1.0549837e+3, 1.7439246e+2, -1185829.5, -1245298.3, -16349.405, -0.061447863, -0.029120315, -1181631.0, 49321.863, 0.0, 10.000437, 9.999646 
1.0549984e+3, 1.8439202e+2, -1082814.0, -1148136.4, 2379.4304, -0.0990388, -0.034276277, -1082727.4, 50229.152, 0.0, 10.000484, 9.999617 
1.0550141e+3, 1.9439176e+2, -942333.5, -1025552.56, 4482.258, -0.047085203, -0.026950248, -942092.8, 92865.21, 0.0, 10.000758, 9.999654 
1.0550294e+3, 2.0439136e+2, -867044.6, -964601.4, -17668.598, -0.014160423, -0.01948997, -863943.25, 73017.94, 0.0, 10.000716, 9.999419 
1.0550441e+3, 2.1439078e+2, -830192.9, -893501.06, -19389.71, -0.003004188, -0.022169454, -824726.3, 14240.151, 0.0, 10.000285, 9.999442 
1.055059e+3, 2.2438985e+2, -777545.3, -877859.7, -4373.847, -0.0037375789, -0.0319242, -777354.94, -36379.58, 0.0, 10.000234, 9.998902 
1.05507396e+3, 2.3438846e+2, -616305.5, -749222.44, -9246.704, -0.018503372, -0.063040346, -615665.3, 27323.547, 0.0, 10.000667, 9.998903 
1.0550889e+3, 2.4438725e+2, -532231.2, -682399.75, -33744.22, -0.014474234, -0.06149942, -524997.06, 20004.123, 0.0, 10.000677, 9.998684 
1.05510354e+3, 2.543863e+2, -507441.47, -616128.9, -25440.748, 0.013164142, -0.030220248, -501781.25, -54769.29, 0.0, 10.00016, 9.998715 
1.0551185e+3, 2.6438507e+2, -446416.72, -574541.44, 13294.011, 0.019760812, -0.0063738227, -445051.88, -96026.82, 0.0, 10.000074, 9.998368 
1.05513364e+3, 2.7438352e+2, -277808.0, -440173.38, 15192.247, -0.0013383328, -0.0016808514, -276398.72, -25357.871, 0.0, 10.000547, 9.99839 
1.05514884e+3, 2.8438172e+2, -175230.05, -339924.34, -14482.231, -0.00074086257, -0.016463181, -173966.27, -20908.154, 0.0, 10.000577, 9.998392 
1.0551637e+3, 2.9437968e+2, -155009.33, -274145.47, -20417.137, 0.030371612, -0.0670174, -151607.44, -96530.4, 0.0, 10.000019, 9.998439 
1.0551786e+3, 3.0437845e+2, -110865.83, -150367.28, 11984.135, 0.0073269857, -0.06410381, -107514.375, -107514.375, 0.0, 9.999656, 9.999131 
1.05519325e+3, 3.143787e+2, -120111.04, -146166.8, 12165.341, -0.09332857, 0.04202129, -115314.18, -115314.18, 0.0, 9.999551, 9.99921 
1.064912e+3, 1.2438074e+2, -1564385.4, -1729778.4, -38517.43, -0.07221382, -0.02088006, -1555855.1, 165212.36, 0.00047318285, 10.001416, 9.999211 
1.06492735e+3, 1.3438049e+2, -1472796.1, -1629731.3, -33940.715, 0.048908185, 0.02520423, -1465770.3, 157299.69, 0.00020250746, 10.001338, 9.99927 
1.0649404e+3, 1.4437933e+2, -1390622.1, -1541970.4, -15227.026, -0.087092414, -0.011480931, -1389105.4, 135975.89, 0.000042863663, 10.0012455, 9.999239 
1.064956e+3, 1.5437844e+2, -1314222.1, -1449893.4, -1252.8693, 0.014393688, -0.031015754, -1314210.5, 112879.55, 0.0000013547858, 10.00108, 9.999277 
1.0649706e+3, 1.6437781e+2, -1232221.6, -1334182.9, 4280.2544, 0.022034576, -0.030871077, -1232042.3, 97054.15, 0.0, 10.000861, 9.999503 
1.0649843e+3, 1.7437749e+2, -1167773.5, -1244859.6, -9874.675, -0.0650076, -0.020179242, -1166528.6, 64571.023, 0.0, 10.000597, 9.999571 
1.0649989e+3, 1.8437704e+2, -1101790.8, -1156385.4, 5772.125, -0.085749574, -0.021387173, -1101187.1, 31916.05, 0.0, 10.000351, 9.999624 
1.06501475e+3, 1.9437648e+2, -1029820.56, -1066074.9, 6800.6455, -0.03178846, -0.04613153, -1028586.9, 6519.9175, 0.0, 10.000152, 9.999667 
1.06503e+3, 2.0437598e+2, -952822.6, -1019965.9, -21140.332, -0.00038114408, -0.044187978, -946721.0, -9609.918, 0.0, 10.000188, 9.999294 
1.06504455e+3, 2.1437556e+2, -804203.44, -896149.75, -32564.37, 0.0050428333, -0.018688368, -793838.6, 45277.457, 0.0, 10.000529, 9.999307 
1.0650593e+3, 2.243746e+2, -726740.0, -841041.8, -8953.727, -0.0035819134, -0.026775371, -726042.9, 15082.34, 0.0, 10.00053, 9.999012 
1.0650742e+3, 2.3437303e+2, -689482.94, -769669.4, 7757.143, -0.030169683, -0.08827084, -688739.44, -45599.977, 0.0, 10.000103, 9.999034 
1.0650891e+3, 2.443719e+2, -613178.6, -714539.7, -9069.734, -0.029244063, -0.08860592, -612373.5, -67222.664, 0.0, 10.000093, 9.998744 
1.06510386e+3, 2.5437132e+2, -435720.84, -575482.0, -17310.572, 0.0056795515, -0.024687689, -433608.7, 13549.881, 0.0, 10.000627, 9.998769 
1.06511876e+3, 2.6437026e+2, -349140.7, -521110.06, 15141.877, 0.009300429, 0.012052676, -347817.63, 1352.7368, 0.0, 10.000711, 9.998428 
1.0651338e+3, 2.7436867e+2, -324939.88, -455632.06, 21345.604, -0.026500884, 0.0064669074, -321541.9, -70355.14, 0.0, 10.000193, 9.998454 
1.0651489e+3, 2.8436702e+2, -256871.53, -375887.13, -4118.927, -0.015396983, -0.0017812563, -256729.16, -103525.766, 0.0, 10.000003, 9.998421 
1.06516406e+3, 2.9436526e+2, -117187.77, -252856.69, -2513.6758, 0.05621004, -0.026382694, -117141.22, -61920.867, 0.0, 10.000267, 9.998465 
1.0651787e+3, 3.0436414e+2, -43350.33, -109600.94, 29393.752, 0.034217708, -0.018704426, -32189.309, -32189.309, 0.0, 10.000085, 9.999204 
1.0651924e+3, 3.143644e+2, -159453.23, -156389.14, 31693.982, -0.11029355, 0.0833986, -126190.195, -126190.195, 0.0, 9.999245, 9.999288 
1.0749137e+3, 1.2436635e+2, -1565367.1, -1730382.1, -25134.248, -0.045624007, 0.046344727, -1561623.8, 159588.42, 0.00055371417, 10.001411, 9.999208 
1.0749289e+3, 1.3436563e+2, -1476728.3, -1636136.6, -35746.08, 0.056085538, 0.048904054, -1469079.5, 154138.75, 0.00024334127, 10.00133, 9.999229 
1.07494116e+3, 1.4436434e+2, -1364694.5, -1488417.5, -21412.598, -0.13770872, -0.015734594, -1361093.4, 164136.03, 0.00005483326, 10.0012455, 9.999607 
1.0749559e+3, 1.5436374e+2, -1285006.3, -1390710.1, -7041.975, -0.09133611, -0.045574456, -1284539.1, 142694.44, 0.000002073113, 10.001085, 9.9996805 
1.0749707e+3, 1.643633e+2, -1252832.4, -1378877.4, -6646.364, -0.04955997, -0.03384816, -1252482.9, 76754.875, 0.0000000000166348, 10.000868, 9.999193 
1.0749857e+3, 1.7436303e+2, -1193526.4, -1298255.1, -19665.377, 0.017311897, 0.019059854, -1189955.5, 41286.195, 0.0, 10.000596, 9.999206 
1.0750005e+3, 1.8436238e+2, -1103897.1, -1160387.6, -3445.0054, 0.0332386, 0.017300453, -1103687.9, 29559.637, 0.0, 10.000349, 9.9995985 
1.0750149e+3, 1.9436125e+2, -1030229.0, -1066605.4, -1023.0776, -0.025293348, -0.063836426, -1030200.25, 5055.2017, 0.0, 10.00015, 9.999665 
1.0750297e+3, 2.0436041e+2, -969203.06, -1053771.8, -11149.498, -0.048592813, -0.084001474, -967757.8, -30494.83, 0.0, 10.000186, 9.9990635 
1.0750448e+3, 2.1435995e+2, -821731.44, -932262.8, -19867.875, -0.02183249, -0.037111443, -818268.75, 21001.16, 0.0, 10.000526, 9.999061 
1.07505985e+3, 2.2435924e+2, -699893.56, -784770.75, -24676.1, -0.01265728, -0.027846359, -693241.0, 48036.082, 0.0, 10.000526, 9.9994 
1.0750744e+3, 2.3435822e+2, -659212.9, -707030.7, -8115.9375, -0.027990721, -0.07812452, -657872.94, -14588.415, 0.0, 10.000102, 9.999465 
1.0750891e+3, 2.4435736e+2, -620863.0, -730355.3, 8056.7993, -0.031788107, -0.069439225, -620273.4, -74980.5, 0.0, 10.000092, 9.998637 
1.07510425e+3, 2.543567e+2, -446659.66, -597297.1, 3867.9673, -0.020031497, 0.0032588432, -446560.4, 741.7698, 0.0, 10.000622, 9.998622 
1.07511915e+3, 2.6435557e+2, -342141.47, -504686.28, -1280.0531, -0.027148794, 0.031450998, -342131.38, 7184.318, 0.0, 10.000703, 9.998547 
1.0751337e+3, 2.7435377e+2, -315824.1, -435769.5, 3284.955, -0.058125153, -0.008758676, -315734.2, -64399.848, 0.0, 10.000188, 9.998594 
1.07514866e+3, 2.8435257e+2, -247656.27, -355251.53, 3636.572, -0.04008837, 0.015696501, -247533.48, -94186.39, 0.0, 9.999996, 9.998567 
1.07516415e+3, 2.9435214e+2, -107259.32, -231032.67, 10064.629, 0.037823237, 0.110311806, -106446.26, -51094.035, 0.0, 10.000261, 9.998618 
1.0751788e+3, 3.0435097e+2, -32544.025, -86319.555, 2253.087, 0.035728406, 0.098663285, -32449.791, -32449.791, 0.0, 10.000079, 9.999367 
1.075192e+3, 3.1434983e+2, -147404.52, -132379.61, 3344.1414, -0.069612466, 0.038262002, -131668.9, -131668.9, 0.0, 9.999248, 9.999452 
1.08491495e+3, 1.24351785e+2, -1551934.4, -1716227.0, 13103.119, -0.061347004, 0.06297125, -1550895.9, 170459.9, 0.00064071716, 10.0014715, 9.999276 
1.0849299e+3, 1.3435076e+2, -1520942.5, -1653295.6, -13315.226, 0.05511312, 0.032826047, -1519616.3, 103747.58, 0.00028839763, 10.001011, 9.999266 
1.084942e+3, 1.443495e+2, -1445291.3, -1530604.6, -2199.0854, -0.13900015, -0.02990851, -1445234.6, 80140.17, 0.00006873226, 10.00071, 9.999574 
1.0849569e+3, 1.5434928e+2, -1363871.0, -1433713.5, -24726.025, -0.08207806, -0.017810306, -1356003.6, 71372.55, 0.0000030594845, 10.0005665, 9.999635 
1.0849716e+3, 1.6434887e+2, -1285920.1, -1396192.3, -23643.07, -0.041975122, 0.0011363957, -1281064.6, 48315.32, 0.000000000186287, 10.000648, 9.999181 
1.0849865e+3, 1.7434825e+2, -1131115.8, -1268801.1, -10996.177, 0.008692399, 0.017654946, -1130243.1, 101143.516, 0.0, 10.001031, 9.999197 
1.0850011e+3, 1.843474e+2, -1004299.25, -1127164.8, 5693.105, 0.021089243, 0.0045651295, -1004036.0, 129357.875, 0.0, 10.001099, 9.999464 
1.0850154e+3, 1.9434634e+2, -950188.1, -1043768.0, -4124.3115, -0.026766842, -0.0565153, -950006.7, 85395.16, 0.0, 10.000769, 9.999523 
1.0850301e+3, 2.043455e+2, -921907.06, -1029416.25, 2690.8098, -0.04819376, -0.071419954, -921839.75, 15569.988, 0.0, 10.0005045, 9.999076 
1.0850452e+3, 2.1434492e+2, -847394.8, -941768.4, 13457.4375, -0.032395262, -0.037249994, -845513.3, -6095.829, 0.0, 10.000339, 9.999085 
1.0850601e+3, 2.243443e+2, -731194.25, -797268.94, -535.9803, -0.027609615, -0.022450496, -731189.94, 10234.114, 0.0, 10.000301, 9.999423 
1.0850745e+3, 2.3434357e+2, -609218.94, -680585.4, -16939.12, -0.03955771, -0.043965153, -605402.44, 38026.566, 0.0, 10.000435, 9.999487 
1.0850894e+3, 2.4434274e+2, -568281.75, -698699.1, 192.06274, -0.038642082, -0.036620773, -568281.5, -22844.352, 0.0, 10.000425, 9.998694 
1.08510464e+3, 2.5434178e+2, -500950.2, -616323.7, 10454.365, -0.01965575, -0.0030042378, -500010.53, -52561.395, 0.0, 10.000218, 9.998685 
1.0851196e+3, 2.643406e+2, -420995.25, -528971.6, 231.79662, -0.017097225, 0.014441871, -420994.75, -71532.14, 0.0, 10.000104, 9.998667 
1.085134e+3, 2.7433917e+2, -315375.2, -421915.84, 1482.5823, -0.03689189, -0.0002656808, -315354.56, -63876.754, 0.0, 10.000133, 9.998714 
1.0851488e+3, 2.843382e+2, -223215.83, -330141.9, 11816.038, -0.034271255, 0.035224237, -221925.64, -68437.07, 0.0, 10.000106, 9.998686 
1.08516395e+3, 2.9433784e+2, -143405.52, -235484.0, 13983.166, -0.002325432, 0.12300854, -141328.86, -85835.336, 0.0, 9.999958, 9.9987335 
1.0851783e+3, 3.043366e+2, -64517.496, -90484.016, -14167.622, 0.0010514437, 0.093195245, -58283.926, -58283.926, 0.0, 9.999812, 9.999466 
1.0851919e+3, 3.1433555e+2, -70314.8, -81833.6, -21716.514, -0.03357555, 0.033405546, -53606.945, -53606.945, 0.0, 9.999721, 9.999569 
1.0949158e+3, 1.2433709e+2, -1542079.5, -1693669.4, 17433.178, -0.1296375, 0.025722856, -1540100.5, 181397.34, 0.000734217, 10.001463, 9.999435 
1.0949308e+3, 1.3433601e+2, -1512350.0, -1636164.3, -29129.07, 0.04142525, -0.022674302, -1505839.4, 117666.516, 0.00033773432, 10.001013, 9.999383 
1.0949432e+3, 1.4433493e+2, -1476488.5, -1595508.4, -8294.545, -0.095556535, -0.053406868, -1475913.3, 49603.0, 0.0000845864, 10.0007105, 9.999128 
1.0949586e+3, 1.5433514e+2, -1400515.1, -1508246.1, -29458.486, 0.039440535, 0.052470103, -1392986.0, 34530.98, 0.0000043925156, 10.00056, 9.999127 
1.094973e+3, 1.6433464e+2, -1266785.6, -1356033.9, -11594.001, 0.04071008, 0.07565917, -1265304.1, 64218.37, 0.0000000006358386, 10.000645, 9.999458 
1.0949864e+3, 1.7433317e+2, -1107416.5, -1220191.8, 3586.2446, -0.094001316, -0.023088278, -1107302.5, 124231.35, 0.0, 10.001032, 9.99953 
1.0950007e+3, 1.8433218e+2, -1021013.9, -1161905.6, -6620.746, -0.12782408, -0.060124125, -1020703.44, 112838.54, 0.0, 10.001098, 9.999226 
1.095016e+3, 1.9433178e+2, -969879.44, -1084319.4, -16995.47, -0.040111173, -0.02580773, -967408.75, 68136.71, 0.0, 10.000767, 9.999246 
1.095031e+3, 2.0433123e+2, -904659.75, -993401.7, -5679.5703, -0.0034601584, -0.0067017423, -904297.75, 33253.047, 0.0, 10.000503, 9.999326 
1.0950455e+3, 2.143305e+2, -828061.3, -900818.9, 7158.5303, -0.030249221, -0.01855839, -827363.7, 12194.705, 0.0, 10.000334, 9.99937 
1.09506e+3, 2.2432978e+2, -755830.3, -847259.0, 2200.0547, -0.0520915, -0.010214202, -755777.4, -14211.706, 0.0, 10.000295, 9.9990835 
1.0950746e+3, 2.3432913e+2, -636641.1, -736786.06, -11569.013, -0.06796658, 0.012702245, -635322.0, 8250.542, 0.0, 10.000431, 9.999103 
1.0950896e+3, 2.443281e+2, -553708.7, -668058.94, -6931.36, -0.053178698, 0.0092429845, -553290.1, -7706.7534, 0.0, 10.0004225, 9.998907 
1.0951051e+3, 2.5432655e+2, -483375.1, -578647.2, 3781.7776, 0.0021707602, -0.04184653, -483225.22, -35626.195, 0.0, 10.000213, 9.998948 
1.0951202e+3, 2.6432544e+2, -413575.47, -512084.56, 701.75494, 0.033449598, -0.037510384, -413570.47, -63959.676, 0.0, 10.000097, 9.998787 
1.0951349e+3, 2.7432495e+2, -308152.0, -406281.75, 4647.531, 0.030077355, 0.030437153, -307932.38, -56315.31, 0.0, 10.00013, 9.998824 
1.09514914e+3, 2.8432396e+2, -218413.23, -319304.6, 8139.4727, -0.0026804246, 0.057901893, -217760.8, -64133.266, 0.0, 10.000101, 9.998763 
1.0951632e+3, 2.9432243e+2, -139892.25, -225370.66, 11021.466, -0.06821739, 0.018795146, -138494.03, -82850.52, 0.0, 9.999945, 9.998811 
1.09517746e+3, 3.0432105e+2, -64482.746, -87565.25, -18139.494, -0.07396402, -0.0291502, -54524.188, -54524.188, 0.0, 9.999799, 9.999494 
1.0951919e+3, 3.143216e+2, -65113.11, -71312.0, -21142.305, -0.011169379, 0.06828707, -46844.273, -46844.273, 0.0, 9.999721, 9.999641 
1.1049174e+3, 1.2432248e+2, -1541422.6, -1687671.6, 29148.316, -0.113161184, -0.0038470344, -1535827.3, 185812.36, 0.00083503575, 10.001445, 9.999484 
1.10493176e+3, 1.343217e+2, -1519314.8, -1638218.1, -52024.383, 0.04196679, -0.024271622, -1499766.1, 123879.28, 0.0003918232, 10.000956, 9.999398 
1.104944e+3, 1.443207e+2, -1474813.3, -1606243.3, -5130.0107, -0.09595661, -0.044715304, -1474613.3, 51042.17, 0.000102570426, 10.0007715, 9.999025 
1.1049593e+3, 1.5432054e+2, -1362751.1, -1502055.4, 1572.5195, 0.045320656, 0.037129495, -1362733.4, 64926.125, 0.0000061708192, 10.000873, 9.999018 
1.1049738e+3, 1.6431986e+2, -1233945.1, -1342714.8, 33412.25, 0.041251462, 0.049255427, -1224501.4, 105165.08, 0.0000000015512864, 10.000884, 9.999433 
1.10498704e+3, 1.7431845e+2, -1140239.9, -1238059.3, 21051.986, -0.11503905, -0.04349, -1135901.6, 95775.75, 0.0, 10.000817, 9.999511 
1.10500135e+3, 1.8431747e+2, -1076745.6, -1208314.4, -9916.871, -0.15143384, -0.06804723, -1076002.4, 57683.355, 0.0, 10.000799, 9.999052 
1.1050167e+3, 1.943171e+2, -969274.3, -1104654.9, -15353.807, -0.04416345, -0.01245877, -967554.8, 68135.516, 0.0, 10.00086, 9.999061 
1.1050316e+3, 2.0431654e+2, -866425.8, -967913.9, -10400.855, 0.004550936, 0.012151893, -865370.9, 72325.17, 0.0, 10.000735, 9.999388 
1.1050459e+3, 2.1431574e+2, -816446.1, -886164.5, -15211.676, -0.020471007, -0.01517319, -813271.7, 26431.457, 0.0, 10.000376, 9.99945 
1.1050604e+3, 2.2431496e+2, -773085.25, -862424.25, -4308.224, -0.042117156, -0.015670562, -772878.0, -31167.104, 0.0, 10.000207, 9.999021 
1.1050751e+3, 2.3431422e+2, -662515.6, -757354.75, 4605.917, -0.060271915, 0.007205463, -662292.5, -18572.973, 0.0, 10.000289, 9.999029 
1.1050899e+3, 2.443133e+2, -559413.25, -646231.5, 13085.368, -0.04816177, 0.009800108, -557483.9, -11754.555, 0.0, 10.000278, 9.9991255 
1.1051052e+3, 2.5431213e+2, -473719.88, -547888.4, 19399.04, 0.0020195863, -0.02684712, -468952.44, -21211.848, 0.0, 10.000167, 9.999181 
1.10512026e+3, 2.6431116e+2, -403073.13, -493702.78, 21897.523, 0.027876252, -0.026379116, -398059.7, -48309.406, 0.0, 10.000112, 9.998906 
1.10513486e+3, 2.7431053e+2, -303917.6, -392002.72, 24686.932, 0.021105025, 0.015383564, -297470.63, -45713.22, 0.0, 10.000107, 9.998933 
1.1051492e+3, 2.8430954e+2, -241028.6, -323422.34, 18497.326, -0.0067077694, 0.030355234, -237066.48, -83298.58, 0.0, 9.999918, 9.998822 
1.10516295e+3, 2.9430804e+2, -197387.47, -247128.11, 17131.732, -0.058548156, -0.0053842673, -192057.98, -136274.9, 0.0, 9.999525, 9.998862 
1.1051771e+3, 3.0430663e+2, -94672.83, -97400.35, 8459.746, -0.06920921, -0.06303678, -87467.625, -87467.625, 0.0, 9.999572, 9.999535 
1.1051916e+3, 3.1430736e+2, 4082.1465, -28504.441, 2650.6396, -0.031525522, 0.051174924, 4296.345, 4296.345, 0.0, 10.000155, 9.999727 
1.1149198e+3, 1.24308005e+2, -1546446.4, -1697736.6, 34041.8, -0.01709515, -0.030513216, -1539139.5, 182641.33, 0.000944546, 10.001444, 9.999414 
1.1149329e+3, 1.343079e+2, -1526987.5, -1653852.1, -68637.914, 0.052551996, 0.028630206, -1496959.6, 126822.3, 0.00045159098, 10.000954, 9.999292 
1.1149442e+3, 1.4430685e+2, -1456886.8, -1568700.3, -2634.8164, -0.14606372, -0.00269907, -1456824.8, 68966.92, 0.00012308804, 10.00077, 9.999284 
1.1149591e+3, 1.5430558e+2, -1342150.6, -1459972.9, 5830.849, -0.07119444, -0.063355096, -1341862.8, 85939.92, 0.000008505592, 10.000875, 9.999306 
1.1149737e+3, 1.6430461e+2, -1256795.4, -1390778.6, 29696.416, -0.048549093, -0.07893142, -1250508.4, 79302.99, 0.0000000033697685, 10.000887, 9.999102 
1.11498855e+3, 1.743041e+2, -1166672.6, -1292921.5, 18526.771, -0.058052134, -0.04459323, -1164010.0, 67806.55, 0.0, 10.000816, 9.999134 
1.11500315e+3, 1.8430337e+2, -1085030.3, -1225187.5, -9591.163, -0.053678285, -0.018667603, -1084376.9, 49447.445, 0.0, 10.000796, 9.998938 
1.1150177e+3, 1.9430238e+2, -976462.0, -1119403.3, -13250.894, -0.041994907, -0.015091498, -975244.0, 60591.65, 0.0, 10.000858, 9.998961 
1.1150321e+3, 2.0430146e+2, -876064.25, -987349.5, -24627.06, -0.02833088, -0.013780572, -870857.94, 66986.91, 0.0, 10.000732, 9.999257 
1.1150465e+3, 2.1430068e+2, -825834.94, -905011.7, -29038.553, -0.006939711, -0.027196193, -816326.7, 23524.533, 0.0, 10.000373, 9.999322 
1.11506104e+3, 2.242998e+2, -758731.7, -832168.8, -3604.113, -0.0024641955, -0.03859666, -758555.25, -16696.01, 0.0, 10.000204, 9.99923 
1.11507565e+3, 2.342989e+2, -646903.6, -723476.56, 8347.065, -0.02052744, -0.05760228, -646004.3, -2135.116, 0.0, 10.000282, 9.999267 
1.1150905e+3, 2.4429843e+2, -545538.6, -615945.5, 8790.694, -0.02819171, -0.031878896, -544457.7, 1416.8706, 0.0, 10.000271, 9.999337 
1.1151052e+3, 2.5429857e+2, -459085.66, -518155.84, 16126.995, -0.022571847, 0.039630245, -454969.56, -7095.734, 0.0, 10.000169, 9.999385 
1.11511976e+3, 2.6429778e+2, -395050.53, -477836.34, 21474.674, -0.03425833, 0.044722572, -389811.56, -39930.266, 0.0, 10.000114, 9.999014 
1.1151341e+3, 2.7429593e+2, -298452.4, -377740.56, 25655.285, -0.06591793, -0.04501028, -290875.25, -38976.46, 0.0, 10.000093, 9.999038 
1.1151487e+3, 2.8429487e+2, -239696.1, -318121.53, 4062.552, -0.052137997, -0.04629447, -239486.22, -85576.625, 0.0, 9.999907, 9.998865 
1.11516334e+3, 2.9429471e+2, -192554.61, -240428.22, 4699.1934, 0.017873483, 0.047942396, -192097.72, -136185.4, 0.0, 9.999537, 9.998902 
1.1151775e+3, 3.0429333e+2, -90282.09, -91832.09, 28549.678, 0.008152904, -0.010329532, -62496.9, -62496.9, 0.0, 9.999586, 9.999567 
1.11519106e+3, 3.14293e+2, 7768.718, -15893.596, 27363.486, -0.102777764, -0.008592047, 25749.248, 25749.248, 0.0, 10.000133, 9.9998255 
1.12492114e+3, 1.2429368e+2, -1646553.6, -1760192.9, 55803.81, 0.016341029, -0.038328778, -1623733.3, 98187.695, 0.0010643419, 10.000819, 9.999288 
1.1249338e+3, 1.3429353e+2, -1509869.1, -1662517.6, -76173.34, 0.045894872, 0.031849716, -1478361.3, 145562.3, 0.00051804923, 10.001145, 9.99914 
1.1249452e+3, 1.4429253e+2, -1360425.8, -1510001.0, -8773.67, -0.15924975, 0.008080672, -1359912.9, 166020.06, 0.00014661087, 10.001381, 9.999392 
1.1249598e+3, 1.5429123e+2, -1257110.8, -1405366.3, -16205.888, -0.11215429, -0.06636894, -1255360.0, 172583.02, 0.00001150662, 10.0014, 9.999428 
1.1249745e+3, 1.6429026e+2, -1226227.0, -1388895.1, -3715.7732, -0.07886486, -0.081950955, -1226142.1, 103809.27, 0.0000000061074554, 10.00115, 9.998988 
1.1249895e+3, 1.7428981e+2, -1213378.8, -1330049.5, 1185.5576, -0.027971819, -0.029476175, -1213366.8, 18590.533, 0.0, 10.000559, 9.999004 
1.12500414e+3, 1.8428911e+2, -1147819.9, -1238242.5, 9792.008, -0.00522868, -0.0019789357, -1146771.6, -12806.47, 0.0, 10.000293, 9.99909 
1.12501845e+3, 1.9428809e+2, -1020764.3, -1120996.8, 25915.588, -0.032650366, -0.019171843, -1014460.25, 21515.332, 0.0, 10.00047, 9.999137 
1.1250326e+3, 2.0428711e+2, -900187.75, -1008685.06, 19816.207, -0.03928697, -0.030478599, -896681.75, 41303.18, 0.0, 10.000609, 9.999169 
1.1250469e+3, 2.1428618e+2, -785694.1, -897558.6, 15347.246, -0.014969545, -0.04605782, -783626.8, 56366.09, 0.0, 10.0007, 9.999215 
1.12506144e+3, 2.2428532e+2, -699691.1, -798445.44, 36718.41, -0.004131119, -0.05338443, -687535.0, 54466.0, 0.0, 10.000587, 9.999277 
1.12507604e+3, 2.3428461e+2, -651933.9, -718965.2, 32639.691, -0.012824818, -0.058710344, -638666.56, 5342.3735, 0.0, 10.000219, 9.999328 
1.1250907e+3, 2.4428417e+2, -572529.06, -642923.5, 24052.262, -0.025763404, -0.02760035, -565095.8, -19081.705, 0.0, 10.000148, 9.99921 
1.12510525e+3, 2.5428408e+2, -427114.25, -518120.25, 5726.8633, -0.04486963, 0.03742482, -426755.28, 21260.602, 0.0, 10.000457, 9.999246 
1.1251198e+3, 2.642833e+2, -341184.88, -435713.03, -12897.168, -0.06345789, 0.040832363, -339456.8, 10566.892, 0.0, 10.000417, 9.999157 
1.1251339e+3, 2.7428165e+2, -311063.25, -365855.3, -7297.8535, -0.07982014, -0.042797647, -310107.88, -58069.184, 0.0, 9.999929, 9.999198 
1.12514846e+3, 2.8428075e+2, -251568.39, -320713.0, -16796.54, -0.058083, -0.035221532, -247704.16, -93656.81, 0.0, 9.999811, 9.998893 
1.1251631e+3, 2.9428077e+2, -99568.06, -193927.56, -20123.371, 0.01149202, 0.0706991, -95455.72, -39407.258, 0.0, 10.000171, 9.998918 
1.1251774e+3, 3.0427912e+2, -27082.28, -86664.91, -5408.933, 0.010013605, -0.0044079404, -26595.234, -26595.234, 0.0, 10.000132, 9.999339 
1.12519115e+3, 3.1427848e+2, -85122.94, -77119.195, -28195.63, -0.07746902, -0.008338412, -52642.855, -52642.855, 0.0, 9.999568, 9.999676 
1.1349216e+3, 1.24279596e+2, -1659271.4, -1783905.1, 90511.95, -0.018014759, -0.023398641, -1611698.3, 110360.75, 0.0011953667, 10.00081, 9.999129 
1.1349347e+3, 1.3427866e+2, -1523195.3, -1690553.1, -62231.297, 0.014707562, -0.01421523, -1502591.4, 121478.25, 0.00059164723, 10.001146, 9.998948 
1.13494664e+3, 1.4427778e+2, -1363551.0, -1517055.1, -7028.367, -0.14293115, -0.012339779, -1363229.9, 162848.81, 0.00017336896, 10.001383, 9.999343 
1.13496155e+3, 1.542776e+2, -1260110.3, -1412461.1, -15110.703, -0.08054953, 0.028166546, -1258626.0, 169453.81, 0.000015247707, 10.001403, 9.999378 
1.13497585e+3, 1.6427693e+2, -1218899.8, -1374452.3, -25883.248, -0.053511553, 0.04131937, -1214706.0, 115379.98, 0.000000009421829, 10.001153, 9.999086 
1.13499e+3, 1.7427568e+2, -1205135.8, -1313643.3, -21303.697, -0.029318186, 0.0026885667, -1201103.0, 30995.879, 0.0, 10.000561, 9.999116 
1.1350044e+3, 1.8427473e+2, -1118920.3, -1178087.5, 12517.077, -0.012466947, -0.018077811, -1116381.1, 17726.242, 0.0, 10.000292, 9.999504 
1.1350191e+3, 1.9427426e+2, -990054.44, -1056735.6, 32119.938, -0.019253949, -0.024460595, -977099.4, 59010.1, 0.0, 10.000467, 9.99958 
1.1350333e+3, 2.0427348e+2, -903879.7, -1015050.56, 21730.629, -0.03212979, -0.03753636, -899783.0, 38332.777, 0.0, 10.000603, 9.999129 
1.1350472e+3, 2.1427229e+2, -792228.94, -910114.0, 18623.117, -0.04766927, -0.07040771, -789356.9, 50770.605, 0.0, 10.000695, 9.999132 
1.1350615e+3, 2.2427154e+2, -708903.9, -816756.8, 22320.254, -0.05103749, -0.058949213, -704467.2, 37668.414, 0.0, 10.000584, 9.999154 
1.1350759e+3, 2.3427135e+2, -660780.1, -737561.06, 18741.064, -0.039227705, 0.0009870362, -656449.94, -12311.22, 0.0, 10.000219, 9.9992 
1.1350906e+3, 2.442705e+2, -604362.7, -708392.06, 33231.12, -0.04444831, 0.019540548, -594653.5, -48505.36, 0.0, 10.000146, 9.998762 
1.1351055e+3, 2.542688e+2, -462245.75, -587472.5, 18820.635, -0.06935069, -0.030948866, -459478.3, -11312.215, 0.0, 10.000441, 9.998776 
1.1351201e+3, 2.6426777e+2, -330998.88, -410860.44, -28414.484, -0.06637116, -0.033465903, -321921.0, 28255.576, 0.0, 10.0004, 9.999336 
1.1351344e+3, 2.7426776e+2, -294352.56, -332580.72, -23158.002, -0.028774815, 0.021214664, -283439.3, -31262.734, 0.0, 9.999934, 9.999425 
1.13514856e+3, 2.842673e+2, -252656.86, -323586.6, -5223.2925, -0.030658755, 0.06065299, -252274.28, -98093.43, 0.0, 9.999814, 9.998872 
1.13516234e+3, 2.9426616e+2, -106023.695, -201486.95, -4528.088, -0.07962784, 0.060565513, -105809.39, -49617.95, 0.0, 10.000145, 9.998878 
1.1351768e+3, 3.0426398e+2, -62219.527, -153967.61, -23615.867, -0.06688325, -0.046283867, -56497.668, -56497.668, 0.0, 10.000105, 9.99889 
1.1351918e+3, 3.1426394e+2, -107397.01, -126408.96, -43638.547, 0.027025325, 0.058473904, -72241.07, -72241.07, 0.0, 9.999579, 9.999332 
1.144923e+3, 1.2426545e+2, -1504982.1, -1693765.8, 84789.27, -0.022053074, 0.015417548, -1472492.0, 249707.92, 0.0013373722, 10.001803, 9.999269 
1.1449356e+3, 1.3426436e+2, -1539230.9, -1682516.5, -67550.72, -0.0031213583, -0.0038569828, -1512406.4, 111804.21, 0.000672049, 10.000965, 9.999093 
1.14494786e+3, 1.4426352e+2, -1500638.0, -1591523.0, 9086.035, -0.114836805, -0.0030864852, -1499738.5, 26480.457, 0.0002032588, 10.000477, 9.9992695 
1.1449627e+3, 1.5426333e+2, -1423961.8, -1501319.3, -4573.259, -0.05352611, 0.04824212, -1423692.4, 4528.6914, 0.000019742625, 10.000321, 9.9992895 
1.14497684e+3, 1.6426274e+2, -1313659.8, -1407170.5, -13095.25, -0.037630167, 0.06595004, -1311860.5, 18366.582, 0.000000013934886, 10.000447, 9.999202 
1.1449906e+3, 1.7426158e+2, -1135760.1, -1265980.4, -8341.952, -0.04152884, 0.024140473, -1135228.0, 97010.73, 0.0, 10.000975, 9.999244 
1.14500485e+3, 1.842607e+2, -991022.4, -1103871.8, 14935.168, -0.035050273, -0.003489438, -989079.2, 145166.75, 0.0, 10.001117, 9.999616 
1.1450195e+3, 1.9426021e+2, -941031.6, -1020906.56, 8149.6187, -0.028805168, -0.021513239, -940208.56, 96038.68, 0.0, 10.0007515, 9.999688 
1.1450339e+3, 2.042595e+2, -917929.56, -1016042.9, -8770.857, -0.025889046, -0.034969375, -917151.7, 21100.844, 0.0, 10.000483, 9.999179 
1.145048e+3, 2.1425854e+2, -839743.7, -927216.06, -4390.106, -0.023622053, -0.052421827, -839523.9, 738.8935, 0.0, 10.000346, 9.999182 
1.1450622e+3, 2.242578e+2, -746338.75, -851704.25, 4359.323, -0.025470277, -0.03313554, -746158.7, -3887.7283, 0.0, 10.0004015, 9.999001 
1.1450764e+3, 2.342574e+2, -601296.6, -727695.2, -3027.55, -0.035759605, 0.023256302, -601224.1, 43052.133, 0.0, 10.0007105, 9.99903 
1.1450909e+3, 2.4425639e+2, -530071.9, -664254.75, 23906.754, -0.046521958, 0.030233316, -525939.75, 20347.338, 0.0, 10.00062, 9.9988365 
1.1451058e+3, 2.5425455e+2, -519704.6, -604571.3, 47564.84, -0.055201385, -0.04075553, -498396.28, -50091.074, 0.0, 10.000001, 9.998871 
1.14512034e+3, 2.6425347e+2, -439734.3, -481162.16, 12669.289, -0.046903998, -0.04822636, -436167.03, -85850.85, 0.0, 9.99973, 9.999177 
1.1451344e+3, 2.7425343e+2, -308750.25, -359037.56, -12928.225, -0.01947752, 0.021249725, -305621.25, -53304.004, 0.0, 9.999923, 9.9992485 
1.1451484e+3, 2.842529e+2, -235480.38, -311249.97, -2594.866, -0.026556903, 0.06257779, -235391.61, -81069.4, 0.0, 9.999916, 9.998907 
1.14516236e+3, 2.9425168e+2, -179228.45, -231993.6, 3885.0293, -0.072952986, 0.045560673, -178943.94, -122610.79, 0.0, 9.999622, 9.99892 
1.1451767e+3, 3.0424932e+2, -134816.67, -187381.27, 2355.9575, -0.06401011, -0.07875422, -134711.3, -134711.3, 0.0, 9.9996, 9.998904 
1.1451916e+3, 3.1424955e+2, -40279.45, -75346.03, 10419.268, 0.02185518, 0.048859198, -37417.215, -37417.215, 0.0, 9.999963, 9.999498 
1.1549249e+3, 1.242513e+2, -1474506.4, -1629791.3, 70978.27, -0.0009473666, 0.07946743, -1446952.5, 275390.3, 0.001489488, 10.0018015, 9.999708 
1.1549364e+3, 1.3425072e+2, -1505809.9, -1613583.5, -97718.48, -0.011675052, 0.06312658, -1448105.1, 176240.67, 0.00075867696, 10.000967, 9.999565 
1.1549487e+3, 1.4424981e+2, -1506488.6, -1603995.4, 1686.8533, -0.07913849, 0.036179658, -1506459.5, 19893.828, 0.0002361324, 10.000477, 9.999185 
1.15496315e+3, 1.5424858e+2, -1432965.9, -1519348.4, -9961.236, -0.035582326, -0.00568504, -1431832.1, -3466.0808, 0.000024990082, 10.000318, 9.999168 
1.1549773e+3, 1.6424777e+2, -1305197.8, -1388586.4, 3523.566, -0.03769743, -0.007825787, -1305049.1, 25325.04, 0.000000023716384, 10.0004425, 9.999331 
1.1549913e+3, 1.7424761e+2, -1125863.4, -1244933.8, 11705.041, -0.06799405, 0.035064064, -1124723.6, 107652.14, 0.0, 10.000973, 9.99939 
1.1550056e+3, 1.8424706e+2, -1005254.75, -1132701.3, 2249.3645, -0.07713729, 0.042104337, -1005215.06, 129165.12, 0.0, 10.001112, 9.999421 
1.1550199e+3, 1.9424601e+2, -956695.6, -1053670.1, -5748.8154, -0.06508424, -0.010618931, -956356.0, 80032.21, 0.0, 10.0007515, 9.999464 
1.1550343e+3, 2.0424524e+2, -909028.94, -997454.9, -16266.92, -0.026010353, -0.023605917, -906131.4, 32263.166, 0.0, 10.000481, 9.999308 
1.15504906e+3, 2.142449e+2, -829028.56, -904154.56, -9935.362, 0.053136002, 0.0062807156, -827736.8, 12661.554, 0.0, 10.000341, 9.999343 
1.1550636e+3, 2.2424415e+2, -760070.9, -877507.75, 13294.975, 0.06753286, 0.02288648, -758584.56, -16177.922, 0.0, 10.000391, 9.998829 
1.1550775e+3, 2.3424286e+2, -616970.4, -757930.75, 9443.011, -0.006129168, 0.00997471, -616340.6, 28080.248, 0.0, 10.0007, 9.998828 
1.1550917e+3, 2.442419e+2, -491699.53, -582120.44, 3011.6006, -0.037312053, 0.0067789922, -491599.34, 54831.01, 0.0, 10.000608, 9.999406 
1.15510635e+3, 2.5424138e+2, -475196.44, -513250.1, 24957.453, -0.009191889, 0.004977869, -462840.25, -14406.86, 0.0, 10.000004, 9.999497 
1.1551205e+3, 2.6424035e+2, -474311.7, -553209.3, 17061.477, -0.010984107, -0.007912797, -470780.25, -120337.25, 0.0, 9.999732, 9.998681 
1.1551341e+3, 2.7423868e+2, -351283.66, -444506.28, -4298.811, -0.05356671, -0.04172937, -351085.84, -98625.15, 0.0, 9.99991, 9.998667 
1.1551481e+3, 2.8423768e+2, -228904.47, -294180.97, -11061.746, -0.049259342, -0.025689155, -227080.89, -72609.98, 0.0, 9.999901, 9.999033 
1.1551628e+3, 2.9423735e+2, -165394.5, -205701.52, -3084.9631, 0.01707908, 0.02936769, -165159.77, -108687.08, 0.0, 9.99963, 9.999098 
1.1551769e+3, 3.042352e+2, -109167.63, -135123.97, 14778.118, 0.0067001362, -0.10000461, -102477.914, -102477.914, 0.0, 9.999604, 9.999262 
1.1551903e+3, 3.142352e+2, -4803.586, 4223.258, 26672.092, -0.09283669, -0.030360684, 26761.111, 26761.111, 0.0, 9.999936, 10.000058 
1.1649267e+3, 1.2423701e+2, -1546573.0, -1666227.1, 108462.66, 0.018576866, 0.0833073, -1482531.5, 239952.78, 0.0016512593, 10.001315, 9.999693 
1.1649372e+3, 1.3423653e+2, -1464909.5, -1594019.3, -112913.64, -0.03906223, 0.07840312, -1399399.8, 225086.67, 0.0008513687, 10.001246, 9.999566 
1.1649497e+3, 1.4423577e+2, -1394891.3, -1530908.8, -11666.962, -0.060166106, 0.058683682, -1393897.9, 132594.5, 0.00027198074, 10.00116, 9.999357 
1.1649638e+3, 1.5423457e+2, -1329312.3, -1448492.9, -3134.9875, -0.031168062, 0.00073753716, -1329229.9, 99274.234, 0.00003101119, 10.000938, 9.999355 
1.1649779e+3, 1.6423379e+2, -1258298.5, -1356995.0, 35349.293, -0.035498638, -0.014061584, -1246944.0, 83567.46, 0.00000004774233, 10.000726, 9.999413 
1.16499215e+3, 1.7423362e+2, -1182678.6, -1264144.1, 37607.527, -0.055874508, 0.02073793, -1167972.4, 64540.05, 0.0, 10.000548, 9.999462 
1.16500646e+3, 1.8423305e+2, -1110627.0, -1196575.0, 17099.24, -0.057581194, 0.027874952, -1107350.0, 27166.94, 0.0, 10.000444, 9.999305 
1.1650206e+3, 1.9423197e+2, -1009906.44, -1093322.9, 14014.767, -0.04372561, -0.013042996, -1007614.75, 28911.428, 0.0, 10.000447, 9.999338 
1.1650351e+3, 2.0423123e+2, -906278.9, -997558.94, 10219.467, -0.0070162527, -0.017378738, -905148.7, 33384.266, 0.0, 10.000508, 9.999292 
1.1650497e+3, 2.1423091e+2, -783664.1, -883450.75, 3480.004, 0.06357519, 0.015610713, -783542.9, 56993.57, 0.0, 10.000657, 9.999332 
1.16506405e+3, 2.2423014e+2, -727215.8, -845889.4, 28982.596, 0.07676018, 0.022808641, -720515.94, 22028.717, 0.0, 10.000547, 9.99897 
1.165078e+3, 2.3422876e+2, -695250.44, -777903.2, 47996.484, 0.012207665, -0.013896354, -673240.2, -28681.338, 0.0, 10.000088, 9.998985 
1.16509214e+3, 2.4422792e+2, -594850.0, -637821.94, 31596.197, -0.020581288, -0.01008621, -578126.44, -31559.477, 0.0, 9.999927, 9.999352 
1.1651063e+3, 2.5422782e+2, -456072.84, -511562.56, 1801.3938, -0.011093738, 0.035034932, -456014.4, -7447.2544, 0.0, 10.000171, 9.999429 
1.1651202e+3, 2.6422682e+2, -399975.7, -509230.78, -8737.06, -0.020368073, 0.027050644, -399281.38, -48705.023, 0.0, 10.000209, 9.998752 
1.16513394e+3, 2.7422473e+2, -341181.78, -431497.8, 16545.041, -0.0523618, -0.056632064, -338246.3, -85649.44, 0.0, 9.999944, 9.998741 
1.16514795e+3, 2.8422365e+2, -244541.97, -295983.56, 30299.977, -0.04520919, -0.05720757, -230517.98, -75910.516, 0.0, 9.999767, 9.999085 
1.1651625e+3, 2.942236e+2, -147014.64, -191114.39, 24633.975, 0.01147177, 0.023065573, -136003.52, -79396.836, 0.0, 9.999735, 9.999146 
1.1651765e+3, 3.042215e+2, -107653.61, -131669.89, 33131.566, 0.005482171, -0.1039678, -84421.2, -84421.2, 0.0, 9.999605, 9.999285 
1.1651902e+3, 3.1422147e+2, -86598.984, -10977.66, 21340.178, -0.062418535, -0.042115446, -5371.1675, -5371.1675, 0.0, 9.99927, 10.000276 
1.1749281e+3, 1.24222666e+2, -1581070.5, -1737380.5, 113955.7, 0.032631066, 0.028332658, -1521044.1, 201579.19, 0.0018234614, 10.001313, 9.999206 
1.17493786e+3, 1.342219e+2, -1498530.6, -1664084.8, -113271.69, -0.09133057, 0.04208122, -1441013.4, 183618.42, 0.0009506097, 10.001246, 9.999086 
1.1749508e+3, 1.4422153e+2, -1365025.5, -1468932.6, -19874.225, -0.065104194, 0.06576308, -1361353.9, 165281.33, 0.00031097958, 10.00116, 9.999783 
1.1749646e+3, 1.542214e+2, -1294031.1, -1376140.8, -11300.875, -0.045209117, 0.06734829, -1292504.3, 136130.44, 0.00003785508, 10.000942, 9.99985 
1.17497854e+3, 1.6422082e+2, -1255956.8, -1353365.5, 27180.41, -0.037005365, 0.04606895, -1248885.8, 81752.65, 0.00000010132158, 10.00073, 9.999436 
1.1749933e+3, 1.7421964e+2, -1182935.0, -1265369.1, 30952.563, -0.008881889, -0.019522728, -1172606.9, 60041.15, 0.0, 10.000549, 9.9994545 
1.1750077e+3, 1.8421872e+2, -1113430.5, -1201820.6, 15048.254, 0.017885612, -0.04592052, -1110938.9, 23716.924, 0.0, 10.000442, 9.9992695 
1.1750218e+3, 1.9421822e+2, -1013009.25, -1099013.5, 13863.418, 0.031833924, -0.028366996, -1010829.8, 25830.775, 0.0, 10.000443, 9.999301 
1.1750359e+3, 2.0421754e+2, -918056.7, -1020761.1, 13974.395, 0.027767563, -0.015858881, -916189.2, 22478.018, 0.0, 10.000503, 9.999137 
1.17504984e+3, 2.1421665e+2, -795942.3, -908350.75, 9308.53, 0.0048927, -0.024088219, -795176.7, 45499.77, 0.0, 10.000654, 9.999164 
1.17506385e+3, 2.242158e+2, -697950.06, -784245.8, 12111.917, -0.0016941957, -0.03211743, -696282.4, 46402.07, 0.0, 10.000543, 9.999395 
1.17507815e+3, 2.3421511e+2, -661483.0, -708178.94, 30502.85, 0.0153567735, -0.04980297, -646418.06, -1727.8151, 0.0, 10.000087, 9.999465 
1.1750923e+3, 2.4421448e+2, -640644.75, -731744.06, 37661.85, -0.00025806675, -0.0222179, -627091.2, -80394.05, 0.0, 9.999922, 9.99871 
1.17510594e+3, 2.542139e+2, -508353.47, -618834.8, 12525.337, -0.061407335, 0.049794562, -506951.28, -58245.344, 0.0, 10.000164, 9.998695 
1.17512e+3, 2.6421297e+2, -357974.56, -420357.88, -15913.978, -0.076249, 0.057108827, -354149.47, -3433.8777, 0.0, 10.0002, 9.999368 
1.1751342e+3, 2.7421162e+2, -290891.22, -326376.94, 8864.527, -0.027379083, -0.025976969, -288800.06, -36074.566, 0.0, 9.999939, 9.999467 
1.175148e+3, 2.842107e+2, -251539.48, -308298.25, 27814.115, -0.024924258, -0.03655106, -240182.06, -85449.9, 0.0, 9.999758, 9.999005 
1.1751612e+3, 2.9421034e+2, -158449.3, -212125.3, 24162.658, -0.08601247, 0.023334332, -149174.8, -92438.87, 0.0, 9.9997225, 9.999008 
1.1751754e+3, 3.042082e+2, -122929.38, -161560.88, 22330.209, -0.06594896, -0.09437244, -112719.945, -112719.945, 0.0, 9.999596, 9.999084 
1.1751909e+3, 3.1420845e+2, -84641.234, -9345.968, 14151.127, 0.085632466, 0.014357276, -6774.2197, -6774.2197, 0.0, 9.999279, 10.000283 
1.18492916e+3, 1.2420905e+2, -1574625.3, -1731893.9, 137105.81, 0.0044424217, 0.015689518, -1495204.8, 227551.48, 0.0020081834, 10.001349, 9.999224 
1.1849387e+3, 1.342084e+2, -1530227.0, -1672516.0, -55016.996, -0.11867188, 0.035090316, -1511435.9, 113328.17, 0.0010574218, 10.001, 9.999146 
1.1849524e+3, 1.4420813e+2, -1420610.0, -1512041.4, 45942.145, -0.014066236, 0.072512254, -1401513.6, 125253.414, 0.00035351914, 10.00085, 9.999636 
1.1849656e+3, 1.5420797e+2, -1315490.9, -1404496.8, 2504.4072, -0.04219191, 0.08727615, -1315420.5, 113347.04, 0.00004562391, 10.000874, 9.999688 
1.1849792e+3, 1.6420738e+2, -1235566.9, -1334743.0, 15805.194, -0.04530885, 0.06914787, -1233109.0, 97662.67, 0.00000019883093, 10.000832, 9.999516 
1.1849941e+3, 1.7420621e+2, -1151693.1, -1238606.6, 26365.596, 0.01627705, -0.004874821, -1144320.5, 88459.8, 0.0, 10.000715, 9.9995575 
1.18500866e+3, 1.842053e+2, -1081390.5, -1185659.9, 23565.072, 0.055533573, -0.036835574, -1076312.0, 58475.53, 0.0, 10.00066, 9.999274 
1.18502274e+3, 1.9420475e+2, -975247.4, -1081623.8, 23464.535, 0.053450465, -0.02245066, -970301.5, 66491.48, 0.0, 10.000706, 9.999294 
1.1850365e+3, 2.0420404e+2, -895990.5, -1007366.7, 30265.13, 0.032967344, -0.014253532, -888297.7, 50502.402, 0.0, 10.00064, 9.999164 
1.18505016e+3, 2.1420312e+2, -827137.3, -918752.94, 38773.965, -0.008621134, -0.026396997, -812930.3, 27878.904, 0.0, 10.0004225, 9.999203 
1.1850641e+3, 2.2420238e+2, -726990.44, -790471.7, 32637.443, -0.020826012, -0.030618249, -713204.5, 29611.615, 0.0, 10.000311, 9.999464 
1.18507825e+3, 2.342019e+2, -618504.3, -679460.1, 19521.74, 0.0060827015, -0.034712706, -612788.25, 32031.443, 0.0, 10.000348, 9.999536 
1.18509226e+3, 2.4420123e+2, -588973.6, -711753.8, 40006.625, -0.0011921601, -0.0116534205, -577088.44, -30261.652, 0.0, 10.000298, 9.998666 
1.1851062e+3, 2.5420034e+2, -519110.63, -630415.56, 62402.81, -0.05426763, 0.032849085, -491149.03, -42310.29, 0.0, 10.000118, 9.998638 
1.1851201e+3, 2.6419935e+2, -407319.4, -441844.84, 28743.75, -0.06253787, 0.03608569, -391052.97, -40203.91, 0.0, 9.999851, 9.999389 
1.18513405e+3, 2.7419826e+2, -355121.84, -353639.5, -194.51326, -0.011292979, -0.021086529, -353614.4, -100758.055, 0.0, 9.999485, 9.999496 
1.1851476e+3, 2.841975e+2, -312152.28, -348346.94, 7342.261, -0.0079704, -0.017281277, -310719.6, -155857.42, 0.0, 9.999391, 9.998905 
1.185161e+3, 2.9419702e+2, -180106.89, -235630.28, 7017.2153, -0.06650351, 0.04289471, -179233.75, -122366.43, 0.0, 9.99963, 9.998892 
1.1851752e+3, 3.041947e+2, -117085.55, -176678.42, -2564.5664, -0.05078893, -0.075346924, -116975.38, -116975.38, 0.0, 9.999714, 9.998923 
1.18519045e+3, 3.141946e+2, -31712.393, 23119.832, -15552.335, 0.091510914, 0.012679445, 27223.846, 27223.846, 0.0, 9.999615, 10.000342 
1.1949297e+3, 1.2419626e+2, -1538414.3, -1656234.0, 118105.23, -0.08101022, 0.047650512, -1465342.3, 257539.66, 0.0022081332, 10.001346, 9.999745 
1.1949397e+3, 1.3419609e+2, -1487990.0, -1585445.8, -65983.9, -0.12579472, 0.057169396, -1454691.9, 170190.56, 0.0011730703, 10.001001, 9.999744 
1.1949542e+3, 1.4419565e+2, -1471064.8, -1617726.6, 45714.36, 0.08876241, 0.07777407, -1457982.5, 68904.5, 0.00040013902, 10.000853, 9.998909 
1.1949666e+3, 1.5419436e+2, -1374061.9, -1525896.4, 3690.434, -0.024848593, 0.06047581, -1373972.3, 54929.703, 0.00005450229, 10.000873, 9.998856 
1.19497985e+3, 1.6419351e+2, -1226599.5, -1316180.0, 10538.808, -0.06535014, 0.056838945, -1225376.4, 105533.8, 0.00000035173326, 10.000831, 9.999643 
1.1949949e+3, 1.7419335e+2, -1136915.1, -1208094.4, 21988.922, 0.015872816, 0.06473113, -1130670.3, 102238.22, 0.0, 10.000714, 9.999767 
1.1950093e+3, 1.8419278e+2, -1079190.6, -1181146.8, 23368.96, 0.05034449, 0.053468496, -1074089.5, 60822.535, 0.0, 10.000659, 9.999306 
1.195023e+3, 1.941916e+2, -974365.5, -1079514.3, 24834.488, 0.0175636, 0.0035566285, -968795.1, 68127.97, 0.0, 10.000704, 9.9993105 
1.19503684e+3, 2.0419076e+2, -882277.06, -977803.06, 21150.273, 0.003824238, -0.011889947, -877803.7, 61127.273, 0.0, 10.000634, 9.99937 
1.1950509e+3, 2.141904e+2, -812154.56, -886714.06, 30063.754, 0.019321157, 0.0070815687, -801542.7, 39391.777, 0.0, 10.000417, 9.999426 
1.1950647e+3, 2.2418988e+2, -747149.4, -830416.44, 31658.047, 0.015010912, 0.025256885, -736480.1, 6459.4385, 0.0, 10.000302, 9.999195 
1.19507834e+3, 2.3418917e+2, -640648.1, -725254.2, 21364.65, -0.017376615, 0.029562403, -635559.25, 9387.484, 0.0, 10.000346, 9.999224 
1.1950924e+3, 2.4418825e+2, -553886.44, -637843.06, 33255.75, -0.026223555, 0.021428835, -542309.9, 4645.429, 0.0, 10.000293, 9.999176 
1.1951068e+3, 2.541871e+2, -480030.9, -546670.94, 56079.64, 0.00032430966, -0.015715737, -448119.4, 846.19165, 0.0, 10.000106, 9.999219 
1.1951207e+3, 2.6418594e+2, -448514.16, -525321.2, 14714.091, 0.011303165, -0.035834454, -445791.8, -94814.89, 0.0, 9.999841, 9.998821 
1.19513355e+3, 2.7418473e+2, -400506.9, -449393.0, -13017.79, -0.003659263, -0.040425207, -397256.53, -144267.33, 0.0, 9.99949, 9.998837 
1.1951472e+3, 2.8418395e+2, -315611.75, -358141.53, 15469.527, 0.0045734523, 0.0010317172, -310580.22, -155583.23, 0.0, 9.9994, 9.998835 
1.1951619e+3, 2.941836e+2, -183328.11, -241295.2, 19458.88, 0.048296146, 0.07922795, -177401.86, -120401.72, 0.0, 9.999624, 9.998857 
1.1951758e+3, 3.041811e+2, -135942.69, -212430.66, -4777.656, 0.032396622, -0.04796367, -135645.4, -135645.4, 0.0, 9.9997, 9.998685 
1.1951888e+3, 3.1418e+2, -35212.98, 19617.17, -15522.36, -0.036330875, -0.03512392, 23706.54, 23706.54, 0.0, 9.999599, 10.000325 
1.2049311e+3, 1.2418333e+2, -1575467.8, -1687405.0, 102457.58, -0.071644, 0.06969693, -1514688.6, 208319.92, 0.0024257244, 10.001152, 9.999623 
1.2049403e+3, 1.341829e+2, -1475824.4, -1588654.1, -124042.39, -0.17337482, 0.06265077, -1395970.5, 229041.4, 0.0012988481, 10.001123, 9.999664 
1.20495535e+3, 1.4418234e+2, -1427782.6, -1591956.6, -5953.463, 0.10341493, 0.07411389, -1427567.0, 99450.695, 0.00045139206, 10.001129, 9.998952 
1.2049678e+3, 1.5418112e+2, -1336999.5, -1501390.4, 16406.766, -0.0055406876, 0.058506213, -1335378.0, 93653.34, 0.00006471426, 10.0011, 9.998913 
1.204981e+3, 1.6418025e+2, -1211948.8, -1322476.5, 47367.44, -0.049254872, 0.055398736, -1194426.9, 136612.83, 0.00000057087306, 10.000992, 9.999521 
1.2049955e+3, 1.7417996e+2, -1131759.4, -1221576.8, 30733.273, 0.009189458, 0.062453818, -1122250.0, 110790.15, 0.0, 10.000819, 9.999623 
1.20500974e+3, 1.8417938e+2, -1072996.9, -1172052.8, 23886.719, 0.031876184, 0.055869132, -1067537.6, 67506.58, 0.0, 10.000675, 9.999361 
1.20502345e+3, 1.9417842e+2, -989340.1, -1077535.0, 29091.273, 0.003218483, 0.019492878, -980608.7, 56444.434, 0.0, 10.000564, 9.99939 
1.2050374e+3, 2.041777e+2, -912939.7, -984798.7, 17584.063, 0.000059706337, 0.0094256, -908867.56, 30192.004, 0.0, 10.000393, 9.999436 
1.20505124e+3, 2.1417734e+2, -847180.75, -896613.8, 12561.169, 0.03268633, 0.022161761, -844172.0, -3109.4102, 0.0, 10.000145, 9.999489 
1.205065e+3, 2.2417675e+2, -793946.5, -867294.0, 24213.512, 0.030723548, 0.035004504, -786674.2, -43605.72, 0.0, 10.000042, 9.999067 
1.2050786e+3, 2.3417586e+2, -681106.94, -760226.25, 25080.934, -0.019142875, 0.03698587, -673826.25, -28748.268, 0.0, 10.000136, 9.9990835 
1.2050925e+3, 2.4417493e+2, -584400.0, -634508.56, 19204.46, -0.0227792, 0.026603343, -577886.44, -30799.719, 0.0, 10.000007, 9.999335 
1.20510705e+3, 2.5417393e+2, -545486.1, -556600.75, 10590.054, 0.038255516, -0.014217066, -539083.8, -89989.28, 0.0, 9.999565, 9.999411 
1.20512076e+3, 2.6417282e+2, -502280.8, -568781.44, -16297.395, 0.052373942, -0.029694626, -498501.56, -147396.55, 0.0, 9.999551, 9.99866 
1.2051334e+3, 2.7417156e+2, -322033.88, -433191.5, -9732.041, 0.0010801997, -0.01883619, -321188.25, -68069.38, 0.0, 10.000123, 9.998643 
1.2051468e+3, 2.8417063e+2, -197708.47, -304241.38, 28875.584, -0.0011244939, 0.0144480225, -190385.2, -35256.17, 0.0, 10.000223, 9.998808 
1.2051616e+3, 2.941699e+2, -175655.6, -239171.56, 29049.986, 0.0654138, 0.052782487, -164373.23, -107237.625, 0.0, 9.999685, 9.998839 
1.20517544e+3, 3.0416745e+2, -182820.31, -237585.45, 19268.053, 0.04361023, -0.061493408, -176720.61, -176720.61, 0.0, 9.999388, 9.998661 
1.20518796e+3, 3.1416664e+2, -54655.094, 29556.34, 26378.932, -0.059429254, -0.01877663, 37137.035, 37137.035, 0.0, 9.999379, 10.000502 
1.2149331e+3, 1.24170355e+2, -1632495.1, -1805095.5, 80670.07, 0.022954978, 0.08477081, -1600662.4, 122472.34, 0.0026624324, 10.001147, 9.998817 
1.2149404e+3, 1.341689e+2, -1530303.4, -1702086.9, -123673.48, -0.26609206, 0.051397435, -1465621.1, 159531.0, 0.0014356553, 10.001123, 9.998885 
1.2149557e+3, 1.4416829e+2, -1370199.8, -1473558.9, -7935.377, 0.02112078, 0.06201443, -1369594.1, 157564.48, 0.0005075534, 10.001133, 9.9997635 
1.214969e+3, 1.5416835e+2, -1269755.5, -1362173.0, 15651.142, 0.011111282, 0.08075128, -1267176.9, 161978.06, 0.000076397075, 10.0011, 9.999869 
1.2149824e+3, 1.6416767e+2, -1238996.6, -1378956.3, 39462.184, -0.0022489987, 0.06358698, -1228637.0, 102522.54, 0.0000008702971, 10.000992, 9.999134 
1.2149962e+3, 1.7416608e+2, -1167518.5, -1295912.1, 23980.65, -0.0072174496, -0.011278659, -1163185.8, 69989.02, 0.0, 10.000818, 9.999114 
1.21501e+3, 1.8416516e+2, -1067343.8, -1159659.5, 18143.514, -0.004899885, -0.0267786, -1063905.9, 71277.44, 0.0, 10.000671, 9.999448 
1.2150241e+3, 1.9416521e+2, -979668.75, -1057439.5, 24726.625, 0.006956022, 0.02541683, -972472.9, 64709.707, 0.0, 10.000562, 9.999529 
1.21503785e+3, 2.0416489e+2, -917774.94, -995312.75, 7072.0386, 0.017301807, 0.04818834, -917135.25, 22050.27, 0.0, 10.000394, 9.999365 
1.2150514e+3, 2.14164e+2, -853535.75, -909908.06, 3100.2185, 0.027454339, 0.01874248, -853365.8, -12172.723, 0.0, 10.000144, 9.999399 
1.21506505e+3, 2.2416304e+2, -794894.6, -868305.75, 25095.912, 0.022032227, 0.0009240505, -787135.56, -43933.418, 0.0, 10.000037, 9.9990635 
1.2150788e+3, 2.3416202e+2, -681627.44, -760028.5, 28820.223, -0.0040461263, -0.011733329, -672173.2, -26960.229, 0.0, 10.00013, 9.999088 
1.2150928e+3, 2.4416126e+2, -597257.9, -660130.75, 3319.255, 0.0044642743, 0.0026437023, -597083.1, -49862.336, 0.0, 10.000001, 9.999164 
1.21510684e+3, 2.5416082e+2, -557328.6, -583150.6, -5051.0947, 0.058369365, 0.0362685, -556375.75, -107150.84, 0.0, 9.999572, 9.999226 
1.2151203e+3, 2.6416004e+2, -485759.1, -535822.44, 2357.8513, 0.060188863, 0.05268366, -485648.28, -134415.45, 0.0, 9.999556, 9.998885 
1.21513344e+3, 2.7415884e+2, -306441.44, -396449.63, 13826.823, -0.007939639, 0.040425606, -304365.28, -51120.08, 0.0, 10.000103, 9.998905 
1.2151467e+3, 2.8415748e+2, -203201.3, -311051.4, 12187.85, -0.035174996, 0.021747038, -201841.14, -46582.86, 0.0, 10.000201, 9.998772 
1.21516064e+3, 2.9415578e+2, -179660.72, -247328.34, 10378.918, -0.009084281, -0.030885398, -178104.58, -120830.99, 0.0, 9.999684, 9.998785 
1.2151742e+3, 3.0415374e+2, -164239.83, -200876.83, 18286.93, -0.012051606, -0.111277334, -156674.38, -156674.38, 0.0, 9.999396, 9.99891 
1.215188e+3, 3.141545e+2, -25545.832, 94252.01, 31119.25, -0.004857167, 0.06144213, 101853.375, 101853.375, 0.0, 9.999362, 10.000954 
1.2249341e+3, 1.2415702e+2, -1656067.4, -1815768.4, 58704.598, 0.01745881, 0.06867985, -1636810.3, 86454.945, 0.0029179724, 10.000983, 9.998822 
1.2249413e+3, 1.3415569e+2, -1547160.3, -1702452.6, -61309.86, -0.28997707, 0.041995645, -1525872.9, 99408.22, 0.0015834377, 10.000977, 9.998952 
1.224957e+3, 1.4415509e+2, -1392401.6, -1477046.6, 62867.88, 0.051834885, 0.047465127, -1358937.9, 168349.14, 0.00056846405, 10.000952, 9.999825 
1.2249701e+3, 1.5415514e+2, -1295940.9, -1368054.1, 16687.494, 0.01731405, 0.05932052, -1292266.5, 137016.42, 0.00008951281, 10.000893, 9.9999275 
1.2249832e+3, 1.6415447e+2, -1267086.8, -1397414.4, 13889.981, -0.01149552, 0.04007232, -1265622.8, 65664.695, 0.0000012652538, 10.00082, 9.999088 
1.2249968e+3, 1.7415288e+2, -1186089.0, -1310036.8, 30724.018, -0.02214969, -0.027267873, -1178891.3, 54411.875, 0.0, 10.000715, 9.999066 
1.2250105e+3, 1.84152e+2, -1090059.8, -1177404.0, 38748.434, -0.014932254, -0.034449723, -1075347.8, 59963.96, 0.0, 10.000546, 9.999386 
1.2250245e+3, 1.9415207e+2, -1019462.25, -1083919.5, 28535.643, 0.013201177, 0.02482489, -1008644.8, 28666.47, 0.0, 10.00032, 9.999464 
1.2250383e+3, 2.0415159e+2, -941506.6, -1023226.5, 7208.441, 0.025314735, 0.043795608, -940875.6, -1559.9531, 0.0, 10.000301, 9.999217 
1.22505166e+3, 2.1415038e+2, -802159.94, -901545.0, -2259.8044, 0.017326651, -0.0021189323, -802108.56, 39217.8, 0.0, 10.00057, 9.99925 
1.2250652e+3, 2.2414935e+2, -722591.2, -828708.8, 12496.106, 0.00892502, -0.021754935, -721139.5, 22196.785, 0.0, 10.000515, 9.999104 
1.225079e+3, 2.3414856e+2, -696800.56, -761057.56, 17210.273, 0.00007269195, -0.01611608, -692481.4, -47136.53, 0.0, 9.999999, 9.999144 
1.2250928e+3, 2.4414787e+2, -632730.4, -686092.7, 2206.3308, 0.008549063, 0.0059051705, -632639.3, -85287.12, 0.0, 9.999795, 9.999084 
1.2251064e+3, 2.5414732e+2, -494875.6, -562999.8, -817.75354, 0.038923737, 0.033722088, -494865.78, -45507.688, 0.0, 10.000044, 9.999136 
1.22512e+3, 2.641465e+2, -409834.03, -484773.22, 12305.652, 0.041378643, 0.04975034, -407865.1, -56498.977, 0.0, 10.000014, 9.999014 
1.2251334e+3, 2.741455e+2, -373555.53, -412081.6, 13063.965, 0.007014468, 0.042948462, -369543.44, -116166.96, 0.0, 9.999572, 9.999053 
1.2251469e+3, 2.8414434e+2, -303985.44, -337663.84, 10484.919, -0.013068388, 0.028143276, -300988.0, -145600.69, 0.0, 9.999417, 9.998965 
1.2251601e+3, 2.941429e+2, -168185.9, -220117.72, 25531.932, -0.016406562, -0.018969491, -157736.06, -100336.27, 0.0, 9.999669, 9.998979 
1.22517355e+3, 3.0414116e+2, -134284.6, -219069.0, 27359.8, -0.02328577, -0.06763721, -126222.29, -126222.29, 0.0, 9.999743, 9.998617 
1.2251878e+3, 3.1414133e+2, -10417.589, 77875.57, -8163.1475, 0.023934131, 0.076221175, 78623.945, 78623.945, 0.0, 9.999567, 10.000742 
1.2349338e+3, 1.2414341e+2, -1598872.6, -1696227.4, 28898.83, -0.109901816, 0.021345485, -1590940.5, 132458.2, 0.0031899144, 10.00098, 9.999645 
1.2349426e+3, 1.3414337e+2, -1483537.6, -1568959.4, -59383.68, -0.24688554, 0.03435244, -1453100.4, 172297.4, 0.0017411282, 10.00097, 9.999872 
1.2349594e+3, 1.4414287e+2, -1442396.1, -1580199.3, 59048.293, 0.19218312, 0.03089495, -1420555.6, 106846.19, 0.0006337289, 10.000948, 9.99912 
1.23497084e+3, 1.5414159e+2, -1355926.5, -1493830.5, 14694.86, 0.008889764, -0.0055224006, -1354378.0, 75036.38, 0.00010392506, 10.0008955, 9.9990635 
1.2349833e+3, 1.6414069e+2, -1245938.1, -1353535.5, 9037.216, -0.08360005, -0.014394418, -1245184.4, 86238.664, 0.0000017603737, 10.000819, 9.999391 
1.2349973e+3, 1.7414045e+2, -1157552.0, -1250909.4, 26811.531, -0.03915108, 0.013610324, -1150399.9, 83024.73, 0.0, 10.000714, 9.999473 
1.2350112e+3, 1.8413994e+2, -1105520.6, -1209282.6, 28553.1, -0.0033210556, 0.030534673, -1098182.4, 37246.992, 0.0, 10.000545, 9.999168 
1.2350249e+3, 1.94139e+2, -1039049.56, -1124170.6, 19513.031, 0.01846212, 0.0183949, -1034789.6, 2648.926, 0.0, 10.000318, 9.999189 
1.2350386e+3, 2.0413789e+2, -957600.94, -1056145.3, 14315.268, 0.02088536, -0.0006079754, -955563.5, -16114.185, 0.0, 10.0002985, 9.998993 
1.235052e+3, 2.1413656e+2, -818015.75, -933834.8, 7904.6797, -0.0008347139, -0.040802974, -817478.75, 23983.371, 0.0, 10.0005665, 9.99903 
1.23506546e+3, 2.2413568e+2, -716999.1, -816542.2, -5585.643, -0.012531936, -0.034673892, -716686.7, 26783.982, 0.0, 10.000511, 9.99919 
1.2350789e+3, 2.3413552e+2, -689092.25, -745124.3, -1756.4775, -0.009909434, 0.02283211, -689037.25, -43564.0, 0.0, 9.999998, 9.999254 
1.2350923e+3, 2.4413483e+2, -633411.3, -687430.4, 8291.194, -0.013061093, 0.037395928, -632167.4, -84686.94, 0.0, 9.999794, 9.999076 
1.23510584e+3, 2.5413337e+2, -497491.84, -565914.56, 9878.926, -0.024509022, -0.020495359, -496094.06, -46600.285, 0.0, 10.000031, 9.999122 
1.2351195e+3, 2.641323e+2, -410123.5, -482314.13, -1774.5673, -0.008924613, -0.036470383, -410079.9, -58575.28, 0.0, 10.0, 9.999039 
1.2351333e+3, 2.7413166e+2, -371038.9, -408084.75, -1912.4442, 0.04287419, -0.0065507367, -370940.44, -117428.28, 0.0, 9.999575, 9.999079 
1.235147e+3, 2.841313e+2, -274054.25, -276596.84, 17728.043, 0.059752308, 0.035239447, -257551.98, -102036.0, 0.0, 9.999421, 9.999383 
1.2351603e+3, 2.941312e+2, -138941.13, -155479.48, 36808.734, 0.028594159, 0.07999225, -109484.16, -51969.234, 0.0, 9.999652, 9.999431 
1.2351736e+3, 3.0412963e+2, -196054.86, -343677.16, 22146.26, -0.0046843444, 0.062292255, -192804.06, -192804.06, 0.0, 9.999725, 9.99777 
1.2351873e+3, 3.1412724e+2, -73764.05, -53004.348, -8792.772, 0.021823639, 0.04512845, -49780.74, -49780.74, 0.0, 9.999563, 9.999845 
1.24493435e+3, 1.2413022e+2, -1745341.8, -1725780.4, 28907.057, -0.10081623, 0.009585827, -1705044.3, 18483.814, 0.003475539, 9.999797, 10.0000105 
1.2449435e+3, 1.3413069e+2, -1472708.9, -1513880.8, -66184.45, -0.255551, 0.030174723, -1423982.8, 201537.3, 0.0019075654, 10.000831, 10.000317 
1.2449606e+3, 1.4413023e+2, -1413077.3, -1597285.5, 22527.803, 0.21071601, 0.018066008, -1410362.3, 117161.055, 0.0007030745, 10.001284, 9.998839 
1.2449717e+3, 1.5412864e+2, -1380185.8, -1543116.1, 12734.945, 0.0006510908, -0.013548988, -1379196.4, 50343.992, 0.00011956255, 10.000894, 9.998725 
1.2449839e+3, 1.6412763e+2, -1274549.5, -1365944.3, 24435.857, -0.097580574, -0.01596222, -1268426.5, 63124.383, 0.0000023468863, 10.000619, 9.999401 
1.2449979e+3, 1.7412752e+2, -1180997.4, -1257317.4, 13883.922, -0.037597064, 0.019102918, -1178550.1, 55000.957, 0.0, 10.000533, 9.999516 
1.2450118e+3, 1.84127e+2, -1099496.4, -1209850.6, 12511.259, 0.0011718903, 0.035865452, -1098095.6, 37460.01, 0.0, 10.000602, 9.999136 
1.2450254e+3, 1.9412597e+2, -962419.1, -1091017.1, 20344.63, 0.010078932, 0.014888491, -959277.25, 78288.82, 0.0, 10.000861, 9.999154 
1.24503896e+3, 2.0412481e+2, -890338.75, -1032767.6, 26229.85, 0.01093597, -0.0032070577, -885661.8, 53915.758, 0.0, 10.000801, 9.99891 
1.2450525e+3, 2.1412349e+2, -862476.1, -965044.0, 27070.367, 0.00031383144, -0.030239755, -855770.0, -14179.595, 0.0, 10.000303, 9.998942 
1.2450658e+3, 2.2412261e+2, -794790.1, -865128.3, 9382.295, -0.007454133, -0.015853621, -793560.1, -49960.656, 0.0, 10.000024, 9.999091 
1.2450789e+3, 2.3412238e+2, -684910.0, -753357.8, -4162.24, -0.011469305, 0.043073837, -684657.8, -39054.62, 0.0, 10.0000725, 9.999162 
1.24509215e+3, 2.4412161e+2, -601204.2, -660535.4, 8600.985, -0.013123493, 0.05238909, -599982.5, -52371.63, 0.0, 9.999968, 9.999176 
1.2451057e+3, 2.5412017e+2, -548053.7, -577110.4, 18201.807, -0.01121514, -0.018645216, -539293.0, -89669.33, 0.0, 9.999629, 9.999239 
1.24511935e+3, 2.641191e+2, -484446.13, -516397.56, 9504.665, 0.0027043407, -0.039626468, -481832.56, -130198.68, 0.0, 9.999482, 9.999053 
1.2451328e+3, 2.7411854e+2, -363010.9, -403581.4, 6329.4937, 0.031453762, -0.005704746, -362046.34, -108405.67, 0.0, 9.999628, 9.999084 
1.2451465e+3, 2.841181e+2, -242021.86, -273565.38, 15470.8955, 0.053186644, 0.03397422, -235700.7, -80055.26, 0.0, 9.999695, 9.999271 
1.24516025e+3, 2.941178e+2, -154922.78, -176799.8, -9897.215, 0.0664704, 0.07276218, -151109.83, -93462.73, 0.0, 9.999602, 9.999307 
1.2451736e+3, 3.0411652e+2, -211738.5, -334985.72, -16397.496, 0.029693266, 0.083452016, -209594.19, -209594.19, 0.0, 9.999548, 9.997913 
1.24518655e+3, 3.1411386e+2, -57972.684, -24611.77, 34072.473, -0.006467172, 0.025363326, -3355.8174, -3355.8174, 0.0, 9.999582, 10.00003 
1.2549354e+3, 1.24117605e+2, -1753738.4, -1743121.3, 30247.19, 0.03301537, 0.03741913, -1717720.4, 5931.171, 0.0037739007, 9.999792, 9.999896 
1.2549436e+3, 1.3411774e+2, -1475750.8, -1521262.1, -25636.477, -0.32120356, 0.029221566, -1464227.5, 161419.72, 0.0020822603, 10.000833, 10.000266 
1.2549607e+3, 1.441172e+2, -1401863.4, -1574223.6, 10487.114, 0.098601885, 0.0064883316, -1401227.8, 126423.33, 0.0007764397, 10.001285, 9.998998 
1.2549724e+3, 1.541164e+2, -1367302.9, -1516264.9, -1911.1193, -0.011473305, 0.03449567, -1367278.4, 62381.695, 0.00013646827, 10.000892, 9.99891 
1.2549849e+3, 1.6411538e+2, -1295190.0, -1407918.6, 18221.33, -0.057900976, 0.03448033, -1292317.9, 39352.59, 0.0000030208696, 10.000614, 9.999116 
1.2549986e+3, 1.7411415e+2, -1203694.1, -1305256.0, 10632.077, -0.02124408, -0.008930914, -1202593.1, 31088.72, 0.0, 10.000535, 9.999186 
1.2550123e+3, 1.841133e+2, -1088774.8, -1187512.0, 19907.297, -0.0061630197, -0.0164222, -1084912.3, 50777.734, 0.0, 10.0006, 9.99929 
1.255026e+3, 1.9411296e+2, -948999.1, -1062492.4, 29909.11, -0.015242483, 0.0133820325, -941599.56, 96093.945, 0.0, 10.000857, 9.9993515 
1.2550396e+3, 2.041123e+2, -887416.4, -1025963.9, 8035.412, -0.009095037, 0.033554357, -886951.94, 52748.25, 0.0, 10.000796, 9.99896 
1.2550528e+3, 2.1411125e+2, -860695.25, -960592.3, 7941.2974, 0.01724296, 0.029275872, -860067.9, -18356.996, 0.0, 10.000299, 9.998975 
1.2550661e+3, 2.241102e+2, -814384.56, -905990.2, 7737.0464, 0.02014382, 0.035848964, -813735.7, -70013.36, 0.0, 10.000024, 9.998811 
1.2550789e+3, 2.3410916e+2, -706569.8, -798032.7, -1947.4558, -0.007963611, 0.044948194, -706528.3, -60793.96, 0.0, 10.00007, 9.998857 
1.2550923e+3, 2.4410827e+2, -587278.2, -630857.44, -3297.6667, 0.0035613985, 0.050241638, -587030.06, -39286.79, 0.0, 9.999963, 9.999383 
1.2551062e+3, 2.5410765e+2, -530236.75, -540891.56, 6312.745, 0.07145217, 0.0372468, -527303.94, -77556.15, 0.0, 9.999631, 9.999487 
1.2551194e+3, 2.641069e+2, -484305.34, -517013.53, 12881.192, 0.069786064, 0.037361477, -479841.63, -128087.74, 0.0, 9.999485, 9.999048 
1.2551318e+3, 2.7410603e+2, -365129.44, -407002.78, 13115.0205, -0.030648073, 0.041854434, -361360.88, -107598.44, 0.0, 9.999622, 9.999064 
1.2551452e+3, 2.841047e+2, -286841.7, -365205.06, 13424.201, -0.035247236, 0.023239749, -284605.8, -128830.055, 0.0, 9.999687, 9.998647 
1.2551601e+3, 2.9410282e+2, -202365.92, -276439.06, -10904.639, 0.09251141, -0.031861592, -200793.95, -142998.8, 0.0, 9.999606, 9.998621 
1.2551735e+3, 3.041019e+2, -135534.33, -176913.28, -15771.601, 0.07459365, 0.005019603, -130208.47, -130208.47, 0.0, 9.999549, 9.999 
1.2551856e+3, 3.1410122e+2, 22136.701, 147734.48, 40073.67, -0.07001812, 0.019921213, 159431.23, 159431.23, 0.0, 9.999557, 10.001226 
1.264936e+3, 1.2410479e+2, -1655307.4, -1732169.0, 35173.56, 0.07152761, 0.026675614, -1641641.1, 82133.95, 0.004085261, 10.000627, 9.999569 
1.2649442e+3, 1.3410465e+2, -1520116.1, -1577993.9, -7854.5596, -0.3341174, 0.025340475, -1519069.1, 106705.83, 0.0022650692, 10.000683, 9.999948 
1.2649617e+3, 1.4410388e+2, -1458231.4, -1579865.4, -2892.9927, 0.07824447, -0.013666895, -1458162.5, 69619.18, 0.00085386867, 10.000807, 9.999187 
1.2649734e+3, 1.5410344e+2, -1331108.6, -1472996.5, -15104.848, -0.012706192, 0.027393548, -1329518.5, 100267.72, 0.00015477135, 10.001031, 9.999139 
1.2649858e+3, 1.6410251e+2, -1240283.3, -1393237.9, 11126.249, -0.048814144, 0.028522575, -1239478.1, 92317.02, 0.0000038088367, 10.001042, 9.999009 
1.2649992e+3, 1.7410098e+2, -1182700.5, -1310204.5, 15935.762, -0.0150451, -0.030249072, -1180738.9, 53070.504, 0.0, 10.000747, 9.999049 
1.2650129e+3, 1.8409997e+2, -1109271.8, -1209438.3, 33821.703, -0.0044057723, -0.040046096, -1098921.3, 36898.145, 0.0, 10.000513, 9.999182 
1.2650266e+3, 1.9409966e+2, -1025587.6, -1110953.9, 20129.697, -0.023953252, 0.0033332505, -1021079.06, 16744.365, 0.0, 10.000383, 9.999247 
1.26504e+3, 2.0409915e+2, -937661.06, -1037678.4, -17679.717, -0.024840068, 0.037231863, -934627.9, 5201.4277, 0.0, 10.000399, 9.99907 
1.2650532e+3, 2.1409838e+2, -806265.4, -919047.1, -12645.3545, -0.0011385558, 0.047124036, -804864.94, 36972.285, 0.0, 10.000608, 9.99911 
1.2650663e+3, 2.2409736e+2, -734623.06, -872690.0, 562.2482, 0.013470915, 0.052594118, -734620.8, 9227.294, 0.0, 10.000595, 9.998763 
1.2650794e+3, 2.3409604e+2, -682391.2, -793581.9, 6642.6216, 0.016540306, 0.0395714, -681995.75, -36133.082, 0.0, 10.000267, 9.998791 
1.2650925e+3, 2.4409503e+2, -592534.8, -652336.6, -224.58418, 0.034249816, 0.04363304, -592534.0, -44660.86, 0.0, 10.000009, 9.999212 
1.2651059e+3, 2.540945e+2, -508999.8, -550396.7, -24004.455, 0.07086944, 0.058638144, -498002.22, -48124.484, 0.0, 9.999863, 9.99931 
1.265119e+3, 2.640938e+2, -433617.72, -496822.03, -21671.852, 0.06205595, 0.07118893, -426900.63, -75016.48, 0.0, 9.999852, 9.99901 
1.2651318e+3, 2.7409276e+2, -312540.38, -384402.1, -22285.842, -0.008801349, 0.06467073, -306190.2, -52296.91, 0.0, 9.999995, 9.999039 
1.2651452e+3, 2.8409114e+2, -248879.16, -355951.4, -12071.648, -0.014931813, 0.02406914, -247535.05, -91626.27, 0.0, 9.999988, 9.998565 
1.2651595e+3, 2.9408887e+2, -182172.9, -276438.06, 3818.95, 0.065691344, -0.062322117, -182018.44, -124086.58, 0.0, 9.999786, 9.998534 
1.2651727e+3, 3.040883e+2, -111932.164, -133556.53, -1705.7517, 0.042175043, -0.0044718706, -111798.44, -111798.44, 0.0, 9.999574, 9.999285 
1.2651852e+3, 3.140877e+2, 542.86304, 156806.6, -13867.798, -0.042399492, -0.011902524, 158027.77, 158027.77, 0.0, 9.999324, 10.0014 
1.2749359e+3, 1.24091856e+2, -1693462.9, -1811841.6, 135.88506, -0.004458908, -0.023550525, -1693462.8, 30435.066, 0.0044096503, 10.000627, 9.999023 
1.2749453e+3, 1.3409154e+2, -1562455.4, -1665203.3, -4721.7695, -0.2967168, 0.017905036, -1562238.9, 63663.78, 0.0024558255, 10.000681, 9.999349 
1.2749632e+3, 1.4409035e+2, -1442811.5, -1548334.1, 3186.8525, 0.14572673, -0.042546935, -1442715.4, 85199.26, 0.00093550276, 10.000807, 9.999405 
1.2749745e+3, 1.5408982e+2, -1311034.5, -1432783.4, -6229.017, -0.008193402, -0.03515103, -1310716.6, 119201.26, 0.00017466526, 10.001035, 9.999414 
1.2749866e+3, 1.6408907e+2, -1235983.1, -1384262.0, 237.33388, -0.07598609, -0.034880623, -1235982.8, 95941.52, 0.0000047674703, 10.001041, 9.999072 
1.275e+3, 1.7408808e+2, -1179480.3, -1303298.8, 4448.4053, -0.022514727, -0.045591176, -1179320.6, 54612.8, 0.0, 10.000745, 9.999098 
1.2750134e+3, 1.8408711e+2, -1135779.5, -1263815.4, 26532.42, 0.0010021706, -0.036395572, -1130499.1, 5444.5107, 0.0, 10.000509, 9.998811 
1.275027e+3, 1.9408618e+2, -1054585.1, -1171302.5, 15112.707, -0.019016374, -0.013512302, -1052660.1, -14704.892, 0.0, 10.000383, 9.998834 
1.2750402e+3, 2.0408542e+2, -925704.8, -1012796.06, -12199.736, -0.039445143, 0.010259783, -924028.1, 15936.01, 0.0, 10.000398, 9.999242 
1.2750532e+3, 2.1408491e+2, -791060.5, -886378.44, -4909.99, -0.057516657, 0.023999223, -790808.25, 51160.707, 0.0, 10.000603, 9.999339 
1.2750664e+3, 2.2408415e+2, -723147.7, -846930.4, -11621.658, -0.03161034, 0.03468019, -722066.06, 21910.469, 0.0, 10.0005865, 9.998944 
1.2750801e+3, 2.3408306e+2, -670565.94, -768861.44, -5574.561, 0.058045253, 0.02777974, -670250.8, -24262.979, 0.0, 10.000266, 9.998962 
1.275093e+3, 2.4408193e+2, -629879.6, -730698.2, -7025.6357, 0.075005226, 0.033645198, -629392.4, -81392.32, 0.0, 10.000011, 9.998674 
1.275105e+3, 2.5408077e+2, -550481.44, -637683.6, -28032.693, -0.01294724, 0.046979044, -542247.3, -92234.19, 0.0, 9.999866, 9.998709 
1.275118e+3, 2.6407975e+2, -438640.34, -507667.06, -16348.465, -0.021180019, 0.06327258, -434964.13, -82940.03, 0.0, 9.999852, 9.998936 
1.2751327e+3, 2.7407876e+2, -314262.75, -387926.13, -14438.995, 0.08637247, 0.06502048, -311533.63, -57501.04, 0.0, 9.999994, 9.999016 
1.2751465e+3, 2.8407747e+2, -219463.34, -294368.28, -18401.97, 0.102528505, 0.036827043, -215186.69, -59142.555, 0.0, 9.999983, 9.99899 
1.2751585e+3, 2.940759e+2, -150973.44, -208161.23, -2005.0426, -0.01586679, -0.02454193, -150903.22, -92845.22, 0.0, 9.99977, 9.999011 
1.2751712e+3, 3.040755e+2, -146697.64, -203250.88, -9780.912, -0.06806767, 0.0484715, -145053.81, -145053.81, 0.0, 9.999562, 9.998812 
1.2751855e+3, 3.1407338e+2, -55993.66, 40837.43, -15494.151, 0.056398105, -0.054613266, 43256.258, 43256.258, 0.0, 9.999317, 10.000607 
1.2849364e+3, 1.2407892e+2, -1683360.8, -1816269.8, -40005.688, -0.017342953, -0.046349924, -1672248.1, 51774.805, 0.0047468157, 10.000737, 9.998939 
1.2849465e+3, 1.3407862e+2, -1521224.5, -1664168.4, 19009.496, -0.2645844, 0.014282574, -1518739.8, 107288.43, 0.0026545508, 10.001047, 9.999178 
1.2849644e+3, 1.4407715e+2, -1402710.0, -1532872.8, 28478.559, 0.17602466, -0.0631824, -1396751.9, 131291.27, 0.0010215283, 10.0011, 9.99937 
1.2849754e+3, 1.5407668e+2, -1341445.1, -1450438.6, -5855.347, -0.00052399584, -0.0514341, -1341131.5, 88914.62, 0.00019628371, 10.000839, 9.999387 
1.2849875e+3, 1.6407596e+2, -1278356.9, -1405668.4, -14331.959, -0.0791908, -0.04337222, -1276763.5, 55288.44, 0.0000059623408, 10.000756, 9.999062 
1.2850009e+3, 1.7407508e+2, -1155142.0, -1292534.3, -16118.275, -0.023360632, -0.04122927, -1153276.4, 80783.73, 0.0, 10.000917, 9.999087 
1.2850142e+3, 1.8407404e+2, -1079531.9, -1248692.3, 11294.821, -0.0006409719, -0.034254957, -1078781.0, 57289.965, 0.0, 10.000949, 9.998701 
1.2850274e+3, 1.9407277e+2, -1002861.06, -1159418.0, 20028.248, -0.02588346, -0.03498788, -1000339.5, 37746.223, 0.0, 10.000796, 9.998715 
1.2850408e+3, 2.0407183e+2, -895686.2, -999858.3, 3977.515, -0.042027522, -0.02001606, -895534.56, 44561.61, 0.0, 10.000611, 9.999228 
1.2850538e+3, 2.1407144e+2, -821858.3, -900743.0, -6848.5337, -0.044580728, 0.0055437973, -821268.1, 20832.012, 0.0, 10.000391, 9.999341 
1.285067e+3, 2.2407079e+2, -752799.9, -848734.56, -26498.988, -0.02051948, 0.02091951, -745967.06, -1860.4365, 0.0, 10.00033, 9.999056 
1.2850802e+3, 2.3406976e+2, -629537.5, -734966.6, -26259.242, 0.04118704, 0.007926629, -623359.1, 22757.414, 0.0, 10.000488, 9.999087 
1.285093e+3, 2.440686e+2, -552554.5, -710288.06, -14194.067, 0.04835578, 0.0103024505, -551287.4, -3158.3152, 0.0, 10.000614, 9.998524 
1.285105e+3, 2.5406727e+2, -442981.56, -605774.3, -5731.521, -0.022535237, 0.025340933, -442780.03, 7364.568, 0.0, 10.0006895, 9.998531 
1.2851183e+3, 2.640662e+2, -351233.44, -479073.7, 16718.809, -0.017582417, 0.052980196, -349083.16, 3073.5063, 0.0, 10.00051, 9.998815 
1.2851328e+3, 2.7406535e+2, -324674.56, -405908.25, 9546.328, 0.09607734, 0.076914825, -323567.78, -69403.11, 0.0, 9.999978, 9.9989 
1.2851463e+3, 2.8406408e+2, -257361.9, -300258.5, -4222.5093, 0.11524044, 0.054609798, -256950.2, -100774.5, 0.0, 9.99967, 9.999101 
1.2851584e+3, 2.940625e+2, -158320.64, -196790.4, -14633.437, -0.001885144, -0.021555891, -153386.98, -95198.19, 0.0, 9.999654, 9.9991455 
1.2851709e+3, 3.0406222e+2, -150933.16, -218945.94, -23276.053, -0.052703552, 0.061074812, -143730.22, -143730.22, 0.0, 9.999594, 9.998687 
1.285185e+3, 3.1405973e+2, -54739.895, -7275.0483, -533.5834, 0.07115611, -0.065072164, -7269.051, -7269.051, 0.0, 9.9995365, 10.000171 
1.2949374e+3, 1.240661e+2, -1656727.0, -1762639.4, -61022.38, 0.01754702, -0.04044597, -1628886.6, 95262.67, 0.0050962004, 10.000743, 9.999306 
1.2949477e+3, 1.3406603e+2, -1503534.5, -1625802.8, 31607.723, -0.24173437, 0.014133077, -1495846.9, 130303.68, 0.0028611089, 10.001041, 9.999443 
1.2949653e+3, 1.4406443e+2, -1424252.4, -1577012.6, 18314.307, 0.16198789, -0.07641625, -1422087.4, 106078.875, 0.00111182, 10.001096, 9.999069 
1.2949763e+3, 1.5406403e+2, -1364336.9, -1499033.5, -15539.139, 0.006291141, -0.020797096, -1362567.4, 67602.555, 0.000219555, 10.000843, 9.999053 
1.2949884e+3, 1.6406326e+2, -1284179.1, -1418181.5, -10910.139, -0.063611746, 0.003067981, -1283296.6, 48880.715, 0.0000074533, 10.000757, 9.998977 
1.2950017e+3, 1.7406209e+2, -1160092.3, -1303219.5, -10076.644, -0.021579398, -0.01707301, -1159386.3, 74802.4, 0.0, 10.000918, 9.999015 
1.295015e+3, 1.8406084e+2, -1069946.8, -1228582.4, 4874.016, -0.013724213, -0.033804003, -1069797.1, 66403.77, 0.0, 10.000947, 9.998841 
1.295028e+3, 1.9405945e+2, -991854.2, -1135938.5, 13832.013, -0.04801738, -0.06127049, -990538.3, 47676.234, 0.0, 10.000792, 9.998879 
1.2950414e+3, 2.0405844e+2, -909890.1, -1028301.06, -5813.7573, -0.03802055, -0.054210674, -909605.4, 30619.656, 0.0, 10.000606, 9.999036 
1.295055e+3, 2.1405803e+2, -837856.44, -934144.75, -15399.014, 0.033123255, -0.008873372, -835453.7, 6776.7617, 0.0, 10.00039, 9.999113 
1.295068e+3, 2.2405732e+2, -750104.3, -842857.3, -23003.512, 0.042635832, 0.011148449, -744712.7, -474.7207, 0.0, 10.000328, 9.999097 
1.2950799e+3, 2.3405617e+2, -625085.0, -725118.8, -19758.783, -0.035040226, -0.020033468, -621323.6, 24924.924, 0.0, 10.0004835, 9.999158 
1.2950927e+3, 2.4405505e+2, -538249.4, -678816.6, -11650.329, -0.048118904, -0.02626094, -537290.3, 10969.623, 0.0, 10.000606, 9.998745 
1.2951064e+3, 2.5405404e+2, -427752.16, -572581.94, -1953.2401, 0.033731416, -0.005507755, -427725.8, 22546.18, 0.0, 10.000682, 9.998764 
1.2951197e+3, 2.6405317e+2, -363851.53, -504608.78, -1532.2756, 0.064680964, 0.040161807, -363834.84, -11552.857, 0.0, 10.000505, 9.998642 
1.295132e+3, 2.7405247e+2, -339580.72, -436077.38, -8833.679, 0.0206209, 0.0998822, -338778.72, -84489.02, 0.0, 9.999973, 9.998696 
1.2951452e+3, 2.8405103e+2, -270918.0, -329000.13, -5467.8633, 0.023911284, 0.07737706, -270407.72, -114104.16, 0.0, 9.999672, 9.998903 
1.295159e+3, 2.9404876e+2, -171286.9, -224286.3, -12380.729, 0.09398028, -0.047388297, -168537.39, -110213.83, 0.0, 9.999657, 9.998956 
1.2951718e+3, 3.040485e+2, -136373.6, -190945.92, -25852.125, 0.07332216, 0.03896377, -126071.64, -126071.64, 0.0, 9.9996, 9.998878 
1.2951839e+3, 3.1404668e+2, -65848.02, -25217.014, 3652.0332, -0.0016822747, -0.036618393, -24891.37, -24891.37, 0.0, 9.999515, 10.000058 
1.3049385e+3, 1.24052964e+2, -1693973.8, -1746461.4, -97767.0, 0.055434924, -0.024002539, -1618989.5, 105290.67, 0.0054552136, 10.00034, 9.999612 
1.3049491e+3, 1.340531e+2, -1503516.6, -1610618.4, 9523.541, -0.21190129, 0.03855689, -1502676.4, 123601.45, 0.003073975, 10.000978, 9.9995775 
1.3049664e+3, 1.4405134e+2, -1397730.8, -1568754.8, -20613.607, 0.14396489, -0.07164525, -1395281.3, 133013.05, 0.0012055306, 10.001299, 9.999027 
1.3049772e+3, 1.5405084e+2, -1318494.4, -1483649.3, -36839.652, -0.006789121, -0.021970497, -1310649.5, 119649.83, 0.000244213, 10.001188, 9.998991 
1.3049893e+3, 1.6405001e+2, -1230786.8, -1396368.1, -8435.148, -0.06855824, 0.002034093, -1230358.1, 101949.29, 0.000009295233, 10.0011425, 9.9989395 
1.3050029e+3, 1.740489e+2, -1119202.9, -1287218.0, -5055.193, -0.014499601, -0.00870588, -1119051.0, 115267.64, 0.0, 10.001216, 9.9989805 
1.3050161e+3, 1.8404774e+2, -1042878.56, -1201388.3, -2166.7644, 0.0021747032, -0.020014787, -1042848.94, 93480.83, 0.0, 10.001072, 9.998967 
1.305029e+3, 1.9404651e+2, -1008379.56, -1127452.9, 2143.989, -0.0313608, -0.04826921, -1008340.94, 30000.041, 0.0, 10.000609, 9.999024 
1.305042e+3, 2.040454e+2, -943804.5, -1057156.3, -3368.0547, -0.023967411, -0.053531256, -943704.5, -3352.7944, 0.0, 10.000428, 9.998922 
1.3050555e+3, 2.1404457e+2, -809103.1, -935746.5, -7009.327, 0.039387953, -0.035690397, -808716.4, 33644.855, 0.0, 10.000656, 9.998973 
1.3050684e+3, 2.2404371e+2, -694575.56, -816437.2, -12605.513, 0.038745567, -0.020838771, -693285.25, 51084.863, 0.0, 10.0007105, 9.999095 
1.3050804e+3, 2.3404287e+2, -619492.0, -720725.1, -15649.013, -0.05307897, -0.0251828, -617128.06, 29250.129, 0.0, 10.000516, 9.999172 
1.305093e+3, 2.4404192e+2, -574355.7, -687986.2, -15143.867, -0.061216142, -0.018292746, -572372.06, -23984.059, 0.0, 10.000323, 9.998818 
1.3051069e+3, 2.540409e+2, -502692.38, -599981.56, -18442.293, 0.051988576, -0.004887774, -499313.75, -48913.957, 0.0, 10.00013, 9.998842 
1.3051201e+3, 2.6403993e+2, -423351.25, -534320.56, -21509.975, 0.08371334, 0.027413249, -419327.72, -66917.24, 0.0, 10.000103, 9.998632 
1.3051319e+3, 2.74039e+2, -291419.72, -415406.53, -17807.05, -0.002238258, 0.064510114, -288912.94, -34492.61, 0.0, 10.000315, 9.998673 
1.3051447e+3, 2.8403747e+2, -181396.72, -299021.53, -1513.4171, -0.0075843916, 0.041973293, -181377.25, -24942.07, 0.0, 10.000343, 9.998786 
1.3051589e+3, 2.940354e+2, -112836.14, -209798.47, -6092.9927, 0.10095767, -0.05072898, -112454.766, -54000.293, 0.0, 10.000117, 9.998834 
1.3051717e+3, 3.0403537e+2, -81312.67, -138174.7, -16242.292, 0.09644333, 0.05200978, -77000.22, -77000.22, 0.0, 9.999867, 9.999112 
1.3051835e+3, 3.1403393e+2, -59319.176, -30265.877, 15948.562, -0.0019534344, -0.012601871, -23219.855, -23219.855, 0.0, 9.999591, 9.9999895 
1.3149391e+3, 1.2403961e+2, -1679327.5, -1714977.5, -99650.32, 0.08071615, 0.006087083, -1595920.5, 128493.86, 0.005819013, 10.000332, 9.999834 
1.3149503e+3, 1.3403994e+2, -1503458.1, -1611364.1, 33972.156, -0.17823054, 0.0878241, -1493653.5, 132755.94, 0.0032902497, 10.000981, 9.999571 
1.3149674e+3, 1.4403802e+2, -1381643.4, -1536790.3, -24056.488, 0.114932016, -0.049153075, -1377998.9, 150427.6, 0.0013013786, 10.001306, 9.999245 
1.314978e+3, 1.5403718e+2, -1304312.1, -1453349.3, -41189.27, -0.044608537, -0.055586684, -1293686.3, 136747.25, 0.00026992275, 10.001184, 9.999201 
1.31499e+3, 1.640363e+2, -1231118.8, -1396514.0, -8209.308, -0.09879665, -0.047015037, -1230712.3, 101729.27, 0.00001153221, 10.001139, 9.998941 
1.3150041e+3, 1.7403561e+2, -1118758.6, -1287166.9, -2321.749, -0.0059728706, -0.015683405, -1118726.6, 115722.65, 0.0, 10.001218, 9.9989805 
1.3150176e+3, 1.8403485e+2, -1034999.44, -1185055.9, -19203.258, 0.040455103, 0.0074280933, -1032580.94, 103875.945, 0.0, 10.001071, 9.999081 
1.31503e+3, 1.9403395e+2, -999398.0, -1109666.5, -15846.758, 0.020418704, 0.002640838, -997165.8, 41298.734, 0.0, 10.000611, 9.999146 
1.3150427e+3, 2.0403275e+2, -946773.1, -1063522.6, 1236.4736, -0.0025290195, -0.018819494, -946760.06, -6284.1655, 0.0, 10.000428, 9.998879 
1.3150555e+3, 2.1403112e+2, -814076.56, -945335.25, 1726.1229, -0.027661012, -0.07473795, -814053.9, 28438.22, 0.0, 10.000651, 9.998911 
1.3150683e+3, 2.2403006e+2, -699176.06, -823933.44, -19895.918, -0.036197547, -0.07467088, -696080.0, 48422.773, 0.0, 10.0007, 9.999048 
1.3150811e+3, 2.3402984e+2, -623177.8, -728096.4, -22759.445, -0.018468644, -0.008769072, -618453.44, 28051.951, 0.0, 10.000513, 9.999124 
1.315094e+3, 2.440292e+2, -579001.6, -697866.56, -22776.605, 0.0032714803, 0.031826332, -574786.7, -26273.563, 0.0, 10.000323, 9.99875 
1.3151069e+3, 2.540279e+2, -507469.56, -609831.06, -24281.19, 0.030329894, 0.026121937, -502001.88, -51474.26, 0.0, 10.000129, 9.9987755 
1.3151197e+3, 2.6402655e+2, -414904.3, -516378.66, -14303.81, 0.03801527, 0.014958683, -412926.6, -60384.836, 0.0, 10.0001, 9.998757 
1.3151325e+3, 2.7402496e+2, -282500.4, -395425.53, -7288.0923, 0.019204915, -0.024315665, -282032.0, -27476.014, 0.0, 10.000307, 9.998815 
1.3151453e+3, 2.840235e+2, -185323.36, -306028.3, -8277.176, 0.01151404, -0.046739955, -184758.4, -28188.3, 0.0, 10.000337, 9.998742 
1.3151583e+3, 2.9402247e+2, -119033.06, -219613.89, -12048.767, 0.018245507, -0.03310824, -117609.86, -59028.133, 0.0, 10.000103, 9.998775 
1.3151708e+3, 3.040228e+2, -63281.664, -98887.266, -24891.885, 0.016491802, 0.09631529, -50481.43, -50481.43, 0.0, 9.999859, 9.999387 
1.3151836e+3, 3.1402147e+2, -61287.5, -31704.734, 13110.161, 0.054845184, 0.014832039, -26730.96, -26730.96, 0.0, 9.99958, 9.999985 
1.3249402e+3, 1.24026805e+2, -1539535.8, -1649073.4, -56398.15, 0.11441571, 0.023830323, -1515689.3, 208851.64, 0.006183249, 10.001301, 9.999823 
1.3249516e+3, 1.3402668e+2, -1524664.3, -1649784.0, 74430.32, -0.14605835, 0.0850329, -1489994.5, 136546.03, 0.0035072896, 10.00096, 9.999317 
1.3249682e+3, 1.4402464e+2, -1437126.0, -1552061.4, 1028.6338, 0.09876127, -0.055253252, -1437116.8, 91441.945, 0.0013982238, 10.000876, 9.999346 
1.3249794e+3, 1.5402415e+2, -1284107.0, -1429250.6, -23199.422, -0.028438361, -0.037733395, -1280489.0, 150072.7, 0.00029637254, 10.001262, 9.99933 
1.3249916e+3, 1.6402334e+2, -1209290.5, -1391327.8, -3873.3286, -0.07144857, -0.027532555, -1209208.1, 123360.69, 0.000014169166, 10.001311, 9.998894 
1.3250053e+3, 1.740223e+2, -1177447.9, -1322863.4, -6379.5376, 0.002760191, -0.024985256, -1177168.5, 57411.418, 0.0, 10.000848, 9.998914 
1.3250184e+3, 1.8402143e+2, -1085084.5, -1206492.9, -22947.254, 0.03731373, -0.011145066, -1080892.0, 55696.766, 0.0, 10.000717, 9.999103 
1.3250308e+3, 1.9402075e+2, -926833.44, -1070841.6, -26704.3, 0.011455719, 0.003005691, -922041.0, 116553.45, 0.0, 10.001094, 9.99918 
1.3250433e+3, 2.0401973e+2, -835799.75, -997799.7, -9746.142, -0.018913977, -0.006407212, -835215.5, 105388.37, 0.0, 10.001138, 9.998988 
1.325056e+3, 2.1401824e+2, -801131.44, -925243.0, 1709.67, -0.05511103, -0.059487913, -801107.9, 41510.22, 0.0, 10.000683, 9.999032 
1.3250689e+3, 2.2401716e+2, -738911.9, -849561.75, -9064.594, -0.050251156, -0.066268444, -738174.2, 6454.539, 0.0, 10.000457, 9.998989 
1.325082e+3, 2.3401666e+2, -621605.9, -735582.75, -15388.725, 0.01504196, -0.02110458, -619564.7, 27069.416, 0.0, 10.000561, 9.999048 
1.3250948e+3, 2.440159e+2, -536890.4, -681047.06, -16241.143, 0.039648347, 0.015508278, -535083.25, 13559.756, 0.0, 10.000628, 9.998718 
1.325107e+3, 2.540148e+2, -433659.97, -576665.2, -17228.139, 0.0040191975, 0.02929324, -431613.72, 19042.795, 0.0, 10.000648, 9.998752 
1.3251196e+3, 2.640136e+2, -349401.44, -462049.7, -4643.214, -0.005179247, 0.024027705, -349210.38, 3458.9531, 0.0, 10.000453, 9.99896 
1.3251327e+3, 2.7401212e+2, -320065.0, -387556.9, 6475.225, 0.026666537, -0.027915671, -319449.38, -64767.82, 0.0, 9.999941, 9.999045 
1.3251457e+3, 2.8401074e+2, -270777.47, -348298.03, 17980.758, 0.030167846, -0.050768215, -266809.94, -110115.57, 0.0, 9.999757, 9.99873 
1.325158e+3, 2.9400977e+2, -127642.11, -226728.23, 14252.979, -0.008259287, -0.025436727, -125632.66, -66926.56, 0.0, 10.000057, 9.998747 
1.3251705e+3, 3.0400988e+2, -20916.215, -71246.53, -13312.745, -0.01031802, 0.07996099, -17611.84, -17611.84, 0.0, 10.00012, 9.99945 
1.3251835e+3, 3.14009e+2, -38039.035, -38779.305, 5482.6064, 0.074410275, 0.034505066, -32914.082, -32914.082, 0.0, 9.999822, 9.999818 
1.3349418e+3, 1.2401466e+2, -1555550.8, -1685424.1, -83791.79, 0.14163059, 0.032477167, -1514478.9, 210179.58, 0.0065457188, 10.001313, 9.999567 
1.3349529e+3, 1.3401338e+2, -1562519.9, -1725634.9, 61006.85, -0.11735947, 0.030553302, -1542227.1, 84443.01, 0.0037237175, 10.00095, 9.9988 
1.3349691e+3, 1.4401126e+2, -1439495.5, -1555253.6, 10708.25, 0.09034361, -0.08969713, -1438513.3, 90176.984, 0.0014951822, 10.000868, 9.999329 
1.3349813e+3, 1.5401186e+2, -1279240.5, -1420513.3, -7748.6094, 0.036504693, 0.031330395, -1278816.8, 151866.53, 0.00032323142, 10.0012665, 9.999388 
1.3349937e+3, 1.6401124e+2, -1217212.1, -1408636.4, -19461.473, 0.0060435142, 0.061486326, -1215253.6, 117435.05, 0.000017128494, 10.001314, 9.998775 
1.3350062e+3, 1.7400905e+2, -1187810.0, -1344832.1, -24375.705, 0.00866078, -0.036484525, -1184113.0, 50597.043, 0.00000000003443261, 10.000849, 9.998763 
1.3350187e+3, 1.8400751e+2, -1090127.8, -1216744.1, -13619.874, -0.010932404, -0.076014966, -1088679.3, 48045.707, 0.0, 10.000715, 9.999034 
1.3350311e+3, 1.9400695e+2, -930978.56, -1079126.3, -12567.691, -0.06071997, -0.047018193, -929920.0, 108810.18, 0.0, 10.001092, 9.9991255 
1.3350438e+3, 2.0400639e+2, -819378.56, -961432.6, -25454.338, -0.078369394, -0.01568652, -814955.25, 125779.86, 0.0, 10.001127, 9.999244 
1.3350566e+3, 2.1400596e+2, -781665.56, -884144.5, -16030.518, -0.047594383, 0.0077790115, -779216.5, 63522.598, 0.0, 10.000678, 9.999317 
1.3350697e+3, 2.2400501e+2, -743847.0, -859244.4, -8457.113, -0.007902905, 0.0015282431, -743230.5, 1517.5717, 0.0, 10.000455, 9.998924 
1.335083e+3, 2.3400334e+2, -629601.8, -751235.1, -10674.732, 0.045003008, -0.061007526, -628672.06, 18091.826, 0.0, 10.000556, 9.998945 
1.3350955e+3, 2.4400212e+2, -538691.8, -683092.44, -15403.175, 0.044902876, -0.06486038, -537067.06, 11710.172, 0.0, 10.00062, 9.998709 
1.3351072e+3, 2.540016e+2, -434958.3, -578199.25, -15180.096, -0.031797543, 0.006311093, -433367.25, 17419.031, 0.0, 10.000642, 9.998745 
1.3351196e+3, 2.64001e+2, -329873.78, -421240.25, -21678.766, -0.050784826, 0.053845074, -324990.97, 27802.361, 0.0, 10.000451, 9.999242 
1.3351326e+3, 2.7400032e+2, -298476.94, -341897.13, -11046.901, 0.015173863, 0.04780995, -295828.0, -41030.324, 0.0, 9.999935, 9.999362 
1.3351455e+3, 2.8399915e+2, -271141.47, -347873.3, 27080.238, 0.04238954, 0.023831762, -262546.94, -105738.37, 0.0, 9.999751, 9.998736 
1.3351583e+3, 2.939974e+2, -130604.734, -231150.95, 28609.215, 0.013227974, -0.022320265, -123034.33, -64206.938, 0.0, 10.000049, 9.998721 
1.3351709e+3, 3.0399674e+2, -31453.156, -91432.945, -21281.195, 0.006179242, 0.010606598, -24669.65, -24669.65, 0.0, 10.000113, 9.999315 
1.3351831e+3, 3.1399646e+2, -60988.01, -84145.01, -23.456724, 0.04599642, 0.043766975, -60987.99, -60987.99, 0.0, 9.999811, 9.999512 
1.3449429e+3, 1.2400217e+2, -1602398.3, -1710125.1, -92453.914, 0.13734771, 0.022359932, -1549261.8, 175518.17, 0.0069055543, 10.001001, 9.999547 
1.3449545e+3, 1.3400072e+2, -1459917.1, -1703719.5, 79353.59, -0.086025216, 0.024688961, -1436364.3, 190430.0, 0.0039389143, 10.001778, 9.998552 
1.3449705e+3, 1.439986e+2, -1293979.0, -1509719.5, 25370.395, 0.08732793, -0.07128365, -1291035.6, 237779.45, 0.0015916337, 10.001975, 9.999107 
1.3449828e+3, 1.5399899e+2, -1281413.6, -1446220.1, -17543.164, 0.05212667, 0.052528005, -1279566.9, 151244.2, 0.0003501717, 10.00136, 9.999166 
1.344995e+3, 1.6399826e+2, -1250305.6, -1420898.4, -35148.246, 0.027788693, 0.08240633, -1243347.6, 89470.086, 0.000020254476, 10.001072, 9.998807 
1.3450073e+3, 1.7399609e+2, -1117028.4, -1303690.5, -25014.027, 0.018023347, -0.019550744, -1113734.5, 121103.72, 0.0000000014653116, 10.001305, 9.998826 
1.3450196e+3, 1.839945e+2, -1020440.56, -1185124.9, -2148.5583, -0.01107281, -0.066594146, -1020412.5, 116440.46, 0.0, 10.001203, 9.999017 
1.3450319e+3, 1.9399379e+2, -1006740.44, -1117983.1, -995.66125, -0.06900019, -0.048327204, -1006731.5, 32127.959, 0.0, 10.000583, 9.999104 
1.3450444e+3, 2.0399326e+2, -941131.7, -1019682.94, -19763.598, -0.0825727, -0.017302608, -936439.44, 4425.2036, 0.0, 10.00029, 9.999248 
1.3450573e+3, 2.1399297e+2, -809448.5, -896578.0, -32191.066, -0.032062616, 0.02004915, -798845.44, 44022.234, 0.0, 10.000483, 9.999327 
1.3450703e+3, 2.239921e+2, -712825.4, -825664.06, -21657.2, 0.00033207383, 0.014909015, -708811.44, 36064.17, 0.0, 10.000588, 9.99909 
1.345083e+3, 2.3399045e+2, -614325.9, -721877.94, -4711.84, 0.005800159, -0.064577535, -614119.9, 32770.53, 0.0, 10.000569, 9.999138 
1.3450956e+3, 2.4398929e+2, -554081.25, -683965.44, 1355.549, -0.0021948705, -0.07495532, -554067.1, -5164.6255, 0.0, 10.00049, 9.998764 
1.3451079e+3, 2.5398886e+2, -480034.63, -594826.2, 3055.848, -0.0284438, 0.0036159295, -479953.34, -29042.95, 0.0, 10.000314, 9.998788 
1.34512e+3, 2.6398838e+2, -366768.0, -437190.4, -16049.919, -0.02950429, 0.056303073, -363282.6, -10365.621, 0.0, 10.000194, 9.999255 
1.3451324e+3, 2.7398774e+2, -263729.34, -323225.63, -30458.03, 0.0052724984, 0.05428794, -250902.34, 4019.3455, 0.0, 10.000169, 9.999376 
1.3451453e+3, 2.8398675e+2, -224926.02, -313125.72, 7995.244, 0.033290833, 0.046562415, -224207.11, -67276.35, 0.0, 10.000017, 9.998845 
1.3451585e+3, 2.9398546e+2, -175471.48, -237751.36, 18876.45, 0.05353249, 0.027822517, -170196.92, -111251.76, 0.0, 9.999681, 9.998851 
1.3451712e+3, 3.039843e+2, -87859.4, -121365.9, -14728.777, 0.04738119, 0.008554586, -82305.516, -82305.516, 0.0, 9.99974, 9.9992895 
1.3451827e+3, 3.1398395e+2, 7583.7485, -57679.938, 13240.635, -0.004364591, 0.039858848, 10167.691, 10167.691, 0.0, 10.000313, 9.999452 
1.3549435e+3, 1.23989455e+2, -1590598.5, -1682679.6, -71174.805, 0.09196132, -0.0045641055, -1551871.3, 173033.05, 0.0072628423, 10.000988, 9.9997425 
1.3549566e+3, 1.3398871e+2, -1457657.5, -1699012.0, 108881.53, -0.05764767, 0.06688696, -1415798.0, 211113.84, 0.004152666, 10.00178, 9.998583 
1.3549723e+3, 1.4398669e+2, -1324658.0, -1576103.0, 5845.6187, 0.08001704, -0.00069586205, -1324522.1, 204410.28, 0.0016872559, 10.001985, 9.998648 
1.3549837e+3, 1.539856e+2, -1318131.0, -1523216.6, -41377.082, 0.015242939, 0.027153378, -1310097.6, 120846.63, 0.0003769789, 10.001362, 9.998637 
1.3549957e+3, 1.6398446e+2, -1237015.4, -1392763.8, -31561.908, -0.009193327, 0.03573996, -1230862.5, 102093.09, 0.000023370363, 10.001068, 9.999002 
1.3550088e+3, 1.7398347e+2, -1096772.8, -1262042.8, -15942.254, 0.026446288, 0.02404374, -1095249.0, 139714.72, 0.0000000068048798, 10.001306, 9.999112 
1.3550213e+3, 1.8398245e+2, -1019080.94, -1181670.1, -23854.799, 0.028266126, 0.016869968, -1015653.25, 121319.086, 0.0, 10.001199, 9.9990425 
1.3550329e+3, 1.9398136e+2, -1006675.75, -1118454.6, -24814.701, -0.017193664, -0.002262754, -1001414.56, 37567.355, 0.0, 10.000584, 9.9991 
1.3550453e+3, 2.039803e+2, -958049.5, -1054915.9, -17022.398, -0.03498565, -0.0125297615, -955145.25, -14152.968, 0.0, 10.00029, 9.999006 
1.3550581e+3, 2.1397929e+2, -828631.06, -935561.6, -24812.227, -0.0122987935, -0.020593284, -823154.1, 19848.934, 0.0, 10.000479, 9.999062 
1.3550706e+3, 2.2397847e+2, -687301.2, -770768.3, -22995.59, -0.029207068, -0.024390332, -681385.06, 63625.7, 0.0, 10.000579, 9.999472 
1.3550825e+3, 2.3397799e+2, -583682.94, -657027.4, -5402.3647, -0.104338385, -0.033387613, -583287.1, 63726.344, 0.0, 10.000563, 9.999587 
1.3550949e+3, 2.4397738e+2, -545802.1, -665299.44, -5463.214, -0.104371585, -0.017793322, -545552.9, 3466.2234, 0.0, 10.0004835, 9.998896 
1.3551085e+3, 2.5397664e+2, -474743.5, -581757.25, -2432.5972, 0.007927117, 0.019914068, -474688.25, -23659.35, 0.0, 10.000304, 9.998883 
1.3551211e+3, 2.6397568e+2, -386212.6, -476038.5, -16842.033, 0.051950186, 0.03182389, -383158.63, -30118.395, 0.0, 10.000186, 9.998993 
1.3551326e+3, 2.7397442e+2, -285272.66, -367707.78, -29004.877, -0.0075168484, -0.0023741128, -276090.13, -21037.088, 0.0, 10.000167, 9.999072 
1.3551448e+3, 2.839737e+2, -210743.6, -283868.06, -2816.4731, -0.0020333007, 0.023034167, -210635.27, -53574.813, 0.0, 10.000017, 9.999046 
1.3551588e+3, 2.9397377e+2, -158024.84, -201091.86, 8811.923, 0.10254145, 0.11775755, -156291.6, -97231.12, 0.0, 9.999679, 9.999105 
1.3551715e+3, 3.0397245e+2, -83558.43, -111216.71, 4925.5303, 0.10416953, 0.06462128, -82707.445, -82707.445, 0.0, 9.999733, 9.999363 
1.3551821e+3, 3.1397134e+2, 18384.943, -30074.982, 39367.707, -0.0826193, 0.012575991, 40381.676, 40381.676, 0.0, 10.00029, 9.999654 
1.3649449e+3, 1.23976626e+2, -1442164.6, -1614159.4, -77790.08, 0.07340106, -0.025742756, -1412201.5, 312828.6, 0.0076198755, 10.002024, 9.99972 
1.3649584e+3, 1.3397612e+2, -1525850.3, -1749575.1, 85567.83, -0.023646671, 0.08523805, -1496875.6, 130160.61, 0.004366158, 10.001386, 9.9984255 
1.364974e+3, 1.4397429e+2, -1456928.5, -1648171.6, -17739.479, 0.077566095, 0.049187426, -1455297.0, 73758.52, 0.0017823466, 10.001112, 9.998574 
1.364985e+3, 1.5397266e+2, -1301413.6, -1522966.4, -31234.58, -0.0056912876, 0.0284424, -1297094.4, 133978.16, 0.0004035849, 10.001509, 9.998569 
1.3649969e+3, 1.6397133e+2, -1155707.3, -1346809.5, -3799.4849, -0.035695832, 0.019620907, -1155631.6, 177453.94, 0.000026350568, 10.001597, 9.999062 
1.3650098e+3, 1.7397073e+2, -1107869.4, -1259113.4, -6006.049, 0.016927395, 0.04040339, -1107631.3, 127458.766, 0.000000016360648, 10.001194, 9.999186 
1.3650224e+3, 1.8396996e+2, -1046486.44, -1187429.0, -26138.063, 0.0337607, 0.050874315, -1041795.25, 95301.03, 0.0, 10.0009775, 9.99911 
1.365034e+3, 1.9396889e+2, -931508.9, -1074586.6, -23543.354, -0.0051315, 0.024752753, -927734.4, 111371.234, 0.0, 10.001066, 9.999168 
1.365046e+3, 2.0396769e+2, -865330.44, -1018017.0, -551.57465, -0.023432504, 0.0021880104, -865328.44, 75788.37, 0.0, 10.000961, 9.998935 
1.3650586e+3, 2.1396641e+2, -821469.56, -940915.75, 4068.995, -0.010741802, -0.024476439, -821331.1, 21798.857, 0.0, 10.000569, 9.99898 
1.365071e+3, 2.2396556e+2, -722977.9, -787566.75, 4902.466, -0.034962263, -0.027033813, -722607.9, 22530.281, 0.0, 10.000336, 9.999472 
1.3650827e+3, 2.3396538e+2, -617482.75, -672787.94, -11440.456, -0.115112096, -0.0061610886, -615209.56, 31929.117, 0.0, 10.000329, 9.999591 
1.3650954e+3, 2.4396496e+2, -553954.75, -634703.2, -27541.623, -0.11103675, 0.01282222, -545455.5, 3686.6133, 0.0, 10.00028, 9.999202 
1.3651088e+3, 2.539642e+2, -469108.88, -539854.4, -9587.406, 0.018523796, 0.012169537, -467832.63, -16682.857, 0.0, 10.000177, 9.999229 
1.3651215e+3, 2.6396307e+2, -406293.6, -504187.7, -5282.636, 0.065742135, -0.00016866544, -406009.38, -52847.74, 0.0, 10.000133, 9.998822 
1.3651326e+3, 2.739616e+2, -302157.56, -400883.88, -13753.78, -0.011008026, -0.032842994, -300277.3, -45098.76, 0.0, 10.000165, 9.998842 
1.3651448e+3, 2.8396094e+2, -183084.66, -261082.1, 5462.4487, -0.028554153, 0.00679131, -182703.95, -25517.65, 0.0, 10.00017, 9.999128 
1.3651581e+3, 2.9396138e+2, -85223.336, -152365.19, 4887.9346, 0.04811184, 0.123849146, -84869.36, -25687.404, 0.0, 10.000122, 9.999226 
1.3651711e+3, 3.039598e+2, -61597.445, -117997.76, 189.42479, 0.08424751, 0.044320893, -61596.813, -61596.813, 0.0, 9.999959, 9.999207 
1.3651828e+3, 3.1395885e+2, -76065.84, -68051.24, 13652.809, -0.004482044, 0.029318543, -57829.785, -57829.785, 0.0, 9.999608, 9.999722 
1.3749468e+3, 1.23963654e+2, -1458944.0, -1651146.1, -101209.25, 0.07245044, -0.048109192, -1415478.9, 309678.5, 0.0079810945, 10.002031, 9.999461 
1.3749602e+3, 1.33963e+2, -1551598.8, -1801717.8, 59728.715, 0.013897855, 0.08277441, -1538067.5, 89099.29, 0.0045821774, 10.00138, 9.99807 
1.374975e+3, 1.4396147e+2, -1434605.9, -1600879.8, -9176.083, 0.076086745, 0.08134942, -1434101.0, 95082.414, 0.0018779465, 10.001107, 9.998901 
1.3749863e+3, 1.5396017e+2, -1272427.9, -1462828.5, -15327.331, -0.016439764, 0.054600965, -1271201.9, 159993.45, 0.00043006244, 10.001509, 9.998981 
1.3749982e+3, 1.639589e+2, -1161989.5, -1360296.6, -17000.666, -0.060490206, 0.03332101, -1160542.6, 172664.6, 0.000029160963, 10.001598, 9.99897 
1.3750108e+3, 1.7395793e+2, -1118009.5, -1281076.0, -21614.205, -0.012957193, 0.030391192, -1115193.3, 120023.35, 0.000000027808229, 10.001197, 9.999034 
1.3750231e+3, 1.8395706e+2, -1038872.44, -1171756.0, -26611.81, 0.0028334602, 0.035264406, -1033741.2, 103483.14, 0.0, 10.0009775, 9.999219 
1.3750346e+3, 1.9395636e+2, -921950.1, -1054279.1, -20549.732, -0.036345236, 0.03267175, -918832.4, 120397.68, 0.0, 10.001063, 9.9993105 
1.3750467e+3, 2.0395546e+2, -859429.56, -1004330.25, -15227.298, -0.052779965, 0.027298495, -857846.6, 83391.21, 0.0, 10.000954, 9.999033 
1.3750589e+3, 2.1395434e+2, -815477.44, -927789.56, -10914.237, -0.031011868, 0.007248929, -814426.6, 28821.512, 0.0, 10.000565, 9.999072 
1.3750714e+3, 2.2395338e+2, -750010.44, -842478.75, 2151.255, -0.021809677, 0.004855443, -749960.4, -4702.7534, 0.0, 10.00033, 9.999098 
1.3750839e+3, 2.3395269e+2, -648147.44, -735316.4, -10875.382, -0.032667786, 0.017802209, -646811.1, 454.46262, 0.0, 10.000324, 9.999165 
1.3750964e+3, 2.4395204e+2, -522614.4, -568207.75, -31167.764, -0.028287856, 0.017476074, -506796.1, 42474.96, 0.0, 10.000274, 9.999662 
1.3751088e+3, 2.539515e+2, -430410.13, -458438.28, -12445.208, 0.000031009014, -0.017071955, -425681.8, 25590.861, 0.0, 10.000172, 9.999792 
1.375121e+3, 2.6395056e+2, -412883.72, -517413.38, -4749.959, 0.01001226, -0.03786241, -412668.3, -59387.07, 0.0, 10.000129, 9.998734 
1.3751328e+3, 2.739492e+2, -315054.78, -425949.7, -10634.134, -0.012651164, -0.04191393, -314044.25, -58745.152, 0.0, 10.000155, 9.998676 
1.3751447e+3, 2.8394842e+2, -187282.94, -266883.6, 4836.5225, -0.053618576, -0.005867329, -186990.14, -29681.055, 0.0, 10.000157, 9.999095 
1.3751568e+3, 2.9394826e+2, -88199.75, -154987.16, 6326.2183, -0.10902622, 0.057159875, -87605.805, -28296.959, 0.0, 10.000106, 9.999215 
1.3751702e+3, 3.0394632e+2, -89956.78, -176300.22, -10037.557, -0.013766147, -0.041279115, -88805.25, -88805.25, 0.0, 9.999954, 9.99881 
1.3751845e+3, 3.1394616e+2, -81647.8, -79469.2, 4268.6255, 0.2044257, 0.06395811, -76153.08, -76153.08, 0.0, 9.999605, 9.999644 
1.3849488e+3, 1.23951524e+2, -1449853.9, -1657080.4, -91698.43, 0.057741407, -0.004775364, -1415104.3, 310173.56, 0.008351057, 10.002142, 9.999366 
1.384962e+3, 1.3395019e+2, -1457706.6, -1772681.9, 77746.945, 0.018814577, 0.07330052, -1439561.4, 187732.06, 0.004803759, 10.0021, 9.997922 
1.3849762e+3, 1.4394864e+2, -1322111.6, -1526617.1, 22285.244, 0.059832297, 0.07044438, -1319711.4, 209598.31, 0.0019753822, 10.001795, 9.99908 
1.3849878e+3, 1.5394771e+2, -1309780.6, -1456991.6, 158.86215, -0.0038672183, 0.05779442, -1309780.5, 121536.85, 0.00045665295, 10.001149, 9.999196 
1.3849995e+3, 1.6394663e+2, -1279477.1, -1419208.4, -5986.1846, -0.040421095, 0.043152727, -1279221.1, 54106.1, 0.00003186285, 10.000802, 9.99895 
1.3850118e+3, 1.7394555e+2, -1157038.3, -1305010.0, -3969.5845, -0.016664151, 0.03498747, -1156931.9, 78406.45, 0.000000039188958, 10.000952, 9.998988 
1.3850239e+3, 1.8394463e+2, -1049709.9, -1186985.6, -8247.25, -0.006526207, 0.040676046, -1049216.3, 88131.3, 0.0, 10.000948, 9.999127 
1.3850357e+3, 1.9394393e+2, -980594.06, -1093389.9, -21142.902, -0.026565375, 0.050648194, -976761.25, 62592.496, 0.0, 10.00071, 9.999211 
1.3850474e+3, 2.039431e+2, -899255.4, -1005967.94, -24913.89, -0.04049329, 0.04878449, -893725.4, 47635.453, 0.0, 10.000606, 9.999188 
1.3850595e+3, 2.1394205e+2, -781671.5, -891430.4, -15867.879, -0.043509666, 0.017903486, -779423.5, 63945.293, 0.0, 10.00071, 9.999252 
1.3850717e+3, 2.2394107e+2, -712828.94, -837959.1, 9526.306, -0.033134785, 0.009444857, -712107.8, 33270.074, 0.0, 10.000643, 9.998979 
1.3850845e+3, 2.3394023e+2, -658331.8, -756292.0, 14542.587, -0.0044857054, 0.02309122, -656218.5, -8830.402, 0.0, 10.000326, 9.999018 
1.3850969e+3, 2.4393946e+2, -538670.7, -569296.3, -3397.2942, 0.0043634954, 0.015424073, -538298.3, 11096.753, 0.0, 10.000139, 9.999718 
1.3851088e+3, 2.539388e+2, -429243.2, -448875.94, -20509.633, -0.016188215, -0.038003627, -416321.78, 35075.31, 0.0, 10.000144, 9.999868 
1.3851209e+3, 2.6393804e+2, -410649.16, -510070.25, -26244.693, -0.020814994, -0.049847588, -404146.5, -50742.46, 0.0, 10.000119, 9.998788 
1.385133e+3, 2.7393723e+2, -327481.28, -426102.84, -18937.22, -0.0059568277, -0.0048724217, -323969.97, -68552.625, 0.0, 10.000046, 9.998727 
1.3851449e+3, 2.839366e+2, -213749.83, -271129.16, 7567.8037, -0.035860863, 0.04009491, -212768.48, -55342.402, 0.0, 9.999941, 9.999168 
1.3851565e+3, 2.9393598e+2, -127365.875, -164144.33, 12091.021, -0.11961757, 0.04949596, -123747.01, -64317.387, 0.0, 9.9998, 9.999297 
1.3851698e+3, 3.0393377e+2, -121506.48, -205182.3, 9777.0205, -0.027577728, -0.07112627, -120379.27, -120379.27, 0.0, 9.9998, 9.998685 
1.3851844e+3, 3.1393403e+2, -10403.595, -14295.803, 42611.0, 0.20388679, 0.083919115, 30305.72, 30305.72, 0.0, 9.999966, 9.999917 
1.3949506e+3, 1.2394032e+2, -1445715.5, -1647349.0, -89838.06, 0.022210842, 0.10436423, -1411495.6, 313894.84, 0.008733579, 10.002136, 9.999437 
1.3949637e+3, 1.3393778e+2, -1453736.6, -1763480.3, 75868.125, -0.014458292, 0.054735117, -1436152.0, 191263.52, 0.005033633, 10.002096, 9.997986 
1.3949777e+3, 1.4393589e+2, -1321288.5, -1525620.3, -1281.9076, 0.019185595, 0.0130885765, -1321280.4, 208153.42, 0.002076125, 10.001797, 9.999085 
1.3949892e+3, 1.5393533e+2, -1309477.5, -1456824.0, -24573.906, 0.02859817, 0.039407413, -1305487.3, 125950.48, 0.00048381835, 10.00115, 9.999196 
1.395001e+3, 1.6393453e+2, -1275402.1, -1411941.4, -5545.792, 0.020506015, 0.05177953, -1275177.3, 58267.88, 0.000034571214, 10.000805, 9.999 
1.3950129e+3, 1.7393363e+2, -1152682.6, -1296114.6, 1704.447, 0.00093535683, 0.053985994, -1152662.4, 82792.64, 0.00000005013657, 10.000951, 9.99905 
1.395025e+3, 1.8393268e+2, -1070684.3, -1229853.4, -17152.57, -0.0017933822, 0.0672771, -1068856.8, 68608.4, 0.0, 10.000944, 9.998836 
1.3950369e+3, 1.9393167e+2, -1003969.6, -1142404.9, -30251.8, 0.02020705, 0.07809002, -997647.5, 41828.645, 0.0, 10.00071, 9.998875 
1.3950486e+3, 2.0393062e+2, -885453.94, -977151.5, -23459.625, 0.008705618, 0.06553914, -879800.6, 61684.797, 0.0, 10.000604, 9.999389 
1.3950601e+3, 2.1392958e+2, -763394.0, -853175.75, -11851.43, -0.05149847, 0.008112304, -761855.94, 81635.65, 0.0, 10.000707, 9.999517 
1.395072e+3, 2.2392868e+2, -704989.3, -820811.75, -2126.7832, -0.072033435, -0.012239329, -704950.25, 40548.24, 0.0, 10.000638, 9.999099 
1.3950846e+3, 2.3392804e+2, -651415.2, -741608.3, 2716.7493, -0.03288658, 0.011043409, -651333.44, -3827.352, 0.0, 10.000323, 9.999121 
1.395097e+3, 2.4392721e+2, -562116.56, -617391.2, -4986.915, -0.016528377, 0.0069999346, -561670.25, -12156.004, 0.0, 10.000134, 9.99939 
1.3951087e+3, 2.5392613e+2, -456079.38, -504362.2, -19042.17, -0.034839723, -0.052478187, -449473.25, 2049.707, 0.0, 10.000141, 9.99949 
1.3951209e+3, 2.6392546e+2, -398732.56, -484877.13, -27932.205, -0.03218588, -0.039273396, -390468.4, -36938.44, 0.0, 10.000115, 9.998963 
1.395133e+3, 2.7392566e+2, -311613.2, -391207.3, -19311.963, 0.002614817, 0.080234796, -307175.0, -51641.953, 0.0, 10.000036, 9.998972 
1.3951452e+3, 2.839254e+2, -203463.56, -249337.77, 3093.9917, 0.015063736, 0.14524508, -203255.83, -45718.438, 0.0, 9.999937, 9.999321 
1.3951574e+3, 2.939243e+2, -119440.31, -146701.72, 8803.005, -0.0018328975, 0.090860605, -116844.836, -57299.09, 0.0, 9.999793, 9.999422 
1.3951701e+3, 3.0392197e+2, -111494.48, -182868.97, 14619.785, 0.02872191, -0.05281954, -108615.97, -108615.97, 0.0, 9.999793, 9.99884 
1.3951823e+3, 3.1392223e+2, 28972.5, 72452.62, 49306.508, -0.0015125992, 0.08361538, 104599.125, 104599.125, 0.0, 9.999945, 10.000522 
1.4049524e+3, 1.239282e+2, -1480651.5, -1642842.0, -89737.9, 0.009610961, 0.13290274, -1440795.0, 284715.78, 0.009133226, 10.0018015, 9.999631 
1.4049657e+3, 1.3392553e+2, -1503802.0, -1766270.8, 75312.07, -0.00844168, 0.05014264, -1483727.5, 143808.25, 0.005275387, 10.001659, 9.998178 
1.4049792e+3, 1.4392367e+2, -1362713.3, -1549689.0, -3590.6284, 0.010352064, 0.005690656, -1362644.4, 166908.58, 0.0021822979, 10.001532, 9.999048 
1.4049907e+3, 1.5392312e+2, -1258772.6, -1438894.1, -33151.72, 0.03317705, 0.03652148, -1252864.8, 178692.75, 0.00051218417, 10.001529, 9.999136 
1.4050022e+3, 1.6392234e+2, -1195294.0, -1369107.8, -10149.579, 0.0329698, 0.052914545, -1194703.4, 138861.52, 0.000037386584, 10.001339, 9.999034 
1.4050141e+3, 1.7392153e+2, -1159824.1, -1294537.0, -5343.1157, 0.015813828, 0.060044143, -1159612.5, 75960.93, 0.00000006103049, 10.00088, 9.999095 
1.4050259e+3, 1.8392056e+2, -1106854.8, -1254431.8, -9276.511, 0.008464413, 0.07204862, -1106273.9, 31309.773, 0.0, 10.000727, 9.998771 
1.4050376e+3, 1.9391939e+2, -959587.7, -1129276.9, -3971.6982, 0.010285007, 0.07209863, -959494.75, 80101.97, 0.0, 10.001052, 9.9988 
1.4050493e+3, 2.0391828e+2, -818762.06, -945758.1, 258.8206, -0.0027519076, 0.058528833, -818761.56, 122845.24, 0.0, 10.001067, 9.999379 
1.4050609e+3, 2.1391736e+2, -774837.8, -858013.94, -9247.385, -0.03686425, 0.014732811, -773822.06, 69789.76, 0.0, 10.000629, 9.999519 
1.4050728e+3, 2.2391649e+2, -736520.5, -826628.3, -9695.683, -0.047911983, -0.007516271, -735489.06, 10129.219, 0.0, 10.000383, 9.99918 
1.405085e+3, 2.339157e+2, -630083.0, -721867.4, -7487.6484, -0.027341947, -0.008256646, -629476.2, 18150.205, 0.0, 10.000429, 9.999205 
1.4050971e+3, 2.439149e+2, -532702.6, -625739.6, -7319.3745, -0.024936154, -0.004693753, -532130.3, 17504.295, 0.0, 10.000433, 9.999189 
1.4051089e+3, 2.5391412e+2, -439246.2, -522198.44, -12578.898, -0.049916197, -0.010967049, -437380.7, 14262.07, 0.0, 10.000369, 9.999257 
1.4051208e+3, 2.6391354e+2, -375124.44, -449229.88, -20920.193, -0.043080963, 0.013179175, -369626.5, -15977.107, 0.0, 10.000175, 9.999178 
1.405133e+3, 2.7391344e+2, -328883.66, -368288.97, -13294.155, 0.011100291, 0.07958633, -324818.06, -69165.8, 0.0, 9.999786, 9.999247 
1.4051452e+3, 2.8391302e+2, -259612.98, -292245.88, 10663.653, 0.0357118, 0.118816406, -256437.38, -98780.125, 0.0, 9.99962, 9.999178 
1.4051574e+3, 2.9391193e+2, -133928.6, -175968.97, -7443.505, 0.021120105, 0.08292407, -132649.58, -72982.39, 0.0, 9.999788, 9.999223 
1.4051701e+3, 3.039099e+2, -114904.69, -203799.63, -21773.373, 0.038931068, -0.009474236, -109858.15, -109858.15, 0.0, 9.999853, 9.998668 
1.4051817e+3, 3.1390986e+2, 16143.082, 85452.43, -19796.129, -0.044679817, 0.11036391, 90708.07, 90708.07, 0.0, 9.999775, 10.000693 
1.4149542e+3, 1.23915166e+2, -1461062.8, -1600184.6, -90588.82, 0.0139770135, 0.07236599, -1416408.8, 309230.03, 0.009556688, 10.001793, 9.999931 
1.4149678e+3, 1.3391352e+2, -1483838.6, -1722899.8, 68700.41, 0.034233842, 0.06286506, -1465502.3, 162150.9, 0.0055341963, 10.001654, 9.998477 
1.4149809e+3, 1.4391215e+2, -1366412.9, -1559268.9, -6617.0234, 0.028549477, 0.052961767, -1366186.1, 163479.69, 0.0022969088, 10.001537, 9.9989805 
1.4149919e+3, 1.5391114e+2, -1266563.5, -1455186.6, -32881.95, 0.0051166043, 0.049335673, -1260995.8, 170680.22, 0.0005425403, 10.001528, 9.999025 
1.4150031e+3, 1.6391012e+2, -1195200.4, -1368845.0, -27226.367, -0.009942585, 0.046246104, -1191031.6, 142654.36, 0.000040406845, 10.001337, 9.999038 
1.4150149e+3, 1.739093e+2, -1157953.9, -1292130.4, -22842.316, 0.024766635, 0.052826084, -1154171.8, 81521.5, 0.00000007226826, 10.000885, 9.999109 
1.4150266e+3, 1.8390834e+2, -1095260.3, -1231517.5, -1530.9098, 0.019093648, 0.055508286, -1095243.0, 42459.508, 0.0, 10.0007305, 9.998927 
1.415038e+3, 1.9390711e+2, -947712.75, -1104445.9, 8224.986, -0.058547016, 0.033848044, -947282.3, 92432.73, 0.0, 10.001049, 9.998972 
1.4150497e+3, 2.0390609e+2, -834320.25, -976911.9, -14775.421, -0.07830575, 0.028739871, -832805.3, 108919.32, 0.0, 10.001061, 9.999169 
1.415062e+3, 2.1390544e+2, -793446.06, -895774.44, -25793.127, -0.0042333254, 0.03696434, -787312.3, 56416.965, 0.0, 10.000624, 9.999264 
1.415074e+3, 2.2390452e+2, -735217.06, -822434.0, -10721.077, 0.032210942, 0.023072148, -733918.5, 11818.419, 0.0, 10.000376, 9.999213 
1.4150858e+3, 2.3390323e+2, -625166.2, -712028.06, -4898.9985, 0.00872302, -0.035255667, -624890.75, 22857.912, 0.0, 10.000429, 9.999273 
1.4150976e+3, 2.4390253e+2, -539368.94, -639058.3, -9347.036, -0.024166232, -0.02129217, -538500.1, 11255.894, 0.0, 10.000429, 9.999101 
1.415109e+3, 2.5390276e+2, -448557.34, -538866.56, -13779.942, -0.066515215, 0.08635321, -446501.53, 5254.9014, 0.0, 10.000356, 9.99915 
1.4151208e+3, 2.6390222e+2, -359366.13, -414747.03, -33940.89, -0.05990066, 0.10855303, -343253.1, 10509.211, 0.0, 10.000166, 9.99942 
1.4151329e+3, 2.7390063e+2, -308386.28, -327053.28, -26454.213, 0.013899213, -0.0048156222, -289667.34, -33892.105, 0.0, 9.99979, 9.99953 
1.4151448e+3, 2.8389952e+2, -285638.13, -348843.1, 15099.351, 0.022456123, -0.03507512, -282216.22, -124430.68, 0.0, 9.999631, 9.998785 
1.4151566e+3, 2.93899e+2, -167468.42, -246576.1, 1985.4443, -0.050473623, 0.033296067, -167418.61, -107625.63, 0.0, 9.999791, 9.998737 
1.4151695e+3, 3.0389768e+2, -149524.88, -278064.97, -21940.709, -0.0011812411, 0.064596035, -145882.97, -145882.97, 0.0, 9.999861, 9.998156 
1.4151825e+3, 3.138969e+2, -8659.787, 36724.258, -22684.98, 0.049634945, 0.15883093, 46118.62, 46118.62, 0.0, 9.999761, 10.000366 
1.424956e+3, 1.2390285e+2, -1424232.5, -1578539.1, -57298.332, 0.0013501969, 0.038536157, -1405283.1, 320475.75, 0.010011913, 10.002031, 9.999967 
1.4249696e+3, 1.3390161e+2, -1488478.0, -1721574.9, 73872.67, 0.04706701, 0.06699778, -1467038.4, 160731.39, 0.0058154534, 10.001605, 9.99851 
1.4249824e+3, 1.4390048e+2, -1411541.6, -1588734.3, -3993.6897, 0.039279114, 0.0812647, -1411451.6, 118329.09, 0.002423067, 10.001263, 9.998909 
1.4249934e+3, 1.5389918e+2, -1326789.0, -1493736.9, -29583.547, 0.01664572, 0.05745348, -1321701.8, 110092.1, 0.00057589856, 10.001155, 9.99894 
1.4250045e+3, 1.6389799e+2, -1205696.4, -1370408.4, -19103.758, -0.0064661624, 0.0414055, -1203509.8, 130295.65, 0.00004378684, 10.001252, 9.999067 
1.425016e+3, 1.738972e+2, -1041714.3, -1230153.3, -13854.877, 0.0078057265, 0.044975773, -1040701.06, 195110.66, 0.00000008454083, 10.001661, 9.999159 
1.4250275e+3, 1.8389626e+2, -961911.4, -1160287.1, 508.5412, -0.0009626251, 0.045101292, -961910.06, 175910.16, 0.0, 10.001619, 9.998986 
1.4250389e+3, 1.9389509e+2, -962381.9, -1104337.5, 408.83664, -0.0579216, 0.023452552, -962380.7, 77451.18, 0.0, 10.000919, 9.999035 
1.4250506e+3, 2.0389414e+2, -918602.06, -1024579.44, -21349.146, -0.06047406, 0.024505941, -914462.94, 27378.084, 0.0, 10.000513, 9.999105 
1.4250627e+3, 2.1389359e+2, -808643.2, -912277.1, -21439.795, 0.022849094, 0.04994917, -804382.9, 39462.914, 0.0, 10.000559, 9.999182 
1.4250746e+3, 2.2389264e+2, -715376.06, -821429.5, 4179.2515, 0.059009444, 0.04310626, -715211.6, 30642.53, 0.0, 10.000547, 9.999138 
1.4250863e+3, 2.3389119e+2, -627412.44, -720500.75, -1684.087, 0.020341648, -0.024557505, -627382.0, 20485.469, 0.0, 10.000447, 9.999206 
1.4250979e+3, 2.4389039e+2, -574462.4, -654593.94, -17348.73, -0.015154984, -0.017053012, -570867.6, -20991.963, 0.0, 10.000183, 9.999112 
1.4251092e+3, 2.5389066e+2, -546704.94, -583403.06, -14568.461, -0.042150002, 0.09060127, -541624.8, -89749.08, 0.0, 9.99967, 9.999174 
1.425121e+3, 2.6389006e+2, -438905.88, -450116.3, -20348.002, -0.035662193, 0.10442525, -423405.2, -69523.64, 0.0, 9.999605, 9.999448 
1.4251329e+3, 2.7388823e+2, -242126.63, -292318.34, -31620.428, 0.0134814605, -0.03415433, -226853.52, 29041.605, 0.0, 10.00023, 9.9995575 
1.4251447e+3, 2.8388688e+2, -162863.52, -306011.88, 3769.5947, 0.0016992541, -0.08280664, -162764.31, -4857.2417, 0.0, 10.000544, 9.998639 
1.4251564e+3, 2.938862e+2, -94892.99, -230360.44, 9343.182, -0.08300504, -0.013891456, -94251.63, -34334.97, 0.0, 10.000372, 9.998568 
1.4251693e+3, 3.0388528e+2, -129396.9, -272036.78, 3553.8457, -0.021023568, 0.0680289, -129308.41, -129308.41, 0.0, 10.000015, 9.998122 
1.4251822e+3, 3.138838e+2, -58848.79, 14498.852, 31661.926, 0.07091966, 0.09629643, 26275.486, 26275.486, 0.0, 9.999406, 10.000384 
1.4349578e+3, 1.2389129e+2, -1440502.0, -1610846.3, -70095.05, -0.032640338, 0.029611167, -1415367.3, 310503.28, 0.010506618, 10.002026, 9.999746 
1.434971e+3, 1.3388988e+2, -1505163.3, -1754429.5, 57417.14, 0.023290584, 0.062210888, -1492573.5, 135311.2, 0.006123269, 10.001598, 9.998287 
1.4349836e+3, 1.438887e+2, -1418652.8, -1603985.5, -11560.808, 0.03349023, 0.08943438, -1417934.4, 111962.445, 0.002563054, 10.001263, 9.998805 
1.434995e+3, 1.5388729e+2, -1331864.0, -1505016.4, -33515.117, 0.06353844, 0.060642313, -1325603.3, 106307.46, 0.0006133788, 10.001157, 9.998862 
1.4350061e+3, 1.6388601e+2, -1201431.3, -1362409.4, -7508.8887, 0.038339697, 0.040402677, -1201081.8, 132840.63, 0.000047750204, 10.001254, 9.999122 
1.4350171e+3, 1.7388524e+2, -1037130.25, -1220266.4, 1534.6069, -0.038292225, 0.037255764, -1037117.4, 198811.11, 0.00000010052836, 10.001658, 9.9992285 
1.4350286e+3, 1.8388435e+2, -964972.44, -1165796.8, -23199.744, -0.05691873, 0.041544452, -962327.2, 175609.17, 0.0, 10.001614, 9.998952 
1.4350405e+3, 1.9388333e+2, -965501.4, -1111433.0, -26167.842, 0.00688445, 0.039171193, -960950.94, 78996.01, 0.0, 10.00092, 9.998986 
1.4350522e+3, 2.0388244e+2, -914374.0, -1015362.94, -23606.467, 0.043552577, 0.045556583, -909128.4, 32827.406, 0.0, 10.00051, 9.99917 
1.4350635e+3, 2.1388179e+2, -802729.9, -900759.3, -19193.564, 0.041602053, 0.05322336, -799105.9, 44855.414, 0.0, 10.00056, 9.999261 
1.435075e+3, 2.2388087e+2, -728486.3, -848681.94, 11.743923, 0.030445207, 0.05179087, -728486.3, 17483.57, 0.0, 10.000546, 9.998952 
1.4350867e+3, 2.338796e+2, -643422.06, -753352.06, -4742.3853, 0.003982726, 0.02347664, -643217.9, 4764.6787, 0.0, 10.000443, 9.998982 
1.4350982e+3, 2.4387851e+2, -567022.56, -638504.94, -35101.363, -0.004352918, 0.0091916425, -552668.5, -2675.1636, 0.0, 10.000178, 9.999225 
1.4351097e+3, 2.538778e+2, -534439.4, -560599.9, -32773.453, 0.01775486, 0.00427045, -512232.34, -60231.895, 0.0, 9.99968, 9.999327 
1.4351211e+3, 2.6387703e+2, -449099.44, -474061.16, -902.1757, 0.025347572, 0.0026790889, -449066.88, -95060.06, 0.0, 9.999616, 9.999279 
1.435133e+3, 2.738763e+2, -257734.94, -323650.44, -5683.0713, 0.0057572923, -0.008506267, -257248.55, -1236.9197, 0.0, 10.000223, 9.999347 
1.4351448e+3, 2.8387517e+2, -160560.34, -298503.25, 1404.4185, -0.03311121, -0.026647186, -160546.05, -2524.2876, 0.0, 10.000531, 9.998697 
1.4351566e+3, 2.9387352e+2, -92428.266, -220804.14, 4841.666, -0.08690067, -0.061582595, -92245.92, -32207.086, 0.0, 10.000351, 9.998644 
1.4351693e+3, 3.038727e+2, -97928.77, -204069.84, -17875.92, -0.027298184, 0.00304094, -94999.04, -94999.04, 0.0, 10.000003, 9.998595 
1.4351812e+3, 3.1387094e+2, -34419.16, 63979.38, 7602.471, 0.01732997, -0.04862219, 64563.297, 64563.297, 0.0, 9.999411, 10.000723 
1.4449598e+3, 1.23879775e+2, -1449863.0, -1628145.5, -86405.3, -0.030719515, 0.04461364, -1414859.0, 311123.9, 0.011047917, 10.00202, 9.999628 
1.4449726e+3, 1.3387823e+2, -1484950.3, -1755945.9, 40446.58, 0.018298957, 0.07287021, -1479042.4, 148957.34, 0.00646129, 10.001789, 9.998184 
1.444985e+3, 1.4387706e+2, -1352897.6, -1558525.8, -3089.8875, 0.023132676, 0.101203755, -1352851.1, 177160.63, 0.0027186894, 10.001658, 9.998925 
1.4449966e+3, 1.5387551e+2, -1237268.9, -1440965.0, -6716.0073, 0.07278246, 0.044690415, -1237047.6, 194977.17, 0.0006559602, 10.001731, 9.999024 
1.4450076e+3, 1.638742e+2, -1164276.6, -1358745.1, 23916.11, 0.053262163, 0.0148936985, -1161378.5, 172657.89, 0.000052490832, 10.001575, 9.998989 
1.4450186e+3, 1.7387341e+2, -1127949.3, -1283488.9, 12267.779, -0.03705964, 0.029087044, -1126987.5, 109056.27, 0.00000012546444, 10.001121, 9.999053 
1.44503e+3, 1.8387255e+2, -1075743.1, -1215489.6, -30394.809, -0.050797928, 0.043318063, -1069418.5, 68633.695, 0.0, 10.000838, 9.998984 
1.4450417e+3, 1.938716e+2, -976383.06, -1109956.4, -29028.102, 0.041448887, 0.042061683, -970347.4, 69714.3, 0.0, 10.000819, 9.999044 
1.445053e+3, 2.0387062e+2, -867081.6, -992783.44, -9262.992, 0.07644724, 0.038673982, -866402.7, 75668.086, 0.0, 10.000837, 9.999167 
1.4450641e+3, 2.138697e+2, -751810.75, -877103.5, -11216.673, 0.02626293, 0.020355206, -750814.56, 93264.2, 0.0, 10.0009165, 9.999249 
1.4450753e+3, 2.2386882e+2, -686398.44, -830141.0, 1491.2488, -0.0009103316, 0.022959892, -686382.94, 59704.254, 0.0, 10.000844, 9.998935 
1.4450872e+3, 2.3386802e+2, -631617.3, -750049.9, 8470.592, 0.0052763755, 0.044860087, -631014.5, 17081.469, 0.0, 10.000535, 9.9989605 
1.4450987e+3, 2.4386698e+2, -533435.0, -631271.2, -15414.923, 0.010163389, 0.039695583, -531063.7, 19042.805, 0.0, 10.000445, 9.999146 
1.4451097e+3, 2.5386566e+2, -392443.4, -501866.63, -32382.182, 0.013385919, -0.019342378, -383578.56, 68540.414, 0.0, 10.000695, 9.999242 
1.4451212e+3, 2.6386473e+2, -314777.16, -434710.13, -6451.771, 0.019286247, -0.024098296, -314431.1, 39696.227, 0.0, 10.000648, 9.999052 
1.4451334e+3, 2.7386445e+2, -287344.78, -364522.63, -14434.607, 0.025551533, 0.03728697, -284733.4, -28604.348, 0.0, 10.000136, 9.999106 
1.4451455e+3, 2.8386334e+2, -266274.44, -331522.6, -11618.6875, 0.005140135, 0.031209836, -264267.25, -106128.34, 0.0, 9.999727, 9.998858 
1.445157e+3, 2.9386118e+2, -204412.25, -251896.05, -2312.1995, -0.043494467, -0.07844138, -204299.92, -144140.63, 0.0, 9.999481, 9.99885 
1.4451692e+3, 3.0386057e+2, -153638.16, -207597.66, -20530.414, -0.008455225, -0.015964732, -146715.03, -146715.03, 0.0, 9.999521, 9.998802 
1.4451805e+3, 3.138587e+2, 43967.344, 91674.555, -24797.264, -0.024687186, -0.10036031, 102228.78, 102228.78, 0.0, 9.999994, 10.00063 
1.4549622e+3, 1.238684e+2, -1451796.4, -1633297.6, -94023.44, -0.0007506876, 0.0833731, -1411871.5, 314223.9, 0.011640448, 10.002024, 9.999592 
1.4549744e+3, 1.3386673e+2, -1485854.6, -1758166.4, 31103.012, 0.029587047, 0.09926924, -1482347.3, 145767.0, 0.0068325973, 10.001789, 9.998169 
1.4549865e+3, 1.4386562e+2, -1327665.9, -1506050.9, -4342.4844, 0.0041499683, 0.11909824, -1327560.1, 202564.63, 0.0028915813, 10.001658, 9.999286 
1.454998e+3, 1.5386397e+2, -1209131.6, -1381378.0, -3836.0696, 0.039142113, 0.010143166, -1209046.3, 223089.3, 0.00070428615, 10.001726, 9.999434 
1.455009e+3, 1.6386259e+2, -1187541.5, -1408327.4, 7059.147, 0.03049384, -0.03406139, -1187316.0, 146830.86, 0.000058062662, 10.001578, 9.998649 
1.4550202e+3, 1.7386174e+2, -1157388.9, -1346597.0, -4726.23, 0.0061604716, 0.018877909, -1157270.9, 78886.53, 0.00000016567238, 10.001126, 9.998618 
1.4550313e+3, 1.8386085e+2, -1069815.9, -1203057.9, -34150.953, 0.010489282, 0.050286945, -1061572.8, 76594.59, 0.0, 10.000837, 9.99907 
1.4550427e+3, 1.9385988e+2, -965233.25, -1087714.6, -29455.168, 0.043896243, 0.031966902, -958517.9, 81657.91, 0.0, 10.000822, 9.999196 
1.4550535e+3, 2.0385872e+2, -872778.44, -1004544.3, -8269.668, 0.036491852, 0.004276844, -872261.44, 69924.414, 0.0, 10.000835, 9.999088 
1.4550644e+3, 2.1385737e+2, -759381.25, -892650.06, -7853.2964, -0.02717496, -0.04791481, -758920.06, 85277.78, 0.0, 10.000914, 9.9991455 
1.4550757e+3, 2.2385651e+2, -677888.94, -810532.0, -9712.49, -0.040847205, -0.041962367, -677181.56, 69024.445, 0.0, 10.000834, 9.999075 
1.4550878e+3, 2.3385645e+2, -618942.7, -724588.75, -2659.5144, 0.02071601, 0.038958006, -618875.8, 29332.057, 0.0, 10.000537, 9.999135 
1.4550993e+3, 2.4385579e+2, -552171.06, -670331.0, -8735.779, 0.026124492, 0.07197012, -551528.7, -1313.2467, 0.0, 10.000445, 9.998879 
1.4551097e+3, 2.538542e+2, -416936.0, -550259.94, -21529.33, -0.055964876, 0.018683957, -413545.66, 38685.668, 0.0, 10.000683, 9.998917 
1.455121e+3, 2.63853e+2, -337347.25, -477753.94, -22135.01, -0.05630811, 0.022810142, -333940.34, 20302.658, 0.0, 10.00063, 9.998765 
1.4551339e+3, 2.7385265e+2, -307841.47, -405956.2, -31901.07, 0.06636537, 0.10105049, -298381.28, -42133.637, 0.0, 10.000131, 9.998825 
1.455146e+3, 2.8385147e+2, -245332.0, -289947.56, -21029.738, 0.10904223, 0.08829262, -236982.2, -78723.53, 0.0, 9.999733, 9.999142 
1.4551574e+3, 2.938492e+2, -180079.16, -202599.08, -9073.947, 0.039968483, -0.06431155, -176878.02, -116600.2, 0.0, 9.999485, 9.999188 
1.455169e+3, 3.0384886e+2, -157566.08, -216068.98, -4161.516, 0.027736656, 0.009697402, -157271.55, -157271.55, 0.0, 9.999521, 9.998744 
1.4551799e+3, 3.1384718e+2, 91.07981, 6857.354, -7490.6353, -0.06626624, -0.040282372, 11693.416, 11693.416, 0.0, 9.999967, 10.000062 
1.464964e+3, 1.23856835e+2, -1522649.3, -1683817.6, -51609.383, 0.011794558, 0.055452067, -1507539.5, 218667.86, 0.012283001, 10.001603, 9.999443 
1.4649762e+3, 1.3385499e+2, -1477566.1, -1765064.9, 64232.98, 0.025878528, 0.062383696, -1463867.9, 164360.69, 0.00723705, 10.001894, 9.998071 
1.464988e+3, 1.4385405e+2, -1288790.4, -1486750.3, 10534.306, -0.010833092, 0.10629598, -1288231.4, 242006.2, 0.0030819494, 10.001928, 9.999287 
1.4649996e+3, 1.5385261e+2, -1218717.4, -1383847.9, -21861.865, 0.038267918, 0.017503642, -1215872.1, 216374.25, 0.0007585455, 10.001652, 9.999453 
1.4650106e+3, 1.6385129e+2, -1210059.0, -1422393.0, -21412.584, 0.04225728, -0.021223625, -1207921.3, 126335.98, 0.00006440502, 10.001438, 9.998619 
1.4650217e+3, 1.7385024e+2, -1129710.8, -1336132.3, -5901.399, 0.027508, 0.012730382, -1129542.1, 106727.68, 0.00000022299002, 10.001333, 9.998589 
1.4650327e+3, 1.838492e+2, -1004549.44, -1175877.0, -10770.363, 0.027120639, 0.03398744, -1003875.0, 134405.88, 0.0, 10.001307, 9.999029 
1.4650436e+3, 1.9384824e+2, -881652.94, -1052454.4, -20266.371, 0.031579837, 0.020955445, -879281.2, 161007.95, 0.0, 10.00142, 9.999149 
1.4650545e+3, 2.0384707e+2, -805517.06, -980447.44, -13166.129, 0.01606425, -0.0018987384, -804531.7, 137767.8, 0.0, 10.001334, 9.999013 
1.4650653e+3, 2.1384566e+2, -763464.06, -903878.44, -14019.032, -0.025483303, -0.049940236, -762078.1, 82234.08, 0.0, 10.000927, 9.999062 
1.4650767e+3, 2.2384474e+2, -692928.06, -819867.5, -15901.389, -0.026215006, -0.044807117, -690966.44, 55354.637, 0.0, 10.00074, 9.999057 
1.4650886e+3, 2.338446e+2, -568746.56, -701581.44, -24035.818, 0.032715775, 0.026199885, -564531.2, 83792.73, 0.0, 10.000888, 9.999124 
1.4651e+3, 2.438439e+2, -520035.66, -667754.2, -36920.133, 0.035836883, 0.06324693, -511322.0, 39009.77, 0.0, 10.000723, 9.998763 
1.46511e+3, 2.538424e+2, -516321.2, -612570.44, -38045.348, -0.04749779, 0.035599187, -503099.03, -50752.215, 0.0, 10.000065, 9.998785 
1.4651214e+3, 2.6384118e+2, -463250.47, -546497.7, -17621.094, -0.051833536, 0.042348508, -459674.22, -105314.58, 0.0, 9.9998, 9.998693 
1.465134e+3, 2.7384043e+2, -309826.25, -414398.25, -12906.868, 0.06282201, 0.08653915, -308256.75, -51888.203, 0.0, 10.000148, 9.998759 
1.4651461e+3, 2.8383923e+2, -171007.73, -245171.27, -7124.1743, 0.10791469, 0.07338199, -170329.6, -11949.778, 0.0, 10.000205, 9.999221 
1.4651571e+3, 2.9383758e+2, -123477.086, -164114.22, -16083.851, 0.056312766, -0.026712101, -117881.67, -57488.81, 0.0, 9.999826, 9.999287 
1.4651687e+3, 3.0383748e+2, -148422.77, -194883.3, 1835.9067, 0.03892594, 0.055760544, -148350.33, -148350.33, 0.0, 9.999512, 9.998893 
1.4651796e+3, 3.138355e+2, -121549.47, -82471.55, 12148.875, -0.07071153, -0.038829107, -79002.55, -79002.55, 0.0, 9.999264, 9.999784 
1.4749655e+3, 1.23845175e+2, -1540897.3, -1720290.6, -44480.28, 0.0039991173, -0.035902064, -1530474.1, 195843.69, 0.012969934, 10.001597, 9.999193 
1.4749779e+3, 1.3384308e+2, -1489749.3, -1789942.9, 75018.39, -0.0011678846, -0.03808262, -1472046.1, 156295.53, 0.0076708426, 10.001892, 9.997901 
1.4749898e+3, 1.4384246e+2, -1313519.3, -1541573.9, 559.12946, -0.03263398, 0.06402563, -1313517.9, 216831.44, 0.0032881629, 10.001941, 9.998905 
1.4750016e+3, 1.5384154e+2, -1246132.8, -1441697.0, -32067.283, 0.06675816, 0.0657522, -1241008.9, 191348.0, 0.00081847684, 10.001654, 9.999056 
1.4750125e+3, 1.6384037e+2, -1191095.4, -1382335.5, -28203.037, 0.08350788, 0.054084048, -1187022.9, 147344.14, 0.000071419374, 10.001435, 9.998896 
1.4750229e+3, 1.7383891e+2, -1104168.8, -1283605.1, -9955.667, 0.02303036, 0.011325906, -1103618.0, 132762.53, 0.0000002932695, 10.001334, 9.998948 
1.4750338e+3, 1.8383764e+2, -1016408.6, -1200920.0, -8754.094, -0.006496334, -0.004917923, -1015994.25, 122398.33, 0.0, 10.001307, 9.9988575 
1.4750446e+3, 1.9383669e+2, -898137.25, -1087622.3, -15694.257, -0.000007667827, 0.008086838, -896846.2, 143555.48, 0.0, 10.001421, 9.998908 
1.4750558e+3, 2.0383568e+2, -812822.06, -993938.8, -27518.91, 0.008863809, 0.018418599, -808733.1, 133678.31, 0.0, 10.001326, 9.998925 
1.4750668e+3, 2.1383463e+2, -768103.75, -913617.06, -29136.246, 0.02619812, 0.01172995, -762486.6, 81935.055, 0.0, 10.000926, 9.998996 
1.475078e+3, 2.2383355e+2, -706447.06, -847301.7, -13493.951, 0.038348988, 0.012054933, -705166.0, 41266.453, 0.0, 10.000736, 9.998871 
1.4750896e+3, 2.3383245e+2, -583694.9, -731047.56, -17250.838, 0.037748408, 0.008216787, -581702.25, 66741.45, 0.0, 10.00088, 9.998926 
1.4751005e+3, 2.4383135e+2, -520721.03, -666109.5, -58334.74, 0.03498509, 0.015650751, -500209.06, 50245.934, 0.0, 10.000709, 9.998781 
1.475111e+3, 2.5383034e+2, -513094.06, -605577.44, -61420.176, 0.030744474, 0.031130332, -482454.47, -29989.027, 0.0, 10.000062, 9.998835 
1.475122e+3, 2.638292e+2, -453056.0, -526700.2, -7652.6807, 0.02548242, 0.03420494, -452269.2, -97791.83, 0.0, 9.9998045, 9.998828 
1.4751336e+3, 2.7382776e+2, -301118.22, -394723.0, 2827.422, 0.013713284, -0.00062569376, -301032.88, -44541.39, 0.0, 10.000139, 9.998899 
1.4751452e+3, 2.8382662e+2, -181298.2, -263900.03, -17559.26, 0.0027044746, -0.0072873095, -177720.47, -19218.422, 0.0, 10.000194, 9.999099 
1.4751565e+3, 2.9382625e+2, -135457.39, -187919.69, -27951.77, 0.004354372, 0.03330502, -123356.12, -62851.258, 0.0, 9.999822, 9.9991255 
1.475168e+3, 3.0382627e+2, -121906.92, -141013.98, -6574.3345, 0.022772523, 0.118440636, -119863.39, -119863.39, 0.0, 9.999515, 9.999263 
1.4751789e+3, 3.1382376e+2, -122223.195, -80450.43, 4009.1277, -0.051860336, -0.0696586, -80069.13, -80069.13, 0.0, 9.999248, 9.999807 
1.4849675e+3, 1.23834535e+2, -1412667.6, -1655944.0, -64926.97, -0.015455055, 0.0023976965, -1396424.1, 329998.44, 0.013700746, 10.002484, 9.999211 
1.48498e+3, 1.33832e+2, -1458500.8, -1758576.9, 74724.96, 0.020538464, -0.059278768, -1440922.5, 187526.31, 0.00813248, 10.00204, 9.998045 
1.4849919e+3, 1.4383133e+2, -1357231.9, -1595899.5, 16827.375, 0.00003338236, 0.04517831, -1356051.4, 174405.23, 0.0035089266, 10.001783, 9.998608 
1.4850032e+3, 1.5383029e+2, -1240209.3, -1476417.3, -12718.432, 0.0698425, 0.069085866, -1239526.4, 192941.17, 0.0008836724, 10.00186, 9.998717 
1.485014e+3, 1.6382909e+2, -1137925.0, -1346457.5, -15163.843, 0.071016945, 0.06878438, -1136828.1, 197650.98, 0.00007901186, 10.001759, 9.998984 
1.4850242e+3, 1.738277e+2, -1082121.1, -1257134.9, -15763.137, 0.017201142, 0.01829532, -1080712.6, 155777.97, 0.00000037325287, 10.001418, 9.999089 
1.485035e+3, 1.8382637e+2, -1040104.8, -1215117.6, -11096.204, -0.0037233992, -0.008731366, -1039404.1, 99098.164, 0.0, 10.001156, 9.998833 
1.485046e+3, 1.9382526e+2, -960747.7, -1122411.0, -4444.342, 0.010682458, -0.008671507, -960625.56, 79887.46, 0.0, 10.001014, 9.998864 
1.485057e+3, 2.0382427e+2, -868032.94, -1030725.56, -10908.653, 0.026457373, 0.010434619, -867304.75, 75218.29, 0.0, 10.000993, 9.998832 
1.485068e+3, 2.1382351e+2, -742811.7, -913532.94, -17192.11, 0.047979906, 0.044306703, -741097.6, 103433.74, 0.0, 10.001153, 9.998886 
1.485079e+3, 2.2382243e+2, -676827.3, -841372.3, -3926.1797, 0.04854202, 0.05537235, -676733.7, 69808.91, 0.0, 10.0009775, 9.998794 
1.4850898e+3, 2.338209e+2, -677174.44, -785342.94, -2000.0171, 0.010779989, 0.016407505, -677137.5, -28579.701, 0.0, 10.000279, 9.998842 
1.4851007e+3, 2.438196e+2, -617698.1, -704947.9, -30340.389, 0.0030750716, 0.00398822, -608184.8, -57613.902, 0.0, 10.0000105, 9.99885 
1.4851113e+3, 2.5381872e+2, -457300.63, -569372.7, -32365.34, 0.0434705, 0.021872697, -448625.34, 3954.5396, 0.0, 10.000406, 9.998917 
1.4851223e+3, 2.6381764e+2, -349733.25, -463603.44, 24038.496, 0.049446493, 0.023288395, -344866.6, 9723.916, 0.0, 10.000459, 9.998944 
1.4851336e+3, 2.7381626e+2, -316610.44, -388323.1, 31802.826, -0.0041204505, -0.018398425, -304538.72, -47935.285, 0.0, 9.999976, 9.999021 
1.485145e+3, 2.8381518e+2, -259573.11, -324442.75, 9570.182, -0.032793313, -0.018381096, -258190.69, -99576.92, 0.0, 9.999756, 9.998892 
1.4851561e+3, 2.9381475e+2, -134006.69, -215870.58, -10448.241, -0.011426072, 0.044133853, -132694.23, -72075.68, 0.0, 9.999956, 9.998868 
1.4851676e+3, 3.038145e+2, -70541.92, -79194.43, -11047.383, 0.015345555, 0.10361703, -63003.9, -63003.9, 0.0, 9.99971, 9.999592 
1.4851782e+3, 3.138131e+2, -185809.13, -89382.445, -9421.194, -0.033649478, -0.016728507, -88470.586, -88470.586, 0.0, 9.99872, 9.999998 
1.4949696e+3, 1.23825036e+2, -1394155.5, -1617800.9, -84357.47, -0.05273275, 0.17756356, -1365905.0, 360615.28, 0.014485405, 10.002488, 9.999475 
1.4949828e+3, 1.3382174e+2, -1429203.0, -1696716.0, 57373.355, 0.08988135, -0.00026575953, -1417417.4, 211131.98, 0.008627366, 10.002038, 9.99847 
1.4949946e+3, 1.4382072e+2, -1370372.1, -1624197.4, 15161.914, 0.084338866, 0.05168742, -1369469.6, 161089.0, 0.0037456865, 10.001787, 9.998412 
1.4950049e+3, 1.5381894e+2, -1259795.5, -1517314.4, -9786.91, 0.041371837, 0.027949244, -1259424.0, 173153.98, 0.0009542572, 10.00186, 9.998437 
1.495015e+3, 1.638175e+2, -1144889.8, -1362002.6, -27798.754, -0.0031784684, 0.023714028, -1141387.0, 193205.75, 0.00008722728, 10.001762, 9.998877 
1.4950255e+3, 1.738166e+2, -1087927.8, -1270134.8, -28640.154, 0.0069563584, 0.032648336, -1083532.0, 153067.75, 0.0000004647829, 10.00142, 9.999001 
1.4950363e+3, 1.8381545e+2, -1032699.06, -1199094.5, -18663.72, 0.030458245, 0.022028591, -1030631.3, 107978.35, 0.0, 10.001152, 9.998945 
1.4950475e+3, 1.9381395e+2, -950297.4, -1101716.1, -9611.254, 0.059077904, -0.029044937, -949689.7, 90933.34, 0.0, 10.001017, 9.999005 
1.4950585e+3, 2.0381284e+2, -876265.8, -1047462.2, -7188.6763, 0.064072505, -0.025481587, -875964.44, 66669.6, 0.0, 10.00099, 9.998719 
1.4950691e+3, 2.1381235e+2, -753366.3, -934524.3, -10560.206, 0.037139006, 0.049011424, -752752.8, 91888.12, 0.0, 10.001148, 9.998745 
1.4950794e+3, 2.2381145e+2, -677828.2, -841482.6, -27432.46, 0.0011714434, 0.08503406, -673352.25, 73298.97, 0.0, 10.000968, 9.998798 
1.4950895e+3, 2.3380998e+2, -674984.3, -780919.75, -27642.06, -0.05091682, 0.049493488, -668205.4, -19539.164, 0.0, 10.000279, 9.998873 
1.4951e+3, 2.4380863e+2, -611008.56, -691332.06, -19739.967, -0.06258855, 0.026642853, -606419.5, -55739.84, 0.0, 10.0000105, 9.998944 
1.4951111e+3, 2.538075e+2, -451071.6, -555062.6, -15553.539, -0.00955803, 0.009054934, -448795.16, 3895.129, 0.0, 10.0004, 9.999019 
1.4951225e+3, 2.638065e+2, -343875.28, -449218.13, 9763.06, 0.018379934, 0.009950405, -342978.1, 11721.288, 0.0, 10.000448, 9.999049 
1.4951336e+3, 2.7380583e+2, -309698.7, -373054.5, 15099.077, 0.0024505106, 0.028058162, -306284.28, -49579.086, 0.0, 9.99997, 9.999128 
1.495145e+3, 2.8380477e+2, -281234.25, -368952.63, 14850.874, -0.007293382, 0.035435032, -278788.2, -120072.37, 0.0, 9.999753, 9.998589 
1.4951563e+3, 2.9380313e+2, -163262.58, -271623.97, 15.634131, 0.0011236785, 0.011133203, -163262.58, -102528.74, 0.0, 9.999932, 9.998498 
1.4951672e+3, 3.0380225e+2, -53446.727, -39108.184, -41907.656, 0.009529339, 0.017085914, -3760.9832, -3760.9832, 0.0, 9.999689, 9.999878 
1.495177e+3, 3.1380337e+2, -159113.17, -34917.207, -43098.07, -0.02713328, 0.11339645, -21426.809, -21426.809, 0.0, 9.998724, 10.00037 
1.504972e+3, 1.238136e+2, -1490180.5, -1650919.4, -105601.95, -0.017418703, 0.18212567, -1437843.5, 288790.25, 0.01533617, 10.001761, 9.999597 
1.5049848e+3, 1.3381055e+2, -1417457.8, -1658884.4, 26331.152, 0.10142706, -0.00030045683, -1414619.4, 214039.97, 0.0091627855, 10.001981, 9.998757 
1.5049964e+3, 1.4380985e+2, -1342050.5, -1596675.9, -11303.207, 0.08063576, 0.064348355, -1341549.8, 189114.7, 0.0040015904, 10.0019245, 9.998534 
1.5050066e+3, 1.5380791e+2, -1300520.4, -1525528.9, -10523.589, 0.047911704, 0.013554626, -1300029.3, 132655.81, 0.001031135, 10.00153, 9.99854 
1.5050165e+3, 1.6380641e+2, -1211966.6, -1396055.0, -7622.0996, 0.0046776826, -0.000025439567, -1211651.6, 123048.695, 0.000096309515, 10.0013075, 9.998863 
1.5050268e+3, 1.7380568e+2, -1100442.8, -1278564.8, -4686.2783, 0.0040944503, 0.027051324, -1100319.6, 136386.78, 0.000000575819, 10.001346, 9.998978 
1.5050375e+3, 1.8380463e+2, -1005602.4, -1184830.1, 7335.8066, 0.026641348, 0.027282251, -1005302.6, 133412.89, 0.0, 10.001336, 9.998953 
1.5050487e+3, 1.9380313e+2, -912806.9, -1083298.1, 4959.8745, 0.06572708, -0.024623873, -912662.7, 128066.16, 0.0, 10.001274, 9.999007 
1.5050595e+3, 2.0380192e+2, -861223.25, -1039616.94, 6146.7715, 0.06633995, -0.032693084, -861011.75, 81729.195, 0.0, 10.001092, 9.998723 
1.5050697e+3, 2.1380113e+2, -816343.0, -964565.44, 11524.303, 0.01045881, 0.013578022, -815452.3, 29298.11, 0.0, 10.000716, 9.998747 
1.50508e+3, 2.2380023e+2, -737257.6, -867581.7, -2848.7964, -0.031541187, 0.04866559, -737195.4, 9565.551, 0.0, 10.000551, 9.998819 
1.50509e+3, 2.337992e+2, -610141.44, -747578.2, -6185.02, -0.0536236, 0.055244606, -609863.6, 38908.38, 0.0, 10.000717, 9.998891 
1.5051004e+3, 2.4379812e+2, -515818.63, -644364.56, 7803.5522, -0.053590693, 0.057259127, -515346.63, 35436.684, 0.0, 10.000662, 9.998952 
1.5051115e+3, 2.5379694e+2, -470803.3, -564249.0, 3584.0051, -0.021397233, 0.035010938, -470666.06, -17871.445, 0.0, 10.000265, 9.999021 
1.5051225e+3, 2.6379594e+2, -416543.28, -494678.25, 10554.688, -0.0014808517, 0.037782375, -415142.63, -60338.26, 0.0, 9.999996, 9.998954 
1.5051335e+3, 2.737953e+2, -324003.8, -392305.34, -3085.5637, -0.0031464829, 0.07204908, -323864.7, -67054.31, 0.0, 9.9999275, 9.999017 
1.5051445e+3, 2.8379425e+2, -289773.5, -357454.56, 3501.6538, -0.003967967, 0.08186968, -289592.8, -130772.04, 0.0, 9.999628, 9.998729 
1.5051557e+3, 2.9379255e+2, -291095.97, -313002.63, 25726.162, 0.0015598907, 0.03160975, -274088.44, -213250.02, 0.0, 9.99897, 9.998677 
1.5051663e+3, 3.0379108e+2, -204050.08, -124400.91, -6355.512, -0.002057217, -0.025600575, -123896.96, -123896.96, 0.0, 9.99871, 9.999765 
1.5051758e+3, 3.1379268e+2, -108451.5, -6587.346, -46321.89, -0.026285486, 0.1329689, 11326.74, 11326.74, 0.0, 9.999054, 10.000408 
1.5149748e+3, 1.23800315e+2, -1490620.9, -1650125.1, -105532.88, 0.09008522, 0.022661498, -1438094.5, 288667.1, 0.016257105, 10.001756, 9.999605 
1.5149863e+3, 1.3379844e+2, -1406279.3, -1635294.5, 34290.203, 0.049205177, -0.059636865, -1401255.3, 227522.72, 0.009740974, 10.00198, 9.99892 
1.5149973e+3, 1.437988e+2, -1312718.8, -1536120.5, -25608.965, -0.019535067, 0.08428748, -1309820.8, 220952.53, 0.0042781597, 10.001926, 9.998949 
1.5150085e+3, 1.5379724e+2, -1268304.8, -1459147.3, -25165.77, 0.085926004, 0.025769712, -1265042.0, 167746.47, 0.0011151112, 10.001531, 9.998996 
1.5150188e+3, 1.637959e+2, -1204542.8, -1381310.3, -9524.453, 0.08963309, -0.00165235, -1204031.1, 130770.16, 0.000106548556, 10.001309, 9.998964 
1.5150282e+3, 1.7379498e+2, -1097215.8, -1272015.3, -3263.767, 0.0035201244, 0.001983983, -1097154.9, 139654.94, 0.0000007145684, 10.001346, 9.999023 
1.5150385e+3, 1.8379396e+2, -1014102.56, -1201823.8, 4187.3135, -0.02140211, 0.0071816845, -1014009.2, 124810.305, 0.0, 10.001331, 9.998839 
1.5150496e+3, 1.9379283e+2, -922682.56, -1103315.1, 2758.3855, 0.028661704, 0.0045249267, -922640.44, 118189.734, 0.0, 10.00127, 9.998873 
1.5150602e+3, 2.0379148e+2, -854832.6, -1025018.56, -7736.621, 0.03092442, -0.011479827, -854481.7, 88361.695, 0.0, 10.001084, 9.998828 
1.51507e+3, 2.137899e+2, -807549.2, -944972.4, -2363.103, -0.035645664, -0.0602288, -807508.56, 37351.11, 0.0, 10.00071, 9.998884 
1.5150802e+3, 2.2378881e+2, -736883.06, -864877.75, 309.60257, -0.05534583, -0.051784977, -736882.3, 9989.055, 0.0, 10.000542, 9.998843 
1.5150912e+3, 2.3378861e+2, -610588.0, -747055.94, 1231.033, -0.0019010974, 0.034366656, -610576.9, 38298.316, 0.0, 10.00071, 9.998898 
1.515102e+3, 2.4378806e+2, -523609.56, -658020.6, -4734.2188, 0.022973599, 0.09516446, -523443.03, 27438.912, 0.0, 10.00065, 9.998865 
1.5151119e+3, 2.5378704e+2, -479003.63, -578981.9, -10011.923, 0.0015447924, 0.09837246, -478010.88, -25117.873, 0.0, 10.000254, 9.998925 
1.5151224e+3, 2.637859e+2, -439245.1, -539860.94, 7511.9844, -0.015150416, 0.105774835, -438687.34, -83781.81, 0.0, 9.999988, 9.998649 
1.5151332e+3, 2.7378467e+2, -349086.1, -442806.3, -2987.3945, -0.023684934, 0.11489555, -348990.97, -92072.06, 0.0, 9.99992, 9.998673 
1.5151441e+3, 2.8378367e+2, -250136.19, -274699.84, -18366.543, -0.026197487, 0.12226953, -240323.38, -81394.78, 0.0, 9.999624, 9.999299 
1.5151545e+3, 2.9378292e+2, -241217.72, -211505.77, 2524.8477, -0.01581286, 0.10032616, -211292.73, -150359.56, 0.0, 9.998977, 9.999372 
1.5151648e+3, 3.0378088e+2, -238449.73, -197794.89, 3037.274, -0.024366494, -0.028888732, -197569.23, -197569.23, 0.0, 9.998717, 9.999258 
1.5151748e+3, 3.1378084e+2, -127167.234, -42215.14, -25745.293, -0.04212072, 0.030819539, -35021.934, -35021.934, 0.0, 9.99904, 10.000171 
1.524977e+3, 1.2378923e+2, -1418472.9, -1649860.3, -1952.1945, 0.090329625, -0.05553522, -1418456.4, 308410.1, 0.017244656, 10.002415, 9.999289 
1.5249884e+3, 1.3378759e+2, -1371935.4, -1644140.9, 111897.35, 0.039683033, -0.0920281, -1331842.3, 297040.7, 0.010359608, 10.002328, 9.998694 
1.5249993e+3, 1.4378819e+2, -1279040.4, -1519306.3, 10200.364, -0.03588631, 0.089182936, -1278608.1, 252268.97, 0.0045741852, 10.002154, 9.998958 
1.5250102e+3, 1.5378655e+2, -1219800.3, -1429574.0, -22406.182, 0.076225676, 0.018848423, -1217433.8, 215458.55, 0.0012060112, 10.001838, 9.999051 
1.5250202e+3, 1.6378522e+2, -1178024.6, -1366087.1, -19006.742, 0.092071764, -0.013505023, -1176123.0, 158782.08, 0.000118081814, 10.001483, 9.998983 
1.5250297e+3, 1.7378438e+2, -1130156.1, -1286996.8, -16750.283, 0.025966112, -0.0044463947, -1128387.1, 108526.625, 0.0000008766353, 10.001116, 9.999031 
1.5250397e+3, 1.8378346e+2, -1081100.3, -1220081.6, -952.9551, 0.000042460993, 0.0066239093, -1081093.8, 57829.082, 0.0, 10.00081, 9.998966 
1.5250504e+3, 1.9378255e+2, -1010692.75, -1129921.4, 17560.44, 0.013649801, 0.012079325, -1008160.2, 32771.082, 0.0, 10.000598, 9.999015 
1.5250607e+3, 2.037814e+2, -934547.75, -1061441.8, 17751.29, -0.0018755537, 0.0065183286, -932111.25, 10831.4375, 0.0, 10.00053, 9.998844 
1.5250704e+3, 2.1377997e+2, -808813.7, -946807.44, 10833.095, -0.057590675, -0.026847944, -807968.44, 36989.527, 0.0, 10.000707, 9.998874 
1.5250807e+3, 2.2377887e+2, -721179.6, -850513.06, 7294.656, -0.06363746, -0.022534868, -720769.5, 26200.23, 0.0, 10.000622, 9.998902 
1.5250917e+3, 2.3377836e+2, -692235.06, -778824.75, 9769.972, 0.0048604463, 0.027273316, -691146.4, -42171.0, 0.0, 10.000118, 9.998964 
1.5251023e+3, 2.4377765e+2, -649360.0, -726954.56, 7052.4385, 0.037090838, 0.071171634, -648724.25, -97740.984, 0.0, 9.999824, 9.99879 
1.5251121e+3, 2.537767e+2, -543788.44, -620872.44, 359.32788, 0.010154104, 0.09135893, -543786.75, -90792.74, 0.0, 9.999857, 9.998828 
1.5251224e+3, 2.6377556e+2, -464985.4, -553963.6, 30136.107, -0.010815905, 0.1041995, -455739.38, -100732.29, 0.0, 9.999819, 9.998632 
1.5251331e+3, 2.7377415e+2, -388592.72, -462274.97, 42162.523, -0.022066712, 0.09656201, -369443.25, -112420.586, 0.0, 9.999653, 9.998669 
1.5251435e+3, 2.8377324e+2, -258862.84, -270662.6, 18713.967, -0.028046051, 0.11093731, -245140.77, -86108.89, 0.0, 9.999531, 9.9993725 
1.5251537e+3, 2.9377308e+2, -164296.28, -165323.9, -8196.145, -0.02467268, 0.13740082, -156597.86, -95566.47, 0.0, 9.999468, 9.999453 
1.5251637e+3, 3.0377102e+2, -171730.39, -185604.31, -9976.877, -0.03732156, 0.011699907, -166515.83, -166515.83, 0.0, 9.999263, 9.999079 
1.5251738e+3, 3.1377035e+2, -136358.16, -22155.203, -1964.8207, -0.029578019, 0.027580265, -22121.41, -22121.41, 0.0, 9.998872, 10.000389 
1.5349783e+3, 1.23780444e+2, -1464574.8, -1745945.6, -13681.813, -0.022287244, -0.048605625, -1463911.0, 263036.13, 0.018294634, 10.002417, 9.99862 
1.534991e+3, 1.3377804e+2, -1416078.9, -1738877.0, 109061.84, 0.06726442, -0.09882293, -1382685.4, 246288.67, 0.011016667, 10.0023365, 9.998042 
1.5350021e+3, 1.4377806e+2, -1304866.1, -1573405.3, -2803.7896, 0.02579192, 0.07883194, -1304836.8, 226138.81, 0.0048880493, 10.002157, 9.998585 
1.5350114e+3, 1.5377595e+2, -1243797.0, -1478441.3, -34360.727, 0.014643126, -0.006617633, -1238868.8, 194127.2, 0.0013030368, 10.001834, 9.998718 
1.5350208e+3, 1.6377443e+2, -1183547.3, -1377796.0, -34011.184, 0.005268245, -0.03497941, -1177764.4, 157246.72, 0.00013086536, 10.001482, 9.998905 
1.5350312e+3, 1.7377387e+2, -1132376.3, -1292847.0, -30231.97, 0.067516044, 0.008009852, -1126869.6, 110148.234, 0.0000010420176, 10.00112, 9.99899 
1.5350413e+3, 1.8377316e+2, -1055470.4, -1167277.0, -10821.012, 0.086035505, 0.026345538, -1054432.6, 84592.37, 0.0, 10.000811, 9.999329 
1.535051e+3, 1.9377233e+2, -981771.75, -1069588.5, 9617.26, 0.01569803, -0.0020538548, -980730.9, 60300.953, 0.0, 10.000596, 9.99943 
1.5350609e+3, 2.0377165e+2, -941293.75, -1074717.8, 21366.37, -0.038544316, 0.020207383, -937955.7, 5083.1455, 0.0, 10.000525, 9.998756 
1.5350711e+3, 2.137713e+2, -820662.7, -970357.8, 18195.674, -0.0595281, 0.109990306, -818482.7, 26562.814, 0.0, 10.000701, 9.998715 
1.5350814e+3, 2.2377034e+2, -716923.25, -839718.56, -9418.358, -0.061086163, 0.13312718, -716205.06, 30851.078, 0.0, 10.000612, 9.998982 
1.5350914e+3, 2.3376845e+2, -684552.94, -762603.2, -8491.582, -0.03481592, 0.03478212, -683639.75, -34567.254, 0.0, 10.000116, 9.999078 
1.5351015e+3, 2.4376687e+2, -654380.44, -737212.44, 5665.275, -0.013457351, -0.011695311, -653994.75, -102907.734, 0.0, 9.999822, 9.99872 
1.5351118e+3, 2.537659e+2, -550916.0, -636330.56, 3400.807, 0.0014624113, 0.016662372, -550780.8, -97683.22, 0.0, 9.999858, 9.998722 
1.5351222e+3, 2.6376486e+2, -446127.53, -514862.75, 25349.398, 0.0058918158, 0.034817763, -437790.06, -82680.88, 0.0, 9.999818, 9.998901 
1.5351328e+3, 2.7376372e+2, -366611.9, -415761.78, 37850.07, -0.0053842133, 0.018056607, -346058.63, -88936.625, 0.0, 9.999646, 9.998992 
1.5351433e+3, 2.8376296e+2, -290035.9, -332755.13, 17204.475, -0.01618383, 0.04952698, -283968.75, -124837.86, 0.0, 9.999518, 9.998952 
1.5351531e+3, 2.9376298e+2, -202224.84, -242600.5, -7783.524, -0.029606601, 0.14738585, -200776.31, -139643.55, 0.0, 9.99946, 9.998925 
1.5351628e+3, 3.0376145e+2, -161968.28, -164359.66, -23196.584, -0.044586238, 0.096049495, -139936.6, -139936.6, 0.0, 9.999256, 9.999228 
1.5351729e+3, 3.137608e+2, -89458.016, 76355.81, -7363.711, -0.0076476177, 0.08328174, 76682.19, 76682.19, 0.0, 9.998865, 10.001069 
1.5449806e+3, 1.23771265e+2, -1442647.0, -1756063.9, -91162.4, -0.03789943, 0.005227399, -1418059.9, 308977.66, 0.019406972, 10.002664, 9.998435 
1.5449934e+3, 1.3376826e+2, -1433605.9, -1764241.3, 73764.305, 0.07527326, -0.08780117, -1417895.6, 211174.52, 0.0117135905, 10.002292, 9.997888 
1.5450042e+3, 1.437679e+2, -1334970.6, -1595391.9, -6227.525, 0.03975669, 0.061794996, -1334821.8, 196253.67, 0.0052204016, 10.001984, 9.998517 
1.5450132e+3, 1.5376583e+2, -1245687.4, -1484925.8, -18698.627, 0.014814738, -0.014210489, -1244234.8, 188860.36, 0.0014059248, 10.001845, 9.998669 
1.5450223e+3, 1.637643e+2, -1173233.3, -1389445.3, -11500.304, -0.0064719217, -0.032851633, -1172623.3, 162487.02, 0.00014487762, 10.001623, 9.998758 
1.5450323e+3, 1.737637e+2, -1122606.6, -1306077.1, -17943.238, 0.049592204, 0.020594163, -1120868.3, 116249.97, 0.000001197513, 10.001263, 9.998831 
1.5450421e+3, 1.8376295e+2, -1023725.4, -1152332.3, -6858.6543, 0.06623277, 0.04504103, -1023360.6, 115765.586, 0.0, 10.001032, 9.999324 
1.5450516e+3, 1.9376212e+2, -918771.94, -1037809.5, -16767.45, -0.0034251204, 0.015382673, -916455.2, 124677.914, 0.0, 10.001023, 9.999442 
1.5450615e+3, 2.037615e+2, -892509.6, -1031211.5, -15895.372, -0.044586685, 0.034240406, -890711.4, 52427.938, 0.0, 10.000775, 9.998934 
1.5450719e+3, 2.1376127e+2, -886753.3, -980007.25, 4752.837, -0.034341145, 0.11751067, -886511.75, -41368.094, 0.0, 10.000152, 9.998913 
1.5450819e+3, 2.2376037e+2, -810202.75, -880099.2, -764.4543, -0.033064418, 0.13274434, -810194.4, -63041.164, 0.0, 9.999953, 9.999022 
1.5450916e+3, 2.337584e+2, -635562.8, -737769.7, -7260.967, -0.05000292, 0.026100006, -635049.56, 14120.814, 0.0, 10.000448, 9.999087 
1.5451014e+3, 2.437568e+2, -535618.7, -668856.4, 2326.5156, -0.046483938, -0.028109794, -535578.06, 15607.131, 0.0, 10.000591, 9.998818 
1.5451117e+3, 2.5375587e+2, -499279.3, -599462.06, 11937.19, -0.010888722, -0.0064529898, -497876.6, -44681.41, 0.0, 10.000163, 9.998829 
1.545122e+3, 2.63755e+2, -448141.25, -492234.28, 37406.223, 0.0041203657, 0.0138785215, -426768.0, -71563.32, 0.0, 9.999703, 9.999113 
1.5451322e+3, 2.737542e+2, -414242.88, -413781.3, 40464.727, -0.01340001, 0.010756744, -373546.72, -116333.31, 0.0, 9.999214, 9.999213 
1.5451424e+3, 2.8375357e+2, -366630.4, -380193.97, 42496.08, -0.025101457, 0.043935858, -330378.38, -171156.73, 0.0, 9.999042, 9.998856 
1.5451525e+3, 2.9375336e+2, -233247.78, -273480.9, 44347.63, -0.030065482, 0.13312273, -204667.44, -143439.86, 0.0, 9.999319, 9.998781 
1.545162e+3, 3.0375218e+2, -174612.5, -180647.16, 17710.768, -0.035707437, 0.13411684, -159663.88, -159663.88, 0.0, 9.999218, 9.999133 
1.5451717e+3, 3.1375137e+2, -120212.07, 79035.79, 7676.8784, 0.0044863084, 0.11499584, 79331.13, 79331.13, 0.0, 9.998583, 10.001223 
1.5549842e+3, 1.2376178e+2, -1422238.1, -1710353.8, -115842.164, 0.042771783, 0.11297198, -1381439.1, 345697.47, 0.020587768, 10.002657, 9.9987545 
1.5549955e+3, 1.3375835e+2, -1408981.5, -1712807.9, 59169.67, 0.061188076, -0.058265947, -1397865.0, 231305.55, 0.012455585, 10.002295, 9.9982395 
1.5550059e+3, 1.4375775e+2, -1318759.3, -1563030.5, -14307.875, -0.000088077424, 0.038257107, -1317924.0, 213251.97, 0.0055746003, 10.001987, 9.998738 
1.5550156e+3, 1.5375622e+2, -1229982.0, -1454286.8, -23318.543, 0.06973627, -0.0053907447, -1227583.5, 205605.98, 0.001515748, 10.001851, 9.998878 
1.5550244e+3, 1.6375488e+2, -1187547.0, -1419497.5, -25372.117, 0.050817154, -0.00771751, -1184804.0, 150398.34, 0.00016035176, 10.001624, 9.998551 
1.5550327e+3, 1.7375387e+2, -1142193.8, -1346240.8, -31434.166, -0.030819343, 0.033270225, -1137461.0, 99753.67, 0.0000013687348, 10.001261, 9.998556 
1.5550418e+3, 1.8375288e+2, -1050756.3, -1208021.8, -9725.505, -0.065231666, 0.06303503, -1050157.1, 89068.914, 0.0, 10.001028, 9.998944 
1.5550523e+3, 1.9375196e+2, -946393.56, -1094907.5, -16251.2295, -0.046396606, 0.06456516, -944636.06, 96598.664, 0.0, 10.00102, 9.999051 
1.5550625e+3, 2.0375098e+2, -863504.1, -970029.4, -37379.094, -0.02319985, 0.050545413, -851696.75, 91546.84, 0.0, 10.00077, 9.999357 
1.5550725e+3, 2.1374996e+2, -849626.1, -902064.9, -18382.357, 0.013059978, 0.000029515057, -843824.1, 1427.7543, 0.0, 10.000147, 9.999452 
1.5550824e+3, 2.23749e+2, -810927.25, -880836.56, 12029.341, 0.01328822, -0.019164091, -808915.25, -61654.73, 0.0, 9.9999485, 9.99902 
1.555092e+3, 2.3374821e+2, -642587.75, -750865.25, 12872.777, -0.04482644, 0.00013043759, -641078.4, 8190.574, 0.0, 10.00044, 9.999002 
1.5551019e+3, 2.4374738e+2, -520242.34, -633841.06, -9442.419, -0.06751621, 0.018015588, -519462.8, 31815.148, 0.0, 10.000577, 9.999066 
1.5551117e+3, 2.5374657e+2, -479782.7, -557003.25, -3148.0667, -0.031548105, 0.01886495, -479654.56, -26367.5, 0.0, 10.000153, 9.9991255 
1.5551214e+3, 2.637459e+2, -438568.47, -470968.16, 19354.465, -0.019497886, 0.039743964, -429528.88, -74234.97, 0.0, 9.999697, 9.999263 
1.5551311e+3, 2.7374563e+2, -405818.2, -396886.44, 23915.824, -0.048265744, 0.07412223, -377023.1, -119726.11, 0.0, 9.999215, 9.99933 
1.555141e+3, 2.83745e+2, -351024.28, -348383.44, 50262.15, -0.058571547, 0.09133961, -299424.38, -140119.75, 0.0, 9.999042, 9.999074 
1.5551518e+3, 2.937441e+2, -218201.44, -240285.97, 56664.246, -0.035911165, 0.08870863, -171513.58, -110196.766, 0.0, 9.999309, 9.999015 
1.5551615e+3, 3.0374324e+2, -203342.53, -236217.45, -2374.2878, -0.019414054, 0.12410442, -203171.94, -203171.94, 0.0, 9.9992, 9.998761 
1.5551704e+3, 3.1374216e+2, -148692.2, 19722.645, -8328.176, -0.0015922422, 0.1219552, 20133.475, 20133.475, 0.0, 9.998584, 10.000815 
1.5649867e+3, 1.2375158e+2, -1509058.5, -1721855.0, -116829.336, 0.07448973, 0.14162017, -1457438.8, 269801.22, 0.021849003, 10.001917, 9.999032 
1.5649977e+3, 1.3374855e+2, -1398105.9, -1674349.5, 61095.67, 0.057505157, -0.019969678, -1385196.9, 244072.06, 0.013250772, 10.002227, 9.998538 
1.5650077e+3, 1.4374797e+2, -1277222.4, -1525620.0, -25132.01, -0.02018675, 0.055542536, -1274705.1, 256568.22, 0.0059556314, 10.002201, 9.998893 
1.5650173e+3, 1.5374663e+2, -1236591.3, -1441428.9, -42042.133, 0.05165901, 0.01855435, -1228298.0, 204986.4, 0.0016345053, 10.001739, 9.999019 
1.5650259e+3, 1.6374533e+2, -1198923.5, -1422582.6, -30995.455, 0.033531602, 0.008931691, -1194707.5, 140589.05, 0.00017771397, 10.001539, 9.99857 
1.5650341e+3, 1.7374405e+2, -1069826.4, -1311242.6, -17612.213, -0.04676824, 0.021964682, -1068548.4, 168762.17, 0.0000016137079, 10.00176, 9.998555 
1.565043e+3, 1.8374285e+2, -988734.4, -1196156.5, 10791.407, -0.06985492, 0.039196163, -988174.44, 151148.88, 0.0, 10.001533, 9.998782 
1.5650532e+3, 1.9374189e+2, -1020701.3, -1151875.4, 15746.139, -0.026250362, 0.05428382, -1018837.6, 22495.441, 0.0, 10.000601, 9.998862 
1.5650631e+3, 2.0374073e+2, -945048.94, -998137.3, 5047.7847, -0.00016374912, 0.031180974, -944573.25, -1230.0566, 0.0, 10.000162, 9.999456 
1.5650727e+3, 2.137394e+2, -784661.56, -855583.3, -5089.373, 0.003212053, -0.06493821, -784298.2, 61054.746, 0.0, 10.000528, 9.999586 
1.5650824e+3, 2.2373849e+2, -728986.44, -842011.2, 11294.085, -0.00465841, -0.08559488, -727868.94, 19491.83, 0.0, 10.000516, 9.999012 
1.5650924e+3, 2.337384e+2, -726349.8, -794725.3, 13083.963, -0.03239197, 0.0025980028, -723931.7, -74566.91, 0.0, 9.999881, 9.99897 
1.565102e+3, 2.4373794e+2, -675460.4, -701346.9, -16519.559, -0.04764413, 0.056940623, -667417.4, -116045.97, 0.0, 9.99948, 9.999131 
1.5651113e+3, 2.5373703e+2, -572980.94, -592911.44, -28018.076, -0.042267784, 0.04336628, -553208.7, -99827.41, 0.0, 9.9994755, 9.999205 
1.5651208e+3, 2.6373643e+2, -463345.47, -465395.84, -15350.873, -0.041508835, 0.057315834, -448985.6, -93598.15, 0.0, 9.999453, 9.999418 
1.5651304e+3, 2.737363e+2, -371038.5, -361957.9, -9798.947, -0.050535273, 0.09246838, -355698.5, -98310.45, 0.0, 9.999378, 9.999492 
1.5651402e+3, 2.8373563e+2, -324915.63, -311675.8, 23825.05, -0.05267692, 0.086658224, -293568.06, -134172.77, 0.0, 9.999117, 9.99929 
1.5651506e+3, 2.9373446e+2, -312585.53, -260139.97, 27508.156, -0.0398384, 0.03721272, -248358.38, -186949.22, 0.0, 9.998551, 9.999243 
1.5651605e+3, 3.037342e+2, -299097.75, -261697.0, -5125.67, -0.017147416, 0.1089715, -261007.27, -261007.27, 0.0, 9.998453, 9.998945 
1.5651692e+3, 3.137332e+2, -71750.14, 53524.2, 33900.434, -0.0029574537, 0.09854784, 62109.6, 62109.6, 0.0, 9.999124, 10.000789 
1.5749884e+3, 1.2374071e+2, -1494390.8, -1691393.6, -120818.414, 0.053580675, 0.08916279, -1437008.8, 290338.4, 0.023204513, 10.001919, 9.999243 
1.575e+3, 1.337389e+2, -1381735.6, -1641630.9, 71887.39, 0.057871953, 0.025866058, -1363176.8, 266188.06, 0.014108494, 10.002232, 9.998762 
1.5750098e+3, 1.4373858e+2, -1272268.3, -1514800.4, -41919.434, -0.02602535, 0.11397162, -1265227.3, 266139.88, 0.0063687824, 10.002199, 9.998968 
1.575018e+3, 1.5373714e+2, -1232235.1, -1432507.3, -59255.016, -0.041418627, 0.058435153, -1216016.5, 217362.94, 0.00176415, 10.0017395, 9.99908 
1.5750264e+3, 1.6373567e+2, -1181137.0, -1387024.0, -26819.383, -0.06341272, 0.019066641, -1177700.9, 157691.33, 0.00019721544, 10.001543, 9.998813 
1.5750362e+3, 1.737342e+2, -1051376.4, -1273231.3, -8910.843, -0.0029041213, -0.013363288, -1051019.1, 186386.27, 0.0000019795527, 10.00176, 9.9988165 
1.5750457e+3, 1.8373287e+2, -986295.56, -1190757.8, -20172.025, 0.04710556, -0.02629353, -984324.4, 155093.5, 0.0, 10.00153, 9.998821 
1.5750545e+3, 1.9373187e+2, -1020417.0, -1151747.5, -19635.746, 0.0510049, -0.014976818, -1017544.06, 23884.098, 0.0, 10.000603, 9.998863 
1.5750635e+3, 2.0373079e+2, -959912.4, -1029879.1, 12096.449, 0.017425695, -0.02358075, -957880.06, -14442.039, 0.0, 10.000165, 9.999238 
1.5750726e+3, 2.137296e+2, -802895.9, -892824.8, 9883.768, -0.065152414, -0.079227656, -801822.4, 43624.465, 0.0, 10.0005245, 9.999332 
1.5750821e+3, 2.2372885e+2, -732324.5, -847226.25, -8669.078, -0.08813338, -0.068709895, -731674.1, 15779.884, 0.0, 10.000507, 9.998981 
1.5750924e+3, 2.3372887e+2, -726407.9, -794631.4, -10443.386, -0.016704204, 0.032776076, -724845.06, -75387.15, 0.0, 9.999879, 9.998973 
1.575102e+3, 2.437284e+2, -683054.06, -717168.9, -19515.947, 0.007355933, 0.089583166, -674191.9, -122726.31, 0.0, 9.999478, 9.999023 
1.5751109e+3, 2.537273e+2, -582608.0, -612450.94, -26074.371, -0.047117244, 0.068065144, -567487.44, -114009.734, 0.0, 9.999472, 9.999073 
1.57512e+3, 2.6372653e+2, -452636.4, -442349.72, -16609.385, -0.06695569, 0.06581262, -430105.56, -74620.2, 0.0, 9.999448, 9.999579 
1.57513e+3, 2.7372622e+2, -357143.5, -332689.03, -10424.312, -0.028360842, 0.06292807, -328848.56, -71361.77, 0.0, 9.999373, 9.999696 
1.5751396e+3, 2.8372547e+2, -312027.88, -283916.53, 5573.0303, -0.015457954, 0.02998962, -282852.0, -123358.266, 0.0, 9.999112, 9.999484 
1.575149e+3, 2.9372454e+2, -297779.03, -230633.84, 8228.755, -0.045535035, -0.014532138, -229640.1, -168135.95, 0.0, 9.998555, 9.999444 
1.5751587e+3, 3.037251e+2, -247599.6, -155105.22, 14364.32, -0.03265002, 0.0924471, -152925.81, -152925.81, 0.0, 9.998454, 9.999678 
1.5751682e+3, 3.1372458e+2, -50524.766, 101170.016, 62213.598, -0.016894829, 0.05485704, 123421.34, 123421.34, 0.0, 9.999107, 10.001124 
1.5849903e+3, 1.2373038e+2, -1425245.4, -1645852.0, -83391.61, 0.033243116, 0.022945419, -1397270.0, 330176.9, 0.024665277, 10.002361, 9.999344 
1.5850018e+3, 1.3372947e+2, -1444222.9, -1658235.1, 110273.48, 0.043721084, 0.036915857, -1397571.8, 231884.34, 0.0150364665, 10.001742, 9.998883 
1.5850118e+3, 1.4372914e+2, -1373052.8, -1571214.5, -3287.35, -0.02253533, 0.11842914, -1372998.3, 158461.16, 0.0068181083, 10.00154, 9.998895 
1.5850198e+3, 1.5372755e+2, -1182109.6, -1419331.6, -33105.152, -0.053720113, 0.058201976, -1177576.4, 255897.66, 0.0019058621, 10.002134, 9.998978 
1.5850282e+3, 1.6372605e+2, -1084478.3, -1333258.0, -25188.23, -0.074975386, 0.018649831, -1081953.6, 253533.58, 0.0002187055, 10.002178, 9.998875 
1.585038e+3, 1.7372471e+2, -1106554.6, -1290606.9, -24660.031, 0.015180736, -0.008665477, -1103307.9, 134190.44, 0.000002466339, 10.001343, 9.998898 
1.5850474e+3, 1.8372338e+2, -1067649.5, -1239026.1, -43335.62, 0.07388054, -0.022272754, -1057314.6, 82195.79, 0.0, 10.001013, 9.998737 
1.5850556e+3, 1.9372219e+2, -894528.2, -1102957.5, -51747.76, 0.049765375, -0.019999703, -882387.7, 159134.98, 0.0, 10.001521, 9.9987545 
1.5850642e+3, 2.0372103e+2, -781957.1, -963829.94, -25498.729, 0.0041908505, -0.020523211, -778449.8, 165083.8, 0.0, 10.001474, 9.99906 
1.5850732e+3, 2.1372002e+2, -816152.2, -920845.94, -26239.77, -0.064923115, -0.039987702, -809943.8, 35597.89, 0.0, 10.000528, 9.999138 
1.5850823e+3, 2.2371922e+2, -810775.4, -880704.1, -38546.63, -0.087929174, -0.023806533, -793697.94, -46148.496, 0.0, 9.99995, 9.99902 
1.5850921e+3, 2.3371889e+2, -703739.25, -775332.5, -35964.227, -0.03958987, 0.034573983, -688793.2, -39237.086, 0.0, 10.0, 9.999045 
1.5851015e+3, 2.4371827e+2, -608049.56, -658371.6, -28122.918, -0.017468698, 0.062405296, -595475.0, -43910.652, 0.0, 9.999899, 9.999224 
1.5851104e+3, 2.537173e+2, -558580.56, -576908.8, -11470.886, -0.04020362, 0.035967004, -553062.6, -99488.914, 0.0, 9.999535, 9.999286 
1.5851195e+3, 2.6371664e+2, -493692.6, -467423.56, 6383.614, -0.044652224, 0.03283426, -465954.44, -110374.28, 0.0, 9.999189, 9.999531 
1.5851292e+3, 2.737163e+2, -434785.72, -378848.38, -9779.1875, -0.017611234, 0.03597944, -377188.03, -119605.07, 0.0, 9.998881, 9.999614 
1.5851386e+3, 2.8371564e+2, -361575.03, -287321.2, -7517.305, -0.013683364, 0.007373549, -286567.8, -126978.586, 0.0, 9.998686, 9.999664 
1.5851477e+3, 2.9371494e+2, -264964.88, -189557.27, -5631.393, -0.046786502, -0.03694294, -189139.05, -127543.22, 0.0, 9.998674, 9.999667 
1.5851572e+3, 3.0371568e+2, -206089.69, -115855.86, 3174.6885, -0.032123115, 0.06590664, -115744.3, -115744.3, 0.0, 9.998656, 9.999849 
1.5851668e+3, 3.1371516e+2, -153215.44, 22147.164, 1931.3428, -0.045622777, 0.018172354, 22168.432, 22168.432, 0.0, 9.998529, 10.000859 
1.5949926e+3, 1.23720765e+2, -1427460.4, -1649969.9, -119218.99, 0.008593161, -0.047949437, -1375648.3, 351889.34, 0.026239868, 10.002361, 9.999316 
1.5950032e+3, 1.3372034e+2, -1441462.3, -1654893.1, 86436.8, 0.012430337, 0.012972713, -1410847.8, 218694.5, 0.016040104, 10.001752, 9.998901 
1.5950133e+3, 1.4371966e+2, -1388185.5, -1604317.9, 10586.273, -0.015841385, 0.06955691, -1387668.3, 143881.23, 0.0073062, 10.001547, 9.998666 
1.5950225e+3, 1.5371788e+2, -1201985.0, -1460006.5, -10092.589, 0.008988023, 0.017630616, -1201590.9, 231976.67, 0.002060233, 10.002131, 9.998701 
1.595031e+3, 1.6371648e+2, -1093920.4, -1352624.0, -51460.35, -0.0067844815, 0.007598586, -1084059.9, 251521.36, 0.00024185247, 10.002176, 9.998744 
1.5950392e+3, 1.7371558e+2, -1114046.4, -1307216.1, -56315.1, 0.0035256129, 0.035864685, -1098827.8, 138761.36, 0.0000030340082, 10.001346, 9.998782 
1.5950476e+3, 1.8371439e+2, -1081145.0, -1267893.1, -31330.863, 0.005208312, 0.05172868, -1076028.8, 63571.758, 0.0, 10.001016, 9.998539 
1.5950564e+3, 1.9371283e+2, -910105.56, -1134912.9, -31546.21, -0.030694583, 0.038938038, -905762.75, 135853.73, 0.0, 10.001518, 9.998537 
1.5950651e+3, 2.037115e+2, -794045.8, -988001.7, -55081.895, -0.041878887, 0.039926566, -779494.6, 164135.0, 0.0, 10.00147, 9.998898 
1.5950742e+3, 2.1371064e+2, -828102.7, -943934.06, -61650.047, -0.0032976363, 0.051128518, -801431.44, 44206.035, 0.0, 10.00052, 9.998984 
1.595083e+3, 2.2370961e+2, -803864.06, -864950.4, -41750.5, -0.012674299, 0.048496187, -782677.25, -35030.113, 0.0, 9.999943, 9.999132 
1.5950914e+3, 2.3370846e+2, -694105.1, -754290.0, -32057.531, -0.10314306, 0.008977197, -680228.94, -30569.742, 0.0, 9.999994, 9.999194 
1.5951003e+3, 2.4370752e+2, -575445.5, -589449.94, -39417.832, -0.12363916, -0.02287549, -542412.75, 9255.035, 0.0, 9.999891, 9.9997015 
1.5951101e+3, 2.5370708e+2, -521460.13, -499989.4, -23834.615, -0.0265451, -0.05149111, -484584.06, -30914.451, 0.0, 9.999534, 9.999816 
1.5951194e+3, 2.6370674e+2, -511098.6, -503909.03, -5300.7583, 0.019854184, -0.039320067, -501099.1, -145426.8, 0.0, 9.999189, 9.999281 
1.595128e+3, 2.737066e+2, -461041.34, -433037.47, -19542.422, -0.02240459, 0.014758933, -422998.6, -165321.88, 0.0, 9.9988785, 9.999244 
1.595137e+3, 2.837061e+2, -350145.9, -262902.5, -8869.942, -0.05208547, 0.017943835, -262009.83, -102327.52, 0.0, 9.998682, 9.999835 
1.5951464e+3, 2.937055e+2, -247691.42, -153991.66, -3676.3677, -0.052701246, -0.03901857, -153847.63, -92162.11, 0.0, 9.998673, 9.999913 
1.595156e+3, 3.037058e+2, -234410.8, -172323.66, 412.67773, -0.025459452, 0.02338559, -172320.92, -172320.92, 0.0, 9.998647, 9.999466 
1.5951648e+3, 3.1370518e+2, -214841.61, -102287.586, -4334.1133, -0.09331925, 0.012923903, -102120.945, -102120.945, 0.0, 9.998514, 10.000011 
1.6049947e+3, 1.23712085e+2, -1503833.8, -1719354.8, -96758.445, 0.0034419529, -0.06135857, -1466768.4, 260852.1, 0.027939666, 10.001972, 9.999019 
1.6050051e+3, 1.3371132e+2, -1336432.5, -1628974.4, 95423.42, -0.009679756, -0.010827891, -1308058.6, 321570.0, 0.01712635, 10.002597, 9.998673 
1.6050155e+3, 1.4371006e+2, -1248417.6, -1558336.4, 7786.497, -0.01089534, 0.008275415, -1248222.1, 283419.97, 0.007836914, 10.002611, 9.998467 
1.6050246e+3, 1.5370864e+2, -1260941.8, -1510332.1, -8206.729, 0.02206743, 0.011653403, -1260672.0, 172985.53, 0.0022287087, 10.001823, 9.998502 
1.605033e+3, 1.6370727e+2, -1205556.3, -1427991.5, -49417.043, 0.00041208163, 0.026827438, -1195071.8, 140599.67, 0.00026665046, 10.001507, 9.998546 
1.6050406e+3, 1.7370595e+2, -1036317.56, -1291287.6, -63086.074, -0.01568025, 0.03168378, -1021562.3, 216121.33, 0.0000036433328, 10.001978, 9.998585 
1.6050488e+3, 1.8370454e+2, -940391.3, -1212261.4, -34219.535, -0.023400709, 0.042958573, -936150.3, 203546.9, 0.0, 10.002036, 9.998428 
1.6050577e+3, 1.9370316e+2, -932454.6, -1157073.6, -27162.902, -0.045285158, 0.056783985, -929216.5, 112495.31, 0.0, 10.001415, 9.998433 
1.6050662e+3, 2.0370181e+2, -896683.94, -1050515.0, -65998.055, -0.041242607, 0.06675289, -872249.9, 71475.734, 0.0, 10.000822, 9.998779 
1.6050749e+3, 2.1370062e+2, -868643.5, -976653.06, -74324.5, 0.013499751, 0.058252882, -830775.3, 14961.814, 0.0, 10.0003, 9.998864 
1.6050832e+3, 2.2369952e+2, -786700.1, -823073.94, -23438.066, 0.008198974, 0.040112883, -775220.44, -27473.129, 0.0, 9.999918, 9.999431 
1.6050912e+3, 2.3369864e+2, -704022.3, -719353.8, 2096.0232, -0.099928275, -0.0064835846, -703740.94, -53986.33, 0.0, 9.999756, 9.999547 
1.6051e+3, 2.4369791e+2, -617070.7, -608377.3, -17592.098, -0.13213183, -0.038247403, -594602.9, -42842.67, 0.0, 9.999602, 9.999711 
1.6051094e+3, 2.536975e+2, -536649.3, -511528.56, -45746.273, -0.03678703, -0.056347396, -476649.7, -22887.746, 0.0, 9.999451, 9.999775 
1.6051185e+3, 2.6369718e+2, -514086.56, -508565.4, -47106.938, 0.013335036, -0.04181745, -464138.22, -108373.11, 0.0, 9.9991865, 9.9992485 
1.6051269e+3, 2.736969e+2, -483733.28, -448221.06, -40369.316, -0.017560715, 0.005128933, -421875.44, -164104.73, 0.0, 9.998743, 9.999204 
1.6051355e+3, 2.8369644e+2, -379165.75, -274454.25, -7276.9146, -0.05028456, 0.012307567, -273950.97, -114175.11, 0.0, 9.998473, 9.999856 
1.6051446e+3, 2.9369602e+2, -273035.47, -161496.5, -17788.082, -0.076436274, -0.03199693, -158728.39, -96951.44, 0.0, 9.998482, 9.999953 
1.6051543e+3, 3.036959e+2, -271407.22, -187218.83, -14908.177, -0.04112666, -0.015695667, -184656.84, -184656.84, 0.0, 9.998381, 9.999491 
1.6051635e+3, 3.1369543e+2, -294361.53, -151650.73, 3893.2815, -0.0521721, -0.008067534, -151544.6, -151544.6, 0.0, 9.99802, 9.9999075 
1.6149966e+3, 1.23704515e+2, -1544852.9, -1807351.8, -87489.7, 0.009083901, -0.009676304, -1518365.6, 209328.4, 0.02978273, 10.001979, 9.998409 
1.6150075e+3, 1.337025e+2, -1370968.1, -1702438.3, 117297.47, -0.025837576, -0.03320857, -1333659.3, 296055.3, 0.018308382, 10.0026, 9.99817 
1.6150181e+3, 1.4370039e+2, -1260531.5, -1582929.1, -18621.246, -0.012778873, -0.06262786, -1259459.5, 272276.84, 0.008418617, 10.002608, 9.9983 
1.6150261e+3, 1.5369983e+2, -1269335.9, -1528757.0, -37735.535, -0.018582076, 0.039913572, -1263958.4, 169785.33, 0.0024150687, 10.001826, 9.998375 
1.6150337e+3, 1.636985e+2, -1223495.4, -1466468.9, -38700.805, -0.05915082, 0.0767643, -1217480.1, 118277.1, 0.0002938315, 10.001511, 9.9982815 
1.6150424e+3, 1.7369586e+2, -1056975.5, -1334502.0, -44327.992, -0.044954557, -0.020204434, -1050067.1, 187714.42, 0.000004294035, 10.001976, 9.99829 
1.615051e+3, 1.836939e+2, -943528.7, -1217753.6, -53228.69, -0.017034201, -0.047552407, -933559.1, 206241.34, 0.0, 10.002031, 9.998393 
1.6150595e+3, 1.9369318e+2, -933393.56, -1158308.4, -50324.05, -0.00042344932, 0.03397443, -922647.2, 119161.69, 0.0, 10.001411, 9.998427 
1.6150676e+3, 2.0369197e+2, -902083.06, -1061201.6, -86828.445, -0.0010255764, 0.061352912, -863876.25, 79945.28, 0.0, 10.000818, 9.998708 
1.6150749e+3, 2.1369001e+2, -874056.6, -988494.1, -92638.4, -0.01654307, -0.015849901, -822390.75, 23449.725, 0.0, 10.000301, 9.998783 
1.6150828e+3, 2.2368895e+2, -754367.4, -757043.8, -31488.338, -0.028315393, -0.045797646, -724188.8, 23661.023, 0.0, 9.999921, 9.999884 
1.6150917e+3, 2.336894e+2, -666543.3, -641579.8, -3178.9182, -0.03621463, -0.012110058, -641181.4, 8661.43, 0.0, 9.999755, 10.000083 
1.6151005e+3, 2.4368934e+2, -649405.1, -673306.9, -23846.146, -0.05047986, 0.014066442, -634682.75, -82840.57, 0.0, 9.999591, 9.99927 
1.6151085e+3, 2.5368863e+2, -578895.6, -597893.1, -49814.57, -0.074821554, 0.018091949, -537682.25, -83831.26, 0.0, 9.999443, 9.9991865 
1.6151169e+3, 2.636879e+2, -503650.94, -486471.94, -61848.234, -0.06733342, 0.021171186, -432619.6, -76760.5, 0.0, 9.999183, 9.999403 
1.6151257e+3, 2.736872e+2, -464369.13, -410063.97, -55047.387, -0.008607453, 0.0035735269, -375836.78, -117971.14, 0.0, 9.998749, 9.999464 
1.6151343e+3, 2.8368664e+2, -388488.4, -294175.1, -9000.432, -0.014535381, -0.00943363, -293323.84, -133453.39, 0.0, 9.998474, 9.99972 
1.6151427e+3, 2.9368642e+2, -287103.16, -189234.03, -15487.127, -0.123116694, -0.0121989595, -186841.77, -124971.5, 0.0, 9.998474, 9.999767 
1.6151522e+3, 3.0368587e+2, -243992.77, -128782.234, -25754.703, -0.085742444, -0.048653334, -123287.016, -123287.016, 0.0, 9.998373, 9.999896 
1.6151628e+3, 3.1368583e+2, -249699.13, -59287.273, -14689.832, 0.063703746, -0.05153117, -58160.652, -58160.652, 0.0, 9.998021, 10.000543 
1.624999e+3, 1.2369603e+2, -1428827.4, -1769679.0, -153889.53, 0.0035316932, 0.045462657, -1369629.8, 358149.47, 0.031792413, 10.0028925, 9.998233 
1.62501e+3, 1.3369383e+2, -1385040.5, -1709188.3, 87930.734, -0.036815304, 0.005834436, -1362724.1, 267076.28, 0.019603958, 10.002505, 9.998167 
1.6250208e+3, 1.4369127e+2, -1313333.5, -1612640.6, -32713.883, 0.016675074, -0.06803219, -1309799.8, 222026.17, 0.009062119, 10.002264, 9.9982605 
1.6250283e+3, 1.5369064e+2, -1171049.5, -1487094.6, -48788.895, -0.024619492, 0.03415006, -1163689.3, 270144.34, 0.002624408, 10.002532, 9.99832 
1.6250357e+3, 1.636893e+2, -1082920.3, -1396067.6, -30993.932, -0.0785278, 0.07103567, -1079882.0, 255964.94, 0.00032476612, 10.002466, 9.998302 
1.6250443e+3, 1.7368668e+2, -1075668.3, -1339860.3, -13311.309, -0.043238528, -0.027290314, -1074999.3, 162871.2, 0.000005034694, 10.001834, 9.998321 
1.6250528e+3, 1.8368459e+2, -1047354.1, -1281642.6, -20406.484, 0.0009394227, -0.063153416, -1045590.0, 94300.22, 0.0, 10.001381, 9.998266 
1.6250612e+3, 1.9368353e+2, -968740.06, -1191626.5, -31483.836, 0.024482034, -0.0009158361, -964378.1, 77524.4, 0.0, 10.001242, 9.998278 
1.6250686e+3, 2.0368227e+2, -859941.44, -1037023.25, -68442.17, 0.013998788, 0.026472563, -836572.44, 107343.79, 0.0, 10.001092, 9.998741 
1.6250752e+3, 2.1368067e+2, -782761.0, -937730.8, -65725.35, -0.040965263, -0.020459574, -758640.1, 87291.45, 0.0, 10.000899, 9.998843 
1.6250826e+3, 2.2367972e+2, -690133.94, -753838.9, -24269.488, -0.05955852, -0.03109388, -681941.6, 65998.484, 0.0, 10.000483, 9.999634 
1.6250916e+3, 2.3367989e+2, -694352.7, -688275.3, -58776.74, -0.02076174, 0.0048799557, -632458.75, 17477.941, 0.0, 9.999709, 9.9997835 
1.6251002e+3, 2.4367969e+2, -710745.44, -706902.2, -88825.51, -0.010030207, 0.0341384, -619977.5, -68039.266, 0.0, 9.999189, 9.999232 
1.625108e+3, 2.53679e+2, -630363.06, -623088.56, -73482.734, -0.048656818, 0.043962542, -553153.1, -99206.45, 0.0, 9.999093, 9.99918 
1.625116e+3, 2.636783e+2, -517075.1, -475973.56, -65045.527, -0.059651636, 0.043283097, -428309.53, -72355.445, 0.0, 9.999018, 9.999554 
1.6251244e+3, 2.7367762e+2, -426279.13, -371514.56, -66846.48, -0.022886308, 0.005722144, -326659.44, -68699.82, 0.0, 9.998926, 9.999641 
1.6251329e+3, 2.8367704e+2, -373595.72, -295770.3, -23845.723, -0.024596253, -0.015671816, -289045.13, -129080.99, 0.0, 9.998615, 9.999639 
1.6251412e+3, 2.9367676e+2, -372724.84, -243529.44, -27934.428, -0.090962775, -0.012222291, -237748.2, -175783.02, 0.0, 9.997944, 9.999647 
1.6251504e+3, 3.0367595e+2, -335793.9, -150823.94, -28997.6, -0.065703645, -0.07315185, -146384.56, -146384.56, 0.0, 9.997645, 10.000096 
1.6251603e+3, 3.1367648e+2, -220960.0, 14603.586, -41246.902, 0.03267525, -0.043707076, 21617.057, 21617.057, 0.0, 9.997956, 10.001083 
1.6350017e+3, 1.2368686e+2, -1410956.8, -1730101.3, -171044.61, -0.022835242, 0.11967994, -1336606.9, 391267.0, 0.033989586, 10.002892, 9.998509 
1.6350125e+3, 1.3368537e+2, -1350323.5, -1636174.3, 71532.836, -0.048455223, 0.10285126, -1333422.1, 296463.63, 0.02102759, 10.002509, 9.998667 
1.6350235e+3, 1.4368272e+2, -1308431.4, -1601738.6, -29345.557, 0.06786456, -0.01017324, -1305524.1, 226385.98, 0.009775217, 10.002261, 9.998338 
1.635031e+3, 1.5368116e+2, -1171755.6, -1488814.6, -37619.67, 0.00024935338, -0.0037342564, -1167353.1, 266573.6, 0.002860367, 10.00253, 9.99831 
1.6350383e+3, 1.6367972e+2, -1062266.3, -1351820.9, -51614.953, -0.061985545, 0.011223114, -1053340.6, 282599.72, 0.00036087315, 10.0024605, 9.99861 
1.6350465e+3, 1.7367841e+2, -1051996.0, -1290384.6, -37187.57, -0.015380972, 0.00942473, -1046329.56, 191620.66, 0.000005927034, 10.001831, 9.998662 
1.6350545e+3, 1.8367662e+2, -1062539.3, -1313103.9, -28808.404, 0.024040451, -0.0048633637, -1059269.6, 80697.086, 0.0, 10.001379, 9.998052 
1.6350624e+3, 1.9367424e+2, -989570.2, -1235465.9, -35565.43, 0.026461126, -0.047238916, -984529.44, 57463.42, 0.0, 10.001243, 9.997978 
1.6350695e+3, 2.0367266e+2, -851182.75, -1018112.6, -75853.68, 0.00015476058, -0.03778694, -821863.94, 122145.945, 0.0, 10.001087, 9.998874 
1.6350758e+3, 2.1367253e+2, -770416.7, -910856.06, -72234.414, -0.06359436, 0.042246446, -739896.06, 106114.79, 0.0, 10.000893, 9.999032 
1.6350828e+3, 2.2367178e+2, -756626.0, -890083.5, -51186.734, -0.08990088, 0.0822695, -739254.75, 8763.704, 0.0, 10.000474, 9.998703 
1.635091e+3, 2.3367012e+2, -771494.8, -849210.7, -86038.35, -0.055967484, 0.04256158, -715946.5, -65910.234, 0.0, 9.999711, 9.998678 
1.6350994e+3, 2.4366894e+2, -687581.75, -659983.6, -94576.89, -0.014818858, 0.022607975, -578204.44, -26156.318, 0.0, 9.999192, 9.999554 
1.6351078e+3, 2.536687e+2, -591488.75, -544311.44, -74484.88, 0.0352969, 0.023623062, -489769.3, -35720.316, 0.0, 9.999099, 9.99972 
1.635116e+3, 2.636684e+2, -507203.53, -455047.75, -67510.95, 0.029639315, 0.026388198, -408753.1, -52702.61, 0.0, 9.999015, 9.9997 
1.6351229e+3, 2.7366802e+2, -421060.4, -360126.56, -68399.62, -0.065548, 0.01252715, -315715.3, -57662.18, 0.0, 9.998922, 9.9997225 
1.6351308e+3, 2.8366747e+2, -375754.03, -300396.53, -46153.156, -0.08622539, -0.008243117, -278495.06, -118437.42, 0.0, 9.998614, 9.999609 
1.6351402e+3, 2.9366687e+2, -375582.66, -251634.23, -51165.86, 0.0093609, -0.03451859, -233242.11, -171179.47, 0.0, 9.997951, 9.99959 
1.635149e+3, 3.0366609e+2, -336859.06, -152235.63, -22095.459, 0.011444479, -0.089316644, -149628.1, -149628.1, 0.0, 9.9976425, 10.000089 
1.6351564e+3, 3.1366718e+2, -191239.47, 79550.64, -28901.57, -0.14366621, -0.0052201394, 82600.96, 82600.96, 0.0, 9.997944, 10.001534 
1.6450049e+3, 1.23676784e+2, -1401652.6, -1712035.0, -150712.52, 0.0081878025, 0.07485636, -1340514.0, 387458.94, 0.036383595, 10.002906, 9.998625 
1.6450149e+3, 1.3367598e+2, -1297644.6, -1576093.0, 66335.875, -0.06546357, 0.098101266, -1282648.9, 347328.47, 0.022584807, 10.002733, 9.998977 
1.645026e+3, 1.4367369e+2, -1288294.6, -1586436.4, -34855.21, 0.09009873, 0.00062380213, -1284274.0, 247723.98, 0.010560797, 10.002378, 9.998386 
1.6450335e+3, 1.5367202e+2, -1254483.9, -1529348.9, -41489.84, 0.024638137, -0.0012470825, -1248357.6, 185658.31, 0.0031241647, 10.0019655, 9.998302 
1.6450407e+3, 1.6367061e+2, -1166500.5, -1392721.5, -69581.27, -0.037367757, 0.012159118, -1146812.1, 189217.7, 0.0004029895, 10.001704, 9.9986925 
1.6450484e+3, 1.7366955e+2, -1065300.9, -1285509.8, -76533.05, 0.002416575, 0.02426125, -1041314.7, 196723.02, 0.0000070009137, 10.001694, 9.99876 
1.645056e+3, 1.8366793e+2, -1021081.0, -1277124.8, -61728.65, 0.028571308, 0.0146075, -1006976.06, 133076.34, 0.0, 10.001596, 9.998193 
1.6450635e+3, 1.9366555e+2, -964904.75, -1207313.9, -36884.656, 0.0059001413, -0.040990826, -959416.7, 82660.85, 0.0, 10.001344, 9.998122 
1.6450706e+3, 2.03664e+2, -862809.9, -1030215.06, -66801.22, -0.015023752, -0.034165155, -839421.3, 104672.625, 0.0, 10.001037, 9.998815 
1.645077e+3, 2.1366395e+2, -813456.8, -941919.56, -86317.17, -0.024905013, 0.06307394, -770094.9, 75999.94, 0.0, 10.000644, 9.998938 
1.6450837e+3, 2.2366306e+2, -794724.4, -936543.6, -59853.297, -0.039281167, 0.10308534, -772840.75, -24736.318, 0.0, 10.000333, 9.998451 
1.6450909e+3, 2.3366082e+2, -725396.1, -858245.3, -37746.625, -0.06410181, 0.034193285, -715420.25, -65292.625, 0.0, 10.000162, 9.998398 
1.6450985e+3, 2.4365929e+2, -584318.56, -605411.0, -13832.603, -0.04538817, -0.006709022, -577470.44, -25328.004, 0.0, 9.999881, 9.999597 
1.6451073e+3, 2.5365907e+2, -543106.9, -511317.6, -26606.51, 0.043372087, -0.012544828, -496219.56, -42077.438, 0.0, 9.99939, 9.999805 
1.6451152e+3, 2.6365885e+2, -527449.56, -478119.1, -43748.53, 0.05283394, -0.003973544, -452561.75, -96418.79, 0.0, 9.998934, 9.999579 
1.6451216e+3, 2.7365854e+2, -484629.56, -409122.13, -63654.996, -0.06643862, 0.0067706564, -372867.03, -114720.984, 0.0, 9.998565, 9.9995575 
1.6451292e+3, 2.8365806e+2, -412486.88, -304009.72, -51476.715, -0.09274961, -0.003343074, -283470.8, -123320.19, 0.0, 9.998302, 9.999733 
1.6451384e+3, 2.9365757e+2, -339817.22, -214462.22, -45311.527, 0.027505439, -0.03638665, -199798.89, -137644.72, 0.0, 9.998114, 9.999764 
1.6451465e+3, 3.0365705e+2, -339459.66, -188467.39, -1332.7618, 0.004351868, -0.05947342, -188455.64, -188455.64, 0.0, 9.997778, 9.999772 
1.6451538e+3, 3.136577e+2, -283928.22, 21116.326, -36207.582, -0.18168336, 0.021401016, 25355.123, 25355.123, 0.0, 9.997367, 10.0014105 
1.6550085e+3, 1.23665884e+2, -1403677.8, -1716859.6, -150025.36, 0.07921113, -0.08564851, -1343408.5, 384667.03, 0.038969472, 10.0029125, 9.99859 
1.6550173e+3, 1.3366573e+2, -1290749.1, -1562726.3, 58005.535, -0.09021637, -0.0061398693, -1278894.8, 351179.78, 0.024272928, 10.002739, 9.99907 
1.6550285e+3, 1.4366421e+2, -1288181.8, -1584126.1, -52464.117, 0.079855405, -0.03399991, -1279156.3, 252932.69, 0.0114189135, 10.002371, 9.998405 
1.6550356e+3, 1.5366329e+2, -1255282.1, -1531063.5, -56515.152, 0.042717863, 0.039652932, -1244150.0, 189951.2, 0.0034161112, 10.0019655, 9.998292 
1.6550426e+3, 1.6366199e+2, -1175544.3, -1412191.4, -72431.96, -0.011874523, 0.07139087, -1155134.8, 180980.7, 0.00045137366, 10.001705, 9.99856 
1.65505e+3, 1.7366011e+2, -1075463.9, -1307683.5, -75829.695, 0.005884475, 0.01813853, -1052895.5, 185237.0, 0.000008273259, 10.001696, 9.998609 
1.6550574e+3, 1.8365851e+2, -987577.7, -1206917.8, -70755.63, 0.009579379, -0.0038155694, -966733.9, 173413.25, 0.0, 10.001594, 9.998677 
1.6550644e+3, 1.9365746e+2, -925263.3, -1124646.3, -46061.215, -0.03957939, 0.016026815, -915136.6, 127020.09, 0.0, 10.00134, 9.998692 
1.6550714e+3, 2.0365626e+2, -880791.3, -1066362.6, -81561.07, -0.035510443, 0.035923854, -850040.0, 94128.69, 0.0, 10.001031, 9.9985695 
1.6550787e+3, 2.1365494e+2, -839701.94, -996639.4, -100174.45, 0.068277866, 0.042419195, -790921.9, 55261.613, 0.0, 10.000644, 9.998562 
1.6550852e+3, 2.2365351e+2, -767242.44, -879513.56, -67981.07, 0.084072046, 0.033404272, -735215.5, 12982.485, 0.0, 10.000332, 9.998845 
1.6550912e+3, 2.3365194e+2, -689263.3, -783872.9, -42948.13, -0.049626455, -0.01858064, -672675.3, -22464.008, 0.0, 10.000163, 9.99891 
1.6550979e+3, 2.4365066e+2, -600686.0, -638409.3, -30663.193, -0.10442312, -0.052969612, -583547.75, -31325.773, 0.0, 9.999875, 9.999373 
1.655106e+3, 2.5365007e+2, -567043.3, -561051.56, -43751.645, -0.02623891, -0.064871006, -520193.34, -65966.55, 0.0, 9.999388, 9.999466 
1.6551137e+3, 2.6364952e+2, -554939.5, -535437.56, -58020.62, 0.007718155, -0.04810422, -486354.25, -130122.16, 0.0, 9.998933, 9.999187 
1.6551206e+3, 2.7364913e+2, -512394.72, -468125.44, -74536.9, -0.032529116, -0.009149455, -412506.03, -154267.33, 0.0, 9.998569, 9.999151 
1.655128e+3, 2.836487e+2, -393812.88, -266437.66, -58101.082, -0.05035379, 0.00047789686, -243917.1, -83673.6, 0.0, 9.998305, 9.99999 
1.6551359e+3, 2.936487e+2, -311887.94, -158685.02, -51711.02, -0.039398022, -0.020285835, -142864.55, -80623.6, 0.0, 9.998121, 10.000146 
1.6551434e+3, 3.036487e+2, -381142.66, -274163.47, -17321.602, -0.08983714, 0.01267481, -271428.75, -271428.75, 0.0, 9.997774, 9.999186 
1.655152e+3, 3.1364807e+2, -336009.94, -82327.15, -41527.734, -0.10487876, 0.035291508, -75702.1, -75702.1, 0.0, 9.997348, 10.000708 
1.6650122e+3, 1.2365747e+2, -1310472.0, -1713788.0, -76720.8, 0.10564325, -0.0950595, -1296370.9, 431785.34, 0.04173462, 10.003785, 9.998179 
1.66502e+3, 1.3365664e+2, -1272654.0, -1594283.4, 75517.33, -0.11170017, -0.04566925, -1255805.4, 374357.28, 0.02608708, 10.003055, 9.998694 
1.6650309e+3, 1.43655e+2, -1271752.1, -1567408.6, -44099.95, 0.09043787, -0.06716535, -1265314.4, 266864.2, 0.012349877, 10.00245, 9.998482 
1.6650377e+3, 1.5365443e+2, -1197475.8, -1487653.3, -36360.67, 0.04186509, 0.02572609, -1192988.9, 241198.0, 0.003737191, 10.002297, 9.998429 
1.6650444e+3, 1.6365322e+2, -1122184.0, -1398814.5, -38672.574, -0.01647429, 0.0655608, -1116879.4, 219320.88, 0.00050616945, 10.002126, 9.998448 
1.6650517e+3, 1.7365116e+2, -1055435.5, -1315449.6, -43507.88, 0.0026271844, 0.00841699, -1048348.56, 189871.95, 0.000009797576, 10.001908, 9.998453 
1.665059e+3, 1.8364954e+2, -965661.25, -1171767.9, -52224.27, 0.008581768, -0.015225347, -953183.8, 187051.67, 0.0, 10.0016365, 9.9988985 
1.6650657e+3, 1.9364877e+2, -914315.7, -1087424.3, -51268.594, -0.035949126, 0.0050702044, -900271.2, 141969.39, 0.0, 10.00128, 9.998976 
1.6650724e+3, 2.0364764e+2, -895369.75, -1093424.9, -93728.53, -0.027068958, 0.023622476, -858046.7, 86204.625, 0.0, 10.0010195, 9.998388 
1.6650794e+3, 2.1364602e+2, -819399.06, -1015439.94, -105706.73, 0.08076819, 0.026053686, -773260.1, 73010.31, 0.0, 10.000909, 9.998304 
1.665086e+3, 2.2364452e+2, -709579.6, -830193.0, -77546.52, 0.10456913, 0.01709181, -671650.06, 76635.98, 0.0, 10.000636, 9.999036 
1.6650915e+3, 2.3364328e+2, -682963.1, -752200.2, -73565.336, -0.016119005, -0.028849564, -636277.9, 14017.0205, 0.0, 10.000084, 9.999165 
1.6650978e+3, 2.4364217e+2, -658241.2, -696796.44, -74187.555, -0.08350961, -0.050061475, -600867.5, -48563.594, 0.0, 9.999613, 9.999098 
1.665105e+3, 2.536415e+2, -606715.25, -620713.5, -91367.43, -0.061230253, -0.034376416, -522079.28, -67767.56, 0.0, 9.999292, 9.999101 
1.6651121e+3, 2.6364088e+2, -548848.2, -528080.25, -91516.89, -0.042128492, -0.007965307, -446360.1, -90041.08, 0.0, 9.998957, 9.999225 
1.6651191e+3, 2.7364028e+2, -509285.44, -455486.25, -73313.87, -0.02597656, 0.0047124703, -404292.88, -145966.38, 0.0, 9.998544, 9.9992485 
1.6651265e+3, 2.836398e+2, -400277.7, -274120.6, -33701.43, -0.024089895, 0.0016784576, -265682.1, -105350.2, 0.0, 9.9982815, 9.9999485 
1.6651338e+3, 2.936399e+2, -293701.1, -155938.47, -59452.95, -0.059817653, 0.00000005004964, -133829.19, -71500.48, 0.0, 9.998272, 10.000092 
1.6651407e+3, 3.0364025e+2, -360649.6, -238829.77, -39226.355, -0.12866542, 0.059535168, -227291.6, -227291.6, 0.0, 9.997805, 9.9994135 
1.6651493e+3, 3.136389e+2, -440421.88, -128663.81, 10591.292, -0.064831324, -0.014473358, -128304.414, -128304.414, 0.0, 9.996613, 10.000745 
1.6750157e+3, 1.23651475e+2, -1361524.9, -1823047.8, -84514.46, 0.074499704, 0.03820153, -1346535.3, 381680.06, 0.044667274, 10.003788, 9.99743 
1.6750228e+3, 1.3364871e+2, -1330341.4, -1716373.5, 46392.06, -0.13770396, -0.021408232, -1324844.4, 305397.25, 0.028025994, 10.003059, 9.9978485 
1.6750336e+3, 1.4364608e+2, -1262825.9, -1548854.1, -54889.863, 0.113673165, -0.1010792, -1252654.0, 279612.8, 0.013357116, 10.002452, 9.99861 
1.6750398e+3, 1.5364541e+2, -1178147.9, -1446962.1, -40725.02, 0.018663572, -0.041701738, -1172113.5, 262159.3, 0.004090086, 10.002295, 9.998711 
1.6750461e+3, 1.6364434e+2, -1129838.5, -1414400.9, -47331.008, -0.05473452, -0.0027639652, -1122172.5, 214111.38, 0.0005678562, 10.002123, 9.998343 
1.6750535e+3, 1.7364265e+2, -1067027.0, -1340464.0, -51390.48, -0.010957359, -0.0047126324, -1057687.5, 180614.36, 0.000011659807, 10.00191, 9.998281 
1.6750608e+3, 1.8364102e+2, -967725.94, -1175526.5, -65538.39, 0.020751009, -0.01994124, -948782.6, 191535.0, 0.0, 10.001633, 9.998875 
1.6750675e+3, 1.9363952e+2, -914731.44, -1088364.1, -63839.69, 0.010355082, -0.07296517, -893786.06, 148542.89, 0.0, 10.001278, 9.998971 
1.6750738e+3, 2.0363817e+2, -905034.94, -1112079.0, -99794.53, 0.0038234643, -0.070258826, -864766.3, 79575.45, 0.0, 10.001013, 9.998264 
1.6750798e+3, 2.1363722e+2, -830484.1, -1037909.1, -108604.06, 0.012472811, 0.013933146, -784026.3, 62329.59, 0.0, 10.000905, 9.998154 
1.6750859e+3, 2.2363612e+2, -710880.4, -831862.06, -96122.83, 0.022279385, 0.053485673, -657798.6, 90570.07, 0.0, 10.00063, 9.999028 
1.6750921e+3, 2.3363481e+2, -682323.1, -751351.4, -92940.91, 0.032267015, 0.0010013753, -617694.75, 32683.877, 0.0, 10.000085, 9.999171 
1.6750984e+3, 2.4363376e+2, -682578.44, -747079.25, -87255.445, 0.010027515, -0.00081363204, -621804.1, -69415.52, 0.0, 9.99961, 9.998755 
1.6751042e+3, 2.536333e+2, -635055.6, -679395.0, -100685.94, -0.06833923, 0.07632009, -554127.56, -99730.38, 0.0, 9.9992895, 9.9987 
1.6751105e+3, 2.636327e+2, -518371.5, -463861.4, -104863.266, -0.101664364, 0.11211357, -382769.13, -26364.758, 0.0, 9.998951, 9.99967 
1.6751175e+3, 2.7363193e+2, -467940.9, -370920.47, -86550.79, -0.05055804, 0.045455717, -320212.34, -61802.008, 0.0, 9.998548, 9.999829 
1.6751248e+3, 2.836312e+2, -423148.63, -322255.9, -35230.97, -0.019103924, -0.00028807038, -311171.34, -150754.73, 0.0, 9.998283, 9.999618 
1.6751324e+3, 2.9363114e+2, -326395.97, -222642.0, -56312.914, -0.042777464, 0.029836886, -197952.9, -135535.48, 0.0, 9.998265, 9.999636 
1.6751386e+3, 3.0363166e+2, -293011.8, -97440.32, -78286.875, -0.1193112, 0.08359245, -69962.8, -69962.8, 0.0, 9.997798, 10.000388 
1.6751459e+3, 3.136304e+2, -392861.16, -31747.053, -16371.413, -0.07632346, -0.089815974, -31006.36, -31006.36, 0.0, 9.996619, 10.001408 
1.6850197e+3, 1.2364432e+2, -1288220.5, -1788432.5, -112611.914, 0.077100605, 0.10695464, -1264037.5, 464250.1, 0.047761783, 10.004337, 9.997406 
1.685026e+3, 1.3364126e+2, -1234945.0, -1680876.3, 37877.27, -0.16165543, 0.024631787, -1231750.6, 398565.8, 0.030093022, 10.003793, 9.997738 
1.6850366e+3, 1.4363836e+2, -1176689.8, -1522516.9, -31551.414, 0.13032037, -0.067342915, -1173834.8, 358508.6, 0.0144470995, 10.003121, 9.998468 
1.6850424e+3, 1.5363708e+2, -1173268.5, -1461020.1, -48409.51, 0.044073515, -0.056485962, -1165342.6, 269011.84, 0.004479329, 10.0023985, 9.998565 
1.6850485e+3, 1.6363572e+2, -1149814.8, -1422962.3, -55452.137, -0.028998474, -0.03766641, -1138986.6, 197381.11, 0.0006375465, 10.001982, 9.998353 
1.6850556e+3, 1.7363438e+2, -1038900.9, -1322375.1, -43790.293, -0.009494187, -0.008355061, -1032290.44, 206091.89, 0.00001399049, 10.002087, 9.99832 
1.6850625e+3, 1.836329e+2, -934146.06, -1167616.4, -65451.805, 0.012219364, -0.00824932, -917049.06, 223347.78, 0.0, 10.001901, 9.998799 
1.6850688e+3, 1.9363116e+2, -932295.06, -1108228.4, -74822.77, 0.016179878, -0.07202623, -904777.6, 137632.94, 0.0, 10.001206, 9.998869 
1.6850747e+3, 2.0362967e+2, -929052.0, -1114293.6, -89766.65, 0.008717266, -0.08379757, -892689.6, 51735.133, 0.0, 10.000806, 9.998349 
1.6850804e+3, 2.1362863e+2, -822080.4, -1020713.44, -78398.7, -0.011638921, -0.02010127, -794865.75, 51572.957, 0.0, 10.000906, 9.99827 
1.6850862e+3, 2.2362755e+2, -700291.44, -850753.44, -76879.09, -0.007739466, 0.024759527, -667958.06, 80493.31, 0.0, 10.000809, 9.998812 
1.6850924e+3, 2.3362648e+2, -660775.0, -771069.94, -98270.31, 0.03510343, 0.022585457, -603235.75, 47225.28, 0.0, 10.000365, 9.9988985 
1.6850983e+3, 2.436255e+2, -654878.3, -720729.25, -92563.02, 0.029807862, 0.03925939, -589559.2, -37087.95, 0.0, 9.999747, 9.998869 
1.6851033e+3, 2.536248e+2, -690342.25, -687089.2, -67716.27, -0.059559155, 0.07722816, -620979.94, -166498.6, 0.0, 9.99883, 9.998869 
1.6851091e+3, 2.6362422e+2, -598335.9, -487911.66, -39321.65, -0.10263526, 0.09206038, -475340.5, -118852.01, 0.0, 9.998341, 9.999799 
1.685116e+3, 2.7362368e+2, -454650.72, -351110.72, -52395.16, -0.0611924, 0.042412896, -329223.5, -70732.195, 0.0, 9.998582, 9.999948 
1.685123e+3, 2.8362313e+2, -407392.1, -322988.44, -22984.443, -0.034524515, 0.01278291, -317135.3, -156639.38, 0.0, 9.998429, 9.999541 
1.6851301e+3, 2.9362294e+2, -435434.56, -285507.94, -23076.9, -0.0483408, 0.04074328, -282036.28, -219536.98, 0.0, 9.997563, 9.999542 
1.6851361e+3, 3.036235e+2, -381407.34, -96156.39, -52592.934, -0.119158365, 0.08455699, -86768.57, -86768.57, 0.0, 9.997005, 10.000777 
1.6851424e+3, 3.136234e+2, -336222.53, 5433.001, -30864.27, -0.10436105, -0.013608493, 8198.809, 8198.809, 0.0, 9.996964, 10.001497 
1.6950242e+3, 1.2363587e+2, -1244949.9, -1692349.6, -101750.92, 0.099922165, 0.09081926, -1222896.1, 505478.63, 0.05102201, 10.004336, 9.998074 
1.6950296e+3, 1.3363428e+2, -1195159.4, -1592942.8, 16146.764, -0.18852544, 0.09389261, -1194505.1, 435881.63, 0.03229503, 10.003785, 9.998352 
1.6950399e+3, 1.4363185e+2, -1206644.5, -1584912.4, -59545.082, 0.13601367, 0.032608904, -1197492.6, 334915.56, 0.01562725, 10.003119, 9.998042 
1.6950455e+3, 1.5362939e+2, -1212570.6, -1545281.5, -75095.086, 0.111627616, -0.019102463, -1196406.5, 238025.39, 0.004910431, 10.002407, 9.997984 
1.6950513e+3, 1.6362737e+2, -1139930.3, -1403842.9, -56213.156, 0.05310948, -0.038447317, -1128455.9, 207995.7, 0.0007170378, 10.0019865, 9.998483 
1.6950579e+3, 1.7362633e+2, -1021813.9, -1287184.1, -38539.656, 0.002696092, -0.0042257267, -1016330.06, 222131.98, 0.000016975888, 10.002086, 9.998563 
1.6950642e+3, 1.8362512e+2, -945246.4, -1188695.0, -88087.98, -0.02223019, 0.018454077, -916716.56, 223756.73, 0.0, 10.001891, 9.99866 
1.6950695e+3, 1.9362374e+2, -946714.2, -1138292.3, -100418.57, -0.020188043, 0.006136062, -903724.9, 138760.5, 0.0, 10.001205, 9.998665 
1.6950753e+3, 2.036221e+2, -909564.44, -1072725.5, -90209.34, -0.01466655, -0.018503878, -869518.0, 74982.39, 0.0, 10.0008, 9.998637 
1.6950814e+3, 2.1362022e+2, -797534.2, -968397.6, -73200.73, 0.0022697498, -0.07641239, -770462.9, 76056.414, 0.0, 10.000898, 9.998633 
1.6950871e+3, 2.2361879e+2, -731134.0, -912135.94, -91200.05, 0.006779845, -0.06842011, -693152.0, 55382.48, 0.0, 10.000796, 9.998397 
1.6950923e+3, 2.3361826e+2, -699894.94, -851328.56, -112911.87, -0.010119395, 0.035803627, -639662.75, 10879.598, 0.0, 10.00036, 9.998352 
1.6950974e+3, 2.4361737e+2, -617662.4, -642872.94, -123521.734, -0.026046656, 0.07033209, -506104.38, 46447.87, 0.0, 9.9997425, 9.999407 
1.6951025e+3, 2.53616e+2, -639429.56, -583864.7, -100154.32, -0.03877871, -0.02706475, -507710.84, -53146.273, 0.0, 9.998838, 9.999575 
1.695108e+3, 2.6361522e+2, -609842.4, -513841.22, -35385.44, -0.051229578, -0.06182209, -502208.03, -145636.14, 0.0, 9.998348, 9.999618 
1.6951145e+3, 2.7361554e+2, -477921.1, -399349.13, -40162.086, -0.06558085, -0.0008811862, -382453.44, -123883.586, 0.0, 9.998581, 9.999618 
1.695121e+3, 2.8361556e+2, -398133.22, -302410.97, -49266.668, -0.07653932, 0.040938076, -281585.2, -121014.516, 0.0, 9.998422, 9.999688 
1.6951275e+3, 2.9361525e+2, -419077.53, -251186.4, -53244.203, -0.08094658, 0.03414804, -235724.72, -173149.28, 0.0, 9.99756, 9.999782 
1.695133e+3, 3.0361566e+2, -392809.03, -120831.375, -57176.418, -0.13292469, 0.056896977, -109300.36, -109300.36, 0.0, 9.997008, 10.0006075 
1.6951388e+3, 3.1361812e+2, -359355.03, -43929.125, -12926.849, -0.16572633, 0.24149124, -43400.24, -43400.24, 0.0, 9.99697, 10.001156 
1.7050289e+3, 1.2362791e+2, -1193892.0, -1660064.6, -32946.2, 0.0952742, 0.042865623, -1191575.0, 536877.25, 0.05445263, 10.004686, 9.99814 
1.7050332e+3, 1.3362674e+2, -1210896.0, -1605482.4, -4284.9805, -0.1915146, 0.090221, -1210849.5, 419611.8, 0.03463771, 10.00371, 9.998299 
1.705043e+3, 1.4362457e+2, -1212230.4, -1591674.6, -76890.01, 0.15659374, 0.059954196, -1197241.6, 335239.4, 0.01690327, 10.003104, 9.998003 
1.7050484e+3, 1.5362212e+2, -1106307.9, -1497380.1, -52499.066, 0.12271032, 0.01261758, -1099382.8, 335121.84, 0.00538814, 10.003158, 9.997951 
1.7050539e+3, 1.6361998e+2, -1014042.1, -1353044.0, -16875.895, 0.06320332, -0.01144547, -1013204.06, 323321.03, 0.0008082668, 10.0028925, 9.998396 
1.70506e+3, 1.7361869e+2, -1025879.7, -1300613.4, -25844.63, 0.015127, 0.007411563, -1023469.56, 215068.17, 0.000020835996, 10.002106, 9.998462 
1.7050658e+3, 1.8361735e+2, -1002569.6, -1221800.5, -89475.87, -0.013141653, 0.024300752, -970687.8, 169862.53, 0.0, 10.00152, 9.998612 
1.7050707e+3, 1.9361602e+2, -937716.0, -1137773.1, -92293.516, -0.023300948, 0.02075218, -901642.4, 140920.16, 0.0, 10.001286, 9.998629 
1.7050761e+3, 2.036145e+2, -871215.44, -1037065.94, -68458.86, -0.021645598, 0.002969676, -846608.3, 97968.164, 0.0, 10.000992, 9.998789 
1.7050822e+3, 2.1361284e+2, -832351.94, -965437.06, -65084.945, 0.0027153762, -0.049255665, -805814.1, 40777.914, 0.0, 10.000577, 9.998808 
1.7050876e+3, 2.236114e+2, -811350.8, -939879.0, -80569.89, 0.0058204005, -0.057208214, -772554.8, -23948.32, 0.0, 10.0002, 9.998492 
1.7050923e+3, 2.336104e+2, -762239.56, -872434.0, -61136.04, -0.028831558, -0.005465799, -735036.6, -84418.336, 0.0, 9.999895, 9.998429 
1.705097e+3, 2.4360946e+2, -625531.44, -640196.94, -64448.1, -0.049254213, 0.014223845, -568000.25, -15371.522, 0.0, 9.999661, 9.999463 
1.7051016e+3, 2.536086e+2, -533550.0, -526308.5, -90606.01, -0.042771775, -0.03699574, -439250.9, 15385.291, 0.0, 9.999541, 9.999629 
1.7051066e+3, 2.6360813e+2, -501563.06, -468970.63, -43156.37, -0.048148606, -0.044281416, -439136.2, -82494.805, 0.0, 9.999126, 9.999549 
1.7051126e+3, 2.7360833e+2, -541955.6, -440517.4, -33312.68, -0.079356566, 0.017394237, -430555.7, -171914.45, 0.0, 9.998188, 9.999523 
1.7051187e+3, 2.8360847e+2, -514993.53, -328668.8, -33118.797, -0.10175815, 0.06294346, -322957.13, -162315.83, 0.0, 9.997492, 9.999954 
1.7051247e+3, 2.9360834e+2, -438965.1, -225277.73, -31632.328, -0.097923175, 0.04288265, -220693.52, -158050.6, 0.0, 9.9972725, 10.000097 
1.7051302e+3, 3.036082e+2, -398022.47, -155433.97, -23427.227, -0.113820694, 0.009786319, -153192.27, -153192.27, 0.0, 9.997111, 10.00032 
1.7051356e+3, 3.1361097e+2, -381455.47, -71130.766, 19039.604, -0.17441732, 0.25560895, -69966.98, -69966.98, 0.0, 9.996892, 10.001006 
1.715033e+3, 1.2362024e+2, -1234765.5, -1740706.6, -29217.36, 0.054805797, -0.056819376, -1233083.9, 495438.66, 0.058041878, 10.004677, 9.997568 
1.7150371e+3, 1.3361865e+2, -1258883.0, -1707462.3, -41350.348, -0.17863327, 0.017364131, -1255103.1, 375436.7, 0.037117273, 10.0037155, 9.997591 
1.7150465e+3, 1.4361653e+2, -1188796.3, -1542532.6, -79839.72, 0.1839406, 0.018921416, -1171611.0, 360950.3, 0.018276524, 10.003108, 9.99834 
1.7150511e+3, 1.5361524e+2, -1071545.1, -1424027.8, -49383.656, 0.07463822, 0.03637842, -1064757.1, 369815.78, 0.005915651, 10.003155, 9.998456 
1.715056e+3, 1.6361356e+2, -1036530.94, -1398667.3, -43073.42, -0.0023849127, 0.04173398, -1031478.2, 305110.4, 0.0009130136, 10.002887, 9.998086 
1.7150623e+3, 1.7361148e+2, -1055903.1, -1365019.4, -54710.09, 0.023182923, 0.026962323, -1046505.7, 192103.64, 0.000025810483, 10.002112, 9.998017 
1.7150678e+3, 1.8360958e+2, -999457.1, -1216252.6, -101399.71, 0.032138694, 0.010223829, -959423.1, 181204.72, 0.0, 10.001523, 9.99865 
1.7150724e+3, 1.9360799e+2, -929500.9, -1121087.3, -99650.01, 0.00174151, -0.02877859, -887067.94, 155574.25, 0.0, 10.001286, 9.998744 
1.7150772e+3, 2.0360681e+2, -871174.8, -1035257.75, -83299.29, -0.017990466, -0.020037929, -836299.3, 108353.79, 0.0, 10.000984, 9.998805 
1.7150825e+3, 2.1360646e+2, -833549.94, -967166.7, -79211.97, -0.013610382, 0.058694128, -796734.5, 49922.574, 0.0, 10.000572, 9.998799 
1.7150876e+3, 2.2360532e+2, -772425.1, -857556.25, -92807.305, -0.013958716, 0.055601247, -712887.7, 35780.242, 0.0, 10.000193, 9.999062 
1.7150922e+3, 2.3360293e+2, -715788.6, -776250.1, -71290.82, -0.02451622, -0.09932775, -668583.7, -17894.45, 0.0, 9.999894, 9.999091 
1.7150965e+3, 2.436017e+2, -654787.94, -699629.56, -69904.15, -0.044852637, -0.12683101, -603797.0, -51095.67, 0.0, 9.999656, 9.999059 
1.7151007e+3, 2.536025e+2, -575517.0, -611873.44, -92860.47, -0.07735895, 0.043217283, -499072.22, -44375.094, 0.0, 9.999534, 9.999046 
1.7151053e+3, 2.636027e+2, -500970.53, -466116.4, -73538.125, -0.09742255, 0.13643081, -407968.63, -51270.418, 0.0, 9.999118, 9.999575 
1.7151105e+3, 2.7360195e+2, -533305.6, -422906.22, -67223.73, -0.10523011, 0.09479653, -391122.94, -132416.55, 0.0, 9.998188, 9.999646 
1.715116e+3, 2.836017e+2, -488157.56, -273141.1, -44932.88, -0.11493931, 0.0794372, -264129.0, -103420.36, 0.0, 9.997493, 10.000336 
1.7151219e+3, 2.936021e+2, -412430.16, -169867.73, -36096.36, -0.10788251, 0.06805348, -164610.11, -101907.27, 0.0, 9.997271, 10.000479 
1.7151277e+3, 3.036011e+2, -430495.56, -223770.23, -31219.797, -0.07123678, -0.05453447, -219158.28, -219158.28, 0.0, 9.997112, 9.999852 
1.7151327e+3, 3.1360137e+2, -371209.78, -52505.54, 17238.424, -0.14450404, 0.00013661571, -51575.844, -51575.844, 0.0, 9.9969015, 10.001131 
1.7250384e+3, 1.2361412e+2, -1115674.0, -1710147.8, 13221.634, 0.06926687, -0.059870593, -1115380.1, 613201.56, 0.06176403, 10.005695, 9.997295 
1.7250411e+3, 1.3361217e+2, -1216141.4, -1730737.8, -24997.38, -0.17160538, 0.017423062, -1214929.9, 415673.9, 0.03972029, 10.004226, 9.997185 
1.7250496e+3, 1.4360979e+2, -1170171.3, -1528934.1, -18502.889, 0.17412254, 0.013855812, -1169219.5, 363408.97, 0.019743165, 10.003223, 9.998377 
1.7250541e+3, 1.5360865e+2, -1080230.0, -1416115.9, -13142.402, 0.07013942, 0.036719978, -1079716.6, 354921.34, 0.006494274, 10.003044, 9.998565 
1.725059e+3, 1.6360705e+2, -1040007.25, -1398191.0, -25712.727, -0.0044864113, 0.04360909, -1038170.9, 298481.56, 0.001032908, 10.002855, 9.998104 
1.7250645e+3, 1.7360488e+2, -980309.1, -1328245.0, -8674.307, 0.009318562, 0.017615719, -980093.0, 258580.9, 0.00003215152, 10.002632, 9.998019 
1.7250696e+3, 1.8360288e+2, -900580.2, -1181652.8, -38014.37, 0.02289844, -0.0018272265, -895529.56, 245163.73, 0.0, 10.002257, 9.998533 
1.725074e+3, 1.9360134e+2, -887492.56, -1116729.6, -56209.766, 0.02404603, -0.0234503, -874451.6, 168256.56, 0.0, 10.001642, 9.998602 
1.7250785e+3, 2.0360014e+2, -859780.9, -1040872.9, -52241.094, 0.011316094, -0.0047195153, -845791.2, 98928.79, 0.0, 10.00111, 9.998708 
1.7250831e+3, 2.1359964e+2, -818156.9, -969895.7, -57143.684, -0.019305376, 0.06845729, -799044.4, 47681.332, 0.0, 10.000724, 9.998707 
1.7250878e+3, 2.2359855e+2, -734650.7, -816126.75, -82477.92, -0.032898653, 0.06849087, -683398.56, 65337.324, 0.0, 10.000353, 9.999268 
1.7250922e+3, 2.3359662e+2, -684479.44, -731969.5, -91763.35, -0.022023285, -0.065789096, -613438.75, 37313.535, 0.0, 9.999988, 9.999349 
1.7250963e+3, 2.4359559e+2, -682346.9, -723884.3, -98226.695, -0.030910451, -0.085270524, -602717.3, -49954.89, 0.0, 9.999518, 9.998956 
1.7251001e+3, 2.5359607e+2, -682632.06, -682647.0, -94473.55, -0.06800558, 0.06850241, -588165.94, -133404.16, 0.0, 9.998883, 9.998872 
1.7251042e+3, 2.6359597e+2, -611345.2, -513680.94, -65330.207, -0.088941194, 0.14369419, -480949.53, -124184.21, 0.0, 9.998338, 9.999623 
1.7251088e+3, 2.7359515e+2, -563052.06, -427492.25, -64521.918, -0.095679335, 0.08243955, -401692.28, -142918.55, 0.0, 9.997945, 9.99973 
1.7251135e+3, 2.83595e+2, -476888.28, -261458.58, -41722.203, -0.11827982, 0.06790009, -253660.53, -92885.69, 0.0, 9.997546, 10.00039 
1.7251188e+3, 2.935958e+2, -435499.6, -180045.36, -60008.234, -0.13264742, 0.09243136, -166651.23, -103885.43, 0.0, 9.997111, 10.000484 
1.7251249e+3, 3.0359498e+2, -462427.1, -228540.27, -44751.285, -0.052364018, -0.0077454853, -220270.11, -220270.11, 0.0, 9.99685, 9.999946 
1.7251298e+3, 3.1359425e+2, -336108.97, 41820.887, 46928.65, -0.14043276, -0.077260695, 47560.973, 47560.973, 0.0, 9.99681, 10.001823 
1.7350447e+3, 1.2360954e+2, -1124758.6, -1719769.8, 1314.1746, 0.12636963, 0.031923834, -1124755.8, 603874.0, 0.06560345, 10.005674, 9.997235 
1.7350453e+3, 1.3360725e+2, -1226261.9, -1749175.8, -80977.98, -0.17570288, 0.08528748, -1214008.9, 416644.75, 0.042435355, 10.004222, 9.997063 
1.7350523e+3, 1.436043e+2, -1188366.5, -1567017.4, -31309.28, 0.12362302, 0.042642385, -1185795.1, 346887.66, 0.021297557, 10.003224, 9.998116 
1.7350575e+3, 1.5360238e+2, -1098874.4, -1456888.1, -18369.313, 0.10269535, 0.015921751, -1097934.4, 336765.28, 0.0071235094, 10.003052, 9.9982815 
1.7350623e+3, 1.6360049e+2, -1016524.6, -1349117.6, -34723.19, 0.047225177, -0.0027544724, -1012938.1, 323778.13, 0.0011691477, 10.002853, 9.998443 
1.7350666e+3, 1.7359883e+2, -950407.56, -1265154.4, -16541.207, -0.029128447, -0.02205143, -949540.6, 289191.1, 0.00004011834, 10.002626, 9.998455 
1.7350711e+3, 1.8359727e+2, -921333.1, -1222799.0, -59692.69, -0.04311323, -0.012946809, -909943.8, 230803.25, 0.0, 10.002248, 9.998257 
1.7350759e+3, 1.9359602e+2, -915570.7, -1175231.6, -78218.78, 0.03933602, 0.035735976, -893829.0, 148931.83, 0.0, 10.001641, 9.998202 
1.73508e+3, 2.0359443e+2, -875350.56, -1073054.5, -68413.766, 0.060375776, 0.04838676, -853985.4, 90791.95, 0.0, 10.001108, 9.998487 
1.7350839e+3, 2.1359235e+2, -832228.8, -999087.94, -69976.375, -0.018509852, -0.018725237, -806767.7, 40030.344, 0.0, 10.000721, 9.998508 
1.735088e+3, 2.235911e+2, -745733.75, -836518.5, -95839.7, -0.05637305, -0.017471388, -685080.3, 63730.27, 0.0, 10.000342, 9.999133 
1.7350921e+3, 2.3359147e+2, -694757.56, -751781.44, -103243.98, -0.026197148, 0.09017021, -616160.94, 34646.9, 0.0, 9.99998, 9.999217 
1.7350961e+3, 2.4359103e+2, -672002.44, -701040.25, -120211.73, -0.012463151, 0.13219659, -565436.0, -12623.248, 0.0, 9.999511, 9.999117 
1.7350994e+3, 2.5358927e+2, -667329.9, -651984.6, -116249.984, -0.019910455, 0.0413125, -543154.3, -88323.734, 0.0, 9.998886, 9.999082 
1.7351031e+3, 2.63588e+2, -606444.25, -504291.25, -80453.43, -0.028770609, -0.015095829, -460070.53, -103227.64, 0.0, 9.99834, 9.999686 
1.7351072e+3, 2.7358785e+2, -560258.56, -422459.94, -76957.76, -0.059502766, -0.013961275, -388065.44, -129221.77, 0.0, 9.997948, 9.9997635 
1.735111e+3, 2.8358817e+2, -494971.0, -300335.44, -57151.598, -0.119675055, 0.028850436, -284794.66, -123953.805, 0.0, 9.997549, 10.000122 
1.7351155e+3, 2.9358923e+2, -459677.63, -233465.53, -73294.94, -0.17623651, 0.11175789, -211793.52, -148960.38, 0.0, 9.997122, 10.000114 
1.7351218e+3, 3.0358985e+2, -418109.34, -137711.52, -47690.016, -0.06124451, 0.15219593, -129822.375, -129822.375, 0.0, 9.996856, 10.000567 
1.7351264e+3, 3.1358856e+2, -254732.05, 214353.58, 26153.29, -0.16415022, -0.056982733, 215807.22, 215807.22, 0.0, 9.996796, 10.003015 
1.7450497e+3, 1.23604536e+2, -1261003.4, -1747347.3, 12178.27, 0.1141665, 0.09161541, -1260698.6, 467983.47, 0.069563165, 10.004509, 9.997604 
1.74505e+3, 1.3360225e+2, -1137842.6, -1666091.6, -79140.055, -0.15761872, 0.1117164, -1126241.0, 504462.8, 0.04525871, 10.004705, 9.997398 
1.745056e+3, 1.4359912e+2, -1025614.6, -1509195.3, -3844.7627, 0.109980114, 0.041089922, -1025584.0, 507149.34, 0.022935303, 10.004471, 9.997914 
1.745061e+3, 1.535969e+2, -1061255.1, -1471393.4, 4844.3213, 0.112927295, 0.012711265, -1061197.9, 373555.53, 0.0078018596, 10.003458, 9.997985 
1.7450653e+3, 1.6359492e+2, -1047099.7, -1361566.5, -12652.926, 0.068938084, -0.0021260413, -1046591.4, 290180.13, 0.0013223152, 10.002633, 9.998464 
1.7450692e+3, 1.7359339e+2, -1009129.0, -1285854.8, -21404.18, -0.020769536, -0.012003149, -1007483.25, 231302.42, 0.000049909977, 10.002191, 9.998523 
1.7450733e+3, 1.8359192e+2, -975324.75, -1264708.6, -72430.46, -0.041979663, 0.008405551, -958208.44, 182592.16, 0.0000000000000006446772, 10.001948, 9.998112 
1.7450778e+3, 1.9359063e+2, -871473.4, -1174114.8, -77026.29, 0.04260842, 0.0704727, -852997.1, 189818.48, 0.0, 10.002034, 9.998018 
1.7450815e+3, 2.0358893e+2, -780685.25, -1020401.56, -61709.953, 0.063458875, 0.07937608, -765732.06, 179101.39, 0.0, 10.001729, 9.9985485 
1.7450845e+3, 2.1358664e+2, -819780.44, -981912.94, -45532.113, -0.0219886, -0.017359624, -807868.6, 38986.695, 0.0, 10.00076, 9.998607 
1.745088e+3, 2.2358538e+2, -794592.0, -871954.5, -44330.78, -0.062275317, -0.018154176, -774439.06, -25571.129, 0.0, 10.000059, 9.999026 
1.745092e+3, 2.3358601e+2, -726278.5, -783453.0, -53076.965, -0.02693164, 0.13107684, -694579.8, -43716.105, 0.0, 9.999835, 9.999068 
1.7450956e+3, 2.4358566e+2, -657748.56, -681539.2, -78374.33, -0.011156906, 0.18448775, -590371.94, -37503.613, 0.0, 9.999555, 9.999229 
1.7450984e+3, 2.535837e+2, -619346.56, -611106.94, -81146.734, -0.022329718, 0.058130443, -533975.5, -79088.31, 0.0, 9.999143, 9.999238 
1.7451017e+3, 2.6358244e+2, -554664.5, -470349.03, -45239.137, -0.022735724, -0.014641724, -450669.44, -93770.67, 0.0, 9.998661, 9.9997635 
1.7451055e+3, 2.7358237e+2, -537035.1, -404500.7, -41757.03, -0.02784663, -0.007927681, -392441.7, -133544.7, 0.0, 9.99808, 9.999822 
1.745109e+3, 2.8358242e+2, -503063.25, -320610.13, -13730.276, -0.08849702, 0.012485672, -319582.66, -158686.63, 0.0, 9.997566, 9.999973 
1.7451125e+3, 2.9358286e+2, -473094.8, -264880.66, -21492.934, -0.18090342, 0.051634997, -262685.22, -199790.05, 0.0, 9.99714, 9.999888 
1.7451185e+3, 3.0358425e+2, -442615.9, -166868.39, -2325.0513, -0.05245268, 0.18951258, -166848.78, -166848.78, 0.0, 9.99676, 10.000414 
1.7451228e+3, 3.135829e+2, -341713.0, 144047.25, -35300.707, -0.17050305, -0.014935412, 146599.19, 146599.19, 0.0, 9.996325, 10.002759 
1.7550534e+3, 1.2359927e+2, -1214942.3, -1642565.6, 48284.348, 0.028573455, 0.13135757, -1209558.1, 519179.22, 0.0736522, 10.00449, 9.998381 
1.755055e+3, 1.3359721e+2, -1087329.4, -1555574.0, -71886.56, -0.1237573, 0.097244166, -1076541.6, 554212.25, 0.04818922, 10.004702, 9.998182 
1.7550606e+3, 1.4359432e+2, -1038417.3, -1532513.3, -35158.992, 0.12455683, 0.013458624, -1035928.0, 496851.66, 0.024652492, 10.004464, 9.997754 
1.7550643e+3, 1.535922e+2, -1084013.3, -1518675.3, -33270.098, 0.097194895, 0.025146438, -1081481.5, 353318.13, 0.008527423, 10.003458, 9.997662 
1.7550677e+3, 1.6359022e+2, -1067592.4, -1404638.5, -33156.215, 0.056579027, 0.04267041, -1064361.6, 272456.9, 0.0014925194, 10.002634, 9.998168 
1.7550719e+3, 1.7358856e+2, -1029436.75, -1329067.8, -36967.453, 0.027602572, 0.0478456, -1024943.25, 213892.44, 0.00006156021, 10.002194, 9.998225 
1.7550758e+3, 1.8358685e+2, -976975.8, -1267860.5, -71950.56, 0.01734366, 0.062275227, -960151.8, 180701.98, 0.0000000010737394, 10.0019455, 9.998092 
1.7550796e+3, 1.9358513e+2, -871221.3, -1172288.6, -72021.07, 0.030603323, 0.07939818, -854879.5, 187993.23, 0.0, 10.002027, 9.998035 
1.7550829e+3, 2.0358358e+2, -759142.56, -972852.7, -92599.555, 0.018513482, 0.08778534, -724602.1, 220286.55, 0.0, 10.001716, 9.998882 
1.7550851e+3, 2.1358246e+2, -793534.1, -926572.44, -80588.71, -0.034193624, 0.07008813, -755557.6, 91340.62, 0.0, 10.000754, 9.998991 
1.7550881e+3, 2.2358133e+2, -801464.9, -885999.8, -56105.4, -0.05619379, 0.0641227, -773487.4, -24578.64, 0.0, 10.000057, 9.998931 
1.7550918e+3, 2.3358026e+2, -739090.8, -810309.6, -58829.914, -0.027773757, 0.060140595, -705932.56, -55012.117, 0.0, 9.999833, 9.998885 
1.755095e+3, 2.4357945e+2, -654291.9, -672137.2, -92248.234, -0.03091798, 0.07601357, -570535.75, -17606.164, 0.0, 9.999545, 9.999299 
1.755097e+3, 2.5357926e+2, -612443.6, -596210.9, -94771.52, -0.0785056, 0.1169937, -509208.8, -54276.18, 0.0, 9.99914, 9.999342 
1.7550999e+3, 2.63579e+2, -548823.25, -459369.22, -66049.164, -0.07387745, 0.1380468, -424327.84, -67393.3, 0.0, 9.998663, 9.999838 
1.7551038e+3, 2.7357855e+2, -530538.0, -393576.8, -61632.684, -0.0052659563, 0.095923, -369926.1, -110990.945, 0.0, 9.998089, 9.999894 
1.7551072e+3, 2.8357768e+2, -505985.06, -326802.0, -30670.479, -0.03207418, 0.017635027, -321697.6, -160755.9, 0.0, 9.997567, 9.99993 
1.75511e+3, 2.9357657e+2, -479181.0, -278402.9, -36311.055, -0.15475532, -0.0864469, -272037.78, -209084.6, 0.0, 9.997144, 9.999794 
1.7551155e+3, 3.035782e+2, -502660.56, -292358.0, -16182.134, -0.0344578, 0.114307925, -291120.13, -291120.13, 0.0, 9.996763, 9.999552 
1.7551194e+3, 3.1357798e+2, -477737.22, -137716.36, -93326.11, -0.14344761, 0.1264126, -113785.28, -113785.28, 0.0, 9.996324, 10.000823 
1.7650577e+3, 1.2359399e+2, -1212539.4, -1645092.5, 143346.84, 0.010188745, 0.062570065, -1169347.5, 559439.56, 0.07788346, 10.004549, 9.998335 
1.76506e+3, 1.335926e+2, -1210143.6, -1628622.1, -68674.49, -0.05716652, 0.108926766, -1199162.0, 431637.22, 0.051228262, 10.003891, 9.998047 
1.7650647e+3, 1.4358993e+2, -1155255.9, -1574768.0, -62453.977, 0.12897435, 0.047300566, -1146155.5, 386668.47, 0.026444871, 10.003581, 9.99789 
1.7650676e+3, 1.5358767e+2, -1007572.06, -1460848.0, -27480.186, 0.07742463, 0.029051652, -1005912.1, 428932.25, 0.009296644, 10.003904, 9.997842 
1.7650709e+3, 1.6358562e+2, -916942.1, -1363783.4, -13250.211, 0.03267264, 0.04109794, -916549.56, 420314.72, 0.0016790463, 10.003813, 9.997878 
1.7650746e+3, 1.7358395e+2, -935377.56, -1325678.6, -26172.598, 0.032794185, 0.08193451, -933630.3, 305252.9, 0.000074904594, 10.003023, 9.9978485 
1.7650782e+3, 1.8358216e+2, -922147.1, -1213362.5, -47374.04, 0.033628907, 0.09866159, -914634.3, 226268.39, 0.000000009428086, 10.002202, 9.998342 
1.7650813e+3, 1.9358024e+2, -943084.1, -1168446.1, -24123.766, 0.025488164, 0.0628781, -940530.75, 102391.05, 0.0, 10.001368, 9.99838 
1.765084e+3, 2.0357889e+2, -875886.94, -1011497.0, -38460.934, 0.0042956783, 0.06351141, -865738.4, 79196.75, 0.0, 10.00084, 9.999039 
1.7650859e+3, 2.1357858e+2, -772246.2, -902418.94, -48207.426, -0.036831055, 0.11528249, -756337.5, 90599.9, 0.0, 10.000844, 9.999112 
1.7650884e+3, 2.2357765e+2, -725336.56, -845970.4, -30625.479, -0.04970528, 0.11989054, -718006.94, 30939.121, 0.0, 10.000566, 9.9989605 
1.7650919e+3, 2.335757e+2, -746266.3, -812056.0, -21555.273, -0.017734645, 0.027209144, -739833.0, -88868.03, 0.0, 9.99978, 9.9988985 
1.7650945e+3, 2.4357456e+2, -707052.2, -706208.7, -42368.293, -0.019625485, 0.011347817, -664260.0, -111283.02, 0.0, 9.999221, 9.999221 
1.7650962e+3, 2.5357494e+2, -628708.5, -615398.3, -59743.285, -0.071404144, 0.119675845, -561940.6, -106965.234, 0.0, 9.999076, 9.999241 
1.7650986e+3, 2.63575e+2, -539902.2, -478609.03, -55420.902, -0.07465597, 0.1849421, -445925.63, -88950.19, 0.0, 9.998827, 9.999627 
1.765102e+3, 2.735743e+2, -506913.7, -407399.9, -76302.9, -0.0151400305, 0.1424184, -366064.1, -107084.8, 0.0, 9.998363, 9.999666 
1.7651047e+3, 2.8357318e+2, -484117.5, -308945.38, -59350.723, -0.03155944, 0.05259912, -290730.53, -129742.8, 0.0, 9.997686, 9.999995 
1.7651072e+3, 2.9357195e+2, -533144.4, -292162.9, -53453.297, -0.124697514, -0.07607839, -280838.34, -217840.0, 0.0, 9.996722, 9.999902 
1.7651121e+3, 3.0357325e+2, -536777.2, -285998.94, 39820.582, -0.03654842, 0.07525995, -279827.78, -279827.78, 0.0, 9.996429, 9.999756 
1.7651162e+3, 3.135729e+2, -414920.38, -167033.48, 7306.0454, -0.12551208, 0.058704954, -166818.34, -166818.34, 0.0, 9.997013, 10.000286 
1.7750627e+3, 1.23588964e+2, -1274893.9, -1772189.5, 137034.28, 0.057302933, -0.09395579, -1239633.0, 489195.8, 0.08228929, 10.004535, 9.99744 
1.7750648e+3, 1.3358842e+2, -1284132.4, -1787613.3, -94213.914, 0.03450948, 0.14456002, -1267080.1, 363759.53, 0.05438799, 10.003891, 9.996958 
1.775068e+3, 1.4358589e+2, -1126588.5, -1511486.5, -56235.535, 0.11652828, 0.14012343, -1118540.5, 414326.1, 0.02831149, 10.003575, 9.998331 
1.7750713e+3, 1.5358333e+2, -961149.56, -1362764.4, -14357.106, 0.049078625, 0.025288446, -960636.94, 474250.78, 0.010105246, 10.0039, 9.998523 
1.7750742e+3, 1.6358112e+2, -938768.25, -1407987.4, -38034.906, -0.008474077, -0.0050147637, -935705.1, 401203.38, 0.0018804772, 10.003807, 9.997579 
1.7750771e+3, 1.7357954e+2, -968405.7, -1393581.0, -55150.402, -0.0075544934, 0.09009742, -961368.5, 277560.03, 0.00008970714, 10.003019, 9.997384 
1.7750801e+3, 1.835778e+2, -887765.75, -1141217.3, -78407.22, 0.004245538, 0.118650645, -865471.0, 275476.38, 0.000000028818846, 10.002197, 9.99884 
1.7750826e+3, 1.9357596e+2, -897370.9, -1073132.4, -54111.676, 0.022395274, 0.02308288, -882047.44, 160915.6, 0.0, 10.001365, 9.999037 
1.775085e+3, 2.035748e+2, -877948.5, -1015877.5, -42696.74, 0.014223964, 0.0086933505, -865801.25, 79171.945, 0.0, 10.000838, 9.999009 
1.775087e+3, 2.1357493e+2, -783167.0, -924793.0, -46152.78, -0.034014337, 0.117695294, -769454.5, 77519.06, 0.0, 10.00084, 9.9989605 
1.775089e+3, 2.2357425e+2, -716004.3, -824746.25, -56074.68, -0.046992715, 0.14946319, -692269.1, 56711.45, 0.0, 10.000557, 9.999111 
1.7750917e+3, 2.3357224e+2, -733116.75, -783696.25, -49963.29, -0.0007190494, 0.03108028, -702407.4, -51409.273, 0.0, 9.999773, 9.999097 
1.775094e+3, 2.4357085e+2, -722389.9, -738274.94, -50802.12, 0.017634008, -0.012357305, -678913.1, -125901.6, 0.0, 9.99922, 9.9990015 
1.7750958e+3, 2.5357068e+2, -649587.3, -659566.4, -62671.92, -0.009032467, 0.06735057, -591706.6, -136690.55, 0.0, 9.999077, 9.998939 
1.7750978e+3, 2.6357028e+2, -574904.06, -550767.06, -70468.02, -0.03404092, 0.13005832, -491341.6, -134319.78, 0.0, 9.998824, 9.999133 
1.7750998e+3, 2.7356955e+2, -543473.94, -484516.7, -91931.59, -0.06251819, 0.1349515, -417453.06, -158423.4, 0.0, 9.998366, 9.999135 
1.7751019e+3, 2.8356892e+2, -470418.13, -282497.7, -93459.54, -0.08960265, 0.11647478, -243931.66, -82896.86, 0.0, 9.997694, 10.0001745 
1.7751043e+3, 2.9356885e+2, -509232.8, -246113.47, -87144.586, -0.09436406, 0.07523111, -219869.06, -156837.28, 0.0, 9.996736, 10.000213 
1.7751083e+3, 3.0356926e+2, -448646.06, -103643.914, 58401.055, -0.06752769, 0.061250623, -94026.06, -94026.06, 0.0, 9.996431, 10.001008 
1.7751138e+3, 3.1356952e+2, -362084.06, -54029.45, -77.76405, -0.08308279, -0.025681544, -54029.43, -54029.43, 0.0, 9.997002, 10.001067 
1.7850676e+3, 1.2358553e+2, -1179836.1, -1744562.8, 110814.01, 0.04963479, -0.079683244, -1158869.9, 569991.6, 0.086926095, 10.005373, 9.997219 
1.7850694e+3, 1.335842e+2, -1220735.0, -1786555.6, -73356.87, 0.07074026, 0.10869824, -1211379.3, 419500.8, 0.05769365, 10.004501, 9.996669 
1.7850713e+3, 1.435812e+2, -1101459.8, -1503180.4, 7383.088, 0.0684427, 0.07612096, -1101324.1, 431587.94, 0.030258426, 10.003783, 9.998287 
1.7850748e+3, 1.5357943e+2, -1035262.06, -1399738.1, 1090.2107, 0.035699315, 0.042076346, -1035258.75, 399668.56, 0.0109521225, 10.003397, 9.998507 
1.7850776e+3, 1.6357768e+2, -1031782.3, -1420549.8, -50319.38, -0.0049710833, 0.046909872, -1025374.94, 311569.34, 0.0020959692, 10.00303, 9.997866 
1.78508e+3, 1.7357598e+2, -991043.25, -1367044.8, -13735.916, -0.013371947, 0.097301856, -990542.1, 248422.08, 0.000105867584, 10.002705, 9.997717 
1.7850822e+3, 1.835743e+2, -868164.5, -1123013.1, -19655.75, -0.011075116, 0.109567985, -866657.4, 274324.47, 0.0000000562377, 10.002298, 9.998916 
1.7850839e+3, 1.9357283e+2, -836690.3, -1040489.44, -43548.434, -0.0069789477, 0.048082046, -827774.75, 215219.55, 0.0, 10.00177, 9.9990635 
1.7850856e+3, 2.0357177e+2, -829643.1, -1000608.1, -46908.914, -0.011561337, 0.042186134, -817618.1, 127386.12, 0.0, 10.001205, 9.998937 
1.7850876e+3, 2.1357146e+2, -827279.1, -956528.8, -46411.3, -0.026986996, 0.117615014, -812340.25, 34668.957, 0.0, 10.000583, 9.998867 
1.7850897e+3, 2.2357072e+2, -782913.94, -853470.0, -63682.62, -0.021490313, 0.14748956, -745390.75, 3626.4177, 0.0, 10.000083, 9.999142 
1.7850916e+3, 2.3356928e+2, -725188.3, -774272.56, -71824.78, 0.01975373, 0.08031375, -673828.44, -22798.951, 0.0, 9.999804, 9.999147 
1.7850937e+3, 2.4356799e+2, -686593.56, -719779.3, -63056.184, 0.036887508, 0.047223877, -637983.6, -84942.46, 0.0, 9.999459, 9.999014 
1.785095e+3, 2.5356722e+2, -662754.25, -665216.1, -53697.336, 0.011550406, 0.06638957, -610273.75, -155223.64, 0.0, 9.998984, 9.998944 
1.7850965e+3, 2.6356646e+2, -618944.44, -575889.56, -35808.348, -0.022936387, 0.09252509, -555635.8, -198576.94, 0.0, 9.998538, 9.999099 
1.785098e+3, 2.7356577e+2, -576588.9, -506754.88, -23188.58, -0.06648161, 0.106709264, -499756.4, -240689.47, 0.0, 9.998164, 9.999081 
1.7850998e+3, 2.8356534e+2, -459364.9, -307971.47, -22160.482, -0.069774486, 0.12219209, -304794.34, -143723.11, 0.0, 9.997901, 9.999901 
1.7851022e+3, 2.9356563e+2, -382452.34, -215960.98, -64177.285, -0.016042892, 0.14786123, -194094.5, -131028.484, 0.0, 9.997739, 9.999937 
1.7851044e+3, 3.0356544e+2, -353389.0, -3968.6807, 30608.627, -0.10219096, 0.06504401, -1307.6818, -1307.6818, 0.0, 9.996853, 10.00149 
1.7851096e+3, 3.135665e+2, -636001.75, -126838.74, -92256.81, -0.08921744, 0.0032770687, -110637.93, -110637.93, 0.0, 9.994869, 10.001593 
1.7950723e+3, 1.2358371e+2, -1157102.6, -1681527.6, 75897.09, -0.017938519, 0.10496527, -1146339.4, 582545.44, 0.09185927, 10.005342, 9.997686 
1.7950736e+3, 1.3357997e+2, -1189279.1, -1714861.8, -103150.625, 0.05025243, 0.0040394966, -1169759.8, 461159.84, 0.06117984, 10.004503, 9.997165 
1.7950742e+3, 1.435759e+2, -1138743.5, -1582105.3, -10512.775, -0.019914595, -0.13923185, -1138494.3, 394465.44, 0.032299943, 10.003789, 9.997738 
1.795078e+3, 1.5357596e+2, -1086548.0, -1505091.5, -11889.79, 0.030703155, 0.079863414, -1086210.5, 348752.6, 0.011841973, 10.00339, 9.997785 
1.795081e+3, 1.6357529e+2, -974106.3, -1297711.4, -63072.84, 0.035668567, 0.19569235, -962247.56, 374724.28, 0.0023264778, 10.003016, 9.998717 
1.7950828e+3, 1.7357326e+2, -914537.1, -1206589.3, -24964.646, 0.010615488, 0.10467596, -912418.56, 326572.03, 0.00012352158, 10.002697, 9.998822 
1.7950843e+3, 1.8357164e+2, -893431.3, -1174537.8, -38928.504, -0.018138096, 0.07264166, -888139.94, 252866.52, 0.000000085167756, 10.002292, 9.998566 
1.795085e+3, 1.9357081e+2, -878521.7, -1127222.8, -62092.527, -0.06560348, 0.13449685, -863881.06, 179135.25, 0.0, 10.001767, 9.99847 
1.7950863e+3, 2.0356967e+2, -838422.5, -1018042.25, -69477.41, -0.075741746, 0.1614873, -814685.4, 130343.46, 0.0, 10.001201, 9.99882 
1.7950882e+3, 2.1356812e+2, -831006.5, -963519.56, -67549.305, -0.018729981, 0.11527332, -802643.6, 44401.098, 0.0, 10.000578, 9.998823 
1.7950901e+3, 2.2356698e+2, -789829.1, -867492.5, -75225.36, 0.022106396, 0.11397074, -744004.1, 5052.18, 0.0, 10.00008, 9.999047 
1.7950916e+3, 2.335667e+2, -733107.25, -791146.94, -79926.13, 0.037419204, 0.17247538, -677095.7, -26035.92, 0.0, 9.999804, 9.999032 
1.795093e+3, 2.4356596e+2, -669467.2, -684353.4, -79033.02, 0.032494318, 0.18837595, -597527.56, -44461.004, 0.0, 9.999458, 9.999258 
1.7950939e+3, 2.5356457e+2, -640704.4, -620672.0, -69653.62, -0.011497647, 0.1173282, -560318.1, -105240.055, 0.0, 9.998988, 9.9992485 
1.7950949e+3, 2.6356345e+2, -587866.1, -514337.94, -49612.98, -0.042935085, 0.070228696, -489352.16, -132264.67, 0.0, 9.9985485, 9.999517 
1.7950965e+3, 2.7356285e+2, -545792.06, -445960.16, -34291.887, -0.036059648, 0.050859313, -435315.94, -176223.16, 0.0, 9.998175, 9.999495 
1.7950986e+3, 2.8356236e+2, -510483.2, -413548.7, -28937.209, 0.017395837, 0.06963058, -405567.4, -244469.36, 0.0, 9.997898, 9.999176 
1.7951012e+3, 2.9356238e+2, -443812.16, -342601.34, -68980.7, 0.10127062, 0.15479176, -307654.16, -244553.69, 0.0, 9.997734, 9.999069 
1.7951009e+3, 3.0356166e+2, -371308.53, -41462.9, -35121.633, -0.15163401, 0.08267211, -37764.645, -37764.645, 0.0, 9.996852, 10.001233 
1.7951038e+3, 3.1356335e+2, -582651.44, -24323.86, -128287.72, -0.15428658, 0.099378616, 3742.1663, 3742.1663, 0.0, 9.994903, 10.002282 
1.8050773e+3, 1.2358093e+2, -1256407.6, -1687863.3, 79417.89, 0.0068408456, 0.16545369, -1242253.5, 486663.38, 0.09715318, 10.00442, 9.998083 
1.8050788e+3, 1.3357753e+2, -1073102.1, -1593808.8, -81120.82, 0.0907344, 0.04463143, -1060757.0, 570188.0, 0.064887814, 10.0051, 9.997718 
1.8050781e+3, 1.4357334e+2, -986406.2, -1522286.3, -1865.4946, -0.07292244, -0.13687891, -986399.7, 546585.06, 0.034456737, 10.004951, 9.99759 
1.8050814e+3, 1.5357314e+2, -1093480.1, -1537713.5, 24345.254, 0.007280028, 0.08150634, -1092150.0, 342841.75, 0.0127833225, 10.003472, 9.997521 
1.8050838e+3, 1.6357237e+2, -1039753.94, -1291815.1, -801.8389, 0.033277817, 0.19001368, -1039751.4, 297250.0, 0.0025744103, 10.002408, 9.999048 
1.8050854e+3, 1.735706e+2, -969631.9, -1185225.8, -10856.914, 0.01392261, 0.08231135, -969086.5, 269929.47, 0.00014305822, 10.002115, 9.9992485 
1.8050866e+3, 1.8356922e+2, -966442.6, -1220069.4, -47689.383, -0.010342891, 0.054742187, -957772.0, 183257.06, 0.00000010953618, 10.001837, 9.998471 
1.8050867e+3, 1.9356865e+2, -920812.44, -1167921.3, -43270.08, -0.058310296, 0.15856092, -913454.7, 129583.59, 0.0, 10.001567, 9.998287 
1.8050875e+3, 2.035675e+2, -843568.06, -1026129.56, -36332.43, -0.0695886, 0.1985646, -836603.1, 108448.48, 0.0, 10.001192, 9.998768 
1.805089e+3, 2.1356554e+2, -823233.25, -962636.5, -37375.707, -0.01615273, 0.11434133, -813844.7, 33226.29, 0.0, 10.000647, 9.998794 
1.8050903e+3, 2.2356427e+2, -767980.06, -857049.6, -28782.877, 0.01781819, 0.099192895, -759488.4, -10404.495, 0.0, 10.00023, 9.999047 
1.8050915e+3, 2.3356429e+2, -700010.25, -774420.2, -24099.594, 0.021852963, 0.1888576, -692886.94, -41802.117, 0.0, 10.000029, 9.999039 
1.8050924e+3, 2.4356371e+2, -621112.75, -659551.0, -29240.605, 0.017566176, 0.2196221, -605340.6, -52250.37, 0.0, 9.999784, 9.999271 
1.8050931e+3, 2.5356218e+2, -569679.06, -585245.1, -43481.76, -0.009041929, 0.13403346, -533289.25, -78186.55, 0.0, 9.99947, 9.99926 
1.8050937e+3, 2.6356104e+2, -520540.63, -483436.84, -53539.363, -0.03598563, 0.0848676, -445326.28, -88214.04, 0.0, 9.999015, 9.999506 
1.8050948e+3, 2.7356058e+2, -528422.25, -440011.38, -73439.484, -0.03560953, 0.08209293, -398499.38, -139383.03, 0.0, 9.998304, 9.999473 
1.8050966e+3, 2.8356004e+2, -545785.4, -429700.06, -55614.58, 0.036332745, 0.09639943, -407356.6, -246234.28, 0.0, 9.997651, 9.999185 
1.8050991e+3, 2.9355976e+2, -542211.8, -383521.5, -30519.717, 0.156833, 0.14917883, -377854.28, -314726.75, 0.0, 9.99703, 9.999128 
1.8050973e+3, 3.0355915e+2, -475271.34, -144302.19, 10241.523, -0.16317867, 0.10409198, -143985.58, -143985.58, 0.0, 9.996368, 10.000759 
1.8050997e+3, 3.1356123e+2, -434227.94, 32350.889, -70206.28, -0.11275288, 0.21542296, 42685.926, 42685.926, 0.0, 9.995986, 10.00215 
1.8150829e+3, 1.23577304e+2, -1240512.9, -1647489.0, 73089.555, 0.10988916, 0.11087129, -1227784.6, 501172.22, 0.10286359, 10.004414, 9.998398 
1.8150848e+3, 1.3357684e+2, -1038505.44, -1513977.4, -55275.492, 0.18367077, 0.22650139, -1032164.0, 598792.4, 0.06885933, 10.005084, 9.998316 
1.8150827e+3, 1.4357342e+2, -974609.2, -1490029.3, -47798.89, -0.10077847, 0.07654016, -970213.94, 562773.7, 0.03675189, 10.004928, 9.997832 
1.8150844e+3, 1.5357094e+2, -1082047.0, -1511786.8, -30668.293, -0.037947543, 0.04835849, -1079869.4, 355143.94, 0.013785389, 10.003468, 9.997702 
1.8150857e+3, 1.6356899e+2, -1051685.9, -1318350.8, -18210.582, -0.016466819, 0.035707206, -1050448.0, 286584.6, 0.002842686, 10.002413, 9.998865 
1.8150873e+3, 1.7356801e+2, -985962.9, -1220282.5, -20117.0, -0.0074258638, 0.030990858, -984248.3, 254792.25, 0.00016504708, 10.002118, 9.999007 
1.8150885e+3, 1.8356708e+2, -956876.7, -1199193.5, -57915.305, 0.0060531734, 0.056666024, -943746.1, 197303.63, 0.00000012908751, 10.001831, 9.998618 
1.8150891e+3, 1.9356634e+2, -906361.56, -1137790.3, -51787.742, 0.009505842, 0.12268261, -895301.44, 147758.83, 0.0, 10.001565, 9.998495 
1.8150894e+3, 2.0356524e+2, -844252.2, -1027321.6, -55314.023, 0.00034159925, 0.15533778, -828837.2, 116235.9, 0.0, 10.001189, 9.998762 
1.8150894e+3, 2.1356367e+2, -826299.3, -969540.56, -56179.75, -0.024316503, 0.113995686, -806894.2, 40194.69, 0.0, 10.000647, 9.998748 
1.81509e+3, 2.2356245e+2, -760976.0, -841484.5, -37697.96, -0.037796948, 0.1040946, -746080.06, 3020.7622, 0.0, 10.000225, 9.999157 
1.8150909e+3, 2.33562e+2, -691168.9, -755749.8, -29299.21, -0.028516412, 0.13288328, -679857.5, -28752.363, 0.0, 10.000026, 9.999169 
1.815092e+3, 2.435612e+2, -636749.44, -691863.1, -39876.633, -0.010738394, 0.14255631, -615834.4, -62721.363, 0.0, 9.999782, 9.999052 
1.8150927e+3, 2.5355998e+2, -590659.5, -628113.8, -52983.863, 0.010429738, 0.11525097, -553190.6, -98065.55, 0.0, 9.999465, 9.998969 
1.8150932e+3, 2.6355916e+2, -551605.3, -546183.44, -77690.445, -0.010076436, 0.13568959, -471156.66, -114022.86, 0.0, 9.999007, 9.999079 
1.8150927e+3, 2.7355897e+2, -560058.94, -505754.1, -97962.42, -0.06932307, 0.20306367, -431250.78, -172112.92, 0.0, 9.998303, 9.9990225 
1.8150938e+3, 2.835583e+2, -491826.75, -321956.97, -76866.88, -0.015358988, 0.20175464, -292338.6, -131194.06, 0.0, 9.997666, 9.99992 
1.8150961e+3, 2.9355758e+2, -468650.0, -240432.9, -51524.324, 0.14597005, 0.11859968, -229339.55, -166190.39, 0.0, 9.997067, 10.000095 
1.815094e+3, 3.0355775e+2, -527955.1, -254023.4, -12505.791, -0.14202105, 0.12612319, -253453.67, -253453.67, 0.0, 9.996373, 10.000001 
1.8150957e+3, 3.1355786e+2, -506951.63, -114425.47, -5789.7637, -0.11864297, 0.14620861, -114340.086, -114340.086, 0.0, 9.995963, 10.001154 
1.8250877e+3, 1.2357505e+2, -1119353.8, -1619633.1, 106917.984, 0.09349527, 0.08512511, -1097461.6, 631518.75, 0.109022126, 10.0055275, 9.998079 
1.8250902e+3, 1.3357534e+2, -1134322.9, -1567508.6, -34302.6, 0.23504378, 0.2836878, -1131623.4, 499351.94, 0.07312098, 10.00443, 9.99824 
1.8250872e+3, 1.4357233e+2, -1128804.1, -1521348.8, -66056.61, -0.074733175, 0.16381627, -1117986.4, 415016.44, 0.039202247, 10.003648, 9.998224 
1.825088e+3, 1.5356962e+2, -1034704.8, -1435324.1, -32930.934, -0.029984968, 0.06745752, -1032015.94, 403011.63, 0.0148552, 10.003573, 9.998174 
1.8250886e+3, 1.6356757e+2, -937733.94, -1286829.0, 1284.498, -0.025474513, 0.025692917, -937729.2, 399317.47, 0.0031336718, 10.003303, 9.998652 
1.8250893e+3, 1.735667e+2, -931025.2, -1230752.6, -6883.09, -0.030869294, 0.06436302, -930867.2, 308187.84, 0.00019006866, 10.002657, 9.998674 
1.8250902e+3, 1.8356566e+2, -914486.2, -1162419.3, -45021.055, -0.012667544, 0.09200531, -906564.1, 234501.48, 0.00000015151502, 10.002055, 9.998761 
1.8250906e+3, 1.9356444e+2, -894604.3, -1107610.8, -40472.465, 0.023823755, 0.089334294, -887173.5, 155905.36, 0.0, 10.001543, 9.998712 
1.8250908e+3, 2.0356333e+2, -843272.56, -1009965.7, -37839.703, 0.028679634, 0.101813644, -835085.06, 110005.71, 0.0, 10.001124, 9.998912 
1.8250903e+3, 2.1356255e+2, -786370.8, -934196.6, -26931.51, -0.015060252, 0.1260672, -781617.2, 65481.992, 0.0, 10.000854, 9.998889 
1.8250903e+3, 2.235616e+2, -725046.7, -834050.6, -3011.5996, -0.041855387, 0.13680267, -724963.56, 24145.277, 0.0, 10.000515, 9.999068 
1.825091e+3, 2.3356041e+2, -696668.5, -772080.94, -15437.815, -0.03677869, 0.1059106, -693630.56, -42510.438, 0.0, 10.000049, 9.999044 
1.8250915e+3, 2.4355936e+2, -675562.44, -709303.8, -33832.535, -0.018215233, 0.097421065, -654627.56, -101496.77, 0.0, 9.99951, 9.999063 
1.825092e+3, 2.5355873e+2, -680813.6, -667724.06, -25834.465, 0.013974265, 0.1240749, -647618.25, -192479.92, 0.0, 9.99883, 9.999003 
1.825092e+3, 2.6355818e+2, -644656.6, -594047.56, -19069.22, 0.0036531896, 0.16962701, -587666.9, -230521.64, 0.0, 9.9983835, 9.99905 
1.8250912e+3, 2.735577e+2, -561837.44, -511391.94, -10716.129, -0.05166071, 0.21312083, -509209.9, -250057.89, 0.0, 9.998313, 9.998979 
1.8250915e+3, 2.835569e+2, -425978.03, -300405.22, 801.40564, -0.021078361, 0.20684746, -300400.1, -139240.08, 0.0, 9.998162, 9.999828 
1.8250929e+3, 2.9355633e+2, -363585.78, -198806.08, -53793.664, 0.086111195, 0.14786536, -182799.56, -119635.83, 0.0, 9.9978285, 10.000014 
1.8250906e+3, 3.035568e+2, -448032.34, -196679.9, -52929.063, -0.13217226, 0.1802883, -185988.98, -185988.98, 0.0, 9.996844, 10.000166 
1.825092e+3, 3.13556e+2, -640493.5, -167472.4, 94117.36, -0.03982922, 0.09416702, -149433.72, -149433.72, 0.0, 9.994993, 10.001261 
1.8350917e+3, 1.2357414e+2, -1184416.4, -1745074.6, 31872.2, -0.06069604, 0.08536749, -1182610.4, 546377.4, 0.115628414, 10.005514, 9.997134 
1.8350945e+3, 1.3357306e+2, -1183693.1, -1669871.3, -70890.18, 0.24095263, 0.22278017, -1173567.5, 457433.34, 0.077676915, 10.004436, 9.997506 
1.8350917e+3, 1.4357015e+2, -1093951.4, -1448865.0, -75807.68, -0.0062960926, 0.13380753, -1078437.4, 454591.97, 0.04181446, 10.003654, 9.998742 
1.835092e+3, 1.5356918e+2, -983963.6, -1329282.6, -33401.176, 0.022791743, 0.1376096, -980762.56, 454272.16, 0.01599722, 10.003572, 9.998915 
1.835092e+3, 1.6356803e+2, -956822.8, -1323953.3, -20208.25, -0.0019825762, 0.1549151, -955713.8, 381330.3, 0.0034491862, 10.003291, 9.998403 
1.8350919e+3, 1.7356661e+2, -960983.2, -1293058.9, -30193.914, -0.059979115, 0.17836338, -958260.1, 280799.94, 0.00021871291, 10.002657, 9.998248 
1.8350917e+3, 1.8356492e+2, -905956.6, -1145053.5, -64584.586, -0.070920885, 0.15947174, -889626.44, 251450.7, 0.00000018976193, 10.002054, 9.998882 
1.8350919e+3, 1.9356291e+2, -879471.2, -1076989.4, -57783.035, -0.01808562, 0.05811058, -863808.94, 179285.69, 0.0, 10.001544, 9.998922 
1.8350919e+3, 2.0356175e+2, -822702.6, -965972.06, -48687.08, 0.011901328, 0.039533105, -807723.5, 137381.6, 0.0, 10.001118, 9.999218 
1.8350914e+3, 2.1356213e+2, -764502.06, -888081.56, -34869.348, 0.0071968697, 0.14915514, -755342.25, 91760.2, 0.0, 10.000849, 9.999209 
1.8350911e+3, 2.2356157e+2, -747030.5, -877492.4, -19115.855, -0.00043013802, 0.1932963, -744287.25, 4821.7314, 0.0, 10.0005045, 9.9987755 
1.8350913e+3, 2.3355944e+2, -725783.5, -831218.6, -30723.613, -0.010310776, 0.106954776, -717484.0, -66353.41, 0.0, 10.000041, 9.998644 
1.8350911e+3, 2.4355814e+2, -659812.56, -674326.6, -57389.59, -0.011407204, 0.08467153, -609223.0, -56078.64, 0.0, 9.9995, 9.999309 
1.8350907e+3, 2.535583e+2, -655248.1, -615846.75, -49020.813, -0.0024056395, 0.1606539, -582716.06, -127572.766, 0.0, 9.998835, 9.999358 
1.8350904e+3, 2.635579e+2, -619194.9, -544413.25, -23980.102, 0.001970379, 0.18635648, -537384.25, -180236.63, 0.0, 9.998394, 9.999387 
1.8350902e+3, 2.7355662e+2, -536998.75, -462522.78, -11230.351, 0.010337001, 0.111780636, -460866.2, -201705.94, 0.0, 9.998322, 9.999311 
1.83509e+3, 2.835557e+2, -489778.84, -432716.88, -10654.921, 0.01095463, 0.11190835, -430792.25, -269622.03, 0.0, 9.998161, 9.99892 
1.8350896e+3, 2.935559e+2, -442072.97, -361327.63, -66064.08, -0.033827297, 0.23880611, -324276.7, -261104.5, 0.0, 9.997827, 9.9988985 
1.8350875e+3, 3.035562e+2, -373641.75, -41738.035, -118196.96, -0.13197403, 0.27628532, -3948.5376, -3948.5376, 0.0, 9.9968405, 10.001233 
1.8350872e+3, 3.135565e+2, -582538.0, -56520.465, 46992.39, -0.009239723, 0.15748772, -52355.324, -52355.324, 0.0, 9.995024, 10.002013 
1.8450978e+3, 1.23574816e+2, -1126162.0, -1771716.1, 53886.59, -0.042992253, 0.120028414, -1121694.8, 607286.8, 0.12265732, 10.006267, 9.996591 
1.8450995e+3, 1.3357271e+2, -1026140.56, -1632011.8, 10059.172, 0.2072592, 0.1972241, -1025973.6, 605032.6, 0.08251669, 10.005835, 9.997085 
1.8450958e+3, 1.4356978e+2, -899680.7, -1363056.1, 6528.862, -0.040802214, 0.13225952, -899588.7, 633447.2, 0.044589687, 10.005099, 9.998663 
1.845096e+3, 1.5356915e+2, -935493.44, -1308524.5, -4245.1167, 0.047989372, 0.17385408, -935445.2, 499592.63, 0.017215628, 10.003928, 9.998889 
1.8450958e+3, 1.635681e+2, -998657.7, -1350054.5, -12217.024, 0.046481937, 0.20414114, -998233.44, 338812.78, 0.0037916328, 10.003032, 9.998347 
1.8450944e+3, 1.7356633e+2, -970872.94, -1304747.6, 2454.4468, -0.05815584, 0.19965458, -970854.94, 268210.66, 0.00025177147, 10.00262, 9.998184 
1.8450937e+3, 1.8356456e+2, -878051.5, -1112662.0, -13822.343, -0.09369132, 0.16988437, -877239.94, 263843.03, 0.00000025167606, 10.002166, 9.999049 
1.8450934e+3, 1.9356294e+2, -852833.44, -1041032.25, -9427.724, -0.02751838, 0.08731102, -852362.3, 190733.3, 0.0, 10.001629, 9.999127 
1.8450929e+3, 2.0356186e+2, -837437.25, -984234.44, -9746.814, 0.015538866, 0.068372756, -836792.94, 108311.85, 0.0, 10.001066, 9.999117 
1.8450923e+3, 2.1356177e+2, -832303.4, -937688.8, -32220.041, 0.021796305, 0.14592852, -823233.25, 23873.66, 0.0, 10.000459, 9.999055 
1.8450916e+3, 2.235611e+2, -819009.06, -887468.6, -19768.357, 0.018823665, 0.17852305, -813710.8, -64596.38, 0.0, 9.999905, 9.998996 
1.8450911e+3, 2.335595e+2, -795179.94, -833456.6, 15989.56, 0.0021187607, 0.11818458, -789379.56, -138249.16, 0.0, 9.999432, 9.998921 
1.8450904e+3, 2.4355847e+2, -709009.1, -703011.75, 16773.367, -0.011268001, 0.10957711, -688971.1, -135829.7, 0.0, 9.999186, 9.999262 
1.8450896e+3, 2.5355843e+2, -592669.7, -596247.44, -8592.101, -0.020765914, 0.17257696, -585682.2, -130539.01, 0.0, 9.999312, 9.99926 
1.8450889e+3, 2.635579e+2, -513638.28, -490639.72, -16654.475, -0.017369252, 0.19199505, -481900.3, -124751.32, 0.0, 9.999108, 9.999412 
1.8450885e+3, 2.735568e+2, -534398.44, -456468.72, -27370.592, 0.01115117, 0.1315418, -447816.25, -188656.38, 0.0, 9.998321, 9.999352 
1.8450879e+3, 2.8355607e+2, -579196.7, -473688.56, -12579.838, 0.009971522, 0.14502032, -472209.4, -311041.03, 0.0, 9.9975395, 9.998938 
1.8450867e+3, 2.9355612e+2, -601079.4, -438278.66, 8123.0645, -0.04700583, 0.2605441, -437874.38, -374702.7, 0.0, 9.996739, 9.998893 
1.8450847e+3, 3.0355588e+2, -478861.16, -89360.59, -44827.39, -0.06256562, 0.24321121, -84268.02, -84268.02, 0.0, 9.996111, 10.001255 
1.8450823e+3, 3.1355676e+2, -443892.6, 21909.506, 14261.787, -0.05348146, 0.17529997, 22345.76, 22345.76, 0.0, 9.995924, 10.002118 
1.8551056e+3, 1.23577066e+2, -1141988.6, -1792094.4, 567.59827, 0.10826307, 0.19155782, -1141988.1, 586973.8, 0.13006422, 10.006245, 9.996457 
1.8551046e+3, 1.335742e+2, -1037749.25, -1647727.5, -2412.7224, 0.13030913, 0.20238514, -1037739.7, 593252.7, 0.08762307, 10.00582, 9.9969845 
1.8550994e+3, 1.435711e+2, -950055.2, -1459643.8, -34480.324, -0.18254599, 0.15340504, -947732.75, 585290.8, 0.047529094, 10.005077, 9.997982 
1.8551e+3, 1.5356952e+2, -990915.75, -1421973.9, -46564.42, 0.040549062, 0.17768253, -985943.06, 449093.88, 0.018517248, 10.003926, 9.998098 
1.8550994e+3, 1.6356778e+2, -988714.25, -1330426.1, -30968.725, 0.11229088, 0.17975436, -985930.25, 351122.4, 0.0041650403, 10.003035, 9.998482 
1.8550973e+3, 1.7356585e+2, -950466.0, -1262622.4, -10605.902, -0.030603327, 0.13227463, -950106.06, 288965.5, 0.00029041685, 10.002619, 9.998475 
1.8550958e+3, 1.8356457e+2, -864887.25, -1083906.8, -33010.266, -0.088089205, 0.12465939, -860020.2, 281063.4, 0.0000003514084, 10.002158, 9.999251 
1.8550952e+3, 1.9356444e+2, -839663.5, -1014523.3, -28009.387, -0.009730627, 0.172549, -835286.44, 207796.38, 0.0, 10.00163, 9.99931 
1.8550943e+3, 2.0356354e+2, -872320.3, -1057502.1, -32139.521, 0.034679733, 0.1838685, -866900.9, 78189.984, 0.0, 10.001068, 9.998613 
1.8550928e+3, 2.135614e+2, -875901.3, -1028676.6, -52711.69, 0.023775896, 0.11777862, -859479.5, -12366.546, 0.0, 10.000459, 9.998432 
1.8550915e+3, 2.2356015e+2, -769166.25, -783217.4, -37425.58, 0.011490218, 0.09579322, -738112.56, 11012.974, 0.0, 9.999901, 9.999714 
1.8550904e+3, 2.335605e+2, -729095.94, -697292.44, 324.00162, -0.0024763588, 0.13783458, -697289.1, -46168.54, 0.0, 9.999434, 9.999856 
1.8550897e+3, 2.4356022e+2, -733118.2, -753505.2, 18658.316, -0.02192741, 0.16821796, -722050.44, -168927.03, 0.0, 9.9991865, 9.998915 
1.8550886e+3, 2.5355893e+2, -631811.8, -677499.75, -1865.3369, -0.047068443, 0.160423, -631735.75, -176596.75, 0.0, 9.9993105, 9.998704 
1.8550876e+3, 2.635581e+2, -534553.5, -532647.4, -41499.953, -0.057611827, 0.1876069, -492089.56, -134939.33, 0.0, 9.999102, 9.999127 
1.8550862e+3, 2.735581e+2, -551975.2, -492207.63, -54646.17, -0.05079281, 0.2702108, -459807.8, -200655.9, 0.0, 9.998317, 9.999109 
1.855085e+3, 2.8355783e+2, -515191.16, -341794.8, -43109.098, -0.029348865, 0.3025555, -331668.56, -170512.8, 0.0, 9.99754, 9.999845 
1.8550843e+3, 2.9355693e+2, -525162.5, -283436.16, -23470.488, 0.03357845, 0.21137322, -281178.38, -218014.4, 0.0, 9.996747, 9.999954 
1.8550822e+3, 3.0355564e+2, -546828.25, -233297.52, -55690.203, 0.07272577, 0.075550616, -223699.5, -223699.5, 0.0, 9.996123, 10.00026 
1.8550779e+3, 3.135587e+2, -468228.8, -34072.59, -41087.88, -0.08535972, 0.3503124, -30218.314, -30218.314, 0.0, 9.995948, 10.001721 
1.865112e+3, 1.2357955e+2, -1211924.5, -1787869.3, -23245.943, 0.16807882, 0.26290002, -1210987.9, 517953.38, 0.13778752, 10.005553, 9.99682 
1.8651098e+3, 1.3357641e+2, -1113582.1, -1654619.5, 23375.486, 0.11548215, 0.2153321, -1112574.1, 518398.03, 0.0929738, 10.005136, 9.997269 
1.8651043e+3, 1.4357348e+2, -1031637.25, -1536438.8, 5875.485, -0.18043466, 0.18505986, -1031568.9, 501431.8, 0.050634827, 10.004674, 9.997623 
1.8651037e+3, 1.5357137e+2, -977243.6, -1466602.3, 17024.943, 0.017068507, 0.2021615, -976652.0, 458368.97, 0.019910928, 10.004251, 9.997634 
1.8651025e+3, 1.6356927e+2, -904368.6, -1280719.1, 47754.246, 0.09482907, 0.19241512, -898403.75, 438636.88, 0.0045744055, 10.00358, 9.998561 
1.8651003e+3, 1.7356735e+2, -961071.8, -1249361.9, 56362.273, -0.00023193033, 0.12674399, -950444.44, 288613.4, 0.0003360051, 10.002467, 9.998638 
1.8650983e+3, 1.8356611e+2, -941882.0, -1150959.8, 31348.635, -0.043125153, 0.1258008, -937282.8, 203786.28, 0.00000050835786, 10.001759, 9.998983 
1.865097e+3, 1.9356614e+2, -844785.44, -1054797.1, -771.3456, -0.0064204526, 0.22447476, -844782.56, 198286.27, 0.0, 10.0017605, 9.998969 
1.8650953e+3, 2.0356515e+2, -801239.3, -1018476.8, -20052.781, 0.0134341335, 0.24514219, -799403.8, 145674.52, 0.0, 10.001537, 9.998655 
1.8650933e+3, 2.135625e+2, -802972.94, -982108.1, 7631.8555, 0.00725022, 0.11637054, -802648.4, 44455.145, 0.0, 10.000911, 9.998533 
1.8650915e+3, 2.2356105e+2, -711506.9, -761376.25, 34784.824, -0.0022120983, 0.07323074, -693642.94, 55474.0, 0.0, 10.000323, 9.99966 
1.86509e+3, 2.3356184e+2, -679891.1, -681943.94, -2308.9524, -0.019036807, 0.16679126, -678390.7, -27281.928, 0.0, 9.999811, 9.999778 
1.8650888e+3, 2.4356176e+2, -707965.44, -735684.8, -1452.2216, -0.033337135, 0.21744044, -707889.56, -154779.25, 0.0, 9.999337, 9.998963 
1.8650877e+3, 2.5356022e+2, -685811.6, -696387.7, 22944.818, -0.03738989, 0.17634854, -667553.4, -212425.56, 0.0, 9.998912, 9.998765 
1.8650864e+3, 2.6355922e+2, -637893.5, -579872.2, 673.2832, -0.041275665, 0.18828338, -579864.4, -222724.39, 0.0, 9.998384, 9.999146 
1.8650842e+3, 2.735594e+2, -645486.4, -534647.9, 1785.8551, -0.055586744, 0.28190655, -534619.1, -275477.66, 0.0, 9.997667, 9.999129 
1.8650822e+3, 2.8355932e+2, -547574.94, -305052.75, 17818.559, -0.038797114, 0.31366992, -303750.56, -142607.3, 0.0, 9.997096, 10.00031 
1.8650812e+3, 2.9355887e+2, -489604.03, -207247.98, -4933.1704, 0.053286772, 0.21516131, -207161.83, -144016.33, 0.0, 9.99674, 10.000479 
1.8650785e+3, 3.0355808e+2, -531086.7, -273073.7, -24959.502, 0.07376217, 0.11909567, -270681.34, -270681.34, 0.0, 9.996433, 9.999838 
1.8650736e+3, 3.1356066e+2, -435010.0, -49080.72, 8040.275, -0.12375399, 0.40223095, -48913.285, -48913.285, 0.0, 9.996311, 10.001441 
1.8751171e+3, 1.2358209e+2, -1171358.3, -1681654.9, -60342.645, 0.10454381, 0.31555337, -1164319.9, 564600.9, 0.14576687, 10.005535, 9.997613 
1.8751153e+3, 1.3357931e+2, -1079238.3, -1572285.9, 9041.15, 0.15235366, 0.24058953, -1079072.5, 551872.6, 0.09855212, 10.005125, 9.997881 
1.8751103e+3, 1.4357695e+2, -1037791.7, -1542962.1, -11609.405, -0.050446644, 0.23369151, -1037525.06, 495442.13, 0.05391348, 10.004658, 9.997587 
1.8751076e+3, 1.5357466e+2, -988582.75, -1487334.0, 3201.262, -0.026282314, 0.2452444, -988562.2, 446428.4, 0.021406949, 10.004241, 9.997498 
1.875105e+3, 1.635725e+2, -906133.6, -1281688.5, 8998.106, -0.008085309, 0.23596722, -905918.2, 431093.0, 0.0050250688, 10.003569, 9.998561 
1.875103e+3, 1.7357068e+2, -959828.44, -1247190.9, 15024.264, 0.02867259, 0.17921697, -959045.06, 279980.53, 0.00038988978, 10.002467, 9.998654 
1.8751009e+3, 1.8356909e+2, -991799.75, -1255572.3, 25601.768, 0.0342389, 0.17401181, -989337.8, 151702.36, 0.000000733184, 10.001761, 9.998264 
1.8750985e+3, 1.9356802e+2, -904613.8, -1178659.4, 1675.3678, -0.021347456, 0.24598566, -904603.56, 138450.34, 0.0, 10.001758, 9.998121 
1.8750963e+3, 2.0356667e+2, -762478.0, -936787.06, -39766.535, -0.05098807, 0.254135, -753834.3, 191233.14, 0.0, 10.001531, 9.99922 
1.8750937e+3, 2.1356495e+2, -748133.3, -867406.1, -14238.149, -0.030966876, 0.1394754, -746457.2, 100622.48, 0.0, 10.000906, 9.999324 
1.8750915e+3, 2.2356372e+2, -768351.56, -878711.0, 15119.493, -0.026450317, 0.10805348, -766317.6, -17227.791, 0.0, 10.000319, 9.998857 
1.8750894e+3, 2.335635e+2, -755375.7, -838102.4, -19243.023, -0.052224472, 0.20543541, -751118.6, -100023.07, 0.0, 9.999807, 9.998709 
1.8750879e+3, 2.4356298e+2, -678803.2, -674049.3, -16914.215, -0.050378755, 0.25739178, -659345.8, -106243.29, 0.0, 9.999331, 9.999391 
1.8750872e+3, 2.5356212e+2, -639576.75, -601045.2, 9083.129, 0.0020897752, 0.21845068, -599011.3, -143900.8, 0.0, 9.998913, 9.99942 
1.8750855e+3, 2.6356125e+2, -615915.06, -534807.1, -24824.395, 0.024282904, 0.19261108, -527812.44, -170692.98, 0.0, 9.998385, 9.999456 
1.8750823e+3, 2.7356052e+2, -625864.44, -496228.9, -23449.979, -0.011310735, 0.17020553, -492117.4, -232987.92, 0.0, 9.997675, 9.999391 
1.8750796e+3, 2.8356045e+2, -544275.1, -299418.03, 2230.7837, -0.025242478, 0.1846305, -299397.7, -138266.0, 0.0, 9.997101, 10.000346 
1.8750775e+3, 2.9356185e+2, -489758.78, -207734.23, -17131.777, 0.011017288, 0.27514037, -206697.38, -143580.27, 0.0, 9.996739, 10.000477 
1.8750735e+3, 3.0356303e+2, -519257.28, -253031.03, -32374.146, -0.06509498, 0.36622247, -249150.77, -249150.77, 0.0, 9.996448, 9.99997 
1.8750712e+3, 3.13561e+2, -428421.47, -40777.52, -11741.287, 0.00096976454, 0.17942657, -40422.22, -40422.22, 0.0, 9.996337, 10.001485 
1.8851224e+3, 1.2358477e+2, -1116840.8, -1634733.3, -18058.67, 0.06437345, 0.26915365, -1116211.8, 612682.9, 0.15397069, 10.005927, 9.997807 
1.8851198e+3, 1.3358249e+2, -1100803.0, -1589229.0, 15127.36, 0.09558993, 0.24899684, -1100334.9, 530580.2, 0.104360834, 10.005025, 9.997803 
1.885115e+3, 1.4358047e+2, -1080528.5, -1558303.5, -18760.074, -0.015985437, 0.27798405, -1079793.0, 453141.38, 0.05737968, 10.004337, 9.997636 
1.8851118e+3, 1.5357803e+2, -1019683.1, -1495646.6, 7251.2793, -0.010189386, 0.26844975, -1019572.7, 415386.72, 0.023016166, 10.003999, 9.997557 
1.8851086e+3, 1.6357583e+2, -916351.56, -1298014.3, 3235.0603, -0.0028064805, 0.25628892, -916324.1, 420656.28, 0.005521796, 10.003548, 9.998459 
1.8851055e+3, 1.7357415e+2, -905049.5, -1235090.8, -5602.0034, 0.019623464, 0.22581333, -904954.44, 334038.88, 0.0004532519, 10.002907, 9.998525 
1.8851027e+3, 1.8357234e+2, -916491.1, -1229698.3, 40749.785, 0.015199373, 0.2115973, -911276.2, 229733.3, 0.0000010252129, 10.002325, 9.99817 
1.8851002e+3, 1.9357048e+2, -896368.2, -1185197.6, 73192.44, -0.041113228, 0.21258433, -878879.44, 164150.67, 0.0, 10.001859, 9.998028 
1.8850975e+3, 2.0356892e+2, -785042.7, -946033.25, 36225.637, -0.061712176, 0.20498109, -777266.9, 167778.45, 0.0, 10.001369, 9.999233 
1.8850948e+3, 2.1356802e+2, -755270.4, -867770.8, 1975.1135, -0.018261217, 0.17108859, -755235.7, 91814.24, 0.0, 10.000846, 9.999351 
1.8850921e+3, 2.2356695e+2, -790145.6, -924066.6, 18317.406, -0.0035852953, 0.16676594, -787685.44, -38626.45, 0.0, 10.000324, 9.998541 
1.8850894e+3, 2.3356569e+2, -779838.5, -891811.3, 32628.271, -0.04166863, 0.1979462, -771024.6, -119949.766, 0.0, 9.999824, 9.998331 
1.8850872e+3, 2.4356471e+2, -688236.2, -665276.25, 52023.973, -0.050381158, 0.21857084, -623480.7, -70394.195, 0.0, 9.999209, 9.99951 
1.8850857e+3, 2.5356433e+2, -700373.94, -608187.4, 42210.445, -0.0037842486, 0.20929152, -591780.1, -136690.48, 0.0, 9.998402, 9.999617 
1.8850836e+3, 2.635639e+2, -671942.7, -528792.44, -3129.296, 0.017043775, 0.20146471, -528724.06, -171629.81, 0.0, 9.99786, 9.99975 
1.8850799e+3, 2.7356344e+2, -594831.0, -446098.34, 1190.2861, -0.016071789, 0.17953786, -446088.8, -186988.25, 0.0, 9.997739, 9.999703 
1.8850769e+3, 2.8356352e+2, -498518.56, -287564.56, 25927.898, -0.02442278, 0.1943734, -284424.56, -123323.39, 0.0, 9.997462, 10.000253 
1.8850745e+3, 2.9356474e+2, -467543.4, -216187.23, -4555.269, 0.03445483, 0.27902618, -216104.72, -153015.44, 0.0, 9.996978, 10.000302 
1.8850696e+3, 3.0356625e+2, -491700.56, -174913.86, -21089.287, -0.095506765, 0.3908947, -173516.06, -173516.06, 0.0, 9.996358, 10.000551 
1.8850674e+3, 3.1356397e+2, -573410.56, -77092.195, 49940.152, 0.03856406, 0.111920446, -72117.03, -72117.03, 0.0, 9.995206, 10.001776 
1.8951277e+3, 1.2358752e+2, -1151767.3, -1689316.0, -47574.21, 0.0105207255, 0.12004453, -1147589.4, 581274.56, 0.16240755, 10.005896, 9.997383 
1.8951234e+3, 1.3358589e+2, -1151676.0, -1691433.5, -13122.527, -0.057570245, 0.23568135, -1151357.3, 479524.97, 0.11042488, 10.005011, 9.997075 
1.8951188e+3, 1.4358395e+2, -1077896.9, -1545322.5, -33441.043, -0.08058561, 0.3099076, -1075516.6, 457386.38, 0.06105455, 10.004321, 9.997734 
1.8951166e+3, 1.5358147e+2, -1006257.3, -1464278.8, -3378.792, 0.056867644, 0.27399746, -1006232.4, 428695.13, 0.024749026, 10.003991, 9.997776 
1.8951133e+3, 1.635793e+2, -931319.0, -1327190.0, -19076.266, 0.0981144, 0.26083773, -930401.9, 406546.16, 0.006068449, 10.00354, 9.998262 
1.8951079e+3, 1.7357773e+2, -924537.0, -1275157.0, -28111.098, -0.030394018, 0.2686817, -922297.44, 316663.6, 0.0005270964, 10.002904, 9.998253 
1.8951038e+3, 1.8357581e+2, -881694.8, -1156265.3, 22472.97, -0.101345, 0.23625657, -879867.6, 261109.84, 0.0000013718216, 10.002318, 9.998678 
1.8951017e+3, 1.9357346e+2, -853168.56, -1093710.3, 57284.37, -0.06964115, 0.12500627, -840223.1, 202775.02, 0.0, 10.001849, 9.998661 
1.8950993e+3, 2.0357187e+2, -823251.25, -1024212.75, 16783.826, -0.025682434, 0.10083049, -821859.1, 123153.31, 0.0, 10.001363, 9.998701 
1.8950962e+3, 2.1357168e+2, -807411.44, -975323.1, -15525.973, 0.038266934, 0.2119823, -805987.9, 41026.938, 0.0, 10.00084, 9.998616 
1.895093e+3, 2.2357067e+2, -779545.44, -901887.75, -234.53952, 0.06002607, 0.24833499, -779545.0, -30519.936, 0.0, 10.000321, 9.998695 
1.8950897e+3, 2.3356836e+2, -759345.8, -850387.0, 15960.0625, 0.0063128048, 0.14496306, -756629.0, -105581.54, 0.0, 9.9998255, 9.998614 
1.8950865e+3, 2.4356686e+2, -700612.7, -691903.75, 23508.588, -0.038737863, 0.10398548, -672349.75, -119286.8, 0.0, 9.999212, 9.999327 
1.8950836e+3, 2.5356677e+2, -717961.5, -645924.1, 13662.858, -0.058024872, 0.15040599, -643419.8, -188353.81, 0.0, 9.9984045, 9.999358 
1.8950805e+3, 2.6356703e+2, -651782.7, -487759.2, -10513.781, -0.06531435, 0.21288766, -487088.03, -130022.67, 0.0, 9.997862, 10.000031 
1.8950771e+3, 2.7356806e+2, -568768.0, -394877.53, -2706.4868, -0.076444924, 0.3043629, -394835.44, -135779.25, 0.0, 9.997748, 10.0000515 
1.8950742e+3, 2.835684e+2, -513327.4, -318376.56, 8685.407, -0.04181037, 0.33783945, -317990.38, -156937.25, 0.0, 9.997462, 10.000041 
1.8950725e+3, 2.935674e+2, -492405.22, -268248.38, -16465.084, 0.120360464, 0.22771347, -267045.44, -203982.44, 0.0, 9.996978, 9.999947 
1.8950666e+3, 3.035677e+2, -419691.75, -28318.443, -61061.25, -0.033165712, 0.1981623, -19013.041, -19013.041, 0.0, 9.9963665, 10.0015545 
1.8950623e+3, 3.135696e+2, -565269.75, -60909.69, 74628.266, -0.0070919083, 0.21851565, -50098.953, -50098.953, 0.0, 9.995212, 10.001883 
1.9051334e+3, 1.23592906e+2, -1242713.4, -1763676.9, 1520.0167, 0.017230837, 0.14270948, -1242709.0, 486100.47, 0.17111345, 10.00533, 9.997095 
1.9051279e+3, 1.3359053e+2, -1188196.6, -1756768.1, 43596.445, -0.096737705, 0.2240556, -1184873.1, 445962.78, 0.11677526, 10.004958, 9.9966545 
1.9051234e+3, 1.4358789e+2, -1048954.8, -1525191.4, 43899.75, -0.06096214, 0.25127515, -1044941.8, 487921.9, 0.06495571, 10.004527, 9.997776 
1.9051205e+3, 1.5358584e+2, -1008648.8, -1453397.3, 66949.64, 0.04878519, 0.24716212, -998789.25, 436094.22, 0.026612405, 10.003931, 9.997881 
1.9051164e+3, 1.6358382e+2, -968253.56, -1370530.4, 47122.055, 0.07782153, 0.2535268, -962807.5, 374094.94, 0.006667606, 10.003399, 9.998033 
1.9051108e+3, 1.7358188e+2, -929767.2, -1310376.5, 34086.156, -0.048575014, 0.2541161, -926738.7, 312181.5, 0.0006122247, 10.003009, 9.99796 
1.905106e+3, 1.835798e+2, -860185.0, -1146016.4, 65174.074, -0.111452736, 0.22185992, -846025.7, 294912.94, 0.0000017786746, 10.002467, 9.998676 
1.9051035e+3, 1.9357765e+2, -876231.1, -1100176.0, 54010.62, -0.061766826, 0.12793736, -863885.56, 179070.89, 0.0, 10.001673, 9.998701 
1.9051006e+3, 2.0357606e+2, -873427.44, -1076746.0, 9496.666, -0.013824689, 0.112575285, -872984.8, 71985.84, 0.0, 10.001143, 9.9984455 
1.905097e+3, 2.1357548e+2, -793734.44, -1002601.94, 7398.053, 0.03024822, 0.2128478, -793472.75, 53505.402, 0.0, 10.001082, 9.99831 
1.9050935e+3, 2.2357428e+2, -703865.75, -854923.4, 30334.053, 0.048056506, 0.24277228, -698001.94, 50988.72, 0.0, 10.000795, 9.99879 
1.9050898e+3, 2.3357216e+2, -707524.25, -807991.7, 33902.082, 0.014738324, 0.14364325, -697154.5, -46144.242, 0.0, 10.000107, 9.998771 
1.9050857e+3, 2.4357077e+2, -696228.44, -708549.3, 28925.893, -0.02911896, 0.11466096, -672814.25, -119790.11, 0.0, 9.999327, 9.999155 
1.9050819e+3, 2.5357068e+2, -735466.1, -679960.94, 18238.883, -0.071947195, 0.1821188, -674504.1, -219475.95, 0.0, 9.998398, 9.9991255 
1.9050783e+3, 2.6357073e+2, -664406.06, -496476.25, 12154.74, -0.0788669, 0.24024545, -495601.06, -138571.64, 0.0, 9.997788, 10.000006 
1.905075e+3, 2.735714e+2, -573125.2, -394421.0, -3753.8835, -0.0636722, 0.29299518, -394342.2, -135319.72, 0.0, 9.997711, 10.000071 
1.9050716e+3, 2.8357172e+2, -535104.6, -325742.97, -16265.777, -0.03774006, 0.31783995, -324486.78, -163467.48, 0.0, 9.9973, 10.000069 
1.9050689e+3, 2.9357088e+2, -589682.1, -323833.03, -18608.707, 0.099610336, 0.2256598, -322536.78, -259508.9, 0.0, 9.99635, 9.9998665 
1.9050631e+3, 3.035705e+2, -487993.03, -52201.992, -83655.56, 0.007515357, 0.13245888, -36695.047, -36695.047, 0.0, 9.995858, 10.001637 
1.9050582e+3, 3.1357276e+2, -496006.3, -7274.415, 18804.555, 0.04434401, 0.16798502, -6551.955, -6551.955, 0.0, 9.9956045, 10.00206 
1.9151391e+3, 1.23600766e+2, -1264480.6, -1796597.9, 3359.3052, 0.05270048, 0.3232537, -1264459.4, 464273.47, 0.1801314, 10.005294, 9.996886 
1.9151336e+3, 1.3359638e+2, -1203355.5, -1779761.9, 31129.719, -0.03386404, 0.2176092, -1201679.1, 429097.53, 0.123431645, 10.004938, 9.996505 
1.915129e+3, 1.4359233e+2, -1054104.0, -1527850.0, 23112.18, 0.030710367, 0.113825485, -1052979.1, 479837.28, 0.069089904, 10.004507, 9.997767 
1.9151235e+3, 1.5359105e+2, -1010939.06, -1454614.0, 44934.23, -0.03848545, 0.18782115, -1006434.0, 428394.06, 0.028608223, 10.003921, 9.997878 
1.9151184e+3, 1.6358927e+2, -989293.25, -1411719.6, 30126.89, -0.06498707, 0.22921494, -987155.5, 349689.4, 0.0073204245, 10.0033865, 9.997756 
1.9151138e+3, 1.7358655e+2, -953413.6, -1357755.0, 20767.646, -0.04054487, 0.18329303, -952349.75, 286521.44, 0.00070924795, 10.003, 9.997641 
1.9151095e+3, 1.8358429e+2, -896558.7, -1220322.0, 37123.066, -0.025833022, 0.17320684, -892356.6, 248536.47, 0.0000023137907, 10.00246, 9.998172 
1.9151056e+3, 1.9358303e+2, -914725.5, -1180117.5, 25132.05, -0.024369089, 0.22071926, -912366.5, 130538.94, 0.0, 10.001671, 9.998155 
1.9151017e+3, 2.0358142e+2, -873066.2, -1076036.0, 3782.0342, -0.029868918, 0.23529257, -872995.75, 71925.055, 0.0, 10.001142, 9.998451 
1.9150974e+3, 2.1357933e+2, -787930.4, -989431.25, 7479.7124, -0.04483626, 0.17482656, -787653.1, 59287.41, 0.0, 10.001076, 9.998404 
1.9150934e+3, 2.2357768e+2, -702171.8, -849998.9, 8041.5205, -0.041465268, 0.15397559, -701735.7, 47220.754, 0.0, 10.000788, 9.998829 
1.9150895e+3, 2.3357695e+2, -706307.0, -804307.94, 9413.741, -0.019367943, 0.19200942, -705410.94, -54446.715, 0.0, 10.0001, 9.9988 
1.9150852e+3, 2.4357633e+2, -708280.1, -733318.1, -4690.1504, -0.025648639, 0.24457972, -707430.4, -154458.97, 0.0, 9.999324, 9.998987 
1.9150804e+3, 2.5357592e+2, -748959.5, -710930.9, -15238.119, -0.054313175, 0.30117613, -705578.3, -250600.88, 0.0, 9.998409, 9.998909 
1.9150765e+3, 2.63575e+2, -685427.6, -542232.56, 4802.2407, -0.031085512, 0.28440765, -542071.7, -185084.42, 0.0, 9.997796, 9.999689 
1.9150735e+3, 2.7357343e+2, -594294.8, -439697.47, -5183.3516, 0.015540683, 0.14879942, -439523.88, -180523.78, 0.0, 9.997714, 9.999761 
1.915069e+3, 2.8357333e+2, -516099.47, -286402.16, -48082.87, -0.018697899, 0.13632981, -276743.06, -115742.73, 0.0, 9.9973, 10.000339 
1.915064e+3, 2.9357505e+2, -575988.2, -299649.1, -48632.97, -0.03518209, 0.26974213, -291340.0, -228354.72, 0.0, 9.996366, 10.000026 
1.9150591e+3, 3.035745e+2, -543236.25, -172059.55, -91280.88, 0.019615456, 0.19334106, -150826.16, -150826.16, 0.0, 9.995878, 10.000806 
1.9150534e+3, 3.1357569e+2, -468017.75, 48038.375, 57850.44, 0.0102720205, 0.20063552, 54443.96, 54443.96, 0.0, 9.995611, 10.00244 
1.9251448e+3, 1.2360574e+2, -1177367.8, -1715299.8, -62651.844, 0.050345544, 0.32597417, -1170167.3, 558518.0, 0.18949175, 10.005947, 9.99715 
1.9251381e+3, 1.33602e+2, -1227324.9, -1735524.9, -31532.266, -0.049334392, 0.2371892, -1225375.9, 405345.03, 0.13040061, 10.004537, 9.997002 
1.925133e+3, 1.43598e+2, -1177384.9, -1604838.1, 2570.118, 0.0431036, 0.11511866, -1177369.4, 355389.56, 0.073456116, 10.0036745, 9.997637 
1.9251269e+3, 1.5359639e+2, -1060404.1, -1508169.3, 4814.1514, -0.07632091, 0.18036234, -1060352.4, 374422.25, 0.030735156, 10.003703, 9.997614 
1.9251214e+3, 1.6359441e+2, -974835.56, -1408496.5, -19835.104, -0.10489785, 0.21876544, -973930.25, 362863.28, 0.008026797, 10.003507, 9.997719 
1.925117e+3, 1.7359175e+2, -968355.25, -1365293.9, -10936.807, -0.019010011, 0.17881867, -968054.1, 270764.7, 0.0008187495, 10.002902, 9.997634 
1.9251123e+3, 1.8358938e+2, -930333.9, -1275541.4, 22966.37, 0.018207075, 0.17403176, -928812.6, 212029.23, 0.0000031359323, 10.0023985, 9.997821 
1.9251075e+3, 1.9358772e+2, -880846.9, -1210253.3, 18814.441, -0.02098841, 0.22294739, -879775.75, 163083.53, 0.0, 10.002106, 9.997737 
1.9251029e+3, 2.0358588e+2, -784461.06, -1017171.8, 14748.633, -0.045233306, 0.23030543, -783530.06, 161347.1, 0.0, 10.001682, 9.998593 
1.9250984e+3, 2.1358381e+2, -777799.25, -959512.3, 26847.244, -0.042303663, 0.15234224, -773915.7, 72979.305, 0.0, 10.001039, 9.998627 
1.9250941e+3, 2.2358222e+2, -771731.25, -915426.7, 16429.346, -0.032748494, 0.13706492, -769876.7, -20966.586, 0.0, 10.00045, 9.998541 
1.9250895e+3, 2.3358153e+2, -751902.25, -868389.0, -14503.699, -0.026185483, 0.2137004, -750123.56, -99203.766, 0.0, 9.9999695, 9.998422 
1.9250844e+3, 2.4358073e+2, -678841.4, -718689.8, -41027.79, -0.042164583, 0.27102476, -653155.8, -100226.55, 0.0, 9.999524, 9.998991 
1.9250791e+3, 2.5357994e+2, -641960.6, -652645.3, -34188.816, -0.064592555, 0.2834076, -612699.25, -157762.3, 0.0, 9.999116, 9.998968 
1.9250748e+3, 2.6357877e+2, -604740.4, -519754.75, 5898.841, -0.022158438, 0.2463306, -519347.28, -162399.45, 0.0, 9.998423, 9.999541 
1.9250713e+3, 2.735771e+2, -674345.9, -497459.66, 5225.9863, 0.05219017, 0.11391677, -497305.38, -238343.1, 0.0, 9.99725, 9.999586 
1.925066e+3, 2.8357682e+2, -640246.5, -331285.3, -35908.8, -0.014515558, 0.08943547, -327166.72, -166202.52, 0.0, 9.996387, 10.00047 
1.9250593e+3, 2.9357874e+2, -602982.56, -297968.34, -44360.7, -0.12326206, 0.22888638, -291647.6, -228700.84, 0.0, 9.99612, 10.0001545 
1.9250557e+3, 3.0357844e+2, -530025.56, -238943.06, -51554.6, 0.06537429, 0.19902001, -230081.8, -230081.8, 0.0, 9.996287, 10.000148 
1.9250496e+3, 3.135794e+2, -388010.28, 42571.86, 70982.83, 0.028055044, 0.25541237, 53971.785, 53971.785, 0.0, 9.996351, 10.002045 
1.9351502e+3, 1.2360814e+2, -1149377.5, -1634328.9, -78237.125, -0.0019681738, 0.17360443, -1137068.0, 591595.5, 0.19922106, 10.005894, 9.997873 
1.9351415e+3, 1.3360739e+2, -1164480.8, -1581629.0, -76175.97, -0.15086326, 0.27867728, -1151005.5, 479662.9, 0.13768986, 10.004525, 9.998116 
1.9351362e+3, 1.4360483e+2, -1196819.0, -1644745.5, -3111.8677, -0.030054176, 0.24551961, -1196797.4, 335895.0, 0.07805478, 10.003674, 9.997364 
1.9351308e+3, 1.5360184e+2, -1096999.6, -1583701.3, 7998.982, -0.072005846, 0.22385986, -1096868.3, 337854.47, 0.03299235, 10.003698, 9.997099 
1.9351254e+3, 1.6359927e+2, -963512.25, -1383772.8, -39813.566, -0.054480348, 0.22615011, -959773.75, 376973.8, 0.008786544, 10.003502, 9.997892 
1.9351201e+3, 1.7359743e+2, -948182.75, -1324601.3, -33332.44, 0.009777394, 0.24010442, -945253.9, 293509.28, 0.00094156526, 10.002906, 9.997912 
1.9351147e+3, 1.83595e+2, -944733.44, -1306183.0, 10068.125, 0.017664758, 0.22109932, -944453.25, 196332.34, 0.0000044945964, 10.002399, 9.997611 
1.9351093e+3, 1.9359171e+2, -901160.56, -1251472.9, 9930.426, -0.054967858, 0.13617466, -900879.25, 141938.95, 0.0, 10.0021, 9.9974575 
1.9351044e+3, 2.0358941e+2, -767728.56, -980961.0, -7126.9385, -0.064962775, 0.10241152, -767490.6, 177349.42, 0.0, 10.001674, 9.998848 
1.9351003e+3, 2.1358891e+2, -755736.8, -911688.75, 4581.1777, 0.031155778, 0.14673233, -755602.3, 91239.74, 0.0, 10.001028, 9.998961 
1.9350956e+3, 2.2358784e+2, -815416.1, -1004920.44, -2268.364, 0.06689078, 0.19025914, -815389.0, -66536.32, 0.0, 10.0004425, 9.997931 
1.9350895e+3, 2.3358582e+2, -806024.3, -980811.0, -30095.496, -0.012681771, 0.21014115, -800987.5, -150109.83, 0.0, 9.999969, 9.997652 
1.9350836e+3, 2.4358395e+2, -667563.94, -695448.56, -56032.457, -0.08387791, 0.1980063, -623765.25, -70867.32, 0.0, 9.999523, 9.999152 
1.9350779e+3, 2.535827e+2, -619027.3, -605793.3, -48013.53, -0.10728205, 0.1309686, -563942.94, -109035.625, 0.0, 9.999116, 9.999291 
1.9350728e+3, 2.63582e+2, -603712.7, -516974.22, -34388.13, -0.05572184, 0.12614135, -504995.16, -148083.16, 0.0, 9.998419, 9.999563 
1.9350685e+3, 2.7358222e+2, -678215.25, -506596.53, -37899.24, 0.038801126, 0.18750376, -498599.72, -239689.48, 0.0, 9.997252, 9.999523 
1.9350621e+3, 2.8358203e+2, -638696.0, -331368.3, -52155.223, -0.032394253, 0.1747296, -322758.47, -161846.11, 0.0, 9.996397, 10.000466 
1.935055e+3, 2.9358184e+2, -592412.0, -282517.2, -48937.902, -0.17362444, 0.100719325, -274972.72, -212058.88, 0.0, 9.996143, 10.000252 
1.9350527e+3, 3.0358225e+2, -559834.06, -303384.6, -37969.402, 0.1432959, 0.15544008, -297881.03, -297881.03, 0.0, 9.996298, 9.999701 
1.9350451e+3, 3.1358236e+2, -444075.8, -76660.92, -25290.568, -0.049279746, 0.18682396, -74928.24, -74928.24, 0.0, 9.996359, 10.0012245 
1.945155e+3, 1.2361278e+2, -1372749.6, -1755703.6, 12265.64, -0.010050892, 0.118822254, -1372357.3, 356259.1, 0.20935719, 10.004076, 9.997753 
1.945146e+3, 1.3361241e+2, -1149388.1, -1566006.0, -73107.44, -0.1791762, 0.25683704, -1136931.8, 493686.4, 0.14531285, 10.004646, 9.998185 
1.94514e+3, 1.4361027e+2, -1050086.4, -1567561.8, -28839.668, -0.058984146, 0.2620964, -1048484.06, 484154.2, 0.08288724, 10.00479, 9.997355 
1.9451347e+3, 1.5360697e+2, -1051314.8, -1563340.1, 9262.664, -0.06660514, 0.21064268, -1051147.3, 383524.0, 0.03537912, 10.004046, 9.997069 
1.9451293e+3, 1.6360414e+2, -967579.9, -1392198.3, -23930.064, -0.029141333, 0.19221696, -966235.5, 370462.84, 0.009599534, 10.003511, 9.997828 
1.9451234e+3, 1.7360224e+2, -879796.75, -1300146.0, -44469.176, 0.023008732, 0.20680691, -875143.8, 363570.97, 0.0010784023, 10.003416, 9.997833 
1.9451174e+3, 1.8359981e+2, -833791.1, -1231349.4, -8414.515, 0.02164467, 0.18543468, -833613.06, 307123.66, 0.0000066792873, 10.003072, 9.997799 
1.9451115e+3, 1.9359666e+2, -855918.9, -1204272.5, 25165.697, -0.056442186, 0.09283698, -854110.25, 188656.42, 0.0, 10.002303, 9.997683 
1.945106e+3, 2.0359446e+2, -799888.5, -1022914.2, 10682.788, -0.071112946, 0.06679397, -799378.0, 145409.3, 0.0, 10.001571, 9.998608 
1.945101e+3, 2.1359397e+2, -794134.25, -965726.3, -28053.031, 0.019509988, 0.14409997, -789664.4, 57126.51, 0.0, 10.000921, 9.998639 
1.9450958e+3, 2.2359279e+2, -828402.25, -1014915.56, -35713.1, 0.05991578, 0.19484049, -821797.9, -72994.43, 0.0, 10.000372, 9.997894 
1.9450897e+3, 2.335904e+2, -804803.56, -979198.94, -7357.634, 0.005700889, 0.17836533, -804493.7, -153662.73, 0.0, 9.999974, 9.997659 
1.9450834e+3, 2.4358834e+2, -694345.9, -709428.6, -13159.128, -0.05055022, 0.14633071, -686720.3, -133867.64, 0.0, 9.999348, 9.999139 
1.9450767e+3, 2.5358716e+2, -733462.75, -663169.25, -32361.9, -0.08636021, 0.089515954, -650539.56, -195677.66, 0.0, 9.998343, 9.999268 
1.9450709e+3, 2.635867e+2, -707575.94, -559459.6, -28993.729, -0.055763442, 0.10548289, -553986.4, -197121.4, 0.0, 9.997674, 9.999629 
1.9450657e+3, 2.7358732e+2, -638080.9, -480342.34, -26735.867, 0.025749106, 0.19752494, -475933.94, -217073.78, 0.0, 9.9975, 9.999583 
1.9450589e+3, 2.8358716e+2, -548140.4, -288918.6, -30327.383, -0.03479692, 0.18851556, -285417.75, -124555.71, 0.0, 9.997025, 10.000455 
1.9450511e+3, 2.935868e+2, -580541.06, -261495.36, -24903.988, -0.17181982, 0.09577556, -259563.11, -196698.4, 0.0, 9.996162, 10.000385 
1.9450484e+3, 3.0358756e+2, -615788.8, -293201.38, 39530.7, 0.108500764, 0.1581658, -288427.8, -288427.8, 0.0, 9.995757, 10.00003 
1.9450408e+3, 3.135877e+2, -542225.3, -103572.66, 26095.941, -0.074528344, 0.16795991, -102025.63, -102025.63, 0.0, 9.9956, 10.001406 
1.9551593e+3, 1.2361967e+2, -1430586.5, -1895363.5, 51207.914, -0.0022305807, 0.16412441, -1425011.5, 303532.53, 0.2199096, 10.00407, 9.996804 
1.955151e+3, 1.3361712e+2, -1212194.6, -1695761.5, -53505.06, -0.14398804, 0.17701446, -1206345.3, 424224.72, 0.15326922, 10.004633, 9.9972315 
1.9551449e+3, 1.4361446e+2, -1040356.25, -1535687.8, -47366.41, -0.05372561, 0.17435738, -1035867.5, 496728.25, 0.087950006, 10.004771, 9.997586 
1.9551387e+3, 1.5361175e+2, -1025265.3, -1502644.9, -17766.875, -0.067891486, 0.1441225, -1024605.0, 410015.34, 0.03789436, 10.004035, 9.997491 
1.9551328e+3, 1.6360898e+2, -990151.1, -1437362.8, -31116.705, -0.035138786, 0.11879012, -987996.44, 348649.8, 0.010465619, 10.003503, 9.997522 
1.9551268e+3, 1.7360614e+2, -910184.0, -1362269.5, -46088.83, 0.017817741, 0.082532614, -905533.25, 333140.5, 0.0012294218, 10.003409, 9.997412 
1.9551206e+3, 1.8360382e+2, -796233.2, -1151386.9, -33241.535, 0.023359157, 0.0712721, -793148.6, 347546.56, 0.000009908067, 10.003061, 9.998354 
1.955114e+3, 1.9360253e+2, -807874.0, -1102943.4, -2624.7246, -0.032098107, 0.09337057, -807850.7, 234854.48, 0.0, 10.002295, 9.9983835 
1.9551076e+3, 2.0360096e+2, -852634.4, -1131083.8, -14700.696, -0.06923816, 0.12121012, -851860.4, 92859.55, 0.0, 10.001563, 9.9978695 
1.955101e+3, 2.1359897e+2, -861871.1, -1106899.6, -50380.332, -0.07901958, 0.14341818, -851916.8, -5174.725, 0.0, 10.000921, 9.997671 
1.9550951e+3, 2.2359702e+2, -791536.94, -938726.0, -51057.11, -0.05495752, 0.15131243, -775560.4, -26797.45, 0.0, 10.000371, 9.99842 
1.9550899e+3, 2.3359522e+2, -751760.56, -868175.0, -20068.922, 0.02433501, 0.119239315, -748398.0, -97617.54, 0.0, 9.999968, 9.998426 
1.9550838e+3, 2.435938e+2, -709293.9, -738823.75, -47517.402, 0.050251216, 0.11503711, -674300.3, -121505.52, 0.0, 9.99934, 9.998941 
1.9550759e+3, 2.535932e+2, -758199.9, -716462.7, -68089.54, -0.009089544, 0.15633844, -666115.5, -211313.52, 0.0, 9.99835, 9.998899 
1.9550689e+3, 2.6359272e+2, -699026.0, -543717.8, -39152.395, -0.028209329, 0.18150598, -534406.0, -177597.92, 0.0, 9.99768, 9.999736 
1.955063e+3, 2.7359217e+2, -624417.7, -456006.8, -32490.467, 0.0036807668, 0.14170448, -449956.03, -191142.42, 0.0, 9.997514, 9.999745 
1.9550559e+3, 2.8359208e+2, -547765.75, -289737.94, -62378.996, -0.028664341, 0.13213144, -275448.9, -114634.484, 0.0, 9.997031, 10.000446 
1.9550477e+3, 2.935935e+2, -570193.06, -240304.25, -54276.504, -0.123774536, 0.22003601, -231603.64, -168803.36, 0.0, 9.996161, 10.000532 
1.9550426e+3, 3.0359405e+2, -536470.2, -129741.64, 36193.95, -0.046932712, 0.191995, -126545.93, -126545.93, 0.0, 9.995761, 10.001151 
1.9550382e+3, 3.1359422e+2, -480295.84, 14639.554, -68446.375, 0.0836381, 0.09565076, 23930.824, 23930.824, 0.0, 9.995641, 10.0022 
1.9651636e+3, 1.2362572e+2, -1248434.9, -1757863.1, 5775.641, -0.043682296, 0.21547309, -1248369.4, 480115.72, 0.23079747, 10.005637, 9.996988 
1.965156e+3, 1.3362232e+2, -1215908.1, -1682374.4, -51087.254, -0.09720088, 0.13181302, -1210378.6, 420139.1, 0.16152081, 10.00458, 9.997349 
1.9651495e+3, 1.436197e+2, -1142467.6, -1564870.9, -7723.5854, -0.014126104, 0.11970602, -1142326.5, 390215.44, 0.093231134, 10.003927, 9.9977865 
1.9651428e+3, 1.536175e+2, -1042395.8, -1487274.0, 3019.3206, -0.039110944, 0.1172502, -1042375.3, 392186.3, 0.040536515, 10.003821, 9.997698 
1.9651365e+3, 1.6361487e+2, -995154.2, -1467964.3, -10152.757, -0.022279495, 0.10497977, -994936.25, 341650.28, 0.011384106, 10.0035925, 9.99727 
1.9651298e+3, 1.736116e+2, -968074.44, -1425684.6, -19558.36, -0.000812933, 0.05948522, -967240.06, 271379.2, 0.0013940044, 10.003169, 9.997089 
1.9651233e+3, 1.8360916e+2, -859424.94, -1186198.5, -36502.137, 0.0071960576, 0.055777617, -855397.1, 285245.47, 0.000014255441, 10.002651, 9.99831 
1.9651166e+3, 1.9360824e+2, -853606.06, -1124827.0, -60993.37, 0.011602158, 0.11584954, -840520.9, 202127.77, 0.0, 10.001985, 9.998381 
1.9651096e+3, 2.0360667e+2, -874907.94, -1160080.1, -72640.21, -0.009032319, 0.1500578, -857470.94, 87192.63, 0.0, 10.00149, 9.997705 
1.9651021e+3, 2.1360399e+2, -823375.44, -1110114.1, -52820.668, -0.07876097, 0.12432896, -813954.75, 32738.164, 0.0, 10.001281, 9.997477 
1.9650953e+3, 2.2360185e+2, -710573.8, -854463.25, -34522.0, -0.09208745, 0.10707737, -702720.0, 45995.34, 0.0, 10.000734, 9.998821 
1.9650893e+3, 2.3360069e+2, -767308.2, -819829.75, -27274.615, -0.0051399283, 0.08995629, -755706.94, -104981.945, 0.0, 9.999624, 9.998921 
1.9650827e+3, 2.4359982e+2, -777577.0, -765634.5, -51838.88, 0.04330553, 0.10985241, -719424.1, -166690.5, 0.0, 9.998844, 9.998996 
1.9650745e+3, 2.5359958e+2, -722939.3, -701171.4, -47675.37, 0.016563058, 0.1866711, -663153.4, -208414.11, 0.0, 9.998602, 9.998881 
1.9650668e+3, 2.6359916e+2, -646285.2, -513619.78, -5676.5444, -0.01914791, 0.21798791, -513377.34, -156631.6, 0.0, 9.998027, 9.999773 
1.9650596e+3, 2.7359828e+2, -715313.94, -495609.56, -10822.464, -0.045084223, 0.14410308, -495077.75, -236323.53, 0.0, 9.996878, 9.999778 
1.9650526e+3, 2.8359818e+2, -668022.5, -349698.0, -36798.94, -0.030093363, 0.1312501, -345499.34, -184744.03, 0.0, 9.996217, 10.000426 
1.9650452e+3, 2.935998e+2, -551662.25, -222194.3, -28548.89, -0.00480868, 0.24008545, -219738.78, -156999.42, 0.0, 9.996252, 10.000612 
1.9650374e+3, 3.0360058e+2, -526965.9, -67773.98, 24631.342, -0.12438378, 0.20296098, -66456.516, -66456.516, 0.0, 9.995582, 10.001663 
1.9650325e+3, 3.136012e+2, -633178.44, -3861.5608, -116499.63, 0.02054651, 0.104412474, 17012.559, 17012.559, 0.0, 9.994358, 10.002688 
1.9751683e+3, 1.2363093e+2, -1189136.9, -1605975.5, -15007.946, -0.1421681, 0.27118495, -1188597.3, 539842.0, 0.2418552, 10.005597, 9.998317 
1.9751611e+3, 1.3362803e+2, -1155909.4, -1535510.4, -80044.336, -0.048478607, 0.121037096, -1139721.3, 490740.0, 0.1699888, 10.0045595, 9.998493 
1.9751541e+3, 1.4362602e+2, -1136106.0, -1545376.6, -14165.534, 0.046338134, 0.09779953, -1135616.4, 396860.8, 0.098708086, 10.003927, 9.997921 
1.9751473e+3, 1.5362413e+2, -1044197.44, -1490801.5, 196.52847, 0.012740135, 0.12807457, -1044197.4, 390298.3, 0.04330346, 10.003829, 9.997672 
1.9751403e+3, 1.6362172e+2, -1009541.3, -1498824.5, -25918.94, 0.0006888142, 0.14897202, -1008172.1, 328347.63, 0.012354407, 10.003596, 9.997057 
1.9751327e+3, 1.7361853e+2, -984951.4, -1462320.6, -34665.566, -0.03697742, 0.13364369, -982447.1, 256105.05, 0.0015709848, 10.003174, 9.996837 
1.9751255e+3, 1.8361573e+2, -902968.25, -1276938.4, -59934.977, -0.03106574, 0.13544041, -893597.44, 246982.31, 0.000019593592, 10.00265, 9.997688 
1.9751191e+3, 1.9361374e+2, -901174.8, -1223963.4, -83718.875, 0.068919316, 0.15693684, -880753.4, 161844.3, 0.0, 10.001984, 9.997702 
1.9751123e+3, 2.0361154e+2, -849093.7, -1105355.0, -81328.95, 0.10169426, 0.15179923, -825461.8, 119156.695, 0.0, 10.001483, 9.998086 
1.9751044e+3, 2.1360904e+2, -787004.1, -1031692.2, -57447.07, 0.011126683, 0.08869437, -774188.1, 72455.57, 0.0, 10.0012665, 9.998023 
1.9750963e+3, 2.2360726e+2, -694400.8, -818038.2, -70940.65, -0.059858806, 0.063591756, -662123.1, 86538.25, 0.0, 10.00072, 9.99908 
1.9750883e+3, 2.3360673e+2, -752843.1, -790358.7, -67209.49, -0.08663484, 0.08847871, -701822.9, -51157.184, 0.0, 9.999624, 9.999125 
1.9750804e+3, 2.4360631e+2, -756258.8, -722123.5, -65312.188, -0.0726823, 0.12866575, -671685.7, -119015.4, 0.0, 9.998845, 9.999295 
1.9750729e+3, 2.536061e+2, -700156.3, -655155.1, -55619.484, -0.015485525, 0.18127596, -617657.4, -162982.53, 0.0, 9.998605, 9.999198 
1.9750647e+3, 2.636059e+2, -648200.94, -518461.1, -45257.594, -0.035437755, 0.21528384, -504233.88, -147554.56, 0.0, 9.998029, 9.99974 
1.9750558e+3, 2.7360556e+2, -721346.5, -510931.56, -52898.516, -0.12640215, 0.20259057, -498381.38, -239697.88, 0.0, 9.996887, 9.999669 
1.9750488e+3, 2.836053e+2, -668489.94, -353467.75, -40967.63, -0.044170883, 0.18393579, -348227.22, -187541.03, 0.0, 9.996227, 10.000396 
1.9750433e+3, 2.9360557e+2, -548875.6, -222742.16, -27505.055, 0.17563297, 0.15537146, -220438.75, -157755.22, 0.0, 9.996277, 10.000598 
1.975033e+3, 3.0360702e+2, -533952.1, -87195.93, -30950.422, -0.1354775, 0.19720308, -85061.93, -85061.93, 0.0, 9.995602, 10.00152 
1.9750264e+3, 3.136086e+2, -612607.5, 33342.05, -46402.605, -0.019008191, 0.20658283, 36658.414, 36658.414, 0.0, 9.994376, 10.002937 
1.9851735e+3, 1.2363726e+2, -1312874.9, -1640223.0, 91649.78, -0.12268897, 0.23069489, -1288962.0, 439414.22, 0.25290856, 10.004403, 9.998591 
1.985166e+3, 1.3363478e+2, -1126515.4, -1520248.0, -33033.62, -0.009785131, 0.119839944, -1123763.1, 506631.34, 0.17857079, 10.004846, 9.998491 
1.9851585e+3, 1.4363283e+2, -1018421.8, -1525318.8, -17730.262, 0.027076814, 0.11979329, -1017802.4, 514608.47, 0.104340084, 10.005038, 9.997529 
1.9851512e+3, 1.536307e+2, -968669.06, -1499541.9, -37473.473, -0.0075253705, 0.17063676, -966036.94, 468396.53, 0.04618676, 10.004591, 9.997243 
1.985144e+3, 1.6362824e+2, -915259.0, -1431490.1, -71074.87, -0.010399952, 0.20176801, -905652.2, 430806.56, 0.013375849, 10.004171, 9.997239 
1.9851364e+3, 1.7362528e+2, -869251.44, -1375123.0, -45783.15, -0.022940733, 0.18388009, -865141.3, 373346.03, 0.0017591557, 10.00384, 9.997112 
1.9851287e+3, 1.8362238e+2, -824737.5, -1251917.9, -47661.887, -0.016209424, 0.16512422, -819484.3, 321030.63, 0.0000256483, 10.003243, 9.997575 
1.9851209e+3, 1.936197e+2, -880116.75, -1233836.6, -38959.29, 0.040982477, 0.1350965, -875876.56, 166663.28, 0.0, 10.002215, 9.997521 
1.9851133e+3, 2.0361729e+2, -859234.75, -1084437.9, -7571.377, 0.06740739, 0.10915569, -858980.5, 85582.15, 0.0, 10.001305, 9.998313 
1.9851054e+3, 2.1361539e+2, -863914.7, -1036159.94, -2984.9683, 0.03218545, 0.07779739, -863863.0, -17281.758, 0.0, 10.000602, 9.99831 
1.985097e+3, 2.2361398e+2, -806735.06, -879242.5, -47226.875, -0.02797439, 0.078429185, -783451.3, -34856.203, 0.0, 9.999982, 9.999014 
1.9850874e+3, 2.336135e+2, -782693.1, -818242.3, -70441.875, -0.11683347, 0.12013411, -727817.94, -77217.59, 0.0, 9.99948, 9.999001 
1.9850788e+3, 2.436131e+2, -737859.25, -689533.3, -74291.9, -0.11999232, 0.15886743, -635573.7, -82968.44, 0.0, 9.998874, 9.999503 
1.9850715e+3, 2.536128e+2, -756138.56, -652931.25, -68473.766, -0.0049813846, 0.17332108, -618793.44, -164183.69, 0.0, 9.998098, 9.999455 
1.9850628e+3, 2.6361257e+2, -712472.25, -540028.6, -61728.152, -0.0021859284, 0.19064866, -520210.06, -163596.66, 0.0, 9.997548, 9.999823 
1.9850528e+3, 2.7361262e+2, -653576.56, -473073.2, -60941.48, -0.12599126, 0.2108835, -454424.78, -195810.45, 0.0, 9.997334, 9.999712 
1.9850451e+3, 2.8361258e+2, -559946.7, -287948.78, -28186.77, -0.055799603, 0.2060037, -285058.56, -124443.43, 0.0, 9.996919, 10.000511 
1.9850394e+3, 2.9361248e+2, -580503.06, -227708.34, -7544.172, 0.18503335, 0.13263418, -227547.1, -164931.95, 0.0, 9.99602, 10.000685 
1.9850284e+3, 3.036139e+2, -633721.9, -142461.33, -31251.248, -0.12812836, 0.16555826, -140481.28, -140481.28, 0.0, 9.994949, 10.001453 
1.985021e+3, 3.136157e+2, -642683.94, 9698.939, 59572.273, -0.00581056, 0.20849204, 15094.157, 15094.157, 0.0, 9.99421, 10.002854 
1.995179e+3, 1.23644516e+2, -1361644.9, -1731138.8, 92158.21, -0.012441365, 0.08647792, -1339934.6, 388363.56, 0.26385945, 10.004378, 9.997825 
1.9951713e+3, 1.3364252e+2, -1196438.9, -1660492.4, -16616.043, 0.011658397, 0.13087687, -1195844.8, 434473.06, 0.1871847, 10.004844, 9.997366 
1.9951625e+3, 1.4364009e+2, -1075117.6, -1651654.5, -28947.49, -0.07528416, 0.18707933, -1073667.8, 458675.2, 0.11008154, 10.005046, 9.996655 
1.9951549e+3, 1.536372e+2, -1024919.44, -1618519.6, -52318.46, -0.10198067, 0.2424615, -1020343.5, 414031.38, 0.04917401, 10.004587, 9.996429 
1.9951478e+3, 1.6363442e+2, -880516.2, -1353821.8, -82160.3, -0.06134345, 0.26389906, -866659.8, 469743.38, 0.014449011, 10.004155, 9.997781 
1.9951408e+3, 1.7363185e+2, -819502.1, -1266966.4, -55431.652, 0.033723682, 0.21114606, -812737.56, 425687.16, 0.0019582864, 10.003819, 9.997867 
1.9951324e+3, 1.836291e+2, -802694.7, -1201068.8, -82338.05, 0.043034147, 0.14664523, -786347.44, 354101.25, 0.000032105352, 10.003221, 9.997936 
1.9951221e+3, 1.9362608e+2, -860888.06, -1192280.3, -75459.945, -0.073610224, 0.054649036, -844514.44, 197961.25, 0.0, 10.002208, 9.997811 
1.9951127e+3, 2.0362383e+2, -855474.44, -1077160.6, -35108.703, -0.11024713, 0.026191352, -850047.06, 94449.586, 0.0, 10.001305, 9.9983635 
1.9951056e+3, 2.136229e+2, -862332.75, -1034275.7, -27033.584, -0.018163119, 0.089578494, -858182.56, -11675.778, 0.0, 10.000606, 9.998322 
1.9950972e+3, 2.2362192e+2, -832872.3, -933744.3, -66696.664, -0.00022226284, 0.14747497, -799688.75, -51170.79, 0.0, 9.99998, 9.998641 
1.995087e+3, 2.3362094e+2, -814112.5, -882884.8, -86918.12, -0.10223485, 0.18388578, -755025.8, -104495.94, 0.0, 9.9994755, 9.998561 
1.9950777e+3, 2.436201e+2, -731514.75, -675425.2, -102010.69, -0.10665844, 0.19959752, -597674.44, -45134.973, 0.0, 9.998868, 9.999603 
1.99507e+3, 2.5361943e+2, -742404.7, -625950.7, -96034.2, 0.041679904, 0.16143276, -571870.25, -117325.07, 0.0, 9.998103, 9.9996395 
1.9950612e+3, 2.6361907e+2, -699283.56, -514111.75, -73298.195, 0.0771741, 0.14523493, -488609.66, -132060.58, 0.0, 9.997553, 10.0 
1.9950509e+3, 2.7361935e+2, -641410.9, -450779.2, -67836.3, -0.05238122, 0.17225593, -429104.13, -170556.23, 0.0, 9.997344, 9.999862 
1.9950418e+3, 2.8361982e+2, -540611.1, -250595.66, -59495.56, -0.074343875, 0.1983753, -238864.86, -78321.08, 0.0, 9.996929, 10.000762 
1.9950338e+3, 2.9362038e+2, -566960.0, -202705.02, -45543.31, 0.014250178, 0.16433144, -197097.02, -134560.2, 0.0, 9.996032, 10.000852 
1.9950235e+3, 3.03621e+2, -631397.2, -141629.72, -71645.7, -0.09570936, 0.11282773, -131364.19, -131364.19, 0.0, 9.994963, 10.001454 
1.9950153e+3, 3.1362286e+2, -694289.6, -104225.21, 119737.086, 0.002448232, 0.15747933, -80853.625, -80853.625, 0.0, 9.994237, 10.002061 
2.0051847e+3, 1.2365226e+2, -1265281.4, -1718280.1, 35308.668, 0.04413713, 0.08094198, -1262545.8, 465675.4, 0.2747481, 10.005587, 9.997308 
2.0051762e+3, 1.3365032e+2, -1157102.0, -1703209.1, -35339.035, -0.0074098553, 0.19189355, -1154824.8, 475418.38, 0.19583142, 10.005518, 9.99675 
2.0051669e+3, 1.4364739e+2, -1027625.56, -1604339.1, -18156.006, -0.1592537, 0.2260455, -1027054.5, 505219.4, 0.11592339, 10.005359, 9.996825 
2.0051596e+3, 1.536441e+2, -961105.3, -1553025.6, 26260.92, -0.113971405, 0.21293998, -959942.56, 474364.63, 0.05226341, 10.004918, 9.996719 
2.0051521e+3, 1.6364124e+2, -879427.0, -1336030.1, 18213.572, -0.031519193, 0.20562021, -878701.6, 457633.06, 0.015577628, 10.004093, 9.997932 
2.0051444e+3, 1.7363912e+2, -976830.0, -1328829.6, -2402.3638, 0.056558255, 0.18369468, -976813.56, 261539.16, 0.002169974, 10.002677, 9.997991 
2.0051351e+3, 1.8363671e+2, -984874.7, -1272347.3, -43527.67, 0.054492433, 0.14198649, -978428.5, 161945.33, 0.00003871999, 10.001902, 9.99808 
2.0051241e+3, 1.9363399e+2, -853064.0, -1171799.6, -47063.406, -0.08276155, 0.06330363, -846260.0, 196138.47, 0.0, 10.0021925, 9.997957 
2.0051143e+3, 2.0363197e+2, -754096.1, -1031546.5, -29513.336, -0.13603377, 0.05220095, -750991.44, 193426.11, 0.0, 10.00202, 9.998331 
2.005106e+3, 2.136312e+2, -800262.44, -1012466.75, -31749.148, -0.051775575, 0.13902378, -795614.06, 50812.574, 0.0, 10.001069, 9.998248 
2.005097e+3, 2.2363012e+2, -813708.2, -930568.6, -58822.984, -0.021242775, 0.19313431, -789227.44, -40788.375, 0.0, 10.000141, 9.998585 
2.0050867e+3, 2.3362857e+2, -847774.8, -906110.3, -53253.496, -0.08283497, 0.17934205, -816224.44, -165768.39, 0.0, 9.999277, 9.998496 
2.0050767e+3, 2.4362743e+2, -785823.8, -702487.5, -55167.266, -0.08853667, 0.169065, -675020.56, -122552.445, 0.0, 9.998501, 9.999594 
2.0050675e+3, 2.5362694e+2, -781587.6, -645002.3, -64439.91, 0.00027071638, 0.14867435, -619399.4, -164927.75, 0.0, 9.997838, 9.999635 
2.0050581e+3, 2.6362666e+2, -741013.5, -515441.34, -39266.465, 0.03711239, 0.13553402, -508801.5, -152327.44, 0.0, 9.99719, 10.000161 
2.0050484e+3, 2.7362686e+2, -739084.9, -475599.47, -31096.738, -0.012046057, 0.13493139, -471979.16, -213505.94, 0.0, 9.996582, 10.000056 
2.0050386e+3, 2.836276e+2, -664215.1, -291315.44, -31995.996, -0.04611077, 0.16833058, -288589.97, -128123.25, 0.0, 9.996003, 10.000928 
2.0050289e+3, 2.9362905e+2, -662014.9, -244105.67, -35239.613, -0.059798747, 0.21231964, -241154.97, -178702.83, 0.0, 9.995364, 10.000887 
2.0050192e+3, 3.0362976e+2, -635089.4, -159489.61, -57304.68, -0.03294836, 0.17622273, -152682.44, -152682.44, 0.0, 9.995009, 10.001308 
2.00501e+3, 3.1362996e+2, -585247.7, -61181.34, 141158.33, 0.01747439, 0.05877752, -25578.736, -25578.736, 0.0, 9.995038, 10.001965 
2.0151901e+3, 1.2366035e+2, -1285054.0, -1750983.6, 15886.502, 0.039374225, 0.19671422, -1284513.0, 443633.06, 0.28585428, 10.005585, 9.99706 
2.015181e+3, 1.3365814e+2, -1172647.0, -1723045.3, -32486.787, -0.07460272, 0.296811, -1170736.1, 459434.22, 0.20467134, 10.005487, 9.996628 
2.0151713e+3, 1.436547e+2, -967066.7, -1454949.4, -28369.027, -0.2380793, 0.23794875, -965422.6, 566781.0, 0.1219371, 10.005319, 9.997944 
2.0151651e+3, 1.5365137e+2, -880974.1, -1370167.1, 11872.192, -0.055623386, 0.09072574, -880686.2, 553544.5, 0.055480998, 10.004888, 9.998015 
2.0151572e+3, 1.636487e+2, -898907.7, -1371552.1, -30401.537, 0.06711261, 0.038026802, -896960.2, 439293.66, 0.016772296, 10.004072, 9.9977 
2.0151469e+3, 1.73647e+2, -1009874.1, -1399593.6, -54141.473, 0.042252697, 0.10509577, -1002492.4, 235779.86, 0.0023979743, 10.002685, 9.997503 
2.0151366e+3, 1.8364516e+2, -987333.6, -1280700.3, -39980.895, 0.015187684, 0.15084209, -981982.5, 158308.75, 0.000045425786, 10.001915, 9.998017 
2.0151272e+3, 1.9364329e+2, -853869.7, -1172758.8, -33185.758, 0.0026056964, 0.15630391, -850452.75, 191856.69, 0.0, 10.002189, 9.997954 
2.0151174e+3, 2.0364156e+2, -764943.4, -1051151.1, -58584.047, -0.023290195, 0.18105716, -753416.0, 190910.63, 0.0, 10.002005, 9.998205 
2.015107e+3, 2.1364021e+2, -813260.7, -1036091.4, -65221.902, -0.0747378, 0.22511344, -795574.25, 50767.285, 0.0, 10.001053, 9.998095 
2.0150965e+3, 2.2363852e+2, -800005.2, -899556.7, -90856.07, -0.09478441, 0.2169518, -746183.4, 2175.5002, 0.0, 10.000128, 9.998805 
2.0150861e+3, 2.336363e+2, -827882.6, -865792.3, -83546.664, -0.06474546, 0.10879393, -761167.56, -110787.91, 0.0, 9.999279, 9.998774 
2.0150754e+3, 2.4363498e+2, -792997.4, -719492.75, -80946.48, -0.07085452, 0.069396436, -667345.9, -114953.71, 0.0, 9.9985075, 9.999475 
2.0150639e+3, 2.5363517e+2, -794552.25, -674029.9, -88494.805, -0.13388142, 0.13506499, -627226.9, -172836.69, 0.0, 9.997845, 9.999433 
2.0150538e+3, 2.6363522e+2, -730140.25, -495452.97, -63423.965, -0.12557788, 0.16003211, -479409.47, -123019.73, 0.0, 9.997199, 10.000296 
2.015045e+3, 2.7363497e+2, -720126.9, -439968.47, -52380.293, -0.010792948, 0.097052984, -430495.4, -172103.52, 0.0, 9.996595, 10.000296 
2.0150353e+3, 2.8363577e+2, -657868.9, -281297.56, -57569.74, 0.023689173, 0.11683924, -272693.0, -112307.77, 0.0, 9.996015, 10.000992 
2.0150243e+3, 2.9363847e+2, -667760.56, -260876.92, -62036.95, -0.04600466, 0.28135565, -251628.45, -189266.39, 0.0, 9.995381, 10.000765 
2.0150152e+3, 3.0363992e+2, -652637.1, -200235.16, -55183.953, 0.05069478, 0.35066923, -193601.11, -193601.11, 0.0, 9.995027, 10.001021 
2.0150042e+3, 3.1363916e+2, -533016.5, 44833.82, 66345.94, -0.079003125, 0.15507284, 52353.477, 52353.477, 0.0, 9.995053, 10.002684 
2.0251955e+3, 1.2366872e+2, -1213380.9, -1702014.9, 63890.254, -0.027182903, 0.19438908, -1205165.3, 522898.66, 0.2977625, 10.0063305, 9.99711 
2.0251867e+3, 1.3366634e+2, -1170704.9, -1696307.3, 55976.22, -0.051563967, 0.25784075, -1164809.5, 465279.34, 0.21405026, 10.00545, 9.996838 
2.025177e+3, 1.4366293e+2, -1051068.3, -1466535.6, 51309.117, -0.17342499, 0.17698993, -1044825.56, 487295.56, 0.1282814, 10.004553, 9.998226 
2.0251696e+3, 1.536603e+2, -1047336.1, -1419631.1, 25204.379, -0.024028968, 0.07272925, -1045637.56, 388503.4, 0.05888344, 10.003552, 9.998297 
2.0251606e+3, 1.6365796e+2, -1038978.6, -1447623.4, -40681.94, 0.055364516, 0.040494658, -1034968.0, 301192.97, 0.018052064, 10.003131, 9.997629 
2.0251493e+3, 1.7365597e+2, -874641.8, -1347863.0, -40178.793, -0.02252607, 0.09180011, -871254.7, 366928.0, 0.0026480327, 10.003677, 9.997378 
2.0251387e+3, 1.8365403e+2, -753954.06, -1182494.1, -13483.968, -0.049441345, 0.1387472, -753530.25, 386673.34, 0.000052423693, 10.003581, 9.997888 
2.0251298e+3, 1.9365229e+2, -829720.4, -1176416.3, -18636.422, 0.022203667, 0.17202476, -828721.44, 213500.03, 0.0, 10.00242, 9.997817 
2.0251195e+3, 2.036506e+2, -864254.94, -1090898.8, -60552.29, 0.024701858, 0.20315406, -849091.7, 95147.41, 0.0, 10.0012865, 9.998279 
2.0251074e+3, 2.1364903e+2, -926032.75, -1078401.1, -53755.23, -0.091557644, 0.21723194, -908977.1, -62721.47, 0.0, 10.000226, 9.998202 
2.0250958e+3, 2.2364736e+2, -890458.44, -932822.3, -56067.277, -0.13584048, 0.20090075, -851705.3, -103432.76, 0.0, 9.999463, 9.998897 
2.0250854e+3, 2.3364553e+2, -835547.0, -859853.2, -61445.406, -0.059606124, 0.1207901, -785064.4, -134775.25, 0.0, 9.9991865, 9.9988575 
2.0250742e+3, 2.4364427e+2, -759865.56, -723332.25, -68352.336, -0.050261322, 0.09332947, -670847.8, -118547.086, 0.0, 9.998823, 9.999295 
2.0250618e+3, 2.5364414e+2, -742145.7, -674427.2, -80186.12, -0.15234023, 0.1477305, -621244.75, -166941.88, 0.0, 9.998317, 9.999203 
2.0250507e+3, 2.636441e+2, -677192.6, -459653.9, -67484.04, -0.1617784, 0.17415917, -440419.88, -84116.445, 0.0, 9.9975195, 10.000387 
2.0250413e+3, 2.736441e+2, -766512.75, -446870.84, -64451.47, -0.021593602, 0.12349293, -434364.4, -176062.05, 0.0, 9.996213, 10.000431 
2.025031e+3, 2.8364468e+2, -744090.2, -342557.44, -56555.22, 0.021152787, 0.12218225, -334743.78, -174446.47, 0.0, 9.995511, 10.000813 
2.0250195e+3, 2.9364666e+2, -614295.4, -253507.88, -76657.69, -0.07589978, 0.23940527, -237895.75, -175614.69, 0.0, 9.995832, 10.000597 
2.0250101e+3, 3.0364832e+2, -582956.5, -160306.61, -65412.105, 0.035634235, 0.3284837, -150414.52, -150414.52, 0.0, 9.99547, 10.001085 
2.0249984e+3, 3.136492e+2, -729973.3, -75407.09, 19124.225, -0.09534345, 0.2930901, -74848.82, -74848.82, 0.0, 9.99381, 10.002457 
2.0352004e+3, 1.23677455e+2, -1216379.5, -1678210.3, 24708.133, -0.17456447, 0.0868866, -1215061.4, 512913.22, 0.3112134, 10.006268, 9.997382 
2.0351933e+3, 1.336749e+2, -1152806.0, -1627707.4, 30350.525, 0.045464456, 0.090529636, -1150874.1, 479124.88, 0.22440991, 10.005431, 9.997312 
2.0351835e+3, 1.4367203e+2, -1084962.6, -1529655.6, 18051.41, 0.015636357, 0.056247305, -1084231.1, 447795.75, 0.13516548, 10.004551, 9.997731 
2.035173e+3, 1.5367073e+2, -1092102.9, -1516316.8, -9321.469, -0.024400912, 0.15004821, -1091898.1, 342141.13, 0.0625517, 10.003559, 9.997624 
2.0351626e+3, 1.6366886e+2, -1032104.7, -1434779.5, -27188.05, -0.067392655, 0.19911893, -1030277.25, 305779.88, 0.019445576, 10.00314, 9.997713 
2.0351519e+3, 1.7366596e+2, -861724.25, -1319235.0, -17096.396, -0.14026581, 0.13948578, -861086.25, 376998.66, 0.0029288204, 10.003668, 9.997581 
2.0351413e+3, 1.8366323e+2, -771753.44, -1214419.6, -48608.05, -0.14411667, 0.107959405, -766478.75, 373632.75, 0.00006041413, 10.003558, 9.997681 
2.0351316e+3, 1.9366099e+2, -851898.5, -1218707.4, -60326.76, -0.026783414, 0.117257915, -842231.7, 199903.05, 0.0, 10.002403, 9.997536 
2.0351206e+3, 2.0365901e+2, -846733.6, -1053735.9, -99996.44, 0.0051649525, 0.12519535, -806318.94, 137836.27, 0.0, 10.001282, 9.998537 
2.0351075e+3, 2.136576e+2, -900809.75, -1028112.1, -91327.14, -0.107483044, 0.11842484, -853141.06, -6971.092, 0.0, 10.000234, 9.998545 
2.0350952e+3, 2.2365654e+2, -891376.3, -937879.94, -69972.164, -0.15056762, 0.14575674, -840893.8, -92712.8, 0.0, 9.999475, 9.9988575 
2.0350845e+3, 2.3365608e+2, -842394.8, -875058.75, -69636.695, -0.07241437, 0.21234448, -787200.56, -137014.83, 0.0, 9.999188, 9.998754 
2.0350732e+3, 2.4365517e+2, -777598.06, -760808.44, -86732.43, -0.031676285, 0.23724498, -682065.5, -129870.47, 0.0, 9.998824, 9.99904 
2.035061e+3, 2.5365373e+2, -760290.9, -713178.2, -98004.83, -0.06350704, 0.18716098, -635938.44, -181727.83, 0.0, 9.998319, 9.998937 
2.035049e+3, 2.6365322e+2, -673629.5, -453502.53, -113540.555, -0.08007036, 0.1791856, -405434.97, -49218.965, 0.0, 9.997523, 10.000428 
2.0350371e+3, 2.7365413e+2, -762322.7, -441677.44, -113607.01, -0.053105988, 0.21223606, -405506.06, -147300.3, 0.0, 9.996225, 10.000463 
2.0350258e+3, 2.8365424e+2, -773515.5, -406280.84, -53902.2, -0.056459952, 0.18280078, -398532.63, -238328.42, 0.0, 9.995521, 10.000371 
2.0350148e+3, 2.936536e+2, -626519.5, -284040.88, -63588.78, -0.14801607, 0.083485365, -272615.38, -210404.75, 0.0, 9.9958515, 10.00038 
2.0350042e+3, 3.0365485e+2, -548605.8, -89478.414, -118183.74, -0.09787366, 0.1096075, -60842.793, -60842.793, 0.0, 9.995471, 10.001572 
2.0349936e+3, 3.1365794e+2, -783556.5, -191769.92, -46390.742, 0.045773614, 0.2687819, -188155.38, -188155.38, 0.0, 9.993828, 10.001651 
2.045207e+3, 1.2368813e+2, -1262096.3, -1703581.8, 28721.057, -0.120839186, 0.10186126, -1260235.6, 467634.2, 0.3267947, 10.005969, 9.997277 
2.0451987e+3, 1.3368547e+2, -1204099.8, -1658627.4, 17094.504, 0.061311863, 0.09969997, -1203457.8, 426437.1, 0.2361184, 10.005047, 9.997281 
2.045188e+3, 1.436824e+2, -1106513.4, -1569449.3, 7154.603, 0.013116878, 0.059260882, -1106402.9, 425521.63, 0.14278105, 10.004541, 9.997459 
2.0451766e+3, 1.5368074e+2, -949216.44, -1478476.9, 1061.03, -0.08419639, 0.14907557, -949214.3, 484727.0, 0.066572115, 10.004779, 9.997297 
2.0451656e+3, 1.6367869e+2, -828051.56, -1324627.9, 2721.719, -0.14337976, 0.19486578, -828036.6, 507924.28, 0.020988071, 10.004536, 9.997798 
2.0451553e+3, 1.736759e+2, -875956.6, -1310051.8, 6971.0835, -0.157853, 0.13159856, -875844.7, 362141.84, 0.003251931, 10.003504, 9.997722 
2.0451446e+3, 1.8367319e+2, -912464.56, -1274938.5, -40899.617, -0.12662368, 0.09024531, -907907.0, 232105.23, 0.00007087868, 10.00256, 9.9977455 
2.0451339e+3, 1.9367081e+2, -939555.94, -1253696.1, -33870.97, -0.01741783, 0.08120334, -935945.44, 106091.016, 0.0, 10.001772, 9.997598 
2.0451218e+3, 2.0366879e+2, -855718.8, -1065176.6, -54934.992, 0.0073899897, 0.08452782, -842185.3, 101871.95, 0.0, 10.001256, 9.998468 
2.0451081e+3, 2.1366745e+2, -767454.4, -974098.3, -77003.625, -0.11084378, 0.09522848, -741916.0, 104155.65, 0.0, 10.001198, 9.99845 
2.0450953e+3, 2.2366643e+2, -709344.6, -864121.6, -78703.516, -0.1563419, 0.13695087, -676355.5, 71727.39, 0.0, 10.000788, 9.998729 
2.0450838e+3, 2.3366593e+2, -762546.25, -851825.9, -84238.875, -0.075218245, 0.21381398, -711850.3, -61761.64, 0.0, 9.9998045, 9.998615 
2.045072e+3, 2.4366495e+2, -800152.6, -776675.75, -103094.97, -0.023050252, 0.23989722, -684653.06, -132553.77, 0.0, 9.998692, 9.998993 
2.0450592e+3, 2.5366327e+2, -897588.8, -782322.3, -98952.85, -0.03160943, 0.1719564, -725442.44, -271325.47, 0.0, 9.997392, 9.998907 
2.0450462e+3, 2.6366267e+2, -835124.56, -558272.4, -107202.36, -0.05501139, 0.16594769, -521615.25, -165491.56, 0.0, 9.996532, 10.000186 
2.0450333e+3, 2.7366376e+2, -758709.1, -471368.13, -133575.31, -0.0780009, 0.2440557, -418866.3, -160753.45, 0.0, 9.996388, 10.000178 
2.045021e+3, 2.8366384e+2, -702149.2, -344636.06, -49959.08, -0.09717419, 0.21818218, -337786.0, -177674.84, 0.0, 9.9958935, 10.000614 
2.0450099e+3, 2.9366267e+2, -758923.56, -304773.56, -1469.0626, -0.16033532, 0.03525067, -304768.8, -242648.89, 0.0, 9.9947605, 10.000761 
2.044999e+3, 3.0366406e+2, -726834.7, -170271.34, -58319.492, -0.10915158, 0.049804203, -164226.0, -164226.0, 0.0, 9.994235, 10.001607 
2.0449878e+3, 3.1366748e+2, -631922.3, -118341.65, -6213.128, 0.022866596, 0.25092193, -118266.49, -118266.49, 0.0, 9.994872, 10.001648 
2.0552151e+3, 1.2370083e+2, -1297915.1, -1760045.5, -3438.9226, 0.09336602, 0.2517423, -1297889.5, 429859.0, 0.34467337, 10.0059395, 9.996826 
2.0552029e+3, 1.3369785e+2, -1238184.1, -1731341.5, -8016.636, -0.007745263, 0.26639357, -1238053.9, 391724.28, 0.24932033, 10.005042, 9.996785 
2.0551907e+3, 1.4369392e+2, -1115211.5, -1580623.4, 10135.628, -0.17583437, 0.17152156, -1114990.9, 416824.56, 0.15123992, 10.0045395, 9.997385 
2.0551802e+3, 1.5369038e+2, -954597.75, -1482292.6, 12738.966, -0.20761952, 0.07702728, -954290.44, 479556.25, 0.071017645, 10.004764, 9.99728 
2.0551696e+3, 1.6368756e+2, -827953.56, -1317021.9, -28357.709, -0.18459737, 0.04312734, -826314.8, 509556.8, 0.022718078, 10.004509, 9.997866 
2.0551594e+3, 1.7368576e+2, -874166.8, -1302670.0, -30046.836, -0.087051384, 0.07270258, -872070.1, 365817.63, 0.0036316286, 10.003487, 9.997782 
2.0551485e+3, 1.8368375e+2, -890597.3, -1227213.5, -71096.47, -0.008438683, 0.083472885, -876197.1, 263709.44, 0.000085899956, 10.002548, 9.99808 
2.0551363e+3, 1.9368161e+2, -913418.9, -1199774.9, -61530.766, 0.042134408, 0.061318353, -900757.25, 141170.42, 0.0, 10.001772, 9.99797 
2.0551233e+3, 2.0367979e+2, -882704.3, -1122948.6, -60507.563, 0.024083534, 0.07891298, -868325.56, 75621.14, 0.0, 10.001261, 9.99807 
2.0551094e+3, 2.1367848e+2, -805543.3, -1051118.6, -76372.84, -0.10730047, 0.14511473, -783729.4, 62232.406, 0.0, 10.001187, 9.997927 
2.0550959e+3, 2.2367692e+2, -728011.0, -900281.9, -110305.69, -0.15880485, 0.17369992, -674194.1, 73784.836, 0.0, 10.000775, 9.998488 
2.0550838e+3, 2.33675e+2, -777079.7, -880961.2, -119401.27, -0.07350866, 0.12841766, -698811.0, -48812.35, 0.0, 9.999798, 9.998419 
2.0550708e+3, 2.4367349e+2, -789003.44, -754432.94, -150649.11, -0.02923074, 0.10518193, -620080.7, -68066.51, 0.0, 9.998694, 9.999145 
2.0550564e+3, 2.5367266e+2, -882960.1, -754392.9, -147006.13, -0.060791373, 0.10244145, -658229.6, -204206.72, 0.0, 9.9974, 9.999095 
2.0550425e+3, 2.6367232e+2, -870572.8, -634946.44, -119118.32, -0.0895439, 0.13468868, -585221.2, -229193.48, 0.0, 9.996544, 9.999655 
2.0550293e+3, 2.7367285e+2, -798670.7, -557425.8, -138091.5, -0.103963986, 0.21817267, -494693.3, -236668.44, 0.0, 9.996399, 9.999583 
2.0550169e+3, 2.836734e+2, -635741.06, -208914.2, -88744.984, -0.10923364, 0.23000515, -191197.88, -31178.78, 0.0, 9.995901, 10.001543 
2.0550051e+3, 2.936738e+2, -686807.2, -161169.2, -43902.168, -0.12082547, 0.09691051, -157527.64, -95517.85, 0.0, 9.994784, 10.001738 
2.0549944e+3, 3.036757e+2, -764237.75, -246285.42, -52373.855, 0.005128016, 0.13791664, -241042.6, -241042.6, 0.0, 9.994229, 10.001088 
2.0549807e+3, 3.1367707e+2, -608496.1, -79619.47, 60424.477, -0.17185962, 0.18584882, -72803.766, -72803.766, 0.0, 9.9949, 10.001909 
2.0652209e+3, 1.2371255e+2, -1352872.1, -1816815.9, 20519.992, 0.09267697, 0.23224625, -1351966.3, 375665.63, 0.36448538, 10.005594, 9.996605 
2.0652083e+3, 1.3370948e+2, -1169546.1, -1701754.6, 36945.246, -0.020352148, 0.25895402, -1166993.6, 462669.25, 0.26386884, 10.00584, 9.996608 
2.0651957e+3, 1.4370535e+2, -1000344.1, -1526270.0, 68059.22, -0.16273944, 0.1577495, -991679.44, 540023.0, 0.16053942, 10.005571, 9.997273 
2.065185e+3, 1.5370172e+2, -988644.06, -1512159.0, 68832.914, -0.1786601, 0.066629805, -979745.0, 453989.4, 0.07593495, 10.004585, 9.997166 
2.0651743e+3, 1.6369878e+2, -956628.44, -1393558.1, 5119.916, -0.1411706, 0.031999353, -956568.44, 379192.16, 0.02467327, 10.003667, 9.997745 
2.0651631e+3, 1.7369688e+2, -972666.75, -1362657.4, -12969.413, -0.032965627, 0.06331505, -972235.94, 265542.03, 0.0040843734, 10.002863, 9.99767 
2.0651512e+3, 1.836948e+2, -910397.8, -1238793.0, -50382.31, 0.021479823, 0.074397385, -902842.0, 236955.23, 0.00010808572, 10.002422, 9.99806 
2.0651379e+3, 1.9369258e+2, -796053.0, -1144326.6, -67438.11, -0.009401185, 0.04615368, -783450.6, 258367.67, 0.0, 10.002582, 9.99796 
2.0651245e+3, 2.0369065e+2, -746508.4, -1068037.9, -81540.86, -0.041444495, 0.057392914, -727011.6, 216826.27, 0.0, 10.002241, 9.997975 
2.0651108e+3, 2.1368918e+2, -827009.3, -1073420.5, -73125.13, -0.07558065, 0.117474005, -806942.8, 38911.88, 0.0, 10.00109, 9.997821 
2.0650971e+3, 2.236875e+2, -832200.25, -953163.94, -89413.22, -0.09039519, 0.14161214, -784734.06, -36860.816, 0.0, 10.000073, 9.998463 
2.0650832e+3, 2.3368554e+2, -847123.8, -915953.5, -87562.37, -0.071561776, 0.09405591, -787456.0, -137562.06, 0.0, 9.999325, 9.998405 
2.0650691e+3, 2.4368414e+2, -771969.4, -737603.9, -108365.125, -0.06381949, 0.08081887, -645067.7, -93159.086, 0.0, 9.998777, 9.99922 
2.0650542e+3, 2.5368378e+2, -710530.0, -661985.5, -113623.04, -0.074362256, 0.11345235, -570071.1, -116158.09, 0.0, 9.998546, 9.999177 
2.0650397e+3, 2.636834e+2, -691763.4, -562586.06, -77812.53, -0.07841325, 0.14732057, -526048.6, -170131.23, 0.0, 9.997833, 9.99953 
2.0650259e+3, 2.7368313e+2, -820608.6, -585345.1, -63919.35, -0.07360276, 0.16725306, -569100.4, -311178.72, 0.0, 9.9963255, 9.999428 
2.0650125e+3, 2.8368342e+2, -763193.2, -281000.03, -33886.41, -0.09024196, 0.16455612, -278630.3, -118711.234, 0.0, 9.995076, 10.001444 
2.0649995e+3, 2.9368466e+2, -773290.4, -223132.2, -83984.875, -0.1291753, 0.12291733, -210597.02, -148692.73, 0.0, 9.994285, 10.001549 
2.064989e+3, 3.0368736e+2, -773825.3, -227297.89, -63473.73, 0.045179315, 0.25138822, -220022.89, -220022.89, 0.0, 9.994066, 10.001295 
2.064975e+3, 3.1368607e+2, -679241.5, -98167.02, 95225.85, -0.20023653, -0.0012914805, -82959.516, -82959.516, 0.0, 9.994348, 10.0020485 
2.0752244e+3, 1.23723514e+2, -1365067.9, -1816823.9, 23456.574, -0.12540847, 0.07226388, -1363853.3, 363664.88, 0.3853904, 10.005593, 9.996607 
2.0752144e+3, 1.337205e+2, -1176305.5, -1690056.3, 44680.215, 0.004557194, 0.09613429, -1172448.6, 457099.72, 0.27935052, 10.005823, 9.9967 
2.075203e+3, 1.4371675e+2, -1018664.6, -1551423.9, 40789.348, 0.023613546, 0.03319565, -1015559.8, 516025.75, 0.17056786, 10.00555, 9.997106 
2.0751914e+3, 1.537146e+2, -1006201.4, -1545026.6, 35320.555, -0.014106701, 0.112298355, -1003895.94, 429710.3, 0.0813431, 10.00458, 9.996941 
2.0751792e+3, 1.6371211e+2, -976120.94, -1434794.3, -25250.688, -0.024146385, 0.14877045, -974735.0, 360895.13, 0.026889015, 10.003671, 9.997461 
2.0751663e+3, 1.7370911e+2, -990718.2, -1402973.8, -41297.273, -0.00058390986, 0.098833576, -986621.94, 251036.3, 0.004627983, 10.002872, 9.997391 
2.0751528e+3, 1.8370625e+2, -934572.6, -1291117.8, -48223.266, -0.038521726, 0.06259353, -928165.5, 211519.45, 0.00014078614, 10.00243, 9.997698 
2.0751387e+3, 1.9370371e+2, -823917.1, -1201084.0, -58551.03, -0.17238736, 0.03735267, -815036.8, 226671.73, 0.0000000002137382, 10.002575, 9.997576 
2.0751253e+3, 2.0370136e+2, -735132.5, -1042238.06, -117964.734, -0.19069196, 0.022655865, -695051.25, 248679.88, 0.0, 10.002231, 9.998159 
2.0751126e+3, 2.1369947e+2, -810272.75, -1036503.7, -114822.6, -0.021082511, 0.015487497, -762207.1, 83543.77, 0.0, 10.00108, 9.99808 
2.0750985e+3, 2.2369808e+2, -819506.2, -927448.6, -119449.336, 0.041361548, 0.04382446, -742401.0, 5365.6284, 0.0, 10.000074, 9.998639 
2.0750825e+3, 2.336974e+2, -836481.6, -894425.75, -113547.76, -0.075736664, 0.10968076, -748268.06, -98492.26, 0.0, 9.999327, 9.998553 
2.0750672e+3, 2.4369678e+2, -771597.75, -738259.2, -120015.18, -0.13247837, 0.16465236, -633761.2, -81977.266, 0.0, 9.998782, 9.999213 
2.0750527e+3, 2.536964e+2, -712534.94, -666774.0, -121937.766, -0.08061066, 0.20280974, -565588.6, -111800.14, 0.0, 9.998547, 9.999145 
2.0750381e+3, 2.6369584e+2, -674145.9, -526562.3, -129753.95, -0.026399607, 0.20409538, -451084.84, -95290.9, 0.0, 9.997834, 9.999778 
2.0750232e+3, 2.7369452e+2, -799581.2, -545342.25, -120338.586, 0.009147671, 0.09338999, -497416.75, -239612.22, 0.0, 9.996339, 9.999697 
2.075008e+3, 2.836937e+2, -842549.7, -449801.34, -70751.51, -0.048659284, 0.017666046, -437444.63, -277631.53, 0.0, 9.9950905, 10.000279 
2.074993e+3, 2.9369485e+2, -866663.2, -422500.28, -115533.2, -0.20774783, 0.099390626, -394245.75, -332439.16, 0.0, 9.994305, 10.000173 
2.0749827e+3, 3.0369908e+2, -706126.9, -87159.81, -52921.934, 0.019682618, 0.41227916, -82667.57, -82667.57, 0.0, 9.99407, 10.0022545 
2.0749702e+3, 3.1369704e+2, -667592.4, -76725.86, 7301.759, -0.12765633, -0.03276, -76635.64, -76635.64, 0.0, 9.99436, 10.00219 
2.0852305e+3, 1.237358e+2, -1237541.3, -1717578.3, 43926.543, -0.15895084, -0.034766816, -1233554.8, 493838.28, 0.4062779, 10.007242, 9.996535 
2.0852205e+3, 1.3373345e+2, -1150929.4, -1651443.1, 70432.16, 0.025471916, 0.039136034, -1141207.0, 488210.66, 0.29519978, 10.006092, 9.996854 
2.085209e+3, 1.4373e+2, -1088795.3, -1629118.6, 65365.664, 0.06338482, 0.01551682, -1081000.1, 450452.44, 0.18114838, 10.005191, 9.996749 
2.0851962e+3, 1.5372758e+2, -1018256.8, -1597031.3, 47047.676, 0.0016760749, 0.10787613, -1014457.3, 419020.25, 0.087243944, 10.004714, 9.996519 
2.0851831e+3, 1.637247e+2, -912821.56, -1437517.0, -14353.581, -0.021470416, 0.14529498, -912429.2, 423076.72, 0.029400552, 10.004275, 9.99715 
2.0851697e+3, 1.737213e+2, -859692.5, -1373113.4, -33665.82, 0.004867166, 0.08443182, -857494.4, 380043.63, 0.0052825883, 10.003922, 9.99709 
2.085156e+3, 1.837181e+2, -799783.25, -1249849.1, -25061.682, -0.035104293, 0.03946284, -798392.0, 341175.94, 0.00018824065, 10.003457, 9.997488 
2.0851414e+3, 1.9371527e+2, -799917.1, -1210144.1, -23135.42, -0.178861, 0.007845355, -798616.44, 242977.34, 0.000000020895914, 10.002831, 9.997388 
2.0851272e+3, 2.037129e+2, -756476.25, -1054737.4, -105336.53, -0.19685133, -0.00028777696, -723026.06, 220590.92, 0.0, 10.002098, 9.998135 
2.0851138e+3, 2.1371128e+2, -789119.8, -1025732.0, -125917.47, -0.009253929, 0.02001827, -734649.9, 110985.15, 0.0, 10.001226, 9.998081 
2.0850989e+3, 2.2370999e+2, -754302.2, -893551.1, -130636.57, 0.054981872, 0.059759628, -675894.6, 71755.055, 0.0, 10.000513, 9.998659 
2.0850822e+3, 2.337092e+2, -726545.06, -839373.5, -135730.25, -0.08621849, 0.11126304, -635972.0, 13687.229, 0.0, 10.0000725, 9.998571 
2.085066e+3, 2.4370843e+2, -707383.7, -713852.44, -155509.88, -0.1482401, 0.15416028, -555074.56, -3406.269, 0.0, 9.99925, 9.999156 
2.0850511e+3, 2.5370792e+2, -822070.8, -726398.75, -162040.05, -0.067599915, 0.18451004, -605281.3, -151606.42, 0.0, 9.997825, 9.9990835 
2.0850356e+3, 2.637075e+2, -813777.3, -569555.44, -174778.11, 0.006111004, 0.19334361, -478456.44, -122777.39, 0.0, 9.996774, 9.999991 
2.0850198e+3, 2.7370676e+2, -782619.9, -510236.78, -170384.6, 0.049038913, 0.114440225, -428302.13, -170618.77, 0.0, 9.996343, 9.999934 
2.0850039e+3, 2.8370586e+2, -771704.1, -446623.2, -89260.62, -0.010212986, 0.032624796, -423726.72, -264034.38, 0.0, 9.995708, 10.000005 
2.0849878e+3, 2.937061e+2, -844702.8, -453326.5, -61186.1, -0.18787894, 0.057013057, -443983.94, -382287.6, 0.0, 9.994631, 9.999806 
2.0849763e+3, 3.0371e+2, -777954.75, -117868.18, 35807.004, -0.00802219, 0.36342263, -115931.48, -115931.48, 0.0, 9.993558, 10.002292 
2.0849639e+3, 3.1371e+2, -873171.1, -86828.18, -27886.688, -0.09133469, 0.10429456, -85840.45, -85840.45, 0.0, 9.992567, 10.002984 
2.0952387e+3, 1.23749316e+2, -1268815.8, -1739514.9, 15109.759, -0.0466175, -0.08989313, -1268331.3, 458926.2, 0.42612165, 10.007128, 9.996401 
2.0952265e+3, 1.337481e+2, -1155408.5, -1624914.9, 37251.27, 0.033419933, 0.08074456, -1152471.4, 476800.72, 0.31091964, 10.006065, 9.997035 
2.0952131e+3, 1.4374489e+2, -1121977.4, -1702274.1, 46208.32, -0.04012692, 0.09463715, -1118320.9, 412984.4, 0.1921478, 10.005204, 9.996237 
2.0951997e+3, 1.5374058e+2, -1055004.1, -1680140.0, 31919.76, -0.12946923, 0.056257613, -1053378.5, 379969.94, 0.093662426, 10.004736, 9.995937 
2.0951863e+3, 1.6373661e+2, -936257.9, -1489748.5, -27482.51, -0.13358164, 0.031086039, -934896.6, 400490.88, 0.03225593, 10.0042925, 9.996786 
2.0951736e+3, 1.7373341e+2, -881726.25, -1422150.3, -44976.84, -0.019263584, 0.024716629, -878008.6, 359408.8, 0.0060755853, 10.003937, 9.996749 
2.0951599e+3, 1.8373026e+2, -803603.4, -1259714.9, -46541.09, 0.024455989, 0.0070463386, -798902.8, 340544.06, 0.00025706264, 10.003463, 9.997418 
2.0951454e+3, 1.9372724e+2, -803748.0, -1216068.9, -44521.348, -0.043195352, -0.041346516, -798995.44, 242479.42, 0.00000016154009, 10.00282, 9.9973545 
2.0951307e+3, 2.0372511e+2, -772277.06, -1085994.8, -136951.34, -0.07346678, -0.012714442, -720904.4, 222592.33, 0.0, 10.0020895, 9.997926 
2.0951144e+3, 2.1372446e+2, -806942.8, -1061583.5, -155869.84, -0.04397983, 0.12666197, -733002.5, 112505.78, 0.0, 10.001219, 9.99784 
2.0950983e+3, 2.2372316e+2, -765665.6, -916104.56, -148037.64, -0.048887607, 0.1850793, -674833.56, 72690.0, 0.0, 10.000507, 9.998508 
2.0950821e+3, 2.3372082e+2, -738758.06, -862378.7, -149974.83, -0.10871222, 0.09924252, -638355.7, 11189.3, 0.0, 10.000061, 9.99842 
2.0950657e+3, 2.4371906e+2, -714843.7, -728350.9, -205358.22, -0.1173754, 0.053023756, -516128.06, 35434.375, 0.0, 9.999246, 9.999059 
2.095049e+3, 2.5371823e+2, -827735.3, -740271.94, -215071.77, -0.043841608, 0.062606044, -564530.75, -110957.875, 0.0, 9.997833, 9.998985 
2.0950325e+3, 2.637183e+2, -799994.94, -544446.8, -197155.45, 0.010756675, 0.11672272, -437281.6, -81707.88, 0.0, 9.996787, 10.000158 
2.0950161e+3, 2.737196e+2, -766080.3, -480311.66, -185619.52, 0.03662239, 0.22348578, -388951.38, -131391.45, 0.0, 9.99636, 10.000132 
2.0949997e+3, 2.837198e+2, -729136.44, -359180.63, -128566.35, 0.022288134, 0.2132419, -318889.5, -159331.86, 0.0, 9.995712, 10.000604 
2.0949835e+3, 2.9371846e+2, -797482.06, -356415.5, -102536.164, -0.06828799, 0.015919106, -333743.94, -272171.38, 0.0, 9.994636, 10.000469 
2.0949693e+3, 3.0371976e+2, -837096.06, -245035.22, -3935.5947, -0.057704125, 0.06428853, -245009.05, -245009.05, 0.0, 9.993574, 10.001413 
2.0949568e+3, 3.1372243e+2, -747785.6, 162488.02, -51546.54, -0.069842234, 0.1736987, 165397.67, 165397.67, 0.0, 9.992614, 10.004674 
2.1052453e+3, 1.2376378e+2, -1476371.0, -1900931.1, -17512.395, 0.013343518, -0.010657733, -1475649.9, 251467.88, 0.44445562, 10.004727, 9.996444 
2.1052326e+3, 1.3376185e+2, -1184864.3, -1643566.9, 10492.362, 0.032738887, 0.091796525, -1184624.4, 444514.66, 0.3263478, 10.005901, 9.996974 
2.1052185e+3, 1.4375874e+2, -965430.75, -1593495.8, 7375.1616, -0.10044819, 0.11630599, -965344.2, 565826.44, 0.20359239, 10.00656, 9.9963255 
2.1052048e+3, 1.537542e+2, -854351.75, -1557118.4, 29120.28, -0.14361456, 0.04270005, -853147.2, 580067.5, 0.10068309, 10.006231, 9.996062 
2.1051913e+3, 1.637501e+2, -752033.06, -1424662.0, -1526.1458, -0.12218556, 0.006717093, -752029.56, 583225.1, 0.035524663, 10.005734, 9.996537 
2.105178e+3, 1.7374687e+2, -740019.75, -1385520.8, -16917.291, -0.021447286, 0.029037474, -739576.7, 497709.06, 0.007044626, 10.005061, 9.996457 
2.1051638e+3, 1.8374369e+2, -711340.25, -1221686.8, -29424.559, 0.033355813, 0.027140154, -709649.3, 429666.7, 0.00035805994, 10.004129, 9.997356 
2.1051489e+3, 1.9374058e+2, -803860.6, -1220004.1, -30926.883, 0.016796049, -0.026721612, -801574.75, 239769.73, 0.00000090963493, 10.002837, 9.997318 
2.1051331e+3, 2.0373835e+2, -819474.25, -1137267.5, -111585.17, -0.012413691, 0.0038295614, -784207.56, 159160.0, 0.0, 10.001889, 9.997668 
2.1051157e+3, 2.1373752e+2, -783221.44, -1082415.3, -135977.64, -0.061694536, 0.15507063, -730657.1, 114724.695, 0.0, 10.001523, 9.997549 
2.1050987e+3, 2.2373596e+2, -717194.6, -882743.25, -129992.57, -0.09665965, 0.20046058, -645859.7, 101539.65, 0.0, 10.0008, 9.998595 
2.1050818e+3, 2.3373327e+2, -810813.7, -880168.1, -112424.47, -0.10342222, 0.06335159, -727839.8, -78418.055, 0.0, 9.999497, 9.998568 
2.1050647e+3, 2.437314e+2, -800907.06, -760035.44, -144487.66, -0.084690705, -0.0032336186, -634545.56, -83107.01, 0.0, 9.998614, 9.999145 
2.1050474e+3, 2.537309e+2, -738957.5, -690168.2, -143045.33, -0.026464058, 0.029712664, -569452.3, -116005.84, 0.0, 9.998412, 9.999049 
2.1050298e+3, 2.6373088e+2, -671406.4, -506600.16, -132116.97, 0.016239045, 0.08662388, -433294.7, -77846.14, 0.0, 9.997771, 9.999945 
2.1050124e+3, 2.737319e+2, -772350.8, -511835.1, -155787.11, 0.038870893, 0.18580768, -439024.66, -181584.75, 0.0, 9.996436, 9.999881 
2.1049954e+3, 2.837325e+2, -762789.25, -362680.4, -129403.98, 0.027904617, 0.22636637, -324476.25, -165042.14, 0.0, 9.995427, 10.000717 
2.1049786e+3, 2.9373208e+2, -752499.9, -319308.1, -142336.55, -0.04268906, 0.108934015, -276725.53, -215287.23, 0.0, 9.994878, 10.0006075 
2.1049629e+3, 3.0373144e+2, -811263.0, -231706.53, -55402.8, -0.06613029, -0.04272997, -226457.83, -226457.83, 0.0, 9.993751, 10.001418 
2.1049489e+3, 3.1373516e+2, -845042.44, 141179.36, -10838.726, -0.084906965, 0.1687099, 141298.47, 141298.47, 0.0, 9.991846, 10.004895 
2.11525e+3, 1.23778954e+2, -1480542.9, -1880847.1, -27371.943, 0.0031615456, 0.17341553, -1478679.9, 248295.9, 0.46175516, 10.004701, 9.996599 
2.1152383e+3, 1.337748e+2, -1207778.8, -1685484.8, 47006.89, 0.012359833, 0.07349976, -1203197.1, 425820.38, 0.34188053, 10.005905, 9.996697 
2.1152246e+3, 1.4377168e+2, -941163.7, -1511817.3, 4145.1265, -0.13042842, 0.088446155, -941133.56, 589913.6, 0.21576227, 10.0065565, 9.996925 
2.1152122e+3, 1.5376839e+2, -814718.56, -1449871.5, 18317.639, -0.055968132, 0.066221, -814190.7, 618885.75, 0.108478226, 10.006214, 9.996808 
2.1151982e+3, 1.6376498e+2, -767383.56, -1447320.3, -24682.184, -0.003796031, 0.06586374, -766488.75, 568620.1, 0.039305434, 10.005709, 9.996396 
2.1151832e+3, 1.7376156e+2, -758742.94, -1422519.3, -39957.434, -0.01032114, 0.093210965, -756346.25, 480797.72, 0.008240732, 10.005055, 9.996207 
2.1151675e+3, 1.8375827e+2, -713703.4, -1229034.1, -74260.47, -0.011264244, 0.095613666, -703215.7, 435960.66, 0.00050836033, 10.004137, 9.997304 
2.1151516e+3, 1.9375518e+2, -804847.94, -1224338.1, -76667.945, 0.00027543976, 0.04783557, -791274.94, 249928.73, 0.000003451646, 10.002846, 9.997286 
2.115135e+3, 2.0375247e+2, -840631.9, -1183896.6, -128011.19, -0.013783217, 0.047705133, -798150.9, 145079.58, 0.0, 10.001899, 9.997346 
2.1151172e+3, 2.1375039e+2, -809717.94, -1137550.6, -146109.89, -0.07037276, 0.110431954, -754051.4, 91205.09, 0.0, 10.001522, 9.997173 
2.1150994e+3, 2.2374834e+2, -693230.06, -834035.75, -173790.88, -0.0972646, 0.1120912, -576123.4, 171154.3, 0.0, 10.000802, 9.99893 
2.1150815e+3, 2.3374635e+2, -778867.75, -816301.8, -159835.53, -0.07758706, 0.0047338717, -636657.1, 12633.744, 0.0, 9.999506, 9.999003 
2.1150637e+3, 2.4374531e+2, -781731.94, -722009.2, -157675.0, -0.05526847, -0.017260853, -591392.8, -40094.58, 0.0, 9.998621, 9.999402 
2.115046e+3, 2.5374568e+2, -723647.56, -660072.4, -150093.11, -0.021557657, 0.08132263, -538437.75, -85140.39, 0.0, 9.998419, 9.999253 
2.1150276e+3, 2.637452e+2, -712724.9, -593817.06, -179306.56, 0.018546844, 0.10388612, -464364.6, -109059.79, 0.0, 9.997777, 9.999344 
2.115009e+3, 2.7374354e+2, -819146.5, -611696.5, -206170.92, 0.04628825, 0.009379455, -484628.66, -227305.03, 0.0, 9.996447, 9.99919 
2.1149905e+3, 2.8374383e+2, -786465.9, -415783.4, -154392.08, -0.0037387714, 0.06959142, -359902.16, -200579.22, 0.0, 9.995441, 10.000347 
2.1149726e+3, 2.9374668e+2, -775911.1, -375002.94, -162056.83, -0.11813256, 0.31163326, -317689.2, -256392.47, 0.0, 9.9949045, 10.000214 
2.114957e+3, 3.0374548e+2, -754989.2, -114119.914, -129540.6, -0.03463656, 0.08704709, -88925.96, -88925.96, 0.0, 9.99375, 10.002225 
2.1149407e+3, 3.1374937e+2, -946897.44, -75471.19, -25423.877, -0.09285825, 0.22739579, -74730.07, -74730.07, 0.0, 9.991863, 10.003402 
2.1252552e+3, 1.2379387e+2, -1375572.5, -1706628.4, 10888.133, -0.0033447745, 0.2131754, -1375214.8, 351619.4, 0.47948372, 10.005806, 9.997382 
2.1252453e+3, 1.3378935e+2, -1112732.8, -1607288.5, 148247.38, 0.07206546, 0.05614683, -1071699.0, 557177.94, 0.35852578, 10.006957, 9.996868 
2.1252322e+3, 1.4378658e+2, -893688.2, -1477818.0, 72340.64, -0.059966143, 0.09344912, -884862.6, 646039.7, 0.22922215, 10.007038, 9.996996 
2.1252182e+3, 1.5378366e+2, -910520.5, -1488166.9, 45244.27, -0.025996452, 0.10001915, -906998.25, 525930.25, 0.11732016, 10.005471, 9.996902 
2.1252036e+3, 1.6378036e+2, -913327.2, -1508260.0, 18504.148, 0.00982521, 0.10188734, -912752.25, 422207.4, 0.04373359, 10.004634, 9.996492 
2.1251884e+3, 1.7377666e+2, -742395.44, -1405182.1, 30669.21, 0.020164775, 0.09143775, -740979.3, 496017.88, 0.009734537, 10.005136, 9.996286 
2.1251723e+3, 1.837733e+2, -589161.4, -1172552.1, -27006.764, 0.0091778515, 0.08626366, -587913.8, 551116.0, 0.0007353413, 10.005013, 9.997269 
2.1251547e+3, 1.9377054e+2, -656311.25, -1158944.6, -38865.96, -0.030491464, 0.07629304, -653323.75, 387730.72, 0.000010540161, 10.003895, 9.997228 
2.125137e+3, 2.0376773e+2, -690743.9, -1129327.5, -58923.207, -0.054524843, 0.07591723, -682965.56, 260116.56, 0.0, 10.003006, 9.997185 
2.1251194e+3, 2.1376489e+2, -676798.94, -1093052.3, -60285.12, -0.05483084, 0.08136423, -668243.8, 176870.3, 0.0, 10.002521, 9.996996 
2.1251011e+3, 2.2376253e+2, -567807.8, -786384.94, -121037.17, -0.049627703, 0.06814802, -514019.78, 233117.84, 0.0, 10.001722, 9.998812 
2.125082e+3, 2.3376094e+2, -650993.9, -766975.9, -152723.83, -0.03879698, 0.010980534, -545621.7, 103525.87, 0.0, 10.00044, 9.99889 
2.1250628e+3, 2.4376e+2, -712353.9, -699862.25, -165182.98, -0.034768537, 0.011080406, -540807.0, 10347.186, 0.0, 9.999147, 9.999301 
2.125044e+3, 2.5376013e+2, -813415.56, -714226.44, -180387.9, -0.025450783, 0.09367344, -576739.7, -123583.95, 0.0, 9.997851, 9.999154 
2.125025e+3, 2.6375952e+2, -820909.2, -646602.3, -199755.88, 0.006038636, 0.11405904, -515815.1, -160651.31, 0.0, 9.99704, 9.999335 
2.1250056e+3, 2.7375785e+2, -751014.5, -577327.0, -176340.72, 0.036210306, 0.01685303, -467605.53, -210422.98, 0.0, 9.996912, 9.9992 
2.124986e+3, 2.837579e+2, -697655.8, -338492.6, -91323.39, -0.024190338, 0.03765504, -316605.8, -157422.0, 0.0, 9.995905, 10.000652 
2.1249668e+3, 2.9376078e+2, -929481.5, -414630.06, -51661.9, -0.13389379, 0.24827883, -409497.3, -348340.53, 0.0, 9.993708, 10.000516 
2.1249504e+3, 3.0376074e+2, -956941.25, -230418.63, -21368.08, 0.0011201196, 0.13317733, -229790.69, -229790.69, 0.0, 9.992441, 10.002059 
2.1249332e+3, 3.1376475e+2, -1051610.4, -183930.06, -18083.975, -0.0049709217, 0.30820483, -183553.33, -183553.33, 0.0, 9.991385, 10.00289 
2.1352607e+3, 1.2380859e+2, -1342928.1, -1612728.0, -6252.92, -0.039077964, 0.12603691, -1342783.4, 383909.06, 0.49980724, 10.005819, 9.998672 
2.1352537e+3, 1.3380544e+2, -1102755.3, -1551185.1, 171962.17, 0.19525342, 0.04201464, -1044404.6, 584314.2, 0.37765202, 10.006966, 9.997417 
2.1352407e+3, 1.4380325e+2, -931049.1, -1525731.1, 34359.5, 0.09178425, 0.12956917, -929070.44, 601667.5, 0.24466684, 10.00701, 9.996584 
2.1352234e+3, 1.5379989e+2, -941463.2, -1556284.1, -6880.437, -0.056263696, 0.14216979, -941386.2, 491385.4, 0.12753129, 10.005509, 9.996415 
2.1352072e+3, 1.6379622e+2, -888511.6, -1461949.6, 28378.053, -0.079987094, 0.116279416, -887110.7, 447696.78, 0.0489814, 10.004687, 9.996785 
2.1351941e+3, 1.7379211e+2, -716059.3, -1350153.0, 52976.676, 0.06440401, 0.029046755, -711663.75, 525182.0, 0.011625455, 10.005144, 9.99666 
2.135178e+3, 1.8378876e+2, -593926.5, -1180274.4, -60541.055, 0.086019, 0.0052940543, -587740.8, 551136.25, 0.0010831216, 10.005003, 9.997222 
2.1351582e+3, 1.9378658e+2, -662755.3, -1173834.0, -78723.59, -0.0809703, 0.06342718, -650904.0, 389993.8, 0.000028946504, 10.0039, 9.997125 
2.1351391e+3, 2.0378397e+2, -689130.6, -1129035.0, -79117.875, -0.13809545, 0.091506004, -675333.8, 267589.75, 0.0, 10.003017, 9.997183 
2.1351223e+3, 2.1378084e+2, -676006.0, -1091387.0, -75607.8, -0.020033477, 0.06497873, -662671.9, 182284.5, 0.0, 10.002519, 9.99701 
2.1351038e+3, 2.2377837e+2, -608643.6, -869683.56, -165032.03, 0.04101656, 0.06347124, -528756.75, 218224.22, 0.0, 10.001714, 9.998245 
2.1350828e+3, 2.3377687e+2, -698569.8, -864582.25, -199239.97, 0.0063690296, 0.08102678, -565736.75, 83256.55, 0.0, 10.000432, 9.998225 
2.135062e+3, 2.437754e+2, -743504.06, -765619.6, -214536.9, -0.02828142, 0.08364672, -539740.2, 11267.162, 0.0, 9.99915, 9.998849 
2.1350415e+3, 2.537741e+2, -840064.6, -773628.3, -228012.63, -0.045545638, 0.06935328, -576426.9, -123404.484, 0.0, 9.997867, 9.99874 
2.1350217e+3, 2.637738e+2, -778234.25, -560557.3, -210806.81, -0.028479997, 0.116318166, -432150.5, -77123.89, 0.0, 9.99705, 9.999922 
2.1350022e+3, 2.7377465e+2, -699374.1, -474057.97, -182964.9, 0.003999722, 0.20137373, -371848.66, -114830.266, 0.0, 9.996927, 9.999902 
2.1349818e+3, 2.837746e+2, -630389.7, -201246.27, -169708.08, -0.03634708, 0.1306687, -142245.6, 16772.418, 0.0, 9.995914, 10.001591 
2.1349609e+3, 2.937743e+2, -857729.44, -268057.97, -128456.83, -0.09895868, -0.071558446, -241289.48, -180270.64, 0.0, 9.993716, 10.001519 
2.1349432e+3, 3.0377692e+2, -1026261.06, -375900.84, -45705.195, 0.031232243, 0.06814312, -372704.53, -372704.53, 0.0, 9.992447, 10.001059 
2.134925e+3, 3.137783e+2, -1013752.56, -104627.59, -130925.96, 0.03420192, 0.10909119, -86148.15, -86148.15, 0.0, 9.991388, 10.003429 
2.1452607e+3, 1.3382424e+2, -1008549.4, -1518478.0, 194330.05, 0.14694189, 0.17346945, -942934.56, 685602.8, 0.400095, 10.008399, 9.9971285 
2.1452484e+3, 1.4382045e+2, -1031150.2, -1594135.3, 74760.22, 0.16826928, 0.122361034, -1021391.75, 509179.66, 0.26243004, 10.006263, 9.996483 
2.1452297e+3, 1.5381716e+2, -713142.75, -1433171.3, 72861.44, -0.05700214, 0.14926323, -705843.7, 726761.06, 0.13931488, 10.007421, 9.996346 
2.1452132e+3, 1.6381358e+2, -488257.56, -1235674.3, 109918.555, -0.11570022, 0.12881264, -472427.7, 862211.44, 0.05522894, 10.007513, 9.997014 
2.1451995e+3, 1.738096e+2, -614041.6, -1270922.3, 125892.61, 0.061495386, 0.027724676, -590740.6, 645933.7, 0.014045834, 10.005744, 9.996915 
2.1451831e+3, 1.838063e+2, -651922.6, -1231898.4, 11433.067, 0.10407695, 0.0054399185, -651697.4, 487007.47, 0.0016196523, 10.004712, 9.997005 
2.1451627e+3, 1.9380414e+2, -536048.8, -1143747.0, -19233.014, -0.0622935, 0.0932241, -535440.7, 505287.06, 0.00007378195, 10.004908, 9.996844 
2.145143e+3, 2.0380142e+2, -500860.22, -1050499.0, -51410.45, -0.118980505, 0.13054107, -496092.9, 446662.5, 0.00000001880345, 10.004368, 9.99707 
2.145125e+3, 2.1379794e+2, -658491.25, -1093366.6, -61297.414, -0.0008573609, 0.079533786, -650016.3, 194773.61, 0.0, 10.0026865, 9.996913 
2.1451055e+3, 2.2379524e+2, -679592.06, -932679.06, -141579.92, 0.0638122, 0.071840934, -616245.75, 130570.48, 0.0, 10.00135, 9.997988 
2.1450837e+3, 2.337937e+2, -695517.94, -894016.56, -148431.36, 0.040644914, 0.11452456, -616211.1, 32619.076, 0.0, 10.000588, 9.997947 
2.1450618e+3, 2.4379192e+2, -668690.7, -767061.5, -141505.89, 0.0067317104, 0.11639813, -568065.8, -17218.104, 0.0, 9.999826, 9.998512 
2.14504e+3, 2.537898e+2, -689587.9, -738513.3, -149843.88, -0.034988873, 0.057405237, -562223.06, -109353.26, 0.0, 9.999061, 9.9984045 
2.1450187e+3, 2.637892e+2, -664572.2, -468848.97, -143459.9, -0.041452125, 0.07707479, -393051.0, -38174.94, 0.0, 9.99767, 10.000254 
2.144998e+3, 2.7379057e+2, -907412.7, -528648.25, -140973.11, -0.006541544, 0.17097631, -481939.3, -225077.64, 0.0, 9.995302, 10.000312 
2.1449766e+3, 2.8379112e+2, -931726.44, -303976.9, -160848.75, -0.026738007, 0.12161535, -265162.44, -106307.38, 0.0, 9.993665, 10.00197 
2.1449544e+3, 2.9379138e+2, -907204.9, -242728.27, -159365.73, -0.090591624, -0.059860274, -206483.56, -145632.13, 0.0, 9.993164, 10.001961 
2.1449353e+3, 3.037948e+2, -1002051.1, -310090.8, -34696.57, 0.012465114, 0.11015949, -308355.4, -308355.4, 0.0, 9.992375, 10.001545 
2.144917e+3, 3.1379434e+2, -1005495.75, -17891.34, -17782.113, 0.10430937, -0.083185375, -17571.271, -17571.271, 0.0, 9.991107, 10.00415 
2.1552671e+3, 1.3384558e+2, -1075638.3, -1620956.9, 115543.19, -0.06556719, 0.43465918, -1052167.0, 576167.4, 0.42493084, 10.008433, 9.996026 
2.1552543e+3, 1.438382e+2, -1030026.1, -1569423.3, 83683.57, 0.16206695, 0.078920014, -1017341.5, 513060.56, 0.28199875, 10.006327, 9.996634 
2.1552375e+3, 1.538354e+2, -707751.7, -1398021.3, 114888.84, -0.03518086, 0.12582421, -689131.75, 743296.7, 0.15260716, 10.00742, 9.996623 
2.1552207e+3, 1.6383237e+2, -491318.47, -1220271.5, 60627.297, -0.106957816, 0.140139, -486310.5, 848145.4, 0.062632665, 10.007472, 9.997153 
2.1552046e+3, 1.7382896e+2, -606873.25, -1251591.8, 61195.75, 0.009492934, 0.08340039, -601116.06, 635368.5, 0.017162763, 10.005743, 9.997047 
2.1551873e+3, 1.8382578e+2, -677368.75, -1288070.9, 11106.458, 0.062165122, 0.08223991, -677166.8, 461347.94, 0.002445088, 10.004727, 9.9966135 
2.1551685e+3, 1.9382305e+2, -568336.0, -1210365.5, -8388.983, 0.016767245, 0.16062497, -568226.44, 472319.28, 0.00017643778, 10.004904, 9.996389 
2.1551484e+3, 2.0381992e+2, -519785.56, -1087366.8, -105702.56, -0.008570542, 0.1898712, -500739.34, 441839.63, 0.0000007406188, 10.0043545, 9.996825 
2.1551277e+3, 2.1381609e+2, -674445.7, -1125740.5, -121879.66, -0.0029399272, 0.12643519, -643633.75, 200981.92, 0.0, 10.002681, 9.9966955 
2.1551062e+3, 2.2381307e+2, -675911.8, -926755.5, -172706.31, 0.016722253, 0.096851654, -587890.2, 158753.9, 0.0, 10.001356, 9.998027 
2.1550845e+3, 2.338113e+2, -687587.6, -882174.4, -175158.16, 0.059155393, 0.11131327, -584515.4, 64144.008, 0.0, 10.000606, 9.998021 
2.1550623e+3, 2.438094e+2, -682876.25, -798872.25, -171303.9, 0.06418846, 0.1066271, -560018.5, -9341.446, 0.0, 9.999836, 9.998289 
2.1550396e+3, 2.5380713e+2, -707124.0, -776080.5, -178477.86, 0.00028230486, 0.05543045, -559824.7, -107125.234, 0.0, 9.999064, 9.998146 
2.1550167e+3, 2.6380563e+2, -657662.5, -456126.66, -227478.81, -0.03722285, -0.004608887, -308095.9, 46617.52, 0.0, 9.997675, 10.0003395 
2.1549934e+3, 2.7380547e+2, -897139.0, -509970.56, -230904.8, -0.0064993533, -0.07368427, -402237.88, -145524.52, 0.0, 9.995312, 10.000437 
2.1549705e+3, 2.8380737e+2, -943597.6, -329023.88, -189337.6, -0.0022634233, 0.011152557, -275375.94, -116680.15, 0.0, 9.993666, 10.001798 
2.1549472e+3, 2.9381198e+2, -914648.75, -261383.28, -175472.08, -0.106570564, 0.28460678, -217233.89, -156578.69, 0.0, 9.993176, 10.001827 
2.1549268e+3, 3.0381435e+2, -865654.8, -29758.824, -84776.59, -0.07330128, 0.26590386, -21247.445, -21247.445, 0.0, 9.992383, 10.003469 
2.1549077e+3, 3.1381503e+2, -952949.25, 80179.484, -19689.137, 0.06180122, -0.0218336, 80554.58, 80554.58, 0.0, 9.991145, 10.004811 
2.1652761e+3, 1.3386588e+2, -1054687.4, -1635360.5, 168445.2, -0.037463892, 0.36170557, -1009361.7, 618774.3, 0.44991907, 10.009171, 9.99569 
2.1652623e+3, 1.438587e+2, -763045.3, -1452714.0, 191952.03, 0.16246447, 0.060740247, -713219.94, 816981.4, 0.3023021, 10.009303, 9.996198 
2.1652454e+3, 1.5385562e+2, -747250.2, -1474785.0, 202774.33, 0.011858749, 0.12862523, -694551.3, 737680.06, 0.16715725, 10.007458, 9.996099 
2.165228e+3, 1.638524e+2, -666696.94, -1323241.4, 106229.1, -0.06078535, 0.16404414, -649936.9, 684324.5, 0.07133264, 10.006325, 9.996957 
2.1652104e+3, 1.7384899e+2, -523515.84, -1224943.3, 86889.54, -0.022338696, 0.12119459, -512912.66, 723378.0, 0.021185108, 10.0064125, 9.99691 
2.165192e+3, 1.8384564e+2, -507637.03, -1234720.0, 43561.14, 0.008412279, 0.12451963, -505036.47, 633286.6, 0.0037029064, 10.006027, 9.996353 
2.1651733e+3, 1.9384257e+2, -581577.94, -1248720.8, 35291.22, 0.028303105, 0.19539046, -579716.25, 460642.25, 0.00039360937, 10.0049515, 9.996103 
2.165153e+3, 2.0383927e+2, -549562.44, -1080355.3, -61924.32, 0.025982514, 0.21891263, -542433.8, 399959.06, 0.0000067106303, 10.004058, 9.997016 
2.1651307e+3, 2.1383566e+2, -538726.56, -1031426.25, -48915.98, -0.012957012, 0.15196422, -533917.06, 310508.63, 0.0, 10.0034895, 9.996953 
2.1651082e+3, 2.2383255e+2, -473813.94, -872982.06, -76235.09, -0.017865432, 0.11708443, -459749.72, 286704.66, 0.0, 10.002934, 9.997633 
2.1650857e+3, 2.3383027e+2, -456221.72, -824409.0, -117658.62, 0.03839325, 0.12739876, -421834.22, 226642.17, 0.0, 10.002428, 9.997539 
2.1650627e+3, 2.4382827e+2, -490426.38, -695233.56, -159228.47, 0.063599564, 0.13524312, -403514.9, 146980.78, 0.0, 10.00111, 9.998387 
2.1650383e+3, 2.5382647e+2, -772259.1, -786593.4, -140154.58, 0.022882698, 0.11552377, -639088.56, -186576.0, 0.0, 9.998529, 9.998331 
2.1650138e+3, 2.6382503e+2, -806496.9, -524962.4, -168475.28, -0.014925474, 0.050867062, -446186.16, -91661.09, 0.0, 9.996643, 10.000363 
2.164989e+3, 2.738244e+2, -819556.94, -473036.75, -181880.14, -0.0036280178, -0.06633543, -395100.8, -138571.63, 0.0, 9.995849, 10.00043 
2.1649645e+3, 2.8382617e+2, -834133.94, -309532.06, -139940.31, 0.007310208, 0.021114992, -274536.72, -116023.75, 0.0, 9.994561, 10.001498 
2.1649402e+3, 2.938309e+2, -1057719.3, -366348.9, -140965.36, -0.08860712, 0.34102505, -338711.88, -278239.3, 0.0, 9.992355, 10.001499 
2.1649182e+3, 3.0383262e+2, -1094685.5, -65302.2, -95341.73, -0.079387456, 0.24102536, -56546.11, -56546.11, 0.0, 9.9905, 10.004128 
2.1648972e+3, 3.1383494e+2, -1123612.9, 32764.707, -128872.99, -0.032202136, 0.039864264, 46952.93, 46952.93, 0.0, 9.989827, 10.00512 
2.1752876e+3, 1.3388531e+2, -1083669.5, -1598029.4, 158028.97, 0.19769311, -0.0042534424, -1038997.44, 588944.1, 0.47346115, 10.008907, 9.996101 
2.1752715e+3, 1.4388171e+2, -841673.56, -1587408.9, 162185.64, 0.1604791, 0.06520556, -807927.8, 722044.5, 0.32259193, 10.009235, 9.995176 
2.1752535e+3, 1.5387762e+2, -834154.5, -1656646.8, 147470.78, 0.07348263, 0.15387066, -808512.75, 623503.06, 0.1828408, 10.007456, 9.994817 
2.1752352e+3, 1.6387354e+2, -703789.56, -1395037.0, 104391.07, 0.01062801, 0.20005973, -688368.6, 645688.25, 0.08154007, 10.006344, 9.996455 
2.1752165e+3, 1.7386958e+2, -553381.6, -1282322.0, 95201.78, -0.041676126, 0.14133206, -541153.1, 694940.3, 0.026397098, 10.006417, 9.996516 
2.1751975e+3, 1.8386583e+2, -520179.13, -1257984.0, 10947.144, -0.06221682, 0.13341266, -520016.72, 618113.9, 0.0056029935, 10.006024, 9.996196 
2.1751778e+3, 1.9386259e+2, -590200.25, -1269233.8, -713.9973, -0.028019395, 0.20142497, -590199.5, 449967.38, 0.0008242183, 10.004963, 9.995957 
2.1751568e+3, 2.0385945e+2, -505619.63, -992709.25, -82926.13, -0.014395483, 0.2215342, -491888.7, 450309.5, 0.000039911753, 10.004072, 9.997611 
2.1751338e+3, 2.138565e+2, -490611.66, -931796.0, -67233.68, -0.03759679, 0.15305999, -480593.2, 363628.53, 0.00000000032497088, 10.0034895, 9.997638 
2.1751106e+3, 2.2385351e+2, -532745.7, -994054.94, -95213.29, -0.04619838, 0.12904906, -513866.47, 232382.55, 0.0, 10.002927, 9.996807 
2.1750873e+3, 2.3385048e+2, -529650.06, -974444.9, -134621.6, -0.026093846, 0.16329637, -492079.03, 156203.31, 0.0, 10.002415, 9.996516 
2.175063e+3, 2.438484e+2, -462683.1, -636126.8, -248125.44, 0.0015461204, 0.20328248, -286561.03, 263743.44, 0.0, 10.001102, 9.998799 
2.1750371e+3, 2.5384772e+2, -728417.3, -699435.56, -237944.95, 0.02469245, 0.2370606, -475540.66, -23230.453, 0.0, 9.998543, 9.998925 
2.1750107e+3, 2.6384732e+2, -809312.0, -531736.94, -207704.36, 0.019729236, 0.24184413, -420718.38, -66406.04, 0.0, 9.996646, 10.000316 
2.1749848e+3, 2.7384722e+2, -827200.94, -492159.13, -208966.8, -0.00009852314, 0.19474238, -391854.75, -135544.56, 0.0, 9.99586, 10.000294 
2.1749592e+3, 2.838474e+2, -861951.5, -373848.25, -219970.1, -0.007701927, 0.14861663, -289345.4, -131037.33, 0.0, 9.994586, 10.001047 
2.1749328e+3, 2.938479e+2, -1094824.4, -447726.84, -232954.56, -0.060782026, 0.095247366, -372588.22, -312282.03, 0.0, 9.9923725, 10.000935 
2.1749097e+3, 3.0384928e+2, -1149342.1, -170334.06, -141588.31, 0.022895867, 0.031619724, -150268.23, -150268.23, 0.0, 9.99047, 10.00342 
2.1748875e+3, 3.138552e+2, -1099644.1, 74645.48, -212426.17, 0.015586179, 0.25417104, 111891.49, 111891.49, 0.0, 9.989844, 10.00541 
2.1852937e+3, 1.339097e+2, -1567989.5, -1568032.1, 175629.81, 0.32937932, 0.4858836, -1392381.0, 235323.5, 0.4953733, 10.000754, 10.000764 
2.1852805e+3, 1.4390446e+2, -916512.8, -1546471.0, 132456.22, 0.17448634, 0.095211565, -889795.44, 639956.1, 0.34294328, 10.008314, 9.9958935 
2.1852615e+3, 1.5390028e+2, -744931.75, -1579067.0, 160883.84, 0.0922861, 0.15751399, -714976.94, 716818.4, 0.19990098, 10.008249, 9.99498 
2.1852422e+3, 1.6389626e+2, -531891.0, -1314658.4, 204812.05, 0.028484143, 0.20427874, -481540.4, 852295.75, 0.0936318, 10.007762, 9.99635 
2.1852231e+3, 1.7389247e+2, -505490.53, -1273460.6, 221910.88, -0.047457177, 0.17796628, -445979.3, 789893.3, 0.03321241, 10.0068655, 9.99637 
2.1852034e+3, 1.8388866e+2, -482477.7, -1233137.6, 154471.67, -0.0954413, 0.16988252, -451933.2, 685977.25, 0.008467697, 10.006271, 9.99625 
2.1851826e+3, 1.9388498e+2, -408282.94, -1171578.0, 157392.17, -0.090028554, 0.1875803, -377102.25, 662846.56, 0.0016450783, 10.006177, 9.996044 
2.1851608e+3, 2.0388165e+2, -302275.8, -931166.6, 46185.766, -0.07196316, 0.19908537, -298902.03, 643079.3, 0.00016081388, 10.00563, 9.997283 
2.1851377e+3, 2.1387887e+2, -378899.38, -921174.1, -18261.375, -0.039690536, 0.18765178, -378285.13, 465719.72, 0.00000057854913, 10.004443, 9.9972515 
2.185114e+3, 2.2387587e+2, -496204.78, -979251.25, -61768.754, -0.021808669, 0.18456179, -488431.28, 257601.61, 0.0, 10.003191, 9.99678 
2.1850896e+3, 2.3387246e+2, -606677.25, -1010218.75, -28190.293, -0.019505205, 0.1799944, -604717.44, 43351.402, 0.0, 10.001881, 9.996528 
2.1850637e+3, 2.4387008e+2, -556778.2, -714380.8, -153072.23, -0.0068630725, 0.20435339, -463414.56, 86679.12, 0.0, 10.000599, 9.998504 
2.185036e+3, 2.5386932e+2, -632959.56, -691144.6, -217080.8, 0.012846162, 0.26586735, -443030.5, 9070.956, 0.0, 9.999364, 9.998585 
2.1850078e+3, 2.63869e+2, -658236.2, -475847.88, -213690.86, 0.012211325, 0.30330768, -334705.72, 19398.234, 0.0, 9.997757, 10.000164 
2.1849807e+3, 2.73869e+2, -877917.06, -530933.94, -212605.97, 0.0035574338, 0.282673, -430015.94, -173914.9, 0.0, 9.995578, 10.000163 
2.1849534e+3, 2.83869e+2, -948098.1, -373049.3, -202440.33, -0.002600516, 0.207852, -308931.3, -150831.64, 0.0, 9.993816, 10.001423 
2.1849252e+3, 2.9386908e+2, -1034154.0, -373646.53, -152983.4, -0.058730207, 0.06989277, -339934.0, -279835.28, 0.0, 9.992595, 10.001336 
2.1848996e+3, 3.0387038e+2, -1142005.5, -229507.23, -11643.881, -0.033972736, 0.004287841, -229358.67, -229358.67, 0.0, 9.990785, 10.002865 
2.1848767e+3, 3.1387666e+2, -1339721.8, -11107.977, -66291.04, 0.04668208, 0.32325116, -7808.586, -7808.586, 0.0, 9.988073, 10.005672 
2.1952888e+3, 1.439269e+2, -845157.9, -1328993.4, 160146.31, 0.18686192, 0.14887877, -796953.1, 732585.7, 0.36424702, 10.008213, 9.998132 
2.1952695e+3, 1.5392353e+2, -682033.3, -1375893.0, 151064.97, 0.06711314, 0.14230047, -650570.56, 781000.25, 0.21896218, 10.008225, 9.996452 
2.1952498e+3, 1.6392036e+2, -528920.7, -1280113.1, 173645.56, -0.006717715, 0.17874171, -490723.1, 842878.25, 0.10819222, 10.007762, 9.996599 
2.1952303e+3, 1.739174e+2, -506658.25, -1263265.4, 189853.45, -0.045773525, 0.22966841, -461691.3, 773939.44, 0.042234465, 10.006871, 9.99644 
2.1952094e+3, 1.8391386e+2, -466725.22, -1195136.3, 148486.34, -0.099891, 0.23161589, -437619.34, 700045.9, 0.012800158, 10.006275, 9.9965105 
2.1951883e+3, 1.939095e+2, -391863.5, -1131515.1, 156188.6, -0.16491854, 0.15242794, -360234.47, 679472.4, 0.0031689361, 10.006159, 9.996329 
2.1951658e+3, 2.0390569e+2, -389615.63, -1108724.3, 6281.296, -0.15172648, 0.15167618, -389560.78, 552183.6, 0.0005029433, 10.005612, 9.996074 
2.1951424e+3, 2.139027e+2, -476132.53, -1124372.6, -59385.78, -0.026027314, 0.25807682, -470737.06, 373038.84, 0.000012136178, 10.004447, 9.995855 
2.1951179e+3, 2.2389954e+2, -443206.6, -872781.4, -109186.41, 0.048279412, 0.28455323, -417047.3, 328759.44, 0.0, 10.003204, 9.997506 
2.195092e+3, 2.3389603e+2, -535818.06, -865662.5, -76255.445, 0.04749501, 0.17492104, -519042.1, 128795.48, 0.0, 10.001889, 9.997518 
2.1950647e+3, 2.4389316e+2, -626928.94, -860771.75, -201923.11, 0.030022198, 0.13773699, -510518.9, 39346.027, 0.0, 10.000601, 9.9974985 
2.1950349e+3, 2.538912e+2, -721021.25, -875875.6, -263551.25, -0.021206189, 0.20250481, -523759.1, -71871.54, 0.0, 9.99937, 9.997315 
2.1950051e+3, 2.6389e+2, -675907.2, -512890.28, -294527.56, -0.044673305, 0.23354903, -288800.78, 65100.42, 0.0, 9.997757, 9.999911 
2.194976e+3, 2.738897e+2, -884306.94, -547272.6, -295136.72, -0.00008800732, 0.19369245, -375931.4, -120028.336, 0.0, 9.995589, 10.000047 
2.1949473e+3, 2.838909e+2, -863154.9, -197684.44, -253433.34, 0.017360391, 0.19583794, -112159.945, 45728.992, 0.0, 9.993818, 10.002627 
2.1949178e+3, 2.9389453e+2, -934087.06, -168805.56, -197520.42, -0.08790153, 0.2747252, -120832.49, -60982.773, 0.0, 9.992604, 10.00274 
2.194888e+3, 3.03896e+2, -1160385.0, -274482.0, -105594.53, -0.2786634, 0.16199523, -262069.64, -262069.64, 0.0, 9.990812, 10.002543 
2.1948655e+3, 3.1389675e+2, -1365528.4, -60091.563, -84588.53, 0.12043474, -0.009075074, -54633.29, -54633.29, 0.0, 9.988069, 10.005331 
2.2052957e+3, 1.439536e+2, -959567.1, -1404775.6, 235858.14, 0.10108888, 0.28324038, -857854.1, 671421.94, 0.38793164, 10.00739, 9.997764 
2.2052766e+3, 1.5394941e+2, -744856.44, -1377270.0, 278145.47, -0.0010896721, 0.16376303, -639931.8, 791385.5, 0.2409959, 10.007686, 9.996815 
2.2052583e+3, 1.639468e+2, -535322.1, -1295689.4, 241422.16, 0.077828474, 0.24310093, -465145.66, 868198.1, 0.12606998, 10.007918, 9.996439 
2.2052373e+3, 1.7394356e+2, -438760.3, -1253176.3, 237518.23, -0.04607605, 0.28925514, -374552.06, 860825.56, 0.054327436, 10.007552, 9.996191 
2.2052158e+3, 1.8393995e+2, -372788.22, -1131544.3, 185286.11, -0.12977698, 0.29256573, -329959.4, 807453.75, 0.01936709, 10.006899, 9.99665 
2.2051944e+3, 1.9393589e+2, -416847.47, -1119889.5, 186499.88, -0.14072077, 0.22401403, -370437.28, 669013.06, 0.0059215343, 10.005899, 9.996535 
2.2051716e+3, 2.0393178e+2, -454965.7, -1192941.0, 65061.83, -0.1137095, 0.20440091, -449273.56, 492216.44, 0.0013255532, 10.005394, 9.995601 
2.2051471e+3, 2.139276e+2, -330263.16, -1115274.1, 58000.67, -0.031439, 0.24913484, -326000.94, 517532.63, 0.00010101086, 10.005716, 9.995306 
2.2051218e+3, 2.2392397e+2, -185034.95, -768485.9, -29145.398, 0.028361497, 0.26710552, -183582.66, 561986.8, 0.000000017943607, 10.005069, 9.997324 
2.2050947e+3, 2.3392102e+2, -386468.5, -807629.06, -83495.78, 0.058048658, 0.22780396, -370519.3, 277075.84, 0.0, 10.00298, 9.997388 
2.2050656e+3, 2.4391823e+2, -530771.75, -793454.7, -199628.42, 0.048863996, 0.19686702, -423152.78, 126468.42, 0.0, 10.001173, 9.9976845 
2.2050342e+3, 2.539156e+2, -646396.56, -817330.1, -151976.95, -0.026798474, 0.17760827, -557502.9, -105854.555, 0.0, 9.999785, 9.997517 
2.2050028e+3, 2.6391414e+2, -659209.44, -525783.8, -154182.48, -0.05852954, 0.18022878, -424500.1, -70836.234, 0.0, 9.997962, 9.9997225 
2.2049716e+3, 2.7391398e+2, -931105.25, -597150.8, -170685.36, 0.0030808751, 0.1796427, -525350.2, -269685.22, 0.0, 9.995384, 9.999803 
2.2049409e+3, 2.8391507e+2, -974069.44, -244161.9, -143105.23, 0.032680098, 0.18060455, -217107.56, -59454.594, 0.0, 9.993028, 10.002688 
2.2049099e+3, 2.9391855e+2, -1134396.9, -247003.9, -179611.22, -0.055123642, 0.23884836, -212028.52, -152412.52, 0.0, 9.991156, 10.002899 
2.2048786e+3, 3.0392238e+2, -1301575.4, -286214.1, -124299.086, -0.23060532, 0.3290123, -271219.0, -271219.0, 0.0, 9.989599, 10.003051 
2.2048537e+3, 3.1392154e+2, -1332055.6, -36251.586, 12688.67, 0.12594658, -0.049473412, -36127.348, -36127.348, 0.0, 9.988269, 10.005396 
2.2153011e+3, 1.4398386e+2, -1099357.0, -1713908.0, 92497.914, -0.12164787, 0.4692129, -1085736.8, 443234.6, 0.41616663, 10.007315, 9.995184 
2.2152832e+3, 1.5397766e+2, -810462.44, -1474698.1, 295340.63, -0.11544518, 0.21915817, -698138.7, 732899.4, 0.26766756, 10.00763, 9.996191 
2.215268e+3, 1.6397534e+2, -595244.7, -1379590.6, 231811.56, 0.2585547, 0.38857207, -531856.2, 801209.7, 0.14865454, 10.007873, 9.995885 
2.2152449e+3, 1.7397077e+2, -491116.97, -1335991.9, 225699.78, -0.05507191, 0.35566378, -434603.7, 800511.0, 0.07078744, 10.007538, 9.995631 
2.2152221e+3, 1.839668e+2, -377495.94, -1126391.9, 151713.92, -0.18751158, 0.35385886, -347928.6, 789226.5, 0.029323878, 10.006903, 9.996684 
2.2152014e+3, 1.9396396e+2, -405281.56, -1098818.5, 151048.0, -0.030360151, 0.39757407, -373812.2, 665368.4, 0.01074679, 10.0059395, 9.996661 
2.2151785e+3, 2.0395976e+2, -435331.5, -1160224.5, 71832.84, 0.028035143, 0.35144323, -428281.8, 512937.72, 0.003092776, 10.005436, 9.995806 
2.2151525e+3, 2.1395347e+2, -313893.78, -1082063.8, 72410.875, -0.06481973, 0.16075678, -307127.63, 536151.7, 0.00045221954, 10.00572, 9.995533 
2.2151257e+3, 2.2394906e+2, -261843.23, -925116.5, -98297.53, -0.08505817, 0.1366873, -247582.11, 497740.34, 0.000008329202, 10.005054, 9.996257 
2.2150971e+3, 2.339473e+2, -472906.28, -986156.7, -160207.67, 0.007864977, 0.3384441, -427003.8, 220338.78, 0.0, 10.002974, 9.996167 
2.2150669e+3, 2.4394517e+2, -437340.63, -597789.94, -255405.36, 0.044647135, 0.37958956, -249856.69, 299506.72, 0.0, 10.001165, 9.999032 
2.2150342e+3, 2.539425e+2, -528591.44, -575607.1, -203106.78, -0.010991782, 0.18905899, -347636.6, 103748.24, 0.0, 9.999796, 9.999172 
2.215001e+3, 2.6394135e+2, -669421.6, -547212.4, -248013.16, -0.03634532, 0.14058335, -352887.38, 505.5834, 0.0, 9.997961, 9.9995775 
2.2149669e+3, 2.7394184e+2, -955674.06, -651149.4, -269269.25, -0.003415871, 0.24068947, -494074.16, -238687.0, 0.0, 9.995396, 9.999429 
2.2149338e+3, 2.8394142e+2, -1052962.5, -409072.25, -219666.11, 0.035441454, 0.16252965, -341271.47, -183879.17, 0.0, 9.993032, 10.0015545 
2.214902e+3, 2.9394102e+2, -1213675.0, -410234.94, -247229.63, 0.05385839, -0.046870388, -340254.38, -280854.9, 0.0, 9.991149, 10.001783 
2.2148716e+3, 3.0394956e+2, -1200035.1, -71371.414, -176383.45, 0.0997564, 0.49816817, -44449.035, -44449.035, 0.0, 9.989576, 10.0045395 
2.2148389e+3, 3.1395102e+2, -1296330.0, 20649.418, -12045.692, -0.1970821, 0.18962641, 20759.584, 20759.584, 0.0, 9.988335, 10.005759 
2.2253112e+3, 1.440014e+2, -1152493.9, -1486207.6, -257780.77, 0.2582159, -0.20298691, -1012280.5, 516525.75, 0.45256722, 10.005644, 9.998176 
2.2252908e+3, 1.5400322e+2, -883831.44, -1306635.5, 222053.83, -0.046988323, 0.14321707, -788641.4, 642150.7, 0.30202624, 10.006179, 9.998181 
2.2252744e+3, 1.6400349e+2, -661525.2, -1316692.5, 267410.5, 0.13420989, 0.42672083, -566238.4, 766553.3, 0.17847209, 10.007121, 9.996744 
2.2252516e+3, 1.7399868e+2, -473680.63, -1237033.5, 344372.8, -0.100683674, 0.29436624, -341285.5, 893553.75, 0.093758725, 10.007439, 9.996417 
2.2252294e+3, 1.8399447e+2, -317540.8, -1168635.8, 307372.5, -0.16877279, 0.25631744, -218142.08, 918739.1, 0.044464294, 10.007747, 9.996012 
2.225209e+3, 1.939914e+2, -124133.38, -1051729.4, 242153.67, 0.023152988, 0.3589334, -64723.027, 974189.1, 0.018960854, 10.0083475, 9.9958315 
2.2251855e+3, 2.0398726e+2, -42155.813, -964939.4, 111887.85, 0.07508222, 0.36386737, -28783.162, 912168.75, 0.0065776124, 10.008155, 9.995838 
2.2251587e+3, 2.1398145e+2, -142850.81, -984097.3, 102523.87, -0.085658394, 0.21046892, -130536.34, 712469.7, 0.0014185705, 10.006836, 9.995667 
2.2251303e+3, 2.23977e+2, -241494.38, -914694.4, -87529.68, -0.12409605, 0.1741145, -230299.89, 514748.72, 0.00009907701, 10.005193, 9.996261 
2.2251004e+3, 2.3397443e+2, -455930.7, -979474.06, -69730.91, 0.024410121, 0.29744568, -446802.34, 200273.48, 0.00000010120638, 10.0031, 9.996151 
2.2250684e+3, 2.4397227e+2, -435915.4, -580863.3, -137360.84, 0.08996166, 0.33268145, -353081.7, 196015.4, 0.0, 10.001105, 9.999176 
2.225034e+3, 2.5397068e+2, -597751.9, -587721.06, -194009.47, 0.025485357, 0.23625684, -398662.16, 52447.48, 0.0, 9.999235, 9.999357 
2.2249988e+3, 2.6397017e+2, -698340.25, -511162.22, -291851.28, -0.016582169, 0.21949922, -298261.3, 54850.69, 0.0, 9.997551, 10.000021 
2.2249624e+3, 2.7397066e+2, -825400.44, -535065.9, -256413.0, -0.009969068, 0.27256823, -385578.8, -130474.27, 0.0, 9.996064, 9.999902 
2.2249272e+3, 2.839701e+2, -942953.8, -380966.47, -152954.4, 0.024182932, 0.16572963, -342034.38, -184923.86, 0.0, 9.993897, 10.00133 
2.2248931e+3, 2.9396906e+2, -1295627.9, -492374.6, -115643.24, 0.065861054, -0.07652227, -476057.1, -416931.66, 0.0, 9.990771, 10.001402 
2.2248608e+3, 3.0397755e+2, -1349810.6, -66580.516, -16024.256, 0.13405861, 0.45819598, -66380.445, -66380.445, 0.0, 9.988222, 10.005223 
2.2248252e+3, 3.1398004e+2, -1580579.3, -95237.12, 39324.758, -0.27403575, 0.1723518, -94196.72, -94196.72, 0.0, 9.98631, 10.005935 
2.235299e+3, 1.5402633e+2, -734837.2, -909880.8, 245153.45, 0.1722006, -0.048920404, -562050.94, 868525.0, 0.3492019, 10.006056, 10.002511 
2.2352773e+3, 1.6403127e+2, -588077.7, -1069789.9, 262217.38, -0.271093, 0.3676604, -472886.56, 859634.44, 0.22003724, 10.007032, 9.99886 
2.2352584e+3, 1.7402723e+2, -378565.0, -974693.4, 335327.66, -0.19054765, 0.114541516, -227979.11, 1006573.75, 0.12697609, 10.007439, 9.998397 
2.2352381e+3, 1.8402289e+2, -422409.38, -1364928.0, 321113.38, -0.09164172, 0.012727841, -323406.34, 813187.0, 0.06768384, 10.007784, 9.994655 
2.2352172e+3, 1.9401814e+2, -249129.38, -1301885.1, 265459.7, 0.017632537, 0.12196793, -185979.88, 852665.8, 0.03256342, 10.008386, 9.9941 
2.2351934e+3, 2.0401426e+2, -54994.99, -983317.1, 70822.85, 0.02813059, 0.2513801, -49622.914, 891064.4, 0.012928019, 10.008169, 9.995704 
2.2351652e+3, 2.1401142e+2, -141707.95, -978513.75, 56363.355, -0.10066956, 0.3925522, -137928.64, 704786.2, 0.0035296183, 10.006834, 9.9957075 
2.2351357e+3, 2.2400759e+2, -173049.53, -769238.7, -163220.86, -0.098796, 0.37092024, -131289.1, 613460.56, 0.0004474248, 10.00518, 9.997266 
2.235104e+3, 2.3400225e+2, -375643.38, -815715.06, -147617.02, 0.09655537, 0.10428932, -330714.03, 316082.53, 0.000007716106, 10.003112, 9.99727 
2.2350703e+3, 2.4399942e+2, -509135.63, -734268.75, -210562.63, 0.17496829, 0.059343245, -382939.03, 165884.58, 0.0, 10.00111, 9.998121 
2.2350337e+3, 2.5400013e+2, -687377.8, -774665.56, -264404.4, 0.07070981, 0.31953838, -463039.44, -12215.712, 0.0, 9.999237, 9.998074 
2.2349964e+3, 2.6400048e+2, -626320.06, -361191.72, -351051.8, -0.005956097, 0.41640285, -118508.46, 234313.53, 0.0, 9.997548, 10.001055 
2.2349586e+3, 2.7400032e+2, -729758.8, -339950.8, -311833.4, -0.017545188, 0.27371567, -167121.7, 87696.6, 0.0, 9.996077, 10.001238 
2.2349207e+3, 2.8400105e+2, -890113.06, -276480.22, -267216.88, -0.013427963, 0.18732886, -176429.14, -19620.768, 0.0, 9.993916, 10.002042 
2.2348826e+3, 2.9400268e+2, -1268390.6, -441468.94, -233326.33, -0.05846511, 0.15360837, -380176.13, -321383.06, 0.0, 9.990791, 10.001743 
2.2348465e+3, 3.0400625e+2, -1382229.5, -128053.266, -90932.17, -0.1233747, 0.20515168, -121494.66, -121494.66, 0.0, 9.988199, 10.004811 
2.2348152e+3, 3.140118e+2, -1593262.1, -117209.79, -144714.5, 0.084342636, 0.24193461, -103155.57, -103155.57, 0.0, 9.986279, 10.005807 
2.2452988e+3, 1.5406471e+2, -1264664.4, -1530804.0, 601771.06, -0.32855776, 0.6639605, -781425.9, 648764.56, 0.4173099, 10.003592, 9.998781 
2.2452833e+3, 1.6405918e+2, -897260.1, -1208376.5, 347355.25, -0.26846895, 0.22970383, -672221.4, 660024.6, 0.28079325, 10.004594, 9.999102 
2.2452669e+3, 1.7405787e+2, -328508.34, -883310.0, 347388.13, -0.10766069, 0.18957908, -161353.53, 1072899.8, 0.17664097, 10.007956, 9.999034 
2.2452481e+3, 1.8405463e+2, -132204.0, -1185149.6, 294346.3, 0.006104414, 0.1575361, -55507.37, 1080775.5, 0.10354938, 10.010159, 9.994764 
2.2452271e+3, 1.9404846e+2, 54617.57, -1136059.8, 358017.06, 0.028789971, 0.11985043, 153976.22, 1192322.4, 0.05440983, 10.010705, 9.994145 
2.2452024e+3, 2.0404378e+2, 183071.83, -876793.6, 159018.86, 0.020868145, 0.17387572, 206416.33, 1146810.5, 0.023597065, 10.009975, 9.995578 
2.2451733e+3, 2.140411e+2, -56319.023, -951039.2, 121899.81, -0.022227297, 0.34824395, -40008.31, 802413.1, 0.0073890085, 10.007516, 9.995567 
2.2451419e+3, 2.2403763e+2, -66939.11, -664253.4, -105233.76, -0.019545043, 0.34831253, -48941.496, 695511.7, 0.0012759925, 10.005683, 9.9977455 
2.2451074e+3, 2.3403284e+2, -103323.164, -623028.2, -128968.37, 0.055051256, 0.084256254, -73078.85, 573414.6, 0.000062537736, 10.00472, 9.997819 
2.2450715e+3, 2.4403027e+2, -261526.66, -600208.3, -213516.69, 0.10805398, 0.028429037, -158350.16, 390167.47, 0.000000017890477, 10.002751, 9.998249 
2.2450332e+3, 2.540307e+2, -679004.1, -763113.3, -172270.05, 0.10774667, 0.25831887, -543729.8, -93209.02, 0.0, 9.999263, 9.998139 
2.2449939e+3, 2.640313e+2, -765688.25, -365031.66, -186823.4, 0.057119917, 0.34760082, -291435.84, 61082.582, 0.0, 9.996322, 10.001616 
2.2449537e+3, 2.7403206e+2, -952195.25, -377237.84, -196660.58, -0.018387957, 0.23932484, -316407.22, -61899.484, 0.0, 9.994253, 10.001856 
2.2449139e+3, 2.8403407e+2, -1026025.75, -267203.0, -200099.63, -0.013362458, 0.22186035, -217670.52, -61185.305, 0.0, 9.992667, 10.002704 
2.2448741e+3, 2.9403716e+2, -1134438.8, -305223.2, -173528.8, -0.0107460385, 0.26593164, -270373.66, -211920.17, 0.0, 9.991409, 10.002377 
2.244834e+3, 3.0403873e+2, -1366031.4, -148426.34, -32329.715, -0.19238767, 0.09840405, -147568.53, -147568.53, 0.0, 9.988437, 10.004554 
2.2448018e+3, 3.1404582e+2, -1901285.1, -242986.23, -37310.22, 0.23426817, 0.31371194, -242147.2, -242147.2, 0.0, 9.984065, 10.006015 
2.2552912e+3, 1.6408718e+2, -1147636.4, -1498975.6, 425602.6, 0.081077956, 0.022206536, -862874.3, 469093.0, 0.37184104, 10.003655, 9.997625 
2.255277e+3, 1.7409043e+2, -460359.56, -990887.94, 414175.2, 0.123050846, 0.49702474, -233784.17, 1000157.44, 0.25194466, 10.0078, 9.998415 
2.2552593e+3, 1.8408939e+2, -86482.57, -984603.06, 306059.13, 0.116301335, 0.65423435, 7897.4263, 1143849.5, 0.15846783, 10.010334, 9.996198 
2.2552378e+3, 1.9408199e+2, 135043.86, -896660.25, 365332.88, 0.046088967, 0.32879025, 251308.45, 1289325.1, 0.08800692, 10.010795, 9.995807 
2.2552124e+3, 2.0407557e+2, 157089.5, -898593.94, 78182.13, 0.041935094, 0.12607162, 162848.13, 1102923.3, 0.039978817, 10.009999, 9.995418 
2.2551824e+3, 2.1407041e+2, -80595.98, -999992.7, 33047.87, 0.13540167, 0.08578216, -79409.59, 762717.4, 0.01337011, 10.007546, 9.995216 
2.2551487e+3, 2.2406708e+2, -67783.62, -665779.44, -145511.31, 0.101633035, 0.1170856, -34255.902, 709903.7, 0.0026918582, 10.00569, 9.997734 
2.2551106e+3, 2.3406608e+2, -104298.19, -621132.9, -162773.03, -0.103845954, 0.23408175, -57306.652, 588860.94, 0.00020925964, 10.004702, 9.997842 
2.255072e+3, 2.4406463e+2, -177543.7, -419112.25, -336801.38, -0.11149289, 0.23236778, 59476.438, 607656.8, 0.0000011174013, 10.002722, 9.999509 
2.2550327e+3, 2.5406238e+2, -580909.2, -559727.06, -304203.72, 0.13070118, 0.050012317, -265930.13, 184271.69, 0.0, 9.999263, 9.999538 
2.2549912e+3, 2.6406246e+2, -760808.56, -356967.72, -272828.97, 0.16405983, 0.0107272435, -219465.83, 132736.42, 0.0, 9.996326, 10.001672 
2.2549476e+3, 2.740658e+2, -962027.25, -398536.44, -271913.78, -0.028514897, 0.16932337, -288723.97, -34550.324, 0.0, 9.994253, 10.001712 
2.2549067e+3, 2.8406918e+2, -986183.8, -185101.64, -249732.7, 0.021847917, 0.2731417, -113626.21, 42515.414, 0.0, 9.992666, 10.00327 
2.2548677e+3, 2.9407242e+2, -1065061.6, -167327.13, -229025.23, 0.22884262, 0.26612657, -112275.37, -54167.816, 0.0, 9.991432, 10.003315 
2.2548233e+3, 3.0407494e+2, -1355051.8, -127451.17, -200556.34, -0.090681165, 0.12602933, -95516.5, -95516.5, 0.0, 9.988441, 10.004698 
2.2547832e+3, 3.1407982e+2, -1839829.5, -104546.234, 40989.383, -0.019500824, 0.14491335, -103578.555, -103578.555, 0.0, 9.984022, 10.006983 
2.2652774e+3, 1.741162e+2, -609696.06, -451946.56, 806111.8, -0.40105167, -0.009519649, 279140.06, 1512823.1, 0.36457542, 10.003587, 10.00688 
2.2652705e+3, 1.8412375e+2, 642252.2, -608565.8, 580590.4, -0.18035461, 0.54894227, 870202.2, 2005813.3, 0.2397034, 10.017896, 9.996089 
2.2652514e+3, 1.9411567e+2, 529060.06, -776768.6, 480298.6, 0.11025649, 0.254416, 686691.2, 1724374.1, 0.13646361, 10.0148945, 9.994846 
2.2652254e+3, 2.0410879e+2, 430719.63, -764498.94, 103436.71, 0.21866235, 0.061404936, 439605.22, 1379351.5, 0.0626109, 10.0122385, 9.995327 
2.2651906e+3, 2.1410342e+2, 283858.44, -819086.6, 80370.8, 0.08398735, 0.0021581491, 289684.25, 1131484.4, 0.021150436, 10.010154, 9.995206 
2.2651541e+3, 2.2410037e+2, 191021.28, -506924.2, -78129.87, -0.020814888, 0.052228574, 199660.4, 943491.1, 0.004459102, 10.00734, 9.9980345 
2.2651148e+3, 2.3410048e+2, -271790.2, -664877.94, -74126.81, -0.07970309, 0.24602817, -258276.27, 387554.22, 0.00041108593, 10.003392, 9.99817 
2.2650743e+3, 2.4409981e+2, -459097.38, -445010.6, -249052.81, -0.037745547, 0.26036048, -202901.61, 344934.13, 0.0000047015465, 10.000313, 10.00049 
2.2650312e+3, 2.5409785e+2, -622111.4, -461947.1, -243661.4, 0.1232243, 0.0073004114, -285545.25, 164305.08, 0.0, 9.998475, 10.0005865 
2.2649872e+3, 2.6409826e+2, -737484.8, -342109.22, -212024.56, 0.13805342, -0.05626789, -249909.33, 101937.414, 0.0, 9.996474, 10.001699 
2.2649421e+3, 2.741019e+2, -989740.8, -422408.75, -208973.52, 0.013651825, 0.13890521, -353744.9, -99926.28, 0.0, 9.994112, 10.001615 
2.2648995e+3, 2.8410563e+2, -1090058.5, -167354.1, -167750.8, 0.07964206, 0.25655547, -137802.86, 17982.46, 0.0, 9.991665, 10.003873 
2.2648582e+3, 2.9410958e+2, -1330793.9, -204099.97, -151844.48, 0.23452674, 0.2560889, -183994.66, -126250.445, 0.0, 9.989218, 10.004129 
2.2648112e+3, 3.0411333e+2, -1545598.5, -158297.44, -173134.42, -0.044784788, 0.16631597, -137016.8, -137016.8, 0.0, 9.986878, 10.005237 
2.2647665e+3, 3.1411782e+2, -1720833.8, -10917.447, 184377.55, -0.11343967, 0.111245655, 8737.756, 8737.756, 0.0, 9.984693, 10.007297 
2.2752817e+3, 1.8415777e+2, 294764.56, -849713.3, 478548.38, -0.8474637, -0.09268412, 468492.1, 1603752.6, 0.35230288, 10.017788, 9.994406 
2.2752674e+3, 1.9414948e+2, 235381.39, -1238608.8, 368981.16, 0.21437545, -0.07357969, 322588.25, 1359933.6, 0.20017791, 10.015013, 9.991459 
2.2752404e+3, 2.0414332e+2, 411239.84, -758555.9, 32114.71, 0.5282275, -0.016201343, 412120.84, 1351529.0, 0.09007894, 10.012384, 9.99534 
2.2751983e+3, 2.1413983e+2, 297979.44, -773699.8, 11697.57, -0.17470123, 0.08628791, 298107.13, 1139550.3, 0.029444354, 10.010168, 9.995522 
2.2751577e+3, 2.2413729e+2, 224583.58, -425988.28, -216110.75, -0.3772067, 0.14220394, 289829.06, 1033297.8, 0.0059980927, 10.007302, 9.998616 
2.2751202e+3, 2.3413587e+2, -229674.13, -575704.25, -219594.72, 0.11604241, 0.1205333, -123125.14, 522358.34, 0.000544956, 10.003386, 9.998787 
2.2750778e+3, 2.4413566e+2, -408631.72, -342643.44, -326863.5, 0.31078416, 0.11713935, -47113.04, 500371.38, 0.0000066707275, 10.0003195, 10.001193 
2.2750293e+3, 2.541371e+2, -572154.5, -360014.97, -311329.44, 0.074408025, 0.13005622, -137182.3, 312284.88, 0.0, 9.998479, 10.001287 
2.2749819e+3, 2.6413867e+2, -737768.3, -343947.63, -300319.75, -0.024107402, 0.14825484, -181740.13, 169712.25, 0.0, 9.996477, 10.001688 
2.274937e+3, 2.7414033e+2, -990894.7, -428624.0, -299286.53, 0.10471894, 0.15287946, -299138.47, -45695.72, 0.0, 9.994126, 10.001568 
2.2748919e+3, 2.841433e+2, -1043444.6, -71041.76, -262439.8, 0.1475582, 0.16549902, -4733.9263, 150683.13, 0.0, 9.991662, 10.004539 
2.2748445e+3, 2.941485e+2, -1288301.4, -107968.836, -243334.0, -0.028291855, 0.2154117, -59771.836, -2406.558, 0.0, 9.98918, 10.00481 
2.2747982e+3, 3.041544e+2, -1493633.4, -42942.582, -257235.98, -0.038610313, 0.26374984, 1319.9036, 1319.9036, 0.0, 9.986841, 10.00605 
2.2747523e+3, 3.1416e+2, -1783117.3, -168616.95, 1945.4995, -0.02857502, 0.2391318, -168614.61, -168614.61, 0.0, 9.984791, 10.006179 
2.2853142e+3, 1.8420234e+2, -131623.97, -1109641.6, 432609.38, 0.66170925, 0.27354094, 32268.803, 1167098.8, 0.49260458, 10.017012, 9.992908 
2.2852863e+3, 1.9419016e+2, 689128.5, -920980.8, 521346.1, 0.3471436, -0.07104134, 843195.7, 1880148.0, 0.27350113, 10.020478, 9.99128 
2.2852537e+3, 2.0418485e+2, 1264159.4, -355481.53, 204178.95, 0.23231961, 0.096771695, 1289502.5, 2228508.5, 0.11839917, 10.0194845, 9.995108 
2.2852093e+3, 2.1418102e+2, 534373.06, -680004.56, 146132.98, -0.17276745, 0.18889594, 551710.56, 1392753.8, 0.036480606, 10.012023, 9.995301 
2.2851658e+3, 2.2417815e+2, 167830.47, -395938.16, -37913.75, -0.24706368, 0.2038697, 170368.77, 913439.56, 0.0068097524, 10.006668, 9.999129 
2.285124e+3, 2.3417644e+2, -64833.83, -432728.16, -37238.508, 0.14559127, 0.09931368, -61102.367, 583984.4, 0.0005364848, 10.004245, 9.999354 
2.2850783e+3, 2.4417645e+2, -187637.52, -208912.63, -129430.53, 0.27101445, 0.0799764, -68408.14, 478677.22, 0.0000043217738, 10.001723, 10.001433 
2.285027e+3, 2.5417885e+2, -487205.5, -296243.72, -149123.86, 0.008242108, 0.173908, -214652.52, 234407.75, 0.0, 9.998964, 10.00149 
2.2849777e+3, 2.6418108e+2, -746226.44, -266038.03, -144153.67, -0.072953574, 0.21259369, -226086.7, 124952.4, 0.0, 9.996068, 10.0024185 
2.2849306e+3, 2.741828e+2, -1091120.6, -387486.34, -83937.55, 0.12041052, 0.15016764, -377611.88, -124586.56, 0.0, 9.993053, 10.002365 
2.2848825e+3, 2.841859e+2, -1219438.3, -154496.3, -21222.994, 0.14604853, 0.13236561, -154073.52, 924.5408, 0.0, 9.990454, 10.004544 
2.2848323e+3, 2.9419118e+2, -1417744.0, -188460.81, -67127.97, -0.111745656, 0.20400442, -184806.0, -127857.34, 0.0, 9.988378, 10.00464 
2.2847852e+3, 3.0419803e+2, -1552247.4, -24464.887, -129437.84, 0.010840369, 0.34558275, -13576.17, -13576.17, 0.0, 9.986248, 10.006458 
2.2847363e+3, 3.1420374e+2, -1930607.9, -258326.47, 39565.246, -0.032644805, 0.27535576, -257390.89, -257390.89, 0.0, 9.983864, 10.006008 
2.2953081e+3, 1.942371e+2, 673068.44, -658731.9, 566760.5, 0.47558802, 0.22747639, 881605.56, 1918113.8, 0.34282914, 10.020722, 9.993923 
2.2952645e+3, 2.0423275e+2, 1168290.4, -441234.34, -10256.926, -0.61861867, 0.37995067, 1168355.8, 2106901.0, 0.14204568, 10.019438, 9.994568 
2.2952236e+3, 2.1422656e+2, 477404.8, -783965.44, -116854.984, 0.071990006, 0.3069859, 488139.06, 1328742.9, 0.04109016, 10.012012, 9.994569 
2.2951782e+3, 2.2422269e+2, 201222.25, -330430.7, -139894.83, 0.3256943, 0.24029236, 235785.98, 978425.0, 0.0069177067, 10.00668, 9.99958 
2.2951268e+3, 2.3422195e+2, -28015.996, -355363.7, -123640.914, -0.00085922534, 0.17915067, 13435.007, 658077.44, 0.000447162, 10.004236, 9.999892 
2.2950757e+3, 2.4422203e+2, -205852.61, -243518.31, -232867.67, -0.15155618, 0.14788523, 8942.512, 555582.44, 0.0000016746114, 10.001705, 10.001207 
2.2950251e+3, 2.5422314e+2, -507347.4, -338180.75, -252845.36, -0.08030257, 0.13977417, -156146.17, 292484.1, 0.0, 9.9989605, 10.001206 
2.2949742e+3, 2.6422542e+2, -641054.3, -49618.66, -258440.47, -0.017871067, 0.13433944, 47398.168, 398005.34, 0.0, 9.996072, 10.003906 
2.2949229e+3, 2.7422935e+2, -974390.2, -146264.1, -194537.13, 0.048047528, 0.1258539, -102841.74, 149724.38, 0.0, 9.9930525, 10.004025 
2.2948723e+3, 2.8423354e+2, -1272540.3, -264138.66, -102097.625, 0.068198875, 0.16528258, -253905.42, -99378.87, 0.0, 9.990446, 10.0037985 
2.2948216e+3, 2.9423803e+2, -1498632.0, -355256.28, -145085.55, -0.01245335, 0.25096413, -337133.28, -280642.34, 0.0, 9.988368, 10.003503 
2.294772e+3, 3.042439e+2, -1551180.5, -24537.568, -211590.31, 0.09546241, 0.36540106, 4245.833, 4245.833, 0.0, 9.986253, 10.006458 
2.29472e+3, 3.1424996e+2, -1859440.3, -97984.48, -89979.77, -0.030414939, 0.30717286, -93400.01, -93400.01, 0.0, 9.98382, 10.007124 
2.3053308e+3, 1.9429003e+2, 1140129.5, -535261.06, 741482.1, 0.2933412, 0.46929657, 1421151.9, 2457147.3, 0.38961548, 10.028265, 9.991983 
2.3052852e+3, 2.0428218e+2, 1257151.9, -400041.72, 24018.342, -0.5353247, 0.38698104, 1257500.0, 2195564.0, 0.15606306, 10.020496, 9.994454 
2.305237e+3, 2.1427618e+2, 707852.56, -662332.1, -30612.436, 0.15534051, 0.32947326, 708536.2, 1548656.4, 0.04311702, 10.01365, 9.99465 
2.3051861e+3, 2.2427236e+2, 424992.1, -221261.98, 109659.875, 0.37724534, 0.26891944, 443092.8, 1185247.3, 0.006716482, 10.008226, 9.999588 
2.3051307e+3, 2.3427159e+2, 24530.736, -331134.75, 99511.17, -0.03805119, 0.21065024, 50479.637, 694637.9, 0.0003715689, 10.004604, 9.999882 
2.3050764e+3, 2.4427177e+2, -279197.4, -230601.34, -11135.96, -0.21367264, 0.17351726, -228171.05, 317983.38, 0.00000057577967, 10.000997, 10.001634 
2.3050232e+3, 2.5427306e+2, -701970.8, -381184.16, 21533.496, -0.07113328, 0.14441016, -379745.13, 68396.67, 0.0, 9.997411, 10.001655 
2.30497e+3, 2.642755e+2, -790809.1, -103374.555, 40001.336, 0.012437854, 0.124303326, -101054.734, 249062.28, 0.0, 9.994968, 10.0040655 
2.3049161e+3, 2.7427953e+2, -828462.8, -59116.055, -9617.373, 0.032632247, 0.121050335, -58995.85, 193078.55, 0.0, 9.993987, 10.004169 
2.3048627e+3, 2.8428409e+2, -1073206.9, -167334.42, 18407.5, 0.032605592, 0.1882302, -166960.53, -12928.924, 0.0, 9.991814, 10.0038 
2.3048095e+3, 2.942888e+2, -1520436.8, -360942.1, 45892.484, -0.028353766, 0.304294, -359128.5, -303135.06, 0.0, 9.988199, 10.003544 
2.3047575e+3, 3.0429342e+2, -1696996.1, -51588.008, 61912.74, 0.08969642, 0.2733375, -49261.668, -49261.668, 0.0, 9.9850645, 10.006847 
2.3047033e+3, 3.1430012e+2, -2098635.3, -172962.77, 90071.63, 0.02227404, 0.24352826, -168758.92, -168758.92, 0.0, 9.98202, 10.007473 
2.315355e+3, 1.943482e+2, 858026.2, -1170487.8, 572267.2, -0.1353599, 0.655748, 1008332.2, 2043754.1, 0.39845398, 10.028375, 9.985982 
2.3153144e+3, 2.043331e+2, 1242805.9, -376334.66, -202213.11, 0.35782972, 0.1532123, 1267678.0, 2205241.5, 0.15761015, 10.020248, 9.994781 
2.3152497e+3, 2.1432962e+2, 752860.0, -554674.25, -268503.56, 0.06499916, 0.26824817, 805849.94, 1645445.0, 0.042882845, 10.013573, 9.995466 
2.3151897e+3, 2.243269e+2, 390551.8, -287481.8, -29387.031, -0.0608656, 0.29189754, 391823.1, 1133443.4, 0.0065409373, 10.008198, 9.9991455 
2.3151357e+3, 2.3432517e+2, -18376.45, -413433.78, -31937.436, 0.02796035, 0.19360797, -15811.203, 627824.94, 0.00035050328, 10.004571, 9.999333 
2.31508e+3, 2.4432555e+2, -207847.36, -79622.266, -147806.69, 0.063712366, 0.15754274, 17377.678, 563007.6, 0.00000044508045, 10.000979, 10.002684 
2.3150215e+3, 2.543286e+2, -620825.4, -213632.94, -112759.1, 0.022357455, 0.18755428, -184493.17, 263102.44, 0.0, 9.997409, 10.00281 
2.3149645e+3, 2.6433125e+2, -874758.0, -281067.75, -3815.7815, 0.011063853, 0.18619041, -281043.25, 68525.25, 0.0, 9.994978, 10.002844 
2.3149104e+3, 2.743335e+2, -924804.8, -265612.7, -45197.86, 0.062361475, 0.14191043, -262528.13, -10978.541, 0.0, 9.99401, 10.002744 
2.3148546e+3, 2.8433752e+2, -1010361.5, -42867.55, -111305.42, 0.032171067, 0.19544442, -30227.547, 123285.37, 0.0, 9.991836, 10.004648 
2.3147964e+3, 2.943436e+2, -1425276.3, -166986.75, -82619.5, -0.16316053, 0.3429188, -161585.13, -106129.34, 0.0, 9.988208, 10.004875 
2.314741e+3, 3.0434728e+2, -1642728.1, 65176.508, -40243.184, -0.042687643, 0.09624181, 66124.23, 66124.23, 0.0, 9.985038, 10.007666 
2.3146853e+3, 3.1435618e+2, -2115261.0, -198738.98, -138296.84, 0.016978027, 0.2420137, -188810.88, -188810.88, 0.0, 9.9819765, 10.00732 
2.3253837e+3, 1.9440423e+2, 1388244.1, -831725.44, 127953.945, -0.30432475, 0.5586933, 1395594.8, 2430462.5, 0.36548316, 10.032748, 9.986388 
2.3253328e+3, 2.0438963e+2, 634123.25, -582959.06, -117228.836, 0.4802197, 0.04209947, 645311.8, 1582319.1, 0.14629234, 10.014645, 9.995749 
2.3252624e+3, 2.1438771e+2, 644033.25, -507772.78, -123808.6, 0.07488605, 0.22352324, 657191.2, 1496215.4, 0.04059239, 10.012322, 9.996393 
2.3251978e+3, 2.24386e+2, 495321.44, -219369.6, 152303.75, -0.09030376, 0.29804814, 526424.44, 1267464.5, 0.006491605, 10.008854, 9.999297 
2.3251404e+3, 2.343846e+2, -117108.805, -451521.13, 195402.75, 0.07073445, 0.22879592, -27137.717, 615916.6, 0.00039964524, 10.0038595, 9.999411 
2.3250811e+3, 2.4438496e+2, -285072.22, -113924.1, 134447.58, 0.1286664, 0.19155785, -40127.297, 504921.28, 0.0000010354988, 10.000446, 10.002699 
2.3250198e+3, 2.5438765e+2, -388245.94, -99918.27, 86011.27, 0.03724476, 0.18856338, -76209.68, 370807.13, 0.0, 9.999007, 10.002816 
2.32496e+3, 2.6439005e+2, -662347.56, -218862.78, 189798.31, -0.013705772, 0.18286012, -148726.63, 200265.45, 0.0, 9.996616, 10.002478 
2.3249033e+3, 2.74392e+2, -1094969.4, -391987.53, 219393.86, 0.017300937, 0.15503487, -329136.16, -78158.875, 0.0, 9.99304, 10.002341 
2.3248449e+3, 2.8439566e+2, -1251420.4, -138176.13, 148068.63, -0.010039686, 0.19165842, -118818.64, 34125.95, 0.0, 9.990099, 10.0048275 
2.3247842e+3, 2.9440176e+2, -1444173.0, -143691.98, 108899.15, -0.17762963, 0.32330704, -134636.1, -79749.82, 0.0, 9.987949, 10.005154 
2.3247258e+3, 3.0440634e+2, -1605079.6, 104558.086, 64873.105, -0.06348835, 0.14289732, 107016.195, 107016.195, 0.0, 9.985212, 10.007849 
2.324667e+3, 3.1441528e+2, -2070857.6, -111413.92, -74227.234, 0.01313053, 0.28702778, -108606.086, -108606.086, 0.0, 9.982008, 10.0079 
2.3354162e+3, 1.9445886e+2, 1830411.4, -258261.25, -645892.25, -0.30289233, 0.23151371, 2014006.3, 3048331.8, 0.30125687, 10.031891, 9.992256 
2.3353416e+3, 2.0445132e+2, 757445.4, -399225.63, -238610.27, -0.08709409, 0.037658967, 804735.0, 1741135.5, 0.1243568, 10.014641, 9.997124 
2.3352756e+3, 2.1445006e+2, 703980.5, -376502.53, -194272.7, 0.17997268, 0.18787116, 737849.4, 1576261.0, 0.036213096, 10.012235, 9.997364 
2.3352097e+3, 2.2444946e+2, 529150.94, -128607.76, -23585.148, 0.24351138, 0.28982294, 529995.56, 1270412.4, 0.0063911476, 10.0087595, 9.999972 
2.335144e+3, 2.3444967e+2, -75275.25, -359520.44, 11057.505, 0.07359175, 0.31753486, -74845.75, 567569.3, 0.00050427264, 10.003832, 10.000059 
2.3350799e+3, 2.4444984e+2, -359008.34, -267455.3, 71404.75, -0.020519229, 0.2750474, -228413.61, 315998.44, 0.0000034023203, 10.000442, 10.001649 
2.3350178e+3, 2.5445008e+2, -468306.7, -267685.5, 32944.996, -0.03405956, 0.14602739, -262413.97, 183992.27, 0.0, 9.999009, 10.001665 
2.3349561e+3, 2.6445183e+2, -625257.6, -145492.66, 59054.766, -0.0695476, 0.11160803, -138330.45, 210057.33, 0.0, 9.996625, 10.00298 
2.3348948e+3, 2.744551e+2, -1049431.3, -299958.34, 85690.13, -0.11409073, 0.15546417, -290285.88, -39929.055, 0.0, 9.993044, 10.002974 
2.334834e+3, 2.8445873e+2, -1295572.1, -228333.27, 66448.016, -0.104988866, 0.1808947, -224212.02, -71887.46, 0.0, 9.9900875, 10.004217 
2.334773e+3, 2.944636e+2, -1508335.3, -278625.47, 34261.695, -0.081155226, 0.2608233, -277671.63, -223389.25, 0.0, 9.987951, 10.00423 
2.3347118e+3, 3.0447063e+2, -1637337.5, 34301.96, -64638.195, 0.052025247, 0.40775156, 36797.637, 36797.637, 0.0, 9.98522, 10.007365 
2.3346497e+3, 3.144753e+2, -2024707.8, -30877.541, -46314.875, 0.091293976, 0.15023762, -29802.268, -29802.268, 0.0, 9.98206, 10.008434 
2.3455381e+3, 1.8453091e+2, -424242.66, -1087163.4, -517688.3, 0.119059436, 0.2615325, -140994.02, 990615.6, 0.409317, 10.010132, 9.996486 
2.3454396e+3, 1.9452482e+2, 439711.72, -732737.2, -581419.4, -0.23274983, 0.1500119, 679143.1, 1712820.8, 0.22471622, 10.015299, 9.995275 
2.345355e+3, 2.0452069e+2, 972816.56, -246701.3, 37902.254, -0.24787645, 0.114872515, 973993.44, 1909714.4, 0.096396655, 10.015607, 9.9976845 
2.3452862e+3, 2.1451876e+2, 419245.5, -473043.3, 79869.51, 0.1526786, 0.17016122, 426338.3, 1264073.9, 0.029797306, 10.009961, 9.997746 
2.345217e+3, 2.2451773e+2, 116006.08, -355861.2, 231427.56, 0.26153088, 0.22764821, 210562.08, 950305.94, 0.0058436496, 10.006031, 9.999706 
2.3451473e+3, 2.3451772e+2, -57499.688, -383201.3, 198224.19, 0.018151578, 0.27162316, 36190.36, 677935.7, 0.0005716252, 10.004106, 9.99976 
2.3450801e+3, 2.445175e+2, -265028.44, -306334.84, 267589.16, -0.08703472, 0.246362, -17296.654, 526451.0, 0.000007027617, 10.001462, 10.000885 
2.3450162e+3, 2.5451708e+2, -684114.3, -458227.9, 255390.84, -0.027428424, 0.13517185, -291920.94, 153829.4, 0.0, 9.997912, 10.00088 
2.3449521e+3, 2.6451847e+2, -809947.8, -246782.78, 275059.4, -0.030106917, 0.11770341, -134733.0, 213003.25, 0.0, 9.995423, 10.002859 
2.3448884e+3, 2.7452183e+2, -893152.94, -229487.02, 243769.0, -0.09385696, 0.18062346, -149571.95, 100132.12, 0.0, 9.994149, 10.002919 
2.3448247e+3, 2.8452525e+2, -1043428.4, -122278.05, 202706.31, -0.09295455, 0.19789971, -79644.18, 72028.78, 0.0, 9.991894, 10.004069 
2.3447612e+3, 2.9452935e+2, -1448821.8, -285375.38, 210929.56, -0.042055476, 0.22642997, -248314.95, -194678.08, 0.0, 9.988521, 10.003905 
2.3446973e+3, 3.0453625e+2, -1587285.1, -48047.57, 122542.56, 0.028693847, 0.43260503, -38352.715, -38352.715, 0.0, 9.986029, 10.006407 
2.3446326e+3, 3.1453985e+2, -1809780.4, 35735.47, 116709.13, 0.12866239, 0.15273477, 43086.79, 43086.79, 0.0, 9.983702, 10.008094 
2.3556384e+3, 1.7459954e+2, -145700.61, -269012.8, -591164.9, -0.5652289, -0.10126101, 387014.75, 1615956.8, 0.41294715, 10.00938, 10.006719 
2.3555456e+3, 1.8460414e+2, -222093.66, -992135.7, -445254.22, -0.10015454, 0.19365858, -18478.531, 1112415.3, 0.27376202, 10.0102825, 9.996483 
2.355456e+3, 1.9460045e+2, 585244.8, -645460.7, -461423.84, -0.09995757, 0.26582947, 739028.56, 1771968.9, 0.1531792, 10.015099, 9.995856 
2.3553719e+3, 2.0459686e+2, 987589.8, -260321.34, -134651.88, -0.075218305, 0.26247397, 1001953.6, 1936929.9, 0.06791739, 10.01533, 9.997563 
2.3552942e+3, 2.1459326e+2, 406531.44, -500447.38, -122371.49, -0.013926382, 0.16860431, 422751.97, 1259753.6, 0.022058494, 10.009878, 9.99758 
2.3552202e+3, 2.2459048e+2, 35104.64, -528391.0, 156647.08, -0.01704649, 0.114121884, 75723.3, 814748.4, 0.004635786, 10.006035, 9.998514 
2.3551498e+3, 2.3458856e+2, -145205.7, -565592.5, 128206.375, -0.09834504, 0.092579186, -109191.59, 531855.7, 0.0004986476, 10.004098, 9.998513 
2.3550813e+3, 2.4458787e+2, -301835.63, -381399.63, 135711.05, -0.08233122, 0.10918233, -200195.94, 342860.13, 0.000006210488, 10.001449, 10.000379 
2.3550147e+3, 2.545886e+2, -714707.3, -524879.2, 122229.984, 0.0447523, 0.16049525, -465039.13, -19989.818, 0.0, 9.997918, 10.0004225 
2.3549487e+3, 2.6459e+2, -865120.06, -364516.9, 223660.9, 0.100622, 0.20440947, -279147.4, 67889.77, 0.0, 9.995432, 10.0020485 
2.354884e+3, 2.7459216e+2, -946059.8, -345634.13, 198085.38, 0.07887781, 0.2338785, -286172.72, -37154.207, 0.0, 9.994172, 10.002113 
2.3548177e+3, 2.8459525e+2, -1012081.8, -66792.69, 79208.055, 0.022996988, 0.24182847, -60201.61, 90787.19, 0.0, 9.991927, 10.004438 
2.354749e+3, 2.945992e+2, -1420805.1, -237826.0, 92147.98, -0.08985757, 0.21195398, -230691.17, -177743.38, 0.0, 9.988557, 10.004218 
2.3546812e+3, 3.0460328e+2, -1692904.8, -277816.22, 61862.816, -0.1466206, 0.20113377, -275116.94, -275116.94, 0.0, 9.986069, 10.004812 
2.354615e+3, 3.1460994e+2, -1889496.6, -139231.03, -79031.586, 0.005861728, 0.38395295, -135669.69, -135669.69, 0.0, 9.98374, 10.006876 
2.3657583e+3, 1.6468221e+2, -1160272.6, -1089003.8, -413920.0, 0.35857856, 0.30807325, -709187.1, 616952.5, 0.37858775, 10.001074, 10.002502 
2.3656522e+3, 1.7468281e+2, -278993.44, -626657.56, -535619.2, 0.00031647793, 0.21447934, 110295.74, 1338423.0, 0.2669354, 10.008007, 10.001771 
2.3655552e+3, 1.8468171e+2, -15978.745, -914144.44, -246067.19, -0.15830392, 0.2108974, 47016.98, 1177154.4, 0.17272843, 10.010908, 9.996517 
2.365468e+3, 1.9467849e+2, -28273.625, -925575.06, -236517.14, -0.07733515, 0.29410446, 30251.982, 1062427.4, 0.09655966, 10.009418, 9.996253 
2.3653838e+3, 2.0467463e+2, 52681.184, -793478.44, -34344.13, -0.031702626, 0.28435913, 54072.863, 988285.56, 0.043454092, 10.008593, 9.996841 
2.365303e+3, 2.1466991e+2, 171456.0, -695689.5, -67435.86, -0.031140864, 0.15817317, 176668.98, 1012919.75, 0.014392978, 10.008531, 9.996841 
2.3652259e+3, 2.2466631e+2, 133312.56, -558977.5, 218955.03, -0.065212764, 0.09569427, 196749.88, 935033.06, 0.003039535, 10.00705, 9.997808 
2.3651533e+3, 2.3466384e+2, -221192.97, -678945.75, 227796.98, -0.12758787, 0.09509158, -127151.625, 513158.72, 0.00030787487, 10.003916, 9.997817 
2.3650825e+3, 2.4466275e+2, -302969.3, -409974.22, 267085.75, -0.08312352, 0.122969106, -84079.945, 458242.72, 0.0000017663039, 10.001573, 10.000117 
2.3650137e+3, 2.546632e+2, -417691.3, -408234.88, 266638.84, 0.07719105, 0.17493655, -146282.33, 298035.88, 0.0, 10.000084, 10.000175 
2.3649453e+3, 2.646642e+2, -586298.2, -270870.88, 393093.66, 0.13216643, 0.21750662, -5032.6104, 341276.72, 0.0, 9.997533, 10.001675 
2.3648779e+3, 2.7466592e+2, -1028091.7, -428415.5, 396657.84, 0.084653266, 0.2447821, -231020.92, 17274.291, 0.0, 9.993809, 10.001716 
2.364809e+3, 2.8466848e+2, -1136675.1, -173610.47, 263575.53, 0.023042845, 0.24776551, -106193.41, 44076.94, 0.0, 9.991288, 10.004006 
2.364738e+3, 2.9467177e+2, -1250913.0, -195192.28, 204931.48, -0.08529911, 0.19442165, -156807.58, -104572.1, 0.0, 9.989905, 10.003854 
2.3646683e+3, 3.0467454e+2, -1554440.6, -304124.97, 182487.39, -0.10405987, 0.11600186, -278034.8, -278034.8, 0.0, 9.987428, 10.003972 
2.3645984e+3, 3.1468046e+2, -1790770.6, -159304.22, 45543.5, -0.043092366, 0.31313017, -158033.83, -158033.83, 0.0, 9.984714, 10.006265 
2.3758525e+3, 1.5476517e+2, -1644088.0, -845863.56, -183013.34, -0.08771684, 0.30053505, -805903.56, 617420.75, 0.38024154, 9.9941025, 10.009285 
2.3757552e+3, 1.6476688e+2, -1276915.4, -1501319.6, -314760.66, -0.023234453, 0.13412529, -1054956.5, 270344.38, 0.2618609, 10.001591, 9.998238 
2.3756592e+3, 1.7476568e+2, -377151.1, -1013855.0, -391509.97, -0.05502857, 0.25177035, -190896.23, 1036422.1, 0.17130934, 10.008038, 9.997892 
2.3755664e+3, 1.8476303e+2, 57700.23, -905063.0, -304632.13, -0.10342703, 0.29565063, 145993.06, 1275339.1, 0.104972295, 10.01077, 9.996522 
2.375476e+3, 1.9475867e+2, 23539.93, -900471.9, -298192.97, -0.16204727, 0.24694471, 111414.46, 1142800.8, 0.057029665, 10.009394, 9.996417 
2.3753914e+3, 2.0475389e+2, -11244.971, -970074.5, -35597.305, -0.10156477, 0.19918449, -9925.209, 923506.7, 0.025273897, 10.008614, 9.995581 
2.3753123e+3, 2.1474855e+2, 84943.41, -885261.0, -65124.652, 0.080106504, 0.14068165, 89295.35, 924779.9, 0.008136482, 10.008509, 9.995542 
2.375234e+3, 2.2474504e+2, 112185.27, -598357.6, 109367.33, 0.08735475, 0.16664714, 128638.2, 866157.56, 0.001581485, 10.007012, 9.997557 
2.3751575e+3, 2.3474345e+2, -237502.56, -711442.9, 112581.47, -0.08652245, 0.27322242, -212119.06, 427416.84, 0.00012219232, 10.0039015, 9.997603 
2.3750837e+3, 2.4474199e+2, -307641.34, -420949.22, 208489.8, -0.09593843, 0.28012326, -148245.13, 393303.88, 0.0000000104861435, 10.001571, 10.000047 
2.3750134e+3, 2.5474077e+2, -420441.13, -417539.03, 210674.8, 0.060714927, 0.17479841, -208310.28, 235247.55, 0.0, 10.0000925, 10.000111 
2.3749419e+3, 2.6474115e+2, -582161.44, -267134.5, 254739.2, 0.05244339, 0.15356037, -125144.125, 220408.73, 0.0, 9.997544, 10.001698 
2.3748696e+3, 2.7474317e+2, -1027395.1, -430979.72, 260478.5, -0.108345196, 0.2061247, -333236.8, -85703.01, 0.0, 9.993816, 10.001697 
2.3747988e+3, 2.8474507e+2, -1232948.1, -376232.63, 211417.25, -0.10321322, 0.21553232, -326900.5, -177383.81, 0.0, 9.991295, 10.002615 
2.3747288e+3, 2.9474723e+2, -1324792.4, -361208.53, 148609.28, 0.003697023, 0.19192354, -338809.84, -287311.34, 0.0, 9.989953, 10.002694 
2.3746577e+3, 3.047501e+2, -1539141.4, -282668.4, 60779.88, 0.14077942, 0.17161028, -279735.13, -279735.13, 0.0, 9.987463, 10.0041065 
2.3745835e+3, 3.1475323e+2, -1690693.1, 18634.951, -1470.0511, 0.004971911, 0.09732603, 18636.215, 18636.215, 0.0, 9.9848175, 10.007447 
2.3859544e+3, 1.4485118e+2, -1151319.1, -1227726.9, -152454.75, 0.4433907, 0.16427298, -1032354.3, 488127.9, 0.42448318, 10.003522, 10.0017805 
2.3858532e+3, 1.548519e+2, -742726.4, -987850.6, -298251.97, -0.011908057, 0.09418159, -542835.8, 879632.75, 0.2942093, 10.005947, 10.001352 
2.3857579e+3, 1.6485083e+2, -664805.0, -1311547.8, -306504.9, -0.17743753, 0.12197498, -542626.94, 781851.8, 0.1866777, 10.007113, 9.996822 
2.3856668e+3, 1.748486e+2, -463200.38, -1201118.8, -288186.8, -0.03864324, 0.26033488, -363990.25, 862516.94, 0.110978596, 10.007517, 9.996626 
2.3855762e+3, 1.8484499e+2, -289867.6, -1131489.0, -229438.95, -0.005168231, 0.29545772, -231383.11, 897160.7, 0.062453207, 10.007998, 9.996139 
2.3854856e+3, 1.9483986e+2, -60435.93, -987014.44, -252055.0, -0.084700055, 0.20423655, 3691.7788, 1034281.1, 0.031914454, 10.008764, 9.99608 
2.3854001e+3, 2.0483482e+2, -26218.094, -1021355.8, 25398.396, -0.06710663, 0.16745341, -25570.285, 907067.7, 0.013372956, 10.008607, 9.995227 
2.3853196e+3, 2.1482982e+2, -79646.0, -1004948.94, 55841.617, 0.055695336, 0.18045624, -76288.164, 758402.5, 0.003905214, 10.007518, 9.995193 
2.3852402e+3, 2.2482626e+2, -46842.74, -695188.8, 199014.38, 0.055666577, 0.23095366, 9372.024, 746098.9, 0.0006166225, 10.006003, 9.997375 
2.385161e+3, 2.3482417e+2, -234585.53, -729563.6, 201592.81, -0.07215852, 0.31323904, -162871.69, 475874.25, 0.000024628614, 10.004012, 9.997424 
2.3850852e+3, 2.4482219e+2, -360674.1, -509869.7, 292320.16, -0.082513936, 0.30479425, -133583.45, 407180.28, 0.0, 10.001492, 9.99947 
2.3850119e+3, 2.5482023e+2, -709917.4, -621882.8, 252550.63, 0.027159128, 0.18901365, -409542.25, 33238.125, 0.0, 9.998394, 9.99952 
2.384938e+3, 2.6481995e+2, -792846.9, -397013.34, 257837.98, 0.007262844, 0.14699756, -269889.4, 74892.5, 0.0, 9.996233, 10.001432 
2.3848635e+3, 2.748214e+2, -881959.2, -388372.34, 237415.86, -0.123354435, 0.17359334, -292713.9, -45946.395, 0.0, 9.994944, 10.001441 
2.3847911e+3, 2.848234e+2, -1022096.0, -294804.4, 245133.83, -0.074552976, 0.21234775, -219897.05, -71147.336, 0.0, 9.992834, 10.002428 
2.3847193e+3, 2.948261e+2, -1329819.4, -381869.3, 273147.94, 0.09121248, 0.26788625, -308795.78, -258069.13, 0.0, 9.990006, 10.002523 
2.3846452e+3, 3.0482846e+2, -1440794.8, -174471.22, 209769.8, 0.14332138, 0.17825541, -140626.84, -140626.84, 0.0, 9.987888, 10.004637 
2.3845671e+3, 3.1483322e+2, -1506491.5, 243510.45, 129294.4, -0.10355679, 0.22545838, 253011.45, 253011.45, 0.0, 9.985515, 10.008645 
2.3960513e+3, 1.3493583e+2, -1318651.9, -985816.56, 56053.74, 0.033855233, -0.016335787, -976629.94, 641020.8, 0.48875603, 9.999912, 10.008511 
2.3959565e+3, 1.4494127e+2, -1293706.9, -1660203.5, -153404.8, 0.3614227, 0.2911289, -1237971.9, 281619.38, 0.36094293, 10.0037775, 9.997341 
2.3958585e+3, 1.5493786e+2, -919939.56, -1467602.5, -271436.66, -0.060053628, 0.24965705, -808204.5, 613426.3, 0.23661569, 10.006002, 9.996984 
2.3957644e+3, 1.6493446e+2, -585225.75, -1209696.0, -296622.3, -0.1726841, 0.23154964, -466792.16, 856874.56, 0.13798408, 10.007084, 9.9974985 
2.3956746e+3, 1.7493172e+2, -386364.2, -1097517.1, -282439.75, 0.024680614, 0.24375384, -287840.6, 937851.94, 0.07334466, 10.007495, 9.99734 
2.3955852e+3, 1.8492755e+2, -317724.2, -1239226.0, -208819.22, 0.12364278, 0.22773318, -272612.6, 855119.56, 0.03676928, 10.007995, 9.995389 
2.395496e+3, 1.9492197e+2, -99163.6, -1097305.6, -224364.88, 0.1207715, 0.1663614, -51049.57, 978735.7, 0.017046433, 10.008753, 9.995322 
2.3954095e+3, 2.049173e+2, 4402.8755, -963528.94, -9922.694, 0.045925077, 0.18402842, 4504.587, 936336.2, 0.006419437, 10.00857, 9.995646 
2.3953252e+3, 2.149135e+2, -58238.668, -946811.7, 18309.717, -0.10066154, 0.27271187, -57861.543, 776010.0, 0.0015371095, 10.007437, 9.995635 
2.395244e+3, 2.2490972e+2, -65802.05, -721607.8, 126292.125, -0.14557299, 0.2872883, -42321.945, 693586.3, 0.00015949899, 10.005938, 9.997228 
2.3951648e+3, 2.3490599e+2, -249816.1, -756288.2, 127418.48, -0.09004344, 0.22083768, -219566.75, 418374.8, 0.0000010983538, 10.0039835, 9.997258 
2.3950867e+3, 2.449033e+2, -439836.3, -674983.75, 174816.47, -0.05269478, 0.20463285, -346734.03, 193233.27, 0.0, 10.001485, 9.9983425 
2.3950095e+3, 2.5490153e+2, -789378.8, -789756.0, 136227.28, -0.034851734, 0.22209004, -653340.0, -211353.77, 0.0, 9.998399, 9.998369 
2.3949338e+3, 2.6490057e+2, -831789.1, -482579.0, 208234.03, -0.0029470357, 0.20048738, -385433.56, -41436.652, 0.0, 9.996245, 10.000843 
2.3948601e+3, 2.749007e+2, -910746.2, -460883.97, 187327.7, 0.050514948, 0.15186644, -393093.94, -147097.11, 0.0, 9.994989, 10.000925 
2.3947854e+3, 2.8490347e+2, -936926.0, -128761.555, 136518.69, 0.10789782, 0.23890792, -106323.21, 41646.156, 0.0, 9.992872, 10.003553 
2.3947094e+3, 2.949084e+2, -1262202.9, -248061.64, 177147.5, 0.13423257, 0.40540397, -218008.58, -168088.92, 0.0, 9.990026, 10.003436 
2.3946303e+3, 3.0490997e+2, -1388905.5, -72913.81, 144374.4, -0.11038828, 0.16221257, -57261.008, -57261.008, 0.0, 9.987906, 10.00533 
2.3945515e+3, 3.14917e+2, -1670827.4, -119021.31, -95586.28, -0.19285685, 0.35004973, -113155.67, -113155.67, 0.0, 9.985585, 10.006132 
2.4060528e+3, 1.3503198e+2, -1436324.3, -1922455.1, -420256.8, 0.0028105723, 0.3283892, -1193903.8, 422799.13, 0.44352794, 10.004834, 9.996159 
2.4059603e+3, 1.450276e+2, -1113519.1, -1630594.5, -217076.42, 0.278596, 0.29443958, -1034471.44, 484275.4, 0.317232, 10.005765, 9.9966345 
2.4058647e+3, 1.5502344e+2, -871095.06, -1520703.0, -181302.23, -0.0017859746, 0.25718367, -823920.4, 596872.1, 0.1974911, 10.006535, 9.996232 
2.4057719e+3, 1.6501938e+2, -612601.7, -1288952.3, -166785.33, -0.08445554, 0.24218701, -573709.5, 749125.06, 0.10595748, 10.00694, 9.996921 
2.4056815e+3, 1.7501602e+2, -460655.9, -1199974.1, -222591.53, 0.023124238, 0.2511966, -398812.0, 826054.6, 0.049779166, 10.007075, 9.996784 
2.405592e+3, 1.8501148e+2, -388366.44, -1279313.0, -136046.08, 0.087285616, 0.22793683, -368055.44, 758854.5, 0.021571629, 10.007415, 9.995381 
2.4055038e+3, 1.9500588e+2, -187468.53, -1142690.9, -104543.58, 0.10865882, 0.16393118, -176160.7, 852802.8, 0.0087235905, 10.00809, 9.995321 
2.405417e+3, 2.0500134e+2, -167417.36, -1037243.9, 40976.195, 0.040626, 0.19569182, -165491.3, 765517.2, 0.0027679622, 10.007319, 9.995739 
2.405331e+3, 2.1499789e+2, -381793.63, -1091414.9, 41800.457, -0.11744607, 0.31113845, -379339.84, 453705.2, 0.00046275285, 10.005159, 9.995735 
2.405248e+3, 2.2499393e+2, -420431.72, -901291.94, 149875.92, -0.16664208, 0.30728185, -377543.22, 357539.94, 0.000019693198, 10.003547, 9.99714 
2.4051675e+3, 2.3498946e+2, -472603.6, -873674.0, 153702.88, -0.09851191, 0.17879261, -420475.1, 216647.64, 0.000000000013764808, 10.002504, 9.99716 
2.405088e+3, 2.4498649e+2, -482393.13, -722955.5, 211548.78, -0.044651452, 0.15605304, -359321.78, 179829.22, 0.0, 10.001319, 9.99809 
2.4050085e+3, 2.5498492e+2, -582620.6, -719451.25, 235459.11, -0.010566954, 0.22177063, -405838.78, 35330.184, 0.0, 9.999952, 9.9981 
2.4049309e+3, 2.649839e+2, -619214.75, -406191.6, 361151.6, 0.023612374, 0.22232224, -136172.7, 207008.44, 0.0, 9.997827, 10.000602 
2.404855e+3, 2.749837e+2, -931360.2, -497594.2, 359276.72, 0.076161176, 0.17509393, -294813.03, -49628.52, 0.0, 9.994977, 10.000675 
2.4047779e+3, 2.8498632e+2, -961202.9, -117074.73, 264125.5, 0.10760738, 0.2513079, -41242.87, 105915.195, 0.0, 9.992618, 10.003752 
2.404699e+3, 2.94991e+2, -1165664.9, -177875.33, 231181.52, 0.0831007, 0.3751884, -126447.31, -77338.41, 0.0, 9.990597, 10.003638 
2.4046187e+3, 3.049926e+2, -1245672.1, 6080.8813, 186242.48, -0.072127536, 0.12205009, 33203.355, 33203.355, 0.0, 9.98885, 10.005416 
2.40454e+3, 3.149994e+2, -1491422.3, -274402.6, -91863.44, 0.024676388, 0.28465718, -267507.6, -267507.6, 0.0, 9.987862, 10.003965 
2.4160564e+3, 1.3511375e+2, -1315343.4, -1693164.4, -347908.22, -0.08795701, 0.19601785, -1108365.9, 507544.28, 0.41239437, 10.004963, 9.997736 
2.4159649e+3, 1.4511159e+2, -1000928.3, -1401653.8, -184246.72, 0.18717316, 0.22405767, -929092.44, 588839.0, 0.28671008, 10.005776, 9.9983425 
2.4158724e+3, 1.5510885e+2, -740505.06, -1274285.5, -161572.31, 0.12867656, 0.1550079, -695408.1, 724544.06, 0.17033109, 10.006567, 9.998051 
2.4157798e+3, 1.6510531e+2, -689522.25, -1510559.0, -177135.13, 0.05399336, 0.17651537, -652936.44, 669050.5, 0.08442224, 10.006988, 9.995365 
2.4156873e+3, 1.7510132e+2, -545327.8, -1419338.4, -223311.25, -0.040099002, 0.27641925, -491577.03, 732454.4, 0.03483719, 10.007129, 9.995245 
2.4155974e+3, 1.850966e+2, -341910.2, -1193291.0, -109413.58, -0.087166645, 0.28243896, -328073.97, 798004.3, 0.012673127, 10.0074005, 9.995979 
2.4155095e+3, 1.9509132e+2, -163477.0, -1068178.6, -79536.31, -0.09136167, 0.1918694, -156537.84, 871588.4, 0.004282701, 10.007947, 9.995904 
2.4154228e+3, 2.0508678e+2, -198042.34, -1077264.3, -38756.93, -0.06608696, 0.20336571, -196337.22, 733833.5, 0.0010443184, 10.007198, 9.995525 
2.415337e+3, 2.1508294e+2, -397915.6, -1124234.8, -35709.004, -0.017038979, 0.3021832, -396164.22, 436047.53, 0.00009154271, 10.005148, 9.99552 
2.4152525e+3, 2.2507884e+2, -419434.66, -907825.75, 113397.445, -0.03472616, 0.29811573, -394389.72, 339861.88, 0.0000003545797, 10.003576, 9.997085 
2.4151696e+3, 2.3507449e+2, -476309.88, -883498.0, 116183.56, -0.108989105, 0.18707944, -445491.56, 190798.67, 0.0, 10.002505, 9.997096 
2.4150886e+3, 2.450717e+2, -440942.53, -638245.06, 159342.19, -0.059639275, 0.15460603, -352185.13, 186130.7, 0.0, 10.001316, 9.998677 
2.4150093e+3, 2.5507036e+2, -538184.8, -632480.44, 183918.06, 0.092696436, 0.18603885, -395467.5, 44861.715, 0.0, 9.999967, 9.998695 
2.414929e+3, 2.6506993e+2, -612544.5, -398501.44, 252822.52, 0.074382626, 0.21385917, -230981.83, 111352.39, 0.0, 9.997844, 10.00065 
2.4148482e+3, 2.7507058e+2, -930085.8, -500189.47, 254856.42, -0.07874542, 0.24604796, -381739.22, -137409.94, 0.0, 9.99499, 10.000654 
2.414768e+3, 2.8507197e+2, -1020712.7, -242967.31, 190094.56, -0.0930291, 0.24417828, -198991.4, -52676.184, 0.0, 9.99262, 10.002889 
2.414688e+3, 2.9507363e+2, -1202239.9, -264909.7, 156380.4, -0.051069237, 0.15680662, -239508.17, -191212.38, 0.0, 9.990636, 10.003026 
2.4146108e+3, 3.0507627e+2, -1273942.6, -69559.01, 136614.39, 0.2713313, 0.050865058, -54257.12, -54257.12, 0.0, 9.988913, 10.004869 
2.4145283e+3, 3.1508374e+2, -1424161.8, -159273.2, 76421.586, 0.09204564, 0.3586037, -154672.72, -154672.72, 0.0, 9.987979, 10.004691 
2.4260615e+3, 1.3520001e+2, -1192260.8, -1544528.3, -177230.14, -0.052301414, 0.21183982, -1118527.3, 496540.53, 0.3906873, 10.005711, 9.998071 
2.4259697e+3, 1.4519794e+2, -947978.0, -1399335.4, -101017.18, 0.13786447, 0.24895595, -926401.06, 590687.2, 0.264872, 10.006242, 9.998099 
2.4258782e+3, 1.5519491e+2, -689062.8, -1269100.6, -165862.03, 0.082830794, 0.1713344, -644984.2, 774126.56, 0.15090734, 10.006941, 9.997879 
2.4257864e+3, 1.6519126e+2, -626631.94, -1485101.4, -205657.06, 0.027519317, 0.19129708, -579907.4, 741238.2, 0.0695191, 10.007393, 9.99534 
2.4256943e+3, 1.7518727e+2, -455336.53, -1380048.0, -165014.73, -0.040771388, 0.29420125, -426772.03, 796417.94, 0.025177745, 10.007733, 9.995213 
2.4256043e+3, 1.851826e+2, -404995.2, -1215327.3, -54800.848, -0.083926775, 0.3052019, -401305.9, 723930.56, 0.0074807503, 10.006898, 9.996065 
2.4255157e+3, 1.9517748e+2, -578347.3, -1258467.6, -61180.23, -0.097391166, 0.22162236, -572887.7, 454395.75, 0.0020132982, 10.005033, 9.995996 
2.4254282e+3, 2.0517303e+2, -564464.4, -1199750.0, -5629.8076, -0.06337628, 0.21642408, -564414.5, 364911.34, 0.0003249463, 10.004448, 9.996006 
2.425342e+3, 2.151693e+2, -370924.44, -1058396.3, 39259.18, 0.015980111, 0.27833977, -368689.75, 462673.78, 0.000008047383, 10.005114, 9.995984 
2.4252565e+3, 2.2516519e+2, -311357.03, -864738.2, 177705.63, 0.012677096, 0.25834018, -259205.77, 474197.1, 0.0, 10.004362, 9.997001 
2.4251722e+3, 2.3516077e+2, -514286.5, -909857.7, 177184.06, -0.062968425, 0.1515701, -446528.63, 188914.8, 0.0, 10.002285, 9.99702 
2.4250896e+3, 2.4515818e+2, -544974.9, -642344.44, 218144.34, -0.03242886, 0.12631804, -370148.66, 167318.31, 0.0, 10.000411, 9.999082 
2.4250083e+3, 2.5515732e+2, -689458.7, -659590.8, 226712.98, 0.091852285, 0.16866781, -447320.44, -7845.991, 0.0, 9.998738, 9.999097 
2.4249257e+3, 2.6515722e+2, -733958.56, -456447.5, 254734.42, 0.046458103, 0.20965576, -305129.38, 36346.28, 0.0, 9.997015, 10.000648 
2.4248423e+3, 2.7515787e+2, -909121.6, -493435.9, 250010.77, -0.13056055, 0.24491428, -376157.2, -132686.7, 0.0, 9.9951515, 10.000621 
2.4247605e+3, 2.8515846e+2, -923615.2, -268066.16, 223116.86, -0.13224976, 0.20070697, -199334.34, -53869.53, 0.0, 9.993601, 10.002241 
2.4246792e+3, 2.9515904e+2, -992278.44, -231910.53, 201475.13, -0.047786318, 0.069924556, -181824.72, -134366.94, 0.0, 9.992378, 10.002406 
2.4246013e+3, 3.051623e+2, -1049205.5, -48212.707, 165727.52, 0.37084764, 0.09945918, -21487.85, -21487.85, 0.0, 9.990831, 10.00409 
2.4245141e+3, 3.15167e+2, -1266602.9, -3722.0603, 173555.78, -0.1427733, 0.21421282, 19695.227, 19695.227, 0.0, 9.988729, 10.005393 
2.4361598e+3, 1.2529121e+2, -1425011.6, -1712299.1, -128347.13, -0.32625183, 0.22728156, -1376024.9, 336144.94, 0.49215794, 10.004955, 9.9979105 
2.436068e+3, 1.352895e+2, -1208633.8, -1625221.9, -175965.05, 0.061388075, 0.32005057, -1144255.6, 469934.44, 0.37509644, 10.005772, 9.997393 
2.4359754e+3, 1.4528604e+2, -1015215.1, -1595042.6, -86229.445, 0.100365855, 0.33328423, -1002663.1, 513561.72, 0.24865378, 10.006298, 9.996468 
2.4358828e+3, 1.5528156e+2, -772838.56, -1476240.5, -141014.75, -0.09926167, 0.27332664, -745621.7, 672645.5, 0.13647239, 10.006933, 9.996307 
2.435792e+3, 1.6527744e+2, -558846.75, -1333421.0, -183913.19, -0.121205375, 0.26686713, -517396.9, 802910.0, 0.058836743, 10.007299, 9.996428 
2.4357021e+3, 1.7527387e+2, -404846.22, -1240390.8, -149533.61, 0.0025155258, 0.30464232, -378891.13, 843451.06, 0.018773943, 10.007542, 9.996265 
2.4356121e+3, 1.8526942e+2, -442760.56, -1273770.3, -120905.586, 0.055346046, 0.3024748, -425527.13, 698858.6, 0.004447942, 10.006785, 9.995721 
2.4355218e+3, 1.9526426e+2, -589982.56, -1300827.6, -122649.92, 0.048727598, 0.25244173, -569415.5, 457020.06, 0.0009012274, 10.005102, 9.995676 
2.4354334e+3, 2.0526007e+2, -478110.53, -1042157.56, 23522.693, 0.023571605, 0.23354067, -477131.28, 451343.0, 0.00007444978, 10.004534, 9.997049 
2.4353464e+3, 2.1525681e+2, -307879.78, -917694.94, 64855.773, -0.020624701, 0.23896201, -301058.47, 529443.56, 0.000000056592516, 10.005065, 9.996977 
2.4352603e+3, 2.2525282e+2, -329502.97, -888708.2, 99772.766, -0.01703345, 0.18997322, -312234.84, 420303.88, 0.0, 10.004296, 9.996871 
2.435175e+3, 2.3524821e+2, -525474.9, -929957.9, 100276.555, 0.028178778, 0.07844383, -501979.78, 132603.42, 0.0, 10.002265, 9.996894 
2.4350901e+3, 2.452459e+2, -529871.94, -613704.9, 153624.45, 0.025703035, 0.07608639, -412548.13, 124056.86, 0.0, 10.000414, 9.999281 
2.4350056e+3, 2.5524577e+2, -675065.4, -633581.4, 164210.72, -0.024633836, 0.17239392, -488807.8, -50202.62, 0.0, 9.998748, 9.999275 
2.4349214e+3, 2.652457e+2, -737718.0, -466790.34, 183495.98, -0.060880266, 0.20816332, -374172.56, -33566.33, 0.0, 9.997018, 10.000579 
2.4348378e+3, 2.7524546e+2, -909384.4, -501603.56, 180581.42, -0.07006064, 0.16364373, -433132.16, -190522.88, 0.0, 9.995176, 10.000556 
2.4347548e+3, 2.8524578e+2, -950329.75, -336344.16, 175579.06, -0.0077829617, 0.12202452, -289680.94, -145073.78, 0.0, 9.993647, 10.001755 
2.4346724e+3, 2.9524735e+2, -1028183.06, -326093.22, 157308.16, 0.0660101, 0.13758461, -292458.53, -245865.16, 0.0, 9.992455, 10.001727 
2.4345903e+3, 3.0525085e+2, -1107552.9, -184027.89, 89724.81, 0.22271459, 0.28310725, -175391.47, -175391.47, 0.0, 9.990889, 10.003133 
2.4345012e+3, 3.1525162e+2, -1290713.9, -81153.87, 49239.387, -0.27330253, 0.08004346, -79152.72, -79152.72, 0.0, 9.988822, 10.004828 
2.446167e+3, 1.2538071e+2, -1300078.0, -1669050.1, -111961.33, -0.16416189, 0.26854438, -1268762.3, 442531.56, 0.48236153, 10.006773, 9.997316 
2.4460745e+3, 1.353781e+2, -1112248.8, -1598627.0, -150417.98, 0.1219226, 0.3232874, -1069489.5, 543831.4, 0.3629988, 10.006896, 9.996966 
2.4459817e+3, 1.4537431e+2, -948705.5, -1579442.4, -22082.652, 0.12384662, 0.33302352, -947933.3, 567424.9, 0.23583691, 10.006932, 9.996239 
2.4458894e+3, 1.5536968e+2, -782357.4, -1510288.1, -3946.4666, -0.08850124, 0.2872469, -782336.0, 635066.2, 0.12519443, 10.006914, 9.996053 
2.4457984e+3, 1.6536532e+2, -696197.75, -1387834.3, -55305.6, -0.11136246, 0.26622826, -691803.25, 627641.0, 0.05085861, 10.006187, 9.996572 
2.445708e+3, 1.7536148e+2, -766360.9, -1399897.6, -73790.414, 0.02517121, 0.2638901, -757879.75, 463602.13, 0.014401284, 10.004918, 9.9964285 
2.4456176e+3, 1.8535721e+2, -661703.56, -1336184.5, -22979.613, 0.07942932, 0.25378168, -660921.56, 462601.56, 0.0026719403, 10.005086, 9.996108 
2.4455273e+3, 1.9535266e+2, -353995.7, -1144417.5, 18316.492, 0.06502112, 0.22762875, -353571.47, 671995.0, 0.00038058325, 10.00655, 9.996047 
2.4454382e+3, 2.0534854e+2, -285251.8, -948932.8, 113881.555, 0.03537267, 0.20415772, -266254.56, 661350.0, 0.000010300866, 10.005867, 9.997044 
2.4453503e+3, 2.1534492e+2, -558617.44, -1036890.06, 82547.664, -0.008190845, 0.17640534, -544770.94, 284865.94, 0.0, 10.00334, 9.996986 
2.4452631e+3, 2.2534136e+2, -622782.6, -970003.06, 108240.66, -0.010752295, 0.14222673, -591804.1, 139865.61, 0.0, 10.00203, 9.997399 
2.4451767e+3, 2.3533784e+2, -558204.44, -888671.8, 152048.05, 0.030612389, 0.08872813, -498892.38, 134810.86, 0.0, 10.001802, 9.9973955 
2.4450901e+3, 2.4533576e+2, -490549.88, -597559.7, 196902.05, 0.011353292, 0.088844694, -340012.66, 195710.03, 0.0, 10.000703, 9.999249 
2.4450034e+3, 2.5533512e+2, -668825.2, -634402.9, 187969.95, -0.06927652, 0.139912, -462857.78, -25129.85, 0.0, 9.998811, 9.999237 
2.444918e+3, 2.6533473e+2, -725643.94, -480979.78, 201735.19, -0.080166124, 0.15895087, -367383.4, -27651.744, 0.0, 9.997192, 10.000395 
2.4448335e+3, 2.7533433e+2, -829971.44, -483616.56, 188901.69, -0.005637502, 0.11864215, -400524.1, -158788.13, 0.0, 9.995817, 10.000367 
2.4447493e+3, 2.8533465e+2, -835972.44, -313880.5, 201866.64, 0.045369424, 0.09974004, -244933.81, -101198.914, 0.0, 9.994576, 10.001458 
2.4446645e+3, 2.953363e+2, -928455.9, -322826.13, 193803.13, 0.022436393, 0.16025867, -266118.4, -220396.48, 0.0, 9.993328, 10.001329 
2.4445799e+3, 3.0533963e+2, -1041182.4, -201461.2, 130538.195, 0.094077766, 0.33257845, -181636.52, -181636.52, 0.0, 9.991564, 10.002684 
2.4444912e+3, 3.15341e+2, -1173335.5, -38.14819, 126719.11, -0.16751619, 0.23210068, 13491.816, 13491.816, 0.0, 9.989535, 10.0050335 
2.4561733e+3, 1.2546904e+2, -1319922.5, -1713436.6, -115867.34, -0.15504263, 0.18438101, -1288340.8, 422086.6, 0.4733123, 10.006577, 9.997018 
2.456081e+3, 1.3546641e+2, -1109504.5, -1620839.1, -147944.1, 0.13296628, 0.26373002, -1069785.3, 542669.44, 0.35217392, 10.006929, 9.996774 
2.455989e+3, 1.4546296e+2, -895582.06, -1485459.3, -24515.28, 0.179736, 0.28063744, -894564.94, 619921.7, 0.22472677, 10.007002, 9.996909 
2.4558975e+3, 1.5545905e+2, -743786.56, -1424250.5, -11350.103, 0.05328711, 0.23699495, -743597.3, 672923.06, 0.1158107, 10.006861, 9.996672 
2.4558052e+3, 1.6545461e+2, -731966.0, -1472429.0, -105439.95, 0.0067677908, 0.20870738, -717244.3, 601318.75, 0.044617116, 10.006173, 9.996003 
2.4557127e+3, 1.7544998e+2, -783870.6, -1467614.4, -116457.21, 0.022333922, 0.18496011, -764579.6, 456031.53, 0.011315635, 10.005034, 9.995911 
2.4556218e+3, 1.8544589e+2, -584767.06, -1193290.5, 31844.795, 0.0071869534, 0.17003603, -583105.06, 539544.7, 0.0016274081, 10.005147, 9.997063 
2.4555324e+3, 1.9544244e+2, -316054.22, -1030727.0, 66997.016, -0.03407674, 0.15823717, -309827.8, 714851.2, 0.00015041241, 10.006392, 9.996908 
2.4554431e+3, 2.0543827e+2, -371223.25, -1093698.8, 18353.56, -0.018360814, 0.1366901, -370757.3, 555962.1, 0.0000005671083, 10.005716, 9.996125 
2.4553537e+3, 2.1543364e+2, -619944.6, -1161145.5, -4137.127, 0.040258065, 0.097868025, -619913.0, 208855.08, 0.0, 10.003323, 9.996144 
2.4552651e+3, 2.2543077e+2, -542059.44, -810956.94, 102385.52, 0.020412542, 0.11705916, -507513.34, 223282.34, 0.0, 10.002059, 9.998482 
2.4551773e+3, 2.3542947e+2, -488011.06, -740847.5, 141924.61, -0.06025308, 0.17740183, -424365.72, 208439.39, 0.0, 10.001786, 9.998423 
2.4550895e+3, 2.4542755e+2, -511009.94, -638858.5, 122724.06, -0.07438379, 0.15957624, -436559.7, 98262.055, 0.0, 10.0006895, 9.998976 
2.4550022e+3, 2.5542524e+2, -687747.06, -676418.75, 116497.67, -0.0484487, 0.07227048, -565447.6, -128604.305, 0.0, 9.998815, 9.99895 
2.4549153e+3, 2.6542428e+2, -746230.75, -527858.7, 147633.58, -0.018914009, 0.06423155, -453422.13, -114569.58, 0.0, 9.997203, 10.000072 
2.4548297e+3, 2.7542448e+2, -848180.0, -528561.9, 139086.77, 0.046416536, 0.11379259, -476512.34, -235661.45, 0.0, 9.995841, 10.000051 
2.4547432e+3, 2.85425e+2, -836030.9, -322456.25, 154612.81, 0.017145064, 0.1386099, -279502.25, -136654.45, 0.0, 9.994604, 10.00139 
2.4546555e+3, 2.95426e+2, -924492.6, -326673.44, 144593.11, -0.18816149, 0.14096771, -293537.7, -248695.47, 0.0, 9.993372, 10.0012865 
2.4545696e+3, 3.054282e+2, -1037938.25, -207865.88, 53607.316, -0.05307311, 0.20337225, -204418.16, -204418.16, 0.0, 9.99161, 10.002622 
2.4544832e+3, 3.1543085e+2, -1112011.6, 123265.36, 91338.38, 0.107983634, 0.23681557, 129982.54, 129982.54, 0.0, 9.989557, 10.005867 
2.4661802e+3, 1.2555976e+2, -1377488.3, -1821203.1, -59501.29, -0.054066386, 0.2364946, -1369647.8, 339888.16, 0.46271503, 10.006024, 9.9964 
2.4660872e+3, 1.3555531e+2, -1039203.2, -1621648.1, -89587.45, 0.0444619, 0.19447938, -1025734.9, 585846.1, 0.3408642, 10.007812, 9.996249 
2.4659948e+3, 1.4555149e+2, -780546.4, -1412752.5, -29947.4, 0.07508013, 0.18526548, -779130.94, 734485.44, 0.21407524, 10.00782, 9.997144 
2.4659038e+3, 1.5554827e+2, -783699.56, -1423688.0, -41784.566, 0.076963104, 0.19129224, -780983.0, 634659.3, 0.1074582, 10.006393, 9.9969015 
2.4658115e+3, 1.6554414e+2, -737384.6, -1466106.3, -104128.85, 0.06795569, 0.17724594, -722797.44, 594885.06, 0.039489415, 10.006078, 9.996088 
2.4657182e+3, 1.7553943e+2, -541564.8, -1337172.0, -78739.09, 0.043260626, 0.13747443, -533847.1, 685885.4, 0.009058325, 10.006662, 9.9960165 
2.4656267e+3, 1.8553564e+2, -488469.84, -1100567.1, 53268.26, 0.004744653, 0.12659563, -483868.72, 637899.94, 0.0010076978, 10.005616, 9.99747 
2.4655369e+3, 1.9553278e+2, -740056.7, -1191289.8, 50469.617, -0.0407454, 0.13550939, -734480.6, 289311.28, 0.00005507271, 10.00329, 9.997298 
2.465447e+3, 2.055293e+2, -783320.56, -1247035.3, 32541.16, -0.010504841, 0.14174744, -781048.1, 144778.08, 0.0000000031066179, 10.002695, 9.996525 
2.4653572e+3, 2.1552533e+2, -564125.4, -1091184.3, 92861.3, 0.08066762, 0.13506109, -548242.94, 279625.8, 0.0, 10.00353, 9.996522 
2.4652673e+3, 2.255226e+2, -466288.5, -764822.25, 179585.84, 0.04909466, 0.14969403, -382035.2, 347860.28, 0.0, 10.002549, 9.998559 
2.4651778e+3, 2.3552105e+2, -729050.4, -848461.4, 149724.42, -0.07589308, 0.17899303, -627566.1, 4341.306, 0.0, 10.0001, 9.998493 
2.4650888e+3, 2.45519e+2, -733315.56, -760341.25, 129378.32, -0.10293158, 0.15312424, -616746.3, -82820.74, 0.0, 9.999231, 9.998841 
2.4650007e+3, 2.555166e+2, -576573.4, -636992.2, 128707.68, -0.06226083, 0.06794048, -474577.34, -38628.426, 0.0, 9.999646, 9.9988165 
2.4649128e+3, 2.6551548e+2, -512241.3, -419580.06, 146310.23, -0.034620017, 0.056565866, -312440.13, 25519.234, 0.0, 9.998832, 10.000028 
2.4648255e+3, 2.7551565e+2, -683743.06, -454912.44, 157759.08, 0.026212059, 0.11291962, -374446.28, -134489.13, 0.0, 9.996994, 10.0 
2.4647376e+3, 2.8551623e+2, -761382.9, -288847.75, 183952.52, 0.010501163, 0.14483002, -225681.02, -83727.69, 0.0, 9.995133, 10.001363 
2.4646482e+3, 2.9551688e+2, -947276.2, -334744.56, 170878.34, -0.19698238, 0.116128914, -290299.44, -246348.92, 0.0, 9.993216, 10.001301 
2.4645606e+3, 3.055188e+2, -1010008.7, -211394.66, 87171.055, -0.09443657, 0.15671621, -201990.44, -201990.44, 0.0, 9.991884, 10.00246 
2.4644737e+3, 3.1552017e+2, -902661.8, 203999.17, 112023.34, 0.17319107, 0.08480752, 215225.02, 215225.02, 0.0, 9.991083, 10.005684 
2.4761872e+3, 1.2565213e+2, -1384288.9, -1923822.0, -30360.117, 0.0871853, 0.37245616, -1382585.9, 326041.47, 0.44908774, 10.0062275, 9.995567 
2.4760927e+3, 1.356447e+2, -1074264.1, -1735748.3, -54056.41, -0.12547475, 0.11309632, -1069875.8, 540825.8, 0.32795134, 10.007709, 9.99548 
2.476e+3, 1.4564003e+2, -796359.56, -1431245.1, -73255.64, -0.14625113, 0.06126054, -788016.7, 724728.94, 0.20309813, 10.007626, 9.997069 
2.4759091e+3, 1.5563762e+2, -795963.8, -1438815.0, -85157.82, 0.012873353, 0.15344165, -784874.3, 629890.9, 0.099594876, 10.006271, 9.996866 
2.4758174e+3, 1.6563405e+2, -713946.5, -1395109.3, -81097.91, 0.083407424, 0.16803612, -704424.3, 612376.2, 0.03508414, 10.005959, 9.996634 
2.4757248e+3, 1.7562976e+2, -530638.44, -1273638.0, -60833.863, 0.0761649, 0.11562181, -525690.56, 693155.6, 0.0073477426, 10.006471, 9.996548 
2.4756323e+3, 1.856263e+2, -507796.63, -1117482.1, -32505.168, 0.054215, 0.11498974, -506068.53, 614812.06, 0.0006361692, 10.005507, 9.997409 
2.4755403e+3, 1.9562365e+2, -731988.06, -1187542.4, -27702.523, 0.021306459, 0.15108362, -730309.6, 292594.88, 0.000018523435, 10.003341, 9.997302 
2.4754497e+3, 2.0562145e+2, -670419.25, -1027933.25, 63483.92, 0.042436156, 0.20918657, -659481.06, 265444.13, 0.0, 10.002755, 9.998003 
2.4753606e+3, 2.1561968e+2, -478970.6, -900256.44, 116148.266, 0.103693046, 0.2751751, -449070.7, 377871.66, 0.0, 10.003462, 9.997868 
2.4752697e+3, 2.2561657e+2, -532031.25, -891913.25, 84925.77, 0.071817234, 0.23210314, -512997.0, 215975.27, 0.0, 10.002501, 9.997713 
2.4751778e+3, 2.3561254e+2, -781950.4, -964651.0, 64080.01, -0.02906309, 0.09954437, -761716.1, -130705.55, 0.0, 10.000121, 9.997689 
2.475088e+3, 2.4561015e+2, -730591.94, -763801.4, 143776.55, -0.084270515, 0.07745449, -602464.44, -69430.52, 0.0, 9.999264, 9.998805 
2.4749996e+3, 2.5560907e+2, -573033.7, -637867.1, 139451.92, -0.120598376, 0.12952168, -462280.28, -27235.002, 0.0, 9.999675, 9.9988 
2.4749105e+3, 2.6560828e+2, -492306.13, -384479.75, 74900.0, -0.13293923, 0.13663445, -346107.28, -9054.362, 0.0, 9.998851, 10.000264 
2.474821e+3, 2.7560794e+2, -663822.1, -422272.7, 89029.25, -0.078376435, 0.11843236, -393004.94, -153949.83, 0.0, 9.997024, 10.000215 
2.4747324e+3, 2.856082e+2, -763583.3, -299363.56, 108934.695, 0.023421548, 0.11548499, -275071.88, -134019.38, 0.0, 9.9951515, 10.001286 
2.4746433e+3, 2.9560876e+2, -942378.25, -328608.3, 97510.37, 0.012153524, 0.08200696, -313489.16, -270440.88, 0.0, 9.993226, 10.001341 
2.474553e+3, 3.0561173e+2, -1019768.9, -234220.11, 54738.266, -0.00036118447, 0.23102441, -230424.2, -230424.2, 0.0, 9.991889, 10.002305 
2.4744624e+3, 3.1561297e+2, -948783.0, 65247.484, 83649.98, -0.040932443, 0.17657222, 72101.66, 72101.66, 0.0, 9.991232, 10.004678 
2.4861951e+3, 1.2574154e+2, -1187294.8, -1737999.6, -42890.68, 0.18267362, 0.2902447, -1183974.4, 523775.88, 0.43189058, 10.00836, 9.995825 
2.4860999e+3, 1.3573518e+2, -1104478.9, -1738102.1, -37878.637, -0.10955796, 0.115202665, -1102222.5, 507590.6, 0.3129822, 10.007169, 9.99572 
2.4860063e+3, 1.4573073e+2, -964712.06, -1511391.0, -62402.15, -0.15108222, 0.071061246, -957679.44, 554175.9, 0.19142918, 10.006082, 9.997127 
2.4859145e+3, 1.5572791e+2, -938752.56, -1504903.6, -66907.055, 0.035322215, 0.11659595, -930953.0, 482927.4, 0.09192269, 10.005109, 9.9969635 
2.4858223e+3, 1.6572492e+2, -890043.2, -1421829.8, -17914.424, 0.10305892, 0.15741518, -889440.4, 426470.22, 0.031161664, 10.004431, 9.997182 
2.4857295e+3, 1.7572197e+2, -854456.6, -1373959.4, -249.00253, 0.072902165, 0.18734933, -854456.5, 363486.6, 0.006007992, 10.0039835, 9.997055 
2.4856368e+3, 1.8571874e+2, -724340.7, -1226390.3, 2005.5347, 0.048037294, 0.19160324, -724332.7, 395643.13, 0.0004103393, 10.004044, 9.997364 
2.485544e+3, 1.9571552e+2, -567011.3, -1106140.6, 5033.562, 0.029564686, 0.1738619, -566964.3, 455042.63, 0.0000056593813, 10.0044775, 9.997308 
2.4854526e+3, 2.0571321e+2, -525665.3, -896762.5, 66247.81, 0.048174597, 0.19430827, -514193.47, 409834.53, 0.0, 10.003492, 9.998544 
2.4853626e+3, 2.1571176e+2, -736196.5, -965859.25, 54942.543, 0.09623396, 0.23632546, -723729.3, 102310.734, 0.0, 10.001449, 9.9983835 
2.4852712e+3, 2.2570907e+2, -725995.9, -967829.7, 36825.33, 0.08058792, 0.20216179, -720512.6, 7552.9917, 0.0, 10.001098, 9.997865 
2.485179e+3, 2.357055e+2, -495851.84, -810826.7, 81286.35, 0.022821179, 0.10039812, -476111.28, 153989.45, 0.0, 10.002025, 9.997824 
2.4850881e+3, 2.4570338e+2, -474241.16, -627012.3, 185630.5, -0.04430094, 0.09666614, -349894.47, 182227.48, 0.0, 10.000974, 9.998918 
2.4849981e+3, 2.5570253e+2, -751343.3, -710983.06, 190573.48, -0.12882385, 0.16262169, -539524.25, -105393.0, 0.0, 9.998402, 9.998909 
2.4849075e+3, 2.657019e+2, -762006.8, -510747.4, 117537.07, -0.15950844, 0.1823692, -464337.03, -128199.414, 0.0, 9.99699, 10.00029 
2.4848169e+3, 2.757016e+2, -755423.6, -461988.6, 112361.05, -0.107464105, 0.1663698, -423906.13, -185766.03, 0.0, 9.996384, 10.000245 
2.4847275e+3, 2.8570163e+2, -683965.9, -253040.94, 128657.9, 0.014721687, 0.13418953, -217551.36, -77412.82, 0.0, 9.995668, 10.001351 
2.4846375e+3, 2.957018e+2, -696817.1, -203035.58, 125394.49, 0.07330397, 0.061725467, -173016.92, -130882.19, 0.0, 9.99488, 10.001406 
2.484545e+3, 3.0570474e+2, -787728.9, -151800.98, 76027.695, -0.025552845, 0.21975498, -142837.9, -142837.9, 0.0, 9.993621, 10.002029 
2.4844524e+3, 3.1570566e+2, -932019.44, -11486.471, 96460.96, -0.1306914, 0.16488333, -1487.1223, -1487.1223, 0.0, 9.991724, 10.003908 
2.4962036e+3, 1.2582946e+2, -1149520.6, -1653531.6, -61457.84, 0.23550239, 0.08417974, -1142134.8, 564754.8, 0.41131577, 10.00813, 9.996751 
2.4961081e+3, 1.3582675e+2, -1048908.0, -1614914.6, -60320.848, 0.022532796, 0.1812786, -1042550.9, 566364.25, 0.29602185, 10.007171, 9.996579 
2.4960135e+3, 1.4582309e+2, -940334.8, -1493950.6, -89707.34, -0.018058069, 0.1724394, -926161.6, 584788.1, 0.1790224, 10.0061655, 9.997223 
2.4959199e+3, 1.5581897e+2, -912946.94, -1477554.5, -96068.305, 0.10880092, 0.07723331, -897048.56, 515940.38, 0.08432271, 10.005197, 9.997115 
2.4958265e+3, 1.6581662e+2, -843355.6, -1343151.4, -33758.535, 0.1205092, 0.14676113, -841085.75, 473927.75, 0.02758318, 10.004499, 9.997692 
2.4957326e+3, 1.7581572e+2, -820005.3, -1308674.6, -14674.25, 0.035553254, 0.33131546, -819565.06, 397461.0, 0.004925501, 10.004003, 9.997498 
2.4956396e+3, 1.858127e+2, -732719.9, -1236412.4, 17958.531, -0.0056373863, 0.3367557, -732080.4, 386976.78, 0.00026939154, 10.004005, 9.997316 
2.4955475e+3, 1.9580826e+2, -586316.9, -1120531.1, 17311.703, -0.0128783425, 0.20412245, -585756.44, 435343.75, 0.000001447789, 10.00436, 9.997269 
2.4954553e+3, 2.0580466e+2, -553613.1, -939736.0, -8461.748, 0.01099385, 0.10904161, -553427.75, 369706.03, 0.0, 10.003421, 9.998287 
2.495363e+3, 2.1580182e+2, -745845.0, -991268.06, -9428.281, 0.054649003, 0.038149778, -745483.3, 79675.56, 0.0, 10.001465, 9.998205 
2.4952717e+3, 2.2580028e+2, -651979.5, -820447.44, 74106.13, 0.07247852, 0.074839644, -624021.3, 103151.76, 0.0, 10.001119, 9.99887 
2.4951811e+3, 2.3579977e+2, -434158.1, -676947.4, 107368.3, 0.07201961, 0.18037242, -393489.16, 235689.39, 0.0, 10.001993, 9.998762 
2.4950893e+3, 2.4579851e+2, -460469.84, -593618.44, 85781.47, 0.011930246, 0.20460099, -418459.63, 112731.61, 0.0, 10.000945, 9.999165 
2.4949963e+3, 2.5579688e+2, -735261.4, -679936.0, 98598.43, -0.09817692, 0.16708755, -605193.25, -171985.75, 0.0, 9.998404, 9.9991255 
2.4949045e+3, 2.6579633e+2, -777270.9, -544105.2, 93412.58, -0.119028494, 0.19642146, -511297.7, -176083.77, 0.0, 9.99699, 10.000064 
2.4948135e+3, 2.7579662e+2, -765076.44, -486758.88, 88290.234, -0.059449323, 0.26431918, -461113.72, -223901.56, 0.0, 9.996397, 10.0000725 
2.4947225e+3, 2.857964e+2, -663324.75, -218112.98, 98970.56, -0.026595855, 0.20277825, -197103.28, -57891.49, 0.0, 9.995694, 10.001583 
2.4946307e+3, 2.9579604e+2, -680414.8, -188533.61, 98994.25, -0.063674256, 0.050639424, -169357.92, -128147.69, 0.0, 9.994958, 10.0014715 
2.494537e+3, 3.0579758e+2, -823934.75, -249563.4, 4101.501, -0.17745376, 0.11157718, -249534.13, -249534.13, 0.0, 9.993711, 10.001318 
2.4944448e+3, 3.1579846e+2, -986838.25, -134070.0, -11876.343, -0.02218535, 0.117092654, -133904.64, -133904.64, 0.0, 9.9917555, 10.003053 
2.50621e+3, 1.2592259e+2, -1224474.4, -1687801.3, 30376.611, 0.17386028, 0.12775448, -1222491.4, 483485.25, 0.3879998, 10.006952, 9.99691 
2.506115e+3, 1.3591963e+2, -1002934.7, -1581716.0, 15319.984, 0.05016101, 0.18816288, -1002529.44, 605474.56, 0.2774635, 10.007384, 9.99675 
2.5060204e+3, 1.4591606e+2, -834579.0, -1462184.3, -42036.934, 0.04121804, 0.18929215, -831775.9, 678262.8, 0.16604055, 10.007048, 9.997052 
2.505926e+3, 1.5591212e+2, -786308.3, -1427116.1, -56916.617, 0.15095848, 0.13301875, -781292.25, 630785.3, 0.076795295, 10.006174, 9.996982 
2.505831e+3, 1.6590948e+2, -731406.06, -1271121.6, -7673.778, 0.13315329, 0.17345965, -731297.0, 582807.94, 0.0242781, 10.005204, 9.997849 
2.505736e+3, 1.7590798e+2, -783266.7, -1269273.5, -9038.557, 0.015626239, 0.28311878, -783098.6, 433023.56, 0.0040289923, 10.004167, 9.997684 
2.5056428e+3, 1.8590538e+2, -815198.8, -1222573.3, 51027.492, -0.011456713, 0.29790908, -808904.4, 309244.5, 0.00017789895, 10.003215, 9.9977865 
2.5055507e+3, 1.9590208e+2, -851498.8, -1200438.3, 78327.73, 0.029131671, 0.23283662, -834722.8, 185458.61, 0.00000026301467, 10.002337, 9.997691 
2.5054577e+3, 2.0589887e+2, -756585.2, -1047116.2, 54065.848, 0.03977067, 0.1637431, -746850.06, 175362.36, 0.0, 10.002073, 9.998197 
2.505364e+3, 2.1589588e+2, -636464.4, -943481.44, 61747.45, 0.032214664, 0.08905498, -624511.06, 199729.55, 0.0, 10.002246, 9.998154 
2.5052723e+3, 2.2589447e+2, -618522.4, -765914.5, 134414.23, 0.04063644, 0.12605354, -538926.94, 187327.19, 0.0, 10.00119, 9.999207 
2.505181e+3, 2.3589437e+2, -807372.4, -816181.3, 120407.88, 0.064199604, 0.23852673, -691288.44, -63032.906, 0.0, 9.999262, 9.999118 
2.5050887e+3, 2.4589334e+2, -765081.9, -688586.44, 70651.73, 0.026134616, 0.24586792, -646493.94, -116228.97, 0.0, 9.998636, 9.999621 
2.5049952e+3, 2.5589177e+2, -632219.7, -581725.9, 95464.266, -0.058657072, 0.1735212, -508226.5, -75947.67, 0.0, 9.998909, 9.999552 
2.5049022e+3, 2.6589146e+2, -592239.4, -441217.0, 118041.49, -0.07391119, 0.19814976, -376600.63, -42318.16, 0.0, 9.998209, 10.00018 
2.50481e+3, 2.75892e+2, -694928.06, -440272.94, 135805.42, -0.024548305, 0.2815212, -381440.84, -145162.81, 0.0, 9.996831, 10.000179 
2.5047174e+3, 2.858916e+2, -706868.25, -248196.28, 138481.23, -0.034837138, 0.20276065, -209629.2, -71349.67, 0.0, 9.9954405, 10.001495 
2.504624e+3, 2.958908e+2, -833749.06, -278637.8, 113818.5, -0.12052209, 0.017759332, -256207.14, -215924.69, 0.0, 9.993981, 10.001319 
2.5045303e+3, 3.0589285e+2, -845455.8, -261910.14, 55789.707, -0.1456664, 0.14259925, -256624.25, -256624.25, 0.0, 9.993576, 10.001295 
2.5044388e+3, 3.1589374e+2, -721891.56, -38790.125, 39161.258, 0.12420579, 0.1485075, -36552.395, -36552.395, 0.0, 9.993712, 10.002764 
2.516215e+3, 1.2601906e+2, -1216221.8, -1720805.9, 33950.664, 0.020247454, 0.3190877, -1213947.6, 491082.44, 0.3627738, 10.006974, 9.996603 
2.5161216e+3, 1.3601354e+2, -1023665.25, -1632763.9, 19850.348, 0.0037241739, 0.14975153, -1023019.06, 584063.75, 0.25785735, 10.007192, 9.996428 
2.5160268e+3, 1.4600962e+2, -872830.1, -1524824.8, -73752.67, 0.045421682, 0.15417251, -864591.44, 644530.2, 0.15275313, 10.006825, 9.996678 
2.5159317e+3, 1.5600695e+2, -820693.06, -1488373.1, -85877.875, 0.16403928, 0.259126, -809824.25, 601326.0, 0.06940765, 10.006052, 9.996625 
2.515836e+3, 1.6600332e+2, -746292.25, -1293401.3, -42066.227, 0.13740982, 0.2226961, -743076.75, 570110.2, 0.021219691, 10.005145, 9.997723 
2.5157398e+3, 1.7599925e+2, -786636.4, -1272950.5, -42130.203, 0.003308993, 0.0867096, -783013.56, 432213.63, 0.003276765, 10.004144, 9.997672 
2.515646e+3, 1.8599728e+2, -752165.06, -1099469.1, 19983.395, 0.017727945, 0.119150534, -751019.0, 366228.13, 0.000116288415, 10.003242, 9.998623 
2.5155538e+3, 1.9599687e+2, -793316.75, -1091005.4, 49080.902, 0.13194314, 0.26100373, -785433.4, 233818.58, 0.00000002568285, 10.00238, 9.9984255 
2.5154603e+3, 2.0599546e+2, -752945.2, -1043939.56, 59441.242, 0.118355684, 0.33801973, -741271.44, 179996.2, 0.0, 10.002087, 9.998214 
2.515366e+3, 2.1599346e+2, -645530.4, -950081.44, 62601.22, 0.017896079, 0.36196142, -633164.6, 190124.88, 0.0, 10.002187, 9.99814 
2.5152725e+3, 2.2599128e+2, -642398.9, -808376.7, 61977.2, -0.017564036, 0.33518642, -621810.1, 103501.72, 0.0, 10.001153, 9.998936 
2.5151795e+3, 2.3598912e+2, -818244.44, -842443.75, 56282.145, -0.0070128622, 0.27036762, -772776.0, -145443.42, 0.0, 9.99927, 9.998937 
2.5150865e+3, 2.4598782e+2, -717475.3, -595674.9, 80180.73, -0.0034638618, 0.2238231, -555888.5, -26545.336, 0.0, 9.998655, 10.000253 
2.5149938e+3, 2.5598726e+2, -585942.44, -492602.75, 99428.42, -0.015283252, 0.18377386, -429435.97, 1909.6196, 0.0, 9.998932, 10.000156 
2.5149003e+3, 2.6598716e+2, -557774.8, -375544.13, 63974.047, -0.028929314, 0.18418156, -355328.06, -21983.898, 0.0, 9.998226, 10.000627 
2.5148064e+3, 2.7598757e+2, -665613.94, -385761.66, 84642.42, -0.020612827, 0.2076854, -362152.9, -126814.18, 0.0, 9.996851, 10.000547 
2.5147125e+3, 2.859871e+2, -740875.56, -318787.72, 80805.14, -0.0057109236, 0.13262087, -303847.13, -166504.83, 0.0, 9.995434, 10.001019 
2.514618e+3, 2.9598624e+2, -860025.75, -327178.7, 63304.95, -0.060981367, -0.011600272, -319761.0, -280410.8, 0.0, 9.993949, 10.001004 
2.5145254e+3, 3.059907e+2, -771586.94, -114741.81, 74337.69, 0.05372406, 0.30687413, -106433.81, -106433.81, 0.0, 9.993594, 10.002301 
2.51443e+3, 3.159899e+2, -689291.94, 7033.5366, -43844.86, -0.08206896, 0.05217341, 9783.414, 9783.414, 0.0, 9.993814, 10.003025 
2.5262228e+3, 1.2611268e+2, -1147232.0, -1699170.6, 7627.7383, 0.13094442, 0.26083165, -1147126.6, 556984.1, 0.33644116, 10.007528, 9.996493 
2.5261277e+3, 1.3610724e+2, -1178709.5, -1747757.0, -5508.1606, 0.010501295, 0.11428422, -1178656.3, 427508.03, 0.23774, 10.005676, 9.996369 
2.5260314e+3, 1.4610356e+2, -1079876.3, -1602069.8, -60757.344, -0.0012466756, 0.12114085, -1072900.3, 435300.88, 0.13943313, 10.004913, 9.997059 
2.5259358e+3, 1.5610118e+2, -953711.2, -1520340.8, -33593.64, 0.09427345, 0.22137715, -951726.5, 458499.5, 0.06224224, 10.004887, 9.996959 
2.5258398e+3, 1.6609791e+2, -836336.25, -1341893.0, 20138.799, 0.095315814, 0.21112677, -835535.3, 476724.38, 0.018399501, 10.004526, 9.997683 
2.5257435e+3, 1.760942e+2, -814267.5, -1285645.4, 25200.693, 0.02527057, 0.117167205, -812924.06, 401373.75, 0.0026428225, 10.003955, 9.997672 
2.525649e+3, 1.8609226e+2, -698595.2, -1052423.3, 70895.4, 0.03947344, 0.14321232, -684918.75, 431398.8, 0.00007419157, 10.003525, 9.998806 
2.5255558e+3, 1.960917e+2, -663117.7, -1005581.1, 56041.703, 0.11445084, 0.25219724, -654180.06, 364142.84, 0.00000000011876218, 10.003183, 9.998621 
2.525462e+3, 2.0609051e+2, -719833.3, -995275.5, 57486.438, 0.106867924, 0.32941142, -708317.06, 212019.17, 0.0, 10.002181, 9.998499 
2.525367e+3, 2.1608904e+2, -836283.4, -1009094.94, 75462.38, 0.04220456, 0.37653318, -807969.8, 14383.839, 0.0, 10.000743, 9.9984255 
2.5252727e+3, 2.2608717e+2, -774998.0, -847866.6, 94760.086, 0.0019305928, 0.35916692, -709909.25, 14463.721, 0.0, 10.000142, 9.999149 
2.5251785e+3, 2.3608518e+2, -685598.8, -755713.6, 121578.55, -0.013346468, 0.29179648, -594124.1, 32268.092, 0.0, 10.000089, 9.999136 
2.5250852e+3, 2.4608397e+2, -652940.7, -558283.0, 143678.94, 0.0033709866, 0.24507594, -454338.4, 74064.125, 0.0, 9.99908, 10.000301 
2.5249922e+3, 2.5608343e+2, -799438.75, -585084.2, 116830.02, 0.031500142, 0.20798539, -533717.4, -103312.18, 0.0, 9.997429, 10.000241 
2.5248978e+3, 2.6608348e+2, -781913.0, -442528.03, 52730.84, 0.002335553, 0.19389763, -434523.94, -102121.58, 0.0, 9.996519, 10.000985 
2.5248024e+3, 2.7608395e+2, -764330.44, -399151.88, 65046.598, -0.03136614, 0.19133323, -387911.6, -153517.17, 0.0, 9.996032, 10.000847 
2.524708e+3, 2.8608382e+2, -686268.4, -302155.13, 82758.89, 0.0033525173, 0.14301522, -285083.13, -148688.02, 0.0, 9.995858, 10.000923 
2.524613e+3, 2.960834e+2, -588913.0, -203498.36, 91573.414, -0.0071565583, 0.0541499, -182847.3, -144446.72, 0.0, 9.995846, 10.0009365 
2.5245202e+3, 3.060874e+2, -600732.0, -16943.75, 74402.92, 0.14837132, 0.32343036, -7610.428, -7610.428, 0.0, 9.994708, 10.002432 
2.5244227e+3, 3.1608698e+2, -769786.7, 15706.271, -155920.25, -0.07306402, 0.092153326, 45524.49, 45524.49, 0.0, 9.993068, 10.00344 
2.5362328e+3, 1.2620482e+2, -1152159.4, -1716043.3, -36104.29, 0.3875299, 0.055278625, -1149857.0, 553348.5, 0.30970073, 10.007253, 9.996501 
2.536133e+3, 1.3620113e+2, -1153507.8, -1728926.6, -45338.46, 0.04261794, 0.08300918, -1149957.4, 455287.2, 0.21756579, 10.005749, 9.9964695 
2.5360352e+3, 1.461979e+2, -1004965.56, -1474407.3, -54232.625, -0.08764926, 0.08539098, -998781.75, 508494.7, 0.12631604, 10.005037, 9.997905 
2.535939e+3, 1.5619518e+2, -902428.0, -1412408.6, -32926.445, -0.038910724, 0.06590656, -900310.94, 508991.2, 0.055377606, 10.0048685, 9.997711 
2.535843e+3, 1.661933e+2, -840899.75, -1346478.0, 44.20408, 0.017656032, 0.16226722, -840899.75, 470423.8, 0.01581723, 10.004486, 9.997673 
2.5357476e+3, 1.7619213e+2, -820314.75, -1295168.4, 6986.3037, 0.0670854, 0.3232514, -820212.0, 393128.88, 0.0021100773, 10.003933, 9.997621 
2.5356522e+3, 1.861897e+2, -726935.0, -1105938.6, 59456.563, 0.048589405, 0.32037964, -717826.56, 397539.16, 0.00004594657, 10.003496, 9.998454 
2.5355574e+3, 1.961866e+2, -689369.75, -1047373.06, 41756.88, -0.008677225, 0.21088976, -684563.8, 332829.84, 0.0, 10.003123, 9.998366 
2.5354627e+3, 2.0618437e+2, -690029.0, -927278.6, 4407.015, 0.019468032, 0.16728601, -689947.2, 229467.95, 0.0, 10.002149, 9.998984 
2.535368e+3, 2.1618284e+2, -800051.0, -936775.94, 29066.984, 0.09468235, 0.16204005, -794128.06, 27302.785, 0.0, 10.00075, 9.998922 
2.5352734e+3, 2.261823e+2, -730410.2, -757510.94, 92976.36, 0.08747147, 0.21987295, -650001.94, 73434.71, 0.0, 10.000146, 9.99977 
2.5351787e+3, 2.361825e+2, -654755.9, -687674.8, 112774.72, 0.03416825, 0.30892244, -557245.8, 68189.26, 0.0, 10.000065, 9.999619 
2.5350842e+3, 2.4618167e+2, -693030.7, -639577.75, 79095.34, 0.039968044, 0.30904424, -582815.44, -55371.207, 0.0, 9.999065, 9.999753 
2.5349894e+3, 2.5618035e+2, -829175.06, -650289.7, 58720.406, 0.068923496, 0.24732623, -632736.7, -203278.23, 0.0, 9.997438, 9.999793 
2.5348938e+3, 2.6618028e+2, -765260.0, -408853.5, 32761.988, 0.016457122, 0.23041113, -405866.94, -74409.26, 0.0, 9.996514, 10.001223 
2.5347975e+3, 2.7618113e+2, -746959.9, -366043.94, 48220.2, -0.0571908, 0.24037775, -360034.56, -126588.875, 0.0, 9.9960375, 10.001076 
2.534703e+3, 2.8618172e+2, -661439.0, -259346.55, 82244.125, -0.021279007, 0.23961586, -243174.72, -107736.12, 0.0, 9.995889, 10.001206 
2.5346085e+3, 2.9618222e+2, -564187.0, -176715.67, 85081.95, -0.007781802, 0.2136369, -158856.33, -121421.805, 0.0, 9.995946, 10.001076 
2.5345147e+3, 3.0618277e+2, -662155.3, -155579.98, -6361.2705, 0.17807318, 0.18880935, -155500.13, -155500.13, 0.0, 9.994747, 10.001465 
2.5344163e+3, 3.161837e+2, -694327.75, 148083.27, -79151.88, 0.0038322378, 0.17726937, 155455.75, 155455.75, 0.0, 9.993136, 10.0043335 
2.5462374e+3, 1.2630093e+2, -1262349.6, -1755597.8, 38925.074, 0.27963227, 0.067833275, -1259296.6, 442969.56, 0.28313744, 10.00578, 9.99694 
2.5461397e+3, 1.3629834e+2, -1023666.0, -1609325.6, 52825.742, 0.1290594, 0.16440809, -1018939.3, 585354.7, 0.19770983, 10.0065565, 9.996899 
2.546041e+3, 1.4629522e+2, -867014.1, -1400773.0, 22979.662, -0.008171516, 0.15609117, -866026.6, 640297.7, 0.113594644, 10.006008, 9.997999 
2.5459427e+3, 1.5629195e+2, -919251.9, -1410305.1, 11260.79, -0.085789785, 0.075563036, -918993.75, 489360.75, 0.048878107, 10.004676, 9.997814 
2.545846e+3, 1.6629004e+2, -909108.9, -1377282.3, 44250.695, -0.047236405, 0.16313347, -904963.1, 405413.06, 0.013473795, 10.003997, 9.997695 
2.5457507e+3, 1.7628916e+2, -852206.6, -1310463.8, 50804.387, 0.05190553, 0.35218754, -846641.8, 365749.06, 0.001666469, 10.003717, 9.997617 
2.545655e+3, 1.8628652e+2, -801259.6, -1161388.6, 102548.89, 0.03708663, 0.3437065, -774105.6, 340311.8, 0.00002773303, 10.003076, 9.998274 
2.5455594e+3, 1.9628294e+2, -831042.44, -1128993.4, 90589.34, -0.043080218, 0.20411976, -805661.6, 210788.7, 0.0, 10.0022135, 9.99824 
2.5454637e+3, 2.0628066e+2, -757943.0, -937866.4, 37477.32, -0.007366708, 0.15413609, -750448.8, 168023.19, 0.0, 10.001593, 9.999177 
2.5453687e+3, 2.1627942e+2, -731986.3, -878960.6, 41172.887, 0.10024799, 0.15705222, -721238.3, 99246.65, 0.0, 10.001116, 9.999141 
2.5452733e+3, 2.2627898e+2, -735699.6, -724604.6, 87181.48, 0.11278445, 0.19826014, -642794.3, 79694.664, 0.0, 9.999966, 10.000078 
2.5451776e+3, 2.362792e+2, -877296.8, -760159.6, 84699.05, 0.07094504, 0.26006204, -715751.5, -91265.57, 0.0, 9.998398, 9.999918 
2.5450823e+3, 2.4627881e+2, -851236.75, -691701.75, 80994.99, 0.057839684, 0.27951998, -657789.7, -131298.9, 0.0, 9.997882, 9.999963 
2.544987e+3, 2.5627813e+2, -739977.6, -589787.56, 113555.125, 0.056795336, 0.2642254, -528742.8, -100243.33, 0.0, 9.997981, 9.999944 
2.5448906e+3, 2.662781e+2, -607676.06, -354429.9, 97393.766, 0.03333075, 0.2548598, -321306.47, 9193.121, 0.0, 9.997697, 10.001022 
2.5447944e+3, 2.7627853e+2, -600468.6, -314865.1, 76382.47, 0.020297471, 0.24678932, -295720.47, -63228.066, 0.0, 9.997134, 10.000895 
2.544699e+3, 2.8627914e+2, -645881.1, -255137.31, 78666.61, 0.019802561, 0.25691342, -239894.36, -105408.74, 0.0, 9.996017, 10.001169 
2.5446033e+3, 2.9627994e+2, -767133.06, -282635.6, 56487.227, -0.03936618, 0.26693705, -276136.97, -239658.7, 0.0, 9.994595, 10.000997 
2.544509e+3, 3.0627942e+2, -705758.4, -198417.52, -16397.371, 0.16418512, 0.15009429, -197888.11, -197888.11, 0.0, 9.994555, 10.001256 
2.5444078e+3, 3.1628093e+2, -481059.1, 209237.81, 73710.59, -0.17788748, 0.21974783, 217020.94, 217020.94, 0.0, 9.994798, 10.003943 
2.5562394e+3, 1.2639976e+2, -1204942.1, -1660670.3, 57625.434, -0.060871784, 0.21903928, -1197768.5, 503534.75, 0.25719565, 10.005816, 9.997658 
2.556147e+3, 1.3639791e+2, -1003094.25, -1552569.3, 64647.387, 0.24643837, 0.31842455, -995590.75, 607730.5, 0.17846543, 10.006335, 9.997463 
2.5560483e+3, 1.4639471e+2, -910815.44, -1467892.4, -26588.502, 0.17201166, 0.29955223, -909549.3, 595802.56, 0.1014196, 10.005804, 9.997578 
2.555947e+3, 1.5639085e+2, -946643.3, -1468050.4, -31025.3, -0.08000809, 0.20074366, -944803.7, 462584.97, 0.042791348, 10.004631, 9.997444 
2.5558493e+3, 1.6638786e+2, -902960.44, -1372887.4, 35516.496, -0.106860794, 0.19569582, -900291.3, 409128.13, 0.011367266, 10.004021, 9.997715 
2.5557533e+3, 1.763856e+2, -847631.7, -1308753.0, 40278.387, -0.012223512, 0.24537717, -844139.8, 367304.88, 0.0013013858, 10.003745, 9.997618 
2.5556573e+3, 1.8638305e+2, -806448.56, -1174485.3, 72493.32, 0.008876477, 0.25183117, -792684.1, 320786.2, 0.000016477223, 10.003078, 9.998186 
2.5555614e+3, 1.9638054e+2, -842241.8, -1143718.1, 64248.902, -0.012512469, 0.22726178, -829120.5, 186373.94, 0.0, 10.002171, 9.998164 
2.555465e+3, 2.063791e+2, -766718.3, -950577.3, 23370.244, 0.010316323, 0.26642615, -763794.2, 153715.52, 0.0, 10.001563, 9.999107 
2.5553685e+3, 2.1637845e+2, -738342.6, -888009.3, 22630.803, 0.05711129, 0.33608776, -734995.5, 84522.836, 0.0, 10.001092, 9.999092 
2.5552726e+3, 2.26377e+2, -734947.94, -724352.7, 29723.742, 0.08137639, 0.27905032, -699458.1, 22073.047, 0.0, 9.999967, 10.000083 
2.555176e+3, 2.3637527e+2, -864684.5, -740674.5, 35193.78, 0.0895959, 0.1449913, -731382.8, -107838.04, 0.0, 9.99842, 10.000045 
2.5550798e+3, 2.4637541e+2, -783075.4, -556723.06, 84059.8, 0.053556465, 0.16004272, -528920.9, -3378.7727, 0.0, 9.997903, 10.000883 
2.5549835e+3, 2.563768e+2, -686447.25, -486036.78, 114767.484, -0.012075994, 0.25800735, -433884.97, -6356.2524, 0.0, 9.998006, 10.000648 
2.554888e+3, 2.663768e+2, -651957.0, -453891.25, 75529.125, 0.049881727, 0.2656762, -428376.3, -98847.65, 0.0, 9.997723, 10.00033 
2.554793e+3, 2.763761e+2, -637826.75, -404886.75, 50361.12, 0.19403394, 0.21142703, -394465.06, -162929.9, 0.0, 9.997181, 10.000257 
2.554696e+3, 2.8637585e+2, -672476.9, -313794.9, 19265.842, 0.13378684, 0.18500665, -312763.03, -179224.97, 0.0, 9.996024, 10.000768 
2.5545967e+3, 2.9637623e+2, -796039.06, -331577.63, 12992.042, -0.08659449, 0.19152094, -331214.5, -295679.13, 0.0, 9.99454, 10.0006895 
2.5545016e+3, 3.063774e+2, -674480.7, -139220.16, 6509.8057, 0.02939335, 0.23721296, -139141.0, -139141.0, 0.0, 9.994573, 10.001658 
2.5544038e+3, 3.1637958e+2, -613936.7, -96684.37, 101696.79, -0.0443902, 0.34485298, -77408.16, -77408.16, 0.0, 9.9949255, 10.0017805 
2.5662452e+3, 1.2649786e+2, -1125477.0, -1617588.8, 63462.39, -0.06294789, 0.2590367, -1117424.6, 582919.3, 0.23218787, 10.006303, 9.997802 
2.566151e+3, 1.3649546e+2, -1186412.9, -1636119.8, 43947.754, 0.16334648, 0.28837043, -1182158.3, 420208.75, 0.16004223, 10.004643, 9.997636 
2.5660524e+3, 1.4649256e+2, -1113457.5, -1552634.8, -33929.8, 0.14609689, 0.28143063, -1110851.6, 393543.22, 0.0899004, 10.004124, 9.997776 
2.565952e+3, 1.5648948e+2, -984484.0, -1468503.0, -5734.6636, 0.021428278, 0.24265021, -984416.06, 422008.47, 0.03715054, 10.004262, 9.997615 
2.565854e+3, 1.6648644e+2, -869356.75, -1349062.8, 84237.62, -0.010833467, 0.22336227, -854994.44, 453460.28, 0.00949169, 10.00422, 9.997782 
2.5657567e+3, 1.7648362e+2, -791755.4, -1266333.4, 85734.12, 0.0064413464, 0.21258557, -776742.2, 433741.22, 0.0010038617, 10.004068, 9.99775 
2.56566e+3, 1.8648127e+2, -780692.25, -1113066.0, 107110.37, 0.004127115, 0.20698863, -749165.4, 363340.9, 0.000009792652, 10.003053, 9.998616 
2.5655627e+3, 1.9647934e+2, -907915.3, -1136145.4, 135418.14, -0.005584454, 0.2040428, -844941.94, 169582.28, 0.0, 10.001557, 9.9985075 
2.565466e+3, 2.0647812e+2, -869501.2, -1014232.6, 134874.38, -0.0033422282, 0.2604073, -788805.2, 127732.93, 0.0, 10.000929, 9.998971 
2.5653687e+3, 2.1647742e+2, -791579.75, -928183.1, 122254.09, 0.006151867, 0.3436962, -719841.5, 98706.7, 0.0, 10.000796, 9.998956 
2.565272e+3, 2.264759e+2, -687808.5, -718774.25, 96623.15, 0.054792337, 0.2949457, -605435.6, 115126.84, 0.0, 10.000369, 9.999925 
2.565175e+3, 2.36474e+2, -680256.9, -665970.2, 92770.95, 0.1273266, 0.16376348, -580068.0, 42509.57, 0.0, 9.999754, 9.999912 
2.565078e+3, 2.4647385e+2, -656309.9, -497242.75, 112113.11, 0.09607519, 0.15765628, -439317.47, 85259.914, 0.0, 9.998789, 10.00086 
2.564981e+3, 2.5647488e+2, -746221.94, -516579.1, 73087.086, 0.004509475, 0.2246454, -495291.44, -68725.03, 0.0, 9.997611, 10.000624 
2.564885e+3, 2.664749e+2, -752750.25, -510869.63, 44487.83, 0.041114423, 0.24063534, -502946.72, -174380.36, 0.0, 9.997076, 10.000247 
2.5647894e+3, 2.7647442e+2, -690372.9, -439244.78, 59437.582, 0.1679397, 0.21310209, -425887.44, -195315.17, 0.0, 9.996867, 10.000169 
2.5646916e+3, 2.864741e+2, -592855.0, -277386.88, 43940.87, 0.14337759, 0.18667468, -271380.78, -138804.98, 0.0, 9.996587, 10.000742 
2.5645927e+3, 2.964743e+2, -565894.06, -223924.02, 67678.02, -0.0068902555, 0.18094823, -211017.23, -176443.1, 0.0, 9.996142, 10.000653 
2.5644952e+3, 3.064757e+2, -601769.25, -113508.0, 77862.44, -0.038746364, 0.2579049, -101392.02, -101392.02, 0.0, 9.995117, 10.001571 
2.5643995e+3, 3.1647885e+2, -739274.6, -197310.7, 157997.13, 0.10570558, 0.47221234, -154613.98, -154613.98, 0.0, 9.9942465, 10.001415 
2.5762528e+3, 1.2659562e+2, -1123720.6, -1637399.6, 22036.43, 0.1251388, 0.2252979, -1122777.0, 576608.8, 0.20838836, 10.00625, 9.997627 
2.576153e+3, 1.3659188e+2, -1178889.1, -1646227.8, 9223.644, -0.064482234, 0.13994128, -1178707.1, 422715.47, 0.14261396, 10.004676, 9.997547 
2.5760546e+3, 1.4658955e+2, -1061378.1, -1467539.0, -24376.178, -0.017062707, 0.1609258, -1059920.4, 443525.06, 0.079125196, 10.004198, 9.998346 
2.5759575e+3, 1.565881e+2, -941069.8, -1394781.1, -1201.9489, 0.18805777, 0.2301128, -941066.6, 464392.84, 0.03198159, 10.004316, 9.9981 
2.5758594e+3, 1.6658571e+2, -865795.7, -1339523.6, 78727.586, 0.19127674, 0.2482403, -853054.8, 454427.97, 0.007839825, 10.004199, 9.99786 
2.5757614e+3, 1.7658295e+2, -794635.56, -1244597.5, 74385.66, 0.07699292, 0.23442449, -782657.3, 426852.13, 0.00076310604, 10.003943, 9.997963 
2.5756627e+3, 1.8658084e+2, -735808.8, -1000875.1, 50363.53, 0.013099046, 0.19641565, -726562.1, 384966.06, 0.0000059137365, 10.002965, 9.999432 
2.5755638e+3, 1.9657922e+2, -863578.0, -1043096.6, 85121.234, -0.02365565, 0.14362268, -829634.6, 183906.58, 0.0, 10.001548, 9.999154 
2.5754657e+3, 2.065777e+2, -882020.3, -1047485.75, 127197.71, -0.04567286, 0.15623185, -813016.56, 102541.3, 0.0, 10.000954, 9.9987335 
2.5753683e+3, 2.1657637e+2, -807443.75, -963730.7, 114424.9, -0.060277633, 0.20050506, -747025.1, 70549.73, 0.0, 10.000803, 9.998712 
2.5752714e+3, 2.2657561e+2, -709952.5, -766657.25, 73001.35, 0.030203423, 0.25717184, -659991.06, 59592.277, 0.0, 10.000371, 9.9995985 
2.575175e+3, 2.3657525e+2, -709924.44, -727293.7, 66858.34, 0.17668055, 0.31022575, -651189.0, -29602.996, 0.0, 9.999746, 9.999498 
2.575077e+3, 2.4657395e+2, -723889.06, -637850.4, 65764.71, 0.18085119, 0.26435885, -602284.3, -78686.19, 0.0, 9.998786, 9.999899 
2.5749794e+3, 2.565724e+2, -794092.06, -621257.06, 33516.96, 0.095679775, 0.16536476, -614984.94, -189371.63, 0.0, 9.997628, 9.9999 
2.574881e+3, 2.6657242e+2, -713332.2, -433835.75, 34755.59, -0.0026565741, 0.17956994, -429578.72, -101965.13, 0.0, 9.9970875, 10.000775 
2.5747833e+3, 2.765734e+2, -653803.56, -367859.78, 51764.305, -0.084864534, 0.24999724, -358777.4, -129172.77, 0.0, 9.99688, 10.000657 
2.5746867e+3, 2.8657398e+2, -563560.1, -225484.92, 28935.416, 0.032311242, 0.2711879, -223026.27, -91427.97, 0.0, 9.996618, 10.001087 
2.5745904e+3, 2.965745e+2, -532684.06, -179529.9, 45594.06, 0.19937436, 0.26477087, -173738.45, -140146.89, 0.0, 9.996242, 10.000914 
2.5744903e+3, 3.065741e+2, -624961.7, -173740.28, 30000.814, -0.0025547615, 0.174758, -171754.33, -171754.33, 0.0, 9.995161, 10.001141 
2.5743908e+3, 3.1657603e+2, -636061.4, 26037.414, 105304.51, -0.15339607, 0.29816496, 42382.234, 42382.234, 0.0, 9.994199, 10.002976 
2.5862592e+3, 1.266955e+2, -1092677.9, -1650506.6, 81138.49, 0.17613696, 0.19639151, -1081115.6, 617290.9, 0.1860444, 10.006482, 9.997396 
2.5861573e+3, 1.3669239e+2, -1126219.6, -1647807.4, 74723.29, -0.06516566, 0.19986485, -1115725.8, 484712.44, 0.12633264, 10.005136, 9.997324 
2.5860584e+3, 1.466898e+2, -1007052.0, -1473141.8, 62685.914, -0.033131488, 0.22515567, -998768.4, 503696.22, 0.069163196, 10.004711, 9.998053 
2.5859615e+3, 1.5668769e+2, -880626.56, -1381383.6, 35770.45, 0.18258406, 0.25756437, -878084.3, 526401.9, 0.027299523, 10.0048, 9.997959 
2.585863e+3, 1.6668524e+2, -873487.56, -1281954.3, 85892.22, 0.17791878, 0.24579538, -856161.1, 450347.84, 0.0064030685, 10.0038805, 9.998406 
2.5857636e+3, 1.7668276e+2, -980956.7, -1282750.6, 107892.81, 0.04691335, 0.20801225, -946352.3, 262178.7, 0.00057013874, 10.002442, 9.998423 
2.5856644e+3, 1.8668112e+2, -904358.8, -1081197.5, 63646.344, 0.0104897255, 0.19955947, -883833.94, 226711.2, 0.0000035552432, 10.001809, 9.999434 
2.5855654e+3, 1.9668005e+2, -853277.9, -1035903.7, 47598.54, 0.024664838, 0.2008107, -841616.6, 170937.39, 0.0, 10.001614, 9.999169 
2.5854668e+3, 2.0667832e+2, -819362.3, -1008266.9, 102673.445, -0.0048183454, 0.18648556, -774304.44, 140267.83, 0.0, 10.00135, 9.99881 
2.5853688e+3, 2.1667638e+2, -770006.94, -939488.7, 105421.77, -0.052491482, 0.16355878, -719489.7, 97104.12, 0.0, 10.0010395, 9.99876 
2.5852713e+3, 2.266756e+2, -709767.06, -780963.6, 65969.77, 0.0064984085, 0.22479193, -670403.7, 48198.81, 0.0, 10.000444, 9.999459 
2.5851735e+3, 2.3667556e+2, -731203.94, -758151.7, 70982.45, 0.1273731, 0.3255976, -672427.9, -51824.953, 0.0, 9.999697, 9.999306 
2.5850758e+3, 2.4667409e+2, -706513.1, -674985.0, 96007.836, 0.17081177, 0.29409584, -593455.6, -70837.9, 0.0, 9.999106, 9.999487 
2.5849774e+3, 2.56672e+2, -682304.94, -605295.4, 102527.54, 0.16067615, 0.18551095, -534280.7, -109641.86, 0.0, 9.998566, 9.999555 
2.5848785e+3, 2.6667184e+2, -615918.6, -385864.03, 99244.75, 0.03745081, 0.19848543, -348967.66, -22326.682, 0.0, 9.997761, 10.000775 
2.5847793e+3, 2.7667287e+2, -665315.4, -368184.9, 75696.195, -0.11530257, 0.27539736, -350012.2, -121381.02, 0.0, 9.996785, 10.000696 
2.5846824e+3, 2.8667346e+2, -628683.7, -231563.05, 37386.777, 0.0034727396, 0.28331617, -228073.94, -97450.09, 0.0, 9.996069, 10.0013075 
2.5845855e+3, 2.966739e+2, -631509.1, -208910.66, 40150.543, 0.1974891, 0.24655995, -205129.83, -172513.1, 0.0, 9.995488, 10.001074 
2.584485e+3, 3.066737e+2, -612746.7, -191333.61, 25253.07, 0.028737683, 0.1800993, -189825.72, -189825.72, 0.0, 9.995352, 10.000924 
2.5843847e+3, 3.1667382e+2, -531365.25, 103802.87, 43309.67, -0.14368175, 0.14602132, 106742.38, 106742.38, 0.0, 9.994807, 10.003214 
2.5962648e+3, 1.26797e+2, -1102325.1, -1685429.3, 22727.611, 0.13064033, 0.18412745, -1101440.6, 595970.4, 0.1652905, 10.006408, 9.997129 
2.5961635e+3, 1.367957e+2, -1139111.8, -1700961.5, 28187.867, 0.076575786, 0.3949332, -1137701.1, 461725.06, 0.11128798, 10.005155, 9.996942 
2.5960636e+3, 1.4679231e+2, -1064022.6, -1603043.1, 63350.41, 0.03910668, 0.40616736, -1056677.1, 444784.72, 0.060053047, 10.0046835, 9.997166 
2.5959644e+3, 1.5678804e+2, -939988.3, -1475081.3, 35141.53, 0.044078656, 0.30874848, -937690.3, 465815.63, 0.0231068, 10.004636, 9.997394 
2.5958645e+3, 1.6678514e+2, -832119.4, -1166856.9, 35312.8, 0.007699336, 0.2240566, -828434.6, 477097.44, 0.0051709474, 10.003743, 9.9992695 
2.5957644e+3, 1.7678313e+2, -949110.0, -1202674.5, 61026.695, -0.059516586, 0.1481156, -935186.9, 272360.34, 0.0004183836, 10.0023775, 9.999006 
2.5956655e+3, 1.867821e+2, -949993.56, -1179685.4, 55769.695, -0.0018443055, 0.21744157, -937168.6, 172388.39, 0.0000020172258, 10.00182, 9.998756 
2.5955674e+3, 1.9678171e+2, -882212.1, -1106509.3, 42973.473, 0.117037535, 0.3519637, -874260.7, 137302.28, 0.0, 10.001656, 9.998667 
2.5954688e+3, 2.0677984e+2, -793118.9, -959353.4, 92758.99, 0.10063729, 0.326169, -751686.06, 161895.72, 0.0, 10.001368, 9.99914 
2.59537e+3, 2.1677737e+2, -756557.1, -902467.3, 92466.984, 0.013144267, 0.21635601, -711730.25, 103875.445, 0.0, 10.000995, 9.99904 
2.595271e+3, 2.2677588e+2, -713331.56, -783824.44, 37999.79, -0.023087518, 0.19531344, -696748.5, 20871.46, 0.0, 10.00042, 9.9994545 
2.595171e+3, 2.3677504e+2, -729568.9, -757161.0, 44817.594, -0.027327577, 0.2171943, -696472.0, -76844.15, 0.0, 9.9997015, 9.999313 
2.5950733e+3, 2.4677429e+2, -698424.3, -661637.6, 74757.13, 0.06639161, 0.25287366, -603044.3, -81408.33, 0.0, 9.999114, 9.999578 
2.5949758e+3, 2.567737e+2, -681336.75, -608478.5, 79894.16, 0.19325028, 0.28816435, -557100.1, -133457.05, 0.0, 9.998582, 9.999529 
2.594877e+3, 2.667732e+2, -655071.3, -470223.88, 60998.355, 0.16439873, 0.2985004, -451909.4, -126260.49, 0.0, 9.997769, 10.000195 
2.5947776e+3, 2.7677286e+2, -694371.25, -433222.7, 39714.684, 0.0861779, 0.2926946, -427316.56, -199664.23, 0.0, 9.996799, 10.000246 
2.5946784e+3, 2.867724e+2, -623227.06, -220979.72, 12596.976, 0.058186524, 0.21204932, -220585.63, -90931.26, 0.0, 9.996063, 10.001388 
2.5945783e+3, 2.9677212e+2, -628727.0, -199843.53, 23557.543, -0.04821494, 0.099376954, -198553.45, -166900.17, 0.0, 9.995468, 10.001149 
2.5944802e+3, 3.067748e+2, -613096.75, -195044.92, 24140.934, 0.030564344, 0.31359357, -193655.48, -193655.48, 0.0, 9.9953575, 10.0009 
2.5943816e+3, 3.1677282e+2, -615408.56, -80193.95, -35670.46, 0.099695235, 0.08697977, -77827.09, -77827.09, 0.0, 9.9948435, 10.001935 
2.6062697e+3, 1.2689729e+2, -1056603.1, -1621360.0, -74786.95, 0.04625264, 0.21646136, -1046867.44, 649564.2, 0.1461226, 10.006415, 9.997641 
2.606169e+3, 1.3689578e+2, -1050612.6, -1602376.4, -37558.223, 0.13483064, 0.3553406, -1048067.75, 550378.3, 0.09748917, 10.005536, 9.997437 
2.606068e+3, 1.4689279e+2, -1075197.6, -1567186.0, 63093.04, 0.087328725, 0.36414048, -1067235.4, 433241.44, 0.051798407, 10.0043955, 9.997545 
2.6059672e+3, 1.5688919e+2, -1127310.4, -1533500.9, 98091.73, 0.009557486, 0.2982029, -1104862.6, 297651.66, 0.019394655, 10.003169, 9.997698 
2.6058668e+3, 1.6688672e+2, -1039290.44, -1267950.8, 78100.88, -0.02170078, 0.24816465, -1015160.75, 289375.88, 0.0041301856, 10.002322, 9.999253 
2.605766e+3, 1.76885e+2, -1050185.1, -1252173.4, 59172.35, -0.037216194, 0.20479582, -1034127.2, 172422.53, 0.0003019704, 10.001692, 9.998994 
2.605667e+3, 1.8688343e+2, -939839.4, -1176332.9, 103614.21, 0.011936875, 0.22254926, -900865.9, 207698.23, 0.0000010444409, 10.001904, 9.998735 
2.6055688e+3, 1.9688213e+2, -759297.1, -1049238.1, 121242.14, 0.09786467, 0.2707648, -715280.6, 295297.06, 0.0, 10.002514, 9.998644 
2.6054698e+3, 2.0688063e+2, -756046.2, -943133.0, 129361.38, 0.09673029, 0.28644696, -689950.2, 222643.23, 0.0, 10.001638, 9.999118 
2.6053706e+3, 2.1687911e+2, -895735.2, -972873.4, 107323.5, 0.048125267, 0.27675134, -820260.8, -5651.677, 0.0, 10.000059, 9.999004 
2.6052704e+3, 2.2687742e+2, -826788.0, -847830.3, 66064.88, -0.00022710829, 0.24370475, -770411.75, -53785.99, 0.0, 9.999686, 9.999367 
2.6051703e+3, 2.3687583e+2, -706635.56, -750497.1, 63098.14, -0.039304435, 0.19916151, -661765.6, -43124.688, 0.0, 9.999886, 9.999267 
2.6050717e+3, 2.4687509e+2, -664882.8, -637050.06, 75085.65, 0.03639389, 0.23172797, -574602.06, -53953.176, 0.0, 9.999315, 9.999646 
2.6049733e+3, 2.5687492e+2, -715235.44, -622059.25, 78945.016, 0.16088223, 0.30034983, -576980.75, -154329.03, 0.0, 9.998344, 9.999547 
2.6048744e+3, 2.6687434e+2, -635883.3, -482008.0, 86098.47, 0.16724041, 0.3177027, -443479.84, -118822.33, 0.0, 9.997997, 10.000001 
2.6047748e+3, 2.7687365e+2, -551957.9, -390760.9, 87655.41, 0.14657931, 0.30084366, -352281.3, -125617.64, 0.0, 9.997897, 10.000006 
2.6046747e+3, 2.8687268e+2, -507566.5, -213898.38, 30508.795, 0.0923946, 0.20504029, -210762.34, -82090.09, 0.0, 9.997077, 10.000942 
2.604573e+3, 2.9687184e+2, -600663.4, -225907.52, 5958.2905, -0.08344073, 0.07776792, -225812.81, -195133.78, 0.0, 9.995841, 10.000786 
2.6044747e+3, 3.0687547e+2, -600464.25, -179500.7, 24722.117, 0.012346829, 0.4037862, -178053.81, -178053.81, 0.0, 9.995417, 10.000973 
2.604376e+3, 3.1687284e+2, -482713.6, -37350.1, -86342.75, 0.07735523, 0.10283014, -21196.695, -21196.695, 0.0, 9.995859, 10.001734 
2.6162744e+3, 1.2699696e+2, -1023412.5, -1509820.9, -91236.45, -0.068914235, 0.26948795, -1006862.25, 688598.1, 0.12846984, 10.006084, 9.998661 
2.616174e+3, 1.3699403e+2, -1010498.25, -1479296.3, -58246.945, 0.12532547, 0.16181022, -1003369.6, 594114.1, 0.08489567, 10.005279, 9.998478 
2.616072e+3, 1.4699225e+2, -1009758.4, -1411285.4, 22405.24, 0.11312274, 0.18004927, -1008512.06, 490988.06, 0.044375084, 10.004279, 9.998703 
2.6159704e+3, 1.5699114e+2, -1072374.6, -1418673.0, 55583.504, 0.043823745, 0.25053585, -1063671.8, 337840.25, 0.016142774, 10.0031595, 9.998493 
2.6158693e+3, 1.6698964e+2, -1075042.6, -1362576.9, 52348.617, 0.04725595, 0.30775478, -1065808.5, 237717.88, 0.0032637846, 10.002402, 9.998568 
2.6157686e+3, 1.769881e+2, -1063131.0, -1310005.4, 45917.313, 0.07098655, 0.34775186, -1054867.3, 150673.6, 0.0002146261, 10.00182, 9.998538 
2.6156688e+3, 1.8698509e+2, -898592.8, -1103677.6, 127644.32, 0.037537202, 0.2109919, -837403.7, 270163.13, 0.00000047553752, 10.001954, 9.999213 
2.6155695e+3, 1.9698165e+2, -752440.4, -1011915.8, 127007.51, -0.01718057, -0.00060930883, -700621.56, 308974.6, 0.0, 10.002409, 9.998954 
2.61547e+3, 2.0698096e+2, -791850.5, -1002053.06, 66703.32, 0.0011193174, 0.10478457, -772470.4, 139135.14, 0.0, 10.001567, 9.99875 
2.6153702e+3, 2.1698162e+2, -918536.0, -1022214.56, 61242.785, 0.047730107, 0.34804824, -890138.2, -76533.45, 0.0, 10.000063, 9.998666 
2.6152706e+3, 2.2698015e+2, -834541.0, -872237.6, 75170.06, 0.06771185, 0.36167026, -775892.25, -60271.336, 0.0, 9.999716, 9.999188 
2.6151708e+3, 2.3697783e+2, -714666.5, -770179.25, 63201.043, 0.07738732, 0.2620074, -673395.44, -55751.977, 0.0, 9.999891, 9.999132 
2.615071e+3, 2.4697636e+2, -663419.44, -634116.44, 36652.92, 0.070983365, 0.22634359, -609295.1, -89637.83, 0.0, 9.999312, 9.99967 
2.6149702e+3, 2.5697547e+2, -708728.1, -613538.0, 48555.12, 0.048636775, 0.22062327, -593141.25, -171475.8, 0.0, 9.998361, 9.9996 
2.6148707e+3, 2.6697516e+2, -619657.44, -455128.4, 82735.61, 0.035613008, 0.2539041, -420719.72, -97052.35, 0.0, 9.998019, 10.000178 
2.6147714e+3, 2.7697527e+2, -549917.06, -398211.72, 77560.71, 0.048284493, 0.30128968, -365578.03, -139912.72, 0.0, 9.997941, 9.999936 
2.6146713e+3, 2.869743e+2, -579481.94, -371658.88, -19330.379, 0.1009799, 0.2724713, -369876.2, -242198.58, 0.0, 9.9971075, 9.999846 
2.61457e+3, 2.9697302e+2, -660116.3, -358198.4, -38154.805, 0.10219213, 0.2073521, -353451.25, -323756.9, 0.0, 9.9958725, 9.999866 
2.6144695e+3, 3.0697525e+2, -591149.44, -168079.95, 21337.566, -0.007929208, 0.43152767, -167006.52, -167006.52, 0.0, 9.995442, 10.001043 
2.6143703e+3, 3.1697446e+2, -414759.1, 64151.984, -117255.14, -0.0465841, 0.29656717, 91319.26, 91319.26, 0.0, 9.995992, 10.002387 
2.626279e+3, 1.2709944e+2, -1250406.8, -1605716.0, 47509.76, -0.057874948, 0.29373646, -1244163.8, 450293.7, 0.1122693, 10.004143, 9.998832 
2.6261774e+3, 1.3709678e+2, -1193030.8, -1548156.4, 40915.83, 0.11027498, 0.20172982, -1188377.6, 408099.97, 0.07345345, 10.00377, 9.998683 
2.6260754e+3, 1.4709505e+2, -1108313.6, -1426940.4, 78760.72, 0.11455181, 0.20317154, -1089908.1, 408584.2, 0.03774117, 10.003416, 9.998997 
2.6259735e+3, 1.5709391e+2, -1065769.6, -1394451.1, 67586.22, 0.08578704, 0.24516279, -1052414.6, 348088.6, 0.013320865, 10.003115, 9.998677 
2.6258722e+3, 1.6709206e+2, -972665.2, -1342496.8, 83467.336, 0.0953111, 0.27524087, -954700.1, 347820.8, 0.0025525782, 10.0032425, 9.998296 
2.625771e+3, 1.7708999e+2, -831226.4, -1225904.4, 94190.51, 0.10955295, 0.29262492, -809900.0, 394640.66, 0.00015049509, 10.003542, 9.9982815 
2.6256707e+3, 1.8708712e+2, -852157.06, -1105649.4, 132152.06, 0.05045196, 0.19288032, -795794.6, 310772.2, 0.0000001940375, 10.002387, 9.998987 
2.6255706e+3, 1.9708404e+2, -1024382.75, -1155096.8, 87246.74, -0.03578099, 0.039147276, -980728.1, 27865.906, 0.0, 10.000602, 9.998837 
2.6254702e+3, 2.0708315e+2, -948111.4, -1046478.5, 50310.41, -0.023758033, 0.11341653, -926937.56, -16333.31, 0.0, 10.000366, 9.999021 
2.6253697e+3, 2.1708344e+2, -794120.94, -940926.8, 87184.35, 0.03475415, 0.29330587, -753554.1, 59051.086, 0.0, 10.000833, 9.99885 
2.62527e+3, 2.2708213e+2, -725417.06, -837523.5, 123347.984, 0.074281946, 0.3284257, -645983.44, 68636.41, 0.0, 10.000549, 9.999022 
2.6251706e+3, 2.3708023e+2, -725847.6, -797425.8, 106752.445, 0.10876254, 0.288037, -649044.8, -32405.18, 0.0, 9.999916, 9.998931 
2.62507e+3, 2.4707846e+2, -664956.56, -669430.5, 50179.395, 0.086179905, 0.25193262, -616964.3, -98307.12, 0.0, 9.999455, 9.999356 
2.6249683e+3, 2.5707698e+2, -625587.4, -593130.2, 37338.453, 0.030986449, 0.21606223, -568646.06, -147974.31, 0.0, 9.999022, 9.999418 
2.624868e+3, 2.6707652e+2, -592530.5, -412449.5, 69951.46, 0.006149066, 0.22490488, -388470.25, -65795.99, 0.0, 9.998086, 10.000437 
2.624768e+3, 2.770767e+2, -691402.5, -451779.56, 71344.555, 0.022313062, 0.25438228, -432146.28, -207476.27, 0.0, 9.996915, 10.00006 
2.6246676e+3, 2.8707606e+2, -644625.3, -442858.5, 22098.717, 0.08058306, 0.27914622, -440466.47, -313786.47, 0.0, 9.996838, 9.999486 
2.6245663e+3, 2.970752e+2, -485520.47, -308412.25, 56409.24, 0.100366704, 0.29679322, -291971.94, -263277.13, 0.0, 9.997224, 9.999554 
2.6244655e+3, 3.0707622e+2, -433246.97, -85104.93, 126945.45, 0.053643197, 0.40950292, -43732.53, -43732.53, 0.0, 9.996507, 10.001095 
2.6243654e+3, 3.1707633e+2, -594414.4, -5025.381, -5333.1626, -0.03205478, 0.35676676, -4977.127, -4977.127, 0.0, 9.994699, 10.002527 
2.6362833e+3, 1.2720391e+2, -1255837.6, -1646771.8, 30180.438, 0.01458373, 0.30961385, -1253521.4, 439910.56, 0.09747771, 10.004226, 9.998464 
2.6361805e+3, 1.372027e+2, -1210284.3, -1597749.1, 30201.885, 0.08072318, 0.39823613, -1207944.3, 387496.06, 0.06310925, 10.003792, 9.998307 
2.636078e+3, 1.4720026e+2, -1119456.3, -1469575.1, 65462.047, 0.0956363, 0.36249763, -1107617.0, 389845.03, 0.03184829, 10.003474, 9.998668 
2.6359764e+3, 1.5719742e+2, -1071941.9, -1427290.6, 57061.47, 0.12595809, 0.2656369, -1063003.9, 336484.53, 0.010894046, 10.003187, 9.99842 
2.635875e+3, 1.6719425e+2, -972124.1, -1342471.4, 92101.83, 0.12221793, 0.1728743, -950483.8, 351033.75, 0.0019779925, 10.00324, 9.998301 
2.635774e+3, 1.7719114e+2, -860625.25, -1259923.3, 88143.586, 0.09061787, 0.0879037, -842033.56, 361512.38, 0.00010497698, 10.00342, 9.99811 
2.6356727e+3, 1.8718961e+2, -916443.56, -1228208.3, 64077.13, 0.053112146, 0.17941284, -903787.5, 201775.53, 0.00000008640195, 10.002334, 9.998175 
2.635571e+3, 1.9718884e+2, -1047886.06, -1219054.5, 41646.945, 0.0145283565, 0.33421615, -1038290.9, -30716.518, 0.0, 10.000662, 9.998372 
2.6354703e+3, 2.071869e+2, -881823.0, -925297.1, 70664.73, 0.003715566, 0.2710316, -829627.7, 79964.14, 0.0, 10.000432, 9.999824 
2.63537e+3, 2.1718462e+2, -753310.94, -856047.4, 96099.94, 0.0039697727, 0.11887775, -695711.75, 115898.336, 0.0, 10.000826, 9.999439 
2.6352698e+3, 2.2718354e+2, -740828.56, -866957.75, 97580.42, 0.022572171, 0.1626984, -687707.6, 25914.078, 0.0, 10.000534, 9.998829 
2.6351693e+3, 2.3718303e+2, -747746.0, -842104.56, 83807.89, 0.050474063, 0.28368595, -698750.2, -83120.49, 0.0, 9.999907, 9.9986315 
2.6350686e+3, 2.4718137e+2, -710344.0, -765557.4, 33626.316, 0.08258915, 0.30956233, -694443.7, -176794.75, 0.0, 9.999458, 9.998697 
2.6349676e+3, 2.5717938e+2, -652397.2, -655304.75, 15548.678, 0.102953225, 0.28946593, -638234.5, -218563.36, 0.0, 9.999043, 9.998983 
2.6348662e+3, 2.671783e+2, -569206.94, -365949.53, 22075.063, 0.07873926, 0.22978841, -363579.7, -41900.6, 0.0, 9.998089, 10.000757 
2.634765e+3, 2.771777e+2, -668506.56, -403542.94, 36649.652, 0.062325206, 0.1530923, -398567.0, -174887.6, 0.0, 9.996906, 10.000398 
2.6346633e+3, 2.871779e+2, -609503.4, -373316.13, 39503.656, 0.02162971, 0.2172992, -366884.1, -241204.38, 0.0, 9.996846, 9.999962 
2.6345608e+3, 2.9717863e+2, -449028.4, -248163.03, 67964.51, -0.11570335, 0.3460656, -227327.84, -199649.94, 0.0, 9.997285, 9.99994 
2.634463e+3, 3.0717838e+2, -423722.88, -83434.72, 77819.11, 0.18973818, 0.31801412, -66483.05, -66483.05, 0.0, 9.996573, 10.0010805 
2.634359e+3, 3.1717902e+2, -621440.6, -38448.293, -17723.996, -0.09098177, 0.32794514, -37909.95, -37909.95, 0.0, 9.994617, 10.002328 
2.6462883e+3, 1.2730819e+2, -1124883.9, -1586583.1, 32823.01, 0.097273156, 0.2727531, -1122562.1, 569843.6, 0.084032744, 10.005157, 9.998461 
2.646184e+3, 1.3730648e+2, -1163896.5, -1598087.0, 52819.805, 0.052748535, 0.3184468, -1157563.4, 436855.28, 0.053804792, 10.004196, 9.99811 
2.646081e+3, 1.4730354e+2, -1113428.0, -1560057.0, 94196.695, 0.055440936, 0.29299706, -1094374.3, 402072.97, 0.026646601, 10.003913, 9.997827 
2.6459795e+3, 1.5730019e+2, -1004636.75, -1459801.4, 51209.14, 0.118644364, 0.22651544, -998946.5, 399534.6, 0.008825988, 10.003937, 9.99783 
2.6458776e+3, 1.6729729e+2, -975613.56, -1317340.8, 73461.13, 0.10499736, 0.17022978, -960490.9, 340017.75, 0.0015213672, 10.003108, 9.998531 
2.6457757e+3, 1.7729479e+2, -1061832.4, -1333918.3, 81079.0, 0.0499874, 0.12235627, -1039504.0, 163027.63, 0.000073811694, 10.001946, 9.998307 
2.645674e+3, 1.872935e+2, -983780.2, -1250843.4, 97568.914, 0.04731965, 0.22626857, -951932.3, 152613.7, 0.000000036839044, 10.001838, 9.998254 
2.6455724e+3, 1.9729283e+2, -833396.75, -1121095.9, 128829.984, 0.06744276, 0.38781354, -784140.44, 222415.28, 0.0, 10.002167, 9.998316 
2.645471e+3, 2.0729028e+2, -753711.6, -921979.2, 123012.02, 0.02984218, 0.30341107, -688813.7, 219765.73, 0.0, 10.00157, 9.999295 
2.6453698e+3, 2.1728714e+2, -814162.3, -924321.2, 59402.145, -0.027244598, 0.113454714, -788233.4, 22373.646, 0.0, 10.000582, 9.999085 
2.645269e+3, 2.2728588e+2, -791849.5, -869850.7, 48729.453, -0.0102880495, 0.13987933, -768435.3, -55815.63, 0.0, 10.000094, 9.999019 
2.6451686e+3, 2.3728554e+2, -750901.1, -822990.56, 60997.035, 0.044685133, 0.25851426, -716094.9, -101470.07, 0.0, 9.999803, 9.998809 
2.6450676e+3, 2.472843e+2, -728614.44, -759477.06, 58776.938, 0.09878158, 0.31106398, -683276.9, -166637.13, 0.0, 9.999274, 9.998825 
2.6449662e+3, 2.5728276e+2, -713739.7, -682914.56, 92274.5, 0.14220645, 0.32822707, -604774.3, -186116.67, 0.0, 9.998621, 9.998996 
2.644864e+3, 2.6728132e+2, -584904.1, -418611.5, 68367.02, 0.10376763, 0.2617008, -394113.22, -73443.37, 0.0, 9.998179, 10.000349 
2.6447618e+3, 2.7728006e+2, -556631.94, -374074.38, 34331.777, 0.06563861, 0.1544512, -367831.44, -145153.31, 0.0, 9.997782, 10.000177 
2.6446596e+3, 2.8728014e+2, -510434.8, -280119.7, 41653.457, -0.015232471, 0.1933084, -272817.97, -148140.28, 0.0, 9.997337, 10.000362 
2.6445565e+3, 2.972811e+2, -498446.16, -239357.97, 55243.934, -0.21057187, 0.30467713, -228070.38, -201399.44, 0.0, 9.996812, 10.000225 
2.6444593e+3, 3.0728072e+2, -507109.9, -153960.2, 19917.963, 0.21601076, 0.26936567, -152840.38, -152840.38, 0.0, 9.996136, 10.000805 
2.6443526e+3, 3.1728184e+2, -438257.28, 40676.727, -67626.06, -0.19408539, 0.3506665, 50042.46, 50042.46, 0.0, 9.995932, 10.00223 
2.6562938e+3, 1.2741247e+2, -1144882.5, -1574826.9, -15493.28, 0.17041636, 0.20236358, -1144324.9, 547052.56, 0.07184496, 10.004851, 9.99868 
2.656187e+3, 1.3740908e+2, -1171868.6, -1618495.1, 13788.814, 0.016370222, 0.05831223, -1171443.4, 421962.0, 0.045474056, 10.004175, 9.997977 
2.6560837e+3, 1.4740576e+2, -1191370.6, -1733985.6, 89755.055, -0.0050008832, 0.0755085, -1176909.4, 318531.16, 0.022085182, 10.003927, 9.996629 
2.6559824e+3, 1.5740266e+2, -1071721.3, -1584899.9, 48763.0, 0.069343254, 0.15024729, -1067128.9, 330348.16, 0.007080129, 10.0038595, 9.997012 
2.6558796e+3, 1.6740118e+2, -953533.7, -1266936.3, 33717.984, 0.051975314, 0.24441649, -949947.06, 349546.5, 0.0011631154, 10.003082, 9.998893 
2.6557764e+3, 1.7740047e+2, -1022858.3, -1266807.3, 50576.13, -0.012267777, 0.33847895, -1012788.4, 188712.6, 0.000052706207, 10.002002, 9.998743 
2.655675e+3, 1.873985e+2, -924581.8, -1140096.6, 108429.125, 0.031776693, 0.31166002, -879471.5, 224046.55, 0.000000014947995, 10.001884, 9.998994 
2.6555747e+3, 1.9739616e+2, -824451.56, -1097185.3, 126454.336, 0.11510152, 0.2382871, -774843.6, 230694.39, 0.0, 10.002138, 9.998496 
2.6554725e+3, 2.0739353e+2, -874229.94, -1166337.0, 83330.305, 0.051811244, 0.23912823, -852130.06, 55436.242, 0.0, 10.001539, 9.997636 
2.6553693e+3, 2.173909e+2, -897772.2, -1093275.0, 31479.713, -0.068898, 0.26112822, -892828.4, -83231.914, 0.0, 10.000557, 9.99794 
2.6552686e+3, 2.2738904e+2, -754563.75, -793893.56, 41137.004, -0.028470539, 0.24069309, -728633.0, -17018.686, 0.0, 10.000097, 9.999541 
2.6551685e+3, 2.3738772e+2, -707289.5, -734524.9, 48192.793, 0.07894868, 0.20737273, -670827.4, -57202.164, 0.0, 9.999806, 9.999417 
2.6550665e+3, 2.4738722e+2, -665873.8, -631325.56, 33084.984, 0.12846296, 0.2571446, -611276.6, -95646.86, 0.0, 9.999278, 9.999706 
2.6549643e+3, 2.573871e+2, -682734.25, -623321.8, 70483.38, 0.13737285, 0.33399335, -576540.4, -158909.11, 0.0, 9.998635, 9.9994 
2.6548612e+3, 2.673857e+2, -666681.56, -591315.06, 53803.188, 0.07695252, 0.32502866, -563311.1, -243664.66, 0.0, 9.998187, 9.999162 
2.6547587e+3, 2.7738386e+2, -609214.0, -491429.34, 19772.969, 0.019883668, 0.2755471, -488198.6, -266533.13, 0.0, 9.997813, 9.999358 
2.6546562e+3, 2.8738275e+2, -485617.56, -235385.84, 19656.504, -0.030098299, 0.20885102, -233851.17, -110176.3, 0.0, 9.99736, 10.000662 
2.654553e+3, 2.973823e+2, -487457.0, -217591.55, 29331.365, -0.17673318, 0.15177467, -214440.36, -188762.95, 0.0, 9.99681, 10.00038 
2.6544535e+3, 3.0738348e+2, -542660.75, -225823.47, -8187.818, 0.1038846, 0.29391754, -225612.03, -225612.03, 0.0, 9.9961195, 10.000323 
2.6543495e+3, 3.1738293e+2, -436956.56, 8661.18, -46257.637, -0.06250534, 0.2588807, 13412.327, 13412.327, 0.0, 9.996056, 10.001964 
2.6662967e+3, 1.2751646e+2, -1390072.9, -1728760.9, -46209.695, 0.119387805, 0.21078862, -1383881.4, 306478.47, 0.060828917, 10.003152, 9.998386 
2.666191e+3, 1.3751292e+2, -1162350.9, -1619136.1, -52213.797, 0.03671438, 0.07837769, -1156458.5, 435931.9, 0.038048588, 10.004233, 9.997948 
2.6660872e+3, 1.4751013e+2, -1138766.5, -1626436.0, 68826.79, -0.0018332275, 0.10172429, -1129238.9, 365180.78, 0.01811097, 10.003939, 9.997355 
2.665985e+3, 1.5750776e+2, -1145010.9, -1573476.4, 127881.6, 0.02705004, 0.1833537, -1109745.4, 286701.75, 0.0056187846, 10.003153, 9.997429 
2.6658818e+3, 1.6750605e+2, -1013364.3, -1351472.9, 106101.07, 0.026319524, 0.2728389, -982827.06, 315639.28, 0.0008835103, 10.002918, 9.998387 
2.6657787e+3, 1.7750475e+2, -916481.3, -1252311.9, 73077.734, 0.0025543594, 0.357147, -901268.5, 299212.1, 0.000037962185, 10.002896, 9.998408 
2.6656768e+3, 1.875023e+2, -846622.0, -1086221.4, 96975.49, 0.03888644, 0.286413, -812291.2, 290210.1, 0.0000000057994387, 10.002356, 9.999133 
2.665576e+3, 1.9749953e+2, -897579.2, -1127003.4, 75067.6, 0.10218271, 0.15831076, -875200.0, 129323.22, 0.0, 10.001618, 9.998539 
2.6654732e+3, 2.0749727e+2, -956293.94, -1234785.1, 72578.984, 0.052449644, 0.211713, -938513.9, -31964.703, 0.0, 10.001107, 9.99737 
2.6653698e+3, 2.1749534e+2, -891063.6, -1109119.6, 110782.375, -0.040656626, 0.32916108, -844657.25, -36081.805, 0.0, 10.000692, 9.997761 
2.6652682e+3, 2.2749338e+2, -723738.2, -769651.75, 136072.45, -0.013685007, 0.30444124, -608699.56, 101894.45, 0.0, 10.000274, 9.9996195 
2.6651677e+3, 2.3749164e+2, -696008.4, -717848.2, 108999.55, 0.07028761, 0.22327717, -597383.1, 15224.571, 0.0, 9.999841, 9.999513 
2.6650655e+3, 2.4749081e+2, -648650.3, -608025.5, 39028.15, 0.11119443, 0.23121354, -584340.3, -69726.26, 0.0, 9.999336, 9.999835 
2.6649624e+3, 2.5749052e+2, -659672.7, -607001.0, 25725.383, 0.12384416, 0.27337757, -596521.44, -179904.97, 0.0, 9.998776, 9.999442 
2.664859e+3, 2.674893e+2, -653410.56, -616854.4, 50226.85, 0.068279564, 0.306014, -581683.2, -263052.72, 0.0, 9.998421, 9.998872 
2.6647562e+3, 2.7748787e+2, -587582.0, -509980.47, 78785.734, 0.017630884, 0.32551068, -460959.3, -240311.17, 0.0, 9.998093, 9.999093 
2.6646537e+3, 2.874865e+2, -435531.47, -231654.34, 67656.06, -0.008792529, 0.2512205, -211245.8, -88585.195, 0.0, 9.997797, 10.000474 
2.6645502e+3, 2.9748538e+2, -400482.34, -192831.0, 37401.184, -0.11231219, 0.1496458, -186299.89, -161631.6, 0.0, 9.997485, 10.000222 
2.6644486e+3, 3.074867e+2, -408611.72, -172565.19, 3540.5566, -0.016901314, 0.31829542, -172512.1, -172512.1, 0.0, 9.997099, 10.000212 
2.6643458e+3, 3.1748506e+2, -417779.34, -25542.86, 10009.891, 0.018800138, 0.1897975, -25287.574, -25287.574, 0.0, 9.996384, 10.001565 
2.6762977e+3, 1.276205e+2, -1403039.0, -1800490.6, -1818.4183, -0.014638292, 0.27471593, -1403030.8, 286315.75, 0.050919015, 10.003314, 9.99781 
2.6761952e+3, 1.3761784e+2, -1176265.3, -1620852.1, -14404.86, 0.08467411, 0.28108007, -1175799.0, 415572.56, 0.031460986, 10.004086, 9.998005 
2.676091e+3, 1.4761613e+2, -1019139.25, -1353595.4, 40990.79, 0.035082083, 0.28814965, -1014188.7, 479198.03, 0.014667974, 10.003821, 9.999302 
2.6759872e+3, 1.5761484e+2, -1066905.8, -1408938.4, 94048.05, -0.016279535, 0.29078546, -1042751.3, 352646.56, 0.0044031176, 10.003138, 9.998568 
2.6758844e+3, 1.6761166e+2, -1087965.8, -1516741.0, 97179.68, 0.018314807, 0.2638916, -1066968.8, 230461.08, 0.00066469994, 10.002956, 9.997237 
2.6757815e+3, 1.7760798e+2, -976546.8, -1384918.1, 65747.33, 0.06641596, 0.22373518, -966222.56, 233244.92, 0.000027206008, 10.002926, 9.997486 
2.675679e+3, 1.8760526e+2, -870003.1, -1135526.1, 70050.97, 0.057273515, 0.18023416, -852655.5, 248836.25, 0.000000001728097, 10.002354, 9.998798 
2.6755762e+3, 1.9760308e+2, -907720.75, -1138705.8, 51378.195, 0.032582585, 0.13842052, -896808.2, 106701.28, 0.0, 10.001574, 9.998483 
2.6754737e+3, 2.0760153e+2, -896121.44, -1110761.6, 57569.082, 0.03490833, 0.21235563, -881655.6, 23872.223, 0.0, 10.001106, 9.998223 
2.675371e+3, 2.1760035e+2, -847902.94, -1024988.25, 96038.47, 0.03970259, 0.3235352, -805819.5, 1725.8644, 0.0, 10.0007105, 9.998333 
2.6752687e+3, 2.2759879e+2, -744923.0, -816914.44, 119339.33, 0.025058514, 0.33676502, -656268.94, 53291.297, 0.0, 10.000283, 9.999292 
2.675166e+3, 2.375972e+2, -725503.06, -777761.0, 90875.51, 0.0103744995, 0.3055555, -657074.75, -45501.555, 0.0, 9.99983, 9.999109 
2.6750636e+3, 2.4759501e+2, -692215.4, -699608.6, 17529.432, 0.04642831, 0.22990313, -677997.06, -164403.63, 0.0, 9.999337, 9.999208 
2.6749602e+3, 2.5759283e+2, -676951.56, -649993.6, 7308.0625, 0.088942595, 0.1455983, -648139.94, -232525.77, 0.0, 9.998802, 9.999137 
2.674857e+3, 2.6759216e+2, -606367.7, -523621.25, 36642.977, 0.07451272, 0.19996622, -509727.38, -192104.56, 0.0, 9.998434, 9.999509 
2.6747543e+3, 2.775921e+2, -563995.75, -467926.1, 67552.51, 0.05780981, 0.29953173, -433071.3, -213445.0, 0.0, 9.998116, 9.999374 
2.6746514e+3, 2.875914e+2, -484028.56, -339194.9, 56026.27, 0.050965372, 0.32891667, -320052.25, -198418.0, 0.0, 9.997821, 9.999727 
2.674548e+3, 2.9759064e+2, -430259.47, -265294.97, 25130.807, -0.025769254, 0.33310327, -261551.47, -237909.77, 0.0, 9.997525, 9.999708 
2.6744437e+3, 3.075902e+2, -385189.84, -137920.02, -16366.239, -0.15088695, 0.33029267, -136841.47, -136841.47, 0.0, 9.997151, 10.000428 
2.6743412e+3, 3.1758937e+2, -465850.34, -131919.53, -8134.364, -0.04026447, 0.27656597, -131721.5, -131721.5, 0.0, 9.996406, 10.000826 
2.6863015e+3, 1.2772611e+2, -1211219.5, -1660823.4, 67264.7, 0.0046316436, 0.35132805, -1201371.8, 486942.3, 0.04205121, 10.004461, 9.99823 
2.686198e+3, 1.37723e+2, -1300023.8, -1660135.3, 103012.1, 0.07058996, 0.27469826, -1272639.0, 317702.78, 0.025642185, 10.003095, 9.998216 
2.6860937e+3, 1.477212e+2, -1183144.8, -1475741.0, 88718.25, 0.04280869, 0.29526505, -1158346.3, 334012.38, 0.0116969785, 10.002866, 9.998908 
2.68599e+3, 1.5771995e+2, -1088348.0, -1439901.5, 18039.85, 0.027936464, 0.33934614, -1087424.8, 306946.22, 0.00339493, 10.00308, 9.998379 
2.6858866e+3, 1.6771676e+2, -1033240.9, -1457678.4, 54241.824, 0.028900208, 0.2946343, -1026418.6, 269983.88, 0.0004926711, 10.003197, 9.997524 
2.6857838e+3, 1.7771295e+2, -923186.25, -1347337.0, 92516.47, 0.026871918, 0.21727303, -903884.7, 294555.0, 0.00001910125, 10.003247, 9.997587 
2.6856804e+3, 1.877101e+2, -896936.56, -1195684.9, 84019.7, 0.035523713, 0.18723802, -874928.3, 225537.9, 0.0000000002885943, 10.00238, 9.998368 
2.6855773e+3, 1.9770785e+2, -967881.94, -1181171.6, 66966.69, 0.04915935, 0.1770678, -948599.6, 53887.242, 0.0, 10.001225, 9.998355 
2.6854742e+3, 2.0770645e+2, -848624.0, -1008023.25, 92836.05, 0.04386587, 0.22800262, -805969.4, 98532.02, 0.0, 10.001095, 9.998931 
2.6853713e+3, 2.177055e+2, -731225.6, -919703.94, 114246.7, 0.033724975, 0.29818487, -677365.75, 129146.984, 0.0, 10.0013075, 9.998764 
2.6852682e+3, 2.2770388e+2, -717067.0, -846067.3, 112168.484, 0.018045865, 0.31265792, -652176.1, 56352.594, 0.0, 10.000663, 9.998907 
2.6851654e+3, 2.3770212e+2, -765286.7, -829724.2, 84263.4, 0.008264547, 0.30059427, -707292.5, -96747.125, 0.0, 9.999705, 9.998809 
2.6850623e+3, 2.4769989e+2, -680607.25, -706184.3, 51849.688, 0.04352867, 0.23913017, -639992.3, -127425.45, 0.0, 9.999476, 9.999092 
2.684959e+3, 2.5769767e+2, -584513.8, -613213.44, 74531.01, 0.08712478, 0.16221663, -522963.75, -108375.28, 0.0, 9.999478, 9.99906 
2.6848552e+3, 2.6769704e+2, -485746.16, -456837.63, 78998.88, 0.05965261, 0.22004847, -390981.56, -74384.57, 0.0, 9.999232, 9.999578 
2.6847517e+3, 2.7769703e+2, -460497.25, -417863.28, 67141.56, 0.036396284, 0.32183665, -368735.94, -150136.19, 0.0, 9.998832, 9.999371 
2.6846492e+3, 2.8769624e+2, -455462.13, -350900.38, 67471.58, 0.068380125, 0.35905126, -317824.9, -197216.39, 0.0, 9.998135, 9.999491 
2.6845455e+3, 2.9769534e+2, -476935.1, -308792.0, 75686.93, 0.035096418, 0.3739053, -279741.78, -257124.22, 0.0, 9.997305, 9.999511 
2.6844397e+3, 3.076945e+2, -380320.34, -137288.06, 42397.516, -0.22462969, 0.34185296, -130104.086, -130104.086, 0.0, 9.997199, 10.000404 
2.6843375e+3, 3.1769425e+2, -364951.53, -84216.19, -24491.053, -0.027500901, 0.34753782, -82095.63, -82095.63, 0.0, 9.997112, 10.000808 
2.6963064e+3, 1.2783282e+2, -1185680.5, -1537195.6, 815.2178, 0.10025172, 0.43327522, -1185678.6, 501590.0, 0.034154702, 10.004117, 9.9992695 
2.6962e+3, 1.3782842e+2, -1273413.8, -1625539.5, 51021.016, 0.007871431, 0.13714887, -1266170.1, 323133.16, 0.020525463, 10.003174, 9.998413 
2.696096e+3, 1.4782579e+2, -1299519.4, -1750870.6, 86902.484, 0.02931517, 0.18824024, -1283365.4, 207967.02, 0.009142652, 10.002989, 9.996963 
2.6959938e+3, 1.5782389e+2, -1160038.0, -1591452.6, 27669.512, 0.12452421, 0.34827653, -1158270.6, 235087.61, 0.002560899, 10.003084, 9.997339 
2.6958898e+3, 1.6782165e+2, -951121.5, -1272923.8, 60174.348, 0.04574799, 0.35518017, -940237.5, 355142.25, 0.00035711887, 10.00313, 9.998826 
2.6957852e+3, 1.7781939e+2, -888310.1, -1244706.0, 80108.81, -0.09499406, 0.30740204, -871131.7, 326267.5, 0.000012945244, 10.003113, 9.998359 
2.6956818e+3, 1.878165e+2, -942080.1, -1280067.0, 37162.855, -0.017367989, 0.28115135, -938042.2, 161385.28, 0.000000000007316074, 10.002336, 9.997813 
2.695579e+3, 1.9781362e+2, -976703.44, -1210775.9, 38890.605, 0.12732817, 0.260316, -970411.0, 31045.723, 0.0, 10.001269, 9.998133 
2.6954752e+3, 2.0781197e+2, -801568.4, -919869.3, 102763.16, 0.068705, 0.2550554, -742148.0, 161322.2, 0.0, 10.001132, 9.99952 
2.6953712e+3, 2.1781087e+2, -715079.2, -880721.75, 110386.63, -0.056432813, 0.25371614, -659898.44, 145579.13, 0.0, 10.001278, 9.999049 
2.695268e+3, 2.2780873e+2, -752254.4, -916222.25, 74108.414, -0.030346371, 0.23663235, -723723.94, -16224.847, 0.0, 10.000648, 9.998433 
2.6951653e+3, 2.3780642e+2, -780033.2, -862909.6, 57006.414, 0.049725484, 0.21548112, -750995.44, -141471.73, 0.0, 9.999712, 9.99858 
2.695062e+3, 2.4780543e+2, -651793.3, -650402.94, 51317.727, 0.09618061, 0.26240554, -599775.7, -88241.56, 0.0, 9.999489, 9.999472 
2.6949582e+3, 2.57805e+2, -572740.75, -595083.1, 72195.69, 0.11182103, 0.32925698, -510857.06, -97318.06, 0.0, 9.9995, 9.999176 
2.6948535e+3, 2.6780388e+2, -521485.5, -535736.25, 65105.33, 0.018586576, 0.37123308, -463116.78, -147563.84, 0.0, 9.9992485, 9.999031 
2.694749e+3, 2.7780265e+2, -475862.9, -458962.75, 48545.664, -0.071854904, 0.39935425, -418137.22, -200568.55, 0.0, 9.998866, 9.999073 
2.6946464e+3, 2.8780088e+2, -431255.28, -305602.38, 33041.195, 0.035092387, 0.33070922, -297443.72, -177858.97, 0.0, 9.99815, 9.999798 
2.6945427e+3, 2.9779923e+2, -466178.9, -289223.03, 53406.336, 0.07748099, 0.24143733, -274354.06, -252755.77, 0.0, 9.997311, 9.999645 
2.694436e+3, 3.077998e+2, -400094.5, -187674.6, 51053.184, -0.25604457, 0.3650732, -176041.52, -176041.52, 0.0, 9.997233, 10.000046 
2.694334e+3, 3.177991e+2, -286143.13, 65285.4, -173850.92, -0.02479986, 0.34530267, 136754.56, 136754.56, 0.0, 9.997151, 10.001827 
2.7063087e+3, 1.279371e+2, -1465811.8, -1670189.0, -25252.316, 0.089004606, 0.3864081, -1462737.9, 223509.17, 0.027171966, 10.002099, 9.999297 
2.7062032e+3, 1.3793366e+2, -1169772.8, -1572758.1, -37289.082, 0.025383126, 0.18133758, -1166351.4, 421922.4, 0.016060194, 10.003873, 9.99844 
2.7060992e+3, 1.4793088e+2, -1182487.3, -1692747.3, 38744.652, 0.046440575, 0.21511625, -1179562.1, 310742.5, 0.0069642123, 10.003795, 9.996968 
2.7059963e+3, 1.579285e+2, -1150040.5, -1573932.6, 79952.66, 0.13581559, 0.32659566, -1135461.5, 256873.47, 0.0018764966, 10.0031, 9.997449 
2.7058917e+3, 1.679269e+2, -1037104.56, -1272047.5, 97966.58, 0.05575535, 0.37129062, -1001615.25, 292735.6, 0.00025055662, 10.002361, 9.999199 
2.705787e+3, 1.7792563e+2, -1076705.0, -1298114.9, 66117.38, -0.0854861, 0.38744903, -1058463.9, 137897.16, 0.000008335715, 10.001662, 9.998687 
2.705683e+3, 1.87923e+2, -1009818.6, -1290091.4, 47819.316, -0.026478985, 0.36177474, -1001884.44, 96502.2, 0.0, 10.001778, 9.998011 
2.7055797e+3, 1.9792007e+2, -844045.6, -1135521.4, 92985.32, 0.102190755, 0.32023337, -816908.4, 183507.53, 0.0, 10.002137, 9.998228 
2.7054757e+3, 2.0791806e+2, -728308.3, -907751.6, 129500.98, 0.064499974, 0.2886476, -660484.8, 241947.7, 0.0, 10.0017395, 9.999308 
2.705372e+3, 2.1791647e+2, -759068.9, -924148.2, 78636.69, -0.028378328, 0.26090118, -727606.25, 76837.55, 0.0, 10.001079, 9.998843 
2.705268e+3, 2.2791417e+2, -785193.8, -955875.2, 29844.285, -0.022511499, 0.24779914, -780125.94, -73658.516, 0.0, 10.000529, 9.998216 
2.7051643e+3, 2.3791179e+2, -743818.75, -859074.4, 35381.92, 0.029007804, 0.23896766, -733823.75, -125330.164, 0.0, 10.000025, 9.998452 
2.7050608e+3, 2.4791083e+2, -607179.7, -620183.5, 34335.527, 0.07920521, 0.28769153, -578735.9, -68232.1, 0.0, 9.9997635, 9.999544 
2.704957e+3, 2.5791046e+2, -564900.2, -588202.0, 31192.004, 0.112574056, 0.35607243, -543254.2, -130746.63, 0.0, 9.999546, 9.999198 
2.704852e+3, 2.6790947e+2, -529108.2, -553143.6, 35614.293, -0.0017649385, 0.41429535, -503538.63, -189017.84, 0.0, 9.999262, 9.998901 
2.7047467e+3, 2.7790824e+2, -473096.28, -463324.47, 46899.23, -0.12035764, 0.45517895, -421057.34, -204520.6, 0.0, 9.998919, 9.999014 
2.704644e+3, 2.879061e+2, -324269.9, -240776.27, 25331.04, 0.014539551, 0.34421083, -233692.16, -115136.64, 0.0, 9.998835, 9.99991 
2.7045405e+3, 2.9790398e+2, -261930.39, -186377.64, 25722.941, 0.108777404, 0.20048453, -178451.45, -157879.34, 0.0, 9.998699, 9.9996805 
2.7044326e+3, 3.0790514e+2, -434119.25, -222253.1, 20209.82, -0.2508605, 0.39349166, -220342.52, -220342.52, 0.0, 9.997087, 9.999875 
2.7043304e+3, 3.1790408e+2, -414230.25, 57243.43, -132007.03, -0.0074891876, 0.34130153, 91687.48, 91687.48, 0.0, 9.996053, 10.0022955 
2.7163094e+3, 1.2804012e+2, -1478684.0, -1740170.5, 38632.414, 0.003250312, 0.27238452, -1473095.8, 212142.19, 0.021076187, 10.002277, 9.998726 
2.716207e+3, 1.3803898e+2, -1185671.5, -1586741.9, 4248.4897, 0.08671629, 0.34512597, -1185626.5, 401621.63, 0.012218343, 10.003776, 9.99839 
2.7161026e+3, 1.4803647e+2, -1110545.4, -1516692.8, 9664.014, 0.07690071, 0.3270997, -1110315.6, 378958.4, 0.0051369565, 10.003671, 9.99824 
2.7159983e+3, 1.5803374e+2, -1105702.6, -1462254.0, 47858.402, 0.08160651, 0.28354967, -1099390.6, 291912.47, 0.0013253107, 10.003011, 9.998261 
2.7158937e+3, 1.6803253e+2, -1059656.6, -1319203.6, 64634.457, 0.059745837, 0.35782906, -1044451.6, 248864.64, 0.0001678077, 10.002358, 9.9988785 
2.7157894e+3, 1.7803185e+2, -1066864.6, -1293263.9, 47116.03, 0.013977729, 0.4601765, -1057450.8, 137872.95, 0.0000049507566, 10.001725, 9.9986925 
2.7156845e+3, 1.8802969e+2, -948726.9, -1174202.5, 58613.5, -0.008871002, 0.4302795, -934400.25, 162942.98, 0.0, 10.001821, 9.998788 
2.7155802e+3, 1.9802715e+2, -828735.1, -1098118.3, 91204.266, -0.014269288, 0.3572932, -800761.25, 198604.66, 0.0, 10.002108, 9.998502 
2.7154768e+3, 2.0802465e+2, -796482.2, -1044016.8, 100371.836, 0.036584783, 0.32871932, -760898.1, 140490.88, 0.0, 10.001714, 9.998386 
2.7153736e+3, 2.1802236e+2, -807636.06, -1020441.1, 54144.168, 0.09182754, 0.31644002, -794652.25, 8758.619, 0.0, 10.001055, 9.998196 
2.7152684e+3, 2.280202e+2, -782570.3, -952648.7, 10064.338, 0.029656833, 0.33917382, -781976.9, -76543.46, 0.0, 10.000534, 9.998238 
2.715163e+3, 2.3801816e+2, -746918.75, -867498.56, 20347.406, -0.060103696, 0.36466908, -743577.8, -136122.52, 0.0, 10.000028, 9.998395 
2.7150592e+3, 2.4801598e+2, -624433.56, -657810.5, 27048.904, -0.008219192, 0.30981994, -609339.2, -99862.88, 0.0, 9.999767, 9.999286 
2.7149558e+3, 2.5801402e+2, -566307.4, -598733.06, 22062.63, 0.07318826, 0.24187067, -555141.1, -143646.5, 0.0, 9.999575, 9.999115 
2.714851e+3, 2.6801366e+2, -506169.97, -509395.72, 20426.338, -0.0021853752, 0.3459827, -487292.94, -173791.48, 0.0, 9.999272, 9.9992 
2.7147454e+3, 2.7801374e+2, -456991.38, -435839.66, 36823.31, -0.10258341, 0.48884654, -408103.56, -192598.9, 0.0, 9.9989395, 9.999195 
2.7146423e+3, 2.8801188e+2, -327165.7, -256236.92, 23662.932, -0.0011447035, 0.40790948, -249067.33, -131546.27, 0.0, 9.998869, 9.99979 
2.7145386e+3, 2.9800978e+2, -254661.52, -188922.97, -1270.845, 0.08962305, 0.27810237, -188898.42, -169360.39, 0.0, 9.99877, 9.999632 
2.71443e+3, 3.0801043e+2, -429808.06, -207542.86, -67859.63, -0.1527567, 0.41684362, -188462.63, -188462.63, 0.0, 9.997055, 9.999994 
2.7143258e+3, 3.1800964e+2, -446853.7, -15951.514, 170129.4, -0.0056351037, 0.38486823, 43120.957, 43120.957, 0.0, 9.996075, 10.001782 
2.7263117e+3, 1.2814435e+2, -1324579.4, -1700580.5, 75849.77, -0.01265293, 0.25900722, -1309855.0, 374361.72, 0.015855405, 10.0034895, 9.998417 
2.72621e+3, 1.3814342e+2, -1302234.8, -1641935.1, 39652.934, 0.10610802, 0.38076258, -1297667.5, 288560.3, 0.008983967, 10.002953, 9.998405 
2.726105e+3, 1.4814153e+2, -1228453.1, -1495818.1, 3149.2834, 0.057609446, 0.37876844, -1228416.0, 259831.33, 0.0036446187, 10.0025215, 9.998934 
2.7259997e+3, 1.5813945e+2, -1190300.1, -1448951.8, 12982.986, 0.0070756297, 0.33420736, -1189650.0, 200618.45, 0.00089552253, 10.0022, 9.998739 
2.7258953e+3, 1.6813798e+2, -1071613.9, -1330514.8, 41372.223, 0.031564657, 0.36944664, -1065163.3, 227120.61, 0.00010567381, 10.002307, 9.998822 
2.7257913e+3, 1.7813683e+2, -950608.3, -1236001.8, 36368.516, 0.062753305, 0.4273615, -946046.7, 248249.66, 0.0000025953589, 10.002524, 9.998697 
2.725686e+3, 1.8813476e+2, -877739.25, -1124023.9, 23041.096, 0.013504967, 0.39819312, -875602.2, 220712.7, 0.0, 10.002245, 9.998924 
2.7255812e+3, 1.9813253e+2, -866720.9, -1106623.8, 11782.556, -0.047925167, 0.34182152, -866143.56, 132190.9, 0.0, 10.001811, 9.998582 
2.7254775e+3, 2.0813039e+2, -858614.3, -1083297.0, 38776.348, 0.0134101715, 0.347641, -852110.44, 48245.035, 0.0, 10.001332, 9.998298 
2.7253744e+3, 2.1812834e+2, -838041.06, -1036219.8, 48421.52, 0.106609896, 0.37095302, -826842.9, -24466.611, 0.0, 10.000855, 9.998181 
2.725269e+3, 2.2812618e+2, -734399.2, -908756.5, 35259.492, 0.046733744, 0.3835066, -727538.75, -23140.674, 0.0, 10.000781, 9.998418 
2.7251628e+3, 2.381241e+2, -635730.0, -810458.3, 51896.895, -0.05069269, 0.38774705, -621478.3, -15058.971, 0.0, 10.000784, 9.998419 
2.7250585e+3, 2.4812171e+2, -584138.5, -679865.6, 48775.22, -0.017316889, 0.33567274, -563665.1, -55222.332, 0.0, 10.00023, 9.998908 
2.7249545e+3, 2.5811943e+2, -592034.2, -629288.56, 36529.938, 0.049186125, 0.27212164, -569656.4, -159191.55, 0.0, 9.999485, 9.998944 
2.7248493e+3, 2.681189e+2, -503722.78, -473799.7, 36438.563, -0.011129354, 0.34903178, -449370.7, -136899.05, 0.0, 9.999149, 9.999499 
2.724744e+3, 2.7811894e+2, -457305.0, -419687.56, 52261.96, -0.08103876, 0.45856276, -382952.78, -168479.2, 0.0, 9.998873, 9.999334 
2.7246404e+3, 2.8811747e+2, -414560.7, -323799.6, 32713.791, -0.005984769, 0.42759603, -313237.44, -196750.19, 0.0, 9.998388, 9.999553 
2.7245358e+3, 2.9811585e+2, -399285.16, -272729.53, -12001.646, 0.04683722, 0.36610928, -271601.44, -253099.8, 0.0, 9.997849, 9.999494 
2.7244282e+3, 3.0811527e+2, -288127.38, -123157.34, -101664.914, -0.04223476, 0.37922618, -74724.32, -74724.32, 0.0, 9.997969, 10.000128 
2.724322e+3, 3.181149e+2, -272210.38, 72577.85, 222462.38, -0.008571174, 0.37704992, 181625.1, 181625.1, 0.0, 9.997267, 10.001811 
2.7363148e+3, 1.2824945e+2, -1320314.4, -1712820.1, 56208.863, 0.0025420862, 0.30539423, -1312423.6, 370763.16, 0.0114913685, 10.003574, 9.998287 
2.736212e+3, 1.3824748e+2, -1293347.1, -1636904.8, 23838.56, 0.08997355, 0.33226916, -1291700.9, 293508.4, 0.006340254, 10.003002, 9.998415 
2.7361065e+3, 1.4824642e+2, -1202657.8, -1452542.5, -8986.291, 0.001489648, 0.39293554, -1202335.0, 284886.66, 0.002470411, 10.002559, 9.999216 
2.736e+3, 1.5824564e+2, -1174912.8, -1416465.4, 7633.1875, -0.08737613, 0.44929937, -1174671.9, 214559.13, 0.0005753764, 10.002193, 9.998968 
2.7358964e+3, 1.6824344e+2, -1067928.8, -1315851.3, 51147.867, -0.022409402, 0.39586797, -1057791.3, 233460.81, 0.000061933584, 10.002274, 9.998941 
2.7357936e+3, 1.7824097e+2, -964751.75, -1247643.6, 37582.035, 0.06878869, 0.31387705, -959844.1, 233431.2, 0.0000011486238, 10.002444, 9.998658 
2.735688e+3, 1.8823871e+2, -912457.6, -1184321.0, 8637.2295, 0.038604364, 0.29143023, -912183.5, 183113.55, 0.0, 10.002191, 9.998537 
2.735583e+3, 1.9823669e+2, -876762.44, -1119968.0, -1684.3575, -0.023534572, 0.2895168, -876750.8, 120565.98, 0.0, 10.001775, 9.99851 
2.735478e+3, 2.0823547e+2, -818050.2, -996572.4, 22397.785, -0.011394085, 0.3505893, -815283.0, 84046.31, 0.0, 10.001319, 9.998902 
2.7353737e+3, 2.1823448e+2, -806707.6, -965162.94, 38139.84, 0.020028332, 0.420916, -798005.4, 3334.288, 0.0, 10.000825, 9.998686 
2.735269e+3, 2.2823218e+2, -714332.2, -867266.94, 38020.914, 0.032626938, 0.38150123, -705401.4, -2039.8795, 0.0, 10.000779, 9.998705 
2.7351642e+3, 2.3822965e+2, -630621.25, -802720.0, 44048.676, 0.039578162, 0.31726912, -620002.25, -14616.942, 0.0, 10.000792, 9.99847 
2.735059e+3, 2.4822801e+2, -617769.8, -751895.0, 18799.6, 0.044163316, 0.37120625, -615184.6, -107781.586, 0.0, 10.000236, 9.998413 
2.7349532e+3, 2.5822672e+2, -607251.06, -665661.1, 14409.673, 0.032144427, 0.45192483, -603889.6, -194471.72, 0.0, 9.999501, 9.998689 
2.7348477e+3, 2.6822522e+2, -483456.5, -432902.3, 27377.06, -0.033559132, 0.42101648, -420917.7, -109486.055, 0.0, 9.999151, 9.999781 
2.7347425e+3, 2.7822378e+2, -448848.66, -407331.25, 38953.313, -0.07470839, 0.3610707, -383950.6, -170506.77, 0.0, 9.998891, 9.9994135 
2.7346382e+3, 2.882228e+2, -444279.22, -384474.4, 7924.3125, 0.001595369, 0.39984187, -383442.22, -267987.28, 0.0, 9.998377, 9.9991455 
2.7345327e+3, 2.9822195e+2, -421930.16, -314396.03, -25510.254, -0.00980852, 0.45857355, -308651.2, -291186.3, 0.0, 9.997821, 9.999224 
2.7344263e+3, 3.082193e+2, -274350.25, -108814.77, -87922.734, 0.028635513, 0.2656157, -70831.09, -70831.09, 0.0, 9.998027, 10.000199 
2.7343184e+3, 3.1821957e+2, -219872.53, 164893.58, -91931.39, -0.038640823, 0.31351808, 185730.19, 185730.19, 0.0, 9.997311, 10.002437 
2.7463186e+3, 1.2835509e+2, -1232460.0, -1672436.9, 86871.1, 0.03680793, 0.31841913, -1215928.9, 466224.63, 0.00795745, 10.004178, 9.998278 
2.7462146e+3, 1.3835287e+2, -1234306.0, -1605431.4, 57258.266, 0.06628057, 0.32483447, -1225672.9, 358504.84, 0.004260192, 10.003394, 9.998443 
2.7461082e+3, 1.4835188e+2, -1179203.6, -1437651.5, 20684.738, -0.017666792, 0.39026287, -1177558.5, 308631.2, 0.0015881113, 10.002712, 9.999241 
2.746002e+3, 1.5835127e+2, -1180207.3, -1407530.9, 28382.389, -0.08104779, 0.4623634, -1176717.1, 211480.73, 0.00034892597, 10.002112, 9.999067 
2.745898e+3, 1.6834936e+2, -1127831.1, -1320657.8, 84494.05, -0.020463865, 0.42005348, -1096046.4, 194169.89, 0.000033543303, 10.0017605, 9.999155 
2.7457947e+3, 1.7834713e+2, -1090147.8, -1290595.0, 74664.195, 0.061459813, 0.3442334, -1065393.3, 126843.625, 0.00000040337267, 10.001512, 9.99881 
2.7456895e+3, 1.8834502e+2, -1016977.9, -1233251.1, 62546.813, 0.04200375, 0.33120495, -1000191.94, 94066.04, 0.0, 10.001472, 9.998546 
2.745584e+3, 1.9834313e+2, -912333.5, -1120888.8, 70568.484, -0.0013968496, 0.3426339, -890699.5, 105577.74, 0.0, 10.001467, 9.998651 
2.7454787e+3, 2.0834206e+2, -824622.1, -954121.25, 82299.79, 0.00040959046, 0.3902006, -784654.2, 113633.08, 0.0, 10.001083, 9.999304 
2.745374e+3, 2.1834122e+2, -819471.94, -945726.2, 90737.33, 0.017233683, 0.43942216, -772062.6, 28232.12, 0.0, 10.000635, 9.998907 
2.745269e+3, 2.2833878e+2, -730491.1, -894563.3, 80679.1, 0.025687778, 0.39175943, -697466.2, 4851.99, 0.0, 10.000757, 9.998526 
2.7451643e+3, 2.3833604e+2, -606605.6, -798802.56, 46811.875, 0.03988065, 0.32389924, -595810.4, 8534.178, 0.0, 10.000996, 9.998398 
2.7450585e+3, 2.483346e+2, -555645.56, -708473.25, 26386.877, 0.044304516, 0.39152342, -551217.94, -44857.777, 0.0, 10.00061, 9.998528 
2.7449524e+3, 2.5833356e+2, -531600.7, -625229.56, 67962.83, 0.031149253, 0.48942938, -495889.16, -87517.11, 0.0, 10.000009, 9.998719 
2.7448466e+3, 2.683317e+2, -419263.28, -419692.9, 75102.49, -0.023936288, 0.43473685, -344375.3, -33986.79, 0.0, 9.999677, 9.999616 
2.744741e+3, 2.7832976e+2, -393582.03, -389813.3, 45865.594, -0.04302972, 0.34048313, -345793.38, -133388.52, 0.0, 9.99932, 9.999323 
2.744636e+3, 2.883289e+2, -457566.66, -384481.22, 18603.367, 0.012829701, 0.39269012, -380018.4, -265603.4, 0.0, 9.998265, 9.999196 
2.7445292e+3, 2.983283e+2, -532043.0, -371075.97, 36590.977, -0.03598749, 0.47240242, -363148.53, -346725.13, 0.0, 9.997085, 9.999188 
2.744424e+3, 3.0832496e+2, -385667.84, -186905.86, 107.09324, 0.09032896, 0.22775163, -186905.8, -186905.8, 0.0, 9.997368, 9.999982 
2.7443153e+3, 3.1832594e+2, -96963.555, 240997.9, -144235.67, -0.06698437, 0.3656324, 294184.72, 294184.72, 0.0, 9.998091, 10.002581 
2.7563226e+3, 1.2846121e+2, -1239909.1, -1667281.4, 55483.793, 0.074613474, 0.31447947, -1232823.4, 448293.13, 0.0052135224, 10.00408, 9.998358 
2.756217e+3, 1.3845934e+2, -1236853.5, -1608722.6, 32286.754, 0.028441252, 0.3468982, -1234071.0, 349064.44, 0.002698696, 10.003379, 9.998429 
2.7561104e+3, 1.4845787e+2, -1186085.8, -1462809.4, -989.4351, -0.016249878, 0.377672, -1186082.1, 299069.94, 0.0009584998, 10.002753, 9.99905 
2.756004e+3, 1.5845667e+2, -1174367.0, -1407551.0, 11386.063, -0.012001593, 0.40637183, -1173812.4, 213354.14, 0.000196883, 10.002162, 9.999044 
2.7558997e+3, 1.6845573e+2, -1103098.4, -1279098.9, 74134.336, 0.017109454, 0.44483355, -1076033.8, 213142.5, 0.000016382339, 10.0018, 9.999423 
2.7557954e+3, 1.7845488e+2, -1071075.9, -1252312.6, 67156.86, 0.037640367, 0.48024687, -1048903.5, 142281.05, 0.00000009587778, 10.0015135, 9.999074 
2.7556905e+3, 1.884532e+2, -997376.94, -1191952.4, 62411.73, 0.025188627, 0.48226404, -979078.6, 114123.14, 0.0, 10.001468, 9.998833 
2.755585e+3, 1.9845141e+2, -897619.4, -1083520.9, 63334.734, 0.009326113, 0.47549078, -878092.9, 117127.1, 0.0, 10.001434, 9.998925 
2.7554798e+3, 2.0844992e+2, -808697.25, -923535.2, 61104.008, 0.0412103, 0.45643958, -782267.3, 114964.47, 0.0, 10.001089, 9.999513 
2.7553746e+3, 2.1844853e+2, -821004.56, -954599.06, 79874.125, 0.07615809, 0.43425617, -783678.1, 15563.971, 0.0, 10.000655, 9.998838 
2.7552694e+3, 2.2844598e+2, -772528.44, -982109.4, 90528.3, 0.018692784, 0.41773137, -738839.94, -37571.62, 0.0, 10.000755, 9.997928 
2.755164e+3, 2.3844324e+2, -622973.56, -825963.9, 46673.17, -0.053860474, 0.4015264, -612756.4, -9458.857, 0.0, 10.000962, 9.998229 
2.755058e+3, 2.484414e+2, -508974.4, -610669.44, 4375.869, -0.016712297, 0.38954797, -508786.47, -3471.8982, 0.0, 10.000603, 9.999205 
2.754952e+3, 2.584399e+2, -508667.63, -585579.56, 50478.4, 0.03417273, 0.38260764, -483665.5, -76338.25, 0.0, 10.000039, 9.99898 
2.7548462e+3, 2.6843837e+2, -462117.6, -513845.8, 63553.926, 0.01645496, 0.3927623, -419366.44, -110024.28, 0.0, 9.999694, 9.998963 
2.7547407e+3, 2.784369e+2, -406159.63, -423246.7, 20731.043, 0.0084262015, 0.40341228, -392280.66, -180924.0, 0.0, 9.999348, 9.999083 
2.7546337e+3, 2.884358e+2, -420463.5, -302328.3, -30873.693, 0.021589842, 0.40227512, -294746.34, -181378.98, 0.0, 9.998241, 9.999773 
2.7545255e+3, 2.984349e+2, -523142.38, -341149.47, 18191.854, -0.04379076, 0.39816096, -339348.84, -323972.47, 0.0, 9.997031, 9.999421 
2.7544215e+3, 3.084327e+2, -423355.88, -266662.94, 29443.951, 0.15733685, 0.29725194, -261312.84, -261312.84, 0.0, 9.997364, 9.999441 
2.7543128e+3, 3.1843394e+2, -121543.2, 183228.77, 27206.957, -0.06903976, 0.51013994, 185638.48, 185638.48, 0.0, 9.998149, 10.002139 
2.766326e+3, 1.285689e+2, -1301509.6, -1656223.4, 79860.51, 0.088713504, 0.4144694, -1284359.0, 395706.22, 0.003191517, 10.0034685, 9.998732 
2.7662194e+3, 1.3856667e+2, -1233571.9, -1591781.5, 64043.52, -0.022782063, 0.37875766, -1222466.0, 359619.22, 0.0015897851, 10.003334, 9.998567 
2.7661124e+3, 1.4856488e+2, -1180447.1, -1497049.8, 26633.238, -0.06613182, 0.39730254, -1178222.4, 305882.75, 0.00053413125, 10.002954, 9.998717 
2.766006e+3, 1.5856336e+2, -1134680.9, -1407040.9, 31624.51, -0.034916315, 0.4263013, -1131057.0, 255066.36, 0.00010047921, 10.002518, 9.998875 
2.765901e+3, 1.6856252e+2, -1053772.1, -1242752.9, 88247.164, 0.021651639, 0.47241932, -1018972.2, 269159.78, 0.000006741736, 10.002092, 9.999528 
2.7657968e+3, 1.7856191e+2, -1035516.94, -1217213.1, 73958.42, 0.06299898, 0.5209615, -1009218.8, 180918.64, 0.00000000965895, 10.001691, 9.999226 
2.7656913e+3, 1.8856038e+2, -1000398.56, -1170270.5, 68063.52, 0.025157293, 0.5208753, -976491.7, 115661.15, 0.0, 10.001352, 9.999035 
2.7655855e+3, 1.9855864e+2, -946008.0, -1100703.6, 62434.93, -0.016591046, 0.50201106, -923953.56, 70216.7, 0.0, 10.001078, 9.998977 
2.7654806e+3, 2.0855673e+2, -802334.56, -950083.4, 36308.03, 0.03639085, 0.4554656, -793894.3, 102292.04, 0.0, 10.001265, 9.999245 
2.7653754e+3, 2.1855487e+2, -701863.94, -894727.5, 20870.436, 0.101308554, 0.40786132, -699631.3, 98569.8, 0.0, 10.001469, 9.998856 
2.7652693e+3, 2.2855301e+2, -788782.6, -929030.3, 71753.99, 0.023477955, 0.4235216, -758577.06, -58357.324, 0.0, 10.000388, 9.998466 
2.7651632e+3, 2.3855115e+2, -874840.3, -913677.4, 111633.78, -0.07589334, 0.44725546, -780948.75, -178709.27, 0.0, 9.999094, 9.998524 
2.7650574e+3, 2.485488e+2, -646040.94, -693389.1, 61301.33, -0.035601586, 0.3887694, -604001.1, -99740.13, 0.0, 9.999739, 9.99905 
2.7649516e+3, 2.5854656e+2, -414565.56, -553707.56, 36069.02, 0.033092525, 0.31877607, -405771.4, 509.65973, 0.0, 10.0007515, 9.998851 
2.7648455e+3, 2.6854524e+2, -426514.72, -512896.78, 40002.246, 0.020695003, 0.36418667, -410836.03, -102541.28, 0.0, 10.000012, 9.998815 
2.7647394e+3, 2.785442e+2, -481981.88, -463821.28, 33948.76, 0.014645386, 0.43204775, -437759.44, -227453.19, 0.0, 9.998847, 9.9990425 
2.7646318e+3, 2.8854316e+2, -322503.47, -237591.78, -32209.389, 0.036060803, 0.4292934, -226756.5, -114440.66, 0.0, 9.998846, 9.999922 
2.7645233e+3, 2.985422e+2, -243832.89, -211637.45, -10249.638, -0.003756089, 0.40841612, -208651.38, -194326.78, 0.0, 9.9989805, 9.999367 
2.7644184e+3, 3.0854005e+2, -339250.5, -279470.47, 12201.491, 0.12977214, 0.34188598, -277075.97, -277075.97, 0.0, 9.998181, 9.998954 
2.7643102e+3, 3.1854063e+2, -231555.88, 83096.7, 40935.137, -0.051958453, 0.5352115, 88335.01, 88335.01, 0.0, 9.997608, 10.001706 
2.7763286e+3, 1.2867773e+2, -1250760.0, -1574801.5, 71466.11, 0.07742536, 0.5794766, -1235698.5, 443304.94, 0.0017936034, 10.00357, 9.999241 
2.7762213e+3, 1.3867465e+2, -1239438.1, -1575701.9, 48752.9, -0.09056302, 0.41613418, -1232512.4, 348516.2, 0.00085352664, 10.003209, 9.998737 
2.7761137e+3, 1.4867266e+2, -1219489.5, -1564822.1, 7032.372, -0.15241387, 0.436808, -1219346.4, 263704.5, 0.00026741473, 10.002892, 9.998284 
2.7760068e+3, 1.5867104e+2, -1151792.3, -1446680.9, 17404.611, -0.12364805, 0.49608913, -1150768.5, 234302.72, 0.00004408745, 10.002533, 9.998597 
2.7759025e+3, 1.6866969e+2, -1050761.0, -1244651.8, 74751.75, 0.00038100916, 0.5018827, -1025288.1, 261795.39, 0.0000020107127, 10.002126, 9.9995 
2.7757984e+3, 1.7866848e+2, -1031324.06, -1211707.5, 60230.88, 0.11528426, 0.49365807, -1013061.6, 176031.4, 0.00000000000031198744, 10.001702, 9.99926 
2.775692e+3, 1.8866687e+2, -987029.9, -1150060.0, 55545.625, 0.034194995, 0.473018, -969904.06, 121204.55, 0.0, 10.001381, 9.999163 
2.7755854e+3, 1.9866511e+2, -954387.2, -1123582.4, 57589.85, -0.07865388, 0.44563898, -936645.44, 56480.39, 0.0, 10.001098, 9.998812 
2.7754807e+3, 2.086627e+2, -850611.1, -1049739.4, 48582.613, -0.009798072, 0.4008039, -839390.4, 55758.285, 0.0, 10.001261, 9.998563 
2.775376e+3, 2.1866038e+2, -701432.7, -881355.94, 11224.903, 0.08949402, 0.36036623, -700735.1, 96435.1, 0.0, 10.001412, 9.998977 
2.7752692e+3, 2.2865993e+2, -681562.3, -705711.5, 17769.068, 0.038045026, 0.4075834, -672153.5, 27018.438, 0.0, 10.000381, 10.000004 
2.775162e+3, 2.3865977e+2, -825226.3, -818539.06, 91261.695, -0.043237556, 0.46570948, -730559.75, -129389.08, 0.0, 9.999125, 9.999164 
2.775057e+3, 2.4865684e+2, -710822.4, -834209.44, 104425.87, -0.018419141, 0.3933979, -651227.6, -148028.0, 0.0, 9.999763, 9.9980755 
2.7749518e+3, 2.5865346e+2, -445710.6, -624782.3, 46572.03, 0.018677266, 0.29981694, -434322.6, -29088.855, 0.0, 10.000775, 9.998354 
2.7748445e+3, 2.6865223e+2, -401802.0, -460345.9, -8593.42, -0.017069679, 0.34607884, -400566.66, -93319.87, 0.0, 10.000005, 9.999181 
2.7747372e+3, 2.7865165e+2, -474075.97, -445547.13, 8785.144, -0.037634753, 0.4258884, -443058.84, -233805.28, 0.0, 9.9988365, 9.999174 
2.7746305e+3, 2.8865096e+2, -343481.4, -292474.7, -21270.45, 0.05696972, 0.48021019, -284768.8, -173508.02, 0.0, 9.998888, 9.999529 
2.774523e+3, 2.9865018e+2, -249187.23, -257358.1, -23539.68, 0.07763136, 0.51426333, -229381.1, -216111.78, 0.0, 9.999124, 9.998986 
2.7744144e+3, 3.0864662e+2, -367324.66, -341571.25, -34525.324, -0.033564545, 0.34689024, -317599.53, -317599.53, 0.0, 9.998198, 9.998521 
2.7743086e+3, 3.1864563e+2, -267828.97, -574.1772, -28672.27, 0.07353107, 0.43581176, 2467.2966, 2467.2966, 0.0, 9.99759, 10.001167 
2.7863318e+3, 1.287848e+2, -1185591.3, -1574022.9, 39882.355, 0.043010194, 0.5510335, -1181538.6, 496414.78, 0.0009040645, 10.004141, 9.998971 
2.786224e+3, 1.3878171e+2, -1374730.3, -1644049.8, -1133.4146, -0.06363582, 0.40779412, -1374725.5, 205255.36, 0.0004065626, 10.002291, 9.998711 
2.786116e+3, 1.4878011e+2, -1282294.8, -1556337.9, 19403.568, -0.12420139, 0.44397917, -1280927.8, 201070.78, 0.000115627714, 10.0023, 9.998625 
2.786009e+3, 1.5877888e+2, -1108761.9, -1408165.5, 60489.7, -0.10944113, 0.5129829, -1097002.8, 287010.56, 0.000015289292, 10.002758, 9.99875 
2.7859038e+3, 1.6877697e+2, -1027106.56, -1257748.1, 101410.34, -0.025873091, 0.47493562, -988859.94, 297170.13, 0.00000031509992, 10.002393, 9.999282 
2.7857992e+3, 1.7877504e+2, -1022377.56, -1230472.3, 78446.66, 0.054678112, 0.4159063, -996118.6, 191927.75, 0.0, 10.001858, 9.999058 
2.7856928e+3, 1.8877356e+2, -945932.06, -1147674.9, 65683.38, 0.012488811, 0.42754838, -926431.75, 163629.97, 0.0, 10.001743, 9.9990015 
2.7855864e+3, 1.9877219e+2, -869162.56, -1082439.1, 52920.957, -0.05165026, 0.45143214, -856753.2, 135323.42, 0.0, 10.001696, 9.998801 
2.7854812e+3, 2.0877e+2, -859456.2, -1034069.25, 83015.51, -0.018628191, 0.41788676, -826288.6, 67809.01, 0.0, 10.001121, 9.998735 
2.785376e+3, 2.1876779e+2, -826187.9, -924611.6, 88418.664, 0.03996833, 0.3742166, -774208.5, 21909.748, 0.0, 10.000485, 9.999125 
2.7852693e+3, 2.287672e+2, -636110.9, -672603.06, 20275.355, 0.033876054, 0.3972638, -627080.44, 71040.28, 0.0, 10.0006485, 10.0001 
2.785162e+3, 2.3876692e+2, -558556.75, -680325.06, 10371.318, 0.015802497, 0.43217704, -557679.75, 42440.03, 0.0, 10.000919, 9.999246 
2.7850565e+3, 2.4876437e+2, -653326.4, -803663.06, 73392.18, 0.021435192, 0.39059725, -623439.06, -121293.61, 0.0, 10.000151, 9.998095 
2.784951e+3, 2.5876135e+2, -673335.2, -724703.06, 74426.81, 0.023155035, 0.3331694, -620285.3, -216108.8, 0.0, 9.999173, 9.998437 
2.7848434e+3, 2.6876e+2, -520096.06, -493593.25, 7847.165, -0.019050924, 0.3515418, -491444.06, -185253.8, 0.0, 9.999099, 9.999384 
2.7847353e+3, 2.787592e+2, -429713.0, -419327.7, 18985.486, -0.031143378, 0.39411825, -404837.56, -196639.11, 0.0, 9.999132, 9.9992075 
2.7846283e+3, 2.8875852e+2, -387647.0, -344790.97, 5898.305, 0.044770315, 0.46354455, -343994.0, -233787.02, 0.0, 9.998726, 9.999244 
2.7845204e+3, 2.9875767e+2, -383036.03, -348201.06, 10679.905, 0.037968837, 0.5250623, -345187.47, -332970.56, 0.0, 9.998324, 9.998745 
2.7844125e+3, 3.08754e+2, -266723.84, -301239.8, 10247.227, -0.023706485, 0.36230597, -263910.88, -263910.88, 0.0, 9.998933, 9.998438 
2.784307e+3, 3.1875235e+2, -109457.13, 114703.7, -8278.778, 0.18304034, 0.3854494, 115009.04, 115009.04, 0.0, 9.998517, 10.00151 
2.7963346e+3, 1.2889095e+2, -1280121.1, -1698657.6, -39347.418, -0.008959509, 0.40940246, -1276454.1, 400455.4, 0.00039795716, 10.003835, 9.998261 
2.7962264e+3, 1.3888837e+2, -1369687.6, -1654509.5, -35120.785, 0.017861009, 0.37705198, -1365420.9, 213516.19, 0.00016627838, 10.00238, 9.998596 
2.7961186e+3, 1.488875e+2, -1202863.3, -1425050.5, 40086.676, -0.028110726, 0.4331293, -1195852.1, 285093.28, 0.000040828676, 10.002441, 9.999459 
2.796012e+3, 1.5888695e+2, -1072711.5, -1348671.4, 61368.36, -0.03837471, 0.49452525, -1059679.8, 323270.34, 0.0000036815343, 10.002823, 9.999128 
2.7959052e+3, 1.6888441e+2, -1049906.5, -1311572.4, 75371.14, -0.06105616, 0.4061186, -1029749.2, 255223.3, 0.000000010797318, 10.002418, 9.998901 
2.7957988e+3, 1.7888162e+2, -1051319.8, -1288747.8, 61522.164, -0.09122539, 0.29947898, -1036325.1, 150672.44, 0.0, 10.001847, 9.998665 
2.7956936e+3, 1.8888049e+2, -974938.0, -1205383.5, 65038.703, -0.033390265, 0.38654077, -957849.3, 131162.56, 0.0, 10.001732, 9.998612 
2.7955887e+3, 1.9887982e+2, -868978.2, -1070908.0, 43784.574, 0.035750553, 0.50788164, -859893.06, 131129.7, 0.0, 10.001645, 9.998906 
2.795482e+3, 2.0887846e+2, -799617.25, -907219.9, 56013.074, -0.0013064785, 0.4935077, -775752.3, 117282.44, 0.0, 10.001105, 9.999616 
2.795375e+3, 2.1887694e+2, -821265.25, -913231.4, 75194.84, -0.05384299, 0.44467622, -779108.06, 15939.176, 0.0, 10.000479, 9.9992075 
2.7952692e+3, 2.2887477e+2, -720551.25, -850474.25, 33446.883, 0.011438615, 0.39289123, -712446.44, -15379.885, 0.0, 10.000656, 9.998878 
2.795163e+3, 2.3887263e+2, -587312.3, -738891.8, 4626.456, 0.094777845, 0.34852365, -587171.25, 11914.596, 0.0, 10.000911, 9.99885 
2.795057e+3, 2.4887134e+2, -586351.2, -662958.2, 33846.984, 0.07986613, 0.37915695, -573539.4, -72441.06, 0.0, 10.000141, 9.999066 
2.79495e+3, 2.5887024e+2, -627615.9, -632810.44, 51341.87, 0.03256718, 0.42042717, -578805.6, -175696.47, 0.0, 9.999184, 9.999064 
2.7948424e+3, 2.6886854e+2, -519127.7, -492985.13, 11728.031, 0.014687421, 0.38198116, -488494.94, -183369.78, 0.0, 9.999099, 9.999391 
2.7947345e+3, 2.788668e+2, -430745.97, -429261.5, 12530.389, 0.02880191, 0.33212066, -417451.38, -210309.88, 0.0, 9.999162, 9.999126 
2.794626e+3, 2.888656e+2, -403121.22, -373185.6, -16988.54, -0.014827063, 0.3687917, -365511.72, -256356.19, 0.0, 9.998709, 9.999058 
2.7945167e+3, 2.988646e+2, -398980.63, -365833.88, 14274.684, -0.14182478, 0.42818382, -360533.88, -349365.5, 0.0, 9.998255, 9.998658 
2.7944133e+3, 3.0886227e+2, -238333.47, -261702.61, 46111.754, 0.20743836, 0.39055452, -202448.89, -202448.89, 0.0, 9.999007, 9.998679 
2.794304e+3, 3.1886125e+2, -17770.363, 306142.97, -157578.48, 0.058806635, 0.42291266, 370153.0, 370153.0, 0.0, 9.998533, 10.002809 
2.806337e+3, 1.2899831e+2, -1510924.3, -1793386.9, -23841.656, -0.011813625, 0.36395666, -1508926.0, 166929.98, 0.00014871046, 10.002177, 9.998411 
2.8062284e+3, 1.3899639e+2, -1285703.1, -1603966.0, 22226.455, 0.01568563, 0.3887913, -1284158.4, 293719.66, 0.000055979992, 10.002914, 9.998687 
2.806121e+3, 1.4899531e+2, -1093426.5, -1374505.4, 79637.734, -0.024628267, 0.42222488, -1072431.1, 407456.78, 0.000010816192, 10.003204, 9.999439 
2.8060147e+3, 1.5899438e+2, -1005099.25, -1326342.1, 39201.55, -0.024767404, 0.44831404, -1000384.6, 381510.66, 0.0000004996016, 10.003331, 9.999038 
2.8059074e+3, 1.6899191e+2, -1024375.2, -1322633.0, 30260.025, -0.04294231, 0.3844017, -1021336.1, 262581.84, 0.000000000000026948692, 10.002703, 9.998686 
2.8058004e+3, 1.7898928e+2, -1042206.0, -1287324.6, 36806.164, -0.076300114, 0.31096753, -1036798.56, 149144.1, 0.0, 10.001938, 9.998624 
2.8056946e+3, 1.8898809e+2, -999565.3, -1203090.9, 78804.375, -0.040013485, 0.38267276, -972619.94, 115336.914, 0.0, 10.001504, 9.998736 
2.805589e+3, 1.9898729e+2, -928720.0, -1084245.8, 79358.55, 0.01869935, 0.48143265, -895375.5, 94592.234, 0.0, 10.0011635, 9.999048 
2.8054821e+3, 2.0898627e+2, -817660.5, -896781.44, 52966.707, -0.0043085297, 0.48529568, -791111.2, 100865.555, 0.0, 10.000903, 9.999783 
2.8053752e+3, 2.1898511e+2, -795077.9, -907438.1, 40969.49, -0.043020986, 0.4613249, -781725.94, 12260.309, 0.0, 10.000694, 9.99914 
2.805269e+3, 2.289825e+2, -733978.3, -907412.56, 49463.0, 0.0042698192, 0.39707115, -720863.3, -24852.08, 0.0, 10.000788, 9.998421 
2.8051633e+3, 2.3897976e+2, -601875.7, -757566.8, 50803.867, 0.07369605, 0.33293465, -586764.44, 11273.313, 0.0, 10.000865, 9.998742 
2.8050563e+3, 2.4897887e+2, -542985.0, -592696.8, 30246.012, 0.059907414, 0.3783185, -528692.0, -28646.27, 0.0, 10.000231, 9.999504 
2.8049487e+3, 2.589784e+2, -570545.5, -573463.4, 24189.885, 0.021298584, 0.44274515, -547770.56, -145721.19, 0.0, 9.999446, 9.999343 
2.804841e+3, 2.689767e+2, -484144.5, -478290.28, 44.607925, 0.020085268, 0.3966694, -478289.97, -174224.69, 0.0, 9.999351, 9.99937 
2.8047335e+3, 2.7897477e+2, -397723.28, -411270.88, -6889.2646, 0.052006993, 0.32778552, -394835.5, -188751.88, 0.0, 9.999376, 9.999148 
2.8046244e+3, 2.8897354e+2, -331689.1, -326330.06, -30432.475, -0.0038007938, 0.35243556, -298459.38, -190362.05, 0.0, 9.999147, 9.999167 
2.8045145e+3, 2.989726e+2, -312992.94, -297927.1, 33416.063, -0.14273873, 0.4041074, -271205.4, -261096.42, 0.0, 9.998736, 9.99889 
2.8044116e+3, 3.0897084e+2, -351277.94, -265540.72, 101433.01, 0.24809451, 0.38779235, -198289.53, -198289.53, 0.0, 9.998017, 9.999126 
2.8043005e+3, 3.189703e+2, -63644.0, 280102.25, -169445.5, -0.054105002, 0.43201917, 349583.94, 349583.94, 0.0, 9.998242, 10.002763 
2.8163385e+3, 1.2910658e+2, -1443140.6, -1690608.4, 9037.46, -0.0030913833, 0.37877747, -1442811.0, 231983.83, 0.000045692002, 10.002349, 9.99903 
2.8162304e+3, 1.3910541e+2, -1274383.9, -1584743.3, 41880.05, -0.05039613, 0.42339936, -1268831.9, 307976.8, 0.000014816526, 10.002934, 9.998808 
2.816123e+3, 1.4910346e+2, -1146197.9, -1469589.1, 84909.07, -0.0833383, 0.41010264, -1125259.9, 353567.03, 0.0000019360568, 10.003138, 9.99882 
2.816017e+3, 1.5910144e+2, -1052769.9, -1394359.6, 30994.566, -0.049911156, 0.38556653, -1049980.4, 330865.25, 0.000000031512783, 10.003196, 9.998638 
2.8159103e+3, 1.690996e+2, -1037087.94, -1336700.5, 2535.2666, 0.009698911, 0.40034804, -1037066.5, 245797.73, 0.0, 10.002647, 9.998617 
2.815803e+3, 1.7909786e+2, -1028805.4, -1262114.3, 17624.527, 0.04281198, 0.41807428, -1027481.5, 157400.56, 0.0, 10.001946, 9.998795 
2.8156957e+3, 1.8909623e+2, -958517.94, -1127245.4, 67732.0, -0.023990015, 0.40415478, -934692.7, 152204.48, 0.0, 10.001542, 9.99924 
2.8155887e+3, 1.9909471e+2, -917184.0, -1065353.5, 67139.11, -0.0902719, 0.38936946, -891287.7, 97623.15, 0.0, 10.0011835, 9.999169 
2.8154823e+3, 2.0909359e+2, -847730.8, -962510.25, 43741.934, -0.023107534, 0.40920976, -832961.44, 57960.875, 0.0, 10.000916, 9.999328 
2.8153762e+3, 2.1909247e+2, -812551.56, -937082.0, 38502.56, 0.05116367, 0.4301868, -801608.8, -8675.039, 0.0, 10.000664, 9.998952 
2.8152692e+3, 2.2909038e+2, -718704.25, -875323.8, 56365.973, 0.0038806952, 0.4091586, -700528.06, -5573.386, 0.0, 10.000784, 9.998644 
2.8151622e+3, 2.3908821e+2, -593414.25, -740878.5, 42159.75, -0.05710668, 0.38197997, -582211.9, 14764.307, 0.0, 10.000866, 9.9988575 
2.815055e+3, 2.4908692e+2, -549851.0, -606795.75, -1446.3408, -0.03807211, 0.3879519, -549814.25, -50826.297, 0.0, 10.000226, 9.999411 
2.814947e+3, 2.5908583e+2, -574344.5, -584517.44, 5847.2153, -0.016310439, 0.40096265, -571681.0, -170683.64, 0.0, 9.999456, 9.999264 
2.8148395e+3, 2.6908448e+2, -487486.28, -487690.13, 1334.3282, -0.008621676, 0.39719033, -486250.0, -183238.9, 0.0, 9.99936, 9.999302 
2.8147322e+3, 2.7908316e+2, -383179.72, -385970.1, -10806.858, 0.027872218, 0.3913598, -373678.38, -168653.66, 0.0, 9.999394, 9.999314 
2.814624e+3, 2.890824e+2, -297109.78, -260841.02, -43049.95, 0.09134736, 0.42547575, -232261.86, -125230.15, 0.0, 9.999169, 9.999609 
2.8145143e+3, 2.990817e+2, -260601.23, -201229.69, 12649.091, 0.049248625, 0.45801923, -198647.14, -189609.45, 0.0, 9.998786, 9.999533 
2.8144068e+3, 3.090799e+2, -309609.28, -162030.63, 69440.65, 0.025919432, 0.35745305, -134494.39, -134494.39, 0.0, 9.997942, 9.999875 
2.8142992e+3, 3.1907922e+2, -182830.89, 14979.6455, -4268.874, 0.04807721, 0.371585, 15071.728, 15071.728, 0.0, 9.998296, 10.000926 
2.826341e+3, 1.2921554e+2, -1341366.8, -1687060.8, 73415.94, 0.006465614, 0.37235367, -1326421.3, 347303.44, 0.000011731582, 10.003233, 9.998634 
2.8262326e+3, 1.3921416e+2, -1256827.9, -1611903.9, 46224.887, -0.049507137, 0.4330212, -1250908.9, 324833.03, 0.0000031331915, 10.003208, 9.998489 
2.8261256e+3, 1.4921185e+2, -1251857.9, -1551727.3, 83655.32, -0.072908394, 0.41240305, -1230099.3, 247665.48, 0.00000021379067, 10.002554, 9.998535 
2.8260192e+3, 1.5920947e+2, -1247104.0, -1493532.1, 49548.504, -0.02899181, 0.37786108, -1237514.5, 142273.03, 0.0, 10.00189, 9.998583 
2.825912e+3, 1.6920811e+2, -1126054.8, -1356719.9, 39877.91, 0.0040989327, 0.42816514, -1119355.1, 162446.88, 0.0, 10.001939, 9.998822 
2.825804e+3, 1.7920691e+2, -991246.9, -1227214.0, 66061.54, 0.014347947, 0.48320255, -974011.2, 209803.64, 0.0, 10.002127, 9.998951 
2.8256968e+3, 1.8920477e+2, -878458.6, -1077336.8, 98167.74, -0.042232122, 0.4084142, -838165.7, 247667.22, 0.0, 10.0020485, 9.999337 
2.8255895e+3, 1.992026e+2, -821344.6, -1021349.7, 70792.055, -0.09390067, 0.32030693, -798823.6, 189027.33, 0.0, 10.0018635, 9.999138 
2.825483e+3, 2.0920144e+2, -822178.6, -980834.44, 46493.156, -0.009190967, 0.3590087, -809558.0, 80305.61, 0.0, 10.001229, 9.999046 
2.8253767e+3, 2.1920049e+2, -827588.4, -947264.5, 64426.043, 0.08563518, 0.41917723, -799498.56, -7623.228, 0.0, 10.000575, 9.998923 
2.8252694e+3, 2.291989e+2, -730210.6, -844477.1, 103500.82, -0.01315727, 0.42657262, -669121.06, 24770.43, 0.0, 10.000551, 9.998966 
2.8251615e+3, 2.3919724e+2, -624640.6, -738481.6, 79061.42, -0.1275336, 0.42253414, -584141.2, 11766.725, 0.0, 10.000581, 9.999008 
2.8250542e+3, 2.4919565e+2, -586563.2, -637777.6, 15560.858, -0.05940422, 0.40549046, -582205.94, -84283.58, 0.0, 10.000032, 9.99929 
2.8249463e+3, 2.5919417e+2, -587836.56, -599081.94, 33948.613, 0.026163, 0.3878943, -559048.2, -159112.2, 0.0, 9.999397, 9.999193 
2.8248385e+3, 2.691929e+2, -503244.13, -494573.25, 49050.996, -0.0023890892, 0.3990206, -449666.47, -147717.45, 0.0, 9.999253, 9.999305 
2.8247306e+3, 2.7919182e+2, -414249.53, -396728.44, 35661.29, -0.0051999805, 0.41786474, -368767.4, -164806.61, 0.0, 9.999173, 9.999343 
2.8246227e+3, 2.8919092e+2, -280581.6, -252143.92, -24532.117, 0.098644346, 0.43605724, -238007.88, -132039.33, 0.0, 9.999284, 9.999613 
2.8245133e+3, 2.9919007e+2, -166675.2, -139574.73, -14769.399, 0.09736901, 0.44611505, -133081.4, -125105.93, 0.0, 9.999358, 9.999681 
2.824404e+3, 3.0918863e+2, -162298.23, -59331.03, -16778.545, -0.05321558, 0.3579963, -56665.94, -56665.94, 0.0, 9.998818, 10.000157 
2.8242984e+3, 3.1918764e+2, -228037.19, -85724.99, 58007.457, 0.18195073, 0.33338562, -65076.652, -65076.652, 0.0, 9.998335, 10.000212 
2.8363436e+3, 1.29325e+2, -1404463.5, -1821195.6, 59544.215, 0.014335497, 0.35875565, -1396122.5, 276526.2, 0.0000029040725, 10.003254, 9.9977 
2.8362355e+3, 1.3932289e+2, -1303026.5, -1697112.3, 32856.895, -0.019058768, 0.4331701, -1300305.9, 274369.53, 0.0000006348958, 10.003162, 9.997928 
2.836128e+3, 1.4932051e+2, -1260218.5, -1563478.0, 56964.52, -0.029853655, 0.4247998, -1249871.3, 226829.06, 0.000000014730344, 10.002527, 9.998468 
2.836021e+3, 1.5931827e+2, -1241506.0, -1476374.3, 40106.523, 0.010892382, 0.40495107, -1234846.1, 143876.81, 0.0, 10.001864, 9.998714 
2.8359127e+3, 1.6931728e+2, -1102150.5, -1305980.4, 50045.094, -0.046071652, 0.46334916, -1090526.1, 190207.02, 0.0, 10.001932, 9.999174 
2.8358042e+3, 1.7931639e+2, -986488.4, -1212601.8, 68577.11, -0.12472046, 0.5184232, -967315.56, 215426.6, 0.0, 10.002106, 9.999062 
2.8356978e+3, 1.8931368e+2, -898871.5, -1110645.1, 93059.87, -0.086807415, 0.39920056, -863789.7, 220975.08, 0.0, 10.0020075, 9.999129 
2.8355914e+3, 1.9931087e+2, -846079.8, -1052666.1, 55715.996, -0.025212329, 0.26615158, -832011.4, 154777.03, 0.0, 10.001775, 9.998967 
2.835484e+3, 2.0930982e+2, -834780.75, -1002067.25, 20132.135, 0.02534925, 0.3290436, -832392.0, 56409.074, 0.0, 10.001206, 9.998913 
2.8353766e+3, 2.193091e+2, -819713.0, -932015.7, 53170.9, 0.054759134, 0.42444894, -798533.1, -7721.9224, 0.0, 10.000578, 9.999028 
2.835269e+3, 2.2930801e+2, -703231.3, -788469.6, 108573.48, -0.046150308, 0.44956428, -629211.75, 63610.26, 0.0, 10.000549, 9.999353 
2.8351617e+3, 2.393068e+2, -617928.6, -718647.0, 69271.266, -0.14515327, 0.45553806, -582645.75, 12187.449, 0.0, 10.000553, 9.999159 
2.835054e+3, 2.4930505e+2, -598438.3, -662856.4, -10622.89, -0.008522427, 0.43073928, -596731.75, -99882.51, 0.0, 10.000032, 9.999119 
2.8349462e+3, 2.593033e+2, -587198.9, -604271.8, 18576.914, 0.13364245, 0.40405414, -575290.94, -176425.6, 0.0, 9.999422, 9.999146 
2.8348374e+3, 2.69302e+2, -496033.22, -482528.28, 46179.84, 0.035495687, 0.40109643, -442609.84, -141730.98, 0.0, 9.999261, 9.999387 
2.8347287e+3, 2.7930072e+2, -421618.5, -416742.16, 35989.742, -0.061266504, 0.39833614, -383108.1, -180216.08, 0.0, 9.999191, 9.999199 
2.8346205e+3, 2.89299e+2, -316005.0, -326681.6, -19303.021, -0.0028745506, 0.3753056, -301315.72, -196406.94, 0.0, 9.999287, 9.999101 
2.834511e+3, 2.9929745e+2, -195200.73, -201346.0, -21524.965, -0.022256799, 0.36548975, -176530.2, -169606.4, 0.0, 9.999366, 9.999255 
2.8344032e+3, 3.0929685e+2, -175074.36, -100947.41, -46329.91, 0.049196683, 0.3937964, -78679.93, -78679.93, 0.0, 9.998877, 9.999847 
2.8342965e+3, 3.192959e+2, -182164.5, 23346.29, 79841.71, 0.22447114, 0.3757262, 50719.18, 50719.18, 0.0, 9.998294, 10.000971 
2.8463468e+3, 1.2943314e+2, -1352602.1, -1755649.1, -18807.16, 0.027844802, 0.343156, -1351726.5, 319863.28, 0.00000088395376, 10.003432, 9.998065 
2.8462386e+3, 1.3943186e+2, -1345919.4, -1676238.5, 9530.487, 0.033680152, 0.4641836, -1345644.6, 227962.55, 0.00000015338662, 10.002688, 9.9983 
2.8461295e+3, 1.4942953e+2, -1308077.5, -1550474.4, 59461.895, -0.033152156, 0.428276, -1294276.9, 181354.28, 0.0000000003731763, 10.002045, 9.99879 
2.8460214e+3, 1.5942723e+2, -1272334.0, -1466954.4, 76050.805, -0.04837687, 0.37398234, -1246141.3, 131512.92, 0.0, 10.001549, 9.998932 
2.8459138e+3, 1.6942629e+2, -1124617.9, -1307902.5, 97879.4, -0.060969908, 0.42588282, -1082175.5, 197487.83, 0.0, 10.001744, 9.999248 
2.8458062e+3, 1.7942545e+2, -1004877.5, -1219111.4, 90747.03, -0.08578636, 0.4800602, -971605.5, 210065.84, 0.0, 10.001978, 9.999073 
2.8456992e+3, 1.8942298e+2, -1004930.3, -1177403.0, 97810.46, -0.04909945, 0.39363635, -960768.8, 122924.28, 0.0, 10.0013485, 9.998987 
2.8455925e+3, 1.9942039e+2, -1006131.44, -1129444.8, 72763.15, 0.008106349, 0.29758665, -972415.06, 13300.911, 0.0, 10.000671, 9.998975 
2.8454846e+3, 2.0941934e+2, -865858.5, -995809.75, 64281.902, 0.03247972, 0.34701258, -839433.94, 48293.844, 0.0, 10.0009, 9.999104 
2.8453764e+3, 2.194186e+2, -718303.75, -864820.2, 111430.91, 0.034966994, 0.42063737, -658206.75, 131530.39, 0.0, 10.001199, 9.999188 
2.8452688e+3, 2.2941744e+2, -681527.2, -766021.3, 146889.4, -0.0647476, 0.43018025, -570930.2, 120817.48, 0.0, 10.00065, 9.999456 
2.8451613e+3, 2.3941615e+2, -701713.0, -766637.6, 91647.36, -0.14721519, 0.42406702, -636948.56, -43189.44, 0.0, 10.000013, 9.999089 
2.8450537e+3, 2.494141e+2, -597063.6, -694100.7, 5407.9653, 0.007692753, 0.39133355, -596763.2, -100984.37, 0.0, 10.000183, 9.99883 
2.844946e+3, 2.5941208e+2, -460508.28, -556198.4, 23341.482, 0.1701469, 0.362217, -455118.25, -57319.832, 0.0, 10.000356, 9.999024 
2.8448364e+3, 2.6941103e+2, -398947.2, -428401.34, 44747.383, 0.04982669, 0.38456175, -366565.72, -66756.516, 0.0, 9.9999, 9.99945 
2.844727e+3, 2.7941003e+2, -391592.16, -406280.97, 44415.13, -0.07404316, 0.40473032, -353918.28, -152098.69, 0.0, 9.99941, 9.999168 
2.8446192e+3, 2.8940803e+2, -265112.16, -317502.0, 24521.453, -0.022145849, 0.36305436, -255425.67, -151586.02, 0.0, 9.999704, 9.998961 
2.84451e+3, 2.9940614e+2, -125504.766, -196244.28, 31093.041, -0.028453, 0.33774105, -113781.04, -107922.484, 0.0, 9.999979, 9.99899 
2.8444025e+3, 3.094057e+2, -126241.945, -127811.95, -17776.195, 0.11945774, 0.42618185, -109233.43, -109233.43, 0.0, 9.99944, 9.999389 
2.844294e+3, 3.1940448e+2, -62848.574, 63301.16, 102838.47, 0.16086419, 0.42014277, 120867.04, 120867.04, 0.0, 9.999193, 10.000812 
2.8563493e+3, 1.2954056e+2, -1304021.4, -1606402.1, -44367.836, 0.018971976, 0.3247344, -1297645.8, 372894.6, 0.0000002684298, 10.003227, 9.999185 
2.8562412e+3, 1.3954103e+2, -1316381.8, -1563067.0, -12925.815, 0.100056425, 0.51252705, -1315706.4, 256830.72, 0.000000029966262, 10.002466, 9.999183 
2.8561306e+3, 1.4953889e+2, -1274577.3, -1471468.6, 36481.41, -0.06494935, 0.42888528, -1268035.1, 206522.73, 0.0, 10.002002, 9.999353 
2.8560212e+3, 1.5953642e+2, -1240691.0, -1421461.8, 66872.19, -0.1785583, 0.30873787, -1218642.4, 157939.16, 0.0, 10.001635, 9.999203 
2.855915e+3, 1.6953523e+2, -1127724.0, -1320004.4, 109270.54, -0.054631684, 0.33463943, -1078320.5, 200271.97, 0.0, 10.001767, 9.999155 
2.855809e+3, 1.7953423e+2, -1022111.5, -1238083.4, 83968.06, 0.07207793, 0.38298196, -993307.06, 187294.42, 0.0, 10.001904, 9.99898 
2.8557009e+3, 1.8953262e+2, -1014390.3, -1194842.4, 68699.016, 0.04568785, 0.39380023, -991213.1, 91404.94, 0.0, 10.001336, 9.998876 
2.8555927e+3, 1.9953099e+2, -991733.4, -1105756.8, 64456.79, 0.0038812659, 0.39701122, -962692.75, 21942.25, 0.0, 10.000697, 9.999125 
2.8554845e+3, 2.0952988e+2, -833150.25, -930008.25, 80722.664, 0.014891708, 0.40302885, -787443.6, 99201.38, 0.0, 10.000909, 9.999552 
2.855377e+3, 2.1952881e+2, -713007.4, -842910.94, 108281.95, 0.017328037, 0.40577775, -651690.7, 136963.52, 0.0, 10.00115, 9.999364 
2.8552687e+3, 2.2952715e+2, -695329.4, -792969.44, 118901.42, -0.074907675, 0.3712778, -615615.56, 75053.48, 0.0, 10.000639, 9.999279 
2.8551605e+3, 2.3952532e+2, -718064.44, -804493.3, 80372.18, -0.15548654, 0.33070225, -670025.5, -77339.74, 0.0, 10.000028, 9.998823 
2.8550532e+3, 2.4952279e+2, -623260.06, -750888.56, 16264.417, -0.01583364, 0.2880707, -621220.0, -126508.97, 0.0, 10.000192, 9.998438 
2.8549454e+3, 2.5952044e+2, -471037.53, -584469.5, 19354.469, 0.12766333, 0.26001343, -467826.06, -71090.99, 0.0, 10.000381, 9.998818 
2.8548357e+3, 2.6952e+2, -396472.78, -427305.1, 22178.434, 0.04008593, 0.34992746, -384878.9, -86138.75, 0.0, 9.999913, 9.999453 
2.8547263e+3, 2.7951977e+2, -380409.63, -387638.75, 39284.02, -0.04572719, 0.4444708, -344574.25, -143831.17, 0.0, 9.999426, 9.99929 
2.854619e+3, 2.8951803e+2, -243094.4, -277476.72, 41718.633, 0.0485182, 0.40739202, -215163.72, -112403.61, 0.0, 9.999727, 9.999227 
2.8545105e+3, 2.9951614e+2, -122092.52, -205013.36, 27082.648, 0.07477535, 0.36515382, -114030.87, -109252.4, 0.0, 10.000047, 9.9988985 
2.8544015e+3, 3.0951518e+2, -171793.47, -225228.9, -44042.746, 0.14507686, 0.44472533, -146998.08, -146998.08, 0.0, 9.999454, 9.998714 
2.854291e+3, 3.1951296e+2, -148703.97, -147813.67, 140554.75, -0.03037921, 0.4305975, -7703.369, -7703.369, 0.0, 9.999302, 9.999326 
2.86635e+3, 1.2964922e+2, -1434166.6, -1569504.0, -34442.543, -0.10313516, 0.33838266, -1425905.5, 243571.69, 0.00000003603988, 10.001897, 10.000082 
2.8662425e+3, 1.3964945e+2, -1526889.4, -1602458.9, 9817.641, 0.12414942, 0.4213801, -1525634.8, 45838.11, 0.00000000029145006, 10.00075, 9.99974 
2.8661323e+3, 1.4964825e+2, -1345526.1, -1493274.1, 68444.91, -0.024688374, 0.41120663, -1318692.3, 154792.58, 0.0, 10.001464, 9.999461 
2.866023e+3, 1.5964676e+2, -1128034.1, -1350478.5, 62699.22, -0.14479326, 0.37588063, -1111578.8, 263921.44, 0.0, 10.002338, 9.999348 
2.8659165e+3, 1.696452e+2, -1121240.4, -1300553.4, 95567.55, -0.030399028, 0.3503378, -1079857.0, 197656.95, 0.0, 10.001741, 9.999301 
2.86581e+3, 1.7964374e+2, -1143505.0, -1281948.0, 87108.9, 0.092907555, 0.33879647, -1101462.9, 78064.05, 0.0, 10.001004, 9.999115 
2.8657016e+3, 1.896425e+2, -1028651.5, -1187726.3, 91024.56, 0.061666913, 0.37394014, -987310.2, 94230.31, 0.0, 10.001181, 9.998998 
2.865593e+3, 1.9964132e+2, -870633.25, -1025744.25, 100191.11, 0.010917505, 0.40941954, -821487.9, 162065.64, 0.0, 10.00144, 9.999311 
2.865485e+3, 2.096402e+2, -799095.8, -888644.7, 105833.86, -0.00094976224, 0.39546138, -728954.8, 156607.61, 0.0, 10.00104, 9.999769 
2.865377e+3, 2.1963903e+2, -797886.94, -882726.9, 115160.0, -0.010289084, 0.37279323, -717582.5, 69988.9, 0.0, 10.0005665, 9.99937 
2.865269e+3, 2.296372e+2, -748305.2, -846768.94, 112346.75, -0.07152396, 0.339655, -674876.7, 14712.182, 0.0, 10.0004015, 9.9990225 
2.8651607e+3, 2.3963523e+2, -675759.75, -786654.2, 86171.32, -0.116958715, 0.30526996, -628738.0, -37129.875, 0.0, 10.000336, 9.998795 
2.865053e+3, 2.4963301e+2, -536812.75, -686120.94, 73560.72, -0.01282278, 0.276958, -506660.3, -13029.773, 0.0, 10.00069, 9.99864 
2.864945e+3, 2.5963092e+2, -379044.06, -534912.8, 98890.766, 0.09117496, 0.26115873, -331069.13, 64582.566, 0.0, 10.000989, 9.998867 
2.8648353e+3, 2.6963025e+2, -303672.63, -397511.3, 78266.03, 0.023026666, 0.33917487, -259339.58, 38318.797, 0.0, 10.000617, 9.999317 
2.8647256e+3, 2.7962974e+2, -310334.66, -381300.6, 89708.09, -0.019291043, 0.42431778, -249347.0, -49683.426, 0.0, 10.000035, 9.999036 
2.8646186e+3, 2.8962776e+2, -275188.25, -335884.34, 63590.965, 0.11124297, 0.397219, -235074.84, -133390.75, 0.0, 9.999699, 9.998837 
2.8645104e+3, 2.9962564e+2, -209592.56, -262499.63, -273.31567, 0.14869982, 0.36469442, -209591.16, -205885.48, 0.0, 9.999513, 9.998763 
2.8643996e+3, 3.0962473e+2, -128819.16, -192032.17, -35394.496, 0.08900911, 0.44755602, -112973.15, -112973.15, 0.0, 9.9997015, 9.998821 
2.8642887e+3, 3.19622e+2, -240894.47, -204397.27, 206362.9, -0.083103746, 0.37649626, -15477.682, -15477.682, 0.0, 9.998734, 9.999205 
2.8763497e+3, 1.2975873e+2, -1399262.4, -1463540.1, -84454.65, -0.287135, 0.3778112, -1341038.1, 327366.34, 0.0, 10.001757, 10.000874 
2.8762424e+3, 1.3975748e+2, -1483917.3, -1546145.6, -1362.9174, 0.10754502, 0.24267805, -1483887.4, 86523.97, 0.0, 10.000894, 10.000055 
2.876134e+3, 1.4975773e+2, -1351756.8, -1518689.8, 105540.87, 0.053539474, 0.38043404, -1300666.5, 171744.75, 0.0, 10.001514, 9.999264 
2.876026e+3, 1.5975788e+2, -1142453.4, -1355062.1, 67650.6, -0.0082971845, 0.52709085, -1122753.0, 251659.61, 0.0, 10.002229, 9.999371 
2.875918e+3, 1.6975595e+2, -1109529.8, -1263193.5, 61027.066, 0.0019882605, 0.4422817, -1088242.1, 188187.55, 0.0, 10.001683, 9.999586 
2.8758097e+3, 1.7975384e+2, -1123709.3, -1239367.3, 72485.75, 0.009316595, 0.33671, -1088810.9, 89637.27, 0.0, 10.000998, 9.999411 
2.8757018e+3, 1.8975256e+2, -1008950.3, -1143578.0, 102387.86, 0.01592432, 0.3363018, -953730.8, 126729.75, 0.0, 10.001166, 9.999308 
2.875594e+3, 1.9975144e+2, -867702.75, -1004354.0, 96452.36, 0.017251331, 0.34902698, -817827.5, 164644.03, 0.0, 10.001373, 9.999492 
2.875485e+3, 2.097504e+2, -801802.6, -888884.0, 85181.336, -0.02024015, 0.33654338, -749679.06, 134800.6, 0.0, 10.001014, 9.999783 
2.8753763e+3, 2.1974932e+2, -810692.6, -904923.0, 101891.36, -0.061491977, 0.32452586, -745550.56, 40937.824, 0.0, 10.000546, 9.999228 
2.8752688e+3, 2.2974764e+2, -770606.4, -892758.25, 108098.91, -0.056592327, 0.3325966, -707522.56, -19015.629, 0.0, 10.000401, 9.998707 
2.8751612e+3, 2.397459e+2, -661885.2, -757724.3, 92228.016, -0.038046394, 0.34321216, -605870.7, -15344.642, 0.0, 10.000334, 9.998995 
2.8750533e+3, 2.4974471e+2, -482506.97, -577489.5, 89935.36, 0.010620942, 0.35795724, -428293.8, 64243.273, 0.0, 10.000704, 9.999381 
2.874945e+3, 2.5974357e+2, -355013.4, -493709.66, 98224.45, 0.03976502, 0.37051472, -304123.4, 90424.16, 0.0, 10.001023, 9.999134 
2.8748348e+3, 2.697418e+2, -321866.6, -438057.66, 57729.25, -0.007947278, 0.35091603, -298061.22, -1497.6382, 0.0, 10.0006275, 9.999033 
2.8747252e+3, 2.7973983e+2, -350570.25, -477053.9, 71777.65, -0.011019258, 0.3309716, -318148.28, -119566.57, 0.0, 10.000085, 9.998356 
2.8746182e+3, 2.89737e+2, -355315.63, -504731.03, 53105.06, 0.16005519, 0.32295674, -338364.25, -237751.38, 0.0, 9.999705, 9.997677 
2.8745097e+3, 2.9973444e+2, -223327.53, -281321.06, -3952.9976, 0.18911053, 0.33671707, -223059.31, -220418.08, 0.0, 9.999474, 9.998652 
2.874397e+3, 3.097346e+2, -53291.184, -38832.55, -21024.584, -0.09695727, 0.45403767, -23829.096, -23829.096, 0.0, 9.999723, 9.999861 
2.8742886e+3, 3.197322e+2, -140972.78, 44723.67, 29839.426, 0.09443618, 0.28376994, 49400.75, 49400.75, 0.0, 9.998574, 10.000983 
2.8863516e+3, 1.298693e+2, -1583381.1, -1622018.8, -27101.947, -0.15192372, 0.4360948, -1569417.4, 97904.48, 0.0, 10.000786, 10.0002575 
2.8862423e+3, 1.3986723e+2, -1365939.8, -1513585.0, -11669.693, 0.0027131627, 0.27521574, -1365023.0, 204314.98, 0.0, 10.001806, 9.99984 
2.8861344e+3, 1.4986707e+2, -1337763.8, -1493929.3, 98698.484, -0.0028660628, 0.3636643, -1289996.1, 181344.5, 0.0, 10.001534, 9.999423 
2.8860274e+3, 1.5986702e+2, -1300756.3, -1422240.5, 67348.13, 0.021225544, 0.47519836, -1270804.5, 102538.0, 0.0, 10.001102, 9.999453 
2.8859186e+3, 1.6986552e+2, -1202552.5, -1309865.1, 39363.734, 0.014934623, 0.43383583, -1189661.9, 85694.05, 0.0, 10.001054, 9.999568 
2.88581e+3, 1.7986387e+2, -1100639.4, -1199634.1, 42924.797, -0.012463198, 0.36888555, -1084619.4, 92751.195, 0.0, 10.001034, 9.999662 
2.885702e+3, 1.8986286e+2, -1027242.3, -1093946.0, 86340.02, -0.0183487, 0.34982145, -968036.4, 111343.016, 0.0, 10.000791, 9.999828 
2.8855944e+3, 1.9986197e+2, -970299.9, -1026423.7, 86930.164, -0.013006126, 0.34011063, -907014.5, 74372.6, 0.0, 10.000549, 9.99974 
2.8854853e+3, 2.098609e+2, -877335.8, -931445.2, 68866.414, -0.028546823, 0.32274485, -830400.4, 52995.523, 0.0, 10.000522, 9.999729 
2.8853765e+3, 2.1985981e+2, -808851.75, -899082.56, 89955.3, -0.04369732, 0.3116908, -753332.4, 32073.182, 0.0, 10.000537, 9.999273 
2.885269e+3, 2.2985844e+2, -734815.25, -857814.56, 124619.43, -0.011231169, 0.33987898, -657346.5, 30075.094, 0.0, 10.00057, 9.998865 
2.8851616e+3, 2.3985712e+2, -616148.1, -704452.5, 133611.1, 0.030084413, 0.3732247, -519583.1, 69854.3, 0.0, 10.000513, 9.999274 
2.8850532e+3, 2.4985641e+2, -563393.3, -573546.25, 110880.06, 0.022060268, 0.39992952, -457473.56, 33969.83, 0.0, 9.999969, 9.999762 
2.8849444e+3, 2.598556e+2, -567433.56, -583352.9, 103347.48, -0.0016095181, 0.4178709, -471739.66, -78289.93, 0.0, 9.999523, 9.999235 
2.8848344e+3, 2.698533e+2, -385864.84, -495587.53, 64978.184, -0.03254801, 0.36015096, -355685.44, -60214.645, 0.0, 10.000314, 9.998782 
2.884725e+3, 2.7985072e+2, -232813.95, -426578.3, 77449.55, -0.0074456846, 0.29548523, -205661.5, -8166.1826, 0.0, 10.000924, 9.998295 
2.884618e+3, 2.8984797e+2, -218106.23, -442567.84, 141659.94, 0.16118607, 0.29666668, -149607.16, -50082.402, 0.0, 10.000672, 9.997635 
2.884509e+3, 2.998455e+2, -96057.164, -227164.33, 144490.72, 0.18186317, 0.3309946, -2944.938, -1393.6481, 0.0, 10.000386, 9.998585 
2.884395e+3, 3.098452e+2, -139547.33, -106425.01, 49981.316, -0.15244155, 0.41952845, -70332.55, -70332.55, 0.0, 9.999255, 9.999633 
2.8842878e+3, 3.19843e+2, 37433.867, 153582.14, -25041.104, 0.17849578, 0.2914763, 158750.89, 158750.89, 0.0, 9.999692, 10.001215 
2.8963548e+3, 1.2998047e+2, -1664759.4, -1823056.3, 10501.546, 0.15230416, 0.50553447, -1664065.8, 2167.4993, 0.0, 10.000934, 9.998804 
2.8962418e+3, 1.3997819e+2, -1392465.8, -1586610.5, 9163.569, -0.16654982, 0.44418636, -1392034.1, 176222.22, 0.0, 10.001885, 9.999299 
2.8961337e+3, 1.499764e+2, -1312155.3, -1439389.4, 82657.38, -0.14606707, 0.3574717, -1271468.1, 198803.06, 0.0, 10.001529, 9.9998 
2.8960276e+3, 1.599749e+2, -1305987.4, -1414880.1, 57771.05, -0.022764012, 0.29145256, -1281049.3, 91234.05, 0.0, 10.001024, 9.99954 
2.895919e+3, 1.6997431e+2, -1222969.9, -1345040.6, 43331.19, 0.010906079, 0.35483968, -1209152.6, 65136.35, 0.0, 10.001022, 9.999342 
2.8958106e+3, 1.7997386e+2, -1088624.3, -1171305.0, 43223.17, 0.0007294163, 0.42187575, -1070154.4, 106139.38, 0.0, 10.001019, 9.999865 
2.8957018e+3, 1.8997338e+2, -983806.4, -999500.75, 77344.89, -0.04799072, 0.40231168, -913911.6, 164385.28, 0.0, 10.000769, 10.000488 
2.8955936e+3, 1.9997285e+2, -958631.9, -989942.6, 79619.055, -0.08141831, 0.3722288, -893143.6, 87156.87, 0.0, 10.000497, 10.000015 
2.8954852e+3, 2.099717e+2, -886519.5, -947426.56, 69476.8, -0.028000776, 0.34611118, -841115.0, 41196.1, 0.0, 10.000507, 9.999626 
2.8953773e+3, 2.1997051e+2, -797393.9, -871321.44, 92836.836, 0.027171932, 0.32855374, -734432.7, 49889.816, 0.0, 10.000519, 9.999473 
2.8952697e+3, 2.2996965e+2, -696830.75, -777343.7, 126847.9, 0.054309472, 0.36205918, -604004.6, 82328.07, 0.0, 10.000562, 9.999423 
2.895162e+3, 2.3996887e+2, -595677.75, -660064.25, 120800.44, 0.06863369, 0.39827135, -502854.38, 85487.93, 0.0, 10.0005045, 9.999584 
2.8950524e+3, 2.4996802e+2, -561641.9, -568921.06, 86417.82, 0.020431882, 0.4014964, -478787.03, 11562.777, 0.0, 9.999965, 9.999796 
2.8949428e+3, 2.59967e+2, -567865.06, -589819.8, 111778.19, -0.040642887, 0.39918664, -466526.53, -74167.87, 0.0, 9.999545, 9.99918 
2.894834e+3, 2.6996484e+2, -400233.84, -530450.8, 98823.17, -0.05463354, 0.37019992, -346999.03, -52619.074, 0.0, 10.000331, 9.998535 
2.8947252e+3, 2.7996245e+2, -177675.25, -326227.28, 77718.27, -0.019027218, 0.3284066, -144447.52, 51955.684, 0.0, 10.00098, 9.998959 
2.8946173e+3, 2.899608e+2, -127851.32, -256332.14, 141021.75, 0.10033288, 0.32101116, -37127.33, 61289.914, 0.0, 10.000689, 9.9988985 
2.894508e+3, 2.9995906e+2, -93436.53, -228965.0, 124763.26, 0.09088976, 0.33310083, -19222.375, -18790.25, 0.0, 10.000424, 9.9985485 
2.894395e+3, 3.099559e+2, -275008.13, -366540.53, -167.96405, -0.022539731, 0.2544891, -275007.8, -275007.8, 0.0, 9.999174, 9.997884 
2.894286e+3, 3.1995404e+2, -84144.836, -135693.11, 265823.75, 0.055106867, 0.36596838, 157151.36, 157151.36, 0.0, 9.999842, 9.999166 
2.9063565e+3, 1.3008966e+2, -1552809.3, -1769232.6, 24482.94, 0.23603089, 0.42831686, -1550074.1, 115087.76, 0.0, 10.001698, 9.998809 
2.9062426e+3, 1.4008886e+2, -1334699.0, -1563328.1, 49308.4, -0.23384458, 0.5167515, -1324518.0, 242654.55, 0.0, 10.002299, 9.999261 
2.906134e+3, 1.5008707e+2, -1350540.8, -1468139.0, 71607.3, -0.1779826, 0.4382025, -1316684.9, 152503.2, 0.0, 10.0013075, 9.999708 
2.9060277e+3, 1.6008522e+2, -1404089.5, -1443698.8, 51457.242, 0.00012232314, 0.34143528, -1368757.3, 2446.2502, 0.0, 10.000268, 9.999707 
2.9059196e+3, 1.7008418e+2, -1261145.0, -1316176.4, 90205.445, 0.019052207, 0.32474, -1194352.0, 78859.11, 0.0, 10.000554, 9.999766 
2.9058108e+3, 1.8008345e+2, -1098537.3, -1166350.3, 103351.43, -0.006121864, 0.33142912, -1023672.56, 151543.84, 0.0, 10.000907, 9.999954 
2.905702e+3, 1.9008332e+2, -1054011.1, -1062855.9, 77960.74, -0.04743105, 0.36547238, -980347.44, 96870.81, 0.0, 10.000411, 10.000227 
2.905593e+3, 2.0008323e+2, -1030654.94, -1005031.9, 49315.754, -0.06885173, 0.39166903, -966890.7, 12329.222, 0.0, 9.999912, 10.000195 
2.905485e+3, 2.100825e+2, -893599.6, -883365.8, 83622.67, -0.005239762, 0.35999766, -804703.6, 76521.62, 0.0, 10.000167, 10.000231 
2.9053774e+3, 2.2008172e+2, -781857.94, -824312.4, 138472.97, 0.058645457, 0.3306318, -662994.6, 120236.93, 0.0, 10.000456, 9.999826 
2.9052696e+3, 2.3008096e+2, -738074.9, -779546.4, 146171.13, 0.050504416, 0.35613257, -611176.06, 74064.81, 0.0, 10.000203, 9.999579 
2.9051614e+3, 2.4008025e+2, -668720.6, -678783.44, 117431.3, 0.040164575, 0.3848881, -556213.0, 31036.959, 0.0, 9.999935, 9.999728 
2.905052e+3, 2.5007945e+2, -513995.6, -524054.94, 86819.29, 0.02199142, 0.37707618, -432060.4, 57196.39, 0.0, 10.000199, 9.9999895 
2.9049423e+3, 2.600786e+2, -430057.5, -491183.03, 136062.11, -0.009879646, 0.36885056, -321167.84, 70096.195, 0.0, 10.000354, 9.999467 
2.904834e+3, 2.7007705e+2, -425139.16, -491803.2, 169239.86, -0.03230351, 0.36438888, -285980.16, 7299.4517, 0.0, 9.999943, 9.998985 
2.9047254e+3, 2.8007537e+2, -336779.66, -343359.63, 176421.36, 0.0052855224, 0.34863442, -163617.61, 31678.84, 0.0, 9.999648, 9.999475 
2.9046163e+3, 2.9007447e+2, -313381.7, -236444.4, 155275.28, 0.07047209, 0.3430926, -114943.516, -17639.871, 0.0, 9.998954, 9.9998665 
2.916357e+3, 1.301978e+2, -1503393.8, -1645749.1, 49670.703, 0.18268925, 0.27595034, -1487776.0, 176323.52, 0.0, 10.0016165, 9.99969 
2.9162443e+3, 1.4019938e+2, -1353573.9, -1547403.3, 36379.246, -0.24053155, 0.53006244, -1346970.9, 219116.3, 0.0, 10.002066, 9.999482 
2.9161355e+3, 1.5019856e+2, -1392118.1, -1533534.9, 20959.959, -0.14296357, 0.57336867, -1389077.0, 79019.555, 0.0, 10.001216, 9.999305 
2.9160282e+3, 1.6019714e+2, -1384146.9, -1407690.3, 37343.473, 0.058174245, 0.54439497, -1356763.6, 13346.54, 0.0, 10.000291, 9.999944 
2.9159197e+3, 1.7019482e+2, -1201226.0, -1188939.9, 107044.05, 0.03243678, 0.32517505, -1087862.8, 184262.47, 0.0, 10.000541, 10.000647 
2.9158106e+3, 1.8019281e+2, -1114636.9, -1181497.8, 95567.67, -0.0344932, 0.13956022, -1046821.25, 127316.945, 0.0, 10.000829, 9.999887 
2.915702e+3, 1.9019282e+2, -1122994.8, -1204574.8, 54271.26, -0.02605084, 0.2627145, -1095893.6, -19751.11, 0.0, 10.000403, 9.999258 
2.915593e+3, 2.0019315e+2, -1018153.2, -984761.5, 48365.09, -0.0010034286, 0.400221, -950291.6, 27852.484, 0.0, 9.999936, 10.000322 
2.9154852e+3, 2.1019335e+2, -810013.8, -711406.06, 97796.37, 0.028734304, 0.36735672, -651188.25, 228949.81, 0.0, 10.000173, 10.00141 
2.9153773e+3, 2.2019334e+2, -756732.7, -763601.25, 136565.61, 0.04110233, 0.3184712, -623558.2, 158575.67, 0.0, 10.000418, 10.000262 
2.9152682e+3, 2.3019232e+2, -752742.8, -808078.5, 131908.27, -0.017131355, 0.32198128, -645631.94, 38514.902, 0.0, 10.000193, 9.999391 
2.9151598e+3, 2.4019128e+2, -667833.3, -677430.7, 117707.36, -0.05817324, 0.3331669, -554826.9, 31333.398, 0.0, 9.999937, 9.999736 
2.915052e+3, 2.501908e+2, -491233.9, -476777.84, 99559.92, 0.022012655, 0.3305888, -384183.9, 103979.9, 0.0, 10.000201, 10.000311 
2.914943e+3, 2.601904e+2, -381364.56, -400475.28, 128795.195, 0.07668165, 0.32908636, -261770.77, 128394.95, 0.0, 10.000392, 10.000073 
2.9148337e+3, 2.7018994e+2, -343885.34, -327203.06, 149277.55, 0.029786821, 0.34086403, -186033.8, 106135.88, 0.0, 9.999952, 10.000116 
2.914725e+3, 2.8018945e+2, -326885.13, -317447.72, 179360.61, 0.03799943, 0.35715142, -142743.75, 51431.15, 0.0, 9.999634, 9.999659 
2.9146147e+3, 2.9018876e+2, -287000.13, -180401.97, 87027.97, 0.076225825, 0.3652756, -131648.81, -35463.188, 0.0, 9.998958, 10.000251 
2.9263565e+3, 1.3030718e+2, -1551409.9, -1619187.4, 12414.031, 0.06535261, 0.30084106, -1549207.6, 113819.48, 0.0, 10.001066, 10.000139 
2.9262453e+3, 1.4030828e+2, -1583339.1, -1631609.9, -23121.365, -0.1776126, 0.46892077, -1574051.3, -9032.718, 0.0, 10.000368, 9.999725 
2.9261363e+3, 1.5030763e+2, -1504528.0, -1578514.0, -23679.67, -0.09078906, 0.5145374, -1497598.3, -30571.762, 0.0, 10.0004015, 9.999392 
2.926028e+3, 1.603066e+2, -1345121.3, -1362294.0, 22122.256, 0.078860834, 0.51228327, -1329977.5, 39059.207, 0.0, 10.00044, 10.000186 
2.9259196e+3, 1.7030509e+2, -1226240.5, -1160745.8, 75366.93, 0.059482567, 0.33983034, -1111319.1, 159724.84, 0.0, 10.000192, 10.00101 
2.925811e+3, 1.8030371e+2, -1222329.8, -1211380.9, 42945.824, 0.0011302157, 0.18443713, -1173562.0, -511.13458, 0.0, 9.999985, 10.0000925 
2.9257017e+3, 1.9030346e+2, -1134840.9, -1202971.1, 52837.688, -0.014659026, 0.27061367, -1106039.0, -30981.299, 0.0, 10.000288, 9.999326 
2.9255927e+3, 2.0030348e+2, -921182.94, -930398.06, 94872.43, -0.010384858, 0.37220648, -830806.25, 146255.81, 0.0, 10.000568, 10.000391 
2.9254845e+3, 2.1030375e+2, -800781.0, -702248.94, 85209.23, 0.020710677, 0.34204802, -653088.56, 225966.92, 0.0, 10.000211, 10.001455 
2.9253766e+3, 2.2030395e+2, -824110.7, -769266.8, 67610.234, 0.040439576, 0.30215153, -723729.1, 57320.22, 0.0, 9.999834, 10.000506 
2.9252678e+3, 2.3030338e+2, -767525.5, -761008.8, 91494.3, -0.01757448, 0.30729672, -672714.9, 10342.338, 0.0, 9.999853, 9.999879 
2.925159e+3, 2.4030274e+2, -651830.0, -647777.94, 124125.01, -0.058023605, 0.31624836, -525662.44, 59403.62, 0.0, 9.999946, 9.99994 
2.9250512e+3, 2.5030217e+2, -483237.28, -467211.06, 101131.05, 0.030574873, 0.300883, -373776.16, 113294.31, 0.0, 10.000224, 10.00037 
2.924943e+3, 2.603018e+2, -371689.1, -365239.88, 92414.03, 0.0975567, 0.28964648, -275994.22, 113078.08, 0.0, 10.000317, 10.000358 
2.924833e+3, 2.70302e+2, -332060.1, -246194.98, 65130.668, 0.030292924, 0.30993834, -211119.8, 79949.69, 0.0, 9.999701, 10.000797 
2.9247233e+3, 2.8030223e+2, -375023.06, -295622.47, 100547.68, 0.03314521, 0.33186668, -227221.2, -34153.875, 0.0, 9.999088, 10.000089 
2.9246137e+3, 2.9030168e+2, -154723.13, -99942.484, 2752.7224, 0.10134119, 0.33266807, -99804.51, -4727.02, 0.0, 9.999767, 10.000438 
2.9363555e+3, 1.3041715e+2, -1549781.6, -1596562.5, -7194.973, -0.09550199, 0.42025268, -1548700.0, 113250.14, 0.0, 10.000994, 10.000323 
2.936246e+3, 1.4041613e+2, -1552695.4, -1589425.6, -25405.582, -0.07675285, 0.35718063, -1539712.1, 24248.535, 0.0, 10.0004635, 9.999966 
2.9361364e+3, 1.5041514e+2, -1459898.8, -1512159.1, -12177.689, -0.032605022, 0.33045873, -1457200.4, 8769.808, 0.0, 10.000514, 9.999792 
2.936028e+3, 1.6041444e+2, -1321782.0, -1330091.5, 24535.486, 0.0671096, 0.32637107, -1301052.0, 66924.125, 0.0, 10.000509, 10.000374 
2.9359198e+3, 1.7041512e+2, -1222989.8, -1161696.0, 68038.555, 0.09353971, 0.36964715, -1117720.6, 152245.39, 0.0, 10.000224, 10.000988 
2.9358113e+3, 1.8041569e+2, -1195407.1, -1150631.6, 45317.953, 0.07881993, 0.40132234, -1122473.1, 49484.082, 0.0, 9.999964, 10.00052 
2.9357013e+3, 1.9041494e+2, -1083089.0, -1081087.8, 66984.97, -0.017011056, 0.3590754, -1015095.9, 58870.18, 0.0, 10.000224, 10.000194 
2.935592e+3, 2.0041408e+2, -939975.5, -944390.44, 92522.96, -0.09314408, 0.31035087, -849633.7, 126342.09, 0.0, 10.000461, 10.000347 
2.9354838e+3, 2.1041374e+2, -866032.8, -831344.2, 68640.83, -0.021672519, 0.28784698, -777890.25, 100087.1, 0.0, 10.000183, 10.000583 
2.935376e+3, 2.2041368e+2, -813573.3, -749145.75, 64147.145, 0.050654713, 0.28170222, -709578.0, 70398.15, 0.0, 9.999842, 10.000641 
2.9352677e+3, 2.3041421e+2, -692464.44, -604888.1, 94099.77, 0.03761904, 0.31470364, -544887.25, 137083.58, 0.0, 9.999852, 10.000951 
2.9351592e+3, 2.4041456e+2, -626331.8, -597092.3, 130403.766, 0.021815686, 0.3361067, -480491.34, 103476.28, 0.0, 9.999951, 10.000287 
2.935051e+3, 2.5041357e+2, -493419.7, -495126.9, 111822.75, 0.042389356, 0.28659162, -382447.28, 103529.95, 0.0, 10.000247, 10.000171 
2.9349422e+3, 2.604128e+2, -365714.84, -361497.06, 80780.06, 0.034734964, 0.25054058, -282798.38, 105185.66, 0.0, 10.000354, 10.000364 
2.9348317e+3, 2.704132e+2, -317150.53, -217289.75, 36555.25, -0.04286131, 0.27306446, -205338.56, 84640.586, 0.0, 9.999712, 10.000986 
2.9347214e+3, 2.8041345e+2, -307271.16, -186719.84, 89228.6, -0.037201177, 0.26880503, -139315.89, 52659.688, 0.0, 9.999208, 10.000786 
2.934613e+3, 2.9041374e+2, -107215.65, -16871.379, 51549.098, 0.11461943, 0.28179446, 6497.2144, 100471.164, 0.0, 9.99983, 10.0009775 
2.9463553e+3, 1.3052708e+2, -1625313.0, -1702306.9, 65835.945, -0.10382111, 0.3854238, -1587544.8, 73325.02, 0.0, 10.000757, 9.9997225 
2.9462466e+3, 1.4052603e+2, -1453013.6, -1536131.0, 20211.664, -0.056681532, 0.362101, -1448359.4, 114523.26, 0.0, 10.001121, 10.000018 
2.946137e+3, 1.5052511e+2, -1320660.5, -1389400.6, 36223.855, -0.01406547, 0.3054193, -1305095.9, 159793.86, 0.0, 10.001225, 10.000295 
2.946028e+3, 1.6052437e+2, -1237430.4, -1295788.5, 58960.473, 0.08032628, 0.26431957, -1200823.8, 166071.22, 0.0, 10.001112, 10.00032 
2.9459193e+3, 1.7052509e+2, -1219009.3, -1209666.6, 71419.67, 0.08121082, 0.3490091, -1142765.6, 126122.125, 0.0, 10.000462, 10.000547 
2.94581e+3, 1.8052588e+2, -1220237.5, -1146469.0, 34654.383, 0.046261653, 0.4287181, -1132743.3, 38136.684, 0.0, 9.999721, 10.000669 
2.9457006e+3, 1.9052553e+2, -1189237.0, -1066792.0, 48221.996, -0.011194335, 0.3798329, -1050081.5, 22801.473, 0.0, 9.999205, 10.000788 
2.9455912e+3, 2.0052503e+2, -1142913.6, -1026504.06, 76102.39, -0.045612913, 0.31562585, -988899.8, -14012.335, 0.0, 9.998987, 10.0005 
2.9454833e+3, 2.1052428e+2, -951764.7, -902070.56, 88238.94, 0.008030008, 0.26862612, -835247.06, 41646.727, 0.0, 9.999712, 10.000328 
2.9453757e+3, 2.2052385e+2, -728837.44, -714756.5, 105172.02, 0.05910123, 0.24872865, -616389.56, 162507.45, 0.0, 10.000442, 10.000593 
2.9452673e+3, 2.305249e+2, -598487.0, -536499.8, 78952.61, 0.059351854, 0.3178748, -482675.28, 198210.78, 0.0, 10.000386, 10.001168 
2.945159e+3, 2.4052571e+2, -595973.94, -572755.56, 71396.03, 0.061028875, 0.36635166, -512031.03, 70846.5, 0.0, 10.000112, 10.00038 
2.9450506e+3, 2.5052458e+2, -548291.56, -520360.28, 64664.74, 0.044617385, 0.2974511, -468170.28, 16718.578, 0.0, 9.999858, 10.000189 
2.9449415e+3, 2.6052374e+2, -450940.6, -392382.66, 41406.477, -0.000046977555, 0.24903537, -370949.16, 15947.501, 0.0, 9.999722, 10.000463 
2.9448304e+3, 2.705243e+2, -250875.55, -184387.86, -8716.649, -0.07486914, 0.28096586, -183264.08, 105626.08, 0.0, 10.000148, 10.001014 
2.9447204e+3, 2.8052422e+2, -116055.39, -106452.97, 29633.365, -0.058914404, 0.24929729, -81234.39, 109655.24, 0.0, 10.000568, 10.000678 
2.944613e+3, 2.9052466e+2, 59198.49, 58039.59, -54093.875, 0.14682624, 0.29121414, 112716.016, 205601.3, 0.0, 10.000977, 10.000935 
2.9563564e+3, 1.3063698e+2, -1695391.4, -1846646.0, 71203.26, -0.034300532, 0.27031463, -1667146.6, -7359.218, 0.0, 10.000763, 9.998726 
2.9562464e+3, 1.4063719e+2, -1474977.5, -1551474.3, 35324.688, -0.09823667, 0.44426316, -1461160.8, 100631.09, 0.0, 10.000995, 9.999971 
2.9561374e+3, 1.5063666e+2, -1307694.6, -1321235.0, 39888.76, -0.024225034, 0.3827805, -1274005.6, 189788.42, 0.0, 10.001048, 10.000849 
2.956029e+3, 1.6063562e+2, -1284013.3, -1344971.6, 42877.414, 0.10581324, 0.28189495, -1261885.9, 103915.164, 0.0, 10.000908, 10.000082 
2.9559186e+3, 1.7063493e+2, -1275945.1, -1316014.6, 48724.805, 0.029962305, 0.2858995, -1243296.9, 24513.475, 0.0, 10.00041, 9.999843 
2.955808e+3, 1.8063468e+2, -1217873.0, -1153828.8, 14068.262, -0.07727959, 0.31537196, -1150874.6, 18940.367, 0.0, 9.999775, 10.000591 
2.9556993e+3, 1.9063549e+2, -1149841.4, -1005343.4, 32592.426, 0.0019017704, 0.3526187, -998332.1, 73474.07, 0.0, 9.999292, 10.001167 
2.9555914e+3, 2.0063627e+2, -1109554.0, -974531.9, 87079.086, 0.10306925, 0.38032252, -931858.94, 41938.145, 0.0, 9.999062, 10.000821 
2.9554835e+3, 2.1063527e+2, -929757.3, -864578.5, 115797.12, 0.09013423, 0.28313047, -776872.25, 98933.16, 0.0, 9.999745, 10.00057 
2.9553756e+3, 2.2063437e+2, -749448.75, -750896.1, 115191.586, 0.05046777, 0.20582183, -634978.56, 142834.67, 0.0, 10.000412, 10.00036 
2.955267e+3, 2.3063536e+2, -637662.25, -614400.7, 69952.11, 0.048468377, 0.31556025, -555119.0, 124684.45, 0.0, 10.000372, 10.000641 
2.9551587e+3, 2.406362e+2, -599484.75, -582271.56, 59343.973, 0.056708787, 0.40601102, -530913.3, 50882.08, 0.0, 10.000118, 10.000313 
2.95505e+3, 2.506352e+2, -530052.6, -483399.63, 55226.336, 0.03279476, 0.33520222, -446775.53, 37029.336, 0.0, 9.99986, 10.000443 
2.9549405e+3, 2.6063466e+2, -434797.6, -364061.8, 46795.18, -0.015502249, 0.29061455, -340772.4, 45037.316, 0.0, 9.999742, 10.000648 
2.95483e+3, 2.706354e+2, -250339.75, -192814.39, 17463.975, -0.06840344, 0.33761844, -187927.67, 99874.16, 0.0, 10.00019, 10.000936 
2.9547206e+3, 2.806347e+2, -167554.78, -241266.4, 38362.965, -0.053633478, 0.28185728, -151212.22, 38595.863, 0.0, 10.000678, 9.999703 
2.9546136e+3, 2.906333e+2, 9664.267, -69398.55, -30727.648, 0.14920841, 0.2671879, 20202.016, 112026.16, 0.0, 10.001078, 10.000012 
2.9663572e+3, 1.3074686e+2, -1579344.5, -1712062.1, 23851.963, 0.00237722, 0.21006145, -1575188.1, 83521.34, 0.0, 10.001222, 9.999426 
2.966247e+3, 1.4074796e+2, -1574692.9, -1580803.4, 54493.566, -0.06596064, 0.4255943, -1523169.0, 37535.23, 0.0, 10.000225, 10.000146 
2.9661372e+3, 1.5074739e+2, -1516946.1, -1428022.4, 33471.75, -0.02810338, 0.3609842, -1416831.6, 45875.152, 0.0, 9.999634, 10.0008 
2.966028e+3, 1.6074666e+2, -1526963.9, -1459517.5, 33618.887, 0.06497186, 0.28848058, -1445622.5, -80911.54, 0.0, 9.999222, 10.0001135 
2.965918e+3, 1.7074583e+2, -1355788.3, -1369736.9, 80344.19, 0.02194945, 0.28870216, -1282116.3, -15394.784, 0.0, 9.999919, 9.999716 
2.9658082e+3, 1.8074524e+2, -1125353.5, -1150885.4, 50373.574, -0.03338986, 0.3051186, -1086153.4, 82576.41, 0.0, 10.000576, 10.000233 
2.9656988e+3, 1.9074579e+2, -981175.4, -967012.06, 22369.443, 0.025428427, 0.3572544, -950630.06, 120094.29, 0.0, 10.000627, 10.0007925 
2.9655907e+3, 2.0074625e+2, -907983.5, -915926.7, 40105.45, 0.088531986, 0.39324957, -871653.44, 101066.055, 0.0, 10.000605, 10.000483 
2.9654828e+3, 2.1074562e+2, -843530.5, -828167.44, 47660.043, 0.065537766, 0.34339255, -787573.9, 87151.24, 0.0, 10.000355, 10.00053 
2.965375e+3, 2.2074507e+2, -785197.5, -770913.44, 40343.5, 0.040201366, 0.30137473, -737084.7, 39645.137, 0.0, 10.0001745, 10.000339 
2.9652667e+3, 2.3074512e+2, -665293.6, -649693.75, 9932.251, 0.04742822, 0.32652044, -644864.8, 33863.65, 0.0, 10.000267, 10.000454 
2.9651582e+3, 2.4074517e+2, -571161.2, -552669.25, 15078.371, 0.05506179, 0.34383744, -544227.8, 36499.188, 0.0, 10.000232, 10.000469 
2.965049e+3, 2.507447e+2, -484523.88, -440088.84, 13401.136, 0.039118957, 0.30074698, -436360.1, 46370.777, 0.0, 10.000065, 10.000651 
2.96494e+3, 2.607446e+2, -394754.8, -348152.6, 11802.546, 0.010170011, 0.28513214, -345333.94, 39397.293, 0.0, 10.00002, 10.000629 
2.96483e+3, 2.7074525e+2, -254908.4, -226001.38, -20290.635, -0.030958597, 0.34109163, -215542.77, 71182.23, 0.0, 10.000291, 10.000662 
2.964721e+3, 2.807444e+2, -199797.11, -283169.25, 7172.3755, -0.028932137, 0.2942257, -199184.6, -10451.062, 0.0, 10.000579, 9.999471 
2.964613e+3, 2.9074267e+2, -11028.244, -91615.086, 20761.908, 0.08538287, 0.27577913, -5993.7856, 84758.82, 0.0, 10.001028, 9.999883 
2.976358e+3, 1.3085668e+2, -1528219.1, -1512606.6, -24752.01, 0.0072892075, 0.17230406, -1494459.0, 163175.42, 0.0, 10.000821, 10.000986 
2.9762474e+3, 1.408584e+2, -1534560.4, -1537717.0, 8120.913, 0.011545727, 0.33878738, -1527865.8, 31753.71, 0.0, 10.0004015, 10.000355 
2.9761362e+3, 1.5085751e+2, -1489691.9, -1463459.9, -8142.0464, -0.03137273, 0.27470663, -1461138.3, 487.9031, 0.0, 10.000033, 10.000363 
2.9760256e+3, 1.6085757e+2, -1449685.4, -1396002.9, 24297.236, -0.030862372, 0.29610944, -1386639.1, -23015.49, 0.0, 9.999642, 10.000345 
2.9759178e+3, 1.7085753e+2, -1308072.3, -1316191.0, 98772.19, 0.043746, 0.34433582, -1213276.0, 52348.32, 0.0, 10.000116, 9.999987 
2.97581e+3, 1.8085705e+2, -1164995.3, -1241371.9, 49091.1, 0.13547811, 0.37391517, -1140988.0, 26642.18, 0.0, 10.000613, 9.999592 
2.9756993e+3, 1.9085623e+2, -1041307.25, -1100485.4, 16312.599, 0.0501746, 0.38017014, -1037108.56, 32531.506, 0.0, 10.000666, 9.999856 
2.9755887e+3, 2.0085499e+2, -966750.6, -1040593.2, 36354.88, -0.072194494, 0.35021627, -951856.3, 19797.953, 0.0, 10.000617, 9.99962 
2.9754815e+3, 2.1085532e+2, -860046.94, -862499.25, 38668.848, -0.04519538, 0.4350358, -822584.8, 51067.64, 0.0, 10.000355, 10.000295 
2.9753745e+3, 2.2085592e+2, -778382.44, -747040.25, 41821.62, 0.031330317, 0.51334184, -718050.06, 57596.883, 0.0, 10.000133, 10.000523 
2.9752666e+3, 2.3085427e+2, -658633.1, -632367.0, 14874.445, 0.052829172, 0.35138062, -625657.56, 52002.242, 0.0, 10.000251, 10.000582 
2.9751578e+3, 2.4085288e+2, -550482.5, -505378.1, 8605.792, 0.04288363, 0.1975526, -503791.9, 75878.375, 0.0, 10.000212, 10.000803 
2.9750487e+3, 2.508531e+2, -473580.9, -419286.28, 10156.096, 0.05972058, 0.20123266, -417448.72, 64217.457, 0.0, 10.000074, 10.000788 
2.97494e+3, 2.6085353e+2, -403576.72, -374930.34, 15391.841, 0.06978636, 0.2350635, -368228.25, 15432.872, 0.0, 10.000056, 10.000429 
2.9748303e+3, 2.7085376e+2, -281004.56, -285807.06, -8037.164, 0.031188263, 0.28632677, -275017.63, 10642.686, 0.0, 10.000314, 10.000241 
2.9747212e+3, 2.8085342e+2, -147579.2, -183589.06, 18087.504, -0.007204374, 0.29318732, -140062.86, 47602.094, 0.0, 10.000632, 10.000127 
2.9746124e+3, 2.9085323e+2, 37583.184, -239.31172, 55271.64, -0.04282776, 0.33581516, 77089.31, 166754.28, 0.0, 10.001099, 10.000464 
2.9863563e+3, 1.309694e+2, -1712896.0, -1737107.4, 54430.09, -0.09283945, 0.41978627, -1669241.6, -12714.56, 0.0, 10.000117, 9.999808 
2.986247e+3, 1.4096785e+2, -1423118.6, -1521775.8, -88542.734, -0.038965985, 0.34953257, -1371090.8, 187456.5, 0.0, 10.001333, 10.000017 
2.9861364e+3, 1.5096729e+2, -1253319.5, -1352153.6, -79871.58, -0.051817045, 0.32055163, -1208813.6, 251736.78, 0.0, 10.001687, 10.000322 
2.9860264e+3, 1.609657e+2, -1204422.4, -1280361.5, -78384.69, 0.0484278, 0.18491507, -1155295.1, 207268.23, 0.0, 10.001369, 10.00029 
2.9859176e+3, 1.7096512e+2, -1194830.1, -1228584.3, -1231.195, 0.048110675, 0.16185644, -1194785.4, 69783.164, 0.0, 10.000789, 10.000247 
2.9858083e+3, 1.8096481e+2, -1114745.4, -1185316.6, -15004.01, -0.033085834, 0.17736657, -1111687.9, 54883.766, 0.0, 10.0008545, 9.999844 
2.985699e+3, 1.9096412e+2, -1047433.8, -1121513.0, -15657.846, 0.02187723, 0.19919156, -1044260.2, 24320.188, 0.0, 10.000723, 9.999676 
2.985591e+3, 2.0096418e+2, -959168.6, -1020956.8, 73396.58, 0.13017902, 0.2980047, -910429.2, 60152.656, 0.0, 10.000611, 9.999756 
2.9854828e+3, 2.1096441e+2, -870785.0, -897610.44, 79116.58, 0.12733884, 0.38818225, -803952.25, 68629.164, 0.0, 10.000409, 10.000031 
2.9853743e+3, 2.2096407e+2, -855370.9, -813557.25, 58319.74, 0.06414704, 0.40845597, -772510.1, 2075.3748, 0.0, 9.999722, 10.00027 
2.9852656e+3, 2.3096281e+2, -741279.56, -661483.2, 39193.17, 0.03273963, 0.28577906, -645453.1, 31141.813, 0.0, 9.9996395, 10.000676 
2.9851574e+3, 2.4096185e+2, -563709.4, -519661.22, 20291.105, 0.03892119, 0.17822556, -511738.88, 66862.3, 0.0, 10.0001545, 10.000734 
2.9850486e+3, 2.5096238e+2, -388937.3, -384840.6, -3060.3896, 0.047849447, 0.21655448, -383206.3, 97388.336, 0.0, 10.00068, 10.000735 
2.9849398e+3, 2.6096287e+2, -301091.7, -366057.78, -11534.215, 0.05229221, 0.27052218, -299104.66, 83484.96, 0.0, 10.000924, 10.000081 
2.9848304e+3, 2.7096224e+2, -282263.03, -353792.6, -51279.164, 0.064203225, 0.28591165, -255508.44, 29089.87, 0.0, 10.000572, 9.999667 
2.9847214e+3, 2.8096163e+2, -176758.03, -159238.7, -38140.54, 0.04284719, 0.2922165, -128864.85, 57740.844, 0.0, 10.00026, 10.0005045 
2.9846126e+3, 2.9096144e+2, -59778.586, -35674.23, -19468.016, -0.06443437, 0.28063053, -24829.715, 63772.57, 0.0, 10.000312, 10.000692 
2.9963565e+3, 1.3107635e+2, -1659211.1, -1944760.6, 37194.29, -0.07810665, 0.13724081, -1654445.9, 1028.0898, 0.0, 10.001537, 9.997674 
2.996248e+3, 1.4107575e+2, -1434187.4, -1533697.1, -30803.48, -0.031111911, 0.2941713, -1425423.9, 132067.83, 0.0, 10.001286, 9.999957 
2.9961395e+3, 1.5107726e+2, -1563446.9, -1440788.8, 168861.02, 0.19937113, 0.42437926, -1322464.6, 137008.11, 0.0, 9.999238, 10.000922 
2.9960275e+3, 1.6107638e+2, -1692119.3, -1568623.3, 231942.94, 0.12973742, 0.36364874, -1390349.8, -28872.922, 0.0, 9.998163, 9.999902 
2.9959175e+3, 1.7107387e+2, -1370592.9, -1325035.6, 181197.31, 0.04224287, 0.16617262, -1165190.8, 98310.65, 0.0, 9.999543, 10.000228 
2.995807e+3, 1.8107545e+2, -1197419.8, -1161984.3, -87.30478, -0.18367012, 0.3359155, -1161984.1, 3502.0386, 0.0, 9.999919, 10.000503 
2.995698e+3, 1.9107388e+2, -1104634.0, -1127843.9, -45178.703, -0.09030125, 0.22588369, -1069593.6, -2091.5835, 0.0, 10.00016, 9.999939 
2.995591e+3, 2.010742e+2, -1025523.06, -983995.5, 4297.209, 0.12421456, 0.27251717, -983555.5, -14056.232, 0.0, 9.9998045, 10.000423 
2.9954833e+3, 2.1107325e+2, -885256.3, -949422.9, -242.85918, 0.19115408, 0.24899788, -885255.44, -13746.033, 0.0, 10.000477, 9.999652 
2.9953736e+3, 2.210712e+2, -663868.25, -802415.2, -29306.201, 0.090047404, 0.16376686, -657924.25, 115605.58, 0.0, 10.001378, 9.999551 
2.995265e+3, 2.3107186e+2, -719520.7, -643103.9, 599.8019, 0.074765705, 0.24767317, -643099.2, 32423.795, 0.0, 9.999755, 10.000745 
2.995157e+3, 2.410721e+2, -613472.5, -594721.94, 39710.566, 0.06335998, 0.28142923, -563294.94, 14225.256, 0.0, 10.000035, 10.000272 
2.9950482e+3, 2.5107262e+2, -399847.16, -410143.84, 13363.816, 0.00012666227, 0.34321576, -390674.28, 88841.67, 0.0, 10.000695, 10.000546 
2.994939e+3, 2.6107273e+2, -341098.0, -450593.38, -15029.665, -0.04945759, 0.39307994, -339072.44, 42443.434, 0.0, 10.000922, 9.999504 
2.9948306e+3, 2.7107066e+2, -334033.13, -473412.28, -61523.227, 0.053903095, 0.34015924, -310761.72, -27222.438, 0.0, 10.000611, 9.998832 
2.9947215e+3, 2.8106883e+2, -192123.48, -164497.8, -49764.68, 0.097609594, 0.2750356, -126664.555, 58893.703, 0.0, 10.000195, 10.000475 
2.9946125e+3, 2.9106817e+2, -66516.68, 11248.553, 12800.642, 0.0010474221, 0.17635216, 13301.426, 100857.2, 0.0, 10.000122, 10.001076 
