coord_x,coord_y,stress_xx,stress_yy,tau_xy,velocity_x,velocity_y,stress_1,eps,damage,lx,ly
4.9995533e+0, 1.2522449e+2, -1830462.8, -1706812.4, 2225.2434, 0.008624598, -0.1019124, -1706772.4, 6021.0537, 0.0013801174, 9.998927, 10.000568 
4.999601e+0, 1.3522585e+2, -1746044.4, -1671621.3, -2003.9375, 0.005966984, 0.029162774, -1671567.3, -56786.867, 0.0008364695, 9.999078, 10.000064 
4.9995884e+0, 1.4522429e+2, -1637456.4, -1576872.6, -5163.338, -0.000779319, -0.13273679, -1576435.6, -59639.67, 0.00038681776, 9.999187, 9.999984 
4.9995536e+0, 1.5522498e+2, -1535425.8, -1488352.3, -7210.227, -0.008047319, -0.058887623, -1487272.6, -68483.45, 0.00011816065, 9.999265, 9.999881 
4.999651e+0, 1.6522506e+2, -1428420.0, -1414723.9, -2649.7168, -0.007590875, -0.02642083, -1414229.1, -93441.305, 0.000016018055, 9.999451, 9.999626 
4.9998704e+0, 1.7522411e+2, -1289403.1, -1299562.1, -1378.5154, -0.00028651793, -0.08896294, -1289219.4, -66423.23, 0.00000013955699, 9.999743, 9.999603 
4.9999756e+0, 1.8522336e+2, -1189673.3, -1249286.0, -4569.941, -0.0007893045, -0.10132201, -1189325.0, -64521.168, 0.0, 9.999965, 9.99917 
4.99998e+0, 1.9522294e+2, -1072064.1, -1145962.6, -7858.277, -0.007931799, -0.062005747, -1071237.8, -44428.47, 0.0, 10.000117, 9.999133 
5.0000834e+0, 2.0522214e+2, -958308.6, -1058625.8, -4132.372, -0.006930159, -0.047012348, -958138.7, -29320.94, 0.0, 10.000304, 9.998969 
5.000273e+0, 2.1522091e+2, -830398.9, -949673.56, 1868.0807, 0.0010409851, -0.06990381, -830369.6, 459.74, 0.0, 10.0005245, 9.998938 
5.000361e+0, 2.2521982e+2, -728664.7, -882965.25, 1610.9344, 0.0013714958, -0.058203578, -728647.9, 4193.2334, 0.0, 10.000693, 9.998642 
5.0003517e+0, 2.3521881e+2, -615066.9, -780186.3, -2730.115, -0.005499863, -0.027185023, -615021.75, 19831.328, 0.0, 10.000812, 9.998617 
5.0004435e+0, 2.4521753e+2, -497702.34, -688397.94, -1675.0913, -0.0063164914, -0.011000241, -497687.63, 39178.336, 0.0, 10.001012, 9.99848 
5.00063e+0, 2.5521594e+2, -362301.94, -577655.44, -2385.87, -0.0016347044, -0.018516285, -362275.53, 76604.234, 0.0, 10.001291, 9.998432 
5.0007606e+0, 2.6521397e+2, -271590.75, -552078.94, -5054.653, -0.0009174495, -0.028910335, -271499.7, 69400.2, 0.0, 10.001538, 9.997815 
5.0008386e+0, 2.752116e+2, -143774.27, -441933.8, -9686.531, -0.003820076, -0.04992662, -143459.9, 99465.57, 0.0, 10.001753, 9.997795 
5.0009996e+0, 2.8520995e+2, -24537.092, -360726.63, -10139.139, -0.00087272236, 0.018785143, -24231.584, 120711.305, 0.000000004221918, 10.002015, 9.997553 
5.0012344e+0, 2.9520887e+2, 121997.51, -234977.83, -10015.328, 0.006923578, 0.14897653, 122278.27, 169232.31, 0.0000065845143, 10.002329, 9.997592 
5.001391e+0, 3.052043e+2, 196644.69, -217252.9, -6043.086, 0.004437438, -0.050124716, 196732.89, 196732.89, 0.0000754208, 10.002693, 9.997209 
5.0015306e+0, 3.1520265e+2, 305249.84, -82623.836, -1923.9429, -0.0013587746, 0.06983862, 305259.38, 305259.38, 0.00026987135, 10.003084, 9.997945 
1.4998655e+1, 1.2522455e+2, -1837855.5, -1720887.9, 7530.975, 0.025574299, -0.09174241, -1720405.0, -7612.9175, 0.00135349, 9.998922, 10.000475 
1.4998806e+1, 1.3522562e+2, -1751964.9, -1683178.5, 3484.224, 0.018134566, 0.018236889, -1683002.5, -68219.78, 0.0008181531, 9.999076, 9.999987 
1.4998764e+1, 1.452239e+2, -1640870.9, -1582790.3, -2928.9639, -0.0024708759, -0.15190774, -1582643.0, -65843.12, 0.00037595516, 9.999183, 9.999946 
1.4998661e+1, 1.5522453e+2, -1538713.5, -1494394.5, -4042.154, -0.024080753, -0.07963921, -1494028.9, -75235.68, 0.00011312574, 9.999262, 9.999842 
1.4998952e+1, 1.6522473e+2, -1425229.8, -1407232.1, 7733.39, -0.022792783, -0.035800748, -1404365.6, -83574.875, 0.000014709239, 9.999447, 9.99968 
1.499961e+1, 1.752241e+2, -1286927.1, -1293597.0, 9638.865, -0.0008277697, -0.07216308, -1280062.6, -57265.727, 0.00000010097208, 9.999741, 9.999646 
1.4999926e+1, 1.8522333e+2, -1195817.0, -1260967.0, 975.72186, -0.0024243332, -0.084361844, -1195802.5, -70997.62, 0.0, 9.999961, 9.999092 
1.4999941e+1, 1.9522263e+2, -1077103.5, -1156040.5, -1753.7957, -0.02375031, -0.06597152, -1077064.5, -50251.563, 0.0, 10.000116, 9.999065 
1.500025e+1, 2.0522188e+2, -946223.7, -1032804.4, 3739.8882, -0.020873692, -0.05045476, -946062.44, -17241.916, 0.0, 10.000301, 9.999147 
1.5000822e+1, 2.1522102e+2, -819055.94, -925425.0, 10535.087, 0.0033060836, -0.05316379, -818022.56, 12805.655, 0.0, 10.000523, 9.999105 
1.5001081e+1, 2.2521994e+2, -735848.3, -896858.9, 5731.9146, 0.003915721, -0.0438774, -735644.5, -2804.9924, 0.0, 10.0006895, 9.9985485 
1.5001056e+1, 2.3521866e+2, -622421.4, -795153.25, 2327.9202, -0.016317727, -0.02947422, -622390.0, 12463.917, 0.0, 10.000811, 9.998516 
1.5001327e+1, 2.4521719e+2, -498777.7, -690059.7, 8418.125, -0.019170124, -0.025169168, -498407.9, 38460.53, 0.0, 10.00101, 9.998469 
1.500189e+1, 2.5521553e+2, -362558.9, -577552.56, 8377.163, -0.004895411, -0.04183844, -362233.0, 76650.26, 0.0, 10.001288, 9.998434 
1.500228e+1, 2.652135e+2, -279082.0, -566845.0, 2776.5493, -0.0027967445, -0.05014117, -279055.2, 61848.48, 0.0, 10.001535, 9.997716 
1.5002514e+1, 2.7521122e+2, -152633.88, -459603.1, -1286.1469, -0.011562549, -0.052597452, -152628.48, 90300.305, 0.0, 10.00175, 9.997675 
1.5002997e+1, 2.8520942e+2, -24795.445, -360504.03, 1337.278, -0.0025113772, 0.005152542, -24790.117, 120157.72, 0.0000000059189293, 10.002012, 9.997556 
1.50037e+1, 2.9520795e+2, 122969.305, -231984.22, 2532.7437, 0.020479739, 0.09848377, 122987.375, 169949.64, 0.0000065077284, 10.002326, 9.997614 
1.5004177e+1, 3.0520347e+2, 202398.39, -204431.64, 8624.3, 0.0137225455, -0.09744399, 202581.14, 202581.14, 0.000074264535, 10.00269, 9.997298 
1.5004587e+1, 3.152023e+2, 309047.75, -73173.55, 16414.32, -0.004443042, 0.0632667, 309751.38, 309751.38, 0.0002663471, 10.003078, 9.998013 
2.4997826e+1, 1.252243e+2, -1822734.1, -1729376.1, 1918.9208, 0.041337706, -0.102212705, -1729336.6, -16542.96, 0.0013145427, 9.999097, 10.000333 
2.4997832e+1, 1.3522543e+2, -1778894.4, -1709786.8, -7184.394, 0.019089092, 0.026415478, -1709047.8, -94262.76, 0.0007913486, 9.998951, 9.999866 
2.4997807e+1, 1.4522365e+2, -1656690.1, -1588512.9, -3351.3826, -0.0107030505, -0.14703603, -1588348.5, -71545.555, 0.00036019128, 9.999065, 9.999965 
2.4997935e+1, 1.5522406e+2, -1511101.4, -1479446.0, -337.343, -0.032159425, -0.09768196, -1479442.4, -60644.93, 0.00010584406, 9.999445, 9.999857 
2.4998417e+1, 1.6522425e+2, -1403042.1, -1410742.6, 5658.8813, -0.0318714, -0.04788084, -1400047.9, -79252.54, 0.000012859098, 9.9996605, 9.999554 
2.4999236e+1, 1.752238e+2, -1297671.1, -1312650.8, -6198.923, -0.011787153, -0.051790833, -1295438.6, -72637.91, 0.00000006033416, 9.999727, 9.999522 
2.4999803e+1, 1.8522307e+2, -1200249.5, -1254307.9, -12799.535, -0.007371353, -0.060306836, -1197372.1, -72563.484, 0.0, 9.999893, 9.999171 
2.5000152e+1, 1.9522223e+2, -1065362.1, -1141438.8, -4110.8613, -0.016565485, -0.06360705, -1065140.6, -38323.49, 0.0, 10.000159, 9.999145 
2.5000623e+1, 2.0522146e+2, -947879.4, -1035068.0, -3374.799, -0.013577666, -0.052908733, -947749.0, -18924.55, 0.0, 10.000298, 9.999135 
2.50012e+1, 2.152207e+2, -850518.44, -941970.94, -11258.393, -0.00056688546, -0.046406038, -849152.8, -18321.283, 0.0, 10.000312, 9.999094 
2.5001624e+1, 2.2521955e+2, -756562.3, -902802.8, -11233.533, -0.002437276, -0.044331405, -755704.44, -22861.344, 0.0, 10.000529, 9.998586 
2.5001916e+1, 2.3521811e+2, -602493.3, -781619.06, -5046.801, -0.01751131, -0.04940072, -602351.2, 32506.969, 0.0, 10.000932, 9.99855 
2.5002414e+1, 2.452166e+2, -480757.47, -696637.75, 484.69257, -0.020849477, -0.04363002, -480756.4, 56116.727, 0.0, 10.001199, 9.998333 
2.5003123e+1, 2.55215e+2, -364089.38, -592520.25, -9304.334, -0.013044713, -0.04202867, -363711.03, 75177.24, 0.0, 10.00134, 9.998307 
2.500377e+1, 2.6521292e+2, -281598.7, -570298.94, -15567.668, -0.0069178403, -0.047924574, -280761.63, 60147.664, 0.0, 10.001528, 9.997696 
2.5004378e+1, 2.752105e+2, -151046.08, -461875.75, -13018.442, -0.0012639184, -0.06232455, -150501.78, 92433.49, 0.0, 10.001774, 9.997649 
2.5005132e+1, 2.852086e+2, -19025.33, -364563.0, -4585.129, 0.0062895855, -0.008326989, -18964.498, 125990.62, 0.0000000086392555, 10.002081, 9.997495 
2.5005984e+1, 2.952071e+2, 132673.88, -233525.72, -9225.57, 0.011690646, 0.08884763, 132906.14, 179876.33, 0.0000063841276, 10.002419, 9.99756 
2.5006774e+1, 3.0520266e+2, 208504.08, -186827.5, -4780.083, 0.0055817855, -0.10730028, 208561.88, 208561.88, 0.00007245599, 10.00267, 9.997429 
2.5007764e+1, 3.1520158e+2, 284809.9, -75198.34, 8952.731, 0.015740143, 0.046335425, 285032.4, 285032.4, 0.00026087384, 10.0028715, 9.998099 
3.4997052e+1, 1.2522374e+2, -1835774.4, -1756839.4, -4239.4263, 0.05282451, -0.13584359, -1756612.4, -43813.883, 0.0012623775, 9.999099, 10.000144 
3.4996665e+1, 1.352253e+2, -1789723.8, -1733155.5, -11901.501, 0.0068679475, 0.052719213, -1730753.5, -115966.17, 0.000755357, 9.998955, 9.999703 
3.4996712e+1, 1.452235e+2, -1650675.0, -1576000.6, 9900.583, -0.027636271, -0.11879909, -1574710.3, -57904.82, 0.00033918672, 9.999066, 10.000051 
3.4997377e+1, 1.5522358e+2, -1506527.5, -1469172.5, 13780.252, -0.03311533, -0.11128825, -1464639.1, -45837.26, 0.00009620481, 9.999442, 9.999929 
3.4998044e+1, 1.6522364e+2, -1424640.0, -1454719.9, 7981.8623, -0.03631553, -0.06280329, -1422653.3, -101851.914, 0.000010539653, 9.999658, 9.999253 
3.499874e+1, 1.7522326e+2, -1317886.1, -1354454.5, -3282.5383, -0.03471719, -0.028779246, -1317593.9, -94785.914, 0.000000028001644, 9.999726, 9.999236 
3.4999603e+1, 1.8522258e+2, -1183297.4, -1218672.5, -3187.422, -0.017235283, -0.029959964, -1183012.4, -58197.2, 0.0, 9.999891, 9.999416 
3.500061e+1, 1.9522177e+2, -1049801.9, -1108262.9, 6090.4688, 0.013135089, -0.05424264, -1049174.1, -22352.54, 0.0, 10.000155, 9.999373 
3.5001197e+1, 2.0522092e+2, -962717.6, -1064659.1, -2846.7954, 0.013871519, -0.05448373, -962638.2, -33808.78, 0.0, 10.000293, 9.998934 
3.500141e+1, 2.1521991e+2, -864168.1, -970085.4, -9904.713, -0.011398345, -0.049867954, -863249.9, -32410.361, 0.0, 10.000311, 9.998901 
3.500199e+1, 2.2521864e+2, -744242.5, -876522.06, 3601.7888, -0.019168567, -0.06076798, -744144.5, -11292.588, 0.0, 10.000526, 9.998767 
3.5002926e+1, 2.3521717e+2, -590785.7, -757151.1, 10305.76, -0.009745382, -0.08711069, -590149.7, 44716.184, 0.0, 10.00093, 9.998719 
3.50037e+1, 2.4521574e+2, -498655.84, -732741.5, 5548.1743, -0.012400495, -0.06750792, -498524.4, 38355.664, 0.0, 10.001195, 9.998087 
3.5004327e+1, 2.5521436e+2, -381922.2, -628953.44, -3656.9023, -0.026909946, -0.018663973, -381868.06, 57026.77, 0.0, 10.001338, 9.998057 
3.5005224e+1, 2.652122e+2, -277391.47, -561032.1, -6643.0015, -0.014675654, -0.023181388, -277235.97, 63680.855, 0.0, 10.001526, 9.99776 
3.5006425e+1, 2.7520946e+2, -146559.08, -451474.6, -3145.8374, 0.025463197, -0.078650385, -146526.63, 96418.3, 0.0, 10.00177, 9.997723 
3.5007396e+1, 2.8520754e+2, -28152.318, -382452.25, 8134.6045, 0.024561677, -0.022301422, -27965.648, 116999.09, 0.000000011844628, 10.002077, 9.997375 
3.5008085e+1, 2.952064e+2, 123274.03, -251649.72, 3545.4622, -0.020889904, 0.12060273, 123307.56, 170285.39, 0.0000061783935, 10.002415, 9.997437 
3.5009184e+1, 3.0520195e+2, 220575.44, -161258.56, 2051.3174, -0.020829953, -0.07972445, 220586.45, 220586.45, 0.00006980885, 10.002668, 9.997605 
3.5011044e+1, 3.1520048e+2, 292668.03, -57952.39, 20448.72, 0.05570561, 0.020409662, 293856.63, 293856.63, 0.00025299258, 10.002869, 9.998219 
4.4995925e+1, 1.2522306e+2, -1920794.8, -1791945.6, -39513.563, 0.06108137, -0.12356379, -1780793.4, -67986.88, 0.0011988538, 9.99849, 10.000198 
4.4995612e+1, 1.3522473e+2, -1767560.1, -1712224.3, -29272.56, 0.0005261829, 0.06909588, -1699613.1, -84819.47, 0.0007112032, 9.999064, 9.999795 
4.4995815e+1, 1.4522295e+2, -1618061.3, -1567107.3, -4559.3843, -0.03672102, -0.10160281, -1566702.5, -49890.813, 0.00031351, 9.999321, 9.9999895 
4.4996765e+1, 1.5522301e+2, -1533277.9, -1489142.3, -12238.385, -0.030623794, -0.09069803, -1485975.9, -67167.336, 0.000084590996, 9.9992895, 9.9998665 
4.4997627e+1, 1.6522297e+2, -1457460.4, -1476569.8, -10523.946, -0.033486687, -0.04619392, -1452800.8, -131991.86, 0.000007991499, 9.999459, 9.9992 
4.4998443e+1, 1.7522244e+2, -1306050.9, -1354333.5, -3350.44, -0.042238448, -0.022254175, -1305819.5, -83002.74, 0.000000008983813, 9.999832, 9.999186 
4.499948e+1, 1.8522169e+2, -1163917.0, -1213558.6, -7412.2466, -0.026121456, -0.02605926, -1162833.9, -38009.3, 0.0, 10.000043, 9.999378 
4.5000702e+1, 1.9522087e+2, -1060587.8, -1117882.1, -19872.092, 0.009919458, -0.047036443, -1054370.0, -27539.146, 0.0, 10.000101, 9.999334 
4.500149e+1, 2.0521995e+2, -965935.75, -1069600.9, -31132.572, 0.014416688, -0.049970675, -957304.7, -28465.535, 0.0, 10.000285, 9.998904 
4.5001885e+1, 2.1521887e+2, -826291.2, -954363.8, -25504.293, -0.008375236, -0.051830094, -821399.2, 9450.724, 0.0, 10.000584, 9.9988785 
4.5002675e+1, 2.2521757e+2, -705459.94, -862492.44, -9106.409, -0.017682085, -0.062252406, -704933.6, 27928.854, 0.0, 10.000813, 9.998726 
4.5003837e+1, 2.3521611e+2, -586551.75, -759341.25, -19266.223, -0.014023235, -0.08289824, -584429.6, 50446.68, 0.0, 10.0009775, 9.998682 
4.5004863e+1, 2.4521467e+2, -503259.4, -737478.3, -25944.52, -0.014562084, -0.062460482, -500419.94, 36470.766, 0.0, 10.001174, 9.998065 
4.5005763e+1, 2.5521323e+2, -374291.06, -627773.3, -18520.422, -0.020086838, -0.016932586, -372945.03, 65960.89, 0.0, 10.001401, 9.998035 
4.5006874e+1, 2.6521105e+2, -259372.28, -553549.5, -12622.472, -0.008584073, -0.023113433, -258831.67, 82096.38, 0.0, 10.001655, 9.99775 
4.500824e+1, 2.7520826e+2, -124855.57, -441713.5, -14930.731, 0.022694752, -0.080933906, -124153.57, 118802.516, 0.0, 10.001922, 9.997717 
4.5009467e+1, 2.8520632e+2, -32996.316, -392813.2, -5868.122, 0.024222255, -0.022737503, -32900.64, 112075.65, 0.000000014278152, 10.002079, 9.997302 
4.5010486e+1, 2.9520515e+2, 81650.61, -280505.53, -6836.4155, -0.009179849, 0.12616988, 81779.61, 128769.82, 0.0000058442592, 10.002166, 9.997359 
4.501179e+1, 3.052008e+2, 187475.86, -164331.2, -6914.204, -0.012691395, -0.068390004, 187611.69, 187611.69, 0.000066210356, 10.002385, 9.997722 
4.5013848e+1, 3.151994e+2, 266667.75, -66371.77, 8151.8438, 0.05938691, 0.02970996, 266867.2, 266867.2, 0.0002424885, 10.00267, 9.998258 
5.499443e+1, 1.2522224e+2, -1898534.3, -1747530.4, -17958.877, 0.06093533, -0.06368776, -1745423.9, -32606.186, 0.0011275938, 9.998498, 10.0005 
5.499467e+1, 1.3522376e+2, -1743704.4, -1662559.8, -8329.463, -0.0006944311, 0.07790631, -1661713.6, -46909.53, 0.00066134764, 9.999064, 10.000136 
5.499511e+1, 1.45222e+2, -1631971.9, -1595491.0, -5607.562, -0.040053997, -0.09611688, -1594648.5, -77826.99, 0.00028458898, 9.999318, 9.999796 
5.4996085e+1, 1.5522234e+2, -1546212.9, -1517026.9, -12626.017, -0.028820733, -0.03723341, -1512322.9, -93505.29, 0.00007188515, 9.999293, 9.999674 
5.499716e+1, 1.6522224e+2, -1443230.8, -1447226.0, 3109.5762, -0.026833285, 0.0011529209, -1441532.4, -120714.15, 0.0000055425044, 9.99946, 9.9994 
5.4998356e+1, 1.7522135e+2, -1293613.4, -1327246.4, 10683.338, -0.034405667, -0.030621417, -1290506.9, -67679.68, 0.00000000116644, 9.999827, 9.999374 
5.4999435e+1, 1.8522039e+2, -1187187.1, -1260696.0, -5130.921, -0.035424523, -0.048028916, -1186830.8, -61994.168, 0.0, 10.000039, 9.999057 
5.5000424e+1, 1.9521952e+2, -1082294.9, -1162938.3, -17197.586, -0.028644774, -0.04305161, -1078780.6, -51935.523, 0.0, 10.000101, 9.999025 
5.500149e+1, 2.0521858e+2, -955142.44, -1046843.7, -20027.955, -0.014173282, -0.04044967, -950959.1, -22105.465, 0.0, 10.000284, 9.999062 
5.5002624e+1, 2.1521755e+2, -816599.7, -933842.56, -13966.403, 0.007093898, -0.052650675, -814958.94, 15903.8955, 0.0, 10.000582, 9.999021 
5.500367e+1, 2.2521631e+2, -723756.7, -899518.94, -2964.854, 0.0006039467, -0.049699742, -723706.7, 9168.255, 0.0, 10.00081, 9.998473 
5.5004644e+1, 2.3521493e+2, -603616.25, -794799.6, -12629.338, -0.031604763, -0.036615543, -602785.56, 32103.938, 0.0, 10.0009775, 9.998439 
5.5005896e+1, 2.4521334e+2, -488742.28, -706961.2, -17628.016, -0.029231148, -0.029620608, -487327.44, 49577.605, 0.0, 10.001173, 9.998276 
5.500742e+1, 2.552116e+2, -360705.56, -598918.1, -9617.247, 0.005253257, -0.036873665, -360317.9, 78603.69, 0.0, 10.001398, 9.998236 
5.5008715e+1, 2.652094e+2, -265083.7, -564372.4, -2610.0576, 0.009974973, -0.048848983, -265060.94, 75882.19, 0.0, 10.001651, 9.997678 
5.500983e+1, 2.7520692e+2, -130572.93, -452738.47, -5100.83, -0.010909455, -0.068600014, -130492.195, 112476.555, 0.0, 10.001919, 9.997642 
5.5011344e+1, 2.8520495e+2, -34732.563, -396547.8, -3147.0593, 0.0030088844, -0.009804696, -34705.19, 110284.56, 0.000000014996283, 10.00208, 9.997276 
5.5013186e+1, 2.9520342e+2, 79723.695, -283625.2, -2470.7705, 0.04383032, 0.10630025, 79740.5, 126747.74, 0.0000053587105, 10.002163, 9.997339 
5.5014575e+1, 3.051992e+2, 190359.31, -157564.27, 4055.4211, 0.027256865, -0.07396237, 190406.58, 190406.58, 0.00006167987, 10.002383, 9.997769 
5.501617e+1, 3.1519836e+2, 263069.63, -72629.3, 21878.53, 0.02359488, 0.07346437, 264489.53, 264489.53, 0.00022941288, 10.002667, 9.998217 
6.4992595e+1, 1.2522064e+2, -1906598.4, -1722111.8, -33145.766, 0.03686722, -0.041435823, -1716337.3, -3501.791, 0.001052614, 9.998317, 10.00076 
6.499362e+1, 1.3522226e+2, -1793516.0, -1651521.3, -27373.658, 0.012900546, 0.078447625, -1646427.0, -31607.875, 0.00060904585, 9.998571, 10.000449 
6.4994377e+1, 1.4522061e+2, -1701791.0, -1639737.5, -28780.635, -0.022986192, -0.09546551, -1628444.3, -111608.95, 0.000254567, 9.998885, 9.9997015 
6.499533e+1, 1.5522107e+2, -1551710.1, -1529710.6, -28187.064, -0.03357856, -0.014242398, -1510453.0, -91621.52, 0.00005931439, 9.9993, 9.999584 
6.499663e+1, 1.6522098e+2, -1420676.5, -1423266.9, -9897.466, -0.030987905, 0.021893665, -1411989.9, -91157.74, 0.0000034805446, 9.999559, 9.9995165 
6.499825e+1, 1.7521995e+2, -1309149.6, -1322061.9, -8649.361, -0.0190325, -0.035012644, -1304812.5, -81971.66, 0.00000000000024211628, 9.999667, 9.999486 
6.49995e+1, 1.8521893e+2, -1213627.1, -1283789.6, -18575.72, -0.024908518, -0.059303984, -1209012.6, -84162.08, 0.0, 9.999903, 9.998964 
6.500045e+1, 1.9521804e+2, -1064644.0, -1164306.0, -13510.166, -0.04437321, -0.044772714, -1062845.0, -35985.613, 0.0, 10.000266, 9.998937 
6.5001684e+1, 2.052171e+2, -931103.6, -1040349.06, -16927.068, -0.032665946, -0.039182667, -928540.94, 327.60077, 0.0, 10.000471, 9.999016 
6.5003175e+1, 2.1521597e+2, -827317.94, -944100.94, -26056.102, 0.006297605, -0.053761143, -821768.1, 9110.207, 0.0, 10.00053, 9.998974 
6.500447e+1, 2.2521473e+2, -747229.56, -914158.75, -12689.932, 0.006877528, -0.046898767, -746270.4, -13379.903, 0.0, 10.000663, 9.998444 
6.50056e+1, 2.3521343e+2, -623089.2, -806684.0, -5504.476, -0.027354386, -0.025961563, -622924.3, 11980.186, 0.0, 10.000855, 9.998415 
6.500709e+1, 2.4521177e+2, -493862.72, -706325.06, -5196.147, -0.024684895, -0.02711491, -493735.72, 43184.832, 0.0, 10.001123, 9.998303 
6.5008926e+1, 2.552098e+2, -349167.7, -589830.8, -10699.277, 0.012712226, -0.056907516, -348692.94, 90245.44, 0.0, 10.001462, 9.998267 
6.501039e+1, 2.6520762e+2, -270365.03, -570841.1, -12939.515, 0.01383575, -0.068581946, -269808.84, 71150.88, 0.0, 10.001632, 9.9976425 
6.501156e+1, 2.7520528e+2, -171435.47, -476810.4, -12667.958, -0.016424844, -0.067775846, -170910.86, 72073.125, 0.0, 10.001657, 9.997602 
6.501332e+1, 2.8520328e+2, -59276.945, -411024.7, -4309.8066, 0.0014087907, -0.010113578, -59224.145, 85781.45, 0.000000013847158, 10.001923, 9.997253 
6.5015596e+1, 2.9520154e+2, 111172.47, -270189.88, -4078.8901, 0.05732243, 0.08540725, 111216.09, 158241.42, 0.0000047556837, 10.002386, 9.997324 
6.501713e+1, 3.0519745e+2, 221240.47, -135241.73, -1533.3519, 0.03555616, -0.08426147, 221247.06, 221247.06, 0.000056396846, 10.002563, 9.997835 
6.5018713e+1, 3.1519693e+2, 235711.5, -91268.06, 18873.484, 0.020095019, 0.08990484, 236797.28, 236797.28, 0.00021408794, 10.002502, 9.998167 
7.4990404e+1, 1.252182e+2, -1889588.5, -1688257.1, -23951.732, -0.015351945, -0.060616333, -1685446.9, 27413.418, 0.0009783517, 9.998322, 10.000991 
7.499243e+1, 1.3522021e+2, -1772179.9, -1609591.8, -17369.725, 0.03548127, 0.06886749, -1607756.8, 7082.1797, 0.00055803865, 9.99858, 10.000733 
7.49936e+1, 1.4521874e+2, -1700966.1, -1638774.0, -13502.035, 0.009542824, -0.10058596, -1635969.3, -119116.01, 0.00022607559, 9.99889, 9.999706 
7.499452e+1, 1.552192e+2, -1551985.9, -1529408.1, -12489.344, -0.04429727, -0.020700576, -1523861.9, -105011.62, 0.000048170983, 9.999296, 9.999588 
7.499603e+1, 1.6521914e+2, -1418238.8, -1417165.0, -5633.3228, -0.04656683, 0.0162775, -1412043.0, -91192.45, 0.0000019773436, 9.999556, 9.99956 
7.4998116e+1, 1.752182e+2, -1305756.4, -1315664.8, -3992.4172, 0.00004070031, -0.03623263, -1304347.9, -81489.805, 0.0, 9.99967, 9.999529 
7.499968e+1, 1.8521728e+2, -1203739.9, -1263516.9, -4930.5664, 0.0018039463, -0.060724832, -1203335.9, -78469.47, 0.0, 9.999904, 9.999103 
7.5000787e+1, 1.9521648e+2, -1055816.3, -1145223.4, 168.2746, -0.037610687, -0.051520646, -1055815.9, -28941.953, 0.0, 10.000263, 9.999069 
7.500207e+1, 2.0521545e+2, -948776.0, -1076185.4, -14652.535, -0.041326612, -0.045940854, -947112.6, -18228.75, 0.0, 10.000467, 9.998771 
7.5003517e+1, 2.1521416e+2, -844041.44, -978538.44, -23389.389, -0.012769396, -0.05496211, -840090.06, -9193.567, 0.0, 10.000529, 9.998738 
7.500506e+1, 2.2521284e+2, -733197.9, -884816.2, -5518.0547, -0.0006717592, -0.054265168, -732997.3, -88.28266, 0.0, 10.000662, 9.998646 
7.5006706e+1, 2.3521155e+2, -609755.3, -778846.75, 2042.4901, -0.0029357066, -0.051389273, -609730.6, 25190.87, 0.0, 10.0008545, 9.998607 
7.500844e+1, 2.4520987e+2, -504275.47, -727415.25, 7421.182, -0.0018664256, -0.056522924, -504028.94, 32908.42, 0.0, 10.0011215, 9.998159 
7.501027e+1, 2.5520787e+2, -359076.88, -610216.4, 1767.2401, 0.00088466407, -0.076853715, -359064.44, 79891.84, 0.0, 10.001461, 9.998128 
7.5011903e+1, 2.6520568e+2, -269984.47, -569828.3, -12470.396, 0.0014577017, -0.08205909, -269466.72, 71511.18, 0.0, 10.001631, 9.997649 
7.501343e+1, 2.752034e+2, -172133.38, -477412.4, -10872.041, 0.0041982615, -0.07874285, -171746.67, 71255.16, 0.0, 10.001654, 9.9976 
7.5015414e+1, 2.852013e+2, -61289.098, -414690.84, 13049.692, 0.017346127, -0.02400555, -60807.883, 84215.98, 0.000000011324871, 10.001921, 9.997229 
7.5017715e+1, 2.9519945e+2, 110242.445, -272012.8, 12922.645, 0.029971575, 0.06342068, 110678.81, 157723.3, 0.000004098041, 10.002386, 9.997312 
7.501943e+1, 3.0519554e+2, 227449.88, -122146.35, -4440.34, 0.009232325, -0.09858177, 227506.27, 227506.27, 0.000050636394, 10.002563, 9.997925 
7.502147e+1, 3.1519514e+2, 232322.48, -97304.234, 19619.232, 0.044100825, 0.07977283, 233486.11, 233486.11, 0.00019707165, 10.002499, 9.998127 
8.4988624e+1, 1.25216e+2, -1920654.1, -1716036.8, 157.54303, -0.017578898, -0.06937396, -1716036.6, -3155.16, 0.00090933184, 9.998163, 10.000876 
8.49909e+1, 1.3521807e+2, -1766154.1, -1610955.4, -20559.887, 0.021670736, 0.068738595, -1608277.9, 6582.6367, 0.0005120121, 9.998641, 10.000694 
8.4992456e+1, 1.4521666e+2, -1677855.4, -1609373.8, -24005.42, 0.0021929424, -0.1025284, -1601797.1, -84922.96, 0.00020159004, 9.998969, 9.999869 
8.499394e+1, 1.552172e+2, -1559467.1, -1515600.3, -11105.532, -0.025195736, -0.028857974, -1512949.0, -94079.586, 0.000039447743, 9.999171, 9.9997425 
8.499567e+1, 1.6521719e+2, -1445124.4, -1435714.9, -5868.7217, -0.030512111, 0.008252425, -1432897.9, -112028.69, 0.0000010481418, 9.999395, 9.99951 
8.499765e+1, 1.7521627e+2, -1310680.4, -1323339.3, -11922.519, -0.012821187, -0.036895838, -1303511.3, -80634.24, 0.0, 9.999659, 9.999482 
8.499941e+1, 1.8521538e+2, -1207995.1, -1256248.9, -16666.477, -0.0116981035, -0.0588043, -1202798.3, -77913.305, 0.0, 9.999834, 9.9991865 
8.500097e+1, 1.9521466e+2, -1099558.8, -1156808.3, -15564.212, -0.027825577, -0.051539533, -1095601.0, -68709.48, 0.0, 9.999922, 9.999153 
8.5002494e+1, 2.0521364e+2, -995063.0, -1101431.9, -23520.309, -0.02981957, -0.047729574, -990094.25, -61193.086, 0.0, 10.000163, 9.998744 
8.5003996e+1, 2.152123e+2, -843500.2, -981432.5, -16354.643, -0.01813239, -0.058299307, -841587.56, -10673.319, 0.0, 10.000546, 9.998711 
8.5005766e+1, 2.252109e+2, -709664.56, -874429.7, 425.51038, -0.0046880506, -0.06469732, -709663.5, 23264.035, 0.0, 10.000827, 9.998637 
8.5007775e+1, 2.352095e+2, -586210.7, -768239.4, -8325.136, 0.010878013, -0.072672375, -585830.75, 49109.99, 0.0, 10.0010195, 9.9986 
8.5009706e+1, 2.4520785e+2, -499573.63, -729261.6, -4440.8525, 0.009897114, -0.07295264, -499487.8, 37468.586, 0.0, 10.001171, 9.998123 
8.501156e+1, 2.55206e+2, -386921.88, -627894.6, -2146.3027, -0.008214896, -0.073392496, -386902.78, 52071.383, 0.0, 10.001288, 9.99809 
8.5013443e+1, 2.6520377e+2, -280200.7, -578956.75, -14229.23, -0.0052661956, -0.07797885, -279524.5, 61471.74, 0.0, 10.001578, 9.997613 
8.501545e+1, 2.7520126e+2, -121107.49, -456452.3, -16470.88, 0.022931114, -0.09186988, -120300.445, 122721.75, 0.0, 10.002019, 9.997568 
8.5017616e+1, 2.851992e+2, -20914.248, -393015.53, 8022.3447, 0.032976903, -0.040023983, -20741.37, 124303.055, 0.000000007967864, 10.002188, 9.997251 
8.50198e+1, 2.951975e+2, 73428.71, -287086.22, 10631.187, 0.013494128, 0.06066147, 73741.94, 120805.32, 0.0000034232567, 10.002122, 9.997336 
8.5021627e+1, 3.0519366e+2, 186474.48, -132243.02, -9767.733, -0.010634153, -0.092892416, 186773.55, 186773.55, 0.00004462947, 10.002238, 9.998013 
8.502412e+1, 3.151931e+2, 224593.72, -106177.66, 15400.995, 0.061516054, 0.05855447, 225309.27, 225309.27, 0.00017893763, 10.002466, 9.998081 
9.498722e+1, 1.2521407e+2, -1953445.5, -1784178.4, 18661.656, 0.02474071, -0.06665226, -1782145.4, -69246.48, 0.0008487081, 9.998164, 10.000409 
9.4989043e+1, 1.3521577e+2, -1792138.4, -1666025.8, -2533.3516, -0.028429752, 0.07742975, -1665974.9, -51091.004, 0.00047347447, 9.998645, 10.000315 
9.499095e+1, 1.4521427e+2, -1653641.9, -1559583.1, -16600.3, -0.046142377, -0.10144455, -1556739.4, -39840.906, 0.00018256163, 9.998971, 10.00021 
9.499356e+1, 1.5521504e+2, -1536476.6, -1468822.9, -2983.9763, 0.018572275, -0.039075393, -1468691.5, -49802.24, 0.00003354367, 9.999174, 10.000062 
9.49955e+1, 1.652151e+2, -1456038.3, -1458512.6, 4248.3154, 0.01227785, -0.002659724, -1452850.6, -131962.61, 0.00000057940093, 9.999396, 9.999352 
9.4996864e+1, 1.7521414e+2, -1321255.1, -1344873.3, -1754.2366, -0.057494782, -0.036988735, -1321125.5, -98227.61, 0.0, 9.999658, 9.999335 
9.499871e+1, 1.8521325e+2, -1205422.4, -1250737.4, -13459.345, -0.0656951, -0.052819345, -1201726.3, -76819.82, 0.0, 9.999833, 9.999225 
9.5001e+1, 1.9521259e+2, -1096626.0, -1150911.4, -11742.023, -0.017288363, -0.044657998, -1094195.0, -67282.87, 0.0, 9.999923, 9.999193 
9.500296e+1, 2.0521165e+2, -982098.3, -1074487.0, -9150.852, 0.000007424793, -0.04432115, -981200.6, -52280.15, 0.0, 10.000163, 9.99893 
9.500462e+1, 2.1521041e+2, -830852.1, -954985.75, -1823.6191, -0.011099001, -0.06398349, -830825.3, 106.365074, 0.0, 10.0005455, 9.998893 
9.500658e+1, 2.2520891e+2, -725454.94, -906882.3, 7511.3994, -0.0062861573, -0.07818007, -725144.5, 7801.3755, 0.0, 10.000826, 9.998415 
9.5008826e+1, 2.3520723e+2, -601463.9, -799478.4, -1031.5094, 0.013354017, -0.090207234, -601458.5, 33503.844, 0.0, 10.001018, 9.998386 
9.5010877e+1, 2.4520566e+2, -494591.9, -718673.4, -439.70947, 0.009850865, -0.07558081, -494591.06, 42386.57, 0.0, 10.00117, 9.998196 
9.5012766e+1, 2.5520417e+2, -382702.38, -618767.06, 2788.9695, -0.016075041, -0.047392868, -382669.44, 56322.63, 0.0, 10.0012865, 9.998153 
9.5015e+1, 2.652019e+2, -286660.88, -591889.06, 2254.3887, -0.007341414, -0.057005145, -286644.22, 54370.688, 0.0, 10.001576, 9.997525 
9.5017624e+1, 2.7519894e+2, -126188.336, -466914.25, -365.8107, 0.038120247, -0.10725685, -126187.945, 116857.18, 0.0, 10.002019, 9.997498 
9.5019937e+1, 2.8519684e+2, -15738.051, -382061.0, 4769.9546, 0.04619861, -0.05741932, -15675.951, 129391.32, 0.0000000042394483, 10.002187, 9.997326 
9.502185e+1, 2.9519552e+2, 76894.02, -279135.3, 9029.303, 0.006246682, 0.0757457, 77122.87, 124204.96, 0.000002739973, 10.002118, 9.997393 
9.502372e+1, 3.0519187e+2, 191687.73, -119843.41, -904.61536, -0.025686895, -0.06828944, 191690.36, 191690.36, 0.000038513957, 10.0022335, 9.998099 
9.502667e+1, 3.1519082e+2, 220397.13, -114119.8, 26140.21, 0.06899703, 0.026363607, 222427.47, 222427.47, 0.00016010099, 10.002463, 9.998028 
1.0498538e+2, 1.252117e+2, -1938854.3, -1792579.6, 874.14343, 0.016873153, -0.0602199, -1792574.5, -79652.97, 0.00079770345, 9.998332, 10.000269 
1.0498772e+2, 1.3521333e+2, -1793998.8, -1672377.1, 3482.3923, -0.02644679, 0.08030962, -1672277.5, -57369.47, 0.0004431459, 9.998657, 10.000264 
1.0498993e+2, 1.4521182e+2, -1653348.5, -1552087.9, -14646.766, -0.04400045, -0.10061725, -1550011.9, -33089.203, 0.00016917764, 9.99894, 10.000277 
1.0499273e+2, 1.552126e+2, -1526743.8, -1457518.3, -22709.18, 0.016665036, -0.042986017, -1450733.5, -31820.887, 0.000030278157, 9.999211, 10.000122 
1.04994886e+2, 1.6521269e+2, -1457418.0, -1460504.6, -20768.406, 0.0123032415, -0.0052596875, -1438135.6, -117224.65, 0.0000004316036, 9.999392, 9.999343 
1.0499649e+2, 1.7521182e+2, -1348043.9, -1358611.9, -15613.786, -0.0518168, -0.030843997, -1336844.1, -113923.55, 0.0, 9.999477, 9.999328 
1.0499849e+2, 1.8521094e+2, -1229591.8, -1260746.9, -22123.598, -0.06272017, -0.04740051, -1218111.8, -93182.37, 0.0, 9.9996605, 9.999239 
1.0500087e+2, 1.9521017e+2, -1092484.3, -1147825.3, -23072.027, -0.023756415, -0.049258873, -1084127.3, -57191.395, 0.0, 9.999946, 9.999205 
1.0500311e+2, 2.0520927e+2, -968096.0, -1059261.8, -20238.016, -0.0037306137, -0.048780374, -963805.3, -34861.65, 0.0, 10.000221, 9.999006 
1.0500522e+2, 2.152082e+2, -834402.1, -947709.0, -21458.895, -0.0021119113, -0.059067823, -830474.25, 478.64316, 0.0, 10.0004835, 9.998972 
1.05007425e+2, 2.2520672e+2, -743515.56, -919058.5, -12894.676, 0.0014210251, -0.07560798, -742573.44, -9606.409, 0.0, 10.000717, 9.9983835 
1.0500973e+2, 2.3520486e+2, -617397.1, -811110.6, -7416.1855, 0.0066152015, -0.10007398, -617113.6, 17871.502, 0.0, 10.000925, 9.998352 
1.05012e+2, 2.452033e+2, -491462.22, -714174.5, -1494.464, 0.0048792893, -0.08317939, -491452.2, 45548.203, 0.0, 10.001179, 9.998223 
1.05014265e+2, 2.55202e+2, -353304.7, -601423.6, -2514.3347, -0.0042019854, -0.039776772, -353279.22, 85734.086, 0.0, 10.001474, 9.998182 
1.05016716e+2, 2.651998e+2, -277108.84, -589133.7, 1063.7277, 0.003127815, -0.04432047, -277105.22, 63930.51, 0.0, 10.001648, 9.997511 
1.050194e+2, 2.751968e+2, -172251.02, -490560.66, 3325.0815, 0.029894732, -0.09840615, -172216.28, 70850.26, 0.0, 10.001708, 9.997485 
1.0502193e+2, 2.851946e+2, -47188.457, -388923.4, 6745.7627, 0.03993459, -0.059754938, -47055.35, 98033.83, 0.0000000012344323, 10.001934, 9.997401 
1.0502422e+2, 2.951932e+2, 108244.62, -256178.9, 11256.067, 0.022253362, 0.057465225, 108591.96, 155696.17, 0.0000020653147, 10.002297, 9.997466 
1.05026126e+2, 3.051898e+2, 222849.22, -100343.97, -1334.5225, -0.017988319, -0.069023855, 222854.73, 222854.73, 0.00003243676, 10.002424, 9.998144 
1.0502894e+2, 3.151888e+2, 193828.39, -136836.53, 22025.17, 0.05759687, 0.023437541, 195289.02, 195289.02, 0.00014094144, 10.002322, 9.997941 
1.1498313e+2, 1.2520891e+2, -1924356.5, -1764134.6, 13261.232, -0.04464631, -0.053250853, -1763044.4, -50094.996, 0.0007564602, 9.998339, 10.000462 
1.1498686e+2, 1.3521072e+2, -1774295.4, -1631129.1, 15681.978, 0.022476353, 0.077576876, -1629431.5, -14498.585, 0.00042056636, 9.998654, 10.000549 
1.1498934e+2, 1.4520927e+2, -1670066.9, -1585422.9, -4182.4077, 0.0028914465, -0.09984465, -1585216.6, -68269.77, 0.00016082273, 9.998936, 10.000051 
1.1499146e+2, 1.5520984e+2, -1541387.9, -1488979.9, -11852.845, -0.031728983, -0.041586313, -1486423.9, -67483.81, 0.000029173776, 9.999216, 9.999904 
1.1499385e+2, 1.6520995e+2, -1445717.0, -1437399.4, -18009.285, -0.031049313, 0.00047274953, -1423075.0, -102136.516, 0.0000005105562, 9.999396, 9.999499 
1.149965e+2, 1.7520928e+2, -1337469.1, -1336929.3, -12040.883, 0.0014951971, -0.017652009, -1325155.4, -102210.14, 0.0, 9.999478, 9.999476 
1.1499873e+2, 1.852084e+2, -1231473.5, -1264317.8, -11373.709, -0.005583458, -0.042281672, -1227919.4, -102965.58, 0.0, 9.99966, 9.999215 
1.1500058e+2, 1.9520739e+2, -1093878.8, -1150619.6, -11991.4375, -0.04764644, -0.06565185, -1091448.5, -64485.7, 0.0, 9.999945, 9.999186 
1.1500296e+2, 2.0520651e+2, -970443.9, -1063806.0, -10473.14, -0.041800003, -0.06079215, -969283.44, -40312.773, 0.0, 10.000219, 9.998976 
1.15005806e+2, 2.1520568e+2, -836205.44, -951249.8, -11396.221, 0.008037199, -0.043683868, -835087.4, -4109.4966, 0.0, 10.000483, 9.998948 
1.1500831e+2, 2.2520429e+2, -732760.1, -896356.4, -5231.6167, 0.017522294, -0.057024475, -732593.0, 397.92044, 0.0, 10.000715, 9.998541 
1.1501049e+2, 2.3520239e+2, -606923.25, -789114.9, 812.09766, -0.010027945, -0.10222001, -606919.6, 28089.469, 0.0, 10.000923, 9.998504 
1.1501308e+2, 2.4520081e+2, -493919.53, -718603.2, 9471.822, -0.0061536096, -0.09537722, -493520.94, 43503.742, 0.0, 10.001176, 9.998195 
1.1501604e+2, 2.551995e+2, -354715.94, -603815.1, 8506.697, 0.025732351, -0.050436035, -354425.78, 84612.18, 0.0, 10.001472, 9.998167 
1.15018584e+2, 2.6519746e+2, -272598.9, -579660.2, 2790.0208, 0.025045715, -0.039729767, -272573.53, 68485.26, 0.0, 10.001648, 9.997576 
1.1502079e+2, 2.751948e+2, -169020.08, -483494.66, 6012.0645, -0.002185732, -0.06640538, -168905.19, 74181.36, 0.0, 10.001706, 9.997535 
1.1502361e+2, 2.8519246e+2, -42698.316, -378024.5, 20201.207, 0.014413106, -0.04788306, -41485.71, 103624.51, 0.00000000006210851, 10.001928, 9.9974785 
1.1502688e+2, 2.951905e+2, 114059.0, -243283.0, 25080.896, 0.05875657, 0.006351885, 115810.77, 162940.42, 0.0000014487281, 10.002295, 9.997556 
1.1502882e+2, 3.051874e+2, 223086.55, -99127.984, -5460.508, 0.010188428, -0.09456541, 223179.05, 223179.05, 0.000026628812, 10.002421, 9.998154 
1.15030944e+2, 3.151869e+2, 184227.2, -155662.19, 19397.643, 0.024150895, 0.04813974, 185330.64, 185330.64, 0.00012196842, 10.002317, 9.997814 
1.24981225e+2, 1.2520562e+2, -1907259.0, -1749007.5, 5049.6777, -0.07258133, -0.06626566, -1748846.6, -35864.844, 0.0007247361, 9.998427, 10.000524 
1.24985546e+2, 1.3520767e+2, -1750809.6, -1603433.9, -6409.6753, 0.02109679, 0.07379532, -1603155.6, 11806.509, 0.00040489552, 9.998747, 10.000695 
1.249883e+2, 1.4520638e+2, -1670984.9, -1586310.4, -26862.146, 0.007183873, -0.09644901, -1578507.6, -61532.984, 0.00015657058, 9.99893, 10.000048 
1.24990515e+2, 1.5520687e+2, -1573884.3, -1504911.3, -17837.145, -0.037022423, -0.042235628, -1500571.4, -81602.79, 0.000029665785, 9.998995, 9.999902 
1.24993116e+2, 1.6520694e+2, -1472721.5, -1443292.0, -18427.541, -0.033044297, -0.008494987, -1434425.0, -113457.51, 0.0000007617598, 9.999179, 9.999564 
1.249961e+2, 1.7520626e+2, -1332631.6, -1328037.9, -20458.5, 0.014009448, -0.03744968, -1309747.6, -86773.61, 0.0, 9.999481, 9.9995365 
1.249986e+2, 1.852054e+2, -1221328.9, -1259056.4, -19530.727, 0.012584202, -0.059239846, -1213039.5, -88057.414, 0.0, 9.999725, 9.99922 
1.2500066e+2, 1.9520457e+2, -1098520.8, -1151939.0, -18085.297, -0.033160258, -0.06681957, -1092973.8, -65983.78, 0.0, 9.999909, 9.999193 
1.250032e+2, 2.0520368e+2, -981118.8, -1068449.4, -12257.0, -0.035534732, -0.061889082, -979431.2, -50433.26, 0.0, 10.000145, 9.9989805 
1.250062e+2, 2.1520273e+2, -843159.5, -954486.56, -11575.18, 0.0016763902, -0.05882187, -841968.75, -10962.369, 0.0, 10.000433, 9.998951 
1.2500894e+2, 2.2520143e+2, -734390.2, -887233.0, -9747.887, 0.011549766, -0.06705059, -733771.0, -752.5256, 0.0, 10.00066, 9.998631 
1.2501143e+2, 2.3519985e+2, -613877.94, -782230.8, -9135.62, -0.0038887237, -0.089550376, -613383.7, 21650.05, 0.0, 10.000833, 9.998595 
1.2501428e+2, 2.4519828e+2, -517134.75, -732141.5, 655.98645, 0.0047334116, -0.086006634, -517132.75, 19916.564, 0.0, 10.001026, 9.998174 
1.2501746e+2, 2.5519666e+2, -390676.84, -623441.7, -31.247751, 0.033760034, -0.06681334, -390676.84, 48388.47, 0.0, 10.001235, 9.998147 
1.2502018e+2, 2.6519468e+2, -286445.25, -577975.94, -7112.5557, 0.026319595, -0.053906918, -286271.84, 54813.9, 0.0, 10.001516, 9.997651 
1.250225e+2, 2.7519235e+2, -141079.61, -462529.94, -3643.5715, -0.00981458, -0.0542056, -141038.31, 102072.055, 0.0, 10.0018635, 9.997604 
1.2502557e+2, 2.8519005e+2, -20768.783, -366887.1, 10480.0625, 0.009884283, -0.03796633, -20451.75, 124682.13, 0.0, 10.002074, 9.997486 
1.2502918e+2, 2.9518783e+2, 92651.13, -252514.33, 8927.219, 0.06723336, -0.01016835, 92881.87, 140037.42, 0.00000094519226, 10.002144, 9.997565 
1.2503125e+2, 3.0518496e+2, 221908.66, -97682.47, -26117.91, 0.01183845, -0.08936734, 224029.03, 224029.03, 0.000021325412, 10.002406, 9.998171 
1.2503345e+2, 3.1518438e+2, 252522.64, -132722.72, -182.53654, 0.018613907, 0.04485926, 252522.73, 252522.73, 0.00010374953, 10.00283, 9.997726 
1.3497967e+2, 1.2520191e+2, -1915271.0, -1763076.8, 17847.107, -0.07153586, -0.09503385, -1761011.9, -47993.88, 0.0007016644, 9.998416, 10.000432 
1.3498376e+2, 1.3520417e+2, -1750032.0, -1604684.0, 6216.842, -0.033087157, 0.0676639, -1604418.6, 10577.535, 0.00039489288, 9.998758, 10.000681 
1.3498685e+2, 1.4520308e+2, -1652928.1, -1551106.4, -25694.547, -0.03366116, -0.09202475, -1544989.9, -27983.557, 0.00015526546, 9.99894, 10.000284 
1.3498986e+2, 1.5520376e+2, -1558320.0, -1471786.8, -15269.747, -0.0026884335, -0.043733712, -1469171.3, -50172.832, 0.000031126172, 9.998991, 10.000131 
1.3499266e+2, 1.652037e+2, -1476353.3, -1449557.4, -7084.9956, 0.002521587, -0.0313233, -1447799.4, -126801.195, 0.0000011270397, 9.999174, 9.999523 
1.349953e+2, 1.7520265e+2, -1334803.9, -1333022.6, -8658.909, -0.015440587, -0.091315836, -1325208.6, -102201.03, 0.0, 9.999484, 9.999501 
1.3499811e+2, 1.8520194e+2, -1217688.0, -1252163.1, -12888.408, -0.0094265, -0.098771386, -1213402.5, -88388.1, 0.0, 9.999728, 9.999267 
1.3500108e+2, 1.9520171e+2, -1095518.9, -1145878.8, -10884.86, 0.01850133, -0.052805126, -1093266.9, -66249.555, 0.0, 9.999909, 9.999235 
1.3500385e+2, 2.0520082e+2, -979062.0, -1063809.9, -1572.7776, 0.013574501, -0.051917396, -979032.8, -50007.414, 0.0, 10.000143, 9.999013 
1.350064e+2, 2.1519934e+2, -841229.8, -949989.2, -357.4501, -0.02177033, -0.10437761, -841228.7, -10190.326, 0.0, 10.00043, 9.998983 
1.350093e+2, 2.2519815e+2, -733697.56, -884975.06, -3384.3455, -0.018043809, -0.10458957, -733621.9, -572.2551, 0.0, 10.000657, 9.998648 
1.3501252e+2, 2.3519723e+2, -612275.44, -778765.25, -2367.0227, 0.023253527, -0.06293868, -612241.8, 22817.357, 0.0, 10.000832, 9.998619 
1.3501562e+2, 2.4519569e+2, -517560.8, -732932.94, 8280.697, 0.035904072, -0.05637898, -517242.88, 19831.672, 0.0, 10.001026, 9.998169 
1.3501857e+2, 2.5519356e+2, -391622.1, -625195.3, 8173.17, 0.019742252, -0.08894138, -391336.47, 47758.875, 0.0, 10.001234, 9.998136 
1.350215e+2, 2.651915e+2, -281682.7, -566910.1, 5766.916, 0.006985502, -0.086597204, -281566.16, 59550.28, 0.0, 10.001513, 9.997728 
1.350245e+2, 2.7518952e+2, -135000.03, -449284.06, 9647.034, 0.0036573862, -0.061107635, -134704.19, 108433.79, 0.0, 10.001863, 9.997696 
1.3502777e+2, 2.8518736e+2, -25039.809, -375786.84, 12847.917, 0.023140075, -0.030322745, -24569.818, 120590.39, 0.0, 10.002074, 9.997426 
1.3503112e+2, 2.9518518e+2, 87161.51, -263298.06, 12333.296, 0.046076056, 0.0066813375, 87595.0, 134777.06, 0.0000005800232, 10.00214, 9.997493 
1.350334e+2, 3.0518246e+2, 223051.4, -92670.87, -10706.696, -0.013176932, -0.05528594, 223414.06, 223414.06, 0.000016654767, 10.002397, 9.998209 
1.3503648e+2, 3.151813e+2, 248838.5, -137775.08, 15959.814, 0.03727527, 0.014797035, 249496.22, 249496.22, 0.00008670888, 10.002821, 9.997695 
1.4497842e+2, 1.2519863e+2, -1850037.8, -1724023.6, 11812.997, -0.057067364, -0.071101606, -1722925.8, -9874.763, 0.0006852014, 9.99883, 10.000501 
1.4498222e+2, 1.352006e+2, -1798984.3, -1612124.1, 10367.825, -0.043238144, 0.049153194, -1611550.8, 3479.6802, 0.00038852147, 9.998353, 10.000825 
1.4498544e+2, 1.4519955e+2, -1720062.3, -1584937.6, -8513.624, -0.044848554, -0.1135559, -1584403.3, -67363.47, 0.00015533686, 9.998485, 10.000272 
1.4498906e+2, 1.5520039e+2, -1532411.0, -1461111.4, -18337.277, 0.009862751, -0.049310368, -1456671.8, -37640.457, 0.00003278088, 9.999175, 10.000115 
1.4499211e+2, 1.652004e+2, -1428853.6, -1418844.4, -23336.998, 0.016172746, -0.033221472, -1399981.4, -78950.88, 0.0000015078091, 9.999466, 9.999594 
1.4499466e+2, 1.7519937e+2, -1344432.0, -1330015.9, -17079.229, -0.022275642, -0.09834129, -1318686.0, -95646.68, 0.0, 9.999385, 9.99957 
1.4499767e+2, 1.8519868e+2, -1245486.6, -1269596.1, -13395.389, -0.017389888, -0.104968205, -1239520.4, -114474.64, 0.0, 9.999555, 9.99923 
1.450011e+2, 1.9519845e+2, -1090308.3, -1147668.3, -18250.371, 0.026978504, -0.054748636, -1084993.9, -57944.797, 0.0, 9.999963, 9.999198 
1.4500415e+2, 2.0519756e+2, -957470.2, -1047400.8, -12274.563, 0.023788039, -0.056750186, -955824.94, -26767.705, 0.0, 10.000264, 9.999067 
1.4500682e+2, 2.1519604e+2, -831927.75, -939230.06, -9931.519, -0.0239806, -0.11629221, -831016.25, 53.746628, 0.0, 10.000468, 9.999039 
1.4500992e+2, 2.2519489e+2, -736578.4, -890904.2, -16234.382, -0.02202599, -0.113742836, -734889.06, -1808.0538, 0.0, 10.000657, 9.998607 
1.4501339e+2, 2.3519404e+2, -614570.5, -784247.9, -19879.541, 0.026847338, -0.061380114, -612272.5, 22817.875, 0.0, 10.000834, 9.998581 
1.4501671e+2, 2.4519248e+2, -512331.97, -726124.2, -7556.0938, 0.04047638, -0.05613041, -512065.25, 25040.758, 0.0, 10.001043, 9.998208 
1.4501981e+2, 2.5519028e+2, -382217.0, -616878.75, -4773.103, 0.019242724, -0.09985867, -382119.97, 57007.285, 0.0, 10.001282, 9.99817 
1.4502302e+2, 2.6518828e+2, -278573.06, -567129.8, -5393.7915, 0.0070069055, -0.09505272, -278472.28, 62675.77, 0.0, 10.00154, 9.997714 
1.4502639e+2, 2.7518636e+2, -145283.7, -455090.75, -8969.927, 0.009225538, -0.05600868, -145024.2, 98144.45, 0.0, 10.001796, 9.997686 
1.4502984e+2, 2.8518423e+2, -27391.252, -375768.75, -11224.57, 0.024985623, -0.024799738, -27029.975, 118161.086, 0.0, 10.002054, 9.997435 
1.4503324e+2, 2.95182e+2, 113737.234, -251092.86, -6465.655, 0.03558047, 0.002076981, 113851.78, 161065.83, 0.00000034163278, 10.002323, 9.997489 
1.4503571e+2, 3.051795e+2, 245035.38, -82279.37, -23445.217, -0.028591208, -0.03247463, 246706.2, 246706.2, 0.000012640429, 10.002546, 9.99821 
1.4503926e+2, 3.15178e+2, 222922.81, -153958.64, -2493.6592, 0.041937713, 0.00482655, 222939.31, 222939.31, 0.000071064576, 10.002657, 9.9976635 
1.5497752e+2, 1.2519576e+2, -1831704.5, -1688572.9, -5666.269, -0.034526255, 0.001485007, -1688349.0, 24732.238, 0.0006719969, 9.99884, 10.000738 
1.5498087e+2, 1.3519703e+2, -1777544.5, -1567067.4, -7020.3135, -0.013524014, 0.019343365, -1566833.5, 48231.22, 0.00038301162, 9.998349, 10.001137 
1.5498409e+2, 1.4519583e+2, -1740124.5, -1624604.4, 17288.51, -0.030554475, -0.15977398, -1622072.5, -104997.33, 0.00015494693, 9.998477, 10.000003 
1.5498812e+2, 1.5519674e+2, -1550418.9, -1499418.0, 7707.5156, -0.001451476, -0.059858393, -1498278.6, -79211.2, 0.000033834087, 9.99918, 9.99985 
1.549915e+2, 1.65197e+2, -1414824.6, -1391306.6, -27068.387, 0.005857788, -0.015452214, -1373553.4, -52488.652, 0.0000017896223, 9.999472, 9.99978 
1.5499419e+2, 1.751964e+2, -1331824.5, -1303659.3, -19755.008, -0.008516431, -0.05753236, -1293481.1, -70411.98, 0.0, 9.999384, 9.999751 
1.5499727e+2, 1.8519562e+2, -1254269.0, -1287430.1, 1774.4939, -0.013711456, -0.07685275, -1254174.3, -129097.875, 0.0, 9.999553, 9.99911 
1.550007e+2, 1.9519478e+2, -1098478.9, -1164531.8, -2707.1267, -0.008839134, -0.072958484, -1098368.1, -71283.05, 0.0, 9.999962, 9.999083 
1.550041e+2, 2.0519386e+2, -952287.25, -1036396.5, -4835.572, -0.0063744257, -0.07623207, -952010.2, -22916.754, 0.0, 10.000263, 9.999144 
1.5500747e+2, 2.1519282e+2, -826803.3, -928545.7, -1981.9191, -0.006610172, -0.09574209, -826764.75, 4336.774, 0.0, 10.000467, 9.999113 
1.5501077e+2, 2.2519164e+2, -743174.7, -904307.3, -9757.079, -0.0021665134, -0.09571734, -742586.0, -9473.077, 0.0, 10.000655, 9.998516 
1.5501404e+2, 2.3519029e+2, -621182.1, -797839.9, -12869.571, 0.0069565363, -0.084552035, -620249.5, 14877.872, 0.0, 10.0008335, 9.998488 
1.5501751e+2, 2.4518867e+2, -507217.13, -714997.5, 1253.6476, 0.017737301, -0.08414213, -507209.56, 29933.982, 0.0, 10.001041, 9.998285 
1.550212e+2, 2.5518683e+2, -376703.78, -605431.3, 4588.644, 0.029006058, -0.09998957, -376611.78, 62549.39, 0.0, 10.001282, 9.998249 
1.5502474e+2, 2.6518494e+2, -285866.6, -582129.56, 4262.671, 0.023238214, -0.08093288, -285805.28, 55375.547, 0.0, 10.001539, 9.997611 
1.5502815e+2, 2.75183e+2, -152624.98, -469740.9, 824.7984, 0.00611444, -0.039317116, -152622.83, 90579.68, 0.0, 10.001794, 9.997587 
1.5503182e+2, 2.851807e+2, -22173.219, -364363.06, -1508.4746, 0.01564462, -0.021908278, -22166.568, 123059.93, 0.0, 10.002051, 9.997515 
1.5503554e+2, 2.9517823e+2, 119170.11, -240117.02, 4733.3867, 0.03299597, -0.023921067, 119232.45, 166483.92, 0.00000019535571, 10.002325, 9.997564 
1.5503816e+2, 3.0517614e+2, 241691.72, -88656.92, -18645.967, -0.038991198, -0.021079557, 242740.81, 242740.81, 0.000009261703, 10.002544, 9.998165 
1.5504175e+2, 3.1517458e+2, 219461.83, -160099.03, 1967.3693, 0.024465147, 0.015587405, 219472.03, 219472.03, 0.000056915687, 10.002653, 9.9976225 
1.6497608e+2, 1.2519246e+2, -1936600.5, -1758212.8, 23059.363, -0.028808625, 0.005940074, -1755280.3, -42167.26, 0.00065754744, 9.998201, 10.000569 
1.6497973e+2, 1.3519354e+2, -1690031.9, -1535729.4, -13375.199, 0.004302073, 0.015770886, -1534578.6, 80520.33, 0.00037533476, 9.998996, 10.0010395 
1.64983e+2, 1.4519241e+2, -1636972.5, -1573650.9, 7598.039, -0.020357868, -0.15413693, -1572752.0, -55642.996, 0.00015252095, 9.999179, 10.000014 
1.6498703e+2, 1.5519331e+2, -1605679.8, -1525059.4, 18598.732, -0.011092673, -0.05604269, -1520975.6, -101874.59, 0.000033788867, 9.9987955, 9.999859 
1.6499063e+2, 1.6519357e+2, -1489999.8, -1432769.9, -8769.125, -0.0020685534, -0.008894364, -1431456.4, -110357.85, 0.0000018950186, 9.998979, 9.999732 
1.6499384e+2, 1.7519301e+2, -1290606.5, -1289242.3, -20089.076, 0.0030625323, -0.04233585, -1269823.8, -46720.54, 0.0, 9.999689, 9.999702 
1.6499716e+2, 1.851922e+2, -1180251.6, -1245062.5, -3528.2715, -0.0022565322, -0.06497143, -1180060.0, -54949.668, 0.0, 10.000032, 9.999169 
1.6500063e+2, 1.951913e+2, -1083661.6, -1150942.5, 4971.2593, -0.016229386, -0.074744895, -1083296.3, -56177.402, 0.0, 10.000036, 9.999141 
1.6500425e+2, 2.0519033e+2, -974712.75, -1056789.9, 3738.5466, -0.012877192, -0.079446875, -974542.8, -45415.438, 0.0, 10.000151, 9.999058 
1.6500801e+2, 2.1518932e+2, -846874.5, -947562.06, -5968.9473, 0.0056265336, -0.08974897, -846521.9, -15385.785, 0.0, 10.000369, 9.999029 
1.6501155e+2, 2.2518806e+2, -745340.3, -908916.25, -14637.937, 0.009565662, -0.089328796, -744040.75, -10892.407, 0.0, 10.000656, 9.998484 
1.650149e+2, 2.3518664e+2, -597942.9, -790257.0, -13738.048, 0.00027263805, -0.08367389, -596966.44, 38197.164, 0.0, 10.001009, 9.998455 
1.6501854e+2, 2.4518502e+2, -486694.0, -711975.7, -6585.681, 0.0066972845, -0.079430096, -486501.66, 50678.39, 0.0, 10.001211, 9.998223 
1.6502245e+2, 2.5518322e+2, -382685.13, -614211.1, -13492.875, 0.026295798, -0.083371766, -381901.44, 57296.055, 0.0, 10.0012665, 9.998195 
1.6502623e+2, 2.651813e+2, -287392.6, -579846.8, -6072.5923, 0.020603491, -0.06344922, -287266.56, 53950.53, 0.0, 10.001517, 9.997637 
1.6502993e+2, 2.751793e+2, -128581.01, -455789.75, -784.33044, -0.0034271947, -0.03152412, -128579.13, 114659.836, 0.0, 10.001948, 9.997608 
1.650338e+2, 2.8517693e+2, -18938.166, -366191.94, -13043.008, 0.007970147, -0.022005904, -18448.953, 126814.88, 0.0, 10.002089, 9.997483 
1.650377e+2, 2.951744e+2, 60469.87, -271647.47, -15317.153, 0.035699014, -0.028187186, 61174.797, 108464.875, 0.00000010392393, 10.001937, 9.997533 
1.6504051e+2, 3.0517265e+2, 204067.81, -104362.96, -25167.633, -0.04354836, 0.009099975, 206107.97, 206107.97, 0.0000064948904, 10.002275, 9.998186 
1.6504446e+2, 3.1517082e+2, 283803.13, -119245.75, -2849.2156, 0.012046895, 0.014852261, 283823.28, 283823.28, 0.00004432351, 10.003052, 9.997709 
1.7497411e+2, 1.2518877e+2, -1978196.1, -1843508.9, 55298.4, -0.04495816, -0.056405127, -1823714.3, -110568.12, 0.0006370072, 9.998197, 9.999986 
1.7497876e+2, 1.3519017e+2, -1724958.8, -1609756.5, 16472.79, 0.008132707, 0.03718564, -1607447.4, 7685.698, 0.00036284848, 9.999002, 10.000527 
1.7498223e+2, 1.4518927e+2, -1615470.6, -1530665.0, -7779.9077, -0.016328078, -0.098195, -1529957.1, -12815.635, 0.00014707113, 9.999186, 10.000306 
1.7498572e+2, 1.5519011e+2, -1585553.1, -1483328.1, 4962.929, -0.021871878, -0.036433995, -1483087.8, -63955.617, 0.00003249045, 9.9987955, 10.000146 
1.7498954e+2, 1.6519015e+2, -1510115.1, -1474194.0, 17738.098, -0.010586103, -0.012202361, -1466911.3, -145779.69, 0.0000018022155, 9.998977, 9.99945 
1.749936e+2, 1.7518921e+2, -1310115.3, -1329607.6, 6520.826, 0.011200927, -0.053164046, -1308135.0, -84993.8, 0.0, 9.999689, 9.999426 
1.7499737e+2, 1.8518844e+2, -1163387.4, -1210380.4, -3582.7068, 0.0148199145, -0.06960338, -1163115.9, -37968.0, 0.0, 10.000032, 9.999407 
1.7500088e+2, 1.9518797e+2, -1067571.3, -1117424.6, 5505.6475, 0.0038107429, -0.06030964, -1066970.4, -39819.94, 0.0, 10.000035, 9.999371 
1.7500456e+2, 2.0518698e+2, -992063.5, -1092629.1, 11810.516, 0.0030907074, -0.06623336, -990695.1, -61535.945, 0.0, 10.00015, 9.998813 
1.7500843e+2, 2.1518551e+2, -864092.94, -982968.06, 2686.769, 0.011697538, -0.09826647, -864032.2, -32858.48, 0.0, 10.000368, 9.998787 
1.7501222e+2, 2.2518419e+2, -743580.44, -904872.6, -1591.2319, 0.0116915, -0.093806155, -743564.75, -10377.643, 0.0, 10.000654, 9.998512 
1.7501594e+2, 2.3518306e+2, -596208.5, -786783.75, -335.50082, 0.0049001733, -0.060091123, -596207.94, 38991.254, 0.0, 10.001009, 9.998479 
1.7501974e+2, 2.4518147e+2, -500618.13, -740717.56, -4698.6475, 0.005566156, -0.04364865, -500526.22, 36689.516, 0.0, 10.001211, 9.998027 
1.7502356e+2, 2.5517946e+2, -395858.13, -641397.8, -11025.254, 0.010597546, -0.050183166, -395364.06, 43872.203, 0.0, 10.0012665, 9.998009 
1.7502755e+2, 2.6517743e+2, -276516.47, -557459.7, 9938.41, -0.00057193433, -0.042461835, -276165.34, 65091.574, 0.0, 10.001517, 9.997791 
1.7503169e+2, 2.7517533e+2, -118211.75, -434540.63, 15538.617, -0.021534307, -0.033270165, -117450.3, 125827.83, 0.0, 10.001949, 9.997754 
1.750358e+2, 2.8517294e+2, -29656.29, -388192.13, -18848.648, -0.0014777418, -0.025483014, -28668.117, 116635.07, 0.0, 10.002088, 9.997333 
1.750397e+2, 2.951705e+2, 49517.957, -293751.88, -19791.59, 0.040525515, -0.010675605, 50655.297, 97985.35, 0.00000004563321, 10.001935, 9.997382 
1.7504278e+2, 3.0516902e+2, 210982.28, -90218.36, 3918.1106, -0.04476131, 0.05845248, 211033.25, 211033.25, 0.000004309572, 10.002275, 9.998283 
1.7504744e+2, 3.151667e+2, 299609.06, -87134.4, 24513.691, 0.0021342887, 0.005583934, 301156.66, 301156.66, 0.000033325945, 10.003055, 9.99793 
1.8497287e+2, 1.2518486e+2, -1869661.3, -1807619.5, 19738.799, -0.03178101, -0.07761753, -1801872.0, -88688.836, 0.0006065531, 9.999013, 9.999837 
1.849775e+2, 1.3518633e+2, -1791861.0, -1653254.5, 9111.354, 0.0031636725, 0.03198003, -1652658.1, -37487.453, 0.00034376056, 9.998591, 10.000426 
1.8498114e+2, 1.4518559e+2, -1684067.5, -1561174.5, -12965.154, -0.020560103, -0.08350907, -1559821.6, -42643.6, 0.00013809917, 9.998704, 10.000328 
1.8498492e+2, 1.5518638e+2, -1508107.6, -1443352.5, -21101.848, -0.006044264, -0.028407823, -1437083.0, -17914.43, 0.000029920388, 9.999316, 10.000169 
1.8498892e+2, 1.6518633e+2, -1434199.1, -1444247.4, -3095.4326, 0.0041081635, -0.01035168, -1433322.1, -112153.28, 0.0000015280342, 9.999527, 9.99939 
1.8499306e+2, 1.7518532e+2, -1361912.4, -1360867.5, 2063.499, 0.0036429986, -0.05358836, -1359261.4, -136081.8, 0.0, 9.99936, 9.99937 
1.8499705e+2, 1.8518451e+2, -1231843.4, -1235885.1, -7045.4556, 0.005139922, -0.075987265, -1226534.8, -101348.266, 0.0, 9.999531, 9.999474 
1.8500096e+2, 1.9518399e+2, -1065405.5, -1108936.1, -11111.915, 0.010158034, -0.07730543, -1062733.0, -35544.234, 0.0, 10.000018, 9.999437 
1.8500489e+2, 2.0518303e+2, -965723.1, -1089325.5, -4834.4253, 0.009913243, -0.07981406, -965534.3, -36337.12, 0.0, 10.000371, 9.998729 
1.8500885e+2, 2.1518163e+2, -835471.75, -978630.6, -2490.3816, 0.0038182756, -0.09393387, -835428.44, -4217.049, 0.0, 10.000605, 9.998703 
1.8501283e+2, 2.2518031e+2, -733992.06, -909491.75, -4872.8687, 0.0015864738, -0.08406999, -733856.8, -631.4256, 0.0, 10.00076, 9.99843 
1.8501687e+2, 2.3517904e+2, -625915.4, -809931.06, -12135.933, 0.004509556, -0.056424644, -625118.44, 10120.591, 0.0, 10.000844, 9.9984 
1.8502091e+2, 2.4517739e+2, -519327.47, -756866.5, -13491.694, 0.0064169555, -0.038958244, -518563.63, 18692.787, 0.0, 10.001114, 9.997962 
1.8502492e+2, 2.5517538e+2, -358111.66, -630433.06, -10765.526, 0.004560098, -0.0374266, -357686.75, 81590.45, 0.0, 10.001557, 9.997943 
1.8502906e+2, 2.6517338e+2, -248591.22, -540433.06, 5875.8516, -0.009961589, -0.02670698, -248472.97, 92824.73, 0.0, 10.001695, 9.997822 
1.8503335e+2, 2.751713e+2, -175493.61, -458238.34, 2204.2703, -0.030605996, -0.019755276, -175476.42, 67841.98, 0.0, 10.00154, 9.997787 
1.8503769e+2, 2.851688e+2, -75513.65, -415288.63, -27801.564, -0.0064194137, -0.021080438, -73253.86, 72090.46, 0.0, 10.001795, 9.997287 
1.8504189e+2, 2.9516613e+2, 117187.22, -267221.94, -21615.6, 0.043212205, -0.01945444, 118398.87, 165771.98, 0.000000013949684, 10.002426, 9.997327 
1.850452e+2, 3.0516487e+2, 259495.45, -80306.445, 514.6962, -0.050144974, 0.08069787, 259496.23, 259496.23, 0.0000026617806, 10.002666, 9.998162 
1.850501e+2, 3.1516236e+2, 227399.84, -112449.14, 1272.62, -0.011285986, 0.012869209, 227404.61, 227404.61, 0.00002394661, 10.002519, 9.998012 
1.949723e+2, 1.2518077e+2, -1849199.5, -1766338.3, 5444.419, 0.0091077285, -0.057701007, -1765982.0, -52758.12, 0.0005643703, 9.999018, 10.000119 
1.9497596e+2, 1.3518204e+2, -1769910.9, -1607876.8, -5880.349, -0.012838127, 0.0011170739, -1607663.6, 7548.1196, 0.00031730495, 9.998592, 10.000738 
1.9497971e+2, 1.4518137e+2, -1701677.6, -1597716.3, 9901.995, -0.036277834, -0.10934031, -1596781.6, -79563.28, 0.00012543245, 9.998703, 10.000078 
1.9498466e+2, 1.5518214e+2, -1524799.0, -1478617.4, 1989.566, 0.035537753, -0.03249406, -1478531.9, -59321.207, 0.000026112697, 9.999318, 9.999926 
1.9498883e+2, 1.6518216e+2, -1422477.5, -1420128.6, -9693.822, 0.040553547, -0.0039607277, -1411538.4, -90327.99, 0.0000011234973, 9.999527, 9.999556 
1.9499218e+2, 1.7518134e+2, -1350444.3, -1336994.6, -3513.5393, -0.020431321, -0.043091547, -1336132.0, -112913.96, 0.0, 9.99936, 9.999534 
1.9499622e+2, 1.851804e+2, -1239021.3, -1250592.8, 11241.867, -0.032978933, -0.08347026, -1232163.6, -106937.484, 0.0, 9.99953, 9.999373 
1.950009e+2, 1.9517936e+2, -1072567.8, -1123529.4, 7284.854, 0.0019364192, -0.1254897, -1071546.9, -44313.055, 0.0, 10.000017, 9.999338 
1.9500522e+2, 2.0517848e+2, -960384.6, -1077946.6, 3750.1492, 0.005986891, -0.11953099, -960265.1, -31023.654, 0.0, 10.00037, 9.998808 
1.9500922e+2, 2.1517773e+2, -830469.94, -967976.94, 6661.7227, -0.01920311, -0.07761963, -830147.94, 1101.2711, 0.0, 10.000604, 9.998776 
1.9501337e+2, 2.251764e+2, -747847.75, -937988.0, -2015.987, -0.02178762, -0.06050649, -747826.4, -14563.051, 0.0, 10.000759, 9.998235 
1.9501765e+2, 2.3517454e+2, -639037.25, -837109.1, -8483.205, -0.0017916881, -0.07265038, -638674.6, -3391.4617, 0.0, 10.000843, 9.998214 
1.9502205e+2, 2.4517272e+2, -514659.78, -747351.6, 2918.9949, 0.00842975, -0.06496938, -514623.2, 22678.99, 0.0, 10.001115, 9.998027 
1.9502649e+2, 2.5517097e+2, -354111.72, -622155.56, 5768.6367, 0.006775962, -0.04548265, -353987.63, 85332.7, 0.0, 10.001557, 9.998 
1.9503075e+2, 2.651691e+2, -255439.06, -554682.4, -314.9681, -0.009033559, -0.016300874, -255438.73, 85900.766, 0.0, 10.001695, 9.997725 
1.9503486e+2, 2.751671e+2, -181538.6, -470844.9, -3143.5444, -0.032470644, 0.009069611, -181504.44, 61855.48, 0.0, 10.00154, 9.997702 
1.9503947e+2, 2.8516445e+2, -71257.92, -406193.97, -4119.054, -0.008246117, -0.008309732, -71207.27, 74180.07, 0.0, 10.001794, 9.99735 
1.9504432e+2, 2.9516137e+2, 119763.78, -261902.33, 2588.818, 0.0427241, -0.0548769, 119781.34, 167200.8, 0.0000000023315327, 10.002426, 9.997363 
1.9504777e+2, 3.0516028e+2, 235874.3, -129520.234, -5696.5317, -0.060752265, 0.07593352, 235963.1, 235963.1, 0.0000014940416, 10.002668, 9.997824 
1.950524e+2, 3.151577e+2, 221920.0, -123367.64, -6858.219, -0.033645455, 0.039163608, 222056.17, 222056.17, 0.000016254342, 10.002517, 9.997938 
2.049711e+2, 1.2517644e+2, -1915983.1, -1786302.8, -1628.7867, 0.012205888, -0.046797715, -1786282.3, -73015.41, 0.0005112227, 9.998508, 10.000226 
2.0497486e+2, 1.351777e+2, -1726225.8, -1572524.1, -31608.572, 0.006751195, -0.003299508, -1566277.6, 48976.37, 0.00028397882, 9.998832, 10.000865 
2.049787e+2, 1.4517711e+2, -1668027.0, -1588253.4, -2403.3594, -0.019704336, -0.110061355, -1588181.1, -70921.34, 0.000109345056, 9.998963, 10.000018 
2.0498382e+2, 1.5517767e+2, -1587112.5, -1514361.5, 3606.9717, 0.037358742, -0.0468655, -1514183.1, -94928.88, 0.000021261263, 9.998916, 9.999875 
2.0498818e+2, 1.6517769e+2, -1474676.8, -1437866.4, -8882.762, 0.041918606, -0.019755179, -1435835.0, -114580.91, 0.00000067965186, 9.999137, 9.999622 
2.0499179e+2, 1.7517707e+2, -1308505.9, -1309518.9, -10690.76, -0.008549435, -0.0465682, -1298309.6, -75050.01, 0.0, 9.999617, 9.999599 
2.0499603e+2, 1.8517618e+2, -1190711.3, -1240758.6, 5879.2363, -0.024104606, -0.07740212, -1190029.9, -64762.527, 0.0, 9.999919, 9.999253 
2.0500085e+2, 1.951751e+2, -1074804.9, -1137468.3, 79.75925, -0.005135177, -0.11322241, -1074804.8, -47528.535, 0.0, 10.000057, 9.999223 
2.0500542e+2, 2.0517412e+2, -975611.1, -1083766.0, -8271.694, -0.0063885786, -0.11185424, -974982.2, -45697.344, 0.0, 10.000258, 9.998821 
2.050097e+2, 2.1517323e+2, -841099.8, -971462.3, -10633.589, -0.02762681, -0.08406034, -840238.2, -8945.046, 0.0, 10.000524, 9.998792 
2.0501408e+2, 2.2517185e+2, -746269.44, -945191.06, -18111.443, -0.028039293, -0.070416376, -744633.9, -11326.265, 0.0, 10.000804, 9.998164 
2.0501855e+2, 2.3516996e+2, -606377.06, -829036.7, -16000.604, -0.007903665, -0.07694499, -605233.1, 30094.666, 0.0, 10.0011015, 9.998145 
2.050232e+2, 2.4516813e+2, -488917.28, -733918.2, 568.6601, 0.0027656332, -0.069182, -488915.97, 48431.145, 0.0, 10.001287, 9.998035 
2.0502791e+2, 2.5516635e+2, -380766.84, -634143.8, -1117.3303, 0.0022844565, -0.05375273, -380761.9, 58603.5, 0.0, 10.00137, 9.998008 
2.0503236e+2, 2.651645e+2, -277274.75, -571835.1, -13911.999, -0.011444322, -0.02059714, -276619.16, 64765.51, 0.0, 10.001573, 9.997665 
2.050366e+2, 2.7516258e+2, -136456.95, -455657.75, -15011.386, -0.03187052, 0.017048473, -135752.55, 107652.555, 0.0, 10.001878, 9.997643 
2.0504133e+2, 2.8515992e+2, -34984.5, -384593.2, -7089.0083, -0.012473508, 0.0005112334, -34840.813, 110591.79, 0.0, 10.002025, 9.997388 
2.0504639e+2, 2.9515678e+2, 63015.09, -286115.13, -2112.485, 0.027120657, -0.05546891, 63027.87, 110492.64, 0.000000000097020676, 10.002024, 9.997391 
2.0505007e+2, 3.051557e+2, 167959.33, -180268.14, -8678.64, -0.07812796, 0.08574615, 168175.48, 168175.48, 0.00000072960836, 10.002278, 9.997664 
2.0505503e+2, 3.151528e+2, 262164.06, -90146.555, -2027.2886, -0.03366062, 0.030302543, 262175.72, 262175.72, 0.000010315381, 10.002732, 9.998065 
2.1496923e+2, 1.2517193e+2, -1920885.5, -1797176.4, 14103.424, -0.026691062, -0.043557912, -1795588.9, -82276.95, 0.00045034575, 9.998511, 10.000152 
2.1497424e+2, 1.351733e+2, -1730421.9, -1582073.8, -19049.676, 0.06102572, 0.018415868, -1579666.5, 35631.227, 0.0002457903, 9.998835, 10.000798 
2.1497813e+2, 1.4517277e+2, -1658220.6, -1568313.3, -4759.502, 0.027183171, -0.08583484, -1568062.0, -50759.523, 0.00009091271, 9.998965, 10.000154 
2.1498233e+2, 1.55173e+2, -1577199.8, -1493685.4, 2555.244, -0.0017646691, -0.07130957, -1493607.3, -74307.695, 0.000015871614, 9.998915, 10.000018 
2.1498695e+2, 1.6517293e+2, -1477058.4, -1442681.5, 9125.152, 0.0060374234, -0.05741933, -1440409.4, -119109.48, 0.00000031009594, 9.999137, 9.999589 
2.1499188e+2, 1.7517248e+2, -1310835.6, -1315060.9, 7446.396, 0.038172156, -0.06395659, -1305207.9, -81903.63, 0.0, 9.9996195, 9.99956 
2.1499649e+2, 1.8517187e+2, -1199963.1, -1260207.1, 10959.115, 0.029632797, -0.057811514, -1198031.5, -72721.47, 0.0, 9.99992, 9.99912 
2.1500085e+2, 1.9517118e+2, -1083915.8, -1156495.4, 5708.0464, -0.011846696, -0.04093185, -1083469.5, -56153.297, 0.0, 10.000057, 9.999092 
2.1500544e+2, 2.0516993e+2, -979382.75, -1091149.5, 1637.5367, -0.028257912, -0.057068966, -979358.8, -50031.426, 0.0, 10.0002575, 9.998772 
2.1501027e+2, 2.1516818e+2, -844545.4, -978401.25, -201.74156, -0.022688031, -0.11259554, -844545.06, -13201.997, 0.0, 10.000523, 9.998744 
2.1501498e+2, 2.2516665e+2, -742799.9, -937599.06, -7250.603, -0.018569352, -0.11359167, -742530.4, -9172.03, 0.0, 10.000803, 9.998217 
2.150196e+2, 2.3516533e+2, -603291.06, -822246.3, -4731.7275, -0.014615756, -0.06965512, -603188.8, 32184.203, 0.0, 10.0011, 9.998192 
2.1502434e+2, 2.4516359e+2, -492419.06, -741220.5, 3269.971, -0.011147519, -0.051214367, -492376.1, 45015.17, 0.0, 10.001287, 9.997986 
2.1502917e+2, 2.551615e+2, -383584.7, -639916.0, 2349.295, -0.010253673, -0.06247653, -383563.16, 55849.305, 0.0, 10.001369, 9.997969 
2.1503386e+2, 2.6515952e+2, -279695.16, -576341.2, -2480.1328, -0.018224727, -0.039411504, -279674.44, 61758.82, 0.0, 10.001571, 9.997636 
2.1503848e+2, 2.751576e+2, -139264.81, -461238.0, -3387.4255, -0.029823259, 0.003739741, -139229.17, 104224.94, 0.0, 10.001877, 9.997605 
2.1504329e+2, 2.851551e+2, -34207.5, -383048.88, -8037.2495, -0.01951148, 0.005151604, -34022.42, 111457.84, 0.0, 10.002025, 9.997399 
2.1504807e+2, 2.9515228e+2, 64529.332, -283692.66, -1710.3123, -0.006217764, -0.021576306, 64537.73, 112046.98, 0.0, 10.002026, 9.997408 
2.1505208e+2, 3.0515116e+2, 168909.23, -176791.58, 8838.85, -0.10448724, 0.110836595, 169135.08, 169135.08, 0.0000002906552, 10.002274, 9.99769 
2.1505794e+2, 3.1514758e+2, 284730.13, -42435.61, 11578.688, -0.014995813, -0.01269171, 285139.38, 285139.38, 0.0000060416633, 10.002729, 9.998393 
2.2496784e+2, 1.2516731e+2, -1935467.9, -1799135.5, 13253.696, -0.010890312, -0.03303105, -1797859.0, -84501.08, 0.0003861587, 9.99839, 10.000196 
2.2497308e+2, 1.3516854e+2, -1762768.8, -1592474.1, -15739.806, 0.07384263, 0.009963032, -1591031.6, 24313.291, 0.00020573656, 9.998592, 10.000844 
2.2497706e+2, 1.4516813e+2, -1680217.3, -1576079.4, -7308.2393, 0.03094491, -0.08460444, -1575569.0, -58220.9, 0.00007189719, 9.998802, 10.00018 
2.2498128e+2, 1.5516843e+2, -1555966.5, -1479790.6, -9371.432, -0.005399912, -0.06648022, -1478654.8, -59310.184, 0.000010694928, 9.999045, 10.000051 
2.249862e+2, 1.6516832e+2, -1449092.9, -1436578.9, 4918.9956, 0.004584191, -0.053583086, -1434876.8, -113531.58, 0.000000092361944, 9.99936, 9.999524 
2.2499162e+2, 1.7516778e+2, -1298155.3, -1315851.6, 569.1414, 0.044869013, -0.063250646, -1298137.0, -74786.38, 0.0, 9.999736, 9.999498 
2.2499652e+2, 1.8516716e+2, -1194482.3, -1266922.0, -4808.586, 0.03732212, -0.05111014, -1194164.5, -68807.72, 0.0, 9.999998, 9.999036 
2.2500098e+2, 1.9516651e+2, -1074809.8, -1161207.6, -6818.4063, -0.009902733, -0.02088038, -1074275.0, -46912.086, 0.0, 10.000159, 9.999012 
2.2500578e+2, 2.0516522e+2, -967145.75, -1086098.0, -3587.3127, -0.02574884, -0.038631722, -967037.6, -37663.074, 0.0, 10.000344, 9.998764 
2.250109e+2, 2.151633e+2, -841024.9, -977295.1, -2570.3337, -0.014240777, -0.10954032, -840976.4, -9584.963, 0.0, 10.00055, 9.998738 
2.2501583e+2, 2.251617e+2, -746141.6, -937288.3, -7733.4443, -0.011285674, -0.11691903, -745829.25, -12422.334, 0.0, 10.0007715, 9.998234 
2.2502065e+2, 2.3516041e+2, -615970.06, -826982.2, -8257.372, -0.0151113495, -0.07028656, -615647.44, 19773.62, 0.0, 10.001006, 9.998205 
2.2502553e+2, 2.4515867e+2, -503968.9, -745353.6, -3756.9646, -0.016372217, -0.05302817, -503910.44, 33528.555, 0.0, 10.001202, 9.997999 
2.2503045e+2, 2.5515655e+2, -384784.84, -639336.94, -1207.3776, -0.0175221, -0.069898196, -384779.13, 54681.23, 0.0, 10.001357, 9.997979 
2.2503532e+2, 2.6515454e+2, -289711.78, -587636.4, -273.82523, -0.026726853, -0.04620296, -289711.53, 51769.94, 0.0, 10.001531, 9.997578 
2.250402e+2, 2.7515265e+2, -166706.88, -480918.8, -3123.2178, -0.038684923, 0.0039516487, -166675.84, 76826.95, 0.0, 10.001717, 9.997548 
2.2504514e+2, 2.8515017e+2, -46784.65, -380738.3, -11150.401, -0.028291315, 0.005544556, -46412.76, 99116.01, 0.0, 10.001902, 9.997475 
2.2505005e+2, 2.9514733e+2, 75148.48, -271804.94, -1548.8771, -0.013636732, -0.02781467, 75155.39, 122712.38, 0.0, 10.0020685, 9.997469 
2.250543e+2, 3.0514613e+2, 156595.47, -197173.97, 14308.874, -0.1088681, 0.09827903, 157173.28, 157173.28, 0.000000085825576, 10.00225, 9.997562 
2.2506058e+2, 3.1514248e+2, 256030.86, -34727.586, 983.3926, -0.008994015, -0.020208856, 256034.19, 256034.19, 0.0000031779714, 10.00244, 9.998586 
2.349669e+2, 1.2516256e+2, -1923840.4, -1774794.4, 23517.098, 0.055278514, -0.013709549, -1771171.8, -57766.92, 0.00032267286, 9.99839, 10.000363 
2.3497137e+2, 1.3516338e+2, -1752507.3, -1570165.3, -8033.2944, 0.044177204, -0.028176876, -1569812.1, 45583.203, 0.0001666326, 9.998588, 10.001 
2.3497546e+2, 1.4516316e+2, -1686803.4, -1589227.6, 1575.8047, -0.010276518, -0.1061132, -1589202.1, -71805.45, 0.00005400246, 9.9988, 10.000092 
2.3498063e+2, 1.5516393e+2, -1561575.5, -1492768.8, 165.44444, 0.024426637, -0.032353874, -1492768.4, -73378.95, 0.000006396683, 9.999051, 9.99996 
2.3498586e+2, 1.6516384e+2, -1454649.3, -1448873.1, 18821.705, 0.034465123, -0.008429639, -1432719.3, -111329.055, 0.000000013163342, 9.999364, 9.999437 
2.3499101e+2, 1.7516294e+2, -1303678.5, -1327648.3, 14928.647, 0.010545651, -0.044915758, -1296519.1, -73120.47, 0.0, 9.999738, 9.999416 
2.3499613e+2, 1.8516202e+2, -1197249.4, -1272268.1, 1153.5906, -0.002292975, -0.057550326, -1197231.6, -71824.16, 0.0, 9.999997, 9.999 
2.3500124e+2, 1.951611e+2, -1077019.0, -1166240.6, -466.79138, -0.00047740494, -0.052274797, -1077016.5, -49600.29, 0.0, 10.000161, 9.998976 
2.3500638e+2, 2.0515995e+2, -964567.6, -1080438.4, 3996.0962, -0.0004311515, -0.056305323, -964429.94, -35003.39, 0.0, 10.000343, 9.998804 
2.3501155e+2, 2.1515857e+2, -838570.94, -971867.1, 5591.0737, -0.003670607, -0.0755716, -838336.9, -6898.5537, 0.0, 10.000549, 9.998776 
2.3501664e+2, 2.2515701e+2, -747862.75, -940348.0, 933.02234, -0.0074636275, -0.08064567, -747858.2, -14404.73, 0.0, 10.00077, 9.998214 
2.350217e+2, 2.3515525e+2, -616730.56, -828547.6, 951.24335, -0.010204882, -0.07849834, -616726.25, 18745.512, 0.0, 10.001006, 9.998195 
2.3502675e+2, 2.4515343e+2, -499657.66, -736370.94, 1847.6351, -0.01393189, -0.075007245, -499643.25, 37847.184, 0.0, 10.001202, 9.998061 
2.3503177e+2, 2.551515e+2, -381272.5, -631709.9, 4788.658, -0.021054719, -0.07601365, -381180.97, 58328.246, 0.0, 10.001355, 9.998033 
2.3503675e+2, 2.651496e+2, -295322.16, -599239.6, 6133.8984, -0.03823747, -0.040524784, -295198.4, 46331.01, 0.0, 10.00153, 9.9974985 
2.3504171e+2, 2.751477e+2, -170830.88, -489614.0, 4025.2117, -0.0599518, 0.017656881, -170780.06, 72771.12, 0.0, 10.001717, 9.997488 
2.3504694e+2, 2.8514507e+2, -38334.992, -362652.66, -4638.579, -0.039888736, 0.0017482559, -38268.66, 107309.46, 0.0, 10.0019, 9.9976 
2.3505229e+2, 2.9514197e+2, 82294.336, -257106.11, 5173.204, 0.0026525867, -0.07425689, 82373.17, 129981.35, 0.0, 10.0020685, 9.997571 
2.350567e+2, 3.0514055e+2, 136862.97, -237121.1, 20566.951, -0.0925716, 0.04684144, 137990.63, 137990.63, 0.000000016806371, 10.002245, 9.997291 
2.3506291e+2, 3.1513748e+2, 260178.73, -25483.033, 4342.9995, -0.02024971, 0.0050365273, 260244.75, 260244.75, 0.0000014346882, 10.002438, 9.998651 
2.4496558e+2, 1.2515752e+2, -1903353.6, -1766450.4, 23777.572, 0.07712845, -0.013813643, -1762438.3, -48984.227, 0.00026299746, 9.998535, 10.000351 
2.4496989e+2, 1.3515836e+2, -1771452.6, -1582386.3, -27906.107, 0.04314786, -0.025119511, -1578353.4, 37091.566, 0.0001305452, 9.998471, 10.000972 
2.4497418e+2, 1.4515826e+2, -1693737.4, -1595842.8, -7741.6436, -0.016543638, -0.08771815, -1595234.4, -77788.984, 0.000038366878, 9.998767, 10.000063 
2.4497998e+2, 1.5515895e+2, -1511721.6, -1470968.4, -4323.6577, 0.037730478, -0.019701043, -1470514.6, -51076.086, 0.000003303544, 9.999403, 9.99994 
2.4498549e+2, 1.6515878e+2, -1421459.6, -1444294.8, 4978.948, 0.047273047, 0.0021579296, -1420421.3, -98981.125, 0.00000000018007511, 9.999641, 9.999335 
2.4499056e+2, 1.7515782e+2, -1343251.0, -1357693.1, -1244.2092, 0.0018883619, -0.030413477, -1343144.6, -119694.94, 0.0, 9.999515, 9.999318 
2.4499588e+2, 1.8515675e+2, -1242485.8, -1293311.0, -6842.519, -0.011291752, -0.053083427, -1241580.6, -116120.99, 0.0, 9.999683, 9.999007 
2.4500148e+2, 1.9515559e+2, -1081405.8, -1167320.8, -5325.219, 0.010599755, -0.07184601, -1081076.9, -53606.984, 0.0, 10.000128, 9.998984 
2.4500689e+2, 2.0515446e+2, -961905.9, -1084151.4, -7895.3066, 0.0140788425, -0.07077189, -961398.06, -31918.002, 0.0, 10.000383, 9.998758 
2.4501207e+2, 2.1515338e+2, -854111.7, -984537.44, -13343.666, -0.001861131, -0.05730594, -852760.5, -21270.512, 0.0, 10.000464, 9.998731 
2.4501733e+2, 2.2515187e+2, -757823.94, -940025.0, -12287.738, -0.011306583, -0.056852605, -756998.94, -23494.17, 0.0, 10.000679, 9.9982605 
2.4502267e+2, 2.3514996e+2, -611658.56, -820752.06, -8158.7676, -0.012941093, -0.076244414, -611340.7, 24183.469, 0.0, 10.001019, 9.998241 
2.4502796e+2, 2.451481e+2, -484326.84, -724570.56, -9459.488, -0.017619077, -0.07922257, -483954.97, 53587.707, 0.0, 10.001288, 9.9981 
2.4503313e+2, 2.551463e+2, -359194.8, -617023.1, -8140.3184, -0.02807561, -0.07167672, -358938.06, 80622.01, 0.0, 10.00149, 9.998069 
2.4503826e+2, 2.651444e+2, -278014.7, -589207.6, -4430.7354, -0.045905907, -0.037073195, -277951.63, 63628.305, 0.0, 10.001641, 9.997514 
2.4504337e+2, 2.7514243e+2, -166624.19, -486225.3, -1022.91705, -0.065705985, 0.011174247, -166620.9, 76981.445, 0.0, 10.0017395, 9.997501 
2.450488e+2, 2.851398e+2, -40400.53, -366391.56, -10618.038, -0.04295835, -0.0047381036, -40055.05, 105574.32, 0.0, 10.001898, 9.997576 
2.450544e+2, 2.9513675e+2, 86015.58, -259244.0, -11956.237, 0.0042081983, -0.07258061, 86429.125, 134088.25, 0.0, 10.002113, 9.997534 
2.4505894e+2, 3.051351e+2, 131945.0, -253130.0, 3157.4673, -0.0928376, 0.03068734, 131970.89, 131970.89, 0.0000000018495133, 10.002272, 9.997167 
2.4506518e+2, 3.1513217e+2, 255829.98, -13045.134, -8825.522, -0.03146528, 0.019012464, 256119.38, 256119.38, 0.00000052479436, 10.002345, 9.998781 
2.5496387e+2, 1.2515219e+2, -1917233.6, -1794327.0, 24939.012, 0.052434925, -0.034272045, -1789459.5, -75953.63, 0.000209724, 9.998531, 10.000163 
2.5496858e+2, 1.3515344e+2, -1785948.0, -1614558.9, -30028.143, 0.06589359, 0.018125765, -1609450.1, 6044.21, 0.00009902971, 9.998479, 10.000749 
2.549732e+2, 1.451534e+2, -1689626.6, -1588623.8, 15309.458, 0.007175377, -0.029996473, -1586354.3, -68860.016, 0.000025643241, 9.998773, 10.00011 
2.5497934e+2, 1.5515347e+2, -1507961.8, -1462902.6, 19106.006, 0.033855844, -0.028384307, -1455892.0, -36399.883, 0.0000014046367, 9.999401, 9.999996 
2.5498506e+2, 1.6515313e+2, -1430646.1, -1462768.9, -203.69717, 0.042584706, -0.021404674, -1430644.9, -109149.54, 0.0, 9.999639, 9.99921 
2.5499022e+2, 1.7515239e+2, -1351539.3, -1375855.6, -5596.0137, 0.016793013, -0.01969564, -1350313.3, -126809.63, 0.0, 9.999518, 9.999192 
2.5499573e+2, 1.8515132e+2, -1238083.1, -1284537.5, 9716.625, 0.0078043467, -0.038173277, -1236132.8, -110619.4, 0.0, 9.999684, 9.999066 
2.5500172e+2, 1.9514999e+2, -1077181.3, -1158662.5, 11460.514, 0.022075992, -0.08045225, -1075600.0, -48075.95, 0.0, 10.000128, 9.999043 
2.550073e+2, 2.0514879e+2, -971627.8, -1103786.1, -4902.2583, 0.016875366, -0.082892224, -971446.25, -41911.06, 0.0, 10.000381, 9.998625 
2.5501245e+2, 2.1514772e+2, -863160.75, -1003081.56, -9758.412, -0.009469764, -0.05395424, -862483.44, -30936.934, 0.0, 10.0004635, 9.998604 
2.5501788e+2, 2.2514628e+2, -750377.25, -924251.8, 261.64667, -0.023697402, -0.04558138, -750376.9, -16815.92, 0.0, 10.000678, 9.998369 
2.5502357e+2, 2.351445e+2, -604613.06, -805540.06, 4820.1167, -0.02498226, -0.06346217, -604497.44, 31080.824, 0.0, 10.001017, 9.998347 
2.5502914e+2, 2.451427e+2, -482879.28, -721228.4, -2183.768, -0.029622238, -0.065418825, -482859.28, 54736.45, 0.0, 10.0012865, 9.998124 
2.550345e+2, 2.5514093e+2, -356739.5, -611867.06, -342.95404, -0.039097928, -0.057193138, -356739.03, 82873.88, 0.0, 10.00149, 9.998104 
2.5503987e+2, 2.6513898e+2, -271549.8, -575948.6, -718.976, -0.050088577, -0.036777616, -271548.13, 70085.0, 0.0, 10.001642, 9.997605 
2.5504518e+2, 2.751368e+2, -161221.05, -474976.8, 2958.6997, -0.058724843, -0.015655497, -161193.14, 82463.31, 0.0, 10.001739, 9.99758 
2.5505072e+2, 2.8513432e+2, -52604.848, -390819.7, -3235.525, -0.040935874, -0.014228765, -52573.9, 93108.76, 0.0, 10.001894, 9.99741 
2.5505635e+2, 2.9513165e+2, 74941.11, -281715.25, -3642.221, -0.010776133, -0.023420926, 74978.3, 122688.12, 0.0, 10.002111, 9.99738 
2.5506106e+2, 3.0512965e+2, 132383.28, -252069.6, 6557.2417, -0.11014108, 0.04870197, 132495.1, 132495.1, 0.000000000039700524, 10.002271, 9.997175 
2.550674e+2, 3.1512654e+2, 270002.34, 15737.292, -9165.182, -0.046081692, 0.016301015, 270332.28, 270332.28, 0.00000015406697, 10.002347, 9.998979 
2.6496202e+2, 1.2514639e+2, -1960263.4, -1815654.9, -9053.242, 0.028261181, -0.036516666, -1815090.4, -101527.32, 0.0001649167, 9.998238, 10.000157 
2.6496738e+2, 1.3514766e+2, -1735016.6, -1593803.4, -54576.656, 0.07874628, 0.020940604, -1575169.3, 40381.91, 0.000073287774, 9.998844, 10.000714 
2.6497227e+2, 1.4514768e+2, -1644787.0, -1569248.5, -3818.785, 0.019863902, -0.019099109, -1569056.0, -51505.523, 0.000016155976, 9.99909, 10.00009 
2.649785e+2, 1.5514755e+2, -1565443.3, -1491542.6, -6744.963, 0.027008368, -0.036099732, -1490932.1, -71382.02, 0.00000046134082, 9.999012, 9.999988 
2.6498446e+2, 1.6514713e+2, -1487971.1, -1495715.0, -26855.18, 0.03642507, -0.03358325, -1464710.3, -143156.13, 0.0, 9.999269, 9.999163 
2.6499e+2, 1.7514645e+2, -1307607.6, -1359750.5, -26545.205, 0.027178306, -0.021953523, -1296472.0, -72909.77, 0.0, 9.999843, 9.999146 
2.6499572e+2, 1.8514545e+2, -1175668.3, -1245656.1, -8824.477, 0.019167881, -0.03468664, -1174572.8, -49001.637, 0.0, 10.000076, 9.999145 
2.6500177e+2, 1.9514419e+2, -1091203.4, -1156952.3, -6533.3926, 0.019944804, -0.075745344, -1090560.5, -62979.977, 0.0, 9.999996, 9.999119 
2.6500753e+2, 2.0514297e+2, -1007993.6, -1129215.5, -17195.791, 0.013004001, -0.08019273, -1005601.5, -76009.66, 0.0, 10.000166, 9.998554 
2.6501304e+2, 2.1514179e+2, -852032.25, -1005347.9, -17518.8, -0.004287157, -0.056383252, -850055.94, -18450.908, 0.0, 10.000573, 9.998535 
2.6501864e+2, 2.2514038e+2, -724493.2, -900468.06, -6505.6973, -0.020153232, -0.04678414, -724253.0, 9366.17, 0.0, 10.000807, 9.99847 
2.6502445e+2, 2.3513877e+2, -618227.25, -800976.3, -2921.8477, -0.03391846, -0.057141863, -618180.56, 17453.637, 0.0, 10.0008745, 9.998447 
2.6503015e+2, 2.4513702e+2, -521534.9, -742574.25, -10577.728, -0.041637458, -0.058153357, -521029.88, 16621.22, 0.0, 10.001033, 9.9981 
2.6503584e+2, 2.5513518e+2, -389142.25, -629751.5, -13098.565, -0.044833936, -0.05614779, -388431.28, 51238.24, 0.0, 10.001277, 9.998084 
2.6504138e+2, 2.6513314e+2, -291779.7, -576473.3, -19540.469, -0.052820668, -0.044448018, -290444.75, 51245.37, 0.0, 10.001464, 9.997687 
2.650468e+2, 2.75131e+2, -176932.83, -473442.0, -16304.006, -0.062261324, -0.03307523, -176039.02, 67674.05, 0.0, 10.001594, 9.997659 
2.6505253e+2, 2.8512862e+2, -68740.414, -401714.47, -11947.735, -0.045986537, -0.018026216, -68312.26, 77425.6, 0.0, 10.001798, 9.99738 
2.6505837e+2, 2.9512632e+2, 64589.375, -290164.03, -3806.3699, -0.017139604, 0.0070514414, 64630.21, 112393.03, 0.0, 10.002055, 9.99735 
2.6506323e+2, 3.0512393e+2, 123429.51, -253184.17, 5870.529, -0.11280372, 0.044119105, 123520.99, 123520.99, 0.0, 10.002194, 9.997204 
2.6506966e+2, 3.1512094e+2, 263068.13, 26950.025, -13803.287, -0.048145264, 0.02213909, 263872.3, 263872.3, 0.000000038019415, 10.002239, 9.999105 
2.7495995e+2, 1.2514009e+2, -1946296.5, -1787386.0, 17586.852, -0.0015018875, -0.020310769, -1785462.9, -71836.984, 0.00012966055, 9.998241, 10.000349 
2.7496624e+2, 1.35141e+2, -1724002.9, -1570087.9, -32889.758, 0.08107033, -0.01575826, -1563354.4, 52261.17, 0.00005392466, 9.99884, 10.000879 
2.7497134e+2, 1.4514107e+2, -1651619.1, -1582581.5, -7439.82, 0.021107044, -0.05436329, -1581788.8, -64174.87, 0.0000098627, 9.999086, 10.0 
2.7497736e+2, 1.5514113e+2, -1571010.5, -1503611.0, -9455.5625, 0.013434458, -0.044096302, -1502309.5, -82696.836, 0.00000011248763, 9.999014, 9.999904 
2.7498364e+2, 1.6514075e+2, -1485091.0, -1490519.1, -5747.8447, 0.025050675, -0.035778597, -1481448.6, -159831.9, 0.0, 9.999272, 9.999197 
2.749899e+2, 1.7513996e+2, -1304778.9, -1354007.8, -5306.558, 0.032122694, -0.036973707, -1304213.4, -80587.79, 0.0, 9.999843, 9.9991865 
2.7499586e+2, 1.8513912e+2, -1169652.0, -1232815.1, -12107.409, 0.021920713, -0.042234723, -1167410.6, -41777.59, 0.0, 10.000075, 9.999233 
2.750016e+2, 1.9513822e+2, -1085172.5, -1144468.9, -9157.287, 0.0032380773, -0.057188947, -1083790.6, -56151.348, 0.0, 9.999996, 9.999205 
2.7500758e+2, 2.0513703e+2, -1008552.94, -1129939.3, -1939.2802, 0.0011977872, -0.06253927, -1008522.0, -78871.77, 0.0, 10.000164, 9.99855 
2.7501377e+2, 2.1513557e+2, -852272.5, -1005723.9, -1896.9415, 0.012134079, -0.065115675, -852249.06, -20583.342, 0.0, 10.000572, 9.998533 
2.7501965e+2, 2.2513415e+2, -718391.94, -887293.4, -4036.738, -0.002643762, -0.061256457, -718295.5, 15384.14, 0.0, 10.000805, 9.998562 
2.7502525e+2, 2.3513278e+2, -611604.3, -787351.06, -76.030846, -0.03971435, -0.057569746, -611604.25, 24087.684, 0.0, 10.0008745, 9.998541 
2.7503106e+2, 2.4513105e+2, -526790.44, -753574.94, -1710.3411, -0.05396788, -0.058044143, -526777.56, 10931.302, 0.0, 10.001034, 9.998024 
2.7503708e+2, 2.5512898e+2, -394917.16, -641303.56, -3813.7983, -0.04826908, -0.068356596, -394858.16, 44871.727, 0.0, 10.001274, 9.998006 
2.7504277e+2, 2.6512694e+2, -286697.88, -564860.44, -15072.773, -0.057539597, -0.059328508, -285883.5, 55867.426, 0.0, 10.001459, 9.997768 
2.7504826e+2, 2.7512494e+2, -170922.03, -460436.72, -11007.938, -0.076243, -0.04131897, -170504.08, 73268.07, 0.0, 10.001592, 9.997749 
2.750542e+2, 2.8512278e+2, -62087.254, -388142.66, -2112.84, -0.057600547, -0.017363496, -62073.566, 83721.53, 0.0, 10.001799, 9.997474 
2.7506042e+2, 2.9512063e+2, 71002.13, -277596.6, 6046.0503, -0.018440265, 0.017901247, 71106.96, 118925.25, 0.0, 10.002057, 9.997436 
2.7506548e+2, 3.051179e+2, 126375.54, -246918.7, 6880.367, -0.10636468, 0.016719915, 126502.31, 126502.31, 0.0, 10.002194, 9.997247 
2.7507195e+2, 3.151154e+2, 267124.0, 35609.523, -16202.94, -0.042673197, 0.033247482, 268252.47, 268252.47, 0.00000000643165, 10.002238, 9.999165 
2.8495842e+2, 1.2513354e+2, -1889915.6, -1741934.8, 20859.207, 0.004788951, -0.008721967, -1739050.6, -25359.555, 0.00010364884, 9.99855, 10.000513 
2.8496495e+2, 1.3513434e+2, -1747568.9, -1566832.5, -39580.86, 0.07718603, -0.029703606, -1558544.5, 57136.027, 0.000040612387, 9.998616, 10.00101 
2.8497022e+2, 1.4513446e+2, -1688886.8, -1614174.1, -20916.313, 0.009704112, -0.06252582, -1608717.0, -91038.87, 0.0000062724685, 9.998891, 9.999878 
2.849766e+2, 1.5513448e+2, -1527039.1, -1494909.8, -25669.02, 0.01733466, -0.043196674, -1480692.9, -61014.63, 0.000000028346124, 9.999371, 9.999792 
2.849831e+2, 1.651341e+2, -1435022.0, -1454539.0, -18076.012, 0.031005671, -0.033983655, -1424238.6, -102556.305, 0.0, 9.999566, 9.999302 
2.849895e+2, 1.7513338e+2, -1347066.1, -1362488.8, -13362.493, 0.025790751, -0.040261775, -1339349.5, -115659.76, 0.0, 9.999503, 9.999291 
2.8499565e+2, 1.8513256e+2, -1231024.1, -1268705.8, -26457.396, 0.012910486, -0.04460702, -1217384.6, -91687.61, 0.0, 9.999682, 9.999176 
2.850016e+2, 1.9513169e+2, -1074833.6, -1145748.9, -34980.93, 0.0010541384, -0.052447982, -1060482.5, -32778.695, 0.0, 10.000094, 9.999148 
2.8500783e+2, 2.0513052e+2, -975947.94, -1100908.4, -25408.037, 0.0025975425, -0.05797932, -970979.4, -41264.914, 0.0, 10.00033, 9.998671 
2.8501424e+2, 2.1512912e+2, -869384.8, -1000290.6, -16597.979, 0.0133987935, -0.067824066, -867313.1, -35584.56, 0.0, 10.000397, 9.998655 
2.8502032e+2, 2.2512767e+2, -757980.4, -906976.8, -21058.992, -0.00014984129, -0.071487464, -755061.1, -21318.848, 0.0, 10.000535, 9.998556 
2.850261e+2, 2.3512623e+2, -631427.8, -797542.7, -24551.91, -0.034446146, -0.07508888, -627875.06, 7880.493, 0.0, 10.000741, 9.998535 
2.8503203e+2, 2.4512455e+2, -541777.25, -753934.6, -22519.395, -0.05325564, -0.07312257, -539413.25, -1641.1914, 0.0, 10.0009, 9.998086 
2.8503808e+2, 2.5512266e+2, -428443.5, -650389.8, -14724.102, -0.059771482, -0.07130898, -427470.97, 12320.571, 0.0, 10.001015, 9.998069 
2.85044e+2, 2.651207e+2, -320038.2, -574274.06, -20905.197, -0.07018809, -0.060657527, -318330.66, 23481.227, 0.0, 10.001203, 9.997828 
2.8504974e+2, 2.7511865e+2, -186397.45, -460703.56, -19114.77, -0.0784592, -0.05100839, -185071.86, 58761.42, 0.0, 10.001454, 9.997813 
2.8505594e+2, 2.8511658e+2, -71049.62, -382011.56, -8711.592, -0.057836648, -0.025446434, -70805.75, 75049.42, 0.0, 10.001693, 9.997566 
2.8506234e+2, 2.9511467e+2, 58412.086, -273251.97, -1270.0613, -0.024595853, 0.02034644, 58416.95, 106293.32, 0.0, 10.001928, 9.997526 
2.8506765e+2, 3.051117e+2, 123652.836, -238921.77, -3904.0562, -0.10668837, -0.014825756, 123694.87, 123694.87, 0.0, 10.002137, 9.997329 
2.8507426e+2, 3.1510955e+2, 271658.03, 34316.426, -29663.201, -0.039151825, 0.035563912, 275309.2, 275309.2, 0.00000000043435586, 10.002283, 9.999135 
2.949574e+2, 1.2512675e+2, -1880362.1, -1723125.5, 27506.717, 0.045740783, -0.0013155071, -1718452.4, -4694.0444, 0.000085497144, 9.998554, 10.000641 
2.9496342e+2, 1.3512763e+2, -1741371.5, -1554280.6, -37061.824, 0.06347692, -0.02230359, -1547206.4, 68539.59, 0.000032281903, 9.998618, 10.001096 
2.9496884e+2, 1.4512782e+2, -1699774.0, -1637211.0, -3423.224, -0.017778823, -0.04406045, -1637024.3, -119281.16, 0.0000046245973, 9.998893, 9.999719 
2.9497617e+2, 1.5512766e+2, -1537537.6, -1516280.5, -8038.1533, 0.03687943, -0.031001564, -1513583.1, -93836.81, 0.00000001715619, 9.999369, 9.999646 
2.9498288e+2, 1.6512726e+2, -1423031.8, -1429280.3, -20987.81, 0.052797817, -0.025599396, -1404937.0, -83186.53, 0.0, 9.999564, 9.999476 
2.949888e+2, 1.7512667e+2, -1335769.3, -1338268.1, -15389.1045, 0.006533443, -0.032772493, -1321578.9, -97823.95, 0.0, 9.999499, 9.999458 
2.949951e+2, 1.8512578e+2, -1246224.8, -1299614.8, -10982.21, -0.009447984, -0.042784356, -1244054.0, -118290.984, 0.0, 9.99968, 9.998965 
2.9500183e+2, 1.9512457e+2, -1088934.4, -1175201.0, -19347.984, 0.012527799, -0.061887357, -1084793.8, -57019.395, 0.0, 10.000094, 9.998946 
2.950083e+2, 2.0512344e+2, -959155.56, -1065712.4, -23000.037, 0.016056035, -0.06681565, -954403.06, -24618.44, 0.0, 10.000329, 9.998913 
2.950145e+2, 2.151224e+2, -852741.25, -965592.94, -13733.973, -0.0010135338, -0.06471056, -851093.94, -19300.316, 0.0, 10.000396, 9.998895 
2.9502073e+2, 2.2512095e+2, -765296.06, -921592.6, -13556.904, -0.013667777, -0.07744151, -764128.9, -30321.707, 0.0, 10.000533, 9.998457 
2.95027e+2, 2.3511909e+2, -638381.06, -811724.5, -16521.69, -0.02009956, -0.109697394, -636820.4, -995.4571, 0.0, 10.00074, 9.998439 
2.9503307e+2, 2.4511752e+2, -528273.5, -725397.6, -18432.81, -0.041525584, -0.10338482, -526564.7, 11276.074, 0.0, 10.000898, 9.998282 
2.950389e+2, 2.551162e+2, -414809.72, -621973.8, -10163.776, -0.07920958, -0.06601272, -414312.25, 25542.33, 0.0, 10.001014, 9.998264 
2.95045e+2, 2.651144e+2, -317917.38, -569809.94, -11849.687, -0.09023967, -0.049771804, -317361.16, 24512.063, 0.0, 10.001203, 9.997858 
2.9505128e+2, 2.7511215e+2, -183933.5, -455536.78, -9745.355, -0.07264519, -0.06284648, -183584.28, 60312.27, 0.0, 10.001453, 9.997849 
2.950577e+2, 2.8511012e+2, -65237.82, -369333.38, -534.8332, -0.050741516, -0.041605126, -65236.88, 80681.25, 0.0, 10.001691, 9.997654 
2.9506418e+2, 2.9510838e+2, 63726.863, -260810.19, 7812.89, -0.035959404, 0.0152997, 63914.84, 111851.91, 0.0, 10.001923, 9.997614 
2.9506972e+2, 3.0510524e+2, 131579.08, -222105.42, 1546.2722, -0.112960525, -0.04969179, 131585.84, 131585.84, 0.0, 10.002135, 9.997445 
2.9507655e+2, 3.1510338e+2, 266155.66, 20359.111, -26765.162, -0.04261605, 0.021061119, 269036.38, 269036.38, 0.0, 10.002294, 9.999035 
3.0495602e+2, 1.2511994e+2, -1860191.0, -1738611.0, 41584.996, 0.041047823, 0.004653467, -1725748.1, -11923.824, 0.000073591786, 9.998805, 10.000412 
3.049624e+2, 1.3512045e+2, -1681297.9, -1555416.3, -56496.37, 0.074914, -0.026207965, -1533779.4, 82037.43, 0.000027638554, 9.99916, 10.000827 
3.0496797e+2, 1.4512068e+2, -1637594.8, -1596631.1, -26536.701, -0.0149678625, -0.035499167, -1583591.3, -65777.36, 0.000004191702, 9.999275, 9.999813 
3.049754e+2, 1.5512069e+2, -1562624.6, -1517441.6, -13716.583, 0.03724309, -0.0141178155, -1513603.6, -93788.48, 0.000000032166714, 9.99915, 9.999743 
3.0498233e+2, 1.6512032e+2, -1455033.8, -1440062.9, -21359.227, 0.052729342, -0.013420999, -1424915.4, -103096.88, 0.0, 9.999327, 9.9995165 
3.0498844e+2, 1.7511961e+2, -1288437.3, -1311314.4, -26628.488, 0.003232986, -0.036508586, -1270894.5, -47070.77, 0.0, 9.999806, 9.999496 
3.049949e+2, 1.8511866e+2, -1200445.9, -1287540.0, -22223.451, -0.0124579, -0.049732234, -1195103.0, -69270.51, 0.0, 10.000036, 9.998877 
3.0500188e+2, 1.9511746e+2, -1103901.3, -1191153.5, -21809.496, 0.01440646, -0.059725005, -1098753.5, -70908.945, 0.0, 10.000031, 9.998866 
3.0500853e+2, 2.0511635e+2, -985992.3, -1070854.5, -30767.934, 0.0179763, -0.06262057, -976010.94, -46156.273, 0.0, 10.000113, 9.9989805 
3.050148e+2, 2.1511532e+2, -865570.1, -964572.75, -35010.215, -0.004795671, -0.06388407, -854440.6, -22577.734, 0.0, 10.000276, 9.99896 
3.0502117e+2, 2.2511393e+2, -778535.75, -925424.3, -33717.215, -0.01795977, -0.07637849, -771166.0, -37290.05, 0.0, 10.00043, 9.998481 
3.0502766e+2, 2.3511212e+2, -660553.56, -819370.1, -28188.709, -0.020351797, -0.10551228, -655698.7, -19805.29, 0.0, 10.000575, 9.998466 
3.050339e+2, 2.451106e+2, -549229.9, -729786.94, -32173.107, -0.03890849, -0.09816333, -543668.3, -5759.394, 0.0, 10.0007305, 9.998334 
3.050399e+2, 2.551093e+2, -428301.16, -622718.75, -34777.46, -0.074124195, -0.061517447, -422267.4, 17654.98, 0.0, 10.000896, 9.998316 
3.050462e+2, 2.651076e+2, -326689.28, -563531.5, -34725.188, -0.084538475, -0.04499489, -321702.94, 20237.373, 0.0, 10.001098, 9.9979515 
3.050527e+2, 2.7510548e+2, -195379.42, -450756.34, -29080.596, -0.06857689, -0.05640398, -192109.78, 51852.777, 0.0, 10.001332, 9.997939 
3.0505928e+2, 2.8510353e+2, -87896.2, -373362.44, -21785.709, -0.05058595, -0.03288399, -86243.17, 59739.875, 0.0, 10.001506, 9.997715 
3.050659e+2, 2.9510185e+2, 22844.645, -273573.94, -15681.442, -0.039313514, 0.026524132, 23671.93, 71672.88, 0.0, 10.001612, 9.997677 
3.050718e+2, 3.0509856e+2, 117396.984, -218417.92, -13857.772, -0.11110323, -0.05808851, 117967.875, 117967.875, 0.0, 10.001992, 9.9975395 
3.0507898e+2, 3.1509703e+2, 302062.1, 17566.357, -49196.926, -0.04352525, 0.030152287, 310329.3, 310329.3, 0.0, 10.002629, 9.998854 
3.1495428e+2, 1.2511313e+2, -1901595.0, -1825443.1, 61033.883, -0.013144563, 0.009559654, -1791582.1, -77693.39, 0.00006650563, 9.998809, 9.999815 
3.149619e+2, 1.3511284e+2, -1724492.8, -1645944.3, -42899.977, 0.10644659, -0.03887852, -1627056.0, -11163.558, 0.000025576577, 9.999165, 10.000203 
3.1496754e+2, 1.4511307e+2, -1612776.4, -1546235.5, -31659.965, 0.013707281, -0.034246445, -1533579.1, -15688.892, 0.000004447986, 9.999279, 10.000157 
3.1497437e+2, 1.5511361e+2, -1539128.3, -1467900.5, -17956.434, 0.01705615, 0.0056521455, -1463629.8, -43745.266, 0.00000006594377, 9.999147, 10.000085 
3.149814e+2, 1.651133e+2, -1463142.5, -1456059.3, -3576.7085, 0.029543495, 0.0013202281, -1454567.4, -132680.73, 0.0, 9.999322, 9.999409 
3.1498834e+2, 1.751122e+2, -1295908.6, -1326792.0, -8620.306, 0.013778987, -0.050404668, -1293665.5, -69769.44, 0.0, 9.999806, 9.99939 
3.1499508e+2, 1.8511122e+2, -1197908.0, -1282369.9, -22673.605, 0.00095244433, -0.06341533, -1192206.3, -66300.95, 0.0, 10.000036, 9.998912 
3.1500185e+2, 1.9511032e+2, -1101596.1, -1186086.6, -21596.047, 0.0059779603, -0.04670125, -1096396.1, -68481.83, 0.0, 10.00003, 9.998903 
3.1500855e+2, 2.0510921e+2, -994066.0, -1086695.8, -24641.797, 0.007358734, -0.046055555, -987918.7, -57993.855, 0.0, 10.000109, 9.998874 
3.1501514e+2, 2.1510789e+2, -873124.44, -980137.8, -28379.568, 0.0007284237, -0.06582186, -866064.1, -34127.54, 0.0, 10.000275, 9.998854 
3.1502163e+2, 2.251066e+2, -768709.9, -904894.7, -28240.248, -0.014441157, -0.068928696, -763086.0, -29137.371, 0.0, 10.00043, 9.998622 
3.1502807e+2, 2.351053e+2, -650658.25, -799016.3, -22491.217, -0.03553389, -0.063404605, -647323.5, -11362.454, 0.0, 10.000576, 9.998606 
3.1503457e+2, 2.4510376e+2, -555802.5, -743325.9, -26398.389, -0.046009663, -0.0582852, -552157.1, -14180.512, 0.0, 10.00073, 9.998241 
3.1504107e+2, 2.55102e+2, -434045.1, -634500.94, -28444.059, -0.04770021, -0.05808899, -430087.1, 9907.849, 0.0, 10.0008955, 9.998235 
3.1504756e+2, 2.651003e+2, -316527.84, -542092.56, -26135.217, -0.05540711, -0.045977786, -313539.25, 28473.81, 0.0, 10.001096, 9.998099 
3.1505406e+2, 2.7509856e+2, -186088.11, -430411.63, -19993.432, -0.06649791, -0.03185838, -184462.81, 59568.473, 0.0, 10.001328, 9.998081 
3.1506073e+2, 2.850968e+2, -86651.016, -369590.1, -18401.924, -0.056868874, 0.000027481203, -85459.2, 60590.836, 0.0, 10.001501, 9.997744 
3.150675e+2, 2.950951e+2, 26540.994, -266960.4, -11432.91, -0.038635407, 0.05173349, 26985.672, 75053.85, 0.0, 10.0016165, 9.99772 
3.1507388e+2, 3.0509177e+2, 122385.25, -209408.39, 9646.155, -0.10462015, -0.042013705, 122665.45, 122665.45, 0.0, 10.001998, 9.997599 
3.150816e+2, 3.1509045e+2, 283196.47, -19804.777, -28613.781, -0.045376252, 0.062037397, 285874.9, 285874.9, 0.0, 10.002621, 9.998601 
3.249532e+2, 1.2510549e+2, -1843950.6, -1802439.3, 22201.979, -0.025048198, -0.0041664564, -1792802.1, -78839.43, 0.00006287029, 9.999228, 9.999769 
3.24961e+2, 1.351052e+2, -1759721.6, -1673159.8, -47337.402, 0.11115731, -0.04369102, -1652299.8, -36332.656, 0.000025189593, 9.998968, 10.000111 
3.249667e+2, 1.4510547e+2, -1632117.4, -1557217.0, -22863.365, 0.011561816, -0.030471869, -1550789.5, -32824.727, 0.0000050024137, 9.999154, 10.000141 
3.2497388e+2, 1.551058e+2, -1449427.1, -1425979.6, -37658.516, 0.023711719, -0.008050876, -1398262.1, 21698.328, 0.000000115129794, 9.999768, 10.000073 
3.2498118e+2, 1.6510552e+2, -1373843.1, -1414836.4, -36705.46, 0.040650647, -0.00918277, -1352299.3, -30336.664, 0.0, 9.999944, 9.999392 
3.2498816e+2, 1.7510466e+2, -1312636.4, -1335907.8, -35139.184, 0.021192648, -0.03584531, -1287256.5, -63286.18, 0.0, 9.999698, 9.999379 
3.2499498e+2, 1.851037e+2, -1234369.5, -1291336.0, -41765.133, 0.0035364963, -0.049180638, -1212299.6, -86320.33, 0.0, 9.99975, 9.998988 
3.2500187e+2, 1.9510263e+2, -1086145.8, -1170733.9, -38799.973, 0.0018003929, -0.05641735, -1071044.4, -43054.977, 0.0, 10.000101, 9.998975 
3.250087e+2, 2.0510153e+2, -961071.06, -1072568.4, -37549.613, 0.0015848547, -0.05773104, -949604.5, -19604.615, 0.0, 10.000341, 9.998859 
3.250155e+2, 2.1510041e+2, -845141.94, -967286.1, -34785.316, -0.0017729475, -0.058034625, -835930.2, -3919.814, 0.0, 10.000471, 9.998846 
3.2502213e+2, 2.2509918e+2, -748447.56, -890275.75, -36566.785, -0.014994031, -0.055156235, -739574.9, -5552.9473, 0.0, 10.000548, 9.998665 
3.2502863e+2, 2.3509786e+2, -647507.0, -792816.25, -38251.26, -0.035819408, -0.056520667, -638052.8, -2018.4073, 0.0, 10.000577, 9.998648 
3.250353e+2, 2.4509631e+2, -564559.06, -748344.44, -38914.19, -0.039678916, -0.054471835, -556659.06, -18608.877, 0.0, 10.000673, 9.998234 
3.2504216e+2, 2.550946e+2, -443461.13, -640025.25, -35801.082, -0.029001629, -0.053391255, -437143.56, 2925.0618, 0.0, 10.000835, 9.998226 
3.2504877e+2, 2.650929e+2, -333803.3, -545697.94, -35070.887, -0.03898626, -0.037858047, -328149.53, 13936.822, 0.0, 10.0009575, 9.998142 
3.2505524e+2, 2.750913e+2, -224432.98, -443933.2, -36755.668, -0.065588124, -0.017538136, -218441.72, 25661.92, 0.0, 10.001043, 9.998126 
3.250621e+2, 2.8508952e+2, -114007.64, -376659.44, -33023.48, -0.059255227, 0.011427399, -109919.2, 36202.85, 0.0, 10.001287, 9.997798 
3.2506922e+2, 2.9508772e+2, 37425.344, -255814.31, -25669.137, -0.032107443, 0.051745288, 39655.367, 87795.9, 0.0, 10.001667, 9.997772 
3.2507598e+2, 3.050846e+2, 136657.55, -183784.19, 7998.099, -0.09405552, -0.03673107, 136857.06, 136857.06, 0.0, 10.002015, 9.9977665 
3.2508397e+2, 3.1508344e+2, 232121.11, -60215.742, -25265.082, -0.05226697, 0.06739551, 234288.56, 234288.56, 0.0, 10.002336, 9.998461 
3.3495265e+2, 1.2509707e+2, -1806969.8, -1728520.0, 17288.701, -0.0015306027, -0.03451824, -1724878.9, -10833.166, 0.000061273975, 9.999238, 10.000272 
3.3495975e+2, 1.3509756e+2, -1728821.6, -1608348.8, -55982.906, 0.089484334, -0.041174974, -1586350.8, 29689.742, 0.000025556885, 9.998964, 10.000558 
3.3496553e+2, 1.4509788e+2, -1660349.1, -1614727.6, 608.6851, -0.021896936, -0.024367375, -1614719.5, -96682.28, 0.0000055599335, 9.999149, 9.999749 
3.3497393e+2, 1.5509732e+2, -1475768.0, -1480738.5, -14223.461, 0.0516048, -0.053611208, -1463814.3, -43771.3, 0.00000016881297, 9.999769, 9.999697 
3.349815e+2, 1.6509701e+2, -1367580.1, -1402878.5, -46160.54, 0.0801232, -0.042481396, -1335809.8, -13763.508, 0.0, 9.999947, 9.999474 
3.3498788e+2, 1.7509699e+2, -1306890.4, -1323970.4, -43751.813, 0.025904713, 0.005662684, -1270852.9, -46806.21, 0.0, 9.999697, 9.999462 
3.3499467e+2, 1.8509611e+2, -1227514.0, -1276104.0, -28677.494, -0.0049948753, -0.008139095, -1214223.9, -88169.24, 0.0, 9.999745, 9.999094 
3.3500195e+2, 1.9509442e+2, -1079420.3, -1156594.1, -25282.879, 0.000109718305, -0.08886935, -1071875.0, -43805.047, 0.0, 10.000099, 9.999072 
3.35009e+2, 2.0509334e+2, -955938.8, -1061218.3, -32628.428, -0.0016531764, -0.09695102, -946646.7, -16566.727, 0.0, 10.000338, 9.9989395 
3.3501583e+2, 2.1509285e+2, -839477.5, -955500.0, -29434.266, -0.013198567, -0.040988784, -832437.4, -352.83203, 0.0, 10.00047, 9.998928 
3.3502263e+2, 2.2509168e+2, -752270.44, -897848.9, -35790.5, -0.020824837, -0.035208803, -743947.2, -9851.392, 0.0, 10.000547, 9.998614 
3.3502936e+2, 2.3508981e+2, -650506.75, -799186.6, -36828.2, -0.022652848, -0.0844378, -641884.4, -5770.868, 0.0, 10.000577, 9.998604 
3.350362e+2, 2.4508823e+2, -559835.4, -738554.8, -32937.344, -0.021326788, -0.08629127, -553958.4, -15828.942, 0.0, 10.000673, 9.998301 
3.3504307e+2, 2.5508696e+2, -439478.13, -631279.6, -29473.336, -0.018699149, -0.04733388, -435051.25, 5092.201, 0.0, 10.0008335, 9.998287 
3.3504978e+2, 2.650854e+2, -338455.13, -555005.2, -32407.58, -0.035393573, -0.020823967, -333709.22, 8451.047, 0.0, 10.000956, 9.998079 
3.3505628e+2, 2.7508357e+2, -226938.69, -449916.6, -33414.69, -0.06848794, -0.014400334, -222038.94, 22140.738, 0.0, 10.001046, 9.998083 
3.350634e+2, 2.8508168e+2, -108769.125, -366171.25, -19042.89, -0.060169086, 0.0012710982, -107367.945, 38831.152, 0.0, 10.001288, 9.9978695 
3.35071e+2, 2.9507986e+2, 41019.715, -246660.95, -11045.281, -0.021166904, 0.02854739, 41443.168, 89660.97, 0.0, 10.001659, 9.997838 
3.3507812e+2, 3.0507705e+2, 153970.45, -145809.14, 18943.326, -0.08007299, -0.041385464, 155162.77, 155162.77, 0.0, 10.002007, 9.998032 
3.3508617e+2, 3.1507602e+2, 231785.78, -61726.24, -14480.035, -0.068839036, 0.04628135, 232498.4, 232498.4, 0.0, 10.002339, 9.998449 
3.4495193e+2, 1.2508895e+2, -1799232.8, -1722655.1, 35085.49, 0.0001382023, -0.047418833, -1709011.0, 5114.417, 0.000060228966, 9.999283, 10.000291 
3.4495917e+2, 1.3508949e+2, -1624156.3, -1563123.4, -81846.75, 0.097191736, -0.045099676, -1506289.1, 109830.23, 0.000025763518, 9.999702, 10.000514 
3.449649e+2, 1.4508986e+2, -1564953.8, -1574713.9, -24218.684, -0.033346936, -0.018637983, -1545128.4, -27012.764, 0.000005876301, 9.99983, 9.999695 
3.4497356e+2, 1.550891e+2, -1499458.8, -1497401.8, -14494.226, 0.045347027, -0.06325715, -1483899.6, -63776.133, 0.0000002059256, 9.999629, 9.999649 
3.449813e+2, 1.6508876e+2, -1403296.9, -1417679.9, -41892.836, 0.08062527, -0.053416606, -1367982.8, -45855.453, 0.0, 9.999692, 9.999494 
3.4498778e+2, 1.750889e+2, -1254861.0, -1296514.6, -45097.313, 0.029882716, 0.008977572, -1226013.6, -1886.9862, 0.0, 10.000043, 9.999484 
3.4499463e+2, 1.8508817e+2, -1161105.6, -1234614.0, -30069.611, -0.0025916698, 0.0031384702, -1150372.5, -24239.047, 0.0, 10.000159, 9.99918 
3.45002e+2, 1.9508658e+2, -1081674.9, -1147193.9, -27886.36, -0.002526717, -0.075021036, -1071413.0, -43265.695, 0.0, 10.000041, 9.999164 
3.4500918e+2, 2.0508552e+2, -993440.2, -1074995.3, -35338.113, -0.0036935823, -0.08709345, -980258.56, -50101.637, 0.0, 10.000063, 9.998977 
3.450162e+2, 2.1508497e+2, -872680.94, -967560.7, -35894.8, -0.0110655725, -0.041499637, -860631.5, -28469.295, 0.0, 10.000225, 9.998963 
3.4502316e+2, 2.2508378e+2, -770763.6, -911818.2, -43151.887, -0.014261569, -0.03618211, -758609.7, -24435.844, 0.0, 10.000442, 9.9985695 
3.450301e+2, 2.3508197e+2, -634424.7, -796236.6, -44583.617, -0.011313447, -0.07632429, -622953.8, 13237.67, 0.0, 10.000709, 9.998561 
3.45037e+2, 2.4508043e+2, -530634.56, -718862.8, -43225.492, -0.01211383, -0.07504414, -521182.7, 17024.34, 0.0, 10.00085, 9.998352 
3.4504393e+2, 2.5507915e+2, -430678.88, -621405.06, -40995.95, -0.018137712, -0.038969282, -422240.3, 17980.049, 0.0, 10.00087, 9.998338 
3.4505078e+2, 2.6507753e+2, -329547.22, -555551.2, -38413.742, -0.033544168, -0.01742623, -323196.5, 19040.873, 0.0, 10.001038, 9.998035 
3.4505758e+2, 2.750756e+2, -187588.56, -436549.75, -39230.895, -0.0561258, -0.018343395, -181552.94, 62705.086, 0.0, 10.00134, 9.9980345 
3.4506485e+2, 2.850737e+2, -80463.96, -351004.25, -27698.283, -0.050835315, -0.003734432, -77657.29, 68620.46, 0.0, 10.001475, 9.997884 
3.450725e+2, 2.9507193e+2, 14157.181, -258370.05, -23941.48, -0.02626908, 0.028663006, 16244.45, 64540.31, 0.0, 10.001469, 9.99785 
3.4508002e+2, 3.0506948e+2, 125153.63, -139915.28, 10243.1045, -0.076530136, -0.017249357, 125548.87, 125548.87, 0.0, 10.001724, 9.998208 
3.4508857e+2, 3.150681e+2, 206653.94, -76449.984, -34456.902, -0.054159336, 0.01820378, 210787.38, 210787.38, 0.0, 10.002179, 9.998424 
3.54951e+2, 1.2508114e+2, -1832760.1, -1791878.9, 56052.727, -0.022964112, -0.042713653, -1752656.1, -38454.242, 0.00005843651, 9.99928, 9.999817 
3.5495916e+2, 1.35081e+2, -1661338.1, -1641613.0, -64777.37, 0.12726063, -0.054262687, -1585951.8, 30252.2, 0.000025162195, 9.999706, 9.999973 
3.549648e+2, 1.450814e+2, -1543467.1, -1531693.8, -31392.928, -0.030033424, -0.011289633, -1505640.4, 12559.458, 0.0000057861466, 9.999836, 9.999988 
3.549728e+2, 1.5508114e+2, -1479242.8, -1455125.5, -21564.768, 0.0064782863, -0.037505772, -1442476.9, -22274.932, 0.00000020730299, 9.999628, 9.999941 
3.5498065e+2, 1.6508077e+2, -1407030.9, -1425152.0, -28916.14, 0.042478133, -0.041953493, -1385789.0, -63583.297, 0.0, 9.99969, 9.999443 
3.5498783e+2, 1.7508039e+2, -1258374.6, -1304093.1, -31501.928, 0.02896991, -0.025738828, -1242312.0, -18101.537, 0.0, 10.000043, 9.999432 
3.5499486e+2, 1.8507983e+2, -1155741.6, -1223426.8, -34527.08, 0.0059756455, -0.014702741, -1141237.1, -15021.359, 0.0, 10.000159, 9.999257 
3.55002e+2, 1.950791e+2, -1075770.3, -1135196.0, -31843.879, -0.006489738, -0.016073233, -1061929.8, -33708.043, 0.0, 10.000041, 9.999247 
3.5500923e+2, 2.0507807e+2, -993959.44, -1075641.4, -29373.432, -0.004965429, -0.02889929, -984493.5, -54262.52, 0.0, 10.00006, 9.998974 
3.5501656e+2, 2.1507674e+2, -873230.06, -968539.44, -29252.031, 0.0031244077, -0.05922604, -864968.3, -32724.861, 0.0, 10.000224, 9.998958 
3.5502377e+2, 2.250755e+2, -774087.56, -918355.2, -33208.582, 0.002716919, -0.058345817, -766810.44, -32554.436, 0.0, 10.00044, 9.998526 
3.550309e+2, 2.3507431e+2, -637753.56, -802964.0, -34355.613, -0.0026463338, -0.03268227, -630894.06, 5374.427, 0.0, 10.000708, 9.998515 
3.5503787e+2, 2.4507286e+2, -528101.9, -713535.9, -42885.734, -0.012648791, -0.021216765, -518663.94, 19619.15, 0.0, 10.000849, 9.998389 
3.5504466e+2, 2.550712e+2, -427140.8, -614122.75, -40163.8, -0.028760435, -0.028690107, -418878.7, 21420.684, 0.0, 10.000871, 9.998387 
3.550518e+2, 2.650694e+2, -331688.75, -559687.25, -27192.61, -0.035198722, -0.027854765, -328490.44, 13827.322, 0.0, 10.001036, 9.998009 
3.5505918e+2, 2.7506742e+2, -190690.53, -442345.75, -27685.629, -0.030287795, -0.028132189, -187680.72, 56657.82, 0.0, 10.001337, 9.997996 
3.550665e+2, 2.850656e+2, -84098.19, -358030.78, -28733.674, -0.03253464, -0.0034298988, -81116.67, 65241.25, 0.0, 10.001472, 9.997838 
3.5507372e+2, 2.9506397e+2, 12224.037, -262757.28, -23743.39, -0.049630664, 0.05013207, 14259.11, 62633.91, 0.0, 10.00147, 9.99782 
3.5508165e+2, 3.0506182e+2, 130318.22, -128952.82, 27450.033, -0.086254455, 0.033887673, 133192.6, 133192.6, 0.0, 10.001722, 9.998284 
3.5509115e+2, 3.1505972e+2, 203336.05, -81701.45, -18858.906, -0.015909152, -0.011618344, 204578.39, 204578.39, 0.0, 10.002172, 9.998391 
3.6495072e+2, 1.2507343e+2, -1723839.1, -1742571.6, 52729.72, -0.015411411, -0.013802604, -1679650.3, 34628.41, 0.000055122826, 10.000042, 9.999787 
3.6495903e+2, 1.3507296e+2, -1662032.4, -1653553.6, -38702.242, 0.14344533, -0.048058916, -1618859.3, -2575.579, 0.000023501116, 9.999752, 9.999868 
3.6496443e+2, 1.4507337e+2, -1572402.0, -1544355.5, -5503.2905, -0.039162297, -0.001678024, -1543314.4, -25034.826, 0.00000526637, 9.999632, 9.999999 
3.6497235e+2, 1.5507312e+2, -1475428.3, -1451435.4, -18425.652, -0.0020524522, -0.02525137, -1441445.0, -21163.81, 0.00000017249042, 9.999645, 9.999957 
3.6498028e+2, 1.6507275e+2, -1391389.8, -1411438.1, -16513.463, 0.03554292, -0.033688124, -1382096.0, -59811.332, 0.0, 9.99977, 9.999499 
3.6498776e+2, 1.7507234e+2, -1260116.3, -1298230.5, -10891.762, 0.019254554, -0.027761796, -1257223.3, -32933.918, 0.0, 10.000003, 9.999491 
3.6499497e+2, 1.850718e+2, -1157136.0, -1229444.4, -24666.71, -0.0015032985, -0.016938968, -1149523.0, -23228.268, 0.0, 10.000172, 9.999209 
3.6500213e+2, 1.950711e+2, -1042254.5, -1124269.1, -32315.385, -0.0068554827, -0.008499616, -1031051.8, -2751.039, 0.0, 10.000292, 9.999202 
3.6500952e+2, 2.0507008e+2, -945701.56, -1058686.8, -30671.596, 0.0005912491, -0.015304928, -937912.25, -7601.9907, 0.0, 10.000418, 9.998919 
3.6501703e+2, 2.1506874e+2, -829929.7, -953250.6, -34669.066, 0.0129504725, -0.04338639, -820851.5, 11471.62, 0.0, 10.0005455, 9.998908 
3.650244e+2, 2.250675e+2, -743891.56, -902660.25, -36584.742, 0.009392454, -0.040673997, -735867.0, -1531.1768, 0.0, 10.000642, 9.998535 
3.6503154e+2, 2.3506631e+2, -636599.0, -801358.1, -34109.855, -0.0063824495, -0.013257183, -629816.44, 6531.7466, 0.0, 10.000711, 9.998525 
3.6503866e+2, 2.4506485e+2, -527697.75, -714028.2, -43201.98, -0.017403245, -0.004510337, -518168.44, 20194.484, 0.0, 10.000855, 9.998382 
3.650457e+2, 2.5506312e+2, -397989.56, -601261.56, -44789.61, -0.02603521, -0.019444576, -388558.06, 51821.582, 0.0, 10.001075, 9.998378 
3.6505297e+2, 2.650613e+2, -308866.88, -551993.56, -31600.16, -0.029061118, -0.01764554, -304826.8, 37571.164, 0.0, 10.001205, 9.99798 
3.650605e+2, 2.750594e+2, -203360.77, -451526.6, -32376.94, -0.024643267, -0.008547085, -199206.25, 45211.855, 0.0, 10.001263, 9.997969 
3.65068e+2, 2.8505743e+2, -93222.67, -364086.44, -33499.887, -0.026519252, 0.0075668516, -89140.984, 57297.57, 0.0, 10.001417, 9.997823 
3.6507538e+2, 2.9505554e+2, 34682.62, -254339.67, -26857.898, -0.041213095, 0.034428034, 37157.25, 85615.445, 0.0, 10.001634, 9.9978 
3.6508352e+2, 3.0505383e+2, 134646.92, -129121.07, 27949.34, -0.07285265, 0.063386366, 137575.97, 137575.97, 0.0, 10.0017605, 9.998264 
3.6509314e+2, 3.1505165e+2, 154869.77, -106496.914, -28229.121, -0.016470717, 0.012402703, 157883.92, 157883.92, 0.0, 10.001843, 9.99838 
3.7495112e+2, 1.2506585e+2, -1694769.8, -1681533.3, 46146.063, 0.01750688, 0.040546183, -1641533.3, 72822.79, 0.00005010573, 10.000039, 10.000207 
3.7495887e+2, 1.350654e+2, -1638243.6, -1604068.1, -48460.98, 0.14709574, -0.025977729, -1569770.5, 46588.16, 0.000020857056, 9.999751, 10.000209 
3.7496385e+2, 1.4506574e+2, -1591787.9, -1584525.3, -4769.401, -0.061212603, 0.010601207, -1582162.1, -63807.445, 0.000004428325, 9.999631, 9.999724 
3.7497216e+2, 1.5506507e+2, -1494213.3, -1490402.3, -17481.264, 0.015218857, -0.026062924, -1474723.0, -54361.633, 0.00000011962439, 9.999644, 9.99969 
3.7498024e+2, 1.6506474e+2, -1379268.0, -1386140.9, -7817.394, 0.055021156, -0.02782661, -1374165.1, -51800.668, 0.0, 9.999769, 9.999673 
3.7498757e+2, 1.7506474e+2, -1247837.0, -1272975.5, -1708.998, 0.0010327558, 0.002431017, -1247721.4, -23357.813, 0.0, 10.000003, 9.999664 
3.749949e+2, 1.8506403e+2, -1169257.3, -1254783.5, -20377.084, -0.025777353, -0.0035237656, -1164650.5, -38280.277, 0.0, 10.000173, 9.999036 
3.7500244e+2, 1.950626e+2, -1054823.5, -1150241.5, -27386.543, -0.0055807703, -0.05168241, -1047521.9, -19137.48, 0.0, 10.000291, 9.999024 
3.7501004e+2, 2.0506155e+2, -953094.0, -1073515.4, -25877.475, 0.010787843, -0.046390507, -947768.6, -17373.777, 0.0, 10.000416, 9.998817 
3.7501764e+2, 2.1506092e+2, -836953.4, -967451.75, -29422.104, 0.017287131, 0.005240084, -830626.6, 1774.8745, 0.0, 10.000544, 9.998812 
3.7502497e+2, 2.2505972e+2, -739414.56, -893172.3, -34287.05, 0.0047762045, 0.016653063, -732115.3, 2298.1648, 0.0, 10.000641, 9.998601 
3.750321e+2, 2.3505801e+2, -631884.7, -791392.75, -31291.365, -0.02345514, -0.017614895, -625965.75, 10464.847, 0.0, 10.0007105, 9.998593 
3.7503943e+2, 2.4505638e+2, -531724.0, -721983.1, -35111.855, -0.028134214, -0.024871048, -525451.0, 12995.572, 0.0, 10.000854, 9.998328 
3.750469e+2, 2.550549e+2, -401934.53, -609607.3, -36433.168, -0.011267507, -0.010963473, -395728.34, 44732.844, 0.0, 10.001075, 9.998321 
3.7505433e+2, 2.6505324e+2, -311247.75, -557099.6, -29912.918, -0.015965125, 0.012995028, -307660.56, 34817.39, 0.0, 10.001206, 9.997945 
3.7506163e+2, 2.7505147e+2, -205182.13, -454620.0, -30009.373, -0.040395718, 0.039013214, -201622.55, 42874.313, 0.0, 10.00126, 9.99795 
3.7506935e+2, 2.8504926e+2, -92403.32, -361152.16, -25391.172, -0.034964174, 0.028746959, -90025.42, 56494.27, 0.0, 10.001411, 9.997846 
3.7507737e+2, 2.950467e+2, 35475.676, -252751.56, -18555.441, -0.005100138, -0.01589756, 36665.324, 85211.04, 0.0, 10.001634, 9.997809 
3.750856e+2, 3.0504552e+2, 126476.89, -146474.78, 30023.41, -0.03955844, 0.07190861, 129740.31, 129740.31, 0.0, 10.001762, 9.998145 
3.7509456e+2, 3.150439e+2, 154548.11, -104672.56, -26098.074, -0.05835606, 0.08948009, 157149.53, 157149.53, 0.0, 10.001833, 9.998397 
3.8495132e+2, 1.2505816e+2, -1702630.5, -1679570.6, 61310.01, 0.03925175, 0.055164743, -1628715.9, 85716.31, 0.00004363311, 9.999961, 10.0002575 
3.8495854e+2, 1.350577e+2, -1660956.5, -1620207.8, -66482.055, 0.14790264, -0.008803258, -1571048.1, 45387.098, 0.000017489165, 9.999615, 10.000164 
3.849632e+2, 1.4505807e+2, -1586554.9, -1583728.3, -7211.4463, -0.08656064, 0.03263527, -1577792.9, -59361.96, 0.0000034194288, 9.999673, 9.999709 
3.849721e+2, 1.5505727e+2, -1434936.1, -1463181.8, -1761.4264, 0.02545827, -0.017174881, -1434826.8, -14388.142, 0.00000006772674, 10.000057, 9.999679 
3.849804e+2, 1.6505681e+2, -1322180.3, -1365407.0, 4605.1294, 0.0725425, -0.02742499, -1321695.1, 747.3844, 0.0, 10.00019, 9.999613 
3.8498756e+2, 1.7505671e+2, -1237217.0, -1274162.8, -7549.2705, -0.006247846, 0.000095721494, -1235734.0, -11291.731, 0.0, 10.000102, 9.999609 
3.8499495e+2, 1.8505594e+2, -1173171.0, -1269977.9, -27594.744, -0.03645449, -0.0030043493, -1165857.6, -39407.887, 0.0, 10.000202, 9.998918 
3.850029e+2, 1.9505447e+2, -1035236.0, -1153533.6, -30480.291, 0.0017870184, -0.043322664, -1027844.4, 620.53796, 0.0, 10.000481, 9.99891 
3.8501066e+2, 2.0505337e+2, -922206.94, -1061141.5, -27111.168, 0.018140214, -0.036708366, -917104.0, 13372.18, 0.0, 10.000639, 9.9987955 
3.8501814e+2, 2.1505268e+2, -818041.2, -960681.2, -25452.336, 0.006696109, 0.0108057335, -813635.6, 18847.684, 0.0, 10.000683, 9.998791 
3.8502553e+2, 2.2505149e+2, -725741.8, -887251.9, -30144.672, -0.0068465634, 0.024690924, -720298.94, 14196.163, 0.0, 10.000738, 9.998595 
3.850329e+2, 2.3504984e+2, -617948.1, -785402.75, -33155.1, -0.020315453, -0.0013617713, -611622.56, 24888.994, 0.0, 10.000809, 9.998588 
3.850404e+2, 2.4504818e+2, -524212.2, -722930.2, -34234.004, -0.018886456, -0.010632423, -518479.9, 20047.938, 0.0, 10.000924, 9.998288 
3.8504806e+2, 2.5504652e+2, -403438.44, -614673.9, -34949.66, -0.0044404888, -0.008490729, -397806.06, 42737.75, 0.0, 10.001084, 9.9982815 
3.8505554e+2, 2.6504484e+2, -312789.16, -560200.8, -31382.781, -0.012572086, 0.01266379, -308870.5, 33690.523, 0.0, 10.001206, 9.997924 
3.850629e+2, 2.750431e+2, -203360.45, -456317.84, -30966.988, -0.041630115, 0.045034204, -199624.66, 44954.785, 0.0, 10.001283, 9.997928 
3.850707e+2, 2.850409e+2, -94790.36, -364335.4, -21778.287, -0.037067242, 0.035430785, -93042.09, 53560.508, 0.0, 10.001402, 9.9978285 
3.8507897e+2, 2.950382e+2, 26218.318, -260347.6, -19245.422, -0.0032521544, -0.015801193, 27505.04, 76135.0, 0.0, 10.001582, 9.997784 
3.8508737e+2, 3.0503735e+2, 107504.24, -153210.97, 25016.074, -0.032151207, 0.10285959, 109882.875, 109882.875, 0.0, 10.001621, 9.998167 
3.8509613e+2, 3.1503546e+2, 122606.016, -92786.734, -22513.873, -0.06725053, 0.092128634, 124934.11, 124934.11, 0.000000000002787424, 10.001494, 9.998642 
3.9495134e+2, 1.250504e+2, -1726138.5, -1727417.0, 49789.996, 0.046940167, 0.02900319, -1676983.6, 37523.406, 0.0000362571, 9.999958, 9.99993 
3.949581e+2, 1.3504988e+2, -1691287.4, -1683247.3, -78275.46, 0.14273699, 0.0036571494, -1608888.6, 7624.734, 0.000013744367, 9.999614, 9.999733 
3.9496258e+2, 1.4505035e+2, -1570185.3, -1548787.3, 7770.905, -0.11914112, 0.06543185, -1546262.9, -27754.576, 0.0000023661473, 9.999669, 9.999951 
3.949722e+2, 1.5504965e+2, -1417596.0, -1427569.1, 12873.257, 0.027330453, 0.00093092356, -1408777.3, 11735.7295, 0.000000028035489, 10.000058, 9.999922 
3.9498073e+2, 1.6504894e+2, -1342693.8, -1408468.8, 690.70667, 0.08634817, -0.032252017, -1342686.5, -20167.54, 0.0, 10.000192, 9.999317 
3.9498767e+2, 1.7504826e+2, -1257892.3, -1316738.5, -10495.543, -0.0039310656, -0.034288622, -1256076.4, -31550.766, 0.0, 10.000101, 9.999318 
3.949952e+2, 1.8504754e+2, -1177569.1, -1278594.0, -17180.418, -0.03524329, -0.015327228, -1174727.4, -48194.01, 0.0, 10.0002, 9.998859 
3.950035e+2, 1.9504672e+2, -1039275.06, -1161524.8, -19696.855, 0.0138826715, 0.016128415, -1036179.9, -7637.4473, 0.0, 10.000479, 9.998856 
3.950113e+2, 2.0504555e+2, -918272.75, -1052654.6, -25631.125, 0.021157742, 0.014038474, -913550.0, 17004.28, 0.0, 10.000637, 9.998854 
3.9501855e+2, 2.1504402e+2, -814426.2, -952580.7, -23327.602, -0.019987985, -0.025909215, -810593.6, 21974.988, 0.0, 10.000681, 9.998847 
3.9502606e+2, 2.2504279e+2, -731480.25, -898672.06, -27569.012, -0.027204856, -0.01648415, -727051.56, 7529.3325, 0.0, 10.000736, 9.998518 
3.950339e+2, 2.3504186e+2, -623180.4, -796486.8, -30157.215, 0.0020014632, 0.034903638, -618082.6, 18508.473, 0.0, 10.00081, 9.998511 
3.9504158e+2, 2.4504025e+2, -526206.75, -727122.6, -28433.805, 0.009099284, 0.037846357, -522260.25, 16346.543, 0.0, 10.000924, 9.99826 
3.950491e+2, 2.5503805e+2, -405574.1, -618235.8, -28681.846, -0.0068939137, -0.01224231, -401773.66, 38853.98, 0.0, 10.0010805, 9.998259 
3.9505666e+2, 2.6503605e+2, -313634.94, -560978.8, -28701.63, -0.020658368, -0.018325526, -310348.1, 32299.145, 0.0, 10.001202, 9.997921 
3.9506426e+2, 2.750343e+2, -203231.6, -457168.94, -28049.617, -0.030687682, 0.011300144, -200170.17, 44495.504, 0.0, 10.001287, 9.997919 
3.9507213e+2, 2.850323e+2, -99021.89, -373536.84, -15406.81, -0.034621466, 0.027994955, -98159.91, 48527.258, 0.0, 10.001405, 9.997765 
3.9508024e+2, 2.9503012e+2, 20029.295, -270167.06, -12060.483, -0.036816116, 0.033012807, 20529.664, 69240.69, 0.0, 10.00157, 9.997722 
3.9508876e+2, 3.0502936e+2, 116765.28, -131441.22, 20025.875, -0.051950186, 0.1557405, 118370.63, 118370.63, 0.0, 10.001611, 9.998322 
3.9509782e+2, 3.1502643e+2, 156270.83, -23982.658, -26810.924, -0.051039644, 0.025315503, 160174.16, 160174.16, 0.000000001718879, 10.001501, 9.999111 
4.0495083e+2, 1.2504232e+2, -1791515.1, -1756696.1, 21236.717, 0.020928586, 0.013392347, -1746645.0, -32059.281, 0.000028702449, 9.999501, 9.999949 
4.0495816e+2, 1.3504177e+2, -1655844.4, -1676191.4, -81532.51, 0.17174083, -0.0061459644, -1583853.1, 32739.93, 0.000010028613, 9.999901, 9.999644 
4.0496248e+2, 1.4504234e+2, -1512603.5, -1519639.1, 13372.6045, -0.113985956, 0.06929454, -1502293.8, 16293.567, 0.0000013962007, 10.000057, 9.999965 
4.04972e+2, 1.5504172e+2, -1438713.3, -1435871.9, -1306.2175, 0.007284534, 0.009793567, -1435362.6, -14771.677, 0.000000006286357, 9.999905, 9.99994 
4.0498072e+2, 1.6504094e+2, -1381230.6, -1445563.5, -15962.849, 0.07344313, -0.021134501, -1377487.6, -54889.855, 0.0, 10.000007, 9.999151 
4.0498814e+2, 1.7504008e+2, -1230474.9, -1322070.8, -17951.086, 0.018102892, -0.024371145, -1227082.4, -2475.4849, 0.0, 10.000369, 9.999152 
4.049958e+2, 1.8503931e+2, -1129544.4, -1253075.8, -16933.818, -0.0115553895, -0.0023875812, -1127265.1, -649.7841, 0.0, 10.00052, 9.99888 
4.050039e+2, 1.950386e+2, -1038813.1, -1158643.9, -14217.581, 0.007664521, 0.0365274, -1037149.4, -8526.071, 0.0, 10.000471, 9.998879 
4.0501168e+2, 2.0503742e+2, -947147.94, -1067038.4, -22945.572, 0.005927115, 0.03235763, -942906.44, -12271.45, 0.0, 10.000442, 9.99885 
4.0501904e+2, 2.1503577e+2, -850299.06, -970011.56, -25752.373, -0.025380429, -0.01969232, -844994.3, -12343.894, 0.0, 10.000436, 9.998846 
4.0502673e+2, 2.2503452e+2, -746784.3, -903102.56, -20031.988, -0.028317204, -0.014346864, -744258.06, -9595.322, 0.0, 10.000618, 9.998544 
4.0503478e+2, 2.3503363e+2, -595288.94, -779612.6, -15176.534, 0.00030164336, 0.0412765, -594047.75, 42624.227, 0.0, 10.000987, 9.998541 
4.0504262e+2, 2.4503201e+2, -497221.72, -725342.44, -17024.43, 0.007722201, 0.045375157, -495958.2, 42729.79, 0.0, 10.001176, 9.99815 
4.0505022e+2, 2.5502965e+2, -397193.9, -626258.6, -23759.34, -0.007285168, -0.006626352, -394755.47, 45955.03, 0.0, 10.001189, 9.998152 
4.0505794e+2, 2.6502764e+2, -307286.28, -559150.3, -25879.879, -0.016803665, -0.011105217, -304654.53, 38076.082, 0.0, 10.001249, 9.9979105 
4.0506572e+2, 2.7502593e+2, -192525.9, -453598.6, -26463.336, -0.01956358, 0.024211189, -189870.5, 54877.996, 0.0, 10.001367, 9.997906 
4.0507358e+2, 2.8502393e+2, -102354.41, -372189.22, -13681.08, -0.027946923, 0.04045146, -101662.52, 45107.39, 0.0, 10.0013685, 9.997791 
4.0508154e+2, 2.950217e+2, -26696.572, -289872.72, -3891.1194, -0.045437757, 0.0366055, -26639.053, 22155.336, 0.0, 10.001236, 9.997747 
4.0509027e+2, 3.050209e+2, 72869.25, -167403.03, 28417.629, -0.05130213, 0.16111282, 76184.53, 76184.53, 0.0, 10.001373, 9.998189 
4.050995e+2, 3.1501776e+2, 215114.38, 26935.531, -42384.555, -0.043355938, 0.02264219, 224220.25, 224220.25, 0.00000001196501, 10.001808, 9.999313 
4.1494966e+2, 1.2503392e+2, -1766792.3, -1703723.9, 36147.164, -0.04612636, 0.0067446856, -1687289.1, 27379.225, 0.000021697306, 9.999495, 10.000316 
4.149587e+2, 1.3503337e+2, -1636535.1, -1638099.8, -65197.797, 0.23329411, -0.040252786, -1572114.9, 44559.42, 0.000006740833, 9.999907, 9.999904 
4.1496295e+2, 1.4503403e+2, -1528274.8, -1552120.6, 8139.135, -0.07313908, 0.04292725, -1525761.5, -7093.731, 0.0000006540361, 10.000057, 9.999742 
4.1497144e+2, 1.5503345e+2, -1454003.8, -1466976.3, -6854.009, -0.035415348, 0.010178743, -1451053.4, -30380.807, 0.0000000002364484, 9.999903, 9.999727 
4.1498032e+2, 1.6503282e+2, -1384688.9, -1451928.5, -2764.1013, 0.032393906, 0.0065936316, -1384575.4, -61896.56, 0.0, 10.000004, 9.999109 
4.149889e+2, 1.750322e+2, -1233408.8, -1327882.8, -4031.8064, 0.057514843, 0.029954318, -1233237.0, -8550.776, 0.0, 10.000368, 9.999112 
4.1499674e+2, 1.850313e+2, -1122554.1, -1238466.4, -19016.576, 0.032119665, 0.036056034, -1119514.0, 7181.6436, 0.0, 10.00052, 9.9989805 
4.1500413e+2, 1.9503012e+2, -1032327.75, -1144584.0, -15749.74, -0.017321901, 0.018411752, -1030159.9, -1452.4406, 0.0, 10.000468, 9.998977 
4.150118e+2, 2.0502898e+2, -952014.1, -1076687.8, -23358.238, -0.028338954, 0.01811337, -947781.5, -17063.021, 0.0, 10.00044, 9.998784 
4.1501963e+2, 2.150279e+2, -854869.2, -979124.5, -25529.838, -0.011142805, 0.028954554, -849828.25, -17099.508, 0.0, 10.000434, 9.998784 
4.1502753e+2, 2.2502664e+2, -737638.3, -883865.8, -6275.6675, -0.011827138, 0.030879168, -737369.5, -2628.8052, 0.0, 10.000617, 9.998676 
4.1503552e+2, 2.3502523e+2, -586393.7, -760404.25, -1035.9215, -0.026103433, 0.018153306, -586387.5, 50366.57, 0.0, 10.000984, 9.998674 
4.1504347e+2, 2.4502347e+2, -510542.16, -752290.5, -16837.785, -0.024054628, 0.012387558, -509375.03, 29396.371, 0.0, 10.001173, 9.997967 
4.1505143e+2, 2.5502142e+2, -409864.8, -653103.0, -23226.514, -0.0070453784, 0.007939935, -407666.8, 33125.66, 0.0, 10.001191, 9.997967 
4.1505933e+2, 2.650196e+2, -308975.4, -562184.1, -21656.84, -0.0025003715, 0.033284474, -307136.47, 35674.863, 0.0, 10.001248, 9.9978895 
4.1506717e+2, 2.75018e+2, -195168.95, -457052.94, -21328.873, -0.009743984, 0.081807666, -193443.2, 51384.89, 0.0, 10.001359, 9.997886 
4.1507503e+2, 2.850158e+2, -95270.43, -356053.7, -18968.006, -0.018860398, 0.071976654, -93898.016, 52952.973, 0.0, 10.001363, 9.997905 
4.150829e+2, 2.9501298e+2, -17022.44, -271449.47, -9405.502, -0.03241685, -0.0020038546, -16675.217, 32204.604, 0.0, 10.001244, 9.99787 
4.150918e+2, 3.05012e+2, 43552.0, -228913.3, 44429.152, -0.03357996, 0.12128728, 50613.75, 50613.75, 0.0, 10.001376, 9.997765 
4.151013e+2, 3.1500933e+2, 208410.25, 17320.926, -25601.014, -0.049012553, 0.07499736, 211780.67, 211780.67, 0.000000036873733, 10.001791, 9.999254 
4.249491e+2, 1.2502563e+2, -1778716.0, -1691969.3, 59405.387, -0.044237416, -0.00020152883, -1661788.3, 52961.457, 0.000015823704, 9.999342, 10.000468 
4.249585e+2, 1.3502511e+2, -1668822.8, -1649896.3, -58869.29, 0.23735109, -0.048062913, -1599734.5, 17020.355, 0.0000041887733, 9.999671, 9.999936 
4.249627e+2, 1.4502577e+2, -1553174.4, -1576668.3, -4018.5957, -0.0972494, 0.040070813, -1552506.0, -33757.64, 0.00000021832761, 9.999942, 9.999629 
4.2497143e+2, 1.5502512e+2, -1438949.5, -1472299.5, -12731.923, -0.03438534, 0.012204756, -1434644.6, -13889.932, 0.0, 10.000061, 9.999615 
4.2498046e+2, 1.6502449e+2, -1356805.0, -1433388.4, 9056.862, 0.040061228, 0.010312874, -1355748.5, -32987.23, 0.0, 10.000173, 9.999155 
4.2498913e+2, 1.7502388e+2, -1241108.3, -1326434.8, 13471.355, 0.049233016, 0.0319182, -1239032.0, -14264.0205, 0.0, 10.000293, 9.999159 
4.249971e+2, 1.8502302e+2, -1150104.0, -1254616.5, -13176.713, 0.023601316, 0.040613793, -1148468.3, -21691.232, 0.0, 10.000344, 9.998954 
4.250046e+2, 1.950219e+2, -1054406.9, -1158222.9, -19678.148, -0.010163327, 0.029967928, -1050802.1, -22013.258, 0.0, 10.000331, 9.998949 
4.2501232e+2, 2.0502077e+2, -948896.9, -1071624.3, -22086.38, -0.019326912, 0.02946671, -945043.2, -14243.443, 0.0, 10.000447, 9.998816 
4.2502013e+2, 2.1501963e+2, -815112.1, -956262.3, -17589.26, -0.013994565, 0.032284096, -812953.3, 19856.406, 0.0, 10.000691, 9.9988165 
4.2502815e+2, 2.2501828e+2, -719942.44, -884980.0, -1253.9297, -0.018887114, 0.027583715, -719932.94, 14889.403, 0.0, 10.000781, 9.99859 
4.250363e+2, 2.3501672e+2, -630965.25, -791338.6, -13044.696, -0.029705135, 0.011315924, -629911.1, 6926.222, 0.0, 10.000719, 9.9985895 
4.2504448e+2, 2.4501503e+2, -555044.56, -769742.25, -27561.504, -0.026105976, 0.012446492, -551562.9, -12708.343, 0.0, 10.00085, 9.998002 
4.2505258e+2, 2.5501317e+2, -409556.8, -649029.2, -18093.545, -0.009548176, 0.02363165, -408197.44, 32676.31, 0.0, 10.001176, 9.998001 
4.2506057e+2, 2.6501134e+2, -300745.72, -560962.8, -13541.139, -0.0049080523, 0.0488691, -300042.97, 42849.684, 0.0, 10.001316, 9.997866 
4.2506844e+2, 2.7500957e+2, -210625.7, -466883.75, -13658.241, -0.011333017, 0.08266321, -209899.78, 35011.305, 0.0, 10.001263, 9.997865 
4.2507643e+2, 2.8500736e+2, -99907.95, -363053.4, -14838.373, -0.016525334, 0.07549751, -99073.88, 47860.176, 0.0, 10.00135, 9.997863 
4.250844e+2, 2.9500467e+2, 29305.617, -253855.92, -18725.98, -0.02197782, 0.017866455, 30538.63, 79500.445, 0.0, 10.001581, 9.9978285 
4.2509344e+2, 3.050034e+2, 52839.44, -241202.17, 38530.08, -0.014377548, 0.12449741, 57804.44, 57804.44, 0.0, 10.001512, 9.997614 
4.251027e+2, 3.1500074e+2, 126032.75, -3891.639, -10691.055, -0.050131924, 0.08878783, 126906.61, 126906.61, 0.00000007454206, 10.001143, 9.999422 
4.349491e+2, 1.250175e+2, -1784974.8, -1704181.8, 69227.37, 0.022906724, -0.0069271545, -1664426.5, 50403.004, 0.0000113764345, 9.999339, 10.000386 
4.3495762e+2, 1.3501702e+2, -1682728.0, -1679803.3, -44668.414, 0.1821603, -0.027936151, -1636573.3, -19738.887, 0.0000025044064, 9.999674, 9.99973 
4.3496174e+2, 1.4501761e+2, -1553649.1, -1577477.9, 1386.5435, -0.18928988, 0.061879735, -1553568.8, -34739.777, 0.000000047491298, 9.999941, 9.999624 
4.3497193e+2, 1.5501675e+2, -1439352.6, -1473149.3, -7739.069, 0.00829702, 0.0142399715, -1437664.8, -16827.393, 0.0, 10.000061, 9.999609 
4.349812e+2, 1.6501594e+2, -1348527.3, -1415364.3, 13492.036, 0.09422706, -0.011557148, -1345906.5, -23061.25, 0.0, 10.00017, 9.99928 
4.3498886e+2, 1.7501518e+2, -1232457.0, -1307901.1, 18465.033, -0.0077408017, -0.018338757, -1228180.1, -3328.0706, 0.0, 10.000291, 9.999287 
4.3499678e+2, 1.8501452e+2, -1161408.8, -1277422.1, -13885.797, -0.038624726, 0.011891844, -1159769.9, -32910.45, 0.0, 10.000341, 9.998798 
4.350053e+2, 1.9501393e+2, -1065374.8, -1180474.5, -19825.041, 0.027368167, 0.07163754, -1062055.8, -33188.33, 0.0, 10.000328, 9.998797 
4.3501326e+2, 2.0501274e+2, -940394.56, -1053377.0, -12854.087, 0.0315123, 0.06658711, -938950.6, -8071.822, 0.0, 10.000444, 9.998941 
4.3502063e+2, 2.1501096e+2, -806623.9, -938070.94, -8010.035, -0.034842003, -0.009245931, -806137.56, 26755.719, 0.0, 10.0006895, 9.998942 
4.3502858e+2, 2.2500941e+2, -741392.8, -929178.4, -3912.495, -0.05066718, -0.023536857, -741311.3, -6403.589, 0.0, 10.000779, 9.998287 
4.3503723e+2, 2.3500817e+2, -652151.8, -835470.2, -15247.02, -0.012253552, 0.020016462, -650892.4, -13970.453, 0.0, 10.000719, 9.998287 
4.350456e+2, 2.4500667e+2, -537708.4, -733282.56, -15421.909, 0.000019692017, 0.044408813, -536499.75, 2437.7058, 0.0, 10.000848, 9.998254 
4.3505368e+2, 2.550049e+2, -392368.22, -612487.8, -5460.379, -0.015960481, 0.040309217, -392232.84, 48721.7, 0.0, 10.001172, 9.998254 
4.3506166e+2, 2.650029e+2, -303234.8, -565294.6, -15937.941, -0.024978887, 0.036256626, -302269.06, 40705.6, 0.0, 10.001312, 9.997838 
4.350696e+2, 2.750007e+2, -211969.34, -469967.06, -16036.233, -0.025854912, 0.029158449, -210976.4, 34020.96, 0.0, 10.001264, 9.997843 
4.350777e+2, 2.849987e+2, -114210.32, -391470.84, -6406.4604, -0.022689275, 0.052112173, -114062.37, 32956.77, 0.0, 10.001346, 9.99767 
4.3508607e+2, 2.949968e+2, 14474.094, -282972.97, -9503.641, -0.016087947, 0.09319407, 14777.432, 63818.082, 0.0, 10.0015745, 9.997631 
4.3509516e+2, 3.0499518e+2, 60369.938, -224376.72, 24087.271, 0.0041845157, 0.16838515, 62393.152, 62393.152, 0.0, 10.001507, 9.997732 
4.351039e+2, 3.149919e+2, 154791.75, 54750.83, -21592.06, -0.05096886, 0.058205493, 159253.06, 159253.06, 0.0000001100893, 10.001148, 9.999823 
4.4494858e+2, 1.2500952e+2, -1741379.0, -1678606.5, 54936.055, 0.021553038, 0.025208946, -1646723.0, 68185.414, 0.000008277144, 9.99962, 10.000425 
4.4495735e+2, 1.3500875e+2, -1702682.8, -1697905.9, -43612.523, 0.19063509, -0.019131193, -1656616.4, -39700.79, 0.0000015575915, 9.999571, 9.999657 
4.449614e+2, 1.4500916e+2, -1589981.1, -1605909.9, 6719.9644, -0.2056734, 0.06038442, -1587524.9, -68612.83, 0.000000013935479, 9.999739, 9.999527 
4.4497204e+2, 1.5500832e+2, -1452805.3, -1490365.4, -12155.517, 0.017166335, 0.022831358, -1449214.6, -28293.705, 0.0, 10.000016, 9.999512 
4.4498146e+2, 1.6500746e+2, -1354372.9, -1414869.0, -3832.7524, 0.105767936, -0.0021529165, -1354131.1, -31202.045, 0.0, 10.000116, 9.999309 
4.4498894e+2, 1.7500666e+2, -1263844.1, -1319678.9, -5949.84, -0.018114522, -0.017483866, -1263217.1, -38281.39, 0.0, 10.000062, 9.999316 
4.4499695e+2, 1.8500593e+2, -1181754.0, -1290083.0, -31396.143, -0.052950818, 0.0074787387, -1173312.5, -46369.23, 0.0, 10.000215, 9.998772 
4.4500574e+2, 1.9500531e+2, -1032217.3, -1167359.1, -28368.242, 0.02703426, 0.06512803, -1026503.94, 2447.7888, 0.0, 10.000568, 9.998772 
4.4501385e+2, 2.0500407e+2, -907547.0, -1047179.3, -27366.93, 0.033918995, 0.060498882, -902374.8, 28588.78, 0.0, 10.000711, 9.998856 
4.4502124e+2, 2.1500222e+2, -819418.56, -953797.2, -38804.99, -0.040951956, -0.011768876, -809017.75, 23961.115, 0.0, 10.000643, 9.998857 
4.4502926e+2, 2.2500066e+2, -755673.5, -935924.7, -32688.07, -0.055932842, -0.02332989, -749928.7, -14935.057, 0.0, 10.000682, 9.998288 
4.4503802e+2, 2.3499942e+2, -636482.56, -827992.1, -21719.035, -0.008040332, 0.020436378, -634050.3, 2957.5288, 0.0, 10.000827, 9.998286 
4.450465e+2, 2.4499793e+2, -521572.38, -716675.2, -11362.826, 0.004252803, 0.04306439, -520912.8, 18110.22, 0.0, 10.00092, 9.998333 
4.4505468e+2, 2.5499624e+2, -417692.28, -615182.25, -14633.383, -0.020710124, 0.036723178, -416613.88, 24425.389, 0.0, 10.000958, 9.998338 
4.4506282e+2, 2.6499426e+2, -340772.94, -582001.7, -34256.527, -0.029821293, 0.030210635, -336002.56, 7056.5454, 0.0, 10.001049, 9.99785 
4.4507083e+2, 2.7499208e+2, -221510.86, -473673.88, -32222.879, -0.021787804, 0.021305352, -217458.36, 27623.846, 0.0, 10.001194, 9.997851 
4.4507906e+2, 2.849901e+2, -119077.91, -393730.72, -10088.453, -0.019573774, 0.052091334, -118707.836, 28395.422, 0.0, 10.001311, 9.997671 
4.4508746e+2, 2.9498836e+2, -13037.422, -295153.06, 466.8652, -0.022395806, 0.1087915, -13036.649, 36086.453, 0.0, 10.001381, 9.997642 
4.4509667e+2, 3.049864e+2, 44442.465, -239538.69, 25092.264, 0.011468075, 0.14689852, 46642.547, 46642.547, 0.00000000000009396187, 10.001429, 9.997667 
4.4510528e+2, 3.1498334e+2, 206397.08, 90599.0, -33693.26, -0.038483787, 0.069573835, 215487.1, 215487.1, 0.00000013361628, 10.001455, 9.999921 
4.549474e+2, 1.2500171e+2, -1728478.8, -1652184.1, 47534.082, -0.055879418, 0.09430272, -1629383.1, 85603.61, 0.0000061456926, 9.999622, 10.000606 
4.549576e+2, 1.3500029e+2, -1697290.6, -1686951.0, -43224.266, 0.2627035, -0.024360646, -1648588.5, -31589.547, 0.0000010596042, 9.999571, 9.999733 
4.5496172e+2, 1.450004e+2, -1604986.0, -1636020.9, 18891.854, -0.1473695, 0.03341717, -1596055.6, -77057.79, 0.000000007555667, 9.999734, 9.999322 
4.5497176e+2, 1.549998e+2, -1466909.6, -1519581.0, -1218.8704, -0.010541156, 0.03970825, -1466881.4, -45875.934, 0.0, 10.000015, 9.999311 
4.5498124e+2, 1.6499907e+2, -1358385.0, -1423405.5, -6269.207, 0.07192417, 0.04096683, -1357786.1, -34773.375, 0.0, 10.000117, 9.99925 
4.5498934e+2, 1.749983e+2, -1268223.6, -1328468.3, -7317.407, 0.017753834, 0.034543663, -1267347.6, -42328.43, 0.0, 10.000061, 9.999256 
4.5499748e+2, 1.8499728e+2, -1175714.0, -1276280.8, -17751.643, -0.020369092, 0.026498865, -1172672.6, -45643.758, 0.0, 10.00021, 9.998869 
4.550059e+2, 1.9499598e+2, -1025748.56, -1153283.3, -14681.993, -0.012802528, 0.009916113, -1024080.2, 4961.595, 0.0, 10.0005665, 9.998869 
4.550141e+2, 2.0499471e+2, -928803.5, -1090529.4, -30226.563, -0.014001879, 0.011068761, -923338.8, 7715.5635, 0.0, 10.000708, 9.998559 
4.5502195e+2, 2.1499342e+2, -840143.6, -996641.3, -41042.117, -0.033589642, 0.024618803, -830033.3, 3033.1335, 0.0, 10.000643, 9.998563 
4.5503014e+2, 2.2499202e+2, -735185.1, -893123.44, -27331.635, -0.035608713, 0.027522845, -730589.06, 4491.057, 0.0, 10.00068, 9.998583 
4.5503876e+2, 2.3499048e+2, -615735.56, -784762.56, -16083.988, -0.017281232, 0.0128881605, -614218.7, 22876.598, 0.0, 10.000826, 9.998584 
4.5504725e+2, 2.4498886e+2, -528322.4, -730143.3, -10336.797, -0.013991649, 0.009767324, -527794.3, 11316.983, 0.0, 10.000917, 9.998241 
4.550556e+2, 2.5498718e+2, -424099.8, -627638.8, -13345.851, -0.025714913, 0.0128881, -423228.47, 17899.54, 0.0, 10.000955, 9.998255 
4.5506394e+2, 2.649854e+2, -337720.3, -574895.2, -28946.016, -0.02091333, 0.02991354, -334238.72, 8907.474, 0.0, 10.001045, 9.997901 
4.5507222e+2, 2.7498358e+2, -218151.39, -467219.25, -26133.713, -0.0011924156, 0.056216024, -215438.83, 29727.053, 0.0, 10.001196, 9.997895 
4.5508048e+2, 2.8498164e+2, -106641.73, -367085.8, -7900.806, -0.009477036, 0.07380033, -106402.266, 40784.363, 0.0, 10.001308, 9.997855 
4.5508865e+2, 2.9497945e+2, 1217.908, -264649.56, 2355.1272, -0.042729452, 0.0676111, 1238.7687, 50447.832, 0.0, 10.001377, 9.997852 
4.5509806e+2, 3.0497703e+2, 25674.354, -276187.34, 25790.756, 0.0060005025, 0.062848754, 27862.033, 27862.033, 0.00000000000087855477, 10.001419, 9.997419 
4.5510697e+2, 3.1497493e+2, 192533.6, 62519.266, -28735.908, -0.017129589, 0.10937241, 198601.63, 198601.63, 0.00000014519496, 10.001453, 9.999728 
4.6494663e+2, 1.2499276e+2, -1789086.6, -1676332.6, 18133.05, -0.07344937, 0.09014508, -1673488.3, 41586.9, 0.000004581255, 9.999187, 10.000648 
4.6495768e+2, 1.3499145e+2, -1673301.0, -1682183.0, -75686.96, 0.30253357, -0.009860501, -1601924.9, 15161.549, 0.0000007444035, 9.9997635, 9.999674 
4.6496177e+2, 1.4499152e+2, -1558534.3, -1615654.4, -16875.277, -0.13289645, 0.04628198, -1553921.3, -34835.33, 0.0000000034677494, 10.000062, 9.999304 
4.649717e+2, 1.5499085e+2, -1469800.6, -1522722.3, -24112.707, -0.02228666, 0.048787963, -1460462.1, -39368.21, 0.0, 10.000004, 9.999296 
4.649812e+2, 1.6499011e+2, -1365359.6, -1432924.9, -22047.531, 0.060108922, 0.05186047, -1358801.8, -35700.42, 0.0, 10.000096, 9.999195 
4.6498966e+2, 1.7498934e+2, -1231786.3, -1317050.0, -23442.123, 0.030410131, 0.05278288, -1225766.3, -658.38995, 0.0, 10.000338, 9.999201 
4.649979e+2, 1.8498825e+2, -1144475.9, -1258878.0, -34384.848, -0.009185276, 0.0386864, -1134936.6, -7818.5674, 0.0, 10.000413, 9.998891 
4.650062e+2, 1.949868e+2, -1057941.1, -1166300.0, -36492.98, -0.028975476, 0.0034406756, -1046797.1, -17665.184, 0.0, 10.000335, 9.998892 
4.6501443e+2, 2.0498554e+2, -976508.25, -1108446.4, -45864.332, -0.031986047, 0.0030790328, -962131.5, -30987.283, 0.0, 10.000359, 9.998605 
4.6502253e+2, 2.1498446e+2, -861075.7, -1001876.44, -31981.03, -0.029830545, 0.031826243, -854152.1, -20997.387, 0.0, 10.000477, 9.998607 
4.6503085e+2, 2.2498311e+2, -748441.0, -897144.44, -12063.928, -0.02770243, 0.037368126, -747468.6, -12300.833, 0.0, 10.000578, 9.998604 
4.6503946e+2, 2.349815e+2, -638130.44, -792647.94, -21552.355, -0.022084234, 0.013723712, -635180.56, 2002.7217, 0.0, 10.000661, 9.998609 
4.65048e+2, 2.4497987e+2, -553650.44, -738530.5, -23600.87, -0.021905467, 0.006991401, -550685.25, -11485.887, 0.0, 10.000729, 9.998275 
4.6505645e+2, 2.549782e+2, -447224.1, -635794.56, -18263.45, -0.027369736, 0.010887387, -445471.53, -4255.6694, 0.0, 10.000782, 9.9982815 
4.6506494e+2, 2.649765e+2, -352971.5, -579033.7, -24727.275, -0.017791698, 0.030728832, -350298.38, -7064.6875, 0.0, 10.000926, 9.997931 
4.650735e+2, 2.749748e+2, -221365.61, -465226.56, -24157.094, 0.0051819743, 0.06318528, -218995.63, 26257.07, 0.0, 10.001159, 9.997927 
4.650818e+2, 2.8497288e+2, -108154.8, -365855.4, -17476.828, -0.003145714, 0.0840703, -106974.95, 40297.727, 0.0, 10.001289, 9.997873 
4.6509004e+2, 2.9497072e+2, -9183.603, -266524.66, -21059.018, -0.038654387, 0.07719866, -7471.6665, 41822.754, 0.0, 10.001292, 9.997881 
4.650995e+2, 3.0496782e+2, 14351.492, -276791.88, 7983.797, 0.016414814, 0.024108775, 14570.262, 14570.262, 0.00000000000042122027, 10.001319, 9.997464 
4.6510836e+2, 3.1496626e+2, 180183.3, 53695.094, -21906.184, -0.017939616, 0.11652928, 183869.73, 183869.73, 0.00000014428599, 10.001379, 9.999704 
4.749462e+2, 1.249826e+2, -1798480.6, -1694059.9, 29848.502, -0.0375364, 0.010121033, -1686130.0, 29044.016, 0.0000033199578, 9.999179, 10.00053 
4.749575e+2, 1.3498229e+2, -1687711.6, -1713186.8, -52145.586, 0.30640253, 0.028103307, -1646770.5, -29592.334, 0.00000048107097, 9.999766, 9.999461 
4.749615e+2, 1.4498252e+2, -1544868.9, -1588425.3, -18520.066, -0.1670999, 0.10377365, -1538058.9, -18882.6, 0.000000000765976, 10.000067, 9.999489 
4.749717e+2, 1.5498146e+2, -1457288.5, -1495917.3, -25684.344, -0.018181948, 0.04869745, -1444466.8, -23280.34, 0.0, 10.000001, 9.999481 
4.749814e+2, 1.6498056e+2, -1369946.5, -1441774.0, -12659.936, 0.06973312, 0.028735671, -1367780.5, -44585.508, 0.0, 10.000093, 9.999135 
4.7498986e+2, 1.749798e+2, -1235745.0, -1325448.0, -13898.638, 0.016263932, 0.037101194, -1233641.0, -8439.098, 0.0, 10.000338, 9.999143 
4.7499818e+2, 1.8497889e+2, -1147391.5, -1264957.9, -37617.797, -0.02353463, 0.045179438, -1136385.3, -9174.367, 0.0, 10.000413, 9.998849 
4.7500658e+2, 1.9497775e+2, -1060813.0, -1172481.1, -38957.766, -0.021479353, 0.046068992, -1048565.1, -19342.938, 0.0, 10.000335, 9.998849 
4.7501493e+2, 2.0497656e+2, -950948.0, -1054216.6, -41404.02, -0.020620147, 0.036247887, -936397.75, -5164.556, 0.0, 10.000354, 9.99898 
4.75023e+2, 2.1497531e+2, -834715.3, -947091.25, -27359.451, -0.030914957, 0.009764933, -828408.3, 4835.4507, 0.0, 10.000477, 9.998982 
4.7503138e+2, 2.2497393e+2, -766053.3, -933345.7, -9416.4, -0.033797454, 0.006508994, -765524.94, -30268.19, 0.0, 10.000576, 9.998357 
4.750401e+2, 2.3497248e+2, -655236.2, -827866.6, -18208.932, -0.024056278, 0.021927036, -653336.44, -16064.438, 0.0, 10.000659, 9.998367 
4.7504872e+2, 2.4497098e+2, -543649.9, -717654.0, -21853.508, -0.021121332, 0.033030253, -540947.2, -1659.9219, 0.0, 10.000728, 9.998419 
4.7505724e+2, 2.549694e+2, -436992.03, -615304.44, -16200.941, -0.026672788, 0.030437494, -435532.03, 5770.887, 0.0, 10.000785, 9.998422 
4.7506586e+2, 2.649676e+2, -353111.72, -579096.25, -16421.307, -0.021159656, 0.033861194, -351924.7, -8603.114, 0.0, 10.000925, 9.997931 
4.7507456e+2, 2.7496564e+2, -221433.69, -463888.6, -15428.695, -0.004006278, 0.04360251, -220455.83, 24886.82, 0.0, 10.001153, 9.997938 
4.7508314e+2, 2.8496388e+2, -118737.125, -386674.6, -17431.916, -0.0017384219, 0.08309942, -117607.77, 29753.734, 0.0, 10.001284, 9.997733 
4.7509155e+2, 2.9496214e+2, -17952.14, -285982.28, -20566.746, -0.013843722, 0.13314857, -16383.178, 32996.336, 0.0, 10.001297, 9.9977455 
4.7510108e+2, 3.049588e+2, 36135.99, -230569.2, 9512.4, 0.039345793, 0.026648771, 36474.83, 36474.83, 0.0, 10.001316, 9.997783 
4.751095e+2, 3.1495717e+2, 189715.75, 75783.82, -13360.159, -0.044582564, 0.08347589, 191261.44, 191261.44, 0.00000012581201, 10.00137, 9.999861 
4.849458e+2, 1.24972925e+2, -1787717.9, -1684125.5, 20638.182, 0.0025619366, -0.0019056492, -1680165.3, 35104.13, 0.0000022837717, 9.999236, 10.000568 
4.8495713e+2, 1.3497283e+2, -1703333.4, -1724920.4, -35650.234, 0.29808718, 0.043159973, -1676878.5, -59606.777, 0.0000002759338, 9.999676, 9.999424 
4.849611e+2, 1.44973e+2, -1549866.4, -1588288.1, -19304.371, -0.21076635, 0.112426035, -1541842.8, -22572.176, 0.000000000009128432, 10.000022, 9.999512 
4.8497185e+2, 1.5497188e+2, -1438620.3, -1484701.9, -41559.65, -0.0076371664, 0.04949763, -1414141.8, 7139.1914, 0.0, 10.000118, 9.999502 
4.8498172e+2, 1.6497098e+2, -1358915.5, -1430900.1, -25997.766, 0.090066, 0.026124975, -1350508.1, -27218.695, 0.0, 10.000144, 9.9991865 
4.8498997e+2, 1.749703e+2, -1259955.8, -1331152.4, -18937.297, 0.0018441674, 0.036794554, -1255232.0, -29936.408, 0.0, 10.000146, 9.999197 
4.849983e+2, 1.849695e+2, -1172754.0, -1264830.0, -37054.047, -0.04055341, 0.048878565, -1159694.6, -32391.293, 0.0, 10.000185, 9.9989605 
4.85007e+2, 1.9496855e+2, -1066507.4, -1162625.3, -27458.467, -0.010814537, 0.05648668, -1059216.3, -29903.674, 0.0, 10.000241, 9.998962 
4.8501542e+2, 2.0496741e+2, -945928.06, -1049834.0, -29871.633, -0.006356177, 0.044806674, -937952.56, -6629.5356, 0.0, 10.000379, 9.998999 
4.8502347e+2, 2.1496606e+2, -815421.9, -935395.44, -42483.54, -0.036709774, 0.008247567, -801901.75, 31432.771, 0.0, 10.0006, 9.999004 
4.850319e+2, 2.249647e+2, -743380.2, -912810.4, -30839.367, -0.04614228, -0.00004127569, -737941.44, -2594.0964, 0.0, 10.000691, 9.998443 
4.850407e+2, 2.3496331e+2, -650570.7, -816449.75, -15926.9375, -0.031275943, 0.014525658, -649055.3, -11693.887, 0.0, 10.000651, 9.99845 
4.8504943e+2, 2.4496189e+2, -553624.0, -734283.06, -13091.305, -0.020435244, 0.03375212, -552680.3, -13304.05, 0.0, 10.00071, 9.998314 
4.8505816e+2, 2.5496036e+2, -432547.6, -624612.1, -26497.113, -0.015318174, 0.04856952, -428959.13, 12433.047, 0.0, 10.000866, 9.998318 
4.8506686e+2, 2.6495856e+2, -343923.84, -569534.4, -32908.95, -0.012703068, 0.052004907, -339221.56, 4189.9253, 0.0, 10.000967, 9.997975 
4.8507553e+2, 2.7495646e+2, -241266.5, -468847.4, -28857.73, -0.012093851, 0.043722097, -237664.3, 7769.3486, 0.0, 10.000997, 9.99798 
4.8508424e+2, 2.8495476e+2, -133225.48, -386690.03, -20917.523, -0.011636565, 0.08530344, -131510.83, 15940.687, 0.0, 10.001154, 9.997796 
4.8509297e+2, 2.9495332e+2, 9852.295, -264358.72, -10309.35, -0.010197191, 0.15901095, 10239.344, 59705.637, 0.0, 10.001452, 9.99782 
4.851026e+2, 3.049498e+2, 62766.89, -214767.83, 7781.919, 0.052936215, 0.025809279, 62984.92, 62984.92, 0.0, 10.001486, 9.99781 
4.851108e+2, 3.1494838e+2, 148395.88, 28295.643, -32227.83, -0.044690795, 0.10433529, 156497.42, 156497.42, 0.00000009052117, 10.001205, 9.999614 
4.9494538e+2, 1.249637e+2, -1774567.5, -1655686.8, 22521.594, 0.03708526, 0.056418233, -1651563.1, 63798.195, 0.0000015131136, 9.999232, 10.000766 
4.9495658e+2, 1.3496307e+2, -1693449.0, -1703940.4, -16793.283, 0.27632114, 0.033265498, -1681101.1, -63733.566, 0.00000014199817, 9.999673, 9.99957 
4.9496058e+2, 1.449629e+2, -1560566.3, -1610177.1, -14067.245, -0.2660756, 0.07057584, -1556855.1, -37485.777, 0.0, 10.000019, 9.999363 
4.949721e+2, 1.5496211e+2, -1449009.4, -1506565.6, -37900.52, 0.00502615, 0.05355675, -1430199.4, -8821.819, 0.0, 10.000119, 9.9993515 
4.9498212e+2, 1.649614e+2, -1346306.5, -1405843.1, -26999.352, 0.11620986, 0.048328437, -1335886.4, -12501.952, 0.0, 10.000149, 9.999356 
4.9498996e+2, 1.7496082e+2, -1247802.6, -1306189.6, -18329.326, -0.012990087, 0.051829983, -1242525.5, -17136.168, 0.0, 10.000147, 9.999369 
4.9499825e+2, 1.8496008e+2, -1154860.1, -1226724.8, -34713.547, -0.060880948, 0.049484257, -1140830.9, -13435.295, 0.0, 10.00018, 9.999225 
4.9500737e+2, 1.9495918e+2, -1047737.8, -1124013.9, -25050.146, 0.00087890687, 0.033846535, -1040246.7, -10843.456, 0.0, 10.000242, 9.999227 
4.9501592e+2, 2.0495807e+2, -969189.06, -1097568.4, -22035.117, 0.0081215445, 0.0282136, -965512.25, -34098.52, 0.0, 10.000376, 9.998672 
4.9502397e+2, 2.1495675e+2, -838415.75, -982969.75, -33701.902, -0.047971692, 0.026431305, -830944.5, 2482.52, 0.0, 10.000598, 9.998679 
4.9503237e+2, 2.249554e+2, -715868.1, -854807.1, -32563.063, -0.066618696, 0.016293852, -708615.0, 26824.648, 0.0, 10.000688, 9.998842 
4.950412e+2, 2.3495403e+2, -622240.94, -758173.94, -17486.674, -0.04401829, -0.007305188, -620027.5, 17423.969, 0.0, 10.000653, 9.99885 
4.9505013e+2, 2.449526e+2, -578402.75, -785582.56, -7734.9053, -0.02026104, 0.010936506, -578114.4, -38648.24, 0.0, 10.000709, 9.997962 
4.9505922e+2, 2.5495115e+2, -457188.8, -675214.5, -20302.367, 0.0047601284, 0.06467718, -455314.4, -13830.684, 0.0, 10.000863, 9.997972 
4.95068e+2, 2.6494935e+2, -338156.47, -557031.1, -31905.932, 0.005149643, 0.08320308, -333600.28, 9903.3545, 0.0, 10.000965, 9.998062 
4.9507645e+2, 2.749472e+2, -235488.83, -456800.56, -27558.975, -0.021089772, 0.061904915, -232108.66, 13417.169, 0.0, 10.000997, 9.998062 
4.9508518e+2, 2.8494552e+2, -116736.234, -351472.9, -10218.842, -0.033617076, 0.09078192, -116292.21, 31250.488, 0.0, 10.00115, 9.99804 
4.9509424e+2, 2.949443e+2, 28020.875, -224916.89, 1311.5621, -0.027854957, 0.15734304, 28027.676, 77582.36, 0.0, 10.001445, 9.998094 
4.9510413e+2, 3.0494076e+2, 44091.24, -251642.02, -2692.6067, 0.05681031, 0.022732155, 44115.75, 44115.75, 0.0, 10.001478, 9.9975605 
4.9511218e+2, 3.1493977e+2, 105652.625, -60161.67, -35726.56, -0.02540255, 0.1684976, 113022.734, 113022.734, 0.000000050936965, 10.0012045, 9.999006 
5.0494474e+2, 1.2495431e+2, -1681447.0, -1620744.4, 17939.783, 0.018495645, 0.092551544, -1615838.9, 99615.96, 0.0000009949754, 9.999917, 10.000674 
5.049565e+2, 1.3495341e+2, -1682996.8, -1712776.5, -25754.596, 0.29735392, 0.055524718, -1668137.6, -50673.824, 0.000000065122016, 9.999803, 9.999448 
5.049606e+2, 1.44953e+2, -1576619.5, -1610865.1, -25105.795, -0.25752485, 0.07019004, -1563353.3, -43885.44, 0.0, 9.999879, 9.999426 
5.049722e+2, 1.5495236e+2, -1449359.0, -1499650.8, -35433.83, 0.006193966, 0.06232405, -1431055.3, -9581.104, 0.0, 10.000086, 9.999415 
5.0498223e+2, 1.6495177e+2, -1341795.0, -1397322.3, -27493.887, 0.11402921, 0.06311042, -1330485.1, -7005.6763, 0.0, 10.000152, 9.999414 
5.0499004e+2, 1.749513e+2, -1258798.3, -1305153.1, -28002.055, -0.013497597, 0.070371605, -1245625.9, -20142.559, 0.0, 10.000043, 9.999426 
5.049984e+2, 1.8495052e+2, -1165790.3, -1229422.1, -49420.08, -0.06252251, 0.060009405, -1138830.4, -11340.514, 0.0, 10.000093, 9.9992485 
5.0500757e+2, 1.9494945e+2, -1033743.8, -1114495.1, -58217.02, -0.0060215015, 0.025912693, -1003271.6, 26227.406, 0.0, 10.000326, 9.999252 
5.0501627e+2, 2.049484e+2, -961276.06, -1084130.1, -51975.01, 0.0039730645, 0.021662183, -942237.7, -10728.883, 0.0, 10.000388, 9.998758 
5.0502443e+2, 2.1494737e+2, -880455.9, -993433.8, -33452.883, -0.04272731, 0.040419485, -871293.5, -37774.348, 0.0, 10.000267, 9.998766 
5.05033e+2, 2.249461e+2, -761508.75, -879937.9, -27629.713, -0.057731066, 0.03429804, -755379.9, -19848.639, 0.0, 10.000386, 9.998816 
5.0504196e+2, 2.3494457e+2, -610532.06, -755702.3, -44923.645, -0.03746323, -0.001977131, -597754.8, 39790.117, 0.0, 10.000749, 9.998821 
5.0505096e+2, 2.4494313e+2, -548852.7, -764821.4, -40822.336, -0.016123772, 0.0129280295, -541394.06, -1834.2164, 0.0, 10.000884, 9.99802 
5.050601e+2, 2.5494176e+2, -464030.1, -672279.9, -23227.498, 0.0057924604, 0.07231003, -461470.84, -19894.68, 0.0, 10.00079, 9.998028 
5.050689e+2, 2.6494002e+2, -366963.06, -570329.3, -22091.58, 0.00915067, 0.09315645, -364590.94, -20995.408, 0.0, 10.000765, 9.998067 
5.050775e+2, 2.7493787e+2, -261433.05, -469216.78, -25296.164, -0.008418204, 0.06902409, -258397.77, -12779.673, 0.0, 10.000818, 9.998062 
5.050863e+2, 2.8493622e+2, -143594.77, -359460.28, -10696.171, -0.026565686, 0.096934326, -143066.06, 4568.878, 0.0, 10.000945, 9.998084 
5.050954e+2, 2.9493502e+2, -16275.621, -240135.8, -14449.729, -0.039529487, 0.16879845, -15346.773, 34299.23, 0.0, 10.001115, 9.998148 
5.0510544e+2, 3.0493164e+2, 35501.46, -233988.89, -18814.96, 0.050563436, 0.031129485, 36808.723, 36808.723, 0.0, 10.001326, 9.997754 
5.0511366e+2, 3.149309e+2, 148994.42, -60406.3, -14744.375, -0.013192372, 0.18444005, 150027.52, 150027.52, 0.000000020855737, 10.001594, 9.998817 
5.1494384e+2, 1.2494471e+2, -1709142.6, -1677929.5, -5157.1025, -0.06288454, 0.103231356, -1677099.5, 38451.11, 0.00000067894854, 9.999915, 10.000282 
5.149569e+2, 1.349439e+2, -1709938.4, -1769545.5, -29080.537, 0.35763344, 0.1140154, -1698101.4, -80541.37, 0.000000029496794, 9.999805, 9.999058 
5.149611e+2, 1.4494331e+2, -1557105.4, -1571439.4, -17513.115, -0.19045044, 0.116961606, -1545349.5, -25783.6, 0.0, 9.999883, 9.999696 
5.1497215e+2, 1.5494262e+2, -1429767.9, -1459138.4, -27302.523, -0.0060251453, 0.0755146, -1413451.8, 8119.187, 0.0, 10.000087, 9.999693 
5.1498204e+2, 1.6494207e+2, -1345448.6, -1404643.3, -31866.324, 0.082005985, 0.07014804, -1331555.0, -7980.038, 0.0, 10.00015, 9.999365 
5.1499015e+2, 1.7494169e+2, -1262129.5, -1312586.4, -31979.137, -0.0023837592, 0.09203071, -1246625.4, -21047.432, 0.0, 10.000045, 9.999374 
5.149986e+2, 1.8494079e+2, -1180580.9, -1260562.5, -41273.27, -0.049452517, 0.08135206, -1163102.3, -35515.81, 0.0, 10.000095, 9.999034 
5.150076e+2, 1.9493935e+2, -1048667.8, -1145751.4, -49105.95, -0.032147683, 0.032519124, -1028161.0, 1438.949, 0.0, 10.000326, 9.999038 
5.1501644e+2, 2.049384e+2, -927548.8, -1012772.75, -56694.234, -0.020183902, 0.024350682, -899238.2, 32370.02, 0.0, 10.000382, 9.999251 
5.150249e+2, 2.1493794e+2, -845416.8, -921213.3, -37930.08, -0.022310639, 0.05029114, -829696.3, 3914.6646, 0.0, 10.000268, 9.999262 
5.150338e+2, 2.2493678e+2, -793023.06, -945033.7, -14468.388, -0.021317441, 0.053732023, -791658.2, -56036.035, 0.0, 10.000385, 9.998369 
5.1504296e+2, 2.3493493e+2, -642146.75, -821253.2, -30795.979, -0.013122824, 0.028787382, -636999.56, 642.3423, 0.0, 10.000747, 9.998372 
5.1505196e+2, 2.4493341e+2, -517812.66, -699472.75, -44672.047, -0.010391043, 0.03685175, -507421.7, 32235.99, 0.0, 10.00088, 9.99847 
5.1506066e+2, 2.5493225e+2, -432302.78, -606096.94, -26880.133, -0.012830926, 0.07202307, -428240.28, 13429.208, 0.0, 10.000789, 9.998483 
5.150696e+2, 2.649306e+2, -373002.28, -582887.1, -20357.504, -0.00065553875, 0.08365877, -371045.97, -27358.947, 0.0, 10.000765, 9.997982 
5.150786e+2, 2.7492845e+2, -267087.3, -481378.1, -22770.477, 0.024380915, 0.06627637, -264694.47, -18984.002, 0.0, 10.000819, 9.997979 
5.1508754e+2, 2.8492677e+2, -154750.19, -381709.56, -4403.2036, 0.006761849, 0.103537366, -154664.8, -6936.4395, 0.0, 10.000941, 9.997932 
5.150964e+2, 2.949256e+2, -27913.107, -262172.94, -7648.2983, -0.049460433, 0.19087781, -27663.666, 22076.777, 0.0, 10.001107, 9.998 
5.1510656e+2, 3.0492237e+2, 77411.41, -145626.88, -9370.156, 0.03183349, 0.048957057, 77804.37, 77804.37, 0.0, 10.001319, 9.998365 
5.151154e+2, 3.1492177e+2, 164547.38, -27315.008, 2318.1265, -0.0093216775, 0.1548272, 164575.39, 164575.39, 0.0000000053166334, 10.00159, 9.999046 
5.249435e+2, 1.2493485e+2, -1759734.1, -1705490.0, -33339.094, -0.073607, 0.116626695, -1689634.1, 26014.715, 0.0000005002885, 9.999586, 10.00025 
5.2495706e+2, 1.349342e+2, -1647957.6, -1741131.6, -11001.126, 0.3703381, 0.14313252, -1646676.4, -29019.334, 0.000000016983103, 10.000236, 9.999046 
5.2496135e+2, 1.449335e+2, -1474507.0, -1527226.8, -6569.987, -0.1835119, 0.1346126, -1473700.6, 45963.047, 0.0, 10.000431, 9.999734 
5.249723e+2, 1.5493289e+2, -1436579.3, -1457967.3, -36032.22, 0.0018439591, 0.0980312, -1409687.6, 11979.694, 0.0, 10.000021, 9.999733 
5.2498215e+2, 1.6493228e+2, -1373849.8, -1421240.1, -40034.676, 0.087511756, 0.084512405, -1351023.6, -27351.93, 0.0, 9.999968, 9.999338 
5.249904e+2, 1.7493166e+2, -1224806.1, -1297867.5, -39555.277, -0.00009848292, 0.0857881, -1207493.4, 18183.479, 0.0, 10.000315, 9.999346 
5.2499884e+2, 1.8493073e+2, -1139679.6, -1243588.5, -44824.8, -0.049552932, 0.07589307, -1123015.4, 4670.1763, 0.0, 10.000387, 9.99901 
5.250078e+2, 1.9492951e+2, -1074373.6, -1160552.0, -38987.03, -0.036320683, 0.050250772, -1059353.8, -29656.287, 0.0, 10.000161, 9.999016 
5.2501667e+2, 2.0492858e+2, -949569.0, -1013761.44, -50463.84, -0.021561902, 0.04123546, -921859.2, 9846.237, 0.0, 10.00019, 9.999338 
5.2502537e+2, 2.1492796e+2, -808845.5, -893736.5, -62906.145, -0.013638639, 0.043509148, -775404.25, 58304.9, 0.0, 10.000478, 9.99935 
5.250343e+2, 2.2492687e+2, -764714.9, -928244.44, -35529.383, -0.008993917, 0.048750054, -757329.1, -21609.486, 0.0, 10.000566, 9.998398 
5.2504367e+2, 2.3492531e+2, -683119.0, -837602.25, -16680.13, -0.004569991, 0.049524043, -681338.5, -43601.32, 0.0, 10.000451, 9.998402 
5.250526e+2, 2.4492386e+2, -571051.94, -717555.6, -29035.014, -0.006286567, 0.058918145, -565507.44, -25754.922, 0.0, 10.000483, 9.998538 
5.250614e+2, 2.5492257e+2, -447035.25, -605704.2, -40991.305, -0.014386399, 0.07123522, -437071.1, 4694.338, 0.0, 10.000655, 9.998549 
5.250703e+2, 2.6492092e+2, -360896.2, -569987.5, -41054.13, -0.002753865, 0.079428986, -353124.28, -9341.892, 0.0, 10.000818, 9.998044 
5.2507955e+2, 2.7491894e+2, -242096.81, -461857.13, -32226.525, 0.027080767, 0.07636558, -237468.45, 8335.159, 0.0, 10.00096, 9.998045 
5.2508855e+2, 2.849173e+2, -139192.53, -372621.66, -2030.6653, 0.010677952, 0.11126134, -139174.86, 8646.462, 0.0, 10.001042, 9.997946 
5.250975e+2, 2.9491597e+2, -33381.89, -263925.22, 5851.6245, -0.04808443, 0.18271688, -33233.46, 16601.533, 0.0, 10.001065, 9.998008 
5.251078e+2, 3.04913e+2, 77602.41, -112179.52, 3888.0762, 0.030997429, 0.053407893, 77682.02, 77682.02, 0.0, 10.001177, 9.998663 
5.2511674e+2, 3.1491247e+2, 128668.75, -47604.633, -1553.0784, -0.013444725, 0.13400322, 128682.43, 128682.43, 0.00000000056215, 10.001356, 9.999021 
5.349436e+2, 1.24924794e+2, -1737742.4, -1661138.0, -31007.656, -0.022905072, 0.13646042, -1650160.0, 65589.2, 0.00000041209, 9.999591, 10.000552 
5.3495693e+2, 1.349243e+2, -1622020.9, -1688984.4, 15002.1875, 0.33285636, 0.14236008, -1618813.5, -1058.8346, 0.000000018082496, 10.00024, 9.999403 
5.349612e+2, 1.4492355e+2, -1487885.5, -1554900.8, -21496.246, -0.23986758, 0.122693285, -1481582.9, 38178.313, 0.0, 10.00043, 9.999545 
5.349726e+2, 1.549232e+2, -1450090.3, -1485994.9, -51877.84, 0.027029667, 0.13034256, -1413146.4, 8616.759, 0.0, 10.000021, 9.999539 
5.3498256e+2, 1.6492239e+2, -1374313.8, -1423009.4, -28071.371, 0.12653033, 0.108384386, -1361502.1, -37732.625, 0.0, 9.99997, 9.999326 
5.349906e+2, 1.7492118e+2, -1225138.8, -1299185.1, -26172.922, -0.0079316385, 0.051771104, -1216821.6, 8958.484, 0.0, 10.000317, 9.999336 
5.349991e+2, 1.8492036e+2, -1128374.6, -1219667.1, -53500.08, -0.06453458, 0.043366052, -1103694.3, 24093.373, 0.0, 10.000385, 9.999175 
5.3500813e+2, 1.9491988e+2, -1062598.6, -1136491.6, -47526.34, -0.020311657, 0.07791728, -1039347.1, -9555.442, 0.0, 10.000162, 9.999181 
5.350171e+2, 2.0491894e+2, -971856.0, -1059409.1, -40004.754, -0.0021713693, 0.071954295, -956330.2, -24529.816, 0.0, 10.000187, 9.999025 
5.3502584e+2, 2.1491745e+2, -831323.6, -940073.06, -51692.324, -0.017561484, 0.01934279, -810673.6, 23139.977, 0.0, 10.000476, 9.999033 
5.350348e+2, 2.2491638e+2, -730707.7, -856855.2, -40078.176, -0.022153934, 0.017567532, -719051.56, 16772.236, 0.0, 10.000563, 9.998889 
5.35044e+2, 2.3491572e+2, -647871.44, -764980.56, -20874.047, -0.012633014, 0.06052168, -644262.0, -6431.0264, 0.0, 10.000453, 9.998899 
5.350531e+2, 2.4491447e+2, -592373.9, -761964.6, -22632.518, -0.005179081, 0.07946759, -589405.44, -49561.11, 0.0, 10.000483, 9.998234 
5.350622e+2, 2.549126e+2, -468817.22, -651657.4, -33957.543, -0.00037645613, 0.069784015, -462714.25, -20850.256, 0.0, 10.000658, 9.998234 
5.350712e+2, 2.6491094e+2, -347057.7, -540666.8, -35906.184, 0.0011887467, 0.07888403, -340613.16, 3268.5718, 0.0, 10.000816, 9.998246 
5.350802e+2, 2.7490944e+2, -228172.44, -431421.63, -26913.156, -0.0017398037, 0.098194994, -224669.13, 21228.617, 0.0, 10.000955, 9.998257 
5.350894e+2, 2.8490782e+2, -127761.39, -348044.38, -1383.6067, -0.015777167, 0.1199254, -127752.695, 20161.297, 0.0, 10.001038, 9.998117 
5.350987e+2, 2.9490626e+2, -21621.879, -239347.56, 7479.9063, -0.036384158, 0.14744669, -21365.21, 28564.31, 0.0, 10.001063, 9.9981785 
5.351091e+2, 3.0490366e+2, 75905.42, -114054.4, 9818.949, 0.046086382, 0.046462663, 76411.62, 76411.62, 0.0, 10.001171, 9.998652 
5.351179e+2, 3.1490302e+2, 107940.766, -86667.984, 12227.349, -0.03204169, 0.12254627, 108706.0, 108706.0, 0.0000000000003731001, 10.001341, 9.998758 
5.449436e+2, 1.24914885e+2, -1647132.6, -1628638.1, -11560.001, -0.019167248, 0.13013689, -1623081.9, 92764.25, 0.00000036785775, 10.000261, 10.000452 
5.44957e+2, 1.3491434e+2, -1655889.0, -1708486.0, 27547.717, 0.3287508, 0.13582388, -1644102.3, -26250.117, 0.000000024396927, 10.000022, 9.999373 
5.449614e+2, 1.4491351e+2, -1538760.3, -1574354.3, -24438.578, -0.24754232, 0.10560809, -1526325.3, -6465.4014, 0.0, 10.000061, 9.999588 
5.449728e+2, 1.5491338e+2, -1400911.5, -1457482.1, -40132.113, 0.029053353, 0.13035743, -1380098.5, 41760.96, 0.0, 10.000339, 9.999583 
5.4498273e+2, 1.6491263e+2, -1318495.6, -1403252.5, -3622.6926, 0.13009958, 0.114895605, -1318341.1, 5524.312, 0.0, 10.000385, 9.999261 
5.4499084e+2, 1.749113e+2, -1249885.6, -1318020.6, -6030.3926, -0.006378213, 0.053648535, -1249356.1, -23478.709, 0.0, 10.000178, 9.999272 
5.4499936e+2, 1.8491045e+2, -1152810.8, -1226209.9, -41646.035, -0.062060304, 0.04450322, -1134001.4, -6116.2373, 0.0, 10.0001955, 9.999222 
5.450085e+2, 1.9491008e+2, -1017502.25, -1109625.3, -45419.242, -0.016117394, 0.083236024, -998875.5, 31012.842, 0.0, 10.00045, 9.999227 
5.450175e+2, 2.0490913e+2, -932901.9, -1045002.0, -31121.256, 0.002407977, 0.07916523, -924841.56, 7055.299, 0.0, 10.000473, 9.998986 
5.450262e+2, 2.149076e+2, -865510.3, -960838.4, -22566.379, -0.013355212, 0.024953783, -860438.2, -26527.51, 0.0, 10.000259, 9.998994 
5.4503524e+2, 2.2490653e+2, -767120.06, -866972.8, -14154.601, -0.019753518, 0.022509387, -765152.3, -29231.447, 0.0, 10.00028, 9.998956 
5.450445e+2, 2.3490596e+2, -630347.44, -748912.1, -27787.387, -0.013939343, 0.06606257, -624158.1, 13769.1875, 0.0, 10.000542, 9.998967 
5.450537e+2, 2.4490476e+2, -557104.25, -744524.9, -31672.67, -0.008645302, 0.0856182, -551896.5, -11956.213, 0.0, 10.000724, 9.998237 
5.4506284e+2, 2.5490293e+2, -444244.44, -639334.9, -19620.598, -0.004659312, 0.07665526, -442290.72, -330.94516, 0.0, 10.000826, 9.998237 
5.45072e+2, 2.6490128e+2, -340879.0, -539564.44, -20263.951, -0.0016989397, 0.08893287, -338833.3, 5143.8936, 0.0, 10.000867, 9.998229 
5.4508114e+2, 2.7489975e+2, -246985.6, -442826.16, -29028.736, -0.000820244, 0.11155648, -242773.38, 3219.692, 0.0, 10.000835, 9.998236 
5.450903e+2, 2.8489804e+2, -155422.34, -357853.38, -17915.836, -0.010950045, 0.123263605, -153848.95, -5838.672, 0.0, 10.000833, 9.998148 
5.4509974e+2, 2.9489633e+2, -49358.434, -249163.4, -19729.832, -0.028404232, 0.13272493, -47428.836, 2598.481, 0.0, 10.000859, 9.998208 
5.4511017e+2, 3.048942e+2, 54093.914, -111897.56, -12357.244, 0.046036817, 0.07187267, 55008.81, 55008.81, 0.0, 10.000967, 9.998765 
5.4511905e+2, 3.148934e+2, 78067.13, -104731.27, 5091.069, -0.04460725, 0.11982798, 78208.81, 78208.81, 0.000000000015387011, 10.001149, 9.998727 
5.549434e+2, 1.2490513e+2, -1681072.1, -1699769.8, -43203.47, -0.0681566, 0.09701206, -1646217.5, 69721.805, 0.0000003291145, 10.000265, 9.999962 
5.549573e+2, 1.349044e+2, -1683259.5, -1766473.8, 19091.918, 0.35561574, 0.123429894, -1679088.4, -61139.133, 0.000000025104656, 10.000028, 9.998974 
5.549618e+2, 1.4490339e+2, -1520094.5, -1536283.3, -13981.782, -0.21047337, 0.08401268, -1512033.1, 7925.9233, 0.0, 10.000062, 9.999849 
5.549729e+2, 1.5490341e+2, -1381597.3, -1417918.0, -29281.344, 0.0062081767, 0.09843578, -1365302.0, 56654.125, 0.0, 10.0003395, 9.999854 
5.549828e+2, 1.6490297e+2, -1327137.9, -1420360.8, -11855.173, 0.09641, 0.10382213, -1325653.9, -1694.734, 0.0, 10.000382, 9.999145 
5.549911e+2, 1.74902e+2, -1258403.5, -1335501.8, -13864.774, 0.0028652763, 0.09090988, -1255986.0, -30017.475, 0.0, 10.000177, 9.999152 
5.5499977e+2, 1.8490103e+2, -1158153.1, -1237118.9, -32519.316, -0.044151183, 0.07946293, -1146485.3, -18507.209, 0.0, 10.000195, 9.999147 
5.550088e+2, 1.9490007e+2, -1022719.5, -1120251.9, -35658.832, -0.024446165, 0.06596549, -1011073.0, 18914.402, 0.0, 10.000448, 9.999154 
5.550178e+2, 2.048992e+2, -917169.44, -1011812.56, -39309.87, -0.008777742, 0.06160108, -902971.9, 29023.055, 0.0, 10.000471, 9.999216 
5.5502653e+2, 2.1489842e+2, -849294.56, -927112.5, -30477.36, -0.0030541108, 0.059854545, -838779.06, -4778.4785, 0.0, 10.000259, 9.999227 
5.5503565e+2, 2.2489737e+2, -791787.06, -917948.6, -4711.03, -0.003652109, 0.06327011, -791611.4, -55600.41, 0.0, 10.000279, 9.998607 
5.5504507e+2, 2.3489603e+2, -655467.3, -801202.94, -17749.063, -0.009139874, 0.06584177, -653336.8, -15310.444, 0.0, 10.000542, 9.998609 
5.550543e+2, 2.4489468e+2, -536031.6, -700404.4, -28087.932, -0.017266512, 0.07632443, -531364.5, 8676.0, 0.0, 10.000722, 9.99854 
5.550635e+2, 2.548934e+2, -422335.13, -593562.9, -15615.415, -0.028307237, 0.09103564, -420922.7, 21130.297, 0.0, 10.000825, 9.998551 
5.550727e+2, 2.6489183e+2, -357457.94, -573555.6, -21516.25, -0.013265451, 0.10891014, -355336.44, -11267.403, 0.0, 10.000865, 9.997996 
5.550822e+2, 2.7488995e+2, -264035.6, -478728.0, -29778.902, 0.027880576, 0.116990134, -259981.66, -13892.108, 0.0, 10.000836, 9.997989 
5.550915e+2, 2.84888e+2, -163881.64, -374860.22, -17340.125, 0.022860084, 0.12182452, -162465.97, -14355.84, 0.0, 10.000831, 9.998033 
5.5510056e+2, 2.948862e+2, -58618.453, -266435.16, -18613.191, -0.026603417, 0.13763161, -56964.516, -6836.032, 0.0, 10.000852, 9.998093 
5.55111e+2, 3.0488467e+2, 69706.68, -77597.805, -5809.2637, 0.028422477, 0.12835884, 69935.42, 69935.42, 0.0, 10.000958, 9.999005 
5.5512005e+2, 3.148837e+2, 92660.74, -73166.3, 18164.201, -0.054886587, 0.13136506, 94627.08, 94627.08, 0.0000000020600701, 10.001143, 9.998946 
5.649434e+2, 1.2489541e+2, -1718850.9, -1726353.6, -83937.19, -0.079467125, 0.09890958, -1638581.3, 77453.68, 0.00000027083397, 10.000044, 9.999885 
5.6495744e+2, 1.3489486e+2, -1640989.0, -1742375.8, 30302.879, 0.35705912, 0.1384653, -1632622.4, -14579.38, 0.000000017878008, 10.000299, 9.999008 
5.6496215e+2, 1.4489375e+2, -1479345.0, -1521574.1, 4640.5786, -0.1946071, 0.08876868, -1478841.1, 41212.8, 0.0, 10.000363, 9.999805 
5.6497324e+2, 1.548936e+2, -1405705.6, -1433893.4, -34721.188, 0.014309568, 0.0907284, -1382326.9, 39725.66, 0.0, 10.000195, 9.999813 
5.6498307e+2, 1.6489318e+2, -1347114.6, -1419362.4, -23585.756, 0.09751365, 0.09616614, -1340096.6, -16041.395, 0.0, 10.0002, 9.999238 
5.649914e+2, 1.7489244e+2, -1222686.3, -1308079.0, -11026.728, 0.001363971, 0.09670204, -1221285.3, 4776.8306, 0.0, 10.00038, 9.999244 
5.6500006e+2, 1.8489152e+2, -1138961.8, -1240691.6, -20830.338, -0.04450927, 0.09199704, -1134861.8, -6790.3057, 0.0, 10.000382, 9.999032 
5.6500924e+2, 1.9489044e+2, -1065726.8, -1153836.9, -27609.582, -0.021682905, 0.07765955, -1057790.1, -27707.285, 0.0, 10.000209, 9.999039 
5.650182e+2, 2.0488952e+2, -948357.6, -1020714.25, -40294.43, -0.0031031112, 0.07210333, -930383.25, 1707.6952, 0.0, 10.000231, 9.99927 
5.65027e+2, 2.148888e+2, -816779.6, -905056.25, -45159.473, 0.005650729, 0.06888829, -797770.75, 36324.79, 0.0, 10.000455, 9.999284 
5.650361e+2, 2.2488771e+2, -755648.75, -911517.44, -11273.225, 0.0005487342, 0.0724375, -754837.6, -18731.574, 0.0, 10.000576, 9.9985075 
5.6504554e+2, 2.3488629e+2, -654833.75, -812078.4, -5442.237, -0.017481795, 0.077775806, -654645.6, -16523.043, 0.0, 10.000595, 9.9985075 
5.650549e+2, 2.4488491e+2, -547684.06, -702428.7, -18063.574, -0.028896676, 0.08659543, -545603.44, -5466.1865, 0.0, 10.000627, 9.998571 
5.6506413e+2, 2.548836e+2, -442504.06, -599401.44, -27000.158, -0.03322466, 0.09455489, -437987.66, 4162.057, 0.0, 10.0006695, 9.998586 
5.6507355e+2, 2.6488206e+2, -375193.97, -585308.44, -36534.688, -0.016525622, 0.11246958, -369022.56, -24856.988, 0.0, 10.000757, 9.997968 
5.65083e+2, 2.748802e+2, -258007.72, -478285.56, -29518.217, 0.020302238, 0.12685812, -254120.73, -7934.925, 0.0, 10.000891, 9.997964 
5.650923e+2, 2.8487813e+2, -154313.13, -378181.63, -9497.352, 0.01843768, 0.12801094, -153910.92, -5703.441, 0.0, 10.000931, 9.99796 
5.651015e+2, 2.948762e+2, -63208.99, -278674.6, -8360.108, -0.019261299, 0.13352475, -62885.1, -12657.021, 0.0, 10.000862, 9.998004 
5.651118e+2, 3.0487508e+2, 54829.164, -76630.09, 3991.2517, 0.026476776, 0.16710615, 54950.23, 54950.23, 0.0, 10.00082, 9.999079 
5.651209e+2, 3.1487387e+2, 57663.746, -70497.62, 19411.146, -0.07362977, 0.13908792, 60539.22, 60539.22, 0.000000017271022, 10.000818, 9.999121 
5.749436e+2, 1.2488581e+2, -1695545.5, -1680866.6, -97355.555, -0.05864652, 0.13720028, -1590574.3, 125558.21, 0.00000019303324, 10.000054, 10.000193 
5.749575e+2, 1.3488576e+2, -1607923.1, -1675240.1, 40651.38, 0.33153433, 0.18245442, -1588804.4, 29328.615, 0.000000007774616, 10.000304, 9.999468 
5.7496244e+2, 1.4488459e+2, -1504579.8, -1572891.6, -1944.0149, -0.20197089, 0.121045865, -1504524.4, 15619.494, 0.0, 10.00036, 9.9994545 
5.749738e+2, 1.5488392e+2, -1430195.3, -1484989.4, -40851.203, 0.051527157, 0.1065662, -1408404.8, 13744.143, 0.0, 10.0001955, 9.999462 
5.7498366e+2, 1.6488326e+2, -1326558.8, -1376665.3, -17114.152, 0.13105193, 0.09122875, -1321271.3, 2882.4202, 0.0, 10.000199, 9.999532 
5.7499164e+2, 1.7488262e+2, -1201677.6, -1264696.9, -3968.7375, -0.011879165, 0.07093187, -1201428.6, 24729.508, 0.0, 10.00038, 9.999542 
5.750002e+2, 1.8488191e+2, -1150571.6, -1264232.1, -27577.715, -0.064924635, 0.08145126, -1144233.8, -16068.59, 0.0, 10.00038, 9.998872 
5.750095e+2, 1.9488119e+2, -1077383.6, -1177682.6, -34042.227, -0.009462743, 0.11835832, -1066920.9, -36746.227, 0.0, 10.000208, 9.998876 
5.7501864e+2, 2.0488012e+2, -956964.0, -1038172.4, -32373.137, 0.018164817, 0.11133012, -945638.25, -13453.45, 0.0, 10.000229, 9.999151 
5.750275e+2, 2.1487871e+2, -825143.44, -922035.2, -36575.254, 0.011783633, 0.05242517, -812887.2, 21308.422, 0.0, 10.000453, 9.999167 
5.7503664e+2, 2.248776e+2, -745262.75, -889978.7, -10777.423, -0.008008188, 0.050046436, -744464.5, -8258.476, 0.0, 10.000576, 9.998655 
5.750459e+2, 2.3487677e+2, -644176.8, -789951.4, -4426.6377, -0.039951976, 0.10109713, -644042.5, -5826.3965, 0.0, 10.000595, 9.99866 
5.7505536e+2, 2.4487542e+2, -564238.6, -736628.1, -16680.656, -0.044868547, 0.11557791, -562639.44, -22408.69, 0.0, 10.000626, 9.998338 
5.7506496e+2, 2.5487348e+2, -459814.56, -635220.6, -25202.133, -0.020955522, 0.08748623, -456265.38, -14015.461, 0.0, 10.000669, 9.99834 
5.750743e+2, 2.6487187e+2, -363648.53, -561077.94, -31753.996, -0.012471867, 0.100452244, -358667.0, -14400.208, 0.0, 10.000755, 9.998135 
5.7508343e+2, 2.7487043e+2, -245798.58, -452020.16, -24312.223, -0.0233462, 0.14120737, -242971.1, 3310.8606, 0.0, 10.000886, 9.998147 
5.7509285e+2, 2.8486845e+2, -157029.55, -382050.16, -12186.21, -0.024731426, 0.14133476, -156371.52, -8068.8984, 0.0, 10.000923, 9.997937 
5.7510245e+2, 2.948662e+2, -67137.72, -286518.56, -10484.999, -0.009211106, 0.12012752, -66637.74, -16311.46, 0.0, 10.000861, 9.997951 
5.7511276e+2, 3.0486533e+2, 46856.91, -92491.21, 3164.352, 0.036748383, 0.1888534, 46928.73, 46928.73, 0.00000000021282408, 10.000817, 9.998971 
5.751214e+2, 3.148639e+2, 63824.89, -54865.01, 24757.172, -0.10381665, 0.14598292, 68781.89, 68781.89, 0.0000000699572, 10.000806, 9.999234 
5.849437e+2, 1.2487639e+2, -1685891.0, -1675639.9, -82702.04, -0.055227447, 0.15966995, -1597904.8, 118321.37, 0.00000011738098, 10.000119, 10.000196 
5.849577e+2, 1.348763e+2, -1603960.8, -1657538.4, 51650.27, 0.3239332, 0.18740204, -1572565.4, 45660.85, 0.0000000014227642, 10.000266, 9.999606 
5.8496296e+2, 1.4487511e+2, -1507524.8, -1581812.8, -1410.218, -0.18993074, 0.120237455, -1507497.9, 12739.204, 0.0, 10.000372, 9.999387 
5.8497417e+2, 1.548745e+2, -1403217.1, -1479611.5, -20681.516, 0.060796898, 0.11688626, -1397977.5, 24264.41, 0.0, 10.000414, 9.999393 
5.849839e+2, 1.6487381e+2, -1309170.8, -1368530.6, 4353.6016, 0.13488673, 0.103738084, -1308853.1, 15393.863, 0.0, 10.00032, 9.99953 
5.849919e+2, 1.7487308e+2, -1243449.4, -1284870.9, -5409.0903, -0.009869283, 0.07476729, -1242754.6, -16502.605, 0.0, 10.000094, 9.99954 
5.850006e+2, 1.8487233e+2, -1181180.0, -1282470.3, -29943.346, -0.06218743, 0.08115344, -1172990.4, -44730.9, 0.0, 10.000185, 9.99884 
5.8500993e+2, 1.9487154e+2, -1022947.44, -1155016.6, -26965.938, -0.0062935315, 0.11843316, -1017653.7, 12615.447, 0.0, 10.000597, 9.998844 
5.850191e+2, 2.0487045e+2, -889417.56, -1019320.9, -22211.998, 0.017554728, 0.114980236, -885724.5, 46555.406, 0.0, 10.000752, 9.999028 
5.8502793e+2, 2.14869e+2, -806085.2, -926707.94, -27536.99, 0.0036821798, 0.06310036, -800096.1, 34195.566, 0.0, 10.000644, 9.999043 
5.850371e+2, 2.2486784e+2, -743737.25, -887667.75, -8836.396, -0.015937734, 0.06243705, -743196.75, -6894.1797, 0.0, 10.000579, 9.99867 
5.8504647e+2, 2.3486698e+2, -647700.4, -789822.8, -13127.437, -0.039992668, 0.108178794, -646498.0, -8185.197, 0.0, 10.000563, 9.998676 
5.850559e+2, 2.4486558e+2, -571073.8, -741999.44, -20047.168, -0.0458511, 0.12020808, -568754.06, -28426.453, 0.0, 10.000588, 9.998319 
5.850655e+2, 2.5486368e+2, -462528.66, -638256.5, -12290.188, -0.033126935, 0.09396273, -461673.25, -19326.393, 0.0, 10.000658, 9.998323 
5.850749e+2, 2.6486206e+2, -373897.6, -561491.9, -15136.169, -0.026105858, 0.10959535, -372684.2, -28320.889, 0.0, 10.000666, 9.998175 
5.8508414e+2, 2.748607e+2, -283492.56, -465794.13, -18175.338, -0.026394252, 0.15355347, -281698.16, -35320.69, 0.0, 10.0006075, 9.998187 
5.8509356e+2, 2.848587e+2, -196196.98, -397286.22, -9314.415, -0.029682366, 0.14518458, -195766.47, -47368.035, 0.0, 10.000639, 9.997971 
5.8510303e+2, 2.9485628e+2, -81042.766, -291050.44, -4417.327, -0.031085249, 0.10362856, -80949.89, -30526.201, 0.0, 10.000757, 9.99797 
5.851133e+2, 3.0485556e+2, 23054.355, -120080.3, 6540.872, 0.011628571, 0.19413091, 23352.635, 23352.635, 0.000000006848287, 10.000723, 9.998827 
5.851221e+2, 3.1485394e+2, 34613.547, -54024.977, 29269.248, -0.09585242, 0.14545132, 43406.3, 43406.3, 0.00000018333391, 10.000543, 9.999367 
5.949437e+2, 1.24867216e+2, -1706034.8, -1718814.5, -97499.31, -0.06991426, 0.16943918, -1614716.1, 101599.25, 0.000000058921596, 10.000124, 9.999899 
5.9495807e+2, 1.3486649e+2, -1615921.8, -1683948.3, 57609.992, 0.332023, 0.15012668, -1583033.5, 35289.176, 0.000000000010343272, 10.000272, 9.999423 
5.949636e+2, 1.4486529e+2, -1492749.9, -1551327.1, 355.13144, -0.16103719, 0.083040126, -1492747.8, 27585.797, 0.0, 10.000373, 9.999596 
5.949744e+2, 1.5486531e+2, -1388182.5, -1448862.5, -18523.328, 0.040700905, 0.12185269, -1382975.0, 39356.633, 0.0, 10.000415, 9.999604 
5.9498394e+2, 1.6486484e+2, -1330870.6, -1413071.5, -4566.2686, 0.1069188, 0.13367863, -1330617.8, -6282.9204, 0.0, 10.000318, 9.999226 
5.949921e+2, 1.7486383e+2, -1264507.4, -1329070.5, -13707.772, 0.005918804, 0.10846616, -1261717.5, -35373.89, 0.0, 10.000095, 9.999236 
5.95001e+2, 1.8486275e+2, -1174526.0, -1268526.6, -14788.794, -0.0379986, 0.09110579, -1172254.3, -43899.96, 0.0, 10.000184, 9.998937 
5.950105e+2, 1.9486158e+2, -1015911.25, -1140446.9, -11285.322, -0.013333887, 0.078050435, -1014896.9, 15469.576, 0.0, 10.000597, 9.998944 
5.9501964e+2, 2.0486054e+2, -898855.6, -1038410.4, -26431.334, -0.0062667844, 0.08269592, -894017.3, 38359.055, 0.0, 10.00075, 9.9988985 
5.950284e+2, 2.1485963e+2, -815715.75, -946147.4, -31408.047, -0.019633606, 0.10055294, -808546.7, 25837.125, 0.0, 10.000642, 9.998911 
5.950376e+2, 2.2485845e+2, -752353.6, -905199.6, -9940.999, -0.024285043, 0.1091988, -751709.8, -15314.086, 0.0, 10.000577, 9.99855 
5.9504724e+2, 2.3485692e+2, -656324.9, -807440.06, -13604.72, -0.019356655, 0.09986023, -655109.8, -16697.295, 0.0, 10.000562, 9.998556 
5.9505665e+2, 2.4485546e+2, -557354.44, -713644.2, -17538.172, -0.033763975, 0.10174362, -555410.56, -14982.859, 0.0, 10.000588, 9.998513 
5.950657e+2, 2.548541e+2, -448205.7, -608416.9, -9394.148, -0.069605626, 0.11376154, -447656.72, -5216.0654, 0.0, 10.000657, 9.998529 
5.9507525e+2, 2.648527e+2, -379972.03, -573727.0, -17339.238, -0.05728903, 0.1389889, -378432.56, -33977.273, 0.0, 10.000664, 9.998092 
5.950851e+2, 2.7485105e+2, -290370.13, -479971.5, -20039.234, 0.006719012, 0.16264144, -288275.28, -41802.71, 0.0, 10.000607, 9.99809 
5.950945e+2, 2.8484884e+2, -191370.94, -386586.66, -5257.708, -0.0010832372, 0.13925835, -191229.44, -42734.36, 0.0, 10.000635, 9.998046 
5.9510326e+2, 2.9484642e+2, -76939.87, -280843.0, -216.59785, -0.08409558, 0.08557022, -76939.63, -26419.33, 0.0, 10.000749, 9.998044 
5.951134e+2, 3.0484572e+2, 9077.777, -145731.7, -568.0118, -0.04712433, 0.18590173, 9079.861, 9079.861, 0.000000033052434, 10.00071, 9.998657 
5.9512305e+2, 3.1484395e+2, 44831.227, -30876.154, 27000.383, -0.056256905, 0.13731976, 53474.016, 53474.016, 0.00000037488923, 10.000535, 9.99953 
6.0494375e+2, 1.2485783e+2, -1722986.4, -1747014.5, -98430.11, -0.07997084, 0.14888331, -1635839.9, 80566.76, 0.000000021349177, 10.000095, 9.999719 
6.0495836e+2, 1.348572e+2, -1603451.5, -1684098.6, 81390.625, 0.3332192, 0.14589925, -1552943.3, 65470.52, 0.0, 10.000386, 9.999366 
6.049643e+2, 1.4485611e+2, -1485694.1, -1549111.5, 10779.619, -0.1315829, 0.09262374, -1483912.0, 36511.992, 0.0, 10.000427, 9.999585 
6.049747e+2, 1.5485606e+2, -1409823.3, -1459606.3, -25241.248, 0.032261875, 0.12401059, -1399264.8, 23157.85, 0.0, 10.00027, 9.9996 
6.049841e+2, 1.6485548e+2, -1338034.1, -1430424.6, -9314.535, 0.09322363, 0.13303655, -1337104.4, -12677.744, 0.0, 10.000328, 9.999101 
6.049927e+2, 1.7485437e+2, -1201910.3, -1312984.0, -5457.5723, 0.025633238, 0.109840564, -1201642.6, 24793.996, 0.0, 10.000586, 9.99911 
6.0500157e+2, 1.8485318e+2, -1116173.3, -1242258.8, -1125.5988, -0.014919923, 0.090176456, -1116163.3, 12284.765, 0.0, 10.000593, 9.9989195 
6.0501087e+2, 1.9485193e+2, -1052953.8, -1160245.1, -6910.2676, -0.0208325, 0.07017529, -1052510.5, -22050.03, 0.0, 10.000351, 9.998926 
6.0502005e+2, 2.0485085e+2, -959385.7, -1072231.4, -23199.143, -0.021791114, 0.074142046, -954802.5, -22331.764, 0.0, 10.000355, 9.998857 
6.05029e+2, 2.1484996e+2, -823237.75, -954678.56, -21859.09, -0.018934773, 0.097285904, -819697.8, 14780.6455, 0.0, 10.000611, 9.998867 
6.050383e+2, 2.2484873e+2, -742682.44, -909794.0, -462.30746, -0.018747468, 0.10844872, -742681.1, -6190.096, 0.0, 10.000684, 9.998467 
6.050477e+2, 2.3484714e+2, -662162.06, -819766.6, -2229.34, -0.022160567, 0.09942365, -662130.56, -23621.695, 0.0, 10.000563, 9.998471 
6.0505706e+2, 2.448457e+2, -561844.9, -705802.0, -3833.6729, -0.042922497, 0.10360375, -561742.8, -21219.0, 0.0, 10.000515, 9.998603 
6.0506624e+2, 2.548445e+2, -457882.3, -603107.8, -4544.7656, -0.082220525, 0.12013713, -457740.25, -15204.971, 0.0, 10.000547, 9.998619 
6.050757e+2, 2.6484308e+2, -395019.38, -583386.75, -17197.15, -0.0663964, 0.14290836, -393462.22, -48912.55, 0.0, 10.00057, 9.998071 
6.050857e+2, 2.748413e+2, -296470.28, -485312.2, -15332.57, 0.0075027947, 0.15720123, -295233.5, -48665.473, 0.0, 10.000575, 9.998069 
6.05095e+2, 2.8483915e+2, -206209.92, -394551.9, 1518.3582, 0.0009976818, 0.13676631, -206197.67, -57607.22, 0.0, 10.000536, 9.998039 
6.0510385e+2, 2.9483682e+2, -122028.35, -305306.9, -877.0828, -0.089645766, 0.098256804, -122024.15, -71409.65, 0.00000000003092486, 10.00045, 9.99802 
6.0511374e+2, 3.0483606e+2, -48964.195, -180180.16, -6012.3906, -0.060694214, 0.19352303, -48689.28, -48689.28, 0.00000008707832, 10.000339, 9.998599 
6.0512346e+2, 3.1483412e+2, 16577.684, -16537.146, 30880.879, -0.054602098, 0.13100934, 35059.914, 35059.914, 0.0000006525611, 10.00022, 9.999781 
6.149438e+2, 1.2484824e+2, -1727435.1, -1757126.6, -103999.4, -0.0855974, 0.09744565, -1637227.3, 79272.31, 0.0000000039655865, 10.000097, 9.999649 
6.149587e+2, 1.3484849e+2, -1599961.1, -1676288.9, 92147.734, 0.32544878, 0.17670129, -1538386.9, 80112.04, 0.0, 10.000383, 9.99942 
6.14965e+2, 1.4484759e+2, -1502180.6, -1583347.3, 4071.02, -0.10368225, 0.15095496, -1501976.9, 18531.012, 0.0, 10.000426, 9.999351 
6.149749e+2, 1.548467e+2, -1425414.4, -1492987.6, -30712.42, 0.034180947, 0.1223849, -1413541.5, 8973.246, 0.0, 10.000273, 9.999371 
6.1498445e+2, 1.6484573e+2, -1333631.3, -1421736.8, 172.62743, 0.0918359, 0.10047229, -1333630.9, -9108.396, 0.0, 10.00033, 9.99916 
6.1499345e+2, 1.748447e+2, -1197666.0, -1304611.4, 4422.7734, 0.047930997, 0.07849588, -1197483.4, 29047.658, 0.0, 10.000587, 9.999167 
6.150024e+2, 1.8484366e+2, -1126093.3, -1262602.4, -10636.714, 0.0049650674, 0.07798586, -1125269.4, 3271.333, 0.0, 10.000591, 9.998781 
6.150111e+2, 1.9484264e+2, -1062499.9, -1180253.5, -15857.301, -0.029823814, 0.09481816, -1060401.9, -29850.494, 0.0, 10.000352, 9.998789 
6.150203e+2, 2.0484142e+2, -956627.44, -1066053.3, -14238.875, -0.030325824, 0.089376666, -954805.0, -22242.01, 0.0, 10.000352, 9.9989 
6.150299e+2, 2.1483998e+2, -819892.0, -947524.4, -12120.276, 0.0037994655, 0.054023705, -818751.25, 15824.365, 0.0, 10.00061, 9.998917 
6.150391e+2, 2.2483872e+2, -746810.25, -917903.94, -5262.058, -0.0016121387, 0.061332185, -746648.56, -10060.021, 0.0, 10.000682, 9.998413 
6.1504805e+2, 2.348376e+2, -665707.06, -827109.75, -6568.052, -0.048087265, 0.10656227, -665440.25, -26838.363, 0.0, 10.000563, 9.998421 
6.150573e+2, 2.4483629e+2, -563468.94, -709074.4, -3043.855, -0.073014446, 0.12515187, -563405.3, -22789.242, 0.0, 10.000514, 9.998581 
6.150668e+2, 2.5483477e+2, -459998.84, -607055.25, -3163.8557, -0.07422009, 0.11261294, -459930.8, -17300.027, 0.0, 10.0005455, 9.998593 
6.150764e+2, 2.648332e+2, -392433.66, -577696.9, -17057.057, -0.057157435, 0.12194549, -390876.3, -46229.934, 0.0, 10.000568, 9.998111 
6.1508596e+2, 2.748315e+2, -292929.47, -477856.13, -14876.902, -0.022616763, 0.13972692, -291740.28, -45076.695, 0.0, 10.000575, 9.99812 
6.150953e+2, 2.8482953e+2, -212637.95, -407525.22, -1708.5769, -0.02144618, 0.13970867, -212622.97, -63938.55, 0.0, 10.000534, 9.9979515 
6.151046e+2, 2.9482752e+2, -129726.016, -321246.28, -3818.9336, -0.05377409, 0.13825516, -129649.9, -78943.27, 0.0000000010306047, 10.000449, 9.997911 
6.151144e+2, 3.0482647e+2, -47646.09, -175956.05, -10662.388, -0.035938494, 0.21253648, -46766.094, -46766.094, 0.00000016756015, 10.000332, 9.9986315 
6.151233e+2, 3.148243e+2, 37877.133, 30070.152, 29223.014, -0.092041284, 0.12313415, 63456.21, 63456.21, 0.000001002472, 10.00021, 10.000105 
6.249442e+2, 1.2483885e+2, -1747616.1, -1760263.3, -133866.45, -0.046508547, 0.106366776, -1619924.0, 96668.62, 0.00000000008306351, 9.999929, 9.999708 
6.249587e+2, 1.3483924e+2, -1595559.5, -1656378.1, 81401.1, 0.28628087, 0.1830621, -1539073.1, 79517.03, 0.0, 10.000339, 9.999578 
6.2496537e+2, 1.4483844e+2, -1490187.6, -1590462.8, -11012.834, -0.115402654, 0.16718878, -1488992.4, 31605.438, 0.0, 10.000564, 9.999236 
6.2497556e+2, 1.5483736e+2, -1378981.4, -1483377.1, -37316.547, 0.051657185, 0.13034858, -1367014.3, 55592.65, 0.0, 10.000647, 9.999256 
6.249851e+2, 1.6483626e+2, -1296678.6, -1409874.0, -2644.584, 0.10912854, 0.10352123, -1296616.8, 27999.207, 0.0, 10.000609, 9.999106 
6.249939e+2, 1.7483516e+2, -1219949.9, -1321138.1, -7576.085, 0.039349485, 0.07980297, -1219385.8, 7239.523, 0.0, 10.00046, 9.999115 
6.250028e+2, 1.8483412e+2, -1145367.3, -1269943.4, -24418.605, -0.003012507, 0.080931865, -1140751.9, -12117.127, 0.0, 10.000451, 9.998798 
6.250118e+2, 1.9483316e+2, -1027978.75, -1161670.3, -18457.959, -0.012074009, 0.1025267, -1025477.2, 5167.0522, 0.0, 10.00058, 9.998807 
6.250209e+2, 2.0483188e+2, -927329.1, -1064865.4, -10710.764, -0.01053081, 0.09650173, -926500.0, 6156.5054, 0.0, 10.000608, 9.998785 
6.250304e+2, 2.1483028e+2, -838725.5, -969753.94, -21623.324, -0.000034489673, 0.054998033, -835249.3, -577.81024, 0.0, 10.000538, 9.998798 
6.250396e+2, 2.2482899e+2, -763224.25, -910356.4, -19481.98, -0.015241147, 0.0597714, -760688.3, -24003.814, 0.0, 10.000503, 9.99855 
6.250485e+2, 2.3482804e+2, -664994.25, -811019.56, -6971.6636, -0.057179056, 0.10691803, -664662.2, -25966.738, 0.0, 10.0005, 9.998561 
6.250578e+2, 2.4482676e+2, -575481.1, -726146.56, 3526.0935, -0.074888736, 0.12827283, -575398.7, -34689.64, 0.0, 10.00048, 9.99848 
6.2506735e+2, 2.5482517e+2, -482936.13, -629969.94, -3282.1313, -0.067322165, 0.11734892, -482862.88, -40137.645, 0.0, 10.000439, 9.9984865 
6.250769e+2, 2.6482356e+2, -402459.78, -574122.0, -16440.578, -0.057513565, 0.12264973, -400899.4, -56157.89, 0.0, 10.0004635, 9.998186 
6.250863e+2, 2.7482188e+2, -289573.78, -467587.4, -12435.523, -0.046220534, 0.13332817, -288709.28, -41951.04, 0.0, 10.00056, 9.9981985 
6.250957e+2, 2.8482e+2, -202219.48, -398855.9, 1915.8625, -0.04065605, 0.1377625, -202200.81, -53422.95, 0.0, 10.00059, 9.997984 
6.251052e+2, 2.948181e+2, -114335.11, -311216.3, 7802.5874, -0.040302705, 0.14784592, -114026.375, -63227.69, 0.000000004235602, 10.000545, 9.997934 
6.251148e+2, 3.0481678e+2, -51007.207, -193278.86, -4128.7, -0.027889067, 0.19963503, -50887.496, -50887.496, 0.000000262113, 10.000377, 9.998491 
6.2512326e+2, 3.1481472e+2, 26271.176, 31806.725, 23303.316, -0.10486757, 0.13554119, 52506.06, 52506.06, 0.0000013873902, 10.000098, 10.000171 
6.34945e+2, 1.2482969e+2, -1732811.6, -1730699.0, -131757.88, 0.03818235, 0.17668703, -1599993.3, 116692.29, 0.0, 9.999932, 9.999911 
6.3495827e+2, 1.3482942e+2, -1577307.6, -1618616.1, 95933.61, 0.21366613, 0.16335675, -1499830.1, 118857.336, 0.0, 10.000339, 9.999837 
6.349654e+2, 1.4482869e+2, -1489351.8, -1589481.4, -9017.5625, -0.16886926, 0.13977705, -1488546.1, 32147.617, 0.0, 10.0005665, 9.999241 
6.349765e+2, 1.5482806e+2, -1378866.3, -1483663.0, -34261.523, 0.08257283, 0.14829451, -1368659.1, 54039.586, 0.0, 10.000648, 9.999254 
6.3498604e+2, 1.6482711e+2, -1308207.5, -1434068.3, -9031.745, 0.14232363, 0.14280708, -1307562.6, 17144.512, 0.0, 10.00061, 9.99894 
6.34994e+2, 1.7482577e+2, -1230991.9, -1344932.4, -13221.118, -0.0013363684, 0.113692276, -1229477.9, -2758.6738, 0.0, 10.000463, 9.998951 
6.3500285e+2, 1.8482457e+2, -1133432.5, -1245193.0, -19980.596, -0.04065344, 0.09866797, -1129967.8, -1237.8414, 0.0, 10.000451, 9.998968 
6.3501275e+2, 1.9482352e+2, -1015348.7, -1135933.4, -13555.72, 0.03095223, 0.093348786, -1013843.56, 16895.541, 0.0, 10.000582, 9.998982 
6.3502204e+2, 2.0482229e+2, -947332.8, -1106009.9, -13967.102, 0.03531592, 0.09554298, -946112.75, -13361.629, 0.0, 10.0006075, 9.998504 
6.3503057e+2, 2.1482083e+2, -858756.6, -1011602.6, -24089.729, -0.030767825, 0.09872912, -855049.8, -20283.63, 0.0, 10.000539, 9.998511 
6.350396e+2, 2.2481956e+2, -741141.1, -863703.06, -20056.715, -0.060600955, 0.10212118, -737942.4, -1163.3148, 0.0, 10.0005, 9.998872 
6.3504905e+2, 2.3481843e+2, -641556.56, -762442.4, -6885.0605, -0.05133714, 0.10031797, -641165.7, -2376.1155, 0.0, 10.0005, 9.998895 
6.3505846e+2, 2.4481715e+2, -588447.3, -752944.2, 1653.1329, -0.051395252, 0.11346784, -588430.7, -47628.016, 0.0, 10.000479, 9.998297 
6.350679e+2, 2.548157e+2, -495770.9, -656898.7, -4593.2188, -0.061683897, 0.13557754, -495640.06, -52821.625, 0.0, 10.00044, 9.9983015 
6.350773e+2, 2.6481408e+2, -395504.0, -559603.0, -12957.384, -0.06712408, 0.1458714, -394487.16, -49652.242, 0.0, 10.000463, 9.998286 
6.350866e+2, 2.748123e+2, -283107.38, -452910.38, -8446.652, -0.0667604, 0.13534188, -282688.25, -35836.066, 0.0, 10.000554, 9.998302 
6.3509613e+2, 2.8481042e+2, -192947.6, -377619.06, 253.18076, -0.060574383, 0.12810232, -192947.25, -44076.145, 0.0, 10.000582, 9.998134 
6.351057e+2, 2.9480863e+2, -104437.52, -289233.03, 6211.4063, -0.048237085, 0.13050061, -104228.98, -53338.52, 0.000000008608103, 10.000538, 9.998088 
6.35115e+2, 3.04807e+2, -73255.695, -238573.05, -14610.403, -0.03492579, 0.15993854, -71974.39, -71974.39, 0.00000035003856, 10.000372, 9.998183 
6.351235e+2, 3.1480533e+2, 13280.96, 5900.0894, 15392.91, -0.09908547, 0.16538976, 25419.645, 25419.645, 0.0000017531552, 10.0000925, 9.999996 
6.449453e+2, 1.2482041e+2, -1651125.6, -1701557.0, -113296.586, 0.04927512, 0.20537458, -1560272.6, 156505.4, 0.0, 10.000535, 9.999822 
6.449584e+2, 1.3481985e+2, -1598565.1, -1633184.1, 98039.67, 0.19919202, 0.16678278, -1516318.6, 102463.8, 0.0, 10.000213, 9.999797 
6.44966e+2, 1.4481917e+2, -1543410.3, -1612964.9, -9637.951, -0.14919521, 0.1492789, -1542099.5, -21311.398, 0.0, 10.000185, 9.999264 
6.4497703e+2, 1.548185e+2, -1387399.8, -1485212.0, -33780.54, 0.07407868, 0.15273389, -1376867.4, 45925.85, 0.0, 10.000579, 9.999276 
6.449865e+2, 1.648176e+2, -1298581.3, -1431948.5, -17191.072, 0.12629318, 0.1518683, -1296401.0, 28400.254, 0.0, 10.000688, 9.998919 
6.4499444e+2, 1.7481638e+2, -1232175.9, -1348301.4, -11654.442, 0.0016270073, 0.13734436, -1231017.8, -4205.5117, 0.0, 10.000467, 9.998925 
6.4500344e+2, 1.8481512e+2, -1138317.5, -1252221.4, -7892.66, -0.03081749, 0.11993829, -1137773.1, -8949.56, 0.0, 10.000438, 9.998926 
6.450134e+2, 1.9481385e+2, -1011821.1, -1138738.9, -18343.803, 0.03226748, 0.09542296, -1009223.0, 21612.021, 0.0, 10.0006275, 9.99894 
6.4502263e+2, 2.048126e+2, -933910.75, -1095374.5, -23975.049, 0.03198884, 0.09830807, -930426.0, 2420.8564, 0.0, 10.000682, 9.99854 
6.4503115e+2, 2.1481141e+2, -849997.7, -1003462.4, -10624.004, -0.034388114, 0.122645326, -849265.75, -14406.439, 0.0, 10.000582, 9.998547 
6.450401e+2, 2.2481011e+2, -745538.25, -878878.9, -6783.7046, -0.058711138, 0.12849258, -745194.0, -8321.6045, 0.0, 10.000525, 9.998755 
6.450497e+2, 2.348087e+2, -647654.7, -778645.8, -28312.107, -0.0387007, 0.10885991, -641797.3, -2911.1506, 0.0, 10.000516, 9.998775 
6.450591e+2, 2.4480736e+2, -577024.7, -732934.25, -26424.5, -0.04074647, 0.11470664, -572667.9, -31768.174, 0.0, 10.000495, 9.9984255 
6.450683e+2, 2.5480607e+2, -483837.1, -636091.4, -9244.51, -0.06708739, 0.14126459, -483277.84, -40364.96, 0.0, 10.000458, 9.998436 
6.4507765e+2, 2.648045e+2, -405443.16, -563158.1, -7328.252, -0.07267608, 0.14968157, -405103.38, -60174.8, 0.0, 10.00039, 9.998297 
6.450872e+2, 2.7480265e+2, -321332.72, -470359.8, -10463.185, -0.05514074, 0.13013676, -320601.7, -73654.6, 0.0, 10.000288, 9.99831 
6.450966e+2, 2.848009e+2, -233573.14, -385618.25, -6581.136, -0.05135573, 0.1275709, -233288.81, -84323.75, 0.0, 10.000253, 9.998237 
6.4510596e+2, 2.9479933e+2, -134297.97, -292073.4, -5019.855, -0.06283725, 0.14624366, -134138.42, -83157.01, 0.000000011710588, 10.000283, 9.998191 
6.451152e+2, 3.047974e+2, -95009.664, -243841.48, -22548.285, -0.055588447, 0.14067844, -91668.57, -91668.57, 0.00000040808163, 10.000199, 9.998229 
6.4512366e+2, 3.1479603e+2, 6824.838, 9063.615, 33082.734, -0.08315143, 0.16547003, 41045.895, 41045.895, 0.0000020409286, 10.000022, 10.0000515 
6.5494525e+2, 1.2481102e+2, -1676060.3, -1756362.6, -131070.55, -0.012211804, 0.1890051, -1579129.0, 137740.94, 0.0, 10.000546, 9.999441 
6.5495896e+2, 1.3481057e+2, -1623375.6, -1683861.6, 84240.68, 0.23939511, 0.19393319, -1564113.6, 54761.277, 0.0, 10.00021, 9.999451 
6.5496707e+2, 1.4480992e+2, -1541364.5, -1607948.8, 2772.499, -0.058837943, 0.19593582, -1541249.3, -20368.645, 0.0, 10.000181, 9.9993 
6.549771e+2, 1.5480873e+2, -1383829.4, -1478770.6, -18727.05, 0.024968406, 0.1432019, -1380269.0, 42621.3, 0.0, 10.000582, 9.999319 
6.549865e+2, 1.6480777e+2, -1290254.9, -1415400.5, -25526.783, 0.05958093, 0.13046487, -1285248.3, 39649.9, 0.0, 10.00069, 9.99903 
6.549954e+2, 1.7480703e+2, -1224046.4, -1331868.0, -20149.715, 0.046439297, 0.15025163, -1220403.8, 6500.5205, 0.0, 10.000468, 9.999038 
6.550044e+2, 1.8480581e+2, -1156803.3, -1290015.5, -1896.5535, 0.023987042, 0.14445035, -1156776.3, -27860.67, 0.0, 10.000435, 9.998668 
6.550136e+2, 1.9480413e+2, -1030183.06, -1177119.6, -11168.359, -0.0084144715, 0.10752594, -1029339.0, 1592.9519, 0.0, 10.0006275, 9.998677 
6.5502274e+2, 2.0480287e+2, -910223.4, -1045370.6, -27789.66, -0.021267232, 0.10342579, -904732.2, 28211.563, 0.0, 10.000679, 9.998884 
6.550319e+2, 2.1480201e+2, -824907.1, -951769.5, -14243.113, -0.012372985, 0.12670757, -823327.7, 11623.106, 0.0, 10.000584, 9.9989 
6.5504116e+2, 2.2480069e+2, -784345.0, -959296.3, -7830.615, -0.011901558, 0.13910341, -783995.2, -47030.81, 0.0, 10.0005245, 9.998204 
6.5505034e+2, 2.3479885e+2, -687118.1, -861309.8, -28312.98, -0.020063678, 0.13192384, -682631.7, -43646.664, 0.0, 10.000518, 9.998207 
6.550595e+2, 2.4479735e+2, -547569.5, -671250.8, -27981.393, -0.044286206, 0.1311745, -541533.6, -533.5565, 0.0, 10.000493, 9.998851 
6.550685e+2, 2.5479627e+2, -452972.3, -571119.3, -10419.218, -0.08508258, 0.13314573, -452060.47, -9051.852, 0.0, 10.000453, 9.998884 
6.55078e+2, 2.647948e+2, -411317.56, -574542.2, -11294.631, -0.07584833, 0.1327247, -410539.72, -65517.12, 0.0, 10.000386, 9.99822 
6.550879e+2, 2.747929e+2, -327105.2, -482481.63, -13836.989, -0.013046254, 0.120126314, -325882.56, -78839.91, 0.0, 10.000289, 9.998226 
6.5509725e+2, 2.8479135e+2, -230082.22, -378652.2, -5464.036, -0.015066736, 0.13922912, -229881.55, -80822.19, 0.0, 10.000254, 9.998284 
6.55106e+2, 2.9479018e+2, -131446.42, -284613.03, -3648.5117, -0.0867611, 0.1919464, -131359.56, -80287.81, 0.000000011654482, 10.000276, 9.998246 
6.55115e+2, 3.0478802e+2, -69185.08, -187897.34, -29355.887, -0.09234452, 0.13732243, -62322.492, -62322.492, 0.00000041978168, 10.00019, 9.998617 
6.551239e+2, 3.1478673e+2, 26256.84, 50230.676, 26690.11, -0.05987718, 0.13662526, 67502.055, 67502.055, 0.000002202322, 10.000019, 10.000335 
6.6494536e+2, 1.2480157e+2, -1750319.5, -1796694.5, -141455.75, -0.031076355, 0.19036892, -1630163.4, 86799.85, 0.0, 10.000055, 9.999402 
6.6495955e+2, 1.348011e+2, -1535897.5, -1645971.4, 95876.914, 0.24158046, 0.20007119, -1480383.8, 138584.58, 0.0, 10.000832, 9.99941 
6.649681e+2, 1.4480059e+2, -1435028.8, -1565478.0, 13771.325, -0.010339726, 0.22080846, -1433590.8, 87382.13, 0.0, 10.00095, 9.999221 
6.6497755e+2, 1.5479922e+2, -1408067.8, -1499535.5, -16489.256, 0.014304594, 0.15779178, -1405186.0, 17798.508, 0.0, 10.000456, 9.999238 
6.649868e+2, 1.6479813e+2, -1332878.9, -1433234.4, -26263.236, 0.0338707, 0.13461965, -1326421.3, -1427.7013, 0.0, 10.000388, 9.999053 
6.649961e+2, 1.747973e+2, -1176965.3, -1306262.0, -28766.723, 0.055953655, 0.14386193, -1170853.9, 56146.375, 0.0, 10.000782, 9.999062 
6.6500515e+2, 1.8479615e+2, -1099311.8, -1262039.5, -9578.063, 0.037323218, 0.14397395, -1098749.9, 30260.764, 0.0, 10.000831, 9.998669 
6.6501397e+2, 1.9479471e+2, -1048930.5, -1186520.0, -149.14821, -0.027037116, 0.13027771, -1048930.3, -17905.42, 0.0, 10.000501, 9.998673 
6.6502315e+2, 2.0479336e+2, -944748.1, -1067190.9, -14774.888, -0.038586847, 0.12081032, -942990.5, -9953.143, 0.0, 10.0004635, 9.998838 
6.650328e+2, 2.1479212e+2, -804242.44, -946358.5, -31839.693, 0.0077326433, 0.10918864, -797435.1, 37612.957, 0.0, 10.000747, 9.9988575 
6.6504204e+2, 2.2479074e+2, -744252.8, -940903.25, -27546.352, 0.014729006, 0.119495384, -740467.06, -3405.0442, 0.0, 10.000804, 9.998196 
6.650509e+2, 2.3478922e+2, -674189.6, -856104.1, -6787.896, -0.021347681, 0.14543304, -673936.7, -34857.07, 0.0, 10.000611, 9.998198 
6.6505986e+2, 2.4478775e+2, -559829.94, -680244.06, -1507.0342, -0.052048918, 0.14881182, -559811.06, -18716.62, 0.0, 10.000422, 9.998823 
6.65069e+2, 2.5478634e+2, -486949.2, -590535.2, -20063.533, -0.07582447, 0.121908985, -483198.88, -40092.87, 0.0, 10.000233, 9.998857 
6.650784e+2, 2.6478484e+2, -430890.0, -575723.56, -27691.262, -0.064554356, 0.1165431, -425776.16, -80655.81, 0.0, 10.0002165, 9.998294 
6.650882e+2, 2.7478328e+2, -308048.8, -464751.1, -18751.088, -0.01627868, 0.12715894, -305836.28, -58698.6, 0.0, 10.000383, 9.998302 
6.6509753e+2, 2.8478196e+2, -209183.5, -355488.97, -7167.217, -0.016475324, 0.15903264, -208833.22, -59681.184, 0.0, 10.000342, 9.9984 
6.651063e+2, 2.9478088e+2, -150627.45, -279993.06, -1543.9431, -0.06951893, 0.20870627, -150609.03, -99446.086, 0.000000008469742, 10.000087, 9.998368 
6.651152e+2, 3.0477846e+2, -83085.32, -191626.08, -30999.234, -0.084292, 0.1192045, -74855.89, -74855.89, 0.00000038345433, 10.000083, 9.998643 
6.65124e+2, 3.1477726e+2, 60291.41, 47459.12, -3261.903, -0.06821052, 0.12745547, 61072.97, 61072.97, 0.0000022156387, 10.000334, 10.000164 
6.7494565e+2, 1.2479203e+2, -1729366.8, -1753011.0, -113827.52, -0.006627945, 0.20461755, -1626749.1, 90309.086, 0.0, 10.0000515, 9.999704 
6.7495996e+2, 1.3479154e+2, -1515900.3, -1606153.3, 124262.72, 0.20337534, 0.18464915, -1428823.8, 190238.58, 0.0, 10.000839, 9.99968 
6.7496914e+2, 1.4479123e+2, -1447782.1, -1593932.9, -5929.9766, -0.0051471996, 0.22345108, -1447542.0, 73522.49, 0.0, 10.000958, 9.999022 
6.7497826e+2, 1.5479003e+2, -1422694.8, -1529778.8, -35294.75, 0.039274164, 0.19606397, -1412108.3, 10967.226, 0.0, 10.000454, 9.999031 
6.749873e+2, 1.647887e+2, -1338909.6, -1444369.5, -12531.13, 0.045849297, 0.16397978, -1337441.1, -12353.933, 0.0, 10.000381, 9.99898 
6.7499655e+2, 1.7478724e+2, -1181607.0, -1316158.3, -13580.1455, 0.029898705, 0.11764756, -1180250.1, 46849.684, 0.0, 10.000782, 9.998994 
6.750057e+2, 1.8478619e+2, -1082219.1, -1226489.9, -21850.275, 0.008568204, 0.11790809, -1078982.5, 50126.285, 0.0, 10.000831, 9.998913 
6.7501444e+2, 1.9478558e+2, -1031637.7, -1150513.4, -12757.581, -0.02532735, 0.16321911, -1030284.0, 829.6853, 0.0, 10.0005, 9.998921 
6.750238e+2, 2.0478411e+2, -975424.7, -1130153.0, -5237.4966, -0.02214084, 0.15059197, -975247.56, -42120.027, 0.0, 10.000461, 9.998408 
6.750337e+2, 2.1478172e+2, -835396.2, -1010941.94, -21002.328, 0.025054835, 0.069426104, -832918.44, 2232.5786, 0.0, 10.000746, 9.998415 
6.750429e+2, 2.2478028e+2, -708018.94, -864845.56, -34782.355, 0.019931877, 0.06876627, -700650.75, 36514.656, 0.0, 10.000801, 9.998719 
6.7505133e+2, 2.3477983e+2, -636202.0, -777057.44, -13827.23, -0.04265831, 0.14867036, -634857.44, 4312.523, 0.0, 10.00061, 9.998741 
6.7506015e+2, 2.4477854e+2, -592704.4, -748534.5, -8995.512, -0.064678885, 0.1665544, -592186.8, -51003.984, 0.0, 10.000422, 9.998354 
6.750696e+2, 2.5477636e+2, -521129.94, -662226.06, -26848.129, -0.041717194, 0.108711936, -516193.9, -72989.164, 0.0, 10.000236, 9.9983635 
6.7507887e+2, 2.647747e+2, -416035.0, -544881.0, -21720.09, -0.041426986, 0.10271323, -412472.1, -67250.54, 0.0, 10.0002165, 9.998506 
6.7508805e+2, 2.7477372e+2, -292907.72, -431652.2, -12112.768, -0.06469164, 0.1488876, -291858.2, -44625.81, 0.0, 10.000376, 9.998533 
6.7509747e+2, 2.847726e+2, -197366.7, -329438.8, -16723.217, -0.05552775, 0.18410037, -195282.08, -46038.688, 0.0, 10.000336, 9.998582 
6.75107e+2, 2.947714e+2, -137625.63, -253180.7, -10892.891, -0.014178719, 0.1989824, -136607.77, -85353.055, 0.0000000040864183, 10.000088, 9.998551 
6.7511576e+2, 3.0476868e+2, -105509.375, -238341.97, -21722.154, -0.034829658, 0.0891182, -102047.37, -102047.37, 0.0000003121116, 10.000083, 9.998322 
6.7512393e+2, 3.147676e+2, 16993.068, -39775.566, 6891.713, -0.111024596, 0.14213856, 17817.744, 17817.744, 0.0000020914758, 10.000322, 9.99957 
6.849466e+2, 1.2478256e+2, -1614484.8, -1699064.6, -101459.25, 0.03931335, 0.22683808, -1546854.6, 170296.97, 0.0, 10.000847, 9.999692 
6.8496007e+2, 1.3478169e+2, -1577121.1, -1642502.0, 107136.805, 0.15139027, 0.1768676, -1497798.4, 121361.06, 0.0, 10.000451, 9.999616 
6.849696e+2, 1.4478149e+2, -1516100.8, -1618368.4, -31729.809, -0.027544668, 0.22303592, -1507056.1, 14104.502, 0.0, 10.000454, 9.999096 
6.8497914e+2, 1.5478048e+2, -1337796.6, -1480546.9, -40165.402, 0.055654153, 0.20803998, -1327271.4, 95898.05, 0.0, 10.001003, 9.999104 
6.849882e+2, 1.6477917e+2, -1244901.5, -1413029.3, -9090.263, 0.06313677, 0.18090655, -1244411.4, 80769.6, 0.0, 10.001089, 9.998853 
6.8499714e+2, 1.7477754e+2, -1208803.4, -1344050.3, -15980.262, 0.0115056075, 0.13117875, -1206940.9, 20255.018, 0.0, 10.00066, 9.99886 
6.8500614e+2, 1.8477638e+2, -1123794.1, -1238274.0, -35314.664, -0.00942513, 0.12406558, -1113776.9, 15428.91, 0.0, 10.000509, 9.998986 
6.8501526e+2, 1.9477575e+2, -1000209.2, -1125544.6, -38853.69, -0.005985019, 0.15784915, -989141.94, 42068.316, 0.0, 10.000676, 9.999006 
6.850246e+2, 2.0477432e+2, -946337.3, -1121864.6, -17747.268, 0.0012618075, 0.14880244, -944560.9, -11337.332, 0.0, 10.000687, 9.998355 
6.850342e+2, 2.1477208e+2, -871001.2, -1034636.75, -5440.002, 0.015822144, 0.08734274, -870820.5, -35574.15, 0.0, 10.000529, 9.998357 
6.8504333e+2, 2.2477064e+2, -754429.75, -876663.6, -25796.668, 0.0034213637, 0.085588686, -749208.56, -11947.768, 0.0, 10.000436, 9.998815 
6.8505186e+2, 2.3477006e+2, -657537.5, -775483.06, -38913.496, -0.038324274, 0.14170831, -645855.8, -6589.9126, 0.0, 10.000413, 9.998846 
6.8506074e+2, 2.4476878e+2, -603213.2, -766146.1, -36564.66, -0.049228735, 0.15967849, -595383.75, -54104.965, 0.0, 10.000403, 9.998241 
6.8507e+2, 2.5476673e+2, -503668.16, -666653.4, -26794.72, -0.026845746, 0.12755843, -499376.13, -56076.05, 0.0, 10.000412, 9.998247 
6.8507916e+2, 2.647651e+2, -395380.25, -526688.3, -9053.022, -0.03620884, 0.12500393, -394759.03, -49442.105, 0.0, 10.000324, 9.998578 
6.850882e+2, 2.7476394e+2, -322641.16, -437185.9, -11480.696, -0.078007855, 0.14905886, -321501.78, -74173.16, 0.0, 10.000134, 9.9986105 
6.850976e+2, 2.8476283e+2, -223417.48, -342541.44, -27529.592, -0.06659399, 0.17752345, -217363.1, -68023.38, 0.0, 10.000159, 9.998576 
6.8510735e+2, 2.947617e+2, -89838.15, -230121.27, -35744.06, -0.0010446036, 0.20246823, -81255.664, -29905.363, 0.0000000009738006, 10.000416, 9.998551 
6.851161e+2, 3.047591e+2, -60653.625, -202800.08, -41229.21, -0.02171936, 0.09736294, -49560.85, -49560.85, 0.00000022618863, 10.000331, 9.998446 
6.851241e+2, 3.147582e+2, -58824.625, -92205.055, 18614.2, -0.10363329, 0.15744762, -50513.81, -50513.81, 0.0000018666766, 9.999871, 9.999427 
6.9494814e+2, 1.24773175e+2, -1636797.5, -1749186.0, -110944.01, 0.10736556, 0.25272533, -1568627.9, 148615.61, 0.0, 10.000861, 9.999342 
6.949598e+2, 1.3477165e+2, -1606178.9, -1700658.4, 90364.52, 0.08207574, 0.17609023, -1551451.3, 67807.88, 0.0, 10.000443, 9.99922 
6.949695e+2, 1.4477137e+2, -1493215.5, -1568832.5, -12831.205, -0.08094631, 0.21840642, -1491097.5, 30163.643, 0.0, 10.000445, 9.999441 
6.949802e+2, 1.547706e+2, -1311528.5, -1427601.3, -18258.285, 0.062485415, 0.19329557, -1308724.3, 114541.78, 0.0, 10.00101, 9.999464 
6.949895e+2, 1.6476957e+2, -1258520.8, -1442196.5, -25071.53, 0.08443981, 0.1849017, -1255160.0, 70114.81, 0.0, 10.001093, 9.998651 
6.949976e+2, 1.7476824e+2, -1224347.3, -1375408.8, -32527.27, -0.0021880448, 0.18430491, -1217641.1, 9647.254, 0.0, 10.000655, 9.998648 
6.950066e+2, 1.8476677e+2, -1130312.1, -1250547.6, -30006.41, -0.01985169, 0.16260052, -1123239.6, 6061.949, 0.0, 10.000504, 9.998905 
6.950163e+2, 1.9476523e+2, -1005725.4, -1136761.9, -32229.19, 0.03064665, 0.11384316, -998227.5, 33086.855, 0.0, 10.000675, 9.99893 
6.9502556e+2, 2.0476402e+2, -924554.0, -1076635.4, -23998.047, 0.03125567, 0.11448123, -920857.06, 12468.193, 0.0, 10.000687, 9.998666 
6.9503444e+2, 2.1476318e+2, -849207.7, -988938.6, -11439.935, -0.02087874, 0.16198395, -848277.25, -12943.026, 0.0, 10.000526, 9.9986725 
6.950434e+2, 2.2476184e+2, -776773.75, -922870.75, -27158.148, -0.03605803, 0.1690805, -771888.6, -34540.504, 0.0, 10.000435, 9.998498 
6.9505256e+2, 2.3475991e+2, -680761.0, -824103.8, -39556.977, -0.010355915, 0.12534167, -670569.44, -31202.238, 0.0, 10.000414, 9.998512 
6.9506156e+2, 2.4475844e+2, -586136.25, -730769.0, -36578.48, -0.00791766, 0.1286098, -577411.6, -36029.594, 0.0, 10.000404, 9.998485 
6.950704e+2, 2.5475743e+2, -486141.0, -629503.9, -26220.633, -0.031128649, 0.1764639, -481495.84, -38103.65, 0.0, 10.000408, 9.998505 
6.950793e+2, 2.64756e+2, -400330.25, -535971.5, -16180.441, -0.04890751, 0.1805749, -398426.8, -53020.063, 0.0, 10.00032, 9.998516 
6.950885e+2, 2.7475402e+2, -328236.3, -448363.75, -18342.914, -0.059139766, 0.12941414, -325497.88, -78071.734, 0.0, 10.000133, 9.998534 
6.950979e+2, 2.847526e+2, -236582.78, -369372.53, -18000.045, -0.052569736, 0.14197013, -234186.08, -84745.51, 0.0, 10.000157, 9.998393 
6.9510746e+2, 2.9475176e+2, -103689.734, -256507.84, -25004.41, -0.030074641, 0.21743639, -99702.5, -48252.91, 0.000000000021633938, 10.000405, 9.998376 
6.951162e+2, 3.0474967e+2, -23867.135, -123801.586, -57923.742, -0.045057647, 0.14094082, 2663.243, 2663.243, 0.00000014519733, 10.00032, 9.998994 
6.9512445e+2, 3.1474915e+2, -39894.918, -51512.617, 274.31845, -0.05272025, 0.18206404, -39888.445, -39888.445, 0.0000015881137, 9.999866, 9.999709 
7.049489e+2, 1.2476351e+2, -1588481.4, -1733233.9, -102874.01, 0.085241936, 0.23674867, -1535074.5, 182263.1, 0.0, 10.001225, 9.999276 
7.0496047e+2, 1.3476202e+2, -1537812.9, -1682546.0, 107211.836, 0.07198859, 0.17828685, -1480829.9, 138523.03, 0.0, 10.000979, 9.999084 
7.049704e+2, 1.4476176e+2, -1448780.6, -1551133.0, 23278.822, -0.050829053, 0.23019424, -1443734.9, 77620.16, 0.0, 10.000768, 9.999406 
7.049809e+2, 1.547607e+2, -1356161.9, -1453178.0, -10807.183, 0.04615316, 0.17984572, -1354972.6, 68390.39, 0.0, 10.000722, 9.999427 
7.0499015e+2, 1.6475967e+2, -1305597.9, -1461673.6, -39582.2, 0.058902957, 0.1698855, -1296133.4, 29238.799, 0.0, 10.000756, 9.998678 
7.049985e+2, 1.7475857e+2, -1190512.3, -1355232.3, -29315.633, 0.0033949332, 0.19324848, -1185450.5, 41932.53, 0.0, 10.000874, 9.998679 
7.050074e+2, 1.8475716e+2, -1084168.3, -1236001.4, -10167.041, -0.005292233, 0.17646807, -1083490.4, 45905.66, 0.0, 10.000855, 9.998834 
7.05017e+2, 1.9475538e+2, -1008878.1, -1147175.0, -13432.346, 0.029637378, 0.11162172, -1007585.56, 23825.813, 0.0, 10.00069, 9.998852 
7.0502615e+2, 2.0475414e+2, -938660.3, -1076663.9, -18506.176, 0.024342658, 0.11130867, -936221.75, -2799.1736, 0.0, 10.00056, 9.998727 
7.0503485e+2, 2.1475354e+2, -852545.5, -982617.1, -25160.791, -0.022471564, 0.1736608, -847848.1, -12418.592, 0.0, 10.000471, 9.998742 
7.0504385e+2, 2.2475226e+2, -784163.44, -936779.6, -36997.68, -0.03481722, 0.18933672, -775667.3, -38224.406, 0.0, 10.00043, 9.9984045 
7.05053e+2, 2.3475027e+2, -683368.44, -836295.94, -32386.674, -0.01023723, 0.14830391, -676792.44, -37329.117, 0.0, 10.000443, 9.998415 
7.05062e+2, 2.4474874e+2, -582934.1, -718186.3, -27606.186, -0.009392394, 0.14771493, -577516.5, -36037.938, 0.0, 10.000379, 9.998583 
7.050707e+2, 2.5474775e+2, -504720.63, -626768.5, -29575.242, -0.03400646, 0.18423638, -497931.47, -54443.36, 0.0, 10.00023, 9.998609 
7.050797e+2, 2.6474628e+2, -427778.75, -552344.4, -24832.22, -0.045288827, 0.18468168, -423010.94, -77508.59, 0.0, 10.000145, 9.998488 
7.050888e+2, 2.7474436e+2, -330522.0, -452555.78, -24155.504, -0.040723372, 0.13868928, -325914.6, -78392.9, 0.0, 10.000131, 9.998507 
7.050981e+2, 2.8474295e+2, -247192.06, -361048.72, -6089.1914, -0.038990457, 0.14934017, -246867.34, -97331.44, 0.0, 10.000027, 9.998513 
7.051075e+2, 2.9474217e+2, -178037.77, -277721.8, 9286.812, -0.04300486, 0.21565677, -177179.97, -125635.47, 0.0, 9.999831, 9.998507 
7.0511615e+2, 3.0474043e+2, -71525.39, -122779.94, -26731.813, -0.059703823, 0.15836838, -60120.96, -60120.96, 0.00000008201181, 9.999889, 9.999208 
7.0512474e+2, 3.1473997e+2, 8876.132, -28880.395, 2180.4534, -0.025191095, 0.18616396, 9001.637, 9001.637, 0.0000012936833, 10.000203, 9.999702 
7.1494895e+2, 1.2475356e+2, -1573168.3, -1702457.4, -102078.984, -0.030316232, 0.17314382, -1516986.4, 200447.64, 0.0, 10.001227, 9.999488 
7.149618e+2, 1.3475288e+2, -1527127.6, -1662547.6, 97647.53, 0.118500836, 0.18342248, -1476011.4, 143428.84, 0.0, 10.000989, 9.999217 
7.149723e+2, 1.447527e+2, -1478617.6, -1614004.4, 19470.547, 0.060775418, 0.25835362, -1475873.1, 45568.63, 0.0, 10.000772, 9.998972 
7.149812e+2, 1.547508e+2, -1388326.1, -1518728.0, -12468.734, 0.004225603, 0.16758724, -1387144.6, 36315.375, 0.0, 10.000716, 9.99898 
7.149902e+2, 1.6474943e+2, -1287306.8, -1422490.3, -35047.13, -0.016367009, 0.13533415, -1278760.8, 46711.887, 0.0, 10.000751, 9.99895 
7.1499956e+2, 1.7474863e+2, -1169884.5, -1313103.9, -24130.375, 0.027536513, 0.15753813, -1165928.1, 61551.402, 0.0, 10.000876, 9.998967 
7.150086e+2, 1.8474756e+2, -1089724.8, -1247713.4, -16637.479, 0.033249106, 0.16491465, -1087991.8, 41497.324, 0.0, 10.000856, 9.998754 
7.1501726e+2, 1.947462e+2, -1015705.94, -1160381.8, -19803.164, -0.010900104, 0.1514977, -1013044.3, 18456.916, 0.0, 10.000686, 9.998763 
7.1502626e+2, 2.0474474e+2, -951367.06, -1102599.1, -22485.117, -0.021198874, 0.14009216, -948094.75, -14579.369, 0.0, 10.000557, 9.99855 
7.150356e+2, 2.1474315e+2, -865161.25, -1008775.44, -28432.635, 0.009570515, 0.123538114, -859737.06, -24205.148, 0.0, 10.00047, 9.998563 
7.150447e+2, 2.2474192e+2, -774667.3, -917428.5, -37172.453, 0.0057060895, 0.1470602, -765568.25, -28023.195, 0.0, 10.000431, 9.998537 
7.1505314e+2, 2.347411e+2, -674065.1, -816493.8, -31638.648, -0.03801025, 0.2093082, -667353.3, -27798.98, 0.0, 10.000442, 9.998552 
7.150619e+2, 2.4473971e+2, -586336.94, -724752.56, -33351.332, -0.05359472, 0.21578746, -578720.06, -37151.72, 0.0, 10.000377, 9.998539 
7.1507084e+2, 2.5473765e+2, -508468.47, -634487.75, -35043.83, -0.037036914, 0.15302739, -499378.97, -55791.383, 0.0, 10.00023, 9.998556 
7.1507996e+2, 2.6473603e+2, -426660.8, -550312.9, -25561.285, -0.027207106, 0.13939509, -421585.16, -75981.7, 0.0, 10.000146, 9.998502 
7.150891e+2, 2.747349e+2, -329718.13, -450232.2, -24230.371, -0.024029013, 0.17475529, -325028.84, -77413.484, 0.0, 10.000128, 9.998525 
7.1509826e+2, 2.8473386e+2, -219230.45, -301815.7, -13723.271, -0.027416315, 0.19690531, -217009.77, -67383.77, 0.0, 10.000022, 9.998922 
7.151073e+2, 2.9473284e+2, -149164.2, -216607.83, 2108.676, -0.04165955, 0.19847, -149098.34, -97463.234, 0.0, 9.999827, 9.998928 
7.1511596e+2, 3.0473134e+2, -78839.95, -137324.83, -15481.299, -0.06701642, 0.15159361, -74994.77, -74994.77, 0.00000004119849, 9.999886, 9.999111 
7.15125e+2, 3.147308e+2, -12644.522, -71901.98, 12649.053, -0.024253696, 0.18111078, -10057.415, -10057.415, 0.0000010048329, 10.0001955, 9.999412 
7.2495e+2, 1.24744095e+2, -1577520.1, -1700308.3, -101102.72, -0.049371082, 0.17192994, -1520630.6, 196895.3, 0.0, 10.001176, 9.999528 
7.249629e+2, 1.347431e+2, -1473816.9, -1642275.8, 72274.94, 0.10263622, 0.15364565, -1447058.6, 172476.3, 0.0, 10.00138, 9.9991665 
7.249735e+2, 1.4474286e+2, -1419283.9, -1596389.0, -7886.008, 0.08151895, 0.23291497, -1418933.4, 102603.44, 0.0, 10.001227, 9.998873 
7.2498184e+2, 1.5474118e+2, -1385372.4, -1528893.1, -13429.393, -0.0028748235, 0.17461006, -1384126.5, 39427.33, 0.0, 10.000788, 9.998875 
7.249907e+2, 1.6473985e+2, -1295303.9, -1414242.6, -13330.927, -0.033035822, 0.1457921, -1293828.0, 31738.365, 0.0, 10.000644, 9.999059 
7.250004e+2, 1.747389e+2, -1168532.1, -1300192.9, -16167.216, 0.023288516, 0.14015487, -1166576.0, 60998.3, 0.0, 10.000832, 9.999078 
7.2500944e+2, 1.8473782e+2, -1095276.8, -1257988.0, -26435.707, 0.032416318, 0.14636983, -1091089.5, 38494.13, 0.0, 10.00085, 9.998686 
7.2501785e+2, 1.9473666e+2, -1021202.5, -1170651.1, -28319.404, -0.01989293, 0.15994193, -1016016.1, 15578.51, 0.0, 10.000682, 9.998693 
7.2502667e+2, 2.047352e+2, -952511.94, -1109803.3, -21168.816, -0.03137669, 0.15489592, -949712.8, -16103.572, 0.0, 10.000579, 9.99849 
7.2503614e+2, 2.1473339e+2, -858320.2, -1012519.56, -19138.99, 0.0056451424, 0.12299895, -855980.2, -20352.44, 0.0, 10.000546, 9.998501 
7.250451e+2, 2.2473212e+2, -770286.1, -915379.5, -28013.715, 0.005649473, 0.14350939, -765065.3, -27423.744, 0.0, 10.000462, 9.998536 
7.2505355e+2, 2.347314e+2, -690884.3, -824186.75, -33295.7, -0.03626412, 0.21504904, -683030.56, -43380.46, 0.0, 10.000324, 9.998555 
7.250622e+2, 2.4473001e+2, -611486.2, -739808.9, -40687.703, -0.04952303, 0.22453505, -599672.75, -58008.65, 0.0, 10.0002165, 9.998513 
7.2507113e+2, 2.547279e+2, -522869.3, -644090.94, -40817.848, -0.030824205, 0.1585564, -510406.4, -66722.414, 0.0, 10.000143, 9.998532 
7.2508013e+2, 2.6472634e+2, -431493.88, -545927.75, -25273.828, -0.022738427, 0.14969848, -426160.5, -80461.23, 0.0, 10.000084, 9.998563 
7.250892e+2, 2.7472544e+2, -337452.72, -447092.6, -21152.09, -0.0253964, 0.1978322, -333513.5, -85804.195, 0.0, 10.000045, 9.998587 
7.2509825e+2, 2.8472432e+2, -227398.11, -300360.1, -26831.824, -0.02586143, 0.21053421, -218593.23, -68873.13, 0.0, 9.999942, 9.998971 
7.2510725e+2, 2.9472303e+2, -152926.22, -212680.0, -38650.426, -0.02766387, 0.18032897, -133951.45, -82219.99, 0.0, 9.999777, 9.99898 
7.251159e+2, 3.0472192e+2, -77875.27, -126907.49, -44940.484, -0.05792116, 0.16150855, -51198.742, -51198.742, 0.000000018939705, 9.999851, 9.9992 
7.2512513e+2, 3.1472135e+2, -13604.537, -70087.555, -4531.0234, -0.026682274, 0.17990842, -13243.372, -13243.372, 0.0000007295325, 10.00018, 9.999431 
7.34952e+2, 1.2473514e+2, -1588348.3, -1722270.6, -81729.12, 0.025288504, 0.23325057, -1549652.3, 167961.13, 0.0, 10.001173, 9.999379 
7.349634e+2, 1.3473263e+2, -1490649.1, -1675941.1, 78630.4, 0.022685774, 0.08905153, -1461779.6, 157857.28, 0.0, 10.001376, 9.998937 
7.34974e+2, 1.4473227e+2, -1401907.4, -1560449.6, -24770.309, 0.008512389, 0.15251863, -1398127.4, 123512.84, 0.0, 10.001227, 9.99912 
7.349829e+2, 1.5473188e+2, -1366755.3, -1491961.8, -29100.602, 0.022304667, 0.2001458, -1360322.1, 63322.2, 0.0, 10.000793, 9.9991255 
7.349918e+2, 1.6473095e+2, -1300411.9, -1424980.1, -7209.261, 0.0065756515, 0.20091566, -1299996.0, 25657.059, 0.0, 10.000645, 9.998984 
7.3500085e+2, 1.7472938e+2, -1174317.8, -1311468.8, -9071.648, -0.010468501, 0.14235978, -1173720.3, 53946.625, 0.0, 10.000829, 9.999002 
7.350099e+2, 1.8472798e+2, -1098530.4, -1264248.6, -32798.11, -0.009349037, 0.121509604, -1092275.3, 37404.496, 0.0, 10.000847, 9.998646 
7.3501873e+2, 1.9472681e+2, -1024047.94, -1176868.3, -34595.535, 0.0013259129, 0.13698737, -1016581.0, 15110.503, 0.0, 10.000683, 9.998651 
7.350275e+2, 2.047256e+2, -949062.8, -1102774.1, -23107.346, -0.0077635455, 0.15553091, -945664.25, -11960.364, 0.0, 10.000579, 9.998539 
7.3503625e+2, 2.147243e+2, -855278.1, -1005430.6, -20384.115, -0.0349251, 0.17143652, -852560.06, -16843.012, 0.0, 10.000544, 9.998551 
7.350452e+2, 2.2472283e+2, -779564.44, -934320.4, -33705.348, -0.035486307, 0.17854632, -772542.2, -34809.754, 0.0, 10.00046, 9.998407 
7.3505414e+2, 2.3472117e+2, -700074.56, -843517.4, -38404.977, -0.006908995, 0.16776873, -690439.3, -50688.96, 0.0, 10.000325, 9.998423 
7.3506296e+2, 2.4471971e+2, -611248.8, -739736.7, -43744.383, 0.00037546197, 0.17547657, -597769.8, -56004.246, 0.0, 10.000218, 9.998513 
7.350714e+2, 2.5471848e+2, -522729.75, -643365.7, -43255.816, -0.016907515, 0.19904159, -508822.9, -65045.523, 0.0, 10.000141, 9.998538 
7.3508006e+2, 2.6471722e+2, -424596.78, -531078.3, -26848.666, -0.03267799, 0.21348856, -418210.13, -72420.26, 0.0, 10.000082, 9.998666 
7.35089e+2, 2.7471587e+2, -330764.75, -432710.0, -22349.613, -0.04483863, 0.20974292, -326080.28, -78276.99, 0.0, 10.000042, 9.998687 
7.3509806e+2, 2.847144e+2, -247422.61, -341769.34, -32790.668, -0.034945503, 0.19262366, -237145.53, -87327.65, 0.0, 9.999941, 9.998687 
7.3510724e+2, 2.947128e+2, -173857.78, -255624.48, -43556.727, -0.004172479, 0.16002558, -155003.06, -103169.805, 0.0, 9.999774, 9.998686 
7.3511595e+2, 3.0471206e+2, -61164.1, -91293.766, -32644.47, -0.0362225, 0.18614972, -40276.04, -40276.04, 0.0000000073965225, 9.999847, 9.999446 
7.3512524e+2, 3.1471166e+2, 3438.2344, -30967.969, 6044.74, -0.036079943, 0.19374022, 4469.3203, 4469.3203, 0.0000004773962, 10.000165, 9.999707 
7.449538e+2, 1.247256e+2, -1484123.6, -1675377.9, -71546.2, 0.05771958, 0.22739008, -1460321.3, 257385.08, 0.0, 10.001904, 9.999348 
7.449642e+2, 1.3472311e+2, -1546869.4, -1715632.0, 81379.55, -0.024741529, 0.09586606, -1514020.9, 105709.3, 0.0, 10.001046, 9.998822 
7.449746e+2, 1.447227e+2, -1470083.4, -1580882.3, -11567.249, -0.024360638, 0.1550782, -1468888.6, 52845.18, 0.0, 10.000705, 9.999232 
7.449839e+2, 1.5472226e+2, -1318886.3, -1456082.8, -24859.307, 0.02880911, 0.18355845, -1314520.8, 109217.14, 0.0, 10.001066, 9.999241 
7.4499273e+2, 1.6472133e+2, -1240880.0, -1409065.1, -9840.3955, 0.02160029, 0.184703, -1240306.1, 85440.38, 0.0, 10.001108, 9.998871 
7.450016e+2, 1.7471984e+2, -1189816.0, -1332871.1, -15464.068, -0.021036014, 0.14772852, -1188163.4, 39596.89, 0.0, 10.000782, 9.998878 
7.4501044e+2, 1.8471846e+2, -1128044.9, -1274198.9, -37216.71, -0.025854794, 0.13267362, -1119113.8, 10659.582, 0.0, 10.000626, 9.998684 
7.450194e+2, 1.9471721e+2, -1023988.6, -1172399.0, -33440.11, -0.0002311336, 0.13674508, -1016801.9, 14983.698, 0.0, 10.000664, 9.998692 
7.4502814e+2, 2.0471595e+2, -944591.5, -1100992.8, -21236.672, -0.0043413322, 0.15105909, -941759.2, -7961.117, 0.0, 10.000611, 9.998535 
7.450367e+2, 2.147147e+2, -867679.56, -1011592.2, -22987.494, -0.037773345, 0.16946931, -864096.94, -28285.863, 0.0, 10.00046, 9.998549 
7.4504554e+2, 2.2471324e+2, -796126.6, -946260.06, -33937.96, -0.03915188, 0.17749782, -788811.3, -50984.746, 0.0, 10.000362, 9.998372 
7.450545e+2, 2.3471153e+2, -702620.8, -848668.56, -32072.33, -0.005736179, 0.16688336, -695888.06, -56043.066, 0.0, 10.000325, 9.998387 
7.4506325e+2, 2.4471007e+2, -600353.4, -734190.25, -32107.232, 0.0047996244, 0.17668001, -593049.5, -51189.277, 0.0, 10.000293, 9.998515 
7.4507165e+2, 2.5470892e+2, -504217.94, -634340.0, -32456.082, -0.010807256, 0.20447661, -496571.78, -52700.082, 0.0, 10.000268, 9.998539 
7.4508023e+2, 2.6470762e+2, -421348.9, -535754.25, -25179.436, -0.028297488, 0.21932575, -416052.38, -70167.86, 0.0, 10.000131, 9.9986105 
7.45089e+2, 2.7470618e+2, -358709.28, -452451.6, -32992.1, -0.045964766, 0.21115819, -348262.16, -100363.11, 0.0, 9.999878, 9.998631 
7.4509794e+2, 2.8470463e+2, -262277.38, -350323.4, -33002.324, -0.03594581, 0.19131885, -251280.6, -101366.26, 0.0, 9.9998455, 9.998674 
7.4510723e+2, 2.94703e+2, -133399.92, -237362.64, -23366.826, 0.0015225508, 0.15931992, -128389.43, -76459.71, 0.0, 10.000056, 9.998675 
7.45116e+2, 3.0470255e+2, -42348.273, -96332.93, -13858.786, -0.031374093, 0.21605858, -38998.36, -38998.36, 0.0000000015345106, 10.000037, 9.99932 
7.451252e+2, 3.1470162e+2, -54695.363, -61275.34, -8193.837, -0.03309619, 0.18643375, -49155.688, -49155.688, 0.00000026410652, 9.999775, 9.999686 
7.5495553e+2, 1.2471551e+2, -1479936.8, -1668004.1, -90506.516, 0.039591834, 0.15112256, -1443457.0, 274347.88, 0.0, 10.001907, 9.999397 
7.5496507e+2, 1.3471456e+2, -1547703.9, -1717001.5, 47680.418, -0.0424445, 0.17387427, -1535199.0, 84615.4, 0.0, 10.001044, 9.998813 
7.549754e+2, 1.447142e+2, -1472487.5, -1584834.3, -532.58777, -0.019057047, 0.24188812, -1472485.0, 49332.223, 0.0, 10.000701, 9.999207 
7.5498486e+2, 1.547123e+2, -1319970.5, -1458202.1, -10737.772, 0.016268993, 0.12673074, -1319141.4, 104692.83, 0.0, 10.001066, 9.999227 
7.549938e+2, 1.6471098e+2, -1251334.9, -1431195.9, -21639.102, 0.0104259895, 0.09702325, -1248768.1, 77078.53, 0.0, 10.001109, 9.998718 
7.5500244e+2, 1.7471029e+2, -1200816.6, -1356731.4, -27633.254, -0.010284205, 0.154706, -1196064.0, 31790.34, 0.0, 10.000786, 9.998713 
7.5501114e+2, 1.8470928e+2, -1120563.1, -1258267.3, -36575.063, -0.019408755, 0.17865773, -1111451.5, 18412.793, 0.0, 10.000624, 9.998794 
7.550198e+2, 1.947079e+2, -1015837.5, -1155127.9, -31938.916, -0.024721054, 0.15947203, -1008863.2, 23013.404, 0.0, 10.000662, 9.998811 
7.5502855e+2, 2.0470637e+2, -948433.56, -1108744.1, -27431.18, -0.021462575, 0.14182366, -943869.6, -9978.078, 0.0, 10.000609, 9.998484 
7.5503755e+2, 2.1470463e+2, -871589.56, -1019690.3, -28912.658, -0.0051147374, 0.11832635, -866145.3, -30235.744, 0.0, 10.000459, 9.998494 
7.550462e+2, 2.2470333e+2, -792270.4, -937825.4, -35961.293, -0.007953151, 0.14126563, -783870.44, -45946.555, 0.0, 10.0003605, 9.998431 
7.5505453e+2, 2.3470248e+2, -698816.25, -840248.75, -33441.137, -0.032838993, 0.2106873, -691307.9, -51373.844, 0.0, 10.000323, 9.998446 
7.550631e+2, 2.4470112e+2, -600507.8, -734171.4, -33214.93, -0.035679355, 0.22685757, -592709.06, -50760.863, 0.0, 10.000291, 9.998516 
7.550719e+2, 2.5469917e+2, -504470.44, -634895.8, -33180.008, -0.013408937, 0.17695035, -496514.78, -52548.027, 0.0, 10.000268, 9.998536 
7.550805e+2, 2.6469755e+2, -435535.06, -565090.6, -34542.57, -0.011463924, 0.16962314, -426900.66, -80917.75, 0.0, 10.00013, 9.998409 
7.55089e+2, 2.746963e+2, -373426.94, -482198.0, -41545.348, -0.031461187, 0.20080091, -359374.16, -111377.57, 0.0, 9.999874, 9.998428 
7.5509787e+2, 2.8469497e+2, -246179.6, -316150.4, -24916.65, -0.031144183, 0.20475571, -238213.66, -88204.15, 0.0, 9.999842, 9.998912 
7.5510716e+2, 2.9469374e+2, -116958.44, -201999.58, -14543.298, -0.011406609, 0.18105352, -114540.09, -62519.438, 0.0, 10.000051, 9.998921 
7.5511587e+2, 3.0469334e+2, -74926.914, -163096.84, -23221.783, -0.044498216, 0.25493422, -69184.83, -69184.83, 0.00000000001992495, 10.000033, 9.998863 
7.5512505e+2, 3.146913e+2, -77537.08, -106471.13, -18571.678, -0.02322271, 0.1631157, -68462.61, -68462.61, 0.000000109993245, 9.999766, 9.99938 
7.649567e+2, 1.24706246e+2, -1556454.8, -1694137.9, -71555.695, -0.0009154814, 0.13695934, -1526002.0, 191893.13, 0.0, 10.001333, 9.999496 
7.649664e+2, 1.3470545e+2, -1468065.8, -1674248.0, 54560.934, -0.03479147, 0.1727042, -1454517.9, 165384.73, 0.0, 10.001574, 9.998852 
7.649768e+2, 1.44705e+2, -1373999.8, -1558114.4, 14933.238, 0.019096661, 0.23609643, -1372796.5, 149110.1, 0.0, 10.001466, 9.999022 
7.649858e+2, 1.5470286e+2, -1332727.3, -1486603.6, -7857.1284, 0.0035520883, 0.11617368, -1332327.0, 91599.59, 0.0, 10.001073, 9.999029 
7.649945e+2, 1.6470149e+2, -1278417.5, -1436745.4, -21701.484, -0.015069639, 0.088269114, -1275496.9, 50442.938, 0.0, 10.000889, 9.998787 
7.650034e+2, 1.7470098e+2, -1171541.8, -1333943.6, -10385.692, -0.007886101, 0.15624312, -1170880.4, 57065.137, 0.0, 10.000949, 9.998791 
7.65012e+2, 1.8469995e+2, -1084286.8, -1247580.4, -13234.034, -0.008016522, 0.17978302, -1083221.1, 46734.01, 0.0, 10.000902, 9.9987335 
7.6502043e+2, 1.946984e+2, -1010531.56, -1160013.9, -22555.574, -0.025297636, 0.14684926, -1007202.25, 24767.244, 0.0, 10.00073, 9.998745 
7.6502913e+2, 2.046968e+2, -957517.4, -1117937.1, -27076.88, -0.024799403, 0.12989806, -953070.44, -19085.19, 0.0, 10.000567, 9.998441 
7.6503795e+2, 2.146952e+2, -881205.0, -1029158.94, -28366.088, -0.0019031076, 0.124010555, -875953.06, -39950.59, 0.0, 10.000414, 9.99845 
7.650466e+2, 2.2469398e+2, -785814.1, -922682.1, -27451.285, -0.004896017, 0.1529135, -780513.56, -42497.703, 0.0, 10.000355, 9.998538 
7.650548e+2, 2.3469317e+2, -680288.5, -819283.5, -21725.809, -0.037724786, 0.21491623, -676971.75, -36946.773, 0.0, 10.000399, 9.998553 
7.6506335e+2, 2.4469176e+2, -598630.25, -744802.5, -26007.018, -0.043617368, 0.22532116, -594141.0, -52101.367, 0.0, 10.000354, 9.998413 
7.650721e+2, 2.5468966e+2, -519718.63, -654477.9, -34616.63, -0.019535145, 0.17114715, -511346.5, -67286.125, 0.0, 10.0002165, 9.998426 
7.6508063e+2, 2.6468807e+2, -432270.34, -554223.7, -32740.283, -0.014139907, 0.16983701, -424036.6, -77960.305, 0.0, 10.0001135, 9.998491 
7.65089e+2, 2.746871e+2, -343205.6, -457776.9, -19258.047, -0.028107548, 0.21808517, -340055.2, -91968.164, 0.0, 10.000039, 9.998516 
7.650978e+2, 2.8468576e+2, -239811.06, -315151.13, 6191.137, -0.024667533, 0.2155379, -239305.69, -89205.71, 0.0, 9.999894, 9.998894 
7.6510704e+2, 2.9468414e+2, -170469.02, -230431.45, -3604.9688, -0.0058708945, 0.15979421, -170253.06, -118138.63, 0.0, 9.999694, 9.998898 
7.6511574e+2, 3.046839e+2, -124550.4, -195701.9, -8895.484, -0.043409858, 0.25117028, -123455.13, -123455.13, 0.0, 9.999729, 9.998785 
7.651249e+2, 3.1468198e+2, -32067.469, -66891.9, 21848.418, -0.02414007, 0.17728224, -21541.563, -21541.563, 0.000000028836135, 10.0, 9.999539 
7.749574e+2, 1.2469791e+2, -1547967.1, -1673778.3, -48675.277, -0.0710347, 0.19117932, -1531334.0, 186642.36, 0.00000000003061157, 10.001322, 9.999642 
7.749683e+2, 1.3469586e+2, -1461682.0, -1660643.4, 62820.8, -0.0038473862, 0.092598215, -1443507.0, 176487.28, 0.0, 10.001574, 9.998944 
7.74979e+2, 1.446951e+2, -1397621.8, -1608487.5, -648.7276, 0.08720776, 0.13629778, -1397619.8, 124381.914, 0.0, 10.001471, 9.998674 
7.749867e+2, 1.546939e+2, -1358596.4, -1541186.8, -22498.785, -0.010809525, 0.14982045, -1355865.0, 68150.17, 0.0, 10.001076, 9.998653 
7.7499497e+2, 1.6469283e+2, -1258949.3, -1395521.1, -20503.877, -0.056525733, 0.15793477, -1255937.4, 70088.49, 0.0, 10.000886, 9.999071 
7.750042e+2, 1.7469192e+2, -1149607.4, -1288121.1, -8021.1226, -0.014700297, 0.15350457, -1149144.4, 78888.8, 0.0, 10.000948, 9.999105 
7.750131e+2, 1.8469055e+2, -1100458.4, -1280572.6, -19854.4, 0.006629521, 0.1365857, -1098295.8, 31749.943, 0.0, 10.000899, 9.998509 
7.7502143e+2, 1.946887e+2, -1027904.5, -1196025.8, -29078.34, -0.003421961, 0.09922685, -1023017.2, 9046.847, 0.0, 10.000729, 9.998499 
7.750298e+2, 2.046873e+2, -960512.9, -1123358.1, -33584.12, -0.016434329, 0.11509186, -953858.6, -19779.777, 0.0, 10.000565, 9.9984045 
7.750381e+2, 2.1468644e+2, -883852.75, -1034367.25, -34276.945, -0.028330708, 0.18485472, -876414.4, -40324.73, 0.0, 10.000413, 9.998416 
7.750467e+2, 2.2468522e+2, -775390.5, -900791.6, -26522.475, -0.030368743, 0.21088481, -770011.7, -31909.178, 0.0, 10.000353, 9.998689 
7.750554e+2, 2.3468365e+2, -669141.8, -796059.9, -19957.984, -0.022096092, 0.1811025, -666077.4, -25959.828, 0.0, 10.000398, 9.9987135 
7.7506393e+2, 2.4468204e+2, -613375.2, -774626.6, -31372.291, -0.021590093, 0.1735721, -607486.56, -65352.36, 0.0, 10.00035, 9.99821 
7.750722e+2, 2.5468037e+2, -535351.3, -685971.94, -39373.188, -0.030358449, 0.18529576, -525679.9, -81527.29, 0.0, 10.000212, 9.998212 
7.750805e+2, 2.6467922e+2, -408399.84, -503867.03, -35170.992, -0.036577757, 0.21804227, -396841.84, -50677.04, 0.0, 10.000109, 9.998839 
7.750889e+2, 2.746786e+2, -318033.25, -405249.3, -21449.12, -0.037544116, 0.2652549, -313043.7, -64873.445, 0.0, 10.000037, 9.998878 
7.750977e+2, 2.8467694e+2, -256571.19, -349968.56, -1667.3817, -0.019361706, 0.22619452, -256541.42, -106355.89, 0.0, 9.999894, 9.998654 
7.7510697e+2, 2.9467428e+2, -189788.9, -269516.25, -9796.899, 0.015819402, 0.09280109, -188602.72, -136391.63, 0.0, 9.99969, 9.998632 
7.751156e+2, 3.046742e+2, -107026.41, -157681.27, 2149.122, -0.029750178, 0.20287777, -106935.38, -106935.38, 0.0, 9.9997225, 9.99905 
7.751247e+2, 3.146736e+2, 5368.3633, 14069.404, 30761.455, -0.042341705, 0.23392048, 40786.457, 40786.457, 0.0000000029769756, 9.999987, 10.000102 
7.849591e+2, 1.2468888e+2, -1487545.4, -1653629.4, -50687.01, -0.04799117, 0.19523689, -1473298.4, 244766.2, 0.0000000009851104, 10.001775, 9.999562 
7.849696e+2, 1.3468663e+2, -1501952.1, -1693888.9, 28584.91, -0.021886533, 0.08784138, -1497785.4, 122299.6, 0.0, 10.001356, 9.998821 
7.849801e+2, 1.4468578e+2, -1447007.4, -1623464.4, -30790.871, 0.07210677, 0.12617391, -1441788.9, 80304.48, 0.0, 10.001093, 9.9987545 
7.8498775e+2, 1.546849e+2, -1348371.1, -1526594.1, -17852.166, -0.01417516, 0.16201712, -1346600.5, 77503.19, 0.0, 10.001104, 9.99874 
7.84996e+2, 1.6468391e+2, -1229660.8, -1382520.8, -251.8153, -0.05533694, 0.1741866, -1229660.3, 96453.234, 0.0, 10.001092, 9.999062 
7.850052e+2, 1.7468281e+2, -1135967.4, -1283454.8, -12794.211, -0.016798658, 0.15477206, -1134865.6, 93256.78, 0.0, 10.001049, 9.999089 
7.85014e+2, 1.8468139e+2, -1102178.1, -1289955.6, -38657.12, 0.0043341327, 0.13496225, -1094531.3, 35604.63, 0.0, 10.000923, 9.998433 
7.850221e+2, 1.9467956e+2, -1036069.94, -1208287.4, -36141.926, -0.004688994, 0.10853541, -1028792.6, 3361.9106, 0.0, 10.00071, 9.998424 
7.8503025e+2, 2.0467821e+2, -949174.6, -1103801.3, -24003.996, -0.019404626, 0.12670135, -945534.0, -11365.376, 0.0, 10.000583, 9.99853 
7.8503853e+2, 2.146774e+2, -854398.0, -1005796.9, -12751.638, -0.035295352, 0.18911593, -853331.5, -17153.754, 0.0, 10.000553, 9.998545 
7.8504705e+2, 2.2467612e+2, -772772.8, -918371.75, -8697.601, -0.03291166, 0.20897776, -772255.06, -34063.87, 0.0, 10.000453, 9.99852 
7.850559e+2, 2.3467432e+2, -698680.75, -829972.3, -28292.002, -0.01205297, 0.17362562, -692843.6, -52634.05, 0.0, 10.00028, 9.998536 
7.850643e+2, 2.4467272e+2, -631071.44, -767882.1, -41523.926, -0.011180035, 0.17090268, -619454.75, -77228.39, 0.0, 10.000164, 9.998345 
7.850723e+2, 2.5467137e+2, -541239.2, -672634.75, -23605.787, -0.033100944, 0.20000613, -537127.0, -92885.79, 0.0, 10.000102, 9.998356 
7.850805e+2, 2.6467028e+2, -421389.0, -509341.94, -16813.555, -0.04138988, 0.23309459, -418284.44, -72032.12, 0.0, 10.000016, 9.998846 
7.8508896e+2, 2.7466947e+2, -334878.7, -413164.22, -30228.998, -0.032583285, 0.2614115, -324564.9, -76305.375, 0.0, 9.999921, 9.998879 
7.8509766e+2, 2.8466782e+2, -257257.08, -352632.84, -16283.595, -0.0146427695, 0.22116923, -254553.61, -104278.34, 0.0, 9.999899, 9.998633 
7.851068e+2, 2.946653e+2, -155570.11, -255710.48, -7852.303, 0.011034965, 0.10517594, -154958.13, -102658.24, 0.0, 9.999936, 9.998608 
7.851153e+2, 3.046652e+2, -100246.2, -146992.94, 7423.659, -0.03428984, 0.2127444, -99095.6, -99095.6, 0.0, 9.999737, 9.999116 
7.851244e+2, 3.1466454e+2, -70122.99, 16256.428, 16249.72, -0.03507726, 0.22726378, 19212.19, 19212.19, 0.0, 9.999302, 10.000447 
7.94962e+2, 1.2467921e+2, -1509293.0, -1700240.8, -54384.227, 0.059302527, 0.15081209, -1494890.1, 223269.13, 0.0000000034592607, 10.0017805, 9.999241 
7.949703e+2, 1.3467777e+2, -1525787.8, -1743256.8, 11682.625, -0.08952693, 0.1582141, -1525162.0, 95012.6, 0.0, 10.001356, 9.998483 
7.949802e+2, 1.4467707e+2, -1411825.4, -1549620.3, -32431.32, -0.02791363, 0.20683584, -1404574.0, 117607.32, 0.0, 10.001089, 9.999263 
7.949889e+2, 1.5467586e+2, -1310063.8, -1446549.5, -17001.746, -0.010190636, 0.15367568, -1307977.8, 116214.19, 0.0, 10.001102, 9.9992895 
7.949975e+2, 1.6467473e+2, -1251219.1, -1427057.1, -2235.499, -0.0148059875, 0.13728571, -1251190.8, 75011.82, 0.0, 10.00109, 9.998757 
7.950063e+2, 1.746737e+2, -1159817.0, -1333229.4, -14241.207, -0.014231119, 0.15959927, -1158655.3, 69557.7, 0.0, 10.001049, 9.998749 
7.950146e+2, 1.8467249e+2, -1097655.3, -1279893.9, -47071.902, -0.0161082, 0.17403615, -1086214.9, 44010.707, 0.0, 10.00092, 9.998504 
7.950226e+2, 1.9467099e+2, -1030294.8, -1196066.1, -44311.734, -0.030529592, 0.17297427, -1019193.44, 13047.361, 0.0, 10.000709, 9.998508 
7.950307e+2, 2.0466954e+2, -929247.1, -1062002.5, -26012.135, -0.03516623, 0.16355196, -924332.25, 9922.224, 0.0, 10.00058, 9.998817 
7.950392e+2, 2.1466815e+2, -833856.44, -962913.06, -14014.29, -0.024004605, 0.138524, -832352.2, 3914.1306, 0.0, 10.000551, 9.998839 
7.9504764e+2, 2.2466668e+2, -807326.44, -989586.3, -15745.053, -0.014632066, 0.14869423, -805976.25, -67694.66, 0.0, 10.000451, 9.998032 
7.9505616e+2, 2.3466514e+2, -735021.0, -905258.3, -34622.81, -0.008262121, 0.19120318, -728248.8, -87947.88, 0.0, 10.000279, 9.99802 
7.950644e+2, 2.4466379e+2, -598696.2, -700434.7, -43897.926, -0.013005, 0.21581255, -582373.9, -40057.813, 0.0, 10.000162, 9.998809 
7.9507244e+2, 2.5466266e+2, -506455.2, -600365.9, -25474.738, -0.03013721, 0.2163924, -499989.88, -55663.88, 0.0, 10.000101, 9.998853 
7.950806e+2, 2.6466134e+2, -443523.63, -555361.8, -20776.736, -0.03151364, 0.2163283, -439788.56, -93449.94, 0.0, 10.000016, 9.99853 
7.9508907e+2, 2.7465978e+2, -359402.28, -463527.72, -33156.125, -0.0144636845, 0.20504902, -349740.97, -101386.19, 0.0, 9.999918, 9.998536 
7.950976e+2, 2.8465837e+2, -246176.28, -328104.7, -13975.877, -0.010909333, 0.19904049, -243857.8, -93488.695, 0.0, 9.999892, 9.998805 
7.9510635e+2, 2.9465726e+2, -143513.52, -228721.47, -5313.696, -0.024457961, 0.20049083, -143183.42, -90802.91, 0.0, 9.9999275, 9.998797 
7.9511476e+2, 3.0465695e+2, -107241.74, -161195.05, -9106.494, -0.062324747, 0.28487, -105746.164, -105746.164, 0.0, 9.999735, 9.99902 
7.951241e+2, 3.146547e+2, -59482.715, 37951.402, -1179.402, -0.0059577674, 0.14981811, 37965.676, 37965.676, 0.0, 9.999304, 10.000596 
8.049639e+2, 1.2466981e+2, -1519134.1, -1694313.0, -63955.24, 0.07640404, 0.15008023, -1498270.0, 219982.66, 0.0000000057252847, 10.001665, 9.999339 
8.0497164e+2, 1.3466878e+2, -1509770.1, -1725022.5, 19859.266, -0.09405491, 0.18858439, -1507953.3, 112310.79, 0.0, 10.001421, 9.998576 
8.0498135e+2, 1.446681e+2, -1390311.9, -1532000.1, -11378.397, -0.03196774, 0.2304224, -1389404.0, 132866.38, 0.0, 10.001207, 9.999326 
8.0499e+2, 1.5466674e+2, -1302811.1, -1436754.6, -31987.012, -0.013414249, 0.15573722, -1295564.4, 128717.664, 0.0, 10.001124, 9.999347 
8.0499846e+2, 1.6466556e+2, -1265970.5, -1439841.1, -28576.994, -0.016358778, 0.13472247, -1261394.1, 64898.977, 0.0, 10.001014, 9.998707 
8.050072e+2, 1.7466465e+2, -1189240.3, -1353504.6, -20008.24, -0.015879193, 0.17235409, -1186838.3, 41464.992, 0.0, 10.0008745, 9.998693 
8.050155e+2, 1.8466355e+2, -1100878.8, -1262065.5, -37299.883, -0.022161806, 0.19453417, -1092665.8, 37648.883, 0.0, 10.000816, 9.998675 
8.050232e+2, 1.9466221e+2, -996731.2, -1160054.8, -27714.105, -0.04465917, 0.1923952, -992156.56, 40170.836, 0.0, 10.000854, 9.998685 
8.050313e+2, 2.0466074e+2, -902475.6, -1057163.5, -18453.66, -0.04455358, 0.17269191, -900304.6, 34036.383, 0.0, 10.000799, 9.998745 
8.050399e+2, 2.1465904e+2, -826674.0, -967972.75, -35384.797, -0.016268386, 0.12681445, -818308.06, 18047.654, 0.0, 10.000639, 9.998761 
8.050482e+2, 2.2465757e+2, -801147.9, -979931.2, -34767.746, -0.003304136, 0.13622707, -794624.7, -56253.434, 0.0, 10.000464, 9.998091 
8.050564e+2, 2.3465632e+2, -731879.06, -896640.8, -11058.064, -0.007520421, 0.20174588, -731140.2, -90752.42, 0.0, 10.000271, 9.998083 
8.0506456e+2, 2.4465504e+2, -595200.3, -691351.94, -6856.8887, -0.013893292, 0.228577, -594713.75, -52311.984, 0.0, 10.0001545, 9.998875 
8.050726e+2, 2.5465375e+2, -496826.7, -588264.25, -21028.543, -0.023536682, 0.20633739, -492222.47, -47809.74, 0.0, 10.000136, 9.998919 
8.050808e+2, 2.6465237e+2, -439577.84, -564610.5, -26858.541, -0.022613022, 0.20013554, -434052.47, -87626.26, 0.0, 10.000092, 9.99843 
8.0508906e+2, 2.7465084e+2, -353516.34, -472532.03, -22582.527, -0.007904806, 0.20243329, -349375.53, -100932.484, 0.0, 10.00001, 9.998429 
8.0509746e+2, 2.8464955e+2, -253040.39, -323638.75, 920.8289, -0.004832767, 0.20963262, -253028.39, -102571.86, 0.0, 9.999812, 9.998874 
8.051061e+2, 2.946486e+2, -201767.06, -248181.13, 383.65674, -0.017705932, 0.22253746, -201763.89, -149298.28, 0.0, 9.999491, 9.998874 
8.051144e+2, 3.0464804e+2, -161958.39, -212573.75, -8806.8955, -0.05820773, 0.28576827, -160469.8, -160469.8, 0.0, 9.999467, 9.998796 
8.0512357e+2, 3.146456e+2, 6032.7627, 67234.14, -13031.381, -0.0064511085, 0.15591325, 69893.32, 69893.32, 0.0, 9.9997635, 10.000576 
8.149647e+2, 1.2466081e+2, -1482674.8, -1618048.5, -61781.457, -0.0092872735, 0.19976504, -1458718.5, 259625.5, 0.000000004999778, 10.001662, 9.999864 
8.149736e+2, 1.3465971e+2, -1473429.9, -1647951.1, 9810.539, -0.039457962, 0.17932567, -1472880.1, 147472.8, 0.0, 10.001416, 9.999106 
8.149834e+2, 1.4465891e+2, -1416953.0, -1588069.8, -15837.73, 0.056692358, 0.19772862, -1415499.5, 106860.55, 0.0, 10.001208, 9.998942 
8.1499106e+2, 1.5465756e+2, -1331791.6, -1498459.0, -34342.207, -0.023390751, 0.16821434, -1324992.6, 99380.93, 0.0, 10.00113, 9.998922 
8.149991e+2, 1.6465643e+2, -1252221.8, -1411617.9, -34156.38, -0.061057273, 0.16585305, -1245210.9, 81173.984, 0.0, 10.001015, 9.998899 
8.15008e+2, 1.7465563e+2, -1174313.4, -1321377.4, -25179.865, -0.025021259, 0.19162486, -1170121.6, 58271.75, 0.0, 10.00087, 9.998916 
8.150163e+2, 1.846546e+2, -1082175.5, -1222317.1, -36509.03, -0.016855573, 0.19639947, -1073234.8, 57168.035, 0.0, 10.000812, 9.998951 
8.15024e+2, 1.9465329e+2, -977487.8, -1120223.3, -26345.611, -0.047414728, 0.16882199, -972780.3, 59633.43, 0.0, 10.000854, 9.998959 
8.1503206e+2, 2.0465179e+2, -932951.94, -1120105.0, -24961.352, -0.04862986, 0.15508774, -929679.94, 4748.03, 0.0, 10.000798, 9.998314 
8.150405e+2, 2.1465008e+2, -859130.94, -1034713.75, -41538.234, -0.013819746, 0.15229972, -849800.0, -13354.143, 0.0, 10.000636, 9.998305 
8.150487e+2, 2.2464874e+2, -759150.8, -892432.94, -42578.465, -0.00030008407, 0.16990079, -746709.94, -8249.847, 0.0, 10.000463, 9.9986925 
8.150566e+2, 2.3464784e+2, -687046.4, -803710.8, -18294.148, -0.010944896, 0.20553406, -684244.94, -43774.98, 0.0, 10.000271, 9.998721 
8.1506467e+2, 2.446465e+2, -618123.1, -739234.75, -8271.68, -0.0156196505, 0.20974724, -617560.75, -75077.33, 0.0, 10.000155, 9.998547 
8.1507283e+2, 2.546447e+2, -522320.88, -641017.3, -21605.627, -0.013979272, 0.16986914, -518510.47, -74009.266, 0.0, 10.000134, 9.998558 
8.1508094e+2, 2.6464337e+2, -433021.06, -549934.8, -29464.395, -0.014857166, 0.18471439, -426015.28, -79500.4, 0.0, 10.000087, 9.998534 
8.15089e+2, 2.7464265e+2, -345871.28, -455665.47, -24681.21, -0.016758136, 0.25526345, -340578.22, -92054.12, 0.0, 10.000005, 9.998548 
8.1509733e+2, 2.8464133e+2, -253645.52, -325601.84, -11219.92, -0.001393297, 0.2538583, -251936.61, -101399.09, 0.0, 9.999814, 9.99886 
8.1510603e+2, 2.9463938e+2, -202643.39, -251589.14, -11073.886, 0.028826192, 0.16851021, -200254.53, -147699.16, 0.0, 9.999496, 9.998849 
8.151142e+2, 3.0463842e+2, -187173.4, -264057.0, 2754.0442, -0.022851946, 0.21338336, -187074.88, -187074.88, 0.0, 9.999465, 9.998444 
8.1512296e+2, 3.1463718e+2, -9296.773, 38751.957, -2234.2075, -0.04437251, 0.23901169, 38855.62, 38855.62, 0.0000000016901937, 9.99975, 10.000386 
8.249663e+2, 1.2465205e+2, -1503000.1, -1626562.1, -18616.297, -0.007353421, 0.2250254, -1500256.3, 218174.61, 0.0000000017683296, 10.001518, 9.999872 
8.2497495e+2, 1.3465065e+2, -1476149.5, -1647799.5, 1824.0553, -0.03750086, 0.1718687, -1476130.1, 144312.23, 0.0, 10.0013895, 9.999121 
8.2498467e+2, 1.4464974e+2, -1408489.6, -1587408.5, -24871.727, 0.06169465, 0.18135908, -1405096.5, 117353.914, 0.0, 10.001282, 9.998911 
8.249922e+2, 1.5464877e+2, -1311759.5, -1492239.8, -14276.702, -0.021740869, 0.19259645, -1310637.1, 113823.78, 0.0, 10.001284, 9.99889 
8.250001e+2, 1.6464773e+2, -1222215.9, -1388425.6, -7211.2734, -0.063686155, 0.1969591, -1221903.6, 104567.85, 0.0, 10.001184, 9.998976 
8.250088e+2, 1.746467e+2, -1152868.3, -1302621.6, -9114.678, -0.033264052, 0.19237038, -1152315.5, 76165.78, 0.0, 10.00098, 9.998991 
8.2501715e+2, 1.8464558e+2, -1076833.5, -1219861.4, -28863.824, -0.020532489, 0.1845828, -1071228.3, 59262.92, 0.0, 10.000849, 9.998949 
8.2502496e+2, 1.9464436e+2, -984495.1, -1123848.6, -39982.984, -0.036403857, 0.16437232, -973838.25, 58663.41, 0.0, 10.000808, 9.998956 
8.250329e+2, 2.04643e+2, -952300.8, -1125200.4, -40478.992, -0.038675096, 0.16209844, -943293.25, -8778.318, 0.0, 10.000648, 9.998351 
8.2504094e+2, 2.146415e+2, -898112.06, -1049200.8, -20423.873, -0.022008134, 0.17597908, -895399.9, -58868.652, 0.0, 10.00035, 9.998343 
8.25049e+2, 2.2464018e+2, -781175.0, -888135.6, -11758.741, -0.009754242, 0.18803677, -779897.56, -41352.74, 0.0, 10.000247, 9.998826 
8.250571e+2, 2.346391e+2, -663504.5, -776899.56, -25527.54, -0.0034665365, 0.19221863, -658022.75, -17467.447, 0.0, 10.000367, 9.998859 
8.250651e+2, 2.4463776e+2, -595480.8, -732099.06, -27094.076, -0.0030051116, 0.18991783, -590303.7, -47735.164, 0.0, 10.000327, 9.998512 
8.25073e+2, 2.546361e+2, -528561.25, -648252.9, -17176.75, -0.009097757, 0.17222507, -526145.0, -81559.85, 0.0, 10.00011, 9.99852 
8.2508093e+2, 2.6463488e+2, -448116.72, -549361.44, -12589.358, -0.013796193, 0.19545662, -446574.78, -99976.66, 0.0, 9.99995, 9.998603 
8.250889e+2, 2.7463415e+2, -362916.84, -455569.4, -11729.794, -0.015185192, 0.2595089, -361454.94, -112847.945, 0.0, 9.999853, 9.998621 
8.2509726e+2, 2.8463277e+2, -253725.7, -341060.47, -3535.9675, 0.00673829, 0.25453037, -253582.77, -102961.75, 0.0, 9.99988, 9.998722 
8.25106e+2, 2.9463065e+2, -131801.58, -233630.69, -13388.965, 0.05141984, 0.16642159, -130070.555, -77429.625, 0.0, 10.000053, 9.998703 
8.25114e+2, 3.046294e+2, -130521.05, -245887.94, 3631.2576, -0.0061074924, 0.18993132, -130406.87, -130406.87, 0.0, 9.999892, 9.998362 
8.2512236e+2, 3.1462863e+2, -71352.9, 11463.771, 15496.343, -0.058293045, 0.2719194, 14268.408, 14268.408, 0.000000023716037, 9.999312, 10.000408 
8.349686e+2, 1.24643624e+2, -1538565.3, -1701388.5, -14265.746, 0.07234111, 0.2278228, -1537324.8, 181187.55, 0.000000000051048894, 10.00152, 9.999359 
8.3497584e+2, 1.3464165e+2, -1509519.1, -1719159.6, -2773.1912, -0.089461885, 0.16605684, -1509482.5, 111049.23, 0.0, 10.001397, 9.998628 
8.349852e+2, 1.4464067e+2, -1386890.0, -1543317.8, -26300.775, -0.019522162, 0.18052445, -1382586.4, 139954.89, 0.0, 10.001286, 9.999211 
8.349936e+2, 1.546404e+2, -1288342.9, -1441947.1, -14157.267, -0.011110666, 0.22833225, -1287048.9, 137495.11, 0.0, 10.001277, 9.999238 
8.350017e+2, 1.6463952e+2, -1224493.4, -1392931.4, -14792.993, -0.026862372, 0.22945067, -1223204.1, 103348.125, 0.0, 10.001183, 9.998947 
8.350097e+2, 1.7463794e+2, -1155962.1, -1310269.5, -16384.316, -0.041178543, 0.17653593, -1154241.6, 74324.96, 0.0, 10.000985, 9.998937 
8.350178e+2, 1.8463656e+2, -1096580.1, -1260911.3, -31044.428, -0.034793496, 0.15965223, -1090911.0, 39668.574, 0.0, 10.00085, 9.998667 
8.35026e+2, 1.9463542e+2, -1005368.25, -1166085.0, -41652.445, -0.01394824, 0.17720567, -995214.75, 37376.297, 0.0, 10.000803, 9.998668 
8.350338e+2, 2.0463434e+2, -917200.1, -1052054.0, -51991.99, -0.016405275, 0.19252665, -899482.7, 35119.04, 0.0, 10.000645, 9.998855 
8.350411e+2, 2.1463329e+2, -860511.8, -971524.75, -32121.21, -0.041545138, 0.1987064, -851887.6, -15276.09, 0.0, 10.000351, 9.998876 
8.3504903e+2, 2.2463189e+2, -804213.9, -936405.7, -8680.632, -0.0325734, 0.19153093, -803646.3, -65021.082, 0.0, 10.000249, 9.998495 
8.3505756e+2, 2.3463011e+2, -689000.25, -829788.06, -21190.729, 0.013930087, 0.16271041, -685879.9, -45236.465, 0.0, 10.000366, 9.998497 
8.350656e+2, 2.4462882e+2, -577834.56, -695057.7, -35166.434, 0.023182627, 0.16984895, -568094.1, -25437.346, 0.0, 10.000325, 9.998768 
8.350731e+2, 2.5462806e+2, -509703.56, -608351.44, -24934.715, -0.011241028, 0.21253528, -503759.16, -59094.625, 0.0, 10.000107, 9.9987955 
8.350808e+2, 2.6462695e+2, -445738.7, -544735.2, -16687.229, -0.022193167, 0.23116599, -443001.5, -96325.59, 0.0, 9.99995, 9.998635 
8.3508885e+2, 2.7462542e+2, -360791.47, -451768.75, -15408.028, -0.0043316106, 0.2143668, -358252.78, -109561.09, 0.0, 9.999854, 9.998647 
8.350973e+2, 2.8462395e+2, -272875.44, -379809.06, 2955.6174, 0.019589588, 0.21193495, -272793.8, -122086.85, 0.0, 9.999876, 9.998458 
8.351061e+2, 2.946225e+2, -152616.84, -274327.0, -5470.3403, 0.046967775, 0.21823463, -152371.47, -99649.45, 0.0, 10.000043, 9.998428 
8.351139e+2, 3.0462095e+2, -118315.56, -219255.06, -16604.416, -0.011793407, 0.2171181, -115654.32, -115654.32, 0.0, 9.999886, 9.9985485 
8.351217e+2, 3.146198e+2, -54083.87, 46203.758, -6780.8745, -0.05451489, 0.24220206, 46660.164, 46660.164, 0.00000010288848, 9.999316, 10.000646 
8.4497035e+2, 1.2463474e+2, -1486688.6, -1682904.9, -30709.96, 0.0760362, 0.20903976, -1481994.5, 236604.94, 0.0, 10.0019045, 9.9993 
8.4497726e+2, 1.3463321e+2, -1501761.1, -1718134.6, 3684.045, -0.09271602, 0.1946843, -1501698.5, 118916.61, 0.0, 10.001466, 9.9986 
8.449863e+2, 1.4463225e+2, -1404552.9, -1550452.5, -3115.4907, -0.024896702, 0.21162485, -1404486.4, 118138.336, 0.0, 10.00116, 9.999222 
8.4499466e+2, 1.546317e+2, -1317892.4, -1454657.5, -14297.497, -0.01705442, 0.22959194, -1316413.8, 108216.17, 0.0, 10.001068, 9.999251 
8.450028e+2, 1.6463076e+2, -1249134.9, -1400533.8, -27371.16, -0.02747265, 0.22134885, -1244338.4, 82300.19, 0.0, 10.000995, 9.998984 
8.450108e+2, 1.7462935e+2, -1157984.1, -1306745.1, -23393.855, -0.032258973, 0.18193068, -1154392.0, 74259.09, 0.0, 10.000952, 9.998977 
8.4501874e+2, 1.8462805e+2, -1096178.8, -1262210.1, -23631.148, -0.026801284, 0.17100583, -1092880.9, 37782.473, 0.0, 10.000857, 9.998654 
8.450267e+2, 1.9462688e+2, -1021329.44, -1175182.8, -13281.665, -0.018809775, 0.18639481, -1020191.3, 12484.011, 0.0, 10.000698, 9.998656 
8.4503436e+2, 2.0462574e+2, -916847.44, -1049386.4, -29895.34, -0.021167777, 0.19750145, -910416.3, 24270.156, 0.0, 10.000636, 9.998877 
8.450417e+2, 2.1462464e+2, -809574.06, -944341.56, -48555.477, -0.031512704, 0.19585635, -793902.4, 42794.348, 0.0, 10.0006895, 9.998899 
8.450495e+2, 2.246233e+2, -756495.1, -909841.9, -31090.531, -0.021796102, 0.18986577, -750431.4, -11721.432, 0.0, 10.000562, 9.998525 
8.450578e+2, 2.3462167e+2, -706481.56, -834851.5, -15120.809, 0.009186557, 0.17349577, -704724.56, -63998.113, 0.0, 10.000232, 9.998527 
8.450657e+2, 2.4462043e+2, -618451.94, -713016.1, -23314.27, 0.016815687, 0.18429762, -613016.4, -70277.21, 0.0, 10.00004, 9.998781 
8.450732e+2, 2.546196e+2, -523498.56, -613642.0, -33575.973, -0.002956865, 0.21963762, -512367.03, -67619.39, 0.0, 10.000007, 9.998807 
8.450809e+2, 2.6461837e+2, -441448.22, -543601.06, -33557.27, -0.0073043564, 0.22754496, -431410.88, -84650.75, 0.0, 9.999985, 9.998626 
8.450889e+2, 2.7461672e+2, -342120.28, -443839.97, -35571.47, 0.0077360244, 0.1976393, -330915.22, -82137.945, 0.0, 9.999989, 9.998635 
8.450972e+2, 2.846155e+2, -261384.98, -361301.66, -4713.1187, 0.022757107, 0.21146788, -261163.16, -110372.63, 0.0, 9.9999, 9.998572 
8.4510577e+2, 2.9461458e+2, -197826.08, -282300.34, 15243.692, 0.036047425, 0.26530594, -195159.47, -142359.63, 0.0, 9.999674, 9.99855 
8.451136e+2, 3.0461276e+2, -162610.64, -242277.08, 5450.4453, -0.013591242, 0.2305033, -162239.48, -162239.48, 0.00000000024035085, 9.999589, 9.998532 
8.451215e+2, 3.1461135e+2, -6178.9365, 62175.875, -4640.737, -0.026122503, 0.22875479, 62489.508, 62489.508, 0.00000026211356, 9.999676, 10.000583 
8.549714e+2, 1.2462548e+2, -1459595.0, -1627622.4, -38995.566, -0.010566562, 0.17007655, -1450986.0, 267705.47, 0.0, 10.001908, 9.999678 
8.5497916e+2, 1.3462538e+2, -1473642.0, -1658926.4, -13611.509, -0.047040652, 0.25902504, -1472647.4, 148044.63, 0.0, 10.001462, 9.999007 
8.5498816e+2, 1.4462455e+2, -1422590.8, -1587949.1, -7761.559, 0.044500194, 0.2771925, -1422227.3, 100473.05, 0.0, 10.001158, 9.998966 
8.5499555e+2, 1.5462273e+2, -1337603.3, -1497590.8, -16865.713, -0.04207299, 0.19762915, -1335844.6, 88873.61, 0.0, 10.001075, 9.998954 
8.5500336e+2, 1.6462147e+2, -1242541.6, -1387479.0, -29230.926, -0.06877905, 0.17209683, -1236868.4, 89861.805, 0.0, 10.000998, 9.999073 
8.5501194e+2, 1.7462093e+2, -1150330.5, -1289982.4, -24959.143, -0.0075085335, 0.20712599, -1146003.8, 82730.83, 0.0, 10.000948, 9.999093 
8.550199e+2, 1.8462004e+2, -1077826.3, -1223572.9, -29793.38, 0.0022596756, 0.21822396, -1071971.1, 58771.22, 0.0, 10.0008545, 9.998921 
8.55027e+2, 1.9461875e+2, -1002196.9, -1135865.1, -19576.785, -0.051804125, 0.19342503, -999388.7, 33365.445, 0.0, 10.000699, 9.998925 
8.5503465e+2, 2.0461726e+2, -948374.94, -1114743.6, -29038.01, -0.053880535, 0.1780008, -943452.3, -8683.582, 0.0, 10.000636, 9.998429 
8.550428e+2, 2.146156e+2, -843370.25, -1013936.6, -46848.68, 0.0061679324, 0.16796032, -831349.7, 5436.7847, 0.0, 10.000687, 9.998424 
8.550505e+2, 2.2461441e+2, -729868.56, -854547.94, -43825.18, 0.020886522, 0.18350528, -716005.4, 22793.252, 0.0, 10.000561, 9.998905 
8.550578e+2, 2.3461376e+2, -677159.94, -774118.7, -27608.088, -0.018519357, 0.22289295, -669849.94, -29045.744, 0.0, 10.000232, 9.998943 
8.5506535e+2, 2.4461259e+2, -634641.1, -747104.06, -25336.594, -0.022956481, 0.231478, -629196.7, -86381.04, 0.0, 10.000041, 9.998548 
8.5507345e+2, 2.546108e+2, -541160.8, -650858.2, -34842.285, 0.014465988, 0.19513234, -531029.75, -86195.59, 0.0, 10.000009, 9.998551 
8.550813e+2, 2.6460928e+2, -444770.1, -550796.25, -33673.547, 0.030061409, 0.18725054, -434979.56, -88129.29, 0.0, 9.999985, 9.998576 
8.55089e+2, 2.746081e+2, -346043.75, -451106.3, -34516.582, 0.019018013, 0.20939733, -335718.6, -86855.17, 0.0, 9.999985, 9.998588 
8.55097e+2, 2.8460732e+2, -228883.25, -293042.1, -12292.035, 0.014043868, 0.25214565, -226608.88, -75737.26, 0.0, 9.999896, 9.999043 
8.551053e+2, 2.9460695e+2, -162980.75, -209467.34, 7138.125, 0.015351577, 0.30585817, -161909.36, -109034.664, 0.0, 9.999671, 9.999053 
8.5511315e+2, 3.0460486e+2, -177864.13, -272894.63, 8146.818, -0.013913338, 0.2285468, -177170.77, -177170.77, 0.0000000059514194, 9.999584, 9.998324 
8.551217e+2, 3.1460312e+2, -30848.697, 12746.386, -1450.5828, 0.022654641, 0.22024436, 12794.599, 12794.599, 0.0000005093443, 9.999668, 10.000246 
8.6497283e+2, 1.246169e+2, -1533803.5, -1660417.6, -21417.404, -0.033917293, 0.18146248, -1530278.8, 188497.61, 0.00000000000000000000885557, 10.001388, 9.999702 
8.6498076e+2, 1.3461675e+2, -1445696.0, -1638525.9, -29353.004, -0.03696822, 0.25804543, -1441326.9, 179450.22, 0.0, 10.001624, 9.999069 
8.649897e+2, 1.4461584e+2, -1366598.9, -1561709.6, -32718.715, 0.06251062, 0.26740214, -1361258.3, 161527.44, 0.0, 10.001546, 9.998959 
8.6499673e+2, 1.5461412e+2, -1328247.5, -1494252.8, -21997.01, -0.036031716, 0.1986704, -1325382.3, 99420.65, 0.0, 10.001144, 9.998943 
8.6500436e+2, 1.6461293e+2, -1248203.0, -1386881.0, -16240.799, -0.0692253, 0.17887716, -1246326.4, 80487.84, 0.0, 10.000942, 9.9991045 
8.650129e+2, 1.7461245e+2, -1144402.0, -1282692.9, -16654.102, -0.010201058, 0.21538444, -1142424.6, 86393.54, 0.0, 10.000969, 9.999133 
8.6502075e+2, 1.8461159e+2, -1069246.5, -1212302.9, -37293.46, 0.00022702836, 0.22353682, -1060108.3, 70717.32, 0.0, 10.000883, 9.998985 
8.650278e+2, 1.9461024e+2, -1002291.4, -1128954.6, -43395.016, -0.049291726, 0.18960728, -988850.5, 43986.816, 0.0, 10.000669, 9.998988 
8.650353e+2, 2.046088e+2, -959269.4, -1122712.0, -36862.72, -0.050355904, 0.17358312, -951340.06, -16488.39, 0.0, 10.000572, 9.998405 
8.650434e+2, 2.1460721e+2, -856235.1, -1023316.9, -21157.955, 0.005159966, 0.17451477, -853597.5, -16728.627, 0.0, 10.000611, 9.998396 
8.6505103e+2, 2.2460604e+2, -736964.4, -860413.9, -26794.756, 0.01856081, 0.19432296, -731399.44, 7481.5796, 0.0, 10.000524, 9.998883 
8.6505806e+2, 2.346053e+2, -670882.3, -773271.56, -44550.527, -0.017390681, 0.22811678, -654212.06, -13324.76, 0.0, 10.000285, 9.998922 
8.650655e+2, 2.4460405e+2, -621538.8, -742657.3, -41718.19, -0.02078116, 0.22991382, -608560.1, -65660.555, 0.0, 10.00014, 9.99853 
8.6507344e+2, 2.5460216e+2, -527111.75, -646203.5, -33820.277, 0.013693995, 0.18684188, -518177.53, -73258.62, 0.0, 10.000114, 9.998532 
8.650813e+2, 2.646007e+2, -427070.97, -536094.2, -20092.033, 0.028606342, 0.18408215, -423486.06, -76551.75, 0.0, 10.000082, 9.99863 
8.6508906e+2, 2.745998e+2, -336174.25, -440220.9, -14191.785, 0.021230007, 0.22519484, -334273.25, -85328.195, 0.0, 10.000027, 9.998642 
8.650969e+2, 2.8459904e+2, -239928.38, -296076.38, -13328.634, 0.01933696, 0.26701525, -236925.02, -85972.055, 0.0, 9.99981, 9.9990635 
8.6510485e+2, 2.9459843e+2, -198119.4, -223928.86, -30516.033, 0.02155952, 0.29544178, -177891.67, -124933.23, 0.0, 9.999419, 9.999074 
8.651127e+2, 3.0459625e+2, -190221.78, -254679.39, -13132.467, -0.0075699096, 0.19720122, -187648.89, -187648.89, 0.000000027135602, 9.999395, 9.998541 
8.651214e+2, 3.1459537e+2, -13651.789, 29334.895, 9502.23, 0.02397188, 0.25152427, 31341.684, 31341.684, 0.00000083365, 9.999749, 10.000321 
8.7497455e+2, 1.2460907e+2, -1556495.4, -1706663.8, -9110.593, -0.0030566675, 0.24658939, -1555944.8, 162908.67, 0.0000000055054987, 10.001383, 9.999388 
8.749821e+2, 1.3460733e+2, -1464131.4, -1677342.0, -20261.422, -0.06730511, 0.19083183, -1462223.0, 158646.78, 0.0, 10.001626, 9.998802 
8.749908e+2, 1.4460617e+2, -1351247.3, -1530830.1, -47479.375, 0.023455745, 0.18019341, -1339467.1, 183413.83, 0.0, 10.00155, 9.999169 
8.749982e+2, 1.5460591e+2, -1310621.4, -1457857.4, -36945.98, 0.0014938248, 0.23260488, -1301870.6, 123013.06, 0.0, 10.001144, 9.999193 
8.7500566e+2, 1.6460519e+2, -1248481.8, -1387580.5, -16457.727, -0.028428838, 0.24342899, -1246561.0, 80329.52, 0.0, 10.000942, 9.999101 
8.7501353e+2, 1.7460394e+2, -1145715.5, -1286065.3, -15627.807, -0.04251062, 0.20810232, -1143996.4, 84904.9, 0.0, 10.000972, 9.999109 
8.750213e+2, 1.8460271e+2, -1079314.0, -1233009.4, -45567.27, -0.035722073, 0.1875176, -1066819.9, 64092.543, 0.0, 10.000882, 9.998844 
8.750288e+2, 1.9460145e+2, -1012469.75, -1149878.4, -51680.03, -0.012768678, 0.17470789, -995202.5, 37721.895, 0.0, 10.000668, 9.998845 
8.7503624e+2, 2.0460035e+2, -931991.5, -1065855.5, -36516.04, -0.012073751, 0.1839943, -922678.44, 12256.61, 0.0, 10.000571, 9.998796 
8.750436e+2, 2.1459949e+2, -827298.3, -962782.44, -20146.953, -0.03507882, 0.21466912, -824365.9, 12577.951, 0.0, 10.000609, 9.998813 
8.750511e+2, 2.2459818e+2, -766663.8, -921961.4, -36220.41, -0.029163973, 0.22139035, -758631.5, -19674.514, 0.0, 10.000522, 9.998462 
8.750586e+2, 2.3459637e+2, -702561.06, -839492.44, -53585.348, 0.011167375, 0.19136082, -684084.6, -43109.234, 0.0, 10.000286, 9.998468 
8.7506604e+2, 2.4459486e+2, -607466.44, -714190.06, -43462.754, 0.021257954, 0.18278614, -592006.06, -49015.613, 0.0, 10.000142, 9.998725 
8.750734e+2, 2.5459373e+2, -511952.88, -614671.94, -34322.773, -0.006162646, 0.19383755, -501539.78, -56538.125, 0.0, 10.0001135, 9.998749 
8.75081e+2, 2.645927e+2, -417541.06, -516039.78, -21602.266, -0.0117724575, 0.21571611, -413011.63, -65999.33, 0.0, 10.000079, 9.998769 
8.75089e+2, 2.745918e+2, -326248.78, -419076.63, -15673.486, 0.011812626, 0.24460614, -323673.8, -74651.64, 0.0, 10.000023, 9.998789 
8.7509686e+2, 2.8459063e+2, -269136.94, -356737.7, -27860.205, 0.03556134, 0.2577042, -261027.17, -109992.76, 0.0, 9.99981, 9.998648 
8.751046e+2, 2.945891e+2, -228632.5, -287892.34, -44088.914, 0.053744316, 0.23618113, -205142.14, -152091.58, 0.0, 9.999422, 9.998633 
8.7511224e+2, 3.0458698e+2, -147529.2, -165195.33, 572.3589, 0.0055989125, 0.13785484, -147510.67, -147510.67, 0.00000006425192, 9.9993925, 9.999156 
8.751206e+2, 3.1458792e+2, 18059.188, 99013.25, 23504.494, -0.028337926, 0.31003535, 105342.75, 105342.75, 0.0000011924308, 9.999734, 10.000807 
8.849763e+2, 1.2460101e+2, -1477054.6, -1676928.3, 12518.053, 0.012780809, 0.25881904, -1476273.8, 242658.64, 0.00000006865042, 10.001966, 9.999311 
8.849835e+2, 1.3459899e+2, -1509533.6, -1703577.1, 11995.468, -0.08033375, 0.17816524, -1508794.9, 112156.43, 0.0, 10.001333, 9.998764 
8.84992e+2, 1.4459775e+2, -1416418.0, -1564473.5, -8233.43, 0.0038220976, 0.16234203, -1415961.5, 107001.75, 0.0, 10.001111, 9.99915 
8.849996e+2, 1.5459773e+2, -1272194.8, -1440655.3, -16403.713, 0.011631663, 0.24098225, -1270612.4, 154351.44, 0.0, 10.001415, 9.999181 
8.8500696e+2, 1.64597e+2, -1199032.8, -1372465.3, -16041.606, -0.011739041, 0.2567261, -1197561.5, 129409.17, 0.0, 10.001321, 9.999021 
8.8501436e+2, 1.7459546e+2, -1183217.6, -1314381.0, -21727.822, -0.046042025, 0.20041037, -1179712.0, 49272.426, 0.0, 10.000757, 9.999019 
8.850219e+2, 1.8459414e+2, -1128076.6, -1254987.3, -38786.477, -0.04059528, 0.174878, -1117161.5, 13834.976, 0.0, 10.00054, 9.998858 
8.850296e+2, 1.9459304e+2, -1002002.06, -1142293.9, -32588.252, 0.0003638223, 0.17748326, -994801.75, 38205.004, 0.0, 10.000729, 9.998868 
8.85037e+2, 2.0459205e+2, -914736.6, -1048799.3, -27475.258, 0.0010260975, 0.19212002, -909324.3, 25691.9, 0.0, 10.000652, 9.998874 
8.850439e+2, 2.145912e+2, -871823.9, -975223.2, -37008.605, -0.042117275, 0.21468101, -859942.94, -22918.303, 0.0, 10.000266, 9.998892 
8.8505125e+2, 2.2458981e+2, -819295.2, -950685.2, -44757.453, -0.04090678, 0.21073818, -805497.6, -66459.21, 0.0, 10.000175, 9.998432 
8.8505894e+2, 2.3458785e+2, -683035.6, -834317.3, -31767.148, 0.011211012, 0.16932538, -676635.7, -35577.285, 0.0, 10.000438, 9.998431 
8.8506633e+2, 2.4458642e+2, -559240.7, -689917.1, -17637.46, 0.022352079, 0.1705443, -556902.0, -13829.117, 0.0, 10.00047, 9.9987335 
8.850734e+2, 2.5458565e+2, -494090.16, -604641.6, -24928.35, -0.01591836, 0.2146735, -488729.03, -43648.08, 0.0, 10.000231, 9.998761 
8.850809e+2, 2.645846e+2, -436294.63, -523972.5, -26255.982, -0.023610236, 0.23318367, -429033.38, -81941.64, 0.0, 9.999946, 9.998779 
8.8508874e+2, 2.7458325e+2, -385530.44, -446445.28, -30854.738, 0.0067928853, 0.21712321, -372632.7, -123527.11, 0.0, 9.999612, 9.998799 
8.8509655e+2, 2.8458202e+2, -297185.34, -378104.75, -27358.064, 0.033312168, 0.2277455, -288803.97, -137685.69, 0.0, 9.999653, 9.998576 
8.8510436e+2, 2.945809e+2, -132161.2, -249877.8, -17181.805, 0.051544428, 0.2535928, -129704.63, -76573.83, 0.0, 10.00012, 9.998558 
8.8511187e+2, 3.0457872e+2, -68966.14, -117314.695, 8605.813, 0.007384724, 0.15177137, -67480.02, -67480.02, 0.00000010587227, 9.999887, 9.999247 
8.8511986e+2, 3.1457955e+2, -123695.71, 19191.38, -13076.264, -0.026860842, 0.30107394, 20378.191, 20378.191, 0.0000015115112, 9.998811, 10.000702 
8.9497817e+2, 1.2459274e+2, -1466693.6, -1655533.0, -7225.3403, -0.0029774737, 0.21610495, -1466417.5, 252595.53, 0.00000033535434, 10.001966, 9.999458 
8.9498484e+2, 1.3459176e+2, -1497576.4, -1678999.5, -11970.275, -0.07482487, 0.22209439, -1496790.0, 124231.24, 0.00000000007521531, 10.001334, 9.998932 
8.949931e+2, 1.4459062e+2, -1431651.6, -1597654.0, 201.26567, 0.005044274, 0.21782187, -1431651.4, 91380.664, 0.0, 10.001117, 9.99892 
8.950008e+2, 1.5458962e+2, -1290045.8, -1477795.1, -4963.8022, -0.009562471, 0.2243696, -1289914.5, 135128.08, 0.0, 10.001415, 9.998926 
8.950082e+2, 1.6458844e+2, -1211202.3, -1397715.0, -36050.51, -0.024158606, 0.2177732, -1204476.6, 122577.664, 0.0, 10.001321, 9.998848 
8.9501536e+2, 1.7458706e+2, -1194278.4, -1337838.8, -42856.297, -0.021852253, 0.19166762, -1182458.0, 46609.09, 0.0, 10.000759, 9.998857 
8.950227e+2, 1.8458594e+2, -1116160.0, -1230642.9, -33515.043, -0.015748894, 0.18608485, -1107070.1, 24006.967, 0.0, 10.000541, 9.999025 
8.950302e+2, 1.9458511e+2, -989170.94, -1115623.3, -25921.74, -0.010531843, 0.19822375, -984063.5, 49020.41, 0.0, 10.000728, 9.999051 
8.950375e+2, 2.0458397e+2, -931240.75, -1083006.1, -42270.82, -0.011739639, 0.19804755, -920261.44, 14833.413, 0.0, 10.000651, 9.99864 
8.950445e+2, 2.145824e+2, -889380.75, -1011925.6, -52093.574, -0.01801411, 0.17576648, -870229.0, -33118.184, 0.0, 10.000266, 9.99864 
8.950517e+2, 2.2458097e+2, -794703.7, -899756.5, -36651.758, -0.019527525, 0.16418967, -783180.3, -44055.45, 0.0, 10.000175, 9.998782 
8.9505917e+2, 2.3457977e+2, -657169.06, -780147.25, -21887.764, -0.017304683, 0.16107571, -653389.56, -12253.207, 0.0, 10.000436, 9.998804 
8.9506644e+2, 2.4457873e+2, -572279.44, -716617.2, -26131.066, -0.017051142, 0.1909361, -567694.3, -24547.387, 0.0, 10.000467, 9.998551 
8.9507365e+2, 2.545779e+2, -508241.06, -633721.8, -33483.496, -0.017551035, 0.249262, -499865.34, -54708.734, 0.0, 10.000229, 9.998563 
8.950809e+2, 2.645764e+2, -444025.44, -540222.7, -39012.8, -0.010092844, 0.23867778, -430192.84, -83020.55, 0.0, 9.999947, 9.998668 
8.950883e+2, 2.7457416e+2, -393191.4, -462991.44, -42863.258, 0.006063396, 0.14461118, -372816.9, -123622.1, 0.0, 9.999615, 9.998685 
8.9509606e+2, 2.8457326e+2, -279520.38, -341813.38, -9975.667, 0.013701856, 0.17746916, -277961.88, -126757.54, 0.0, 9.999654, 9.998825 
8.9510405e+2, 2.9457375e+2, -114289.71, -210850.28, 1903.7871, 0.011383995, 0.34468645, -114252.19, -61052.707, 0.0, 10.000112, 9.998831 
8.951116e+2, 3.045715e+2, -99629.23, -178803.38, -29458.898, -0.0073435353, 0.23651598, -89870.96, -89870.96, 0.00000013409642, 9.999879, 9.998829 
8.951192e+2, 3.145702e+2, -169419.16, -76672.13, -52966.434, 0.023597438, 0.21755937, -52647.164, -52647.164, 0.0000016978646, 9.998816, 10.000041 
9.0497977e+2, 1.24584824e+2, -1534647.9, -1687404.1, -11714.013, -0.014549224, 0.2124793, -1533754.8, 185335.77, 0.0000010631732, 10.0014925, 9.999471 
9.049866e+2, 1.34584e+2, -1429919.4, -1639085.1, -27661.238, -0.050458528, 0.2289967, -1426323.1, 194773.38, 0.000000007369457, 10.001767, 9.998998 
9.049947e+2, 1.4458282e+2, -1359394.6, -1574116.1, -12277.281, 0.028532302, 0.22092222, -1358695.0, 164412.77, 0.0, 10.001664, 9.998817 
9.050019e+2, 1.545816e+2, -1341827.0, -1515795.5, -8251.42, -0.02205411, 0.21580231, -1341436.5, 83684.52, 0.0, 10.001115, 9.998811 
9.050091e+2, 1.6458032e+2, -1269679.5, -1427422.3, -28259.887, -0.03906889, 0.20658702, -1264769.5, 62364.188, 0.0, 10.000925, 9.998835 
9.050165e+2, 1.7457902e+2, -1132931.4, -1308416.4, -24062.002, -0.0045627076, 0.1895748, -1129691.9, 99453.6, 0.0, 10.0011835, 9.998854 
9.0502375e+2, 1.8457791e+2, -1037044.25, -1194818.9, -14883.735, 0.0038509169, 0.18650018, -1035652.44, 95502.81, 0.0, 10.001096, 9.999002 
9.050308e+2, 1.9457701e+2, -1009942.44, -1128855.9, -23040.252, -0.021771554, 0.19313233, -1005634.4, 27528.498, 0.0, 10.0006, 9.9990225 
9.050379e+2, 2.0457578e+2, -970316.75, -1108090.5, -38912.61, -0.026111873, 0.18890172, -960086.06, -24911.344, 0.0, 10.000411, 9.998584 
9.0504503e+2, 2.1457413e+2, -846453.2, -997888.0, -35352.863, -0.0050925235, 0.16525611, -838606.56, -1414.9617, 0.0, 10.00059, 9.998581 
9.050522e+2, 2.2457278e+2, -739416.3, -863934.2, -20473.277, -0.005136825, 0.1593681, -736136.5, 3068.5344, 0.0, 10.000516, 9.998863 
9.050593e+2, 2.345718e+2, -693278.7, -787675.56, -27514.316, -0.031605717, 0.1696771, -685844.44, -44630.22, 0.0, 10.000146, 9.998892 
9.050665e+2, 2.4457079e+2, -645612.3, -748642.5, -36887.97, -0.036807425, 0.1961065, -633767.1, -90542.85, 0.0, 9.99995, 9.998581 
9.050737e+2, 2.5456974e+2, -545884.6, -648910.9, -28309.994, -0.015983764, 0.23141693, -538618.0, -93382.41, 0.0, 9.999958, 9.998589 
9.0508103e+2, 2.645682e+2, -440404.03, -557411.44, -25268.066, -0.0016080122, 0.22254376, -435180.5, -87928.34, 0.0, 10.000053, 9.998498 
9.0508825e+2, 2.7456608e+2, -312377.3, -444174.56, -34822.13, 0.0046172854, 0.15931994, -303742.7, -54468.074, 0.0, 10.000256, 9.998505 
9.0509576e+2, 2.8456518e+2, -213868.13, -289501.7, -9776.614, 0.0011341282, 0.19512884, -212624.8, -61341.035, 0.0, 10.000014, 9.999011 
9.051035e+2, 2.9456562e+2, -227284.55, -241768.39, -3651.8635, -0.01376327, 0.3325312, -226415.89, -173137.67, 0.0, 9.999235, 9.999041 
9.05111e+2, 3.045633e+2, -214822.73, -251234.14, -26118.82, -0.019411732, 0.21874851, -201190.72, -201190.72, 0.0000001316986, 9.999162, 9.998676 
9.0511876e+2, 3.145621e+2, -36029.883, -56433.395, -31442.037, 0.045536242, 0.22650902, -13175.964, -13175.964, 0.0000016698094, 9.999919, 9.99965 
9.149811e+2, 1.2457734e+2, -1538543.9, -1699137.8, -2074.8188, -0.0304454, 0.2523046, -1538517.1, 180646.83, 0.0000026057617, 10.001507, 9.999384 
9.1498876e+2, 1.345758e+2, -1431995.6, -1642225.9, -17780.06, -0.011970856, 0.19841163, -1430502.5, 190674.03, 0.00000007607973, 10.001761, 9.998979 
9.149968e+2, 1.445744e+2, -1359339.4, -1573417.6, -31578.334, 0.06817245, 0.1699472, -1354778.4, 168411.36, 0.0, 10.001661, 9.998824 
9.15003e+2, 1.5457371e+2, -1340629.3, -1513857.8, -28482.6, -0.02668783, 0.21546218, -1336066.4, 89131.99, 0.0, 10.001117, 9.998823 
9.150099e+2, 1.645727e+2, -1258816.1, -1406660.9, -20938.844, -0.056928378, 0.2258402, -1255907.8, 71300.45, 0.0, 10.000932, 9.998975 
9.150178e+2, 1.7457141e+2, -1122552.9, -1286922.9, -14657.899, 0.0044496963, 0.1952345, -1121256.0, 107963.04, 0.0, 10.001183, 9.9990015 
9.1502494e+2, 1.8457012e+2, -1051937.8, -1225546.3, -33064.25, 0.01625353, 0.17624392, -1045853.8, 85376.664, 0.0, 10.001095, 9.998793 
9.1503125e+2, 1.9456878e+2, -1025980.0, -1162257.9, -42095.137, -0.035135947, 0.1621874, -1014025.8, 19217.344, 0.0, 10.0006, 9.998794 
9.150381e+2, 2.0456755e+2, -963174.56, -1093262.6, -34112.617, -0.0445936, 0.16524783, -954772.06, -19516.744, 0.0, 10.00041, 9.998686 
9.150457e+2, 2.1456644e+2, -838165.94, -980324.6, -29119.36, -0.0034467052, 0.18248941, -832432.44, 4834.347, 0.0, 10.000588, 9.998702 
9.150527e+2, 2.2456525e+2, -752336.56, -890804.25, -34408.77, 0.0023791632, 0.19497739, -744257.5, -4978.638, 0.0, 10.000515, 9.998679 
9.150594e+2, 2.3456395e+2, -706825.7, -816035.56, -41431.344, -0.03340953, 0.19525786, -692886.8, -51595.266, 0.0, 10.000146, 9.998697 
9.1506636e+2, 2.4456263e+2, -629016.4, -714367.4, -37424.082, -0.039998807, 0.18771003, -614931.3, -71626.914, 0.0, 9.99995, 9.9988165 
9.1507375e+2, 2.5456125e+2, -528563.0, -612978.44, -27773.973, -0.011978248, 0.16317476, -520244.6, -74927.05, 0.0, 9.999958, 9.998836 
9.1508114e+2, 2.6455998e+2, -456494.53, -590990.44, -17640.25, 0.0018455089, 0.18474513, -454219.38, -106888.18, 0.0, 10.000053, 9.998268 
9.150884e+2, 2.7455902e+2, -330684.22, -480965.13, -25997.432, -0.00046238973, 0.25779507, -326313.94, -76968.87, 0.0, 10.000249, 9.998256 
9.150956e+2, 2.8455788e+2, -206750.0, -272277.94, -37460.23, -0.008479508, 0.27915463, -189747.05, -38390.434, 0.0, 10.000005, 9.999134 
9.151026e+2, 2.9455653e+2, -217444.19, -220913.16, -32329.707, -0.024779161, 0.22191392, -186802.47, -133436.1, 0.0, 9.999234, 9.999184 
9.151101e+2, 3.045543e+2, -207125.22, -235498.05, 740.27936, -0.028317207, 0.10206431, -207105.92, -207105.92, 0.00000009563079, 9.999161, 9.998785 
9.151186e+2, 3.145552e+2, -45199.332, -72467.72, -650.98334, 0.033559594, 0.31313568, -45183.8, -45183.8, 0.0000014046396, 9.999906, 9.999547 
9.24983e+2, 1.2456944e+2, -1490150.1, -1680752.1, 8577.038, -0.0070228963, 0.23744248, -1489764.9, 229475.66, 0.0000053561066, 10.001864, 9.999335 
9.249904e+2, 1.3456793e+2, -1469776.3, -1661446.8, -8183.948, -0.013594324, 0.18696165, -1469427.5, 151825.9, 0.00000033393198, 10.001507, 9.998969 
9.2499816e+2, 1.4456657e+2, -1406363.5, -1590891.9, -26287.771, 0.059405837, 0.16084187, -1402691.6, 120574.77, 0.0, 10.001317, 9.99887 
9.250044e+2, 1.5456596e+2, -1302485.6, -1489068.1, -21722.201, -0.0108541325, 0.21057922, -1299990.0, 125283.836, 0.0, 10.001354, 9.998878 
9.2501116e+2, 1.64565e+2, -1207082.5, -1375351.4, -5777.7065, -0.03949743, 0.22087643, -1206884.4, 120398.695, 0.0, 10.001264, 9.999028 
9.250188e+2, 1.7456372e+2, -1142913.6, -1291173.8, -6539.392, -0.0035227851, 0.18553494, -1142625.8, 86667.62, 0.0, 10.0010195, 9.999051 
9.250258e+2, 1.8456241e+2, -1091276.9, -1256315.4, -33938.125, 0.003411861, 0.1669788, -1084570.4, 46734.867, 0.0, 10.000876, 9.998687 
9.25032e+2, 1.9456103e+2, -995554.56, -1159705.4, -35878.465, -0.030821744, 0.16054934, -988055.2, 45263.844, 0.0, 10.000863, 9.998683 
9.250387e+2, 2.0455982e+2, -916599.94, -1065760.8, -18230.023, -0.038207144, 0.16831371, -914404.25, 20927.084, 0.0, 10.00071, 9.99873 
9.25046e+2, 2.1455877e+2, -863587.9, -987154.0, -18401.07, -0.012531282, 0.18701528, -860905.8, -23564.166, 0.0, 10.00039, 9.998751 
9.2505306e+2, 2.2455752e+2, -799749.25, -922626.8, -25907.77, -0.0071414793, 0.19701451, -794510.2, -55156.28, 0.0, 10.00023, 9.998598 
9.250597e+2, 2.3455608e+2, -696821.0, -820829.06, -26420.777, -0.025897605, 0.18951273, -691426.5, -50058.047, 0.0, 10.0002575, 9.9986105 
9.250666e+2, 2.4455465e+2, -587714.06, -693966.56, -21652.354, -0.027171379, 0.17694052, -583471.2, -40088.87, 0.0, 10.000232, 9.99882 
9.2507386e+2, 2.5455326e+2, -499205.3, -597880.2, -30263.477, -0.008350222, 0.15213409, -490663.03, -45267.72, 0.0, 10.000155, 9.998844 
9.250811e+2, 2.6455215e+2, -467664.34, -583313.6, -19588.422, -0.0035371887, 0.17871492, -464436.56, -117028.86, 0.0, 9.99992, 9.998385 
9.2508817e+2, 2.745514e+2, -433281.16, -516220.44, -1302.3397, -0.014266926, 0.2624898, -433260.72, -183841.58, 0.0, 9.999485, 9.998382 
9.2509526e+2, 2.8455025e+2, -306037.5, -335687.25, -10527.576, -0.015052184, 0.28256556, -302679.78, -151248.69, 0.0, 9.999391, 9.998994 
9.251023e+2, 2.9454857e+2, -159383.97, -209772.13, -28276.498, -0.00493833, 0.21040621, -146705.88, -93261.125, 0.0, 9.999704, 9.999034 
9.251096e+2, 3.0454654e+2, -130718.945, -151407.17, 10437.791, -0.011799938, 0.095122874, -126367.88, -126367.88, 0.00000004550982, 9.999481, 9.999209 
9.2511755e+2, 3.145479e+2, -216170.0, -124805.67, 34119.32, 0.0025288286, 0.30531287, -113470.4, -113470.4, 0.0000009683944, 9.998602, 9.999815 
9.3498534e+2, 1.24561116e+2, -1493020.5, -1685172.3, -4780.0347, 0.040804688, 0.16178869, -1492901.6, 226418.45, 0.000009830683, 10.001858, 9.999308 
9.349915e+2, 1.3456045e+2, -1470141.3, -1663239.0, -21059.055, -0.056207087, 0.19698375, -1467871.3, 153454.8, 0.0000009955157, 10.001513, 9.998954 
9.34999e+2, 1.445594e+2, -1398060.8, -1577575.4, -26595.063, 0.0012914467, 0.1982573, -1394203.6, 129133.02, 0.00000000002439963, 10.001331, 9.998955 
9.35006e+2, 1.5455842e+2, -1296325.4, -1476135.4, -20422.973, 0.023266222, 0.20254071, -1294034.9, 131312.1, 0.0, 10.001351, 9.998968 
9.350129e+2, 1.645573e+2, -1209866.1, -1380354.9, -14808.693, 0.010403254, 0.19164278, -1208589.4, 118768.2, 0.0, 10.00126, 9.998996 
9.3501955e+2, 1.74556e+2, -1146227.5, -1297704.0, -15706.654, -0.02971597, 0.15994474, -1144616.0, 84752.195, 0.0, 10.001018, 9.999007 
9.350263e+2, 1.8455485e+2, -1092425.6, -1258706.5, -35517.285, -0.036869902, 0.15934609, -1085156.9, 46222.19, 0.0, 10.000875, 9.998672 
9.350331e+2, 1.9455382e+2, -995716.0, -1160491.9, -36802.848, -0.009294081, 0.18825692, -987869.7, 45520.51, 0.0, 10.000864, 9.998678 
9.3503976e+2, 2.0455259e+2, -917129.25, -1067422.9, -30820.068, -0.0074060275, 0.19788927, -911054.7, 24347.768, 0.0, 10.000711, 9.998718 
9.350462e+2, 2.1455117e+2, -865101.3, -989785.2, -30936.31, -0.033945456, 0.17963302, -857847.44, -20431.615, 0.0, 10.000388, 9.998734 
9.35053e+2, 2.245497e+2, -799271.3, -921241.6, -26221.3, -0.036049165, 0.16688052, -793873.1, -54443.29, 0.0, 10.000227, 9.99861 
9.350601e+2, 2.345482e+2, -696116.44, -819258.8, -25522.684, -0.00981765, 0.15339759, -691036.2, -49591.53, 0.0, 10.000257, 9.998622 
9.3506706e+2, 2.445469e+2, -602819.2, -725929.5, -24660.467, 0.001029572, 0.16385053, -598063.1, -54605.426, 0.0, 10.000234, 9.998601 
9.3507403e+2, 2.5454587e+2, -515240.63, -631155.8, -32449.111, -0.0069787055, 0.1959666, -506775.13, -61306.32, 0.0, 10.0001545, 9.998617 
9.350808e+2, 2.6454464e+2, -436506.03, -517423.97, -35237.12, -0.01981192, 0.20334353, -423312.56, -75830.94, 0.0, 9.999915, 9.998839 
9.3508744e+2, 2.745433e+2, -399719.03, -446007.03, -17367.115, -0.037649743, 0.17716199, -393927.56, -144431.22, 0.0, 9.999482, 9.998865 
9.350946e+2, 2.8454232e+2, -333062.34, -392194.6, 338.19052, -0.019734107, 0.20801681, -333060.4, -181553.47, 0.0, 9.999391, 9.998607 
9.3510246e+2, 2.945418e+2, -189804.14, -272618.44, -15059.042, 0.040867317, 0.29371172, -187150.8, -133637.34, 0.0, 9.9997015, 9.998606 
9.3510944e+2, 3.0454004e+2, -82465.45, -47670.375, -20388.496, 0.025193257, 0.19364025, -38265.582, -38265.582, 0.000000010385675, 9.999468, 9.9999275 
9.351156e+2, 3.145401e+2, -173705.47, -33858.383, 2078.865, -0.05131622, 0.20024045, -33827.49, -33827.49, 0.00000050425, 9.998592, 10.000443 
9.449873e+2, 1.2455366e+2, -1508682.4, -1697303.3, 9980.6875, 0.05415766, 0.14465968, -1508155.8, 211236.7, 0.000016700973, 10.00177, 9.999267 
9.44993e+2, 1.3455316e+2, -1454294.0, -1655660.3, -6563.6133, -0.057052717, 0.1962972, -1454080.3, 167317.11, 0.0000023433604, 10.001623, 9.998951 
9.450003e+2, 1.4455216e+2, -1372611.8, -1566525.1, -6972.5874, -0.0047412016, 0.20363158, -1372361.4, 151046.17, 0.0000000053592455, 10.001515, 9.99894 
9.4500756e+2, 1.5455107e+2, -1283429.6, -1471266.8, -8826.824, 0.031411774, 0.1973186, -1283015.8, 142402.98, 0.0, 10.001448, 9.998954 
9.450143e+2, 1.6454987e+2, -1207121.8, -1383519.5, -14830.374, 0.021095261, 0.18302976, -1205883.6, 121546.44, 0.0, 10.001299, 9.998955 
9.4502056e+2, 1.7454858e+2, -1142487.9, -1299890.8, -16982.947, -0.033413727, 0.15658288, -1140676.4, 88764.586, 0.0, 10.001063, 9.998969 
9.450271e+2, 1.8454747e+2, -1082805.8, -1250016.4, -25988.582, -0.04216311, 0.16188341, -1078859.6, 52591.793, 0.0, 10.000926, 9.998706 
9.450341e+2, 1.9454657e+2, -987372.5, -1152537.3, -23522.02, -0.00049881457, 0.19771925, -984087.94, 49373.504, 0.0, 10.000905, 9.998713 
9.450406e+2, 2.0454533e+2, -918981.4, -1072297.3, -28743.951, 0.003987378, 0.20572074, -913769.56, 21704.145, 0.0, 10.000716, 9.998682 
9.4504654e+2, 2.1454374e+2, -876273.0, -999324.4, -32033.656, -0.034533113, 0.17558438, -868433.25, -30944.707, 0.0, 10.00033, 9.998696 
9.450531e+2, 2.245422e+2, -801191.6, -916361.25, -10295.936, -0.040373072, 0.15483084, -800278.44, -60775.36, 0.0, 10.00019, 9.99866 
9.4506043e+2, 2.3454073e+2, -678059.06, -804661.8, -6102.4644, -0.008018075, 0.13872084, -677765.6, -36248.492, 0.0, 10.000356, 9.998674 
9.450674e+2, 2.4453951e+2, -602209.8, -732537.6, -9882.364, 0.0037370615, 0.15764104, -601464.7, -57935.07, 0.0, 10.000269, 9.998539 
9.4507396e+2, 2.5453863e+2, -561104.4, -660598.2, -7375.8667, -0.009137662, 0.21067178, -560560.56, -115020.25, 0.0, 9.999871, 9.99855 
9.450806e+2, 2.645374e+2, -470617.0, -524213.66, -16557.482, -0.020187695, 0.2151748, -465914.5, -118361.07, 0.0, 9.9996395, 9.998926 
9.450871e+2, 2.745358e+2, -374549.38, -423290.9, -27891.605, -0.028644353, 0.15839548, -361881.28, -112312.03, 0.0, 9.99961, 9.99896 
9.450941e+2, 2.845349e+2, -321823.88, -381294.63, -1676.7932, -0.014492669, 0.18853712, -321776.63, -170197.52, 0.0, 9.999445, 9.998656 
9.4510174e+2, 2.945348e+2, -273383.78, -307243.72, 17840.063, 0.026890196, 0.3115338, -265719.2, -212136.8, 0.0, 9.9991045, 9.998654 
9.4510853e+2, 3.045333e+2, -154019.92, -66047.79, -4011.7458, 0.016622419, 0.22944695, -65865.22, -65865.22, 0.00000000032400083, 9.998908, 10.000071 
9.4511455e+2, 3.1453303e+2, -131552.72, -11369.915, -30087.207, -0.0310129, 0.18505342, -4258.5156, -4258.5156, 0.00000016973306, 9.998872, 10.0004635 
9.549887e+2, 1.2454717e+2, -1509695.1, -1704522.0, 946.27106, 0.017291784, 0.1888678, -1509690.5, 209766.27, 0.000026645826, 10.00179, 9.999208 
9.5499504e+2, 1.3454612e+2, -1454503.3, -1655650.9, -11909.674, -0.017843494, 0.18535094, -1453800.5, 167665.98, 0.00000475329, 10.001619, 9.998955 
9.5500225e+2, 1.4454488e+2, -1382076.3, -1584464.8, -9524.8545, 0.039151795, 0.17597012, -1381629.0, 141849.58, 0.000000046136613, 10.001508, 9.99882 
9.550088e+2, 1.5454394e+2, -1292329.3, -1489669.3, -10911.801, 0.0126687335, 0.19449966, -1291727.8, 133761.05, 0.0, 10.001448, 9.998828 
9.5501524e+2, 1.645428e+2, -1210112.0, -1390602.4, -23735.338, -0.009567846, 0.195983, -1207042.9, 120456.79, 0.0, 10.001302, 9.998905 
9.550218e+2, 1.7454153e+2, -1144953.6, -1305850.8, -25777.246, -0.015815053, 0.17605464, -1140924.8, 88586.28, 0.0, 10.001066, 9.998927 
9.550283e+2, 1.8454038e+2, -1076885.4, -1238178.1, -27824.947, -0.014109429, 0.17504641, -1072220.3, 59301.613, 0.0, 10.000928, 9.998786 
9.550349e+2, 1.9453934e+2, -982187.3, -1141103.1, -24754.94, -0.005493322, 0.18979906, -978420.44, 55111.773, 0.0, 10.000901, 9.998793 
9.5504117e+2, 2.0453806e+2, -923964.7, -1082110.9, -43609.375, -0.005727739, 0.1924198, -912736.44, 22808.256, 0.0, 10.000713, 9.998617 
9.550471e+2, 2.1453653e+2, -880755.1, -1008997.06, -47143.547, -0.015522361, 0.17480668, -865289.56, -27730.086, 0.0, 10.000331, 9.99863 
9.550535e+2, 2.2453506e+2, -794424.4, -903064.44, -5992.554, -0.0211128, 0.16074216, -794094.8, -54521.566, 0.0, 10.000193, 9.998751 
9.550606e+2, 2.345337e+2, -671405.2, -790357.7, 201.33588, -0.021681305, 0.14468755, -671404.9, -29819.148, 0.0, 10.000353, 9.998775 
9.550674e+2, 2.4453251e+2, -596994.44, -720780.2, -23963.22, -0.020027408, 0.1577431, -592517.44, -48919.64, 0.0, 10.000264, 9.998622 
9.550738e+2, 2.5453156e+2, -555634.5, -648942.4, -22045.195, -0.0158513, 0.19816196, -550688.25, -105078.78, 0.0, 9.99987, 9.9986315 
9.550804e+2, 2.645304e+2, -488788.3, -562874.7, -18205.336, -0.00634675, 0.21617848, -484556.44, -136933.66, 0.0, 9.999642, 9.998659 
9.5508707e+2, 2.7452892e+2, -393705.8, -464015.75, -28172.44, 0.009321815, 0.20334095, -383810.16, -134172.31, 0.0, 9.999613, 9.99868 
9.550937e+2, 2.8452802e+2, -290074.88, -314010.56, -13598.388, -0.0016008673, 0.2210956, -283927.94, -132280.28, 0.0, 9.999439, 9.99912 
9.551001e+2, 2.9452762e+2, -239100.11, -234226.7, 5828.315, -0.045885067, 0.265533, -230346.22, -176694.78, 0.0, 9.999097, 9.99916 
9.5510685e+2, 3.0452642e+2, -183284.13, -125477.91, -5392.492, -0.037507042, 0.20427392, -124979.164, -124979.164, 0.0, 9.998901, 9.999666 
9.5511425e+2, 3.1452662e+2, -169800.19, -91001.805, -29455.95, 0.05413218, 0.25462544, -81208.016, -81208.016, 0.000000027453995, 9.998872, 9.999917 
9.6499056e+2, 1.24540776e+2, -1490688.0, -1714557.0, 6334.9824, 0.007165676, 0.22865812, -1490508.9, 229011.28, 0.000040247374, 10.002007, 9.999033 
9.6499705e+2, 1.3453922e+2, -1423926.1, -1656576.3, -14254.841, 0.009130815, 0.18765539, -1423055.9, 198479.42, 0.0000086557575, 10.001899, 9.998812 
9.6500415e+2, 1.4453784e+2, -1349916.3, -1559418.4, -11630.245, 0.06638112, 0.16737948, -1349272.6, 174276.05, 0.00000019058375, 10.001689, 9.998904 
9.6501005e+2, 1.5453713e+2, -1302358.3, -1483377.1, 1697.274, 0.003694095, 0.20022906, -1302342.4, 123213.195, 0.0, 10.001332, 9.998925 
9.6501637e+2, 1.6453607e+2, -1235915.9, -1413879.0, 1119.0659, -0.022949621, 0.2093862, -1235908.8, 91656.79, 0.0, 10.001172, 9.998807 
9.6502316e+2, 1.745347e+2, -1125076.0, -1307805.8, -5346.313, 0.0019288257, 0.18905093, -1124919.8, 104658.92, 0.0, 10.001253, 9.998823 
9.6502954e+2, 1.8453343e+2, -1052982.8, -1222592.8, -17429.076, 0.0073771076, 0.18012756, -1051210.3, 80380.45, 0.0, 10.001075, 9.998822 
9.6503556e+2, 1.9453228e+2, -1024433.0, -1156263.8, -18108.398, -0.013165953, 0.1783575, -1021990.8, 11610.7, 0.0, 10.00059, 9.998837 
9.6504164e+2, 2.0453101e+2, -962015.0, -1098286.1, -27524.031, -0.016723877, 0.17993727, -956665.7, -21052.244, 0.0, 10.000444, 9.998634 
9.650477e+2, 2.1452966e+2, -825604.0, -980733.56, -24766.05, 0.0007260925, 0.17901765, -821746.1, 15880.517, 0.0, 10.000703, 9.998645 
9.650541e+2, 2.2452825e+2, -743676.9, -881398.56, 9157.638, -0.0029216134, 0.17060138, -743070.56, -3430.5386, 0.0, 10.000553, 9.998726 
9.650606e+2, 2.3452678e+2, -737599.06, -825018.8, 4578.886, -0.03236404, 0.14651462, -737359.9, -95706.14, 0.0, 9.99991, 9.99875 
9.650672e+2, 2.4452558e+2, -676920.0, -751641.3, -18364.07, -0.03913864, 0.1571156, -672650.7, -128984.67, 0.0, 9.999683, 9.99869 
9.6507365e+2, 2.5452477e+2, -537437.7, -631820.4, -17124.588, -0.01850119, 0.2030986, -534426.7, -88750.19, 0.0, 9.999961, 9.998705 
9.650802e+2, 2.6452368e+2, -446428.8, -548628.06, -10491.342, -0.002600941, 0.22901158, -445362.94, -97673.93, 0.0, 9.999962, 9.998604 
9.650867e+2, 2.7452227e+2, -397215.94, -472724.5, -5189.121, 0.007318385, 0.22645469, -396861.0, -147157.3, 0.0, 9.9996195, 9.998616 
9.65093e+2, 2.8452125e+2, -302076.4, -311415.0, 322.41043, -0.0057431585, 0.23259164, -302065.28, -150350.92, 0.0, 9.999321, 9.999195 
9.6509916e+2, 2.9452056e+2, -236627.88, -223922.42, -12777.296, -0.046856813, 0.23972057, -216005.72, -162285.25, 0.0, 9.999075, 9.999241 
9.6510583e+2, 3.0451947e+2, -182733.13, -146000.97, -20033.178, -0.035916783, 0.19520311, -137189.1, -137189.1, 0.0, 9.998995, 9.999481 
9.651132e+2, 3.1451997e+2, -153168.75, -112358.47, -24969.332, 0.052505787, 0.29626355, -100517.1, -100517.1, 0.00000000015790982, 9.999114, 9.999655 
9.749926e+2, 1.2453451e+2, -1511740.5, -1756628.4, -1304.962, 0.0077808616, 0.25710067, -1511733.5, 207849.0, 0.000057975532, 10.002, 9.998748 
9.7499907e+2, 1.3453253e+2, -1443573.5, -1698313.0, -16975.129, 0.021493483, 0.2032207, -1442447.4, 179155.88, 0.000014441633, 10.001903, 9.998524 
9.7500587e+2, 1.445311e+2, -1329972.4, -1518920.0, -24371.387, 0.0734841, 0.1786494, -1326879.4, 196737.58, 0.0000005546723, 10.001693, 9.999181 
9.750114e+2, 1.5453072e+2, -1280747.0, -1438794.4, -11428.186, 0.0031968078, 0.21503644, -1279924.9, 145693.7, 0.0, 10.001333, 9.999231 
9.750176e+2, 1.6452976e+2, -1246041.9, -1435037.6, 2909.5706, -0.020651849, 0.22369921, -1245997.0, 81630.06, 0.0, 10.001173, 9.998662 
9.750245e+2, 1.7452814e+2, -1137181.3, -1332599.9, -2408.8196, 0.018873904, 0.19586898, -1137151.6, 92491.93, 0.0, 10.001251, 9.998654 
9.750308e+2, 1.8452667e+2, -1053677.1, -1223512.6, -35430.83, 0.020536933, 0.17687806, -1046582.0, 85075.695, 0.0, 10.001072, 9.998817 
9.750361e+2, 1.9452539e+2, -1023468.7, -1155189.1, -36757.215, -0.024656275, 0.16293369, -1013905.7, 19763.295, 0.0, 10.000594, 9.998843 
9.750419e+2, 2.0452423e+2, -954595.4, -1083826.9, -20160.58, -0.030280754, 0.16802469, -951523.3, -15843.64, 0.0, 10.000447, 9.998733 
9.750486e+2, 2.145232e+2, -818894.06, -966085.4, -15529.363, 0.012916409, 0.1887462, -817273.5, 20416.04, 0.0, 10.000699, 9.998747 
9.7505474e+2, 2.245218e+2, -754487.6, -902956.75, -14442.386, 0.012703861, 0.18457846, -753095.8, -13392.781, 0.0, 10.000548, 9.998581 
9.7506046e+2, 2.3452002e+2, -748598.9, -847893.7, -19821.35, -0.040624734, 0.14514497, -744788.3, -103067.59, 0.0, 9.99991, 9.998592 
9.750667e+2, 2.445188e+2, -672772.1, -743613.6, -9856.773, -0.054348815, 0.15740043, -671426.25, -127692.484, 0.0, 9.999684, 9.998744 
9.750737e+2, 2.5451824e+2, -532814.7, -621990.2, -6278.19, -0.01925451, 0.22391404, -532374.8, -86633.516, 0.0, 9.999959, 9.998774 
9.750801e+2, 2.6451728e+2, -437369.8, -528508.25, -21890.355, -0.010219453, 0.25123996, -432384.72, -84632.555, 0.0, 9.999956, 9.998744 
9.7508585e+2, 2.745158e+2, -387611.16, -451844.56, -17077.398, -0.034365542, 0.22756334, -383353.16, -133586.45, 0.0, 9.999616, 9.998762 
9.750921e+2, 2.8451458e+2, -324079.84, -356792.97, -8452.438, -0.028283471, 0.22478102, -322024.97, -170245.98, 0.0, 9.999319, 9.998885 
9.7509885e+2, 2.9451364e+2, -259430.98, -272043.4, -20810.668, 0.01715706, 0.2354079, -243992.03, -190202.9, 0.0, 9.999078, 9.99891 
9.7510535e+2, 3.0451247e+2, -182304.9, -143908.92, -15697.555, 0.016048014, 0.20279202, -138308.2, -138308.2, 0.0, 9.998989, 9.999498 
9.751114e+2, 3.14513e+2, -155474.45, -112697.25, -17908.004, -0.035640836, 0.29920098, -106190.17, -106190.17, 0.0, 9.999095, 9.999661 
9.8499477e+2, 1.24527894e+2, -1528636.8, -1760461.6, -6124.3843, 0.033269856, 0.24869718, -1528475.1, 191173.0, 0.00008015815, 10.001864, 9.998788 
9.850008e+2, 1.3452634e+2, -1470100.5, -1704725.3, 7550.523, 0.012701946, 0.23123035, -1469857.8, 151807.3, 0.000022452736, 10.001693, 9.998581 
9.850074e+2, 1.4452499e+2, -1349645.5, -1529857.3, -106.26179, 0.058477875, 0.21306992, -1349645.4, 174032.42, 0.0000013019285, 10.001563, 9.999168 
9.85013e+2, 1.5452427e+2, -1266201.8, -1432555.5, -11401.533, 0.022544716, 0.21598096, -1265423.9, 160258.22, 0.0, 10.001437, 9.999224 
9.85019e+2, 1.6452318e+2, -1234215.9, -1428673.5, 2287.1248, 0.0030285388, 0.21189319, -1234188.9, 93502.74, 0.0, 10.001251, 9.998668 
9.850256e+2, 1.7452168e+2, -1173089.9, -1349299.0, 9336.67, 0.010347052, 0.19542687, -1172596.5, 57110.69, 0.0, 10.001002, 9.99866 
9.850316e+2, 1.8452029e+2, -1078024.8, -1237283.0, -20008.469, 0.0064756447, 0.1851768, -1075549.5, 56171.152, 0.0, 10.000914, 9.998799 
9.8503697e+2, 1.9451906e+2, -962962.4, -1128150.5, -23546.111, -0.013530909, 0.17658336, -959671.7, 74059.71, 0.0, 10.001018, 9.998825 
9.8504275e+2, 2.045178e+2, -902043.1, -1064012.0, -11089.149, -0.016259702, 0.17590696, -901287.44, 34455.42, 0.0, 10.000832, 9.998684 
9.8504895e+2, 2.145165e+2, -880342.7, -1001194.94, -18512.758, 0.0023221613, 0.17678261, -877570.44, -39815.22, 0.0, 10.000301, 9.998697 
9.850549e+2, 2.2451515e+2, -822343.44, -931479.56, -20628.72, -0.0016403446, 0.17558534, -818574.44, -78805.79, 0.0, 10.000066, 9.998616 
9.8506063e+2, 2.3451371e+2, -705780.25, -822822.3, -12317.245, -0.033234734, 0.16762996, -704498.0, -62714.93, 0.0, 10.000187, 9.9986315 
9.8506665e+2, 2.4451254e+2, -621538.2, -723142.1, 8624.237, -0.044688154, 0.18378305, -620811.4, -77015.6, 0.0, 10.000056, 9.998705 
9.850733e+2, 2.5451165e+2, -585577.3, -652463.9, 3167.0754, -0.032283615, 0.21973744, -585427.7, -139621.25, 0.0, 9.999619, 9.998729 
9.850795e+2, 2.6451057e+2, -510870.34, -544672.6, -19453.93, -0.028870812, 0.23175718, -502001.28, -154183.5, 0.0, 9.999369, 9.998917 
9.850853e+2, 2.7450934e+2, -414080.53, -443662.8, -13373.216, -0.037089646, 0.21178412, -408931.25, -159101.81, 0.0, 9.999346, 9.998947 
9.850915e+2, 2.8450823e+2, -334648.0, -381339.3, 3706.2378, -0.021881174, 0.21910225, -334355.63, -182514.84, 0.0, 9.999331, 9.99871 
9.850981e+2, 2.9450727e+2, -237881.56, -283132.94, 1954.8828, 0.024324544, 0.24887438, -237797.27, -183945.11, 0.0, 9.999319, 9.998716 
9.851044e+2, 3.0450615e+2, -153755.1, -103816.25, 17479.09, 0.015851652, 0.21953379, -98306.32, -98306.32, 0.0, 9.999074, 9.999732 
9.851101e+2, 3.1450647e+2, -220789.06, -119579.81, 28640.494, -0.054904755, 0.27124858, -112037.16, -112037.16, 0.0, 9.998539, 9.999883 
9.9499696e+2, 1.2452098e+2, -1504313.9, -1709973.6, -19139.092, 0.07111297, 0.2003948, -1502547.9, 217168.53, 0.00010704937, 10.001864, 9.999134 
9.950022e+2, 1.345207e+2, -1443110.9, -1648617.4, 2210.4165, -0.017837984, 0.272021, -1443087.1, 178633.06, 0.000032992957, 10.001693, 9.998967 
9.950085e+2, 1.4451958e+2, -1370216.6, -1572440.6, -4847.3584, 0.01974797, 0.27131814, -1370100.5, 153630.06, 0.0000026281716, 10.001562, 9.998878 
9.9501485e+2, 1.5451783e+2, -1288594.8, -1478984.0, -15741.296, 0.059360266, 0.20234583, -1287302.0, 138443.63, 0.00000000019976186, 10.001436, 9.998906 
9.950207e+2, 1.6451639e+2, -1224175.0, -1407319.1, -7455.884, 0.045849428, 0.17285688, -1223872.0, 103886.85, 0.0, 10.001248, 9.998816 
9.9502623e+2, 1.7451538e+2, -1160482.5, -1324054.3, -178.09074, -0.025021983, 0.18754382, -1160482.4, 69286.82, 0.0, 10.001005, 9.998832 
9.9503213e+2, 1.8451434e+2, -1079937.6, -1241911.5, -17543.992, -0.037164666, 0.20531271, -1078059.3, 53719.773, 0.0, 10.000916, 9.998767 
9.9503833e+2, 1.9451329e+2, -966088.44, -1134326.8, -20252.914, 0.019088415, 0.21989097, -963684.7, 70103.44, 0.0, 10.001016, 9.998784 
9.9504393e+2, 2.0451176e+2, -916307.44, -1092988.4, -31228.951, 0.024165541, 0.20354976, -910950.06, 24852.436, 0.0, 10.000829, 9.9984865 
9.950489e+2, 2.1450967e+2, -894571.06, -1030844.3, -39197.31, -0.031472474, 0.1432536, -884100.9, -46277.73, 0.0, 10.000301, 9.998493 
9.9505454e+2, 2.2450832e+2, -807213.75, -900403.2, -18270.75, -0.046706386, 0.14404437, -803759.6, -63923.215, 0.0, 10.000067, 9.99883 
9.95061e+2, 2.3450789e+2, -689309.44, -788441.4, -7956.5254, -0.012230401, 0.21266004, -688674.94, -46834.316, 0.0, 10.000185, 9.998868 
9.9506706e+2, 2.4450682e+2, -631702.8, -743567.6, -7081.994, -0.012819367, 0.2344184, -631256.25, -87404.47, 0.0, 10.000052, 9.998567 
9.950726e+2, 2.5450498e+2, -596504.4, -675355.9, -12646.697, -0.057559654, 0.1916278, -594525.7, -148654.2, 0.0, 9.999619, 9.998571 
9.950786e+2, 2.6450363e+2, -497548.34, -517570.06, -20759.266, -0.058749706, 0.1741934, -484512.22, -136626.97, 0.0, 9.99937, 9.999102 
9.9508494e+2, 2.7450287e+2, -399796.56, -413909.47, -13769.792, -0.0056497697, 0.18154809, -391380.44, -141488.78, 0.0, 9.999344, 9.999152 
9.9509114e+2, 2.8450212e+2, -337812.56, -386705.16, 3481.0593, 0.009025324, 0.21533008, -337565.97, -185666.19, 0.0, 9.999326, 9.998676 
9.95097e+2, 2.945014e+2, -241639.52, -289342.3, 3157.6328, -0.024134912, 0.2756697, -241431.4, -187521.58, 0.0, 9.999312, 9.998677 
9.9510294e+2, 3.0450046e+2, -125292.6, -43083.586, -310.4215, -0.035989724, 0.24230902, -43082.414, -43082.414, 0.0, 9.999066, 10.000153 
9.95109e+2, 3.145004e+2, -192966.4, -59784.95, 10913.132, -0.014609693, 0.2133314, -58896.633, -58896.633, 0.0, 9.99853, 10.000298 
1.0049989e+3, 1.2451482e+2, -1498377.3, -1701891.9, -1996.989, 0.07506778, 0.19093966, -1498357.6, 221418.75, 0.0001389771, 10.001881, 9.999185 
1.005004e+3, 1.3451457e+2, -1423699.0, -1631407.4, 3109.664, -0.011971446, 0.25923452, -1423652.5, 198127.11, 0.000046326506, 10.001791, 9.999039 
1.00501016e+3, 1.445135e+2, -1359854.3, -1575732.1, -8270.899, 0.020784156, 0.26293698, -1359537.8, 164251.94, 0.00000474816, 10.001669, 9.998803 
1.0050163e+3, 1.5451169e+2, -1288522.9, -1488640.9, -3768.4697, 0.054320645, 0.1975212, -1288451.9, 137353.73, 0.000000004412824, 10.001477, 9.998821 
1.0050219e+3, 1.6451024e+2, -1222991.6, -1412681.6, 5025.9785, 0.043023027, 0.1741799, -1222858.5, 104960.67, 0.0, 10.001281, 9.998764 
1.0050274e+3, 1.7450929e+2, -1152779.6, -1325340.9, -4366.425, -0.018431313, 0.19916585, -1152669.3, 77159.89, 0.0, 10.00108, 9.998787 
1.005033e+3, 1.845082e+2, -1086751.8, -1251691.6, -23645.889, -0.031760003, 0.21732828, -1083428.8, 48410.82, 0.0, 10.000897, 9.998709 
1.00503914e+3, 1.9450697e+2, -1009756.06, -1161912.5, -27777.488, 0.011091163, 0.21966036, -1004843.6, 29007.045, 0.0, 10.000745, 9.998725 
1.0050446e+3, 2.0450543e+2, -947640.94, -1105695.5, -41598.516, 0.016192203, 0.20436105, -937361.2, -1495.9807, 0.0, 10.000604, 9.998507 
1.00504935e+3, 2.1450356e+2, -867265.06, -1015233.75, -33575.902, -0.023623364, 0.16251604, -860002.7, -22118.922, 0.0, 10.000479, 9.998515 
1.0050548e+3, 2.2450219e+2, -777009.3, -887939.1, -2879.4116, -0.035101764, 0.1633119, -776934.6, -37037.734, 0.0, 10.000284, 9.99881 
1.00506105e+3, 2.345015e+2, -716374.4, -803925.1, -12594.132, -0.0128193265, 0.20694312, -714598.75, -72695.17, 0.0, 10.00001, 9.998845 
1.0050669e+3, 2.4450038e+2, -667988.8, -753392.8, -23120.383, -0.018316736, 0.22086449, -662131.44, -118216.37, 0.0, 9.999771, 9.998634 
1.0050723e+3, 2.5449875e+2, -597879.8, -667260.56, -12984.552, -0.058273435, 0.19384114, -595529.44, -149597.2, 0.0, 9.999575, 9.998647 
1.005078e+3, 2.6449746e+2, -491012.25, -523348.8, -11055.541, -0.05818444, 0.1830034, -487593.84, -139648.61, 0.0, 9.999455, 9.99902 
1.0050843e+3, 2.7449656e+2, -394788.53, -421764.56, -25304.33, -0.0089367395, 0.18428946, -379601.9, -129648.51, 0.0, 9.999424, 9.99906 
1.00509025e+3, 2.844958e+2, -343948.0, -367162.03, -18850.232, 0.00091174996, 0.21191835, -333417.84, -181456.14, 0.0, 9.999187, 9.998876 
1.00509584e+3, 2.9449528e+2, -315130.4, -300385.47, -3534.0483, -0.037773184, 0.2664964, -299582.2, -245612.27, 0.0, 9.998703, 9.998895 
1.00510165e+3, 3.044945e+2, -195243.72, -69016.125, -5763.5137, -0.043355998, 0.23992784, -68753.51, -68753.51, 0.0, 9.998551, 10.000223 
1.00510776e+3, 3.1449452e+2, -150248.89, -33376.203, -21326.994, -0.002594282, 0.2099396, -29606.06, -29606.06, 0.0, 9.998801, 10.000346 
1.0150003e+3, 1.24509394e+2, -1514717.8, -1733993.8, -11938.408, 0.02536775, 0.21540548, -1514069.6, 205758.53, 0.00017643356, 10.001873, 9.998966 
1.01500615e+3, 1.3450801e+2, -1439617.1, -1663422.6, 1025.4995, 0.026757972, 0.19197203, -1439612.5, 182230.36, 0.00006271102, 10.001787, 9.99882 
1.0150122e+3, 1.445068e+2, -1351349.3, -1558228.6, -15405.065, 0.05930314, 0.18701838, -1350208.5, 173646.11, 0.000007860604, 10.001668, 9.998924 
1.0150172e+3, 1.5450592e+2, -1278490.3, -1468663.9, -10891.514, 0.005949943, 0.20193408, -1277868.5, 147993.05, 0.000000028517778, 10.001479, 9.998958 
1.0150227e+3, 1.6450483e+2, -1240016.8, -1448694.5, -3208.0195, -0.008149459, 0.21737598, -1239967.5, 87904.664, 0.0, 10.001284, 9.998516 
1.0150289e+3, 1.7450348e+2, -1171296.3, -1363525.4, -12176.389, 0.028501857, 0.23000479, -1170528.0, 59358.51, 0.0, 10.001079, 9.998526 
1.0150345e+3, 1.8450195e+2, -1093076.9, -1264527.5, -30503.63, 0.021662999, 0.22032882, -1087811.6, 44090.344, 0.0, 10.000895, 9.998622 
1.0150394e+3, 1.9450016e+2, -1014937.1, -1172953.5, -34003.832, -0.038533088, 0.17583412, -1007930.5, 25987.975, 0.0, 10.000746, 9.99865 
1.0150446e+3, 2.0449887e+2, -931237.7, -1071850.3, -47424.156, -0.042053267, 0.1785478, -916738.2, 19192.246, 0.0, 10.000605, 9.998739 
1.0150503e+3, 2.1449822e+2, -849954.06, -979161.3, -38900.45, 0.023682248, 0.23379102, -839146.3, -1209.6947, 0.0, 10.000478, 9.998763 
1.0150558e+3, 2.2449684e+2, -795350.8, -925619.56, -13961.549, 0.03052557, 0.232325, -793871.3, -53921.625, 0.0, 10.000282, 9.998552 
1.01506084e+3, 2.3449463e+2, -735971.9, -844962.4, -22909.72, -0.0344263, 0.15219325, -731352.1, -89380.75, 0.0, 10.000011, 9.998564 
1.0150663e+3, 2.4449329e+2, -649348.1, -715106.75, -31000.09, -0.060576413, 0.14632401, -637038.3, -93053.39, 0.0, 9.999772, 9.998897 
1.015072e+3, 2.5449303e+2, -577453.9, -624840.75, -20259.922, -0.037962813, 0.22565548, -569972.9, -123984.43, 0.0, 9.999574, 9.998939 
1.01507775e+3, 2.6449212e+2, -514773.72, -571934.75, -12302.118, -0.031333808, 0.25458765, -512238.5, -164240.56, 0.0, 9.999452, 9.998688 
1.01508334e+3, 2.7449045e+2, -419971.72, -474168.56, -24892.896, -0.046640676, 0.21640714, -410273.66, -160259.19, 0.0, 9.999424, 9.9987 
1.015089e+3, 2.8448936e+2, -316147.34, -310048.53, -35054.527, -0.04560354, 0.20817314, -277911.03, -125884.95, 0.0, 9.999189, 9.999269 
1.01509474e+3, 2.9448885e+2, -285967.4, -238739.78, -20756.73, -0.021997198, 0.22764456, -230913.9, -176882.08, 0.0, 9.998697, 9.999321 
1.01510055e+3, 3.044884e+2, -214361.64, -106387.98, 2479.2637, -0.012334597, 0.218131, -106331.08, -106331.08, 0.0, 9.998542, 9.999971 
1.01510644e+3, 3.1448874e+2, -171699.33, -75693.62, -9414.91, -0.022374684, 0.25068036, -74779.05, -74779.05, 0.0, 9.998792, 10.00006 
1.0250021e+3, 1.2450362e+2, -1498783.9, -1735983.1, -24079.54, 0.0071177897, 0.21071137, -1496364.1, 223520.19, 0.00021988727, 10.002027, 9.998878 
1.025008e+3, 1.345022e+2, -1446672.4, -1677264.3, 2512.5752, 0.031228945, 0.1922857, -1446645.0, 175254.64, 0.000082442966, 10.001783, 9.998727 
1.0250139e+3, 1.4450097e+2, -1358519.3, -1562785.3, -12341.511, 0.06575755, 0.19126597, -1357776.3, 166135.45, 0.000012107546, 10.001622, 9.998916 
1.0250187e+3, 1.5450007e+2, -1273025.0, -1466036.3, -18875.93, -0.00009988277, 0.2022185, -1271196.3, 154722.9, 0.00000009714164, 10.001517, 9.998957 
1.0250239e+3, 1.6449891e+2, -1230556.1, -1449064.6, -10162.647, -0.015515581, 0.2159898, -1230084.5, 97845.695, 0.0, 10.00137, 9.99847 
1.02503e+3, 1.7449753e+2, -1159643.5, -1363907.0, -4105.3955, 0.033831894, 0.22881581, -1159561.1, 70383.805, 0.0, 10.0011835, 9.998473 
1.0250354e+3, 1.8449594e+2, -1088503.9, -1266266.3, -12339.922, 0.028353326, 0.21887457, -1087651.4, 44309.383, 0.0, 10.000943, 9.998587 
1.0250401e+3, 1.9449413e+2, -1030457.44, -1184111.6, -13155.967, -0.045434467, 0.17447239, -1029339.1, 4638.6436, 0.0, 10.000655, 9.998616 
1.0250451e+3, 2.0449284e+2, -942752.4, -1075103.4, -25796.479, -0.05137304, 0.17712186, -937902.1, -1912.2174, 0.0, 10.000516, 9.998758 
1.0250509e+3, 2.1449217e+2, -835652.56, -969590.5, -34306.676, 0.024646088, 0.23080078, -827376.6, 10619.309, 0.0, 10.000565, 9.998787 
1.0250562e+3, 2.2449084e+2, -778864.1, -918954.44, -20175.873, 0.035314646, 0.22997636, -776016.25, -36007.418, 0.0, 10.0004015, 9.99854 
1.0250609e+3, 2.3448865e+2, -741338.3, -848822.56, -10408.051, -0.033521626, 0.15619601, -740339.7, -98309.7, 0.0, 9.999982, 9.99855 
1.025066e+3, 2.444873e+2, -654577.94, -725497.4, -9996.498, -0.060289774, 0.15361771, -653195.8, -109152.086, 0.0, 9.999772, 9.998825 
1.02507174e+3, 2.5448695e+2, -547786.44, -619352.44, -26743.127, -0.03538208, 0.2300613, -538897.06, -92848.58, 0.0, 9.999814, 9.99886 
1.02507725e+3, 2.6448599e+2, -488120.16, -550812.5, -26104.854, -0.03153467, 0.25519586, -478673.63, -130615.3, 0.0, 9.999599, 9.998761 
1.02508254e+3, 2.7448437e+2, -466501.84, -486651.6, -8247.712, -0.05508316, 0.21282123, -463556.44, -213482.48, 0.0, 9.999063, 9.998786 
1.0250879e+3, 2.8448325e+2, -377310.84, -350646.72, -15213.181, -0.05326154, 0.2055524, -343750.47, -191665.05, 0.0, 9.998818, 9.9991665 
1.0250935e+3, 2.9448274e+2, -259167.36, -238381.03, -39617.406, -0.01771328, 0.23162006, -207816.2, -153724.1, 0.0, 9.998937, 9.9992075 
1.0250992e+3, 3.044823e+2, -175887.0, -80423.414, -22780.344, -0.006769498, 0.22753231, -75266.0, -75266.0, 0.0, 9.998775, 10.000035 
1.0251049e+3, 3.1448257e+2, -247472.95, -105799.56, -11465.44, -0.030631276, 0.24599391, -104877.68, -104877.68, 0.0, 9.998241, 10.000119 
1.035004e+3, 1.24497555e+2, -1499492.4, -1736587.9, -39895.01, 0.005955952, 0.17393698, -1492959.5, 226984.75, 0.00026982953, 10.002023, 9.998875 
1.0350094e+3, 1.3449721e+2, -1445709.9, -1675082.3, -5845.601, -0.00060104334, 0.2606926, -1445561.0, 176388.47, 0.00010582585, 10.001781, 9.998743 
1.0350153e+3, 1.444961e+2, -1367874.9, -1582120.1, -16658.951, 0.03716217, 0.27727196, -1366587.3, 157373.25, 0.000017580334, 10.001622, 9.998783 
1.0350205e+3, 1.5449415e+2, -1282584.0, -1485209.0, -22512.46, 0.034420688, 0.19802797, -1280112.9, 145865.06, 0.00000023822265, 10.001515, 9.998826 
1.03502564e+3, 1.6449258e+2, -1220007.5, -1427880.5, -17932.084, 0.020148138, 0.16910475, -1218471.9, 109520.695, 0.0, 10.001372, 9.998616 
1.03503086e+3, 1.744915e+2, -1148403.0, -1340918.3, -11467.109, -0.0041868784, 0.19598146, -1147722.4, 82281.16, 0.0, 10.0011835, 9.998631 
1.035036e+3, 1.8449028e+2, -1087837.6, -1265047.5, -24048.871, -0.014974665, 0.21434164, -1084631.9, 47383.4, 0.0, 10.000943, 9.998594 
1.035041e+3, 1.9448894e+2, -1030346.8, -1183753.8, -24722.791, -0.010801473, 0.21574767, -1026461.0, 7567.1787, 0.0, 10.000654, 9.998619 
1.03504606e+3, 2.0448737e+2, -956375.1, -1103346.0, -25832.113, -0.012388799, 0.19993576, -951967.0, -15923.731, 0.0, 10.000515, 9.998566 
1.03505105e+3, 2.1448551e+2, -849898.06, -998957.9, -33060.203, -0.020722887, 0.15457913, -842894.6, -4833.4155, 0.0, 10.000564, 9.998586 
1.03505604e+3, 2.244842e+2, -762812.56, -885817.0, -36133.01, -0.021316068, 0.15806708, -752983.75, -12910.019, 0.0, 10.0004015, 9.998768 
1.035061e+3, 2.3448361e+2, -723750.2, -812761.8, -26452.268, -0.012267362, 0.21698414, -716482.56, -74403.2, 0.0, 9.999983, 9.998798 
1.0350662e+3, 2.4448244e+2, -682729.7, -783490.75, -9436.394, -0.020796508, 0.2390098, -681853.56, -137762.08, 0.0, 9.999769, 9.998427 
1.0350714e+3, 2.5448057e+2, -577994.7, -682117.44, -24180.938, -0.050959636, 0.20722443, -572653.06, -126541.3, 0.0, 9.999814, 9.998429 
1.0350765e+3, 2.6447916e+2, -456923.63, -486177.03, -44521.363, -0.058439933, 0.18814492, -424687.84, -76562.266, 0.0, 9.9995985, 9.999206 
1.0350818e+3, 2.7447838e+2, -432693.2, -415562.7, -27932.96, -0.03772185, 0.17810278, -394911.25, -144779.89, 0.0, 9.999058, 9.999278 
1.035087e+3, 2.8447756e+2, -417242.72, -431636.28, -11811.5625, -0.026588468, 0.20563036, -410608.16, -258468.48, 0.0, 9.99881, 9.998614 
1.0350924e+3, 2.9447687e+2, -300966.4, -325350.1, -32762.932, -0.027120108, 0.27281693, -278200.4, -224049.61, 0.0, 9.998938, 9.99861 
1.0350978e+3, 3.0447623e+2, -151240.33, -30646.65, -39182.246, -0.027638841, 0.26276207, -19034.121, -19034.121, 0.0, 9.998779, 10.000377 
1.0351031e+3, 3.1447607e+2, -221981.52, -52304.99, -28981.25, -0.03092749, 0.2000083, -47491.46, -47491.46, 0.0, 9.998238, 10.000489 
1.04500584e+3, 1.2449206e+2, -1548148.3, -1750171.9, -44191.84, 0.004933601, 0.19470668, -1538904.5, 181094.06, 0.00032683904, 10.001644, 9.998964 
1.0450112e+3, 1.344915e+2, -1412960.9, -1647381.9, 3914.142, -0.004322278, 0.2500075, -1412895.5, 209109.17, 0.00013321284, 10.001954, 9.99885 
1.04501694e+3, 1.4449039e+2, -1322634.8, -1571156.3, -10223.152, 0.030950144, 0.26480603, -1322214.9, 201800.84, 0.000024406861, 10.001981, 9.998685 
1.0450221e+3, 1.5448858e+2, -1274005.0, -1493894.4, -17043.209, 0.03361701, 0.21086155, -1272691.8, 153341.23, 0.0000004785213, 10.001628, 9.9987135 
1.045027e+3, 1.6448703e+2, -1219644.3, -1417577.1, -11778.537, 0.018216666, 0.18639061, -1218945.8, 109101.87, 0.0, 10.00133, 9.998707 
1.04503185e+3, 1.7448586e+2, -1149440.0, -1329447.9, -9865.287, -0.017617717, 0.19383998, -1148901.0, 81157.6, 0.0, 10.001126, 9.998737 
1.04503684e+3, 1.8448462e+2, -1083405.1, -1264375.0, -24171.102, -0.02380686, 0.20554383, -1080232.4, 51837.867, 0.0, 10.000982, 9.998579 
1.045042e+3, 1.9448334e+2, -993360.25, -1168506.3, -26889.08, 0.004409828, 0.21572462, -989325.1, 44757.6, 0.0, 10.00092, 9.998595 
1.04504675e+3, 2.0448177e+2, -927688.4, -1094945.6, -21809.996, 0.0014270726, 0.20362037, -924891.1, 11206.914, 0.0, 10.000736, 9.998515 
1.0450513e+3, 2.1447986e+2, -874668.94, -1016467.94, -18325.275, -0.03960463, 0.157233, -872339.0, -34222.133, 0.0, 10.000419, 9.998535 
1.04505606e+3, 2.2447856e+2, -785134.75, -894848.6, -25478.975, -0.042956166, 0.16327202, -779506.5, -39377.008, 0.0, 10.000241, 9.998783 
1.0450613e+3, 2.3447804e+2, -685360.56, -792376.94, -34303.9, -0.0007688377, 0.22810358, -675308.6, -33174.273, 0.0, 10.000237, 9.998815 
1.0450663e+3, 2.4447684e+2, -652514.56, -768804.4, -14122.022, -0.0024540112, 0.24607998, -650824.2, -106677.57, 0.0, 9.999975, 9.998429 
1.0450709e+3, 2.5447482e+2, -638480.7, -710435.3, 2196.0044, -0.05806015, 0.19958934, -638413.75, -192246.13, 0.0, 9.999396, 9.998435 
1.0450758e+3, 2.6447338e+2, -530264.8, -527337.06, -16796.057, -0.068747744, 0.17979164, -511941.2, -163759.48, 0.0, 9.999122, 9.999152 
1.045081e+3, 2.7447268e+2, -412794.7, -412761.34, -40560.44, -0.023680352, 0.18442012, -372217.6, -122030.2, 0.0, 9.999223, 9.999217 
1.04508616e+3, 2.844719e+2, -372319.47, -402265.16, -21429.816, -0.010161824, 0.21115963, -361149.94, -208954.22, 0.0, 9.999085, 9.998683 
1.0450911e+3, 2.9447109e+2, -339650.13, -335055.16, 5182.387, -0.03498265, 0.26015702, -331683.8, -277476.9, 0.0, 9.998633, 9.998689 
1.0450963e+3, 3.0447042e+2, -209751.55, -69624.625, 7329.677, -0.0392084, 0.25035736, -69242.27, -69242.27, 0.0, 9.998425, 10.000279 
1.0451016e+3, 3.1447035e+2, -186701.44, -48149.047, -18033.809, -0.020623636, 0.20319025, -45840.26, -45840.26, 0.0, 9.998536, 10.000373 
1.05500735e+3, 1.24487154e+2, -1534497.3, -1721157.6, -40091.86, -0.012394931, 0.2701704, -1526250.5, 193796.47, 0.00039134276, 10.001641, 9.999166 
1.0550135e+3, 1.3448516e+2, -1398059.8, -1616271.0, 16866.82, 0.019159203, 0.16120343, -1396763.6, 225301.02, 0.00016489324, 10.001953, 9.999064 
1.0550192e+3, 1.4448391e+2, -1327943.8, -1582858.0, -22447.854, 0.046141624, 0.15438855, -1325982.0, 198094.84, 0.000032768054, 10.001983, 9.998604 
1.0550233e+3, 1.544834e+2, -1281590.4, -1508847.6, -30450.723, -0.004711523, 0.24096006, -1277581.0, 148502.84, 0.0000008393984, 10.001624, 9.998612 
1.0550279e+3, 1.6448234e+2, -1217381.5, -1412629.1, -20498.732, -0.025012022, 0.26931655, -1215252.6, 112842.05, 0.0, 10.001329, 9.998741 
1.05503306e+3, 1.7448068e+2, -1146118.8, -1322613.5, -17780.914, -0.007094296, 0.22269285, -1144345.3, 85764.37, 0.0, 10.001126, 9.998784 
1.05503805e+3, 1.8447903e+2, -1086076.0, -1270381.9, -27805.305, 0.0015650501, 0.1922196, -1081972.5, 50152.563, 0.0, 10.000983, 9.998538 
1.0550428e+3, 1.9447742e+2, -996739.0, -1175256.5, -29793.59, -0.0013416321, 0.17406003, -991897.94, 42243.043, 0.0, 10.000918, 9.998549 
1.0550474e+3, 2.0447613e+2, -921658.94, -1082454.3, -34385.344, -0.012569282, 0.188658, -914614.4, 21539.328, 0.0, 10.000736, 9.998602 
1.05505176e+3, 2.1447524e+2, -868258.94, -1003221.5, -30853.182, -0.033483136, 0.23740421, -861540.2, -23377.719, 0.0, 10.000418, 9.998626 
1.0550564e+3, 2.2447392e+2, -798990.44, -923715.4, -27168.855, -0.03122629, 0.24381652, -793329.2, -53153.445, 0.0, 10.000241, 9.998585 
1.0550615e+3, 2.3447202e+2, -700080.25, -823061.25, -34535.09, 0.00013141589, 0.19069919, -691045.94, -48851.375, 0.0, 10.000237, 9.998605 
1.05506614e+3, 2.4447058e+2, -625113.1, -712331.1, -34986.57, -0.0059770634, 0.17770776, -612813.25, -68604.9, 0.0, 9.999976, 9.998817 
1.0550703e+3, 2.5446975e+2, -608818.7, -649174.25, -19327.66, -0.058255535, 0.20754287, -601055.44, -154839.56, 0.0, 9.999396, 9.998857 
1.0550751e+3, 2.644687e+2, -567288.44, -603843.94, -14140.748, -0.06459884, 0.22733967, -562456.94, -214230.17, 0.0, 9.99912, 9.998629 
1.0550803e+3, 2.7446735e+2, -452845.1, -496300.2, -35263.004, -0.0155029185, 0.22793461, -433153.25, -182911.5, 0.0, 9.999225, 9.998643 
1.05508536e+3, 2.844662e+2, -327125.94, -309049.56, -36049.58, -0.0058067357, 0.22069956, -280922.4, -128669.2, 0.0, 9.999086, 9.999323 
1.05508976e+3, 2.9446542e+2, -291057.3, -233046.53, -10802.561, -0.042475052, 0.19895124, -231100.22, -176840.17, 0.0, 9.998628, 9.9993925 
1.05509475e+3, 3.0446497e+2, -246394.05, -143395.36, 10396.477, -0.043537486, 0.19527455, -142356.44, -142356.44, 0.0, 9.998415, 9.999777 
1.0551002e+3, 3.1446534e+2, -225213.56, -128952.055, -11259.746, -0.0066382773, 0.25351036, -127652.55, -127652.55, 0.0, 9.99854, 9.999816 
1.0650094e+3, 1.2448151e+2, -1450474.0, -1685175.0, -27753.984, -0.005839341, 0.24797647, -1447236.6, 272864.0, 0.00046328275, 10.00224, 9.999123 
1.0650153e+3, 1.344794e+2, -1427238.9, -1635096.5, 15644.8545, 0.011340915, 0.13188298, -1426067.9, 196051.8, 0.00020096678, 10.001772, 9.999023 
1.0650208e+3, 1.4447825e+2, -1383391.4, -1599711.8, -29311.473, 0.030991651, 0.13243386, -1379490.0, 144641.27, 0.000042859534, 10.00156, 9.998692 
1.0650249e+3, 1.5447803e+2, -1273959.8, -1494158.0, -23833.512, -0.008028209, 0.23788625, -1271409.6, 154726.0, 0.0000013547858, 10.001631, 9.998709 
1.0650294e+3, 1.6447705e+2, -1190478.0, -1405273.1, -11904.813, -0.021106135, 0.2718214, -1189820.3, 138325.66, 0.0, 10.001541, 9.998689 
1.0650343e+3, 1.7447521e+2, -1130640.6, -1322290.8, -17736.262, -0.0027898457, 0.2133778, -1129013.0, 101149.84, 0.0, 10.001263, 9.99872 
1.06503904e+3, 1.8447354e+2, -1078439.9, -1264654.8, -24883.715, 0.0019100343, 0.18446244, -1075172.0, 57006.637, 0.0, 10.001027, 9.998556 
1.0650436e+3, 1.9447215e+2, -1003484.44, -1175925.8, -22203.422, -0.011342876, 0.185614, -1000671.44, 33521.617, 0.0, 10.000861, 9.998572 
1.065048e+3, 2.0447093e+2, -926120.94, -1078517.8, -30169.17, -0.017678043, 0.20402607, -920365.8, 15839.234, 0.0, 10.000679, 9.998656 
1.0650524e+3, 2.1446997e+2, -855004.75, -990594.9, -30163.813, -0.015612123, 0.23733187, -848597.2, -10382.946, 0.0, 10.000482, 9.998682 
1.0650569e+3, 2.2446859e+2, -798924.94, -931154.75, -17451.621, -0.013800333, 0.23887613, -796660.44, -56432.426, 0.0, 10.000274, 9.998518 
1.06506154e+3, 2.3446669e+2, -731062.9, -845877.5, -14792.155, -0.0119635565, 0.1946173, -729187.75, -86940.33, 0.0, 10.000059, 9.998533 
1.0650659e+3, 2.4446529e+2, -630387.9, -697524.6, -27213.096, -0.020982696, 0.18196054, -620743.0, -76482.3, 0.0, 9.9998665, 9.998972 
1.06507e+3, 2.544645e+2, -552571.8, -603599.56, -31830.049, -0.043709084, 0.20027578, -537292.2, -91025.66, 0.0, 9.999702, 9.9990225 
1.0650744e+3, 2.6446348e+2, -525431.56, -595734.1, -13098.877, -0.0449349, 0.21910565, -523070.28, -174793.23, 0.0, 9.999458, 9.998521 
1.0650795e+3, 2.7446216e+2, -478947.97, -522117.22, -1076.2732, -0.020333935, 0.2335672, -478921.16, -228628.11, 0.0, 9.999103, 9.998524 
1.0650841e+3, 2.8446105e+2, -356943.7, -310941.94, -9061.803, -0.013302605, 0.2307809, -309221.25, -156916.8, 0.0, 9.998829, 9.9994335 
1.0650885e+3, 2.944603e+2, -275361.7, -211913.22, -27085.201, -0.026426408, 0.19989347, -201923.73, -147613.66, 0.0, 9.998677, 9.999513 
1.0650933e+3, 3.044598e+2, -230868.34, -137844.73, -668.5868, -0.029103132, 0.18829726, -137839.92, -137839.92, 0.0, 9.998529, 9.999759 
1.0650985e+3, 3.144603e+2, -255733.13, -146030.14, 14546.782, -0.02351759, 0.258095, -144133.98, -144133.98, 0.0, 9.998342, 9.999793 
1.0750117e+3, 1.2447522e+2, -1472805.8, -1729710.9, -51605.645, 0.011845562, 0.12810783, -1462827.1, 257331.7, 0.000542142, 10.002234, 9.998819 
1.0750166e+3, 1.3447429e+2, -1449745.5, -1679965.6, -1138.7113, -0.029960673, 0.1615333, -1449739.9, 172429.36, 0.00024133897, 10.001765, 9.998718 
1.07502185e+3, 1.4447346e+2, -1365717.6, -1562332.5, -27598.861, -0.018173972, 0.1988633, -1361917.0, 162261.2, 0.0000548195, 10.001556, 9.99895 
1.07502684e+3, 1.5447253e+2, -1253265.1, -1451820.8, -20918.17, 0.022664802, 0.20302969, -1251085.3, 175102.56, 0.000002073113, 10.001633, 9.998999 
1.0750314e+3, 1.6447122e+2, -1200181.6, -1425887.1, -22444.78, 0.028812725, 0.19469233, -1197971.3, 130229.6, 0.0000000000166348, 10.001543, 9.998547 
1.07503556e+3, 1.744695e+2, -1142780.9, -1346969.3, -28227.402, -0.00628221, 0.16582498, -1138950.6, 91267.17, 0.0, 10.001261, 9.998551 
1.0750398e+3, 1.8446824e+2, -1073898.5, -1254967.3, -32230.03, -0.025975093, 0.18291934, -1068332.8, 63897.86, 0.0, 10.001025, 9.998624 
1.0750443e+3, 1.9446759e+2, -997996.8, -1164516.5, -28925.45, -0.026088886, 0.25046107, -993115.4, 41123.047, 0.0, 10.000861, 9.998651 
1.0750487e+3, 2.0446624e+2, -924518.8, -1075666.9, -38693.234, -0.0144404005, 0.24976271, -915189.3, 21062.346, 0.0, 10.00068, 9.998675 
1.0750531e+3, 2.1446404e+2, -853871.25, -988105.0, -38248.53, 0.012103995, 0.15837136, -843737.75, -5466.141, 0.0, 10.000481, 9.9987 
1.0750574e+3, 2.244626e+2, -794288.44, -921703.6, -26391.023, 0.0070996587, 0.15046708, -789038.44, -48752.74, 0.0, 10.000274, 9.998583 
1.0750614e+3, 2.344621e+2, -726337.2, -836439.56, -22729.0, -0.037220135, 0.23903635, -721829.6, -79537.0, 0.0, 10.00006, 9.998598 
1.0750656e+3, 2.44461e+2, -635573.56, -708608.1, -33526.4, -0.048131034, 0.25657386, -622517.4, -78213.92, 0.0, 9.999867, 9.998896 
1.07507e+3, 2.5445917e+2, -558279.5, -615717.3, -37405.72, -0.017152458, 0.17785564, -539839.5, -93520.39, 0.0, 9.999703, 9.998939 
1.0750744e+3, 2.6445782e+2, -504751.97, -553142.44, -25421.338, -0.011903405, 0.15703562, -493852.28, -145520.31, 0.0, 9.999458, 9.998814 
1.0750784e+3, 2.7445716e+2, -457382.28, -476632.34, -13527.289, -0.038415845, 0.20337701, -450405.25, -200064.3, 0.0, 9.999099, 9.998838 
1.0750828e+3, 2.8445646e+2, -385443.47, -368628.84, -15018.603, -0.033681046, 0.24121267, -359824.5, -207475.22, 0.0, 9.998822, 9.999041 
1.0750875e+3, 2.944557e+2, -305078.56, -274369.84, -30956.129, 0.009248261, 0.2584017, -255169.34, -200812.42, 0.0, 9.99868, 9.9990835 
1.0750922e+3, 3.04455e+2, -200274.61, -75440.31, -5633.7935, 0.0008598586, 0.22597963, -75186.58, -75186.58, 0.0, 9.998533, 10.000186 
1.0750964e+3, 3.1445524e+2, -223149.42, -76683.195, 9315.969, -0.07223603, 0.22455782, -76093.03, -76093.03, 0.0, 9.998333, 10.000274 
1.0850137e+3, 1.24469966e+2, -1506108.8, -1747398.1, -53831.41, -0.014750851, 0.09708964, -1494643.8, 225565.3, 0.0006273791, 10.002013, 9.998804 
1.0850186e+3, 1.3446945e+2, -1410959.5, -1661887.6, 26258.877, -0.028087355, 0.17228334, -1408241.0, 213974.94, 0.0002858709, 10.002035, 9.998712 
1.0850236e+3, 1.4446865e+2, -1320216.0, -1546850.4, 4613.858, -0.014417517, 0.21493721, -1320122.1, 204102.8, 0.00006870092, 10.001899, 9.99889 
1.08502835e+3, 1.544672e+2, -1270714.3, -1467864.4, -16819.893, 0.017468778, 0.17457329, -1269289.5, 156949.83, 0.0000030594845, 10.001547, 9.998929 
1.0850328e+3, 1.644658e+2, -1221478.6, -1422951.0, -23258.734, 0.020059455, 0.15542775, -1218828.5, 109424.63, 0.000000000186287, 10.001339, 9.998665 
1.0850368e+3, 1.7446452e+2, -1126182.9, -1324178.3, -7695.8745, -0.012954097, 0.15835409, -1125884.1, 104381.39, 0.0, 10.001313, 9.998682 
1.0850409e+3, 1.8446346e+2, -1059651.9, -1251457.6, -6616.9175, -0.029834995, 0.18852778, -1059423.9, 72852.914, 0.0, 10.00114, 9.998592 
1.0850452e+3, 1.9446264e+2, -1011111.06, -1175458.0, -12625.686, -0.027108062, 0.24459974, -1010146.8, 24139.795, 0.0, 10.000792, 9.99861 
1.0850493e+3, 2.0446125e+2, -937567.4, -1075068.8, -20699.055, -0.01583935, 0.23834588, -934518.94, 1781.6127, 0.0, 10.000562, 9.998736 
1.0850536e+3, 2.1445914e+2, -847976.8, -977695.8, -16958.604, 0.0054677743, 0.14954287, -845796.44, -7476.8613, 0.0, 10.000489, 9.998767 
1.0850576e+3, 2.2445782e+2, -779534.5, -902633.25, -5454.2695, 0.002130163, 0.14388207, -779293.25, -38960.844, 0.0, 10.000323, 9.998691 
1.0850614e+3, 2.3445743e+2, -720858.2, -821542.75, -101.49527, -0.032428768, 0.23395813, -720858.1, -78520.37, 0.0, 10.000045, 9.998708 
1.08506545e+3, 2.4445638e+2, -644929.44, -722481.06, -5454.373, -0.040582202, 0.25319052, -644547.7, -100199.29, 0.0, 9.999843, 9.998812 
1.0850697e+3, 2.5445446e+2, -560224.2, -626878.75, -9967.207, -0.0154686645, 0.17720768, -558765.6, -112400.01, 0.0, 9.999734, 9.998847 
1.0850737e+3, 2.6445314e+2, -496519.06, -530125.0, -13513.158, -0.011029838, 0.15662882, -491759.47, -143381.27, 0.0, 9.999434, 9.998983 
1.0850774e+3, 2.7445263e+2, -472689.2, -463581.5, -12619.457, -0.032663725, 0.1995297, -454719.38, -204334.67, 0.0, 9.998905, 9.999021 
1.08508155e+3, 2.84452e+2, -418253.8, -399853.84, 4850.8594, -0.028791374, 0.2403865, -398653.3, -246260.97, 0.0, 9.998663, 9.998903 
1.0850862e+3, 2.9445124e+2, -304407.25, -291323.03, 9106.871, 0.007377571, 0.2695102, -286652.0, -232250.58, 0.0, 9.998759, 9.998928 
1.08509056e+3, 3.0445042e+2, -195271.02, -58287.805, 20210.502, -0.00028752288, 0.22781476, -55368.176, -55368.176, 0.0, 9.998505, 10.000318 
1.0850946e+3, 3.1445074e+2, -282493.97, -86620.805, 9335.943, -0.06387758, 0.22358863, -86176.836, -86176.836, 0.0, 9.997846, 10.000441 
1.0950149e+3, 1.2446576e+2, -1487144.1, -1705625.6, -61571.82, -0.09555756, 0.15121862, -1470987.0, 249264.31, 0.0007190712, 10.002005, 9.999095 
1.095021e+3, 1.3446495e+2, -1389957.9, -1618720.9, 28139.732, 0.014936739, 0.16616447, -1386547.4, 235711.84, 0.00033462446, 10.002036, 9.999008 
1.095026e+3, 1.4446385e+2, -1347117.6, -1602438.3, -8091.1406, 0.04031251, 0.18223402, -1346861.5, 177409.02, 0.000084530904, 10.001899, 9.998508 
1.09502956e+3, 1.5446207e+2, -1301180.0, -1530565.4, -29707.574, -0.02447699, 0.15120064, -1297395.1, 128894.53, 0.0000043925156, 10.001544, 9.9985 
1.0950334e+3, 1.6446084e+2, -1195670.5, -1368854.8, -25395.059, -0.049601164, 0.15303645, -1192023.4, 136278.6, 0.0000000006358386, 10.001337, 9.999037 
1.095038e+3, 1.7446032e+2, -1097038.6, -1263959.9, -8882.729, -0.024112966, 0.19124028, -1096567.3, 133738.55, 0.0, 10.001314, 9.999095 
1.0950422e+3, 1.8445921e+2, -1068652.6, -1270176.9, -20192.22, -0.011727901, 0.20133255, -1066649.4, 65667.47, 0.0, 10.00114, 9.998464 
1.095046e+3, 1.9445735e+2, -1022344.4, -1198451.6, -26323.473, -0.015509436, 0.16904591, -1018493.9, 15843.133, 0.0, 10.00079, 9.998452 
1.0950498e+3, 2.04456e+2, -930751.44, -1060949.0, -25096.516, -0.023219915, 0.17111112, -926081.4, 10269.781, 0.0, 10.000562, 9.998835 
1.09505355e+3, 2.1445529e+2, -840315.94, -961853.5, -20136.29, -0.035709772, 0.20971215, -837066.7, 1291.1731, 0.0, 10.000489, 9.998877 
1.09505765e+3, 2.2445421e+2, -769348.5, -881924.9, -16626.545, -0.029440163, 0.21788703, -766944.25, -26576.328, 0.0, 10.000324, 9.998832 
1.09506175e+3, 2.3445271e+2, -710765.25, -800497.5, -10969.507, 0.00027764274, 0.18057239, -709443.7, -67061.36, 0.0, 10.000044, 9.998854 
1.0950657e+3, 2.4445143e+2, -650800.25, -734649.3, -10055.845, -0.0004664467, 0.17359476, -649611.1, -105215.96, 0.0, 9.999842, 9.99873 
1.0950692e+3, 2.5445044e+2, -567292.0, -641025.7, -13505.071, -0.038656045, 0.19763325, -564896.25, -118490.42, 0.0, 9.999731, 9.998753 
1.09507285e+3, 2.644495e+2, -493700.56, -523719.84, -32258.512, -0.042597994, 0.21607646, -473130.72, -124715.12, 0.0, 9.999432, 9.999028 
1.09507665e+3, 2.7444863e+2, -468255.7, -455523.7, -31480.826, -0.005241935, 0.22112803, -429771.66, -179347.63, 0.0, 9.99891, 9.999074 
1.0950806e+3, 2.8444776e+2, -410402.25, -384717.44, 8141.518, -0.0005310719, 0.22950071, -382354.2, -229920.94, 0.0, 9.998668, 9.999005 
1.0950846e+3, 2.9444683e+2, -297953.66, -276565.3, 14159.619, -0.032817926, 0.23475036, -269515.2, -215071.8, 0.0, 9.998753, 9.999033 
1.0950887e+3, 3.04446e+2, -207061.34, -81346.62, -2988.0999, -0.034772765, 0.19405109, -81275.63, -81275.63, 0.0, 9.998498, 10.000163 
1.09509304e+3, 3.1444687e+2, -290543.56, -105424.97, -13447.866, -0.004027433, 0.2555502, -104453.16, -104453.16, 0.0, 9.997853, 10.000308 
1.10501684e+3, 1.2446155e+2, -1475617.0, -1704591.8, -47699.613, -0.09966669, 0.17633726, -1466077.6, 254215.3, 0.000818133, 10.002103, 9.999054 
1.10502295e+3, 1.3446042e+2, -1396838.4, -1625685.5, 24614.836, 0.013819406, 0.16383773, -1394220.8, 228083.16, 0.00038809632, 10.002002, 9.998978 
1.1050278e+3, 1.4445928e+2, -1348175.4, -1602521.8, -18189.883, 0.029015606, 0.17468393, -1346881.0, 177434.64, 0.000102482416, 10.001888, 9.998513 
1.105031e+3, 1.5445761e+2, -1275334.5, -1516990.6, -8836.206, -0.030988572, 0.15541872, -1275011.9, 151321.39, 0.0000061708192, 10.0017185, 9.998508 
1.1050348e+3, 1.6445646e+2, -1175813.1, -1358609.3, 3602.9658, -0.053006146, 0.16442108, -1175742.1, 152602.77, 0.0000000015512864, 10.001472, 9.999041 
1.1050392e+3, 1.7445593e+2, -1121140.1, -1275398.3, -10903.302, -0.029687975, 0.20250809, -1120373.3, 109975.83, 0.0, 10.001148, 9.999096 
1.1050432e+3, 1.8445477e+2, -1094189.4, -1273247.3, -31923.898, -0.016122, 0.20316704, -1088668.0, 43692.668, 0.0, 10.000923, 9.998548 
1.1050469e+3, 1.944528e+2, -1010591.56, -1182784.1, -20419.027, -0.01470621, 0.15114711, -1008203.3, 26177.883, 0.0, 10.000828, 9.998541 
1.10505044e+3, 2.0445159e+2, -915309.1, -1049845.0, -9679.65, -0.02194283, 0.15977597, -914616.25, 21777.871, 0.0, 10.000651, 9.998867 
1.1050541e+3, 2.1445128e+2, -854441.7, -965365.6, -11362.922, -0.04019387, 0.23622961, -853289.7, -14892.006, 0.0, 10.000378, 9.998906 
1.1050579e+3, 2.2445028e+2, -788195.56, -881942.2, -14312.896, -0.034382995, 0.24649115, -786059.0, -45651.85, 0.0, 10.000157, 9.998912 
1.1050619e+3, 2.3444845e+2, -710506.06, -791135.25, -13771.087, 0.0014097122, 0.1673672, -708218.9, -65794.86, 0.0, 10.000006, 9.998936 
1.1050656e+3, 2.4444717e+2, -657921.0, -731169.5, -10742.383, 0.0024100058, 0.15566035, -656378.06, -111941.625, 0.0, 9.999764, 9.998791 
1.1050687e+3, 2.5444666e+2, -609444.56, -654807.56, -4056.6191, -0.040204708, 0.2209937, -609084.6, -162641.42, 0.0, 9.999414, 9.99881 
1.1050721e+3, 2.644458e+2, -518853.84, -535292.06, -18035.063, -0.04431137, 0.24339664, -507253.34, -158800.94, 0.0, 9.999255, 9.999034 
1.1050758e+3, 2.7444452e+2, -406618.1, -425369.7, -21373.41, -0.0008307277, 0.20732547, -392654.5, -142190.23, 0.0, 9.999332, 9.999078 
1.1050795e+3, 2.8444362e+2, -341700.28, -340094.75, 14603.772, 0.0070259282, 0.20748894, -326271.72, -173798.36, 0.0, 9.99909, 9.999108 
1.1050832e+3, 2.944431e+2, -333809.16, -281805.03, 20013.318, -0.02695995, 0.24339359, -274994.9, -220515.72, 0.0, 9.998455, 9.999141 
1.1050872e+3, 3.0444217e+2, -259504.84, -118935.945, 7110.436, -0.03185073, 0.190466, -118577.19, -118577.19, 0.0, 9.998191, 10.000052 
1.1050912e+3, 3.1444266e+2, -216595.89, -78031.37, -2156.7244, -0.003142194, 0.22903529, -77997.805, -77997.805, 0.0, 9.998397, 10.000234 
1.1150196e+3, 1.2445734e+2, -1502300.5, -1758133.1, -59868.42, -0.033418633, 0.16823523, -1488983.6, 231350.17, 0.00092609524, 10.002096, 9.998689 
1.1150245e+3, 1.3445592e+2, -1422535.6, -1678806.5, 22201.816, -0.032861196, 0.16322853, -1420626.4, 201723.3, 0.00044726714, 10.002, 9.998614 
1.1150289e+3, 1.4445493e+2, -1320999.5, -1544943.8, -24797.713, -0.050292928, 0.1900757, -1318286.5, 206073.61, 0.00012295434, 10.0018835, 9.998911 
1.1150331e+3, 1.5445387e+2, -1244697.3, -1453203.0, -15260.045, -0.0049786232, 0.1881194, -1243586.4, 182783.23, 0.000008505592, 10.001718, 9.998947 
1.1150368e+3, 1.644527e+2, -1201306.3, -1411364.1, -9012.407, 0.0065325866, 0.19020922, -1200920.3, 127460.87, 0.0000000033697685, 10.0014715, 9.998679 
1.11504026e+3, 1.7445143e+2, -1149490.4, -1334395.8, -23142.994, -0.030093791, 0.19215107, -1146637.8, 83757.24, 0.0, 10.001148, 9.998691 
1.1150438e+3, 1.844502e+2, -1074068.4, -1231376.6, -36924.91, -0.043810774, 0.19418404, -1065832.3, 66575.445, 0.0, 10.000922, 9.998836 
1.1150476e+3, 1.9444905e+2, -987819.6, -1135725.3, -24475.514, -0.02631295, 0.19017136, -983874.6, 50544.164, 0.0, 10.000828, 9.998864 
1.1150511e+3, 2.0444801e+2, -917492.44, -1054734.6, -20870.156, -0.01422745, 0.2032736, -914388.94, 22040.15, 0.0, 10.000652, 9.998834 
1.1150547e+3, 2.1444714e+2, -858360.44, -973035.9, -22446.645, -0.009376405, 0.22975151, -854123.3, -15684.676, 0.0, 10.000376, 9.998855 
1.1150582e+3, 2.2444604e+2, -786896.94, -878933.56, -21240.871, -0.013884881, 0.2305642, -782231.3, -41781.73, 0.0, 10.000155, 9.998934 
1.1150615e+3, 2.3444466e+2, -708845.4, -787542.9, -19498.715, -0.029204238, 0.1938351, -704279.2, -61816.83, 0.0, 10.000005, 9.9989605 
1.1150649e+3, 2.4444367e+2, -644628.94, -703225.75, -23621.285, -0.032615773, 0.19879538, -636292.75, -91820.94, 0.0, 9.999763, 9.998983 
1.11506835e+3, 2.5444317e+2, -595182.06, -625640.9, -16698.639, -0.021578437, 0.2472132, -587811.0, -141333.61, 0.0, 9.999416, 9.99901 
1.1150718e+3, 2.644421e+2, -520818.47, -540091.2, -15731.993, -0.017269589, 0.23906916, -512006.1, -163517.84, 0.0, 9.999258, 9.999 
1.115075e+3, 2.7444032e+2, -411110.5, -433158.22, -17614.154, -0.021057392, 0.15790945, -401354.97, -150849.81, 0.0, 9.999325, 9.999028 
1.1150784e+3, 2.8443956e+2, -335355.9, -324832.78, -7316.0864, -0.008717178, 0.1737689, -321082.75, -168570.31, 0.0, 9.999081, 9.999217 
1.1150823e+3, 2.9444006e+2, -324712.7, -264532.75, -2188.0261, 0.023171997, 0.29522607, -264453.3, -209944.86, 0.0, 9.998461, 9.999257 
1.1150858e+3, 3.044389e+2, -264081.4, -130493.48, 14013.789, 0.007933215, 0.21869227, -129039.22, -129039.22, 0.0, 9.998199, 9.9999695 
1.115089e+3, 3.1443828e+2, -219626.84, -81932.086, 7664.734, -0.06393369, 0.15425904, -81506.74, -81506.74, 0.0, 9.998386, 10.000213 
1.1250221e+3, 1.2445343e+2, -1439502.3, -1740348.9, -51492.71, -0.021456076, 0.15670404, -1430932.9, 289439.03, 0.0010446907, 10.0025835, 9.998576 
1.1250265e+3, 1.3445207e+2, -1419747.9, -1689562.1, 57720.16, -0.04295456, 0.1695561, -1407918.8, 214469.16, 0.0005132032, 10.002072, 9.998507 
1.1250304e+3, 1.4445117e+2, -1335835.8, -1539418.9, 16467.145, -0.08120589, 0.20496169, -1334512.4, 189885.19, 0.00014641856, 10.001728, 9.999023 
1.1250347e+3, 1.5445009e+2, -1258517.6, -1446451.9, 1397.6266, -0.0023962283, 0.1887961, -1258507.3, 167899.08, 0.00001150662, 10.001565, 9.999067 
1.1250384e+3, 1.6444886e+2, -1225858.5, -1443955.4, -918.51056, 0.020333974, 0.18601567, -1225854.6, 102564.04, 0.0000000061074554, 10.001391, 9.998495 
1.1250415e+3, 1.7444745e+2, -1154276.8, -1359052.6, -643.4819, -0.03440234, 0.19494076, -1154274.8, 76160.37, 0.0, 10.001212, 9.998491 
1.1250447e+3, 1.8444629e+2, -1051061.3, -1201806.9, -7152.456, -0.055180214, 0.20602383, -1050722.8, 81724.78, 0.0, 10.001001, 9.999 
1.1250483e+3, 1.9444542e+2, -985810.7, -1114097.5, -5548.3823, -0.031637404, 0.21229196, -985571.2, 48883.594, 0.0, 10.000752, 9.999049 
1.12505175e+3, 2.0444438e+2, -938934.56, -1070628.5, -9205.889, -0.013452896, 0.21772593, -938294.1, -1829.4873, 0.0, 10.00053, 9.998783 
1.1250552e+3, 2.1444316e+2, -866781.2, -984235.1, -12272.298, -0.0029710468, 0.21468584, -865512.56, -27034.865, 0.0, 10.000349, 9.998791 
1.1250584e+3, 2.2444202e+2, -786550.8, -872772.2, -9161.245, -0.011410935, 0.2125561, -785588.2, -45098.926, 0.0, 10.000132, 9.998988 
1.12506144e+3, 2.34441e+2, -723852.7, -787657.2, -6278.8774, -0.04317115, 0.2069745, -723240.7, -80742.04, 0.0, 9.999872, 9.999023 
1.1250646e+3, 2.4444012e+2, -647893.4, -692327.3, -12469.327, -0.047227744, 0.21502194, -644633.4, -100126.55, 0.0, 9.999687, 9.999094 
1.125068e+3, 2.544394e+2, -561833.75, -596745.25, -12258.073, -0.01719251, 0.23099254, -557959.6, -111445.91, 0.0, 9.999591, 9.999124 
1.1250712e+3, 2.6443836e+2, -505717.8, -528735.56, -10774.591, -0.005616145, 0.21532947, -501461.34, -152937.0, 0.0, 9.999347, 9.999035 
1.1250741e+3, 2.7443683e+2, -468719.78, -457928.72, -7706.784, -0.016759332, 0.15854912, -453916.47, -203377.36, 0.0, 9.998917, 9.999055 
1.1250773e+3, 2.8443626e+2, -389705.38, -342038.94, 262.65872, -0.008475263, 0.18291499, -342037.47, -189492.36, 0.0, 9.998669, 9.999298 
1.1250808e+3, 2.944367e+2, -289424.03, -238153.94, 1077.8853, 0.024286404, 0.2925654, -238131.28, -183590.25, 0.0, 9.998665, 9.999339 
1.1250841e+3, 3.044354e+2, -234019.0, -123791.81, 21540.643, 0.0089249015, 0.20047168, -119731.87, -119731.87, 0.0, 9.99844, 9.9999 
1.12508714e+3, 3.1443498e+2, -286502.44, -111843.12, 16474.574, -0.060903974, 0.16257219, -110302.75, -110302.75, 0.0, 9.997918, 10.000233 
1.1350242e+3, 1.2444987e+2, -1430474.4, -1719150.8, -79576.18, -0.06858662, 0.14095652, -1409991.9, 310415.06, 0.001174958, 10.002575, 9.998725 
1.1350288e+3, 1.3444898e+2, -1409672.1, -1667992.1, 39034.152, -0.020109043, 0.18459938, -1403902.6, 218515.06, 0.00058639556, 10.002069, 9.998656 
1.13503225e+3, 1.4444807e+2, -1348484.5, -1565230.0, 9541.067, -0.06677521, 0.22106773, -1348065.3, 176361.83, 0.00017311395, 10.001726, 9.998848 
1.135036e+3, 1.5444632e+2, -1271749.0, -1474599.3, -4548.622, -0.023970649, 0.15682374, -1271647.1, 154795.77, 0.000015247707, 10.001567, 9.998874 
1.13503955e+3, 1.6444495e+2, -1226499.0, -1445522.3, -8526.261, -0.012652083, 0.15112297, -1226167.6, 102289.27, 0.000000009421829, 10.001392, 9.998485 
1.1350426e+3, 1.7444405e+2, -1154418.8, -1359547.8, -7587.3643, -0.044800516, 0.21106298, -1154138.5, 76330.33, 0.0, 10.001213, 9.998487 
1.13504566e+3, 1.8444307e+2, -1047923.6, -1195490.5, -17400.629, -0.05302958, 0.23822258, -1045899.56, 86580.02, 0.0, 10.001002, 9.999043 
1.1350491e+3, 1.9444197e+2, -982250.94, -1106897.9, -15590.321, -0.030915892, 0.21806519, -980330.56, 54158.145, 0.0, 10.000753, 9.999099 
1.1350522e+3, 2.0444074e+2, -943641.2, -1080676.5, -17370.533, -0.019873379, 0.20427169, -941473.56, -4973.471, 0.0, 10.00053, 9.998714 
1.1350553e+3, 2.1443936e+2, -872172.3, -995646.6, -19494.996, -0.022566762, 0.19171414, -869167.44, -30652.955, 0.0, 10.000349, 9.998713 
1.1350583e+3, 2.2443825e+2, -781214.06, -861408.94, -19734.809, -0.029340545, 0.19319859, -776620.7, -36095.117, 0.0, 10.000131, 9.999066 
1.1350613e+3, 2.344375e+2, -717665.3, -774811.94, -16244.452, -0.041112296, 0.20637481, -713370.44, -70837.875, 0.0, 9.999872, 9.999112 
1.1350644e+3, 2.4443659e+2, -645440.44, -687364.0, -16739.434, -0.0419922, 0.20373738, -639576.8, -95035.68, 0.0, 9.999688, 9.999128 
1.1350674e+3, 2.5443545e+2, -560405.06, -592491.9, -15435.418, -0.028738765, 0.17354435, -554185.4, -107633.82, 0.0, 9.999585, 9.999156 
1.1350704e+3, 2.644346e+2, -499420.34, -513894.1, -25666.154, -0.011412865, 0.17390664, -479990.3, -131430.25, 0.0, 9.999338, 9.999141 
1.1350732e+3, 2.7443412e+2, -460051.72, -441277.88, -22390.227, 0.010273958, 0.20886098, -426386.5, -175820.77, 0.0, 9.998922, 9.9991665 
1.13507606e+3, 2.8443363e+2, -386572.0, -337618.5, -493.66797, 0.0070352037, 0.23427586, -337613.5, -185042.36, 0.0, 9.998677, 9.999325 
1.135079e+3, 2.94433e+2, -289469.84, -235847.5, 1964.2334, -0.025635993, 0.23481308, -235775.64, -181198.78, 0.0, 9.998653, 9.999361 
1.1350822e+3, 3.0443162e+2, -238410.97, -129298.16, 3716.0261, -0.03139771, 0.13527867, -129171.75, -129171.75, 0.0, 9.998425, 9.999869 
1.1350857e+3, 3.1443277e+2, -278568.63, -97700.766, -490.47382, 0.00015850176, 0.25974306, -97699.44, -97699.44, 0.0, 9.997928, 10.000326 
1.1450264e+3, 1.2444685e+2, -1490814.3, -1740710.5, -63004.59, -0.08659625, 0.1428289, -1475828.1, 244608.48, 0.0013167423, 10.002129, 9.998793 
1.14503115e+3, 1.3444589e+2, -1369546.5, -1639333.0, 56385.414, 0.0023510125, 0.17183125, -1358236.1, 264211.06, 0.0006665531, 10.002303, 9.998742 
1.1450343e+3, 1.4444496e+2, -1291039.1, -1562130.6, 19807.867, -0.06664233, 0.21184383, -1289599.4, 234857.48, 0.00020295075, 10.002226, 9.998629 
1.1450375e+3, 1.544431e+2, -1248617.3, -1489948.4, 1536.0275, -0.052126877, 0.16013645, -1248607.5, 177867.55, 0.000019742625, 10.001841, 9.998636 
1.1450406e+3, 1.6444169e+2, -1201100.8, -1417355.1, 3346.538, -0.041855738, 0.15708771, -1201049.0, 127440.53, 0.000000013934886, 10.001497, 9.998627 
1.1450438e+3, 1.7444086e+2, -1144255.4, -1336737.3, 16229.328, -0.043375097, 0.20652123, -1142896.5, 87603.1, 0.0, 10.0012045, 9.99865 
1.1450469e+3, 1.8443987e+2, -1057266.3, -1217305.6, 9850.064, -0.042108987, 0.23164539, -1056662.3, 75847.94, 0.0, 10.001014, 9.998888 
1.1450498e+3, 1.944387e+2, -963638.7, -1117267.9, -5254.2, -0.036465343, 0.22041471, -963459.2, 71062.09, 0.0, 10.000965, 9.998925 
1.14505276e+3, 2.0443742e+2, -902217.4, -1046816.7, -13877.772, -0.035239626, 0.2068779, -900897.5, 35635.676, 0.0, 10.000756, 9.998837 
1.14505544e+3, 2.1443607e+2, -863189.6, -975189.2, -1065.2924, -0.040619068, 0.18405713, -863179.5, -24633.469, 0.0, 10.000343, 9.998855 
1.1450582e+3, 2.24435e+2, -794366.56, -870962.2, 7481.6484, -0.040438104, 0.18287265, -793642.6, -53086.098, 0.0, 10.000055, 9.999037 
1.14506125e+3, 2.3443426e+2, -712816.44, -777097.56, 1465.716, -0.033769462, 0.20199697, -712783.06, -70219.086, 0.0, 9.999927, 9.99907 
1.1450641e+3, 2.4443336e+2, -644898.5, -685783.8, -6534.715, -0.030240798, 0.20183307, -643879.44, -99306.734, 0.0, 9.999686, 9.99914 
1.1450669e+3, 2.5443223e+2, -599563.0, -610007.7, -8002.7773, -0.029926151, 0.17098719, -595229.3, -148646.33, 0.0, 9.9993105, 9.999167 
1.1450696e+3, 2.6443142e+2, -532526.5, -522269.88, -20125.813, -0.017252449, 0.17189488, -506629.25, -158038.34, 0.0, 9.999079, 9.999208 
1.1450723e+3, 2.7443102e+2, -439287.22, -423092.06, -20503.398, 0.009357914, 0.20795852, -409145.13, -158549.47, 0.0, 9.999031, 9.999239 
1.1450748e+3, 2.8443056e+2, -365119.88, -327559.97, -725.09894, 0.005342157, 0.23505615, -327546.0, -174945.31, 0.0, 9.998828, 9.99932 
1.1450774e+3, 2.9442996e+2, -326149.4, -255327.73, -497.33835, -0.03408, 0.23712659, -255324.25, -200717.55, 0.0, 9.998409, 9.999346 
1.1450803e+3, 3.044285e+2, -274044.47, -147451.08, 1450.3442, -0.037260182, 0.13286859, -147434.47, -147434.47, 0.0, 9.998185, 9.99986 
1.1450838e+3, 3.1442994e+2, -223929.89, -54798.23, -4920.747, 0.011988671, 0.2842852, -54655.188, -54655.188, 0.0, 9.998235, 10.000471 
1.1550286e+3, 1.2444442e+2, -1493805.6, -1743697.5, -61649.45, -0.08083726, 0.16422202, -1479424.1, 241036.03, 0.0014692028, 10.002116, 9.998777 
1.1550337e+3, 1.3444285e+2, -1368075.4, -1636408.5, 63427.605, 0.022288771, 0.13018875, -1353838.0, 268637.8, 0.00075311697, 10.002304, 9.998762 
1.1550364e+3, 1.4444187e+2, -1308872.9, -1599874.8, 5445.15, -0.082005024, 0.17657173, -1308771.0, 215715.4, 0.000235787, 10.002228, 9.998369 
1.1550389e+3, 1.5444048e+2, -1268171.8, -1530340.5, -13004.917, -0.088520505, 0.19929829, -1267528.3, 158973.86, 0.000024990082, 10.00184, 9.99836 
1.1550419e+3, 1.6443914e+2, -1180859.6, -1374990.9, -8498.137, -0.069406174, 0.20438239, -1180488.3, 148027.55, 0.000000023716384, 10.001495, 9.998919 
1.155045e+3, 1.7443791e+2, -1121276.1, -1289134.3, 4756.9766, -0.03137594, 0.18173143, -1121141.4, 109385.49, 0.0, 10.0012045, 9.998976 
1.15504794e+3, 1.8443672e+2, -1081868.1, -1268894.9, 6515.583, -0.024165165, 0.18689443, -1081641.5, 50897.418, 0.0, 10.001015, 9.998534 
1.1550507e+3, 1.944356e+2, -991283.5, -1174977.5, -7342.8203, -0.050158724, 0.21930037, -990990.5, 43561.57, 0.0, 10.000966, 9.998529 
1.1550532e+3, 2.0443447e+2, -880876.3, -1002334.0, -29765.768, -0.06180108, 0.225044, -873973.8, 62589.5, 0.0, 10.000755, 9.999144 
1.1550557e+3, 2.1443333e+2, -838655.7, -924280.06, -17513.186, -0.056965314, 0.19092114, -835212.1, 3360.0786, 0.0, 10.000342, 9.999206 
1.1550582e+3, 2.2443229e+2, -803727.9, -890249.75, 928.939, -0.044847887, 0.1807933, -803717.94, -63136.145, 0.0, 10.000055, 9.998904 
1.1550613e+3, 2.3443136e+2, -724475.44, -800925.3, -3499.752, -0.022960786, 0.19442578, -724315.56, -81723.28, 0.0, 9.999924, 9.998908 
1.15506396e+3, 2.4443051e+2, -646631.8, -688504.8, -20243.768, -0.014590812, 0.21021488, -638445.4, -93844.34, 0.0, 9.999682, 9.999123 
1.1550663e+3, 2.5442982e+2, -599390.0, -610817.9, -21633.744, -0.022545552, 0.22164221, -582728.4, -136120.73, 0.0, 9.999315, 9.999161 
1.1550686e+3, 2.6442882e+2, -530625.44, -519731.94, -22498.473, -0.024400255, 0.20667401, -502030.28, -153413.5, 0.0, 9.999084, 9.999224 
1.1550709e+3, 2.7442762e+2, -439296.06, -421271.53, -21702.412, -0.020039992, 0.15643181, -406784.53, -156155.83, 0.0, 9.999023, 9.999255 
1.1550735e+3, 2.844272e+2, -366896.13, -328345.84, -14720.958, -0.014574608, 0.18689598, -323367.38, -170734.16, 0.0, 9.998815, 9.999322 
1.155076e+3, 2.9442766e+2, -325487.88, -255422.61, -13797.692, -0.0069398587, 0.2989786, -252803.39, -198173.53, 0.0, 9.998415, 9.999342 
1.15507886e+3, 3.0442613e+2, -276566.56, -155338.9, 2914.9414, -0.013285099, 0.19183384, -155268.86, -155268.86, 0.0, 9.998195, 9.999803 
1.1550818e+3, 3.144265e+2, -215485.23, -36645.86, -1496.623, -0.026461042, 0.24289007, -36633.336, -36633.336, 0.0, 9.99823, 10.000599 
1.165031e+3, 1.2444173e+2, -1447668.1, -1731157.6, -73372.44, -0.067209065, 0.17545775, -1429803.6, 290683.4, 0.0016317561, 10.002478, 9.99869 
1.16503604e+3, 1.3444e+2, -1367951.9, -1642416.3, 48796.305, 0.021607233, 0.13105027, -1359534.6, 262969.75, 0.00084588735, 10.002329, 9.99871 
1.16503805e+3, 1.4443909e+2, -1324405.0, -1597632.4, -13309.021, -0.11544613, 0.18235579, -1323758.3, 200756.17, 0.00027161013, 10.002079, 9.998456 
1.16504066e+3, 1.5443788e+2, -1281839.3, -1526362.5, -5585.9834, -0.09468209, 0.21440099, -1281711.8, 144816.58, 0.000031011183, 10.0016985, 9.998456 
1.1650435e+3, 1.6443656e+2, -1180024.8, -1373491.9, 13626.942, -0.062942535, 0.21632235, -1179069.6, 149471.78, 0.00000004774233, 10.001498, 9.998928 
1.16504654e+3, 1.7443515e+2, -1071848.1, -1264967.0, 2722.3066, -0.033595607, 0.17449903, -1071809.8, 158743.81, 0.0, 10.001543, 9.998979 
1.1650491e+3, 1.8443388e+2, -1037695.1, -1244889.0, -1177.0101, -0.031113543, 0.17053504, -1037688.44, 94877.56, 0.0, 10.001306, 9.998558 
1.1650514e+3, 1.9443282e+2, -1025558.2, -1188313.5, 15512.411, -0.057570547, 0.20729198, -1024092.9, 10485.671, 0.0, 10.000717, 9.998557 
1.1650537e+3, 2.0443176e+2, -932988.2, -1027577.1, 4092.0376, -0.06561977, 0.21857426, -932811.5, 3777.7402, 0.0, 10.000399, 9.999141 
1.165056e+3, 2.1443069e+2, -826612.7, -919238.5, -9800.861, -0.05224754, 0.19063084, -825587.0, 13010.732, 0.0, 10.000428, 9.999199 
1.1650585e+3, 2.2442967e+2, -774773.44, -878312.8, -4033.4856, -0.0387456, 0.18359037, -774616.56, -34009.266, 0.0, 10.000262, 9.998886 
1.16506115e+3, 2.344287e+2, -736421.94, -808571.56, 478.65787, -0.024308499, 0.19756185, -736418.75, -93800.81, 0.0, 9.999851, 9.99889 
1.16506346e+3, 2.4442787e+2, -663537.94, -700576.56, -9761.85, -0.017611125, 0.21473658, -661122.6, -116495.695, 0.0, 9.999584, 9.999087 
1.1650657e+3, 2.5442713e+2, -575834.7, -603458.4, -13332.292, -0.021576738, 0.22719668, -570449.7, -123815.73, 0.0, 9.9994955, 9.999124 
1.1650678e+3, 2.644261e+2, -499246.34, -502202.97, -14618.61, -0.024020921, 0.2080657, -486031.47, -137387.97, 0.0, 9.99929, 9.999244 
1.16506994e+3, 2.744248e+2, -451547.2, -425304.8, -13734.94, -0.023748096, 0.14878528, -419430.9, -168775.36, 0.0, 9.99893, 9.999273 
1.1650722e+3, 2.8442436e+2, -399712.1, -344295.22, -11300.173, -0.015003321, 0.17794597, -342079.56, -189419.63, 0.0, 9.9985895, 9.999321 
1.16507456e+3, 2.9442492e+2, -344247.22, -264793.06, -13222.808, 0.0038428165, 0.29553664, -262650.3, -207993.86, 0.0, 9.998289, 9.999338 
1.165077e+3, 3.0442327e+2, -285659.66, -167020.72, 17659.42, -0.0035446088, 0.179236, -164447.9, -164447.9, 0.0, 9.998166, 9.999735 
1.1650799e+3, 3.144235e+2, -208071.7, -19492.258, 15186.679, -0.027307622, 0.22297618, -18277.074, -18277.074, 0.0, 9.998221, 10.000723 
1.1750337e+3, 1.2443885e+2, -1459731.4, -1755992.4, -82760.35, -0.046866488, 0.17867629, -1438180.1, 282336.34, 0.0018049687, 10.002477, 9.998519 
1.1750381e+3, 1.3443741e+2, -1376932.6, -1660384.1, 43451.723, -0.0014682903, 0.17503604, -1370421.3, 252110.78, 0.0009453062, 10.002325, 9.998589 
1.1750397e+3, 1.4443667e+2, -1295395.1, -1535993.8, -27675.035, -0.16902918, 0.23008454, -1292252.8, 232287.22, 0.0003105983, 10.002073, 9.998882 
1.1750426e+3, 1.5443537e+2, -1249186.8, -1458393.4, -20037.51, -0.07298099, 0.20559865, -1247284.9, 179267.89, 0.000037854974, 10.0016985, 9.998921 
1.1750453e+3, 1.6443403e+2, -1198741.0, -1413648.1, 13590.036, -0.025186382, 0.19255687, -1197885.0, 130680.78, 0.00000010132158, 10.001502, 9.9986515 
1.1750478e+3, 1.7443262e+2, -1094216.1, -1311682.9, 4344.11, -0.05071909, 0.18452267, -1094129.4, 136449.89, 0.0, 10.001543, 9.998658 
1.1750501e+3, 1.844314e+2, -1010054.6, -1186938.8, -23007.855, -0.06430878, 0.18301459, -1007110.94, 125479.96, 0.0, 10.001303, 9.998958 
1.17505215e+3, 1.9443044e+2, -994676.44, -1124220.8, -7382.2964, -0.058925137, 0.1849915, -994257.1, 40343.043, 0.0, 10.000717, 9.998998 
1.1750543e+3, 2.0442939e+2, -953955.9, -1071698.0, 2778.3984, -0.047782194, 0.18787283, -953890.4, -17279.928, 0.0, 10.000401, 9.998837 
1.1750568e+3, 2.1442819e+2, -851183.0, -970148.56, -9124.505, -0.029210119, 0.18288645, -850487.25, -11865.069, 0.0, 10.000426, 9.99885 
1.1750589e+3, 2.2442716e+2, -769559.56, -866796.4, -19527.412, -0.025169099, 0.19124022, -765784.56, -25152.12, 0.0, 10.000258, 9.998967 
1.1750608e+3, 2.344264e+2, -728305.56, -792419.0, -15380.876, -0.038030412, 0.21072738, -724806.6, -82166.05, 0.0, 9.999853, 9.999 
1.1750629e+3, 2.4442543e+2, -666962.2, -708117.6, -14290.996, -0.03937603, 0.21447806, -662486.44, -117836.31, 0.0, 9.999586, 9.999035 
1.17506504e+3, 2.5442424e+2, -580903.94, -612899.4, -16270.33, -0.02717224, 0.18907845, -574083.9, -127422.266, 0.0, 9.999491, 9.999061 
1.1750671e+3, 2.644233e+2, -497215.6, -496937.2, -26861.092, -0.01671545, 0.17789073, -470214.94, -121544.414, 0.0, 9.999285, 9.999284 
1.175069e+3, 2.744227e+2, -447848.34, -418508.1, -25746.031, -0.007990507, 0.18373749, -403545.97, -152870.25, 0.0, 9.998933, 9.999319 
1.1750709e+3, 2.8442222e+2, -402662.3, -351797.28, -22325.328, -0.0022984813, 0.20580053, -343388.5, -190707.94, 0.0, 9.998594, 9.999268 
1.1750728e+3, 2.9442173e+2, -348453.22, -273013.3, -24025.883, -0.00031932525, 0.22830796, -266011.5, -211325.14, 0.0, 9.998286, 9.999283 
1.1750752e+3, 3.0441993e+2, -287104.84, -168367.73, 20180.402, -0.0060049114, 0.09733671, -165031.63, -165031.63, 0.0, 9.998158, 9.99973 
1.1750785e+3, 3.1442103e+2, -193860.9, 10590.017, 21294.012, -0.001543659, 0.22951153, 12784.285, 12784.285, 0.0, 9.9982195, 10.00093 
1.18503615e+3, 1.24436416e+2, -1416248.5, -1726823.6, -70620.7, -0.05922033, 0.1907953, -1400944.4, 319597.2, 0.001990702, 10.002742, 9.998591 
1.18504025e+3, 1.3443504e+2, -1405777.5, -1659568.3, 74931.445, 0.0018562404, 0.18036097, -1385305.4, 237250.36, 0.0010523666, 10.002063, 9.998721 
1.1850415e+3, 1.4443436e+2, -1331123.8, -1548412.1, 14762.782, -0.1851618, 0.23183091, -1330125.4, 194437.4, 0.00035315592, 10.001809, 9.998923 
1.1850446e+3, 1.5443301e+2, -1186012.1, -1423843.3, -9227.923, -0.06859263, 0.19921678, -1185654.6, 240921.28, 0.000045623692, 10.002115, 9.998958 
1.1850471e+3, 1.6443172e+2, -1133030.4, -1381780.4, 6273.9185, -0.01644557, 0.18852782, -1132872.3, 195716.33, 0.00000019883093, 10.001952, 9.998653 
1.18504904e+3, 1.7443047e+2, -1143747.3, -1335114.6, 19811.08, -0.059077278, 0.19755378, -1141717.9, 88882.79, 0.0, 10.001202, 9.998662 
1.18505105e+3, 1.8442927e+2, -1071281.8, -1209607.8, -1045.6699, -0.07608464, 0.19558331, -1071273.9, 61337.99, 0.0, 10.0008545, 9.999018 
1.185053e+3, 1.9442815e+2, -945946.6, -1093773.3, -13765.467, -0.05740608, 0.17416489, -944675.75, 89946.28, 0.0, 10.001021, 9.99906 
1.1850551e+3, 2.0442703e+2, -889304.9, -1050743.9, -11564.291, -0.042352386, 0.17179923, -888480.7, 48152.063, 0.0, 10.000888, 9.998747 
1.1850572e+3, 2.1442594e+2, -864948.0, -986997.6, -5567.134, -0.032652542, 0.185195, -864694.56, -26050.297, 0.0, 10.000378, 9.998756 
1.18505895e+3, 2.2442491e+2, -797915.8, -875924.94, -7530.5645, -0.032392286, 0.1960229, -797195.5, -56540.88, 0.0, 10.000046, 9.999006 
1.1850607e+3, 2.3442398e+2, -713113.44, -779853.5, -8385.452, -0.04373793, 0.19734809, -712076.0, -69412.45, 0.0, 9.999935, 9.999047 
1.1850625e+3, 2.4442299e+2, -645529.25, -700710.8, -6483.218, -0.04226016, 0.19573084, -644777.75, -100104.555, 0.0, 9.999745, 9.999009 
1.18506454e+3, 2.544219e+2, -587712.9, -619775.9, -7139.6187, -0.024276206, 0.18165083, -586194.94, -139510.81, 0.0, 9.999459, 9.999029 
1.1850664e+3, 2.6442096e+2, -510480.7, -502248.78, -21591.586, -0.010534897, 0.17467494, -484384.34, -135691.52, 0.0, 9.999189, 9.999293 
1.185068e+3, 2.7442032e+2, -445021.03, -415623.03, -24570.527, -0.0036445018, 0.17429075, -401690.38, -150991.9, 0.0, 9.998948, 9.9993305 
1.1850696e+3, 2.844198e+2, -377683.38, -344773.1, -17625.594, 0.0016667368, 0.1957845, -337115.3, -184411.81, 0.0, 9.99879, 9.999221 
1.1850714e+3, 2.9441938e+2, -288567.88, -250640.44, -17668.79, 0.006876893, 0.22688305, -243684.88, -188975.98, 0.0, 9.998725, 9.999227 
1.1850736e+3, 3.0441752e+2, -264474.7, -164423.6, 18506.674, 0.0028060407, 0.09908419, -161110.11, -161110.11, 0.0, 9.998343, 9.999667 
1.1850764e+3, 3.1441835e+2, -277125.3, -11610.351, 10432.756, 0.01192267, 0.2085886, -11201.052, -11201.052, 0.0, 9.997571, 10.001089 
1.1950385e+3, 1.2443448e+2, -1396607.9, -1682527.4, -96507.82, -0.108497396, 0.2112662, -1367082.1, 353479.63, 0.0021913827, 10.002728, 9.998901 
1.1950426e+3, 1.3443296e+2, -1378935.3, -1603809.1, 49284.184, 0.02961645, 0.14769088, -1368608.3, 253966.78, 0.0011682742, 10.002063, 9.999104 
1.1950435e+3, 1.444322e+2, -1354232.1, -1598002.8, 23233.754, -0.16593905, 0.18813394, -1352037.5, 172544.66, 0.00039982723, 10.001814, 9.998582 
1.1950465e+3, 1.5443087e+2, -1213033.3, -1480354.1, 2346.9766, -0.082073726, 0.19565016, -1213012.6, 213584.44, 0.00005450218, 10.002115, 9.99857 
1.19504884e+3, 1.6442971e+2, -1114233.0, -1342064.8, -20352.441, -0.038189083, 0.20561598, -1112429.3, 216179.89, 0.00000035173326, 10.001948, 9.998927 
1.1950503e+3, 1.7442878e+2, -1121368.3, -1288908.9, -8840.825, -0.05996539, 0.21344756, -1120903.0, 109714.21, 0.0, 10.001203, 9.998979 
1.195052e+3, 1.8442756e+2, -1090227.3, -1249881.0, 2414.4187, -0.06892806, 0.20667504, -1090190.8, 42437.707, 0.0, 10.000857, 9.998739 
1.19505405e+3, 1.94426e+2, -967721.7, -1139306.6, -7975.2837, -0.05498194, 0.17367189, -967351.8, 67291.87, 0.0, 10.001021, 9.998748 
1.1950558e+3, 2.0442475e+2, -881317.2, -1033454.3, -30434.137, -0.05137556, 0.1707734, -875454.94, 61200.727, 0.0, 10.000884, 9.998868 
1.1950571e+3, 2.1442395e+2, -854651.44, -965911.6, -25505.475, -0.06194302, 0.19780104, -849083.2, -10419.653, 0.0, 10.000379, 9.998901 
1.19505875e+3, 2.244229e+2, -797393.4, -875291.9, -13473.685, -0.060358215, 0.19795948, -795128.75, -54455.227, 0.0, 10.000048, 9.99901 
1.1950607e+3, 2.3442155e+2, -713701.4, -780928.4, -12663.007, -0.04245954, 0.15788862, -711395.25, -68709.06, 0.0, 9.999933, 9.999041 
1.1950624e+3, 2.4442057e+2, -646278.75, -702051.75, -17195.115, -0.028042223, 0.15908176, -641403.5, -96707.88, 0.0, 9.999743, 9.999001 
1.1950641e+3, 2.5442007e+2, -588089.2, -620660.8, -17517.627, -0.016971271, 0.20366198, -580456.5, -133755.34, 0.0, 9.999458, 9.999023 
1.1950657e+3, 2.6441914e+2, -513412.1, -508637.7, -30574.916, -0.009374262, 0.19696504, -480356.9, -131646.69, 0.0, 9.99919, 9.999249 
1.1950669e+3, 2.744177e+2, -448099.44, -422142.16, -33126.5, -0.008086548, 0.122602955, -399542.56, -148819.05, 0.0, 9.998948, 9.999287 
1.19506836e+3, 2.844172e+2, -377445.47, -344359.7, -19708.912, -0.00090897986, 0.1499395, -335171.1, -182442.78, 0.0, 9.998789, 9.999224 
1.1950702e+3, 2.9441786e+2, -289673.22, -251827.97, -17759.844, 0.01551935, 0.28781867, -244799.14, -190075.48, 0.0, 9.99872, 9.99922 
1.195072e+3, 3.044161e+2, -279294.88, -194709.22, -8044.87, 0.01201272, 0.18065895, -193950.88, -193950.88, 0.0, 9.998341, 9.999461 
1.1950741e+3, 3.144155e+2, -275740.53, -9915.9375, -16834.275, 0.016038632, 0.17070556, -8854.09, -8854.09, 0.0, 9.997575, 10.001099 
1.2050407e+3, 1.2443281e+2, -1489131.0, -1736497.8, -56658.17, -0.124270834, 0.21089967, -1476771.3, 243806.6, 0.0024090873, 10.002133, 9.9988165 
1.2050451e+3, 1.3443115e+2, -1285785.1, -1561190.0, 55221.016, 0.048619438, 0.13754454, -1275125.5, 347466.63, 0.0012942023, 10.002712, 9.9990835 
1.20504566e+3, 1.4443035e+2, -1241708.4, -1548891.8, 15206.847, -0.17018872, 0.17698078, -1240957.5, 283642.16, 0.00045114366, 10.002609, 9.998535 
1.2050482e+3, 1.5442914e+2, -1276985.4, -1515844.5, 18783.654, -0.098187596, 0.19926456, -1275517.4, 151096.44, 0.00006471426, 10.0016985, 9.998527 
1.2050503e+3, 1.6442797e+2, -1206232.3, -1387547.8, 3157.9048, -0.05279617, 0.21197718, -1206177.3, 122448.664, 0.00000057087306, 10.001324, 9.998915 
1.2050518e+3, 1.744269e+2, -1060128.4, -1261142.6, -10324.047, -0.058997724, 0.20697674, -1059599.5, 171035.89, 0.0, 10.001631, 9.998962 
1.20505325e+3, 1.8442565e+2, -999677.5, -1215927.9, -5415.9097, -0.062304825, 0.20170932, -999541.94, 133105.27, 0.0, 10.00152, 9.998653 
1.20505504e+3, 1.9442421e+2, -994360.7, -1161342.6, 471.67166, -0.055039566, 0.18889952, -994359.3, 40302.527, 0.0, 10.000879, 9.998664 
1.2050565e+3, 2.04423e+2, -932922.56, -1048500.1, -15640.89, -0.05491331, 0.18733342, -930843.3, 5830.212, 0.0, 10.000488, 9.998954 
1.2050575e+3, 2.1442205e+2, -843040.06, -949786.56, -15054.662, -0.066115305, 0.1920708, -840957.5, -2275.8806, 0.0, 10.000412, 9.998997 
1.20505884e+3, 2.2442092e+2, -775974.1, -874864.4, -5167.797, -0.05997133, 0.18390056, -775704.75, -35012.71, 0.0, 10.000236, 9.998923 
1.2050607e+3, 2.3441957e+2, -719989.44, -794227.0, -11836.515, -0.030330183, 0.15312104, -718147.94, -75442.56, 0.0, 9.999936, 9.998948 
1.2050623e+3, 2.4441862e+2, -653940.4, -696209.0, -18972.023, -0.014693452, 0.15756883, -646674.06, -101959.44, 0.0, 9.999651, 9.999084 
1.20506346e+3, 2.5441816e+2, -592410.9, -611804.25, -12691.771, -0.017056715, 0.19705921, -586135.5, -139416.47, 0.0, 9.999383, 9.999121 
1.2050648e+3, 2.644172e+2, -515875.6, -520917.1, -18473.012, -0.013743637, 0.18951885, -499752.16, -151024.06, 0.0, 9.999222, 9.999149 
1.2050661e+3, 2.7441567e+2, -418937.47, -420646.88, -25752.129, -0.003348796, 0.11987613, -394025.88, -143283.13, 0.0, 9.999202, 9.999175 
1.2050674e+3, 2.8441516e+2, -344334.4, -323913.44, -18568.938, 0.007251049, 0.14520934, -312932.88, -160184.6, 0.0, 9.998998, 9.999264 
1.2050688e+3, 2.9441574e+2, -310124.56, -256203.36, -16184.939, 0.01858133, 0.27260345, -251718.36, -196974.7, 0.0, 9.998558, 9.999267 
1.2050703e+3, 3.0441406e+2, -303531.3, -229354.69, -9118.174, 0.013638364, 0.18296155, -228250.27, -228250.27, 0.0, 9.998274, 9.999255 
1.2050722e+3, 3.144133e+2, -189242.7, 29662.29, -15896.121, 0.028213952, 0.17277884, 30810.586, 30810.586, 0.0, 9.9981785, 10.0010805 
1.215043e+3, 1.24431476e+2, -1523271.9, -1807912.9, -33165.395, -0.107764624, 0.1903119, -1519458.8, 201130.42, 0.002645014, 10.002135, 9.998325 
1.215048e+3, 1.3442972e+2, -1315233.5, -1622770.0, 76348.38, 0.056497645, 0.14915563, -1297322.6, 325283.84, 0.0014309159, 10.002712, 9.998662 
1.215048e+3, 1.4442892e+2, -1224899.8, -1512849.5, -17117.979, -0.20080122, 0.19754845, -1223885.8, 300728.9, 0.00050734985, 10.0026045, 9.998785 
1.2150498e+3, 1.5442787e+2, -1256242.4, -1472845.6, -15557.096, -0.117701694, 0.20918319, -1255130.8, 171494.77, 0.000076397075, 10.001698, 9.998822 
1.2150516e+3, 1.6442657e+2, -1227625.6, -1432457.0, 11222.204, -0.062202983, 0.20621306, -1227012.6, 101625.984, 0.0000008702971, 10.001325, 9.998607 
1.21505335e+3, 1.7442492e+2, -1084602.5, -1312191.3, 1044.9305, -0.0576967, 0.17862216, -1084597.8, 146056.94, 0.0, 10.001631, 9.998612 
1.21505484e+3, 1.8442363e+2, -992633.06, -1200394.0, -28386.938, -0.058140833, 0.1831468, -988824.25, 143843.1, 0.0, 10.001516, 9.998762 
1.2150559e+3, 1.9442283e+2, -984678.2, -1141643.1, -24003.887, -0.05785185, 0.21962716, -981089.44, 53586.57, 0.0, 10.00088, 9.998798 
1.215057e+3, 2.0442171e+2, -928986.6, -1041210.56, -20786.127, -0.05418205, 0.21971034, -925260.4, 11425.839, 0.0, 10.000492, 9.999002 
1.2150581e+3, 2.1442024e+2, -840074.2, -943398.44, -18593.781, -0.047556695, 0.16740967, -836830.0, 1868.288, 0.0, 10.00041, 9.999042 
1.21505946e+3, 2.2441901e+2, -789064.4, -901381.75, -17093.477, -0.03353063, 0.15404318, -786520.56, -45810.742, 0.0, 10.000232, 9.998743 
1.2150608e+3, 2.3441806e+2, -733503.7, -822440.06, -23323.406, -0.008985563, 0.18246275, -727758.3, -85037.7, 0.0, 9.999936, 9.9987545 
1.215062e+3, 2.4441713e+2, -641422.75, -670725.6, -29459.393, -0.003604439, 0.19059947, -623172.5, -78442.71, 0.0, 9.999652, 9.99926 
1.2150629e+3, 2.544162e+2, -578042.5, -582949.5, -22320.22, -0.023630576, 0.16309983, -558041.3, -111304.1, 0.0, 9.999386, 9.999318 
1.2150639e+3, 2.6441526e+2, -526116.2, -542859.5, -19346.828, -0.023078652, 0.15322873, -513407.44, -164661.47, 0.0, 9.999225, 9.998998 
1.2150653e+3, 2.7441436e+2, -432011.38, -446240.16, -25049.383, 0.0039001452, 0.1634797, -413085.7, -162329.77, 0.0, 9.999194, 9.999002 
1.21506654e+3, 2.8441367e+2, -342578.53, -319416.0, -33316.617, 0.018870654, 0.17956659, -295725.16, -142961.86, 0.0, 9.998992, 9.999298 
1.21506736e+3, 2.9441306e+2, -305935.72, -249008.83, -32035.25, 0.018951934, 0.18500617, -234618.73, -179850.08, 0.0, 9.998563, 9.999314 
1.2150686e+3, 3.0441153e+2, -312311.13, -248873.97, -12510.864, 0.010212779, 0.11020372, -246495.78, -246495.78, 0.0, 9.99828, 9.999118 
1.2150703e+3, 3.1441176e+2, -189610.83, 31854.135, -15083.223, 0.036500573, 0.21748087, 32876.68, 32876.68, 0.0, 9.998166, 10.001101 
1.2250458e+3, 1.24430194e+2, -1374300.5, -1744690.4, -48392.555, -0.0996451, 0.19424362, -1368082.3, 352519.25, 0.002898859, 10.003201, 9.998244 
1.2250504e+3, 1.3442838e+2, -1398225.6, -1665378.9, 84342.5, 0.056729294, 0.1503756, -1373826.4, 248792.9, 0.0015783015, 10.002155, 9.998636 
1.2250498e+3, 1.4442752e+2, -1347890.3, -1565533.1, 251.91563, -0.22964679, 0.19117777, -1347890.0, 176737.89, 0.0005682736, 10.001734, 9.998841 
1.22505166e+3, 1.5442656e+2, -1188517.1, -1434026.6, -16636.748, -0.12356159, 0.2068139, -1187394.9, 239242.86, 0.00008951281, 10.002137, 9.998876 
1.2250534e+3, 1.6442522e+2, -1127415.6, -1390270.3, 11380.941, -0.05832824, 0.20044915, -1126923.8, 201727.27, 0.0000012652538, 10.002038, 9.998552 
1.2250548e+3, 1.7442341e+2, -1136568.8, -1342960.6, 22340.611, -0.058573052, 0.16269022, -1134178.1, 96490.36, 0.0, 10.0013, 9.998559 
1.22505605e+3, 1.8442215e+2, -1080790.4, -1236945.4, -498.9126, -0.058908623, 0.1676796, -1080788.8, 51892.402, 0.0, 10.000886, 9.998814 
1.2250568e+3, 1.944215e+2, -979489.5, -1132820.3, -2980.8958, -0.05573699, 0.2161933, -979431.56, 55256.547, 0.0, 10.000889, 9.998855 
1.2250576e+3, 2.0442037e+2, -894039.06, -1033020.1, -1835.1489, -0.05075322, 0.21640156, -894014.8, 42683.574, 0.0, 10.000769, 9.998926 
1.2250586e+3, 2.1441868e+2, -833969.75, -949147.8, -9078.917, -0.043300435, 0.14971699, -833258.5, 5454.1543, 0.0, 10.000491, 9.998962 
1.2250597e+3, 2.2441742e+2, -794095.06, -903112.25, -10132.517, -0.029851072, 0.13621767, -793161.3, -52436.727, 0.0, 10.000196, 9.998747 
1.2250608e+3, 2.3441666e+2, -741673.7, -825698.5, -3078.5288, -0.008764419, 0.18255928, -741561.06, -98827.41, 0.0, 9.999876, 9.99876 
1.22506164e+3, 2.4441572e+2, -642486.7, -676700.9, -3990.863, -0.002732862, 0.19213209, -642027.3, -97284.42, 0.0, 9.999668, 9.999211 
1.2250624e+3, 2.5441453e+2, -548238.25, -573788.1, -15743.222, -0.016578296, 0.14610678, -540738.9, -93986.14, 0.0, 9.999614, 9.99927 
1.2250632e+3, 2.644136e+2, -498489.2, -528052.3, -19132.373, -0.017869854, 0.13927396, -489093.44, -140331.9, 0.0, 9.999409, 9.99901 
1.2250643e+3, 2.7441302e+2, -459980.9, -457746.0, -12796.403, -0.0025822453, 0.17779613, -446018.34, -195249.39, 0.0, 9.998995, 9.999018 
1.2250653e+3, 2.8441232e+2, -368045.94, -321774.5, -9788.331, 0.012025773, 0.18882489, -319789.06, -167012.83, 0.0, 9.998776, 9.999385 
1.2250662e+3, 2.9441142e+2, -262891.88, -218114.13, -4880.1563, 0.025484012, 0.15117538, -217588.42, -162804.25, 0.0, 9.998815, 9.999405 
1.225067e+3, 3.0441007e+2, -272996.9, -239377.38, 12521.362, 0.014933997, 0.09775532, -235226.4, -235226.4, 0.0, 9.99859, 9.999033 
1.22506835e+3, 3.1441033e+2, -208596.8, 26425.936, 11298.854, 0.02862823, 0.21596201, 26967.885, 26967.885, 0.0, 9.998019, 10.001134 
1.23504885e+3, 1.2442901e+2, -1353123.9, -1698239.4, -83009.305, -0.103718795, 0.21967854, -1334196.1, 386418.28, 0.0031684104, 10.003191, 9.998568 
1.2350525e+3, 1.344272e+2, -1372492.1, -1612051.1, 44487.938, 0.04935592, 0.14117931, -1364497.3, 258132.63, 0.001735363, 10.002155, 9.999002 
1.2350513e+3, 1.4442624e+2, -1358383.1, -1587637.3, 11030.526, -0.2577265, 0.15845744, -1357853.6, 166785.1, 0.00063353236, 10.001734, 9.99869 
1.23505384e+3, 1.5442528e+2, -1201684.6, -1462250.1, -1425.4208, -0.11875445, 0.19266182, -1201676.8, 224972.88, 0.00010392506, 10.002139, 9.998682 
1.2350554e+3, 1.6442402e+2, -1113559.0, -1360770.6, -14661.96, -0.044321153, 0.19534871, -1112692.4, 215969.97, 0.0000017603737, 10.002035, 9.998756 
1.235056e+3, 1.7442244e+2, -1120134.5, -1309135.9, -5703.3447, -0.06220821, 0.1578355, -1119962.5, 110714.08, 0.0, 10.0013, 9.998792 
1.23505674e+3, 1.8442118e+2, -1081457.8, -1238643.0, -3255.8818, -0.066421986, 0.15274513, -1081390.4, 51298.133, 0.0, 10.000887, 9.998802 
1.2350577e+3, 1.9442031e+2, -981354.6, -1136719.4, -3569.792, -0.05034236, 0.1793468, -981272.7, 53425.086, 0.0, 10.000889, 9.998829 
1.23505846e+3, 2.0441908e+2, -907943.4, -1061572.5, -12846.004, -0.045520473, 0.1796609, -906876.6, 29832.818, 0.0, 10.000767, 9.998731 
1.235059e+3, 2.1441744e+2, -848281.2, -979081.2, -20054.037, -0.054363754, 0.1392716, -845275.56, -6551.3423, 0.0, 10.000491, 9.998756 
1.2350597e+3, 2.244162e+2, -780967.2, -876675.3, -22960.205, -0.050075244, 0.13015696, -775744.06, -35008.098, 0.0, 10.000198, 9.998928 
1.2350604e+3, 2.3441541e+2, -727156.56, -796208.4, -15204.526, -0.029784733, 0.15360996, -723956.94, -81212.97, 0.0, 9.999878, 9.998962 
1.2350613e+3, 2.4441443e+2, -661617.1, -716800.0, -7079.4336, -0.0124539975, 0.16239437, -660723.4, -115969.75, 0.0, 9.999669, 9.998936 
1.23506226e+3, 2.5441325e+2, -570109.25, -618262.75, -17117.46, 0.000643453, 0.14534624, -564644.56, -117879.305, 0.0, 9.999609, 9.998967 
1.23506285e+3, 2.644123e+2, -487540.84, -504814.72, -33295.9, -0.001342132, 0.14746982, -461779.9, -113005.26, 0.0, 9.999405, 9.999172 
1.2350631e+3, 2.744117e+2, -445864.53, -429917.66, -27352.654, -0.02193339, 0.16499798, -409399.97, -158618.38, 0.0, 9.999, 9.9992075 
1.2350638e+3, 2.844112e+2, -356473.9, -298952.1, -8714.975, -0.013136529, 0.17476812, -297660.7, -144873.81, 0.0, 9.998781, 9.999539 
1.2350651e+3, 2.944107e+2, -254203.27, -197532.1, -1483.7145, 0.03191239, 0.16751982, -197493.27, -142702.97, 0.0, 9.998803, 9.999552 
1.2350657e+3, 3.044097e+2, -279827.28, -251548.38, -6418.892, 0.021694409, 0.14271687, -250159.6, -250159.6, 0.0, 9.99858, 9.998955 
1.2350661e+3, 3.1440908e+2, -209771.83, 23312.236, -6581.5947, 0.0042347456, 0.18235482, 23497.932, 23497.932, 0.0, 9.998021, 10.001113 
1.2450516e+3, 1.24427944e+2, -1445252.4, -1731227.5, -55751.29, -0.11789464, 0.21251468, -1434768.0, 285856.53, 0.0034511252, 10.00251, 9.998669 
1.2450549e+3, 1.3442631e+2, -1300529.8, -1562933.6, 44890.4, 0.060432527, 0.13904189, -1293062.6, 329574.94, 0.0019010409, 10.002588, 9.999131 
1.2450533e+3, 1.4442526e+2, -1274243.3, -1557078.5, 18860.48, -0.25911656, 0.14420754, -1272991.0, 251656.1, 0.0007028683, 10.002354, 9.9986 
1.2450558e+3, 1.5442412e+2, -1260293.9, -1501094.4, 13929.188, -0.11373307, 0.16962086, -1259490.9, 167169.36, 0.00011956255, 10.001785, 9.998585 
1.2450573e+3, 1.6442293e+2, -1191355.3, -1378872.6, -8202.972, -0.038870495, 0.1768059, -1190997.1, 137675.02, 0.0000023468863, 10.001419, 9.998928 
1.24505736e+3, 1.7442174e+2, -1106691.3, -1282155.3, -4305.1934, -0.06459661, 0.15949786, -1106585.6, 124096.71, 0.0, 10.001306, 9.998974 
1.2450577e+3, 1.8442053e+2, -1048346.9, -1228063.8, 6360.869, -0.070589684, 0.15132923, -1048122.06, 84571.52, 0.0, 10.001138, 9.9987545 
1.2450586e+3, 1.9441926e+2, -985942.9, -1145525.9, 3752.1475, -0.047650784, 0.14636962, -985854.7, 48851.48, 0.0, 10.000886, 9.998769 
1.2450592e+3, 2.0441799e+2, -923669.44, -1071169.4, -3842.8218, -0.040856015, 0.14455676, -923569.44, 13149.22, 0.0, 10.000669, 9.998712 
1.24505945e+3, 2.1441667e+2, -849283.8, -981660.44, 1442.6218, -0.05606422, 0.13840498, -849268.06, -10537.109, 0.0, 10.000493, 9.998738 
1.2450598e+3, 2.2441548e+2, -764939.25, -872377.2, -1834.1437, -0.05493068, 0.13799764, -764907.94, -24165.592, 0.0, 10.000323, 9.998898 
1.2450604e+3, 2.3441443e+2, -686772.2, -779222.06, -11957.179, -0.033056274, 0.13740876, -685250.75, -42498.21, 0.0, 10.000168, 9.998939 
1.245061e+3, 2.4441336e+2, -634636.25, -710117.2, -5823.3223, -0.012912978, 0.14116536, -634189.6, -89426.54, 0.0, 9.999883, 9.998877 
1.24506176e+3, 2.544123e+2, -601316.94, -640458.4, 677.9423, 0.004927996, 0.14347683, -601305.25, -154531.14, 0.0, 9.999426, 9.998902 
1.2450623e+3, 2.6441148e+2, -512041.13, -503042.6, -4505.295, 0.0030370578, 0.1509869, -501174.66, -152391.81, 0.0, 9.999178, 9.999292 
1.2450623e+3, 2.7441084e+2, -405352.63, -395231.56, -3152.618, -0.024018366, 0.15509674, -394329.88, -143540.69, 0.0, 9.999213, 9.999343 
1.24506265e+3, 2.8441033e+2, -315230.78, -279449.38, 7080.562, -0.019794999, 0.16080567, -278099.2, -125305.09, 0.0, 9.999066, 9.999536 
1.2450637e+3, 2.9440996e+2, -276093.94, -209254.08, -145.73112, 0.024097081, 0.16490576, -209253.77, -154456.58, 0.0, 9.998659, 9.999539 
1.2450641e+3, 3.0440933e+2, -312513.9, -248387.52, -9902.158, 0.01694338, 0.17016745, -246893.28, -246893.28, 0.0, 9.998275, 9.999123 
1.2450642e+3, 3.1440836e+2, -206979.05, 46528.72, 11997.611, 0.015092231, 0.15265231, 47095.258, 47095.258, 0.0, 9.997946, 10.0013075 
1.2550539e+3, 1.2442712e+2, -1454503.1, -1751131.3, -46020.344, -0.14273946, 0.17503774, -1447527.4, 273103.53, 0.0037460001, 10.002512, 9.998531 
1.2550579e+3, 1.3442577e+2, -1308642.3, -1580579.3, 46828.71, 0.08629445, 0.1429661, -1300804.0, 321837.94, 0.0020748412, 10.00259, 9.99901 
1.255056e+3, 1.4442462e+2, -1275956.0, -1559995.9, -2729.8909, -0.23803613, 0.14591599, -1275929.8, 248722.89, 0.00077620865, 10.002351, 9.998582 
1.2550576e+3, 1.5442313e+2, -1260097.4, -1501166.1, -7422.266, -0.10869174, 0.13644236, -1259869.0, 166799.67, 0.00013646827, 10.001786, 9.998584 
1.2550586e+3, 1.6442199e+2, -1182595.9, -1360820.6, -14553.453, -0.042936563, 0.14362773, -1181415.3, 147264.67, 0.0000030208696, 10.001419, 9.999052 
1.2550586e+3, 1.7442137e+2, -1096922.1, -1263067.5, -9056.488, -0.06761601, 0.16854315, -1096430.0, 134255.19, 0.0, 10.001309, 9.999104 
1.2550588e+3, 1.8442023e+2, -1053781.4, -1239703.9, -3712.7795, -0.07291917, 0.16453049, -1053707.3, 78988.4, 0.0, 10.001139, 9.998674 
1.2550595e+3, 1.9441845e+2, -992305.25, -1158978.8, -6164.56, -0.048941486, 0.116572864, -992077.56, 42635.383, 0.0, 10.000887, 9.998677 
1.25506e+3, 2.0441711e+2, -913759.94, -1050444.8, -11833.238, -0.03902348, 0.10934744, -912743.06, 23982.592, 0.0, 10.000667, 9.998856 
1.25506e+3, 2.144164e+2, -838348.4, -958829.8, -5849.5903, -0.04927883, 0.14680932, -838065.0, 667.45337, 0.0, 10.000492, 9.998896 
1.2550603e+3, 2.2441532e+2, -781568.4, -906793.8, -9029.119, -0.044942435, 0.15978459, -780920.75, -40177.51, 0.0, 10.000321, 9.998662 
1.2550607e+3, 2.3441376e+2, -704979.25, -816605.94, -17995.805, -0.020613577, 0.13415967, -702149.8, -59390.93, 0.0, 10.000165, 9.998684 
1.255061e+3, 2.4441254e+2, -624099.5, -688135.25, -22523.111, -0.0063060117, 0.12874219, -616971.0, -72200.016, 0.0, 9.999881, 9.999029 
1.2550612e+3, 2.5441176e+2, -588562.2, -614927.25, -15912.16, -0.004355143, 0.14100334, -581081.3, -134302.34, 0.0, 9.999429, 9.999077 
1.2550613e+3, 2.6441106e+2, -506277.78, -491950.78, -3913.1514, -0.0056763473, 0.15027268, -490951.66, -142165.78, 0.0, 9.999181, 9.999368 
1.2550615e+3, 2.7441046e+2, -400895.8, -384954.0, -514.76154, -0.01217209, 0.1475613, -384937.4, -134145.83, 0.0, 9.9992075, 9.999416 
1.2550619e+3, 2.8440985e+2, -328277.25, -305646.3, -6290.245, -0.0104941465, 0.14653811, -304015.47, -151217.56, 0.0, 9.999061, 9.999358 
1.255062e+3, 2.9440922e+2, -289013.56, -236986.4, -14308.851, 0.00087524275, 0.14531727, -233310.77, -178506.0, 0.0, 9.998662, 9.999349 
1.255062e+3, 3.04409e+2, -281148.0, -184327.27, -22044.512, -0.0013813929, 0.18211623, -179544.36, -179544.36, 0.0, 9.998279, 9.99956 
1.2550627e+3, 3.144082e+2, -178758.4, 106861.35, 3994.673, 0.054155525, 0.1343581, 106917.2, 106917.2, 0.0, 9.997938, 10.001726 
1.2650566e+3, 1.24426484e+2, -1407041.8, -1746932.3, -22114.682, -0.15371291, 0.13455078, -1405609.0, 315025.94, 0.0040529803, 10.002919, 9.998364 
1.2650606e+3, 1.344254e+2, -1321881.3, -1605583.9, 56770.805, 0.099823706, 0.14516945, -1310942.8, 311702.28, 0.0022565385, 10.002582, 9.998842 
1.2650582e+3, 1.4442424e+2, -1286929.9, -1554098.4, -88.93903, -0.23597392, 0.15149598, -1286929.8, 237726.4, 0.0008535736, 10.00223, 9.99868 
1.2650594e+3, 1.5442264e+2, -1235875.1, -1477972.1, 2295.461, -0.11066521, 0.12238899, -1235853.4, 190818.64, 0.00015477135, 10.001903, 9.998687 
1.2650602e+3, 1.6442147e+2, -1156931.8, -1362681.8, 2182.0837, -0.046087787, 0.12542401, -1156908.6, 171775.13, 0.0000038088367, 10.001657, 9.998925 
1.26506e+3, 1.7442085e+2, -1078078.9, -1269250.4, -12181.622, -0.063810885, 0.16536662, -1077305.8, 153384.27, 0.0, 10.001506, 9.998966 
1.2650602e+3, 1.8441975e+2, -1033525.44, -1217130.9, -18102.408, -0.06579945, 0.16799784, -1031757.7, 100942.64, 0.0, 10.001224, 9.998787 
1.2650603e+3, 1.9441804e+2, -999451.4, -1148139.6, -5663.2544, -0.047135238, 0.11486158, -999236.0, 35480.0, 0.0, 10.000777, 9.998803 
1.2650606e+3, 2.0441675e+2, -940070.8, -1066638.3, -8.781056, -0.03866386, 0.10453118, -940070.8, -3342.6226, 0.0, 10.000503, 9.998823 
1.2650606e+3, 2.1441598e+2, -849706.1, -968807.1, -8833.855, -0.043896843, 0.14168453, -849054.5, -10318.596, 0.0, 10.000435, 9.998854 
1.2650606e+3, 2.2441487e+2, -793761.3, -913173.75, -16230.547, -0.036800727, 0.15443307, -791594.56, -50847.41, 0.0, 10.000241, 9.998657 
1.2650608e+3, 2.344133e+2, -745920.3, -837127.9, -8077.3076, -0.013520248, 0.1284539, -745210.5, -102447.66, 0.0, 9.9998865, 9.998677 
1.2650608e+3, 2.4441212e+2, -649297.25, -690661.2, -4778.2485, -0.0031458095, 0.12249021, -648752.44, -103977.84, 0.0, 9.999666, 9.999116 
1.2650606e+3, 2.5441143e+2, -553783.7, -587264.2, -5211.7285, -0.009974705, 0.13395129, -552991.2, -106209.68, 0.0, 9.999621, 9.999174 
1.2650606e+3, 2.6441076e+2, -470763.94, -478717.0, 2399.4863, -0.011145966, 0.14419986, -470096.1, -121308.2, 0.0, 9.999442, 9.999332 
1.2650608e+3, 2.7441016e+2, -423344.25, -400677.06, -3492.0166, -0.00457225, 0.14330037, -400151.28, -149357.3, 0.0, 9.999075, 9.999372 
1.2650609e+3, 2.8440946e+2, -359546.72, -309768.16, -6824.395, -0.00026775675, 0.13276857, -308849.53, -156048.67, 0.0, 9.998799, 9.999455 
1.2650608e+3, 2.944087e+2, -283707.84, -222609.53, 6369.165, -0.00076343893, 0.1112945, -221952.64, -167144.52, 0.0, 9.998647, 9.9994545 
1.2650606e+3, 3.0440882e+2, -254000.4, -185888.63, -7398.354, -0.0071655572, 0.17816417, -185094.28, -185094.28, 0.0, 9.9985285, 9.999429 
1.2650608e+3, 3.1440774e+2, -122544.81, 103451.84, -26973.883, 0.059081767, 0.11824677, 106626.72, 106626.72, 0.0, 9.998456, 10.001452 
1.2750593e+3, 1.2442611e+2, -1420798.5, -1774091.6, -26183.564, -0.15371038, 0.09244087, -1418868.5, 301767.4, 0.0043717744, 10.002913, 9.998181 
1.2750632e+3, 1.3442524e+2, -1335780.0, -1634606.0, 43502.156, 0.10113274, 0.14551975, -1329575.9, 293070.22, 0.0024458782, 10.002583, 9.998642 
1.2750602e+3, 1.4442417e+2, -1272679.0, -1525273.4, -13553.754, -0.25376192, 0.16102992, -1271953.9, 252703.05, 0.00093509414, 10.002232, 9.998878 
1.2750612e+3, 1.5442273e+2, -1221088.6, -1448684.3, -10222.498, -0.1221543, 0.12747543, -1220630.4, 206039.22, 0.00017466526, 10.001907, 9.998886 
1.2750618e+3, 1.6442138e+2, -1183132.5, -1417285.0, -4720.235, -0.050557338, 0.121457584, -1183037.4, 145645.5, 0.0000047674703, 10.001657, 9.99855 
1.2750617e+3, 1.7442025e+2, -1106411.0, -1327959.3, -18071.604, -0.054437097, 0.14950785, -1104946.5, 125749.68, 0.0, 10.001504, 9.998564 
1.2750615e+3, 1.8441917e+2, -1013108.5, -1174164.4, -35273.81, -0.051886767, 0.16048871, -1005721.75, 126985.23, 0.0, 10.001221, 9.999084 
1.2750612e+3, 1.9441813e+2, -975162.44, -1098518.6, -23061.508, -0.042725798, 0.1411429, -970992.06, 63722.758, 0.0, 10.00078, 9.999143 
1.275061e+3, 2.0441692e+2, -953905.8, -1096338.8, -4382.9336, -0.039489076, 0.13012256, -953771.06, -17045.219, 0.0, 10.000505, 9.998618 
1.275061e+3, 2.1441548e+2, -866523.7, -1003659.3, -11791.751, -0.041690405, 0.12328475, -865517.1, -26776.436, 0.0, 10.000434, 9.998616 
1.2750609e+3, 2.244142e+2, -779225.3, -882321.7, -29892.049, -0.03336989, 0.12225103, -771185.3, -30431.69, 0.0, 10.000237, 9.998871 
1.2750606e+3, 2.344131e+2, -728835.9, -802168.44, -21563.357, -0.012051208, 0.12025513, -722965.2, -80201.0, 0.0, 9.999888, 9.998917 
1.2750605e+3, 2.4441214e+2, -648000.2, -688409.44, -7456.0337, -0.0039594197, 0.122222945, -646668.4, -101894.8, 0.0, 9.999667, 9.999131 
1.2750602e+3, 2.5441134e+2, -553432.75, -586275.5, -6308.305, -0.013571486, 0.12268669, -552262.75, -105481.31, 0.0, 9.999619, 9.999183 
1.2750599e+3, 2.6441061e+2, -481150.63, -500111.53, -10126.075, -0.014634936, 0.1327213, -476759.66, -127970.89, 0.0, 9.99944, 9.999187 
1.2750599e+3, 2.7440995e+2, -433703.94, -423034.6, -16029.787, -0.0028724018, 0.14265062, -411475.1, -160678.94, 0.0, 9.999077, 9.999218 
1.2750599e+3, 2.8440922e+2, -333361.88, -256110.56, -12282.456, 0.008377548, 0.119881034, -254204.75, -101402.03, 0.0, 9.998801, 9.999824 
1.2750596e+3, 2.9440856e+2, -256469.58, -164671.17, 1961.595, 0.016127141, 0.063715205, -164629.28, -109822.234, 0.0, 9.99864, 9.999855 
1.2750591e+3, 3.0440882e+2, -304383.1, -289306.06, -9180.305, -0.0018906002, 0.15877144, -284965.72, -284965.72, 0.0, 9.998523, 9.998722 
1.275059e+3, 3.144071e+2, -191453.63, -38995.965, -24155.633, 0.026764728, 0.115684256, -35260.246, -35260.246, 0.0, 9.998453, 10.000475 
1.2850624e+3, 1.24426246e+2, -1383780.3, -1758908.6, -21611.893, -0.14918081, 0.08872347, -1382539.3, 338094.13, 0.004702038, 10.003181, 9.998156 
1.2850656e+3, 1.3442525e+2, -1355533.6, -1648872.9, 47595.527, 0.09204768, 0.13344745, -1348004.4, 274640.78, 0.0026428213, 10.002468, 9.998599 
1.2850623e+3, 1.4442408e+2, -1292791.1, -1536308.1, 4070.3796, -0.27220508, 0.14212818, -1292723.1, 231933.66, 0.001020959, 10.002099, 9.998865 
1.2850635e+3, 1.5442275e+2, -1177723.4, -1429061.5, -7801.044, -0.110012665, 0.11980051, -1177481.5, 249186.92, 0.00019628371, 10.002213, 9.998873 
1.2850638e+3, 1.6442141e+2, -1138738.0, -1398864.8, -8875.05, -0.029912714, 0.11596458, -1138435.5, 190246.19, 0.0000059623408, 10.001976, 9.998523 
1.2850632e+3, 1.7442015e+2, -1140420.9, -1347904.0, 4041.3064, -0.050569452, 0.13593742, -1140342.3, 90354.15, 0.0, 10.0012865, 9.998531 
1.2850626e+3, 1.8441905e+2, -1053949.3, -1195332.8, 66.39152, -0.05419907, 0.1479217, -1053949.1, 78758.31, 0.0, 10.000948, 9.999069 
1.2850621e+3, 1.9441812e+2, -937127.44, -1081588.0, -13712.018, -0.03848789, 0.14042678, -935837.44, 98876.99, 0.0, 10.001048, 9.999129 
1.2850618e+3, 2.0441692e+2, -896225.0, -1067401.5, -4903.7266, -0.033788294, 0.13048129, -896084.6, 40640.76, 0.0, 10.000898, 9.998627 
1.2850614e+3, 2.1441536e+2, -866134.3, -1001891.8, 5097.763, -0.042158123, 0.11072429, -865943.2, -27201.838, 0.0, 10.000431, 9.998629 
1.2850611e+3, 2.2441411e+2, -790693.44, -880895.6, -6268.8237, -0.03895335, 0.10869068, -790259.9, -49505.87, 0.0, 10.00013, 9.998933 
1.2850605e+3, 2.3441322e+2, -702815.5, -782041.4, -11632.454, -0.021956332, 0.120403625, -701142.9, -58380.234, 0.0, 10.000035, 9.998983 
1.2850602e+3, 2.444123e+2, -627524.56, -680972.56, -5351.5034, -0.008397467, 0.12564608, -626994.0, -82222.39, 0.0, 9.999819, 9.999109 
1.2850598e+3, 2.5441137e+2, -580959.4, -602938.0, -7562.9097, 0.00007808191, 0.11683255, -578608.4, -131827.6, 0.0, 9.999444, 9.999152 
1.2850595e+3, 2.644107e+2, -509380.8, -502599.3, -4350.804, 0.0009437777, 0.126664, -500474.03, -151686.14, 0.0, 9.999198, 9.999287 
1.285059e+3, 2.7441022e+2, -420168.0, -404435.72, 8201.487, -0.006545681, 0.14632402, -400937.88, -150144.81, 0.0, 9.999118, 9.999326 
1.2850586e+3, 2.8440952e+2, -307055.34, -254111.53, 8907.824, 0.0030550868, 0.123409614, -252652.95, -99853.5, 0.0, 9.999028, 9.999728 
1.2850586e+3, 2.9440865e+2, -224700.73, -161314.33, -15551.289, 0.03233002, 0.057663023, -157704.53, -102898.57, 0.0, 9.998909, 9.999749 
1.2850578e+3, 3.0440906e+2, -280877.16, -268746.84, -21730.076, 0.013984238, 0.16941586, -252251.36, -252251.36, 0.0, 9.998646, 9.998803 
1.2850572e+3, 3.1440726e+2, -237298.95, -79724.56, 29248.213, 0.014825534, 0.10957985, -74470.81, -74470.81, 0.0, 9.998218, 10.000309 
1.2950657e+3, 1.24426976e+2, -1376383.1, -1743904.8, -39057.95, -0.14299056, 0.12367964, -1372278.1, 348348.44, 0.0050433725, 10.003182, 9.998259 
1.2950678e+3, 1.3442548e+2, -1349241.8, -1635238.6, 19708.738, 0.07115831, 0.10896202, -1347890.0, 274751.47, 0.0028472822, 10.002465, 9.998693 
1.2950641e+3, 1.4442404e+2, -1308158.0, -1567764.3, 5158.3237, -0.2938339, 0.094881944, -1308055.6, 216599.84, 0.0011110725, 10.002096, 9.9986515 
1.295066e+3, 1.5442275e+2, -1192903.5, -1460833.9, -3392.617, -0.07592501, 0.09955814, -1192860.5, 233807.2, 0.000219555, 10.002213, 9.998655 
1.2950662e+3, 1.6442157e+2, -1117386.5, -1354519.1, -33821.51, 0.01324853, 0.10857801, -1112657.0, 216022.55, 0.0000074533, 10.001974, 9.998828 
1.2950644e+3, 1.7442061e+2, -1116718.1, -1299782.1, -22452.959, -0.053029973, 0.12451041, -1114004.5, 116685.46, 0.0, 10.00129, 9.99886 
1.2950633e+3, 1.8441947e+2, -1076158.0, -1242377.3, 1133.334, -0.07317871, 0.1302266, -1076150.3, 56551.04, 0.0, 10.000951, 9.998746 
1.2950632e+3, 1.9441807e+2, -962750.06, -1134608.0, -10202.498, -0.03594206, 0.11364567, -962146.5, 72567.7, 0.0, 10.001046, 9.998767 
1.2950628e+3, 2.0441681e+2, -881565.5, -1036138.06, -22313.438, -0.024560524, 0.1062768, -878408.9, 58317.453, 0.0, 10.000894, 9.998844 
1.2950619e+3, 2.1441567e+2, -848197.06, -964959.9, -13159.315, -0.045585405, 0.10349663, -846732.4, -7994.911, 0.0, 10.000431, 9.998882 
1.295061e+3, 2.2441463e+2, -796440.8, -893382.3, -11539.087, -0.053439014, 0.11285389, -795086.25, -54338.23, 0.0, 10.000132, 9.998846 
1.2950604e+3, 2.3441368e+2, -710292.6, -797594.25, -15069.853, -0.04435101, 0.12883142, -707764.5, -65006.543, 0.0, 10.000034, 9.998878 
1.2950598e+3, 2.4441268e+2, -632301.25, -690452.06, -18922.404, -0.01845381, 0.13278109, -626686.06, -81917.66, 0.0, 9.999816, 9.999046 
1.2950596e+3, 2.544116e+2, -585245.06, -612229.7, -21016.783, 0.029580247, 0.11645341, -573762.44, -126983.086, 0.0, 9.999445, 9.999089 
1.295059e+3, 2.6441103e+2, -485780.25, -454077.47, -7358.625, 0.033855386, 0.12596081, -452452.72, -103667.805, 0.0, 9.999199, 9.9996195 
1.295058e+3, 2.7441102e+2, -395364.78, -352082.47, 6506.7026, -0.017671704, 0.1547851, -351125.47, -100341.04, 0.0, 9.999114, 9.999688 
1.2950575e+3, 2.8441033e+2, -346591.75, -335726.78, 5687.646, -0.01758715, 0.14323565, -333294.06, -180503.13, 0.0, 9.999024, 9.99917 
1.2950577e+3, 2.9440904e+2, -267129.72, -249702.6, -18334.43, 0.04626334, 0.092959136, -238116.47, -183311.8, 0.0, 9.99891, 9.999142 
1.2950568e+3, 3.0440953e+2, -220467.97, -143731.75, -36299.28, 0.038510013, 0.20930055, -129281.78, -129281.78, 0.0, 9.998647, 9.999662 
1.2950554e+3, 3.1440833e+2, -194353.77, 12823.003, 18177.152, 0.017766697, 0.110613, 14405.729, 14405.729, 0.0, 9.998204, 10.000951 
1.3050684e+3, 1.24427415e+2, -1438408.0, -1759920.1, -43748.074, -0.1687398, 0.1384588, -1432561.5, 288061.44, 0.0053935107, 10.002696, 9.9983835 
1.3050707e+3, 1.3442583e+2, -1293906.9, -1595684.1, 4119.133, 0.09271937, 0.10425703, -1293850.6, 328786.66, 0.0030578757, 10.002793, 9.998807 
1.3050666e+3, 1.4442435e+2, -1244011.6, -1534834.1, 867.9772, -0.26557195, 0.079593375, -1244009.1, 280642.06, 0.0012046372, 10.00253, 9.998668 
1.305068e+3, 1.5442312e+2, -1248198.5, -1486648.9, 8597.928, -0.07696934, 0.0893223, -1247888.9, 178774.39, 0.000244213, 10.00183, 9.998663 
1.3050678e+3, 1.6442199e+2, -1183844.8, -1378346.3, -20900.293, 0.003901345, 0.09966904, -1181624.3, 147050.3, 0.000009295233, 10.001484, 9.9989 
1.3050659e+3, 1.7442107e+2, -1066735.5, -1266562.6, -28387.014, -0.04046991, 0.11167331, -1062781.1, 167902.86, 0.0, 10.0015955, 9.998941 
1.3050647e+3, 1.8441992e+2, -1006309.8, -1211572.8, -742.53485, -0.057395015, 0.114195436, -1006307.1, 126388.125, 0.0, 10.001444, 9.998719 
1.3050641e+3, 1.9441849e+2, -978952.06, -1145592.1, 11760.378, -0.04340646, 0.095764264, -978126.2, 56582.82, 0.0, 10.000951, 9.998737 
1.3050634e+3, 2.0441726e+2, -922244.75, -1051282.3, 2982.2087, -0.037902612, 0.09199491, -922175.9, 14545.207, 0.0, 10.000596, 9.998883 
1.3050623e+3, 2.1441628e+2, -847296.0, -959693.5, -4218.9746, -0.042799067, 0.09968951, -847137.9, -8406.953, 0.0, 10.000418, 9.998925 
1.3050613e+3, 2.244153e+2, -786270.94, -888368.9, -2720.0674, -0.044854335, 0.11422329, -786198.5, -45457.594, 0.0, 10.000201, 9.998847 
1.3050602e+3, 2.3441432e+2, -724235.5, -804294.8, 527.5446, -0.043556035, 0.12853532, -724232.0, -81480.77, 0.0, 9.999939, 9.998878 
1.3050596e+3, 2.444133e+2, -646670.9, -692764.7, 512.87683, -0.022581192, 0.1288307, -646665.2, -101903.31, 0.0, 9.999698, 9.999087 
1.3050589e+3, 2.544122e+2, -577451.94, -603574.4, 5377.64, 0.023828985, 0.106386594, -576388.2, -129615.45, 0.0, 9.999477, 9.999132 
1.3050583e+3, 2.644117e+2, -477379.16, -454186.4, 15872.094, 0.031478297, 0.11857585, -446125.75, -97347.805, 0.0, 9.999275, 9.999581 
1.3050571e+3, 2.7441174e+2, -400840.63, -359631.6, -924.20557, -0.010254449, 0.1604268, -359610.88, -108834.01, 0.0, 9.999098, 9.999643 
1.3050565e+3, 2.8441104e+2, -362814.28, -341569.4, 2119.2192, -0.0113686, 0.14739427, -341360.06, -188576.17, 0.0, 9.998905, 9.9991865 
1.3050562e+3, 2.9440954e+2, -297084.7, -261566.94, 24050.564, 0.037631202, 0.076777294, -249429.2, -194629.69, 0.0, 9.998693, 9.999166 
1.3050553e+3, 3.0441025e+2, -215714.92, -116627.97, 6597.801, 0.03247122, 0.1991643, -116190.58, -116190.58, 0.0, 9.998573, 9.999884 
1.305054e+3, 3.1440967e+2, -144706.0, 27105.9, 8594.803, 0.03023121, 0.14332442, 27534.781, 27534.781, 0.0, 9.998585, 10.000867 
1.3150705e+3, 1.2442769e+2, -1428990.3, -1739180.1, -30484.219, -0.2281596, 0.13909438, -1426022.9, 294598.3, 0.0057480065, 10.002691, 9.9985285 
1.3150741e+3, 1.3442636e+2, -1284246.0, -1575719.1, 7667.1113, 0.15415086, 0.1178927, -1284044.5, 338587.72, 0.0032717513, 10.002794, 9.998943 
1.31507e+3, 1.4442508e+2, -1227489.1, -1501155.4, -24601.291, -0.19183458, 0.09453085, -1225295.1, 299348.25, 0.0013003696, 10.002533, 9.9988985 
1.3150695e+3, 1.5442392e+2, -1232987.0, -1455097.6, -18338.17, -0.11348039, 0.08868242, -1231483.1, 195171.28, 0.00026992275, 10.001829, 9.998879 
1.3150688e+3, 1.6442274e+2, -1194719.3, -1401144.5, -19632.02, -0.05775821, 0.089180864, -1192868.8, 135797.36, 0.00001153221, 10.001484, 9.998745 
1.3150679e+3, 1.744216e+2, -1078329.8, -1291005.5, -24366.13, -0.014793383, 0.097883955, -1075573.9, 155104.14, 0.0, 10.001596, 9.998774 
1.3150667e+3, 1.844205e+2, -987809.75, -1172888.6, -18917.523, -0.0107883075, 0.1000245, -985895.9, 146792.9, 0.0, 10.001442, 9.998986 
1.3150649e+3, 1.9441938e+2, -958361.25, -1103310.8, -7565.046, -0.061238725, 0.085602835, -957967.5, 76731.17, 0.0, 10.000952, 9.999027 
1.3150635e+3, 2.0441829e+2, -931389.5, -1070937.1, -5688.3857, -0.07359972, 0.086394235, -931158.0, 5551.401, 0.0, 10.000598, 9.998748 
1.3150628e+3, 2.1441719e+2, -858961.44, -983840.7, -11316.337, -0.03548341, 0.09961923, -857944.25, -19223.008, 0.0, 10.000416, 9.998761 
1.3150617e+3, 2.2441617e+2, -781151.06, -877161.0, -13355.097, -0.016324036, 0.113701046, -779327.94, -38595.746, 0.0, 10.000197, 9.998926 
1.3150606e+3, 2.344152e+2, -717785.4, -791052.94, -9547.271, -0.020801533, 0.119392134, -716561.75, -73819.45, 0.0, 9.999939, 9.998969 
1.3150594e+3, 2.4441423e+2, -636225.0, -671273.8, -8155.635, -0.021692706, 0.11323365, -634420.2, -89668.29, 0.0, 9.999698, 9.999235 
1.315058e+3, 2.5441328e+2, -566828.6, -581379.9, -2318.9456, -0.018248145, 0.08723778, -566468.0, -119707.33, 0.0, 9.999476, 9.999286 
1.3150571e+3, 2.6441267e+2, -506499.88, -514766.63, 9768.427, -0.0071817017, 0.10482751, -500026.3, -151259.56, 0.0, 9.999275, 9.9991665 
1.3150564e+3, 2.7441248e+2, -432299.25, -425458.5, -6128.396, 0.014433462, 0.16367795, -421860.6, -171090.47, 0.0, 9.999099, 9.999191 
1.3150556e+3, 2.8441164e+2, -321751.6, -256901.31, -5035.04, 0.019827416, 0.13653645, -256512.72, -103734.64, 0.0, 9.998907, 9.999768 
1.3150547e+3, 2.9441026e+2, -253365.23, -167936.58, 17592.83, 0.0026907236, 0.011491093, -164455.44, -109665.22, 0.0, 9.998681, 9.999815 
1.3150534e+3, 3.044112e+2, -246571.06, -178797.05, 7862.7363, -0.0077914805, 0.14061318, -177896.81, -177896.81, 0.0, 9.998564, 9.999462 
1.3150528e+3, 3.144114e+2, -200206.72, -88059.21, 14618.374, 0.05000136, 0.21425194, -86185.03, -86185.03, 0.0, 9.998585, 10.000076 
1.3250735e+3, 1.2442813e+2, -1374212.0, -1707435.0, -780.62616, -0.20354034, 0.12129052, -1374210.1, 346405.84, 0.006102575, 10.003047, 9.998577 
1.3250767e+3, 1.344269e+2, -1342692.6, -1598806.4, 19147.889, 0.14928009, 0.10711165, -1341269.0, 281357.13, 0.0034860687, 10.002372, 9.998988 
1.3250722e+3, 1.4442578e+2, -1298831.8, -1529796.3, -23886.643, -0.2010537, 0.09225569, -1296387.3, 228248.86, 0.0013970501, 10.002019, 9.998949 
1.3250716e+3, 1.544247e+2, -1192345.6, -1430536.4, -30669.158, -0.09939032, 0.0917845, -1188460.1, 238186.05, 0.00029637254, 10.002089, 9.998923 
1.3250706e+3, 1.6442351e+2, -1128476.4, -1366092.0, -26375.258, -0.04447266, 0.08777011, -1125583.9, 203074.02, 0.000014169166, 10.001925, 9.998772 
1.3250692e+3, 1.7442228e+2, -1096549.6, -1296747.1, -17716.336, -0.027858395, 0.08244886, -1094993.9, 135676.66, 0.0, 10.001459, 9.9988 
1.3250677e+3, 1.844212e+2, -1033710.94, -1186673.4, -17498.568, -0.025125606, 0.084584005, -1031734.7, 100946.14, 0.0, 10.001091, 9.999061 
1.325066e+3, 1.9442034e+2, -966383.94, -1098382.9, -22243.563, -0.0481923, 0.086053684, -962736.4, 71952.08, 0.0, 10.000858, 9.999106 
1.3250643e+3, 2.0441933e+2, -924756.8, -1064596.3, -17100.613, -0.055981785, 0.09013008, -922696.0, 14002.497, 0.0, 10.00063, 9.9987755 
1.3250631e+3, 2.1441816e+2, -859156.06, -980647.75, -9755.552, -0.041593466, 0.09181726, -858377.7, -19666.283, 0.0, 10.000402, 9.998789 
1.3250618e+3, 2.2441712e+2, -788073.5, -875952.2, -8380.194, -0.02819632, 0.10157823, -787281.5, -46558.984, 0.0, 10.000132, 9.998966 
1.3250604e+3, 2.3441623e+2, -734085.06, -794084.0, -9047.819, -0.016545733, 0.112156846, -732750.3, -90018.83, 0.0, 9.999807, 9.999011 
1.325059e+3, 2.4441533e+2, -646884.7, -679581.0, -8747.02, -0.01593322, 0.11143959, -644691.7, -99951.12, 0.0, 9.9996395, 9.999206 
1.3250574e+3, 2.5441438e+2, -540900.2, -572080.3, -17690.42, -0.029803846, 0.09099342, -532910.56, -86160.92, 0.0, 9.99967, 9.999256 
1.3250563e+3, 2.644137e+2, -478260.03, -499220.88, -6752.6426, -0.023430541, 0.102753796, -476273.0, -127516.664, 0.0, 9.999462, 9.999184 
1.3250554e+3, 2.7441332e+2, -452615.53, -433160.1, 11082.001, 0.0100476155, 0.14188266, -428141.97, -177381.22, 0.0, 9.998951, 9.999209 
1.3250545e+3, 2.8441256e+2, -353869.4, -269762.22, 19964.252, 0.019727798, 0.11760015, -265263.94, -112495.83, 0.0, 9.998677, 9.99979 
1.3250533e+3, 2.9441148e+2, -247685.2, -161464.8, -4907.8633, -0.0019343907, 0.02200757, -161186.33, -106408.57, 0.0, 9.998705, 9.999846 
1.325052e+3, 3.0441234e+2, -227556.03, -145231.86, -17124.918, -0.00890318, 0.12786454, -141811.66, -141811.66, 0.0, 9.998591, 9.999679 
1.3250512e+3, 3.1441265e+2, -244666.73, -112795.67, 45031.17, 0.049017966, 0.19254, -98885.73, -98885.73, 0.0, 9.998295, 10.000046 
1.3350776e+3, 1.2442882e+2, -1378899.6, -1717544.4, -17617.326, -0.10216056, 0.08517934, -1377985.6, 342621.16, 0.0064544743, 10.003048, 9.9985075 
1.3350783e+3, 1.3442758e+2, -1347422.8, -1607581.3, -6820.188, 0.08048123, 0.074054755, -1347244.1, 275374.16, 0.0036991173, 10.002369, 9.998929 
1.3350733e+3, 1.444265e+2, -1307336.1, -1547263.1, -23763.746, -0.29211283, 0.07438918, -1305005.1, 219623.34, 0.0014937163, 10.002017, 9.99883 
1.3350742e+3, 1.5442555e+2, -1199659.0, -1446923.9, -27794.898, -0.038456697, 0.09757064, -1196573.0, 230064.89, 0.00032323142, 10.002092, 9.998809 
1.3350733e+3, 1.6442439e+2, -1114795.8, -1338422.5, -43392.395, 0.03844133, 0.0945126, -1106671.1, 221978.11, 0.000017128494, 10.001928, 9.998961 
1.3350701e+3, 1.7442311e+2, -1082077.0, -1267200.3, -35966.85, -0.07937904, 0.06512033, -1075334.6, 155326.66, 0.00000000003443261, 10.00146, 9.999002 
1.335068e+3, 1.844221e+2, -1040931.06, -1202300.4, -28004.043, -0.09966377, 0.067375846, -1036209.44, 96461.49, 0.0, 10.001093, 9.998953 
1.3350673e+3, 1.944214e+2, -974773.7, -1116607.9, -31405.045, -0.0062138224, 0.09738435, -968131.0, 66546.78, 0.0, 10.000861, 9.9989805 
1.3350657e+3, 2.0442043e+2, -911991.9, -1038189.5, -26776.328, 0.01147748, 0.10388272, -906545.6, 30142.113, 0.0, 10.00063, 9.998958 
1.3350634e+3, 2.1441914e+2, -845338.56, -951886.4, -19175.217, -0.062016867, 0.0756308, -841992.7, -3291.5828, 0.0, 10.000401, 9.998987 
1.3350613e+3, 2.2441813e+2, -787297.6, -874410.3, -21493.281, -0.080370136, 0.07682983, -782283.25, -41571.594, 0.0, 10.000132, 9.998977 
1.33506e+3, 2.3441747e+2, -734242.1, -794483.75, -21179.236, -0.031165427, 0.10688589, -727541.44, -84822.91, 0.0, 9.999806, 9.999009 
1.3350587e+3, 2.4441662e+2, -662274.56, -711100.5, -8401.923, -0.006653188, 0.123616256, -660869.25, -116141.59, 0.0, 9.999637, 9.998991 
1.3350573e+3, 2.544156e+2, -557654.06, -606323.94, -15885.234, -0.012711263, 0.117601275, -552928.2, -106188.84, 0.0, 9.999667, 9.9990225 
1.3350558e+3, 2.6441485e+2, -447174.47, -434621.72, -24403.941, -0.018943725, 0.11216973, -415699.97, -66953.44, 0.0, 9.999461, 9.999628 
1.335054e+3, 2.7441436e+2, -419414.84, -362574.0, -6821.5337, -0.02584938, 0.09553248, -361766.8, -111018.21, 0.0, 9.998943, 9.999699 
1.3350528e+3, 2.844138e+2, -392843.5, -349870.72, 20967.883, -0.0139149595, 0.091194086, -341335.2, -188581.28, 0.0, 9.9986725, 9.999243 
1.3350523e+3, 2.9441327e+2, -289756.56, -249536.7, -1979.3486, 0.022685504, 0.10894266, -249439.53, -194677.47, 0.0, 9.998708, 9.999242 
1.335051e+3, 3.0441365e+2, -166678.9, -19845.809, -26260.342, 0.026779413, 0.16100252, -15290.598, -15290.598, 0.0, 9.998595, 10.000538 
1.3350491e+3, 3.1441346e+2, -194637.86, -4563.408, 38419.586, 0.020687867, 0.08106219, 2908.58, 2908.58, 0.0, 9.998277, 10.000797 
1.3450806e+3, 1.2442999e+2, -1405510.5, -1745307.4, 10481.18, -0.10934727, 0.056002237, -1405187.5, 315405.75, 0.0068022367, 10.00293, 9.998373 
1.3450809e+3, 1.344288e+2, -1293168.8, -1594887.3, 6609.354, 0.0809444, 0.062355533, -1293024.1, 329581.06, 0.0039100754, 10.002803, 9.998807 
1.3450757e+3, 1.4442772e+2, -1232956.5, -1519982.0, -1083.7498, -0.28341585, 0.071940474, -1232952.5, 291663.47, 0.0015897118, 10.002566, 9.998753 
1.3450764e+3, 1.5442654e+2, -1192638.9, -1452324.5, -3544.6985, -0.038557094, 0.080831744, -1192590.5, 234037.11, 0.0003501717, 10.002179, 9.99873 
1.345075e+3, 1.6442534e+2, -1129390.1, -1343809.6, -31640.383, 0.03480161, 0.07744406, -1124818.6, 203820.6, 0.000020254476, 10.0018215, 9.998976 
1.3450716e+3, 1.7442426e+2, -1071908.0, -1259781.3, -37983.72, -0.076986395, 0.0653715, -1064519.3, 166130.19, 0.0000000014653116, 10.001519, 9.999025 
1.3450694e+3, 1.8442327e+2, -1016059.3, -1189768.9, -26781.234, -0.09631311, 0.06700102, -1012024.1, 120634.7, 0.0, 10.001262, 9.998958 
1.345068e+3, 1.9442235e+2, -947527.3, -1102656.4, -21621.973, -0.0097269425, 0.07523896, -944570.0, 90097.63, 0.0, 10.001045, 9.998986 
1.3450663e+3, 2.0442139e+2, -900818.1, -1034516.0, -22583.04, 0.008924938, 0.08277589, -897106.6, 39571.055, 0.0, 10.000715, 9.998942 
1.3450637e+3, 2.1442036e+2, -869182.5, -965149.5, -31207.975, -0.054441947, 0.08270412, -859926.56, -21237.35, 0.0, 10.000244, 9.998972 
1.3450615e+3, 2.2441944e+2, -803077.94, -869717.9, -31942.441, -0.07388635, 0.08929311, -790240.1, -49541.266, 0.0, 9.999971, 9.999086 
1.3450599e+3, 2.3441868e+2, -705398.94, -766760.1, -24333.17, -0.039928176, 0.09704056, -696920.8, -54214.754, 0.0, 9.999948, 9.99913 
1.3450584e+3, 2.4441783e+2, -661544.9, -721333.4, -5772.485, -0.017327452, 0.11292238, -660992.6, -116277.52, 0.0, 9.99969, 9.998894 
1.3450567e+3, 2.5441697e+2, -642583.56, -659360.44, -5044.8247, -0.008219308, 0.13199663, -641183.44, -194457.05, 0.0, 9.999138, 9.998912 
1.3450551e+3, 2.644162e+2, -518536.9, -456451.94, -16530.688, -0.009340138, 0.12710567, -452324.84, -103591.05, 0.0, 9.9989195, 9.999738 
1.3450532e+3, 2.7441558e+2, -384256.38, -331029.06, -27415.797, -0.023968058, 0.081577376, -319433.9, -68697.2, 0.0, 9.9991255, 9.999826 
1.3450517e+3, 2.844151e+2, -347234.66, -334579.13, 657.3235, -0.0153005095, 0.0816887, -334545.06, -181804.16, 0.0, 9.999018, 9.999181 
1.345051e+3, 2.9441488e+2, -321945.8, -272486.22, 17009.352, 0.023959238, 0.14093366, -267201.34, -212455.28, 0.0, 9.998521, 9.999173 
1.3450494e+3, 3.0441484e+2, -203892.98, -19359.016, -8042.417, 0.032641258, 0.14697114, -19009.172, -19009.172, 0.0, 9.998261, 10.000702 
1.3450475e+3, 3.1441465e+2, -188031.33, 8720.485, -850.78894, 0.016264468, 0.04835417, 8724.165, 8724.165, 0.0, 9.99828, 10.000888 
1.3550824e+3, 1.2443171e+2, -1420140.6, -1775092.4, 13441.889, -0.22334518, 0.033770736, -1419632.3, 300942.47, 0.007146109, 10.002926, 9.998172 
1.3550843e+3, 1.3443063e+2, -1304945.9, -1619336.5, 1522.9126, 0.14584066, 0.0693327, -1304938.5, 317647.97, 0.0041188756, 10.002804, 9.998637 
1.3550793e+3, 1.4442946e+2, -1236915.5, -1528999.9, -15506.027, -0.18268415, 0.08252584, -1236094.6, 288503.6, 0.001684743, 10.002569, 9.99869 
1.355078e+3, 1.5442775e+2, -1197180.6, -1461628.6, -18684.652, -0.09853078, 0.04377687, -1195867.0, 230747.48, 0.00037697863, 10.002178, 9.998668 
1.355076e+3, 1.6442643e+2, -1139422.9, -1364906.9, -44509.887, -0.05324273, 0.038480878, -1130954.8, 197672.48, 0.000023370363, 10.0018215, 9.998832 
1.3550738e+3, 1.7442577e+2, -1081386.0, -1280837.6, -49633.69, -0.0237625, 0.0820332, -1069717.3, 160917.1, 0.0000000068048798, 10.001524, 9.9988785 
1.3550712e+3, 1.8442473e+2, -1008183.2, -1174261.3, -36035.414, -0.02014194, 0.083072565, -1000701.3, 131942.73, 0.0, 10.001265, 9.9990635 
1.3550687e+3, 1.9442321e+2, -938806.5, -1084746.9, -30436.63, -0.05876976, 0.020178245, -932713.2, 101944.21, 0.0, 10.001045, 9.99911 
1.3550663e+3, 2.044222e+2, -914670.06, -1063743.6, -40984.38, -0.06275317, 0.026507545, -904145.44, 32522.633, 0.0, 10.000716, 9.998741 
1.3550644e+3, 2.1442184e+2, -884228.5, -996905.75, -49384.523, -0.020335572, 0.11289408, -865648.06, -26972.873, 0.0, 10.000246, 9.998754 
1.3550621e+3, 2.244211e+2, -789524.25, -841510.3, -34499.523, -0.011233614, 0.13888574, -772321.75, -31638.09, 0.0, 9.9999695, 9.999281 
1.3550597e+3, 2.344199e+2, -690718.56, -735680.25, -25418.201, -0.044609424, 0.08267256, -679266.06, -36572.22, 0.0, 9.999944, 9.999347 
1.3550577e+3, 2.44419e+2, -659786.4, -717355.9, -25866.467, -0.049293168, 0.07916346, -649871.8, -105168.93, 0.0, 9.999688, 9.998922 
1.3550557e+3, 2.544185e+2, -641434.7, -656643.3, -25097.664, -0.01779584, 0.13429424, -622814.56, -176104.05, 0.0, 9.999136, 9.998932 
1.3550541e+3, 2.6441783e+2, -535501.9, -491436.28, -9599.913, 0.0039902255, 0.14727558, -489435.72, -140717.8, 0.0, 9.998918, 9.999499 
1.3550526e+3, 2.7441692e+2, -402278.22, -368544.47, -18217.31, 0.013031945, 0.10098661, -360584.72, -109859.78, 0.0, 9.9991255, 9.999569 
1.355051e+3, 2.844164e+2, -317413.56, -273245.72, -15764.691, 0.011754567, 0.090336844, -268196.16, -115467.03, 0.0, 9.999019, 9.999601 
1.3550492e+3, 2.944163e+2, -291338.4, -206427.48, 333.39426, -0.0017804706, 0.11808852, -206426.17, -151696.22, 0.0, 9.998509, 9.999633 
1.3550475e+3, 3.0441588e+2, -242742.89, -98305.44, -6947.358, 0.005680931, 0.085671924, -97972.05, -97972.05, 0.0, 9.998254, 10.000165 
1.3550459e+3, 3.144161e+2, -226772.2, -71894.67, 3403.3228, 0.032762676, 0.08773304, -71819.92, -71819.92, 0.0, 9.998281, 10.000335 
1.3650854e+3, 1.2443362e+2, -1392159.6, -1770769.9, 1713.4937, -0.22169483, 0.05100621, -1392151.9, 328404.2, 0.0074891904, 10.0031595, 9.998089 
1.3650872e+3, 1.3443233e+2, -1310976.3, -1626737.4, -9484.9375, 0.1472937, 0.07012015, -1310691.6, 311878.2, 0.0043270662, 10.002783, 9.998596 
1.3650818e+3, 1.4443116e+2, -1255573.0, -1536729.4, -22168.305, -0.17288932, 0.08342558, -1253835.9, 270745.63, 0.0017791736, 10.002437, 9.998701 
1.36508e+3, 1.5442947e+2, -1203405.1, -1463693.5, -20573.191, -0.098625466, 0.045435414, -1201789.1, 224808.3, 0.00040358416, 10.002131, 9.998675 
1.365078e+3, 1.6442807e+2, -1133028.4, -1369069.5, -35896.51, -0.05886464, 0.035729103, -1127690.0, 200920.8, 0.000026350568, 10.001897, 9.998767 
1.3650753e+3, 1.7442724e+2, -1054491.1, -1275597.6, -35765.586, -0.025044668, 0.070383355, -1048849.8, 181769.55, 0.000000016360648, 10.001742, 9.99881 
1.3650726e+3, 1.8442616e+2, -988176.1, -1168650.1, -28838.95, -0.018375646, 0.072531976, -983679.8, 148949.67, 0.0, 10.00142, 9.999027 
1.3650697e+3, 1.9442475e+2, -962588.75, -1100173.4, -35251.59, -0.05874504, 0.020850312, -954082.56, 80559.836, 0.0, 10.000899, 9.999075 
1.365067e+3, 2.0442374e+2, -936190.44, -1071306.8, -41126.355, -0.06447872, 0.027842533, -924657.0, 11995.983, 0.0, 10.000557, 9.998766 
1.3650645e+3, 2.1442328e+2, -854278.0, -978837.25, -32052.037, -0.022834871, 0.10339244, -846514.2, -7853.8184, 0.0, 10.000438, 9.998784 
1.3650623e+3, 2.244225e+2, -769569.7, -842742.94, -16422.662, -0.009619549, 0.12838857, -766052.9, -25383.535, 0.0, 10.000155, 9.999182 
1.3650598e+3, 2.344213e+2, -739216.06, -771332.6, -31782.715, -0.03359802, 0.08268505, -719665.2, -76984.74, 0.0, 9.999665, 9.999235 
1.3650572e+3, 2.4442044e+2, -684479.4, -706242.6, -38028.03, -0.03985841, 0.08012591, -655806.75, -111117.79, 0.0, 9.999421, 9.999126 
1.365055e+3, 2.5442004e+2, -573977.5, -598548.9, -23747.05, -0.023370389, 0.12295755, -559526.3, -112832.17, 0.0, 9.999492, 9.999158 
1.365053e+3, 2.6441935e+2, -495476.44, -498834.9, 2980.1018, -0.003890633, 0.1344084, -493735.03, -145033.36, 0.0, 9.9993105, 9.999257 
1.3650516e+3, 2.7441832e+2, -467036.53, -429818.28, -7405.066, 0.018061988, 0.10246743, -428399.06, -177687.22, 0.0, 9.998814, 9.999297 
1.3650498e+3, 2.8441787e+2, -375544.5, -271142.4, -16673.787, 0.02031854, 0.1008481, -268544.16, -115828.55, 0.0, 9.998492, 9.999869 
1.3650475e+3, 2.9441807e+2, -287774.53, -170036.81, -14290.694, 0.0012225906, 0.12416432, -168327.08, -113615.164, 0.0, 9.998386, 9.999941 
1.3650458e+3, 3.0441722e+2, -250697.05, -135860.47, -6341.0806, 0.009894066, 0.050855074, -135511.38, -135511.38, 0.0, 9.998345, 9.999862 
1.3650441e+3, 3.144176e+2, -226562.61, -92949.21, 23463.506, 0.022894695, 0.10093493, -88948.63, -88948.63, 0.0, 9.998371, 10.000146 
1.3750897e+3, 1.2443577e+2, -1391291.3, -1768844.9, -7856.472, -0.1128006, 0.101830624, -1391127.9, 329409.16, 0.007836575, 10.003159, 9.998103 
1.3750893e+3, 1.34434e+2, -1306895.5, -1616439.3, -24083.162, 0.088142805, 0.06775562, -1305032.9, 317521.2, 0.0045376513, 10.002777, 9.99867 
1.3750835e+3, 1.4443287e+2, -1249605.4, -1524473.8, -34530.168, -0.25110286, 0.07732371, -1245334.0, 279230.97, 0.001874079, 10.002437, 9.998786 
1.3750827e+3, 1.544317e+2, -1196850.8, -1451108.8, -32243.15, -0.042856425, 0.0829485, -1192825.6, 233750.45, 0.00043006166, 10.002135, 9.998761 
1.3750805e+3, 1.6443029e+2, -1132123.8, -1368081.4, -42847.28, 0.012159804, 0.066847906, -1124584.1, 204005.28, 0.000029160963, 10.0019, 9.998773 
1.3750765e+3, 1.7442878e+2, -1054258.0, -1275218.9, -42122.73, -0.079920255, 0.032010093, -1046500.3, 184103.23, 0.000000027808229, 10.001742, 9.998813 
1.3750733e+3, 1.8442765e+2, -1000405.94, -1194480.5, -48859.38, -0.08978116, 0.03594893, -988799.44, 143815.19, 0.0, 10.001421, 9.99885 
1.3750711e+3, 1.9442692e+2, -975058.5, -1127338.3, -55388.97, -0.011560492, 0.07552233, -957043.06, 77579.164, 0.0, 10.000904, 9.998887 
1.3750681e+3, 2.0442596e+2, -919046.0, -1036370.75, -47461.867, 0.0010038546, 0.08588782, -902250.44, 34381.67, 0.0, 10.000559, 9.999004 
1.3750647e+3, 2.1442471e+2, -835909.56, -940489.4, -37091.36, -0.0626272, 0.05507629, -824090.2, 14554.268, 0.0, 10.000436, 9.999049 
1.3750617e+3, 2.2442368e+2, -796842.56, -898975.6, -35024.496, -0.069560036, 0.0581109, -785985.7, -45330.016, 0.0, 10.000154, 9.998796 
1.3750596e+3, 2.3442288e+2, -768712.4, -832857.44, -50144.547, -0.007820253, 0.09702903, -741260.8, -98595.164, 0.0, 9.999665, 9.998814 
1.3750573e+3, 2.444222e+2, -659124.3, -653578.75, -36466.31, 0.00963573, 0.115133174, -619779.94, -75107.055, 0.0, 9.99942, 9.999489 
1.3750546e+3, 2.5442162e+2, -545975.2, -539546.75, -20462.45, -0.027118707, 0.0994524, -522047.63, -75370.73, 0.0, 9.999487, 9.999566 
1.3750522e+3, 2.644208e+2, -512925.8, -534788.94, -14274.143, -0.035160363, 0.09010757, -505878.22, -157193.31, 0.0, 9.999309, 9.999012 
1.3750501e+3, 2.744198e+2, -487373.63, -471587.88, -24656.61, -0.010534924, 0.08490369, -453591.63, -202894.02, 0.0, 9.998811, 9.999012 
1.3750482e+3, 2.8441954e+2, -368329.78, -255837.4, -20202.143, 0.0088191675, 0.11186397, -252319.39, -99618.93, 0.0, 9.998489, 9.999976 
1.3750462e+3, 2.944201e+2, -278525.2, -150616.95, -16288.246, 0.028137539, 0.16270028, -148575.34, -93883.6, 0.0, 9.998384, 10.000075 
1.3750444e+3, 3.044189e+2, -255276.28, -145951.78, -4078.7947, 0.039345406, 0.045752883, -145799.81, -145799.81, 0.0, 9.998346, 9.999793 
1.375042e+3, 3.1441894e+2, -215374.19, -67420.055, 27015.768, -0.017147176, 0.07371903, -62641.434, -62641.434, 0.0, 9.998362, 10.000326 
1.3850932e+3, 1.24437705e+2, -1378282.4, -1745349.4, -6525.41, -0.0811833, 0.12082137, -1378166.4, 342353.1, 0.00819284, 10.003176, 9.998257 
1.385092e+3, 1.3443588e+2, -1301629.3, -1588238.8, -17341.266, 0.08029857, 0.05762864, -1300583.8, 321951.8, 0.004753623, 10.002703, 9.998899 
1.3850859e+3, 1.4443485e+2, -1260708.9, -1534843.0, -18190.066, -0.25851926, 0.0687037, -1259507.1, 265037.66, 0.001970775, 10.002382, 9.998741 
1.3850851e+3, 1.5443382e+2, -1186145.5, -1453171.6, -27659.535, -0.03714852, 0.095010355, -1183310.5, 243245.03, 0.0004566524, 10.00224, 9.998697 
1.3850825e+3, 1.6443245e+2, -1120382.8, -1357916.1, -44856.53, 0.020554496, 0.082465895, -1112194.3, 216374.58, 0.00003186285, 10.001961, 9.998813 
1.3850781e+3, 1.7443079e+2, -1081499.9, -1283352.4, -41386.63, -0.08071872, 0.029910011, -1073343.8, 157239.97, 0.000000039188958, 10.0015335, 9.9988575 
1.3850747e+3, 1.8442963e+2, -1029469.25, -1215879.5, -42697.285, -0.092922986, 0.0318484, -1020154.8, 112440.11, 0.0, 10.001253, 9.998783 
1.3850722e+3, 1.9442904e+2, -943380.4, -1120029.6, -41514.51, -0.009112017, 0.090860255, -934110.44, 100491.53, 0.0, 10.001157, 9.998815 
1.385069e+3, 2.0442805e+2, -870704.0, -1014366.4, -37114.777, 0.0062372885, 0.101812415, -861682.06, 74930.16, 0.0, 10.000897, 9.998992 
1.3850652e+3, 2.1442653e+2, -836817.2, -942188.44, -47343.38, -0.05901927, 0.046246726, -818670.9, 19955.459, 0.0, 10.000436, 9.999037 
1.3850619e+3, 2.2442542e+2, -807327.06, -905865.6, -44667.652, -0.06875034, 0.043408938, -790093.25, -49455.23, 0.0, 10.00009, 9.99878 
1.3850594e+3, 2.3442478e+2, -736466.06, -818418.56, -31144.81, -0.011253153, 0.100165464, -725973.4, -83326.67, 0.0, 9.999894, 9.998801 
1.3850568e+3, 2.4442409e+2, -637484.1, -649504.7, -10487.368, 0.008022216, 0.12075816, -631406.9, -86752.75, 0.0, 9.9995985, 9.99943 
1.385054e+3, 2.544233e+2, -595309.94, -570133.9, -29299.072, -0.020007376, 0.08804382, -550833.1, -104173.0, 0.0, 9.99918, 9.999503 
1.3850513e+3, 2.6442245e+2, -559240.3, -541666.8, -31570.203, -0.029322157, 0.07262129, -517683.38, -169015.19, 0.0, 9.998925, 9.999147 
1.385049e+3, 2.7442166e+2, -467020.25, -444880.56, -11587.439, -0.017121563, 0.07479998, -439925.1, -189246.58, 0.0, 9.9988785, 9.999162 
1.3850467e+3, 2.8442147e+2, -345718.97, -261026.95, 4259.603, -0.0009160104, 0.111116685, -260813.25, -108132.69, 0.0, 9.998716, 9.999829 
1.3850446e+3, 2.94422e+2, -283926.7, -171103.64, -14681.191, 0.026289955, 0.17047825, -169224.53, -114551.16, 0.0, 9.998427, 9.999913 
1.3850427e+3, 3.0442056e+2, -295541.9, -154676.13, -11665.228, 0.04851737, 0.036617257, -153716.66, -153716.66, 0.0, 9.998026, 9.9998865 
1.38504e+3, 3.1442097e+2, -317432.06, -65363.445, 32534.598, -0.012706833, 0.08514724, -61231.91, -61231.91, 0.0, 9.997442, 10.000782 
1.3950959e+3, 1.2443949e+2, -1357881.1, -1702176.3, -19562.436, -0.12463025, 0.10726152, -1356773.3, 363729.72, 0.008561277, 10.003173, 9.998556 
1.3950951e+3, 1.3443801e+2, -1275069.8, -1532816.1, -35057.9, 0.11938848, 0.039039284, -1270386.4, 352127.38, 0.004977431, 10.002703, 9.999282 
1.3950887e+3, 1.4443715e+2, -1272571.9, -1560639.8, -25042.852, -0.20219669, 0.05592948, -1270411.0, 254109.89, 0.0020706747, 10.002386, 9.998562 
1.395087e+3, 1.5443592e+2, -1201185.6, -1484251.6, -33595.934, -0.08004958, 0.08384454, -1197252.9, 229282.1, 0.0004838168, 10.002238, 9.998485 
1.395084e+3, 1.6443458e+2, -1115136.0, -1347814.8, -61460.168, -0.03201404, 0.0849141, -1099899.5, 228648.95, 0.000034571214, 10.001964, 9.998881 
1.3950802e+3, 1.7443332e+2, -1074502.9, -1270372.4, -57968.574, -0.030156083, 0.062316455, -1058632.6, 171926.69, 0.00000005013657, 10.001539, 9.998944 
1.3950765e+3, 1.8443218e+2, -1026363.75, -1210312.9, -48023.145, -0.03183259, 0.059038006, -1014581.2, 117988.87, 0.0, 10.001256, 9.99882 
1.395073e+3, 1.9443113e+2, -940731.1, -1115052.4, -45674.664, -0.05140525, 0.067963935, -929488.75, 105092.35, 0.0, 10.001158, 9.998849 
1.3950694e+3, 2.0442998e+2, -888909.75, -1052212.5, -54572.785, -0.04910149, 0.07560827, -872351.44, 64241.453, 0.0, 10.000897, 9.998733 
1.3950661e+3, 2.1442875e+2, -856047.9, -982786.75, -64993.145, -0.013680908, 0.07608976, -828644.0, 9961.569, 0.0, 10.000438, 9.998758 
1.3950627e+3, 2.2442774e+2, -783617.9, -857132.75, -53259.46, -0.009086897, 0.083267316, -755663.06, -15047.04, 0.0, 10.000092, 9.999114 
1.395059e+3, 2.3442703e+2, -710572.7, -764560.0, -38664.996, -0.044794034, 0.09275225, -690410.9, -47787.457, 0.0, 9.999892, 9.999172 
1.3950558e+3, 2.4442615e+2, -670279.1, -717202.06, -26166.014, -0.04581572, 0.09734612, -658596.6, -113964.11, 0.0, 9.999596, 9.998966 
1.3950533e+3, 2.5442505e+2, -631541.75, -645218.0, -44414.49, -0.0038564228, 0.08773121, -593442.1, -146798.42, 0.0, 9.999178, 9.998989 
1.3950506e+3, 2.6442426e+2, -524069.22, -468892.75, -33089.598, 0.011619739, 0.08049254, -453399.3, -104747.89, 0.0, 9.998925, 9.999648 
1.3950479e+3, 2.7442396e+2, -427686.78, -362851.06, -11772.074, -0.0056733275, 0.075093776, -360779.78, -110125.62, 0.0, 9.998876, 9.999727 
1.3950452e+3, 2.844238e+2, -373842.9, -319619.47, -5378.479, -0.012947223, 0.10161564, -319091.13, -166435.44, 0.0, 9.998716, 9.999428 
1.3950428e+3, 2.9442367e+2, -317798.53, -240689.89, -23576.781, -0.0060222014, 0.14443369, -234052.39, -179395.13, 0.0, 9.998424, 9.999437 
1.3950406e+3, 3.044222e+2, -277446.6, -116587.98, -31452.578, 0.03580988, 0.021128329, -110656.77, -110656.77, 0.0, 9.998023, 10.00015 
1.3950379e+3, 3.144235e+2, -266974.66, 39971.598, 11643.641, 0.029155385, 0.12488469, 40412.652, 40412.652, 0.0, 9.997439, 10.001507 
1.405099e+3, 1.2444181e+2, -1372471.3, -1718881.4, 24643.969, -0.13469131, 0.08206511, -1370726.8, 349752.34, 0.008945781, 10.003114, 9.998469 
1.405098e+3, 1.3444053e+2, -1230010.1, -1512985.9, -24694.475, 0.12598102, 0.037149537, -1227871.3, 394617.1, 0.0052122944, 10.003023, 9.999265 
1.4050916e+3, 1.4443973e+2, -1229135.1, -1547739.6, -28322.338, -0.17803085, 0.06277491, -1226637.0, 297858.3, 0.0021757921, 10.002721, 9.998489 
1.405089e+3, 1.5443821e+2, -1217499.9, -1500736.5, -27486.887, -0.07689128, 0.071256794, -1214857.1, 211655.14, 0.0005121799, 10.002164, 9.998406 
1.4050858e+3, 1.6443683e+2, -1134716.4, -1357539.1, -48100.09, -0.039353333, 0.06961628, -1124776.5, 203749.94, 0.000037386584, 10.001831, 9.998878 
1.4050817e+3, 1.7443575e+2, -1038496.44, -1252662.1, -51522.727, -0.032376956, 0.066376634, -1026746.06, 203789.42, 0.00000006103049, 10.001786, 9.998947 
1.4050779e+3, 1.8443464e+2, -984043.25, -1191359.6, -47955.24, -0.03272325, 0.066283256, -973487.94, 159058.03, 0.0, 10.001554, 9.998807 
1.4050739e+3, 1.9443338e+2, -950439.44, -1121321.8, -49850.613, -0.05874533, 0.057751343, -936960.06, 97598.58, 0.0, 10.001099, 9.998834 
1.4050701e+3, 2.0443219e+2, -912215.75, -1067490.6, -54527.086, -0.05443409, 0.06209383, -894980.75, 41590.23, 0.0, 10.000755, 9.998696 
1.4050667e+3, 2.1443108e+2, -841177.94, -979442.2, -47689.703, -0.0058890465, 0.077303335, -826324.56, 12258.056, 0.0, 10.000558, 9.998722 
1.4050628e+3, 2.2443008e+2, -756674.44, -846872.1, -37354.89, 0.0017662836, 0.089563824, -743213.1, -2620.2678, 0.0, 10.000289, 9.999088 
1.4050588e+3, 2.3442926e+2, -707531.44, -766240.75, -52614.586, -0.044451576, 0.09165214, -676636.7, -34035.492, 0.0, 9.999927, 9.999144 
1.4050552e+3, 2.444283e+2, -670278.75, -718913.06, -42111.047, -0.052168336, 0.09264121, -645968.06, -101357.266, 0.0, 9.999603, 9.998951 
1.4050525e+3, 2.544272e+2, -610659.5, -636905.9, -24663.393, -0.011425243, 0.08256316, -595845.25, -149223.06, 0.0, 9.999329, 9.998973 
1.4050496e+3, 2.6442644e+2, -507623.84, -456673.3, -4901.277, 0.009285438, 0.07705722, -456206.13, -107576.59, 0.0, 9.999021, 9.999685 
1.4050467e+3, 2.7442625e+2, -453613.84, -370316.84, -23094.096, 0.004247954, 0.07758875, -364342.53, -113711.586, 0.0, 9.998677, 9.99977 
1.4050438e+3, 2.8442606e+2, -426911.44, -343457.06, -26354.004, -0.00445152, 0.099307455, -335831.53, -183198.95, 0.0, 9.998345, 9.999442 
1.4050409e+3, 2.9442576e+2, -376890.6, -268433.5, -9999.332, -0.013614333, 0.12200318, -267519.28, -212883.02, 0.0, 9.9980135, 9.999444 
1.4050384e+3, 3.0442435e+2, -329788.22, -154873.08, -14609.694, 0.033402797, 0.0101299295, -153661.2, -153661.2, 0.0, 9.99772, 10.000033 
1.4050354e+3, 3.1442562e+2, -241398.1, 80526.26, -8638.896, 0.037922215, 0.124007784, 80757.914, 80757.914, 0.0, 9.997494, 10.0017605 
1.4151023e+3, 1.2444467e+2, -1404800.8, -1786800.4, 21676.898, -0.11701068, 0.041397355, -1403574.6, 316873.66, 0.009352521, 10.003115, 9.998004 
1.4151008e+3, 1.3444354e+2, -1259656.5, -1573030.0, -28460.97, 0.10162481, 0.053489838, -1257092.6, 365366.3, 0.0054630674, 10.003018, 9.998852 
1.4150943e+3, 1.4444266e+2, -1226435.8, -1542774.4, -49151.46, -0.18500087, 0.09137125, -1218974.8, 305492.84, 0.002288969, 10.002723, 9.998524 
1.4150916e+3, 1.5444078e+2, -1212635.8, -1492021.3, -48545.777, -0.03159812, 0.056865178, -1204440.9, 222045.8, 0.00054253166, 10.00217, 9.998465 
1.4150879e+3, 1.6443919e+2, -1139695.6, -1369437.0, -51832.113, -0.0064884303, 0.03668047, -1128543.1, 199959.1, 0.000040406845, 10.001837, 9.998794 
1.4150831e+3, 1.7443812e+2, -1044176.3, -1265587.4, -53606.71, -0.08659076, 0.042812023, -1031880.25, 198631.47, 0.00000007226826, 10.00179, 9.998857 
1.4150788e+3, 1.8443702e+2, -988333.9, -1200927.8, -65113.043, -0.09530429, 0.054010395, -969976.3, 162545.86, 0.0, 10.001556, 9.99874 
1.4150752e+3, 1.9443586e+2, -954656.7, -1131131.0, -67301.555, -0.03255036, 0.059921205, -931919.56, 102614.734, 0.0, 10.001102, 9.998765 
1.4150713e+3, 2.044347e+2, -899366.1, -1041379.7, -63422.516, -0.011690835, 0.061054, -875165.9, 61380.2, 0.0, 10.000756, 9.998875 
1.4150669e+3, 2.1443352e+2, -827479.5, -951108.75, -55536.66, -0.036390528, 0.050276194, -806195.6, 32361.611, 0.0, 10.000557, 9.998918 
1.4150627e+3, 2.2443245e+2, -783708.5, -902378.8, -51229.152, -0.037573535, 0.0621691, -764653.0, -24084.566, 0.0, 10.000285, 9.99871 
1.4150591e+3, 2.3443154e+2, -736413.06, -826665.4, -65976.61, -0.0118197715, 0.09659435, -701606.25, -59026.516, 0.0, 9.9999275, 9.998729 
1.4150552e+3, 2.4443065e+2, -640695.4, -658158.2, -52335.004, -0.012696399, 0.10576275, -596368.44, -51779.594, 0.0, 9.999604, 9.999368 
1.4150514e+3, 2.544298e+2, -578151.3, -569016.56, -34356.766, -0.0441837, 0.0743176, -538924.9, -92329.5, 0.0, 9.999326, 9.999441 
1.4150482e+3, 2.64429e+2, -537310.94, -518501.3, -17154.389, -0.03791629, 0.06410818, -508342.8, -159740.48, 0.0, 9.99902, 9.999262 
1.4150456e+3, 2.744285e+2, -487569.78, -440603.16, -34575.81, 0.010539296, 0.08022267, -422289.9, -171681.03, 0.0, 9.998675, 9.9992895 
1.4150424e+3, 2.844283e+2, -396146.94, -279491.38, -37519.047, 0.022125943, 0.10195292, -268466.38, -115855.125, 0.0, 9.998343, 9.999883 
1.415039e+3, 2.944283e+2, -342791.94, -197466.61, -20300.404, -0.0016616913, 0.10615254, -194684.14, -140074.19, 0.0, 9.998012, 9.999933 
1.4150363e+3, 3.04427e+2, -365076.44, -229120.36, -22046.713, 0.036181353, 0.0082206195, -225634.63, -225634.63, 0.0, 9.997723, 9.999522 
1.4150327e+3, 3.1442726e+2, -259872.02, 42633.56, -17832.72, 0.0117883785, 0.074336655, 43681.168, 43681.168, 0.0, 9.997491, 10.001501 
1.4251056e+3, 1.2444787e+2, -1368267.0, -1790078.3, 18006.668, -0.11763301, 0.032046843, -1367499.6, 352916.03, 0.009788711, 10.00346, 9.997815 
1.4251037e+3, 1.344467e+2, -1278148.3, -1596252.0, -13240.036, 0.091660626, 0.053715523, -1277598.1, 344829.78, 0.0057347612, 10.002954, 9.998722 
1.425097e+3, 1.444458e+2, -1237004.3, -1549258.4, -24281.58, -0.18366079, 0.096693516, -1235127.4, 289309.78, 0.0024130836, 10.002658, 9.998509 
1.4250942e+3, 1.5444382e+2, -1147486.4, -1461603.6, -29873.602, -0.030613873, 0.052604266, -1144670.5, 281785.84, 0.0005758784, 10.002622, 9.998455 
1.42509e+3, 1.6444212e+2, -1073035.6, -1351026.9, -36591.91, -0.007922962, 0.028451195, -1068299.8, 260173.1, 0.00004378684, 10.002355, 9.998671 
1.4250848e+3, 1.7444095e+2, -1049834.5, -1282742.6, -42008.844, -0.093150094, 0.03652463, -1042489.2, 187994.83, 0.00000008454083, 10.001815, 9.998726 
1.4250803e+3, 1.8443982e+2, -1009830.9, -1213385.1, -54702.906, -0.10195018, 0.052902635, -996061.56, 136433.47, 0.0, 10.001419, 9.99872 
1.4250764e+3, 1.9443876e+2, -939530.2, -1124745.0, -53345.766, -0.03282082, 0.069148704, -925264.3, 109241.68, 0.0, 10.001212, 9.998755 
1.4250721e+3, 2.0443751e+2, -877736.56, -1035993.9, -53361.676, -0.011497655, 0.06739063, -861425.1, 75093.0, 0.0, 10.000928, 9.998829 
1.4250672e+3, 2.144361e+2, -832320.0, -958911.06, -63973.6, -0.044591043, 0.037055004, -805621.4, 32910.2, 0.0, 10.000547, 9.998868 
1.425063e+3, 2.2443496e+2, -795115.0, -909662.9, -57036.883, -0.04609953, 0.044114262, -771558.8, -31015.195, 0.0, 10.000215, 9.998694 
1.4250591e+3, 2.3443414e+2, -735159.4, -827318.75, -43247.855, -0.010272886, 0.09133777, -718043.2, -75489.516, 0.0, 9.999942, 9.998717 
1.4250551e+3, 2.444333e+2, -634931.7, -652531.25, -27823.05, -0.006054537, 0.10480947, -614550.0, -69987.8, 0.0, 9.999632, 9.999393 
1.4250508e+3, 2.544324e+2, -583107.5, -567914.4, -42835.75, -0.039385054, 0.06741285, -532006.8, -85438.03, 0.0, 9.999277, 9.999472 
1.425047e+3, 2.644316e+2, -553570.5, -532406.06, -30117.568, -0.034733873, 0.053879265, -511065.7, -162489.7, 0.0, 9.998934, 9.9992075 
1.4250442e+3, 2.74431e+2, -501115.5, -454113.75, -17479.295, 0.012626981, 0.06788597, -448326.13, -197742.73, 0.0, 9.99861, 9.9992285 
1.4250408e+3, 2.8443074e+2, -405878.53, -279159.94, -18069.72, 0.02382236, 0.08661036, -276633.63, -124047.44, 0.0, 9.998255, 9.9999275 
1.425037e+3, 2.9443082e+2, -359582.88, -200447.94, -35434.527, 0.00084181514, 0.09070816, -192914.39, -138330.05, 0.0, 9.997876, 9.999977 
1.425034e+3, 3.0442983e+2, -393215.25, -259704.58, -35751.324, 0.04127198, 0.028255014, -250733.88, -250733.88, 0.0, 9.997603, 9.999369 
1.4250301e+3, 3.1442937e+2, -262230.8, 45535.047, -4937.2744, 0.010201363, 0.0389896, 45614.234, 45614.234, 0.0, 9.997457, 10.001537 
1.435109e+3, 1.24451436e+2, -1363476.0, -1778331.9, -557.0206, -0.13493198, 0.050109655, -1363475.3, 356906.03, 0.010260567, 10.003452, 9.9979 
1.4351067e+3, 1.344501e+2, -1267853.3, -1574831.0, -32444.48, 0.09164297, 0.0380316, -1264461.8, 357933.1, 0.0060307956, 10.0029545, 9.99887 
1.4350995e+3, 1.4444919e+2, -1241452.9, -1560118.0, -27592.068, -0.17943944, 0.078833625, -1239081.4, 285322.03, 0.002550165, 10.002664, 9.998432 
1.4350963e+3, 1.5444738e+2, -1152926.4, -1473411.5, -31571.549, -0.07295069, 0.058132786, -1149845.8, 276575.16, 0.00061331474, 10.002623, 9.998374 
1.4350921e+3, 1.6444567e+2, -1084495.0, -1375593.4, -57151.086, -0.04266197, 0.045224395, -1073676.6, 254761.1, 0.000047750204, 10.0023575, 9.998501 
1.435087e+3, 1.7444424e+2, -1061600.6, -1308471.0, -62722.96, -0.05474917, 0.046765592, -1046578.56, 183873.64, 0.00000010052836, 10.00182, 9.998548 
1.4350821e+3, 1.8444304e+2, -1007546.56, -1209556.5, -63991.316, -0.05638215, 0.062396362, -988981.94, 143482.33, 0.0, 10.001421, 9.998746 
1.4350773e+3, 1.9444206e+2, -936238.5, -1119007.9, -61384.703, -0.06041111, 0.08443393, -917535.75, 116937.71, 0.0, 10.001215, 9.998794 
1.4350726e+3, 2.0444068e+2, -896351.5, -1074964.1, -67823.01, -0.05494586, 0.080198176, -873516.94, 62970.016, 0.0, 10.000928, 9.998562 
1.435068e+3, 2.1443886e+2, -852063.6, -1000895.8, -78205.54, -0.031686697, 0.037204232, -818526.7, 19978.773, 0.0, 10.00055, 9.99858 
1.4350633e+3, 2.2443762e+2, -771309.06, -860866.94, -67831.92, -0.02485668, 0.034633677, -734808.75, 5709.322, 0.0, 10.000216, 9.999029 
1.4350587e+3, 2.3443714e+2, -709307.7, -773697.2, -53376.87, -0.040281374, 0.076723635, -679167.94, -36644.934, 0.0, 9.999941, 9.999086 
1.4350544e+3, 2.4443632e+2, -659877.94, -704211.5, -41024.79, -0.033830505, 0.09060653, -635414.25, -90883.38, 0.0, 9.99963, 9.99904 
1.4350504e+3, 2.5443512e+2, -611314.75, -626324.5, -55396.734, 0.0006019955, 0.060896177, -562916.9, -116374.59, 0.0, 9.999275, 9.999073 
1.4350466e+3, 2.6443425e+2, -531330.6, -486440.97, -41309.324, 0.016899457, 0.045340586, -461872.72, -113322.305, 0.0, 9.998934, 9.999524 
1.4350428e+3, 2.7443382e+2, -476038.28, -401728.25, -27932.303, 0.00869069, 0.043101497, -392399.84, -141845.81, 0.0, 9.998608, 9.99959 
1.4350387e+3, 2.8443354e+2, -431037.88, -332294.56, -31042.125, -0.0019004204, 0.05593507, -323346.63, -170789.66, 0.0, 9.998258, 9.999562 
1.4350347e+3, 2.9443333e+2, -389704.56, -262897.13, -47775.086, -0.009002906, 0.072850324, -246912.64, -192352.92, 0.0, 9.997873, 9.99955 
1.4350316e+3, 3.0443278e+2, -377615.22, -226456.89, -40500.92, 0.046179093, 0.06793524, -216289.13, -216289.13, 0.0, 9.9976, 9.999599 
1.4350279e+3, 3.1443205e+2, -240210.61, 92148.875, -11155.205, 0.028366027, 0.026105732, 92522.86, 92522.86, 0.0, 9.997453, 10.00186 
1.4451122e+3, 1.2445541e+2, -1392353.6, -1802092.1, 18173.016, -0.13825259, 0.0756334, -1391549.3, 328793.6, 0.010773259, 10.003298, 9.997809 
1.4451095e+3, 1.3445368e+2, -1223046.3, -1558613.1, -29629.057, 0.07931666, 0.03198441, -1220450.1, 401909.6, 0.0063539445, 10.003289, 9.998819 
1.4451024e+3, 1.444527e+2, -1177607.4, -1524132.1, -27479.564, -0.18219453, 0.064541176, -1175441.8, 348927.28, 0.0027018294, 10.003083, 9.998476 
1.4450988e+3, 1.5445109e+2, -1146135.3, -1463961.8, -22050.908, -0.078085236, 0.057840616, -1144612.6, 281771.75, 0.0006557922, 10.0026455, 9.998426 
1.4450943e+3, 1.6444945e+2, -1100184.9, -1392251.3, -44371.074, -0.046080574, 0.053603522, -1093592.8, 234807.63, 0.000052490832, 10.002292, 9.998416 
1.445089e+3, 1.7444794e+2, -1034658.56, -1305983.4, -45357.33, -0.050835464, 0.05611507, -1027277.0, 203138.95, 0.00000012546444, 10.002051, 9.998451 
1.4450838e+3, 1.8444659e+2, -965196.06, -1192934.9, -42537.563, -0.051605925, 0.06516034, -957510.2, 174919.17, 0.0, 10.00173, 9.998711 
1.4450786e+3, 1.9444545e+2, -924315.56, -1116802.5, -45793.035, -0.065504044, 0.07286832, -913976.6, 120463.4, 0.0, 10.001314, 9.99876 
1.4450735e+3, 2.0444405e+2, -898368.56, -1085070.4, -49166.87, -0.061258692, 0.07073849, -886212.25, 50241.668, 0.0, 10.000954, 9.99848 
1.4450686e+3, 2.1444236e+2, -841173.06, -1004912.0, -45141.68, -0.027500741, 0.049789954, -829552.5, 8919.054, 0.0, 10.000667, 9.998495 
1.4450637e+3, 2.244411e+2, -750612.94, -847586.6, -37062.074, -0.019540641, 0.05027177, -738070.56, 2413.569, 0.0, 10.000344, 9.999058 
1.4450586e+3, 2.3444045e+2, -701936.75, -766326.94, -47871.445, -0.046716046, 0.071313664, -676441.3, -33951.21, 0.0, 9.999975, 9.999121 
1.4450538e+3, 2.4443954e+2, -666626.4, -714074.56, -39027.773, -0.042752877, 0.076900326, -644677.7, -100179.086, 0.0, 9.999612, 9.998981 
1.4450496e+3, 2.5443834e+2, -618052.3, -637105.75, -30105.25, 0.00066901004, 0.054561906, -596002.4, -149492.16, 0.0, 9.99926, 9.999006 
1.4450455e+3, 2.644375e+2, -534482.6, -484046.72, -12966.441, 0.02284121, 0.04356819, -480908.47, -132390.31, 0.0, 9.998895, 9.999559 
1.4450414e+3, 2.744371e+2, -486570.38, -401707.3, -23971.252, 0.016788058, 0.041249137, -395404.3, -144883.25, 0.0, 9.998514, 9.999635 
1.4450371e+3, 2.844367e+2, -442567.53, -345705.28, -26315.824, 0.0051003736, 0.04473154, -339017.47, -186492.6, 0.0, 9.998212, 9.999492 
1.4450327e+3, 2.9443625e+2, -375830.84, -265928.94, -19280.063, -0.0069366535, 0.044662, -262644.78, -208114.67, 0.0, 9.99801, 9.999464 
1.4450292e+3, 3.0443615e+2, -386364.72, -217688.14, -9777.303, 0.05266851, 0.08353251, -217123.28, -217123.28, 0.0, 9.997484, 9.999715 
1.445025e+3, 3.1443524e+2, -364248.5, 37198.723, 2952.4631, 0.04918228, 0.006042246, 37220.438, 37220.438, 0.0, 9.996582, 10.0019 
1.4551155e+3, 1.2445983e+2, -1410635.4, -1841866.4, 14825.551, -0.13233723, 0.10755561, -1410126.3, 310173.56, 0.011329887, 10.003304, 9.997535 
1.4551127e+3, 1.3445757e+2, -1241758.3, -1596070.9, -29918.166, 0.05538972, 0.035450585, -1239249.8, 383072.5, 0.0067066518, 10.003284, 9.998563 
1.4551055e+3, 1.4445642e+2, -1166806.4, -1501217.3, -44672.535, -0.1907715, 0.055626802, -1160941.6, 363391.66, 0.002869533, 10.00308, 9.998636 
1.4551018e+3, 1.54455e+2, -1132901.6, -1436662.6, -38906.934, -0.050014194, 0.05174793, -1127997.5, 298348.63, 0.00070392614, 10.0026455, 9.998614 
1.4550968e+3, 1.6445352e+2, -1100726.0, -1394545.6, -54813.063, -0.023273, 0.054041967, -1090833.5, 237526.78, 0.000058062662, 10.0022955, 9.9984 
1.4550906e+3, 1.7445207e+2, -1035834.6, -1309532.1, -54556.188, -0.0815504, 0.06410781, -1025360.7, 205014.3, 0.00000016567238, 10.002054, 9.998426 
1.4550853e+3, 1.8445055e+2, -971850.75, -1207558.1, -58688.734, -0.088122256, 0.061587133, -958046.3, 174343.72, 0.0, 10.001732, 9.99861 
1.45508e+3, 1.9444895e+2, -931132.0, -1132397.6, -61536.047, -0.049310576, 0.03492384, -913808.7, 120596.734, 0.0, 10.001319, 9.998652 
1.4550747e+3, 2.0444758e+2, -891464.44, -1071336.5, -61044.387, -0.032072295, 0.038813572, -872704.06, 63714.824, 0.0, 10.000956, 9.998573 
1.4550692e+3, 2.1444656e+2, -833348.2, -989245.94, -56133.164, -0.03344543, 0.07439832, -815240.0, 23189.895, 0.0, 10.000668, 9.998603 
1.455064e+3, 2.244454e+2, -769729.6, -887009.7, -51137.85, -0.03242067, 0.09034413, -750563.94, -10122.103, 0.0, 10.000342, 9.998789 
1.4550588e+3, 2.344441e+2, -722049.2, -808426.5, -61258.742, -0.030946773, 0.07442473, -690285.2, -47830.324, 0.0, 9.999975, 9.998832 
1.4550535e+3, 2.4444298e+2, -650759.3, -681522.25, -51945.75, -0.0333821, 0.062665425, -611965.6, -67500.234, 0.0, 9.999612, 9.999206 
1.4550486e+3, 2.5444213e+2, -600588.3, -600582.25, -42379.15, -0.039549097, 0.049302433, -558206.1, -111733.63, 0.0, 9.999257, 9.999259 
1.455044e+3, 2.644414e+2, -551994.25, -520069.6, -26448.781, -0.018289166, 0.049749315, -505139.63, -156660.55, 0.0, 9.998892, 9.999313 
1.45504e+3, 2.7444088e+2, -506455.94, -442298.1, -36817.48, 0.03453336, 0.06123582, -425544.8, -175060.22, 0.0, 9.99851, 9.999358 
1.4550358e+3, 2.844403e+2, -426136.78, -311695.22, -32988.17, 0.043110047, 0.05161669, -302867.25, -150377.27, 0.0, 9.998211, 9.999726 
1.4550309e+3, 2.9443967e+2, -357954.6, -229125.02, -24904.057, 0.004713817, 0.007043655, -224478.39, -169983.1, 0.0, 9.998009, 9.999718 
1.4550267e+3, 3.0444002e+2, -386535.94, -218936.23, -40867.89, 0.056709338, 0.07713991, -209501.97, -209501.97, 0.0, 9.997487, 9.999704 
1.4550218e+3, 3.1443903e+2, -385306.06, -6156.0845, -32993.613, 0.06879314, -0.004870707, -3306.3997, -3306.3997, 0.0, 9.996579, 10.001604 
1.465119e+3, 1.2446399e+2, -1359530.0, -1807387.8, 18268.48, -0.13554837, 0.098476015, -1358786.0, 361473.1, 0.011928238, 10.003619, 9.997619 
1.4651158e+3, 1.3446192e+2, -1254701.9, -1592262.0, 190.09673, 0.045698255, 0.03552656, -1254701.8, 367577.28, 0.00708836, 10.003154, 9.9986515 
1.4651084e+3, 1.444608e+2, -1216156.3, -1535262.4, -12802.3545, -0.19003928, 0.05959006, -1215643.5, 308646.28, 0.003053339, 10.002789, 9.99854 
1.4651045e+3, 1.5445925e+2, -1153470.3, -1458273.8, -29933.309, -0.046561837, 0.0538956, -1150558.4, 275746.2, 0.0007578694, 10.002556, 9.998508 
1.4650992e+3, 1.6445774e+2, -1090677.9, -1374417.5, -48818.254, -0.022866495, 0.050374843, -1082513.5, 245805.73, 0.00006440502, 10.002299, 9.998535 
1.4650926e+3, 1.7445631e+2, -1029769.44, -1289574.9, -36418.504, -0.09299986, 0.048642017, -1024760.94, 205571.47, 0.00000022299002, 10.002026, 9.998576 
1.4650868e+3, 1.8445481e+2, -981367.6, -1224934.0, -38297.723, -0.09875158, 0.046264883, -975487.75, 156859.22, 0.0, 10.001724, 9.998493 
1.4650814e+3, 1.9445322e+2, -929593.0, -1146487.3, -43714.16, -0.043431964, 0.03522897, -921114.06, 113249.05, 0.0, 10.001395, 9.998517 
1.4650758e+3, 2.0445187e+2, -872505.8, -1056667.6, -43405.066, -0.021680873, 0.043131724, -862788.44, 73588.516, 0.0, 10.001063, 9.998622 
1.46507e+3, 2.144508e+2, -821243.0, -976960.75, -42706.574, -0.03505323, 0.0691401, -810299.56, 28088.064, 0.0, 10.000724, 9.998659 
1.4650641e+3, 2.2444959e+2, -776507.8, -903262.06, -36963.42, -0.03663966, 0.082006544, -766516.3, -26116.404, 0.0, 10.000352, 9.9986725 
1.4650588e+3, 2.3444818e+2, -736503.9, -829295.7, -36397.035, -0.026002195, 0.069544755, -723930.94, -81516.62, 0.0, 9.999937, 9.998707 
1.4650533e+3, 2.4444704e+2, -658468.1, -680942.4, -26452.172, -0.025849374, 0.059291966, -640965.2, -96539.875, 0.0, 9.999541, 9.999243 
1.4650479e+3, 2.544462e+2, -611162.4, -600129.5, -32622.51, -0.038061205, 0.04555557, -572560.3, -126128.46, 0.0, 9.999162, 9.999308 
1.4650428e+3, 2.644455e+2, -573616.4, -542239.0, -19401.65, -0.02011061, 0.0508675, -532976.56, -184538.25, 0.0, 9.9987955, 9.9992075 
1.4650385e+3, 2.7444497e+2, -523570.4, -463516.53, -19282.928, 0.033385295, 0.072273985, -457858.06, -207413.58, 0.0, 9.998448, 9.999242 
1.4650337e+3, 2.8444436e+2, -440051.34, -294637.78, -9761.483, 0.047826447, 0.053377572, -293985.44, -141535.2, 0.0, 9.998013, 9.999939 
1.4650288e+3, 2.9444367e+2, -419716.94, -232904.95, -4790.2793, 0.021318512, -0.01940296, -232782.2, -178327.22, 0.0, 9.997475, 9.9999485 
1.4650242e+3, 3.044444e+2, -425078.56, -229593.1, -20442.158, 0.0675129, 0.07327497, -227478.31, -227478.31, 0.0, 9.997189, 9.999774 
1.4650187e+3, 3.144435e+2, -312166.16, -2733.5798, -12108.456, 0.06196926, -0.004797646, -2260.485, -2260.485, 0.0, 9.997218, 10.001318 
1.4751226e+3, 1.24468e+2, -1329520.0, -1744195.0, -2041.7448, -0.14441729, 0.054105207, -1329509.9, 390709.6, 0.012561358, 10.003619, 9.998054 
1.4751188e+3, 1.3446678e+2, -1224292.6, -1529619.6, -17626.906, 0.045596432, 0.031993058, -1223278.4, 398951.2, 0.007494739, 10.003158, 9.9990835 
1.4751112e+3, 1.4446591e+2, -1240252.8, -1587672.6, -23004.377, -0.18591978, 0.0761739, -1238736.1, 285501.8, 0.0032514154, 10.002797, 9.998177 
1.4751068e+3, 1.5446392e+2, -1181160.8, -1516468.1, -38676.848, -0.06739268, 0.06389191, -1176757.3, 249502.19, 0.0008173103, 10.002558, 9.998108 
1.4751013e+3, 1.6446213e+2, -1070597.6, -1334010.1, -60475.11, -0.044573676, 0.043849573, -1057377.1, 270899.6, 0.000071419374, 10.002304, 9.998811 
1.4750947e+3, 1.7446071e+2, -1007072.1, -1243768.6, -47283.83, -0.08723589, 0.010218232, -997976.0, 232311.83, 0.0000002932695, 10.002029, 9.998889 
1.4750886e+3, 1.8445943e+2, -990633.2, -1244803.9, -51486.016, -0.08679059, 0.019210508, -980600.0, 151699.94, 0.0, 10.001726, 9.998357 
1.4750828e+3, 1.9445834e+2, -940429.7, -1170164.3, -56400.184, -0.048975542, 0.07258646, -927330.3, 106982.81, 0.0, 10.001398, 9.998354 
1.4750768e+3, 2.044569e+2, -872528.6, -1057023.8, -56810.535, -0.031598218, 0.08271365, -856438.56, 79889.43, 0.0, 10.001063, 9.99862 
1.4750707e+3, 2.144551e+2, -820541.1, -976266.94, -55443.363, -0.03348752, 0.033919502, -802818.5, 35526.125, 0.0, 10.000726, 9.998664 
1.4750646e+3, 2.2445367e+2, -775023.06, -900079.8, -52854.836, -0.033082586, 0.025104977, -755677.0, -15318.654, 0.0, 10.000351, 9.998695 
1.4750586e+3, 2.3445274e+2, -734922.06, -826239.56, -51667.37, -0.032432035, 0.05758433, -711629.8, -69261.5, 0.0, 9.999937, 9.998729 
1.4750528e+3, 2.4445173e+2, -668813.56, -701971.1, -40618.543, -0.021941816, 0.06724723, -641520.7, -97142.29, 0.0, 9.999539, 9.9991 
1.4750473e+3, 2.5445065e+2, -622271.4, -622586.94, -45987.773, 0.0026410248, 0.04289771, -576441.06, -130052.91, 0.0, 9.999159, 9.999155 
1.4750421e+3, 2.6444986e+2, -571458.94, -538137.0, -31482.059, 0.015978832, 0.0462358, -519179.03, -170783.22, 0.0, 9.9987955, 9.999237 
1.4750367e+3, 2.7444947e+2, -521129.47, -458367.16, -30558.56, 0.012011207, 0.07474883, -445946.44, -195545.73, 0.0, 9.998446, 9.99928 
1.4750317e+3, 2.844489e+2, -427633.66, -268082.94, -28648.021, 0.016863845, 0.051464878, -263095.0, -110689.45, 0.0, 9.99801, 10.000123 
1.4750265e+3, 2.9444826e+2, -407345.8, -206219.34, -23406.672, 0.04125272, -0.03503247, -203531.25, -149121.94, 0.0, 9.997471, 10.0001335 
1.4750215e+3, 3.0444932e+2, -412908.1, -205150.38, -19143.963, 0.08459814, 0.07049568, -203401.06, -203401.06, 0.0, 9.9971895, 9.999943 
1.4750154e+3, 3.1444895e+2, -330723.94, -42625.13, -12083.082, 0.024175119, 0.029416325, -42119.242, -42119.242, 0.0, 9.997222, 10.001044 
1.4851262e+3, 1.2447292e+2, -1325731.1, -1744738.6, 35258.64, -0.14107849, 0.031545106, -1322785.0, 397384.7, 0.013226135, 10.00366, 9.99803 
1.4851221e+3, 1.344717e+2, -1200999.1, -1525478.1, -14698.221, 0.039905652, 0.013514952, -1200334.6, 421845.5, 0.007923147, 10.00335, 9.99902 
1.4851141e+3, 1.444708e+2, -1203971.4, -1575668.0, -22806.814, -0.18935047, 0.06177795, -1202577.3, 321611.78, 0.0034621803, 10.003073, 9.998126 
1.4851093e+3, 1.544688e+2, -1142209.4, -1501845.1, -12199.377, -0.07855924, 0.055810858, -1141796.0, 284414.38, 0.00088177144, 10.002846, 9.998069 
1.4851035e+3, 1.6446705e+2, -1049227.5, -1327372.6, -36683.207, -0.052617572, 0.04002548, -1044470.8, 283756.88, 0.00007901186, 10.002469, 9.9987755 
1.4850968e+3, 1.744656e+2, -1025899.56, -1257156.8, -50875.27, -0.08050757, 0.007628937, -1015202.2, 215037.33, 0.00000037325287, 10.00192, 9.99885 
1.4850904e+3, 1.8446428e+2, -1014405.06, -1254038.8, -56829.758, -0.077893585, 0.0154190045, -1001610.8, 130641.055, 0.0, 10.001554, 9.998376 
1.4850841e+3, 1.944632e+2, -936660.94, -1165409.6, -48410.086, -0.054432493, 0.06641166, -926837.75, 107427.01, 0.0, 10.001414, 9.998378 
1.4850777e+3, 2.0446175e+2, -862956.9, -1054060.5, -47604.7, -0.04120945, 0.07495162, -851754.94, 84524.64, 0.0, 10.001138, 9.998604 
1.4850715e+3, 2.144599e+2, -827185.9, -981518.5, -49297.62, -0.03507258, 0.02376099, -812783.1, 25513.654, 0.0, 10.000691, 9.998644 
1.4850649e+3, 2.2445849e+2, -784375.44, -900417.25, -47281.58, -0.031698413, 0.01485212, -767550.0, -27239.639, 0.0, 10.00027, 9.998732 
1.4850585e+3, 2.3445763e+2, -741746.9, -825574.94, -45784.82, -0.03492289, 0.05058324, -721588.06, -79268.695, 0.0, 9.999874, 9.998763 
1.4850524e+3, 2.4445659e+2, -689105.3, -726105.4, -33773.375, -0.022228587, 0.06210879, -669097.06, -124767.14, 0.0, 9.999463, 9.99897 
1.4850466e+3, 2.5445536e+2, -651090.06, -652199.9, -39759.934, 0.012323391, 0.037083168, -611881.1, -165539.19, 0.0, 9.99903, 9.999013 
1.485041e+3, 2.644546e+2, -582257.56, -519798.16, -16964.566, 0.027363116, 0.038735908, -515487.88, -167138.38, 0.0, 9.998621, 9.999446 
1.4850351e+3, 2.7445436e+2, -534750.1, -439227.1, -2315.2742, 0.013866596, 0.06328799, -439171.0, -188819.58, 0.0, 9.998244, 9.999508 
1.4850295e+3, 2.844539e+2, -457712.1, -295652.88, -6577.6772, 0.013198829, 0.04244865, -295386.34, -143031.02, 0.0, 9.997861, 10.000004 
1.485024e+3, 2.944532e+2, -417663.66, -227092.25, -28114.65, 0.038003445, -0.032677464, -223031.1, -168670.47, 0.0, 9.997469, 9.99999 
1.4850186e+3, 3.044543e+2, -404794.8, -159677.64, -19058.068, 0.078907, 0.0635874, -158204.7, -158204.7, 0.0, 9.997068, 10.000313 
1.4850126e+3, 3.144545e+2, -411672.66, -78015.91, 2946.2644, 0.03377905, 0.04109118, -77989.89, -77989.89, 0.0, 9.996654, 10.001074 
1.49513e+3, 1.24478795e+2, -1359425.5, -1816247.3, 18801.87, -0.12814848, 0.030298525, -1358652.9, 361456.22, 0.013929094, 10.003665, 9.997537 
1.4951253e+3, 1.3447672e+2, -1240129.3, -1606503.4, -26467.965, 0.029105084, -0.018473271, -1238227.0, 383903.4, 0.008377203, 10.003352, 9.998458 
1.4951171e+3, 1.4447553e+2, -1184774.1, -1537326.6, -33137.906, -0.19982767, 0.020070098, -1181686.4, 342455.94, 0.0036866344, 10.003078, 9.998387 
1.4951122e+3, 1.5447405e+2, -1119895.4, -1456003.1, -21252.582, -0.083087355, 0.030387312, -1118556.9, 307600.0, 0.00095130136, 10.002848, 9.9983835 
1.4951059e+3, 1.6447252e+2, -1073341.5, -1378270.5, -57651.83, -0.051438894, 0.038856953, -1062805.5, 265366.4, 0.00008722728, 10.002472, 9.9984255 
1.4950988e+3, 1.7447099e+2, -1052509.0, -1313972.0, -71819.36, -0.073695324, 0.039469074, -1034080.4, 196106.67, 0.0000004647829, 10.001925, 9.998458 
1.4950919e+3, 1.8446943e+2, -1002045.56, -1229647.8, -63697.367, -0.07323982, 0.034750834, -985431.75, 146770.63, 0.0, 10.001558, 9.998542 
1.4950855e+3, 1.9446784e+2, -922158.9, -1136294.8, -53831.504, -0.06111241, 0.017172828, -909387.9, 124829.78, 0.0, 10.001416, 9.998577 
1.4950788e+3, 2.0446645e+2, -865844.3, -1059761.9, -64427.668, -0.051887613, 0.01984313, -846390.4, 89841.266, 0.0, 10.001136, 9.998567 
1.495072e+3, 2.1446525e+2, -830180.5, -988531.44, -66218.586, -0.04049821, 0.03879771, -806139.44, 32104.521, 0.0, 10.000693, 9.998595 
1.4950652e+3, 2.2446403e+2, -781184.8, -893876.8, -62628.844, -0.033927508, 0.05039474, -753285.7, -13029.671, 0.0, 10.00027, 9.998777 
1.4950584e+3, 2.3446283e+2, -738134.7, -818025.0, -60315.74, -0.03505284, 0.047783557, -705736.2, -63468.805, 0.0, 9.999873, 9.998816 
1.4950518e+3, 2.4446161e+2, -698702.06, -745740.06, -49577.9, -0.027792953, 0.0430181, -667347.5, -123067.72, 0.0, 9.999461, 9.998837 
1.4950454e+3, 2.5446033e+2, -661494.94, -673648.1, -54832.39, -0.009291393, 0.02883814, -612403.44, -166110.36, 0.0, 9.999028, 9.998867 
1.4950393e+3, 2.6445967e+2, -555051.44, -462763.38, -30559.867, 0.012927872, 0.029014017, -453561.44, -105262.11, 0.0, 9.998618, 9.99984 
1.4950337e+3, 2.744597e+2, -505405.13, -377800.7, -15104.175, 0.037406143, 0.03753866, -376037.22, -125740.49, 0.0, 9.998241, 9.999931 
1.4950275e+3, 2.8445932e+2, -487748.7, -358665.5, -20013.61, 0.03568574, 0.025381548, -355633.72, -203333.94, 0.0, 9.997862, 9.999572 
1.4950211e+3, 2.9445857e+2, -452277.1, -298731.1, -40925.945, 0.007884101, -0.011587959, -288503.94, -234194.98, 0.0, 9.997466, 9.999501 
1.4950153e+3, 3.0445933e+2, -364773.84, -75492.67, -33631.434, 0.045983534, 0.053178094, -71634.19, -71634.19, 0.0, 9.997063, 10.000894 
1.4950098e+3, 3.144603e+2, -387772.2, -28268.256, -11731.565, 0.088463075, 0.04267351, -27885.83, -27885.83, 0.0, 9.996654, 10.001415 
1.5051337e+3, 1.2448447e+2, -1336591.9, -1824027.1, 9213.164, -0.13835344, 0.010035638, -1336417.8, 383634.25, 0.01468031, 10.003907, 9.997367 
1.5051289e+3, 1.3448241e+2, -1192836.9, -1609782.5, -8728.337, 0.028482035, -0.014416693, -1192654.3, 429419.97, 0.008862826, 10.003796, 9.998221 
1.5051204e+3, 1.4448111e+2, -1134346.8, -1500558.9, -17667.92, -0.19115089, 0.020196434, -1133496.4, 390590.88, 0.003927449, 10.003375, 9.998497 
1.5051149e+3, 1.5447949e+2, -1146231.3, -1453925.3, -21066.348, -0.08173975, 0.005298683, -1144795.6, 281305.97, 0.0010266973, 10.002603, 9.998516 
1.5051083e+3, 1.6447793e+2, -1128932.5, -1429272.8, -50762.023, -0.05301514, 0.013149907, -1120585.0, 207532.06, 0.00009630864, 10.002193, 9.99821 
1.5051009e+3, 1.7447647e+2, -1024872.4, -1326689.5, -53435.21, -0.07445293, 0.042225108, -1015691.2, 214442.1, 0.000000575819, 10.002229, 9.998223 
1.5050936e+3, 1.8447487e+2, -942896.5, -1187559.0, -47569.58, -0.07337137, 0.040520433, -933973.06, 198176.25, 0.0, 10.001907, 9.998661 
1.5050867e+3, 1.9447315e+2, -951106.25, -1135051.8, -43641.953, -0.06158946, -0.004803275, -941277.2, 92887.46, 0.0, 10.001153, 9.998713 
1.5050797e+3, 2.0447174e+2, -927589.3, -1091512.6, -48218.105, -0.05198178, -0.0070214733, -914457.9, 21720.184, 0.0, 10.000721, 9.998548 
1.5050726e+3, 2.1447074e+2, -834271.8, -993518.5, -48702.984, -0.039759852, 0.03590625, -820557.8, 17631.227, 0.0, 10.000679, 9.998568 
1.5050656e+3, 2.2446959e+2, -765352.1, -886751.7, -55580.39, -0.031786222, 0.05410958, -743749.8, -3548.8318, 0.0, 10.000381, 9.998771 
1.5050583e+3, 2.3446824e+2, -754214.06, -826386.6, -59235.71, -0.030481387, 0.03633408, -720938.3, -78724.51, 0.0, 9.999767, 9.998808 
1.5050511e+3, 2.4446699e+2, -712861.3, -740713.7, -36383.38, -0.026219703, 0.026123228, -687829.94, -143603.83, 0.0, 9.999314, 9.998941 
1.5050443e+3, 2.544659e+2, -649730.06, -655603.9, -23660.738, -0.019003866, 0.017141016, -628824.7, -182587.05, 0.0, 9.999058, 9.998977 
1.5050378e+3, 2.6446527e+2, -550598.44, -459251.16, -8011.614, 0.001283104, 0.01745267, -458553.8, -110310.68, 0.0, 9.998645, 9.99985 
1.5050317e+3, 2.7446523e+2, -534821.0, -391358.8, -24846.412, 0.03717832, 0.02060671, -387177.5, -136936.31, 0.0, 9.998038, 9.999935 
1.5050253e+3, 2.84465e+2, -526545.56, -372494.4, -23640.25, 0.04271838, 0.017129587, -368948.28, -216704.97, 0.0, 9.997577, 9.999615 
1.5050186e+3, 2.944645e+2, -473491.56, -303464.78, -5738.7646, 0.014412281, 0.0049955687, -303271.3, -249021.53, 0.0, 9.997298, 9.999549 
1.5050124e+3, 3.0446488e+2, -377556.75, -73937.984, 1745.2783, 0.041686114, 0.022388436, -73927.95, -73927.95, 0.0, 9.996942, 10.000963 
1.5050064e+3, 3.1446606e+2, -419330.03, -50125.855, -20527.348, 0.09115616, 0.02963633, -48988.063, -48988.063, 0.0, 9.996465, 10.001357 
1.5151373e+3, 1.2449011e+2, -1325044.9, -1800312.4, -1540.3296, -0.16771087, -0.018472841, -1325039.9, 394956.78, 0.015483925, 10.003912, 9.997528 
1.5151328e+3, 1.344888e+2, -1187346.5, -1597011.8, -13185.818, 0.034321584, 0.023576358, -1186922.6, 435088.75, 0.009381972, 10.003791, 9.998312 
1.515124e+3, 1.4448754e+2, -1138182.1, -1509026.5, -46299.137, -0.16823907, 0.060563844, -1132489.3, 391534.34, 0.004185921, 10.003377, 9.998438 
1.5151176e+3, 1.5448523e+2, -1149565.4, -1463047.6, -50373.348, -0.07516525, -0.01904761, -1141669.8, 284374.4, 0.0011086835, 10.002611, 9.99845 
1.5151104e+3, 1.6448335e+2, -1132820.4, -1440073.1, -52073.703, -0.05809593, -0.034671247, -1124234.8, 203827.72, 0.000106542946, 10.002204, 9.998131 
1.515103e+3, 1.7448202e+2, -1030182.0, -1338202.1, -52249.4, -0.08446679, 0.016123692, -1021560.25, 208517.63, 0.0000007145684, 10.00223, 9.998144 
1.5150955e+3, 1.844806e+2, -938785.25, -1178916.1, -74849.1, -0.0807038, 0.03211257, -917365.4, 214727.0, 0.0, 10.001905, 9.998722 
1.5150881e+3, 1.9447906e+2, -945366.0, -1125042.5, -72178.695, -0.056747176, 0.00016829952, -919962.44, 114142.96, 0.0, 10.00116, 9.998778 
1.5150806e+3, 2.0447767e+2, -927168.4, -1092048.3, -51694.34, -0.042636346, -0.0057134745, -912301.3, 23817.336, 0.0, 10.000726, 9.998543 
1.5150733e+3, 2.1447644e+2, -835380.3, -995508.06, -50222.785, -0.034870736, 0.014621806, -820932.0, 17199.84, 0.0, 10.000677, 9.998555 
1.5150659e+3, 2.2447516e+2, -770967.0, -897038.9, -77828.22, -0.027230099, 0.025253974, -733849.25, 6295.959, 0.0, 10.000375, 9.998704 
1.515058e+3, 2.3447382e+2, -759153.06, -836812.8, -81856.88, -0.021658244, 0.017171577, -707383.2, -65224.69, 0.0, 9.999767, 9.998737 
1.5150505e+3, 2.4447276e+2, -689318.9, -691954.75, -46366.79, -0.01880118, 0.011611762, -644251.3, -100082.41, 0.0, 9.999314, 9.999277 
1.5150435e+3, 2.5447202e+2, -624971.94, -603650.1, -32396.443, -0.01860479, 0.0015879456, -580205.56, -134029.97, 0.0, 9.999054, 9.999335 
1.5150364e+3, 2.6447144e+2, -577311.56, -514108.13, -29065.855, -0.008942337, 0.0034400679, -502773.94, -154592.9, 0.0, 9.998641, 9.9994755 
1.5150295e+3, 2.7447104e+2, -564654.7, -452983.25, -45850.484, 0.011285065, 0.013195204, -436570.13, -186385.33, 0.0, 9.998036, 9.999514 
1.5150228e+3, 2.8447092e+2, -489825.88, -296435.47, -34028.242, 0.031796042, 0.018699722, -290622.72, -138436.8, 0.0, 9.997576, 10.000137 
1.5150163e+3, 2.9447109e+2, -432960.5, -219977.31, -14616.3, 0.05648692, 0.016218852, -218978.94, -164795.66, 0.0, 9.9973, 10.000122 
1.5150096e+3, 3.044709e+2, -407883.72, -137919.75, -13993.201, 0.064676255, -0.03182401, -137196.36, -137196.36, 0.0, 9.996944, 10.000524 
1.5150023e+3, 3.1447184e+2, -449209.38, -111543.44, -34671.367, 0.03446524, -0.001462469, -108020.16, -108020.16, 0.0, 9.99646, 10.000938 
1.5251414e+3, 1.2449651e+2, -1267973.6, -1755900.9, 8300.645, -0.16128278, -0.00896489, -1267832.4, 452101.38, 0.016336897, 10.004244, 9.997673 
1.5251365e+3, 1.3449505e+2, -1221741.3, -1605818.8, -290.53433, 0.03443341, 0.009704274, -1221741.0, 400207.88, 0.009932336, 10.003521, 9.998382 
1.5251271e+3, 1.4449368e+2, -1180878.4, -1543953.6, -33668.04, -0.16818063, 0.03766015, -1177782.8, 346179.47, 0.0044607725, 10.003144, 9.998311 
1.5251204e+3, 1.5449148e+2, -1075184.0, -1441618.0, -42804.4, -0.07511703, -0.015188804, -1070250.4, 355732.0, 0.0011970749, 10.003185, 9.998321 
1.525113e+3, 1.6448961e+2, -1039954.0, -1383443.6, -43511.527, -0.055187747, -0.029542014, -1034527.9, 293472.84, 0.000118069845, 10.002793, 9.998235 
1.5251051e+3, 1.744881e+2, -1072950.0, -1346236.9, -30760.71, -0.07726576, -0.008351607, -1069530.4, 160486.58, 0.0000008766353, 10.001883, 9.998257 
1.5250973e+3, 1.8448664e+2, -1013544.44, -1224114.6, -46058.027, -0.0745044, 0.0038832894, -1003910.94, 128120.58, 0.0, 10.001431, 9.99864 
1.5250893e+3, 1.9448532e+2, -895886.06, -1111485.5, -55182.203, -0.057891205, 0.0008294405, -882583.06, 151460.34, 0.0, 10.001545, 9.998686 
1.5250815e+3, 2.0448394e+2, -857065.06, -1052907.0, -45685.445, -0.046015833, 0.00091278285, -846932.0, 89124.57, 0.0, 10.001186, 9.998589 
1.5250738e+3, 2.1448256e+2, -893891.75, -1017962.4, -40720.55, -0.034642953, -0.00080466364, -881720.94, -43650.023, 0.0, 10.000252, 9.998606 
1.5250659e+3, 2.2448124e+2, -864460.94, -934165.44, -55398.81, -0.026661372, 0.0005936556, -833863.2, -93778.8, 0.0, 9.999701, 9.998775 
1.5250577e+3, 2.3448004e+2, -776091.94, -837142.2, -49708.75, -0.025873058, -0.0019134235, -748284.0, -106187.47, 0.0, 9.999619, 9.998807 
1.5250498e+3, 2.4447912e+2, -688942.2, -684576.6, -22186.482, -0.020350162, 0.0018695386, -664465.8, -120360.31, 0.0, 9.999287, 9.999341 
1.5250424e+3, 2.544786e+2, -679977.9, -623094.94, -31125.469, -0.007617759, 0.0068121566, -609373.5, -163263.31, 0.0, 9.998648, 9.999397 
1.5250349e+3, 2.6447797e+2, -642496.8, -548824.44, -25524.371, 0.000069806636, 0.0044144597, -542320.94, -194204.97, 0.0, 9.998209, 9.999445 
1.5250275e+3, 2.7447727e+2, -571260.56, -460001.63, -14827.479, -0.00022091778, -0.0145905195, -458059.47, -207936.52, 0.0, 9.998009, 9.999478 
1.5250203e+3, 2.844772e+2, -474896.34, -275055.63, -2899.6072, 0.018734965, -0.005280164, -275013.56, -122890.25, 0.0, 9.997619, 10.000264 
1.5250136e+3, 2.9447797e+2, -466824.7, -220688.77, -17057.691, 0.064538255, 0.03482735, -219512.25, -165397.19, 0.0, 9.997002, 10.00026 
1.5250063e+3, 3.0447742e+2, -458957.56, -178284.66, -15118.578, 0.067461, -0.047500372, -177472.64, -177472.64, 0.0, 9.996665, 10.0003805 
1.5249988e+3, 3.1447828e+2, -415232.47, -87388.305, -8388.581, 0.027255548, -0.009998015, -87173.805, -87173.805, 0.0, 9.996663, 10.001005 
1.5351461e+3, 1.2450373e+2, -1260972.8, -1739601.1, -26126.4, -0.11947476, 0.039338715, -1259550.9, 460312.03, 0.017233802, 10.004239, 9.997787 
1.5351398e+3, 1.3450122e+2, -1218413.5, -1600444.6, -27629.746, 0.028117096, -0.052890304, -1216425.6, 405461.0, 0.010511179, 10.003529, 9.998416 
1.5351301e+3, 1.4449957e+2, -1191822.9, -1569661.4, -34858.465, -0.19052795, -0.044092175, -1188633.8, 335268.78, 0.004750103, 10.003157, 9.99813 
1.5351236e+3, 1.5449832e+2, -1088364.4, -1468366.4, -41380.133, -0.08334957, 0.015051207, -1083910.5, 342005.4, 0.0012910665, 10.003182, 9.998138 
1.5351158e+3, 1.6449672e+2, -1021427.56, -1345113.6, -76462.75, -0.0475312, 0.026209548, -1004274.2, 323657.47, 0.00013084838, 10.002792, 9.9985 
1.5351072e+3, 1.7449471e+2, -1051377.1, -1304190.0, -65155.504, -0.054170586, -0.030459648, -1035573.06, 194377.23, 0.0000010420176, 10.001893, 9.998542 
1.5350989e+3, 1.8449308e+2, -1027756.94, -1256139.1, -44390.555, -0.05616153, -0.04211446, -1019432.2, 112534.08, 0.0, 10.001442, 9.998416 
1.5350908e+3, 1.9449191e+2, -913864.06, -1148544.4, -50951.78, -0.06672023, -0.003839157, -903279.25, 130699.31, 0.0, 10.001543, 9.998433 
1.5350825e+3, 2.044906e+2, -851406.9, -1040266.7, -79292.05, -0.06388554, 0.010894754, -822531.3, 113460.48, 0.0, 10.001181, 9.998678 
1.5350741e+3, 2.1448912e+2, -885900.7, -1002316.3, -75629.984, -0.039555043, -0.009740949, -848672.44, -10666.413, 0.0, 10.000255, 9.998713 
1.5350656e+3, 2.2448786e+2, -849902.2, -905173.9, -60261.59, -0.030980758, -0.018953538, -811241.75, -71223.445, 0.0, 9.999704, 9.998972 
1.5350571e+3, 2.3448685e+2, -761946.5, -807931.75, -52252.84, -0.04399178, -0.021306934, -727851.3, -85823.336, 0.0, 9.999618, 9.999008 
1.535049e+3, 2.4448608e+2, -703788.6, -714938.25, -44901.813, -0.031714533, -0.003857535, -664116.9, -120080.97, 0.0, 9.999284, 9.999134 
1.5350413e+3, 2.5448564e+2, -696696.75, -657911.56, -53998.992, 0.012377972, 0.033202928, -619928.5, -173887.16, 0.0, 9.998648, 9.999159 
1.5350334e+3, 2.644849e+2, -619924.7, -502585.34, -32850.043, 0.025668908, 0.01988367, -494014.75, -145966.81, 0.0, 9.998211, 9.999763 
1.5350255e+3, 2.7448392e+2, -546712.8, -409518.6, -20846.277, 0.0008918936, -0.06492674, -406421.0, -156365.11, 0.0, 9.99801, 9.9998255 
1.5350176e+3, 2.8448388e+2, -494463.75, -315617.06, -23864.367, 0.0022385682, -0.05642993, -312487.47, -160431.78, 0.0, 9.997618, 9.999987 
1.5350102e+3, 2.9448515e+2, -489040.78, -266626.34, -38284.41, 0.03581711, 0.0633712, -260220.89, -206175.83, 0.0, 9.997001, 9.999948 
1.5350027e+3, 3.0448446e+2, -447196.8, -154395.4, -15187.449, 0.04756888, -0.022716098, -153609.75, -153609.75, 0.0, 9.996665, 10.000545 
1.5349957e+3, 3.1448513e+2, -374187.3, -2564.6777, -2004.1978, 0.0629284, -0.020921113, -2553.8694, -2553.8694, 0.0, 9.996662, 10.001589 
1.5451503e+3, 1.2451057e+2, -1311786.6, -1762407.1, -14325.113, -0.111624576, 0.013869861, -1311331.6, 408463.13, 0.018172214, 10.00388, 9.997805 
1.5451437e+3, 1.3450815e+2, -1151684.1, -1573744.9, -15349.928, 0.025494806, -0.06448502, -1151126.6, 470690.7, 0.011118616, 10.00402, 9.998364 
1.5451336e+3, 1.4450642e+2, -1114353.1, -1532042.3, -24631.543, -0.19294496, -0.060515825, -1112905.6, 410928.53, 0.005053969, 10.003694, 9.998128 
1.5451266e+3, 1.5450521e+2, -1141748.3, -1493540.0, -18781.393, -0.078652896, 0.0012659427, -1140748.4, 285099.38, 0.0013903641, 10.002813, 9.998144 
1.5451185e+3, 1.6450372e+2, -1077151.8, -1363467.3, -51683.367, -0.039917663, 0.018777484, -1068107.9, 259754.75, 0.00014484508, 10.002373, 9.998576 
1.5451093e+3, 1.7450191e+2, -961388.5, -1251726.1, -55789.855, -0.050518014, -0.026900157, -951037.25, 278841.72, 0.000001197513, 10.002472, 9.998622 
1.5451007e+3, 1.8450026e+2, -939202.44, -1220298.9, -39272.65, -0.05395462, -0.03847875, -933818.6, 198076.16, 0.0, 10.002081, 9.998354 
1.5450922e+3, 1.944989e+2, -984105.1, -1190522.0, -33249.05, -0.06351878, -0.012654799, -978881.7, 55027.848, 0.0, 10.001097, 9.99836 
1.5450834e+3, 2.0449755e+2, -934163.06, -1070655.5, -54387.176, -0.06389038, -0.0030411296, -915142.4, 20780.992, 0.0, 10.000572, 9.998762 
1.5450744e+3, 2.1449618e+2, -826917.8, -963685.4, -52781.895, -0.04863744, -0.019936891, -808917.1, 29018.742, 0.0, 10.000616, 9.998803 
1.5450655e+3, 2.2449502e+2, -758475.4, -853703.44, -42129.465, -0.039775208, -0.026288072, -742512.75, -2565.9775, 0.0, 10.000301, 9.999038 
1.5450567e+3, 2.344941e+2, -767845.3, -803869.6, -44669.094, -0.040380858, -0.026638806, -737693.5, -95738.02, 0.0, 9.999549, 9.999069 
1.5450482e+3, 2.4449334e+2, -746584.3, -740536.5, -38275.344, -0.024486128, -0.010882242, -705165.8, -161202.14, 0.0, 9.999013, 9.999088 
1.5450399e+3, 2.5449276e+2, -686686.3, -659293.1, -35398.47, 0.010562266, 0.019522035, -635033.9, -189063.08, 0.0, 9.998744, 9.999104 
1.5450317e+3, 2.644921e+2, -597397.9, -480269.94, -12775.038, 0.023384439, 0.007110566, -478892.78, -130915.586, 0.0, 9.998317, 9.999865 
1.5450235e+3, 2.7449128e+2, -583565.4, -415289.5, -19283.543, 0.010208883, -0.06754016, -413108.0, -163125.25, 0.0, 9.997706, 9.999931 
1.5450153e+3, 2.844913e+2, -550259.1, -350506.0, -24795.21, 0.009083294, -0.056743808, -347474.22, -195491.89, 0.0, 9.997272, 9.999913 
1.5450071e+3, 2.944924e+2, -490318.53, -276181.9, -23759.896, 0.021965016, 0.05716271, -273577.28, -219603.42, 0.0, 9.997032, 9.999866 
1.5449993e+3, 3.044917e+2, -464005.1, -161983.64, 5172.745, 0.0312447, -0.025105365, -161895.08, -161895.08, 0.0, 9.996551, 10.000547 
1.5449922e+3, 3.144926e+2, -469727.4, -2782.0798, 8433.657, 0.07858689, -0.0036253144, -2629.8064, -2629.8064, 0.0, 9.995813, 10.001995 
1.5551539e+3, 1.24517195e+2, -1315090.6, -1771518.1, -18527.023, -0.13177922, -0.07388641, -1314339.9, 405388.3, 0.01915649, 10.003892, 9.997736 
1.5551478e+3, 1.3451588e+2, -1161216.6, -1592186.1, -9976.589, 0.024467595, -0.02782054, -1160985.8, 460755.03, 0.0117586665, 10.004017, 9.998239 
1.5551375e+3, 1.4451428e+2, -1103890.0, -1509817.8, -56328.215, -0.1792334, -0.0138501115, -1096218.6, 427538.1, 0.005375101, 10.003692, 9.998283 
1.5551296e+3, 1.5451221e+2, -1128742.0, -1468815.8, -52115.625, -0.063006625, -0.053641256, -1120934.6, 304842.94, 0.0014959633, 10.002822, 9.99831 
1.555121e+3, 1.6451064e+2, -1082549.3, -1377657.1, -50612.695, -0.0335556, -0.04809145, -1074110.3, 253683.08, 0.00016027692, 10.002384, 9.998474 
1.5551117e+3, 1.7450964e+2, -969948.44, -1269077.9, -52184.84, -0.06719954, 0.00020993613, -961105.94, 268697.0, 0.0000013687348, 10.002469, 9.998505 
1.5551025e+3, 1.8450822e+2, -933788.4, -1208131.4, -74835.234, -0.07004191, 0.012320918, -914702.6, 217114.39, 0.0, 10.002075, 9.998441 
1.5550934e+3, 1.9450635e+2, -976290.9, -1175879.6, -70207.84, -0.04917529, -0.024305219, -954068.6, 79767.445, 0.0, 10.0011015, 9.998458 
1.5550841e+3, 2.0450482e+2, -928514.3, -1060922.3, -54977.152, -0.047177304, -0.038634088, -908663.3, 27187.65, 0.0, 10.00058, 9.998827 
1.5550749e+3, 2.1450377e+2, -822984.25, -954981.75, -51170.195, -0.063649766, -0.031827457, -805471.2, 32389.361, 0.0, 10.000613, 9.998865 
1.5550657e+3, 2.2450276e+2, -763380.25, -862984.8, -69311.125, -0.054948546, -0.022772228, -727834.44, 12035.582, 0.0, 10.000296, 9.998977 
1.5550566e+3, 2.3450182e+2, -772781.9, -814350.44, -72389.21, -0.016301207, -0.017795337, -718252.25, -76373.12, 0.0, 9.999548, 9.998998 
1.5550473e+3, 2.445009e+2, -739278.3, -725872.75, -48662.25, -0.0009874824, -0.01909242, -683453.8, -139565.14, 0.0, 9.999014, 9.999189 
1.5550384e+3, 2.5449997e+2, -678540.7, -642798.4, -44297.9, -0.01429285, -0.034934007, -612902.56, -167004.05, 0.0, 9.998744, 9.999217 
1.5550296e+3, 2.6449946e+2, -605099.3, -496666.66, -34087.07, -0.006703457, -0.033813175, -486841.3, -138937.52, 0.0, 9.998318, 9.999753 
1.5550213e+3, 2.744994e+2, -592996.44, -435280.78, -40331.887, 0.025856314, -0.02052365, -425565.38, -175661.94, 0.0, 9.997706, 9.999796 
1.5550128e+3, 2.8449944e+2, -540712.2, -331251.47, -32998.008, 0.03601926, -0.005578948, -326176.0, -174272.9, 0.0, 9.9972725, 10.000046 
1.5550041e+3, 2.944997e+2, -480224.38, -255533.6, -31178.105, 0.018877948, 0.011574747, -251287.55, -197385.64, 0.0, 9.997032, 10.000009 
1.5549956e+3, 3.0449912e+2, -477168.84, -189070.56, -20510.4, 0.014983807, -0.058429737, -187617.7, -187617.7, 0.0, 9.996549, 10.000363 
1.5549879e+3, 3.1450045e+2, -455167.13, 26342.498, -11569.026, 0.07035253, 0.023439, 26620.303, 26620.303, 0.0, 9.995817, 10.002194 
1.5651582e+3, 1.2452508e+2, -1194655.4, -1708704.8, -4536.186, -0.1385193, -0.08375134, -1194615.4, 525035.0, 0.020197095, 10.004725, 9.9977665 
1.5651517e+3, 1.3452393e+2, -1194525.0, -1608596.3, 20410.584, 0.029666895, -0.022817152, -1193521.3, 428140.13, 0.01243821, 10.00379, 9.998234 
1.565141e+3, 1.4452219e+2, -1171446.0, -1550949.0, -30147.768, -0.17195505, -0.016750496, -1169066.0, 354612.53, 0.0057177073, 10.003263, 9.998206 
1.5651326e+3, 1.5451995e+2, -1073120.1, -1450299.8, -44491.527, -0.06930105, -0.06647841, -1067943.1, 357758.03, 0.0016096655, 10.0032425, 9.998234 
1.5651233e+3, 1.6451831e+2, -1014040.25, -1347574.4, -46497.793, -0.04382055, -0.06163887, -1007679.3, 320038.3, 0.00017757353, 10.00287, 9.9984455 
1.565114e+3, 1.7451741e+2, -1029942.7, -1301143.9, -42226.3, -0.07068656, -0.00059586915, -1023520.06, 206206.6, 0.0000016137079, 10.002072, 9.998476 
1.5651044e+3, 1.8451606e+2, -1001661.7, -1233400.1, -68275.766, -0.07047008, 0.015172083, -983042.06, 148698.23, 0.0, 10.001578, 9.998507 
1.5650946e+3, 1.9451416e+2, -919657.9, -1140853.8, -67253.41, -0.051490877, -0.028657585, -900815.0, 132943.97, 0.0, 10.001458, 9.998527 
1.5650849e+3, 2.0451266e+2, -856247.8, -1022432.44, -47361.3, -0.049220033, -0.04630848, -843697.94, 92075.51, 0.0, 10.001061, 9.998858 
1.5650754e+3, 2.1451165e+2, -862476.94, -971058.56, -45799.25, -0.06312054, -0.038118508, -845739.1, -7956.5024, 0.0, 10.00033, 9.998891 
1.5650658e+3, 2.2451067e+2, -831133.4, -889979.0, -66743.48, -0.05278574, -0.029381983, -787615.2, -47823.402, 0.0, 9.999808, 9.999025 
1.565056e+3, 2.3450977e+2, -770029.06, -808053.44, -63383.953, -0.014823722, -0.026528556, -722867.3, -81066.695, 0.0, 9.999547, 9.999042 
1.5650465e+3, 2.4450883e+2, -713499.9, -708056.7, -32849.434, -0.00019545824, -0.03086307, -677816.3, -134006.34, 0.0, 9.999168, 9.999237 
1.565037e+3, 2.5450793e+2, -688588.4, -642042.4, -33771.266, -0.0133083975, -0.050780885, -624301.56, -178482.0, 0.0, 9.998652, 9.999266 
1.5650278e+3, 2.6450747e+2, -636780.2, -515106.6, -30436.037, -0.0073188194, -0.04289958, -507917.9, -160093.66, 0.0, 9.9981165, 9.9997225 
1.5650187e+3, 2.7450758e+2, -619719.94, -452523.53, -31145.176, 0.021074325, -0.011209636, -446910.28, -197087.22, 0.0, 9.997544, 9.999755 
1.56501e+3, 2.8450757e+2, -566404.8, -331932.53, -10885.526, 0.032294665, -0.0029945844, -331428.25, -179604.98, 0.0, 9.997046, 10.00015 
1.565001e+3, 2.9450762e+2, -529664.9, -266441.34, -12258.956, 0.022351027, -0.01743371, -265871.66, -212047.95, 0.0, 9.996639, 10.000122 
1.5649919e+3, 3.0450743e+2, -529129.7, -218744.34, -5696.004, 0.016994959, -0.053801868, -218639.84, -218639.84, 0.0, 9.996212, 10.000321 
1.5649836e+3, 3.1450856e+2, -448784.7, 47218.45, 17373.988, 0.05050703, 0.014049472, 47826.28, 47826.28, 0.0, 9.995783, 10.002356 
1.575163e+3, 1.2453423e+2, -1187701.4, -1692449.9, -50227.477, -0.13167709, -0.01828246, -1182751.8, 536809.56, 0.021305379, 10.004721, 9.997884 
1.5751556e+3, 1.3453229e+2, -1186340.0, -1594265.6, -15064.999, 0.039446767, -0.047053594, -1185784.4, 435794.47, 0.013164453, 10.003803, 9.998327 
1.5751442e+3, 1.4453019e+2, -1189644.6, -1593138.5, -33788.008, -0.17127506, -0.06558899, -1186834.8, 336764.3, 0.006085819, 10.003282, 9.997909 
1.5751354e+3, 1.545284e+2, -1094641.3, -1495854.5, -44937.582, -0.09786306, -0.03937862, -1089669.6, 335948.6, 0.0017330926, 10.003245, 9.99792 
1.575126e+3, 1.6452673e+2, -1010788.2, -1341501.9, -75418.45, -0.07279966, -0.023314765, -994401.1, 333234.16, 0.00019699702, 10.0028715, 9.998487 
1.575116e+3, 1.7452523e+2, -1024974.1, -1293195.0, -72135.875, -0.062218845, -0.027715607, -1006804.56, 222845.34, 0.0000019795527, 10.002081, 9.998527 
1.5751061e+3, 1.8452376e+2, -998075.25, -1228481.3, -74286.66, -0.05685867, -0.027636167, -976200.75, 155463.64, 0.0, 10.001588, 9.998536 
1.5750958e+3, 1.9452235e+2, -917803.8, -1137208.9, -71843.52, -0.07195725, -0.026438385, -896372.3, 137305.94, 0.0, 10.001458, 9.998552 
1.5750857e+3, 2.0452103e+2, -856362.5, -1022053.44, -74072.0, -0.07183902, -0.027368251, -828077.25, 107613.65, 0.0, 10.001057, 9.998863 
1.5750758e+3, 2.1451984e+2, -862345.4, -971056.8, -72792.84, -0.048071675, -0.038593505, -825853.2, 11848.771, 0.0, 10.00033, 9.998892 
1.5750659e+3, 2.2451876e+2, -821493.4, -870668.2, -77191.97, -0.034979984, -0.04517864, -765067.56, -25355.684, 0.0, 9.99981, 9.999158 
1.5750554e+3, 2.345179e+2, -759923.0, -787440.0, -72635.09, -0.036702923, -0.052808214, -699754.8, -58034.727, 0.0, 9.999547, 9.999184 
1.5750454e+3, 2.4451715e+2, -713713.6, -708645.3, -51288.53, -0.022382494, -0.046257127, -659828.4, -116100.67, 0.0, 9.999167, 9.999234 
1.575036e+3, 2.5451663e+2, -689883.3, -644551.6, -51830.125, 0.011378549, -0.02742677, -610648.06, -164914.03, 0.0, 9.998651, 9.999249 
1.5750262e+3, 2.6451617e+2, -633892.8, -509178.16, -50540.59, 0.018200558, -0.020541983, -491268.5, -143529.75, 0.0, 9.998115, 9.999764 
1.5750161e+3, 2.7451578e+2, -615763.5, -445372.5, -50828.434, -0.0067526223, -0.042712964, -431362.13, -181620.0, 0.0, 9.997547, 9.999804 
1.5750065e+3, 2.8451568e+2, -560954.06, -321605.2, -25054.014, -0.0036704033, -0.050652273, -319010.78, -167267.56, 0.0, 9.997049, 10.00022 
1.5749978e+3, 2.9451618e+2, -523618.9, -255655.92, -25748.402, 0.03083367, -0.027547384, -253204.2, -199464.97, 0.0, 9.996644, 10.0001955 
1.5749884e+3, 3.0451664e+2, -521103.03, -202544.42, -20765.453, 0.034918096, -0.009223457, -201196.52, -201196.52, 0.0, 9.996213, 10.000432 
1.5749788e+3, 3.1451684e+2, -441587.47, 62044.688, 7622.676, 0.008294584, -0.042202123, 62160.035, 62160.035, 0.0, 9.995782, 10.002458 
1.5851676e+3, 1.2454327e+2, -1258708.3, -1748376.8, -28035.496, -0.1149541, -0.023024334, -1257108.4, 462363.3, 0.022489166, 10.004322, 9.997686 
1.5851596e+3, 1.3454118e+2, -1102016.6, -1576367.5, -4810.3086, 0.03087323, -0.045953088, -1101967.8, 519523.75, 0.013942302, 10.004495, 9.9981165 
1.5851478e+3, 1.4453892e+2, -1063407.9, -1533252.4, -28864.809, -0.18456236, -0.07086964, -1061641.1, 461872.66, 0.0064819455, 10.004165, 9.997892 
1.5851387e+3, 1.5453717e+2, -1095251.4, -1496618.9, -19520.215, -0.09905258, -0.040001865, -1094304.3, 331227.7, 0.0018670192, 10.003246, 9.997913 
1.5851288e+3, 1.6453546e+2, -1046128.5, -1368568.0, -42134.633, -0.070181735, -0.022823641, -1040713.56, 286835.78, 0.00021839465, 10.002674, 9.998395 
1.5851185e+3, 1.7453383e+2, -967320.6, -1276061.6, -50744.902, -0.06725788, -0.031207612, -959194.06, 270371.7, 0.000002466339, 10.002525, 9.998428 
1.5851079e+3, 1.8453228e+2, -917298.4, -1187871.1, -57041.883, -0.06515314, -0.03337252, -905764.56, 225816.48, 0.0, 10.002137, 9.9985485 
1.5850973e+3, 1.945309e+2, -916282.6, -1134588.3, -55603.3, -0.07840784, -0.030843144, -902936.2, 130658.12, 0.0, 10.001462, 9.998568 
1.5850867e+3, 2.045296e+2, -880893.25, -1025694.44, -63570.457, -0.07556076, -0.03237789, -856945.25, 78661.15, 0.0, 10.0008545, 9.998936 
1.5850762e+3, 2.1452846e+2, -857031.0, -960226.8, -59059.797, -0.048855435, -0.046676986, -830204.4, 7412.5244, 0.0, 10.000332, 9.998964 
1.5850656e+3, 2.2452743e+2, -810057.3, -861813.5, -53161.582, -0.03510645, -0.05326254, -776809.9, -37183.55, 0.0, 9.999874, 9.999187 
1.585055e+3, 2.3452662e+2, -764368.06, -786055.0, -56391.105, -0.038779933, -0.057413433, -717787.4, -76153.336, 0.0, 9.999503, 9.999213 
1.5850446e+3, 2.4452594e+2, -732342.7, -711248.1, -46787.965, -0.025173342, -0.049823858, -673833.4, -130192.2, 0.0, 9.999015, 9.999289 
1.5850344e+3, 2.5452545e+2, -725381.1, -656175.0, -44274.57, 0.008319028, -0.031333547, -634585.44, -188938.38, 0.0, 9.998384, 9.999298 
1.5850241e+3, 2.645251e+2, -664252.56, -517651.97, -35530.47, 0.015473151, -0.022100188, -509494.6, -161843.5, 0.0, 9.99788, 9.999819 
1.5850137e+3, 2.7452478e+2, -614465.6, -438041.8, -36124.48, -0.0072713704, -0.039895423, -430931.53, -181278.08, 0.0, 9.997529, 9.999861 
1.5850037e+3, 2.8452462e+2, -557593.2, -319475.97, -13690.495, -0.0071586655, -0.055330086, -318691.44, -167036.5, 0.0, 9.997072, 10.000222 
1.5849942e+3, 2.9452497e+2, -548076.8, -266805.97, -21395.043, 0.018064827, -0.04947186, -265187.84, -211535.14, 0.0, 9.996476, 10.000198 
1.5849845e+3, 3.0452588e+2, -549210.1, -199793.03, -14989.669, 0.0334247, 0.0070448555, -199151.17, -199151.17, 0.0, 9.995952, 10.000577 
1.5849745e+3, 3.1452593e+2, -481463.25, 41379.066, 17434.367, 0.010238014, -0.053484805, 41959.777, 41959.777, 0.0, 9.995517, 10.002442 
1.5951723e+3, 1.2455238e+2, -1291245.9, -1819429.1, -34530.594, -0.083789155, -0.086345226, -1288998.0, 430382.13, 0.023754064, 10.004334, 9.997193 
1.5951638e+3, 1.3455066e+2, -1136975.8, -1648728.9, 2013.286, 0.0024135925, -0.021428412, -1136967.8, 484431.5, 0.014774691, 10.004495, 9.997617 
1.5951517e+3, 1.4454837e+2, -1046903.44, -1498700.3, -62351.65, -0.21420029, -0.035060775, -1038456.3, 484966.22, 0.006907254, 10.004164, 9.998132 
1.5951422e+3, 1.5454625e+2, -1075427.6, -1457339.9, -54405.805, -0.07494807, -0.067132704, -1067828.4, 357613.78, 0.002011589, 10.003253, 9.99818 
1.5951319e+3, 1.645445e+2, -1060340.9, -1400697.9, -49786.44, -0.038401134, -0.05810095, -1053207.8, 274251.75, 0.00024140984, 10.002685, 9.99817 
1.5951207e+3, 1.7454317e+2, -984672.3, -1312605.9, -56107.625, -0.08721313, -0.011805743, -975338.3, 254136.0, 0.0000030340082, 10.002527, 9.998178 
1.5951096e+3, 1.845416e+2, -917586.4, -1188350.6, -81767.42, -0.09723288, -0.0024852534, -894809.6, 236680.64, 0.0, 10.002135, 9.998547 
1.5950988e+3, 1.9453982e+2, -915270.06, -1133519.6, -80422.57, -0.071768336, -0.041752044, -888836.7, 144670.44, 0.0, 10.001465, 9.998574 
1.5950876e+3, 2.0453839e+2, -871851.06, -1008363.3, -83376.89, -0.062029213, -0.060789138, -832354.7, 103165.27, 0.0, 10.000859, 9.999053 
1.5950763e+3, 2.1453749e+2, -848343.1, -942498.94, -78540.164, -0.066939846, -0.062041752, -803852.0, 33675.63, 0.0, 10.000332, 9.999086 
1.5950653e+3, 2.2453667e+2, -814571.06, -871275.1, -67656.67, -0.054535516, -0.053461466, -769566.0, -30030.766, 0.0, 9.999873, 9.999124 
1.5950546e+3, 2.3453596e+2, -769811.25, -797131.5, -69358.3, -0.022670573, -0.04062976, -712780.7, -71238.29, 0.0, 9.9995, 9.999139 
1.5950437e+3, 2.445352e+2, -726104.0, -698233.3, -69289.34, -0.011043297, -0.0415704, -641491.9, -97941.39, 0.0, 9.999013, 9.99938 
1.5950325e+3, 2.545344e+2, -717524.3, -641024.6, -66536.766, -0.023711981, -0.063306466, -602526.9, -156967.78, 0.0, 9.998387, 9.999401 
1.5950218e+3, 2.6453418e+2, -659382.7, -508739.56, -48084.32, -0.015690386, -0.047471724, -494699.84, -147138.23, 0.0, 9.997884, 9.999879 
1.5950115e+3, 2.7453458e+2, -610536.06, -430267.66, -47555.71, 0.017136922, -0.0013708072, -418491.5, -168934.25, 0.0, 9.997529, 9.999915 
1.5950009e+3, 2.8453442e+2, -562838.44, -330369.13, -34325.0, 0.018245049, -0.016735708, -325406.84, -173847.95, 0.0, 9.997071, 10.000149 
1.5949902e+3, 2.945339e+2, -552387.56, -277565.28, -42133.17, -0.020808352, -0.087135255, -271250.9, -217685.92, 0.0, 9.996483, 10.000122 
1.59498e+3, 3.045351e+2, -537325.94, -175260.48, -30585.613, 0.008676251, -0.007020684, -172694.94, -172694.94, 0.0, 9.995951, 10.000746 
1.5949705e+3, 3.1453595e+2, -492926.38, 16822.395, 3208.1213, 0.05420591, -0.0058442233, 16842.584, 16842.584, 0.0, 9.995519, 10.002274 
1.6051768e+3, 1.2456208e+2, -1207123.4, -1778581.5, -54287.73, -0.091231816, -0.088049635, -1202011.9, 517273.2, 0.02510835, 10.004936, 9.997184 
1.6051681e+3, 1.3456036e+2, -1182699.9, -1669515.8, 28737.06, 0.0047642402, -0.024961911, -1181009.4, 440294.94, 0.015666682, 10.004174, 9.997628 
1.6051558e+3, 1.4455807e+2, -1114947.1, -1534177.0, -32147.938, -0.1996713, -0.037375435, -1112496.3, 410831.28, 0.0073642554, 10.003709, 9.998105 
1.6051458e+3, 1.5455602e+2, -1025181.94, -1435806.8, -46419.62, -0.06390641, -0.060316034, -1019999.75, 405346.94, 0.002167642, 10.003614, 9.998153 
1.6051348e+3, 1.6455422e+2, -984168.1, -1366977.8, -44298.332, -0.03422144, -0.051818732, -979108.8, 348255.53, 0.00026599172, 10.003223, 9.99814 
1.6051231e+3, 1.7455278e+2, -993800.06, -1320178.9, -35682.41, -0.09380923, -0.013710962, -989944.5, 239435.5, 0.0000036433328, 10.0024805, 9.998147 
1.6051115e+3, 1.8455122e+2, -949930.7, -1195328.0, -53624.098, -0.10618697, -0.005423469, -938724.5, 192671.3, 0.0, 10.001878, 9.998622 
1.6051002e+3, 1.9454956e+2, -912788.2, -1123497.5, -48351.98, -0.0745998, -0.039093725, -902222.5, 131188.9, 0.0, 10.001447, 9.998651 
1.6050886e+3, 2.0454818e+2, -853096.94, -1007693.56, -52477.336, -0.061209463, -0.054824006, -836966.7, 98457.36, 0.0, 10.001026, 9.998976 
1.6050768e+3, 2.1454723e+2, -811982.7, -934325.44, -62611.98, -0.06515724, -0.054103278, -785620.06, 51812.434, 0.0, 10.000624, 9.9990015 
1.6050652e+3, 2.2454633e+2, -789935.6, -858155.0, -61400.484, -0.051691245, -0.04846506, -753806.5, -14365.65, 0.0, 10.000039, 9.999132 
1.605054e+3, 2.3454553e+2, -807936.25, -814763.0, -59233.8, -0.019583864, -0.04444772, -752017.56, -110568.836, 0.0, 9.999237, 9.999145 
1.6050425e+3, 2.445448e+2, -764538.1, -705530.4, -49662.29, -0.012020169, -0.047467563, -677269.06, -133812.69, 0.0, 9.998701, 9.999479 
1.6050309e+3, 2.5454417e+2, -695830.25, -618142.0, -47072.39, -0.033559304, -0.06355191, -595956.0, -150492.94, 0.0, 9.998486, 9.99951 
1.6050197e+3, 2.64544e+2, -634928.7, -493707.47, -34129.19, -0.02522754, -0.04852066, -485891.94, -138427.17, 0.0, 9.998042, 9.999904 
1.6050088e+3, 2.7454433e+2, -639345.44, -442486.2, -37616.344, 0.01816662, -0.009871324, -435543.25, -186082.23, 0.0, 9.997326, 9.9999275 
1.604998e+3, 2.8454423e+2, -601986.2, -348212.56, -19416.213, 0.02269775, -0.02425535, -346735.63, -195273.08, 0.0, 9.996799, 10.000156 
1.6049866e+3, 2.9454383e+2, -551864.56, -275296.06, -22134.143, -0.019810546, -0.0839837, -273535.84, -220068.1, 0.0, 9.996479, 10.000138 
1.6049762e+3, 3.0454507e+2, -520886.25, -150546.1, -10632.445, 0.016446354, -0.0047303815, -150241.08, -150241.08, 0.0, 9.995993, 10.000895 
1.6049658e+3, 3.1454593e+2, -536768.44, -24003.54, 15877.668, 0.043744545, -0.01739307, -23512.361, -23512.361, 0.0, 9.995305, 10.002094 
1.6151814e+3, 1.2457239e+2, -1177509.5, -1714918.0, -95939.57, -0.13173208, -0.03532931, -1160895.8, 558290.8, 0.026565086, 10.004938, 9.997623 
1.6151726e+3, 1.3457035e+2, -1148458.8, -1599624.4, 363.8369, 0.036018465, -0.05328437, -1148458.5, 472747.56, 0.016628543, 10.004186, 9.998105 
1.6151601e+3, 1.4456809e+2, -1132793.9, -1574242.1, -37764.234, -0.14417873, -0.07370043, -1129586.6, 393641.72, 0.007859337, 10.003721, 9.997825 
1.6151492e+3, 1.5456647e+2, -1046788.8, -1481826.8, -49335.883, -0.068142354, -0.021603722, -1041263.94, 383981.4, 0.0023380287, 10.003618, 9.997835 
1.6151378e+3, 1.6456467e+2, -973098.7, -1344639.6, -71375.12, -0.059429478, -0.0057419385, -959858.94, 367404.7, 0.00029280892, 10.003224, 9.998294 
1.6151255e+3, 1.745627e+2, -981202.06, -1295188.1, -63236.035, -0.088024266, -0.03655921, -968944.94, 260337.84, 0.000004294035, 10.002483, 9.998318 
1.6151135e+3, 1.8456116e+2, -940046.8, -1175559.8, -70630.66, -0.094202146, -0.041548062, -920488.75, 210808.98, 0.0, 10.001881, 9.998757 
1.6151014e+3, 1.9456016e+2, -903543.0, -1104845.6, -64510.547, -0.088266, -0.022671355, -884643.94, 148663.53, 0.0, 10.001448, 9.998778 
1.6150895e+3, 2.0455895e+2, -871061.1, -1045387.56, -67987.195, -0.07443809, -0.014319822, -847681.6, 87637.15, 0.0, 10.001026, 9.998718 
1.6150777e+3, 2.1455762e+2, -831203.3, -974606.4, -76789.29, -0.045244426, -0.024060346, -797844.4, 39487.266, 0.0, 10.000624, 9.998725 
1.6150655e+3, 2.245564e+2, -786020.6, -850624.1, -90508.68, -0.029141894, -0.038964234, -722222.3, 17120.896, 0.0, 10.00004, 9.999185 
1.6150531e+3, 2.3455535e+2, -802649.4, -804796.56, -88635.85, -0.030234685, -0.068299375, -715080.6, -73727.43, 0.0, 9.999239, 9.999213 
1.615041e+3, 2.4455473e+2, -756631.4, -689797.0, -58167.14, -0.028488662, -0.06677326, -656131.25, -112772.23, 0.0, 9.998702, 9.999588 
1.6150294e+3, 2.5455472e+2, -688573.3, -602721.8, -53566.586, -0.023732588, -0.03174021, -577003.56, -131644.34, 0.0, 9.998483, 9.999618 
1.6150177e+3, 2.645545e+2, -636782.44, -497805.97, -58979.293, -0.016481893, -0.024961783, -476150.53, -128789.516, 0.0, 9.99804, 9.999877 
1.615006e+3, 2.74554e+2, -640363.1, -446918.6, -62694.434, -0.006700546, -0.06615598, -428376.84, -179011.6, 0.0, 9.9973345, 9.999894 
1.6149946e+3, 2.8455395e+2, -595555.06, -336383.06, -30977.902, 0.0047941, -0.078183144, -332731.84, -181365.36, 0.0, 9.996804, 10.000236 
1.6149835e+3, 2.945546e+2, -545067.6, -261549.38, -32635.559, 0.018827047, -0.03960465, -257841.22, -204479.64, 0.0, 9.996479, 10.000234 
1.6149725e+3, 3.045557e+2, -512977.75, -133887.45, -34632.223, 0.053378895, 0.013853567, -130749.555, -130749.555, 0.0, 9.995991, 10.00101 
1.6149604e+3, 3.1455594e+2, -549754.5, -52637.387, -13949.451, -0.027279824, -0.074049406, -52246.26, -52246.26, 0.0, 9.995312, 10.001895 
1.6251862e+3, 1.24583185e+2, -1191929.8, -1715306.0, -56276.063, -0.12754709, -0.027787942, -1185947.0, 533134.56, 0.028139934, 10.004818, 9.997676 
1.625177e+3, 1.3458124e+2, -1073319.9, -1554011.4, 24948.033, 0.034360588, -0.043887842, -1072028.5, 549070.8, 0.017672967, 10.004675, 9.998188 
1.625164e+3, 1.4457896e+2, -1060300.6, -1550516.0, -19588.154, -0.13807368, -0.06426884, -1059519.3, 463602.34, 0.00840063, 10.004276, 9.997719 
1.625153e+3, 1.5457717e+2, -1057145.1, -1498915.8, -17619.164, -0.07298419, -0.020452784, -1056443.6, 368697.25, 0.0025267592, 10.003602, 9.997725 
1.6251409e+3, 1.6457531e+2, -1000682.75, -1344131.6, -42184.094, -0.06478099, -0.010291491, -995577.4, 331582.22, 0.00032314175, 10.002977, 9.998415 
1.6251282e+3, 1.7457342e+2, -982387.0, -1281218.1, -38043.016, -0.082237296, -0.044551603, -977619.94, 251557.23, 0.000005034694, 10.002415, 9.9984455 
1.6251156e+3, 1.8457197e+2, -937579.2, -1180252.3, -45298.516, -0.08405434, -0.046988916, -929399.25, 201792.11, 0.0, 10.0019245, 9.998703 
1.625103e+3, 1.94571e+2, -898060.9, -1109167.5, -53590.28, -0.08168395, -0.017031597, -885235.9, 147965.2, 0.0, 10.001517, 9.998714 
1.6250904e+3, 2.045698e+2, -865404.4, -1036838.2, -55664.49, -0.071916625, -0.0073237084, -848916.0, 86296.61, 0.0, 10.001041, 9.998768 
1.6250782e+3, 2.145684e+2, -848488.8, -976885.44, -41836.613, -0.048527237, -0.028398706, -836059.94, 1165.858, 0.0, 10.000481, 9.998777 
1.6250654e+3, 2.2456717e+2, -796874.6, -862331.6, -50913.55, -0.033765092, -0.044626348, -769077.56, -29839.994, 0.0, 9.999994, 9.999126 
1.6250525e+3, 2.3456615e+2, -754368.44, -788135.8, -58895.438, -0.030983506, -0.063149974, -709984.44, -68736.97, 0.0, 9.999601, 9.999151 
1.6250399e+3, 2.4456553e+2, -708342.2, -661819.8, -33080.867, -0.026107026, -0.06061827, -644640.56, -101387.375, 0.0, 9.999017, 9.999626 
1.6250278e+3, 2.5456548e+2, -726044.56, -616374.25, -34965.152, -0.019359548, -0.03502318, -606175.1, -160921.8, 0.0, 9.998208, 9.999655 
1.6250156e+3, 2.6456523e+2, -695473.6, -526963.9, -41478.582, -0.012711895, -0.033784937, -517307.34, -170051.9, 0.0, 9.997642, 9.999868 
1.6250034e+3, 2.7456468e+2, -638672.94, -446690.6, -44076.227, -0.006078888, -0.07665066, -437054.97, -187794.58, 0.0, 9.99735, 9.9998865 
1.6249913e+3, 2.8456473e+2, -587933.9, -324741.5, -14075.601, 0.0057623927, -0.08169476, -323990.88, -172730.1, 0.0, 9.996825, 10.000304 
1.6249798e+3, 2.9456565e+2, -604899.3, -281733.6, -18613.682, 0.024242694, -0.02695265, -280665.0, -227411.56, 0.0, 9.996034, 10.000307 
1.6249683e+3, 3.0456647e+2, -559583.1, -141956.1, -12435.938, 0.058462597, -0.010533628, -141586.11, -141586.11, 0.0, 9.995609, 10.001139 
1.6249557e+3, 3.1456706e+2, -508888.2, -29829.145, 2248.1128, -0.03836476, -0.07283451, -29818.594, -29818.594, 0.0, 9.995577, 10.0019245 
1.6351916e+3, 1.2459454e+2, -1211929.4, -1759840.3, -75445.945, -0.07873949, -0.05881555, -1201730.5, 517239.22, 0.029846616, 10.004831, 9.997365 
1.6351813e+3, 1.3459304e+2, -1091992.5, -1595029.8, 20330.21, -0.0019006485, -0.0011296408, -1091172.1, 529812.3, 0.018809658, 10.004688, 9.997895 
1.6351679e+3, 1.4459072e+2, -1055563.1, -1542695.3, -44766.43, -0.18162845, -0.01359846, -1051483.3, 471523.9, 0.008993689, 10.004286, 9.997769 
1.6351564e+3, 1.5458812e+2, -1051882.6, -1489289.8, -42483.56, -0.0783568, -0.05403332, -1047794.56, 377238.34, 0.002736627, 10.003606, 9.997789 
1.6351439e+3, 1.6458617e+2, -993809.7, -1330799.1, -63891.242, -0.052050944, -0.061850894, -982102.94, 344949.1, 0.00035829688, 10.00298, 9.998506 
1.6351306e+3, 1.7458495e+2, -975368.0, -1268750.6, -59110.973, -0.07815405, -0.038311757, -963906.06, 265157.28, 0.000005927034, 10.002422, 9.998528 
1.6351175e+3, 1.8458359e+2, -953423.25, -1214785.4, -60985.62, -0.07782144, -0.022785978, -939893.44, 191183.42, 0.0, 10.00193, 9.998464 
1.6351047e+3, 1.9458209e+2, -915253.7, -1145700.1, -68170.34, -0.05666945, -0.022397034, -896597.9, 136494.52, 0.0, 10.001519, 9.998464 
1.6350916e+3, 2.0458072e+2, -841870.06, -988424.1, -76319.61, -0.055885762, -0.033670727, -809344.44, 125761.055, 0.0, 10.001042, 9.999102 
1.6350783e+3, 2.1457955e+2, -823801.2, -925850.8, -62683.97, -0.07532252, -0.065388255, -794000.2, 43115.043, 0.0, 10.00048, 9.999129 
1.6350651e+3, 2.2457862e+2, -807915.75, -885543.4, -66169.875, -0.06559639, -0.063468456, -770016.06, -30891.902, 0.0, 9.999994, 9.998968 
1.6350521e+3, 2.3457794e+2, -767206.75, -815044.2, -72704.67, -0.023555482, -0.029700406, -714587.4, -73455.57, 0.0, 9.999601, 9.998967 
1.635039e+3, 2.445772e+2, -711491.44, -668786.3, -61940.598, -0.0075666886, -0.029538715, -624621.1, -81481.875, 0.0, 9.999016, 9.999579 
1.635026e+3, 2.5457639e+2, -728307.2, -622447.4, -63831.785, -0.021881869, -0.073045745, -592455.2, -147309.36, 0.0, 9.998211, 9.999613 
1.6350132e+3, 2.6457608e+2, -694234.25, -525742.0, -52110.93, -0.0146106435, -0.07481764, -510927.75, -163779.27, 0.0, 9.997646, 9.999876 
1.6350009e+3, 2.7457637e+2, -638090.9, -445848.9, -53475.71, 0.018075202, -0.041375183, -431974.9, -182828.05, 0.0, 9.99735, 9.999893 
1.6349883e+3, 2.845765e+2, -584855.75, -318717.22, -42038.242, 0.022421481, -0.034684908, -312234.9, -161088.83, 0.0, 9.996824, 10.000346 
1.6349755e+3, 2.945768e+2, -600619.9, -275225.8, -46486.14, -0.008472216, -0.045593362, -268715.03, -215571.0, 0.0, 9.996042, 10.000349 
1.6349638e+3, 3.0457723e+2, -548328.6, -119891.75, -13798.395, 0.028253648, -0.07675871, -119447.81, -119447.81, 0.0, 9.995613, 10.001288 
1.6349518e+3, 3.1457925e+2, -488019.38, 13296.518, -5057.653, 0.013687428, -0.012167536, 13347.537, 13347.537, 0.0, 9.995576, 10.002222 
1.6451967e+3, 1.2460659e+2, -1161246.5, -1758109.6, -53870.11, -0.08160577, -0.07383346, -1156423.4, 562426.94, 0.031692613, 10.005303, 9.997148 
1.6451861e+3, 1.3460493e+2, -1052664.5, -1598658.1, 59290.48, -0.008709077, -0.011031529, -1046300.25, 574567.3, 0.020042727, 10.005072, 9.9976845 
1.6451725e+3, 1.4460264e+2, -1013512.3, -1517886.5, -22833.385, -0.16660324, -0.011844205, -1012480.75, 510409.66, 0.009640532, 10.004563, 9.997805 
1.6451602e+3, 1.5460001e+2, -1028187.44, -1473027.5, -23123.234, -0.071295835, -0.059850898, -1026988.7, 397927.06, 0.0029684221, 10.003751, 9.997831 
1.6451469e+3, 1.64598e+2, -981667.25, -1340218.0, -43291.383, -0.04617239, -0.06687707, -976514.3, 350420.94, 0.00039901567, 10.003131, 9.998368 
1.6451333e+3, 1.7459679e+2, -940309.06, -1267938.3, -55595.027, -0.06478291, -0.031487416, -931132.25, 297815.38, 0.0000070009137, 10.002734, 9.998383 
1.6451198e+3, 1.8459533e+2, -907214.3, -1185158.3, -57588.625, -0.065213144, -0.018666595, -895754.7, 235207.13, 0.0, 10.002217, 9.998528 
1.6451064e+3, 1.945937e+2, -904840.4, -1132769.6, -42230.227, -0.05645146, -0.039077006, -897267.6, 135710.17, 0.0, 10.001558, 9.998532 
1.6450927e+3, 2.0459233e+2, -852477.6, -995347.06, -49722.17, -0.059728798, -0.053006403, -836876.6, 98114.18, 0.0, 10.000978, 9.9990835 
1.6450788e+3, 2.1459134e+2, -823122.7, -928009.44, -64407.727, -0.07330533, -0.06558103, -792507.9, 44491.992, 0.0, 10.000497, 9.999105 
1.6450652e+3, 2.2459053e+2, -798369.4, -867718.7, -69481.28, -0.061521817, -0.05509576, -755391.06, -16383.367, 0.0, 10.000004, 9.9990835 
1.6450517e+3, 2.3458993e+2, -773344.2, -804811.0, -55261.156, -0.02197834, -0.024445921, -731620.4, -90606.484, 0.0, 9.999502, 9.999084 
1.6450381e+3, 2.4458918e+2, -719167.9, -675511.06, -40514.805, -0.007795996, -0.030162808, -651318.5, -108297.36, 0.0, 9.998977, 9.999553 
1.6450243e+3, 2.5458822e+2, -701256.4, -613050.4, -42914.44, -0.023548553, -0.08427514, -595617.0, -150587.72, 0.0, 9.998414, 9.999578 
1.645011e+3, 2.645879e+2, -664787.0, -511246.34, -21775.213, -0.015225861, -0.08494492, -508217.9, -161185.67, 0.0, 9.997849, 9.999876 
1.6449982e+3, 2.7458835e+2, -646689.06, -450280.63, -24546.027, 0.022068374, -0.034617744, -447259.47, -198230.16, 0.0, 9.997294, 9.999888 
1.6449851e+3, 2.845886e+2, -588214.94, -316958.84, -21170.59, 0.02429788, -0.020963604, -315316.5, -164288.64, 0.0, 9.996787, 10.000375 
1.6449717e+3, 2.9458883e+2, -561174.9, -252265.44, -27859.555, -0.016585248, -0.038775213, -249772.98, -196746.88, 0.0, 9.996296, 10.000382 
1.6449592e+3, 3.045891e+2, -552353.25, -125888.96, 5076.2827, 0.011575182, -0.089754865, -125828.55, -125828.55, 0.0, 9.995605, 10.001249 
1.6449471e+3, 3.1459147e+2, -593935.9, -9992.275, -10059.592, 0.030253341, 0.013082491, -9819.03, -9819.03, 0.0, 9.994732, 10.002467 
1.6552015e+3, 1.24619305e+2, -1168735.6, -1775856.6, -75215.57, -0.12982126, -0.079003885, -1159556.1, 559167.56, 0.033677127, 10.00532, 9.99702 
1.6551913e+3, 1.3461697e+2, -1062234.4, -1618849.9, 51304.21, 0.012098406, -0.06811851, -1057545.1, 563203.25, 0.021371337, 10.005077, 9.997541 
1.6551778e+3, 1.4461476e+2, -1012239.6, -1515337.8, -53014.242, -0.098489836, -0.0548763, -1006713.94, 516056.84, 0.010341502, 10.004565, 9.997823 
1.655164e+3, 1.5461278e+2, -1024885.2, -1469915.3, -53247.996, -0.055621464, -0.0409768, -1018602.75, 406187.1, 0.003222313, 10.003766, 9.997847 
1.6551502e+3, 1.6461079e+2, -1004394.44, -1391190.9, -58744.887, -0.049499597, -0.029159237, -995669.3, 331140.38, 0.00044549836, 10.003145, 9.998013 
1.6551362e+3, 1.746089e+2, -965224.44, -1321258.9, -69578.375, -0.043220095, -0.023873879, -952110.06, 276719.9, 0.000008273259, 10.002739, 9.998015 
1.6551222e+3, 1.8460721e+2, -882681.8, -1134761.4, -81771.945, -0.048225004, -0.033272173, -858479.56, 272366.66, 0.0, 10.002218, 9.998874 
1.6551077e+3, 1.9460581e+2, -878562.2, -1079109.6, -66746.91, -0.08094134, -0.06595108, -858378.56, 174478.88, 0.0, 10.001561, 9.9989 
1.6550934e+3, 2.0460463e+2, -876778.0, -1046955.75, -68196.33, -0.08345301, -0.064607866, -852821.7, 82047.12, 0.0, 10.000982, 9.998729 
1.6550796e+3, 2.146037e+2, -849927.7, -984296.25, -81692.26, -0.045138333, -0.030801957, -811341.7, 25538.232, 0.0, 10.000498, 9.998719 
1.6550656e+3, 2.2460286e+2, -772049.25, -813634.8, -87964.74, -0.025068624, -0.021221252, -702453.25, 36435.273, 0.0, 10.000005, 9.999456 
1.6550511e+3, 2.3460212e+2, -745186.75, -746654.0, -73063.25, -0.027316283, -0.04671966, -672853.44, -31959.652, 0.0, 9.999502, 9.999486 
1.6550368e+3, 2.4460147e+2, -719854.94, -677109.3, -60793.93, -0.027418716, -0.06139323, -634040.7, -91141.586, 0.0, 9.998976, 9.999542 
1.6550227e+3, 2.5460097e+2, -703020.56, -617340.6, -62577.49, -0.0257586, -0.06882953, -584343.94, -139439.9, 0.0, 9.998415, 9.99955 
1.6550088e+3, 2.646007e+2, -665674.75, -514253.4, -41512.188, -0.01645422, -0.06367503, -503619.63, -156712.58, 0.0, 9.997851, 9.999855 
1.6549954e+3, 2.7460068e+2, -647270.25, -453740.4, -43241.113, 0.0024718295, -0.05499426, -444518.34, -195610.27, 0.0, 9.997301, 9.999863 
1.6549818e+3, 2.846009e+2, -586567.0, -315014.9, -38566.723, 0.008988924, -0.040374808, -309643.75, -158737.06, 0.0, 9.996793, 10.000387 
1.6549681e+3, 2.9460168e+2, -559367.94, -248767.56, -45236.227, -0.0011489377, -0.008410328, -242313.4, -189413.0, 0.0, 9.996296, 10.000408 
1.6549547e+3, 3.0460194e+2, -569552.6, -160935.33, -26378.08, 0.0065666093, -0.051036183, -159239.55, -159239.55, 0.0, 9.995601, 10.001012 
1.6549416e+3, 3.1460348e+2, -581695.2, 15109.444, -46773.82, 0.0064001307, -0.0022562344, 18753.04, 18753.04, 0.0, 9.994732, 10.00264 
1.665207e+3, 1.2463265e+2, -1083120.3, -1748827.0, -64922.46, -0.13218144, -0.075214095, -1076847.9, 641743.9, 0.035793446, 10.00601, 9.996872 
1.6651964e+3, 1.346299e+2, -1061730.4, -1638147.5, 68359.38, -0.0040697623, -0.09032257, -1053734.4, 566886.9, 0.02279264, 10.005175, 9.997362 
1.6651824e+3, 1.4462768e+2, -1006094.25, -1511662.4, -36581.445, -0.08411231, -0.06882597, -1003461.0, 519182.9, 0.011097093, 10.004608, 9.997828 
1.6651684e+3, 1.5462586e+2, -938077.5, -1426223.8, -37180.066, -0.03901491, -0.037551627, -935261.9, 489399.03, 0.0034990653, 10.004358, 9.99786 
1.6651537e+3, 1.6462384e+2, -913510.75, -1363586.1, -38614.23, -0.037715387, -0.023684788, -910221.9, 416459.34, 0.0004978245, 10.00384, 9.997866 
1.665139e+3, 1.7462163e+2, -936394.9, -1324683.8, -34879.87, -0.044701803, -0.033699494, -933286.5, 295418.28, 0.0000097975735, 10.003012, 9.99786 
1.6651244e+3, 1.8461986e+2, -870277.56, -1126767.9, -50296.676, -0.05306179, -0.045249384, -860767.2, 269954.94, 0.0, 10.0022955, 9.998891 
1.6651092e+3, 1.9461861e+2, -855033.2, -1064896.1, -61107.438, -0.07783361, -0.06536269, -838536.75, 194195.1, 0.0, 10.001711, 9.998924 
1.6650945e+3, 2.0461747e+2, -858383.3, -1042198.9, -61149.047, -0.07470572, -0.057199944, -839899.75, 94842.98, 0.0, 10.001128, 9.998691 
1.6650802e+3, 2.1461654e+2, -846777.2, -987380.56, -50322.746, -0.033858, -0.023172732, -830622.5, 6132.028, 0.0, 10.000541, 9.998677 
1.6650656e+3, 2.2461563e+2, -772300.2, -798627.25, -52563.07, -0.018800924, -0.02245688, -731277.44, 7485.9004, 0.0, 9.999939, 9.999591 
1.6650504e+3, 2.3461482e+2, -762131.56, -738897.7, -57907.04, -0.03531207, -0.06741221, -691453.8, -50685.56, 0.0, 9.999318, 9.999626 
1.6650356e+3, 2.4461426e+2, -747223.25, -687945.3, -52096.13, -0.038818676, -0.08227624, -657647.06, -114874.32, 0.0, 9.998778, 9.999562 
1.665021e+3, 2.54614e+2, -712962.3, -620782.1, -52073.254, -0.027568405, -0.06590165, -597331.44, -152555.47, 0.0, 9.998342, 9.99956 
1.6650066e+3, 2.6461384e+2, -661404.4, -501525.63, -27936.342, -0.018736683, -0.055603944, -496784.75, -150006.66, 0.0, 9.997836, 9.999949 
1.6649924e+3, 2.746137e+2, -650757.75, -445093.78, -21348.643, -0.011493539, -0.06594282, -442901.1, -194121.78, 0.0, 9.997233, 9.999954 
1.6649784e+3, 2.8461388e+2, -610340.6, -327574.03, -11320.689, 0.000030714575, -0.060919076, -327121.53, -176343.17, 0.0, 9.996635, 10.000376 
1.6649644e+3, 2.9461467e+2, -596937.7, -267227.94, -22771.74, 0.013540381, -0.024441266, -265662.6, -212890.25, 0.0, 9.996041, 10.000402 
1.6649501e+3, 3.0461526e+2, -608410.44, -187988.7, -7435.9307, -0.0013861901, -0.030503726, -187857.22, -187857.22, 0.0, 9.995372, 10.000935 
1.6649362e+3, 3.1461632e+2, -583751.06, 32740.23, -18273.842, 0.0028134785, -0.019458802, 33281.42, 33281.42, 0.0, 9.99464, 10.002805 
1.6752136e+3, 1.2464659e+2, -1095272.0, -1773244.8, -105181.41, -0.09221792, -0.06720816, -1079329.0, 639125.9, 0.038032442, 10.006013, 9.996706 
1.675201e+3, 1.3464361e+2, -1074911.9, -1668921.1, 38140.324, -0.057886977, -0.081379846, -1072472.9, 548013.75, 0.024304615, 10.005193, 9.997142 
1.6751866e+3, 1.4464131e+2, -1004645.0, -1511726.5, -46514.03, -0.12211502, -0.05667394, -1000413.6, 522096.56, 0.011909196, 10.004623, 9.99782 
1.6751729e+3, 1.5463929e+2, -936983.2, -1425034.0, -45416.06, -0.021365587, -0.048164424, -932792.94, 491735.94, 0.0038005493, 10.004363, 9.997867 
1.6751578e+3, 1.6463716e+2, -910177.3, -1356767.3, -68952.125, -0.01315338, -0.04802091, -899773.7, 426776.0, 0.0005563037, 10.0038395, 9.997914 
1.6751419e+3, 1.7463496e+2, -932953.75, -1318658.6, -65538.24, -0.07024683, -0.06006593, -922121.8, 306450.7, 0.000011659806, 10.0030155, 9.9979 
1.6751264e+3, 1.8463324e+2, -890275.9, -1169632.1, -72267.266, -0.08030571, -0.05513531, -872688.2, 257901.83, 0.0, 10.002299, 9.998596 
1.6751114e+3, 1.9463205e+2, -876120.75, -1109902.3, -82026.984, -0.049327925, -0.038813468, -850211.4, 182389.89, 0.0, 10.001715, 9.998615 
1.675096e+3, 2.0463088e+2, -839569.8, -1003960.2, -82885.34, -0.036654226, -0.031731013, -805034.4, 129578.31, 0.0, 10.00113, 9.998953 
1.6750807e+3, 2.1462975e+2, -827287.4, -946995.44, -71536.73, -0.039857037, -0.041235205, -793867.56, 42756.273, 0.0, 10.00054, 9.998956 
1.6750652e+3, 2.246288e+2, -779087.94, -812927.9, -75451.11, -0.042498846, -0.056641858, -718682.9, 19949.504, 0.0, 9.999938, 9.999494 
1.6750497e+3, 2.3462804e+2, -769700.5, -755709.1, -80085.94, -0.04693775, -0.0868604, -682313.94, -41676.203, 0.0, 9.999322, 9.999511 
1.6750343e+3, 2.446275e+2, -743764.9, -681930.56, -68101.14, -0.04378216, -0.09321791, -638057.1, -95414.75, 0.0, 9.998781, 9.999603 
1.6750193e+3, 2.5462732e+2, -709520.56, -614630.6, -66742.164, -0.03174757, -0.07506542, -580188.25, -135542.7, 0.0, 9.998343, 9.999603 
1.6750044e+3, 2.6462728e+2, -646926.5, -472072.28, -48957.684, -0.02408867, -0.061356895, -459297.8, -112651.92, 0.0, 9.997837, 10.000153 
1.6749895e+3, 2.7462742e+2, -635684.8, -414480.13, -42161.145, -0.020284561, -0.06875132, -406716.75, -158073.16, 0.0, 9.997235, 10.000164 
1.674975e+3, 2.846275e+2, -613646.4, -335240.06, -32381.266, -0.003468121, -0.08266249, -331523.44, -180880.16, 0.0, 9.996636, 10.000323 
1.6749606e+3, 2.9462788e+2, -599527.7, -274226.38, -43265.223, 0.022464566, -0.082712516, -268570.4, -215928.33, 0.0, 9.996046, 10.000353 
1.6749454e+3, 3.0462906e+2, -601858.1, -175616.81, -34083.047, -0.016218744, -0.026876118, -172908.67, -172908.67, 0.0, 9.995376, 10.001019 
1.674931e+3, 3.1462997e+2, -575037.0, 50369.598, -39530.445, 0.018224165, -0.040430214, 52858.32, 52858.32, 0.0, 9.994641, 10.002925 
1.6852196e+3, 1.2466102e+2, -1064982.3, -1754989.4, -92912.99, -0.08643501, -0.067831434, -1052690.1, 665623.3, 0.040385526, 10.006232, 9.996724 
1.6852066e+3, 1.3465796e+2, -994181.7, -1635681.9, 67490.695, -0.05885857, -0.08503009, -987158.06, 633187.2, 0.025906127, 10.005799, 9.997079 
1.6851918e+3, 1.446556e+2, -928095.9, -1486298.6, -9934.79, -0.09678682, -0.056621253, -927919.1, 594450.0, 0.012780502, 10.00521, 9.997714 
1.6851771e+3, 1.5465333e+2, -928832.6, -1433244.3, -17507.28, -0.028475553, -0.061473444, -928225.7, 496165.06, 0.0041296333, 10.004474, 9.997757 
1.6851614e+3, 1.6465116e+2, -912179.4, -1344707.4, -51520.74, -0.026971271, -0.06507646, -906127.2, 420284.75, 0.0006217182, 10.00377, 9.998031 
1.685145e+3, 1.7464915e+2, -912558.6, -1294694.6, -42674.758, -0.06039194, -0.07144207, -907850.94, 320581.13, 0.00001399049, 10.003095, 9.998026 
1.685129e+3, 1.8464744e+2, -877294.44, -1184112.6, -35447.62, -0.061664484, -0.061604615, -873252.3, 257197.17, 0.0, 10.002479, 9.99841 
1.6851132e+3, 1.946461e+2, -859178.4, -1124254.4, -37794.992, -0.040341076, -0.039780483, -853894.8, 178568.69, 0.0, 10.001927, 9.998414 
1.6850972e+3, 2.0464486e+2, -805708.06, -971606.94, -41929.957, -0.03754999, -0.035999935, -795712.75, 138762.9, 0.0, 10.001294, 9.999096 
1.6850811e+3, 2.1464376e+2, -812346.6, -921851.8, -40624.707, -0.050777763, -0.058901608, -798921.4, 37563.758, 0.0, 10.0005665, 9.999114 
1.685065e+3, 2.2464281e+2, -784503.06, -826872.8, -45283.906, -0.055153865, -0.07657206, -755693.6, -17200.275, 0.0, 9.999951, 9.999391 
1.685049e+3, 2.3464204e+2, -756713.6, -762289.56, -50596.21, -0.051718928, -0.09581499, -708828.6, -68328.914, 0.0, 9.999468, 9.999393 
1.6850331e+3, 2.4464153e+2, -724416.6, -667107.4, -38769.51, -0.043229032, -0.09652635, -647552.44, -105047.72, 0.0, 9.998893, 9.999651 
1.6850176e+3, 2.5464138e+2, -726143.25, -616817.1, -38088.41, -0.028731292, -0.07922647, -604856.06, -160348.63, 0.0, 9.998206, 9.999654 
1.6850021e+3, 2.6464146e+2, -678351.1, -474934.25, -24100.225, -0.023817224, -0.06556405, -472117.94, -125611.09, 0.0, 9.997569, 10.00026 
1.6849865e+3, 2.746417e+2, -662715.75, -415100.16, -25698.113, -0.02803682, -0.07147079, -412461.28, -163958.33, 0.0, 9.996998, 10.000274 
1.6849715e+3, 2.8464174e+2, -634227.7, -336559.1, -13588.885, -0.010538401, -0.09505154, -335940.03, -185437.66, 0.0, 9.99646, 10.000399 
1.6849566e+3, 2.9464197e+2, -610116.06, -269391.47, -15866.625, 0.026479395, -0.11868865, -268654.22, -216151.56, 0.0, 9.995932, 10.000442 
1.6849405e+3, 3.0464375e+2, -612314.2, -155894.63, -5543.036, -0.033037364, -0.021184238, -155827.33, -155827.33, 0.0, 9.995198, 10.00124 
1.6849256e+3, 3.146444e+2, -632980.6, 14990.971, 6430.007, 0.026179094, -0.07779363, 15054.771, 15054.771, 0.0, 9.994275, 10.002859 
1.6952255e+3, 1.24675885e+2, -1054034.9, -1729611.0, -113494.11, -0.111199684, -0.081085324, -1035478.0, 682689.7, 0.04285052, 10.006239, 9.996899 
1.6952127e+3, 1.3467288e+2, -988167.0, -1623025.8, 52376.113, -0.011417758, -0.10136659, -983874.94, 636322.3, 0.027597725, 10.005809, 9.997161 
1.6951978e+3, 1.4467049e+2, -942699.3, -1517271.9, -37355.492, -0.0151129505, -0.06911074, -940280.8, 581940.3, 0.013713728, 10.005217, 9.997498 
1.6951813e+3, 1.5466797e+2, -944584.25, -1466887.9, -44250.285, -0.06251421, -0.07679872, -940861.8, 483385.06, 0.004489728, 10.004477, 9.997525 
1.6951647e+3, 1.6466583e+2, -898282.9, -1317020.6, -76394.945, -0.079057455, -0.07471047, -884780.7, 441487.4, 0.000695416, 10.003774, 9.99822 
1.6951485e+3, 1.7466414e+2, -896745.9, -1264124.4, -67239.27, -0.01727324, -0.0692404, -884826.2, 343457.7, 0.000016975888, 10.003103, 9.998233 
1.695132e+3, 1.8466245e+2, -882829.94, -1197108.5, -56081.21, -0.00097332965, -0.064841196, -873122.4, 257178.48, 0.0, 10.002483, 9.99832 
1.695115e+3, 1.9466077e+2, -866534.44, -1139651.6, -57731.51, -0.05149379, -0.06646085, -854832.5, 177486.23, 0.0, 10.001927, 9.99831 
1.6950981e+3, 2.0465942e+2, -804012.2, -968071.8, -68737.05, -0.07671087, -0.06829329, -779020.2, 155311.64, 0.0, 10.001292, 9.999122 
1.6950816e+3, 2.1465851e+2, -809725.7, -917268.06, -67184.04, -0.067742206, -0.076963626, -777444.4, 58894.563, 0.0, 10.000568, 9.9991455 
1.6950649e+3, 2.2465762e+2, -791786.6, -842786.5, -63515.13, -0.058867317, -0.083188176, -748843.75, -10497.123, 0.0, 9.999953, 9.999281 
1.6950485e+3, 2.3465681e+2, -765211.4, -780190.6, -67441.914, -0.051323175, -0.094444595, -704844.5, -64489.824, 0.0, 9.999467, 9.999272 
1.6950321e+3, 2.446563e+2, -721635.8, -661068.3, -63219.273, -0.038264867, -0.092158765, -621253.7, -78893.49, 0.0, 9.99889, 9.999695 
1.6950159e+3, 2.5465617e+2, -722322.3, -609635.56, -62296.418, -0.01902753, -0.07803931, -581982.4, -137620.3, 0.0, 9.998208, 9.999703 
1.6949996e+3, 2.6465622e+2, -677214.44, -473704.44, -44602.15, -0.018670943, -0.06760625, -464358.44, -117997.09, 0.0, 9.997572, 10.000269 
1.6949835e+3, 2.7465647e+2, -661751.06, -414756.8, -45066.043, -0.038923644, -0.0728812, -406791.06, -158433.28, 0.0, 9.997004, 10.000274 
1.6949677e+3, 2.846566e+2, -620066.56, -308431.22, -32320.906, -0.024520213, -0.09766902, -305114.38, -154758.16, 0.0, 9.996464, 10.000591 
1.6949525e+3, 2.9465693e+2, -594869.75, -237131.02, -34117.79, 0.024872508, -0.13281219, -233906.25, -181551.58, 0.0, 9.995928, 10.000666 
1.6949354e+3, 3.046592e+2, -587565.0, -104961.586, -39009.465, -0.053209916, -0.017595824, -101828.734, -101828.734, 0.0, 9.995197, 10.001592 
1.6949198e+3, 3.146599e+2, -647641.75, -18217.838, -10466.095, 0.01623252, -0.10295816, -18043.854, -18043.854, 0.0, 9.994287, 10.002626 
1.7052321e+3, 1.2469159e+2, -999951.44, -1694934.5, -72941.875, -0.09417705, -0.095903486, -992378.4, 725634.44, 0.0454328, 10.006612, 9.996958 
1.7052186e+3, 1.3468842e+2, -948965.6, -1608259.5, 85725.98, -0.027081378, -0.1283259, -938001.3, 682042.1, 0.029382803, 10.006119, 9.997114 
1.7052032e+3, 1.44686e+2, -919829.5, -1512731.0, -16505.14, 0.00028488136, -0.0920616, -919370.44, 602697.06, 0.014711684, 10.00541, 9.997435 
1.7051859e+3, 1.5468358e+2, -952611.9, -1478135.9, -12040.543, -0.04887678, -0.08375103, -952336.1, 471756.78, 0.0048838197, 10.004455, 9.997459 
1.7051686e+3, 1.6468145e+2, -897391.25, -1317876.3, -31576.418, -0.07150812, -0.07674437, -895033.25, 431081.06, 0.0007788705, 10.003785, 9.998209 
1.7051518e+3, 1.7467968e+2, -846278.7, -1241268.0, -38831.445, -0.020706689, -0.07736244, -842497.3, 385633.44, 0.000020835878, 10.003455, 9.99822 
1.7051345e+3, 1.8467796e+2, -830857.3, -1166912.5, -40982.027, -0.0077420413, -0.07596864, -825931.75, 304216.03, 0.0, 10.002819, 9.998365 
1.7051168e+3, 1.9467632e+2, -877409.6, -1139229.0, -32485.71, -0.053614277, -0.07805961, -873439.1, 158725.83, 0.0, 10.00183, 9.998359 
1.7050993e+3, 2.0467494e+2, -833067.9, -989020.6, -32458.191, -0.075006515, -0.082375355, -826582.1, 107596.04, 0.0, 10.001124, 9.999057 
1.7050822e+3, 2.1467392e+2, -790403.44, -916020.2, -38826.297, -0.06391791, -0.09469388, -779371.6, 56814.754, 0.0, 10.000737, 9.999072 
1.705065e+3, 2.2467302e+2, -766988.9, -838590.6, -40773.266, -0.05505017, -0.09574677, -748529.6, -10334.922, 0.0, 10.000159, 9.99921 
1.7050478e+3, 2.3467231e+2, -785180.44, -797611.5, -42982.652, -0.049803644, -0.09128737, -747966.25, -107763.38, 0.0, 9.999366, 9.999201 
1.705031e+3, 2.446718e+2, -740827.56, -660533.8, -33286.18, -0.041228056, -0.08534944, -648529.5, -106321.44, 0.0, 9.998717, 9.999781 
1.7050141e+3, 2.5467163e+2, -712877.8, -594645.94, -29703.97, -0.028823044, -0.08321077, -587602.8, -143393.44, 0.0, 9.99823, 9.999794 
1.7049971e+3, 2.6467165e+2, -676300.75, -476960.6, -15455.076, -0.028185727, -0.07898837, -475769.44, -129560.59, 0.0, 9.997598, 10.000234 
1.7049803e+3, 2.746719e+2, -696270.7, -436115.16, -20850.662, -0.039966956, -0.0813975, -434454.66, -186248.4, 0.0, 9.996788, 10.000231 
1.704964e+3, 2.8467217e+2, -666686.56, -313023.47, -6043.7563, -0.020689921, -0.09892266, -312920.22, -162716.81, 0.0, 9.996069, 10.00075 
1.7049482e+3, 2.9467264e+2, -648640.8, -243408.77, -11118.42, 0.030861886, -0.13241959, -243103.94, -190904.86, 0.0, 9.995477, 10.00084 
1.7049304e+3, 3.0467486e+2, -615505.25, -89482.81, -30130.232, -0.059040256, -0.04344821, -87762.59, -87762.59, 0.0, 9.994884, 10.001848 
1.704914e+3, 3.1467596e+2, -674821.1, -63462.684, 9876.628, 0.012643317, -0.115897544, -63303.164, -63303.164, 0.0, 9.994242, 10.002336 
1.7152394e+3, 1.24708034e+2, -1002640.8, -1701839.1, -91534.42, -0.040797375, -0.11684429, -990856.4, 726993.1, 0.048138414, 10.006634, 9.9969 
1.715224e+3, 1.3470456e+2, -961404.8, -1633302.3, 68559.27, -0.10434185, -0.16220585, -954480.5, 665403.1, 0.031265754, 10.006122, 9.996942 
1.7152083e+3, 1.4470215e+2, -915057.25, -1501505.8, -51356.766, -0.048218727, -0.1215526, -910593.75, 611314.1, 0.015777238, 10.005409, 9.997515 
1.7151909e+3, 1.5470009e+2, -944681.0, -1464717.0, -47136.773, 0.00886046, -0.084735915, -940443.0, 483486.47, 0.0053141676, 10.004469, 9.997545 
1.715173e+3, 1.6469793e+2, -910112.9, -1348039.1, -44636.543, -0.009791169, -0.07301492, -905609.5, 420341.78, 0.0008734222, 10.003799, 9.997996 
1.7151546e+3, 1.7469576e+2, -861827.1, -1274211.6, -50350.336, -0.070521526, -0.09437715, -855768.56, 372204.28, 0.000025809924, 10.003457, 9.997995 
1.7151366e+3, 1.8469399e+2, -819003.2, -1142069.6, -77130.266, -0.08049435, -0.0937058, -801533.44, 328456.8, 0.0, 10.002816, 9.998538 
1.7151186e+3, 1.9469273e+2, -863375.56, -1111729.1, -69117.04, -0.047712114, -0.076137036, -845436.06, 186566.56, 0.0, 10.001835, 9.998546 
1.7151009e+3, 2.046914e+2, -843126.44, -1011255.0, -47350.266, -0.035451107, -0.07937575, -830708.3, 103306.98, 0.0, 10.001129, 9.998903 
1.7150831e+3, 2.1469e+2, -802864.9, -941651.06, -52349.832, -0.041307125, -0.11179219, -785333.25, 50694.445, 0.0, 10.000734, 9.998899 
1.7150652e+3, 2.2468898e+2, -771004.25, -846205.1, -69653.56, -0.0450189, -0.113602966, -729450.4, 8587.465, 0.0, 10.0001545, 9.999161 
1.7150472e+3, 2.3468843e+2, -787893.75, -803805.44, -71725.29, -0.04792322, -0.08651343, -723684.44, -83639.62, 0.0, 9.999367, 9.999159 
1.7150295e+3, 2.4468803e+2, -731561.56, -641497.4, -50969.527, -0.053533085, -0.07679692, -618516.3, -76467.32, 0.0, 9.998717, 9.999912 
1.7150119e+3, 2.5468782e+2, -703550.5, -575781.06, -46177.637, -0.06125334, -0.094296895, -560839.2, -116789.42, 0.0, 9.998231, 9.999924 
1.7149945e+3, 2.6468775e+2, -682371.56, -490738.34, -44391.594, -0.05424682, -0.099961475, -480954.6, -134904.63, 0.0, 9.997601, 10.000138 
1.7149772e+3, 2.7468792e+2, -703216.3, -450778.53, -50062.93, -0.03144044, -0.09694117, -441212.63, -193163.67, 0.0, 9.996787, 10.000132 
1.7149603e+3, 2.8468838e+2, -658583.2, -295722.13, -27623.479, -0.00008148768, -0.09845909, -293631.3, -143586.7, 0.0, 9.996066, 10.00087 
1.7149438e+3, 2.9468915e+2, -639795.2, -226070.4, -30364.166, 0.040208362, -0.114550926, -223853.8, -171817.48, 0.0, 9.99548, 10.0009575 
1.7149253e+3, 3.0469078e+2, -605659.3, -71868.6, -53913.176, -0.05439633, -0.0984563, -66477.79, -66477.79, 0.0, 9.994893, 10.001966 
1.7149082e+3, 3.1469256e+2, -695283.06, -107038.586, 11546.176, 0.0065851016, -0.1085812, -106812.04, -106812.04, 0.0, 9.994245, 10.002036 
1.7252466e+3, 1.24725364e+2, -891045.75, -1661682.1, -60572.35, -0.025586614, -0.14272714, -886313.75, 831364.06, 0.05097375, 10.007526, 9.996758 
1.7252299e+3, 1.3472196e+2, -983484.9, -1672467.6, 91871.9, -0.11974297, -0.15515733, -971444.7, 648267.56, 0.033250526, 10.0061, 9.996684 
1.7252137e+3, 1.4471936e+2, -941130.94, -1516738.8, -18000.254, -0.03559102, -0.11808312, -940568.56, 581170.06, 0.016912213, 10.005245, 9.997487 
1.7251956e+3, 1.5471701e+2, -857011.25, -1424926.0, -21664.412, 0.011512266, -0.10749855, -856186.0, 567576.2, 0.0057820803, 10.00509, 9.997519 
1.725177e+3, 1.6471478e+2, -819847.3, -1313996.4, -26448.607, -0.013276119, -0.098807275, -818435.75, 507349.06, 0.0009803299, 10.004464, 9.997909 
1.725158e+3, 1.747127e+2, -892020.25, -1298932.5, -23177.047, -0.07591292, -0.099613026, -890704.4, 337101.6, 0.000032150627, 10.003295, 9.997903 
1.7251393e+3, 1.8471093e+2, -863003.0, -1164311.1, -47079.53, -0.0857381, -0.09402383, -855818.1, 274005.47, 0.0, 10.00252, 9.998528 
1.7251205e+3, 1.9470958e+2, -812349.7, -1088494.4, -54354.742, -0.05119245, -0.08597927, -802036.0, 229800.69, 0.0, 10.002192, 9.998533 
1.7251022e+3, 2.0470819e+2, -785041.8, -988356.7, -37724.668, -0.034469977, -0.09128752, -778267.75, 155582.0, 0.0, 10.001551, 9.9988575 
1.7250839e+3, 2.147068e+2, -831835.25, -960752.06, -35014.473, -0.032856192, -0.11880444, -822939.06, 12923.439, 0.0, 10.00056, 9.998851 
1.7250653e+3, 2.2470576e+2, -819230.5, -869569.94, -42982.05, -0.038244933, -0.118723094, -794590.9, -56717.98, 0.0, 9.9998255, 9.999157 
1.7250465e+3, 2.3470521e+2, -787428.7, -803289.75, -42432.566, -0.05359724, -0.09131969, -752191.94, -112312.02, 0.0, 9.999372, 9.999158 
1.725028e+3, 2.447048e+2, -727939.0, -636833.25, -25527.494, -0.06312883, -0.083137296, -630168.2, -88284.016, 0.0, 9.998733, 9.999935 
1.7250098e+3, 2.5470454e+2, -752051.8, -596837.3, -30598.99, -0.06473839, -0.10681373, -591022.9, -147137.67, 0.0, 9.99789, 9.999942 
1.7249918e+3, 2.647045e+2, -733532.75, -505806.66, -26181.469, -0.05430319, -0.114827745, -502835.34, -156950.17, 0.0, 9.99721, 10.000222 
1.7249739e+3, 2.7470487e+2, -708770.5, -443649.94, -18887.408, -0.031970944, -0.10446811, -442311.13, -194428.31, 0.0, 9.99671, 10.0002165 
1.7249563e+3, 2.8470552e+2, -655609.1, -293010.2, 6862.169, -0.003917469, -0.090883985, -292880.38, -143003.88, 0.0, 9.996083, 10.000879 
1.724939e+3, 2.947063e+2, -663920.5, -239763.64, -5546.1714, 0.034268074, -0.09818935, -239691.14, -187824.06, 0.0, 9.995326, 10.000937 
1.7249201e+3, 3.0470714e+2, -636255.56, -85367.266, -37775.84, -0.03912487, -0.16183977, -82788.945, -82788.945, 0.0, 9.9946785, 10.001978 
1.7249024e+3, 3.1471e+2, -710373.2, -106592.336, 45066.49, 0.0026984708, -0.07226179, -103247.09, -103247.09, 0.0, 9.99411, 10.002104 
1.7352538e+3, 1.24743566e+2, -912812.0, -1696722.5, -109550.21, -0.050613463, -0.16999693, -897790.44, 819707.56, 0.053951666, 10.0075035, 9.996517 
1.7352363e+3, 1.3474053e+2, -1005082.3, -1720170.8, 39511.137, -0.07899193, -0.11330482, -1002905.8, 616624.6, 0.03534193, 10.006118, 9.9963455 
1.7352197e+3, 1.4473757e+2, -947847.56, -1535674.6, -25294.506, 0.03165669, -0.0873615, -946761.1, 574799.25, 0.01811702, 10.00527, 9.997346 
1.7352001e+3, 1.5473437e+2, -866304.0, -1444760.8, -26256.361, -0.040039092, -0.14832598, -865114.7, 558476.4, 0.0062875464, 10.005092, 9.997382 
1.7351808e+3, 1.64732e+2, -818522.6, -1310210.8, -68902.27, -0.0803516, -0.14906701, -809049.6, 516565.03, 0.0011004085, 10.004458, 9.997938 
1.7351617e+3, 1.747305e+2, -888640.0, -1293914.0, -66505.305, -0.039823037, -0.09473782, -878005.56, 349625.0, 0.000040116534, 10.003302, 9.997934 
1.7351423e+3, 1.8472874e+2, -875543.3, -1192660.6, -59771.855, -0.028539019, -0.07870702, -864651.3, 264997.03, 0.0, 10.002527, 9.99833 
1.7351227e+3, 1.9472682e+2, -826470.2, -1118623.0, -65413.1, -0.06546036, -0.106967665, -812492.9, 219174.33, 0.0, 10.002193, 9.998327 
1.7351033e+3, 2.047253e+2, -781972.06, -981835.3, -73898.94, -0.07214357, -0.11711597, -757616.2, 176065.58, 0.0, 10.001549, 9.998904 
1.7350844e+3, 2.1472424e+2, -827680.8, -952943.1, -71327.195, -0.03917336, -0.11670535, -795389.75, 40301.504, 0.0, 10.000562, 9.998904 
1.7350651e+3, 2.247233e+2, -815892.6, -862971.4, -59871.434, -0.036200035, -0.1119998, -775099.3, -37398.855, 0.0, 9.999826, 9.999204 
1.7350458e+3, 2.347226e+2, -785064.06, -798074.5, -58093.754, -0.0685704, -0.105171725, -733112.44, -93403.875, 0.0, 9.999369, 9.999196 
1.7350267e+3, 2.4472208e+2, -735304.0, -651727.9, -55973.07, -0.071474135, -0.10373615, -623664.44, -81950.56, 0.0, 9.99873, 9.999835 
1.735008e+3, 2.547218e+2, -759233.9, -612055.0, -60850.523, -0.040128253, -0.12084767, -590155.2, -146438.97, 0.0, 9.99789, 9.999839 
1.7349893e+3, 2.6472187e+2, -715538.2, -468774.13, -44169.035, -0.029834913, -0.12365803, -461106.44, -115391.305, 0.0, 9.9972105, 10.000478 
1.7349705e+3, 2.747226e+2, -689297.8, -405150.22, -36027.266, -0.0463224, -0.102177, -400653.47, -152945.16, 0.0, 9.996717, 10.000478 
1.7349522e+3, 2.8472346e+2, -661765.94, -308797.88, -20665.027, -0.036462847, -0.07603401, -307592.13, -157892.34, 0.0, 9.996095, 10.000767 
1.7349342e+3, 2.947241e+2, -675803.5, -265398.25, -31738.596, 0.011636247, -0.08636134, -262958.25, -211265.83, 0.0, 9.995327, 10.000762 
1.7349152e+3, 3.0472398e+2, -644553.94, -101965.78, -59047.094, -0.01508689, -0.23012093, -95614.336, -95614.336, 0.0, 9.994675, 10.001865 
1.7348963e+3, 3.147278e+2, -677274.7, -38463.32, 47728.19, -0.00948927, -0.035122726, -34917.04, -34917.04, 0.0, 9.994113, 10.00257 
1.7452611e+3, 1.24762684e+2, -982121.5, -1742611.8, -94365.92, -0.048161197, -0.15870512, -970587.0, 746723.06, 0.057085995, 10.007073, 9.996406 
1.7452428e+3, 1.3475925e+2, -908503.2, -1692310.1, 59223.17, -0.08189459, -0.12159784, -904053.6, 715292.8, 0.03754397, 10.00691, 9.996155 
1.7452255e+3, 1.4475597e+2, -822415.5, -1483359.1, 2770.4912, 0.053946447, -0.113573276, -822403.9, 698975.44, 0.019390866, 10.006196, 9.997263 
1.7452051e+3, 1.5475287e+2, -899533.9, -1470091.6, 5164.5684, -0.054315288, -0.15659162, -899487.1, 523921.6, 0.0068293284, 10.004907, 9.997297 
1.7451848e+3, 1.6475046e+2, -883183.7, -1351287.1, -39590.25, -0.10000782, -0.1513173, -879858.94, 445573.75, 0.0012336798, 10.004058, 9.9978485 
1.7451651e+3, 1.7474881e+2, -837335.0, -1279443.9, -47244.664, -0.029796952, -0.103561185, -832342.7, 395107.88, 0.0000498962, 10.0037, 9.997842 
1.7451453e+3, 1.8474697e+2, -798350.06, -1159315.4, -34611.613, -0.009112861, -0.09080147, -795061.25, 334408.2, 0.0000000000000006446772, 10.003077, 9.998294 
1.7451249e+3, 1.9474499e+2, -834640.56, -1126612.5, -28652.725, -0.0606806, -0.119677, -831855.3, 199633.23, 0.0, 10.002157, 9.998288 
1.7451048e+3, 2.0474347e+2, -807466.56, -997071.3, -39298.12, -0.0778661, -0.1261534, -799644.25, 133858.84, 0.0, 10.001389, 9.998875 
1.7450848e+3, 2.1474248e+2, -797626.5, -941734.25, -43847.637, -0.050867215, -0.11573053, -785333.6, 50178.598, 0.0, 10.000784, 9.998874 
1.745065e+3, 2.2474153e+2, -784596.75, -847302.2, -32860.684, -0.043851744, -0.10976109, -770531.2, -33009.637, 0.0, 10.00004, 9.999207 
1.745045e+3, 2.3474073e+2, -817341.7, -813194.9, -35102.95, -0.061604142, -0.112427264, -780104.1, -140573.83, 0.0, 9.999146, 9.999198 
1.7450252e+3, 2.4474022e+2, -790111.5, -680795.8, -34190.92, -0.063722834, -0.11015445, -670982.7, -129446.914, 0.0, 9.998366, 9.999809 
1.7450057e+3, 2.5474e+2, -788168.9, -628671.5, -34053.21, -0.045838993, -0.11456882, -621705.3, -178167.6, 0.0, 9.997705, 9.999812 
1.7449863e+3, 2.647401e+2, -734979.2, -470720.16, -14755.121, -0.032841224, -0.11808012, -469898.84, -124362.336, 0.0, 9.997048, 10.000541 
1.7449671e+3, 2.7474076e+2, -732153.56, -418311.8, -22299.486, -0.03127931, -0.112345755, -416735.25, -169205.2, 0.0, 9.996393, 10.000543 
1.744948e+3, 2.8474167e+2, -700840.75, -320015.9, -11225.09, -0.03322262, -0.08334819, -319685.3, -170164.72, 0.0, 9.995795, 10.0008335 
1.7449291e+3, 2.9474264e+2, -688978.75, -270526.34, -9023.582, -0.023180014, -0.070860304, -270331.84, -218820.94, 0.0, 9.995234, 10.000771 
1.7449099e+3, 3.047421e+2, -684187.0, -149888.5, -34309.13, 0.0031770503, -0.23729147, -147694.4, -147694.4, 0.0, 9.994529, 10.001607 
1.74489e+3, 3.1474572e+2, -703476.75, 5388.892, 71625.26, -0.019886188, -0.04286272, 12553.641, 12553.641, 0.0, 9.9936905, 10.003075 
1.7552684e+3, 1.2478264e+2, -982683.6, -1743004.1, -95186.96, -0.025031667, -0.11653344, -970948.06, 746166.8, 0.060378294, 10.007091, 9.996396 
1.7552492e+3, 1.3477822e+2, -914104.8, -1700954.1, 53369.53, -0.12749721, -0.17329785, -910501.44, 708658.25, 0.03985581, 10.006908, 9.996098 
1.7552315e+3, 1.4477466e+2, -827722.44, -1490629.3, -44240.895, 0.032058906, -0.18786347, -824782.94, 696412.06, 0.020731818, 10.0061865, 9.997217 
1.7552102e+3, 1.5477245e+2, -901940.3, -1476633.4, -42382.395, -0.034597028, -0.13606052, -898831.5, 524384.6, 0.007405709, 10.004914, 9.99725 
1.7551892e+3, 1.6477011e+2, -896417.2, -1381618.5, -53541.734, -0.0767625, -0.111029446, -890579.1, 434660.66, 0.0013795978, 10.004068, 9.997637 
1.7551687e+3, 1.7476763e+2, -851364.0, -1310501.5, -59645.18, -0.04664657, -0.124874614, -843742.2, 383523.94, 0.000061486746, 10.003706, 9.997626 
1.7551482e+3, 1.8476556e+2, -790392.4, -1143242.9, -68062.71, -0.028195715, -0.12781662, -777718.7, 351568.25, 0.0000000010737394, 10.003077, 9.998405 
1.7551272e+3, 1.9476403e+2, -826198.1, -1110068.3, -62255.305, -0.03813103, -0.12485318, -813145.2, 218155.92, 0.0, 10.002159, 9.998402 
1.7551063e+3, 2.0476264e+2, -815023.7, -1013181.3, -61773.6, -0.05381355, -0.119103976, -797343.8, 135970.5, 0.0, 10.001389, 9.998765 
1.7550854e+3, 2.1476145e+2, -806071.06, -959341.2, -65333.715, -0.06946349, -0.11571725, -782001.44, 53324.418, 0.0, 10.000782, 9.9987545 
1.7550649e+3, 2.2476041e+2, -788239.9, -854609.06, -65540.65, -0.062793106, -0.11199258, -747961.6, -10625.012, 0.0, 10.000037, 9.999159 
1.7550445e+3, 2.3475957e+2, -820487.25, -820381.94, -67438.375, -0.034146864, -0.11403374, -752996.2, -113650.44, 0.0, 9.999147, 9.999149 
1.7550237e+3, 2.4475913e+2, -786924.2, -674421.5, -58507.934, -0.041710943, -0.10317319, -649510.1, -108159.61, 0.0, 9.998366, 9.999854 
1.755003e+3, 2.5475916e+2, -784575.2, -622112.4, -57411.527, -0.08505597, -0.087104864, -603872.06, -160521.97, 0.0, 9.997708, 9.999857 
1.754983e+3, 2.6475915e+2, -743923.6, -490655.06, -38447.69, -0.06597729, -0.09770238, -484947.13, -139597.17, 0.0, 9.997052, 10.000402 
1.754964e+3, 2.747592e+2, -742295.06, -439874.5, -45037.676, 0.013328692, -0.13542762, -433309.8, -185960.98, 0.0, 9.996394, 10.000395 
1.7549442e+3, 2.8476012e+2, -683586.3, -284565.94, -31427.996, 0.0054021357, -0.11358159, -282105.75, -132766.03, 0.0, 9.995795, 10.001077 
1.7549238e+3, 2.9476184e+2, -673059.8, -241147.73, -29273.89, -0.07630712, -0.0527065, -239172.66, -187849.28, 0.0, 9.995248, 10.000966 
1.7549044e+3, 3.0476156e+2, -710724.6, -208205.4, -64968.344, 0.009035875, -0.17656954, -199941.84, -199941.84, 0.0, 9.99454, 10.001202 
1.7548837e+3, 3.1476384e+2, -679056.3, 58746.887, 42241.465, -0.02727652, -0.08142165, 61157.46, 61157.46, 0.0, 9.993678, 10.003448 
1.765276e+3, 1.2480249e+2, -888940.6, -1686709.6, -75872.23, -0.009008967, -0.13018952, -881788.9, 835131.7, 0.06382081, 10.007767, 9.996464 
1.765256e+3, 1.3479833e+2, -935195.7, -1704897.9, 69695.14, -0.15142122, -0.1634748, -928935.9, 690026.4, 0.042273507, 10.006746, 9.996148 
1.7652375e+3, 1.447947e+2, -873112.4, -1516677.5, -34752.598, 0.032456502, -0.18624489, -871241.2, 649757.0, 0.022136923, 10.0058975, 9.997173 
1.7652154e+3, 1.5479244e+2, -850144.06, -1456652.1, -32901.473, -0.028048359, -0.13533258, -848364.44, 574655.7, 0.008014239, 10.005301, 9.997199 
1.7651935e+3, 1.6479003e+2, -824657.7, -1355348.8, -26420.46, -0.07101812, -0.10964514, -823345.6, 501698.88, 0.001537179, 10.004602, 9.997558 
1.7651723e+3, 1.7478749e+2, -845194.2, -1316454.1, -23987.078, -0.05136226, -0.12188698, -843976.4, 383095.0, 0.00007465475, 10.00379, 9.997543 
1.7651512e+3, 1.8478535e+2, -805989.56, -1157863.6, -42958.313, -0.036895975, -0.12470479, -800820.94, 328272.03, 0.000000009428086, 10.003001, 9.99834 
1.7651294e+3, 1.9478375e+2, -819207.25, -1114090.9, -51612.07, -0.043435283, -0.12196906, -810434.8, 220673.2, 0.0, 10.002241, 9.998334 
1.7651077e+3, 2.047823e+2, -804118.56, -1010636.25, -48869.832, -0.055302247, -0.11595588, -793137.94, 139983.77, 0.0, 10.001476, 9.99874 
1.7650862e+3, 2.1478109e+2, -818959.06, -967962.0, -46777.5, -0.06760791, -0.11213885, -805491.2, 29642.164, 0.0, 10.000707, 9.998731 
1.7650647e+3, 2.2477998e+2, -808967.5, -873581.1, -49673.43, -0.05914603, -0.10955097, -782019.1, -44874.36, 0.0, 9.999935, 9.999077 
1.7650436e+3, 2.3477902e+2, -825107.75, -831995.0, -55019.742, -0.030503856, -0.114840664, -773423.94, -134268.69, 0.0, 9.999158, 9.9990635 
1.7650223e+3, 2.4477856e+2, -777287.6, -671918.06, -42872.207, -0.04040634, -0.10151191, -656678.5, -115518.02, 0.0, 9.998443, 9.999834 
1.7650007e+3, 2.547787e+2, -772600.4, -618546.8, -47612.58, -0.08878862, -0.07419875, -605019.3, -161859.98, 0.0, 9.997801, 9.999836 
1.7649801e+3, 2.6477867e+2, -738070.56, -486590.13, -28657.66, -0.06724032, -0.08465062, -483365.75, -138206.78, 0.0, 9.9970875, 10.000412 
1.7649604e+3, 2.7477854e+2, -755938.3, -445092.47, -24105.756, 0.022241844, -0.14115049, -443234.22, -196075.25, 0.0, 9.996296, 10.000405 
1.7649399e+3, 2.8477937e+2, -719457.0, -295356.03, -8243.439, 0.0072703287, -0.13275345, -295195.84, -146044.94, 0.0, 9.9955225, 10.001134 
1.7649186e+3, 2.947812e+2, -743127.06, -271723.2, -22115.236, -0.095445804, -0.061836004, -270687.97, -219554.13, 0.0, 9.994756, 10.000992 
1.7648993e+3, 3.047816e+2, -774392.5, -246870.27, -49009.92, 0.057745486, -0.11880281, -242355.6, -242355.6, 0.0, 9.994141, 10.001127 
1.7648771e+3, 3.147824e+2, -664832.1, 90978.305, 61972.25, -0.049725708, -0.16600141, 96025.98, 96025.98, 0.0, 9.9936695, 10.003672 
1.7752837e+3, 1.24822356e+2, -886834.44, -1673260.4, -103018.9, -0.0043988475, -0.18856557, -873563.3, 843162.6, 0.067413196, 10.007754, 9.996571 
1.7752625e+3, 1.3481957e+2, -927442.4, -1685796.0, 32601.4, -0.15789205, -0.09882796, -926043.44, 692711.4, 0.044796884, 10.006752, 9.996276 
1.7752436e+3, 1.4481603e+2, -875893.3, -1522789.0, -57887.465, 0.050481655, -0.117304474, -870754.06, 650036.0, 0.023604373, 10.005904, 9.997129 
1.7752206e+3, 1.5481286e+2, -852659.56, -1463579.8, -54277.492, -0.0362093, -0.15255201, -847874.75, 574946.06, 0.008652458, 10.005309, 9.9971485 
1.775198e+3, 1.6481027e+2, -821545.6, -1350397.8, -56437.406, -0.08440584, -0.14288563, -815589.9, 509256.7, 0.0017052719, 10.004608, 9.99759 
1.7751762e+3, 1.7480834e+2, -842489.8, -1311982.0, -53596.438, -0.045083415, -0.09640657, -836449.06, 390417.9, 0.00008908429, 10.003794, 9.997574 
1.775154e+3, 1.8480624e+2, -822873.7, -1193438.8, -70983.12, -0.036744613, -0.08416143, -809742.0, 319146.3, 0.000000028818846, 10.003002, 9.998096 
1.7751312e+3, 1.9480409e+2, -835728.8, -1149928.1, -78965.9, -0.0771272, -0.11180792, -816999.25, 213910.45, 0.0, 10.002245, 9.998087 
1.7751089e+3, 2.0480242e+2, -800212.3, -1003536.0, -76958.484, -0.08352495, -0.11706576, -774368.3, 158557.34, 0.0, 10.001478, 9.998789 
1.775087e+3, 2.1480134e+2, -815067.6, -960600.25, -74450.34, -0.047296654, -0.10592745, -783729.25, 51206.023, 0.0, 10.000707, 9.998782 
1.7750649e+3, 2.2480021e+2, -817146.25, -890766.94, -78160.23, -0.03496224, -0.10243659, -767562.0, -30615.402, 0.0, 9.999934, 9.9989605 
1.7750424e+3, 2.3479907e+2, -833351.1, -849828.9, -82879.86, -0.051507782, -0.114145614, -758301.6, -119342.3, 0.0, 9.999159, 9.998942 
1.7750205e+3, 2.4479845e+2, -783628.94, -685547.56, -66025.11, -0.060868267, -0.105635054, -652342.8, -111376.516, 0.0, 9.998444, 9.999741 
1.7749988e+3, 2.547985e+2, -779077.44, -633124.56, -70146.54, -0.058082614, -0.077812664, -604878.0, -161911.94, 0.0, 9.997804, 9.999736 
1.7749774e+3, 2.6479858e+2, -726699.2, -464214.4, -57384.203, -0.03818415, -0.07972762, -452217.44, -107253.2, 0.0, 9.997091, 10.000566 
1.7749564e+3, 2.747987e+2, -743091.4, -420727.22, -52130.746, -0.01076831, -0.12756473, -412506.6, -165545.7, 0.0, 9.996303, 10.00057 
1.774935e+3, 2.847993e+2, -727989.44, -314786.5, -36443.953, -0.032938905, -0.14047852, -311596.8, -162642.06, 0.0, 9.995529, 10.000998 
1.7749135e+3, 2.9480073e+2, -753621.1, -293885.25, -50127.73, -0.07747273, -0.1007561, -288483.0, -237539.8, 0.0, 9.994756, 10.000841 
1.7748943e+3, 3.0480206e+2, -753299.06, -202699.45, -63841.41, 0.15065621, -0.06762695, -195394.03, -195394.03, 0.0, 9.994137, 10.001433 
1.7748705e+3, 3.1480253e+2, -664633.6, 89274.76, 9492.894, -0.07577852, -0.18342547, 89394.266, 89394.266, 0.0, 9.993678, 10.003656 
1.7852916e+3, 1.2484352e+2, -894971.9, -1677038.8, -68515.39, 0.016328096, -0.19762623, -889014.75, 827503.9, 0.071164824, 10.007727, 9.996555 
1.7852692e+3, 1.3484092e+2, -898128.06, -1667709.5, 47921.332, -0.16444418, -0.0882911, -895155.5, 723389.94, 0.04742891, 10.00697, 9.996295 
1.7852496e+3, 1.448373e+2, -839450.1, -1511360.6, -37840.367, 0.058426023, -0.11144937, -837325.75, 683255.9, 0.0251346, 10.006202, 9.997063 
1.7852259e+3, 1.5483406e+2, -829395.3, -1460082.9, -35846.453, -0.048858296, -0.14695212, -827364.44, 595249.1, 0.009320041, 10.00551, 9.997074 
1.7852023e+3, 1.6483146e+2, -799053.5, -1333977.5, -45629.746, -0.10165189, -0.13794373, -795189.2, 529450.25, 0.001883438, 10.004742, 9.997638 
1.7851801e+3, 1.7482956e+2, -826587.5, -1298866.4, -42768.652, -0.048982922, -0.0927176, -822745.7, 403913.06, 0.000104594226, 10.003881, 9.997621 
1.7851572e+3, 1.8482742e+2, -816897.75, -1205769.5, -50759.582, -0.03295358, -0.08117556, -810381.25, 318299.25, 0.0000000562377, 10.003112, 9.997957 
1.7851336e+3, 1.9482511e+2, -816820.9, -1156439.0, -52073.66, -0.07316923, -0.10836155, -809015.75, 221688.17, 0.0, 10.002446, 9.997944 
1.7851105e+3, 2.0482339e+2, -778419.94, -992784.4, -54037.375, -0.08236488, -0.11314808, -765568.56, 167152.25, 0.0, 10.001629, 9.998789 
1.7850876e+3, 2.148223e+2, -823661.25, -964761.94, -56044.926, -0.051795505, -0.101336226, -804109.56, 30620.633, 0.0, 10.000649, 9.99878 
1.7850648e+3, 2.2482118e+2, -825553.9, -897595.6, -49707.47, -0.041082524, -0.09670575, -800188.0, -63446.496, 0.0, 9.999889, 9.998935 
1.7850417e+3, 2.3482002e+2, -805277.6, -838688.7, -48446.7, -0.05529404, -0.10762438, -770737.1, -131982.75, 0.0, 9.999364, 9.9989195 
1.785019e+3, 2.448193e+2, -759756.5, -675457.3, -31128.41, -0.057994843, -0.10560611, -665208.75, -124446.76, 0.0, 9.998613, 9.999728 
1.7849967e+3, 2.5481918e+2, -808421.6, -649541.25, -29864.47, -0.04250351, -0.09086067, -644113.1, -201350.22, 0.0, 9.997612, 9.999715 
1.7849746e+3, 2.648193e+2, -770777.25, -486902.28, -15093.929, -0.021540929, -0.087735265, -486102.0, -141341.23, 0.0, 9.996795, 10.000552 
1.7849526e+3, 2.748196e+2, -761007.5, -430846.03, -23427.42, -0.007829944, -0.115574606, -429191.97, -182436.16, 0.0, 9.996187, 10.000557 
1.7849302e+3, 2.848201e+2, -740169.9, -320964.78, -14583.073, -0.04148255, -0.13961542, -320458.1, -171707.13, 0.0, 9.995447, 10.000995 
1.784908e+3, 2.948212e+2, -780863.3, -303514.94, -19193.293, -0.089605525, -0.13018201, -302744.47, -252002.11, 0.0, 9.994554, 10.000873 
1.7848885e+3, 3.0482313e+2, -763788.3, -187477.25, -10246.829, 0.17537391, -0.05184471, -187295.13, -187295.13, 0.0, 9.993978, 10.001615 
1.7848642e+3, 3.148237e+2, -694368.7, 32958.74, 570.3588, -0.07037679, -0.16966711, 32959.188, 32959.188, 0.0, 9.993658, 10.003277 
1.7952995e+3, 1.2486586e+2, -905884.7, -1694570.0, -82342.84, 0.042492636, -0.1634632, -897379.4, 818920.25, 0.07508106, 10.007734, 9.996424 
1.7952761e+3, 1.3486247e+2, -904021.1, -1678381.6, 20495.238, -0.17192656, -0.12687248, -903479.06, 714854.9, 0.05017143, 10.006979, 9.996218 
1.7952558e+3, 1.4485864e+2, -846963.25, -1526328.1, -64025.12, 0.056192666, -0.16207168, -840982.0, 679390.4, 0.026730444, 10.006206, 9.99696 
1.7952311e+3, 1.5485606e+2, -836855.25, -1475726.8, -60122.504, -0.06744752, -0.12012951, -831246.5, 591152.3, 0.010020332, 10.005513, 9.996966 
1.795207e+3, 1.6485356e+2, -795402.8, -1327065.5, -77015.26, -0.12445976, -0.097782396, -784471.4, 539952.3, 0.002072818, 10.004744, 9.997685 
1.7951837e+3, 1.7485113e+2, -821334.9, -1290490.3, -74165.56, -0.06419551, -0.10992084, -809889.75, 416557.38, 0.000121246914, 10.00389, 9.997675 
1.7951603e+3, 1.8484885e+2, -819280.3, -1212789.8, -75431.32, -0.028211562, -0.11368496, -805316.5, 323153.4, 0.000000085167756, 10.0031185, 9.997908 
1.7951365e+3, 1.9484678e+2, -820489.25, -1164580.4, -75767.55, -0.03442138, -0.11118011, -804544.4, 225946.84, 0.0, 10.002445, 9.9978895 
1.7951123e+3, 2.0484513e+2, -782130.1, -1000451.7, -89727.81, -0.053935226, -0.10408387, -749985.7, 182522.05, 0.0, 10.001627, 9.998739 
1.795088e+3, 2.1484393e+2, -826799.7, -972486.44, -91300.1, -0.08123846, -0.09854894, -782844.7, 51673.977, 0.0, 10.000652, 9.998728 
1.7950644e+3, 2.248428e+2, -821474.06, -889944.44, -68748.29, -0.077801205, -0.093499, -778908.4, -42378.426, 0.0, 9.999891, 9.998987 
1.7950411e+3, 2.3484176e+2, -801336.4, -831199.1, -66811.08, -0.044332743, -0.09675794, -747808.5, -109267.414, 0.0, 9.999364, 9.998972 
1.7950179e+3, 2.4484105e+2, -755046.75, -665780.25, -67488.34, -0.034224395, -0.101693206, -629501.2, -88952.92, 0.0, 9.998611, 9.999796 
1.7949943e+3, 2.5484076e+2, -803182.94, -639290.06, -66046.25, -0.044368815, -0.111234814, -615987.6, -173437.5, 0.0, 9.997613, 9.999786 
1.7949714e+3, 2.648408e+2, -783162.44, -514019.25, -36861.984, -0.018897884, -0.10892635, -509061.9, -164512.98, 0.0, 9.996799, 10.000365 
1.7949492e+3, 2.748412e+2, -773890.2, -460232.88, -44144.684, 0.03167011, -0.110072546, -454138.3, -207593.66, 0.0, 9.996197, 10.000352 
1.7949261e+3, 2.848417e+2, -730067.1, -301346.9, -47055.508, -0.017964782, -0.13154599, -296242.94, -147702.84, 0.0, 9.995452, 10.001128 
1.794902e+3, 2.948427e+2, -765869.7, -272819.22, -50625.945, -0.14080948, -0.1435073, -267674.66, -217143.7, 0.0, 9.994554, 10.001084 
1.794882e+3, 3.0484465e+2, -760709.7, -182119.63, -19037.447, 0.118606225, -0.07968847, -181493.9, -181493.9, 0.0, 9.99398, 10.001651 
1.7948586e+3, 3.148463e+2, -732118.4, -49897.75, -62950.93, -0.007987629, -0.08093845, -44137.676, -44137.676, 0.0, 9.993675, 10.0027 
1.8053076e+3, 1.2488867e+2, -835014.6, -1675992.8, -51980.047, 0.045641594, -0.15273014, -831814.0, 884262.3, 0.07915919, 10.008372, 9.996254 
1.8052831e+3, 1.3488498e+2, -868625.3, -1671974.6, 32075.045, -0.19081333, -0.13375984, -867346.7, 750766.9, 0.053027514, 10.007306, 9.996104 
1.8052621e+3, 1.4488105e+2, -825106.94, -1513833.8, -41977.863, 0.058241, -0.17423037, -822557.8, 697595.2, 0.02839803, 10.006366, 9.996966 
1.8052366e+3, 1.5487868e+2, -820325.1, -1467038.9, -30063.6, -0.060411874, -0.11020542, -818930.56, 603246.44, 0.010758989, 10.005631, 9.996968 
1.8052118e+3, 1.6487615e+2, -781336.0, -1332128.4, -50634.02, -0.12084447, -0.08664767, -776719.94, 547482.4, 0.0022756613, 10.004895, 9.997576 
1.8051876e+3, 1.748734e+2, -789018.7, -1287050.1, -60768.5, -0.07676896, -0.118898384, -781711.1, 444518.03, 0.00013934569, 10.004168, 9.997563 
1.8051633e+3, 1.8487106e+2, -783884.25, -1181622.3, -63714.05, -0.039763115, -0.12800108, -773927.1, 354325.06, 0.00000010953618, 10.003304, 9.998031 
1.8051387e+3, 1.9486924e+2, -833586.75, -1156632.1, -51919.887, -0.02601214, -0.11522125, -825447.25, 204823.19, 0.0, 10.002296, 9.998014 
1.805114e+3, 2.0486759e+2, -808498.3, -1027747.1, -58996.92, -0.04268469, -0.10554577, -793631.2, 138655.63, 0.0, 10.001511, 9.998606 
1.8050888e+3, 2.148662e+2, -791998.5, -970346.25, -67859.055, -0.08615957, -0.10536046, -769115.1, 65185.418, 0.0, 10.0009575, 9.998593 
1.8050642e+3, 2.2486506e+2, -779172.9, -857415.3, -48283.715, -0.08242748, -0.09908269, -756150.8, -19838.781, 0.0, 10.000131, 9.999095 
1.8050405e+3, 2.3486422e+2, -844971.5, -840243.94, -42546.063, -0.030736431, -0.09346299, -799996.06, -161675.52, 0.0, 9.999013, 9.999078 
1.8050164e+3, 2.4486355e+2, -811824.7, -695730.94, -40035.016, -0.020346195, -0.097722694, -683263.7, -142936.7, 0.0, 9.998233, 9.999773 
1.8049918e+3, 2.5486317e+2, -776587.5, -628916.56, -46698.863, -0.050807897, -0.116583355, -615388.06, -173057.9, 0.0, 9.9978075, 9.9997635 
1.8049681e+3, 2.6486313e+2, -745395.44, -499702.75, -19972.84, -0.025980541, -0.117840916, -498089.7, -153759.73, 0.0, 9.997075, 10.00033 
1.8049455e+3, 2.7486348e+2, -805095.4, -480290.7, -16482.037, 0.050197363, -0.11520026, -479456.47, -233130.2, 0.0, 9.996003, 10.000308 
1.8049215e+3, 2.8486413e+2, -776443.44, -310981.8, -11956.906, 0.011588445, -0.12416595, -310674.88, -162354.78, 0.0, 9.995078, 10.001242 
1.8048966e+3, 2.9486546e+2, -781906.8, -261280.8, -16934.596, -0.12597859, -0.119385876, -260730.53, -210423.22, 0.0, 9.994362, 10.001255 
1.8048753e+3, 3.0486697e+2, -782493.0, -180014.72, 30466.922, 0.065055065, -0.11191107, -178477.95, -178477.95, 0.0, 9.993779, 10.001761 
1.8048522e+3, 3.1486964e+2, -802065.2, -91008.6, -50916.883, 0.02203535, -0.022483842, -87381.086, -87381.086, 0.0, 9.993228, 10.002635 
1.8153158e+3, 1.24911934e+2, -853243.94, -1704818.5, -72570.484, 0.023388956, -0.16285004, -847103.8, 868744.8, 0.083396845, 10.008368, 9.996043 
1.81529e+3, 1.3490841e+2, -879704.0, -1693237.3, -5027.041, -0.22500537, -0.11282376, -879672.94, 738211.8, 0.056005273, 10.007314, 9.995955 
1.8152684e+3, 1.4490446e+2, -818970.06, -1500715.5, -69257.984, 0.05878535, -0.1516452, -812005.4, 707918.6, 0.03014687, 10.006373, 9.997058 
1.8152426e+3, 1.549019e+2, -813494.06, -1453382.9, -56445.42, -0.0311879, -0.11593883, -808553.06, 613395.56, 0.011542063, 10.005636, 9.997061 
1.815217e+3, 1.6489919e+2, -799417.9, -1370887.6, -77454.62, -0.09450424, -0.101925075, -789106.06, 534869.75, 0.0024944488, 10.004899, 9.99731 
1.8151917e+3, 1.7489631e+2, -807633.4, -1326346.5, -86409.89, -0.08836423, -0.11960906, -793617.5, 432387.8, 0.00015936114, 10.0041685, 9.997294 
1.8151663e+3, 1.8489401e+2, -764175.06, -1141398.9, -100289.57, -0.06823228, -0.12482762, -739169.44, 388858.34, 0.00000012908751, 10.003304, 9.998308 
1.8151408e+3, 1.9489238e+2, -812253.75, -1114695.5, -88595.07, -0.04745463, -0.121168435, -788212.4, 241829.84, 0.0, 10.002304, 9.998301 
1.8151154e+3, 2.048907e+2, -823038.6, -1059760.8, -79266.51, -0.049357295, -0.11788776, -798947.9, 133110.78, 0.0, 10.001516, 9.998384 
1.8150899e+3, 2.1488905e+2, -807931.0, -1003823.7, -87255.29, -0.06965797, -0.121723995, -774702.0, 59374.45, 0.0, 10.000957, 9.998365 
1.8150645e+3, 2.2488791e+2, -768241.4, -834328.8, -89051.97, -0.05795464, -0.11279782, -706300.2, 29788.104, 0.0, 10.000127, 9.999256 
1.8150397e+3, 2.3488733e+2, -832650.5, -815836.8, -82990.87, -0.014895045, -0.09718763, -740828.06, -102734.86, 0.0, 9.999016, 9.999246 
1.8150146e+3, 2.4488676e+2, -819958.3, -713940.25, -55197.527, -0.016601214, -0.09482012, -690420.06, -150321.3, 0.0, 9.998237, 9.999647 
1.8149894e+3, 2.5488627e+2, -785030.6, -648261.7, -60875.41, -0.06426098, -0.1087019, -625091.56, -182987.75, 0.0, 9.997812, 9.999629 
1.8149652e+3, 2.648862e+2, -736442.3, -481868.44, -58957.793, -0.04495798, -0.11539049, -468877.13, -124772.57, 0.0, 9.997077, 10.000453 
1.8149413e+3, 2.7488655e+2, -796530.75, -462145.34, -55759.773, 0.042684726, -0.12873572, -453092.34, -206991.44, 0.0, 9.996, 10.000435 
1.8149169e+3, 2.848875e+2, -769073.56, -297595.3, -37655.758, 0.04362373, -0.116150856, -294606.78, -146515.61, 0.0, 9.995083, 10.001333 
1.8148918e+3, 2.948894e+2, -770358.3, -243105.34, -40094.07, -0.04065666, -0.060014237, -240073.89, -190001.83, 0.0, 9.994383, 10.001371 
1.8148686e+3, 3.048901e+2, -770062.4, -155883.8, 10362.19, 0.015225725, -0.15221336, -155709.03, -155709.03, 0.0, 9.993787, 10.001923 
1.8148449e+3, 3.1489223e+2, -761536.75, -4666.7207, -90742.17, -0.027408596, -0.12429853, 6060.4443, 6060.4443, 0.0, 9.993215, 10.003236 
1.8253238e+3, 1.24936074e+2, -844771.56, -1706494.8, -32252.465, -0.0082673635, -0.16807961, -843566.06, 872046.0, 0.08779636, 10.008499, 9.995966 
1.8252975e+3, 1.3493271e+2, -831223.0, -1670853.6, 23898.822, -0.2274699, -0.09700414, -830543.3, 787103.0, 0.05911364, 10.007702, 9.995921 
1.8252751e+3, 1.4492866e+2, -773536.9, -1489592.0, -39602.188, 0.078641936, -0.13950789, -771353.3, 748333.1, 0.03198563, 10.006759, 9.996949 
1.8252483e+3, 1.5492567e+2, -802317.1, -1460025.4, -39965.78, -0.034201648, -0.13447022, -799897.5, 621817.75, 0.012374348, 10.005774, 9.996947 
1.8252216e+3, 1.6492288e+2, -798021.75, -1366579.1, -53541.766, -0.09842258, -0.12334267, -793023.6, 530719.5, 0.0027312867, 10.004897, 9.997338 
1.8251958e+3, 1.749203e+2, -813151.6, -1325888.6, -42677.707, -0.07264038, -0.11447508, -809623.6, 416146.13, 0.00018178244, 10.00412, 9.997319 
1.8251698e+3, 1.8491803e+2, -763492.44, -1149953.0, -63012.91, -0.053795114, -0.11392979, -753477.6, 374314.44, 0.00000015151502, 10.003349, 9.998226 
1.8251432e+3, 1.9491616e+2, -776162.6, -1106310.8, -78857.984, -0.05614056, -0.12519935, -758294.0, 271515.06, 0.0, 10.002594, 9.998217 
1.8251169e+3, 2.0491442e+2, -793747.75, -1043684.8, -71132.81, -0.06000488, -0.12531695, -774921.25, 156904.98, 0.0, 10.001712, 9.9984 
1.8250906e+3, 2.1491286e+2, -845037.7, -1019520.75, -61939.133, -0.06058546, -0.12080233, -825286.06, 8557.015, 0.0, 10.000694, 9.998383 
1.8250646e+3, 2.2491173e+2, -797692.0, -844298.3, -60223.754, -0.04900743, -0.113201916, -756420.1, -20565.568, 0.0, 9.9999075, 9.999292 
1.8250386e+3, 2.3491107e+2, -780631.44, -785926.1, -64902.098, -0.026570486, -0.1091193, -718322.7, -80462.87, 0.0, 9.999355, 9.999287 
1.825013e+3, 2.449105e+2, -776141.1, -695340.44, -34989.887, -0.021825498, -0.107255794, -682294.75, -142429.33, 0.0, 9.99855, 9.999622 
1.8249874e+3, 2.5491008e+2, -835792.94, -675772.25, -33015.52, -0.035527736, -0.111309364, -669228.1, -227357.77, 0.0, 9.997478, 9.999601 
1.824962e+3, 2.649101e+2, -791357.1, -491235.6, -29546.629, -0.023826635, -0.11471164, -488354.44, -144484.14, 0.0, 9.996628, 10.000605 
1.824937e+3, 2.7491054e+2, -786299.56, -439900.25, -26006.512, 0.016451398, -0.12895574, -437958.66, -192093.83, 0.0, 9.995998, 10.0005865 
1.824912e+3, 2.849116e+2, -745157.0, -282119.78, -7486.0854, 0.034008022, -0.11810143, -281998.78, -134144.75, 0.0, 9.995232, 10.001368 
1.8248866e+3, 2.949134e+2, -782539.56, -244023.05, -15276.471, 0.023466479, -0.07380664, -243590.03, -193754.58, 0.0, 9.994279, 10.001416 
1.8248618e+3, 3.04914e+2, -841224.2, -170413.42, 33606.5, -0.011144842, -0.18740325, -168734.0, -168734.0, 0.0, 9.993217, 10.002096 
1.824838e+3, 3.1491622e+2, -855857.25, 21549.852, -56634.535, 0.010013319, -0.16725749, 25190.371, 25190.371, 0.0, 9.992258, 10.003878 
1.8353318e+3, 1.24961026e+2, -847240.7, -1702842.0, -41414.21, -0.060691316, -0.16904527, -845240.75, 870126.56, 0.09236333, 10.008499, 9.995995 
1.8353054e+3, 1.3495786e+2, -830612.8, -1662487.8, -4940.324, -0.20077312, -0.08442514, -830583.5, 786815.25, 0.06235876, 10.007696, 9.995982 
1.8352823e+3, 1.4495361e+2, -795360.06, -1532532.8, -76356.67, 0.11532455, -0.13515082, -787534.1, 731906.8, 0.033920165, 10.006756, 9.996653 
1.8352537e+3, 1.5494998e+2, -822423.1, -1503278.5, -74592.21, -0.07012088, -0.16511856, -814346.9, 607130.25, 0.013259422, 10.00578, 9.996649 
1.8352263e+3, 1.6494721e+2, -777165.25, -1325198.4, -81327.375, -0.13326468, -0.1507647, -765351.06, 558153.56, 0.002987981, 10.004905, 9.99762 
1.8352003e+3, 1.749453e+2, -791910.4, -1283824.5, -70736.73, -0.03259044, -0.104298145, -781940.56, 443582.8, 0.00020710516, 10.004127, 9.997606 
1.8351735e+3, 1.8494304e+2, -792938.0, -1212772.5, -90663.38, -0.0013257855, -0.09557576, -774195.9, 353350.06, 0.00000018976193, 10.003354, 9.997794 
1.8351458e+3, 1.9494052e+2, -806287.0, -1170300.6, -105461.305, -0.05439123, -0.1270557, -777940.4, 251630.94, 0.0, 10.002598, 9.997777 
1.8351184e+3, 2.0493867e+2, -776578.1, -1008885.56, -107770.055, -0.075565815, -0.12773566, -734282.9, 197307.02, 0.0, 10.001713, 9.998639 
1.8350913e+3, 2.1493755e+2, -826708.7, -983277.2, -98465.086, -0.059270974, -0.10386346, -779200.25, 54400.836, 0.0, 10.0007, 9.998631 
1.8350644e+3, 2.2493643e+2, -803926.6, -858338.8, -80034.945, -0.05637409, -0.102281444, -746600.06, -10988.354, 0.0, 9.99991, 9.999196 
1.8350376e+3, 2.3493536e+2, -787355.94, -800695.9, -84042.48, -0.06807649, -0.12955347, -709719.2, -72098.06, 0.0, 9.999356, 9.999186 
1.8350112e+3, 2.449347e+2, -771276.8, -684913.94, -74056.33, -0.03759647, -0.1349317, -642369.2, -102741.59, 0.0, 9.998548, 9.999697 
1.8349855e+3, 2.5493452e+2, -829757.44, -663525.44, -71689.555, 0.034401458, -0.12366278, -636879.6, -195249.16, 0.0, 9.997478, 9.999687 
1.8349592e+3, 2.6493475e+2, -779238.9, -467605.06, -52128.285, 0.035986397, -0.115672015, -459116.56, -115488.79, 0.0, 9.996631, 10.000767 
1.8349326e+3, 2.7493554e+2, -774206.44, -417569.44, -47423.703, -0.030451056, -0.11616401, -411371.0, -165752.22, 0.0, 9.996007, 10.000737 
1.8349066e+3, 2.8493634e+2, -744920.6, -284317.66, -42463.895, -0.019465677, -0.13334596, -280435.56, -132825.83, 0.0, 9.995241, 10.0013485 
1.8348813e+3, 2.9493734e+2, -783589.2, -247912.4, -51871.14, 0.057422906, -0.16746618, -242935.81, -193337.02, 0.0, 9.994285, 10.001388 
1.834855e+3, 3.0493876e+2, -830631.3, -147565.33, -5670.0454, -0.014702534, -0.20586716, -147518.27, -147518.27, 0.0, 9.993212, 10.002256 
1.8348306e+3, 3.1494132e+2, -827033.8, 78079.39, -50004.895, 0.054314032, -0.17301418, 80833.64, 80833.64, 0.0, 9.992265, 10.004267 
1.8453403e+3, 1.2498676e+2, -806205.56, -1678547.8, -12576.52, -0.0693904, -0.1592218, -806024.25, 909090.44, 0.097106256, 10.008838, 9.996016 
1.8453132e+3, 1.3498324e+2, -847657.94, -1666795.5, 1297.297, -0.19664046, -0.11308404, -847655.9, 769492.94, 0.0657483, 10.00758, 9.996007 
1.8452889e+3, 1.4497897e+2, -816125.4, -1546522.0, -52119.05, 0.120623656, -0.16433147, -812425.06, 706766.0, 0.03595701, 10.006641, 9.996609 
1.8452594e+3, 1.5497556e+2, -783664.2, -1489395.3, -33695.188, -0.07715161, -0.1658738, -782059.06, 639166.6, 0.014201555, 10.00608, 9.996598 
1.8452312e+3, 1.6497286e+2, -719430.8, -1291220.9, -44665.523, -0.13844325, -0.14563185, -715962.8, 607289.94, 0.003266662, 10.0052805, 9.997671 
1.8452045e+3, 1.7497084e+2, -771536.44, -1268121.1, -51330.598, -0.027484773, -0.11452458, -766286.0, 458985.88, 0.00023597742, 10.004244, 9.997656 
1.845177e+3, 1.8496852e+2, -798623.06, -1223793.0, -60804.516, 0.005016826, -0.10967011, -790098.2, 337196.8, 0.00000025167606, 10.003353, 9.997717 
1.8451484e+3, 1.9496599e+2, -809921.2, -1180630.5, -50784.426, -0.054959875, -0.1335928, -803090.0, 226231.16, 0.0, 10.002612, 9.997698 
1.8451202e+3, 2.0496415e+2, -758448.56, -999620.7, -54483.13, -0.07827315, -0.12995385, -746711.5, 184628.55, 0.0, 10.001837, 9.998642 
1.8450922e+3, 2.1496305e+2, -778911.6, -959656.1, -63548.906, -0.059785057, -0.10447889, -758804.94, 74545.914, 0.0, 10.001028, 9.998633 
1.8450645e+3, 2.2496188e+2, -771693.0, -848088.25, -46124.273, -0.055068724, -0.1039295, -750003.2, -14641.373, 0.0, 10.000157, 9.999146 
1.8450369e+3, 2.3496072e+2, -811194.25, -817866.1, -47328.477, -0.064959966, -0.13491759, -767084.3, -129711.91, 0.0, 9.99922, 9.999132 
1.8450098e+3, 2.4496004e+2, -794170.06, -686591.44, -42081.203, -0.03092274, -0.14194705, -672086.4, -132707.48, 0.0, 9.998352, 9.999779 
1.8449831e+3, 2.5495994e+2, -813899.6, -645558.44, -40428.46, 0.046377297, -0.13082035, -636352.6, -194971.97, 0.0, 9.997545, 9.999776 
1.844956e+3, 2.6496026e+2, -779276.94, -461806.22, -21401.506, 0.045907654, -0.12180355, -460370.0, -116992.99, 0.0, 9.99661, 10.000814 
1.8449284e+3, 2.7496108e+2, -837247.25, -443198.94, -24913.086, -0.029107017, -0.12064764, -441630.1, -196262.78, 0.0, 9.995556, 10.000777 
1.8449016e+3, 2.849618e+2, -815271.7, -314930.8, -21183.732, -0.02058757, -0.1509118, -314035.53, -166676.4, 0.0, 9.994746, 10.001376 
1.8448755e+3, 2.9496258e+2, -808400.0, -256349.33, -32167.56, 0.060086206, -0.21181323, -254481.28, -205130.89, 0.0, 9.9941025, 10.001414 
1.8448481e+3, 3.049646e+2, -840025.8, -148017.05, 4696.6396, -0.012088076, -0.18982592, -147985.19, -147985.19, 0.0, 9.9931345, 10.002288 
1.8448232e+3, 3.149664e+2, -853601.5, 52804.246, -791.59265, 0.09088549, -0.23813047, 52804.938, 52804.938, 0.0, 9.992136, 10.004155 
1.8553494e+3, 1.2501326e+2, -808999.94, -1676620.1, -35084.363, -0.046100993, -0.13814539, -807583.5, 907271.06, 0.10203993, 10.008846, 9.996028 
1.8553205e+3, 1.3500886e+2, -849776.9, -1666994.1, -41239.906, -0.21849799, -0.18087436, -847701.06, 769195.44, 0.06929704, 10.007586, 9.996005 
1.8552953e+3, 1.4500473e+2, -806889.06, -1524164.5, -71907.99, 0.09243224, -0.22539166, -799751.25, 719185.9, 0.038107295, 10.006641, 9.996765 
1.8552656e+3, 1.5500237e+2, -773953.9, -1467624.9, -52862.78, -0.058924098, -0.13802958, -769948.5, 651013.5, 0.015207783, 10.006078, 9.99675 
1.8552367e+3, 1.6499974e+2, -730771.44, -1315453.0, -82534.1, -0.11821176, -0.10809773, -719344.2, 603644.1, 0.003570663, 10.005281, 9.997505 
1.8552084e+3, 1.7499688e+2, -782060.25, -1292037.0, -88558.41, -0.056272797, -0.14383623, -767119.6, 457896.1, 0.0002693541, 10.004251, 9.99749 
1.85518e+3, 1.8499444e+2, -780869.8, -1188514.1, -87327.375, -0.033020444, -0.15471, -762949.9, 364089.84, 0.0000003514084, 10.003358, 9.997958 
1.8551509e+3, 1.9499251e+2, -792117.06, -1144960.1, -77107.484, -0.05861096, -0.14505562, -776002.56, 253056.97, 0.0, 10.002615, 9.997942 
1.855122e+3, 2.0499076e+2, -774422.94, -1033721.75, -83973.43, -0.070232436, -0.13231319, -749603.9, 181473.7, 0.0, 10.001839, 9.998408 
1.8550931e+3, 2.1498926e+2, -795254.7, -994381.1, -92289.39, -0.06419685, -0.121964745, -759060.2, 74032.836, 0.0, 10.001029, 9.998396 
1.8550646e+3, 2.2498801e+2, -772755.06, -850299.3, -80054.31, -0.046488576, -0.117546506, -722577.94, 12527.578, 0.0, 10.000155, 9.999133 
1.8550365e+3, 2.3498707e+2, -811739.1, -820033.2, -80885.0, -0.017925618, -0.12553898, -734894.94, -97780.57, 0.0, 9.999222, 9.999118 
1.8550083e+3, 2.4498644e+2, -788251.2, -675256.75, -71494.2, -0.0036797072, -0.1295483, -640631.2, -101511.08, 0.0, 9.998354, 9.999857 
1.8549801e+3, 2.549863e+2, -807762.56, -634148.25, -69504.86, -0.003475091, -0.13308086, -609751.06, -168629.25, 0.0, 9.997549, 9.999853 
1.8549521e+3, 2.6498652e+2, -784622.25, -473570.1, -60504.02, 0.004991321, -0.1335915, -462215.7, -119096.805, 0.0, 9.996611, 10.000734 
1.8549243e+3, 2.7498716e+2, -842768.75, -454957.8, -62083.02, 0.021067444, -0.14222665, -445261.66, -200150.31, 0.0, 9.995556, 10.000698 
1.8548967e+3, 2.849879e+2, -810946.3, -307493.53, -44739.73, 0.027868968, -0.16979422, -303548.63, -156445.56, 0.0, 9.99475, 10.001427 
1.8548693e+3, 2.9498896e+2, -802639.06, -247663.45, -59154.773, 0.024019323, -0.20486099, -241428.2, -192337.0, 0.0, 9.994113, 10.001471 
1.8548413e+3, 3.0499142e+2, -843007.75, -157241.38, -37022.035, 0.0031061592, -0.14109848, -155248.48, -155248.48, 0.0, 9.993147, 10.002219 
1.8548155e+3, 3.1499317e+2, -906187.0, -60966.08, 3905.6099, 0.098988205, -0.18368328, -60948.03, -60948.03, 0.0, 9.992153, 10.003366 
1.8653587e+3, 1.2504055e+2, -776997.4, -1665409.1, 22281.555, -0.024057075, -0.16275197, -776438.9, 938146.8, 0.10718739, 10.009166, 9.99596 
1.865328e+3, 1.3503622e+2, -805431.0, -1652938.5, -10018.731, -0.23409614, -0.18891495, -805312.56, 811314.94, 0.07302555, 10.007984, 9.995909 
1.8653017e+3, 1.450321e+2, -766035.0, -1494213.6, -27353.152, 0.06300261, -0.23199804, -765008.94, 753659.2, 0.04038534, 10.006908, 9.996845 
1.8652718e+3, 1.5502971e+2, -783517.8, -1463143.4, -12189.792, -0.04561073, -0.1540883, -783299.25, 637393.25, 0.016286679, 10.0059805, 9.996825 
1.8652421e+3, 1.6502702e+2, -754330.7, -1333723.0, -44667.492, -0.09792154, -0.12877047, -750907.3, 571811.94, 0.0039041128, 10.005154, 9.99744 
1.8652126e+3, 1.7502409e+2, -760491.3, -1289092.4, -45340.86, -0.07045956, -0.16507366, -756630.4, 468117.53, 0.0003083946, 10.004433, 9.997421 
1.8651831e+3, 1.8502168e+2, -745433.25, -1163073.0, -46746.535, -0.05407299, -0.17379874, -740264.9, 386507.0, 0.00000050835786, 10.003567, 9.998032 
1.8651535e+3, 1.9501987e+2, -795794.4, -1138461.8, -49403.797, -0.057542868, -0.15804441, -788813.9, 239976.22, 0.0, 10.002557, 9.998014 
1.8651238e+3, 2.0501815e+2, -795146.44, -1046790.2, -49766.0, -0.059361976, -0.14299853, -785662.0, 145145.72, 0.0, 10.001712, 9.998379 
1.8650943e+3, 2.150166e+2, -797059.7, -998663.25, -44459.863, -0.056649163, -0.13436809, -787690.3, 45133.723, 0.0, 10.001034, 9.998363 
1.8650648e+3, 2.2501536e+2, -768878.56, -847500.44, -32488.008, -0.036723074, -0.12873034, -757191.25, -22354.352, 0.0, 10.00018, 9.99914 
1.8650357e+3, 2.3501445e+2, -822169.0, -824150.3, -32412.244, -0.0012881318, -0.13201454, -790732.3, -153886.8, 0.0, 9.999148, 9.999124 
1.8650065e+3, 2.4501386e+2, -798800.25, -677002.0, -15765.345, 0.000962438, -0.13341723, -674994.44, -136143.55, 0.0, 9.99827, 9.999883 
1.8649775e+3, 2.550137e+2, -808137.6, -632067.7, -19055.328, -0.026607372, -0.13716286, -630029.0, -189176.84, 0.0, 9.997539, 9.999871 
1.8649486e+3, 2.6501387e+2, -786966.4, -485832.34, -24260.68, -0.011974576, -0.1390181, -483890.34, -141040.23, 0.0, 9.996645, 10.000632 
1.8649201e+3, 2.750144e+2, -847295.44, -466606.3, -28022.463, 0.038217016, -0.14959088, -464554.66, -219710.16, 0.0, 9.995569, 10.000609 
1.8648915e+3, 2.8501517e+2, -829791.25, -310183.56, 1452.1815, 0.03705061, -0.16989546, -310179.5, -163343.72, 0.0, 9.994597, 10.00148 
1.8648629e+3, 2.9501644e+2, -851770.1, -265368.3, -14282.461, 0.001917121, -0.1915951, -265020.66, -216199.02, 0.0, 9.993753, 10.001521 
1.864835e+3, 3.0501866e+2, -858694.75, -173249.6, 2381.0852, 0.058175, -0.14651576, -173241.33, -173241.33, 0.0, 9.993077, 10.002141 
1.864807e+3, 3.1502065e+2, -886128.4, -98295.49, 56388.926, 0.03892051, -0.15548088, -94279.94, -94279.94, 0.0, 9.9924965, 10.002941 
1.8753679e+3, 1.2506856e+2, -794064.6, -1687927.9, 1127.7697, -0.012604667, -0.2290594, -794063.25, 920245.94, 0.11257818, 10.009156, 9.995793 
1.8753359e+3, 1.3506517e+2, -821005.3, -1682485.0, -50120.074, -0.2460457, -0.14007868, -818099.1, 798244.1, 0.07695631, 10.007991, 9.995705 
1.8753082e+3, 1.4506094e+2, -764698.75, -1491241.4, -59522.375, 0.029515568, -0.18551174, -759854.6, 758530.3, 0.042805128, 10.006923, 9.996861 
1.8752778e+3, 1.5505753e+2, -782496.94, -1460614.0, -44270.2, -0.038764007, -0.21184829, -779619.06, 640798.7, 0.017445859, 10.005983, 9.996843 
1.8752474e+3, 1.6505468e+2, -754126.9, -1333571.5, -70407.18, -0.07969941, -0.20508915, -745694.5, 576751.44, 0.004270936, 10.005154, 9.997443 
1.8752171e+3, 1.7505239e+2, -760044.7, -1289287.1, -70763.82, -0.07284246, -0.17814577, -750746.4, 473723.0, 0.00035432045, 10.004435, 9.99742 
1.8751866e+3, 1.8505011e+2, -750920.4, -1176003.1, -83536.805, -0.061618716, -0.16669331, -735093.1, 391399.16, 0.000000733184, 10.003571, 9.997942 
1.875156e+3, 1.9504799e+2, -801076.25, -1151484.0, -85666.09, -0.053481057, -0.17247286, -781254.3, 247259.16, 0.0, 10.0025625, 9.997924 
1.8751256e+3, 2.0504627e+2, -783939.56, -1024880.25, -73915.39, -0.046687413, -0.16204068, -763071.3, 167459.83, 0.0, 10.001716, 9.9985285 
1.8750954e+3, 2.1504499e+2, -786635.06, -977622.0, -68304.05, -0.038121976, -0.14217848, -764721.4, 67823.43, 0.0, 10.001034, 9.998508 
1.8750651e+3, 2.2504379e+2, -767301.75, -844380.1, -70278.445, -0.027327985, -0.13803379, -725689.0, 8867.852, 0.0, 10.000178, 9.999163 
1.8750347e+3, 2.3504278e+2, -820278.44, -820956.3, -69530.94, -0.01718715, -0.15423334, -751085.6, -114519.09, 0.0, 9.999149, 9.999146 
1.8750046e+3, 2.4504222e+2, -801253.44, -683092.4, -42129.098, -0.017652962, -0.15375137, -669610.0, -131038.08, 0.0, 9.998272, 9.999842 
1.874975e+3, 2.5504217e+2, -810721.9, -639848.0, -44942.855, -0.023936402, -0.14294623, -628748.25, -188175.81, 0.0, 9.997546, 9.999815 
1.8749452e+3, 2.650423e+2, -795447.1, -505402.28, -64041.875, -0.0069520115, -0.1382399, -491891.22, -149319.8, 0.0, 9.996652, 10.000496 
1.8749154e+3, 2.7504274e+2, -854419.4, -483913.72, -67651.48, 0.019273613, -0.14339367, -471947.56, -227379.81, 0.0, 9.995578, 10.000487 
1.8748857e+3, 2.8504363e+2, -825319.4, -301974.0, -30418.092, 0.004891711, -0.14975953, -300211.97, -153653.98, 0.0, 9.9946, 10.001535 
1.8748565e+3, 2.9504502e+2, -849881.4, -259937.47, -43542.773, -0.008691813, -0.16618645, -256740.97, -208199.11, 0.0, 9.993745, 10.001564 
1.874829e+3, 3.050462e+2, -864724.5, -190217.8, -17773.03, 0.1531322, -0.21956576, -189749.8, -189749.8, 0.0, 9.993091, 10.002021 
1.8747991e+3, 3.1504914e+2, -866283.7, -68795.69, 8978.971, -0.009164522, -0.1212045, -68694.61, -68694.61, 0.0, 9.992546, 10.00312 
1.8853769e+3, 1.2509815e+2, -793440.6, -1690586.6, 45672.19, -0.029062197, -0.24099375, -791121.56, 922896.2, 0.11824469, 10.009237, 9.995733 
1.8853442e+3, 1.3509473e+2, -799676.4, -1677368.9, -13602.012, -0.21116577, -0.14766148, -799465.7, 816587.0, 0.0811092, 10.008212, 9.995631 
1.8853155e+3, 1.4509037e+2, -728336.4, -1474508.1, -13020.689, 0.038397655, -0.1988486, -728109.2, 789986.25, 0.04537644, 10.007209, 9.996843 
1.8852837e+3, 1.5508696e+2, -747166.4, -1445434.5, -662.9042, -0.05972815, -0.22415517, -747165.7, 672962.3, 0.018689634, 10.006248, 9.996819 
1.8852523e+3, 1.6508406e+2, -735357.75, -1331875.5, -24803.031, -0.0983331, -0.21633142, -734328.25, 587828.56, 0.004673784, 10.005319, 9.997374 
1.8852215e+3, 1.7508171e+2, -768440.3, -1301194.4, -30858.813, -0.066089585, -0.18656334, -766658.8, 457522.47, 0.00040821458, 10.004414, 9.997348 
1.8851902e+3, 1.8507944e+2, -747936.3, -1171546.6, -44242.402, -0.047922503, -0.17273806, -743364.94, 382839.38, 0.0000010250507, 10.003581, 9.997966 
1.8851587e+3, 1.9507734e+2, -760779.6, -1129611.0, -39317.5, -0.0490452, -0.17680445, -756634.94, 271589.7, 0.0, 10.002831, 9.997943 
1.8851273e+3, 2.0507559e+2, -757672.0, -1012213.7, -29960.484, -0.047559578, -0.16957094, -754193.1, 176049.5, 0.0, 10.001899, 9.998527 
1.8850961e+3, 2.1507421e+2, -822867.9, -995219.3, -36345.996, -0.040868603, -0.15742771, -815516.7, 16740.725, 0.0, 10.000788, 9.998506 
1.885065e+3, 2.2507307e+2, -799000.3, -853490.1, -39169.926, -0.032348774, -0.15037915, -778531.8, -44262.586, 0.0, 9.999937, 9.999215 
1.8850338e+3, 2.3507227e+2, -789650.56, -800194.9, -37097.86, -0.025137015, -0.15275498, -757452.1, -121174.83, 0.0, 9.999337, 9.999197 
1.885003e+3, 2.4507177e+2, -780336.4, -670732.4, -12838.047, -0.023156218, -0.14885734, -669248.7, -130966.54, 0.0, 9.998408, 9.99986 
1.8849723e+3, 2.550716e+2, -866965.5, -665261.44, -11675.389, -0.019337328, -0.14639442, -664587.9, -224304.55, 0.0, 9.997156, 9.999827 
1.8849416e+3, 2.6507175e+2, -857844.9, -538479.8, -17925.309, 0.0028496198, -0.1427011, -537476.8, -195194.0, 0.0, 9.996239, 10.000466 
1.884911e+3, 2.7507228e+2, -848220.8, -483446.2, -15351.273, 0.022523502, -0.13635898, -482801.28, -238522.27, 0.0, 9.995633, 10.0004635 
1.88488e+3, 2.850733e+2, -809488.4, -279901.94, 20075.363, -0.012275455, -0.13241658, -279142.03, -132874.14, 0.0, 9.994649, 10.001662 
1.8848497e+3, 2.9507473e+2, -900604.1, -274654.0, 14738.683, -0.03447219, -0.15445942, -274307.16, -226056.42, 0.0, 9.993359, 10.001647 
1.8848221e+3, 3.0507553e+2, -949278.06, -250251.56, 54996.914, 0.19337, -0.24201386, -245951.05, -245951.05, 0.0, 9.992594, 10.001848 
1.884791e+3, 3.15079e+2, -928519.7, -54957.945, 25155.184, -0.04087917, -0.07171172, -54234.176, -54234.176, 0.0, 9.991939, 10.003504 
1.8953857e+3, 1.251292e+2, -797136.2, -1688252.4, 26293.285, -0.07808937, -0.20116812, -796361.06, 917351.44, 0.124209896, 10.00925, 9.995748 
1.8953532e+3, 1.351248e+2, -803626.1, -1674509.9, -47281.07, -0.13655604, -0.20774443, -801066.75, 814689.56, 0.08549474, 10.008198, 9.99566 
1.895323e+3, 1.4512035e+2, -736529.06, -1484709.0, -46691.074, 0.08125047, -0.26841915, -733626.5, 784173.75, 0.04810206, 10.007195, 9.9967785 
1.8952894e+3, 1.5511785e+2, -752778.56, -1456789.3, -34492.285, -0.10925915, -0.19307889, -751092.7, 668731.8, 0.020018702, 10.006252, 9.99674 
1.8952571e+3, 1.6511506e+2, -744031.2, -1352505.3, -57490.125, -0.15346444, -0.16395196, -738647.0, 583205.75, 0.005114005, 10.005329, 9.997229 
1.895226e+3, 1.75112e+2, -777246.8, -1321614.0, -63201.53, -0.051744528, -0.19181009, -770005.4, 453879.13, 0.00047095682, 10.00442, 9.997206 
1.895194e+3, 1.8510956e+2, -738964.56, -1154463.5, -71297.34, -0.015723677, -0.19309342, -727070.75, 398838.03, 0.000001363125, 10.003585, 9.998083 
1.8951616e+3, 1.9510785e+2, -752623.6, -1113528.4, -65978.41, -0.0454595, -0.17157465, -740940.06, 286984.63, 0.0, 10.002832, 9.9980545 
1.8951291e+3, 2.0510603e+2, -768950.56, -1036107.2, -70518.53, -0.06293475, -0.16547108, -751479.1, 178463.84, 0.0, 10.001898, 9.998364 
1.8950967e+3, 2.1510424e+2, -834219.0, -1019346.56, -76073.7, -0.066602916, -0.18013194, -806969.3, 24993.344, 0.0, 10.000788, 9.998342 
1.8950647e+3, 2.2510314e+2, -793115.8, -842141.4, -60632.32, -0.05262673, -0.16598225, -752228.6, -18253.854, 0.0, 9.999938, 9.999294 
1.8950333e+3, 2.351028e+2, -784080.44, -790077.44, -58269.23, -0.025771879, -0.12764515, -728732.6, -92754.07, 0.0, 9.999341, 9.999266 
1.8950014e+3, 2.4510242e+2, -774957.06, -660684.1, -58991.02, -0.016585518, -0.11848552, -635695.6, -97713.35, 0.0, 9.998411, 9.999928 
1.8949695e+3, 2.5510204e+2, -861277.25, -654671.9, -57120.133, -0.01462538, -0.14787024, -639931.56, -199946.06, 0.0, 9.997159, 9.9999 
1.894938e+3, 2.6510212e+2, -851431.2, -527038.5, -39327.64, 0.016462142, -0.15369841, -522338.72, -180353.66, 0.0, 9.996244, 10.000545 
1.8949068e+3, 2.7510288e+2, -841106.5, -472471.5, -37796.04, 0.04501507, -0.12949708, -468636.2, -224657.23, 0.0, 9.995646, 10.000534 
1.8948747e+3, 2.8510413e+2, -795280.2, -251713.06, -28051.873, -0.015968418, -0.11884425, -250269.22, -104303.234, 0.0, 9.994654, 10.001855 
1.8948427e+3, 2.9510558e+2, -893579.25, -260426.84, -26542.379, -0.07475359, -0.15734164, -259316.11, -211367.31, 0.0, 9.993358, 10.001747 
1.8948145e+3, 3.0510664e+2, -965932.7, -288352.84, 36931.918, 0.16736971, -0.20661351, -286345.78, -286345.78, 0.0, 9.992603, 10.001585 
1.8947835e+3, 3.1510904e+2, -886755.75, 33255.426, -74578.15, 0.026048224, -0.124789394, 39261.684, 39261.684, 0.0, 9.991935, 10.004111 
1.905395e+3, 1.2516081e+2, -782450.0, -1691988.4, 61021.53, -0.07267493, -0.206024, -778374.3, 935027.25, 0.13045824, 10.009486, 9.995605 
1.9053614e+3, 1.351562e+2, -809595.2, -1683852.0, -30043.078, -0.117104, -0.22444001, -808564.0, 806883.56, 0.090098515, 10.008221, 9.995584 
1.90533e+3, 1.4515163e+2, -740472.44, -1488257.6, -19467.61, 0.06759432, -0.29173043, -739966.0, 777526.94, 0.050972767, 10.007197, 9.996752 
1.9052957e+3, 1.5514937e+2, -741768.44, -1454809.3, -5838.305, -0.105804585, -0.19036162, -741720.6, 677794.5, 0.021429544, 10.006355, 9.996703 
1.9052626e+3, 1.6514656e+2, -720796.0, -1348814.6, -22462.53, -0.14260288, -0.1551394, -719993.6, 601549.9, 0.0055915667, 10.0055275, 9.997157 
1.9052304e+3, 1.7514329e+2, -735440.44, -1309235.8, -24123.848, -0.049339786, -0.198021, -734428.0, 489149.44, 0.00054314046, 10.004744, 9.997134 
1.9051978e+3, 1.8514074e+2, -705035.2, -1136685.1, -35870.766, -0.019980054, -0.20525853, -702074.56, 423528.0, 0.0000017374603, 10.003815, 9.998094 
1.9051641e+3, 1.9513907e+2, -765298.44, -1118796.6, -39447.46, -0.05331441, -0.17926283, -760949.9, 266668.06, 0.0, 10.002744, 9.998059 
1.9051307e+3, 2.0513728e+2, -784135.06, -1044224.6, -44063.7, -0.07008077, -0.17051493, -776872.7, 152763.39, 0.0, 10.0018, 9.998355 
1.9050975e+3, 2.1513547e+2, -806929.6, -1006843.6, -39221.656, -0.06954132, -0.18505959, -799510.0, 32146.07, 0.0, 10.00098, 9.998333 
1.9050647e+3, 2.2513439e+2, -780597.2, -831951.9, -15503.989, -0.053694572, -0.16953163, -776279.5, -42611.445, 0.0, 10.000009, 9.999329 
1.9050322e+3, 2.3513411e+2, -847235.56, -816839.1, -16868.752, -0.027499797, -0.12802663, -809331.8, -173660.4, 0.0, 9.998894, 9.999297 
1.9049995e+3, 2.4513379e+2, -829247.44, -677801.4, -22446.457, -0.018302543, -0.11711353, -674544.56, -136869.9, 0.0, 9.998002, 10.000007 
1.9049667e+3, 2.5513348e+2, -832800.44, -631995.7, -20917.664, -0.013033393, -0.14636666, -629839.8, -190162.5, 0.0, 9.997319, 9.999978 
1.9049343e+3, 2.6513368e+2, -827171.94, -499367.53, 1151.3083, 0.021579364, -0.15415318, -499363.47, -157687.64, 0.0, 9.996345, 10.000685 
1.9049022e+3, 2.7513453e+2, -913140.75, -490662.56, 6177.921, 0.050746627, -0.13495989, -490572.22, -246904.03, 0.0, 9.995085, 10.000678 
1.9048691e+3, 2.851358e+2, -874217.75, -284409.03, 11201.666, -0.0069241617, -0.12879384, -284196.38, -138541.25, 0.0, 9.994092, 10.0019 
1.9048363e+3, 2.9513726e+2, -891807.8, -263452.6, 5482.35, -0.050324436, -0.16727677, -263404.78, -215765.97, 0.0, 9.99339, 10.001709 
1.9048065e+3, 3.0513895e+2, -955032.56, -257127.69, 86450.89, 0.12466213, -0.15959056, -246578.31, -246578.31, 0.0, 9.992566, 10.001819 
1.9047754e+3, 3.151403e+2, -964018.94, 40823.65, -56182.41, 0.058510985, -0.21317692, 43955.14, 43955.14, 0.0, 9.991219, 10.004505 
1.9154048e+3, 1.2519293e+2, -809996.6, -1731457.5, 27374.91, -0.029306268, -0.25123957, -809184.1, 903901.44, 0.13691144, 10.009453, 9.995332 
1.9153693e+3, 1.3518885e+2, -824369.44, -1709145.8, -70913.93, -0.15052614, -0.19963467, -818721.8, 796405.56, 0.094869785, 10.008222, 9.995414 
1.9153364e+3, 1.4518414e+2, -741180.56, -1488475.1, -47414.816, 0.00033577593, -0.2701947, -738184.1, 778990.06, 0.053963926, 10.007212, 9.996746 
1.9153024e+3, 1.5518141e+2, -743203.2, -1456481.6, -35528.035, -0.055646315, -0.21452819, -741437.94, 677762.75, 0.022913493, 10.006356, 9.996693 
1.9152687e+3, 1.6517851e+2, -722678.7, -1351856.0, -51011.184, -0.07409245, -0.1884569, -718569.75, 602659.8, 0.006104637, 10.005524, 9.99714 
1.915235e+3, 1.7517547e+2, -737554.1, -1312688.4, -51730.43, -0.060418174, -0.20434795, -732938.25, 490322.44, 0.0006250737, 10.004737, 9.997115 
1.9152011e+3, 1.8517293e+2, -712918.56, -1152586.4, -74601.46, -0.060793027, -0.20748253, -700605.3, 424681.0, 0.0000022172317, 10.003809, 9.997989 
1.9151667e+3, 1.9517097e+2, -772486.75, -1134453.0, -77952.59, -0.07371783, -0.19885774, -756412.75, 270892.44, 0.0, 10.002744, 9.997953 
1.9151326e+3, 2.0516925e+2, -774858.7, -1026009.1, -73407.89, -0.07020769, -0.18452166, -754976.5, 174346.3, 0.0, 10.001801, 9.99848 
1.9150986e+3, 2.1516784e+2, -798106.44, -988980.94, -68201.37, -0.051263392, -0.17283015, -776241.94, 55096.43, 0.0, 10.000979, 9.998457 
1.9150648e+3, 2.2516677e+2, -781623.1, -834376.06, -56197.094, -0.03738254, -0.16142188, -745920.3, -12570.359, 0.0, 10.000008, 9.999314 
1.9150311e+3, 2.3516612e+2, -847689.3, -818471.75, -56988.297, -0.032519802, -0.15410332, -774249.56, -138892.84, 0.0, 9.998894, 9.999287 
1.9149972e+3, 2.4516581e+2, -823419.75, -667000.9, -46910.836, -0.02934863, -0.14572735, -654010.9, -116650.71, 0.0, 9.998005, 10.000081 
1.9149639e+3, 2.551659e+2, -826556.56, -621466.94, -45309.88, -0.01732547, -0.141804, -611902.75, -172543.22, 0.0, 9.997327, 10.000048 
1.9149305e+3, 2.6516628e+2, -811919.4, -469455.28, -45481.56, 0.015864603, -0.14266805, -463517.97, -122162.37, 0.0, 9.996349, 10.00089 
1.9148971e+3, 2.7516705e+2, -897613.6, -459826.53, -40169.746, 0.03739944, -0.15277469, -456171.22, -212823.86, 0.0, 9.995088, 10.000891 
1.9148634e+3, 2.851682e+2, -881218.56, -300377.53, -14054.058, 0.01570081, -0.16557147, -300037.7, -154701.61, 0.0, 9.994096, 10.001789 
1.9148305e+3, 2.951697e+2, -901281.8, -288741.06, -14886.53, 0.042253263, -0.19106686, -288379.5, -241057.52, 0.0, 9.993411, 10.001527 
1.9147983e+3, 3.0517253e+2, -898654.94, -144224.66, 44139.984, 0.052021485, -0.09294248, -141650.9, -141650.9, 0.0, 9.992579, 10.002589 
1.9147663e+3, 3.1517413e+2, -972738.75, 27163.533, -133593.45, 0.029986672, -0.20972331, 44704.76, 44704.76, 0.0, 9.991199, 10.004422 
1.9254144e+3, 1.25226e+2, -853397.06, -1736852.9, 33220.75, -0.008364614, -0.2526416, -852149.6, 860612.6, 0.14344126, 10.009094, 9.995465 
1.9253774e+3, 1.3522235e+2, -806055.2, -1666793.5, -43512.895, -0.14993545, -0.18492042, -803861.1, 810937.56, 0.099731095, 10.008266, 9.995679 
1.9253434e+3, 1.4521763e+2, -726163.75, -1499140.4, -5133.5796, -0.039530225, -0.26244676, -726129.6, 790715.9, 0.057038683, 10.00743, 9.996561 
1.925309e+3, 1.5521443e+2, -727125.25, -1468947.0, -6062.892, -0.04264255, -0.23192169, -727075.75, 691801.3, 0.024456289, 10.006569, 9.996504 
1.9252744e+3, 1.6521145e+2, -707896.5, -1331764.9, -25664.57, -0.047651697, -0.20922995, -706842.5, 614064.1, 0.006649155, 10.005575, 9.9972515 
1.9252396e+3, 1.752087e+2, -771392.25, -1316978.6, -18920.924, -0.06576723, -0.20693646, -770736.8, 452197.34, 0.0007168831, 10.004456, 9.99722 
1.9252044e+3, 1.8520617e+2, -760097.1, -1185496.6, -34838.656, -0.07460266, -0.2063642, -757262.9, 367696.6, 0.000002967966, 10.003532, 9.997894 
1.9251694e+3, 1.9520402e+2, -771088.6, -1144151.8, -38084.14, -0.07167472, -0.20828357, -767240.5, 259740.73, 0.0, 10.002801, 9.997858 
1.9251344e+3, 2.0520231e+2, -756702.06, -1003551.75, -35843.56, -0.063434675, -0.19398475, -751602.75, 177396.05, 0.0, 10.00187, 9.998599 
1.9250993e+3, 2.1520111e+2, -822752.2, -987908.4, -32752.088, -0.051316593, -0.17172185, -816494.25, 14517.367, 0.0, 10.000757, 9.99857 
1.9250646e+3, 2.2520004e+2, -806113.4, -845045.75, -18533.436, -0.041678455, -0.16433026, -798701.7, -65678.98, 0.0, 9.999837, 9.999322 
1.9250299e+3, 2.351992e+2, -818068.7, -803227.8, -18277.35, -0.037328016, -0.17665015, -790922.0, -155890.78, 0.0, 9.999095, 9.999294 
1.9249953e+3, 2.451989e+2, -811289.7, -656133.4, -10636.146, -0.03039092, -0.17121847, -655407.6, -118372.625, 0.0, 9.998069, 10.000124 
1.9249609e+3, 2.551992e+2, -903464.25, -653488.4, -12438.594, -0.012474246, -0.1501686, -652870.94, -213837.94, 0.0, 9.996779, 10.000091 
1.9249265e+3, 2.6519978e+2, -875669.75, -484049.16, -13657.79, 0.012820323, -0.14200202, -483573.4, -142546.17, 0.0, 9.995846, 10.00103 
1.9248919e+3, 2.752006e+2, -866123.94, -428922.75, -14609.01, 0.020802332, -0.15902705, -428435.13, -185417.55, 0.0, 9.995239, 10.001028 
1.9248576e+3, 2.8520167e+2, -859022.7, -296648.44, 7639.1597, 0.029594896, -0.18096279, -296544.7, -151537.61, 0.0, 9.994281, 10.001725 
1.9248243e+3, 2.9520318e+2, -969044.1, -327384.0, 13341.878, 0.112635516, -0.19536674, -327106.7, -280113.03, 0.0, 9.992976, 10.00147 
1.9247898e+3, 3.0520633e+2, -948745.25, -109905.02, 69846.016, -0.02423286, -0.092618264, -104129.06, -104129.06, 0.0, 9.991988, 10.003108 
1.924758e+3, 3.152081e+2, -994383.9, -5884.9424, -128357.38, 0.08240876, -0.24167271, 10510.433, 10510.433, 0.0, 9.991151, 10.004216 
1.9354232e+3, 1.2525994e+2, -832064.8, -1674477.5, 8856.337, -0.012490463, -0.21951781, -831971.7, 880460.8, 0.1499277, 10.009088, 9.995942 
1.9353859e+3, 1.3525665e+2, -772083.25, -1580128.9, -69159.74, -0.12305526, -0.17966537, -766206.7, 848255.44, 0.10460791, 10.008259, 9.9963045 
1.9353504e+3, 1.4525194e+2, -752640.3, -1550355.3, -34316.676, -0.05899654, -0.26716882, -751166.75, 765341.25, 0.06015915, 10.007425, 9.996207 
1.9353153e+3, 1.5524836e+2, -752760.5, -1520352.6, -35449.203, -0.065686725, -0.24178365, -751126.9, 667418.2, 0.026042037, 10.006562, 9.996156 
1.9352798e+3, 1.6524532e+2, -693819.44, -1302405.9, -65795.516, -0.062252775, -0.21583521, -686787.44, 633787.7, 0.0072202836, 10.005575, 9.997456 
1.9352439e+3, 1.7524286e+2, -756620.8, -1288167.6, -59183.324, -0.067379355, -0.2060693, -750111.0, 472487.75, 0.0008187148, 10.004461, 9.9974165 
1.9352081e+3, 1.852404e+2, -765787.25, -1199050.8, -61247.066, -0.06471256, -0.20352085, -757295.6, 367327.6, 0.0000042314364, 10.003536, 9.997801 
1.9351724e+3, 1.9523813e+2, -776797.56, -1156501.4, -63826.54, -0.04981174, -0.20897473, -766355.75, 260291.28, 0.0, 10.0028, 9.997775 
1.9351362e+3, 2.0523638e+2, -750667.7, -991365.9, -76184.9, -0.052076675, -0.19923194, -728580.7, 200084.3, 0.0, 10.001868, 9.998686 
1.9350998e+3, 2.1523522e+2, -816673.0, -975952.5, -72229.37, -0.07138114, -0.1805049, -788797.3, 41879.23, 0.0, 10.000757, 9.998653 
1.935064e+3, 2.2523417e+2, -804031.2, -841917.7, -45198.813, -0.06724275, -0.17741081, -773966.5, -41279.453, 0.0, 9.999839, 9.999343 
1.9350289e+3, 2.3523329e+2, -815873.8, -799929.9, -44777.945, -0.04363141, -0.1954658, -762419.8, -127724.0, 0.0, 9.999098, 9.999316 
1.9349934e+3, 2.4523295e+2, -811243.75, -657407.94, -58205.125, -0.022820525, -0.19315964, -637867.56, -101167.52, 0.0, 9.998072, 10.000115 
1.9349578e+3, 2.5523323e+2, -902435.06, -652848.6, -59292.363, 0.0003997906, -0.17323951, -639479.1, -200780.38, 0.0, 9.996783, 10.000095 
1.9349223e+3, 2.6523393e+2, -870418.0, -474300.63, -35435.645, 0.011629673, -0.15422699, -471155.63, -130463.9, 0.0, 9.995849, 10.001097 
1.934887e+3, 2.7523503e+2, -861680.9, -422231.0, -36086.125, -0.004408769, -0.15255953, -419287.44, -176607.83, 0.0, 9.995247, 10.001072 
1.9348519e+3, 2.8523615e+2, -858774.56, -299799.84, -41255.96, 0.03045676, -0.17253305, -296771.28, -152102.52, 0.0, 9.994292, 10.001699 
1.9348177e+3, 2.9523772e+2, -961375.0, -316607.72, -33434.613, 0.15953395, -0.1791549, -314878.6, -268224.03, 0.0, 9.992993, 10.001537 
1.9347811e+3, 3.0524015e+2, -927439.6, -66761.41, 42852.633, -0.10524906, -0.16982347, -64633.066, -64633.066, 0.0, 9.991991, 10.003404 
1.9347493e+3, 3.1524348e+2, -1002410.56, -28401.838, -93367.54, 0.113145374, -0.18580918, -19532.48, -19532.48, 0.0, 9.99117, 10.004056 
1.9454318e+3, 1.2529486e+2, -859550.75, -1677755.1, 59183.676, -0.041616295, -0.21170674, -855291.94, 856799.2, 0.1563185, 10.008885, 9.996014 
1.9453947e+3, 1.3529164e+2, -755090.44, -1549396.0, -40391.688, -0.071108684, -0.1865164, -753041.75, 861077.5, 0.10945775, 10.008326, 9.996509 
1.945358e+3, 1.4528717e+2, -743280.6, -1545622.8, -15755.397, -0.041144963, -0.25871292, -742971.3, 773191.2, 0.063297935, 10.007521, 9.996192 
1.9453216e+3, 1.5528357e+2, -778647.4, -1534051.0, 3449.0374, -0.07859299, -0.23133337, -778631.6, 639568.4, 0.027657986, 10.006397, 9.996139 
1.9452852e+3, 1.6528048e+2, -715528.25, -1316535.6, -21553.99, -0.075534284, -0.21126273, -714756.25, 605474.7, 0.007814024, 10.005449, 9.997416 
1.9452485e+3, 1.7527783e+2, -726619.06, -1277555.4, -32251.371, -0.059553612, -0.21288522, -724737.56, 497518.4, 0.0009305648, 10.004688, 9.997378 
1.9452117e+3, 1.8527539e+2, -727925.56, -1174649.4, -35541.66, -0.053294268, -0.20936394, -725115.5, 399164.7, 0.0000062649424, 10.003774, 9.997852 
1.9451751e+3, 1.9527327e+2, -785573.6, -1154789.1, -29402.367, -0.04953925, -0.20301403, -783246.9, 243055.61, 0.0, 10.002718, 9.997825 
1.9451381e+3, 2.0527153e+2, -757750.3, -992666.25, -41257.027, -0.05449869, -0.19504648, -750715.25, 177604.88, 0.0, 10.001814, 9.998701 
1.9451007e+3, 2.1527024e+2, -773178.6, -953284.75, -43391.824, -0.0699918, -0.1903493, -763269.6, 67062.945, 0.0, 10.001051, 9.998667 
1.9450639e+3, 2.2526917e+2, -777518.25, -830235.56, -22318.445, -0.06932928, -0.18848477, -769338.6, -36995.32, 0.0, 10.000029, 9.99933 
1.9450276e+3, 2.3526838e+2, -863846.06, -823866.5, -25546.58, -0.05408888, -0.1964059, -811418.3, -177066.72, 0.0, 9.9987755, 9.999305 
1.9449912e+3, 2.452681e+2, -854659.56, -673370.5, -39799.266, -0.025480019, -0.18767029, -665018.0, -128662.7, 0.0, 9.997757, 10.000155 
1.9449547e+3, 2.5526845e+2, -875238.0, -635077.2, -37582.496, 0.017194044, -0.16517337, -629333.3, -190979.94, 0.0, 9.996952, 10.0001335 
1.9449182e+3, 2.652691e+2, -851319.3, -465515.53, -8925.915, 0.01785906, -0.15255304, -465309.13, -124962.305, 0.0, 9.995984, 10.001091 
1.9448817e+3, 2.7527002e+2, -921092.56, -452184.6, -15956.8545, -0.026755849, -0.16625945, -451642.22, -209305.86, 0.0, 9.994849, 10.001056 
1.9448459e+3, 2.8527114e+2, -904072.2, -315969.9, -24370.75, 0.023450147, -0.18405645, -314961.72, -170636.72, 0.0, 9.993961, 10.001746 
1.944811e+3, 2.9527307e+2, -907308.0, -272728.1, -11598.263, 0.18410864, -0.16261415, -272516.2, -226209.17, 0.0, 9.993293, 10.001693 
1.9447726e+3, 3.0527514e+2, -917290.2, -64738.918, 45722.574, -0.13763666, -0.20077494, -62293.813, -62293.813, 0.0, 9.99208, 10.003372 
1.9447404e+3, 3.1527942e+2, -1115115.1, -88150.72, -42504.16, 0.1572549, -0.10717551, -86394.55, -86394.55, 0.0, 9.990424, 10.004004 
1.9554402e+3, 1.2533069e+2, -881080.3, -1714302.9, 36348.617, -0.101041436, -0.22872189, -879497.6, 832242.1, 0.16264178, 10.008902, 9.995716 
1.9554037e+3, 1.3532728e+2, -770177.56, -1571325.8, -55752.598, 0.0007472869, -0.20253067, -766316.3, 847454.1, 0.11428728, 10.008324, 9.996343 
1.9553661e+3, 1.4532326e+2, -729020.75, -1508927.3, -52455.703, 0.006965272, -0.23699662, -725508.44, 790301.1, 0.06645096, 10.007518, 9.996449 
1.9553278e+3, 1.5531999e+2, -761936.75, -1497727.8, -36073.945, -0.0852578, -0.20279644, -760172.4, 657670.7, 0.029299453, 10.006402, 9.9963875 
1.9552904e+3, 1.6531673e+2, -733273.94, -1355048.4, -48928.234, -0.08963152, -0.19717872, -729447.25, 590428.4, 0.008427833, 10.005456, 9.99715 
1.9552533e+3, 1.7531353e+2, -743979.9, -1314604.0, -58811.484, -0.04423372, -0.22701399, -737981.5, 483925.03, 0.0010519568, 10.00469, 9.997125 
1.9552156e+3, 1.8531106e+2, -716143.8, -1150692.3, -73032.25, -0.043088336, -0.22236222, -704198.06, 419732.94, 0.000009233491, 10.003773, 9.998019 
1.9551775e+3, 1.9530937e+2, -774188.3, -1131927.0, -66606.06, -0.07144457, -0.18941408, -762189.56, 263758.75, 0.0, 10.002718, 9.997984 
1.9551396e+3, 2.0530768e+2, -762067.1, -1002885.56, -68455.9, -0.0708715, -0.18173683, -743967.94, 183997.38, 0.0, 10.001816, 9.9986315 
1.955102e+3, 2.1530606e+2, -777510.56, -963106.56, -70516.01, -0.049162436, -0.20208758, -753758.25, 76222.64, 0.0, 10.001052, 9.9986 
1.9550641e+3, 2.2530496e+2, -781413.44, -839099.3, -68148.32, -0.05028537, -0.19812101, -736255.6, -4263.1426, 0.0, 10.000029, 9.999271 
1.9550261e+3, 2.3530439e+2, -867451.75, -831872.75, -70689.734, -0.0701877, -0.17916512, -776768.44, -142768.81, 0.0, 9.998775, 9.999252 
1.9549888e+3, 2.4530429e+2, -848855.9, -662650.56, -68961.16, -0.039504264, -0.15445372, -639892.4, -103890.695, 0.0, 9.99776, 10.000229 
1.9549517e+3, 2.5530478e+2, -869615.2, -625575.06, -66506.36, 0.034821805, -0.12419299, -608627.56, -170629.94, 0.0, 9.996959, 10.000197 
1.9549143e+3, 2.6530516e+2, -857330.5, -480047.97, -51123.594, 0.02933604, -0.1357006, -473243.22, -133249.88, 0.0, 9.995989, 10.000991 
1.9548762e+3, 2.7530542e+2, -926226.9, -466091.7, -57577.32, -0.04716345, -0.2050079, -458996.38, -217006.98, 0.0, 9.994859, 10.000958 
1.9548395e+3, 2.853066e+2, -894402.3, -298934.38, -49764.81, 0.0065619703, -0.21795247, -294804.03, -150827.0, 0.0, 9.993972, 10.00186 
1.9548044e+3, 2.9530925e+2, -889537.0, -240096.63, -36967.645, 0.17766063, -0.13984747, -237999.13, -192047.63, 0.0, 9.993307, 10.001912 
1.9547649e+3, 3.053111e+2, -946619.4, -126851.56, -20453.115, -0.11512123, -0.18885012, -126341.58, -126341.58, 0.0, 9.992084, 10.002945 
1.9547303e+3, 3.1531376e+2, -1092885.0, -51785.05, -19182.584, 0.110225335, -0.20873865, -51431.723, -51431.723, 0.0, 9.990456, 10.004244 
1.9654495e+3, 1.2536782e+2, -827889.8, -1689553.9, 64255.074, -0.074579045, -0.22392014, -823124.6, 888251.3, 0.16896881, 10.009419, 9.995663 
1.9654119e+3, 1.3536426e+2, -777068.3, -1574683.5, -7748.086, -0.0062787654, -0.21036018, -776993.06, 836415.44, 0.11914162, 10.008321, 9.996318 
1.965373e+3, 1.4536044e+2, -745552.2, -1513633.3, -8813.415, -0.029606935, -0.22028899, -745451.06, 769994.4, 0.06963792, 10.007416, 9.99646 
1.9653344e+3, 1.5535702e+2, -733444.3, -1481982.8, -10583.156, -0.060691513, -0.20090443, -733294.7, 684185.56, 0.030969875, 10.006611, 9.996393 
1.9652963e+3, 1.6535369e+2, -699506.3, -1339717.8, -19112.537, -0.056683525, -0.20185617, -698936.25, 620577.1, 0.009059642, 10.0057, 9.997136 
1.9652578e+3, 1.7535052e+2, -742487.94, -1314535.4, -12784.932, -0.05321362, -0.22917087, -742202.4, 479341.72, 0.0011815723, 10.004708, 9.997114 
1.9652191e+3, 1.8534805e+2, -719250.4, -1147762.4, -28388.58, -0.06202672, -0.22394574, -717377.8, 406190.3, 0.000013150075, 10.0037365, 9.998054 
1.9651802e+3, 1.9534637e+2, -762576.7, -1122655.6, -31848.791, -0.070930615, -0.1920225, -759781.4, 265803.75, 0.0, 10.002786, 9.998013 
1.9651414e+3, 2.0534459e+2, -759045.44, -1009568.94, -31259.291, -0.06495265, -0.18839307, -755203.94, 172398.89, 0.0, 10.001875, 9.998554 
1.9651029e+3, 2.1534283e+2, -790045.5, -976880.25, -35643.13, -0.05049509, -0.21636605, -783476.7, 46143.5, 0.0, 10.001002, 9.998528 
1.9650641e+3, 2.2534175e+2, -784921.56, -835597.5, -42981.383, -0.04925685, -0.20680939, -760365.5, -28733.92, 0.0, 9.999987, 9.999313 
1.965025e+3, 2.3534139e+2, -853753.5, -820671.5, -38607.52, -0.058184575, -0.1700095, -795210.75, -161574.0, 0.0, 9.998852, 9.99929 
1.9649866e+3, 2.4534126e+2, -838093.1, -662098.8, -24853.943, -0.034697793, -0.14727096, -658656.25, -123017.3, 0.0, 9.997856, 10.000185 
1.9649485e+3, 2.553415e+2, -871218.3, -630490.0, -32716.566, 0.016330851, -0.1366284, -626122.8, -188485.77, 0.0, 9.99697, 10.000155 
1.96491e+3, 2.6534185e+2, -859245.8, -486091.16, -27857.373, 0.012842323, -0.14805223, -484022.94, -144389.52, 0.0, 9.996003, 10.000939 
1.9648713e+3, 2.7534226e+2, -915655.44, -466238.7, -30990.32, -0.03513529, -0.19652292, -464111.75, -222483.28, 0.0, 9.994959, 10.000906 
1.9648336e+3, 2.853434e+2, -901791.25, -302566.8, -17403.674, 0.012541258, -0.20959088, -302061.78, -158445.53, 0.0, 9.993924, 10.001856 
1.964797e+3, 2.953457e+2, -945648.4, -259296.66, -14990.834, 0.1341127, -0.1631394, -258969.39, -213376.33, 0.0, 9.992893, 10.001977 
1.9647571e+3, 3.0534768e+2, -998512.3, -160312.03, -16655.521, -0.07778717, -0.2036118, -159981.2, -159981.2, 0.0, 9.991769, 10.002865 
1.9647206e+3, 3.1535032e+2, -1059854.8, -21540.766, 65061.203, 0.0846722, -0.20962536, -17479.883, -17479.883, 0.0, 9.990622, 10.004371 
1.9754599e+3, 1.2540603e+2, -823482.06, -1669339.3, 19892.197, 0.020124966, -0.20648597, -823014.5, 887987.25, 0.17537329, 10.00943, 9.995829 
1.9754194e+3, 1.3540241e+2, -776269.2, -1563190.4, -40568.543, -0.08651704, -0.20999616, -774183.25, 838851.4, 0.12407082, 10.008317, 9.996411 
1.9753793e+3, 1.4539865e+2, -763305.3, -1548411.9, -33812.688, -0.14305954, -0.20631734, -761851.75, 753219.3, 0.07288359, 10.007416, 9.996223 
1.9753416e+3, 1.5539466e+2, -748100.7, -1513912.1, -37348.234, -0.009002262, -0.22206408, -746283.56, 670828.44, 0.03267541, 10.006621, 9.996171 
1.9753025e+3, 1.6539131e+2, -685299.4, -1311712.9, -54528.316, 0.015500753, -0.22220798, -680588.2, 638556.5, 0.009707731, 10.005708, 9.997327 
1.9752622e+3, 1.753886e+2, -729762.9, -1288446.4, -48056.39, -0.08652981, -0.21971342, -725659.4, 495510.34, 0.0013174315, 10.004707, 9.997294 
1.9752222e+3, 1.8538618e+2, -725868.25, -1162194.1, -62469.94, -0.108612195, -0.21525154, -717100.44, 406092.72, 0.000017832392, 10.0037365, 9.997956 
1.975183e+3, 1.9538414e+2, -768177.4, -1136421.3, -65348.645, -0.05053163, -0.21049117, -756924.5, 268289.4, 0.0, 10.002792, 9.997916 
1.9751436e+3, 2.053822e+2, -765040.4, -1023840.4, -62223.72, -0.039925564, -0.21436852, -750857.1, 176376.47, 0.0, 10.00188, 9.998457 
1.9751035e+3, 2.1538043e+2, -796778.5, -990606.9, -66407.164, -0.07490586, -0.23190832, -776209.6, 53041.777, 0.0, 10.0009985, 9.998437 
1.9750638e+3, 2.2537947e+2, -776191.75, -818012.94, -84049.5, -0.06677903, -0.21375448, -710490.75, 20770.809, 0.0, 9.999986, 9.999436 
1.9750242e+3, 2.3537931e+2, -845371.25, -804841.1, -79009.28, -0.020163948, -0.16933571, -743539.4, -110275.38, 0.0, 9.998855, 9.999399 
1.9749846e+3, 2.4537894e+2, -849575.75, -687875.1, -57439.953, -0.012960118, -0.16650362, -669548.25, -134279.94, 0.0, 9.997861, 10.000008 
1.9749448e+3, 2.553785e+2, -881946.1, -655357.8, -65474.414, -0.041363984, -0.20450464, -637799.1, -200526.05, 0.0, 9.996978, 9.999983 
1.9749056e+3, 2.6537904e+2, -858688.75, -487449.3, -67203.98, -0.03352652, -0.19043882, -475658.16, -136389.83, 0.0, 9.996012, 10.000928 
1.9748665e+3, 2.7538043e+2, -915668.06, -469175.7, -69810.44, 0.009325007, -0.1372188, -458515.16, -217260.89, 0.0, 9.994968, 10.000883 
1.9748276e+3, 2.8538144e+2, -910916.56, -323609.2, -56575.273, 0.03901569, -0.15646179, -318208.97, -174965.42, 0.0, 9.99393, 10.001711 
1.9747888e+3, 2.953823e+2, -951260.25, -275974.97, -53722.504, 0.043386735, -0.24014549, -271727.78, -226493.89, 0.0, 9.99291, 10.001856 
1.9747494e+3, 3.053847e+2, -980746.94, -127286.664, -65452.04, -0.018501258, -0.24437745, -122296.32, -122296.32, 0.0, 9.991782, 10.003086 
1.9747114e+3, 3.153884e+2, -1074670.0, -58585.496, 12172.247, 0.10870748, -0.16342722, -58439.7, -58439.7, 0.0, 9.9906435, 10.004109 
1.9854693e+3, 1.2544562e+2, -818145.5, -1673552.6, 57575.87, 0.012750341, -0.19954877, -814287.6, 896325.3, 0.18190119, 10.009591, 9.995716 
1.9854279e+3, 1.3544154e+2, -775720.56, -1586363.5, -9295.221, -0.063599326, -0.22057489, -775614.0, 837037.1, 0.12909688, 10.008487, 9.996148 
1.9853868e+3, 1.4543782e+2, -739455.5, -1539618.1, 6502.9795, -0.14313208, -0.19846949, -739402.7, 775284.8, 0.07619506, 10.007637, 9.996176 
1.9853482e+3, 1.5543368e+2, -715756.25, -1500653.3, 14195.443, -0.023370659, -0.22236082, -715499.56, 701229.8, 0.034416717, 10.006881, 9.996134 
1.9853082e+3, 1.6543026e+2, -660012.3, -1292834.8, -12778.888, 0.0073993932, -0.2299329, -659754.4, 659008.1, 0.010370449, 10.005866, 9.997378 
1.9852668e+3, 1.7542757e+2, -734946.44, -1285315.4, -16347.306, -0.074010715, -0.2320518, -734461.3, 486325.9, 0.0014575997, 10.004653, 9.99734 
1.9852261e+3, 1.8542513e+2, -731233.9, -1169544.6, -22385.502, -0.09566391, -0.2289679, -730093.56, 392717.25, 0.000022967437, 10.003724, 9.997911 
1.9851859e+3, 1.9542302e+2, -734921.5, -1124486.3, -22944.473, -0.05396025, -0.224539, -733574.8, 291257.28, 0.0, 10.003041, 9.997876 
1.9851454e+3, 2.0542112e+2, -736580.44, -1000585.25, -21514.219, -0.044591796, -0.22397877, -734838.7, 192012.52, 0.0, 10.002038, 9.998538 
1.9851044e+3, 2.1541953e+2, -826119.5, -996048.1, -13703.795, -0.06841998, -0.23215702, -825021.44, 3845.994, 0.0, 10.000763, 9.998511 
1.9850636e+3, 2.254185e+2, -810291.2, -842386.5, -27129.53, -0.06083003, -0.21991244, -794818.4, -63940.203, 0.0, 9.999788, 9.999363 
1.985023e+3, 2.3541807e+2, -820197.0, -799978.56, -36933.754, -0.023070881, -0.19415317, -771795.5, -138912.4, 0.0, 9.9990635, 9.99933 
1.9849823e+3, 2.4541764e+2, -825255.1, -679359.4, -21264.648, -0.018097667, -0.19124506, -676323.2, -141435.33, 0.0, 9.998047, 9.999973 
1.9849417e+3, 2.554173e+2, -911709.3, -673275.2, -18292.02, -0.044623844, -0.21620858, -671880.06, -234988.34, 0.0, 9.996793, 9.999948 
1.9849014e+3, 2.6541772e+2, -886926.94, -505723.56, -9871.405, -0.034592487, -0.20458256, -505468.1, -166580.34, 0.0, 9.99584, 10.000883 
1.9848616e+3, 2.7541903e+2, -897847.1, -464844.22, -17240.758, 0.014122757, -0.15754598, -464158.84, -223283.73, 0.0, 9.995114, 10.00084 
1.9848216e+3, 2.8542018e+2, -896676.2, -317210.16, -10449.904, 0.031833168, -0.16033113, -317021.75, -174158.45, 0.0, 9.994035, 10.001701 
1.9847812e+3, 2.9542115e+2, -994370.5, -302161.56, 1720.1688, 0.0078910915, -0.22907871, -302157.28, -257304.7, 0.0, 9.992644, 10.001802 
1.9847414e+3, 3.054232e+2, -1019143.94, -143301.17, -13292.339, 0.0250661, -0.26360887, -143099.48, -143099.48, 0.0, 9.99151, 10.003106 
1.9847016e+3, 3.154266e+2, -1080649.4, -63358.504, 24329.21, 0.061678007, -0.22153677, -62776.99, -62776.99, 0.0, 9.990614, 10.004088 
1.9954777e+3, 1.2548642e+2, -850952.25, -1727068.1, 9381.882, -0.09011897, -0.20310599, -850851.75, 859359.44, 0.18855773, 10.009569, 9.995306 
1.9954374e+3, 1.3548158e+2, -813239.7, -1668676.4, -41109.855, 0.046109464, -0.2386485, -811268.6, 800990.25, 0.1342132, 10.008518, 9.995545 
1.9953953e+3, 1.4547786e+2, -730529.9, -1521471.9, -16855.205, -0.04824864, -0.1937182, -730170.8, 784124.9, 0.07956434, 10.007668, 9.996287 
1.9953541e+3, 1.5547396e+2, -710401.56, -1484345.3, -11894.272, -0.098844625, -0.20421512, -710218.8, 706115.1, 0.036189996, 10.006868, 9.996253 
1.9953132e+3, 1.654704e+2, -668791.5, -1308001.1, -55688.625, -0.073162764, -0.22655937, -663976.1, 654392.0, 0.01104671, 10.005853, 9.997281 
1.995272e+3, 1.7546727e+2, -739146.4, -1298158.0, -58464.777, -0.020510893, -0.2640596, -733097.2, 487300.34, 0.001601123, 10.004667, 9.997248 
1.9952303e+3, 1.8546475e+2, -729760.9, -1170237.5, -46177.074, -0.031133326, -0.26296398, -724972.0, 397449.9, 0.000028226588, 10.0037365, 9.997902 
1.9951886e+3, 1.954629e+2, -735703.0, -1125317.5, -47026.207, -0.081530094, -0.23368366, -730107.3, 294333.38, 0.0, 10.003036, 9.997876 
1.995147e+3, 2.0546128e+2, -721120.06, -968118.5, -67785.07, -0.07765173, -0.2176052, -703740.4, 222716.45, 0.0, 10.002032, 9.998766 
1.9951054e+3, 2.1545997e+2, -810915.1, -966148.56, -58764.145, -0.033781752, -0.21752414, -791179.0, 37290.61, 0.0, 10.000767, 9.998716 
1.9950636e+3, 2.254587e+2, -827890.3, -881044.8, -53184.215, -0.0340821, -0.22579737, -795012.44, -64529.66, 0.0, 9.999794, 9.999097 
1.9950216e+3, 2.3545755e+2, -837543.44, -837169.56, -63412.457, -0.0682753, -0.2444088, -773943.75, -141448.7, 0.0, 9.999064, 9.999076 
1.99498e+3, 2.4545726e+2, -818216.6, -666275.2, -67902.93, -0.0510511, -0.2208256, -640352.06, -105853.586, 0.0, 9.99805, 10.000064 
1.9949389e+3, 2.5545776e+2, -904383.3, -660424.2, -63240.16, 0.0059319306, -0.17081381, -645005.3, -208511.5, 0.0, 9.996799, 10.000034 
1.9948976e+3, 2.654579e+2, -892821.56, -520386.03, -36784.242, 0.009795302, -0.1899407, -516787.72, -178295.1, 0.0, 9.995847, 10.000781 
1.9948561e+3, 2.754579e+2, -901708.06, -478649.28, -45105.5, -0.026382867, -0.26251492, -473893.72, -233401.25, 0.0, 9.995134, 10.000737 
1.994815e+3, 2.8545943e+2, -885720.75, -298323.0, -63622.65, -0.0138360355, -0.22523315, -291510.88, -149033.88, 0.0, 9.994048, 10.001826 
1.9947739e+3, 2.954622e+2, -993289.7, -301608.5, -50742.664, 0.029282255, -0.12696427, -297905.75, -253456.02, 0.0, 9.992647, 10.001806 
1.994733e+3, 3.0546317e+2, -1032033.8, -172438.94, -46805.332, 0.048556298, -0.25437146, -169897.88, -169897.88, 0.0, 9.991517, 10.002905 
1.9946922e+3, 3.1546628e+2, -1072509.8, -48508.17, -74494.21, 0.07885832, -0.23133914, -43117.24, -43117.24, 0.0, 9.990624, 10.004184 
2.005487e+3, 1.255278e+2, -855745.94, -1719942.8, 11608.63, -0.108023666, -0.215884, -855590.0, 854215.3, 0.19534905, 10.009565, 9.995357 
2.0054464e+3, 1.3552277e+2, -747226.6, -1648240.3, 2833.9563, 0.070025414, -0.25100443, -747217.75, 864637.4, 0.13942373, 10.0091715, 9.995367 
2.0054033e+3, 1.4551902e+2, -657530.6, -1470057.8, 25777.582, -0.022789393, -0.20515847, -656713.6, 857178.25, 0.08299412, 10.008179, 9.996416 
2.0053609e+3, 1.5551527e+2, -741254.6, -1486191.9, 30246.666, -0.093430385, -0.21353185, -740028.5, 675899.44, 0.037996404, 10.006604, 9.9963665 
2.0053189e+3, 1.6551173e+2, -715181.0, -1353352.4, -2593.3545, -0.07407541, -0.22847417, -715170.5, 602791.9, 0.011736885, 10.005635, 9.997073 
2.0052768e+3, 1.7550847e+2, -677884.9, -1289620.4, -14212.983, -0.014901648, -0.2558284, -677554.9, 542439.4, 0.0017481085, 10.005184, 9.997055 
2.0052342e+3, 1.8550584e+2, -661929.0, -1125747.6, -12359.806, -0.02389711, -0.26069334, -661599.8, 460419.78, 0.00003336457, 10.004157, 9.998002 
2.0051914e+3, 1.9550389e+2, -786044.5, -1138736.3, -5861.7813, -0.078100435, -0.24895039, -785947.06, 238091.2, 0.0, 10.002647, 9.997968 
2.0051487e+3, 2.0550232e+2, -781281.3, -1002207.25, -26734.223, -0.07647227, -0.22938232, -778092.25, 147961.61, 0.0, 10.001645, 9.998716 
2.0051064e+3, 2.1550116e+2, -771331.5, -952154.44, -38964.31, -0.03248483, -0.20979546, -763292.7, 64773.023, 0.0, 10.001063, 9.998668 
2.0050634e+3, 2.2549987e+2, -786572.25, -861019.94, -35434.664, -0.032405086, -0.21691325, -772403.2, -42323.984, 0.0, 10.000081, 9.999094 
2.0050204e+3, 2.3549856e+2, -880404.56, -858200.56, -26898.658, -0.067347914, -0.24927163, -840202.9, -208110.14, 0.0, 9.9987755, 9.99907 
2.0049779e+3, 2.4549821e+2, -848505.25, -681353.1, -23257.63, -0.05110532, -0.22964984, -678177.4, -144080.89, 0.0, 9.997846, 10.000057 
2.0049357e+3, 2.5549877e+2, -845355.44, -631487.06, -27163.342, 0.0077252616, -0.17319731, -628091.0, -191999.9, 0.0, 9.997207, 10.000034 
2.0048934e+3, 2.6549888e+2, -852182.5, -497697.94, -3788.1436, 0.0098397015, -0.19518733, -497657.47, -159567.47, 0.0, 9.996118, 10.000803 
2.004851e+3, 2.7549872e+2, -967225.0, -506491.2, -2241.4502, -0.033634532, -0.28276712, -506480.28, -266389.22, 0.0, 9.994674, 10.000766 
2.0048088e+3, 2.8550035e+2, -932466.7, -307028.7, -15618.19, -0.015080478, -0.24833153, -306638.9, -164563.72, 0.0, 9.993672, 10.0019455 
2.0047669e+3, 2.9550338e+2, -946765.56, -274884.0, -6481.204, 0.05120948, -0.12917508, -274821.47, -230776.5, 0.0, 9.992952, 10.001841 
2.0047243e+3, 3.0550435e+2, -1000081.94, -171093.0, 2534.1929, 0.018786931, -0.24806838, -171085.25, -171085.25, 0.0, 9.991797, 10.002778 
2.0046826e+3, 3.1550717e+2, -1102542.9, -52949.008, -53394.84, 0.07624324, -0.2480587, -50239.703, -50239.703, 0.0, 9.990385, 10.004264 
2.015497e+3, 1.2556976e+2, -833773.6, -1664257.8, -12365.445, -0.062929116, -0.22844192, -833589.56, 875805.2, 0.2023768, 10.009603, 9.995799 
2.0154549e+3, 1.3556497e+2, -745020.44, -1622747.9, -7261.81, 0.016367504, -0.26052314, -744960.3, 866480.7, 0.14479642, 10.009139, 9.995558 
2.0154111e+3, 1.4556117e+2, -657703.8, -1458847.6, -24923.229, -0.05903793, -0.2338095, -656929.2, 856548.25, 0.08652162, 10.008151, 9.996518 
2.0153682e+3, 1.555575e+2, -733794.44, -1473642.8, -22445.094, -0.018644523, -0.245488, -733114.2, 682398.3, 0.039851297, 10.006628, 9.996443 
2.0153251e+3, 1.6555409e+2, -734250.3, -1399155.1, -17739.623, -0.008561504, -0.23194394, -733777.4, 583769.0, 0.01244559, 10.00566, 9.996749 
2.0152816e+3, 1.75551e+2, -699992.9, -1334043.9, -30243.498, -0.05441069, -0.21115558, -698553.56, 521025.25, 0.0018999464, 10.005176, 9.996756 
2.015238e+3, 1.8554823e+2, -649721.4, -1098819.6, -66564.9, -0.06899759, -0.22602262, -640062.9, 481542.63, 0.000038317645, 10.004147, 9.998194 
2.0151941e+3, 1.9554591e+2, -772553.75, -1114520.3, -58695.24, -0.046600677, -0.26950288, -762759.75, 260866.22, 0.0, 10.002661, 9.99813 
2.0151506e+3, 2.0554416e+2, -801608.75, -1048726.9, -46686.613, -0.045329582, -0.2583033, -793082.7, 132560.55, 0.0, 10.00166, 9.998392 
2.015107e+3, 2.1554299e+2, -792102.9, -995973.44, -59770.93, -0.06522447, -0.20907578, -775871.5, 51785.36, 0.0, 10.001062, 9.998369 
2.0150632e+3, 2.2554189e+2, -770079.25, -827404.2, -82976.586, -0.055801608, -0.19313096, -710954.2, 18714.203, 0.0, 10.000079, 9.999328 
2.0150195e+3, 2.35541e+2, -864281.5, -826635.56, -73145.15, -0.021970307, -0.2085316, -769930.3, -138253.14, 0.0, 9.998779, 9.999287 
2.014976e+3, 2.4554041e+2, -855111.5, -697692.0, -46266.82, -0.01985392, -0.21800265, -685100.94, -151418.05, 0.0, 9.997853, 9.999944 
2.0149323e+3, 2.555402e+2, -850945.75, -647020.2, -51901.37, -0.043612596, -0.22575755, -634570.75, -198885.98, 0.0, 9.997219, 9.999924 
2.014889e+3, 2.655406e+2, -840724.06, -477062.2, -58723.16, -0.037725516, -0.21996836, -467814.88, -130134.1, 0.0, 9.996128, 10.000941 
2.0148458e+3, 2.7554154e+2, -954960.56, -483440.56, -53933.523, -0.0074805636, -0.21409513, -477350.2, -237678.75, 0.0, 9.99468, 10.000923 
2.0148028e+3, 2.8554276e+2, -925285.6, -293319.84, -41934.03, 0.031176768, -0.2285711, -290549.47, -148890.86, 0.0, 9.993674, 10.00204 
2.01476e+3, 2.9554456e+2, -940081.75, -266635.13, -36523.98, 0.072085425, -0.2457849, -264660.06, -221020.06, 0.0, 9.992971, 10.001889 
2.0147151e+3, 3.0554673e+2, -997508.25, -171660.9, -50054.4, -0.08101993, -0.2459604, -168638.19, -168638.19, 0.0, 9.991819, 10.002766 
2.0146732e+3, 3.155499e+2, -1094699.3, -39579.65, -85783.8, 0.10073578, -0.2115777, -32650.719, -32650.719, 0.0, 9.990399, 10.004349 
2.0255072e+3, 1.2561357e+2, -771470.0, -1621704.9, 35923.367, -0.015227029, -0.22226764, -769954.9, 939010.8, 0.20986435, 10.010168, 9.995898 
2.0254634e+3, 1.3560876e+2, -802986.25, -1657367.8, 42456.7, -0.013460282, -0.24838798, -800881.6, 810130.25, 0.15046898, 10.008738, 9.995515 
2.0254187e+3, 1.4560464e+2, -705476.7, -1484922.0, 15746.915, -0.08286186, -0.24876107, -705158.7, 807892.5, 0.09021567, 10.007839, 9.996471 
2.0253752e+3, 1.55601e+2, -648248.7, -1435746.0, 8341.99, 0.004738121, -0.25082394, -648160.4, 766925.25, 0.04178337, 10.00728, 9.9963875 
2.0253311e+3, 1.6559762e+2, -653503.44, -1358661.1, 23107.947, 0.014655704, -0.23406778, -652747.0, 664372.5, 0.013183061, 10.006227, 9.99675 
2.0252864e+3, 1.7559445e+2, -756245.0, -1361314.0, 32663.412, -0.066752285, -0.21702749, -754486.9, 464665.75, 0.0020596634, 10.004793, 9.99675 
2.0252417e+3, 1.8559168e+2, -702248.8, -1140370.6, -7287.311, -0.08438552, -0.22254032, -702127.6, 419052.13, 0.000043255633, 10.0038595, 9.998045 
2.0251971e+3, 1.9558941e+2, -685699.5, -1088300.6, -24800.008, -0.040452853, -0.2469633, -684177.56, 339022.94, 0.0, 10.003327, 9.997988 
2.0251526e+3, 2.0558749e+2, -706872.0, -1000546.44, -10420.887, -0.03609613, -0.24567929, -706502.7, 218716.56, 0.0, 10.002303, 9.998411 
2.0251077e+3, 2.1558599e+2, -816669.44, -1005183.8, 210.14441, -0.06760082, -0.2282892, -816669.2, 10565.875, 0.0, 10.000887, 9.998389 
2.025063e+3, 2.2558494e+2, -803792.94, -842572.56, -20678.943, -0.058998432, -0.20845032, -794835.2, -65589.086, 0.0, 9.999846, 9.999333 
2.0250185e+3, 2.3558435e+2, -817111.5, -802627.06, -27828.547, -0.015998097, -0.19297853, -781113.75, -149861.58, 0.0, 9.999101, 9.999294 
2.024974e+3, 2.4558373e+2, -829184.9, -682887.75, -1550.2102, -0.012120212, -0.2071153, -682871.3, -149613.0, 0.0, 9.998026, 9.99996 
2.0249292e+3, 2.5558323e+2, -926680.94, -681454.0, 1524.0375, -0.041667182, -0.24558528, -681444.5, -246181.7, 0.0, 9.996695, 9.999939 
2.0248848e+3, 2.655837e+2, -901938.9, -498986.3, -8131.5176, -0.042217787, -0.23445842, -498822.28, -161564.39, 0.0, 9.995678, 10.001007 
2.0248404e+3, 2.75585e+2, -919771.5, -458803.34, -9347.477, -0.014444851, -0.19841795, -458613.88, -219368.75, 0.0, 9.994892, 10.000988 
2.0247965e+3, 2.8558612e+2, -891675.0, -279409.38, 1136.0859, 0.036129497, -0.2256798, -279407.25, -138173.88, 0.0, 9.993918, 10.002015 
2.024753e+3, 2.955875e+2, -963746.94, -272954.6, -4959.5967, 0.09521871, -0.27589974, -272918.97, -229700.88, 0.0, 9.992793, 10.001929 
2.0247066e+3, 3.0559006e+2, -996592.5, -145923.45, -15664.514, -0.10164243, -0.25604683, -145635.11, -145635.11, 0.0, 9.991717, 10.002991 
2.024664e+3, 3.1559354e+2, -1076994.3, -69534.88, -7681.419, 0.13134827, -0.20451404, -69476.32, -69476.32, 0.0, 9.99069, 10.004001 
2.0355177e+3, 1.2565899e+2, -797105.94, -1651409.9, -14787.3, 0.026277058, -0.1971627, -796850.0, 911670.2, 0.21804926, 10.01014, 9.99566 
2.035472e+3, 1.35654e+2, -820438.44, -1694432.8, 2041.3275, -0.027939836, -0.21315819, -820433.7, 790135.44, 0.15658815, 10.008773, 9.995242 
2.0354262e+3, 1.4564934e+2, -715051.06, -1507203.6, -624.6528, -0.10051007, -0.24589103, -715050.6, 797563.4, 0.094151355, 10.007879, 9.996286 
2.0353822e+3, 1.5564562e+2, -661616.94, -1460874.3, -11035.494, -0.01837605, -0.23527925, -661464.6, 753184.2, 0.043827064, 10.007274, 9.99622 
2.0353371e+3, 1.6564208e+2, -636455.06, -1319593.3, -27635.168, -0.000052733132, -0.23862375, -635338.94, 681344.2, 0.013963611, 10.006214, 9.997026 
2.0352912e+3, 1.7563875e+2, -738310.3, -1327065.0, -16922.322, -0.0555659, -0.26817656, -737824.3, 480892.5, 0.0022318861, 10.004804, 9.996983 
2.0352454e+3, 1.8563612e+2, -734121.9, -1209872.8, -25397.229, -0.075572334, -0.24566491, -732769.94, 387973.56, 0.000048689355, 10.00387, 9.997565 
2.0352001e+3, 1.9563423e+2, -716578.06, -1152027.5, -43772.65, -0.059643768, -0.18355428, -712221.5, 310541.66, 0.0, 10.003322, 9.997554 
2.0351547e+3, 2.0563215e+2, -684389.2, -953321.9, -61397.754, -0.047586616, -0.19438452, -671035.1, 253747.86, 0.0, 10.002297, 9.99874 
2.035109e+3, 2.156301e+2, -795385.6, -962253.2, -49195.125, -0.04200844, -0.2663877, -781962.0, 44839.54, 0.0, 10.000889, 9.998685 
2.035063e+3, 2.2562893e+2, -818003.9, -874666.25, -47233.664, -0.0446469, -0.26157638, -791256.25, -62442.785, 0.0, 9.999854, 9.999112 
2.0350172e+3, 2.3562855e+2, -830285.4, -831835.7, -55329.055, -0.05117514, -0.20316239, -775726.06, -144907.13, 0.0, 9.999105, 9.999094 
2.0349716e+3, 2.4562809e+2, -819525.44, -664714.1, -51285.977, -0.028111339, -0.19649762, -649265.7, -116442.12, 0.0, 9.99803, 10.000085 
2.0349264e+3, 2.5562775e+2, -917102.06, -663408.7, -46503.996, 0.014072911, -0.23153664, -655152.8, -220326.86, 0.0, 9.996698, 10.000063 
2.0348807e+3, 2.6562807e+2, -902244.4, -501628.5, -37044.766, -0.0038786735, -0.24009384, -498231.8, -161409.6, 0.0, 9.995683, 10.000989 
2.0348348e+3, 2.7562895e+2, -920213.5, -464624.72, -38588.742, -0.061624065, -0.24173434, -461379.34, -222565.95, 0.0, 9.994908, 10.000942 
2.03479e+3, 2.856303e+2, -901258.94, -303155.6, -41796.48, -0.004820894, -0.2386873, -300248.9, -159448.73, 0.0, 9.993932, 10.001848 
2.034746e+3, 2.956324e+2, -960741.2, -270421.94, -47770.66, 0.12379447, -0.20582876, -267131.84, -224353.08, 0.0, 9.992805, 10.001944 
2.0346987e+3, 3.056342e+2, -961141.6, -74472.13, -54552.47, -0.040144894, -0.2911096, -71128.39, -71128.39, 0.0, 9.991723, 10.00348 
2.0346539e+3, 3.1563792e+2, -1118499.8, -166205.53, 16016.733, 0.068157196, -0.24769291, -165936.22, -165936.22, 0.0, 9.990728, 10.003323 
2.0455274e+3, 1.2570511e+2, -832535.2, -1694494.5, 10653.815, -0.003627503, -0.21309921, -832403.5, 875663.7, 0.22704177, 10.010089, 9.995305 
2.0454814e+3, 1.3570014e+2, -737777.94, -1672920.6, 36629.168, -0.0038897083, -0.1958144, -736345.4, 873771.4, 0.16323194, 10.009631, 9.994977 
2.0454349e+3, 1.4569508e+2, -626428.8, -1466353.1, 35273.984, -0.06295789, -0.25320092, -624950.06, 887215.75, 0.098377354, 10.008605, 9.996245 
2.045389e+3, 1.5569128e+2, -689734.25, -1478855.8, 34435.258, -0.04699729, -0.24497594, -688234.44, 725966.7, 0.046010047, 10.007107, 9.996176 
2.0453428e+3, 1.6568778e+2, -666420.6, -1334925.1, 12891.177, -0.030434527, -0.24141121, -666172.1, 650063.06, 0.014800848, 10.006017, 9.997015 
2.0452963e+3, 1.7568453e+2, -674844.94, -1297336.4, 3368.5269, -0.03439517, -0.2595402, -674826.75, 543441.4, 0.0024218485, 10.005248, 9.996971 
2.0452498e+3, 1.8568185e+2, -683877.94, -1184245.3, 11585.875, -0.04822513, -0.24099354, -683609.8, 436685.3, 0.00005557583, 10.004211, 9.997575 
2.0452033e+3, 1.9567983e+2, -767773.8, -1174889.4, 26768.412, -0.06251147, -0.1925282, -766021.3, 256294.56, 0.0, 10.002967, 9.997566 
2.0451567e+3, 2.0567773e+2, -739172.4, -981980.94, 2120.9883, -0.05384307, -0.20449802, -739153.9, 185181.98, 0.0, 10.001935, 9.998715 
2.0451099e+3, 2.1567571e+2, -771072.1, -953003.5, -11451.647, -0.030465813, -0.269782, -770354.1, 55999.98, 0.0, 10.001069, 9.99866 
2.045063e+3, 2.2567447e+2, -779543.44, -858000.1, -3092.792, -0.035680514, -0.26700822, -779421.75, -51055.176, 0.0, 10.00013, 9.999091 
2.045016e+3, 2.3567398e+2, -827065.06, -831268.25, 2174.776, -0.060178045, -0.21598254, -826142.3, -195769.13, 0.0, 9.999136, 9.999081 
2.0449695e+3, 2.456736e+2, -807871.75, -653058.2, -1926.5618, -0.036706217, -0.20375492, -653034.25, -120657.086, 0.0, 9.998087, 10.000136 
2.0449232e+3, 2.5567344e+2, -869907.2, -634433.06, -2421.2034, 0.021072932, -0.22448446, -634408.2, -200030.67, 0.0, 9.996998, 10.000115 
2.0448765e+3, 2.6567364e+2, -864536.7, -483496.22, 15429.337, 0.0052217036, -0.24597844, -482872.47, -146497.69, 0.0, 9.995945, 10.000984 
2.0448296e+3, 2.7567422e+2, -922716.7, -466491.44, 13525.535, -0.05967293, -0.27702314, -466090.8, -227721.92, 0.0, 9.9949, 10.000932 
2.0447837e+3, 2.856758e+2, -918665.9, -318670.6, 10196.122, -0.014558259, -0.2450026, -318497.38, -178143.63, 0.0, 9.993847, 10.0017805 
2.0447382e+3, 2.9567844e+2, -962074.2, -270239.13, 9997.083, 0.09413375, -0.14814287, -270094.7, -227767.11, 0.0, 9.992796, 10.001947 
2.0446907e+3, 3.056793e+2, -948979.0, -65005.734, -16186.471, -0.010754593, -0.33280885, -64709.44, -64709.44, 0.0, 9.991797, 10.003507 
2.0446445e+3, 3.1568387e+2, -1103542.4, -158753.9, 50378.527, 0.064856656, -0.19681472, -156075.19, -156075.19, 0.0, 9.990833, 10.003321 
2.0555364e+3, 1.2575194e+2, -862915.1, -1753226.9, -5986.2393, -0.09920681, -0.24820016, -862874.9, 844731.3, 0.2367723, 10.010126, 9.994861 
2.0554915e+3, 1.3574702e+2, -759619.9, -1709381.4, 22955.67, 0.05139533, -0.19940187, -759065.4, 850591.25, 0.17037648, 10.009631, 9.994727 
2.0554441e+3, 1.4574167e+2, -627805.5, -1459032.5, -13174.013, 0.018893933, -0.27566415, -627596.8, 884111.8, 0.10289946, 10.008594, 9.99631 
2.0553955e+3, 1.5573786e+2, -688008.06, -1472909.0, -15070.926, -0.08367617, -0.27434218, -687718.8, 726024.94, 0.048346378, 10.00711, 9.996217 
2.0553482e+3, 1.6573457e+2, -685306.9, -1376167.6, -13228.97, -0.07760983, -0.23799947, -685053.7, 630722.9, 0.015705211, 10.006023, 9.996731 
2.0553018e+3, 1.7573163e+2, -690933.25, -1332219.0, -23756.53, -0.005831476, -0.19691467, -690054.4, 527753.6, 0.002634485, 10.005251, 9.996732 
2.0552541e+3, 1.8572873e+2, -651881.7, -1118781.1, -32863.504, -0.004901546, -0.21345545, -649579.9, 470256.22, 0.00006514204, 10.004212, 9.998026 
2.0552063e+3, 1.9572611e+2, -739565.0, -1117706.0, -17101.959, -0.051403362, -0.26970223, -738793.1, 283066.56, 0.0, 10.002969, 9.99796 
2.0551585e+3, 2.0572409e+2, -764188.8, -1036246.8, -28981.75, -0.056603093, -0.27114534, -761135.75, 162743.23, 0.0, 10.001942, 9.998342 
2.0551108e+3, 2.1572267e+2, -794265.44, -1002510.9, -41899.76, -0.034037143, -0.23887838, -786151.25, 39742.637, 0.0, 10.001072, 9.998321 
2.055063e+3, 2.2572146e+2, -767923.2, -835388.56, -38803.184, -0.032415424, -0.22625566, -750240.06, -22333.54, 0.0, 10.000133, 9.999248 
2.0550151e+3, 2.3572056e+2, -816117.4, -810094.2, -33983.31, -0.044779833, -0.2314137, -778989.3, -149073.28, 0.0, 9.999139, 9.999228 
2.0549676e+3, 2.4572013e+2, -809227.25, -658056.2, -42434.402, -0.039893184, -0.22860248, -646959.25, -115039.22, 0.0, 9.998093, 10.000101 
2.0549197e+3, 2.557202e+2, -870645.9, -639144.06, -42148.89, -0.024565268, -0.2254981, -631708.94, -197790.31, 0.0, 9.997007, 10.00008 
2.054872e+3, 2.6572034e+2, -863478.25, -484092.2, -23969.543, -0.016340848, -0.25127256, -482583.78, -146667.34, 0.0, 9.995954, 10.000978 
2.054825e+3, 2.7572072e+2, -920078.1, -464237.25, -25879.48, -0.0068032304, -0.3029589, -462772.7, -224860.39, 0.0, 9.994908, 10.000945 
2.0547776e+3, 2.8572252e+2, -915017.56, -314512.1, -29188.33, 0.0059348657, -0.24604012, -313096.7, -173201.81, 0.0, 9.993856, 10.001806 
2.0547299e+3, 2.9572558e+2, -960686.1, -274117.16, -27980.355, -0.0040650526, -0.111508586, -272978.72, -231112.89, 0.0, 9.99282, 10.001911 
2.0546824e+3, 3.0572534e+2, -986046.94, -143677.17, -55391.113, -0.01393337, -0.37630454, -140050.47, -140050.47, 0.0, 9.991803, 10.002963 
2.0546354e+3, 3.1573033e+2, -1047360.6, -45902.57, -7415.1787, 0.080834374, -0.15000577, -45847.668, -45847.668, 0.0, 9.990839, 10.004097 
2.0655468e+3, 1.2579954e+2, -780908.0, -1698931.3, 1665.8782, -0.09163182, -0.27000377, -780905.0, 926234.1, 0.2470391, 10.010994, 9.99483 
2.0655008e+3, 1.3579483e+2, -754729.94, -1685212.9, 52654.33, 0.025857968, -0.21327862, -751759.75, 857427.1, 0.17791729, 10.009664, 9.994879 
2.0654526e+3, 1.4578955e+2, -657345.56, -1477348.6, 14125.922, 0.02130248, -0.28677136, -657102.3, 854136.3, 0.107684664, 10.008435, 9.996246 
2.0654029e+3, 1.5578587e+2, -665593.44, -1468036.6, 5421.821, -0.061212968, -0.26487845, -665556.8, 747716.44, 0.050835203, 10.007319, 9.996148 
2.0653544e+3, 1.657825e+2, -652178.5, -1364832.3, 27502.578, -0.0637664, -0.23059049, -651118.7, 664188.4, 0.01668186, 10.006283, 9.996682 
2.0653066e+3, 1.7577931e+2, -687439.0, -1334083.0, 32977.645, -0.016092494, -0.20630898, -685761.56, 531578.8, 0.0028728114, 10.005295, 9.996696 
2.0652583e+3, 1.857764e+2, -643704.2, -1107566.1, 5612.979, -0.013083363, -0.22636162, -643636.3, 475732.28, 0.00007842746, 10.004242, 9.998087 
2.0652093e+3, 1.9577387e+2, -711225.0, -1097890.1, -6701.9395, -0.040879734, -0.27788982, -711108.9, 310282.25, 0.0, 10.0031395, 9.998013 
2.0651604e+3, 2.0577191e+2, -735762.56, -1026530.2, -6358.3506, -0.04902282, -0.27319083, -735623.56, 187786.4, 0.0, 10.002157, 9.998303 
2.0651115e+3, 2.1577053e+2, -768812.3, -993293.1, 2698.8357, -0.04340507, -0.232986, -768779.9, 56645.16, 0.0, 10.001264, 9.998289 
2.065063e+3, 2.2576927e+2, -758563.8, -825729.6, 3844.129, -0.038238328, -0.22410098, -758344.56, -30906.566, 0.0, 10.000179, 9.999289 
2.0650141e+3, 2.3576827e+2, -839921.4, -816592.25, -176.55893, -0.032202184, -0.24146478, -816590.94, -187143.1, 0.0, 9.998958, 9.999268 
2.0649654e+3, 2.4576786e+2, -820229.25, -658743.06, -2233.7646, -0.03394582, -0.23992608, -658712.1, -127260.664, 0.0, 9.998001, 10.000138 
2.0649165e+3, 2.5576803e+2, -836732.56, -618549.3, 1956.8954, -0.04364621, -0.23007147, -618531.75, -185082.44, 0.0, 9.997227, 10.000114 
2.0648679e+3, 2.657682e+2, -836603.1, -473779.78, 13532.221, -0.031147242, -0.25314108, -473275.75, -137828.75, 0.0, 9.996153, 10.000952 
2.0648198e+3, 2.7576852e+2, -927154.9, -469174.53, 9289.507, 0.0072681755, -0.3038501, -468986.2, -231543.11, 0.0, 9.99487, 10.000929 
2.0647715e+3, 2.857703e+2, -923461.0, -315237.1, 10110.541, 0.014871057, -0.25290948, -315069.06, -175642.7, 0.0, 9.993788, 10.001833 
2.0647225e+3, 2.9577324e+2, -965327.5, -276974.5, 8926.934, -0.029177256, -0.1332178, -276858.75, -235459.84, 0.0, 9.992797, 10.0019 
2.064674e+3, 3.057732e+2, -1001423.6, -169894.39, -121.23822, -0.019674527, -0.36101824, -169894.38, -169894.38, 0.0, 9.991784, 10.00279 
2.0646259e+3, 3.1577775e+2, -1021534.44, 2784.8093, 52394.113, 0.055784076, -0.16894355, 5457.8027, 5457.8027, 0.0, 9.990862, 10.004421 
2.0755586e+3, 1.258478e+2, -781541.3, -1668215.4, -30562.197, -0.007317607, -0.28118694, -780489.2, 926177.2, 0.25760168, 10.01096, 9.9951315 
2.0755093e+3, 1.3584353e+2, -740568.7, -1620255.1, 14016.219, -0.07361787, -0.23154669, -740345.4, 868362.8, 0.18572526, 10.009625, 9.995341 
2.0754603e+3, 1.458386e+2, -676661.7, -1505175.8, -21366.6, -0.047070384, -0.28119916, -676111.0, 834645.75, 0.11268388, 10.008417, 9.996043 
2.075411e+3, 1.5583508e+2, -677342.4, -1493679.1, -30861.445, 0.010958931, -0.22352953, -676177.3, 736614.4, 0.053464983, 10.007334, 9.995968 
2.0753613e+3, 1.6583136e+2, -639475.94, -1340776.5, -6280.5176, 0.0007626143, -0.22427107, -639419.7, 675408.9, 0.017729541, 10.006297, 9.996843 
2.0753115e+3, 1.7582753e+2, -678897.7, -1315806.1, -1715.4885, -0.0631012, -0.28141138, -678893.06, 537973.1, 0.003136951, 10.00529, 9.996827 
2.0752619e+3, 1.8582477e+2, -666379.8, -1154381.5, -33487.813, -0.06892017, -0.27386415, -664092.5, 454800.9, 0.00009597956, 10.004236, 9.997769 
2.0752124e+3, 1.9582298e+2, -729580.1, -1137886.6, -44536.18, -0.032263465, -0.21987876, -724778.8, 296132.4, 0.0, 10.003144, 9.997737 
2.0751625e+3, 2.0582105e+2, -716253.8, -988296.6, -37559.844, -0.03270441, -0.21523613, -711163.3, 211766.8, 0.0, 10.002163, 9.998565 
2.0751128e+3, 2.1581914e+2, -752735.7, -959964.25, -29573.492, -0.06015168, -0.25197887, -748597.94, 76350.72, 0.0, 10.00126, 9.998522 
2.075063e+3, 2.258178e+2, -764077.6, -838401.8, -40713.188, -0.054244403, -0.25816318, -746116.3, -19154.523, 0.0, 10.00018, 9.999203 
2.0750132e+3, 2.3581703e+2, -844492.44, -827735.06, -43080.043, -0.023757758, -0.24602008, -792226.5, -163256.86, 0.0, 9.998961, 9.999191 
2.0749635e+3, 2.458167e+2, -812633.44, -645136.0, -30660.91, -0.019559864, -0.23822485, -639699.9, -108727.25, 0.0, 9.998007, 10.000231 
2.0749135e+3, 2.5581682e+2, -829289.4, -606048.9, -28498.72, -0.038045473, -0.2384969, -602468.2, -169497.53, 0.0, 9.997235, 10.000198 
2.074864e+3, 2.658171e+2, -840243.7, -484346.63, -35310.824, -0.04024034, -0.25103617, -480877.03, -145909.56, 0.0, 9.996161, 10.000877 
2.0748141e+3, 2.758176e+2, -929659.8, -478211.53, -37328.24, -0.020668311, -0.27889723, -475145.84, -238183.55, 0.0, 9.994882, 10.000863 
2.0747651e+3, 2.8581893e+2, -921957.75, -315433.06, -28244.588, 0.010088368, -0.26754555, -314120.63, -175171.11, 0.0, 9.993797, 10.001829 
2.0747156e+3, 2.9582113e+2, -963624.7, -278265.6, -31385.893, 0.018211745, -0.21992792, -276831.28, -235902.72, 0.0, 9.992812, 10.001886 
2.0746656e+3, 3.0582297e+2, -981634.8, -131221.19, -36794.313, -0.025423577, -0.27549285, -129632.195, -129632.195, 0.0, 9.991793, 10.003053 
2.0746164e+3, 3.1582674e+2, -1058021.6, -77299.15, -12098.664, 0.04090268, -0.18351379, -77149.914, -77149.914, 0.0, 9.990876, 10.003866 
2.0855696e+3, 1.2589777e+2, -813836.75, -1670425.5, 6384.031, 0.017063098, -0.27085546, -813789.2, 892387.9, 0.26826108, 10.010738, 9.99522 
2.0855182e+3, 1.3589352e+2, -800521.94, -1626121.9, 33545.527, -0.07696169, -0.24039671, -799161.2, 809056.44, 0.19369486, 10.009081, 9.9955635 
2.0854683e+3, 1.4588875e+2, -725471.25, -1536088.8, 21279.295, -0.04347287, -0.28076488, -724913.06, 785351.44, 0.117850915, 10.008109, 9.995974 
2.0854183e+3, 1.5588507e+2, -636764.9, -1477722.4, 23058.357, 0.013645644, -0.23042956, -636133.1, 776168.56, 0.056216322, 10.007674, 9.995912 
2.0853677e+3, 1.658813e+2, -587282.5, -1309876.9, 32428.838, 0.0031630662, -0.23442517, -585830.1, 728508.9, 0.018840078, 10.006651, 9.996883 
2.0853166e+3, 1.7587753e+2, -690003.56, -1317750.0, 28282.586, -0.05970503, -0.28781644, -688731.9, 527643.75, 0.0034243474, 10.005202, 9.996855 
2.0852658e+3, 1.8587478e+2, -686007.3, -1175850.3, 12401.316, -0.06715939, -0.2748027, -685693.56, 432709.47, 0.000117831456, 10.004155, 9.997661 
2.0852156e+3, 1.9587292e+2, -699442.1, -1133397.3, 14602.262, -0.033466376, -0.21512136, -698951.3, 321470.84, 0.0, 10.003398, 9.997644 
2.0851648e+3, 2.05871e+2, -689917.2, -969578.1, 12482.205, -0.033476703, -0.20632116, -689361.2, 233080.06, 0.0, 10.002323, 9.998613 
2.0851138e+3, 2.1586917e+2, -783962.3, -968715.75, 4909.564, -0.05863306, -0.23977795, -783831.94, 40626.996, 0.0, 10.001023, 9.998573 
2.0850627e+3, 2.2586778e+2, -773664.06, -834784.06, -158.62473, -0.05669984, -0.25560358, -773663.6, -47191.645, 0.0, 10.000084, 9.999272 
2.0850122e+3, 2.3586687e+2, -776156.44, -787616.94, 7618.024, -0.033505224, -0.26297364, -772354.1, -143873.7, 0.0, 9.999404, 9.999251 
2.0849614e+3, 2.4586654e+2, -766640.06, -627370.7, 16144.41, -0.023515297, -0.25392652, -625523.7, -95040.31, 0.0, 9.998345, 10.000188 
2.0849106e+3, 2.558668e+2, -862563.2, -625734.44, 7276.853, -0.02579428, -0.23619926, -625511.06, -193030.28, 0.0, 9.997026, 10.000162 
2.0848599e+3, 2.6586708e+2, -867909.94, -494219.88, -1070.0686, -0.0349275, -0.24343951, -494216.78, -159739.34, 0.0, 9.99596, 10.000904 
2.0848088e+3, 2.7586758e+2, -903404.06, -463244.53, 4323.5054, -0.04004097, -0.27638575, -463202.1, -226729.38, 0.0, 9.995056, 10.000879 
2.0847587e+3, 2.8586882e+2, -884812.56, -301563.84, 17113.61, -0.000721682, -0.26954058, -301062.16, -162601.72, 0.0, 9.994072, 10.001791 
2.0847088e+3, 2.95871e+2, -932886.1, -263685.1, 9491.72, 0.0459642, -0.22071132, -263550.5, -223110.97, 0.0, 9.993026, 10.0018835 
2.0846573e+3, 3.0587295e+2, -955715.8, -92955.59, 1190.7343, -0.03940405, -0.27401352, -92953.95, -92953.95, 0.0, 9.991861, 10.003283 
2.0846069e+3, 3.1587625e+2, -1116758.8, -150457.19, 30862.992, 0.022070048, -0.25266957, -149472.44, -149472.44, 0.0, 9.990672, 10.00346 
2.0955801e+3, 1.2594914e+2, -835806.06, -1684110.8, -30173.975, -0.010211169, -0.2446097, -834734.1, 870939.9, 0.27891323, 10.010702, 9.995112 
2.0955281e+3, 1.3594459e+2, -805070.9, -1626723.3, -11228.951, -0.002410114, -0.24363717, -804917.44, 802799.44, 0.20177096, 10.009119, 9.995542 
2.095477e+3, 1.4593978e+2, -722851.94, -1526944.6, 8583.7705, 0.01567107, -0.2877872, -722760.3, 787003.44, 0.123155534, 10.008141, 9.996023 
2.0954253e+3, 1.5593576e+2, -638238.5, -1471749.6, 7460.1147, -0.046417125, -0.27850637, -638171.75, 773632.25, 0.059069507, 10.007653, 9.995964 
2.0953736e+3, 1.6593222e+2, -597287.25, -1325650.5, -18416.654, -0.04919974, -0.25611135, -596821.9, 717017.56, 0.02000231, 10.006631, 9.996787 
2.0953223e+3, 1.7592914e+2, -693419.4, -1329259.8, -20706.463, -0.01284466, -0.23075281, -692745.75, 523124.53, 0.003730949, 10.0052185, 9.996771 
2.0952705e+3, 1.8592623e+2, -677992.7, -1164673.9, -13486.057, -0.015928255, -0.23479414, -677619.3, 440279.97, 0.00014363437, 10.004174, 9.99773 
2.0952187e+3, 1.9592357e+2, -696285.56, -1127295.0, -13082.67, -0.045499716, -0.2613794, -695888.8, 324036.47, 0.0, 10.003396, 9.997689 
2.0951667e+3, 2.0592168e+2, -701184.3, -993608.75, -34651.617, -0.05082816, -0.24215493, -697134.3, 224810.03, 0.0, 10.002321, 9.998451 
2.0951147e+3, 2.159205e+2, -792221.1, -987482.1, -39097.633, -0.04094008, -0.19632673, -784683.5, 39273.52, 0.0, 10.001026, 9.9984455 
2.095063e+3, 2.2591908e+2, -758709.75, -805951.75, -23910.36, -0.047233865, -0.21842557, -748720.4, -22750.617, 0.0, 10.00009, 9.99947 
2.095011e+3, 2.3591769e+2, -764319.3, -764478.8, -18586.826, -0.06353128, -0.29287776, -745812.06, -117830.81, 0.0, 9.999406, 9.999412 
2.0949595e+3, 2.459173e+2, -779393.25, -655969.7, -33642.867, -0.046859838, -0.2851185, -647395.0, -117410.36, 0.0, 9.99835, 9.999991 
2.0949078e+3, 2.5591782e+2, -873203.8, -650504.3, -40804.23, -0.008810368, -0.22191428, -643263.4, -211282.69, 0.0, 9.997034, 9.99999 
2.0948559e+3, 2.6591814e+2, -858052.7, -476761.7, -35513.637, -0.01652836, -0.23155868, -473482.16, -139504.03, 0.0, 9.995969, 10.001022 
2.0948038e+3, 2.759183e+2, -894251.9, -449623.2, -30081.322, -0.05257072, -0.30155623, -447597.28, -211621.6, 0.0, 9.995074, 10.000966 
2.0947525e+3, 2.8591996e+2, -889201.8, -314863.88, -23317.951, -0.018750895, -0.2557233, -313918.72, -175959.02, 0.0, 9.994087, 10.001695 
2.0947017e+3, 2.959229e+2, -931229.7, -264210.66, -30851.018, 0.05005869, -0.11980373, -262786.78, -222855.67, 0.0, 9.993039, 10.001876 
2.0946486e+3, 3.0592287e+2, -942599.56, -69824.38, -47606.36, -0.065625176, -0.3872791, -67235.33, -67235.33, 0.0, 9.991874, 10.003438 
2.0945977e+3, 3.159273e+2, -1110195.4, -146208.89, 45568.01, 0.029097034, -0.25368804, -144059.67, -144059.67, 0.0, 9.990708, 10.003473 
2.1055904e+3, 1.260014e+2, -882563.6, -1697575.0, 12960.401, -0.016921608, -0.255714, -882357.56, 822803.8, 0.28956378, 10.010358, 9.995147 
2.1055377e+3, 1.359968e+2, -708467.75, -1573248.0, 27902.486, 0.014166612, -0.25693414, -707568.4, 899635.94, 0.20994274, 10.010039, 9.995523 
2.1054853e+3, 1.4599214e+2, -639060.8, -1486544.3, 42920.758, 0.029991707, -0.28303698, -636892.7, 872357.44, 0.12857641, 10.008867, 9.99597 
2.1054323e+3, 1.5598793e+2, -707408.75, -1508786.6, 37180.152, -0.053378537, -0.2860848, -705687.5, 705605.1, 0.06200347, 10.007178, 9.995937 
2.1053798e+3, 1.6598444e+2, -653134.9, -1346635.3, 21926.93, -0.057442475, -0.26072377, -652442.25, 660885.44, 0.021203013, 10.006221, 9.99684 
2.1053277e+3, 1.7598155e+2, -612455.0, -1284746.3, 29505.828, -0.0070441193, -0.21964908, -611162.5, 604193.8, 0.0040512374, 10.005759, 9.996814 
2.105275e+3, 1.8597858e+2, -600644.4, -1133200.5, 30004.31, -0.0096557215, -0.22604318, -598959.25, 518426.47, 0.00017263154, 10.004737, 9.997673 
2.1052219e+3, 1.9597569e+2, -709681.56, -1138594.6, 20927.66, -0.049732298, -0.2689239, -708662.9, 310751.3, 0.0, 10.003328, 9.9976425 
2.105169e+3, 2.0597377e+2, -708979.75, -992944.4, 5717.0806, -0.053998906, -0.25209272, -708864.7, 212568.8, 0.0, 10.002253, 9.998487 
2.105116e+3, 2.1597268e+2, -734399.1, -956029.1, 14324.915, -0.03350757, -0.19924825, -733477.06, 89967.96, 0.0, 10.001411, 9.998474 
2.105063e+3, 2.259713e+2, -721792.6, -790264.56, 29838.604, -0.041649718, -0.21747692, -710614.44, 14843.099, 0.0, 10.000356, 9.999447 
2.1050103e+3, 2.359699e+2, -803277.1, -784811.0, 18118.979, -0.06890483, -0.2891791, -773708.25, -146238.92, 0.0, 9.99915, 9.9993925 
2.1049576e+3, 2.4596944e+2, -807863.06, -668681.25, 1532.7404, -0.05366192, -0.2868797, -668664.4, -139190.97, 0.0, 9.998155, 9.999996 
2.1049048e+3, 2.5596985e+2, -835980.56, -633066.06, 8702.574, -0.008931127, -0.23545322, -632693.5, -201223.03, 0.0, 9.997295, 9.999982 
2.1048518e+3, 2.6597014e+2, -828446.1, -469329.8, 12489.797, -0.010301026, -0.23791662, -468895.94, -135427.9, 0.0, 9.996204, 10.000958 
2.1047989e+3, 2.759705e+2, -915645.8, -465095.84, 3177.5125, -0.041740097, -0.2873804, -465073.44, -229608.5, 0.0, 9.994953, 10.000917 
2.1047464e+3, 2.8597212e+2, -921145.06, -323369.2, 14401.224, -0.02374191, -0.24200214, -323022.44, -185573.38, 0.0, 9.993841, 10.001754 
2.1046941e+3, 2.9597497e+2, -960227.1, -276725.56, 16798.377, 0.024026405, -0.120203204, -276312.97, -236891.83, 0.0, 9.992837, 10.001885 
2.1046406e+3, 3.0597466e+2, -965827.3, -103122.71, -24451.97, -0.03551583, -0.39788675, -102430.21, -102430.21, 0.0, 9.991813, 10.003238 
2.1045884e+3, 3.1598e+2, -1089503.9, -86761.72, 92493.58, 0.041241024, -0.16266061, -78301.44, -78301.44, 0.0, 9.990644, 10.003909 
2.1156006e+3, 1.260544e+2, -884390.0, -1680533.0, 13405.408, -0.010537529, -0.29888332, -884164.4, 820476.2, 0.30028555, 10.0103855, 9.995301 
2.1155474e+3, 1.3605006e+2, -722072.3, -1577749.6, 16374.48, -0.02079155, -0.27705988, -721759.1, 884922.0, 0.21821597, 10.010011, 9.995501 
2.1154939e+3, 1.4604564e+2, -657190.8, -1510377.0, -10806.809, 0.0045143426, -0.26666006, -657053.94, 851671.25, 0.13408668, 10.008847, 9.995797 
2.1154396e+3, 1.560414e+2, -713557.8, -1525260.4, -15667.793, -0.017066358, -0.25801983, -713255.5, 697513.8, 0.06499109, 10.007207, 9.995812 
2.1153863e+3, 1.6603775e+2, -637861.9, -1319408.1, 7552.996, -0.030687466, -0.25162178, -637778.2, 675027.25, 0.022426708, 10.006247, 9.997015 
2.1153328e+3, 1.7603464e+2, -603277.56, -1264678.0, 11404.839, -0.039202724, -0.25055823, -603081.0, 611753.9, 0.004378968, 10.0057535, 9.996956 
2.115279e+3, 1.8603176e+2, -614469.9, -1160913.5, -20972.47, -0.044333488, -0.24476764, -613666.1, 503197.44, 0.00020383729, 10.004727, 9.99749 
2.115225e+3, 1.9602917e+2, -718563.1, -1159033.0, -27180.666, -0.048002765, -0.238885, -716892.2, 301998.06, 0.00000000000010610821, 10.003333, 9.997502 
2.1151711e+3, 2.0602715e+2, -693448.3, -963842.9, -23656.77, -0.045067873, -0.23861852, -691394.2, 229516.03, 0.0, 10.002262, 9.998685 
2.1151172e+3, 2.1602562e+2, -723867.44, -934584.6, -16062.901, -0.037706193, -0.24679951, -722650.0, 100274.1, 0.0, 10.001409, 9.998625 
2.1150632e+3, 2.2602434e+2, -739344.5, -827611.1, -14052.03, -0.040948946, -0.24877337, -737161.44, -12225.119, 0.0, 10.000356, 9.999193 
2.1150093e+3, 2.3602338e+2, -816399.3, -814368.8, -24683.248, -0.05118451, -0.2511222, -790679.94, -163734.2, 0.0, 9.999155, 9.999189 
2.1149556e+3, 2.460228e+2, -793187.56, -640436.2, -30447.799, -0.045210507, -0.262001, -634590.75, -105639.88, 0.0, 9.99816, 10.00019 
2.1149018e+3, 2.560227e+2, -824679.44, -613035.7, -24732.268, -0.028668411, -0.28050062, -610183.94, -179232.52, 0.0, 9.997306, 10.000116 
2.1148479e+3, 2.6602313e+2, -845775.94, -508683.56, -35257.684, -0.017196702, -0.26109678, -505035.3, -172087.33, 0.0, 9.996215, 10.000685 
2.114794e+3, 2.76024e+2, -927579.7, -493272.22, -43950.777, -0.009736159, -0.22698951, -488869.16, -253928.42, 0.0, 9.994963, 10.000722 
2.11474e+3, 2.860252e+2, -904833.7, -291527.34, -24321.203, -0.017760772, -0.23180088, -290564.38, -153634.83, 0.0, 9.993845, 10.001972 
2.1146862e+3, 2.9602692e+2, -957513.06, -274784.9, -19616.777, -0.033050735, -0.24563926, -274221.72, -235309.38, 0.0, 9.992848, 10.001895 
2.1146333e+3, 3.0602875e+2, -1010192.44, -197354.72, -68225.77, 0.055041768, -0.26895174, -191667.95, -191667.95, 0.0, 9.991818, 10.002589 
2.1145783e+3, 3.1603196e+2, -1019050.7, 55590.203, 70317.984, -0.0071659726, -0.19857197, 60171.85, 60171.85, 0.0, 9.990657, 10.004883 
2.1256112e+3, 1.2610908e+2, -826174.7, -1651180.0, 53945.69, -0.017851887, -0.30761835, -822662.2, 881441.1, 0.31113434, 10.011121, 9.99524 
2.1255569e+3, 1.3610445e+2, -789789.7, -1626731.1, 43102.707, -0.03495992, -0.29479605, -787575.75, 818571.8, 0.2265773, 10.009581, 9.99532 
2.1255024e+3, 1.461e+2, -700132.06, -1536971.0, 16498.748, -0.011047149, -0.27447316, -699806.94, 808385.44, 0.13964543, 10.008575, 9.995743 
2.1254475e+3, 1.5609588e+2, -619386.44, -1479031.3, 21822.371, 0.000028550288, -0.24702723, -618832.9, 791402.6, 0.06799904, 10.007938, 9.995775 
2.1253929e+3, 1.6609214e+2, -546048.94, -1267792.9, 50674.473, -0.017227976, -0.24927671, -542508.44, 769763.56, 0.023656994, 10.006875, 9.997071 
2.1253382e+3, 1.7608882e+2, -632215.6, -1273325.5, 44782.895, -0.055301804, -0.27503186, -629102.56, 585200.06, 0.0047084335, 10.005536, 9.996999 
2.1252835e+3, 1.8608594e+2, -656106.06, -1186343.3, 7624.75, -0.05915497, -0.26733577, -655996.44, 460334.97, 0.00023633242, 10.004469, 9.997438 
2.1252285e+3, 1.9608349e+2, -684480.3, -1146352.5, 9568.866, -0.040461596, -0.24164689, -684282.2, 334075.28, 0.0000000000129771185, 10.003587, 9.997465 
2.1251734e+3, 2.0608142e+2, -649812.5, -935805.75, 15063.326, -0.039308645, -0.24504758, -649021.3, 271356.25, 0.0, 10.002536, 9.998743 
2.1251182e+3, 2.1607977e+2, -726380.3, -930197.4, 11545.34, -0.049901936, -0.27088362, -725728.4, 96663.766, 0.0, 10.001372, 9.99867 
2.1250635e+3, 2.2607854e+2, -752120.9, -840476.2, 15072.017, -0.04461533, -0.26452702, -749620.6, -25216.586, 0.0, 10.000301, 9.999128 
2.1250089e+3, 2.3607774e+2, -800497.5, -812890.56, 17967.053, -0.028645394, -0.24298973, -787688.44, -161275.78, 0.0, 9.999295, 9.99913 
2.1249539e+3, 2.4607712e+2, -778396.4, -631065.1, 14914.691, -0.030924752, -0.25774065, -629570.44, -101151.664, 0.0, 9.998256, 10.000206 
2.1248987e+3, 2.560768e+2, -841332.56, -618611.3, 6224.6553, -0.044257697, -0.29632884, -618437.5, -188016.31, 0.0, 9.997186, 10.000134 
2.1248437e+3, 2.6607737e+2, -855846.06, -515442.7, -2559.0479, -0.024482403, -0.26104423, -515423.47, -183007.22, 0.0, 9.996159, 10.000664 
2.124789e+3, 2.7607858e+2, -901739.25, -482769.28, 6359.8926, 0.015262988, -0.19183657, -482672.75, -248266.92, 0.0, 9.995153, 10.0007 
2.1247339e+3, 2.860793e+2, -883609.6, -285606.1, 20607.496, -0.014022222, -0.24132366, -284896.78, -148497.3, 0.0, 9.994014, 10.001929 
2.1246785e+3, 2.9608014e+2, -971305.3, -287875.3, 6633.4023, -0.08006134, -0.33440903, -287810.94, -249420.25, 0.0, 9.992787, 10.001833 
2.1246254e+3, 3.0608383e+2, -999076.06, -184378.02, -5646.2363, 0.11256839, -0.1715302, -184338.89, -184338.89, 0.0, 9.991865, 10.002654 
2.1245688e+3, 3.1608534e+2, -1013553.75, 37324.81, 132286.67, -0.02836901, -0.27906847, 53721.484, 53721.484, 0.0, 9.990787, 10.004694 
2.1356218e+3, 1.2616515e+2, -853061.1, -1679006.5, 17645.1, -0.03781441, -0.2898379, -852684.3, 850868.06, 0.32209343, 10.011118, 9.994967 
2.1355662e+3, 1.3615979e+2, -814739.7, -1676344.4, 3054.3652, -0.034224927, -0.3095069, -814728.9, 790876.2, 0.23497982, 10.0096035, 9.9949665 
2.1355107e+3, 1.4615507e+2, -699113.1, -1528174.0, -1912.5082, -0.020580912, -0.3027802, -699108.75, 808544.0, 0.14520353, 10.008598, 9.995794 
2.135455e+3, 1.5615126e+2, -618054.7, -1473287.3, -257.9603, -0.0012932696, -0.2509706, -618054.6, 791637.75, 0.070995934, 10.007947, 9.995812 
2.1353994e+3, 1.661475e+2, -551334.56, -1278714.1, 4088.59, -0.016831007, -0.25236335, -551311.56, 760416.94, 0.0248807, 10.006879, 9.996996 
2.1353436e+3, 1.7614394e+2, -635807.1, -1282507.3, -822.7347, -0.058859054, -0.2922235, -635806.06, 577954.75, 0.0050356896, 10.005541, 9.996936 
2.1352878e+3, 1.8614097e+2, -652116.2, -1179962.9, -23064.69, -0.05782832, -0.293299, -651110.3, 464680.2, 0.00026948212, 10.004473, 9.997482 
2.135232e+3, 1.9613852e+2, -682435.44, -1142013.1, -21806.326, -0.028422888, -0.27415323, -681403.06, 336413.84, 0.0000000000136278775, 10.003582, 9.997499 
2.1351758e+3, 2.0613651e+2, -655588.6, -948499.44, -26543.086, -0.0375106, -0.2682129, -653202.75, 266633.94, 0.0, 10.002534, 9.99866 
2.1351194e+3, 2.1613498e+2, -729978.4, -939519.1, -28882.824, -0.07132783, -0.2727288, -726070.1, 95780.27, 0.0, 10.001376, 9.998607 
2.1350634e+3, 2.2613378e+2, -744206.1, -826300.8, -21075.734, -0.053432602, -0.26816243, -739111.6, -15249.515, 0.0, 10.000307, 9.999226 
2.1350081e+3, 2.3613289e+2, -795678.75, -804258.9, -18537.477, -0.0026992236, -0.2648552, -780941.44, -155070.03, 0.0, 9.999296, 9.999191 
2.1349521e+3, 2.4613228e+2, -790083.1, -657370.8, -25211.273, -0.011881877, -0.2708834, -652742.8, -124864.76, 0.0, 9.9982605, 10.000025 
2.1348958e+3, 2.5613207e+2, -848375.0, -636580.3, -33873.773, -0.058291163, -0.2809036, -631294.56, -201413.84, 0.0, 9.997195, 10.000009 
2.1348399e+3, 2.6613277e+2, -837804.2, -480796.38, -41196.19, -0.034470122, -0.23893581, -476104.3, -144230.38, 0.0, 9.996166, 10.0009 
2.1347842e+3, 2.7613407e+2, -888285.0, -459496.66, -32314.064, 0.03126645, -0.1864256, -457075.1, -223213.75, 0.0, 9.99517, 10.0008545 
2.1347278e+3, 2.8613424e+2, -907321.25, -339473.0, -26954.127, -0.012564323, -0.27305266, -338196.44, -202336.56, 0.0, 9.994029, 10.0015545 
2.1346709e+3, 2.9613456e+2, -980177.6, -311333.13, -37999.207, -0.119354315, -0.38521937, -309181.2, -271324.0, 0.0, 9.992804, 10.001666 
2.1346174e+3, 3.0613986e+2, -930423.4, -44342.984, -34784.59, 0.1255829, -0.108472764, -42979.555, -42979.555, 0.0, 9.991873, 10.003613 
2.1345596e+3, 3.161415e+2, -1151015.5, -248659.3, -8648.349, -0.017523192, -0.27637208, -248576.4, -248576.4, 0.0, 9.990784, 10.002733 
2.1456328e+3, 1.2622216e+2, -857697.56, -1693267.4, 36631.324, -0.050471343, -0.29142824, -856094.7, 846898.3, 0.33305922, 10.011332, 9.994717 
2.1455759e+3, 1.3621658e+2, -772739.44, -1673075.3, 30801.12, -0.027011026, -0.30303016, -771686.94, 833361.75, 0.24333511, 10.010188, 9.994707 
2.1455193e+3, 1.4621158e+2, -637397.94, -1490917.0, 44288.445, -0.031936187, -0.3131407, -635106.0, 871993.06, 0.15069759, 10.009136, 9.995806 
2.145463e+3, 1.562078e+2, -595458.9, -1459283.9, 43856.625, -0.015556223, -0.25761294, -593238.0, 815899.56, 0.07394669, 10.008133, 9.995816 
2.1454063e+3, 1.66204e+2, -545783.6, -1283379.9, 33856.0, -0.021150647, -0.25686374, -544232.9, 766941.0, 0.026084311, 10.006964, 9.99692 
2.1453491e+3, 1.7620035e+2, -617155.9, -1279985.6, 29661.969, -0.048334133, -0.29912403, -615831.1, 597376.56, 0.005357486, 10.005704, 9.996872 
2.1452922e+3, 1.8619734e+2, -636844.06, -1164029.4, 18911.605, -0.04641783, -0.30420712, -636166.5, 479071.03, 0.00030288982, 10.004546, 9.997554 
2.1452354e+3, 1.961949e+2, -697118.94, -1141707.9, 20997.154, -0.02387647, -0.2879558, -696129.5, 321133.8, 0.000000000027357056, 10.003455, 9.99756 
2.145178e+3, 2.0619293e+2, -671053.0, -959775.5, 16809.994, -0.035435256, -0.27801418, -670077.56, 249205.27, 0.0, 10.002449, 9.998621 
2.1451207e+3, 2.1619141e+2, -714562.9, -935110.25, 16195.509, -0.069168225, -0.27633494, -713379.94, 107916.94, 0.0, 10.001498, 9.998576 
2.1450637e+3, 2.2619016e+2, -719816.44, -805442.5, 23677.38, -0.055203732, -0.27609614, -713705.3, 9603.624, 0.0, 10.000438, 9.999303 
2.1450071e+3, 2.3618928e+2, -789712.8, -792915.9, 24698.172, -0.009914142, -0.28154835, -766564.3, -141246.17, 0.0, 9.999306, 9.999262 
2.1449502e+3, 2.4618876e+2, -801124.44, -665340.25, 25617.648, -0.0120527, -0.27640465, -660667.9, -133343.98, 0.0, 9.9982, 9.999997 
2.1448928e+3, 2.5618872e+2, -860505.56, -642653.3, 27843.137, -0.044704147, -0.26495966, -639151.06, -209825.58, 0.0, 9.997117, 10.000002 
2.1448357e+3, 2.6618937e+2, -836733.1, -466323.78, 22512.127, -0.031998284, -0.23676251, -464960.6, -133641.33, 0.0, 9.996118, 10.001021 
2.1447791e+3, 2.7619043e+2, -885630.1, -447795.28, 20870.387, 0.012341719, -0.21698211, -446802.7, -213494.67, 0.0, 9.995147, 10.000943 
2.1447217e+3, 2.8619072e+2, -915580.0, -352478.6, 29007.621, -0.0148676075, -0.2892816, -350988.25, -215682.81, 0.0, 9.994016, 10.00147 
2.1446636e+3, 2.9619125e+2, -978494.4, -308709.0, 40893.43, -0.093719944, -0.36707005, -306221.5, -268920.6, 0.0, 9.992812, 10.0016775 
2.1446086e+3, 3.0619663e+2, -905015.44, 7616.7354, 34587.246, 0.08687732, -0.107656896, 8925.657, 8925.657, 0.0, 9.991881, 10.0039625 
2.1445502e+3, 3.1619844e+2, -1154334.3, -311538.2, -46705.188, -0.01482784, -0.28115892, -308957.84, -308957.84, 0.0, 9.991033, 10.002177 
2.155644e+3, 1.2628001e+2, -884642.56, -1727333.3, 6334.3623, -0.055112556, -0.3084384, -884595.0, 817831.2, 0.3438645, 10.011311, 9.994466 
2.1555862e+3, 1.3627462e+2, -788859.0, -1698538.4, 625.28467, -0.019924888, -0.2787027, -788858.6, 815621.7, 0.25151268, 10.010209, 9.994521 
2.155528e+3, 1.4626932e+2, -643152.7, -1496490.5, 14705.098, -0.04983127, -0.30841374, -642899.3, 863633.75, 0.15604125, 10.009155, 9.995754 
2.1554707e+3, 1.5626536e+2, -602192.0, -1467263.9, 10306.663, -0.041600384, -0.2656577, -602069.2, 806503.1, 0.07680571, 10.008122, 9.995769 
2.1554129e+3, 1.6626154e+2, -554941.1, -1298481.8, -10052.272, -0.029632987, -0.26194906, -554805.25, 755804.1, 0.02725092, 10.00695, 9.996822 
2.1553549e+3, 1.7625786e+2, -622102.1, -1290926.9, -13769.4, -0.02603362, -0.29665804, -621818.75, 590825.7, 0.0056704236, 10.005704, 9.996799 
2.1552968e+3, 1.8625486e+2, -630061.94, -1152889.9, -19244.45, -0.02757223, -0.30135334, -629354.56, 485319.5, 0.00033632817, 10.004554, 9.997629 
2.1552385e+3, 1.9625248e+2, -690453.75, -1131338.5, -16376.568, -0.027933367, -0.2852651, -689846.3, 326851.75, 0.00000000007381513, 10.003465, 9.997629 
2.1551804e+3, 2.0625052e+2, -671106.94, -962657.0, -16706.959, -0.03385492, -0.27676472, -670152.7, 248564.86, 0.0, 10.002457, 9.9986 
2.155122e+3, 2.1624893e+2, -715754.44, -937756.56, -17591.572, -0.04537494, -0.28022864, -714369.06, 106363.805, 0.0, 10.001494, 9.998562 
2.1550639e+3, 2.2624765e+2, -716990.44, -800186.56, -16953.56, -0.051562335, -0.28549322, -713668.3, 9077.067, 0.0, 10.000437, 9.999343 
2.155006e+3, 2.3624676e+2, -784843.25, -785057.06, -16464.252, -0.05239441, -0.29384825, -768485.56, -143731.36, 0.0, 9.9993105, 9.999316 
2.154948e+3, 2.4624647e+2, -791759.7, -648385.2, -15425.204, -0.032484982, -0.2769733, -646744.44, -119986.74, 0.0, 9.998206, 10.000113 
2.1548901e+3, 2.5624675e+2, -852344.3, -628429.44, -11936.732, -0.00417233, -0.24861816, -627794.9, -199038.67, 0.0, 9.997124, 10.000099 
2.1548317e+3, 2.6624703e+2, -835744.75, -467529.0, -13981.656, -0.017596783, -0.2558114, -466998.84, -136245.83, 0.0, 9.996126, 10.001011 
2.1547735e+3, 2.7624756e+2, -882766.56, -445761.3, -17348.234, -0.04698658, -0.29005468, -445073.7, -212326.48, 0.0, 9.995158, 10.000954 
2.1547154e+3, 2.862487e+2, -899928.25, -322109.0, -17283.53, -0.023308698, -0.2856589, -321592.5, -186856.3, 0.0, 9.99402, 10.0016775 
2.1546572e+3, 2.9625055e+2, -964555.0, -283236.56, -313.84415, 0.0013530782, -0.25723648, -283236.44, -246516.86, 0.0, 9.992822, 10.00185 
2.1545994e+3, 3.0625364e+2, -931004.1, -51746.137, 3102.6052, -0.011005826, -0.21014729, -51735.19, -51735.19, 0.0, 9.991899, 10.003551 
2.1545413e+3, 3.1625605e+2, -1039703.3, -87083.83, -89427.06, -0.0056049596, -0.2920043, -78761.57, -78761.57, 0.0, 9.991079, 10.003702 
2.1656553e+3, 1.2633884e+2, -898611.75, -1722648.9, 15203.905, -0.038469795, -0.29290777, -898331.3, 803519.25, 0.35429993, 10.011276, 9.994513 
2.1655962e+3, 1.363336e+2, -727050.0, -1638605.9, 28639.693, -0.046336766, -0.263967, -726151.06, 877751.4, 0.25934926, 10.010801, 9.994649 
2.1655369e+3, 1.4632809e+2, -599863.56, -1479204.6, 36341.145, -0.08646129, -0.31482968, -598364.25, 907592.5, 0.1611285, 10.009589, 9.995684 
2.1654785e+3, 1.5632395e+2, -636867.9, -1490968.5, 32362.941, -0.036142986, -0.27957425, -635643.4, 772353.94, 0.07951955, 10.007915, 9.995705 
2.1654196e+3, 1.6632016e+2, -589962.6, -1312825.4, 26393.527, -0.0163087, -0.27062085, -589000.25, 721034.0, 0.028361652, 10.006703, 9.996838 
2.1653603e+3, 1.7631659e+2, -609055.4, -1281434.0, 30398.305, -0.026694123, -0.2945514, -607683.9, 604384.75, 0.0059706955, 10.005788, 9.996821 
2.1653013e+3, 1.863136e+2, -589962.56, -1127305.8, 27524.08, -0.032243997, -0.30016962, -588556.4, 525541.56, 0.00036950255, 10.004807, 9.99768 
2.165242e+3, 1.963112e+2, -640477.2, -1102497.5, 26909.697, -0.030830199, -0.29144293, -638915.1, 377206.7, 0.000000000201105, 10.003792, 9.997667 
2.1651828e+3, 2.0630923e+2, -647978.1, -954053.06, 23404.29, -0.032595262, -0.2819717, -646198.9, 271942.66, 0.0, 10.00263, 9.998572 
2.1651235e+3, 2.1630767e+2, -732959.6, -946388.8, 21569.563, -0.03795166, -0.27947742, -730801.56, 89355.71, 0.0, 10.001383, 9.998553 
2.1650642e+3, 2.2630642e+2, -732872.75, -803762.44, 24393.086, -0.049884144, -0.28167242, -725290.1, -3120.6204, 0.0, 10.000316, 9.999373 
2.1650049e+3, 2.3630556e+2, -775994.2, -776576.56, 23604.764, -0.06315608, -0.28877586, -752678.8, -128500.96, 0.0, 9.999357, 9.99935 
2.164946e+3, 2.4630527e+2, -779691.5, -636704.44, 18885.102, -0.03965308, -0.27557066, -634252.25, -108071.07, 0.0, 9.998267, 10.000162 
2.1648872e+3, 2.563055e+2, -854138.4, -623490.75, 17637.314, 0.002066787, -0.2554513, -622149.8, -193969.88, 0.0, 9.99709, 10.000147 
2.1648279e+3, 2.663057e+2, -850423.0, -477206.75, 18298.012, -0.01886005, -0.26701987, -476311.78, -146134.4, 0.0, 9.996041, 10.000983 
2.1647681e+3, 2.7630624e+2, -894631.5, -450645.63, 12016.826, -0.064069815, -0.29778326, -450320.63, -218148.6, 0.0, 9.995077, 10.0009575 
2.1647093e+3, 2.8630772e+2, -878056.7, -289357.28, 6073.6206, -0.016444132, -0.27341852, -289294.63, -155136.83, 0.0, 9.994079, 10.001873 
2.1646504e+3, 2.9630983e+2, -936494.56, -257122.53, 19033.074, 0.043369018, -0.2354051, -256589.73, -220451.88, 0.0, 9.992965, 10.001959 
2.1645905e+3, 3.0631202e+2, -999388.75, -114942.82, 27300.145, -0.055202965, -0.26300532, -114100.945, -114100.945, 0.0, 9.991567, 10.003273 
2.1645322e+3, 3.163145e+2, -1063388.9, -3780.9014, -23275.754, 0.019304661, -0.32541108, -3269.8638, -3269.8638, 0.0, 9.990517, 10.004542 
2.1756667e+3, 1.2639855e+2, -897612.06, -1691082.3, 353.79794, -0.010459525, -0.25361487, -897611.94, 803655.3, 0.36414272, 10.011297, 9.994757 
2.1756062e+3, 1.3639337e+2, -722427.4, -1593123.5, 13612.528, -0.10106863, -0.25788254, -722214.6, 881101.8, 0.26668715, 10.010749, 9.995008 
2.1755458e+3, 1.4638776e+2, -616222.2, -1495781.6, -14209.6045, -0.13811283, -0.3302717, -615992.7, 889378.6, 0.165867, 10.009547, 9.995571 
2.1754865e+3, 1.5638347e+2, -643066.06, -1503651.6, -19160.479, -0.0059096613, -0.29813635, -642639.7, 764774.0, 0.08204644, 10.007924, 9.995614 
2.1754265e+3, 1.6637976e+2, -581049.5, -1298370.5, -3983.009, 0.012408255, -0.2817955, -581027.4, 728422.4, 0.02940328, 10.006724, 9.996931 
2.175366e+3, 1.763764e+2, -601765.9, -1268986.6, -1579.9706, -0.049100503, -0.2928627, -601762.1, 609719.56, 0.0062557724, 10.005796, 9.996905 
2.1753056e+3, 1.8637344e+2, -589211.75, -1126618.1, -8144.5107, -0.058482748, -0.30116346, -589088.4, 524422.4, 0.00040208615, 10.004807, 9.997687 
2.1752456e+3, 1.9637091e+2, -641886.06, -1104385.5, -9530.583, -0.033100825, -0.3043909, -641689.75, 373846.03, 0.0000000007393769, 10.003783, 9.997661 
2.1751852e+3, 2.0636895e+2, -651515.25, -961920.5, -21176.662, -0.032434534, -0.29147077, -650077.2, 267478.7, 0.0, 10.002628, 9.998523 
2.1751246e+3, 2.1636748e+2, -734902.5, -952439.25, -21294.951, -0.04842279, -0.27516472, -732837.5, 86733.88, 0.0, 10.001387, 9.998513 
2.1750642e+3, 2.2636633e+2, -730663.1, -801681.3, -9832.884, -0.05122283, -0.2664521, -729326.9, -7744.0313, 0.0, 10.000321, 9.999388 
2.1750043e+3, 2.3636557e+2, -775129.06, -776454.5, -12105.594, -0.04363877, -0.26507133, -763668.06, -140077.98, 0.0, 9.999359, 9.999352 
2.1749441e+3, 2.4636506e+2, -781648.06, -642664.9, -25386.645, -0.034617484, -0.27130052, -638172.94, -112577.57, 0.0, 9.998271, 10.000122 
2.1748838e+3, 2.5636488e+2, -855172.94, -628492.0, -26080.877, -0.030499836, -0.2869548, -625530.0, -197932.13, 0.0, 9.997098, 10.000112 
2.1748234e+3, 2.6636535e+2, -853481.56, -486202.3, -19071.31, -0.037706695, -0.26930022, -485214.66, -155621.28, 0.0, 9.996047, 10.000921 
2.1747634e+3, 2.7636647e+2, -893331.06, -451776.7, -23726.389, -0.036834523, -0.23287642, -450505.44, -218922.52, 0.0, 9.995089, 10.000947 
2.1747033e+3, 2.8636762e+2, -863520.4, -263852.6, -36893.176, 0.004443398, -0.2555971, -261591.36, -128019.76, 0.0, 9.994093, 10.002044 
2.1746431e+3, 2.963688e+2, -932028.8, -253177.03, -30190.822, 0.019198218, -0.32224938, -251836.98, -216278.4, 0.0, 9.992981, 10.001981 
2.174582e+3, 3.0637196e+2, -1015663.06, -147791.61, -27586.402, -0.03028801, -0.2398041, -146915.63, -146915.63, 0.0, 9.991558, 10.003054 
2.1745227e+3, 3.1637448e+2, -1067181.3, -13731.559, 3538.7468, 0.040758427, -0.28703263, -13719.672, -13719.672, 0.0, 9.99052, 10.004476 
2.1856777e+3, 1.2645933e+2, -852760.0, -1666004.8, 25288.316, -0.05732426, -0.2537947, -851974.44, 848696.8, 0.373214, 10.011929, 9.994726 
2.185617e+3, 1.3645414e+2, -801487.2, -1624001.3, 36657.625, -0.05972629, -0.26964545, -799856.7, 802863.6, 0.27342218, 10.010022, 9.995127 
2.1855552e+3, 1.4644866e+2, -689220.8, -1523352.0, 16964.95, -0.10477339, -0.33745962, -688875.94, 815897.7, 0.17020696, 10.008942, 9.995658 
2.1854945e+3, 1.5644443e+2, -587718.0, -1466720.6, 25492.77, -0.020013332, -0.3058792, -586979.25, 819836.2, 0.084367014, 10.00833, 9.99567 
2.185433e+3, 1.6644064e+2, -511463.44, -1272102.5, 39765.973, -0.003740734, -0.29225242, -509390.13, 799462.06, 0.030369975, 10.007261, 9.996856 
2.1853715e+3, 1.764372e+2, -586562.56, -1266694.3, 30902.846, -0.043249857, -0.3056152, -585161.3, 625724.1, 0.00652468, 10.005929, 9.996855 
2.1853103e+3, 1.8643425e+2, -602651.3, -1123540.1, 23695.701, -0.053882457, -0.31174153, -601575.6, 511338.47, 0.0004338747, 10.004679, 9.997767 
2.185249e+3, 1.9643185e+2, -680520.6, -1113851.3, 27282.168, -0.04198583, -0.31140426, -678809.7, 336128.22, 0.000000002893483, 10.003484, 9.997737 
2.1851875e+3, 2.0642993e+2, -670390.1, -970074.75, 22875.88, -0.03868964, -0.2952644, -668654.0, 248303.66, 0.0, 10.0025, 9.998526 
2.185126e+3, 2.1642849e+2, -697720.1, -933231.25, 24954.75, -0.042892884, -0.27522406, -695104.94, 123868.35, 0.0, 10.001641, 9.99852 
2.1850647e+3, 2.2642733e+2, -699826.3, -781430.75, 36719.914, -0.044614594, -0.2673618, -685736.2, 35248.53, 0.0, 10.000514, 9.999432 
2.1850035e+3, 2.3642658e+2, -792327.6, -780550.8, 36765.55, -0.041258454, -0.27021077, -749205.1, -126213.24, 0.0, 9.9992285, 9.999385 
2.184942e+3, 2.4642602e+2, -794831.56, -654515.7, 28075.246, -0.03894721, -0.27733588, -649106.75, -124109.086, 0.0, 9.998209, 10.000068 
2.1848807e+3, 2.5642574e+2, -823300.75, -616953.0, 24711.191, -0.042105008, -0.29133794, -614035.0, -187034.08, 0.0, 9.997338, 10.000073 
2.1848193e+3, 2.6642632e+2, -825186.2, -463849.34, 34351.06, -0.04225874, -0.26979437, -460612.7, -131616.67, 0.0, 9.996209, 10.000995 
2.1847583e+3, 2.764275e+2, -912194.2, -454211.06, 40417.84, -0.026829805, -0.23256542, -450671.47, -219686.61, 0.0, 9.994935, 10.001002 
2.1846972e+3, 2.864286e+2, -887038.06, -277742.4, 23035.945, 0.0018017208, -0.2568064, -276872.72, -143899.1, 0.0, 9.993949, 10.002015 
2.1846355e+3, 2.964299e+2, -917706.3, -248720.83, 7027.2476, -0.0044912444, -0.30996063, -248647.02, -213687.53, 0.0, 9.993096, 10.001953 
2.184574e+3, 3.064324e+2, -983438.5, -157301.48, 3348.144, 0.0028611126, -0.27791262, -157287.92, -157287.92, 0.0, 9.99189, 10.002828 
2.1845128e+3, 3.1643474e+2, -1085724.9, -31767.818, 51127.023, 0.010375877, -0.31595746, -29293.477, -29293.477, 0.0, 9.990434, 10.004392 
2.1956882e+3, 1.2652096e+2, -880227.3, -1691740.9, -24773.31, -0.16521043, -0.29195586, -879471.75, 820593.75, 0.38147217, 10.011866, 9.994474 
2.195628e+3, 1.3651575e+2, -810464.4, -1633631.4, -6405.9004, 0.05658578, -0.29441625, -810414.56, 791700.75, 0.27955008, 10.0100355, 9.99505 
2.195565e+3, 1.4651063e+2, -676691.8, -1492225.3, 1496.8958, -0.0075390534, -0.33589363, -676689.06, 827476.06, 0.17415635, 10.008967, 9.995878 
2.1955019e+3, 1.5650663e+2, -579677.75, -1444659.0, 3928.7605, -0.07462573, -0.3050492, -579659.94, 826544.9, 0.08648589, 10.0083275, 9.995826 
2.1954396e+3, 1.6650265e+2, -529446.1, -1306850.8, -6396.2124, -0.0581825, -0.30325451, -529393.5, 778850.1, 0.031262394, 10.007252, 9.996617 
2.1953776e+3, 1.7649883e+2, -599697.44, -1294199.1, -14861.209, -0.012655007, -0.3303456, -599379.6, 610901.3, 0.00677763, 10.005926, 9.99667 
2.1953149e+3, 1.8649594e+2, -592494.75, -1104611.5, -18174.035, -0.023570526, -0.32951677, -591850.6, 520458.38, 0.00046491716, 10.0046835, 9.997898 
2.1952522e+3, 1.9649383e+2, -670348.94, -1095500.6, -12958.22, -0.059468653, -0.31302574, -669954.4, 344375.34, 0.000000010094747, 10.00349, 9.997863 
2.1951897e+3, 2.0649202e+2, -666610.75, -964735.8, -7216.362, -0.051713053, -0.2944078, -666436.2, 249912.13, 0.0, 10.002505, 9.998562 
2.1951278e+3, 2.1649057e+2, -695486.44, -928800.0, -6782.945, -0.022739403, -0.27823612, -695289.44, 123074.63, 0.0, 10.001637, 9.998555 
2.1950652e+3, 2.2648935e+2, -695795.56, -774043.25, -9951.179, -0.031072816, -0.283315, -694549.8, 25826.328, 0.0, 10.000513, 9.999485 
2.1950021e+3, 2.3648843e+2, -789307.4, -776034.0, -8205.264, -0.058607187, -0.3044324, -772117.44, -149732.97, 0.0, 9.99923, 9.999417 
2.19494e+3, 2.4648802e+2, -799630.75, -667186.1, -4758.7373, -0.05404669, -0.29354662, -667015.4, -142626.19, 0.0, 9.998216, 9.99998 
2.1948779e+3, 2.5648808e+2, -824985.7, -624331.7, -10337.993, -0.033934098, -0.2662487, -623800.5, -197410.6, 0.0, 9.99735, 10.000019 
2.1948154e+3, 2.664885e+2, -809068.0, -433930.16, -14706.876, -0.033145558, -0.26982373, -433354.47, -104968.4, 0.0, 9.996219, 10.001199 
2.194753e+3, 2.7648917e+2, -903445.5, -437954.94, -4912.433, -0.0374213, -0.30351174, -437903.1, -207524.3, 0.0, 9.994939, 10.001115 
2.1946907e+3, 2.8649062e+2, -907695.5, -322861.97, -9119.944, -0.027695037, -0.27725294, -322719.78, -190355.33, 0.0, 9.993953, 10.001706 
2.1946281e+3, 2.9649308e+2, -922187.44, -264818.7, -29385.572, -0.030156117, -0.18702997, -263507.72, -229167.08, 0.0, 9.993119, 10.001835 
2.1945661e+3, 3.0649316e+2, -988109.06, -175168.34, -49535.266, 0.03868954, -0.39198902, -172161.13, -172161.13, 0.0, 9.99192, 10.002692 
2.194503e+3, 3.1649604e+2, -1091361.1, -44174.293, -40236.03, 0.019684628, -0.3428178, -42630.582, -42630.582, 0.0, 9.990436, 10.004307 
2.2057e+3, 1.2658413e+2, -917800.0, -1697984.1, -2502.337, -0.15488291, -0.31637648, -917792.0, 781653.0, 0.38905808, 10.011507, 9.994574 
2.2056381e+3, 1.3657889e+2, -742632.8, -1582915.4, 36978.16, 0.057402384, -0.3301699, -741008.7, 860486.2, 0.285168, 10.010712, 9.995121 
2.2055742e+3, 1.4657396e+2, -617336.4, -1473597.9, 50454.395, -0.00090036925, -0.34579393, -614373.6, 889169.7, 0.1777673, 10.009561, 9.995746 
2.20551e+3, 1.5656991e+2, -604725.4, -1469183.0, 35753.39, -0.0694073, -0.30345675, -603249.2, 802334.8, 0.08842104, 10.008207, 9.995713 
2.2054465e+3, 1.6656588e+2, -560798.8, -1319402.4, 23734.066, -0.061465364, -0.30246168, -560057.0, 747566.56, 0.032082606, 10.007028, 9.996636 
2.2053833e+3, 1.7656201e+2, -595942.56, -1289712.5, 32144.254, -0.024972694, -0.33445004, -594456.44, 615204.8, 0.007013856, 10.005947, 9.996688 
2.2053196e+3, 1.8655911e+2, -568811.2, -1092787.6, 31487.494, -0.03041654, -0.33630225, -566925.8, 544763.75, 0.000495086, 10.004849, 9.997896 
2.2052556e+3, 1.9655696e+2, -633042.7, -1075901.8, 27200.186, -0.054621823, -0.32192618, -631378.3, 382332.13, 0.000000028477313, 10.003744, 9.997872 
2.2051921e+3, 2.0655517e+2, -659409.56, -954363.2, 32449.031, -0.048884943, -0.30335823, -655881.94, 259846.81, 0.0, 10.00253, 9.998619 
2.205129e+3, 2.1655376e+2, -747368.7, -947421.6, 32799.54, -0.027455213, -0.28660825, -742128.3, 75615.56, 0.0, 10.001259, 9.998607 
2.2050652e+3, 2.2655253e+2, -741323.6, -796072.6, 26836.469, -0.03215418, -0.29218718, -730363.3, -10607.192, 0.0, 10.000207, 9.999479 
2.2050014e+3, 2.3655161e+2, -781388.94, -770015.56, 25619.758, -0.050807267, -0.31424025, -749458.94, -127694.06, 0.0, 9.999282, 9.999432 
2.204938e+3, 2.4655128e+2, -783097.56, -646143.4, 42629.176, -0.049014356, -0.30216882, -633958.44, -110189.55, 0.0, 9.998279, 10.000092 
2.204875e+3, 2.5655144e+2, -836847.1, -619547.06, 49722.69, -0.035836957, -0.2728261, -608709.94, -182941.73, 0.0, 9.997229, 10.000109 
2.2048116e+3, 2.6655188e+2, -814558.25, -437515.4, 32886.45, -0.0332646, -0.27405185, -434668.5, -106904.47, 0.0, 9.99619, 10.001185 
2.2047478e+3, 2.765526e+2, -878016.6, -427647.25, 25548.14, -0.03318924, -0.30469584, -426202.63, -196445.86, 0.0, 9.995127, 10.001093 
2.2046843e+3, 2.865539e+2, -919828.0, -338648.25, 33710.766, -0.029500486, -0.28302082, -336699.44, -204955.55, 0.0, 9.9939165, 10.001614 
2.2046208e+3, 2.9655612e+2, -982539.9, -296834.4, 29743.482, -0.03394334, -0.20649956, -295546.66, -261823.86, 0.0, 9.9927225, 10.001804 
2.2045577e+3, 3.0655655e+2, -994159.2, -181154.19, 6472.734, 0.035596177, -0.3724953, -181102.66, -181102.66, 0.0, 9.991896, 10.002662 
2.2044936e+3, 3.1656066e+2, -1017004.6, 2243.7366, 5213.05, 0.049663693, -0.1875824, 2270.3984, 2270.3984, 0.0, 9.990909, 10.004393 
2.2157122e+3, 1.2664855e+2, -917331.44, -1671631.9, -23719.021, -0.065036185, -0.3325201, -916586.3, 782225.8, 0.39623904, 10.011458, 9.994894 
2.2156477e+3, 1.3664329e+2, -742834.94, -1568810.9, 15727.426, -0.040600058, -0.37461892, -742535.56, 858325.94, 0.2904305, 10.0107, 9.995263 
2.2155827e+3, 1.4663842e+2, -645255.9, -1531454.1, 10250.696, -0.069188304, -0.36425164, -645137.3, 857772.75, 0.18111235, 10.009563, 9.995307 
2.2155185e+3, 1.5663417e+2, -627736.3, -1518029.1, -5679.587, -0.014145111, -0.3001578, -627700.06, 777254.25, 0.09019724, 10.008202, 9.995382 
2.2154538e+3, 1.6663022e+2, -546940.4, -1289631.8, -11703.33, -0.024033234, -0.29049656, -546756.0, 760237.44, 0.032833472, 10.007025, 9.996848 
2.2153884e+3, 1.7662658e+2, -583644.75, -1265898.1, -5283.8374, -0.07736627, -0.32023755, -583603.8, 625424.5, 0.007231402, 10.005952, 9.996852 
2.2153237e+3, 1.8662354e+2, -577077.9, -1111972.4, -7522.404, -0.07058484, -0.33392423, -576972.06, 534085.5, 0.0005237624, 10.004853, 9.9977665 
2.2152592e+3, 1.9662109e+2, -640632.94, -1092043.8, -12211.27, -0.029710231, -0.3369114, -640302.8, 372778.63, 0.00000006505372, 10.003741, 9.997766 
2.2151946e+3, 2.0661926e+2, -655321.25, -947381.0, -13109.23, -0.032415736, -0.32066208, -654734.06, 260365.95, 0.0, 10.002532, 9.998669 
2.2151296e+3, 2.1661796e+2, -744216.5, -942572.7, -10551.12, -0.058658496, -0.29984015, -743656.9, 73457.16, 0.0, 10.001261, 9.998641 
2.2150652e+3, 2.2661681e+2, -745485.6, -807028.6, -6306.133, -0.048248406, -0.29370204, -744846.06, -25720.324, 0.0, 10.000212, 9.999404 
2.2150007e+3, 2.3661599e+2, -781479.8, -772401.75, -8679.384, -0.01857883, -0.29877272, -767146.2, -146011.86, 0.0, 9.999286, 9.999415 
2.2149365e+3, 2.4661563e+2, -761261.9, -603353.3, 2863.1902, -0.02414468, -0.30415866, -603301.44, -80163.54, 0.0, 9.998284, 10.000385 
2.2148718e+3, 2.5661573e+2, -820930.6, -589387.1, 10319.41, -0.04995922, -0.31325543, -588928.1, -163791.25, 0.0, 9.997235, 10.000315 
2.2148074e+3, 2.6661643e+2, -831960.7, -476179.8, -7495.962, -0.04431323, -0.281306, -476021.94, -148891.36, 0.0, 9.996196, 10.000919 
2.2147429e+3, 2.7661768e+2, -888076.4, -453342.75, -17951.729, -0.017912598, -0.22840811, -452602.72, -223483.66, 0.0, 9.995142, 10.000912 
2.2146785e+3, 2.8661835e+2, -908131.6, -316901.38, -13930.83, -0.0021739367, -0.2752973, -316573.3, -185460.64, 0.0, 9.993923, 10.001762 
2.2146137e+3, 2.9661876e+2, -978537.0, -287099.3, -7368.5244, -0.00614873, -0.38955918, -287020.78, -253912.78, 0.0, 9.992711, 10.00188 
2.2145489e+3, 3.066229e+2, -988653.9, -173568.44, -23033.03, -0.023614384, -0.19046889, -172918.08, -172918.08, 0.0, 9.991904, 10.002713 
2.2144847e+3, 3.1662503e+2, -1014331.0, -8367.807, -20427.678, 0.05315973, -0.21716063, -7953.1616, -7953.1616, 0.0, 9.990973, 10.004292 
2.2257239e+3, 1.267143e+2, -946650.5, -1687988.9, 12594.432, -0.0093805, -0.3520579, -946436.6, 751730.06, 0.40328243, 10.01127, 9.994799 
2.2256574e+3, 1.367091e+2, -740714.2, -1578709.1, 39494.535, -0.10067541, -0.36696264, -738856.94, 861359.7, 0.29548714, 10.010864, 9.995088 
2.2255918e+3, 1.4670418e+2, -622739.2, -1510235.3, 22617.457, -0.112076156, -0.35507393, -622163.2, 880102.4, 0.18426017, 10.00976, 9.995356 
2.2255269e+3, 1.5669976e+2, -618349.7, -1507218.3, 37342.523, -0.00042707028, -0.30978042, -616783.6, 787527.0, 0.09183878, 10.0082655, 9.995425 
2.2254607e+3, 1.6669579e+2, -545171.0, -1291170.9, 46150.555, -0.0076089124, -0.30279002, -542326.8, 764023.3, 0.033518694, 10.007057, 9.99682 
2.2253941e+3, 1.7669217e+2, -576968.2, -1264517.8, 37175.477, -0.08529893, -0.3245583, -574964.0, 633421.0, 0.0074283634, 10.006011, 9.996831 
2.2253284e+3, 1.8668917e+2, -582422.75, -1116735.0, 30010.668, -0.08186674, -0.33287865, -580742.44, 529671.75, 0.00055003987, 10.004831, 9.997742 
2.2252627e+3, 1.9668669e+2, -664835.0, -1104931.6, 31672.055, -0.03287221, -0.3332218, -662567.4, 349870.78, 0.00000011886449, 10.003586, 9.99775 
2.2251968e+3, 2.0668477e+2, -662398.2, -949781.1, 32712.979, -0.031277858, -0.32518378, -658721.5, 255735.97, 0.0, 10.002484, 9.9986725 
2.2251308e+3, 2.166833e+2, -714703.4, -927262.8, 32292.611, -0.055906314, -0.31775346, -709905.7, 106566.88, 0.0, 10.001465, 9.998645 
2.2250652e+3, 2.2668219e+2, -710382.56, -792207.7, 43920.668, -0.048424024, -0.30711898, -691271.25, 27213.088, 0.0, 10.000468, 9.99938 
2.225e+3, 2.3668146e+2, -754869.8, -759522.06, 43352.637, -0.022067651, -0.2973098, -713780.94, -93288.66, 0.0, 9.999475, 9.999411 
2.2249345e+3, 2.4668117e+2, -756184.3, -592051.3, 39303.066, -0.021297691, -0.29997215, -583125.25, -60629.926, 0.0, 9.998287, 10.000459 
2.2248688e+3, 2.5668123e+2, -851861.06, -596618.5, 31591.375, -0.036740504, -0.3153787, -592766.56, -168272.48, 0.0, 9.996998, 10.000377 
2.2248034e+3, 2.6668188e+2, -865733.5, -499211.3, 25589.584, -0.033177864, -0.28781292, -497433.34, -170944.88, 0.0, 9.996, 10.000852 
2.2247379e+3, 2.766831e+2, -889301.1, -458053.16, 25858.602, -0.012603534, -0.23056911, -456508.16, -228030.55, 0.0, 9.995157, 10.000869 
2.2246724e+3, 2.8668383e+2, -876310.06, -293133.38, 22166.191, 0.0058500497, -0.27367, -292292.06, -161821.31, 0.0, 9.994111, 10.001832 
2.2246064e+3, 2.9668412e+2, -952624.75, -277727.4, 24558.15, 0.002878468, -0.4066958, -276834.97, -244367.7, 0.0, 9.99291, 10.001843 
2.2245406e+3, 3.0668855e+2, -1003042.6, -187133.36, 7890.4766, -0.018761318, -0.1674407, -187057.05, -187057.05, 0.0, 9.991841, 10.002647 
2.2244756e+3, 3.1668845e+2, -1000748.5, 3204.4165, 18674.895, 0.08016972, -0.42000875, 3551.6748, 3551.6748, 0.0, 9.991053, 10.004329 
2.2357349e+3, 1.2678124e+2, -971938.8, -1742473.5, 1044.765, 0.006124273, -0.3615386, -971937.4, 725572.25, 0.4103621, 10.011277, 9.994379 
2.235668e+3, 1.3677607e+2, -773502.1, -1634740.9, 28056.168, -0.13147551, -0.3167371, -772589.1, 826972.56, 0.30045828, 10.010796, 9.994679 
2.2356011e+3, 1.4677104e+2, -608318.06, -1463234.0, -20824.59, -0.13563536, -0.3239553, -607811.06, 893800.06, 0.18727754, 10.0097065, 9.995766 
2.2355346e+3, 1.5676652e+2, -601087.5, -1463757.6, -9575.429, -0.024501612, -0.33002248, -600981.2, 802673.7, 0.09337364, 10.008256, 9.99573 
2.2354676e+3, 1.6676241e+2, -562028.56, -1326334.9, 10291.817, -0.011736773, -0.33478943, -561890.0, 743805.5, 0.034146458, 10.007054, 9.99658 
2.2354001e+3, 1.7675868e+2, -591987.75, -1293577.0, -114.80117, -0.055693414, -0.3445982, -591987.75, 615744.8, 0.007605829, 10.005997, 9.996641 
2.235333e+3, 1.8675584e+2, -579637.2, -1110934.8, -14154.355, -0.06885723, -0.3323321, -579260.4, 530500.25, 0.000573672, 10.004826, 9.9977865 
2.2352658e+3, 1.9675362e+2, -661459.25, -1100273.0, -11017.18, -0.06336994, -0.3116716, -661182.8, 350599.22, 0.00000018102605, 10.003591, 9.997782 
2.2351989e+3, 2.0675153e+2, -664624.5, -957364.1, -3674.888, -0.04444374, -0.31770518, -664578.4, 249224.27, 0.0, 10.002492, 9.99862 
2.2351323e+3, 2.1674971e+2, -716810.0, -933638.8, -3156.767, -0.021259734, -0.34028596, -716764.06, 99056.82, 0.0, 10.001469, 9.998603 
2.2350657e+3, 2.2674856e+2, -709452.0, -792288.1, 8450.509, -0.034609426, -0.3320886, -708598.7, 9234.315, 0.0, 10.000471, 9.99938 
2.2349988e+3, 2.3674795e+2, -755665.75, -763329.2, 5091.969, -0.06398987, -0.31006536, -753124.9, -133284.92, 0.0, 9.999478, 9.999385 
2.2349323e+3, 2.4674779e+2, -767450.3, -616921.44, -10085.275, -0.041261446, -0.28899685, -616248.75, -94406.414, 0.0, 9.998289, 10.00029 
2.234866e+3, 2.56748e+2, -858368.94, -612091.6, -15310.4, 0.0035411713, -0.27661118, -611143.44, -187302.66, 0.0, 9.997001, 10.000272 
2.2347996e+3, 2.667482e+2, -856359.3, -481566.13, -7294.5737, 0.00019999762, -0.29509452, -481424.2, -155585.23, 0.0, 9.996003, 10.000975 
2.2347327e+3, 2.767487e+2, -881524.25, -445137.0, -7564.6924, -0.018078834, -0.32157552, -445005.9, -217171.77, 0.0, 9.995166, 10.000957 
2.234666e+3, 2.867503e+2, -878680.5, -301677.4, -24327.375, -0.009087522, -0.27715248, -300653.56, -170834.77, 0.0, 9.994122, 10.001771 
2.2345988e+3, 2.9675227e+2, -963231.0, -306342.56, -22506.283, -0.017431585, -0.23363143, -305572.34, -273773.0, 0.0, 9.992932, 10.001639 
2.234533e+3, 3.0675295e+2, -1018652.94, -221747.06, -30341.861, 0.06452918, -0.3396204, -220593.47, -220593.47, 0.0, 9.991847, 10.002409 
2.2344658e+3, 3.167554e+2, -982279.7, 33189.293, 15685.048, 0.021472748, -0.3338801, 33431.508, 33431.508, 0.0, 9.991076, 10.00453 
2.2457461e+3, 1.2684916e+2, -928297.3, -1700495.9, 9394.942, -0.01426821, -0.35671312, -928183.06, 768661.2, 0.41751358, 10.011897, 9.99437 
2.2456782e+3, 1.3684407e+2, -846668.25, -1685420.9, 60175.117, -0.11707614, -0.2979591, -842373.06, 756522.9, 0.30540824, 10.010141, 9.994656 
2.2456107e+3, 1.468388e+2, -685500.0, -1487384.8, 15021.405, -0.108436495, -0.33188838, -685218.75, 815728.4, 0.19021927, 10.009022, 9.995888 
2.2455424e+3, 1.5683427e+2, -603365.7, -1452874.9, 12918.251, -0.036589842, -0.3505495, -603169.25, 799820.94, 0.09483038, 10.0082035, 9.995828 
2.2454742e+3, 1.6683023e+2, -568495.4, -1332550.8, 34121.35, -0.027363844, -0.34757563, -566974.6, 738055.25, 0.034726907, 10.0070305, 9.996546 
2.245406e+3, 1.7682661e+2, -637419.75, -1317146.1, 37204.87, -0.051607624, -0.34283578, -635389.4, 571676.9, 0.0077671865, 10.005694, 9.996623 
2.2453377e+3, 1.8682368e+2, -606785.0, -1121069.9, 30678.367, -0.06025792, -0.33715898, -604961.44, 504133.53, 0.0005952787, 10.004632, 9.9978075 
2.2452693e+3, 1.9682132e+2, -644515.1, -1091229.6, 31602.135, -0.06103939, -0.33174637, -642290.5, 368827.1, 0.00000024206346, 10.003708, 9.997786 
2.2452015e+3, 2.0681924e+2, -641451.5, -953465.7, 37985.043, -0.04743909, -0.33311096, -636893.75, 276244.75, 0.0, 10.002688, 9.9985485 
2.2451335e+3, 2.1681745e+2, -697907.56, -928375.8, 35597.805, -0.02649866, -0.34206682, -692534.44, 122622.016, 0.0, 10.00162, 9.998563 
2.2450659e+3, 2.2681631e+2, -706663.0, -780994.8, 49074.875, -0.035892963, -0.3349794, -682268.8, 34899.645, 0.0, 10.000453, 9.999463 
2.244998e+3, 2.368157e+2, -787937.56, -772820.0, 52084.72, -0.059478506, -0.32091036, -727748.44, -108573.2, 0.0, 9.999237, 9.999433 
2.2449304e+3, 2.4681552e+2, -786590.56, -640284.1, 40989.85, -0.038510147, -0.29336813, -629582.94, -108404.81, 0.0, 9.998225, 10.000156 
2.244863e+3, 2.5681573e+2, -822590.3, -605320.75, 37298.465, 0.0030971703, -0.2655186, -599096.06, -175918.88, 0.0, 9.997298, 10.000172 
2.2447954e+3, 2.6681584e+2, -831477.8, -462889.34, 43902.785, 0.007314392, -0.29259127, -457732.22, -132555.89, 0.0, 9.996152, 10.001027 
2.2447278e+3, 2.768161e+2, -916705.7, -455455.44, 38302.09, 0.0010191635, -0.34538066, -452296.47, -225123.36, 0.0, 9.9949045, 10.001006 
2.24466e+3, 2.8681782e+2, -901657.4, -308449.06, 23911.252, -0.006721897, -0.29057762, -307486.8, -178330.39, 0.0, 9.993953, 10.0018015 
2.2445916e+3, 2.9682028e+2, -939782.8, -296782.88, 29639.475, -0.0424372, -0.20052762, -295419.5, -264287.03, 0.0, 9.993107, 10.001617 
2.2445251e+3, 3.0682012e+2, -977236.94, -221538.52, 40382.44, 0.11117097, -0.3783701, -219386.7, -219386.7, 0.0, 9.992223, 10.002226 
2.2444563e+3, 3.1682342e+2, -995186.75, 5282.6445, 39365.99, -0.022818036, -0.26957414, 6829.208, 6829.208, 0.0, 9.991089, 10.004329 
2.2557573e+3, 1.2691817e+2, -929635.4, -1676214.0, -24986.533, -0.06845877, -0.3196592, -928800.06, 767369.06, 0.42460167, 10.011853, 9.994653 
2.2556888e+3, 1.3691291e+2, -841479.94, -1652244.3, 20211.232, -0.07404781, -0.3033934, -840976.44, 757244.3, 0.31029305, 10.010135, 9.994878 
2.2556199e+3, 1.4690736e+2, -694129.9, -1501610.9, -7404.048, -0.04951179, -0.36986354, -694062.0, 806212.6, 0.19309153, 10.009025, 9.995773 
2.2555503e+3, 1.569029e+2, -610304.6, -1464704.1, -14904.483, -0.040881176, -0.3706765, -610044.7, 792272.8, 0.09622473, 10.008191, 9.995755 
2.2554807e+3, 1.6689913e+2, -561895.06, -1317520.8, -11505.114, -0.05210505, -0.34421328, -561719.94, 742634.56, 0.035268523, 10.007025, 9.9966545 
2.2554111e+3, 1.768958e+2, -629793.4, -1303706.5, -7045.297, -0.070508026, -0.3216577, -629719.75, 576668.0, 0.007915878, 10.005701, 9.996715 
2.255342e+3, 1.8689258e+2, -606916.6, -1123697.4, -1502.7725, -0.05708696, -0.34664324, -606912.25, 501506.56, 0.0006155556, 10.004637, 9.99779 
2.255273e+3, 1.9688971e+2, -646680.25, -1096594.3, -1298.1345, -0.030535668, -0.3901721, -646676.5, 363769.47, 0.00000029306918, 10.003707, 9.997752 
2.2552039e+3, 2.0688775e+2, -649326.3, -971279.0, 486.52664, -0.042501517, -0.36915275, -649325.6, 263140.38, 0.0, 10.002689, 9.998428 
2.2551346e+3, 2.1688643e+2, -701841.25, -937894.0, -2719.2, -0.07167782, -0.3236184, -701809.94, 112670.72, 0.0, 10.00162, 9.9985 
2.2550659e+3, 2.2688535e+2, -695981.9, -759936.25, 4877.086, -0.05155979, -0.31684858, -695612.06, 20879.816, 0.0, 10.000453, 9.999611 
2.2549975e+3, 2.3688458e+2, -779985.8, -758429.2, 9175.939, -0.00865707, -0.3309616, -755052.3, -136552.9, 0.0, 9.999241, 9.999533 
2.2549286e+3, 2.4688426e+2, -794355.1, -658642.2, 6159.1694, -0.014428888, -0.3136373, -658363.25, -137859.53, 0.0, 9.99823, 10.0000305 
2.2548597e+3, 2.5688437e+2, -829012.8, -623070.9, -106.18068, -0.04403732, -0.2840503, -623070.8, -200566.42, 0.0, 9.997312, 10.000046 
2.254791e+3, 2.668847e+2, -833639.25, -470149.38, -5245.24, -0.014626036, -0.2795588, -470073.7, -145572.28, 0.0, 9.996159, 10.000977 
2.2547229e+3, 2.768853e+2, -918170.8, -459275.56, -6921.2983, 0.04597475, -0.29570004, -459171.2, -232676.22, 0.0, 9.994903, 10.000984 
2.2546539e+3, 2.8688633e+2, -893091.1, -292484.53, -8400.742, 0.013343846, -0.31601092, -292367.06, -163882.33, 0.0, 9.993955, 10.001914 
2.254584e+3, 2.968879e+2, -924967.2, -273719.88, -3741.6003, -0.076918, -0.3247031, -273698.38, -243229.42, 0.0, 9.993134, 10.001767 
2.2545174e+3, 3.0689013e+2, -983974.3, -242965.58, 7102.981, 0.116475746, -0.26565507, -242897.5, -242897.5, 0.0, 9.99225, 10.002067 
2.2544478e+3, 3.1689113e+2, -1018263.9, -44786.727, -124203.125, 0.023177715, -0.35217798, -29189.896, -29189.896, 0.0, 9.991086, 10.003992 
2.2657688e+3, 1.2698829e+2, -941299.75, -1681550.9, 4082.2336, -0.07948899, -0.32651442, -941277.25, 754204.4, 0.43128663, 10.011845, 9.994592 
2.2656989e+3, 1.3698305e+2, -806079.7, -1618871.1, 43715.688, -0.057295673, -0.31416252, -803735.25, 793797.7, 0.3149104, 10.010515, 9.994928 
2.2656289e+3, 1.469774e+2, -673838.0, -1493499.0, 31693.44, -0.028238941, -0.38775885, -672614.3, 826973.5, 0.19580914, 10.009246, 9.995728 
2.2655581e+3, 1.5697312e+2, -631927.6, -1476928.9, 30464.56, -0.059838414, -0.36169964, -630830.7, 770798.4, 0.097538374, 10.008045, 9.995739 
2.2654873e+3, 1.6696934e+2, -570395.44, -1312404.9, 31436.148, -0.06887537, -0.3403314, -569065.94, 734600.0, 0.035772182, 10.006932, 9.996731 
2.2654167e+3, 1.7696585e+2, -603159.2, -1284370.4, 35536.8, -0.062491193, -0.3394768, -601310.4, 604389.8, 0.008053297, 10.005864, 9.996766 
2.2653465e+3, 1.8696262e+2, -593435.44, -1123413.6, 43257.09, -0.05195197, -0.36230528, -589928.0, 517803.53, 0.00063453923, 10.004763, 9.997728 
2.2652763e+3, 1.9695981e+2, -657870.8, -1104742.6, 38475.574, -0.041300368, -0.39236996, -654582.25, 355176.3, 0.00000032053796, 10.003647, 9.997722 
2.2652061e+3, 2.0695789e+2, -663996.25, -971411.8, 46095.484, -0.054696724, -0.3700768, -657233.25, 254545.08, 0.0, 10.002563, 9.998486 
2.2651358e+3, 2.1695656e+2, -717738.3, -941033.2, 53510.875, -0.07850569, -0.32779843, -705577.2, 108215.5, 0.0, 10.001498, 9.998534 
2.2650659e+3, 2.2695546e+2, -707586.7, -773267.7, 51430.477, -0.055658966, -0.31831893, -679405.94, 36398.297, 0.0, 10.000413, 9.999536 
2.2649966e+3, 2.3695464e+2, -773814.2, -760972.94, 40718.83, -0.009650031, -0.3272193, -726171.6, -108359.19, 0.0, 9.999312, 9.999477 
2.2649267e+3, 2.4695426e+2, -790929.7, -654587.4, 45603.94, -0.013380652, -0.31474948, -640740.1, -120922.66, 0.0, 9.998248, 10.000047 
2.2648567e+3, 2.5695428e+2, -844862.5, -628226.3, 48069.2, -0.042302668, -0.29388243, -618039.3, -196220.55, 0.0, 9.997198, 10.000061 
2.2647868e+3, 2.669547e+2, -832266.06, -465888.22, 44820.695, -0.017025476, -0.28460443, -460484.78, -136669.5, 0.0, 9.99616, 10.001002 
2.2647175e+3, 2.769554e+2, -890330.2, -442247.78, 48371.445, 0.040198863, -0.2900101, -437085.44, -211277.66, 0.0, 9.995085, 10.001011 
2.2646476e+3, 2.8695634e+2, -888055.25, -285472.5, 51773.195, 0.030497761, -0.31814548, -281056.6, -153258.36, 0.0, 9.993976, 10.001948 
2.2645774e+3, 2.9695782e+2, -950177.3, -272050.13, 49635.914, -0.02635903, -0.3384166, -268436.25, -238652.95, 0.0, 9.99291, 10.001881 
2.2645088e+3, 3.0696034e+2, -1016909.94, -234446.66, 74005.76, 0.07373609, -0.26473287, -227508.69, -227508.69, 0.0, 9.991926, 10.002277 
2.2644384e+3, 3.1696197e+2, -1026620.6, -7857.804, -78238.62, 0.035602193, -0.30623582, -1884.2861, -1884.2861, 0.0, 9.990859, 10.004351 
2.2757803e+3, 1.2705955e+2, -965120.7, -1717610.0, -19791.463, -0.07365102, -0.3466908, -964600.5, 730181.56, 0.43708712, 10.01178, 9.994311 
2.2757089e+3, 1.3705428e+2, -814033.0, -1628825.5, 11420.357, -0.06395409, -0.3278908, -813872.94, 782961.2, 0.31894732, 10.010514, 9.994854 
2.275638e+3, 1.4704871e+2, -675971.3, -1496637.8, -3376.6772, -0.037093606, -0.38939276, -675957.44, 822931.25, 0.19821897, 10.009258, 9.995697 
2.2755657e+3, 1.5704475e+2, -634004.0, -1479091.9, -7402.4824, -0.09282484, -0.32908612, -633939.1, 766988.06, 0.09872421, 10.008038, 9.99573 
2.2754939e+3, 1.6704069e+2, -569286.44, -1308186.1, -5053.3765, -0.08214059, -0.3361043, -569251.9, 733714.3, 0.03623188, 10.006922, 9.996768 
2.2754227e+3, 1.7703667e+2, -602912.06, -1284186.5, -1793.1565, -0.033312958, -0.3916095, -602907.4, 602097.3, 0.00817992, 10.005861, 9.996772 
2.2753511e+3, 1.8703368e+2, -602724.7, -1144477.1, 3808.0215, -0.04642816, -0.38326576, -602697.94, 504336.34, 0.0006521592, 10.004765, 9.997586 
2.2752793e+3, 1.9703144e+2, -662331.06, -1115341.4, -395.76797, -0.090758115, -0.34306306, -662330.75, 346726.38, 0.0000003185393, 10.003647, 9.997652 
2.2752082e+3, 2.0702943e+2, -648762.2, -940993.75, 7940.051, -0.082451254, -0.33886755, -648546.6, 262530.44, 0.0, 10.002563, 9.998697 
2.2751372e+3, 2.1702771e+2, -709977.7, -926271.6, 15842.534, -0.049664598, -0.3555711, -708823.44, 104270.414, 0.0, 10.001498, 9.998639 
2.2750662e+3, 2.2702654e+2, -729798.25, -820882.2, 11676.406, -0.050849803, -0.33847272, -728325.2, -13218.52, 0.0, 10.000414, 9.99921 
2.2749951e+3, 2.370258e+2, -788685.5, -794095.06, 664.15686, -0.06605441, -0.3091114, -788605.1, -171489.58, 0.0, 9.999317, 9.999251 
2.2749245e+3, 2.470254e+2, -780111.06, -634452.4, 5334.37, -0.035885826, -0.29698646, -634257.3, -115136.89, 0.0, 9.998253, 10.000186 
2.274854e+3, 2.5702536e+2, -833672.56, -608162.06, 8444.249, 0.010603857, -0.2964579, -607846.3, -186724.97, 0.0, 9.997207, 10.000198 
2.274783e+3, 2.6702565e+2, -825259.4, -453925.22, 3644.7107, 0.0002798029, -0.30902615, -453889.47, -130770.69, 0.0, 9.996164, 10.001085 
2.2747117e+3, 2.7702627e+2, -883679.94, -433694.4, 6232.225, -0.026025094, -0.3300458, -433608.13, -208495.8, 0.0, 9.995101, 10.001064 
2.2746415e+3, 2.8702784e+2, -892669.3, -298154.2, 9291.047, 0.043218303, -0.29497105, -298009.0, -170911.73, 0.0, 9.993984, 10.001861 
2.2745715e+3, 2.9703003e+2, -947293.6, -265335.8, 11147.332, 0.121284045, -0.23792252, -265153.66, -236077.73, 0.0, 9.992901, 10.001935 
2.2744992e+3, 3.0703086e+2, -971623.3, -139956.48, 35172.773, -0.0316892, -0.375502, -138471.61, -138471.61, 0.0, 9.991918, 10.002934 
2.2744289e+3, 3.1703463e+2, -976072.7, 89956.14, -74602.39, 0.016235756, -0.26909196, 95151.62, 95151.62, 0.0, 9.990885, 10.005013 
2.2857915e+3, 1.271318e+2, -988273.6, -1753035.8, 38.388515, -0.09389159, -0.358875, -988273.6, 705799.5, 0.44159102, 10.011653, 9.994124 
2.2857195e+3, 1.3712656e+2, -792690.2, -1606423.9, 30401.93, -0.05690439, -0.3383788, -791555.94, 804569.1, 0.32212648, 10.010743, 9.9949 
2.2856472e+3, 1.4712109e+2, -658362.75, -1487731.4, 16547.932, -0.025045991, -0.39099982, -658032.75, 840146.1, 0.20017207, 10.009437, 9.995682 
2.2855732e+3, 1.5711719e+2, -634337.8, -1478284.4, 16870.354, -0.10564398, -0.3240489, -634000.75, 766216.6, 0.09972537, 10.008046, 9.9957285 
2.2855005e+3, 1.6711308e+2, -569865.75, -1302562.3, 28431.715, -0.09407119, -0.3361505, -568764.1, 733492.4, 0.036634743, 10.006902, 9.996813 
2.2854282e+3, 1.7710899e+2, -601788.7, -1279897.6, 30740.99, -0.030740239, -0.40137777, -600397.94, 603897.3, 0.008294803, 10.005859, 9.9967985 
2.2853555e+3, 1.87106e+2, -610031.6, -1152564.6, 37979.26, -0.04729679, -0.38948628, -607385.9, 498939.06, 0.0006686371, 10.004741, 9.997539 
2.2852825e+3, 1.971038e+2, -672251.06, -1123044.4, 39785.613, -0.10432451, -0.3391926, -668766.7, 339580.97, 0.00000029946864, 10.003599, 9.997619 
2.2852105e+3, 2.0710173e+2, -650678.94, -940724.8, 42930.84, -0.088363916, -0.33922812, -644458.0, 265910.1, 0.0, 10.002552, 9.998701 
2.2851387e+3, 2.170999e+2, -704628.2, -924738.5, 34108.742, -0.037704848, -0.36715364, -699463.8, 112921.87, 0.0, 10.001545, 9.998624 
2.2850664e+3, 2.2709864e+2, -731165.8, -830880.94, 34628.3, -0.04388077, -0.34848568, -720320.0, -5920.806, 0.0, 10.00045, 9.999123 
2.2849941e+3, 2.370979e+2, -793967.44, -802590.1, 40757.848, -0.074177906, -0.31124473, -757293.56, -140884.88, 0.0, 9.999312, 9.999191 
2.2849223e+3, 2.4709745e+2, -786061.6, -631882.44, 47692.13, -0.036350336, -0.30418938, -618322.44, -99908.51, 0.0, 9.998194, 10.000229 
2.284851e+3, 2.5709733e+2, -849954.6, -610929.5, 43420.49, 0.029044438, -0.31470758, -603286.25, -182871.08, 0.0, 9.997078, 10.000238 
2.2847791e+3, 2.6709765e+2, -845088.0, -467534.97, 31505.094, 0.0065073003, -0.31773433, -464924.06, -142511.88, 0.0, 9.996052, 10.001043 
2.2847065e+3, 2.7709845e+2, -891001.1, -439271.34, 23477.867, -0.042783793, -0.31838596, -438054.4, -213649.48, 0.0, 9.995065, 10.00104 
2.2846353e+3, 2.8709993e+2, -873777.94, -284958.28, 29007.791, 0.04366165, -0.29284337, -283532.7, -157142.08, 0.0, 9.994102, 10.001891 
2.2845645e+3, 2.9710183e+2, -915622.75, -237979.47, 35390.39, 0.14621279, -0.2673599, -236136.19, -207764.72, 0.0, 9.993072, 10.002038 
2.2844908e+3, 3.0710337e+2, -980601.5, -95179.84, 44571.12, -0.05910674, -0.36291924, -92941.84, -92941.84, 0.0, 9.991651, 10.003368 
2.2844197e+3, 3.1710714e+2, -1027930.06, 30104.846, -14305.719, 0.039726224, -0.2998478, 30298.238, 30298.238, 0.0, 9.99069, 10.004689 
2.2958025e+3, 1.2720498e+2, -998580.3, -1769534.8, -13096.67, -0.1439365, -0.36202845, -998357.9, 694997.6, 0.44465488, 10.011615, 9.994031 
2.2957303e+3, 1.3719982e+2, -794871.44, -1592892.5, 5250.7163, -0.042749636, -0.34624922, -794836.94, 800569.7, 0.32434356, 10.010684, 9.995024 
2.2956565e+3, 1.4719446e+2, -665512.94, -1494260.1, -24223.543, -0.00064619083, -0.39161262, -664805.5, 832654.06, 0.20159513, 10.009399, 9.995646 
2.2955811e+3, 1.5719034e+2, -636715.9, -1481767.6, -25408.531, -0.104295276, -0.3419431, -635952.56, 763547.8, 0.100498065, 10.008037, 9.995712 
2.2955069e+3, 1.6718638e+2, -568574.8, -1300911.1, -6638.8584, -0.10650287, -0.3401502, -568514.6, 733023.6, 0.03696343, 10.006904, 9.996826 
2.2954336e+3, 1.7718263e+2, -600648.06, -1277955.9, -6425.829, -0.052339677, -0.37370166, -600587.06, 602986.6, 0.00839459, 10.005856, 9.996817 
2.2953598e+3, 1.8717945e+2, -609028.4, -1150877.5, -2891.8584, -0.054326702, -0.38270563, -609012.94, 496591.84, 0.0006842654, 10.004736, 9.997555 
2.295286e+3, 1.971768e+2, -673932.6, -1127290.9, 884.63257, -0.08641796, -0.37846696, -673930.94, 333700.34, 0.0000002914588, 10.003596, 9.997594 
2.2952129e+3, 2.0717469e+2, -665708.0, -973400.94, 7697.601, -0.07584782, -0.36907613, -665515.56, 244136.86, 0.0, 10.002553, 9.998479 
2.2951399e+3, 2.1717298e+2, -714428.6, -946232.8, -1980.5734, -0.04445412, -0.36256453, -714411.7, 97257.63, 0.0, 10.001544, 9.99848 
2.2950667e+3, 2.2717169e+2, -722596.1, -814346.94, -6497.4736, -0.0348991, -0.34894094, -722138.25, -8455.27, 0.0, 10.00045, 9.999239 
2.2949934e+3, 2.3717083e+2, -787311.06, -791038.06, -981.0628, -0.034561787, -0.33520845, -787068.6, -171375.53, 0.0, 9.999316, 9.999271 
2.2949207e+3, 2.4717027e+2, -790588.56, -643155.44, 4788.894, -0.01578612, -0.33697417, -643000.0, -125300.9, 0.0, 9.998197, 10.000153 
2.294848e+3, 2.5717008e+2, -854945.06, -623667.75, 1425.2397, 0.00614913, -0.34796366, -623658.94, -203957.73, 0.0, 9.997083, 10.000151 
2.2947747e+3, 2.671707e+2, -857554.75, -495947.66, -7292.186, -0.0006220203, -0.30950868, -495800.7, -174104.23, 0.0, 9.996056, 10.000849 
2.2947016e+3, 2.7717185e+2, -897227.44, -455926.25, -13804.513, -0.0050031017, -0.25346577, -455494.84, -231808.23, 0.0, 9.995074, 10.000925 
2.2946289e+3, 2.8717247e+2, -863074.9, -265849.78, -11094.78, 0.028155884, -0.31568313, -265643.72, -139964.14, 0.0, 9.994109, 10.002022 
2.2945559e+3, 2.9717305e+2, -905863.3, -221372.69, -12527.486, 0.023048112, -0.43409702, -221143.5, -193472.05, 0.0, 9.993081, 10.002151 
2.2944827e+3, 3.071778e+2, -969507.4, -72214.66, -12630.273, 0.010946522, -0.22217326, -72036.91, -72036.91, 0.0, 9.991643, 10.003533 
2.2944102e+3, 3.1718007e+2, -1127835.1, -183971.94, 36961.203, 0.046089083, -0.3151312, -182526.78, -182526.78, 0.0, 9.990714, 10.00321 
2.3058145e+3, 1.2727912e+2, -1000091.94, -1746335.9, 3731.235, -0.07913286, -0.35135466, -1000073.3, 692556.0, 0.4463615, 10.01152, 9.994234 
2.30574e+3, 1.3727404e+2, -820969.1, -1581961.1, 23280.123, -0.07908743, -0.3600649, -820257.6, 774421.06, 0.32564023, 10.01029, 9.99532 
2.3056653e+3, 1.47269e+2, -704787.7, -1517056.4, -879.3043, -0.024725525, -0.38512626, -704786.75, 791941.9, 0.20247898, 10.009079, 9.995634 
2.3055892e+3, 1.5726472e+2, -645074.6, -1485553.1, 2913.9543, -0.072397955, -0.34874332, -645064.56, 753706.8, 0.10100805, 10.00798, 9.995708 
2.3055136e+3, 1.6726078e+2, -567661.94, -1297918.4, 27526.766, -0.08759538, -0.34528565, -566625.75, 734183.5, 0.03719265, 10.0069065, 9.996842 
2.305439e+3, 1.7725717e+2, -602599.3, -1275461.9, 27311.605, -0.07565737, -0.36437365, -601492.56, 601350.9, 0.008470534, 10.005836, 9.99684 
2.3053643e+3, 1.8725395e+2, -608602.25, -1146849.8, 28955.44, -0.06732193, -0.37730944, -607049.06, 497825.53, 0.0006983866, 10.00473, 9.9975815 
2.3052895e+3, 1.9725117e+2, -671238.2, -1124197.3, 32012.152, -0.0663727, -0.3878124, -668986.94, 337915.06, 0.000000323775, 10.003613, 9.997603 
2.3052152e+3, 2.0724896e+2, -677673.25, -985563.2, 48488.695, -0.06357427, -0.3823917, -670217.5, 238706.34, 0.0, 10.002504, 9.998416 
2.3051411e+3, 2.172472e+2, -739509.2, -963345.9, 48489.35, -0.05643468, -0.37285846, -729456.5, 81484.59, 0.0, 10.001401, 9.998427 
2.3050669e+3, 2.2724591e+2, -743136.06, -826216.3, 39051.73, -0.036966324, -0.3566841, -727662.0, -14706.879, 0.0, 10.000323, 9.999214 
2.3049927e+3, 2.3724501e+2, -797672.56, -797417.25, 34849.47, -0.012006627, -0.34130457, -762695.2, -147729.61, 0.0, 9.999257, 9.999254 
2.3049188e+3, 2.4724442e+2, -788273.56, -642792.44, 42044.0, -0.006724057, -0.34399742, -631515.8, -114543.94, 0.0, 9.998221, 10.000141 
2.3048444e+3, 2.5724417e+2, -842772.1, -620767.06, 42436.637, -0.013076504, -0.35615447, -612931.8, -193957.61, 0.0, 9.997184, 10.00012 
2.3047705e+3, 2.672448e+2, -855006.1, -503490.22, 41405.445, -0.0027806521, -0.31101465, -498678.88, -177709.13, 0.0, 9.996118, 10.000765 
2.3046967e+3, 2.7724594e+2, -907087.4, -466605.03, 42526.176, 0.028755935, -0.24649099, -462536.94, -239576.5, 0.0, 9.995039, 10.000866 
2.3046228e+3, 2.8724632e+2, -887382.06, -278145.25, 37337.223, 0.02253515, -0.32810858, -275865.53, -150909.88, 0.0, 9.993951, 10.00201 
2.304548e+3, 2.9724663e+2, -946571.75, -242581.13, 18508.617, -0.04664967, -0.4720363, -242094.84, -215144.81, 0.0, 9.992813, 10.002132 
2.3044749e+3, 3.0725217e+2, -938911.44, -61268.652, 7464.1914, 0.07020456, -0.17555502, -61205.176, -61205.176, 0.0, 9.991872, 10.003496 
2.3044004e+3, 3.1725305e+2, -1121324.0, -235943.16, 64324.836, 0.00077083014, -0.39686382, -231294.22, -231294.22, 0.0, 9.991006, 10.0027075 
2.3158272e+3, 1.27354e+2, -985463.8, -1686473.4, -14101.219, 0.060028, -0.34362677, -985180.25, 706716.2, 0.44677445, 10.011486, 9.994686 
2.3157492e+3, 1.3734917e+2, -807853.06, -1544771.1, -7021.4863, -0.16000108, -0.37813002, -807786.1, 786156.0, 0.32604223, 10.010227, 9.9957285 
2.3156734e+3, 1.4734457e+2, -710163.75, -1525331.8, -32647.172, -0.08871431, -0.3724824, -708858.4, 787129.2, 0.20280185, 10.0090475, 9.995598 
2.3155972e+3, 1.5734017e+2, -646125.1, -1489134.4, -30742.484, -0.0166084, -0.34559038, -645005.5, 753026.25, 0.10120983, 10.007981, 9.9956875 
2.3155208e+3, 1.6733614e+2, -567369.06, -1298342.8, -8235.262, -0.04479809, -0.35105032, -567276.3, 732794.56, 0.03728719, 10.006906, 9.996842 
2.3154444e+3, 1.773325e+2, -603833.1, -1276513.1, -9975.96, -0.10192862, -0.3724346, -603685.2, 598420.25, 0.008508586, 10.005823, 9.996841 
2.3153687e+3, 1.8732941e+2, -609316.5, -1148505.3, -10311.907, -0.0866636, -0.37372383, -609119.4, 495016.13, 0.000709121, 10.004725, 9.997576 
2.315293e+3, 1.9732676e+2, -669925.6, -1123017.5, -7070.195, -0.046674155, -0.3688611, -669815.3, 336346.1, 0.00000041716004, 10.003614, 9.997614 
2.3152176e+3, 2.0732443e+2, -672145.44, -975810.75, 9131.054, -0.052433368, -0.3795762, -671871.1, 236312.6, 0.0, 10.002505, 9.998485 
2.3151419e+3, 2.1732247e+2, -738267.94, -961685.7, 9742.136, -0.074423656, -0.39935547, -737843.94, 72358.45, 0.0, 10.001399, 9.998443 
2.3150666e+3, 2.2732115e+2, -755979.5, -854442.44, 750.5468, -0.050741263, -0.37193456, -755973.75, -43756.914, 0.0, 10.000325, 9.999023 
2.3149917e+3, 2.3732036e+2, -806055.75, -816967.94, -4077.5862, -0.009582374, -0.32889965, -804700.4, -190473.1, 0.0, 9.99926, 9.999122 
2.3149166e+3, 2.4731979e+2, -785205.7, -638890.2, 2441.0166, -0.010651421, -0.3246208, -638849.44, -122616.3, 0.0, 9.998226, 10.000168 
2.3148413e+3, 2.5731957e+2, -839750.8, -618656.8, 2264.677, -0.029692065, -0.33819407, -618633.6, -200398.7, 0.0, 9.997196, 10.000131 
2.3147663e+3, 2.6731986e+2, -853228.3, -502612.75, -1049.5105, 0.000054566288, -0.32391983, -502609.63, -182376.67, 0.0, 9.996123, 10.0007715 
2.3146917e+3, 2.773206e+2, -908067.06, -469730.2, 1824.8263, 0.053523947, -0.3033304, -469722.56, -247495.22, 0.0, 9.995037, 10.000848 
2.3146164e+3, 2.8732145e+2, -900314.75, -305266.63, -5903.6343, 0.02678659, -0.32628256, -305208.06, -180989.14, 0.0, 9.993945, 10.00183 
2.3145406e+3, 2.9732266e+2, -958885.0, -271109.1, -23983.105, -0.05149304, -0.36385152, -270273.8, -244067.6, 0.0, 9.992819, 10.001937 
2.3144668e+3, 3.0732614e+2, -961124.56, -113845.18, -22758.42, 0.11032702, -0.24464615, -113234.31, -113234.31, 0.0, 9.991894, 10.003128 
2.3143913e+3, 3.173274e+2, -1037622.1, -63716.23, -63469.4, 0.03018503, -0.3975614, -59597.355, -59597.355, 0.0, 9.991004, 10.003895 
2.3258379e+3, 1.2743032e+2, -991997.9, -1686060.3, 16199.898, 0.038299315, -0.34630796, -991619.94, 699528.44, 0.44569921, 10.011354, 9.994749 
2.3257592e+3, 1.3742559e+2, -852502.0, -1561996.9, 5520.118, -0.11639835, -0.3715256, -852459.06, 740734.5, 0.3253957, 10.009733, 9.995789 
2.3256822e+3, 1.474213e+2, -734622.75, -1518168.6, -1546.2017, -0.06412055, -0.3476672, -734619.7, 760615.9, 0.20244488, 10.008744, 9.995788 
2.3256047e+3, 1.5741666e+2, -625690.06, -1461296.9, 12872.932, -0.03238546, -0.36145186, -625491.8, 771789.6, 0.10101931, 10.00807, 9.995831 
2.3255274e+3, 1.6741261e+2, -566710.9, -1301310.0, 28940.15, -0.053066634, -0.3696734, -565572.56, 733748.4, 0.037200272, 10.006932, 9.996805 
2.3254499e+3, 1.7740911e+2, -636667.4, -1293966.9, 26743.11, -0.08669405, -0.37143403, -635581.1, 565773.56, 0.008491891, 10.005609, 9.996821 
2.325373e+3, 1.874061e+2, -631045.25, -1157072.8, 32795.285, -0.07789259, -0.36351013, -629008.5, 474375.53, 0.00071392447, 10.004575, 9.997586 
2.3252964e+3, 1.9740348e+2, -663239.6, -1117967.4, 35196.344, -0.054397956, -0.3562013, -660531.56, 344878.13, 0.0000005804668, 10.00366, 9.9976225 
2.3252197e+3, 2.0740105e+2, -665760.4, -973958.2, 43063.008, -0.051419724, -0.37545332, -659856.5, 247576.4, 0.0, 10.002562, 9.9984665 
2.3251434e+3, 2.1739891e+2, -739965.7, -963554.3, 37390.453, -0.056008507, -0.40678945, -733878.6, 75574.2, 0.0, 10.001398, 9.998427 
2.3250669e+3, 2.2739756e+2, -747099.5, -852547.9, 39407.82, -0.046433613, -0.3800108, -733999.56, -22532.123, 0.0, 10.0004015, 9.998997 
2.3249905e+3, 2.3739678e+2, -779131.4, -806079.6, 45874.656, -0.029329326, -0.33282265, -744793.0, -131315.36, 0.0, 9.99946, 9.999096 
2.3249143e+3, 2.4739617e+2, -766377.06, -633237.7, 50391.707, -0.019711738, -0.3281975, -616315.75, -100831.8, 0.0, 9.998377, 10.000131 
2.3248383e+3, 2.5739586e+2, -837434.8, -620983.5, 45016.816, -0.013188392, -0.34200212, -611994.4, -194507.98, 0.0, 9.997233, 10.000093 
2.3247625e+3, 2.673961e+2, -847312.56, -501098.38, 39321.08, 0.01069878, -0.33219603, -496688.66, -177203.47, 0.0, 9.996176, 10.000753 
2.3246865e+3, 2.7739668e+2, -898956.8, -467818.16, 37557.77, 0.043137025, -0.32218716, -464570.84, -243090.11, 0.0, 9.995116, 10.00082 
2.32461e+3, 2.873976e+2, -891757.5, -303991.75, 35307.895, 0.032441612, -0.33246383, -301878.38, -178406.42, 0.0, 9.994023, 10.001798 
2.3245338e+3, 2.9739913e+2, -939996.4, -265020.47, 27930.305, 0.0010668478, -0.33123112, -263866.7, -238410.1, 0.0, 9.99297, 10.001901 
2.324458e+3, 3.074018e+2, -977922.8, -135908.3, 48409.633, 0.083139926, -0.2860568, -133134.23, -133134.23, 0.0, 9.991843, 10.002998 
2.3243818e+3, 3.1740382e+2, -1058198.9, 9216.821, -24559.266, 0.04524408, -0.35588023, 9781.586, 9781.586, 0.0, 9.99051, 10.004633 
2.3358476e+3, 1.2750763e+2, -1003526.75, -1724649.8, -13279.355, -0.105172776, -0.37616733, -1003282.25, 687107.5, 0.44265395, 10.011284, 9.994498 
2.33577e+3, 1.3750313e+2, -861529.94, -1583603.9, -27787.762, 0.0214366, -0.34420255, -860462.1, 731972.25, 0.32334077, 10.00972, 9.995573 
2.3356916e+3, 1.4749902e+2, -714357.44, -1474812.1, -18827.059, 0.023801984, -0.3132841, -713891.56, 780582.44, 0.20118192, 10.00874, 9.996124 
2.3356119e+3, 1.5749405e+2, -613737.7, -1429440.8, -12508.762, -0.10909161, -0.3933726, -613545.9, 782975.94, 0.10032002, 10.0080385, 9.996069 
2.3355335e+3, 1.6749007e+2, -575355.44, -1317306.9, -16670.139, -0.10293429, -0.39856195, -574981.06, 723579.9, 0.036884096, 10.006912, 9.996707 
2.3354559e+3, 1.7748687e+2, -640202.06, -1303931.1, -16093.861, -0.03663858, -0.36123535, -639812.06, 560780.6, 0.008406029, 10.005613, 9.996754 
2.3353776e+3, 1.8748389e+2, -629439.94, -1156089.9, 1112.0157, -0.046631455, -0.34670085, -629437.6, 473184.13, 0.0007103031, 10.004579, 9.997594 
2.3352993e+3, 1.9748116e+2, -665334.0, -1121944.6, 1437.3015, -0.088118665, -0.35143653, -665329.5, 339318.8, 0.00000080250874, 10.003653, 9.997602 
2.3352219e+3, 2.0747864e+2, -674758.06, -993564.4, 1322.9517, -0.05968607, -0.3711593, -674752.56, 231920.1, 0.0, 10.002561, 9.998336 
2.3351447e+3, 2.1747644e+2, -744242.5, -974354.9, -1422.7347, -0.0053890124, -0.39601263, -744233.7, 64459.92, 0.0, 10.0014, 9.998355 
2.3350671e+3, 2.2747503e+2, -737966.5, -835878.4, 5710.6343, -0.026490064, -0.3804773, -737634.56, -26926.588, 0.0, 10.000405, 9.999111 
2.3349893e+3, 2.3747414e+2, -773836.1, -797589.4, 9374.572, -0.0735341, -0.35358235, -770582.06, -157864.4, 0.0, 9.999465, 9.999155 
2.3349124e+3, 2.4747342e+2, -774227.75, -652060.06, 6291.8115, -0.033791386, -0.3557356, -651736.9, -137011.58, 0.0, 9.998382, 10.000002 
2.3348357e+3, 2.57473e+2, -844042.75, -637181.44, 2547.2383, 0.036102362, -0.36891702, -637150.06, -220420.44, 0.0, 9.997238, 9.999983 
2.3347583e+3, 2.6747337e+2, -851700.2, -512423.78, -1716.0685, 0.027171755, -0.33484414, -512415.1, -193687.88, 0.0, 9.99618, 10.000677 
2.3346807e+3, 2.7747416e+2, -900050.6, -475183.13, -4634.8916, -0.009565195, -0.2979967, -475132.56, -254411.58, 0.0, 9.995132, 10.000766 
2.334604e+3, 2.8747466e+2, -884051.44, -292629.34, -6656.9307, 0.04005793, -0.3505884, -292554.4, -169838.56, 0.0, 9.994038, 10.001873 
2.3345274e+3, 2.9747587e+2, -929966.4, -247454.11, -11413.514, 0.1181926, -0.39299452, -247263.3, -222559.7, 0.0, 9.992978, 10.002022 
2.3344485e+3, 3.0747938e+2, -962569.3, -102501.336, -228.83397, -0.03339493, -0.28234953, -102501.27, -102501.27, 0.0, 9.991831, 10.003237 
2.3343718e+3, 3.1748107e+2, -1098704.1, -76376.09, -19072.508, 0.007950706, -0.39575636, -76020.4, -76020.4, 0.0, 9.99051, 10.004048 
2.3458584e+3, 1.2758641e+2, -1009607.25, -1715584.8, 2586.9028, -0.10386522, -0.37141913, -1009597.75, 680019.56, 0.43707564, 10.011035, 9.994678 
2.3457795e+3, 1.3758147e+2, -852559.5, -1581560.4, 3259.738, 0.020288264, -0.379407, -852544.94, 739120.8, 0.31944966, 10.009771, 9.9955635 
2.3457e+3, 1.4757763e+2, -718480.7, -1464521.3, 27507.484, 0.024434714, -0.32749522, -717467.8, 776235.0, 0.19875756, 10.008624, 9.99626 
2.3456194e+3, 1.5757287e+2, -667972.56, -1447457.9, 25378.07, -0.09496641, -0.39692143, -667147.2, 728601.2, 0.09899974, 10.007572, 9.996166 
2.3455401e+3, 1.6756889e+2, -615472.25, -1339995.4, 17584.627, -0.09246254, -0.40057367, -615045.7, 682741.8, 0.036303062, 10.00664, 9.996679 
2.3454612e+3, 1.7756568e+2, -622321.2, -1296713.3, 22371.523, -0.035373334, -0.36133122, -621579.9, 578239.75, 0.00824159, 10.005751, 9.996733 
2.3453818e+3, 1.8756257e+2, -622463.0, -1152125.1, 40231.223, -0.0434014, -0.3579734, -619424.6, 482425.38, 0.00069583434, 10.004632, 9.997591 
2.3453027e+3, 1.9755965e+2, -698661.5, -1138738.0, 38839.83, -0.079575606, -0.37904948, -695259.9, 308618.2, 0.0000010234204, 10.003433, 9.997589 
2.3452242e+3, 2.0755725e+2, -693427.7, -1009214.1, 43126.766, -0.058028694, -0.3801184, -687643.8, 218257.83, 0.0, 10.002467, 9.998271 
2.345146e+3, 2.175553e+2, -721176.2, -967045.7, 43191.176, -0.012537333, -0.37302327, -713809.6, 94111.25, 0.0, 10.001582, 9.998314 
2.3450674e+3, 2.2755367e+2, -725206.44, -827280.25, 45653.656, -0.025703924, -0.37762073, -707766.94, 2169.9866, 0.0, 10.000489, 9.999126 
2.3449886e+3, 2.3755239e+2, -794529.9, -805994.94, 42734.1, -0.059862472, -0.38972446, -757145.56, -145196.06, 0.0, 9.999323, 9.999163 
2.3449104e+3, 2.4755171e+2, -783423.5, -660440.44, 43444.78, -0.029184068, -0.38313246, -646641.5, -132684.66, 0.0, 9.998342, 9.999961 
2.3448327e+3, 2.5755152e+2, -820391.3, -626824.56, 44648.29, 0.026713999, -0.36996734, -617022.4, -201062.64, 0.0, 9.997413, 9.999968 
2.3447542e+3, 2.6755184e+2, -831499.5, -499686.13, 45615.836, 0.019452212, -0.33800954, -493529.38, -175571.89, 0.0, 9.996313, 10.000696 
2.3446755e+3, 2.7755252e+2, -897578.0, -470774.66, 48401.188, -0.00999014, -0.3116257, -465354.6, -245402.72, 0.0, 9.995143, 10.000787 
2.3445979e+3, 2.8755298e+2, -880233.7, -292229.88, 45870.688, 0.04960989, -0.3679767, -288673.0, -166725.53, 0.0, 9.994076, 10.001854 
2.3445202e+3, 2.9755405e+2, -927675.3, -250394.06, 31521.459, 0.13795625, -0.41806966, -248930.19, -224993.5, 0.0, 9.993016, 10.001981 
2.3444396e+3, 3.07558e+2, -946656.75, -75457.766, 23259.232, -0.068283096, -0.26540372, -74837.234, -74837.234, 0.0, 9.991863, 10.003404 
2.344363e+3, 3.175605e+2, -1096571.3, -102393.17, 40245.97, 0.096413895, -0.32101634, -100766.61, -100766.61, 0.0, 9.990656, 10.003792 
2.3558702e+3, 1.2766623e+2, -986347.75, -1666778.5, -21145.982, -0.012024164, -0.3555569, -985691.25, 703143.6, 0.428678, 10.010956, 9.995159 
2.3557879e+3, 1.3766055e+2, -842121.0, -1568685.3, -25950.707, -0.090684935, -0.4628223, -841195.25, 749693.4, 0.31348005, 10.009739, 9.995707 
2.3557076e+3, 1.47657e+2, -719147.06, -1473585.6, -3086.6638, -0.04010856, -0.37847945, -719134.44, 773788.4, 0.195026, 10.008618, 9.996187 
2.3556277e+3, 1.5765291e+2, -668945.3, -1454230.6, -7842.379, -0.008252956, -0.37668747, -668867.0, 726096.25, 0.097003266, 10.00757, 9.996123 
2.3555468e+3, 1.6764893e+2, -614727.44, -1340289.0, -12887.045, -0.03634565, -0.38058752, -614498.6, 682503.9, 0.035445143, 10.006636, 9.996683 
2.355466e+3, 1.7764542e+2, -623659.4, -1298928.9, -11402.144, -0.07798271, -0.3716233, -623466.94, 575570.4, 0.007995391, 10.00574, 9.996726 
2.355386e+3, 1.8764201e+2, -625158.8, -1159065.5, -3280.3445, -0.064067535, -0.39438727, -625138.7, 475931.4, 0.00066870876, 10.004631, 9.997547 
2.3553061e+3, 1.9763885e+2, -699768.94, -1144520.3, -999.1517, -0.03422162, -0.43508306, -699766.75, 303333.47, 0.0000011501002, 10.003443, 9.997548 
2.3552263e+3, 2.0763679e+2, -693594.9, -1012644.4, 12095.572, -0.049257003, -0.39897722, -693137.0, 211983.94, 0.0, 10.002475, 9.998246 
2.3551466e+3, 2.1763535e+2, -724408.9, -974233.56, 9695.703, -0.076800585, -0.33903852, -724033.1, 83102.87, 0.0, 10.001578, 9.99827 
2.3550674e+3, 2.2763333e+2, -732113.44, -843147.1, 3081.7776, -0.042712517, -0.37289703, -732028.0, -22872.475, 0.0, 10.00049, 9.999021 
2.3549883e+3, 2.3763138e+2, -798389.0, -816393.8, 1741.4646, 0.010011812, -0.44180635, -798222.1, -187047.95, 0.0, 9.999327, 9.999092 
2.3549087e+3, 2.4763095e+2, -780428.8, -657110.4, 8004.517, -0.008482644, -0.4088793, -656593.0, -143413.66, 0.0, 9.998348, 9.999984 
2.3548292e+3, 2.5763133e+2, -814080.6, -618178.5, 6727.353, -0.04979149, -0.34264496, -617947.75, -202770.42, 0.0, 9.997425, 10.000024 
2.35475e+3, 2.676314e+2, -822882.94, -485115.16, -237.21497, -0.014011005, -0.3429497, -485115.0, -167938.25, 0.0, 9.996322, 10.000795 
2.3546709e+3, 2.7763164e+2, -891604.9, -460069.66, 5345.7324, 0.04953454, -0.36968425, -460003.44, -240829.02, 0.0, 9.995145, 10.000862 
2.3545915e+3, 2.876325e+2, -888987.1, -311575.56, 5806.105, 0.05740781, -0.38292304, -311517.2, -190350.31, 0.0, 9.994075, 10.001724 
2.3545119e+3, 2.976339e+2, -942536.5, -286358.13, -9413.414, 0.034097884, -0.3921186, -286223.13, -263068.34, 0.0, 9.9930315, 10.00173 
2.3544319e+3, 3.076375e+2, -946568.06, -80675.63, -22434.504, 0.005574855, -0.24873978, -80094.766, -80094.766, 0.0, 9.99188, 10.003363 
2.3543532e+3, 3.1764063e+2, -1081802.9, -76862.47, -12622.572, 0.095416464, -0.25704962, -76703.945, -76703.945, 0.0, 9.990669, 10.003965 
2.3658809e+3, 1.277473e+2, -1017249.75, -1670605.4, 10517.164, 0.05217602, -0.34655023, -1017080.5, 670960.1, 0.41767624, 10.010304, 9.995419 
2.3657969e+3, 1.3774157e+2, -846255.25, -1576870.8, -1175.3674, -0.123806, -0.46125847, -846253.3, 743841.0, 0.3055487, 10.009626, 9.995675 
2.3657155e+3, 1.4773783e+2, -723822.56, -1495362.1, 16762.205, -0.07049656, -0.3828445, -723458.56, 768672.06, 0.19004343, 10.008633, 9.995996 
2.365635e+3, 1.5773351e+2, -676491.8, -1470444.8, 7961.3833, 0.014673582, -0.38138527, -676412.0, 717761.06, 0.094358385, 10.007552, 9.9960165 
2.3655535e+3, 1.6772951e+2, -619694.25, -1329805.1, 9419.237, -0.011787786, -0.38988832, -619569.3, 676643.1, 0.034322534, 10.006546, 9.996793 
2.3654714e+3, 1.7772602e+2, -643079.1, -1299155.4, 15777.408, -0.07393411, -0.38782197, -642699.94, 555546.7, 0.007669896, 10.005572, 9.996801 
2.3653904e+3, 1.8772267e+2, -625396.25, -1162062.8, 23001.316, -0.06516418, -0.40401563, -624412.25, 475866.66, 0.0006284963, 10.004649, 9.997515 
2.3653096e+3, 1.9771959e+2, -657999.3, -1124900.0, 25006.395, -0.03236957, -0.43294582, -656663.8, 345644.66, 0.0000011145918, 10.003738, 9.997537 
2.3652288e+3, 2.0771742e+2, -669413.94, -996886.94, 40762.063, -0.04896449, -0.40671006, -664416.4, 239913.72, 0.0, 10.002629, 9.998277 
2.3651478e+3, 2.1771583e+2, -739825.56, -977055.6, 41229.133, -0.08061129, -0.3626584, -732864.44, 73481.984, 0.0, 10.001458, 9.998305 
2.3650675e+3, 2.2771396e+2, -727827.9, -837126.1, 43933.383, -0.046798967, -0.38475066, -712358.06, -3993.277, 0.0, 10.000509, 9.99905 
2.3649873e+3, 2.3771222e+2, -753883.44, -791673.2, 51822.117, 0.010310842, -0.43338782, -717619.0, -107237.48, 0.0, 9.999626, 9.999114 
2.3649067e+3, 2.4771172e+2, -765913.56, -652295.1, 56247.24, -0.007358299, -0.4063279, -629160.4, -116772.76, 0.0, 9.998465, 9.999957 
2.3648259e+3, 2.577119e+2, -844618.06, -629574.25, 51145.664, -0.051460013, -0.3538722, -618029.6, -203642.23, 0.0, 9.997209, 10.000047 
2.3647459e+3, 2.677121e+2, -823417.75, -468723.6, 46321.96, -0.017742032, -0.3520993, -462773.9, -146388.27, 0.0, 9.996254, 10.0009365 
2.364666e+3, 2.7771252e+2, -852029.6, -432415.13, 51653.457, 0.051224086, -0.3723957, -426150.25, -207768.95, 0.0, 9.995389, 10.00093 
2.3645854e+3, 2.8771335e+2, -881088.1, -324474.06, 43732.39, 0.051066365, -0.3787106, -321059.03, -200684.67, 0.0, 9.99421, 10.001566 
2.3645043e+3, 2.9771462e+2, -965609.0, -301652.78, 27522.207, 0.0036051362, -0.37960517, -300513.88, -278150.22, 0.0, 9.992901, 10.001683 
2.364424e+3, 3.077182e+2, -912401.3, -54159.984, 44701.617, 0.049714204, -0.25000086, -51837.977, -51837.977, 0.0, 9.992078, 10.003447 
2.3643433e+3, 3.1771955e+2, -1041648.44, -139310.28, 471.5922, 0.020858167, -0.43228075, -139310.03, -139310.03, 0.0, 9.991304, 10.003227 
2.3758914e+3, 1.278294e+2, -1009076.06, -1673043.9, -4469.9077, 0.09256769, -0.34561926, -1009046.0, 678190.6, 0.40473244, 10.010223, 9.995421 
2.3758064e+3, 1.378242e+2, -846520.4, -1602514.0, -21649.49, -0.105114095, -0.39339027, -845900.9, 743384.75, 0.29609996, 10.009624, 9.995466 
2.3757239e+3, 1.478198e+2, -732548.56, -1538393.5, -15931.016, -0.08196824, -0.34995818, -732233.75, 759094.06, 0.18405624, 10.00865, 9.995698 
2.375642e+3, 1.5781465e+2, -684304.4, -1495941.8, -25302.914, -0.014458321, -0.4064661, -683516.3, 709861.9, 0.09117452, 10.007552, 9.995845 
2.3755595e+3, 1.678106e+2, -607135.4, -1305824.0, -23195.38, -0.011255301, -0.42347082, -606366.2, 689051.3, 0.03297448, 10.006544, 9.996962 
2.3754771e+3, 1.7780739e+2, -635063.2, -1284097.8, -17396.688, -0.030869182, -0.4095372, -634597.25, 562851.4, 0.0072757504, 10.005572, 9.996908 
2.3753947e+3, 1.8780442e+2, -628499.5, -1169531.1, -8508.598, -0.051788624, -0.38928756, -628365.7, 471111.94, 0.0005768573, 10.004647, 9.997467 
2.3753124e+3, 1.9780166e+2, -660220.44, -1128968.6, -8822.056, -0.07171967, -0.37948057, -660054.44, 341450.13, 0.00000092378025, 10.003731, 9.997516 
2.375231e+3, 2.0779902e+2, -665125.56, -988832.56, -1458.5742, -0.055874962, -0.40624982, -665118.94, 238411.53, 0.0, 10.002627, 9.998336 
2.3751494e+3, 2.177967e+2, -733867.8, -966215.3, 2743.0457, -0.029569712, -0.44147187, -733835.44, 71717.586, 0.0, 10.001459, 9.998383 
2.3750676e+3, 2.2779547e+2, -716537.75, -816277.94, 12725.483, -0.041473903, -0.4093776, -714939.75, -7374.391, 0.0, 10.000514, 9.999193 
2.3749861e+3, 2.3779482e+2, -747305.0, -780372.6, 15562.667, -0.062310714, -0.36299953, -741132.8, -131560.3, 0.0, 9.99963, 9.999193 
2.3749048e+3, 2.4779387e+2, -772318.56, -667578.2, 7282.412, -0.024677292, -0.37672085, -667074.25, -155491.5, 0.0, 9.998468, 9.999853 
2.3748237e+3, 2.5779313e+2, -846573.94, -635531.56, 6651.707, 0.026033461, -0.4062728, -635322.1, -221731.14, 0.0, 9.9972105, 10.000008 
2.3747419e+3, 2.6779383e+2, -811658.5, -446564.22, 13242.168, 0.007794357, -0.36403978, -446084.53, -130499.77, 0.0, 9.996257, 10.001091 
2.3746604e+3, 2.7779508e+2, -847357.56, -427906.56, 15009.543, -0.020915955, -0.31423002, -427370.16, -209797.33, 0.0, 9.995404, 10.0009575 
2.3745792e+3, 2.8779545e+2, -895649.06, -358188.44, -8509.03, 0.027776502, -0.35292205, -358053.78, -238483.22, 0.0, 9.99422, 10.001333 
2.3744975e+3, 2.9779628e+2, -954308.25, -279226.16, -18588.56, 0.06791937, -0.37955096, -278714.72, -257150.66, 0.0, 9.992898, 10.001842 
2.3744158e+3, 3.077999e+2, -892010.5, -14078.689, 24418.213, 0.048035346, -0.2812138, -13400.0625, -13400.0625, 0.0, 9.992083, 10.003723 
2.3743348e+3, 3.178005e+2, -1082321.1, -230358.9, -105759.836, 0.07953116, -0.5266579, -217426.53, -217426.53, 0.0, 9.991325, 10.002596 
2.3859009e+3, 1.2791201e+2, -1036141.9, -1697701.0, 14134.395, 0.084944025, -0.345425, -1035840.0, 650587.5, 0.39068273, 10.009728, 9.995432 
2.385816e+3, 1.3790698e+2, -812175.2, -1592674.8, -3693.6296, -0.07508544, -0.36457282, -812157.7, 776317.44, 0.28571522, 10.009877, 9.995408 
2.3857324e+3, 1.4790241e+2, -688183.8, -1503739.8, -3731.0186, -0.064507894, -0.3407927, -688166.75, 802351.8, 0.1773984, 10.0089245, 9.995798 
2.3856492e+3, 1.5789716e+2, -674407.1, -1483080.5, 10157.682, -0.0150213605, -0.41675085, -674279.56, 718289.9, 0.0876072, 10.007572, 9.99592 
2.3855656e+3, 1.6789317e+2, -607151.75, -1304317.4, 20895.135, -0.016668549, -0.42911544, -606526.06, 688082.06, 0.03146138, 10.006535, 9.996974 
2.3854825e+3, 1.7789005e+2, -626156.3, -1275888.3, 17268.139, -0.036306806, -0.40443933, -625697.7, 570940.8, 0.006831817, 10.005622, 9.996937 
2.3853992e+3, 1.8788713e+2, -628766.1, -1160883.9, 28251.908, -0.048952065, -0.3836679, -627270.3, 471396.88, 0.00051734515, 10.004615, 9.997538 
2.3853159e+3, 1.9788443e+2, -677625.3, -1127813.4, 32893.902, -0.059230912, -0.37572688, -675234.5, 325459.25, 0.0000006457051, 10.003576, 9.997594 
2.3852332e+3, 2.0788181e+2, -672479.94, -980238.7, 40879.027, -0.05383396, -0.40609205, -667142.6, 235576.6, 0.0, 10.002531, 9.998438 
2.3851503e+3, 2.1787952e+2, -724725.3, -950760.0, 47807.71, -0.041890893, -0.445896, -715029.6, 89711.6, 0.0, 10.001481, 9.998474 
2.3850676e+3, 2.2787842e+2, -729634.25, -815218.6, 57732.26, -0.048537098, -0.40732867, -700564.2, 6188.3877, 0.0, 10.000399, 9.999253 
2.3849851e+3, 2.3787794e+2, -790328.6, -794378.5, 54088.7, -0.058601838, -0.34910518, -738226.94, -129468.6, 0.0, 9.999311, 9.999248 
2.3849028e+3, 2.4787696e+2, -781463.8, -665734.44, 50743.254, -0.02270349, -0.36844704, -646636.8, -135868.13, 0.0, 9.998385, 9.999903 
2.3848206e+3, 2.578761e+2, -805156.25, -612806.9, 59574.707, 0.026147487, -0.41127065, -595850.2, -183072.56, 0.0, 9.997492, 10.000024 
2.384738e+3, 2.6787674e+2, -804861.25, -449833.66, 57063.754, 0.0025460245, -0.3682634, -440887.22, -126115.05, 0.0, 9.99634, 10.001023 
2.384655e+3, 2.7787802e+2, -892802.6, -450265.8, 42124.63, -0.03440173, -0.30970976, -446291.72, -229531.1, 0.0, 9.995102, 10.000946 
2.384573e+3, 2.8787857e+2, -880676.8, -332224.2, 37924.54, 0.027806813, -0.337047, -329614.2, -210858.06, 0.0, 9.99425, 10.0014925 
2.3844907e+3, 2.9787958e+2, -858939.5, -223325.28, 51432.816, 0.090948984, -0.35973486, -219190.31, -198442.83, 0.0, 9.99352, 10.001921 
2.3844075e+3, 3.0788243e+2, -917674.06, -55692.996, 48596.5, 0.032830376, -0.32400092, -52961.89, -52961.89, 0.0, 9.992038, 10.003456 
2.3843254e+3, 3.1788647e+2, -1065908.5, -34982.2, -79009.35, 0.09658105, -0.20117292, -28962.139, -28962.139, 0.0, 9.99064, 10.004263 
2.3959097e+3, 1.2799509e+2, -1009281.0, -1682601.6, 19424.125, 0.032360606, -0.34541136, -1008721.1, 676892.44, 0.37629262, 10.009819, 9.995501 
2.395826e+3, 1.3799003e+2, -805091.9, -1588299.0, -6726.231, -0.037738383, -0.36874148, -805034.1, 782627.94, 0.27493808, 10.009795, 9.995479 
2.3957415e+3, 1.4798562e+2, -668907.0, -1463312.8, -43918.293, -0.025715193, -0.3545901, -666486.4, 823217.2, 0.17039374, 10.008853, 9.99615 
2.3956566e+3, 1.5798083e+2, -659937.56, -1453704.3, -30555.15, 0.003645161, -0.41543743, -658763.1, 732985.9, 0.08381667, 10.007551, 9.996137 
2.3955718e+3, 1.6797702e+2, -615976.1, -1324825.6, -9564.236, -0.030671382, -0.41011104, -615847.1, 677939.3, 0.029849986, 10.006524, 9.996841 
2.3954871e+3, 1.7797388e+2, -631848.06, -1285980.5, -14489.707, -0.08431554, -0.37525487, -631527.25, 564290.44, 0.006360647, 10.005606, 9.996879 
2.3954034e+3, 1.879707e+2, -619802.0, -1140676.9, -7695.0127, -0.054413848, -0.38641807, -619688.4, 478160.22, 0.00045452383, 10.004602, 9.997685 
2.3953198e+3, 1.9796775e+2, -668963.6, -1108921.6, -3185.8628, -0.0018967148, -0.41746515, -668940.56, 330936.5, 0.00000036108204, 10.003567, 9.997731 
2.3952353e+3, 2.079657e+2, -664295.25, -963841.5, 3738.208, -0.04619929, -0.40417007, -664248.6, 237648.66, 0.0, 10.002528, 9.998555 
2.3951508e+3, 2.1796416e+2, -720084.75, -941362.56, 10621.451, -0.116114326, -0.3799547, -719576.06, 84336.44, 0.0, 10.001476, 9.998545 
2.3950677e+3, 2.2796266e+2, -732178.5, -822053.44, 18003.926, -0.06597872, -0.38174552, -728706.06, -22778.383, 0.0, 10.000401, 9.999208 
2.3949848e+3, 2.3796144e+2, -788267.25, -792548.2, 15568.833, 0.018697115, -0.39226797, -774692.44, -166752.17, 0.0, 9.999316, 9.999261 
2.394901e+3, 2.479609e+2, -767618.06, -639957.75, 16956.166, -0.004928604, -0.37971115, -637743.94, -127797.93, 0.0, 9.998391, 10.00008 
2.3948169e+3, 2.579608e+2, -800520.1, -607571.5, 21879.773, -0.06116629, -0.36603478, -605121.5, -193173.78, 0.0, 9.997504, 10.000057 
2.3947336e+3, 2.679608e+2, -827905.25, -499424.56, 7614.537, -0.035793506, -0.36508095, -499248.13, -185299.5, 0.0, 9.996343, 10.000685 
2.3946504e+3, 2.7796122e+2, -896926.3, -459310.7, -1408.9551, 0.020042384, -0.36005473, -459306.16, -243360.5, 0.0, 9.995098, 10.000889 
2.3945671e+3, 2.8796265e+2, -840141.25, -251074.05, 11485.099, 0.054819286, -0.33555388, -250850.2, -132918.28, 0.0, 9.994256, 10.00205 
2.3944834e+3, 2.979643e+2, -858503.44, -231046.34, 17969.285, 0.057522617, -0.34007576, -230532.16, -210616.3, 0.0, 9.993551, 10.001856 
2.3943987e+3, 3.0796602e+2, -983512.1, -191360.39, -28356.945, -0.009378822, -0.34366313, -190346.58, -190346.58, 0.0, 9.992026, 10.002534 
2.3943156e+3, 3.1797016e+2, -994849.9, 104260.805, 27590.416, 0.06786004, -0.1731213, 104952.96, 104952.96, 0.0, 9.990665, 10.005213 
2.4059194e+3, 1.2807961e+2, -913625.94, -1648220.0, 51002.01, 0.012943561, -0.33935186, -910101.8, 774682.9, 0.36211535, 10.010714, 9.995434 
2.4058352e+3, 1.380742e+2, -885321.6, -1649751.4, 27673.6, -0.000434667, -0.38312313, -884321.06, 702515.75, 0.26417744, 10.008941, 9.99547 
2.4057496e+3, 1.480699e+2, -746028.3, -1481412.1, -10323.143, -0.0037956438, -0.37328723, -745883.44, 742994.3, 0.1632985, 10.008055, 9.996379 
2.4056636e+3, 1.5806556e+2, -661725.56, -1434704.0, -1226.398, -0.0049042804, -0.409825, -661723.6, 729195.2, 0.07993638, 10.007429, 9.996321 
2.4055779e+3, 1.6806191e+2, -620892.4, -1317472.5, 27764.785, -0.028983494, -0.39887255, -619787.44, 673167.25, 0.028197078, 10.006443, 9.996927 
2.4054924e+3, 1.7805877e+2, -661090.9, -1288169.3, 35901.617, -0.06207602, -0.36840585, -659042.1, 535943.7, 0.005881881, 10.005355, 9.996981 
2.4054074e+3, 1.8805562e+2, -650586.8, -1138796.3, 45756.777, -0.047400936, -0.38991576, -646335.3, 450681.03, 0.0003927094, 10.004325, 9.997829 
2.4053228e+3, 1.980527e+2, -698155.4, -1108939.4, 49101.41, -0.01776667, -0.429292, -692367.75, 306676.5, 0.00000014397028, 10.003314, 9.997849 
2.4052376e+3, 2.0805083e+2, -690717.2, -969942.44, 52665.387, -0.04816676, -0.40374777, -681114.1, 219948.81, 0.0, 10.002325, 9.998608 
2.4051522e+3, 2.1804948e+2, -735481.25, -942003.2, 53868.406, -0.094680846, -0.3627067, -722274.9, 80801.695, 0.0, 10.001348, 9.998598 
2.4050678e+3, 2.2804788e+2, -732117.0, -814480.56, 65430.617, -0.056608982, -0.37885454, -695987.06, 9105.4795, 0.0, 10.000375, 9.9992695 
2.404984e+3, 2.3804648e+2, -775189.6, -781588.25, 71066.82, 0.008715417, -0.41143155, -707250.1, -100143.58, 0.0, 9.999393, 9.999296 
2.4048989e+3, 2.4804607e+2, -771294.0, -643210.56, 65622.08, -0.013385397, -0.3833868, -615559.3, -106448.21, 0.0, 9.998379, 10.00006 
2.4048139e+3, 2.5804615e+2, -825203.9, -621147.9, 54499.914, -0.062961824, -0.3458707, -607504.1, -196393.03, 0.0, 9.997348, 10.000036 
2.4047294e+3, 2.6804587e+2, -821771.6, -497513.25, 50394.902, -0.034143995, -0.37016228, -489861.66, -176747.1, 0.0, 9.996396, 10.000669 
2.4046455e+3, 2.7804595e+2, -843901.4, -433192.34, 64124.4, 0.027467715, -0.39680037, -423413.38, -208298.77, 0.0, 9.995468, 10.000885 
2.404561e+3, 2.880477e+2, -806552.56, -233417.08, 55738.605, 0.049122363, -0.339211, -228046.72, -110948.92, 0.0, 9.994488, 10.002056 
2.4044763e+3, 2.9804954e+2, -881906.94, -259496.31, 18524.18, 0.03426361, -0.32275844, -258945.48, -239865.38, 0.0, 9.993469, 10.001698 
2.4043906e+3, 3.080506e+2, -926394.3, -206417.66, -16041.672, -0.0019369996, -0.35808945, -206060.4, -206060.4, 0.0, 9.99261, 10.002144 
2.4043067e+3, 3.1805137e+2, -938553.25, 36190.47, 132575.77, 0.09283853, -0.495613, 53900.445, 53900.445, 0.0, 9.991476, 10.004347 
2.4159299e+3, 1.2816513e+2, -912266.2, -1667831.5, 6523.8057, 0.008982119, -0.34300557, -912209.9, 771735.44, 0.3484569, 10.010638, 9.995254 
2.4158442e+3, 1.3815945e+2, -880501.1, -1663565.1, -8952.757, 0.03185942, -0.39744064, -880398.75, 705601.8, 0.25368157, 10.008934, 9.995378 
2.4157573e+3, 1.4815518e+2, -732273.44, -1467509.6, -25678.813, 0.0005229887, -0.38670233, -731377.7, 756664.0, 0.15628783, 10.008055, 9.996495 
2.4156705e+3, 1.581512e+2, -652495.06, -1415628.4, -23766.16, -0.037506673, -0.40050638, -651755.6, 738324.44, 0.07606742, 10.007399, 9.99647 
2.4155842e+3, 1.6814767e+2, -607904.8, -1286551.9, -9162.431, -0.014125395, -0.3968691, -607781.1, 684333.3, 0.026547963, 10.006412, 9.997158 
2.4154983e+3, 1.781446e+2, -649987.9, -1260911.3, -1258.5897, 0.017898072, -0.3840926, -649985.3, 544159.2, 0.0054113646, 10.005328, 9.997184 
2.4154116e+3, 1.881417e+2, -643792.0, -1122835.3, 9869.385, -0.03315511, -0.39389405, -643588.75, 452583.5, 0.00033530846, 10.004311, 9.997949 
2.4153249e+3, 1.981391e+2, -694067.0, -1100118.1, 13901.238, -0.10122748, -0.41351202, -693591.6, 304605.47, 0.00000003444413, 10.003306, 9.997917 
2.4152392e+3, 2.0813705e+2, -692907.3, -975587.25, 17750.086, -0.056871276, -0.4050171, -691797.1, 208420.52, 0.0, 10.002324, 9.998571 
2.415154e+3, 2.181354e+2, -734468.0, -940563.75, 19613.008, 0.014296908, -0.3912029, -732618.2, 69616.27, 0.0, 10.001345, 9.998613 
2.4150681e+3, 2.2813402e+2, -721192.7, -794034.0, 30128.393, -0.025790624, -0.39588195, -710346.2, -6098.271, 0.0, 10.000379, 9.999412 
2.4149819e+3, 2.3813295e+2, -772753.56, -779329.06, 34103.184, -0.09152454, -0.40669644, -741780.0, -135521.9, 0.0, 9.999399, 9.999312 
2.4148968e+3, 2.4813235e+2, -788119.7, -679915.0, 25440.467, -0.0460845, -0.38099733, -674232.06, -165967.1, 0.0, 9.998381, 9.99981 
2.4148117e+3, 2.5813213e+2, -830374.44, -634141.25, 15440.8125, 0.024969386, -0.35152838, -632933.75, -222665.02, 0.0, 9.997352, 9.9999485 
2.414726e+3, 2.6813197e+2, -799193.2, -453743.0, 14664.388, 0.008187049, -0.384073, -453121.6, -140851.17, 0.0, 9.996403, 10.00097 
2.4146399e+3, 2.7813217e+2, -841468.94, -433437.94, 28899.58, -0.024596933, -0.421869, -431401.22, -217133.48, 0.0, 9.995484, 10.000878 
2.4145547e+3, 2.8813368e+2, -848834.1, -324492.2, 15623.481, 0.002479324, -0.3467335, -324027.06, -207772.89, 0.0, 9.994496, 10.00143 
2.4144694e+3, 2.9813528e+2, -899424.6, -298332.44, -19735.066, 0.02482267, -0.2925272, -297685.2, -279445.28, 0.0, 9.993474, 10.001431 
2.4143837e+3, 3.0813575e+2, -915676.56, -193531.83, -47640.51, 0.07700574, -0.3938562, -190402.52, -190402.52, 0.0, 9.992644, 10.002219 
2.4142972e+3, 3.1813836e+2, -974963.25, -49691.516, 50988.06, 0.035371717, -0.32266822, -46890.246, -46890.246, 0.0, 9.991508, 10.003748 
2.4259397e+3, 1.282516e+2, -917605.75, -1665618.1, 14281.318, -0.023974454, -0.35799372, -917333.2, 765763.9, 0.33538586, 10.010343, 9.995415 
2.425853e+3, 1.3824615e+2, -851327.1, -1636296.0, 21694.586, 0.058166016, -0.4011711, -850728.0, 734422.0, 0.24354011, 10.009049, 9.995509 
2.4257651e+3, 1.4824197e+2, -733283.8, -1463435.3, 24502.998, 0.019023605, -0.3892961, -732462.44, 754728.3, 0.14945129, 10.007965, 9.996566 
2.425677e+3, 1.5823817e+2, -703653.7, -1433471.4, 25467.52, -0.04231182, -0.38932806, -702766.06, 686461.9, 0.07227503, 10.006958, 9.996557 
2.4255899e+3, 1.6823468e+2, -664169.9, -1300398.8, 32024.588, -0.017871099, -0.39238754, -662562.0, 628700.0, 0.024936387, 10.005952, 9.997281 
2.425503e+3, 1.7823158e+2, -695909.2, -1269024.3, 35348.95, 0.023081005, -0.3933351, -693737.1, 499554.97, 0.0049612373, 10.004957, 9.997303 
2.4254155e+3, 1.8822883e+2, -667680.06, -1121680.0, 47012.902, -0.026781376, -0.397587, -662862.9, 432455.5, 0.0002844594, 10.004099, 9.9980545 
2.4253279e+3, 1.982264e+2, -693081.8, -1091052.8, 47107.098, -0.09638779, -0.4063449, -687581.9, 309759.53, 0.000000003872902, 10.00328, 9.997989 
2.4252412e+3, 2.0822434e+2, -697810.0, -976611.8, 50231.84, -0.051432446, -0.40232414, -689035.8, 210326.56, 0.0, 10.002291, 9.998578 
2.425155e+3, 2.182226e+2, -747162.94, -943249.94, 54082.656, 0.02332077, -0.395621, -733235.6, 68144.54, 0.0, 10.001251, 9.998636 
2.4250682e+3, 2.282213e+2, -729143.7, -792185.5, 61613.055, -0.02351918, -0.3947684, -691456.7, 11936.071, 0.0, 10.000306, 9.999455 
2.4249807e+3, 2.3822032e+2, -771659.4, -773815.06, 58956.227, -0.09939972, -0.3988536, -713771.1, -108369.36, 0.0, 9.999392, 9.99935 
2.4248947e+3, 2.4821961e+2, -780173.9, -673176.44, 63394.305, -0.048631586, -0.38770732, -643723.6, -136313.86, 0.0, 9.99843, 9.999829 
2.424809e+3, 2.582192e+2, -815448.6, -624978.2, 72142.87, 0.03558844, -0.37484002, -600738.2, -191323.1, 0.0, 9.997454, 9.999958 
2.4247222e+3, 2.682192e+2, -771075.5, -441059.06, 60378.547, 0.010068855, -0.3862845, -430359.34, -118944.42, 0.0, 9.996606, 10.000956 
2.424635e+3, 2.7821958e+2, -807857.4, -424534.0, 48970.96, -0.038583674, -0.40342692, -418376.7, -204966.13, 0.0, 9.99575, 10.00081 
2.4245489e+3, 2.8822064e+2, -832465.75, -332558.7, 54284.066, -0.01233771, -0.35921922, -326731.97, -211330.69, 0.0, 9.994684, 10.001281 
2.4244626e+3, 2.9822198e+2, -882472.6, -294721.63, 56921.137, 0.01614791, -0.31537318, -289259.8, -271870.3, 0.0, 9.993621, 10.00138 
2.4243762e+3, 3.082224e+2, -872826.44, -180136.23, 31102.197, 0.08775149, -0.41533828, -178742.53, -178742.53, 0.0, 9.992975, 10.002149 
2.4242881e+3, 3.1822547e+2, -909770.56, 20481.58, 60461.242, -0.003042549, -0.27884987, 24394.766, 24394.766, 0.0, 9.991789, 10.004093 
2.435949e+3, 1.2833898e+2, -890946.06, -1632133.4, -16501.846, -0.08521067, -0.3716914, -890578.8, 791661.44, 0.32278392, 10.010293, 9.9957695 
2.4358618e+3, 1.3833399e+2, -833755.06, -1603419.0, -10522.866, 0.07619447, -0.40484032, -833611.25, 750677.1, 0.2337208, 10.008998, 9.99576 
2.435773e+3, 1.4832991e+2, -729386.4, -1463645.1, -5856.4985, 0.046088718, -0.39222968, -729339.6, 756988.9, 0.14281045, 10.0079365, 9.996579 
2.4356839e+3, 1.5832627e+2, -701530.06, -1431731.1, -6627.985, -0.027242586, -0.37750596, -701469.9, 686894.8, 0.06859266, 10.006937, 9.996582 
2.4355952e+3, 1.6832277e+2, -662595.5, -1298431.5, -1557.2122, -0.03981523, -0.38307518, -662591.7, 627807.1, 0.023383731, 10.005942, 9.997302 
2.435507e+3, 1.7831959e+2, -693362.56, -1265265.3, 3407.7554, -0.037172627, -0.39378417, -693342.25, 499087.4, 0.004538984, 10.004956, 9.997333 
2.4354193e+3, 1.8831688e+2, -664291.25, -1114535.3, 19337.844, -0.026016546, -0.40036616, -663462.25, 430993.44, 0.00024095578, 10.004092, 9.998111 
2.4353315e+3, 1.9831452e+2, -692272.8, -1086477.1, 16598.51, -0.014832864, -0.40852347, -691575.1, 304903.2, 0.0000000002134854, 10.003262, 9.998033 
2.4352434e+3, 2.0831254e+2, -696363.7, -973788.06, 12623.889, -0.036925774, -0.3958683, -695790.44, 202707.9, 0.0, 10.002285, 9.998603 
2.435155e+3, 2.1831095e+2, -747294.75, -945339.25, 18547.252, -0.06467522, -0.37856567, -745572.75, 54942.277, 0.0, 10.001253, 9.998624 
2.4350679e+3, 2.2830959e+2, -733610.6, -803558.8, 28539.621, -0.04614228, -0.37725842, -723443.8, -20915.658, 0.0, 10.00031, 9.999378 
2.4349807e+3, 2.383085e+2, -768670.56, -769228.8, 24107.803, -0.017255206, -0.3856541, -744840.25, -140302.05, 0.0, 9.9993925, 9.999384 
2.4348931e+3, 2.483077e+2, -759986.3, -633618.2, 25327.547, -0.024817951, -0.4024119, -628730.9, -122184.72, 0.0, 9.998434, 10.000102 
2.4348055e+3, 2.5830728e+2, -809093.56, -615832.94, 36891.684, -0.041402027, -0.4167414, -609030.1, -200479.4, 0.0, 9.997465, 10.000019 
2.434718e+3, 2.683076e+2, -796371.75, -497366.6, 27687.373, -0.03102452, -0.3746159, -494824.4, -184275.81, 0.0, 9.996616, 10.000567 
2.4346308e+3, 2.7830818e+2, -814575.8, -444603.72, 11885.774, -0.007591863, -0.33260837, -444222.25, -231678.95, 0.0, 9.99577, 10.000666 
2.4345435e+3, 2.883085e+2, -806889.5, -284159.72, 10700.418, 0.008320433, -0.38096178, -283940.78, -169400.64, 0.0, 9.994697, 10.001611 
2.4344556e+3, 2.983094e+2, -871269.44, -273684.88, 24992.967, -0.0040407055, -0.4145136, -272641.4, -256110.39, 0.0, 9.993624, 10.001527 
2.4343681e+3, 3.0831093e+2, -878350.8, -197677.33, 9345.257, 0.013923297, -0.39839894, -197549.05, -197549.05, 0.0, 9.992995, 10.002022 
2.43428e+3, 3.1831267e+2, -934738.75, -31721.46, -97094.98, 0.06470133, -0.38477463, -21399.518, -21399.518, 0.0, 9.991787, 10.003738 
2.4459587e+3, 1.2842777e+2, -892205.56, -1643626.8, 11463.119, -0.082804255, -0.39816666, -892030.7, 789338.06, 0.310433, 10.010164, 9.995707 
2.4458702e+3, 1.38423e+2, -866590.1, -1628448.6, 12292.508, 0.06736547, -0.40675494, -866391.9, 717024.0, 0.2241255, 10.008618, 9.9957695 
2.4457803e+3, 1.4841898e+2, -762474.94, -1470697.8, 29728.049, 0.039045017, -0.39280203, -761229.3, 724226.3, 0.13634421, 10.007582, 9.996686 
2.4456902e+3, 1.5841544e+2, -722253.2, -1434720.3, 34528.44, -0.026880905, -0.3753344, -720583.75, 666907.0, 0.06502712, 10.006733, 9.996657 
2.4456008e+3, 1.6841194e+2, -667122.94, -1299507.1, 41370.61, -0.039116003, -0.3821565, -664427.94, 625096.9, 0.021896828, 10.0059, 9.9973135 
2.4455117e+3, 1.7840873e+2, -676969.8, -1254176.3, 43695.793, -0.03850874, -0.39678755, -673680.7, 517875.47, 0.004146091, 10.005055, 9.997359 
2.4454229e+3, 1.8840605e+2, -683229.0, -1115681.1, 57571.0, -0.021659888, -0.40132138, -675696.0, 417885.78, 0.00020441209, 10.003934, 9.998176 
2.4453342e+3, 1.9840379e+2, -761681.75, -1113890.5, 57756.945, -0.001459504, -0.40415806, -752452.3, 243151.2, 0.00000000008671795, 10.00277, 9.998076 
2.4452451e+3, 2.0840183e+2, -729571.1, -991978.56, 56736.06, -0.03307283, -0.38940498, -717829.44, 179794.25, 0.0, 10.002075, 9.998575 
2.445156e+3, 2.1840018e+2, -714435.2, -929537.2, 54756.742, -0.075275406, -0.37287077, -701298.5, 98342.52, 0.0, 10.001483, 9.998619 
2.4450676e+3, 2.2839878e+2, -720214.56, -791422.25, 62918.414, -0.04999602, -0.3752201, -683524.8, 18129.498, 0.0, 10.000384, 9.999422 
2.4449797e+3, 2.383977e+2, -798906.1, -776631.6, 69571.11, -0.006025498, -0.38620323, -717312.0, -113647.74, 0.0, 9.999163, 9.99944 
2.4448912e+3, 2.48397e+2, -762047.44, -627080.3, 67587.58, -0.02268147, -0.39936525, -599054.1, -93383.0, 0.0, 9.998394, 10.000164 
2.4448025e+3, 2.583966e+2, -770400.5, -593797.94, 62453.066, -0.05556151, -0.41074795, -573944.2, -166269.42, 0.0, 9.997721, 10.000044 
2.4447142e+3, 2.6839685e+2, -785215.2, -498523.6, 65133.543, -0.045137852, -0.36966082, -484419.72, -174746.48, 0.0, 9.996727, 10.000503 
2.444626e+3, 2.783974e+2, -831824.56, -453360.97, 70764.1, -0.013195697, -0.33045867, -440562.5, -228893.36, 0.0, 9.995663, 10.000653 
2.4445379e+3, 2.8839755e+2, -779041.6, -263972.1, 57634.75, 0.016439287, -0.3953521, -257601.72, -143934.45, 0.0, 9.9948635, 10.001666 
2.4444492e+3, 2.9839835e+2, -809436.06, -240914.86, 51707.375, 0.013912347, -0.4413881, -236250.31, -220591.44, 0.0, 9.994035, 10.001554 
2.4443601e+3, 3.0840075e+2, -893125.6, -185139.89, 49190.156, -0.029635053, -0.34324372, -181738.55, -181738.55, 0.0, 9.992812, 10.002194 
2.4442717e+3, 3.1840333e+2, -892262.7, -26731.406, -70382.625, 0.060648207, -0.27341065, -21045.438, -21045.438, 0.0, 9.992158, 10.003587 
2.455969e+3, 1.2851761e+2, -906022.44, -1676675.9, -29171.043, -0.041865278, -0.440247, -904919.8, 775566.8, 0.29814893, 10.0100155, 9.995445 
2.455878e+3, 1.3851306e+2, -866151.06, -1648532.6, -22728.014, 0.032170314, -0.40106434, -865491.4, 717041.9, 0.21465956, 10.008606, 9.995639 
2.455787e+3, 1.4850911e+2, -747911.3, -1456429.5, 6088.0586, 0.0023044765, -0.38499677, -747859.0, 736713.5, 0.13001701, 10.007598, 9.996794 
2.4556965e+3, 1.5850556e+2, -715544.0, -1425674.9, 7941.973, -0.04120434, -0.37972203, -715455.2, 671152.25, 0.061567817, 10.006727, 9.996725 
2.4556065e+3, 1.6850203e+2, -669498.75, -1305602.0, 13761.81, -0.021660076, -0.3899278, -669201.2, 619440.7, 0.020471286, 10.00589, 9.997279 
2.4555166e+3, 1.7849876e+2, -678181.1, -1255466.4, 10850.206, 0.0077015827, -0.40452442, -677977.25, 512696.28, 0.0037797485, 10.005042, 9.99736 
2.4554265e+3, 1.8849623e+2, -678457.56, -1107094.4, 14450.894, -0.016728442, -0.40058732, -677970.94, 414727.0, 0.00017373232, 10.003932, 9.998239 
2.4553362e+3, 1.9849412e+2, -759905.75, -1112989.6, 23228.09, -0.05108002, -0.3925313, -758384.2, 236333.97, 0.00000000016280782, 10.002776, 9.998083 
2.4552469e+3, 2.0849207e+2, -735740.75, -1006874.25, 37903.258, -0.03726423, -0.3824221, -730541.75, 166197.77, 0.0, 10.002078, 9.998475 
2.4551578e+3, 2.1849021e+2, -716875.9, -933603.5, 27683.39, -0.015195675, -0.3761953, -713395.7, 85363.16, 0.0, 10.001472, 9.998599 
2.455068e+3, 2.2848883e+2, -710957.75, -773551.56, 17384.73, -0.039427143, -0.38704354, -706453.5, -5681.5356, 0.0, 10.000383, 9.999548 
2.4549778e+3, 2.3848782e+2, -795913.1, -773874.8, 30532.64, -0.0695677, -0.40143833, -752433.8, -149652.88, 0.0, 9.99917, 9.999458 
2.454889e+3, 2.4848735e+2, -773028.25, -653168.0, 41812.34, -0.041025165, -0.37805304, -640023.56, -135237.78, 0.0, 9.998402, 9.999984 
2.4548003e+3, 2.5848722e+2, -770109.4, -596954.1, 30703.242, -0.004147612, -0.35021478, -591671.1, -184883.52, 0.0, 9.99773, 10.000021 
2.4547108e+3, 2.68487e+2, -765324.9, -459486.0, 22493.963, -0.032940082, -0.374347, -457840.47, -149050.81, 0.0, 9.99673, 10.000772 
2.4546209e+3, 2.78487e+2, -824526.9, -439108.25, 35626.6, -0.065662794, -0.41147915, -435842.72, -225053.36, 0.0, 9.99566, 10.000755 
2.4545322e+3, 2.8848782e+2, -794636.94, -299543.7, 28730.42, 0.01117638, -0.3954643, -297882.03, -185099.92, 0.0, 9.99487, 10.001422 
2.4544436e+3, 2.9848927e+2, -809639.0, -250173.44, 12764.418, 0.08283065, -0.3563274, -249882.36, -235113.03, 0.0, 9.994066, 10.001479 
2.4543525e+3, 3.084917e+2, -865112.06, -126024.164, 2291.3967, -0.04268282, -0.28014705, -126017.06, -126017.06, 0.0, 9.992802, 10.002609 
2.4542627e+3, 3.1849268e+2, -825721.75, 100973.78, -7765.4395, -0.017386379, -0.41847277, 101038.85, 101038.85, 0.0, 9.992198, 10.004447 
2.4659783e+3, 1.2860869e+2, -998163.6, -1721276.0, 1684.7861, 0.0063192523, -0.45441577, -998159.7, 681434.0, 0.28583986, 10.0088825, 9.995677 
2.465886e+3, 1.3860458e+2, -825718.06, -1616082.4, 24452.42, -0.010045009, -0.39130098, -824962.25, 756673.75, 0.20524858, 10.008824, 9.995755 
2.4657942e+3, 1.4860049e+2, -718777.6, -1458314.0, 44587.918, -0.027825417, -0.3807621, -716099.0, 767577.7, 0.12377686, 10.007855, 9.99665 
2.4657029e+3, 1.5859665e+2, -724245.7, -1438089.1, 38480.043, -0.03142779, -0.38975954, -722177.4, 663537.25, 0.058184024, 10.00668, 9.996661 
2.465612e+3, 1.6859317e+2, -686254.7, -1304627.0, 52735.32, -0.012850576, -0.39692447, -681789.6, 605958.94, 0.019092385, 10.005733, 9.997358 
2.4655212e+3, 1.7859004e+2, -703089.0, -1261855.3, 54367.016, 0.004897815, -0.4038878, -697848.3, 491930.6, 0.0034343814, 10.004855, 9.997401 
2.4654299e+3, 1.8858749e+2, -675012.44, -1111793.5, 48595.03, -0.019423971, -0.39677715, -669671.2, 422132.38, 0.00014750869, 10.00399, 9.998176 
2.4653386e+3, 1.9858533e+2, -711098.6, -1091779.6, 50987.32, -0.050688654, -0.38743544, -704387.8, 289436.84, 0.00000000021615258, 10.003121, 9.998061 
2.4652486e+3, 2.085832e+2, -731809.06, -995379.8, 77251.13, -0.035991877, -0.38573018, -710836.06, 185010.13, 0.0, 10.002069, 9.998555 
2.4651584e+3, 2.1858133e+2, -782839.44, -958978.5, 75150.9, -0.011607229, -0.38930967, -755133.75, 42731.688, 0.0, 10.001003, 9.998647 
2.4650677e+3, 2.2857997e+2, -724518.1, -786273.94, 55987.453, -0.03895883, -0.39217725, -691458.25, 8420.261, 0.0, 10.000324, 9.999486 
2.4649768e+3, 2.3857899e+2, -721138.9, -742969.56, 57997.35, -0.073824614, -0.3960028, -673038.7, -71151.06, 0.0, 9.999713, 9.999406 
2.4648869e+3, 2.485784e+2, -740051.56, -640826.6, 74810.836, -0.04395976, -0.37878975, -600672.4, -96779.0, 0.0, 9.998651, 9.999946 
2.4647973e+3, 2.5857812e+2, -804355.94, -611045.75, 71878.38, -0.0023420893, -0.36093965, -587248.75, -181352.63, 0.0, 9.997493, 10.000035 
2.4647067e+3, 2.685779e+2, -762659.5, -445485.66, 55091.605, -0.035514858, -0.3912392, -436189.0, -128291.04, 0.0, 9.996698, 10.000881 
2.4646161e+3, 2.7857795e+2, -777852.5, -412995.6, 57142.313, -0.07117663, -0.4313948, -404255.56, -194358.55, 0.0, 9.995968, 10.000785 
2.464527e+3, 2.8857896e+2, -768496.75, -297896.78, 55487.67, 0.029684817, -0.39112067, -291442.84, -179554.48, 0.0, 9.995103, 10.001319 
2.4644375e+3, 2.9858044e+2, -793153.56, -238766.67, 39591.426, 0.116799, -0.33632565, -235953.53, -222078.22, 0.0, 9.994174, 10.0015 
2.4643442e+3, 3.085824e+2, -817817.7, -85859.22, 15217.348, -0.10088264, -0.31936818, -85542.984, -85542.984, 0.0, 9.993063, 10.002753 
2.464255e+3, 3.185833e+2, -813807.44, 105676.36, 48709.76, 0.028918786, -0.47613028, 108249.56, 108249.56, 0.0, 9.992288, 10.004436 
2.4759874e+3, 1.2870087e+2, -960990.1, -1656269.0, 4704.0483, 0.052092563, -0.44732383, -960958.3, 717732.94, 0.27343917, 10.008879, 9.996179 
2.4758938e+3, 1.3869725e+2, -811379.2, -1590405.8, 12200.868, -0.06461622, -0.37935835, -811188.1, 769538.94, 0.19580284, 10.00877, 9.995957 
2.4758013e+3, 1.4869288e+2, -737149.6, -1506728.1, 5803.8984, -0.055884413, -0.38048458, -737105.9, 745664.9, 0.11754488, 10.007828, 9.996312 
2.4757095e+3, 1.586886e+2, -732118.4, -1461536.6, 3179.9963, -0.0034833024, -0.40279162, -732104.5, 652709.1, 0.054827143, 10.006677, 9.996504 
2.4756172e+3, 1.6868526e+2, -674376.9, -1282150.6, 22974.926, -0.012603763, -0.4008611, -673509.6, 613336.44, 0.017738832, 10.005731, 9.997518 
2.4755251e+3, 1.7868242e+2, -701136.1, -1256863.9, 23589.348, -0.0410556, -0.39408612, -700136.56, 488736.9, 0.0031036248, 10.004844, 9.997445 
2.4754333e+3, 1.8867972e+2, -689808.5, -1142921.5, 18786.74, -0.028722402, -0.39067444, -689030.9, 401869.13, 0.000124482, 10.003984, 9.997968 
2.4753419e+3, 1.9867727e+2, -715758.25, -1101667.3, 18734.018, -0.007977735, -0.38944447, -714850.94, 278073.03, 0.00000000023303823, 10.003117, 9.997999 
2.4752502e+3, 2.0867518e+2, -716172.7, -964914.5, 37566.26, -0.032304574, -0.39853865, -710623.06, 184321.52, 0.0, 10.002071, 9.998767 
2.4751587e+3, 2.1867338e+2, -778700.2, -952297.3, 42421.97, -0.06433215, -0.41085333, -768888.1, 28073.883, 0.0, 10.001004, 9.998695 
2.4750677e+3, 2.2867212e+2, -740484.94, -822396.44, 35415.49, -0.046939954, -0.38991722, -727296.1, -28321.092, 0.0, 10.000332, 9.999238 
2.4749766e+3, 2.3867117e+2, -729083.0, -761953.44, 28369.357, -0.019846285, -0.3675905, -712732.0, -111747.016, 0.0, 9.999717, 9.999277 
2.4748853e+3, 2.4867006e+2, -733671.1, -629993.1, 28842.795, -0.033822443, -0.40395865, -622509.4, -119514.516, 0.0, 9.998654, 10.00002 
2.474794e+3, 2.586692e+2, -802627.3, -610312.44, 32873.797, -0.058333877, -0.4503676, -604848.4, -199846.52, 0.0, 9.9974985, 10.000041 
2.4747029e+3, 2.6866952e+2, -768871.3, -460547.88, 26716.549, -0.052973587, -0.41900957, -458250.0, -151251.05, 0.0, 9.996701, 10.00078 
2.4746123e+3, 2.786703e+2, -780635.9, -423226.3, 26315.62, -0.02236399, -0.37366754, -421299.13, -212307.5, 0.0, 9.99598, 10.000712 
2.4745221e+3, 2.8867075e+2, -766509.94, -298452.9, 18264.273, 0.07159866, -0.38811854, -297741.3, -186753.73, 0.0, 9.995115, 10.001312 
2.4744311e+3, 2.9867136e+2, -786647.56, -229214.31, -1812.5425, 0.0995866, -0.42256564, -229208.42, -216226.7, 0.0, 9.994184, 10.001565 
2.4743359e+3, 3.086729e+2, -827502.75, -105650.805, -30414.947, -0.20963426, -0.4451226, -104371.55, -104371.55, 0.0, 9.993057, 10.002623 
2.4742478e+3, 3.1867588e+2, -878197.6, -43621.42, 79855.85, 0.12265891, -0.35483313, -36049.17, -36049.17, 0.0, 9.99233, 10.003403 
2.4859956e+3, 1.2879416e+2, -925678.75, -1638685.8, 41062.21, 0.032717913, -0.42386732, -923321.75, 754455.56, 0.26081973, 10.009051, 9.996256 
2.4859019e+3, 1.3879016e+2, -838825.94, -1604198.0, 28268.18, -0.073020205, -0.40008911, -837783.3, 742032.8, 0.18619445, 10.008428, 9.996028 
2.4858086e+3, 1.4878595e+2, -764962.06, -1516860.4, 21587.693, -0.05436102, -0.39175442, -764342.75, 717515.44, 0.11122361, 10.007547, 9.996373 
2.4857157e+3, 1.587819e+2, -736565.25, -1462026.1, 39973.727, 0.007766137, -0.39231896, -734369.3, 649529.3, 0.05144336, 10.006621, 9.996525 
2.4856226e+3, 1.6877848e+2, -685804.56, -1294098.6, 56840.555, -0.011005866, -0.3963649, -680538.9, 605393.56, 0.01639022, 10.005674, 9.997459 
2.4855295e+3, 1.7877544e+2, -716942.8, -1265388.0, 45792.543, -0.05303273, -0.400426, -713145.7, 474816.13, 0.0027824638, 10.004739, 9.997437 
2.4854368e+3, 1.8877281e+2, -702834.8, -1140912.6, 54040.336, -0.036286704, -0.39391065, -696266.94, 393720.63, 0.00010378218, 10.003866, 9.998036 
2.4853444e+3, 1.9877046e+2, -729320.5, -1103815.5, 67559.79, -0.0057439557, -0.38907057, -717505.3, 274505.2, 0.00000000017417703, 10.0030155, 9.998028 
2.485252e+3, 2.0876822e+2, -707922.0, -967856.0, 72118.44, -0.0319178, -0.40486836, -689253.56, 204778.75, 0.0, 10.002166, 9.998696 
2.4851595e+3, 2.187663e+2, -738078.75, -937392.4, 62215.605, -0.06842723, -0.42306817, -720252.56, 75798.61, 0.0, 10.0013075, 9.998649 
2.4850674e+3, 2.2876513e+2, -736872.9, -820287.44, 69435.61, -0.04705343, -0.38825592, -697581.4, 482.03693, 0.0, 10.0003605, 9.999235 
2.4849759e+3, 2.3876433e+2, -773733.44, -781439.9, 75651.484, -0.011628397, -0.35024545, -701837.1, -101764.86, 0.0, 9.99941, 9.999288 
2.4848835e+3, 2.4876302e+2, -730722.75, -626160.8, 72614.4, -0.027170066, -0.40404716, -588964.7, -86881.25, 0.0, 9.998671, 10.000036 
2.4847913e+3, 2.5876194e+2, -740542.5, -584485.06, 72698.16, -0.056048244, -0.47468746, -555867.1, -151774.8, 0.0, 9.99795, 9.999998 
2.4846995e+3, 2.687622e+2, -738209.06, -461993.4, 63936.652, -0.04914826, -0.43239543, -447911.66, -141821.8, 0.0, 9.996989, 10.0006275 
2.4846078e+3, 2.7876306e+2, -788306.8, -434519.25, 58911.17, -0.012379698, -0.36754477, -424967.5, -216885.13, 0.0, 9.995969, 10.000636 
2.4845168e+3, 2.887634e+2, -762573.56, -290237.03, 54523.01, 0.08061342, -0.3931504, -284025.0, -173946.22, 0.0, 9.995122, 10.001362 
2.484425e+3, 2.9876375e+2, -764981.5, -223534.22, 35645.035, 0.09810872, -0.45192707, -221197.69, -209123.31, 0.0, 9.994357, 10.001518 
2.4843286e+3, 3.0876493e+2, -736232.06, -90262.63, -11060.511, -0.23781489, -0.49200073, -90073.305, -90073.305, 0.0, 9.993813, 10.00236 
2.4842398e+3, 3.1876728e+2, -828940.0, -52809.875, 127207.2, 0.11642825, -0.42501166, -32492.563, -32492.563, 0.0, 9.992819, 10.0030985 
2.4960037e+3, 1.2888837e+2, -925874.7, -1657397.4, 24013.207, -0.03121978, -0.385929, -925087.25, 751767.2, 0.24782158, 10.009002, 9.996101 
2.4959102e+3, 1.3888347e+2, -832291.8, -1604034.6, 6885.295, -0.051386997, -0.44113514, -832230.44, 746671.44, 0.17630202, 10.008395, 9.996044 
2.4958159e+3, 1.4887968e+2, -741917.9, -1474981.5, -8637.238, -0.035416085, -0.40930426, -741816.1, 739123.0, 0.104737714, 10.007534, 9.996675 
2.4957219e+3, 1.5887637e+2, -728333.7, -1448097.1, 7058.163, 0.0025616607, -0.36492214, -728264.44, 654707.6, 0.047998544, 10.00661, 9.996628 
2.495628e+3, 1.6887261e+2, -703557.75, -1332701.6, 23119.395, -0.009023998, -0.3867459, -702709.3, 582300.1, 0.015037302, 10.005666, 9.997202 
2.495534e+3, 1.7886908e+2, -721876.9, -1275259.4, 13905.64, -0.038204096, -0.4197217, -721527.7, 465516.8, 0.0024692812, 10.004729, 9.9973755 
2.4954402e+3, 1.8886672e+2, -682565.06, -1100465.9, 23264.107, -0.04433161, -0.40355715, -681273.94, 407793.16, 0.00008486985, 10.003866, 9.998317 
2.4953467e+3, 1.9886474e+2, -724464.56, -1095494.6, 36415.633, -0.041179772, -0.3837462, -720924.25, 270161.28, 0.00000000005180779, 10.003016, 9.998088 
2.4952537e+3, 2.0886226e+2, -730762.4, -1017050.9, 41189.508, -0.033532143, -0.4044161, -724954.1, 168156.39, 0.0, 10.002168, 9.998362 
2.4951607e+3, 2.1885997e+2, -747736.94, -957934.5, 30914.299, -0.02879118, -0.4288146, -743284.6, 51849.2, 0.0, 10.001304, 9.998513 
2.4950674e+3, 2.2885895e+2, -722772.3, -793079.44, 34360.023, -0.042285223, -0.38891655, -708769.1, -11624.715, 0.0, 10.000363, 9.999423 
2.4949744e+3, 2.3885839e+2, -766119.0, -768706.25, 43076.44, -0.05369444, -0.3432912, -724316.75, -125166.45, 0.0, 9.999416, 9.999375 
2.4948819e+3, 2.488573e+2, -733159.4, -634485.8, 45157.92, -0.023133881, -0.37554485, -616939.5, -115779.766, 0.0, 9.998679, 9.999978 
2.4947895e+3, 2.5885633e+2, -746079.2, -600865.8, 40922.08, 0.0078104776, -0.4259991, -590127.75, -186960.08, 0.0, 9.997964, 9.999882 
2.4946962e+3, 2.6885593e+2, -752539.2, -495804.6, 23392.66, -0.024753543, -0.4325314, -493690.56, -188519.13, 0.0, 9.997, 10.000394 
2.4946031e+3, 2.7885598e+2, -793321.06, -448783.2, 21791.143, -0.05137631, -0.42531085, -447410.4, -240239.4, 0.0, 9.995978, 10.000537 
2.4945112e+3, 2.888568e+2, -755668.3, -277197.6, 23314.387, 0.052022863, -0.4040314, -276064.25, -166901.88, 0.0, 9.995121, 10.001455 
2.4944192e+3, 2.9885787e+2, -779400.75, -253481.95, 12187.562, 0.11735537, -0.39713773, -253199.67, -242048.56, 0.0, 9.994351, 10.001319 
2.4943228e+3, 3.0885836e+2, -764004.9, -163134.73, -32313.498, -0.16486403, -0.4611624, -161401.98, -161401.98, 0.0, 9.993871, 10.001836 
2.4942322e+3, 3.1886065e+2, -827014.7, -59309.54, 23710.28, 0.092844255, -0.36226082, -58577.953, -58577.953, 0.0, 9.992865, 10.003031 
2.5060117e+3, 1.2898268e+2, -943136.2, -1668118.8, 43103.69, -0.06336411, -0.3972273, -940582.44, 735347.5, 0.23434538, 10.008702, 9.996141 
2.505918e+3, 1.3897812e+2, -845031.7, -1607349.8, 28326.004, -0.027064417, -0.42143065, -843980.56, 733993.6, 0.16607489, 10.008173, 9.996129 
2.505823e+3, 1.4897425e+2, -747994.44, -1465488.8, 3280.904, -0.028160887, -0.41040722, -747979.44, 732032.56, 0.098068655, 10.0073805, 9.996816 
2.5057277e+3, 1.5897077e+2, -729473.44, -1435889.9, 9894.404, -0.020167703, -0.39362562, -729334.9, 652711.2, 0.04449073, 10.00653, 9.996747 
2.505633e+3, 1.689673e+2, -717915.25, -1330776.6, 37940.566, -0.021771647, -0.39617193, -715575.4, 568505.5, 0.013683397, 10.0055275, 9.997277 
2.5055382e+3, 1.7896406e+2, -750492.7, -1286284.5, 49878.375, -0.0327625, -0.4044054, -745888.94, 440224.34, 0.0021652565, 10.004528, 9.997393 
2.5054437e+3, 1.889615e+2, -695391.75, -1115407.1, 49143.8, -0.04044259, -0.40082005, -689718.3, 398419.8, 0.000067473426, 10.003823, 9.998231 
2.5053492e+3, 1.989593e+2, -705336.56, -1087751.1, 36956.258, -0.042905275, -0.39622512, -701797.9, 288361.28, 0.0000000000010010511, 10.003159, 9.998071 
2.5052553e+3, 2.0895706e+2, -727782.4, -1006266.5, 53610.023, -0.032401726, -0.39625788, -717818.56, 174363.25, 0.0, 10.002153, 9.99844 
2.5051615e+3, 2.1895505e+2, -774017.44, -964532.75, 69628.445, -0.021030195, -0.39868537, -751283.0, 42919.45, 0.0, 10.001105, 9.998559 
2.5050673e+3, 2.2895373e+2, -718251.94, -793630.4, 70137.48, -0.03653717, -0.38593653, -676318.6, 19896.865, 0.0, 10.000414, 9.999392 
2.5049737e+3, 2.3895282e+2, -718234.9, -749146.06, 64258.21, -0.05215054, -0.3715543, -667599.7, -69375.13, 0.0, 9.999767, 9.999336 
2.5048804e+3, 2.4895197e+2, -719063.0, -634125.2, 61447.316, -0.019461837, -0.37229112, -601898.8, -101666.63, 0.0, 9.99881, 9.999913 
2.504787e+3, 2.5895134e+2, -773096.7, -617645.8, 57039.867, 0.018180663, -0.38186902, -598961.8, -196724.13, 0.0, 9.997801, 9.999842 
2.504693e+3, 2.6895064e+2, -734238.75, -488898.25, 53528.723, -0.016181456, -0.41277307, -477727.84, -173484.4, 0.0, 9.99714, 10.000371 
2.5045988e+3, 2.7895027e+2, -717761.7, -417449.22, 62673.594, -0.050081965, -0.44565058, -404894.44, -198647.98, 0.0, 9.996524, 10.000485 
2.504506e+3, 2.8895095e+2, -702407.0, -264246.47, 50089.24, 0.033263486, -0.428485, -258593.36, -150353.92, 0.0, 9.995546, 10.001336 
2.5044128e+3, 2.9895207e+2, -773212.6, -274223.94, 31114.432, 0.09391049, -0.4002168, -272291.28, -262063.33, 0.0, 9.994502, 10.0011 
2.504317e+3, 3.0895305e+2, -777033.25, -199371.08, 11088.969, -0.09268507, -0.38900757, -199158.28, -199158.28, 0.0, 9.993915, 10.001563 
2.5042242e+3, 3.1895405e+2, -788518.25, -70234.18, 26959.195, 0.040491845, -0.40079224, -69223.74, -69223.74, 0.0, 9.993268, 10.002754 
2.5160196e+3, 1.2907726e+2, -917956.06, -1650505.5, 31002.43, -0.0824449, -0.4425692, -916646.4, 758356.44, 0.22040999, 10.008742, 9.996273 
2.515926e+3, 1.390739e+2, -835970.6, -1597818.6, 9526.011, -0.002289648, -0.35803106, -835851.5, 741184.1, 0.15555897, 10.008128, 9.996216 
2.5158298e+3, 1.4906955e+2, -746520.2, -1467698.0, -23289.219, -0.029522734, -0.39935088, -745768.9, 733309.2, 0.09125999, 10.007342, 9.99682 
2.5157335e+3, 1.590653e+2, -721836.3, -1419331.4, -20093.945, -0.05815756, -0.46265405, -721257.9, 659861.44, 0.040947173, 10.0065, 9.996879 
2.5156376e+3, 1.6906254e+2, -695454.1, -1285629.6, 1355.4945, -0.047661792, -0.41818243, -695451.0, 587695.7, 0.012340757, 10.005523, 9.997592 
2.5155422e+3, 1.7906024e+2, -745340.6, -1280509.9, 17897.389, -0.03623895, -0.3605353, -744742.75, 440427.22, 0.0018733023, 10.004541, 9.997428 
2.515447e+3, 1.8905707e+2, -724465.4, -1176912.0, 26948.146, -0.026689926, -0.3892848, -722865.94, 364335.8, 0.00005169658, 10.003821, 9.997813 
2.5153524e+3, 1.9905409e+2, -714492.7, -1103381.3, 9120.961, -0.017544, -0.4269091, -714278.9, 274952.72, 0.0, 10.003138, 9.997976 
2.515257e+3, 2.0905256e+2, -698748.1, -946785.0, 14431.148, -0.030757967, -0.38075396, -697911.3, 193335.47, 0.0, 10.002151, 9.998852 
2.515162e+3, 2.1905145e+2, -762397.2, -942698.6, 37476.938, -0.04612315, -0.3311652, -754917.6, 38340.313, 0.0, 10.001109, 9.99871 
2.5150678e+3, 2.2904941e+2, -734417.94, -830046.2, 48113.35, -0.029379033, -0.37838545, -714400.75, -19123.125, 0.0, 10.00042, 9.999143 
2.5149733e+3, 2.3904751e+2, -729201.2, -775793.7, 34932.508, -0.0089558745, -0.43771002, -710509.4, -113213.49, 0.0, 9.999778, 9.999152 
2.5148788e+3, 2.4904695e+2, -725336.75, -649831.75, 20864.39, -0.018527407, -0.39694643, -644449.9, -145147.98, 0.0, 9.998816, 9.999806 
2.514784e+3, 2.5904688e+2, -771336.8, -616681.2, 23204.734, -0.032798897, -0.34259918, -613274.56, -211971.36, 0.0, 9.997806, 9.999848 
2.5146896e+3, 2.6904637e+2, -719427.3, -461378.97, 30577.836, -0.024582047, -0.36990342, -457805.1, -154498.8, 0.0, 9.997148, 10.000559 
2.5145954e+3, 2.7904597e+2, -716453.9, -420309.22, 33501.637, -0.005658506, -0.42205897, -416566.6, -211258.23, 0.0, 9.996542, 10.000461 
2.514501e+3, 2.890457e+2, -726548.4, -319588.72, 8417.86, 0.023957899, -0.4706517, -319414.66, -212103.72, 0.0, 9.995563, 10.000952 
2.514406e+3, 2.9904613e+2, -785692.9, -306281.66, -1844.9685, 0.02411617, -0.47384027, -306274.53, -296967.63, 0.0, 9.994521, 10.000874 
2.514311e+3, 3.0904904e+2, -776590.7, -198958.3, -9246.441, -0.037241843, -0.2615663, -198810.33, -198810.33, 0.0, 9.993911, 10.001571 
2.5142163e+3, 3.1904688e+2, -785573.25, -69677.94, 16543.783, -0.021047158, -0.5925412, -69295.83, -69295.83, 0.0, 9.993285, 10.002754 
2.5260285e+3, 1.2917349e+2, -831618.25, -1627087.8, 54120.67, -0.09169013, -0.43570438, -827952.94, 846105.75, 0.20612295, 10.009434, 9.996138 
2.5259337e+3, 1.3916965e+2, -872934.06, -1622246.4, 28057.506, 0.006274693, -0.38822147, -871884.94, 704211.75, 0.14485487, 10.007748, 9.99623 
2.5258365e+3, 1.491656e+2, -797006.06, -1470428.8, 13078.077, -0.03169126, -0.41311458, -796752.2, 681383.9, 0.0843837, 10.006818, 9.9970455 
2.525739e+3, 1.5916176e+2, -769800.8, -1432003.5, 26428.994, -0.07494092, -0.45398465, -768747.7, 611425.7, 0.03740665, 10.006093, 9.996983 
2.5256425e+3, 1.6915886e+2, -706967.1, -1298206.8, 31511.527, -0.056244727, -0.42194816, -705292.4, 576910.06, 0.011024627, 10.005473, 9.997526 
2.5255463e+3, 1.7915633e+2, -704103.94, -1260554.4, 24998.178, -0.03194137, -0.37874997, -702983.2, 481244.8, 0.0015970502, 10.004831, 9.997422 
2.5254506e+3, 1.8915333e+2, -737960.44, -1177156.5, 50474.516, -0.025589993, -0.39288482, -732234.3, 354023.97, 0.00003792158, 10.003709, 9.997862 
2.5253546e+3, 1.9915053e+2, -796151.3, -1136249.8, 62083.3, -0.021886118, -0.4157951, -785172.7, 203113.98, 0.0, 10.002556, 9.998026 
2.5252587e+3, 2.0914891e+2, -711908.1, -947452.44, 57107.223, -0.030962445, -0.3823467, -698792.8, 191509.75, 0.0, 10.002043, 9.998896 
2.5251627e+3, 2.191477e+2, -688671.44, -903775.25, 53984.0, -0.040141616, -0.34544256, -675883.5, 116430.99, 0.0, 10.001608, 9.9987335 
2.5250676e+3, 2.291457e+2, -714349.94, -822016.25, 69080.13, -0.023021344, -0.38462278, -680604.1, 13729.484, 0.0, 10.000572, 9.999121 
2.5249726e+3, 2.3914386e+2, -777492.0, -799170.0, 73300.2, -0.0013917612, -0.43561, -714233.75, -117882.15, 0.0, 9.9994545, 9.999144 
2.524877e+3, 2.4914318e+2, -724139.5, -650690.5, 70148.23, -0.013965832, -0.4023393, -608235.06, -109876.4, 0.0, 9.998837, 9.999786 
2.5247815e+3, 2.59143e+2, -703548.9, -584756.8, 76549.53, -0.03239146, -0.35551506, -547262.6, -146901.4, 0.0, 9.998282, 9.999834 
2.5246865e+3, 2.6914257e+2, -685861.44, -446123.2, 71305.48, -0.02075789, -0.37197986, -426518.0, -124154.39, 0.0, 9.997389, 10.000543 
2.5245917e+3, 2.7914223e+2, -737537.9, -434046.3, 57231.727, 0.004258617, -0.40968806, -423612.4, -219247.73, 0.0, 9.99642, 10.000422 
2.524496e+3, 2.8914183e+2, -719297.9, -323345.75, 44815.438, 0.01882396, -0.4643451, -318336.72, -211968.06, 0.0, 9.995652, 10.000878 
2.5244004e+3, 2.9914206e+2, -727306.5, -276727.2, 60956.242, 0.0059088077, -0.48580012, -268626.4, -260259.17, 0.0, 9.994927, 10.000875 
2.5243047e+3, 3.0914506e+2, -735370.06, -170129.97, 66749.695, -0.017906088, -0.26816517, -162354.4, -162354.4, 0.0, 9.994164, 10.001641 
2.5242096e+3, 3.191444e+2, -805343.0, -17299.82, 48730.56, 0.035123356, -0.45454916, -14297.884, -14297.884, 0.0, 9.992886, 10.003305 
2.5360373e+3, 1.29271e+2, -847422.5, -1669565.5, 2845.1975, -0.099677056, -0.39538974, -847412.7, 825689.1, 0.19163096, 10.009319, 9.995824 
2.535941e+3, 1.3926552e+2, -866783.94, -1626924.9, -11195.6045, 0.00052866014, -0.48434085, -866619.06, 708536.7, 0.13407247, 10.007737, 9.996204 
2.5358427e+3, 1.4926238e+2, -767166.7, -1423694.4, -10150.0625, -0.03606595, -0.44235423, -767009.8, 710176.56, 0.077512465, 10.006831, 9.99739 
2.5357446e+3, 1.592598e+2, -765043.7, -1426762.4, 2460.309, -0.07773392, -0.3870187, -765034.5, 614177.2, 0.033908524, 10.006088, 9.997025 
2.5356477e+3, 1.6925605e+2, -734487.5, -1355786.3, 11752.013, -0.05220708, -0.41372818, -734265.25, 546984.4, 0.009750842, 10.005459, 9.997141 
2.535551e+3, 1.7925245e+2, -710145.94, -1269895.4, -3659.2434, -0.023028148, -0.4471111, -710122.0, 473164.28, 0.0013405868, 10.004809, 9.997372 
2.5354537e+3, 1.8925026e+2, -708350.5, -1117649.8, 6585.91, -0.03684216, -0.40683684, -708244.56, 377063.47, 0.000026566351, 10.003711, 9.998272 
2.5353566e+3, 1.9924846e+2, -784615.9, -1118069.5, 30880.686, -0.05392868, -0.36532667, -781780.1, 205545.8, 0.0, 10.002575, 9.998145 
2.5352603e+3, 2.0924596e+2, -731736.2, -992040.3, 44490.46, -0.032258034, -0.40028206, -724342.06, 165008.25, 0.0, 10.002052, 9.998589 
2.5351644e+3, 2.192437e+2, -696629.56, -920736.1, 29473.61, -0.0077594835, -0.44079006, -692818.1, 98554.47, 0.0, 10.001603, 9.998623 
2.5350678e+3, 2.2924256e+2, -702239.4, -798418.0, 26022.4, -0.01927333, -0.40346113, -695650.1, -2266.0964, 0.0, 10.000572, 9.999285 
2.5349712e+3, 2.3924181e+2, -768233.2, -781847.1, 39496.215, -0.031958904, -0.3618212, -734961.6, -139569.75, 0.0, 9.999455, 9.999265 
2.5348756e+3, 2.4924064e+2, -719093.44, -642965.1, 50251.63, -0.0050135204, -0.38830197, -617988.8, -120585.79, 0.0, 9.998843, 9.99984 
2.53478e+3, 2.5923958e+2, -705746.0, -594973.9, 49849.51, 0.020274082, -0.42617494, -575844.25, -176431.9, 0.0, 9.998301, 9.999759 
2.5346836e+3, 2.6923913e+2, -704209.06, -487380.47, 32727.586, -0.0046606283, -0.42412585, -482548.34, -181131.94, 0.0, 9.997396, 10.000259 
2.534587e+3, 2.7923912e+2, -742675.0, -446196.56, 22543.24, -0.02455052, -0.4100495, -444492.25, -241075.86, 0.0, 9.99642, 10.000341 
2.534491e+3, 2.892395e+2, -702315.94, -290281.25, 15757.253, 0.016604569, -0.3991048, -289679.53, -184267.36, 0.0, 9.995655, 10.001107 
2.5343952e+3, 2.9923993e+2, -708748.94, -243271.9, 33616.242, 0.03368896, -0.42369553, -240856.7, -233448.94, 0.0, 9.994942, 10.0011015 
2.5342983e+3, 3.0924067e+2, -716837.25, -137707.4, 39004.477, -0.020303614, -0.45216545, -135092.25, -135092.25, 0.0, 9.994184, 10.001858 
2.534202e+3, 3.1924352e+2, -772741.2, 53013.15, -112219.88, 0.04146226, -0.31381208, 67992.1, 67992.1, 0.0, 9.992849, 10.0038185 
2.5460458e+3, 1.2936889e+2, -908568.0, -1700352.3, 22235.662, -0.07618671, -0.4168105, -907944.06, 764197.3, 0.17708421, 10.008628, 9.995943 
2.545948e+3, 1.393636e+2, -847475.06, -1617937.4, 31092.639, -0.025538702, -0.49437314, -846222.4, 727971.0, 0.123312846, 10.007806, 9.996233 
2.5458488e+3, 1.4936039e+2, -760843.0, -1434052.3, 24004.957, -0.05252508, -0.45233923, -759988.1, 716237.06, 0.07071071, 10.006901, 9.997272 
2.54575e+3, 1.5935768e+2, -774944.2, -1433298.1, 16986.566, -0.07330374, -0.39650053, -774506.2, 603745.8, 0.030488407, 10.006012, 9.997012 
2.5456527e+3, 1.6935402e+2, -764079.0, -1356714.4, 50332.125, -0.049803715, -0.42123085, -759834.75, 520454.2, 0.00853403, 10.005197, 9.997258 
2.545555e+3, 1.793505e+2, -761975.4, -1286876.4, 57854.17, -0.027801631, -0.45445222, -755674.4, 426650.16, 0.0011075364, 10.004423, 9.997438 
2.545457e+3, 1.8934833e+2, -694102.8, -1110063.8, 46744.05, -0.046587795, -0.4131233, -688914.6, 395431.7, 0.000017840424, 10.003813, 9.998271 
2.5453585e+3, 1.9934654e+2, -696605.44, -1075934.3, 48193.883, -0.06477913, -0.36833242, -690578.1, 295786.0, 0.0, 10.003188, 9.998135 
2.545262e+3, 2.0934395e+2, -725113.7, -993534.44, 73653.3, -0.030432623, -0.40857843, -706231.8, 182157.69, 0.0, 10.002125, 9.998539 
2.5451654e+3, 2.1934153e+2, -780856.2, -963036.06, 72642.57, 0.006913996, -0.45655507, -755437.25, 34975.848, 0.0, 10.00104, 9.9986 
2.545068e+3, 2.2934052e+2, -713228.44, -803512.6, 61042.375, -0.018066883, -0.405893, -682449.7, 9974.234, 0.0, 10.000504, 9.999279 
2.5449705e+3, 2.3933992e+2, -686636.6, -741977.75, 63755.16, -0.045606602, -0.3463758, -644806.25, -50375.582, 0.0, 10.000021, 9.999262 
2.544874e+3, 2.4933864e+2, -679815.06, -623951.06, 69641.34, -0.005123899, -0.38127694, -576848.94, -80406.42, 0.0, 9.99912, 9.999833 
2.5447777e+3, 2.5933746e+2, -727639.44, -604572.9, 64239.69, 0.038493175, -0.43342054, -577150.6, -178697.47, 0.0, 9.998154, 9.99976 
2.5446805e+3, 2.6933697e+2, -700491.6, -485563.72, 61345.797, 0.0010594045, -0.4325183, -469286.78, -168829.13, 0.0, 9.997429, 10.000253 
2.5445834e+3, 2.7933696e+2, -697956.75, -425414.66, 69649.95, -0.034281, -0.41511792, -408646.75, -206188.8, 0.0, 9.9967375, 10.000327 
2.5444865e+3, 2.8933746e+2, -659151.7, -272546.84, 51091.168, 0.014957057, -0.38578779, -265908.94, -161456.55, 0.0, 9.99597, 10.001074 
2.5443897e+3, 2.9933807e+2, -675442.4, -207540.64, 44095.2, 0.038731333, -0.39301655, -203421.36, -196975.1, 0.0, 9.995089, 10.001275 
2.544292e+3, 3.093384e+2, -755218.2, -102767.805, 52081.08, -0.014689807, -0.50130564, -98636.65, -98636.65, 0.0, 9.993697, 10.002329 
2.544194e+3, 3.1933978e+2, -761582.6, 6824.259, -70711.914, -0.016479641, -0.54137725, 13277.264, 13277.264, 0.0, 9.993165, 10.003339 
2.5560546e+3, 1.2946728e+2, -881426.2, -1650114.6, -1888.7383, -0.038120635, -0.47272742, -881421.56, 789754.6, 0.16262668, 10.008542, 9.996353 
2.5559548e+3, 1.3946342e+2, -839630.06, -1615566.3, 4119.77, -0.07052059, -0.44267505, -839608.2, 733605.9, 0.11267219, 10.007783, 9.99626 
2.5558552e+3, 1.4945935e+2, -786004.0, -1502239.3, -5729.039, -0.07954035, -0.4506241, -785958.2, 689296.4, 0.064038634, 10.006909, 9.996782 
2.555756e+3, 1.5945558e+2, -775118.2, -1441723.8, -10578.58, -0.06496417, -0.46314156, -774950.3, 602342.06, 0.027179081, 10.006021, 9.996954 
2.5556573e+3, 1.6945274e+2, -728463.0, -1286426.6, 22924.143, -0.050267417, -0.43771234, -727522.75, 551797.8, 0.007387031, 10.005203, 9.99774 
2.555559e+3, 1.7945023e+2, -753114.2, -1270869.3, 31998.135, -0.0452192, -0.41070428, -751144.1, 430201.53, 0.00090010144, 10.004427, 9.997549 
2.55546e+3, 1.8944737e+2, -719749.3, -1164420.3, 26316.322, -0.05501663, -0.41456002, -718197.25, 365177.44, 0.00001159609, 10.003811, 9.997903 
2.5553617e+3, 1.9944476e+2, -707005.2, -1096757.8, 19123.592, -0.05961646, -0.42059705, -706069.1, 279332.25, 0.0, 10.00318, 9.998 
2.5552636e+3, 2.094428e+2, -713396.06, -971515.0, 31373.896, -0.02716227, -0.40658432, -709637.3, 177783.3, 0.0, 10.002129, 9.998692 
2.555166e+3, 2.194411e+2, -778558.1, -961257.2, 42648.773, 0.0036598518, -0.3949597, -769092.7, 20344.365, 0.0, 10.001047, 9.998611 
2.5550678e+3, 2.2943947e+2, -725316.94, -831199.8, 45932.57, -0.01960813, -0.39326614, -708168.44, -16714.324, 0.0, 10.00051, 9.999089 
2.55497e+3, 2.394381e+2, -694918.8, -763283.1, 38364.867, -0.04589669, -0.3923326, -677717.3, -84248.59, 0.0, 10.000032, 9.999113 
2.5548726e+3, 2.4943717e+2, -685462.5, -638607.4, 30839.791, -0.015783442, -0.3804454, -623305.8, -127827.83, 0.0, 9.9991255, 9.999733 
2.5547752e+3, 2.5943652e+2, -722427.7, -595522.0, 30587.604, 0.017283062, -0.3719411, -588534.3, -191050.27, 0.0, 9.998155, 9.999825 
2.5546774e+3, 2.6943603e+2, -680077.44, -444963.63, 34843.49, -0.0063846796, -0.39263317, -439908.56, -140421.03, 0.0, 9.997431, 10.000533 
2.5545797e+3, 2.7943575e+2, -692849.56, -420080.7, 42681.95, -0.02722625, -0.4236284, -413557.94, -212068.77, 0.0, 9.996754, 10.000359 
2.5544822e+3, 2.8943563e+2, -680556.6, -322440.28, 20658.5, 0.016662462, -0.43618882, -321252.5, -217761.8, 0.0, 9.995986, 10.000728 
2.5543842e+3, 2.9943627e+2, -666506.06, -191354.98, 344.54364, 0.027214605, -0.41040024, -191354.73, -185869.86, 0.0, 9.995092, 10.001388 
2.554285e+3, 3.0943874e+2, -722622.5, -21959.883, -10344.975, -0.031326644, -0.35546872, -21807.178, -21807.178, 0.0, 9.993635, 10.002917 
2.554187e+3, 3.194386e+2, -804855.06, -99474.61, 117852.37, -0.010435143, -0.57637167, -80305.22, -80305.22, 0.0, 9.993238, 10.002573 
2.5660622e+3, 1.2956683e+2, -917636.0, -1645565.3, 26486.432, -0.035971805, -0.48772267, -916673.56, 753526.94, 0.14840944, 10.007994, 9.996654 
2.5659618e+3, 1.3956347e+2, -831163.4, -1601750.6, 23129.43, -0.10090479, -0.43141192, -830469.8, 741763.2, 0.102251984, 10.007724, 9.996382 
2.5658613e+3, 1.4955926e+2, -783835.0, -1514609.1, 23011.51, -0.09278116, -0.44767493, -783111.1, 691163.9, 0.0575566, 10.006945, 9.996677 
2.5657615e+3, 1.5955524e+2, -765336.8, -1440779.8, 37139.387, -0.057040088, -0.4739439, -763300.9, 613014.5, 0.02401082, 10.006094, 9.996923 
2.565662e+3, 1.6955243e+2, -714343.1, -1274157.4, 53266.223, -0.054764226, -0.44740304, -709319.94, 569023.25, 0.0063200365, 10.005279, 9.997786 
2.5655624e+3, 1.7954999e+2, -745693.44, -1265290.8, 40335.445, -0.06350381, -0.41529396, -742580.94, 437786.4, 0.00071869633, 10.004475, 9.997561 
2.5654632e+3, 1.8954712e+2, -749477.94, -1183720.9, 49497.816, -0.057445664, -0.41763338, -743907.3, 338489.63, 0.000007363407, 10.003635, 9.997851 
2.565364e+3, 1.9954443e+2, -761958.0, -1127641.0, 57346.094, -0.045577556, -0.423617, -753175.94, 231248.72, 0.0, 10.002827, 9.997955 
2.565265e+3, 2.0954247e+2, -699835.94, -969261.25, 57755.43, -0.032520436, -0.40271428, -687977.2, 198466.66, 0.0, 10.002248, 9.998647 
2.5651667e+3, 2.195408e+2, -693705.3, -924026.44, 56391.594, -0.020923154, -0.3828128, -680639.6, 107820.31, 0.0, 10.001652, 9.998572 
2.565068e+3, 2.2953899e+2, -716586.1, -831619.0, 67048.31, -0.020611787, -0.39451566, -685764.5, 4714.468, 0.0, 10.000596, 9.999042 
2.5649694e+3, 2.395374e+2, -768825.7, -797863.94, 72038.984, -0.020536728, -0.40850565, -709857.25, -117361.61, 0.0, 9.99953, 9.999115 
2.5648713e+3, 2.4953663e+2, -695561.1, -638646.06, 76567.35, -0.012929934, -0.3811457, -585418.9, -90915.46, 0.0, 9.999043, 9.999768 
2.564773e+3, 2.5953624e+2, -659419.1, -561910.56, 79403.06, -0.0059041916, -0.3521291, -517488.53, -120980.945, 0.0, 9.998581, 9.999846 
2.5646743e+3, 2.6953575e+2, -652532.3, -430891.44, 62746.23, -0.011397705, -0.37323883, -414360.94, -115849.61, 0.0, 9.997623, 10.000534 
2.564576e+3, 2.7953535e+2, -714377.1, -430754.84, 55220.793, -0.008431692, -0.41147122, -420382.75, -219868.94, 0.0, 9.996614, 10.00035 
2.5644776e+3, 2.8953502e+2, -675297.44, -322425.88, 53406.277, 0.012915798, -0.44323283, -314520.06, -212002.78, 0.0, 9.996042, 10.000697 
2.5643787e+3, 2.995355e+2, -617861.3, -177878.16, 35236.996, 0.0018436622, -0.4240939, -175074.0, -170561.53, 0.0, 9.995481, 10.001288 
2.5642785e+3, 3.095384e+2, -626205.0, -4231.0703, -46315.063, -0.010092861, -0.30660143, -801.15094, -801.15094, 0.0, 9.994427, 10.002654 
2.56418e+3, 3.195402e+2, -765439.4, -68676.92, 176593.02, 0.022522433, -0.30459285, -26475.793, -26475.793, 0.0, 9.993461, 10.002677 
2.5760695e+3, 1.2966724e+2, -893707.44, -1615473.4, 21931.244, -0.060905363, -0.47919527, -893041.6, 776175.2, 0.13460188, 10.007972, 9.996897 
2.5759688e+3, 1.3966388e+2, -819349.6, -1580347.1, 5635.54, -0.12389897, -0.44540432, -819307.9, 751941.0, 0.09216599, 10.007663, 9.99656 
2.5758678e+3, 1.4966005e+2, -772600.8, -1495878.5, -7363.5176, -0.098764084, -0.43907824, -772525.9, 700761.1, 0.051330008, 10.006919, 9.996822 
2.575767e+3, 1.5965636e+2, -767446.94, -1449596.8, 7883.0586, -0.050869796, -0.44223398, -767355.9, 607968.2, 0.021013476, 10.006089, 9.996868 
2.5756666e+3, 1.6965291e+2, -736451.7, -1321141.4, 25397.064, -0.063175745, -0.45448467, -735350.6, 542007.56, 0.005341027, 10.005271, 9.99747 
2.5755665e+3, 1.7964983e+2, -752197.06, -1277411.4, 11986.097, -0.08486007, -0.46077055, -751923.6, 427465.16, 0.00056273735, 10.004463, 9.997487 
2.5754663e+3, 1.8964751e+2, -734928.6, -1155964.0, 19795.924, -0.05567998, -0.42040896, -733999.94, 347413.22, 0.000004588243, 10.003639, 9.998043 
2.5753668e+3, 1.9964541e+2, -760864.5, -1129028.9, 32886.22, -0.024174077, -0.3814318, -757950.0, 225485.16, 0.0, 10.002837, 9.997944 
2.575267e+3, 2.096429e+2, -717133.3, -1006682.6, 39126.074, -0.046641216, -0.39718232, -711939.44, 173520.36, 0.0, 10.002249, 9.998392 
2.575167e+3, 2.196406e+2, -701730.7, -940367.9, 27621.348, -0.069189385, -0.41962522, -698575.3, 88906.95, 0.0, 10.001645, 9.9984665 
2.5750682e+3, 2.2963901e+2, -711249.9, -822449.7, 24945.943, -0.020804517, -0.40880692, -705910.06, -16411.164, 0.0, 10.000598, 9.999107 
2.574969e+3, 2.3963779e+2, -760258.9, -781695.9, 42259.445, 0.029869093, -0.39463902, -727379.8, -135867.89, 0.0, 9.99953, 9.9992285 
2.57487e+3, 2.4963701e+2, -684172.6, -616614.5, 61509.55, 0.0020860885, -0.3841937, -580219.1, -86699.76, 0.0, 9.999046, 9.999921 
2.5747707e+3, 2.5963646e+2, -660867.56, -570205.6, 52731.914, -0.035416536, -0.3769231, -545998.44, -150474.19, 0.0, 9.998598, 9.999784 
2.5746715e+3, 2.6963592e+2, -675545.7, -481581.13, 20911.97, -0.012021745, -0.3763324, -479352.13, -181822.31, 0.0, 9.997629, 10.000188 
2.5745723e+3, 2.796356e+2, -719199.44, -440621.0, 23562.783, 0.023910731, -0.3796358, -438642.06, -239108.98, 0.0, 9.996608, 10.000289 
2.574473e+3, 2.8963563e+2, -654258.2, -279820.94, 33483.04, -0.004789885, -0.396776, -276850.34, -175318.75, 0.0, 9.99604, 10.000993 
2.5743732e+3, 2.996359e+2, -645165.56, -241572.34, 5373.442, -0.05528538, -0.41817963, -241500.81, -237973.1, 0.0, 9.995503, 10.000843 
2.5742736e+3, 3.0963656e+2, -703556.1, -181997.42, -91771.22, 0.091908686, -0.4112416, -166320.94, -166320.94, 0.0, 9.994494, 10.001405 
2.574173e+3, 3.1963873e+2, -774123.44, -88352.8, 86570.91, 0.011273909, -0.28213656, -77593.01, -77593.01, 0.0, 9.993453, 10.002553 
2.586077e+3, 1.2976864e+2, -873114.6, -1633666.1, 52092.656, -0.07548914, -0.45859018, -869563.25, 798659.9, 0.121364385, 10.008149, 9.996666 
2.5859752e+3, 1.3976473e+2, -879407.25, -1611772.1, 14577.578, -0.13708936, -0.46302152, -879117.25, 691144.2, 0.082526736, 10.007136, 9.996596 
2.585874e+3, 1.4976127e+2, -801302.1, -1477865.5, 7813.381, -0.1154831, -0.44138256, -801211.94, 671083.56, 0.045424167, 10.006537, 9.997126 
2.5857726e+3, 1.5975803e+2, -768963.0, -1434436.9, 28481.527, -0.06920527, -0.4250131, -767746.25, 606581.4, 0.018215012, 10.0060005, 9.997012 
2.5856712e+3, 1.6975445e+2, -762374.4, -1338023.8, 57068.55, -0.072458625, -0.4516308, -756771.25, 519591.8, 0.0044560307, 10.005113, 9.997427 
2.5855702e+3, 1.7975111e+2, -790986.25, -1298633.4, 60837.1, -0.08483605, -0.4743828, -783797.3, 394598.63, 0.00043137715, 10.004212, 9.997459 
2.5854695e+3, 1.8974888e+2, -736346.0, -1157422.5, 62641.43, -0.054596167, -0.42086753, -727224.75, 353194.7, 0.0000027949502, 10.00364, 9.998031 
2.585369e+3, 1.9974692e+2, -725566.6, -1109749.0, 61429.45, -0.023188042, -0.36825788, -715983.3, 266457.03, 0.0, 10.003076, 9.997958 
2.5852686e+3, 2.0974419e+2, -738513.1, -1013643.44, 79827.766, -0.051304616, -0.40584448, -717029.1, 167437.67, 0.0, 10.002094, 9.998416 
2.585168e+3, 2.1974167e+2, -778525.4, -976477.7, 85943.17, -0.078624316, -0.44877166, -746419.5, 40071.65, 0.0, 10.001122, 9.9984665 
2.585068e+3, 2.297403e+2, -698078.25, -820118.8, 80171.76, -0.024236666, -0.41059792, -658346.44, 30159.479, 0.0, 10.000714, 9.9990635 
2.5849685e+3, 2.3973931e+2, -648510.6, -727587.7, 88236.39, 0.03471565, -0.36831486, -591359.1, -842.0262, 0.0, 10.000303, 9.999225 
2.5848687e+3, 2.4973826e+2, -657312.8, -600143.94, 96111.984, 0.007051666, -0.3856142, -528455.9, -35928.96, 0.0, 9.999222, 9.999947 
2.5847685e+3, 2.5973743e+2, -731051.4, -606356.44, 81995.25, -0.030765546, -0.40799543, -565697.0, -171162.67, 0.0, 9.998134, 9.999756 
2.5846687e+3, 2.6973704e+2, -656238.7, -483828.88, 65903.234, -0.011592027, -0.38204375, -461523.3, -164984.34, 0.0, 9.997819, 10.000077 
2.584569e+3, 2.797369e+2, -590843.7, -379538.34, 78756.35, 0.020757398, -0.355158, -353414.5, -154873.6, 0.0, 9.9974985, 10.000276 
2.5844687e+3, 2.8973687e+2, -596360.0, -241339.75, 72644.95, -0.011357355, -0.38251233, -227050.16, -126510.71, 0.0, 9.996398, 10.001083 
2.584368e+3, 2.997369e+2, -698242.2, -294219.7, 36854.477, -0.062422276, -0.42753318, -290885.38, -288348.1, 0.0, 9.995259, 10.000598 
2.5842682e+3, 3.0973676e+2, -675958.25, -229961.6, -10585.503, 0.107079774, -0.4489123, -229710.5, -229710.5, 0.0, 9.994955, 10.00085 
2.5841656e+3, 3.1973758e+2, -735501.94, -75819.5, 130688.445, -0.035747666, -0.418502, -50872.477, -50872.477, 0.0, 9.993756, 10.002488 
2.5960842e+3, 1.2987089e+2, -900354.7, -1710743.4, 17195.438, -0.09074226, -0.4266647, -899990.0, 767231.0, 0.10881258, 10.008119, 9.996117 
2.595982e+3, 1.39866e+2, -884234.8, -1627103.9, -10657.01, -0.14608265, -0.4857808, -884082.0, 685188.2, 0.07342616, 10.007087, 9.996516 
2.5958797e+3, 1.4986293e+2, -775361.8, -1425958.3, -7644.7393, -0.14046423, -0.45420828, -775272.0, 696028.2, 0.03989712, 10.006503, 9.997517 
2.5957775e+3, 1.5986024e+2, -752998.94, -1396752.5, 3796.9456, -0.108769506, -0.418423, -752976.56, 620349.7, 0.015640924, 10.005962, 9.9972925 
2.595676e+3, 1.6985689e+2, -752098.75, -1316918.0, 22486.205, -0.0834421, -0.43942854, -751205.0, 524153.97, 0.0036700545, 10.005105, 9.997579 
2.595574e+3, 1.798537e+2, -790619.2, -1302715.3, 33972.863, -0.06744404, -0.46029943, -788375.2, 389015.16, 0.00032353037, 10.004228, 9.997427 
2.5954726e+3, 1.8985116e+2, -752080.0, -1190915.3, 44943.285, -0.055573743, -0.41930437, -747524.44, 331892.38, 0.0000016192165, 10.003637, 9.997805 
2.5953716e+3, 1.9984888e+2, -726992.56, -1108756.1, 34286.03, -0.043961372, -0.38213605, -723937.8, 257503.03, 0.0, 10.003053, 9.997979 
2.59527e+3, 2.0984627e+2, -719834.2, -976350.2, 41304.8, -0.04721425, -0.42784685, -713347.25, 170118.33, 0.0, 10.002094, 9.998674 
2.5951687e+3, 2.1984397e+2, -773428.75, -969093.06, 61245.83, -0.05159222, -0.4710589, -755839.1, 29648.32, 0.0, 10.00113, 9.998517 
2.5950682e+3, 2.2984281e+2, -710029.9, -846909.56, 69476.39, -0.033001043, -0.39897117, -680945.44, 6555.3457, 0.0, 10.000719, 9.998879 
2.5949678e+3, 2.3984192e+2, -657684.7, -749612.3, 60381.78, -0.010882723, -0.32931104, -627762.9, -38251.11, 0.0, 10.000311, 9.999073 
2.594867e+3, 2.4984033e+2, -666072.5, -620229.7, 49358.266, 0.002999862, -0.38659704, -588730.25, -97203.73, 0.0, 9.999223, 9.999812 
2.5947666e+3, 2.59839e+2, -732639.7, -609683.5, 54397.625, 0.008751502, -0.4478188, -589072.25, -195533.77, 0.0, 9.998128, 9.99974 
2.594666e+3, 2.6983902e+2, -645533.3, -464724.13, 59225.96, -0.01502345, -0.38999626, -447051.4, -151512.61, 0.0, 9.997828, 10.000206 
2.5945655e+3, 2.798393e+2, -584813.1, -377815.22, 52915.254, -0.030216867, -0.33505255, -365072.8, -167536.03, 0.0, 9.9975395, 10.000271 
2.5944647e+3, 2.898386e+2, -605553.7, -265133.25, 24003.775, 0.0028677986, -0.40919122, -263449.0, -163907.36, 0.0, 9.996411, 10.000917 
2.5943634e+3, 2.9983836e+2, -697966.7, -289852.72, 8612.432, 0.0048965933, -0.46921918, -289671.06, -288128.2, 0.0, 9.995237, 10.000642 
2.594261e+3, 3.0983964e+2, -654833.25, -192562.83, -11505.051, -0.03535357, -0.37328354, -192276.67, -192276.67, 0.0, 9.994976, 10.001101 
2.594159e+3, 3.198396e+2, -667716.2, 64293.234, 22629.178, -0.018610777, -0.46310237, 64992.12, 64992.12, 0.0, 9.993756, 10.003451 
2.6060918e+3, 1.2997383e+2, -870357.7, -1687357.0, 21382.61, -0.10021466, -0.40552565, -869798.44, 796415.25, 0.09701203, 10.008209, 9.996235 
2.6059884e+3, 1.3996902e+2, -915311.06, -1634284.6, 36630.32, -0.13800055, -0.46392992, -913449.7, 654811.56, 0.06492646, 10.006763, 9.996623 
2.6058856e+3, 1.4996581e+2, -828219.56, -1442668.0, 45398.625, -0.13611966, -0.45388272, -824883.44, 645408.9, 0.034792095, 10.006064, 9.997602 
2.6057827e+3, 1.5996301e+2, -810820.6, -1416109.4, 35561.836, -0.110680126, -0.43537325, -808738.44, 563580.7, 0.013310986, 10.005515, 9.997373 
2.6056802e+3, 1.6995996e+2, -767226.0, -1316262.1, 42817.71, -0.08632998, -0.43168995, -763906.8, 510442.22, 0.0029861166, 10.00497, 9.997645 
2.6055777e+3, 1.7995705e+2, -764645.44, -1282430.5, 49254.59, -0.06994776, -0.43094328, -760001.75, 416376.2, 0.00023761121, 10.004378, 9.997491 
2.6054755e+3, 1.8995422e+2, -778633.06, -1197915.6, 74028.586, -0.06455308, -0.4234497, -765946.44, 312460.2, 0.00000086705097, 10.003438, 9.9978485 
2.6053736e+3, 1.9995163e+2, -801320.06, -1136106.8, 78395.98, -0.05705012, -0.4183094, -783871.7, 196561.23, 0.0, 10.002514, 9.998047 
2.6052716e+3, 2.0994939e+2, -724904.75, -969017.8, 76553.23, -0.04255724, -0.43378025, -702884.25, 179570.06, 0.0, 10.002026, 9.9987545 
2.60517e+3, 2.1994744e+2, -709626.0, -934598.8, 86348.87, -0.029687684, -0.44577214, -680305.06, 104167.91, 0.0, 10.001558, 9.998545 
2.6050687e+3, 2.2994597e+2, -713961.9, -852276.3, 104534.42, -0.02976584, -0.40345877, -657778.9, 28710.34, 0.0, 10.000712, 9.998843 
2.6049674e+3, 2.3994473e+2, -726280.75, -785792.2, 102978.48, -0.026511822, -0.3631839, -648845.2, -60341.934, 0.0, 9.999861, 9.999037 
2.604866e+3, 2.4994333e+2, -640029.56, -614643.44, 93570.61, -0.002196507, -0.3933554, -532908.9, -42392.44, 0.0, 9.999439, 9.999742 
2.604765e+3, 2.599422e+2, -612378.6, -551655.25, 103412.555, 0.017005838, -0.42801094, -474239.44, -81712.63, 0.0, 9.99896, 9.999734 
2.6046634e+3, 2.6994196e+2, -638153.94, -454183.22, 105720.66, -0.017771436, -0.39962146, -406032.34, -111503.164, 0.0, 9.997854, 10.000262 
2.604562e+3, 2.7994192e+2, -700015.56, -431309.75, 91346.37, -0.041598022, -0.37530947, -403197.72, -206668.42, 0.0, 9.996747, 10.000281 
2.6044607e+3, 2.8994137e+2, -624709.4, -279742.6, 65104.824, 0.018753411, -0.43444052, -267864.47, -169330.45, 0.0, 9.996311, 10.00086 
2.6043585e+3, 2.999413e+2, -606783.94, -236898.64, 57147.977, 0.036395308, -0.46831074, -228270.44, -227736.47, 0.0, 9.995832, 10.000714 
2.6042548e+3, 3.099432e+2, -707634.5, -201311.13, 33532.656, -0.11128302, -0.3251605, -199100.0, -199100.0, 0.0, 9.994546, 10.0012455 
2.6041532e+3, 3.1994304e+2, -608213.6, 169851.14, 27431.154, 0.0695531, -0.4434003, 170817.05, 170817.05, 0.0, 9.993841, 10.004131 
2.6160997e+3, 1.3007736e+2, -847969.6, -1618150.3, -30111.088, -0.10541861, -0.39367712, -846794.2, 818406.94, 0.08599788, 10.00802, 9.996828 
2.6159948e+3, 1.4007348e+2, -899324.2, -1605900.8, 949.4266, -0.12541379, -0.41103578, -899322.9, 667914.8, 0.057060126, 10.006738, 9.996831 
2.615891e+3, 1.5006973e+2, -837559.56, -1470569.5, 26301.303, -0.11545974, -0.4440953, -836468.6, 632804.94, 0.030130258, 10.006066, 9.997408 
2.615788e+3, 1.6006634e+2, -817981.2, -1433399.3, 16298.154, -0.085435204, -0.4688024, -817549.9, 553756.5, 0.011232984, 10.005508, 9.99726 
2.6156846e+3, 1.7006363e+2, -771839.75, -1322597.0, 24326.969, -0.08432173, -0.42625254, -770767.3, 502566.28, 0.0024029752, 10.004947, 9.997616 
2.6155812e+3, 1.8006109e+2, -760943.8, -1267311.6, 22189.49, -0.092412986, -0.3892503, -759973.3, 415385.9, 0.00017154272, 10.004341, 9.997616 
2.6154783e+3, 1.9005795e+2, -760760.5, -1161168.3, 37903.35, -0.08093367, -0.4341965, -757204.06, 320185.56, 0.00000042407203, 10.003434, 9.998106 
2.6153755e+3, 2.0005514e+2, -793915.56, -1125616.4, 52991.91, -0.06255943, -0.47487628, -785655.4, 193761.81, 0.0, 10.00253, 9.998114 
2.6152733e+3, 2.1005349e+2, -732668.5, -987575.0, 61997.184, -0.037993677, -0.42248613, -718389.6, 163044.05, 0.0, 10.002031, 9.998628 
2.6151708e+3, 2.2005202e+2, -711404.1, -937349.0, 63118.754, -0.017796054, -0.37584743, -694967.3, 88481.24, 0.0, 10.001549, 9.998533 
2.615069e+3, 2.300497e+2, -706958.75, -839318.4, 70875.99, -0.015201623, -0.42673376, -676168.56, 9303.368, 0.0, 10.000713, 9.998935 
2.614967e+3, 2.4004766e+2, -722304.1, -780119.1, 78849.57, -0.013668643, -0.472936, -667230.1, -79737.76, 0.0, 9.999866, 9.999077 
2.614865e+3, 2.5004727e+2, -640942.7, -619078.5, 79564.51, -0.011212694, -0.40308213, -549698.56, -60201.863, 0.0, 9.999446, 9.999711 
2.614763e+3, 2.6004705e+2, -610118.0, -554109.2, 73117.3, -0.01290786, -0.34117752, -503816.8, -112317.945, 0.0, 9.998985, 9.999708 
2.6146606e+3, 2.7004576e+2, -641860.56, -462169.0, 57948.03, -0.016593615, -0.41470525, -445102.47, -151591.9, 0.0, 9.997849, 10.000214 
2.6145586e+3, 2.800447e+2, -704123.3, -432397.56, 61963.684, -0.0060203285, -0.48934844, -418934.56, -223414.75, 0.0, 9.996709, 10.000296 
2.6144564e+3, 2.9004514e+2, -622951.25, -275249.53, 53821.566, 0.027787449, -0.45375037, -267108.97, -169593.11, 0.0, 9.996302, 10.000898 
2.614354e+3, 3.00046e+2, -597722.75, -227158.89, 23960.215, 0.0057688453, -0.4019415, -225616.08, -225616.08, 0.0, 9.995865, 10.000769 
2.614249e+3, 3.1004715e+2, -710085.1, -198565.06, -22545.7, -0.06322229, -0.33418047, -197573.27, -197573.27, 0.0, 9.994506, 10.001287 
2.6141465e+3, 3.200467e+2, -648026.06, 82517.55, 60123.016, 0.08033875, -0.47994328, 87432.54, 87432.54, 0.0, 9.993852, 10.003532 
2.626106e+3, 1.301818e+2, -989184.9, -1655694.3, 16908.512, -0.10670542, -0.39569572, -988756.2, 675421.06, 0.0757832, 10.006737, 9.997166 
2.626001e+3, 1.4017797e+2, -875699.6, -1586184.9, 31064.824, -0.115947865, -0.43364534, -874343.94, 691868.56, 0.04982982, 10.006829, 9.996921 
2.6258966e+3, 1.5017426e+2, -840045.4, -1490528.4, 54022.14, -0.111834876, -0.4520506, -835589.44, 632659.2, 0.025908178, 10.006114, 9.997244 
2.625793e+3, 1.6017084e+2, -848212.3, -1450028.3, 46717.59, -0.08629728, -0.46363452, -844607.3, 525674.9, 0.009400398, 10.005306, 9.997238 
2.625689e+3, 1.7016807e+2, -821523.6, -1333564.9, 63204.13, -0.08051762, -0.43349558, -813837.4, 458472.34, 0.0019144027, 10.004556, 9.997725 
2.625585e+3, 1.801655e+2, -826460.06, -1288314.4, 64855.965, -0.085681506, -0.40793696, -817525.5, 356809.8, 0.00012246703, 10.003855, 9.997702 
2.6254812e+3, 1.9016251e+2, -776123.8, -1161574.8, 66748.95, -0.081037275, -0.44419882, -764892.1, 311472.34, 0.00000019125741, 10.003306, 9.99816 
2.6253778e+3, 2.0015979e+2, -759018.06, -1106070.6, 71623.625, -0.067429096, -0.47618786, -744817.6, 233573.25, 0.0, 10.002764, 9.998133 
2.6252747e+3, 2.101581e+2, -730304.4, -989784.8, 87468.86, -0.03848174, -0.42648357, -703573.06, 176835.11, 0.0, 10.002068, 9.998591 
2.6251718e+3, 2.2015658e+2, -735295.5, -941390.44, 90802.34, -0.012727106, -0.38146806, -700997.25, 81426.37, 0.0, 10.001361, 9.998591 
2.625069e+3, 2.3015438e+2, -694749.0, -817593.06, 97616.164, -0.012671516, -0.43186918, -640838.56, 43606.84, 0.0, 10.000736, 9.999069 
2.6249662e+3, 2.4015242e+2, -685481.8, -755340.56, 111713.99, -0.0137522565, -0.48056152, -603363.9, -16899.426, 0.0, 10.000095, 9.999133 
2.6248637e+3, 2.5015187e+2, -664418.75, -633128.0, 115833.45, -0.0152360555, -0.4204349, -531888.06, -43417.94, 0.0, 9.999302, 9.9996805 
2.6247612e+3, 2.6015162e+2, -678396.75, -582233.94, 103096.19, -0.017007498, -0.36356324, -516558.38, -126085.12, 0.0, 9.998503, 9.999743 
2.6246583e+3, 2.7015045e+2, -633399.0, -448636.03, 88277.36, -0.0072553153, -0.42761922, -413239.47, -120756.125, 0.0, 9.997874, 10.000291 
2.6245552e+3, 2.8014952e+2, -630227.8, -394899.63, 105810.7, 0.014279398, -0.4963843, -354321.03, -159829.63, 0.0, 9.997215, 10.000305 
2.624452e+3, 2.9014984e+2, -614748.2, -278210.38, 96390.93, 0.011970747, -0.46484178, -252557.55, -156068.7, 0.0, 9.996395, 10.00083 
2.6243484e+3, 3.0015063e+2, -638148.7, -246953.83, 48804.316, -0.03436657, -0.41423446, -240957.06, -240957.06, 0.0, 9.995596, 10.000759 
2.624244e+3, 3.101519e+2, -606845.0, -140188.84, -6252.9507, 0.03661063, -0.3364382, -140105.06, -140105.06, 0.0, 9.995188, 10.001354 
2.6241395e+3, 3.2015106e+2, -607715.8, 22640.518, 96957.8, -0.0052780653, -0.51168245, 37216.945, 37216.945, 0.0, 9.994479, 10.002813 
2.6361123e+3, 1.3028702e+2, -970882.56, -1634893.5, 25226.303, -0.11100334, -0.40734187, -969925.56, 693218.56, 0.06636151, 10.006754, 9.997308 
2.6360074e+3, 1.402827e+2, -881863.1, -1595135.8, 18486.982, -0.1132221, -0.5035521, -881384.3, 683799.7, 0.043219674, 10.0067625, 9.996892 
2.6359022e+3, 1.5027937e+2, -854859.25, -1517897.1, 24066.352, -0.12253918, -0.4692304, -853986.8, 613230.56, 0.022109296, 10.006066, 9.997082 
2.6357973e+3, 1.6027637e+2, -849963.75, -1447983.6, 19200.521, -0.10847872, -0.43019193, -849347.94, 519900.13, 0.0077993004, 10.005268, 9.997274 
2.635693e+3, 1.7027321e+2, -809204.75, -1307165.1, 36831.348, -0.07599724, -0.4539461, -806495.25, 464783.13, 0.0015114121, 10.004545, 9.997913 
2.6355886e+3, 1.802703e+2, -823950.5, -1286606.3, 41842.92, -0.056254447, -0.47635674, -820196.6, 353109.84, 0.000087060886, 10.003864, 9.997711 
2.635484e+3, 1.9026782e+2, -787166.44, -1185428.1, 48079.08, -0.069346294, -0.4499917, -781444.44, 293887.06, 0.00000008629741, 10.0033045, 9.998001 
2.63538e+3, 2.0026551e+2, -764724.1, -1115025.8, 49545.074, -0.07650966, -0.4275545, -757851.56, 219503.36, 0.0, 10.002747, 9.998082 
2.635276e+3, 2.1026315e+2, -727588.0, -985167.06, 61316.484, -0.044421002, -0.44706726, -713736.5, 165641.89, 0.0, 10.002068, 9.998626 
2.635173e+3, 2.202611e+2, -727200.2, -926992.5, 67069.5, -0.014902453, -0.46119133, -706773.6, 74625.02, 0.0, 10.001366, 9.998692 
2.6350692e+3, 2.3025997e+2, -684170.5, -797053.3, 75394.83, -0.0225661, -0.4158598, -646431.2, 36978.64, 0.0, 10.000737, 9.999212 
2.6349655e+3, 2.4025895e+2, -681006.4, -747736.75, 84583.625, -0.030863563, -0.38401926, -623445.06, -38025.14, 0.0, 10.000097, 9.999187 
2.6348627e+3, 2.5025713e+2, -667808.25, -640694.7, 83829.09, -0.013266947, -0.45066833, -569333.25, -81895.65, 0.0, 9.999299, 9.999633 
2.6347592e+3, 2.602557e+2, -673014.56, -571293.44, 75547.35, 0.0034121126, -0.5058326, -531081.5, -141630.17, 0.0, 9.998498, 9.999824 
2.6346555e+3, 2.702561e+2, -619474.7, -420990.44, 65207.727, 0.007610689, -0.43241736, -401484.72, -110037.625, 0.0, 9.997874, 10.0004835 
2.6345518e+3, 2.8025657e+2, -628951.8, -398665.34, 78275.875, 0.011247984, -0.37422264, -374578.28, -181136.1, 0.0, 9.997237, 10.000272 
2.6344478e+3, 2.902554e+2, -630126.5, -311151.4, 62259.613, -0.031130685, -0.47209817, -299429.9, -203976.39, 0.0, 9.996393, 10.0006075 
2.634343e+3, 3.0025488e+2, -648655.1, -264789.1, 25088.803, -0.07745002, -0.53330755, -263156.25, -263156.25, 0.0, 9.995572, 10.000651 
2.63424e+3, 3.1025755e+2, -597858.44, -134588.94, -16704.014, 0.18289642, -0.3130333, -133987.42, -133987.42, 0.0, 9.995236, 10.001373 
2.6341325e+3, 3.20257e+2, -633100.2, -43816.266, 26038.78, -0.07693141, -0.44289255, -42667.92, -42667.92, 0.0, 9.994526, 10.00234 
2.646119e+3, 1.3039263e+2, -934617.75, -1637502.0, 54482.84, -0.10103242, -0.44501653, -930419.7, 731687.25, 0.057712886, 10.007048, 9.997145 
2.6460135e+3, 1.403884e+2, -953003.8, -1632488.5, 30696.193, -0.102599055, -0.5183802, -951619.9, 612527.44, 0.037211094, 10.006227, 9.996892 
2.6459074e+3, 1.503853e+2, -921565.5, -1535270.4, 44099.297, -0.11050659, -0.4721884, -918412.8, 547765.94, 0.018716447, 10.005524, 9.997219 
2.645802e+3, 1.6038245e+2, -898774.9, -1463309.9, 53587.74, -0.09538527, -0.4258606, -893733.2, 474474.56, 0.0064145494, 10.004895, 9.997344 
2.645697e+3, 1.7037922e+2, -832127.4, -1317423.1, 64921.453, -0.0734002, -0.45774293, -823592.44, 446646.44, 0.001184037, 10.004391, 9.997914 
2.6455918e+3, 1.803762e+2, -823118.2, -1286546.0, 58753.063, -0.060741045, -0.48825034, -815785.5, 356482.47, 0.00006212437, 10.003879, 9.997701 
2.645487e+3, 1.9037378e+2, -803631.1, -1195831.8, 69605.55, -0.06267051, -0.45437846, -791644.25, 282648.63, 0.000000036839044, 10.003211, 9.997971 
2.645382e+3, 2.0037153e+2, -791897.0, -1123589.9, 78105.62, -0.06127885, -0.4227954, -774425.3, 201890.53, 0.0, 10.002549, 9.998114 
2.6452777e+3, 2.1036917e+2, -735846.44, -981170.3, 91748.3, -0.04521779, -0.44591746, -705329.75, 173009.31, 0.0, 10.001985, 9.99869 
2.6451737e+3, 2.203671e+2, -720265.8, -916794.7, 94276.71, -0.028370574, -0.4661986, -682353.94, 98005.3, 0.0, 10.00139, 9.998746 
2.6450694e+3, 2.3036598e+2, -706481.4, -803248.56, 93463.93, -0.024724584, -0.42460456, -649620.1, 32750.373, 0.0, 10.000569, 9.999248 
2.644965e+3, 2.40365e+2, -724502.3, -755781.94, 99236.76, -0.019770458, -0.3919138, -639680.5, -55300.43, 0.0, 9.999749, 9.999296 
2.6448613e+3, 2.5036335e+2, -677050.06, -627698.06, 111333.3, -0.00595265, -0.4569191, -538338.94, -51942.93, 0.0, 9.9991665, 9.999783 
2.6447573e+3, 2.60362e+2, -657644.1, -558565.6, 113826.19, 0.0068780384, -0.5141934, -483965.72, -95556.99, 0.0, 9.998587, 9.999865 
2.644653e+3, 2.7036238e+2, -610972.5, -423117.4, 88252.56, 0.00755771, -0.43751514, -388161.66, -97756.52, 0.0, 9.997965, 10.0004225 
2.6445487e+3, 2.8036284e+2, -620619.06, -394930.5, 83456.25, 0.007969952, -0.37145275, -367422.44, -175022.05, 0.0, 9.997302, 10.000263 
2.6444435e+3, 2.903618e+2, -597786.94, -291882.13, 80156.07, -0.03613784, -0.4620384, -272151.47, -177740.98, 0.0, 9.996607, 10.000633 
2.6443383e+3, 3.003612e+2, -601027.5, -249109.81, 65365.723, -0.07296456, -0.5290716, -237360.92, -237360.92, 0.0, 9.995938, 10.000579 
2.6442352e+3, 3.1036305e+2, -576452.4, -140500.95, 21117.357, 0.19099778, -0.3757426, -139480.42, -139480.42, 0.0, 9.995459, 10.001222 
2.6441267e+3, 3.2036337e+2, -596188.5, -29319.348, 29717.38, -0.06735357, -0.40456718, -27765.71, -27765.71, 0.0, 9.994804, 10.0023 
2.6561254e+3, 1.3049868e+2, -956828.7, -1687157.4, 22967.754, -0.08825442, -0.49624005, -956107.1, 704958.2, 0.04980813, 10.007004, 9.996815 
2.6560193e+3, 1.4049491e+2, -950004.9, -1629427.5, 3956.4563, -0.08861688, -0.49788874, -949981.9, 613121.44, 0.031783853, 10.006206, 9.996924 
2.655913e+3, 1.5049191e+2, -899216.06, -1492248.3, 20071.81, -0.08266485, -0.4682184, -898537.5, 566595.9, 0.015711164, 10.005519, 9.99752 
2.6558065e+3, 1.604891e+2, -894912.0, -1456513.0, 32761.9, -0.060258564, -0.44265696, -893007.25, 474154.2, 0.0052296505, 10.00489, 9.997396 
2.6557007e+3, 1.7048603e+2, -845874.75, -1343813.3, 47496.234, -0.076000914, -0.44512555, -841384.8, 427806.88, 0.00092176796, 10.0043745, 9.997744 
2.655595e+3, 1.8048312e+2, -830474.06, -1296746.3, 37397.875, -0.09441364, -0.4524827, -827493.56, 343727.1, 0.000044751472, 10.003851, 9.997647 
2.6554894e+3, 1.904803e+2, -800063.5, -1188892.1, 45056.125, -0.059963614, -0.4605036, -794910.8, 278338.25, 0.000000014947995, 10.003207, 9.998022 
2.6553842e+3, 2.004778e+2, -785320.7, -1112839.5, 56282.29, -0.026323587, -0.4607492, -775918.75, 199355.44, 0.0, 10.002556, 9.998187 
2.655279e+3, 2.1047612e+2, -731766.7, -972855.1, 72046.03, -0.042823736, -0.42319378, -711877.5, 165413.23, 0.0, 10.001979, 9.998752 
2.655174e+3, 2.2047453e+2, -724209.2, -921049.2, 68709.67, -0.056818638, -0.40047094, -702597.9, 76708.48, 0.0, 10.001368, 9.998731 
2.6550692e+3, 2.3047231e+2, -713318.25, -817382.56, 62081.04, -0.0192998, -0.46057233, -684347.94, -3019.7778, 0.0, 10.000566, 9.999154 
2.6549646e+3, 2.4047051e+2, -712719.2, -734215.2, 73029.2, 0.016134191, -0.5062049, -649651.3, -66305.65, 0.0, 9.999756, 9.999443 
2.6548597e+3, 2.5047055e+2, -652495.3, -578552.44, 89367.6, 0.0044395714, -0.4330475, -518810.6, -33465.395, 0.0, 9.999169, 10.000122 
2.654755e+3, 2.6047057e+2, -658514.3, -563402.3, 90687.16, -0.012012275, -0.3752997, -508558.44, -121213.95, 0.0, 9.998594, 9.999831 
2.6546502e+3, 2.7046916e+2, -636747.75, -477845.06, 62808.344, -0.008179371, -0.44995126, -456017.56, -166658.88, 0.0, 9.997965, 10.000049 
2.6545453e+3, 2.804681e+2, -618215.3, -391990.2, 56449.08, 0.0029960487, -0.50975996, -378686.97, -187317.95, 0.0, 9.997305, 10.000285 
2.6544398e+3, 2.9046908e+2, -574483.1, -246320.36, 53214.156, 0.0030826707, -0.42172062, -237906.97, -144548.2, 0.0, 9.996613, 10.000946 
2.6543343e+3, 3.0046993e+2, -603540.8, -258792.05, 44818.414, -0.02216541, -0.36314505, -253060.8, -253060.8, 0.0, 9.995951, 10.000509 
2.6542285e+3, 3.104679e+2, -600775.0, -195226.6, 1918.7589, 0.022609036, -0.5702482, -195217.52, -195217.52, 0.0, 9.99547, 10.000844 
2.654122e+3, 3.2047006e+2, -571492.3, 17019.072, 9841.387, 0.026326714, -0.3983404, 17183.6, 17183.6, 0.0, 9.994821, 10.002613 
2.6661316e+3, 1.3060547e+2, -990400.1, -1705781.5, 28829.002, -0.09339823, -0.51038814, -989240.25, 670778.4, 0.04260992, 10.006721, 9.996824 
2.6660246e+3, 1.4060234e+2, -948942.06, -1614693.0, 22395.24, -0.08958559, -0.4531186, -948189.56, 613861.7, 0.026905712, 10.006125, 9.997063 
2.665918e+3, 1.5059909e+2, -896186.56, -1465914.3, 37180.008, -0.07481359, -0.4654661, -893770.5, 570312.06, 0.013065326, 10.005427, 9.997741 
2.6658112e+3, 1.6059604e+2, -909803.06, -1454386.4, 47965.3, -0.046064854, -0.48089677, -905610.7, 460501.3, 0.004223265, 10.00475, 9.997475 
2.6657045e+3, 1.705932e+2, -885074.4, -1366587.1, 69735.414, -0.07168443, -0.45927134, -875178.3, 392962.47, 0.0007130514, 10.004128, 9.997702 
2.6655978e+3, 1.805905e+2, -872501.56, -1311980.9, 66129.52, -0.09993966, -0.4406782, -862766.56, 307401.72, 0.000032455806, 10.003548, 9.9976845 
2.665492e+3, 1.9058767e+2, -815729.6, -1186255.6, 76956.79, -0.06308773, -0.45562786, -800381.75, 271814.94, 0.0000000057994387, 10.003063, 9.998106 
2.6653865e+3, 2.0058514e+2, -782466.9, -1101576.6, 86026.47, -0.023344913, -0.46568385, -760753.1, 213468.75, 0.0, 10.002541, 9.998268 
2.6652804e+3, 2.1058346e+2, -762303.7, -980001.8, 97614.945, -0.035367448, -0.43363452, -724944.7, 151293.53, 0.0, 10.001743, 9.998813 
2.665175e+3, 2.205819e+2, -778218.56, -939505.0, 95380.95, -0.047198724, -0.412394, -733958.4, 44294.957, 0.0, 10.000971, 9.998791 
2.6650694e+3, 2.3057976e+2, -724405.44, -818158.1, 98498.07, -0.019129844, -0.46716288, -662198.06, 18076.518, 0.0, 10.000476, 9.999189 
2.664964e+3, 2.4057804e+2, -679679.3, -714931.75, 114913.67, 0.010816021, -0.5091706, -581047.9, 1243.8483, 0.0, 9.999975, 9.999467 
2.6648587e+3, 2.505781e+2, -633264.0, -568579.3, 108185.086, 0.0039595165, -0.42941353, -488005.6, -3714.8284, 0.0, 9.999304, 10.000122 
2.6647532e+3, 2.6057822e+2, -658391.44, -561440.7, 90521.914, -0.007361093, -0.3656019, -507231.66, -120942.17, 0.0, 9.998593, 9.999842 
2.6646474e+3, 2.705766e+2, -646647.06, -482890.13, 84675.445, -0.0114379125, -0.45927215, -446980.6, -158674.95, 0.0, 9.997905, 10.00004 
2.6645416e+3, 2.8057534e+2, -628298.3, -397553.72, 98792.305, -0.0023232123, -0.5344085, -361035.63, -170717.89, 0.0, 9.997246, 10.000272 
2.6644364e+3, 2.9057676e+2, -551417.94, -237711.17, 72960.234, 0.017350527, -0.40157893, -221572.7, -129269.086, 0.0, 9.996787, 10.000918 
2.6643297e+3, 3.0057782e+2, -557471.9, -236223.0, 45017.77, -0.007080307, -0.3186908, -230033.73, -230033.73, 0.0, 9.996271, 10.000506 
2.664223e+3, 3.1057444e+2, -592423.94, -191574.69, 27007.662, -0.03575955, -0.65927714, -189763.2, -189763.2, 0.0, 9.995537, 10.0008335 
2.6641166e+3, 3.2057774e+2, -547618.1, 36304.73, 44234.188, 0.06261554, -0.37526956, 39636.613, 39636.613, 0.0, 9.99496, 10.002674 
2.6761377e+3, 1.3071294e+2, -979411.25, -1676722.8, 10421.189, -0.11176879, -0.49955425, -979255.56, 679711.25, 0.036074784, 10.006657, 9.997052 
2.6760304e+3, 1.4071055e+2, -945259.94, -1594316.4, 1809.5134, -0.10658006, -0.38949466, -945254.9, 615736.9, 0.022530947, 10.006043, 9.997243 
2.6759225e+3, 1.5070684e+2, -888536.7, -1448669.5, 13238.273, -0.085739255, -0.46222186, -888224.0, 574802.1, 0.010741106, 10.005402, 9.997876 
2.6758152e+3, 1.6070333e+2, -903487.2, -1444208.8, 24753.625, -0.047761884, -0.5342557, -902356.3, 462702.6, 0.0033701553, 10.004753, 9.997546 
2.675708e+3, 1.7070071e+2, -883657.56, -1363928.5, 47989.117, -0.061556034, -0.49549195, -878909.44, 388176.78, 0.00054628955, 10.004124, 9.997725 
2.675601e+3, 1.8069832e+2, -868433.7, -1301019.4, 47222.73, -0.08570025, -0.45089346, -863338.7, 305772.72, 0.000023527984, 10.003531, 9.99777 
2.6754943e+3, 1.9069585e+2, -811023.06, -1173624.3, 60905.945, -0.07344286, -0.4402307, -801066.2, 270070.13, 0.000000001728097, 10.003045, 9.998204 
2.6753882e+3, 2.006935e+2, -782243.2, -1096261.0, 62422.133, -0.050640292, -0.4411843, -770289.6, 202870.06, 0.0, 10.002514, 9.998321 
2.6752818e+3, 2.1069118e+2, -761257.5, -977736.0, 67388.36, -0.023089929, -0.47566012, -741994.1, 133187.73, 0.0, 10.001739, 9.998833 
2.6751757e+3, 2.2068922e+2, -769649.2, -924152.75, 72844.61, -0.006292837, -0.49796054, -740721.0, 36479.48, 0.0, 10.000977, 9.998897 
2.675069e+3, 2.3068833e+2, -712605.9, -796045.7, 81456.08, -0.026868794, -0.44195035, -662807.25, 16402.715, 0.0, 10.000481, 9.999341 
2.674963e+3, 2.4068752e+2, -689016.3, -735433.44, 92649.625, -0.03970952, -0.39978564, -616712.6, -35493.906, 0.0, 9.999975, 9.999329 
2.6748574e+3, 2.5068593e+2, -660057.2, -625081.56, 81099.54, -0.0063629034, -0.4527589, -559605.75, -76371.945, 0.0, 9.999304, 9.999736 
2.6747516e+3, 2.6068473e+2, -652707.9, -552998.1, 62788.04, 0.017981222, -0.4961356, -522679.13, -137433.64, 0.0, 9.998603, 9.999898 
2.674645e+3, 2.7068472e+2, -619285.9, -426681.22, 57375.047, -0.004111324, -0.458377, -410885.22, -123639.71, 0.0, 9.997901, 10.00043 
2.6745382e+3, 2.8068486e+2, -636082.4, -413643.16, 78991.15, -0.013285825, -0.42287257, -388446.47, -199202.14, 0.0, 9.997239, 10.000167 
2.6744324e+3, 2.906846e+2, -583810.8, -307886.84, 54968.406, 0.0021453034, -0.41539827, -297339.47, -206092.4, 0.0, 9.996795, 10.000436 
2.6743254e+3, 3.0068436e+2, -547725.0, -222915.1, 17586.191, -0.026762856, -0.42809898, -221965.7, -221965.7, 0.0, 9.996295, 10.00059 
2.6742184e+3, 3.1068316e+2, -562900.56, -129038.86, -3346.4192, 0.035751406, -0.59018844, -129013.055, -129013.055, 0.0, 9.995524, 10.001272 
2.6741105e+3, 3.2068583e+2, -570173.3, -14072.178, 27641.92, 0.017785126, -0.38792217, -12701.568, -12701.568, 0.0, 9.994962, 10.002334 
2.6861435e+3, 1.3082138e+2, -1013432.25, -1657283.9, 33693.19, -0.112519376, -0.47482026, -1011673.9, 646230.1, 0.030152522, 10.006214, 9.997401 
2.6860353e+3, 1.4081852e+2, -1031817.06, -1622154.6, 37624.723, -0.07907715, -0.43814787, -1029428.75, 530503.4, 0.018610433, 10.005354, 9.997383 
2.6859272e+3, 1.508151e+2, -937468.75, -1474749.5, 48935.76, -0.08205764, -0.48468393, -933048.06, 528916.44, 0.00869962, 10.005069, 9.997852 
2.6858193e+3, 1.6081186e+2, -898410.9, -1433782.3, 45651.19, -0.06309934, -0.52794677, -894546.1, 469449.1, 0.0026461626, 10.004757, 9.997612 
2.6857117e+3, 1.7080928e+2, -902403.8, -1358999.1, 68795.09, -0.057281397, -0.49465102, -892263.6, 373758.38, 0.00041185817, 10.003941, 9.997843 
2.685604e+3, 1.8080692e+2, -915419.9, -1308455.6, 78852.14, -0.063738115, -0.45741853, -900190.4, 267856.34, 0.000016829097, 10.00315, 9.9979 
2.6854968e+3, 1.9080456e+2, -858473.8, -1181869.6, 96542.25, -0.06552297, -0.44798666, -831845.94, 238224.64, 0.0000000002885943, 10.002663, 9.998328 
2.6853898e+3, 2.008023e+2, -822816.3, -1105743.9, 93475.695, -0.05639116, -0.44932798, -794722.7, 177370.27, 0.0, 10.002198, 9.998404 
2.6852828e+3, 2.108e+2, -772599.1, -979275.0, 97002.78, -0.024349507, -0.48322746, -734204.0, 139910.75, 0.0, 10.00165, 9.998861 
2.685176e+3, 2.2079808e+2, -753196.44, -916788.44, 104799.2, -0.0002559808, -0.5040086, -702050.9, 74082.44, 0.0, 10.0011, 9.998884 
2.685069e+3, 2.3079722e+2, -703065.94, -796939.06, 100780.27, -0.025738642, -0.43925768, -638828.3, 39314.4, 0.0, 10.000576, 9.999286 
2.6849622e+3, 2.407964e+2, -689150.7, -739965.9, 97596.24, -0.043314964, -0.39008653, -613709.0, -33557.47, 0.0, 10.0, 9.999282 
2.684856e+3, 2.507946e+2, -672794.6, -639443.25, 102290.625, -0.012004187, -0.45979056, -552477.94, -70308.945, 0.0, 9.999258, 9.999657 
2.6847494e+3, 2.6079315e+2, -660900.5, -554991.56, 102241.82, 0.014589586, -0.51823986, -492804.53, -108621.74, 0.0, 9.998545, 9.999908 
2.6846424e+3, 2.7079347e+2, -583977.1, -400385.22, 77571.15, -0.001090775, -0.45319742, -371998.9, -85819.35, 0.0, 9.998111, 10.000507 
2.6845354e+3, 2.8079385e+2, -586176.56, -393213.63, 81955.37, -0.0064670956, -0.39697304, -363103.78, -174927.86, 0.0, 9.997604, 10.000129 
2.6844284e+3, 2.9079306e+2, -591916.94, -327109.16, 79918.625, -0.00557409, -0.43121403, -304859.3, -214675.0, 0.0, 9.996812, 10.000292 
2.684321e+3, 3.0079246e+2, -573092.06, -227155.3, 61794.098, -0.032273218, -0.47021124, -216448.5, -216448.5, 0.0, 9.996095, 10.000653 
2.684214e+3, 3.107925e+2, -502423.75, -72900.49, 23609.047, 0.08473009, -0.5243692, -71606.7, -71606.7, 0.0, 9.995831, 10.001505 
2.684105e+3, 3.2079434e+2, -535582.1, -21314.684, 43806.58, -0.011410038, -0.41353703, -17609.82, -17609.82, 0.0, 9.995311, 10.002111 
2.696149e+3, 1.3093059e+2, -979734.06, -1596026.4, 1767.3223, -0.10702475, -0.4445693, -979728.94, 677103.8, 0.024794234, 10.006223, 9.997826 
2.696041e+3, 1.4092652e+2, -1020710.94, -1607858.6, 18980.158, -0.022452861, -0.5615282, -1020098.0, 538772.9, 0.015102982, 10.005372, 9.997474 
2.6959318e+3, 1.5092385e+2, -949052.06, -1499024.4, 42845.19, -0.069505945, -0.5230873, -945734.25, 515163.56, 0.0069090715, 10.0050535, 9.997697 
2.6958233e+3, 1.6092138e+2, -901165.25, -1429226.6, 25418.934, -0.09208092, -0.4784273, -899944.5, 462978.16, 0.002032089, 10.004705, 9.997671 
2.6957148e+3, 1.7091876e+2, -892158.6, -1334170.4, 38856.07, -0.05878851, -0.46624517, -888768.94, 376180.47, 0.00030286156, 10.00392, 9.998026 
2.695607e+3, 1.8091625e+2, -905662.56, -1290027.3, 57653.027, -0.036544014, -0.46087924, -897201.1, 269773.78, 0.000011617903, 10.003153, 9.998028 
2.695499e+3, 1.9091374e+2, -850900.0, -1167943.9, 80596.15, -0.043677263, -0.4754503, -831587.9, 237411.94, 0.000000000007316074, 10.0026655, 9.998425 
2.6953915e+3, 2.0091149e+2, -817224.6, -1094301.0, 74205.47, -0.047784433, -0.4849706, -798602.75, 172419.23, 0.0, 10.002194, 9.9984865 
2.695284e+3, 2.1090989e+2, -769581.5, -973722.06, 76293.016, -0.039346464, -0.45790395, -744219.6, 128818.08, 0.0, 10.001648, 9.998902 
2.6951763e+3, 2.2090834e+2, -765321.6, -939943.75, 85582.09, -0.029443072, -0.43808615, -730372.7, 44680.164, 0.0, 10.001085, 9.998734 
2.695069e+3, 2.3090632e+2, -723856.1, -840450.0, 81762.3, -0.0151366545, -0.46253818, -681735.9, -4662.4565, 0.0, 10.000574, 9.998989 
2.694962e+3, 2.4090466e+2, -685599.1, -735941.06, 72100.71, -0.0054182406, -0.47845408, -634401.94, -55311.418, 0.0, 10.00001, 9.999308 
2.6948544e+3, 2.5090408e+2, -655721.3, -605392.75, 72203.48, -0.016441824, -0.44436502, -554094.06, -72998.03, 0.0, 9.999259, 9.999892 
2.6947471e+3, 2.6090363e+2, -666238.4, -567345.8, 81403.57, -0.02360375, -0.41961014, -521547.78, -138447.4, 0.0, 9.998545, 9.999826 
2.69464e+3, 2.7090275e+2, -604942.3, -446133.2, 61361.844, -0.0005833024, -0.44859305, -425186.56, -140077.88, 0.0, 9.998116, 10.000193 
2.6945326e+3, 2.8090212e+2, -580446.75, -386904.84, 55123.46, 0.01947585, -0.4702442, -372306.1, -185191.45, 0.0, 9.9976225, 10.000166 
2.6944247e+3, 2.9090217e+2, -573847.94, -289719.66, 47095.86, -0.00913613, -0.444281, -282116.72, -193001.8, 0.0, 9.996806, 10.000555 
2.6943165e+3, 3.009023e+2, -577237.94, -230912.27, 46270.996, -0.03446334, -0.42612067, -224836.8, -224836.8, 0.0, 9.996068, 10.000644 
2.6942098e+3, 3.109024e+2, -507028.63, -89531.93, 15566.824, 0.124008134, -0.4666615, -88952.31, -88952.31, 0.0, 9.995856, 10.001382 
2.6940992e+3, 3.2090336e+2, -542227.5, -41204.24, -725.9661, -0.05143265, -0.43034106, -41203.184, -41203.184, 0.0, 9.995328, 10.001971 
2.706155e+3, 1.3104029e+2, -973255.25, -1625073.9, 36098.676, -0.08482873, -0.48164874, -971262.1, 684493.75, 0.019970201, 10.006376, 9.997547 
2.7060455e+3, 1.4103636e+2, -1016640.9, -1612686.9, 35369.953, -0.025388341, -0.56152767, -1014549.4, 543244.5, 0.0119828, 10.005417, 9.997417 
2.705936e+3, 1.5103377e+2, -998193.6, -1515258.0, 75497.18, -0.07488153, -0.5178114, -987395.7, 472424.84, 0.0053480966, 10.004682, 9.997761 
2.7058268e+3, 1.610314e+2, -986573.6, -1455258.9, 64902.867, -0.09607265, -0.4715734, -977752.0, 384092.9, 0.0015147101, 10.004055, 9.997803 
2.7057183e+3, 1.7102884e+2, -920382.8, -1328610.3, 75880.54, -0.05038272, -0.46615088, -906734.6, 357135.78, 0.00021479001, 10.003649, 9.998192 
2.7056095e+3, 1.8102637e+2, -892724.4, -1278151.6, 92546.93, -0.017917927, -0.46769345, -871654.25, 294240.75, 0.0000075416983, 10.003223, 9.998072 
2.7055013e+3, 1.9102386e+2, -864460.75, -1179885.6, 107833.945, -0.03237226, -0.47935462, -831119.9, 236800.4, 0.0, 10.002603, 9.99837 
2.705393e+3, 2.0102161e+2, -847494.75, -1110079.8, 93453.91, -0.043520037, -0.4835695, -817630.94, 152311.83, 0.0, 10.001998, 9.998469 
2.705285e+3, 2.1102005e+2, -790007.75, -984322.56, 89825.79, -0.040929213, -0.44879985, -754846.44, 117111.84, 0.0, 10.001517, 9.99889 
2.7051768e+3, 2.2101852e+2, -774686.7, -946090.4, 96516.8, -0.034262612, -0.42485434, -731313.75, 42659.81, 0.0, 10.001034, 9.998713 
2.7050692e+3, 2.3101631e+2, -743268.0, -854967.06, 108795.19, -0.016746508, -0.46422416, -676824.56, -828.95447, 0.0, 10.000468, 9.998938 
2.7049613e+3, 2.4101445e+2, -702337.25, -746489.94, 109263.13, -0.002382178, -0.49365008, -612942.5, -34928.266, 0.0, 9.999912, 9.999278 
2.7048534e+3, 2.5101396e+2, -631775.6, -596003.4, 89725.65, -0.019074405, -0.4451573, -522398.5, -42379.508, 0.0, 9.999439, 9.999867 
2.7047452e+3, 2.6101357e+2, -615777.4, -547395.8, 88123.65, -0.029690716, -0.40766233, -487062.6, -105039.89, 0.0, 9.998917, 9.999781 
2.7046373e+3, 2.710125e+2, -584199.44, -446184.06, 84202.95, -0.0038762495, -0.4477114, -406323.94, -122291.125, 0.0, 9.998308, 10.000095 
2.7045298e+3, 2.810117e+2, -574589.25, -380477.3, 81445.695, 0.022774898, -0.4827829, -350831.8, -164791.2, 0.0, 9.997656, 10.000191 
2.7044213e+3, 2.910118e+2, -555562.9, -268262.03, 56542.344, 0.0012922385, -0.4575414, -257534.75, -169494.69, 0.0, 9.996883, 10.000662 
2.704312e+3, 3.0101213e+2, -563474.44, -230668.88, 60521.06, -0.026685609, -0.4300415, -220004.77, -220004.77, 0.0, 9.996195, 10.000581 
2.704205e+3, 3.110124e+2, -492080.34, -106908.58, 37277.426, 0.11170116, -0.42858565, -103334.0, -103334.0, 0.0, 9.996069, 10.001157 
2.7040944e+3, 3.2101268e+2, -470991.34, -24731.434, -9894.861, -0.037810482, -0.44270274, -24512.145, -24512.145, 0.0, 9.995899, 10.001804 
2.716161e+3, 1.3115047e+2, -1036736.1, -1735266.4, -6810.601, -0.057576932, -0.5563544, -1036669.75, 618004.06, 0.01567821, 10.006253, 9.996844 
2.71605e+3, 1.4114761e+2, -1028101.25, -1635408.6, 6793.3945, -0.072265014, -0.47729528, -1028025.25, 528679.3, 0.009241816, 10.005396, 9.9972725 
2.71594e+3, 1.5114464e+2, -983828.25, -1487785.1, 51036.25, -0.09346342, -0.48397902, -978711.7, 480022.78, 0.004006523, 10.00468, 9.997953 
2.7158305e+3, 1.6114186e+2, -975912.44, -1433804.3, 46455.2, -0.08220989, -0.4956825, -971246.9, 389515.16, 0.001086556, 10.004051, 9.997953 
2.7157214e+3, 1.7113948e+2, -911486.94, -1311265.1, 61310.71, -0.036038756, -0.48678616, -902295.5, 360489.94, 0.00014509395, 10.003649, 9.998312 
2.7156124e+3, 1.811372e+2, -896260.25, -1285755.9, 71706.34, -0.009112674, -0.47600293, -883478.56, 281329.44, 0.0000045032148, 10.00322, 9.998023 
2.7155033e+3, 1.9113477e+2, -877260.1, -1206631.3, 84650.15, -0.030257486, -0.46353906, -856778.25, 210054.67, 0.0, 10.002598, 9.998191 
2.7153945e+3, 2.011325e+2, -857270.06, -1128948.3, 74603.79, -0.044954512, -0.4538324, -838131.75, 130724.45, 0.0, 10.0019865, 9.998347 
2.715286e+3, 2.1113048e+2, -797100.3, -1000174.6, 73052.73, -0.0311911, -0.45614043, -773551.5, 97325.234, 0.0, 10.001518, 9.998782 
2.7151772e+3, 2.2112866e+2, -768591.6, -935021.9, 77043.41, -0.021920733, -0.45583054, -738402.9, 34492.066, 0.0, 10.001037, 9.99879 
2.7150688e+3, 2.3112717e+2, -729022.25, -827425.4, 87241.61, -0.032443356, -0.44083998, -678064.44, -3155.2517, 0.0, 10.000473, 9.999127 
2.7149606e+3, 2.4112575e+2, -710452.0, -763830.75, 90129.15, -0.03740943, -0.4355127, -643143.56, -66220.7, 0.0, 9.999909, 9.999164 
2.7148524e+3, 2.5112417e+2, -654754.75, -644746.4, 71812.0, -0.018474858, -0.46836624, -577764.4, -98825.68, 0.0, 9.99944, 9.999534 
2.714744e+3, 2.6112297e+2, -614025.06, -549590.3, 65846.016, -0.006517138, -0.48709118, -508502.47, -127551.8, 0.0, 9.998938, 9.999758 
2.714635e+3, 2.7112284e+2, -572706.3, -425578.78, 59261.664, -0.015174476, -0.4464189, -404677.88, -121726.15, 0.0, 9.998316, 10.0002365 
2.7145267e+3, 2.811227e+2, -575869.9, -383049.06, 54351.96, -0.004945681, -0.42226493, -368783.8, -183831.1, 0.0, 9.997649, 10.000178 
2.7144176e+3, 2.9112193e+2, -565047.5, -287077.84, 25810.322, 0.03209311, -0.47433603, -284701.6, -197741.27, 0.0, 9.996875, 10.000539 
2.714308e+3, 3.0112165e+2, -572652.7, -251603.02, 45504.92, 0.00022134876, -0.49349245, -245277.86, -245277.86, 0.0, 9.996198, 10.000439 
2.714199e+3, 3.111225e+2, -508617.44, -144816.2, 34187.883, 0.0013548611, -0.41596282, -141631.31, -141631.31, 0.0, 9.996078, 10.000896 
2.7140906e+3, 3.211224e+2, -485966.88, -62091.855, -6697.6255, 0.0548188, -0.43714893, -61986.05, -61986.05, 0.0, 9.995929, 10.001533 
2.7261662e+3, 1.3126133e+2, -1123835.3, -1727087.8, -24084.059, -0.057608113, -0.54286516, -1122875.3, 530713.6, 0.011932056, 10.005407, 9.99731 
2.7260545e+3, 1.4125891e+2, -1044582.75, -1618131.1, 32823.49, -0.08069654, -0.45925462, -1042710.4, 512903.66, 0.006884214, 10.005164, 9.997501 
2.7259442e+3, 1.5125589e+2, -1006177.25, -1490326.5, 71829.2, -0.08328335, -0.47975543, -995745.3, 461898.72, 0.002882623, 10.004493, 9.998022 
2.7258343e+3, 1.6125304e+2, -1000477.25, -1443903.8, 66469.32, -0.057536, -0.5043297, -990727.94, 368944.34, 0.0007435662, 10.00388, 9.997964 
2.7257243e+3, 1.7125061e+2, -932387.4, -1324721.6, 76637.82, -0.03148379, -0.49528453, -917948.5, 343747.53, 0.0000921536, 10.003527, 9.998276 
2.7256146e+3, 1.8124835e+2, -902884.6, -1278367.1, 74988.125, -0.01985903, -0.4818584, -888462.6, 275255.78, 0.0000024128854, 10.003136, 9.998112 
2.7255052e+3, 1.9124606e+2, -887042.56, -1194462.9, 100822.63, -0.02746924, -0.4675807, -856926.7, 208814.83, 0.0, 10.002464, 9.998336 
2.725396e+3, 2.0124386e+2, -882898.6, -1150805.0, 111780.3, -0.02945978, -0.45715046, -842386.1, 125377.98, 0.0, 10.001858, 9.998256 
2.7252868e+3, 2.1124159e+2, -810390.6, -1034604.8, 106865.73, -0.020187, -0.45945638, -767616.2, 102171.414, 0.0, 10.0015545, 9.998526 
2.725178e+3, 2.2123961e+2, -744258.4, -920400.6, 96502.19, -0.016647654, -0.45901728, -701680.4, 70127.73, 0.0, 10.001198, 9.99881 
2.7250686e+3, 2.3123826e+2, -705277.4, -795941.0, 99686.1, -0.03968438, -0.44214192, -641099.8, 32720.512, 0.0, 10.000556, 9.999301 
2.7249599e+3, 2.4123697e+2, -711885.7, -765758.44, 107200.05, -0.049400054, -0.4353719, -628289.6, -52457.19, 0.0, 9.999911, 9.9991455 
2.724851e+3, 2.5123525e+2, -670824.5, -670796.1, 102640.36, -0.012579663, -0.46943974, -568169.94, -90319.88, 0.0, 9.999415, 9.999363 
2.7247423e+3, 2.612339e+2, -621987.1, -556615.44, 101096.6, 0.01280425, -0.49179778, -483052.1, -103188.07, 0.0, 9.998905, 9.999722 
2.724633e+3, 2.7123374e+2, -567808.75, -417916.5, 83701.71, -0.01643647, -0.45181668, -380510.97, -98645.92, 0.0, 9.998335, 10.000277 
2.7245235e+3, 2.812336e+2, -559790.5, -373960.44, 72999.164, -0.01907857, -0.42668012, -348714.22, -164848.52, 0.0, 9.997761, 10.000183 
2.7244142e+3, 2.912329e+2, -503395.75, -261088.89, 49310.156, 0.04019492, -0.46837524, -251438.48, -165566.0, 0.0, 9.997322, 10.000498 
2.724304e+3, 3.0123258e+2, -482025.0, -218626.89, 82737.28, 0.014567066, -0.485871, -194794.28, -194794.28, 0.0, 9.996877, 10.000333 
2.7241942e+3, 3.1123292e+2, -471969.5, -139980.52, 81047.18, -0.053384304, -0.446743, -121251.38, -121251.38, 0.0, 9.996394, 10.0007715 
2.724086e+3, 3.2123315e+2, -548938.25, -69786.32, 13074.267, 0.07664313, -0.43042812, -69429.836, -69429.836, 0.0, 9.995409, 10.001726 
2.736171e+3, 1.3137284e+2, -1048356.56, -1556799.0, -24678.578, -0.078543656, -0.4750557, -1047161.56, 605338.8, 0.008745468, 10.005339, 9.998515 
2.7360594e+3, 1.413704e+2, -1021780.5, -1560573.9, 13503.491, -0.06486007, -0.4871417, -1021442.25, 533078.9, 0.004916761, 10.00511, 9.997923 
2.7359483e+3, 1.5136755e+2, -1012152.1, -1499185.8, 44473.79, -0.05396492, -0.49592644, -1008124.3, 448424.84, 0.0019763017, 10.004468, 9.997975 
2.7358377e+3, 1.6136481e+2, -1010453.25, -1461659.9, 48845.64, -0.028002288, -0.50192463, -1005226.0, 353350.34, 0.0004812292, 10.003862, 9.997853 
2.7357274e+3, 1.713622e+2, -947857.56, -1352001.4, 66435.12, -0.036348283, -0.4944573, -937216.8, 323385.47, 0.000054310836, 10.003501, 9.998103 
2.7356172e+3, 1.8135983e+2, -893849.94, -1253619.3, 56087.008, -0.047765266, -0.48678342, -885308.9, 277317.03, 0.0000011019603, 10.003105, 9.998298 
2.7355072e+3, 1.9135776e+2, -861066.44, -1140098.9, 75061.8, -0.024377357, -0.4882017, -842155.8, 222490.22, 0.0, 10.002459, 9.998713 
2.7353975e+3, 2.013557e+2, -889433.94, -1166521.6, 94937.586, -0.002544088, -0.48461357, -860026.75, 106639.63, 0.0, 10.0018635, 9.998147 
2.735288e+3, 2.1135339e+2, -837444.56, -1092031.8, 96804.7, -0.008985333, -0.45700762, -804816.94, 63874.43, 0.0, 10.001555, 9.998133 
2.7351785e+3, 2.2135127e+2, -749390.94, -928183.3, 77737.41, -0.021316161, -0.4404653, -720318.6, 50395.223, 0.0, 10.001181, 9.998767 
2.7350685e+3, 2.3134956e+2, -696856.94, -778432.6, 75117.6, -0.039005663, -0.47132236, -652167.9, 20561.64, 0.0, 10.000552, 9.999424 
2.734959e+3, 2.4134815e+2, -706500.1, -757723.75, 85961.76, -0.0437107, -0.4876265, -642415.9, -67673.22, 0.0, 9.999921, 9.999198 
2.73485e+3, 2.5134724e+2, -669996.6, -671315.4, 83281.84, -0.002506665, -0.44140851, -587371.56, -110619.02, 0.0, 9.99942, 9.99936 
2.7347407e+3, 2.6134634e+2, -626439.06, -566559.44, 80721.95, 0.024317684, -0.41326556, -510403.8, -131641.9, 0.0, 9.998903, 9.999657 
2.7346307e+3, 2.713451e+2, -576394.4, -434985.9, 61669.03, -0.0058024423, -0.47018287, -411870.3, -131096.95, 0.0, 9.998328, 10.000164 
2.7345207e+3, 2.8134432e+2, -558817.5, -374134.38, 54469.75, -0.019094717, -0.50448817, -359266.25, -176485.64, 0.0, 9.9977665, 10.000182 
2.7344108e+3, 2.9134485e+2, -497049.22, -254873.2, 32763.574, 0.015161422, -0.42909572, -250518.97, -165743.27, 0.0, 9.997346, 10.000533 
2.7343002e+3, 3.0134505e+2, -480498.3, -225846.53, 65896.28, -0.00017101188, -0.3897873, -209805.06, -209805.06, 0.0, 9.996916, 10.000268 
2.7341908e+3, 3.1134337e+2, -474375.88, -147579.13, 61674.82, -0.006958826, -0.54428494, -136326.95, -136326.95, 0.0, 9.996402, 10.000717 
2.7340803e+3, 3.2134503e+2, -500763.28, 37773.848, -106798.43, 0.041963838, -0.40899867, 58180.04, 58180.04, 0.0, 9.995348, 10.002509 
2.7461752e+3, 1.314849e+2, -1114745.4, -1558633.1, 34532.82, -0.08077704, -0.4520794, -1112074.9, 539328.25, 0.006121905, 10.004732, 9.9987955 
2.7460638e+3, 1.4148237e+2, -1093779.0, -1581637.6, 21213.088, -0.042756278, -0.49611455, -1092858.4, 460565.34, 0.0033384433, 10.004551, 9.998047 
2.745952e+3, 1.5147959e+2, -1067483.0, -1522780.9, 45952.52, -0.03545097, -0.49966276, -1062891.4, 392559.66, 0.0012804193, 10.00408, 9.997996 
2.7458408e+3, 1.6147695e+2, -1037721.3, -1454250.8, 59925.594, -0.016245723, -0.50054103, -1029271.3, 328205.75, 0.00029156986, 10.0035925, 9.998031 
2.74573e+3, 1.714745e+2, -1000319.1, -1350967.9, 102230.484, -0.03920708, -0.50246936, -972691.0, 286810.0, 0.000029276536, 10.003033, 9.998333 
2.745619e+3, 1.8147217e+2, -976685.56, -1297353.9, 104376.71, -0.058814727, -0.50222963, -945704.44, 215819.34, 0.00000039166414, 10.002558, 9.998259 
2.745509e+3, 1.9146997e+2, -890950.2, -1175687.8, 89641.78, -0.018993368, -0.49669763, -865079.5, 198466.36, 0.0, 10.002352, 9.998517 
2.745399e+3, 2.0146787e+2, -854968.75, -1140076.1, 85847.2, 0.012907094, -0.487711, -831115.44, 134451.8, 0.0, 10.002065, 9.99823 
2.745289e+3, 2.1146564e+2, -845234.2, -1071332.3, 122470.805, -0.0168096, -0.47059909, -791612.3, 75978.06, 0.0, 10.001403, 9.998346 
2.7451786e+3, 2.2146356e+2, -808999.1, -964535.44, 131304.81, -0.040632855, -0.4604274, -734160.44, 35451.582, 0.0, 10.000811, 9.9986925 
2.7450687e+3, 2.3146181e+2, -717348.5, -817459.0, 105493.8, -0.030309457, -0.47121972, -650637.0, 20992.492, 0.0, 10.000543, 9.999158 
2.7449587e+3, 2.4146034e+2, -663776.25, -735434.9, 93178.59, -0.015674364, -0.47337288, -599775.75, -26131.705, 0.0, 10.000214, 9.9992075 
2.7448487e+3, 2.5145942e+2, -635311.44, -637163.4, 96305.22, -0.0004101951, -0.4381566, -539927.75, -64274.87, 0.0, 9.999589, 9.99951 
2.744739e+3, 2.6145852e+2, -616506.44, -563360.5, 104645.59, 0.007359178, -0.4202713, -481966.7, -104304.945, 0.0, 9.998984, 9.999637 
2.7446285e+3, 2.7145723e+2, -544551.94, -434773.28, 85210.734, -0.014304023, -0.47574332, -388303.3, -108628.375, 0.0, 9.99862, 10.000021 
2.744518e+3, 2.8145635e+2, -501765.34, -354617.34, 72636.625, -0.015144603, -0.5027966, -324802.7, -143119.38, 0.0, 9.998202, 10.000101 
2.7444077e+3, 2.9145706e+2, -465335.03, -243927.5, 43112.32, 0.026409363, -0.40070924, -235828.92, -152152.73, 0.0, 9.99759, 10.000486 
2.7442965e+3, 3.0145726e+2, -479730.34, -217793.27, 72324.93, 0.006349158, -0.3631184, -199150.13, -199150.13, 0.0, 9.996893, 10.000331 
2.744186e+3, 3.114547e+2, -513624.84, -152534.33, 78387.83, -0.034126665, -0.6129771, -136251.64, -136251.64, 0.0, 9.996078, 10.000838 
2.7440757e+3, 3.2145742e+2, -400880.34, 100363.12, -87355.0, 0.080663085, -0.38395298, 115150.78, 115150.78, 0.0, 9.995979, 10.00263 
2.7561796e+3, 1.3159743e+2, -1131586.4, -1599965.0, 29995.902, -0.0724525, -0.45863804, -1129673.1, 520626.2, 0.0040484774, 10.004753, 9.998498 
2.7560678e+3, 1.4159478e+2, -1104047.6, -1595688.9, 8773.728, -0.021549648, -0.4907586, -1103891.1, 448430.56, 0.0021315098, 10.004511, 9.997971 
2.7559555e+3, 1.5159206e+2, -1066669.1, -1518750.8, 30401.592, -0.0284439, -0.4931662, -1064633.8, 389715.3, 0.0007751255, 10.004064, 9.998035 
2.7558437e+3, 1.6158953e+2, -1011940.44, -1400987.6, 42036.953, -0.019263564, -0.4987781, -1007450.1, 348923.94, 0.0001629736, 10.00359, 9.9984 
2.7557325e+3, 1.715874e+2, -964117.5, -1276329.0, 80232.87, -0.039827745, -0.5187384, -944705.94, 313687.28, 0.000014106576, 10.003032, 9.998848 
2.755621e+3, 1.8158522e+2, -996405.94, -1337729.5, 90077.336, -0.057172634, -0.52700204, -974092.7, 186320.81, 0.00000009505926, 10.002552, 9.997986 
2.7555108e+3, 1.915827e+2, -939260.56, -1276332.8, 83477.586, -0.013813127, -0.49434733, -919719.75, 142721.52, 0.0, 10.002351, 9.9978285 
2.7554005e+3, 2.0158033e+2, -838152.25, -1103678.8, 68486.51, 0.014113844, -0.47207004, -821528.5, 142938.02, 0.0, 10.002055, 9.9984865 
2.7552894e+3, 2.1157831e+2, -793552.6, -965157.56, 97061.12, -0.042346157, -0.500329, -749806.2, 116678.734, 0.0, 10.001404, 9.999076 
2.7551785e+3, 2.215765e+2, -819610.5, -988376.2, 115932.64, -0.07757881, -0.5091506, -760602.8, 7899.5947, 0.0, 10.000814, 9.9985285 
2.7550688e+3, 2.31575e+2, -761441.75, -912098.44, 96264.94, -0.0137773855, -0.4376456, -714535.44, -44015.098, 0.0, 10.000552, 9.998506 
2.754959e+3, 2.4157353e+2, -665990.94, -740409.56, 73727.88, 0.03148914, -0.3943054, -620614.94, -48077.953, 0.0, 10.000211, 9.999177 
2.754848e+3, 2.5157177e+2, -615947.3, -596857.2, 71665.23, -0.0085465135, -0.46807334, -534104.2, -59552.16, 0.0, 9.999585, 9.99979 
2.7547368e+3, 2.6157036e+2, -615182.3, -564081.4, 87383.414, -0.045790717, -0.51731086, -498589.6, -122025.58, 0.0, 9.998996, 9.999628 
2.7546263e+3, 2.7157003e+2, -555933.44, -462809.84, 71303.23, -0.045477394, -0.46010473, -424212.06, -145642.92, 0.0, 9.998633, 9.9998255 
2.7545157e+3, 2.8156978e+2, -511133.72, -378885.38, 51721.945, -0.012133758, -0.40748447, -361059.78, -180487.02, 0.0, 9.998219, 9.999929 
2.754405e+3, 2.9156947e+2, -477579.88, -269443.94, 17748.943, 0.085795246, -0.39256558, -267941.25, -185365.97, 0.0, 9.997587, 10.000314 
2.754293e+3, 3.015689e+2, -469237.22, -189819.73, 41948.043, 0.050611865, -0.42359886, -183658.08, -183658.08, 0.0, 9.996862, 10.00054 
2.7541798e+3, 3.1156713e+2, -495314.78, -105125.12, 45756.965, -0.19441187, -0.6298272, -99831.09, -99831.09, 0.0, 9.99603, 10.001191 
2.7540717e+3, 3.2157e+2, -458628.16, -29531.105, 30362.53, 0.15773074, -0.37875503, -27393.33, -27393.33, 0.0, 9.996038, 10.001701 
2.766184e+3, 1.3171032e+2, -1137943.4, -1618493.6, 41595.746, -0.05149683, -0.46928173, -1134369.5, 514821.56, 0.0024920597, 10.004766, 9.998365 
2.7660716e+3, 1.4170747e+2, -1156059.6, -1607902.5, 30802.611, -0.0065538064, -0.5183508, -1153969.5, 397247.34, 0.0012592602, 10.004098, 9.998085 
2.7659586e+3, 1.5170507e+2, -1102294.8, -1510834.9, 65072.26, -0.030339617, -0.50415283, -1092180.5, 361060.25, 0.00043018826, 10.003714, 9.998256 
2.7658466e+3, 1.6170283e+2, -1045368.2, -1415088.1, 73255.01, -0.028171923, -0.4966621, -1031382.75, 323880.44, 0.0000818721, 10.003354, 9.998414 
2.7657348e+3, 1.7170057e+2, -986833.56, -1297786.9, 74795.14, -0.027903738, -0.5191762, -969778.2, 287505.63, 0.000005757098, 10.002928, 9.998748 
2.7656233e+3, 1.8169835e+2, -993439.8, -1325505.3, 72921.23, -0.034343705, -0.5298083, -978132.0, 181172.88, 0.00000000965895, 10.002535, 9.998075 
2.7655125e+3, 1.9169597e+2, -947304.6, -1263059.5, 118094.89, -0.019344231, -0.4957628, -908023.0, 153307.81, 0.0, 10.002227, 9.997977 
2.7654016e+3, 2.016937e+2, -855692.7, -1106256.1, 126782.59, -0.007953577, -0.47437277, -802734.9, 160620.16, 0.0, 10.001912, 9.998534 
2.76529e+3, 2.1169165e+2, -777566.1, -958658.3, 105665.516, -0.041453283, -0.5032562, -728958.4, 136415.4, 0.0, 10.001525, 9.99906 
2.765179e+3, 2.2168984e+2, -777327.7, -966153.25, 97517.12, -0.061332915, -0.51019365, -736007.75, 31383.451, 0.0, 10.001103, 9.99854 
2.7650687e+3, 2.3168838e+2, -756032.44, -908918.7, 120343.86, -0.014063491, -0.43505812, -689905.56, -20496.746, 0.0, 10.000593, 9.998505 
2.764958e+3, 2.4168688e+2, -684623.56, -755681.44, 126161.56, 0.02208398, -0.39167282, -589083.6, -17657.668, 0.0, 10.000116, 9.999115 
2.764847e+3, 2.5168493e+2, -594265.6, -599154.2, 95985.984, -0.014024744, -0.4730979, -500692.8, -27249.834, 0.0, 9.999797, 9.999669 
2.7647352e+3, 2.6168337e+2, -560733.1, -542027.2, 89782.54, -0.04665943, -0.52633774, -461111.78, -85655.4, 0.0, 9.999395, 9.999583 
2.7646244e+3, 2.7168313e+2, -539766.2, -457597.13, 82680.22, -0.042586528, -0.454391, -406356.38, -128895.95, 0.0, 9.998762, 9.999796 
2.7645132e+3, 2.816829e+2, -520856.94, -387822.56, 75217.555, -0.009134266, -0.39532328, -353929.53, -174465.64, 0.0, 9.998175, 9.9998865 
2.764402e+3, 2.916822e+2, -444253.4, -261168.25, 48113.023, 0.07365942, -0.40919667, -249294.64, -167824.89, 0.0, 9.997858, 10.0002365 
2.7642897e+3, 3.0168152e+2, -397074.6, -166752.63, 57614.656, 0.04489155, -0.44855958, -153144.44, -153144.44, 0.0, 9.997418, 10.000426 
2.764176e+3, 3.1168032e+2, -426388.72, -89918.3, 17478.182, -0.14055133, -0.58184206, -89012.82, -89012.82, 0.0, 9.996588, 10.001022 
2.7640668e+3, 3.216822e+2, -468190.47, -30320.102, 63387.664, 0.11706797, -0.41530722, -21328.52, -21328.52, 0.0, 9.995966, 10.001726 
2.776188e+3, 1.3182361e+2, -1139987.4, -1623056.4, 16052.5, -0.027340408, -0.48185995, -1139454.6, 508623.9, 0.0013982608, 10.004766, 9.998331 
2.7760753e+3, 1.4182042e+2, -1139990.8, -1576329.5, 13546.174, 0.00019328945, -0.5676439, -1139570.6, 410537.94, 0.00067189167, 10.004101, 9.9983015 
2.7759618e+3, 1.518186e+2, -1079136.3, -1464264.5, 51297.063, -0.038559083, -0.52896535, -1072420.9, 379705.94, 0.00021228129, 10.003715, 9.998578 
2.775849e+3, 1.6181673e+2, -1065367.6, -1455564.0, 56750.266, -0.04033545, -0.49642193, -1057281.5, 296864.4, 0.00003517426, 10.003346, 9.998142 
2.7757373e+3, 1.7181407e+2, -1025512.75, -1380903.1, 61344.227, -0.008740724, -0.5056847, -1015222.06, 240950.19, 0.0000017161015, 10.002937, 9.998175 
2.7756256e+3, 1.8181165e+2, -964629.75, -1269420.5, 63990.37, -0.0009876587, -0.5117847, -951740.2, 206456.2, 0.00000000000031198744, 10.002547, 9.998456 
2.7755138e+3, 1.9180979e+2, -890629.8, -1144646.8, 108079.56, -0.034828078, -0.5010991, -850867.94, 209346.77, 0.0, 10.002219, 9.9987955 
2.7754024e+3, 2.0180789e+2, -872565.94, -1136861.5, 112088.234, -0.049933646, -0.49000302, -831431.3, 130802.46, 0.0, 10.00189, 9.998337 
2.7752912e+3, 2.1180561e+2, -827478.75, -1061596.6, 91321.664, -0.016467888, -0.48032546, -796070.7, 68186.69, 0.0, 10.001519, 9.998357 
2.77518e+3, 2.2180356e+2, -764983.44, -938879.1, 80628.945, -0.00033917424, -0.47137123, -733352.4, 32926.38, 0.0, 10.001093, 9.9987335 
2.7750686e+3, 2.3180194e+2, -712766.06, -820174.56, 101581.16, -0.033779565, -0.4679144, -651566.5, 16728.738, 0.0, 10.000594, 9.999116 
2.774957e+3, 2.4180041e+2, -694484.75, -778682.06, 111575.75, -0.050347038, -0.4607413, -617329.75, -47019.117, 0.0, 10.000124, 9.998955 
2.774846e+3, 2.5179896e+2, -631995.56, -680170.1, 83533.77, -0.015116833, -0.44425738, -569145.56, -96820.375, 0.0, 9.999804, 9.999112 
2.7747345e+3, 2.617976e+2, -565062.6, -553459.6, 68534.195, 0.0076564625, -0.43870392, -490481.8, -116143.39, 0.0, 9.999402, 9.999503 
2.7746227e+3, 2.7179646e+2, -531178.56, -438886.53, 57068.133, -0.0016081625, -0.46704593, -411641.63, -135291.95, 0.0, 9.998755, 9.999929 
2.7745107e+3, 2.8179565e+2, -515870.97, -376164.63, 59751.582, -0.008460679, -0.48225656, -354095.44, -175737.58, 0.0, 9.998166, 9.999972 
2.7743983e+3, 2.917954e+2, -441900.0, -259512.75, 37096.465, -0.034341305, -0.45230067, -252256.27, -171896.81, 0.0, 9.997867, 10.000247 
2.7742857e+3, 3.0179513e+2, -430128.03, -245292.9, 32553.223, -0.035341475, -0.42713836, -239727.2, -239727.2, 0.0, 9.997456, 9.999871 
2.7741757e+3, 3.1179425e+2, -483073.8, -215168.61, -17744.447, 0.23490612, -0.45136943, -213998.44, -213998.44, 0.0, 9.996617, 10.00015 
2.77406e+3, 3.2179388e+2, -370959.1, 174699.52, 4952.04, -0.07927214, -0.5002852, 174744.45, 174744.45, 0.0, 9.995925, 10.003169 
2.786192e+3, 1.3193733e+2, -1179211.6, -1671593.6, 33016.277, -0.022163916, -0.5215393, -1177007.6, 469954.13, 0.0006946521, 10.004618, 9.998073 
2.7860785e+3, 1.4193438e+2, -1156665.6, -1584960.1, 26370.752, -0.006764814, -0.56447035, -1155048.1, 393943.34, 0.000312845, 10.00399, 9.998295 
2.785965e+3, 1.5193261e+2, -1096736.0, -1462721.5, 56277.03, -0.037153855, -0.52705127, -1088277.8, 362731.47, 0.00008870037, 10.003557, 9.998662 
2.785852e+3, 1.619308e+2, -1077622.1, -1446566.5, 61859.098, -0.031892903, -0.49768904, -1067526.8, 285500.9, 0.000011727656, 10.003205, 9.99827 
2.7857396e+3, 1.7192829e+2, -1018084.8, -1363596.1, 105557.2, -0.00897402, -0.50599885, -988388.4, 266664.28, 0.00000025139548, 10.002932, 9.998295 
2.7856275e+3, 1.8192594e+2, -952023.56, -1253118.4, 125341.586, -0.0074947765, -0.5131328, -906675.5, 250400.56, 0.0, 10.002589, 9.998548 
2.7855155e+3, 1.9192405e+2, -917761.4, -1148221.8, 124331.47, -0.039713185, -0.5109054, -863473.7, 195620.58, 0.0, 10.001999, 9.998875 
2.7854034e+3, 2.0192218e+2, -926303.1, -1155775.1, 107463.26, -0.0526459, -0.503597, -883836.44, 77276.44, 0.0, 10.001502, 9.99839 
2.7852923e+3, 2.1192001e+2, -860714.94, -1077463.6, 131836.11, -0.012124007, -0.48476744, -798426.56, 64709.16, 0.0, 10.001297, 9.998352 
2.7851808e+3, 2.2191799e+2, -762487.44, -928861.06, 146217.83, 0.011360662, -0.47264478, -677449.1, 87707.88, 0.0, 10.001077, 9.998809 
2.7850688e+3, 2.319163e+2, -684841.8, -794875.6, 131724.3, -0.034481138, -0.48400292, -597106.6, 70066.8, 0.0, 10.00074, 9.999217 
2.7849564e+3, 2.4191472e+2, -660613.6, -765780.6, 121622.19, -0.06132944, -0.48699352, -580694.4, -11505.529, 0.0, 10.000377, 9.998919 
2.7848452e+3, 2.5191325e+2, -619381.94, -687955.5, 122332.51, -0.017289512, -0.45826584, -526622.2, -55418.355, 0.0, 9.999955, 9.998983 
2.7847338e+3, 2.619119e+2, -555696.9, -558282.4, 122677.36, 0.017510585, -0.44159946, -434305.47, -61087.695, 0.0, 9.999511, 9.999416 
2.7846214e+3, 2.719106e+2, -493092.22, -429326.22, 92659.67, 0.011095469, -0.47441477, -363217.7, -87987.3, 0.0, 9.999063, 9.999843 
2.7845088e+3, 2.8190964e+2, -454780.38, -347453.2, 85727.24, -0.0002507714, -0.49752727, -299978.56, -122738.66, 0.0, 9.998598, 9.999957 
2.7843955e+3, 2.9190928e+2, -397738.6, -238453.9, 62236.965, -0.062054813, -0.47844175, -217020.33, -137777.94, 0.0, 9.998177, 10.000238 
2.7842826e+3, 3.0190894e+2, -408263.13, -265539.88, 57986.85, -0.0641852, -0.44789284, -244950.66, -244950.66, 0.0, 9.997743, 9.999591 
2.7841732e+3, 3.1190822e+2, -413519.6, -225009.25, 34579.04, 0.34311172, -0.41613856, -218866.48, -218866.48, 0.0, 9.997288, 9.999756 
2.784055e+3, 3.2190713e+2, -300793.16, 256158.22, 28069.516, -0.1468578, -0.5238161, 257569.31, 257569.31, 0.0, 9.99621, 10.003586 
2.796196e+3, 1.3205142e+2, -1216164.3, -1730334.9, 3429.8892, -0.031195227, -0.5759503, -1216141.4, 429699.9, 0.00029399182, 10.004541, 9.9977045 
2.7960816e+3, 1.4204912e+2, -1168891.4, -1606781.6, 9689.8125, -0.023586709, -0.5252706, -1168677.0, 379190.2, 0.0001208623, 10.003972, 9.998156 
2.7959678e+3, 1.520471e+2, -1102910.0, -1475437.6, 45384.082, -0.031566296, -0.5055224, -1097460.8, 352427.2, 0.000028714185, 10.003552, 9.998579 
2.7958548e+3, 1.6204515e+2, -1051521.3, -1388399.5, 54701.926, -0.015939381, -0.49795187, -1042861.44, 309045.84, 0.0000024460635, 10.003185, 9.99868 
2.7957416e+3, 1.720431e+2, -979061.7, -1277050.0, 96454.234, -0.02489415, -0.51865166, -950565.94, 303360.3, 0.0000000042322403, 10.002904, 9.998904 
2.7956292e+3, 1.8204102e+2, -968659.8, -1281675.0, 104800.21, -0.041419555, -0.53263646, -936812.1, 219134.03, 0.0, 10.002561, 9.998366 
2.7955166e+3, 1.9203871e+2, -954823.8, -1226283.9, 102455.29, -0.036368616, -0.52394366, -920495.9, 137474.16, 0.0, 10.002002, 9.998339 
2.7954045e+3, 2.020366e+2, -904940.44, -1114320.4, 97458.72, -0.028397083, -0.51558137, -866598.25, 93393.445, 0.0, 10.001512, 9.998672 
2.7952927e+3, 2.1203482e+2, -816476.44, -988055.75, 125709.46, -0.028408043, -0.51478827, -750073.0, 111935.94, 0.0, 10.001304, 9.998964 
2.7951807e+3, 2.2203311e+2, -769504.8, -943311.6, 135091.52, -0.026153462, -0.50702536, -695778.44, 68247.414, 0.0, 10.001073, 9.998713 
2.795069e+3, 2.3203145e+2, -713552.56, -855777.56, 118996.51, -0.015139679, -0.47970533, -646039.1, 20004.328, 0.0, 10.000743, 9.998799 
2.794957e+3, 2.4202974e+2, -654091.0, -752492.8, 106279.99, -0.011804943, -0.47254843, -586175.9, -18114.951, 0.0, 10.000375, 9.999013 
2.7948445e+3, 2.5202775e+2, -598231.06, -644670.6, 106303.734, -0.023709236, -0.52462417, -512640.72, -42561.188, 0.0, 9.999955, 9.999282 
2.794732e+3, 2.620262e+2, -563866.56, -578160.1, 106503.984, -0.028593125, -0.5440265, -464269.84, -92175.18, 0.0, 9.99952, 9.999276 
2.7946195e+3, 2.7202564e+2, -516944.53, -481757.5, 75581.93, -0.009454575, -0.46945426, -421748.44, -147646.81, 0.0, 9.99907, 9.999482 
2.7945068e+3, 2.8202504e+2, -462439.28, -367759.0, 69304.984, 0.014003262, -0.42681974, -331168.97, -155060.34, 0.0, 9.998614, 9.999812 
2.794394e+3, 2.9202384e+2, -401153.03, -246724.39, 45458.293, 0.0153477015, -0.48584545, -234336.78, -156218.42, 0.0, 9.998179, 10.000182 
2.7942798e+3, 3.0202278e+2, -403706.8, -254782.81, 42485.48, -0.02608036, -0.5245422, -243514.98, -243514.98, 0.0, 9.997734, 9.999671 
2.7941668e+3, 3.12022e+2, -394839.16, -195033.4, 21003.854, 0.04928225, -0.5140703, -192849.33, -192849.33, 0.0, 9.997318, 9.99995 
2.794052e+3, 3.2202265e+2, -398645.7, 59376.195, -32637.111, -0.0014185682, -0.42032406, 61690.117, 61690.117, 0.0, 9.996192, 10.002238 
2.8061998e+3, 1.3216597e+2, -1256090.5, -1697099.1, -11630.433, -0.027857155, -0.5829183, -1255784.0, 388935.1, 0.00009976921, 10.00404, 9.998176 
2.8060848e+3, 1.4216435e+2, -1216568.0, -1600570.8, 35615.14, -0.024002539, -0.5022994, -1213292.8, 333444.66, 0.00003524279, 10.00352, 9.998416 
2.8059703e+3, 1.5216215e+2, -1153287.0, -1482125.3, 86687.51, -0.034950607, -0.517054, -1131834.1, 316925.0, 0.000006022763, 10.003134, 9.998733 
2.805857e+3, 1.6216008e+2, -1101950.4, -1402108.5, 99751.63, -0.018353391, -0.5324894, -1071823.8, 278955.7, 0.00000016363987, 10.002794, 9.998775 
2.8057438e+3, 1.7215827e+2, -1036362.9, -1297672.1, 113117.85, -0.022841712, -0.53451705, -994198.9, 258597.69, 0.0, 10.002487, 9.9989605 
2.805631e+3, 1.8215638e+2, -1013434.3, -1295302.0, 103835.91, -0.03676152, -0.533243, -979313.2, 175501.67, 0.0, 10.002231, 9.998427 
2.8055182e+3, 1.9215412e+2, -946689.2, -1219687.1, 132309.13, -0.031088753, -0.5244346, -893089.06, 163749.36, 0.0, 10.00205, 9.998359 
2.805406e+3, 2.02152e+2, -854450.6, -1079093.8, 147078.77, -0.022709036, -0.5199188, -781709.25, 177150.89, 0.0, 10.00181, 9.99877 
2.8052932e+3, 2.121502e+2, -797463.94, -964172.25, 144497.67, -0.036572322, -0.531154, -714002.3, 146874.61, 0.0, 10.001374, 9.999093 
2.8051808e+3, 2.2214851e+2, -784185.9, -952926.56, 134344.61, -0.043334506, -0.52900815, -709915.6, 52977.816, 0.0, 10.00099, 9.998683 
2.8050688e+3, 2.3214686e+2, -719346.44, -871353.4, 137224.52, -0.017464451, -0.48987028, -638483.44, 26427.992, 0.0, 10.000765, 9.998678 
2.8049567e+3, 2.4214515e+2, -633443.75, -737988.8, 134605.5, -0.00040253138, -0.47464937, -541317.3, 25611.857, 0.0, 10.000502, 9.999049 
2.804844e+3, 2.5214314e+2, -562968.5, -617762.1, 117851.945, -0.025572663, -0.5339394, -469370.8, -423.35754, 0.0, 10.00016, 9.999365 
2.8047308e+3, 2.621416e+2, -528396.8, -560777.5, 108887.07, -0.042138074, -0.5607043, -434503.0, -63540.49, 0.0, 9.99977, 9.999272 
2.804618e+3, 2.7214098e+2, -484072.7, -473397.72, 97769.68, -0.02546137, -0.4855618, -380819.94, -107850.14, 0.0, 9.999331, 9.999412 
2.804505e+3, 2.8214028e+2, -430603.7, -366516.88, 107707.45, 0.010306168, -0.43952668, -286187.34, -111209.82, 0.0, 9.998893, 9.999686 
2.804392e+3, 2.9213896e+2, -366953.47, -247970.72, 75262.39, 0.06294474, -0.4931831, -211526.42, -134537.63, 0.0, 9.998496, 10.000019 
2.8042775e+3, 3.0213785e+2, -359334.1, -219251.19, 62208.234, 0.010761043, -0.5351541, -195614.1, -195614.1, 0.0, 9.997985, 9.999791 
2.804162e+3, 3.1213692e+2, -386372.34, -165384.9, 44004.62, -0.1176241, -0.55766416, -156944.75, -156944.75, 0.0, 9.99727, 10.000175 
2.8040487e+3, 3.2213828e+2, -328223.56, 18338.186, -5792.0527, 0.081567176, -0.3862288, 18434.96, 18434.96, 0.0, 9.997003, 10.001562 
2.8162032e+3, 1.3228093e+2, -1194955.1, -1559158.9, -26499.973, -0.024290895, -0.56166786, -1193037.1, 450557.16, 0.000023983494, 10.003997, 9.999141 
2.8160876e+3, 1.4228e+2, -1192925.5, -1535951.3, 21439.014, -0.01747871, -0.49235487, -1191590.8, 354011.9, 0.0000064487667, 10.003452, 9.998892 
2.815973e+3, 1.5227765e+2, -1136282.3, -1443648.3, 72370.58, -0.04471167, -0.5524267, -1120094.8, 327529.8, 0.00000052844416, 10.003116, 9.999008 
2.815859e+3, 1.6227548e+2, -1110116.8, -1422859.6, 86318.23, -0.031165993, -0.5904407, -1087874.5, 261771.1, 0.0000000005064632, 10.002808, 9.998627 
2.8157458e+3, 1.7227378e+2, -1058908.8, -1346511.0, 102924.56, -0.009801047, -0.55069494, -1025870.25, 225793.39, 0.0, 10.002494, 9.998624 
2.8156325e+3, 1.8227208e+2, -997348.75, -1260495.9, 97803.34, -0.010569062, -0.5179262, -964979.94, 188701.47, 0.0, 10.002221, 9.9986725 
2.8155196e+3, 1.922702e+2, -915815.2, -1154266.3, 126506.16, -0.025820283, -0.51518345, -861205.94, 194494.16, 0.0, 10.002041, 9.998815 
2.8154066e+3, 2.0226826e+2, -863122.9, -1094698.6, 132642.77, -0.032669812, -0.51830333, -802839.94, 154879.33, 0.0, 10.001798, 9.998671 
2.815294e+3, 2.1226612e+2, -820535.25, -1012441.8, 127704.24, -0.03742393, -0.53517914, -756753.06, 102987.07, 0.0, 10.001374, 9.998763 
2.8151813e+3, 2.2226414e+2, -782882.6, -948813.3, 123838.734, -0.044668905, -0.5413894, -716786.6, 44973.324, 0.0, 10.000981, 9.998716 
2.815069e+3, 2.3226249e+2, -707259.2, -848024.2, 129102.24, -0.0431714, -0.5165073, -630600.6, 33176.98, 0.0, 10.000769, 9.998837 
2.8149563e+3, 2.4226098e+2, -635049.6, -744730.5, 122379.055, -0.035472892, -0.4915938, -555785.25, 10008.357, 0.0, 10.000513, 9.998999 
2.8148437e+3, 2.5225955e+2, -573235.3, -640794.94, 103916.61, -0.021856176, -0.4774314, -497746.0, -29938.96, 0.0, 10.000163, 9.9992075 
2.81473e+3, 2.6225814e+2, -517964.5, -540308.3, 92440.57, -0.020660693, -0.48251474, -436023.2, -66202.555, 0.0, 9.999772, 9.9994135 
2.8146166e+3, 2.7225655e+2, -466805.8, -438588.03, 81317.69, -0.037905343, -0.53148276, -370164.34, -98328.83, 0.0, 9.999334, 9.999651 
2.814503e+3, 2.8225532e+2, -437675.78, -384067.63, 93168.414, -0.017984668, -0.5519119, -313924.25, -140076.75, 0.0, 9.998902, 9.999563 
2.8143898e+3, 2.922548e+2, -387686.34, -293636.38, 59973.91, 0.06995617, -0.49764606, -264449.7, -188596.44, 0.0, 9.998502, 9.999705 
2.814275e+3, 3.0225423e+2, -346019.13, -194164.83, 37639.086, 0.038788494, -0.46416542, -185347.47, -185347.47, 0.0, 9.997993, 9.999961 
2.8141588e+3, 3.1225336e+2, -371366.9, -128448.72, 16755.049, -0.0953781, -0.5136016, -127298.5, -127298.5, 0.0, 9.997243, 10.000443 
2.8140447e+3, 3.222533e+2, -286106.03, 86378.055, 25179.555, 0.054002225, -0.5132057, 88072.45, 88072.45, 0.0, 9.997071, 10.002004 
2.8262058e+3, 1.3239674e+2, -1282530.1, -1592840.0, 18586.457, -0.06075998, -0.5723699, -1281420.8, 361037.16, 0.0000033281458, 10.003354, 9.999221 
2.8260905e+3, 1.4239553e+2, -1257997.1, -1557738.8, 39036.18, 0.005143847, -0.5384166, -1252996.8, 291471.9, 0.00000050691085, 10.002966, 9.998976 
2.8259754e+3, 1.5239353e+2, -1166503.9, -1449616.3, 83243.875, -0.028412752, -0.56964767, -1143841.6, 302645.88, 0.0000000023756648, 10.002878, 9.999079 
2.825861e+3, 1.623916e+2, -1120141.6, -1424332.1, 86188.48, -0.025392858, -0.58784735, -1097418.6, 251087.81, 0.0, 10.00273, 9.9986515 
2.8257474e+3, 1.723898e+2, -1090974.5, -1364802.6, 115886.18, -0.013443218, -0.556952, -1048514.5, 202011.44, 0.0, 10.002287, 9.998598 
2.8256342e+3, 1.8238807e+2, -1029590.25, -1260166.9, 126344.01, -0.016844725, -0.5308493, -973839.94, 178704.33, 0.0, 10.001929, 9.998817 
2.825521e+3, 1.9238636e+2, -938040.25, -1142202.4, 142961.42, -0.02459408, -0.52976936, -864455.4, 190105.42, 0.0, 10.001795, 9.999013 
2.825408e+3, 2.0238453e+2, -887348.56, -1109498.9, 135509.08, -0.028208913, -0.5308596, -823208.44, 133370.05, 0.0, 10.001655, 9.9986315 
2.8252947e+3, 2.1238239e+2, -822834.94, -1030574.1, 138822.98, -0.03521893, -0.5357847, -753324.25, 105276.0, 0.0, 10.001438, 9.998605 
2.8251818e+3, 2.2238036e+2, -747773.0, -923853.9, 145774.84, -0.042627368, -0.53680253, -665515.4, 95105.375, 0.0, 10.001191, 9.998786 
2.8250688e+3, 2.3237869e+2, -683767.56, -821386.56, 149267.8, -0.05217607, -0.5265816, -588212.75, 74425.305, 0.0, 10.000868, 9.998971 
2.8249562e+3, 2.4237718e+2, -628936.1, -738048.94, 141078.53, -0.04886197, -0.50894904, -532232.6, 32420.93, 0.0, 10.000545, 9.999027 
2.824843e+3, 2.523759e+2, -564086.6, -638955.2, 130089.04, -0.017524872, -0.47948217, -466152.97, 513.0612, 0.0, 10.000241, 9.999181 
2.8247294e+3, 2.6237455e+2, -498196.56, -527999.0, 118453.305, -0.0070835166, -0.47571188, -393710.88, -25031.756, 0.0, 9.999897, 9.999438 
2.824615e+3, 2.723728e+2, -443598.28, -423459.34, 90121.48, -0.04827429, -0.5413313, -342846.53, -72151.51, 0.0, 9.999481, 9.999682 
2.824501e+3, 2.8237143e+2, -419717.22, -377788.75, 95393.77, -0.036715187, -0.5746369, -301082.75, -128374.77, 0.0, 9.999045, 9.999533 
2.8243876e+3, 2.9237092e+2, -368715.44, -294643.3, 79476.56, 0.070858, -0.51515216, -243997.03, -169282.72, 0.0, 9.99868, 9.999611 
2.8242728e+3, 3.0237046e+2, -298297.97, -162416.28, 58554.598, 0.04998488, -0.46957114, -140665.44, -140665.44, 0.0, 9.998282, 10.00004 
2.8241554e+3, 3.1236997e+2, -286992.25, -75854.35, 17553.166, -0.09167044, -0.4900531, -74405.0, -74405.0, 0.0, 9.997775, 10.0005455 
2.8240415e+3, 3.2236868e+2, -219754.45, 98134.17, 51001.215, 0.065596014, -0.6089227, 106116.25, 106116.25, 0.0, 9.997624, 10.001814 
2.8362077e+3, 1.3251315e+2, -1314914.3, -1657294.3, -3365.4846, -0.11421176, -0.60053915, -1314881.1, 326432.56, 0.00000016214108, 10.0033455, 9.99878 
2.8360927e+3, 1.4251111e+2, -1265686.3, -1578118.5, 33398.934, 0.028327342, -0.61523247, -1262155.9, 281177.94, 0.0000000020979667, 10.002984, 9.998828 
2.8359777e+3, 1.525098e+2, -1171233.9, -1461320.3, 81998.03, -0.0036519514, -0.57214314, -1149660.1, 295687.4, 0.0, 10.002882, 9.998999 
2.8358632e+3, 1.6250831e+2, -1114512.5, -1408749.4, 73185.125, -0.011531494, -0.54493535, -1097314.5, 250048.5, 0.0, 10.00271, 9.99877 
2.835749e+3, 1.7250626e+2, -1078900.0, -1340298.4, 98967.336, -0.028443929, -0.5572612, -1045657.7, 203726.48, 0.0, 10.002287, 9.998767 
2.835635e+3, 1.825043e+2, -1024513.5, -1251969.3, 118257.37, -0.045165252, -0.56487936, -974171.8, 177232.08, 0.0, 10.001938, 9.99887 
2.835522e+3, 1.9250259e+2, -937317.25, -1142583.4, 138369.03, -0.02793823, -0.56357926, -867672.8, 185747.48, 0.0, 10.0018015, 9.999008 
2.835409e+3, 2.0250086e+2, -888562.06, -1110135.0, 127972.07, -0.016612781, -0.5558847, -830084.0, 125353.414, 0.0, 10.001644, 9.998634 
2.8352958e+3, 2.12499e+2, -823187.2, -1031827.2, 131020.945, -0.031826947, -0.5327659, -760028.44, 97428.79, 0.0, 10.001437, 9.998598 
2.8351822e+3, 2.2249718e+2, -742342.7, -911893.9, 135211.1, -0.044241633, -0.51680624, -667528.4, 91947.69, 0.0, 10.001186, 9.998872 
2.8350693e+3, 2.3249547e+2, -677809.3, -808774.5, 137173.33, -0.045077927, -0.51992214, -591290.3, 70202.51, 0.0, 10.000864, 9.999061 
2.834956e+3, 2.424938e+2, -623722.94, -726014.4, 129257.98, -0.039063912, -0.5275146, -535859.6, 27649.457, 0.0, 10.000537, 9.999115 
2.8348428e+3, 2.5249213e+2, -558291.9, -627934.1, 118694.5, -0.014342563, -0.546599, -469416.22, -3891.1646, 0.0, 10.000244, 9.999256 
2.8347287e+3, 2.6249072e+2, -504011.88, -544377.94, 102803.12, -0.011799936, -0.5461577, -419429.28, -51890.67, 0.0, 9.999912, 9.99932 
2.8346136e+3, 2.7248988e+2, -457886.56, -454363.0, 72713.32, -0.05711025, -0.5039759, -383390.13, -113842.45, 0.0, 9.999482, 9.999473 
2.8344992e+3, 2.8248885e+2, -412044.0, -363339.6, 80011.22, -0.048977003, -0.49252823, -304056.72, -132498.77, 0.0, 9.999049, 9.999632 
2.8343856e+3, 2.924873e+2, -357243.9, -270300.53, 66360.305, 0.061356876, -0.55225086, -234440.78, -160868.63, 0.0, 9.998676, 9.999781 
2.8342703e+3, 3.0248633e+2, -303846.1, -173145.2, 42436.26, 0.041341238, -0.56763947, -160575.72, -160575.72, 0.0, 9.998276, 9.999971 
2.8341523e+3, 3.124865e+2, -295805.5, -99745.69, -2225.079, -0.11359568, -0.504533, -99720.44, -99720.44, 0.0, 9.997795, 10.000375 
2.834039e+3, 3.2248503e+2, -308592.03, -91123.65, 63803.168, 0.11969522, -0.58873314, -73786.555, -73786.555, 0.0, 9.997646, 10.000502 
2.8462106e+3, 1.3262992e+2, -1332038.1, -1663944.5, -17691.273, -0.087850936, -0.5873521, -1331097.9, 309070.34, 0.00000000032983427, 10.003216, 9.998799 
2.846095e+3, 1.426276e+2, -1290743.9, -1598066.8, 40222.836, 0.008146746, -0.6291967, -1285566.8, 256624.66, 0.0, 10.002846, 9.998757 
2.8459796e+3, 1.5262614e+2, -1235194.4, -1507667.6, 88399.35, -0.017936073, -0.58583295, -1209027.6, 235179.61, 0.0, 10.002512, 9.998858 
2.8458652e+3, 1.626247e+2, -1164802.9, -1414036.6, 77641.17, -0.012871995, -0.55338573, -1142594.9, 203627.8, 0.0, 10.002285, 9.998938 
2.8457507e+3, 1.7262296e+2, -1073918.6, -1308224.5, 109495.31, -0.019786552, -0.5553181, -1030715.6, 217523.95, 0.0, 10.002199, 9.999026 
2.8456366e+3, 1.8262121e+2, -1007641.0, -1240948.1, 132417.36, -0.03659229, -0.5610531, -947822.44, 202434.58, 0.0, 10.002049, 9.998887 
2.845523e+3, 1.9261932e+2, -956738.6, -1161772.8, 145275.42, -0.035141733, -0.5709603, -881450.44, 170825.44, 0.0, 10.001713, 9.998919 
2.8454098e+3, 2.0261753e+2, -906664.0, -1101229.3, 137240.98, -0.027563741, -0.568455, -835723.56, 118570.26, 0.0, 10.001442, 9.998794 
2.8452963e+3, 2.1261592e+2, -824851.7, -1006990.56, 155954.75, -0.030216904, -0.54142857, -735323.44, 120987.14, 0.0, 10.001318, 9.998825 
2.8451827e+3, 2.2261427e+2, -748552.1, -909656.7, 163492.17, -0.035924993, -0.52311987, -646845.4, 111482.055, 0.0, 10.001125, 9.998914 
2.8450695e+3, 2.3261249e+2, -696789.94, -821859.44, 153280.72, -0.039110158, -0.53021234, -593778.4, 66566.555, 0.0, 10.000755, 9.999022 
2.844956e+3, 2.4261077e+2, -634659.9, -718273.7, 143772.56, -0.03419752, -0.5442774, -526739.2, 35622.44, 0.0, 10.000409, 9.999228 
2.844842e+3, 2.526091e+2, -558518.75, -612767.75, 138073.97, -0.022757906, -0.57504773, -444930.22, 19446.65, 0.0, 10.000179, 9.99939 
2.844728e+3, 2.6260772e+2, -508503.56, -554790.25, 123840.375, -0.023276143, -0.5765547, -405662.56, -39272.438, 0.0, 9.999924, 9.99924 
2.844613e+3, 2.7260697e+2, -435345.66, -460633.2, 96576.46, -0.0524184, -0.51057243, -350588.8, -82189.68, 0.0, 9.999712, 9.999318 
2.8444982e+3, 2.8260598e+2, -348923.03, -327545.6, 103495.88, -0.036393866, -0.48768234, -234187.95, -63778.406, 0.0, 9.999455, 9.999685 
2.8443837e+3, 2.9260427e+2, -284099.7, -223542.8, 83225.26, 0.061193507, -0.57086635, -165259.23, -92834.98, 0.0, 9.999131, 9.999883 
2.844268e+3, 3.0260313e+2, -238130.61, -164636.34, 50785.918, 0.034367416, -0.6012673, -138697.27, -138697.27, 0.0, 9.998837, 9.999755 
2.84415e+3, 3.1260306e+2, -187719.45, -87535.47, -6894.925, -0.09838433, -0.53188246, -87063.164, -87063.164, 0.0, 9.998717, 10.000012 
2.8440365e+3, 3.2260177e+2, -267125.1, -145607.89, 68341.055, 0.1451463, -0.5478592, -114921.93, -114921.93, 0.0, 9.998252, 9.999838 
2.8562137e+3, 1.3274696e+2, -1324630.6, -1627227.9, -33376.727, -0.033792, -0.5493724, -1320992.9, 318028.53, 0.0, 10.003129, 9.99909 
2.8560966e+3, 1.4274469e+2, -1295706.5, -1605963.8, 26791.172, -0.035003547, -0.6028684, -1293410.0, 247633.63, 0.0, 10.002835, 9.998708 
2.8559813e+3, 1.5274261e+2, -1246701.9, -1534791.0, 77443.03, -0.051739894, -0.60587823, -1227203.6, 215862.5, 0.0, 10.002522, 9.998669 
2.8558666e+3, 1.6274093e+2, -1148295.0, -1380299.6, 74327.84, -0.025418015, -0.59324497, -1126525.3, 218558.69, 0.0, 10.002285, 9.99917 
2.8557524e+3, 1.7274001e+2, -1050021.5, -1258272.4, 107224.1, 0.0013823479, -0.5517266, -1004684.2, 242407.9, 0.0, 10.002195, 9.999372 
2.8556383e+3, 1.8273868e+2, -1013201.1, -1249841.3, 121914.04, -0.0066367085, -0.5312885, -961631.0, 187473.73, 0.0, 10.002035, 9.998835 
2.8555238e+3, 1.9273646e+2, -971057.1, -1189611.5, 133315.8, -0.0469917, -0.55716527, -907955.06, 143172.88, 0.0, 10.001701, 9.998734 
2.8554103e+3, 2.0273452e+2, -888302.8, -1059328.3, 131515.11, -0.05957816, -0.5716512, -816944.06, 136203.84, 0.0, 10.001425, 9.99909 
2.855297e+3, 2.1273313e+2, -795995.6, -945833.44, 151695.4, -0.029471152, -0.56152004, -701727.25, 153433.31, 0.0, 10.001311, 9.9992485 
2.8551835e+3, 2.2273163e+2, -753401.44, -915714.94, 151074.89, -0.018239778, -0.5542361, -663064.6, 94110.414, 0.0, 10.001106, 9.998882 
2.8550696e+3, 2.3272975e+2, -709406.44, -848909.06, 138830.38, -0.0366965, -0.5558666, -623790.06, 35404.516, 0.0, 10.000756, 9.9988365 
2.8549555e+3, 2.4272808e+2, -622294.44, -696823.6, 133330.25, -0.047947593, -0.5575148, -521119.13, 40092.01, 0.0, 10.000424, 9.999369 
2.8548416e+3, 2.527269e+2, -543950.3, -582767.75, 128432.61, -0.04478299, -0.5609368, -433468.16, 29752.99, 0.0, 10.000177, 9.9995985 
2.854727e+3, 2.6272562e+2, -511398.75, -561732.3, 115427.22, -0.04051405, -0.56603014, -418426.6, -53193.43, 0.0, 9.999925, 9.999193 
2.8546122e+3, 2.7272403e+2, -443433.28, -479567.47, 89682.44, -0.031493206, -0.5717761, -370016.2, -102766.12, 0.0, 9.99972, 9.999186 
2.854497e+3, 2.827227e+2, -346888.9, -328591.47, 91704.31, 0.0022756543, -0.5712764, -245580.64, -76317.21, 0.0, 9.999475, 9.99967 
2.8543827e+3, 2.9272193e+2, -282384.25, -223544.17, 70885.04, 0.070772775, -0.56231874, -176216.39, -104946.61, 0.0, 9.999145, 9.999878 
2.8542662e+3, 3.0272093e+2, -261596.0, -222077.17, 43115.816, 0.021508688, -0.5580898, -194408.67, -194408.67, 0.0, 9.998875, 9.999344 
2.8541487e+3, 3.1271943e+2, -221042.08, -171212.89, -11116.646, -0.047667693, -0.5798584, -168845.31, -168845.31, 0.0, 9.998779, 9.99941 
2.854034e+3, 3.2271862e+2, -243470.27, -95914.86, 25872.377, 0.11906329, -0.521806, -91509.9, -91509.9, 0.0, 9.998247, 10.000183 
2.8662157e+3, 1.3286331e+2, -1410451.8, -1641091.6, -29076.752, -0.047722805, -0.58694154, -1406842.5, 231038.8, 0.0, 10.002415, 9.999343 
2.8660986e+3, 1.4286184e+2, -1338628.4, -1607058.1, 31069.201, -0.03539661, -0.5796396, -1335079.1, 204816.27, 0.0, 10.002456, 9.998883 
2.865983e+3, 1.528599e+2, -1270528.0, -1530485.3, 97062.73, -0.04539944, -0.58702487, -1238285.8, 203631.02, 0.0, 10.0022955, 9.998804 
2.8658685e+3, 1.6285817e+2, -1166644.0, -1379008.0, 103325.1, -0.019548109, -0.588435, -1124668.4, 219266.27, 0.0, 10.002119, 9.999256 
2.8657538e+3, 1.7285703e+2, -1090601.4, -1271734.4, 118393.54, -0.006944726, -0.5736734, -1032106.44, 213838.22, 0.0, 10.001892, 9.999425 
2.865639e+3, 1.8285571e+2, -1059564.8, -1260440.1, 121507.99, -0.018184496, -0.5592938, -1002357.5, 145599.7, 0.0, 10.001665, 9.998941 
2.865525e+3, 1.9285393e+2, -1006133.0, -1193547.5, 150232.89, -0.045374904, -0.55330837, -922778.2, 127198.336, 0.0, 10.001408, 9.998848 
2.8654107e+3, 2.028522e+2, -916011.0, -1059809.8, 160771.83, -0.05375587, -0.55395216, -811793.6, 140200.63, 0.0, 10.001184, 9.9992 
2.8652975e+3, 2.1285069e+2, -833587.2, -953724.2, 158431.17, -0.03325677, -0.5667259, -724219.4, 129788.53, 0.0, 10.001013, 9.999336 
2.865184e+3, 2.2284916e+2, -776936.0, -908720.56, 146810.25, -0.023120409, -0.5733569, -681908.94, 74113.41, 0.0, 10.000868, 9.999043 
2.8650695e+3, 2.3284748e+2, -697847.56, -825321.5, 157722.67, -0.041773092, -0.5710436, -591470.3, 66569.28, 0.0, 10.000761, 9.998995 
2.8649554e+3, 2.42846e+2, -595193.44, -679289.25, 163954.03, -0.051004816, -0.565984, -467981.34, 92073.164, 0.0, 10.000597, 9.999404 
2.864841e+3, 2.528449e+2, -523667.44, -575164.44, 139588.77, -0.039327726, -0.5601243, -407472.25, 54591.867, 0.0, 10.000331, 9.999575 
2.8647265e+3, 2.6284358e+2, -478817.4, -538436.75, 124112.02, -0.027161675, -0.567104, -380985.38, -16909.088, 0.0, 10.000116, 9.99926 
2.8646114e+3, 2.7284175e+2, -384766.56, -443577.56, 114241.64, -0.017915078, -0.6005183, -296206.7, -30112.121, 0.0, 10.000092, 9.999252 
2.8644964e+3, 2.8284037e+2, -301837.22, -321481.2, 111401.29, 0.012883661, -0.6073463, -199825.75, -31717.08, 0.0, 9.999857, 9.999531 
2.8643808e+3, 2.9283977e+2, -266972.2, -238508.63, 75605.01, 0.0550922, -0.5612916, -175807.58, -105693.49, 0.0, 9.9993515, 9.999673 
2.8642642e+3, 3.0283874e+2, -230156.36, -211609.53, 62721.64, 0.010803945, -0.54603773, -157479.47, -157479.47, 0.0, 9.999112, 9.999303 
2.8641477e+3, 3.128367e+2, -131474.3, -136029.67, 57946.055, 0.008931156, -0.61395705, -75761.18, -75761.18, 0.0, 9.999434, 9.999334 
2.8640315e+3, 3.22836e+2, -118989.34, -33341.406, 53710.184, 0.08532975, -0.5428402, -7472.756, -7472.756, 0.0, 9.999101, 10.000196 
2.8762168e+3, 1.3297933e+2, -1398400.5, -1604565.9, -23706.475, -0.09568832, -0.66460806, -1395709.6, 241034.5, 0.0, 10.00237, 9.999612 
2.8761005e+3, 1.4297917e+2, -1319268.4, -1559493.4, 28615.197, -0.016859792, -0.5582659, -1315906.9, 222839.08, 0.0, 10.002424, 9.999225 
2.875985e+3, 1.5297776e+2, -1249129.9, -1481725.3, 90853.5, -0.020564787, -0.5450958, -1217848.8, 222912.25, 0.0, 10.002274, 9.99915 
2.87587e+3, 1.6297612e+2, -1174388.1, -1390993.0, 95127.055, -0.005994143, -0.5569927, -1138542.8, 204234.84, 0.0, 10.0021, 9.999184 
2.8757545e+3, 1.7297408e+2, -1106329.4, -1301627.0, 110663.94, -0.036467243, -0.61448216, -1056391.6, 188405.3, 0.0, 10.001878, 9.999228 
2.8756398e+3, 1.8297246e+2, -1044459.6, -1225611.4, 112544.03, -0.059571747, -0.628191, -990570.5, 156242.08, 0.0, 10.00165, 9.999188 
2.875526e+3, 1.9297168e+2, -979450.6, -1140145.0, 140419.73, -0.032920048, -0.5570043, -898015.94, 150805.78, 0.0, 10.001415, 9.999211 
2.8754118e+3, 2.0297052e+2, -922048.94, -1073175.3, 153271.4, -0.02048348, -0.5210128, -826726.44, 124107.63, 0.0, 10.001186, 9.999108 
2.875298e+3, 2.1296856e+2, -848195.6, -986247.9, 152498.78, -0.044657607, -0.5584732, -749828.56, 103024.375, 0.0, 10.001019, 9.999112 
2.8751838e+3, 2.2296686e+2, -752840.2, -856960.1, 142427.31, -0.05954107, -0.5824586, -653256.56, 101612.52, 0.0, 10.000859, 9.999404 
2.8750697e+3, 2.3296568e+2, -663206.75, -753269.56, 153864.7, -0.053048536, -0.5775184, -547919.2, 108960.83, 0.0, 10.00076, 9.999491 
2.8749555e+3, 2.4296443e+2, -602696.06, -695328.2, 155303.98, -0.038777202, -0.5735057, -486948.88, 71943.08, 0.0, 10.000597, 9.999294 
2.874841e+3, 2.52963e+2, -544442.25, -620568.6, 128695.42, -0.0063693537, -0.5734808, -448299.2, 12606.889, 0.0, 10.000338, 9.999261 
2.8747264e+3, 2.6296163e+2, -461461.97, -507979.5, 120552.27, 0.0051937257, -0.57604337, -361945.25, 974.2157, 0.0, 10.000137, 9.99946 
2.8746107e+3, 2.7296034e+2, -361763.22, -398528.8, 112408.18, -0.017120741, -0.5888503, -266244.63, -1312.82, 0.0, 10.000102, 9.999557 
2.874495e+3, 2.82959e+2, -318920.28, -363499.2, 93441.92, -0.016725367, -0.59166735, -245146.14, -78201.65, 0.0, 9.999881, 9.999231 
2.8743792e+3, 2.929577e+2, -298517.84, -306808.9, 58176.957, 0.0046424144, -0.5733332, -244338.9, -175380.98, 0.0, 9.99936, 9.999202 
2.8742626e+3, 3.029565e+2, -195277.58, -140028.08, 67110.02, 0.00002232583, -0.56851214, -95079.55, -95079.55, 0.0, 9.999118, 9.999792 
2.8741473e+3, 3.1295535e+2, -82900.92, -39350.043, 79441.0, 0.0865184, -0.61161244, 21245.889, 21245.889, 0.0, 9.99946, 9.999984 
2.8740296e+3, 3.2295436e+2, -156532.05, -116615.41, 569.466, 0.046207704, -0.5915789, -116607.28, -116607.28, 0.0, 9.999117, 9.99962 
2.8862184e+3, 1.3309684e+2, -1484715.8, -1642105.3, 10151.495, -0.07225021, -0.6306733, -1484063.6, 151529.2, 0.0, 10.001753, 9.999655 
2.886102e+3, 1.4309616e+2, -1370372.8, -1555062.9, 39657.473, -0.037439037, -0.58857703, -1362217.4, 175382.1, 0.0, 10.001947, 9.999484 
2.885986e+3, 1.5309513e+2, -1299444.9, -1474194.6, 93641.27, -0.041793272, -0.5675706, -1258745.4, 180864.64, 0.0, 10.001793, 9.999433 
2.885871e+3, 1.6309379e+2, -1236576.0, -1416531.5, 97809.42, -0.021496857, -0.5663106, -1193652.8, 147970.5, 0.0, 10.001654, 9.999224 
2.8857556e+3, 1.730919e+2, -1159695.4, -1330630.8, 122905.13, -0.03671867, -0.6048405, -1095462.0, 148179.73, 0.0, 10.001526, 9.999197 
2.885641e+3, 1.8309031e+2, -1070632.3, -1228425.8, 129029.195, -0.05404665, -0.61644125, -998290.0, 147367.58, 0.0, 10.00143, 9.999272 
2.8855267e+3, 1.9308938e+2, -975009.3, -1124617.6, 139649.3, -0.0365273, -0.57025796, -891391.25, 156276.34, 0.0, 10.0013895, 9.999329 
2.8854123e+3, 2.0308825e+2, -895844.4, -1045321.75, 147287.02, -0.024317736, -0.5444563, -805418.44, 144260.78, 0.0, 10.0013, 9.999246 
2.885298e+3, 2.1308656e+2, -829228.8, -961631.44, 169543.31, -0.045466926, -0.5687017, -713420.4, 138275.13, 0.0, 10.001083, 9.999249 
2.8851837e+3, 2.2308505e+2, -745314.1, -843139.25, 168257.81, -0.058959715, -0.58399415, -619003.56, 134706.31, 0.0, 10.00087, 9.999494 
2.8850698e+3, 2.3308392e+2, -672551.7, -748062.8, 148649.78, -0.0474355, -0.581807, -556937.6, 98783.02, 0.0, 10.000657, 9.999576 
2.8849554e+3, 2.4308276e+2, -610482.75, -682527.1, 139607.72, -0.029096011, -0.5816488, -502324.8, 55407.094, 0.0, 10.000474, 9.999441 
2.884841e+3, 2.530814e+2, -530920.5, -599259.2, 143756.06, -0.009062272, -0.5872971, -417328.75, 42416.223, 0.0, 10.000371, 9.999389 
2.884726e+3, 2.6308018e+2, -440800.47, -488726.66, 155628.97, 0.0005270562, -0.58564633, -307300.53, 54456.5, 0.0, 10.000251, 9.999532 
2.8846103e+3, 2.730791e+2, -361052.06, -396396.7, 122616.25, -0.0122229615, -0.578197, -254841.13, 8926.388, 0.0, 10.000107, 9.999563 
2.8844944e+3, 2.8307784e+2, -315829.97, -357253.75, 92346.0, -0.013904049, -0.5772233, -241901.67, -76121.75, 0.0, 9.999886, 9.999269 
2.8843778e+3, 2.9307625e+2, -215588.31, -281442.53, 102356.76, -0.015976341, -0.58246267, -140992.86, -73197.03, 0.0, 10.000001, 9.999063 
2.8842613e+3, 3.0307487e+2, -85081.63, -96393.75, 101727.805, -0.0070877476, -0.5818225, 11147.229, 11147.229, 0.0, 9.999924, 9.9997015 
2.8841466e+3, 3.1307378e+2, -164471.89, -108603.16, 42794.66, 0.15379106, -0.59903973, -85432.61, -85432.61, 0.0, 9.99904, 9.999718 
2.8840283e+3, 3.2307214e+2, -9666.624, -61041.418, -31671.389, 0.012213157, -0.6134556, 5424.8853, 5424.8853, 0.0, 10.000183, 9.999506 
2.89622e+3, 1.3321523e+2, -1491918.3, -1656315.1, 23311.55, -0.014140114, -0.5367293, -1488676.5, 145756.55, 0.0, 10.001758, 9.999551 
2.8961027e+3, 1.43213e+2, -1360488.4, -1529874.4, 38752.992, -0.085812226, -0.6511093, -1352043.3, 184410.98, 0.0, 10.001928, 9.999665 
2.8959864e+3, 1.5321219e+2, -1285723.1, -1443623.8, 87163.25, -0.092650935, -0.63012457, -1247070.0, 191391.52, 0.0, 10.001781, 9.999649 
2.8958717e+3, 1.6321133e+2, -1229383.5, -1399638.8, 92206.66, -0.054936662, -0.59951013, -1189016.9, 151452.9, 0.0, 10.001644, 9.999345 
2.895757e+3, 1.7321034e+2, -1150900.4, -1315189.1, 117109.22, -0.017202944, -0.55905825, -1089998.4, 152482.55, 0.0, 10.001537, 9.999299 
2.895642e+3, 1.8320902e+2, -1074249.5, -1238217.8, 126427.39, -0.019443143, -0.5485275, -1005550.94, 138943.9, 0.0, 10.001438, 9.999202 
2.8955272e+3, 1.9320707e+2, -982395.2, -1140007.6, 138791.8, -0.055962473, -0.5935837, -901596.94, 144917.13, 0.0, 10.001387, 9.999226 
2.8954127e+3, 2.0320556e+2, -874410.0, -995982.5, 140706.02, -0.06316693, -0.61498445, -781921.5, 166607.23, 0.0, 10.001279, 9.999595 
2.8952986e+3, 2.1320473e+2, -797694.0, -894966.94, 161143.08, -0.035146996, -0.5952039, -678007.56, 172527.95, 0.0, 10.001078, 9.999711 
2.8951845e+3, 2.232037e+2, -760849.94, -873240.3, 159578.27, -0.024168255, -0.5821275, -647861.44, 104683.99, 0.0, 10.000859, 9.999292 
2.8950697e+3, 2.3320222e+2, -696044.56, -796883.7, 140712.2, -0.029897457, -0.58261687, -596991.5, 57570.008, 0.0, 10.000654, 9.999242 
2.894955e+3, 2.4320099e+2, -580017.1, -620410.5, 133836.33, -0.036939375, -0.587676, -464862.16, 91712.016, 0.0, 10.000477, 9.9998665 
2.89484e+3, 2.532001e+2, -489611.47, -513237.0, 139791.08, -0.050739005, -0.602585, -361134.94, 97445.79, 0.0, 10.00037, 9.999981 
2.894725e+3, 2.6319915e+2, -446843.8, -505065.7, 152256.72, -0.045699928, -0.6008042, -320940.06, 39649.29, 0.0, 10.000265, 9.999413 
2.89461e+3, 2.7319807e+2, -386397.84, -450299.6, 112360.26, -0.0025574064, -0.56865555, -301533.97, -38931.723, 0.0, 10.000109, 9.999193 
2.894494e+3, 2.831968e+2, -281136.9, -290510.0, 84265.44, 0.024025068, -0.5616872, -201427.8, -36812.69, 0.0, 9.999903, 9.999721 
2.894377e+3, 2.9319543e+2, -192276.38, -234762.44, 121430.97, -0.0010841597, -0.5902862, -90244.31, -23617.172, 0.0, 10.000019, 9.999368 
2.8942606e+3, 3.0319384e+2, -144352.38, -219234.19, 73986.266, -0.020087011, -0.5982624, -98872.91, -98872.91, 0.0, 9.999928, 9.998852 
2.894145e+3, 3.1319135e+2, -288156.28, -335204.7, -3100.5889, 0.19402319, -0.6293196, -287952.84, -287952.84, 0.0, 9.998918, 9.99822 
2.8940275e+3, 3.2318845e+2, 44490.797, 29096.156, 166176.31, -0.005801946, -0.67350495, 203147.97, 203147.97, 0.0, 10.000283, 10.000079 
2.906221e+3, 1.333326e+2, -1509841.4, -1651947.1, 32225.525, -0.024789615, -0.5515981, -1502875.0, 130407.6, 0.0, 10.001571, 9.999675 
2.9061037e+3, 1.4333078e+2, -1411459.6, -1544344.4, 45274.84, -0.08285341, -0.63437337, -1397500.5, 137799.08, 0.0, 10.001533, 9.999759 
2.9059878e+3, 1.5332991e+2, -1335514.1, -1459541.0, 81742.6, -0.081547976, -0.6282996, -1294923.9, 142383.63, 0.0, 10.001405, 9.999721 
2.9058725e+3, 1.6332899e+2, -1266846.5, -1409556.3, 85841.24, -0.045315277, -0.6098225, -1226575.9, 112740.41, 0.0, 10.001351, 9.999417 
2.9057574e+3, 1.7332806e+2, -1156130.4, -1307653.9, 109388.18, -0.025140503, -0.57140785, -1098829.6, 142497.17, 0.0, 10.001457, 9.999389 
2.9056427e+3, 1.8332686e+2, -1066233.0, -1222032.8, 118116.72, -0.030668411, -0.558379, -1002641.06, 140698.56, 0.0, 10.001438, 9.999314 
2.9055277e+3, 1.933251e+2, -1004599.0, -1138007.1, 142444.06, -0.052522615, -0.59724563, -914014.3, 131342.61, 0.0, 10.001178, 9.999341 
2.9054132e+3, 2.033237e+2, -912315.0, -1000354.7, 146662.88, -0.054392777, -0.6175784, -803208.3, 144161.97, 0.0, 10.000956, 9.999721 
2.905299e+3, 2.1332298e+2, -827153.6, -892742.56, 144591.7, -0.031651292, -0.60176885, -711684.0, 137692.25, 0.0, 10.000804, 9.999859 
2.9051846e+3, 2.2332208e+2, -776792.9, -865451.4, 142068.02, -0.021969106, -0.58980846, -672298.7, 79086.13, 0.0, 10.000681, 9.999433 
2.90507e+3, 2.3332077e+2, -693452.06, -777375.9, 157704.88, -0.034446508, -0.58973294, -572222.0, 81177.4, 0.0, 10.000593, 9.999406 
2.9049549e+3, 2.433197e+2, -569971.56, -600994.4, 164904.98, -0.042567816, -0.5913531, -419850.06, 135560.27, 0.0, 10.000486, 9.999994 
2.9048398e+3, 2.5331903e+2, -473871.75, -484771.63, 137096.03, -0.050842706, -0.60147744, -342117.38, 115297.76, 0.0, 10.00039, 10.000166 
2.9047245e+3, 2.6331824e+2, -447082.7, -481816.16, 138736.39, -0.045666903, -0.60067636, -324630.28, 34791.66, 0.0, 10.000165, 9.999619 
2.904609e+3, 2.7331728e+2, -410613.1, -428571.34, 137029.33, -0.009051808, -0.57946825, -282269.0, -20835.72, 0.0, 9.999802, 9.999486 
2.9044932e+3, 2.8331634e+2, -297838.9, -257560.97, 144380.55, 0.03389054, -0.57391566, -131921.61, 31521.662, 0.0, 9.999628, 10.000071 
2.904376e+3, 2.933156e+2, -326809.6, -220114.78, 148761.48, 0.015371853, -0.58989716, -115424.46, -49975.055, 0.0, 9.998761, 10.000072 
2.9162213e+3, 1.3344944e+2, -1489318.8, -1609580.3, 30369.229, -0.07691139, -0.62343544, -1482084.9, 150052.05, 0.0, 10.001577, 9.999959 
2.916105e+3, 1.434492e+2, -1411813.5, -1541254.5, 41720.36, -0.04801395, -0.5656996, -1399531.9, 134606.48, 0.0, 10.001517, 9.999786 
2.9159892e+3, 1.5344803e+2, -1337151.9, -1464859.9, 74888.92, -0.031125717, -0.5859329, -1302590.0, 133559.81, 0.0, 10.001411, 9.999683 
2.9158735e+3, 1.6344671e+2, -1264087.5, -1403886.8, 88068.43, -0.01090355, -0.6068494, -1221550.5, 116612.44, 0.0, 10.00135, 9.999457 
2.9157582e+3, 1.7344528e+2, -1153930.4, -1298300.1, 113998.81, -0.055176005, -0.62709594, -1091184.1, 148993.58, 0.0, 10.001434, 9.999465 
2.915643e+3, 1.8344413e+2, -1053956.5, -1188456.9, 110949.69, -0.07727443, -0.62377, -991466.9, 150722.72, 0.0, 10.001403, 9.999562 
2.9155284e+3, 1.9344343e+2, -985571.4, -1096733.0, 131996.72, -0.030274462, -0.5833601, -897930.8, 146265.81, 0.0, 10.001169, 9.999629 
2.915414e+3, 2.0344254e+2, -918964.06, -1013143.0, 139654.02, -0.008728523, -0.566445, -818674.2, 127531.305, 0.0, 10.00095, 9.999636 
2.915299e+3, 2.1344128e+2, -836741.8, -912821.1, 138688.6, -0.038720753, -0.59079206, -730970.7, 117247.086, 0.0, 10.000802, 9.999722 
2.9151842e+3, 2.2344024e+2, -744465.5, -795896.06, 138203.63, -0.058953736, -0.6053022, -629605.06, 120622.586, 0.0, 10.0006695, 9.999917 
2.9150695e+3, 2.3343956e+2, -647793.3, -682943.75, 154052.77, -0.05899851, -0.6037868, -510316.47, 141917.66, 0.0, 10.000594, 10.000055 
2.9149547e+3, 2.4343885e+2, -583573.3, -631528.6, 160746.8, -0.046068825, -0.5959911, -445025.72, 109215.09, 0.0, 10.000496, 9.99978 
2.91484e+3, 2.5343812e+2, -492993.38, -523493.8, 132619.66, -0.009984876, -0.5809278, -374749.97, 81498.26, 0.0, 10.000387, 9.9999 
2.9147243e+3, 2.6343745e+2, -404657.38, -400013.38, 123444.46, -0.0068554585, -0.5824789, -278869.06, 79385.93, 0.0, 10.000186, 10.000174 
2.9146078e+3, 2.7343675e+2, -340571.47, -286514.4, 122238.12, -0.041169316, -0.6151524, -188352.28, 71908.7, 0.0, 9.999809, 10.0004635 
2.9144916e+3, 2.834363e+2, -296259.66, -249924.69, 146840.2, -0.011498675, -0.61941373, -124435.59, 37829.54, 0.0, 9.999619, 10.000127 
2.9143745e+3, 2.9343653e+2, -265890.66, -90662.01, 70360.25, 0.038133703, -0.57541466, -65907.14, -1643.6681, 0.0, 9.998755, 10.000965 
2.926222e+3, 1.3356684e+2, -1499523.8, -1605512.6, 14691.011, -0.08114145, -0.6296532, -1497525.1, 133459.83, 0.0, 10.001468, 10.000039 
2.926106e+3, 1.435666e+2, -1459234.4, -1566999.0, 27768.95, -0.019681998, -0.57839257, -1452499.8, 80487.35, 0.0, 10.001201, 9.9997635 
2.9259896e+3, 1.5356544e+2, -1366359.6, -1483764.1, 58646.5, -0.03977042, -0.59359986, -1342083.8, 92915.336, 0.0, 10.00123, 9.999641 
2.9258737e+3, 1.6356426e+2, -1280402.4, -1392430.9, 75166.86, -0.032992665, -0.6060541, -1242674.1, 94337.01, 0.0, 10.001151, 9.999635 
2.9257587e+3, 1.7356315e+2, -1210873.0, -1300804.5, 108074.73, -0.06019609, -0.61467916, -1138782.9, 100239.5, 0.0, 10.000932, 9.999692 
2.9256433e+3, 1.8356219e+2, -1131747.9, -1213571.0, 107788.305, -0.077269375, -0.610634, -1057368.1, 83664.016, 0.0, 10.000808, 9.999679 
2.925529e+3, 1.9356146e+2, -1017821.94, -1099276.3, 117739.086, -0.03908951, -0.5845629, -933965.0, 109074.68, 0.0, 10.000888, 9.999748 
2.925414e+3, 2.0356065e+2, -923691.1, -1009678.5, 122019.66, -0.015950752, -0.5703058, -837312.25, 107735.79, 0.0, 10.00089, 9.99969 
2.9252994e+3, 2.1355957e+2, -843942.0, -911817.94, 131814.78, -0.037939053, -0.58122987, -741766.3, 105292.76, 0.0, 10.0007305, 9.999764 
2.9251844e+3, 2.235587e+2, -748474.5, -780013.8, 130888.59, -0.054108284, -0.588087, -632409.0, 116658.46, 0.0, 10.000562, 10.000078 
2.9250693e+3, 2.3355818e+2, -664633.5, -664785.44, 115077.91, -0.05465439, -0.5903866, -549631.56, 101440.11, 0.0, 10.000361, 10.000294 
2.9249546e+3, 2.4355759e+2, -622692.06, -645768.94, 115326.63, -0.041026317, -0.58986825, -518328.1, 34749.016, 0.0, 10.000201, 9.999827 
2.9248396e+3, 2.5355682e+2, -524005.53, -528460.94, 113812.945, -0.0040457523, -0.58714855, -412398.47, 42686.945, 0.0, 10.000123, 9.999996 
2.924724e+3, 2.6355627e+2, -417217.38, -375029.13, 107722.79, 0.0016999989, -0.59114206, -286354.6, 70736.05, 0.0, 9.999955, 10.000463 
2.9246068e+3, 2.7355608e+2, -318573.1, -222033.8, 69908.805, -0.038763396, -0.6147224, -185349.34, 73741.78, 0.0, 9.999718, 10.000955 
2.9244906e+3, 2.83556e+2, -296199.25, -227344.53, 92968.65, -0.008922491, -0.62568957, -162633.53, -1542.1302, 0.0, 9.999498, 10.000358 
2.9243731e+3, 2.9355615e+2, -75014.195, 14131.46, -28753.617, 0.038169947, -0.6059869, 22601.139, 85691.63, 0.0, 9.999978, 10.001121 
2.9362231e+3, 1.3368455e+2, -1506625.9, -1614010.5, -3939.9922, -0.058694568, -0.60323274, -1506481.5, 123348.734, 0.0, 10.001447, 9.999989 
2.9361066e+3, 1.4368328e+2, -1463606.8, -1574322.5, 29665.156, 0.0008053674, -0.64578444, -1456159.3, 75683.195, 0.0, 10.001196, 9.999715 
2.9359895e+3, 1.5368234e+2, -1368965.9, -1490427.4, 60540.848, -0.090871565, -0.6358977, -1343944.6, 89908.62, 0.0, 10.001234, 9.999594 
2.935874e+3, 1.6368167e+2, -1262230.4, -1353958.8, 70154.25, -0.09491009, -0.60623115, -1224278.4, 111582.32, 0.0, 10.001147, 9.9999 
2.9357588e+3, 1.736815e+2, -1188476.9, -1253523.8, 99457.695, -0.046169594, -0.5521045, -1116360.0, 121502.67, 0.0, 10.000928, 10.000019 
2.9356438e+3, 1.8368082e+2, -1131668.5, -1212250.1, 108395.234, -0.04367575, -0.53951937, -1056318.3, 83551.49, 0.0, 10.000802, 9.999691 
2.9355285e+3, 1.9367921e+2, -1018829.9, -1101134.6, 120999.28, -0.07744154, -0.60002124, -932176.4, 109709.414, 0.0, 10.000885, 9.999738 
2.9354137e+3, 2.0367815e+2, -912646.2, -983965.6, 117437.54, -0.07379881, -0.62023896, -825573.7, 118323.03, 0.0, 10.000877, 9.999873 
2.9352993e+3, 2.1367784e+2, -829122.3, -881087.44, 125315.61, -0.027760362, -0.5728635, -727124.06, 118776.06, 0.0, 10.00073, 9.999976 
2.9351845e+3, 2.2367738e+2, -759629.06, -802183.25, 123861.59, -0.010286038, -0.54366726, -655230.4, 92674.42, 0.0, 10.000557, 9.999928 
2.9350692e+3, 2.3367667e+2, -678160.8, -690211.56, 106654.21, -0.026558038, -0.54807854, -577361.94, 72549.97, 0.0, 10.00035, 10.000124 
2.9349542e+3, 2.4367589e+2, -598342.25, -596813.5, 111439.02, -0.035006195, -0.5708304, -486136.22, 65782.945, 0.0, 10.000205, 10.000164 
2.9348385e+3, 2.53675e+2, -487843.16, -457728.47, 110303.74, -0.036513727, -0.62208945, -361459.1, 92467.734, 0.0, 10.000137, 10.00048 
2.934723e+3, 2.6367474e+2, -412119.34, -370551.78, 99030.76, -0.031176405, -0.62661326, -290147.34, 65781.51, 0.0, 9.999982, 10.00048 
2.9346064e+3, 2.7367532e+2, -320626.16, -229387.47, 59192.79, 0.0014977511, -0.5685617, -200274.55, 57648.734, 0.0, 9.999733, 10.000894 
2.9344898e+3, 2.836753e+2, -248512.6, -156284.27, 85173.7, 0.033124447, -0.58610445, -105542.48, 54380.543, 0.0, 9.999604, 10.000801 
2.9343718e+3, 2.936748e+2, -72020.445, 6431.4614, 6858.847, -0.01811227, -0.6474385, 7026.5977, 68952.984, 0.0, 10.000036, 10.0010395 
2.9462233e+3, 1.3380173e+2, -1550398.1, -1650168.3, -30369.783, -0.09576033, -0.6150307, -1541880.8, 86799.92, 0.0, 10.001201, 9.9998665 
2.9461068e+3, 1.4380041e+2, -1479795.1, -1565254.6, 26749.674, 0.00016921209, -0.66309327, -1472112.8, 58581.46, 0.0, 10.00101, 9.999867 
2.9459903e+3, 1.537997e+2, -1380089.1, -1478130.8, 66345.4, -0.06915803, -0.6477083, -1346619.0, 86083.43, 0.0, 10.001079, 9.999756 
2.9458743e+3, 1.637991e+2, -1280498.1, -1356965.6, 69666.12, -0.073222674, -0.6199783, -1239263.8, 95445.336, 0.0, 10.000994, 9.999956 
2.945759e+3, 1.7379896e+2, -1206249.1, -1252022.4, 82557.28, -0.04195047, -0.5719121, -1143464.9, 93246.02, 0.0, 10.000757, 10.000114 
2.9456437e+3, 1.8379837e+2, -1157849.6, -1213715.5, 97222.18, -0.04518434, -0.5607217, -1084627.3, 54089.965, 0.0, 10.00057, 9.999795 
2.9455286e+3, 1.9379695e+2, -1050367.8, -1107040.6, 118615.93, -0.0757766, -0.61202294, -956750.5, 83980.85, 0.0, 10.000621, 9.999829 
2.945414e+3, 2.0379598e+2, -933423.94, -986410.9, 111744.414, -0.073051915, -0.6286625, -845075.25, 97665.8, 0.0, 10.000691, 9.999951 
2.9452994e+3, 2.1379569e+2, -829702.6, -874010.9, 107897.56, -0.029409433, -0.5892687, -741708.25, 103036.03, 0.0, 10.000685, 10.0000515 
2.9451847e+3, 2.2379528e+2, -741172.2, -797948.7, 105407.41, -0.009313536, -0.560506, -660397.2, 86351.625, 0.0, 10.000693, 9.999898 
2.9450694e+3, 2.3379461e+2, -634676.3, -673393.7, 96774.72, -0.022623064, -0.5548244, -555343.0, 93412.75, 0.0, 10.000655, 10.000097 
2.9449537e+3, 2.4379393e+2, -547883.2, -554179.9, 103565.35, -0.027944395, -0.5741119, -447418.34, 103343.914, 0.0, 10.000464, 10.000335 
2.944838e+3, 2.537932e+2, -464057.56, -422250.47, 84394.125, -0.030689081, -0.63007295, -356209.63, 96558.05, 0.0, 10.000189, 10.000703 
2.9447222e+3, 2.6379314e+2, -410870.94, -374905.7, 60556.934, -0.027566856, -0.6288242, -329717.78, 25050.174, 0.0, 10.000007, 10.0004425 
2.9446056e+3, 2.7379382e+2, -287797.7, -234901.77, 19008.67, 0.006315581, -0.54860574, -228779.42, 27982.99, 0.0, 10.000035, 10.000721 
2.944489e+3, 2.837935e+2, -201067.3, -132048.48, 27117.26, 0.034781743, -0.5842637, -122668.88, 36096.547, 0.0, 9.999919, 10.000813 
2.944371e+3, 2.9379338e+2, -92377.71, 8533.697, -46327.54, -0.0062104934, -0.6108578, 26576.305, 87340.98, 0.0, 9.999831, 10.001145 
2.9562232e+3, 1.3391864e+2, -1570372.4, -1673202.4, -44196.773, -0.1741147, -0.6400421, -1553987.3, 73546.875, 0.0, 10.001128, 9.999741 
2.9561073e+3, 1.4391789e+2, -1459706.0, -1523592.6, 34440.46, -0.014121131, -0.63890785, -1444675.6, 84867.41, 0.0, 10.001013, 10.000151 
2.9559913e+3, 1.5391739e+2, -1365163.9, -1438381.6, 66881.81, 0.003022753, -0.6311731, -1325527.1, 106020.86, 0.0, 10.00104, 10.000048 
2.9558754e+3, 1.6391657e+2, -1295112.3, -1375340.1, 61043.582, 0.003739032, -0.637644, -1262182.1, 71374.336, 0.0, 10.000941, 9.999856 
2.9557592e+3, 1.7391571e+2, -1209381.6, -1259713.5, 71833.32, -0.05121435, -0.6539905, -1158433.5, 77132.1, 0.0, 10.000761, 10.000061 
2.9556432e+3, 1.8391505e+2, -1143143.4, -1188176.4, 94032.445, -0.077828966, -0.65395707, -1068969.1, 68603.41, 0.0, 10.000591, 9.999961 
2.955529e+3, 1.9391467e+2, -1038387.9, -1081911.9, 120336.39, -0.039294884, -0.61873055, -937861.56, 101714.84, 0.0, 10.00062, 10.000002 
2.9554147e+3, 2.0391417e+2, -936795.56, -989995.44, 111436.7, -0.021887954, -0.5992495, -848828.06, 92753.414, 0.0, 10.000676, 9.999934 
2.9552993e+3, 2.1391316e+2, -833947.7, -882476.44, 105963.08, -0.04650339, -0.6251311, -749506.3, 94084.96, 0.0, 10.000681, 9.999996 
2.955184e+3, 2.2391239e+2, -736483.06, -785066.56, 104664.42, -0.056959, -0.6324905, -653328.4, 92270.75, 0.0, 10.000679, 9.999993 
2.955069e+3, 2.3391205e+2, -626720.2, -655129.7, 93516.22, -0.04183497, -0.6090142, -546336.06, 101267.125, 0.0, 10.000647, 10.000227 
2.9549536e+3, 2.4391174e+2, -544046.75, -548908.9, 92045.9, -0.019965151, -0.59860146, -454399.84, 95206.336, 0.0, 10.000474, 10.000368 
2.9548383e+3, 2.5391153e+2, -464390.25, -423539.63, 73626.24, 0.013790713, -0.6068912, -367558.03, 84049.41, 0.0, 10.000189, 10.000695 
2.954722e+3, 2.639115e+2, -414240.1, -385290.53, 58473.895, 0.0092466585, -0.5932131, -339526.5, 14080.987, 0.0, 10.000019, 10.000366 
2.9546046e+3, 2.7391157e+2, -299352.63, -265056.97, 27613.158, -0.037576012, -0.56062, -249700.42, 5908.0566, 0.0, 10.000063, 10.0005 
2.9544875e+3, 2.839107e+2, -224509.34, -194969.08, 12272.417, -0.02951385, -0.6211428, -190535.84, -32918.12, 0.0, 9.99997, 10.0003605 
2.954371e+3, 2.9391083e+2, -87187.695, 16685.848, -42162.64, 0.054311845, -0.58147, 31645.389, 91260.984, 0.0, 9.99984, 10.0012 
2.9662243e+3, 1.340357e+2, -1603979.0, -1669248.6, -26886.865, -0.09668195, -0.67940885, -1594329.9, 32056.44, 0.0, 10.000812, 9.999919 
2.966107e+3, 1.4403556e+2, -1460034.9, -1533773.1, 45762.52, -0.061691247, -0.62209177, -1438137.1, 90252.41, 0.0, 10.001049, 10.000068 
2.9659906e+3, 1.5403497e+2, -1437734.6, -1484140.9, 42439.04, -0.064110056, -0.6140657, -1412569.9, 17825.34, 0.0, 10.000584, 9.999957 
2.965875e+3, 1.6403413e+2, -1391177.8, -1430348.3, 44413.477, -0.044364594, -0.6163835, -1362222.9, -29819.385, 0.0, 10.000314, 9.999784 
2.9657587e+3, 1.7403305e+2, -1230477.6, -1289068.8, 53721.043, -0.07973355, -0.64042455, -1198583.5, 35831.31, 0.0, 10.000691, 9.999897 
2.9656434e+3, 1.8403235e+2, -1107122.0, -1168000.4, 57981.86, -0.09765675, -0.6376492, -1072075.0, 64347.145, 0.0, 10.000815, 9.999997 
2.9655287e+3, 1.9403212e+2, -1034012.75, -1069677.8, 78695.64, -0.050355494, -0.5977127, -971154.44, 67269.625, 0.0, 10.000599, 10.000099 
2.9654142e+3, 2.0403153e+2, -957922.4, -1004834.94, 70828.25, -0.027369993, -0.5904924, -906767.4, 33662.46, 0.0, 10.0005455, 9.999898 
2.9652992e+3, 2.1403039e+2, -838325.75, -882996.56, 67817.26, -0.05911369, -0.63192993, -789260.5, 53180.63, 0.0, 10.000639, 10.000016 
2.9651842e+3, 2.240296e+2, -736842.0, -773978.2, 67205.6, -0.06920183, -0.6464233, -685686.56, 58762.52, 0.0, 10.000622, 10.000101 
2.9650688e+3, 2.3402932e+2, -656866.9, -661112.75, 50970.363, -0.04222142, -0.62730604, -607975.25, 38477.21, 0.0, 10.000391, 10.000316 
2.9649535e+3, 2.4402916e+2, -565491.9, -548636.94, 53110.355, -0.016319605, -0.61561495, -503289.56, 45164.77, 0.0, 10.000267, 10.000479 
2.9648376e+3, 2.540291e+2, -425927.88, -407362.84, 39333.563, 0.00672033, -0.61113536, -376231.3, 74222.92, 0.0, 10.000447, 10.000691 
2.9647213e+3, 2.6402915e+2, -351782.88, -352307.88, 24990.752, 0.0053533376, -0.59542036, -327053.25, 25400.852, 0.0, 10.000423, 10.000406 
2.964604e+3, 2.7402908e+2, -299731.63, -272543.44, 10524.473, -0.031091567, -0.5755122, -268945.56, -14489.538, 0.0, 10.00009, 10.000439 
2.964487e+3, 2.8402814e+2, -235007.34, -222656.7, 10438.971, -0.027837355, -0.63362026, -216703.28, -60236.836, 0.0, 10.000003, 10.000161 
2.9643703e+3, 2.940281e+2, -38034.832, 23414.56, -27663.44, 0.045409467, -0.57698905, 34033.215, 92500.195, 0.0, 10.000281, 10.001035 
2.9762262e+3, 1.3415264e+2, -1614075.3, -1640977.0, -24271.29, 0.07100349, -0.74656844, -1599776.9, 25463.303, 0.0, 10.000604, 10.000211 
2.9761067e+3, 1.4415306e+2, -1487109.1, -1583905.3, 27816.682, -0.13946718, -0.6344653, -1479684.8, 47553.113, 0.0, 10.001026, 9.999734 
2.975989e+3, 1.5415214e+2, -1429803.6, -1516820.3, 10458.434, -0.22825776, -0.62131935, -1428564.3, 682.3467, 0.0, 10.000795, 9.999632 
2.9758734e+3, 1.6415153e+2, -1354124.5, -1416172.8, 46733.867, -0.17709157, -0.5859109, -1329054.5, 2198.0642, 0.0, 10.000585, 9.999751 
2.9757586e+3, 1.741508e+2, -1232129.6, -1317729.9, 65902.75, -0.11732886, -0.5602206, -1196348.4, 36912.2, 0.0, 10.0008, 9.999647 
2.9756433e+3, 1.8415013e+2, -1108534.4, -1177678.3, 49759.973, -0.10578572, -0.53189933, -1082515.3, 52751.76, 0.0, 10.000844, 9.999917 
2.9755282e+3, 1.9414924e+2, -1025304.4, -1062825.4, 69541.195, -0.10622082, -0.55928236, -972037.56, 65237.168, 0.0, 10.000647, 10.000123 
2.9754135e+3, 2.0414804e+2, -956384.56, -1009800.94, 72589.914, -0.090276785, -0.6088434, -905745.4, 33540.98, 0.0, 10.000581, 9.999847 
2.975299e+3, 2.1414731e+2, -830087.06, -865079.94, 70136.836, -0.06566943, -0.6173545, -775297.25, 65996.75, 0.0, 10.000635, 10.000141 
2.9751843e+3, 2.241469e+2, -731725.44, -757290.56, 60467.523, -0.045434095, -0.60834175, -682704.2, 60594.49, 0.0, 10.000595, 10.000229 
2.975069e+3, 2.3414655e+2, -652165.9, -651198.1, 41412.76, -0.025813198, -0.60672486, -610266.44, 35036.492, 0.0, 10.000388, 10.000386 
2.9749528e+3, 2.4414629e+2, -554586.94, -524908.75, 56177.44, -0.025748763, -0.6183478, -481643.6, 65662.164, 0.0, 10.000261, 10.000644 
2.9748368e+3, 2.54146e+2, -425651.44, -409982.06, 49273.563, -0.059344005, -0.6419071, -367924.2, 81383.78, 0.0, 10.000462, 10.000666 
2.9747206e+3, 2.6414603e+2, -333593.16, -319914.9, 10791.47, -0.046109367, -0.6337105, -313977.9, 37329.69, 0.0, 10.000445, 10.000618 
2.9746044e+3, 2.7414644e+2, -286400.5, -245831.94, 372.2119, 0.03248052, -0.5922522, -245828.53, 7475.6943, 0.0, 10.000092, 10.000623 
2.974487e+3, 2.84146e+2, -225608.75, -207353.34, 18191.992, 0.034890845, -0.6122536, -196127.58, -40818.25, 0.0, 10.000035, 10.000248 
2.9743692e+3, 2.9414546e+2, -72366.16, -56780.34, -2614.4487, -0.03173499, -0.5969343, -56353.473, 962.1911, 0.0, 10.000349, 10.00044 
2.9862225e+3, 1.3427106e+2, -1694572.9, -1706853.8, -59083.273, -0.23745918, -0.534645, -1641311.8, -17232.238, 0.0, 10.000161, 9.999983 
2.9861072e+3, 1.4426959e+2, -1506242.9, -1579920.9, -14096.639, -0.11662886, -0.6051682, -1503637.9, 22457.545, 0.0, 10.000845, 9.999847 
2.9859924e+3, 1.5426807e+2, -1297222.1, -1460768.5, -29400.666, 0.040538706, -0.65967256, -1292097.4, 136013.22, 0.0, 10.001746, 9.999555 
2.9858765e+3, 1.6426653e+2, -1214283.3, -1358120.6, -27215.045, 0.087434165, -0.7052493, -1209306.1, 120819.58, 0.0, 10.001593, 9.99966 
2.9857603e+3, 1.742657e+2, -1229595.9, -1290488.3, 12373.876, 0.035409488, -0.7000889, -1227177.4, 4956.2446, 0.0, 10.000714, 9.999871 
2.9856443e+3, 1.8426451e+2, -1164332.6, -1211327.0, 31612.6, -0.01686463, -0.7386291, -1148441.0, -14295.888, 0.0, 10.000501, 9.999846 
2.9855287e+3, 1.9426344e+2, -990522.0, -1068800.4, 43079.902, -0.05950756, -0.76694536, -971456.8, 64698.37, 0.0, 10.000986, 9.999919 
2.9854143e+3, 2.0426323e+2, -846201.3, -934169.0, 39805.22, -0.056659527, -0.7186491, -830863.75, 107293.49, 0.0, 10.001238, 10.000054 
2.9852995e+3, 2.1426328e+2, -846383.94, -867856.3, 24444.805, -0.011167178, -0.6600413, -830421.56, 9735.934, 0.0, 10.000493, 10.0001955 
2.9851842e+3, 2.2426312e+2, -823116.5, -779041.75, 26994.203, 0.009566158, -0.63585955, -766231.9, -24072.453, 0.0, 9.999864, 10.000436 
2.985069e+3, 2.3426314e+2, -628720.4, -606702.06, 33424.19, 0.0048366054, -0.6255355, -582520.6, 61638.844, 0.0, 10.000406, 10.000685 
2.984953e+3, 2.4426317e+2, -479065.72, -483661.84, 39446.754, -0.015026052, -0.6244368, -441850.16, 104309.11, 0.0, 10.000759, 10.000688 
2.9848367e+3, 2.5426295e+2, -470917.78, -433378.78, 24938.137, -0.049463905, -0.6436114, -420936.03, 27225.287, 0.0, 10.0001545, 10.000654 
2.9847202e+3, 2.64263e+2, -399269.88, -335462.5, -5738.3696, -0.03847602, -0.6411465, -334950.56, 15210.47, 0.0, 9.999915, 10.000773 
2.9846036e+3, 2.742634e+2, -231168.97, -205294.48, -17555.797, 0.036228377, -0.6153107, -196423.97, 55733.016, 0.0, 10.000392, 10.000771 
2.9844862e+3, 2.8426343e+2, -146711.63, -133991.44, -1730.7307, 0.031390224, -0.6123742, -133760.16, 20396.959, 0.0, 10.000419, 10.000594 
2.9843688e+3, 2.942626e+2, -158338.73, -141731.23, 7861.161, -0.013080553, -0.6446926, -138600.39, -82433.74, 0.0, 9.999882, 10.000163 
2.9962245e+3, 1.343852e+2, -1503357.4, -1654821.5, 16413.018, 0.0048156837, -0.68041325, -1501599.3, 121361.695, 0.0, 10.001647, 9.999624 
2.9961073e+3, 1.443844e+2, -1627192.5, -1589334.8, 72422.39, -0.110581756, -0.6842388, -1533408.4, -8438.704, 0.0, 9.999792, 10.000296 
2.9959914e+3, 1.543846e+2, -1533941.9, -1578553.8, 20225.836, -0.14157881, -0.58664054, -1526137.4, -99168.84, 0.0, 10.000104, 9.999554 
2.995875e+3, 1.6438253e+2, -1462730.9, -1500177.5, 26208.64, -0.11225112, -0.6600613, -1449244.6, -120255.89, 0.0, 9.999958, 9.999485 
2.9957587e+3, 1.7438203e+2, -1267327.6, -1257308.1, 26323.602, -0.10440187, -0.6522191, -1235521.8, -4529.067, 0.0, 10.000208, 10.000355 
2.995643e+3, 1.8438216e+2, -1185142.5, -1240164.8, -1870.901, -0.107686706, -0.5885436, -1185079.0, -52087.78, 0.0, 10.000402, 9.999714 
2.9955295e+3, 1.9438055e+2, -1003134.75, -1117831.9, 21254.346, -0.029738503, -0.6374379, -999322.9, 35684.867, 0.0, 10.001052, 9.999565 
2.9954147e+3, 2.0438027e+2, -918187.94, -934952.5, -28772.46, -0.053179495, -0.60676646, -896601.6, 40409.438, 0.0, 10.000568, 10.000384 
2.9952982e+3, 2.143797e+2, -912031.25, -905533.2, -32183.564, -0.095127754, -0.619971, -876435.06, -37417.52, 0.0, 10.000051, 10.000157 
2.9951823e+3, 2.24379e+2, -762011.8, -722302.94, -9550.144, -0.09998191, -0.6571535, -720125.5, 20898.846, 0.0, 10.000157, 10.000687 
2.995068e+3, 2.3437938e+2, -648265.8, -559658.75, -13398.019, -0.032437835, -0.6570597, -557677.2, 85342.31, 0.0, 10.000023, 10.001194 
2.994953e+3, 2.4437974e+2, -480957.5, -490636.03, -2857.2805, -0.0019411026, -0.64648825, -480176.9, 64838.89, 0.0, 10.000771, 10.000633 
2.994837e+3, 2.5438008e+2, -460242.9, -420978.9, -4590.064, 0.036867328, -0.61671394, -420449.44, 26564.066, 0.0, 10.000197, 10.000714 
2.9947203e+3, 2.6438013e+2, -393144.8, -328378.06, 8376.662, 0.032509144, -0.6174028, -327312.22, 21701.188, 0.0, 9.999931, 10.000819 
2.9946026e+3, 2.7437997e+2, -221967.81, -201714.2, 7645.482, -0.043769304, -0.64902604, -199152.22, 51862.746, 0.0, 10.000444, 10.000776 
2.9944852e+3, 2.8438032e+2, -111247.97, -38523.066, -27334.855, -0.07033533, -0.64869463, -29394.613, 123616.625, 0.0, 10.00037, 10.001251 
2.9943687e+3, 2.9438084e+2, -145563.11, -50182.895, 14560.756, 0.09723312, -0.6239559, -48009.566, 6995.8545, 0.0, 9.999668, 10.000866 
