coord_x,coord_y,stress_xx,stress_yy,tau_xy,velocity_x,velocity_y,stress_1,eps,damage,lx,ly
4.997601e+0, 1.2537707e+2, -2267373.8, -1733726.8, -6272.8145, 0.0028292597, -0.3444411, -1733653.0, -22380.79, 0.00000005841745, 9.995145, 10.002213 
4.9978003e+0, 1.3537945e+2, -2099219.3, -1604831.0, -6850.996, -0.0018807781, -0.32631162, -1604736.1, 8513.337, 0.00000000012359376, 9.995638, 10.002187 
4.9980432e+0, 1.4538144e+2, -1975599.8, -1572141.1, -6537.691, -0.0031253824, -0.31066835, -1572035.1, -56804.027, 0.0, 9.996148, 10.001491 
4.9983206e+0, 1.5538304e+2, -1801955.8, -1439261.0, -6533.7813, -0.0016318501, -0.30049744, -1439143.3, -21926.256, 0.0, 9.996674, 10.001477 
4.9985814e+0, 1.6538431e+2, -1666348.8, -1380869.6, -8065.965, -0.00089223596, -0.29549333, -1380641.9, -61436.68, 0.0, 9.99718, 10.00096 
4.9988285e+0, 1.7538527e+2, -1498503.4, -1252104.6, -9771.47, -0.0007785595, -0.2957788, -1251717.6, -30522.195, 0.0, 9.997672, 10.000935 
4.9990815e+0, 1.853858e+2, -1381855.8, -1233375.5, -10037.15, -0.0008574115, -0.29570675, -1232700.1, -109510.1, 0.0, 9.99818, 10.000145 
4.9993402e+0, 1.9538595e+2, -1209749.3, -1102937.5, -10098.333, -0.0011126803, -0.2963824, -1101991.1, -76802.78, 0.0, 9.998703, 10.000116 
4.999601e+0, 2.053855e+2, -1097865.5, -1094161.9, -10870.936, -0.00045279987, -0.30594274, -1084986.1, -157794.53, 0.0, 9.999211, 9.999259 
4.9998635e+0, 2.153846e+2, -930263.7, -966892.75, -11361.438, 0.0010050029, -0.3240499, -927025.9, -97826.74, 0.0, 9.999707, 9.999221 
5.000115e+0, 2.253832e+2, -835801.75, -991838.3, -11314.956, 0.0012523375, -0.32950273, -834985.5, -103772.77, 0.0, 10.000205, 9.9981365 
5.0003564e+0, 2.353814e+2, -666627.06, -862058.2, -10895.274, 0.0004392859, -0.32487532, -666021.5, -32789.793, 0.0, 10.000705, 9.998114 
5.000597e+0, 2.4537943e+2, -545194.3, -833935.75, -11149.537, -0.0009810571, -0.2948497, -544764.44, -9510.818, 0.0, 10.001215, 9.997389 
5.000838e+0, 2.5537732e+2, -371892.3, -700360.3, -12628.335, -0.0029270567, -0.24393155, -371407.53, 65870.664, 0.0, 10.001735, 9.997382 
5.0011075e+0, 2.6537487e+2, -220456.66, -617181.5, -12350.117, -0.003117342, -0.20974801, -220072.56, 119233.06, 0.0, 10.002276, 9.99702 
5.001401e+0, 2.753721e+2, -41100.02, -480363.97, -11878.9375, -0.0017801222, -0.1908914, -40779.016, 200556.67, 0.0, 10.002837, 9.997016 
5.001689e+0, 2.853693e+2, 115795.34, -390654.2, -11486.67, -0.0011168688, -0.1542172, 116055.734, 259420.77, 0.0000000005106852, 10.0034, 9.996688 
5.001971e+0, 2.9536653e+2, 293090.7, -258766.48, -11184.057, -0.0010781081, -0.10341657, 293317.25, 338711.22, 0.000003227908, 10.003963, 9.99665 
5.0022495e+0, 3.0536222e+2, 403550.25, -217147.73, -11869.087, -0.002303933, -0.18032286, 403777.13, 403777.13, 0.00003805469, 10.004546, 9.99632 
5.0025487e+0, 3.1535944e+2, 574761.56, 978.6632, -14437.136, -0.002128749, -0.09390812, 575124.6, 575124.6, 0.00013937644, 10.005139, 9.997533 
1.4992803e+1, 1.2537666e+2, -2268475.5, -1735954.8, 12380.55, 0.00848288, -0.34279788, -1735667.0, -24390.916, 0.00000003890384, 9.995145, 10.002197 
1.4993401e+1, 1.35379e+2, -2100278.0, -1606991.1, 11806.484, -0.005639504, -0.32980978, -1606708.8, 6545.429, 0.0000000000066617675, 9.995638, 10.0021715 
1.499413e+1, 1.4538099e+2, -1975564.4, -1572046.8, 13272.581, -0.009377133, -0.3131183, -1571610.6, -56374.836, 0.0, 9.996148, 10.001492 
1.4994961e+1, 1.5538265e+2, -1802033.9, -1439405.4, 13233.736, -0.004896229, -0.29660273, -1438923.1, -21702.115, 0.0, 9.996674, 10.001476 
1.4995743e+1, 1.6538389e+2, -1669578.9, -1387556.5, 10466.78, -0.0026756483, -0.2901656, -1387168.5, -67959.266, 0.0, 9.99718, 10.000915 
1.4996485e+1, 1.7538477e+2, -1501605.5, -1258532.1, 8823.803, -0.0023345584, -0.2931999, -1258212.3, -37011.816, 0.0, 9.997672, 10.000891 
1.4997245e+1, 1.8538527e+2, -1381940.9, -1233548.3, 9679.153, -0.0025717106, -0.29524827, -1232919.5, -109724.195, 0.0, 9.99818, 10.000144 
1.499802e+1, 1.953854e+2, -1209858.0, -1103162.4, 9592.602, -0.003337942, -0.29747698, -1102306.8, -77113.01, 0.0, 9.998703, 10.000114 
1.4998803e+1, 2.0538498e+2, -1098780.6, -1096060.1, 7847.6777, -0.0013584669, -0.30644464, -1089455.8, -162258.75, 0.0, 9.999211, 9.999246 
1.4999591e+1, 2.1538407e+2, -931110.4, -968649.44, 7364.1445, 0.0030152032, -0.32211637, -929717.44, -100512.96, 0.0, 9.999707, 9.999208 
1.5000345e+1, 2.2538266e+2, -835042.4, -990259.9, 7525.863, 0.0037564202, -0.32828405, -834678.4, -103460.28, 0.0, 10.000205, 9.998147 
1.500107e+1, 2.3538083e+2, -666008.0, -860770.8, 7969.058, 0.0013178573, -0.3270634, -665682.5, -32445.455, 0.0, 10.000705, 9.998123 
1.5001793e+1, 2.4537887e+2, -547992.94, -839745.94, 8458.678, -0.002943712, -0.29587668, -547747.94, -12488.905, 0.0, 10.001215, 9.997349 
1.5002514e+1, 2.553768e+2, -374556.28, -705891.9, 7033.2007, -0.00878145, -0.23986045, -374407.03, 62876.707, 0.0, 10.001735, 9.997344 
1.5003322e+1, 2.653743e+2, -219593.06, -615385.44, 8774.32, -0.009352811, -0.20660236, -219398.64, 119912.805, 0.0, 10.002276, 9.997032 
1.5004203e+1, 2.7537146e+2, -40263.277, -478623.16, 9256.587, -0.0053404975, -0.19386593, -40067.9, 201273.92, 0.0, 10.002837, 9.997028 
1.5005067e+1, 2.8536868e+2, 116252.164, -389705.66, 9744.317, -0.003352042, -0.1567361, 116439.766, 259810.73, 0.00000000036389677, 10.0034, 9.996695 
1.5005913e+1, 2.9536596e+2, 293390.3, -258145.42, 10142.277, -0.0032354214, -0.099806786, 293576.75, 338976.03, 0.0000031171262, 10.003963, 9.996654 
1.5006751e+1, 3.0536163e+2, 398966.03, -226674.4, 10503.776, -0.006908064, -0.17507471, 399142.34, 399142.34, 0.00003737107, 10.004546, 9.996255 
1.5007645e+1, 3.153588e+2, 570192.1, -8510.193, 7739.5435, -0.006408792, -0.09047824, 570295.56, 570295.56, 0.00013752287, 10.005139, 9.997467 
2.498794e+1, 1.2537579e+2, -2282649.3, -1745021.4, -5857.8457, 0.012133802, -0.33898857, -1744957.6, -33672.695, 0.000000018764895, 9.995057, 10.002177 
2.4989028e+1, 1.3537806e+2, -2104910.3, -1611370.4, -6834.8843, -0.0055442946, -0.32807937, -1611275.8, 1987.7661, 0.0, 9.995616, 10.002152 
2.4990286e+1, 1.4538005e+2, -1971055.3, -1569162.1, -4641.244, -0.009819248, -0.31079984, -1569108.5, -53863.297, 0.0, 9.996176, 10.001498 
2.499168e+1, 1.5538175e+2, -1792067.6, -1434126.9, -4353.5474, -0.0037316584, -0.29140046, -1434073.9, -16843.97, 0.0, 9.99674, 10.00148 
2.4992962e+1, 1.6538298e+2, -1663742.5, -1390518.9, -9740.894, -0.0021449737, -0.28492793, -1390172.0, -70953.58, 0.0, 9.997245, 10.000863 
2.4994153e+1, 1.7538379e+2, -1500856.1, -1263759.4, -11754.735, -0.004312711, -0.2903484, -1263178.0, -41967.63, 0.0, 9.997701, 10.00084 
2.4995407e+1, 1.8538423e+2, -1382345.4, -1234814.6, -10037.984, -0.0044790385, -0.2941565, -1234134.8, -110929.06, 0.0, 9.998182, 10.000134 
2.4996717e+1, 1.9538434e+2, -1213210.6, -1105918.3, -10740.133, -0.0029792003, -0.29759753, -1104853.8, -79649.555, 0.0, 9.998685, 10.000104 
2.499802e+1, 2.0538391e+2, -1100759.6, -1100132.4, -13088.125, -0.00067094725, -0.3060301, -1087354.1, -160146.63, 0.0, 9.999211, 9.999218 
2.4999318e+1, 2.15383e+2, -925668.8, -969008.4, -14729.38, 0.0023716725, -0.31967375, -921136.8, -91921.586, 0.0, 9.999758, 9.999182 
2.5000578e+1, 2.2538157e+2, -823938.6, -984645.75, -16182.391, 0.002810358, -0.32699108, -822325.4, -91096.42, 0.0, 10.00028, 9.99815 
2.500181e+1, 2.353797e+2, -654557.75, -855151.7, -16391.59, 0.0009419135, -0.3296438, -653227.2, -19979.14, 0.0, 10.000783, 9.998124 
2.500303e+1, 2.4537772e+2, -542232.6, -840825.4, -16093.146, -0.0034048215, -0.29783583, -541367.8, -6097.6445, 0.0, 10.001271, 9.997314 
2.5004247e+1, 2.5537565e+2, -375041.22, -709800.1, -17020.959, -0.009897315, -0.23731837, -374178.03, 63116.977, 0.0, 10.001747, 9.997312 
2.5005585e+1, 2.6537314e+2, -219079.92, -613714.06, -12657.937, -0.010612786, -0.20454095, -218674.33, 120648.516, 0.0, 10.0022745, 9.997045 
2.5007033e+1, 2.7537027e+2, -38425.82, -476398.56, -12143.12, -0.0062844064, -0.19659954, -38089.402, 203264.02, 0.0, 10.002845, 9.99704 
2.5008455e+1, 2.8536752e+2, 117648.08, -389191.9, -12072.252, -0.004959598, -0.15912959, 117935.46, 261317.94, 0.00000000025082827, 10.00341, 9.996694 
2.500985e+1, 2.9536483e+2, 294508.72, -257819.38, -12187.081, -0.006406587, -0.09743893, 294777.5, 340187.9, 0.000002969252, 10.003972, 9.996653 
2.5011218e+1, 3.053605e+2, 397709.1, -230284.48, -9549.165, -0.014779903, -0.17175871, 397854.25, 397854.25, 0.000036353635, 10.00455, 9.996228 
2.501268e+1, 3.153576e+2, 568095.6, -12741.502, -9608.95, -0.016887834, -0.088650554, 568254.5, 568254.5, 0.00013473319, 10.005139, 9.997438 
3.4983012e+1, 1.2537442e+2, -2284441.0, -1748685.4, 15254.805, 0.013699066, -0.33296412, -1748251.4, -36952.656, 0.0000000046292135, 9.995057, 10.002152 
3.4984684e+1, 1.3537669e+2, -2106604.5, -1614852.1, 14230.04, -0.001594781, -0.3210719, -1614440.8, -1162.9742, 0.0, 9.995615, 10.002129 
3.4986514e+1, 1.4537868e+2, -1970218.6, -1567420.6, 16623.896, -0.0044437726, -0.30366907, -1566735.6, -51476.19, 0.0, 9.996176, 10.00151 
3.4988475e+1, 1.5538037e+2, -1791405.5, -1432753.8, 16764.697, 0.0018580036, -0.2848609, -1431971.8, -14727.995, 0.0, 9.99674, 10.00149 
3.4990233e+1, 1.6538157e+2, -1667778.0, -1398889.1, 7447.6445, 0.00069545384, -0.27976108, -1398683.0, -79450.39, 0.0, 9.997245, 10.000806 
3.4991828e+1, 1.7538229e+2, -1504780.3, -1271903.4, 5512.129, -0.006719647, -0.28721103, -1271773.0, -50547.555, 0.0, 9.997701, 10.000785 
3.4993568e+1, 1.853827e+2, -1383613.9, -1237449.9, 8927.931, -0.0065882895, -0.29242283, -1236906.5, -113685.3, 0.0, 9.998182, 10.000116 
3.499543e+1, 1.9538277e+2, -1214537.4, -1108678.9, 8304.008, -0.000040234776, -0.29673934, -1108031.5, -82811.76, 0.0, 9.998685, 10.000086 
3.4997255e+1, 2.053823e+2, -1103766.1, -1106378.4, 7534.2646, 0.0016060816, -0.30469862, -1097425.6, -170202.39, 0.0, 9.999211, 9.999175 
3.4999043e+1, 2.1538137e+2, -928569.94, -975035.8, 5825.729, -0.00093253347, -0.31672168, -927850.7, -98619.38, 0.0, 9.999758, 9.999141 
3.5000813e+1, 2.253799e+2, -824381.5, -985565.4, 2773.8801, -0.0015909674, -0.32562315, -824333.8, -93088.46, 0.0, 10.00028, 9.998143 
3.5002574e+1, 2.3537798e+2, -655063.0, -856198.3, 2517.2344, -0.0006967095, -0.33261573, -655031.56, -21766.82, 0.0, 10.000783, 9.9981165 
3.5004315e+1, 2.4537599e+2, -544280.94, -845080.8, 1858.7908, -0.0023757736, -0.30072626, -544269.5, -8982.473, 0.0, 10.001271, 9.997285 
3.5006028e+1, 2.5537392e+2, -376987.22, -713857.2, 1055.8135, -0.006289421, -0.23630032, -376983.94, 60327.992, 0.0, 10.001748, 9.997283 
3.5007897e+1, 2.6537144e+2, -218155.66, -611819.4, 8810.077, -0.0069131213, -0.20355931, -217958.58, 121381.26, 0.0, 10.0022745, 9.997058 
3.5009897e+1, 2.7536854e+2, -37579.457, -474661.94, 9311.885, -0.004628914, -0.19908975, -37381.164, 203989.31, 0.0, 10.002845, 9.997052 
3.5011855e+1, 2.8536576e+2, 116996.03, -390563.66, 9076.276, -0.0059507694, -0.16139646, 117158.28, 260557.81, 0.00000000021451357, 10.00341, 9.996684 
3.501378e+1, 2.953631e+2, 293938.72, -259008.06, 9022.863, -0.010596191, -0.09630674, 294085.9, 339513.3, 0.0000027944461, 10.003972, 9.996644 
3.501566e+1, 3.053588e+2, 398487.28, -228639.4, 12615.392, -0.025907997, -0.17036329, 398740.97, 398740.97, 0.000034974928, 10.00455, 9.996239 
3.501765e+1, 3.1535587e+2, 568543.5, -11725.226, 12354.197, -0.033579737, -0.08845786, 568806.4, 568806.4, 0.00013087683, 10.005138, 9.997446 
4.4978073e+1, 1.2537244e+2, -2285836.8, -1750169.5, -8855.776, 0.014176084, -0.32702923, -1750023.1, -38704.523, 0.00000000014144765, 9.99505, 10.002145 
4.4980317e+1, 1.3537474e+2, -2104648.8, -1614681.3, -8669.348, -0.00063726003, -0.31114256, -1614527.9, -1230.3752, 0.0, 9.995632, 10.002122 
4.498271e+1, 1.4537673e+2, -1967622.9, -1565168.6, -6460.5874, -0.0032128086, -0.29439732, -1565064.9, -49785.71, 0.0, 9.99619, 10.001519 
4.4985223e+1, 1.5537839e+2, -1792461.4, -1432402.3, -6655.4644, 0.0028438796, -0.2801451, -1432279.3, -15015.624, 0.0, 9.996729, 10.001497 
4.498749e+1, 1.6537957e+2, -1667549.9, -1401718.5, -17090.344, 0.0010433513, -0.27643818, -1400624.3, -81371.69, 0.0, 9.997259, 10.000779 
4.4989562e+1, 1.7538027e+2, -1494683.6, -1270028.3, -16666.926, -0.00732579, -0.2825598, -1268798.5, -47552.895, 0.0, 9.997784, 10.000758 
4.499181e+1, 1.8538064e+2, -1370273.1, -1235637.8, -12728.126, -0.0058710473, -0.2877941, -1234445.1, -111203.37, 0.0, 9.998293, 10.000075 
4.4994208e+1, 1.9538066e+2, -1201775.0, -1107098.5, -15090.168, 0.0039579747, -0.29330137, -1104751.5, -79510.9, 0.0, 9.998792, 10.000045 
4.4996536e+1, 2.0538014e+2, -1095993.3, -1106495.4, -15880.809, 0.005333709, -0.30297306, -1084517.9, -157273.31, 0.0, 9.999281, 9.999141 
4.49988e+1, 2.1537915e+2, -930307.1, -979671.3, -16982.342, -0.00053176907, -0.31715345, -925029.2, -95776.125, 0.0, 9.999762, 9.999106 
4.500108e+1, 2.2537763e+2, -828612.5, -990246.94, -20596.086, -0.002217154, -0.32661638, -826029.3, -94761.914, 0.0, 10.000262, 9.99812 
4.500336e+1, 2.353757e+2, -657040.3, -859685.25, -22180.617, -0.00035851708, -0.3327877, -654640.94, -21353.973, 0.0, 10.00078, 9.998094 
4.500561e+1, 2.453737e+2, -539324.5, -842649.75, -22476.793, -0.001223003, -0.3017994, -537668.0, -2358.5789, 0.0, 10.001305, 9.997285 
4.500784e+1, 2.553716e+2, -364049.28, -707630.25, -21001.484, -0.0044676433, -0.23973702, -362770.3, 74564.125, 0.0, 10.001837, 9.997283 
4.501023e+1, 2.6536912e+2, -204669.34, -605989.4, -11223.578, -0.005600479, -0.20621529, -204355.7, 135006.64, 0.0, 10.00237, 9.997051 
4.501277e+1, 2.7536625e+2, -29184.986, -471296.88, -12167.836, -0.0048280605, -0.19825841, -28850.355, 212542.45, 0.0, 10.002905, 9.9970455 
4.501527e+1, 2.853635e+2, 120470.55, -389130.53, -13092.551, -0.0066860965, -0.15922298, 120806.695, 264228.63, 0.00000000034042036, 10.003435, 9.996682 
4.5017743e+1, 2.9536083e+2, 292372.25, -259728.16, -12575.838, -0.0110464385, -0.094653934, 292658.53, 338108.56, 0.0000026033522, 10.003962, 9.996644 
4.5020142e+1, 3.0535653e+2, 394471.66, -224360.22, -6216.2886, -0.029596513, -0.16952652, 394534.1, 394534.1, 0.00003326063, 10.004496, 9.996295 
4.5022687e+1, 3.1535366e+2, 557157.0, -11742.986, -3361.7131, -0.039095204, -0.087066986, 557176.9, 557176.9, 0.00012595802, 10.005037, 9.997495 
5.4973114e+1, 1.2536986e+2, -2285151.5, -1748719.3, 13085.353, 0.013401105, -0.32113737, -1748400.3, -37055.51, 0.0, 9.99505, 10.002155 
5.4975927e+1, 1.3537225e+2, -2103989.8, -1613290.1, 13137.843, -0.002754079, -0.29825187, -1612938.6, 384.18832, 0.0, 9.995632, 10.002131 
5.497887e+1, 1.4537422e+2, -1967251.3, -1564376.8, 13852.373, -0.006178548, -0.2829512, -1563901.1, -48596.574, 0.0, 9.996189, 10.001525 
5.498191e+1, 1.5537581e+2, -1792089.1, -1431606.3, 13648.513, -0.0008343734, -0.27724728, -1431090.3, -13800.75, 0.0, 9.996729, 10.001503 
5.498473e+1, 1.6537696e+2, -1667228.1, -1401038.9, 2655.3416, -0.0011489508, -0.2749565, -1401012.4, -81733.88, 0.0, 9.997259, 10.000784 
5.498736e+1, 1.7537773e+2, -1494522.6, -1269706.0, 3055.971, -0.0061504194, -0.27638647, -1269664.5, -48393.543, 0.0, 9.997784, 10.00076 
5.4990137e+1, 1.8537806e+2, -1374814.0, -1245080.3, 6077.28, -0.0023349302, -0.28025815, -1244796.1, -121528.984, 0.0, 9.998293, 10.0000105 
5.499305e+1, 1.9537802e+2, -1206192.9, -1116292.4, 3697.176, 0.009000112, -0.28727555, -1116140.6, -90873.76, 0.0, 9.998792, 9.999982 
5.499587e+1, 2.0537741e+2, -1097845.1, -1110360.6, 2261.7642, 0.01049707, -0.3008497, -1097448.9, -170177.4, 0.0, 9.999281, 9.999114 
5.4998606e+1, 2.1537633e+2, -932183.25, -983583.2, 1214.6216, 0.003561694, -0.32096508, -932154.56, -102874.07, 0.0, 9.999762, 9.99908 
5.500137e+1, 2.253748e+2, -831507.0, -996264.75, -1078.0376, 0.0009194029, -0.32997087, -831499.94, -100204.766, 0.0, 10.000262, 9.998078 
5.500416e+1, 2.3537289e+2, -659736.6, -865293.3, -2658.1138, 0.0019408355, -0.33016923, -659702.25, -26387.465, 0.0, 10.00078, 9.998055 
5.500693e+1, 2.4537085e+2, -537249.25, -838347.4, -2451.8938, 0.00003676475, -0.30105367, -537229.3, -1891.972, 0.0, 10.001305, 9.997314 
5.5009675e+1, 2.553687e+2, -362126.34, -703647.8, -996.09735, -0.0044447524, -0.2476093, -362123.44, 75239.1, 0.0, 10.001837, 9.997311 
5.501259e+1, 2.653662e+2, -206430.48, -609660.5, 8912.302, -0.0066853426, -0.21250105, -206233.6, 133156.72, 0.0, 10.00237, 9.997026 
5.5015653e+1, 2.7536345e+2, -30891.22, -474838.94, 7943.808, -0.00689441, -0.1941286, -30749.123, 210671.27, 0.0, 10.002905, 9.997022 
5.5018705e+1, 2.8536072e+2, 120789.56, -388455.2, 6687.6274, -0.0071890196, -0.15263371, 120877.37, 264326.94, 0.0000000006700443, 10.003435, 9.996687 
5.502174e+1, 2.95358e+2, 292939.38, -258529.56, 7200.17, -0.0078026326, -0.09248741, 293033.38, 338511.56, 0.0000023959767, 10.003962, 9.996653 
5.502468e+1, 3.0535373e+2, 401366.06, -209989.02, 14113.749, -0.025923962, -0.16925916, 401691.72, 401691.72, 0.000031254487, 10.004496, 9.996393 
5.5027777e+1, 3.15351e+2, 563366.3, 1267.946, 16786.309, -0.03359783, -0.08459072, 563867.2, 563867.2, 0.00012003198, 10.005036, 9.997584 
6.496816e+1, 1.2536673e+2, -2284618.3, -1748144.6, -5679.438, 0.012840708, -0.31648174, -1748084.5, -36708.54, 0.0, 9.995053, 10.002158 
6.497158e+1, 1.3536914e+2, -2101199.5, -1611717.8, -6380.13, -0.0014442533, -0.29118147, -1611634.6, 1719.174, 0.0, 9.99565, 10.002133 
6.497509e+1, 1.453711e+2, -1966174.0, -1565088.8, -8840.315, -0.00387468, -0.2768308, -1564893.9, -49558.348, 0.0, 9.996202, 10.0015135 
6.497866e+1, 1.5537263e+2, -1794373.3, -1433903.5, -10330.956, 0.0014391899, -0.27482757, -1433607.6, -16286.591, 0.0, 9.996718, 10.0014925 
6.4982015e+1, 1.6537377e+2, -1669796.8, -1402513.4, -22214.72, 0.002367587, -0.27247378, -1400679.6, -81369.695, 0.0, 9.997243, 10.000782 
6.49852e+1, 1.7537458e+2, -1495916.0, -1270780.6, -22375.424, -0.00030847624, -0.2706367, -1268578.4, -47276.195, 0.0, 9.997776, 10.000756 
6.4988494e+1, 1.8537489e+2, -1375156.8, -1250267.1, -19126.113, 0.0025610558, -0.27435288, -1247403.6, -124105.086, 0.0, 9.998313, 9.999966 
6.499188e+1, 1.9537477e+2, -1200207.1, -1118312.1, -20074.79, 0.010128489, -0.28391147, -1113655.9, -88357.01, 0.0, 9.998855, 9.999938 
6.49952e+1, 2.0537412e+2, -1086624.4, -1107653.9, -21947.992, 0.01110897, -0.30026218, -1072802.5, -145498.44, 0.0, 9.99937, 9.999089 
6.499844e+1, 2.1537296e+2, -919175.7, -980002.06, -22812.043, 0.006475509, -0.32333586, -911571.06, -82257.664, 0.0, 9.999863, 9.999056 
6.5001714e+1, 2.2537144e+2, -820203.3, -994157.44, -23960.342, 0.004686904, -0.33159348, -816963.4, -85635.09, 0.0, 10.000355, 9.998049 
6.500501e+1, 2.3536952e+2, -652267.7, -864860.06, -24674.813, 0.0053275223, -0.32783726, -649441.3, -16093.424, 0.0, 10.000845, 9.998027 
6.5008277e+1, 2.4536747e+2, -530324.44, -834137.44, -24246.564, 0.0023962792, -0.29965022, -528401.56, 6969.0547, 0.0, 10.0013485, 9.997323 
6.501154e+1, 2.5536525e+2, -357598.13, -700678.3, -24471.992, -0.0036766434, -0.25133687, -355861.3, 81534.76, 0.0, 10.001864, 9.997317 
6.501496e+1, 2.653628e+2, -207536.5, -611163.56, -15038.093, -0.006512943, -0.21548522, -206977.0, 132446.83, 0.0, 10.002367, 9.997018 
6.501854e+1, 2.7536005e+2, -38377.74, -479361.38, -14770.442, -0.0064488663, -0.19129112, -37883.566, 203570.08, 0.0, 10.002857, 9.997013 
6.5022117e+1, 2.8535736e+2, 112179.47, -391337.78, -14600.38, -0.0062241163, -0.14730841, 112602.48, 256085.2, 0.0000000009839726, 10.003371, 9.996697 
6.502569e+1, 2.9535463e+2, 285368.56, -260767.61, -13656.155, -0.0061386265, -0.08755629, 285709.8, 331221.16, 0.0000021664155, 10.003903, 9.996665 
6.502914e+1, 3.053504e+2, 393524.5, -209298.77, -9003.387, -0.025947567, -0.16535561, 393658.94, 393658.94, 0.000028990286, 10.004422, 9.996433 
6.503276e+1, 3.1534773e+2, 550222.8, -1652.758, -10908.992, -0.03330774, -0.08008496, 550438.4, 550438.4, 0.000113151065, 10.004931, 9.997615 
7.496321e+1, 1.2536304e+2, -2284981.5, -1748880.9, 16847.549, 0.012322266, -0.3131293, -1748352.0, -36939.527, 0.0, 9.995053, 10.002153 
7.496728e+1, 1.3536541e+2, -2101661.0, -1612639.6, 15949.752, 0.0032332707, -0.29002687, -1612120.0, 1270.5161, 0.0, 9.99565, 10.002128 
7.4971366e+1, 1.4536735e+2, -1968205.5, -1569257.0, 10588.952, 0.0036832932, -0.27611703, -1568976.1, -53603.66, 0.0, 9.996202, 10.001485 
7.4975455e+1, 1.5536886e+2, -1796357.6, -1437974.8, 9129.286, 0.009649464, -0.27291587, -1437742.4, -20384.176, 0.0, 9.996718, 10.001465 
7.4979347e+1, 1.6537003e+2, -1670508.6, -1403955.3, -2141.9973, 0.011580831, -0.26900163, -1403938.1, -84590.875, 0.0, 9.997243, 10.000772 
7.498308e+1, 1.7537083e+2, -1496637.5, -1272267.4, -2282.4604, 0.010192379, -0.26532117, -1272244.1, -50904.887, 0.0, 9.997775, 10.000747 
7.4986863e+1, 1.8537112e+2, -1376953.0, -1254002.4, 1297.1913, 0.0088027, -0.2700903, -1253988.6, -130652.766, 0.0, 9.998313, 9.99994 
7.499071e+1, 1.9537093e+2, -1201955.5, -1121970.4, 285.79004, 0.007317882, -0.28321785, -1121969.4, -96632.65, 0.0, 9.998855, 9.999912 
7.499453e+1, 2.0537022e+2, -1088173.6, -1110905.4, -3342.956, 0.007141528, -0.3012156, -1087692.3, -160350.05, 0.0, 9.99937, 9.999067 
7.499833e+1, 2.1536906e+2, -920687.5, -983172.06, -4214.7173, 0.008188919, -0.32426718, -920404.5, -91052.734, 0.0, 9.999863, 9.999034 
7.5002116e+1, 2.253675e+2, -821527.6, -996923.44, -5466.849, 0.009068357, -0.3314817, -821357.4, -89990.664, 0.0, 10.000355, 9.99803 
7.5005895e+1, 2.353656e+2, -653566.3, -867576.7, -6165.9824, 0.009781156, -0.32578588, -653388.8, -20002.467, 0.0, 10.000845, 9.998009 
7.5009656e+1, 2.4536352e+2, -531324.06, -836234.0, -4830.1, 0.005837499, -0.29759285, -531247.56, 4161.6553, 0.0, 10.0013485, 9.997308 
7.501341e+1, 2.5536132e+2, -358548.75, -702674.94, -5117.9717, -0.0021811423, -0.25094095, -358472.66, 78962.37, 0.0, 10.001864, 9.997304 
7.501734e+1, 2.6535884e+2, -207019.9, -610118.56, 3426.694, -0.0051081413, -0.21519068, -206990.78, 132472.06, 0.0, 10.002367, 9.997025 
7.502142e+1, 2.753561e+2, -37860.69, -478312.75, 3732.2273, -0.0035269377, -0.18975034, -37829.066, 203663.47, 0.0, 10.002857, 9.997021 
7.5025505e+1, 2.8535345e+2, 113390.56, -388830.34, 5418.5093, -0.0038208638, -0.14326777, 113449.016, 256970.34, 0.0000000010869243, 10.00337, 9.996716 
7.502959e+1, 2.953508e+2, 286495.34, -258406.98, 6273.465, -0.0060647973, -0.07993035, 286567.56, 332117.03, 0.0000019142904, 10.003903, 9.996681 
7.5033516e+1, 3.0534655e+2, 392174.84, -212072.88, 10114.685, -0.02964872, -0.15789036, 392344.13, 392344.13, 0.000026500875, 10.004422, 9.996414 
7.5037646e+1, 3.1534383e+2, 548191.1, -5822.505, 8056.5034, -0.038208436, -0.07363813, 548308.25, 548308.25, 0.00010540446, 10.0049305, 9.997586 
8.4958285e+1, 1.2535873e+2, -2282937.5, -1749364.9, -6005.697, 0.013534674, -0.31005907, -1749297.4, -37842.715, 0.0, 9.995073, 10.00214 
8.496299e+1, 1.3536106e+2, -2101587.3, -1614113.6, -7736.794, 0.009353969, -0.29146492, -1613990.9, -557.6934, 0.0, 9.995657, 10.002113 
8.4967643e+1, 1.4536297e+2, -1966679.8, -1570368.9, -15021.019, 0.010489094, -0.27758756, -1569800.4, -54385.0, 0.0, 9.996221, 10.001469 
8.497224e+1, 1.5536451e+2, -1790069.3, -1436812.5, -15626.507, 0.013254786, -0.2704727, -1436122.6, -18721.648, 0.0, 9.99677, 10.001448 
8.497666e+1, 1.6536567e+2, -1661036.1, -1401634.8, -26671.213, 0.014840619, -0.26577908, -1398920.9, -79530.73, 0.0, 9.997317, 10.0007515 
8.4980947e+1, 1.7536643e+2, -1484872.3, -1268729.8, -27686.879, 0.015585444, -0.26403403, -1265239.6, -43857.074, 0.0, 9.997866, 10.000727 
8.498526e+1, 1.8536669e+2, -1367669.1, -1249387.8, -24540.867, 0.013772506, -0.2702866, -1244498.3, -121118.87, 0.0, 9.998376, 9.999941 
8.4989583e+1, 1.9536649e+2, -1201945.1, -1121907.5, -23585.25, 0.009656368, -0.28451, -1115474.5, -90094.42, 0.0, 9.998855, 9.999913 
8.49939e+1, 2.0536578e+2, -1093840.9, -1116887.3, -27047.637, 0.008422671, -0.3014566, -1075964.1, -148578.4, 0.0, 9.999345, 9.999038 
8.49982e+1, 2.1536462e+2, -925007.94, -988328.06, -28453.61, 0.009777851, -0.32161242, -914100.8, -84705.34, 0.0, 9.999846, 9.999006 
8.500248e+1, 2.2536305e+2, -821086.8, -996523.56, -28883.906, 0.01020498, -0.32890716, -816453.75, -85043.2, 0.0, 10.000357, 9.998032 
8.500676e+1, 2.3536111e+2, -649214.44, -865378.1, -28054.031, 0.009816085, -0.32585466, -645632.9, -12202.563, 0.0, 10.0008745, 9.99801 
8.501103e+1, 2.4535903e+2, -528358.5, -837549.2, -26333.512, 0.0063018096, -0.2968211, -526131.75, 9321.533, 0.0, 10.001381, 9.997284 
8.50153e+1, 2.5535685e+2, -358168.72, -705044.8, -27449.574, 0.00004459758, -0.24626699, -356009.97, 81469.17, 0.0, 10.001878, 9.997281 
8.501974e+1, 2.6535437e+2, -204786.97, -606018.2, -19110.342, -0.0022226828, -0.21080059, -203878.81, 135628.19, 0.0, 10.002369, 9.997052 
8.502431e+1, 2.753516e+2, -36415.965, -474683.8, -17309.086, -0.0009441009, -0.18931729, -35733.418, 205803.23, 0.0, 10.002855, 9.997046 
8.502889e+1, 2.8534898e+2, 111641.32, -388403.47, -13993.136, -0.0016618128, -0.1431666, 112032.6, 255597.81, 0.0000000009777485, 10.003353, 9.996726 
8.503349e+1, 2.9534638e+2, 281366.2, -259640.34, -13678.484, -0.004457266, -0.07700703, 281711.8, 327304.8, 0.0000016479609, 10.003862, 9.996693 
8.503791e+1, 3.053421e+2, 385127.53, -216192.48, -9727.205, -0.030333199, -0.15584083, 385284.84, 385284.84, 0.000023839892, 10.004377, 9.9964075 
8.504255e+1, 3.153394e+2, 542120.6, -10733.79, -11060.315, -0.039017674, -0.0730323, 542341.8, 542341.8, 0.00009695065, 10.004898, 9.997568 
9.495338e+1, 1.2535384e+2, -2284509.3, -1752613.0, 15981.303, 0.016352564, -0.30733192, -1752133.3, -40630.76, 0.0, 9.995073, 10.002118 
9.495872e+1, 1.3535607e+2, -2103165.3, -1617316.4, 14130.662, 0.01683411, -0.29560012, -1616905.8, -3423.857, 0.0, 9.995657, 10.002092 
9.496392e+1, 1.4535797e+2, -1967123.1, -1571220.4, 5644.74, 0.01644151, -0.2813447, -1571139.9, -55675.723, 0.0, 9.996221, 10.001463 
9.496899e+1, 1.5535957e+2, -1790557.4, -1437796.1, 5042.184, 0.012134829, -0.26754996, -1437724.1, -20274.715, 0.0, 9.996769, 10.001441 
9.4973946e+1, 1.653607e+2, -1663258.0, -1406247.6, -6018.596, 0.012038683, -0.2628404, -1406106.8, -86667.97, 0.0, 9.997317, 10.00072 
9.4978815e+1, 1.7536138e+2, -1486909.0, -1272984.3, -7129.874, 0.015791818, -0.2668295, -1272746.9, -51314.81, 0.0, 9.997866, 10.000698 
9.4983673e+1, 1.8536162e+2, -1365734.8, -1245415.5, -6518.2026, 0.017428704, -0.27498567, -1245063.5, -121634.5, 0.0, 9.998376, 9.999969 
9.498852e+1, 1.9536147e+2, -1200149.1, -1118217.9, -5520.7656, 0.017138172, -0.28780693, -1117847.6, -92418.42, 0.0, 9.998855, 9.999938 
9.499331e+1, 2.053608e+2, -1096393.0, -1122216.9, -8126.5347, 0.014958297, -0.3009897, -1094048.5, -166613.94, 0.0, 9.999345, 9.9990015 
9.4998056e+1, 2.1535964e+2, -927376.44, -993279.4, -9514.229, 0.011235994, -0.31536734, -926030.4, -96585.9, 0.0, 9.999846, 9.998972 
9.500282e+1, 2.2535807e+2, -819562.06, -993380.7, -9364.431, 0.00808768, -0.3238579, -819059.0, -87599.22, 0.0, 10.000357, 9.998053 
9.5007586e+1, 2.3535608e+2, -647824.9, -862505.1, -8586.235, 0.0054323105, -0.32802433, -647482.0, -14002.226, 0.0, 10.0008745, 9.998029 
9.5012385e+1, 2.45354e+2, -530835.0, -842698.2, -7621.341, 0.0037828267, -0.29733205, -530648.8, 4853.9536, 0.0, 10.001381, 9.997249 
9.501721e+1, 2.5535187e+2, -360451.03, -709795.94, -8772.745, 0.0029758832, -0.23735052, -360230.88, 77297.59, 0.0, 10.001878, 9.997249 
9.502215e+1, 2.653494e+2, -201564.98, -599337.06, -833.35284, 0.0021210518, -0.2023509, -201563.23, 137993.0, 0.0, 10.002369, 9.997098 
9.5027184e+1, 2.753466e+2, -33314.332, -468242.06, 967.1432, 0.0012873089, -0.19000596, -33312.18, 208273.73, 0.0, 10.002855, 9.997091 
9.503226e+1, 2.8534395e+2, 111946.71, -387746.06, 5138.9155, 0.00022973558, -0.147009, 111999.555, 255613.9, 0.00000000065795036, 10.003353, 9.996731 
9.5037377e+1, 2.9534137e+2, 281674.2, -258943.69, 5400.892, -0.0013667943, -0.078797475, 281728.13, 327370.03, 0.000001379458, 10.003862, 9.996697 
9.5042306e+1, 3.053371e+2, 385400.6, -215542.39, 9840.576, -0.028064834, -0.15921342, 385561.7, 385561.7, 0.000021091386, 10.004376, 9.996412 
9.504748e+1, 3.1533435e+2, 541458.25, -11993.369, 8321.476, -0.035867512, -0.07833758, 541583.3, 541583.3, 0.00008801441, 10.004897, 9.9975605 
1.0494848e+2, 1.2534823e+2, -2268137.8, -1744149.4, -14396.776, 0.01416898, -0.30731747, -1743754.1, -32196.676, 0.0, 9.995183, 10.002123 
1.0495444e+2, 1.3535042e+2, -2095903.3, -1613202.0, -14340.436, 0.020355428, -0.29953706, -1612776.4, 760.53033, 0.0, 9.995704, 10.002097 
1.0496019e+2, 1.4535233e+2, -1966756.1, -1569376.6, -21962.346, 0.021325735, -0.28501537, -1568166.5, -52647.402, 0.0, 9.996216, 10.001477 
1.0496576e+2, 1.5535401e+2, -1796589.1, -1439077.6, -21043.834, 0.014480734, -0.26720524, -1437843.3, -20339.371, 0.0, 9.996721, 10.001455 
1.0497125e+2, 1.6535512e+2, -1671437.6, -1409652.9, -28874.117, 0.013893325, -0.2627539, -1406506.0, -87012.7, 0.0, 9.997259, 10.000725 
1.0497669e+2, 1.7535578e+2, -1492349.0, -1275066.1, -27396.037, 0.018939003, -0.27071905, -1271665.1, -50178.348, 0.0, 9.997827, 10.000703 
1.0498207e+2, 1.8535602e+2, -1368837.5, -1246872.0, -29229.477, 0.021454958, -0.27893007, -1240228.9, -116745.15, 0.0, 9.998355, 9.999969 
1.0498741e+2, 1.9535589e+2, -1200740.3, -1118485.9, -30311.441, 0.021679366, -0.28840554, -1108522.6, -83038.95, 0.0, 9.998851, 9.999938 
1.0499268e+2, 2.0535523e+2, -1097892.3, -1124536.5, -32734.766, 0.01813852, -0.29944292, -1075872.5, -148383.47, 0.0, 9.999342, 9.998987 
1.04997896e+2, 2.1535408e+2, -930784.2, -996395.75, -32471.97, 0.011422669, -0.31276542, -917431.0, -87931.805, 0.0, 9.999829, 9.998959 
1.0500314e+2, 2.253525e+2, -824093.06, -994823.0, -31721.105, 0.0068834866, -0.32125184, -818389.9, -86875.28, 0.0, 10.000322, 9.998059 
1.0500842e+2, 2.353505e+2, -655325.06, -865338.7, -32111.826, 0.004257577, -0.32629937, -650524.8, -16990.15, 0.0, 10.000819, 9.998036 
1.0501374e+2, 2.4534847e+2, -538662.94, -845305.56, -30031.465, 0.00409386, -0.29440793, -535749.44, -191.95085, 0.0, 10.001323, 9.997259 
1.050191e+2, 2.5534636e+2, -366756.84, -711669.06, -27815.68, 0.006011647, -0.2313526, -364528.03, 73054.8, 0.0, 10.00183, 9.997259 
1.0502452e+2, 2.6534387e+2, -206959.63, -600334.2, -20169.627, 0.0046040965, -0.1970884, -205928.17, 133682.34, 0.0, 10.002325, 9.997112 
1.0503e+2, 2.7534106e+2, -38886.805, -469329.88, -20759.37, 0.00035359367, -0.18884587, -37887.94, 203752.38, 0.0, 10.00281, 9.997106 
1.0503557e+2, 2.853384e+2, 104992.55, -389000.63, -16657.613, -0.00087786064, -0.14769492, 105553.61, 249222.28, 0.00000000025503108, 10.003297, 9.99675 
1.0504121e+2, 2.9533586e+2, 271713.13, -261590.33, -15409.014, 0.0001888157, -0.0793722, 272157.97, 317853.9, 0.000001118805, 10.003785, 9.9967165 
1.05046675e+2, 3.053316e+2, 375294.13, -216851.88, -8513.24, -0.02457875, -0.16169226, 375416.5, 375416.5, 0.000018358793, 10.004292, 9.996445 
1.0505241e+2, 3.1532887e+2, 530886.6, -15240.344, -8270.47, -0.027664714, -0.08150302, 531011.9, 531011.9, 0.00007886559, 10.004817, 9.997577 
1.14943594e+2, 1.253419e+2, -2265851.8, -1739493.0, 5159.6465, 0.006760873, -0.31011945, -1739442.4, -27823.088, 0.0, 9.995183, 10.002154 
1.14950135e+2, 1.3534413e+2, -2093679.3, -1608551.1, 5166.849, 0.01973357, -0.30333644, -1608496.1, 5102.2246, 0.0, 9.995704, 10.00213 
1.1495644e+2, 1.4534609e+2, -1964409.9, -1564417.8, -2957.1091, 0.025009653, -0.28865197, -1564395.9, -48815.695, 0.0, 9.996215, 10.001512 
1.1496254e+2, 1.553478e+2, -1794229.5, -1434091.9, -1952.2301, 0.020247431, -0.2695128, -1434081.4, -16516.865, 0.0, 9.99672, 10.00149 
1.14968576e+2, 1.6534893e+2, -1668663.0, -1403828.5, -7512.569, 0.020398416, -0.2655876, -1403615.6, -84062.07, 0.0, 9.997259, 10.000765 
1.1497458e+2, 1.7534961e+2, -1489712.1, -1269570.6, -6122.562, 0.025015011, -0.27573615, -1269400.5, -47853.65, 0.0, 9.997826, 10.000741 
1.1498047e+2, 1.8534987e+2, -1370792.9, -1250946.6, -10552.225, 0.025832178, -0.28213415, -1250024.6, -126480.89, 0.0, 9.998355, 9.999941 
1.1498628e+2, 1.9534978e+2, -1202575.1, -1122335.3, -11645.775, 0.023256065, -0.2863028, -1120679.3, -95135.445, 0.0, 9.998851, 9.999911 
1.1499202e+2, 2.053491e+2, -1097374.1, -1123505.8, -14342.634, 0.017940655, -0.29680592, -1091038.3, -163489.0, 0.0, 9.999342, 9.998994 
1.14997715e+2, 2.1534793e+2, -930298.4, -995426.9, -14063.425, 0.0103231305, -0.313794, -927391.4, -97831.81, 0.0, 9.999829, 9.998965 
1.1500347e+2, 2.2534636e+2, -824722.94, -996159.6, -12984.943, 0.0065778536, -0.32108477, -823745.0, -92170.03, 0.0, 10.000322, 9.998051 
1.1500926e+2, 2.3534441e+2, -655789.75, -866323.56, -13380.76, 0.006266487, -0.32069218, -654942.75, -21347.889, 0.0, 10.000819, 9.99803 
1.1501509e+2, 2.4534239e+2, -534803.94, -837304.44, -10931.231, 0.00721264, -0.28804845, -534409.44, 1207.9304, 0.0, 10.001322, 9.9973135 
1.1502095e+2, 2.553403e+2, -363088.4, -704057.94, -8764.755, 0.009144819, -0.22824417, -362863.25, 74778.945, 0.0, 10.00183, 9.997312 
1.1502685e+2, 2.6533785e+2, -208226.47, -602956.1, -1952.0088, 0.0052357195, -0.19500865, -208216.81, 131452.95, 0.0, 10.002325, 9.997094 
1.1503277e+2, 2.75335e+2, -40089.195, -471765.78, -2556.951, -0.0037209925, -0.18589765, -40074.05, 201625.73, 0.0, 10.00281, 9.997088 
1.1503883e+2, 2.8533238e+2, 107143.61, -384442.47, 1671.4071, -0.0049694357, -0.1453206, 107149.3, 250877.4, 0.000000000026412617, 10.003296, 9.996781 
1.15044996e+2, 2.9532984e+2, 273903.34, -256958.02, 2909.169, 0.00020585285, -0.078831345, 273919.28, 319674.44, 0.0000008745259, 10.003784, 9.996749 
1.1505101e+2, 3.053256e+2, 379257.5, -208545.16, 11171.209, -0.019943066, -0.16338892, 379469.75, 379469.75, 0.000015739728, 10.004292, 9.996502 
1.1505736e+2, 3.153229e+2, 533604.5, -9511.651, 11146.12, -0.014677952, -0.08280045, 533833.2, 533833.2, 0.00006977689, 10.004816, 9.997617 
1.24938786e+2, 1.2533508e+2, -2259391.3, -1734126.4, -12454.301, 0.0066937543, -0.31586286, -1733831.3, -22145.213, 0.0, 9.995218, 10.002174 
1.2494586e+2, 1.3533732e+2, -2093423.8, -1606124.1, -13419.46, 0.022162031, -0.30775064, -1605754.9, 7909.7344, 0.0, 9.995696, 10.00215 
1.24952674e+2, 1.453393e+2, -1967621.8, -1563265.8, -22400.656, 0.028861752, -0.29325932, -1562028.5, -46382.44, 0.0, 9.9961815, 10.001535 
1.24959275e+2, 1.5534101e+2, -1799258.4, -1433800.1, -22171.53, 0.02456386, -0.27544287, -1432460.0, -14829.604, 0.0, 9.996675, 10.0015135 
1.2496585e+2, 1.653422e+2, -1676126.4, -1403671.6, -26482.734, 0.024749992, -0.2714081, -1401121.4, -81502.195, 0.0, 9.997191, 10.000798 
1.24972396e+2, 1.7534292e+2, -1501519.9, -1271688.0, -25716.81, 0.029037626, -0.2802552, -1268845.6, -47233.508, 0.0, 9.997729, 10.000772 
1.24978796e+2, 1.8534322e+2, -1384039.8, -1258378.6, -30986.965, 0.027850205, -0.2843884, -1251153.0, -127544.27, 0.0, 9.998268, 9.999931 
1.2498509e+2, 1.9534312e+2, -1209389.0, -1126611.8, -30786.416, 0.021800026, -0.28545976, -1116417.3, -90808.38, 0.0, 9.998808, 9.999903 
1.2499133e+2, 2.0534247e+2, -1099734.0, -1124339.5, -34008.895, 0.015425103, -0.29568115, -1075871.0, -148256.58, 0.0, 9.999325, 9.998997 
1.2499752e+2, 2.1534128e+2, -931479.9, -995765.6, -34118.883, 0.008841621, -0.3148529, -916747.75, -87122.86, 0.0, 9.999821, 9.998967 
1.2500377e+2, 2.2533971e+2, -827939.8, -999944.44, -33749.57, 0.0062226485, -0.32025263, -821554.75, -89914.37, 0.0, 10.00031, 9.99803 
1.2501007e+2, 2.3533778e+2, -660822.25, -870710.0, -34981.277, 0.0071490486, -0.31438994, -655145.56, -21485.264, 0.0, 10.000793, 9.998012 
1.250164e+2, 2.453358e+2, -536782.25, -832889.75, -32751.436, 0.008213176, -0.28099027, -533203.0, 2479.5542, 0.0, 10.001286, 9.997361 
1.2502275e+2, 2.5533372e+2, -366399.3, -700517.8, -31204.834, 0.009259037, -0.22449613, -363509.94, 74197.05, 0.0, 10.001785, 9.997357 
1.2502912e+2, 2.6533127e+2, -219419.31, -609083.25, -25776.2, 0.004215406, -0.1927382, -217721.63, 122012.81, 0.0, 10.002252, 9.9970875 
1.250355e+2, 2.7532846e+2, -58135.75, -481120.28, -25530.836, -0.006107016, -0.18353748, -56600.313, 185164.28, 0.0, 10.002688, 9.997083 
1.2504204e+2, 2.853258e+2, 90216.86, -389984.06, -19734.844, -0.0075460635, -0.14262475, 91026.54, 234819.34, 0.0, 10.003169, 9.996804 
1.2504871e+2, 2.9532328e+2, 261210.5, -260466.02, -19147.94, -0.001531878, -0.07553782, 261912.38, 307731.84, 0.0000006546641, 10.003686, 9.996772 
1.2505525e+2, 3.0531907e+2, 370587.34, -208600.0, -10986.307, -0.02023018, -0.16148934, 370795.66, 370795.66, 0.000013296215, 10.004214, 9.996538 
1.2506218e+2, 3.153164e+2, 525350.9, -11499.838, -12857.621, -0.009848614, -0.08103424, 525658.6, 525658.6, 0.000060961927, 10.004751, 9.997634 
1.3493408e+2, 1.2532772e+2, -2258950.5, -1733149.5, 5530.7734, 0.014056294, -0.3246122, -1733091.4, -21333.89, 0.0, 9.995217, 10.002182 
1.3494161e+2, 1.3533002e+2, -2092976.8, -1605078.1, 4581.1265, 0.027613444, -0.3127931, -1605035.1, 8700.52, 0.0, 9.995695, 10.002157 
1.349489e+2, 1.45332e+2, -1966838.6, -1561519.5, -3831.0222, 0.032782663, -0.2988512, -1561483.3, -45766.19, 0.0, 9.9961815, 10.001548 
1.3495597e+2, 1.553337e+2, -1798452.4, -1432040.5, -3555.056, 0.027332917, -0.28505248, -1432006.0, -14304.39, 0.0, 9.996675, 10.001526 
1.3496307e+2, 1.653349e+2, -1674394.0, -1400012.8, -6221.8716, 0.02686347, -0.28026637, -1399871.8, -80181.46, 0.0, 9.997191, 10.000824 
1.3497014e+2, 1.7533568e+2, -1499843.0, -1268162.4, -5450.892, 0.03094393, -0.28428015, -1268034.3, -46351.7, 0.0, 9.997729, 10.000796 
1.3497707e+2, 1.8533602e+2, -1383498.4, -1257240.1, -10658.759, 0.027466064, -0.28567797, -1256346.6, -132667.73, 0.0, 9.998268, 9.999939 
1.3498385e+2, 1.9533597e+2, -1208860.3, -1125536.9, -10507.966, 0.017279293, -0.28588006, -1124232.1, -98553.19, 0.0, 9.998808, 9.99991 
1.349906e+2, 2.0533529e+2, -1099923.4, -1124773.9, -15313.689, 0.010569376, -0.29607302, -1092628.3, -164943.63, 0.0, 9.999325, 9.998994 
1.3499731e+2, 2.1533409e+2, -931728.5, -996317.6, -15428.734, 0.0069654416, -0.315938, -928232.2, -98536.95, 0.0, 9.999821, 9.998963 
1.3500407e+2, 2.2533253e+2, -830177.75, -1004616.1, -15544.424, 0.005809628, -0.3187512, -828803.4, -97092.516, 0.0, 10.00031, 9.997998 
1.3501087e+2, 2.3533064e+2, -662890.8, -875025.9, -16758.387, 0.0068969163, -0.3073917, -661575.06, -27844.137, 0.0, 10.000793, 9.997982 
1.3501766e+2, 2.4532868e+2, -533988.75, -827105.06, -13966.037, 0.0070946827, -0.27323633, -533324.8, 2428.2427, 0.0, 10.001286, 9.997401 
1.350245e+2, 2.553266e+2, -363711.84, -694943.25, -12504.132, 0.006367783, -0.22011946, -363240.5, 74536.68, 0.0, 10.001785, 9.9973955 
1.3503134e+2, 2.6532415e+2, -219187.03, -608626.6, -9366.734, 0.00154123, -0.19028845, -218961.86, 120842.62, 0.0, 10.002252, 9.99709 
1.3503818e+2, 2.753213e+2, -57889.02, -480651.66, -9029.577, -0.006849007, -0.18177912, -57696.25, 184138.47, 0.0, 10.002688, 9.997086 
1.3504519e+2, 2.853187e+2, 91191.8, -387983.84, -317.0064, -0.008642416, -0.13965262, 91192.01, 235054.72, 0.0, 10.003169, 9.996819 
1.3505237e+2, 2.9531622e+2, 262107.23, -258565.88, 276.006, -0.005002323, -0.06959921, 262107.38, 307996.25, 0.0000004660869, 10.003686, 9.996785 
1.3505942e+2, 3.0531198e+2, 371604.13, -206409.16, 9139.57, -0.025397344, -0.15612783, 371748.6, 371748.6, 0.000011042311, 10.004213, 9.996553 
1.350669e+2, 3.1530935e+2, 524908.94, -12292.828, 6931.8643, -0.013207911, -0.07647821, 524998.4, 524998.4, 0.000052537256, 10.00475, 9.997629 
1.4492938e+2, 1.2531997e+2, -2254460.3, -1731137.9, -8423.296, 0.02122357, -0.33214787, -1731002.3, -19169.447, 0.0, 9.995249, 10.00218 
1.4493732e+2, 1.3532229e+2, -2091951.5, -1604688.5, -10004.604, 0.029424522, -0.31868473, -1604483.1, 9327.788, 0.0, 9.995703, 10.002156 
1.4494506e+2, 1.4532426e+2, -1965243.0, -1560422.1, -17738.553, 0.031032573, -0.30472624, -1559646.3, -43853.855, 0.0, 9.996191, 10.001551 
1.4495263e+2, 1.5532595e+2, -1793538.8, -1429441.0, -18210.102, 0.023672987, -0.29214725, -1428532.5, -10755.478, 0.0, 9.996707, 10.001528 
1.4496022e+2, 1.6532716e+2, -1669731.8, -1398789.6, -21690.588, 0.023001712, -0.28593266, -1397064.1, -77298.43, 0.0, 9.997228, 10.000814 
1.4496785e+2, 1.7532797e+2, -1497154.5, -1267803.4, -23630.982, 0.02840931, -0.28624758, -1265393.9, -43635.906, 0.0, 9.997752, 10.000788 
1.449753e+2, 1.8532833e+2, -1383240.4, -1253987.0, -29968.22, 0.025983451, -0.28633538, -1247376.8, -123622.57, 0.0, 9.998257, 9.999967 
1.4498262e+2, 1.953283e+2, -1216295.6, -1126157.5, -28384.578, 0.016593803, -0.28736052, -1117964.0, -92209.99, 0.0, 9.998744, 9.999936 
1.4498988e+2, 2.0532763e+2, -1112539.1, -1132708.3, -33416.605, 0.009991162, -0.2967097, -1087718.6, -159958.97, 0.0, 9.999247, 9.998977 
1.449971e+2, 2.1532644e+2, -941686.7, -1002914.75, -34620.98, 0.005881622, -0.31426382, -926085.6, -96315.26, 0.0, 9.999761, 9.998947 
1.4500433e+2, 2.2532487e+2, -837665.2, -1010026.44, -35148.297, 0.0037682215, -0.3156083, -830773.25, -98987.07, 0.0, 10.000267, 9.997982 
1.4501162e+2, 2.3532298e+2, -667936.6, -879130.4, -35183.09, 0.0034893728, -0.3034855, -662229.6, -28423.117, 0.0, 10.000767, 9.997967 
1.450189e+2, 2.4532102e+2, -537125.7, -827397.7, -33006.19, 0.0028812094, -0.26853037, -533419.94, 2408.7227, 0.0, 10.001259, 9.997412 
1.4502624e+2, 2.5531897e+2, -368777.5, -696148.5, -33788.41, 0.0018535309, -0.21452953, -365326.53, 72525.95, 0.0, 10.001745, 9.997406 
1.4503354e+2, 2.653165e+2, -222421.98, -608354.3, -32677.373, -0.0025797095, -0.18556827, -219674.7, 120204.96, 0.0, 10.002222, 9.997107 
1.4504084e+2, 2.7531365e+2, -56778.027, -478328.25, -31345.814, -0.009979484, -0.17955385, -54459.945, 187449.92, 0.0, 10.002688, 9.997102 
1.4504832e+2, 2.8531104e+2, 90119.42, -387782.25, -21009.186, -0.010941334, -0.13901028, 91041.234, 234979.03, 0.0, 10.003159, 9.996824 
1.45056e+2, 2.9530856e+2, 254284.73, -261588.14, -20956.732, -0.0066111716, -0.06967989, 255134.67, 301098.56, 0.00000031171322, 10.003629, 9.996792 
1.4506356e+2, 3.0530435e+2, 359979.44, -209712.9, -11040.5205, -0.026955275, -0.15740639, 360193.3, 360193.3, 0.000008961048, 10.004124, 9.996574 
1.450716e+2, 3.1530175e+2, 508448.3, -20387.205, -13237.623, -0.012481699, -0.07642587, 508779.47, 508779.47, 0.00004454509, 10.004638, 9.997627 
1.5492469e+2, 1.253118e+2, -2255335.3, -1732826.0, 8660.818, 0.028121766, -0.33833542, -1732682.4, -20770.166, 0.0, 9.995249, 10.002169 
1.54933e+2, 1.353141e+2, -2092801.6, -1606339.4, 7190.193, 0.0274374, -0.32538265, -1606233.1, 7657.427, 0.0, 9.995702, 10.002146 
1.5494117e+2, 1.4531608e+2, -1965855.6, -1561627.4, 1727.1255, 0.02340355, -0.3108476, -1561620.0, -45747.91, 0.0, 9.99619, 10.001543 
1.5494923e+2, 1.5531777e+2, -1794228.1, -1430869.3, 1257.6393, 0.013403766, -0.29664385, -1430865.0, -13008.298, 0.0, 9.996707, 10.001518 
1.5495735e+2, 1.6531898e+2, -1672927.4, -1405450.9, -1952.9147, 0.013025356, -0.2883255, -1405436.6, -85591.05, 0.0, 9.997228, 10.000769 
1.5496553e+2, 1.7531978e+2, -1500156.3, -1274070.6, -3939.7358, 0.021343641, -0.28611347, -1274002.0, -52163.58, 0.0, 9.997752, 10.000745 
1.5497354e+2, 1.8532012e+2, -1379969.0, -1247233.3, -11622.16, 0.0233603, -0.28634205, -1246223.4, -122388.734, 0.0, 9.998257, 10.000013 
1.5498139e+2, 1.9532011e+2, -1213187.8, -1119725.1, -9992.793, 0.019742653, -0.28989485, -1118668.6, -92834.69, 0.0, 9.998744, 9.999981 
1.5498915e+2, 2.053195e+2, -1114769.8, -1137363.1, -14054.705, 0.013702053, -0.2975963, -1108034.5, -180195.06, 0.0, 9.999246, 9.998945 
1.5499686e+2, 2.153183e+2, -943794.6, -1007321.75, -15264.1, 0.005585447, -0.30983445, -940317.4, -110467.04, 0.0, 9.999761, 9.998918 
1.5500456e+2, 2.2531673e+2, -837776.1, -1010285.3, -16345.058, 0.000089006964, -0.310816, -836241.1, -104374.74, 0.0, 10.000267, 9.99798 
1.550123e+2, 2.3531479e+2, -668067.56, -879422.94, -16387.535, -0.00307318, -0.3026529, -666804.5, -32917.49, 0.0, 10.000767, 9.997965 
1.5502009e+2, 2.4531282e+2, -538491.75, -830245.25, -14743.737, -0.004425011, -0.26686475, -537748.6, -1839.3789, 0.0, 10.001259, 9.997393 
1.5502791e+2, 2.553108e+2, -370046.34, -698768.4, -15529.599, -0.0042848405, -0.20774555, -369314.3, 68618.58, 0.0, 10.001745, 9.997388 
1.550357e+2, 2.6530835e+2, -220518.44, -604366.7, -15135.738, -0.008138953, -0.17860363, -219922.53, 120037.4, 0.0, 10.002221, 9.997134 
1.5504345e+2, 2.753055e+2, -54962.535, -474476.88, -13807.163, -0.015477896, -0.17686348, -54508.6, 187481.4, 0.0, 10.002688, 9.9971285 
1.5505144e+2, 2.8530282e+2, 89863.58, -388218.78, -3373.728, -0.014448539, -0.14064032, 89887.38, 233905.4, 0.0, 10.003158, 9.996822 
1.5505964e+2, 2.9530033e+2, 254103.77, -261870.8, -3253.1594, -0.0064214673, -0.07563261, 254124.28, 300168.66, 0.000000191647, 10.003629, 9.99679 
1.550677e+2, 3.052961e+2, 361608.97, -206262.69, 8201.685, -0.02505674, -0.1651542, 361727.4, 361727.4, 0.000007033754, 10.004124, 9.996598 
1.5507628e+2, 3.1529355e+2, 508444.5, -20362.076, 5633.545, -0.008020624, -0.08084452, 508504.5, 508504.5, 0.000037000555, 10.004638, 9.997628 
1.6492e+2, 1.253032e+2, -2245041.5, -1728393.9, -12192.902, 0.030456647, -0.34069654, -1728106.3, -16109.678, 0.0, 9.995321, 10.002164 
1.6492869e+2, 1.353055e+2, -2083100.6, -1602165.5, -13141.176, 0.023853635, -0.32558885, -1601806.8, 12168.106, 0.0, 9.995771, 10.002141 
1.6493733e+2, 1.4530748e+2, -1958192.5, -1557513.4, -16193.046, 0.018054605, -0.3106367, -1556860.0, -40903.703, 0.0, 9.996242, 10.001547 
1.649459e+2, 1.5530916e+2, -1791187.3, -1429094.4, -15810.347, 0.010164229, -0.29753074, -1428405.4, -10464.457, 0.0, 9.996727, 10.001521 
1.6495453e+2, 1.6531037e+2, -1675467.3, -1409624.1, -17359.8, 0.009699847, -0.2890972, -1408495.3, -88565.28, 0.0, 9.997223, 10.000743 
1.6496322e+2, 1.7531113e+2, -1505317.9, -1279389.5, -17953.734, 0.015996708, -0.28569815, -1277971.6, -56048.535, 0.0, 9.997729, 10.00072 
1.6497172e+2, 1.853115e+2, -1383206.5, -1248428.6, -27474.63, 0.018034432, -0.28571886, -1243043.1, -119123.56, 0.0, 9.998233, 10.000016 
1.6498008e+2, 1.9531146e+2, -1214212.1, -1119882.8, -29145.984, 0.016230829, -0.28992692, -1111603.8, -85684.914, 0.0, 9.998736, 9.999984 
1.6498837e+2, 2.0531084e+2, -1116451.4, -1140651.0, -33707.14, 0.011062201, -0.2964219, -1092738.1, -164813.78, 0.0, 9.999246, 9.998922 
1.6499658e+2, 2.1530966e+2, -945240.94, -1010409.44, -34268.79, 0.0030017586, -0.30584925, -930537.94, -100602.65, 0.0, 9.999761, 9.998896 
1.650048e+2, 2.2530808e+2, -839870.8, -1013236.8, -36514.305, -0.0026205885, -0.3063956, -832494.06, -100542.48, 0.0, 10.000261, 9.997962 
1.6501303e+2, 2.3530608e+2, -671974.25, -883115.06, -37802.63, -0.006084244, -0.2998571, -665410.1, -31437.48, 0.0, 10.000748, 9.997949 
1.6502129e+2, 2.4530412e+2, -543385.4, -831292.1, -36305.746, -0.0078983195, -0.2642045, -538877.7, -2882.8423, 0.0, 10.00122, 9.997404 
1.6502957e+2, 2.5530213e+2, -378822.6, -701683.44, -34802.008, -0.008367022, -0.20383063, -375113.78, 62904.438, 0.0, 10.001679, 9.997399 
1.6503783e+2, 2.6529968e+2, -233113.89, -609603.3, -34815.27, -0.012442993, -0.17516969, -229921.47, 110123.64, 0.0, 10.002131, 9.997141 
1.6504604e+2, 2.752968e+2, -70845.66, -481310.1, -35013.887, -0.019625552, -0.17554058, -67880.29, 174194.9, 0.0, 10.002576, 9.997135 
1.650545e+2, 2.8529412e+2, 72726.4, -396555.13, -24550.344, -0.017703775, -0.1421451, 74007.24, 218110.63, 0.0, 10.00304, 9.99682 
1.6506319e+2, 2.9529157e+2, 238599.61, -269248.2, -24237.57, -0.008164382, -0.08056565, 239753.75, 285883.75, 0.000000103903474, 10.003522, 9.996791 
1.6507177e+2, 3.0528736e+2, 350443.22, -207892.63, -10726.225, -0.025927566, -0.17145899, 350649.22, 350649.22, 0.0000052712203, 10.004031, 9.996632 
1.6508089e+2, 3.1528488e+2, 497845.0, -24533.521, -13026.401, -0.0060737208, -0.083865054, 498169.63, 498169.63, 0.00002992078, 10.00456, 9.997636 
1.749153e+2, 1.252941e+2, -2245064.5, -1728376.3, 4643.5566, 0.027959812, -0.33902666, -1728334.5, -16248.55, 0.0, 9.995321, 10.002165 
1.749244e+2, 1.3529646e+2, -2083044.8, -1602035.9, 3834.8252, 0.018561926, -0.31904927, -1602005.4, 12058.505, 0.0, 9.99577, 10.002142 
1.7493354e+2, 1.4529845e+2, -1957190.3, -1555441.5, 2035.8131, 0.0149721615, -0.3038637, -1555431.3, -39386.027, 0.0, 9.996241, 10.001561 
1.7494267e+2, 1.553001e+2, -1790225.9, -1427093.9, 2468.6313, 0.014051378, -0.2946741, -1427077.1, -9047.364, 0.0, 9.996726, 10.001535 
1.7495178e+2, 1.6530128e+2, -1676031.0, -1410786.0, 1668.5847, 0.013127755, -0.2881772, -1410775.5, -90756.56, 0.0, 9.997223, 10.000734 
1.7496091e+2, 1.7530204e+2, -1505944.8, -1280699.0, 1090.513, 0.012380249, -0.28497052, -1280693.8, -58681.55, 0.0, 9.997728, 10.000711 
1.7496988e+2, 1.8530238e+2, -1386136.4, -1254530.8, -8543.574, 0.009962977, -0.2844482, -1253978.4, -129969.5, 0.0, 9.998233, 9.999974 
1.7497872e+2, 1.9530232e+2, -1217039.6, -1125787.4, -10203.196, 0.006000137, -0.28743365, -1124660.4, -98651.74, 0.0, 9.998736, 9.999943 
1.7498752e+2, 2.0530169e+2, -1117410.3, -1142692.6, -14302.838, 0.0020197718, -0.29316854, -1110962.9, -182948.6, 0.0, 9.999246, 9.998909 
1.7499629e+2, 2.1530049e+2, -946208.75, -1012464.5, -14889.388, -0.00189822, -0.3023091, -943016.5, -112991.18, 0.0, 9.999761, 9.998881 
1.7500503e+2, 2.252989e+2, -842312.56, -1018343.2, -18201.756, -0.00438498, -0.30236256, -840450.2, -108408.336, 0.0, 10.000261, 9.997928 
1.7501378e+2, 2.3529689e+2, -674235.06, -887839.2, -19520.648, -0.0055837547, -0.2951221, -672465.8, -38402.414, 0.0, 10.000748, 9.997916 
1.7502251e+2, 2.4529491e+2, -540516.56, -825368.0, -19063.54, -0.007582973, -0.2605544, -539246.4, -3160.8362, 0.0, 10.00122, 9.997444 
1.7503123e+2, 2.5529292e+2, -376074.9, -696006.75, -17564.47, -0.010430652, -0.20274524, -375113.5, 62994.918, 0.0, 10.001679, 9.997438 
1.7503993e+2, 2.6529047e+2, -234110.97, -611693.56, -18164.54, -0.015525773, -0.17521422, -233239.13, 106896.03, 0.0, 10.002131, 9.997128 
1.7504859e+2, 2.752876e+2, -71848.18, -483360.78, -18312.32, -0.02246796, -0.17554598, -71034.88, 171130.52, 0.0, 10.002576, 9.997122 
1.7505752e+2, 2.8528488e+2, 72627.9, -396701.1, -6534.235, -0.02073381, -0.14349216, 72718.85, 216912.64, 0.0, 10.00304, 9.99682 
1.7506666e+2, 2.9528227e+2, 238638.92, -269109.84, -6130.7944, -0.011809086, -0.08444928, 238712.94, 284933.6, 0.00000004563321, 10.003521, 9.996792 
1.7507575e+2, 3.052781e+2, 353273.94, -201939.94, 9101.412, -0.02953492, -0.17629455, 353423.1, 353423.1, 0.0000037135492, 10.00403, 9.996673 
1.7508546e+2, 3.152757e+2, 498777.38, -22470.895, 6365.876, -0.006764053, -0.08561191, 498855.13, 498855.13, 0.000023354794, 10.0045595, 9.99765 
1.8491063e+2, 1.2528458e+2, -2253330.3, -1733512.5, -9904.297, 0.032217648, -0.33673996, -1733323.9, -21144.324, 0.0, 9.99527, 10.002154 
1.8492015e+2, 1.3528696e+2, -2080851.4, -1602066.4, -11501.89, 0.015384615, -0.31396663, -1601790.3, 12367.186, 0.0, 9.9957905, 10.002132 
1.8492974e+2, 1.4528894e+2, -1947386.9, -1550471.1, -13866.321, 0.009623836, -0.29868713, -1549987.3, -33848.47, 0.0, 9.996307, 10.001563 
1.8493941e+2, 1.5529057e+2, -1776870.8, -1420403.0, -14408.124, 0.0115874605, -0.2918265, -1419821.6, -1698.2133, 0.0, 9.996817, 10.001537 
1.8494903e+2, 1.6529174e+2, -1664229.5, -1406314.3, -16077.368, 0.010407061, -0.28606156, -1405316.0, -85203.336, 0.0, 9.99731, 10.000724 
1.849586e+2, 1.752925e+2, -1498532.3, -1278410.3, -16924.37, 0.006622395, -0.2821808, -1277116.6, -55010.613, 0.0, 9.997786, 10.000699 
1.8496805e+2, 1.8529281e+2, -1382892.3, -1258308.3, -26423.928, 0.0027835972, -0.28088328, -1252935.6, -128832.62, 0.0, 9.998279, 9.999927 
1.849774e+2, 1.9529273e+2, -1212863.8, -1128950.5, -28617.799, -0.0011592637, -0.28300154, -1120120.0, -94016.78, 0.0, 9.998787, 9.999897 
1.8498673e+2, 2.0529203e+2, -1113883.8, -1143332.5, -33572.62, -0.0041584033, -0.2892147, -1091948.5, -163839.23, 0.0, 9.99928, 9.998888 
1.8499601e+2, 2.1529081e+2, -947955.44, -1015635.44, -34773.516, -0.0062694633, -0.30006498, -933273.8, -103153.34, 0.0, 9.99976, 9.99886 
1.8500525e+2, 2.2528917e+2, -847906.1, -1024949.94, -38897.51, -0.007551918, -0.29990533, -839737.06, -107599.79, 0.0, 10.000239, 9.997892 
1.8501449e+2, 2.3528716e+2, -680424.8, -894511.44, -40280.156, -0.008063635, -0.29070652, -673097.0, -38937.86, 0.0, 10.000721, 9.997883 
1.8502368e+2, 2.4528517e+2, -542441.9, -823357.3, -41277.805, -0.009916489, -0.25678888, -536502.1, -320.75806, 0.0, 10.001194, 9.997471 
1.8503287e+2, 2.5528318e+2, -377194.4, -693670.06, -40914.664, -0.013094793, -0.20188197, -371990.44, 66213.62, 0.0, 10.001659, 9.997464 
1.8504201e+2, 2.6528072e+2, -238802.95, -612976.56, -42527.59, -0.017534273, -0.17556235, -234030.25, 106200.39, 0.0, 10.002095, 9.997135 
1.8505111e+2, 2.7527785e+2, -81833.46, -487213.63, -40946.69, -0.022893282, -0.17567976, -77738.87, 164521.88, 0.0, 10.002503, 9.997129 
1.850605e+2, 2.8527516e+2, 59914.516, -402691.06, -26271.412, -0.021290619, -0.14372303, 61401.688, 205690.8, 0.0, 10.002953, 9.996821 
1.8507011e+2, 2.952726e+2, 226642.27, -274504.72, -25682.912, -0.014087102, -0.084981844, 227955.03, 274271.1, 0.000000013949684, 10.003437, 9.996795 
1.850797e+2, 3.052684e+2, 342890.34, -201051.67, -8816.057, -0.03368414, -0.17641287, 343033.22, 343033.22, 0.0000024106344, 10.003934, 9.996725 
1.8508989e+2, 3.1526607e+2, 482533.3, -27551.793, -11183.918, -0.011017899, -0.08222451, 482778.4, 482778.4, 0.000017407217, 10.0044365, 9.997675 
1.9490601e+2, 1.2527463e+2, -2255178.8, -1737006.0, 9666.152, 0.043337997, -0.3337062, -1736825.8, -24548.256, 0.0, 9.995268, 10.0021305 
1.9491592e+2, 1.3527699e+2, -2082504.3, -1605378.3, 8152.796, 0.014355354, -0.3103187, -1605239.0, 9016.537, 0.0, 9.99579, 10.00211 
1.9492598e+2, 1.4527896e+2, -1948211.4, -1552199.1, 5282.5205, 0.0019277357, -0.2951054, -1552128.6, -35891.53, 0.0, 9.996307, 10.001552 
1.9493614e+2, 1.5528056e+2, -1777613.3, -1422014.6, 4729.817, 0.0026049523, -0.28895763, -1421951.8, -3729.8147, 0.0, 9.996817, 10.001527 
1.9494624e+2, 1.6528174e+2, -1665269.8, -1408561.4, 1803.7203, 0.0013797925, -0.28270316, -1408548.6, -88337.5, 0.0, 9.99731, 10.000709 
1.949563e+2, 1.7528251e+2, -1499597.0, -1280687.9, 1005.75806, -0.0013405529, -0.27727535, -1280683.3, -58478.76, 0.0, 9.997786, 10.000684 
1.9496626e+2, 1.8528278e+2, -1386756.9, -1266387.8, -7283.7837, -0.0035137564, -0.27497935, -1265948.6, -141746.89, 0.0, 9.998279, 9.999871 
1.9497615e+2, 1.9528264e+2, -1216598.1, -1136765.3, -9512.193, -0.005243228, -0.27660805, -1135647.5, -109444.914, 0.0, 9.998787, 9.999843 
1.9498596e+2, 2.0528188e+2, -1115940.9, -1147679.8, -15531.263, -0.0074684895, -0.28455216, -1109605.4, -181396.31, 0.0, 9.99928, 9.9988575 
1.9499573e+2, 2.1528059e+2, -949991.7, -1019928.1, -16723.451, -0.010121251, -0.29911593, -946198.44, -115977.664, 0.0, 9.99976, 9.998831 
1.9500545e+2, 2.2527893e+2, -850453.9, -1030300.0, -20770.969, -0.012130853, -0.29903245, -848086.2, -115848.29, 0.0, 10.00024, 9.997855 
1.9501513e+2, 2.3527691e+2, -682893.7, -899681.25, -22179.86, -0.013519365, -0.28662196, -680647.7, -46387.816, 0.0, 10.000721, 9.997848 
1.9502483e+2, 2.452749e+2, -541732.44, -821899.25, -23813.428, -0.014892893, -0.2529144, -539722.75, -3440.4866, 0.0, 10.001194, 9.99748 
1.950345e+2, 2.552729e+2, -376470.3, -692150.2, -23502.936, -0.016372135, -0.20124036, -374730.06, 63575.043, 0.0, 10.001659, 9.997475 
1.950441e+2, 2.6527044e+2, -236741.3, -608702.4, -27259.82, -0.018504743, -0.1762013, -234754.14, 105577.38, 0.0, 10.002095, 9.997165 
1.9505364e+2, 2.7526763e+2, -79772.5, -483031.06, -25607.83, -0.020964315, -0.17591809, -78152.85, 164208.31, 0.0, 10.002503, 9.997159 
1.9506346e+2, 2.8526494e+2, 60046.67, -402498.1, -8127.699, -0.019446073, -0.14282903, 60189.445, 204578.7, 0.0, 10.002953, 9.996822 
1.9507353e+2, 2.9526237e+2, 226861.19, -274011.88, -7479.941, -0.015058817, -0.082193226, 226972.86, 273388.97, 0.0000000023315327, 10.003437, 9.9967985 
1.9508357e+2, 3.0525824e+2, 347098.94, -192105.53, 9979.524, -0.038374458, -0.17189068, 347283.6, 347283.6, 0.0000014034579, 10.003933, 9.996787 
1.9509426e+2, 3.1525603e+2, 484504.22, -23012.78, 7154.074, -0.018807588, -0.07399463, 484605.06, 484605.06, 0.000012234985, 10.004435, 9.997707 
2.0490131e+2, 1.2526424e+2, -2242691.3, -1731781.0, -4724.1904, 0.043631833, -0.32829088, -1731737.4, -19357.47, 0.0, 9.9953575, 10.002124 
2.0491171e+2, 1.3526657e+2, -2066910.1, -1598730.9, -5054.528, 0.009581294, -0.30704385, -1598676.3, 15681.765, 0.0, 9.995901, 10.002102 
2.0492227e+2, 1.4526853e+2, -1934773.6, -1550783.3, -9881.413, -0.0051485403, -0.29139742, -1550529.1, -34189.29, 0.0, 9.996421, 10.001506 
2.0493294e+2, 1.5527011e+2, -1765833.3, -1421300.9, -13101.165, -0.0038572403, -0.282492, -1420803.4, -2478.3738, 0.0, 9.99692, 10.001482 
2.0494352e+2, 1.6527125e+2, -1655409.4, -1407985.3, -19620.83, -0.004758679, -0.27506915, -1406438.9, -86124.36, 0.0, 9.9973955, 10.00067 
2.0495406e+2, 1.7527197e+2, -1492711.4, -1281463.5, -22138.79, -0.007420897, -0.26994085, -1279168.3, -56860.094, 0.0, 9.99785, 10.000647 
2.049645e+2, 1.8527222e+2, -1382555.5, -1268559.3, -29299.518, -0.0083906995, -0.268191, -1261469.6, -137163.8, 0.0, 9.998325, 9.999833 
2.0497492e+2, 1.9527201e+2, -1214551.3, -1139878.3, -30292.7, -0.007876147, -0.27062368, -1129135.0, -102827.984, 0.0, 9.998819, 9.999806 
2.0498525e+2, 2.0527121e+2, -1113703.4, -1151126.0, -36608.688, -0.008712437, -0.2800863, -1091301.3, -162987.23, 0.0, 9.999315, 9.998817 
2.049955e+2, 2.1526986e+2, -944769.25, -1021728.4, -38733.684, -0.010744634, -0.29681244, -928650.5, -98324.2, 0.0, 9.999814, 9.998792 
2.0500569e+2, 2.2526816e+2, -846285.5, -1028780.0, -43334.434, -0.0126812905, -0.2977987, -836518.25, -104174.6, 0.0, 10.000271, 9.997851 
2.0501584e+2, 2.3526613e+2, -687801.4, -902541.94, -42323.99, -0.014507465, -0.28543058, -679760.7, -45395.098, 0.0, 10.0006895, 9.997843 
2.0502597e+2, 2.4526413e+2, -552314.7, -827494.6, -43243.387, -0.016217308, -0.25161108, -545679.1, -9291.13, 0.0, 10.001124, 9.997476 
2.0503609e+2, 2.552621e+2, -389674.8, -698947.56, -44062.438, -0.017926512, -0.19961506, -383519.7, 54891.293, 0.0, 10.001571, 9.997471 
2.0504615e+2, 2.652597e+2, -243004.31, -608385.25, -48735.063, -0.019426702, -0.17475563, -236615.66, 103821.59, 0.0, 10.002038, 9.997195 
2.0505615e+2, 2.7525687e+2, -74963.73, -477421.72, -47106.023, -0.020435566, -0.1751921, -69523.695, 172942.88, 0.0, 10.002522, 9.997188 
2.0506643e+2, 2.852542e+2, 63444.582, -398143.28, -28927.662, -0.018478455, -0.1422784, 65250.414, 209744.8, 0.0, 10.002964, 9.996846 
2.0507693e+2, 2.9525167e+2, 218419.84, -275197.63, -26591.42, -0.014577778, -0.0812367, 219848.2, 266369.2, 0.000000000097020676, 10.003366, 9.996824 
2.0508741e+2, 3.0524758e+2, 327782.06, -195383.34, -8242.016, -0.040829144, -0.170242, 327911.88, 327911.88, 0.0000007042908, 10.003774, 9.996841 
2.0509848e+2, 3.1524545e+2, 449685.16, -37248.355, -12134.881, -0.025522625, -0.06953566, 449987.38, 449987.38, 0.000007994477, 10.004185, 9.997729 
2.1489654e+2, 1.2525342e+2, -2242186.8, -1730669.9, 15617.111, 0.032511987, -0.32032657, -1730193.5, -17706.807, 0.0, 9.995357, 10.002131 
2.1490753e+2, 1.3525571e+2, -2066494.4, -1597907.5, 15342.648, 0.0008826569, -0.30412063, -1597405.6, 17059.307, 0.0, 9.995901, 10.002108 
2.1491861e+2, 1.4525762e+2, -1940460.5, -1562656.8, 8819.875, -0.011608877, -0.2875475, -1562451.0, -46003.91, 0.0, 9.996422, 10.001425 
2.149298e+2, 1.552592e+2, -1771437.0, -1433000.5, 5562.7476, -0.007755561, -0.27232325, -1432909.1, -14476.393, 0.0, 9.99692, 10.001402 
2.1494089e+2, 1.6526029e+2, -1659689.9, -1416945.4, -2541.6367, -0.007956536, -0.2630408, -1416918.8, -96495.89, 0.0, 9.9973955, 10.000609 
2.1495186e+2, 1.7526093e+2, -1496870.6, -1290162.8, -5017.718, -0.011595897, -0.26011434, -1290041.0, -67623.69, 0.0, 9.99785, 10.000587 
2.149628e+2, 1.8526112e+2, -1384026.9, -1271671.1, -10757.399, -0.011841885, -0.2604927, -1270650.5, -146235.16, 0.0, 9.998325, 9.999812 
2.1497372e+2, 1.9526087e+2, -1216017.3, -1142978.3, -11726.251, -0.009060954, -0.26504114, -1141141.8, -114725.1, 0.0, 9.998819, 9.999785 
2.1498455e+2, 2.0526002e+2, -1117381.5, -1158832.5, -17826.154, -0.007897351, -0.27582026, -1110769.9, -182345.7, 0.0, 9.999315, 9.998764 
2.1499532e+2, 2.1525861e+2, -948247.6, -1029025.75, -20026.79, -0.008154898, -0.29315567, -943555.06, -113117.99, 0.0, 9.999814, 9.998742 
2.15006e+2, 2.2525686e+2, -844376.3, -1024901.44, -27561.293, -0.009230037, -0.29619655, -840262.2, -107807.61, 0.0, 10.000271, 9.997878 
2.1501656e+2, 2.3525484e+2, -685984.8, -898874.6, -26538.781, -0.01107147, -0.28711277, -682726.4, -48250.094, 0.0, 10.00069, 9.997868 
2.1502711e+2, 2.4525283e+2, -553718.0, -830515.4, -26482.375, -0.013935173, -0.25287038, -551207.06, -14708.479, 0.0, 10.001124, 9.997456 
2.1503766e+2, 2.5525084e+2, -391037.53, -701853.75, -27252.496, -0.01779228, -0.19703194, -388666.1, 49855.5, 0.0, 10.001571, 9.997451 
2.1504818e+2, 2.6524845e+2, -241019.88, -604245.94, -30564.883, -0.020311452, -0.17125274, -238465.84, 102081.96, 0.0, 10.002037, 9.997224 
2.1505865e+2, 2.7524564e+2, -73064.27, -473336.88, -29021.994, -0.021291958, -0.1735015, -70970.96, 171605.95, 0.0, 10.0025215, 9.997216 
2.1506938e+2, 2.8524297e+2, 66461.81, -391683.8, -13894.911, -0.018397314, -0.14203493, 66882.836, 211487.25, 0.0, 10.002963, 9.996892 
2.1508032e+2, 2.952405e+2, 221494.39, -268640.66, -11553.678, -0.012720151, -0.0820197, 221766.58, 268397.2, 0.0, 10.0033655, 9.99687 
2.1509117e+2, 3.0523646e+2, 330789.84, -189019.13, 7047.168, -0.04113786, -0.17133069, 330885.38, 330885.38, 0.00000028677624, 10.003774, 9.996885 
2.151026e+2, 3.1523436e+2, 450439.84, -35608.82, 2758.2097, -0.0312853, -0.06887828, 450455.5, 450455.5, 0.0000047712674, 10.004184, 9.997742 
2.2489189e+2, 1.2524213e+2, -2226146.8, -1723409.8, -5474.9097, 0.026562614, -0.30644852, -1723350.1, -10751.424, 0.0, 9.995469, 10.002127 
2.2490343e+2, 1.3524437e+2, -2052812.3, -1591915.0, -6759.577, -0.0026092052, -0.29373854, -1591815.9, 22761.127, 0.0, 9.995997, 10.002102 
2.2491506e+2, 1.4524625e+2, -1931222.6, -1564646.1, -14179.272, -0.013562268, -0.2779131, -1564098.5, -47539.066, 0.0, 9.996512, 10.001367 
2.2492675e+2, 1.5524778e+2, -1761307.5, -1434490.5, -15787.26, -0.008635951, -0.26101723, -1433729.8, -15184.108, 0.0, 9.997017, 10.001345 
2.249383e+2, 1.652488e+2, -1648647.9, -1417923.6, -24501.898, -0.009132913, -0.25231078, -1415350.4, -94813.9, 0.0, 9.9974985, 10.000553 
2.2494972e+2, 1.7524934e+2, -1484786.8, -1290492.9, -26673.992, -0.014313411, -0.25201643, -1286897.5, -64365.875, 0.0, 9.99796, 10.000532 
2.2496113e+2, 1.8524946e+2, -1372852.3, -1269724.8, -32142.732, -0.014637114, -0.25461623, -1260526.9, -135996.78, 0.0, 9.998418, 9.999782 
2.2497255e+2, 1.9524917e+2, -1210648.1, -1143806.9, -33929.55, -0.010597605, -0.26102468, -1129602.4, -103070.76, 0.0, 9.998871, 9.999754 
2.2498389e+2, 2.0524828e+2, -1117597.4, -1164079.4, -39688.156, -0.007796824, -0.2721981, -1094846.0, -166306.56, 0.0, 9.999336, 9.998718 
2.2499517e+2, 2.1524683e+2, -951617.44, -1035550.6, -41498.875, -0.0060663614, -0.2886223, -934564.06, -104011.11, 0.0, 9.999812, 9.998698 
2.2500628e+2, 2.2524509e+2, -841561.0, -1020976.06, -50791.65, -0.0061694714, -0.29222423, -828180.06, -95609.445, 0.0, 10.000279, 9.9979 
2.250173e+2, 2.3524305e+2, -677402.6, -892192.94, -50083.355, -0.007986984, -0.28499237, -666298.56, -31706.494, 0.0, 10.000738, 9.99789 
2.2502828e+2, 2.4524106e+2, -545625.2, -823750.44, -48939.11, -0.011549572, -0.25148767, -537265.1, -651.0311, 0.0, 10.001167, 9.99748 
2.2503923e+2, 2.552391e+2, -389478.34, -698279.1, -46240.414, -0.016744433, -0.19527243, -382702.88, 55933.88, 0.0, 10.00157, 9.997476 
2.2505017e+2, 2.652367e+2, -248634.25, -605135.3, -47356.426, -0.019605799, -0.17057659, -242450.83, 98211.945, 0.0, 10.001973, 9.997249 
2.2506112e+2, 2.752339e+2, -92160.32, -479774.03, -46153.31, -0.020011403, -0.17534189, -86740.61, 155951.28, 0.0, 10.002378, 9.997241 
2.2507226e+2, 2.852313e+2, 44775.082, -397464.53, -32482.299, -0.017054064, -0.14388017, 47148.156, 191867.25, 0.0, 10.002794, 9.996933 
2.2508362e+2, 2.9522884e+2, 203127.16, -272749.4, -30418.543, -0.011765223, -0.08146876, 205063.67, 251808.33, 0.0, 10.00322, 9.996912 
2.2509485e+2, 3.0522487e+2, 316460.7, -190867.22, -11452.086, -0.042967573, -0.17138843, 316719.06, 316719.06, 0.00000008572978, 10.003654, 9.99693 
2.2510667e+2, 3.1522277e+2, 438484.25, -40107.418, -16129.387, -0.0382184, -0.07146613, 439027.22, 439027.22, 0.000002540607, 10.004096, 9.997752 
2.3488736e+2, 1.2523033e+2, -2227524.8, -1726229.6, 14169.224, 0.025890488, -0.2864394, -1725829.5, -13113.538, 0.0, 9.995468, 10.002109 
2.3489945e+2, 1.3523252e+2, -2054122.4, -1594617.4, 12924.932, -0.0007183775, -0.2755958, -1594254.1, 20440.229, 0.0, 9.995997, 10.002084 
2.3491159e+2, 1.4523436e+2, -1933723.1, -1569849.4, 4668.3975, -0.010875448, -0.2622651, -1569789.5, -53112.504, 0.0, 9.996512, 10.001331 
2.349238e+2, 1.5523583e+2, -1763740.0, -1439589.3, 3051.441, -0.0064285235, -0.24850342, -1439560.5, -20896.764, 0.0, 9.997017, 10.001309 
2.349358e+2, 1.6523677e+2, -1652325.4, -1425640.0, -7186.642, -0.008256124, -0.24288635, -1425412.4, -104757.14, 0.0, 9.9974985, 10.0005 
2.3494767e+2, 1.7523722e+2, -1488361.8, -1298018.5, -9364.919, -0.015561522, -0.24565873, -1297558.9, -74907.88, 0.0, 9.99796, 10.000481 
2.3495951e+2, 1.8523727e+2, -1375811.5, -1275961.9, -15107.4795, -0.016780214, -0.25056666, -1273726.1, -149076.16, 0.0, 9.998418, 9.999739 
2.3497139e+2, 1.9523694e+2, -1213531.8, -1149867.3, -16863.035, -0.01249964, -0.2585765, -1145676.5, -119024.6, 0.0, 9.998871, 9.999713 
2.349832e+2, 2.05236e+2, -1120471.5, -1170108.9, -21761.72, -0.008426435, -0.26922014, -1112282.0, -183621.94, 0.0, 9.999336, 9.998677 
2.3499498e+2, 2.1523455e+2, -954333.25, -1041262.25, -23570.248, -0.0044906833, -0.28321284, -948353.7, -117679.71, 0.0, 9.999812, 9.998659 
2.3500659e+2, 2.252328e+2, -840308.3, -1018452.56, -33518.14, -0.0035093077, -0.28589505, -834210.56, -101518.85, 0.0, 10.000279, 9.997918 
2.3501804e+2, 2.3523077e+2, -676050.94, -889464.2, -32870.223, -0.0052630533, -0.27910107, -671102.94, -36389.914, 0.0, 10.000738, 9.99791 
2.3502946e+2, 2.4522881e+2, -540700.2, -813604.56, -33879.996, -0.00907852, -0.24748607, -536557.0, 177.55757, 0.0, 10.001167, 9.997551 
2.3504081e+2, 2.5522688e+2, -384663.9, -688343.75, -31175.174, -0.014815161, -0.19432817, -381496.56, 57259.805, 0.0, 10.001569, 9.997544 
2.3505217e+2, 2.652245e+2, -247245.75, -602283.25, -32199.396, -0.017359992, -0.17268082, -244349.13, 96432.97, 0.0, 10.001973, 9.997268 
2.3506352e+2, 2.7522168e+2, -90773.6, -476906.88, -30983.123, -0.01666524, -0.18062924, -88303.336, 154508.1, 0.0, 10.002378, 9.997261 
2.3507509e+2, 2.852191e+2, 47306.547, -392178.34, -16603.34, -0.01449658, -0.14776647, 47932.914, 192771.23, 0.0, 10.002794, 9.99697 
2.3508683e+2, 2.9521677e+2, 205698.05, -267320.2, -14571.464, -0.011699131, -0.07963736, 206146.5, 253009.58, 0.0, 10.003219, 9.99695 
2.3509847e+2, 3.052128e+2, 319442.88, -184517.6, 5076.513, -0.04629017, -0.17044087, 319494.0, 319494.0, 0.000000016806371, 10.003653, 9.996974 
2.3511067e+2, 3.1521073e+2, 438914.88, -38934.523, -14.877566, -0.046406236, -0.077295355, 438914.88, 438914.88, 0.0000011714155, 10.004095, 9.997762 
2.4488287e+2, 1.25218e+2, -2208171.5, -1720826.9, -2115.9922, 0.02499545, -0.27098775, -1720817.8, -7979.84, 0.0, 9.995618, 10.002072 
2.4489549e+2, 1.3522014e+2, -2037721.5, -1590543.4, -4680.293, -0.00018760604, -0.26466238, -1590494.4, 24322.385, 0.0, 9.996126, 10.002049 
2.4490815e+2, 1.4522189e+2, -1920323.0, -1567600.5, -14525.978, -0.009828715, -0.25348014, -1567003.4, -50203.375, 0.0, 9.996623, 10.001293 
2.4492085e+2, 1.5522332e+2, -1752661.8, -1438392.5, -16477.996, -0.0054708933, -0.2397205, -1437530.9, -18743.863, 0.0, 9.997111, 10.001272 
2.4493337e+2, 1.6522421e+2, -1643431.1, -1426297.6, -27962.602, -0.006825308, -0.2348215, -1422754.5, -101975.51, 0.0, 9.9975815, 10.000456 
2.4494568e+2, 1.7522463e+2, -1480422.3, -1299055.1, -29598.102, -0.013149062, -0.23898384, -1294347.1, -71571.85, 0.0, 9.998036, 10.000437 
2.4495801e+2, 1.8522461e+2, -1367159.3, -1276559.9, -35024.305, -0.01378637, -0.24579588, -1264599.1, -139824.42, 0.0, 9.998498, 9.999696 
2.4497034e+2, 1.952242e+2, -1202623.8, -1149265.0, -36903.207, -0.009278784, -0.25618652, -1130407.1, -103630.09, 0.0, 9.998966, 9.999671 
2.449826e+2, 2.0522322e+2, -1110991.5, -1169714.1, -41849.355, -0.005777732, -0.26770705, -1089230.9, -160445.2, 0.0, 9.999419, 9.998639 
2.4499483e+2, 2.152217e+2, -950057.9, -1043192.3, -43449.58, -0.003170567, -0.28122118, -932935.44, -102135.5, 0.0, 9.999859, 9.998623 
2.4500689e+2, 2.2521996e+2, -836650.2, -1015531.06, -53902.273, -0.0029055926, -0.28140223, -821663.44, -88845.7, 0.0, 10.000299, 9.997928 
2.4501878e+2, 2.3521802e+2, -674846.8, -887529.94, -53857.65, -0.0048105726, -0.27019873, -661986.1, -27147.469, 0.0, 10.000741, 9.997921 
2.4503063e+2, 2.4521609e+2, -536489.44, -801934.44, -56551.652, -0.0082014715, -0.24041168, -524943.6, 11916.141, 0.0, 10.001155, 9.997637 
2.4504237e+2, 2.5521418e+2, -382367.34, -677728.2, -52635.35, -0.012979337, -0.19470763, -373267.7, 65613.3, 0.0, 10.001544, 9.997629 
2.4505414e+2, 2.6521182e+2, -249837.25, -599124.0, -52196.89, -0.014699803, -0.17590164, -242203.84, 98702.38, 0.0, 10.001937, 9.997307 
2.450659e+2, 2.7520904e+2, -94855.99, -474481.2, -49556.414, -0.013308624, -0.18255647, -88493.516, 154441.64, 0.0, 10.002332, 9.9973 
2.4507786e+2, 2.8520656e+2, 39684.84, -392372.97, -34355.125, -0.011945455, -0.14812566, 42399.53, 187361.19, 0.0, 10.002727, 9.997001 
2.4509e+2, 2.9520422e+2, 194029.5, -269231.4, -32790.582, -0.011295076, -0.07804375, 196338.97, 243325.05, 0.0, 10.003122, 9.996983 
2.4510202e+2, 3.052003e+2, 305538.1, -183825.42, -11887.068, -0.049061596, -0.16796662, 305826.66, 305826.66, 0.0000000018495133, 10.003526, 9.99704 
2.4511461e+2, 3.151983e+2, 417940.63, -45611.1, -15814.586, -0.05439382, -0.07509033, 418479.53, 418479.53, 0.00000045275593, 10.003937, 9.997791 
2.548785e+2, 1.2520516e+2, -2211951.3, -1728701.5, 16774.107, 0.023797505, -0.2602176, -1728120.0, -15155.3, 0.0, 9.995618, 10.002019 
2.548916e+2, 1.3520715e+2, -2041385.1, -1598181.1, 14223.238, -0.0011090538, -0.26119435, -1597725.3, 17219.379, 0.0, 9.996126, 10.001997 
2.5490478e+2, 1.4520887e+2, -1923294.0, -1573802.4, 3705.7476, -0.010521802, -0.25177988, -1573763.0, -56834.793, 0.0, 9.996623, 10.001251 
2.5491795e+2, 1.5521029e+2, -1755553.5, -1444427.8, 1742.1082, -0.0058369627, -0.23475705, -1444418.0, -25502.553, 0.0, 9.99711, 10.001231 
2.5493094e+2, 1.6521116e+2, -1646044.5, -1431763.5, -10922.437, -0.004866743, -0.22811875, -1431208.1, -110300.586, 0.0, 9.9975815, 10.000418 
2.5494376e+2, 1.7521152e+2, -1482983.0, -1304423.5, -12532.085, -0.0070310505, -0.23195201, -1303548.3, -80644.12, 0.0, 9.998036, 10.0004 
2.5495657e+2, 1.8521145e+2, -1370283.6, -1283116.4, -17430.994, -0.0055864546, -0.2402595, -1279759.9, -154855.83, 0.0, 9.998498, 9.999651 
2.549694e+2, 1.9521096e+2, -1205635.3, -1155614.0, -19314.293, -0.00089016615, -0.253824, -1149024.4, -122117.4, 0.0, 9.998966, 9.999627 
2.5498208e+2, 2.0520991e+2, -1113444.8, -1174890.0, -25303.125, 0.0001752179, -0.26764202, -1104366.3, -175450.08, 0.0, 9.999419, 9.998604 
2.549947e+2, 2.1520838e+2, -952432.5, -1048201.75, -26869.973, -0.002097008, -0.28264064, -945408.75, -114477.766, 0.0, 9.99986, 9.998589 
2.5500715e+2, 2.2520664e+2, -836505.94, -1015302.4, -37296.02, -0.0043560243, -0.27875918, -829038.06, -96089.414, 0.0, 10.000299, 9.99793 
2.550195e+2, 2.3520479e+2, -674585.4, -887015.8, -37287.973, -0.006621565, -0.25833413, -668230.4, -33261.29, 0.0, 10.000741, 9.997925 
2.5503176e+2, 2.4520288e+2, -529458.7, -787319.0, -41955.832, -0.008920857, -0.23029315, -522803.88, 14185.808, 0.0, 10.001155, 9.997737 
2.5504392e+2, 2.5520095e+2, -375430.06, -663268.8, -38040.684, -0.011266912, -0.19637364, -370487.5, 68523.086, 0.0, 10.001544, 9.997729 
2.550561e+2, 2.6519868e+2, -245890.98, -590852.6, -37436.04, -0.011659847, -0.18024081, -241875.08, 99160.02, 0.0, 10.001936, 9.997364 
2.5506824e+2, 2.7519602e+2, -90962.01, -466330.8, -34813.74, -0.009960496, -0.18124267, -87760.5, 155302.5, 0.0, 10.002331, 9.997356 
2.550806e+2, 2.8519353e+2, 41323.598, -388880.8, -19594.582, -0.00942097, -0.14506522, 42214.23, 187303.28, 0.0, 10.002727, 9.9970255 
2.550931e+2, 2.9519126e+2, 195737.61, -265488.13, -18072.486, -0.010586358, -0.0766751, 196444.67, 243558.2, 0.0, 10.003121, 9.997009 
2.5510553e+2, 3.0518743e+2, 311327.34, -171499.56, 3416.29, -0.051324353, -0.16406573, 311351.5, 311351.5, 0.000000000039700524, 10.003524, 9.997126 
2.5511846e+2, 3.1518555e+2, 421071.7, -38657.297, -904.0099, -0.06231861, -0.06562914, 421073.47, 421073.47, 0.00000014491832, 10.003934, 9.997841 
2.648742e+2, 1.251918e+2, -2166895.5, -1712012.9, -1027.9674, 0.017374147, -0.25535384, -1712010.6, 1085.7117, 0.0, 9.995949, 10.001974 
2.6488784e+2, 1.3519374e+2, -2010274.0, -1588109.6, -3050.2595, -0.0011872008, -0.25622314, -1588087.5, 26988.992, 0.0, 9.996361, 10.001952 
2.649015e+2, 1.451954e+2, -1903586.1, -1570213.3, -13687.545, -0.007428359, -0.24763398, -1569652.3, -52591.453, 0.0, 9.996784, 10.001198 
2.6491517e+2, 1.5519673e+2, -1743531.8, -1444428.8, -16584.53, -0.0024732186, -0.23223503, -1443512.0, -24463.38, 0.0, 9.997218, 10.001179 
2.649286e+2, 1.6519757e+2, -1636601.9, -1431327.0, -29949.541, -0.00073676073, -0.22513314, -1427046.6, -106005.52, 0.0, 9.997664, 10.000381 
2.649419e+2, 1.7519793e+2, -1473305.1, -1303826.8, -31641.729, -0.0016858972, -0.22660089, -1298112.0, -75074.125, 0.0, 9.99812, 10.000363 
2.6495516e+2, 1.8519782e+2, -1360723.6, -1283033.6, -35954.42, -0.000037191003, -0.23524538, -1268947.9, -143909.88, 0.0, 9.998584, 9.99961 
2.6496843e+2, 1.9519725e+2, -1195823.3, -1155269.3, -37650.168, 0.003939905, -0.25165555, -1132783.1, -105741.47, 0.0, 9.999053, 9.999588 
2.6498157e+2, 2.0519617e+2, -1104711.3, -1173425.3, -44792.207, 0.004860845, -0.26678997, -1082617.0, -153565.84, 0.0, 9.999492, 9.998579 
2.649946e+2, 2.1519458e+2, -947884.9, -1048604.9, -45635.758, 0.002969579, -0.2816783, -930283.5, -99217.16, 0.0, 9.999902, 9.998566 
2.6500747e+2, 2.2519289e+2, -836822.0, -1012396.44, -55702.29, 0.0004420768, -0.27602267, -820641.25, -87557.29, 0.0, 10.000285, 9.997957 
2.6502022e+2, 2.3519108e+2, -687022.56, -889860.56, -53804.4, -0.0027023335, -0.2522072, -673634.25, -38530.33, 0.0, 10.000643, 9.997953 
2.6503286e+2, 2.4518922e+2, -544052.1, -785698.3, -58857.277, -0.005720249, -0.2250794, -530478.8, 6645.23, 0.0, 10.001018, 9.997814 
2.6504543e+2, 2.551873e+2, -389619.72, -661509.5, -56711.9, -0.008639507, -0.19601138, -378264.72, 60879.65, 0.0, 10.00141, 9.997806 
2.6505798e+2, 2.651851e+2, -259661.56, -591847.9, -56570.07, -0.009832843, -0.18025039, -250292.16, 90876.1, 0.0, 10.001818, 9.997415 
2.6507056e+2, 2.7518252e+2, -100731.3, -465384.97, -54535.875, -0.009144127, -0.17754434, -92749.87, 150445.55, 0.0, 10.00224, 9.997407 
2.6508328e+2, 2.8518012e+2, 29857.457, -389336.25, -40081.176, -0.00943212, -0.14064598, 33655.406, 178876.4, 0.0, 10.002626, 9.99707 
2.6509616e+2, 2.9517782e+2, 178147.02, -268744.4, -37087.023, -0.011200433, -0.07412938, 181203.92, 228449.2, 0.0, 10.002978, 9.997056 
2.651089e+2, 3.0517408e+2, 290459.63, -172755.48, -14386.817, -0.05261948, -0.16095239, 290906.03, 290906.03, 0.0, 10.003343, 9.997204 
2.6512223e+2, 3.1517228e+2, 392805.28, -47619.824, -19641.852, -0.06633641, -0.061552394, 393679.5, 393679.5, 0.000000037775372, 10.00372, 9.997882 
2.7487e+2, 1.2517788e+2, -2169210.3, -1717403.4, 14197.08, 0.005312197, -0.25661275, -1716957.6, -3724.731, 0.0, 9.995952, 10.001936 
2.748842e+2, 1.3517988e+2, -2012706.5, -1593488.5, 12204.952, -0.0004694709, -0.24964263, -1593133.5, 22079.342, 0.0, 9.996362, 10.001915 
2.7489835e+2, 1.4518148e+2, -1908133.4, -1579796.3, 2503.4058, -0.00045748253, -0.24084832, -1579777.1, -62579.71, 0.0, 9.996784, 10.001132 
2.7491242e+2, 1.5518267e+2, -1748030.6, -1453819.6, -358.22797, 0.0046946276, -0.23215419, -1453819.3, -34632.645, 0.0, 9.997218, 10.001115 
2.7492633e+2, 1.6518345e+2, -1639323.6, -1436997.1, -12873.8545, 0.005600491, -0.22592343, -1436181.3, -115001.74, 0.0, 9.9976635, 10.000342 
2.7494007e+2, 1.7518382e+2, -1475946.9, -1309356.5, -14540.836, 0.00285198, -0.22292963, -1308096.8, -84920.61, 0.0, 9.99812, 10.000325 
2.7495375e+2, 1.8518369e+2, -1363385.9, -1288626.1, -18320.521, 0.0027958595, -0.2307256, -1284377.9, -159201.19, 0.0, 9.998584, 9.999572 
2.7496746e+2, 1.9518305e+2, -1198356.9, -1160610.6, -20036.86, 0.005157396, -0.24965699, -1151958.0, -124777.164, 0.0, 9.999053, 9.999552 
2.7498108e+2, 2.0518194e+2, -1105807.8, -1175778.0, -29352.797, 0.008242823, -0.26512966, -1095125.1, -165934.4, 0.0, 9.999492, 9.998563 
2.749946e+2, 2.1518035e+2, -948841.2, -1050669.9, -30210.666, 0.012011477, -0.27831993, -940552.9, -109346.86, 0.0, 9.999902, 9.998551 
2.7500787e+2, 2.2517867e+2, -833228.8, -1005016.75, -42255.71, 0.011464331, -0.2731606, -823397.56, -90174.03, 0.0, 10.000285, 9.998008 
2.7502096e+2, 2.3517689e+2, -683421.44, -882466.3, -40334.605, 0.0068949806, -0.25174677, -675558.56, -40315.41, 0.0, 10.000643, 9.998004 
2.7503398e+2, 2.451751e+2, -540369.7, -778117.2, -44149.363, 0.001353139, -0.22473781, -532435.94, 4826.8296, 0.0, 10.001018, 9.997867 
2.7504689e+2, 2.5517327e+2, -385935.7, -653874.56, -41994.414, -0.005111489, -0.1936881, -379508.03, 59774.34, 0.0, 10.00141, 9.997858 
2.7505982e+2, 2.6517108e+2, -256800.02, -585808.5, -40757.44, -0.009198825, -0.17602824, -251826.19, 89479.45, 0.0, 10.001817, 9.997457 
2.7507275e+2, 2.7516857e+2, -97928.59, -459289.2, -38783.785, -0.010803796, -0.17153262, -93812.92, 149519.4, 0.0, 10.002238, 9.997449 
2.7508587e+2, 2.8516623e+2, 34115.574, -380155.6, -26920.34, -0.011923633, -0.13491976, 35857.598, 181215.06, 0.0, 10.0026245, 9.997134 
2.750991e+2, 2.95164e+2, 182486.0, -259420.9, -24002.85, -0.013115646, -0.07044856, 183785.92, 231167.19, 0.0, 10.002977, 9.997121 
2.7511224e+2, 3.051603e+2, 295147.28, -162759.77, -334.24213, -0.05302097, -0.15858454, 295147.53, 295147.53, 0.0, 10.003342, 9.997273 
2.7512595e+2, 3.1515855e+2, 394951.84, -42956.87, -5939.6973, -0.066877626, -0.062369965, 395032.4, 395032.4, 0.00000000643165, 10.003718, 9.997914 
2.84866e+2, 1.2516353e+2, -2154936.3, -1716243.6, -7782.6157, 0.0033875604, -0.25341815, -1716105.6, -2731.5166, 0.0, 9.996074, 10.001884 
2.8488067e+2, 1.3516551e+2, -1995424.3, -1590675.1, -10904.789, 0.0034710618, -0.24196203, -1590381.5, 24972.639, 0.0, 9.996505, 10.001865 
2.8489527e+2, 1.4516705e+2, -1884753.9, -1570491.6, -18192.31, 0.00511636, -0.23423593, -1569442.0, -52102.94, 0.0, 9.996953, 10.001114 
2.8490975e+2, 1.5516818e+2, -1719932.9, -1442186.9, -17488.021, 0.007961828, -0.23166682, -1441090.1, -21761.39, 0.0, 9.997419, 10.001098 
2.849241e+2, 1.651689e+2, -1612421.3, -1429659.8, -28839.748, 0.008845754, -0.22768404, -1425216.9, -103894.76, 0.0, 9.997873, 10.000292 
2.8493834e+2, 1.7516923e+2, -1451107.3, -1302860.9, -31532.594, 0.008212224, -0.22335769, -1296432.6, -73113.41, 0.0, 9.998315, 10.000277 
2.8495246e+2, 1.8516906e+2, -1345502.6, -1283483.9, -36543.34, 0.008638318, -0.2306927, -1266566.3, -141246.25, 0.0, 9.998721, 9.99954 
2.849666e+2, 1.9516839e+2, -1194221.0, -1161864.6, -37828.746, 0.009948556, -0.24999438, -1136899.8, -109575.24, 0.0, 9.999096, 9.999522 
2.849806e+2, 2.0516728e+2, -1108932.1, -1176409.9, -47284.57, 0.012873201, -0.26435438, -1084583.6, -155249.06, 0.0, 9.999467, 9.99857 
2.849945e+2, 2.1516572e+2, -958001.4, -1054056.1, -46414.1, 0.017291497, -0.27502587, -939238.8, -107889.09, 0.0, 9.999835, 9.99856 
2.850082e+2, 2.2516409e+2, -838667.25, -1001616.6, -57878.586, 0.016268468, -0.26925853, -820201.7, -86834.76, 0.0, 10.000222, 9.998061 
2.850216e+2, 2.3516233e+2, -682064.44, -875832.06, -55796.883, 0.010180007, -0.24892321, -667145.94, -31759.754, 0.0, 10.000627, 9.998057 
2.8503498e+2, 2.4516058e+2, -539601.3, -772896.44, -60305.27, 0.004124157, -0.22155368, -524934.9, 12470.422, 0.0, 10.001002, 9.99791 
2.8504828e+2, 2.551588e+2, -391213.2, -651492.94, -58864.063, -0.0018971345, -0.18877903, -378519.72, 60904.55, 0.0, 10.001352, 9.997902 
2.8506157e+2, 2.651567e+2, -270876.5, -587054.3, -57372.42, -0.0076398347, -0.1716784, -260787.84, 80659.3, 0.0, 10.001697, 9.997506 
2.8507486e+2, 2.751542e+2, -123989.9, -466227.78, -54924.605, -0.012896857, -0.16995029, -115391.27, 128082.32, 0.0, 10.002035, 9.997499 
2.8508833e+2, 2.851519e+2, 5304.87, -387441.16, -43434.96, -0.015603778, -0.1330585, 10051.115, 155549.3, 0.0, 10.0023985, 9.997192 
2.8510192e+2, 2.9514974e+2, 158479.0, -264302.4, -40971.06, -0.016394379, -0.06523045, 162412.83, 209933.95, 0.0, 10.002784, 9.99718 
2.8511548e+2, 3.0514613e+2, 276503.53, -164144.9, -16624.49, -0.053997714, -0.15444617, 277129.84, 277129.84, 0.0, 10.0031805, 9.997341 
2.8512958e+2, 3.1514433e+2, 378404.34, -47439.223, -22725.283, -0.066576794, -0.066821486, 379613.66, 379613.66, 0.00000000043435586, 10.003591, 9.997946 
2.9486215e+2, 1.251487e+2, -2159698.3, -1726115.4, 8139.704, 0.012015599, -0.24544549, -1725962.6, -12442.693, 0.0, 9.996074, 10.001817 
2.9487723e+2, 1.3515063e+2, -1999915.3, -1600080.1, 5053.1035, 0.0107256, -0.23303339, -1600016.3, 15484.467, 0.0, 9.996505, 10.0018015 
2.9489225e+2, 1.4515214e+2, -1882525.1, -1566022.9, -847.59906, 0.00917428, -0.2277303, -1566020.6, -48534.746, 0.0, 9.996954, 10.001145 
2.9490715e+2, 1.5515324e+2, -1717695.1, -1437765.9, -87.59965, 0.007131028, -0.23069361, -1437765.9, -18290.754, 0.0, 9.99742, 10.001127 
2.9492196e+2, 1.651539e+2, -1616814.3, -1439001.8, -12329.345, 0.00883466, -0.23037626, -1438150.9, -116682.08, 0.0, 9.997873, 10.000228 
2.949367e+2, 1.7515415e+2, -1455406.9, -1311979.8, -15041.288, 0.014362942, -0.22792964, -1310419.4, -86952.6, 0.0, 9.998315, 10.000214 
2.9495126e+2, 1.8515393e+2, -1347227.5, -1287221.8, -22528.135, 0.017522834, -0.23520793, -1279705.4, -154237.25, 0.0, 9.998722, 9.999515 
2.9496577e+2, 1.9515327e+2, -1195847.1, -1165318.0, -23780.484, 0.018344717, -0.252681, -1152324.5, -124851.63, 0.0, 9.999096, 9.999498 
2.949801e+2, 2.0515217e+2, -1106842.9, -1172120.3, -33438.17, 0.018771997, -0.2644545, -1092754.8, -163272.02, 0.0, 9.999467, 9.9986 
2.9499435e+2, 2.151507e+2, -955823.7, -1049616.1, -32511.03, 0.018812804, -0.2717876, -945656.56, -114159.21, 0.0, 9.999835, 9.99859 
2.9500836e+2, 2.2514911e+2, -834820.5, -993697.2, -42675.313, 0.014867754, -0.26431817, -824083.3, -90569.164, 0.0, 10.000222, 9.998116 
2.950222e+2, 2.3514742e+2, -678285.44, -868004.8, -40627.39, 0.007199622, -0.24375598, -669951.4, -34418.52, 0.0, 10.000626, 9.998111 
2.9503596e+2, 2.4514572e+2, -537347.2, -768188.44, -47197.04, 0.002623416, -0.21556169, -528070.25, 9481.254, 0.0, 10.001002, 9.997942 
2.9504964e+2, 2.55144e+2, -388940.6, -646695.25, -45758.375, 0.0009791789, -0.18133922, -381058.3, 58511.723, 0.0, 10.001351, 9.997935 
2.950633e+2, 2.6514187e+2, -267101.6, -579113.25, -44699.887, -0.0051842853, -0.16718836, -260824.03, 80768.625, 0.0, 10.001696, 9.9975605 
2.9507688e+2, 2.7513936e+2, -120181.695, -458220.34, -42243.164, -0.015420116, -0.1726473, -114982.72, 128636.42, 0.0, 10.002035, 9.997555 
2.9509068e+2, 2.8513715e+2, 8871.097, -379904.3, -29033.688, -0.020452516, -0.13494967, 11027.369, 156670.45, 0.0, 10.002398, 9.997245 
2.9510468e+2, 2.9513514e+2, 162059.34, -256672.52, -26632.594, -0.021007903, -0.058544863, 163746.47, 211411.22, 0.0, 10.002782, 9.997233 
2.9511866e+2, 3.0513152e+2, 280815.16, -154915.3, -1359.5406, -0.05555766, -0.14858925, 280819.4, 280819.4, 0.0, 10.00318, 9.997405 
2.9513317e+2, 3.1512967e+2, 380107.28, -43522.73, -7776.8774, -0.06569094, -0.0748421, 380250.0, 380250.0, 0.0, 10.003589, 9.997973 
3.0485833e+2, 1.2513344e+2, -2126355.0, -1717035.9, -6370.1646, 0.013360021, -0.23984566, -1716936.8, -3267.064, 0.0, 9.996333, 10.001754 
3.0487388e+2, 1.3513526e+2, -1965918.0, -1590445.8, -9194.284, 0.012589748, -0.23098508, -1590220.8, 25430.813, 0.0, 9.996768, 10.00174 
3.0488932e+2, 1.4513673e+2, -1849625.5, -1549945.8, -16335.801, 0.010792761, -0.2273835, -1549057.9, -31420.832, 0.0, 9.997179, 10.001146 
3.0490467e+2, 1.5513784e+2, -1696095.1, -1427033.0, -17869.291, 0.007844452, -0.23026153, -1425851.5, -6225.511, 0.0, 9.997567, 10.00113 
3.0491993e+2, 1.6513847e+2, -1604213.5, -1435232.0, -29533.113, 0.011251222, -0.23218857, -1430219.1, -108599.37, 0.0, 9.997971, 10.000207 
3.049351e+2, 1.7513864e+2, -1446315.1, -1309799.9, -29056.451, 0.020908173, -0.23418778, -1303872.8, -80254.445, 0.0, 9.998387, 10.000194 
3.0495012e+2, 1.851384e+2, -1339538.3, -1286386.5, -36910.62, 0.025525734, -0.24148254, -1267479.8, -141859.69, 0.0, 9.998787, 9.999489 
3.0496496e+2, 1.9513774e+2, -1186589.9, -1163517.4, -38268.074, 0.025273383, -0.25479957, -1135084.5, -107459.65, 0.0, 9.999171, 9.999475 
3.0497965e+2, 2.0513669e+2, -1096466.9, -1164131.6, -49335.51, 0.02383678, -0.26402232, -1070477.6, -140843.05, 0.0, 9.999525, 9.998627 
3.049942e+2, 2.1513523e+2, -951533.9, -1044485.25, -48688.527, 0.021271342, -0.27030158, -930700.1, -99051.11, 0.0, 9.999852, 9.998618 
3.050086e+2, 2.2513372e+2, -837811.9, -990735.9, -58815.086, 0.016164567, -0.26017705, -817808.06, -84142.734, 0.0, 10.000183, 9.998155 
3.0502278e+2, 2.3513211e+2, -691252.6, -869815.2, -57956.777, 0.008694434, -0.23535296, -674090.75, -38407.277, 0.0, 10.000518, 9.998151 
3.050369e+2, 2.4513046e+2, -553674.25, -768727.25, -64718.426, 0.0043602586, -0.20654471, -535700.06, 2001.5382, 0.0, 10.000858, 9.998008 
3.0505094e+2, 2.5512877e+2, -405864.06, -647490.1, -60875.28, 0.0030039046, -0.17513713, -391393.72, 48325.92, 0.0, 10.0012045, 9.998001 
3.0506492e+2, 2.6512668e+2, -283667.78, -581614.8, -58784.406, -0.003922083, -0.16358982, -272489.13, 69252.74, 0.0, 10.001558, 9.997609 
3.0507883e+2, 2.751242e+2, -133134.05, -458952.94, -56847.625, -0.015938113, -0.17152826, -123500.336, 120267.7, 0.0, 10.001923, 9.997603 
3.05093e+2, 2.85122e+2, -4846.393, -382140.72, -43633.707, -0.022296924, -0.13439322, 134.05699, 145925.64, 0.0, 10.002284, 9.997284 
3.0510733e+2, 2.9512006e+2, 144861.44, -260496.0, -42292.598, -0.023706958, -0.056539062, 149226.98, 197039.77, 0.0, 10.0026455, 9.9972725 
3.051217e+2, 3.0511653e+2, 261477.73, -158180.1, -16926.537, -0.05766856, -0.14397663, 262159.34, 262159.34, 0.0, 10.00302, 9.997459 
3.0513662e+2, 3.151147e+2, 355148.9, -53623.363, -24401.545, -0.0692602, -0.0713477, 356600.4, 356600.4, 0.0, 10.003408, 9.997991 
3.1485462e+2, 1.2511773e+2, -2130282.8, -1725632.0, 9763.977, 0.006777275, -0.23669542, -1725396.5, -11573.065, 0.0, 9.996334, 10.001695 
3.1487057e+2, 1.3511942e+2, -1969758.4, -1598852.5, 6973.62, 0.008661685, -0.23612036, -1598721.4, 17085.34, 0.0, 9.996769, 10.001682 
3.1488648e+2, 1.4512083e+2, -1851557.3, -1554275.4, -1915.4254, 0.009769556, -0.23347616, -1554263.0, -36470.348, 0.0, 9.99718, 10.001117 
3.1490222e+2, 1.5512198e+2, -1698002.4, -1431117.9, -3415.4973, 0.010071125, -0.23039305, -1431074.1, -11292.89, 0.0, 9.997568, 10.001102 
3.1491792e+2, 1.6512258e+2, -1602642.1, -1432003.1, -13973.855, 0.016124042, -0.23305908, -1430866.4, -109091.414, 0.0, 9.997971, 10.000229 
3.1493354e+2, 1.7512272e+2, -1444732.0, -1306547.1, -13449.108, 0.027829833, -0.24215254, -1305250.4, -81476.62, 0.0, 9.998387, 10.0002165 
3.1494895e+2, 1.8512246e+2, -1341461.1, -1290457.3, -22501.107, 0.032609057, -0.24955581, -1281949.6, -156174.1, 0.0, 9.998787, 9.999461 
3.1496418e+2, 1.9512185e+2, -1188388.6, -1167353.8, -23858.068, 0.030700833, -0.2563481, -1151797.8, -124017.28, 0.0, 9.999171, 9.999448 
3.1497923e+2, 2.0512082e+2, -1094894.4, -1160978.4, -37077.844, 0.028041458, -0.26303977, -1078272.1, -148481.94, 0.0, 9.999526, 9.998649 
3.1499407e+2, 2.1511939e+2, -949933.94, -1041279.9, -36397.023, 0.024653709, -0.27055725, -937205.2, -105400.6, 0.0, 9.999852, 9.99864 
3.150088e+2, 2.2511792e+2, -836220.9, -987526.56, -46208.848, 0.020134157, -0.2568454, -823224.94, -89404.37, 0.0, 10.000183, 9.998177 
3.1502333e+2, 2.351164e+2, -689621.7, -866467.6, -45340.137, 0.014607732, -0.22375979, -678674.9, -42836.84, 0.0, 10.000518, 9.998174 
3.1503782e+2, 2.4511483e+2, -546996.4, -754834.06, -51776.65, 0.009295889, -0.19452344, -534812.06, 3043.483, 0.0, 10.000858, 9.998103 
3.1505212e+2, 2.5511318e+2, -399218.1, -633622.44, -47940.27, 0.0041982997, -0.17011833, -389792.4, 50080.645, 0.0, 10.001204, 9.998096 
3.1506646e+2, 2.6511112e+2, -280886.03, -575714.7, -45202.473, -0.0038524654, -0.16087358, -274111.38, 67783.3, 0.0, 10.001558, 9.99765 
3.1508076e+2, 2.751087e+2, -130389.88, -453049.97, -43285.75, -0.014544592, -0.16672578, -124683.89, 119236.336, 0.0, 10.001921, 9.997645 
3.1509528e+2, 2.8510654e+2, -3331.365, -378744.25, -30172.082, -0.021264255, -0.13144322, -921.88727, 145021.73, 0.0, 10.002283, 9.997308 
3.1510997e+2, 2.9510456e+2, 146436.19, -256970.67, -28843.47, -0.02459648, -0.05899274, 148488.05, 196453.14, 0.0, 10.002644, 9.997297 
3.151247e+2, 3.051011e+2, 264242.44, -152159.06, -2432.6082, -0.060314648, -0.1406098, 264256.66, 264256.66, 0.0, 10.003019, 9.997501 
3.1513992e+2, 3.1509945e+2, 355281.78, -53028.848, -10114.829, -0.07728961, -0.05748469, 355532.2, 355532.2, 0.0, 10.0034075, 9.997995 
3.2485107e+2, 1.2510157e+2, -2094273.1, -1716312.3, -4795.095, 0.007433615, -0.24091484, -1716251.4, -2269.868, 0.0, 9.996616, 10.001622 
3.2486746e+2, 1.351032e+2, -1940592.9, -1592672.1, -8634.092, 0.009270073, -0.23874742, -1592458.0, 23507.508, 0.0, 9.997004, 10.001612 
3.2488373e+2, 1.4510456e+2, -1824307.0, -1544194.8, -19275.816, 0.010360019, -0.23604739, -1542874.6, -24922.518, 0.0, 9.99738, 10.001089 
3.2489988e+2, 1.5510565e+2, -1673743.1, -1422263.9, -20657.082, 0.010716909, -0.23443721, -1420578.4, -637.33954, 0.0, 9.997746, 10.001077 
3.2491595e+2, 1.6510628e+2, -1578281.5, -1416449.9, -29946.541, 0.017681433, -0.23771936, -1411086.1, -89151.48, 0.0, 9.998121, 10.000263 
3.24932e+2, 1.7510644e+2, -1425340.9, -1293346.8, -28653.463, 0.031123258, -0.24658684, -1287395.0, -63462.152, 0.0, 9.998504, 10.000251 
3.2494777e+2, 1.851062e+2, -1331667.8, -1288675.4, -38638.367, 0.03601754, -0.25250694, -1265956.1, -140021.45, 0.0, 9.998867, 9.999434 
3.249634e+2, 1.951056e+2, -1184173.5, -1168102.6, -39981.355, 0.032640494, -0.256614, -1135357.1, -107417.23, 0.0, 9.999212, 9.999423 
3.2497874e+2, 2.0510459e+2, -1092822.3, -1157289.5, -55317.234, 0.029421765, -0.26023477, -1061032.5, -131082.73, 0.0, 9.999529, 9.9986725 
3.2499394e+2, 2.151032e+2, -953364.44, -1040177.2, -54541.734, 0.026346238, -0.2642834, -927064.94, -95101.2, 0.0, 9.999817, 9.998665 
3.2500893e+2, 2.2510177e+2, -843854.0, -985103.7, -62976.703, 0.023433467, -0.24958085, -819853.6, -85874.35, 0.0, 10.000105, 9.998231 
3.2502386e+2, 2.3510031e+2, -704246.7, -867396.0, -59707.87, 0.020773984, -0.21781458, -684730.06, -48733.656, 0.0, 10.000392, 9.998228 
3.2503864e+2, 2.4509878e+2, -563123.9, -754573.7, -64501.742, 0.015306192, -0.18995434, -543420.3, -5406.978, 0.0, 10.000713, 9.998175 
3.2505327e+2, 2.5509718e+2, -413878.97, -632629.3, -62518.477, 0.007146168, -0.16693482, -397272.06, 42758.125, 0.0, 10.001068, 9.998168 
3.2506794e+2, 2.650952e+2, -298850.3, -580246.2, -60786.71, -0.00360164, -0.15623702, -286280.72, 55770.434, 0.0, 10.001417, 9.997687 
3.2508254e+2, 2.7509287e+2, -151324.89, -458948.34, -59256.848, -0.01669202, -0.15799643, -140305.13, 103770.96, 0.0, 10.00176, 9.997682 
3.250974e+2, 2.8509068e+2, -25535.521, -385694.34, -45599.133, -0.024501309, -0.12415708, -19851.977, 126247.34, 0.0, 10.002115, 9.997341 
3.251125e+2, 2.9508868e+2, 125229.47, -263336.63, -43656.93, -0.027602695, -0.058255196, 130074.09, 178195.16, 0.0, 10.002481, 9.997332 
3.251276e+2, 3.0508533e+2, 244893.19, -155067.17, -15597.844, -0.0617132, -0.13621505, 245500.55, 245500.55, 0.0, 10.002859, 9.997559 
3.2514322e+2, 3.1508377e+2, 332623.56, -61776.45, -22446.72, -0.07961212, -0.046606336, 333896.97, 333896.97, 0.0, 10.0032425, 9.998014 
3.3484775e+2, 1.2508492e+2, -2100075.8, -1728886.8, 9516.403, 0.01557903, -0.25304097, -1728642.9, -14498.846, 0.0, 9.996618, 10.001535 
3.348645e+2, 1.3508658e+2, -1946398.9, -1605088.5, 5724.3745, 0.014562524, -0.23879749, -1604992.5, 11135.679, 0.0, 9.9970045, 10.001526 
3.3488113e+2, 1.450879e+2, -1826038.3, -1548057.8, -5683.6733, 0.012581256, -0.23491108, -1547941.5, -29826.324, 0.0, 9.997381, 10.001062 
3.348976e+2, 1.5508887e+2, -1675388.1, -1425895.6, -7015.1563, 0.009663248, -0.24254674, -1425698.5, -5593.1895, 0.0, 9.997747, 10.001051 
3.3491406e+2, 1.6508949e+2, -1575124.6, -1410059.0, -15678.322, 0.015758453, -0.24636672, -1408583.0, -86484.19, 0.0, 9.998121, 10.000307 
3.3493048e+2, 1.7508978e+2, -1422162.3, -1286879.9, -14347.704, 0.030656617, -0.24744453, -1285375.0, -61279.348, 0.0, 9.998505, 10.000295 
3.3494663e+2, 1.8508959e+2, -1333497.8, -1292605.0, -25719.695, 0.035650004, -0.25021634, -1280194.8, -154097.66, 0.0, 9.998868, 9.999408 
3.3496255e+2, 1.9508892e+2, -1185923.9, -1171838.5, -27041.408, 0.031022564, -0.25557056, -1150937.8, -122834.375, 0.0, 9.999212, 9.999397 
3.3497825e+2, 2.0508794e+2, -1091078.8, -1153786.0, -44502.66, 0.027934844, -0.25562492, -1067994.0, -137880.88, 0.0, 9.999529, 9.998696 
3.3499372e+2, 2.1508668e+2, -951558.25, -1036558.44, -43695.418, 0.026325215, -0.2514961, -933103.06, -100976.65, 0.0, 9.999817, 9.99869 
3.3500907e+2, 2.250853e+2, -837843.4, -972755.7, -52196.65, 0.026045704, -0.23835608, -820007.0, -85865.414, 0.0, 10.000105, 9.998316 
3.350243e+2, 2.3508382e+2, -698266.7, -855120.5, -48911.418, 0.027173582, -0.21741527, -684264.6, -48106.17, 0.0, 10.000392, 9.998312 
3.350394e+2, 2.4508232e+2, -559861.7, -747906.5, -51189.43, 0.022359917, -0.19274907, -546830.06, -8655.106, 0.0, 10.000713, 9.99822 
3.3505437e+2, 2.550808e+2, -410616.28, -625892.2, -49239.387, 0.011794204, -0.1655783, -399888.5, 40302.504, 0.0, 10.001068, 9.998215 
3.3506933e+2, 2.6507893e+2, -296736.84, -575823.94, -48001.75, -0.0031750405, -0.1497417, -288711.53, 53499.742, 0.0, 10.001416, 9.997718 
3.3508426e+2, 2.7507666e+2, -149217.08, -454462.84, -46482.953, -0.022271464, -0.14548378, -142295.58, 101939.97, 0.0, 10.001759, 9.997713 
3.3509946e+2, 2.8507453e+2, -22844.967, -379939.72, -31890.375, -0.031884596, -0.112704106, -20019.354, 126239.26, 0.0, 10.002113, 9.997381 
3.351149e+2, 2.9507247e+2, 127956.64, -257478.19, -29931.7, -0.03268038, -0.05447534, 130267.195, 178547.78, 0.0, 10.0024805, 9.997373 
3.3513045e+2, 3.0506918e+2, 249580.42, -145102.1, -1256.2695, -0.06198471, -0.13085476, 249584.42, 249584.42, 0.0, 10.002857, 9.997627 
3.351465e+2, 3.1506774e+2, 334575.06, -57435.2, -8234.576, -0.07687146, -0.039219737, 334747.97, 334747.97, 0.0, 10.003241, 9.998045 
3.4484452e+2, 1.2506792e+2, -2074975.4, -1725149.8, -7759.413, 0.020251375, -0.257659, -1724977.8, -10667.442, 0.0, 9.996827, 10.00146 
3.448616e+2, 1.3506952e+2, -1924837.8, -1602922.1, -10723.674, 0.016804688, -0.24260841, -1602565.3, 13729.897, 0.0, 9.997189, 10.0014515 
3.4487858e+2, 1.450708e+2, -1802678.4, -1537306.3, -21571.781, 0.013427156, -0.2380462, -1535564.1, -17281.494, 0.0, 9.997543, 10.001058 
3.4489542e+2, 1.5507178e+2, -1654380.6, -1416138.1, -21305.805, 0.010140223, -0.24505313, -1414247.8, 6024.9287, 0.0, 9.997893, 10.001047 
3.4491223e+2, 1.650724e+2, -1557839.4, -1401054.3, -30586.1, 0.016153047, -0.24794969, -1395298.8, -73032.6, 0.0, 9.998238, 10.000312 
3.44929e+2, 1.7507271e+2, -1411085.5, -1280731.5, -32251.092, 0.031262286, -0.24786279, -1273188.8, -48926.02, 0.0, 9.998577, 10.000301 
3.449455e+2, 1.8507253e+2, -1330781.6, -1291171.8, -45921.715, 0.036131203, -0.24998514, -1260966.4, -134702.08, 0.0, 9.998886, 9.999409 
3.4496173e+2, 1.9507188e+2, -1192642.4, -1174791.3, -45199.695, 0.031012986, -0.25515553, -1137644.3, -109373.51, 0.0, 9.999166, 9.9994 
3.4497774e+2, 2.0507096e+2, -1098079.0, -1151652.3, -61394.816, 0.027557442, -0.2515602, -1057881.8, -127601.43, 0.0, 9.999457, 9.998745 
3.449935e+2, 2.1506982e+2, -956301.44, -1033241.5, -58747.99, 0.025699945, -0.2404124, -924548.44, -92255.77, 0.0, 9.999761, 9.998739 
3.4500915e+2, 2.250685e+2, -836025.06, -961874.06, -65861.73, 0.025614846, -0.22733201, -807860.25, -73553.14, 0.0, 10.000074, 9.998405 
3.4502468e+2, 2.3506702e+2, -691110.56, -841731.1, -62272.793, 0.027364697, -0.21323499, -668699.1, -32375.658, 0.0, 10.000399, 9.998401 
3.450401e+2, 2.4506555e+2, -559033.4, -745905.7, -64743.477, 0.02310253, -0.19145608, -538794.44, -454.8285, 0.0, 10.000712, 9.998235 
3.4505546e+2, 2.5506407e+2, -417047.06, -627299.7, -65221.395, 0.013002078, -0.16333044, -398458.5, 41897.133, 0.0, 10.001018, 9.998229 
3.4507072e+2, 2.650622e+2, -306679.2, -576022.7, -64789.72, -0.003818307, -0.1445703, -291904.66, 50470.832, 0.0, 10.001329, 9.997759 
3.4508592e+2, 2.7506006e+2, -162467.25, -456168.88, -62604.926, -0.02705553, -0.13552725, -149679.3, 94719.8, 0.0, 10.001648, 9.997755 
3.4510145e+2, 2.85058e+2, -37158.61, -380469.5, -45845.805, -0.03780403, -0.10221418, -31141.8, 115279.84, 0.0, 10.001988, 9.9974375 
3.4511727e+2, 2.9505593e+2, 112779.0, -258325.83, -42714.004, -0.036736753, -0.047386657, 117631.91, 166075.22, 0.0, 10.002349, 9.99743 
3.4513322e+2, 3.0505273e+2, 234137.02, -143613.97, -12756.814, -0.0627623, -0.12308601, 234567.33, 234567.33, 0.0, 10.002713, 9.997707 
3.4514964e+2, 3.150513e+2, 313672.13, -62878.418, -19141.977, -0.077248596, -0.036134925, 314642.7, 314642.7, 0.0, 10.0030775, 9.998086 
3.5484135e+2, 1.2505059e+2, -2079387.8, -1734518.6, 5562.77, 0.02109295, -0.25427127, -1734429.0, -19948.795, 0.0, 9.996827, 10.001396 
3.5485876e+2, 1.35052e+2, -1929190.8, -1612144.1, 2664.9023, 0.015736045, -0.25039104, -1612121.6, 4345.058, 0.0, 9.997189, 10.001389 
3.548761e+2, 1.4505325e+2, -1801455.9, -1534945.9, -8609.2295, 0.012747284, -0.24578078, -1534668.0, -16213.622, 0.0, 9.997544, 10.001074 
3.548933e+2, 1.5505436e+2, -1653098.3, -1413634.3, -8286.767, 0.012142069, -0.24182269, -1413347.9, 7095.454, 0.0, 9.997893, 10.001064 
3.549105e+2, 1.65055e+2, -1560289.0, -1406259.3, -17941.746, 0.018910287, -0.24222553, -1404196.9, -81760.36, 0.0, 9.998238, 10.000277 
3.5492757e+2, 1.7505522e+2, -1413425.8, -1285679.0, -19593.217, 0.03294115, -0.24783555, -1282741.4, -58307.324, 0.0, 9.998577, 10.000268 
3.549444e+2, 1.85055e+2, -1328817.6, -1287192.9, -35506.695, 0.03744579, -0.25190502, -1266848.5, -140412.47, 0.0, 9.998886, 9.999435 
3.5496092e+2, 1.950544e+2, -1190618.3, -1170651.9, -34711.59, 0.032606095, -0.25541258, -1144516.4, -116074.03, 0.0, 9.999166, 9.999429 
3.5497716e+2, 2.0505358e+2, -1092955.3, -1141098.1, -50008.758, 0.028288305, -0.24805589, -1061526.1, -131075.02, 0.0, 9.999457, 9.998818 
3.5499322e+2, 2.1505255e+2, -951106.8, -1022585.6, -47329.555, 0.024461746, -0.2310469, -927538.6, -95076.1, 0.0, 9.999761, 9.998813 
3.5500917e+2, 2.2505134e+2, -829515.06, -948473.25, -53685.29, 0.022152068, -0.21653855, -808870.06, -74394.164, 0.0, 10.000074, 9.998497 
3.55025e+2, 2.3504995e+2, -684669.44, -828416.4, -50122.527, 0.021406682, -0.20533563, -668918.4, -32427.096, 0.0, 10.000399, 9.998492 
3.5504076e+2, 2.4504848e+2, -560377.94, -748714.2, -53342.55, 0.017598983, -0.18612877, -546319.2, -7811.8867, 0.0, 10.000712, 9.998216 
3.5505643e+2, 2.5504693e+2, -418337.72, -629980.25, -53827.414, 0.010805254, -0.16019869, -405434.38, 35089.594, 0.0, 10.001017, 9.998211 
3.55072e+2, 2.6504514e+2, -303299.63, -568988.6, -52858.883, -0.005533839, -0.14069322, -293169.6, 49374.2, 0.0, 10.001328, 9.9978075 
3.550875e+2, 2.7504307e+2, -159063.5, -449052.3, -50705.2, -0.03110348, -0.12805909, -150453.23, 94113.36, 0.0, 10.001648, 9.997804 
3.5510337e+2, 2.8504103e+2, -32292.045, -370264.72, -32377.648, -0.0423465, -0.09270023, -29218.234, 117370.11, 0.0, 10.001987, 9.997508 
3.5511956e+2, 2.950391e+2, 117683.55, -247995.6, -29249.354, -0.039849915, -0.037198674, 120008.31, 168617.47, 0.0, 10.002348, 9.997501 
3.551359e+2, 3.0503598e+2, 240101.53, -131062.9, 810.12915, -0.06404575, -0.11305148, 240103.3, 240103.3, 0.0, 10.002712, 9.997794 
3.5515264e+2, 3.1503448e+2, 316997.53, -55798.86, -5651.1836, -0.08098657, -0.03831622, 317083.2, 317083.2, 0.0, 10.003077, 9.998136 
3.648383e+2, 1.2503295e+2, -2031584.3, -1717183.9, -6714.4053, 0.01751713, -0.2482474, -1717040.5, -2387.2957, 0.0, 9.99718, 10.001345 
3.6485603e+2, 1.3503423e+2, -1894637.5, -1601131.9, -8700.258, 0.014151912, -0.25175413, -1600874.3, 15766.655, 0.0, 9.997451, 10.001338 
3.648737e+2, 1.4503546e+2, -1778069.0, -1525945.4, -21437.076, 0.01347901, -0.24729833, -1524135.8, -5506.6934, 0.0, 9.997715, 10.001053 
3.6489126e+2, 1.550366e+2, -1642741.4, -1410736.9, -24017.963, 0.015534552, -0.23634315, -1408276.5, 12340.926, 0.0, 9.997974, 10.001045 
3.6490875e+2, 1.6503724e+2, -1556853.8, -1403047.9, -32643.355, 0.021952616, -0.23702411, -1396406.5, -73795.734, 0.0, 9.998255, 10.00029 
3.6492616e+2, 1.750374e+2, -1415153.8, -1284787.0, -30607.324, 0.03267524, -0.25009653, -1277958.6, -53349.99, 0.0, 9.998558, 10.000283 
3.6494324e+2, 1.850372e+2, -1332846.0, -1288362.9, -46912.625, 0.036151506, -0.25510195, -1258686.5, -132075.77, 0.0, 9.998856, 9.999442 
3.6496004e+2, 1.9503663e+2, -1192765.5, -1170808.4, -47753.383, 0.032489482, -0.25308958, -1132787.8, -104171.04, 0.0, 9.999147, 9.999435 
3.649766e+2, 2.050359e+2, -1092938.5, -1134074.9, -64321.316, 0.029384011, -0.24214284, -1045976.75, -115351.63, 0.0, 9.999428, 9.99888 
3.6499295e+2, 2.1503495e+2, -956197.4, -1017989.6, -62482.68, 0.026819745, -0.22340946, -917389.44, -84753.586, 0.0, 9.999696, 9.998875 
3.6500922e+2, 2.250338e+2, -838480.3, -945175.44, -69242.62, 0.024066817, -0.20807885, -804417.9, -69769.42, 0.0, 9.999981, 9.998565 
3.6502534e+2, 2.3503247e+2, -696952.75, -826710.7, -67554.09, 0.02118344, -0.19693811, -668168.25, -31505.275, 0.0, 10.000281, 9.99856 
3.6504138e+2, 2.4503103e+2, -576227.1, -754614.94, -70274.11, 0.015439901, -0.17838155, -551869.25, -13190.582, 0.0, 10.000596, 9.998231 
3.6505735e+2, 2.550295e+2, -430588.2, -634070.1, -68261.72, 0.0068548336, -0.15362416, -409810.22, 30885.264, 0.0, 10.000925, 9.998227 
3.6507323e+2, 2.650277e+2, -312296.0, -569103.94, -66414.44, -0.00912986, -0.1346317, -296136.97, 46578.203, 0.0, 10.001249, 9.997845 
3.650891e+2, 2.7502567e+2, -168008.38, -449090.84, -65171.848, -0.032252394, -0.1219113, -153632.84, 91104.86, 0.0, 10.001568, 9.997842 
3.6510527e+2, 2.8502372e+2, -40362.11, -366206.97, -46121.203, -0.043030895, -0.08639247, -33959.754, 112799.1, 0.0, 10.001899, 9.997579 
3.651218e+2, 2.9502186e+2, 106854.93, -245165.19, -43039.656, -0.04195042, -0.030497588, 112040.766, 160819.56, 0.0, 10.002239, 9.997573 
3.6513853e+2, 3.050188e+2, 225558.4, -132415.23, -14035.936, -0.06515301, -0.10386771, 226107.9, 226107.9, 0.0, 10.002588, 9.997844 
3.651556e+2, 3.150173e+2, 298352.78, -63213.77, -23147.438, -0.08336294, -0.03623812, 299828.66, 299828.66, 0.0, 10.002942, 9.998149 
3.7483537e+2, 1.2501502e+2, -2033878.3, -1722706.4, 3178.2332, 0.009136622, -0.23944739, -1722674.0, -7844.5747, 0.0, 9.997183, 10.001306 
3.748535e+2, 1.3501623e+2, -1897105.9, -1606721.3, 1241.4526, 0.011951379, -0.24639282, -1606716.0, 10101.745, 0.0, 9.997452, 10.001299 
3.7487143e+2, 1.450174e+2, -1782256.6, -1534858.5, -11875.076, 0.015647246, -0.24231233, -1534289.9, -15483.481, 0.0, 9.997715, 10.000992 
3.7488928e+2, 1.5501851e+2, -1646920.8, -1419440.3, -14457.433, 0.020335102, -0.22853206, -1418525.1, 2270.217, 0.0, 9.997974, 10.000986 
3.7490702e+2, 1.6501914e+2, -1552502.8, -1393958.6, -21374.264, 0.025267426, -0.23238796, -1391127.6, -68338.9, 0.0, 9.998255, 10.000353 
3.7492466e+2, 1.7501923e+2, -1410704.5, -1275516.4, -19256.822, 0.030391697, -0.25473818, -1272826.8, -48040.39, 0.0, 9.998558, 10.000347 
3.7494203e+2, 1.8501908e+2, -1334019.6, -1290821.6, -35975.152, 0.032160904, -0.25965378, -1270459.6, -143671.34, 0.0, 9.998856, 9.999426 
3.7495914e+2, 1.950186e+2, -1193842.5, -1173119.5, -36773.6, 0.030613782, -0.24818884, -1145275.6, -116481.49, 0.0, 9.999147, 9.99942 
3.7497604e+2, 2.050179e+2, -1089349.0, -1126742.4, -54254.094, 0.030815123, -0.23379399, -1050660.4, -119858.18, 0.0, 9.999428, 9.998931 
3.749927e+2, 2.1501698e+2, -952582.0, -1010618.56, -52384.234, 0.032750912, -0.21749027, -921715.6, -88902.96, 0.0, 9.999696, 9.998926 
3.7500924e+2, 2.2501588e+2, -835466.5, -939067.25, -57927.11, 0.031321306, -0.20196399, -809557.0, -74732.17, 0.0, 9.999981, 9.998607 
3.7502566e+2, 2.3501462e+2, -693927.0, -820554.56, -56252.31, 0.026614023, -0.18807381, -672547.5, -35708.813, 0.0, 10.000281, 9.998603 
3.7504196e+2, 2.4501325e+2, -572908.4, -747778.8, -57941.918, 0.016572932, -0.16827248, -555452.3, -16598.531, 0.0, 10.000596, 9.998278 
3.750582e+2, 2.5501174e+2, -427297.78, -627195.75, -55964.063, 0.001196736, -0.14369886, -412696.44, 28173.668, 0.0, 10.000925, 9.998275 
3.7507445e+2, 2.6500997e+2, -310653.6, -565597.25, -54497.78, -0.014595103, -0.1264476, -299492.53, 43397.113, 0.0, 10.001248, 9.9978695 
3.7509063e+2, 2.7500793e+2, -166353.64, -445555.34, -53296.04, -0.030648503, -0.11704659, -156526.03, 88386.266, 0.0, 10.001568, 9.997867 
3.751072e+2, 2.8500602e+2, -35621.84, -356267.03, -33407.613, -0.040027443, -0.08318876, -32178.127, 114754.96, 0.0, 10.001898, 9.997648 
3.7512407e+2, 2.9500422e+2, 111666.39, -235075.34, -30358.725, -0.043102235, -0.027163234, 114304.35, 163256.52, 0.0, 10.002238, 9.997643 
3.7514108e+2, 3.0500126e+2, 226422.4, -130529.914, -886.448, -0.066146106, -0.0955661, 226424.61, 226424.61, 0.0, 10.002587, 9.997858 
3.7515855e+2, 3.1499973e+2, 296706.97, -66495.805, -9877.336, -0.08502737, -0.032071006, 296975.4, 296975.4, 0.0, 10.002941, 9.998127 
3.8483262e+2, 1.249968e+2, -2013827.4, -1723085.4, -3355.7617, 0.008855887, -0.23654923, -1723046.6, -8038.5874, 0.0, 9.997364, 10.001215 
3.84851e+2, 1.3499796e+2, -1879814.8, -1608420.6, -9310.764, 0.013118671, -0.23937255, -1608101.6, 8895.591, 0.0, 9.997614, 10.001208 
3.8486922e+2, 1.4499907e+2, -1760651.1, -1528132.5, -22958.816, 0.017586462, -0.23555128, -1525887.3, -6900.7095, 0.0, 9.99788, 10.000958 
3.8488737e+2, 1.550001e+2, -1621495.1, -1410730.6, -23496.316, 0.022371234, -0.22640702, -1408143.0, 12833.208, 0.0, 9.998164, 10.000954 
3.8490534e+2, 1.6500072e+2, -1527742.4, -1377312.5, -31002.82, 0.026607076, -0.23162374, -1371173.6, -48204.06, 0.0, 9.9984045, 10.000395 
3.8492322e+2, 1.7500089e+2, -1401265.3, -1266077.3, -30561.063, 0.030272068, -0.25211155, -1259489.5, -34523.13, 0.0, 9.998602, 10.00039 
3.8494086e+2, 1.8500073e+2, -1339354.4, -1296731.8, -47623.324, 0.03170918, -0.25575337, -1265868.8, -138900.77, 0.0, 9.998834, 9.999395 
3.8495824e+2, 1.9500023e+2, -1202880.9, -1180736.1, -49507.8, 0.030906288, -0.24357021, -1141077.6, -112103.12, 0.0, 9.9991, 9.999391 
3.8497543e+2, 2.0499954e+2, -1092098.3, -1124876.6, -67813.15, 0.030519586, -0.22758047, -1038721.94, -107739.12, 0.0, 9.999395, 9.998959 
3.8499236e+2, 2.1499869e+2, -947076.1, -1004755.5, -67707.12, 0.030546013, -0.20871343, -902322.5, -69329.63, 0.0, 9.999721, 9.998954 
3.8500923e+2, 2.2499764e+2, -827046.4, -928295.1, -74237.02, 0.029187115, -0.19275321, -787815.5, -52811.027, 0.0, 10.0000105, 9.998667 
3.8502592e+2, 2.3499641e+2, -692246.3, -812988.0, -71286.766, 0.026525391, -0.18064177, -659201.7, -22184.049, 0.0, 10.000265, 9.998663 
3.8504252e+2, 2.4499506e+2, -580437.9, -748480.2, -72126.6, 0.016507301, -0.16222331, -553726.0, -14693.63, 0.0, 10.000532, 9.998303 
3.8505903e+2, 2.549936e+2, -441621.53, -631123.4, -71811.73, -0.0009037461, -0.138571, -417483.16, 23565.49, 0.0, 10.000814, 9.998301 
3.8507557e+2, 2.6499185e+2, -326216.06, -569441.75, -69899.09, -0.017202104, -0.120966315, -307559.28, 35508.7, 0.0, 10.001126, 9.997901 
3.8509214e+2, 2.7498984e+2, -178395.88, -447686.06, -68204.09, -0.03230622, -0.109938025, -162106.88, 82983.41, 0.0, 10.00147, 9.997899 
3.85109e+2, 2.84988e+2, -44319.695, -353860.56, -48133.797, -0.041955493, -0.07596397, -37007.59, 110103.07, 0.0, 10.00181, 9.997706 
3.851262e+2, 2.9498622e+2, 102564.055, -232758.2, -45867.97, -0.04638417, -0.021236038, 108725.04, 157854.23, 0.0, 10.002148, 9.997703 
3.8514358e+2, 3.0498338e+2, 213033.4, -133978.3, -16213.527, -0.06694177, -0.083908394, 213789.31, 213789.31, 0.0, 10.002483, 9.997884 
3.851614e+2, 3.1498185e+2, 277738.78, -76440.19, -24055.354, -0.08438327, -0.021178776, 279365.13, 279365.13, 0.0, 10.002814, 9.998119 
3.9483005e+2, 1.2497831e+2, -2024085.8, -1744484.3, 5891.4336, 0.017176023, -0.24013767, -1744360.1, -29170.955, 0.0, 9.997364, 10.001068 
3.9484867e+2, 1.3497944e+2, -1889999.4, -1629675.6, -111.78089, 0.017849613, -0.23064925, -1629675.5, -12496.347, 0.0, 9.997615, 10.001063 
3.9486712e+2, 1.4498049e+2, -1761012.9, -1529070.5, -12430.024, 0.01926671, -0.22689249, -1528406.3, -9236.768, 0.0, 9.99788, 10.000952 
3.948855e+2, 1.5498139e+2, -1621668.0, -1411393.1, -12906.426, 0.021507317, -0.23020677, -1410604.0, 10556.209, 0.0, 9.998165, 10.000949 
3.9490372e+2, 1.6498199e+2, -1526344.6, -1374682.3, -23703.832, 0.025854904, -0.23495875, -1371063.8, -47910.656, 0.0, 9.998405, 10.000413 
3.9492184e+2, 1.7498232e+2, -1399878.6, -1263302.6, -23251.87, 0.032337494, -0.24206167, -1259452.5, -34304.055, 0.0, 9.998602, 10.000409 
3.949397e+2, 1.8498218e+2, -1342532.1, -1303352.4, -37658.19, 0.0348626, -0.24315989, -1280493.4, -153343.27, 0.0, 9.998834, 9.999351 
3.9495736e+2, 1.9498155e+2, -1206039.8, -1187340.0, -39519.945, 0.03338826, -0.23919255, -1156078.9, -126920.75, 0.0, 9.9991, 9.999346 
3.949748e+2, 2.0498085e+2, -1091806.1, -1124362.9, -55579.348, 0.028496983, -0.22355214, -1050170.4, -119003.43, 0.0, 9.999395, 9.998962 
3.9499196e+2, 2.1498005e+2, -946726.94, -1004147.1, -55480.62, 0.020195875, -0.19710545, -912968.1, -79791.76, 0.0, 9.999721, 9.998959 
3.950091e+2, 2.2497906e+2, -821687.06, -917333.25, -64649.094, 0.017658437, -0.18044144, -789095.25, -53907.863, 0.0, 10.0000105, 9.998742 
3.950261e+2, 2.3497784e+2, -686845.25, -801942.8, -61765.016, 0.020937562, -0.17460361, -659973.8, -22773.791, 0.0, 10.000265, 9.998738 
3.9504302e+2, 2.449765e+2, -580135.8, -747999.2, -61554.605, 0.015222355, -0.16016431, -559983.4, -20768.852, 0.0, 10.000533, 9.998307 
3.9505985e+2, 2.5497502e+2, -441362.4, -630672.4, -61316.76, 0.00042847943, -0.13813809, -423237.47, 17993.564, 0.0, 10.000814, 9.998304 
3.950767e+2, 2.6497334e+2, -323557.4, -563932.94, -57061.992, -0.017022397, -0.11814329, -310699.4, 32550.67, 0.0, 10.001125, 9.997939 
3.9509353e+2, 2.749714e+2, -175748.8, -442160.6, -55423.785, -0.037103042, -0.10070559, -164678.53, 80593.09, 0.0, 10.001469, 9.997937 
3.9511076e+2, 2.849696e+2, -41113.227, -347119.2, -35589.727, -0.048652336, -0.06489743, -37028.52, 110262.99, 0.0, 10.001809, 9.997753 
3.9512828e+2, 2.9496786e+2, 105831.52, -225800.64, -33333.195, -0.05173612, -0.012841737, 109148.75, 158458.56, 0.0, 10.002147, 9.997751 
3.9514607e+2, 3.049651e+2, 215444.42, -128795.51, -3940.4429, -0.067612186, -0.0691044, 215489.52, 215489.52, 0.0, 10.002481, 9.99792 
3.9516422e+2, 3.1496364e+2, 277958.56, -75821.52, -11396.702, -0.08227658, -0.0065056845, 278325.3, 278325.3, 0.0, 10.002813, 9.998125 
4.0482754e+2, 1.2495965e+2, -1994418.6, -1739330.4, -3078.9587, 0.020792289, -0.23623948, -1739293.3, -23920.902, 0.0, 9.997608, 10.000986 
4.0484637e+2, 1.3496071e+2, -1865984.1, -1627204.5, -4290.461, 0.019949306, -0.22796197, -1627127.4, -9764.051, 0.0, 9.997819, 10.000981 
4.048651e+2, 1.4496166e+2, -1740455.1, -1523147.1, -14221.185, 0.020570181, -0.22525758, -1522220.5, -2866.057, 0.0, 9.998039, 10.000916 
4.0488368e+2, 1.5496252e+2, -1608514.8, -1408971.8, -17082.174, 0.022969658, -0.22897522, -1407520.0, 13825.4, 0.0, 9.998273, 10.000914 
4.0490216e+2, 1.6496314e+2, -1516911.6, -1374884.6, -33648.176, 0.026916077, -0.23096955, -1367316.3, -43977.734, 0.0, 9.998491, 10.00037 
4.0492046e+2, 1.7496347e+2, -1389349.3, -1262991.9, -37957.684, 0.03241802, -0.23218855, -1252466.3, -27132.383, 0.0, 9.998695, 10.000366 
4.0493858e+2, 1.8496329e+2, -1331923.3, -1301687.9, -52168.645, 0.03429058, -0.23304935, -1262490.6, -135154.7, 0.0, 9.998921, 9.999319 
4.049565e+2, 1.9496258e+2, -1198041.3, -1187001.0, -53122.117, 0.032504417, -0.23446548, -1139112.9, -109768.125, 0.0, 9.99917, 9.999313 
4.049742e+2, 2.0496185e+2, -1083113.4, -1118916.3, -66191.35, 0.027039878, -0.21974036, -1032445.44, -101091.66, 0.0, 9.999451, 9.998974 
4.0499166e+2, 2.1496111e+2, -939932.3, -999507.56, -65677.99, 0.017914554, -0.18966842, -897602.6, -64239.758, 0.0, 9.999762, 9.99897 
4.0500906e+2, 2.2496016e+2, -812844.0, -907042.56, -77778.48, 0.014367979, -0.17142643, -769015.7, -33642.26, 0.0, 10.000046, 9.9987955 
4.0502635e+2, 2.3495899e+2, -677702.56, -791365.75, -76624.17, 0.016381754, -0.166114, -639134.5, -1749.2031, 0.0, 10.000301, 9.998794 
4.050435e+2, 2.4495763e+2, -578609.1, -748681.8, -77616.8, 0.010406645, -0.15503281, -548512.75, -9112.855, 0.0, 10.000549, 9.998294 
4.050606e+2, 2.5495607e+2, -445767.03, -634149.75, -78686.43, -0.0036572076, -0.13926437, -417224.7, 24192.496, 0.0, 10.00079, 9.998292 
4.0507773e+2, 2.649544e+2, -328792.94, -563254.0, -72463.6, -0.019858906, -0.11757232, -308204.84, 35231.266, 0.0, 10.001077, 9.997968 
4.0509498e+2, 2.7495262e+2, -182230.1, -441945.44, -71570.84, -0.03815946, -0.09030693, -163813.02, 81643.62, 0.0, 10.0014105, 9.997967 
4.0511248e+2, 2.8495085e+2, -48997.582, -344881.84, -52512.117, -0.049391147, -0.052002028, -39954.375, 107521.59, 0.0, 10.001729, 9.997807 
4.0513033e+2, 2.949491e+2, 93215.35, -225596.7, -49795.207, -0.053539235, -0.0048434855, 100811.85, 150306.06, 0.0, 10.002033, 9.997807 
4.0514845e+2, 3.0494648e+2, 201091.19, -128379.555, -18598.408, -0.06891701, -0.057752017, 202137.73, 202137.73, 0.0, 10.002352, 9.997986 
4.051669e+2, 3.1494504e+2, 262110.67, -79253.266, -23569.705, -0.08617824, 0.0020489467, 263730.38, 263730.38, 0.0, 10.0026865, 9.998162 
4.1482514e+2, 1.2494084e+2, -1995224.6, -1741465.6, 4691.0313, 0.0193757, -0.22416796, -1741378.9, -25821.564, 0.0, 9.997609, 10.000971 
4.148442e+2, 1.3494173e+2, -1866791.1, -1629207.8, 3456.8071, 0.019215785, -0.23162006, -1629157.4, -11607.861, 0.0, 9.99782, 10.000967 
4.148631e+2, 1.4494261e+2, -1745282.5, -1533342.4, -5527.485, 0.021436922, -0.2311145, -1533198.3, -13657.139, 0.0, 9.998039, 10.000846 
4.1488197e+2, 1.5494353e+2, -1613307.6, -1419006.0, -8386.295, 0.026831942, -0.22255023, -1418644.8, 2887.0881, 0.0, 9.998273, 10.000845 
4.1490066e+2, 1.6494411e+2, -1524472.8, -1390683.8, -26044.723, 0.02986244, -0.21932447, -1385792.4, -62266.816, 0.0, 9.998491, 10.000261 
4.1491914e+2, 1.7494433e+2, -1396878.4, -1278793.3, -30361.363, 0.03045126, -0.2224593, -1271444.3, -45921.75, 0.0, 9.998695, 10.000258 
4.1493744e+2, 1.8494405e+2, -1333236.5, -1304582.8, -42923.336, 0.029882649, -0.22550155, -1273658.4, -146132.97, 0.0, 9.998921, 9.999299 
4.149556e+2, 1.9494328e+2, -1199391.0, -1189966.8, -43789.27, 0.02818253, -0.22939837, -1150636.8, -121102.36, 0.0, 9.99917, 9.999293 
4.1497362e+2, 2.0494255e+2, -1081900.0, -1116545.1, -54505.934, 0.026096871, -0.21612212, -1042030.25, -110486.766, 0.0, 9.999451, 9.99899 
4.149915e+2, 2.1494181e+2, -938700.9, -997071.9, -53934.39, 0.023666272, -0.18638955, -906561.75, -73009.29, 0.0, 9.999763, 9.998987 
4.1500914e+2, 2.2494091e+2, -810620.9, -902557.8, -68137.17, 0.019309057, -0.16572551, -774395.8, -38833.33, 0.0, 10.000046, 9.998826 
4.1502658e+2, 2.3493983e+2, -675448.06, -786800.8, -67027.82, 0.012874551, -0.15522689, -643989.0, -6415.4307, 0.0, 10.000301, 9.998825 
4.1504395e+2, 2.4493843e+2, -580659.6, -753073.94, -68620.484, 0.0021174029, -0.14684995, -556683.1, -17094.76, 0.0, 10.00055, 9.998264 
4.1506127e+2, 2.5493672e+2, -447823.44, -638591.6, -69735.59, -0.013034434, -0.14187486, -425050.1, 16556.898, 0.0, 10.000791, 9.998261 
4.1507873e+2, 2.6493505e+2, -327496.38, -560668.4, -59994.44, -0.025671927, -0.119195655, -312965.53, 30660.447, 0.0, 10.001077, 9.997986 
4.1509637e+2, 2.7493343e+2, -181016.81, -439358.78, -59128.066, -0.0356755, -0.07879236, -168126.98, 77518.234, 0.0, 10.00141, 9.997985 
4.1511425e+2, 2.8493175e+2, -44987.773, -336356.63, -41202.727, -0.044442862, -0.037325226, -39273.336, 108390.625, 0.0, 10.001728, 9.997867 
4.1513234e+2, 2.9493e+2, 97260.0, -216919.64, -38584.883, -0.05197412, 0.0028074714, 101929.27, 151611.56, 0.0, 10.002031, 9.997868 
4.1515076e+2, 3.0492747e+2, 207198.64, -115326.84, -6239.2563, -0.07082788, -0.04961987, 207319.3, 207319.3, 0.0, 10.00235, 9.998076 
4.1516948e+2, 3.1492603e+2, 266331.4, -69940.43, -10665.094, -0.096515365, 0.0019450308, 266669.3, 266669.3, 0.0, 10.002684, 9.998227 
4.2482284e+2, 1.24921784e+2, -1972455.3, -1732047.8, -2503.1975, 0.022393687, -0.2152397, -1732021.8, -16276.945, 0.0, 9.997773, 10.000957 
4.2484206e+2, 1.349226e+2, -1838372.4, -1617003.9, -3890.684, 0.020126326, -0.22834545, -1616935.5, 801.83936, 0.0, 9.998022, 10.000954 
4.2486122e+2, 1.4492343e+2, -1720660.8, -1531477.5, -13861.625, 0.021179818, -0.22842662, -1530467.3, -10737.838, 0.0, 9.998252, 10.000755 
4.2488033e+2, 1.5492432e+2, -1591303.1, -1418387.1, -18386.947, 0.02702079, -0.2142003, -1416453.6, 5267.141, 0.0, 9.9984665, 10.000755 
4.2489922e+2, 1.649248e+2, -1503432.8, -1389138.8, -36618.92, 0.02942144, -0.20960931, -1378412.9, -54697.543, 0.0, 9.9986725, 10.000184 
4.2491788e+2, 1.7492491e+2, -1376810.3, -1277725.5, -38642.656, 0.02828121, -0.21582985, -1264437.1, -38723.848, 0.0, 9.998871, 10.00018 
4.2493638e+2, 1.8492456e+2, -1312915.3, -1300208.3, -49735.61, 0.02688881, -0.22084123, -1256422.0, -128705.05, 0.0, 9.999085, 9.99925 
4.249548e+2, 1.9492376e+2, -1181689.0, -1186950.0, -52919.47, 0.025274847, -0.22555448, -1131334.6, -101608.2, 0.0, 9.999316, 9.999244 
4.2497307e+2, 2.0492297e+2, -1068405.3, -1109938.0, -64415.313, 0.024811888, -0.21286757, -1021491.75, -89755.99, 0.0, 9.999543, 9.99899 
4.2499125e+2, 2.1492223e+2, -938124.7, -996586.25, -65152.3, 0.025565024, -0.1834033, -895946.4, -62201.61, 0.0, 9.999765, 9.998988 
4.250092e+2, 2.2492135e+2, -816050.8, -905694.2, -81450.72, 0.02106585, -0.16117883, -767903.7, -32148.977, 0.0, 10.000011, 9.998821 
4.2502683e+2, 2.349203e+2, -678840.4, -788885.75, -83174.25, 0.011091034, -0.14729539, -634136.2, 3629.402, 0.0, 10.000281, 9.99882 
4.2504448e+2, 2.449189e+2, -581636.06, -754988.56, -85814.555, -0.0015723315, -0.13854116, -546341.4, -6560.909, 0.0, 10.00055, 9.998251 
4.25062e+2, 2.5491714e+2, -444699.4, -638519.1, -85753.55, -0.01699871, -0.13632134, -412206.06, 29593.441, 0.0, 10.000818, 9.998248 
4.2507976e+2, 2.6491547e+2, -325956.75, -557637.75, -73903.72, -0.028061721, -0.11499622, -304389.88, 39428.645, 0.0, 10.001078, 9.998006 
4.2509773e+2, 2.7491388e+2, -191490.98, -441977.44, -72928.445, -0.0346207, -0.07445025, -171805.19, 74032.28, 0.0, 10.0013275, 9.998007 
4.251159e+2, 2.8491223e+2, -61831.52, -340488.72, -55618.992, -0.042942703, -0.032943506, -51140.348, 96715.6, 0.0, 10.0015955, 9.997902 
4.2513427e+2, 2.9491052e+2, 78094.75, -222003.69, -54804.754, -0.053012867, 0.0072213206, 87790.11, 137664.19, 0.0, 10.001883, 9.997904 
4.2515302e+2, 3.04908e+2, 188482.92, -113369.086, -22267.963, -0.06924922, -0.043684117, 190116.8, 190116.8, 0.0, 10.002174, 9.998174 
4.251721e+2, 3.149066e+2, 241051.88, -73541.64, -25573.732, -0.09100932, -0.0036386317, 243117.25, 243117.25, 0.0, 10.002474, 9.998303 
4.3482065e+2, 1.2490248e+2, -1973498.4, -1734380.8, 6802.204, 0.02995598, -0.2099736, -1734187.4, -18252.637, 0.0, 9.997773, 10.00094 
4.348401e+2, 1.3490333e+2, -1839201.1, -1619045.8, 5279.3145, 0.022779383, -0.21778856, -1618919.3, -992.5309, 0.0, 9.998023, 10.000939 
4.3485945e+2, 1.449041e+2, -1728407.8, -1547908.0, -5917.5454, 0.019722966, -0.21669957, -1547714.1, -27794.914, 0.0, 9.998253, 10.000643 
4.3487877e+2, 1.5490486e+2, -1599067.4, -1434838.1, -10448.223, 0.02333928, -0.20380649, -1434176.0, -12263.895, 0.0, 9.998468, 10.000642 
4.3489784e+2, 1.6490526e+2, -1506557.4, -1395965.0, -29284.21, 0.025412858, -0.20190406, -1388689.4, -64781.55, 0.0, 9.998673, 10.000137 
4.3491668e+2, 1.7490527e+2, -1379889.9, -1284446.4, -31262.424, 0.025860708, -0.21239802, -1275118.1, -49211.887, 0.0, 9.998872, 10.000134 
4.3493542e+2, 1.8490484e+2, -1318427.8, -1311925.9, -41118.207, 0.025318231, -0.21914788, -1273930.3, -146019.73, 0.0, 9.999085, 9.999169 
4.3495408e+2, 1.9490394e+2, -1187296.5, -1198833.8, -44251.758, 0.0237874, -0.22295547, -1148439.0, -118518.15, 0.0, 9.999317, 9.999162 
4.3497258e+2, 2.0490313e+2, -1069508.4, -1112438.9, -56084.434, 0.023191914, -0.2099731, -1030921.75, -98991.2, 0.0, 9.999544, 9.998973 
4.3499097e+2, 2.1490237e+2, -939172.5, -998923.3, -56778.586, 0.023606453, -0.1806995, -904889.2, -70949.44, 0.0, 9.999766, 9.998972 
4.3500915e+2, 2.2490145e+2, -818963.94, -911879.9, -71309.625, 0.019608904, -0.1577563, -780313.75, -44363.742, 0.0, 10.000011, 9.998778 
4.350271e+2, 2.3490037e+2, -681729.0, -795032.1, -73056.49, 0.010973762, -0.14226317, -645932.5, -7971.141, 0.0, 10.000281, 9.998778 
4.3504497e+2, 2.44899e+2, -581460.2, -754756.8, -75733.766, -0.0007608183, -0.13013963, -553027.94, -13051.763, 0.0, 10.00055, 9.998252 
4.3506283e+2, 2.548973e+2, -444547.38, -638284.44, -75720.98, -0.015705414, -0.12283193, -418464.0, 23530.686, 0.0, 10.000818, 9.99825 
4.3508083e+2, 2.648956e+2, -324469.66, -554593.75, -64561.652, -0.027129048, -0.1050592, -307594.28, 36419.418, 0.0, 10.001078, 9.998027 
4.3509907e+2, 2.7489388e+2, -190006.56, -438890.97, -63625.293, -0.03492926, -0.07691127, -174684.53, 71348.734, 0.0, 10.0013275, 9.998028 
4.3511745e+2, 2.8489223e+2, -61073.414, -338822.4, -44952.004, -0.044755716, -0.038408995, -53979.39, 94072.445, 0.0, 10.001595, 9.997913 
4.351361e+2, 2.9489058e+2, 78808.45, -220297.02, -44188.62, -0.056547623, 0.008560697, 85200.11, 135269.6, 0.0, 10.001881, 9.997916 
4.351552e+2, 3.048882e+2, 195391.84, -98671.21, -11206.021, -0.06448391, -0.03974582, 195818.27, 195818.27, 0.0, 10.002172, 9.998276 
4.3517473e+2, 3.148867e+2, 246615.8, -61512.83, -13893.972, -0.071407825, -0.016794859, 247241.03, 247241.03, 0.0, 10.002471, 9.998387 
4.448186e+2, 1.24882974e+2, -1946390.9, -1730333.8, 3329.9568, 0.034380805, -0.20739135, -1730282.5, -14156.277, 0.0, 9.997998, 10.000859 
4.4483823e+2, 1.3488376e+2, -1812099.6, -1614947.1, -3468.8594, 0.024360819, -0.21316925, -1614886.1, 3232.602, 0.0, 9.998248, 10.000858 
4.4485778e+2, 1.4488447e+2, -1701649.0, -1544587.0, -17607.938, 0.018999368, -0.21122073, -1542637.3, -22524.959, 0.0, 9.998478, 10.000557 
4.4487733e+2, 1.5488514e+2, -1572380.1, -1431544.0, -20084.203, 0.022210047, -0.1968122, -1428735.9, -6629.855, 0.0, 9.9986925, 10.000556 
4.4489658e+2, 1.6488546e+2, -1479124.1, -1387850.3, -39074.598, 0.02416631, -0.19462746, -1373407.6, -49305.28, 0.0, 9.998884, 10.000091 
4.4491562e+2, 1.7488544e+2, -1356690.4, -1278372.1, -41061.258, 0.024750443, -0.20623752, -1260790.9, -34689.793, 0.0, 9.999054, 10.000088 
4.4493458e+2, 1.8488492e+2, -1301629.8, -1311766.1, -49539.348, 0.024745611, -0.21543415, -1256900.0, -128793.92, 0.0, 9.999236, 9.999099 
4.4495344e+2, 1.9488391e+2, -1175675.6, -1201343.3, -52049.492, 0.024189666, -0.22311944, -1134901.0, -104783.64, 0.0, 9.999432, 9.999089 
4.4497216e+2, 2.0488302e+2, -1057381.1, -1113359.9, -64366.086, 0.022218607, -0.20955414, -1015182.2, -83054.4, 0.0, 9.999657, 9.998912 
4.4499075e+2, 2.1488228e+2, -922392.0, -997530.56, -68475.46, 0.018797742, -0.1748076, -881856.6, -47719.4, 0.0, 9.99991, 9.998912 
4.4500914e+2, 2.2488134e+2, -801906.5, -907320.0, -84293.62, 0.0140804425, -0.14996022, -755197.9, -19049.955, 0.0, 10.000145, 9.998746 
4.4502738e+2, 2.3488021e+2, -672767.0, -794266.8, -85395.055, 0.007956003, -0.13644327, -628717.75, 9442.086, 0.0, 10.000359, 9.998746 
4.4504553e+2, 2.448788e+2, -577921.7, -753242.4, -87726.945, -0.0015480831, -0.12421103, -541564.5, -1389.6687, 0.0, 10.000576, 9.99825 
4.4506362e+2, 2.5487712e+2, -447895.28, -640064.7, -88086.74, -0.0145703545, -0.11464483, -413628.38, 28564.615, 0.0, 10.000796, 9.998248 
4.4508192e+2, 2.6487538e+2, -331069.66, -555351.06, -77225.64, -0.025491849, -0.09963215, -307051.13, 37160.906, 0.0, 10.001022, 9.998048 
4.451003e+2, 2.748736e+2, -199373.83, -440950.38, -76350.23, -0.034290414, -0.079392284, -177266.45, 68965.414, 0.0, 10.001252, 9.99805 
4.45119e+2, 2.8487197e+2, -75365.23, -345061.88, -56827.156, -0.04500787, -0.042326603, -63880.38, 84370.07, 0.0, 10.001494, 9.997919 
4.4513792e+2, 2.948704e+2, 59675.023, -228860.44, -56663.285, -0.057508465, 0.010020015, 70403.766, 120671.52, 0.0, 10.001747, 9.997922 
4.4515732e+2, 3.0486807e+2, 175732.58, -101603.58, -24865.592, -0.06074653, -0.032899946, 177944.36, 177944.36, 0.0, 10.002009, 9.998334 
4.4517723e+2, 3.1486654e+2, 222340.03, -68318.65, -30066.977, -0.060193177, -0.0168612, 225417.69, 225417.69, 0.0, 10.002284, 9.998431 
4.5481655e+2, 1.2486326e+2, -1956818.4, -1752365.0, 12687.429, 0.0351105, -0.20816033, -1751580.6, -35261.48, 0.0, 9.997999, 10.000708 
4.5483646e+2, 1.3486388e+2, -1822594.8, -1637120.0, 5718.568, 0.024751553, -0.21489695, -1636943.9, -18630.178, 0.0, 9.998249, 10.000706 
4.5485628e+2, 1.4486448e+2, -1705609.5, -1553214.0, -9756.65, 0.01899381, -0.21241091, -1552592.0, -32283.541, 0.0, 9.99848, 10.000497 
4.54876e+2, 1.5486516e+2, -1576245.5, -1439992.3, -12145.236, 0.023712305, -0.19343853, -1438918.1, -16615.627, 0.0, 9.998694, 10.000498 
4.5489547e+2, 1.6486546e+2, -1482153.3, -1394571.1, -32831.23, 0.025777359, -0.18783832, -1383630.6, -59331.625, 0.0, 9.998886, 10.000044 
4.5491466e+2, 1.748654e+2, -1359783.6, -1285166.3, -34801.31, 0.02497871, -0.19728799, -1271454.6, -45156.72, 0.0, 9.999055, 10.000041 
4.5493382e+2, 1.8486479e+2, -1305964.1, -1321038.9, -42266.516, 0.025175048, -0.20962349, -1270568.3, -142264.64, 0.0, 9.999237, 9.999035 
4.549529e+2, 1.9486365e+2, -1180154.5, -1210873.0, -44715.266, 0.026497608, -0.22606672, -1148234.1, -117918.0, 0.0, 9.999433, 9.999023 
4.549718e+2, 2.0486268e+2, -1064754.1, -1128865.3, -54869.832, 0.021910505, -0.21166362, -1033262.44, -100935.0, 0.0, 9.999657, 9.998806 
4.5499057e+2, 2.1486193e+2, -929793.75, -1013066.4, -58928.016, 0.011147462, -0.16573997, -899276.75, -64939.508, 0.0, 9.99991, 9.998805 
4.550092e+2, 2.2486095e+2, -803664.9, -911085.56, -76226.875, 0.0044868025, -0.13777417, -764126.4, -27777.94, 0.0, 10.000145, 9.99872 
4.5502764e+2, 2.3485973e+2, -674419.5, -797810.3, -77385.02, 0.0020532757, -0.12980698, -637146.44, 1214.5854, 0.0, 10.000359, 9.998722 
4.550461e+2, 2.448583e+2, -578363.06, -754276.94, -79419.125, -0.003927218, -0.12067317, -547813.4, -7437.0903, 0.0, 10.000576, 9.998243 
4.5506442e+2, 2.548566e+2, -448316.5, -641064.2, -79816.06, -0.013610954, -0.111586496, -419556.34, 22838.076, 0.0, 10.000796, 9.998241 
4.5508292e+2, 2.6485485e+2, -329659.97, -552522.06, -68580.67, -0.023188135, -0.09857152, -310246.9, 34166.523, 0.0, 10.001022, 9.998068 
4.5510155e+2, 2.7485308e+2, -197963.05, -438020.34, -67762.72, -0.032764792, -0.081895426, -180156.06, 66277.19, 0.0, 10.001252, 9.998071 
4.5512047e+2, 2.8485143e+2, -75670.41, -345559.0, -47406.36, -0.04380301, -0.0447432, -67585.59, 80866.125, 0.0, 10.001493, 9.997916 
4.5513964e+2, 2.9484987e+2, 59271.605, -229404.98, -47255.094, -0.056056023, 0.011608211, 66810.195, 117279.055, 0.0, 10.001745, 9.997919 
4.5515934e+2, 3.0484766e+2, 176435.0, -99656.09, -14595.919, -0.057946663, -0.023348227, 177204.5, 177204.5, 0.0, 10.0020075, 9.998349 
4.551795e+2, 3.1484616e+2, 222037.84, -68231.32, -19051.273, -0.057269644, -0.006645572, 223282.9, 223282.9, 0.0, 10.00228, 9.998433 
4.6481472e+2, 1.2484324e+2, -1922593.3, -1742755.5, -4252.5645, 0.04052496, -0.20534253, -1742655.0, -26139.469, 0.0, 9.998264, 10.000646 
4.648348e+2, 1.3484377e+2, -1794031.6, -1630398.5, -4543.3457, 0.025873465, -0.2156888, -1630272.5, -11761.519, 0.0, 9.998476, 10.000643 
4.648548e+2, 1.4484428e+2, -1683029.9, -1549874.0, -18312.93, 0.017148487, -0.21445374, -1547401.4, -26894.895, 0.0, 9.998668, 10.000429 
4.6487474e+2, 1.5484492e+2, -1559790.3, -1439645.4, -21452.922, 0.022777682, -0.19163199, -1435929.6, -13428.706, 0.0, 9.99884, 10.00043 
4.648944e+2, 1.648452e+2, -1465312.1, -1394463.3, -43515.6, 0.025252556, -0.18334308, -1373776.3, -49278.242, 0.0, 9.999037, 9.999972 
4.649138e+2, 1.7484507e+2, -1335190.3, -1281434.9, -47508.375, 0.024287544, -0.19142205, -1253728.1, -27230.43, 0.0, 9.999259, 9.999969 
4.6493313e+2, 1.848444e+2, -1277068.1, -1311849.1, -55780.203, 0.025267038, -0.20398237, -1236030.4, -107526.44, 0.0, 9.999455, 9.998992 
4.6495238e+2, 1.9484319e+2, -1155295.1, -1203759.4, -56641.0, 0.028400589, -0.22233777, -1117920.5, -87403.61, 0.0, 9.999624, 9.99898 
4.649715e+2, 2.0484215e+2, -1052526.4, -1132809.4, -64708.82, 0.024007047, -0.20816898, -1016519.5, -83990.7, 0.0, 9.9997835, 9.998717 
4.6499047e+2, 2.1484132e+2, -933004.3, -1024542.94, -67516.78, 0.01169601, -0.16053082, -897205.6, -62665.957, 0.0, 9.999932, 9.998716 
4.650093e+2, 2.248403e+2, -808953.56, -916193.7, -83313.08, 0.0033649262, -0.13159797, -763497.0, -26945.566, 0.0, 10.00012, 9.998696 
4.6502796e+2, 2.3483907e+2, -677154.5, -801528.94, -84382.96, -0.00089036213, -0.12355673, -634519.4, 4044.7922, 0.0, 10.000351, 9.9987 
4.650466e+2, 2.4483758e+2, -578757.5, -754773.3, -86321.766, -0.0071497415, -0.116796166, -543490.0, -2910.3533, 0.0, 10.000575, 9.99824 
4.6506518e+2, 2.5483584e+2, -449224.53, -641851.9, -86533.38, -0.015479882, -0.11271346, -416060.97, 26537.02, 0.0, 10.0007925, 9.998238 
4.6508393e+2, 2.648341e+2, -335683.53, -558095.25, -77304.19, -0.023072964, -0.09985319, -311454.22, 33162.875, 0.0, 10.000993, 9.998043 
4.651028e+2, 2.7483234e+2, -211073.39, -447055.9, -79883.586, -0.02999963, -0.07805428, -186574.9, 60061.96, 0.0, 10.001174, 9.998046 
4.6512192e+2, 2.848307e+2, -91108.484, -349240.94, -58963.715, -0.040277228, -0.040293902, -78277.52, 70377.74, 0.0, 10.001371, 9.99795 
4.6514133e+2, 2.9482913e+2, 38224.316, -235685.34, -56193.258, -0.05377141, 0.011836672, 49304.305, 99976.61, 0.0, 10.001585, 9.997953 
4.6516126e+2, 3.0482697e+2, 150236.44, -108775.01, -20695.547, -0.05684253, -0.020662114, 151879.63, 151879.63, 0.0, 10.001813, 9.99838 
4.6518165e+2, 3.148255e+2, 190814.47, -80906.27, -23507.254, -0.058630537, -0.0021664293, 192833.14, 192833.14, 0.0, 10.002056, 9.998454 
4.7481307e+2, 1.248229e+2, -1920010.3, -1737937.1, 3262.7148, 0.050640885, -0.1991929, -1737878.6, -21163.307, 0.0, 9.998266, 10.000678 
4.748333e+2, 1.348234e+2, -1791633.5, -1625849.8, 3170.5444, 0.027741803, -0.21548186, -1625789.3, -7078.5723, 0.0, 9.998477, 10.000673 
4.748534e+2, 1.4482386e+2, -1688298.6, -1561129.4, -12007.636, 0.013284871, -0.21740645, -1560005.5, -39299.047, 0.0, 9.998669, 10.000352 
4.7487354e+2, 1.5482447e+2, -1565250.9, -1451217.6, -15096.523, 0.019225728, -0.19146807, -1449252.9, -26551.395, 0.0, 9.998841, 10.00035 
4.748934e+2, 1.6482466e+2, -1472181.5, -1409001.5, -35316.883, 0.022447478, -0.18123995, -1393207.9, -68508.32, 0.0, 9.999038, 9.999872 
4.7491303e+2, 1.7482443e+2, -1342066.0, -1296112.5, -39239.383, 0.022598552, -0.18874824, -1273617.8, -46917.164, 0.0, 9.99926, 9.9998665 
4.7493255e+2, 1.8482374e+2, -1278451.4, -1315121.0, -49537.125, 0.024983564, -0.19856162, -1243964.9, -115257.73, 0.0, 9.999457, 9.998969 
4.74952e+2, 1.9482253e+2, -1156734.9, -1207088.0, -50371.715, 0.029880455, -0.21185799, -1125598.4, -94878.82, 0.0, 9.999626, 9.998957 
4.7497135e+2, 2.0482145e+2, -1057442.4, -1143274.0, -59188.063, 0.028496558, -0.19895463, -1027248.75, -94516.805, 0.0, 9.999784, 9.998645 
4.749905e+2, 2.1482047e+2, -938034.1, -1035186.56, -61981.715, 0.020426655, -0.15913169, -907861.5, -73117.18, 0.0, 9.999932, 9.998643 
4.7500947e+2, 2.2481939e+2, -810499.3, -919502.3, -74676.58, 0.010703226, -0.1314314, -772550.8, -35794.06, 0.0, 10.00012, 9.998674 
4.7502828e+2, 2.3481819e+2, -678589.25, -804602.9, -75732.47, -0.00088409305, -0.11770378, -643080.75, -4311.5796, 0.0, 10.000351, 9.998679 
4.750471e+2, 2.4481668e+2, -578823.9, -754987.3, -78138.83, -0.011204971, -0.11254031, -549159.9, -8375.065, 0.0, 10.000575, 9.998239 
4.7506592e+2, 2.5481486e+2, -449337.0, -642097.5, -78365.27, -0.020117985, -0.11787655, -421498.6, 21305.107, 0.0, 10.000792, 9.998237 
4.7508487e+2, 2.6481307e+2, -340540.38, -568149.5, -70437.305, -0.025119111, -0.10344422, -320505.9, 24317.162, 0.0, 10.000992, 9.997975 
4.75104e+2, 2.7481136e+2, -216052.08, -457304.44, -73009.57, -0.026083658, -0.0681653, -195678.0, 51164.74, 0.0, 10.001174, 9.997975 
4.7512335e+2, 2.8480977e+2, -86715.16, -339885.7, -50917.83, -0.034548126, -0.029247826, -76858.29, 72002.77, 0.0, 10.00137, 9.998014 
4.7514293e+2, 2.9480815e+2, 42634.695, -226065.38, -48153.56, -0.05070586, 0.010808682, 51003.605, 101881.65, 0.0, 10.001582, 9.998021 
4.75163e+2, 3.04806e+2, 152673.9, -102771.39, -11523.887, -0.05733245, -0.024432363, 153192.72, 153192.72, 0.0, 10.001808, 9.998424 
4.7518364e+2, 3.1480458e+2, 192173.53, -76278.33, -13732.658, -0.064477675, -0.0047404207, 192874.19, 192874.19, 0.0, 10.002048, 9.99849 
4.8481143e+2, 1.24802224e+2, -1902759.0, -1729095.8, -9278.848, 0.056390006, -0.19859026, -1728601.4, -11682.867, 0.0, 9.998383, 10.000683 
4.8483184e+2, 1.3480276e+2, -1765831.0, -1613189.0, -11539.331, 0.028947758, -0.20965101, -1612321.5, 6591.551, 0.0, 9.998653, 10.000675 
4.848521e+2, 1.4480321e+2, -1659295.6, -1551607.3, -28794.402, 0.010093127, -0.212177, -1544391.5, -23482.451, 0.0, 9.998887, 10.000311 
4.8487243e+2, 1.5480372e+2, -1533476.6, -1440497.5, -29041.47, 0.015534567, -0.1900354, -1432172.0, -9267.232, 0.0, 9.999079, 10.000309 
4.8489252e+2, 1.6480385e+2, -1445131.4, -1405107.4, -46597.723, 0.019655641, -0.18084888, -1374406.3, -49502.65, 0.0, 9.999263, 9.99979 
4.8491237e+2, 1.7480356e+2, -1322216.8, -1295872.9, -49217.91, 0.022154357, -0.18650462, -1258094.9, -31189.174, 0.0, 9.999437, 9.9997835 
4.8493207e+2, 1.8480285e+2, -1259900.8, -1307405.6, -60343.53, 0.026415702, -0.19353625, -1218803.3, -89890.69, 0.0, 9.99959, 9.998958 
4.849517e+2, 1.9480169e+2, -1143948.0, -1202189.8, -60410.098, 0.032702684, -0.20308435, -1106006.1, -75081.69, 0.0, 9.99972, 9.998944 
4.8497117e+2, 2.0480053e+2, -1051320.5, -1144888.1, -68209.65, 0.03148584, -0.19255045, -1015392.25, -82455.09, 0.0, 9.999846, 9.998604 
4.8499042e+2, 2.1479942e+2, -935324.4, -1038522.2, -68761.5, 0.02215101, -0.16150147, -900954.75, -66004.086, 0.0, 9.999971, 9.998601 
4.8500958e+2, 2.2479829e+2, -811525.06, -925916.75, -78252.56, 0.011244324, -0.13437307, -771794.0, -34830.297, 0.0, 10.000139, 9.998621 
4.8502862e+2, 2.3479712e+2, -682047.8, -812146.2, -81735.8, -0.0013290346, -0.11237748, -642635.9, -3659.631, 0.0, 10.000353, 9.998626 
4.8504767e+2, 2.447956e+2, -581790.4, -754485.75, -85740.67, -0.01110933, -0.10506643, -546452.5, -5460.6587, 0.0, 10.000546, 9.998256 
4.8506668e+2, 2.5479373e+2, -458730.0, -644584.25, -84653.93, -0.017866764, -0.11498787, -425952.16, 17058.521, 0.0, 10.000719, 9.998254 
4.8508582e+2, 2.6479197e+2, -358222.0, -580393.1, -75680.875, -0.022734143, -0.101936184, -334891.8, 10138.333, 0.0, 10.000887, 9.997941 
4.851051e+2, 2.7479026e+2, -236593.1, -471050.47, -75797.52, -0.02583148, -0.064427495, -214222.95, 32827.113, 0.0, 10.00105, 9.997941 
4.8512462e+2, 2.8478858e+2, -107773.37, -346694.7, -53224.207, -0.035174713, -0.02731498, -96453.04, 52615.54, 0.0, 10.001211, 9.998044 
4.8514438e+2, 2.9478696e+2, 14185.247, -236260.47, -53195.99, -0.050813958, 0.006578474, 25015.973, 76101.61, 0.0, 10.001372, 9.998052 
4.8516467e+2, 3.0478486e+2, 114712.914, -109658.21, -16885.072, -0.055059977, -0.029493706, 115976.484, 115976.484, 0.0, 10.001499, 9.998525 
4.8518544e+2, 3.1478357e+2, 131797.75, -94148.07, -14526.76, -0.0580455, -0.008400004, 132727.89, 132727.89, 0.0, 10.001585, 9.9985895 
4.9480978e+2, 1.24781184e+2, -1904941.8, -1733383.3, 362.21667, 0.056972977, -0.20460966, -1733382.5, -16257.431, 0.0, 9.998382, 10.000654 
4.948305e+2, 1.3478188e+2, -1767939.1, -1617734.0, -1602.8383, 0.02934099, -0.19784619, -1617717.0, 1401.4927, 0.0, 9.998654, 10.000644 
4.9485096e+2, 1.4478233e+2, -1659230.9, -1551902.5, -21841.521, 0.007528084, -0.1981887, -1547628.0, -26513.736, 0.0, 9.998888, 10.000309 
4.9487147e+2, 1.5478273e+2, -1533377.6, -1440810.6, -22029.283, 0.011637146, -0.18718795, -1435835.5, -12724.724, 0.0, 9.999081, 10.000306 
4.9489173e+2, 1.6478278e+2, -1449374.0, -1414418.4, -40245.316, 0.016820084, -0.18222746, -1388019.5, -62909.297, 0.0, 9.999265, 9.999725 
4.9491176e+2, 1.7478245e+2, -1326668.3, -1305504.1, -42817.5, 0.022954341, -0.18470733, -1271980.4, -44867.434, 0.0, 9.999438, 9.999717 
4.9493167e+2, 1.8478173e+2, -1259847.8, -1307587.0, -55569.598, 0.02959125, -0.18890809, -1223238.1, -94118.11, 0.0, 9.999591, 9.998956 
4.9495146e+2, 1.9478057e+2, -1143924.1, -1202397.5, -55642.348, 0.03688437, -0.1960322, -1110305.0, -79173.414, 0.0, 9.999721, 9.998943 
4.94971e+2, 2.047794e+2, -1052033.0, -1146585.3, -63571.19, 0.032982536, -0.18897732, -1020085.9, -86941.45, 0.0, 9.999847, 9.998592 
4.9499032e+2, 2.1477818e+2, -936083.75, -1040313.2, -64110.207, 0.016868817, -0.16765293, -905578.5, -70419.914, 0.0, 9.999972, 9.998589 
4.9500963e+2, 2.24777e+2, -817440.7, -938303.7, -70280.91, 0.0049671726, -0.1404289, -785182.56, -48010.34, 0.0, 10.000139, 9.998536 
4.9502897e+2, 2.3477584e+2, -688068.8, -824728.06, -73703.83, -0.0022723046, -0.1075878, -655893.75, -16708.6, 0.0, 10.000353, 9.99854 
4.9504822e+2, 2.4477437e+2, -579504.8, -749798.06, -79211.0, -0.0069735125, -0.09446111, -548357.3, -7156.628, 0.0, 10.000546, 9.998288 
4.9506748e+2, 2.5477254e+2, -456313.6, -639589.56, -78148.164, -0.008936986, -0.104284614, -427516.28, 15702.633, 0.0, 10.000719, 9.998289 
4.9508676e+2, 2.6477072e+2, -358423.94, -580757.25, -69527.18, -0.016029121, -0.09542998, -338472.13, 6766.2, 0.0, 10.000887, 9.997939 
4.9510607e+2, 2.7476892e+2, -236993.3, -471635.38, -69580.305, -0.029057205, -0.06653335, -217911.83, 29347.043, 0.0, 10.001048, 9.997937 
4.9512574e+2, 2.847672e+2, -108531.13, -347831.03, -47045.92, -0.041889943, -0.034109086, -99614.25, 49663.56, 0.0, 10.001209, 9.998037 
4.9514568e+2, 2.9476556e+2, 13342.553, -237394.33, -46957.02, -0.053962424, -0.0007128563, 21847.96, 73143.04, 0.0, 10.001369, 9.998046 
4.951662e+2, 3.0476356e+2, 125009.18, -87577.125, -13444.687, -0.050298862, -0.035762675, 125856.09, 125856.09, 0.0, 10.001495, 9.998678 
4.951872e+2, 3.1476244e+2, 142184.64, -71785.22, -10975.104, -0.040646974, -0.014362285, 142746.11, 142746.11, 0.0, 10.001581, 9.998746 
5.0480837e+2, 1.2476002e+2, -1857382.6, -1718339.4, -5913.4263, 0.058106583, -0.20487446, -1718088.4, -755.63763, 0.0, 9.998742, 10.000584 
5.048292e+2, 1.3476072e+2, -1742541.1, -1613901.5, -11012.148, 0.031570304, -0.18907523, -1612965.6, 6360.6777, 0.0, 9.998865, 10.000568 
5.048499e+2, 1.4476115e+2, -1643164.4, -1544918.5, -34302.77, 0.007951434, -0.18925034, -1534127.0, -12804.462, 0.0, 9.999002, 10.000301 
5.0487053e+2, 1.5476146e+2, -1523239.3, -1436658.6, -34871.2, 0.0116604045, -0.18484844, -1424360.6, -1041.2936, 0.0, 9.999154, 10.0002985 
5.04891e+2, 1.6476147e+2, -1441262.9, -1413046.5, -51177.43, 0.016744647, -0.18190192, -1374068.3, -48749.098, 0.0, 9.999331, 9.999702 
5.0491124e+2, 1.7476116e+2, -1314058.1, -1302127.0, -50616.69, 0.023069046, -0.18144093, -1257125.5, -29803.38, 0.0, 9.999537, 9.999692 
5.0493133e+2, 1.8476044e+2, -1243273.3, -1297526.8, -63712.78, 0.029762214, -0.18413393, -1201152.8, -71823.64, 0.0, 9.999696, 9.998974 
5.049512e+2, 1.9475931e+2, -1130520.5, -1193890.5, -62482.7, 0.036978815, -0.19138396, -1092148.3, -60807.84, 0.0, 9.999804, 9.998961 
5.0497085e+2, 2.0475811e+2, -1043838.6, -1144447.5, -69961.36, 0.03302686, -0.18673742, -1007973.9, -74620.65, 0.0, 9.999911, 9.998575 
5.049903e+2, 2.1475682e+2, -930435.2, -1039549.5, -71032.69, 0.016844064, -0.17011444, -895426.0, -60058.375, 0.0, 10.00002, 9.99857 
5.050098e+2, 2.2475559e+2, -820496.4, -948376.44, -74449.65, 0.005129444, -0.14366634, -786298.4, -48916.473, 0.0, 10.000155, 9.998458 
5.0502926e+2, 2.347544e+2, -697981.7, -838272.56, -77357.22, -0.0016608686, -0.10728922, -663702.4, -24306.564, 0.0, 10.000322, 9.998461 
5.0504875e+2, 2.4475293e+2, -585764.0, -748583.75, -83328.94, -0.005513915, -0.089421, -550678.06, -9266.712, 0.0, 10.000485, 9.998325 
5.050681e+2, 2.547512e+2, -464466.34, -639032.25, -81995.914, -0.0061731027, -0.093305886, -431992.7, 11435.88, 0.0, 10.000645, 9.998328 
5.050876e+2, 2.647494e+2, -371246.47, -580971.44, -72667.54, -0.013332878, -0.08715066, -348528.75, -3081.2346, 0.0, 10.000773, 9.997992 
5.0510705e+2, 2.7474755e+2, -259409.48, -476562.2, -68773.086, -0.027944926, -0.07032027, -239461.28, 8006.897, 0.0, 10.00087, 9.99799 
5.051268e+2, 2.8474578e+2, -142536.63, -365629.22, -43929.277, -0.04126926, -0.042947285, -134198.16, 15289.101, 0.0, 10.000982, 9.998024 
5.051469e+2, 2.9474416e+2, -25178.387, -257618.36, -44549.47, -0.05267591, -0.0068797865, -16932.553, 34572.145, 0.0, 10.001112, 9.99803 
5.0516754e+2, 3.0474222e+2, 91965.11, -94336.484, -15963.678, -0.047506593, -0.03779449, 93323.09, 93323.09, 0.0, 10.001229, 9.99876 
5.051887e+2, 3.1474125e+2, 111029.1, -77460.9, -18730.707, -0.03518628, -0.012375482, 112872.39, 112872.39, 0.0, 10.0013275, 9.998828 
5.1480705e+2, 1.2473873e+2, -1865147.3, -1735406.6, -1993.7976, 0.059180763, -0.19935438, -1735376.0, -17834.605, 0.0, 9.998746, 10.000464 
5.1482815e+2, 1.3473932e+2, -1751008.8, -1631866.1, -6785.2065, 0.0356642, -0.18337716, -1631481.0, -11944.3955, 0.0, 9.998866, 10.000444 
5.1484895e+2, 1.4473964e+2, -1644178.8, -1547122.1, -28928.592, 0.011440317, -0.18560115, -1539153.9, -17620.06, 0.0, 9.999002, 10.000287 
5.1486975e+2, 1.5473993e+2, -1524071.6, -1438435.0, -29444.637, 0.015724638, -0.18300125, -1429288.0, -5757.2803, 0.0, 9.999154, 10.000287 
5.148903e+2, 1.6473995e+2, -1440005.0, -1410519.8, -43705.363, 0.019520028, -0.17974323, -1379137.5, -53607.043, 0.0, 9.999331, 9.99972 
5.1491076e+2, 1.7473967e+2, -1312723.8, -1299562.4, -43035.11, 0.022467496, -0.1766139, -1262607.6, -35074.582, 0.0, 9.999537, 9.99971 
5.1493096e+2, 1.8473898e+2, -1240558.4, -1292147.4, -59675.258, 0.026829949, -0.1791744, -1201341.4, -71801.586, 0.0, 9.999697, 9.999011 
5.1495093e+2, 1.9473787e+2, -1127854.4, -1188618.6, -58528.19, 0.032891035, -0.18917534, -1092292.4, -60741.586, 0.0, 9.9998045, 9.998997 
5.149708e+2, 2.0473666e+2, -1045316.4, -1147733.3, -65957.05, 0.031544607, -0.18589057, -1013022.5, -79459.0, 0.0, 9.999912, 9.998553 
5.149903e+2, 2.1473536e+2, -932065.25, -1043150.56, -67018.984, 0.022040524, -0.16891524, -900564.6, -64986.746, 0.0, 10.00002, 9.998546 
5.1501e+2, 2.2473405e+2, -825461.1, -958815.6, -68228.766, 0.011718136, -0.1440647, -796739.06, -59146.316, 0.0, 10.000156, 9.998386 
5.150296e+2, 2.3473275e+2, -703094.44, -848955.6, -71057.89, 0.00050221896, -0.111397706, -674201.2, -34593.055, 0.0, 10.000322, 9.998387 
5.150492e+2, 2.447313e+2, -582960.56, -742745.44, -77317.25, -0.00667406, -0.08988632, -551674.06, -10050.246, 0.0, 10.000485, 9.998365 
5.150687e+2, 2.5472975e+2, -461532.63, -632833.44, -75976.03, -0.009406397, -0.08209901, -432691.3, 10948.318, 0.0, 10.000644, 9.998371 
5.150883e+2, 2.64728e+2, -364133.4, -566072.75, -68942.21, -0.014577616, -0.07713611, -342841.47, 2816.2307, 0.0, 10.000772, 9.998095 
5.151079e+2, 2.747261e+2, -252233.64, -461537.4, -65108.34, -0.022749742, -0.07569626, -233633.3, 14044.739, 0.0, 10.000869, 9.998094 
5.151279e+2, 2.8472432e+2, -144232.13, -368980.13, -39002.93, -0.033678256, -0.053742174, -137655.94, 12041.069, 0.0, 10.000981, 9.998002 
5.1514804e+2, 2.9472274e+2, -27193.188, -261499.17, -39484.113, -0.047200955, -0.011992875, -20718.438, 30996.143, 0.0, 10.001111, 9.998005 
5.151688e+2, 3.0472085e+2, 92463.91, -92853.17, -12016.163, -0.04654917, -0.03586048, 93239.8, 93239.8, 0.0, 10.001227, 9.998772 
5.1518995e+2, 3.1471995e+2, 111415.3, -75940.15, -14658.307, -0.040955223, -0.0031883856, 112555.195, 112555.195, 0.0, 10.001324, 9.99884 
5.2480596e+2, 1.247172e+2, -1840645.5, -1729949.8, -15149.693, 0.06716054, -0.19552377, -1727913.8, -10161.122, 0.0, 9.998941, 10.000407 
5.2482706e+2, 1.3471773e+2, -1729115.1, -1628262.6, -14894.778, 0.03784914, -0.17856455, -1626108.8, -6360.2715, 0.0, 9.999047, 10.000381 
5.24848e+2, 1.4471799e+2, -1623230.8, -1538238.1, -34001.457, 0.008439657, -0.18235606, -1526309.8, -4563.505, 0.0, 9.999152, 10.000276 
5.248689e+2, 1.5471826e+2, -1510194.3, -1432934.8, -34489.24, 0.013450165, -0.182097, -1419778.8, 3964.6072, 0.0, 9.999255, 10.000276 
5.2488965e+2, 1.6471826e+2, -1434214.8, -1408125.1, -47979.38, 0.019071577, -0.17932898, -1371448.8, -45705.64, 0.0, 9.999373, 9.999716 
5.249103e+2, 1.7471799e+2, -1317241.3, -1302285.9, -49112.24, 0.025090184, -0.17462356, -1260085.4, -32339.39, 0.0, 9.99951, 9.999704 
5.2493066e+2, 1.8471734e+2, -1243525.0, -1289965.1, -68111.29, 0.029278865, -0.17486209, -1194784.5, -65032.152, 0.0, 9.999661, 9.9990425 
5.2495074e+2, 1.9471629e+2, -1121787.8, -1182120.0, -67455.0, 0.031496916, -0.18172857, -1078060.9, -46298.047, 0.0, 9.999831, 9.999028 
5.2497065e+2, 2.0471509e+2, -1038673.94, -1143507.0, -75819.02, 0.02975947, -0.17869495, -998916.6, -65141.438, 0.0, 9.999954, 9.998562 
5.249904e+2, 2.1471377e+2, -931109.3, -1041812.7, -74614.22, 0.023654735, -0.16567601, -893557.3, -57767.785, 0.0, 10.000024, 9.998553 
5.250101e+2, 2.247124e+2, -833652.2, -965608.75, -71129.836, 0.014784575, -0.14531511, -802611.94, -64807.12, 0.0, 10.000113, 9.998361 
5.250299e+2, 2.3471102e+2, -719423.1, -859768.25, -70528.64, 0.002891006, -0.11765615, -690104.6, -50283.563, 0.0, 10.000224, 9.998361 
5.250496e+2, 2.4470961e+2, -600719.0, -747331.5, -74930.77, -0.005294933, -0.094042614, -569199.56, -27362.963, 0.0, 10.000347, 9.998401 
5.250693e+2, 2.5470817e+2, -482402.47, -638692.2, -74155.11, -0.0093931565, -0.07625639, -452818.03, -8966.588, 0.0, 10.000483, 9.998408 
5.2508897e+2, 2.6470652e+2, -382546.56, -566783.9, -69918.945, -0.013993926, -0.069303066, -359017.03, -13148.291, 0.0, 10.000611, 9.998167 
5.2510875e+2, 2.7470458e+2, -267107.3, -460492.88, -68473.21, -0.019475892, -0.07482325, -245317.7, 2570.947, 0.0, 10.000731, 9.998166 
5.251288e+2, 2.8470284e+2, -162842.27, -375596.28, -41908.52, -0.029072616, -0.05589958, -154884.72, -4977.4116, 0.0, 10.000844, 9.998022 
5.251491e+2, 2.947013e+2, -49968.28, -270327.9, -39181.426, -0.042803805, -0.012779018, -43208.902, 8715.733, 0.0, 10.000945, 9.998023 
5.251699e+2, 3.0469945e+2, 64138.965, -104845.875, -11644.251, -0.045445625, -0.03317599, 64937.563, 64937.563, 0.0, 10.001026, 9.998786 
5.2519107e+2, 3.1469864e+2, 76528.56, -91005.1, -14247.005, -0.045999818, 0.004605058, 77731.49, 77731.49, 0.0, 10.001077, 9.998856 
5.3480506e+2, 1.24695405e+2, -1840034.1, -1729006.6, -11986.588, 0.0820491, -0.1940223, -1727727.3, -9760.572, 0.0, 9.998942, 10.000413 
5.348261e+2, 1.3469596e+2, -1728729.3, -1627795.8, -11242.599, 0.037946034, -0.17457335, -1626558.6, -6596.443, 0.0, 9.999048, 10.000384 
5.3484696e+2, 1.446962e+2, -1623784.9, -1539643.9, -30366.584, -0.0015336052, -0.17940646, -1529829.4, -7869.456, 0.0, 9.999153, 10.000265 
5.3486806e+2, 1.5469643e+2, -1510883.4, -1434510.4, -30839.338, 0.004438254, -0.18208386, -1423612.5, 344.7538, 0.0, 9.999255, 10.000265 
5.34889e+2, 1.6469641e+2, -1436244.4, -1412377.3, -43109.54, 0.015171215, -0.18066101, -1379580.0, -53622.645, 0.0, 9.999373, 9.999687 
5.3490984e+2, 1.7469612e+2, -1319454.5, -1306828.6, -44194.87, 0.03097508, -0.17553012, -1268498.1, -40537.48, 0.0, 9.999509, 9.999674 
5.3493035e+2, 1.8469551e+2, -1241800.6, -1286369.3, -61848.766, 0.037249006, -0.17124227, -1198344.0, -68377.17, 0.0, 9.999661, 9.999068 
5.3495055e+2, 1.9469456e+2, -1119939.6, -1178425.3, -61172.266, 0.032858446, -0.16898434, -1081379.9, -49403.39, 0.0, 9.999831, 9.999054 
5.349705e+2, 2.0469342e+2, -1035855.9, -1137865.3, -73145.76, 0.02768153, -0.16506267, -997687.8, -63699.426, 0.0, 9.999954, 9.9986 
5.349904e+2, 2.1469203e+2, -928326.5, -1036249.75, -72069.234, 0.021679273, -0.16037573, -892255.75, -56253.04, 0.0, 10.000024, 9.998591 
5.350102e+2, 2.2469063e+2, -832274.7, -962930.5, -66998.31, 0.0143025145, -0.14742067, -804026.4, -66008.28, 0.0, 10.000113, 9.998379 
5.3503007e+2, 2.346892e+2, -718153.75, -857262.1, -66356.07, 0.0054627336, -0.12604699, -691578.3, -51543.813, 0.0, 10.000224, 9.998378 
5.3505e+2, 2.4468783e+2, -598698.44, -743157.7, -69810.79, -0.0014458153, -0.101816244, -570475.75, -28425.895, 0.0, 10.000346, 9.998429 
5.3506976e+2, 2.546865e+2, -480492.13, -634595.9, -69019.516, -0.0062368237, -0.075622946, -454099.88, -10035.885, 0.0, 10.000482, 9.998437 
5.350896e+2, 2.6468495e+2, -379762.75, -560765.8, -65319.703, -0.011634968, -0.06361909, -358652.5, -12571.8, 0.0, 10.00061, 9.998209 
5.351095e+2, 2.746831e+2, -264413.13, -454604.5, -63870.34, -0.018039972, -0.06799377, -244954.86, 3145.2185, 0.0, 10.0007305, 9.998207 
5.3512967e+2, 2.8468138e+2, -158990.19, -367209.8, -38002.01, -0.027344035, -0.049779207, -152271.27, -2153.098, 0.0, 10.000842, 9.998081 
5.351501e+2, 2.9467985e+2, -46281.86, -262062.4, -35224.457, -0.03947579, -0.00939755, -40677.316, 11457.631, 0.0, 10.000942, 9.998081 
5.351709e+2, 3.0467805e+2, 64707.7, -102902.36, -9484.42, -0.04427043, -0.029701939, 65242.68, 65242.68, 0.0, 10.001022, 9.998801 
5.351921e+2, 3.1467724e+2, 76901.96, -89291.28, -12007.68, -0.050548483, 0.010702627, 77765.05, 77765.05, 0.0, 10.001073, 9.99887 
5.448041e+2, 1.246735e+2, -1811061.5, -1716263.6, -15296.687, 0.08108391, -0.19488667, -1713856.4, 4325.2373, 0.0, 9.999147, 10.000402 
5.448252e+2, 1.3467407e+2, -1706054.9, -1618371.3, -15628.961, 0.037492234, -0.17323975, -1615668.9, 4508.1885, 0.0, 9.99921, 10.000371 
5.448461e+2, 1.4467433e+2, -1604920.4, -1531989.4, -35105.465, -0.0045757242, -0.17585944, -1517837.5, 4337.304, 0.0, 9.999289, 10.000252 
5.4486734e+2, 1.5467457e+2, -1493200.4, -1427399.1, -35889.95, 0.0010429661, -0.17501509, -1411611.6, 12560.342, 0.0, 9.999383, 10.000252 
5.448884e+2, 1.6467452e+2, -1423857.0, -1409051.9, -47839.832, 0.01257925, -0.1744105, -1368045.3, -41872.887, 0.0, 9.999471, 9.999663 
5.449093e+2, 1.7467414e+2, -1315477.5, -1307690.6, -48636.945, 0.030520251, -0.17506082, -1262791.5, -34615.12, 0.0, 9.999549, 9.999648 
5.4493e+2, 1.8467353e+2, -1243819.0, -1285618.3, -65351.516, 0.037724975, -0.17036386, -1196106.5, -65923.79, 0.0, 9.99964, 9.999083 
5.449503e+2, 1.9467269e+2, -1131303.9, -1182172.0, -65558.39, 0.032879457, -0.16065767, -1086418.8, -54226.99, 0.0, 9.999746, 9.999069 
5.4497045e+2, 2.0467159e+2, -1046844.56, -1137393.5, -79317.29, 0.027726179, -0.1547683, -1000789.9, -66586.85, 0.0, 9.999854, 9.9986515 
5.4499036e+2, 2.1467021e+2, -933376.8, -1032903.75, -77397.67, 0.022254897, -0.15433444, -891125.06, -54908.043, 0.0, 9.999965, 9.998643 
5.450103e+2, 2.2466879e+2, -838442.94, -962940.1, -71534.93, 0.01619656, -0.14620355, -805864.7, -67632.484, 0.0, 10.000058, 9.998405 
5.4503036e+2, 2.3466733e+2, -729755.56, -860060.2, -70372.14, 0.009567796, -0.13020894, -699006.56, -58757.92, 0.0, 10.000133, 9.998403 
5.4505026e+2, 2.4466598e+2, -615789.94, -747375.94, -72739.99, 0.0028660875, -0.10594179, -583502.2, -41238.414, 0.0, 10.000212, 9.998466 
5.450702e+2, 2.5466478e+2, -504866.22, -642253.4, -71484.05, -0.0039950437, -0.07355332, -474419.6, -30142.232, 0.0, 10.000297, 9.998473 
5.450901e+2, 2.6466328e+2, -405959.28, -567455.5, -66590.32, -0.010590844, -0.057266645, -382043.53, -35750.133, 0.0, 10.000405, 9.998261 
5.451101e+2, 2.746615e+2, -288681.97, -460340.2, -64369.934, -0.01716487, -0.059644215, -267225.84, -18913.82, 0.0, 10.000538, 9.9982605 
5.451304e+2, 2.8465983e+2, -185018.47, -373550.5, -40050.395, -0.02547945, -0.04414276, -176863.22, -26533.48, 0.0, 10.000637, 9.998136 
5.451509e+2, 2.9465827e+2, -78607.55, -271442.8, -37680.25, -0.03536824, -0.01182012, -71506.29, -19159.736, 0.0, 10.000694, 9.9981365 
5.451718e+2, 3.0465654e+2, 27467.83, -114668.66, -12190.777, -0.042958733, -0.031292334, 28505.83, 28505.83, 0.0, 10.00074, 9.998856 
5.4519296e+2, 3.1465587e+2, 36620.0, -102432.016, -11867.747, -0.057071164, 0.019566786, 37625.613, 37625.613, 0.000000000015387011, 10.00077, 9.998925 
5.5480295e+2, 1.24651484e+2, -1812882.3, -1720605.0, -13507.46, 0.062250677, -0.19893563, -1718668.5, -270.87354, 0.0, 9.999149, 10.000371 
5.548244e+2, 1.3465203e+2, -1708265.6, -1623323.1, -13561.872, 0.036236215, -0.17465474, -1621210.4, -817.3797, 0.0, 9.999211, 10.000337 
5.5484545e+2, 1.4465232e+2, -1606080.5, -1534626.6, -31795.498, -0.00030970987, -0.17164056, -1522527.1, -136.50183, 0.0, 9.9992895, 10.000234 
5.548667e+2, 1.5465267e+2, -1494361.0, -1430031.6, -32575.557, 0.0035205411, -0.1604947, -1416417.1, 7970.282, 0.0, 9.999384, 10.000234 
5.548878e+2, 1.6465259e+2, -1425175.0, -1411977.5, -45067.484, 0.011369319, -0.16015357, -1373028.3, -46640.16, 0.0, 9.999471, 9.999643 
5.549088e+2, 1.7465207e+2, -1316977.6, -1310909.5, -45869.168, 0.023515282, -0.17310707, -1267974.1, -39580.93, 0.0, 9.999549, 9.999626 
5.5492955e+2, 1.8465142e+2, -1243573.5, -1285155.4, -61501.492, 0.030420713, -0.17229068, -1199443.8, -69043.766, 0.0, 9.99964, 9.999086 
5.5495e+2, 1.9465062e+2, -1131108.8, -1181801.5, -61659.402, 0.031460926, -0.15683264, -1089789.4, -57380.83, 0.0, 9.999746, 9.999072 
5.5497026e+2, 2.0464958e+2, -1042453.6, -1128361.1, -75221.66, 0.029891755, -0.14789192, -998785.6, -64366.37, 0.0, 9.999854, 9.9987135 
5.549903e+2, 2.1464828e+2, -928847.94, -1023665.5, -73266.28, 0.025368474, -0.14759359, -888989.6, -52557.164, 0.0, 9.999965, 9.998706 
5.550104e+2, 2.2464688e+2, -836073.0, -958228.2, -68733.21, 0.020443426, -0.14170216, -805201.0, -66753.805, 0.0, 10.000058, 9.998438 
5.5503047e+2, 2.346454e+2, -727549.8, -855630.9, -67560.48, 0.015180122, -0.13021399, -698501.1, -58037.54, 0.0, 10.000133, 9.998433 
5.5505055e+2, 2.4464409e+2, -612896.5, -741463.2, -69556.516, 0.0076255337, -0.10648858, -582467.4, -39988.895, 0.0, 10.000213, 9.998506 
5.5507046e+2, 2.5464293e+2, -501984.7, -636312.1, -68281.83, -0.0026594305, -0.070072345, -473370.7, -28879.133, 0.0, 10.000297, 9.998514 
5.550905e+2, 2.6464155e+2, -401707.78, -558497.8, -61636.137, -0.010844348, -0.050259095, -380379.22, -33872.363, 0.0, 10.000404, 9.998323 
5.551106e+2, 2.7463987e+2, -284636.47, -451464.3, -59308.93, -0.016854087, -0.049815785, -265700.84, -17176.299, 0.0, 10.000536, 9.9983225 
5.5513096e+2, 2.846382e+2, -182000.28, -366568.8, -37721.113, -0.023530265, -0.03888189, -174588.67, -24046.63, 0.0, 10.000633, 9.998185 
5.551516e+2, 2.9463655e+2, -75685.7, -264520.0, -35362.6, -0.030584443, -0.019590521, -69280.67, -16721.22, 0.0, 10.00069, 9.998186 
5.5517256e+2, 3.0463493e+2, 33233.258, -101890.71, -10876.5, -0.041561037, -0.0375652, 34103.137, 34103.137, 0.0, 10.000736, 9.998945 
5.5519354e+2, 3.1463453e+2, 42687.91, -89272.77, -10583.585, -0.06552006, 0.03115454, 43531.35, 43531.35, 0.0000000020600701, 10.000767, 9.999018 
5.648021e+2, 1.24629475e+2, -1782724.0, -1710439.9, -15752.418, 0.050424892, -0.19745544, -1707156.3, 11457.26, 0.0, 9.999375, 10.000332 
5.648237e+2, 1.3463001e+2, -1691698.0, -1620180.6, -16355.049, 0.03615751, -0.1722288, -1616617.9, 3991.401, 0.0, 9.999347, 10.000293 
5.648448e+2, 1.4463027e+2, -1599668.0, -1538366.6, -34171.93, 0.0027205814, -0.16608028, -1523113.3, -505.91187, 0.0, 9.999364, 10.000173 
5.6486607e+2, 1.546306e+2, -1491448.3, -1435615.1, -38418.715, 0.006111652, -0.14865577, -1416041.4, 8563.129, 0.0, 9.999434, 10.000171 
5.648873e+2, 1.646305e+2, -1417954.3, -1406755.5, -51436.957, 0.011892264, -0.1470943, -1360614.1, -34008.633, 0.0, 9.999514, 9.999658 
5.649083e+2, 1.7462996e+2, -1308135.8, -1304793.6, -49473.566, 0.020143265, -0.16470385, -1256962.9, -28352.326, 0.0, 9.999602, 9.999642 
5.649291e+2, 1.8462929e+2, -1236672.9, -1279715.9, -63051.016, 0.02609015, -0.16733578, -1191571.5, -60954.195, 0.0, 9.999679, 9.9991045 
5.649497e+2, 1.9462849e+2, -1130618.9, -1179654.9, -62246.984, 0.02948632, -0.15393786, -1088235.3, -55609.406, 0.0, 9.999742, 9.999088 
5.649701e+2, 2.0462747e+2, -1048205.56, -1127451.3, -76509.45, 0.03060712, -0.14466651, -1001667.75, -67031.375, 0.0, 9.9998, 9.998746 
5.649902e+2, 2.1462624e+2, -943275.75, -1027056.94, -77062.74, 0.029188594, -0.14127472, -897453.8, -60804.918, 0.0, 9.999851, 9.998737 
5.6501037e+2, 2.2462486e+2, -853272.7, -961863.6, -73495.11, 0.024773331, -0.13662484, -816192.44, -77529.16, 0.0, 9.999921, 9.998479 
5.650305e+2, 2.3462337e+2, -742314.56, -858151.56, -71583.97, 0.016980346, -0.13134927, -708152.56, -67473.04, 0.0, 10.000012, 9.998474 
5.6505066e+2, 2.4462208e+2, -627723.06, -746617.0, -73922.6, 0.008121447, -0.1074691, -592309.6, -49615.44, 0.0, 10.000102, 9.998524 
5.650707e+2, 2.5462103e+2, -516332.4, -641289.3, -74514.01, -0.0020174535, -0.06341164, -481569.44, -36862.55, 0.0, 10.000191, 9.998531 
5.6509084e+2, 2.646197e+2, -417044.16, -554758.94, -67779.2, -0.010053944, -0.040310886, -389281.88, -42560.383, 0.0, 10.000251, 9.998423 
5.6511104e+2, 2.746181e+2, -314822.56, -454486.63, -62588.27, -0.015890643, -0.04183085, -290879.3, -42141.19, 0.0, 10.000279, 9.9984255 
5.651315e+2, 2.846165e+2, -221748.11, -376176.25, -39185.574, -0.022584751, -0.03532065, -212373.95, -61619.08, 0.0, 10.0003195, 9.99827 
5.6515217e+2, 2.9461488e+2, -115885.086, -274401.78, -34348.0, -0.02990837, -0.023227364, -108762.47, -55990.547, 0.0, 10.000374, 9.99827 
5.651731e+2, 3.0461332e+2, -4898.6426, -114648.95, -9639.529, -0.043542247, -0.041002102, -4058.4211, -4058.4211, 0.0, 10.00045, 9.998995 
5.6519413e+2, 3.1461307e+2, 15027.194, -97074.74, -12453.539, -0.07231169, 0.036444373, 16394.008, 16394.008, 0.000000017271022, 10.000553, 9.999066 
5.7480145e+2, 1.2460749e+2, -1785719.5, -1717497.3, -17291.451, 0.045762718, -0.19035403, -1713364.9, 5464.4683, 0.0, 9.999379, 10.000282 
5.74823e+2, 1.3460796e+2, -1695328.6, -1628090.8, -17746.758, 0.03728001, -0.165651, -1623694.1, -2868.4556, 0.0, 9.999348, 10.000238 
5.748441e+2, 1.4460815e+2, -1607313.4, -1554279.4, -31827.105, 0.0043807817, -0.1590427, -1539370.4, -16545.66, 0.0, 9.999363, 10.000064 
5.748655e+2, 1.5460838e+2, -1499294.9, -1451910.0, -35985.277, 0.008769304, -0.13960613, -1432517.9, -7694.6743, 0.0, 9.999434, 10.000059 
5.748868e+2, 1.6460828e+2, -1414501.1, -1399631.6, -48324.17, 0.0141807785, -0.13534704, -1358173.6, -31349.195, 0.0, 9.999514, 9.999707 
5.749079e+2, 1.7460783e+2, -1304307.3, -1296961.3, -46306.945, 0.020508377, -0.14967328, -1254181.9, -25353.51, 0.0, 9.999602, 9.999696 
5.7492876e+2, 1.8460718e+2, -1234329.5, -1274999.1, -60724.69, 0.02483403, -0.15525876, -1190625.4, -59790.625, 0.0, 9.99968, 9.999137 
5.749494e+2, 1.946063e+2, -1128451.1, -1175281.4, -59976.21, 0.026959281, -0.15194911, -1087481.4, -54637.56, 0.0, 9.9997425, 9.999119 
5.749698e+2, 2.0460528e+2, -1048112.56, -1127387.6, -74574.51, 0.029827597, -0.14516498, -1003296.0, -68441.76, 0.0, 9.9998, 9.998747 
5.749901e+2, 2.146041e+2, -943286.9, -1027244.4, -75159.875, 0.033682726, -0.13541552, -899177.2, -62310.91, 0.0, 9.999851, 9.998736 
5.750103e+2, 2.2460276e+2, -849772.5, -954842.94, -70134.2, 0.02918946, -0.13097854, -814679.2, -75798.89, 0.0, 9.999922, 9.998527 
5.750305e+2, 2.3460123e+2, -738739.25, -850919.44, -68151.055, 0.01502799, -0.13359806, -706564.6, -65668.09, 0.0, 10.000012, 9.998524 
5.750507e+2, 2.4459997e+2, -628150.56, -747547.6, -70555.57, 0.0044089155, -0.10890195, -595426.1, -52515.11, 0.0, 10.000102, 9.998517 
5.7507086e+2, 2.5459903e+2, -517054.5, -642602.7, -71157.12, -0.0020823232, -0.053683363, -484939.6, -40016.203, 0.0, 10.000189, 9.998523 
5.7509106e+2, 2.645978e+2, -407858.88, -535393.0, -66603.61, -0.008273344, -0.027489679, -379418.13, -32480.834, 0.0, 10.00025, 9.998557 
5.7511127e+2, 2.7459627e+2, -305197.97, -434284.72, -61526.215, -0.014331528, -0.035556134, -280571.16, -31618.404, 0.0, 10.0002775, 9.998565 
5.751318e+2, 2.8459474e+2, -213682.67, -359180.1, -37239.21, -0.02261424, -0.03336459, -204705.4, -53737.117, 0.0, 10.000318, 9.998388 
5.7515246e+2, 2.9459324e+2, -108071.64, -257689.27, -32321.125, -0.03314228, -0.022959035, -101388.04, -48403.977, 0.0, 10.000371, 9.998386 
5.7517344e+2, 3.0459172e+2, -4704.1396, -113393.74, -5873.5356, -0.048768826, -0.04168695, -4387.658, -4387.658, 0.00000000021282408, 10.000446, 9.999006 
5.7519466e+2, 3.1459147e+2, 14623.99, -96512.31, -8491.638, -0.07764889, 0.03578585, 15269.069, 15269.069, 0.0000000699572, 10.000546, 9.999074 
5.848008e+2, 1.2458544e+2, -1760343.8, -1711565.3, -18735.27, 0.0332517, -0.18826655, -1705199.9, 13846.007, 0.0, 9.99958, 10.000225 
5.848224e+2, 1.345859e+2, -1661987.9, -1618788.4, -19587.48, 0.03219629, -0.15792188, -1611229.6, 9812.74, 0.0, 9.999606, 10.000177 
5.848436e+2, 1.4458604e+2, -1576356.6, -1548304.6, -31637.385, 0.0022569587, -0.14981091, -1527723.5, -4681.4336, 0.0, 9.999615, 9.999983 
5.8486503e+2, 1.5458615e+2, -1480135.3, -1451764.5, -33542.47, 0.010952432, -0.1340481, -1429531.3, -4489.286, 0.0, 9.999605, 9.999978 
5.848864e+2, 1.6458601e+2, -1403249.1, -1394599.4, -46437.816, 0.0175991, -0.12981461, -1352285.5, -25241.89, 0.0, 9.999593, 9.999703 
5.849075e+2, 1.7458558e+2, -1308151.1, -1298922.4, -48776.21, 0.021591753, -0.13999775, -1254542.8, -25495.576, 0.0, 9.999577, 9.999695 
5.849284e+2, 1.8458496e+2, -1241344.4, -1274514.3, -63695.82, 0.024632612, -0.14400916, -1192109.8, -61056.55, 0.0, 9.999615, 9.999171 
5.849491e+2, 1.9458412e+2, -1129655.0, -1171915.6, -62672.95, 0.026690742, -0.1420408, -1084646.1, -51584.2, 0.0, 9.999717, 9.999153 
5.8496964e+2, 2.045831e+2, -1044965.5, -1124076.8, -76991.64, 0.029920047, -0.13787462, -997962.7, -62890.4, 0.0, 9.999814, 9.998762 
5.8498996e+2, 2.1458189e+2, -934657.8, -1021455.4, -76547.695, 0.03464264, -0.13234289, -890062.25, -52977.81, 0.0, 9.999904, 9.998751 
5.8501023e+2, 2.2458056e+2, -842666.4, -946672.44, -72177.79, 0.030034358, -0.13002661, -805709.06, -66610.79, 0.0, 9.99995, 9.998569 
5.8503044e+2, 2.3457907e+2, -745554.9, -849368.94, -70825.83, 0.014534817, -0.13224259, -709651.6, -68537.83, 0.0, 9.999946, 9.998567 
5.850507e+2, 2.4457785e+2, -651241.2, -758833.25, -73266.59, 0.004239456, -0.105818614, -614141.7, -71013.62, 0.0, 9.999945, 9.998515 
5.850709e+2, 2.5457692e+2, -552533.44, -660074.56, -73604.95, 0.000060011396, -0.0471369, -515150.47, -70009.91, 0.0, 9.999948, 9.998519 
5.850912e+2, 2.6457578e+2, -437780.94, -539014.7, -69418.26, -0.0056862254, -0.020245703, -402485.28, -55331.14, 0.0, 9.999998, 9.998653 
5.8511144e+2, 2.745743e+2, -323592.16, -431865.97, -67212.12, -0.013489032, -0.031078098, -291425.7, -42256.965, 0.0, 10.000103, 9.998665 
5.8513194e+2, 2.8457287e+2, -228721.55, -354083.25, -46181.88, -0.022932017, -0.027941767, -213545.77, -62362.78, 0.0, 10.000162, 9.998498 
5.851527e+2, 2.9457152e+2, -130355.31, -256057.34, -41792.676, -0.03390426, -0.012213395, -117728.664, -64531.64, 0.0, 10.000165, 9.998497 
5.851737e+2, 3.0457008e+2, -42441.047, -126998.18, -13777.9375, -0.05054847, -0.032266393, -40252.676, -40252.676, 0.000000006848287, 10.000168, 9.999046 
5.851949e+2, 3.145698e+2, -37267.996, -117170.75, -14148.116, -0.08073246, 0.036148548, -34836.81, -34836.81, 0.00000018333391, 10.000172, 9.999112 
5.948001e+2, 1.2456331e+2, -1764515.9, -1720947.6, -18031.982, 0.011842899, -0.19217974, -1714452.8, 4810.3193, 0.0, 9.999583, 10.00016 
5.948218e+2, 1.3456383e+2, -1666281.3, -1628592.4, -18756.098, 0.020363927, -0.14905277, -1620849.3, 409.97955, 0.0, 9.99961, 10.000109 
5.948431e+2, 1.4456393e+2, -1579539.8, -1555688.8, -32141.293, -0.003943146, -0.13825704, -1533331.9, -10072.634, 0.0, 9.999618, 9.999931 
5.948646e+2, 1.545639e+2, -1483491.0, -1459187.1, -34065.063, 0.012577851, -0.13216822, -1435171.4, -9911.016, 0.0, 9.999607, 9.999927 
5.9488595e+2, 1.6456367e+2, -1407375.8, -1403368.3, -47157.5, 0.022176083, -0.13080525, -1358172.0, -30909.074, 0.0, 9.999593, 9.999643 
5.9490705e+2, 1.7456324e+2, -1312445.3, -1307834.3, -49558.055, 0.0234012, -0.13589533, -1260528.1, -31261.176, 0.0, 9.999577, 9.999634 
5.9492797e+2, 1.8456267e+2, -1238973.0, -1269550.4, -60119.207, 0.025477856, -0.13367404, -1192229.0, -60956.31, 0.0, 9.999614, 9.999206 
5.949488e+2, 1.9456193e+2, -1127002.4, -1166468.5, -58907.105, 0.02869655, -0.1241022, -1084611.0, -51330.7, 0.0, 9.999717, 9.999191 
5.949695e+2, 2.0456094e+2, -1042782.44, -1119687.4, -73601.086, 0.03090773, -0.122629836, -998194.5, -62904.063, 0.0, 9.999814, 9.998793 
5.949899e+2, 2.1455958e+2, -932579.1, -1017306.9, -73194.53, 0.032065835, -0.13199292, -890372.7, -53069.305, 0.0, 9.999905, 9.998779 
5.9501016e+2, 2.2455825e+2, -840066.94, -941525.44, -72231.1, 0.02727771, -0.13379468, -802530.75, -63213.676, 0.0, 9.999951, 9.998604 
5.9503037e+2, 2.3455688e+2, -743035.4, -844337.1, -71016.25, 0.015439831, -0.12738179, -706457.7, -65126.258, 0.0, 9.999946, 9.998601 
5.9505063e+2, 2.4455571e+2, -651024.0, -758535.9, -73121.35, 0.0075348504, -0.09826829, -614025.1, -70679.87, 0.0, 9.999945, 9.998518 
5.950709e+2, 2.5455478e+2, -552504.56, -660141.8, -73443.2, 0.004333772, -0.04364005, -515271.8, -69913.4, 0.0, 9.999948, 9.998519 
5.9509116e+2, 2.6455358e+2, -433669.63, -530455.6, -65555.56, -0.002340551, -0.018404564, -400580.03, -53207.98, 0.0, 9.999997, 9.998713 
5.9511155e+2, 2.7455223e+2, -319451.06, -422981.03, -63186.24, -0.013354844, -0.0283362, -289533.03, -40147.03, 0.0, 10.000101, 9.998727 
5.9513205e+2, 2.8455094e+2, -221933.88, -339483.6, -45897.066, -0.023588425, -0.019266373, -206136.47, -54737.504, 0.0, 10.000159, 9.9986 
5.9515285e+2, 2.945498e+2, -123621.195, -241317.17, -41715.168, -0.03242752, 0.008351363, -110335.69, -56924.86, 0.0, 10.000161, 9.9986 
5.951739e+2, 3.045484e+2, -38356.035, -117613.555, -13699.044, -0.04916403, -0.013350896, -36055.063, -36055.063, 0.000000033052434, 10.000163, 9.999113 
5.9519506e+2, 3.1454802e+2, -33282.004, -107953.836, -13980.478, -0.081772536, 0.037384495, -30750.336, -30750.336, 0.00000037488923, 10.000168, 9.999178 
6.047996e+2, 1.2454125e+2, -1718564.3, -1707681.5, -16789.959, -0.0076350514, -0.19191907, -1695473.3, 24006.318, 0.0, 9.999937, 10.00008 
6.0482144e+2, 1.3454178e+2, -1638516.6, -1624387.4, -18624.33, 0.014459203, -0.14062336, -1611532.8, 9943.207, 0.0, 9.99984, 10.000026 
6.048428e+2, 1.4454184e+2, -1559824.3, -1550492.9, -31630.084, -0.0046856357, -0.12762466, -1523186.1, 290.33975, 0.0, 9.999772, 9.999892 
6.048643e+2, 1.5454172e+2, -1466499.6, -1455046.6, -32382.871, 0.013694712, -0.12754737, -1427887.9, -2409.4553, 0.0, 9.999741, 9.999889 
6.0488564e+2, 1.6454141e+2, -1389766.0, -1401669.0, -43726.633, 0.023014704, -0.12884822, -1351587.8, -24106.14, 0.0, 9.999743, 9.999582 
6.049067e+2, 1.7454092e+2, -1286313.8, -1302231.1, -46265.164, 0.021432096, -0.1326651, -1247327.8, -17841.432, 0.0, 9.999786, 9.999571 
6.0492766e+2, 1.8454035e+2, -1213164.0, -1259068.5, -57761.41, 0.02279107, -0.12656507, -1173961.8, -42469.473, 0.0, 9.9998, 9.999187 
6.049485e+2, 1.9453967e+2, -1119032.9, -1164507.4, -60749.063, 0.027804274, -0.10993616, -1076905.4, -43405.9, 0.0, 9.999781, 9.999174 
6.0496926e+2, 2.0453867e+2, -1043377.94, -1113368.3, -75980.46, 0.031537827, -0.109453656, -994720.9, -59211.44, 0.0, 9.999783, 9.998851 
6.049897e+2, 2.145373e+2, -941982.7, -1014976.94, -73195.49, 0.03389843, -0.12950474, -896689.7, -59167.332, 0.0, 9.99981, 9.99884 
6.050101e+2, 2.2453596e+2, -856431.25, -947613.4, -73747.01, 0.030697191, -0.13383724, -815320.75, -75784.99, 0.0, 9.999831, 9.99862 
6.0503036e+2, 2.3453468e+2, -757237.75, -849756.25, -74344.414, 0.020786036, -0.12013289, -715935.56, -74386.08, 0.0, 9.999843, 9.998613 
6.050506e+2, 2.4453354e+2, -662751.4, -762276.94, -76612.125, 0.0118138045, -0.08986628, -621159.06, -77595.93, 0.0, 9.999856, 9.998534 
6.050708e+2, 2.5453255e+2, -562354.75, -663029.5, -75760.734, 0.0039922893, -0.041229125, -521733.13, -76156.48, 0.0, 9.999872, 9.998535 
6.0509115e+2, 2.645314e+2, -446439.34, -532615.25, -66135.945, -0.0042759795, -0.017231885, -410593.56, -63003.37, 0.0, 9.999893, 9.998748 
6.0511154e+2, 2.7453008e+2, -343662.38, -430551.0, -65599.32, -0.013211769, -0.022934776, -308425.8, -58822.285, 0.0, 9.999918, 9.998763 
6.0513216e+2, 2.845289e+2, -253057.89, -347314.8, -53600.895, -0.021998782, -0.009320247, -228813.06, -77197.33, 0.0, 9.999915, 9.998664 
6.051529e+2, 2.9452786e+2, -160357.97, -251779.13, -52425.902, -0.030168599, 0.023189405, -136513.31, -82886.65, 0.00000000003092486, 9.999878, 9.998664 
6.051739e+2, 3.0452654e+2, -75951.55, -127038.4, -24402.797, -0.048469312, 0.00011004026, -66168.445, -66168.445, 0.00000008707832, 9.999868, 9.99919 
6.05195e+2, 3.145261e+2, -67815.06, -115838.36, -23743.283, -0.08497225, 0.041870687, -58058.344, -58058.344, 0.0000006525611, 9.999893, 9.999255 
6.147994e+2, 1.2451928e+2, -1724375.4, -1721234.3, -20538.797, -0.025246521, -0.18757461, -1702206.1, 17489.043, 0.0, 9.999943, 9.999985 
6.148213e+2, 1.3451973e+2, -1644961.1, -1638616.0, -22505.28, 0.014846849, -0.13271384, -1619060.8, 2631.9673, 0.0, 9.999844, 9.999927 
6.148426e+2, 1.4451975e+2, -1561322.5, -1554062.4, -33050.555, 0.0003967427, -0.11807656, -1524443.1, -749.31177, 0.0, 9.999773, 9.999867 
6.14864e+2, 1.5451957e+2, -1467811.4, -1458143.4, -33658.36, 0.014293071, -0.12010703, -1428973.6, -3277.912, 0.0, 9.9997425, 9.999867 
6.1488533e+2, 1.645192e+2, -1393951.8, -1410725.6, -42319.1, 0.019917883, -0.12380172, -1359196.5, -31497.072, 0.0, 9.999744, 9.999519 
6.149064e+2, 1.7451864e+2, -1290642.3, -1311692.3, -44725.49, 0.015530692, -0.13031775, -1255220.0, -25514.86, 0.0, 9.999787, 9.999506 
6.1492735e+2, 1.8451801e+2, -1218031.8, -1269603.3, -58533.957, 0.01645963, -0.122767426, -1179855.6, -48143.766, 0.0, 9.999802, 9.999115 
6.1494833e+2, 1.9451731e+2, -1124119.9, -1175284.3, -61627.805, 0.023936288, -0.09961596, -1082975.5, -49255.973, 0.0, 9.999781, 9.9991 
6.14969e+2, 2.0451632e+2, -1037313.94, -1100918.6, -75053.02, 0.03175723, -0.098394305, -987603.44, -51874.152, 0.0, 9.999783, 9.998937 
6.149896e+2, 2.1451499e+2, -935397.3, -1001447.94, -72136.336, 0.040111456, -0.12487977, -889085.9, -51344.484, 0.0, 9.999811, 9.998933 
6.1500996e+2, 2.2451366e+2, -856679.3, -948347.5, -73318.55, 0.04026569, -0.13014258, -816047.4, -76293.086, 0.0, 9.999832, 9.998614 
6.150303e+2, 2.3451246e+2, -757882.94, -851296.8, -73891.39, 0.030513668, -0.11051704, -717174.4, -75406.4, 0.0, 9.999843, 9.998603 
6.150505e+2, 2.4451132e+2, -660587.94, -757945.0, -75977.78, 0.017071338, -0.08062649, -619032.2, -75250.54, 0.0, 9.999857, 9.998564 
6.1507064e+2, 2.5451028e+2, -560086.2, -658427.5, -75115.36, -0.00081458304, -0.039869443, -519478.97, -73683.71, 0.0, 9.999872, 9.998567 
6.150909e+2, 2.645091e+2, -445670.7, -531011.44, -65154.926, -0.011353627, -0.016740073, -410457.03, -62648.42, 0.0, 9.999892, 9.998759 
6.151115e+2, 2.745079e+2, -343066.44, -429075.3, -64551.098, -0.013121604, -0.015034564, -308506.53, -58685.188, 0.0, 9.999917, 9.998775 
6.151321e+2, 2.8450677e+2, -251488.69, -343659.78, -54741.824, -0.018316343, 0.0018443887, -226016.25, -74182.94, 0.0, 9.999913, 9.99869 
6.151528e+2, 2.9450577e+2, -158795.53, -248060.19, -53673.88, -0.027227899, 0.032648906, -133621.48, -79777.016, 0.0000000010306047, 9.999876, 9.998692 
6.151737e+2, 3.0450448e+2, -70435.89, -114919.734, -23426.795, -0.048467778, 0.008407046, -60374.285, -60374.285, 0.00000016756015, 9.999865, 9.999275 
6.151948e+2, 3.1450415e+2, -62348.1, -103434.336, -22574.264, -0.090242065, 0.049290523, -52368.816, -52368.816, 0.000001002472, 9.999888, 9.999343 
6.247993e+2, 1.24497354e+2, -1715614.3, -1729289.6, -19392.785, -0.030125108, -0.18200268, -1701889.0, 18021.18, 0.0, 10.000056, 9.999874 
6.2482125e+2, 1.344977e+2, -1625394.1, -1641911.9, -22610.572, 0.013636141, -0.12690474, -1609581.4, 12327.97, 0.0, 10.000032, 9.999813 
6.248424e+2, 1.4449763e+2, -1530387.0, -1543512.0, -33165.805, -0.0023765224, -0.11179626, -1503140.6, 20770.555, 0.0, 10.000005, 9.999828 
6.248638e+2, 1.5449741e+2, -1436741.8, -1447212.5, -34802.28, 0.010237896, -0.11509789, -1406783.3, 19130.158, 0.0, 9.999973, 9.999831 
6.248851e+2, 1.6449702e+2, -1369115.6, -1403776.4, -42276.773, 0.016859535, -0.11751252, -1340755.0, -12837.69, 0.0, 9.999937, 9.999475 
6.249062e+2, 1.7449646e+2, -1278236.4, -1310976.1, -43248.855, 0.016221898, -0.11963693, -1248363.0, -18439.879, 0.0, 9.999896, 9.999458 
6.2492716e+2, 1.8449576e+2, -1210985.6, -1271743.3, -55861.105, 0.018060109, -0.113371454, -1177777.3, -45846.71, 0.0, 9.999874, 9.999065 
6.249481e+2, 1.9449493e+2, -1113650.9, -1175941.3, -57284.984, 0.022939682, -0.09840931, -1079591.9, -45652.332, 0.0, 9.999877, 9.999048 
6.249688e+2, 2.0449392e+2, -1022104.1, -1087891.3, -70922.33, 0.030610042, -0.099044986, -976818.6, -40869.188, 0.0, 9.999863, 9.998987 
6.249894e+2, 2.144927e+2, -929357.6, -992272.5, -70892.95, 0.041819736, -0.119720936, -883256.2, -45295.977, 0.0, 9.9998255, 9.998988 
6.2500983e+2, 2.2449146e+2, -860920.94, -951013.44, -73327.18, 0.043840036, -0.12179892, -819908.8, -79936.305, 0.0, 9.999805, 9.998609 
6.250301e+2, 2.3449022e+2, -763969.94, -855255.2, -73859.43, 0.034670956, -0.1020852, -722788.25, -80801.75, 0.0, 9.999806, 9.998593 
6.250503e+2, 2.4448906e+2, -668000.3, -761539.2, -76976.66, 0.020217942, -0.0735933, -624698.75, -80698.31, 0.0, 9.999806, 9.998564 
6.2507045e+2, 2.5448796e+2, -569797.8, -663040.6, -78520.03, -0.0006171475, -0.03593737, -525101.4, -79087.125, 0.0, 9.999805, 9.998567 
6.250907e+2, 2.6448685e+2, -457943.97, -531585.06, -69256.96, -0.01241068, -0.013288728, -416328.03, -68300.67, 0.0, 9.999785, 9.998807 
6.251113e+2, 2.744857e+2, -365193.75, -433979.78, -65843.234, -0.0133649465, -0.009051413, -325302.1, -75262.69, 0.0, 9.999741, 9.998826 
6.2513185e+2, 2.8448465e+2, -280063.16, -353338.56, -55103.297, -0.019323364, 0.009852151, -250529.16, -98478.28, 0.0, 9.9997, 9.998726 
6.2515247e+2, 2.9448366e+2, -187067.5, -257664.52, -53548.723, -0.030895459, 0.042171344, -158229.83, -104168.055, 0.000000004235602, 9.999664, 9.998727 
6.251734e+2, 3.0448243e+2, -98596.35, -118845.445, -21932.764, -0.053300597, 0.016270231, -84564.06, -84564.06, 0.000000262113, 9.999631, 9.999361 
6.251945e+2, 3.1448212e+2, -98345.914, -110814.375, -21008.512, -0.09406297, 0.050908603, -82666.15, -82666.15, 0.0000013873902, 9.9995985, 9.999432 
6.347994e+2, 1.2447549e+2, -1724356.1, -1747741.5, -20259.8, -0.021273192, -0.17535023, -1712656.9, 7467.582, 0.0, 10.000057, 9.999747 
6.348212e+2, 1.3447568e+2, -1634196.3, -1660823.1, -23575.326, 0.010772708, -0.123394385, -1620434.9, 1690.694, 0.0, 10.000035, 9.999682 
6.348423e+2, 1.444755e+2, -1533806.1, -1551362.9, -34498.19, -0.013558316, -0.1090465, -1506986.9, 17141.787, 0.0, 10.000008, 9.999773 
6.3486373e+2, 1.5447524e+2, -1439952.9, -1454575.6, -36159.777, 0.0012203646, -0.11269247, -1410372.8, 15758.653, 0.0, 9.999976, 9.99978 
6.3488495e+2, 1.6447487e+2, -1370797.8, -1407799.6, -44006.324, 0.013783141, -0.10998635, -1341561.5, -13426.36, 0.0, 9.999939, 9.999446 
6.349062e+2, 1.7447436e+2, -1280061.9, -1315062.4, -44964.31, 0.023689903, -0.10036448, -1249312.3, -19172.064, 0.0, 9.999897, 9.99943 
6.349272e+2, 1.844736e+2, -1212803.5, -1275730.4, -55919.17, 0.02782446, -0.09812032, -1180103.9, -47955.78, 0.0, 9.999875, 9.999038 
6.3494796e+2, 1.9447254e+2, -1115563.8, -1180142.0, -57221.863, 0.024892883, -0.10638086, -1082149.5, -47990.03, 0.0, 9.999878, 9.99902 
6.3496864e+2, 2.0447147e+2, -1020960.44, -1085756.0, -72293.414, 0.028095568, -0.11159695, -974137.3, -37967.47, 0.0, 9.999864, 9.9990015 
6.3498914e+2, 2.1447043e+2, -928111.7, -989887.7, -72316.4, 0.039010163, -0.11409882, -880363.0, -42184.203, 0.0, 9.999826, 9.999004 
6.350096e+2, 2.2446926e+2, -861349.44, -952104.7, -73405.14, 0.041419696, -0.10878759, -820428.5, -80238.086, 0.0, 9.999806, 9.998601 
6.3502985e+2, 2.3446797e+2, -764554.75, -856660.8, -73814.31, 0.033314195, -0.09477795, -723605.3, -81400.266, 0.0, 9.999806, 9.998584 
6.350501e+2, 2.4446675e+2, -670144.0, -766102.1, -76929.055, 0.021242987, -0.0687467, -627458.5, -83239.016, 0.0, 9.999806, 9.998532 
6.3507026e+2, 2.5446567e+2, -572086.56, -667751.06, -78421.125, 0.004381668, -0.029536314, -528061.3, -81827.73, 0.0, 9.999805, 9.998535 
6.3509053e+2, 2.6446456e+2, -452408.38, -519918.28, -70756.26, -0.0076490906, -0.0069634374, -407767.88, -59521.344, 0.0, 9.999784, 9.998887 
6.35111e+2, 2.7446347e+2, -359223.2, -421288.38, -67411.11, -0.013929074, -0.0048961868, -316044.72, -65786.97, 0.0, 9.999739, 9.998914 
6.351315e+2, 2.8446248e+2, -277202.28, -346967.84, -56283.266, -0.024819257, 0.014814093, -245868.64, -93600.17, 0.0, 9.999698, 9.998771 
6.3515204e+2, 2.944616e+2, -184469.75, -251683.86, -54675.863, -0.04081759, 0.051695067, -153898.27, -99619.58, 0.000000008608103, 9.999661, 9.99877 
6.351729e+2, 3.044604e+2, -93150.15, -106748.24, -22979.277, -0.0627371, 0.023718653, -75985.18, -75985.18, 0.00000035003856, 9.999627, 9.999446 
6.3519406e+2, 3.1446007e+2, -92916.41, -98415.82, -21953.563, -0.09671309, 0.047119744, -73541.02, -73541.02, 0.0000017531521, 9.999593, 9.999519 
6.4479965e+2, 1.2445368e+2, -1682682.9, -1741342.8, -14360.559, -0.023330692, -0.17169042, -1679356.0, 40982.035, 0.0, 10.000402, 9.999624 
6.4482135e+2, 1.3445365e+2, -1594966.6, -1655924.5, -17400.842, 0.006033476, -0.12871835, -1590349.3, 31992.084, 0.0, 10.000365, 9.999557 
6.448423e+2, 1.444534e+2, -1495397.0, -1541029.9, -29775.14, -0.02092584, -0.11349958, -1480701.4, 43644.145, 0.0, 10.000306, 9.9997 
6.448637e+2, 1.5445316e+2, -1409015.6, -1447549.3, -32937.773, -0.0024487802, -0.107191496, -1390123.5, 36224.785, 0.0, 10.000222, 9.999709 
6.4488494e+2, 1.6445278e+2, -1344514.6, -1397938.1, -41872.266, 0.012932597, -0.099768646, -1321559.5, 6792.785, 0.0, 10.000132, 9.999421 
6.449061e+2, 1.7445225e+2, -1261869.5, -1308938.1, -42540.83, 0.02448923, -0.09203745, -1236787.0, -6429.529, 0.0, 10.000033, 9.999407 
6.449271e+2, 1.8445142e+2, -1201430.0, -1271758.1, -50988.777, 0.029411469, -0.09394817, -1174655.6, -42289.785, 0.0, 9.999959, 9.999024 
6.449478e+2, 1.9445026e+2, -1110835.0, -1179457.4, -51154.29, 0.026259443, -0.108991675, -1083550.6, -49172.69, 0.0, 9.999918, 9.999005 
6.449685e+2, 2.0444919e+2, -1016309.1, -1084616.4, -66287.55, 0.029579282, -0.113870755, -975893.94, -39505.566, 0.0, 9.9999, 9.998992 
6.44989e+2, 2.1444823e+2, -916131.94, -985241.1, -68383.52, 0.041030273, -0.107386336, -874068.5, -35671.664, 0.0, 9.999914, 9.998995 
6.450094e+2, 2.2444709e+2, -850665.7, -948127.1, -71742.93, 0.043746218, -0.099368714, -812668.5, -72260.23, 0.0, 9.999885, 9.99859 
6.4502966e+2, 2.3444572e+2, -765799.94, -858590.5, -72448.984, 0.035520736, -0.09029182, -726163.94, -83740.56, 0.0, 9.999804, 9.998571 
6.4504987e+2, 2.4444447e+2, -682312.6, -772753.7, -74779.58, 0.023079773, -0.06714451, -640143.94, -95705.75, 0.0, 9.999726, 9.998525 
6.4506996e+2, 2.5444338e+2, -594819.44, -679486.7, -74518.664, 0.005512206, -0.028183082, -551449.1, -104996.71, 0.0, 9.999653, 9.998528 
6.450902e+2, 2.6444232e+2, -477225.25, -525398.06, -67309.32, -0.0068754004, -0.0038839479, -429822.5, -81357.445, 0.0, 9.999586, 9.998945 
6.451106e+2, 2.7444133e+2, -385570.88, -426998.06, -65943.04, -0.012965522, 0.0022706334, -337164.75, -86689.34, 0.0, 9.999528, 9.998976 
6.4513105e+2, 2.8444043e+2, -306560.44, -355364.84, -55436.742, -0.024762033, 0.0236587, -270392.84, -117907.41, 0.0, 9.999472, 9.998822 
6.451515e+2, 2.9443958e+2, -216656.53, -261555.67, -53325.145, -0.043075856, 0.05923338, -181248.05, -126752.75, 0.000000011710588, 9.999416, 9.998819 
6.451723e+2, 3.044384e+2, -126357.914, -111799.375, -21466.076, -0.0667427, 0.028627573, -96411.92, -96411.92, 0.00000040808163, 9.9993515, 9.999544 
6.451934e+2, 3.1443813e+2, -132379.52, -106166.98, -19590.617, -0.10147415, 0.04679284, -95702.79, -95702.79, 0.0000020407565, 9.999274, 9.9996195 
6.547999e+2, 1.2443194e+2, -1690155.3, -1758301.4, -15733.532, -0.037395723, -0.17160875, -1686698.1, 33852.457, 0.0, 10.000409, 9.999506 
6.548216e+2, 1.3443165e+2, -1602689.8, -1673230.9, -18891.494, -0.00081440085, -0.1435275, -1597949.0, 24607.367, 0.0, 10.00037, 9.999435 
6.548426e+2, 1.4443131e+2, -1501273.4, -1554269.6, -32966.125, -0.024270464, -0.12571603, -1485475.9, 39085.777, 0.0, 10.000311, 9.999607 
6.5486395e+2, 1.5443118e+2, -1414949.1, -1460635.8, -36274.953, -0.0005069092, -0.09851895, -1394924.1, 31639.912, 0.0, 10.000225, 9.999619 
6.548851e+2, 1.6443078e+2, -1345755.8, -1401075.5, -45687.125, 0.014445133, -0.086663894, -1320007.9, 8560.496, 0.0, 10.0001335, 9.999398 
6.549061e+2, 1.7443007e+2, -1263008.1, -1311676.1, -46401.105, 0.018411962, -0.09498552, -1234947.4, -4372.3267, 0.0, 10.000034, 9.999387 
6.5492696e+2, 1.844292e+2, -1201343.6, -1271816.1, -52796.883, 0.022527516, -0.101280704, -1173104.6, -40520.957, 0.0, 9.99996, 9.999023 
6.5494776e+2, 1.9442813e+2, -1110808.0, -1179572.3, -52828.598, 0.026959073, -0.10623519, -1082158.5, -47563.758, 0.0, 9.999918, 9.999004 
6.5496844e+2, 2.044271e+2, -1018715.56, -1089790.3, -65934.984, 0.0350831, -0.10567855, -979350.8, -42745.793, 0.0, 9.999901, 9.998956 
6.5498894e+2, 2.144261e+2, -918717.44, -990802.0, -67919.0, 0.047888678, -0.09951273, -877869.94, -39255.76, 0.0, 9.999914, 9.998956 
6.550093e+2, 2.244249e+2, -851661.4, -950375.94, -74602.875, 0.050807398, -0.09352824, -811566.25, -70940.03, 0.0, 9.999886, 9.998575 
6.5502954e+2, 2.3442349e+2, -766809.7, -860852.5, -75473.01, 0.041248314, -0.088594705, -724908.75, -82267.13, 0.0, 9.9998045, 9.998555 
6.550496e+2, 2.4442221e+2, -681259.7, -770709.44, -77469.91, 0.025731469, -0.068708114, -636531.25, -91874.71, 0.0, 9.999727, 9.998539 
6.550696e+2, 2.5442111e+2, -593655.6, -677202.7, -77147.69, 0.0028997692, -0.03173449, -547697.75, -101027.055, 0.0, 9.999653, 9.998544 
6.5508974e+2, 2.644201e+2, -474831.0, -520482.3, -69388.15, -0.010001097, -0.003984098, -424610.6, -75927.66, 0.0, 9.999586, 9.998979 
6.551101e+2, 2.7441925e+2, -383154.6, -421825.8, -67981.67, -0.010600248, 0.012268116, -331812.25, -81119.875, 0.0, 9.999527, 9.999012 
6.551305e+2, 2.8441843e+2, -302936.78, -347462.44, -57353.54, -0.0194775, 0.036205716, -263676.75, -110974.87, 0.0, 9.99947, 9.998878 
6.5515095e+2, 2.9441756e+2, -213145.39, -253685.6, -55131.188, -0.038161363, 0.06492531, -174676.02, -119964.336, 0.000000011654482, 9.999414, 9.998875 
6.5517163e+2, 3.0441645e+2, -119318.03, -96372.8, -24157.01, -0.06567809, 0.031118393, -81102.52, -81102.52, 0.00000041978168, 9.999348, 9.999652 
6.551926e+2, 3.144163e+2, -125357.68, -90428.86, -22307.713, -0.10825843, 0.04950348, -79562.375, -79562.375, 0.0000022012798, 9.999269, 9.999731 
6.648004e+2, 1.2441027e+2, -1640980.5, -1742916.9, -11201.67, -0.04193562, -0.17303568, -1639764.0, 80998.44, 0.0, 10.000782, 9.999431 
6.648221e+2, 1.3440976e+2, -1569341.3, -1665418.9, -11007.271, -0.002037217, -0.15977673, -1568096.4, 54673.652, 0.0, 10.000635, 9.999361 
6.6484296e+2, 1.4440934e+2, -1479369.6, -1556807.9, -23737.805, -0.026405703, -0.14012852, -1472672.3, 52103.906, 0.0, 10.000518, 9.99949 
6.6486424e+2, 1.5440929e+2, -1392473.9, -1463148.5, -29225.563, -0.0025681967, -0.093917586, -1381954.3, 44824.418, 0.0, 10.000437, 9.999498 
6.6488534e+2, 1.6440888e+2, -1314430.6, -1388358.3, -39881.586, 0.012498991, -0.07626257, -1297017.4, 31766.186, 0.0, 10.000359, 9.999377 
6.649062e+2, 1.7440803e+2, -1227713.4, -1296402.3, -40387.848, 0.016612897, -0.095541835, -1209041.6, 21749.566, 0.0, 10.000284, 9.999372 
6.64927e+2, 1.8440711e+2, -1168424.1, -1257567.9, -46736.555, 0.02152757, -0.10571208, -1148413.0, -15612.842, 0.0, 10.000193, 9.999009 
6.6494775e+2, 1.9440608e+2, -1087977.6, -1170315.5, -47934.277, 0.027457897, -0.10562915, -1065959.8, -31148.98, 0.0, 10.000082, 9.998988 
6.649684e+2, 2.0440505e+2, -1008304.25, -1089729.4, -60071.027, 0.035817303, -0.10085195, -976449.3, -39628.277, 0.0, 9.999993, 9.998912 
6.649889e+2, 2.1440405e+2, -919177.06, -996250.9, -62710.535, 0.047315035, -0.091403045, -884108.9, -45278.03, 0.0, 9.999934, 9.998909 
6.650092e+2, 2.2440283e+2, -854764.44, -950001.7, -71044.43, 0.0506449, -0.0860681, -816856.2, -76012.945, 0.0, 9.999857, 9.998591 
6.650293e+2, 2.3440138e+2, -772445.25, -861351.25, -69570.43, 0.043632478, -0.08678377, -734338.5, -91479.945, 0.0, 9.999757, 9.998575 
6.650493e+2, 2.4440008e+2, -687800.06, -770745.06, -69139.7, 0.028815685, -0.07131529, -648648.3, -103774.98, 0.0, 9.999669, 9.998567 
6.650692e+2, 2.54399e+2, -599978.75, -677096.75, -67943.88, 0.00426866, -0.037012715, -560415.0, -113527.62, 0.0, 9.999597, 9.998571 
6.6508925e+2, 2.64398e+2, -489846.9, -530909.1, -62822.53, -0.0105899125, -0.005338023, -444285.7, -95386.28, 0.0, 9.999497, 9.99895 
6.651095e+2, 2.7439728e+2, -409228.5, -437961.72, -66511.26, -0.013393641, 0.02305475, -355549.94, -104641.26, 0.0, 9.999364, 9.99898 
6.6512984e+2, 2.8439647e+2, -328937.03, -350402.47, -56728.566, -0.022727441, 0.049836326, -281934.8, -129016.94, 0.0, 9.999249, 9.998962 
6.651502e+2, 2.9439563e+2, -243482.58, -257970.64, -51875.367, -0.0397121, 0.069611594, -198347.89, -143420.67, 0.000000008469742, 9.999162, 9.998967 
6.6517085e+2, 3.0439457e+2, -156004.67, -105305.45, -21721.27, -0.06359619, 0.032393098, -97272.195, -97272.195, 0.00000038345433, 9.999059, 9.999729 
6.6519177e+2, 3.143945e+2, -168467.11, -102620.734, -22444.785, -0.09964313, 0.053225014, -95697.91, -95697.91, 0.000002213461, 9.998936, 9.999807 
6.7480123e+2, 1.243887e+2, -1641851.6, -1746474.3, -16548.42, -0.036331702, -0.17632589, -1639296.5, 81677.016, 0.0, 10.00079, 9.999403 
6.7482275e+2, 1.3438801e+2, -1570421.4, -1668770.1, -16643.98, 0.0027581262, -0.17762236, -1567681.0, 55300.93, 0.0, 10.00064, 9.999336 
6.7484343e+2, 1.4438753e+2, -1488999.1, -1577501.1, -26887.865, -0.02724621, -0.1569088, -1481470.8, 43518.152, 0.0, 10.000521, 9.999347 
6.748646e+2, 1.543875e+2, -1402620.9, -1484864.3, -32297.088, -0.008856215, -0.09361641, -1391454.0, 35538.23, 0.0, 10.00044, 9.999349 
6.748856e+2, 1.6438708e+2, -1315537.4, -1391280.6, -42778.78, 0.006849809, -0.0687436, -1296275.1, 32722.605, 0.0, 10.000361, 9.999356 
6.749065e+2, 1.7438617e+2, -1228242.8, -1298103.3, -43301.582, 0.019170221, -0.09367303, -1207539.0, 23466.904, 0.0, 10.000286, 9.999359 
6.749272e+2, 1.8438518e+2, -1170201.4, -1261779.0, -50928.86, 0.026581148, -0.10714359, -1147504.0, -14488.805, 0.0, 10.0001955, 9.99898 
6.749478e+2, 1.9438413e+2, -1089959.9, -1174796.5, -52235.113, 0.027768217, -0.10721314, -1065089.1, -30063.336, 0.0, 10.000084, 9.998958 
6.749683e+2, 2.0438309e+2, -1012046.25, -1097761.9, -62502.17, 0.03172938, -0.09947742, -979119.4, -42083.04, 0.0, 9.999994, 9.998857 
6.749887e+2, 2.1438208e+2, -923036.1, -1004490.1, -65024.613, 0.039275814, -0.08308479, -887037.06, -47990.285, 0.0, 9.999934, 9.998853 
6.7500895e+2, 2.2438088e+2, -851408.3, -943209.5, -74701.95, 0.04324093, -0.07698672, -809632.0, -68572.664, 0.0, 9.999857, 9.998638 
6.7502904e+2, 2.343794e+2, -768652.7, -853664.4, -73314.484, 0.042671043, -0.084856346, -726413.25, -83338.96, 0.0, 9.999757, 9.998628 
6.75049e+2, 2.443781e+2, -684909.25, -764894.94, -71844.84, 0.032278035, -0.0749467, -642676.1, -97587.39, 0.0, 9.999669, 9.998607 
6.750688e+2, 2.54377e+2, -597240.2, -671463.3, -70565.47, 0.009461921, -0.043958068, -554622.5, -107520.164, 0.0, 9.999597, 9.9986105 
6.7508876e+2, 2.6437607e+2, -496194.88, -544105.1, -67581.445, -0.008705938, -0.007905034, -448448.53, -99334.086, 0.0, 9.999497, 9.998859 
6.751088e+2, 2.7437535e+2, -416147.13, -452367.03, -71307.06, -0.021098329, 0.034580603, -360686.25, -109561.89, 0.0, 9.999363, 9.998881 
6.75129e+2, 2.8437456e+2, -321133.2, -334174.63, -59908.07, -0.03412261, 0.06451332, -267392.0, -114258.45, 0.0, 9.999249, 9.999075 
6.751493e+2, 2.9437375e+2, -234836.53, -239850.14, -54870.33, -0.04739255, 0.07337402, -182415.78, -127273.75, 0.0000000040864183, 9.999161, 9.999092 
6.7516994e+2, 3.0437273e+2, -152854.8, -98354.74, -25968.191, -0.060687102, 0.03252401, -87962.89, -87962.89, 0.0000003121116, 9.999057, 9.999779 
6.751909e+2, 3.1437278e+2, -166025.33, -96657.08, -26702.846, -0.07696708, 0.05789744, -87568.72, -87568.72, 0.0000020895884, 9.998932, 9.99985 
6.848021e+2, 1.2436731e+2, -1613933.0, -1737475.6, -9686.544, -0.034585606, -0.17525372, -1613178.1, 108005.19, 0.0, 10.001, 9.999363 
6.848236e+2, 1.343665e+2, -1530786.5, -1653726.9, -10997.537, 0.0054006656, -0.18532582, -1529810.5, 93381.76, 0.0, 10.000929, 9.9993 
6.8484414e+2, 1.4436592e+2, -1451569.4, -1573425.0, -20646.174, -0.027528424, -0.16636623, -1448166.3, 77033.62, 0.0, 10.000837, 9.999222 
6.848651e+2, 1.5436578e+2, -1371149.4, -1484309.1, -24600.96, -0.01085943, -0.100014664, -1366032.5, 61172.2, 0.0, 10.000719, 9.999218 
6.8488604e+2, 1.643653e+2, -1285428.6, -1384459.8, -35840.453, 0.0038186407, -0.0696726, -1273818.8, 55392.35, 0.0, 10.000602, 9.999287 
6.849068e+2, 1.7436443e+2, -1203687.6, -1293460.8, -40351.8, 0.015862629, -0.08628114, -1188216.4, 43003.047, 0.0, 10.000486, 9.999294 
6.849274e+2, 1.8436342e+2, -1142136.8, -1244634.6, -48456.008, 0.024215022, -0.09991123, -1122856.0, 10372.797, 0.0, 10.000372, 9.999011 
6.849479e+2, 1.9436228e+2, -1061353.8, -1156646.8, -44589.09, 0.027964078, -0.111041635, -1043744.0, -8504.553, 0.0, 10.000261, 9.998996 
6.8496835e+2, 2.0436122e+2, -997550.56, -1099930.0, -52734.83, 0.032088894, -0.10532683, -975246.44, -37996.06, 0.0, 10.0001335, 9.998774 
6.849886e+2, 2.1436022e+2, -922042.5, -1014047.4, -57819.94, 0.03669431, -0.07915151, -894157.4, -54895.84, 0.0, 9.999985, 9.998762 
6.850087e+2, 2.2435902e+2, -848129.6, -935760.25, -68607.06, 0.03895658, -0.06848435, -810540.4, -69266.21, 0.0, 9.999854, 9.99869 
6.850287e+2, 2.3435761e+2, -765755.06, -845351.0, -66669.35, 0.038210537, -0.0786261, -727908.44, -84620.12, 0.0, 9.999747, 9.99869 
6.850486e+2, 2.443563e+2, -690164.0, -766217.7, -65961.33, 0.02980575, -0.07146295, -652053.2, -106750.875, 0.0, 9.999628, 9.998617 
6.8506837e+2, 2.543552e+2, -611828.94, -677706.6, -67162.586, 0.011706324, -0.043650202, -569962.8, -122646.805, 0.0, 9.999493, 9.998617 
6.850882e+2, 2.6435423e+2, -517362.38, -558136.75, -64269.176, -0.0068200193, -0.008774081, -470324.3, -120995.82, 0.0, 9.999369, 9.998825 
6.85108e+2, 2.7435347e+2, -434273.06, -465149.25, -63592.754, -0.02602753, 0.03507959, -384271.3, -132932.28, 0.0, 9.999256, 9.998844 
6.8512803e+2, 2.8435278e+2, -330671.22, -328647.78, -50027.934, -0.04211354, 0.06730782, -279621.34, -126273.39, 0.0, 9.999141, 9.999165 
6.8514824e+2, 2.9435208e+2, -248481.97, -235307.08, -46860.44, -0.053686175, 0.07960986, -194573.33, -139218.44, 0.0000000009738006, 9.999019, 9.999191 
6.8516886e+2, 3.0435115e+2, -177236.58, -103000.52, -20885.988, -0.060644947, 0.03924855, -97527.8, -97527.8, 0.00000022618863, 9.998858, 9.999842 
6.8518984e+2, 3.143512e+2, -203370.83, -107942.336, -20707.893, -0.06419546, 0.059933797, -103642.484, -103642.484, 0.0000018662819, 9.998647, 9.999909 
6.9480306e+2, 1.24346115e+2, -1617224.1, -1745256.6, -12007.596, -0.037140436, -0.16980495, -1616107.8, 105283.65, 0.0, 10.001004, 9.999308 
6.948244e+2, 1.3434523e+2, -1533600.8, -1660746.0, -13638.202, 0.0056615165, -0.18223312, -1532154.3, 91246.26, 0.0, 10.000934, 9.999249 
6.948449e+2, 1.4434452e+2, -1458411.8, -1588764.8, -25011.594, -0.027293282, -0.16798116, -1453777.4, 71631.74, 0.0, 10.000842, 9.999114 
6.948658e+2, 1.5434416e+2, -1378456.9, -1500358.0, -29137.51, -0.008407131, -0.11342959, -1371850.4, 55565.74, 0.0, 10.000722, 9.999106 
6.948866e+2, 1.6434361e+2, -1293426.6, -1401739.6, -40236.855, 0.0035461916, -0.07955972, -1280115.1, 49308.53, 0.0, 10.000604, 9.999167 
6.949072e+2, 1.7434284e+2, -1211763.3, -1310736.5, -44823.35, 0.006498022, -0.07328784, -1194481.1, 36950.586, 0.0, 10.000488, 9.999175 
6.949277e+2, 1.8434185e+2, -1135294.5, -1230855.1, -52746.3, 0.014153369, -0.08373499, -1111905.0, 21535.975, 0.0, 10.000374, 9.999105 
6.949482e+2, 1.9434059e+2, -1053505.3, -1140737.9, -48859.027, 0.027980618, -0.11710249, -1031626.6, 3824.967, 0.0, 10.000263, 9.9991045 
6.949685e+2, 2.0433946e+2, -1004993.4, -1115716.6, -58294.36, 0.036927365, -0.11851214, -979961.4, -42498.375, 0.0, 10.000135, 9.998665 
6.949886e+2, 2.1433847e+2, -930629.7, -1032164.5, -63484.71, 0.039573234, -0.079660475, -900109.7, -60634.54, 0.0, 9.999986, 9.998638 
6.9500864e+2, 2.2433732e+2, -844030.6, -927442.1, -72716.32, 0.037806608, -0.06060761, -801908.94, -60421.22, 0.0, 9.999855, 9.998747 
6.9502836e+2, 2.3433599e+2, -760798.9, -835230.06, -70670.695, 0.0303223, -0.0681819, -718143.7, -74643.04, 0.0, 9.999748, 9.998758 
6.950481e+2, 2.4433471e+2, -691452.6, -769028.56, -70908.805, 0.021487681, -0.061003726, -649416.3, -103902.13, 0.0, 9.999628, 9.998598 
6.950678e+2, 2.5433356e+2, -613630.06, -681505.25, -72128.1, 0.0110461535, -0.036279213, -567854.3, -120325.86, 0.0, 9.999493, 9.998591 
6.9508755e+2, 2.643325e+2, -516148.75, -555553.7, -68370.09, -0.004967376, -0.007924267, -464698.88, -115157.34, 0.0, 9.999368, 9.998843 
6.951072e+2, 2.7433166e+2, -432913.66, -462081.06, -67546.336, -0.02833383, 0.025096828, -378394.6, -126841.76, 0.0, 9.999255, 9.998866 
6.951271e+2, 2.8433102e+2, -326111.03, -318740.97, -54310.895, -0.046881326, 0.058732107, -267990.22, -114429.016, 0.0, 9.999138, 9.999234 
6.951472e+2, 2.9433057e+2, -243743.02, -224831.33, -51086.99, -0.05868234, 0.088088244, -182332.45, -126766.43, 0.000000000021633938, 9.999016, 9.999265 
6.9516766e+2, 3.0432978e+2, -172367.31, -92311.82, -28332.336, -0.06326876, 0.052185424, -83299.36, -83299.36, 0.00000014519733, 9.998857, 9.999916 
6.9518846e+2, 3.1432974e+2, -198365.75, -97340.26, -28344.56, -0.06063758, 0.059396707, -89931.06, -89931.06, 0.0000015881137, 9.998646, 9.999983 
7.0480424e+2, 1.24325044e+2, -1571288.6, -1730882.0, -7846.592, -0.033225086, -0.16097192, -1570903.8, 150694.81, 0.0, 10.001354, 9.999238 
7.048255e+2, 1.343241e+2, -1494913.9, -1649312.3, -10984.178, 0.006794257, -0.17290662, -1494136.4, 129471.625, 0.0, 10.001231, 9.999185 
7.048459e+2, 1.4432327e+2, -1428016.9, -1585507.0, -23952.934, -0.02881853, -0.1624348, -1424454.4, 101162.945, 0.0, 10.001101, 9.999012 
7.048667e+2, 1.5432267e+2, -1351216.5, -1498917.9, -27747.963, -0.007155718, -0.12167044, -1346175.8, 81450.78, 0.0, 10.00096, 9.9990015 
7.048873e+2, 1.64322e+2, -1263084.8, -1393673.6, -35472.254, 0.0033498877, -0.089762546, -1254071.4, 75563.76, 0.0, 10.000841, 9.999108 
7.049077e+2, 1.7432131e+2, -1177476.0, -1300280.1, -35108.766, -0.00071911747, -0.070334144, -1168147.3, 63495.707, 0.0, 10.000751, 9.99912 
7.049281e+2, 1.8432036e+2, -1100938.9, -1210783.5, -45088.53, 0.005755667, -0.07523482, -1084801.9, 48850.086, 0.0, 10.000595, 9.999136 
7.049485e+2, 1.9431911e+2, -1037248.0, -1128745.0, -46841.71, 0.025996048, -0.112987965, -1017520.75, 18141.48, 0.0, 10.000357, 9.999142 
7.0496863e+2, 2.0431793e+2, -1005572.06, -1122267.5, -56418.293, 0.038464732, -0.11788237, -982756.44, -45082.566, 0.0, 10.000158, 9.998609 
7.049886e+2, 2.1431684e+2, -931360.9, -1039699.25, -57080.438, 0.040834963, -0.08119491, -906837.8, -67150.6, 0.0, 10.000012, 9.998573 
7.0500845e+2, 2.243157e+2, -841998.0, -924911.9, -64839.746, 0.037125412, -0.06038385, -806494.75, -64794.74, 0.0, 9.999863, 9.99876 
7.05028e+2, 2.3431446e+2, -765284.1, -835243.3, -66592.734, 0.025510175, -0.061180864, -725042.94, -81330.9, 0.0, 9.999708, 9.998777 
7.050476e+2, 2.4431321e+2, -703108.44, -773979.7, -68855.96, 0.015223135, -0.05173803, -661104.9, -115379.664, 0.0, 9.999546, 9.998604 
7.050672e+2, 2.54312e+2, -630803.2, -689309.4, -67990.77, 0.0067529613, -0.030536845, -586039.44, -138299.72, 0.0, 9.999373, 9.998595 
7.0508677e+2, 2.6431096e+2, -536228.25, -559187.75, -61389.21, -0.0073727444, -0.006707243, -485254.63, -135501.75, 0.0, 9.999205, 9.998898 
7.051063e+2, 2.7431014e+2, -460342.06, -468799.13, -57960.918, -0.028947113, 0.020623052, -406455.63, -154691.66, 0.0, 9.999039, 9.998924 
7.051261e+2, 2.8430954e+2, -360392.38, -330012.97, -44112.375, -0.046547163, 0.054979045, -298548.3, -144776.53, 0.0, 9.99888, 9.999281 
7.051461e+2, 2.9430923e+2, -282060.28, -238047.11, -42883.285, -0.058557376, 0.09327937, -211853.42, -156077.83, 0.0, 9.998731, 9.999311 
7.051664e+2, 3.0430853e+2, -203583.08, -98706.26, -21808.607, -0.06426714, 0.06076091, -94352.04, -94352.04, 0.00000008201181, 9.998605, 9.999993 
7.05187e+2, 3.1430852e+2, -212794.63, -95612.695, -21675.045, -0.063483566, 0.062229186, -91731.99, -91731.99, 0.0000012936833, 9.998509, 10.000061 
7.148057e+2, 1.24304116e+2, -1576444.9, -1743166.1, -12142.215, -0.022375714, -0.1486906, -1575565.1, 146239.3, 0.0, 10.00136, 9.99915 
7.148267e+2, 1.3430312e+2, -1499959.6, -1660982.1, -15721.352, 0.008850962, -0.15696517, -1498439.0, 125375.17, 0.0, 10.001236, 9.999103 
7.148469e+2, 1.4430219e+2, -1434370.5, -1599616.5, -29221.414, -0.0322629, -0.14932086, -1429355.4, 96469.2, 0.0, 10.001104, 9.998914 
7.148676e+2, 1.5430132e+2, -1357748.1, -1513240.9, -33143.926, -0.007224536, -0.124483086, -1350978.1, 76857.68, 0.0, 10.000963, 9.998901 
7.148881e+2, 1.6430053e+2, -1262462.8, -1393052.4, -39067.953, 0.0031719913, -0.10026735, -1251667.4, 78178.18, 0.0, 10.000844, 9.999111 
7.1490836e+2, 1.7429988e+2, -1176314.8, -1298509.1, -38576.715, -0.005760517, -0.07776378, -1165155.3, 66697.7, 0.0, 10.000752, 9.999131 
7.1492857e+2, 1.8429899e+2, -1102967.3, -1215557.4, -53746.996, -0.00094244996, -0.074772716, -1081430.0, 52431.5, 0.0, 10.000597, 9.999103 
7.149487e+2, 1.9429785e+2, -1039639.3, -1134072.0, -55951.46, 0.02196417, -0.09863104, -1013644.0, 22227.217, 0.0, 10.000359, 9.9991045 
7.1496874e+2, 2.0429665e+2, -1005801.5, -1123010.8, -62225.273, 0.03662712, -0.10320645, -978928.1, -41045.055, 0.0, 10.000159, 9.998604 
7.149886e+2, 2.142954e+2, -931523.56, -1040315.8, -62616.742, 0.040441506, -0.083684556, -902975.1, -63077.55, 0.0, 10.000013, 9.998569 
7.1500826e+2, 2.2429417e+2, -843969.6, -929226.2, -70616.58, 0.03687484, -0.06781997, -804112.3, -62201.363, 0.0, 9.999863, 9.998731 
7.150277e+2, 2.34293e+2, -767401.06, -839829.4, -72357.23, 0.02370826, -0.057626072, -722701.44, -78778.83, 0.0, 9.999708, 9.998746 
7.150471e+2, 2.4429181e+2, -701045.6, -769803.9, -75216.08, 0.010988094, -0.043661945, -652724.2, -106788.64, 0.0, 9.999546, 9.998632 
7.150665e+2, 2.5429058e+2, -628552.6, -684631.2, -74329.516, -0.0010595263, -0.026395854, -577149.6, -129199.6, 0.0, 9.999373, 9.998628 
7.1508586e+2, 2.642896e+2, -530220.8, -546614.1, -67445.79, -0.013941321, -0.0051702396, -470475.44, -120512.78, 0.0, 9.999204, 9.998984 
7.1510535e+2, 2.7428886e+2, -454043.13, -455586.28, -63992.566, -0.027993575, 0.021395974, -390817.47, -138844.89, 0.0, 9.999039, 9.999016 
7.15125e+2, 2.842883e+2, -358837.53, -326587.34, -49653.305, -0.041386746, 0.05584371, -290506.4, -136526.58, 0.0, 9.998879, 9.999305 
7.151448e+2, 2.9428804e+2, -280901.6, -235309.75, -48303.445, -0.05361525, 0.095399484, -204693.34, -148709.58, 0.0, 9.998729, 9.999331 
7.1516496e+2, 3.0428737e+2, -198527.39, -87651.52, -25318.053, -0.063723184, 0.065199554, -82143.836, -82143.836, 0.00000004119849, 9.998602, 10.000071 
7.151854e+2, 3.1428748e+2, -207822.94, -84356.234, -25005.375, -0.072353065, 0.0680688, -79484.21, -79484.21, 0.0000010048329, 9.998505, 10.00014 
7.248073e+2, 1.2428324e+2, -1546521.4, -1738919.5, -4972.7344, -0.004897501, -0.14487492, -1546392.9, 175616.6, 0.0, 10.00161, 9.99906 
7.248281e+2, 1.3428222e+2, -1468208.5, -1655244.3, -9204.873, 0.010662106, -0.14882985, -1467756.6, 156263.08, 0.0, 10.001495, 9.999016 
7.2484803e+2, 1.442812e+2, -1402771.1, -1594557.8, -23390.555, -0.039874554, -0.14115289, -1399959.6, 126071.23, 0.0, 10.001366, 9.998822 
7.2486866e+2, 1.5428013e+2, -1327218.9, -1508840.6, -26909.824, -0.01184416, -0.12714092, -1323315.6, 104728.11, 0.0, 10.001218, 9.998809 
7.2488904e+2, 1.6427924e+2, -1234560.8, -1380521.4, -33267.504, 0.0021614975, -0.10696659, -1227336.0, 102718.21, 0.0, 10.0010395, 9.999103 
7.249092e+2, 1.7427863e+2, -1166266.8, -1293827.9, -33858.64, -0.002516919, -0.07959114, -1157836.8, 74224.46, 0.0, 10.000823, 9.999129 
7.249292e+2, 1.8427779e+2, -1102657.3, -1220943.0, -51993.387, 0.0022614573, -0.069943585, -1083052.5, 51017.047, 0.0, 10.000624, 9.999053 
7.249491e+2, 1.9427668e+2, -1030169.5, -1135457.8, -55664.656, 0.019467942, -0.08502885, -1006198.0, 29881.508, 0.0, 10.000449, 9.999051 
7.249689e+2, 2.0427546e+2, -985863.4, -1110008.9, -59503.656, 0.031552322, -0.09045134, -961949.44, -23857.875, 0.0, 10.000281, 9.998633 
7.249886e+2, 2.1427411e+2, -913020.75, -1027371.5, -56792.84, 0.03690247, -0.08423207, -889608.0, -49501.684, 0.0, 10.000123, 9.998605 
7.2500813e+2, 2.2427285e+2, -838861.94, -931686.7, -65697.85, 0.034353524, -0.07283694, -804836.0, -62716.082, 0.0, 9.99992, 9.998687 
7.250273e+2, 2.342717e+2, -778436.7, -850727.1, -69055.79, 0.021462511, -0.05546573, -736638.44, -92506.53, 0.0, 9.999657, 9.998696 
7.250466e+2, 2.4427053e+2, -715327.44, -768611.8, -70761.12, 0.008684195, -0.0385627, -666359.1, -120214.516, 0.0, 9.9994135, 9.998704 
7.250657e+2, 2.542694e+2, -648785.7, -685253.9, -66314.47, -0.0038576336, -0.023959037, -598244.1, -150085.97, 0.0, 9.999195, 9.998709 
7.2508496e+2, 2.642684e+2, -558120.44, -558767.9, -58818.895, -0.016986618, -0.0038084183, -499624.38, -149454.19, 0.0, 9.999006, 9.998995 
7.251043e+2, 2.7426767e+2, -479908.47, -467316.25, -61549.625, -0.031019967, 0.02386856, -411741.56, -159561.48, 0.0, 9.9988575, 9.999022 
7.251237e+2, 2.842672e+2, -383668.97, -336161.9, -50939.266, -0.04450196, 0.05953263, -303710.1, -149522.86, 0.0, 9.998699, 9.999326 
7.2514343e+2, 2.942669e+2, -308684.5, -246087.25, -49433.676, -0.05695277, 0.10049665, -218876.97, -162685.89, 0.0, 9.998528, 9.999354 
7.251634e+2, 3.0426636e+2, -227493.23, -93185.97, -25121.031, -0.06713258, 0.07236419, -88641.09, -88641.09, 0.000000018939705, 9.998367, 10.000146 
7.251837e+2, 3.1426653e+2, -243541.53, -92935.234, -24985.57, -0.07523144, 0.075768426, -88898.336, -88898.336, 0.0000007295325, 9.998223, 10.0002165 
7.3480916e+2, 1.24262445e+2, -1552759.8, -1752801.6, -8856.207, 0.01970981, -0.15030465, -1552368.5, 169844.95, 0.0, 10.001614, 9.998962 
7.348296e+2, 1.3426137e+2, -1473986.5, -1668210.1, -13511.774, 0.012197098, -0.14909062, -1473051.0, 151173.19, 0.0, 10.001499, 9.998925 
7.3484933e+2, 1.4426029e+2, -1408256.0, -1606863.5, -28804.813, -0.05197386, -0.13830261, -1404162.8, 122073.18, 0.0, 10.001369, 9.998735 
7.348698e+2, 1.5425909e+2, -1332800.8, -1521263.1, -32515.209, -0.021298287, -0.12969512, -1327348.6, 100901.5, 0.0, 10.001221, 9.998722 
7.3489004e+2, 1.6425815e+2, -1235781.5, -1383694.5, -41329.105, 0.00019443761, -0.10971928, -1225016.9, 105244.22, 0.0, 10.001042, 9.99908 
7.349101e+2, 1.7425758e+2, -1167295.1, -1296274.6, -42173.2, 0.009228082, -0.07564092, -1154729.6, 77538.08, 0.0, 10.000824, 9.999112 
7.349299e+2, 1.8425676e+2, -1107267.8, -1230728.6, -58716.758, 0.015670147, -0.060612746, -1083802.5, 50473.742, 0.0, 10.000624, 9.998985 
7.349495e+2, 1.942556e+2, -1035008.25, -1145823.5, -62298.38, 0.018580852, -0.07219013, -1007042.7, 29244.377, 0.0, 10.00045, 9.99898 
7.3496914e+2, 2.0425434e+2, -981116.5, -1100487.5, -65614.76, 0.023195215, -0.07969152, -952102.2, -13802.893, 0.0, 10.000283, 9.998698 
7.3498863e+2, 2.14253e+2, -907573.25, -1016362.56, -62820.668, 0.030185845, -0.08287589, -878870.3, -38557.023, 0.0, 10.000124, 9.99868 
7.3500794e+2, 2.2425169e+2, -842832.4, -940200.25, -75280.65, 0.029540982, -0.07543818, -801865.3, -59538.38, 0.0, 9.999921, 9.998628 
7.350269e+2, 2.3425052e+2, -783139.6, -860736.7, -78891.74, 0.018752696, -0.0546774, -734022.1, -89682.13, 0.0, 9.999658, 9.998627 
7.3504597e+2, 2.4424939e+2, -707270.1, -752122.6, -79022.11, 0.0082416795, -0.03640562, -647553.6, -101201.16, 0.0, 9.999414, 9.998817 
7.3506486e+2, 2.5424835e+2, -639666.75, -666544.7, -74416.83, -0.0018081174, -0.023198076, -577485.1, -129120.945, 0.0, 9.999196, 9.998837 
7.3508394e+2, 2.6424742e+2, -562416.75, -567834.8, -64481.23, -0.016603848, -0.0026383027, -500587.66, -150212.0, 0.0, 9.999007, 9.998933 
7.35103e+2, 2.7424663e+2, -485305.72, -478508.5, -66904.87, -0.03784573, 0.027950136, -414915.97, -162529.5, 0.0, 9.9988575, 9.998945 
7.351223e+2, 2.8424612e+2, -382657.1, -333901.13, -57079.81, -0.055522785, 0.065909825, -296211.47, -141817.36, 0.0, 9.998698, 9.999342 
7.351418e+2, 2.942459e+2, -307141.0, -242594.78, -55578.54, -0.06814037, 0.10840475, -210598.72, -154201.03, 0.0, 9.998526, 9.999379 
7.3516166e+2, 3.0424538e+2, -222815.86, -83071.28, -30309.178, -0.07435027, 0.08209052, -76780.7, -76780.7, 0.0000000073965225, 9.998365, 10.0002165 
7.351819e+2, 3.1424567e+2, -238827.97, -82594.9, -29987.086, -0.072736934, 0.08499037, -77036.95, -77036.95, 0.0000004773962, 9.99822, 10.000289 
7.44811e+2, 1.2424184e+2, -1518432.1, -1743749.9, -6520.0415, 0.029359529, -0.14526397, -1518243.6, 204172.27, 0.0, 10.001883, 9.998895 
7.4483126e+2, 1.3424067e+2, -1443977.3, -1660137.8, -9094.8, 0.015205166, -0.14688535, -1443595.3, 180832.34, 0.0, 10.001734, 9.998868 
7.448507e+2, 1.4423956e+2, -1381745.3, -1597824.4, -22303.117, -0.054028433, -0.13458557, -1379467.3, 146972.34, 0.0, 10.001568, 9.998702 
7.44871e+2, 1.5423833e+2, -1311451.6, -1514597.8, -22045.602, -0.022963446, -0.12512465, -1309086.8, 119366.9, 0.0, 10.001384, 9.998689 
7.448911e+2, 1.6423732e+2, -1220473.9, -1388433.3, -32841.44, -0.00072449894, -0.10530884, -1214280.6, 116184.67, 0.0, 10.0012, 9.998971 
7.44911e+2, 1.7423664e+2, -1147114.9, -1299419.9, -41247.297, 0.009386293, -0.0727267, -1136661.6, 95811.87, 0.0, 10.001019, 9.998997 
7.449307e+2, 1.8423577e+2, -1081074.1, -1219889.9, -60243.254, 0.015881073, -0.055655878, -1058576.1, 75906.7, 0.0, 10.000813, 9.998969 
7.4495e+2, 1.9423467e+2, -1017715.2, -1138435.5, -59171.695, 0.017599048, -0.06054809, -993549.4, 42943.875, 0.0, 10.000573, 9.998971 
7.4496937e+2, 2.0423344e+2, -974266.0, -1092083.4, -61474.293, 0.022574175, -0.067238204, -948031.7, -9526.586, 0.0, 10.000308, 9.998744 
7.449887e+2, 2.1423206e+2, -921189.7, -1017404.0, -60762.12, 0.03194144, -0.077449985, -891796.3, -51277.54, 0.0, 10.000007, 9.998729 
7.450078e+2, 2.2423072e+2, -867728.75, -954026.1, -72554.47, 0.031392373, -0.07448638, -826462.06, -83929.586, 0.0, 9.999758, 9.998611 
7.450265e+2, 2.3422952e+2, -796130.4, -869379.56, -72688.016, 0.017487163, -0.05466901, -751361.44, -106815.35, 0.0, 9.999579, 9.998606 
7.450453e+2, 2.4422842e+2, -707464.5, -745463.6, -72723.9, 0.004665171, -0.03551012, -651299.25, -104740.9, 0.0, 9.999384, 9.998878 
7.45064e+2, 2.542275e+2, -639268.94, -658746.56, -72647.53, -0.006566038, -0.018961847, -575710.4, -127141.6, 0.0, 9.999166, 9.998905 
7.450829e+2, 2.6422656e+2, -572095.94, -574576.56, -62495.594, -0.021654116, 0.0014908812, -510828.34, -160248.55, 0.0, 9.99895, 9.998914 
7.451018e+2, 2.7422574e+2, -504739.25, -490659.97, -61147.1, -0.041978322, 0.027340392, -436148.63, -183557.25, 0.0, 9.998736, 9.9989195 
7.451208e+2, 2.8422517e+2, -407236.7, -346116.34, -50149.89, -0.05906543, 0.06334166, -317948.88, -163349.4, 0.0, 9.998531, 9.999338 
7.451402e+2, 2.9422498e+2, -334655.5, -255854.2, -50574.035, -0.07158686, 0.10775669, -231144.44, -174541.36, 0.0, 9.998337, 9.999378 
7.4515986e+2, 3.0422455e+2, -246566.67, -85058.84, -24719.201, -0.07833548, 0.0849636, -81360.21, -81360.21, 0.0000000015345106, 9.998162, 10.0003 
7.4518e+2, 3.1422493e+2, -262789.06, -84053.195, -23097.031, -0.077979825, 0.0907746, -81116.734, -81116.734, 0.00000026410652, 9.998013, 10.00038 
7.548128e+2, 1.2422144e+2, -1520497.3, -1748947.5, -11772.565, 0.02260561, -0.12902868, -1519892.1, 202724.7, 0.0, 10.001885, 9.9988575 
7.548329e+2, 1.3422014e+2, -1445162.9, -1663423.4, -14757.953, 0.01964201, -0.14196984, -1444169.5, 180460.25, 0.0, 10.001737, 9.998844 
7.5485235e+2, 1.4421903e+2, -1379939.4, -1594784.6, -29120.662, -0.045463543, -0.12997648, -1376062.3, 150579.19, 0.0, 10.001571, 9.998721 
7.5487244e+2, 1.5421788e+2, -1309495.1, -1511123.1, -28997.936, -0.016456217, -0.113093354, -1305407.5, 123246.75, 0.0, 10.001386, 9.998712 
7.548923e+2, 1.642168e+2, -1234181.6, -1417421.4, -39674.98, -0.0005033414, -0.09336815, -1225960.0, 104706.68, 0.0, 10.001202, 9.998771 
7.5491184e+2, 1.742158e+2, -1162097.9, -1331092.6, -48187.77, -0.0024147464, -0.07083756, -1149323.1, 83355.58, 0.0, 10.00102, 9.998778 
7.5493133e+2, 1.842148e+2, -1078412.5, -1214889.9, -69200.03, 0.00240908, -0.05522134, -1049465.0, 85224.305, 0.0, 10.000814, 9.999002 
7.549506e+2, 1.9421387e+2, -1013692.4, -1130485.8, -68286.195, 0.0164028, -0.050154902, -982238.2, 54459.87, 0.0, 10.000575, 9.999024 
7.549697e+2, 2.0421271e+2, -972297.75, -1088320.5, -72727.445, 0.029754013, -0.053091817, -937279.0, 1429.9213, 0.0, 10.000309, 9.99877 
7.549888e+2, 2.142113e+2, -919506.6, -1014196.2, -72176.516, 0.042187847, -0.0679616, -880532.4, -39809.695, 0.0, 10.000008, 9.998751 
7.550076e+2, 2.2420996e+2, -865853.6, -950405.2, -79612.39, 0.03989851, -0.06998572, -817988.56, -75252.05, 0.0, 9.999759, 9.998636 
7.550261e+2, 2.342087e+2, -794307.0, -865821.75, -79351.46, 0.017670143, -0.05542283, -743028.5, -98278.24, 0.0, 9.999579, 9.99863 
7.550446e+2, 2.4420762e+2, -706787.06, -744232.1, -80721.99, -0.001984987, -0.035894524, -642644.8, -95882.51, 0.0, 9.999385, 9.998886 
7.5506306e+2, 2.5420678e+2, -638675.9, -657634.6, -80740.46, -0.017961936, -0.011381196, -566860.25, -118088.33, 0.0, 9.9991665, 9.998913 
7.5508165e+2, 2.6420587e+2, -570579.8, -571488.7, -70411.19, -0.032031726, 0.00851664, -500621.6, -149838.83, 0.0, 9.99895, 9.998936 
7.551005e+2, 2.7420494e+2, -503187.4, -487397.97, -68934.4, -0.04359906, 0.022271153, -425907.7, -173112.8, 0.0, 9.998736, 9.998942 
7.5511944e+2, 2.842043e+2, -409032.8, -349669.22, -57204.504, -0.055517167, 0.052252736, -314904.4, -160100.95, 0.0, 9.99853, 9.999314 
7.551386e+2, 2.9420415e+2, -336771.94, -259862.42, -57435.754, -0.067741744, 0.099039905, -229196.75, -172389.31, 0.0, 9.998335, 9.999352 
7.55158e+2, 3.042038e+2, -240202.8, -71297.49, -30032.428, -0.0792848, 0.08141718, -66116.46, -66116.46, 0.00000000001992495, 9.998159, 10.000397 
7.5517786e+2, 3.142043e+2, -255924.58, -69117.97, -28182.22, -0.09057101, 0.09324656, -64958.91, -64958.91, 0.000000109993245, 9.99801, 10.0004835 
7.648147e+2, 1.2420111e+2, -1491829.6, -1738880.5, -9828.895, 0.015623885, -0.11419128, -1491439.3, 231378.08, 0.0, 10.002099, 9.998824 
7.648348e+2, 1.3419974e+2, -1413663.8, -1650401.1, -12932.709, 0.022193814, -0.13185196, -1412959.4, 211871.33, 0.0, 10.001963, 9.998824 
7.648541e+2, 1.4419863e+2, -1347082.4, -1579620.3, -29605.938, -0.039493665, -0.11849387, -1343372.3, 183470.0, 0.0, 10.0018, 9.998715 
7.64874e+2, 1.5419751e+2, -1277938.5, -1496462.4, -31822.209, -0.012837287, -0.09866588, -1273398.8, 155455.77, 0.0, 10.001605, 9.998707 
7.648936e+2, 1.6419637e+2, -1213485.6, -1417578.9, -40720.5, 0.00028409317, -0.08101325, -1205661.1, 125206.414, 0.0, 10.001388, 9.99868 
7.649129e+2, 1.7419517e+2, -1151442.1, -1336852.6, -40222.496, -0.005156296, -0.06727266, -1143092.4, 89789.04, 0.0, 10.001141, 9.998681 
7.6493216e+2, 1.841941e+2, -1068591.0, -1210370.8, -58917.34, -0.0008993028, -0.054067567, -1047303.75, 87589.16, 0.0, 10.000883, 9.999001 
7.649511e+2, 1.9419324e+2, -1008140.44, -1127088.6, -61800.977, 0.016509311, -0.042816784, -981844.4, 55056.67, 0.0, 10.00061, 9.999031 
7.6497e+2, 2.0419213e+2, -966556.1, -1083279.8, -69443.086, 0.031021975, -0.042566944, -934207.2, 4704.291, 0.0, 10.0003395, 9.99879 
7.6498884e+2, 2.1419074e+2, -909066.0, -1006873.3, -69175.82, 0.04156234, -0.058406606, -873253.3, -32328.254, 0.0, 10.00007, 9.998771 
7.650074e+2, 2.2418939e+2, -855881.56, -940567.25, -73694.375, 0.038265776, -0.063301034, -813231.6, -70293.016, 0.0, 9.999805, 9.998681 
7.650256e+2, 2.3418814e+2, -795757.8, -861321.5, -71687.19, 0.016186265, -0.054060522, -749712.6, -104760.67, 0.0, 9.999548, 9.998676 
7.6504385e+2, 2.4418706e+2, -721012.56, -754561.06, -73779.79, -0.0042956728, -0.036346808, -662124.2, -115160.22, 0.0, 9.999302, 9.998855 
7.6506215e+2, 2.5418618e+2, -654959.06, -669681.5, -77275.766, -0.022454517, -0.008835422, -584694.7, -135720.64, 0.0, 9.999073, 9.998875 
7.650805e+2, 2.641853e+2, -582122.9, -569935.56, -67508.164, -0.036153093, 0.012216193, -508246.6, -157261.86, 0.0, 9.99884, 9.998999 
7.650991e+2, 2.741844e+2, -517459.56, -486149.94, -62488.074, -0.04388486, 0.024640385, -437385.56, -184389.72, 0.0, 9.998604, 9.999015 
7.651179e+2, 2.8418383e+2, -432482.6, -359182.8, -47467.773, -0.053578816, 0.050533712, -335862.66, -180858.58, 0.0, 9.998362, 9.9993305 
7.651368e+2, 2.9418355e+2, -368203.97, -273687.2, -45015.81, -0.0657652, 0.08951338, -255678.61, -198669.94, 0.0, 9.998115, 9.999363 
7.6515603e+2, 3.0418324e+2, -273333.88, -81204.13, -15257.302, -0.07899149, 0.07358863, -80000.08, -80000.08, 0.0, 9.997906, 10.00045 
7.6517564e+2, 3.1418398e+2, -289388.88, -79045.0, -16717.494, -0.094303615, 0.09730357, -77724.63, -77724.63, 0.000000028836135, 9.997753, 10.000539 
7.748167e+2, 1.2418087e+2, -1493704.5, -1743332.3, -14705.524, 0.008376646, -0.10109375, -1492841.3, 230176.05, 0.0, 10.002101, 9.998793 
7.748368e+2, 1.341795e+2, -1414382.1, -1652611.8, -18147.006, 0.022700125, -0.11619075, -1413007.6, 212022.72, 0.0, 10.0019655, 9.998808 
7.748559e+2, 1.4417839e+2, -1349055.9, -1584512.8, -36861.598, -0.03631632, -0.09967656, -1343420.0, 183621.63, 0.0, 10.001802, 9.99868 
7.748755e+2, 1.5417723e+2, -1280063.1, -1501633.1, -39314.676, -0.012283679, -0.081671536, -1273294.1, 155760.14, 0.0, 10.001609, 9.99867 
7.7489495e+2, 1.6417603e+2, -1211618.5, -1414349.5, -50050.016, 0.0015883942, -0.0682302, -1199935.5, 131132.11, 0.0, 10.00139, 9.998701 
7.7491415e+2, 1.7417479e+2, -1149361.0, -1332992.9, -49644.33, 0.0014054702, -0.061981034, -1136799.1, 96282.56, 0.0, 10.0011425, 9.998707 
7.7493304e+2, 1.8417367e+2, -1071100.4, -1215926.5, -69138.95, 0.0062690885, -0.05214791, -1043394.3, 91699.164, 0.0, 10.000884, 9.998962 
7.749517e+2, 1.9417278e+2, -1011022.8, -1133386.8, -72162.16, 0.017988399, -0.038575497, -977597.1, 59505.008, 0.0, 10.000611, 9.998987 
7.7497035e+2, 2.0417169e+2, -965411.06, -1081208.0, -79657.695, 0.026326414, -0.035746176, -924833.25, 14279.47, 0.0, 10.00034, 9.998803 
7.749888e+2, 2.1417035e+2, -907610.44, -1004153.7, -79375.09, 0.030030806, -0.04881898, -862981.3, -21855.488, 0.0, 10.000071, 9.998789 
7.75007e+2, 2.2416903e+2, -851243.7, -931256.44, -83437.984, 0.02645917, -0.054445397, -798716.8, -55578.043, 0.0, 9.999806, 9.998744 
7.750251e+2, 2.341678e+2, -790848.1, -851410.56, -81370.66, 0.012986294, -0.050607864, -734306.9, -89155.69, 0.0, 9.999549, 9.998744 
7.750432e+2, 2.4416667e+2, -725922.25, -764942.5, -82380.89, -0.002372996, -0.03683687, -660772.75, -113609.3, 0.0, 9.999303, 9.998783 
7.750612e+2, 2.541657e+2, -660779.06, -681814.8, -85723.7, -0.020241106, -0.011164187, -584930.4, -135755.19, 0.0, 9.999073, 9.998792 
7.7507937e+2, 2.6416487e+2, -575017.2, -555152.2, -76202.81, -0.034213323, 0.012656154, -488237.28, -137051.48, 0.0, 9.99884, 9.999101 
7.750977e+2, 2.7416417e+2, -509125.88, -468848.63, -71184.73, -0.042903367, 0.034119047, -415008.7, -161814.27, 0.0, 9.998603, 9.999134 
7.751162e+2, 2.8416362e+2, -428865.84, -351707.16, -56547.203, -0.053231437, 0.057839938, -321832.5, -166630.9, 0.0, 9.998362, 9.999382 
7.7513486e+2, 2.9416326e+2, -364976.0, -266981.13, -54050.316, -0.06561278, 0.07932769, -243025.27, -185818.23, 0.0, 9.998114, 9.99941 
7.7515393e+2, 3.0416295e+2, -272624.72, -79485.125, -21012.139, -0.07763402, 0.061760955, -77225.59, -77225.59, 0.0, 9.997905, 10.000463 
7.751735e+2, 3.141639e+2, -289387.66, -78189.34, -21989.092, -0.090003006, 0.1025711, -75924.22, -75924.22, 0.0000000029769756, 9.997749, 10.000546 
7.848189e+2, 1.2416089e+2, -1433041.3, -1722704.8, 4051.754, -0.001638736, -0.09255972, -1432984.5, 290229.4, 0.0, 10.002555, 9.998715 
7.8483886e+2, 1.341595e+2, -1366223.0, -1636548.5, -3477.9253, 0.021140251, -0.10514514, -1366178.3, 259048.92, 0.0, 10.002327, 9.998744 
7.8485787e+2, 1.4415832e+2, -1314468.3, -1575205.1, -27266.158, -0.03321329, -0.088551216, -1311647.4, 215591.55, 0.0, 10.002072, 9.998614 
7.8487724e+2, 1.5415701e+2, -1259076.8, -1498942.8, -32164.957, -0.008779341, -0.07949751, -1254838.5, 174414.61, 0.0, 10.001784, 9.998603 
7.8489643e+2, 1.6415577e+2, -1197287.3, -1403159.5, -45524.99, 0.0058759544, -0.068181634, -1187669.5, 143597.25, 0.0, 10.001471, 9.998739 
7.8491527e+2, 1.7415465e+2, -1149012.3, -1327456.8, -43656.188, 0.0069090053, -0.05450618, -1138904.4, 94375.03, 0.0, 10.001122, 9.9987545 
7.84934e+2, 1.841536e+2, -1080315.3, -1222520.3, -59634.043, 0.010953471, -0.041807976, -1058618.0, 76672.84, 0.0, 10.00083, 9.998942 
7.8495234e+2, 1.9415264e+2, -1011921.8, -1136600.9, -61136.793, 0.01911998, -0.0318333, -986946.25, 50354.105, 0.0, 10.000617, 9.998962 
7.8497064e+2, 2.0415154e+2, -958330.9, -1076858.6, -68856.75, 0.024969205, -0.029305583, -926746.2, 12565.048, 0.0, 10.000385, 9.998812 
7.849888e+2, 2.1415024e+2, -899075.56, -998779.5, -69285.57, 0.027658544, -0.038143087, -863571.2, -22247.303, 0.0, 10.000124, 9.9988 
7.850068e+2, 2.2414894e+2, -842401.25, -921266.6, -74772.48, 0.023712829, -0.044773754, -797300.75, -53964.387, 0.0, 9.999843, 9.9987955 
7.850246e+2, 2.3414767e+2, -789234.75, -844472.0, -73824.74, 0.010564188, -0.04914701, -738031.56, -92683.12, 0.0, 9.999534, 9.998798 
7.850424e+2, 2.4414653e+2, -738140.2, -773629.75, -73074.055, -0.0034888997, -0.039773654, -680687.25, -133326.61, 0.0, 9.999231, 9.998757 
7.8506017e+2, 2.5414553e+2, -682633.2, -695986.3, -72722.63, -0.018639006, -0.013044327, -616281.25, -166908.27, 0.0, 9.998939, 9.998758 
7.850781e+2, 2.6414472e+2, -596054.75, -562642.2, -62468.39, -0.032074597, 0.013593273, -514684.75, -163301.19, 0.0, 9.998684, 9.999124 
7.850962e+2, 2.7414414e+2, -524717.94, -473119.66, -63983.7, -0.043239124, 0.040195677, -429929.6, -176538.27, 0.0, 9.998483, 9.999163 
7.851145e+2, 2.8414363e+2, -439939.4, -350761.22, -54016.723, -0.05561594, 0.0635482, -325307.53, -169909.6, 0.0, 9.998259, 9.999437 
7.851329e+2, 2.9414323e+2, -376700.94, -265984.22, -50797.54, -0.06941637, 0.07717474, -246209.77, -188806.63, 0.0, 9.998005, 9.999469 
7.8515166e+2, 3.0414298e+2, -296885.44, -89998.53, -16665.986, -0.07971207, 0.058604743, -88664.586, -88664.586, 0.0, 9.997733, 10.000473 
7.851711e+2, 3.1414393e+2, -334533.5, -99454.055, -17803.104, -0.08618155, 0.10486719, -98113.43, -98113.43, 0.0, 9.9974375, 10.00055 
7.9482126e+2, 1.2414124e+2, -1441000.5, -1740824.1, -3889.321, -0.014781372, -0.08909579, -1440950.1, 282456.88, 0.0, 10.002562, 9.998588 
7.948412e+2, 1.3413976e+2, -1373631.4, -1653179.5, -12003.654, 0.01733754, -0.098976485, -1373116.9, 252304.08, 0.0, 10.002333, 9.998628 
7.9485995e+2, 1.4413844e+2, -1320901.5, -1589505.5, -37913.367, -0.030244522, -0.08548683, -1315652.6, 211781.42, 0.0, 10.002076, 9.998514 
7.948791e+2, 1.5413685e+2, -1265599.0, -1513144.9, -43070.863, -0.0022392743, -0.09282976, -1258319.1, 171131.88, 0.0, 10.001787, 9.998505 
7.94898e+2, 1.6413559e+2, -1193207.8, -1395115.4, -58576.543, 0.013259746, -0.081476435, -1177444.4, 154020.55, 0.0, 10.001472, 9.998794 
7.9491645e+2, 1.7413475e+2, -1143966.5, -1317211.4, -56914.777, 0.011319488, -0.0448624, -1126941.8, 106533.03, 0.0, 10.001122, 9.998824 
7.9493475e+2, 1.8413383e+2, -1080317.5, -1222654.9, -68106.23, 0.013049661, -0.022801142, -1052980.1, 82504.82, 0.0, 10.000831, 9.998941 
7.949529e+2, 1.9413278e+2, -1012258.3, -1137538.9, -69192.6, 0.019873466, -0.022498708, -981563.56, 55932.086, 0.0, 10.000618, 9.998956 
7.9497105e+2, 2.0413163e+2, -958061.9, -1076588.1, -78571.64, 0.026953457, -0.02323985, -918909.44, 20597.59, 0.0, 10.000386, 9.998813 
7.94989e+2, 2.141304e+2, -898755.2, -998381.7, -79163.23, 0.0344416, -0.026379563, -855036.75, -13517.586, 0.0, 10.000125, 9.998803 
7.950067e+2, 2.2412913e+2, -839549.7, -915650.75, -86284.34, 0.030034482, -0.034276493, -783298.44, -39767.043, 0.0, 9.999845, 9.998834 
7.950241e+2, 2.3412779e+2, -786145.8, -838336.8, -85445.83, 0.008954578, -0.049635135, -722899.5, -77355.88, 0.0, 9.999535, 9.99884 
7.950416e+2, 2.4412662e+2, -736723.94, -770963.0, -84016.12, -0.007617206, -0.04511539, -668100.9, -120545.18, 0.0, 9.999232, 9.9987755 
7.9505914e+2, 2.5412568e+2, -681355.0, -693619.7, -83566.33, -0.017677538, -0.014478663, -603696.3, -154128.78, 0.0, 9.9989395, 9.998775 
7.9507685e+2, 2.6412487e+2, -599674.3, -570397.0, -70149.57, -0.029772192, 0.015057793, -513374.97, -161796.86, 0.0, 9.998685, 9.99907 
7.950947e+2, 2.7412423e+2, -528809.6, -481724.0, -71272.25, -0.044867493, 0.04305797, -430206.84, -176620.16, 0.0, 9.998483, 9.999104 
7.9511267e+2, 2.8412375e+2, -435933.88, -342411.25, -63071.227, -0.0606488, 0.067740865, -310657.6, -155064.36, 0.0, 9.998259, 9.9994955 
7.951308e+2, 2.941234e+2, -371970.4, -255919.11, -59972.54, -0.07703442, 0.08265699, -230496.1, -172898.88, 0.0, 9.998004, 9.999538 
7.951493e+2, 3.041232e+2, -296737.5, -89242.39, -27271.373, -0.08510826, 0.06373309, -85717.94, -85717.94, 0.0, 9.997731, 10.00048 
7.951685e+2, 3.1412408e+2, -335071.7, -99835.41, -28298.977, -0.0829544, 0.104012966, -96478.92, -96478.92, 0.0, 9.997435, 10.000549 
8.0482405e+2, 1.24121815e+2, -1373182.5, -1716579.3, 2413.88, -0.020259729, -0.08402978, -1373165.5, 350432.0, 0.0, 10.003064, 9.998512 
8.048436e+2, 1.3412024e+2, -1335580.3, -1641505.5, -2121.1338, 0.017060922, -0.09731191, -1335565.6, 290046.63, 0.0, 10.002623, 9.998568 
8.048621e+2, 1.4411885e+2, -1302986.1, -1586393.1, -23120.25, -0.027301311, -0.08578514, -1301112.4, 226513.56, 0.0, 10.002223, 9.998465 
8.048809e+2, 1.5411717e+2, -1254702.9, -1513276.5, -24315.984, 0.0007003578, -0.09837888, -1252436.1, 177207.78, 0.0, 10.001885, 9.998457 
8.0489945e+2, 1.6411588e+2, -1178840.0, -1388764.5, -39731.605, 0.016051369, -0.086784095, -1171571.8, 160086.45, 0.0, 10.001574, 9.998789 
8.049177e+2, 1.7411512e+2, -1118488.4, -1304969.0, -43354.39, 0.013704001, -0.04219281, -1108901.8, 124765.5, 0.0, 10.001298, 9.998824 
8.049357e+2, 1.8411425e+2, -1056432.0, -1213672.6, -56537.223, 0.015434614, -0.014900629, -1038214.25, 97463.02, 0.0, 10.001005, 9.998919 
8.0495363e+2, 1.941132e+2, -1003788.0, -1136223.3, -58855.813, 0.022859136, -0.013256329, -981412.3, 56276.12, 0.0, 10.000689, 9.998931 
8.0497146e+2, 2.0411204e+2, -958324.44, -1072813.0, -68860.42, 0.029629169, -0.013511014, -926021.7, 13678.14, 0.0, 10.000367, 9.998848 
8.049891e+2, 2.1411084e+2, -908145.3, -998417.5, -66793.72, 0.035488628, -0.017452365, -872667.06, -30955.518, 0.0, 10.000042, 9.998842 
8.0500644e+2, 2.2410959e+2, -849870.2, -913734.6, -71305.7, 0.030177355, -0.02814481, -803673.2, -59949.82, 0.0, 9.999743, 9.998895 
8.050236e+2, 2.3410825e+2, -788842.4, -832513.0, -68921.055, 0.0091844825, -0.049026676, -738380.44, -92645.29, 0.0, 9.999485, 9.998904 
8.0504084e+2, 2.4410711e+2, -739067.1, -773609.7, -67683.86, -0.006421526, -0.046116732, -686485.7, -138738.83, 0.0, 9.999223, 9.998762 
8.050581e+2, 2.541062e+2, -680900.0, -695774.25, -70094.0, -0.014311228, -0.011428012, -617849.6, -168091.08, 0.0, 9.998953, 9.998754 
8.050755e+2, 2.6410535e+2, -602661.44, -576628.7, -56358.344, -0.026845701, 0.018005244, -531803.1, -180033.61, 0.0, 9.998686, 9.999027 
8.0509317e+2, 2.7410462e+2, -541058.9, -492522.72, -56306.113, -0.046080027, 0.03995492, -455477.5, -201698.36, 0.0, 9.99842, 9.99906 
8.051108e+2, 2.841041e+2, -451506.9, -345487.78, -50017.22, -0.06353705, 0.06395094, -325615.7, -169829.89, 0.0, 9.998133, 9.999535 
8.0512863e+2, 2.9410392e+2, -396095.16, -262090.92, -48741.848, -0.07806061, 0.08586105, -246237.42, -188448.94, 0.0, 9.997815, 9.999587 
8.05147e+2, 3.0410376e+2, -330375.66, -101542.16, -17391.74, -0.08370375, 0.068973936, -100227.91, -100227.91, 0.0, 9.997483, 10.000514 
8.051658e+2, 3.141046e+2, -376756.9, -116307.4, -16192.622, -0.07868528, 0.1008231, -115304.53, -115304.53, 0.0, 9.997132, 10.000582 
8.1482714e+2, 1.24102674e+2, -1373550.5, -1719195.8, -13346.843, -0.017591335, -0.077412814, -1373035.9, 350749.44, 0.0, 10.003072, 9.99849 
8.148463e+2, 1.34101e+2, -1335061.9, -1641475.6, -18799.66, 0.020530142, -0.10039749, -1333912.8, 291888.0, 0.0, 10.002626, 9.998566 
8.1486434e+2, 1.440996e+2, -1302382.9, -1585668.9, -36046.805, -0.024382003, -0.08969614, -1297868.0, 229946.28, 0.0, 10.002225, 9.998469 
8.148828e+2, 1.5409799e+2, -1254168.9, -1512618.6, -36898.293, -0.00012809924, -0.09580462, -1249004.3, 180827.44, 0.0, 10.001887, 9.998461 
8.14901e+2, 1.6409667e+2, -1183275.9, -1398415.0, -50206.78, 0.014039404, -0.083666265, -1172136.0, 159710.25, 0.0, 10.001575, 9.998722 
8.1491894e+2, 1.7409578e+2, -1123284.6, -1315488.9, -53710.645, 0.013966667, -0.046628594, -1109293.9, 124563.09, 0.0, 10.0013, 9.998751 
8.149367e+2, 1.8409485e+2, -1059394.6, -1220338.6, -68420.875, 0.018094925, -0.018442934, -1034239.1, 101628.58, 0.0, 10.001007, 9.998873 
8.1495434e+2, 1.9409385e+2, -1006614.6, -1142443.5, -70907.63, 0.028091475, -0.0041735554, -976344.25, 61534.26, 0.0, 10.0006895, 9.998887 
8.149718e+2, 2.0409277e+2, -953531.4, -1063148.6, -81186.945, 0.03302096, -0.00005323517, -910384.4, 29505.273, 0.0, 10.000368, 9.998914 
8.1498903e+2, 2.1409157e+2, -902581.8, -987138.06, -79128.32, 0.03080381, -0.011338712, -855145.25, -13244.125, 0.0, 10.000043, 9.9989195 
8.1500614e+2, 2.2409035e+2, -843871.9, -901564.3, -81272.95, 0.024109859, -0.02638295, -786477.75, -42565.414, 0.0, 9.999744, 9.998978 
8.150231e+2, 2.340891e+2, -782802.2, -820213.44, -78597.85, 0.01117686, -0.047347028, -720714.75, -74791.71, 0.0, 9.999486, 9.998988 
8.150401e+2, 2.44088e+2, -742195.06, -780286.1, -77701.59, 0.00000056142795, -0.04284173, -681238.9, -133304.63, 0.0, 9.999223, 9.998716 
8.1505704e+2, 2.5408706e+2, -684994.8, -704414.2, -80073.51, -0.008608076, -0.003983687, -614044.44, -164098.25, 0.0, 9.998954, 9.998693 
8.150742e+2, 2.6408616e+2, -604981.25, -581546.4, -66162.555, -0.023351114, 0.022460617, -526071.7, -174113.83, 0.0, 9.998686, 9.998994 
8.150915e+2, 2.7408522e+2, -543181.3, -496994.3, -65972.84, -0.04694178, 0.031168217, -450189.84, -196221.0, 0.0, 9.99842, 9.999029 
8.1510895e+2, 2.840847e+2, -450045.88, -342478.9, -61399.496, -0.06445952, 0.052511845, -314637.88, -158662.11, 0.0, 9.998133, 9.999556 
8.1512654e+2, 2.9408467e+2, -394266.22, -258202.14, -60252.594, -0.07290525, 0.08691003, -235356.61, -177379.44, 0.0, 9.997814, 9.999615 
8.151445e+2, 3.040846e+2, -326362.3, -92987.63, -30010.77, -0.07591148, 0.074384525, -89190.195, -89190.195, 0.0, 9.997482, 10.000573 
8.1516296e+2, 3.140854e+2, -372746.72, -107549.47, -28752.307, -0.073574394, 0.095180556, -104467.99, -104467.99, 0.0, 9.99713, 10.000643 
8.2483023e+2, 1.2408373e+2, -1347798.1, -1710996.9, -5761.502, -0.01722223, -0.08128105, -1347706.8, 376264.2, 0.0, 10.003267, 9.998452 
8.24849e+2, 1.3408203e+2, -1307328.3, -1630038.4, -13365.708, 0.022501811, -0.104154244, -1306775.8, 319210.8, 0.0, 10.002826, 9.9985485 
8.2486665e+2, 1.4408067e+2, -1271665.5, -1569456.3, -27211.707, -0.021390697, -0.08950493, -1269199.4, 258800.36, 0.0, 10.00243, 9.998482 
8.248848e+2, 1.5407914e+2, -1222353.1, -1495650.5, -26825.303, 0.0010039401, -0.09044883, -1219745.0, 210271.33, 0.0, 10.002099, 9.998475 
8.249027e+2, 1.640778e+2, -1159744.0, -1390746.5, -38018.86, 0.014910138, -0.07827808, -1153647.6, 178383.47, 0.0, 10.001753, 9.998689 
8.249203e+2, 1.740768e+2, -1113562.5, -1314966.0, -38718.96, 0.016722232, -0.048284546, -1106375.4, 127667.49, 0.0, 10.001385, 9.9987135 
8.2493776e+2, 1.8407582e+2, -1056787.6, -1220934.1, -50945.434, 0.022259688, -0.022151202, -1042261.4, 93792.81, 0.0, 10.001034, 9.998856 
8.249551e+2, 1.9407487e+2, -1005388.25, -1143428.4, -51221.79, 0.032999676, -0.0029212995, -988458.06, 49606.793, 0.0, 10.000705, 9.998874 
8.249722e+2, 2.0407382e+2, -946554.2, -1054406.5, -60369.004, 0.03654171, 0.003020922, -919533.1, 20542.643, 0.0, 10.000394, 9.998961 
8.249891e+2, 2.1407264e+2, -889595.9, -974767.44, -59991.78, 0.029915435, -0.010972996, -858611.56, -16524.652, 0.0, 10.000106, 9.998974 
8.2500595e+2, 2.240715e+2, -833697.44, -892666.9, -64476.383, 0.022655986, -0.023582784, -792284.0, -48186.53, 0.0, 9.999798, 9.999014 
8.250226e+2, 2.3407039e+2, -784148.75, -817077.1, -65652.01, 0.0145564135, -0.03479819, -732928.0, -86820.93, 0.0, 9.999461, 9.999022 
8.250393e+2, 2.4406931e+2, -755526.56, -790126.3, -65668.76, 0.0061254813, -0.028972877, -704917.1, -156799.05, 0.0, 9.999146, 9.998685 
8.25056e+2, 2.5406823e+2, -700606.25, -716101.8, -66500.03, -0.0027089475, -0.0007201466, -641404.2, -191273.0, 0.0, 9.998864, 9.998656 
8.250729e+2, 2.640672e+2, -618783.06, -587257.4, -50189.62, -0.017579662, 0.018417252, -550413.5, -198270.02, 0.0, 9.998587, 9.9990015 
8.2508993e+2, 2.7406633e+2, -557433.8, -502237.56, -46768.027, -0.04121027, 0.024610287, -475531.88, -221377.55, 0.0, 9.998315, 9.999043 
8.2510704e+2, 2.8406578e+2, -467269.56, -349885.0, -43211.066, -0.058436606, 0.047927573, -335693.97, -179533.03, 0.0, 9.998011, 9.999563 
8.2512426e+2, 2.9406583e+2, -416322.94, -267833.5, -43751.996, -0.06606251, 0.09069712, -255901.0, -197739.22, 0.0, 9.997659, 9.999623 
8.251419e+2, 3.0406582e+2, -351459.25, -100752.97, -16325.255, -0.071156345, 0.081596725, -99694.38, -99694.38, 0.0, 9.997292, 10.000611 
8.2515997e+2, 3.140666e+2, -403398.5, -117771.83, -16734.31, -0.0753801, 0.0952131, -116794.74, -116794.74, 0.0, 9.996901, 10.000683 
8.348335e+2, 1.2406499e+2, -1351391.0, -1719007.9, -21345.973, -0.019446779, -0.09671066, -1350155.6, 373998.5, 0.0, 10.003269, 9.998397 
8.348518e+2, 1.3406335e+2, -1309385.9, -1634987.1, -29871.445, 0.022844879, -0.1086624, -1306668.1, 319501.22, 0.0, 10.002829, 9.998513 
8.348691e+2, 1.4406209e+2, -1269823.9, -1566312.1, -39997.813, -0.018361159, -0.084969416, -1264522.8, 263659.22, 0.0, 10.002433, 9.998502 
8.348869e+2, 1.540606e+2, -1220104.6, -1491715.1, -39242.58, 0.004147977, -0.0821768, -1214548.5, 215649.4, 0.0, 10.002102, 9.998501 
8.349045e+2, 1.6405928e+2, -1159243.4, -1390345.0, -51766.934, 0.01875474, -0.07054638, -1148177.5, 184034.97, 0.0, 10.001755, 9.998691 
8.349217e+2, 1.7405823e+2, -1113348.8, -1314964.1, -52608.83, 0.02203012, -0.0470818, -1100446.9, 133778.02, 0.0, 10.001387, 9.998713 
8.349388e+2, 1.8405719e+2, -1055656.3, -1218905.4, -63471.05, 0.027946835, -0.025990762, -1033882.8, 102353.83, 0.0, 10.001035, 9.998869 
8.349558e+2, 1.9405624e+2, -1004168.2, -1141210.4, -63627.703, 0.037567977, -0.009596536, -979181.94, 59065.504, 0.0, 10.000706, 9.998888 
8.349727e+2, 2.040552e+2, -944332.5, -1050096.0, -71392.95, 0.040166065, -0.0044290563, -908369.25, 31889.012, 0.0, 10.000395, 9.998991 
8.349892e+2, 2.1405408e+2, -887294.9, -970271.25, -70886.01, 0.03280667, -0.016402707, -846648.44, -4379.484, 0.0, 10.000107, 9.999005 
8.3500576e+2, 2.2405303e+2, -834454.56, -894498.1, -77005.086, 0.025800174, -0.019794807, -781825.94, -37547.18, 0.0, 9.999799, 9.999001 
8.350221e+2, 2.3405209e+2, -785232.1, -819594.94, -78313.53, 0.019315237, -0.011537806, -722237.4, -75950.17, 0.0, 9.999462, 9.999004 
8.3503854e+2, 2.44051e+2, -756596.4, -792589.94, -76374.875, 0.011938459, -0.0046041813, -696126.56, -147828.13, 0.0, 9.999147, 9.998668 
8.3505493e+2, 2.5404966e+2, -701789.44, -718748.75, -76924.04, 0.0033515345, -0.001452263, -632879.1, -182565.5, 0.0, 9.998865, 9.998638 
8.350715e+2, 2.6404855e+2, -615305.9, -580144.9, -60221.76, -0.009652467, 0.0060760966, -534989.94, -182663.5, 0.0, 9.998588, 9.99905 
8.350883e+2, 2.7404776e+2, -553534.6, -494105.8, -56676.2, -0.029176509, 0.020146133, -459826.97, -205491.17, 0.0, 9.998315, 9.9991 
8.351052e+2, 2.8404737e+2, -467684.7, -350666.9, -55807.28, -0.045781326, 0.049928065, -328319.47, -171977.9, 0.0, 9.99801, 9.999558 
8.35122e+2, 2.9404742e+2, -417038.06, -269398.6, -56592.023, -0.057648893, 0.09709585, -250202.14, -191859.58, 0.0, 9.997659, 9.999613 
8.351392e+2, 3.0404747e+2, -350058.78, -98145.74, -30458.955, -0.06930365, 0.090471976, -94515.26, -94515.26, 0.0, 9.9972925, 10.000629 
8.3515674e+2, 3.140482e+2, -401791.4, -114929.055, -30798.129, -0.08378977, 0.09993485, -111659.766, -111659.766, 0.0, 9.996902, 10.000702 
8.448369e+2, 1.2404673e+2, -1317235.6, -1710138.0, -5465.6494, -0.018893804, -0.104996294, -1317159.6, 407172.84, 0.0, 10.003536, 9.998328 
8.448547e+2, 1.3404511e+2, -1276882.8, -1624584.6, -15796.644, 0.023030415, -0.11223275, -1276166.6, 350181.5, 0.0, 10.003075, 9.998466 
8.4487164e+2, 1.4404383e+2, -1239027.0, -1547936.4, -23484.607, -0.015787736, -0.08579899, -1237251.9, 291108.8, 0.0, 10.002628, 9.998533 
8.448891e+2, 1.5404238e+2, -1202214.5, -1478686.5, -21362.566, 0.009535723, -0.08590378, -1200573.5, 229802.6, 0.0, 10.002206, 9.99854 
8.4490633e+2, 1.6404106e+2, -1152981.5, -1389008.0, -33557.637, 0.025411105, -0.07569595, -1148303.0, 184087.52, 0.0, 10.001805, 9.998675 
8.4492314e+2, 1.7403997e+2, -1107185.1, -1314290.0, -35850.56, 0.0275996, -0.051298883, -1101154.9, 133248.45, 0.0, 10.001439, 9.9986925 
8.4493995e+2, 1.8403897e+2, -1046511.8, -1212848.1, -46081.4, 0.031983145, -0.028608587, -1034598.75, 101816.4, 0.0, 10.00109, 9.998884 
8.449565e+2, 1.9403805e+2, -993972.06, -1134152.9, -45817.395, 0.039506137, -0.009726194, -980325.4, 58100.18, 0.0, 10.000767, 9.998907 
8.44973e+2, 2.0403706e+2, -937729.7, -1045255.3, -53685.883, 0.04114884, -0.0037631681, -915514.8, 24921.385, 0.0, 10.000433, 9.999005 
8.449893e+2, 2.1403591e+2, -889780.56, -969824.56, -54461.06, 0.034426454, -0.017539993, -862217.3, -19770.441, 0.0, 10.000083, 9.99902 
8.450055e+2, 2.2403489e+2, -844271.6, -904007.75, -62314.125, 0.02812377, -0.01727097, -805037.25, -60580.547, 0.0, 9.999752, 9.998958 
8.450216e+2, 2.3403405e+2, -790388.3, -827519.56, -66145.21, 0.02243587, 0.0025969944, -740252.6, -93787.48, 0.0, 9.99945, 9.998956 
8.4503764e+2, 2.4403295e+2, -755352.56, -788241.5, -63294.426, 0.0155428685, 0.010219049, -706401.3, -157924.77, 0.0, 9.99914, 9.998701 
8.4505385e+2, 2.5403148e+2, -705744.25, -715995.7, -59491.52, 0.0069530415, -0.0016622997, -651158.06, -200666.02, 0.0, 9.998818, 9.998679 
8.450701e+2, 2.6403034e+2, -627396.56, -582477.2, -41198.32, -0.0047266884, -0.000019354547, -558014.2, -205509.48, 0.0, 9.998489, 9.999082 
8.450867e+2, 2.740297e+2, -575398.94, -501235.84, -39656.043, -0.021071168, 0.021466175, -484025.2, -229512.14, 0.0, 9.99815, 9.999129 
8.4510314e+2, 2.8402933e+2, -494748.84, -366719.63, -40907.273, -0.03658132, 0.056088276, -354765.3, -198246.81, 0.0, 9.997838, 9.999531 
8.451197e+2, 2.9402936e+2, -433552.9, -280994.13, -43482.15, -0.050312888, 0.1044371, -269471.22, -210951.13, 0.0, 9.997561, 9.999579 
8.4513646e+2, 3.0402938e+2, -353432.97, -97979.2, -20104.42, -0.066835515, 0.098190725, -96406.65, -96406.65, 0.0, 9.997262, 10.000645 
8.4515357e+2, 3.140301e+2, -397289.47, -110575.15, -20579.652, -0.09072222, 0.10314837, -109105.52, -109105.52, 0.0, 9.996924, 10.000721 
8.5484046e+2, 1.2402899e+2, -1322500.4, -1721888.9, -21705.832, -0.015496288, -0.105786026, -1321324.1, 403181.63, 0.0, 10.00354, 9.998246 
8.548578e+2, 1.3402729e+2, -1280661.8, -1633249.0, -32973.793, 0.023029339, -0.11473618, -1277604.6, 348917.78, 0.0, 10.0030775, 9.9984045 
8.5487425e+2, 1.4402597e+2, -1235652.3, -1541613.8, -39460.207, -0.013738002, -0.09220931, -1230644.9, 297890.47, 0.0, 10.002631, 9.998575 
8.5489136e+2, 1.5402447e+2, -1198171.9, -1470791.0, -37193.324, 0.017218474, -0.102109104, -1193188.6, 237362.17, 0.0, 10.002207, 9.998593 
8.549082e+2, 1.6402313e+2, -1155108.4, -1393799.0, -47513.063, 0.034967255, -0.094226114, -1145998.3, 186567.0, 0.0, 10.001806, 9.998642 
8.549246e+2, 1.7402211e+2, -1109923.0, -1320362.4, -49641.83, 0.033430856, -0.061140466, -1098800.5, 135777.47, 0.0, 10.00144, 9.998651 
8.54941e+2, 1.8402116e+2, -1045209.7, -1210516.1, -58440.152, 0.034317303, -0.0300151, -1026636.44, 109953.125, 0.0, 10.001092, 9.998899 
8.5495734e+2, 1.9402035e+2, -992208.3, -1130853.6, -58052.555, 0.038764372, -0.0032359401, -971111.25, 67487.94, 0.0, 10.000769, 9.998929 
8.5497344e+2, 2.0401938e+2, -937577.94, -1045279.4, -66844.64, 0.039440323, 0.0051156254, -905590.94, 35018.49, 0.0, 10.000434, 9.999005 
8.549894e+2, 2.140182e+2, -889793.2, -970160.8, -67726.0, 0.034741838, -0.014352795, -851227.1, -8606.477, 0.0, 10.000084, 9.999017 
8.5500526e+2, 2.240171e+2, -849312.5, -914727.5, -73863.97, 0.029617481, -0.015977716, -801238.4, -56607.188, 0.0, 9.999753, 9.998884 
8.5502106e+2, 2.3401621e+2, -796031.2, -839442.8, -77446.41, 0.02392529, 0.007718306, -737306.4, -90665.57, 0.0, 9.999451, 9.998874 
8.550368e+2, 2.4401511e+2, -749506.1, -776259.9, -75228.516, 0.01695124, 0.015588843, -686474.44, -137822.11, 0.0, 9.999141, 9.998783 
8.550526e+2, 2.5401372e+2, -698742.06, -701598.56, -71440.805, 0.008118008, -0.0014171919, -628715.25, -178048.61, 0.0, 9.998818, 9.998778 
8.550686e+2, 2.640126e+2, -626418.9, -580579.44, -53703.844, -0.0027461196, -0.000049843227, -545108.94, -192430.56, 0.0, 9.998489, 9.999095 
8.5508484e+2, 2.7401203e+2, -575095.4, -500682.97, -52174.65, -0.016786817, 0.028357502, -473807.22, -219120.94, 0.0, 9.99815, 9.999133 
8.5510105e+2, 2.8401166e+2, -498284.9, -374032.34, -51148.59, -0.030750528, 0.066237494, -355685.94, -198994.02, 0.0, 9.997837, 9.999481 
8.551173e+2, 2.9401165e+2, -437554.78, -289129.22, -53450.23, -0.044061884, 0.112677455, -271884.56, -213189.97, 0.0, 9.9975605, 9.999524 
8.551338e+2, 3.040116e+2, -352727.72, -96256.49, -32028.27, -0.06383647, 0.104798034, -92317.29, -92317.29, 0.0, 9.997261, 10.000658 
8.5515046e+2, 3.1401232e+2, -396222.72, -108026.65, -32543.541, -0.09639654, 0.104700066, -104397.484, -104397.484, 0.0, 9.9969225, 10.000739 
8.648442e+2, 1.2401165e+2, -1299526.0, -1716925.1, -1692.4017, -0.003616755, -0.113741845, -1299519.1, 425155.84, 0.00000000000000000000885557, 10.003724, 9.998192 
8.64861e+2, 1.3400991e+2, -1254249.8, -1624119.0, -11615.328, 0.026291398, -0.12240926, -1253885.4, 372806.7, 0.0, 10.003275, 9.998372 
8.64877e+2, 1.4400859e+2, -1205970.4, -1527189.0, -17319.643, -0.01342363, -0.09934965, -1205039.3, 323666.03, 0.0, 10.002835, 9.998576 
8.648937e+2, 1.5400706e+2, -1168853.1, -1456129.1, -18607.217, 0.017867442, -0.110980146, -1167653.0, 263067.66, 0.0, 10.002406, 9.998598 
8.6491007e+2, 1.6400573e+2, -1131191.1, -1386025.9, -29612.236, 0.03674456, -0.102968775, -1127795.4, 204939.75, 0.0, 10.001987, 9.998609 
8.649262e+2, 1.740047e+2, -1092035.0, -1315896.6, -31214.316, 0.037347395, -0.0669391, -1087764.0, 146984.03, 0.0, 10.001581, 9.998612 
8.649422e+2, 1.8400374e+2, -1032133.4, -1209044.5, -39967.918, 0.038262337, -0.0331979, -1023522.9, 113237.086, 0.0, 10.001203, 9.998856 
8.649581e+2, 1.940029e+2, -981464.5, -1130532.8, -44329.434, 0.03963874, -0.0043144883, -969278.2, 69491.83, 0.0, 10.000863, 9.998886 
8.649739e+2, 2.0400193e+2, -923560.56, -1036592.3, -55861.305, 0.037158214, 0.0059046242, -900612.44, 40168.02, 0.0, 10.000523, 9.9990225 
8.6498946e+2, 2.1400078e+2, -874318.44, -959999.2, -54896.57, 0.029154727, -0.012125132, -847524.56, -4733.354, 0.0, 10.000178, 9.999041 
8.6500496e+2, 2.2399972e+2, -842739.1, -914485.2, -58588.24, 0.024318472, -0.0125547275, -809913.9, -65112.05, 0.0, 9.999811, 9.9988575 
8.6502045e+2, 2.3399879e+2, -804542.6, -847108.06, -58592.46, 0.024246464, 0.012118145, -763487.3, -116675.26, 0.0, 9.999408, 9.998841 
8.6503595e+2, 2.439977e+2, -761187.6, -777038.5, -54609.465, 0.020735854, 0.01991821, -713931.5, -165107.86, 0.0, 9.99904, 9.998827 
8.6505145e+2, 2.539963e+2, -709156.7, -700878.9, -54329.6, 0.012085748, 0.0011473817, -650530.75, -199693.63, 0.0, 9.998723, 9.998829 
8.6506706e+2, 2.6399526e+2, -642288.8, -590795.56, -40769.086, 0.000218296, 0.0031515562, -568323.9, -215475.34, 0.0, 9.998392, 9.999071 
8.6508286e+2, 2.7399468e+2, -593263.1, -512880.7, -42051.06, -0.016568555, 0.03586081, -494902.97, -240046.38, 0.0, 9.998041, 9.999103 
8.6509883e+2, 2.8399435e+2, -519181.2, -386221.38, -39871.785, -0.030560505, 0.07621406, -375181.38, -218318.88, 0.0, 9.997704, 9.999462 
8.651148e+2, 2.939943e+2, -464470.97, -303990.53, -39383.566, -0.03990174, 0.122595966, -294846.4, -235980.9, 0.0, 9.997384, 9.999507 
8.6513096e+2, 3.0399427e+2, -378870.06, -103899.87, -16824.088, -0.05785538, 0.11333337, -102874.305, -102874.305, 0.0, 9.997061, 10.000702 
8.651473e+2, 3.1399497e+2, -421767.97, -114730.17, -15304.872, -0.09169341, 0.1069072, -113969.16, -113969.16, 0.0, 9.996723, 10.00079 
8.748481e+2, 1.2399474e+2, -1301211.3, -1720915.9, -17498.252, 0.017121231, -0.12946588, -1300483.0, 424356.9, 0.0000000055054987, 10.003726, 9.998163 
8.7486434e+2, 1.3399301e+2, -1254138.4, -1624514.6, -28236.387, 0.032985784, -0.135512, -1251998.1, 374858.7, 0.0, 10.003278, 9.998368 
8.7487984e+2, 1.4399172e+2, -1208621.1, -1533360.8, -33317.652, -0.014928191, -0.10725403, -1205238.1, 323631.75, 0.0, 10.002837, 9.998533 
8.74896e+2, 1.5399022e+2, -1171790.0, -1462935.6, -34609.293, 0.011184465, -0.11220329, -1167732.4, 263152.8, 0.0, 10.002409, 9.99855 
8.7491196e+2, 1.6398887e+2, -1133222.6, -1390914.4, -44979.992, 0.030411396, -0.10151504, -1125597.1, 207302.81, 0.0, 10.00199, 9.998574 
8.749278e+2, 1.7398778e+2, -1094065.3, -1320686.1, -46525.24, 0.039232466, -0.06853086, -1084885.5, 150027.83, 0.0, 10.001583, 9.998579 
8.7494344e+2, 1.8398671e+2, -1039123.44, -1224020.6, -53040.5, 0.04381847, -0.03816739, -1024988.56, 111937.67, 0.0, 10.0012045, 9.998753 
8.74959e+2, 1.9398573e+2, -989045.5, -1146691.3, -57185.336, 0.042128444, -0.013072967, -970486.6, 68451.49, 0.0, 10.000865, 9.998775 
8.7497437e+2, 2.0398472e+2, -920993.75, -1031642.25, -68877.36, 0.03430196, -0.0015395036, -887972.9, 52976.254, 0.0, 10.000524, 9.999056 
8.749895e+2, 2.1398371e+2, -870663.8, -952741.06, -67924.836, 0.01765381, -0.010924514, -832342.8, 10615.805, 0.0, 10.000179, 9.99909 
8.7500465e+2, 2.2398272e+2, -841190.06, -911523.0, -73545.92, 0.0121939685, -0.007011922, -794835.44, -49866.92, 0.0, 9.999811, 9.998878 
8.7501985e+2, 2.3398182e+2, -803286.2, -844754.75, -73748.945, 0.023357015, 0.01580254, -747412.25, -100433.26, 0.0, 9.999409, 9.998857 
8.7503505e+2, 2.439807e+2, -760752.4, -776345.5, -66762.92, 0.026836177, 0.023187365, -701332.3, -152341.78, 0.0, 9.999041, 9.998831 
8.7505025e+2, 2.5397938e+2, -708857.1, -700416.0, -66084.3, 0.018776821, 0.0059453025, -638417.6, -187414.02, 0.0, 9.998723, 9.998833 
8.750655e+2, 2.639783e+2, -646444.06, -599512.1, -53635.92, 0.0041410825, 0.00949625, -564433.56, -211418.39, 0.0, 9.998392, 9.999011 
8.750809e+2, 2.7397767e+2, -597999.3, -522663.2, -54962.598, -0.020290973, 0.043949783, -493699.66, -238675.53, 0.0, 9.99804, 9.999036 
8.7509644e+2, 2.839773e+2, -518687.78, -384990.63, -51588.33, -0.035844564, 0.0859917, -367399.34, -210368.94, 0.0, 9.997703, 9.999471 
8.751122e+2, 2.939773e+2, -463441.28, -301526.44, -50904.316, -0.03778229, 0.1340958, -286852.53, -227819.47, 0.0, 9.997382, 9.999525 
8.751281e+2, 3.0397728e+2, -374095.56, -93519.12, -28831.701, -0.049107794, 0.12369803, -90587.05, -90587.05, 0.0, 9.997058, 10.000774 
8.751442e+2, 3.1397796e+2, -416742.53, -103569.984, -27234.5, -0.07743738, 0.10887014, -101219.234, -101219.234, 0.0, 9.99672, 10.000868 
8.8485205e+2, 1.23978354e+2, -1270378.1, -1715495.1, 3868.4421, 0.02694888, -0.14054641, -1270344.5, 454655.1, 0.00000006858156, 10.003979, 9.998078 
8.848677e+2, 1.3397662e+2, -1226441.6, -1618338.4, -12253.257, 0.03615876, -0.14210628, -1226058.9, 400958.2, 0.0, 10.003499, 9.998304 
8.8488275e+2, 1.4397532e+2, -1183323.0, -1529465.9, -19460.104, -0.014010284, -0.10897813, -1182232.4, 346798.03, 0.0, 10.003048, 9.998458 
8.848985e+2, 1.5397376e+2, -1144028.1, -1458052.1, -22742.475, 0.010324905, -0.11067376, -1142389.6, 288656.88, 0.0, 10.002637, 9.998474 
8.8491404e+2, 1.6397236e+2, -1100290.5, -1378520.8, -33665.637, 0.028261345, -0.09954, -1096275.0, 236786.66, 0.0, 10.002232, 9.998543 
8.849294e+2, 1.739712e+2, -1059688.0, -1307048.3, -34641.293, 0.03637701, -0.07005224, -1054928.3, 180147.17, 0.0, 10.001833, 9.998552 
8.849447e+2, 1.8397008e+2, -1012547.94, -1216889.6, -38883.004, 0.041261718, -0.04341565, -1005399.2, 131689.66, 0.0, 10.001411, 9.998701 
8.849599e+2, 1.93969e+2, -979333.7, -1147930.5, -38697.32, 0.04138504, -0.022367546, -970875.94, 68225.8, 0.0, 10.0009575, 9.998721 
8.849749e+2, 2.0396797e+2, -922977.5, -1034928.4, -49146.75, 0.034773737, -0.00910513, -904463.7, 36649.477, 0.0, 10.000521, 9.999034 
8.849896e+2, 2.1396704e+2, -882107.4, -960082.3, -53196.215, 0.018411215, -0.008369583, -855141.4, -12019.151, 0.0, 10.00011, 9.999073 
8.850044e+2, 2.239661e+2, -854066.6, -916720.5, -62117.73, 0.012437849, 0.0015713237, -815823.56, -70691.664, 0.0, 9.999719, 9.998886 
8.8501924e+2, 2.339652e+2, -809572.94, -846511.4, -62835.45, 0.021877538, 0.024403526, -762548.6, -115406.26, 0.0, 9.99936, 9.998868 
8.85034e+2, 2.4396412e+2, -763724.56, -774624.0, -53702.555, 0.024972884, 0.03105837, -715195.94, -166042.2, 0.0, 9.999006, 9.998859 
8.8504887e+2, 2.5396279e+2, -716054.56, -700551.75, -50948.164, 0.01853751, 0.011888602, -656768.75, -205602.31, 0.0, 9.998659, 9.998861 
8.850638e+2, 2.639617e+2, -664982.9, -613411.56, -38734.605, 0.0050969, 0.0133146085, -592664.75, -239486.66, 0.0, 9.998287, 9.998966 
8.8507885e+2, 2.73961e+2, -625907.1, -542083.8, -39376.68, -0.018802462, 0.045515694, -526488.0, -271299.97, 0.0, 9.997875, 9.998981 
8.8509405e+2, 2.839606e+2, -548162.6, -397023.38, -33512.17, -0.033871368, 0.08801242, -389926.0, -232731.38, 0.0, 9.997491, 9.99949 
8.851095e+2, 2.9396066e+2, -495892.5, -313980.72, -32046.832, -0.035423808, 0.140709, -308500.22, -249303.64, 0.0, 9.997147, 9.999553 
8.8512504e+2, 3.0396074e+2, -408037.78, -100270.43, -10375.401, -0.04458651, 0.13211143, -99921.05, -99921.05, 0.0, 9.996784, 10.000859 
8.8514084e+2, 3.1396145e+2, -458443.4, -113295.32, -8022.5874, -0.06789986, 0.11208744, -113108.945, -113108.945, 0.0, 9.996389, 10.00096 
8.9485604e+2, 1.2396255e+2, -1280140.8, -1736553.3, -13179.078, 0.024872022, -0.14682958, -1279760.5, 445393.13, 0.00000032957303, 10.003983, 9.997932 
8.9487123e+2, 1.3396075e+2, -1235092.8, -1637015.3, -30191.002, 0.03552384, -0.14179055, -1232837.6, 394334.72, 0.00000000007521531, 10.003502, 9.998175 
8.948858e+2, 1.4395937e+2, -1190589.6, -1545216.3, -35092.25, -0.010611952, -0.10417065, -1187150.4, 342036.47, 0.0, 10.00305, 9.998349 
8.9490116e+2, 1.5395771e+2, -1151072.0, -1473425.6, -38160.805, 0.015469519, -0.1062334, -1146616.1, 284588.06, 0.0, 10.00264, 9.998367 
8.949163e+2, 1.6395622e+2, -1101937.6, -1382709.3, -48782.816, 0.030449428, -0.09700154, -1093703.3, 239516.89, 0.0, 10.002234, 9.998512 
8.9493114e+2, 1.7395501e+2, -1060699.6, -1309886.4, -49744.992, 0.028675575, -0.07149673, -1051136.1, 184098.03, 0.0, 10.001836, 9.998531 
8.94946e+2, 1.839538e+2, -1012070.5, -1216529.8, -55884.234, 0.03037172, -0.048966803, -997792.8, 139454.9, 0.0, 10.001414, 9.998703 
8.949608e+2, 1.939527e+2, -978784.4, -1147254.1, -55913.848, 0.037314314, -0.0322151, -961916.0, 77344.805, 0.0, 10.000959, 9.998725 
8.949755e+2, 2.0395166e+2, -928075.5, -1045864.9, -64853.89, 0.038543213, -0.016808635, -899365.4, 41907.11, 0.0, 10.000522, 9.998959 
8.9498985e+2, 2.1395077e+2, -887855.1, -972355.6, -68715.195, 0.031394694, -0.004479585, -849440.25, -6158.2744, 0.0, 10.000111, 9.998989 
8.950042e+2, 2.2394988e+2, -854117.4, -917110.75, -75843.28, 0.025042256, 0.013156969, -803490.75, -58198.85, 0.0, 9.99972, 9.998883 
8.950186e+2, 2.3394899e+2, -809048.2, -845684.3, -76271.33, 0.019861054, 0.03784821, -748926.0, -101623.83, 0.0, 9.999361, 9.998874 
8.950329e+2, 2.4394792e+2, -760098.44, -767295.1, -66725.484, 0.015231979, 0.043464586, -696874.4, -147561.03, 0.0, 9.999007, 9.998909 
8.950475e+2, 2.5394657e+2, -712143.6, -692538.06, -63839.336, 0.011463152, 0.018966772, -637753.25, -186427.69, 0.0, 9.99866, 9.998917 
8.950621e+2, 2.6394543e+2, -667191.9, -618022.44, -53778.406, 0.0030946531, 0.014679359, -583475.7, -230138.31, 0.0, 9.998286, 9.998935 
8.950768e+2, 2.7394465e+2, -628883.5, -548194.3, -54577.008, -0.012322779, 0.040769245, -520668.9, -265320.5, 0.0, 9.997874, 9.99894 
8.950916e+2, 2.8394425e+2, -546411.8, -393183.03, -46285.547, -0.024899403, 0.08255387, -380287.0, -222931.69, 0.0, 9.99749, 9.9995165 
8.951066e+2, 2.9394442e+2, -493584.7, -308844.28, -44544.49, -0.032822624, 0.14263542, -298664.66, -239308.3, 0.0, 9.997145, 9.999589 
8.951218e+2, 3.0394462e+2, -401556.2, -86341.24, -24448.53, -0.044104762, 0.13866103, -84456.26, -84456.26, 0.0, 9.996781, 10.000957 
8.951372e+2, 3.139454e+2, -451635.03, -98456.04, -22207.855, -0.062910214, 0.11648939, -97065.086, -97065.086, 0.0, 9.996387, 10.001063 
9.048601e+2, 1.23947114e+2, -1257609.6, -1738140.5, -8278.45, 0.024838662, -0.1441085, -1257467.1, 467837.78, 0.0000010233325, 10.00419, 9.997821 
9.048748e+2, 1.3394523e+2, -1205650.8, -1633207.0, -23185.977, 0.03308163, -0.13859263, -1204397.1, 422927.63, 0.000000007369457, 10.003749, 9.998081 
9.04889e+2, 1.4394377e+2, -1160127.4, -1537497.8, -24494.285, -0.011458053, -0.09999582, -1158544.1, 370795.94, 0.0, 10.00329, 9.998286 
9.049039e+2, 1.5394205e+2, -1131366.0, -1470530.3, -23919.012, 0.015090361, -0.10230383, -1129687.4, 301670.47, 0.0, 10.002805, 9.998307 
9.0491855e+2, 1.6394049e+2, -1088820.0, -1379880.5, -31495.826, 0.029935896, -0.09518585, -1085450.9, 247923.58, 0.0, 10.00234, 9.998481 
9.0493304e+2, 1.739392e+2, -1051999.3, -1308876.9, -32910.473, 0.02711799, -0.074417576, -1047849.9, 187539.03, 0.0, 10.001909, 9.998503 
9.049474e+2, 1.8393797e+2, -1004584.2, -1215026.6, -41269.35, 0.028346088, -0.053817224, -996780.4, 140622.42, 0.0, 10.001475, 9.998684 
9.0496176e+2, 1.9393685e+2, -969116.6, -1144586.1, -43153.008, 0.035648663, -0.034807462, -959078.4, 80337.36, 0.0, 10.001035, 9.998707 
9.0497595e+2, 2.0393582e+2, -921452.94, -1050428.0, -51871.824, 0.03757396, -0.016310893, -903179.8, 38247.81, 0.0, 10.000601, 9.998889 
9.0499e+2, 2.1393488e+2, -883457.6, -978634.9, -54995.953, 0.031592082, 0.00020396661, -858319.1, -14881.204, 0.0, 10.000177, 9.998914 
9.0500396e+2, 2.2393398e+2, -849022.8, -915957.0, -60962.707, 0.025360938, 0.019637195, -812945.0, -67496.61, 0.0, 9.999761, 9.998871 
9.050179e+2, 2.3393306e+2, -810228.06, -846746.2, -62087.56, 0.01887632, 0.042592704, -763770.4, -116311.48, 0.0, 9.999355, 9.998869 
9.0503186e+2, 2.4393201e+2, -765231.94, -763999.5, -52966.098, 0.013954325, 0.048335683, -711646.06, -162176.3, 0.0, 9.998947, 9.9989605 
9.050461e+2, 2.5393078e+2, -726311.3, -692879.2, -49927.914, 0.011303278, 0.026757872, -656943.4, -205462.34, 0.0, 9.998535, 9.998975 
9.050603e+2, 2.6392967e+2, -690541.2, -626398.7, -39421.004, 0.005201075, 0.02155806, -607650.9, -254158.53, 0.0, 9.998114, 9.9989605 
9.050746e+2, 2.7392882e+2, -655665.9, -558648.8, -35838.656, -0.006283578, 0.04106347, -546845.75, -291342.22, 0.0, 9.99768, 9.998962 
9.05089e+2, 2.839284e+2, -577482.6, -407137.84, -23407.002, -0.018075714, 0.079724535, -403980.03, -246469.48, 0.0, 9.9972725, 9.999526 
9.051037e+2, 2.9392862e+2, -528407.2, -324680.53, -23541.781, -0.02991366, 0.14203528, -321995.53, -262483.97, 0.0, 9.9969015, 9.999598 
9.051185e+2, 3.0392888e+2, -436640.06, -93658.555, -7288.422, -0.04068012, 0.14231144, -93503.74, -93503.74, 0.0, 9.9965, 10.001041 
9.0513355e+2, 3.1392983e+2, -494391.3, -108470.84, -6091.5723, -0.05201333, 0.1252933, -108374.71, -108374.71, 0.0, 9.996048, 10.001158 
9.1486424e+2, 1.2393207e+2, -1262656.0, -1749283.8, -24307.541, 0.026759883, -0.13194546, -1261444.8, 464008.1, 0.0000024615865, 10.004193, 9.997744 
9.148785e+2, 1.3393007e+2, -1209092.9, -1641140.0, -39794.965, 0.028688246, -0.1323109, -1205458.0, 422015.94, 0.000000075596084, 10.003753, 9.998026 
9.148922e+2, 1.4392854e+2, -1160822.6, -1539677.5, -42636.348, -0.016765395, -0.09645416, -1156083.5, 373406.3, 0.0, 10.003293, 9.99827 
9.149066e+2, 1.5392682e+2, -1131833.0, -1472088.9, -42223.55, 0.008946618, -0.09888522, -1126671.6, 304835.78, 0.0, 10.002807, 9.998296 
9.149209e+2, 1.6392522e+2, -1090989.9, -1384885.0, -47963.297, 0.0265688, -0.094107985, -1083360.4, 250163.84, 0.0, 10.002342, 9.9984455 
9.14935e+2, 1.7392384e+2, -1054444.9, -1314394.5, -49182.336, 0.03180693, -0.07885047, -1045450.8, 190088.81, 0.0, 10.001911, 9.998465 
9.14949e+2, 1.8392256e+2, -1007290.7, -1221060.6, -57892.94, 0.035381824, -0.0579716, -992619.1, 144934.73, 0.0, 10.001476, 9.998642 
9.149628e+2, 1.9392149e+2, -971860.06, -1150707.5, -59837.465, 0.03644178, -0.030071575, -953686.75, 85879.65, 0.0, 10.001036, 9.998664 
9.149765e+2, 2.0392044e+2, -925743.75, -1059732.1, -67971.27, 0.031843245, -0.0075179865, -897300.5, 44278.063, 0.0, 10.000602, 9.998825 
9.1499007e+2, 2.1391942e+2, -887995.8, -988414.56, -71016.27, 0.018976886, 0.0057090726, -851232.25, -7642.2134, 0.0, 10.000178, 9.998846 
9.150036e+2, 2.239184e+2, -850309.2, -918930.75, -76286.49, 0.013337042, 0.021027094, -800972.75, -55371.37, 0.0, 9.999762, 9.998851 
9.150172e+2, 2.3391742e+2, -811176.9, -848989.94, -77293.52, 0.018825928, 0.03870408, -750511.1, -102898.63, 0.0, 9.999356, 9.998853 
9.150309e+2, 2.439164e+2, -761460.75, -756390.1, -68352.414, 0.021013005, 0.045724574, -690526.0, -140902.9, 0.0, 9.998948, 9.999013 
9.1504467e+2, 2.5391534e+2, -722030.6, -684165.2, -65293.17, 0.017929867, 0.035195593, -635115.2, -183482.38, 0.0, 9.998535, 9.999034 
9.150585e+2, 2.6391435e+2, -684856.5, -614709.9, -55451.71, 0.0113289105, 0.03380545, -584170.5, -230527.48, 0.0, 9.998115, 9.999041 
9.150723e+2, 2.739135e+2, -649922.7, -546713.6, -51922.816, -0.00067196635, 0.046250805, -525112.94, -269459.34, 0.0, 9.99768, 9.999044 
9.150864e+2, 2.8391308e+2, -578256.1, -408555.2, -37266.55, -0.013372512, 0.07945903, -400732.03, -243071.47, 0.0, 9.997272, 9.9995165 
9.151006e+2, 2.9391325e+2, -530049.8, -327709.8, -37087.88, -0.026765784, 0.13904269, -321126.03, -261463.69, 0.0, 9.9969, 9.9995775 
9.1511506e+2, 3.0391356e+2, -431850.1, -83200.414, -23538.09, -0.0345, 0.14318812, -81618.484, -81618.484, 0.0, 9.996497, 10.001115 
9.151298e+2, 3.1391475e+2, -488889.3, -96398.88, -22574.756, -0.035628535, 0.13771287, -95104.72, -95104.72, 0.0, 9.996044, 10.001243 
9.248685e+2, 1.2391738e+2, -1251084.8, -1751199.3, -6840.5366, 0.02697581, -0.12742764, -1250991.3, 474606.0, 0.000004978166, 10.004306, 9.997676 
9.248823e+2, 1.3391535e+2, -1196998.6, -1640278.9, -22003.348, 0.026945323, -0.12751506, -1195909.1, 431709.78, 0.00000032745965, 10.003858, 9.997981 
9.248955e+2, 1.4391378e+2, -1147603.3, -1537016.8, -26120.227, -0.017450228, -0.09181706, -1145859.1, 383776.1, 0.0, 10.0034, 9.998237 
9.249094e+2, 1.53912e+2, -1116069.1, -1468024.8, -27410.264, 0.0050494773, -0.09636505, -1113947.3, 317705.78, 0.0, 10.002931, 9.998263 
9.2492324e+2, 1.6391034e+2, -1077746.4, -1384307.3, -33793.668, 0.021438926, -0.091748774, -1074065.3, 259604.81, 0.0, 10.002459, 9.998393 
9.249369e+2, 1.7390893e+2, -1047739.8, -1317273.9, -36184.977, 0.028439699, -0.073598355, -1042966.5, 192719.36, 0.0, 10.001984, 9.998409 
9.249504e+2, 1.8390764e+2, -1002350.06, -1221121.4, -44605.344, 0.032965172, -0.052214988, -993605.0, 144095.5, 0.0, 10.001521, 9.998619 
9.2496383e+2, 1.9390653e+2, -967216.25, -1150483.8, -44796.477, 0.033735294, -0.027528467, -956852.6, 82860.734, 0.0, 10.001077, 9.998646 
9.249771e+2, 2.0390543e+2, -922586.3, -1062876.6, -50419.24, 0.02868895, -0.006179544, -906346.06, 35379.72, 0.0, 10.000645, 9.998783 
9.249902e+2, 2.1390437e+2, -883805.6, -991367.25, -51771.15, 0.015115116, 0.008962934, -862936.4, -19198.795, 0.0, 10.000229, 9.998801 
9.2500335e+2, 2.2390333e+2, -847473.75, -919348.2, -56718.43, 0.010150984, 0.023826279, -816265.9, -70516.5, 0.0, 9.999789, 9.998835 
9.250165e+2, 2.339023e+2, -818549.0, -853969.8, -57733.09, 0.018411173, 0.037428305, -775870.94, -128109.98, 0.0, 9.999312, 9.99884 
9.250298e+2, 2.439013e+2, -772616.44, -758232.75, -48642.543, 0.022382744, 0.044404354, -716253.25, -166481.77, 0.0, 9.998857, 9.999044 
9.2504317e+2, 2.5390032e+2, -734428.2, -686023.3, -47290.63, 0.01957027, 0.039832234, -657101.75, -205321.31, 0.0, 9.998432, 9.999071 
9.250565e+2, 2.638994e+2, -699081.9, -615484.56, -40505.66, 0.013953516, 0.040788632, -599078.06, -245288.3, 0.0, 9.997991, 9.999095 
9.2507e+2, 2.738986e+2, -669321.75, -549808.5, -39167.15, 0.004026205, 0.05019868, -538116.4, -282316.63, 0.0, 9.9975195, 9.9991 
9.250836e+2, 2.8389814e+2, -608362.4, -423682.97, -23719.723, -0.008188467, 0.07980327, -420685.16, -262878.5, 0.0, 9.997067, 9.999511 
9.250974e+2, 2.9389825e+2, -568603.56, -347704.34, -22939.09, -0.023553992, 0.13516611, -345347.38, -285538.25, 0.0, 9.996641, 9.999564 
9.251115e+2, 3.0389866e+2, -470257.16, -93837.24, -11349.004, -0.030032145, 0.14230217, -93495.375, -93495.375, 0.0, 9.996201, 10.001185 
9.251257e+2, 3.139e+2, -528452.56, -106382.75, -10997.611, -0.02474157, 0.14849876, -106096.39, -106096.39, 0.0, 9.995734, 10.001324 
9.348728e+2, 1.2390307e+2, -1254893.0, -1759525.9, -23114.74, 0.025006395, -0.13128285, -1253836.5, 471901.2, 0.0000089929035, 10.004307, 9.997619 
9.348861e+2, 1.3390106e+2, -1199262.0, -1645374.4, -38761.793, 0.027896324, -0.12433986, -1195919.1, 431840.06, 0.0000009594143, 10.003859, 9.997946 
9.348989e+2, 1.4389949e+2, -1151095.8, -1544646.6, -43637.086, -0.01334962, -0.08607624, -1146315.3, 383460.38, 0.00000000002439963, 10.003402, 9.998183 
9.349123e+2, 1.5389761e+2, -1119678.5, -1475994.9, -45052.188, 0.0034462486, -0.09478402, -1114070.5, 317723.94, 0.0, 10.002933, 9.998208 
9.349256e+2, 1.6389592e+2, -1082436.9, -1394563.3, -51700.86, 0.014486219, -0.088108264, -1074096.0, 259716.02, 0.0, 10.0024605, 9.998322 
9.349387e+2, 1.7389454e+2, -1052599.4, -1327815.3, -54145.97, 0.016816767, -0.058465984, -1042329.8, 193497.8, 0.0, 10.001986, 9.998336 
9.349518e+2, 1.8389322e+2, -1002438.0, -1221711.1, -61546.465, 0.020851763, -0.03631832, -986344.1, 151498.44, 0.0, 10.001523, 9.998614 
9.3496484e+2, 1.9389196e+2, -966666.0, -1149739.5, -61629.76, 0.027430821, -0.02716173, -947852.4, 92004.016, 0.0, 10.001079, 9.998651 
9.349777e+2, 2.0389079e+2, -923794.3, -1065745.8, -66246.68, 0.028094487, -0.012387758, -897681.5, 44187.78, 0.0, 10.000646, 9.998762 
9.3499047e+2, 2.138898e+2, -885220.75, -994651.6, -67469.2, 0.01998502, 0.0099241305, -853069.2, -9188.473, 0.0, 10.00023, 9.998778 
9.3500316e+2, 2.2388875e+2, -848133.6, -921055.4, -74432.38, 0.015793974, 0.02802572, -801711.6, -55819.203, 0.0, 9.99979, 9.998822 
9.350158e+2, 2.3388769e+2, -819119.94, -855479.0, -75659.625, 0.01766359, 0.038738474, -759486.4, -111582.04, 0.0, 9.999313, 9.99883 
9.350286e+2, 2.4388666e+2, -771708.6, -756641.0, -64703.42, 0.018110212, 0.044360846, -699034.25, -149119.19, 0.0, 9.9988575, 9.999055 
9.350415e+2, 2.538857e+2, -733368.0, -684047.94, -63036.64, 0.016274298, 0.040742405, -641019.44, -189095.6, 0.0, 9.998433, 9.999084 
9.350545e+2, 2.6388478e+2, -697020.94, -611367.7, -57797.207, 0.013103774, 0.042600248, -582259.4, -228326.47, 0.0, 9.997991, 9.999124 
9.3506753e+2, 2.7388403e+2, -667201.2, -545478.75, -56592.03, 0.007783223, 0.052900583, -523233.13, -267290.94, 0.0, 9.9975195, 9.99913 
9.350807e+2, 2.838836e+2, -608711.2, -424304.7, -39552.527, -0.002587662, 0.080718264, -416179.28, -258230.3, 0.0, 9.9970665, 9.999507 
9.3509406e+2, 2.9388362e+2, -569329.8, -348851.56, -38507.07, -0.020331586, 0.13043602, -342319.72, -282367.53, 0.0, 9.996639, 9.9995575 
9.3510765e+2, 3.0388406e+2, -466062.22, -84515.37, -28186.596, -0.027245425, 0.13971888, -82444.336, -82444.336, 0.0, 9.996197, 10.00125 
9.3512154e+2, 3.1388563e+2, -523695.34, -95641.02, -27899.482, -0.019151628, 0.15751992, -93830.266, -93830.266, 0.0, 9.99573, 10.001399 
9.448772e+2, 1.2388932e+2, -1241061.4, -1759293.3, -5438.7607, 0.029440587, -0.12462216, -1241004.4, 484868.7, 0.000015008873, 10.004431, 9.9975605 
9.4489e+2, 1.3388728e+2, -1186138.0, -1642989.9, -21511.227, 0.026897248, -0.11720834, -1185127.4, 442767.6, 0.0000022144288, 10.003966, 9.99791 
9.449024e+2, 1.4388567e+2, -1141112.4, -1544786.6, -26860.135, -0.013915292, -0.07894088, -1139333.0, 390578.8, 0.0000000053592455, 10.003491, 9.998139 
9.449153e+2, 1.5388373e+2, -1112694.6, -1477702.3, -27693.027, 0.002218505, -0.08888212, -1110605.5, 321325.47, 0.0, 10.003002, 9.998162 
9.4492805e+2, 1.6388197e+2, -1076283.1, -1399539.8, -33001.574, 0.0117656505, -0.083037235, -1072948.4, 261000.8, 0.0, 10.002538, 9.99825 
9.4494075e+2, 1.7388052e+2, -1039728.8, -1329933.4, -35445.797, 0.011358205, -0.053551245, -1035462.2, 200503.44, 0.0, 10.0021105, 9.998261 
9.449533e+2, 1.8387915e+2, -985121.4, -1215457.8, -44273.418, 0.013681748, -0.03122579, -976904.6, 161076.39, 0.0, 10.001651, 9.998595 
9.449659e+2, 1.9387789e+2, -958179.0, -1146961.1, -45737.88, 0.0201054, -0.021331783, -947681.4, 92313.35, 0.0, 10.0011425, 9.998638 
9.4497836e+2, 2.0387669e+2, -927127.2, -1068981.5, -50626.297, 0.023293043, -0.006945516, -910912.56, 31095.117, 0.0, 10.00063, 9.998748 
9.4499063e+2, 2.1387565e+2, -903678.0, -1005280.3, -51292.785, 0.021802347, 0.013135624, -882287.0, -38267.6, 0.0, 10.000111, 9.998762 
9.450029e+2, 2.238746e+2, -869138.1, -930638.56, -56322.477, 0.019731632, 0.029404722, -835718.3, -89687.11, 0.0, 9.999644, 9.998827 
9.450151e+2, 2.3387353e+2, -826957.06, -858555.0, -56181.49, 0.016758604, 0.038979907, -784395.4, -136352.19, 0.0, 9.999256, 9.998836 
9.450274e+2, 2.4387252e+2, -772267.25, -753686.56, -44460.043, 0.014604561, 0.04454474, -717556.56, -167502.88, 0.0, 9.998839, 9.9990835 
9.450399e+2, 2.5387162e+2, -739588.3, -683531.1, -41575.71, 0.013717138, 0.042441793, -661418.5, -209356.48, 0.0, 9.998376, 9.999116 
9.4505244e+2, 2.6387072e+2, -709335.06, -614643.5, -37332.21, 0.011819792, 0.04360951, -601695.7, -247624.98, 0.0, 9.997895, 9.999147 
9.45065e+2, 2.7386996e+2, -684582.9, -551356.6, -36948.965, 0.008193949, 0.049846325, -541795.4, -285715.47, 0.0, 9.99739, 9.999152 
9.450777e+2, 2.8386948e+2, -634138.3, -434706.44, -18933.889, -0.0008848963, 0.073209666, -432924.78, -274838.13, 0.0, 9.996884, 9.999523 
9.450906e+2, 2.938695e+2, -606403.5, -364874.03, -16219.778, -0.01794293, 0.11817177, -363789.66, -303699.7, 0.0, 9.996378, 9.999574 
9.451037e+2, 3.0387e+2, -510200.66, -100076.62, -6231.1973, -0.02428315, 0.12879777, -99981.96, -99981.96, 0.0, 9.99587, 10.001301 
9.4511706e+2, 3.1387168e+2, -573317.8, -113235.9, -7549.1265, -0.015599817, 0.15494365, -113112.07, -113112.07, 0.0, 9.995363, 10.001455 
9.548817e+2, 1.23876154e+2, -1244891.5, -1767710.0, -22391.646, 0.04043655, -0.10711474, -1243934.3, 482068.75, 0.000023512299, 10.004432, 9.997502 
9.54894e+2, 1.3387401e+2, -1188509.1, -1648329.5, -38889.14, 0.023818558, -0.10596161, -1185243.3, 442782.56, 0.000004405151, 10.003967, 9.997872 
9.549058e+2, 1.4387234e+2, -1143516.6, -1550127.3, -45082.47, -0.019392086, -0.07042265, -1138578.1, 391465.22, 0.000000046136613, 10.003493, 9.998102 
9.5491827e+2, 1.5387037e+2, -1115120.6, -1483104.0, -46075.7, 0.0013211145, -0.07857024, -1109439.1, 322623.5, 0.0, 10.003004, 9.998125 
9.549306e+2, 1.6386853e+2, -1081143.1, -1410051.4, -49318.816, 0.013368946, -0.07647674, -1073907.1, 260174.4, 0.0, 10.002539, 9.998178 
9.549428e+2, 1.7386688e+2, -1044878.3, -1341132.1, -51533.83, 0.012190741, -0.059070397, -1036169.94, 199929.7, 0.0, 10.002112, 9.998183 
9.54955e+2, 1.8386544e+2, -987292.44, -1220485.3, -63165.86, 0.011564748, -0.03721829, -971281.7, 166833.92, 0.0, 10.001653, 9.99856 
9.549669e+2, 1.9386432e+2, -960040.75, -1151267.0, -64994.973, 0.011756587, -0.0100380825, -940041.5, 100086.75, 0.0, 10.001144, 9.998608 
9.549788e+2, 2.0386317e+2, -927679.2, -1070490.6, -70230.55, 0.014224197, 0.010286858, -898929.5, 43211.37, 0.0, 10.000631, 9.998737 
9.5499074e+2, 2.13862e+2, -904089.06, -1006464.75, -70882.2, 0.020537276, 0.018651323, -867844.2, -23690.658, 0.0, 10.000113, 9.998754 
9.5500255e+2, 2.2386089e+2, -867596.7, -927766.25, -71483.05, 0.021949526, 0.027959855, -820125.56, -73959.74, 0.0, 9.999645, 9.998846 
9.5501435e+2, 2.3385984e+2, -825206.44, -855197.0, -70662.5, 0.01568366, 0.038141355, -767965.7, -119788.266, 0.0, 9.999257, 9.998858 
9.550262e+2, 2.4385887e+2, -769001.6, -747109.7, -61526.063, 0.011849441, 0.04494044, -695563.5, -145376.08, 0.0, 9.99884, 9.999128 
9.5503825e+2, 2.5385803e+2, -736145.1, -676497.2, -58886.168, 0.011871824, 0.04490809, -640313.2, -188118.19, 0.0, 9.998376, 9.999164 
9.550503e+2, 2.638572e+2, -708041.0, -612005.8, -55965.348, 0.01009644, 0.04382953, -586281.9, -232078.44, 0.0, 9.997895, 9.999166 
9.550623e+2, 2.738563e+2, -683597.9, -549302.8, -55669.438, 0.0053214473, 0.041166037, -529227.2, -273014.22, 0.0, 9.99739, 9.9991665 
9.5507455e+2, 2.838558e+2, -631831.5, -429778.06, -37625.55, -0.0030206072, 0.057494618, -422999.03, -264779.2, 0.0, 9.996883, 9.9995575 
9.5508695e+2, 2.9385585e+2, -604041.25, -359567.28, -34826.438, -0.016440164, 0.09858231, -354702.9, -294480.1, 0.0, 9.996375, 9.999612 
9.550996e+2, 3.038563e+2, -508196.22, -95218.836, -24787.4, -0.021216376, 0.109838635, -93736.38, -93736.38, 0.0, 9.995867, 10.001336 
9.551124e+2, 3.1385812e+2, -571484.6, -108385.5, -25964.09, -0.014093152, 0.1411588, -106934.34, -106934.34, 0.0, 9.9953575, 10.001491 
9.6488625e+2, 1.2386333e+2, -1225264.1, -1762860.4, -6080.594, 0.04100361, -0.09704084, -1225195.4, 500934.06, 0.00003488559, 10.004587, 9.99746 
9.64898e+2, 1.3386114e+2, -1167166.4, -1640324.8, -21597.418, 0.02270831, -0.09845477, -1166182.6, 461970.06, 0.000007864026, 10.004125, 9.997852 
9.6490943e+2, 1.4385943e+2, -1123708.5, -1546605.9, -28375.457, -0.01784346, -0.061985694, -1121813.0, 408357.34, 0.0000001901187, 10.003655, 9.998048 
9.6492136e+2, 1.5385748e+2, -1094251.6, -1479583.0, -31089.34, 0.00051532144, -0.064126514, -1091759.4, 340430.4, 0.0, 10.003176, 9.998066 
9.6493316e+2, 1.638556e+2, -1061913.3, -1401039.6, -32786.32, 0.011818907, -0.06362861, -1058772.6, 275436.44, 0.0, 10.002672, 9.998175 
9.6494496e+2, 1.7385381e+2, -1041347.94, -1338919.4, -28823.125, 0.012475638, -0.05952345, -1038581.8, 197646.03, 0.0, 10.002134, 9.998188 
9.649565e+2, 1.8385231e+2, -997102.6, -1232393.9, -38442.05, 0.0118130315, -0.042081855, -990981.2, 147263.08, 0.0, 10.0016165, 9.998496 
9.64968e+2, 1.9385122e+2, -966969.2, -1162779.1, -43583.387, 0.009035525, -0.005438323, -957706.56, 82550.54, 0.0, 10.001132, 9.998534 
9.649794e+2, 2.0385005e+2, -925451.8, -1069283.9, -50537.91, 0.0103305895, 0.017861117, -909470.25, 32799.7, 0.0, 10.000647, 9.998737 
9.6499085e+2, 2.1384883e+2, -896748.94, -1001734.7, -49845.57, 0.018272549, 0.018994879, -876853.4, -32570.523, 0.0, 10.000157, 9.998764 
9.650022e+2, 2.2384769e+2, -863617.5, -923472.3, -47788.598, 0.021294758, 0.024719208, -837158.75, -90863.66, 0.0, 9.999662, 9.998867 
9.6501356e+2, 2.338467e+2, -838430.6, -859069.94, -46852.5, 0.016580557, 0.037057478, -800774.75, -152468.55, 0.0, 9.999156, 9.99888 
9.6502495e+2, 2.4384576e+2, -794628.25, -757538.7, -39841.242, 0.01284999, 0.04530796, -732137.7, -181821.81, 0.0, 9.998656, 9.9991455 
9.650365e+2, 2.5384495e+2, -765593.06, -688814.94, -39782.617, 0.010707583, 0.04553967, -671919.5, -219596.17, 0.0, 9.998166, 9.999181 
9.650481e+2, 2.638441e+2, -736180.4, -620516.25, -37901.125, 0.008136956, 0.043614198, -609203.25, -254871.73, 0.0, 9.997681, 9.99921 
9.6505964e+2, 2.7384326e+2, -707545.1, -555382.25, -35288.926, 0.004735445, 0.038398456, -547596.56, -291256.03, 0.0, 9.997202, 9.999215 
9.650713e+2, 2.8384277e+2, -657877.1, -435983.1, -17274.076, -0.0015439222, 0.05061316, -434646.4, -276299.47, 0.0, 9.996677, 9.999615 
9.6508324e+2, 2.9384276e+2, -642811.94, -371726.44, -13340.96, -0.011925538, 0.08532158, -371071.47, -310722.03, 0.0, 9.996081, 9.999669 
9.6509534e+2, 3.0384332e+2, -559312.6, -116262.85, -2070.448, -0.016903583, 0.09413302, -116253.17, -116253.17, 0.0, 9.995501, 10.001368 
9.6510756e+2, 3.1384516e+2, -629539.6, -133079.8, -3706.2275, -0.014875439, 0.12712623, -133052.14, -133052.14, 0.0, 9.994946, 10.00152 
9.7489077e+2, 1.23850904e+2, -1226750.4, -1766458.1, -23142.21, 0.030345183, -0.09501969, -1225759.9, 500492.2, 0.000049334085, 10.004589, 9.997436 
9.749021e+2, 1.3384873e+2, -1167194.3, -1640915.0, -38876.41, 0.023538737, -0.09494096, -1164025.0, 464250.03, 0.000012852773, 10.004127, 9.997848 
9.749131e+2, 1.4384703e+2, -1128532.6, -1557128.5, -46280.0, -0.009037, -0.05371553, -1123592.3, 406700.47, 0.0000005406463, 10.003657, 9.997974 
9.749245e+2, 1.5384509e+2, -1099656.0, -1491350.6, -49115.266, -0.00020610119, -0.04547241, -1093591.3, 338721.2, 0.0, 10.003178, 9.997985 
9.7493577e+2, 1.638432e+2, -1056828.3, -1391034.8, -52843.285, 0.006998061, -0.044359174, -1048672.0, 285659.75, 0.0, 10.002674, 9.998243 
9.749471e+2, 1.7384137e+2, -1034992.9, -1326138.5, -49138.324, 0.012164605, -0.05480965, -1026923.2, 209426.92, 0.0, 10.002136, 9.998275 
9.749582e+2, 1.8383978e+2, -1003565.8, -1246147.9, -56949.066, 0.014429023, -0.04574743, -990861.6, 147505.23, 0.0, 10.001618, 9.998401 
9.7496915e+2, 1.9383858e+2, -975074.0, -1179964.9, -61892.5, 0.011993521, -0.007579405, -957829.25, 82551.92, 0.0, 10.001133, 9.998416 
9.749801e+2, 2.0383735e+2, -924406.9, -1067493.4, -68995.75, 0.011672209, 0.01567478, -896557.75, 45837.004, 0.0, 10.000648, 9.99875 
9.7499096e+2, 2.1383613e+2, -894538.5, -997505.0, -68309.61, 0.015015896, 0.014135027, -860483.9, -16076.552, 0.0, 10.000159, 9.998793 
9.750018e+2, 2.2383502e+2, -861908.06, -920274.2, -66800.24, 0.017738614, 0.01969408, -818194.44, -71775.375, 0.0, 9.999663, 9.998889 
9.750127e+2, 2.3383407e+2, -836842.9, -856104.2, -65890.73, 0.019405432, 0.035728574, -779882.7, -131453.11, 0.0, 9.999157, 9.9989 
9.750237e+2, 2.4383317e+2, -795272.3, -759171.2, -58266.62, 0.017555451, 0.045642857, -716223.2, -165784.11, 0.0, 9.998657, 9.999134 
9.7503465e+2, 2.538323e+2, -766605.56, -691122.0, -58060.125, 0.010206063, 0.044338904, -659614.8, -207167.75, 0.0, 9.998166, 9.999165 
9.7504574e+2, 2.6383153e+2, -731281.75, -610417.6, -55697.418, 0.0059122248, 0.042909693, -588665.5, -234210.52, 0.0, 9.997681, 9.99928 
9.750568e+2, 2.7383077e+2, -702000.44, -543755.56, -52972.87, 0.0063227746, 0.041328304, -527659.94, -271197.22, 0.0, 9.997201, 9.999295 
9.7506803e+2, 2.8383034e+2, -652690.06, -424947.56, -38863.65, 0.0033615858, 0.052249275, -418498.22, -260030.1, 0.0, 9.996676, 9.999691 
9.7507936e+2, 2.9383036e+2, -637736.56, -360810.38, -35375.234, -0.004578541, 0.07811779, -356362.9, -295892.7, 0.0, 9.996079, 9.999745 
9.7509086e+2, 3.038309e+2, -557752.25, -112530.336, -22667.828, -0.011476369, 0.08149431, -111379.21, -111379.21, 0.0, 9.995499, 10.001395 
9.751025e+2, 3.138327e+2, -628513.1, -130328.72, -23950.992, -0.018025579, 0.11243798, -129179.88, -129179.88, 0.0, 9.994943, 10.00154 
9.8489535e+2, 1.2383908e+2, -1181287.6, -1752236.5, 2911.4846, 0.015332554, -0.09138496, -1181272.9, 545095.75, 0.00006685729, 10.004935, 9.997366 
9.849063e+2, 1.3383688e+2, -1144092.6, -1635631.0, -16813.213, 0.020726465, -0.087949984, -1143518.3, 484873.47, 0.000019546229, 10.004311, 9.997794 
9.849169e+2, 1.4383514e+2, -1120506.8, -1560392.8, -23883.732, -0.001466263, -0.045789003, -1119213.8, 411196.2, 0.0000012306185, 10.003743, 9.9979105 
9.849277e+2, 1.5383314e+2, -1092018.4, -1494940.6, -25233.656, 0.0024000562, -0.038920555, -1090444.3, 341986.3, 0.0, 10.003262, 9.997919 
9.8493856e+2, 1.638312e+2, -1041534.25, -1381274.6, -31300.998, 0.0059303367, -0.03797973, -1038674.5, 295775.56, 0.0, 10.002769, 9.998264 
9.8494923e+2, 1.7382942e+2, -1014640.94, -1312648.5, -31855.563, 0.009661728, -0.046704054, -1011273.75, 225193.83, 0.0, 10.00226, 9.998308 
9.8495984e+2, 1.8382783e+2, -988058.1, -1240490.0, -39180.242, 0.012098323, -0.038937293, -982116.75, 156367.39, 0.0, 10.001732, 9.998384 
9.8497033e+2, 1.9382656e+2, -970284.75, -1180218.6, -36992.734, 0.0123124905, -0.0067474768, -963956.94, 76542.22, 0.0, 10.001178, 9.998393 
9.849807e+2, 2.0382528e+2, -926193.3, -1069613.3, -40094.59, 0.013291889, 0.0131411925, -915745.5, 26767.652, 0.0, 10.000641, 9.998738 
9.849911e+2, 2.1382406e+2, -898912.4, -1000747.3, -42259.81, 0.01579463, 0.012356404, -883659.75, -39134.117, 0.0, 10.0001335, 9.998782 
9.8500144e+2, 2.2382295e+2, -866411.06, -922798.44, -43259.984, 0.01733549, 0.019180557, -842968.44, -96431.17, 0.0, 9.999635, 9.998885 
9.850118e+2, 2.3382202e+2, -838695.8, -857294.3, -44260.25, 0.017260268, 0.037175864, -802768.44, -154220.83, 0.0, 9.999146, 9.998898 
9.850223e+2, 2.4382111e+2, -798728.4, -759357.7, -37935.4, 0.015372681, 0.04687996, -736304.2, -185747.06, 0.0, 9.998628, 9.999146 
9.850328e+2, 2.5382024e+2, -780924.2, -696310.44, -35722.125, 0.010681575, 0.041957498, -683246.4, -230681.05, 0.0, 9.998061, 9.99918 
9.8504335e+2, 2.6381946e+2, -754978.0, -616731.94, -32708.506, 0.008079938, 0.039976474, -609383.8, -254810.83, 0.0, 9.997497, 9.999325 
9.850539e+2, 2.7381885e+2, -737566.25, -555406.3, -32446.572, 0.008608725, 0.042640276, -549799.44, -293219.66, 0.0, 9.996934, 9.999344 
9.8506457e+2, 2.8381845e+2, -694610.6, -438792.88, -22859.72, 0.0066933203, 0.053640924, -436766.2, -278181.7, 0.0, 9.996362, 9.999747 
9.8507535e+2, 2.9381844e+2, -678478.1, -373960.22, -21247.873, 0.0013063817, 0.07317794, -372484.78, -311898.5, 0.0, 9.995773, 9.999803 
9.8508626e+2, 3.0381903e+2, -597498.4, -126810.57, -7317.6426, -0.0056747524, 0.0740158, -126696.83, -126696.83, 0.0, 9.995205, 10.001438 
9.850973e+2, 3.138209e+2, -665320.6, -143346.88, -6936.2993, -0.016400626, 0.10637369, -143254.72, -143254.72, 0.0, 9.994671, 10.001582 
9.949001e+2, 1.2382791e+2, -1188824.0, -1768862.4, -19830.244, -0.0043593887, -0.086337134, -1188146.9, 538331.6, 0.00008732294, 10.004939, 9.997251 
9.9491054e+2, 1.3382567e+2, -1151011.4, -1650626.5, -40170.453, 0.014083711, -0.07739662, -1147802.3, 480700.06, 0.000028030634, 10.0043125, 9.99769 
9.9492073e+2, 1.438238e+2, -1124201.8, -1568424.9, -42510.023, 0.0047517824, -0.038231157, -1120170.4, 410351.28, 0.000002414681, 10.003744, 9.997855 
9.949311e+2, 1.538216e+2, -1095215.4, -1501974.0, -43231.223, 0.008375172, -0.044817276, -1090671.4, 341872.44, 0.00000000019976186, 10.0032625, 9.99787 
9.949413e+2, 1.6381964e+2, -1043161.06, -1385139.3, -50332.074, 0.008703373, -0.04488, -1035907.1, 298656.72, 0.0, 10.002771, 9.998237 
9.949515e+2, 1.7381802e+2, -1015958.56, -1315932.0, -51074.57, 0.004928624, -0.03522375, -1007500.9, 229079.25, 0.0, 10.002262, 9.998284 
9.949615e+2, 1.838165e+2, -983434.3, -1231407.4, -59978.03, 0.0047182874, -0.02149381, -969689.1, 168906.83, 0.0, 10.001734, 9.998446 
9.949715e+2, 1.9381516e+2, -964928.56, -1169525.1, -58011.313, 0.009938917, -0.0028774631, -949624.75, 90986.25, 0.0, 10.001179, 9.998466 
9.949814e+2, 2.0381384e+2, -928479.7, -1074729.1, -59447.66, 0.015169627, 0.0102709755, -907364.06, 35261.08, 0.0, 10.000642, 9.998703 
9.9499124e+2, 2.138126e+2, -902213.0, -1007947.56, -61405.316, 0.020596433, 0.013668979, -874052.1, -29414.346, 0.0, 10.000135, 9.998733 
9.9500114e+2, 2.2381149e+2, -868342.94, -927149.2, -61744.895, 0.020093232, 0.023185473, -829357.6, -82707.95, 0.0, 9.999636, 9.998855 
9.950109e+2, 2.3381053e+2, -840460.06, -861258.5, -62615.004, 0.01019019, 0.041392483, -787386.56, -138726.23, 0.0, 9.999147, 9.99887 
9.950208e+2, 2.4380961e+2, -796061.2, -754078.75, -58812.414, 0.0063352664, 0.049011867, -712623.75, -161953.7, 0.0, 9.998629, 9.999183 
9.950308e+2, 2.5380874e+2, -777727.0, -689833.44, -56893.26, 0.0120785665, 0.038413785, -661890.25, -209212.1, 0.0, 9.998061, 9.999224 
9.950409e+2, 2.6380795e+2, -753599.25, -613943.8, -53631.336, 0.014542254, 0.03484143, -595724.75, -241039.16, 0.0, 9.997497, 9.999344 
9.9505085e+2, 2.738074e+2, -736454.06, -553130.25, -53291.844, 0.0115469005, 0.04232911, -538764.2, -282072.28, 0.0, 9.996934, 9.99936 
9.95061e+2, 2.8380707e+2, -692231.0, -433819.3, -44498.594, 0.008428644, 0.054733973, -426371.3, -267675.03, 0.0, 9.996361, 9.999782 
9.950712e+2, 2.9380703e+2, -675957.56, -368582.78, -42967.273, 0.00569346, 0.07037183, -362689.47, -301991.53, 0.0, 9.995772, 9.999841 
9.9508154e+2, 3.0380768e+2, -593709.7, -118649.555, -27116.707, 0.0003594262, 0.071457125, -117106.73, -117106.73, 0.0, 9.995204, 10.001495 
9.9509203e+2, 3.1380966e+2, -661451.1, -134740.23, -26391.305, -0.010413938, 0.108338416, -133421.19, -133421.19, 0.0, 9.994668, 10.001642 
1.0049049e+3, 1.2381735e+2, -1186011.1, -1777246.1, 823.8024, -0.013968607, -0.07424958, -1186010.0, 540572.6, 0.000110579866, 10.005001, 9.997163 
1.0049149e+3, 1.3381499e+2, -1128478.3, -1648009.4, -17530.59, 0.007364694, -0.069266476, -1127887.4, 500720.2, 0.000038323626, 10.004503, 9.997617 
1.00492455e+3, 1.4381303e+2, -1091034.4, -1554917.8, -16194.159, 0.0047604223, -0.035470657, -1090469.8, 440158.1, 0.0000042271736, 10.003983, 9.997833 
1.0049344e+3, 1.5381075e+2, -1073331.9, -1493124.3, -14162.869, 0.007257814, -0.047601476, -1072854.6, 359795.75, 0.000000004412824, 10.003421, 9.997855 
1.0049441e+3, 1.6380876e+2, -1034349.8, -1386086.4, -21123.727, 0.0075622573, -0.047559053, -1033085.75, 301584.78, 0.0, 10.002853, 9.998191 
1.00495376e+3, 1.7380717e+2, -1016524.4, -1321799.9, -23921.492, 0.0056705293, -0.02902286, -1014661.25, 222025.58, 0.0, 10.002282, 9.998235 
1.0049633e+3, 1.8380567e+2, -983241.7, -1230838.6, -35604.184, 0.0063558617, -0.011922386, -978223.56, 160479.14, 0.0, 10.001734, 9.99845 
1.0049727e+3, 1.9380428e+2, -957727.3, -1164702.0, -38231.81, 0.01084715, 0.0013927518, -950891.0, 89826.82, 0.0, 10.001223, 9.998478 
1.0049821e+3, 2.0380296e+2, -920412.44, -1070804.1, -40893.734, 0.016376778, 0.011726396, -910012.06, 32719.86, 0.0, 10.000697, 9.998703 
1.00499146e+3, 2.1380173e+2, -900102.94, -1007066.06, -39264.063, 0.023747763, 0.016247682, -887237.4, -42492.91, 0.0, 10.000151, 9.998731 
1.0050008e+3, 2.238006e+2, -873091.6, -930400.7, -36422.137, 0.0235766, 0.02476606, -855403.4, -108646.92, 0.0, 9.999608, 9.998846 
1.00501e+3, 2.3379959e+2, -852205.3, -868015.44, -36031.797, 0.011440686, 0.038658243, -823221.6, -174454.02, 0.0, 9.999071, 9.998859 
1.0050194e+3, 2.4379867e+2, -812137.06, -758683.6, -34539.715, 0.0076069543, 0.04607905, -741737.6, -190960.3, 0.0, 9.998505, 9.99921 
1.00502886e+3, 2.537979e+2, -800438.0, -697037.2, -33975.016, 0.0169183, 0.04174478, -686873.0, -234088.39, 0.0, 9.99789, 9.999257 
1.0050383e+3, 2.637972e+2, -779767.94, -624642.8, -29873.434, 0.01957504, 0.040389054, -619088.75, -264297.2, 0.0, 9.997309, 9.999361 
1.0050477e+3, 2.7379656e+2, -757702.25, -561687.6, -29638.875, 0.0114355385, 0.04354708, -557304.0, -300505.94, 0.0, 9.996781, 9.999374 
1.00505725e+3, 2.8379622e+2, -711543.25, -440524.13, -23446.707, 0.0067604585, 0.053569663, -438510.63, -279708.16, 0.0, 9.996218, 9.9998045 
1.0050669e+3, 2.9379627e+2, -699720.8, -377200.47, -23364.283, 0.008185922, 0.07019558, -375516.7, -314712.9, 0.0, 9.995597, 9.999866 
1.0050767e+3, 3.0379695e+2, -623130.1, -129061.7, -7635.9585, 0.004908561, 0.07361023, -128943.71, -128943.71, 0.0, 9.994987, 10.001528 
1.0050865e+3, 3.13799e+2, -699613.6, -149107.77, -8696.064, -0.0071648625, 0.11274953, -148970.42, -148970.42, 0.0, 9.99439, 10.0016775 
1.0149099e+3, 1.2380742e+2, -1190064.5, -1785891.6, -17520.813, -0.013206731, -0.054896403, -1189549.6, 537131.2, 0.00013645706, 10.005001, 9.997103 
1.0149193e+3, 1.3380487e+2, -1131255.4, -1654362.8, -35985.89, 0.0005706908, -0.06363533, -1128791.5, 499915.94, 0.00005038572, 10.004506, 9.997572 
1.01492845e+3, 1.4380282e+2, -1089887.1, -1553198.1, -36957.59, -0.0016584764, -0.03770916, -1086957.6, 443770.66, 0.000006753224, 10.003985, 9.997844 
1.01493776e+3, 1.5380059e+2, -1071718.9, -1490326.8, -35269.438, -0.0011701768, -0.047236133, -1068768.1, 363981.78, 0.000000028517778, 10.003423, 9.997874 
1.0149469e+3, 1.6379859e+2, -1038752.9, -1395723.9, -42565.17, 0.002368494, -0.04590743, -1033747.6, 301022.34, 0.0, 10.002855, 9.998124 
1.0149561e+3, 1.7379692e+2, -1021767.94, -1333146.8, -45449.766, 0.011936757, -0.028181264, -1015269.56, 221517.98, 0.0, 10.002284, 9.998157 
1.0149651e+3, 1.8379536e+2, -986791.1, -1238625.1, -55160.555, 0.017128937, -0.0103695085, -975238.94, 163565.3, 0.0, 10.001735, 9.998397 
1.014974e+3, 1.9379395e+2, -961045.75, -1172021.3, -57515.32, 0.015070951, 0.006022594, -946384.94, 94434.61, 0.0, 10.0012245, 9.998427 
1.01498276e+3, 2.0379262e+2, -917724.6, -1065636.3, -61444.875, 0.01689375, 0.017519917, -895529.8, 47303.746, 0.0, 10.000699, 9.998737 
1.0149916e+3, 2.1379143e+2, -896631.2, -1000234.2, -59919.363, 0.02523104, 0.02009831, -869225.8, -24380.254, 0.0, 10.000152, 9.998777 
1.0150004e+3, 2.2379027e+2, -872141.0, -928768.4, -56693.125, 0.027753074, 0.023938242, -837084.56, -90226.99, 0.0, 9.999609, 9.998857 
1.0150092e+3, 2.3378919e+2, -851665.94, -867187.7, -56161.867, 0.020946432, 0.02901748, -802731.25, -153861.78, 0.0, 9.999072, 9.998865 
1.015018e+3, 2.437883e+2, -810718.4, -756004.56, -57256.816, 0.019110475, 0.03809206, -719904.9, -169025.88, 0.0, 9.998506, 9.9992285 
1.0150269e+3, 2.537877e+2, -798919.56, -694137.06, -56980.418, 0.025158217, 0.051834445, -669122.8, -216238.13, 0.0, 9.99789, 9.999276 
1.01503566e+3, 2.637871e+2, -778836.25, -622910.56, -49878.035, 0.023172002, 0.0564779, -608320.6, -253429.52, 0.0, 9.99731, 9.9993725 
1.01504445e+3, 2.7378634e+2, -756957.7, -560180.56, -49173.367, 0.008276317, 0.04629691, -548576.75, -291678.2, 0.0, 9.996781, 9.999385 
1.0150534e+3, 2.8378594e+2, -710953.56, -439229.63, -46005.81, 0.0016798974, 0.050196063, -431651.7, -272748.38, 0.0, 9.996218, 9.999814 
1.0150624e+3, 2.9378605e+2, -699144.9, -375897.38, -46314.113, 0.008765461, 0.07256306, -369392.5, -308488.44, 0.0, 9.995597, 9.999875 
1.01507165e+3, 3.0378678e+2, -622605.3, -127879.57, -29659.695, 0.007914699, 0.08032005, -126107.766, -126107.766, 0.0, 9.994986, 10.001536 
1.01508096e+3, 3.1378883e+2, -699010.5, -147805.5, -30518.81, -0.006867222, 0.119359076, -146120.89, -146120.89, 0.0, 9.994389, 10.001687 
1.0249149e+3, 1.23798e+2, -1168289.6, -1778876.9, 5369.373, -0.018768353, -0.041704528, -1168242.4, 558531.5, 0.00016471739, 10.005166, 9.997071 
1.02492385e+3, 1.3379534e+2, -1122688.0, -1652042.0, -11107.526, -0.0026432816, -0.059753332, -1122455.1, 506346.16, 0.00006412632, 10.004573, 9.997556 
1.0249325e+3, 1.4379321e+2, -1086536.9, -1553140.4, -11400.79, 0.0013694341, -0.03965799, -1086258.5, 444564.1, 0.000010021424, 10.004015, 9.997829 
1.0249411e+3, 1.53791e+2, -1060051.4, -1486270.5, -12148.621, -0.001639056, -0.047067348, -1059705.4, 373138.53, 0.000000096824984, 10.0035095, 9.99786 
1.02494985e+3, 1.6378899e+2, -1024078.25, -1392599.0, -21258.924, 0.00066282495, -0.043297976, -1022855.94, 312008.1, 0.0, 10.002974, 9.998088 
1.02495834e+3, 1.7378733e+2, -1009099.7, -1331324.6, -21343.219, 0.012709201, -0.022713795, -1007692.1, 229189.84, 0.0, 10.002389, 9.998117 
1.0249669e+3, 1.837857e+2, -976569.2, -1236742.9, -26837.777, 0.01917911, -0.006250129, -973829.6, 165069.52, 0.0, 10.001819, 9.998369 
1.02497526e+3, 1.9378419e+2, -956082.5, -1172493.6, -27063.941, 0.016453343, 0.0021563561, -952749.25, 88165.96, 0.0, 10.00127, 9.998402 
1.0249835e+3, 2.0378284e+2, -916295.2, -1063424.6, -32193.33, 0.018665928, 0.011544271, -909559.4, 33370.03, 0.0, 10.000702, 9.998751 
1.0249918e+3, 2.1378174e+2, -902478.06, -1000920.56, -32957.746, 0.029098235, 0.021380233, -892462.94, -47522.414, 0.0, 10.000102, 9.998796 
1.025e+3, 2.237806e+2, -884611.8, -932479.7, -30002.848, 0.033349138, 0.02704079, -870166.0, -123213.88, 0.0, 9.999514, 9.998878 
1.0250083e+3, 2.3377948e+2, -869173.9, -873332.06, -28419.408, 0.027594795, 0.025201634, -842757.6, -193793.22, 0.0, 9.998942, 9.998885 
1.02501646e+3, 2.437786e+2, -829308.25, -766873.94, -30907.928, 0.024355046, 0.034221243, -754161.5, -203187.48, 0.0, 9.998386, 9.999211 
1.02502465e+3, 2.537781e+2, -805960.94, -699983.56, -33999.348, 0.025182469, 0.05888984, -690013.9, -237034.6, 0.0, 9.997853, 9.999254 
1.0250329e+3, 2.637775e+2, -781116.9, -621124.06, -28593.61, 0.0207392, 0.06714799, -616167.44, -261181.95, 0.0, 9.997282, 9.999398 
1.0250411e+3, 2.7377674e+2, -774028.2, -564769.5, -26538.822, 0.0078114094, 0.04876457, -561456.25, -304463.1, 0.0, 9.996649, 9.999416 
1.02504954e+3, 2.8377634e+2, -738457.1, -452150.25, -23863.432, 0.0028688172, 0.05032564, -450174.88, -291177.03, 0.0, 9.996028, 9.999816 
1.02505796e+3, 2.9377648e+2, -724103.5, -388038.03, -25268.668, 0.0109788375, 0.07994801, -386148.7, -325150.56, 0.0, 9.995426, 9.999873 
1.0250665e+3, 3.0377725e+2, -642314.6, -136286.3, -7930.752, 0.0076666744, 0.08973183, -136162.03, -136162.03, 0.0, 9.994845, 10.001546 
1.0250752e+3, 3.1377923e+2, -711874.5, -152703.28, -8589.845, -0.014912181, 0.12067, -152571.36, -152571.36, 0.0, 9.994295, 10.0016985 
1.0349201e+3, 1.23789094e+2, -1168337.9, -1779452.9, -16599.658, -0.03094793, -0.035025757, -1167887.3, 558974.4, 0.00019514233, 10.005168, 9.997067 
1.0349283e+3, 1.3378641e+2, -1121692.4, -1650352.9, -33314.2, -0.0022259974, -0.057677336, -1119601.3, 509287.6, 0.000079424775, 10.004574, 9.997567 
1.0349367e+3, 1.4378422e+2, -1089240.5, -1559060.6, -30674.281, 0.0140649015, -0.041310392, -1087246.3, 443664.3, 0.000014010392, 10.004016, 9.997789 
1.0349448e+3, 1.5378198e+2, -1063172.6, -1493199.1, -31094.736, 0.006015882, -0.047117364, -1060935.9, 371996.63, 0.00000023208057, 10.003511, 9.997811 
1.0349528e+3, 1.6377999e+2, -1024081.25, -1393171.6, -42903.7, 0.0025141838, -0.03974366, -1019159.6, 315792.97, 0.0, 10.002975, 9.998084 
1.0349607e+3, 1.7377837e+2, -1008700.44, -1331063.4, -43380.645, 0.007903286, -0.012563306, -1002964.7, 234005.17, 0.0, 10.002391, 9.998118 
1.03496864e+3, 1.8377674e+2, -976328.2, -1236752.1, -47676.547, 0.012359191, 0.00048791, -967874.4, 171112.88, 0.0, 10.001821, 9.998368 
1.0349765e+3, 1.9377503e+2, -955921.06, -1172615.6, -47729.375, 0.014933344, -0.01027071, -945873.94, 95130.805, 0.0, 10.001272, 9.9984 
1.0349842e+3, 2.037736e+2, -916683.94, -1064645.5, -54602.35, 0.021681964, -0.0063081165, -898715.94, 44303.39, 0.0, 10.000704, 9.998742 
1.034992e+3, 2.1377265e+2, -902960.1, -1002311.6, -55588.938, 0.035323773, 0.020046651, -878085.1, -33055.813, 0.0, 10.000104, 9.998786 
1.03499964e+3, 2.2377163e+2, -882451.06, -928343.4, -51641.785, 0.04034133, 0.03405138, -848887.0, -101846.85, 0.0, 9.999515, 9.998905 
1.03500724e+3, 2.3377047e+2, -866710.5, -868549.9, -49861.348, 0.03139497, 0.027175229, -817760.4, -168707.88, 0.0, 9.998943, 9.998918 
1.0350149e+3, 2.4376957e+2, -832912.1, -774640.9, -51027.93, 0.023379121, 0.034456883, -745016.56, -193954.19, 0.0, 9.998387, 9.999157 
1.03502244e+3, 2.5376904e+2, -810516.3, -709628.25, -53888.96, 0.017068248, 0.0629622, -686257.5, -233189.1, 0.0, 9.997854, 9.999187 
1.0350302e+3, 2.6376843e+2, -778483.94, -615779.5, -51735.363, 0.012315875, 0.07246806, -600722.5, -245647.61, 0.0, 9.997282, 9.999434 
1.03503786e+3, 2.737677e+2, -770455.06, -557429.1, -50093.457, 0.009931959, 0.05096402, -546237.5, -289155.38, 0.0, 9.996649, 9.999467 
1.0350457e+3, 2.8376734e+2, -738898.94, -453099.1, -46263.43, 0.010156965, 0.05391713, -445796.84, -286710.47, 0.0, 9.996028, 9.99981 
1.0350534e+3, 2.9376757e+2, -725154.2, -390217.53, -47461.367, 0.014732044, 0.092281744, -383622.0, -322535.72, 0.0, 9.995426, 9.999859 
1.0350614e+3, 3.037683e+2, -641771.6, -135135.06, -28325.396, 0.0041635456, 0.10185108, -133556.34, -133556.34, 0.0, 9.994845, 10.0015545 
1.0350693e+3, 3.1377015e+2, -711161.94, -151121.27, -28654.713, -0.031234065, 0.11656102, -149658.95, -149658.95, 0.0, 9.994294, 10.00171 
1.0449253e+3, 1.2378068e+2, -1153215.0, -1772381.4, 5298.319, -0.025377361, -0.035841763, -1153169.8, 573774.44, 0.00022763966, 10.005274, 9.997065 
1.044933e+3, 1.33778e+2, -1101744.9, -1639297.9, -11483.807, -0.0045393365, -0.058269836, -1101499.6, 527471.44, 0.00009616901, 10.004705, 9.99758 
1.04494065e+3, 1.4377582e+2, -1072519.0, -1552449.3, -6492.845, 0.01483689, -0.04321778, -1072431.1, 458561.56, 0.000018680124, 10.004138, 9.997776 
1.0449484e+3, 1.5377356e+2, -1056438.1, -1491756.8, -4421.432, 0.009473086, -0.048365694, -1056393.3, 376621.56, 0.00000044748657, 10.003566, 9.997795 
1.0449558e+3, 1.6377154e+2, -1022099.8, -1396132.9, -16699.496, 0.0065963245, -0.04022593, -1021355.7, 313679.47, 0.0, 10.003006, 9.998049 
1.04496315e+3, 1.737699e+2, -1000067.25, -1331049.0, -20198.133, 0.009373391, -0.012135352, -998839.25, 238213.61, 0.0, 10.002469, 9.998081 
1.04497045e+3, 1.8376826e+2, -960357.2, -1225750.0, -25171.207, 0.012661887, 0.0008556587, -957990.94, 181079.34, 0.0, 10.001916, 9.998398 
1.04497775e+3, 1.9376656e+2, -943354.44, -1162183.1, -22270.805, 0.016355533, -0.011523565, -941110.9, 99976.4, 0.0, 10.00134, 9.998439 
1.044985e+3, 2.0376517e+2, -910127.1, -1064568.6, -28996.242, 0.023253947, -0.00865792, -904862.56, 38239.21, 0.0, 10.000762, 9.998714 
1.04499206e+3, 2.1376418e+2, -893920.5, -1002105.75, -32234.547, 0.03546976, 0.017451135, -885044.25, -39931.895, 0.0, 10.000184, 9.998749 
1.04499914e+3, 2.2376315e+2, -869731.44, -921517.8, -30014.922, 0.03982312, 0.03322671, -855984.3, -108861.02, 0.0, 9.999599, 9.998911 
1.0450062e+3, 2.3376207e+2, -857055.8, -862560.1, -29930.266, 0.031471957, 0.031273715, -829751.44, -180616.42, 0.0, 9.999004, 9.998929 
1.0450133e+3, 2.4376117e+2, -832394.94, -774863.3, -30551.154, 0.02346753, 0.039533827, -761666.7, -210521.88, 0.0, 9.998394, 9.999153 
1.0450203e+3, 2.5376058e+2, -825166.5, -717419.0, -29183.201, 0.016192244, 0.06274231, -710022.5, -256870.88, 0.0, 9.997757, 9.999181 
1.0450274e+3, 2.6375997e+2, -796782.44, -618874.06, -25320.174, 0.01119522, 0.07122692, -615340.6, -260182.53, 0.0, 9.997132, 9.999485 
1.04503445e+3, 2.7375934e+2, -784067.5, -557374.25, -23372.44, 0.009722597, 0.05551563, -554989.56, -297825.47, 0.0, 9.996528, 9.999526 
1.0450416e+3, 2.8375906e+2, -755412.56, -463846.94, -19263.268, 0.009565518, 0.061887056, -462579.75, -303411.88, 0.0, 9.995927, 9.999784 
1.0450488e+3, 2.9375926e+2, -741475.4, -402204.38, -22224.027, 0.011647402, 0.09988662, -400754.78, -339586.44, 0.0, 9.995332, 9.999822 
1.0450561e+3, 3.0375996e+2, -655576.2, -139563.0, -2823.446, -0.00068921107, 0.10686214, -139547.55, -139547.55, 0.0, 9.994741, 10.001574 
1.0450635e+3, 3.137617e+2, -729538.6, -156834.4, -2000.041, -0.036510203, 0.11378556, -156827.42, -156827.42, 0.0, 9.994155, 10.001738 
1.05493076e+3, 1.2377279e+2, -1153201.6, -1772715.1, -15871.757, -0.0016183155, -0.04455519, -1152795.3, 574225.94, 0.00026218136, 10.005275, 9.997062 
1.0549376e+3, 1.3377017e+2, -1100675.0, -1637569.1, -32733.686, -0.009635651, -0.061618526, -1098686.6, 530360.8, 0.000114271854, 10.004707, 9.99759 
1.0549447e+3, 1.4376803e+2, -1071282.3, -1550375.1, -27937.707, 0.0033480695, -0.045396652, -1069658.5, 461410.28, 0.00002400302, 10.004139, 9.997789 
1.0549519e+3, 1.5376578e+2, -1055198.1, -1489636.6, -25935.34, 0.008600608, -0.050823353, -1053655.3, 379435.44, 0.00000074769673, 10.003567, 9.997809 
1.05495885e+3, 1.6376372e+2, -1026514.9, -1405783.9, -37062.74, 0.012917694, -0.044796392, -1022927.0, 312184.53, 0.0, 10.003008, 9.997982 
1.0549657e+3, 1.7376195e+2, -1005234.06, -1342335.5, -40441.56, 0.01716793, -0.02159263, -1000450.25, 236680.56, 0.0, 10.002471, 9.998003 
1.05497256e+3, 1.8376032e+2, -955886.25, -1217015.8, -46737.203, 0.020135373, -0.005309465, -947773.25, 191375.0, 0.0, 10.001918, 9.998457 
1.0549791e+3, 1.9375886e+2, -937580.75, -1150690.3, -44021.805, 0.020728141, -0.0015719259, -928845.25, 112317.56, 0.0, 10.001342, 9.998517 
1.05498575e+3, 2.0375751e+2, -913242.94, -1071481.6, -50781.816, 0.02336256, 0.004601088, -898348.1, 44828.6, 0.0, 10.000764, 9.998667 
1.05499215e+3, 2.137563e+2, -898302.1, -1011632.3, -54022.023, 0.02950649, 0.013605366, -876677.25, -31487.688, 0.0, 10.000185, 9.998683 
1.0549986e+3, 2.2375517e+2, -870759.75, -924038.2, -52304.375, 0.03176095, 0.02452099, -838701.5, -91499.92, 0.0, 9.9996, 9.998894 
1.0550051e+3, 2.3375422e+2, -857644.56, -864104.4, -52253.934, 0.027810477, 0.03745158, -808520.8, -159308.66, 0.0, 9.999005, 9.998919 
1.0550116e+3, 2.4375337e+2, -829258.44, -768632.7, -54201.11, 0.024570804, 0.049439564, -736843.8, -185622.3, 0.0, 9.998394, 9.999195 
1.0550181e+3, 2.537527e+2, -821553.56, -710134.7, -52990.305, 0.022444552, 0.05831324, -688957.75, -235728.78, 0.0, 9.997757, 9.999231 
1.0550246e+3, 2.637521e+2, -792275.0, -609681.5, -48002.9, 0.017284691, 0.06352461, -597830.94, -242595.7, 0.0, 9.997132, 9.999549 
1.0550309e+3, 2.737517e+2, -779474.6, -547953.0, -45871.242, 0.0071975687, 0.06240033, -539195.8, -281956.44, 0.0, 9.996528, 9.999591 
1.05503745e+3, 2.8375146e+2, -758635.8, -470593.1, -41356.695, 0.0011626527, 0.07422834, -464772.78, -305530.16, 0.0, 9.995927, 9.999739 
1.0550441e+3, 2.9375154e+2, -745825.7, -411254.78, -44209.17, 0.0017987639, 0.1029489, -405511.72, -344267.06, 0.0, 9.995332, 9.99976 
1.0550508e+3, 3.0375212e+2, -653614.9, -135514.14, -24417.57, -0.0069569186, 0.10497738, -134365.9, -134365.9, 0.0, 9.994741, 10.001602 
1.0550577e+3, 3.1375396e+2, -726696.4, -150932.25, -23469.06, -0.03123458, 0.11213466, -149977.2, -149977.2, 0.0, 9.994155, 10.001779 
1.06493615e+3, 1.2376551e+2, -1138230.5, -1769852.9, 14693.652, 0.005916117, -0.05774753, -1137888.9, 589202.94, 0.00029864948, 10.005398, 9.997023 
1.0649424e+3, 1.3376293e+2, -1076898.6, -1629608.9, -5292.9307, -0.011195938, -0.06935742, -1076847.9, 552270.1, 0.00013365624, 10.004887, 9.997559 
1.06494896e+3, 1.4376077e+2, -1042411.56, -1537243.6, -4691.9463, 0.0031214708, -0.049955033, -1042367.06, 488772.3, 0.000029966117, 10.004341, 9.997782 
1.0649556e+3, 1.5375856e+2, -1030371.7, -1478107.3, -4411.794, 0.00799384, -0.051154666, -1030328.2, 402832.7, 0.0000011355473, 10.00374, 9.997805 
1.0649619e+3, 1.6375649e+2, -1009569.3, -1400949.9, -14505.217, 0.013229716, -0.04545715, -1009032.44, 326149.53, 0.0, 10.0031395, 9.9979515 
1.06496826e+3, 1.7375462e+2, -997209.5, -1342221.8, -14542.269, 0.020540407, -0.029835323, -996597.6, 240604.7, 0.0, 10.0025425, 9.99797 
1.0649745e+3, 1.8375295e+2, -952935.0, -1216590.6, -22032.178, 0.025320226, -0.012997073, -951106.56, 188113.5, 0.0, 10.001943, 9.998447 
1.0649806e+3, 1.9375165e+2, -938162.0, -1151545.9, -25752.906, 0.02566963, 0.0043110363, -935097.9, 106135.766, 0.0, 10.00134, 9.998511 
1.0649866e+3, 2.0375034e+2, -912576.06, -1068484.0, -32967.496, 0.026665902, 0.01342317, -905891.5, 37355.684, 0.0, 10.000757, 9.99869 
1.0649924e+3, 2.1374899e+2, -893427.7, -1006147.06, -29206.0, 0.028991912, 0.008273868, -886309.75, -41048.973, 0.0, 10.000206, 9.998711 
1.0649983e+3, 2.2374783e+2, -870078.9, -926394.56, -25706.666, 0.029755246, 0.014614248, -860109.3, -112836.26, 0.0, 9.999617, 9.998869 
1.0650042e+3, 2.3374696e+2, -865319.06, -871331.3, -27554.098, 0.028099392, 0.038527533, -840607.56, -191324.31, 0.0, 9.998968, 9.998887 
1.06501e+3, 2.4374616e+2, -838494.2, -769407.0, -31672.412, 0.025104867, 0.053932145, -757084.8, -205792.34, 0.0, 9.998315, 9.9992285 
1.0650157e+3, 2.5374544e+2, -833279.44, -711057.9, -31340.781, 0.019863449, 0.05383886, -703489.9, -250189.66, 0.0, 9.997657, 9.999273 
1.0650216e+3, 2.6374486e+2, -806265.75, -613533.94, -26360.373, 0.013540669, 0.059307814, -609993.56, -254687.47, 0.0, 9.997025, 9.999574 
1.06502734e+3, 2.7374464e+2, -791486.4, -551073.44, -27209.232, 0.0055241236, 0.073378354, -548032.44, -290723.44, 0.0, 9.996433, 9.999615 
1.0650333e+3, 2.8374448e+2, -769710.06, -474618.3, -22422.107, -0.0012837434, 0.08979344, -472924.34, -313612.53, 0.0, 9.995845, 9.99975 
1.0650392e+3, 2.9374442e+2, -755659.25, -414836.7, -20091.785, -0.006148644, 0.10597511, -413656.34, -352341.66, 0.0, 9.995259, 9.999769 
1.06504545e+3, 3.03745e+2, -662693.8, -136292.4, 2427.106, -0.014212958, 0.10216549, -136281.22, -136281.22, 0.0, 9.994664, 10.001634 
1.06505185e+3, 3.137469e+2, -739276.56, -153078.9, 2795.8013, -0.027687432, 0.11271058, -153065.56, -153065.56, 0.0, 9.994052, 10.001813 
1.0749415e+3, 1.2375888e+2, -1143583.5, -1781334.6, -4607.209, -0.0033688806, -0.075564, -1143550.1, 583605.56, 0.00033672972, 10.005399, 9.996943 
1.0749474e+3, 1.3375627e+2, -1082024.0, -1640802.8, -24384.646, -0.009202187, -0.08156567, -1080961.9, 548220.5, 0.00015420115, 10.004889, 9.997481 
1.0749535e+3, 1.4375412e+2, -1044288.44, -1541748.4, -26892.422, 0.014386726, -0.05693582, -1042838.9, 488365.25, 0.000036549416, 10.004344, 9.99775 
1.0749593e+3, 1.5375197e+2, -1031797.5, -1481675.9, -27099.094, 0.007654621, -0.049317718, -1030171.0, 403054.25, 0.0000016116785, 10.003742, 9.99778 
1.0749651e+3, 1.6374989e+2, -1008866.75, -1400105.5, -37023.016, 0.007417021, -0.04214128, -1005394.06, 329852.28, 0.0000000000166348, 10.003141, 9.997956 
1.0749708e+3, 1.7374793e+2, -996290.44, -1340896.4, -37019.676, 0.019415231, -0.036845956, -992358.44, 244908.94, 0.0, 10.002544, 9.997977 
1.0749765e+3, 1.8374623e+2, -958202.1, -1228046.0, -44735.723, 0.02816733, -0.022211658, -950979.0, 188306.69, 0.0, 10.001945, 9.998368 
1.0749819e+3, 1.9374493e+2, -944355.56, -1164886.4, -48456.1, 0.03115301, 0.0060795, -934178.25, 107121.54, 0.0, 10.001342, 9.99842 
1.0749873e+3, 2.0374362e+2, -905717.56, -1054687.4, -53991.355, 0.033153497, 0.017737882, -888207.56, 55105.766, 0.0, 10.000758, 9.998784 
1.07499264e+3, 2.137423e+2, -884807.0, -988649.75, -49927.188, 0.033921216, 0.0014322908, -864696.8, -19370.787, 0.0, 10.000207, 9.998831 
1.0749979e+3, 2.2374114e+2, -872099.1, -930968.4, -49656.98, 0.033797547, 0.0035211553, -843808.44, -96470.555, 0.0, 9.999619, 9.998837 
1.07500315e+3, 2.337403e+2, -868937.0, -879180.75, -51903.723, 0.032320492, 0.034514837, -821903.06, -172554.58, 0.0, 9.998969, 9.998833 
1.0750083e+3, 2.437395e+2, -836834.7, -766269.94, -56280.746, 0.025069112, 0.053016108, -735126.6, -183768.78, 0.0, 9.998316, 9.999249 
1.0750133e+3, 2.5373876e+2, -830876.1, -706335.75, -55944.71, 0.008497684, 0.049305096, -684895.8, -231530.38, 0.0, 9.997658, 9.999306 
1.0750184e+3, 2.6373827e+2, -807056.3, -615383.06, -48653.43, -0.000000665861, 0.058555014, -603740.3, -248369.42, 0.0, 9.997025, 9.999561 
1.0750238e+3, 2.7373815e+2, -792774.2, -553854.44, -49143.6, 0.0046373643, 0.08842474, -544140.94, -286767.8, 0.0, 9.996433, 9.999596 
1.07502915e+3, 2.8373808e+2, -765069.4, -465000.97, -44153.46, 0.0021055047, 0.10857128, -458638.9, -299263.3, 0.0, 9.995845, 9.999817 
1.07503444e+3, 2.9373792e+2, -750173.5, -403405.53, -41775.043, -0.0122721, 0.109012336, -398443.9, -337065.13, 0.0, 9.995258, 9.999848 
1.07504e+3, 3.037385e+2, -660425.6, -131498.39, -20045.535, -0.02248811, 0.09847959, -130739.78, -130739.78, 0.0, 9.994663, 10.001667 
1.0750459e+3, 3.137405e+2, -737545.9, -149321.77, -19690.379, -0.025907341, 0.11544579, -148663.38, -148663.38, 0.0, 9.994051, 10.00184 
1.084947e+3, 1.2375302e+2, -1088866.9, -1762670.0, 20476.928, -0.0106551675, -0.07921767, -1088245.1, 638967.5, 0.0003759068, 10.005809, 9.996873 
1.0849523e+3, 1.3375029e+2, -1057050.8, -1636543.5, 1245.5553, -0.012857702, -0.08988934, -1057048.0, 572192.4, 0.0001756799, 10.005095, 9.997411 
1.0849579e+3, 1.4374804e+2, -1035244.8, -1542348.3, -891.3451, 0.018310413, -0.06737363, -1035243.25, 496019.7, 0.000043704793, 10.004428, 9.9977045 
1.084963e+3, 1.5374592e+2, -1020767.7, -1480998.1, -2392.8225, 0.0074246665, -0.05407859, -1020755.25, 412528.94, 0.000002179594, 10.003839, 9.997738 
1.0849683e+3, 1.6374387e+2, -993749.94, -1393255.9, -13447.933, 0.0054463786, -0.043353353, -993297.75, 342007.56, 0.000000000186287, 10.003247, 9.9979515 
1.0849734e+3, 1.7374189e+2, -980257.6, -1333070.5, -14143.55, 0.0198283, -0.038111325, -979691.56, 257634.66, 0.0, 10.002655, 9.997978 
1.08497836e+3, 1.8374017e+2, -945508.6, -1227017.0, -21610.031, 0.02960896, -0.023891859, -943859.4, 195485.44, 0.0, 10.002054, 9.9983225 
1.0849833e+3, 1.9373882e+2, -933456.9, -1165494.3, -22518.402, 0.03133378, 0.0034972988, -931291.75, 110068.12, 0.0, 10.001443, 9.998366 
1.0849882e+3, 2.037375e+2, -892470.1, -1042551.3, -27317.57, 0.032449983, 0.015625086, -887652.5, 55720.957, 0.0, 10.000825, 9.998836 
1.0849928e+3, 2.1373627e+2, -881326.0, -979540.06, -27266.125, 0.03299725, 0.0019392463, -874264.2, -28879.29, 0.0, 10.000199, 9.998897 
1.0849976e+3, 2.2373515e+2, -880227.25, -935790.44, -30518.887, 0.032587763, 0.0044834097, -866738.75, -119342.516, 0.0, 9.999566, 9.998829 
1.08500205e+3, 2.3373425e+2, -876829.1, -885092.9, -30568.477, 0.030661162, 0.032473058, -850114.56, -200706.98, 0.0, 9.998924, 9.998814 
1.0850066e+3, 2.4373345e+2, -837518.44, -762427.9, -32727.793, 0.0211683, 0.049729772, -750165.94, -198748.84, 0.0, 9.998294, 9.999287 
1.08501084e+3, 2.537328e+2, -824356.0, -698094.75, -31446.982, -0.00051199854, 0.047611114, -690696.0, -237272.14, 0.0, 9.997681, 9.999351 
1.0850154e+3, 2.6373234e+2, -808298.1, -620426.75, -24844.97, -0.009859878, 0.05952622, -617196.7, -261767.53, 0.0, 9.997036, 9.999521 
1.08502015e+3, 2.7373222e+2, -810102.2, -568048.4, -27962.934, 0.00084591634, 0.093732774, -564860.0, -307427.97, 0.0, 9.99634, 9.999543 
1.0850249e+3, 2.8373212e+2, -784458.5, -467862.2, -22950.96, 0.00020850207, 0.11516649, -466207.06, -306772.47, 0.0, 9.995684, 9.999874 
1.08502954e+3, 2.93732e+2, -769294.75, -404379.66, -20839.95, -0.019162107, 0.11209058, -403193.34, -341756.4, 0.0, 9.995092, 9.999922 
1.0850345e+3, 3.0373263e+2, -680790.7, -135373.16, 564.30927, -0.027896686, 0.1000967, -135372.58, -135372.58, 0.0, 9.994498, 10.001719 
1.0850399e+3, 3.1373468e+2, -755995.3, -152679.81, 2406.322, -0.019239465, 0.11755301, -152670.22, -152670.22, 0.0, 9.9939, 10.001889 
1.09495275e+3, 1.2374795e+2, -1092875.9, -1771753.1, -6141.602, -0.016044848, -0.06843544, -1092820.3, 634441.94, 0.00041564478, 10.005812, 9.99681 
1.0949573e+3, 1.3374501e+2, -1061273.3, -1645909.1, -25658.451, -0.022281503, -0.09419422, -1060149.3, 569142.44, 0.00019782186, 10.005096, 9.997346 
1.0949623e+3, 1.4374262e+2, -1039287.8, -1551226.4, -23611.268, 0.014727636, -0.081290536, -1038201.1, 493114.53, 0.000051377414, 10.00443, 9.997643 
1.0949669e+3, 1.5374045e+2, -1024773.2, -1489868.0, -24551.88, 0.007258426, -0.06552757, -1023480.7, 409856.94, 0.0000028594934, 10.00384, 9.997676 
1.09497145e+3, 1.637384e+2, -994581.94, -1395597.3, -35775.906, 0.007340673, -0.04916357, -991415.25, 343943.53, 0.0000000006358386, 10.00325, 9.997935 
1.0949761e+3, 1.7373653e+2, -980645.44, -1334502.3, -36487.938, 0.021771668, -0.033585314, -976922.2, 260456.61, 0.0, 10.002657, 9.997967 
1.0949805e+3, 1.837348e+2, -946183.56, -1229012.0, -44596.63, 0.029599262, -0.017972797, -939318.1, 200079.22, 0.0, 10.002056, 9.998308 
1.0949847e+3, 1.937333e+2, -934254.44, -1167699.3, -45553.76, 0.026160572, -0.0034426302, -925680.1, 115733.664, 0.0, 10.001445, 9.998351 
1.0949889e+3, 2.0373197e+2, -891730.94, -1041505.2, -50833.547, 0.024502752, 0.007047738, -876107.7, 67319.95, 0.0, 10.000827, 9.998842 
1.0949929e+3, 2.1373092e+2, -880406.3, -978059.8, -50808.754, 0.026168196, 0.009773265, -858766.2, -13328.716, 0.0, 10.0002, 9.998906 
1.0949971e+3, 2.2372986e+2, -879027.9, -933690.25, -54580.93, 0.026084287, 0.017492259, -845317.5, -97869.29, 0.0, 9.999568, 9.998843 
1.09500095e+3, 2.3372886e+2, -875663.2, -883020.56, -54627.227, 0.023114622, 0.032397438, -824590.94, -175130.28, 0.0, 9.998925, 9.998828 
1.09500475e+3, 2.4372801e+2, -833736.3, -754864.4, -55770.746, 0.013386603, 0.044060808, -725995.4, -174525.02, 0.0, 9.998295, 9.999338 
1.09500855e+3, 2.5372747e+2, -820254.7, -689801.75, -54321.14, -0.0072149523, 0.048729077, -670144.3, -216668.53, 0.0, 9.997681, 9.999408 
1.09501235e+3, 2.63727e+2, -812999.6, -630363.25, -50406.414, -0.016084483, 0.062229566, -617375.1, -261894.13, 0.0, 9.997036, 9.999454 
1.09501645e+3, 2.7372676e+2, -816144.7, -580741.4, -53873.734, -0.005853898, 0.08940383, -568997.9, -311512.1, 0.0, 9.99634, 9.999456 
1.0950205e+3, 2.8372663e+2, -781117.3, -461015.34, -45346.355, -0.0069812727, 0.10969302, -454715.47, -295226.56, 0.0, 9.995684, 9.999922 
1.0950246e+3, 2.9372665e+2, -764659.5, -394759.3, -42675.13, -0.026859961, 0.11519802, -389899.75, -328410.2, 0.0, 9.995091, 9.999989 
1.09502904e+3, 3.0372742e+2, -676052.5, -125434.984, -21483.203, -0.030528827, 0.10695494, -124598.055, -124598.055, 0.0, 9.994497, 10.001789 
1.09503396e+3, 3.1372947e+2, -751399.2, -142832.7, -19506.895, -0.007909012, 0.11875237, -142208.08, -142208.08, 0.0, 9.993898, 10.001958 
1.10495865e+3, 1.237434e+2, -1084423.3, -1770531.8, 12240.028, -0.014279137, -0.061838757, -1084205.0, 643102.1, 0.00045574523, 10.005883, 9.996783 
1.1049624e+3, 1.3374035e+2, -1031417.9, -1634386.5, -4428.53, -0.030949008, -0.09505008, -1031385.4, 597951.8, 0.00022052784, 10.005315, 9.997319 
1.1049668e+3, 1.4373788e+2, -1005087.6, -1541418.8, -927.81683, 0.008393263, -0.08606491, -1005086.06, 526275.75, 0.00005957533, 10.004694, 9.997583 
1.1049708e+3, 1.537357e+2, -1007562.6, -1488785.5, -2289.8474, 0.004955909, -0.06576497, -1007551.75, 425832.56, 0.0000036914, 10.00399, 9.997611 
1.10497475e+3, 1.6373365e+2, -985426.8, -1392968.8, -12314.524, 0.0070758685, -0.046037614, -985055.06, 350350.66, 0.0000000015244633, 10.003321, 9.997918 
1.1049788e+3, 1.7373176e+2, -973627.0, -1332185.6, -12854.645, 0.020394314, -0.029185634, -973166.75, 264258.88, 0.0, 10.00271, 9.997957 
1.1049826e+3, 1.8373e+2, -940181.44, -1226602.6, -21047.822, 0.027805334, -0.014958218, -938642.94, 200801.36, 0.0, 10.0021, 9.998303 
1.1049862e+3, 1.9372846e+2, -927899.56, -1165111.1, -21313.893, 0.025096562, -0.0059735524, -925999.7, 115461.52, 0.0, 10.001491, 9.998346 
1.1049897e+3, 2.0372713e+2, -885927.9, -1037421.56, -27178.36, 0.023407355, 0.0041131335, -881199.56, 62275.492, 0.0, 10.000861, 9.998853 
1.10499315e+3, 2.1372615e+2, -879480.4, -976107.2, -27161.73, 0.023761394, 0.0146705825, -872368.6, -26884.465, 0.0, 10.000201, 9.9989195 
1.1049966e+3, 2.2372513e+2, -881822.06, -932055.94, -30922.787, 0.022707311, 0.022631763, -867100.8, -119606.125, 0.0, 9.999536, 9.99887 
1.10499986e+3, 2.3372403e+2, -882660.5, -883295.2, -30160.621, 0.019389648, 0.025485657, -852815.56, -203307.83, 0.0, 9.998864, 9.998855 
1.10500306e+3, 2.4372318e+2, -845896.56, -758081.5, -30989.223, 0.00956838, 0.035301782, -748247.06, -196729.75, 0.0, 9.998199, 9.999362 
1.1050061e+3, 2.5372282e+2, -838292.6, -695937.2, -32161.559, -0.010765979, 0.054782905, -689008.3, -235486.94, 0.0, 9.997546, 9.999431 
1.10500924e+3, 2.6372245e+2, -832658.9, -642492.56, -28869.938, -0.020332022, 0.07352459, -638206.25, -282680.06, 0.0, 9.996913, 9.99943 
1.1050127e+3, 2.7372205e+2, -822591.1, -587313.3, -28372.934, -0.012319807, 0.090165384, -583940.06, -326407.75, 0.0, 9.996311, 9.999425 
1.1050161e+3, 2.8372183e+2, -779268.9, -457290.78, -17687.178, -0.0148081025, 0.105068535, -456322.1, -296786.1, 0.0, 9.995685, 9.999947 
1.1050195e+3, 2.9372194e+2, -773160.7, -395152.5, -17538.205, -0.034697667, 0.1138521, -394340.53, -332804.66, 0.0, 9.995018, 10.000022 
1.1050233e+3, 3.0372274e+2, -694096.2, -127091.6, 1461.7953, -0.035349607, 0.10782905, -127087.836, -127087.836, 0.0, 9.994344, 10.001851 
1.1050278e+3, 3.1372485e+2, -781224.44, -149723.44, 3140.9983, -0.004891454, 0.118701115, -149707.81, -149707.81, 0.0, 9.993663, 10.002024 
1.1149646e+3, 1.2373938e+2, -1083629.9, -1769179.8, -9326.889, -0.0053630145, -0.05964409, -1083503.0, 643844.06, 0.00049650425, 10.005884, 9.996793 
1.1149676e+3, 1.3373634e+2, -1030388.94, -1632834.1, -25780.473, -0.038871974, -0.09239627, -1029287.75, 600088.9, 0.00024397888, 10.005317, 9.99733 
1.11497134e+3, 1.4373387e+2, -1009070.1, -1550353.0, -26858.598, -0.0007669591, -0.08155625, -1007740.7, 523660.53, 0.00006838657, 10.004697, 9.99752 
1.1149748e+3, 1.5373167e+2, -1012265.3, -1499164.5, -28873.236, 0.00047165074, -0.05461257, -1010559.1, 422864.97, 0.0000047212825, 10.003993, 9.997539 
1.11497805e+3, 1.6372958e+2, -986443.3, -1395679.8, -35777.527, 0.004620278, -0.03383395, -983339.0, 352107.03, 0.0000000028732112, 10.003324, 9.997899 
1.1149815e+3, 1.7372762e+2, -974101.94, -1333797.1, -35845.535, 0.01564899, -0.024887312, -970564.56, 266902.06, 0.0, 10.002712, 9.997945 
1.1149846e+3, 1.8372583e+2, -939709.94, -1226210.0, -44029.742, 0.024188785, -0.014867593, -933096.06, 206389.52, 0.0, 10.002102, 9.998305 
1.11498766e+3, 1.9372429e+2, -927305.6, -1164430.0, -44269.93, 0.028133975, -0.004091618, -919310.2, 122191.98, 0.0, 10.0014925, 9.99835 
1.1149906e+3, 2.0372298e+2, -884712.56, -1035396.5, -51812.293, 0.029165905, 0.0068324865, -868616.44, 74899.42, 0.0, 10.000863, 9.998866 
1.1149934e+3, 2.13722e+2, -878206.0, -973902.06, -52021.605, 0.025776504, 0.016630817, -855373.9, -9848.839, 0.0, 10.000202, 9.998934 
1.1149961e+3, 2.2372097e+2, -879043.6, -926677.94, -56073.258, 0.02245116, 0.019892234, -841938.94, -94403.266, 0.0, 9.999537, 9.998906 
1.1149987e+3, 2.3371978e+2, -879698.4, -877492.7, -55336.508, 0.01947146, 0.011730055, -823248.06, -173699.17, 0.0, 9.998865, 9.998895 
1.1150012e+3, 2.43719e+2, -846271.56, -759140.25, -55494.805, 0.009687144, 0.023438487, -732153.5, -180595.48, 0.0, 9.9982, 9.999354 
1.1150037e+3, 2.5371885e+2, -839180.6, -697995.56, -56547.97, -0.011194808, 0.06574104, -678139.3, -224578.52, 0.0, 9.997546, 9.999416 
1.1150061e+3, 2.6371855e+2, -831262.6, -639759.56, -51483.902, -0.022628948, 0.09336899, -626796.1, -271231.06, 0.0, 9.996913, 9.999449 
1.1150089e+3, 2.7371803e+2, -820914.6, -583937.4, -50682.113, -0.018577375, 0.09597362, -573553.06, -315981.16, 0.0, 9.996311, 9.999449 
1.1150117e+3, 2.8371775e+2, -779245.25, -457274.66, -42136.176, -0.02331559, 0.101273306, -451851.66, -292275.56, 0.0, 9.995684, 9.999948 
1.11501455e+3, 2.9371783e+2, -773394.44, -395610.0, -42251.79, -0.042720865, 0.1081117, -390942.2, -329365.97, 0.0, 9.995017, 10.000019 
1.1150177e+3, 3.0371866e+2, -690423.0, -119385.98, -23714.215, -0.04237236, 0.102798395, -118402.86, -118402.86, 0.0, 9.994343, 10.0019045 
1.1150213e+3, 3.1372088e+2, -777095.8, -140908.42, -21912.05, -0.010159205, 0.117121875, -140154.6, -140154.6, 0.0, 9.993661, 10.002086 
1.1249706e+3, 1.23735964e+2, -1044764.0, -1753340.5, 12017.5205, -0.008518436, -0.056541663, -1044560.25, 682820.7, 0.00053841225, 10.006165, 9.996765 
1.1249729e+3, 1.3373294e+2, -1018471.0, -1630465.0, -7586.6753, -0.043652218, -0.08567265, -1018376.94, 611033.44, 0.00026844814, 10.005414, 9.997298 
1.12497605e+3, 1.4373043e+2, -1011000.7, -1554687.3, -10198.663, -0.00013873905, -0.07368524, -1010809.44, 520625.72, 0.000077895296, 10.004699, 9.99749 
1.1249787e+3, 1.5372823e+2, -1007335.06, -1500197.3, -9391.3545, -0.0014406815, -0.047069937, -1007156.2, 426302.38, 0.0000059786757, 10.004042, 9.997507 
1.12498134e+3, 1.637261e+2, -974182.2, -1388378.9, -11388.412, 0.0009749092, -0.027280636, -973869.3, 361611.4, 0.0000000043670214, 10.003402, 9.9979105 
1.1249841e+3, 1.7372413e+2, -961562.75, -1325679.1, -8957.052, 0.011796503, -0.020421535, -961342.56, 276158.6, 0.0, 10.00279, 9.997963 
1.1249867e+3, 1.8372233e+2, -931007.6, -1219456.0, -16500.94, 0.021936363, -0.013555379, -930066.75, 209453.33, 0.0, 10.0021515, 9.998327 
1.1249892e+3, 1.9372076e+2, -929297.3, -1162779.0, -15591.433, 0.030310048, -0.0076142396, -928260.75, 113275.91, 0.0, 10.001469, 9.998373 
1.1249915e+3, 2.0371947e+2, -892588.06, -1038446.56, -22572.78, 0.032515317, 0.0038319044, -889174.6, 54375.484, 0.0, 10.000806, 9.998873 
1.12499356e+3, 2.137186e+2, -881240.6, -974882.8, -23705.469, 0.025001764, 0.022817962, -875581.56, -30022.818, 0.0, 10.000179, 9.998939 
1.1249956e+3, 2.2371759e+2, -876660.56, -920903.56, -29218.219, 0.01982401, 0.026574213, -862134.2, -114565.09, 0.0, 9.999534, 9.998947 
1.1249976e+3, 2.3371631e+2, -877855.4, -871425.25, -28278.9, 0.018739052, 0.00467295, -846179.2, -196596.77, 0.0, 9.998857, 9.99894 
1.1249994e+3, 2.437155e+2, -850581.75, -766745.44, -28648.512, 0.009548214, 0.013152292, -757890.9, -206299.13, 0.0, 9.998195, 9.999305 
1.1250011e+3, 2.537154e+2, -841582.75, -706310.6, -33472.2, -0.012936311, 0.069531865, -698481.3, -244886.75, 0.0, 9.997561, 9.999352 
1.125003e+3, 2.6371518e+2, -830283.5, -635431.6, -30385.707, -0.024992434, 0.103734106, -630803.1, -275204.4, 0.0, 9.996903, 9.999483 
1.1250051e+3, 2.7371463e+2, -832926.94, -584269.6, -27932.902, -0.019895213, 0.10041752, -581170.44, -323565.13, 0.0, 9.996205, 9.999497 
1.12500735e+3, 2.8371435e+2, -799406.75, -464279.75, -17599.604, -0.024289321, 0.10061177, -463358.03, -303748.66, 0.0, 9.995535, 9.999971 
1.1250094e+3, 2.937144e+2, -787847.06, -400266.56, -16136.419, -0.04453599, 0.10399332, -399595.9, -337986.34, 0.0, 9.994908, 10.000039 
1.125012e+3, 3.0371526e+2, -697860.2, -120291.42, 1888.5054, -0.046794157, 0.099718586, -120285.24, -120285.24, 0.0, 9.994281, 10.001928 
1.1250149e+3, 3.137176e+2, -776731.2, -138071.95, 771.84393, -0.020007044, 0.12084647, -138071.02, -138071.02, 0.0, 9.993652, 10.002109 
1.1349766e+3, 1.23733185e+2, -1049174.8, -1762996.1, -15977.737, -0.024172021, -0.05263872, -1048817.4, 678591.2, 0.00058166217, 10.006166, 9.996698 
1.1349784e+3, 1.3373014e+2, -1023485.75, -1641385.3, -35924.02, -0.045294583, -0.074803755, -1021404.2, 608034.06, 0.00029398038, 10.005416, 9.997223 
1.13498084e+3, 1.4372762e+2, -1010933.4, -1555033.1, -35419.43, 0.010371819, -0.06237246, -1008637.4, 522826.2, 0.00008807817, 10.004701, 9.997487 
1.1349828e+3, 1.5372533e+2, -1006534.8, -1499103.0, -34146.523, -0.00078412506, -0.04314141, -1004178.94, 429308.6, 0.000007470774, 10.004044, 9.997515 
1.1349847e+3, 1.637232e+2, -970971.3, -1382351.6, -34676.242, -0.0039024616, -0.026422309, -968068.9, 367440.84, 0.000000005716679, 10.003405, 9.9979515 
1.13498695e+3, 1.7372131e+2, -958039.7, -1319027.0, -31989.049, 0.008816428, -0.015789507, -955226.9, 282302.22, 0.0, 10.002792, 9.998008 
1.1349889e+3, 1.8371953e+2, -927814.5, -1213443.9, -41930.71, 0.021019515, -0.010990524, -921786.25, 217761.34, 0.0, 10.002153, 9.998368 
1.13499075e+3, 1.937179e+2, -926230.06, -1156977.6, -41330.72, 0.031603236, -0.01654521, -919050.44, 122514.18, 0.0, 10.00147, 9.998412 
1.1349923e+3, 2.0371664e+2, -892501.3, -1038768.6, -46401.934, 0.03343705, -0.00491867, -879022.75, 64555.1, 0.0, 10.000808, 9.99887 
1.13499366e+3, 2.1371593e+2, -881662.06, -976220.94, -47212.625, 0.02140059, 0.033229914, -862125.5, -16540.19, 0.0, 10.000181, 9.998929 
1.13499515e+3, 2.2371498e+2, -873389.7, -914520.8, -54428.27, 0.014784012, 0.042692047, -835771.25, -88176.2, 0.0, 9.999535, 9.998991 
1.13499634e+3, 2.3371361e+2, -874093.06, -863963.94, -53690.027, 0.017175224, 0.004316482, -815100.1, -165491.61, 0.0, 9.998857, 9.998992 
1.1349975e+3, 2.437127e+2, -857135.3, -780622.1, -52534.902, 0.009131501, 0.004443378, -753890.4, -202271.88, 0.0, 9.998196, 9.999209 
1.13499865e+3, 2.5371253e+2, -849693.5, -723344.9, -57097.52, -0.016019654, 0.06616311, -701365.7, -247742.83, 0.0, 9.997561, 9.999235 
1.13499984e+3, 2.6371232e+2, -826925.56, -628614.75, -56087.875, -0.027462685, 0.10463134, -613850.7, -258223.2, 0.0, 9.996903, 9.99953 
1.1350015e+3, 2.7371186e+2, -827913.1, -573960.6, -53902.902, -0.016325999, 0.1034967, -562993.06, -305360.3, 0.0, 9.996205, 9.999568 
1.1350029e+3, 2.837116e+2, -796308.44, -457881.66, -41123.02, -0.01780006, 0.103082, -452956.38, -293320.34, 0.0, 9.995534, 10.000015 
1.1350044e+3, 2.9371166e+2, -785074.25, -394477.06, -39259.23, -0.040219203, 0.10149213, -390570.2, -328933.94, 0.0, 9.994907, 10.000079 
1.13500625e+3, 3.0371258e+2, -698587.5, -121703.66, -21298.441, -0.04868742, 0.09856755, -120918.39, -120918.39, 0.0, 9.99428, 10.00192 
1.1350084e+3, 3.1371495e+2, -778141.1, -140735.45, -22260.557, -0.03453315, 0.12986003, -139958.98, -139958.98, 0.0, 9.99365, 10.002091 
1.1449828e+3, 1.2373105e+2, -1041445.8, -1758657.9, 6289.38, -0.020437349, -0.04830729, -1041390.6, 686039.25, 0.0006258731, 10.006218, 9.996703 
1.1449838e+3, 1.3372798e+2, -1007791.7, -1633660.8, -8168.809, -0.051033523, -0.0736538, -1007685.1, 621774.6, 0.0003202303, 10.005524, 9.997224 
1.1449856e+3, 1.4372544e+2, -990322.4, -1543413.0, -2099.7424, 0.0064375075, -0.06329345, -990314.4, 541170.7, 0.00009876794, 10.004835, 9.997501 
1.1449868e+3, 1.5372318e+2, -989006.06, -1488898.5, -6.0226417, -0.0042773355, -0.04295558, -989006.06, 444502.78, 0.000009189278, 10.004157, 9.997529 
1.1449882e+3, 1.6372107e+2, -960489.56, -1377879.0, -1123.5642, -0.006690736, -0.024752986, -960486.56, 375044.28, 0.0000000073665474, 10.003479, 9.997946 
1.14498965e+3, 1.737192e+2, -957322.7, -1319685.0, -2491.1606, 0.0072213733, -0.012150721, -957305.56, 280244.66, 0.0, 10.002803, 9.997998 
1.144991e+3, 1.8371743e+2, -926484.0, -1208761.1, -15374.725, 0.019808477, -0.0074654366, -925649.06, 213919.44, 0.0, 10.002146, 9.998404 
1.1449922e+3, 1.937158e+2, -915856.6, -1147231.0, -14775.13, 0.029448567, -0.01651686, -914916.9, 126668.24, 0.0, 10.001521, 9.998454 
1.14499316e+3, 2.0371452e+2, -883098.7, -1039331.44, -20468.018, 0.030989539, -0.0044944985, -880461.7, 63136.684, 0.0, 10.000895, 9.998824 
1.1449939e+3, 2.1371385e+2, -873799.25, -978977.44, -24989.61, 0.019737821, 0.04038932, -868163.8, -22557.541, 0.0, 10.000264, 9.99887 
1.14499465e+3, 2.237129e+2, -857915.0, -899440.0, -35559.113, 0.0137026245, 0.050720975, -837500.7, -89884.7, 0.0, 9.999609, 9.999059 
1.14499524e+3, 2.3371151e+2, -859541.8, -847235.25, -32614.041, 0.016279986, 0.0035790408, -820199.06, -170570.44, 0.0, 9.998916, 9.999078 
1.14499584e+3, 2.4371059e+2, -855540.7, -785526.5, -27493.871, 0.009435704, -0.0012946788, -776020.56, -224382.05, 0.0, 9.998232, 9.999158 
1.1449962e+3, 2.537104e+2, -854510.06, -733640.1, -28655.924, -0.012849062, 0.06176776, -727190.5, -273546.53, 0.0, 9.997563, 9.999164 
1.1449968e+3, 2.637101e+2, -826475.2, -625758.5, -27727.193, -0.024144964, 0.10270792, -621998.6, -266349.66, 0.0, 9.996896, 9.999553 
1.1449977e+3, 2.7370977e+2, -822025.94, -566948.25, -28408.809, -0.017301934, 0.105701074, -563822.56, -306169.2, 0.0, 9.996228, 9.999605 
1.14499845e+3, 2.8370956e+2, -790218.94, -453789.16, -16732.635, -0.020395732, 0.106717214, -452959.0, -293302.84, 0.0, 9.995571, 10.000025 
1.1449993e+3, 2.937096e+2, -781249.2, -391988.94, -17443.28, -0.039989855, 0.1022657, -391208.84, -329552.38, 0.0, 9.994932, 10.000085 
1.14500046e+3, 3.0371052e+2, -699454.4, -123984.03, -1952.325, -0.049904592, 0.09910358, -123977.41, -123977.41, 0.0, 9.994282, 10.001903 
1.14500195e+3, 3.137129e+2, -784390.6, -146052.52, -3410.106, -0.04421062, 0.1331744, -146034.3, -146034.3, 0.0, 9.993619, 10.00207 
1.1549892e+3, 1.2372958e+2, -1036113.1, -1747935.8, -19753.818, 0.0027266091, -0.04356872, -1035565.4, 691879.4, 0.000670096, 10.006219, 9.996777 
1.15498915e+3, 1.3372646e+2, -1002235.94, -1622665.1, -34339.555, -0.060931865, -0.08227536, -1000341.1, 629133.5, 0.00034655083, 10.005526, 9.997299 
1.1549903e+3, 1.4372392e+2, -987990.75, -1539155.5, -27777.756, -0.012073308, -0.07652993, -986594.3, 544905.3, 0.000109696426, 10.004837, 9.99753 
1.15499094e+3, 1.5372176e+2, -987200.0, -1485781.6, -25564.984, -0.011973548, -0.046546716, -985892.56, 447629.72, 0.000011109999, 10.004159, 9.99755 
1.1549916e+3, 1.6371971e+2, -963968.5, -1385771.1, -26664.377, -0.007395519, -0.02225397, -962289.6, 373254.38, 0.000000010715189, 10.003482, 9.99789 
1.1549924e+3, 1.7371777e+2, -961612.9, -1329264.5, -27985.586, 0.0070054843, -0.009503095, -959494.8, 278069.53, 0.0, 10.002805, 9.9979315 
1.1549932e+3, 1.83716e+2, -924145.25, -1204532.9, -39141.91, 0.018286016, -0.0030047495, -918783.56, 220799.25, 0.0, 10.002148, 9.998432 
1.1549936e+3, 1.9371444e+2, -912572.1, -1141015.9, -38244.355, 0.023813413, -0.0074948403, -906339.56, 135258.72, 0.0, 10.001523, 9.998496 
1.154994e+3, 2.0371318e+2, -889209.1, -1052566.8, -44159.734, 0.025136225, 0.005167172, -878035.9, 65575.75, 0.0, 10.000896, 9.998733 
1.15499415e+3, 2.1371233e+2, -881316.25, -995082.06, -48670.73, 0.020003306, 0.04429958, -863335.94, -17714.223, 0.0, 10.000265, 9.998758 
1.1549943e+3, 2.2371134e+2, -851390.7, -886345.44, -61290.1, 0.016578335, 0.05062969, -805134.75, -57502.715, 0.0, 9.99961, 9.999148 
1.15499415e+3, 2.3371005e+2, -850980.7, -829842.94, -58609.9, 0.016043067, 0.0024532252, -780856.6, -131213.75, 0.0, 9.998917, 9.999197 
1.154994e+3, 2.4370916e+2, -856091.06, -786960.6, -52588.44, 0.010440565, -0.0040553967, -758594.94, -206943.05, 0.0, 9.998232, 9.999148 
1.1549939e+3, 2.537089e+2, -856497.6, -737977.4, -53580.22, -0.003445641, 0.056350626, -717346.3, -263688.1, 0.0, 9.997563, 9.999134 
1.1549939e+3, 2.6370865e+2, -826669.9, -626314.44, -52579.832, -0.015062606, 0.097971015, -613354.1, -257690.63, 0.0, 9.996896, 9.999549 
1.1549938e+3, 2.7370834e+2, -822055.25, -567089.5, -53203.227, -0.02286641, 0.10702891, -556433.1, -298765.75, 0.0, 9.996228, 9.999604 
1.1549939e+3, 2.8370816e+2, -792194.25, -457888.38, -40562.42, -0.032145444, 0.111518316, -453037.22, -293367.3, 0.0, 9.995571, 9.999998 
1.15499415e+3, 2.9370815e+2, -783641.4, -396879.1, -41069.605, -0.04391205, 0.106353976, -392566.1, -330895.53, 0.0, 9.994931, 10.0000515 
1.15499474e+3, 3.03709e+2, -701576.4, -128260.33, -26384.879, -0.050495736, 0.10139256, -127048.62, -127048.62, 0.0, 9.994281, 10.001874 
1.1549956e+3, 3.1371135e+2, -786597.9, -150378.6, -27818.73, -0.04914976, 0.13063964, -149164.53, -149164.53, 0.0, 9.993617, 10.002042 
1.1649956e+3, 1.237288e+2, -1035177.1, -1741794.0, 15976.595, 0.0076321843, -0.047798365, -1034816.06, 692636.4, 0.00071310456, 10.006203, 9.996827 
1.16499476e+3, 1.3372573e+2, -984458.1, -1608803.0, -784.5632, -0.066995375, -0.08543789, -984457.1, 645024.4, 0.00037227542, 10.005626, 9.997346 
1.1649951e+3, 1.4372325e+2, -965657.0, -1530521.3, 995.11365, -0.016659196, -0.07671837, -965655.25, 565850.8, 0.00012060856, 10.005, 9.99751 
1.1649951e+3, 1.5372114e+2, -969453.3, -1480490.5, -983.27997, -0.014289385, -0.04022687, -969451.44, 464077.22, 0.000013196358, 10.004295, 9.99752 
1.1649951e+3, 1.6371907e+2, -948171.9, -1382286.9, -2970.6248, -0.0089797415, -0.014596937, -948151.56, 387399.16, 0.000000017738206, 10.003609, 9.997853 
1.16499536e+3, 1.73717e+2, -943087.94, -1324718.6, -2241.5764, 0.0036656435, -0.008923161, -943074.8, 294497.28, 0.0, 10.002952, 9.997892 
1.16499536e+3, 1.837152e+2, -904444.3, -1194657.5, -12910.104, 0.014072163, -0.0041574286, -903871.1, 235719.72, 0.0, 10.002282, 9.998435 
1.1649951e+3, 1.9371372e+2, -902024.06, -1134948.6, -14565.206, 0.020189017, -0.0015391024, -901116.8, 140488.7, 0.0, 10.001592, 9.998505 
1.1649948e+3, 2.0371246e+2, -888364.94, -1052444.0, -19157.098, 0.023212442, 0.010829368, -886157.94, 57460.83, 0.0, 10.000904, 9.99873 
1.1649944e+3, 2.1371149e+2, -888317.4, -999019.7, -15904.195, 0.021536775, 0.037514634, -886077.75, -40447.72, 0.0, 10.00022, 9.998754 
1.1649939e+3, 2.2371045e+2, -855872.8, -882920.44, -25677.984, 0.01947188, 0.03978293, -840375.06, -92734.58, 0.0, 9.999557, 9.999197 
1.16499305e+3, 2.3370934e+2, -846106.4, -821105.7, -27799.605, 0.016856115, 0.0013677857, -803125.3, -153475.63, 0.0, 9.998923, 9.999253 
1.1649923e+3, 2.4370849e+2, -852025.3, -788971.2, -25584.918, 0.011156445, -0.0011448697, -779895.94, -228237.83, 0.0, 9.998278, 9.999112 
1.16499156e+3, 2.5370812e+2, -853062.8, -741968.2, -28402.348, 0.0004461879, 0.053622942, -735128.0, -281462.44, 0.0, 9.997612, 9.999083 
1.1649908e+3, 2.6370782e+2, -818768.3, -624247.25, -28387.256, -0.011521058, 0.093519025, -620189.25, -264517.75, 0.0, 9.996958, 9.999533 
1.16499e+3, 2.7370754e+2, -809162.3, -562200.06, -30020.049, -0.025464779, 0.10737938, -558603.3, -300928.22, 0.0, 9.996323, 9.999592 
1.1649895e+3, 2.837074e+2, -776454.2, -448079.8, -16864.25, -0.036912434, 0.1134832, -447215.97, -287538.6, 0.0, 9.99567, 10.000017 
1.1649891e+3, 2.9370737e+2, -773774.94, -389527.2, -13445.453, -0.044291336, 0.10472928, -389057.28, -327379.4, 0.0, 9.994988, 10.000074 
1.164989e+3, 3.037082e+2, -700133.25, -126464.58, 3351.0398, -0.050107233, 0.09551469, -126445.0, -126445.0, 0.0, 9.994287, 10.001883 
1.1649891e+3, 3.1371045e+2, -795399.6, -153858.94, 4236.621, -0.053994484, 0.11828061, -153830.95, -153830.95, 0.0, 9.993554, 10.002048 
1.17500156e+3, 1.2372873e+2, -1033249.7, -1738258.4, -5935.962, -0.006020724, -0.061244834, -1033199.7, 694253.2, 0.0007538733, 10.006204, 9.996851 
1.1750004e+3, 1.3372585e+2, -983090.8, -1606559.4, -22519.031, -0.06925455, -0.08314505, -982278.5, 647201.75, 0.00039696714, 10.005628, 9.99736 
1.1750002e+3, 1.4372343e+2, -970242.44, -1540672.5, -25041.441, -0.0073104547, -0.063837506, -969145.25, 562358.94, 0.00013135263, 10.005002, 9.99744 
1.1749995e+3, 1.5372129e+2, -974853.75, -1492373.0, -27611.094, -0.011238726, -0.023943007, -973384.8, 460143.03, 0.000015413914, 10.004298, 9.997438 
1.1749988e+3, 1.6371912e+2, -949354.6, -1385440.4, -27992.846, -0.011473706, -0.0017520391, -947565.06, 387985.8, 0.000000030828126, 10.003611, 9.997831 
1.1749981e+3, 1.737169e+2, -943675.25, -1326648.1, -26969.785, -0.0028357187, -0.010403529, -941785.3, 295787.97, 0.0, 10.002954, 9.997878 
1.17499754e+3, 1.8371502e+2, -905854.6, -1198258.0, -38747.477, 0.007126223, -0.010909666, -900807.2, 238785.31, 0.0, 10.002284, 9.998409 
1.1749967e+3, 1.9371362e+2, -903590.06, -1138829.5, -40522.94, 0.018567612, 0.0013332772, -896805.2, 144801.52, 0.0, 10.001594, 9.998477 
1.17499575e+3, 2.0371236e+2, -882267.9, -1040361.9, -44879.645, 0.025218006, 0.01244913, -870415.94, 73203.83, 0.0, 10.000906, 9.998812 
1.1749946e+3, 2.1371129e+2, -881155.06, -984658.0, -41559.758, 0.024308294, 0.020012235, -866533.1, -20901.781, 0.0, 10.000221, 9.998852 
1.17499344e+3, 2.2371028e+2, -855241.94, -882058.06, -49598.523, 0.022343194, 0.018172013, -817271.1, -69629.76, 0.0, 9.9995575, 9.999203 
1.1749921e+3, 2.3370935e+2, -846505.0, -822340.6, -51447.297, 0.01870699, 0.00031298996, -781575.8, -131926.66, 0.0, 9.998924, 9.999245 
1.1749906e+3, 2.4370857e+2, -856500.2, -798601.94, -50289.715, 0.01155711, 0.00744177, -769524.3, -217866.97, 0.0, 9.998279, 9.999046 
1.1749891e+3, 2.5370806e+2, -858207.1, -752903.44, -53235.508, -0.0012249667, 0.053591985, -730680.5, -277014.2, 0.0, 9.997613, 9.999008 
1.1749878e+3, 2.6370764e+2, -821025.8, -629114.5, -52151.047, -0.013579369, 0.08935253, -615858.3, -260185.16, 0.0, 9.996958, 9.9995 
1.17498636e+3, 2.7370736e+2, -811076.9, -566288.3, -53579.19, -0.025136452, 0.10675124, -555074.6, -297397.8, 0.0, 9.996323, 9.999564 
1.1749851e+3, 2.8370723e+2, -772075.8, -439033.56, -41951.64, -0.034737587, 0.112616904, -433830.4, -274151.53, 0.0, 9.995669, 10.000079 
1.1749841e+3, 2.9370722e+2, -768579.94, -378679.22, -38706.94, -0.041207314, 0.097381055, -374873.78, -313195.0, 0.0, 9.9949875, 10.00015 
1.1749833e+3, 3.0370805e+2, -697234.25, -120295.49, -23533.072, -0.048824716, 0.08142541, -119337.18, -119337.18, 0.0, 9.994286, 10.001926 
1.1749826e+3, 3.1371027e+2, -792912.75, -148475.98, -22804.348, -0.058816884, 0.09581893, -147670.03, -147670.03, 0.0, 9.993552, 10.002086 
1.18500784e+3, 1.2372947e+2, -973027.1, -1714617.5, 22192.598, -0.025730299, -0.06470626, -972363.6, 755081.9, 0.0007918333, 10.006642, 9.996801 
1.185006e+3, 1.3372658e+2, -959653.44, -1602558.3, -723.4724, -0.073918484, -0.08069367, -959652.6, 669820.4, 0.00042039042, 10.00582, 9.997294 
1.1850054e+3, 1.4372416e+2, -964586.3, -1543144.4, -5347.54, 0.0013943319, -0.057420667, -964536.9, 566960.44, 0.00014183797, 10.005064, 9.997393 
1.1850038e+3, 1.5372197e+2, -961506.2, -1490798.1, -5135.4263, -0.009710115, -0.015785303, -961456.4, 472065.16, 0.000017730805, 10.004411, 9.997395 
1.1850025e+3, 1.6371977e+2, -928821.6, -1370996.5, -2302.6357, -0.013873504, 0.0036465265, -928809.6, 406735.28, 0.00000005284166, 10.003733, 9.997871 
1.1850012e+3, 1.7371751e+2, -931673.8, -1314922.5, 3581.7004, -0.0035558445, -0.014946412, -931640.3, 305926.8, 0.0, 10.003011, 9.9979315 
1.1849999e+3, 1.8371561e+2, -904869.44, -1197965.3, -5139.545, 0.0076646497, -0.01964246, -904779.3, 234806.88, 0.0, 10.002292, 9.998407 
1.1849983e+3, 1.9371425e+2, -906634.75, -1141392.5, -5809.6484, 0.019581005, -0.0021420317, -906491.06, 135109.22, 0.0, 10.001578, 9.998467 
1.18499674e+3, 2.0371301e+2, -881366.1, -1035177.3, -9618.179, 0.026173882, 0.010037665, -880767.0, 62846.176, 0.0, 10.000893, 9.998854 
1.1849949e+3, 2.1371193e+2, -873464.5, -975342.56, -9901.081, 0.024371702, 0.011714815, -872511.1, -26886.686, 0.0, 10.000251, 9.998901 
1.184993e+3, 2.2371095e+2, -851671.8, -885243.0, -21263.572, 0.021992968, 0.011291224, -841366.9, -93732.61, 0.0, 9.999603, 9.999159 
1.184991e+3, 2.337101e+2, -847517.3, -829322.4, -27000.867, 0.01868126, 0.0067807506, -809927.56, -160285.58, 0.0, 9.998946, 9.9991865 
1.1849889e+3, 2.4370934e+2, -854347.0, -798910.0, -26414.32, 0.011660549, 0.01788266, -788339.7, -236689.36, 0.0, 9.9983, 9.999033 
1.1849868e+3, 2.537087e+2, -849779.94, -749456.06, -24400.3, -0.001307749, 0.052587453, -743836.4, -290176.25, 0.0, 9.997674, 9.9990015 
1.18498474e+3, 2.637082e+2, -813179.8, -625820.94, -20570.441, -0.013558081, 0.08228138, -623589.06, -267921.63, 0.0, 9.997015, 9.999495 
1.18498266e+3, 2.73708e+2, -814590.8, -568545.2, -20652.54, -0.02452958, 0.1026224, -566823.7, -309152.7, 0.0, 9.996302, 9.999558 
1.1849809e+3, 2.8370786e+2, -777910.06, -433559.75, -8450.033, -0.033524007, 0.10920848, -433352.53, -273679.88, 0.0, 9.995595, 10.000153 
1.18497916e+3, 2.937079e+2, -775788.4, -372604.34, -4772.5605, -0.039339136, 0.09097313, -372547.84, -310876.3, 0.0, 9.994898, 10.000234 
1.1849775e+3, 3.0370873e+2, -708796.4, -121438.35, 9030.981, -0.046733826, 0.0714909, -121299.52, -121299.52, 0.0, 9.994188, 10.001965 
1.1849761e+3, 3.1371093e+2, -804988.0, -150695.08, 8884.367, -0.057162233, 0.08024451, -150574.45, -150574.45, 0.0, 9.993455, 10.002117 
1.1950143e+3, 1.2373103e+2, -981574.1, -1732879.0, -8216.861, -0.051645894, -0.058331978, -981484.25, 745945.8, 0.000826785, 10.006644, 9.9966755 
1.1950117e+3, 1.3372795e+2, -969806.1, -1624308.3, -31744.193, -0.08101455, -0.07805831, -968270.06, 661189.56, 0.00044236798, 10.005823, 9.997145 
1.1950105e+3, 1.4372541e+2, -966010.6, -1546812.0, -30749.346, 0.009435073, -0.05742329, -964387.25, 567098.06, 0.00015195974, 10.005067, 9.997367 
1.19500816e+3, 1.5372322e+2, -961674.6, -1491863.4, -29718.303, -0.009730859, -0.01576047, -960014.06, 473495.63, 0.00002011035, 10.004414, 9.997386 
1.1950061e+3, 1.6372104e+2, -921317.8, -1356156.1, -29197.563, -0.016202351, 0.0015909708, -919366.1, 416166.53, 0.00000008649231, 10.003735, 9.9979725 
1.1950043e+3, 1.7371884e+2, -923060.8, -1297773.0, -23615.854, 0.0014865957, -0.022559784, -921578.3, 315975.25, 0.0, 10.003014, 9.998048 
1.1950022e+3, 1.8371698e+2, -903156.3, -1195095.9, -32046.072, 0.015662495, -0.03037499, -899680.0, 239891.9, 0.0, 10.002295, 9.998426 
1.1949999e+3, 1.9371563e+2, -906009.4, -1140730.9, -32631.994, 0.023213081, -0.011959375, -901557.2, 140029.0, 0.0, 10.00158, 9.998471 
1.1949976e+3, 2.0371443e+2, -881118.1, -1035250.3, -34000.742, 0.026069537, 0.003607151, -873951.0, 69647.92, 0.0, 10.000894, 9.998853 
1.1949951e+3, 2.1371342e+2, -873320.7, -975601.7, -33886.363, 0.02171346, 0.012629567, -863112.75, -17503.252, 0.0, 10.000253, 9.9988985 
1.1949926e+3, 2.2371246e+2, -858268.25, -899445.56, -45798.152, 0.01839486, 0.019162301, -828643.7, -81024.42, 0.0, 9.999605, 9.999061 
1.1949899e+3, 2.3371157e+2, -855204.8, -845710.6, -51569.836, 0.016754732, 0.020785095, -798669.9, -149041.67, 0.0, 9.998947, 9.999074 
1.19498715e+3, 2.4371074e+2, -851491.94, -793345.2, -49895.97, 0.011442204, 0.030166883, -764670.25, -213032.92, 0.0, 9.998301, 9.999071 
1.1949845e+3, 2.5371e+2, -845439.56, -740746.6, -47669.383, 0.00016520274, 0.050578326, -722293.94, -268646.78, 0.0, 9.997674, 9.999062 
1.1949818e+3, 2.637095e+2, -811741.4, -623049.75, -46694.504, -0.011506231, 0.07226482, -612126.8, -256472.39, 0.0, 9.997015, 9.999514 
1.194979e+3, 2.737093e+2, -813700.4, -566791.8, -47166.566, -0.023698997, 0.09494379, -558088.5, -300430.63, 0.0, 9.996302, 9.999571 
1.1949764e+3, 2.8370923e+2, -772321.0, -421928.16, -34354.883, -0.033336367, 0.10320439, -418591.56, -258932.66, 0.0, 9.995594, 10.000234 
1.194974e+3, 2.9370937e+2, -769588.0, -359610.25, -30555.813, -0.038781676, 0.08547434, -357345.4, -295688.9, 0.0, 9.994896, 10.000324 
1.1949718e+3, 3.0371025e+2, -706802.06, -117068.17, -17854.332, -0.043915056, 0.0657126, -116528.125, -116528.125, 0.0, 9.994186, 10.001996 
1.19496964e+3, 3.1371248e+2, -803790.1, -147809.55, -18142.355, -0.049065422, 0.07160909, -147308.17, -147308.17, 0.0, 9.993452, 10.002139 
1.20502084e+3, 1.237333e+2, -958412.8, -1727062.6, 18249.713, -0.06385359, -0.05561183, -957979.75, 769428.1, 0.00085885555, 10.006827, 9.996627 
1.2050176e+3, 1.3373008e+2, -941691.2, -1618276.8, 176.68568, -0.08701708, -0.08127546, -941691.1, 687747.4, 0.0004628523, 10.006049, 9.997076 
1.2050156e+3, 1.4372745e+2, -937785.6, -1538093.5, 7212.6587, 0.013099535, -0.06479067, -937699.0, 593766.1, 0.00016164956, 10.005282, 9.997323 
1.2050127e+3, 1.537252e+2, -947334.94, -1489471.5, 6152.7964, -0.008453837, -0.023753872, -947265.1, 486224.88, 0.000022525419, 10.004532, 9.997345 
1.2050099e+3, 1.6372304e+2, -909401.4, -1342422.0, 3057.703, -0.015527612, -0.0052340287, -909379.8, 426132.94, 0.00000013422728, 10.003782, 9.998043 
1.20500736e+3, 1.7372097e+2, -913851.8, -1283620.4, 6059.325, 0.004614341, -0.02538458, -913752.56, 323779.66, 0.0, 10.003035, 9.998135 
1.2050045e+3, 1.8371917e+2, -899616.06, -1193301.8, -2959.0552, 0.019161636, -0.031324223, -899586.25, 239963.58, 0.0, 10.002318, 9.998426 
1.2050016e+3, 1.9371782e+2, -896489.8, -1137557.6, -4777.731, 0.023697695, -0.014525263, -896395.1, 145169.45, 0.0, 10.001652, 9.998458 
1.2049986e+3, 2.037166e+2, -869410.8, -1030427.6, -6415.0347, 0.025210286, 0.0014946345, -869155.6, 74421.89, 0.0, 10.000978, 9.998845 
1.2049955e+3, 2.1371563e+2, -868141.56, -973960.3, -6791.663, 0.022245549, 0.014428931, -867707.44, -22119.611, 0.0, 10.000293, 9.998891 
1.20499216e+3, 2.2371466e+2, -859469.4, -904938.56, -17150.807, 0.018812668, 0.022548558, -853725.7, -106127.88, 0.0, 9.999619, 9.999016 
1.2049889e+3, 2.3371367e+2, -856214.2, -851771.0, -18430.262, 0.0146122025, 0.021878002, -835428.94, -185821.2, 0.0, 9.998965, 9.999023 
1.20498545e+3, 2.4371281e+2, -850532.9, -789721.94, -14822.825, 0.009727142, 0.029740106, -786301.25, -234684.02, 0.0, 9.998295, 9.999099 
1.2049822e+3, 2.5371212e+2, -853850.4, -740356.6, -14346.992, 0.0037277646, 0.04997493, -738571.06, -284944.72, 0.0, 9.997599, 9.999101 
1.20497875e+3, 2.6371163e+2, -826643.9, -630013.56, -16039.786, -0.00594835, 0.07207819, -628713.75, -273080.4, 0.0, 9.996913, 9.999516 
1.2049753e+3, 2.737114e+2, -822415.9, -571422.0, -18156.174, -0.02153867, 0.096082315, -570115.44, -312478.56, 0.0, 9.996244, 9.999566 
1.2049719e+3, 2.8371143e+2, -771677.3, -413000.22, -6756.8086, -0.033507492, 0.1049024, -412873.0, -253235.38, 0.0, 9.995562, 10.00031 
1.20496884e+3, 2.9371163e+2, -769457.4, -349664.88, -3413.7942, -0.03949013, 0.086576656, -349637.13, -288003.03, 0.0, 9.994855, 10.000412 
1.2049659e+3, 3.0371258e+2, -713687.8, -115636.664, 7417.9277, -0.04222976, 0.06505597, -115544.67, -115544.67, 0.0, 9.99412, 10.002038 
1.2049631e+3, 3.1371477e+2, -818976.25, -151265.08, 7515.8003, -0.040179007, 0.06623872, -151180.5, -151180.5, 0.0, 9.993332, 10.002172 
1.2150277e+3, 1.2373628e+2, -956483.4, -1723548.1, -10589.644, -0.06262577, -0.05655156, -956337.25, 771041.44, 0.00088846096, 10.006828, 9.996651 
1.21502355e+3, 1.33733e+2, -940623.06, -1616748.9, -29243.154, -0.0919789, -0.090329096, -939360.6, 690048.94, 0.0004820042, 10.006051, 9.997087 
1.215021e+3, 1.4373027e+2, -941939.1, -1547456.6, -21229.078, 0.012379082, -0.079508334, -941195.75, 590240.9, 0.00017092856, 10.005284, 9.997258 
1.2150174e+3, 1.5372793e+2, -952258.7, -1500470.1, -22119.64, -0.005910263, -0.03972414, -951367.6, 482094.88, 0.000024969257, 10.004535, 9.99727 
1.21501364e+3, 1.637258e+2, -906274.4, -1336729.0, -25108.082, -0.01188302, -0.016806133, -904814.8, 430670.4, 0.00000019922537, 10.003785, 9.998081 
1.21501036e+3, 1.7372392e+2, -909671.1, -1275725.0, -22063.902, 0.00581339, -0.023438888, -908346.0, 329157.03, 0.0, 10.003037, 9.998188 
1.21500686e+3, 1.8372221e+2, -900724.94, -1196330.1, -28389.592, 0.01815062, -0.0225157, -898023.1, 241496.78, 0.0, 10.002321, 9.998405 
1.2150032e+3, 1.9372076e+2, -898429.56, -1142262.3, -29764.549, 0.021015631, -0.0098555805, -894848.75, 146686.73, 0.0, 10.001655, 9.9984255 
1.2149995e+3, 2.0371951e+2, -870383.8, -1033065.56, -32048.904, 0.023576686, 0.0036768767, -864297.75, 79251.33, 0.0, 10.00098, 9.998827 
1.21499576e+3, 2.1371852e+2, -869030.25, -976361.2, -32464.498, 0.025961641, 0.017095372, -859974.7, -14415.167, 0.0, 10.000294, 9.998874 
1.21499196e+3, 2.237175e+2, -858873.56, -904210.0, -41712.297, 0.023238635, 0.02142407, -834067.94, -86497.97, 0.0, 9.99962, 9.999021 
1.2149878e+3, 2.3371643e+2, -855414.75, -850565.2, -42786.6, 0.012230815, 0.009978375, -810134.7, -160554.06, 0.0, 9.998966, 9.999031 
1.21498376e+3, 2.4371555e+2, -849399.5, -787742.8, -40556.49, 0.006479069, 0.016508527, -767627.9, -216037.77, 0.0, 9.998296, 9.999113 
1.2149799e+3, 2.5371504e+2, -852762.9, -738365.3, -40240.75, 0.009362573, 0.050767235, -725628.25, -272030.38, 0.0, 9.997599, 9.999114 
1.2149759e+3, 2.6371464e+2, -828003.75, -633000.25, -40946.574, 0.00309763, 0.081765346, -624751.25, -269147.06, 0.0, 9.996913, 9.9994955 
1.21497154e+3, 2.7371442e+2, -824211.0, -575237.7, -42881.234, -0.018101867, 0.10605714, -568059.1, -310450.78, 0.0, 9.9962435, 9.999541 
1.2149675e+3, 2.8371438e+2, -766942.56, -403150.75, -32711.56, -0.034138154, 0.11430435, -400232.78, -240623.73, 0.0, 9.995561, 10.000379 
1.2149637e+3, 2.937147e+2, -763903.06, -337984.28, -29527.668, -0.041561928, 0.09428482, -335946.97, -274342.38, 0.0, 9.994854, 10.000493 
1.2149601e+3, 3.0371568e+2, -710533.5, -108783.555, -21265.592, -0.0417525, 0.06950552, -108032.98, -108032.98, 0.0, 9.994117, 10.002087 
1.2149566e+3, 3.1371784e+2, -816377.6, -145361.03, -21537.326, -0.030606864, 0.06386663, -144670.47, -144670.47, 0.0, 9.993329, 10.002215 
1.2250345e+3, 1.2373998e+2, -957021.25, -1722162.3, 17638.438, -0.0578151, -0.056862403, -956614.9, 770727.56, 0.0009160292, 10.006819, 9.996664 
1.2250297e+3, 1.3373673e+2, -930486.9, -1612001.0, -2441.4192, -0.09278173, -0.08775281, -930478.1, 698894.7, 0.0004999928, 10.006123, 9.997085 
1.2250264e+3, 1.4373398e+2, -924864.94, -1540154.5, 6400.821, 0.01417343, -0.07961672, -924798.4, 606601.7, 0.00017980702, 10.005406, 9.997249 
1.22502185e+3, 1.5373152e+2, -934882.4, -1493200.4, 10113.93, -0.0057200026, -0.050356023, -934699.25, 498727.56, 0.000027427566, 10.00466, 9.997258 
1.2250176e+3, 1.6372935e+2, -889648.0, -1330515.6, 7807.2686, -0.012103572, -0.029138163, -889509.8, 445939.9, 0.00000028422383, 10.003908, 9.998065 
1.2250134e+3, 1.7372759e+2, -894449.1, -1270341.3, 5343.29, 0.007063107, -0.023142247, -894373.2, 343093.7, 0.0, 10.003151, 9.99817 
1.22500926e+3, 1.8372592e+2, -886029.9, -1188663.0, -905.5358, 0.019653188, -0.017810104, -886027.1, 253456.4, 0.0, 10.00242, 9.99841 
1.2250049e+3, 1.9372438e+2, -887008.44, -1135842.9, 899.82947, 0.02083718, -0.014216003, -887005.2, 154494.55, 0.0, 10.00173, 9.998432 
1.2250005e+3, 2.037231e+2, -865745.9, -1031437.8, -819.48596, 0.023689538, -0.0035105217, -865741.9, 77771.69, 0.0, 10.001016, 9.99882 
1.2249961e+3, 2.1372217e+2, -874120.9, -979702.8, -974.47217, 0.0295663, 0.01735077, -874111.9, -28588.205, 0.0, 10.000264, 9.998865 
1.2249916e+3, 2.2372119e+2, -865606.3, -901949.56, -6372.4214, 0.027893642, 0.023528468, -864521.4, -116987.45, 0.0, 9.999551, 9.999069 
1.2249867e+3, 2.337201e+2, -860788.7, -846779.0, -3677.9216, 0.013932009, 0.0047849114, -845872.2, -196327.66, 0.0, 9.998902, 9.999087 
1.2249821e+3, 2.4371925e+2, -857094.94, -792732.5, -1390.3406, 0.0069609764, 0.010599232, -792702.5, -241148.72, 0.0, 9.998249, 9.999101 
1.22497745e+3, 2.537188e+2, -856227.3, -742533.7, -4140.205, 0.011501535, 0.054879628, -742383.1, -288822.0, 0.0, 9.997586, 9.999091 
1.22497275e+3, 2.637184e+2, -830570.0, -637530.2, -7077.1143, 0.0058633303, 0.08964556, -637271.1, -281703.56, 0.0, 9.99691, 9.999465 
1.2249678e+3, 2.737181e+2, -831402.5, -582195.7, -9729.7705, -0.016415829, 0.10741873, -581816.4, -324243.72, 0.0, 9.99621, 9.999509 
1.22496314e+3, 2.8371805e+2, -772466.8, -400401.16, -1800.0779, -0.032338437, 0.11359549, -400392.44, -240818.94, 0.0, 9.995501, 10.000425 
1.2249586e+3, 2.9371846e+2, -771577.7, -335073.5, -706.99615, -0.037744444, 0.098964766, -335072.34, -273504.38, 0.0, 9.994774, 10.000551 
1.2249542e+3, 3.0371952e+2, -719370.1, -108565.055, 4366.1245, -0.037046183, 0.076651886, -108533.84, -108533.84, 0.0, 9.994039, 10.002126 
1.22494996e+3, 3.137217e+2, -820388.8, -143291.67, 3031.481, -0.026672699, 0.06761647, -143278.1, -143278.1, 0.0, 9.993285, 10.00225 
1.2350415e+3, 1.23744436e+2, -956669.75, -1722076.9, -8376.158, -0.04961462, -0.056735285, -956578.06, 770720.8, 0.00094177906, 10.006821, 9.996664 
1.2350359e+3, 1.337413e+2, -931281.8, -1614384.9, -28794.844, -0.08950743, -0.07366465, -930070.2, 699258.1, 0.00051682553, 10.0061245, 9.997067 
1.2350317e+3, 1.4373855e+2, -921480.1, -1533859.5, -21587.152, 0.01842566, -0.06527486, -920720.06, 610635.2, 0.00018820105, 10.005409, 9.997292 
1.2350265e+3, 1.5373598e+2, -930871.9, -1485691.9, -18068.889, -0.007900183, -0.055704568, -930284.06, 503098.72, 0.000029849198, 10.004662, 9.99731 
1.23502135e+3, 1.6373372e+2, -894409.3, -1341241.6, -20660.594, -0.016180338, -0.042217094, -893456.0, 441950.25, 0.0000003885123, 10.003911, 9.997991 
1.2350166e+3, 1.7373197e+2, -900573.56, -1283842.9, -23101.936, 0.008345527, -0.024478115, -899186.1, 338237.6, 0.0, 10.003154, 9.998076 
1.23501174e+3, 1.8373029e+2, -883679.8, -1184517.1, -27120.607, 0.023634808, -0.017192826, -881254.44, 258186.28, 0.0, 10.002422, 9.998438 
1.2350066e+3, 1.9372866e+2, -883513.5, -1129271.1, -24957.943, 0.023155883, -0.027616685, -881004.5, 160452.83, 0.0, 10.001732, 9.998477 
1.23500146e+3, 2.0372736e+2, -865224.06, -1030978.1, -28699.715, 0.025550542, -0.020079104, -860395.5, 83075.58, 0.0, 10.001018, 9.998823 
1.2349963e+3, 2.1372658e+2, -874110.56, -980248.44, -29112.553, 0.033030447, 0.015189777, -866649.7, -21169.3, 0.0, 10.000265, 9.998861 
1.2349911e+3, 2.237257e+2, -859130.7, -889008.25, -31025.69, 0.03274239, 0.028870372, -839634.56, -92144.836, 0.0, 9.999552, 9.999158 
1.23498574e+3, 2.3372467e+2, -853446.3, -831979.2, -27761.877, 0.019723747, 0.006322412, -812948.2, -163448.8, 0.0, 9.998903, 9.999189 
1.2349804e+3, 2.4372388e+2, -859875.94, -798875.8, -25911.676, 0.011168475, 0.012036556, -789355.0, -237846.77, 0.0, 9.998249, 9.999059 
1.234975e+3, 2.537234e+2, -860575.3, -751852.75, -28683.898, 0.010067427, 0.06229745, -744749.3, -291233.1, 0.0, 9.997587, 9.999027 
1.2349696e+3, 2.6372293e+2, -833589.9, -643996.75, -32810.33, 0.0022366003, 0.09564442, -638479.3, -282955.75, 0.0, 9.99691, 9.999421 
1.234964e+3, 2.7372244e+2, -834365.44, -588432.44, -35598.594, -0.016536823, 0.10000325, -583383.2, -325853.2, 0.0, 9.99621, 9.999467 
1.2349586e+3, 2.8372237e+2, -770938.06, -397174.16, -28511.945, -0.028126083, 0.10257745, -395011.7, -235480.42, 0.0, 9.9955, 10.000449 
1.2349535e+3, 2.9372293e+2, -769543.5, -330646.84, -27532.668, -0.028021533, 0.10048257, -328926.44, -267402.03, 0.0, 9.994772, 10.000583 
1.2349483e+3, 3.037241e+2, -717837.4, -105020.68, -23191.059, -0.028140487, 0.08644065, -104144.305, -104144.305, 0.0, 9.994036, 10.0021515 
1.2349433e+3, 3.1372628e+2, -819121.06, -140112.67, -24641.63, -0.028621128, 0.077405676, -139219.58, -139219.58, 0.0, 9.993282, 10.002274 
1.2450485e+3, 1.2374956e+2, -944438.25, -1715283.8, 16398.69, -0.039317235, -0.056659028, -944089.56, 783159.2, 0.0009658182, 10.006903, 9.996671 
1.245042e+3, 1.3374646e+2, -927570.4, -1613744.0, -4167.8345, -0.085721426, -0.069755256, -927545.06, 701732.94, 0.00053248537, 10.006157, 9.997056 
1.24503724e+3, 1.4374374e+2, -915936.4, -1525988.6, 3042.3684, 0.023548728, -0.060496345, -915921.2, 615383.56, 0.00019602354, 10.005425, 9.997337 
1.2450313e+3, 1.5374118e+2, -918463.4, -1473588.9, 6569.4644, -0.0057363887, -0.053757027, -918385.6, 514946.0, 0.000032161053, 10.004722, 9.997363 
1.2450254e+3, 1.637389e+2, -883189.94, -1338000.3, 4630.6284, -0.015758682, -0.043521386, -883142.8, 452212.25, 0.00000050527746, 10.003998, 9.99797 
1.2450198e+3, 1.737371e+2, -890062.3, -1282226.5, 6427.8354, 0.008924295, -0.029440159, -889957.0, 347416.22, 0.0, 10.003242, 9.998044 
1.24501415e+3, 1.8373539e+2, -871261.5, -1173763.8, 6489.424, 0.024243452, -0.024499834, -871122.4, 268268.03, 0.0, 10.002488, 9.99848 
1.2450083e+3, 1.9373381e+2, -878915.6, -1121149.1, 9198.049, 0.023545211, -0.035215616, -878566.8, 162839.45, 0.0, 10.001739, 9.998529 
1.24500245e+3, 2.0373255e+2, -869814.9, -1035191.25, 4087.7039, 0.025688088, -0.02687804, -869713.9, 73705.836, 0.0, 10.000996, 9.998804 
1.24499656e+3, 2.1373175e+2, -876779.4, -984713.1, 1475.4275, 0.0328871, 0.01085229, -876759.2, -31329.607, 0.0, 10.000261, 9.998832 
1.24499075e+3, 2.237309e+2, -856326.1, -883091.56, -515.36597, 0.032719817, 0.02792603, -856316.2, -108877.31, 0.0, 9.999553, 9.999198 
1.24498464e+3, 2.3372997e+2, -852887.8, -826077.06, -965.6409, 0.020507662, 0.01030466, -826042.3, -176594.81, 0.0, 9.998883, 9.999239 
1.2449785e+3, 2.4372923e+2, -867374.1, -805014.3, -1385.3557, 0.012936851, 0.020731987, -804983.56, -253527.66, 0.0, 9.99821, 9.999035 
1.2449725e+3, 2.5372878e+2, -871714.5, -760945.5, -2234.8796, 0.013050111, 0.075238526, -760900.4, -307436.13, 0.0, 9.997527, 9.998994 
1.2449665e+3, 2.637283e+2, -838546.3, -641139.6, -2523.703, 0.005275982, 0.10629139, -641107.4, -285635.53, 0.0, 9.996854, 9.999467 
1.2449602e+3, 2.7372772e+2, -832440.1, -581024.06, 1938.4315, -0.015255945, 0.097918846, -581009.1, -323530.66, 0.0, 9.996196, 9.999524 
1.2449541e+3, 2.8372762e+2, -769718.4, -395611.38, 10664.667, -0.025964707, 0.095404364, -395307.63, -235828.05, 0.0, 9.995504, 10.000457 
1.2449482e+3, 2.9372826e+2, -771644.7, -331598.9, 8785.072, -0.020782372, 0.10079311, -331423.6, -269951.28, 0.0, 9.994758, 10.000583 
1.2449424e+3, 3.037295e+2, -718339.7, -105340.33, 11212.956, -0.021435443, 0.09105478, -105135.29, -105135.29, 0.0, 9.994034, 10.00215 
1.2449364e+3, 3.1373164e+2, -810375.6, -136115.05, 7573.2964, -0.031432245, 0.079920694, -136029.98, -136029.98, 0.0, 9.993343, 10.002271 
1.2550554e+3, 1.2375538e+2, -943332.44, -1713840.8, -11218.715, -0.027178386, -0.056828577, -943169.1, 784022.75, 0.0009882718, 10.006906, 9.99668 
1.2550482e+3, 1.3375221e+2, -927817.06, -1615150.8, -32337.441, -0.081462786, -0.07587067, -926299.06, 702922.9, 0.0005470642, 10.00616, 9.9970455 
1.2550427e+3, 1.437495e+2, -912332.94, -1519339.1, -23680.47, 0.02951892, -0.06511939, -911410.56, 619837.8, 0.00020327001, 10.005428, 9.997382 
1.255036e+3, 1.5374713e+2, -914323.25, -1465830.1, -19901.152, 0.0007027338, -0.04458823, -913606.06, 519667.25, 0.00003430324, 10.0047245, 9.997416 
1.2550294e+3, 1.6374494e+2, -880689.9, -1333615.3, -23580.588, -0.010911663, -0.03319814, -879465.5, 455830.5, 0.0000006219697, 10.004001, 9.997999 
1.255023e+3, 1.7374295e+2, -887871.94, -1278456.9, -21971.22, 0.008774638, -0.038044892, -886639.9, 350675.6, 0.0, 10.003244, 9.99807 
1.2550166e+3, 1.8374121e+2, -867230.06, -1166128.4, -21645.223, 0.02147148, -0.03969543, -865670.7, 273662.0, 0.0, 10.00249, 9.998531 
1.25501e+3, 1.9373982e+2, -874694.8, -1113068.9, -18857.264, 0.021984063, -0.036998726, -873212.25, 168134.42, 0.0, 10.00174, 9.998584 
1.2550035e+3, 2.0373861e+2, -872559.2, -1041518.4, -23430.416, 0.024070555, -0.023910325, -869370.2, 73989.51, 0.0, 10.000998, 9.998761 
1.2549968e+3, 2.1373767e+2, -880554.44, -993137.75, -25923.086, 0.029113976, 0.0042989086, -874872.25, -29500.88, 0.0, 10.000263, 9.998774 
1.2549901e+3, 2.237368e+2, -856935.4, -884896.3, -25719.13, 0.02778829, 0.020649258, -841642.5, -94261.07, 0.0, 9.999554, 9.999186 
1.2549834e+3, 2.3373598e+2, -853115.0, -827011.44, -25809.496, 0.016229404, 0.01674062, -811141.25, -161752.22, 0.0, 9.998885, 9.999232 
1.2549768e+3, 2.4373534e+2, -867762.25, -806185.4, -26679.38, 0.012230569, 0.03672869, -796234.2, -244837.28, 0.0, 9.99821, 9.999027 
1.2549703e+3, 2.537349e+2, -872167.0, -762144.2, -27528.338, 0.020484699, 0.09373623, -755640.9, -302235.38, 0.0, 9.997527, 9.998985 
1.2549634e+3, 2.6373443e+2, -829065.75, -621629.6, -26936.117, 0.015032171, 0.12161507, -618188.94, -262776.22, 0.0, 9.996854, 9.999601 
1.2549564e+3, 2.737339e+2, -821577.7, -558575.5, -22273.07, -0.012614545, 0.10119371, -556702.56, -299284.44, 0.0, 9.996196, 9.999679 
1.2549497e+3, 2.8373381e+2, -770603.94, -397427.44, -16411.857, -0.025964262, 0.09207152, -396707.06, -237288.4, 0.0, 9.995503, 10.000445 
1.2549432e+3, 2.9373443e+2, -774360.5, -337057.53, -18707.793, -0.016105028, 0.0998162, -336258.7, -274846.84, 0.0, 9.994756, 10.000546 
1.2549365e+3, 3.037356e+2, -720955.1, -110463.31, -14259.626, -0.017023938, 0.09031739, -110130.42, -110130.42, 0.0, 9.994031, 10.002116 
1.2549298e+3, 3.137377e+2, -813088.1, -141328.5, -17578.646, -0.035340805, 0.07486281, -140868.81, -140868.81, 0.0, 9.993341, 10.002237 
1.2650625e+3, 1.2376199e+2, -926883.25, -1706542.5, 26498.547, -0.0134698395, -0.06409327, -925983.6, 801143.25, 0.0010092485, 10.007023, 9.996674 
1.2650545e+3, 1.3375884e+2, -915135.8, -1612292.0, 3219.7632, -0.078270346, -0.07767317, -915120.94, 714036.0, 0.00056066713, 10.006262, 9.997015 
1.2650482e+3, 1.4375615e+2, -902741.1, -1516394.5, 9749.07, 0.0321862, -0.063804016, -902586.3, 628597.1, 0.00020997292, 10.005503, 9.997366 
1.2650408e+3, 1.5375377e+2, -911374.7, -1465888.4, 8498.735, 0.003273791, -0.04301181, -911244.44, 521964.0, 0.00003625087, 10.004752, 9.997401 
1.2650335e+3, 1.6375154e+2, -877764.9, -1326795.9, 1344.767, -0.008762853, -0.03346322, -877760.8, 457470.22, 0.0000007274998, 10.003999, 9.998047 
1.2650262e+3, 1.7374957e+2, -884840.0, -1270752.0, 4755.6147, 0.009849375, -0.04344001, -884781.4, 352468.88, 0.0, 10.00324, 9.998124 
1.265019e+3, 1.8374786e+2, -867470.6, -1164574.1, 5065.0483, 0.021180954, -0.04574264, -867384.3, 271882.8, 0.0, 10.002482, 9.998545 
1.2650119e+3, 1.9374654e+2, -875937.6, -1112732.0, 4137.724, 0.019932711, -0.036437716, -875865.3, 165415.19, 0.0, 10.001729, 9.998591 
1.2650044e+3, 2.0374537e+2, -872274.9, -1040708.5, 112.40047, 0.020560166, -0.021654915, -872274.8, 71018.55, 0.0, 10.000998, 9.998766 
1.2649971e+3, 2.1374436e+2, -875156.06, -989989.56, 2253.6274, 0.02461403, 0.00021329502, -875111.9, -29806.145, 0.0, 10.0002985, 9.998777 
1.2649897e+3, 2.2374347e+2, -850916.7, -883545.75, 5958.127, 0.023809968, 0.016626049, -849862.8, -102546.86, 0.0, 9.999602, 9.999171 
1.2649824e+3, 2.3374276e+2, -850784.75, -827870.44, 4994.2197, 0.01523587, 0.023171922, -826829.25, -177506.2, 0.0, 9.99891, 9.999214 
1.2649749e+3, 2.4374212e+2, -872476.7, -809782.9, 1578.3381, 0.013654107, 0.046894547, -809743.2, -258412.23, 0.0, 9.998184, 9.999015 
1.2649676e+3, 2.537416e+2, -890777.5, -772366.94, -20.74007, 0.023339797, 0.09665308, -772366.94, -319026.44, 0.0, 9.997406, 9.998974 
1.2649602e+3, 2.6374114e+2, -846548.6, -617887.56, 2125.811, 0.019191109, 0.12242132, -617867.8, -262520.3, 0.0, 9.996682, 9.99971 
1.2649526e+3, 2.7374083e+2, -834465.8, -550768.75, 4729.6787, -0.0073257852, 0.10835254, -550689.94, -293339.16, 0.0, 9.996047, 9.999804 
1.2649451e+3, 2.8374085e+2, -783382.3, -400678.94, 8433.989, -0.019853564, 0.10153654, -400493.16, -241143.0, 0.0, 9.995404, 10.00047 
1.2649378e+3, 2.9374143e+2, -775451.1, -336393.5, 9105.221, -0.009705164, 0.104995824, -336204.78, -274860.97, 0.0, 9.994744, 10.000557 
1.2649305e+3, 3.037426e+2, -712446.6, -105813.016, 17697.803, -0.013885884, 0.09267583, -105297.15, -105297.15, 0.0, 9.994088, 10.00212 
1.264923e+3, 3.1374466e+2, -798970.2, -134224.56, 17060.793, -0.041040886, 0.076117314, -133786.98, -133786.98, 0.0, 9.993438, 10.002239 
1.2750697e+3, 1.23769395e+2, -928181.9, -1710219.1, -1571.958, 0.0016375975, -0.07834567, -928178.7, 798875.1, 0.0010287488, 10.007026, 9.996647 
1.2750608e+3, 1.3376637e+2, -918308.94, -1619890.6, -25545.486, -0.0761661, -0.07528353, -917380.06, 711703.06, 0.00057326606, 10.006265, 9.996963 
1.2750538e+3, 1.4376366e+2, -907884.44, -1528020.8, -18579.256, 0.03157829, -0.05673079, -907328.3, 623781.7, 0.00021612782, 10.005506, 9.997285 
1.2750456e+3, 1.5376106e+2, -916825.0, -1478118.0, -19658.09, 0.0020124037, -0.048931938, -916137.4, 516999.66, 0.000038012324, 10.004755, 9.997316 
1.2750374e+3, 1.6375877e+2, -873065.4, -1317880.8, -27088.514, -0.009283638, -0.04416176, -871421.75, 463738.4, 0.0000008194526, 10.004002, 9.998107 
1.2750295e+3, 1.7375696e+2, -878845.6, -1259094.5, -23694.564, 0.012133908, -0.04564082, -877374.9, 359802.78, 0.0, 10.003242, 9.998203 
1.2750216e+3, 1.8375532e+2, -869075.0, -1168635.8, -23168.225, 0.023332916, -0.04270738, -867293.75, 271899.97, 0.0, 10.002484, 9.998517 
1.2750134e+3, 1.9375397e+2, -878674.0, -1119131.6, -24027.527, 0.017372532, -0.033571545, -876296.56, 164911.34, 0.0, 10.001731, 9.998547 
1.2750053e+3, 2.0375277e+2, -868420.75, -1033382.9, -26204.582, 0.015146098, -0.020141765, -864358.1, 78862.86, 0.0, 10.000999, 9.998816 
1.2749973e+3, 2.1375181e+2, -870449.1, -980818.3, -23769.158, 0.019372, -0.0013824962, -865547.8, -20315.15, 0.0, 10.0003, 9.99884 
1.2749892e+3, 2.2375095e+2, -852158.4, -886662.5, -19855.17, 0.020780964, 0.015904488, -843107.1, -95864.64, 0.0, 9.999604, 9.999149 
1.2749812e+3, 2.3375027e+2, -852924.5, -832790.94, -20732.105, 0.017543351, 0.029594269, -819810.8, -170561.13, 0.0, 9.998911, 9.99918 
1.2749732e+3, 2.4374959e+2, -873840.5, -812979.3, -26984.123, 0.017189998, 0.0511367, -802738.5, -251480.2, 0.0, 9.998185, 9.998993 
1.2749651e+3, 2.5374886e+2, -892091.9, -775302.8, -28936.586, 0.02150927, 0.08376858, -768526.44, -315256.94, 0.0, 9.997406, 9.998954 
1.2749569e+3, 2.6374844e+2, -841136.0, -606735.5, -21916.68, 0.01764385, 0.108514674, -604703.9, -249427.48, 0.0, 9.996681, 9.999787 
1.2749487e+3, 2.7374846e+2, -828210.75, -537757.6, -18576.25, 0.0006402998, 0.11949725, -536574.44, -279297.78, 0.0, 9.996046, 9.999894 
1.2749407e+3, 2.8374866e+2, -779400.7, -392293.78, -15667.235, -0.007557598, 0.12404216, -391660.72, -232386.39, 0.0, 9.995402, 10.000529 
1.2749328e+3, 2.9374918e+2, -771884.06, -328813.16, -15050.15, -0.0015949686, 0.11643465, -328302.53, -267034.13, 0.0, 9.994742, 10.00061 
1.2749247e+3, 3.0375034e+2, -709943.6, -100398.97, -6076.2373, -0.01212249, 0.098187365, -100338.4, -100338.4, 0.0, 9.994086, 10.002159 
1.2749165e+3, 3.1375244e+2, -796790.44, -129372.305, -6559.86, -0.04876364, 0.083681524, -129307.836, -129307.836, 0.0, 9.993435, 10.002274 
1.2850769e+3, 1.2377773e+2, -919922.94, -1712850.5, 27056.916, 0.014087388, -0.07422515, -919000.75, 807971.7, 0.0010467276, 10.0071125, 9.996587 
1.2850672e+3, 1.3377467e+2, -908447.44, -1625024.3, -459.87552, -0.07345162, -0.065890275, -908447.2, 720555.1, 0.00058466766, 10.006376, 9.996873 
1.2850593e+3, 1.437719e+2, -891348.5, -1520164.9, 6786.3765, 0.032599237, -0.049019866, -891275.3, 639754.6, 0.00022165585, 10.005621, 9.997282 
1.2850504e+3, 1.5376917e+2, -903799.06, -1470728.0, 12354.229, 0.0008666322, -0.05423588, -903530.0, 529527.56, 0.000039592458, 10.004841, 9.997325 
1.2850414e+3, 1.6376683e+2, -867226.4, -1315999.6, 5518.57, -0.011266322, -0.05358909, -867158.56, 467922.38, 0.0000009004146, 10.004046, 9.998097 
1.2850328e+3, 1.7376511e+2, -881667.1, -1261767.3, 1768.8258, 0.011309706, -0.04490863, -881658.9, 355438.8, 0.0, 10.003229, 9.998191 
1.285024e+3, 1.8376352e+2, -874457.56, -1171448.8, 762.5628, 0.022211963, -0.037350908, -874455.56, 264657.97, 0.0, 10.00245, 9.998513 
1.2850152e+3, 1.9376211e+2, -879104.1, -1119485.4, 2998.0376, 0.01364333, -0.032659728, -879066.75, 162061.4, 0.0, 10.00173, 9.998545 
1.2850064e+3, 2.0376089e+2, -867684.75, -1031154.3, 1544.7026, 0.010536076, -0.021721568, -867670.1, 75471.3, 0.0, 10.000998, 9.998832 
1.2849976e+3, 2.1375994e+2, -877883.6, -982261.56, 493.55795, 0.016667295, -0.0021827566, -877881.3, -32728.463, 0.0, 10.000241, 9.998858 
1.2849888e+3, 2.2375914e+2, -867159.4, -893521.9, 3853.2712, 0.019927034, 0.018197581, -866607.7, -119445.336, 0.0, 9.9995, 9.999152 
1.28498e+3, 2.3375851e+2, -871438.6, -841624.6, 5372.1665, 0.018431634, 0.03853795, -840686.2, -191516.86, 0.0, 9.998785, 9.99918 
1.2849714e+3, 2.4375784e+2, -884211.8, -813081.2, 2097.2783, 0.017976746, 0.058685984, -813019.44, -261841.52, 0.0, 9.998094, 9.999036 
1.2849624e+3, 2.5375703e+2, -883575.06, -765662.0, 5051.796, 0.019204075, 0.07709741, -765445.94, -312256.44, 0.0, 9.997441, 9.999002 
1.2849537e+3, 2.637566e+2, -829901.0, -602756.6, 13165.1455, 0.015068523, 0.09973849, -601996.2, -246799.84, 0.0, 9.996765, 9.999774 
1.2849449e+3, 2.7375674e+2, -828945.25, -540650.0, 7942.959, 0.0024031466, 0.1281687, -540431.3, -283235.6, 0.0, 9.996053, 9.99987 
1.2849362e+3, 2.8375706e+2, -784243.9, -389738.16, 5232.74, -0.0031728963, 0.14000848, -389668.78, -230475.81, 0.0, 9.995349, 10.000572 
1.2849274e+3, 2.9375753e+2, -780528.44, -327137.4, 5412.03, 0.0025162518, 0.12324987, -327072.8, -265885.63, 0.0, 9.994658, 10.000662 
1.2849186e+3, 3.037587e+2, -719755.5, -101040.32, 15556.666, -0.008825704, 0.10125355, -100649.414, -100649.414, 0.0, 9.994002, 10.002194 
1.2849098e+3, 3.137609e+2, -799914.4, -127210.836, 14838.582, -0.04698201, 0.09105586, -126883.68, -126883.68, 0.0, 9.993399, 10.002306 
1.295084e+3, 1.23786986e+2, -926283.7, -1727097.1, -70.75454, 0.023798203, -0.052513905, -926283.6, 800598.94, 0.0010631909, 10.007116, 9.996488 
1.2950735e+3, 1.3378374e+2, -917107.8, -1643849.3, -28175.994, -0.070159316, -0.04969197, -916017.06, 712897.56, 0.00059466425, 10.006379, 9.996743 
1.295065e+3, 1.4378084e+2, -886086.3, -1509949.5, -22319.246, 0.035183255, -0.040699385, -885288.8, 645654.3, 0.00022640472, 10.005623, 9.997353 
1.2950552e+3, 1.5377808e+2, -896674.06, -1456694.6, -16899.35, -0.00020502097, -0.05898048, -896164.56, 536805.6, 0.00004094743, 10.004844, 9.99742 
1.2950455e+3, 1.6377574e+2, -872657.6, -1328081.9, -24976.58, -0.014717903, -0.061777357, -871291.94, 463701.3, 0.000000968914, 10.004049, 9.9980135 
1.2950361e+3, 1.7377402e+2, -888857.4, -1277525.6, -28843.11, 0.0073918044, -0.041279063, -886728.56, 350281.97, 0.0, 10.003232, 9.998082 
1.2950265e+3, 1.8377241e+2, -872795.0, -1168792.6, -26549.322, 0.017817505, -0.029720562, -870432.5, 268594.22, 0.0, 10.002452, 9.998531 
1.2950169e+3, 1.9377095e+2, -876276.2, -1114344.3, -23847.143, 0.008739345, -0.03369416, -873910.94, 167130.63, 0.0, 10.001732, 9.998579 
1.2950073e+3, 2.0376971e+2, -868936.0, -1034421.1, -26502.828, 0.006725129, -0.026354996, -864795.1, 78259.77, 0.0, 10.0009985, 9.998809 
1.2949978e+3, 2.1376878e+2, -879753.8, -986743.0, -27727.457, 0.016467959, -0.0021856907, -872994.94, -27928.584, 0.0, 10.000242, 9.998828 
1.2949882e+3, 2.2376803e+2, -865318.4, -890222.9, -22964.885, 0.021196544, 0.023493681, -851647.0, -104571.31, 0.0, 9.999501, 9.999174 
1.2949789e+3, 2.3376748e+2, -869150.44, -837305.6, -21214.041, 0.017857758, 0.050024845, -826703.4, -177621.28, 0.0, 9.998785, 9.99921 
1.2949693e+3, 2.4376687e+2, -876714.4, -797883.9, -22302.512, 0.015969794, 0.06959646, -792011.56, -240921.52, 0.0, 9.998094, 9.999141 
1.2949598e+3, 2.5376606e+2, -875360.5, -748990.06, -18967.842, 0.016404526, 0.07674608, -746204.44, -293103.66, 0.0, 9.997441, 9.999118 
1.2949502e+3, 2.6376563e+2, -837545.5, -618963.1, -12847.331, 0.011412327, 0.096182734, -618210.6, -263103.1, 0.0, 9.996766, 9.999662 
1.2949409e+3, 2.737657e+2, -839022.3, -561705.75, -18347.607, -0.0022155775, 0.13429524, -560497.1, -303388.8, 0.0, 9.996053, 9.999726 
1.2949313e+3, 2.83766e+2, -782723.3, -386523.5, -20234.377, -0.006930105, 0.14927526, -385492.78, -226386.5, 0.0, 9.995348, 10.000596 
1.2949221e+3, 2.9376644e+2, -777562.7, -320733.13, -19907.156, 0.0024881635, 0.12530349, -319867.28, -258766.92, 0.0, 9.994657, 10.000707 
1.2949128e+3, 3.0376762e+2, -718138.06, -97287.99, -6807.754, -0.0039825207, 0.10177392, -97213.35, -97213.35, 0.0, 9.9939995, 10.002222 
1.2949035e+3, 3.137699e+2, -798651.4, -124059.195, -7037.2705, -0.035463367, 0.09808882, -123985.79, -123985.79, 0.0, 9.993396, 10.00233 
1.3050914e+3, 1.2379688e+2, -916506.1, -1722714.3, 19319.586, 0.029898977, -0.030734235, -916043.4, 810743.5, 0.0010782985, 10.007187, 9.996483 
1.3050799e+3, 1.337935e+2, -922586.5, -1649593.6, -2491.1086, -0.06649047, -0.038634297, -922578.0, 706242.1, 0.0006032398, 10.006356, 9.996714 
1.3050705e+3, 1.4379056e+2, -893602.75, -1508917.6, 6946.629, 0.040153228, -0.03493902, -893524.4, 637324.6, 0.00023023943, 10.005552, 9.997393 
1.30506e+3, 1.5378785e+2, -899986.94, -1452629.8, 8924.053, 0.00029432154, -0.051222667, -899842.9, 533031.94, 0.000041999396, 10.004797, 9.99747 
1.3050495e+3, 1.637855e+2, -877991.44, -1336637.4, -1128.3154, -0.017587386, -0.05463971, -877988.7, 456909.06, 0.0000010184389, 10.004039, 9.997959 
1.3050392e+3, 1.7378367e+2, -887482.44, -1284545.4, -2432.625, 0.0027924124, -0.038875673, -887467.5, 349448.75, 0.0, 10.003275, 9.998013 
1.305029e+3, 1.83782e+2, -865464.75, -1165180.6, 1951.2266, 0.013397122, -0.02982128, -865452.06, 273481.0, 0.0, 10.002503, 9.998531 
1.3050185e+3, 1.9378056e+2, -877889.44, -1114023.4, 2683.4338, 0.0075428723, -0.032818712, -877858.94, 163088.63, 0.0, 10.001718, 9.998588 
1.3050082e+3, 2.0377931e+2, -875780.7, -1036749.56, -141.29825, 0.007207392, -0.025963351, -875780.56, 67180.22, 0.0, 10.000949, 9.9988165 
1.3049981e+3, 2.1377836e+2, -884607.9, -988227.9, 1251.3107, 0.01610082, -0.004651837, -884592.75, -39620.438, 0.0, 10.000207, 9.998835 
1.3049878e+3, 2.237776e+2, -869389.8, -893979.2, 7499.236, 0.019273913, 0.02210995, -867283.2, -120301.375, 0.0, 9.999482, 9.999157 
1.3049777e+3, 2.3377714e+2, -870699.1, -840281.4, 5385.19, 0.013362944, 0.055982113, -839356.1, -190367.9, 0.0, 9.998785, 9.999189 
1.3049674e+3, 2.4377654e+2, -875496.8, -791902.7, 709.26373, 0.011741305, 0.079733245, -791896.6, -240900.84, 0.0, 9.99808, 9.999187 
1.3049573e+3, 2.5377578e+2, -883139.9, -746290.0, -448.48145, 0.016887544, 0.08592945, -746288.56, -293282.94, 0.0, 9.997361, 9.999174 
1.3049471e+3, 2.6377532e+2, -852861.0, -631186.75, 5907.236, 0.013853401, 0.10261712, -631029.44, -276017.06, 0.0, 9.996682, 9.999619 
1.3049369e+3, 2.7377534e+2, -841163.3, -569310.25, 6566.5137, -0.002190247, 0.13526429, -569151.7, -312137.25, 0.0, 9.996067, 9.999667 
1.3049267e+3, 2.8377554e+2, -772800.8, -377018.84, 6671.4443, -0.009009007, 0.14713286, -376906.4, -217893.45, 0.0, 9.995397, 10.000637 
1.3049167e+3, 2.9377607e+2, -776541.8, -314101.63, 7162.933, -0.0011858409, 0.12395786, -313990.7, -252984.55, 0.0, 9.994638, 10.000761 
1.3049068e+3, 3.0377728e+2, -732085.1, -97850.33, 22687.639, -0.0036357774, 0.100007445, -97039.79, -97039.79, 0.0, 9.993878, 10.002276 
1.3048968e+3, 3.1377956e+2, -835506.75, -135782.05, 24612.88, -0.022150513, 0.092867054, -134917.34, -134917.34, 0.0, 9.993118, 10.002382 
1.3150986e+3, 1.2380741e+2, -910386.9, -1710699.6, -10745.013, 0.032407146, -0.009017157, -910242.6, 816442.7, 0.0010925722, 10.007188, 9.996566 
1.3150863e+3, 1.3380393e+2, -917626.56, -1640171.8, -33632.313, -0.062477056, -0.032620404, -916064.5, 712654.5, 0.0006105935, 10.006358, 9.9967785 
1.3150762e+3, 1.4380099e+2, -892612.7, -1507730.5, -21659.654, 0.047415774, -0.031686928, -891851.0, 638896.44, 0.00023316182, 10.005555, 9.9974 
1.3150647e+3, 1.5379848e+2, -899600.94, -1452624.4, -19295.059, 0.002314982, -0.031226946, -898928.5, 533843.2, 0.00004270346, 10.0048, 9.99747 
1.3150534e+3, 1.6379613e+2, -879759.75, -1341064.0, -29661.424, -0.019903546, -0.032507382, -877860.4, 456934.03, 0.0000010456941, 10.004042, 9.997929 
1.3150424e+3, 1.7379405e+2, -889606.9, -1289713.9, -30951.693, -0.0025047527, -0.037742242, -887226.7, 349588.28, 0.0, 10.003278, 9.997976 
1.3150313e+3, 1.8379226e+2, -866682.94, -1168442.1, -27270.225, 0.008937603, -0.037569657, -864238.3, 274594.44, 0.0, 10.002505, 9.998508 
1.3150203e+3, 1.9379091e+2, -879021.4, -1117103.3, -26649.254, 0.0100160865, -0.03002634, -876074.9, 164771.47, 0.0, 10.001719, 9.998567 
1.3150093e+3, 2.0378968e+2, -873083.1, -1031840.25, -27997.645, 0.011925072, -0.020581953, -868290.3, 74568.87, 0.0, 10.000951, 9.99885 
1.3149981e+3, 2.1378866e+2, -881435.25, -982280.44, -26385.951, 0.015535205, -0.0095873205, -874948.6, -30077.602, 0.0, 10.000208, 9.998875 
1.3149872e+3, 2.2378789e+2, -873471.2, -903044.1, -18587.354, 0.014131519, 0.014044353, -864506.25, -117625.39, 0.0, 9.999484, 9.999095 
1.3149764e+3, 2.3378742e+2, -875838.9, -851479.06, -20455.988, 0.0048911525, 0.05637976, -839851.44, -190963.56, 0.0, 9.998786, 9.999112 
1.3149655e+3, 2.4378689e+2, -876305.3, -794022.44, -25841.662, 0.0052409805, 0.08912203, -786579.8, -235684.4, 0.0, 9.998081, 9.999173 
1.3149546e+3, 2.537862e+2, -883423.06, -747172.4, -27051.574, 0.020687046, 0.1048379, -741998.0, -289093.72, 0.0, 9.997361, 9.999168 
1.3149439e+3, 2.6378575e+2, -851456.56, -628475.2, -17171.578, 0.022480082, 0.11919682, -627160.56, -272249.63, 0.0, 9.996682, 9.999638 
1.314933e+3, 2.7378553e+2, -839543.06, -566153.6, -15934.705, 0.0025509326, 0.1308937, -565228.0, -308313.5, 0.0, 9.996066, 9.999689 
1.3149221e+3, 2.8378567e+2, -768911.9, -369059.7, -20558.295, -0.009421487, 0.13326436, -368005.47, -209092.23, 0.0, 9.995396, 10.000692 
1.3149112e+3, 2.9378635e+2, -772608.0, -305781.1, -20667.06, -0.008663833, 0.1191268, -304867.9, -243963.06, 0.0, 9.994637, 10.000819 
1.3149005e+3, 3.0378765e+2, -727135.1, -87062.21, -5137.695, -0.007972014, 0.09585062, -87020.98, -87020.98, 0.0, 9.993875, 10.002353 
1.3148901e+3, 3.1378987e+2, -830795.44, -124927.76, -3121.2273, -0.0071173287, 0.07474279, -124913.96, -124913.96, 0.0, 9.993112, 10.0024605 
1.3251057e+3, 1.23818666e+2, -915955.2, -1709577.3, 25227.3, 0.037334006, -0.0029200618, -915154.06, 811422.0, 0.0011067287, 10.007134, 9.996598 
1.3250926e+3, 1.3381523e+2, -917269.7, -1638824.1, -2878.4766, -0.062166933, -0.023212846, -917258.25, 711351.0, 0.00061698357, 10.006357, 9.996787 
1.3250817e+3, 1.4381231e+2, -892692.1, -1510910.5, 6428.1895, 0.049105838, -0.019306734, -892625.25, 638012.2, 0.00023523484, 10.005569, 9.997371 
1.3250695e+3, 1.5380979e+2, -906483.56, -1459776.6, 6144.4893, 0.0044059292, -0.015051333, -906415.4, 526246.56, 0.000043071366, 10.004769, 9.997435 
1.3250574e+3, 1.6380742e+2, -886332.56, -1340857.3, -3540.1404, -0.01783843, -0.01864702, -886305.0, 448379.78, 0.0000010551148, 10.003983, 9.997957 
1.3250457e+3, 1.7380525e+2, -896337.2, -1288688.9, 403.7448, -0.001258878, -0.035835225, -896336.75, 340368.78, 0.0, 10.003214, 9.9980135 
1.3250338e+3, 1.8380341e+2, -875565.06, -1174526.8, 7094.0166, 0.009506157, -0.042136744, -875396.8, 263326.66, 0.0, 10.002453, 9.998491 
1.325022e+3, 1.9380204e+2, -883231.2, -1121822.1, 7265.9263, 0.010230438, -0.032221034, -883010.1, 157727.13, 0.0, 10.001703, 9.998542 
1.32501e+3, 2.0380083e+2, -871760.9, -1030507.56, 5539.5664, 0.011530457, -0.021332044, -871567.8, 71182.19, 0.0, 10.0009575, 9.998855 
1.3249984e+3, 2.1379982e+2, -879358.2, -980141.56, 4706.339, 0.014081754, -0.010678706, -879138.9, -34377.27, 0.0, 10.000218, 9.998884 
1.3249867e+3, 2.23799e+2, -876608.4, -911835.44, 12200.026, 0.0121658705, 0.01321908, -872795.8, -126024.12, 0.0, 9.999495, 9.999029 
1.324975e+3, 2.3379847e+2, -880113.4, -862012.4, 10256.281, 0.003266657, 0.0568499, -857384.3, -208604.58, 0.0, 9.998795, 9.999036 
1.3249636e+3, 2.4379791e+2, -874303.94, -794053.3, 4581.752, 0.0030131103, 0.09128997, -793792.56, -243004.77, 0.0, 9.9981, 9.999164 
1.3249521e+3, 2.5379726e+2, -876123.2, -743615.06, 3477.1917, 0.01636395, 0.109354064, -743523.9, -290727.6, 0.0, 9.997413, 9.999168 
1.3249406e+3, 2.6379675e+2, -847129.2, -623063.4, 14253.589, 0.019710058, 0.12168052, -622160.3, -267357.47, 0.0, 9.996698, 9.999666 
1.3249291e+3, 2.737965e+2, -855292.94, -570043.1, 16034.674, 0.007074512, 0.12441342, -569144.56, -312338.0, 0.0, 9.995944, 9.999722 
1.3249175e+3, 2.8379667e+2, -795074.75, -380009.03, 8633.686, -0.0033468415, 0.12344886, -379829.5, -221024.23, 0.0, 9.99521, 10.000706 
1.3249058e+3, 2.937974e+2, -790398.94, -313125.97, 4362.742, -0.01011243, 0.11509944, -313086.1, -252289.63, 0.0, 9.994511, 10.00083 
1.3248944e+3, 3.0379876e+2, -734969.75, -82771.76, 16348.774, -0.01109633, 0.09477319, -82362.2, -82362.2, 0.0, 9.993788, 10.002423 
1.3248833e+3, 3.1380105e+2, -837580.25, -119318.65, 17961.42, -0.002492097, 0.07109281, -118869.766, -118869.766, 0.0, 9.993029, 10.002539 
1.3351129e+3, 1.2383062e+2, -916972.4, -1712453.0, -2796.675, 0.04439791, -0.011802843, -916962.56, 809496.6, 0.0011211891, 10.007137, 9.996578 
1.335099e+3, 1.3382736e+2, -920128.0, -1645704.8, -31924.885, -0.06548107, -0.010506128, -918726.0, 709765.06, 0.0006225872, 10.00636, 9.996739 
1.3350873e+3, 1.4382446e+2, -897107.7, -1520967.9, -23225.236, 0.04536898, 0.0018734816, -896244.25, 634275.06, 0.00023645186, 10.005571, 9.997301 
1.3350743e+3, 1.5382178e+2, -911230.7, -1470454.6, -23601.676, 0.006536834, -0.0026287695, -910236.4, 522309.13, 0.00004312996, 10.004772, 9.997361 
1.3350615e+3, 1.6381934e+2, -880032.94, -1328575.1, -32272.934, -0.011508072, -0.012867121, -877722.75, 456846.1, 0.0000010536626, 10.003984, 9.998041 
1.335049e+3, 1.7381725e+2, -888615.8, -1273459.4, -28227.732, 0.006407079, -0.03315533, -886556.4, 350031.72, 0.0, 10.003216, 9.998117 
1.3350363e+3, 1.8381542e+2, -876295.7, -1176811.3, -20923.102, 0.01498959, -0.04357064, -874845.94, 263759.6, 0.0, 10.002455, 9.998475 
1.3350236e+3, 1.9381396e+2, -885162.75, -1126607.4, -20678.14, 0.008173523, -0.039382555, -883404.6, 157215.72, 0.0, 10.001705, 9.998508 
1.3350111e+3, 2.0381273e+2, -873310.94, -1034466.0, -22042.45, 0.006052847, -0.028177418, -870350.44, 72283.016, 0.0, 10.000959, 9.998828 
1.3349986e+3, 2.1381178e+2, -880918.5, -984061.3, -22799.545, 0.011714564, -0.007881449, -876103.5, -31459.277, 0.0, 10.00022, 9.998857 
1.3349862e+3, 2.2381096e+2, -881536.8, -922694.7, -13968.311, 0.013354727, 0.019668793, -877243.94, -130589.54, 0.0, 9.999496, 9.998955 
1.3349739e+3, 2.3381029e+2, -885578.75, -873916.9, -15657.905, 0.008552774, 0.057356104, -863039.44, -214375.44, 0.0, 9.9987955, 9.998954 
1.3349617e+3, 2.4380961e+2, -874752.44, -795490.5, -20863.201, 0.0050729634, 0.0861025, -790334.4, -239661.2, 0.0, 9.998101, 9.999154 
1.3349493e+3, 2.538089e+2, -875934.75, -743694.0, -21827.93, 0.0037034433, 0.09919851, -740184.2, -287502.22, 0.0, 9.997414, 9.999167 
1.334937e+3, 2.638084e+2, -844653.9, -618241.2, -13272.48, 0.0052772034, 0.1097772, -617465.8, -262777.53, 0.0, 9.996699, 9.999701 
1.334925e+3, 2.7380824e+2, -852784.7, -564808.6, -11735.347, 0.011374515, 0.11578869, -564331.2, -307640.2, 0.0, 9.995942, 9.999759 
1.3349128e+3, 2.838084e+2, -797776.2, -385322.8, -17173.797, 0.009367599, 0.11779118, -384608.97, -225919.63, 0.0, 9.995208, 10.000671 
1.3349004e+3, 2.9380912e+2, -793934.4, -320105.9, -21132.006, -0.0053847744, 0.11187504, -319165.3, -258484.06, 0.0, 9.994508, 10.000784 
1.334888e+3, 3.0381054e+2, -731056.0, -74225.32, -11090.575, -0.013081884, 0.09691528, -74038.11, -74038.11, 0.0, 9.993785, 10.002484 
1.3348761e+3, 3.13813e+2, -832843.5, -108940.016, -9674.259, -0.008943454, 0.082364134, -108810.76, -108810.76, 0.0, 9.993025, 10.002612 
1.3451199e+3, 1.2384356e+2, -918576.06, -1715524.6, 35802.332, 0.04127963, -0.012497171, -916970.9, 809361.8, 0.0011360821, 10.007137, 9.996556 
1.3451053e+3, 1.3384034e+2, -919513.6, -1650730.6, 5341.644, -0.06653061, -0.0032740894, -919474.6, 708889.9, 0.000627562, 10.006388, 9.996691 
1.345093e+3, 1.438374e+2, -894996.5, -1523618.9, 13214.32, 0.048360348, 0.009920647, -894718.8, 635674.44, 0.00023680409, 10.005603, 9.997268 
1.3450791e+3, 1.538346e+2, -914540.75, -1475615.3, 15405.985, 0.008973934, -0.0021341243, -914118.0, 518302.4, 0.000042889762, 10.0047655, 9.997328 
1.3450654e+3, 1.6383211e+2, -883687.56, -1328994.0, 7517.7095, -0.009010751, -0.015322537, -883560.7, 450883.34, 0.0000010445432, 10.003955, 9.998053 
1.3450521e+3, 1.7383008e+2, -892129.0, -1273188.8, 5119.0034, 0.0097250985, -0.03120395, -892060.25, 344402.25, 0.0, 10.003184, 9.998134 
1.3450389e+3, 1.8382826e+2, -881535.1, -1183578.4, 9193.095, 0.017956791, -0.039362166, -881255.56, 257224.05, 0.0, 10.002439, 9.998436 
1.3450254e+3, 1.9382675e+2, -885030.1, -1131614.4, 8368.907, 0.009032528, -0.036486723, -884746.4, 155748.83, 0.0, 10.001729, 9.998462 
1.345012e+3, 2.0382547e+2, -866720.44, -1032940.4, 6523.152, 0.0054348256, -0.025711277, -866464.8, 76043.92, 0.0, 10.001013, 9.998812 
1.3449988e+3, 2.1382453e+2, -872254.3, -981122.2, 6645.9214, 0.0106217135, -0.004361014, -871850.1, -27330.773, 0.0, 10.000286, 9.998845 
1.3449857e+3, 2.2382365e+2, -876782.44, -924844.1, 17221.42, 0.013441609, 0.021478467, -871248.8, -124718.93, 0.0, 9.999549, 9.998914 
1.3449728e+3, 2.3382288e+2, -888797.4, -880361.44, 18030.426, 0.012397149, 0.05298936, -866062.2, -217521.77, 0.0, 9.9987955, 9.998909 
1.3449597e+3, 2.4382214e+2, -880098.25, -799509.06, 15396.629, 0.008586696, 0.07911809, -796667.75, -246117.56, 0.0, 9.998072, 9.99914 
1.3449466e+3, 2.5382146e+2, -879779.2, -746546.06, 13618.446, 0.00041761625, 0.09530887, -745168.3, -292609.5, 0.0, 9.997393, 9.999158 
1.3449337e+3, 2.6382095e+2, -846739.3, -619544.0, 17912.822, -0.0004778128, 0.10758146, -618140.4, -263575.38, 0.0, 9.996687, 9.999696 
1.3449208e+3, 2.7382076e+2, -853419.9, -565405.0, 15725.973, 0.010058077, 0.11304996, -564548.9, -307981.28, 0.0, 9.99594, 9.999755 
1.344908e+3, 2.8382093e+2, -801264.7, -390834.03, 9527.825, 0.0100983875, 0.113934934, -390612.97, -232046.77, 0.0, 9.995201, 10.000636 
1.3448949e+3, 2.9382157e+2, -801691.2, -328313.44, 5777.8047, -0.006477362, 0.106117755, -328242.94, -267684.06, 0.0, 9.994475, 10.000742 
1.3448818e+3, 3.03823e+2, -741293.7, -78147.93, 11341.553, -0.014260566, 0.09306309, -77954.016, -77954.016, 0.0, 9.993711, 10.002492 
1.344869e+3, 3.1382552e+2, -851790.4, -116476.516, 7521.6147, -0.00743296, 0.085521966, -116399.586, -116399.586, 0.0, 9.992889, 10.0026245 
1.3551271e+3, 1.23857446e+2, -920229.1, -1719821.0, 8846.904, 0.028438745, -0.005499898, -920131.25, 806065.5, 0.0011517028, 10.00714, 9.996527 
1.3551117e+3, 1.338541e+2, -923096.1, -1658801.0, -22612.707, -0.06539842, -0.0013009231, -922401.75, 705828.0, 0.0006322826, 10.00639, 9.996635 
1.3550985e+3, 1.4385109e+2, -895009.25, -1524201.4, -17575.465, 0.057777826, 0.0053227646, -894518.7, 635740.7, 0.00023640807, 10.005604, 9.997264 
1.3550839e+3, 1.5384822e+2, -913938.44, -1475255.3, -15778.671, 0.011659045, -0.013220685, -913495.25, 518791.56, 0.00004235961, 10.004768, 9.99733 
1.3550694e+3, 1.6384572e+2, -887645.4, -1338278.5, -21421.0, -0.010273187, -0.02578183, -886629.4, 447681.13, 0.0000010253426, 10.003958, 9.997988 
1.3550553e+3, 1.7384373e+2, -896780.1, -1283894.4, -23540.215, 0.008749324, -0.029948974, -895353.9, 340974.9, 0.0, 10.003187, 9.99806 
1.3550413e+3, 1.8384191e+2, -885599.8, -1192961.0, -17428.611, 0.01843269, -0.02960971, -884614.7, 253731.36, 0.0, 10.002441, 9.998371 
1.3550271e+3, 1.9384038e+2, -889121.1, -1140899.6, -18007.273, 0.012778438, -0.023618838, -887839.75, 152522.34, 0.0, 10.001731, 9.998398 
1.3550131e+3, 2.0383905e+2, -866965.8, -1034165.2, -20443.225, 0.009623265, -0.01398684, -864502.56, 77873.52, 0.0, 10.001015, 9.998803 
1.3549991e+3, 2.1383801e+2, -871994.56, -981310.5, -20386.904, 0.010781013, -0.00015863574, -868316.25, -23929.027, 0.0, 10.000288, 9.998843 
1.3549852e+3, 2.2383706e+2, -877282.44, -926569.9, -10607.321, 0.0124087995, 0.018602971, -875096.56, -128698.336, 0.0, 9.999551, 9.998901 
1.3549715e+3, 2.3383622e+2, -889429.8, -882260.25, -9873.341, 0.014761263, 0.043705456, -875341.06, -226931.81, 0.0, 9.998797, 9.998896 
1.3549578e+3, 2.4383546e+2, -881530.6, -802985.3, -9942.151, 0.013564662, 0.070338845, -801746.4, -251327.38, 0.0, 9.998073, 9.999116 
1.3549441e+3, 2.5383487e+2, -881407.94, -750339.25, -11312.023, 0.0066954144, 0.097831264, -749370.1, -296943.03, 0.0, 9.997393, 9.999132 
1.3549304e+3, 2.6383442e+2, -849998.8, -626596.9, -9221.065, 0.0025868139, 0.11532347, -626216.9, -271783.7, 0.0, 9.996687, 9.999648 
1.3549167e+3, 2.738341e+2, -857023.75, -573061.4, -11661.867, 0.0028565614, 0.116366744, -572583.25, -316146.6, 0.0, 9.99594, 9.999702 
1.3549031e+3, 2.8383416e+2, -804253.9, -397091.5, -17132.555, -0.0016378717, 0.11192558, -396371.88, -237935.8, 0.0, 9.9952, 10.000594 
1.3548893e+3, 2.9383472e+2, -804809.44, -334671.06, -20716.82, -0.013670945, 0.09769605, -333759.94, -273330.3, 0.0, 9.994473, 10.0007 
1.3548754e+3, 3.0383605e+2, -745310.4, -86179.26, -18294.826, -0.014658977, 0.08291763, -85671.86, -85671.86, 0.0, 9.993709, 10.002439 
1.354862e+3, 3.138386e+2, -856196.4, -125046.88, -22533.25, 0.0022564845, 0.080075264, -124353.086, -124353.086, 0.0, 9.992886, 10.002568 
1.365134e+3, 1.238721e+2, -909690.9, -1712819.8, 37489.266, 0.014943302, -0.00016757521, -907944.7, 818108.75, 0.0011690528, 10.007206, 9.996542 
1.365118e+3, 1.3386877e+2, -934362.3, -1664765.0, 8131.9795, -0.06552974, 0.0054039177, -934271.8, 693814.6, 0.0006375998, 10.006315, 9.99663 
1.3651042e+3, 1.438657e+2, -910587.0, -1531582.8, 16924.674, 0.06602511, 0.0089504495, -910126.06, 619990.25, 0.00023566288, 10.005498, 9.997264 
1.3650887e+3, 1.5386279e+2, -910401.6, -1473414.4, 18625.105, 0.015122342, -0.014743574, -909786.2, 522357.8, 0.000041600233, 10.004793, 9.99733 
1.3650733e+3, 1.6386025e+2, -875603.5, -1340767.3, 12936.242, -0.010310994, -0.028319633, -875244.0, 458924.0, 0.0000009888257, 10.004078, 9.997912 
1.3650586e+3, 1.7385821e+2, -880357.56, -1285485.5, 9822.33, 0.007121657, -0.02717154, -880119.56, 356067.22, 0.0, 10.003343, 9.997973 
1.3650437e+3, 1.8385634e+2, -871358.44, -1193591.8, 14690.92, 0.017406546, -0.026299328, -870690.06, 267514.75, 0.0, 10.002572, 9.998303 
1.3650289e+3, 1.9385466e+2, -891346.0, -1149210.8, 13689.811, 0.015780639, -0.02726086, -890621.25, 149600.84, 0.0, 10.001748, 9.998332 
1.3650142e+3, 2.0385325e+2, -874061.3, -1037957.2, 12819.322, 0.014346563, -0.019845823, -873064.75, 69171.914, 0.0, 10.000969, 9.998798 
1.3649994e+3, 2.1385229e+2, -875948.3, -982770.0, 13202.616, 0.013599016, -0.0009401205, -874340.75, -30093.424, 0.0, 10.00026, 9.998846 
1.3649848e+3, 2.2385135e+2, -878055.5, -926762.06, 22641.998, 0.01481394, 0.019197103, -869156.06, -122897.95, 0.0, 9.999546, 9.998902 
1.3649704e+3, 2.3385045e+2, -885835.56, -880407.0, 23960.336, 0.01908043, 0.03985862, -859007.7, -210738.28, 0.0, 9.998822, 9.998896 
1.3649559e+3, 2.4384966e+2, -881414.7, -808869.6, 24422.148, 0.017868172, 0.065623045, -801414.2, -251134.67, 0.0, 9.9981, 9.999062 
1.3649414e+3, 2.5384906e+2, -887755.1, -760181.4, 20163.97, 0.008020124, 0.09790653, -757070.2, -304782.2, 0.0, 9.99738, 9.99907 
1.364927e+3, 2.6384857e+2, -854928.7, -630631.7, 20424.035, 0.0012015844, 0.11688371, -628787.1, -274492.63, 0.0, 9.996662, 9.999632 
1.3649127e+3, 2.738482e+2, -856852.25, -574063.9, 20549.623, -0.0008742152, 0.114222094, -572578.4, -316280.2, 0.0, 9.995948, 9.999692 
1.3648984e+3, 2.838482e+2, -802982.7, -398691.3, 16970.387, -0.0063250177, 0.106868036, -397980.22, -239682.38, 0.0, 9.99522, 10.000573 
1.3648836e+3, 2.9384872e+2, -806488.06, -338022.88, 14416.569, -0.017068941, 0.09109557, -337579.63, -277287.94, 0.0, 9.994474, 10.000676 
1.3648693e+3, 3.0385002e+2, -751728.1, -89329.414, 14787.115, -0.015947955, 0.073758274, -88999.48, -88999.48, 0.0, 9.993667, 10.002437 
1.3648549e+3, 3.1385252e+2, -874356.25, -133734.98, 13875.152, 0.0043144124, 0.06612195, -133475.14, -133475.14, 0.0, 9.992763, 10.002567 
1.3751411e+3, 1.2388751e+2, -906105.06, -1705293.5, 5633.23, 0.00065056223, 0.00368775, -906065.4, 819837.6, 0.001190106, 10.007204, 9.996595 
1.3751243e+3, 1.338843e+2, -931596.3, -1659671.5, -25209.059, -0.06690356, 0.016675806, -930724.5, 697210.3, 0.0006449126, 10.006317, 9.996665 
1.3751097e+3, 1.4388126e+2, -910219.6, -1531731.0, -10069.318, 0.07310644, 0.020495255, -910056.5, 619907.8, 0.00023526906, 10.0055, 9.997263 
1.3750935e+3, 1.538783e+2, -910440.4, -1474303.8, -7572.272, 0.01930053, -0.0069840606, -910338.7, 521653.4, 0.00004072397, 10.004795, 9.997324 
1.3750775e+3, 1.6387567e+2, -881600.5, -1353984.8, -14313.809, -0.00919476, -0.02315902, -881167.2, 452849.5, 0.00000092966764, 10.00408, 9.997822 
1.3750619e+3, 1.7387353e+2, -887101.1, -1300308.6, -17526.455, 0.004831384, -0.022940833, -886359.06, 349677.63, 0.0, 10.003345, 9.997871 
1.3750462e+3, 1.838715e+2, -876270.9, -1204596.1, -15596.414, 0.014884171, -0.029370734, -875531.7, 262524.6, 0.0, 10.002574, 9.998227 
1.3750306e+3, 1.9386956e+2, -896004.1, -1159714.1, -16995.186, 0.018027568, -0.04730747, -894913.4, 145162.05, 0.0, 10.00175, 9.99826 
1.3750151e+3, 2.038681e+2, -873987.3, -1038613.5, -13956.193, 0.019583685, -0.04320819, -872812.5, 69278.05, 0.0, 10.000971, 9.998794 
1.3749997e+3, 2.138673e+2, -875398.94, -982366.75, -13078.55, 0.01906132, -0.006673553, -873823.1, -29723.246, 0.0, 10.000261, 9.998849 
1.3749844e+3, 2.2386648e+2, -877195.94, -925684.8, -4067.6897, 0.02064852, 0.023290606, -876857.06, -130747.29, 0.0, 9.999548, 9.998909 
1.3749692e+3, 2.3386556e+2, -884952.9, -879238.75, -2760.3154, 0.025358712, 0.041505948, -878123.1, -230002.08, 0.0, 9.998824, 9.998904 
1.3749541e+3, 2.4386472e+2, -887598.4, -822285.0, -2139.6563, 0.0214582, 0.065011136, -822215.0, -272083.25, 0.0, 9.998101, 9.99897 
1.3749388e+3, 2.53864e+2, -894935.9, -775518.5, -6328.503, 0.0042398917, 0.09545648, -775184.06, -323042.34, 0.0, 9.99738, 9.998965 
1.3749236e+3, 2.638634e+2, -854106.0, -629222.44, -5778.9126, -0.0047740135, 0.1120925, -629074.06, -274925.03, 0.0, 9.996662, 9.999642 
1.3749085e+3, 2.7386308e+2, -855059.94, -570594.3, -5537.5015, -0.0010511973, 0.106439926, -570486.5, -314334.13, 0.0, 9.995947, 9.999716 
1.3748935e+3, 2.8386307e+2, -803399.1, -399727.8, -10116.484, -0.0037885918, 0.0986736, -399474.44, -241322.67, 0.0, 9.995219, 10.0005665 
1.3748781e+3, 2.938636e+2, -807371.0, -339873.78, -12720.273, -0.016582571, 0.08646913, -339527.94, -279382.6, 0.0, 9.9944725, 10.000665 
1.3748628e+3, 3.038649e+2, -748676.0, -82856.67, -17513.406, -0.018296232, 0.065661795, -82396.33, -82396.33, 0.0, 9.993665, 10.002483 
1.3748476e+3, 3.1386724e+2, -871025.0, -126488.22, -18989.068, -0.0019584843, 0.04301281, -126004.23, -126004.23, 0.0, 9.99276, 10.00262 
1.3851482e+3, 1.2390372e+2, -931302.94, -1717559.9, 34603.016, -0.0007959179, 0.008563987, -929783.0, 795961.5, 0.0012174502, 10.007033, 9.9965925 
1.3851306e+3, 1.3390048e+2, -938185.44, -1665225.0, -1942.2115, -0.07118904, 0.022222297, -938180.25, 689596.25, 0.0006559156, 10.006284, 9.996642 
1.3851152e+3, 1.438974e+2, -907186.44, -1531140.1, 13273.882, 0.070390195, 0.02332402, -906904.2, 622902.2, 0.00023604545, 10.005526, 9.997253 
1.3850982e+3, 1.5389442e+2, -915993.6, -1477734.0, 15739.908, 0.020745907, -0.0051784078, -915552.94, 516281.1, 0.000039872684, 10.004762, 9.997315 
1.3850816e+3, 1.6389176e+2, -893835.25, -1364758.9, 10545.258, -0.005549936, -0.021554053, -893599.25, 440259.6, 0.00000085291884, 10.004018, 9.997777 
1.3850652e+3, 1.7388959e+2, -896674.06, -1310394.6, 10961.516, 0.007420436, -0.020409096, -896383.8, 339495.63, 0.0, 10.003304, 9.997822 
1.3850488e+3, 1.838875e+2, -874895.25, -1201569.8, 15875.736, 0.016995735, -0.030486304, -874125.5, 263773.94, 0.0, 10.002575, 9.998247 
1.3850325e+3, 1.9388548e+2, -883509.6, -1150459.8, 21466.402, 0.02067973, -0.058928926, -881794.44, 158124.28, 0.0, 10.001823, 9.998287 
1.3850163e+3, 2.0388398e+2, -862350.5, -1040008.9, 28923.137, 0.022159941, -0.05804422, -857760.4, 84173.82, 0.0, 10.001082, 9.99873 
1.385e+3, 2.1388318e+2, -866838.44, -986615.1, 24019.959, 0.02061581, -0.013713068, -862201.06, -18257.12, 0.0, 10.000358, 9.998773 
1.384984e+3, 2.2388235e+2, -868396.06, -923848.6, 27621.14, 0.022141317, 0.022294493, -856985.7, -111031.6, 0.0, 9.9996195, 9.998886 
1.3849682e+3, 2.3388144e+2, -880734.8, -878815.8, 26689.527, 0.028204842, 0.04374803, -853068.56, -205103.33, 0.0, 9.998861, 9.998888 
1.3849522e+3, 2.4388058e+2, -888756.0, -826818.0, 28313.14, 0.024437396, 0.06743084, -815826.1, -265849.97, 0.0, 9.998112, 9.998933 
1.3849361e+3, 2.5387976e+2, -898311.06, -781391.56, 28799.074, 0.005514064, 0.09341801, -774682.9, -322695.78, 0.0, 9.997377, 9.998926 
1.3849203e+3, 2.6387915e+2, -859391.6, -630404.94, 31006.84, -0.0041176043, 0.1078323, -626280.6, -272285.9, 0.0, 9.996621, 9.999653 
1.3849045e+3, 2.738788e+2, -870594.7, -576087.56, 30207.191, 0.000670646, 0.10349078, -573021.2, -317023.5, 0.0, 9.995833, 9.999732 
1.3848887e+3, 2.8387883e+2, -824959.06, -407609.9, 26024.184, -0.0022237226, 0.09516767, -405993.4, -247996.56, 0.0, 9.995063, 10.000587 
1.3848725e+3, 2.9387936e+2, -828694.7, -347703.06, 25480.143, -0.017029436, 0.07961862, -346357.03, -286366.6, 0.0, 9.994318, 10.000685 
1.3848564e+3, 3.0388063e+2, -763142.6, -84056.32, 17821.879, -0.020071372, 0.056442432, -83588.93, -83588.93, 0.0, 9.993542, 10.002533 
1.3848402e+3, 3.1388307e+2, -873624.1, -121773.836, 15506.145, -0.0040467526, 0.032159887, -121454.17, -121454.17, 0.0, 9.992718, 10.002671 
1.3951553e+3, 1.2392072e+2, -935889.94, -1726748.8, 7581.2456, 0.009625156, 0.01432155, -935817.25, 789760.8, 0.0012535993, 10.0070305, 9.9965315 
1.3951367e+3, 1.3391735e+2, -943916.3, -1677594.0, -29911.842, -0.078367665, 0.022367988, -942698.8, 684912.8, 0.0006722636, 10.006284, 9.996558 
1.3951206e+3, 1.4391413e+2, -908294.75, -1534256.6, -14997.057, 0.0582912, 0.017891973, -907935.7, 621706.9, 0.0002388421, 10.005528, 9.9972315 
1.395103e+3, 1.5391116e+2, -916569.44, -1479888.1, -12603.466, 0.019564454, -0.009073895, -916287.6, 515382.34, 0.000039245606, 10.004764, 9.9973 
1.3950858e+3, 1.6390853e+2, -893713.3, -1365488.6, -16118.642, 0.0005353495, -0.023377215, -893163.25, 440531.34, 0.00000077017233, 10.004021, 9.997771 
1.3950686e+3, 1.7390636e+2, -896548.25, -1311022.5, -15526.579, 0.0147469845, -0.019530956, -895967.44, 339747.8, 0.0, 10.003305, 9.997817 
1.3950513e+3, 1.839043e+2, -866865.25, -1185721.3, -11903.888, 0.023605002, -0.029678738, -866421.5, 271313.1, 0.0, 10.002577, 9.998356 
1.3950343e+3, 1.9390239e+2, -874541.8, -1132693.0, -6467.657, 0.023702014, -0.062207993, -874379.9, 165372.39, 0.0, 10.001825, 9.998409 
1.3950172e+3, 2.0390084e+2, -870977.4, -1058735.6, 1922.8931, 0.022072291, -0.06443643, -870957.7, 70809.93, 0.0, 10.001084, 9.998601 
1.3950004e+3, 2.1389987e+2, -877675.6, -1009894.2, -2828.7395, 0.018224662, -0.02212209, -877615.1, -33835.34, 0.0, 10.00036, 9.998612 
1.3949835e+3, 2.2389896e+2, -872098.9, -932305.5, -316.662, 0.019238016, 0.016169935, -872097.25, -126305.93, 0.0, 9.999621, 9.998828 
1.394967e+3, 2.3389809e+2, -883608.5, -885464.4, -1322.9626, 0.027568249, 0.046597295, -882920.5, -235118.33, 0.0, 9.998862, 9.998842 
1.3949503e+3, 2.4389723e+2, -887505.6, -824802.25, 1154.2356, 0.026791498, 0.072920345, -824781.0, -274968.03, 0.0, 9.998113, 9.998947 
1.3949336e+3, 2.5389636e+2, -896580.44, -778278.8, 1843.7495, 0.01195474, 0.091794096, -778250.06, -326425.9, 0.0, 9.997377, 9.998947 
1.3949169e+3, 2.6389575e+2, -858986.3, -629864.8, 2324.014, 0.0033166206, 0.104149096, -629841.2, -276009.44, 0.0, 9.996621, 9.999658 
1.3949004e+3, 2.7389547e+2, -870577.4, -576086.94, 1359.8319, 0.0042900764, 0.10560788, -576080.6, -320246.34, 0.0, 9.995832, 9.999734 
1.3948837e+3, 2.8389552e+2, -822165.4, -401652.13, -1278.998, -0.0017646885, 0.096574254, -401648.22, -243814.95, 0.0, 9.99506, 10.00063 
1.3948669e+3, 2.9389596e+2, -825681.94, -341172.84, -1547.9783, -0.01858835, 0.070465, -341167.9, -281340.6, 0.0, 9.994315, 10.000731 
1.39485e+3, 3.0389732e+2, -760036.56, -77382.09, -11723.562, -0.021382827, 0.046170644, -77180.82, -77180.82, 0.0, 9.99354, 10.002581 
1.394833e+3, 3.1389987e+2, -870480.9, -115305.19, -14265.117, -0.0018656594, 0.034582946, -115035.82, -115035.82, 0.0, 9.992716, 10.002717 
1.4051622e+3, 1.2393843e+2, -965779.8, -1736829.3, 34763.43, 0.015138397, 0.022413092, -964215.6, 761189.06, 0.0013006673, 10.006808, 9.996569 
1.405143e+3, 1.3393492e+2, -955433.3, -1680446.3, 3766.5925, -0.0817135, 0.015237868, -955413.75, 672025.3, 0.0006954691, 10.006195, 9.99658 
1.4051262e+3, 1.4393164e+2, -908390.6, -1535236.9, 20896.117, 0.051903717, 0.0026076436, -907694.8, 621775.7, 0.00024456467, 10.005533, 9.997222 
1.4051078e+3, 1.5392874e+2, -911924.1, -1479072.3, 22859.803, 0.016462937, -0.015140346, -911004.2, 520493.06, 0.00003910655, 10.004804, 9.997286 
1.4050898e+3, 1.639261e+2, -892098.0, -1371404.1, 17610.611, 0.0004863499, -0.025477288, -891451.8, 442070.13, 0.0000006909596, 10.004062, 9.99771 
1.4050719e+3, 1.7392384e+2, -902132.06, -1321129.0, 13373.02, 0.016917441, -0.025708398, -901705.7, 333838.25, 0.0, 10.003301, 9.997749 
1.405054e+3, 1.8392177e+2, -867899.44, -1184037.6, 11447.684, 0.026936619, -0.03430885, -867485.44, 270078.03, 0.0, 10.002562, 9.998374 
1.4050362e+3, 1.9391997e+2, -868397.94, -1126514.0, 9648.26, 0.026698424, -0.056753073, -868037.8, 171542.06, 0.0, 10.001855, 9.998437 
1.4050184e+3, 2.0391846e+2, -865700.6, -1059513.9, 17102.035, 0.02506351, -0.05603112, -864203.1, 77391.78, 0.0, 10.001136, 9.99857 
1.4050007e+3, 2.1391736e+2, -874848.9, -1012733.06, 21161.768, 0.021736866, -0.021808585, -871674.2, -28065.873, 0.0, 10.000399, 9.998574 
1.4049831e+3, 2.2391637e+2, -869634.0, -933950.6, 28547.639, 0.022091888, 0.012560357, -858790.9, -113170.234, 0.0, 9.999652, 9.998801 
1.4049658e+3, 2.339155e+2, -881293.44, -887062.25, 28692.926, 0.028020877, 0.045568064, -855340.3, -207708.75, 0.0, 9.998892, 9.9988165 
1.4049485e+3, 2.4391465e+2, -885944.75, -822466.1, 31518.514, 0.026396245, 0.07312779, -809475.1, -259832.7, 0.0, 9.998118, 9.99896 
1.404931e+3, 2.5391376e+2, -902882.06, -779159.8, 31607.053, 0.013109629, 0.09103418, -771552.94, -319899.47, 0.0, 9.997327, 9.998965 
1.4049135e+3, 2.6391318e+2, -871079.5, -634590.2, 30835.887, 0.0051043173, 0.1039236, -630635.6, -276974.7, 0.0, 9.996535, 9.999666 
1.4048961e+3, 2.7391294e+2, -883081.75, -581212.8, 29829.574, 0.0051945914, 0.10831287, -578293.4, -322630.16, 0.0, 9.995744, 9.999741 
1.4048786e+3, 2.83913e+2, -832367.94, -400644.97, 28708.77, -0.0021306027, 0.09950555, -398744.25, -241082.23, 0.0, 9.9949665, 10.000682 
1.4048609e+3, 2.9391348e+2, -837259.4, -340365.22, 28999.064, -0.020729007, 0.06960939, -338678.53, -279022.75, 0.0, 9.994209, 10.000787 
1.4048433e+3, 3.0391484e+2, -772346.75, -81182.02, 16249.132, -0.023852704, 0.04645721, -80800.23, -80800.23, 0.0, 9.993447, 10.002599 
1.4048257e+3, 3.1391755e+2, -875563.0, -116390.96, 10513.258, -0.0025409858, 0.04294917, -116245.4, -116245.4, 0.0, 9.992677, 10.0027275 
1.4151691e+3, 1.2395685e+2, -957221.9, -1719215.4, 12602.036, 0.015907476, 0.032642864, -957013.56, 768210.8, 0.0013604475, 10.006807, 9.996691 
1.4151491e+3, 1.3395321e+2, -947232.25, -1663680.8, -19129.178, -0.08145695, 0.0012151286, -946721.9, 680537.1, 0.0007269447, 10.006194, 9.996696 
1.4151315e+3, 1.439499e+2, -908689.5, -1536185.8, -5871.0425, 0.050880626, -0.021973275, -908634.6, 620655.9, 0.0002541596, 10.005533, 9.997216 
1.4151126e+3, 1.5394714e+2, -913034.75, -1482018.6, -4362.495, 0.011455279, -0.023214282, -913001.3, 518314.88, 0.00003976196, 10.004805, 9.997266 
1.4150937e+3, 1.6394448e+2, -900204.5, -1389106.9, -10621.252, -0.005511344, -0.027860327, -899973.9, 433367.38, 0.0000006261313, 10.004064, 9.997588 
1.415075e+3, 1.7394198e+2, -911035.6, -1340677.6, -14885.518, 0.014055424, -0.038797107, -910520.56, 324845.2, 0.0, 10.003304, 9.997615 
1.4150566e+3, 1.8393983e+2, -872730.6, -1195138.6, -14930.751, 0.02704101, -0.04422841, -872040.6, 265345.78, 0.0, 10.002564, 9.998297 
1.4150381e+3, 1.939382e+2, -872893.7, -1136812.5, -16499.266, 0.029642977, -0.042648654, -871866.2, 167535.6, 0.0, 10.001858, 9.998365 
1.4150195e+3, 2.0393677e+2, -860973.0, -1050552.6, -10095.637, 0.03108453, -0.0330133, -860436.94, 80979.32, 0.0, 10.001138, 9.9986315 
1.4150012e+3, 2.1393561e+2, -869059.25, -1001508.56, -6143.027, 0.03114215, -0.012827834, -868774.94, -25345.229, 0.0, 10.000401, 9.998651 
1.414983e+3, 2.2393456e+2, -869358.9, -934122.8, 540.6103, 0.030696847, 0.011453538, -869354.4, -123912.1, 0.0, 9.999654, 9.9988 
1.4149648e+3, 2.3393364e+2, -881748.4, -888697.6, 657.9019, 0.02953185, 0.04055992, -881686.6, -234232.9, 0.0, 9.998893, 9.998806 
1.4149465e+3, 2.4393278e+2, -885280.4, -821673.0, 2463.649, 0.02315362, 0.067959465, -821577.7, -272113.06, 0.0, 9.998119, 9.998965 
1.4149283e+3, 2.5393197e+2, -902173.3, -778113.3, 2494.6372, 0.00879617, 0.09119862, -778063.2, -326588.0, 0.0, 9.997327, 9.998973 
1.4149101e+3, 2.6393142e+2, -870553.6, -633774.06, 1807.2727, 0.0010247965, 0.10728626, -633760.25, -280277.88, 0.0, 9.996534, 9.999673 
1.4148918e+3, 2.7393118e+2, -882715.56, -580609.25, 877.20337, 0.0032132682, 0.11166011, -580606.75, -325121.88, 0.0, 9.995743, 9.999745 
1.4148736e+3, 2.839313e+2, -828580.44, -392846.53, 940.86597, -0.0034663323, 0.104126856, -392844.5, -235361.2, 0.0, 9.994966, 10.000736 
1.4148553e+3, 2.9393184e+2, -833244.94, -331974.88, 1456.1581, -0.023585245, 0.07761783, -331970.66, -272494.6, 0.0, 9.994207, 10.000846 
1.4148368e+3, 3.039333e+2, -774029.6, -84607.64, -11713.6455, -0.027655438, 0.058009278, -84408.67, -84408.67, 0.0, 9.993445, 10.002577 
1.4148182e+3, 3.1393597e+2, -877992.44, -121481.375, -17406.707, -0.0064538578, 0.057606157, -121081.07, -121081.07, 0.0, 9.992676, 10.002694 
1.4251758e+3, 1.2397586e+2, -963727.75, -1713203.1, 44057.938, 0.016503925, 0.028204592, -961146.7, 763891.25, 0.00143451, 10.006725, 9.996771 
1.4251553e+3, 1.3397226e+2, -963042.2, -1663134.4, 8087.2837, -0.08072679, -0.006428124, -962948.8, 664122.94, 0.00076790917, 10.006052, 9.996768 
1.4251369e+3, 1.4396897e+2, -934265.75, -1553510.5, 16284.978, 0.05207518, -0.029376296, -933837.8, 595265.2, 0.0002685, 10.005381, 9.9971695 
1.4251173e+3, 1.539663e+2, -930182.75, -1496846.0, 14340.207, 0.012930788, -0.016107783, -929820.1, 501308.44, 0.00004155939, 10.004717, 9.997206 
1.4250976e+3, 1.639636e+2, -904220.44, -1394957.8, 8429.334, -0.004897256, -0.01834588, -904075.7, 429078.44, 0.00000059629093, 10.004055, 9.997552 
1.4250785e+3, 1.7396091e+2, -900540.44, -1339333.4, 11097.905, 0.011950543, -0.044927888, -900259.94, 334920.03, 0.0, 10.003394, 9.99758 
1.4250591e+3, 1.8395866e+2, -858023.44, -1195519.8, 14627.63, 0.024586366, -0.055342805, -857390.6, 279810.97, 0.0, 10.0027, 9.998229 
1.4250399e+3, 1.9395706e+2, -863762.06, -1140454.5, 12619.39, 0.030373748, -0.042824488, -863187.7, 176029.48, 0.0, 10.001957, 9.998292 
1.4250207e+3, 2.0395567e+2, -852165.6, -1042614.56, 15944.47, 0.03428909, -0.027355691, -850839.94, 90391.625, 0.0, 10.001184, 9.998663 
1.4250016e+3, 2.1395452e+2, -870580.2, -997164.2, 16935.06, 0.035755917, -0.00928577, -868353.7, -25109.064, 0.0, 10.000369, 9.998694 
1.4249825e+3, 2.2395349e+2, -877533.4, -934037.0, 23931.178, 0.03508767, 0.012642967, -868760.0, -123503.086, 0.0, 9.999581, 9.998835 
1.4249636e+3, 2.3395258e+2, -888128.25, -887849.75, 27181.176, 0.031249478, 0.039149847, -860807.44, -213539.25, 0.0, 9.998834, 9.998839 
1.4249445e+3, 2.4395174e+2, -891065.9, -822837.4, 29748.783, 0.023146344, 0.06679801, -811688.25, -262409.3, 0.0, 9.998074, 9.998979 
1.4249255e+3, 2.5395098e+2, -906020.44, -778573.6, 29620.719, 0.0085957, 0.09455725, -772025.75, -320736.56, 0.0, 9.997295, 9.998984 
1.4249066e+3, 2.6395044e+2, -875060.56, -635744.6, 28035.203, -0.00022365662, 0.113104925, -632504.25, -279208.06, 0.0, 9.996504, 9.999673 
1.4248876e+3, 2.7395022e+2, -890211.2, -584295.2, 26219.59, -0.00041241347, 0.11686004, -582064.25, -326765.38, 0.0, 9.995693, 9.999743 
1.4248686e+3, 2.8395033e+2, -836728.0, -394131.03, 25835.883, -0.0075448323, 0.10908805, -392628.0, -235330.69, 0.0, 9.994899, 10.000759 
1.4248493e+3, 2.939509e+2, -842872.25, -333855.47, 23498.031, -0.025215566, 0.08309934, -332773.0, -273483.2, 0.0, 9.994131, 10.00087 
1.4248303e+3, 3.039524e+2, -780369.3, -89629.82, 10378.02, -0.029708613, 0.06687957, -89473.93, -89473.93, 0.0, 9.993412, 10.002558 
1.4248109e+3, 3.139551e+2, -866635.44, -118791.24, 5154.8096, -0.013363886, 0.07346264, -118755.71, -118755.71, 0.0, 9.992767, 10.002668 
1.4351825e+3, 1.2399547e+2, -961114.56, -1708379.1, 19706.713, 0.016726995, 0.010355481, -960595.2, 764250.1, 0.0015240567, 10.006726, 9.996804 
1.4351612e+3, 1.3399205e+2, -961069.2, -1659872.8, -17125.365, -0.07959441, -0.007976361, -960649.75, 666227.56, 0.00081921346, 10.006055, 9.99679 
1.4351425e+3, 1.4398883e+2, -940322.4, -1566967.0, -8539.208, 0.055371437, -0.020513369, -940206.0, 588702.2, 0.0002881988, 10.005383, 9.997077 
1.435122e+3, 1.5398617e+2, -937176.0, -1512271.5, -10342.507, 0.020592816, 0.0054928646, -936990.06, 493944.44, 0.000044829252, 10.00472, 9.9971 
1.4351018e+3, 1.6398346e+2, -901059.44, -1389291.9, -16141.253, 0.0020281868, 0.0026017185, -900526.4, 432434.3, 0.00000063588817, 10.004057, 9.99759 
1.4350818e+3, 1.7398061e+2, -896216.44, -1331278.5, -13408.179, 0.0105274385, -0.044341244, -895803.6, 339183.28, 0.0, 10.003396, 9.997635 
1.4350617e+3, 1.8397823e+2, -862302.3, -1205266.1, -12623.965, 0.019598257, -0.06769196, -861838.3, 275171.0, 0.0, 10.002702, 9.998161 
1.4350419e+3, 1.9397654e+2, -869090.8, -1152374.4, -14905.972, 0.02891901, -0.057136517, -868308.6, 170717.66, 0.0, 10.001959, 9.99821 
1.4350219e+3, 2.0397511e+2, -852032.6, -1043167.56, -13974.552, 0.03468976, -0.0388779, -851016.25, 90024.89, 0.0, 10.001186, 9.998659 
1.435002e+3, 2.1397406e+2, -869892.4, -996532.94, -13262.312, 0.035529908, -0.01111863, -868518.4, -25465.12, 0.0, 10.000371, 9.998699 
1.4349821e+3, 2.2397311e+2, -872562.9, -924468.9, -3921.4678, 0.035202816, 0.016151385, -872268.3, -127203.625, 0.0, 9.999583, 9.9989 
1.4349625e+3, 2.3397227e+2, -882713.44, -877268.9, -344.9544, 0.033172384, 0.041388072, -877247.06, -230171.78, 0.0, 9.998835, 9.998912 
1.4349426e+3, 2.4397148e+2, -889757.2, -820682.44, 1246.0215, 0.026425816, 0.06972801, -820660.0, -271574.4, 0.0, 9.998075, 9.998994 
1.4349228e+3, 2.5397077e+2, -905202.06, -777392.6, 1059.341, 0.01259025, 0.10121398, -777383.9, -326288.22, 0.0, 9.997296, 9.998993 
1.434903e+3, 2.6397026e+2, -875711.2, -637550.3, -1607.4156, 0.0013801113, 0.12148154, -637539.5, -284436.78, 0.0, 9.996505, 9.999661 
1.4348832e+3, 2.7397e+2, -891174.8, -586638.75, -3488.0999, -0.0058375373, 0.123997614, -586598.75, -331493.2, 0.0, 9.995693, 9.999729 
1.4348632e+3, 2.8397006e+2, -838004.5, -397010.47, -2407.1038, -0.0145638315, 0.11441171, -396997.3, -239892.94, 0.0, 9.994899, 10.00074 
1.4348434e+3, 2.939706e+2, -844395.56, -337101.28, -4545.32, -0.025637697, 0.08593148, -337060.56, -277963.16, 0.0, 9.99413, 10.000849 
1.4348236e+3, 3.039721e+2, -781961.3, -93164.266, -13431.045, -0.030038116, 0.07294988, -92902.48, -92902.48, 0.0, 9.993411, 10.002535 
1.4348036e+3, 3.139749e+2, -868115.2, -122542.78, -17998.857, -0.023602303, 0.09050266, -122108.52, -122108.52, 0.0, 9.992768, 10.002643 
1.4451893e+3, 1.2401589e+2, -959738.6, -1710701.5, 47128.27, 0.017628578, 0.004493352, -956792.56, 767852.4, 0.0016296258, 10.006752, 9.996775 
1.4451674e+3, 1.3401252e+2, -960903.5, -1664154.9, 4617.2407, -0.0791702, -0.005179348, -960873.2, 665803.4, 0.0008812365, 10.006077, 9.996749 
1.4451478e+3, 1.4400925e+2, -944375.3, -1578186.6, 10793.848, 0.05478491, -0.016415715, -944191.5, 584516.7, 0.00031352375, 10.005397, 9.996992 
1.4451267e+3, 1.5400651e+2, -943736.4, -1525300.9, 9864.844, 0.019690441, 0.010429752, -943569.06, 487166.78, 0.000049797698, 10.004719, 9.997009 
1.4451058e+3, 1.6400377e+2, -899953.3, -1383309.3, 4741.446, 0.0015087773, 0.008116269, -899906.8, 432855.56, 0.0000007844454, 10.004044, 9.997637 
1.4450853e+3, 1.7400098e+2, -895781.5, -1323986.3, 7634.923, 0.011124579, -0.038516257, -895645.44, 339142.13, 0.0, 10.00337, 9.997696 
1.4450644e+3, 1.8399861e+2, -869490.7, -1211147.1, 7043.8457, 0.02117707, -0.06262278, -869345.56, 267464.03, 0.0, 10.002665, 9.998138 
1.4450438e+3, 1.9399686e+2, -878563.06, -1160503.6, 7740.834, 0.03134692, -0.05456413, -878350.7, 160476.77, 0.0, 10.00191, 9.998177 
1.4450231e+3, 2.039954e+2, -853268.9, -1040999.2, 10541.67, 0.036093485, -0.037753094, -852678.8, 88163.85, 0.0, 10.001167, 9.998682 
1.4450023e+3, 2.139944e+2, -858050.0, -987475.25, 12742.512, 0.033223193, -0.0098193865, -856807.4, -13953.01, 0.0, 10.00044, 9.998728 
1.4449817e+3, 2.2399348e+2, -858486.3, -914541.56, 20755.738, 0.032208856, 0.018286686, -851637.75, -106772.414, 0.0, 9.999667, 9.998927 
1.4449611e+3, 2.3399267e+2, -881666.25, -873644.44, 20430.936, 0.033925153, 0.04518876, -856834.44, -209958.83, 0.0, 9.99883, 9.998939 
1.4449407e+3, 2.4399193e+2, -899253.4, -824622.7, 19565.984, 0.028554302, 0.07599074, -819804.2, -270918.53, 0.0, 9.998008, 9.998999 
1.44492e+3, 2.5399125e+2, -917854.44, -783105.5, 18582.025, 0.012645007, 0.11110719, -780590.0, -329694.38, 0.0, 9.99721, 9.998995 
1.4448994e+3, 2.6399076e+2, -885883.7, -639059.56, 16641.12, -0.00081779534, 0.13176292, -637942.7, -285040.06, 0.0, 9.996421, 9.99969 
1.4448787e+3, 2.7399048e+2, -895404.0, -585056.7, 17999.715, -0.010602265, 0.12999155, -584016.25, -329110.75, 0.0, 9.995649, 9.99976 
1.4448582e+3, 2.8399053e+2, -840042.9, -396997.78, 22506.66, -0.019170439, 0.11773106, -395857.38, -238953.14, 0.0, 9.994882, 10.000748 
1.4448375e+3, 2.939911e+2, -845757.9, -337294.44, 22013.682, -0.02604287, 0.08909856, -336343.16, -277445.94, 0.0, 9.99412, 10.000852 
1.4448169e+3, 3.0399254e+2, -782885.3, -98187.96, 18131.201, -0.03165261, 0.07711192, -97708.17, -97708.17, 0.0, 9.993426, 10.002492 
1.4447963e+3, 3.1399533e+2, -861578.7, -124787.664, 12032.694, -0.034579, 0.09652272, -124591.21, -124591.21, 0.0, 9.992838, 10.002593 
1.455196e+3, 1.2403712e+2, -965922.44, -1724415.8, 22500.098, 0.018973919, 0.009637523, -965255.56, 759181.4, 0.0017511242, 10.006755, 9.99668 
1.4551733e+3, 1.3403367e+2, -968064.9, -1679874.0, -20685.994, -0.079475224, 0.0016559153, -967464.25, 659005.44, 0.0009540158, 10.006079, 9.996641 
1.4551531e+3, 1.4403021e+2, -949944.5, -1590547.1, -14451.546, 0.050460402, -0.016866317, -949618.6, 578884.56, 0.00034454037, 10.005399, 9.996908 
1.4551313e+3, 1.5402728e+2, -949072.7, -1537278.5, -15219.1455, 0.010583426, -0.00058868254, -948679.2, 481853.53, 0.00005661498, 10.004721, 9.996927 
1.4551097e+3, 1.6402453e+2, -896218.06, -1376430.0, -20152.275, -0.006127049, -0.0010871592, -895373.8, 437185.53, 0.0000010753564, 10.0040455, 9.9976845 
1.4550886e+3, 1.74022e+2, -891180.2, -1315206.4, -17259.52, 0.013702452, -0.027497835, -890478.8, 344103.2, 0.0, 10.003372, 9.997756 
1.4550671e+3, 1.8401979e+2, -868270.6, -1209355.3, -20626.572, 0.029117523, -0.04056417, -867027.8, 269574.94, 0.0, 10.0026655, 9.998151 
1.4550458e+3, 1.94018e+2, -877675.3, -1159489.6, -20180.64, 0.03753713, -0.03537596, -876237.56, 162383.34, 0.0, 10.001912, 9.998183 
1.4550243e+3, 2.0401654e+2, -849774.2, -1034619.9, -16438.895, 0.038422182, -0.024104247, -848323.6, 92312.695, 0.0, 10.001169, 9.998726 
1.4550027e+3, 2.1401547e+2, -854353.8, -980678.6, -14126.852, 0.028788915, -0.0054430594, -852793.3, -10145.208, 0.0, 10.000442, 9.998774 
1.4549813e+3, 2.2401454e+2, -859477.44, -917390.4, -9805.954, 0.02607234, 0.019039575, -857862.1, -113202.95, 0.0, 9.999669, 9.998908 
1.4549601e+3, 2.3401375e+2, -883223.2, -877563.7, -10519.851, 0.03348561, 0.05058294, -869499.6, -222830.23, 0.0, 9.998831, 9.998912 
1.4549387e+3, 2.4401303e+2, -899930.7, -826577.06, -10013.074, 0.029461464, 0.08565845, -825234.75, -276555.3, 0.0, 9.998009, 9.998985 
1.4549172e+3, 2.5401238e+2, -918449.1, -784787.3, -10804.322, 0.008582633, 0.124330625, -783919.56, -333230.16, 0.0, 9.99721, 9.998984 
1.4548957e+3, 2.640119e+2, -881102.94, -629544.6, -11756.308, -0.006989253, 0.14399236, -628996.44, -276300.13, 0.0, 9.996421, 9.999757 
1.4548744e+3, 2.7401164e+2, -890081.6, -574442.1, -10178.854, -0.014700793, 0.13476542, -574114.25, -319415.4, 0.0, 9.99565, 9.999833 
1.454853e+3, 2.840117e+2, -837829.56, -392868.53, -5297.882, -0.021323258, 0.11894567, -392805.44, -236108.31, 0.0, 9.994882, 10.000777 
1.4548317e+3, 2.940123e+2, -844031.3, -334171.63, -5642.88, -0.026553448, 0.09262433, -334109.2, -275419.6, 0.0, 9.99412, 10.000874 
1.4548104e+3, 3.0401373e+2, -787600.4, -108567.1, -3596.811, -0.034732424, 0.079147674, -108548.055, -108548.055, 0.0, 9.993427, 10.002421 
1.4547889e+3, 3.140163e+2, -867115.56, -136944.14, -8877.624, -0.04642029, 0.09048566, -136836.23, -136836.23, 0.0, 9.992839, 10.00251 
1.4652029e+3, 1.24058954e+2, -956431.4, -1723129.4, 37581.59, 0.0225173, 0.021511484, -954593.6, 769630.0, 0.0018883292, 10.006837, 9.996649 
1.4651795e+3, 1.3405544e+2, -966427.7, -1683077.0, -1775.7267, -0.07880102, 0.011744703, -966423.3, 659833.56, 0.0010376051, 10.00611, 9.996603 
1.4651585e+3, 1.4405188e+2, -951169.1, -1592773.1, 10001.939, 0.04748661, -0.01493279, -951013.25, 577278.06, 0.0003813384, 10.0054, 9.996891 
1.465136e+3, 1.5404886e+2, -950357.94, -1539393.4, 13922.556, 0.0058662253, -0.0062685693, -950029.06, 480292.5, 0.00006543369, 10.004721, 9.996912 
1.4651138e+3, 1.6404611e+2, -901368.6, -1380087.8, 8367.381, -0.0095954025, -0.004371246, -901222.4, 431125.78, 0.0000015536923, 10.004017, 9.997672 
1.4650919e+3, 1.7404373e+2, -906076.2, -1323655.4, 5492.3164, 0.015544454, -0.013840338, -906003.94, 328365.94, 0.0, 10.003277, 9.997743 
1.4650698e+3, 1.8404157e+2, -884573.3, -1213959.1, -1843.053, 0.03324418, -0.02142323, -884563.0, 251827.28, 0.0, 10.002542, 9.9981785 
1.4650476e+3, 1.9403972e+2, -890171.6, -1161837.3, -56.325005, 0.03954268, -0.027437722, -890171.6, 148237.34, 0.0, 10.001813, 9.998215 
1.4650254e+3, 2.0403822e+2, -857059.75, -1032331.25, 5569.9785, 0.038943425, -0.021311842, -856882.9, 83541.43, 0.0, 10.001096, 9.998776 
1.465003e+3, 2.1403724e+2, -857371.06, -976182.0, 8048.7725, 0.028847866, 0.00073569355, -856828.25, -14393.058, 0.0, 10.000397, 9.998825 
1.464981e+3, 2.2403635e+2, -861011.94, -916357.56, 9634.654, 0.025022225, 0.026072346, -859382.7, -114936.9, 0.0, 9.999653, 9.998922 
1.464959e+3, 2.3403554e+2, -881017.1, -875113.75, 10996.879, 0.030386781, 0.05492859, -866679.3, -220223.13, 0.0, 9.998842, 9.998923 
1.4649366e+3, 2.4403481e+2, -895451.06, -823671.9, 14312.656, 0.025442941, 0.088128075, -820923.2, -272456.84, 0.0, 9.998037, 9.998991 
1.4649144e+3, 2.5403416e+2, -913319.0, -781561.0, 14532.692, 0.005312966, 0.1260066, -779977.06, -329500.66, 0.0, 9.997243, 9.99899 
1.464892e+3, 2.640337e+2, -877943.6, -623921.6, 12464.107, -0.009755529, 0.146409, -623311.56, -270828.44, 0.0, 9.996427, 9.999792 
1.4648698e+3, 2.740335e+2, -897547.6, -573710.0, 10929.373, -0.017349103, 0.14022958, -573341.56, -318856.56, 0.0, 9.995582, 9.999871 
1.4648478e+3, 2.840336e+2, -850962.56, -398296.7, 15580.1045, -0.023681045, 0.12682302, -397761.1, -241278.16, 0.0, 9.994789, 10.000784 
1.4648257e+3, 2.940342e+2, -850462.8, -336928.84, 13620.06, -0.02838386, 0.102169536, -336567.88, -278092.66, 0.0, 9.994076, 10.000875 
1.4648037e+3, 3.0403563e+2, -791943.8, -107753.32, 21778.938, -0.03660942, 0.08507363, -107060.766, -107060.766, 0.0, 9.993386, 10.002445 
1.4647816e+3, 3.1403813e+2, -880479.3, -140445.0, 24920.754, -0.04924425, 0.08444809, -139606.75, -139606.75, 0.0, 9.992736, 10.002534 
1.4752097e+3, 1.2408139e+2, -955266.6, -1720679.5, 11286.397, 0.027898157, 0.039659966, -955100.25, 768904.75, 0.0020414563, 10.006836, 9.996667 
1.4751856e+3, 1.3407783e+2, -964907.25, -1680275.6, -28900.807, -0.07725467, 0.024771955, -963741.56, 662296.6, 0.0011323311, 10.00611, 9.996623 
1.4751638e+3, 1.4407422e+2, -948226.2, -1587137.4, -15320.036, 0.045771457, -0.010810667, -947859.06, 580213.7, 0.00042419208, 10.0054, 9.99693 
1.4751408e+3, 1.540712e+2, -947312.8, -1533564.4, -11173.126, 0.0053072777, -0.006880552, -947099.94, 483002.63, 0.00007647338, 10.004721, 9.996953 
1.4751178e+3, 1.6406846e+2, -906590.44, -1391524.1, -18828.756, -0.00911891, -0.0020062802, -905860.44, 426268.72, 0.0000022984534, 10.004018, 9.997594 
1.4750952e+3, 1.7406614e+2, -912122.75, -1337026.4, -21860.863, 0.016610883, 0.0023394213, -911001.0, 323150.4, 0.0, 10.003279, 9.997651 
1.4750724e+3, 1.8406396e+2, -881644.0, -1208807.6, -28802.035, 0.03360482, -0.005168464, -879127.75, 257044.63, 0.0, 10.002543, 9.998214 
1.4750493e+3, 1.9406193e+2, -886330.56, -1154839.0, -26944.008, 0.03741207, -0.03060279, -883653.5, 154538.38, 0.0, 10.001815, 9.998262 
1.4750263e+3, 2.0406045e+2, -853087.44, -1025047.9, -20296.27, 0.037697226, -0.029221196, -850724.4, 89482.57, 0.0, 10.001099, 9.998826 
1.4750035e+3, 2.1405968e+2, -853470.5, -968999.75, -17719.98, 0.03340754, 0.008819867, -850813.7, -8597.688, 0.0, 10.0004, 9.998875 
1.4749806e+3, 2.2405888e+2, -857666.44, -910197.44, -19938.777, 0.029020185, 0.039445505, -850955.7, -106730.13, 0.0, 9.999654, 9.998964 
1.4749576e+3, 2.3405801e+2, -877726.9, -869036.06, -18888.633, 0.0245197, 0.05817087, -853999.44, -207763.22, 0.0, 9.998843, 9.998965 
1.4749345e+3, 2.4405724e+2, -893877.75, -821142.0, -14945.963, 0.016383255, 0.08317225, -818190.6, -269943.97, 0.0, 9.998039, 9.999008 
1.4749116e+3, 2.5405654e+2, -911902.06, -779335.06, -14596.588, 0.0028735253, 0.11569953, -777746.94, -327490.03, 0.0, 9.997244, 9.999005 
1.4748886e+3, 2.6405612e+2, -877950.1, -624566.2, -18394.88, -0.0090157315, 0.13864456, -623237.75, -270974.47, 0.0, 9.996428, 9.999788 
1.4748655e+3, 2.7405602e+2, -897938.56, -574930.44, -20059.828, -0.018535718, 0.14645372, -573689.44, -319425.03, 0.0, 9.995582, 9.999864 
1.4748426e+3, 2.8405622e+2, -852526.0, -401875.1, -10820.394, -0.026327498, 0.14171034, -401615.44, -245353.52, 0.0, 9.994789, 10.00076 
1.4748196e+3, 2.9405683e+2, -852205.8, -341001.34, -12250.032, -0.031698614, 0.11810107, -340707.97, -282453.47, 0.0, 9.994076, 10.000849 
1.474797e+3, 3.0405822e+2, -783323.56, -90326.48, -1975.0479, -0.0372022, 0.09512588, -90320.84, -90320.84, 0.0, 9.993386, 10.002566 
1.4747745e+3, 3.140607e+2, -871173.56, -121165.914, 1726.4697, -0.042307638, 0.07813272, -121161.945, -121161.945, 0.0, 9.992735, 10.002668 
1.4852166e+3, 1.2410443e+2, -963958.4, -1718752.5, 33701.152, 0.038741417, 0.05268097, -962456.6, 761323.6, 0.0022113696, 10.006753, 9.996719 
1.4851916e+3, 1.341009e+2, -971124.56, -1676374.4, -4882.784, -0.07314788, 0.034393404, -971090.75, 654722.06, 0.001238861, 10.00604, 9.996683 
1.4851691e+3, 1.4409727e+2, -956495.7, -1585731.5, 10966.056, 0.044607703, -0.007840384, -956304.6, 571542.6, 0.00047360035, 10.0053215, 9.996977 
1.4851452e+3, 1.5409426e+2, -961427.1, -1535227.8, 15142.431, 0.004721139, -0.005594333, -961027.8, 468848.78, 0.00009004102, 10.004603, 9.996997 
1.4851217e+3, 1.6409157e+2, -927184.06, -1406097.0, 7918.347, -0.009860827, 0.00085529714, -927053.2, 404849.97, 0.0000034112163, 10.003898, 9.997551 
1.4850983e+3, 1.7408924e+2, -926234.0, -1349620.0, 7319.3975, 0.0143911885, 0.011351122, -926107.5, 307818.5, 0.0, 10.003208, 9.997598 
1.4850748e+3, 1.8408707e+2, -881847.9, -1200547.8, 2562.95, 0.03027217, 0.004878836, -881827.3, 254119.78, 0.0, 10.002508, 9.998286 
1.4850512e+3, 1.9408506e+2, -883870.3, -1144057.6, 6833.5034, 0.033500843, -0.026745318, -883691.0, 154274.78, 0.0, 10.001792, 9.998346 
1.4850275e+3, 2.040836e+2, -858483.9, -1026563.1, 13005.167, 0.03540569, -0.027390862, -857483.56, 82496.78, 0.0, 10.001059, 9.998834 
1.485004e+3, 2.1408287e+2, -868281.56, -975966.5, 11571.343, 0.035894934, 0.014372294, -867052.2, -25062.959, 0.0, 10.0002985, 9.998875 
1.4849803e+3, 2.240821e+2, -869300.06, -910030.94, 5800.3477, 0.031636115, 0.045308504, -868490.1, -124491.516, 0.0, 9.999551, 9.999015 
1.4849563e+3, 2.3408122e+2, -877339.75, -862481.56, 7340.6104, 0.020625763, 0.05945213, -859466.7, -213457.78, 0.0, 9.99882, 9.999021 
1.4849325e+3, 2.4408044e+2, -890056.4, -814656.9, 10779.068, 0.01024959, 0.08073297, -813146.2, -265127.2, 0.0, 9.998047, 9.999048 
1.4849088e+3, 2.5407976e+2, -913739.06, -775689.06, 12386.678, 0.0007165176, 0.110747896, -774586.44, -324557.5, 0.0, 9.997213, 9.999044 
1.4848849e+3, 2.6407933e+2, -883278.94, -632207.94, 8231.9795, -0.00994303, 0.13484259, -631938.4, -279903.03, 0.0, 9.996414, 9.999742 
1.484861e+3, 2.740793e+2, -889850.94, -577263.1, 2508.475, -0.02225511, 0.14916658, -577243.0, -323206.16, 0.0, 9.995666, 9.999806 
1.4848372e+3, 2.8407946e+2, -837786.75, -395109.97, 11378.402, -0.031603444, 0.14752966, -394817.7, -238783.05, 0.0, 9.994893, 10.000755 
1.4848137e+3, 2.9408002e+2, -850328.4, -340105.72, 11701.478, -0.036753144, 0.12227271, -339837.5, -281810.03, 0.0, 9.994091, 10.000847 
1.4847903e+3, 3.0408147e+2, -795310.25, -89390.49, 21110.537, -0.03899794, 0.10070401, -88759.75, -88759.75, 0.0, 9.993278, 10.0026245 
1.484767e+3, 3.1408405e+2, -907753.7, -131585.11, 19095.08, -0.036658313, 0.0887525, -131115.61, -131115.61, 0.0, 9.992455, 10.00273 
1.4952235e+3, 1.2412807e+2, -958612.6, -1707810.8, 8270.445, 0.05432969, 0.061056774, -958521.3, 765028.2, 0.0023993654, 10.006753, 9.996796 
1.4951977e+3, 1.3412462e+2, -964896.7, -1663702.4, -31206.602, -0.06672281, 0.0408317, -963505.9, 662075.2, 0.0013581058, 10.00604, 9.996771 
1.4951745e+3, 1.44121e+2, -953279.7, -1579403.9, -15470.886, 0.043914624, -0.005938067, -952897.6, 574717.44, 0.0005301967, 10.0053215, 9.997021 
1.4951499e+3, 1.5411806e+2, -958452.56, -1529601.8, -11317.067, 0.004060535, -0.0025057408, -958228.4, 471415.44, 0.000106463354, 10.004604, 9.997036 
1.4951254e+3, 1.6411535e+2, -928135.4, -1408764.4, -17575.219, -0.011805824, 0.0041473107, -927493.56, 404176.8, 0.000005008557, 10.003899, 9.997533 
1.4951015e+3, 1.74113e+2, -927560.7, -1353162.4, -18054.58, 0.008981165, 0.013419572, -926796.2, 306897.8, 0.0, 10.00321, 9.997574 
1.4950773e+3, 1.8411086e+2, -874282.2, -1185732.5, -23762.813, 0.023351546, 0.008985467, -872479.56, 263234.97, 0.0, 10.00251, 9.998388 
1.4950529e+3, 1.9410905e+2, -875469.56, -1127615.0, -19581.934, 0.027844924, -0.015881823, -873957.9, 163773.05, 0.0, 10.001795, 9.998459 
1.4950284e+3, 2.0410766e+2, -860903.4, -1032577.56, -14931.982, 0.032058116, -0.015946746, -859614.25, 80130.48, 0.0, 10.0010605, 9.998793 
1.4950041e+3, 2.1410677e+2, -871798.0, -984213.9, -16512.389, 0.03627148, 0.017329233, -869422.75, -27667.412, 0.0, 10.0003, 9.998817 
1.4949797e+3, 2.2410594e+2, -865344.94, -902667.44, -21214.94, 0.032834552, 0.043628428, -855751.7, -111986.44, 0.0, 9.999553, 9.999065 
1.4949551e+3, 2.3410515e+2, -872656.75, -853566.94, -19486.664, 0.018745732, 0.05878796, -841413.1, -195638.6, 0.0, 9.998822, 9.999082 
1.4949305e+3, 2.4410444e+2, -885810.0, -806577.6, -19529.111, 0.007097944, 0.08091585, -802025.6, -254241.94, 0.0, 9.998048, 9.9991045 
1.494906e+3, 2.541038e+2, -909560.06, -767653.3, -18179.107, -0.0011952906, 0.11135978, -765361.44, -315568.6, 0.0, 9.997214, 9.9991 
1.4948812e+3, 2.6410335e+2, -889995.5, -646850.7, -19330.453, -0.012663898, 0.13511531, -645323.44, -293523.97, 0.0, 9.996415, 9.999641 
1.4948566e+3, 2.741032e+2, -897556.0, -594272.56, -24710.79, -0.028691068, 0.14807956, -592272.4, -338469.75, 0.0, 9.995667, 9.999689 
1.494832e+3, 2.8410327e+2, -836631.44, -393835.0, -17741.37, -0.039745886, 0.14361458, -393125.28, -237323.78, 0.0, 9.994896, 10.000764 
1.4948077e+3, 2.9410383e+2, -848673.94, -337462.66, -17510.275, -0.043752793, 0.113712735, -336863.56, -279069.03, 0.0, 9.994092, 10.000865 
1.4947836e+3, 3.0410534e+2, -796599.3, -92260.48, -8932.137, -0.042167056, 0.10148355, -92147.23, -92147.23, 0.0, 9.993276, 10.002606 
1.4947595e+3, 3.141082e+2, -910153.0, -135648.63, -10999.463, -0.03248282, 0.11789992, -135492.44, -135492.44, 0.0, 9.992449, 10.002707 
1.5052302e+3, 1.2415242e+2, -959791.9, -1701470.1, 44343.88, 0.05912252, 0.0546452, -957150.06, 766161.06, 0.0026066739, 10.006719, 9.996855 
1.5052037e+3, 1.3414912e+2, -970358.2, -1658065.9, 2543.2512, -0.063548476, 0.043997534, -970348.75, 654992.3, 0.0014909734, 10.005969, 9.996842 
1.5051797e+3, 1.441456e+2, -964337.1, -1581023.0, 17564.066, 0.04392582, 0.0006575714, -963837.25, 563537.06, 0.0005945461, 10.005232, 9.997052 
1.5051544e+3, 1.5414274e+2, -969682.0, -1531791.0, 20563.19, 0.0038941975, 0.008945291, -968930.75, 460471.88, 0.00012595397, 10.004515, 9.997063 
1.5051293e+3, 1.6414003e+2, -941565.8, -1415151.1, 14958.174, -0.012843822, 0.015210773, -941093.8, 390335.44, 0.000007189684, 10.003808, 9.997532 
1.5051045e+3, 1.7413759e+2, -941964.2, -1360372.6, 15696.666, 0.0057810578, 0.016831238, -941376.1, 292077.63, 0.000000000000009480044, 10.003114, 9.99757 
1.5050796e+3, 1.8413547e+2, -883074.9, -1184577.1, 8469.59, 0.01968272, 0.011311034, -882837.1, 252637.06, 0.0, 10.002428, 9.998434 
1.5050545e+3, 1.9413379e+2, -878136.2, -1123060.9, 7747.8057, 0.02615124, -0.0054275026, -877891.4, 159597.83, 0.0, 10.001753, 9.998509 
1.5050294e+3, 2.0413242e+2, -862060.0, -1032039.8, 9372.33, 0.030647198, -0.0041109356, -861544.75, 77957.734, 0.0, 10.00105, 9.9988 
1.5050045e+3, 2.1413146e+2, -870643.4, -983024.9, 11816.377, 0.032785248, 0.020873005, -869414.4, -27900.611, 0.0, 10.000308, 9.998822 
1.5049793e+3, 2.2413059e+2, -864677.2, -896689.06, 8375.083, 0.029658794, 0.041350357, -862618.5, -119094.61, 0.0, 9.999535, 9.999114 
1.5049538e+3, 2.3412982e+2, -883995.1, -852862.06, 9047.249, 0.019192593, 0.054301266, -850423.9, -204891.31, 0.0, 9.998719, 9.999135 
1.5049285e+3, 2.4412915e+2, -897820.44, -809994.4, 7422.8545, 0.008032661, 0.077524744, -809371.44, -261830.31, 0.0, 9.997957, 9.999124 
1.5049031e+3, 2.541286e+2, -900477.9, -761189.1, 5448.6074, -0.0040766504, 0.11347716, -760976.4, -311426.6, 0.0, 9.99727, 9.999117 
1.5048777e+3, 2.6412815e+2, -875077.9, -641781.3, 4438.595, -0.01654142, 0.13657302, -641696.9, -290140.44, 0.0, 9.996529, 9.99962 
1.5048522e+3, 2.7412784e+2, -892501.56, -594541.1, 5549.415, -0.029669099, 0.14039917, -594437.8, -340877.16, 0.0, 9.995716, 9.999663 
1.5048268e+3, 2.841279e+2, -835000.2, -395097.9, 14521.168, -0.040841643, 0.13437706, -394619.1, -239059.1, 0.0, 9.994918, 10.000744 
1.5048018e+3, 2.9412848e+2, -842886.6, -336964.9, 11217.108, -0.04915472, 0.11361852, -336716.34, -279163.66, 0.0, 9.9941435, 10.000842 
1.5047768e+3, 3.0413008e+2, -790877.5, -97010.8, 14673.403, -0.048256367, 0.108517475, -96700.63, -96700.63, 0.0, 9.99335, 10.002537 
1.5047519e+3, 3.1413284e+2, -903524.8, -140716.47, 8179.2437, -0.034343768, 0.1287194, -140628.77, -140628.77, 0.0, 9.992532, 10.002631 
1.5152368e+3, 1.2417747e+2, -956635.56, -1696189.9, 17902.672, 0.05392746, 0.034974538, -956202.44, 766862.9, 0.00283393, 10.006723, 9.996889 
1.5152097e+3, 1.3417442e+2, -966391.06, -1650963.9, -24981.223, -0.06337716, 0.044186212, -965480.7, 659612.5, 0.0016380174, 10.005973, 9.99689 
1.5151848e+3, 1.4417103e+2, -963087.56, -1579405.0, -8841.163, 0.04456145, 0.011644211, -962960.8, 564164.6, 0.0006669723, 10.005235, 9.997064 
1.5151589e+3, 1.5416825e+2, -968734.25, -1530738.5, -5855.297, 0.004176312, 0.028290365, -968673.25, 460480.06, 0.00014856062, 10.004517, 9.99707 
1.5151331e+3, 1.6416556e+2, -940611.2, -1414079.8, -10706.651, -0.013023727, 0.033620026, -940369.2, 390810.84, 0.000010008065, 10.00381, 9.9975395 
1.5151076e+3, 1.7416298e+2, -941039.1, -1359368.4, -9833.386, 0.0046777893, 0.021505378, -940808.1, 292397.38, 0.00000000044431617, 10.003116, 9.997577 
1.515082e+3, 1.8416081e+2, -883676.0, -1186753.1, -16406.412, 0.019135853, 0.011952007, -882790.5, 252435.84, 0.0, 10.00243, 9.99842 
1.5150563e+3, 1.9415921e+2, -878951.2, -1125704.8, -17064.451, 0.028314654, 0.00464362, -877776.7, 159464.23, 0.0, 10.001755, 9.998491 
1.5150306e+3, 2.0415787e+2, -858041.56, -1024676.3, -17779.564, 0.03108382, 0.00811095, -856165.6, 83088.266, 0.0, 10.001052, 9.998851 
1.5150046e+3, 2.141569e+2, -866180.8, -974773.8, -15579.093, 0.02539925, 0.025024584, -863990.0, -22725.104, 0.0, 10.00031, 9.9988785 
1.5149787e+3, 2.24156e+2, -861532.06, -891050.9, -21502.688, 0.022118496, 0.038466446, -850210.7, -106935.93, 0.0, 9.9995365, 9.999153 
1.5149526e+3, 2.3415521e+2, -881072.3, -847547.5, -20988.914, 0.022039637, 0.045885354, -837448.94, -192165.61, 0.0, 9.99872, 9.999172 
1.5149266e+3, 2.4415457e+2, -899363.06, -813933.4, -18064.018, 0.013103595, 0.0704715, -810270.8, -262979.13, 0.0, 9.997958, 9.999097 
1.5149003e+3, 2.541541e+2, -902229.94, -765825.94, -19571.766, -0.008034247, 0.1171854, -763073.25, -313773.28, 0.0, 9.997272, 9.999084 
1.5148741e+3, 2.6415366e+2, -870653.75, -633721.56, -24934.293, -0.021619087, 0.13919936, -631126.0, -279819.34, 0.0, 9.9965315, 9.999675 
1.5148479e+3, 2.741532e+2, -887689.94, -585531.5, -24045.277, -0.024846131, 0.1256305, -583629.94, -330318.7, 0.0, 9.995718, 9.999725 
1.514822e+3, 2.8415325e+2, -838772.94, -403889.94, -13591.003, -0.03448103, 0.11948422, -403465.6, -248155.2, 0.0, 9.99492, 10.000683 
1.5147957e+3, 2.9415405e+2, -847557.6, -347793.53, -16727.516, -0.05291656, 0.122712575, -347234.28, -289932.25, 0.0, 9.994146, 10.000768 
1.5147701e+3, 3.0415556e+2, -799546.3, -116288.72, -14832.161, -0.05761811, 0.12211731, -115966.89, -115966.89, 0.0, 9.993353, 10.002404 
1.5147443e+3, 3.1415796e+2, -912707.06, -161132.92, -21443.818, -0.043068536, 0.11899597, -160521.6, -160521.6, 0.0, 9.992536, 10.00249 
1.5252435e+3, 1.24203555e+2, -933560.56, -1690598.8, 61975.58, 0.039283704, 0.018819705, -928520.44, 794288.56, 0.0030806176, 10.00691, 9.996837 
1.5252155e+3, 1.342006e+2, -952447.3, -1648583.6, 11571.65, -0.06773826, 0.043701176, -952255.0, 672581.3, 0.0017990166, 10.006091, 9.996849 
1.52519e+3, 1.4419726e+2, -958304.44, -1582763.9, 23694.012, 0.043113403, 0.018089065, -957406.7, 569462.2, 0.0007474126, 10.005294, 9.99701 
1.5251634e+3, 1.5419444e+2, -970341.75, -1537315.8, 22112.41, 0.002291731, 0.039233685, -969480.7, 459416.66, 0.00017422556, 10.004533, 9.997016 
1.5251368e+3, 1.6419174e+2, -939084.3, -1406148.0, 17570.35, -0.01470075, 0.044568516, -938424.3, 392499.97, 0.000013480617, 10.003791, 9.9976015 
1.5251108e+3, 1.7418918e+2, -942295.56, -1351734.6, 22938.96, 0.003843523, 0.026370566, -941014.4, 291934.88, 0.0000000035348944, 10.003074, 9.997648 
1.5250844e+3, 1.8418705e+2, -892117.8, -1187505.0, 20546.385, 0.01984336, 0.014962496, -890695.56, 244274.11, 0.0, 10.002359, 9.998447 
1.525058e+3, 1.941855e+2, -892812.6, -1129717.4, 22649.172, 0.031531513, 0.011686862, -890666.7, 146317.13, 0.0, 10.00165, 9.998513 
1.5250315e+3, 2.0418417e+2, -870362.4, -1025968.94, 22085.426, 0.034420446, 0.0137323085, -867288.5, 71708.14, 0.0, 10.000949, 9.998891 
1.525005e+3, 2.1418314e+2, -870822.75, -972234.6, 22731.94, 0.02567697, 0.021585789, -865960.44, -24952.72, 0.0, 10.000259, 9.9989195 
1.5249781e+3, 2.2418223e+2, -858208.8, -886508.5, 13087.858, 0.020315148, 0.031145766, -853084.06, -110066.67, 0.0, 9.999549, 9.999177 
1.5249513e+3, 2.3418151e+2, -866634.06, -837819.3, 11930.136, 0.019525753, 0.041751463, -833521.06, -188495.77, 0.0, 9.99881, 9.999195 
1.5249245e+3, 2.4418086e+2, -888592.1, -812090.0, 15096.463, 0.010801068, 0.06768758, -809218.75, -262185.13, 0.0, 9.998049, 9.999064 
1.5248975e+3, 2.5418034e+2, -906638.3, -771740.9, 12961.939, -0.008937434, 0.1131851, -770506.7, -321464.06, 0.0, 9.99726, 9.999049 
1.5248705e+3, 2.641799e+2, -871530.0, -627010.0, 6025.9175, -0.02190323, 0.13305925, -626861.6, -275812.22, 0.0, 9.996497, 9.999737 
1.5248436e+3, 2.7417943e+2, -875374.75, -571591.94, 6936.512, -0.025494985, 0.11616913, -571433.6, -318380.44, 0.0, 9.99577, 9.999794 
1.5248168e+3, 2.8417954e+2, -828531.06, -407660.2, 16762.934, -0.036126606, 0.112028375, -406993.6, -251941.48, 0.0, 9.99503, 10.000603 
1.52479e+3, 2.941803e+2, -836047.4, -352687.9, 11606.441, -0.05647612, 0.12469989, -352409.38, -295365.06, 0.0, 9.994272, 10.000672 
1.5247633e+3, 3.0418172e+2, -784799.06, -113603.695, 13083.553, -0.062495712, 0.123487376, -113348.75, -113348.75, 0.0, 9.993476, 10.002362 
1.5247369e+3, 3.1418395e+2, -902496.44, -160414.58, 13719.012, -0.048587915, 0.10527862, -160161.03, -160161.03, 0.0, 9.992626, 10.00245 
1.5352501e+3, 1.2423062e+2, -943276.4, -1711166.0, 32526.969, 0.015942866, 0.0060214945, -941901.06, 780641.7, 0.0033453796, 10.006911, 9.9966955 
1.5352215e+3, 1.3422766e+2, -961493.8, -1667954.4, -18704.137, -0.07625563, 0.042548884, -960998.94, 663571.9, 0.001973131, 10.006092, 9.9967165 
1.5351953e+3, 1.4422421e+2, -966357.75, -1600239.6, -4258.1274, 0.039697688, 0.0202695, -966329.2, 560275.75, 0.00083552185, 10.005296, 9.996891 
1.5351678e+3, 1.542213e+2, -978151.75, -1554594.9, -5621.6836, -0.0016694362, 0.04228158, -978096.94, 450538.06, 0.00020290182, 10.004536, 9.996898 
1.5351406e+3, 1.642186e+2, -930973.5, -1390433.5, -8678.414, -0.017818883, 0.04851158, -930809.7, 399852.4, 0.000017635586, 10.003794, 9.997709 
1.5351136e+3, 1.7421617e+2, -932944.44, -1333326.8, -3351.487, 0.003268397, 0.031470705, -932916.4, 299768.94, 0.000000014987886, 10.003076, 9.997775 
1.5350866e+3, 1.8421413e+2, -887341.06, -1178624.9, -5580.6284, 0.021748362, 0.020232543, -887234.2, 247470.3, 0.0, 10.002362, 9.998508 
1.5350597e+3, 1.9421262e+2, -888458.44, -1121827.3, -3479.9158, 0.035762448, 0.01574741, -888406.56, 148311.73, 0.0, 10.001653, 9.998568 
1.5350325e+3, 2.042113e+2, -868375.3, -1022989.4, -3365.146, 0.040647756, 0.012837679, -868302.1, 70428.94, 0.0, 10.000952, 9.998911 
1.5350051e+3, 2.1421015e+2, -869092.06, -969718.5, -2662.6157, 0.033614837, 0.01055089, -869021.7, -28279.18, 0.0, 10.000262, 9.998937 
1.5349777e+3, 2.2420926e+2, -857624.4, -886311.06, -13961.362, 0.024177177, 0.019401014, -851951.44, -109199.52, 0.0, 9.999551, 9.999179 
1.53495e+3, 2.3420864e+2, -866075.2, -837750.44, -15134.13, 0.011440801, 0.04204953, -831185.6, -186426.86, 0.0, 9.998813, 9.999195 
1.5349224e+3, 2.4420801e+2, -891325.9, -818835.56, -13661.708, 0.0009590766, 0.06920494, -816346.3, -269579.03, 0.0, 9.998052, 9.999019 
1.5348947e+3, 2.5420728e+2, -909687.7, -778942.4, -15882.835, -0.0066016098, 0.10103968, -777040.6, -328262.53, 0.0, 9.997262, 9.999 
1.5348671e+3, 2.642068e+2, -866966.44, -618383.2, -20519.227, -0.017252324, 0.117781855, -616700.8, -265915.8, 0.0, 9.996499, 9.999796 
1.5348394e+3, 2.7420658e+2, -870022.9, -561651.0, -19290.67, -0.032100018, 0.11242981, -560448.94, -307662.16, 0.0, 9.995773, 9.999862 
1.5348117e+3, 2.842067e+2, -835492.44, -423564.2, -10511.58, -0.04638496, 0.11239597, -423296.13, -268510.72, 0.0, 9.995034, 10.000493 
1.5347841e+3, 2.9420725e+2, -844066.44, -371007.63, -15738.804, -0.059813004, 0.11882281, -370484.56, -313704.6, 0.0, 9.994278, 10.0005455 
1.5347567e+3, 3.0420858e+2, -780236.6, -105904.98, -17389.549, -0.06254211, 0.11149538, -105456.836, -105456.836, 0.0, 9.993481, 10.002414 
1.5347295e+3, 3.142108e+2, -897091.56, -150835.7, -16712.123, -0.050682668, 0.08719911, -150461.63, -150461.63, 0.0, 9.992631, 10.002515 
1.5452568e+3, 1.2425861e+2, -938477.75, -1713125.4, 54719.383, -0.00006378058, 0.012180698, -934631.6, 787636.9, 0.003627736, 10.006968, 9.9966545 
1.5452276e+3, 1.3425559e+2, -960211.4, -1669686.1, 9881.828, -0.07944761, 0.046267428, -960073.8, 664223.44, 0.002160041, 10.006114, 9.996693 
1.5452005e+3, 1.4425203e+2, -964591.75, -1600573.8, 35262.94, 0.039697748, 0.01645441, -962642.56, 563689.7, 0.0009312057, 10.005315, 9.996878 
1.5451723e+3, 1.5424904e+2, -970819.94, -1552263.3, 41485.125, -0.0036760217, 0.031330165, -967874.94, 460488.1, 0.00023471306, 10.004593, 9.996885 
1.5451443e+3, 1.6424634e+2, -922648.56, -1384851.1, 38729.53, -0.019117458, 0.03910581, -919425.75, 410964.3, 0.000022544038, 10.003846, 9.997722 
1.5451168e+3, 1.7424405e+2, -933806.75, -1332104.6, 35521.168, 0.005937002, 0.035263017, -930663.7, 301748.63, 0.000000045767894, 10.003064, 9.997787 
1.5450892e+3, 1.842421e+2, -890585.6, -1178952.9, 29118.385, 0.02549045, 0.031153457, -887674.7, 246756.23, 0.0, 10.0023365, 9.998518 
1.5450613e+3, 1.9424058e+2, -884371.4, -1118802.6, 27642.07, 0.036782205, 0.025697058, -881156.2, 155288.75, 0.0, 10.001678, 9.998574 
1.5450333e+3, 2.0423923e+2, -859339.0, -1012750.2, 25718.123, 0.041039567, 0.018413514, -855142.4, 83315.3, 0.0, 10.000991, 9.998961 
1.5450054e+3, 2.1423806e+2, -865343.94, -961668.2, 28769.078, 0.03623355, 0.0071776705, -857405.7, -16936.82, 0.0, 10.000262, 9.99899 
1.5449771e+3, 2.2423717e+2, -860192.1, -889953.56, 17227.713, 0.027834386, 0.014744565, -852308.2, -109830.055, 0.0, 9.999546, 9.999155 
1.5449488e+3, 2.342366e+2, -863711.7, -839650.1, 13379.767, 0.014503497, 0.046305418, -833687.7, -189202.83, 0.0, 9.998844, 9.999166 
1.5449204e+3, 2.4423595e+2, -881270.4, -810425.4, 13635.427, 0.0029257284, 0.072312675, -807891.6, -261398.14, 0.0, 9.998107, 9.999048 
1.5448919e+3, 2.5423512e+2, -897915.8, -768998.3, 17274.77, -0.006209837, 0.089351416, -766723.6, -318218.7, 0.0, 9.997326, 9.999036 
1.5448636e+3, 2.6423463e+2, -854351.3, -610498.0, 16595.797, -0.018331252, 0.103430286, -609373.75, -258862.05, 0.0, 9.99658, 9.99981 
1.5448351e+3, 2.7423453e+2, -853758.94, -552345.5, 13249.417, -0.03470177, 0.11196334, -551764.2, -299251.9, 0.0, 9.995881, 9.999873 
1.5448067e+3, 2.8423464e+2, -823833.94, -422387.4, 19273.04, -0.048472837, 0.115088284, -421464.25, -266953.3, 0.0, 9.995135, 10.000451 
1.5447785e+3, 2.9423508e+2, -840032.3, -374151.72, 19472.03, -0.058525074, 0.11019376, -373339.28, -316832.22, 0.0, 9.994329, 10.000498 
1.5447502e+3, 3.042363e+2, -768148.9, -99032.15, 18864.793, -0.061959054, 0.09690604, -98500.7, -98500.7, 0.0, 9.993562, 10.00242 
1.544722e+3, 3.1423855e+2, -865428.1, -134289.67, 14822.139, -0.056451518, 0.07377804, -133989.31, -133989.31, 0.0, 9.992845, 10.002524 
1.5552637e+3, 1.24287456e+2, -936680.25, -1707862.3, 23898.27, -0.009602563, 0.035566863, -935940.4, 786046.25, 0.0039295233, 10.006961, 9.996695 
1.5552337e+3, 1.3428435e+2, -955821.94, -1660202.5, -21834.238, -0.07780445, 0.05433311, -955145.75, 668869.94, 0.002360911, 10.006111, 9.99676 
1.5552059e+3, 1.4428069e+2, -959052.56, -1589452.5, 8375.668, 0.04280233, 0.0070286784, -958941.3, 567109.8, 0.0010351159, 10.005315, 9.996956 
1.5551768e+3, 1.5427762e+2, -965013.7, -1540934.6, 14888.992, -0.0038890466, 0.0072166603, -964629.06, 463452.88, 0.00027002738, 10.004594, 9.9969635 
1.5551482e+3, 1.6427495e+2, -928363.1, -1397734.8, 10033.315, -0.018697852, 0.017163225, -928148.75, 401960.03, 0.000028309698, 10.003848, 9.997633 
1.5551199e+3, 1.742728e+2, -940397.3, -1347131.6, 6683.1196, 0.01170382, 0.03790803, -940287.56, 291843.13, 0.0000001089748, 10.003068, 9.9976845 
1.5550914e+3, 1.8427092e+2, -893270.1, -1185942.0, 4639.663, 0.030947542, 0.047540504, -893196.56, 240952.83, 0.0, 10.00234, 9.998468 
1.5550628e+3, 1.9426934e+2, -886958.7, -1125434.5, 3523.081, 0.034610637, 0.041388676, -886906.6, 149257.38, 0.0, 10.001681, 9.9985285 
1.5550344e+3, 2.0426796e+2, -853653.5, -1002111.7, -891.90564, 0.035651952, 0.0303705, -853648.1, 84528.66, 0.0, 10.000994, 9.999035 
1.5550056e+3, 2.142668e+2, -859040.9, -949696.25, 1966.6427, 0.033519343, 0.011442943, -858998.2, -18811.006, 0.0, 10.000265, 9.999072 
1.5549769e+3, 2.242659e+2, -863738.56, -898421.9, -8633.436, 0.031348545, 0.017199356, -861708.4, -119512.05, 0.0, 9.999548, 9.999097 
1.5549478e+3, 2.3426534e+2, -867994.9, -849657.25, -12305.859, 0.029020667, 0.05456319, -843480.0, -199276.3, 0.0, 9.998846, 9.999097 
1.5549186e+3, 2.4426465e+2, -873660.0, -795726.56, -14739.174, 0.016937248, 0.07703681, -793032.2, -246819.61, 0.0, 9.99811, 9.999148 
1.5548892e+3, 2.5426376e+2, -889230.2, -752127.94, -11161.284, -0.008011902, 0.07809436, -751225.25, -303001.78, 0.0, 9.997329, 9.999151 
1.5548602e+3, 2.6426327e+2, -856827.44, -616972.4, -8874.506, -0.025427317, 0.09003159, -616644.44, -266414.66, 0.0, 9.996583, 9.999765 
1.554831e+3, 2.742633e+2, -857121.3, -560870.25, -11959.179, -0.033002265, 0.11498926, -560388.25, -308158.16, 0.0, 9.995886, 9.999813 
1.5548019e+3, 2.8426343e+2, -821380.8, -418863.25, -9694.778, -0.04184408, 0.12023656, -418629.88, -264401.0, 0.0, 9.99514, 10.000474 
1.5547729e+3, 2.942637e+2, -837277.06, -369853.56, -9598.856, -0.052265704, 0.09843406, -369656.5, -313430.7, 0.0, 9.994333, 10.000526 
1.5547438e+3, 3.042649e+2, -770801.1, -106355.28, -6796.523, -0.06077129, 0.0794189, -106285.766, -106285.766, 0.0, 9.993567, 10.002369 
1.5547149e+3, 3.1426716e+2, -868143.25, -142754.89, -10596.809, -0.06658438, 0.06542757, -142600.13, -142600.13, 0.0, 9.992854, 10.002462 
1.5652706e+3, 1.24316834e+2, -963611.06, -1711824.6, 42879.777, -0.011279566, 0.046652492, -961161.6, 760537.9, 0.0042539714, 10.006741, 9.996773 
1.5652397e+3, 1.3431376e+2, -966594.6, -1653048.5, -1192.8007, -0.07919854, 0.05880157, -966592.56, 657135.2, 0.0025778196, 10.005987, 9.996868 
1.5652111e+3, 1.4431015e+2, -961571.4, -1580649.1, 33967.89, 0.040157758, 0.006085697, -959713.2, 566049.3, 0.0011483742, 10.005258, 9.997043 
1.5651815e+3, 1.5430717e+2, -963991.5, -1530594.5, 40847.09, -0.0025111001, 0.0078101913, -961061.94, 466730.13, 0.00030929962, 10.004561, 9.997049 
1.565152e+3, 1.6430455e+2, -929547.94, -1405089.9, 36049.766, -0.015882794, 0.020671612, -926830.6, 402988.03, 0.0000350196, 10.003872, 9.997571 
1.5651229e+3, 1.7430237e+2, -928218.3, -1349450.5, 34328.047, 0.012278182, 0.046305407, -925439.06, 306402.38, 0.00000021492174, 10.003189, 9.997609 
1.5650937e+3, 1.8430044e+2, -872418.4, -1175811.9, 35897.793, 0.030078536, 0.056076385, -868228.75, 265632.1, 0.0, 10.002485, 9.998467 
1.5650646e+3, 1.942988e+2, -876814.0, -1120096.6, 38100.0, 0.03336162, 0.04387422, -870986.8, 164889.02, 0.0, 10.001751, 9.99853 
1.5650353e+3, 2.042974e+2, -845597.9, -994984.94, 33196.9, 0.035229478, 0.030220574, -838553.06, 99335.375, 0.0, 10.001037, 9.999062 
1.565006e+3, 2.1429628e+2, -845204.44, -939639.4, 31655.65, 0.03561002, 0.013026301, -835575.0, 4323.171, 0.0, 10.000348, 9.999101 
1.5649763e+3, 2.2429538e+2, -856829.06, -898721.4, 17914.992, 0.036025196, 0.019184772, -850212.75, -108305.44, 0.0, 9.999614, 9.999063 
1.5649466e+3, 2.3429476e+2, -874433.5, -856849.75, 16020.666, 0.03639515, 0.055050004, -847367.1, -203451.38, 0.0, 9.998822, 9.999058 
1.5649168e+3, 2.4429406e+2, -871266.44, -783020.94, 14921.024, 0.023611968, 0.07573156, -780566.25, -234641.8, 0.0, 9.998078, 9.999249 
1.5648866e+3, 2.542933e+2, -871181.1, -730573.9, 17910.693, -0.006526811, 0.074612774, -728328.25, -280394.4, 0.0, 9.997399, 9.999264 
1.5648566e+3, 2.6429284e+2, -845577.5, -618469.6, 19357.316, -0.025971781, 0.088435024, -616831.56, -266891.9, 0.0, 9.996693, 9.9997015 
1.5648268e+3, 2.7429286e+2, -853384.25, -567610.4, 14446.061, -0.03132479, 0.120694764, -566881.94, -314941.2, 0.0, 9.99595, 9.999735 
1.564797e+3, 2.8429297e+2, -809952.5, -411892.66, 13387.402, -0.040229116, 0.12676395, -411442.94, -257502.83, 0.0, 9.995214, 10.000484 
1.564767e+3, 2.9429317e+2, -813607.9, -356387.84, 11970.227, -0.05379433, 0.097371995, -356074.66, -300137.44, 0.0, 9.99449, 10.000543 
1.5647373e+3, 3.0429432e+2, -746614.7, -97408.414, 15794.383, -0.063328825, 0.07611339, -97024.38, -97024.38, 0.0, 9.993747, 10.002342 
1.5647076e+3, 3.142966e+2, -851836.7, -138326.89, 13911.035, -0.06752409, 0.06683393, -138055.77, -138055.77, 0.0, 9.992983, 10.00243 
1.5752771e+3, 1.2434675e+2, -957440.56, -1697583.5, 15866.919, -0.0062776315, 0.047030594, -957100.6, 764306.44, 0.0046037342, 10.006734, 9.996875 
1.5752456e+3, 1.3434383e+2, -957233.8, -1633631.5, -28988.158, -0.08346566, 0.06005278, -955993.75, 667439.9, 0.0028124498, 10.005987, 9.997003 
1.5752162e+3, 1.4434038e+2, -955127.9, -1567990.1, 8257.47, 0.032260034, 0.013092751, -955016.6, 570450.0, 0.001271863, 10.005259, 9.99713 
1.5751861e+3, 1.5433764e+2, -957799.4, -1518460.8, 15111.704, 0.00039344234, 0.03156287, -957392.4, 470101.44, 0.00035282422, 10.004561, 9.997133 
1.5751559e+3, 1.6433509e+2, -932500.8, -1412001.4, 10805.573, -0.010893704, 0.048028376, -932257.44, 397262.56, 0.00004268223, 10.003873, 9.997524 
1.5751259e+3, 1.7433272e+2, -931815.25, -1357827.4, 9205.893, 0.0077990983, 0.060020175, -931616.44, 299928.56, 0.00000036802695, 10.003191, 9.997552 
1.5750962e+3, 1.8433064e+2, -869411.75, -1170588.1, 9037.304, 0.023117252, 0.056984033, -869140.8, 264424.75, 0.0, 10.002487, 9.998504 
1.5750663e+3, 1.9432893e+2, -873403.25, -1114182.0, 11109.137, 0.033045672, 0.03342663, -872891.8, 162688.83, 0.0, 10.001754, 9.998571 
1.5750362e+3, 2.0432752e+2, -847020.4, -999128.6, 7760.1685, 0.039686356, 0.01818373, -846625.5, 90967.49, 0.0, 10.0010395, 9.999033 
1.5750062e+3, 2.1432647e+2, -847041.4, -944616.1, 6357.458, 0.042464893, 0.01200644, -846628.9, -7026.7095, 0.0, 10.000351, 9.999066 
1.574976e+3, 2.2432558e+2, -857647.2, -901545.4, -11010.197, 0.04176099, 0.020625914, -855040.5, -113428.99, 0.0, 9.999617, 9.9990425 
1.5749454e+3, 2.3432484e+2, -875146.44, -859372.0, -13028.393, 0.03637377, 0.047492508, -852029.44, -208408.28, 0.0, 9.998824, 9.999042 
1.5749148e+3, 2.4432419e+2, -864310.06, -769660.3, -10031.798, 0.022755876, 0.0682761, -768608.75, -222979.22, 0.0, 9.998081, 9.999342 
1.574884e+3, 2.5432363e+2, -863463.06, -715898.06, -6669.757, -0.0015597191, 0.07938109, -715597.25, -267960.84, 0.0, 9.997403, 9.999364 
1.5748534e+3, 2.6432326e+2, -851375.6, -632010.3, -7528.0713, -0.019696124, 0.09923242, -631752.25, -282110.63, 0.0, 9.996696, 9.999607 
1.5748228e+3, 2.7432317e+2, -860259.3, -583313.1, -12578.109, -0.029778127, 0.12912075, -582743.0, -331098.28, 0.0, 9.995954, 9.999626 
1.5747921e+3, 2.843232e+2, -809972.44, -413529.0, -12936.0625, -0.044129014, 0.13481472, -413107.34, -259462.33, 0.0, 9.995219, 10.000473 
1.5747614e+3, 2.9432338e+2, -812873.25, -357064.06, -14268.638, -0.06397404, 0.10813794, -356617.84, -300976.25, 0.0, 9.994496, 10.000535 
1.574731e+3, 3.0432457e+2, -745726.25, -98118.8, -11861.435, -0.07002975, 0.08850163, -97901.62, -97901.62, 0.0, 9.993755, 10.002335 
1.5747006e+3, 3.1432685e+2, -851229.56, -139480.66, -13754.958, -0.058162823, 0.07897698, -139214.92, -139214.92, 0.0, 9.992991, 10.002419 
1.5852839e+3, 1.24377355e+2, -981083.1, -1702929.0, 49704.273, -0.003302242, 0.036744937, -977676.7, 743430.1, 0.004979943, 10.00655, 9.996926 
1.5852514e+3, 1.3437459e+2, -957857.3, -1624459.5, 299.77563, -0.08528058, 0.056984264, -957857.2, 665275.06, 0.0030654273, 10.005945, 9.997085 
1.5852214e+3, 1.4437124e+2, -950824.6, -1561982.6, 31886.988, 0.026775362, 0.015914043, -949165.44, 575998.75, 0.0014058645, 10.005275, 9.997163 
1.5851904e+3, 1.5436864e+2, -961339.44, -1516597.8, 34315.074, 0.000045552923, 0.042071506, -959226.8, 467963.8, 0.00040068023, 10.004524, 9.997163 
1.5851596e+3, 1.6436611e+2, -941361.5, -1414533.0, 31120.234, -0.0077974936, 0.05984582, -939323.5, 389893.16, 0.000051237876, 10.003807, 9.997538 
1.5851292e+3, 1.7436366e+2, -940542.1, -1360533.5, 34147.063, 0.011707944, 0.064908, -937783.94, 293458.4, 0.00000056876996, 10.003127, 9.997563 
1.5850987e+3, 1.8436159e+2, -871583.75, -1165099.5, 36015.64, 0.025593108, 0.058286574, -867229.06, 266033.8, 0.0, 10.002446, 9.99856 
1.585068e+3, 1.9435994e+2, -868016.75, -1104953.4, 38833.918, 0.031439435, 0.035591267, -861814.25, 173462.8, 0.0, 10.001764, 9.998629 
1.5850373e+3, 2.0435855e+2, -846493.2, -999796.56, 35801.164, 0.039006237, 0.021546986, -838544.6, 98744.39, 0.0, 10.00105, 9.9990225 
1.5850066e+3, 2.1435751e+2, -856959.06, -950849.06, 35416.965, 0.049028337, 0.017133145, -845097.7, -5799.3936, 0.0, 10.000291, 9.999051 
1.5849756e+3, 2.2435656e+2, -863383.25, -905831.44, 18760.426, 0.048485424, 0.022536447, -856280.44, -114972.266, 0.0, 9.999586, 9.999027 
1.5849443e+3, 2.3435572e+2, -858252.44, -852605.7, 16562.482, 0.034314107, 0.03942582, -838627.6, -195308.78, 0.0, 9.998948, 9.999026 
1.5849128e+3, 2.4435508e+2, -832776.0, -749249.06, 18268.53, 0.018631868, 0.062368203, -745428.25, -200101.27, 0.0, 9.998278, 9.999386 
1.5848815e+3, 2.5435475e+2, -836606.9, -697237.94, 17364.195, 0.00098378, 0.091303855, -695107.1, -247775.22, 0.0, 9.997565, 9.9994135 
1.5848501e+3, 2.6435444e+2, -831621.2, -627244.06, 14725.344, -0.01570365, 0.11620614, -626188.5, -276851.75, 0.0, 9.996855, 9.999562 
1.5848187e+3, 2.7435413e+2, -835666.8, -576969.2, 13594.52, -0.031164773, 0.13466974, -576256.75, -324915.03, 0.0, 9.996148, 9.999575 
1.5847874e+3, 2.843541e+2, -779193.6, -401380.63, 15098.326, -0.048550796, 0.13610603, -400778.22, -247435.33, 0.0, 9.995444, 10.000446 
1.584756e+3, 2.9435435e+2, -778898.25, -343374.75, 11912.041, -0.06840691, 0.11466653, -343049.2, -287709.97, 0.0, 9.994743, 10.000509 
1.5847248e+3, 3.043555e+2, -715735.5, -91541.77, 8239.492, -0.07379324, 0.10128039, -91433.03, -91433.03, 0.0, 9.993998, 10.002262 
1.5846938e+3, 3.1435776e+2, -827116.0, -136346.31, 505.3564, -0.060406197, 0.09890756, -136345.95, -136345.95, 0.0, 9.993196, 10.002341 
1.5952905e+3, 1.2440866e+2, -981578.3, -1703803.8, 27988.422, -0.0023341766, 0.017301153, -980495.3, 740304.0, 0.00538249, 10.006549, 9.996922 
1.5952575e+3, 1.3440603e+2, -956239.3, -1621216.9, -21904.035, -0.08488094, 0.050057437, -955518.56, 667305.06, 0.00333674, 10.005945, 9.997108 
1.5952265e+3, 1.4440276e+2, -952597.4, -1566086.5, 4670.3438, 0.02340774, 0.014820297, -952561.9, 572293.7, 0.0015504523, 10.005275, 9.997136 
1.595195e+3, 1.544001e+2, -962976.75, -1520999.4, 6770.688, -0.0034085454, 0.04021843, -962894.6, 463988.13, 0.00045298392, 10.004527, 9.997133 
1.5951635e+3, 1.6439757e+2, -936471.7, -1405587.8, 6073.9604, -0.006426529, 0.057120394, -936393.06, 392515.8, 0.000060666316, 10.003809, 9.997599 
1.5951324e+3, 1.743952e+2, -935341.7, -1350811.5, 9194.296, 0.023677267, 0.061436262, -935138.3, 295795.44, 0.00000081988253, 10.003129, 9.99763 
1.595101e+3, 1.8439323e+2, -866507.75, -1155579.1, 10970.906, 0.037056513, 0.060039796, -866092.0, 266861.13, 0.0, 10.002448, 9.998626 
1.5950698e+3, 1.9439177e+2, -863063.1, -1095745.4, 13777.92, 0.028453605, 0.05014698, -862250.1, 172715.39, 0.0, 10.001767, 9.998692 
1.5950382e+3, 2.0439047e+2, -846066.9, -1000042.8, 8019.832, 0.033267222, 0.040017556, -845650.3, 91326.52, 0.0, 10.001052, 9.999021 
1.5950069e+3, 2.1438934e+2, -856811.2, -951717.2, 7513.5835, 0.055319697, 0.028283305, -856220.0, -17233.18, 0.0, 10.000294, 9.999045 
1.5949753e+3, 2.2438829e+2, -864294.6, -908953.06, -4801.922, 0.056153245, 0.024881793, -863784.1, -122786.555, 0.0, 9.999588, 9.999005 
1.5949431e+3, 2.3438731e+2, -859041.0, -855642.7, -6577.1104, 0.030108575, 0.030831024, -850548.8, -207539.56, 0.0, 9.998952, 9.999005 
1.594911e+3, 2.443867e+2, -832965.25, -751218.8, -7523.4766, 0.01109253, 0.058115505, -750532.1, -205514.84, 0.0, 9.9982815, 9.999372 
1.594879e+3, 2.5438657e+2, -836755.7, -699178.0, -8602.8545, 0.00096125045, 0.11075074, -698642.2, -251621.39, 0.0, 9.99757, 9.999399 
1.594847e+3, 2.643863e+2, -830738.8, -627206.3, -11013.3125, -0.014182436, 0.13962689, -626612.1, -277586.56, 0.0, 9.9968605, 9.999561 
1.5948148e+3, 2.743858e+2, -834471.06, -576598.0, -12001.895, -0.035770807, 0.13702522, -576040.6, -325008.56, 0.0, 9.996155, 9.999576 
1.5947828e+3, 2.8438565e+2, -781459.94, -408557.53, -10261.712, -0.053558312, 0.13004683, -408275.34, -255241.22, 0.0, 9.995452, 10.000395 
1.5947507e+3, 2.9438594e+2, -781314.0, -351248.38, -13431.138, -0.06651574, 0.11651006, -350829.3, -295798.75, 0.0, 9.994753, 10.000452 
1.5947187e+3, 3.043871e+2, -724879.7, -113565.8, -20855.697, -0.07450835, 0.11451244, -112855.1, -112855.1, 0.0, 9.994008, 10.002107 
1.5946868e+3, 3.1438935e+2, -836909.94, -159703.19, -28920.715, -0.07607989, 0.12764129, -158470.34, -158470.34, 0.0, 9.993206, 10.002176 
1.6052969e+3, 1.24440834e+2, -984136.56, -1708809.6, 62113.04, -0.005259494, 0.006965071, -978851.3, 741632.06, 0.0058109737, 10.006553, 9.996883 
1.6052634e+3, 1.3443825e+2, -963391.56, -1625323.6, 9194.929, -0.08262574, 0.04550512, -963263.9, 659243.9, 0.0036266309, 10.005903, 9.997099 
1.6052318e+3, 1.4443502e+2, -957317.25, -1566661.3, 32747.506, 0.023184167, 0.014142175, -955562.4, 568977.2, 0.0017061445, 10.005238, 9.9971485 
1.6051993e+3, 1.5443237e+2, -957172.2, -1516345.6, 37377.965, -0.007591905, 0.041494787, -954684.75, 471881.88, 0.0005101804, 10.004561, 9.997147 
1.6051672e+3, 1.6442986e+2, -928759.75, -1399502.5, 36451.73, -0.011010638, 0.05806573, -925953.8, 402638.9, 0.00007111843, 10.003855, 9.997617 
1.6051355e+3, 1.7442748e+2, -936986.75, -1349205.9, 35679.41, 0.022829289, 0.05942794, -933921.3, 296696.38, 0.0000011367359, 10.00311, 9.997649 
1.6051035e+3, 1.8442553e+2, -875720.94, -1159003.1, 33881.277, 0.0383143, 0.060786646, -871725.0, 260911.81, 0.0, 10.002383, 9.998632 
1.6050713e+3, 1.944242e+2, -875919.9, -1101214.0, 31928.117, 0.029771527, 0.060876507, -871482.5, 163166.08, 0.0, 10.001678, 9.998695 
1.6050392e+3, 2.0442292e+2, -856181.6, -1004240.6, 22590.943, 0.03373363, 0.05584438, -852811.4, 83848.22, 0.0, 10.000982, 9.999024 
1.605007e+3, 2.144218e+2, -856212.75, -950780.1, 22283.79, 0.05391448, 0.04303999, -851224.9, -12555.108, 0.0, 10.000298, 9.999048 
1.6049747e+3, 2.244207e+2, -855839.5, -900243.4, 14889.048, 0.053992175, 0.034120243, -851309.25, -110628.59, 0.0, 9.999629, 9.999044 
1.6049421e+3, 2.3441964e+2, -851977.9, -847222.3, 17745.697, 0.028652875, 0.028898824, -831695.8, -189003.28, 0.0, 9.9989805, 9.999048 
1.6049093e+3, 2.4441907e+2, -830172.44, -751930.7, 16529.852, 0.011392891, 0.057230357, -748581.9, -203881.36, 0.0, 9.998312, 9.9993515 
1.6048765e+3, 2.544191e+2, -831765.9, -699291.06, 14149.144, 0.0043800166, 0.12596875, -697796.7, -251093.16, 0.0, 9.997617, 9.999374 
1.6048439e+3, 2.6441884e+2, -815830.75, -611762.8, 13966.425, -0.011588387, 0.157845, -610811.4, -262103.34, 0.0, 9.996929, 9.999634 
1.604811e+3, 2.7441826e+2, -815064.44, -558286.2, 18561.795, -0.038926408, 0.14196886, -556951.3, -306236.84, 0.0, 9.996252, 9.999654 
1.6047782e+3, 2.8441808e+2, -768342.56, -410246.38, 22538.209, -0.057611674, 0.13219705, -408833.4, -256116.73, 0.0, 9.995579, 10.00032 
1.6047455e+3, 2.944184e+2, -764175.8, -352240.0, 16876.959, -0.06544489, 0.12916537, -351549.72, -296836.22, 0.0, 9.994913, 10.000367 
1.6047128e+3, 3.044195e+2, -696715.4, -115094.64, 7534.676, -0.077513576, 0.13288732, -114997.05, -114997.05, 0.0, 9.994268, 10.001969 
1.60468e+3, 3.144216e+2, -781783.1, -148909.02, 617.99567, -0.09482423, 0.14560236, -148908.4, -148908.4, 0.0, 9.993654, 10.002033 
1.6153033e+3, 1.2447385e+2, -989536.1, -1720138.6, 37927.574, -0.011861198, 0.0049554463, -987572.5, 732587.0, 0.0062658293, 10.006554, 9.996806 
1.6152692e+3, 1.3447121e+2, -966656.56, -1632524.9, -15214.545, -0.07865197, 0.043095514, -966309.06, 655875.6, 0.0039361482, 10.005904, 9.99705 
1.615237e+3, 1.4446798e+2, -954423.4, -1561143.5, 7669.965, 0.025801126, 0.013917123, -954326.44, 569890.1, 0.0018741137, 10.005239, 9.997187 
1.6152039e+3, 1.5446544e+2, -953842.1, -1510038.5, 12232.8545, -0.012516897, 0.04570452, -953573.2, 472669.53, 0.00057310035, 10.004561, 9.997191 
1.6151708e+3, 1.6446294e+2, -930655.0, -1404275.0, 8927.517, -0.021256514, 0.062434193, -930486.8, 397781.9, 0.00008295446, 10.003856, 9.997585 
1.6151385e+3, 1.7446047e+2, -939007.5, -1354584.1, 8159.043, 0.009723596, 0.058809895, -938847.4, 291447.13, 0.0000015558323, 10.003112, 9.997612 
1.6151057e+3, 1.8445848e+2, -879287.06, -1167672.8, 7887.3926, 0.029839799, 0.0605811, -879071.5, 253242.78, 0.0, 10.002386, 9.998572 
1.615073e+3, 1.9445714e+2, -879805.1, -1110464.9, 6032.9995, 0.03539596, 0.06785452, -879647.44, 154679.13, 0.0, 10.00168, 9.998632 
1.6150402e+3, 2.0445591e+2, -855628.44, -1004313.44, -2581.7974, 0.040194888, 0.06909206, -855583.6, 80754.055, 0.0, 10.000985, 9.999023 
1.6150074e+3, 2.1445483e+2, -855407.4, -950367.75, -2796.885, 0.044657204, 0.06145087, -855325.06, -16977.65, 0.0, 10.0003, 9.999051 
1.6149743e+3, 2.2445376e+2, -848780.06, -886892.44, -8870.583, 0.041952692, 0.05033028, -846816.6, -106458.77, 0.0, 9.999632, 9.999136 
1.6149409e+3, 2.344527e+2, -844449.6, -832906.75, -5845.9854, 0.030125272, 0.033761095, -830463.25, -188094.14, 0.0, 9.998984, 9.9991455 
1.6149075e+3, 2.4445212e+2, -832163.44, -757365.3, -8740.561, 0.019768786, 0.059739493, -756357.5, -211980.53, 0.0, 9.998315, 9.999313 
1.6148743e+3, 2.5445217e+2, -834251.56, -705828.8, -11191.457, 0.01131725, 0.13666494, -704860.9, -258480.23, 0.0, 9.997621, 9.99933 
1.6148406e+3, 2.64452e+2, -805205.3, -591280.1, -10692.665, -0.007911804, 0.1706007, -590747.0, -242362.31, 0.0, 9.996933, 9.999773 
1.6148071e+3, 2.7445152e+2, -803510.06, -536109.75, -5922.7847, -0.040573884, 0.14977935, -535978.6, -285589.3, 0.0, 9.996257, 9.9998045 
1.6147737e+3, 2.8445143e+2, -774817.1, -425763.06, -1512.6635, -0.06072544, 0.14331779, -425756.5, -273365.72, 0.0, 9.995585, 10.000213 
1.6147403e+3, 2.944517e+2, -771553.56, -370000.2, -7141.5864, -0.06536122, 0.15374553, -369873.22, -315484.97, 0.0, 9.994921, 10.000242 
1.614707e+3, 3.044527e+2, -703719.6, -133047.28, -14433.041, -0.083165586, 0.15681173, -132682.48, -132682.48, 0.0, 9.994281, 10.001842 
1.6146733e+3, 3.144545e+2, -787889.0, -166723.22, -21082.143, -0.11726819, 0.15115966, -166008.52, -166008.52, 0.0, 9.993674, 10.001903 
1.6253099e+3, 1.2450751e+2, -982549.0, -1716340.5, 46142.055, -0.011465232, 0.024305282, -979658.9, 740171.7, 0.0067480733, 10.006606, 9.996806 
1.625275e+3, 1.345048e+2, -962406.0, -1626593.0, -2393.7322, -0.07620091, 0.051307842, -962397.4, 659458.94, 0.004266512, 10.005921, 9.997082 
1.6252422e+3, 1.4450155e+2, -955564.06, -1558080.5, 21795.82, 0.02558732, 0.01885212, -954776.6, 569111.44, 0.0020555013, 10.0052185, 9.997216 
1.6252083e+3, 1.5449907e+2, -960348.75, -1509576.9, 24800.762, -0.0131136915, 0.054039016, -959231.1, 466682.63, 0.00064255117, 10.004504, 9.99722 
1.6251747e+3, 1.6449662e+2, -934525.44, -1401239.8, 22577.936, -0.02293091, 0.07164175, -933435.75, 394503.53, 0.000096589436, 10.003811, 9.997626 
1.6251414e+3, 1.7449415e+2, -932432.56, -1346506.0, 26916.844, 0.005853066, 0.06607784, -930690.2, 299274.63, 0.0000021253359, 10.003139, 9.997653 
1.625108e+3, 1.8449217e+2, -877008.25, -1170245.5, 28826.252, 0.025915707, 0.06725411, -874201.4, 257783.28, 0.0, 10.00242, 9.998537 
1.6250746e+3, 1.9449079e+2, -888394.1, -1118996.5, 28041.979, 0.034279704, 0.07562513, -885033.1, 148964.4, 0.0, 10.001643, 9.99859 
1.625041e+3, 2.0448953e+2, -865569.4, -1009101.06, 22204.217, 0.038804263, 0.076913536, -862212.9, 73796.17, 0.0, 10.000919, 9.999022 
1.6250074e+3, 2.1448845e+2, -861725.9, -953141.94, 21476.3, 0.038998805, 0.06802887, -856931.9, -18912.809, 0.0, 10.000258, 9.999051 
1.6249737e+3, 2.2448741e+2, -849686.06, -877707.56, 14789.69, 0.037487883, 0.05747693, -843324.4, -103295.4, 0.0, 9.999587, 9.99922 
1.6249399e+3, 2.3448645e+2, -850188.3, -825395.75, 16756.967, 0.033816047, 0.043619666, -816948.25, -174909.31, 0.0, 9.998902, 9.999235 
1.6249059e+3, 2.4448593e+2, -839235.5, -757688.0, 15966.66, 0.02525955, 0.06905266, -754673.25, -210626.92, 0.0, 9.998256, 9.999339 
1.6248718e+3, 2.5448593e+2, -828195.6, -700162.25, 18322.541, 0.010793175, 0.14098042, -697591.75, -251541.16, 0.0, 9.997652, 9.9993515 
1.6248377e+3, 2.6448584e+2, -788160.75, -575066.56, 17642.092, -0.011395882, 0.17752755, -573615.9, -225561.64, 0.0, 9.997018, 9.999843 
1.6248034e+3, 2.7448556e+2, -785492.9, -519112.47, 15929.419, -0.04320991, 0.16903226, -518163.28, -268106.34, 0.0, 9.996347, 9.999877 
1.6247691e+3, 2.8448546e+2, -764567.75, -430174.22, 18711.203, -0.06249763, 0.16699818, -429130.47, -277072.34, 0.0, 9.995698, 10.000127 
1.6247353e+3, 2.9448563e+2, -755638.0, -372675.56, 15016.842, -0.06637125, 0.17234124, -372087.63, -318030.3, 0.0, 9.995077, 10.000148 
1.6247013e+3, 3.044865e+2, -678312.06, -128854.555, 12954.012, -0.087946855, 0.1718604, -128549.32, -128549.32, 0.0, 9.994493, 10.001767 
1.6246669e+3, 3.144882e+2, -752382.9, -157814.47, 10293.3125, -0.13128753, 0.16415356, -157636.31, -157636.31, 0.0, 9.993956, 10.001827 
1.6353165e+3, 1.24541804e+2, -978677.0, -1708169.0, 21095.223, -0.0053649712, 0.06275677, -978067.5, 741429.0, 0.007257947, 10.006606, 9.996863 
1.6352808e+3, 1.3453898e+2, -956010.56, -1613454.5, -27937.914, -0.07525919, 0.06897379, -954825.5, 666697.1, 0.004618053, 10.005921, 9.997173 
1.6352473e+3, 1.445357e+2, -954892.75, -1556970.9, -4626.6416, 0.022774938, 0.0284946, -954857.2, 568697.1, 0.0022505927, 10.0052185, 9.997226 
1.6352127e+3, 1.5453325e+2, -959902.94, -1509048.0, -1558.734, -0.009683042, 0.06621854, -959898.5, 465681.3, 0.0007187571, 10.004504, 9.997226 
1.6351785e+3, 1.6453086e+2, -927388.8, -1386923.9, -2201.996, -0.016603705, 0.08543221, -927378.25, 400226.5, 0.000112207905, 10.003811, 9.997726 
1.6351445e+3, 1.7452851e+2, -924923.3, -1331517.6, 2161.5715, 0.010702218, 0.08083819, -924911.9, 304717.06, 0.0000028668385, 10.003139, 9.997757 
1.6351104e+3, 1.8452656e+2, -878302.6, -1173716.5, 344.02502, 0.026232025, 0.08047381, -878302.25, 253346.06, 0.0, 10.002421, 9.998514 
1.6350761e+3, 1.9452511e+2, -890103.44, -1123638.5, -554.99005, 0.026473936, 0.08413568, -890102.1, 143559.69, 0.0, 10.001645, 9.998559 
1.6350418e+3, 2.0452376e+2, -865947.06, -1011172.7, -2181.9363, 0.029743584, 0.079354465, -865914.3, 69759.91, 0.0, 10.000922, 9.999007 
1.6350076e+3, 2.1452259e+2, -862004.9, -955054.3, -2690.6558, 0.037037548, 0.062740274, -861927.2, -24242.055, 0.0, 10.000261, 9.999038 
1.6349733e+3, 2.245216e+2, -844473.75, -868145.25, -10224.305, 0.04063376, 0.055606965, -840669.1, -100974.5, 0.0, 9.99959, 9.999286 
1.6349387e+3, 2.3452088e+2, -844703.9, -815170.25, -8222.44, 0.0396935, 0.058774196, -813035.4, -171333.02, 0.0, 9.998905, 9.999306 
1.634904e+3, 2.4452044e+2, -832964.7, -745885.3, -6063.5513, 0.027662933, 0.08532243, -745465.1, -201756.2, 0.0, 9.998258, 9.99942 
1.6348693e+3, 2.5452036e+2, -821606.2, -687976.6, -3469.8423, 0.0023387345, 0.13845837, -687886.56, -242172.61, 0.0, 9.997656, 9.999434 
1.6348344e+3, 2.6452032e+2, -788516.2, -577535.6, -6662.1353, -0.022494268, 0.178433, -577325.5, -229608.44, 0.0, 9.997023, 9.999825 
1.6347995e+3, 2.7452034e+2, -786143.7, -522329.06, -8594.993, -0.046891127, 0.20080096, -522049.34, -272331.63, 0.0, 9.996352, 9.999853 
1.6347648e+3, 2.8452027e+2, -768410.44, -440243.53, -4057.9648, -0.06288358, 0.20419921, -440193.38, -288474.25, 0.0, 9.995705, 10.000056 
1.6347304e+3, 2.9452008e+2, -759373.8, -382932.28, -7603.1, -0.06868167, 0.18414484, -382778.78, -329057.56, 0.0, 9.995085, 10.000074 
1.6346957e+3, 3.0452085e+2, -678221.06, -131872.53, -6495.011, -0.09175061, 0.17715342, -131795.33, -131795.33, 0.0, 9.994503, 10.001742 
1.6346608e+3, 3.1452268e+2, -751697.75, -160482.73, -8770.587, -0.1358337, 0.18567882, -160352.66, -160352.66, 0.0, 9.99397, 10.001803 
1.645323e+3, 1.24576434e+2, -971944.25, -1698872.3, 39234.07, 0.0009011954, 0.07451331, -969832.8, 749325.75, 0.007795096, 10.006633, 9.996914 
1.6452868e+3, 1.3457367e+2, -951601.9, -1601709.9, -11279.624, -0.07166317, 0.080871895, -951406.2, 669777.3, 0.004990385, 10.005915, 9.997256 
1.6452524e+3, 1.4457047e+2, -957169.06, -1550709.6, 12011.49, 0.022592755, 0.03928413, -956926.1, 566288.3, 0.002458938, 10.005175, 9.997288 
1.6452171e+3, 1.5456799e+2, -968665.4, -1506041.6, 18574.541, -0.0066867652, 0.06931378, -968024.1, 457215.84, 0.00080130214, 10.0044155, 9.997288 
1.6451822e+3, 1.6456565e+2, -942263.7, -1387047.6, 19948.809, -0.012888668, 0.08863089, -941370.8, 385893.5, 0.00012963358, 10.003681, 9.9977865 
1.6451477e+3, 1.7456347e+2, -945040.44, -1334212.9, 20723.11, 0.0118261445, 0.0935581, -943940.06, 285347.13, 0.0000037478974, 10.002974, 9.997817 
1.6451126e+3, 1.8456157e+2, -896481.6, -1176435.1, 17766.525, 0.025575725, 0.09424519, -895358.6, 235947.27, 0.0, 10.002273, 9.998566 
1.6450776e+3, 1.9456008e+2, -896718.6, -1121045.1, 22220.344, 0.025076201, 0.08894541, -894538.8, 138780.8, 0.0, 10.001577, 9.998608 
1.6450427e+3, 2.045587e+2, -871856.0, -1013144.3, 25946.982, 0.028392686, 0.07921481, -867241.6, 68090.484, 0.0, 10.00088, 9.999012 
1.6450079e+3, 2.1455753e+2, -873882.94, -960137.94, 26336.54, 0.03676862, 0.062382855, -866477.3, -29134.14, 0.0, 10.000179, 9.999041 
1.6449727e+3, 2.2455658e+2, -852938.0, -869282.9, 18641.588, 0.040057972, 0.058722593, -840756.1, -101403.695, 0.0, 9.999521, 9.99931 
1.6449375e+3, 2.3455597e+2, -842192.6, -810858.7, 16854.08, 0.037232887, 0.06981462, -803514.5, -162155.02, 0.0, 9.998912, 9.999331 
1.6449022e+3, 2.4455559e+2, -820599.44, -730657.94, 18442.146, 0.024120778, 0.09748498, -727023.3, -183657.9, 0.0, 9.998305, 9.9995 
1.6448669e+3, 2.545555e+2, -808921.8, -672187.1, 20789.982, -0.0013387311, 0.14305024, -669096.0, -223725.98, 0.0, 9.997704, 9.999518 
1.6448314e+3, 2.645555e+2, -784638.0, -579103.06, 14057.763, -0.025473591, 0.1847793, -578146.0, -230773.2, 0.0, 9.9970665, 9.999791 
1.6447958e+3, 2.745556e+2, -783836.44, -525271.94, 10453.239, -0.048016876, 0.2205602, -524850.06, -275476.7, 0.0, 9.996388, 9.999815 
1.6447605e+3, 2.8455555e+2, -761816.2, -433830.53, 19632.896, -0.06470506, 0.22502813, -432659.53, -281284.63, 0.0, 9.995738, 10.000082 
1.6447254e+3, 2.9455525e+2, -751813.8, -375733.25, 23668.373, -0.07442234, 0.19128634, -374249.53, -320871.97, 0.0, 9.995124, 10.000104 
1.64469e+3, 3.0455598e+2, -683162.5, -136518.72, 29036.645, -0.09299996, 0.18048976, -134980.67, -134980.67, 0.0, 9.994482, 10.001719 
1.6446547e+3, 3.1455782e+2, -777264.25, -175559.81, 26051.195, -0.12256318, 0.19682331, -174434.02, -174434.02, 0.0, 9.99381, 10.001776 
1.6553298e+3, 1.24611415e+2, -969670.06, -1694110.1, 13826.128, 0.00669894, 0.063487545, -969406.3, 749410.25, 0.008360841, 10.006634, 9.996947 
1.6552927e+3, 1.346089e+2, -947027.9, -1592539.1, -37384.68, -0.06568176, 0.08780114, -944869.94, 675969.1, 0.0053839847, 10.005916, 9.99732 
1.6552576e+3, 1.4460582e+2, -949923.2, -1536166.3, -15560.354, 0.024791958, 0.05100826, -949510.44, 573358.1, 0.0026803943, 10.005176, 9.997389 
1.6552216e+3, 1.5460329e+2, -961121.5, -1491162.8, -9187.455, -0.004170179, 0.06396969, -960962.3, 463932.03, 0.00088974915, 10.004416, 9.997391 
1.6551858e+3, 1.6460098e+2, -940996.6, -1385404.6, -5995.8975, -0.011681035, 0.08206368, -940915.75, 386002.47, 0.00014856926, 10.003682, 9.997798 
1.6551504e+3, 1.7459896e+2, -944041.3, -1333204.1, -5148.254, 0.00940278, 0.10444572, -943973.2, 284966.7, 0.000004710203, 10.002975, 9.997825 
1.6551149e+3, 1.8459718e+2, -888037.5, -1159999.8, -7669.0703, 0.024043495, 0.108517885, -887821.4, 243136.42, 0.0, 10.0022745, 9.998679 
1.6550793e+3, 1.9459566e+2, -888007.5, -1104129.6, -3263.716, 0.029958569, 0.090136625, -887958.25, 145012.89, 0.0, 10.00158, 9.998724 
1.6550435e+3, 2.0459433e+2, -870315.56, -1011215.25, 260.49954, 0.034559876, 0.07662814, -870315.06, 64668.105, 0.0, 10.000883, 9.999025 
1.6550079e+3, 2.1459323e+2, -872603.44, -958807.75, 659.0572, 0.038090736, 0.06705988, -872598.4, -35604.76, 0.0, 10.000182, 9.99905 
1.6549721e+3, 2.2459231e+2, -854412.3, -873652.6, -3707.6423, 0.035624504, 0.06683549, -853722.56, -114719.66, 0.0, 9.999524, 9.999279 
1.6549362e+3, 2.3459165e+2, -843694.56, -815377.75, -5320.8833, 0.02615291, 0.07655429, -814410.94, -173400.22, 0.0, 9.998915, 9.9993 
1.6549005e+3, 2.4459131e+2, -814970.44, -720511.9, -3457.3848, 0.014485621, 0.10549776, -720385.5, -177369.23, 0.0, 9.998309, 9.99957 
1.6548645e+3, 2.5459135e+2, -802858.1, -661225.3, -1112.2577, 0.00010731827, 0.1552825, -661216.56, -216197.42, 0.0, 9.997708, 9.999594 
1.6548285e+3, 2.6459134e+2, -788070.4, -587868.56, -10769.403, -0.019867439, 0.19678019, -587290.9, -240268.97, 0.0, 9.997071, 9.999731 
1.6547923e+3, 2.7459133e+2, -787662.2, -534848.94, -14486.112, -0.04647786, 0.22715391, -534021.6, -284997.2, 0.0, 9.996392, 9.999748 
1.654756e+3, 2.8459126e+2, -752269.3, -415755.88, -2886.1528, -0.06819897, 0.22804295, -415731.13, -264705.03, 0.0, 9.995743, 10.000205 
1.6547202e+3, 2.9459107e+2, -741609.06, -356396.9, 1461.5968, -0.084077254, 0.19336753, -356391.38, -303364.7, 0.0, 9.99513, 10.000236 
1.6546844e+3, 3.0459183e+2, -684832.06, -141467.77, 4674.39, -0.091286376, 0.18150674, -141427.56, -141427.56, 0.0, 9.994486, 10.001685 
1.6546488e+3, 3.145936e+2, -780272.5, -182187.39, 1645.675, -0.08891761, 0.19603398, -182182.86, -182182.86, 0.0, 9.993809, 10.001732 
1.6653365e+3, 1.2464743e+2, -964323.9, -1693747.1, 55290.676, 0.01486736, 0.060237825, -960156.6, 758307.1, 0.0089589385, 10.006687, 9.9969225 
1.6652986e+3, 1.3464496e+2, -943737.8, -1590161.9, -878.9381, -0.061270136, 0.08875905, -943736.6, 676749.7, 0.0058007482, 10.00594, 9.997323 
1.6652627e+3, 1.4464195e+2, -943848.8, -1524252.6, 16833.97, 0.023666438, 0.056079198, -943360.94, 579154.06, 0.002915613, 10.005182, 9.997466 
1.6652259e+3, 1.5463945e+2, -955384.94, -1479124.5, 21209.326, -0.004138309, 0.06493673, -954527.44, 470012.63, 0.0009841863, 10.004419, 9.997471 
1.6651894e+3, 1.6463716e+2, -940771.9, -1382411.6, 25180.969, -0.011007177, 0.079565644, -939340.75, 387222.9, 0.00016895116, 10.0036745, 9.997822 
1.6651534e+3, 1.7463514e+2, -946864.75, -1331922.9, 26591.355, 0.009874895, 0.099580646, -945037.1, 283548.47, 0.000005729664, 10.002947, 9.997846 
1.665117e+3, 1.846334e+2, -892442.56, -1156750.9, 22131.27, 0.023738287, 0.10682761, -890602.25, 240000.75, 0.0, 10.002224, 9.998724 
1.6650806e+3, 1.9463202e+2, -896151.2, -1102709.9, 20867.875, 0.028379247, 0.09775526, -894064.06, 138551.14, 0.0, 10.001504, 9.99877 
1.6650443e+3, 2.0463075e+2, -882429.06, -1018867.6, 21040.896, 0.033204753, 0.089271, -879257.94, 55368.926, 0.0, 10.000811, 9.999007 
1.665008e+3, 2.1462962e+2, -879456.9, -964123.7, 18729.234, 0.03857662, 0.08010311, -875498.8, -38861.09, 0.0, 10.000147, 9.999029 
1.6649716e+3, 2.2462869e+2, -853960.25, -871240.3, 17571.893, 0.035366293, 0.07808976, -843019.1, -104371.805, 0.0, 9.99952, 9.999296 
1.664935e+3, 2.3462799e+2, -839359.94, -810885.1, 19461.633, 0.022298502, 0.08320017, -801009.06, -160353.69, 0.0, 9.998937, 9.999319 
1.6648987e+3, 2.4462767e+2, -807790.5, -705869.3, 22510.629, 0.0108138705, 0.10878243, -701118.94, -158458.52, 0.0, 9.998313, 9.999667 
1.6648622e+3, 2.5462776e+2, -805450.0, -650939.56, 26393.455, 0.0011212993, 0.15649313, -646555.44, -201893.42, 0.0, 9.997643, 9.999694 
1.6648254e+3, 2.6462778e+2, -798978.3, -593243.7, 19000.113, -0.016848635, 0.19415377, -591503.7, -244839.2, 0.0, 9.997, 9.999727 
1.6647886e+3, 2.7462772e+2, -789373.5, -536183.44, 19364.213, -0.04459408, 0.21868509, -534711.0, -286042.97, 0.0, 9.996386, 9.999742 
1.6647518e+3, 2.8462765e+2, -743820.3, -404910.34, 31743.773, -0.06882934, 0.22138688, -401962.72, -251293.22, 0.0, 9.995775, 10.000263 
1.6647153e+3, 2.9462767e+2, -731961.0, -344663.38, 30104.988, -0.08882913, 0.19773161, -342337.28, -289668.75, 0.0, 9.995168, 10.000297 
1.6646789e+3, 3.046285e+2, -685904.44, -140495.77, 27237.486, -0.089306414, 0.1913008, -139138.92, -139138.92, 0.0, 9.994474, 10.001696 
1.6646427e+3, 3.1463027e+2, -797996.2, -189647.39, 27495.635, -0.06771093, 0.2043486, -188407.2, -188407.2, 0.0, 9.993685, 10.001739 
1.675343e+3, 1.24684416e+2, -970999.56, -1706781.3, 28216.504, 0.024545336, 0.064008206, -969919.06, 748181.8, 0.009592946, 10.006685, 9.996836 
1.6753046e+3, 1.3468179e+2, -948378.94, -1599568.5, -28333.416, -0.058361206, 0.08429828, -947148.5, 672977.0, 0.0062426156, 10.0059395, 9.997261 
1.6752677e+3, 1.4467882e+2, -940624.56, -1517874.3, -11059.721, 0.019475523, 0.055296768, -940412.75, 581741.44, 0.003165586, 10.005182, 9.997511 
1.6752303e+3, 1.5467644e+2, -951547.75, -1472142.9, -6826.73, -0.0063959155, 0.07179724, -951458.2, 472719.44, 0.0010852439, 10.004421, 9.9975195 
1.6751932e+3, 1.6467413e+2, -938601.4, -1379097.5, -1514.7097, -0.010788529, 0.08065006, -938596.1, 387605.03, 0.00019108308, 10.003676, 9.997845 
1.6751562e+3, 1.7467192e+2, -944807.56, -1328684.1, -62.5873, 0.013076425, 0.07969547, -944807.56, 283416.9, 0.000006850286, 10.002949, 9.997869 
1.6751193e+3, 1.8467022e+2, -894068.06, -1161304.3, -4291.169, 0.02447783, 0.09013913, -893999.2, 236242.66, 0.0, 10.002226, 9.998693 
1.675082e+3, 1.9466911e+2, -897829.5, -1107682.1, -5597.0566, 0.020438489, 0.111871794, -897680.3, 134571.88, 0.0, 10.001507, 9.998735 
1.6750449e+3, 2.0466793e+2, -885971.5, -1027718.06, -3312.5605, 0.02451493, 0.11684744, -885894.1, 48369.426, 0.0, 10.0008135, 9.998946 
1.6750081e+3, 2.1466666e+2, -883048.0, -972990.8, -5551.436, 0.038279634, 0.10142781, -882706.6, -46430.76, 0.0, 10.00015, 9.998968 
1.6749711e+3, 2.2466567e+2, -849431.3, -863294.25, -3765.1658, 0.039343145, 0.092500985, -848474.7, -110188.58, 0.0, 9.999524, 9.999351 
1.674934e+3, 2.3466495e+2, -834446.7, -802191.56, -1743.4504, 0.025888612, 0.08973739, -802097.6, -161803.78, 0.0, 9.99894, 9.999378 
1.6748968e+3, 2.4466462e+2, -799001.9, -689064.1, -1879.5776, 0.0132659, 0.10709799, -689032.0, -146733.69, 0.0, 9.998317, 9.999783 
1.6748597e+3, 2.5466478e+2, -796632.3, -633911.2, 1897.3632, 0.0015789, 0.14601356, -633889.06, -189590.14, 0.0, 9.997646, 9.999811 
1.6748224e+3, 2.6466477e+2, -795155.5, -586598.44, -3427.846, -0.016605, 0.17588277, -586542.1, -240241.1, 0.0, 9.997003, 9.999773 
1.6747849e+3, 2.7466467e+2, -785434.3, -529581.94, -2818.0027, -0.04236332, 0.1938734, -529550.94, -281246.38, 0.0, 9.996389, 9.999786 
1.6747476e+3, 2.846647e+2, -744782.44, -408724.47, 9829.689, -0.06634837, 0.20423034, -408437.2, -258131.64, 0.0, 9.99578, 10.0002365 
1.6747105e+3, 2.9466492e+2, -733088.75, -348910.5, 8042.7847, -0.088094376, 0.2048582, -348742.2, -296438.7, 0.0, 9.9951725, 10.000266 
1.6746734e+3, 3.046659e+2, -681580.0, -133087.31, -1670.2334, -0.08722675, 0.21110414, -133082.22, -133082.22, 0.0, 9.994478, 10.001746 
1.6746363e+3, 3.1466773e+2, -794052.94, -182197.72, -1432.5167, -0.061198317, 0.22304957, -182194.36, -182194.36, 0.0, 9.993685, 10.001792 
1.6853498e+3, 1.2472214e+2, -978018.5, -1713502.6, 51162.91, 0.024414293, 0.07115328, -974476.5, 743255.0, 0.010262813, 10.006659, 9.9968 
1.6853105e+3, 1.3471946e+2, -954346.4, -1603249.6, -2659.3406, -0.053421523, 0.088660374, -954335.44, 665421.3, 0.006709806, 10.005907, 9.99725 
1.6852728e+3, 1.4471653e+2, -941370.56, -1515570.3, 15855.109, 0.021870025, 0.06420215, -940933.1, 580852.06, 0.0034308843, 10.00517, 9.997532 
1.6852346e+3, 1.547142e+2, -945526.75, -1466491.1, 17810.814, -0.005317501, 0.08302511, -944918.56, 478889.7, 0.0011937134, 10.004454, 9.99754 
1.6851966e+3, 1.6471188e+2, -930180.4, -1367440.5, 22485.168, -0.010781039, 0.08660753, -929027.2, 396804.34, 0.0002154587, 10.003704, 9.99791 
1.685159e+3, 1.7470959e+2, -945209.2, -1321105.5, 26606.592, 0.011932748, 0.07201714, -943335.3, 284519.47, 0.000008149893, 10.002915, 9.997935 
1.6851214e+3, 1.8470785e+2, -902851.8, -1175730.4, 24940.88, 0.022152878, 0.080707006, -900591.0, 229281.4, 0.0, 10.002213, 9.9986 
1.6850835e+3, 1.9470675e+2, -890776.94, -1115081.5, 18487.541, 0.016977727, 0.114098534, -889263.4, 142620.13, 0.0, 10.001605, 9.998636 
1.6850458e+3, 2.0470558e+2, -872468.3, -1023371.6, 17226.254, 0.021359084, 0.1263212, -870526.8, 63368.51, 0.0, 10.000918, 9.998923 
1.6850081e+3, 2.1470433e+2, -885572.06, -976020.75, 17594.125, 0.0370686, 0.113146365, -882270.1, -46362.332, 0.0, 10.000143, 9.99895 
1.6849706e+3, 2.247033e+2, -857500.1, -859017.3, 25217.59, 0.039617676, 0.100425445, -833029.7, -95111.65, 0.0, 9.999436, 9.999421 
1.6849329e+3, 2.3470254e+2, -849208.7, -800789.94, 27974.443, 0.027224883, 0.08711982, -788003.9, -148078.27, 0.0, 9.998805, 9.999452 
1.6848952e+3, 2.4470225e+2, -810515.9, -685128.0, 26040.387, 0.014197391, 0.10124631, -679935.06, -138005.73, 0.0, 9.998199, 9.999865 
1.6848573e+3, 2.547025e+2, -794721.7, -623460.6, 26728.979, 0.00048612073, 0.14467119, -619385.94, -175457.36, 0.0, 9.997621, 9.999893 
1.6848193e+3, 2.647026e+2, -789106.25, -577522.1, 20079.932, -0.017541835, 0.1714884, -575633.4, -229703.38, 0.0, 9.99702, 9.999825 
1.6847813e+3, 2.747024e+2, -781012.2, -521188.16, 20935.232, -0.040620364, 0.17830186, -519512.13, -271578.44, 0.0, 9.996396, 9.999839 
1.6847433e+3, 2.8470245e+2, -750913.5, -414371.84, 32882.824, -0.062122412, 0.19014369, -411189.03, -261254.34, 0.0, 9.995752, 10.000209 
1.6847056e+3, 2.947028e+2, -747757.0, -358950.8, 30612.893, -0.08165814, 0.20668016, -356555.25, -304622.84, 0.0, 9.995088, 10.0002365 
1.6846679e+3, 3.0470386e+2, -684308.44, -133479.47, 16454.412, -0.08160991, 0.22205675, -132988.38, -132988.38, 0.0, 9.994459, 10.001752 
1.68463e+3, 3.147057e+2, -767313.2, -168406.3, 12461.739, -0.060022794, 0.23514396, -168147.11, -168147.11, 0.0, 9.993868, 10.001797 
1.6953562e+3, 1.2476057e+2, -977831.75, -1713462.9, 24207.844, 0.015099366, 0.08205383, -977035.94, 740319.6, 0.010964393, 10.006661, 9.9968 
1.6953163e+3, 1.3475794e+2, -952788.9, -1600178.1, -30228.488, -0.046610273, 0.100846164, -951380.5, 668000.1, 0.007200619, 10.005907, 9.9972725 
1.6952781e+3, 1.4475507e+2, -942296.0, -1517726.3, -10338.68, 0.030119784, 0.081697606, -942110.3, 579298.2, 0.0037115016, 10.005169, 9.997519 
1.6952391e+3, 1.5475269e+2, -946300.2, -1468681.5, -8486.262, -0.0012584972, 0.09818862, -946162.4, 477269.75, 0.0013102317, 10.004454, 9.997527 
1.6952004e+3, 1.6475035e+2, -923164.44, -1353822.6, -6498.808, -0.011065981, 0.097159386, -923066.44, 402388.56, 0.00024250626, 10.003705, 9.998004 
1.6951619e+3, 1.7474811e+2, -937648.7, -1306883.8, -2487.7341, 0.0066373185, 0.07585525, -937631.94, 289844.84, 0.000009692676, 10.002918, 9.998034 
1.6951235e+3, 1.8474628e+2, -913739.3, -1199829.6, 2584.8606, 0.016979696, 0.07797561, -913716.0, 215779.19, 0.0, 10.002215, 9.998434 
1.695085e+3, 1.9474493e+2, -902409.75, -1140365.0, -3639.6062, 0.017918056, 0.10461018, -902354.1, 129155.41, 0.0, 10.001607, 9.998463 
1.6950466e+3, 2.0474368e+2, -871483.5, -1022468.3, -11039.144, 0.023541808, 0.11810116, -870680.6, 62841.918, 0.0, 10.00092, 9.998931 
1.6950081e+3, 2.1474254e+2, -884112.0, -974328.9, -10883.854, 0.034862943, 0.11540633, -882817.56, -47283.617, 0.0, 10.000146, 9.998961 
1.6949698e+3, 2.2474155e+2, -851563.9, -848098.8, 2089.657, 0.036148578, 0.10178962, -847116.9, -109573.266, 0.0, 9.999439, 9.9994955 
1.6949315e+3, 2.3474073e+2, -843234.9, -789681.44, 4981.081, 0.026225885, 0.0750934, -789222.06, -149671.03, 0.0, 9.998808, 9.999528 
1.6948932e+3, 2.4474053e+2, -807427.4, -680026.4, 4960.8706, 0.0134919295, 0.09123118, -679833.5, -138279.67, 0.0, 9.998202, 9.9999 
1.6948548e+3, 2.5474098e+2, -791566.4, -618463.8, 5649.315, -0.0022931288, 0.15319277, -618279.6, -174728.4, 0.0, 9.997624, 9.9999275 
1.6948164e+3, 2.6474112e+2, -784865.6, -570438.94, -2823.892, -0.019786613, 0.18198109, -570401.75, -224849.86, 0.0, 9.997025, 9.999873 
1.6947776e+3, 2.7474084e+2, -776625.94, -513771.06, -1955.8369, -0.039431572, 0.17276543, -513756.53, -266200.56, 0.0, 9.9964, 9.999889 
1.694739e+3, 2.8474084e+2, -752944.94, -420056.3, 8479.852, -0.055961967, 0.17935798, -419840.47, -270283.03, 0.0, 9.995755, 10.00017 
1.6947007e+3, 2.947412e+2, -750184.1, -365073.47, 6142.627, -0.068847105, 0.20248088, -364975.5, -313419.72, 0.0, 9.99509, 10.0001955 
1.6946624e+3, 3.0474225e+2, -687609.56, -142082.3, -5079.532, -0.072136916, 0.22302839, -142035.0, -142035.0, 0.0, 9.994463, 10.001692 
1.6946238e+3, 3.1474409e+2, -769599.7, -176797.9, -9088.951, -0.065203436, 0.2397494, -176658.6, -176658.6, 0.0, 9.99388, 10.001735 
1.7053628e+3, 1.2479974e+2, -962576.0, -1711601.1, 52508.387, 0.0062592546, 0.08678125, -958912.94, 758058.94, 0.011692004, 10.0068, 9.996745 
1.7053221e+3, 1.3479707e+2, -951810.75, -1603155.1, -6590.1978, -0.04644028, 0.1064389, -951744.06, 667253.4, 0.0077126203, 10.005936, 9.997236 
1.7052832e+3, 1.4479421e+2, -949690.5, -1524378.0, 13908.958, 0.031298477, 0.09042404, -949354.06, 571671.5, 0.004007096, 10.005136, 9.997488 
1.7052434e+3, 1.5479171e+2, -954821.44, -1475865.4, 14186.6045, 0.0024077503, 0.099851646, -954435.44, 468614.66, 0.0014350818, 10.004412, 9.997497 
1.705204e+3, 1.6478938e+2, -917848.6, -1340997.5, 14169.104, -0.007947452, 0.09605588, -917374.7, 407698.03, 0.00027244736, 10.0037, 9.998094 
1.7051648e+3, 1.7478724e+2, -919369.75, -1287499.6, 17275.535, 0.0057102293, 0.07694715, -918560.9, 308532.0, 0.000011512265, 10.003001, 9.998125 
1.7051256e+3, 1.847854e+2, -911232.75, -1203097.5, 27554.268, 0.017181518, 0.07698196, -908654.2, 220456.83, 0.0, 10.002255, 9.998391 
1.7050865e+3, 1.9478396e+2, -927689.94, -1157465.6, 30197.352, 0.024978379, 0.09665259, -923787.6, 107339.195, 0.0, 10.001457, 9.998416 
1.7050475e+3, 2.0478263e+2, -896934.25, -1038213.2, 26659.932, 0.029298825, 0.1093431, -892070.8, 41069.863, 0.0, 10.000764, 9.998897 
1.7050083e+3, 2.1478152e+2, -881174.0, -976340.9, 22973.762, 0.030440636, 0.11281051, -875918.25, -40766.117, 0.0, 10.000184, 9.998928 
1.7049693e+3, 2.2478056e+2, -832808.1, -835467.3, 32837.508, 0.028929494, 0.10397915, -801273.3, -64111.86, 0.0, 9.999556, 9.999525 
1.7049304e+3, 2.3477982e+2, -831613.56, -780332.9, 31747.537, 0.024284694, 0.08062228, -765164.75, -125996.65, 0.0, 9.998875, 9.999558 
1.7048913e+3, 2.4477957e+2, -810217.94, -687101.44, 27831.102, 0.014106736, 0.09484809, -681102.44, -139931.33, 0.0, 9.998211, 9.9998455 
1.7048523e+3, 2.547799e+2, -804206.2, -630375.06, 21368.129, -0.002034082, 0.14891212, -627786.94, -184617.14, 0.0, 9.997566, 9.999872 
1.7048132e+3, 2.6477996e+2, -787338.44, -560816.7, 11427.142, -0.019057307, 0.17277797, -560241.7, -215071.16, 0.0, 9.9969635, 9.999967 
1.7047739e+3, 2.747798e+2, -768616.44, -498518.6, 15656.361, -0.03723738, 0.16197859, -497614.1, -250440.92, 0.0, 9.996409, 9.999989 
1.7047347e+3, 2.8477985e+2, -747723.3, -419909.34, 25524.03, -0.05212101, 0.17060976, -417933.9, -268759.78, 0.0, 9.995805, 10.000146 
1.7046958e+3, 2.9478025e+2, -743889.7, -364658.38, 23799.293, -0.063139, 0.19969566, -363170.66, -311997.7, 0.0, 9.995147, 10.000169 
1.7046568e+3, 3.047813e+2, -676783.1, -136073.05, 18457.053, -0.06847795, 0.22108075, -135443.75, -135443.75, 0.0, 9.994537, 10.001697 
1.7046177e+3, 3.1478304e+2, -755116.94, -169195.25, 19114.25, -0.06814839, 0.23313358, -168572.36, -168572.36, 0.0, 9.99398, 10.001737 
1.7153694e+3, 1.2483965e+2, -972948.0, -1729508.5, 20963.58, -0.0033597401, 0.087025, -972367.56, 744213.06, 0.0124419695, 10.006785, 9.996631 
1.715328e+3, 1.3483688e+2, -959390.6, -1617958.6, -38327.227, -0.05217306, 0.10625798, -957167.56, 661440.06, 0.0082443, 10.005931, 9.997138 
1.7152882e+3, 1.4483394e+2, -953444.2, -1532904.9, -12341.643, 0.02620688, 0.09128115, -953181.44, 567455.0, 0.0043174047, 10.0051365, 9.99743 
1.7152478e+3, 1.5483128e+2, -958181.56, -1484172.6, -12057.782, 0.0057298755, 0.08916185, -957905.25, 464757.2, 0.0015682882, 10.004415, 9.99744 
1.7152077e+3, 1.6482893e+2, -912016.44, -1330249.5, -11235.294, -0.0017143921, 0.08425623, -911714.8, 412970.1, 0.00030536574, 10.003703, 9.998167 
1.7151678e+3, 1.7482698e+2, -913614.2, -1276574.3, -8328.862, 0.008868012, 0.075566135, -913423.2, 313280.06, 0.00001364027, 10.003002, 9.998201 
1.7151278e+3, 1.8482524e+2, -906237.4, -1193816.5, -1754.8479, 0.022474667, 0.0776491, -906226.7, 222493.66, 0.0, 10.002256, 9.998456 
1.715088e+3, 1.9482376e+2, -922399.94, -1148007.6, 750.0692, 0.037948065, 0.09015711, -922397.44, 108338.48, 0.0, 10.00146, 9.998481 
1.7150483e+3, 2.0482242e+2, -902217.3, -1050881.5, 5325.6416, 0.03849094, 0.10000637, -902026.75, 30723.457, 0.0, 10.000768, 9.998809 
1.7150083e+3, 2.1482123e+2, -886721.3, -989425.44, 1867.3988, 0.023701133, 0.10533665, -886687.4, -51924.527, 0.0, 10.000188, 9.998838 
1.7149687e+3, 2.2482033e+2, -834045.56, -839604.1, 8079.14, 0.017897254, 0.10721336, -828281.0, -91509.07, 0.0, 9.999559, 9.999496 
1.714929e+3, 2.3481975e+2, -832790.94, -784409.44, 6859.181, 0.021396957, 0.1044009, -783455.8, -144678.78, 0.0, 9.9988785, 9.999531 
1.7148896e+3, 2.4481936e+2, -820624.9, -710327.25, 4110.207, 0.016101519, 0.11239371, -710174.3, -169392.83, 0.0, 9.998215, 9.999685 
1.7148499e+3, 2.5481915e+2, -814827.2, -653847.75, -2484.9602, 0.0014330205, 0.13075303, -653809.44, -211024.48, 0.0, 9.997569, 9.999711 
1.7148101e+3, 2.648191e+2, -777345.9, -541547.44, -9123.492, -0.0151808, 0.14256145, -541194.94, -196408.38, 0.0, 9.996967, 10.000099 
1.7147702e+3, 2.748192e+2, -757915.0, -478121.72, -4735.219, -0.034011964, 0.14569214, -478041.6, -231255.63, 0.0, 9.996414, 10.000128 
1.7147306e+3, 2.848194e+2, -748097.1, -422714.0, 1309.0345, -0.050972465, 0.16418287, -422708.72, -273923.34, 0.0, 9.9958105, 10.000126 
1.7146908e+3, 2.9481983e+2, -744258.6, -367643.56, -489.68335, -0.06556304, 0.19850859, -367642.94, -316858.5, 0.0, 9.995153, 10.000147 
1.7146513e+3, 3.0482087e+2, -670825.56, -126421.99, -2015.9855, -0.07142154, 0.21568124, -126414.52, -126414.52, 0.0, 9.994546, 10.0017605 
1.7146115e+3, 3.1482255e+2, -748843.6, -159404.16, -1077.6188, -0.068500824, 0.2133294, -159402.19, -159402.19, 0.0, 9.993991, 10.001801 
1.725376e+3, 1.2488028e+2, -1017226.7, -1753379.3, 42941.855, 0.0027829073, 0.09197215, -1014730.25, 701452.1, 0.013214102, 10.0064945, 9.996605 
1.725334e+3, 1.3487744e+2, -972219.94, -1625066.5, -11203.289, -0.046574604, 0.10562434, -972027.75, 646182.5, 0.0087956255, 10.005853, 9.997126 
1.7252932e+3, 1.4487444e+2, -946611.25, -1528592.8, 21338.566, 0.02544074, 0.08654535, -945829.9, 574409.44, 0.0046423157, 10.005184, 9.997436 
1.7252523e+3, 1.5487161e+2, -946373.5, -1477507.4, 25589.084, 0.0036593282, 0.06721433, -945143.56, 477122.8, 0.0017097584, 10.004496, 9.997445 
1.7252113e+3, 1.6486926e+2, -907976.5, -1332370.8, 22539.25, -0.0008189696, 0.063858904, -906782.8, 417506.1, 0.00034133205, 10.003752, 9.998128 
1.7251706e+3, 1.7486748e+2, -924582.2, -1286023.4, 16631.215, 0.016717553, 0.076554164, -923818.56, 302487.72, 0.00001614071, 10.002948, 9.998161 
1.7251301e+3, 1.8486579e+2, -912711.9, -1198634.9, 16884.457, 0.02986405, 0.0868638, -911718.3, 216604.94, 0.0, 10.002222, 9.998438 
1.7250896e+3, 1.9486423e+2, -906604.8, -1141867.5, 12898.423, 0.03736661, 0.09359628, -905899.75, 124439.64, 0.0, 10.001578, 9.998466 
1.725049e+3, 2.0486282e+2, -881755.9, -1043249.3, 19856.703, 0.0354182, 0.09935762, -879350.2, 53004.043, 0.0, 10.000921, 9.998787 
1.7250085e+3, 2.1486159e+2, -879530.7, -988169.2, 20983.725, 0.023733562, 0.10261106, -875618.56, -41251.23, 0.0, 10.000249, 9.998816 
1.724968e+3, 2.248607e+2, -839079.9, -850899.3, 24976.715, 0.01855319, 0.1123846, -819323.25, -82946.71, 0.0, 9.999566, 9.999414 
1.7249279e+3, 2.3486021e+2, -840146.44, -796968.2, 19078.295, 0.020225074, 0.12803188, -789746.4, -151365.02, 0.0, 9.99887, 9.999447 
1.7248876e+3, 2.4485971e+2, -822234.9, -709071.0, 22037.62, 0.014524845, 0.1283788, -704930.9, -164544.22, 0.0, 9.998198, 9.999701 
1.7248473e+3, 2.5485918e+2, -816345.7, -652349.6, 28711.283, 0.0009669708, 0.11133086, -647468.4, -205076.2, 0.0, 9.997552, 9.999728 
1.724807e+3, 2.6485905e+2, -781825.9, -542052.56, 26550.438, -0.013196222, 0.11347836, -539147.75, -194753.67, 0.0, 9.996932, 10.000111 
1.7247666e+3, 2.7485928e+2, -767753.2, -481062.28, 20758.783, -0.028136678, 0.13432804, -479567.0, -233175.0, 0.0, 9.996342, 10.000141 
1.7247263e+3, 2.8485963e+2, -754499.25, -420977.75, 21687.252, -0.045123205, 0.15930656, -419573.47, -271182.72, 0.0, 9.9957485, 10.000166 
1.7246859e+3, 2.9486e+2, -741457.44, -361259.1, 24367.248, -0.06386009, 0.18812652, -359703.75, -309313.7, 0.0, 9.995154, 10.000189 
1.7246456e+3, 3.0486104e+2, -667511.7, -115042.18, 26483.904, -0.071093425, 0.20116483, -113775.516, -113775.516, 0.0, 9.99453, 10.001844 
1.7246054e+3, 3.148628e+2, -760216.3, -155266.28, 28464.713, -0.06664396, 0.19609049, -153929.88, -153929.88, 0.0, 9.993875, 10.0018835 
1.7353825e+3, 1.2492162e+2, -1015929.56, -1748439.6, 19310.104, 0.021016825, 0.10214044, -1015420.9, 700356.44, 0.014010453, 10.006487, 9.996644 
1.7353398e+3, 1.3491872e+2, -969609.2, -1618443.3, -35061.813, -0.031163007, 0.10458236, -967720.0, 650085.7, 0.009367279, 10.005847, 9.997175 
1.7352983e+3, 1.4491569e+2, -943427.4, -1521712.8, -4064.512, 0.028337674, 0.076778024, -943398.8, 576435.75, 0.004981716, 10.005182, 9.997486 
1.7352565e+3, 1.549127e+2, -942515.2, -1470293.9, 32.762318, -0.0033968224, 0.035010092, -942515.2, 479347.06, 0.0018593675, 10.004497, 9.997497 
1.735215e+3, 1.6491033e+2, -918271.56, -1355268.9, -7264.7515, -0.0047189724, 0.03570091, -918150.8, 405734.25, 0.00038044373, 10.003756, 9.997971 
1.7351738e+3, 1.749087e+2, -934738.1, -1309214.1, -13177.499, 0.02902094, 0.07987814, -934274.94, 291627.4, 0.00001910951, 10.002954, 9.998001 
1.7351323e+3, 1.84907e+2, -919082.6, -1214029.3, -6794.199, 0.039012954, 0.10418292, -918926.2, 208993.81, 0.0, 10.002229, 9.998331 
1.7350908e+3, 1.9490531e+2, -913133.25, -1157202.5, -10651.783, 0.023482056, 0.106632724, -912669.25, 117268.24, 0.0, 10.001582, 9.99836 
1.7350496e+3, 2.049038e+2, -878810.06, -1038684.75, -4629.879, 0.020493751, 0.107183605, -878676.1, 53276.914, 0.0, 10.000924, 9.998817 
1.7350087e+3, 2.1490254e+2, -876491.1, -983372.06, -3543.6238, 0.030713243, 0.10454252, -876373.75, -42407.77, 0.0, 10.000253, 9.998848 
1.7349677e+3, 2.2490165e+2, -848862.2, -872755.5, -475.942, 0.030901542, 0.11947342, -848852.75, -112877.07, 0.0, 9.999569, 9.999264 
1.7349267e+3, 2.3490119e+2, -850087.9, -819168.75, -6503.147, 0.020669786, 0.15149255, -817856.6, -179875.1, 0.0, 9.998874, 9.999294 
1.7348857e+3, 2.4490058e+2, -808165.5, -681495.6, -1697.3502, 0.009170578, 0.14275375, -681472.9, -141485.84, 0.0, 9.998201, 9.99989 
1.7348447e+3, 2.548999e+2, -801959.0, -624115.3, 5143.661, -0.0037248717, 0.09058241, -623966.7, -181974.9, 0.0, 9.997556, 9.999922 
1.7348038e+3, 2.6489973e+2, -790523.0, -561687.4, 4948.0923, -0.013249418, 0.08567979, -561580.44, -217586.89, 0.0, 9.996936, 9.999976 
1.734763e+3, 2.7490005e+2, -776785.94, -501190.5, -990.0879, -0.019364553, 0.12839551, -501186.94, -255195.19, 0.0, 9.996345, 10.000003 
1.7347221e+3, 2.849004e+2, -746987.0, -406853.88, -183.73586, -0.03411391, 0.1559842, -406853.75, -258862.92, 0.0, 9.995751, 10.000262 
1.734681e+3, 2.949007e+2, -733320.9, -346349.53, 2646.6223, -0.05751276, 0.16727655, -346331.44, -296340.97, 0.0, 9.995159, 10.00029 
1.7346402e+3, 3.049018e+2, -659913.25, -101265.8, 2360.244, -0.06704215, 0.17645665, -101255.82, -101255.82, 0.0, 9.9945345, 10.001938 
1.7345992e+3, 3.1490374e+2, -753217.6, -142027.75, 4407.373, -0.062408026, 0.18200698, -141995.97, -141995.97, 0.0, 9.993876, 10.001975 
1.7453891e+3, 1.2496356e+2, -1034278.0, -1757008.9, 42095.516, 0.026439039, 0.10751173, -1031834.4, 683532.0, 0.014833205, 10.006366, 9.996642 
1.7453456e+3, 1.3496055e+2, -986705.44, -1625725.9, -15822.805, -0.023160798, 0.09822367, -986313.94, 631082.06, 0.00995954, 10.005732, 9.997179 
1.7453034e+3, 1.4495757e+2, -952262.06, -1521039.5, 12737.222, 0.031356692, 0.07467355, -951977.0, 567447.1, 0.0053351, 10.005105, 9.997526 
1.745261e+3, 1.5495464e+2, -940496.75, -1464342.1, 15504.322, -0.0009714708, 0.03705843, -940038.3, 481412.4, 0.0020167544, 10.004493, 9.997538 
1.7452186e+3, 1.6495225e+2, -914489.25, -1368695.3, 4688.4863, -0.0021612009, 0.04057038, -914440.8, 409033.1, 0.0004226827, 10.00385, 9.997831 
1.7451766e+3, 1.7495048e+2, -912556.25, -1313908.5, -403.46768, 0.032133073, 0.08631472, -912555.8, 312937.4, 0.000022622984, 10.003176, 9.99786 
1.7451346e+3, 1.8494868e+2, -884665.25, -1197417.5, 11576.078, 0.04082753, 0.10703886, -884237.4, 243274.64, 0.0, 10.002468, 9.998328 
1.7450924e+3, 1.949469e+2, -892797.5, -1147333.3, 14734.253, 0.022124061, 0.10065291, -891947.44, 137582.5, 0.0, 10.001725, 9.998357 
1.7450505e+3, 2.0494537e+2, -871357.94, -1037024.25, 21914.248, 0.020075612, 0.10047202, -868508.1, 63037.277, 0.0, 10.000987, 9.998797 
1.745009e+3, 2.1494415e+2, -878007.94, -986028.1, 18466.596, 0.035689827, 0.10535152, -874938.2, -41380.164, 0.0, 10.000254, 9.998828 
1.7449671e+3, 2.2494324e+2, -857794.4, -886784.4, 22116.615, 0.036041882, 0.12383424, -845846.06, -110277.734, 0.0, 9.999553, 9.999174 
1.7449254e+3, 2.3494267e+2, -855021.2, -831329.6, 20347.566, 0.020478537, 0.15533487, -819630.9, -182055.16, 0.0, 9.998884, 9.999204 
1.7448838e+3, 2.4494205e+2, -802759.1, -672557.4, 22815.395, 0.0077216085, 0.14639196, -668675.2, -129093.836, 0.0, 9.998215, 9.999944 
1.7448422e+3, 2.5494143e+2, -800090.2, -616712.5, 18593.953, -0.0021671937, 0.09453834, -614846.1, -173261.39, 0.0, 9.997543, 9.999977 
1.7448008e+3, 2.649412e+2, -800730.6, -574832.3, 17157.68, -0.009824107, 0.08702619, -573536.56, -229949.92, 0.0, 9.996904, 9.999899 
1.7447592e+3, 2.749414e+2, -788922.6, -515197.8, 15621.044, -0.015196252, 0.12410069, -514309.25, -268722.66, 0.0, 9.9963, 9.999927 
1.7447178e+3, 2.849417e+2, -750077.6, -395386.47, 18349.566, -0.028387668, 0.15042609, -394439.72, -246853.9, 0.0, 9.995678, 10.000376 
1.7446761e+3, 2.9494217e+2, -742630.75, -337622.66, 21803.58, -0.04939443, 0.16464093, -336452.25, -286868.34, 0.0, 9.995042, 10.000405 
1.7446347e+3, 3.049434e+2, -670486.6, -96649.336, 20532.994, -0.06267557, 0.17661361, -95915.56, -95915.56, 0.0, 9.994424, 10.002022 
1.7445931e+3, 3.1494546e+2, -755266.0, -133548.25, 21284.31, -0.06805652, 0.1852057, -132820.44, -132820.44, 0.0, 9.993825, 10.002057 
1.7553951e+3, 1.250061e+2, -1039037.2, -1765292.3, 18225.932, 0.019441817, 0.10951884, -1038580.06, 676369.7, 0.015684033, 10.00636, 9.99659 
1.7553511e+3, 1.3500288e+2, -989843.4, -1632885.3, -39456.24, -0.021575278, 0.087212965, -987431.44, 629549.7, 0.010572197, 10.0057335, 9.99713 
1.7553085e+3, 1.4500006e+2, -950298.9, -1518247.1, -9862.613, 0.03458505, 0.07966196, -950127.7, 568880.44, 0.005701578, 10.005109, 9.997545 
1.7552654e+3, 1.5499744e+2, -938689.6, -1461641.4, -7444.275, 0.010055162, 0.07040385, -938583.7, 482448.38, 0.0021812518, 10.004495, 9.997557 
1.7552225e+3, 1.6499501e+2, -923567.2, -1388564.3, -20549.21, 0.0060886755, 0.07547011, -922660.9, 400395.1, 0.00046781724, 10.003852, 9.997696 
1.7551796e+3, 1.7499284e+2, -921439.06, -1333574.1, -25287.994, 0.02647297, 0.0953162, -919893.25, 305185.88, 0.000026674832, 10.003178, 9.9977255 
1.755137e+3, 1.8499081e+2, -878121.06, -1185145.0, -15651.058, 0.035899095, 0.096100174, -877325.3, 249774.28, 0.000000000016639355, 10.00247, 9.998413 
1.7550941e+3, 1.9498898e+2, -886122.56, -1134966.3, -12566.909, 0.033058465, 0.07622444, -885489.56, 143627.36, 0.0, 10.001728, 9.998443 
1.7550515e+3, 2.0498748e+2, -876543.75, -1049376.9, -4972.273, 0.033663318, 0.07964022, -876400.8, 54731.023, 0.0, 10.000991, 9.998713 
1.755009e+3, 2.149864e+2, -883255.44, -998478.56, -8387.807, 0.03843051, 0.1052347, -882648.0, -49504.15, 0.0, 10.0002575, 9.998743 
1.7549667e+3, 2.2498542e+2, -859812.44, -892584.44, -2221.287, 0.03390557, 0.12524857, -859662.56, -124507.664, 0.0, 9.999557, 9.999134 
1.7549242e+3, 2.3498465e+2, -856919.8, -836957.25, -4052.7104, 0.019689994, 0.13873063, -836165.9, -199001.47, 0.0, 9.998889, 9.999166 
1.7548819e+3, 2.4498406e+2, -809171.4, -687605.6, -1827.7074, 0.010371358, 0.13924144, -687578.2, -148408.08, 0.0, 9.998219, 9.99984 
1.7548399e+3, 2.549837e+2, -806647.0, -631978.1, -6266.7246, 0.006038031, 0.12527011, -631753.56, -190582.1, 0.0, 9.997548, 9.999872 
1.7547975e+3, 2.649834e+2, -801569.94, -578219.1, -5402.7017, -0.0027916238, 0.11952175, -578088.5, -234914.48, 0.0, 9.996908, 9.999876 
1.7547555e+3, 2.7498326e+2, -789596.8, -518192.84, -6853.819, -0.01621999, 0.12124096, -518019.88, -272842.66, 0.0, 9.996304, 9.999907 
1.7547134e+3, 2.8498355e+2, -741272.25, -378541.72, -5362.6455, -0.028511422, 0.14267701, -378462.47, -231286.17, 0.0, 9.995681, 10.000491 
1.7546713e+3, 2.949844e+2, -733993.94, -320792.47, -1915.1272, -0.039319437, 0.18291105, -320783.6, -271612.78, 0.0, 9.995044, 10.000522 
1.7546289e+3, 3.0498585e+2, -665855.0, -88386.39, -1757.7977, -0.058219474, 0.20525345, -88381.05, -88381.05, 0.0, 9.994426, 10.002079 
1.7545865e+3, 3.149879e+2, -750329.06, -125381.086, -1016.9667, -0.08547042, 0.20855507, -125379.43, -125379.43, 0.0, 9.993831, 10.002111 
1.7654015e+3, 1.250492e+2, -1046369.4, -1766962.1, 36746.715, 0.0217205, 0.11816667, -1044500.3, 670027.3, 0.016564198, 10.0063095, 9.996601 
1.765357e+3, 1.3504584e+2, -976136.5, -1624424.4, -17450.443, -0.016616203, 0.07874466, -975667.1, 640893.1, 0.011204902, 10.005829, 9.997141 
1.7653136e+3, 1.4504305e+2, -941281.5, -1525732.6, 5230.0596, 0.03738529, 0.08069708, -941234.7, 577352.4, 0.006080118, 10.005228, 9.997435 
1.76527e+3, 1.5504052e+2, -943031.9, -1475504.3, -1849.4369, 0.016855557, 0.09174902, -943025.44, 477585.7, 0.0023519609, 10.004519, 9.997448 
1.7652263e+3, 1.6503805e+2, -924596.5, -1384657.1, -14395.925, 0.013235484, 0.09770634, -924146.5, 398489.0, 0.0005153971, 10.003829, 9.997732 
1.7651829e+3, 1.7503573e+2, -922796.9, -1329822.3, -7654.7563, 0.029855337, 0.099309586, -922652.94, 302006.56, 0.00003115927, 10.003153, 9.997762 
1.7651393e+3, 1.850337e+2, -877258.75, -1180072.5, 3871.6064, 0.038303442, 0.093830355, -877209.3, 249470.55, 0.0000000004293444, 10.00246, 9.998451 
1.7650959e+3, 1.9503194e+2, -880645.56, -1127692.5, 3021.8574, 0.037710004, 0.07956625, -880608.6, 148087.45, 0.0, 10.001749, 9.998481 
1.7650525e+3, 2.0503046e+2, -870201.3, -1051121.4, 10693.693, 0.03794587, 0.08474876, -869571.44, 61139.45, 0.0, 10.001058, 9.998667 
1.7650093e+3, 2.150293e+2, -868150.44, -996034.2, 9638.43, 0.03947036, 0.10846986, -867428.06, -34704.28, 0.0, 10.000384, 9.998696 
1.7649662e+3, 2.2502826e+2, -844847.25, -888376.7, 17087.088, 0.03313492, 0.126318, -838941.2, -104205.76, 0.0, 9.999675, 9.9991045 
1.764923e+3, 2.3502742e+2, -853027.2, -838023.6, 15540.59, 0.018761886, 0.13700481, -828268.94, -191523.45, 0.0, 9.998931, 9.999136 
1.7648801e+3, 2.450268e+2, -817327.94, -706245.94, 18074.768, 0.011449093, 0.14400046, -703378.94, -164627.2, 0.0, 9.998229, 9.999705 
1.7648374e+3, 2.5502646e+2, -813266.2, -650007.3, 10921.192, 0.011206958, 0.1463979, -649280.0, -208526.34, 0.0, 9.997569, 9.999736 
1.7647946e+3, 2.6502612e+2, -798066.44, -574998.1, 13476.058, 0.001364326, 0.1403117, -574186.94, -231429.95, 0.0, 9.996929, 9.9998865 
1.7647517e+3, 2.7502578e+2, -787992.5, -515763.28, 14052.829, -0.01812288, 0.12457316, -515039.78, -270278.5, 0.0, 9.99631, 9.999918 
1.7647089e+3, 2.850261e+2, -741633.2, -374845.53, 11451.432, -0.029983353, 0.14400609, -374488.34, -227728.06, 0.0, 9.995665, 10.000523 
1.7646661e+3, 2.950271e+2, -738894.06, -319095.66, 7918.6763, -0.0338763, 0.1975602, -318946.34, -270192.84, 0.0, 9.994995, 10.000555 
1.7646232e+3, 3.0502862e+2, -675133.5, -89745.016, 4948.316, -0.05522914, 0.2272529, -89703.195, -89703.195, 0.0, 9.994352, 10.002104 
1.7645802e+3, 3.150307e+2, -762084.5, -127887.164, 2873.7327, -0.09424019, 0.23314704, -127874.14, -127874.14, 0.0, 9.99374, 10.002136 
1.7754076e+3, 1.2509291e+2, -1042867.7, -1759589.1, 18653.662, 0.030105498, 0.13300978, -1042382.5, 671717.56, 0.017474722, 10.006312, 9.996653 
1.7753626e+3, 1.3508938e+2, -973331.06, -1618178.4, -35450.914, -0.00881488, 0.072530255, -971388.0, 644745.4, 0.01185773, 10.005827, 9.997187 
1.7753187e+3, 1.4508653e+2, -958189.25, -1560866.6, -20904.629, 0.03975752, 0.07828794, -957465.0, 560696.1, 0.0064700614, 10.005225, 9.997196 
1.7752744e+3, 1.550839e+2, -959068.3, -1509721.6, -27773.996, 0.019801378, 0.102194056, -957671.0, 462516.78, 0.002528053, 10.00452, 9.997214 
1.7752302e+3, 1.6508141e+2, -911393.1, -1358688.6, -39033.77, 0.019479858, 0.10838634, -908012.4, 414200.16, 0.00056488777, 10.003832, 9.9979105 
1.775186e+3, 1.7507917e+2, -909427.3, -1303772.8, -32497.43, 0.04173042, 0.098715805, -906767.2, 317467.47, 0.000035915502, 10.003157, 9.99794 
1.7751417e+3, 1.8507725e+2, -877702.6, -1182733.9, -22338.43, 0.047432475, 0.10001501, -876075.4, 250177.81, 0.0000000022461928, 10.002463, 9.998433 
1.7750975e+3, 1.9507572e+2, -881178.25, -1130525.5, -23082.713, 0.03610547, 0.10992258, -879059.44, 149208.34, 0.0, 10.001753, 9.998461 
1.7750534e+3, 2.0507422e+2, -870787.5, -1054012.1, -13945.944, 0.03316948, 0.1150075, -869732.1, 60550.863, 0.0, 10.001061, 9.998647 
1.7750096e+3, 2.150728e+2, -868746.44, -998917.6, -14917.861, 0.0388823, 0.11471252, -867058.75, -34760.56, 0.0, 10.000388, 9.998676 
1.7749657e+3, 2.2507168e+2, -846332.1, -893167.6, -10157.391, 0.03371235, 0.12719247, -844224.1, -109913.73, 0.0, 9.99968, 9.999071 
1.7749219e+3, 2.3507094e+2, -854531.2, -842880.56, -11734.199, 0.017651414, 0.15084992, -835605.25, -199285.98, 0.0, 9.998936, 9.999103 
1.7748782e+3, 2.4507023e+2, -829011.25, -732291.25, -6243.9663, 0.010819629, 0.16098724, -731889.8, -193563.2, 0.0, 9.998234, 9.999526 
1.7748348e+3, 2.5506967e+2, -824883.1, -675986.44, -13446.939, 0.013071467, 0.15693966, -674781.8, -234449.9, 0.0, 9.997574, 9.9995575 
1.7747913e+3, 2.6506922e+2, -794790.8, -570151.6, -9469.612, 0.0023768672, 0.14863043, -569753.1, -227416.81, 0.0, 9.996934, 9.999919 
1.774748e+3, 2.7506894e+2, -784682.06, -510844.97, -8876.002, -0.02101948, 0.13501514, -510557.56, -266218.25, 0.0, 9.996315, 9.999951 
1.7747045e+3, 2.8506926e+2, -746099.4, -385981.97, -13620.458, -0.033087403, 0.1553131, -385467.56, -239129.19, 0.0, 9.995669, 10.000445 
1.7746611e+3, 2.9507017e+2, -743268.1, -329911.6, -17383.53, -0.03380599, 0.20789248, -329181.8, -280848.8, 0.0, 9.995, 10.000481 
1.7746176e+3, 3.0507165e+2, -676231.56, -93781.18, -18608.824, -0.05383123, 0.24167727, -93187.25, -93187.25, 0.0, 9.994356, 10.002075 
1.7745739e+3, 3.150739e+2, -763044.3, -131446.05, -20664.64, -0.09275302, 0.2640537, -130770.66, -130770.66, 0.0, 9.993743, 10.002112 
1.785414e+3, 1.251371e+2, -1026237.94, -1747308.6, 41908.734, 0.028195607, 0.13667971, -1023810.4, 689857.4, 0.018415848, 10.00642, 9.996683 
1.7853685e+3, 1.3513362e+2, -975028.25, -1616164.9, -14180.336, -0.0035460345, 0.07968984, -974714.75, 640985.4, 0.012531009, 10.005811, 9.997207 
1.7853239e+3, 1.4513077e+2, -971341.4, -1576150.9, 2.8371997, 0.044819754, 0.088841796, -971341.4, 546386.7, 0.006871241, 10.005178, 9.997111 
1.7852789e+3, 1.5512794e+2, -963263.3, -1520400.6, 3173.4468, 0.027128862, 0.103249654, -963245.25, 456511.75, 0.0027089454, 10.004534, 9.997132 
1.785234e+3, 1.6512543e+2, -901344.5, -1349430.4, -8042.081, 0.024811603, 0.10835373, -901200.25, 420582.0, 0.0006158096, 10.003886, 9.997946 
1.785189e+3, 1.7512327e+2, -895708.44, -1292791.0, -12185.147, 0.04062724, 0.10571679, -895334.9, 328468.16, 0.000040791798, 10.003236, 9.997975 
1.7851442e+3, 1.851214e+2, -867962.56, -1182537.6, -10486.985, 0.04448651, 0.11143022, -867613.4, 258207.86, 0.0000000068240182, 10.002553, 9.998389 
1.785099e+3, 1.9511984e+2, -872050.06, -1130690.9, -13650.393, 0.035729136, 0.123532414, -871331.6, 156504.78, 0.0, 10.001839, 9.998416 
1.7850545e+3, 2.0511831e+2, -862124.2, -1046730.1, -4245.1064, 0.033569157, 0.12765646, -862026.56, 67825.31, 0.0, 10.001111, 9.998672 
1.78501e+3, 2.1511687e+2, -870027.0, -996568.4, -2414.217, 0.03840177, 0.122939244, -869980.94, -38113.86, 0.0, 10.00037, 9.9987 
1.7849654e+3, 2.2511575e+2, -850753.5, -898179.8, 3496.3997, 0.034569267, 0.13542078, -850497.06, -116617.84, 0.0, 9.999664, 9.9990425 
1.7849208e+3, 2.3511502e+2, -848747.0, -843097.56, 1874.7057, 0.022068068, 0.16350538, -842532.06, -206644.11, 0.0, 9.998991, 9.999072 
1.7848764e+3, 2.4511425e+2, -825129.25, -741881.9, 11364.714, 0.014795969, 0.17431377, -740358.3, -202462.06, 0.0, 9.998313, 9.99942 
1.7848323e+3, 2.5511354e+2, -824101.8, -686926.8, 9432.892, 0.012740938, 0.16735868, -686281.2, -246377.77, 0.0, 9.997631, 9.999454 
1.7847882e+3, 2.6511306e+2, -788737.94, -559985.5, 17508.2, 0.00037618334, 0.15883867, -558653.25, -216745.0, 0.0, 9.996947, 9.999981 
1.784744e+3, 2.7511287e+2, -788122.25, -505277.16, 19831.94, -0.022076776, 0.1477764, -503893.4, -259983.39, 0.0, 9.9962635, 10.000012 
1.7847e+3, 2.851132e+2, -754889.1, -390208.1, 18863.814, -0.03234206, 0.16834258, -389234.9, -243326.23, 0.0, 9.995612, 10.0004425 
1.784656e+3, 2.9511407e+2, -744151.6, -330036.75, 20331.492, -0.030598506, 0.21846735, -329040.94, -281137.2, 0.0, 9.994995, 10.00048 
1.7846118e+3, 3.0511552e+2, -681639.3, -98583.56, 21081.953, -0.0519457, 0.24780881, -97822.28, -97822.28, 0.0, 9.994332, 10.002052 
1.7845674e+3, 3.151178e+2, -781084.4, -141476.73, 19208.367, -0.09564113, 0.27672517, -140900.39, -140900.39, 0.0, 9.9936285, 10.002097 
1.7954202e+3, 1.251818e+2, -1027348.25, -1748060.1, 18908.56, 0.015924541, 0.13188142, -1026852.56, 686377.94, 0.019385966, 10.006416, 9.996681 
1.7953743e+3, 1.3517854e+2, -976389.94, -1618697.0, -37005.527, -0.0004726216, 0.09864257, -974264.94, 640995.9, 0.013224452, 10.00581, 9.997191 
1.7953292e+3, 1.4517573e+2, -968687.25, -1570981.1, -23931.049, 0.052162435, 0.11046742, -967737.94, 549550.3, 0.0072837416, 10.005178, 9.9971485 
1.7952834e+3, 1.5517265e+2, -960258.9, -1514995.1, -20789.002, 0.038375374, 0.095649526, -959480.9, 459838.38, 0.0028945287, 10.004535, 9.997171 
1.7952378e+3, 1.6517007e+2, -908576.94, -1365549.6, -32144.701, 0.029147653, 0.09881744, -906326.9, 415018.1, 0.0006679622, 10.003887, 9.997837 
1.795192e+3, 1.7516807e+2, -902789.06, -1308744.5, -36122.6, 0.027306076, 0.120005354, -899599.9, 323765.1, 0.000045711564, 10.003238, 9.997867 
1.7951465e+3, 1.851661e+2, -873151.7, -1194631.0, -36709.824, 0.03026991, 0.1275238, -869013.06, 256371.17, 0.000000015228453, 10.002556, 9.998307 
1.795101e+3, 1.9516428e+2, -876994.7, -1142444.1, -39758.773, 0.036665406, 0.1207269, -871167.56, 156234.72, 0.0, 10.001842, 9.998336 
1.7950556e+3, 2.0516272e+2, -857498.44, -1038767.2, -31342.432, 0.038930297, 0.12327729, -852232.1, 77185.836, 0.0, 10.001115, 9.998726 
1.7950101e+3, 2.1516149e+2, -865493.44, -988849.3, -29466.02, 0.037925523, 0.13343269, -858816.3, -27385.457, 0.0, 10.000374, 9.998753 
1.794965e+3, 2.2516042e+2, -852616.0, -903761.3, -21036.555, 0.03573484, 0.15105318, -845075.25, -111632.81, 0.0, 9.999668, 9.999003 
1.7949198e+3, 2.3515959e+2, -850594.25, -848800.75, -22820.137, 0.03221928, 0.17480978, -826859.75, -191407.69, 0.0, 9.998996, 9.999032 
1.7948748e+3, 2.4515878e+2, -826964.5, -747703.06, -13766.732, 0.02348438, 0.18382595, -745380.06, -207919.02, 0.0, 9.998318, 9.99938 
1.7948298e+3, 2.5515804e+2, -825754.25, -692384.06, -15690.585, 0.009966097, 0.17774439, -690563.0, -251094.2, 0.0, 9.997637, 9.999414 
1.794785e+3, 2.6515758e+2, -782164.6, -548313.3, -7702.828, -0.004852083, 0.17114358, -548059.9, -206586.64, 0.0, 9.996953, 10.00006 
1.7947403e+3, 2.751575e+2, -781768.9, -493811.28, -5367.7666, -0.021121908, 0.16304316, -493711.25, -250237.38, 0.0, 9.996267, 10.000092 
1.7946956e+3, 2.851579e+2, -749286.2, -380361.97, -3706.6606, -0.027414689, 0.18320474, -380324.72, -234853.06, 0.0, 9.995617, 10.00051 
1.794651e+3, 2.951588e+2, -738253.4, -319974.63, -2075.1199, -0.02392323, 0.2292957, -319964.3, -272498.28, 0.0, 9.995002, 10.000548 
1.7946061e+3, 3.0516014e+2, -682804.9, -103055.34, -4653.7944, -0.04962886, 0.2441004, -103017.984, -103017.984, 0.0, 9.994338, 10.002021 
1.7945608e+3, 3.1516233e+2, -781962.06, -144617.27, -5820.511, -0.10304984, 0.2677267, -144564.13, -144564.13, 0.0, 9.99363, 10.002076 
1.8054266e+3, 1.2522718e+2, -1031956.75, -1748280.3, 36191.93, 0.025215313, 0.14303623, -1030132.8, 682653.9, 0.02038112, 10.006385, 9.996694 
1.80538e+3, 1.3522397e+2, -976816.25, -1618597.5, -19223.293, 0.0028347133, 0.11326752, -976240.94, 638576.1, 0.013936417, 10.005814, 9.997189 
1.8053341e+3, 1.4522119e+2, -964032.4, -1563323.4, -8027.476, 0.049616955, 0.12867707, -963924.9, 552919.0, 0.0077075004, 10.005194, 9.997192 
1.8052879e+3, 1.5521808e+2, -956925.5, -1508143.8, -5143.9707, 0.038515642, 0.1063434, -956877.5, 461997.44, 0.0030852142, 10.0045395, 9.997213 
1.8052416e+3, 1.6521548e+2, -914184.75, -1373852.9, -15369.266, 0.029869968, 0.10924459, -913671.44, 407229.34, 0.0007215662, 10.003877, 9.997783 
1.8051952e+3, 1.7521349e+2, -911520.0, -1318554.3, -16076.314, 0.026359398, 0.13730603, -910886.0, 312034.9, 0.000050707928, 10.003205, 9.997813 
1.8051489e+3, 1.8521146e+2, -880547.4, -1198785.4, -14658.669, 0.02864149, 0.14199735, -879873.6, 245067.25, 0.000000026593373, 10.002511, 9.998298 
1.8051027e+3, 1.952095e+2, -884847.0, -1146932.1, -12905.206, 0.035545908, 0.12326129, -884213.1, 142746.86, 0.0, 10.001795, 9.998326 
1.8050565e+3, 2.0520793e+2, -857866.8, -1038131.8, -3829.112, 0.036626067, 0.12513824, -857785.5, 71190.28, 0.0, 10.001112, 9.99873 
1.8050104e+3, 2.1520679e+2, -852999.75, -982122.94, -6302.626, 0.03275478, 0.14519125, -852692.8, -21704.986, 0.0, 10.000461, 9.998755 
1.8049645e+3, 2.2520573e+2, -845575.1, -902450.1, -1195.907, 0.033465005, 0.16478793, -845550.0, -112550.61, 0.0, 9.999729, 9.998982 
1.8049186e+3, 2.3520482e+2, -862604.4, -856651.75, -1955.778, 0.038253948, 0.18294477, -856066.6, -221056.94, 0.0, 9.998925, 9.999011 
1.8048729e+3, 2.4520396e+2, -839128.06, -752517.5, 12822.153, 0.02886703, 0.18892758, -750659.1, -213640.03, 0.0, 9.998233, 9.999386 
1.8048273e+3, 2.5520322e+2, -824540.75, -690643.2, 13938.343, 0.0064768926, 0.18251833, -689207.7, -250180.73, 0.0, 9.997643, 9.999422 
1.8047817e+3, 2.6520285e+2, -781377.1, -546879.5, 16755.945, -0.009147276, 0.18366876, -545688.3, -204657.33, 0.0, 9.996957, 10.000067 
1.8047363e+3, 2.752029e+2, -793446.6, -498039.34, 13099.977, -0.018809272, 0.19053201, -497459.56, -254428.81, 0.0, 9.996184, 10.0001 
1.8046911e+3, 2.8520337e+2, -764017.75, -378344.34, 15798.464, -0.02282143, 0.21229854, -377698.28, -232670.3, 0.0, 9.99548, 10.000588 
1.8046458e+3, 2.9520422e+2, -756847.7, -319713.0, 17825.615, -0.021047717, 0.24757351, -318987.28, -271965.22, 0.0, 9.994838, 10.0006275 
1.8046004e+3, 3.0520546e+2, -698313.1, -108169.23, 16443.37, -0.048004013, 0.2498277, -107711.414, -107711.414, 0.0, 9.994225, 10.002039 
1.8045545e+3, 3.1520772e+2, -778315.4, -139148.94, 19330.646, -0.10187684, 0.28023514, -138564.84, -138564.84, 0.0, 9.993644, 10.002106 
1.815433e+3, 1.2527324e+2, -1032400.0, -1747244.9, 14629.802, 0.05078522, 0.16764227, -1032100.7, 680236.0, 0.021396792, 10.006379, 9.996705 
1.8153857e+3, 1.3526988e+2, -978338.3, -1620266.5, -40473.535, 0.006135948, 0.12390315, -975796.56, 638572.2, 0.014664883, 10.005807, 9.997182 
1.8153392e+3, 1.4526716e+2, -962374.0, -1559003.5, -32117.281, 0.03843916, 0.14409389, -960650.06, 555745.0, 0.008142583, 10.005189, 9.997227 
1.8152922e+3, 1.552642e+2, -954671.44, -1503619.5, -29310.344, 0.028640876, 0.13361639, -953110.94, 465313.4, 0.0032819265, 10.004538, 9.997248 
1.8152453e+3, 1.6526163e+2, -915336.2, -1376898.9, -40189.977, 0.027429635, 0.13764995, -911862.9, 408587.13, 0.0007772638, 10.003877, 9.997764 
1.8151984e+3, 1.7525952e+2, -912322.25, -1321088.8, -40850.637, 0.037046183, 0.15719147, -908279.8, 314191.47, 0.000055930563, 10.003206, 9.997798 
1.8151514e+3, 1.8525745e+2, -876869.0, -1192321.0, -41058.72, 0.03866293, 0.15501598, -871612.44, 252878.94, 0.000000038391406, 10.002513, 9.998343 
1.8151042e+3, 1.9525547e+2, -881101.06, -1140709.6, -39110.27, 0.032239754, 0.13105334, -875337.06, 151172.89, 0.0, 10.001798, 9.998369 
1.8150574e+3, 2.052539e+2, -861283.8, -1046915.9, -27638.463, 0.026845196, 0.13311972, -857256.1, 71269.64, 0.0, 10.001116, 9.99867 
1.8150106e+3, 2.1525274e+2, -856372.44, -990893.3, -30210.754, 0.022919655, 0.1581479, -849899.2, -19360.748, 0.0, 10.000464, 9.998695 
1.8149641e+3, 2.2525164e+2, -846035.5, -905099.7, -30695.441, 0.02767438, 0.17655823, -832972.3, -100421.8, 0.0, 9.999733, 9.998964 
1.8149175e+3, 2.3525064e+2, -863057.56, -859159.6, -31364.3, 0.039995074, 0.18781976, -829683.8, -195122.38, 0.0, 9.998929, 9.998994 
1.8148711e+3, 2.4524976e+2, -835414.9, -746492.06, -8708.377, 0.030770218, 0.18941584, -745647.25, -209076.36, 0.0, 9.998237, 9.999428 
1.8148248e+3, 2.5524902e+2, -820843.7, -684960.5, -7799.1816, 0.0021899317, 0.18124859, -684514.4, -245935.94, 0.0, 9.997648, 9.99946 
1.8147786e+3, 2.6524878e+2, -786445.5, -559319.1, -11861.871, -0.012504094, 0.1965601, -558701.3, -218119.34, 0.0, 9.996962, 9.999981 
1.8147326e+3, 2.7524906e+2, -798576.4, -510143.72, -15618.695, -0.01499283, 0.23175971, -509300.44, -266719.25, 0.0, 9.996187, 10.000018 
1.8146865e+3, 2.8524953e+2, -757997.1, -367087.72, -8199.242, -0.018665627, 0.25735852, -366915.8, -222337.58, 0.0, 9.9954815, 10.000667 
1.8146405e+3, 2.952503e+2, -750976.56, -308576.38, -6210.7246, -0.022749383, 0.27416295, -308489.2, -261916.66, 0.0, 9.994839, 10.000705 
1.8145944e+3, 3.052515e+2, -693464.2, -99639.625, -5122.4653, -0.04726137, 0.26662207, -99595.44, -99595.44, 0.0, 9.994227, 10.002098 
1.8145481e+3, 3.152541e+2, -771746.56, -128194.445, -1197.7363, -0.090381965, 0.32225057, -128192.21, -128192.21, 0.0, 9.993651, 10.002179 
1.8254395e+3, 1.2531972e+2, -1039105.75, -1744199.8, 34066.51, 0.06296765, 0.17685048, -1037463.7, 674418.6, 0.022430053, 10.006314, 9.996755 
1.8253914e+3, 1.3531639e+2, -995264.75, -1624830.3, -18887.447, 0.0099575175, 0.135198, -994698.6, 619215.5, 0.015408685, 10.005681, 9.99721 
1.825344e+3, 1.4531378e+2, -979166.44, -1562509.6, -10464.349, 0.036067784, 0.16193345, -978978.75, 536960.9, 0.008589397, 10.005058, 9.997263 
1.8252966e+3, 1.5531087e+2, -965027.94, -1504270.5, -8083.1167, 0.030428778, 0.15334456, -964906.8, 453061.56, 0.0034857695, 10.004452, 9.997282 
1.825249e+3, 1.6530827e+2, -929301.94, -1385597.9, -21822.94, 0.029091472, 0.15503645, -928260.6, 391733.63, 0.00083586934, 10.003793, 9.997743 
1.8252014e+3, 1.7530608e+2, -931444.7, -1332057.0, -23310.768, 0.034673743, 0.16848588, -930092.8, 291923.6, 0.000061603234, 10.003086, 9.997778 
1.8251537e+3, 1.85304e+2, -888146.75, -1190600.6, -23558.514, 0.03472651, 0.1642515, -886322.75, 237713.69, 0.00000004824908, 10.002408, 9.998404 
1.825106e+3, 1.9530211e+2, -883723.5, -1135246.5, -21100.195, 0.02877353, 0.14197831, -881965.7, 144088.28, 0.0, 10.001755, 9.9984255 
1.8250583e+3, 2.0530055e+2, -872441.5, -1055355.4, -9187.4795, 0.025451932, 0.14635243, -871981.2, 56088.344, 0.0, 10.001056, 9.998638 
1.825011e+3, 2.152994e+2, -880229.44, -1005409.44, -10112.479, 0.025088318, 0.17396641, -879417.75, -49335.08, 0.0, 10.000317, 9.998665 
1.8249637e+3, 2.2529823e+2, -853813.94, -904497.6, -7853.165, 0.027688053, 0.18861178, -852625.0, -120529.95, 0.0, 9.999664, 9.999 
1.8249165e+3, 2.3529717e+2, -838056.9, -842963.06, -4841.1167, 0.03287789, 0.19055092, -835082.8, -200976.73, 0.0, 9.999085, 9.999027 
1.8248692e+3, 2.452963e+2, -814665.56, -736925.7, 16957.54, 0.024866326, 0.19238809, -733387.7, -197272.38, 0.0, 9.998384, 9.99942 
1.8248224e+3, 2.5529563e+2, -832078.2, -690886.75, 13616.091, 0.0048625707, 0.19303297, -689585.7, -251463.33, 0.0, 9.997577, 9.999453 
1.8247755e+3, 2.6529542e+2, -806894.3, -575907.06, 7664.094, -0.007812467, 0.21219423, -575653.0, -235526.69, 0.0, 9.996854, 9.999917 
1.8247287e+3, 2.752956e+2, -800275.5, -517050.25, 5192.7065, -0.01396574, 0.24696933, -516955.06, -274828.2, 0.0, 9.996205, 9.99996 
1.8246819e+3, 2.852961e+2, -743085.25, -348975.38, 15664.018, -0.021206874, 0.27439755, -348353.78, -204230.16, 0.0, 9.99554, 10.000761 
1.8246353e+3, 2.95297e+2, -740850.25, -292875.88, 18353.229, -0.02903167, 0.2945446, -292125.22, -246009.05, 0.0, 9.994864, 10.000798 
1.8245885e+3, 3.0529812e+2, -705179.06, -105665.984, 16995.418, -0.04768822, 0.27763042, -105184.57, -105184.57, 0.0, 9.994152, 10.00209 
1.8245417e+3, 3.153008e+2, -806126.9, -142785.89, 16186.688, -0.07576144, 0.33998924, -142391.14, -142391.14, 0.0, 9.993411, 10.002193 
1.8354456e+3, 1.2536663e+2, -1035140.2, -1734718.1, 11039.874, 0.062707596, 0.17270578, -1034966.0, 676457.4, 0.023480058, 10.006313, 9.996822 
1.835397e+3, 1.353635e+2, -992766.1, -1619179.3, -41768.83, 0.014222373, 0.14721102, -989993.25, 623460.1, 0.016167918, 10.00568, 9.997251 
1.835349e+3, 1.45361e+2, -977860.5, -1559530.5, -32469.12, 0.04128623, 0.18176307, -976053.7, 539424.25, 0.009048792, 10.005055, 9.997287 
1.835301e+3, 1.5535805e+2, -963878.06, -1501497.8, -30250.527, 0.042632457, 0.16616866, -962181.25, 455325.9, 0.0036978228, 10.004447, 9.997306 
1.8352528e+3, 1.653554e+2, -932281.0, -1391878.1, -47690.906, 0.034253363, 0.16238879, -927384.44, 392149.25, 0.00089814706, 10.00379, 9.997703 
1.8352042e+3, 1.7535312e+2, -933573.8, -1337481.8, -48912.414, 0.019979307, 0.17187831, -927735.0, 293821.66, 0.00006797303, 10.003086, 9.997743 
1.8351558e+3, 1.8535107e+2, -883342.3, -1182049.5, -47278.816, 0.017791001, 0.17005813, -876037.7, 247538.58, 0.000000055274803, 10.00241, 9.998464 
1.8351075e+3, 1.9534932e+2, -879124.75, -1127250.4, -44970.17, 0.025300592, 0.15598574, -871225.8, 154366.53, 0.0, 10.001758, 9.998481 
1.8350594e+3, 2.0534782e+2, -872817.06, -1057781.4, -36247.984, 0.03226472, 0.16466172, -865967.1, 61640.39, 0.0, 10.00106, 9.998622 
1.8350114e+3, 2.1534665e+2, -880426.94, -1007599.9, -36980.97, 0.039198685, 0.1926492, -870455.06, -40834.047, 0.0, 10.000321, 9.99865 
1.8349633e+3, 2.2534548e+2, -847575.5, -893411.8, -28770.246, 0.03333068, 0.20098525, -833710.94, -102077.55, 0.0, 9.999668, 9.999075 
1.8349151e+3, 2.3534438e+2, -832033.4, -832739.4, -26107.164, 0.016383525, 0.19105741, -806276.8, -172632.75, 0.0, 9.999092, 9.999097 
1.8348674e+3, 2.4534354e+2, -818625.9, -747332.44, -12986.227, 0.01093227, 0.19812617, -745040.7, -209387.83, 0.0, 9.99839, 9.999348 
1.8348199e+3, 2.5534302e+2, -836541.6, -701644.06, -16308.281, 0.015186872, 0.21897894, -699700.44, -262041.33, 0.0, 9.99758, 9.999379 
1.8347724e+3, 2.6534262e+2, -809866.06, -583621.2, -16209.3955, 0.005483982, 0.23039745, -582465.8, -242801.08, 0.0, 9.996857, 9.999865 
1.8347245e+3, 2.7534243e+2, -802355.3, -523706.56, -18782.797, -0.016328245, 0.23273543, -522446.16, -280777.4, 0.0, 9.996212, 9.999913 
1.8346773e+3, 2.85343e+2, -734670.5, -334273.97, -9438.389, -0.031451188, 0.25995192, -334051.63, -190386.64, 0.0, 9.995548, 10.00086 
1.8346299e+3, 2.9534423e+2, -732925.06, -279045.13, -6839.049, -0.04052177, 0.30815747, -278942.1, -233288.6, 0.0, 9.994872, 10.000892 
1.8345825e+3, 3.053453e+2, -711291.0, -120103.01, -11073.7295, -0.049385205, 0.28163242, -119895.66, -119895.66, 0.0, 9.994156, 10.001991 
1.8345352e+3, 3.1534776e+2, -811208.94, -153295.25, -10925.474, -0.0572236, 0.33364615, -153113.88, -153113.88, 0.0, 9.993406, 10.002125 
1.845452e+3, 1.2541439e+2, -1031194.4, -1731186.4, 46000.64, 0.06938244, 0.16875853, -1028184.3, 682771.25, 0.024546847, 10.006344, 9.99683 
1.8454026e+3, 1.3541134e+2, -992309.0, -1620076.1, -10543.863, 0.017872041, 0.15190685, -992131.94, 620853.5, 0.016943118, 10.005696, 9.997234 
1.845354e+3, 1.454089e+2, -983681.06, -1557850.4, -3681.683, 0.04006666, 0.19498344, -983657.44, 531352.06, 0.009521648, 10.005002, 9.997322 
1.8453053e+3, 1.5540601e+2, -987205.94, -1508374.6, -1284.9661, 0.043097213, 0.18117145, -987202.75, 429835.66, 0.0039189598, 10.0042715, 9.997341 
1.8452564e+3, 1.6540332e+2, -954842.5, -1395902.6, -14611.248, 0.034171972, 0.17107713, -954359.0, 364706.0, 0.00096465397, 10.003609, 9.997761 
1.8452072e+3, 1.7540096e+2, -942404.8, -1335280.5, -9526.272, 0.017127683, 0.16766448, -942174.0, 278914.22, 0.00007524983, 10.003001, 9.997797 
1.845158e+3, 1.8539897e+2, -894017.3, -1189803.3, -9190.905, 0.01506395, 0.16924326, -893732.0, 229375.48, 0.00000006030829, 10.002352, 9.998436 
1.8451092e+3, 1.9539735e+2, -894855.25, -1137496.9, -13680.968, 0.02532496, 0.17237476, -894086.25, 131036.52, 0.0, 10.001664, 9.998454 
1.8450603e+3, 2.0539586e+2, -885872.1, -1064254.6, -9754.098, 0.0323013, 0.18387641, -885340.4, 41797.746, 0.0, 10.000975, 9.998617 
1.8450114e+3, 2.1539457e+2, -886699.56, -1010610.2, -9994.157, 0.03688328, 0.20222892, -885898.7, -56746.152, 0.0, 10.000281, 9.998646 
1.8449628e+3, 2.2539337e+2, -851892.7, -890136.94, 758.1801, 0.031061463, 0.20597298, -851877.7, -120712.7, 0.0, 9.9996195, 9.99912 
1.8449141e+3, 2.353923e+2, -845332.25, -834200.5, 428.68027, 0.016047128, 0.19590205, -834184.0, -201009.1, 0.0, 9.998983, 9.999137 
1.8448655e+3, 2.4539149e+2, -833781.1, -756708.06, 8070.0405, 0.010006994, 0.20649965, -755872.1, -220688.73, 0.0, 9.998299, 9.999326 
1.8448174e+3, 2.5539103e+2, -839185.94, -704888.94, 8149.882, 0.011965435, 0.23407482, -704396.1, -267206.47, 0.0, 9.997574, 9.999358 
1.844769e+3, 2.6539057e+2, -804006.5, -576458.6, 17401.578, 0.0030670448, 0.23891528, -575135.56, -235939.83, 0.0, 9.9968815, 9.9999 
1.8447208e+3, 2.7539024e+2, -798901.56, -517862.66, 20848.07, -0.015724033, 0.22297314, -516324.53, -275123.8, 0.0, 9.996222, 9.999948 
1.8446726e+3, 2.8539076e+2, -740281.56, -337168.47, 26263.938, -0.031980716, 0.25293654, -335464.5, -192267.95, 0.0, 9.995514, 10.0008545 
1.8446246e+3, 2.9539225e+2, -748305.3, -286490.3, 19977.502, -0.045480587, 0.32208243, -285627.72, -240444.2, 0.0, 9.994771, 10.000888 
1.8445766e+3, 3.053932e+2, -723502.1, -121748.2, 16787.797, -0.051242035, 0.28162888, -121280.22, -121280.22, 0.0, 9.994058, 10.002026 
1.8445285e+3, 3.153955e+2, -811137.44, -145142.2, 27976.908, -0.04922354, 0.32054088, -143969.02, -143969.02, 0.0, 9.993376, 10.002193 
1.8554583e+3, 1.2546293e+2, -1035972.75, -1739720.4, 21949.545, 0.08043663, 0.1643988, -1035288.8, 675190.8, 0.025630679, 10.00634, 9.996776 
1.8554083e+3, 1.3545983e+2, -998743.1, -1632192.5, -34026.164, 0.020918604, 0.15017055, -996920.6, 615590.06, 0.017734721, 10.005691, 9.997157 
1.8553588e+3, 1.4545748e+2, -982103.94, -1553997.3, -30033.021, 0.03317133, 0.20242825, -980531.06, 534003.4, 0.010008608, 10.004997, 9.997353 
1.8553093e+3, 1.5545468e+2, -984526.6, -1503759.9, -27760.76, 0.032992452, 0.19822297, -983046.6, 433515.88, 0.004149832, 10.004273, 9.997375 
1.8552598e+3, 1.6545202e+2, -945013.2, -1376847.4, -36826.773, 0.02949787, 0.18089211, -941895.1, 376693.34, 0.0010357649, 10.003612, 9.997892 
1.85521e+3, 1.7544957e+2, -933608.44, -1318040.4, -31877.768, 0.025377577, 0.1563187, -930983.06, 289628.38, 0.0000835782, 10.003002, 9.997917 
1.8551604e+3, 1.8544762e+2, -902156.1, -1207854.0, -34478.492, 0.025495576, 0.16233954, -898315.7, 224314.84, 0.00000006571913, 10.002353, 9.998314 
1.8551107e+3, 1.9544613e+2, -902545.7, -1155110.5, -38839.094, 0.028531365, 0.19122009, -896708.0, 127937.73, 0.0, 10.001668, 9.998333 
1.855061e+3, 2.0544459e+2, -885531.2, -1065415.0, -35104.23, 0.02557281, 0.2038901, -878923.4, 47738.438, 0.0, 10.000978, 9.998609 
1.8550114e+3, 2.1544312e+2, -886336.0, -1011765.5, -35136.105, 0.018057307, 0.20262255, -877164.1, -48486.48, 0.0, 10.000286, 9.998638 
1.8549621e+3, 2.2544186e+2, -851123.2, -890442.6, -22509.03, 0.021075588, 0.20364496, -840897.1, -110206.93, 0.0, 9.999624, 9.999117 
1.8549131e+3, 2.3544092e+2, -844753.8, -834759.7, -23081.498, 0.032715097, 0.2054277, -816140.5, -183441.42, 0.0, 9.998987, 9.999133 
1.8548639e+3, 2.4544013e+2, -831936.75, -754506.1, -18685.11, 0.02236347, 0.21746577, -750233.0, -215525.55, 0.0, 9.998302, 9.999341 
1.8548146e+3, 2.5543958e+2, -836845.7, -701985.2, -18444.6, -0.006238666, 0.23732214, -699508.06, -262793.56, 0.0, 9.997578, 9.999377 
1.8547656e+3, 2.6543915e+2, -794760.5, -559562.56, -6832.685, -0.016327465, 0.23705448, -559364.2, -220644.36, 0.0, 9.996888, 10.000014 
1.854717e+3, 2.754389e+2, -790283.2, -502297.22, -3359.0383, -0.011527809, 0.21845716, -502258.06, -261535.1, 0.0, 9.996227, 10.000053 
1.8546681e+3, 2.8543952e+2, -749156.0, -357644.97, -1064.6575, -0.021512961, 0.25424355, -357642.1, -214923.5, 0.0, 9.99552, 10.000713 
1.8546192e+3, 2.9544094e+2, -756566.75, -305193.38, -7651.115, -0.043125074, 0.33603758, -305063.72, -260356.9, 0.0, 9.994774, 10.00076 
1.8545705e+3, 3.054417e+2, -710518.8, -96557.375, -8228.745, -0.053706363, 0.27680334, -96447.11, -96447.11, 0.0, 9.994061, 10.002199 
1.8545218e+3, 3.154441e+2, -794569.2, -113256.984, 4794.718, -0.05342837, 0.3070387, -113223.24, -113223.24, 0.0, 9.993382, 10.002412 
1.8654644e+3, 1.2551229e+2, -1037171.3, -1738905.9, 49678.1, 0.07831684, 0.1653709, -1033671.9, 676324.2, 0.026730971, 10.006336, 9.996781 
1.8654138e+3, 1.3550916e+2, -1015574.3, -1642490.6, -2009.8326, 0.029303992, 0.15324809, -1015567.9, 596459.7, 0.018542267, 10.0055895, 9.997132 
1.8653637e+3, 1.4550683e+2, -995005.7, -1560727.3, 3415.7283, 0.037453774, 0.21046759, -994985.06, 519066.38, 0.010509447, 10.004916, 9.997344 
1.8653135e+3, 1.5550408e+2, -980342.4, -1501669.3, 2682.9866, 0.029351005, 0.20905106, -980328.56, 435751.0, 0.004390478, 10.004306, 9.997371 
1.8652631e+3, 1.6550143e+2, -937304.2, -1363099.9, -10243.219, 0.025303623, 0.1912196, -937057.9, 381047.22, 0.0011116079, 10.003625, 9.997978 
1.8652129e+3, 1.7549904e+2, -945915.06, -1314851.1, -8944.611, 0.026578799, 0.16368689, -945698.4, 274428.56, 0.000093036746, 10.002882, 9.997994 
1.8651626e+3, 1.8549709e+2, -927163.4, -1226787.9, -10229.246, 0.02920504, 0.16977227, -926814.56, 195331.61, 0.00000007494837, 10.002214, 9.998248 
1.8651122e+3, 1.9549556e+2, -915838.25, -1168177.8, -10997.308, 0.03215108, 0.20113644, -915359.9, 108802.52, 0.0, 10.001609, 9.99827 
1.8650618e+3, 2.0549397e+2, -883762.3, -1062490.0, -5764.9463, 0.02508896, 0.21230413, -883576.56, 42602.42, 0.0, 10.000985, 9.998624 
1.8650116e+3, 2.1549243e+2, -876911.75, -1005385.94, -4738.799, 0.010266598, 0.20609283, -876737.2, -48542.35, 0.0, 10.000346, 9.998651 
1.8649615e+3, 2.254912e+2, -847175.2, -887491.2, 7500.181, 0.014319969, 0.20668206, -845825.1, -115617.91, 0.0, 9.99965, 9.999123 
1.8649119e+3, 2.3549026e+2, -856479.0, -839993.94, 6957.08, 0.03404184, 0.21202388, -837450.4, -205234.61, 0.0, 9.998908, 9.999133 
1.864862e+3, 2.4548948e+2, -844254.8, -763266.06, 9720.708, 0.023690026, 0.2241045, -762115.6, -227891.19, 0.0, 9.998234, 9.999311 
1.8648121e+3, 2.5548887e+2, -833879.7, -702959.1, 5711.256, -0.011848201, 0.24075183, -702710.44, -266478.13, 0.0, 9.997613, 9.999352 
1.8647623e+3, 2.6548845e+2, -787132.7, -547391.1, 11900.804, -0.021931449, 0.24034989, -546801.8, -208564.5, 0.0, 9.996907, 10.000087 
1.864713e+3, 2.754883e+2, -799298.3, -498751.22, 11379.92, -0.011105264, 0.22444128, -498320.97, -258081.9, 0.0, 9.996136, 10.000119 
1.8646635e+3, 2.854889e+2, -766703.06, -369126.94, 16349.998, -0.02019553, 0.26002905, -368455.7, -226221.17, 0.0, 9.995416, 10.000683 
1.8646139e+3, 2.9549026e+2, -763596.75, -311269.72, 17604.215, -0.045251735, 0.3388825, -310585.63, -266361.9, 0.0, 9.9947405, 10.000731 
1.8645643e+3, 3.054909e+2, -709350.94, -88453.84, 16150.833, -0.057061303, 0.26565367, -88034.01, -88034.01, 0.0, 9.994041, 10.002262 
1.864515e+3, 3.154935e+2, -794816.06, -99333.086, 21264.498, -0.055938542, 0.30722114, -98683.52, -98683.52, 0.0, 9.993325, 10.002533 
1.8754706e+3, 1.2556241e+2, -1035596.75, -1733672.0, 21561.088, 0.064034626, 0.17021708, -1034931.44, 674573.8, 0.027845701, 10.0063305, 9.996821 
1.8754195e+3, 1.3555934e+2, -1015881.1, -1642483.1, -29207.139, 0.04237934, 0.16056481, -1014522.7, 597013.75, 0.019364143, 10.005588, 9.997136 
1.8753685e+3, 1.4555699e+2, -999113.56, -1569279.6, -18810.8, 0.05127718, 0.21906163, -998493.6, 515067.06, 0.011022953, 10.004914, 9.997289 
1.8753177e+3, 1.5555412e+2, -984170.75, -1509667.9, -19851.178, 0.031308025, 0.214253, -983421.94, 432168.16, 0.004640234, 10.004303, 9.997319 
1.8752667e+3, 1.6555154e+2, -934959.25, -1358954.9, -37492.5, 0.021404082, 0.20221904, -931669.44, 385945.7, 0.0011920563, 10.003624, 9.998009 
1.8752156e+3, 1.7554931e+2, -943333.56, -1311381.4, -35873.707, 0.021183299, 0.18851794, -939869.56, 279765.6, 0.00010366756, 10.002886, 9.998018 
1.8751647e+3, 1.8554732e+2, -927768.3, -1230202.3, -32339.865, 0.026681058, 0.19036053, -924348.8, 197306.0, 0.00000009512311, 10.00222, 9.998224 
1.8751137e+3, 1.9554557e+2, -916607.0, -1171666.5, -33044.746, 0.036211625, 0.20219952, -912395.4, 111277.84, 0.0, 10.001613, 9.998246 
1.8750629e+3, 2.0554395e+2, -881346.75, -1059322.6, -29087.225, 0.030719044, 0.2096124, -876713.56, 48976.47, 0.0, 10.00099, 9.998646 
1.8750118e+3, 2.1554253e+2, -874628.0, -1002618.6, -28145.07, 0.013481091, 0.21285585, -868712.4, -41007.93, 0.0, 10.000351, 9.99867 
1.8749611e+3, 2.2554131e+2, -846474.5, -887961.56, -19790.389, 0.01053314, 0.21506001, -838548.25, -108831.87, 0.0, 9.999655, 9.99912 
1.8749106e+3, 2.3554033e+2, -856427.3, -841680.75, -20119.22, 0.019205326, 0.21546929, -827626.25, -195900.8, 0.0, 9.998912, 9.999122 
1.8748601e+3, 2.4553946e+2, -849999.8, -777078.6, -13049.2705, 0.013715009, 0.22623737, -774813.8, -241078.84, 0.0, 9.998238, 9.999217 
1.8748096e+3, 2.5553876e+2, -838955.2, -715812.06, -17461.3, -0.003583646, 0.24443619, -713384.0, -277640.25, 0.0, 9.997619, 9.999263 
1.8747593e+3, 2.6553836e+2, -785593.7, -546401.0, -17013.969, -0.012711281, 0.24938068, -545196.9, -207448.11, 0.0, 9.996913, 10.0000925 
1.874709e+3, 2.755383e+2, -797952.0, -497529.9, -17556.795, -0.015250852, 0.24219444, -496507.38, -256757.72, 0.0, 9.996139, 10.000129 
1.8746588e+3, 2.8553888e+2, -760586.75, -358071.8, -8798.692, -0.029340347, 0.27057567, -357879.6, -216134.48, 0.0, 9.995419, 10.000759 
1.8746084e+3, 2.9554012e+2, -757515.1, -301030.78, -7511.8354, -0.052496545, 0.32858688, -300907.2, -257172.27, 0.0, 9.994747, 10.000801 
1.8745582e+3, 3.0554068e+2, -714039.6, -100852.2, -10590.475, -0.06141424, 0.247478, -100669.35, -100669.35, 0.0, 9.994049, 10.002176 
1.8745081e+3, 3.1554362e+2, -794372.94, -100808.234, -4534.1284, -0.055982213, 0.33189857, -100778.59, -100778.59, 0.0, 9.993331, 10.0025215 
1.8854769e+3, 1.2561332e+2, -1037622.75, -1733958.9, 43622.723, 0.062337592, 0.18209514, -1034900.56, 674106.7, 0.028972946, 10.006325, 9.99682 
1.8854249e+3, 1.3561021e+2, -1017627.6, -1646164.6, -9025.569, 0.046616852, 0.17464432, -1017498.0, 593540.7, 0.02019846, 10.005596, 9.997104 
1.8853733e+3, 1.4560781e+2, -1003219.75, -1569033.6, 5330.6343, 0.05337527, 0.22977889, -1003169.5, 509893.8, 0.01154745, 10.004882, 9.997303 
1.8853217e+3, 1.5560487e+2, -1001154.3, -1515604.1, 8537.046, 0.032560132, 0.21482775, -1001012.7, 414080.78, 0.0048979553, 10.004181, 9.997335 
1.8852702e+3, 1.6560231e+2, -943401.7, -1357568.8, -6921.409, 0.022415832, 0.20339507, -943286.06, 373832.13, 0.0012767215, 10.003547, 9.998054 
1.8852183e+3, 1.7560022e+2, -929561.0, -1300023.1, -4814.559, 0.02204099, 0.19902594, -929498.44, 289638.5, 0.00011545641, 10.002964, 9.998057 
1.8851668e+3, 1.8559822e+2, -915207.4, -1224202.6, -716.94977, 0.026580513, 0.20078637, -915205.7, 205950.77, 0.00000013665432, 10.00231, 9.99822 
1.8851152e+3, 1.9559637e+2, -919532.06, -1173337.3, -549.39935, 0.034683447, 0.2045574, -919530.9, 103644.91, 0.0, 10.001598, 9.9982395 
1.8850636e+3, 2.0559473e+2, -892200.56, -1062619.8, 3281.891, 0.030669421, 0.20956291, -892137.44, 33055.316, 0.0, 10.000911, 9.998659 
1.885012e+3, 2.1559334e+2, -890127.6, -1008764.9, 2926.3865, 0.017171739, 0.21532623, -890055.44, -62848.77, 0.0, 10.000243, 9.998677 
1.8849605e+3, 2.2559212e+2, -857917.4, -898057.2, 7519.548, 0.010714976, 0.22009759, -856555.0, -127336.23, 0.0, 9.999599, 9.999074 
1.8849093e+3, 2.3559111e+2, -850612.56, -843385.8, 3548.8152, 0.0099743, 0.22280844, -841934.56, -210706.25, 0.0, 9.998976, 9.999078 
1.8848582e+3, 2.4559018e+2, -845912.0, -773045.9, 12694.757, 0.006046323, 0.22924705, -770897.5, -237659.27, 0.0, 9.998261, 9.999231 
1.884807e+3, 2.555894e+2, -859113.06, -723870.0, 15994.334, -0.0005928859, 0.23805241, -722004.2, -286756.7, 0.0, 9.997478, 9.999273 
1.884756e+3, 2.6558897e+2, -806371.6, -560662.6, 17705.059, -0.010711145, 0.24388897, -559393.44, -222140.78, 0.0, 9.996793, 10.000051 
1.884705e+3, 2.7558893e+2, -794035.4, -499549.84, 12558.457, -0.023811745, 0.24565482, -499015.25, -259761.72, 0.0, 9.996186, 10.00009 
1.8846539e+3, 2.8558955e+2, -749979.7, -350138.2, 15666.957, -0.038958244, 0.2755275, -349525.25, -208276.33, 0.0, 9.995484, 10.00078 
1.8846029e+3, 2.9559076e+2, -762150.8, -301022.84, 11985.714, -0.055420157, 0.32874712, -300711.53, -257472.83, 0.0, 9.99471, 10.000817 
1.8845521e+3, 3.0559114e+2, -726826.3, -115641.45, 7868.4487, -0.06290662, 0.23647337, -115540.17, -115540.17, 0.0, 9.994002, 10.002094 
1.8845013e+3, 3.1559417e+2, -791239.94, -97482.484, 15222.871, -0.060318567, 0.34096247, -97148.61, -97148.61, 0.0, 9.993349, 10.002534 
1.895483e+3, 1.2566493e+2, -1043811.3, -1742939.3, 15533.877, 0.069417164, 0.1993246, -1043466.4, 665036.0, 0.030113501, 10.0063095, 9.996768 
1.8954302e+3, 1.356618e+2, -1024046.56, -1658181.9, -35536.477, 0.043034498, 0.19435813, -1022061.3, 588473.25, 0.021044895, 10.0055895, 9.997027 
1.8953781e+3, 1.4565931e+2, -999000.56, -1560311.0, -19990.229, 0.045372736, 0.24213623, -998289.56, 514270.1, 0.01208192, 10.004881, 9.997366 
1.895326e+3, 1.5565626e+2, -996390.25, -1506981.6, -16862.14, 0.033291522, 0.21131685, -995833.94, 418756.13, 0.0051625264, 10.004184, 9.9973955 
1.8952736e+3, 1.6565372e+2, -939648.25, -1351388.8, -28222.375, 0.02785396, 0.19577233, -937722.75, 378891.7, 0.0013649672, 10.00355, 9.998096 
1.8952213e+3, 1.7565171e+2, -926459.8, -1294870.1, -26485.41, 0.028604567, 0.19633596, -924565.5, 294067.0, 0.00012825709, 10.002966, 9.998094 
1.895169e+3, 1.8564977e+2, -914653.94, -1224585.5, -27015.22, 0.028584043, 0.2018554, -912316.8, 208334.77, 0.00000020670124, 10.002313, 9.998219 
1.8951166e+3, 1.9564795e+2, -918785.5, -1173942.9, -26614.867, 0.027695032, 0.20831536, -916038.94, 106631.55, 0.0, 10.001603, 9.998236 
1.8950643e+3, 2.0564628e+2, -891871.6, -1064119.4, -21204.29, 0.025156956, 0.21197964, -889299.75, 35387.855, 0.0, 10.000916, 9.998648 
1.8950123e+3, 2.1564484e+2, -890469.3, -1011524.1, -21329.639, 0.021393435, 0.21339932, -886821.06, -60118.96, 0.0, 10.000248, 9.998658 
1.8949601e+3, 2.2564359e+2, -864192.56, -913164.7, -15252.018, 0.0149195315, 0.22183996, -859830.94, -131116.25, 0.0, 9.999605, 9.99897 
1.8949081e+3, 2.3564258e+2, -856021.3, -856912.8, -19735.955, 0.0065248376, 0.2342949, -836726.06, -206001.36, 0.0, 9.998981, 9.998984 
1.8948562e+3, 2.4564157e+2, -836922.25, -756463.8, -16411.025, 0.0006519375, 0.23302084, -753245.2, -220510.36, 0.0, 9.998266, 9.999345 
1.8948044e+3, 2.5564072e+2, -851593.5, -709691.25, -12582.57, -0.0034346269, 0.22065985, -708584.2, -273840.25, 0.0, 9.997479, 9.9993725 
1.8947525e+3, 2.6564023e+2, -813570.5, -577297.75, -4354.6084, -0.016652182, 0.22239704, -577217.56, -240468.02, 0.0, 9.996797, 9.999937 
1.8947008e+3, 2.7564016e+2, -800446.3, -515672.97, -10049.616, -0.037305072, 0.23307462, -515318.78, -276567.44, 0.0, 9.996194, 9.999977 
1.8946491e+3, 2.8564078e+2, -752577.8, -358466.8, -13387.5205, -0.049059972, 0.2743814, -358012.6, -217265.94, 0.0, 9.995492, 10.000721 
1.8945976e+3, 2.9564208e+2, -765512.56, -310214.56, -17035.916, -0.053321104, 0.3413139, -309578.03, -266842.47, 0.0, 9.994716, 10.000753 
1.894546e+3, 3.0564225e+2, -732015.94, -128991.93, -16684.096, -0.061257903, 0.23364423, -128530.68, -128530.68, 0.0, 9.994009, 10.002002 
1.8944944e+3, 3.1564516e+2, -787661.56, -93708.516, -7944.5547, -0.0694777, 0.33710924, -93617.58, -93617.58, 0.0, 9.9933605, 10.002557 
1.9054891e+3, 1.2571715e+2, -1067822.8, -1745070.6, 33116.86, 0.07331795, 0.2164549, -1066207.1, 641784.56, 0.03126878, 10.006107, 9.996849 
1.9054356e+3, 1.3571392e+2, -1034788.06, -1657338.4, -8283.839, 0.044715013, 0.19809912, -1034677.8, 575346.6, 0.02190362, 10.005496, 9.997075 
1.9053827e+3, 1.4571144e+2, -996059.94, -1550973.5, 11128.041, 0.042668767, 0.24078716, -995836.9, 516212.38, 0.012625462, 10.004874, 9.997431 
1.90533e+3, 1.5570845e+2, -983761.2, -1493911.1, 13974.168, 0.03169241, 0.21025664, -983378.7, 430699.97, 0.005432531, 10.004246, 9.997453 
1.905277e+3, 1.6570593e+2, -937224.7, -1352562.4, 236.25604, 0.029616285, 0.19673817, -937224.56, 378878.28, 0.0014556925, 10.003581, 9.998072 
1.9052242e+3, 1.7570393e+2, -940258.25, -1304095.0, -3443.411, 0.034957655, 0.20081809, -940225.7, 277895.56, 0.00014169511, 10.002886, 9.998067 
1.9051711e+3, 1.8570198e+2, -920663.7, -1225459.3, -5906.6597, 0.03206153, 0.20674813, -920549.25, 199591.2, 0.00000030311395, 10.002267, 9.998233 
1.9051181e+3, 1.9570014e+2, -903757.94, -1165338.6, -5299.6606, 0.022737086, 0.21118625, -903650.6, 118508.75, 0.0, 10.001704, 9.998243 
1.9050652e+3, 2.0569848e+2, -876571.2, -1058884.4, -3374.496, 0.02001745, 0.21705383, -876508.75, 47667.64, 0.0, 10.001035, 9.998625 
1.9050123e+3, 2.1569705e+2, -887693.56, -1012625.6, -4907.9756, 0.022409469, 0.22371203, -887501.06, -61310.26, 0.0, 10.000281, 9.998632 
1.9049595e+3, 2.2569576e+2, -870401.1, -916691.2, 6219.165, 0.016482396, 0.23005268, -869580.1, -141376.31, 0.0, 9.999569, 9.998961 
1.904907e+3, 2.3569466e+2, -870543.8, -864491.6, 8236.171, 0.004285053, 0.23507789, -858743.25, -228528.52, 0.0, 9.998889, 9.998975 
1.9048542e+3, 2.4569365e+2, -841001.06, -753731.6, 8263.709, -0.0035820513, 0.2325871, -752956.0, -220731.3, 0.0, 9.998222, 9.999383 
1.9048017e+3, 2.5569284e+2, -837190.5, -698721.75, 5902.7886, -0.008229447, 0.22345382, -698470.56, -264237.75, 0.0, 9.997565, 9.999404 
1.9047493e+3, 2.6569232e+2, -806430.4, -578247.25, 16226.54, -0.022088602, 0.22326052, -577099.1, -240860.5, 0.0, 9.996868, 9.999893 
1.9046968e+3, 2.7569216e+2, -811007.5, -524985.8, 15226.086, -0.043444, 0.228188, -524177.56, -285935.88, 0.0, 9.996144, 9.999935 
1.9046444e+3, 2.8569275e+2, -760946.3, -364237.06, 13044.311, -0.0544694, 0.27059722, -363808.6, -223571.34, 0.0, 9.995447, 10.000701 
1.9045922e+3, 2.9569408e+2, -759909.5, -309788.84, 11849.26, -0.056723062, 0.3438317, -309477.13, -267251.5, 0.0, 9.994768, 10.000729 
1.9045398e+3, 3.0569407e+2, -735984.3, -139822.4, 13917.502, -0.06264139, 0.2231109, -139497.67, -139497.67, 0.0, 9.994024, 10.001918 
1.9044876e+3, 3.1569695e+2, -802014.0, -94007.84, 24317.084, -0.06959924, 0.33074588, -93173.64, -93173.64, 0.0, 9.9932375, 10.002611 
1.9154951e+3, 1.2576996e+2, -1057547.3, -1720488.1, 9778.736, 0.07309301, 0.23238842, -1057403.1, 650072.25, 0.032436136, 10.0061, 9.997024 
1.9154412e+3, 1.357666e+2, -1026470.3, -1638274.5, -30582.191, 0.050925024, 0.18832462, -1024945.4, 584563.06, 0.022772253, 10.00549, 9.997211 
1.9153875e+3, 1.4576419e+2, -992850.2, -1543803.5, -11933.017, 0.04442909, 0.22800957, -992591.8, 518940.47, 0.013175674, 10.00487, 9.997484 
1.915334e+3, 1.5576139e+2, -980937.25, -1488510.3, -9563.698, 0.027864624, 0.21154445, -980757.1, 432802.53, 0.00570573, 10.004245, 9.997493 
1.9152805e+3, 1.6575891e+2, -943870.2, -1367835.3, -25568.33, 0.028053632, 0.20538798, -942333.75, 373249.94, 0.0015473877, 10.003584, 9.997968 
1.9152269e+3, 1.7575684e+2, -945992.0, -1318419.6, -28694.744, 0.041133624, 0.21187362, -943794.1, 273809.34, 0.00015524497, 10.0028925, 9.997968 
1.9151734e+3, 1.857548e+2, -918619.0, -1223617.0, -26443.57, 0.03689799, 0.21515372, -916343.3, 203280.23, 0.00000041157583, 10.002273, 9.998244 
1.9151196e+3, 1.9575292e+2, -902520.44, -1164704.5, -26331.209, 0.01970125, 0.21314476, -899902.1, 121740.64, 0.0, 10.001709, 9.998248 
1.9150661e+3, 2.0575128e+2, -879409.0, -1066609.8, -31065.154, 0.015172363, 0.22487177, -874388.5, 49271.02, 0.0, 10.001038, 9.998572 
1.9150124e+3, 2.1574995e+2, -890009.2, -1019433.94, -32247.168, 0.020145142, 0.24635616, -882419.6, -56746.445, 0.0, 10.000286, 9.998586 
1.914959e+3, 2.257486e+2, -864427.0, -906413.2, -18733.998, 0.01537921, 0.24456489, -857283.44, -129596.75, 0.0, 9.999574, 9.999032 
1.9149056e+3, 2.3574731e+2, -865528.94, -856089.06, -16752.668, 0.00333818, 0.22449513, -843404.1, -213705.31, 0.0, 9.998893, 9.999032 
1.9148523e+3, 2.4574637e+2, -844166.94, -762414.25, -15871.327, -0.0066719395, 0.22807384, -759441.1, -227732.81, 0.0, 9.998227, 9.999323 
1.914799e+3, 2.557458e+2, -839866.4, -706971.94, -18624.906, -0.015221912, 0.24840799, -704411.06, -270696.47, 0.0, 9.997573, 9.999346 
1.914746e+3, 2.6574528e+2, -803774.9, -575435.94, -10972.998, -0.026863173, 0.24855995, -574909.9, -239189.31, 0.0, 9.996876, 9.999911 
1.9146928e+3, 2.7574492e+2, -808923.8, -522706.56, -11818.328, -0.041237265, 0.23174915, -522219.4, -284494.22, 0.0, 9.996149, 9.99995 
1.9146398e+3, 2.8574538e+2, -759224.44, -362915.56, -12031.781, -0.0547729, 0.26359043, -362550.63, -222829.28, 0.0, 9.995452, 10.00071 
1.9145867e+3, 2.957467e+2, -758141.9, -309485.2, -13558.546, -0.06679867, 0.3344106, -309075.8, -267366.16, 0.0, 9.994779, 10.000728 
1.9145337e+3, 3.0574653e+2, -740571.1, -152535.44, -15627.918, -0.06748535, 0.20369086, -152120.39, -152120.39, 0.0, 9.994034, 10.001828 
1.9144808e+3, 3.1574953e+2, -795976.7, -83251.14, -3498.2803, -0.05766904, 0.32846907, -83233.97, -83233.97, 0.0, 9.993241, 10.002686 
1.925501e+3, 1.2582338e+2, -1066710.1, -1719698.0, 44012.02, 0.0724428, 0.22704728, -1063757.0, 643195.25, 0.03360786, 10.006022, 9.997064 
1.9254464e+3, 1.3582015e+2, -1038077.4, -1641633.1, -3292.0144, 0.05334223, 0.19409013, -1038059.4, 570924.9, 0.02364415, 10.005407, 9.997226 
1.9253922e+3, 1.4581777e+2, -1002453.06, -1545040.0, 10353.099, 0.044490945, 0.23567225, -1002255.56, 508752.2, 0.013727431, 10.004796, 9.99751 
1.925338e+3, 1.5581495e+2, -988483.94, -1489389.4, 10173.479, 0.026966197, 0.21536578, -988277.44, 424757.75, 0.0059789056, 10.004187, 9.997513 
1.925284e+3, 1.6581242e+2, -942659.6, -1368797.0, -4009.0544, 0.02637052, 0.20727277, -942621.94, 372437.53, 0.0016385519, 10.003603, 9.99795 
1.9252297e+3, 1.7581032e+2, -926763.94, -1311423.1, -2042.6725, 0.03843018, 0.21307696, -926753.1, 290326.53, 0.00016847836, 10.003038, 9.997943 
1.9251755e+3, 1.8580827e+2, -905169.2, -1220144.1, -410.05856, 0.03571328, 0.21819888, -905168.6, 213931.36, 0.0000005123015, 10.002382, 9.998213 
1.9251212e+3, 1.9580638e+2, -912429.0, -1172599.9, -4300.5977, 0.022003302, 0.21971312, -912357.94, 108761.484, 0.0, 10.001658, 9.998216 
1.9250669e+3, 2.0580472e+2, -888550.6, -1070066.4, -10689.659, 0.017120667, 0.23072425, -887923.25, 35213.168, 0.0, 10.000976, 9.998576 
1.9250126e+3, 2.1580335e+2, -884953.7, -1016542.9, -8347.952, 0.01889764, 0.24855366, -884426.25, -59275.88, 0.0, 10.000323, 9.998586 
1.9249584e+3, 2.2580197e+2, -855661.4, -902785.0, 3177.3413, 0.012634547, 0.24564345, -855448.1, -128284.12, 0.0, 9.99964, 9.9990225 
1.9249044e+3, 2.3580067e+2, -860018.0, -854076.9, -1281.2007, 0.0004220515, 0.22605956, -853812.4, -224636.11, 0.0, 9.998938, 9.9990225 
1.9248503e+3, 2.4579975e+2, -844613.7, -760662.75, -275.57382, -0.008993335, 0.23194511, -760661.9, -229476.28, 0.0, 9.9982195, 9.999336 
1.9247966e+3, 2.557992e+2, -851063.1, -710518.9, 2095.641, -0.016511243, 0.256355, -710487.6, -277296.13, 0.0, 9.997493, 9.999358 
1.9247426e+3, 2.657987e+2, -814998.9, -577758.56, 11228.717, -0.02876803, 0.25563663, -577228.25, -242030.88, 0.0, 9.99679, 9.999934 
1.9246888e+3, 2.757983e+2, -814120.7, -522274.94, 10305.543, -0.044655122, 0.23385309, -521911.47, -284709.34, 0.0, 9.996105, 9.999972 
1.924635e+3, 2.857988e+2, -766229.1, -364857.28, 10139.292, -0.0570649, 0.26566324, -364601.3, -225403.11, 0.0, 9.995402, 10.000718 
1.9245812e+3, 2.9580015e+2, -771240.6, -315171.84, 7894.763, -0.06639774, 0.3401038, -315035.22, -273849.0, 0.0, 9.99469, 10.00073 
1.9245276e+3, 3.0579984e+2, -753600.4, -167094.8, 3805.2476, -0.067331985, 0.20202841, -167070.11, -167070.11, 0.0, 9.993985, 10.001749 
1.924474e+3, 3.158028e+2, -782254.94, -63890.27, 17787.887, -0.060319986, 0.3340589, -63450.082, -63450.082, 0.0, 9.993285, 10.002795 
1.9355069e+3, 1.2587741e+2, -1072626.4, -1732251.9, 19289.975, 0.0699824, 0.20382473, -1072062.8, 634359.9, 0.03477562, 10.006024, 9.996979 
1.9354516e+3, 1.3587448e+2, -1045081.7, -1657055.0, -26274.07, 0.052438464, 0.21335806, -1043955.75, 564496.56, 0.024511246, 10.00541, 9.997121 
1.9353968e+3, 1.458721e+2, -1002897.6, -1547146.1, -12227.529, 0.04304685, 0.26059446, -1002623.0, 507852.97, 0.01427468, 10.004799, 9.997496 
1.9353421e+3, 1.5586908e+2, -988343.2, -1490963.0, -12473.522, 0.028653644, 0.22124611, -988033.8, 424471.47, 0.006249007, 10.00419, 9.997502 
1.9352874e+3, 1.6586648e+2, -938922.44, -1362947.3, -24999.182, 0.024457524, 0.20312747, -937453.6, 377076.47, 0.0017283114, 10.003608, 9.99799 
1.9352326e+3, 1.7586437e+2, -924300.75, -1307886.5, -23564.271, 0.027482962, 0.20525311, -922858.56, 293691.4, 0.00018127312, 10.003041, 9.997969 
1.9351776e+3, 1.8586235e+2, -910691.6, -1233217.5, -27327.92, 0.029061167, 0.21641754, -908392.44, 210177.73, 0.00000059147396, 10.002385, 9.998124 
1.9351228e+3, 1.958605e+2, -917163.06, -1184463.8, -30825.41, 0.029505255, 0.23081265, -913654.25, 106935.37, 0.0, 10.001663, 9.998135 
1.9350678e+3, 2.0585875e+2, -884523.3, -1063944.9, -34570.605, 0.025544913, 0.23435141, -878092.8, 44514.62, 0.0, 10.00098, 9.998618 
1.9350126e+3, 2.1585721e+2, -881971.06, -1012580.9, -32233.457, 0.01855949, 0.23010786, -874449.25, -49826.563, 0.0, 10.000328, 9.998612 
1.934958e+3, 2.2585584e+2, -862121.6, -918460.5, -22608.977, 0.008199663, 0.23344499, -854170.7, -127534.39, 0.0, 9.999646, 9.998914 
1.9349031e+3, 2.358547e+2, -865634.4, -868043.8, -27360.74, -0.004564249, 0.24061202, -839451.9, -210804.44, 0.0, 9.998943, 9.998926 
1.9348486e+3, 2.4585375e+2, -838332.0, -749808.2, -27390.725, -0.010442719, 0.24428886, -742018.5, -211361.44, 0.0, 9.998225, 9.999411 
1.9347939e+3, 2.5585306e+2, -845419.06, -700742.1, -24824.055, -0.011611532, 0.2454548, -696601.25, -263936.94, 0.0, 9.997497, 9.999425 
1.9347392e+3, 2.6585254e+2, -813280.75, -576089.56, -14316.194, -0.027725143, 0.24280025, -575228.6, -240558.72, 0.0, 9.996794, 9.999947 
1.9346847e+3, 2.758523e+2, -812491.1, -521072.0, -15423.3, -0.054585315, 0.23458958, -520258.0, -283584.78, 0.0, 9.99611, 9.99998 
1.9346303e+3, 2.858529e+2, -765764.5, -366092.28, -16808.166, -0.06144073, 0.27836537, -365386.66, -226718.27, 0.0, 9.995408, 10.00071 
1.9345759e+3, 2.9585436e+2, -771361.4, -317383.13, -19036.912, -0.053534683, 0.3637349, -316586.22, -275930.3, 0.0, 9.994694, 10.000714 
1.9345215e+3, 3.0585396e+2, -758243.5, -179380.2, -22577.371, -0.061644115, 0.22175132, -178500.95, -178500.95, 0.0, 9.993992, 10.001664 
1.9344668e+3, 3.158569e+2, -770670.56, -43946.26, -7161.5845, -0.080800325, 0.35763198, -43875.695, -43875.695, 0.0, 9.993298, 10.002929 
1.9455129e+3, 1.2593235e+2, -1060646.0, -1729564.1, 30206.398, 0.06603965, 0.2266672, -1059284.8, 646600.25, 0.035933983, 10.006136, 9.996942 
1.945457e+3, 1.359292e+2, -1038083.94, -1658963.1, -10980.047, 0.04930691, 0.2190614, -1037889.8, 570027.1, 0.025368117, 10.005492, 9.997066 
1.9454014e+3, 1.4592674e+2, -990815.56, -1538534.4, 6378.3623, 0.03890361, 0.26174143, -990741.3, 519199.8, 0.014813522, 10.004879, 9.997514 
1.9453461e+3, 1.559238e+2, -973567.2, -1481684.5, 7477.3384, 0.02604288, 0.22798888, -973457.2, 438512.4, 0.0065144324, 10.00429, 9.997516 
1.9452909e+3, 1.6592123e+2, -933025.2, -1361741.1, -7732.0283, 0.023462202, 0.2135047, -932885.75, 381108.53, 0.0018165226, 10.00366, 9.997971 
1.9452353e+3, 1.7591912e+2, -932107.4, -1313457.1, -11399.647, 0.027654812, 0.21773966, -931766.9, 284247.5, 0.00019374436, 10.003, 9.997948 
1.9451798e+3, 1.8591705e+2, -917037.9, -1235940.1, -16489.95, 0.029459381, 0.22671546, -916187.44, 201847.55, 0.00000064783603, 10.002345, 9.998123 
1.9451243e+3, 1.9591515e+2, -913225.75, -1182222.6, -14420.448, 0.029844042, 0.23614344, -912454.94, 107600.02, 0.0, 10.001693, 9.998133 
1.9450685e+3, 2.0591341e+2, -874305.75, -1055521.9, -15692.88, 0.025415542, 0.24061692, -872956.8, 49115.668, 0.0, 10.00104, 9.998645 
1.945013e+3, 2.1591192e+2, -872293.06, -1004995.75, -15322.677, 0.017457383, 0.24096037, -870546.75, -46459.73, 0.0, 10.000386, 9.998634 
1.9449574e+3, 2.2591054e+2, -855540.1, -914110.44, -3864.9426, 0.0068532424, 0.24143228, -855286.2, -129185.51, 0.0, 9.999691, 9.99892 
1.944902e+3, 2.3590931e+2, -862614.7, -865954.2, -565.3825, -0.0055169556, 0.24124424, -862521.56, -234409.13, 0.0, 9.998966, 9.998927 
1.9448465e+3, 2.4590835e+2, -833989.25, -748805.6, -1341.0258, -0.010752409, 0.24524969, -748784.5, -218662.17, 0.0, 9.998264, 9.999396 
1.9447912e+3, 2.5590768e+2, -834555.3, -696029.75, -5978.986, -0.011076795, 0.25144184, -695772.2, -263642.66, 0.0, 9.997578, 9.999416 
1.944736e+3, 2.6590723e+2, -801357.25, -564765.9, 2520.1748, -0.027975164, 0.25023696, -564739.0, -230604.16, 0.0, 9.996856, 9.999991 
1.9446805e+3, 2.7590698e+2, -809779.44, -514944.56, 3491.439, -0.0567939, 0.24136104, -514903.22, -278765.5, 0.0, 9.996113, 10.000019 
1.9446255e+3, 2.8590763e+2, -769180.9, -369610.78, 2361.712, -0.0631439, 0.2865177, -369596.8, -231463.97, 0.0, 9.995397, 10.000688 
1.9445704e+3, 2.9590908e+2, -772986.06, -321174.28, -1305.2274, -0.052850734, 0.37477893, -321170.5, -281049.94, 0.0, 9.9947, 10.000683 
1.9445153e+3, 3.059086e+2, -760807.0, -195304.0, -6718.6777, -0.0631344, 0.23372701, -195224.19, -195224.19, 0.0, 9.994042, 10.001528 
1.94446e+3, 3.1591144e+2, -746495.44, -19594.596, 5558.418, -0.09105575, 0.3727994, -19552.094, -19552.094, 0.0, 9.993414, 10.003037 
1.9555187e+3, 1.2598816e+2, -1062091.9, -1731975.6, 4738.757, 0.059601042, 0.28544888, -1062058.4, 643281.6, 0.037080277, 10.006135, 9.996927 
1.9554622e+3, 1.3598432e+2, -1039666.5, -1663487.6, -34506.54, 0.04426867, 0.21274407, -1037763.56, 569614.2, 0.026213778, 10.005496, 9.997035 
1.955406e+3, 1.4598174e+2, -988007.1, -1534201.0, -15281.55, 0.032412753, 0.2429725, -987579.9, 521822.88, 0.01534409, 10.004884, 9.997544 
1.9553502e+3, 1.559791e+2, -971929.1, -1479594.3, -14801.784, 0.019620253, 0.2358169, -971497.94, 439930.3, 0.006775685, 10.004292, 9.997532 
1.9552943e+3, 1.6597663e+2, -938756.6, -1374946.9, -32294.617, 0.023386138, 0.23694128, -936378.56, 377073.63, 0.0019035892, 10.003661, 9.997882 
1.9552384e+3, 1.759745e+2, -937027.3, -1325142.0, -35794.508, 0.03803704, 0.24882956, -933753.75, 281719.34, 0.00020607443, 10.003002, 9.997869 
1.9551821e+3, 1.8597233e+2, -911778.56, -1226827.6, -40457.28, 0.036166914, 0.24799399, -906666.1, 210828.53, 0.00000068836556, 10.002348, 9.998186 
1.9551258e+3, 1.9597028e+2, -908324.2, -1174195.8, -38364.117, 0.023161551, 0.23571776, -902899.1, 116616.53, 0.0, 10.001698, 9.998188 
1.9550695e+3, 2.0596866e+2, -873527.25, -1056140.5, -39636.914, 0.017086517, 0.24985968, -865295.0, 56236.977, 0.0, 10.001045, 9.99864 
1.9550131e+3, 2.1596748e+2, -871032.94, -1004625.56, -39358.023, 0.015685331, 0.2813671, -860299.9, -36756.07, 0.0, 10.000392, 9.998636 
1.954957e+3, 2.2596602e+2, -847146.8, -898952.7, -30453.768, 0.008618965, 0.26942173, -833069.8, -107512.055, 0.0, 9.999696, 9.999024 
1.9549008e+3, 2.3596449e+2, -855847.1, -854239.56, -27100.49, -0.0023470712, 0.22688037, -827930.94, -200359.05, 0.0, 9.998972, 9.999007 
1.9548447e+3, 2.4596353e+2, -841467.9, -766825.9, -26696.6, -0.010010794, 0.23456036, -758260.44, -228678.55, 0.0, 9.99827, 9.999271 
1.9547886e+3, 2.559631e+2, -840743.06, -711620.25, -31732.953, -0.015345034, 0.27621827, -704243.06, -272655.47, 0.0, 9.997585, 9.999308 
1.9547327e+3, 2.6596266e+2, -795368.9, -555101.75, -25538.479, -0.029489752, 0.27996236, -552417.2, -218824.47, 0.0, 9.996863, 10.000057 
1.9546767e+3, 2.7596235e+2, -804747.7, -507052.4, -24388.746, -0.050230395, 0.2547234, -505067.6, -269471.28, 0.0, 9.996119, 10.0000725 
1.9546208e+3, 2.8596285e+2, -771653.4, -377393.97, -24048.137, -0.06216314, 0.28920108, -375932.56, -238340.2, 0.0, 9.995403, 10.000633 
1.9545649e+3, 2.959642e+2, -776390.0, -331226.97, -27657.08, -0.066817984, 0.3708535, -329515.25, -289934.0, 0.0, 9.994709, 10.000612 
1.954509e+3, 3.0596364e+2, -773816.44, -226231.39, -30922.32, -0.07294063, 0.23673329, -224490.72, -224490.72, 0.0, 9.994054, 10.001312 
1.9544533e+3, 3.1596637e+2, -739696.44, -10647.612, -17677.723, -0.08760208, 0.38636485, -10219.221, -10219.221, 0.0, 9.993431, 10.003093 
1.9655249e+3, 1.26044e+2, -1049810.9, -1715111.0, 20257.916, 0.061604034, 0.2961888, -1049194.6, 655599.44, 0.0382121, 10.006188, 9.997015 
1.9654676e+3, 1.3604021e+2, -1018807.0, -1646166.6, -11554.332, 0.03804822, 0.2221606, -1018594.25, 588236.56, 0.027049245, 10.005623, 9.99709 
1.9654107e+3, 1.4603761e+2, -974736.25, -1529274.0, 6636.477, 0.024794534, 0.24904028, -974656.8, 534199.06, 0.015868543, 10.004991, 9.997524 
1.9653544e+3, 1.5603492e+2, -970549.75, -1480504.6, 3143.7822, 0.018045308, 0.24054313, -970530.4, 440351.44, 0.0070342114, 10.004314, 9.997512 
1.9652979e+3, 1.6603243e+2, -943811.56, -1377935.3, -14254.51, 0.024747083, 0.24332297, -943344.0, 369561.94, 0.001990006, 10.003634, 9.997871 
1.9652413e+3, 1.7603034e+2, -945407.25, -1329694.9, -12824.872, 0.040014323, 0.25859773, -944979.7, 269947.22, 0.00021838487, 10.002952, 9.997859 
1.9651844e+3, 1.8602818e+2, -915023.75, -1224933.5, -16010.934, 0.03728495, 0.2587824, -914198.8, 202749.63, 0.0000007202894, 10.0023155, 9.998212 
1.9651273e+3, 1.9602613e+2, -905275.94, -1169813.1, -17438.186, 0.022482092, 0.24568458, -904131.4, 114837.7, 0.0, 10.001711, 9.998209 
1.9650704e+3, 2.0602451e+2, -870649.5, -1054814.6, -21738.172, 0.016817853, 0.25809768, -868118.4, 52867.2, 0.0, 10.00107, 9.998635 
1.9650134e+3, 2.160233e+2, -869569.75, -1003504.8, -22496.53, 0.017386278, 0.28776777, -865892.1, -42894.254, 0.0, 10.000404, 9.998635 
1.9649565e+3, 2.260219e+2, -840323.56, -888732.6, -18064.576, 0.010118239, 0.27992725, -834325.7, -109314.44, 0.0, 9.999718, 9.999082 
1.9648996e+3, 2.3602049e+2, -846161.06, -843372.06, -18565.727, -0.0024551537, 0.24477579, -826148.56, -199124.45, 0.0, 9.999016, 9.999058 
1.9648428e+3, 2.4601951e+2, -836148.2, -761656.8, -13267.558, -0.009144932, 0.24808103, -759364.3, -230330.17, 0.0, 9.9983, 9.99929 
1.9647862e+3, 2.56019e+2, -841317.06, -709568.3, -7993.062, -0.011972938, 0.27826145, -709085.1, -278044.44, 0.0, 9.997576, 9.999325 
1.9647294e+3, 2.660186e+2, -794512.75, -552405.0, -874.6689, -0.027317014, 0.28457746, -552401.9, -219356.28, 0.0, 9.996864, 10.0000725 
1.9646727e+3, 2.7601838e+2, -797881.6, -501621.78, -3956.0483, -0.051315088, 0.27064094, -501568.97, -266520.78, 0.0, 9.996161, 10.000087 
1.964616e+3, 2.8601888e+2, -758424.7, -368697.8, -720.14526, -0.06655993, 0.30288753, -368696.5, -231652.17, 0.0, 9.995489, 10.00065 
1.9645594e+3, 2.9602012e+2, -758092.7, -322235.22, 545.13324, -0.07507261, 0.3735438, -322234.53, -283200.56, 0.0, 9.994838, 10.000609 
1.964503e+3, 3.060195e+2, -773550.75, -243771.08, 1413.3368, -0.07838049, 0.243634, -243767.3, -243767.3, 0.0, 9.994137, 10.001149 
1.9644466e+3, 3.1602195e+2, -736554.44, 3652.4292, 19391.215, -0.09066509, 0.38013092, 4160.073, 4160.073, 0.0, 9.9934025, 10.003203 
1.9755308e+3, 1.2609999e+2, -1038331.56, -1692784.6, -1132.2598, 0.06931106, 0.267876, -1038329.6, 665916.8, 0.03932746, 10.006199, 9.997169 
1.975473e+3, 1.3609685e+2, -1010854.1, -1630737.3, -32640.367, 0.030683845, 0.24544558, -1009140.2, 597136.1, 0.027874997, 10.00563, 9.997196 
1.9754155e+3, 1.4609428e+2, -979387.1, -1540617.4, -18350.012, 0.016279757, 0.27586153, -978787.8, 529513.1, 0.016388314, 10.004994, 9.997446 
1.9753586e+3, 1.5609126e+2, -974312.5, -1490337.6, -21840.186, 0.020717666, 0.24223045, -973389.75, 436940.6, 0.007291036, 10.004319, 9.997445 
1.9753014e+3, 1.6608869e+2, -939555.7, -1371410.5, -39490.19, 0.027209729, 0.23450065, -935974.25, 376381.34, 0.0020761206, 10.00364, 9.997916 
1.9752438e+3, 1.760866e+2, -941742.9, -1324684.9, -37814.367, 0.034203745, 0.24893726, -938044.56, 276331.6, 0.000230747, 10.002958, 9.997892 
1.9751865e+3, 1.8608457e+2, -915573.4, -1228585.5, -38270.434, 0.033365738, 0.26015833, -910962.2, 205434.34, 0.0000007475641, 10.002322, 9.998186 
1.975129e+3, 1.9608267e+2, -906156.25, -1173939.1, -39813.39, 0.02763467, 0.26586244, -900362.25, 118053.37, 0.0, 10.001717, 9.99818 
1.9750713e+3, 2.0608088e+2, -871218.7, -1058248.5, -46064.402, 0.024266377, 0.26486626, -860488.9, 59944.89, 0.0, 10.001076, 9.998611 
1.9750136e+3, 2.1607931e+2, -870105.4, -1006942.8, -46906.723, 0.022415945, 0.25986543, -855570.1, -33120.44, 0.0, 10.00041, 9.998611 
1.9749561e+3, 2.2607811e+2, -839669.5, -889698.44, -43847.832, 0.01126594, 0.2734519, -814202.75, -89741.19, 0.0, 9.9997225, 9.999075 
1.9748984e+3, 2.3607728e+2, -844545.06, -842426.7, -44698.566, -0.0059840353, 0.29697844, -798774.75, -172305.27, 0.0, 9.999022, 9.999064 
1.9748409e+3, 2.4607624e+2, -824196.75, -739277.44, -40284.477, -0.008023123, 0.28658068, -723207.94, -194728.34, 0.0, 9.998305, 9.999444 
1.9747835e+3, 2.5607526e+2, -830999.5, -690498.1, -34865.676, -0.00032783838, 0.25485626, -682321.94, -251832.33, 0.0, 9.997581, 9.999455 
1.974726e+3, 2.6607487e+2, -797328.1, -560773.9, -27112.535, -0.021358345, 0.26174858, -557706.2, -225212.02, 0.0, 9.99687, 10.000015 
1.9746685e+3, 2.7607504e+2, -799592.9, -508151.22, -30250.729, -0.061228592, 0.28995994, -505044.4, -270550.4, 0.0, 9.996169, 10.000041 
1.9746111e+3, 2.8607565e+2, -750848.25, -356616.28, -25230.217, -0.076989986, 0.32933563, -355008.16, -218518.94, 0.0, 9.9955, 10.0007305 
1.974554e+3, 2.9607677e+2, -751448.6, -312833.25, -24201.275, -0.07650319, 0.38395947, -311501.94, -273022.78, 0.0, 9.994852, 10.0006695 
1.974497e+3, 3.0607614e+2, -779646.94, -260650.83, -26277.273, -0.078860015, 0.25510582, -259323.78, -259323.78, 0.0, 9.99415, 10.00103 
1.9744398e+3, 3.160782e+2, -724662.5, 25228.35, -6729.7393, -0.10110871, 0.36118177, 25288.738, 25288.738, 0.0, 9.993411, 10.003349 
1.985537e+3, 1.2615713e+2, -1008870.44, -1682125.8, 32864.49, 0.06898878, 0.27113065, -1007269.94, 696417.06, 0.040426783, 10.006438, 9.997128 
1.9854786e+3, 1.3615395e+2, -995550.25, -1628037.0, -9566.17, 0.027571393, 0.2507009, -995405.6, 610311.8, 0.028691083, 10.005768, 9.997145 
1.9854204e+3, 1.4615138e+2, -964059.6, -1529653.1, 1864.4314, 0.013846933, 0.2833273, -964053.5, 543688.6, 0.016903576, 10.005095, 9.997471 
1.9853628e+3, 1.5614842e+2, -959243.25, -1480617.0, 4489.911, 0.023379344, 0.2548275, -959204.6, 450566.44, 0.0075464314, 10.004418, 9.99746 
1.985305e+3, 1.6614583e+2, -925066.7, -1366471.9, -13618.587, 0.027749669, 0.24756005, -924646.94, 387149.6, 0.0021621073, 10.003754, 9.997892 
1.9852467e+3, 1.761437e+2, -923559.9, -1317515.4, -17130.873, 0.027728628, 0.2592447, -922816.4, 291001.25, 0.00024323525, 10.003095, 9.997873 
1.9851886e+3, 1.8614164e+2, -898488.25, -1215667.0, -16657.191, 0.027890919, 0.26813528, -897615.8, 218222.27, 0.0000007722277, 10.002424, 9.998223 
1.9851305e+3, 1.9613977e+2, -900104.7, -1166845.6, -14646.261, 0.02855541, 0.27225542, -899302.9, 118553.96, 0.0, 10.001745, 9.998214 
1.9850722e+3, 2.0613798e+2, -870177.8, -1054553.8, -18457.438, 0.027169643, 0.27095625, -868348.25, 51526.574, 0.0, 10.001074, 9.998635 
1.985014e+3, 2.1613643e+2, -869676.9, -1004294.25, -16608.98, 0.02432403, 0.2657801, -867658.0, -45767.336, 0.0, 10.000407, 9.998629 
1.9849557e+3, 2.2613522e+2, -839763.75, -890140.0, -13899.573, 0.013264507, 0.28034624, -836183.1, -112280.445, 0.0, 9.999728, 9.999066 
1.9848974e+3, 2.3613441e+2, -842076.44, -840732.1, -15524.736, -0.0031259959, 0.30672473, -825865.0, -199954.17, 0.0, 9.999041, 9.999064 
1.9848391e+3, 2.4613343e+2, -811408.56, -722585.06, -15120.113, -0.006637427, 0.29783058, -720081.8, -192161.45, 0.0, 9.998353, 9.999534 
1.984781e+3, 2.561325e+2, -813995.44, -673463.9, -15014.228, -0.0018536437, 0.2655483, -671877.7, -241948.48, 0.0, 9.997664, 9.99953 
1.9847228e+3, 2.6613215e+2, -786011.75, -558782.0, -8562.268, -0.022713967, 0.27297592, -558459.8, -226526.11, 0.0, 9.996967, 9.999979 
1.9846645e+3, 2.761323e+2, -787784.2, -504801.13, -10530.333, -0.06046806, 0.30311444, -504409.8, -270475.78, 0.0, 9.996265, 10.000015 
1.9846065e+3, 2.861329e+2, -743502.44, -345038.9, -6159.503, -0.07717349, 0.33984476, -344943.7, -209014.34, 0.0, 9.99552, 10.000797 
1.9845487e+3, 2.9613402e+2, -762701.06, -311536.03, -6509.751, -0.079588376, 0.38888124, -311442.13, -273523.1, 0.0, 9.994751, 10.000725 
1.9844909e+3, 3.0613354e+2, -792262.44, -270928.94, -4729.729, -0.08142943, 0.2759883, -270886.03, -270886.03, 0.0, 9.994086, 10.000987 
1.984433e+3, 3.161352e+2, -700131.5, 59519.344, 21017.014, -0.10805667, 0.34573093, 60100.37, 60100.37, 0.0, 9.993487, 10.003546 
1.9955432e+3, 1.262153e+2, -1021908.94, -1712317.3, 6789.6284, 0.061194263, 0.29829744, -1021842.2, 681275.06, 0.04151399, 10.006453, 9.996909 
1.9954841e+3, 1.362115e+2, -1007427.5, -1656226.4, -33645.793, 0.028081344, 0.2404748, -1005687.4, 599466.7, 0.0294996, 10.00578, 9.996948 
1.9954254e+3, 1.4620893e+2, -956348.1, -1515698.4, -22690.78, 0.016471602, 0.27491215, -955429.2, 551750.0, 0.017415475, 10.005102, 9.997565 
1.9953671e+3, 1.5620635e+2, -953673.44, -1470870.0, -20786.1, 0.02591765, 0.27732274, -952839.44, 456364.8, 0.0078010797, 10.004423, 9.997528 
1.9953084e+3, 1.6620386e+2, -931199.3, -1381229.6, -38248.688, 0.026548225, 0.28002462, -927971.7, 383257.47, 0.002248301, 10.003757, 9.997792 
1.9952495e+3, 1.7620157e+2, -928314.2, -1329600.0, -41463.793, 0.02061421, 0.28766516, -924074.6, 289177.22, 0.00025598553, 10.003099, 9.997791 
1.9951908e+3, 1.8619937e+2, -892064.2, -1204573.3, -41609.098, 0.020876152, 0.28195432, -886619.0, 228654.48, 0.00000079681985, 10.002429, 9.9983 
1.995132e+3, 1.9619738e+2, -893992.1, -1156450.9, -39593.742, 0.025394682, 0.2652812, -888149.2, 129143.93, 0.0, 10.00175, 9.998284 
1.9950731e+3, 2.0619579e+2, -865338.3, -1046892.06, -42890.414, 0.02568107, 0.27695912, -855715.8, 63593.24, 0.0, 10.00108, 9.998688 
1.9950141e+3, 2.1619461e+2, -865750.3, -998541.56, -41023.69, 0.023140866, 0.3058562, -854099.0, -32777.86, 0.0, 10.000413, 9.998668 
1.9949552e+3, 2.261932e+2, -840616.7, -894277.9, -39094.76, 0.016172277, 0.2999705, -820031.25, -96696.09, 0.0, 9.999734, 9.999038 
1.9948962e+3, 2.3619182e+2, -842791.1, -844654.1, -40890.89, 0.0063336687, 0.27146345, -802821.1, -177472.33, 0.0, 9.999047, 9.999037 
1.9948372e+3, 2.4619101e+2, -809830.6, -721922.5, -40624.03, -0.0052814, 0.28114057, -706024.5, -178667.66, 0.0, 9.99836, 9.999537 
1.9947785e+3, 2.5619075e+2, -812783.94, -673861.75, -40790.594, -0.017871985, 0.31437644, -662770.3, -233410.48, 0.0, 9.997672, 9.999526 
1.9947197e+3, 2.6619038e+2, -786365.1, -562693.1, -35022.18, -0.031885125, 0.32142457, -557337.6, -225973.08, 0.0, 9.996976, 9.99995 
1.9946608e+3, 2.7619004e+2, -787558.06, -507723.9, -37428.313, -0.047414258, 0.30849358, -502804.28, -269435.16, 0.0, 9.996275, 9.999993 
1.9946021e+3, 2.861905e+2, -739691.25, -340059.94, -35738.637, -0.065757304, 0.331956, -336889.03, -201523.38, 0.0, 9.995528, 10.000831 
1.9945432e+3, 2.9619178e+2, -759759.9, -307300.5, -35452.74, -0.08481769, 0.38769826, -304539.4, -267184.88, 0.0, 9.994754, 10.000755 
1.9944848e+3, 3.0619165e+2, -788527.6, -265904.1, -27383.51, -0.08645584, 0.30866674, -264473.22, -264473.22, 0.0, 9.994093, 10.001021 
1.9944261e+3, 3.1619304e+2, -681528.75, 93440.305, -1086.2046, -0.10945834, 0.3496444, 93441.83, 93441.83, 0.0, 9.993503, 10.003774 
2.0055495e+3, 1.2627381e+2, -983302.8, -1694027.1, 23771.625, 0.05740572, 0.30081123, -982508.6, 720035.9, 0.04259395, 10.006744, 9.996894 
2.0054898e+3, 1.3627005e+2, -976436.25, -1644690.3, -3016.725, 0.025344362, 0.25002638, -976422.6, 628158.3, 0.030304387, 10.006025, 9.996906 
2.0054305e+3, 1.4626741e+2, -938781.56, -1516591.3, 4025.9858, 0.015273201, 0.2871772, -938753.5, 567853.4, 0.017926537, 10.005274, 9.997475 
2.0053713e+3, 1.562648e+2, -947831.44, -1475791.0, -6433.1763, 0.027786387, 0.2935377, -947753.06, 460879.88, 0.008056251, 10.004503, 9.997453 
2.005312e+3, 1.6626225e+2, -920333.94, -1369092.8, -20213.166, 0.027893607, 0.29358712, -919425.4, 391232.75, 0.0023351642, 10.003808, 9.9978485 
2.0052524e+3, 1.7625995e+2, -916758.8, -1318197.5, -13639.772, 0.019230548, 0.29440662, -916295.9, 296384.75, 0.0002691495, 10.003159, 9.997838 
2.005193e+3, 1.862578e+2, -883477.3, -1197683.5, -13928.192, 0.02027525, 0.28995815, -882861.06, 231840.83, 0.00000082357883, 10.002481, 9.99832 
2.0051336e+3, 1.9625585e+2, -888190.0, -1151491.3, -16618.93, 0.027724791, 0.27922013, -887145.2, 129575.805, 0.0, 10.001785, 9.998299 
2.005074e+3, 2.0625426e+2, -859280.9, -1043220.3, -23551.473, 0.02668463, 0.29129198, -856313.25, 62423.74, 0.0, 10.001122, 9.99869 
2.0050144e+3, 2.1625307e+2, -856025.25, -992557.2, -26416.768, 0.020307632, 0.31768554, -851092.25, -30342.863, 0.0, 10.000479, 9.998674 
2.0049548e+3, 2.2625169e+2, -827583.0, -880525.2, -23639.865, 0.014670863, 0.31112668, -818563.8, -95800.69, 0.0, 9.999796, 9.9991 
2.0048952e+3, 2.3625036e+2, -833488.7, -834045.6, -19100.486, 0.009398324, 0.28222507, -814664.6, -189888.45, 0.0, 9.999089, 9.999086 
2.0048356e+3, 2.4624954e+2, -804733.8, -720050.44, -16948.041, -0.003963087, 0.29162353, -716784.5, -190000.3, 0.0, 9.998402, 9.999528 
2.0047759e+3, 2.5624928e+2, -805700.4, -670382.75, -18959.059, -0.02239433, 0.32593098, -667776.6, -238989.31, 0.0, 9.997725, 9.999521 
2.0047162e+3, 2.662489e+2, -785274.5, -555696.5, -12769.76, -0.03301837, 0.33355036, -554988.4, -224196.67, 0.0, 9.996961, 10.000004 
2.0046568e+3, 2.7624863e+2, -803718.0, -509816.34, -9188.198, -0.039103556, 0.31956288, -509529.38, -276733.63, 0.0, 9.996144, 10.000039 
2.0045975e+3, 2.86249e+2, -750536.1, -344328.16, -5146.7036, -0.061366767, 0.33294916, -344262.94, -209469.88, 0.0, 9.995454, 10.000834 
2.0045377e+3, 2.9625013e+2, -747149.2, -299979.34, -7717.376, -0.09283134, 0.37440398, -299846.22, -263062.75, 0.0, 9.99484, 10.000762 
2.0044786e+3, 3.062504e+2, -787016.06, -262534.94, -1875.8116, -0.091911815, 0.33666933, -262528.22, -262528.22, 0.0, 9.994098, 10.0010395 
2.0044194e+3, 3.1625158e+2, -703723.56, 101559.72, 22445.814, -0.11128037, 0.3528511, 102184.87, 102184.87, 0.0, 9.993274, 10.003938 
2.0155561e+3, 1.2633273e+2, -972673.75, -1675277.0, -2613.1262, 0.05593404, 0.28325108, -972664.0, 729304.06, 0.04367009, 10.006762, 9.997023 
2.0154956e+3, 1.3632952e+2, -970434.94, -1635121.3, -29234.389, 0.019780252, 0.27639714, -969151.6, 634847.06, 0.031108618, 10.00604, 9.996968 
2.0154354e+3, 1.4632678e+2, -955300.8, -1554911.9, -23979.387, 0.010821402, 0.31638947, -954343.3, 551682.56, 0.018438963, 10.005286, 9.997208 
2.0153758e+3, 1.5632372e+2, -960422.1, -1505849.6, -33591.24, 0.029094465, 0.30391988, -958361.1, 449695.97, 0.008313055, 10.004515, 9.997244 
2.0153157e+3, 1.6632104e+2, -906270.75, -1343144.8, -43499.68, 0.03151977, 0.29041672, -901981.56, 408101.72, 0.002423096, 10.003818, 9.998024 
2.0152555e+3, 1.7631882e+2, -905331.06, -1297090.3, -37632.29, 0.023057913, 0.2815397, -901748.9, 310355.3, 0.00028282803, 10.003165, 9.997982 
2.0151955e+3, 1.8631685e+2, -885991.25, -1205262.9, -39555.66, 0.025590604, 0.29302147, -881163.56, 232960.1, 0.00000085303316, 10.002486, 9.998267 
2.0151353e+3, 1.9631517e+2, -891082.44, -1159886.9, -41941.98, 0.03522293, 0.31340045, -884690.2, 131450.67, 0.0, 10.001791, 9.998241 
2.0150751e+3, 2.063134e+2, -862773.44, -1052909.1, -47021.61, 0.029992709, 0.3131598, -851780.3, 66378.63, 0.0, 10.001128, 9.998623 
2.0150146e+3, 2.1631175e+2, -857800.56, -998699.56, -50198.16, 0.015705401, 0.30094266, -841745.75, -21569.918, 0.0, 10.000484, 9.998632 
2.0149544e+3, 2.2631063e+2, -816857.75, -860723.9, -49700.887, 0.00861752, 0.31463462, -784465.5, -62278.516, 0.0, 9.999802, 9.999235 
2.014894e+3, 2.3630998e+2, -824595.06, -818109.0, -45121.254, 0.0058108717, 0.34175178, -776114.4, -151921.13, 0.0, 9.999095, 9.999196 
2.0148337e+3, 2.46309e+2, -806457.9, -726280.3, -42073.145, -0.002486483, 0.3299488, -708254.9, -182052.05, 0.0, 9.998408, 9.999484 
2.0147735e+3, 2.56308e+2, -805961.44, -673687.94, -44977.887, -0.014312387, 0.29583123, -659842.94, -231630.28, 0.0, 9.997732, 9.999497 
2.0147131e+3, 2.663077e+2, -775307.25, -537367.56, -43686.504, -0.025512643, 0.30594894, -529600.1, -199384.19, 0.0, 9.996965, 10.00013 
2.0146528e+3, 2.76308e+2, -795982.94, -495347.72, -38919.918, -0.03643167, 0.3379217, -490390.9, -258176.8, 0.0, 9.996146, 10.00014 
2.0145926e+3, 2.8630835e+2, -752897.4, -351500.88, -27930.074, -0.06513053, 0.3439496, -349566.75, -215354.84, 0.0, 9.99546, 10.000785 
2.0145324e+3, 2.96309e+2, -748132.0, -305977.5, -31723.668, -0.104171485, 0.3461299, -303712.97, -267506.34, 0.0, 9.994852, 10.000717 
2.0144725e+3, 3.0630976e+2, -786809.94, -265257.0, -33612.7, -0.09795811, 0.35909405, -263099.66, -263099.66, 0.0, 9.994105, 10.0010195 
2.0144124e+3, 3.163109e+2, -700734.2, 107676.234, -9357.386, -0.1126128, 0.37345463, 107784.53, 107784.53, 0.0, 9.99327, 10.003984 
2.0255628e+3, 1.2639286e+2, -934087.3, -1665977.4, 34761.05, 0.053321466, 0.29059094, -932440.06, 768939.4, 0.044744007, 10.007094, 9.996927 
2.0255016e+3, 1.3638957e+2, -938908.94, -1629643.6, -4212.53, 0.018049825, 0.28903475, -938883.25, 664527.7, 0.03191267, 10.006317, 9.996869 
2.0254406e+3, 1.4638671e+2, -919406.75, -1539712.1, 4852.1914, 0.009505002, 0.32317054, -919368.8, 586070.5, 0.018952604, 10.005555, 9.99718 
2.0253803e+3, 1.5638353e+2, -921742.25, -1489622.1, 10524.349, 0.028889913, 0.30205268, -921547.3, 485924.34, 0.008571427, 10.0048, 9.997215 
2.0253195e+3, 1.6638085e+2, -874801.0, -1328038.6, 125.121506, 0.032279547, 0.29200727, -874801.0, 434696.75, 0.0025121379, 10.004041, 9.998018 
2.0252585e+3, 1.7637873e+2, -889930.5, -1290292.8, -7019.528, 0.024735326, 0.29322535, -889807.44, 321710.5, 0.00029700418, 10.003279, 9.997972 
2.0251977e+3, 1.8637674e+2, -877901.9, -1202866.0, -12754.492, 0.027355853, 0.30593285, -877402.06, 236135.63, 0.00000088449303, 10.002553, 9.998249 
2.025137e+3, 1.96375e+2, -883927.9, -1157303.4, -13324.244, 0.03649519, 0.32292324, -883280.0, 132275.63, 0.0, 10.001849, 9.998229 
2.025076e+3, 2.0637321e+2, -854291.6, -1042881.2, -11430.121, 0.030069983, 0.3208488, -853601.44, 63972.35, 0.0, 10.001165, 9.998671 
2.025015e+3, 2.1637158e+2, -853916.2, -991925.4, -7148.874, 0.014246274, 0.30704945, -853546.9, -33956.535, 0.0, 10.000495, 9.998671 
2.024954e+3, 2.2637051e+2, -815797.8, -859683.9, -12034.152, 0.008223874, 0.32500654, -812714.5, -91113.36, 0.0, 9.999812, 9.999235 
2.024893e+3, 2.3636995e+2, -820649.44, -814504.56, -18381.912, 0.007978095, 0.36064866, -798940.06, -175333.19, 0.0, 9.99912, 9.999207 
2.024832e+3, 2.4636894e+2, -806178.56, -715242.4, -14215.759, -0.00007188588, 0.34299564, -713071.9, -187455.45, 0.0, 9.998368, 9.999577 
2.024771e+3, 2.5636786e+2, -822474.5, -672315.1, -7455.98, -0.012863074, 0.29367486, -671945.8, -244319.31, 0.0, 9.997583, 9.999577 
2.02471e+3, 2.6636767e+2, -782607.8, -539515.44, -8273.39, -0.02694891, 0.3077242, -539234.2, -209605.14, 0.0, 9.996915, 10.000137 
2.024649e+3, 2.763681e+2, -771797.75, -482339.16, -13068.955, -0.041885123, 0.3554053, -481750.28, -250124.47, 0.0, 9.996311, 10.000147 
2.0245878e+3, 2.863683e+2, -732403.3, -340221.1, -2412.5227, -0.06981451, 0.34963456, -340206.25, -206581.66, 0.0, 9.995599, 10.0007925 
2.024527e+3, 2.9636872e+2, -752198.2, -307073.44, -2957.1584, -0.1054313, 0.32429343, -307053.8, -271432.1, 0.0, 9.994825, 10.00072 
2.0244664e+3, 3.0636996e+2, -794852.4, -272766.44, -8360.174, -0.09879361, 0.38772467, -272632.6, -272632.6, 0.0, 9.994071, 10.000982 
2.0244054e+3, 3.1637082e+2, -697826.94, 104100.46, 12998.949, -0.12450844, 0.37985292, 104311.11, 104311.11, 0.0, 9.993316, 10.003935 
2.0355697e+3, 1.2645406e+2, -953165.8, -1707257.1, 5189.3096, 0.048969597, 0.31588736, -953130.06, 747649.94, 0.04581643, 10.007103, 9.996632 
2.0355077e+3, 1.3645025e+2, -954089.56, -1664533.1, -31546.377, 0.019539693, 0.2900019, -952691.5, 650126.1, 0.032715067, 10.006327, 9.996628 
2.035446e+3, 1.4644724e+2, -907742.2, -1517299.8, -22028.143, 0.010792025, 0.31137526, -906947.2, 597899.94, 0.01946563, 10.005563, 9.997333 
2.0353848e+3, 1.5644418e+2, -913575.5, -1474537.3, -17284.484, 0.027246179, 0.28984824, -913043.44, 493833.5, 0.008830461, 10.004805, 9.997319 
2.0353234e+3, 1.6644163e+2, -886664.94, -1355131.4, -28022.46, 0.03045179, 0.2981102, -884994.7, 423907.5, 0.0026021018, 10.004046, 9.997832 
2.0352617e+3, 1.7643958e+2, -900042.0, -1314131.1, -34647.79, 0.024442764, 0.32727918, -897162.94, 313759.63, 0.0003116134, 10.003286, 9.9978075 
2.0352e+3, 1.8643741e+2, -877039.8, -1203865.5, -38441.277, 0.025747782, 0.32741943, -872579.2, 240365.17, 0.00000091882856, 10.002561, 9.998241 
2.0351386e+3, 1.964353e+2, -881781.0, -1155463.8, -38864.23, 0.031811975, 0.30869144, -876369.06, 138596.47, 0.0, 10.001855, 9.99824 
2.035077e+3, 2.064337e+2, -843131.5, -1022239.94, -35925.563, 0.027114572, 0.31545064, -836194.25, 80787.44, 0.0, 10.001172, 9.998813 
2.0350152e+3, 2.1643256e+2, -845936.5, -977849.3, -31785.518, 0.015988724, 0.33640358, -838677.0, -19683.777, 0.0, 10.000501, 9.998768 
2.0349537e+3, 2.2643131e+2, -825755.6, -882844.94, -37460.67, 0.013545035, 0.34156471, -807203.56, -86197.54, 0.0, 9.999818, 9.999076 
2.0348921e+3, 2.3643018e+2, -827006.75, -830244.4, -44509.805, 0.01604482, 0.33652744, -784086.3, -161068.47, 0.0, 9.9991255, 9.999098 
2.0348302e+3, 2.4642937e+2, -789758.06, -683424.5, -43564.3, 0.0031496494, 0.33009577, -667855.9, -142830.5, 0.0, 9.998373, 9.999795 
2.0347683e+3, 2.5642893e+2, -810207.8, -648576.06, -35631.29, -0.018806595, 0.3229413, -641069.8, -214041.1, 0.0, 9.997586, 9.999741 
2.0347065e+3, 2.6642874e+2, -791663.1, -560760.7, -30369.148, -0.038429458, 0.34176144, -556833.2, -227802.11, 0.0, 9.996921, 9.99999 
2.034645e+3, 2.7642888e+2, -777897.06, -499186.28, -36531.855, -0.056662705, 0.3713019, -494477.44, -263445.9, 0.0, 9.996325, 10.000028 
2.0345832e+3, 2.864289e+2, -726383.8, -331875.66, -32074.639, -0.07537161, 0.3493982, -329284.9, -196253.05, 0.0, 9.995611, 10.000847 
2.0345217e+3, 2.964292e+2, -748491.5, -302124.25, -32261.361, -0.09452184, 0.31073204, -299804.6, -264775.53, 0.0, 9.994832, 10.000753 
2.0344603e+3, 3.064309e+2, -798874.6, -284037.25, -36632.07, -0.0936942, 0.4235962, -281443.84, -281443.84, 0.0, 9.994079, 10.000904 
2.0343983e+3, 3.1643143e+2, -710091.3, 74661.086, -16748.143, -0.14873235, 0.38869125, 75018.36, 75018.36, 0.0, 9.993328, 10.003729 
2.0455767e+3, 1.2651573e+2, -929016.2, -1695842.1, 22984.3, 0.049498763, 0.32441583, -928327.9, 771848.6, 0.046886384, 10.007292, 9.996617 
2.045514e+3, 1.3651192e+2, -928461.8, -1653723.4, 4459.6436, 0.020036167, 0.30157974, -928434.4, 673779.75, 0.033513803, 10.006528, 9.996602 
2.0454516e+3, 1.4650887e+2, -885695.8, -1506157.8, 12964.554, 0.011899186, 0.32072353, -885425.06, 618818.9, 0.019976042, 10.005724, 9.99733 
2.0453896e+3, 1.565058e+2, -901581.8, -1469651.9, 7513.143, 0.029569339, 0.29800832, -901482.44, 504791.34, 0.009088984, 10.004898, 9.997305 
2.0453273e+3, 1.6650319e+2, -875923.4, -1356074.0, -104.812195, 0.03171019, 0.30595246, -875923.4, 432376.25, 0.0026925965, 10.004151, 9.997772 
2.0452648e+3, 1.7650108e+2, -880450.6, -1309970.1, 1182.3752, 0.023548214, 0.33530787, -880447.4, 329873.56, 0.0003265787, 10.0034485, 9.997755 
2.0452026e+3, 1.8649887e+2, -852767.6, -1189261.5, 1436.2622, 0.024051681, 0.33478376, -852761.5, 259581.56, 0.0000009613897, 10.00272, 9.998262 
2.0451403e+3, 1.9649675e+2, -863538.8, -1144575.4, 2412.0093, 0.029950576, 0.31449488, -863518.06, 150846.06, 0.0, 10.001976, 9.998255 
2.045078e+3, 2.0649517e+2, -833541.75, -1018182.9, -922.8636, 0.027384639, 0.32435462, -833537.2, 82842.99, 0.0, 10.0012455, 9.998802 
2.0450157e+3, 2.1649407e+2, -843913.3, -977108.75, -8678.747, 0.019817488, 0.35157296, -843350.25, -24958.78, 0.0, 10.000521, 9.99876 
2.0449534e+3, 2.2649279e+2, -826460.25, -879958.4, -10310.177, 0.017088603, 0.35454148, -824542.06, -104137.55, 0.0, 9.9998045, 9.9991 
2.044891e+3, 2.3649159e+2, -830537.94, -828546.0, -4660.9136, 0.017064372, 0.34184098, -824775.8, -202358.81, 0.0, 9.999092, 9.999123 
2.0448284e+3, 2.4649085e+2, -780944.75, -672539.4, -8296.094, 0.000121113655, 0.3377818, -671908.2, -147484.2, 0.0, 9.99841, 9.999849 
2.0447658e+3, 2.5649053e+2, -784818.8, -630996.4, -13173.279, -0.02663476, 0.33972496, -629876.4, -203450.45, 0.0, 9.997743, 9.9997835 
2.0447032e+3, 2.664904e+2, -781864.1, -556076.06, -4996.6855, -0.044695523, 0.36009336, -555965.56, -227537.4, 0.0, 9.996993, 9.999986 
2.044641e+3, 2.7649045e+2, -796286.4, -507537.97, -1334.6669, -0.057804506, 0.38582018, -507531.78, -277102.66, 0.0, 9.9962015, 10.000027 
2.0445786e+3, 2.8649038e+2, -744801.1, -335774.38, 3868.4934, -0.07299867, 0.3531686, -335737.78, -203307.66, 0.0, 9.995469, 10.000886 
2.0445164e+3, 2.9649058e+2, -755457.1, -300229.8, 1730.3125, -0.08945967, 0.3011246, -300223.22, -265795.3, 0.0, 9.994767, 10.000794 
2.0444542e+3, 3.0649272e+2, -809237.0, -282150.38, 1577.8579, -0.08937739, 0.4514142, -282145.66, -282145.66, 0.0, 9.993983, 10.00096 
2.0443913e+3, 3.1649283e+2, -749497.25, 37230.902, 29051.182, -0.15718466, 0.3739166, 38302.207, 38302.207, 0.0, 9.993142, 10.003559 
2.055584e+3, 1.2657793e+2, -915015.3, -1669050.9, -4135.6387, 0.053262778, 0.31894898, -914992.6, 784575.8, 0.04795151, 10.007305, 9.996806 
2.0555203e+3, 1.3657454e+2, -918415.06, -1634833.8, -23075.135, 0.019536832, 0.3220647, -917672.6, 683928.6, 0.0343077, 10.006539, 9.99673 
2.0554571e+3, 1.4657152e+2, -894658.0, -1528292.6, -16929.064, 0.012798687, 0.34759018, -894206.0, 609424.75, 0.020483084, 10.005735, 9.997174 
2.0553944e+3, 1.5656829e+2, -908482.2, -1487807.5, -21631.332, 0.03532468, 0.32356137, -907675.6, 497987.03, 0.009346294, 10.00491, 9.997177 
2.0553313e+3, 1.6656548e+2, -871990.06, -1351250.1, -25457.078, 0.035617877, 0.31497556, -870641.6, 437048.66, 0.0027832203, 10.004162, 9.997804 
2.0552681e+3, 1.7656316e+2, -877099.6, -1305652.6, -24643.373, 0.02202917, 0.31965294, -875687.25, 334026.06, 0.00034183564, 10.003455, 9.997785 
2.0552051e+3, 1.8656108e+2, -849703.3, -1185153.9, -25840.332, 0.022289937, 0.32968706, -847724.5, 264009.5, 0.000001022812, 10.002725, 9.998291 
2.0551421e+3, 1.9655928e+2, -862996.2, -1145627.6, -24806.416, 0.030783122, 0.33964297, -860835.5, 152916.45, 0.0, 10.001981, 9.998248 
2.055079e+3, 2.0655757e+2, -844901.2, -1044061.06, -27509.744, 0.030744167, 0.34663, -841171.2, 74598.52, 0.0, 10.00125, 9.998625 
2.0550162e+3, 2.1655607e+2, -851436.4, -995163.2, -35213.844, 0.02564894, 0.35231704, -843272.5, -25487.043, 0.0, 10.000526, 9.998636 
2.0549528e+3, 2.2655496e+2, -811879.1, -852194.5, -36571.68, 0.018695844, 0.3645152, -790277.75, -70480.77, 0.0, 9.99981, 9.99929 
2.05489e+3, 2.3655422e+2, -819641.8, -808414.06, -30607.879, 0.010644819, 0.37833196, -782909.5, -161104.97, 0.0, 9.999098, 9.999261 
2.0548265e+3, 2.4655336e+2, -789588.6, -693299.5, -32879.223, -0.009545939, 0.36684313, -683143.6, -159331.08, 0.0, 9.998417, 9.999706 
2.0547631e+3, 2.5655264e+2, -790372.5, -646045.6, -38879.613, -0.036478925, 0.34232005, -636238.44, -210419.5, 0.0, 9.997752, 9.999678 
2.0547e+3, 2.6655248e+2, -771099.75, -536850.4, -35156.01, -0.04495327, 0.36112303, -531687.94, -203867.1, 0.0, 9.997002, 10.000116 
2.0546369e+3, 2.7655283e+2, -787845.0, -491764.16, -30593.203, -0.043252937, 0.39907637, -488636.1, -258817.19, 0.0, 9.996203, 10.000137 
2.054574e+3, 2.8655276e+2, -744203.6, -336026.75, -22207.975, -0.06170844, 0.3616648, -334822.0, -203002.39, 0.0, 9.99547, 10.000886 
2.054511e+3, 2.9655284e+2, -752304.2, -295876.63, -25188.264, -0.09163178, 0.29603338, -294490.8, -260672.2, 0.0, 9.994771, 10.000825 
2.054448e+3, 3.065553e+2, -794343.8, -253170.28, -29557.12, -0.08563829, 0.46853155, -251560.75, -251560.75, 0.0, 9.993986, 10.001161 
2.0543844e+3, 3.165552e+2, -760567.56, 13716.715, -3998.6216, -0.14409046, 0.3547, 13737.364, 13737.364, 0.0, 9.993139, 10.003402 
2.065591e+3, 1.2664135e+2, -886900.56, -1663022.5, 40207.242, 0.050812487, 0.32666454, -884823.2, 814124.44, 0.049008545, 10.007556, 9.996727 
2.0655268e+3, 1.3663785e+2, -892142.06, -1629024.5, 6396.8823, 0.019432113, 0.32802597, -892086.5, 708895.2, 0.03509553, 10.006768, 9.996656 
2.0654626e+3, 1.4663479e+2, -861103.1, -1511255.3, 11769.426, 0.01077687, 0.35333797, -860890.1, 642121.56, 0.02098626, 10.005976, 9.997172 
2.065399e+3, 1.5663157e+2, -870821.44, -1469742.0, 16716.375, 0.029516201, 0.33368054, -870355.25, 534688.0, 0.009601854, 10.005178, 9.9971695 
2.0653352e+3, 1.6662875e+2, -842590.5, -1338092.0, 15649.792, 0.030830845, 0.32551387, -842096.7, 464974.34, 0.0028736405, 10.004374, 9.997788 
2.0652714e+3, 1.7662637e+2, -862708.5, -1300303.0, 12651.568, 0.020815272, 0.32767364, -862343.06, 346751.56, 0.00035735784, 10.003566, 9.997765 
2.0652075e+3, 1.8662427e+2, -845920.9, -1185827.3, 6653.8833, 0.023606004, 0.33868995, -845790.7, 265324.97, 0.0000011200523, 10.002766, 9.998263 
2.0651437e+3, 1.9662248e+2, -866256.94, -1149171.3, 3438.687, 0.03400266, 0.3522959, -866215.1, 146918.48, 0.0, 10.001972, 9.998225 
2.0650801e+3, 2.0662074e+2, -847429.2, -1042927.44, 9367.903, 0.034791037, 0.3583115, -846981.3, 68170.25, 0.0, 10.001227, 9.998641 
2.0650163e+3, 2.1661921e+2, -853226.5, -994247.6, 15190.084, 0.029969161, 0.35991377, -851608.9, -34441.156, 0.0, 10.000511, 9.998648 
2.0649527e+3, 2.2661807e+2, -807599.2, -848387.0, 10498.8125, 0.01936869, 0.37158695, -805055.44, -85876.15, 0.0, 9.999837, 9.999301 
2.0648886e+3, 2.3661736e+2, -806809.8, -800470.6, 1991.6161, 0.005589092, 0.38756892, -799896.8, -178710.22, 0.0, 9.999184, 9.999271 
2.0648247e+3, 2.4661653e+2, -786819.8, -689188.7, 691.71423, -0.012919424, 0.37921026, -689183.8, -165989.31, 0.0, 9.998429, 9.999725 
2.0647608e+3, 2.5661585e+2, -808073.56, -651570.6, 6142.8833, -0.034124907, 0.3576108, -651329.9, -226129.0, 0.0, 9.997623, 9.9997 
2.0646968e+3, 2.6661572e+2, -782828.0, -535036.9, 9551.737, -0.041539486, 0.37385368, -534669.25, -207466.63, 0.0, 9.996894, 10.000177 
2.064633e+3, 2.7661607e+2, -784524.0, -483710.28, 8191.2627, -0.041059375, 0.406716, -483487.38, -254287.1, 0.0, 9.996204, 10.000189 
2.0645693e+3, 2.86616e+2, -742438.5, -333730.38, 15189.101, -0.059752956, 0.36829758, -333166.66, -201965.77, 0.0, 9.9954815, 10.000894 
2.0645057e+3, 2.9661605e+2, -753640.4, -290839.9, 11182.795, -0.089846805, 0.303895, -290569.84, -257369.97, 0.0, 9.994743, 10.000871 
2.0644419e+3, 3.0661884e+2, -787307.6, -220966.6, 4090.1406, -0.08017124, 0.4903514, -220937.06, -220937.06, 0.0, 9.993916, 10.001412 
2.0643774e+3, 3.166186e+2, -790107.3, -18829.736, 29691.197, -0.13884689, 0.34114316, -17688.428, -17688.428, 0.0, 9.993021, 10.003232 
2.0755984e+3, 1.2670586e+2, -907842.56, -1706709.3, 10425.741, 0.042939033, 0.34329453, -907706.5, 790609.06, 0.05005211, 10.007557, 9.996416 
2.0755333e+3, 1.367018e+2, -908225.25, -1664886.4, -21281.697, 0.019707354, 0.32186377, -907627.1, 692728.56, 0.035873663, 10.006773, 9.99641 
2.0754685e+3, 1.4669865e+2, -853153.2, -1496296.5, -16445.758, 0.006151951, 0.34166563, -852732.94, 649653.75, 0.021483412, 10.005981, 9.997276 
2.0754038e+3, 1.5669563e+2, -864807.7, -1459227.5, -12458.475, 0.013599352, 0.33079684, -864546.7, 539869.25, 0.009854615, 10.005184, 9.997242 
2.0753394e+3, 1.6669294e+2, -846719.44, -1348941.5, -14185.962, 0.018484186, 0.33771262, -846319.06, 460123.5, 0.0029635904, 10.004378, 9.997715 
2.0752746e+3, 1.7669065e+2, -867343.94, -1312213.4, -17085.049, 0.019965358, 0.35710436, -866688.75, 341776.78, 0.0003731754, 10.003571, 9.997684 
2.0752102e+3, 1.8668838e+2, -851708.25, -1200293.3, -22570.938, 0.02772544, 0.360238, -850252.9, 260235.55, 0.0000012775297, 10.002771, 9.998164 
2.0751457e+3, 1.966863e+2, -868760.9, -1157016.5, -25193.412, 0.039434347, 0.3529232, -866575.5, 145933.98, 0.0, 10.001978, 9.998171 
2.0750813e+3, 2.0668465e+2, -833208.2, -1016031.1, -16881.154, 0.03942972, 0.3600825, -831662.5, 82863.6, 0.0, 10.001234, 9.998825 
2.0750168e+3, 2.1668343e+2, -843650.94, -976928.75, -10683.05, 0.03273071, 0.37443405, -842800.06, -26261.484, 0.0, 10.000518, 9.998766 
2.0749521e+3, 2.2668213e+2, -820021.94, -876870.3, -13415.747, 0.019096818, 0.37520874, -817014.94, -98463.016, 0.0, 9.999844, 9.9991045 
2.0748878e+3, 2.3668097e+2, -814949.2, -820250.2, -23094.498, 0.0019678043, 0.36804566, -794353.6, -173789.72, 0.0, 9.999191, 9.999135 
2.074823e+3, 2.4668035e+2, -773466.1, -664058.2, -29448.363, -0.009455716, 0.37429544, -656635.44, -134065.19, 0.0, 9.998435, 9.999898 
2.0747583e+3, 2.566802e+2, -797818.7, -632191.5, -22963.264, -0.018392902, 0.3872816, -629066.75, -204494.94, 0.0, 9.997626, 9.999834 
2.0746936e+3, 2.6668006e+2, -784623.8, -540825.6, -15753.351, -0.034428094, 0.3993841, -539811.9, -213238.38, 0.0, 9.996898, 10.000138 
2.0746289e+3, 2.7668008e+2, -785478.6, -488546.3, -17630.2, -0.053362746, 0.4075439, -487503.2, -258929.44, 0.0, 9.996211, 10.000155 
2.0745644e+3, 2.8668004e+2, -741385.1, -334595.56, -12476.518, -0.068534195, 0.37302533, -334213.25, -203638.9, 0.0, 9.995489, 10.000887 
2.0745e+3, 2.966803e+2, -749418.56, -284812.4, -17302.592, -0.083228216, 0.32785437, -284168.94, -251597.0, 0.0, 9.994749, 10.000912 
2.0744355e+3, 3.066833e+2, -765948.44, -178818.39, -29044.082, -0.07300878, 0.51758045, -177385.14, -177385.14, 0.0, 9.993919, 10.001703 
2.0743701e+3, 3.1668323e+2, -804332.7, -49623.953, -6979.3003, -0.14248043, 0.36158365, -49559.418, -49559.418, 0.0, 9.993021, 10.003023 
2.0856057e+3, 1.2677094e+2, -897179.56, -1697173.9, 27003.615, 0.041869037, 0.35731965, -896269.06, 801409.56, 0.051071692, 10.007629, 9.996445 
2.0855398e+3, 1.3676687e+2, -893381.7, -1655398.3, 16343.077, 0.018753374, 0.32964683, -893031.4, 706687.7, 0.0366341, 10.006881, 9.996421 
2.0854741e+3, 1.4676365e+2, -840623.1, -1493286.6, 21227.662, 0.0032150913, 0.34722966, -839933.4, 661817.06, 0.021969585, 10.006091, 9.997242 
2.0854089e+3, 1.5676062e+2, -854097.3, -1457403.0, 16029.095, 0.0074620135, 0.33980283, -853671.75, 550108.2, 0.010102353, 10.00528, 9.997206 
2.0853435e+3, 1.6675793e+2, -838273.44, -1348695.3, 11817.153, 0.014542697, 0.34989694, -838000.0, 467806.84, 0.0030524265, 10.004459, 9.997675 
2.085278e+3, 1.7675562e+2, -860839.75, -1312558.3, 10917.231, 0.021102473, 0.37204546, -860576.06, 347254.1, 0.0003892125, 10.003635, 9.997647 
2.0852129e+3, 1.8675326e+2, -839465.8, -1194516.0, 11324.209, 0.027854476, 0.37097758, -839105.0, 270748.63, 0.0000015132997, 10.002861, 9.998158 
2.0851475e+3, 1.9675107e+2, -850182.0, -1148778.0, 14500.337, 0.035439033, 0.35599878, -849479.5, 162395.95, 0.0, 10.002113, 9.998159 
2.0850822e+3, 2.0674944e+2, -817288.8, -1010056.1, 15296.024, 0.035669725, 0.3674037, -816082.6, 97809.4, 0.0, 10.001355, 9.998805 
2.0850171e+3, 2.167483e+2, -833757.44, -972336.1, 6121.5513, 0.03146845, 0.3918972, -833487.56, -17583.602, 0.0, 10.000591, 9.998759 
2.0849518e+3, 2.2674696e+2, -821231.5, -870041.44, 10998.273, 0.019985175, 0.38789865, -818867.75, -100950.37, 0.0, 9.999808, 9.999166 
2.0848864e+3, 2.3674574e+2, -836904.1, -824798.06, 19474.504, 0.004831944, 0.36847326, -810457.56, -190527.75, 0.0, 9.99902, 9.999184 
2.084821e+3, 2.467452e+2, -788823.3, -669600.7, 10615.144, -0.0070567005, 0.38138786, -668662.94, -146727.19, 0.0, 9.998327, 9.999909 
2.0847556e+3, 2.5674522e+2, -788529.7, -624768.4, 4361.06, -0.017445015, 0.41094258, -624652.3, -200716.0, 0.0, 9.997683, 9.999855 
2.0846905e+3, 2.667451e+2, -769999.75, -523750.5, 13119.222, -0.032568324, 0.42108625, -523053.53, -197115.92, 0.0, 9.996961, 10.000223 
2.084625e+3, 2.7674508e+2, -783195.75, -479689.1, 19585.256, -0.04972999, 0.41755468, -478430.47, -250492.69, 0.0, 9.996199, 10.000219 
2.0845598e+3, 2.8674504e+2, -754163.56, -342190.1, 25077.918, -0.062946625, 0.38438734, -340669.16, -210730.92, 0.0, 9.995414, 10.000868 
2.0844947e+3, 2.9674536e+2, -767233.94, -289664.38, 18297.67, -0.07557379, 0.3471838, -288964.34, -257028.77, 0.0, 9.9946165, 10.000939 
2.0844294e+3, 3.0674836e+2, -753321.06, -143284.6, 2602.7666, -0.067568496, 0.52187884, -143273.48, -143273.48, 0.0, 9.993885, 10.001961 
2.0843631e+3, 3.1674856e+2, -798252.44, -70042.836, 17001.229, -0.14233357, 0.36936516, -69646.13, -69646.13, 0.0, 9.993169, 10.002809 
2.0956133e+3, 1.2683666e+2, -879589.1, -1659871.9, 327.7645, 0.04558385, 0.36880428, -879588.94, 817447.44, 0.05205437, 10.007628, 9.996717 
2.0955466e+3, 1.3683292e+2, -880250.4, -1628030.3, -11054.262, 0.016653495, 0.3489715, -880087.0, 718985.3, 0.03736777, 10.006885, 9.99661 
2.09548e+3, 1.4682968e+2, -851320.5, -1517486.5, -8446.333, 0.0017425971, 0.36702767, -851213.44, 649890.5, 0.022439472, 10.006096, 9.997075 
2.0954138e+3, 1.5682648e+2, -863210.4, -1478587.1, -13710.6045, 0.009724345, 0.35877457, -862905.06, 540230.56, 0.010342579, 10.005283, 9.997061 
2.0953476e+3, 1.6682363e+2, -839194.8, -1352961.8, -18425.205, 0.017837647, 0.36185682, -838534.9, 466629.2, 0.003139156, 10.004464, 9.997646 
2.0952815e+3, 1.768212e+2, -860685.6, -1314795.5, -18931.598, 0.02386519, 0.37394813, -859897.75, 347290.8, 0.00040518978, 10.003641, 9.997632 
2.0952153e+3, 1.8681887e+2, -834010.5, -1185854.0, -16174.278, 0.024145892, 0.37201288, -833268.5, 275942.97, 0.0000018186917, 10.002868, 9.998218 
2.0951492e+3, 1.9681677e+2, -848680.25, -1148303.8, -13115.384, 0.02243112, 0.36138994, -848107.25, 163124.67, 0.0, 10.00212, 9.998163 
2.0950833e+3, 2.0681508e+2, -832953.5, -1045009.6, -12838.884, 0.023840453, 0.37999713, -832179.0, 81070.68, 0.0, 10.001361, 9.998565 
2.0950173e+3, 2.1681377e+2, -842725.5, -993380.3, -22135.133, 0.026280489, 0.41240996, -839540.56, -24276.402, 0.0, 10.000597, 9.998615 
2.0949514e+3, 2.2681257e+2, -798852.06, -826058.44, -18294.023, 0.02215481, 0.4100891, -789657.94, -72381.984, 0.0, 9.999814, 9.999468 
2.0948856e+3, 2.3681165e+2, -820948.3, -793849.4, -8754.139, 0.014472859, 0.38979426, -791267.44, -171982.88, 0.0, 9.999023, 9.999397 
2.0948194e+3, 2.4681105e+2, -800662.5, -696572.75, -13040.711, -0.0061485777, 0.4009565, -694963.9, -173672.6, 0.0, 9.998332, 9.999724 
2.094753e+3, 2.5681084e+2, -795247.2, -641867.6, -20441.21, -0.032965392, 0.4276947, -639190.1, -215895.1, 0.0, 9.997691, 9.999736 
2.094687e+3, 2.6681083e+2, -754296.75, -494417.38, -15610.808, -0.03618768, 0.43872753, -493483.0, -168187.56, 0.0, 9.996969, 10.000423 
2.0946214e+3, 2.7681103e+2, -771204.25, -457559.25, -9141.953, -0.027429804, 0.4384863, -457293.0, -230000.44, 0.0, 9.996205, 10.000371 
2.0945552e+3, 2.8681102e+2, -757167.06, -350464.94, -4921.2397, -0.040722515, 0.40338603, -350405.38, -221112.64, 0.0, 9.995417, 10.000813 
2.0944892e+3, 2.9681122e+2, -767525.0, -291633.16, -11094.872, -0.06685377, 0.36041117, -291374.63, -260083.3, 0.0, 9.994617, 10.000929 
2.094423e+3, 3.0681393e+2, -738465.44, -115453.42, -23433.219, -0.064208075, 0.49715355, -114573.27, -114573.27, 0.0, 9.993893, 10.0021515 
2.094356e+3, 3.168147e+2, -811057.8, -102290.62, -15074.281, -0.13595954, 0.38519475, -101970.164, -101970.164, 0.0, 9.993188, 10.002581 
2.1056207e+3, 1.2690324e+2, -876523.9, -1657431.9, 40594.426, 0.040987283, 0.36822534, -874419.3, 821965.25, 0.052990057, 10.007659, 9.996717 
2.1055532e+3, 1.3689958e+2, -870257.9, -1623133.1, 13348.628, 0.014050736, 0.35819665, -870021.3, 728398.5, 0.03806757, 10.006967, 9.996601 
2.1054861e+3, 1.4689633e+2, -841200.3, -1515420.3, 12672.579, 0.00037199774, 0.3784359, -840962.25, 659489.4, 0.022888577, 10.006187, 9.997043 
2.1054189e+3, 1.568931e+2, -854563.7, -1477735.8, 15467.053, 0.00911043, 0.3715825, -854180.06, 548303.7, 0.010572686, 10.005365, 9.997025 
2.105352e+3, 1.6689017e+2, -829908.44, -1351885.4, 12805.89, 0.016507441, 0.3718246, -829594.44, 474918.47, 0.0032224308, 10.004549, 9.99761 
2.105285e+3, 1.7688763e+2, -849155.5, -1312019.9, 11585.306, 0.02094028, 0.3786845, -848865.75, 357672.6, 0.00042063324, 10.003737, 9.9976015 
2.105218e+3, 1.8688531e+2, -819360.56, -1178022.9, 12903.705, 0.020022515, 0.37877056, -818896.94, 289664.22, 0.0000021507155, 10.002971, 9.998219 
2.1051511e+3, 1.9688328e+2, -834699.3, -1141750.3, 10920.655, 0.017343206, 0.3738455, -834311.4, 176269.58, 0.0, 10.002222, 9.998156 
2.1050845e+3, 2.0688148e+2, -831799.44, -1047849.75, 16710.785, 0.020470893, 0.38777372, -830514.56, 82084.984, 0.0, 10.001389, 9.998529 
2.1050178e+3, 2.1688004e+2, -855888.06, -1000503.1, 21595.26, 0.025960743, 0.41062525, -852732.1, -38116.582, 0.0, 10.000515, 9.998603 
2.104951e+3, 2.2687894e+2, -803054.94, -816064.6, 21396.197, 0.02135972, 0.41224244, -787196.6, -70570.16, 0.0, 9.999739, 9.99957 
2.1048842e+3, 2.3687819e+2, -817849.56, -783565.1, 16089.721, 0.011773834, 0.40264577, -777197.06, -158563.95, 0.0, 9.999013, 9.99947 
2.1048173e+3, 2.4687761e+2, -807454.44, -703923.6, 16404.924, -0.0074676774, 0.41566086, -701386.4, -180746.38, 0.0, 9.998309, 9.999682 
2.1047504e+3, 2.5687733e+2, -807820.2, -649311.3, 18214.537, -0.031566355, 0.43938658, -647245.2, -224600.17, 0.0, 9.997616, 9.999719 
2.1046838e+3, 2.6687732e+2, -761549.25, -485975.0, 17622.326, -0.031141426, 0.4501487, -484852.66, -160207.6, 0.0, 9.996873, 10.0005245 
2.1046172e+3, 2.7687764e+2, -780079.1, -451426.28, 16018.083, -0.017916929, 0.45165405, -450647.4, -224006.48, 0.0, 9.996105, 10.000459 
2.1045506e+3, 2.8687775e+2, -762322.3, -347908.06, 21992.035, -0.03294266, 0.4231063, -346744.25, -218104.42, 0.0, 9.995365, 10.000853 
2.1044837e+3, 2.9687804e+2, -760521.94, -281595.44, 23110.838, -0.06451013, 0.38725007, -280482.78, -249845.52, 0.0, 9.994642, 10.000983 
2.1044168e+3, 3.0688038e+2, -712106.4, -87640.984, 12929.809, -0.0653023, 0.4730693, -87373.38, -87373.38, 0.0, 9.994014, 10.002281 
2.1043491e+3, 3.1688157e+2, -789816.7, -110046.734, 10561.776, -0.12983662, 0.39682004, -109882.67, -109882.67, 0.0, 9.993417, 10.002415 
2.115628e+3, 1.2697063e+2, -892950.7, -1690563.9, 14414.305, 0.029482944, 0.3578184, -892690.25, 803033.5, 0.05387353, 10.007656, 9.996482 
2.11556e+3, 1.3696685e+2, -883294.94, -1650532.1, -12291.437, 0.011093555, 0.35927075, -883098.06, 714663.25, 0.038728163, 10.006962, 9.996418 
2.115492e+3, 1.4696361e+2, -837313.4, -1507415.9, -17075.383, -0.0010148734, 0.38292113, -836878.56, 662914.9, 0.0233122, 10.006186, 9.997101 
2.1154241e+3, 1.5696044e+2, -851588.56, -1473173.0, -14920.073, 0.005920426, 0.37931168, -851230.7, 550593.8, 0.010789386, 10.005368, 9.997058 
2.1153562e+3, 1.6695751e+2, -833006.1, -1360963.9, -17381.656, 0.011032373, 0.380171, -832434.5, 471419.2, 0.0033005464, 10.004555, 9.997547 
2.1152884e+3, 1.7695491e+2, -852235.06, -1321576.1, -17993.195, 0.012877575, 0.38590416, -851546.25, 354333.5, 0.00043497214, 10.003746, 9.997535 
2.1152207e+3, 1.8695256e+2, -822974.1, -1188224.0, -14619.536, 0.015639426, 0.3907991, -822389.94, 285513.03, 0.0000024542016, 10.002976, 9.998149 
2.115153e+3, 1.9695051e+2, -836056.06, -1146707.9, -17425.414, 0.019812273, 0.3930843, -835081.6, 174841.28, 0.0, 10.002226, 9.998122 
2.1150857e+3, 2.0694864e+2, -821034.5, -1027606.6, -15640.434, 0.02518451, 0.39056915, -819857.0, 92084.92, 0.0, 10.001392, 9.99867 
2.115018e+3, 2.1694705e+2, -848482.56, -987518.9, -9588.209, 0.030305333, 0.38623112, -847824.5, -33866.08, 0.0, 10.00052, 9.9986925 
2.1149504e+3, 2.2694597e+2, -810553.8, -834209.75, -5416.089, 0.01728236, 0.39410663, -809372.75, -93403.31, 0.0, 9.999744, 9.999445 
2.1148828e+3, 2.3694533e+2, -822728.6, -796382.2, -10644.384, -0.003942474, 0.40688616, -792619.1, -174643.19, 0.0, 9.999019, 9.999382 
2.1148154e+3, 2.4694483e+2, -799886.9, -690949.56, -9452.65, -0.010765228, 0.4251293, -690135.44, -170153.11, 0.0, 9.998315, 9.999771 
2.114748e+3, 2.5694457e+2, -802130.06, -639926.3, -8082.4697, -0.011332351, 0.4454894, -639524.56, -217537.95, 0.0, 9.997622, 9.9997835 
2.1146807e+3, 2.669446e+2, -762947.3, -490960.34, -11270.297, -0.016849872, 0.4545351, -490494.13, -166507.16, 0.0, 9.996877, 10.000491 
2.114613e+3, 2.7694488e+2, -779551.5, -452278.16, -12878.615, -0.023663238, 0.45572677, -451772.16, -225788.5, 0.0, 9.996108, 10.000454 
2.1145454e+3, 2.8694522e+2, -752112.0, -329223.94, -5508.5356, -0.042244237, 0.44386238, -329152.2, -201172.19, 0.0, 9.99537, 10.000981 
2.114478e+3, 2.9694587e+2, -751206.56, -265728.2, -3104.4648, -0.069895245, 0.43098047, -265708.34, -235734.92, 0.0, 9.994651, 10.00109 
2.1144104e+3, 3.0694756e+2, -707268.94, -82905.23, -8869.729, -0.072023414, 0.44958624, -82779.25, -82779.25, 0.0, 9.994031, 10.002309 
2.1143426e+3, 3.1694922e+2, -791498.94, -120718.17, -17994.361, -0.122623995, 0.41791922, -120235.8, -120235.8, 0.0, 9.993442, 10.002333 
2.1256353e+3, 1.2703878e+2, -899253.4, -1697560.8, 32502.895, 0.026580146, 0.36212957, -897932.25, 797124.0, 0.05470185, 10.007639, 9.996437 
2.1255666e+3, 1.3703503e+2, -896150.2, -1661082.8, 17254.732, 0.013527251, 0.37202913, -895761.1, 701332.9, 0.039344218, 10.006898, 9.996373 
2.1254978e+3, 1.4703172e+2, -844282.4, -1512728.4, 10675.908, 0.0006422104, 0.39348772, -844111.9, 655014.94, 0.023704737, 10.006153, 9.997077 
2.1254292e+3, 1.570285e+2, -848084.7, -1473314.5, 7195.61, 0.0035566264, 0.38564718, -848001.94, 553156.56, 0.010988671, 10.005407, 9.997035 
2.1253607e+3, 1.670255e+2, -818804.56, -1354724.0, 4829.98, 0.0061569302, 0.3850678, -818761.06, 484426.9, 0.003371526, 10.004662, 9.997536 
2.125292e+3, 1.7702287e+2, -829410.5, -1311853.9, 6575.519, 0.0062745814, 0.39047793, -829320.9, 375893.25, 0.00044759095, 10.003914, 9.997518 
2.1252236e+3, 1.8702053e+2, -812455.9, -1186189.6, 10655.916, 0.010398047, 0.3985916, -812152.3, 295085.22, 0.0000026861098, 10.003068, 9.998116 
2.125155e+3, 1.9701849e+2, -844900.2, -1151823.6, 9225.565, 0.017451057, 0.40571865, -844623.1, 164634.55, 0.0, 10.002174, 9.998109 
2.1250866e+3, 2.070166e+2, -827569.25, -1021335.75, 6841.09, 0.023494666, 0.39866346, -827328.0, 83948.625, 0.0, 10.001313, 9.998748 
2.1250182e+3, 2.1701498e+2, -852488.6, -982457.5, 8676.519, 0.028177867, 0.38532558, -851911.94, -38619.09, 0.0, 10.000468, 9.998749 
2.12495e+3, 2.2701396e+2, -819851.4, -841572.6, 19396.773, 0.015552092, 0.39833313, -808481.6, -93177.96, 0.0, 9.999699, 9.9994135 
2.1248816e+3, 2.3701338e+2, -832109.4, -802223.75, 20380.236, -0.0048170695, 0.4228428, -791895.2, -174585.14, 0.0, 9.998965, 9.999365 
2.1248135e+3, 2.4701288e+2, -809415.25, -687958.2, 22048.422, -0.008128547, 0.438483, -684079.56, -164763.17, 0.0, 9.998222, 9.999834 
2.1247454e+3, 2.570126e+2, -819896.0, -642322.06, 20954.605, -0.0037922447, 0.4496167, -639882.8, -218562.14, 0.0, 9.9974785, 9.999833 
2.1246773e+3, 2.6701257e+2, -770453.44, -493698.03, 19150.906, -0.01320807, 0.4553639, -492379.13, -169057.81, 0.0, 9.996827, 10.000494 
2.1246089e+3, 2.7701285e+2, -763209.75, -442117.34, 18989.328, -0.028204197, 0.45641875, -440998.22, -215679.9, 0.0, 9.996216, 10.000469 
2.1245408e+3, 2.8701335e+2, -729762.44, -308847.8, 21962.33, -0.044699304, 0.45710665, -307704.97, -180392.05, 0.0, 9.995487, 10.001061 
2.1244724e+3, 2.9701427e+2, -739554.4, -253720.92, 21425.094, -0.06589395, 0.4611074, -252777.92, -223474.19, 0.0, 9.994709, 10.001142 
2.1244043e+3, 3.0701533e+2, -695798.9, -83457.46, 15970.264, -0.07632035, 0.41923457, -83041.23, -83041.23, 0.0, 9.994142, 10.002249 
2.1243358e+3, 3.170174e+2, -757962.4, -102154.73, -5446.053, -0.11822616, 0.43585166, -102109.51, -102109.51, 0.0, 9.993668, 10.002348 
2.1356428e+3, 1.2710768e+2, -895862.06, -1687135.1, 4862.0625, 0.029882642, 0.37733954, -895832.2, 798549.8, 0.05547251, 10.007625, 9.996521 
2.1355735e+3, 1.3710408e+2, -893846.7, -1655771.9, -10213.172, 0.020202823, 0.39424396, -893709.8, 702708.5, 0.03991195, 10.006894, 9.996414 
2.1355039e+3, 1.4710064e+2, -851614.5, -1529365.1, -16942.68, 0.0047088354, 0.4089988, -851191.25, 647261.0, 0.024062423, 10.006154, 9.996965 
2.1354343e+3, 1.570972e+2, -853506.9, -1486484.5, -20427.6, 0.0018305962, 0.39063612, -852848.3, 547637.6, 0.011167807, 10.00541, 9.996946 
2.135365e+3, 1.6709416e+2, -817213.7, -1353162.1, -22783.205, 0.0018132793, 0.38696903, -816246.9, 486268.94, 0.0034339314, 10.004664, 9.997548 
2.1352957e+3, 1.7709154e+2, -828528.8, -1311560.6, -22220.328, 0.0009430902, 0.39278543, -827508.75, 377032.88, 0.00045800823, 10.003916, 9.997522 
2.1352263e+3, 1.8708919e+2, -813069.6, -1189312.1, -22594.152, 0.0042347442, 0.40248367, -811717.7, 294847.47, 0.0000028192917, 10.00307, 9.998096 
2.135157e+3, 1.9708715e+2, -845028.44, -1154498.8, -23557.824, 0.010412098, 0.41201845, -843245.4, 165340.2, 0.0, 10.00218, 9.998092 
2.1350877e+3, 2.0708533e+2, -826554.06, -1021776.44, -24468.674, 0.015578608, 0.4122001, -823533.94, 87070.04, 0.0, 10.001318, 9.998745 
2.1350186e+3, 2.1708381e+2, -850929.8, -981755.0, -21526.02, 0.019682603, 0.40819815, -847478.94, -34859.65, 0.0, 10.000474, 9.998754 
2.1349494e+3, 2.2708283e+2, -815682.3, -835586.44, -7732.145, 0.016475353, 0.4252617, -813031.6, -98402.016, 0.0, 9.999705, 9.999455 
2.1348806e+3, 2.3708232e+2, -828597.3, -797566.25, -6894.446, 0.009886405, 0.45077506, -796103.4, -179467.7, 0.0, 9.998971, 9.999396 
2.1348116e+3, 2.4708173e+2, -807571.0, -686521.7, -5909.664, 0.00040336142, 0.45585045, -686233.8, -167591.25, 0.0, 9.998227, 9.999845 
2.1347427e+3, 2.570813e+2, -818228.06, -640840.2, -6051.962, -0.01058454, 0.45145234, -640633.94, -219986.23, 0.0, 9.997481, 9.999845 
2.1346739e+3, 2.6708123e+2, -767829.9, -490979.75, -3605.5142, -0.02139634, 0.45211688, -490932.8, -168284.28, 0.0, 9.996833, 10.000512 
2.134605e+3, 2.7708155e+2, -760201.94, -439982.25, -5150.7896, -0.03113609, 0.45315865, -439899.44, -215254.02, 0.0, 9.996227, 10.000482 
2.1345362e+3, 2.8708214e+2, -727589.56, -308607.44, -8067.88, -0.038906526, 0.46120346, -308452.13, -181812.9, 0.0, 9.995501, 10.0010605 
2.134467e+3, 2.970831e+2, -740514.06, -259633.22, -6500.723, -0.050485812, 0.47444463, -259545.36, -230916.2, 0.0, 9.99472, 10.001099 
2.1343982e+3, 3.0708352e+2, -706440.0, -110918.18, -2469.3027, -0.07795763, 0.38082954, -110907.94, -110907.94, 0.0, 9.994159, 10.002054 
2.1343294e+3, 3.17086e+2, -743571.44, -79611.88, -29947.256, -0.11662331, 0.4536391, -78263.88, -78263.88, 0.0, 9.993693, 10.002494 
2.14565e+3, 1.2717718e+2, -919295.9, -1697738.1, 27251.723, 0.028186543, 0.3889543, -918343.06, 775358.4, 0.056182306, 10.007462, 9.996522 
2.14558e+3, 1.371735e+2, -901014.56, -1658785.4, 7345.1206, 0.021971896, 0.39954415, -900943.4, 694795.1, 0.040429752, 10.006849, 9.996412 
2.1455097e+3, 1.4717004e+2, -851907.06, -1529561.6, 1204.1823, 0.0061199106, 0.4114841, -851904.94, 645867.8, 0.024384355, 10.00616, 9.996959 
2.1454394e+3, 1.571666e+2, -851134.0, -1485591.1, 3317.3557, 0.00087681465, 0.39418516, -851116.6, 548689.6, 0.011325983, 10.005434, 9.996937 
2.1453694e+3, 1.6716355e+2, -820204.6, -1354199.8, 319.05722, 0.0029221554, 0.3912131, -820204.44, 481631.78, 0.0034871881, 10.004648, 9.997546 
2.1452993e+3, 1.7716092e+2, -841007.8, -1317360.9, -1471.3132, 0.005691139, 0.39741692, -841003.3, 362858.9, 0.00046601487, 10.003835, 9.997518 
2.145229e+3, 1.8715855e+2, -819032.56, -1191843.6, -3998.8655, 0.0032843414, 0.4075493, -818989.7, 286896.22, 0.000002843591, 10.003034, 9.998094 
2.145159e+3, 1.971565e+2, -836788.94, -1149386.0, -4734.947, -0.00003403328, 0.41756484, -836717.25, 171189.34, 0.0, 10.002237, 9.9980955 
2.1450886e+3, 2.0715472e+2, -812994.94, -1010593.6, -4560.5874, 0.004902859, 0.41932863, -812889.75, 97034.91, 0.0, 10.001397, 9.99878 
2.1450186e+3, 2.1715325e+2, -840777.3, -974243.94, 763.0236, 0.012958933, 0.41775388, -840773.0, -28833.666, 0.0, 10.000538, 9.998772 
2.144949e+3, 2.2715227e+2, -819895.2, -841752.44, 12438.074, 0.01577228, 0.43664992, -814266.6, -100316.664, 0.0, 9.9997, 9.999413 
2.1448791e+3, 2.3715171e+2, -844623.94, -807330.25, 7146.995, 0.016173052, 0.46327868, -806007.5, -190050.69, 0.0, 9.998876, 9.9993725 
2.1448095e+3, 2.471511e+2, -813112.75, -682773.5, 10029.067, 0.004513545, 0.46661678, -682006.3, -164042.77, 0.0, 9.998167, 9.999896 
2.1447398e+3, 2.571507e+2, -811284.0, -631405.44, 12662.273, -0.012932503, 0.4590942, -630518.5, -210550.44, 0.0, 9.997508, 9.999893 
2.1446703e+3, 2.6715064e+2, -770410.9, -486609.03, 17913.832, -0.023400633, 0.45442608, -485482.78, -163513.9, 0.0, 9.996797, 10.000557 
2.1446009e+3, 2.771509e+2, -781086.2, -444393.13, 17390.121, -0.029348323, 0.44953263, -443497.3, -219531.3, 0.0, 9.996065, 10.000526 
2.1445313e+3, 2.871516e+2, -740877.44, -308417.22, 15571.851, -0.031312294, 0.46449673, -307857.25, -181898.61, 0.0, 9.995386, 10.001113 
2.1444617e+3, 2.9715273e+2, -739609.5, -258520.94, 22586.955, -0.037204336, 0.48932916, -257462.81, -229515.88, 0.0, 9.994729, 10.0011 
2.1443921e+3, 3.0715263e+2, -716310.94, -135480.02, 35472.94, -0.08033434, 0.35659716, -133321.6, -133321.6, 0.0, 9.994183, 10.001871 
2.1443227e+3, 3.171552e+2, -724755.3, -39637.313, 4916.5024, -0.104993425, 0.4532657, -39602.03, -39602.03, 0.0, 9.993695, 10.002764 
2.1556573e+3, 1.2724732e+2, -925026.2, -1710482.1, 3979.4104, 0.02217856, 0.39698723, -925006.0, 768008.5, 0.056827743, 10.007461, 9.996437 
2.1555866e+3, 1.3724339e+2, -905341.8, -1667658.5, -15939.903, 0.019822918, 0.39113924, -905008.6, 690045.5, 0.040897004, 10.0068445, 9.996357 
2.1555156e+3, 1.4723994e+2, -848177.8, -1521826.9, -25267.086, 0.0053896727, 0.403466, -847231.44, 649856.6, 0.024670955, 10.006157, 9.997016 
2.1554448e+3, 1.5723667e+2, -848185.44, -1480837.0, -24310.082, 0.0005594363, 0.39669678, -847252.7, 551867.0, 0.011463433, 10.005435, 9.996972 
2.1553738e+3, 1.6723363e+2, -822273.06, -1360010.6, -30007.305, 0.008769836, 0.39751014, -820603.75, 480545.7, 0.0035313573, 10.004649, 9.997508 
2.1553029e+3, 1.7723097e+2, -842822.3, -1322541.8, -31651.914, 0.019383915, 0.40409473, -840742.94, 362433.06, 0.00047168127, 10.003836, 9.997485 
2.155232e+3, 1.8722859e+2, -819035.06, -1193497.3, -33490.258, 0.006869559, 0.41365978, -816063.44, 289136.56, 0.0000027657557, 10.003036, 9.998084 
2.1551606e+3, 1.9722654e+2, -835677.6, -1149049.9, -34671.03, -0.013827691, 0.42246792, -831887.5, 175333.42, 0.0, 10.00224, 9.998099 
2.1550898e+3, 2.0722471e+2, -808465.2, -1003480.8, -36370.957, -0.008387078, 0.42020673, -801902.75, 107336.14, 0.0, 10.001402, 9.998831 
2.1550187e+3, 2.1722326e+2, -839291.2, -973667.06, -30614.025, 0.007889542, 0.41384047, -832645.3, -21391.922, 0.0, 10.000543, 9.998776 
2.1549483e+3, 2.2722217e+2, -829217.2, -863695.3, -18347.256, 0.013178189, 0.4320743, -821280.75, -108015.414, 0.0, 9.999705, 9.999262 
2.154878e+3, 2.3722148e+2, -850719.2, -822416.6, -22404.285, 0.013599059, 0.45970815, -810068.6, -194794.6, 0.0, 9.99888, 9.9992695 
2.1548073e+3, 2.4722096e+2, -806742.5, -672253.8, -14680.352, 0.004059324, 0.4706309, -670670.0, -153390.19, 0.0, 9.998174, 9.999969 
2.1547371e+3, 2.5722075e+2, -805116.9, -621781.0, -12924.595, -0.010337272, 0.47343513, -620874.3, -201592.06, 0.0, 9.997517, 9.999958 
2.154667e+3, 2.6722065e+2, -765555.94, -479201.97, -10392.649, -0.018474052, 0.4629449, -478825.28, -157542.36, 0.0, 9.996802, 10.0006075 
2.1545967e+3, 2.7722085e+2, -776469.56, -436215.4, -10248.959, -0.022184398, 0.44532952, -435906.97, -212626.17, 0.0, 9.996066, 10.000585 
2.1545266e+3, 2.8722167e+2, -733458.6, -294872.66, -9696.655, -0.021779383, 0.46680665, -294658.38, -169386.55, 0.0, 9.995389, 10.001208 
2.1544562e+3, 2.9722306e+2, -735906.3, -254263.52, -1282.5148, -0.026624521, 0.5062962, -254260.1, -227002.55, 0.0, 9.994739, 10.001127 
2.154386e+3, 3.0722263e+2, -727779.9, -163365.55, 16342.623, -0.08342324, 0.35076892, -162892.75, -162892.75, 0.0, 9.994194, 10.0016775 
2.1543166e+3, 3.1722486e+2, -693885.3, 20641.688, -15505.558, -0.0806003, 0.42466915, 20978.008, 20978.008, 0.0, 9.993706, 10.003177 
2.1656643e+3, 1.27318e+2, -922384.0, -1703462.6, 20466.174, 0.017537616, 0.40546313, -921848.06, 770474.25, 0.05740506, 10.007465, 9.99648 
2.165593e+3, 1.373141e+2, -915038.25, -1666982.6, 8175.1416, 0.018007465, 0.3980193, -914949.4, 679412.25, 0.041311756, 10.00676, 9.996399 
2.1655215e+3, 1.4731063e+2, -855355.0, -1518993.5, -127.1918, 0.004600662, 0.403962, -855355.0, 641040.5, 0.024921382, 10.006086, 9.9970665 
2.16545e+3, 1.5730731e+2, -848617.75, -1476695.4, -1643.4563, -0.00022032554, 0.3916618, -848613.44, 549813.56, 0.011579892, 10.00542, 9.9970045 
2.1653782e+3, 1.6730432e+2, -829454.56, -1364552.1, -11640.244, 0.008852883, 0.39558238, -829201.5, 471255.2, 0.0035664998, 10.00461, 9.997493 
2.1653067e+3, 1.7730169e+2, -857419.44, -1329646.4, -12228.005, 0.020543093, 0.40815523, -857103.0, 345380.06, 0.00047516177, 10.003741, 9.9974785 
2.1652347e+3, 1.8729928e+2, -833712.8, -1195930.8, -10984.775, 0.0075774877, 0.41457236, -833380.0, 271127.25, 0.0000026027112, 10.00292, 9.998119 
2.1651626e+3, 1.9729719e+2, -852059.56, -1153977.1, -10426.086, -0.014253674, 0.416904, -851700.0, 154828.42, 0.0, 10.002121, 9.99812 
2.1650909e+3, 2.0729539e+2, -820796.0, -1011430.5, -16633.4, -0.00904297, 0.4185157, -819355.6, 89190.664, 0.0, 10.001331, 9.998807 
2.1650192e+3, 2.1729398e+2, -841243.0, -977358.56, -16548.14, 0.0073114713, 0.4200259, -839260.06, -28699.48, 0.0, 10.000547, 9.998745 
2.1649477e+3, 2.2729285e+2, -822042.44, -864572.44, -459.68646, 0.011343575, 0.43830788, -822037.5, -109464.36, 0.0, 9.999779, 9.999217 
2.1648765e+3, 2.3729207e+2, -833588.8, -816962.9, 3279.5605, 0.010177759, 0.4624923, -816339.4, -201756.6, 0.0, 9.999017, 9.999239 
2.1648054e+3, 2.472915e+2, -793097.4, -662078.0, 12723.833, 0.0032166485, 0.47004202, -660853.75, -144265.03, 0.0, 9.998258, 9.999994 
2.1647343e+3, 2.5729126e+2, -805977.25, -618603.94, 9961.468, -0.0068328744, 0.47025135, -618075.8, -199484.86, 0.0, 9.997501, 9.999985 
2.1646635e+3, 2.6729122e+2, -772963.94, -478991.75, 8150.7334, -0.014590926, 0.46396354, -478765.94, -158174.83, 0.0, 9.996741, 10.000636 
2.1645926e+3, 2.772915e+2, -785624.06, -435533.3, 7425.376, -0.019469239, 0.45242578, -435375.9, -212787.55, 0.0, 9.995987, 10.000625 
2.1645217e+3, 2.8729236e+2, -723287.44, -280125.13, 11191.327, -0.01627851, 0.4659834, -279842.7, -155263.28, 0.0, 9.995422, 10.00129 
2.1644509e+3, 2.9729366e+2, -707103.75, -236682.48, 17161.025, -0.017518826, 0.4938007, -236057.28, -209492.02, 0.0, 9.9949255, 10.001155 
2.16438e+3, 3.0729333e+2, -743980.44, -187696.39, 33239.875, -0.0852629, 0.35938665, -185717.25, -185717.25, 0.0, 9.99416, 10.001524 
2.16431e+3, 3.1729534e+2, -725573.7, 49377.465, 4779.477, -0.0520462, 0.42216384, 49406.94, 49406.94, 0.0, 9.993304, 10.003564 
2.1756716e+3, 1.2738927e+2, -916456.94, -1687601.6, -5731.0063, 0.0137970755, 0.4138788, -916414.3, 775210.3, 0.05791148, 10.00745, 9.996601 
2.1755996e+3, 1.373856e+2, -908771.56, -1653536.8, -17535.018, 0.016337898, 0.41711146, -908358.94, 685302.3, 0.0416714, 10.006757, 9.996496 
2.1755274e+3, 1.4738205e+2, -853982.5, -1516469.1, -24548.87, 0.0036687364, 0.41106027, -853074.06, 642621.3, 0.025134008, 10.006083, 9.997088 
2.1754551e+3, 1.5737857e+2, -848405.5, -1476130.8, -28128.494, -0.0014018341, 0.38015583, -847147.6, 550580.75, 0.011674905, 10.005414, 9.997015 
2.1753825e+3, 1.673756e+2, -830562.4, -1367930.1, -44154.23, 0.0038306462, 0.3867505, -826958.5, 472799.34, 0.0035927186, 10.004609, 9.997473 
2.1753098e+3, 1.7737307e+2, -856413.3, -1330219.9, -44152.324, 0.0104823, 0.40997186, -852334.0, 349449.6, 0.00047663198, 10.003747, 9.997475 
2.1752372e+3, 1.8737063e+2, -828871.56, -1188362.3, -40757.32, 0.0059233527, 0.41064242, -824308.6, 279499.2, 0.0000023806035, 10.002925, 9.998172 
2.1751645e+3, 1.9736846e+2, -850336.3, -1152479.8, -40058.625, -0.0019756963, 0.4014406, -845115.5, 160713.73, 0.0, 10.002124, 9.998132 
2.1750921e+3, 2.0736672e+2, -827938.4, -1028710.56, -45667.523, 0.0023018946, 0.4145822, -818038.94, 89808.14, 0.0, 10.001336, 9.998689 
2.1750195e+3, 2.1736537e+2, -845828.7, -989620.2, -45161.496, 0.011090705, 0.43655035, -832821.2, -22959.887, 0.0, 10.000554, 9.998661 
2.1749473e+3, 2.2736426e+2, -817899.8, -858865.94, -28667.928, 0.010229911, 0.45564437, -803149.25, -91275.516, 0.0, 9.999785, 9.999256 
2.1748753e+3, 2.3736343e+2, -830722.44, -814225.06, -24962.646, 0.005675317, 0.47186095, -796183.56, -182300.19, 0.0, 9.999024, 9.999256 
2.1748035e+3, 2.4736269e+2, -794814.56, -668870.8, -15742.818, 0.0019057258, 0.46415678, -666932.8, -151042.05, 0.0, 9.998265, 9.999947 
2.1747316e+3, 2.5736225e+2, -807600.44, -624725.3, -18815.678, -0.0022881278, 0.4474316, -622809.44, -204914.55, 0.0, 9.997507, 9.999943 
2.17466e+3, 2.6736233e+2, -773472.3, -482468.4, -21114.596, -0.0119875865, 0.45687622, -480944.38, -161050.33, 0.0, 9.996746, 10.000613 
2.1745881e+3, 2.7736288e+2, -785272.4, -437125.38, -19475.648, -0.022111332, 0.47294715, -436039.28, -214150.08, 0.0, 9.995992, 10.000615 
2.1745169e+3, 2.8736347e+2, -718262.4, -273579.88, -7856.467, -0.015646769, 0.46067044, -273441.13, -149558.78, 0.0, 9.995433, 10.001333 
2.1744458e+3, 2.9736438e+2, -703756.5, -235524.77, -5859.816, -0.01032169, 0.44484106, -235451.45, -209579.77, 0.0, 9.994945, 10.001157 
2.1743737e+3, 3.0736473e+2, -751916.56, -206568.66, -2455.9253, -0.085516445, 0.38794822, -206557.61, -206557.61, 0.0, 9.9941635, 10.001395 
2.1743035e+3, 3.1736672e+2, -706434.25, 92515.34, -24597.69, -0.020100657, 0.45351958, 93271.93, 93271.93, 0.0, 9.993283, 10.003874 
2.1856785e+3, 1.2746108e+2, -938830.3, -1691136.9, 18304.488, 0.011186931, 0.41138262, -938385.2, 752535.6, 0.05834622, 10.007262, 9.996662 
2.1856062e+3, 1.3745742e+2, -911590.0, -1646427.0, 2509.0862, 0.016318861, 0.4099187, -911581.44, 681375.75, 0.041974775, 10.006707, 9.996565 
2.1855332e+3, 1.4745398e+2, -859139.56, -1507722.0, -5342.022, 0.006534973, 0.40721196, -859095.56, 635894.7, 0.025308352, 10.006004, 9.997183 
2.1854602e+3, 1.5745065e+2, -868990.75, -1478664.8, -5813.559, 0.0036375248, 0.38398337, -868935.3, 528086.3, 0.011748831, 10.005245, 9.997075 
2.185387e+3, 1.6744763e+2, -844636.7, -1376971.3, -23109.031, 0.004411623, 0.38641033, -843635.4, 455416.25, 0.0036104918, 10.004528, 9.997447 
2.1853134e+3, 1.7744498e+2, -846451.9, -1325376.5, -25299.76, 0.0042837053, 0.4010333, -845119.1, 355959.44, 0.00047635124, 10.003821, 9.997469 
2.18524e+3, 1.8744259e+2, -821732.3, -1177819.9, -25357.107, 0.0024928942, 0.40385285, -819935.7, 283166.53, 0.0000021370356, 10.00295, 9.998229 
2.1851665e+3, 1.9744052e+2, -864227.9, -1155327.5, -23887.428, 0.0013189766, 0.40067413, -862280.7, 142841.78, 0.0, 10.002018, 9.99816 
2.185093e+3, 2.0743874e+2, -844460.5, -1042189.94, -23364.559, 0.0064229076, 0.4116906, -841737.2, 65403.75, 0.0, 10.001253, 9.998633 
2.1850197e+3, 2.1743728e+2, -849905.7, -997116.44, -19512.086, 0.013240851, 0.42898896, -847363.4, -38206.953, 0.0, 10.000556, 9.998606 
2.1849468e+3, 2.2743611e+2, -816742.1, -863146.1, -7742.4844, 0.008704396, 0.4503976, -815484.4, -104315.016, 0.0, 9.999821, 9.999207 
2.184874e+3, 2.3743528e+2, -826961.2, -815333.2, -11052.185, 0.0002646179, 0.4711095, -808659.06, -195479.9, 0.0, 9.999069, 9.999225 
2.1848015e+3, 2.4743453e+2, -790351.25, -664090.75, -1441.3823, 0.0013751888, 0.46261346, -664074.3, -148887.69, 0.0, 9.998291, 9.999965 
2.184729e+3, 2.5743404e+2, -808047.8, -623646.4, 56.080757, 0.0051728906, 0.44314584, -623646.4, -206455.5, 0.0, 9.997504, 9.9999485 
2.1846566e+3, 2.6743415e+2, -769033.9, -482299.84, -225.70491, -0.008833401, 0.4545942, -482299.66, -163109.66, 0.0, 9.996791, 10.000589 
2.184584e+3, 2.774347e+2, -768331.8, -428153.4, 2451.3657, -0.027637694, 0.47415593, -428135.72, -206950.58, 0.0, 9.99611, 10.000616 
2.1845122e+3, 2.8743514e+2, -708992.25, -258996.6, 20326.584, -0.013410803, 0.44615033, -258080.3, -134901.13, 0.0, 9.99546, 10.001417 
2.1844405e+3, 2.9743594e+2, -721048.5, -239200.34, 21765.762, 0.0052108224, 0.41044283, -238219.16, -213049.63, 0.0, 9.994812, 10.001192 
2.1843676e+3, 3.0743697e+2, -780775.6, -231937.11, 17032.848, -0.08137306, 0.42685518, -231409.02, -231409.02, 0.0, 9.994021, 10.0012865 
2.1842967e+3, 3.1743842e+2, -711233.1, 101485.625, 1620.006, 0.000023457676, 0.44790396, 101488.86, 101488.86, 0.0, 9.993209, 10.003968 
2.1956855e+3, 1.2753345e+2, -937083.1, -1691487.1, -1388.4233, 0.00895715, 0.39947602, -937080.56, 753130.4, 0.058711093, 10.0072775, 9.996656 
2.1956125e+3, 1.3752961e+2, -909917.06, -1643106.0, -18919.75, 0.017685097, 0.38190308, -909429.2, 682819.7, 0.042224154, 10.006704, 9.9965925 
2.1955389e+3, 1.4752643e+2, -850450.7, -1489466.5, -33032.887, 0.012554854, 0.39507294, -848747.7, 645531.94, 0.025446884, 10.0060005, 9.9973135 
2.1954653e+3, 1.5752353e+2, -862943.75, -1467388.1, -33912.1, 0.013730971, 0.40091637, -861047.06, 535260.06, 0.011803751, 10.005245, 9.997156 
2.195391e+3, 1.675204e+2, -847991.3, -1385204.6, -49307.44, 0.009664697, 0.39294988, -843503.2, 454835.0, 0.0036210106, 10.004527, 9.997394 
2.1953169e+3, 1.7751744e+2, -848471.25, -1330309.1, -53513.293, 0.0014226806, 0.38236246, -842599.56, 357768.4, 0.00047477463, 10.0038185, 9.997439 
2.1952425e+3, 1.8751517e+2, -818285.44, -1172405.9, -60306.152, -0.0027361347, 0.3948762, -808297.1, 294093.44, 0.000001916005, 10.002952, 9.998269 
2.1951683e+3, 1.9751336e+2, -861225.8, -1152106.1, -56598.063, -0.0039312146, 0.4139546, -850601.25, 153807.08, 0.0, 10.002026, 9.998181 
2.195094e+3, 2.075114e+2, -844127.8, -1044674.7, -49130.953, 0.003649907, 0.40938994, -832738.3, 73689.75, 0.0, 10.001261, 9.998615 
2.19502e+3, 2.1750964e+2, -852381.6, -1005140.5, -45485.043, 0.0137247015, 0.39716947, -839863.9, -31417.598, 0.0, 10.000562, 9.99855 
2.1949463e+3, 2.275084e+2, -826727.2, -886760.94, -35686.496, 0.006676407, 0.4223073, -810112.1, -99651.75, 0.0, 9.999827, 9.999044 
2.1948728e+3, 2.3750757e+2, -832936.06, -830732.1, -39450.992, -0.0060522575, 0.46001732, -792367.75, -179897.14, 0.0, 9.999076, 9.999118 
2.1947996e+3, 2.4750696e+2, -784547.06, -654984.44, -31343.79, 0.0017375912, 0.46619365, -647800.1, -133323.36, 0.0, 9.998298, 10.000027 
2.1947263e+3, 2.5750664e+2, -804386.8, -618910.0, -28955.78, 0.015740667, 0.4596898, -614494.6, -198015.55, 0.0, 9.997511, 9.999981 
2.194653e+3, 2.6750663e+2, -770865.56, -489563.1, -26326.379, -0.0052346266, 0.45719182, -487120.47, -168640.97, 0.0, 9.9968, 10.000538 
2.1945798e+3, 2.7750686e+2, -766819.9, -429247.8, -23286.443, -0.03655265, 0.45229146, -427649.03, -207171.89, 0.0, 9.996122, 10.000606 
2.1945073e+3, 2.8750736e+2, -699778.56, -243258.0, -4904.901, -0.009054579, 0.42120382, -243205.31, -120734.68, 0.0, 9.995468, 10.001525 
2.1944353e+3, 2.9750833e+2, -717048.6, -232367.48, -5444.0874, 0.031010726, 0.39449218, -232306.34, -207847.3, 0.0, 9.994813, 10.001242 
2.1943615e+3, 3.0751002e+2, -788420.44, -248801.28, -15910.687, -0.07193426, 0.47777593, -248332.56, -248332.56, 0.0, 9.9940195, 10.001175 
2.1942896e+3, 3.1751034e+2, -727222.75, 66189.016, -19880.086, 0.0004851906, 0.40425995, 66686.82, 66686.82, 0.0, 9.993212, 10.003727 
2.2056927e+3, 1.2760665e+2, -909838.44, -1677231.0, 30363.953, -0.0010070845, 0.38608953, -908638.9, 780853.8, 0.05900753, 10.00748, 9.996658 
2.2056189e+3, 1.3760282e+2, -919264.0, -1646903.5, 13481.11, 0.015878879, 0.36941057, -919014.3, 672516.4, 0.042422574, 10.00664, 9.996594 
2.2055447e+3, 1.4759968e+2, -863870.4, -1495262.5, -6652.794, 0.010880284, 0.38854963, -863800.3, 629760.9, 0.02555286, 10.005909, 9.997314 
2.2054702e+3, 1.5759686e+2, -866790.1, -1466764.5, -16544.467, 0.0092526255, 0.403623, -866334.25, 529254.06, 0.011842075, 10.005214, 9.997172 
2.2053953e+3, 1.6759372e+2, -857851.9, -1380880.5, -29853.125, 0.00973808, 0.390356, -856153.44, 441465.75, 0.003625658, 10.004426, 9.997469 
2.2053203e+3, 1.7759071e+2, -876669.94, -1338524.8, -27296.557, 0.008079865, 0.36897212, -875062.25, 324586.78, 0.00047248133, 10.003608, 9.997481 
2.205245e+3, 1.8758844e+2, -833708.3, -1184912.9, -38401.14, 0.0008249855, 0.38461232, -829558.5, 272113.28, 0.0000017580452, 10.002873, 9.998218 
2.20517e+3, 1.9758666e+2, -842905.3, -1146480.5, -41005.742, -0.0068405494, 0.41226098, -837463.94, 166225.83, 0.0, 10.0021715, 9.998147 
2.205095e+3, 2.0758472e+2, -820974.8, -1030706.4, -32185.223, -0.0015563341, 0.40942055, -816146.8, 89562.56, 0.0, 10.001413, 9.998634 
2.2050202e+3, 2.1758293e+2, -842578.8, -1000322.75, -26828.422, 0.007974696, 0.39557475, -838140.8, -30413.346, 0.0, 10.000635, 9.998546 
2.2049458e+3, 2.275816e+2, -826583.25, -893143.25, -12372.623, 0.0037040664, 0.41719842, -824357.75, -114615.39, 0.0, 9.999863, 9.9989805 
2.2048716e+3, 2.3758067e+2, -835153.25, -837484.7, -10279.125, -0.0050864504, 0.45128912, -825973.94, -214220.16, 0.0, 9.999092, 9.999062 
2.2047976e+3, 2.4758005e+2, -786176.5, -659157.1, -7279.9175, 0.0039142384, 0.46133292, -658741.25, -144981.0, 0.0, 9.998307, 9.99999 
2.2047237e+3, 2.5757977e+2, -804834.44, -620854.0, -11778.02, 0.018097708, 0.46158352, -620103.06, -204340.5, 0.0, 9.997521, 9.999959 
2.2046496e+3, 2.6757967e+2, -769703.44, -485374.28, -4885.441, -0.0015422136, 0.45663795, -485290.38, -167527.4, 0.0, 9.996799, 10.000564 
2.2045757e+3, 2.775799e+2, -769388.1, -427610.88, 3326.0198, -0.031015258, 0.44512132, -427578.5, -207817.84, 0.0, 9.996099, 10.000625 
2.2045027e+3, 2.875803e+2, -707371.06, -246372.48, 16948.69, -0.003995502, 0.40676945, -245750.2, -123995.3, 0.0, 9.9954195, 10.001523 
2.20443e+3, 2.9758123e+2, -724236.06, -230773.36, 6354.3594, 0.034333926, 0.37561044, -230691.55, -206947.6, 0.0, 9.994748, 10.001281 
2.2043552e+3, 3.0758354e+2, -786089.94, -228423.7, 3312.553, -0.070489794, 0.5086051, -228404.03, -228404.03, 0.0, 9.993958, 10.001341 
2.2042824e+3, 3.1758323e+2, -752282.6, 29233.563, 30673.627, 0.009869014, 0.36226043, 30435.62, 30435.62, 0.0, 9.993154, 10.003498 
2.2156997e+3, 1.2768064e+2, -911615.4, -1679990.0, -685.93195, -0.017029267, 0.37177777, -911614.75, 777151.7, 0.059233714, 10.007471, 9.996645 
2.2156252e+3, 1.3767694e+2, -920709.2, -1653067.0, -16130.127, 0.011405664, 0.3692072, -920354.1, 670449.2, 0.04257023, 10.006648, 9.9965515 
2.2155501e+3, 1.4767368e+2, -871211.5, -1513787.3, -31985.19, 0.0026600477, 0.38610208, -869623.3, 623212.06, 0.025627384, 10.005916, 9.997188 
2.2154748e+3, 1.5767068e+2, -870053.9, -1475156.6, -43453.715, -0.0073692477, 0.39426553, -866949.3, 527915.5, 0.011865043, 10.005215, 9.997118 
2.2153994e+3, 1.676676e+2, -845859.0, -1357524.9, -60395.67, 0.0056798477, 0.38028738, -838826.75, 458067.8, 0.0036255256, 10.004427, 9.997632 
2.215324e+3, 1.7766477e+2, -870263.06, -1327468.5, -57017.258, 0.023248905, 0.36052316, -863259.8, 335662.16, 0.0004700437, 10.003612, 9.997559 
2.2152478e+3, 1.8766238e+2, -843375.6, -1207594.6, -64558.19, 0.012182974, 0.37297946, -832271.2, 268674.94, 0.0000016934508, 10.002879, 9.998062 
2.2151719e+3, 1.9766042e+2, -849206.5, -1162258.8, -67599.83, -0.0077249776, 0.39643237, -835232.9, 167733.97, 0.0, 10.002177, 9.998039 
2.2150962e+3, 2.0765865e+2, -817504.56, -1026275.75, -61073.305, -0.009230245, 0.41226256, -800950.9, 104034.15, 0.0, 10.00142, 9.998665 
2.2150205e+3, 2.1765715e+2, -839653.44, -997110.75, -55365.414, -0.003992811, 0.42439213, -822134.9, -15134.617, 0.0, 10.000642, 9.998568 
2.2149456e+3, 2.2765571e+2, -824395.0, -891510.56, -41026.402, -0.000041895346, 0.43522024, -804950.06, -95934.305, 0.0, 9.999869, 9.998992 
2.2148703e+3, 2.3765455e+2, -836179.9, -842504.25, -39083.156, 0.0035368958, 0.44472298, -800131.2, -189102.13, 0.0, 9.999098, 9.999026 
2.2147956e+3, 2.4765374e+2, -796688.0, -683873.3, -37072.97, 0.007724368, 0.44714904, -672781.06, -159743.45, 0.0, 9.998314, 9.999821 
2.214721e+3, 2.576533e+2, -810621.5, -635846.7, -40859.457, 0.01121619, 0.4470843, -626766.2, -211724.28, 0.0, 9.997529, 9.999856 
2.2146462e+3, 2.6765335e+2, -762143.06, -472689.63, -31831.947, 0.0026799056, 0.45295292, -469230.3, -152189.44, 0.0, 9.996806, 10.00065 
2.2145718e+3, 2.7765375e+2, -766396.56, -424293.66, -23224.447, -0.008532163, 0.45558894, -422724.22, -203688.17, 0.0, 9.996105, 10.000648 
2.2144978e+3, 2.8765395e+2, -717412.56, -269803.1, -9339.666, 0.0010242346, 0.40470442, -269608.3, -148575.66, 0.0, 9.995425, 10.001363 
2.214424e+3, 2.9765454e+2, -722774.56, -229819.36, -22044.254, 0.009480628, 0.35251504, -228835.55, -205809.95, 0.0, 9.994751, 10.001289 
2.2143489e+3, 3.0765742e+2, -750800.75, -157175.77, -29464.88, -0.07831557, 0.51288414, -155716.84, -155716.84, 0.0, 9.993961, 10.001832 
2.2142756e+3, 3.1765735e+2, -769005.4, -8184.906, 12518.829, 0.027972875, 0.3488214, -7978.9717, -7978.9717, 0.0, 9.993158, 10.003242 
2.2257067e+3, 1.2775537e+2, -924504.94, -1686989.6, 18373.35, -0.022193719, 0.3710169, -924062.5, 763971.0, 0.059384797, 10.007387, 9.996631 
2.2256316e+3, 1.3775161e+2, -904116.4, -1645608.0, 2486.9644, 0.009474014, 0.36355045, -904108.0, 685962.9, 0.04266382, 10.006778, 9.996537 
2.225556e+3, 1.477483e+2, -860289.1, -1509694.0, -10409.898, 0.00010865653, 0.37965828, -860122.3, 631981.2, 0.02566887, 10.006004, 9.9971695 
2.2254798e+3, 1.577453e+2, -876461.44, -1477305.3, -16398.838, -0.012063179, 0.38930222, -876014.2, 518119.03, 0.011872471, 10.005172, 9.99712 
2.2254036e+3, 1.6774225e+2, -848710.56, -1350570.4, -37260.22, 0.0033288249, 0.37396273, -845959.3, 450203.22, 0.0036211114, 10.004377, 9.997701 
2.2253272e+3, 1.7773944e+2, -869768.7, -1322738.5, -39716.117, 0.024993306, 0.3522459, -866312.75, 331876.44, 0.00046778566, 10.003601, 9.997593 
2.2252505e+3, 1.8773703e+2, -848499.3, -1215400.4, -42016.895, 0.015563319, 0.36465213, -843749.1, 256464.73, 0.000001730247, 10.002872, 9.998009 
2.2251739e+3, 1.97735e+2, -855419.25, -1170297.6, -39843.41, -0.0039389217, 0.38855034, -850455.9, 151779.66, 0.0, 10.002162, 9.997988 
2.2250971e+3, 2.0773321e+2, -819167.5, -1030314.5, -37436.58, -0.008898375, 0.40923202, -812726.44, 91527.59, 0.0, 10.001429, 9.99863 
2.225021e+3, 2.1773174e+2, -835791.0, -997620.6, -37766.344, -0.008357002, 0.42817563, -827411.3, -21142.111, 0.0, 10.000685, 9.99854 
2.2249451e+3, 2.2773032e+2, -823996.5, -890676.56, -27374.746, -0.0025020705, 0.4398137, -814198.0, -105913.25, 0.0, 9.999875, 9.998991 
2.2248691e+3, 2.3772912e+2, -845190.8, -847707.6, -26104.027, 0.005451945, 0.4470257, -820314.9, -210016.69, 0.0, 9.999046, 9.999012 
2.2247937e+3, 2.477282e+2, -803447.44, -692804.06, -17452.45, 0.0090090325, 0.4447015, -690116.44, -177808.83, 0.0, 9.998299, 9.999763 
2.224718e+3, 2.5772762e+2, -806702.94, -637845.94, -13479.801, 0.010077894, 0.43953115, -636776.6, -222463.53, 0.0, 9.997579, 9.999814 
2.2246428e+3, 2.6772767e+2, -757318.5, -469489.97, -7044.0327, 0.0055117607, 0.4466939, -469317.7, -153005.64, 0.0, 9.996842, 10.000652 
2.2245677e+3, 2.777281e+2, -768998.8, -426439.03, -5257.0566, 0.00033487912, 0.4533616, -426358.38, -208051.64, 0.0, 9.9960985, 10.000633 
2.2244929e+3, 2.877283e+2, -736203.7, -284795.84, 11683.824, 0.0025802758, 0.4036324, -284493.66, -164189.73, 0.0, 9.995328, 10.001304 
2.2244185e+3, 2.9772878e+2, -747850.8, -233731.38, 5060.7036, -0.000708128, 0.3501946, -233681.56, -211383.83, 0.0, 9.994551, 10.001355 
2.2243425e+3, 3.077318e+2, -742844.8, -106073.31, -7741.7974, -0.07549327, 0.49931216, -105979.195, -105979.195, 0.0, 9.993818, 10.002249 
2.2242686e+3, 3.1773207e+2, -795177.4, -52379.773, 39922.156, 0.031167615, 0.33540684, -50240.293, -50240.293, 0.0, 9.993122, 10.002953 
2.2357139e+3, 1.2783085e+2, -924976.4, -1691992.0, -3875.1445, -0.019495782, 0.37986553, -924956.75, 762337.0, 0.05945772, 10.007399, 9.996594 
2.2356382e+3, 1.3782686e+2, -906576.25, -1649009.3, -21798.955, 0.009507511, 0.35357288, -905936.75, 683396.3, 0.04270093, 10.0067625, 9.996524 
2.2355615e+3, 1.4782359e+2, -858490.5, -1504095.5, -40792.19, 0.002250811, 0.370386, -855923.25, 635441.94, 0.025676172, 10.00599, 9.997218 
2.2354846e+3, 1.5782072e+2, -875106.3, -1474701.9, -46967.07, -0.0069923378, 0.3882622, -871449.6, 521944.13, 0.011864258, 10.005167, 9.997144 
2.2354077e+3, 1.6781761e+2, -850261.75, -1355781.9, -66090.96, 0.0020430912, 0.3708068, -841764.0, 453659.34, 0.0036125996, 10.00438, 9.997667 
2.2353303e+3, 1.7781472e+2, -869786.75, -1325973.6, -67746.8, 0.014716308, 0.34393892, -859938.5, 337512.28, 0.00046572855, 10.003609, 9.99757 
2.2352532e+3, 1.8781234e+2, -845782.3, -1213164.6, -68188.52, 0.011920132, 0.35937718, -833534.44, 265940.63, 0.0000018512796, 10.002881, 9.998023 
2.2351758e+3, 1.9781038e+2, -855563.56, -1173878.6, -66419.63, 0.0043652803, 0.38817802, -842260.44, 159235.64, 0.0, 10.002171, 9.997963 
2.2350983e+3, 2.0780842e+2, -826314.3, -1048177.6, -64830.55, -0.0008814645, 0.40020955, -808759.25, 94757.336, 0.0, 10.001435, 9.998507 
2.2350214e+3, 2.1780671e+2, -841523.06, -1012369.94, -65993.766, -0.0052629174, 0.4069218, -819000.5, -13465.876, 0.0, 10.000691, 9.998439 
2.2349446e+3, 2.2780535e+2, -825281.44, -896135.75, -58474.945, -0.0038847844, 0.4311696, -792339.0, -84789.305, 0.0, 9.999882, 9.998954 
2.234868e+3, 2.3780431e+2, -845047.56, -850129.06, -56134.793, 0.00014214456, 0.45903674, -791396.06, -181834.58, 0.0, 9.999052, 9.998996 
2.2347918e+3, 2.4780339e+2, -799279.3, -687070.1, -44550.12, 0.0077621373, 0.45490846, -671533.7, -159963.05, 0.0, 9.998305, 9.999803 
2.2347155e+3, 2.5780275e+2, -805414.7, -638488.06, -40816.57, 0.015330631, 0.43961582, -629042.2, -215465.8, 0.0, 9.997587, 9.999809 
2.2346394e+3, 2.6780263e+2, -764335.8, -487330.03, -35549.996, 0.006261511, 0.4371904, -482840.44, -167263.4, 0.0, 9.99685, 10.000528 
2.2345632e+3, 2.7780288e+2, -773324.25, -438209.1, -34408.633, -0.0069200625, 0.43598542, -434712.63, -217138.86, 0.0, 9.996104, 10.000552 
2.234488e+3, 2.8780323e+2, -733188.7, -280125.78, -18972.05, 0.00060119707, 0.40432847, -279332.7, -159763.44, 0.0, 9.995329, 10.001338 
2.2344126e+3, 2.9780403e+2, -740851.6, -219394.97, -24489.324, 0.0073553068, 0.3739239, -218247.39, -196686.97, 0.0, 9.994545, 10.00146 
2.2343361e+3, 3.0780664e+2, -722432.1, -64702.93, -35692.43, -0.059803043, 0.46136925, -62771.71, -62771.71, 0.0, 9.993816, 10.002537 
2.2342612e+3, 3.1780756e+2, -817578.8, -101659.875, 20299.818, 0.012284454, 0.3463625, -101084.74, -101084.74, 0.0, 9.993128, 10.002615 
2.2457209e+3, 1.2790698e+2, -900904.6, -1674852.5, 12902.057, -0.018515278, 0.3894131, -900689.6, 785858.25, 0.059453737, 10.007556, 9.996637 
2.2456445e+3, 1.3790289e+2, -935789.8, -1658126.0, 240.08737, 0.012694119, 0.35018095, -935789.75, 652797.9, 0.04268202, 10.006536, 9.996568 
2.2455671e+3, 1.4789961e+2, -891229.7, -1514413.0, -15890.962, 0.0048423694, 0.3616756, -890824.75, 599795.06, 0.025649428, 10.00574, 9.997264 
2.2454895e+3, 1.5789674e+2, -892153.44, -1476758.1, -22141.035, -0.0059241485, 0.3781817, -891316.06, 501332.0, 0.011840356, 10.005028, 9.997193 
2.2454116e+3, 1.6789372e+2, -849883.75, -1347733.6, -35326.035, -0.0010839438, 0.3626457, -847389.6, 447287.28, 0.0035997492, 10.0043545, 9.997731 
2.2453338e+3, 1.778909e+2, -855691.5, -1315434.3, -31722.639, 0.0065329727, 0.3386062, -853512.9, 343190.66, 0.00046362824, 10.003696, 9.997598 
2.2452556e+3, 1.8788847e+2, -832532.2, -1211397.3, -34509.973, 0.0070575355, 0.3515689, -829414.44, 269314.03, 0.000002025898, 10.002998, 9.997975 
2.2451778e+3, 1.9788639e+2, -842398.0, -1171916.3, -38154.996, 0.0058443584, 0.3764997, -838037.7, 162712.78, 0.0, 10.002286, 9.997917 
2.2450995e+3, 2.0788446e+2, -817669.5, -1047571.4, -35578.28, 0.0013079528, 0.39483076, -812289.5, 90481.68, 0.0, 10.001516, 9.998468 
2.2450218e+3, 2.1788278e+2, -838915.8, -1014369.1, -31865.643, -0.0044822562, 0.41022575, -833307.7, -28518.412, 0.0, 10.00073, 9.998404 
2.2449441e+3, 2.2788131e+2, -816550.8, -893122.06, -23744.533, -0.0044176136, 0.4294548, -809785.44, -102980.38, 0.0, 9.999953, 9.998937 
2.2448666e+3, 2.3788017e+2, -827862.94, -842261.0, -20400.285, -0.0016694311, 0.44886407, -813428.75, -204611.05, 0.0, 9.999179, 9.998986 
2.2447896e+3, 2.4787927e+2, -790486.0, -681645.4, -10570.582, 0.0067788907, 0.44837248, -680628.25, -169801.72, 0.0, 9.998367, 9.999806 
2.2447127e+3, 2.5787872e+2, -812523.75, -642980.9, -9417.061, 0.01595585, 0.4399426, -642459.4, -229627.7, 0.0, 9.99755, 9.999793 
2.244636e+3, 2.6787844e+2, -774117.5, -499015.9, -1510.5865, 0.008584644, 0.43180823, -499007.6, -184174.08, 0.0, 9.9968195, 10.00046 
2.2445591e+3, 2.7787855e+2, -777326.6, -445360.7, 1068.7284, -0.0028483588, 0.42180264, -445357.25, -228525.33, 0.0, 9.996106, 10.000499 
2.244483e+3, 2.87879e+2, -755944.94, -292350.84, 9040.505, 0.003511834, 0.40537342, -292174.6, -173348.19, 0.0, 9.995185, 10.00132 
2.2444068e+3, 2.9787993e+2, -787507.0, -237770.39, 1190.2605, 0.00827067, 0.3938825, -237767.81, -216951.8, 0.0, 9.994214, 10.00149 
2.2443299e+3, 3.0788195e+2, -743089.8, -57217.336, -12994.603, -0.047945023, 0.41068277, -56971.227, -56971.227, 0.0, 9.993607, 10.0026865 
2.2442539e+3, 3.178837e+2, -829755.06, -121470.805, 40597.81, -0.005778396, 0.36496538, -119151.39, -119151.39, 0.0, 9.993111, 10.002483 
2.2557282e+3, 1.279838e+2, -898885.2, -1666114.9, -23662.328, -0.018761704, 0.3992434, -898156.06, 787639.4, 0.059376303, 10.007528, 9.996717 
2.2556509e+3, 1.3797969e+2, -930448.44, -1649067.5, -33351.523, 0.018168442, 0.35191855, -928903.94, 658930.8, 0.04260864, 10.006538, 9.996632 
2.2555725e+3, 1.4797635e+2, -888203.2, -1511297.6, -41577.19, 0.0075188437, 0.3531682, -885441.1, 604426.25, 0.02558864, 10.005748, 9.997286 
2.2554941e+3, 1.5797341e+2, -887707.6, -1469628.0, -47770.563, -0.008303747, 0.3604754, -883812.1, 508084.0, 0.01180001, 10.005031, 9.997245 
2.2554158e+3, 1.6797055e+2, -840346.25, -1330016.4, -59619.555, -0.0057598217, 0.35047206, -833191.9, 460731.5, 0.003581772, 10.004357, 9.997854 
2.255337e+3, 1.7796794e+2, -851554.0, -1309101.1, -56994.7, 0.00018877814, 0.33617613, -844561.3, 351386.53, 0.0004610375, 10.003699, 9.9976425 
2.2552583e+3, 1.8796536e+2, -840483.94, -1230249.3, -60898.715, 0.00097019336, 0.34140104, -831190.44, 266783.84, 0.0000022188058, 10.003002, 9.997848 
2.2551794e+3, 1.9796304e+2, -847232.7, -1184462.8, -65189.043, 0.00085572345, 0.35421297, -835069.8, 164929.11, 0.0, 10.002291, 9.997832 
2.2551008e+3, 2.0796129e+2, -815111.25, -1044975.5, -64714.15, -0.002074525, 0.39339656, -798144.5, 103873.59, 0.0, 10.001522, 9.9984865 
2.2550222e+3, 2.1795991e+2, -837272.56, -1013828.5, -60763.773, -0.0060076993, 0.43806794, -818381.3, -14347.915, 0.0, 10.000735, 9.998407 
2.2549438e+3, 2.279582e+2, -816717.1, -896478.9, -52331.105, -0.0040397355, 0.43413052, -790802.6, -84751.42, 0.0, 9.99996, 9.998913 
2.2548658e+3, 2.3795664e+2, -828469.3, -846816.56, -49561.863, 0.00025469152, 0.4148572, -787239.25, -179172.0, 0.0, 9.9991865, 9.998954 
2.2547878e+3, 2.4795581e+2, -793210.6, -690443.56, -41514.227, 0.0059155445, 0.4240369, -675768.8, -165693.1, 0.0, 9.998375, 9.999745 
2.2547099e+3, 2.5795543e+2, -815043.7, -650837.25, -39001.38, 0.0113147115, 0.44083825, -642044.7, -229965.31, 0.0, 9.997555, 9.99974 
2.2546326e+3, 2.679551e+2, -775159.25, -503907.13, -27983.588, 0.013029926, 0.4311841, -501050.3, -186968.52, 0.0, 9.996825, 10.000427 
2.2545552e+3, 2.7795509e+2, -779733.06, -453216.7, -28635.346, 0.01452226, 0.41143847, -450724.4, -234642.95, 0.0, 9.996112, 10.000445 
2.254478e+3, 2.8795555e+2, -763619.4, -308980.1, -29260.318, 0.0117508825, 0.40665233, -307104.66, -189028.89, 0.0, 9.995181, 10.001211 
2.2544007e+3, 2.9795656e+2, -795963.75, -253274.23, -31320.027, 0.0001886503, 0.40875128, -251472.66, -231407.45, 0.0, 9.994199, 10.001394 
2.2543232e+3, 3.0795765e+2, -747528.1, -66432.95, -32271.78, -0.04060015, 0.34378418, -64907.266, -64907.266, 0.0, 9.9936, 10.002629 
2.2542466e+3, 3.1796038e+2, -817256.2, -98673.78, 20371.379, -0.022126442, 0.40120023, -98096.73, -98096.73, 0.0, 9.993117, 10.00264 
2.2657356e+3, 1.2806122e+2, -936430.7, -1674014.8, 6849.5366, -0.0007285384, 0.3866017, -936367.1, 748669.25, 0.059225697, 10.007212, 9.996809 
2.265657e+3, 1.3805729e+2, -915751.56, -1632493.3, -1898.882, 0.017028922, 0.34908468, -915746.5, 671327.25, 0.04247998, 10.00661, 9.996707 
2.265578e+3, 1.4805399e+2, -872604.6, -1498219.1, -8921.5205, 0.0023461385, 0.34981468, -872477.44, 616628.56, 0.025492227, 10.00584, 9.997327 
2.2654988e+3, 1.5805104e+2, -887518.8, -1465634.0, -13682.185, -0.012445516, 0.3539923, -887195.2, 503939.75, 0.011741554, 10.005021, 9.9972725 
2.2654197e+3, 1.6804822e+2, -846662.8, -1331591.4, -28584.043, -0.007998541, 0.34750122, -844983.75, 448178.25, 0.003557448, 10.004314, 9.997861 
2.2653404e+3, 1.7804566e+2, -858867.44, -1310290.8, -34542.54, -0.00020558064, 0.3389444, -856239.56, 338946.66, 0.00045737665, 10.003646, 9.997657 
2.265261e+3, 1.8804312e+2, -847048.8, -1227939.4, -33629.18, 0.0009586449, 0.34557533, -844102.44, 253109.86, 0.000002394006, 10.002941, 9.9978895 
2.2651814e+3, 1.9804081e+2, -857842.5, -1189391.1, -28375.459, 0.0010021059, 0.35788035, -855431.5, 143805.17, 0.0, 10.002224, 9.997827 
2.2651021e+3, 2.0803897e+2, -827074.6, -1061830.8, -33999.215, 0.00044537798, 0.3956385, -822249.75, 79007.266, 0.0, 10.001494, 9.998381 
2.2650227e+3, 2.1803747e+2, -837035.44, -1017452.0, -39533.887, -0.00070338196, 0.4391501, -828752.75, -25478.988, 0.0, 10.00076, 9.998367 
2.2649436e+3, 2.2803581e+2, -806713.06, -878727.3, -27154.62, -0.00096770044, 0.43480125, -797621.56, -92330.67, 0.0, 9.999979, 9.9990225 
2.2648644e+3, 2.3803434e+2, -825447.7, -839023.1, -15737.123, -0.00035212803, 0.41466942, -815096.9, -207791.1, 0.0, 9.9991865, 9.999004 
2.2647859e+3, 2.4803343e+2, -792302.25, -698574.6, -7816.978, 0.0044662575, 0.4237505, -697927.2, -188612.4, 0.0, 9.998425, 9.999662 
2.2647072e+3, 2.5803298e+2, -803268.25, -650460.2, -7468.035, 0.010014031, 0.44113377, -650096.1, -238776.69, 0.0, 9.997665, 9.999685 
2.2646292e+3, 2.680326e+2, -775691.3, -502014.44, 4944.0, 0.014071204, 0.42890197, -501925.16, -188602.86, 0.0, 9.996819, 10.00044 
2.264551e+3, 2.7803254e+2, -804436.56, -465309.63, 5759.7256, 0.018558964, 0.40627334, -465211.84, -249889.63, 0.0, 9.99595, 10.000437 
2.2644728e+3, 2.8803307e+2, -772052.5, -318709.0, 4965.776, 0.011648383, 0.4124111, -318654.6, -201338.66, 0.0, 9.995154, 10.001154 
2.2643945e+3, 2.980341e+2, -777459.9, -253915.88, 8434.978, -0.0058973557, 0.4258257, -253780.02, -234474.98, 0.0, 9.994373, 10.001302 
2.2643167e+3, 3.0803445e+2, -768633.2, -94947.055, 7042.525, -0.031501397, 0.30227104, -94873.445, -94873.445, 0.0, 9.993541, 10.002459 
2.264239e+3, 3.1803772e+2, -861416.8, -83002.58, 49829.918, -0.035030823, 0.42103007, -79825.695, -79825.695, 0.0, 9.992661, 10.002964 
2.2757427e+3, 1.281393e+2, -928096.94, -1662549.1, -13693.614, 0.0299974, 0.3571143, -927841.75, 756428.8, 0.05899803, 10.007231, 9.996886 
2.2756633e+3, 1.381357e+2, -911195.1, -1623903.9, -25604.74, 0.010339486, 0.34321597, -910276.44, 676028.56, 0.042293314, 10.006608, 9.996771 
2.2755834e+3, 1.4813249e+2, -869852.44, -1494056.6, -39025.816, -0.009026873, 0.35095042, -867422.0, 620914.25, 0.025358314, 10.00584, 9.997359 
2.2755037e+3, 1.5812959e+2, -886998.56, -1467949.3, -42693.18, -0.017990258, 0.35700193, -883877.9, 506486.88, 0.011663584, 10.005029, 9.997256 
2.2754236e+3, 1.681267e+2, -853384.3, -1348711.1, -53161.742, -0.00814566, 0.35233405, -847742.94, 444650.16, 0.0035257388, 10.004321, 9.997744 
2.2753437e+3, 1.7812407e+2, -860032.6, -1315106.6, -59548.53, 0.0045670085, 0.34616423, -852369.44, 342049.34, 0.0004521486, 10.003651, 9.997625 
2.2752637e+3, 1.8812172e+2, -833851.0, -1203014.8, -60112.07, 0.006331766, 0.3629029, -824309.4, 272133.38, 0.000002521187, 10.002945, 9.998061 
2.2751833e+3, 1.9811967e+2, -853903.25, -1183974.9, -55245.168, 0.0058633606, 0.38573918, -844902.1, 153562.08, 0.0, 10.00223, 9.997865 
2.2751033e+3, 2.0811744e+2, -843283.6, -1098275.0, -61142.055, 0.008649015, 0.40069032, -829380.94, 71107.45, 0.0, 10.0015, 9.998132 
2.2750232e+3, 2.1811543e+2, -842950.3, -1032609.8, -67143.48, 0.01137427, 0.4134232, -821586.56, -19075.9, 0.0, 10.000766, 9.998263 
2.2749433e+3, 2.281141e+2, -789966.75, -846913.6, -56716.46, 0.0046899565, 0.43231437, -754977.6, -50453.254, 0.0, 9.999986, 9.999241 
2.2748633e+3, 2.3811321e+2, -816468.06, -823339.5, -44614.32, -0.0038558177, 0.45070192, -775157.4, -168624.05, 0.0, 9.999193, 9.999112 
2.274784e+3, 2.4811216e+2, -800180.8, -718162.56, -36018.426, 0.0024429671, 0.44898745, -704590.75, -196046.95, 0.0, 9.998432, 9.999527 
2.2747046e+3, 2.581113e+2, -807047.9, -661942.9, -37129.863, 0.012427835, 0.4403196, -652993.9, -242441.66, 0.0, 9.997674, 9.999605 
2.2746255e+3, 2.681109e+2, -771916.0, -496810.84, -28430.383, 0.010785364, 0.4248949, -493903.47, -181348.03, 0.0, 9.996824, 10.000476 
2.2745463e+3, 2.781109e+2, -802935.7, -463183.0, -26028.531, 0.0066345, 0.4073016, -461200.53, -246646.05, 0.0, 9.995948, 10.000456 
2.2744675e+3, 2.8811154e+2, -772449.1, -322033.2, -23729.441, 0.0017467267, 0.4234849, -320786.47, -204239.38, 0.0, 9.995159, 10.001132 
2.2743887e+3, 2.981126e+2, -782959.94, -270630.38, -21323.088, -0.009665256, 0.4462077, -269744.47, -251209.0, 0.0, 9.99439, 10.001183 
2.2743098e+3, 3.0811244e+2, -792372.5, -145906.88, -26232.725, -0.02070726, 0.29528654, -144844.13, -144844.13, 0.0, 9.993542, 10.002112 
2.2742312e+3, 3.181154e+2, -827992.56, -7533.564, 9166.725, -0.039835263, 0.40727597, -7431.1597, -7431.1597, 0.0, 9.992629, 10.003502 
2.2857498e+3, 1.2821853e+2, -898814.3, -1650824.6, 22213.107, 0.031750362, 0.3500118, -898158.75, 785334.75, 0.05868771, 10.00746, 9.996858 
2.2856694e+3, 1.3821498e+2, -921677.94, -1630496.9, 4747.0386, 0.008215567, 0.34499967, -921646.2, 663881.6, 0.04204508, 10.006543, 9.996753 
2.2855888e+3, 1.4821178e+2, -875555.25, -1496020.1, -11007.77, -0.010443439, 0.35362792, -875360.0, 612199.3, 0.025184622, 10.005802, 9.99736 
2.2855084e+3, 1.5820886e+2, -874533.44, -1460376.8, -16371.704, -0.017428255, 0.3587363, -874076.3, 515511.88, 0.011564505, 10.0051155, 9.997263 
2.2854277e+3, 1.6820599e+2, -845396.0, -1341826.8, -20060.154, -0.00936955, 0.35550445, -844586.75, 447029.75, 0.0034856999, 10.004371, 9.997764 
2.285347e+3, 1.7820339e+2, -865792.5, -1316677.8, -19066.393, 0.0005817228, 0.35206684, -864987.7, 328654.53, 0.00044502082, 10.0036125, 9.997629 
2.285266e+3, 1.882011e+2, -841861.44, -1207927.6, -28021.799, 0.0032097788, 0.37685847, -839728.8, 255937.08, 0.0000025840552, 10.002902, 9.998045 
2.2851853e+3, 1.9819911e+2, -857814.5, -1184687.5, -36301.95, 0.0048876884, 0.40776104, -853831.44, 143855.61, 0.0, 10.002204, 9.997869 
2.2851045e+3, 2.0819676e+2, -847395.5, -1094172.1, -30720.684, 0.0113519905, 0.40913463, -843628.6, 56083.227, 0.0, 10.001452, 9.9981785 
2.2850236e+3, 2.1819457e+2, -853199.0, -1034766.2, -17573.06, 0.017710047, 0.403213, -851513.8, -49778.72, 0.0, 10.00069, 9.9982815 
2.2849429e+3, 2.2819334e+2, -791924.44, -852076.94, -17855.92, 0.007410019, 0.43408564, -787023.3, -83274.99, 0.0, 9.999997, 9.999196 
2.2848623e+3, 2.381926e+2, -799278.94, -814489.0, -25379.887, -0.0066170963, 0.4727855, -780389.2, -174632.86, 0.0, 9.999315, 9.99911 
2.284782e+3, 2.4819149e+2, -785181.5, -700774.25, -11017.557, -0.00001658355, 0.4625812, -699359.9, -191592.97, 0.0, 9.998498, 9.999612 
2.2847019e+3, 2.5819054e+2, -809405.06, -657284.44, 2254.3518, 0.011793664, 0.4376841, -657251.0, -247475.27, 0.0, 9.99764, 9.999651 
2.284622e+3, 2.681902e+2, -777395.5, -503048.56, 7923.8936, 0.0090014795, 0.42958444, -502819.9, -191041.27, 0.0, 9.996808, 10.000437 
2.284542e+3, 2.7819028e+2, -799282.94, -461909.2, 4674.797, 0.0032794583, 0.42475, -461844.4, -248067.19, 0.0, 9.995981, 10.000445 
2.2844625e+3, 2.8819078e+2, -775193.44, -317416.47, 9571.637, 0.0027601875, 0.42835504, -317216.44, -201445.73, 0.0, 9.995121, 10.001179 
2.2843826e+3, 2.9819176e+2, -808319.75, -286699.03, 15110.914, -0.0030225252, 0.43466258, -286261.63, -268501.56, 0.0, 9.994239, 10.001142 
2.2843032e+3, 3.081917e+2, -850217.6, -199075.92, 14218.964, -0.007828025, 0.31255835, -198765.58, -198765.58, 0.0, 9.99326, 10.001879 
2.2842234e+3, 3.181943e+2, -857436.56, 31159.502, 45928.418, -0.04300947, 0.4039701, 33527.074, 33527.074, 0.0, 9.992207, 10.003968 
2.2957568e+3, 1.2829885e+2, -906178.6, -1669317.1, -10857.527, 0.012163863, 0.35964048, -906024.2, 776682.2, 0.058289923, 10.007464, 9.996723 
2.2956757e+3, 1.3829513e+2, -925883.8, -1645374.9, -25570.79, 0.00989157, 0.35257736, -924976.2, 659766.5, 0.041731153, 10.006559, 9.996647 
2.2955945e+3, 1.4829183e+2, -876711.3, -1502482.1, -35191.074, -0.0040638964, 0.3575089, -874738.56, 612036.8, 0.024967637, 10.005812, 9.997314 
2.2955132e+3, 1.5828884e+2, -873684.6, -1460208.5, -41921.04, -0.01203776, 0.35938418, -870703.5, 518101.47, 0.011441922, 10.0051155, 9.997268 
2.2954316e+3, 1.6828606e+2, -836788.1, -1325898.9, -47984.94, -0.011732429, 0.3573471, -832124.94, 458707.44, 0.003436321, 10.004373, 9.997875 
2.2953501e+3, 1.7828357e+2, -864277.56, -1316424.6, -46724.887, -0.011168174, 0.35693747, -859499.5, 333357.34, 0.00043578545, 10.003618, 9.997631 
2.2952686e+3, 1.8828121e+2, -855520.44, -1238786.3, -53601.156, -0.0075104856, 0.38779482, -848165.3, 246716.72, 0.0000025797033, 10.002906, 9.997834 
2.2951873e+3, 1.9827908e+2, -860005.7, -1191411.1, -62566.008, -0.0014902396, 0.4243671, -848587.25, 148317.9, 0.0, 10.002208, 9.997824 
2.2951058e+3, 2.0827688e+2, -824489.7, -1049357.3, -58910.207, 0.008727181, 0.4210842, -809991.3, 88936.27, 0.0, 10.001458, 9.998487 
2.2950241e+3, 2.182749e+2, -844772.75, -1020297.2, -44621.297, 0.018240176, 0.40845194, -834080.56, -33133.195, 0.0, 10.000697, 9.998381 
2.2949426e+3, 2.2827348e+2, -814172.44, -901436.94, -42741.098, 0.007168107, 0.43972558, -796726.25, -93763.09, 0.0, 10.000005, 9.9988575 
2.2948614e+3, 2.3827244e+2, -806876.44, -833767.9, -52823.617, -0.00848154, 0.47979006, -765814.2, -160838.86, 0.0, 9.999325, 9.998977 
2.2947803e+3, 2.4827144e+2, -762825.44, -657537.4, -43450.1, -0.003063175, 0.46373436, -641922.3, -134937.88, 0.0, 9.998506, 9.999908 
2.2946993e+3, 2.582707e+2, -797683.9, -635483.56, -29351.42, 0.007587947, 0.433355, -630335.56, -221345.45, 0.0, 9.997644, 9.999802 
2.2946183e+3, 2.6827052e+2, -786936.94, -525464.44, -22993.867, 0.009165973, 0.44461954, -523457.78, -212465.77, 0.0, 9.996813, 10.000284 
2.2945379e+3, 2.7827066e+2, -802799.06, -472240.22, -27040.512, 0.010197332, 0.46171978, -470042.84, -257052.25, 0.0, 9.995988, 10.000374 
2.2944573e+3, 2.882708e+2, -767291.6, -303121.7, -23816.283, 0.017010054, 0.4248055, -301902.88, -186915.67, 0.0, 9.995124, 10.001279 
2.2943766e+3, 2.9827136e+2, -806258.3, -282715.75, -19729.03, 0.016731763, 0.38277015, -281973.34, -264993.56, 0.0, 9.994234, 10.001175 
2.2942962e+3, 3.0827227e+2, -860362.75, -217723.72, -23602.857, 0.00754827, 0.3634671, -216858.0, -216858.0, 0.0, 9.993244, 10.001762 
2.2942153e+3, 3.1827438e+2, -840147.0, 73441.055, -2373.8743, -0.041726597, 0.4094432, 73447.22, 73447.22, 0.0, 9.992172, 10.004278 
2.305764e+3, 1.2837987e+2, -900710.2, -1669041.4, 15624.963, 0.01343666, 0.36166218, -900392.56, 781520.1, 0.057799358, 10.007518, 9.9966955 
2.3056822e+3, 1.3837616e+2, -899239.3, -1632787.6, 7515.4233, 0.005239021, 0.3581536, -899162.3, 684786.75, 0.04134576, 10.006758, 9.996634 
2.3055999e+3, 1.4837281e+2, -862662.5, -1493005.5, 3130.1377, -0.0058603445, 0.36093223, -862646.94, 623335.1, 0.024702443, 10.005905, 9.997331 
2.3055178e+3, 1.583698e+2, -885587.94, -1465612.1, 55.346695, -0.009067958, 0.36023265, -885587.94, 502423.97, 0.011292968, 10.005037, 9.997265 
2.3054358e+3, 1.6836704e+2, -847856.56, -1334503.5, -11259.038, -0.009585793, 0.36529356, -847596.25, 442443.1, 0.00337659, 10.004317, 9.997839 
2.3053536e+3, 1.783646e+2, -863643.9, -1317610.6, -20041.17, -0.011596629, 0.3737975, -862760.8, 329302.97, 0.0004242493, 10.003636, 9.99761 
2.3052712e+3, 1.883622e+2, -862815.56, -1239466.3, -18684.346, -0.007948806, 0.40200678, -861891.0, 232198.38, 0.0000025086267, 10.0028515, 9.997852 
2.3051889e+3, 1.9836003e+2, -880678.3, -1195832.4, -13118.024, -0.001276508, 0.4327737, -880133.25, 115979.75, 0.0, 10.0020485, 9.997866 
2.3051067e+3, 2.0835789e+2, -825077.2, -1037529.25, -16477.383, 0.0064679985, 0.42708462, -823806.8, 74327.61, 0.0, 10.00141, 9.998589 
2.3050244e+3, 2.1835595e+2, -826074.2, -1005219.8, -17335.604, 0.0131630385, 0.41298324, -824412.06, -24259.139, 0.0, 10.000807, 9.998427 
2.3049423e+3, 2.2835444e+2, -816333.7, -909037.25, -5642.9497, 0.0058042244, 0.43907878, -815991.44, -113821.695, 0.0, 10.000025, 9.998792 
2.30486e+3, 2.3835327e+2, -827003.1, -844676.7, 1720.1906, -0.00473377, 0.47343877, -826837.25, -222653.72, 0.0, 9.999198, 9.99896 
2.3047782e+3, 2.4835238e+2, -764018.4, -648584.25, 548.4366, -0.0020595605, 0.46321136, -648581.7, -142389.83, 0.0, 9.998463, 9.999987 
2.3046966e+3, 2.5835177e+2, -781643.56, -621352.9, -3129.715, 0.0041049127, 0.44191745, -621291.8, -213095.81, 0.0, 9.997734, 9.999852 
2.304615e+3, 2.683516e+2, -796054.6, -530185.9, 3569.813, 0.010814195, 0.45752263, -530137.94, -219940.36, 0.0, 9.996758, 10.000275 
2.3045334e+3, 2.7835178e+2, -838956.2, -485118.97, 11059.821, 0.019417664, 0.4758863, -484773.6, -272577.22, 0.0, 9.995728, 10.000408 
2.3044522e+3, 2.8835177e+2, -787365.9, -299281.22, 19664.125, 0.025084194, 0.41619736, -298490.25, -184296.05, 0.0, 9.994934, 10.001393 
2.3043706e+3, 2.9835218e+2, -806825.75, -273306.47, 21513.768, 0.0207619, 0.3522856, -272440.34, -256252.67, 0.0, 9.994195, 10.001255 
2.304289e+3, 3.0835396e+2, -860281.56, -216617.73, 18886.059, 0.01026012, 0.41931912, -216064.06, -216064.06, 0.0, 9.993246, 10.001765 
2.3042072e+3, 3.183554e+2, -838909.1, 74515.56, 31378.178, -0.034362823, 0.397101, 75592.2, 75592.2, 0.0, 9.992185, 10.004276 
2.3157713e+3, 1.2846163e+2, -897839.75, -1665413.5, -10710.107, 0.029591618, 0.35809, -897690.4, 783421.7, 0.057210144, 10.007517, 9.996726 
2.3156884e+3, 1.3845803e+2, -896997.4, -1628640.4, -20685.79, -0.004737514, 0.36227995, -896413.0, 686734.4, 0.040883243, 10.006751, 9.996669 
2.3156054e+3, 1.4845471e+2, -858852.56, -1487699.9, -28719.012, -0.014129544, 0.3640081, -857543.7, 627636.1, 0.024385247, 10.005909, 9.997369 
2.3155227e+3, 1.584517e+2, -885637.0, -1470901.6, -30046.783, -0.008024969, 0.36145118, -884098.44, 503111.0, 0.011116039, 10.005053, 9.997225 
2.3154397e+3, 1.6844893e+2, -859166.2, -1361535.4, -36044.414, -0.0035137369, 0.37865, -856593.2, 432644.53, 0.00330601, 10.004326, 9.997653 
2.3153569e+3, 1.7844646e+2, -867257.94, -1326529.0, -46516.605, -0.0021224269, 0.40108138, -862593.94, 328669.38, 0.00041029375, 10.003636, 9.997553 
2.3152737e+3, 1.8844406e+2, -847899.7, -1210784.9, -48708.496, 0.00073596684, 0.41887674, -841475.5, 251812.81, 0.0000023733726, 10.002854, 9.998052 
2.3151907e+3, 1.9844192e+2, -872731.94, -1182789.0, -40493.1, 0.004861123, 0.4334345, -867530.8, 127780.08, 0.0, 10.002057, 9.997955 
2.3151077e+3, 2.084397e+2, -832183.06, -1055619.1, -38103.17, 0.0043608854, 0.4275083, -825863.94, 71468.89, 0.0, 10.001417, 9.998464 
2.3150249e+3, 2.1843772e+2, -825982.5, -1008129.06, -42073.824, 0.002489254, 0.4168665, -816733.5, -17381.418, 0.0, 10.0008135, 9.998407 
2.3149419e+3, 2.284362e+2, -801743.4, -881659.5, -36625.05, 0.0034205264, 0.43183047, -787497.7, -86129.41, 0.0, 10.000031, 9.99898 
2.3148592e+3, 2.3843507e+2, -821282.25, -835299.0, -27435.467, 0.004869935, 0.45304653, -799974.1, -196593.03, 0.0, 9.999203, 9.999024 
2.3147766e+3, 2.4843425e+2, -775770.44, -675853.7, -25702.004, 0.0032147155, 0.46130773, -669629.94, -164240.69, 0.0, 9.998468, 9.9998 
2.3146938e+3, 2.5843376e+2, -785617.75, -633122.4, -34329.023, 0.0013661791, 0.46503812, -625750.75, -218357.11, 0.0, 9.997743, 9.99977 
2.3146114e+3, 2.684335e+2, -786266.06, -511721.44, -36583.957, 0.014131079, 0.46729022, -506930.13, -197534.36, 0.0, 9.99676, 10.000404 
2.3145291e+3, 2.7843356e+2, -830927.75, -467986.47, -24113.729, 0.031205552, 0.46253625, -466391.38, -254996.31, 0.0, 9.995719, 10.000533 
2.3144467e+3, 2.8843367e+2, -780374.25, -285055.1, -6907.5464, 0.025215589, 0.40231422, -284958.78, -171567.14, 0.0, 9.994929, 10.001496 
2.3143645e+3, 2.984343e+2, -798215.3, -257358.48, -8654.983, 0.0044398922, 0.34946474, -257220.02, -241837.1, 0.0, 9.994197, 10.001367 
2.3142819e+3, 3.0843684e+2, -850137.4, -198014.64, -18293.262, -0.0036747532, 0.479918, -197501.89, -197501.89, 0.0, 9.99325, 10.001895 
2.3141992e+3, 3.1843746e+2, -872663.8, 2062.75, -16190.705, -0.01595085, 0.37613657, 2362.3284, 2362.3284, 0.0, 9.992188, 10.00378 
2.3257786e+3, 1.2854443e+2, -901238.6, -1663080.8, 22112.08, 0.03602716, 0.3692916, -900597.4, 779703.8, 0.056518108, 10.007475, 9.996759 
2.3256946e+3, 1.3854082e+2, -915060.3, -1635696.8, 12884.28, -0.007899166, 0.36979485, -914830.0, 667506.6, 0.040340785, 10.006616, 9.996682 
2.3256111e+3, 1.4853747e+2, -859605.8, -1490196.9, 3331.856, -0.017178733, 0.3715139, -859588.2, 624781.1, 0.024015043, 10.005918, 9.997344 
2.3255274e+3, 1.5853444e+2, -859583.44, -1461085.3, -2625.9058, -0.008446532, 0.37046033, -859572.0, 526827.25, 0.010911156, 10.005252, 9.997191 
2.3254438e+3, 1.6853163e+2, -853971.56, -1362742.8, -3894.424, -0.0019648394, 0.3896977, -853941.8, 434486.22, 0.003224649, 10.004385, 9.997612 
2.3253602e+3, 1.7852913e+2, -891002.75, -1338157.3, -5454.7114, 0.0007283449, 0.4139971, -890936.2, 299517.9, 0.00039397486, 10.003481, 9.997543 
2.3252764e+3, 1.8852672e+2, -851929.2, -1205087.8, -11507.366, -0.00082000304, 0.4265438, -851554.6, 240924.52, 0.0000021867893, 10.002801, 9.998112 
2.3251924e+3, 1.9852453e+2, -850841.3, -1163765.0, -12155.101, -0.001983129, 0.43389252, -850369.9, 144131.69, 0.0, 10.002178, 9.998023 
2.325109e+3, 2.0852238e+2, -822830.94, -1041636.0, -309.33307, -0.00017112371, 0.4277937, -822830.5, 73692.1, 0.0, 10.001448, 9.998541 
2.3250252e+3, 2.1852048e+2, -840815.94, -1008041.25, 6452.36, 0.0019369287, 0.41911897, -840567.3, -42026.383, 0.0, 10.000688, 9.998466 
2.3249416e+3, 2.2851896e+2, -814667.0, -883482.2, 1795.9443, 0.004941277, 0.431442, -814620.2, -114063.11, 0.0, 9.99993, 9.999012 
2.3248579e+3, 2.385178e+2, -825710.56, -835085.6, 95.97574, 0.008288608, 0.44852078, -825709.56, -223139.58, 0.0, 9.999169, 9.999039 
2.3247747e+3, 2.4851696e+2, -794962.25, -687983.2, 8583.3545, 0.008330863, 0.45823088, -687298.9, -182720.44, 0.0, 9.998357, 9.999767 
2.3246914e+3, 2.5851646e+2, -816809.5, -647197.44, 7676.493, 0.0074023055, 0.4654754, -646850.75, -240267.5, 0.0, 9.997531, 9.999772 
2.324608e+3, 2.6851624e+2, -787046.25, -503445.3, -979.1847, 0.015611396, 0.46717665, -503441.94, -194856.83, 0.0, 9.996724, 10.000475 
2.3245244e+3, 2.7851632e+2, -798480.7, -443833.66, 7697.0313, 0.027328406, 0.46026614, -443666.7, -233082.75, 0.0, 9.995912, 10.000603 
2.3244414e+3, 2.8851652e+2, -764841.6, -270528.2, 22645.432, 0.020973084, 0.40120983, -269492.94, -156913.03, 0.0, 9.995012, 10.001553 
2.3243582e+3, 2.985172e+2, -805078.44, -246497.05, 15677.771, -0.00002693974, 0.35210556, -246057.36, -231487.1, 0.0, 9.994096, 10.001487 
2.3242746e+3, 3.085201e+2, -829350.56, -160769.56, 8601.975, -0.014174513, 0.49734327, -160658.9, -160658.9, 0.0, 9.993282, 10.002131 
2.3241913e+3, 3.1852052e+2, -863374.2, -45523.336, 10062.863, 0.0019895139, 0.36134028, -45399.543, -45399.543, 0.0, 9.992483, 10.003307 
2.3357856e+3, 1.2862822e+2, -898707.5, -1661803.6, -8754.973, 0.03497865, 0.39068836, -898607.06, 780873.8, 0.055723112, 10.007481, 9.996769 
2.335701e+3, 1.3862447e+2, -914614.6, -1639746.1, -15789.41, -0.005782893, 0.3800171, -914271.0, 667246.3, 0.039719906, 10.006626, 9.996653 
2.3356165e+3, 1.4862108e+2, -865423.4, -1505111.5, -19904.828, -0.016234593, 0.3828373, -864804.6, 618746.2, 0.023593854, 10.005919, 9.997244 
2.3355322e+3, 1.58618e+2, -863355.94, -1468900.6, -29658.242, -0.010223298, 0.38567692, -861906.8, 523674.56, 0.010679734, 10.005244, 9.997146 
2.3354478e+3, 1.6861515e+2, -849314.2, -1355089.4, -37832.047, -0.0043228427, 0.39842808, -846500.0, 441110.38, 0.0031331978, 10.004387, 9.997667 
2.3353633e+3, 1.786126e+2, -888379.25, -1337438.0, -35759.754, -0.0023061247, 0.4142752, -885549.44, 304087.16, 0.00037562166, 10.003495, 9.997545 
2.3352785e+3, 1.8861012e+2, -855963.8, -1217737.3, -34161.402, -0.011698606, 0.42614958, -852766.3, 238895.95, 0.00000197261, 10.002813, 9.998023 
2.335194e+3, 1.9860788e+2, -847109.94, -1159253.5, -36548.805, -0.020815324, 0.4343976, -842887.56, 150797.67, 0.0, 10.002186, 9.998054 
2.3351099e+3, 2.086059e+2, -804185.0, -1005896.8, -28438.246, -0.0067133135, 0.42799082, -800252.3, 95451.805, 0.0, 10.001454, 9.998787 
2.3350257e+3, 2.1860422e+2, -832343.2, -993427.75, -21607.324, 0.011423991, 0.41980115, -829495.25, -31775.443, 0.0, 10.000694, 9.998566 
2.3349412e+3, 2.2860269e+2, -824193.2, -906197.0, -26379.225, 0.010118725, 0.43832147, -816440.4, -116704.086, 0.0, 9.999937, 9.998857 
2.3348567e+3, 2.3860146e+2, -828446.0, -843754.5, -29084.078, 0.0050358097, 0.46076176, -806025.8, -204275.36, 0.0, 9.999175, 9.99898 
2.3347726e+3, 2.486005e+2, -786411.25, -672522.4, -22650.781, 0.013497867, 0.45324084, -668182.8, -164423.1, 0.0, 9.99836, 9.999875 
2.3346888e+3, 2.5859988e+2, -812156.7, -638735.0, -22876.193, 0.023271263, 0.44013304, -635768.1, -230003.08, 0.0, 9.99753, 9.999834 
2.3346043e+3, 2.685998e+2, -787910.7, -507736.2, -30727.584, 0.0144731235, 0.45621154, -504405.8, -196640.1, 0.0, 9.996729, 10.000446 
2.3345198e+3, 2.786001e+2, -797716.9, -447130.38, -23875.06, 0.0044234525, 0.47175536, -445511.94, -235748.94, 0.0, 9.995926, 10.000577 
2.3344357e+3, 2.8860027e+2, -765416.6, -275193.66, -13169.575, 0.011779874, 0.41586027, -274840.13, -163081.08, 0.0, 9.99502, 10.00152 
2.334352e+3, 2.986009e+2, -797770.4, -232206.95, -18251.727, 0.010888236, 0.36083212, -231618.55, -217868.44, 0.0, 9.994092, 10.00159 
2.3342676e+3, 3.0860358e+2, -803479.1, -110493.21, -20679.912, -0.020619275, 0.45563343, -109876.63, -109876.63, 0.0, 9.99329, 10.002477 
2.3341839e+3, 3.1860483e+2, -890688.1, -110740.42, -21627.17, 0.019667873, 0.38437024, -110141.19, -110141.19, 0.0, 9.992514, 10.002849 
2.3457927e+3, 1.2871261e+2, -896898.1, -1662973.4, 19496.742, 0.025863416, 0.39076775, -896402.25, 782251.7, 0.05482693, 10.007503, 9.996745 
2.3457073e+3, 1.3870887e+2, -903115.1, -1633774.1, 11839.939, -0.008097039, 0.3834202, -902923.3, 677767.06, 0.03902393, 10.00671, 9.99665 
2.345622e+3, 1.487055e+2, -871955.8, -1504654.3, 14692.528, -0.012176147, 0.3874285, -871614.8, 611109.0, 0.023124946, 10.005862, 9.997272 
2.3455371e+3, 1.5870242e+2, -897075.2, -1485828.0, 11487.18, -0.0016771852, 0.39105853, -896851.2, 487903.06, 0.010423942, 10.005018, 9.997134 
2.3454519e+3, 1.6869946e+2, -859874.25, -1367294.0, -1804.6384, -0.0029742545, 0.40028957, -859867.8, 426916.4, 0.003032873, 10.004351, 9.997597 
2.3453665e+3, 1.7869681e+2, -857413.7, -1325035.8, -7042.658, -0.009938341, 0.4114571, -857307.6, 331504.06, 0.0003557521, 10.003726, 9.997516 
2.345281e+3, 1.8869433e+2, -828391.94, -1199408.1, 564.4268, -0.016745338, 0.4233207, -828391.06, 262446.1, 0.0000017518076, 10.002988, 9.99806 
2.3451959e+3, 1.9869214e+2, -838966.7, -1149207.0, 3750.3408, -0.02092896, 0.4332465, -838921.4, 153938.2, 0.0, 10.002223, 9.998101 
2.3451108e+3, 2.0869023e+2, -799030.0, -995400.3, 660.98254, -0.007047163, 0.43073612, -799027.8, 95849.91, 0.0, 10.001462, 9.998851 
2.3450258e+3, 2.1868864e+2, -829497.3, -987521.75, -5723.0415, 0.010157286, 0.4265039, -829290.3, -32397.625, 0.0, 10.000702, 9.998599 
2.3449409e+3, 2.286871e+2, -830887.44, -910705.7, -6257.3696, 0.011181821, 0.44371712, -830399.9, -131490.48, 0.0, 9.999904, 9.998838 
2.3448557e+3, 2.3868579e+2, -839699.06, -846756.06, -781.6276, 0.008849114, 0.46346003, -839613.56, -238689.58, 0.0, 9.999095, 9.998994 
2.3447707e+3, 2.4868484e+2, -794272.25, -668330.94, 3032.6375, 0.017613437, 0.45309967, -668257.94, -165324.98, 0.0, 9.998279, 9.999939 
2.3446858e+3, 2.5868425e+2, -819414.56, -636447.4, -442.48624, 0.026881495, 0.4366266, -636446.3, -231508.44, 0.0, 9.997462, 9.999879 
2.3446006e+3, 2.6868415e+2, -794406.44, -509192.9, -6619.4453, 0.01288321, 0.44783065, -509039.38, -202100.4, 0.0, 9.996684, 10.000454 
2.3445152e+3, 2.7868438e+2, -799909.4, -443535.6, 267.4667, -0.002856011, 0.4606851, -443535.4, -234598.84, 0.0, 9.995898, 10.000611 
2.3444304e+3, 2.8868482e+2, -771306.25, -269679.03, 12434.021, 0.011022141, 0.42416912, -269371.0, -158440.67, 0.0, 9.994951, 10.001588 
2.3443457e+3, 2.9868567e+2, -807381.94, -225077.42, 16094.715, 0.01746875, 0.3855895, -224632.9, -211713.64, 0.0, 9.993983, 10.001688 
2.3442605e+3, 3.086877e+2, -795652.94, -88246.36, 7746.2915, -0.032876767, 0.40331563, -88161.55, -88161.55, 0.0, 9.993271, 10.002635 
2.344176e+3, 3.1868958e+2, -880024.5, -125061.68, 1267.2415, 0.035362408, 0.3892184, -125059.555, -125059.555, 0.0, 9.992678, 10.002667 
2.3557995e+3, 1.2879767e+2, -897767.1, -1671882.3, -7634.04, 0.010693408, 0.37587264, -897691.8, 780128.3, 0.0538314, 10.007521, 9.9966755 
2.3557137e+3, 1.38794e+2, -901739.6, -1634578.3, -16387.635, -0.013745693, 0.38140503, -901373.4, 678482.8, 0.038255904, 10.006715, 9.996646 
2.3556277e+3, 1.487907e+2, -862414.6, -1489457.6, -16115.142, -0.005585614, 0.3863222, -862000.75, 619887.9, 0.02261161, 10.005874, 9.997373 
2.355542e+3, 1.5878768e+2, -894283.1, -1486906.5, -17297.627, 0.015127048, 0.38859215, -893778.7, 490139.6, 0.0101464, 10.00504, 9.99712 
2.3554558e+3, 1.6878457e+2, -871257.0, -1395938.1, -24521.486, 0.001183868, 0.39664567, -870113.5, 415836.47, 0.0029252244, 10.004365, 9.997396 
2.3553696e+3, 1.7878172e+2, -861684.7, -1336507.8, -31540.766, -0.02159334, 0.4061029, -859598.7, 328380.8, 0.00033489885, 10.003731, 9.9974375 
2.3552836e+3, 1.8877931e+2, -818415.3, -1181254.0, -27700.11, -0.016246207, 0.41839364, -816312.75, 273691.28, 0.000001534202, 10.002993, 9.998186 
2.355198e+3, 1.9877726e+2, -835475.56, -1144957.9, -24755.441, -0.003724224, 0.43050048, -833507.9, 158517.06, 0.0, 10.002229, 9.998131 
2.355112e+3, 2.0877534e+2, -807049.3, -1015162.7, -27519.959, -0.0019496051, 0.43594685, -803471.7, 90572.02, 0.0, 10.00147, 9.998715 
2.3550262e+3, 2.187737e+2, -831765.5, -995316.75, -34606.824, -0.0020030614, 0.4392944, -824744.25, -28684.426, 0.0, 10.000709, 9.998546 
2.3549405e+3, 2.287721e+2, -822801.6, -896840.56, -36377.145, 0.008316523, 0.4474986, -807919.9, -109843.22, 0.0, 9.999909, 9.998934 
2.3548545e+3, 2.387708e+2, -834281.75, -838128.44, -31170.514, 0.020172691, 0.45615554, -804975.3, -204884.5, 0.0, 9.9991, 9.999054 
2.3547685e+3, 2.4876998e+2, -794053.2, -670296.25, -27892.96, 0.02018108, 0.45884156, -664300.1, -162201.78, 0.0, 9.998282, 9.9999275 
2.3546828e+3, 2.5876954e+2, -818478.06, -636890.1, -30977.594, 0.016485857, 0.4579557, -631751.0, -227649.05, 0.0, 9.997466, 9.999877 
2.3545969e+3, 2.6876917e+2, -791910.1, -506449.53, -36186.72, 0.011256195, 0.44167152, -501933.72, -195828.42, 0.0, 9.996688, 10.000475 
2.3545107e+3, 2.7876914e+2, -793366.1, -432164.2, -32287.44, 0.008928975, 0.4220921, -429300.75, -221195.33, 0.0, 9.995901, 10.000691 
2.354425e+3, 2.8877008e+2, -759702.7, -246770.86, -25409.758, 0.02030055, 0.42528236, -245515.19, -135421.23, 0.0, 9.994949, 10.00175 
2.3543394e+3, 2.9877156e+2, -803894.5, -218348.23, -16176.197, 0.018075714, 0.4310747, -217901.69, -205824.47, 0.0, 9.9939785, 10.0017395 
2.3542532e+3, 3.0877233e+2, -803299.1, -106592.555, -17281.596, -0.052823607, 0.33643407, -106164.16, -106164.16, 0.0, 9.993275, 10.002511 
2.3541684e+3, 3.187747e+2, -860719.8, -91925.67, -12295.972, 0.04652692, 0.3734083, -91729.06, -91729.06, 0.0, 9.992701, 10.002888 
2.3658067e+3, 1.2888373e+2, -877255.7, -1658208.3, 26934.969, 0.0032468305, 0.36350575, -876327.8, 800648.1, 0.052739333, 10.00765, 9.996708 
2.3657197e+3, 1.3888013e+2, -903908.06, -1636657.5, 25024.354, -0.017433312, 0.37334907, -903054.44, 675957.06, 0.037418675, 10.006704, 9.996633 
2.3656332e+3, 1.4887677e+2, -851521.44, -1493137.8, 20548.943, -0.010700034, 0.38248634, -850864.0, 630180.6, 0.02205658, 10.005993, 9.997287 
2.3655467e+3, 1.588737e+2, -857159.7, -1475322.6, 8620.042, 0.007849933, 0.38840854, -857039.5, 526035.56, 0.00984936, 10.005331, 9.997056 
2.36546e+3, 1.6887051e+2, -850461.5, -1387709.4, 8043.2666, -0.0014900517, 0.39347166, -850341.1, 434766.28, 0.0028115276, 10.004523, 9.997374 
2.3653731e+3, 1.7886758e+2, -869983.25, -1342983.6, 10295.612, -0.018608363, 0.39875448, -869759.25, 317378.28, 0.00031341886, 10.003691, 9.997409 
2.3652864e+3, 1.8886511e+2, -826746.9, -1188781.6, 6490.989, -0.0104573555, 0.41055205, -826630.56, 262532.22, 0.0000013212426, 10.002957, 9.998148 
2.3651999e+3, 1.98863e+2, -835724.7, -1148518.5, -2031.0476, 0.003915477, 0.42378947, -835711.5, 155472.75, 0.0, 10.00225, 9.998093 
2.3651133e+3, 2.0886114e+2, -804546.75, -1017989.5, -3006.5422, 0.0015973558, 0.43852884, -804504.44, 88698.59, 0.0, 10.001511, 9.9986725 
2.3650266e+3, 2.1885955e+2, -824262.5, -989997.06, -5813.9224, -0.0037263255, 0.4514433, -824058.8, -28839.746, 0.0, 10.000759, 9.998553 
2.3649399e+3, 2.2885792e+2, -811187.1, -879456.3, -8579.243, 0.008488391, 0.45028856, -810125.5, -112889.61, 0.0, 9.999946, 9.999032 
2.3648533e+3, 2.3885655e+2, -828367.06, -827218.6, -4372.776, 0.024022872, 0.44640234, -823382.5, -224132.55, 0.0, 9.999113, 9.999119 
2.3647666e+3, 2.488558e+2, -800961.25, -673066.06, -2192.3833, 0.023496002, 0.45366675, -673028.5, -171771.64, 0.0, 9.9982395, 9.999925 
2.3646799e+3, 2.588554e+2, -831768.6, -638428.44, -4060.2966, 0.01806447, 0.45999154, -638343.2, -235083.4, 0.0, 9.997361, 9.999913 
2.364593e+3, 2.6885498e+2, -808256.6, -502928.22, -3971.9167, 0.0136002265, 0.43041506, -502876.53, -197613.05, 0.0, 9.996534, 10.000569 
2.3645063e+3, 2.7885485e+2, -814767.6, -434001.56, 2295.0046, 0.013063319, 0.39530247, -433987.75, -226723.69, 0.0, 9.995725, 10.000759 
2.3644197e+3, 2.8885606e+2, -757264.56, -243640.78, -2981.205, 0.02499902, 0.41818178, -243623.47, -134372.7, 0.0, 9.994965, 10.00176 
2.364333e+3, 2.988577e+2, -776368.06, -208886.45, -4449.8135, 0.021273278, 0.44664952, -208851.56, -197619.19, 0.0, 9.994191, 10.0016985 
2.3642458e+3, 3.0885795e+2, -814616.56, -124991.78, -6505.33, -0.06218438, 0.30632323, -124930.414, -124930.414, 0.0, 9.993259, 10.002388 
2.3641609e+3, 3.1886056e+2, -874250.9, -49713.035, 17917.025, 0.05237505, 0.37319604, -49323.883, -49323.883, 0.0, 9.992405, 10.003316 
2.375814e+3, 1.289707e+2, -869399.44, -1646897.0, -7221.161, 0.0012357226, 0.35207254, -869332.4, 806789.8, 0.05155647, 10.007657, 9.99679 
2.3757261e+3, 1.3896714e+2, -902032.8, -1642380.1, -6014.3003, -0.019911623, 0.36102074, -901983.94, 676173.4, 0.036516894, 10.006734, 9.996583 
2.3756386e+3, 1.4896369e+2, -864731.2, -1529418.6, -3161.0818, -0.02541999, 0.37696722, -864716.2, 615476.0, 0.021463154, 10.006019, 9.997029 
2.3755515e+3, 1.5896045e+2, -862646.4, -1492321.3, -17776.305, -0.018957222, 0.39000502, -862144.94, 520079.9, 0.009534784, 10.005346, 9.996935 
2.3754638e+3, 1.6895726e+2, -841165.8, -1373015.9, -23069.42, -0.009349808, 0.39047673, -840167.06, 444089.84, 0.002692689, 10.004536, 9.997472 
2.3753765e+3, 1.7895433e+2, -869026.2, -1345564.0, -19330.252, -0.0028338362, 0.38956338, -868243.4, 318042.94, 0.00029153825, 10.003704, 9.997388 
2.375289e+3, 1.8895169e+2, -839372.5, -1219236.6, -19770.7, -0.00036911166, 0.40008536, -838346.25, 249967.31, 0.0000011181178, 10.00297, 9.997936 
2.3752017e+3, 1.989494e+2, -842318.3, -1165923.4, -28675.004, 0.0025298207, 0.41367045, -839797.06, 150540.47, 0.0, 10.002259, 9.9979725 
2.3751143e+3, 2.0894761e+2, -801770.0, -1015343.25, -30566.127, 0.003961154, 0.43888023, -797481.5, 94874.195, 0.0, 10.001518, 9.998691 
2.3750271e+3, 2.1894616e+2, -820142.5, -984381.3, -34719.41, 0.004952175, 0.4628983, -813104.56, -18733.955, 0.0, 10.000766, 9.998592 
2.3749395e+3, 2.289445e+2, -804619.2, -868818.94, -39514.035, 0.011410543, 0.4519189, -785809.7, -89422.34, 0.0, 9.999952, 9.999105 
2.374852e+3, 2.3894306e+2, -824130.3, -821410.2, -36180.43, 0.019732194, 0.43400565, -786564.25, -188162.53, 0.0, 9.999119, 9.999159 
2.3747644e+3, 2.4894224e+2, -801178.3, -676037.44, -35700.97, 0.027928114, 0.43628317, -666568.9, -166160.02, 0.0, 9.998244, 9.999906 
2.374677e+3, 2.5894183e+2, -827583.3, -631568.56, -36632.08, 0.03330455, 0.44019967, -624946.3, -222534.42, 0.0, 9.997362, 9.999963 
2.3745893e+3, 2.6894155e+2, -797369.7, -481474.06, -34988.97, 0.020157073, 0.41386223, -477645.06, -173231.4, 0.0, 9.996532, 10.000721 
2.3745017e+3, 2.7894163e+2, -813833.1, -432578.94, -27176.5, 0.007568534, 0.3828653, -430651.47, -224239.31, 0.0, 9.99572, 10.000775 
2.3744144e+3, 2.8894258e+2, -770642.9, -274253.38, -31652.193, 0.02407071, 0.39964995, -272243.22, -163841.69, 0.0, 9.99497, 10.001551 
2.3743269e+3, 2.98944e+2, -786337.5, -235427.0, -37715.35, 0.0280861, 0.42404065, -232856.98, -222470.52, 0.0, 9.994209, 10.001512 
2.3742388e+3, 3.0894452e+2, -824771.44, -147678.45, -46256.277, -0.057118364, 0.32879832, -144533.03, -144533.03, 0.0, 9.993259, 10.002235 
2.3741528e+3, 3.18947e+2, -828403.94, 48759.945, 2643.8596, 0.04511212, 0.3773681, 48767.914, 48767.914, 0.0, 9.992384, 10.004006 
2.385821e+3, 1.2905847e+2, -874628.0, -1663120.3, 23162.652, -0.012480362, 0.33421627, -873948.2, 801312.4, 0.050289523, 10.007678, 9.996658 
2.3857327e+3, 1.3905485e+2, -866912.8, -1635894.1, 14518.246, -0.013767613, 0.35000405, -866638.8, 710658.0, 0.035556268, 10.007032, 9.99648 
2.3856445e+3, 1.4905131e+2, -831413.1, -1519758.8, 25593.227, -0.02474165, 0.36872762, -830462.9, 648869.7, 0.020835103, 10.006284, 9.9969635 
2.3855564e+3, 1.5904802e+2, -843012.9, -1488179.0, 19046.627, -0.0285397, 0.38362208, -842451.1, 538914.8, 0.009204499, 10.005511, 9.996881 
2.385468e+3, 1.6904476e+2, -820156.25, -1365979.3, 6057.3535, -0.015588421, 0.38312596, -820089.06, 463309.53, 0.002569436, 10.004701, 9.997437 
2.3853798e+3, 1.7904177e+2, -845061.4, -1338174.3, 3248.298, -0.0024951394, 0.38126183, -845039.94, 340388.6, 0.0002694713, 10.003894, 9.997344 
2.3852918e+3, 1.8903913e+2, -817782.75, -1215181.6, 11090.673, 0.0018344128, 0.39759368, -817473.44, 269982.7, 0.00000093646815, 10.003152, 9.997872 
2.3852035e+3, 1.9903682e+2, -822673.75, -1159944.0, 8950.682, 0.0050973212, 0.4168994, -822436.4, 167044.14, 0.0, 10.002416, 9.997934 
2.3851155e+3, 2.0903493e+2, -795669.6, -1011986.5, 4730.047, 0.0075166738, 0.43357095, -795566.25, 95933.6, 0.0, 10.001565, 9.998687 
2.3850274e+3, 2.1903336e+2, -828295.44, -983801.56, -1700.4192, 0.009980314, 0.44823197, -828276.9, -34761.133, 0.0, 10.000697, 9.998626 
2.3849389e+3, 2.2903186e+2, -805839.2, -859154.3, -6648.097, 0.018189851, 0.4475514, -805022.7, -109491.766, 0.0, 9.9999075, 9.999189 
2.3848508e+3, 2.390306e+2, -817786.2, -809079.75, -3836.8743, 0.027311768, 0.44097, -807630.2, -210086.78, 0.0, 9.99913, 9.999235 
2.3847625e+3, 2.4902968e+2, -787357.25, -662500.9, -786.9742, 0.030349001, 0.42631838, -662495.9, -162944.63, 0.0, 9.998317, 9.99996 
2.3846741e+3, 2.590291e+2, -806627.5, -615759.2, 1829.5762, 0.030487007, 0.4106993, -615741.7, -214186.23, 0.0, 9.997489, 10.000007 
2.3845854e+3, 2.69029e+2, -782748.25, -470822.8, -4675.4966, 0.01930618, 0.3989887, -470752.75, -167197.22, 0.0, 9.996624, 10.000746 
2.3844971e+3, 2.790292e+2, -811305.94, -433852.47, -5008.9326, 0.009754897, 0.38624597, -433786.0, -228233.72, 0.0, 9.995756, 10.000745 
2.3844089e+3, 2.8902987e+2, -781151.1, -292053.72, -4756.089, 0.026655454, 0.38154238, -292007.47, -184462.42, 0.0, 9.994961, 10.00143 
2.3843208e+3, 2.9903096e+2, -802400.0, -255545.83, -8942.13, 0.031814057, 0.38520783, -255399.64, -245865.94, 0.0, 9.99416, 10.001393 
2.384232e+3, 3.0903205e+2, -847487.75, -170311.61, -20870.885, -0.037127245, 0.36068067, -169668.97, -169668.97, 0.0, 9.993161, 10.002124 
2.3841445e+3, 3.1903404e+2, -839884.75, 77317.28, 41968.26, 0.038448717, 0.36636615, 79233.62, 79233.62, 0.0, 9.992166, 10.004304 
2.395828e+3, 1.2914701e+2, -886183.6, -1704397.3, 243.18341, -0.03459722, 0.31245655, -886183.56, 788207.7, 0.04894422, 10.007731, 9.996348 
2.3957396e+3, 1.3914321e+2, -874031.56, -1658344.3, -9464.643, -0.0007881301, 0.33972293, -873917.3, 702512.6, 0.034541488, 10.007049, 9.996322 
2.3956504e+3, 1.4913967e+2, -824354.9, -1510391.0, -1891.7443, -0.011999435, 0.3579309, -824349.6, 654116.06, 0.020175675, 10.006297, 9.9970255 
2.3955615e+3, 1.591364e+2, -842258.25, -1492291.3, -10445.8, -0.024500433, 0.37089097, -842090.4, 538408.4, 0.008860317, 10.0055275, 9.996848 
2.3954724e+3, 1.6913302e+2, -829230.6, -1390085.4, -24052.98, -0.020978445, 0.3723975, -828200.94, 454331.84, 0.0024425418, 10.004716, 9.997268 
2.3953833e+3, 1.7912993e+2, -848495.4, -1349918.3, -25187.91, -0.015648238, 0.37395093, -847233.3, 337331.06, 0.00024745316, 10.003906, 9.99726 
2.3952945e+3, 1.8912742e+2, -813432.8, -1209234.5, -15538.63, -0.0027186133, 0.4025012, -812823.7, 273767.0, 0.00000078702317, 10.003159, 9.997913 
2.3952058e+3, 1.9912523e+2, -821307.4, -1159238.5, -20380.375, 0.011427517, 0.43219972, -820082.7, 168530.92, 0.0, 10.0024185, 9.997941 
2.3951167e+3, 2.0912305e+2, -798054.7, -1019540.9, -27878.613, 0.012026188, 0.4220835, -794599.5, 96036.24, 0.0, 10.00157, 9.998636 
2.3950276e+3, 2.1912114e+2, -826921.25, -983900.7, -32774.66, 0.01127023, 0.40783855, -820353.25, -27698.53, 0.0, 10.000704, 9.998626 
2.3949388e+3, 2.2912e+2, -799656.1, -849304.5, -35420.93, 0.029149104, 0.4380614, -781226.56, -86559.91, 0.0, 9.999913, 9.999257 
2.3948497e+3, 2.3911919e+2, -810371.75, -796689.1, -33457.168, 0.047486257, 0.468749, -769381.0, -172705.88, 0.0, 9.999137, 9.99932 
2.3947603e+3, 2.4911806e+2, -778383.25, -647117.25, -31527.313, 0.030006122, 0.42387474, -639937.75, -141253.52, 0.0, 9.998324, 10.000066 
2.3946708e+3, 2.591172e+2, -804671.5, -615413.7, -29685.629, 0.0068663256, 0.37004834, -610866.6, -210176.16, 0.0, 9.9974985, 10.000009 
2.3945816e+3, 2.6911724e+2, -792063.75, -493585.16, -38034.223, 0.010227069, 0.3865779, -488814.8, -186125.52, 0.0, 9.996633, 10.000589 
2.3944925e+3, 2.7911767e+2, -817568.0, -449714.06, -37230.598, 0.02153558, 0.40881583, -445983.75, -241299.1, 0.0, 9.995762, 10.000637 
2.3944035e+3, 2.8911787e+2, -783207.94, -298600.8, -34991.29, 0.03328638, 0.36333957, -296087.28, -189405.52, 0.0, 9.994964, 10.001387 
2.3943147e+3, 2.9911846e+2, -806386.44, -264984.34, -42856.063, 0.03148193, 0.3253697, -261612.95, -252938.4, 0.0, 9.994158, 10.001332 
2.3942252e+3, 3.0912054e+2, -854700.3, -184876.48, -61012.41, 0.0035593265, 0.4057444, -179364.39, -179364.39, 0.0, 9.993153, 10.002032 
2.3941362e+3, 3.1912163e+2, -865142.9, 27733.09, 13522.21, 0.027367812, 0.33577713, 27937.83, 27937.83, 0.0, 9.9921465, 10.003977 
2.4058357e+3, 1.2923642e+2, -819377.75, -1673426.0, 20554.416, -0.046082374, 0.30634713, -818883.3, 854630.4, 0.04752475, 10.008222, 9.996322 
2.4057463e+3, 1.3923249e+2, -861733.9, -1657423.3, 27734.676, 0.001946007, 0.32327586, -860768.3, 714785.4, 0.033474863, 10.007158, 9.996272 
2.4056564e+3, 1.4922883e+2, -815948.5, -1514871.0, 34595.418, -0.008756026, 0.33867842, -814240.25, 663350.4, 0.019486427, 10.006396, 9.996943 
2.4055667e+3, 1.5922546e+2, -822222.44, -1488413.4, 16610.244, -0.023521924, 0.35187426, -821808.56, 557816.1, 0.008503476, 10.005696, 9.99679 
2.4054769e+3, 1.6922213e+2, -803053.2, -1379737.8, 6926.95, -0.021486728, 0.3623281, -802970.0, 478688.6, 0.0023126553, 10.004912, 9.99724 
2.4053867e+3, 1.7921908e+2, -823052.94, -1340457.4, 12607.31, -0.016998028, 0.37305543, -822745.94, 360944.0, 0.00022566831, 10.004101, 9.997229 
2.4052973e+3, 1.8921646e+2, -813096.94, -1212730.1, 17865.148, 0.0016709727, 0.39758548, -812299.9, 273417.44, 0.00000067454846, 10.003184, 9.997874 
2.4052078e+3, 1.9921419e+2, -844406.3, -1170528.8, 8128.9204, 0.022070123, 0.42198437, -844203.8, 143537.55, 0.0, 10.002268, 9.997932 
2.4051179e+3, 2.0921206e+2, -804331.56, -1018992.75, 4256.0728, 0.019903846, 0.4182469, -804247.2, 85515.68, 0.0, 10.001519, 9.998661 
2.405028e+3, 2.1921025e+2, -812885.44, -974213.7, 2421.0784, 0.014916247, 0.41075778, -812849.06, -21067.924, 0.0, 10.000795, 9.998644 
2.4049382e+3, 2.2920905e+2, -793587.8, -844422.4, -4525.5767, 0.03233067, 0.4356816, -793188.06, -99394.38, 0.0, 9.999954, 9.999268 
2.4048483e+3, 2.3920818e+2, -810387.0, -786967.06, -6213.117, 0.05078937, 0.46014917, -785420.9, -189618.28, 0.0, 9.999102, 9.9994 
2.4047583e+3, 2.4920718e+2, -762998.0, -620701.9, -1329.2186, 0.030252807, 0.41529754, -620689.44, -122879.414, 0.0, 9.998356, 10.000228 
2.404668e+3, 2.5920644e+2, -785424.94, -601424.94, 2176.9392, 0.0037890638, 0.3625018, -601399.2, -201584.58, 0.0, 9.997618, 10.000043 
2.4045779e+3, 2.6920643e+2, -781382.75, -503704.4, -7928.3965, 0.010661192, 0.3833758, -503478.22, -201663.9, 0.0, 9.996779, 10.000445 
2.404488e+3, 2.7920675e+2, -804043.75, -453625.22, -6997.7285, 0.026093675, 0.4092862, -453485.53, -249674.34, 0.0, 9.995907, 10.000536 
2.4043982e+3, 2.892067e+2, -786846.94, -305095.13, -6249.356, 0.029601509, 0.34991533, -305014.1, -199203.78, 0.0, 9.9949665, 10.001336 
2.4043082e+3, 2.9920715e+2, -825211.9, -272016.16, -15290.666, 0.022042591, 0.29993415, -271593.84, -263789.22, 0.0, 9.994028, 10.001343 
2.4042183e+3, 3.092097e+2, -838193.25, -166532.92, -24285.799, 0.038504194, 0.42306018, -165655.95, -165655.95, 0.0, 9.993229, 10.002117 
2.4041279e+3, 3.1921035e+2, -867492.5, -20789.988, 58089.56, 0.012803955, 0.3125062, -16823.232, -16823.232, 0.0, 9.992341, 10.003546 
2.4158435e+3, 1.2932669e+2, -807225.06, -1652449.3, -18072.795, -0.0501044, 0.31063718, -806838.75, 865789.6, 0.04603559, 10.008222, 9.996476 
2.4157529e+3, 1.3932262e+2, -854530.7, -1655055.3, -6199.571, -0.003378992, 0.30218095, -854482.7, 720185.94, 0.032358684, 10.0072, 9.996271 
2.4156624e+3, 1.4931875e+2, -825395.6, -1544634.9, 9302.761, -0.012964878, 0.3131306, -825275.3, 651432.3, 0.018768674, 10.006427, 9.996728 
2.415572e+3, 1.5931523e+2, -826390.7, -1502133.1, -10397.371, -0.024898121, 0.32785794, -826230.75, 552513.06, 0.008134962, 10.00571, 9.996693 
2.4154815e+3, 1.6931206e+2, -796758.5, -1370227.4, -22480.066, -0.017792678, 0.35296327, -795878.6, 484897.66, 0.0021803498, 10.004921, 9.997305 
2.4153906e+3, 1.7930919e+2, -822822.0, -1343141.5, -19369.883, -0.008227645, 0.37758303, -822101.94, 360704.03, 0.0002042778, 10.004107, 9.9972105 
2.4153003e+3, 1.8930629e+2, -821045.3, -1232644.3, -16939.377, 0.013866093, 0.3833939, -820349.4, 264487.0, 0.0000005952588, 10.003192, 9.997737 
2.41521e+3, 1.9930372e+2, -845657.56, -1176791.5, -22990.95, 0.03652871, 0.3885588, -844068.94, 142794.75, 0.0, 10.002276, 9.997889 
2.4151191e+3, 2.0930201e+2, -798051.94, -1009124.0, -21996.883, 0.030950746, 0.42301273, -795783.9, 93097.46, 0.0, 10.001526, 9.998729 
2.4150285e+3, 2.1930064e+2, -811090.9, -973410.06, -26562.814, 0.020791207, 0.45647514, -806854.56, -15959.224, 0.0, 10.000801, 9.998651 
2.4149378e+3, 2.2929896e+2, -797682.8, -855844.44, -36892.676, 0.027169228, 0.438973, -779787.44, -86875.18, 0.0, 9.99996, 9.999189 
2.4148469e+3, 2.3929754e+2, -805787.44, -780257.9, -36313.348, 0.03604093, 0.4126421, -754531.1, -159604.84, 0.0, 9.999107, 9.999447 
2.4147561e+3, 2.4929702e+2, -747738.5, -592230.3, -28547.977, 0.031775735, 0.4014182, -587155.2, -90226.336, 0.0, 9.998363, 10.000423 
2.4146652e+3, 2.592969e+2, -780718.1, -595334.2, -27337.488, 0.024317471, 0.39304328, -591386.94, -192459.39, 0.0, 9.997627, 10.000084 
2.4145745e+3, 2.6929653e+2, -790593.4, -526777.9, -40623.035, 0.021680472, 0.38981476, -520664.28, -219733.53, 0.0, 9.996789, 10.000285 
2.4144834e+3, 2.792964e+2, -810801.56, -471653.97, -41167.367, 0.02137301, 0.38257456, -466728.4, -263795.9, 0.0, 9.995917, 10.000411 
2.4143925e+3, 2.8929645e+2, -792535.5, -318878.5, -43147.008, 0.012886345, 0.34388524, -314980.16, -210049.4, 0.0, 9.994968, 10.001245 
2.4143015e+3, 2.992971e+2, -820646.5, -262296.56, -48527.426, 0.0005631425, 0.31886038, -258110.33, -251187.05, 0.0, 9.9940195, 10.001417 
2.4142112e+3, 3.0929947e+2, -815864.5, -123751.51, -52064.227, 0.06541444, 0.3995909, -119856.89, -119856.89, 0.0, 9.9932375, 10.002411 
2.4141198e+3, 3.1930056e+2, -908538.8, -110892.55, 11189.676, -0.0033007206, 0.32729945, -110735.6, -110735.6, 0.0, 9.992355, 10.002923 
2.4258514e+3, 1.2941766e+2, -820839.06, -1669784.1, 15342.0625, -0.048724737, 0.29908118, -820561.94, 851173.7, 0.04448417, 10.008165, 9.996374 
2.42576e+3, 1.3941343e+2, -797239.0, -1633357.5, 13036.122, 0.0015188083, 0.28622502, -797035.8, 776741.5, 0.031198194, 10.007634, 9.996207 
2.4256687e+3, 1.4940958e+2, -780940.56, -1525036.6, 33311.184, -0.013278486, 0.30007085, -779452.25, 696364.25, 0.01802534, 10.00675, 9.996703 
2.4255773e+3, 1.5940604e+2, -813803.3, -1497641.1, 23558.508, -0.029835574, 0.31856582, -812992.7, 564860.0, 0.0077560875, 10.005809, 9.996673 
2.4254858e+3, 1.6940284e+2, -791773.0, -1368912.8, 9417.366, -0.015292771, 0.343657, -791619.4, 488266.38, 0.0020462302, 10.004967, 9.997289 
2.4253945e+3, 1.7939994e+2, -818228.94, -1341457.3, 6471.2417, 0.0020239057, 0.3686529, -818148.9, 363767.1, 0.00018345381, 10.0041485, 9.997198 
2.425303e+3, 1.8939707e+2, -803889.3, -1224720.9, 12918.724, 0.017423758, 0.37996948, -803493.1, 280453.1, 0.00000053401743, 10.003319, 9.997726 
2.4252117e+3, 1.993945e+2, -817194.6, -1163745.4, 14220.291, 0.03229812, 0.38981232, -816612.1, 169361.27, 0.0, 10.002482, 9.997875 
2.4251203e+3, 2.0939271e+2, -791320.0, -1008054.8, 11580.946, 0.032295126, 0.42020753, -790702.94, 97288.91, 0.0, 10.001589, 9.998702 
2.425029e+3, 2.193913e+2, -823429.7, -975660.3, 1558.2957, 0.028412024, 0.4490886, -823413.75, -33407.19, 0.0, 10.000708, 9.998676 
2.4249372e+3, 2.2938962e+2, -786090.75, -839853.0, 627.7944, 0.025586426, 0.4270212, -786083.44, -94060.266, 0.0, 10.000002, 9.999275 
2.4248457e+3, 2.3938823e+2, -773118.3, -756337.06, 8868.132, 0.024103861, 0.39685065, -752519.25, -158482.53, 0.0, 9.999304, 9.999512 
2.4247542e+3, 2.4938786e+2, -742500.56, -585653.94, 5038.356, 0.027098447, 0.3986622, -585492.25, -89454.18, 0.0, 9.998388, 10.000452 
2.4246626e+3, 2.5938788e+2, -805024.9, -603584.44, -4301.26, 0.029696787, 0.40450415, -603492.7, -205457.02, 0.0, 9.997453, 10.000107 
2.4245708e+3, 2.693874e+2, -803937.7, -530071.9, -7864.006, 0.026211346, 0.38706496, -529846.25, -229806.14, 0.0, 9.996692, 10.000305 
2.424479e+3, 2.793871e+2, -809540.3, -470651.75, 243.40068, 0.022140423, 0.36403897, -470651.56, -268608.28, 0.0, 9.995932, 10.000406 
2.4243869e+3, 2.8938735e+2, -801266.9, -327160.28, -2227.0408, 0.0073047993, 0.35070562, -327149.84, -223110.06, 0.0, 9.994933, 10.001201 
2.4242951e+3, 2.9938814e+2, -833135.4, -264249.0, -1288.6803, -0.009177487, 0.34785098, -264246.1, -258215.27, 0.0, 9.993924, 10.001446 
2.424204e+3, 3.0938986e+2, -806298.9, -105331.72, -11235.195, 0.07855828, 0.35527793, -105151.69, -105151.69, 0.0, 9.993251, 10.002527 
2.4241115e+3, 3.1939164e+2, -913906.0, -141413.8, 20766.582, -0.015321042, 0.34383222, -140855.94, -140855.94, 0.0, 9.992446, 10.002666 
2.4358591e+3, 1.2950936e+2, -832388.25, -1711637.8, -1903.6565, -0.04348061, 0.27670097, -832384.1, 838451.4, 0.042882208, 10.008218, 9.996065 
2.4357674e+3, 1.3950497e+2, -803556.56, -1651991.6, -10883.639, 0.013958645, 0.27433115, -803417.0, 769462.7, 0.030002248, 10.007641, 9.99608 
2.4356751e+3, 1.4950122e+2, -772116.56, -1510588.5, -954.79236, -0.010854571, 0.29673895, -772115.4, 702802.25, 0.017261542, 10.006756, 9.996802 
2.4355826e+3, 1.5949781e+2, -810271.6, -1495662.0, -9911.406, -0.03780812, 0.3211114, -810128.4, 566823.8, 0.007369068, 10.005823, 9.996682 
2.4354905e+3, 1.6949444e+2, -796738.44, -1384158.1, -20848.12, -0.013717697, 0.33409488, -795999.44, 482987.97, 0.0019111587, 10.00498, 9.997181 
2.4353983e+3, 1.7949133e+2, -817884.2, -1344873.8, -23941.123, 0.013475476, 0.3482606, -816798.8, 364221.2, 0.00016337966, 10.004159, 9.997173 
2.4353059e+3, 1.8948878e+2, -797014.9, -1213800.1, -17821.105, 0.012951961, 0.38688678, -796254.25, 286792.8, 0.0000004720076, 10.003326, 9.997801 
2.4352136e+3, 1.9948654e+2, -817130.0, -1166490.1, -17944.143, 0.010750552, 0.42271936, -816210.75, 168860.36, 0.0, 10.002488, 9.997857 
2.4351215e+3, 2.0948419e+2, -800101.9, -1029097.1, -22027.904, 0.024657838, 0.40862083, -798002.2, 89092.54, 0.0, 10.001595, 9.998558 
2.4350293e+3, 2.1948218e+2, -820319.06, -972108.1, -28166.883, 0.03779607, 0.3890928, -815260.8, -26145.84, 0.0, 10.000713, 9.998701 
2.434937e+3, 2.2948101e+2, -768829.25, -807311.3, -24093.89, 0.027646061, 0.4011309, -757236.4, -66109.98, 0.0, 10.00001, 9.999498 
2.4348445e+3, 2.3948026e+2, -767990.0, -749351.9, -20813.96, 0.0151108205, 0.415265, -735865.94, -142732.27, 0.0, 9.999313, 9.999559 
2.434752e+3, 2.4947968e+2, -754309.06, -612811.44, -31343.957, 0.015215249, 0.40700707, -606179.1, -111041.18, 0.0, 9.998393, 10.000267 
2.4346595e+3, 2.5947934e+2, -805906.8, -606561.8, -36964.785, 0.017527474, 0.39365405, -599928.1, -202788.53, 0.0, 9.997451, 10.000091 
2.4345669e+3, 2.6947898e+2, -789272.8, -501348.9, -35208.684, 0.023435967, 0.3740523, -497105.97, -197963.36, 0.0, 9.996693, 10.000505 
2.4344747e+3, 2.7947888e+2, -800879.1, -455111.94, -31942.783, 0.029964162, 0.35597596, -452185.78, -251042.7, 0.0, 9.995935, 10.000515 
2.4343815e+3, 2.894795e+2, -802182.0, -330121.38, -41317.45, 0.01592719, 0.3737481, -326532.3, -223395.7, 0.0, 9.994931, 10.001185 
2.4342886e+3, 2.9948047e+2, -838706.1, -275749.84, -32119.945, -0.0040071374, 0.38941, -273923.16, -268796.6, 0.0, 9.9939165, 10.001374 
2.434197e+3, 3.094809e+2, -816439.44, -128786.875, -33574.477, 0.071867645, 0.28189763, -127151.5, -127151.5, 0.0, 9.993254, 10.002368 
2.4341038e+3, 3.1948358e+2, -893301.4, -100998.164, -36210.7, -0.012441671, 0.37174106, -99346.664, -99346.664, 0.0, 9.992449, 10.002947 
2.4458672e+3, 1.2960199e+2, -774920.6, -1686440.0, 24806.473, -0.03649848, 0.2681624, -774246.06, 895680.75, 0.041242085, 10.008639, 9.996032 
2.4457747e+3, 1.3959754e+2, -812627.7, -1661175.0, 28447.285, 0.016971469, 0.26520306, -811675.06, 760296.5, 0.028779764, 10.007594, 9.996036 
2.4456814e+3, 1.495937e+2, -775875.6, -1518391.1, 31728.88, -0.0077147665, 0.28459758, -774522.3, 699488.2, 0.016482692, 10.006758, 9.996745 
2.4455881e+3, 1.5959021e+2, -793085.0, -1491033.8, 14261.279, -0.033736903, 0.3073368, -792793.75, 583252.2, 0.0069765598, 10.005963, 9.996643 
2.4454951e+3, 1.6958687e+2, -776448.4, -1376330.5, 6795.6655, -0.012072327, 0.329025, -776371.4, 501709.7, 0.0017761736, 10.005135, 9.997156 
2.4454021e+3, 1.7958382e+2, -797903.1, -1334006.6, 6725.6533, 0.012401094, 0.35141802, -797818.75, 382294.7, 0.00014421386, 10.004298, 9.997177 
2.4453089e+3, 1.8958125e+2, -782660.25, -1202546.1, 9662.925, 0.011556962, 0.38605243, -782438.0, 299702.8, 0.00000040151969, 10.003414, 9.997832 
2.4452156e+3, 1.9957897e+2, -808536.25, -1155985.4, 7176.241, 0.008953198, 0.41700208, -808388.1, 175776.84, 0.0, 10.002527, 9.997907 
2.4451226e+3, 2.0957665e+2, -785514.94, -1014668.44, 13901.421, 0.021196619, 0.40127912, -784674.7, 101513.37, 0.0, 10.00167, 9.998616 
2.4450295e+3, 2.1957465e+2, -801647.2, -954578.25, 20219.525, 0.033510115, 0.37938076, -799019.06, -10811.138, 0.0, 10.000813, 9.99877 
2.4449365e+3, 2.2957353e+2, -780717.25, -803859.25, 17475.123, 0.026802016, 0.38982874, -771329.56, -81110.77, 0.0, 9.999896, 9.999573 
2.4448432e+3, 2.3957281e+2, -810984.94, -764268.94, 10790.478, 0.01693723, 0.40456817, -761897.0, -169671.47, 0.0, 9.999001, 9.999603 
2.4447498e+3, 2.4957228e+2, -768742.4, -619787.25, 8715.678, 0.01028702, 0.40012532, -619279.0, -125049.12, 0.0, 9.998302, 10.000259 
2.4446565e+3, 2.5957197e+2, -780896.1, -587275.25, 13012.231, 0.0054632663, 0.38969335, -586404.6, -190172.72, 0.0, 9.9976, 10.000148 
2.4445632e+3, 2.695717e+2, -788643.9, -484541.97, 10555.028, 0.013793479, 0.36867175, -484176.06, -185942.08, 0.0, 9.996634, 10.000646 
2.4444698e+3, 2.795717e+2, -836503.2, -460653.38, 8151.42, 0.025482703, 0.3506568, -460476.7, -260243.5, 0.0, 9.995648, 10.000611 
2.4443762e+3, 2.8957248e+2, -808673.25, -328603.75, -986.45245, 0.02058409, 0.3826215, -328601.72, -226376.42, 0.0, 9.994874, 10.001219 
2.4442822e+3, 2.9957354e+2, -815614.06, -267405.47, 12736.196, 0.005012087, 0.40799767, -267109.72, -262895.1, 0.0, 9.994095, 10.001342 
2.4441895e+3, 3.095734e+2, -849754.75, -157956.73, 14868.493, 0.050927144, 0.2562323, -157637.33, -157637.33, 0.0, 9.99309, 10.002243 
2.4440955e+3, 3.1957653e+2, -922809.75, -56070.965, -5949.419, -0.008524229, 0.38755897, -56030.13, -56030.13, 0.0, 9.991999, 10.003468 
2.4558754e+3, 1.2969549e+2, -761051.7, -1665632.8, -12271.023, -0.028830882, 0.26945847, -760885.25, 908124.7, 0.03957189, 10.0086565, 9.99617 
2.4557817e+3, 1.3969107e+2, -805647.3, -1660765.1, -5766.3037, 0.012862722, 0.25807285, -805608.44, 765445.5, 0.027536523, 10.007641, 9.996019 
2.4556877e+3, 1.4968695e+2, -784575.75, -1546382.4, 3223.3147, -0.0037796886, 0.26549459, -784562.06, 688533.56, 0.015692791, 10.006787, 9.996542 
2.4555938e+3, 1.5968321e+2, -797604.94, -1505065.3, -15050.456, -0.02012828, 0.28063276, -797284.9, 577849.06, 0.0065809605, 10.005974, 9.996545 
2.4554998e+3, 1.6968012e+2, -773244.94, -1373499.4, -23259.764, -0.010856018, 0.32825026, -772345.0, 504821.94, 0.001642278, 10.005144, 9.997174 
2.4554057e+3, 1.7967731e+2, -796170.94, -1334068.3, -24814.994, 0.00043308933, 0.37467575, -795028.56, 384168.47, 0.00012608444, 10.004308, 9.997175 
2.4553117e+3, 1.8967439e+2, -783602.56, -1207327.9, -23055.027, 0.013333398, 0.37740034, -782351.8, 298875.84, 0.00000032533248, 10.00342, 9.997801 
2.455218e+3, 1.996718e+2, -800965.56, -1142684.1, -24938.875, 0.02531789, 0.3759507, -799155.1, 184099.73, 0.0, 10.002531, 9.997999 
2.4551238e+3, 2.0967008e+2, -768786.44, -982499.1, -17514.473, 0.021137206, 0.39952493, -767360.56, 117911.41, 0.0, 10.001675, 9.998838 
2.4550298e+3, 2.1966867e+2, -795217.5, -943905.1, -12778.297, 0.015596501, 0.41951534, -794127.3, -6841.6567, 0.0, 10.000817, 9.998844 
2.4549358e+3, 2.2966711e+2, -787153.06, -819708.9, -17159.902, 0.023371981, 0.391904, -779778.6, -90477.9, 0.0, 9.9999, 9.999466 
2.4548417e+3, 2.3966588e+2, -808894.25, -761625.4, -19250.275, 0.030226367, 0.3623018, -754777.7, -163465.13, 0.0, 9.9990015, 9.999625 
2.4547479e+3, 2.4966566e+2, -756520.94, -596972.5, -15696.383, 0.012795597, 0.37721142, -595442.94, -102128.94, 0.0, 9.998306, 10.000417 
2.4546535e+3, 2.5966576e+2, -771797.0, -572178.44, -17565.39, -0.0066449326, 0.39412615, -570644.56, -175332.45, 0.0, 9.997609, 10.000251 
2.454559e+3, 2.6966554e+2, -785647.06, -479644.88, -27748.434, -0.004300815, 0.3722668, -477149.0, -179835.13, 0.0, 9.996632, 10.000684 
2.4544649e+3, 2.7966553e+2, -834307.75, -454394.22, -24637.76, 0.005796467, 0.34816664, -452803.13, -253489.63, 0.0, 9.995634, 10.000665 
2.4543706e+3, 2.8966632e+2, -803805.9, -319795.34, -27524.012, 0.020528737, 0.3726517, -318235.2, -216929.25, 0.0, 9.994872, 10.001284 
2.4542761e+3, 2.9966742e+2, -814042.0, -268851.1, -19648.787, 0.018804297, 0.39757332, -268143.88, -264848.75, 0.0, 9.994108, 10.001329 
2.4541816e+3, 3.0966774e+2, -859744.06, -176197.81, -24949.582, 0.009852789, 0.29930964, -175288.36, -175288.36, 0.0, 9.993072, 10.0021305 
2.4540871e+3, 3.196703e+2, -871341.1, 60801.445, -51263.72, 0.00050125836, 0.36337787, 63612.246, 63612.246, 0.0, 9.991948, 10.004299 
2.4658838e+3, 1.2978995e+2, -754542.0, -1677630.4, 27221.422, -0.02677132, 0.2633927, -753739.94, 914343.9, 0.03787284, 10.00876, 9.996034 
2.465789e+3, 1.3978542e+2, -746127.75, -1639739.3, 17669.803, 0.0053399913, 0.2568728, -745778.5, 824350.44, 0.026273994, 10.008096, 9.995941 
2.4656941e+3, 1.4978127e+2, -745232.9, -1529397.8, 30516.008, -0.009039714, 0.2647166, -744047.2, 728123.94, 0.014893558, 10.007073, 9.996517 
2.4655993e+3, 1.5977746e+2, -791584.56, -1503766.4, 23639.197, -0.02101025, 0.27860567, -790800.8, 583409.0, 0.006183742, 10.006028, 9.996524 
2.4655044e+3, 1.697743e+2, -767118.6, -1371916.8, 17509.543, -0.014139322, 0.3214397, -766612.1, 509631.5, 0.0015101795, 10.005199, 9.997155 
2.4654096e+3, 1.7977142e+2, -783010.75, -1325203.1, 11216.443, -0.0062172194, 0.36451954, -782778.8, 395495.6, 0.00010908263, 10.004395, 9.99719 
2.4653147e+3, 1.8976858e+2, -776043.94, -1198080.5, 13958.652, 0.009649585, 0.3720802, -775582.75, 304721.6, 0.00000024971717, 10.003455, 9.997843 
2.46522e+3, 1.9976605e+2, -800051.9, -1133323.5, 16098.557, 0.02542699, 0.37454784, -799276.06, 183054.77, 0.0, 10.002506, 9.998072 
2.465125e+3, 2.0976436e+2, -768002.9, -971004.25, 16844.174, 0.019727081, 0.39493126, -766614.75, 117732.734, 0.0, 10.001639, 9.998931 
2.46503e+3, 2.1976301e+2, -794802.7, -932977.25, 12214.251, 0.011767559, 0.41281593, -793731.25, -7370.8306, 0.0, 10.000782, 9.998933 
2.4649353e+3, 2.2976156e+2, -787097.1, -810876.7, 15763.106, 0.020830838, 0.38765696, -779242.5, -90867.85, 0.0, 9.99987, 9.9995365 
2.4648403e+3, 2.3976037e+2, -812260.1, -755169.1, 26141.646, 0.030292315, 0.35896978, -745007.6, -154621.78, 0.0, 9.998951, 9.999689 
2.4647456e+3, 2.4976015e+2, -792232.2, -607866.25, 26008.05, 0.016896822, 0.3693287, -604267.6, -111880.125, 0.0, 9.998041, 10.000466 
2.4646504e+3, 2.597603e+2, -832221.56, -591078.06, 14494.079, -0.00073543057, 0.3836605, -590210.06, -195824.44, 0.0, 9.997157, 10.000335 
2.4645552e+3, 2.6976025e+2, -810125.5, -477371.16, 5387.2896, -0.010540656, 0.37272945, -477283.97, -180898.48, 0.0, 9.99641, 10.000802 
2.46446e+3, 2.7976045e+2, -821780.6, -435711.22, 15526.039, -0.010964335, 0.35714313, -435087.8, -236704.45, 0.0, 9.995673, 10.000771 
2.4643649e+3, 2.8976104e+2, -797405.9, -306160.44, 16067.65, 0.01877109, 0.35940093, -305635.47, -205258.13, 0.0, 9.994878, 10.001371 
2.4642698e+3, 2.9976207e+2, -821122.1, -264348.0, 19595.78, 0.028476149, 0.37088814, -263659.2, -261291.81, 0.0, 9.994032, 10.001392 
2.464174e+3, 3.0976325e+2, -874997.1, -179560.84, 16085.75, -0.02129083, 0.35451666, -179188.97, -179188.97, 0.0, 9.992957, 10.002158 
2.4640787e+3, 3.1976518e+2, -842795.2, 114347.71, -6814.1675, 0.009776714, 0.34616458, 114396.22, 114396.22, 0.0, 9.99198, 10.004648 
2.4758922e+3, 1.2988527e+2, -769550.56, -1726544.3, 4882.5474, -0.028592717, 0.25236565, -769525.6, 897623.6, 0.03614223, 10.00881, 9.995678 
2.4757966e+3, 1.3988058e+2, -751978.8, -1659465.1, -11745.381, -0.0050668665, 0.2604897, -751826.8, 817370.0, 0.024991535, 10.00811, 9.995803 
2.4757007e+3, 1.4987655e+2, -736459.94, -1516443.8, -8156.3516, -0.021673618, 0.2783808, -736374.7, 734862.7, 0.014085671, 10.007085, 9.996604 
2.4756047e+3, 1.5987286e+2, -787923.7, -1501621.0, -10793.136, -0.033388183, 0.29602146, -787760.5, 585514.1, 0.005785839, 10.0060425, 9.996535 
2.4755093e+3, 1.6986933e+2, -770388.4, -1382846.3, -11045.254, -0.020837247, 0.3089005, -770189.25, 505122.53, 0.0013803312, 10.00521, 9.997078 
2.4754135e+3, 1.7986615e+2, -781323.5, -1324514.1, -20760.555, -0.008323842, 0.32593137, -780531.2, 396814.38, 0.00009326219, 10.0044, 9.997196 
2.4753176e+3, 1.8986374e+2, -769050.8, -1186284.3, -21428.76, 0.00074952736, 0.37081963, -767953.1, 311418.22, 0.00000017954461, 10.00346, 9.997925 
2.4752219e+3, 1.9986165e+2, -797256.3, -1130422.4, -17484.836, 0.01056146, 0.40944803, -796341.2, 185052.5, 0.0, 10.002512, 9.998093 
2.4751262e+3, 2.0985948e+2, -770993.25, -979944.06, -14622.676, 0.01749339, 0.38613272, -769974.9, 113440.086, 0.0, 10.001645, 9.99887 
2.4750306e+3, 2.1985766e+2, -787853.56, -921103.44, -20698.97, 0.021787344, 0.3597735, -784712.25, 720.2552, 0.0, 10.000786, 9.999016 
2.4749346e+3, 2.2985683e+2, -770179.9, -778339.2, -18513.45, 0.018636273, 0.3785727, -755301.9, -67861.46, 0.0, 9.999875, 9.999762 
2.4748388e+3, 2.3985632e+2, -806092.3, -744820.9, -7856.319, 0.016302984, 0.39753723, -743829.56, -154384.48, 0.0, 9.998955, 9.999763 
2.4747431e+3, 2.4985573e+2, -799227.6, -623274.5, -8272.053, 0.023324378, 0.3769429, -622886.44, -131436.06, 0.0, 9.998038, 10.000365 
2.4746475e+3, 2.5985545e+2, -830808.6, -586862.2, -16438.77, 0.02584908, 0.35567573, -585759.4, -192306.64, 0.0, 9.997145, 10.000373 
2.4745512e+3, 2.698558e+2, -797707.2, -451776.3, -21427.074, -0.0030021097, 0.37006053, -450454.16, -155005.44, 0.0, 9.996405, 10.000984 
2.4744548e+3, 2.798564e+2, -810912.06, -415869.78, -12514.933, -0.024402376, 0.3803573, -415473.72, -218031.33, 0.0, 9.995678, 10.000908 
2.4743594e+3, 2.8985673e+2, -790840.2, -294432.06, -14062.534, 0.014521089, 0.34136015, -294034.0, -194594.72, 0.0, 9.994879, 10.001454 
2.4742635e+3, 2.998576e+2, -812084.75, -245409.5, -15827.168, 0.033014685, 0.3227364, -244967.8, -243536.53, 0.0, 9.994024, 10.001531 
2.4741663e+3, 3.098601e+2, -863649.1, -154200.88, -24472.107, -0.037806153, 0.4269618, -153357.72, -153357.72, 0.0, 9.992942, 10.002344 
2.4740703e+3, 3.198613e+2, -872076.4, 51349.2, -22619.416, 0.011731708, 0.34354812, 51902.93, 51902.93, 0.0, 9.991982, 10.004218 
2.4859007e+3, 1.299815e+2, -715215.25, -1696341.9, 25172.512, -0.021032568, 0.26404434, -714569.9, 951636.7, 0.03437942, 10.009175, 9.995706 
2.4858043e+3, 1.3997677e+2, -743396.2, -1652772.9, 23533.629, -0.018771557, 0.26442587, -742787.56, 825466.9, 0.023689767, 10.008157, 9.995822 
2.4857073e+3, 1.4997269e+2, -726221.4, -1510174.9, 22332.352, -0.02621014, 0.27814722, -725585.75, 744709.56, 0.013270333, 10.007153, 9.996611 
2.4856105e+3, 1.5996896e+2, -769098.75, -1491487.9, 18712.225, -0.026668426, 0.29400745, -768614.4, 603718.3, 0.005388133, 10.006174, 9.996538 
2.485514e+3, 1.6996549e+2, -761617.5, -1379038.1, 24857.709, -0.021765128, 0.3131796, -760618.3, 513751.28, 0.001252992, 10.005279, 9.997067 
2.4854174e+3, 1.7996232e+2, -779824.06, -1319660.3, 15850.104, -0.017958269, 0.33437362, -779359.1, 397044.22, 0.000078625984, 10.0044, 9.997226 
2.4853206e+3, 1.8995985e+2, -761077.2, -1174923.9, 11866.286, -0.006549609, 0.3701354, -760737.2, 317692.2, 0.000000118594194, 10.00349, 9.997985 
2.4852239e+3, 1.9995771e+2, -783105.7, -1114851.8, 15796.992, 0.0067470656, 0.40084904, -782355.1, 198096.69, 0.0, 10.00258, 9.998163 
2.4851274e+3, 2.0995566e+2, -762430.75, -967819.06, 26586.004, 0.01512635, 0.3813618, -759045.25, 123427.02, 0.0, 10.001677, 9.998934 
2.4850307e+3, 2.1995392e+2, -786527.56, -913220.4, 24765.738, 0.021025497, 0.359113, -781858.44, 2630.5623, 0.0, 10.0007715, 9.999072 
2.484934e+3, 2.2995315e+2, -774174.94, -774667.2, 13884.6, 0.019329205, 0.38157782, -760534.25, -74037.836, 0.0, 9.999831, 9.9998045 
2.4848372e+3, 2.3995271e+2, -812347.56, -741278.2, 13488.784, 0.017673178, 0.4038284, -738804.2, -150303.67, 0.0, 9.998892, 9.999813 
2.4847408e+3, 2.4995206e+2, -803666.25, -619526.9, 20592.566, 0.024429122, 0.37486267, -617252.1, -126746.07, 0.0, 9.997991, 10.00041 
2.484644e+3, 2.599517e+2, -831144.94, -576201.44, 23441.047, 0.02757649, 0.3444163, -574064.06, -181555.38, 0.0, 9.997104, 10.000463 
2.484547e+3, 2.699522e+2, -807589.2, -441177.84, 17828.389, 0.00060361647, 0.3625211, -440312.44, -145809.22, 0.0, 9.996278, 10.001115 
2.4844502e+3, 2.79953e+2, -836088.94, -416285.7, 21029.148, -0.020339293, 0.37776092, -415234.9, -218739.58, 0.0, 9.995462, 10.001006 
2.4843535e+3, 2.899533e+2, -819553.5, -300932.6, 14845.895, 0.012454201, 0.3322441, -300507.97, -202015.52, 0.0, 9.9946575, 10.001513 
2.4842568e+3, 2.9995415e+2, -830242.0, -241063.58, 6540.121, 0.02567701, 0.31026366, -240991.0, -240506.64, 0.0, 9.993851, 10.00164 
2.4841589e+3, 3.0995718e+2, -839806.1, -124616.55, -9260.868, -0.03716381, 0.4499593, -124496.65, -124496.65, 0.0, 9.993034, 10.002499 
2.484062e+3, 3.199581e+2, -859394.25, 1116.1501, 10604.179, 0.019012455, 0.34298444, 1246.8069, 1246.8069, 0.0, 9.992319, 10.003706 
2.4959095e+3, 1.3007863e+2, -692870.5, -1656401.9, -9137.592, -0.0077246106, 0.29148656, -692783.9, 972472.06, 0.03259019, 10.009185, 9.99598 
2.4958116e+3, 1.4007388e+2, -732724.7, -1637519.1, -12599.773, -0.034811713, 0.26813316, -732549.25, 834753.56, 0.022372851, 10.008171, 9.995924 
2.4957138e+3, 1.5006962e+2, -728587.1, -1521200.4, -13144.164, -0.02410379, 0.2670105, -728369.2, 740976.1, 0.012450155, 10.007167, 9.9965315 
2.4956165e+3, 1.6006579e+2, -768496.94, -1495031.5, -14862.96, -0.0050500017, 0.27702957, -768193.0, 603191.1, 0.004991834, 10.006186, 9.996511 
2.4955188e+3, 1.7006265e+2, -759112.44, -1376745.3, -6763.002, -0.018524148, 0.3322417, -759038.44, 514379.38, 0.0011284861, 10.005284, 9.997084 
2.4954212e+3, 1.8005982e+2, -777751.44, -1317060.4, -17128.88, -0.034147244, 0.3826439, -777207.94, 398240.75, 0.00006518128, 10.004401, 9.997247 
2.4953237e+3, 1.9005688e+2, -759283.8, -1173351.6, -21583.89, -0.01215506, 0.36858127, -758161.75, 319317.25, 0.00000007053605, 10.003492, 9.997997 
2.4952261e+3, 2.0005429e+2, -775406.3, -1101428.4, -17525.701, 0.012969209, 0.3525349, -774466.9, 205038.28, 0.0, 10.002584, 9.998257 
2.4951287e+3, 2.1005286e+2, -750509.3, -945624.44, -6781.9365, 0.012203303, 0.38211182, -750273.8, 131245.61, 0.0, 10.001681, 9.999088 
2.495031e+3, 2.2005174e+2, -785781.8, -914244.1, -9796.235, 0.0096128695, 0.4102978, -785039.06, -1508.7301, 0.0, 10.000776, 9.999066 
2.4949333e+3, 2.3005047e+2, -785311.94, -800257.1, -21517.947, 0.023468021, 0.3953931, -770006.0, -84463.03, 0.0, 9.999835, 9.99963 
2.494836e+3, 2.4004947e+2, -810833.0, -740370.44, -20995.398, 0.035159547, 0.3753509, -734588.94, -147036.36, 0.0, 9.998895, 9.999822 
2.4947383e+3, 2.5004914e+2, -790365.5, -594071.9, -13042.056, 0.018762933, 0.36312386, -593209.1, -103654.67, 0.0, 9.9979925, 10.000587 
2.4946404e+3, 2.6004913e+2, -822579.56, -560442.4, -8508.34, 0.00071749353, 0.3524632, -560166.5, -168613.56, 0.0, 9.997106, 10.000573 
2.4945429e+3, 2.7004948e+2, -805042.5, -436669.25, -13023.56, 0.00038108916, 0.3481362, -436209.4, -142660.44, 0.0, 9.996275, 10.00115 
2.4944453e+3, 2.8005007e+2, -835990.1, -415044.78, -9575.011, 0.0054228897, 0.34339398, -414827.1, -219284.31, 0.0, 9.995451, 10.001023 
2.4943478e+3, 2.9005077e+2, -821780.0, -303656.7, -15862.213, 0.012399131, 0.33625975, -303171.53, -205634.98, 0.0, 9.994643, 10.001505 
2.49425e+3, 3.000519e+2, -829177.9, -236967.03, -24114.375, 0.0026638824, 0.34407932, -235986.73, -235986.73, 0.0, 9.993835, 10.001679 
2.4941516e+3, 3.100542e+2, -832837.3, -113129.1, -40207.68, -0.011798238, 0.4004392, -110889.8, -110889.8, 0.0, 9.99304, 10.002579 
2.494054e+3, 3.2005584e+2, -899486.0, -91542.375, -3348.8765, 0.027023364, 0.37437534, -91528.49, -91528.49, 0.0, 9.992353, 10.0030575 
2.505918e+3, 1.3017651e+2, -692254.8, -1656341.0, 33736.574, -0.0064397007, 0.27644223, -691075.7, 973220.9, 0.030785125, 10.009181, 9.995978 
2.5058192e+3, 1.4017192e+2, -722162.44, -1629605.3, 16406.34, -0.036732726, 0.2703275, -721865.9, 844476.1, 0.02104764, 10.00823, 9.995946 
2.5057206e+3, 1.5016772e+2, -715519.1, -1510851.9, 19712.572, -0.024855068, 0.27440202, -715030.8, 753353.2, 0.011628942, 10.007242, 9.996562 
2.5056222e+3, 1.601639e+2, -758651.5, -1489937.1, 23658.219, -0.0035969496, 0.28573143, -757886.94, 612535.75, 0.0045987708, 10.006257, 9.996508 
2.5055236e+3, 1.7016065e+2, -765595.25, -1383451.4, 29810.688, -0.015606732, 0.33252394, -764160.25, 508297.4, 0.0010075412, 10.005262, 9.997045 
2.505425e+3, 1.801577e+2, -791960.8, -1319585.1, 17226.793, -0.030992348, 0.37647223, -791398.94, 383090.63, 0.000052996915, 10.0042925, 9.997277 
2.5053266e+3, 1.9015488e+2, -761814.06, -1164876.1, 17171.342, -0.012739691, 0.3697701, -761083.8, 315434.8, 0.000000037711487, 10.003441, 9.998076 
2.5052282e+3, 2.0015243e+2, -769555.1, -1091419.9, 22227.941, 0.009288334, 0.35987213, -768027.3, 210516.34, 0.0, 10.002601, 9.998313 
2.50513e+3, 2.1015097e+2, -748732.7, -941662.25, 23285.09, 0.010801173, 0.38626796, -745962.1, 134595.92, 0.0, 10.001688, 9.999108 
2.5050312e+3, 2.2014984e+2, -785964.6, -910231.94, 12175.435, 0.010840527, 0.41203958, -784782.94, -2213.8167, 0.0, 10.000765, 9.999096 
2.504933e+3, 2.3014857e+2, -783308.7, -795821.5, 11185.211, 0.026078682, 0.3965325, -776749.0, -92167.38, 0.0, 9.999842, 9.999653 
2.5048342e+3, 2.4014756e+2, -803519.9, -729895.25, 23425.566, 0.03858709, 0.37394932, -723073.8, -136482.55, 0.0, 9.998922, 9.999876 
2.5047356e+3, 2.5014722e+2, -780561.3, -580220.3, 25547.783, 0.018532991, 0.35581294, -577013.7, -88420.95, 0.0, 9.998028, 10.000662 
2.5046372e+3, 2.601472e+2, -813631.3, -549019.75, 23324.932, -0.002672662, 0.34040004, -546979.44, -156388.69, 0.0, 9.997144, 10.000629 
2.504539e+3, 2.7014756e+2, -799209.9, -429731.6, 17395.266, 0.0042660297, 0.3329629, -428914.44, -136327.53, 0.0, 9.9963045, 10.00118 
2.5044405e+3, 2.8014815e+2, -830328.56, -406098.28, 20306.445, 0.015660137, 0.3278421, -405128.5, -210547.83, 0.0, 9.99547, 10.001071 
2.504342e+3, 2.9014912e+2, -818827.56, -294613.66, 17524.523, 0.009295238, 0.34109816, -294028.44, -197456.44, 0.0, 9.9946375, 10.001566 
2.5042433e+3, 3.001504e+2, -832603.44, -241352.55, 12975.123, -0.0096361665, 0.35962343, -241067.94, -241067.94, 0.0, 9.993832, 10.001647 
2.5041446e+3, 3.1015182e+2, -816977.3, -118153.63, -16324.946, 0.013866692, 0.34512332, -117772.484, -117772.484, 0.0, 9.993211, 10.002458 
2.504046e+3, 3.2015404e+2, -888385.06, -103539.945, 21884.998, 0.020721052, 0.38994423, -102930.164, -102930.164, 0.0, 9.992512, 10.002894 
2.5159267e+3, 1.3027515e+2, -701252.94, -1686710.6, 799.58704, -0.012859931, 0.23253834, -701252.3, 962076.75, 0.028975591, 10.009206, 9.99576 
2.515827e+3, 1.4027084e+2, -721184.6, -1636299.1, -17470.309, -0.028555965, 0.2721295, -720851.25, 844521.44, 0.019722564, 10.00825, 9.9958935 
2.5157273e+3, 1.5026689e+2, -705505.2, -1497239.9, -15333.457, -0.028450016, 0.29627395, -705208.3, 762204.0, 0.010812047, 10.007261, 9.99665 
2.515628e+3, 1.602632e+2, -756310.56, -1491315.0, -12589.638, -0.01796658, 0.31426713, -756095.0, 613354.8, 0.0042118407, 10.006275, 9.996493 
2.5155282e+3, 1.702594e+2, -771066.4, -1399260.9, -6253.1436, -0.012322915, 0.31632003, -771004.1, 500485.6, 0.0008913322, 10.005274, 9.996934 
2.515429e+3, 1.8025602e+2, -789203.2, -1317232.5, -15757.224, -0.011471126, 0.32452524, -788733.4, 384792.28, 0.000042157837, 10.0043, 9.997293 
2.5153297e+3, 1.9025387e+2, -752621.1, -1148812.1, -13123.673, -0.009505615, 0.37520093, -752186.9, 323361.75, 0.000000018502952, 10.003448, 9.998187 
2.5152302e+3, 2.0025203e+2, -769092.7, -1093091.0, -10361.124, -0.0035779714, 0.41805092, -768761.7, 208806.42, 0.0, 10.002605, 9.998302 
2.5151312e+3, 2.1024995e+2, -757181.6, -961552.6, -10983.219, 0.01125173, 0.39185357, -756593.06, 122995.46, 0.0, 10.001692, 9.998973 
2.5150317e+3, 2.2024819e+2, -781821.3, -903977.7, -22333.49, 0.024411393, 0.3648635, -777866.2, 3739.1985, 0.0, 10.000769, 9.999141 
2.5149322e+3, 2.3024745e+2, -768402.9, -767404.9, -23208.057, 0.026527444, 0.3861703, -744690.44, -61078.043, 0.0, 9.9998455, 9.999849 
2.5148326e+3, 2.40247e+2, -797740.06, -720593.1, -10036.406, 0.02708795, 0.40164283, -719308.8, -133692.4, 0.0, 9.998927, 9.999941 
2.5147334e+3, 2.5024632e+2, -784341.6, -590690.94, -7721.797, 0.025094885, 0.35246673, -590383.5, -102762.6, 0.0, 9.998033, 10.000591 
2.514634e+3, 2.6024595e+2, -814949.9, -554264.6, -9016.453, 0.020858599, 0.30517283, -553953.1, -164330.78, 0.0, 9.9971485, 10.000595 
2.5145346e+3, 2.7024645e+2, -798899.25, -431440.2, -14153.005, 0.012114987, 0.31779584, -430895.88, -139278.88, 0.0, 9.996307, 10.00117 
2.5144354e+3, 2.802473e+2, -825429.56, -397936.4, -11039.461, 0.006404958, 0.33568853, -397651.5, -204042.84, 0.0, 9.995472, 10.00113 
2.5143358e+3, 2.9024833e+2, -810426.2, -278404.7, -13935.817, 0.0029522644, 0.3459064, -278039.9, -182441.17, 0.0, 9.994636, 10.001681 
2.5142366e+3, 3.002495e+2, -844143.44, -266436.97, -13129.441, -0.0076276967, 0.3505, -266138.75, -266138.75, 0.0, 9.99383, 10.001479 
2.5141373e+3, 3.1025004e+2, -844806.4, -180836.02, -39161.836, 0.038905054, 0.28324693, -178534.17, -178534.17, 0.0, 9.993225, 10.002024 
2.5140375e+3, 3.2025257e+2, -847459.1, -22267.418, -17773.492, -0.00477422, 0.3774308, -21884.78, -21884.78, 0.0, 9.992519, 10.003453 
2.5259355e+3, 1.3037524e+2, -683081.3, -1677508.6, 31486.615, -0.009005407, 0.23827292, -682085.4, 980262.7, 0.027171263, 10.009324, 9.995763 
2.525835e+3, 1.4037076e+2, -706796.3, -1631572.3, 21990.762, -0.03765503, 0.2634073, -706273.7, 858119.56, 0.018406292, 10.008358, 9.995871 
2.525734e+3, 1.5036681e+2, -688831.5, -1494519.3, 18021.121, -0.028884457, 0.29399896, -688428.6, 778004.6, 0.010005631, 10.007402, 9.996597 
2.525634e+3, 1.6036312e+2, -731837.94, -1477061.1, 12857.358, -0.009737461, 0.31964839, -731616.1, 636854.56, 0.0038342883, 10.006439, 9.996508 
2.525533e+3, 1.7035936e+2, -751185.4, -1381677.4, 26713.05, -0.0074003832, 0.31927884, -750055.6, 520454.63, 0.000780915, 10.0053835, 9.996998 
2.525433e+3, 1.8035597e+2, -781626.8, -1311619.6, 28249.748, -0.009804568, 0.32349393, -780125.3, 392420.66, 0.00003268853, 10.004352, 9.997303 
2.5253326e+3, 1.9035378e+2, -753843.4, -1154530.1, 24934.563, -0.006015064, 0.3754777, -752297.6, 322271.97, 0.000000008423833, 10.003469, 9.998134 
2.5252324e+3, 2.0035191e+2, -768421.06, -1088195.8, 17460.475, 0.0010446715, 0.42124498, -767470.5, 209119.05, 0.0, 10.002598, 9.998336 
2.525132e+3, 2.1034989e+2, -757213.9, -950795.1, 27449.975, 0.013191624, 0.3940431, -753396.75, 125212.555, 0.0, 10.001653, 9.999062 
2.525032e+3, 2.2034816e+2, -786925.5, -900183.5, 28234.95, 0.02376621, 0.36405185, -780276.94, 348.80603, 0.0, 10.000714, 9.999188 
2.5249314e+3, 2.303474e+2, -766688.2, -765362.3, 16018.626, 0.02365846, 0.3834997, -749992.94, -67360.09, 0.0, 9.99986, 9.999853 
2.524831e+3, 2.4034692e+2, -786306.0, -711847.8, 15940.02, 0.023388823, 0.39847556, -708578.9, -123942.07, 0.0, 9.999, 9.999962 
2.524731e+3, 2.503462e+2, -781015.8, -586146.25, 20863.15, 0.029977698, 0.34833997, -583937.6, -97296.47, 0.0, 9.998051, 10.000609 
2.5246307e+3, 2.6034582e+2, -821564.9, -558872.7, 26379.164, 0.03346432, 0.29947338, -556249.94, -167607.17, 0.0, 9.997117, 10.000574 
2.5245306e+3, 2.7034628e+2, -801144.5, -438516.06, 19120.453, 0.018495405, 0.31176007, -437510.66, -146872.6, 0.0, 9.9963255, 10.001109 
2.5244305e+3, 2.8034708e+2, -813767.06, -389936.13, 17237.213, 0.0056297225, 0.32904103, -389236.25, -196605.86, 0.0, 9.995549, 10.001143 
2.52433e+3, 2.9034805e+2, -785980.0, -257887.19, 9161.57, 0.0019746388, 0.33264592, -257728.3, -163107.92, 0.0, 9.994774, 10.001753 
2.52423e+3, 3.003492e+2, -825184.1, -265044.4, 11863.975, -0.0064604115, 0.3338494, -264793.25, -264793.25, 0.0, 9.994, 10.001403 
2.5241303e+3, 3.1034973e+2, -853192.06, -207798.92, 3427.9055, 0.050844703, 0.2839845, -207780.72, -207780.72, 0.0, 9.993274, 10.001812 
2.5240296e+3, 3.20352e+2, -844909.75, 27250.807, 10216.335, -0.01938701, 0.3546259, 27370.46, 27370.46, 0.0, 9.992336, 10.003878 
2.5359446e+3, 1.3047652e+2, -671562.1, -1658764.3, -2967.4602, 0.00093656924, 0.2772695, -671553.2, 989802.56, 0.025380088, 10.009325, 9.995894 
2.5358427e+3, 1.4047158e+2, -707700.75, -1637245.8, -13181.623, -0.059216432, 0.24654174, -707513.9, 855890.8, 0.01710594, 10.008357, 9.995835 
2.5357413e+3, 1.5046746e+2, -700805.5, -1521860.1, -15856.318, -0.026216477, 0.27352163, -700499.4, 764947.5, 0.00921459, 10.0074, 9.996414 
2.53564e+3, 1.6046374e+2, -729989.94, -1474687.5, -23394.54, 0.016009875, 0.3073809, -729255.7, 638229.6, 0.003468396, 10.006436, 9.99653 
2.5355384e+3, 1.7046042e+2, -737350.6, -1355622.1, -12007.921, -0.0018851857, 0.3389515, -737117.5, 532402.5, 0.000676839, 10.005388, 9.997178 
2.5354365e+3, 1.8045737e+2, -781834.9, -1315821.9, -6993.5195, -0.023244504, 0.36515817, -781743.25, 389808.84, 0.000024588775, 10.004361, 9.997273 
2.5353357e+3, 1.9045453e+2, -768268.06, -1187289.3, -6309.4077, -0.0016809433, 0.36951643, -768173.06, 305409.16, 0.0000000033700214, 10.003474, 9.99791 
2.5352347e+3, 2.004521e+2, -763661.25, -1080344.3, -15768.237, 0.021573532, 0.3744678, -762878.06, 212729.64, 0.0, 10.002601, 9.998392 
2.5351334e+3, 2.1045077e+2, -737082.06, -911331.5, -7923.335, 0.015883062, 0.3949176, -736722.56, 140897.83, 0.0, 10.001656, 9.999334 
2.535032e+3, 2.204497e+2, -785079.8, -898992.56, -5271.149, 0.008928057, 0.4090675, -784836.44, -5206.0923, 0.0, 10.000719, 9.999198 
2.534931e+3, 2.3044837e+2, -781175.8, -798133.06, -15497.519, 0.017815595, 0.38724488, -771989.25, -90346.086, 0.0, 9.999865, 9.999629 
2.5348297e+3, 2.4044731e+2, -788378.8, -718777.06, -18010.56, 0.028003046, 0.3624055, -714392.7, -130739.94, 0.0, 9.999004, 9.999916 
2.5347286e+3, 2.50447e+2, -773983.44, -573765.8, -15334.573, 0.032504916, 0.3446842, -572598.1, -86944.74, 0.0, 9.998054, 10.000696 
2.5346273e+3, 2.6044697e+2, -823627.8, -565050.6, -5551.4263, 0.033341628, 0.3279061, -564931.5, -177280.16, 0.0, 9.997118, 10.000534 
2.5345263e+3, 2.7044705e+2, -811039.1, -461271.2, -9952.457, 0.023552814, 0.31566706, -460988.22, -171338.19, 0.0, 9.996328, 10.000955 
2.5344256e+3, 2.8044742e+2, -817783.9, -401015.03, -11902.347, 0.015525079, 0.30369475, -400675.4, -209029.14, 0.0, 9.995555, 10.001069 
2.5343245e+3, 2.9044828e+2, -785660.8, -260783.52, -20599.861, 0.007610915, 0.2960442, -259976.27, -166338.44, 0.0, 9.9947815, 10.001732 
2.5342235e+3, 3.0044952e+2, -821350.25, -261157.0, -16899.79, -0.0070604105, 0.30903575, -260647.64, -260647.64, 0.0, 9.994011, 10.001429 
2.534123e+3, 3.1045127e+2, -848327.4, -199255.9, -23661.674, 0.043956205, 0.37496465, -198394.47, -198394.47, 0.0, 9.993273, 10.001874 
2.534021e+3, 3.2045215e+2, -838431.8, 46852.76, -47619.81, -0.011830689, 0.29931957, 49406.883, 49406.883, 0.0, 9.992302, 10.004033 
2.5459534e+3, 1.3057832e+2, -681811.0, -1656692.6, 19704.768, -0.003336139, 0.28288382, -681412.9, 978945.5, 0.0236076, 10.0092125, 9.995959 
2.5458503e+3, 1.4057341e+2, -724031.1, -1640095.5, 7514.3613, -0.041479014, 0.25122464, -723969.5, 838437.1, 0.015825298, 10.008218, 9.995879 
2.545748e+3, 1.5056925e+2, -721988.3, -1530008.8, 15952.41, -0.012299642, 0.2730227, -721673.5, 742775.8, 0.008441142, 10.007245, 9.9964285 
2.545646e+3, 1.605655e+2, -748499.3, -1479083.3, 16105.229, 0.024371885, 0.3028876, -748144.44, 618343.75, 0.003115135, 10.006294, 9.996564 
2.5455433e+3, 1.7056224e+2, -737023.8, -1349942.6, 19896.59, 0.006888199, 0.3388384, -736378.6, 532143.56, 0.0005793491, 10.005373, 9.99722 
2.5454408e+3, 1.8055926e+2, -765555.75, -1301461.3, 20283.92, -0.014043055, 0.36869615, -764789.1, 405764.44, 0.00001785599, 10.004452, 9.997324 
2.5453386e+3, 1.9055635e+2, -765376.7, -1180721.4, 36558.87, 0.005707863, 0.36453977, -762183.3, 310400.7, 0.0000000010058756, 10.00348, 9.997948 
2.545237e+3, 2.0055386e+2, -774801.7, -1083714.3, 38581.67, 0.02663622, 0.361914, -770055.94, 204554.06, 0.0, 10.002523, 9.998403 
2.5451344e+3, 2.1055262e+2, -741246.75, -915942.1, 28180.742, 0.015383248, 0.39352822, -736813.3, 139808.98, 0.0, 10.001646, 9.999303 
2.5450322e+3, 2.2055161e+2, -776762.94, -893970.9, 14685.246, 0.0037596212, 0.41848397, -774951.0, 3680.834, 0.0, 10.00078, 9.999199 
2.5449303e+3, 2.3055016e+2, -776272.9, -793408.25, 18192.201, 0.015990036, 0.3867733, -764731.8, -84086.49, 0.0, 9.999897, 9.999642 
2.544828e+3, 2.40549e+2, -788878.8, -722675.9, 27178.6, 0.029134957, 0.3518343, -712947.6, -130291.72, 0.0, 9.999024, 9.999875 
2.544726e+3, 2.5054866e+2, -758016.75, -576049.9, 17007.613, 0.028553613, 0.342835, -574473.9, -89816.85, 0.0, 9.998215, 10.0006 
2.544624e+3, 2.6054865e+2, -786302.56, -550507.75, 17179.809, 0.025398348, 0.3357933, -549262.6, -162607.34, 0.0, 9.997397, 10.000496 
2.5445223e+3, 2.7054867e+2, -782420.56, -446945.9, 21916.777, 0.021881577, 0.31982893, -445520.13, -156865.92, 0.0, 9.996531, 10.000952 
2.5444207e+3, 2.8054893e+2, -806565.94, -400679.53, 28353.117, 0.020647218, 0.30000162, -398708.5, -208057.31, 0.0, 9.995661, 10.001016 
2.5443187e+3, 2.905495e+2, -787773.44, -272303.0, 13559.024, 0.014984662, 0.27749744, -271946.6, -179301.19, 0.0, 9.994821, 10.001631 
2.544217e+3, 3.005507e+2, -817789.56, -247521.61, 14601.711, -0.0028840736, 0.2882997, -247147.98, -247147.98, 0.0, 9.993992, 10.001527 
2.5441158e+3, 3.1055325e+2, -835726.25, -163626.28, 20941.256, 0.02448141, 0.41670942, -162974.42, -162974.42, 0.0, 9.993239, 10.002131 
2.5440133e+3, 3.205534e+2, -834884.7, 27908.656, -23751.803, -0.0035549349, 0.2588137, 28562.025, 28562.025, 0.0, 9.992423, 10.00384 
2.555962e+3, 1.3068071e+2, -679404.56, -1657702.0, -14291.18, -0.015947895, 0.26696244, -679195.8, 980159.56, 0.021856243, 10.009216, 9.9959545 
2.5558588e+3, 1.4067617e+2, -718034.56, -1629310.5, -26602.373, 0.004733616, 0.2717449, -717258.6, 844141.3, 0.014565534, 10.008209, 9.995961 
2.5557548e+3, 1.5067208e+2, -711201.3, -1510333.6, -17650.973, 0.009082235, 0.28717768, -710811.6, 752630.06, 0.0076860837, 10.007246, 9.996567 
2.5556517e+3, 1.6066828e+2, -745776.3, -1477196.9, -17400.979, 0.019062025, 0.304127, -745362.56, 620118.0, 0.002775224, 10.006302, 9.996576 
2.555548e+3, 1.706648e+2, -742740.3, -1364098.1, -12418.346, 0.018928438, 0.32206973, -742492.25, 525024.9, 0.0004887953, 10.005376, 9.997125 
2.5554448e+3, 1.8066165e+2, -757849.2, -1286877.6, -13479.696, 0.014053146, 0.34048006, -757505.94, 412044.16, 0.000012445502, 10.004452, 9.997428 
2.5553414e+3, 1.9065922e+2, -747492.5, -1145819.0, 1064.3707, 0.014992151, 0.3617129, -747489.6, 324085.75, 0.00000000010643588, 10.003483, 9.99819 
2.5552386e+3, 2.006571e+2, -778794.56, -1094869.8, 4623.7827, 0.01743454, 0.38045415, -778726.94, 194870.42, 0.0, 10.002529, 9.998326 
2.5551355e+3, 2.1065533e+2, -764343.1, -966528.8, -3924.9543, 0.012337411, 0.38871613, -764266.94, 111348.586, 0.0, 10.001651, 9.998957 
2.5550324e+3, 2.2065388e+2, -777003.44, -896879.9, -18012.8, 0.00826748, 0.39288688, -774355.3, 3274.9478, 0.0, 10.000784, 9.999181 
2.5549296e+3, 2.3065282e+2, -759223.06, -760516.8, -14812.361, 0.01796139, 0.38322672, -745043.44, -65404.188, 0.0, 9.999901, 9.999869 
2.5548267e+3, 2.40652e+2, -793187.44, -734284.3, -3803.2925, 0.026181532, 0.36846703, -734039.75, -152393.77, 0.0, 9.99903, 9.999796 
2.5547236e+3, 2.506512e+2, -779616.4, -624362.5, -13059.736, 0.017301971, 0.34194976, -623271.6, -139619.44, 0.0, 9.998222, 10.000267 
2.5546208e+3, 2.6065078e+2, -787920.6, -558361.25, -14572.75, 0.008380476, 0.3198864, -557439.8, -171784.8, 0.0, 9.99741, 10.00044 
2.5545183e+3, 2.7065113e+2, -770129.56, -425313.84, -11034.029, 0.012054662, 0.32534298, -424961.13, -137310.72, 0.0, 9.99654, 10.0011 
2.5544158e+3, 2.8065163e+2, -809887.8, -410309.2, -3126.8396, 0.019859595, 0.3238725, -410284.72, -220640.44, 0.0, 9.9956665, 10.000951 
2.5543132e+3, 2.9065186e+2, -804180.56, -307863.28, -18119.482, 0.024871923, 0.28218934, -307202.66, -215560.19, 0.0, 9.99482, 10.00139 
2.5542104e+3, 3.0065268e+2, -805934.5, -223139.36, -14748.908, 0.007302304, 0.27109438, -222766.34, -222766.34, 0.0, 9.993985, 10.001701 
2.554108e+3, 3.1065553e+2, -802061.8, -93156.57, -5746.368, -0.013268407, 0.385976, -93109.99, -93109.99, 0.0, 9.99323, 10.002624 
2.554005e+3, 3.206562e+2, -887639.1, -83822.875, -59075.74, 0.007695321, 0.26669163, -79504.36, -79504.36, 0.0, 9.992426, 10.003076 
2.5659704e+3, 1.3078436e+2, -688524.44, -1654193.9, 19306.438, -0.0116408905, 0.26764643, -688138.56, 970201.0, 0.020127995, 10.009109, 9.996027 
2.565866e+3, 1.4077988e+2, -743992.06, -1633012.6, 14361.006, 0.0185929, 0.27107307, -743760.1, 816623.5, 0.0133281415, 10.007987, 9.996039 
2.5657618e+3, 1.507758e+2, -722265.44, -1506880.9, 24077.064, 0.016534902, 0.28278875, -721527.3, 740897.75, 0.0069508287, 10.0071335, 9.996641 
2.5656575e+3, 1.6077204e+2, -741644.6, -1464737.8, 20254.127, 0.02010768, 0.29686436, -741077.75, 623385.8, 0.0024498806, 10.006291, 9.996663 
2.565553e+3, 1.7076865e+2, -748293.44, -1356794.4, 33700.17, 0.025375962, 0.31819156, -746432.75, 520066.47, 0.0004057043, 10.005302, 9.997207 
2.5654486e+3, 1.807656e+2, -772612.06, -1286556.6, 40304.137, 0.025871037, 0.33962646, -769470.56, 399060.78, 0.000008267579, 10.004325, 9.997487 
2.565345e+3, 1.9076318e+2, -751067.25, -1143612.8, 42999.75, 0.02276092, 0.3616722, -746412.2, 324144.06, 0.0, 10.003449, 9.998218 
2.565241e+3, 2.0076105e+2, -774994.44, -1097526.5, 36524.5, 0.020121533, 0.38089284, -770910.0, 201668.2, 0.0, 10.002582, 9.998279 
2.5651368e+3, 2.107591e+2, -769993.9, -982327.8, 40739.656, 0.01354302, 0.38536495, -762445.7, 112152.56, 0.0, 10.001677, 9.998833 
2.5650328e+3, 2.207575e+2, -781565.94, -903049.3, 36939.344, 0.008948933, 0.3863713, -771215.7, 5399.104, 0.0, 10.000777, 9.999137 
2.5649288e+3, 2.3075649e+2, -757753.4, -758385.7, 25493.107, 0.01783715, 0.38332048, -732574.5, -53951.152, 0.0, 9.999912, 9.999874 
2.5648248e+3, 2.4075569e+2, -792337.25, -739564.5, 26133.777, 0.024929056, 0.37464902, -728813.06, -148183.42, 0.0, 9.999068, 9.999738 
2.5647214e+3, 2.5075474e+2, -779034.3, -636722.8, 30304.707, 0.015186971, 0.34265035, -630538.25, -147900.44, 0.0, 9.998289, 10.000146 
2.5646177e+3, 2.6075414e+2, -778651.25, -558596.06, 37598.69, 0.0052107596, 0.31605354, -552349.25, -167706.67, 0.0, 9.997501, 10.000389 
2.5645143e+3, 2.7075452e+2, -754988.56, -417844.16, 28458.348, 0.007245278, 0.32953405, -415458.84, -128821.29, 0.0, 9.996652, 10.001093 
2.564411e+3, 2.807551e+2, -795360.56, -407614.47, 27802.426, 0.015784835, 0.33648345, -405631.1, -217000.13, 0.0, 9.995792, 10.000905 
2.5643077e+3, 2.907552e+2, -792503.9, -311236.6, 21726.404, 0.030429212, 0.29630333, -310257.75, -219627.98, 0.0, 9.9949465, 10.001302 
2.564204e+3, 3.0075592e+2, -784424.2, -199437.22, 31582.55, 0.013568127, 0.27676895, -197737.06, -197737.06, 0.0, 9.994083, 10.001813 
2.5641003e+3, 3.1075847e+2, -792614.5, -59521.99, 22233.207, -0.047777623, 0.34274217, -58848.32, -58848.32, 0.0, 9.993177, 10.002876 
2.5639972e+3, 3.2075983e+2, -900148.25, -120692.08, -26572.475, 0.016342543, 0.2804007, -119787.24, -119787.24, 0.0, 9.99248, 10.002792 
2.5759792e+3, 1.3088912e+2, -680067.5, -1640271.0, -20668.525, 0.003153717, 0.2785156, -679622.8, 977690.2, 0.018429317, 10.009102, 9.996131 
2.5758734e+3, 1.4088444e+2, -736094.7, -1625047.9, -19303.541, 0.008711448, 0.25515088, -735675.75, 823682.9, 0.012118133, 10.008008, 9.996087 
2.5757682e+3, 1.5088035e+2, -720485.94, -1506878.1, -3583.8044, 0.013992093, 0.26498356, -720469.56, 740930.5, 0.006238736, 10.007138, 9.996642 
2.575663e+3, 1.6087668e+2, -733401.75, -1447560.3, -12219.705, 0.026015675, 0.2834271, -733192.75, 630245.1, 0.002140932, 10.006283, 9.996789 
2.5755578e+3, 1.7087367e+2, -733285.56, -1327978.1, -2409.248, 0.02687965, 0.32536188, -733275.8, 532193.75, 0.00033067344, 10.005305, 9.997407 
2.5754526e+3, 1.808709e+2, -771455.2, -1288381.9, 6440.037, 0.024057154, 0.3616325, -771375.0, 396123.84, 0.000005214356, 10.004337, 9.997473 
2.5753477e+3, 1.9086814e+2, -762728.44, -1170709.9, 11578.431, 0.029681979, 0.3632506, -762400.1, 307127.25, 0.0, 10.003455, 9.998032 
2.5752428e+3, 2.0086569e+2, -776767.4, -1103150.0, 3984.1167, 0.03367824, 0.36493212, -776718.75, 194833.81, 0.0, 10.0025835, 9.998242 
2.575138e+3, 2.1086395e+2, -765117.5, -974392.5, 7101.088, 0.018363379, 0.38417798, -764876.9, 108693.72, 0.0, 10.001679, 9.998889 
2.575033e+3, 2.2086248e+2, -788335.44, -919542.25, 3917.559, 0.0055145216, 0.39868265, -788218.56, -12632.946, 0.0, 10.000781, 9.999025 
2.574928e+3, 2.3086116e+2, -774309.06, -795266.44, -6731.8857, 0.015635887, 0.38658848, -772332.94, -94735.266, 0.0, 9.999917, 9.999622 
2.5748235e+3, 2.4086007e+2, -794740.7, -747141.1, -3948.778, 0.025812147, 0.3697218, -746815.75, -167208.61, 0.0, 9.999073, 9.999686 
2.5747192e+3, 2.5085926e+2, -771951.44, -624750.94, 1689.4243, 0.023482118, 0.34570774, -624731.56, -143117.88, 0.0, 9.998295, 10.000229 
2.574615e+3, 2.6085877e+2, -783448.2, -571302.2, 7784.7637, 0.017831534, 0.32613093, -571016.94, -187399.75, 0.0, 9.997507, 10.000303 
2.5745103e+3, 2.7085888e+2, -769474.9, -450696.78, -3380.6191, 0.008092258, 0.33140984, -450660.9, -165045.38, 0.0, 9.996657, 10.000868 
2.574406e+3, 2.8085926e+2, -797008.94, -413932.88, -3784.0903, 0.0072293635, 0.33494937, -413895.5, -226283.98, 0.0, 9.995798, 10.000862 
2.574302e+3, 2.908597e+2, -785671.6, -299796.38, -9243.089, 0.030099686, 0.32364246, -299620.63, -210014.25, 0.0, 9.994951, 10.001382 
2.5741976e+3, 3.0086055e+2, -785552.56, -203568.4, -200.33727, 0.014907694, 0.3132785, -203568.34, -203568.34, 0.0, 9.994084, 10.001787 
2.5740924e+3, 3.1086206e+2, -802686.56, -78462.375, -12777.6455, -0.07689784, 0.2811546, -78237.01, -78237.01, 0.0, 9.993162, 10.002757 
2.5739893e+3, 3.2086435e+2, -867149.9, -54514.99, -29850.076, 0.01579272, 0.30825284, -53419.996, -53419.996, 0.0, 9.992483, 10.003249 
2.5859874e+3, 1.3099486e+2, -706942.6, -1656527.6, 25299.393, 0.0040980526, 0.26660603, -706269.06, 950007.0, 0.016771656, 10.008921, 9.9961 
2.585881e+3, 1.4099023e+2, -720366.0, -1611878.3, 20065.771, 0.009300126, 0.25108394, -719914.56, 838407.06, 0.010944007, 10.008092, 9.996134 
2.585775e+3, 1.5098624e+2, -728253.1, -1500625.6, 39998.004, 0.014171766, 0.26454395, -726187.3, 734174.94, 0.0055549107, 10.007044, 9.996727 
2.5856686e+3, 1.6098264e+2, -765140.7, -1455474.0, 35084.816, 0.026595693, 0.28533408, -763362.2, 599037.06, 0.0018506657, 10.006038, 9.996849 
2.5855625e+3, 1.7097965e+2, -739546.56, -1326677.9, 36575.582, 0.02884185, 0.3263185, -737276.8, 527154.06, 0.00026428312, 10.005251, 9.997438 
2.5854564e+3, 1.8097688e+2, -753883.44, -1276625.4, 36141.453, 0.026735334, 0.36188334, -751396.56, 415063.63, 0.0000031234008, 10.004451, 9.997495 
2.5853506e+3, 1.909741e+2, -761758.44, -1169685.5, 50071.5, 0.031120932, 0.36408174, -755702.25, 312786.47, 0.0, 10.003467, 9.998029 
2.5852448e+3, 2.0097163e+2, -791970.75, -1112948.1, 52033.652, 0.034882046, 0.36530504, -783746.3, 186767.9, 0.0, 10.002498, 9.998213 
2.5851393e+3, 2.1096978e+2, -774280.94, -984959.44, 48798.273, 0.02290759, 0.38128144, -763527.0, 109006.28, 0.0, 10.001651, 9.998826 
2.5850332e+3, 2.209682e+2, -787650.44, -927328.3, 40510.4, 0.011639701, 0.39438382, -776751.7, -2202.3215, 0.0, 10.000829, 9.998945 
2.5849277e+3, 2.3096682e+2, -765188.94, -802455.5, 38476.285, 0.015737755, 0.38774952, -741071.5, -64509.04, 0.0, 10.000037, 9.999511 
2.5848222e+3, 2.4096568e+2, -774336.25, -739260.25, 47852.004, 0.021924375, 0.3755182, -705833.6, -127260.734, 0.0, 9.999229, 9.999661 
2.584717e+3, 2.5096488e+2, -764586.25, -617718.1, 48356.87, 0.02679661, 0.35211504, -603226.4, -122647.1, 0.0, 9.998338, 10.000253 
2.5846118e+3, 2.6096436e+2, -794401.44, -582101.1, 51456.105, 0.026638048, 0.33327684, -570286.94, -187704.13, 0.0, 9.997463, 10.000246 
2.5845066e+3, 2.7096435e+2, -773450.9, -466131.7, 45635.09, 0.00965421, 0.33858174, -459498.34, -174915.53, 0.0, 9.9966955, 10.000739 
2.5844014e+3, 2.8096458e+2, -780482.6, -407739.34, 49500.793, 0.0021769498, 0.34129882, -401277.6, -214697.33, 0.0, 9.995927, 10.000838 
2.5842968e+3, 2.9096505e+2, -757149.2, -280797.22, 39578.688, 0.02745281, 0.3298028, -277531.16, -188956.53, 0.0, 9.995132, 10.001421 
2.5841913e+3, 3.0096588e+2, -767651.44, -205335.44, 38568.4, 0.014010929, 0.32042667, -202702.42, -202702.42, 0.0, 9.99426, 10.001687 
2.5840852e+3, 3.1096715e+2, -824540.1, -111866.266, 13752.826, -0.08053127, 0.284352, -111600.97, -111600.97, 0.0, 9.993117, 10.002545 
2.583981e+3, 3.209695e+2, -882946.0, -11522.486, 19950.8, 0.007967353, 0.321788, -11065.962, -11065.962, 0.0, 9.992164, 10.003695 
2.595996e+3, 1.311015e+2, -714870.0, -1678516.4, -1149.936, -0.004137855, 0.24068753, -714868.6, 940361.44, 0.0151667, 10.008923, 9.995953 
2.5958887e+3, 1.410971e+2, -719517.8, -1609850.4, -12610.01, 0.017536024, 0.2558367, -719339.25, 837935.1, 0.009814605, 10.008075, 9.996159 
2.5957814e+3, 1.5109327e+2, -719570.9, -1483591.8, 2650.1504, 0.016169949, 0.27695382, -719561.7, 739751.5, 0.004904803, 10.007037, 9.99685 
2.595674e+3, 1.6108976e+2, -765471.5, -1458792.8, 3582.2495, 0.022986125, 0.29888245, -765453.0, 595896.25, 0.0015815428, 10.006041, 9.996828 
2.595567e+3, 1.7108649e+2, -748438.7, -1346175.1, 10264.822, 0.03129669, 0.32167992, -748262.5, 515121.38, 0.00020699989, 10.005248, 9.997309 
2.5954604e+3, 1.8108353e+2, -751854.4, -1272336.6, 4210.837, 0.03299375, 0.34404546, -751820.3, 413594.94, 0.0000017759542, 10.004444, 9.997531 
2.5953534e+3, 1.9108106e+2, -752285.5, -1151275.6, 13879.313, 0.027373154, 0.36505803, -751803.3, 315637.3, 0.0, 10.003466, 9.998159 
2.5952464e+3, 2.0107879e+2, -795157.9, -1122063.0, 18940.238, 0.024807064, 0.38050365, -794064.2, 175399.66, 0.0, 10.002502, 9.998152 
2.59514e+3, 2.1107656e+2, -787277.4, -1014527.2, 18099.975, 0.027622925, 0.3760768, -785844.8, 85641.95, 0.0, 10.001656, 9.998624 
2.5950336e+3, 2.2107466e+2, -791291.94, -937376.25, 10515.433, 0.02738011, 0.37362957, -790538.9, -17032.727, 0.0, 10.0008335, 9.998878 
2.5949273e+3, 2.3107348e+2, -763810.5, -802267.3, 9202.702, 0.017867142, 0.38723665, -761721.75, -86204.17, 0.0, 10.000043, 9.999513 
2.594821e+3, 2.410725e+2, -775463.25, -744459.9, 16349.491, 0.012501446, 0.39282385, -737431.4, -159904.81, 0.0, 9.999235, 9.999626 
2.5947145e+3, 2.5107157e+2, -768915.5, -628875.94, 14850.665, 0.024479518, 0.36191973, -627318.44, -147784.03, 0.0, 9.998341, 10.000177 
2.5946087e+3, 2.6107094e+2, -797374.2, -589617.56, 21656.738, 0.031076679, 0.33706623, -587384.0, -205844.75, 0.0, 9.997463, 10.000197 
2.5945026e+3, 2.71071e+2, -775678.8, -472688.47, 18264.459, 0.012207957, 0.35261345, -471591.44, -188052.94, 0.0, 9.996697, 10.000697 
2.5943968e+3, 2.8107116e+2, -781775.1, -413234.22, 22109.412, 0.0014737537, 0.35702565, -411912.56, -226376.55, 0.0, 9.995933, 10.000801 
2.594291e+3, 2.9107124e+2, -758683.6, -287575.97, 11196.758, 0.021542938, 0.30686954, -287310.03, -199775.67, 0.0, 9.995141, 10.001374 
2.5941852e+3, 3.0107188e+2, -782833.56, -239637.17, 1063.2712, 0.010460034, 0.28952953, -239635.1, -239635.1, 0.0, 9.994265, 10.001452 
2.5940782e+3, 3.110741e+2, -852987.3, -168062.25, -30649.17, -0.04708391, 0.38395536, -166693.48, -166693.48, 0.0, 9.993098, 10.002172 
2.593972e+3, 3.21075e+2, -862565.3, 40020.7, 3350.1453, -0.019158848, 0.29083213, 40033.133, 40033.133, 0.0, 9.992117, 10.004075 
2.6060042e+3, 1.3120946e+2, -728933.8, -1672395.9, 32283.39, -0.0045722374, 0.2449663, -727830.44, 926341.6, 0.013621782, 10.008761, 9.996068 
2.605896e+3, 1.4120507e+2, -761132.7, -1622707.5, 30341.293, 0.022256339, 0.25524995, -760065.5, 796150.44, 0.008735691, 10.007753, 9.996222 
2.6057875e+3, 1.5120128e+2, -747319.9, -1494355.5, 40538.78, 0.019065432, 0.27718404, -745126.44, 713128.3, 0.004292261, 10.006838, 9.996869 
2.6056796e+3, 1.6119778e+2, -775122.1, -1455095.1, 41162.465, 0.02424854, 0.29893348, -772639.44, 587651.3, 0.0013354006, 10.005944, 9.996896 
2.6055717e+3, 1.7119451e+2, -771444.94, -1347262.5, 61714.34, 0.033593334, 0.31526017, -764904.9, 497420.1, 0.00015893037, 10.005054, 9.997391 
2.6054642e+3, 1.8119153e+2, -788881.94, -1286376.6, 62215.973, 0.036429543, 0.3327931, -781219.3, 383136.9, 0.0000009565117, 10.004181, 9.997557 
2.6053563e+3, 1.9118907e+2, -773144.9, -1162949.6, 61857.754, 0.031061726, 0.35936055, -763564.2, 302817.4, 0.0, 10.003338, 9.9981365 
2.6052484e+3, 2.011868e+2, -797077.44, -1125243.3, 61939.13, 0.027538506, 0.3800297, -785776.06, 182628.95, 0.0, 10.002506, 9.998123 
2.6051414e+3, 2.1118452e+2, -786453.06, -1018416.2, 71287.29, 0.026729833, 0.37377328, -766296.44, 104132.2, 0.0, 10.001688, 9.998578 
2.6050338e+3, 2.2118253e+2, -788382.9, -939913.25, 72042.94, 0.025016109, 0.36947593, -759598.75, 12850.201, 0.0, 10.000878, 9.998835 
2.6049268e+3, 2.311813e+2, -762768.44, -807456.06, 66578.11, 0.02018355, 0.3864245, -714884.8, -40423.67, 0.0, 10.000082, 9.999454 
2.6048195e+3, 2.411803e+2, -770001.25, -746087.0, 68474.055, 0.01722477, 0.39657992, -688533.9, -112063.15, 0.0, 9.999299, 9.99958 
2.6047125e+3, 2.511793e+2, -742362.2, -621293.75, 66008.09, 0.022970382, 0.37113312, -592265.4, -113786.35, 0.0, 9.998553, 10.000123 
2.604606e+3, 2.6117864e+2, -754634.5, -573050.2, 73122.08, 0.026069822, 0.3507084, -547266.0, -166781.64, 0.0, 9.997782, 10.000154 
2.6044992e+3, 2.7117866e+2, -748540.9, -464154.34, 67798.37, 0.016337274, 0.36674204, -448818.1, -166334.13, 0.0, 9.996911, 10.0006485 
2.6043922e+3, 2.8117874e+2, -771433.06, -413521.22, 69593.234, 0.010233029, 0.36694255, -400465.56, -215983.14, 0.0, 9.996034, 10.000747 
2.6042858e+3, 2.911785e+2, -758422.44, -294785.47, 54769.035, 0.013009878, 0.29607466, -288403.5, -201919.89, 0.0, 9.995182, 10.001301 
2.6041785e+3, 3.0117902e+2, -784698.06, -251318.88, 39230.21, -0.0034386073, 0.27675164, -248448.92, -248448.92, 0.0, 9.994306, 10.0013485 
2.604071e+3, 3.1118184e+2, -826256.9, -170098.83, 19735.088, -0.0097154565, 0.44737974, -169505.8, -169505.8, 0.0, 9.993353, 10.002031 
2.6039636e+3, 3.2118174e+2, -852653.7, 42307.777, 61013.113, -0.033937942, 0.26460344, 46448.13, 46448.13, 0.0, 9.992203, 10.0040455 
2.6160124e+3, 1.313185e+2, -710778.6, -1634388.8, -3015.5056, 0.00011369195, 0.2685245, -710768.75, 942335.2, 0.012140218, 10.008742, 9.996344 
2.6159033e+3, 1.4131404e+2, -756449.9, -1614968.3, -3672.301, 0.024188517, 0.25085533, -756434.2, 798713.7, 0.00770976, 10.007748, 9.996282 
2.615794e+3, 1.5131015e+2, -753010.56, -1507467.5, 9437.25, 0.022566363, 0.26863575, -752892.56, 704295.2, 0.0037190272, 10.006833, 9.996785 
2.6156852e+3, 1.6130662e+2, -766786.94, -1438509.9, 10224.449, 0.029148657, 0.28878984, -766631.3, 592592.8, 0.0011129414, 10.00594, 9.997015 
2.6155764e+3, 1.7130357e+2, -755235.5, -1314798.8, 30150.621, 0.03557599, 0.30782706, -753615.56, 507639.78, 0.00011964992, 10.0050535, 9.997618 
2.615468e+3, 1.8130076e+2, -789598.0, -1289467.0, 30717.701, 0.03755142, 0.32698792, -787717.44, 375567.03, 0.0000004866416, 10.004182, 9.997539 
2.615359e+3, 1.912981e+2, -785456.44, -1189802.4, 31346.92, 0.04152944, 0.34731397, -783040.7, 282271.8, 0.0, 10.003337, 9.997956 
2.6152506e+3, 2.0129569e+2, -797641.75, -1127824.9, 31914.594, 0.041735485, 0.36534503, -794585.25, 172752.67, 0.0, 10.002506, 9.998109 
2.6151425e+3, 2.112936e+2, -780579.6, -1008258.7, 41209.47, 0.019839399, 0.37484214, -773350.4, 96008.96, 0.0, 10.001691, 9.99865 
2.6150343e+3, 2.2129177e+2, -791287.06, -948231.75, 42090.848, 0.004606292, 0.3817735, -780711.44, -9333.335, 0.0, 10.000881, 9.998778 
2.6149264e+3, 2.3129027e+2, -772190.0, -829464.3, 37032.125, 0.023320116, 0.38472822, -754014.06, -80620.86, 0.0, 10.000087, 9.999304 
2.6148182e+3, 2.4128905e+2, -774609.06, -758321.56, 40648.895, 0.037225295, 0.38574004, -725008.7, -149603.36, 0.0, 9.999304, 9.999496 
2.6147103e+3, 2.512882e+2, -744894.44, -630113.2, 38977.09, 0.021781264, 0.38018042, -618128.75, -140716.13, 0.0, 9.998563, 10.000062 
2.6146027e+3, 2.6128766e+2, -757183.0, -582838.9, 43195.164, 0.009947215, 0.37568438, -572723.8, -193306.5, 0.0, 9.997794, 10.000084 
2.6144955e+3, 2.7128744e+2, -752914.0, -476796.38, 35573.59, 0.022821086, 0.38046923, -472286.9, -190868.31, 0.0, 9.99692, 10.000561 
2.614388e+3, 2.812873e+2, -778341.44, -429808.1, 38545.375, 0.030656869, 0.36988384, -425596.13, -242177.3, 0.0, 9.996036, 10.000637 
2.61428e+3, 2.9128698e+2, -768107.94, -315538.47, 23795.188, 0.00041176204, 0.3023218, -314290.8, -228869.63, 0.0, 9.995178, 10.0011635 
2.6141718e+3, 3.0128747e+2, -781153.94, -244119.72, 6865.4727, -0.03141985, 0.28735027, -244031.97, -244031.97, 0.0, 9.9943, 10.001404 
2.6140642e+3, 3.112904e+2, -812855.2, -146875.4, -11971.487, 0.033112757, 0.45514756, -146660.28, -146660.28, 0.0, 9.993366, 10.002189 
2.6139554e+3, 3.2129014e+2, -905197.25, -64547.465, 2974.771, -0.027325872, 0.26754016, -64536.938, -64536.938, 0.0, 9.992187, 10.003323 
2.6260203e+3, 1.3142836e+2, -754975.9, -1649079.1, 34922.47, -0.00039949277, 0.2650139, -753613.9, 898413.56, 0.01072519, 10.008401, 9.996402 
2.6259103e+3, 1.4142399e+2, -779428.06, -1614323.6, 26049.844, 0.027255371, 0.25088078, -778616.06, 775454.44, 0.006738682, 10.007538, 9.996384 
2.6258e+3, 1.5142018e+2, -775646.75, -1505553.0, 49791.977, 0.021393009, 0.26748377, -772265.75, 683843.7, 0.0031859025, 10.006625, 9.996894 
2.62569e+3, 1.6141672e+2, -791450.94, -1440685.1, 58296.805, 0.02598481, 0.2866135, -786257.8, 571887.25, 0.00091398065, 10.005735, 9.997095 
2.6255807e+3, 1.714137e+2, -776262.3, -1318470.1, 68824.47, 0.038311042, 0.30712023, -767662.56, 492513.13, 0.00008829154, 10.004889, 9.997667 
2.625471e+3, 1.8141094e+2, -809670.0, -1297731.6, 61157.176, 0.04407183, 0.3271519, -802123.3, 360081.13, 0.00000023238118, 10.0040455, 9.997543 
2.6253617e+3, 1.914082e+2, -813039.4, -1206109.1, 69743.96, 0.043769736, 0.3451457, -801031.25, 263202.03, 0.0, 10.003168, 9.997922 
2.6252523e+3, 2.0140573e+2, -823446.0, -1138545.1, 79248.555, 0.040892053, 0.36143127, -804637.4, 161622.03, 0.0, 10.00233, 9.9981165 
2.6251432e+3, 2.1140367e+2, -791202.8, -1010858.1, 86079.945, 0.02055548, 0.37397915, -761488.8, 106791.76, 0.0, 10.001615, 9.998664 
2.6250345e+3, 2.2140184e+2, -790668.56, -950148.44, 83771.34, 0.005965775, 0.38445392, -754753.44, 15545.744, 0.0, 10.000903, 9.998751 
2.6249257e+3, 2.3140028e+2, -767681.5, -834224.75, 82814.81, 0.023120534, 0.38802966, -711704.6, -39389.383, 0.0, 10.000155, 9.999234 
2.6248172e+3, 2.4139898e+2, -764971.94, -758973.94, 90573.945, 0.03639698, 0.38938892, -671349.4, -97020.97, 0.0, 9.999401, 9.999442 
2.6247084e+3, 2.5139812e+2, -739647.4, -633918.75, 87820.36, 0.021475226, 0.3875686, -584279.1, -107942.85, 0.0, 9.998633, 9.999997 
2.6246002e+3, 2.6139745e+2, -751266.0, -583563.8, 89551.3, 0.00983561, 0.38538325, -544734.7, -166393.02, 0.0, 9.997858, 10.000044 
2.6244918e+3, 2.713971e+2, -735135.2, -471883.9, 82511.78, 0.023711925, 0.3832936, -448159.94, -167815.83, 0.0, 9.997066, 10.000521 
2.6243833e+3, 2.8139696e+2, -752169.5, -418471.3, 87649.41, 0.03164952, 0.36960036, -396850.13, -214505.05, 0.0, 9.996228, 10.000618 
2.6242748e+3, 2.913967e+2, -757001.25, -311958.53, 79128.555, -0.0047650766, 0.31778142, -298308.16, -213961.94, 0.0, 9.995269, 10.001141 
2.6241654e+3, 3.0139717e+2, -776823.7, -238764.61, 66361.93, -0.03806239, 0.30569646, -230700.66, -230700.66, 0.0, 9.994323, 10.001427 
2.6240572e+3, 3.113996e+2, -794014.25, -132715.2, 36957.414, 0.048970293, 0.41938016, -130656.22, -130656.22, 0.0, 9.993481, 10.002227 
2.623947e+3, 3.2139978e+2, -883727.75, -72975.13, 32335.332, -0.019536795, 0.28372595, -71687.55, -71687.55, 0.0, 9.992422, 10.003148 
2.636028e+3, 1.3153897e+2, -763578.9, -1667477.6, 5513.056, -0.0044583683, 0.24478973, -763545.25, 887397.94, 0.009382881, 10.008385, 9.996286 
2.6359174e+3, 1.415348e+2, -774053.2, -1599805.8, -4559.3438, 0.031002045, 0.2542015, -774028.0, 778956.8, 0.005826166, 10.007511, 9.996499 
2.6358062e+3, 1.5153122e+2, -760736.7, -1473450.1, 17947.383, 0.016624717, 0.27166885, -760285.0, 694736.2, 0.002694248, 10.006611, 9.997125 
2.6356953e+3, 1.615279e+2, -790440.56, -1439088.1, 27057.287, 0.01668312, 0.29061446, -789313.9, 567741.1, 0.0007381637, 10.00573, 9.997112 
2.635585e+3, 1.7152482e+2, -785407.75, -1336777.3, 38855.28, 0.041874573, 0.3117573, -782683.06, 476403.78, 0.000063824256, 10.004879, 9.99755 
2.6354748e+3, 1.8152197e+2, -810051.5, -1297857.9, 29986.025, 0.054877307, 0.3323288, -808215.1, 352901.56, 0.00000010407609, 10.004036, 9.997551 
2.6353642e+3, 1.9151932e+2, -807763.3, -1196967.0, 38036.336, 0.03833116, 0.35183072, -804080.94, 259063.58, 0.0, 10.00317, 9.997987 
2.6352543e+3, 2.0151688e+2, -822488.5, -1139599.1, 51479.6, 0.026489336, 0.3673371, -814340.7, 150829.38, 0.0, 10.0023365, 9.998109 
2.6351446e+3, 2.1151468e+2, -794809.56, -1020601.0, 60230.3, 0.02920493, 0.37089726, -779747.7, 87445.03, 0.0, 10.001618, 9.998599 
2.635035e+3, 2.2151276e+2, -791275.5, -953686.6, 56425.918, 0.028694343, 0.3774711, -773596.1, -4383.6753, 0.0, 10.000907, 9.998728 
2.6349252e+3, 2.3151134e+2, -767736.7, -836737.9, 54914.26, 0.018520739, 0.39684328, -737384.6, -66157.445, 0.0, 10.000159, 9.999218 
2.6348156e+3, 2.4151012e+2, -767893.06, -767493.75, 62648.39, 0.013104855, 0.40850815, -705044.7, -131805.05, 0.0, 9.999406, 9.999384 
2.6347065e+3, 2.51509e+2, -745405.7, -648221.8, 59457.996, 0.023029419, 0.39246657, -620025.56, -144775.77, 0.0, 9.998637, 9.999901 
2.6345974e+3, 2.6150817e+2, -752588.44, -588410.6, 61098.656, 0.028170161, 0.37720165, -568168.56, -190911.39, 0.0, 9.997861, 10.000012 
2.634488e+3, 2.715078e+2, -734662.3, -473663.56, 53872.246, 0.016709931, 0.37316018, -462981.13, -183721.17, 0.0, 9.99707, 10.000509 
2.634379e+3, 2.815077e+2, -745849.6, -408414.94, 55360.49, 0.0083748605, 0.36557007, -399564.47, -218304.3, 0.0, 9.996235, 10.000688 
2.6342693e+3, 2.9150787e+2, -750111.1, -298661.0, 44960.793, 0.0012637228, 0.34587112, -294226.8, -210970.0, 0.0, 9.995267, 10.001236 
2.6341596e+3, 3.015084e+2, -782567.7, -249839.2, 36790.11, -0.016597828, 0.33328646, -247310.5, -247310.5, 0.0, 9.994312, 10.001358 
2.63405e+3, 3.115094e+2, -805680.06, -157876.17, 8787.343, 0.023384681, 0.31966528, -157757.0, -157757.0, 0.0, 9.993478, 10.002059 
2.633939e+3, 3.2151118e+2, -835673.8, 24101.479, -20057.508, 0.00046353656, 0.3322858, 24569.143, 24569.143, 0.0, 9.992426, 10.003817 
2.6460359e+3, 1.3165085e+2, -799774.56, -1665601.8, 33759.813, 0.010751426, 0.25507897, -798460.2, 851387.1, 0.008121911, 10.008047, 9.996459 
2.6459238e+3, 1.4164671e+2, -831173.56, -1613819.0, 37965.527, 0.023734963, 0.25470454, -829336.2, 722552.06, 0.0049777, 10.007058, 9.996617 
2.645812e+3, 1.516432e+2, -802375.06, -1483937.1, 55241.504, 0.02230709, 0.273004, -797926.7, 655997.1, 0.0022463517, 10.006288, 9.997205 
2.6457006e+3, 1.6163997e+2, -820412.44, -1447957.1, 55901.906, 0.031682994, 0.29335624, -815471.6, 540485.4, 0.0005853429, 10.0055065, 9.997155 
2.645589e+3, 1.7163691e+2, -828729.06, -1355989.5, 73293.516, 0.045656405, 0.3157092, -818730.25, 439258.56, 0.000045268614, 10.004582, 9.997557 
2.645478e+3, 1.8163404e+2, -852431.6, -1311527.3, 73751.98, 0.049383353, 0.33536232, -840874.56, 319144.2, 0.000000045242018, 10.003724, 9.997603 
2.6453668e+3, 1.9163135e+2, -816016.5, -1193067.1, 83690.03, 0.033992723, 0.3475155, -798275.44, 263771.06, 0.0, 10.003087, 9.998049 
2.645256e+3, 2.0162891e+2, -810713.7, -1130528.0, 95419.19, 0.024019143, 0.35942447, -784408.25, 179663.66, 0.0, 10.002411, 9.998132 
2.6451457e+3, 2.1162675e+2, -809984.44, -1028884.7, 105949.34, 0.029897796, 0.3716157, -767104.0, 98990.266, 0.0, 10.001526, 9.998582 
2.645035e+3, 2.2162487e+2, -822414.44, -968833.5, 107793.06, 0.031257547, 0.38299432, -765320.56, 2793.476, 0.0, 10.000702, 9.998719 
2.6449248e+3, 2.3162332e+2, -775703.7, -842007.56, 106720.85, 0.015344434, 0.3944514, -697104.2, -26974.43, 0.0, 10.000119, 9.999197 
2.6448146e+3, 2.41622e+2, -754713.75, -763694.44, 111523.65, 0.0055934833, 0.40170234, -647590.1, -75447.055, 0.0, 9.999515, 9.999353 
2.6447046e+3, 2.5162092e+2, -728258.44, -645304.2, 108715.31, 0.020682143, 0.39316025, -570422.5, -96269.12, 0.0, 9.998786, 9.9998455 
2.6445946e+3, 2.6162004e+2, -732741.5, -579780.5, 109597.85, 0.028870687, 0.38266408, -522616.13, -146454.94, 0.0, 9.998009, 9.999997 
2.6444846e+3, 2.716196e+2, -728811.94, -471339.16, 99782.19, 0.008270402, 0.37329915, -437196.63, -159031.73, 0.0, 9.997121, 10.000498 
2.6443744e+3, 2.8161946e+2, -739849.9, -399569.44, 98948.84, -0.0042444915, 0.3644846, -372888.5, -192723.16, 0.0, 9.996258, 10.000733 
2.644264e+3, 2.9161984e+2, -710357.0, -272233.7, 83405.74, 0.006682589, 0.36052522, -256892.84, -174732.95, 0.0, 9.995516, 10.001294 
2.6441535e+3, 3.016204e+2, -737658.9, -232090.48, 68357.83, -0.0042978353, 0.35042623, -223010.9, -223010.9, 0.0, 9.994644, 10.001317 
2.6440424e+3, 3.1162077e+2, -827220.94, -179261.25, 41833.605, -0.0021703036, 0.2853903, -176571.56, -176571.56, 0.0, 9.993385, 10.001953 
2.6439312e+3, 3.2162324e+2, -803590.25, 100077.14, 10389.772, 0.026009966, 0.35886693, 100196.58, 100196.58, 0.0, 9.992393, 10.004351 
2.6560435e+3, 1.3176376e+2, -781985.0, -1619233.6, -3539.3193, 0.03764814, 0.2845562, -781970.06, 866771.7, 0.0069506513, 10.007991, 9.996809 
2.6559302e+3, 1.4175959e+2, -826096.25, -1602406.4, 7013.0796, 0.008623752, 0.25321478, -826032.9, 724749.25, 0.004198782, 10.007043, 9.996706 
2.6558176e+3, 1.5175606e+2, -809144.56, -1494540.6, 29132.037, 0.036192395, 0.272562, -807908.56, 644909.6, 0.001844601, 10.006265, 9.997146 
2.6557055e+3, 1.617528e+2, -820476.8, -1443813.8, 24943.127, 0.06483922, 0.29535785, -819480.3, 535371.25, 0.0004553061, 10.005481, 9.997199 
2.6555932e+3, 1.7174985e+2, -822737.0, -1344463.9, 39903.367, 0.048715398, 0.31924334, -819702.7, 437179.56, 0.000031686497, 10.00458, 9.997641 
2.655481e+3, 1.8174702e+2, -846123.3, -1302336.3, 47739.875, 0.030279346, 0.33642069, -841181.1, 317730.22, 0.000000023304436, 10.003735, 9.997664 
2.655369e+3, 1.9174424e+2, -813106.5, -1188495.5, 61547.42, 0.031174224, 0.33327037, -803273.0, 257666.81, 0.0, 10.003088, 9.998083 
2.655258e+3, 2.0174176e+2, -809191.1, -1127756.0, 65904.49, 0.032258075, 0.33901337, -796095.25, 166870.11, 0.0, 10.002407, 9.998156 
2.655146e+3, 2.1173987e+2, -809088.6, -1028872.5, 72612.016, 0.02235967, 0.37644777, -787265.94, 77719.48, 0.0, 10.001528, 9.998584 
2.6550353e+3, 2.217381e+2, -823109.6, -972677.1, 82751.805, 0.01387334, 0.40085232, -786356.5, -19352.387, 0.0, 10.000707, 9.998693 
2.6549244e+3, 2.317362e+2, -778298.56, -849963.25, 85826.086, 0.014398512, 0.3797969, -721125.1, -52102.055, 0.0, 10.000124, 9.999144 
2.6548135e+3, 2.4173464e+2, -755364.3, -767862.8, 86592.51, 0.014885501, 0.367155, -674795.9, -103757.25, 0.0, 9.999521, 9.999325 
2.654703e+3, 2.517338e+2, -729453.25, -650593.9, 81606.875, 0.013055525, 0.38996914, -599390.4, -126343.61, 0.0, 9.998792, 9.999809 
2.654592e+3, 2.6173317e+2, -733633.56, -584085.94, 78815.52, 0.008955046, 0.4042259, -550218.1, -175165.17, 0.0, 9.9980135, 9.999969 
2.654481e+3, 2.717326e+2, -731523.94, -478017.0, 66972.52, -0.0011372244, 0.38580674, -461411.6, -184353.7, 0.0, 9.997119, 10.000456 
2.6543698e+3, 2.8173232e+2, -741120.8, -402670.4, 71407.08, -0.003441125, 0.3665759, -388221.6, -209161.88, 0.0, 9.996254, 10.000717 
2.654259e+3, 2.917326e+2, -709717.44, -275123.0, 57739.246, 0.010407512, 0.35626495, -267582.7, -186527.44, 0.0, 9.995527, 10.001272 
2.6541474e+3, 3.0173326e+2, -737095.0, -235924.83, 27026.38, -0.00475257, 0.35560858, -234471.61, -234471.61, 0.0, 9.994659, 10.0012865 
2.6540348e+3, 3.1173417e+2, -834693.9, -188900.97, -6418.137, -0.02645491, 0.3505806, -188837.19, -188837.19, 0.0, 9.993353, 10.001905 
2.653923e+3, 3.217357e+2, -787247.75, 136507.45, 2294.1711, 0.05557759, 0.32668582, 136513.16, 136513.16, 0.0, 9.992374, 10.004614 
2.6660505e+3, 1.3187732e+2, -866981.0, -1639303.4, 28860.824, 0.052002214, 0.2897133, -865904.0, 781725.6, 0.0058750166, 10.007311, 9.996994 
2.6659366e+3, 1.4187327e+2, -866149.06, -1606221.8, 30290.848, 0.01615668, 0.2565709, -864911.4, 684757.2, 0.0034931314, 10.006702, 9.996841 
2.665823e+3, 1.518699e+2, -868981.25, -1512217.8, 59588.91, 0.046791878, 0.2815521, -863507.56, 588195.56, 0.0014902272, 10.005809, 9.99724 
2.6657102e+3, 1.6186671e+2, -886884.3, -1466613.3, 64264.91, 0.07542575, 0.30554155, -879845.75, 473889.94, 0.00034721397, 10.0049925, 9.997274 
2.665597e+3, 1.7186366e+2, -844534.75, -1348157.4, 78895.45, 0.04631903, 0.31680033, -832464.6, 423302.28, 0.000022080225, 10.004409, 9.997693 
2.665484e+3, 1.818608e+2, -836110.2, -1288290.3, 83814.59, 0.019721117, 0.32622188, -821074.56, 336721.56, 0.00000001940491, 10.003772, 9.997739 
2.6653716e+3, 1.9185816e+2, -837079.0, -1191512.5, 98845.33, 0.030790681, 0.33124563, -811376.56, 248446.66, 0.0, 10.002894, 9.998152 
2.6652595e+3, 2.0185576e+2, -853818.5, -1145452.8, 105556.7, 0.038193237, 0.3421274, -819622.1, 142225.77, 0.0, 10.002091, 9.998182 
2.6651472e+3, 2.1185382e+2, -808021.2, -1028345.0, 111410.01, 0.018347528, 0.3744389, -761505.56, 102363.02, 0.0, 10.001543, 9.998576 
2.665035e+3, 2.2185199e+2, -787645.94, -952461.5, 121861.27, 0.003329227, 0.39547545, -722944.2, 42943.613, 0.0, 10.000944, 9.9987135 
2.664924e+3, 2.318501e+2, -777579.4, -847490.56, 128878.59, 0.0117513975, 0.3760006, -679000.0, -11093.45, 0.0, 10.000128, 9.999155 
2.6648122e+3, 2.4184853e+2, -786419.8, -786881.1, 130980.836, 0.018730445, 0.36509368, -655669.4, -85747.21, 0.0, 9.999332, 9.999281 
2.664701e+3, 2.5184765e+2, -758823.9, -673482.94, 120796.57, 0.01454207, 0.39213952, -588041.8, -116110.51, 0.0, 9.998635, 9.999723 
2.6645893e+3, 2.61847e+2, -747782.6, -591896.7, 111878.055, 0.0076045147, 0.41029137, -533487.9, -159549.64, 0.0, 9.997928, 9.999952 
2.6644775e+3, 2.7184638e+2, -723528.1, -473716.34, 99893.84, -0.0026683828, 0.39223474, -438683.94, -162740.69, 0.0, 9.997179, 10.000453 
2.6643658e+3, 2.8184608e+2, -719756.4, -393371.56, 107631.96, -0.0055276495, 0.37239635, -361073.8, -183128.45, 0.0, 9.996412, 10.000701 
2.664254e+3, 2.9184628e+2, -697358.75, -272938.72, 92102.03, 0.0038981277, 0.35958785, -253813.75, -173871.89, 0.0, 9.995635, 10.001231 
2.6641417e+3, 3.018469e+2, -711472.56, -216731.83, 50622.867, -0.012213068, 0.35973805, -211605.13, -211605.13, 0.0, 9.994813, 10.001341 
2.6640278e+3, 3.11848e+2, -753963.7, -139963.2, 21125.754, -0.02264693, 0.36806348, -139237.19, -139237.19, 0.0, 9.993871, 10.001989 
2.6639152e+3, 3.218491e+2, -710149.7, 131061.05, 49130.563, 0.061731517, 0.30747667, 133920.77, 133920.77, 0.0, 9.9930935, 10.004226 
2.6760575e+3, 1.319915e+2, -860443.9, -1632082.5, 12371.154, 0.05843572, 0.27944982, -860245.6, 786265.6, 0.004897577, 10.007325, 9.99704 
2.6759425e+3, 1.419877e+2, -858947.0, -1587094.1, 2809.9302, 0.039318267, 0.26391476, -858936.1, 689611.75, 0.0028618397, 10.006674, 9.996989 
2.6758283e+3, 1.5198459e+2, -855573.8, -1485735.0, 27631.043, 0.054130808, 0.29754502, -854364.56, 596215.1, 0.0011826108, 10.005808, 9.997426 
2.6757145e+3, 1.6198157e+2, -879500.56, -1455718.6, 40349.78, 0.06862202, 0.3213881, -876688.8, 475921.72, 0.00025935116, 10.005005, 9.997346 
2.675601e+3, 1.719783e+2, -845017.25, -1348690.9, 59292.473, 0.040070027, 0.30904725, -838131.5, 416511.97, 0.000015416514, 10.004401, 9.997697 
2.675487e+3, 1.8197533e+2, -833836.7, -1280881.4, 55366.33, 0.016386425, 0.30709654, -827081.6, 329591.7, 0.000000020470118, 10.003755, 9.997801 
2.675374e+3, 1.9197306e+2, -831780.75, -1181540.5, 66311.78, 0.0322348, 0.3406741, -819630.6, 239066.64, 0.0, 10.0028925, 9.998223 
2.675261e+3, 2.0197086e+2, -852259.9, -1145349.4, 82147.62, 0.04180172, 0.36634043, -830805.8, 129914.42, 0.0, 10.002099, 9.998182 
2.6751482e+3, 2.1196854e+2, -810059.25, -1034878.56, 91996.01, 0.017791102, 0.36503026, -777213.25, 85530.98, 0.0, 10.001548, 9.998532 
2.6750353e+3, 2.219665e+2, -784039.4, -946955.4, 94417.71, -0.0005739909, 0.3674551, -740797.25, 23967.889, 0.0, 10.000947, 9.998753 
2.6749232e+3, 2.3196504e+2, -773102.3, -839949.0, 97835.61, 0.00699548, 0.38457316, -703138.4, -36358.4, 0.0, 10.000129, 9.999208 
2.674811e+3, 2.4196371e+2, -792677.25, -800737.0, 103894.29, 0.016823256, 0.3978019, -692734.7, -123941.21, 0.0, 9.9993305, 9.99919 
2.6746988e+3, 2.5196245e+2, -770853.2, -699019.0, 95077.5, 0.02682286, 0.39924082, -633300.6, -162493.69, 0.0, 9.998632, 9.999553 
2.6745868e+3, 2.6196146e+2, -749826.3, -596586.56, 84911.96, 0.027823027, 0.3981749, -558835.75, -186018.72, 0.0, 9.997924, 9.999925 
2.674474e+3, 2.71961e+2, -722031.7, -471971.72, 72331.74, 0.004881775, 0.3917048, -452556.63, -177736.1, 0.0, 9.997179, 10.000467 
2.6743615e+3, 2.819608e+2, -722022.2, -400458.3, 79788.57, -0.011883213, 0.3831931, -381749.16, -204927.7, 0.0, 9.996416, 10.000653 
2.6742488e+3, 2.9196092e+2, -703768.4, -287381.66, 63424.85, -0.016634466, 0.37333497, -277935.0, -199116.2, 0.0, 9.995634, 10.001136 
2.6741356e+3, 3.0196142e+2, -700817.25, -195904.2, 18564.227, -0.02816994, 0.36057538, -195222.56, -195222.56, 0.0, 9.994812, 10.001487 
2.6740217e+3, 3.1196222e+2, -731417.3, -103127.555, -10873.187, 0.023443947, 0.31270438, -102939.44, -102939.44, 0.0, 9.993907, 10.002228 
2.6739076e+3, 3.2196373e+2, -801082.8, -74917.76, 35115.12, 0.020399353, 0.32693812, -73223.65, -73223.65, 0.0, 9.993161, 10.002782 
2.686064e+3, 1.3210674e+2, -876988.8, -1632140.1, 44538.92, 0.05363379, 0.27660924, -874371.0, 771011.3, 0.0040176925, 10.007177, 9.9971075 
2.6859486e+3, 1.4210321e+2, -924510.75, -1607421.4, 39425.523, 0.040879123, 0.28267825, -922242.2, 625174.4, 0.0023033903, 10.006177, 9.997086 
2.6858336e+3, 1.5210006e+2, -879256.75, -1485268.4, 61959.42, 0.0482883, 0.303585, -872986.8, 576461.75, 0.00091935165, 10.0056, 9.997525 
2.6857188e+3, 1.6209702e+2, -876152.7, -1439288.6, 69808.52, 0.05920702, 0.3168807, -867628.0, 483851.25, 0.00018930617, 10.004971, 9.997471 
2.6856044e+3, 1.7209387e+2, -884843.75, -1353763.6, 94523.64, 0.04185987, 0.3054356, -866506.94, 387003.72, 0.000010787654, 10.004074, 9.997815 
2.68549e+3, 1.82091e+2, -902241.8, -1309259.3, 95942.21, 0.024813639, 0.30533054, -880760.06, 274779.5, 0.000000019572694, 10.003272, 9.997834 
2.685376e+3, 1.9208872e+2, -853933.9, -1193166.4, 101840.22, 0.03163273, 0.342997, -825709.06, 231854.75, 0.0, 10.002752, 9.998208 
2.6852626e+3, 2.0208655e+2, -835341.2, -1128452.8, 115487.62, 0.035901204, 0.3703681, -795306.56, 164280.27, 0.0, 10.002186, 9.998252 
2.685149e+3, 2.1208423e+2, -823171.75, -1030678.4, 133781.2, 0.019459303, 0.36152422, -757626.0, 103984.31, 0.0, 10.00142, 9.998619 
2.6850358e+3, 2.2208218e+2, -823064.56, -967083.56, 138788.88, 0.0060854484, 0.3600002, -738716.4, 24914.713, 0.0, 10.000692, 9.9987335 
2.6849225e+3, 2.3208073e+2, -784196.3, -853159.3, 130912.9, 0.009288879, 0.38776976, -683299.94, -17653.693, 0.0, 10.000094, 9.999131 
2.68481e+3, 2.4207942e+2, -775062.5, -793157.56, 131646.53, 0.015596444, 0.40918326, -652152.94, -84492.86, 0.0, 9.999463, 9.999174 
2.684697e+3, 2.520781e+2, -757763.8, -693075.4, 133227.83, 0.025892245, 0.40635043, -588321.8, -118647.766, 0.0, 9.998731, 9.999542 
2.6845843e+3, 2.62077e+2, -739747.5, -592707.25, 130214.25, 0.028782105, 0.39919105, -516691.56, -145006.61, 0.0, 9.998005, 9.999908 
2.6844707e+3, 2.7207643e+2, -704282.25, -466936.34, 112516.016, 0.010283334, 0.38688257, -422076.06, -148386.77, 0.0, 9.997323, 10.000429 
2.6843575e+3, 2.8207618e+2, -699749.5, -390407.47, 113874.4, -0.007938963, 0.3784262, -353009.47, -177318.92, 0.0, 9.996579, 10.00064 
2.6842436e+3, 2.9207644e+2, -700024.6, -287555.34, 99744.266, -0.029590644, 0.38201922, -264701.25, -187014.16, 0.0, 9.995675, 10.001111 
2.6841298e+3, 3.0207688e+2, -685987.4, -186302.67, 58609.816, -0.04003172, 0.36789483, -179520.17, -179520.17, 0.0, 9.99491, 10.001503 
2.6840156e+3, 3.1207725e+2, -631838.0, -51923.977, 12942.792, 0.06553128, 0.27803665, -51635.258, -51635.258, 0.0, 9.994582, 10.002251 
2.6839e+3, 3.22079e+2, -756525.8, -129890.26, 59952.83, -0.010869374, 0.34338692, -124205.88, -124205.88, 0.0, 9.993803, 10.002091 
2.6960704e+3, 1.3222289e+2, -874208.56, -1624442.5, 2853.1106, 0.041002188, 0.27967998, -874197.7, 770046.75, 0.0032330926, 10.007157, 9.997172 
2.6959538e+3, 1.4221965e+2, -920092.4, -1601643.3, 13451.577, 0.027150065, 0.3085938, -919827.0, 626449.25, 0.0018146958, 10.006183, 9.997126 
2.6958382e+3, 1.5221623e+2, -879100.0, -1484603.5, 43628.063, 0.0329371, 0.301527, -875972.6, 572337.9, 0.00069706206, 10.005591, 9.997537 
2.6957232e+3, 1.6221309e+2, -867672.4, -1419428.0, 41221.62, 0.048070073, 0.29756218, -864609.75, 485732.25, 0.00013447923, 10.004955, 9.997618 
2.6956078e+3, 1.722103e+2, -871288.25, -1326998.8, 61503.426, 0.05018415, 0.30602098, -863133.56, 389235.78, 0.0000075185, 10.004074, 9.998002 
2.6954928e+3, 1.8220767e+2, -901746.56, -1311989.6, 73186.65, 0.04244523, 0.31763664, -889081.25, 265314.66, 0.00000001527414, 10.003283, 9.997813 
2.695378e+3, 1.9220515e+2, -861105.44, -1210284.0, 83730.35, 0.02875372, 0.33840877, -842065.7, 214357.48, 0.0, 10.002756, 9.998091 
2.6952636e+3, 2.0220284e+2, -826904.2, -1112177.1, 89955.15, 0.021640569, 0.35637915, -800907.7, 157540.0, 0.0, 10.002186, 9.998367 
2.6951498e+3, 2.1220085e+2, -809471.44, -1003979.3, 104912.08, 0.023665698, 0.36443338, -763669.94, 96797.16, 0.0, 10.001422, 9.998804 
2.695036e+3, 2.22199e+2, -829999.7, -983468.0, 114816.37, 0.02304302, 0.37266758, -768636.3, -6150.498, 0.0, 10.000695, 9.998623 
2.6949224e+3, 2.3219717e+2, -800274.1, -888712.75, 108757.12, 0.018632343, 0.38457397, -727090.5, -62584.9, 0.0, 10.000098, 9.998888 
2.6948085e+3, 2.4219564e+2, -770491.25, -786190.2, 105688.46, 0.014458018, 0.3980289, -672361.2, -105839.07, 0.0, 9.999469, 9.999223 
2.694695e+3, 2.521946e+2, -746748.25, -672247.7, 105804.836, 0.009425567, 0.41445133, -597327.4, -128795.086, 0.0, 9.9987335, 9.999686 
2.6945812e+3, 2.621937e+2, -741775.9, -598675.94, 105083.92, 0.0073384726, 0.41533843, -543095.94, -172554.84, 0.0, 9.998007, 9.999869 
2.6944676e+3, 2.7219275e+2, -712630.25, -486622.88, 87877.85, 0.013710755, 0.3759946, -456475.06, -183926.06, 0.0, 9.997328, 10.000295 
2.6943535e+3, 2.8219226e+2, -698570.4, -389780.9, 83005.58, 0.009420877, 0.35369253, -368882.56, -194330.23, 0.0, 9.996582, 10.000647 
2.6942387e+3, 2.9219285e+2, -698258.25, -282870.53, 66369.734, -0.032365248, 0.38419792, -272523.84, -195978.05, 0.0, 9.995665, 10.001151 
2.6941237e+3, 3.0219337e+2, -700746.25, -217810.05, 43639.79, -0.047262203, 0.38540825, -213898.28, -213898.28, 0.0, 9.994908, 10.00129 
2.69401e+3, 3.1219324e+2, -645516.94, -95841.72, 3745.147, 0.09981911, 0.27523273, -95816.2, -95816.2, 0.0, 9.994643, 10.001923 
2.693893e+3, 3.2219508e+2, -713818.25, -52564.254, -3863.2603, -0.018638825, 0.34757853, -52541.684, -52541.684, 0.0, 9.993845, 10.002605 
2.7060765e+3, 1.3233994e+2, -930269.06, -1645986.8, 19661.26, 0.040290557, 0.2993934, -929729.3, 713368.8, 0.0025418885, 10.006749, 9.997218 
2.705959e+3, 1.4233656e+2, -938234.2, -1595610.9, 37716.316, 0.017607091, 0.30873784, -936077.3, 609053.9, 0.0013925864, 10.005998, 9.997252 
2.7058432e+3, 1.5233327e+2, -917652.5, -1487278.1, 78009.29, 0.028055638, 0.30142638, -907162.44, 540001.44, 0.00051233877, 10.005263, 9.997673 
2.705727e+3, 1.6233023e+2, -918083.8, -1433179.6, 75288.62, 0.046627186, 0.2986308, -907304.9, 441889.1, 0.000092475864, 10.00457, 9.997705 
2.705611e+3, 1.7232755e+2, -888485.44, -1328150.3, 86676.24, 0.048179973, 0.31091955, -872015.0, 379205.5, 0.000005153092, 10.003933, 9.998058 
2.7054954e+3, 1.8232496e+2, -898238.7, -1306791.9, 97995.86, 0.04056945, 0.324591, -875949.4, 277297.3, 0.00000000870238, 10.003299, 9.997837 
2.70538e+3, 1.9232236e+2, -878789.9, -1218449.5, 116804.74, 0.027527217, 0.34024692, -842499.56, 212775.17, 0.0, 10.002641, 9.998087 
2.7052653e+3, 2.0232002e+2, -849557.5, -1115739.8, 123098.32, 0.02112408, 0.3551031, -801357.56, 155941.94, 0.0, 10.002006, 9.9984255 
2.7051505e+3, 2.1231817e+2, -807493.3, -995042.7, 127945.03, 0.025657237, 0.36834767, -742637.5, 116680.11, 0.0, 10.001409, 9.998868 
2.705036e+3, 2.2231634e+2, -816470.3, -977103.4, 135829.7, 0.027234778, 0.37944213, -738988.06, 22347.697, 0.0, 10.000796, 9.998613 
2.7049217e+3, 2.323144e+2, -799595.2, -893728.56, 142936.38, 0.022113392, 0.3851727, -696175.75, -32818.797, 0.0, 10.0001335, 9.998833 
2.7048075e+3, 2.4231277e+2, -771558.3, -785641.7, 144216.97, 0.016916791, 0.39537534, -634211.25, -68836.76, 0.0, 9.999464, 9.999225 
2.704693e+3, 2.5231183e+2, -740414.4, -667699.2, 132121.17, 0.010981786, 0.4187755, -567024.4, -99640.44, 0.0, 9.998778, 9.999693 
2.7045786e+3, 2.6231095e+2, -729967.94, -591922.0, 125975.75, 0.009059369, 0.4237126, -517299.38, -147907.13, 0.0, 9.998091, 9.999872 
2.7044645e+3, 2.723099e+2, -702481.9, -483539.06, 116029.336, 0.020052684, 0.37883338, -433489.94, -162089.3, 0.0, 9.997413, 10.000272 
2.7043495e+3, 2.823093e+2, -680693.1, -380216.25, 110961.59, 0.01779655, 0.3469131, -343681.94, -170277.05, 0.0, 9.996707, 10.000648 
2.7042338e+3, 2.923097e+2, -657491.1, -263441.13, 87281.88, -0.031184852, 0.36029863, -244973.72, -169573.84, 0.0, 9.995953, 10.0011425 
2.7041182e+3, 3.0231017e+2, -665431.44, -218386.88, 75143.99, -0.04793736, 0.3672481, -206093.92, -206093.92, 0.0, 9.995234, 10.001126 
2.704004e+3, 3.1231043e+2, -660729.3, -129496.516, 46045.543, 0.11197931, 0.31889045, -125534.98, -125534.98, 0.0, 9.994659, 10.00168 
2.7038863e+3, 3.2231176e+2, -681095.3, 17722.791, -4391.6763, -0.017355645, 0.34180015, 17750.389, 17750.389, 0.0, 9.993842, 10.003086 
2.7160826e+3, 1.3245775e+2, -932200.3, -1646642.0, -7076.909, 0.046803527, 0.32789466, -932130.25, 709814.44, 0.0019429924, 10.006724, 9.997229 
2.7159643e+3, 1.4245398e+2, -926251.7, -1571710.5, 11754.947, 0.010806458, 0.2916227, -926037.7, 617943.6, 0.0010347093, 10.005995, 9.997421 
2.7158478e+3, 1.524511e+2, -902960.06, -1457760.8, 51957.07, 0.030765455, 0.30383348, -898136.25, 547873.25, 0.00036242773, 10.005261, 9.99788 
2.715731e+3, 1.6244832e+2, -916698.4, -1431455.4, 50908.906, 0.052021682, 0.31473547, -911711.9, 436324.72, 0.00006127696, 10.004569, 9.997721 
2.715614e+3, 1.724455e+2, -892778.4, -1338440.6, 64122.79, 0.037452895, 0.3185797, -883735.75, 366329.06, 0.0000034092577, 10.003933, 9.99799 
2.715498e+3, 1.8244284e+2, -894511.0, -1300656.5, 74762.88, 0.022924174, 0.32720405, -881185.94, 270906.06, 0.0000000029959764, 10.003301, 9.997882 
2.715382e+3, 1.9244038e+2, -873121.75, -1208573.5, 93007.375, 0.028371543, 0.3479879, -849060.4, 205058.28, 0.0, 10.002644, 9.998156 
2.7152666e+3, 2.0243809e+2, -850195.3, -1119091.0, 100740.41, 0.032629363, 0.36521578, -816640.6, 139502.13, 0.0, 10.002008, 9.998404 
2.7151513e+3, 2.124361e+2, -811923.0, -1006308.6, 105967.414, 0.024872905, 0.3729189, -765325.94, 92836.305, 0.0, 10.001412, 9.998792 
2.7150363e+3, 2.2243424e+2, -810262.94, -966235.25, 111741.02, 0.018617254, 0.38069674, -751985.0, 8195.899, 0.0, 10.0008, 9.99869 
2.7149212e+3, 2.3243245e+2, -790589.5, -876940.6, 118027.05, 0.0197679, 0.39010143, -708088.9, -45888.64, 0.0, 10.000136, 9.998949 
2.7148065e+3, 2.4243088e+2, -776954.44, -798295.8, 119063.89, 0.02383534, 0.4015238, -668084.06, -103867.016, 0.0, 9.999465, 9.99914 
2.7146915e+3, 2.524297e+2, -752397.1, -694121.4, 106327.4, 0.03343833, 0.4182647, -613011.6, -146782.48, 0.0, 9.99878, 9.999513 
2.7145764e+3, 2.624287e+2, -727021.75, -587492.75, 100441.43, 0.037370324, 0.42363754, -534964.3, -166725.77, 0.0, 9.998093, 9.999904 
2.714461e+3, 2.7242798e+2, -696123.6, -471564.78, 90704.23, 0.028941115, 0.39961454, -439504.6, -169261.06, 0.0, 9.997412, 10.000357 
2.7143455e+3, 2.8242734e+2, -683212.44, -386655.9, 84406.32, 0.014534008, 0.36211506, -364315.1, -192067.8, 0.0, 9.996707, 10.000607 
2.7142292e+3, 2.9242688e+2, -662914.44, -278554.78, 59507.777, -0.02422123, 0.29953042, -269552.44, -195302.5, 0.0, 9.995964, 10.001037 
2.7141127e+3, 3.024272e+2, -671251.8, -235217.67, 51574.625, -0.04026326, 0.3009365, -229200.4, -229200.4, 0.0, 9.995248, 10.001006 
2.7139977e+3, 3.1242913e+2, -673138.25, -151976.77, 24516.873, 0.09022329, 0.43322283, -150825.97, -150825.97, 0.0, 9.994639, 10.001539 
2.7138796e+3, 3.2242906e+2, -659954.75, 67600.65, -48723.19, 0.00449081, 0.30967644, 70849.06, 70849.06, 0.0, 9.99381, 10.0034485 
2.7260885e+3, 1.32576e+2, -992454.75, -1659774.3, 20909.527, 0.04493671, 0.32827395, -991800.2, 648985.9, 0.0014353973, 10.006244, 9.997367 
2.7259696e+3, 1.425724e+2, -962093.25, -1575537.3, 39273.96, 0.00082052586, 0.2964172, -959589.06, 583232.06, 0.0007393783, 10.005694, 9.997537 
2.725852e+3, 1.525696e+2, -935003.44, -1462387.5, 72192.34, 0.02408535, 0.3100849, -925299.75, 519548.63, 0.00024508993, 10.005, 9.997971 
2.725735e+3, 1.6256692e+2, -942500.1, -1431689.6, 70591.82, 0.04793768, 0.3201788, -932517.2, 414357.5, 0.000039052622, 10.004346, 9.997824 
2.7256173e+3, 1.7256412e+2, -913941.94, -1338045.0, 93922.04, 0.033372648, 0.31787887, -894072.8, 354829.56, 0.000002123734, 10.003749, 9.998078 
2.7255005e+3, 1.8256147e+2, -911898.3, -1302896.8, 109754.164, 0.01965345, 0.32294136, -883196.94, 267732.3, 0.00000000041779538, 10.003161, 9.997931 
2.725384e+3, 1.9255903e+2, -883982.1, -1210450.8, 124597.914, 0.028891213, 0.34634084, -841862.9, 211092.72, 0.0, 10.002562, 9.998179 
2.725268e+3, 2.0255677e+2, -854483.0, -1117725.8, 131991.23, 0.03539241, 0.36508542, -799701.94, 155277.55, 0.0, 10.001972, 9.998427 
2.725152e+3, 2.1255477e+2, -816120.4, -1007949.56, 142045.03, 0.024564547, 0.3713606, -740639.5, 116359.74, 0.0, 10.001389, 9.998788 
2.725036e+3, 2.225529e+2, -812299.94, -964132.3, 146601.16, 0.018284889, 0.37946466, -723124.75, 35893.445, 0.0, 10.00078, 9.99871 
2.7249205e+3, 2.3255114e+2, -795435.2, -876324.6, 143809.14, 0.027824849, 0.39343327, -686491.7, -25454.693, 0.0, 10.000098, 9.998968 
2.7248052e+3, 2.4254961e+2, -779895.1, -799211.5, 143306.05, 0.036490332, 0.40642452, -645922.2, -82868.56, 0.0, 9.99945, 9.999137 
2.7246898e+3, 2.5254834e+2, -739265.56, -691050.5, 140477.23, 0.041137423, 0.41747272, -572627.2, -107560.64, 0.0, 9.998892, 9.999477 
2.724574e+3, 2.6254728e+2, -702598.9, -577286.4, 136205.7, 0.043057162, 0.4184955, -490016.63, -122939.93, 0.0, 9.998275, 9.999883 
2.724458e+3, 2.7254647e+2, -682274.4, -468027.8, 115087.766, 0.038079813, 0.3957481, -417923.25, -148841.39, 0.0, 9.997528, 10.000321 
2.7243415e+3, 2.825458e+2, -667871.44, -384173.4, 103973.45, 0.022327755, 0.35757285, -350148.56, -179062.58, 0.0, 9.996841, 10.000555 
2.7242246e+3, 2.9254514e+2, -616367.75, -264416.28, 80272.76, -0.025646698, 0.28547618, -246972.33, -173882.39, 0.0, 9.996326, 10.000956 
2.7241078e+3, 3.0254534e+2, -613825.4, -215707.0, 70736.18, -0.046160024, 0.28383175, -203512.39, -203512.39, 0.0, 9.995685, 10.000927 
2.7239916e+3, 3.125474e+2, -661866.44, -155615.72, 45243.105, 0.08468565, 0.43675143, -151604.17, -151604.17, 0.0, 9.994762, 10.0014515 
2.723873e+3, 3.225471e+2, -602306.8, 97298.97, -34619.453, 0.024264269, 0.3024739, 99007.914, 99007.914, 0.0, 9.994204, 10.003459 
2.7360937e+3, 1.3269477e+2, -976985.5, -1630108.5, 4063.307, 0.037340455, 0.3122858, -976960.2, 662662.06, 0.0010174918, 10.006247, 9.997572 
2.7359745e+3, 1.4269167e+2, -960026.2, -1569213.0, 15778.506, -0.011251856, 0.31587958, -959617.8, 582034.7, 0.00050438714, 10.005678, 9.99759 
2.7358562e+3, 1.5268876e+2, -936899.94, -1465310.9, 48015.0, 0.010548557, 0.31816542, -932572.44, 511108.72, 0.0001575297, 10.00499, 9.997957 
2.7357382e+3, 1.62686e+2, -931664.2, -1409709.9, 48846.613, 0.036811553, 0.31765863, -926724.1, 418983.9, 0.0000239269, 10.004343, 9.997978 
2.7356204e+3, 1.7268334e+2, -899925.56, -1310702.5, 72843.8, 0.03485804, 0.31081313, -887390.56, 360343.06, 0.0000012255374, 10.003751, 9.998267 
2.735503e+3, 1.826808e+2, -909093.6, -1299344.1, 87937.81, 0.027878754, 0.3130228, -890193.3, 259565.69, 0.0000000000007307137, 10.003166, 9.997955 
2.735386e+3, 1.9267835e+2, -885676.1, -1216131.0, 102744.95, 0.028569818, 0.3366028, -856335.75, 195450.06, 0.0, 10.002566, 9.99814 
2.7352694e+3, 2.0267609e+2, -850518.2, -1111529.0, 110460.84, 0.03021264, 0.35593724, -810046.25, 143763.61, 0.0, 10.001976, 9.99847 
2.7351528e+3, 2.1267416e+2, -812358.7, -1001807.06, 120409.984, 0.025065357, 0.36418185, -753879.6, 101949.25, 0.0, 10.001391, 9.998832 
2.7350363e+3, 2.2267231e+2, -816009.9, -973317.75, 121907.38, 0.026379636, 0.37560695, -749585.06, 8262.535, 0.0, 10.000781, 9.998649 
2.7349204e+3, 2.3267053e+2, -802494.75, -892475.3, 118047.47, 0.046624415, 0.39509028, -721154.8, -61287.477, 0.0, 10.000099, 9.998859 
2.7348042e+3, 2.4266896e+2, -774497.44, -789621.3, 121555.39, 0.054308616, 0.41043732, -660269.0, -98384.77, 0.0, 9.999452, 9.999205 
2.7346876e+3, 2.5266773e+2, -731259.25, -676558.56, 119965.38, 0.031189403, 0.41656694, -580865.25, -116969.44, 0.0, 9.998896, 9.9995775 
2.7345714e+3, 2.6266655e+2, -710141.9, -595105.8, 110316.125, 0.022480605, 0.40661582, -528213.4, -162307.0, 0.0, 9.998279, 9.999761 
2.734455e+3, 2.7266538e+2, -696957.6, -499545.1, 86711.734, 0.048482507, 0.36051026, -466867.0, -198951.02, 0.0, 9.997527, 10.000108 
2.734338e+3, 2.8266457e+2, -673547.5, -397418.38, 83220.48, 0.043996636, 0.32972327, -374276.63, -204355.42, 0.0, 9.996842, 10.000466 
2.7342203e+3, 2.9266468e+2, -618548.56, -274531.2, 61663.77, -0.039280508, 0.33771685, -263812.16, -191894.19, 0.0, 9.996345, 10.00088 
2.7341023e+3, 3.0266476e+2, -613910.4, -221903.42, 38877.836, -0.07054066, 0.33050328, -218084.84, -218084.84, 0.0, 9.995705, 10.000877 
2.7339858e+3, 3.126646e+2, -666724.3, -163495.03, 9102.399, 0.10455685, 0.2683978, -163330.44, -163330.44, 0.0, 9.994747, 10.001408 
2.7338666e+3, 3.2266647e+2, -638948.06, 12261.919, -27067.594, 0.03286847, 0.3717348, 13385.049, 13385.049, 0.0, 9.994236, 10.002862 
2.7460992e+3, 1.3281435e+2, -1016511.1, -1636940.9, 27410.13, 0.027384613, 0.30999467, -1015302.5, 623147.7, 0.0006857854, 10.005925, 9.997677 
2.745979e+3, 1.4281136e+2, -1014655.6, -1582057.1, 35771.66, -0.0052704825, 0.31571245, -1012409.3, 528070.1, 0.0003254798, 10.00525, 9.997705 
2.7458602e+3, 1.5280855e+2, -981473.94, -1475405.9, 74393.766, 0.010574296, 0.31824896, -970512.4, 471994.88, 0.00009565019, 10.004641, 9.998054 
2.7457416e+3, 1.6280589e+2, -961697.94, -1410272.4, 80337.19, 0.032695998, 0.3166549, -947744.06, 396789.3, 0.000013983672, 10.004082, 9.998096 
2.7456236e+3, 1.7280328e+2, -917394.5, -1306415.4, 100264.875, 0.033392157, 0.30634966, -893073.1, 353484.75, 0.0000006461679, 10.003583, 9.998375 
2.7455053e+3, 1.828008e+2, -919222.94, -1297453.0, 111101.33, 0.028258326, 0.30674317, -889002.6, 259579.98, 0.0, 10.003074, 9.998009 
2.7453876e+3, 1.9279836e+2, -892030.6, -1215825.0, 129073.84, 0.027287684, 0.3317357, -846875.25, 203734.0, 0.0, 10.002515, 9.998164 
2.7452704e+3, 2.0279615e+2, -854551.2, -1110186.9, 137416.06, 0.029578986, 0.35303587, -794697.56, 157935.52, 0.0, 10.001941, 9.998493 
2.7451536e+3, 2.1279421e+2, -823811.9, -1006456.94, 143464.9, 0.031171508, 0.36423945, -745069.75, 109582.28, 0.0, 10.001315, 9.998833 
2.7450365e+3, 2.2279237e+2, -826123.9, -979019.0, 143719.72, 0.035348315, 0.37704107, -739784.5, 16886.484, 0.0, 10.000722, 9.998634 
2.74492e+3, 2.3279054e+2, -791626.56, -890595.8, 144175.61, 0.04902563, 0.3951875, -688679.8, -29988.43, 0.0, 10.0001955, 9.998822 
2.7448028e+3, 2.4278894e+2, -747236.44, -772728.5, 149137.39, 0.054073244, 0.41046447, -610301.4, -49592.934, 0.0, 9.99963, 9.999231 
2.744686e+3, 2.5278777e+2, -717650.75, -666569.7, 140667.72, 0.036573388, 0.4184486, -549142.7, -86423.305, 0.0, 9.998981, 9.9996 
2.7445692e+3, 2.6278654e+2, -700368.4, -597192.1, 127639.78, 0.029378563, 0.4043769, -511109.47, -146379.27, 0.0, 9.998383, 9.999693 
2.7444518e+3, 2.7278504e+2, -651129.4, -489902.78, 109898.96, 0.049617395, 0.34291667, -434221.25, -167478.69, 0.0, 9.997903, 9.9999895 
2.7443343e+3, 2.827842e+2, -610561.0, -376311.2, 110120.7, 0.04025221, 0.31362197, -332672.88, -163923.98, 0.0, 9.997321, 10.000377 
2.7442157e+3, 2.9278454e+2, -597820.56, -275218.94, 84892.91, -0.046323597, 0.3611248, -254243.16, -183500.16, 0.0, 9.99654, 10.000777 
2.7440974e+3, 3.0278447e+2, -605455.75, -226420.98, 53803.496, -0.067611665, 0.34954184, -218931.63, -218931.63, 0.0, 9.995808, 10.0007925 
2.7439806e+3, 3.1278312e+2, -605400.44, -143567.47, 17523.125, 0.14274226, 0.17804763, -142903.55, -142903.55, 0.0, 9.995215, 10.001315 
2.7438602e+3, 3.227861e+2, -594604.1, 2997.4944, 17626.004, 0.012121826, 0.41050526, 3516.9143, 3516.9143, 0.0, 9.9946785, 10.002582 
2.7561042e+3, 1.329346e+2, -1016301.94, -1635210.3, 3286.5432, 0.01691166, 0.315056, -1016284.5, 620986.75, 0.0004340047, 10.005913, 9.997697 
2.7559838e+3, 1.429315e+2, -1005175.5, -1561986.9, 14200.521, 0.0127318865, 0.302456, -1004813.6, 534488.25, 0.00019620615, 10.005242, 9.997849 
2.7558643e+3, 1.5292893e+2, -969999.25, -1453142.3, 53610.188, 0.019846, 0.31328538, -964122.06, 477205.16, 0.0000543941, 10.004642, 9.998208 
2.755745e+3, 1.6292644e+2, -955891.3, -1400536.0, 61538.227, 0.033636592, 0.31679192, -947531.7, 395819.88, 0.000007595161, 10.004087, 9.998164 
2.755626e+3, 1.7292386e+2, -915602.2, -1303320.4, 82464.914, 0.029353421, 0.30380458, -898791.4, 346584.47, 0.00000029532177, 10.003581, 9.9984 
2.7555078e+3, 1.8292138e+2, -915428.8, -1289416.9, 91129.0, 0.022167541, 0.30348215, -894405.4, 252994.88, 0.0, 10.003069, 9.998069 
2.7553895e+3, 1.9291905e+2, -888183.1, -1208238.9, 108638.43, 0.025411159, 0.3311157, -854791.2, 194634.92, 0.0, 10.002512, 9.9982195 
2.7552718e+3, 2.0291689e+2, -855627.6, -1113307.3, 114844.164, 0.033140004, 0.35562858, -811872.9, 139576.66, 0.0, 10.00194, 9.998475 
2.7551544e+3, 2.1291496e+2, -827568.56, -1015804.4, 120160.34, 0.042471595, 0.37111232, -769053.94, 84414.95, 0.0, 10.001318, 9.99877 
2.7550367e+3, 2.2291309e+2, -824543.1, -977541.4, 123345.336, 0.044298854, 0.38400415, -755900.3, -411.96902, 0.0, 10.000726, 9.998645 
2.7549192e+3, 2.3291118e+2, -789640.0, -888438.3, 124487.195, 0.033765018, 0.3936139, -705108.8, -47599.71, 0.0, 10.000199, 9.998837 
2.7548018e+3, 2.4290955e+2, -749555.8, -779581.1, 125864.07, 0.035334617, 0.40599746, -637812.25, -78285.86, 0.0, 9.999635, 9.999185 
2.7546847e+3, 2.5290838e+2, -723359.8, -679806.25, 115898.11, 0.060662545, 0.4235647, -583656.8, -122119.664, 0.0, 9.998982, 9.999512 
2.7545673e+3, 2.6290715e+2, -701365.4, -600923.6, 108685.7, 0.06765967, 0.41412577, -531416.8, -167868.75, 0.0, 9.998385, 9.999668 
2.754449e+3, 2.729056e+2, -650281.3, -493166.47, 92652.4, 0.037593402, 0.34778214, -450250.7, -184689.88, 0.0, 9.99792, 9.999961 
2.7543306e+3, 2.8290457e+2, -615657.94, -392996.28, 83181.0, 0.0042947135, 0.311064, -365353.63, -197785.17, 0.0, 9.997343, 10.000255 
2.7542117e+3, 2.9290465e+2, -609549.5, -300333.84, 54349.45, -0.04294903, 0.3428021, -291059.25, -221493.17, 0.0, 9.996538, 10.000608 
2.754093e+3, 3.0290443e+2, -618359.7, -252090.67, 30885.209, -0.02650134, 0.33390757, -249504.58, -249504.58, 0.0, 9.995797, 10.000624 
2.7539757e+3, 3.1290337e+2, -614247.7, -169665.14, -3792.6702, 0.20658441, 0.21191551, -169632.78, -169632.78, 0.0, 9.995243, 10.001125 
2.7538535e+3, 3.2290557e+2, -575376.94, 36527.465, -329.1678, -0.057160143, 0.3673459, 36527.645, 36527.645, 0.0, 9.9947, 10.002805 
2.766109e+3, 1.3305543e+2, -1074109.4, -1654794.9, 28666.625, 0.009476338, 0.29988563, -1072697.6, 563388.56, 0.00025366555, 10.005485, 9.9977665 
2.7659884e+3, 1.430525e+2, -1053621.6, -1576057.8, 43707.95, 0.013148394, 0.29896265, -1049990.3, 488125.34, 0.00010884962, 10.004874, 9.997928 
2.765868e+3, 1.5305005e+2, -1003493.56, -1462336.1, 79271.42, 0.017514367, 0.3149248, -990184.4, 449955.8, 0.000028551305, 10.004387, 9.998265 
2.7657485e+3, 1.630476e+2, -980828.3, -1405775.5, 82320.234, 0.030807082, 0.31855962, -965438.7, 376725.44, 0.0000036518682, 10.003893, 9.998219 
2.7656293e+3, 1.7304495e+2, -950707.9, -1315594.1, 103604.58, 0.030817697, 0.296855, -923342.94, 320845.7, 0.000000097725085, 10.003325, 9.998435 
2.76551e+3, 1.830425e+2, -951177.06, -1296950.5, 112740.77, 0.027909892, 0.2931467, -917665.4, 228547.48, 0.0, 10.002787, 9.99815 
2.7653915e+3, 1.9304028e+2, -916607.8, -1212576.3, 131282.19, 0.03601145, 0.32674402, -866768.0, 181469.53, 0.0, 10.002282, 9.998298 
2.765273e+3, 2.0303819e+2, -876172.4, -1120604.3, 138223.03, 0.043249756, 0.35449576, -813882.6, 136377.69, 0.0, 10.001794, 9.998491 
2.7651548e+3, 2.1303624e+2, -829427.2, -1018558.94, 145544.8, 0.04105891, 0.36883062, -750424.6, 101855.555, 0.0, 10.00132, 9.998747 
2.7650365e+3, 2.2303434e+2, -809727.2, -968134.4, 150291.98, 0.03849644, 0.38187551, -719045.8, 35254.13, 0.0, 10.000824, 9.998659 
2.7649188e+3, 2.3303244e+2, -778644.44, -881512.75, 150011.88, 0.03706052, 0.39300093, -671494.1, -15173.6, 0.0, 10.000275, 9.998845 
2.7648008e+3, 2.4303077e+2, -736427.1, -775722.06, 149751.58, 0.04097549, 0.40327966, -605039.6, -46701.598, 0.0, 9.9997425, 9.999156 
2.764683e+3, 2.5302947e+2, -689802.25, -669925.2, 140173.58, 0.057210617, 0.41300014, -539338.25, -78988.16, 0.0, 9.999248, 9.999449 
2.764565e+3, 2.6302817e+2, -660357.4, -585168.25, 133248.28, 0.06284202, 0.4049653, -484312.6, -121950.98, 0.0, 9.998691, 9.999626 
2.7644464e+3, 2.7302673e+2, -639397.6, -493633.53, 113812.766, 0.04300984, 0.35913724, -431367.0, -166993.75, 0.0, 9.998026, 9.999904 
2.7643275e+3, 2.8302565e+2, -618317.9, -403365.22, 98448.56, 0.012888521, 0.32435346, -365090.8, -198709.06, 0.0, 9.997371, 10.000166 
2.7642077e+3, 2.9302523e+2, -586948.4, -302393.94, 70863.18, -0.039594688, 0.3186778, -285723.38, -217338.92, 0.0, 9.996756, 10.000486 
2.7640885e+3, 3.0302498e+2, -565862.8, -234589.92, 59368.67, -0.01819972, 0.3148155, -224271.63, -224271.63, 0.0, 9.996197, 10.000548 
2.7639708e+3, 3.130248e+2, -541776.2, -142996.39, 33847.1, 0.23167181, 0.28778884, -140143.97, -140143.97, 0.0, 9.995782, 10.001045 
2.7638474e+3, 3.2302573e+2, -536233.2, 45419.984, 17248.2, -0.08270407, 0.3266679, 45931.008, 45931.008, 0.0, 9.995018, 10.002709 
2.7761137e+3, 1.331768e+2, -1067559.5, -1642761.8, 5023.52, 0.0031163364, 0.2731335, -1067515.6, 567380.06, 0.00013422982, 10.005486, 9.997851 
2.7759922e+3, 1.4317425e+2, -1049913.1, -1573627.8, 25392.064, 0.0015293403, 0.302177, -1048684.9, 488237.13, 0.000054679982, 10.004891, 9.997938 
2.7758715e+3, 1.5317178e+2, -1004577.25, -1466647.0, 62840.93, 0.00709509, 0.32099643, -996183.44, 442763.53, 0.000013432984, 10.004392, 9.998236 
2.7757514e+3, 1.6316928e+2, -978647.44, -1401661.3, 62541.426, 0.025210835, 0.32135817, -969594.56, 371376.8, 0.000001465024, 10.00389, 9.998251 
2.7756315e+3, 1.7316654e+2, -948108.2, -1312060.8, 83534.375, 0.036767196, 0.28635937, -929851.2, 313145.3, 0.000000015059225, 10.003329, 9.99846 
2.7755123e+3, 1.8316408e+2, -944405.44, -1285290.0, 94237.586, 0.043419164, 0.27712372, -920088.1, 224932.48, 0.0, 10.002793, 9.998229 
2.775393e+3, 1.9316205e+2, -910527.06, -1201513.4, 112943.86, 0.057257757, 0.31926665, -871833.94, 175209.77, 0.0, 10.002285, 9.998374 
2.7752745e+3, 2.0316005e+2, -873600.25, -1116768.9, 120545.586, 0.058430433, 0.35020992, -823971.3, 125094.35, 0.0, 10.001796, 9.998519 
2.7751553e+3, 2.1315803e+2, -829071.1, -1019604.5, 127997.67, 0.027016807, 0.3578693, -764778.6, 86307.51, 0.0, 10.001323, 9.99874 
2.7750367e+3, 2.2315611e+2, -809468.2, -969097.75, 130347.484, 0.019150741, 0.37053928, -736440.4, 16665.607, 0.0, 10.000827, 9.998653 
2.7749187e+3, 2.3315433e+2, -779572.94, -885000.2, 129326.94, 0.06075409, 0.39348024, -692629.2, -37503.645, 0.0, 10.0002775, 9.998822 
2.7748004e+3, 2.4315262e+2, -737886.1, -780533.75, 131136.1, 0.07129476, 0.40232214, -626351.44, -69208.055, 0.0, 9.999745, 9.999123 
2.7746812e+3, 2.53151e+2, -692408.1, -678212.5, 121789.77, 0.020326452, 0.38415846, -563313.9, -104155.5, 0.0, 9.999255, 9.99939 
2.7745625e+3, 2.631496e+2, -665150.06, -598162.44, 109340.055, 0.008434188, 0.37395418, -517301.2, -156130.28, 0.0, 9.998699, 9.999535 
2.7744442e+3, 2.7314857e+2, -647936.94, -511690.13, 88065.41, 0.07268638, 0.3793511, -468474.8, -205295.23, 0.0, 9.998022, 9.9997835 
2.7743247e+3, 2.831475e+2, -624347.44, -414553.3, 75310.336, 0.07798607, 0.35766673, -390318.5, -225130.13, 0.0, 9.99736, 10.000096 
2.7742037e+3, 2.9314637e+2, -592291.2, -315021.34, 48299.2, -0.038587783, 0.2864007, -306848.75, -239650.52, 0.0, 9.9967575, 10.000401 
2.7740836e+3, 3.0314615e+2, -560343.6, -228483.06, 44199.992, -0.057389997, 0.2919569, -222697.02, -222697.02, 0.0, 9.996215, 10.000584 
2.7739656e+3, 3.131476e+2, -533031.1, -133723.45, 20576.672, 0.1985778, 0.42485124, -132665.92, -132665.92, 0.0, 9.995815, 10.001096 
2.773842e+3, 3.2314658e+2, -583254.75, -51928.027, -33382.934, -0.026972376, 0.2902609, -49838.813, -49838.813, 0.0, 9.995011, 10.002047 
2.7861184e+3, 1.3329893e+2, -1108201.8, -1649150.3, 27056.473, -0.000059173937, 0.2624866, -1106851.8, 526846.4, 0.000062951425, 10.005154, 9.997965 
2.7859962e+3, 1.4329652e+2, -1076320.1, -1584532.4, 46471.336, -0.0039690123, 0.30187586, -1072105.8, 463617.25, 0.000024206976, 10.004707, 9.99795 
2.785875e+3, 1.5329404e+2, -1045616.25, -1489429.3, 83920.35, 0.00797702, 0.32062048, -1030277.9, 407470.66, 0.0000052932974, 10.004128, 9.998203 
2.7857545e+3, 1.6329151e+2, -1014551.8, -1411048.9, 84821.9, 0.029750166, 0.3187813, -997168.2, 342605.2, 0.00000044644457, 10.003614, 9.998316 
2.7856344e+3, 1.732888e+2, -966073.2, -1313109.4, 108422.4, 0.040012714, 0.27910683, -934984.44, 306813.72, 0.000000000043158813, 10.003179, 9.998522 
2.7855143e+3, 1.8328637e+2, -952711.1, -1284054.5, 117997.1, 0.04516394, 0.26923323, -914985.56, 228836.33, 0.0, 10.002719, 9.99827 
2.7853948e+3, 1.9328439e+2, -923522.3, -1204570.9, 132573.67, 0.056319218, 0.316889, -870855.4, 174989.02, 0.0, 10.002188, 9.998397 
2.7852753e+3, 2.0328245e+2, -881170.7, -1111824.5, 141620.94, 0.05810859, 0.34905002, -813859.2, 134006.67, 0.0, 10.001713, 9.9985895 
2.785156e+3, 2.132804e+2, -825011.4, -1010681.5, 153372.81, 0.033525165, 0.3501251, -738565.75, 111320.39, 0.0, 10.0013275, 9.9987955 
2.785037e+3, 2.2327848e+2, -800906.44, -965863.8, 154153.19, 0.02677071, 0.3600849, -708553.94, 43352.117, 0.0, 10.0008955, 9.998639 
2.7849182e+3, 2.332767e+2, -769876.8, -884547.44, 149808.9, 0.0601962, 0.38818124, -666806.25, -12880.403, 0.0, 10.000368, 9.998778 
2.7847993e+3, 2.4327496e+2, -720122.8, -771870.9, 153466.58, 0.06714844, 0.39947549, -590364.44, -34420.51, 0.0, 9.999873, 9.999118 
2.7846798e+3, 2.5327328e+2, -667006.7, -667745.06, 146362.36, 0.018202849, 0.37791196, -521013.06, -63053.64, 0.0, 9.999443, 9.999368 
2.7845606e+3, 2.632718e+2, -636082.6, -589145.06, 129345.78, 0.0064711757, 0.36727086, -481156.2, -121183.56, 0.0, 9.998927, 9.999483 
2.7844414e+3, 2.7327082e+2, -619584.06, -506297.25, 108733.19, 0.07168621, 0.38062245, -440338.13, -178356.22, 0.0, 9.99826, 9.999703 
2.7843216e+3, 2.8326976e+2, -580938.2, -396811.7, 103709.13, 0.08294519, 0.366241, -350198.25, -186207.1, 0.0, 9.997678, 10.000062 
2.7842003e+3, 2.9326856e+2, -520338.7, -285356.47, 78964.28, -0.021997899, 0.2966183, -261286.56, -195285.19, 0.0, 9.997279, 10.00035 
2.7840793e+3, 3.0326828e+2, -482508.88, -191437.86, 73019.9, -0.05378725, 0.3008084, -174146.8, -174146.8, 0.0, 9.9967575, 10.000574 
2.78396e+3, 3.132697e+2, -500496.53, -119763.38, 42146.17, 0.14100489, 0.43310174, -115153.73, -115153.73, 0.0, 9.996052, 10.001075 
2.783837e+3, 3.2326844e+2, -527572.0, -50679.234, -15093.181, 0.009354308, 0.2855407, -50202.027, -50202.027, 0.0, 9.995509, 10.001812 
2.7961227e+3, 1.3342169e+2, -1101095.9, -1632952.8, 13799.815, -0.00118522, 0.26184672, -1100738.1, 531756.56, 0.000025402771, 10.005143, 9.998083 
2.7960002e+3, 1.4341933e+2, -1077816.8, -1586136.6, 26652.688, -0.0053141457, 0.2991675, -1076423.0, 458095.9, 0.000008815209, 10.004697, 9.997947 
2.7958786e+3, 1.5341678e+2, -1049102.6, -1497262.3, 64215.53, 0.016979875, 0.3156952, -1040082.94, 396462.44, 0.0000015188066, 10.004127, 9.998153 
2.7957577e+3, 1.6341424e+2, -1008474.0, -1400195.0, 69122.45, 0.041500714, 0.31245312, -996634.6, 341935.8, 0.000000074661486, 10.003618, 9.998391 
2.7956367e+3, 1.7341164e+2, -960856.94, -1302646.9, 93362.75, 0.04068261, 0.27463728, -937016.94, 303577.13, 0.0, 10.003177, 9.998597 
2.7955163e+3, 1.8340927e+2, -953338.06, -1285997.6, 99368.87, 0.035115298, 0.26802152, -925916.0, 216701.17, 0.0, 10.002718, 9.99826 
2.795396e+3, 1.934073e+2, -924804.8, -1210372.5, 113533.41, 0.036019128, 0.31887174, -885168.6, 159471.19, 0.0, 10.002198, 9.998354 
2.795276e+3, 2.0340535e+2, -872739.9, -1097605.1, 127191.72, 0.04494472, 0.35041982, -815411.44, 131249.63, 0.0, 10.001723, 9.998684 
2.7951568e+3, 2.1340334e+2, -817572.1, -996810.1, 139305.16, 0.06058608, 0.34522152, -741548.5, 107131.98, 0.0, 10.00133, 9.998892 
2.7950373e+3, 2.2340141e+2, -803739.8, -972873.0, 135291.9, 0.059338152, 0.35070407, -728758.94, 21941.398, 0.0, 10.000896, 9.998592 
2.7949175e+3, 2.3339956e+2, -775432.0, -897452.56, 129878.19, 0.032532576, 0.37688276, -692948.0, -40226.613, 0.0, 10.00037, 9.998691 
2.794798e+3, 2.4339785e+2, -718934.25, -771183.06, 137068.3, 0.027525023, 0.39512312, -605522.94, -50783.418, 0.0, 9.999877, 9.999123 
2.7946788e+3, 2.533964e+2, -666031.2, -667937.9, 130300.63, 0.058359765, 0.39809978, -536680.44, -79927.58, 0.0, 9.999449, 9.999366 
2.7945593e+3, 2.6339492e+2, -637090.9, -593120.06, 105721.91, 0.06423694, 0.3879397, -507121.75, -148355.44, 0.0, 9.998931, 9.999456 
2.7944386e+3, 2.7339342e+2, -622582.6, -514340.2, 83815.85, 0.028628567, 0.35639927, -468690.66, -207910.11, 0.0, 9.998262, 9.999648 
2.794318e+3, 2.833924e+2, -579916.44, -398278.63, 88758.37, 0.0117681585, 0.34489524, -362108.88, -199318.94, 0.0, 9.997689, 10.000049 
2.7941972e+3, 2.9339206e+2, -518136.28, -288366.3, 65471.234, 0.019504488, 0.3677542, -271020.28, -206228.9, 0.0, 9.997307, 10.000319 
2.794076e+3, 3.0339152e+2, -485959.75, -206078.1, 48387.863, 0.008537084, 0.3484816, -197948.6, -197948.6, 0.0, 9.996785, 10.000463 
2.7939546e+3, 3.1339037e+2, -511711.75, -142301.11, 14410.8125, 0.044386946, 0.24149653, -141739.8, -141739.8, 0.0, 9.996044, 10.000926 
2.7938318e+3, 3.2339197e+2, -491222.56, 16750.38, -20101.688, 0.015463529, 0.3674932, 17544.611, 17544.611, 0.0, 9.995539, 10.002264 
2.806127e+3, 1.3354501e+2, -1166444.8, -1652740.9, 33320.977, 0.009887226, 0.26903093, -1164172.1, 467113.97, 0.000008015983, 10.004648, 9.998183 
2.806004e+3, 1.4354262e+2, -1134832.0, -1603057.4, 42846.46, -0.0034220072, 0.2949572, -1130943.5, 402366.97, 0.0000021688768, 10.004264, 9.998036 
2.8058818e+3, 1.5354007e+2, -1089380.4, -1509080.9, 87037.555, 0.01726058, 0.30500424, -1072046.4, 363290.28, 0.00000023485315, 10.003822, 9.998216 
2.8057602e+3, 1.6353758e+2, -1039894.8, -1409832.4, 95283.57, 0.042105597, 0.3022186, -1016795.3, 320565.94, 0.0000000009211335, 10.003384, 9.998435 
2.8056392e+3, 1.7353511e+2, -1000100.8, -1319065.1, 116082.46, 0.043870676, 0.2775312, -962327.56, 277056.44, 0.0, 10.002902, 9.998614 
2.8055182e+3, 1.835328e+2, -977065.2, -1288636.4, 125003.555, 0.036779314, 0.2745024, -933113.3, 208293.3, 0.0, 10.002523, 9.998332 
2.8053975e+3, 1.9353075e+2, -905828.8, -1193456.1, 146392.19, 0.030259678, 0.31061247, -844427.9, 199001.75, 0.0, 10.0023, 9.998418 
2.8052774e+3, 2.0352878e+2, -839287.8, -1075087.1, 157628.66, 0.03917986, 0.33600703, -760344.56, 185106.13, 0.0, 10.001931, 9.998735 
2.8051576e+3, 2.1352692e+2, -821883.5, -995206.8, 163370.98, 0.06761771, 0.340499, -723611.9, 123857.164, 0.0, 10.00129, 9.998919 
2.8050375e+3, 2.23525e+2, -819386.8, -978450.94, 161911.89, 0.07073115, 0.34930155, -718528.2, 30960.348, 0.0, 10.000787, 9.998604 
2.804917e+3, 2.3352304e+2, -754600.06, -887484.94, 162350.56, 0.031319503, 0.36712843, -645622.1, 5888.273, 0.0, 10.00052, 9.998685 
2.8047973e+3, 2.435213e+2, -691178.75, -758781.6, 166068.8, 0.022991464, 0.38408166, -555506.4, -1977.309, 0.0, 10.000078, 9.999108 
2.8046778e+3, 2.5351992e+2, -684335.6, -680419.8, 154215.02, 0.07088264, 0.39904982, -528150.25, -72608.086, 0.0, 9.999345, 9.999328 
2.8045577e+3, 2.6351848e+2, -652990.9, -598331.6, 133264.92, 0.07818833, 0.39398897, -489622.84, -132067.06, 0.0, 9.998817, 9.999473 
2.804436e+3, 2.735169e+2, -566731.75, -486418.22, 115623.42, 0.010984509, 0.3538141, -404176.7, -144605.9, 0.0, 9.998648, 9.999652 
2.804315e+3, 2.8351584e+2, -496543.47, -358930.0, 119295.164, -0.01197968, 0.34310615, -290020.72, -128440.445, 0.0, 9.998271, 10.000035 
2.804194e+3, 2.9351568e+2, -484440.06, -276976.7, 92896.07, 0.040905166, 0.38743815, -241460.61, -177880.23, 0.0, 9.997564, 10.00027 
2.8040722e+3, 3.03515e+2, -456034.56, -193752.3, 77610.1, 0.034288455, 0.36034143, -172507.97, -172507.97, 0.0, 9.997005, 10.000438 
2.8039497e+3, 3.1351316e+2, -417026.84, -101146.1, 50578.016, -0.0045112986, 0.18495716, -93245.3, -93245.3, 0.0, 9.996717, 10.000881 
2.8038272e+3, 3.2351547e+2, -403161.2, 24778.898, -1673.5385, 0.020223543, 0.4024269, 24785.443, 24785.443, 0.0, 9.996296, 10.001952 
2.816131e+3, 1.3366881e+2, -1156956.3, -1640422.1, 22168.85, 0.028419979, 0.2810884, -1155941.9, 474131.22, 0.0000014229868, 10.004676, 9.998257 
2.8160074e+3, 1.4366636e+2, -1124225.5, -1582528.1, 28530.799, 0.0001109945, 0.28966182, -1122456.3, 409641.38, 0.00000020884555, 10.004267, 9.9981785 
2.8158846e+3, 1.5366384e+2, -1080088.3, -1490487.9, 73091.23, 0.01073378, 0.29012296, -1067459.5, 366663.44, 0.0000000060093335, 10.003822, 9.998345 
2.815763e+3, 1.6366145e+2, -1039384.1, -1409841.5, 79030.06, 0.034550976, 0.289394, -1023229.0, 312917.53, 0.0, 10.003385, 9.998436 
2.8156415e+3, 1.7365916e+2, -1001389.7, -1325044.0, 99459.85, 0.04942743, 0.286614, -973268.7, 264899.7, 0.0, 10.0029125, 9.9985695 
2.8155202e+3, 1.8365692e+2, -966140.7, -1269296.3, 116561.21, 0.048179127, 0.28681514, -926505.7, 213685.02, 0.0, 10.002534, 9.998462 
2.8153992e+3, 1.9365472e+2, -896209.0, -1173697.8, 138988.03, 0.036999635, 0.29291484, -838566.8, 203647.34, 0.0, 10.002298, 9.998557 
2.8152785e+3, 2.0365272e+2, -840680.8, -1077309.3, 136171.4, 0.03898663, 0.30800974, -778604.0, 165631.02, 0.0, 10.001925, 9.998725 
2.815158e+3, 2.1365105e+2, -825324.4, -1003603.25, 139311.44, 0.054811284, 0.3366324, -749074.9, 97177.15, 0.0, 10.001293, 9.998861 
2.8150377e+3, 2.2364923e+2, -814668.25, -970368.1, 150345.88, 0.06258502, 0.3553725, -723212.25, 25058.53, 0.0, 10.000791, 9.998659 
2.8149176e+3, 2.3364718e+2, -749383.7, -878676.2, 152566.19, 0.05925664, 0.358521, -648332.7, 1960.2089, 0.0, 10.0005245, 9.998744 
2.814797e+3, 2.4364536e+2, -694891.0, -767635.06, 140880.48, 0.054556724, 0.3652584, -585763.1, -33450.754, 0.0, 10.000079, 9.999048 
2.8146762e+3, 2.5364387e+2, -692636.25, -696303.9, 126249.09, 0.04923135, 0.3777003, -568207.7, -113880.13, 0.0, 9.999335, 9.999225 
2.8145555e+3, 2.6364252e+2, -650289.25, -591958.1, 125183.66, 0.04190788, 0.38403866, -492587.4, -136246.58, 0.0, 9.99881, 9.999521 
2.8144342e+3, 2.7364132e+2, -559990.56, -477677.28, 111108.68, 0.028445344, 0.37987962, -400347.6, -141996.22, 0.0, 9.998667, 9.999704 
2.814313e+3, 2.8364024e+2, -495333.6, -363528.72, 95865.19, 0.023592276, 0.3640898, -313098.6, -152737.39, 0.0, 9.998298, 9.999993 
2.814191e+3, 2.9363924e+2, -490766.5, -290788.78, 65885.23, 0.030488733, 0.332987, -271033.6, -208663.7, 0.0, 9.997563, 10.000177 
2.8140685e+3, 3.0363876e+2, -450273.4, -182031.55, 67907.766, 0.011569308, 0.32831004, -165819.89, -165819.89, 0.0, 9.997003, 10.000523 
2.8139457e+3, 3.1363893e+2, -404134.34, -86111.53, 44087.813, 0.023810416, 0.3428556, -80112.75, -80112.75, 0.0, 9.996764, 10.000965 
2.8138226e+3, 3.2363817e+2, -506311.75, -202610.2, -26790.549, 0.0031301014, 0.3171636, -200265.03, -200265.03, 0.0, 9.996347, 10.000367 
2.826135e+3, 1.337931e+2, -1178052.4, -1634870.8, 41055.918, 0.013425181, 0.28186634, -1174391.9, 454463.34, 0.00000004051904, 10.004467, 9.998393 
2.826011e+3, 1.437907e+2, -1164986.5, -1583431.8, 52806.684, 0.013939189, 0.28321797, -1158425.4, 372453.28, 0.00000000057594124, 10.00391, 9.998342 
2.8258878e+3, 1.5378831e+2, -1119523.1, -1493089.8, 99515.6, 0.01632244, 0.28064665, -1094666.8, 338235.63, 0.0, 10.003486, 9.998487 
2.8257653e+3, 1.63786e+2, -1076770.3, -1428064.8, 106998.625, 0.032858726, 0.28055015, -1046746.25, 288179.16, 0.0, 10.003134, 9.998429 
2.8256434e+3, 1.7378372e+2, -1014239.5, -1336302.6, 127267.04, 0.042469632, 0.2849003, -970019.9, 266927.97, 0.0, 10.0028515, 9.998519 
2.8255218e+3, 1.8378153e+2, -963797.94, -1255252.5, 143473.1, 0.044126365, 0.29046622, -905023.5, 233946.4, 0.0, 10.0025, 9.998572 
2.8254005e+3, 1.9377944e+2, -929782.44, -1176311.4, 163934.06, 0.04789855, 0.29700553, -847940.9, 193050.94, 0.0, 10.002014, 9.9986725 
2.8252795e+3, 2.0377748e+2, -880908.3, -1095530.3, 159090.11, 0.052303735, 0.3097473, -796320.06, 146692.03, 0.0, 10.00165, 9.99873 
2.8251588e+3, 2.1377571e+2, -802996.6, -996019.8, 163090.39, 0.051034246, 0.33346987, -710001.06, 135028.98, 0.0, 10.001465, 9.998828 
2.8250378e+3, 2.237739e+2, -762684.56, -935210.44, 174578.38, 0.053689368, 0.34994826, -654219.75, 92829.266, 0.0, 10.001109, 9.998745 
2.824917e+3, 2.3377192e+2, -751123.44, -869192.06, 177600.47, 0.06568391, 0.35371792, -623002.8, 26067.0, 0.0, 10.000474, 9.998832 
2.8247964e+3, 2.4377012e+2, -709925.06, -775349.0, 166076.0, 0.06402927, 0.36091852, -573370.06, -22281.25, 0.0, 9.999984, 9.999039 
2.8246748e+3, 2.537686e+2, -640785.9, -675858.8, 154362.63, 0.038871028, 0.3739526, -502966.78, -49861.76, 0.0, 9.999717, 9.999179 
2.8245535e+3, 2.6376724e+2, -567797.44, -548652.2, 161789.67, 0.025640553, 0.3835464, -396152.2, -41033.637, 0.0, 9.999367, 9.999548 
2.8244323e+3, 2.7376616e+2, -522600.63, -457088.97, 145071.34, 0.032646775, 0.38850412, -341121.44, -83993.555, 0.0, 9.998918, 9.9997225 
2.8243107e+3, 2.8376502e+2, -476071.0, -357568.03, 116421.66, 0.032547913, 0.36843315, -286187.44, -127049.19, 0.0, 9.99845, 9.999958 
2.824188e+3, 2.9376367e+2, -437209.7, -272685.2, 85337.72, 0.014973579, 0.3078481, -236416.42, -175265.61, 0.0, 9.99797, 10.000103 
2.8240648e+3, 3.0376327e+2, -360274.3, -136328.1, 99421.89, -0.0008156533, 0.31771135, -98559.125, -98559.125, 0.0, 9.997616, 10.000538 
2.8239426e+3, 3.1376433e+2, -303064.53, -38442.473, 68059.75, 0.061209153, 0.42437875, -21963.926, -21963.926, 0.0, 9.997468, 10.000951 
2.823818e+3, 3.2376185e+2, -479896.5, -268033.5, 193.5846, -0.014727861, 0.25825283, -268033.3, -268033.3, 0.0, 9.996871, 9.999663 
2.8361383e+3, 1.3391784e+2, -1166186.4, -1610913.1, 19254.027, -0.021574395, 0.2756211, -1165354.4, 462278.5, 0.0, 10.004467, 9.99856 
2.836014e+3, 1.439156e+2, -1152816.3, -1559358.3, 37330.16, 0.03484433, 0.27627698, -1149416.9, 380237.34, 0.0, 10.003912, 9.9985075 
2.8358907e+3, 1.5391336e+2, -1108269.1, -1472645.8, 85218.67, 0.03068155, 0.2752747, -1089323.6, 342352.44, 0.0, 10.003495, 9.998625 
2.835768e+3, 1.6391109e+2, -1077243.1, -1431818.5, 96701.79, 0.034905512, 0.27453414, -1052584.9, 281113.84, 0.0, 10.003143, 9.998402 
2.8356454e+3, 1.7390873e+2, -1019224.44, -1346789.8, 118095.44, 0.024953596, 0.2744249, -981088.06, 254634.7, 0.0, 10.002849, 9.99845 
2.8355235e+3, 1.839066e+2, -958705.6, -1244017.6, 127457.74, 0.027682327, 0.2877448, -910060.25, 227684.27, 0.0, 10.002494, 9.998653 
2.8354022e+3, 1.9390486e+2, -923538.8, -1164587.9, 146264.9, 0.06297293, 0.32071513, -854538.7, 185224.23, 0.0, 10.002017, 9.998754 
2.835281e+3, 2.03903e+2, -879657.2, -1094888.9, 151321.66, 0.07773308, 0.33731025, -801586.75, 140195.66, 0.0, 10.001656, 9.9987335 
2.8351593e+3, 2.1390091e+2, -804392.6, -1000040.06, 156441.06, 0.055492207, 0.3298341, -717708.1, 126095.336, 0.0, 10.001467, 9.998801 
2.835038e+3, 2.2389898e+2, -755767.2, -921151.56, 152892.56, 0.043188173, 0.33354706, -664637.25, 81185.914, 0.0, 10.001108, 9.998843 
2.8349167e+3, 2.3389728e+2, -744523.75, -855608.1, 153465.34, 0.049043912, 0.35353267, -636858.9, 10982.142, 0.0, 10.000471, 9.998927 
2.8347954e+3, 2.4389568e+2, -707969.7, -771753.4, 155298.66, 0.05030033, 0.37260553, -581322.06, -31463.943, 0.0, 9.999983, 9.999065 
2.8346738e+3, 2.538942e+2, -638544.06, -675025.94, 145229.69, 0.04266582, 0.3902578, -510414.25, -58540.21, 0.0, 9.999729, 9.99918 
2.8345522e+3, 2.6389277e+2, -566191.7, -550909.5, 146015.06, 0.032119293, 0.3929307, -412335.72, -58447.32, 0.0, 9.999387, 9.999524 
2.8344303e+3, 2.7389142e+2, -524840.2, -463741.25, 128289.39, 0.018444635, 0.37412542, -362414.13, -106513.75, 0.0, 9.998922, 9.999676 
2.8343078e+3, 2.838902e+2, -479345.78, -364559.56, 99124.66, 0.0071523488, 0.35279325, -307411.56, -149500.3, 0.0, 9.998447, 9.999913 
2.8341845e+3, 2.9388914e+2, -439985.3, -282822.0, 68939.555, -0.0057900897, 0.3257644, -256867.83, -196946.73, 0.0, 9.997985, 10.000028 
2.8340617e+3, 3.0388862e+2, -362841.78, -150888.89, 94389.7, 0.000858414, 0.33369356, -114948.375, -114948.375, 0.0, 9.997652, 10.0004225 
2.83394e+3, 3.1388894e+2, -309001.25, -62118.14, 62244.88, 0.11004147, 0.38304895, -47312.664, -47312.664, 0.0, 9.997513, 10.000769 
2.833814e+3, 3.2388726e+2, -427094.7, -161002.47, -43915.227, -0.029991847, 0.27496535, -153942.14, -153942.14, 0.0, 9.996878, 10.000398 
2.8461415e+3, 1.340432e+2, -1222603.4, -1628575.4, 31510.666, -0.016366165, 0.27723485, -1220172.1, 406231.9, 0.0, 10.004041, 9.998642 
2.8460172e+3, 1.4404094e+2, -1200001.4, -1571808.4, 55292.254, 0.029351478, 0.2680579, -1191952.9, 336472.75, 0.0, 10.003547, 9.998596 
2.8458932e+3, 1.5403886e+2, -1138359.0, -1479721.0, 100357.695, 0.025957087, 0.27669302, -1111040.9, 319405.1, 0.0, 10.00326, 9.998687 
2.84577e+3, 1.6403669e+2, -1100130.8, -1432982.8, 111778.445, 0.034539144, 0.27929667, -1066077.3, 266390.28, 0.0, 10.002947, 9.998486 
2.8456473e+3, 1.7403434e+2, -1058093.3, -1357242.8, 141481.19, 0.03356804, 0.27359855, -1001780.75, 232710.77, 0.0, 10.002551, 9.99852 
2.8455248e+3, 1.8403226e+2, -998952.4, -1261767.0, 152859.75, 0.037058663, 0.2859253, -928780.94, 207732.2, 0.0, 10.002215, 9.998664 
2.8454033e+3, 1.9403055e+2, -934232.7, -1170946.0, 164826.94, 0.0626734, 0.3244818, -849670.1, 188861.28, 0.0, 10.001953, 9.998738 
2.8452817e+3, 2.040287e+2, -876076.7, -1085251.6, 170962.69, 0.073615946, 0.34231275, -780247.6, 160302.98, 0.0, 10.00165, 9.998799 
2.8451598e+3, 2.140266e+2, -829203.8, -1005175.75, 181645.31, 0.054682, 0.32893747, -715356.8, 127214.805, 0.0, 10.001272, 9.9988575 
2.8450385e+3, 2.2402468e+2, -774363.8, -918391.4, 175243.5, 0.042946707, 0.3280273, -656914.5, 87676.47, 0.0, 10.000935, 9.998943 
2.8449166e+3, 2.3402305e+2, -712822.06, -830409.1, 173108.98, 0.045397386, 0.34636173, -588794.94, 57812.91, 0.0, 10.000651, 9.999011 
2.844795e+3, 2.440215e+2, -655654.2, -743580.3, 179792.78, 0.04531074, 0.36615032, -514527.56, 34096.67, 0.0, 10.000334, 9.999087 
2.844673e+3, 2.5402004e+2, -602984.6, -657918.2, 168746.39, 0.04076404, 0.38665482, -459484.25, -8844.224, 0.0, 9.999978, 9.999175 
2.844551e+3, 2.6401863e+2, -537308.0, -535403.25, 165010.73, 0.029706134, 0.38864988, -371342.16, -18687.54, 0.0, 9.999584, 9.999534 
2.8444284e+3, 2.7401718e+2, -492476.28, -448306.97, 149066.55, 0.008344448, 0.36433, -319698.0, -65030.527, 0.0, 9.99915, 9.99967 
2.8443056e+3, 2.8401598e+2, -429777.88, -343314.25, 124463.64, -0.003099392, 0.34713018, -254788.0, -98109.74, 0.0, 9.998804, 9.999885 
2.8441823e+3, 2.9401505e+2, -352216.25, -245983.89, 96636.24, -0.0044808337, 0.34054825, -188828.17, -130141.74, 0.0, 9.998617, 9.999974 
2.844059e+3, 3.0401438e+2, -304715.8, -141138.86, 115382.0, 0.0043276455, 0.3427851, -81497.63, -81497.63, 0.0, 9.998136, 10.000253 
2.8439364e+3, 3.1401402e+2, -359886.1, -112000.23, 77618.516, 0.10529052, 0.3434176, -89701.98, -89701.98, 0.0, 9.997279, 10.000535 
2.8438106e+3, 3.2401332e+2, -303649.06, -8079.508, -25208.357, -0.019138373, 0.31053713, -5944.968, -5944.968, 0.0, 9.997328, 10.001228 
2.8561452e+3, 1.341691e+2, -1222515.3, -1626932.5, 7324.749, 0.012195468, 0.2833252, -1222382.6, 402787.5, 0.0, 10.004032, 9.998659 
2.8560197e+3, 1.4416671e+2, -1196201.3, -1567417.0, 44103.074, 0.00529493, 0.25931925, -1191033.4, 336160.03, 0.0, 10.003559, 9.998622 
2.8558955e+3, 1.5416479e+2, -1137398.1, -1479772.9, 90927.84, 0.0074651013, 0.28329784, -1114748.0, 314464.34, 0.0, 10.003266, 9.998685 
2.855772e+3, 1.6416277e+2, -1088153.0, -1409119.5, 98069.39, 0.03317157, 0.29204264, -1060560.5, 270672.0, 0.0, 10.002949, 9.99865 
2.8556493e+3, 1.7416051e+2, -1045909.06, -1333055.0, 126738.47, 0.063566364, 0.28025943, -997972.6, 235282.2, 0.0, 10.002553, 9.998686 
2.8555268e+3, 1.841584e+2, -1003103.0, -1271751.5, 142853.03, 0.0664621, 0.2843936, -941340.56, 193935.92, 0.0, 10.002219, 9.998594 
2.8554043e+3, 1.9415648e+2, -941402.5, -1186902.5, 155524.88, 0.047665328, 0.31055373, -866022.4, 171274.9, 0.0, 10.001955, 9.998629 
2.855282e+3, 2.0415461e+2, -867690.44, -1068438.1, 157850.83, 0.043229416, 0.3277188, -781003.3, 158313.38, 0.0, 10.001651, 9.998916 
2.8551605e+3, 2.1415281e+2, -820572.3, -987944.75, 167508.03, 0.049818654, 0.3315191, -717009.2, 124325.414, 0.0, 10.001272, 9.998977 
2.8550386e+3, 2.2415103e+2, -768272.94, -906579.25, 164459.56, 0.052964754, 0.33276868, -659018.94, 84333.516, 0.0, 10.000936, 9.999025 
2.8549165e+3, 2.3414926e+2, -708222.5, -822253.44, 162280.81, 0.055093385, 0.33127165, -593232.7, 52137.668, 0.0, 10.000654, 9.999067 
2.8547946e+3, 2.4414763e+2, -654269.56, -743106.1, 167214.45, 0.049237713, 0.33954924, -525674.4, 21712.889, 0.0, 10.000341, 9.999088 
2.854672e+3, 2.5414616e+2, -603799.3, -661706.2, 155023.95, 0.031874165, 0.36036056, -475048.2, -25645.174, 0.0, 9.999985, 9.999147 
2.8545496e+3, 2.6414478e+2, -534279.6, -530695.4, 149229.69, 0.016846027, 0.36902273, -383247.06, -31830.006, 0.0, 9.999587, 9.999566 
2.8544268e+3, 2.7414355e+2, -489627.97, -444440.2, 133428.27, 0.0039642807, 0.36108688, -331706.38, -78277.8, 0.0, 9.999156, 9.999696 
2.8543037e+3, 2.8414246e+2, -429027.72, -346510.9, 117014.35, 0.006732158, 0.35402298, -263694.28, -108255.74, 0.0, 9.998821, 9.999856 
2.8541803e+3, 2.941415e+2, -349660.03, -250544.5, 92162.72, 0.026984295, 0.34991613, -195460.33, -138013.97, 0.0, 9.998657, 9.999925 
2.854056e+3, 3.0414057e+2, -321722.75, -180168.13, 82198.29, 0.0079833465, 0.3413897, -142474.31, -142474.31, 0.0, 9.99815, 9.999979 
2.853932e+3, 3.1413954e+2, -395159.72, -166883.08, 42442.27, 0.016592244, 0.30800715, -159247.42, -159247.42, 0.0, 9.997198, 10.000198 
2.8538075e+3, 3.2414007e+2, -236655.64, 125168.81, 19108.834, 0.043413397, 0.3695359, 126175.195, 126175.195, 0.0, 9.997349, 10.002136 
2.866148e+3, 1.3429518e+2, -1290988.0, -1651528.0, 5864.0474, 0.024368359, 0.2906088, -1290892.8, 333042.03, 0.0, 10.003528, 9.998732 
2.866022e+3, 1.4429289e+2, -1232812.1, -1575865.1, 50641.59, -0.017910756, 0.2686365, -1225492.6, 300464.75, 0.0, 10.00327, 9.998702 
2.865898e+3, 1.5429094e+2, -1174704.3, -1491649.4, 100806.16, 0.011820287, 0.28255206, -1145359.3, 282617.25, 0.0, 10.002987, 9.998737 
2.8657743e+3, 1.6428895e+2, -1119507.9, -1413334.4, 104533.82, 0.047722567, 0.29005182, -1086113.6, 243882.48, 0.0, 10.002689, 9.998744 
2.8656512e+3, 1.742869e+2, -1069659.9, -1334382.8, 127554.29, 0.0657854, 0.28828692, -1018201.7, 213814.75, 0.0, 10.00235, 9.998774 
2.8655282e+3, 1.8428487e+2, -1021446.25, -1271479.0, 149488.55, 0.06177889, 0.29201633, -951588.5, 182448.66, 0.0, 10.002056, 9.998673 
2.8654054e+3, 1.9428286e+2, -958600.9, -1187602.8, 173354.13, 0.04178684, 0.3035309, -865346.8, 170711.61, 0.0, 10.001808, 9.998693 
2.865283e+3, 2.04281e+2, -882452.44, -1068735.1, 176454.58, 0.036492944, 0.31617308, -776065.5, 162012.27, 0.0, 10.001523, 9.998974 
2.865161e+3, 2.1427934e+2, -830521.0, -987498.6, 179691.78, 0.04446538, 0.3298282, -712924.0, 127170.625, 0.0, 10.001185, 9.99902 
2.8650388e+3, 2.2427766e+2, -766633.44, -894456.0, 177953.83, 0.047900267, 0.3356948, -641462.2, 100649.41, 0.0, 10.000902, 9.999123 
2.8649166e+3, 2.3427594e+2, -698433.94, -808116.44, 177132.38, 0.047897555, 0.33074576, -567847.44, 76281.3, 0.0, 10.000686, 9.999147 
2.8647938e+3, 2.442743e+2, -630907.8, -718839.06, 184980.16, 0.04426293, 0.33149216, -484740.22, 61404.973, 0.0, 10.000451, 9.9992 
2.8646713e+3, 2.5427282e+2, -569183.8, -635513.7, 179552.14, 0.03444355, 0.3403509, -419759.38, 28401.234, 0.0, 10.000186, 9.9992285 
2.8645486e+3, 2.6427147e+2, -502678.16, -520063.0, 170988.98, 0.021433951, 0.35020688, -340160.8, 10013.513, 0.0, 9.999829, 9.99952 
2.8644252e+3, 2.7427033e+2, -465419.44, -441505.6, 145387.56, 0.004364362, 0.36050314, -307584.1, -55398.53, 0.0, 9.999364, 9.999614 
2.864302e+3, 2.8426918e+2, -413486.63, -348520.22, 129124.195, 0.00955343, 0.35909253, -247856.08, -93659.78, 0.0, 9.998974, 9.999767 
2.8641784e+3, 2.9426804e+2, -342100.44, -257476.78, 103745.97, 0.040558223, 0.3434094, -187746.13, -131539.92, 0.0, 9.99876, 9.9998255 
2.8640538e+3, 3.0426696e+2, -281229.28, -173336.06, 76985.65, 0.012027262, 0.3340258, -133277.2, -133277.2, 0.0, 9.998487, 9.999861 
2.8639284e+3, 3.1426594e+2, -267112.3, -126491.93, 52542.086, -0.019363767, 0.3166662, -109028.586, -109028.586, 0.0, 9.998175, 10.000002 
2.863805e+3, 3.2426617e+2, -72890.42, 172442.9, 62872.555, 0.06867873, 0.37154412, 187616.97, 187616.97, 0.0, 9.998614, 10.001849 
2.876151e+3, 1.3442151e+2, -1286523.8, -1637920.8, -3912.2646, 0.024897719, 0.30011937, -1286480.3, 336217.44, 0.0, 10.003508, 9.9988365 
2.8760245e+3, 1.4441942e+2, -1223281.6, -1559141.3, 40715.15, -0.039553866, 0.28967234, -1218416.4, 306301.78, 0.0, 10.003282, 9.998813 
2.8759003e+3, 1.5441729e+2, -1168652.9, -1479656.9, 90170.57, 0.033334464, 0.2758437, -1144400.6, 282337.97, 0.0, 10.002987, 9.99882 
2.8757766e+3, 1.6441531e+2, -1117355.5, -1409096.1, 92129.414, 0.072689444, 0.27759486, -1090697.6, 238060.42, 0.0, 10.002688, 9.9987755 
2.8756526e+3, 1.744135e+2, -1067193.0, -1331411.5, 115326.7, 0.044686742, 0.29791415, -1023936.7, 206839.67, 0.0, 10.002357, 9.998791 
2.875529e+3, 1.8441162e+2, -1006549.9, -1242270.0, 140984.89, 0.030141007, 0.30690354, -940649.94, 192145.38, 0.0, 10.002062, 9.998873 
2.8754064e+3, 1.9440965e+2, -944704.5, -1158262.1, 164214.53, 0.045187056, 0.30226028, -855605.5, 179209.81, 0.0, 10.001803, 9.998898 
2.875284e+3, 2.0440783e+2, -884061.06, -1071424.6, 164067.19, 0.050456714, 0.30726638, -788813.44, 148020.75, 0.0, 10.001518, 9.998959 
2.8751615e+3, 2.1440616e+2, -833072.8, -993423.2, 166938.81, 0.037565615, 0.32396618, -728054.56, 110797.41, 0.0, 10.001186, 9.99898 
2.8750387e+3, 2.2440459e+2, -758823.6, -879306.25, 169592.19, 0.027422462, 0.33726257, -639091.25, 101776.98, 0.0, 10.000905, 9.999226 
2.874916e+3, 2.344031e+2, -691424.4, -794636.5, 168841.27, 0.023247391, 0.34587547, -566478.56, 76404.45, 0.0, 10.000688, 9.99924 
2.8747937e+3, 2.4440159e+2, -615202.6, -687134.3, 175864.97, 0.030336281, 0.34324878, -471663.53, 73234.24, 0.0, 10.000453, 9.999417 
2.8746712e+3, 2.5440004e+2, -555428.75, -608656.6, 169284.17, 0.05059898, 0.32700396, -410679.25, 36233.23, 0.0, 10.000191, 9.999412 
2.8745478e+3, 2.643987e+2, -513202.9, -543686.75, 154774.6, 0.04611052, 0.33204937, -372921.56, -23995.475, 0.0, 9.999834, 9.999357 
2.8744242e+3, 2.7439752e+2, -480777.75, -474803.0, 127083.055, 0.01009719, 0.36334553, -350672.22, -99734.03, 0.0, 9.999368, 9.999385 
2.8743002e+3, 2.8439617e+2, -425501.9, -375040.22, 117797.555, 0.0021940754, 0.36091098, -279801.72, -126849.94, 0.0, 9.998978, 9.999585 
2.8741762e+3, 2.9439452e+2, -355463.63, -284582.4, 97517.766, 0.02824545, 0.31467345, -216264.89, -161297.8, 0.0, 9.998755, 9.999641 
2.8740516e+3, 3.043936e+2, -272803.25, -158130.34, 63416.402, 0.01814419, 0.32257825, -129973.47, -129973.47, 0.0, 9.998496, 9.999962 
2.8739265e+3, 3.1439352e+2, -256384.63, -119740.32, 47003.746, 0.028745428, 0.39612347, -105133.17, -105133.17, 0.0, 9.998242, 10.000015 
2.8738025e+3, 3.2439098e+2, -216059.14, -145321.9, 113947.805, 0.018492356, 0.27098098, -61379.836, -61379.836, 0.0, 9.998704, 9.999622 
2.8861535e+3, 1.3454783e+2, -1364215.0, -1657898.0, 6400.0347, 0.031596176, 0.30533114, -1364075.5, 257384.92, 0.0, 10.002899, 9.998992 
2.8860265e+3, 1.4454593e+2, -1259761.8, -1564922.4, 36721.98, -0.045402385, 0.30006444, -1255405.0, 268074.2, 0.0, 10.002981, 9.998917 
2.8859025e+3, 1.5454392e+2, -1212721.0, -1492411.0, 83767.26, 0.036733694, 0.28866923, -1189552.0, 235946.69, 0.0, 10.002648, 9.998895 
2.8857785e+3, 1.64542e+2, -1149749.5, -1408585.9, 91457.914, 0.07745806, 0.28639078, -1120694.9, 206822.33, 0.0, 10.002398, 9.998919 
2.885654e+3, 1.7454022e+2, -1076324.6, -1320045.6, 121792.086, 0.041886423, 0.29597375, -1025896.7, 203638.11, 0.0, 10.002227, 9.998931 
2.8855303e+3, 1.8453844e+2, -1014255.56, -1229272.6, 146656.31, 0.024805328, 0.30082524, -939923.06, 191629.45, 0.0, 10.001938, 9.999021 
2.8854075e+3, 1.9453664e+2, -978425.94, -1157800.0, 165111.83, 0.044740908, 0.29900908, -880214.94, 153355.66, 0.0, 10.001502, 9.999046 
2.8852847e+3, 2.0453495e+2, -924630.0, -1085617.0, 169989.5, 0.049590446, 0.30750477, -817039.4, 118548.85, 0.0, 10.001219, 9.999004 
2.8851616e+3, 2.1453336e+2, -840834.0, -992331.56, 178248.69, 0.02865468, 0.3285444, -722906.56, 114699.06, 0.0, 10.001114, 9.999022 
2.885039e+3, 2.2453183e+2, -751133.8, -868133.5, 181342.72, 0.018471645, 0.34298757, -619088.6, 120533.03, 0.0, 10.000928, 9.99929 
2.884916e+3, 2.3453039e+2, -693693.4, -788093.7, 176990.19, 0.023961661, 0.34975642, -557717.7, 83918.43, 0.0, 10.000643, 9.999305 
2.8847933e+3, 2.4452898e+2, -611397.9, -662901.06, 182251.66, 0.03071504, 0.34506196, -453087.5, 90562.07, 0.0, 10.000386, 9.999614 
2.8846705e+3, 2.545276e+2, -547618.9, -583963.9, 173576.61, 0.039794758, 0.32554433, -391266.1, 54395.93, 0.0, 10.000159, 9.999594 
2.884547e+3, 2.6452628e+2, -491280.6, -529187.44, 164158.06, 0.03808277, 0.32677025, -344985.4, 2689.2275, 0.0, 9.999975, 9.999385 
2.8844228e+3, 2.7452508e+2, -422776.28, -451629.63, 147543.36, 0.019851744, 0.35431838, -288955.94, -39268.445, 0.0, 9.999793, 9.999335 
2.8842986e+3, 2.8452367e+2, -375745.22, -352646.9, 146538.17, 0.013042878, 0.35245842, -217203.47, -65501.645, 0.0, 9.999333, 9.999563 
2.8841743e+3, 2.94522e+2, -361603.16, -308135.56, 144538.45, 0.020010438, 0.31253248, -187879.36, -134161.39, 0.0, 9.998814, 9.999447 
2.8840494e+3, 3.0452073e+2, -217682.03, -187601.14, 105848.94, 0.0155591, 0.32398897, -95729.414, -95729.414, 0.0, 9.9991255, 9.999453 
2.8839254e+3, 3.1451994e+2, -13862.665, -89716.99, 32572.076, 0.0650886, 0.3905425, -1795.7307, -1795.7307, 0.0, 10.000283, 9.999238 
2.883801e+3, 3.2451642e+2, -63987.824, -175139.64, 98891.81, -0.018198254, 0.26109448, -6125.3267, -6125.3267, 0.0, 10.000188, 9.998705 
2.8961557e+3, 1.346742e+2, -1351086.8, -1631356.4, 21595.434, 0.042819813, 0.3069112, -1349432.6, 270790.2, 0.0, 10.002902, 9.999173 
2.8960288e+3, 1.4467247e+2, -1255450.0, -1552522.1, 26489.66, -0.04136962, 0.30404165, -1253106.5, 269133.53, 0.0, 10.002965, 9.99901 
2.8959042e+3, 1.5467076e+2, -1208732.9, -1483407.0, 72013.984, 0.026224256, 0.3162269, -1190997.4, 233259.38, 0.0, 10.002645, 9.99896 
2.89578e+3, 1.6466896e+2, -1133826.1, -1375773.3, 86261.88, 0.06809381, 0.31000325, -1106220.8, 220053.42, 0.0, 10.002398, 9.999145 
2.8956556e+3, 1.7466703e+2, -1060652.4, -1286815.4, 115566.89, 0.05447296, 0.2839186, -1012045.5, 216246.53, 0.0, 10.002222, 9.999163 
2.8955314e+3, 1.8466532e+2, -1007925.5, -1215673.3, 131162.08, 0.040149532, 0.27827415, -944487.5, 185821.27, 0.0, 10.001934, 9.999116 
2.8954083e+3, 1.9466381e+2, -970885.25, -1143822.1, 148601.52, 0.0398332, 0.2948002, -885425.8, 146898.58, 0.0, 10.001507, 9.99914 
2.895285e+3, 2.0466232e+2, -916492.7, -1070789.5, 165834.23, 0.03529439, 0.316049, -810739.9, 123600.13, 0.0, 10.001225, 9.999104 
2.8951618e+3, 2.146609e+2, -832751.8, -976187.6, 174246.55, 0.018319242, 0.34288788, -716041.2, 120314.65, 0.0, 10.001115, 9.999132 
2.895039e+3, 2.246594e+2, -750359.7, -866640.75, 170742.81, 0.021669969, 0.35212755, -628130.0, 110241.875, 0.0, 10.000927, 9.999302 
2.8949162e+3, 2.346578e+2, -692060.8, -785037.8, 165907.22, 0.051227894, 0.34150493, -566251.94, 74136.305, 0.0, 10.000643, 9.999327 
2.894793e+3, 2.4465647e+2, -600336.2, -640337.0, 173214.31, 0.04448244, 0.33704963, -445971.4, 96429.34, 0.0, 10.000386, 9.99977 
2.8946695e+3, 2.5465545e+2, -536432.44, -560856.25, 164532.48, -0.0033738308, 0.33866873, -383659.28, 60749.992, 0.0, 10.000158, 9.999754 
2.8945458e+3, 2.646543e+2, -474300.38, -495186.94, 159440.08, -0.007487204, 0.33578825, -324961.94, 21458.086, 0.0, 9.999979, 9.999618 
2.894422e+3, 2.7465296e+2, -409453.84, -430080.3, 137683.27, 0.03604378, 0.329275, -281698.1, -33264.313, 0.0, 9.999816, 9.999474 
2.8942975e+3, 2.846517e+2, -361769.97, -329662.66, 118940.836, 0.04711275, 0.33241037, -225696.97, -75251.11, 0.0, 9.999354, 9.999714 
2.8941724e+3, 2.9465058e+2, -377464.2, -335974.88, 137535.22, 0.017822556, 0.3482367, -217628.64, -165172.2, 0.0, 9.998795, 9.999263 
2.8940478e+3, 3.0464837e+2, -309960.84, -382363.63, 150514.39, 0.000945639, 0.33334386, -191355.52, -191355.52, 0.0, 9.999143, 9.998104 
2.893925e+3, 3.1464437e+2, -119042.57, -343537.66, 74574.836, 0.080221735, 0.24650049, -96527.664, -96527.664, 0.0, 10.000438, 9.997419 
2.8938e+3, 3.2464337e+2, 36832.586, 20603.283, 22419.008, -0.024981722, 0.4290289, 52560.32, 52560.32, 0.0, 10.000247, 10.000022 
2.9061574e+3, 1.3480066e+2, -1409683.6, -1644074.9, 33239.348, 0.03867319, 0.31376722, -1405061.0, 213923.25, 0.0, 10.002432, 9.999312 
2.9060307e+3, 1.4479911e+2, -1312966.6, -1557459.4, 22541.217, -0.03317824, 0.3120898, -1310905.8, 210093.97, 0.0, 10.002472, 9.999214 
2.905906e+3, 1.5479761e+2, -1245759.6, -1480897.5, 72941.54, 0.027301988, 0.32435685, -1224970.6, 198044.06, 0.0, 10.002301, 9.999143 
2.9057816e+3, 1.6479595e+2, -1165138.1, -1374507.9, 91211.15, 0.06354042, 0.3172815, -1130976.4, 194054.11, 0.0, 10.002111, 9.999291 
2.9056567e+3, 1.7479414e+2, -1097224.1, -1287870.9, 114492.36, 0.04936322, 0.2887176, -1043567.5, 183479.5, 0.0, 10.001899, 9.999311 
2.9055327e+3, 1.8479256e+2, -1035203.9, -1217623.5, 124493.4, 0.03567192, 0.28398663, -972083.4, 156978.95, 0.0, 10.001698, 9.999217 
2.9054087e+3, 1.9479118e+2, -963458.75, -1128183.0, 141934.36, 0.0351877, 0.30552816, -881720.6, 149355.94, 0.0, 10.001505, 9.9992485 
2.9052854e+3, 2.0478982e+2, -907148.44, -1052935.9, 163423.27, 0.03565359, 0.3244952, -801099.0, 131992.19, 0.0, 10.001231, 9.999224 
2.905162e+3, 2.147884e+2, -858981.75, -973204.3, 173146.06, 0.030487487, 0.34096676, -733771.2, 101335.19, 0.0, 10.000867, 9.999273 
2.9050392e+3, 2.24787e+2, -788569.25, -875536.3, 174973.0, 0.031859957, 0.34932774, -651757.5, 85363.68, 0.0, 10.000624, 9.999388 
2.904916e+3, 2.3478559e+2, -703754.7, -777959.5, 176066.11, 0.044510756, 0.34772143, -560924.1, 78211.93, 0.0, 10.000507, 9.99944 
2.9047924e+3, 2.4478438e+2, -602235.8, -631725.06, 183025.05, 0.03480693, 0.3441509, -433362.44, 107785.2, 0.0, 10.000334, 9.999854 
2.9046687e+3, 2.5478336e+2, -535799.06, -544589.0, 169430.25, -0.0027022068, 0.33915815, -370706.8, 72448.984, 0.0, 10.000096, 9.999894 
2.904545e+3, 2.6478237e+2, -476160.6, -462692.6, 166206.9, -0.006482222, 0.33058652, -303083.3, 42081.52, 0.0, 9.999826, 9.999912 
2.9044208e+3, 2.7478132e+2, -427481.28, -394048.0, 152795.92, 0.03019854, 0.3175752, -257056.98, -9881.584, 0.0, 9.999507, 9.9998665 
2.9042962e+3, 2.847804e+2, -339889.4, -286367.72, 146193.81, 0.04806577, 0.32445222, -164505.63, -15321.967, 0.0, 9.999378, 9.999992 
2.9041702e+3, 2.9477987e+2, -383204.75, -266940.1, 163104.92, 0.026158018, 0.3570631, -151917.63, -100729.17, 0.0, 9.998465, 9.999886 
2.916159e+3, 1.3492718e+2, -1401854.0, -1627802.4, 41594.01, 0.025439383, 0.32448798, -1394440.4, 223304.69, 0.0, 10.002432, 9.999424 
2.9160327e+3, 1.4492583e+2, -1297195.5, -1518502.3, 18779.576, -0.022163533, 0.32211897, -1295613.3, 224145.48, 0.0, 10.002444, 9.999495 
2.9159075e+3, 1.5492442e+2, -1228174.3, -1442901.6, 66224.49, 0.03664293, 0.318051, -1209392.6, 212379.7, 0.0, 10.002294, 9.999407 
2.9157826e+3, 1.6492297e+2, -1159333.0, -1362746.4, 83999.76, 0.061823882, 0.3134835, -1129129.9, 194656.34, 0.0, 10.002111, 9.9993725 
2.9156578e+3, 1.7492148e+2, -1090990.9, -1275604.3, 106253.88, 0.029738981, 0.30769554, -1042548.1, 183251.92, 0.0, 10.001901, 9.999395 
2.9155335e+3, 1.8492009e+2, -1027510.56, -1202170.4, 117823.06, 0.015388107, 0.31239876, -968181.75, 159632.05, 0.0, 10.0016985, 9.999324 
2.9154095e+3, 1.9491878e+2, -955007.3, -1110838.0, 134290.31, 0.03140264, 0.32853624, -877665.8, 152161.63, 0.0, 10.001505, 9.999369 
2.9152858e+3, 2.0491737e+2, -897449.8, -1032931.3, 150119.9, 0.049703043, 0.33225822, -800494.5, 131347.39, 0.0, 10.00123, 9.999363 
2.9151627e+3, 2.1491586e+2, -847011.8, -949159.94, 158957.88, 0.06387693, 0.3233969, -731124.3, 102732.87, 0.0, 10.000869, 9.999438 
2.915039e+3, 2.2491467e+2, -777196.44, -852966.3, 170489.67, 0.046673175, 0.33612546, -640433.1, 95436.46, 0.0, 10.000627, 9.999542 
2.9149154e+3, 2.3491377e+2, -688989.75, -748295.7, 171310.23, 0.0009863691, 0.36997768, -544785.0, 93094.375, 0.0, 10.00051, 9.999643 
2.9147917e+3, 2.4491265e+2, -602369.0, -632993.5, 174317.61, 0.0027721743, 0.3661107, -442692.4, 97197.76, 0.0, 10.000336, 9.9998455 
2.9146686e+3, 2.5491133e+2, -528659.1, -530887.9, 159267.38, 0.05057905, 0.32391295, -370502.22, 71399.68, 0.0, 10.000099, 9.999989 
2.9145443e+3, 2.649105e+2, -451833.6, -413281.5, 153187.1, 0.046325114, 0.3098909, -278162.44, 65746.95, 0.0, 9.999828, 10.000252 
2.9144192e+3, 2.7491018e+2, -385002.94, -304781.38, 139457.92, -0.0067370664, 0.32424092, -199780.53, 46131.676, 0.0, 9.9995, 10.0004835 
2.9142943e+3, 2.8490978e+2, -315673.2, -238432.22, 150438.16, 0.006697529, 0.3296073, -121736.31, 26179.428, 0.0, 9.999387, 10.000318 
2.9141682e+3, 2.949097e+2, -274947.47, -71693.016, 84555.37, 0.05201697, 0.3269574, -41116.98, 8799.604, 0.0, 9.998563, 10.001194 
2.9261604e+3, 1.3505375e+2, -1449733.8, -1631597.1, 42226.918, 0.01906136, 0.32367414, -1440407.4, 176097.83, 0.0, 10.002019, 9.999598 
2.926034e+3, 1.4505264e+2, -1366769.6, -1535137.3, 23809.354, -0.018734839, 0.32982188, -1363467.4, 155049.02, 0.0, 10.001892, 9.999647 
2.925909e+3, 1.5505144e+2, -1269045.8, -1447372.9, 61287.824, 0.032798134, 0.33147356, -1250013.5, 170514.69, 0.0, 10.0019455, 9.999546 
2.925784e+3, 1.650501e+2, -1185965.4, -1363991.9, 72546.73, 0.054772157, 0.32797945, -1160146.6, 162394.1, 0.0, 10.001876, 9.999478 
2.9256588e+3, 1.7504872e+2, -1111179.9, -1272771.8, 95584.31, 0.023675907, 0.3198112, -1066818.5, 157735.31, 0.0, 10.001704, 9.999512 
2.9255342e+3, 1.850474e+2, -1049162.6, -1205002.5, 107745.12, 0.0125393905, 0.32440817, -994114.44, 132452.25, 0.0, 10.001514, 9.999394 
2.9254103e+3, 1.9504619e+2, -977803.06, -1112915.8, 121074.6, 0.034398, 0.3411398, -906712.6, 121866.914, 0.0, 10.001306, 9.999453 
2.9252863e+3, 2.0504485e+2, -904368.06, -1022284.0, 133927.13, 0.05610405, 0.34017888, -816995.9, 113597.2, 0.0, 10.00112, 9.999491 
2.925163e+3, 2.1504338e+2, -824371.44, -921797.25, 141014.02, 0.07110595, 0.3217232, -723893.5, 108713.79, 0.0, 10.00095, 9.999589 
2.925039e+3, 2.2504228e+2, -758132.0, -834678.44, 152418.03, 0.052206248, 0.3310989, -639255.3, 95363.24, 0.0, 10.000714, 9.999627 
2.924915e+3, 2.3504153e+2, -695043.9, -737123.6, 147228.14, 0.0019198273, 0.36819485, -567359.9, 69266.984, 0.0, 10.000403, 9.999774 
2.9247913e+3, 2.450405e+2, -624111.9, -639855.4, 150479.45, 0.004542682, 0.3645573, -481298.44, 57338.41, 0.0, 10.000166, 9.999883 
2.924668e+3, 2.5503924e+2, -535870.94, -522123.66, 137373.22, 0.06053644, 0.31987792, -391452.22, 49196.293, 0.0, 9.99999, 10.000104 
2.9245436e+3, 2.6503858e+2, -449314.16, -392671.4, 123640.19, 0.057301074, 0.3091624, -294150.38, 48503.97, 0.0, 9.999755, 10.000432 
2.924418e+3, 2.750386e+2, -368910.16, -262331.97, 90903.65, -0.004856405, 0.33222246, -210249.34, 34404.33, 0.0, 9.999452, 10.000804 
2.9242927e+3, 2.8503844e+2, -312962.44, -210953.83, 102571.336, 0.0020130172, 0.33102039, -147405.45, -750.6634, 0.0, 9.999278, 10.0005665 
2.9241666e+3, 2.9503843e+2, -70158.32, 57368.25, -18184.5, 0.039830655, 0.30509079, 59910.566, 108565.61, 0.0, 9.999802, 10.001504 
2.9361618e+3, 1.3518034e+2, -1439959.5, -1603348.1, 27175.299, 0.01670399, 0.31589547, -1435558.1, 179706.7, 0.0, 10.001986, 9.999807 
2.936035e+3, 1.4517951e+2, -1363156.5, -1526393.6, 27638.338, -0.020861547, 0.33694252, -1358603.9, 158669.4, 0.0, 10.001887, 9.999709 
2.93591e+3, 1.5517858e+2, -1268036.0, -1441246.5, 62042.637, 0.019294797, 0.3593138, -1248106.0, 171176.84, 0.0, 10.001927, 9.999597 
2.935785e+3, 1.6517732e+2, -1179501.8, -1346227.5, 66903.61, 0.044173293, 0.35501465, -1155974.6, 165320.06, 0.0, 10.001857, 9.99961 
2.9356596e+3, 1.7517586e+2, -1102347.3, -1252790.8, 88152.06, 0.028528169, 0.3257093, -1061685.0, 161623.3, 0.0, 10.001697, 9.999653 
2.935535e+3, 1.8517457e+2, -1046136.94, -1198658.1, 99893.38, 0.023567058, 0.32321855, -996721.9, 128599.06, 0.0, 10.001513, 9.999439 
2.935411e+3, 1.9517344e+2, -973239.25, -1104619.5, 112570.32, 0.04271455, 0.3449986, -908594.2, 118738.63, 0.0, 10.001309, 9.999508 
2.9352868e+3, 2.0517224e+2, -895118.9, -1004396.5, 127633.9, 0.054546647, 0.3486664, -810920.3, 118424.43, 0.0, 10.001123, 9.999613 
2.9351628e+3, 2.1517096e+2, -814178.56, -901474.6, 133831.8, 0.05316181, 0.33529776, -717056.94, 114299.94, 0.0, 10.000952, 9.999728 
2.935039e+3, 2.2516981e+2, -756645.4, -831612.6, 141027.19, 0.051128067, 0.33241907, -648205.44, 85162.78, 0.0, 10.000712, 9.99965 
2.934915e+3, 2.3516881e+2, -690642.7, -728227.6, 134651.53, 0.05085653, 0.34031677, -573478.56, 61900.074, 0.0, 10.000402, 9.999836 
2.934791e+3, 2.4516791e+2, -617081.06, -626222.3, 143997.42, 0.039062932, 0.33983886, -477581.72, 59805.99, 0.0, 10.000168, 9.999976 
2.934667e+3, 2.5516713e+2, -524240.6, -499791.16, 129774.68, 0.017592944, 0.330536, -381666.7, 57728.65, 0.0, 9.999996, 10.000256 
2.9345423e+3, 2.6516667e+2, -447573.72, -391475.16, 112546.14, 0.022110429, 0.3307674, -303535.66, 37863.98, 0.0, 9.9997635, 10.000438 
2.934417e+3, 2.7516654e+2, -365885.13, -259720.14, 76827.86, 0.049462058, 0.34043637, -219420.23, 23980.172, 0.0, 9.999464, 10.000817 
2.9342917e+3, 2.851664e+2, -293264.34, -176776.61, 99950.18, 0.041179124, 0.32869068, -119338.22, 26063.162, 0.0, 9.999304, 10.000792 
2.9341647e+3, 2.9516616e+2, -110827.83, -26557.787, 21323.607, -0.032718938, 0.29941207, -21469.336, 25933.865, 0.0, 9.999811, 10.000917 
2.9461622e+3, 1.3530684e+2, -1502882.9, -1617300.6, 11141.326, 0.0044603623, 0.32106724, -1501808.0, 112216.99, 0.0, 10.00148, 9.999957 
2.9460362e+3, 1.4530618e+2, -1397434.9, -1526915.0, 15308.167, -0.019542465, 0.34437704, -1395649.6, 120381.945, 0.0, 10.001581, 9.999855 
2.9459107e+3, 1.5530515e+2, -1320079.1, -1451568.4, 50399.063, 0.015317391, 0.34192294, -1302984.0, 115057.72, 0.0, 10.001502, 9.999733 
2.9457855e+3, 1.6530398e+2, -1240650.3, -1374706.8, 53721.953, 0.03756113, 0.3371645, -1221778.3, 98274.93, 0.0, 10.001428, 9.999623 
2.9456604e+3, 1.7530273e+2, -1143880.0, -1271129.4, 66728.65, 0.025824016, 0.32873175, -1115304.9, 106760.53, 0.0, 10.001399, 9.999673 
2.9455358e+3, 1.853015e+2, -1065423.0, -1200903.1, 75034.125, 0.023790816, 0.32624853, -1032074.8, 92002.8, 0.0, 10.001345, 9.999508 
2.9454115e+3, 1.9530028e+2, -974080.5, -1097430.4, 88199.35, 0.043283645, 0.33063364, -928131.44, 97958.445, 0.0, 10.001266, 9.999581 
2.9452872e+3, 2.0529914e+2, -890437.7, -998426.0, 100464.28, 0.05282394, 0.33442292, -830377.3, 97723.8, 0.0, 10.001133, 9.999652 
2.945163e+3, 2.1529807e+2, -809828.2, -893952.94, 100178.6, 0.046758704, 0.33655837, -743239.75, 86871.59, 0.0, 10.000951, 9.9997835 
2.945039e+3, 2.2529699e+2, -743032.94, -820405.06, 103959.35, 0.052324194, 0.33513153, -670794.9, 61326.984, 0.0, 10.000778, 9.999699 
2.944915e+3, 2.3529592e+2, -656725.06, -705961.44, 98032.58, 0.0711669, 0.33078337, -580266.9, 53865.656, 0.0, 10.000601, 9.999898 
2.9447907e+3, 2.452951e+2, -588363.06, -607545.2, 106712.914, 0.05751292, 0.3312053, -490811.1, 45329.836, 0.0, 10.000335, 10.000029 
2.944666e+3, 2.552945e+2, -518133.88, -490998.84, 87820.92, 0.013652725, 0.33567658, -415703.6, 22443.424, 0.0, 10.000002, 10.0003195 
2.9445413e+3, 2.6529413e+2, -432246.38, -386427.66, 72267.664, 0.017964553, 0.34020877, -333525.06, 6625.7344, 0.0, 9.999866, 10.00043 
2.9444164e+3, 2.7529395e+2, -292223.03, -233044.06, 37616.16, 0.06791466, 0.34518257, -214774.25, 27378.082, 0.0, 9.999991, 10.000755 
2.9442906e+3, 2.852938e+2, -194689.89, -126131.82, 51722.56, 0.04867797, 0.33083147, -98360.27, 45793.094, 0.0, 9.999947, 10.000839 
2.9441634e+3, 2.9529354e+2, -99752.414, -50374.074, 10934.012, -0.06943605, 0.31131998, -48061.25, -1906.1688, 0.0, 10.000006, 10.000664 
2.956163e+3, 1.3543323e+2, -1499666.6, -1602984.3, 21138.148, -0.013615276, 0.33386952, -1495509.1, 117276.836, 0.0, 10.001448, 10.00007 
2.956037e+3, 1.4543267e+2, -1388013.5, -1499772.6, 15772.569, -0.015554804, 0.34970647, -1385830.3, 128961.125, 0.0, 10.001549, 10.000056 
2.9559118e+3, 1.5543126e+2, -1307640.3, -1423962.1, 45747.574, 0.018281166, 0.29135698, -1291804.4, 124999.75, 0.0, 10.001494, 9.999927 
2.9557863e+3, 1.6543016e+2, -1245734.5, -1384885.3, 52665.527, 0.033740908, 0.28796536, -1228049.4, 90765.945, 0.0, 10.001426, 9.999555 
2.9556608e+3, 1.7542937e+2, -1148807.5, -1280447.5, 65555.17, 0.017122766, 0.33108404, -1121731.1, 99093.45, 0.0, 10.001394, 9.999612 
2.9555362e+3, 1.8542819e+2, -1059199.3, -1187895.5, 72878.39, 0.0152339805, 0.3321518, -1026326.3, 96510.16, 0.0, 10.001344, 9.999598 
2.9554117e+3, 1.954267e+2, -967043.4, -1084066.6, 84653.54, 0.037206076, 0.3003532, -922648.06, 102202.45, 0.0, 10.001269, 9.999672 
2.9552877e+3, 2.0542555e+2, -891752.9, -1001675.94, 93819.164, 0.05136072, 0.30081713, -837981.7, 88880.09, 0.0, 10.001135, 9.99963 
2.955163e+3, 2.154247e+2, -810733.94, -895963.2, 92628.43, 0.05117042, 0.32717773, -751387.6, 77482.88, 0.0, 10.000951, 9.999771 
2.955039e+3, 2.2542381e+2, -737313.3, -808661.2, 97660.69, 0.053671062, 0.34035176, -669014.94, 61864.39, 0.0, 10.000777, 9.999781 
2.954915e+3, 2.3542288e+2, -651137.2, -695290.9, 90526.81, 0.06046125, 0.3408197, -580034.1, 52854.164, 0.0, 10.000604, 9.99997 
2.9547903e+3, 2.4542208e+2, -585954.75, -603493.1, 93816.31, 0.06107873, 0.3382695, -500498.7, 34397.863, 0.0, 10.000338, 10.000056 
2.9546654e+3, 2.554214e+2, -518320.53, -491630.72, 74869.03, 0.056335688, 0.33319983, -428926.56, 7977.3013, 0.0, 10.000001, 10.000316 
2.9545406e+3, 2.65421e+2, -429647.97, -383810.13, 73886.164, 0.04710405, 0.3362563, -329369.88, 9538.032, 0.0, 9.999875, 10.000444 
2.9544154e+3, 2.7542084e+2, -295097.9, -244588.67, 46362.984, 0.037693568, 0.34635413, -217048.19, 23861.063, 0.0, 10.000016, 10.000664 
2.9542896e+3, 2.854207e+2, -199932.77, -138717.22, 40672.57, 0.017027965, 0.33800197, -118422.2, 24488.178, 0.0, 9.999955, 10.000749 
2.954163e+3, 2.9542065e+2, -97757.22, -33974.04, 24692.959, -0.05736223, 0.34259138, -25531.826, 19378.37, 0.0, 9.999962, 10.0007925 
2.9661635e+3, 1.355591e+2, -1559628.8, -1628390.6, 24116.838, -0.022530846, 0.2839401, -1552013.6, 59537.42, 0.0, 10.001019, 10.000104 
2.9660374e+3, 1.4555874e+2, -1448602.5, -1526994.8, 15041.854, -0.011421167, 0.31859618, -1445815.4, 67739.27, 0.0, 10.001121, 10.000077 
2.9659122e+3, 1.5555763e+2, -1340350.9, -1438896.5, 29764.738, 0.022390997, 0.2871949, -1332058.5, 83506.64, 0.0, 10.001261, 9.999939 
2.9657868e+3, 1.6555668e+2, -1267977.9, -1391664.4, 33206.96, 0.040746566, 0.29718208, -1259626.5, 57948.555, 0.0, 10.001251, 9.999596 
2.9656616e+3, 1.7555597e+2, -1177962.5, -1290823.6, 52689.445, 0.021907134, 0.34142748, -1157188.3, 62395.48, 0.0, 10.001171, 9.999651 
2.9655367e+3, 1.8555483e+2, -1082157.8, -1200953.4, 62909.81, 0.013236488, 0.34479192, -1055035.4, 66559.87, 0.0, 10.001187, 9.999587 
2.965412e+3, 1.9555335e+2, -967433.56, -1084988.9, 67706.72, 0.026614651, 0.3138098, -936550.7, 87058.38, 0.0, 10.001263, 9.999673 
2.965288e+3, 2.0555215e+2, -892481.06, -1011541.9, 65105.45, 0.037970614, 0.31224132, -863792.5, 61828.707, 0.0, 10.001163, 9.999552 
2.9651633e+3, 2.155512e+2, -817378.44, -906645.9, 60564.688, 0.040657774, 0.33542854, -786777.5, 40854.14, 0.0, 10.000929, 9.999712 
2.9650387e+3, 2.2555028e+2, -728038.06, -789891.25, 69479.53, 0.043352086, 0.34109318, -682912.94, 46727.664, 0.0, 10.000771, 9.999917 
2.9649144e+3, 2.3554939e+2, -632548.4, -674002.75, 66043.805, 0.049169168, 0.33271796, -584055.6, 47592.684, 0.0, 10.000669, 10.000091 
2.9647902e+3, 2.455487e+2, -559389.0, -589071.8, 66665.36, 0.060323074, 0.33259842, -505932.97, 27722.625, 0.0, 10.000503, 10.000081 
2.964665e+3, 2.5554812e+2, -476417.84, -476887.66, 47724.625, 0.074567534, 0.3384301, -428927.56, 6734.967, 0.0, 10.000301, 10.000278 
2.96454e+3, 2.6554775e+2, -381912.3, -358012.4, 56767.637, 0.059282195, 0.3434005, -311950.6, 25715.662, 0.0, 10.000178, 10.000482 
2.9644144e+3, 2.755475e+2, -275064.22, -246363.8, 37326.12, 0.022111004, 0.34824327, -220724.4, 18943.313, 0.0, 10.000193, 10.000572 
2.9642886e+3, 2.855472e+2, -182610.44, -149810.94, 13025.366, 0.005228318, 0.33792254, -145267.63, -3597.1208, 0.0, 10.000146, 10.0005865 
2.9641622e+3, 2.9554716e+2, -92062.71, -50715.91, 2043.5378, -0.044688158, 0.35678345, -50615.156, -6943.579, 0.0, 10.000074, 10.000629 
2.9761633e+3, 1.356846e+2, -1555665.9, -1628463.6, 14643.655, -0.02501565, 0.1987389, -1552830.6, 57488.195, 0.0, 10.001056, 10.000085 
2.976038e+3, 1.4568454e+2, -1459050.5, -1541995.3, 18742.91, -0.008409786, 0.26839304, -1455011.9, 57308.703, 0.0, 10.001093, 9.999988 
2.9759127e+3, 1.5568414e+2, -1353382.1, -1456622.4, 29615.594, 0.026240429, 0.31836686, -1345489.9, 68835.78, 0.0, 10.001221, 9.999837 
2.9757875e+3, 1.656834e+2, -1263623.3, -1375301.6, 27747.018, 0.054720547, 0.3472104, -1257109.3, 59224.4, 0.0, 10.00122, 9.9997225 
2.975662e+3, 1.7568246e+2, -1171254.9, -1274286.6, 47518.96, 0.03639079, 0.35535863, -1152685.5, 65658.15, 0.0, 10.00116, 9.99977 
2.9755372e+3, 1.8568136e+2, -1089111.5, -1213450.8, 65366.86, 0.015945364, 0.36277366, -1061070.9, 59283.65, 0.0, 10.001179, 9.999506 
2.9754123e+3, 1.9568013e+2, -973791.6, -1095436.0, 69366.44, 0.011878089, 0.36417705, -942358.5, 80007.57, 0.0, 10.00125, 9.999608 
2.9752877e+3, 2.0567882e+2, -901643.25, -1028729.1, 56879.973, 0.013941799, 0.36143148, -879904.06, 44475.973, 0.0, 10.001154, 9.999438 
2.9751632e+3, 2.1567751e+2, -823474.3, -919007.5, 52565.22, 0.016668264, 0.35830852, -800214.5, 26180.395, 0.0, 10.000927, 9.999629 
2.9750386e+3, 2.2567639e+2, -713887.94, -760005.3, 66070.84, 0.02283667, 0.33656797, -666967.6, 61438.074, 0.0, 10.000768, 10.000124 
2.9749143e+3, 2.3567548e+2, -620041.94, -647995.6, 61965.17, 0.0379236, 0.3058693, -570496.9, 59915.582, 0.0, 10.000668, 10.00027 
2.9747894e+3, 2.4567497e+2, -556818.5, -584309.1, 58523.94, 0.053338625, 0.3151568, -510447.4, 21970.467, 0.0, 10.0005045, 10.0001135 
2.9746646e+3, 2.5567472e+2, -479177.03, -484103.0, 41659.844, 0.063829616, 0.3538429, -439907.44, -5484.864, 0.0, 10.000307, 10.000226 
2.9745394e+3, 2.656744e+2, -374380.94, -343668.78, 54502.47, 0.05272193, 0.3634223, -302400.4, 34024.895, 0.0, 10.000184, 10.000578 
2.974414e+3, 2.7567405e+2, -280128.53, -254674.2, 40931.34, 0.02640702, 0.35082552, -224536.98, 13890.032, 0.0, 10.000184, 10.000518 
2.9742882e+3, 2.8567347e+2, -200789.44, -183742.97, 8821.933, 0.01797639, 0.32916808, -179999.5, -39566.34, 0.0, 10.000132, 10.00036 
2.9741615e+3, 2.9567292e+2, -125328.0, -115758.516, 6299.803, -0.027851203, 0.3321636, -112632.42, -70191.52, 0.0, 10.000061, 10.000186 
2.986164e+3, 1.3581152e+2, -1524299.1, -1598519.6, -44369.125, 0.0066866553, 0.33160794, -1503566.5, 105508.42, 0.0, 10.001207, 10.000218 
2.9860377e+3, 1.4581093e+2, -1512454.4, -1568542.9, -17329.98, -0.013310061, 0.34202835, -1507531.9, 3549.8777, 0.0, 10.0007305, 9.99998 
2.9859123e+3, 1.558097e+2, -1428119.0, -1493294.1, -2035.71, -0.010526685, 0.30848664, -1428055.5, -14960.232, 0.0, 10.00071, 9.999832 
2.985787e+3, 1.6580845e+2, -1322023.1, -1396205.1, -1111.2621, -0.000118632546, 0.28040567, -1322006.5, -6897.6284, 0.0, 10.000786, 9.999789 
2.9856622e+3, 1.758073e+2, -1198235.9, -1279529.6, 12113.91, 0.01619761, 0.26253396, -1196469.1, 20651.686, 0.0, 10.000939, 9.999842 
2.9855374e+3, 1.8580624e+2, -1109812.6, -1202684.8, 36221.62, 0.02543095, 0.25827292, -1097356.4, 21774.805, 0.0, 10.000945, 9.999693 
2.985413e+3, 1.958053e+2, -1017966.25, -1099161.5, 54675.84, 0.036623407, 0.26914504, -990463.8, 30675.643, 0.0, 10.000868, 9.999768 
2.9852885e+3, 2.0580447e+2, -937241.6, -1042433.75, 53673.145, 0.052652813, 0.30615687, -914690.1, 8458.599, 0.0, 10.000891, 9.999475 
2.985164e+3, 2.1580374e+2, -817674.75, -912452.75, 58042.15, 0.06181346, 0.35713616, -790133.06, 35025.613, 0.0, 10.000945, 9.999668 
2.985039e+3, 2.2580285e+2, -710498.7, -760291.0, 64462.8, 0.06003408, 0.35823715, -666291.5, 60875.555, 0.0, 10.000793, 10.0001135 
2.9849142e+3, 2.3580185e+2, -640882.7, -661915.6, 45481.934, 0.05069513, 0.31840223, -604717.25, 24457.223, 0.0, 10.000535, 10.000242 
2.9847893e+3, 2.4580128e+2, -565346.0, -591547.94, 35878.867, 0.050458375, 0.32495397, -540251.06, -9070.648, 0.0, 10.000452, 10.0000925 
2.984664e+3, 2.5580102e+2, -450962.47, -475263.53, 20366.328, 0.060042936, 0.3660979, -439397.53, -6212.2583, 0.0, 10.000515, 10.00019 
2.9845387e+3, 2.6580068e+2, -327185.44, -311932.06, 31270.037, 0.05575306, 0.36799473, -287372.06, 47816.03, 0.0, 10.0004635, 10.000665 
2.9844135e+3, 2.7580023e+2, -259507.1, -244850.78, 22790.59, 0.04202678, 0.3420333, -228239.16, 8950.683, 0.0, 10.000323, 10.000521 
2.9842877e+3, 2.8579974e+2, -188462.28, -189678.03, -1299.698, 0.038213015, 0.33376366, -187635.33, -48439.523, 0.0, 10.000265, 10.000256 
2.984161e+3, 2.9579908e+2, -106529.24, -122206.63, 14727.355, -0.010528891, 0.33692288, -97684.41, -56478.082, 0.0, 10.0002575, 10.000048 
2.9961646e+3, 1.3593626e+2, -1604572.5, -1616041.8, 22494.111, 0.013858681, 0.27514848, -1587093.6, 20759.81, 0.0, 10.00056, 10.000412 
2.9960376e+3, 1.4593595e+2, -1534980.4, -1576006.3, 61145.105, -0.04331465, 0.30767256, -1490999.1, 18857.559, 0.0, 10.000556, 10.000016 
2.9959127e+3, 1.5593483e+2, -1381089.6, -1468180.1, 56912.395, 0.030274654, 0.28007075, -1352974.5, 58894.344, 0.0, 10.001013, 9.999864 
2.9957876e+3, 1.6593437e+2, -1285458.1, -1382969.3, 40320.727, 0.037170954, 0.33506873, -1270945.5, 42929.52, 0.0, 10.001045, 9.999761 
2.9956624e+3, 1.7593418e+2, -1184612.1, -1274530.5, 20710.697, 0.027383922, 0.4146395, -1180071.3, 35807.906, 0.0, 10.001027, 9.99984 
2.9955375e+3, 1.859332e+2, -1086458.3, -1152581.4, 4440.167, 0.02494953, 0.3976823, -1086161.5, 31726.887, 0.0, 10.000925, 10.000054 
2.995413e+3, 1.9593176e+2, -1013253.6, -1062383.4, -3982.0051, 0.019525789, 0.32458162, -1012932.94, 6967.4443, 0.0, 10.000738, 10.00009 
2.9952884e+3, 2.0593087e+2, -943825.44, -1030505.1, -12119.703, 0.018949656, 0.33013976, -942162.75, -20252.813, 0.0, 10.000768, 9.999621 
2.9951635e+3, 2.1593046e+2, -800870.6, -890213.44, -6382.344, 0.03314197, 0.39619842, -800417.0, 23500.166, 0.0, 10.000989, 9.9998045 
2.995039e+3, 2.2592954e+2, -687500.6, -774620.6, 2179.7725, 0.05657054, 0.39708948, -687446.1, 38479.953, 0.0, 10.001053, 9.999894 
2.9949138e+3, 2.3592824e+2, -609388.2, -672122.4, 5658.6997, 0.045726925, 0.3473544, -608881.9, 19054.889, 0.0, 10.000855, 10.00002 
2.994789e+3, 2.4592748e+2, -538175.94, -584775.4, 22969.773, 0.042919468, 0.35109055, -528757.4, 1186.9004, 0.0, 10.000663, 10.000038 
2.9946637e+3, 2.5592703e+2, -445524.97, -473055.16, 22002.963, 0.06402839, 0.37200212, -433336.1, -1385.2565, 0.0, 10.000554, 10.000186 
2.9945388e+3, 2.659265e+2, -321108.34, -300371.06, 24808.338, 0.06971844, 0.35337752, -283851.75, 50103.215, 0.0, 10.000468, 10.000742 
2.9944134e+3, 2.7592605e+2, -255209.1, -235226.48, 18739.582, 0.07082061, 0.3178384, -223981.08, 11975.653, 0.0, 10.00032, 10.000587 
2.9942873e+3, 2.8592607e+2, -185901.95, -182881.81, -102.072014, 0.06660291, 0.35518327, -182878.38, -44920.37, 0.0, 10.000261, 10.000303 
2.9941607e+3, 2.959263e+2, -95572.96, -100561.14, 14903.543, 0.0043853913, 0.437865, -82956.26, -42995.492, 0.0, 10.000263, 10.000194 
