coord_x,coord_y,stress_xx,stress_yy,tau_xy,velocity_x,velocity_y,stress_1,eps,damage,lx,ly
5.000162e+0, 1.24629356e+2, -1651349.3, -1644264.6, -6148.375, 0.0029461784, -0.40503377, -1640711.1, 77882.08, 0.0013801174, 10.0002575, 10.000357 
5.000094e+0, 1.3462847e+2, -1676585.4, -1780868.8, 1408.4878, 0.0006627285, -0.37296918, -1676566.4, -55963.41, 0.0008364695, 10.000169, 9.998788 
5.000053e+0, 1.446273e+2, -1525262.6, -1547166.4, 7573.5796, 0.001913526, -0.41945753, -1522899.0, -283.42767, 0.00038681776, 10.000062, 9.999765 
5.000061e+0, 1.5462735e+2, -1450793.3, -1469576.4, 9774.472, 0.00893895, -0.39090422, -1446629.6, -22013.771, 0.00011816065, 9.99994, 9.999683 
5.000038e+0, 1.6462752e+2, -1340895.6, -1348458.3, 13947.066, 0.006288117, -0.35014063, -1330226.4, -3611.3765, 0.000016018055, 9.999947, 9.999841 
4.999978e+0, 1.7462738e+2, -1219617.6, -1239931.1, 6750.907, -0.007837936, -0.35474446, -1217578.8, 11037.975, 0.00000013955699, 10.000111, 9.999834 
4.9999923e+0, 1.846271e+2, -1130095.5, -1170185.0, 5971.8896, -0.0087564355, -0.3545907, -1129224.9, 1395.8608, 0.0, 10.000156, 9.99962 
5.000095e+0, 1.9462682e+2, -1048196.1, -1084492.3, 21001.813, 0.006111596, -0.3487096, -1038587.56, -5961.8525, 0.0, 10.000066, 9.999579 
5.0001466e+0, 2.0462686e+2, -890425.06, -865059.06, 20286.637, 0.010687031, -0.34082547, -853817.06, 80808.19, 0.0, 10.000077, 10.000406 
5.0001323e+0, 2.1462725e+2, -772711.2, -756548.06, -9894.307, 0.0027693044, -0.35054088, -751854.3, 84764.195, 0.0, 10.000208, 10.000415 
5.000122e+0, 2.2462724e+2, -744900.44, -817185.56, -20952.383, -0.0011132348, -0.33849037, -739266.4, -647.5588, 0.0, 10.000264, 9.999299 
5.000111e+0, 2.3462677e+2, -656036.1, -730483.06, -6111.0776, -0.0005089454, -0.31776002, -655537.8, -14910.821, 0.0, 10.000231, 9.999237 
5.0001436e+0, 2.4462628e+2, -535372.8, -598619.44, 2533.4543, -0.00012837118, -0.29785532, -535271.5, 7361.958, 0.0, 10.000288, 9.999443 
5.000227e+0, 2.5462583e+2, -414789.22, -492687.7, -5472.9634, -0.0001568848, -0.29454517, -414406.56, 30231.084, 0.0, 10.000456, 9.999416 
5.000311e+0, 2.6462507e+2, -327677.84, -457705.47, -7312.5957, -0.00043552872, -0.28645808, -327267.88, 19377.072, 0.0, 10.000629, 9.998899 
5.000397e+0, 2.7462405e+2, -206101.13, -351652.5, -5848.0195, -0.00064779335, -0.28164437, -205866.53, 42788.18, 0.0, 10.000806, 9.99887 
5.000466e+0, 2.8462267e+2, -127105.195, -331684.3, -2088.8599, -0.0020466256, -0.27497244, -127083.87, 23583.936, 0.000000004221918, 10.000972, 9.998253 
5.0005126e+0, 2.9462072e+2, -4987.3354, -220700.88, 4726.0176, -0.005422417, -0.29971468, -4883.8438, 47802.695, 0.0000065845143, 10.001131, 9.998265 
5.000575e+0, 3.0461782e+2, -3151.138, -305980.88, 8394.983, -0.0069178496, -0.3665167, -2918.5925, -2918.5925, 0.00007542163, 10.0012865, 9.997275 
5.0006616e+0, 3.1461558e+2, 216604.53, 118852.62, 7271.113, -0.0051652235, -0.3200299, 217142.42, 217142.42, 0.00027006015, 10.001421, 10.00013 
1.5000482e+1, 1.24629416e+2, -1636567.3, -1611846.3, -9474.872, 0.008418923, -0.38372925, -1608632.6, 109961.93, 0.00135349, 10.000251, 10.000584 
1.5000285e+1, 1.3462873e+2, -1659988.6, -1745531.8, -1977.0381, 0.002219858, -0.35648015, -1659942.9, -39341.22, 0.0008181531, 10.000166, 9.999032 
1.5000157e+1, 1.4462774e+2, -1520050.1, -1534863.0, 2215.373, 0.005635241, -0.40036604, -1519725.9, 2885.789, 0.00037595516, 10.000056, 9.999852 
1.5000184e+1, 1.546279e+2, -1445697.8, -1457992.6, 5439.9717, 0.026909394, -0.36794686, -1443636.4, -19026.045, 0.00011312574, 9.999936, 9.999765 
1.5000114e+1, 1.6462792e+2, -1353112.3, -1372738.1, 18956.055, 0.01881516, -0.3364849, -1341579.8, -14969.13, 0.000014709239, 9.999943, 9.999677 
1.4999935e+1, 1.7462744e+2, -1233060.5, -1266881.3, 13093.51, -0.02347135, -0.35735014, -1228583.9, 32.709507, 0.00000010097208, 10.000107, 9.999652 
1.4999975e+1, 1.8462725e+2, -1103084.1, -1112789.0, 2581.7554, -0.026349168, -0.35898098, -1102440.0, 28179.49, 0.0, 10.000152, 10.000016 
1.5000287e+1, 1.9462754e+2, -1018864.94, -1022998.56, 18012.389, 0.018414611, -0.33653998, -1002801.2, 29815.986, 0.0, 10.000063, 10.000003 
1.5000437e+1, 2.0462753e+2, -942901.9, -972841.8, 24410.264, 0.03195375, -0.3196558, -929236.9, 5380.774, 0.0, 10.000073, 9.999669 
1.50004e+1, 2.1462716e+2, -828675.9, -871605.06, -4356.364, 0.00852087, -0.3259008, -828238.25, 8383.289, 0.0, 10.000204, 9.999628 
1.5000363e+1, 2.246269e+2, -718997.1, -762005.8, -22406.611, -0.0035916194, -0.31879902, -709445.2, 29179.855, 0.0, 10.000259, 9.9996805 
1.5000334e+1, 2.3462676e+2, -627435.7, -670421.1, -6808.2627, -0.0013979889, -0.30539304, -626383.2, 14244.371, 0.0, 10.000228, 9.999651 
1.5000428e+1, 2.4462631e+2, -548797.5, -625597.4, 8047.899, -0.00063572294, -0.29440716, -547963.25, -5330.746, 0.0, 10.000284, 9.99926 
1.5000682e+1, 2.5462553e+2, -428513.6, -520259.06, 1290.6243, -0.0005866382, -0.30157003, -428495.44, 16144.767, 0.0, 10.000452, 9.999229 
1.5000933e+1, 2.646245e+2, -324090.47, -449114.06, -1049.2671, -0.0012860919, -0.31217375, -324081.66, 22568.295, 0.0, 10.000626, 9.998961 
1.500119e+1, 2.7462333e+2, -203880.9, -345854.97, 1184.0637, -0.0021926481, -0.33017397, -203871.03, 44790.082, 0.0, 10.000801, 9.998912 
1.5001398e+1, 2.8462216e+2, -115187.9, -305743.9, 3359.7957, -0.0058839303, -0.3122624, -115128.68, 35543.32, 0.0000000059189293, 10.000967, 9.998434 
1.5001534e+1, 2.94621e+2, 9127.072, -190023.86, 11644.319, -0.016745131, -0.27828097, 9805.602, 62488.883, 0.0000065077284, 10.001126, 9.998479 
1.5001729e+1, 3.0461833e+2, -6639.8584, -311901.0, 13129.299, -0.020207161, -0.33308944, -6076.207, -6076.207, 0.000074265045, 10.001282, 9.997237 
1.5001976e+1, 3.146156e+2, 211041.14, 109665.71, 17361.92, -0.01627672, -0.32296953, 213932.16, 213932.16, 0.00026651216, 10.001412, 10.000071 
2.500058e+1, 1.2462976e+2, -1652781.9, -1610350.9, 14288.631, 0.00029718335, -0.37022462, -1605987.9, 112603.945, 0.0013145427, 10.000103, 10.000666 
2.500045e+1, 1.3462916e+2, -1698862.9, -1754758.4, 6880.706, 0.01727307, -0.34232298, -1698028.3, -77430.6, 0.0007913486, 9.999861, 9.999118 
2.500032e+1, 1.4462814e+2, -1540961.9, -1548466.9, 14451.473, 0.022546487, -0.3927798, -1529783.6, -7175.7993, 0.00036019128, 9.9999275, 9.999823 
2.5000292e+1, 1.5462817e+2, -1384643.5, -1432370.3, 8989.341, 0.022129005, -0.3697703, -1383006.5, 41601.09, 0.00010584406, 10.000372, 9.999732 
2.500019e+1, 1.6462818e+2, -1295106.5, -1345232.8, 11777.075, 0.011946607, -0.3397857, -1292477.4, 34130.832, 0.000012859098, 10.000343, 9.999673 
2.5000018e+1, 1.7462777e+2, -1282159.4, -1291029.0, 18014.031, -0.009275416, -0.35291845, -1268042.3, -39428.69, 0.00000006033416, 9.999772, 9.999648 
2.5000066e+1, 1.846276e+2, -1174217.8, -1146742.1, 15100.322, -0.007918233, -0.3514461, -1140065.6, -9449.567, 0.0, 9.999661, 10.00002 
2.5000378e+1, 1.9462788e+2, -1014840.2, -1020214.6, -642.77625, 0.020236854, -0.33040342, -1014764.4, 17849.05, 0.0, 10.000089, 10.00001 
2.50006e+1, 2.0462778e+2, -925745.7, -988633.56, 4585.803, 0.029735615, -0.31402865, -925413.06, 9202.096, 0.0, 10.000295, 9.999454 
2.5000697e+1, 2.1462716e+2, -839069.1, -901621.75, 17262.174, 0.01632602, -0.32113194, -834621.6, 2000.4636, 0.0, 10.00024, 9.999404 
2.500074e+1, 2.2462672e+2, -715694.9, -764138.94, 9124.809, 0.0061830776, -0.31707916, -714033.1, 24594.232, 0.0, 10.000297, 9.999648 
2.5000712e+1, 2.3462655e+2, -591894.75, -655901.75, -9413.576, 0.00067934755, -0.30645815, -590539.0, 50090.91, 0.0, 10.000484, 9.999628 
2.500086e+1, 2.4462608e+2, -510561.28, -611846.06, -5728.12, 0.00026023862, -0.2942124, -510238.38, 32396.455, 0.0, 10.0005665, 9.999219 
2.500123e+1, 2.546253e+2, -421072.84, -520675.78, -697.5689, 0.0058188997, -0.29778042, -421067.94, 23574.463, 0.0, 10.000521, 9.999194 
2.5001577e+1, 2.6462418e+2, -336526.66, -462974.97, 2971.2722, 0.0030541373, -0.31263977, -336456.88, 10196.129, 0.0, 10.000574, 9.998891 
2.500191e+1, 2.7462277e+2, -215693.22, -360561.2, -4766.0425, -0.008079933, -0.34421298, -215536.58, 33129.656, 0.0, 10.000759, 9.998832 
2.5002253e+1, 2.8462163e+2, -121760.54, -302685.38, -12720.905, -0.0133528365, -0.32610634, -120870.51, 29806.875, 0.0000000086392555, 10.0008955, 9.998489 
2.5002566e+1, 2.9462066e+2, -13442.028, -194327.06, -15810.107, -0.016957266, -0.27618054, -12070.558, 40616.164, 0.0000063841276, 10.000943, 9.998538 
2.5002843e+1, 3.046181e+2, -34582.605, -309401.7, -11311.771, -0.023759825, -0.33092493, -34117.79, -34117.79, 0.00007245626, 10.001023, 9.997379 
2.5003067e+1, 3.1461552e+2, 185001.61, 111526.85, 11073.106, -0.03658881, -0.3206174, 186634.13, 186634.13, 0.0002610093, 10.001174, 10.000198 
3.500045e+1, 1.2463037e+2, -1657014.8, -1619039.6, 4659.8774, -0.025163604, -0.36746687, -1618476.3, 100108.91, 0.0012623775, 10.000103, 10.000606 
3.5000575e+1, 1.3462977e+2, -1702959.4, -1763975.0, -1625.2588, 0.04307551, -0.33164454, -1702916.0, -82324.98, 0.000755357, 9.999864, 9.999054 
3.5000527e+1, 1.446285e+2, -1550524.5, -1568361.6, 29160.947, 0.049538877, -0.3978251, -1528948.8, -6344.7773, 0.00033918672, 9.999928, 9.999686 
3.5000384e+1, 1.5462819e+2, -1395351.4, -1453877.5, 25895.236, -0.0065934346, -0.39453876, -1385539.0, 39068.563, 0.00009620481, 10.000369, 9.999586 
3.5000265e+1, 1.6462824e+2, -1284156.1, -1321311.4, -8761.846, -0.01609398, -0.36033794, -1282193.6, 44414.02, 0.000010539653, 10.000339, 9.99984 
3.5000214e+1, 1.7462832e+2, -1269734.9, -1264832.1, -3077.5583, 0.03263595, -0.34205663, -1263349.0, -34741.37, 0.000000028001644, 9.999771, 9.999828 
3.5000256e+1, 1.8462813e+2, -1201126.6, -1202000.8, 29324.338, 0.04416489, -0.33308718, -1172236.0, -41625.73, 0.0, 9.99966, 9.999641 
3.5000378e+1, 1.9462782e+2, -1043961.3, -1079690.4, 15973.553, 0.010659993, -0.32977065, -1037861.4, -5246.8823, 0.0, 10.000085, 9.999604 
3.5000625e+1, 2.0462754e+2, -904820.25, -943428.44, 3014.19, 0.0023695864, -0.32428235, -904586.4, 30031.334, 0.0, 10.000288, 9.999766 
3.500103e+1, 2.1462724e+2, -815622.44, -852236.2, 15753.654, 0.024740998, -0.33627462, -809777.3, 26842.918, 0.0, 10.000237, 9.999745 
3.500124e+1, 2.2462673e+2, -746478.6, -826937.4, 15372.627, 0.026088627, -0.33465806, -743641.56, -5015.6563, 0.0, 10.000293, 9.99922 
3.500124e+1, 2.3462611e+2, -624477.1, -723215.4, -1764.8417, 0.004618893, -0.32098836, -624445.56, 16188.728, 0.0, 10.000483, 9.999167 
3.5001442e+1, 2.4462558e+2, -503321.1, -595325.75, -7484.4204, 0.0010223502, -0.29852358, -502716.25, 39924.246, 0.0, 10.000562, 9.999334 
3.5001874e+1, 2.546251e+2, -413019.2, -502708.25, -2156.6924, 0.017464612, -0.28252313, -412967.38, 31676.842, 0.0, 10.000516, 9.999319 
3.500223e+1, 2.6462406e+2, -350936.78, -491770.84, 9175.342, 0.0104622, -0.28886715, -350341.53, -3687.3828, 0.0, 10.00057, 9.998695 
3.5002553e+1, 2.7462244e+2, -229667.8, -388164.97, 2993.5728, -0.020581001, -0.32276443, -229611.28, 19058.748, 0.0, 10.000753, 9.998645 
3.500303e+1, 2.8462103e+2, -127301.41, -312881.1, -10971.253, -0.025764322, -0.31736314, -126655.055, 24028.904, 0.000000011844628, 10.000891, 9.998423 
3.5003597e+1, 2.946197e+2, -19924.605, -206004.25, -13729.491, -0.008587294, -0.29298228, -18917.059, 33779.84, 0.0000061783935, 10.0009365, 9.998461 
3.500392e+1, 3.0461717e+2, -12581.329, -262469.88, -6745.316, -0.018854111, -0.36062995, -12399.384, -12399.384, 0.00006980898, 10.001019, 9.9977045 
3.5003918e+1, 3.146153e+2, 207476.13, 159929.8, 21896.176, -0.070274085, -0.31053334, 216023.33, 216023.33, 0.00025310565, 10.001168, 10.000533 
4.5000336e+1, 1.2463049e+2, -1754412.0, -1665775.9, -2693.8406, -0.01259086, -0.39044192, -1665694.1, 52888.79, 0.0011988538, 9.999433, 10.00061 
4.5000577e+1, 1.3462998e+2, -1664966.4, -1744188.0, -5727.1753, 0.04378924, -0.34737515, -1664554.5, -43966.2, 0.0007112032, 10.00012, 9.999066 
4.5000598e+1, 1.4462869e+2, -1509845.8, -1554061.6, 22908.059, 0.048852224, -0.41280514, -1500117.5, 22483.984, 0.00031351, 10.000231, 9.9996395 
4.5000523e+1, 1.5462846e+2, -1495836.9, -1508220.0, 25235.059, 0.0037628466, -0.3974169, -1476044.9, -51440.223, 0.000084590996, 9.999705, 9.999535 
4.500045e+1, 1.6462846e+2, -1373193.3, -1370290.8, -7776.624, -0.001535085, -0.36142042, -1363831.1, -37225.727, 0.000007991499, 9.999755, 9.999785 
4.5000446e+1, 1.7462839e+2, -1170278.5, -1222399.1, -19821.37, 0.043504283, -0.35275087, -1163597.0, 65009.62, 0.000000008983813, 10.000478, 9.999779 
4.5000467e+1, 1.8462811e+2, -1063564.5, -1146567.5, 10809.875, 0.049870536, -0.34487483, -1062179.8, 68430.47, 0.0, 10.000651, 9.999545 
4.5000482e+1, 1.946278e+2, -1035338.3, -1086806.8, 19373.545, 0.0072981617, -0.33310306, -1028861.0, 3753.6099, 0.0, 10.000192, 9.999503 
4.500074e+1, 2.0462748e+2, -944546.2, -965664.6, 10344.735, -0.0017939107, -0.32560745, -940323.3, -5705.0835, 0.0, 10.000028, 9.999741 
4.50013e+1, 2.1462712e+2, -822432.7, -857262.2, -4728.5454, 0.030086469, -0.34155548, -821802.1, 14819.164, 0.0, 10.000199, 9.999729 
4.500167e+1, 2.2462656e+2, -740775.56, -834176.3, -1374.7562, 0.036154214, -0.3407192, -740755.3, -2127.7898, 0.0, 10.000375, 9.99913 
4.5001844e+1, 2.3462586e+2, -620619.2, -731195.4, 9007.328, 0.01317658, -0.32509568, -619890.25, 20746.37, 0.0, 10.000552, 9.999079 
4.5002106e+1, 2.4462526e+2, -494499.38, -604278.6, 4137.618, 0.005830144, -0.2978649, -494343.63, 48299.902, 0.0, 10.000678, 9.999217 
4.5002484e+1, 2.5462478e+2, -387544.53, -503955.47, -10542.396, 0.01533109, -0.27385536, -386597.47, 58050.477, 0.0, 10.000749, 9.999199 
4.500287e+1, 2.646236e+2, -324342.06, -488008.53, -641.6218, 0.006797543, -0.2782274, -324339.53, 22319.393, 0.0, 10.000791, 9.998615 
4.5003343e+1, 2.7462184e+2, -230099.48, -396628.8, 2323.4573, -0.018436667, -0.3188508, -230067.08, 18609.152, 0.0, 10.000786, 9.998572 
4.5003936e+1, 2.846204e+2, -140965.05, -331732.5, -7312.2334, -0.021895748, -0.3091731, -140685.17, 10005.649, 0.000000014278152, 10.000851, 9.998313 
4.5004576e+1, 2.9461914e+2, -15515.166, -217917.5, -13957.543, -0.0085881, -0.26927155, -14557.196, 38146.625, 0.0000058442592, 10.001027, 9.998337 
4.5004898e+1, 3.046164e+2, -5079.763, -252601.88, -22060.203, -0.023792634, -0.3499585, -3129.0393, -3129.0393, 0.00006621042, 10.001043, 9.997761 
4.500482e+1, 3.1461456e+2, 158108.61, 139263.83, -13598.853, -0.07826669, -0.3073714, 165230.4, 165230.4, 0.0002425997, 10.000813, 10.000565 
5.5000204e+1, 1.24630116e+2, -1748191.3, -1655064.0, 22946.822, 0.029296547, -0.43775198, -1649716.9, 68868.02, 0.0011275938, 9.999442, 10.00068 
5.500045e+1, 1.3462976e+2, -1658703.9, -1731314.5, 19775.129, 0.018618837, -0.38640207, -1653667.5, -33078.504, 0.00066134764, 10.00012, 9.999156 
5.500054e+1, 1.4462869e+2, -1506264.0, -1545902.5, 4523.9067, 0.01840112, -0.4381733, -1505754.3, 16846.277, 0.00028458898, 10.000228, 9.999697 
5.5000675e+1, 1.5462893e+2, -1491796.4, -1500760.0, 6153.0703, 0.04728374, -0.37967145, -1488665.9, -64066.62, 0.00007188515, 9.999709, 9.999584 
5.5000734e+1, 1.6462883e+2, -1391572.5, -1408881.5, 17246.105, 0.050194804, -0.34403595, -1380931.1, -54329.754, 0.0000055425044, 9.999757, 9.999519 
5.500072e+1, 1.7462799e+2, -1190566.9, -1263455.0, 7697.1133, 0.022742102, -0.38377395, -1189763.0, 38847.758, 0.00000000116644, 10.000474, 9.999499 
5.50007e+1, 1.8462756e+2, -1051466.5, -1120024.8, -4999.1113, 0.0070892465, -0.38628727, -1051104.0, 79511.7, 0.0, 10.000646, 9.999729 
5.500067e+1, 1.9462779e+2, -1021167.75, -1057152.9, 2485.4497, 0.006668973, -0.3413019, -1020996.9, 11616.969, 0.0, 10.000192, 9.999707 
5.500093e+1, 2.0462754e+2, -969133.25, -1016266.0, 15696.634, 0.013951981, -0.3191605, -964384.3, -29767.459, 0.0, 10.000027, 9.999394 
5.5001503e+1, 2.1462679e+2, -849076.56, -911933.2, 2336.2969, 0.03014177, -0.3374977, -848989.9, -12364.493, 0.0, 10.000196, 9.999355 
5.500203e+1, 2.2462615e+2, -723411.6, -796538.0, 5100.071, 0.034000907, -0.3362081, -723057.6, 15574.735, 0.0, 10.000369, 9.999392 
5.5002505e+1, 2.3462576e+2, -600955.25, -690068.7, 16139.287, 0.023967676, -0.3183816, -598122.3, 42514.67, 0.0, 10.00055, 9.999363 
5.500285e+1, 2.4462514e+2, -518748.66, -654062.8, 6641.7036, 0.011622672, -0.29340124, -518423.44, 24220.652, 0.0, 10.000676, 9.998877 
5.500305e+1, 2.5462425e+2, -413838.38, -557719.94, -7362.5757, -0.0032441644, -0.27195793, -413462.6, 31191.156, 0.0, 10.000745, 9.998833 
5.50035e+1, 2.646229e+2, -321853.22, -481638.94, -886.41223, -0.009799534, -0.28204754, -321848.3, 24819.176, 0.0, 10.000787, 9.998661 
5.500427e+1, 2.7462107e+2, -226920.48, -388861.72, 2135.1558, -0.0046015372, -0.33194757, -226892.34, 21792.49, 0.0, 10.000782, 9.998627 
5.5004954e+1, 2.8461975e+2, -152248.66, -354724.06, -1479.7325, -0.005655242, -0.3018427, -152237.84, -1539.8284, 0.000000014996283, 10.000849, 9.998156 
5.500549e+1, 2.9461893e+2, -26828.467, -239968.61, -6041.6006, -0.020306578, -0.2034614, -26657.35, 26049.975, 0.0000053587105, 10.001021, 9.998188 
5.5005765e+1, 3.0461586e+2, -21028.793, -284997.75, -30134.707, -0.041740794, -0.29986718, -17632.316, -17632.316, 0.000061679886, 10.00104, 9.99754 
5.5005765e+1, 3.146132e+2, 138799.81, 99818.89, -17314.416, -0.06676907, -0.31380558, 145379.78, 145379.78, 0.00022953504, 10.000811, 10.000295 
6.5000033e+1, 1.24629915e+2, -1678617.3, -1614819.8, 16370.156, 0.04562944, -0.44910613, -1610864.4, 107722.52, 0.001052614, 9.999891, 10.000738 
6.500031e+1, 1.346299e+2, -1730426.8, -1756267.9, 10765.273, 0.019239375, -0.37338445, -1726529.8, -105941.61, 0.00060904585, 9.999587, 9.999241 
6.500045e+1, 1.4462888e+2, -1582405.6, -1576409.3, -8628.466, 0.015145664, -0.42681342, -1570273.0, -47673.887, 0.000254567, 9.99968, 9.999752 
6.500078e+1, 1.5462905e+2, -1406795.4, -1453517.6, -7538.8823, 0.05915337, -0.38012025, -1405609.1, 18988.988, 0.00005931439, 10.000267, 9.9996395 
6.500092e+1, 1.6462891e+2, -1304764.3, -1379886.5, 15032.822, 0.061245948, -0.34709185, -1301867.8, 24732.932, 0.0000034805446, 10.000408, 9.999405 
6.500086e+1, 1.7462802e+2, -1262187.9, -1311478.4, 17386.908, 0.011209079, -0.37854013, -1256672.0, -28061.361, 0.00000000000024211628, 10.000041, 9.999378 
6.500089e+1, 1.8462752e+2, -1151938.0, -1177928.1, -6270.278, -0.004770628, -0.37841594, -1150504.4, -19887.73, 0.0, 9.999998, 9.999643 
6.500109e+1, 1.9462761e+2, -1006089.8, -1058744.1, -20927.857, 0.022217734, -0.33881813, -998785.25, 33831.008, 0.0, 10.000335, 9.999627 
6.5001404e+1, 2.0462726e+2, -901232.56, -999905.06, -3885.9595, 0.03180912, -0.31654894, -901079.75, 33540.773, 0.0, 10.000564, 9.999248 
6.500182e+1, 2.1462642e+2, -790505.8, -900313.94, -684.65674, 0.019333337, -0.32758698, -790501.56, 46128.563, 0.0, 10.000671, 9.999206 
6.500236e+1, 2.2462578e+2, -680634.56, -773639.6, -1831.4355, 0.01617377, -0.32024455, -680598.56, 58038.7, 0.0, 10.000652, 9.999413 
6.500303e+1, 2.3462544e+2, -608627.4, -689992.25, -10492.038, 0.025011485, -0.2998815, -607296.2, 33344.69, 0.0, 10.000483, 9.999395 
6.500351e+1, 2.4462472e+2, -548218.5, -674930.25, -13435.667, 0.018811395, -0.2825464, -546809.5, -4160.962, 0.0, 10.000503, 9.998817 
6.500378e+1, 2.546236e+2, -418199.56, -566190.5, -4307.18, -0.004185012, -0.28050417, -418074.3, 26586.29, 0.0, 10.000742, 9.9987755 
6.50043e+1, 2.6462218e+2, -315342.47, -486802.4, 4873.341, -0.012233761, -0.28684923, -315204.06, 31470.732, 0.0, 10.000867, 9.998587 
6.5005136e+1, 2.746206e+2, -220049.14, -394614.3, -2875.7378, -0.00026536992, -0.3075103, -220001.78, 28688.83, 0.0, 10.000868, 9.998546 
6.5005845e+1, 2.846193e+2, -145901.1, -351799.16, -1625.1699, -0.0036501037, -0.27120554, -145888.27, 4815.4043, 0.000000013847158, 10.000893, 9.998155 
6.5006334e+1, 2.9461828e+2, -41467.57, -245810.73, 5416.242, -0.032968104, -0.19339192, -41324.11, 11390.219, 0.0000047556837, 10.000916, 9.9981985 
6.5006655e+1, 3.0461496e+2, -47100.42, -310365.2, -14900.929, -0.050168242, -0.30773893, -46259.703, -46259.703, 0.000056396846, 10.000917, 9.997425 
6.500686e+1, 3.146126e+2, 142402.5, 79941.45, 7914.5933, -0.044665586, -0.28049245, 143389.77, 143389.77, 0.00021421611, 10.00093, 10.0001 
7.499981e+1, 1.2462983e+2, -1673532.8, -1605565.8, 5004.918, 0.031938963, -0.4286873, -1605199.3, 113390.19, 0.0009783517, 9.999896, 10.000799 
7.5000083e+1, 1.3463031e+2, -1722883.1, -1743146.1, -154.18379, 0.036933668, -0.31108359, -1722882.0, -102296.17, 0.00055803865, 9.999597, 9.999326 
7.5000304e+1, 1.4462921e+2, -1577957.5, -1568247.1, 11872.072, 0.031089857, -0.3804173, -1560275.9, -37678.563, 0.00022607559, 9.999684, 9.999805 
7.5000864e+1, 1.546288e+2, -1403461.9, -1446079.9, 14869.512, 0.040272668, -0.39786655, -1398786.8, 25814.332, 0.000048170983, 10.000264, 9.999692 
7.500104e+1, 1.6462862e+2, -1302067.4, -1373075.5, 2387.0652, 0.03137415, -0.37041396, -1301987.3, 24616.057, 0.0000019773436, 10.000403, 9.999454 
7.5000834e+1, 1.7462845e+2, -1258670.0, -1304847.1, 4107.5923, 0.0036398706, -0.3375711, -1258307.5, -29700.752, 0.0, 10.000045, 9.999422 
7.500104e+1, 1.8462797e+2, -1176196.5, -1228713.8, 5336.7466, 0.008938507, -0.32221788, -1175659.6, -45046.45, 0.0, 10.0, 9.999294 
7.5001734e+1, 1.9462724e+2, -1032081.7, -1111894.4, -7955.3115, 0.052957345, -0.32500598, -1031296.44, 1325.236, 0.0, 10.000331, 9.999264 
7.500216e+1, 2.0462659e+2, -898091.6, -992112.56, 402.1223, 0.05098293, -0.31769538, -898089.94, 36539.305, 0.0, 10.000559, 9.999303 
7.500226e+1, 2.1462598e+2, -785948.06, -890249.0, 3779.612, -0.005234216, -0.31159154, -785811.25, 50824.36, 0.0, 10.000669, 9.999276 
7.500265e+1, 2.2462541e+2, -695459.6, -803952.3, -8086.158, -0.020071277, -0.2933973, -694860.25, 43781.945, 0.0, 10.00065, 9.999206 
7.500341e+1, 2.3462488e+2, -624360.44, -722237.0, -16606.59, 0.014367821, -0.27022514, -621619.56, 19028.844, 0.0, 10.00048, 9.999176 
7.500409e+1, 2.44624e+2, -532531.1, -641398.3, -5206.6006, 0.026044376, -0.26713717, -532282.7, 10374.49, 0.0, 10.000499, 9.999049 
7.500467e+1, 2.5462276e+2, -400931.25, -529938.56, 4776.1826, 0.009490825, -0.2989773, -400754.66, 43913.836, 0.0, 10.000741, 9.999025 
7.500526e+1, 2.6462156e+2, -328841.34, -514392.1, 4746.3135, -0.003532528, -0.29224738, -328720.03, 17960.83, 0.0, 10.000866, 9.998398 
7.5005937e+1, 2.7462044e+2, -235918.66, -426094.84, -2064.5156, -0.0072641936, -0.24573061, -235896.25, 12797.34, 0.0, 10.000862, 9.998332 
7.50066e+1, 2.8461903e+2, -135826.8, -329968.2, -1030.1913, -0.017972047, -0.21798527, -135821.33, 14886.571, 0.000000011324871, 10.00089, 9.998306 
7.5007087e+1, 2.9461715e+2, -29481.883, -220689.03, 6289.2935, -0.049767353, -0.23957188, -29275.234, 23449.643, 0.000004098041, 10.000915, 9.998372 
7.500754e+1, 3.0461374e+2, -47628.21, -311343.13, -15126.422, -0.05430897, -0.37300968, -46763.41, -46763.41, 0.000050636394, 10.0009165, 9.997417 
7.5008065e+1, 3.1461278e+2, 134282.66, 64787.74, 12982.182, -0.018190578, -0.20637067, 136628.63, 136628.63, 0.00019719645, 10.000922, 9.999998 
8.4999466e+1, 1.2462974e+2, -1768041.3, -1661054.0, 8477.147, 0.03803201, -0.40515646, -1660386.5, 58204.313, 0.00090933184, 9.9992895, 10.000711 
8.4999925e+1, 1.3463007e+2, -1684371.5, -1731298.6, -10807.533, 0.04686002, -0.29681915, -1682002.1, -61413.08, 0.0005120121, 9.99989, 9.999266 
8.500025e+1, 1.4462876e+2, -1516981.4, -1540586.1, -4148.019, 0.036143053, -0.3811563, -1516273.8, 6328.7734, 0.00020159004, 10.000111, 9.999791 
8.500085e+1, 1.5462843e+2, -1453199.4, -1471657.1, -6263.364, 0.02911967, -0.39036077, -1451274.8, -26668.943, 0.000039447743, 9.999931, 9.999677 
8.500111e+1, 1.6462836e+2, -1352942.8, -1386184.4, -25527.225, 0.018358827, -0.3576073, -1339102.3, -12495.409, 0.0000010481418, 10.000006, 9.999555 
8.50011e+1, 1.7462832e+2, -1202293.8, -1265738.0, -20630.574, 0.008671158, -0.32137644, -1196175.3, 32433.197, 0.0, 10.0003805, 9.999529 
8.5001445e+1, 1.8462777e+2, -1100859.3, -1211808.9, -3515.8167, 0.0196418, -0.30734468, -1100748.0, 29867.45, 0.0, 10.0006, 9.999122 
8.500221e+1, 1.9462684e+2, -998882.1, -1116054.6, -2876.7515, 0.05123178, -0.31650993, -998811.56, 33815.48, 0.0, 10.000647, 9.9990835 
8.50027e+1, 2.0462611e+2, -884426.75, -978913.2, 6542.4116, 0.04581291, -0.30845708, -883975.9, 50659.363, 0.0, 10.000625, 9.999362 
8.5002893e+1, 2.1462567e+2, -802651.75, -890870.4, 8779.977, -0.0012788791, -0.2932116, -801786.44, 34853.117, 0.0, 10.000522, 9.999344 
8.500326e+1, 2.2462505e+2, -720931.2, -829217.25, 113.943726, -0.01796077, -0.27699757, -720931.1, 17715.244, 0.0, 10.000531, 9.999089 
8.500386e+1, 2.3462425e+2, -604495.94, -726116.5, -2036.3827, 0.0015901353, -0.2672976, -604461.9, 36193.582, 0.0, 10.000674, 9.999055 
8.500458e+1, 2.4462329e+2, -498700.34, -625319.0, 9548.532, 0.013437966, -0.26743966, -497984.3, 44680.758, 0.0, 10.000731, 9.999048 
8.5005426e+1, 2.5462216e+2, -408345.44, -533424.9, 797.19995, 0.013690384, -0.28987166, -408340.38, 36334.656, 0.0, 10.0006895, 9.999026 
8.500611e+1, 2.6462087e+2, -347294.6, -526491.75, -3538.2058, 0.0010686642, -0.2863082, -347224.78, -537.1551, 0.0, 10.000752, 9.998369 
8.5006714e+1, 2.7461958e+2, -227857.67, -424899.75, 2171.17, -0.019147249, -0.25658742, -227833.75, 20868.611, 0.0, 10.000928, 9.998309 
8.50074e+1, 2.8461817e+2, -128037.61, -323944.8, 1260.1239, -0.028063653, -0.22777945, -128029.51, 22687.145, 0.000000007967864, 10.000932, 9.998329 
8.5008025e+1, 2.9461655e+2, -52023.242, -228908.36, -3234.4775, -0.039095365, -0.2263278, -51964.113, 767.19196, 0.0000034232567, 10.000749, 9.998396 
8.5008425e+1, 3.0461308e+2, -71258.04, -303576.03, -20750.498, -0.04423673, -0.37341246, -69419.17, -69419.17, 0.00004462947, 10.00067, 9.99759 
8.5008764e+1, 3.1461236e+2, 100251.33, 53855.758, 23716.736, -0.026964074, -0.19972014, 110229.15, 110229.15, 0.00017905688, 10.000664, 10.000048 
9.499893e+1, 1.2462964e+2, -1785037.0, -1696611.3, 31207.758, 0.054150004, -0.37798232, -1686706.8, 31884.797, 0.0008487081, 9.99929, 10.000466 
9.499986e+1, 1.3462912e+2, -1699301.3, -1763664.1, 11881.039, 0.050704956, -0.33125263, -1697178.1, -76579.97, 0.00047347447, 9.999895, 9.999042 
9.500032e+1, 1.4462754e+2, -1521394.3, -1550154.4, -10454.262, 0.030392418, -0.4290506, -1517995.8, 4619.228, 0.00018256163, 10.000113, 9.999723 
9.500068e+1, 1.5462793e+2, -1457475.9, -1481750.6, -12301.261, 0.017876549, -0.35855228, -1452332.1, -27719.783, 0.00003354367, 9.999936, 9.999605 
9.500109e+1, 1.6462806e+2, -1342794.8, -1365317.4, -12089.392, 0.014477186, -0.30963594, -1337534.3, -10922.55, 0.00000057940093, 10.000008, 9.999697 
9.5001656e+1, 1.7462759e+2, -1191510.6, -1243017.6, -6165.2646, 0.026235037, -0.33015215, -1190782.9, 37833.24, 0.0, 10.000379, 9.999685 
9.5002127e+1, 1.8462697e+2, -1100174.9, -1210103.4, -1634.2648, 0.027064424, -0.33313665, -1100150.5, 30472.863, 0.0, 10.000599, 9.999133 
9.500248e+1, 1.9462633e+2, -998450.94, -1115289.6, -770.47723, 0.013900166, -0.31335494, -998445.9, 34186.46, 0.0, 10.000648, 9.999088 
9.500301e+1, 2.0462582e+2, -880516.7, -970443.6, 2647.7244, 0.013626588, -0.28864208, -880438.8, 54199.816, 0.0, 10.000623, 9.999421 
9.5003724e+1, 2.1462543e+2, -798339.44, -881502.75, 5242.4175, 0.029048808, -0.27268124, -798010.25, 38631.68, 0.0, 10.00052, 9.999409 
9.500419e+1, 2.2462468e+2, -723462.8, -833714.2, 4900.637, 0.020538654, -0.27113757, -723245.4, 15404.376, 0.0, 10.000528, 9.99906 
9.5004374e+1, 2.3462357e+2, -606930.9, -730545.1, 3540.013, -0.0150947925, -0.29145953, -606829.56, 33832.504, 0.0, 10.000671, 9.999025 
9.5004964e+1, 2.4462256e+2, -515354.2, -659397.06, 7746.164, -0.020685863, -0.28247637, -514938.8, 27733.508, 0.0, 10.00073, 9.998815 
9.500605e+1, 2.5462168e+2, -426312.84, -569814.44, -351.59842, 0.006586764, -0.2544436, -426311.97, 18368.316, 0.0, 10.000686, 9.998778 
9.500686e+1, 2.6462018e+2, -339160.44, -508628.56, 2495.0754, 0.0005367456, -0.26992863, -339123.72, 7571.502, 0.0, 10.000748, 9.998495 
9.5007443e+1, 2.7461797e+2, -217179.03, -402612.3, 8811.755, -0.03934569, -0.33964705, -216761.23, 31955.676, 0.0, 10.000928, 9.998463 
9.500824e+1, 2.8461674e+2, -135018.72, -338311.84, -6071.608, -0.037846167, -0.2989154, -134837.55, 15892.301, 0.0000000042394483, 10.000932, 9.99823 
9.500914e+1, 2.9461646e+2, -61820.953, -247668.3, -9395.872, -0.0029872458, -0.15486132, -61347.137, -8613.478, 0.000002739973, 10.000742, 9.99827 
9.500932e+1, 3.04613e+2, -48152.92, -253664.19, -21189.86, -0.021665417, -0.31005573, -45990.824, -45990.824, 0.000038513957, 10.000664, 9.997935 
9.500895e+1, 3.1461135e+2, 113637.67, 82216.79, 27801.053, -0.07649907, -0.26338142, 129860.23, 129860.23, 0.00016021931, 10.000661, 10.000244 
1.0499841e+2, 1.2462855e+2, -1732752.1, -1667637.9, -7810.0513, 0.057058066, -0.37949815, -1666714.3, 51888.645, 0.00079770345, 9.999635, 10.000499 
1.0499969e+2, 1.3462816e+2, -1725603.5, -1766265.1, -6332.054, 0.055739578, -0.32916147, -1724640.3, -104032.18, 0.0004431459, 9.999673, 9.99913 
1.0500032e+2, 1.446266e+2, -1569447.0, -1573685.4, -24281.615, 0.03645389, -0.42918503, -1547192.3, -24567.404, 0.00016917764, 9.9997835, 9.999722 
1.05000734e+2, 1.5462713e+2, -1449624.5, -1479279.0, -23607.742, 0.027264806, -0.3431986, -1436574.0, -11952.79, 0.000030278157, 9.999994, 9.999595 
1.0500125e+2, 1.6462727e+2, -1321053.1, -1351608.8, -16459.197, 0.023523271, -0.2942325, -1313874.0, 12746.565, 0.0000004316036, 10.000141, 9.999727 
1.0500196e+2, 1.746267e+2, -1212807.5, -1249357.6, -19329.615, 0.027091218, -0.32987145, -1204481.6, 24144.275, 0.0, 10.000216, 9.999721 
1.050025e+2, 1.846261e+2, -1133034.9, -1215190.5, -20121.793, 0.018982472, -0.33628568, -1128371.4, 2261.25, 0.0, 10.000327, 9.999229 
1.05002895e+2, 1.9462565e+2, -1014916.5, -1112754.3, -13607.413, -0.0017814102, -0.30749515, -1013059.2, 19580.33, 0.0, 10.000487, 9.999183 
1.0500345e+2, 2.0462519e+2, -890272.6, -971479.7, -14068.442, 0.0004069923, -0.28245637, -887904.44, 46740.504, 0.0, 10.000539, 9.999455 
1.050042e+2, 2.1462476e+2, -805193.06, -880761.44, -14452.948, 0.028246533, -0.27614662, -802523.1, 34125.516, 0.0, 10.000456, 9.999444 
1.0500474e+2, 2.2462401e+2, -726758.9, -834152.2, -4556.7607, 0.024863522, -0.27626058, -726565.9, 12090.567, 0.0, 10.000501, 9.99907 
1.05005056e+2, 2.3462297e+2, -603434.9, -728498.8, -3055.0916, -0.014306212, -0.28835678, -603360.3, 37307.785, 0.0, 10.000694, 9.99903 
1.0500567e+2, 2.44622e+2, -510715.22, -661693.25, 2242.3337, -0.026234161, -0.27342182, -510681.94, 31996.201, 0.0, 10.00078, 9.998775 
1.0500661e+2, 2.5462112e+2, -421000.63, -571722.8, 7687.8096, -0.00804118, -0.24327084, -420609.53, 24076.877, 0.0, 10.000741, 9.998738 
1.0500744e+2, 2.6461953e+2, -351173.16, -511333.1, 18385.102, -0.011273409, -0.2643302, -349089.78, -2387.9495, 0.0, 10.00065, 9.998525 
1.050082e+2, 2.7461725e+2, -278695.06, -429052.78, 15873.33, -0.03447778, -0.3478049, -277037.6, -28313.225, 0.0, 10.00049, 9.998493 
1.0500906e+2, 2.8461605e+2, -190710.06, -365907.3, 1423.6465, -0.030067876, -0.30403566, -190698.5, -39961.53, 0.0000000012344323, 10.000551, 9.998224 
1.0500989e+2, 2.9461598e+2, -45089.637, -240582.67, 5529.91, -0.007830772, -0.13598607, -44933.336, 7805.589, 0.0000020653147, 10.000858, 9.998265 
1.05009966e+2, 3.046125e+2, -13724.91, -216069.05, -16235.853, -0.030967023, -0.30714893, -12430.445, -12430.445, 0.00003243676, 10.000806, 9.998128 
1.0500955e+2, 3.1461096e+2, 63731.023, 57712.348, 20827.582, -0.06489089, -0.26854602, 81765.555, 81765.555, 0.00014106146, 10.00032, 10.00024 
1.14997946e+2, 1.2462644e+2, -1709751.5, -1621695.5, -5837.8213, 0.043921605, -0.4129305, -1621310.1, 97315.2, 0.0007564602, 9.999641, 10.000811 
1.14999354e+2, 1.3462716e+2, -1697276.9, -1707375.8, -4736.937, 0.053780243, -0.29090813, -1695402.8, -74783.73, 0.00042056636, 9.999672, 9.999536 
1.150002e+2, 1.4462593e+2, -1566962.5, -1567444.6, -16408.61, 0.045628134, -0.3820549, -1550793.1, -28160.924, 0.00016082273, 9.99978, 9.999766 
1.1500103e+2, 1.5462601e+2, -1446573.8, -1474182.4, -14847.749, 0.05696619, -0.34525898, -1440104.6, -15471.961, 0.000029173776, 10.0, 9.999627 
1.1500163e+2, 1.6462597e+2, -1324834.0, -1360627.3, -14160.238, 0.045538727, -0.3112894, -1319909.6, 6724.086, 0.0000005105562, 10.000146, 9.999663 
1.15001984e+2, 1.746256e+2, -1217708.8, -1259975.5, -16192.808, 0.0070241774, -0.31998205, -1212218.4, 16419.37, 0.0, 10.000217, 9.999647 
1.1500256e+2, 1.8462515e+2, -1121437.5, -1190673.0, -14291.55, -0.009113985, -0.31691965, -1118603.4, 12039.769, 0.0, 10.000325, 9.999398 
1.1500344e+2, 1.9462475e+2, -1001974.9, -1085885.4, -7108.9556, 0.0028030716, -0.29949632, -1001376.8, 31271.88, 0.0, 10.000487, 9.999367 
1.1500403e+2, 2.0462424e+2, -890159.7, -970508.7, -17104.531, 0.004743929, -0.28978032, -886670.06, 47984.215, 0.0, 10.000536, 9.999463 
1.1500432e+2, 2.1462362e+2, -805035.7, -879988.06, -17272.621, -0.0052204123, -0.3039008, -801246.8, 35412.992, 0.0, 10.000454, 9.999451 
1.15004934e+2, 2.24623e+2, -724078.6, -827747.6, 2081.066, -0.0065258187, -0.2926232, -724036.9, 14629.502, 0.0, 10.000497, 9.999116 
1.15005925e+2, 2.346225e+2, -600694.5, -722273.44, 4700.0435, 0.00251411, -0.25800338, -600513.06, 40160.516, 0.0, 10.000691, 9.999074 
1.1500667e+2, 2.4462165e+2, -501454.53, -641491.2, 764.69135, -0.0048534414, -0.24018614, -501450.34, 41232.17, 0.0, 10.000776, 9.998916 
1.1500711e+2, 2.5462046e+2, -410070.0, -548498.75, 6416.971, -0.03294408, -0.2560761, -409773.16, 34920.2, 0.0, 10.000739, 9.998899 
1.1500784e+2, 2.64619e+2, -355699.13, -520258.44, 11889.277, -0.036421448, -0.26907647, -354844.56, -8136.995, 0.0, 10.0006485, 9.998465 
1.1500898e+2, 2.7461734e+2, -285440.56, -441924.2, 10152.724, -0.006014411, -0.282798, -284784.6, -36059.734, 0.0, 10.000485, 9.998407 
1.1500986e+2, 2.8461605e+2, -186060.44, -354248.34, 11953.638, -0.0052133263, -0.2448454, -185215.1, -34476.977, 0.00000000006210851, 10.000544, 9.998308 
1.15010254e+2, 2.9461518e+2, -37671.8, -224589.98, 17944.555, -0.057477254, -0.16885151, -35964.676, 16782.307, 0.0000014487281, 10.000856, 9.998376 
1.1501033e+2, 3.0461153e+2, -10981.574, -209475.1, -34020.445, -0.07500012, -0.36307415, -5312.6064, -5312.6064, 0.000026628812, 10.000803, 9.998175 
1.1501057e+2, 3.146111e+2, 47610.313, 26773.414, 5817.5503, 0.003058802, -0.21780185, 49124.504, 49124.504, 0.00012208533, 10.00031, 10.000033 
1.2499773e+2, 1.24624915e+2, -1695789.3, -1614605.1, 14124.659, 0.05343396, -0.41461056, -1612217.9, 106423.84, 0.0007247361, 9.999737, 10.000814 
1.2499899e+2, 1.3462612e+2, -1695514.6, -1698177.5, -13543.2, 0.05222733, -0.25225854, -1683237.5, -62606.355, 0.00040489552, 9.999649, 9.999609 
1.2499988e+2, 1.4462492e+2, -1570707.3, -1552807.5, -24257.049, 0.040609587, -0.3498209, -1535901.9, -13258.399, 0.00015657058, 9.999681, 9.999914 
1.2500097e+2, 1.546248e+2, -1454039.8, -1460826.6, -13760.78, 0.056466453, -0.34830478, -1443260.1, -18615.398, 0.000029665785, 9.999875, 9.999779 
1.2500173e+2, 1.6462475e+2, -1342754.8, -1373196.0, -10543.388, 0.046658233, -0.32210037, -1339459.8, -12813.919, 0.0000007617598, 10.000039, 9.99963 
1.2500216e+2, 1.7462459e+2, -1228162.1, -1270144.0, -12071.292, 0.007109223, -0.3053864, -1224938.6, 3710.0068, 0.0, 10.000166, 9.999603 
1.2500283e+2, 1.8462424e+2, -1134129.8, -1185188.8, -12853.119, -0.0074526723, -0.29457745, -1131076.8, -423.52774, 0.0, 10.000187, 9.999504 
1.2500376e+2, 1.9462383e+2, -1053335.3, -1097916.5, -11241.529, 0.0070378277, -0.28902996, -1050661.1, -18002.86, 0.0, 10.00008, 9.999481 
1.2500441e+2, 2.0462328e+2, -940554.8, -997802.0, -20045.016, 0.004939096, -0.2889156, -934234.0, 430.07483, 0.0, 10.000203, 9.999436 
1.2500472e+2, 2.1462254e+2, -787362.94, -875476.56, -23803.172, -0.01681885, -0.30978188, -781343.9, 55327.137, 0.0, 10.000591, 9.999416 
1.2500538e+2, 2.24622e+2, -695011.0, -803525.06, -11628.791, -0.019089691, -0.2953529, -693778.8, 44898.348, 0.0, 10.000651, 9.999208 
1.2500642e+2, 2.3462172e+2, -646527.3, -733229.3, -6205.584, 0.0011613328, -0.2461767, -646085.4, -5403.6816, 0.0, 10.000329, 9.999173 
1.2500723e+2, 2.4462102e+2, -568222.4, -662274.75, -2335.2244, -0.00012177322, -0.22551303, -568164.44, -25475.148, 0.0, 10.000268, 9.999018 
1.2500776e+2, 2.546198e+2, -437488.4, -550689.6, -276.2795, -0.028854467, -0.25051653, -437487.75, 7212.374, 0.0, 10.000503, 9.998999 
1.2500846e+2, 2.6461843e+2, -357523.78, -525127.94, -1393.8711, -0.039462492, -0.2606917, -357512.22, -10798.217, 0.0, 10.000653, 9.998428 
1.2500942e+2, 2.746169e+2, -256235.95, -433229.2, -2405.6375, -0.022088617, -0.25944674, -256203.25, -7472.466, 0.0, 10.000708, 9.998361 
1.250103e+2, 2.8461567e+2, -159323.55, -322784.9, 9362.595, -0.019233717, -0.22197203, -158789.03, -8045.5747, 0.0, 10.000645, 9.998476 
1.2501094e+2, 2.9461476e+2, -89660.21, -229765.81, 20268.281, -0.052812327, -0.16213083, -86787.04, -34035.71, 0.00000094519226, 10.000414, 9.998552 
1.2501101e+2, 3.0461115e+2, -53542.72, -221098.61, -30851.451, -0.06976707, -0.36861497, -48042.69, -48042.69, 0.000021325412, 10.000474, 9.998253 
1.2501118e+2, 3.14611e+2, 112749.35, 34281.473, 12640.168, 0.0058913752, -0.20341584, 114735.266, 114735.266, 0.000103857135, 10.000859, 9.999823 
1.3499773e+2, 1.24624e+2, -1720199.9, -1663119.5, 11568.248, 0.07809973, -0.37998074, -1660864.1, 57787.625, 0.0007016644, 9.999728, 10.000485 
1.3499862e+2, 1.3462496e+2, -1713337.1, -1737988.0, -16202.346, 0.049456347, -0.21416612, -1705305.0, -84660.18, 0.00039489288, 9.999661, 9.999331 
1.3499938e+2, 1.4462353e+2, -1550559.1, -1513156.3, -18777.94, 0.019455131, -0.33382422, -1505355.8, 17303.502, 0.00015526546, 9.999691, 10.000182 
1.3500047e+2, 1.546235e+2, -1434633.0, -1419675.3, -6205.3296, 0.020165266, -0.35121426, -1417436.1, 7221.552, 0.000031126172, 9.999871, 10.000063 
1.3500151e+2, 1.6462359e+2, -1344397.1, -1375696.5, -5882.278, 0.02100814, -0.32597542, -1343328.1, -16671.217, 0.0000011270397, 10.000034, 9.999615 
1.3500254e+2, 1.7462361e+2, -1229185.4, -1272972.8, -6768.6426, 0.025794014, -0.28735822, -1228163.0, 495.92285, 0.0, 10.000169, 9.999582 
1.3500333e+2, 1.8462333e+2, -1130266.4, -1177600.5, -16988.525, 0.022657432, -0.26969492, -1124800.4, 5862.638, 0.0, 10.000188, 9.999556 
1.3500386e+2, 1.9462286e+2, -1049953.3, -1090861.8, -14977.69, 0.009031661, -0.27629, -1045055.8, -12387.757, 0.0, 10.00008, 9.99953 
1.3500455e+2, 2.0462227e+2, -945699.8, -1007754.6, -6353.5923, -0.0013576772, -0.28006303, -945056.0, -10381.514, 0.0, 10.000199, 9.99937 
1.3500541e+2, 2.1462151e+2, -792878.4, -886181.44, -8537.488, -0.008119403, -0.29406267, -792103.56, 44578.742, 0.0, 10.000587, 9.999345 
1.3500607e+2, 2.2462095e+2, -686515.9, -784577.06, -23025.27, -0.0151814995, -0.28365606, -681378.56, 57310.066, 0.0, 10.000647, 9.999341 
1.3500653e+2, 2.3462065e+2, -635961.4, -711157.1, -17963.346, -0.0207291, -0.25369373, -631890.56, 8802.12, 0.0, 10.000328, 9.999326 
1.3500737e+2, 2.4462007e+2, -563716.9, -652414.6, 5395.2393, -0.014368718, -0.23084007, -563389.94, -20691.29, 0.0, 10.000266, 9.999087 
1.3500859e+2, 2.5461924e+2, -434044.4, -542863.1, 8912.08, 0.002747457, -0.22718899, -433319.34, 11387.304, 0.0, 10.0005, 9.999054 
1.3500929e+2, 2.6461783e+2, -360010.34, -528852.56, 655.06256, -0.021353599, -0.23943889, -360007.8, -13286.753, 0.0, 10.000648, 9.998405 
1.350095e+2, 2.7461588e+2, -256666.58, -433778.75, 515.83325, -0.08655906, -0.27659276, -256665.08, -7923.0444, 0.0, 10.000707, 9.998357 
1.3501039e+2, 2.846148e+2, -142095.45, -286438.28, 625.82556, -0.07571383, -0.23485826, -142092.73, 8660.194, 0.0, 10.000642, 9.998728 
1.350119e+2, 2.9461476e+2, -73138.51, -193947.17, 12146.317, 0.0027732498, -0.1178166, -71929.39, -19177.209, 0.0000005800232, 10.000407, 9.998802 
1.3501203e+2, 3.046113e+2, -47179.54, -205060.94, -17795.729, -0.01692719, -0.32679853, -45198.535, -45198.535, 0.000016654767, 10.0004635, 9.998368 
1.3501137e+2, 3.146106e+2, 98357.77, 6335.9644, 30057.98, -0.061898403, -0.22599125, 107305.81, 107305.81, 0.000086807726, 10.000853, 9.999633 
1.4499748e+2, 1.2462304e+2, -1717807.6, -1678123.0, 16591.85, 0.07784097, -0.35359454, -1672100.1, 46561.633, 0.0006852014, 9.999814, 10.00034 
1.4499852e+2, 1.346236e+2, -1686402.0, -1732440.8, 1546.1456, 0.06201968, -0.22063842, -1686350.1, -65691.71, 0.00038852147, 9.999878, 9.999264 
1.4499924e+2, 1.4462203e+2, -1528218.4, -1503706.9, -1246.383, 0.029654402, -0.351295, -1503643.6, 19030.717, 0.00015533686, 9.999849, 10.000171 
1.4500016e+2, 1.5462227e+2, -1460195.5, -1433482.8, -12475.425, 0.009579933, -0.33963633, -1428562.8, -3892.316, 0.00003278088, 9.9997015, 10.000051 
1.4500128e+2, 1.6462244e+2, -1386822.8, -1387880.1, -13713.79, 0.011527502, -0.30913877, -1373627.5, -46958.582, 0.0000015078091, 9.999707, 9.999689 
1.4500272e+2, 1.7462234e+2, -1262529.1, -1280432.4, -7467.5664, 0.04088349, -0.28964996, -1259823.4, -31151.543, 0.0, 9.999903, 9.99966 
1.4500363e+2, 1.8462208e+2, -1142649.1, -1177102.8, -18024.014, 0.041013937, -0.2772209, -1134943.5, -4267.963, 0.0, 10.000075, 9.999614 
1.4500399e+2, 1.9462177e+2, -1025201.7, -1072950.8, -16813.64, 0.005940476, -0.27525845, -1019875.4, 12803.738, 0.0, 10.000223, 9.999585 
1.4500469e+2, 2.0462129e+2, -940412.1, -1005499.44, -994.2732, -0.010227239, -0.2692517, -940396.94, -5712.4214, 0.0, 10.0002365, 9.999368 
1.4500578e+2, 2.1462068e+2, -864594.56, -921046.6, 1233.412, -0.0052140253, -0.26931807, -864567.6, -27875.832, 0.0, 10.000097, 9.999341 
1.4500654e+2, 2.2462012e+2, -749642.7, -806614.44, -16147.866, -0.011503874, -0.26245475, -745384.1, -6686.0005, 0.0, 10.000176, 9.999416 
1.4500687e+2, 2.3461963e+2, -604710.44, -687296.75, -16600.44, -0.02941845, -0.2574628, -601498.56, 39204.426, 0.0, 10.0005045, 9.999404 
1.4500767e+2, 2.4461903e+2, -519060.22, -632984.25, 1610.6346, -0.025481552, -0.24043363, -519037.47, 23671.682, 0.0, 10.000582, 9.999069 
1.45009e+2, 2.5461835e+2, -454991.0, -556001.3, -2270.743, 0.0003342576, -0.21902582, -454939.97, -10223.451, 0.0, 10.000369, 9.999027 
1.450098e+2, 2.6461706e+2, -396588.75, -524678.8, -2588.2773, -0.01815303, -0.22570911, -396536.47, -49806.79, 0.0, 10.000302, 9.998601 
1.4501008e+2, 2.7461523e+2, -290511.4, -426791.63, 13869.462, -0.08060895, -0.27340752, -289114.22, -40365.3, 0.0, 10.000375, 9.998565 
1.4501096e+2, 2.8461424e+2, -173082.06, -303583.06, 7753.3047, -0.07261381, -0.23502028, -172623.03, -21864.027, 0.0, 10.000441, 9.998707 
1.450123e+2, 2.9461423e+2, -60679.594, -192898.97, -3550.5994, -0.0040486986, -0.111051045, -60584.316, -7825.8755, 0.00000034163278, 10.000513, 9.998759 
1.4501242e+2, 3.0461094e+2, -8227.488, -166453.25, -28665.145, -0.030850274, -0.30836672, -3194.4338, -3194.4338, 0.000012640429, 10.000643, 9.998548 
1.4501218e+2, 3.146104e+2, 73970.65, -20221.098, 23788.736, -0.057605173, -0.20955747, 79637.69, 79637.69, 0.00007115946, 10.000749, 9.9995 
1.5499699e+2, 1.2462196e+2, -1712326.6, -1669495.6, 19870.043, 0.04545621, -0.34003124, -1661697.4, 56975.08, 0.0006719969, 9.9998255, 10.000395 
1.5499862e+2, 1.3462204e+2, -1675897.9, -1710099.3, 3948.2292, 0.08363767, -0.27042145, -1675448.0, -54775.734, 0.00038301162, 9.999874, 9.999419 
1.5499945e+2, 1.446204e+2, -1549603.8, -1546834.4, -6933.6343, 0.06525887, -0.40063325, -1541148.5, -18459.621, 0.00015494693, 9.999845, 9.999877 
1.55e+2, 1.5462108e+2, -1481319.9, -1478472.1, -17589.693, 0.022471065, -0.31431434, -1462248.8, -37565.742, 0.000033834087, 9.999706, 9.99974 
1.5500106e+2, 1.6462128e+2, -1374124.4, -1363037.9, -7630.8574, 0.015703404, -0.27269468, -1359149.4, -32467.521, 0.0000017896223, 9.999714, 9.999856 
1.550027e+2, 1.746208e+2, -1249809.3, -1253712.3, 144.4144, 0.04906469, -0.3112466, -1249804.0, -21116.725, 0.0, 9.999901, 9.999844 
1.5500376e+2, 1.846205e+2, -1138343.3, -1167919.1, -12704.885, 0.043751635, -0.3163158, -1133635.1, -2944.2551, 0.0, 10.000073, 9.999679 
1.550041e+2, 1.9462052e+2, -1020836.6, -1063834.1, -10900.799, -0.004388066, -0.2864521, -1018230.94, 14460.537, 0.0, 10.000222, 9.999648 
1.5500478e+2, 2.0462033e+2, -936573.3, -997059.56, -6188.6567, -0.023760602, -0.25629017, -935946.6, -1252.3107, 0.0, 10.000234, 9.999427 
1.5500583e+2, 2.1462e+2, -860453.6, -912423.9, -3522.2427, -0.01038485, -0.23675883, -860216.0, -23516.475, 0.0, 10.000096, 9.999401 
1.550067e+2, 2.2461943e+2, -748317.94, -803301.8, -4693.4927, -0.010618274, -0.23311983, -747920.2, -9214.46, 0.0, 10.0001745, 9.99944 
1.5500742e+2, 2.3461866e+2, -603970.06, -685112.44, -3855.59, -0.025948707, -0.2574991, -603787.25, 36925.395, 0.0, 10.000502, 9.999421 
1.5500817e+2, 2.4461791e+2, -527569.0, -649581.06, -5870.9995, -0.0351803, -0.25343904, -527287.1, 15433.605, 0.0, 10.000578, 9.998957 
1.5500897e+2, 2.5461715e+2, -462603.16, -571779.5, -9637.534, -0.03983883, -0.22597899, -461758.94, -17029.162, 0.0, 10.000369, 9.998919 
1.5500996e+2, 2.6461616e+2, -367624.0, -464238.94, -345.64948, -0.033436477, -0.2208645, -367622.78, -20882.625, 0.0, 10.0003, 9.999016 
1.550112e+2, 2.746149e+2, -260748.69, -364016.63, 16757.848, -0.006847764, -0.25103825, -258097.36, -9345.7295, 0.0, 10.000371, 9.998998 
1.5501201e+2, 2.8461388e+2, -194459.3, -347106.88, 10004.868, -0.011503317, -0.22385919, -193806.34, -43044.51, 0.0, 10.000436, 9.99841 
1.5501209e+2, 2.9461315e+2, -82591.73, -239067.42, 934.1671, -0.07651585, -0.14061539, -82586.15, -29816.186, 0.00000019535571, 10.000515, 9.998442 
1.550122e+2, 3.0461004e+2, 7701.717, -132827.67, -24396.957, -0.11635908, -0.3122062, 11816.716, 11816.716, 0.000009261703, 10.000641, 9.998778 
1.550136e+2, 3.1461036e+2, 67677.86, -31434.719, 30276.244, 0.008054996, -0.15493684, 76194.6, 76194.6, 0.00005700469, 10.00074, 9.999426 
1.6499704e+2, 1.2462065e+2, -1671875.4, -1646805.1, 11912.901, 0.054704662, -0.3400079, -1642047.3, 76638.61, 0.00065754744, 10.000086, 10.000424 
1.6499838e+2, 1.3462082e+2, -1680074.8, -1697649.8, -10520.329, 0.07821066, -0.2736674, -1675154.6, -54470.66, 0.00037533476, 9.999783, 9.999548 
1.6499917e+2, 1.4461923e+2, -1576761.5, -1569968.3, -8325.845, 0.061301872, -0.40174106, -1564372.9, -41672.523, 0.00015252095, 9.999701, 9.999787 
1.6499993e+2, 1.5461996e+2, -1462630.6, -1480302.0, -3806.6182, 0.037138246, -0.30098423, -1461845.5, -37150.47, 0.000033788867, 9.999881, 9.999642 
1.6500099e+2, 1.6462016e+2, -1346230.1, -1344587.0, 9768.631, 0.029855303, -0.2557505, -1335605.4, -8911.232, 0.0000018950186, 9.999884, 9.999901 
1.6500239e+2, 1.7461966e+2, -1279426.1, -1262811.4, 6123.2036, 0.038830247, -0.30186313, -1260798.5, -32099.225, 0.0, 9.999675, 9.999889 
1.650035e+2, 1.8461934e+2, -1188862.1, -1186909.3, -3213.9255, 0.029883739, -0.31288794, -1184526.6, -53823.848, 0.0, 9.999704, 9.999725 
1.6500427e+2, 1.9461937e+2, -1046954.1, -1071109.4, -2919.6565, 0.00093578495, -0.28602725, -1046606.2, -13902.993, 0.0, 10.00002, 9.999696 
1.6500512e+2, 2.0461926e+2, -938439.75, -990299.8, -8729.751, -0.011435203, -0.25567335, -937009.7, -2304.1655, 0.0, 10.000188, 9.9994955 
1.6500601e+2, 2.1461903e+2, -842814.44, -896035.7, -6256.7495, -0.0055071185, -0.23271891, -842088.75, -5379.089, 0.0, 10.000183, 9.999472 
1.6500689e+2, 2.2461852e+2, -746261.8, -797977.44, 2530.029, -0.008756034, -0.22760877, -746138.4, -7423.2686, 0.0, 10.00017, 9.999479 
1.6500777e+2, 2.3461781e+2, -652364.2, -704305.3, 4167.1016, -0.022191955, -0.25085282, -652032.0, -11310.571, 0.0, 10.000152, 9.999457 
1.6500857e+2, 2.4461706e+2, -576355.9, -673496.7, 2020.72, -0.035405405, -0.24593008, -576313.9, -33584.465, 0.0, 10.000243, 9.998954 
1.6500926e+2, 2.5461632e+2, -450773.9, -566047.9, 6251.0293, -0.05120127, -0.21777503, -450435.9, -5697.092, 0.0, 10.00045, 9.998919 
1.6501023e+2, 2.646154e+2, -332076.94, -436049.72, 7726.113, -0.046428088, -0.21087512, -331505.97, 15242.507, 0.0, 10.000498, 9.999114 
1.6501154e+2, 2.7461424e+2, -254707.97, -350260.7, -1501.0579, -0.009528774, -0.23959172, -254684.4, -5926.2324, 0.0, 10.000365, 9.999094 
1.6501251e+2, 2.8461322e+2, -192023.67, -345408.5, -1297.3749, -0.0059022843, -0.21885759, -192012.7, -41244.406, 0.0, 10.00045, 9.998414 
1.6501284e+2, 2.946124e+2, -47380.09, -222249.5, 13409.126, -0.0655835, -0.14657308, -46357.844, 6420.0396, 0.00000010392393, 10.000759, 9.998438 
1.6501293e+2, 3.0460957e+2, 42091.67, -103352.445, -12646.013, -0.11724557, -0.29723936, 43183.023, 43183.023, 0.0000064948904, 10.000822, 9.998892 
1.6501419e+2, 3.1460977e+2, 31381.951, -68496.55, 29691.16, 0.00038602995, -0.15973936, 39541.7, 39541.7, 0.000044405664, 10.000574, 9.99925 
1.7499758e+2, 1.24619134e+2, -1671462.4, -1645904.5, 2666.1062, 0.09888136, -0.35117072, -1645629.3, 73072.6, 0.0006370072, 10.000086, 10.000431 
1.7499784e+2, 1.3461994e+2, -1672049.5, -1682752.0, -21370.002, 0.043347795, -0.23161949, -1655370.9, -34677.086, 0.00036284848, 9.999789, 9.999647 
1.7499845e+2, 1.4461848e+2, -1567800.0, -1552762.6, -3201.508, 0.014799699, -0.35642242, -1552109.4, -29400.611, 0.00014707113, 9.999706, 9.999902 
1.7499995e+2, 1.5461892e+2, -1454401.6, -1463251.4, 3292.334, 0.04934179, -0.2981859, -1453311.3, -28604.863, 0.00003249045, 9.999881, 9.99976 
1.7500108e+2, 1.6461909e+2, -1351710.9, -1356042.5, 1990.8175, 0.04973442, -0.2568145, -1350934.9, -24229.148, 0.0000018022155, 9.999884, 9.999823 
1.7500177e+2, 1.7461891e+2, -1285561.4, -1275546.5, -1417.0602, 0.008314428, -0.26191723, -1275349.9, -46641.754, 0.0, 9.999675, 9.999803 
1.7500287e+2, 1.8461862e+2, -1186871.0, -1183162.0, 7637.097, -0.003497455, -0.26707944, -1177157.5, -46446.055, 0.0, 9.999705, 9.999751 
1.750045e+2, 1.9461834e+2, -1044889.56, -1066630.1, 9386.798, 0.020328624, -0.27421206, -1041397.56, -8683.042, 0.0, 10.000019, 9.999726 
1.7500567e+2, 2.0461804e+2, -933059.7, -978657.9, -8711.993, 0.024853209, -0.2672749, -931451.9, 3266.2778, 0.0, 10.000186, 9.999577 
1.7500633e+2, 2.1461777e+2, -837643.0, -884476.6, -6045.898, 0.007216365, -0.2572142, -836875.06, -152.79483, 0.0, 10.000179, 9.999553 
1.7500708e+2, 2.2461742e+2, -743064.7, -790461.3, 1471.1523, -0.0083035035, -0.24514034, -743019.06, -4292.872, 0.0, 10.000166, 9.999533 
1.7500795e+2, 2.3461705e+2, -648501.75, -696480.75, 3979.441, -0.020462755, -0.23886167, -648173.94, -7444.5156, 0.0, 10.000153, 9.999512 
1.7500888e+2, 2.4461652e+2, -569050.5, -658076.44, 9183.44, -0.02861585, -0.21950665, -568113.06, -25377.746, 0.0, 10.000242, 9.99906 
1.7500989e+2, 2.5461587e+2, -443482.8, -550119.1, 14172.357, -0.035475634, -0.19458562, -441631.38, 3112.379, 0.0, 10.000446, 9.999029 
1.750106e+2, 2.6461482e+2, -347841.84, -468438.88, 2888.8323, -0.05791694, -0.19569379, -347772.7, -1017.94476, 0.0, 10.000496, 9.998893 
1.750111e+2, 2.746133e+2, -270702.38, -383845.0, -5683.566, -0.09111772, -0.23911877, -270417.6, -21649.037, 0.0, 10.000366, 9.998863 
1.7501242e+2, 2.8461224e+2, -171667.52, -302920.38, 9402.545, -0.059818115, -0.21982253, -170997.36, -20218.9, 0.0, 10.00045, 9.998706 
1.750145e+2, 2.946119e+2, -26914.766, -178286.8, 25691.75, 0.024325542, -0.1296913, -22673.07, 30109.416, 0.00000004563321, 10.000753, 9.998743 
1.7501456e+2, 3.046094e+2, 42202.504, -102644.37, -21255.158, -0.037452396, -0.26428127, 45257.117, 45257.117, 0.000004309572, 10.000819, 9.9988985 
1.7501393e+2, 3.146087e+2, 14093.62, -105738.23, 20864.59, -0.08472319, -0.21791781, 17622.547, 17622.547, 0.000033397264, 10.000579, 9.998993 
1.8499748e+2, 1.2461798e+2, -1688398.3, -1660094.1, 13877.353, 0.08316398, -0.34575948, -1654425.5, 64288.418, 0.0006065531, 9.999996, 10.000376 
1.8499766e+2, 1.3461888e+2, -1661230.4, -1673066.9, -19136.85, 0.044240188, -0.22091442, -1647117.5, -26412.422, 0.00034376056, 9.999845, 9.999686 
1.8499823e+2, 1.4461753e+2, -1559285.0, -1536910.0, 6184.4653, 0.023201957, -0.34368223, -1535314.4, -12595.255, 0.00013809917, 9.999714, 10.000007 
1.8499967e+2, 1.5461802e+2, -1487096.0, -1466595.3, 11520.7295, 0.048010305, -0.28805235, -1461425.0, -36709.26, 0.000029920388, 9.999603, 9.99987 
1.850008e+2, 1.6461825e+2, -1384317.9, -1375647.5, 12602.003, 0.045069966, -0.24797618, -1366655.9, -39941.13, 0.0000015280342, 9.999677, 9.999787 
1.8500157e+2, 1.7461805e+2, -1245902.1, -1260760.5, 11786.907, 0.006037226, -0.24943364, -1239398.5, -10681.206, 0.0, 9.999966, 9.999764 
1.8500273e+2, 1.8461777e+2, -1141079.6, -1163797.9, 22351.594, -0.003962851, -0.25161737, -1127366.4, 3354.4165, 0.0, 10.0000305, 9.999726 
1.8500443e+2, 1.9461748e+2, -1072616.6, -1082336.9, 19635.648, 0.02030436, -0.25765228, -1057248.5, -24524.3, 0.0, 9.999839, 9.999706 
1.8500571e+2, 2.0461716e+2, -982143.94, -999501.2, 50.026657, 0.027308416, -0.253262, -982143.8, -47415.73, 0.0, 9.999837, 9.999601 
1.8500651e+2, 2.1461684e+2, -852337.56, -888539.5, -2362.589, 0.013576466, -0.2488314, -852184.06, -15451.95, 0.0, 10.000066, 9.99958 
1.8500735e+2, 2.2461647e+2, -732797.06, -786847.1, -641.4757, -0.0017583827, -0.23922259, -732789.44, 5946.647, 0.0, 10.000242, 9.99952 
1.8500823e+2, 2.346161e+2, -619734.4, -683968.3, -3667.5642, -0.017692855, -0.23106457, -619525.6, 21213.854, 0.0, 10.000356, 9.999499 
1.8500921e+2, 2.4461561e+2, -546685.0, -640475.0, -1987.3682, -0.026637176, -0.21106789, -546642.94, -3897.9915, 0.0, 10.000367, 9.99912 
1.8501028e+2, 2.54615e+2, -466176.78, -554218.3, -1497.8175, -0.030883927, -0.18643554, -466151.3, -21399.063, 0.0, 10.000262, 9.99909 
1.8501106e+2, 2.646139e+2, -372451.34, -486942.84, -6816.9614, -0.054870937, -0.19243127, -372046.9, -25283.469, 0.0, 10.000357, 9.998833 
1.8501158e+2, 2.7461222e+2, -230574.83, -371402.38, -3148.6313, -0.09426907, -0.24731433, -230504.47, 18274.6, 0.0, 10.000673, 9.9988 
1.8501294e+2, 2.846111e+2, -141609.1, -286451.72, 3732.0754, -0.06273746, -0.23217744, -141512.98, 9276.707, 0.0, 10.0006485, 9.998723 
1.8501502e+2, 2.9461086e+2, -102772.84, -213363.67, -3204.9155, 0.029123437, -0.13272758, -102680.05, -49887.32, 0.000000013949684, 10.000226, 9.9987545 
1.8501516e+2, 3.046088e+2, -5201.9644, -115109.67, -42611.08, -0.04142896, -0.23053288, 9382.876, 9382.876, 0.0000026617806, 10.000448, 9.998991 
1.8501484e+2, 3.146076e+2, 124785.93, -59240.215, 4534.2485, -0.09089718, -0.24458611, 124897.586, 124897.586, 0.000023992492, 10.00137, 9.99893 
1.949967e+2, 1.24617204e+2, -1696116.1, -1677249.1, 9804.816, 0.004059247, -0.32426137, -1673076.6, 45645.35, 0.0005643703, 10.000001, 10.000257 
1.9499785e+2, 1.3461767e+2, -1662655.8, -1676256.6, -24509.28, 0.077618115, -0.24045463, -1644021.0, -23303.248, 0.00031730495, 9.9998455, 9.999663 
1.9499855e+2, 1.4461635e+2, -1552441.5, -1523235.6, 1630.9475, 0.08242415, -0.36237246, -1523144.9, -413.40115, 0.00012543245, 9.999716, 10.0001 
1.9499913e+2, 1.5461732e+2, -1479488.4, -1451581.3, 7931.8203, 0.031587027, -0.27106196, -1449484.4, -24761.102, 0.000026112697, 9.999606, 9.999972 
1.9500019e+2, 1.646176e+2, -1383605.9, -1374387.3, 22540.943, 0.013562975, -0.22989325, -1355989.1, -29267.676, 0.0000011234973, 9.999678, 9.999796 
1.9500178e+2, 1.746171e+2, -1245464.5, -1259722.0, 23121.098, 0.030447884, -0.26389197, -1228398.1, 328.81448, 0.0, 9.999966, 9.999771 
1.9500308e+2, 1.8461677e+2, -1145952.3, -1173784.6, 15541.449, 0.025947437, -0.26579204, -1139007.1, -8276.172, 0.0, 10.0000305, 9.999659 
1.9500406e+2, 1.9461676e+2, -1078110.9, -1093382.8, 12564.484, -0.0007206325, -0.23605527, -1071044.0, -38311.613, 0.0, 9.999837, 9.999631 
1.9500522e+2, 2.0461658e+2, -984445.25, -1003957.25, 7759.064, -0.0063687474, -0.21295352, -981736.0, -47000.816, 0.0, 9.999835, 9.999572 
1.9500656e+2, 2.1461622e+2, -854298.1, -892367.5, 6938.514, 0.011715964, -0.20880918, -853072.94, -16333.657, 0.0, 10.000064, 9.999555 
1.9500771e+2, 2.2461571e+2, -738808.2, -798756.4, 3420.5786, 0.009152272, -0.21041892, -738613.6, 131.18103, 0.0, 10.000239, 9.99944 
1.950086e+2, 2.34615e+2, -625734.4, -695821.3, 970.308, -0.015694764, -0.22737898, -625720.94, 15030.686, 0.0, 10.000354, 9.999419 
1.9500953e+2, 2.4461435e+2, -546040.25, -638872.75, -6097.8745, -0.031063907, -0.22017978, -545641.44, -2883.1375, 0.0, 10.000366, 9.999131 
1.9501047e+2, 2.546138e+2, -465273.78, -552387.44, -5080.6387, -0.03944524, -0.1938362, -464978.47, -20214.137, 0.0, 10.000261, 9.999103 
1.9501159e+2, 2.646127e+2, -366119.94, -473653.84, 4062.4673, -0.039583966, -0.20120755, -365966.7, -19192.098, 0.0, 10.000356, 9.998925 
1.9501299e+2, 2.7461103e+2, -223907.31, -356974.3, 8819.82, -0.021652976, -0.26438022, -223325.28, 25464.607, 0.0, 10.00067, 9.998901 
1.9501406e+2, 2.846098e+2, -159975.95, -323703.8, -11398.756, -0.016910836, -0.25580427, -159186.19, -8384.024, 0.0, 10.000645, 9.998468 
1.9501445e+2, 2.946093e+2, -122148.734, -254137.94, -17791.256, -0.052472692, -0.15577173, -119792.65, -66983.945, 0.0000000023315327, 10.000228, 9.998474 
1.9501472e+2, 3.0460772e+2, 7169.637, -89576.67, -10323.63, -0.13114028, -0.1956259, 8258.987, 8258.987, 0.0000014940416, 10.000449, 9.999166 
1.9501689e+2, 3.1460652e+2, 131987.19, -43232.293, 38042.227, -0.025720647, -0.23269054, 139890.16, 139890.16, 0.00001627015, 10.001367, 9.999042 
2.0499666e+2, 1.2461634e+2, -1727684.5, -1691938.5, 12581.118, 0.009363099, -0.31448552, -1687954.5, 30776.61, 0.0005112227, 9.999784, 10.000258 
2.049976e+2, 1.3461682e+2, -1682435.0, -1675826.4, -19071.91, 0.076833636, -0.23904626, -1659774.6, -39047.914, 0.00028397882, 9.999668, 9.999753 
2.0499822e+2, 1.4461555e+2, -1554816.1, -1532431.9, 14341.863, 0.077597536, -0.35839504, -1525431.9, -2691.7126, 0.000109345056, 9.999735, 10.000029 
2.0499884e+2, 1.5461646e+2, -1425920.4, -1433415.8, 6904.88, 0.022033483, -0.26471967, -1421811.6, 2920.9473, 0.000021261263, 10.000008, 9.999904 
2.0499998e+2, 1.646167e+2, -1327485.6, -1344592.5, 14636.223, 0.006434146, -0.22465938, -1319086.8, 7644.368, 0.00000067965186, 10.000051, 9.999821 
2.050017e+2, 1.746162e+2, -1261895.0, -1264415.0, 16088.247, 0.031042036, -0.26129696, -1247017.5, -18280.994, 0.0, 9.999839, 9.999801 
2.0500304e+2, 1.846159e+2, -1176019.1, -1194222.8, 10653.05, 0.028535651, -0.26116964, -1171109.1, -40368.785, 0.0, 9.999849, 9.999606 
2.05004e+2, 1.9461589e+2, -1040164.2, -1080955.8, 8453.137, -0.0031567456, -0.22476117, -1038481.9, -5740.1665, 0.0, 10.000123, 9.999578 
2.0500518e+2, 2.0461567e+2, -928814.7, -981852.94, 6418.445, -0.011858753, -0.20023063, -928049.0, 6695.798, 0.0, 10.000237, 9.99953 
2.0500663e+2, 2.1461524e+2, -841507.94, -890722.06, 3829.9592, 0.004843233, -0.1998665, -841211.6, -4462.0537, 0.0, 10.000172, 9.999515 
2.0500785e+2, 2.2461465e+2, -759450.1, -820353.6, -554.3942, 0.0052180737, -0.19975406, -759445.06, -20689.24, 0.0, 10.000148, 9.999336 
2.0500891e+2, 2.3461394e+2, -658975.44, -723564.06, -5729.3306, -0.011993353, -0.20958531, -658471.2, -17707.695, 0.0, 10.000176, 9.999313 
2.0500994e+2, 2.4461316e+2, -546909.0, -635495.8, -10790.183, -0.026788991, -0.20993857, -545613.6, -2842.5051, 0.0, 10.000344, 9.999165 
2.0501089e+2, 2.546124e+2, -402429.13, -517805.34, -8526.5, -0.04267824, -0.20656618, -401802.4, 42975.734, 0.0, 10.000675, 9.999141 
2.0501208e+2, 2.646114e+2, -320325.6, -455776.03, -7459.261, -0.040193245, -0.2072958, -319916.06, 26871.584, 0.0, 10.000688, 9.998888 
2.0501363e+2, 2.7461007e+2, -278246.5, -387795.88, -14629.222, -0.0069045825, -0.22947314, -276326.56, -27526.365, 0.0, 10.000317, 9.99886 
2.050147e+2, 2.8460872e+2, -199724.83, -340729.97, -26887.2, -0.001004759, -0.23231736, -194771.89, -43958.176, 0.0, 10.000362, 9.998488 
2.0501502e+2, 2.9460758e+2, -24864.621, -205472.38, -11432.857, -0.052584898, -0.20041272, -24143.773, 28681.875, 0.000000000097020676, 10.00089, 9.99849 
2.050153e+2, 3.0460635e+2, 81759.46, -63302.785, 6346.38, -0.14361544, -0.1998859, 82036.586, 82036.586, 0.00000072960836, 10.001003, 9.999082 
2.0501791e+2, 3.146053e+2, 11409.697, -109105.1, 28882.83, -0.019480314, -0.21582973, 17974.24, 17974.24, 0.00001031642, 10.000569, 9.998975 
2.149973e+2, 1.24615416e+2, -1719602.9, -1676074.8, 12285.923, 0.09398389, -0.31533763, -1672846.5, 45894.95, 0.00045034575, 9.999787, 10.000367 
2.1499692e+2, 1.346163e+2, -1668599.9, -1648160.6, -22703.018, 0.040303864, -0.21702357, -1633483.1, -12750.778, 0.0002457903, 9.999672, 9.999942 
2.1499725e+2, 1.4461505e+2, -1570610.9, -1565841.4, 23522.857, 0.005845182, -0.3316333, -1544582.6, -21837.309, 0.00009091271, 9.999738, 9.999798 
2.1499881e+2, 1.5461543e+2, -1442690.3, -1468027.1, 17700.78, 0.01736145, -0.26860258, -1433591.6, -8848.017, 0.000015871614, 10.000007, 9.999667 
2.1500018e+2, 1.6461554e+2, -1324623.8, -1338731.4, 7079.6206, 0.020869045, -0.23170742, -1321683.6, 5060.0054, 0.00000031009594, 10.0000515, 9.999861 
2.1500129e+2, 1.7461535e+2, -1258204.9, -1257529.1, 8429.915, 0.006252638, -0.24153274, -1249430.3, -20684.305, 0.0, 9.999842, 9.999847 
2.1500263e+2, 1.8461509e+2, -1177930.8, -1198438.8, 20117.436, 0.000925594, -0.23782639, -1165604.9, -34855.72, 0.0, 9.99985, 9.999577 
2.150043e+2, 1.9461484e+2, -1042343.44, -1085309.6, 19283.479, 0.01142726, -0.22422484, -1034958.25, -2206.009, 0.0, 10.000122, 9.999549 
2.1500565e+2, 2.0461443e+2, -933091.0, -990175.9, 4201.266, 0.009229762, -0.21519844, -932783.44, 1973.547, 0.0, 10.000236, 9.999475 
2.1500665e+2, 2.1461385e+2, -845810.1, -899262.8, 1863.5505, -0.008875151, -0.22122635, -845745.2, -8982.13, 0.0, 10.00017, 9.999457 
2.150078e+2, 2.2461334e+2, -768747.4, -838934.3, -73.88035, -0.015697101, -0.2070092, -768747.3, -29978.041, 0.0, 10.000145, 9.999209 
2.1500912e+2, 2.3461287e+2, -668528.75, -742773.44, -4257.0913, -0.008224149, -0.17847426, -668285.44, -27510.234, 0.0, 10.000174, 9.999183 
2.150104e+2, 2.4461202e+2, -543547.56, -628291.8, 693.1205, -0.015210212, -0.18004939, -543541.9, -758.43726, 0.0, 10.000343, 9.999216 
2.1501158e+2, 2.5461084e+2, -397977.34, -508150.1, 4284.0835, -0.042759623, -0.22510865, -397811.0, 46982.785, 0.0, 10.000673, 9.999208 
2.1501261e+2, 2.6460996e+2, -333067.06, -481405.34, -20625.076, -0.058451973, -0.21083432, -330252.72, 16549.959, 0.0, 10.000684, 9.998714 
2.150135e+2, 2.7460936e+2, -291569.4, -415410.22, -28103.184, -0.051882856, -0.14363532, -285490.34, -36680.15, 0.0, 10.000317, 9.998671 
2.1501492e+2, 2.846079e+2, -179563.23, -298532.25, -9335.621, -0.01671734, -0.162017, -178835.11, -28010.6, 0.0, 10.0003605, 9.998779 
2.1501668e+2, 2.9460564e+2, -3139.8706, -160613.1, 8844.912, 0.02463807, -0.2673305, -2644.6296, 50199.18, 0.0, 10.00089, 9.998799 
2.1501692e+2, 3.0460468e+2, 57175.598, -112202.9, -8125.2524, -0.08216032, -0.24353577, 57564.48, 57564.48, 0.0000002906552, 10.000996, 9.998749 
2.1501791e+2, 3.1460398e+2, -5805.6465, -144738.33, 9877.1875, -0.07737245, -0.18697838, -5106.958, -5106.958, 0.0000060416633, 10.000569, 9.99873 
2.2499707e+2, 1.2461453e+2, -1752617.4, -1697307.3, 18797.37, 0.102927916, -0.30824772, -1691523.6, 27227.695, 0.0003861587, 9.999586, 10.000319 
2.249966e+2, 1.3461553e+2, -1625777.6, -1624376.8, -33623.516, 0.027606303, -0.20254883, -1591446.4, 29294.803, 0.00020573656, 9.999955, 9.999968 
2.2499701e+2, 1.4461435e+2, -1529791.5, -1548539.0, 10637.928, -0.008284366, -0.31095004, -1524986.8, -2233.2517, 0.00007189719, 10.000029, 9.999778 
2.2499871e+2, 1.5461458e+2, -1474903.6, -1485170.3, 20032.105, 0.019356204, -0.25966984, -1459357.5, -34604.67, 0.000010694928, 9.999793, 9.999653 
2.2500016e+2, 1.6461462e+2, -1366908.4, -1373770.4, 14440.826, 0.024294447, -0.2230613, -1355496.6, -28742.746, 0.000000092361944, 9.999824, 9.999731 
2.2500114e+2, 1.7461444e+2, -1221710.6, -1254345.6, 1586.7117, -0.008297461, -0.21857385, -1221633.6, 7122.8813, 0.0, 10.0001545, 9.999718 
2.250025e+2, 1.8461409e+2, -1114073.1, -1163837.3, 9930.633, -0.01675526, -0.21848692, -1112164.6, 18595.654, 0.0, 10.000273, 9.999611 
2.2500437e+2, 1.9461362e+2, -1034844.0, -1077123.1, 13832.778, 0.007202717, -0.2303318, -1030720.44, 2044.1787, 0.0, 10.000154, 9.999591 
2.2500587e+2, 2.0461313e+2, -952163.25, -1005077.5, 181.66179, 0.013047154, -0.22853765, -952162.6, -17392.97, 0.0, 10.000129, 9.999424 
2.250069e+2, 2.1461268e+2, -843173.3, -903926.56, -2549.274, -0.0039120764, -0.22041279, -843066.5, -6291.283, 0.0, 10.000215, 9.999403 
2.2500806e+2, 2.2461215e+2, -744997.6, -829126.4, 2861.6016, -0.012687652, -0.20060992, -744900.44, -6119.072, 0.0, 10.000316, 9.999194 
2.250094e+2, 2.3461163e+2, -631784.3, -726993.2, 6839.995, -0.010744164, -0.17590655, -631295.44, 9492.245, 0.0, 10.000434, 9.9991665 
2.2501075e+2, 2.4461076e+2, -535502.9, -628270.4, 14307.561, -0.016632168, -0.17789122, -533346.4, 9449.92, 0.0, 10.000415, 9.999182 
2.250121e+2, 2.5460958e+2, -465209.28, -544772.44, 9292.455, -0.03533005, -0.22001037, -464138.4, -19331.459, 0.0, 10.00023, 9.99917 
2.2501309e+2, 2.6460868e+2, -390163.53, -512473.8, -16300.923, -0.059196472, -0.20138392, -388028.3, -41212.36, 0.0, 10.000308, 9.998682 
2.2501372e+2, 2.7460814e+2, -239651.38, -393980.78, -12692.301, -0.08044542, -0.12764117, -238614.5, 10208.73, 0.0, 10.0006895, 9.998638 
2.2501522e+2, 2.846066e+2, -122860.84, -270844.53, 6026.362, -0.04027791, -0.1482517, -122615.84, 28222.092, 0.0, 10.000748, 9.998784 
2.2501753e+2, 2.9460427e+2, -74877.85, -196328.19, -426.83087, 0.045887627, -0.26444817, -74876.35, -22018.125, 0.0, 10.0004015, 9.99879 
2.2501794e+2, 3.0460358e+2, -10292.176, -156792.5, -17205.195, -0.060319584, -0.20642771, -8298.7, -8298.7, 0.000000085825576, 10.000583, 9.998642 
2.2501881e+2, 3.146025e+2, 118353.68, -71268.664, 14001.932, -0.08509863, -0.17631009, 119382.016, 119382.016, 0.0000031779714, 10.001366, 9.998852 
2.3499595e+2, 1.2461372e+2, -1766595.1, -1726822.8, 35102.367, 0.029255588, -0.2898276, -1706365.0, 12395.622, 0.00032267286, 9.999589, 10.000114 
2.3499666e+2, 1.3461448e+2, -1636023.9, -1644559.9, -19675.41, 0.036709893, -0.19492584, -1620158.9, 594.3853, 0.0001666326, 9.999949, 9.999832 
2.3499745e+2, 1.4461337e+2, -1517214.6, -1521895.3, 2215.0996, 0.032882035, -0.2963165, -1516332.5, 6432.0903, 0.00005400246, 10.000026, 9.999962 
2.349986e+2, 1.5461388e+2, -1460295.8, -1456397.8, 11642.09, 0.025662912, -0.23793928, -1446542.6, -21782.016, 0.000006396683, 9.999799, 9.999848 
2.3499988e+2, 1.646139e+2, -1386503.9, -1415436.8, 25747.209, 0.012870296, -0.19892062, -1371437.4, -44675.63, 0.000000013163342, 9.999828, 9.999442 
2.3500124e+2, 1.7461343e+2, -1242828.4, -1298338.5, 14446.634, -0.014672356, -0.19279842, -1239293.6, -10525.528, 0.0, 10.0001545, 9.999416 
2.3500268e+2, 1.8461287e+2, -1107706.1, -1150080.3, 5809.36, -0.026654426, -0.20332526, -1106924.1, 23849.83, 0.0, 10.000271, 9.999706 
2.3500429e+2, 1.9461225e+2, -1026904.5, -1060956.3, 9601.852, -0.017312558, -0.24209645, -1024383.6, 8395.097, 0.0, 10.000155, 9.9997015 
2.3500584e+2, 2.0461181e+2, -955344.2, -1011056.1, 2859.0405, -0.0025701462, -0.23999028, -955197.9, -20414.863, 0.0, 10.000127, 9.999384 
2.3500733e+2, 2.1461162e+2, -846950.7, -911009.3, 1265.0785, 0.01731659, -0.19820818, -846925.7, -10139.477, 0.0, 10.000212, 9.999355 
2.3500864e+2, 2.2461112e+2, -738835.3, -815683.75, 6933.74, 0.012155104, -0.18072309, -738214.75, 577.43787, 0.0, 10.000313, 9.999289 
2.3500973e+2, 2.3461023e+2, -624229.9, -711155.0, 11807.086, -0.02087783, -0.20135556, -622654.7, 18146.25, 0.0, 10.000434, 9.999275 
2.3501101e+2, 2.4460936e+2, -544864.56, -647526.94, 7453.542, -0.0326063, -0.20379078, -544326.25, -1516.593, 0.0, 10.000414, 9.99905 
2.3501247e+2, 2.5460857e+2, -475916.4, -566498.5, 2620.1282, -0.023027567, -0.1916561, -475840.7, -31022.898, 0.0, 10.000228, 9.9990225 
2.3501354e+2, 2.646076e+2, -382662.0, -496338.3, -3519.2903, -0.04470343, -0.17842855, -382553.16, -35725.613, 0.0, 10.000305, 9.998794 
2.3501426e+2, 2.7460638e+2, -230068.64, -373679.88, 2061.7493, -0.0955096, -0.1817258, -230039.05, 18800.324, 0.0, 10.000688, 9.998778 
2.3501566e+2, 2.846049e+2, -143950.88, -313860.34, -5809.5244, -0.07360397, -0.19151407, -143752.47, 7101.563, 0.0, 10.000745, 9.99849 
2.3501758e+2, 2.9460344e+2, -97558.85, -244129.28, -12805.743, 0.008807338, -0.19321276, -96448.44, -43579.305, 0.0, 10.000403, 9.998461 
2.3501831e+2, 3.0460304e+2, -2573.3223, -139360.0, 9765.627, -0.07950405, -0.09089564, -1879.6416, -1879.6416, 0.000000016806371, 10.000577, 9.998764 
2.3502052e+2, 3.1460094e+2, 150752.84, -2075.6475, 39273.82, -0.05087315, -0.17906345, 160254.66, 160254.66, 0.0000014346882, 10.001357, 9.9993305 
2.4499537e+2, 1.24612816e+2, -1747577.6, -1716329.0, 29733.514, 0.007249815, -0.260058, -1698364.6, 20406.248, 0.00026299746, 9.999712, 10.000128 
2.4499644e+2, 1.3461342e+2, -1681983.8, -1658026.1, -15873.889, 0.039256096, -0.18933201, -1650118.4, -29353.86, 0.0001305452, 9.999597, 9.99991 
2.4499744e+2, 1.4461234e+2, -1568613.3, -1556410.4, 4278.252, 0.04527522, -0.28874975, -1555059.9, -32284.342, 0.000038366878, 9.999715, 9.999876 
2.4499854e+2, 1.5461282e+2, -1424266.3, -1448251.6, -8339.831, 0.026864681, -0.22292158, -1421651.5, 3120.6924, 0.000003303544, 10.000087, 9.999766 
2.4499987e+2, 1.6461281e+2, -1329562.0, -1385263.8, 7671.7773, 0.011825317, -0.18517688, -1328524.6, -1751.0284, 0.00000000018007511, 10.000208, 9.999467 
2.4500138e+2, 1.7461227e+2, -1254452.1, -1300503.5, 20354.146, -0.011061391, -0.18773036, -1246745.5, -17965.451, 0.0, 10.000061, 9.999447 
2.4500288e+2, 1.846117e+2, -1141624.0, -1176190.8, 17171.732, -0.024411017, -0.19747368, -1134543.8, -3757.754, 0.0, 10.00008, 9.9996195 
2.4500446e+2, 1.9461109e+2, -1014406.75, -1064740.8, 5447.445, -0.02251842, -0.22541685, -1013823.94, 18967.371, 0.0, 10.000284, 9.999613 
2.45006e+2, 2.0461063e+2, -918342.7, -988697.06, -6805.318, -0.010818314, -0.2218001, -917690.44, 17105.385, 0.0, 10.000361, 9.999424 
2.450075e+2, 2.1461041e+2, -832354.7, -899159.4, -2575.2644, 0.010563187, -0.1890894, -832255.56, 4543.425, 0.0, 10.000291, 9.9994 
2.4500889e+2, 2.2460987e+2, -740334.56, -815559.56, 8583.71, 0.0063598473, -0.17654876, -739367.5, -562.73975, 0.0, 10.0002985, 9.999297 
2.4501011e+2, 2.3460898e+2, -628656.7, -712579.7, 5611.4575, -0.02615835, -0.19919983, -628283.1, 12530.393, 0.0, 10.0004, 9.999282 
2.4501143e+2, 2.446081e+2, -539511.7, -654573.94, -6153.5605, -0.03700415, -0.1969172, -539183.56, 3638.831, 0.0, 10.000492, 9.998963 
2.4501282e+2, 2.5460738e+2, -431506.0, -555428.8, -7639.438, -0.026403388, -0.1707336, -431036.8, 13793.758, 0.0, 10.000577, 9.998931 
2.4501404e+2, 2.6460636e+2, -335979.94, -464273.7, -4418.0103, -0.040070597, -0.16185948, -335828.0, 11012.608, 0.0, 10.000586, 9.998879 
2.4501505e+2, 2.7460495e+2, -252468.03, -374612.1, -2830.1338, -0.07447025, -0.19180964, -252402.48, -3549.4915, 0.0, 10.000491, 9.998868 
2.4501649e+2, 2.846034e+2, -170719.08, -345746.06, -10861.011, -0.06053118, -0.20754388, -170047.7, -19179.303, 0.0, 10.000642, 9.998322 
2.450181e+2, 2.946019e+2, -10678.7295, -223661.98, -8557.387, -0.013394221, -0.1909966, -10335.458, 42548.984, 0.0, 10.001094, 9.998268 
2.4501891e+2, 3.0460146e+2, 71031.62, -123447.16, 14773.76, -0.10625583, -0.075014025, 72147.516, 72147.516, 0.0000000018495133, 10.001168, 9.998588 
2.4502175e+2, 3.1459898e+2, 73341.45, -20582.373, 12349.661, -0.033444855, -0.18735449, 74938.12, 74938.12, 0.00000052479436, 10.000744, 9.999499 
2.5499538e+2, 1.24611795e+2, -1731792.6, -1682625.3, 29874.623, 0.033935674, -0.22107254, -1668519.8, 50262.68, 0.000209724, 9.999707, 10.000361 
2.5499597e+2, 1.3461232e+2, -1660544.8, -1616195.1, -19876.049, 0.030454038, -0.18677019, -1608591.1, 12184.074, 0.00009902971, 9.999606, 10.000194 
2.5499696e+2, 1.446112e+2, -1591823.9, -1606277.6, 16669.941, 0.023107545, -0.28837815, -1580881.6, -58095.066, 0.000025643241, 9.9997225, 9.99953 
2.5499856e+2, 1.5461141e+2, -1449507.3, -1500058.4, 5534.512, 0.020436304, -0.21448857, -1448908.5, -24120.89, 0.0000014046367, 10.000084, 9.999412 
2.5500017e+2, 1.6461131e+2, -1307018.4, -1337548.6, 2334.4075, 0.0195244, -0.1812623, -1306840.9, 19948.717, 0.0, 10.000204, 9.999797 
2.5500154e+2, 1.7461094e+2, -1229013.8, -1248845.6, 15154.728, 0.00028346461, -0.20312573, -1220819.3, 7973.113, 0.0, 10.000066, 9.9998 
2.550031e+2, 1.8461053e+2, -1159467.4, -1213721.0, 24165.86, -0.01303065, -0.20131618, -1150264.5, -19467.83, 0.0, 10.000082, 9.99936 
2.5500485e+2, 1.9461012e+2, -1034177.5, -1105656.1, 13511.193, -0.010698948, -0.181271, -1031708.8, 1093.6978, 0.0, 10.000284, 9.999331 
2.5500634e+2, 2.046096e+2, -910852.25, -972157.2, -9227.781, -0.0135171125, -0.17484371, -909493.4, 25314.941, 0.0, 10.000358, 9.999539 
2.5500745e+2, 2.1460903e+2, -823144.1, -879416.06, -4763.083, -0.025419893, -0.19186385, -822743.8, 14069.701, 0.0, 10.000288, 9.9995365 
2.5500882e+2, 2.2460844e+2, -746042.56, -827027.3, 11735.681, -0.031438805, -0.18804258, -744376.2, -5556.8984, 0.0, 10.000297, 9.99922 
2.5501046e+2, 2.3460786e+2, -635553.2, -726039.06, 9826.123, -0.02908879, -0.16947845, -634498.4, 6327.142, 0.0, 10.000397, 9.999191 
2.5501198e+2, 2.4460705e+2, -542494.0, -660243.1, -3373.2944, -0.032957267, -0.15686263, -542397.44, 436.86786, 0.0, 10.00049, 9.998926 
2.550132e+2, 2.5460598e+2, -433228.88, -558627.5, -3931.814, -0.046976008, -0.15744705, -433105.72, 11739.598, 0.0, 10.000575, 9.998909 
2.5501457e+2, 2.6460496e+2, -332937.28, -458291.88, -7663.713, -0.046363477, -0.15270145, -332470.47, 14384.749, 0.0, 10.0005865, 9.99892 
2.550161e+2, 2.7460384e+2, -250060.97, -369854.44, -6078.069, -0.020890446, -0.1583829, -249753.36, -889.09814, 0.0, 10.000491, 9.9989 
2.5501767e+2, 2.8460205e+2, -174420.55, -352448.66, 4364.032, -0.005138319, -0.19633758, -174313.64, -23432.502, 0.0, 10.000639, 9.998277 
2.550191e+2, 2.9459974e+2, -14177.411, -229473.14, 9128.573, -0.024558214, -0.25768456, -13791.052, 39113.145, 0.0, 10.001089, 9.998231 
2.5501972e+2, 3.0459884e+2, 36489.32, -194481.03, 889.5466, -0.14282446, -0.15890908, 36492.746, 36492.746, 0.000000000039700524, 10.001164, 9.998103 
2.5502247e+2, 3.1459656e+2, 64067.117, -41000.035, -7677.702, -0.03830008, -0.20386405, 64625.195, 64625.195, 0.00000015406697, 10.000748, 9.999358 
2.6499516e+2, 1.2461016e+2, -1748768.3, -1701477.4, 29919.346, 0.04613389, -0.23090392, -1686987.9, 31810.523, 0.0001649167, 9.999635, 10.000268 
2.6499566e+2, 1.3461076e+2, -1616616.1, -1600041.6, -51489.832, 0.022468641, -0.1841393, -1556176.4, 64614.5, 0.000073287774, 9.999929, 10.000149 
2.6499668e+2, 1.4460972e+2, -1555610.6, -1593738.8, -15134.878, 0.010604412, -0.27179086, -1550333.3, -27531.54, 0.000016155976, 9.999992, 9.999486 
2.649985e+2, 1.5460983e+2, -1488795.5, -1522702.0, -3792.4167, 0.018307256, -0.2056727, -1488376.5, -63572.5, 0.00000046134082, 9.999831, 9.999378 
2.6500025e+2, 1.6460969e+2, -1348193.9, -1348644.8, -3795.277, 0.0235423, -0.18039905, -1344617.4, -17810.836, 0.0, 9.999885, 9.999874 
2.650017e+2, 1.7460932e+2, -1207847.8, -1229407.9, -12324.466, 0.0025165624, -0.21003972, -1202254.0, 26554.594, 0.0, 10.000173, 9.999882 
2.6500323e+2, 1.8460901e+2, -1136285.5, -1199712.8, -5581.304, -0.012808973, -0.20300215, -1135798.1, -4986.338, 0.0, 10.00023, 9.999386 
2.65005e+2, 1.9460882e+2, -1069064.9, -1119953.8, 5753.3477, -0.01282203, -0.1627122, -1068422.5, -35606.414, 0.0, 10.000033, 9.999354 
2.6500654e+2, 2.0460835e+2, -946560.1, -993075.4, -3376.2063, -0.017401185, -0.151288, -946316.3, -11494.625, 0.0, 10.000129, 9.999507 
2.6500782e+2, 2.146076e+2, -786285.06, -865626.56, -11491.54, -0.030871639, -0.18164106, -784654.25, 52174.184, 0.0, 10.000558, 9.999501 
2.6500925e+2, 2.2460693e+2, -693411.3, -807297.7, -8880.832, -0.03585497, -0.18141012, -692723.0, 46111.95, 0.0, 10.000683, 9.999168 
2.650109e+2, 2.346064e+2, -631056.06, -729636.1, -9237.379, -0.029887147, -0.15416376, -630197.94, 10642.915, 0.0, 10.000452, 9.99914 
2.6501247e+2, 2.4460554e+2, -550183.6, -658501.0, -9489.562, -0.026849147, -0.14350538, -549358.56, -6508.9136, 0.0, 10.000415, 9.998974 
2.6501393e+2, 2.546044e+2, -425607.53, -548746.06, -4200.395, -0.029946614, -0.1605829, -425464.4, 19396.734, 0.0, 10.000602, 9.998964 
2.6501536e+2, 2.6460326e+2, -320617.66, -468542.6, -16033.977, -0.031995114, -0.15860656, -318899.66, 27972.117, 0.0, 10.00074, 9.998776 
2.650167e+2, 2.7460217e+2, -211854.63, -368416.78, -29407.23, -0.025488803, -0.14856702, -206513.27, 42368.305, 0.0, 10.000828, 9.998749 
2.6501837e+2, 2.846004e+2, -131328.72, -319112.63, -11695.371, -0.009542476, -0.18026252, -130603.125, 20295.043, 0.0, 10.000882, 9.998387 
2.6502025e+2, 2.9459813e+2, -39260.188, -228573.7, 3951.0972, -0.0054203295, -0.2503072, -39177.76, 13742.345, 0.0, 10.000861, 9.998347 
2.650209e+2, 3.0459696e+2, -14811.198, -242158.72, 961.78, -0.12768783, -0.17853393, -14807.13, -14807.13, 0.0, 10.000911, 9.997897 
2.650232e+2, 3.145946e+2, 119907.24, -2903.5896, 5415.792, -0.056058478, -0.20512238, 120145.61, 120145.61, 0.000000038019415, 10.001086, 9.9994545 
2.7499473e+2, 1.2460789e+2, -1776736.0, -1760375.6, 45228.77, 0.03707869, -0.28863642, -1722593.3, -3774.38, 0.00012966055, 9.9996395, 9.999861 
2.7499548e+2, 1.3460875e+2, -1642663.4, -1652862.4, -41378.875, 0.012604323, -0.18045963, -1606071.0, 14740.635, 0.00005392466, 9.999924, 9.999789 
2.7499664e+2, 1.4460796e+2, -1538372.0, -1557010.4, -21434.705, 0.0052297264, -0.23820971, -1524318.3, -1497.2947, 0.0000098627, 9.999989, 9.999741 
2.749983e+2, 1.5460807e+2, -1468433.3, -1481504.0, -9508.181, 0.01689073, -0.19738472, -1463431.0, -38609.41, 0.00000011248763, 9.999835, 9.99966 
2.7500013e+2, 1.6460788e+2, -1359793.1, -1373797.8, 5835.324, 0.020217732, -0.1836406, -1357680.5, -30856.117, 0.0, 9.999888, 9.999701 
2.7500176e+2, 1.7460738e+2, -1220786.6, -1256365.0, -1520.3218, -0.006659359, -0.20828821, -1220721.8, 8107.084, 0.0, 10.000173, 9.999697 
2.750033e+2, 1.8460712e+2, -1115430.3, -1155884.6, -12775.81, -0.026032934, -0.20204745, -1111733.4, 19098.305, 0.0, 10.000228, 9.999687 
2.7500486e+2, 1.9460717e+2, -1046668.9, -1073428.9, -1407.9697, -0.030467544, -0.1689918, -1046595.0, -13762.869, 0.0, 10.000033, 9.999674 
2.750066e+2, 2.0460685e+2, -959164.56, -1018522.9, 11768.456, -0.024262585, -0.15099542, -956916.5, -22080.33, 0.0, 10.000125, 9.999333 
2.7500862e+2, 2.1460612e+2, -800259.25, -894085.7, 5310.499, -0.008053464, -0.15896827, -799959.6, 36884.215, 0.0, 10.000556, 9.999308 
2.750102e+2, 2.2460535e+2, -696197.5, -811939.94, -16774.563, -0.00975298, -0.15744966, -693815.4, 45036.367, 0.0, 10.000678, 9.999139 
2.7501136e+2, 2.3460457e+2, -632333.8, -732029.56, -17484.506, -0.029292835, -0.15330623, -629356.3, 11503.23, 0.0, 10.000451, 9.999124 
2.7501297e+2, 2.4460362e+2, -540831.2, -639290.2, -3478.1763, -0.019815844, -0.1575379, -540708.44, 2160.0205, 0.0, 10.000415, 9.999106 
2.750151e+2, 2.5460255e+2, -416806.53, -529958.56, 3072.9082, 0.020827891, -0.17981876, -416723.13, 28155.016, 0.0, 10.000599, 9.999095 
2.7501643e+2, 2.6460135e+2, -343709.22, -515370.72, -13213.66, -0.0012006422, -0.17857154, -342698.06, 4192.1396, 0.0, 10.000736, 9.998456 
2.750169e+2, 2.7459997e+2, -235545.16, -416340.5, -25319.463, -0.089451484, -0.1623524, -232066.25, 16838.66, 0.0, 10.000823, 9.998421 
2.750186e+2, 2.845985e+2, -113854.19, -282641.4, -12111.619, -0.07444179, -0.16069002, -112989.53, 37930.06, 0.0, 10.000881, 9.998639 
2.7502158e+2, 2.9459712e+2, -20335.203, -189972.52, 3419.3113, 0.040071547, -0.17025763, -20266.309, 32666.06, 0.0, 10.000863, 9.998611 
2.7502242e+2, 3.045957e+2, -10355.568, -232911.19, 6310.428, -0.06655477, -0.13433307, -10176.783, -10176.783, 0.0, 10.000912, 9.99796 
2.750239e+2, 3.1459308e+2, 141631.98, 43599.574, 6523.4756, -0.09457641, -0.19755223, 142064.19, 142064.19, 0.00000000643165, 10.0010805, 9.999777 
2.8499418e+2, 1.2460596e+2, -1759458.3, -1758042.3, 40092.234, 0.009843738, -0.28981096, -1718651.8, 185.97246, 0.00010364884, 9.999785, 9.999806 
2.849953e+2, 1.3460676e+2, -1687550.6, -1675143.1, -29169.414, 0.017655212, -0.18892193, -1651525.0, -30693.58, 0.000040612387, 9.9996195, 9.9997835 
2.849966e+2, 1.4460607e+2, -1578262.6, -1568455.0, -489.8338, 0.020536305, -0.23824263, -1568430.6, -45590.906, 0.0000062724685, 9.999681, 9.999809 
2.8499824e+2, 1.546063e+2, -1440461.5, -1459046.8, -4814.7954, 0.016418587, -0.1952699, -1439288.3, -14449.2295, 0.000000028346124, 9.9999895, 9.99974 
2.85e+2, 1.6460612e+2, -1339763.9, -1374241.0, 6264.4746, 0.012056998, -0.17833035, -1338660.9, -11819.253, 0.0, 10.000072, 9.999609 
2.8500172e+2, 1.7460558e+2, -1264268.3, -1287986.5, 4765.603, -0.014624469, -0.19715784, -1263346.5, -34499.344, 0.0, 9.999921, 9.9996 
2.8500342e+2, 1.8460526e+2, -1147238.4, -1166890.0, -12323.222, -0.028526032, -0.1938747, -1141303.3, -10452.514, 0.0, 9.999992, 9.999724 
2.8500512e+2, 1.9460525e+2, -1002825.06, -1047748.5, -22835.314, -0.021810802, -0.17301652, -993255.9, 39595.656, 0.0, 10.000316, 9.999715 
2.8500697e+2, 2.0460494e+2, -919462.5, -1000279.1, -12164.365, -0.013347479, -0.15485115, -917671.25, 17183.938, 0.0, 10.0004015, 9.999327 
2.85009e+2, 2.1460433e+2, -851227.44, -919124.2, -5379.651, -0.005648111, -0.14841229, -850803.8, -13942.002, 0.0, 10.000209, 9.999303 
2.850107e+2, 2.2460358e+2, -747160.56, -833488.25, -17410.148, -0.009161856, -0.14790358, -743781.6, -4911.9507, 0.0, 10.000316, 9.9991665 
2.8501204e+2, 2.3460263e+2, -583917.3, -705539.75, -14741.72, -0.022658935, -0.16269268, -582156.0, 58722.656, 0.0, 10.00077, 9.999153 
2.850137e+2, 2.4460164e+2, -476176.6, -613460.7, -10450.033, -0.011339502, -0.16994846, -475385.7, 67502.14, 0.0, 10.000881, 9.999059 
2.850157e+2, 2.5460067e+2, -420807.16, -537396.2, -18770.086, 0.025521332, -0.17612436, -417859.78, 27037.063, 0.0, 10.000595, 9.999045 
2.850171e+2, 2.6459953e+2, -363694.06, -519705.66, -19903.48, 0.0010564867, -0.1701718, -361194.88, -14286.112, 0.0, 10.000577, 9.998503 
2.8501776e+2, 2.7459812e+2, -226698.34, -405770.1, -3585.387, -0.087141134, -0.1624932, -226626.6, 22297.299, 0.0, 10.000857, 9.998477 
2.8501952e+2, 2.8459677e+2, -109380.94, -281206.53, 5891.3643, -0.074577235, -0.14919098, -109179.18, 41758.28, 0.0, 10.000916, 9.998632 
2.8502235e+2, 2.945957e+2, -39083.656, -199999.8, -1029.3468, 0.035206594, -0.12614165, -39077.074, 13870.633, 0.0, 10.000741, 9.9986 
2.8502327e+2, 3.0459398e+2, -25151.824, -242058.53, 1648.426, -0.06622839, -0.12065931, -25139.297, -25139.297, 0.0, 10.00082, 9.99794 
2.8502512e+2, 3.1459162e+2, 157656.44, 61287.414, -11690.48, -0.08379682, -0.15489589, 159054.33, 159054.33, 0.00000000043435586, 10.001146, 9.999867 
2.9499346e+2, 1.2460442e+2, -1738719.6, -1716007.4, 39907.246, -0.041598257, -0.2348492, -1685871.9, 32982.758, 0.000085497144, 9.999789, 10.000093 
2.949951e+2, 1.3460478e+2, -1663532.0, -1625793.4, -35315.805, 0.034555357, -0.21066837, -1604622.0, 16228.492, 0.000032281903, 9.999621, 10.000121 
2.9499665e+2, 1.4460409e+2, -1586364.9, -1585690.4, 9994.534, 0.05389093, -0.2723715, -1576027.4, -53169.37, 0.0000046245973, 9.999683, 9.999691 
2.949982e+2, 1.546045e+2, -1449317.4, -1477103.5, 6712.072, 0.013317955, -0.19721021, -1447781.0, -22924.904, 0.00000001715619, 9.999989, 9.999616 
2.949999e+2, 1.6460444e+2, -1340516.9, -1375503.8, 461.46976, -0.004745192, -0.16211496, -1340510.9, -13652.814, 0.0, 10.00007, 9.999601 
2.950016e+2, 1.7460392e+2, -1265134.8, -1289076.6, -504.8629, -0.023439942, -0.1776896, -1265124.1, -36260.49, 0.0, 9.999918, 9.999595 
2.9500347e+2, 1.8460344e+2, -1164421.0, -1201739.5, -851.08417, -0.022217132, -0.17947978, -1164401.6, -33532.44, 0.0, 9.999989, 9.999488 
2.9500577e+2, 1.94603e+2, -1019928.06, -1083236.6, -10245.993, 0.011656064, -0.17526932, -1018311.1, 14563.214, 0.0, 10.000315, 9.999472 
2.9500762e+2, 2.0460258e+2, -908872.6, -977438.9, -18870.29, 0.013406347, -0.1631577, -904022.44, 30856.557, 0.0, 10.000398, 9.999485 
2.9500902e+2, 2.1460223e+2, -839191.0, -893712.9, -12131.889, -0.025112363, -0.15019616, -836613.3, 269.21893, 0.0, 10.000206, 9.999478 
2.9501075e+2, 2.2460157e+2, -741544.25, -821001.4, -1598.9379, -0.03617002, -0.15303114, -741512.1, -2623.1821, 0.0, 10.000312, 9.999254 
2.9501292e+2, 2.3460056e+2, -578571.56, -693864.6, 2823.323, -0.01251334, -0.1822703, -578502.44, 62395.664, 0.0, 10.000767, 9.999235 
2.9501465e+2, 2.4459961e+2, -492383.3, -646141.8, -20447.352, -0.004121752, -0.1805955, -489710.6, 53197.145, 0.0, 10.000877, 9.9988365 
2.950159e+2, 2.5459877e+2, -437530.97, -571591.8, -28994.555, -0.0166309, -0.1503375, -431528.78, 13388.561, 0.0, 10.000593, 9.998812 
2.950174e+2, 2.6459777e+2, -335713.97, -461325.28, -10571.592, -0.025646778, -0.13482472, -334830.47, 12097.183, 0.0, 10.000576, 9.998904 
2.9501927e+2, 2.7459657e+2, -196707.28, -343197.72, 7008.4917, -0.023344453, -0.14928497, -196372.73, 52565.94, 0.0, 10.000856, 9.998908 
2.9502103e+2, 2.8459525e+2, -128125.21, -319577.97, -955.168, -0.015121466, -0.14481705, -128120.445, 22831.389, 0.0, 10.000914, 9.998369 
2.950225e+2, 2.9459393e+2, -60113.273, -242092.75, -6906.4336, -0.021642951, -0.117348984, -59851.54, -6885.365, 0.0, 10.000734, 9.998314 
2.950235e+2, 3.0459177e+2, -33279.098, -257990.89, 13381.841, -0.12718426, -0.13691217, -32485.0, -32485.0, 0.0, 10.000815, 9.997833 
2.9502684e+2, 3.145901e+2, 149418.69, 43370.26, -3483.2656, -0.03097792, -0.09270675, 149532.98, 149532.98, 0.0, 10.00115, 9.9997425 
3.0499324e+2, 1.246026e+2, -1765046.8, -1723942.9, 49271.563, -0.02972861, -0.20430341, -1691108.8, 27764.594, 0.000073591786, 9.999592, 10.0001335 
3.049948e+2, 1.3460276e+2, -1629036.8, -1600452.1, -54877.52, 0.032639638, -0.20876311, -1558036.4, 62834.4, 0.000027638554, 9.999822, 10.000199 
3.049963e+2, 1.4460206e+2, -1552091.6, -1563690.4, -8819.27, 0.044020526, -0.275168, -1547335.8, -24458.139, 0.000004191702, 9.999897, 9.999739 
3.0499804e+2, 1.5460253e+2, -1472512.5, -1482811.5, -769.7744, 0.008798899, -0.20135875, -1472455.3, -47580.285, 0.000000032166714, 9.999806, 9.999664 
3.0499995e+2, 1.6460249e+2, -1370119.9, -1393657.0, -2599.7053, -0.00016353372, -0.16499126, -1369836.1, -42959.42, 0.0, 9.999885, 9.999565 
3.0500174e+2, 1.7460199e+2, -1232431.3, -1277927.1, -7376.351, -0.011918433, -0.17555867, -1231265.3, -2382.5474, 0.0, 10.000163, 9.999554 
3.050037e+2, 1.8460146e+2, -1134268.5, -1197613.5, -2044.0631, -0.012803662, -0.17488678, -1134202.6, -3313.7422, 0.0, 10.00024, 9.999394 
3.0500594e+2, 1.9460092e+2, -1057943.1, -1111041.3, -483.37732, 0.010200895, -0.1707247, -1057938.8, -25043.605, 0.0, 10.000097, 9.999384 
3.0500787e+2, 2.0460045e+2, -940058.6, -988982.9, -8198.704, 0.00947997, -0.16215949, -938721.25, -3820.842, 0.0, 10.00017, 9.999515 
3.0500937e+2, 2.1460007e+2, -795071.2, -868791.1, -12824.901, -0.023186842, -0.15510365, -792903.75, 44000.203, 0.0, 10.000493, 9.999512 
3.050112e+2, 2.2459945e+2, -699559.06, -795140.94, -5947.3516, -0.032593478, -0.15699132, -699190.44, 39719.3, 0.0, 10.000574, 9.999306 
3.0501345e+2, 2.3459859e+2, -632427.4, -713464.7, -4644.347, -0.012484596, -0.17786455, -632162.06, 8755.551, 0.0, 10.00037, 9.999291 
3.050153e+2, 2.445977e+2, -556686.1, -677709.6, -23223.928, -0.007005866, -0.17157489, -552382.6, -9455.868, 0.0, 10.000439, 9.998831 
3.0501658e+2, 2.5459686e+2, -403856.38, -556029.44, -15094.535, -0.020780876, -0.14144403, -402373.56, 42563.27, 0.0, 10.000828, 9.998806 
3.0501813e+2, 2.6459587e+2, -282954.7, -423100.06, 372.7974, -0.027479745, -0.12926792, -282953.7, 63993.203, 0.0, 10.000884, 9.999018 
3.0501997e+2, 2.7459475e+2, -232167.58, -347033.78, -6684.8945, -0.019033987, -0.1490838, -231779.84, 17176.826, 0.0, 10.000557, 9.999024 
3.0502182e+2, 2.8459346e+2, -180060.77, -357320.13, -14842.8545, -0.011607081, -0.1405024, -178826.48, -27857.184, 0.0, 10.000612, 9.998255 
3.0502337e+2, 2.9459214e+2, -15868.839, -234394.89, -8879.131, -0.024316961, -0.10147785, -15508.656, 37475.67, 0.0, 10.001097, 9.998193 
3.050245e+2, 3.045896e+2, 22444.19, -220702.34, 18913.715, -0.12477216, -0.15754071, 23906.64, 23906.64, 0.0, 10.001153, 9.997927 
3.0502784e+2, 3.1458834e+2, 80859.23, 4869.2134, 8905.98, -0.022826415, -0.07871056, 81889.05, 81889.05, 0.0, 10.000704, 9.999693 
3.149936e+2, 1.24600545e+2, -1779595.8, -1754845.6, 66747.42, 0.043338347, -0.19742335, -1699335.8, 19557.809, 0.00006650563, 9.999595, 9.999921 
3.1499436e+2, 1.3460074e+2, -1639815.3, -1624482.8, -45601.2, 0.004334542, -0.18086931, -1585907.9, 34983.813, 0.000025576577, 9.999828, 10.0000305 
3.1499565e+2, 1.446001e+2, -1536919.3, -1533664.0, -12460.604, -0.017261572, -0.24422345, -1522725.1, 173.00233, 0.000004447986, 9.999903, 9.999943 
3.1499776e+2, 1.5460038e+2, -1457995.5, -1451513.0, -3702.5876, 0.001290835, -0.20925756, -1449833.4, -24937.637, 0.00000006594377, 9.999802, 9.999882 
3.150001e+2, 1.6460027e+2, -1376201.9, -1405074.4, 7032.6196, 0.024405895, -0.18804331, -1374580.0, -47682.273, 0.0, 9.999879, 9.99949 
3.150022e+2, 1.7459977e+2, -1238322.3, -1290451.6, 3418.674, 0.016792227, -0.18976253, -1238099.0, -9194.784, 0.0, 10.000164, 9.999467 
3.1500402e+2, 1.8459934e+2, -1130193.1, -1189555.8, -7343.656, -0.0045154984, -0.17804085, -1129298.1, 1611.6271, 0.0, 10.000241, 9.99945 
3.150057e+2, 1.94599e+2, -1053802.4, -1102094.8, -5423.2783, -0.027835974, -0.16058838, -1053200.8, -20286.709, 0.0, 10.000094, 9.999448 
3.150077e+2, 2.045985e+2, -948077.56, -1004016.4, 3189.8225, -0.02708539, -0.152825, -947896.25, -12976.619, 0.0, 10.000163, 9.999414 
3.150101e+2, 2.1459784e+2, -803112.75, -884920.94, -4.02564, -0.0021089965, -0.16350275, -803112.75, 33813.453, 0.0, 10.00049, 9.999402 
3.1501213e+2, 2.2459722e+2, -698787.0, -792908.1, -13011.083, -0.0006684257, -0.16017222, -697021.5, 41910.73, 0.0, 10.000572, 9.999323 
3.1501374e+2, 2.3459668e+2, -630872.8, -710185.5, -11920.762, -0.023938362, -0.15010251, -629119.8, 11817.428, 0.0, 10.000369, 9.999314 
3.1501558e+2, 2.4459592e+2, -542178.75, -647057.2, -10025.747, -0.021557782, -0.14376457, -541229.0, 1716.0449, 0.0, 10.000437, 9.9990425 
3.150177e+2, 2.5459492e+2, -388234.44, -522959.2, -266.28793, 0.0088657, -0.14961752, -388233.9, 56721.523, 0.0, 10.000825, 9.999035 
3.150192e+2, 2.645938e+2, -295527.56, -448625.5, -11339.226, -0.007676333, -0.15296203, -294692.28, 52274.17, 0.0, 10.000881, 9.998844 
3.1502e+2, 2.745926e+2, -246420.31, -375643.44, -18410.367, -0.075309806, -0.16174524, -243848.58, 5129.298, 0.0, 10.000553, 9.99883 
3.150219e+2, 2.8459144e+2, -179285.75, -354142.6, 1599.6783, -0.06422446, -0.13658622, -179271.13, -28281.156, 0.0, 10.000606, 9.998281 
3.1502497e+2, 2.9459026e+2, -12628.087, -227768.63, 9720.032, 0.02198148, -0.07991768, -12189.829, 40812.535, 0.0, 10.001098, 9.998238 
3.1502628e+2, 3.0458742e+2, 42619.125, -179622.89, 2747.481, -0.063967064, -0.18336415, 42653.086, 42653.086, 0.0, 10.001156, 9.998208 
3.150281e+2, 3.1458634e+2, 82552.484, 10014.407, -12990.929, -0.065080516, -0.12183717, 84808.86, 84808.86, 0.0, 10.000695, 9.999733 
3.249936e+2, 1.2459804e+2, -1719961.9, -1740785.4, 67493.1, 0.064440615, -0.22467294, -1662082.1, 56835.39, 0.00006287029, 10.00007, 9.999786 
3.2499412e+2, 1.3459843e+2, -1671333.6, -1650077.5, -50518.45, 0.008089871, -0.17898156, -1609081.3, 11833.577, 0.000025189593, 9.999658, 9.999937 
3.249953e+2, 1.4459795e+2, -1575337.0, -1548948.6, -12276.792, -0.02489637, -0.22403616, -1544120.5, -21200.25, 0.0000050024137, 9.999626, 9.99997 
3.2499766e+2, 1.5459807e+2, -1425277.1, -1431237.8, -18329.045, -0.0020371913, -0.20943429, -1409687.6, 15231.323, 0.000000115129794, 10.000007, 9.999922 
3.2500005e+2, 1.6459793e+2, -1338126.3, -1378324.9, -11341.615, 0.02551358, -0.19575542, -1335147.1, -8226.252, 0.0, 10.000106, 9.999564 
3.2500225e+2, 1.7459759e+2, -1272371.4, -1297629.6, -3534.0808, 0.020256057, -0.18821481, -1271886.1, -42960.453, 0.0, 9.999893, 9.999547 
3.2500413e+2, 1.8459725e+2, -1170535.6, -1203796.6, -4901.6636, -0.0019609698, -0.17283438, -1169828.4, -38898.156, 0.0, 9.999943, 9.9994955 
3.2500583e+2, 1.9459696e+2, -1019600.75, -1081162.8, -5522.3066, -0.03261651, -0.15701754, -1019109.3, 13824.768, 0.0, 10.000309, 9.999489 
3.2500795e+2, 2.0459642e+2, -910666.3, -994107.7, 3722.3242, -0.032062527, -0.15062487, -910500.6, 24439.273, 0.0, 10.000453, 9.999344 
3.2501054e+2, 2.1459568e+2, -831405.6, -906017.9, 2338.669, 0.0014094159, -0.16229622, -831332.4, 5615.2295, 0.0, 10.00033, 9.999334 
3.2501262e+2, 2.2459505e+2, -725835.56, -801400.56, -10749.628, 0.003997917, -0.15761615, -724336.1, 14617.72, 0.0, 10.000367, 9.999362 
3.2501417e+2, 2.3459461e+2, -594693.1, -687831.3, -8532.01, -0.027229944, -0.14276621, -593917.94, 47040.1, 0.0, 10.000597, 9.999359 
3.2501608e+2, 2.4459392e+2, -511342.94, -623921.3, -7439.3237, -0.024585113, -0.13532087, -510853.47, 32111.586, 0.0, 10.000613, 9.999117 
3.2501835e+2, 2.5459298e+2, -448248.75, -543684.44, -9910.966, 0.015491879, -0.14424108, -447230.38, -2255.627, 0.0, 10.000378, 9.999108 
3.2501993e+2, 2.645918e+2, -366574.56, -501099.6, -26353.139, -0.0014530179, -0.14910832, -361596.28, -14609.819, 0.0, 10.000472, 9.998681 
3.250207e+2, 2.7459043e+2, -199670.02, -372208.28, -32334.418, -0.08069558, -0.15722531, -193809.47, 55190.75, 0.0, 10.000956, 9.99866 
3.2502264e+2, 2.8458923e+2, -112690.03, -311388.1, -9299.552, -0.07152229, -0.1302743, -112255.734, 38756.824, 0.0, 10.001018, 9.998376 
3.2502583e+2, 2.9458824e+2, -83176.73, -250036.73, 2292.9958, 0.026091423, -0.07037335, -83145.23, -30122.32, 0.0, 10.000563, 9.9983425 
3.2502723e+2, 3.0458537e+2, -35901.29, -194707.27, -5437.832, -0.053970423, -0.19225451, -35715.305, -35715.305, 0.0, 10.000519, 9.998411 
3.2502884e+2, 3.1458443e+2, 112081.766, 10560.726, -33417.195, -0.074079975, -0.1294617, 122094.09, 122094.09, 0.0, 10.000956, 9.999612 
3.3499327e+2, 1.2459514e+2, -1723626.0, -1751678.8, 61344.355, 0.020906914, -0.28368565, -1674724.9, 44219.8, 0.000061273975, 10.000083, 9.999705 
3.3499414e+2, 1.3459587e+2, -1674350.0, -1654987.9, -65043.234, 0.04441569, -0.20323148, -1598909.1, 22030.674, 0.000025556885, 9.999652, 9.999907 
3.349954e+2, 1.4459561e+2, -1586621.3, -1571147.9, 1303.1958, 0.021465704, -0.2146855, -1571038.9, -48095.094, 0.0000055599335, 9.99962, 9.999821 
3.349976e+2, 1.5459558e+2, -1434699.0, -1451437.0, -3127.981, -0.008520362, -0.20043801, -1434133.5, -9188.828, 0.00000016881297, 10.00001, 9.999782 
3.349999e+2, 1.645955e+2, -1321254.4, -1344831.5, -18985.432, -0.0050813495, -0.18567787, -1310695.3, 16250.832, 0.0, 10.000111, 9.999792 
3.3500192e+2, 1.7459546e+2, -1255486.8, -1262248.4, -10971.543, -0.0019864233, -0.17252801, -1247387.0, -18439.582, 0.0, 9.99989, 9.999792 
3.3500403e+2, 1.8459523e+2, -1169483.6, -1200270.1, 7839.8867, -0.006470476, -0.16057152, -1167602.1, -36651.84, 0.0, 9.999937, 9.999522 
3.3500642e+2, 1.9459479e+2, -1019025.7, -1079909.8, 8834.508, -0.0068721166, -0.16006845, -1017769.6, 15185.521, 0.0, 10.000308, 9.999497 
3.3500865e+2, 2.0459422e+2, -913809.7, -999792.2, -376.8644, -0.008532435, -0.15469067, -913808.06, 21153.197, 0.0, 10.000449, 9.999307 
3.350107e+2, 2.145936e+2, -834006.25, -911228.25, -1728.4453, -0.014526528, -0.15232661, -833967.6, 3000.7202, 0.0, 10.000328, 9.9993 
3.3501276e+2, 2.2459297e+2, -721875.1, -792297.7, -3048.8997, -0.020745259, -0.14993523, -721743.4, 17231.38, 0.0, 10.000363, 9.999427 
3.350148e+2, 2.3459238e+2, -589677.9, -677158.94, 565.5883, -0.024668168, -0.15590237, -589674.2, 51305.88, 0.0, 10.000595, 9.999433 
3.3501676e+2, 2.4459173e+2, -516626.75, -634420.4, -15863.482, -0.018405756, -0.14600384, -514527.8, 28459.016, 0.0, 10.000611, 9.999045 
3.3501855e+2, 2.5459102e+2, -454256.88, -555603.06, -18345.092, -0.0025703183, -0.12517834, -451038.38, -6043.591, 0.0, 10.000375, 9.999027 
3.3502033e+2, 2.6458985e+2, -377934.1, -523813.28, -9908.077, -0.009646556, -0.118176594, -377264.22, -30257.215, 0.0, 10.000468, 9.998528 
3.3502206e+2, 2.745882e+2, -209620.03, -392564.28, -13823.336, -0.039435282, -0.1370085, -208581.44, 40442.426, 0.0, 10.000955, 9.998521 
3.3502403e+2, 2.8458685e+2, -101839.49, -288345.6, -25330.744, -0.037540194, -0.12221875, -98460.37, 52576.813, 0.0, 10.001015, 9.998535 
3.35026e+2, 2.9458594e+2, -71975.984, -225362.69, -13989.535, -0.014115965, -0.072030574, -70710.516, -17664.654, 0.0, 10.000556, 9.998515 
3.350273e+2, 3.045833e+2, -28862.709, -178386.11, 8540.939, -0.09578183, -0.18426566, -28376.422, -28376.422, 0.0, 10.000512, 9.998528 
3.3502996e+2, 3.1458268e+2, 94016.81, -26580.354, -19424.342, -0.05768806, -0.107579835, 97068.24, 97068.24, 0.0, 10.000955, 9.999356 
3.4499335e+2, 1.2459301e+2, -1754485.6, -1773368.1, 69940.164, 0.029201603, -0.26935878, -1693352.4, 25613.867, 0.000060228966, 9.999902, 9.999643 
3.4499407e+2, 1.3459359e+2, -1605579.5, -1624579.9, -67534.21, 0.048507474, -0.19998553, -1546880.5, 74082.43, 0.000025763518, 10.000133, 9.999885 
3.449952e+2, 1.4459342e+2, -1513151.8, -1532762.9, 12235.159, 0.016529998, -0.20423646, -1507277.8, 15688.335, 0.000005876301, 10.000113, 9.999846 
3.449975e+2, 1.545934e+2, -1468458.8, -1464129.8, 19403.002, -0.0061596264, -0.19218767, -1446770.9, -21804.316, 0.0000002059256, 9.999763, 9.999813 
3.4499988e+2, 1.6459331e+2, -1372402.5, -1371428.3, 5529.8457, -0.0003282594, -0.17953403, -1366364.1, -39396.066, 0.0, 9.999768, 9.999774 
3.4500194e+2, 1.7459324e+2, -1208751.0, -1241844.4, -7283.1367, -0.0073841927, -0.16678908, -1207219.1, 21750.541, 0.0, 10.000219, 9.999774 
3.4500414e+2, 1.8459299e+2, -1103917.6, -1169929.6, 472.14468, -0.011745558, -0.15621664, -1103914.3, 27058.67, 0.0, 10.000392, 9.999512 
3.4500673e+2, 1.9459252e+2, -1030500.7, -1085538.6, -643.8128, 0.0023460432, -0.15734875, -1030493.2, 2484.9453, 0.0, 10.000233, 9.999495 
3.4500903e+2, 2.0459197e+2, -945567.06, -1012968.1, -10423.59, -0.0010635003, -0.15002437, -943991.9, -9007.907, 0.0, 10.000223, 9.999325 
3.450109e+2, 2.1459143e+2, -822812.56, -903920.3, -8588.112, -0.030282272, -0.1414632, -821913.2, 15076.993, 0.0, 10.000396, 9.999317 
3.4501296e+2, 2.245908e+2, -717461.44, -793832.06, -10504.3125, -0.037858795, -0.1390319, -716042.94, 22953.746, 0.0, 10.000409, 9.999394 
3.450153e+2, 2.345901e+2, -645186.56, -707593.1, -15674.846, -0.017207045, -0.1523028, -641470.75, -467.49744, 0.0, 10.00023, 9.999399 
3.4501734e+2, 2.4458943e+2, -556088.6, -652207.56, -30020.734, -0.007627486, -0.14206524, -547482.8, -4472.7046, 0.0, 10.000334, 9.999057 
3.45019e+2, 2.545888e+2, -395108.8, -525585.9, -25975.697, -0.0133882295, -0.11192588, -390127.66, 54889.363, 0.0, 10.000774, 9.999041 
3.4502086e+2, 2.645877e+2, -313099.3, -490083.13, -5635.5137, -0.023639284, -0.10230466, -312920.06, 34108.766, 0.0, 10.000902, 9.998549 
3.4502292e+2, 2.7458602e+2, -253200.03, -411916.34, 2262.8118, -0.034975763, -0.12704231, -253167.78, -4121.716, 0.0, 10.000647, 9.998537 
3.4502482e+2, 2.8458464e+2, -166530.64, -317490.44, -17380.576, -0.034696154, -0.11729075, -164555.39, -13495.674, 0.0, 10.000562, 9.998553 
3.450264e+2, 2.945837e+2, -48513.176, -212345.52, -18770.977, -0.03499121, -0.06977403, -46390.02, 6678.5195, 0.0, 10.00071, 9.998531 
3.450279e+2, 3.0458143e+2, 23667.451, -138595.81, 12527.631, -0.103395924, -0.15795349, 24628.957, 24628.957, 0.0, 10.000812, 9.998655 
3.4503108e+2, 3.145808e+2, 53572.863, -67352.49, -20600.229, -0.030496204, -0.08995008, 56985.887, 56985.887, 0.0, 10.000771, 9.999164 
3.5499388e+2, 1.2459161e+2, -1757593.9, -1779494.3, 89440.54, 0.08752375, -0.18241353, -1678435.8, 40546.76, 0.00005843651, 9.999899, 9.999603 
3.5499385e+2, 1.3459164e+2, -1604733.4, -1624512.4, -57291.11, 0.010611794, -0.16819574, -1556484.5, 64499.645, 0.000025162195, 10.000138, 9.999882 
3.5499468e+2, 1.4459139e+2, -1498007.9, -1503670.0, 328.1914, -0.050276633, -0.190659, -1497988.9, 24998.172, 0.0000057861466, 10.000121, 10.000043 
3.5499737e+2, 1.5459149e+2, -1454553.9, -1434822.5, 6793.9097, 0.00586186, -0.18504852, -1432709.5, -7724.6367, 0.00000020730299, 9.999761, 10.000015 
3.5500005e+2, 1.6459133e+2, -1391752.4, -1411021.0, 20860.463, 0.039710686, -0.17727733, -1378408.9, -51422.227, 0.0, 9.999765, 9.999504 
3.550022e+2, 1.7459092e+2, -1228824.4, -1284126.3, 10410.075, -0.0010472031, -0.1706945, -1226929.6, 2062.9385, 0.0, 10.000221, 9.999482 
3.5500443e+2, 1.845905e+2, -1106449.5, -1175325.4, -4758.492, -0.023691097, -0.15880689, -1106122.4, 24875.824, 0.0, 10.000392, 9.999475 
3.550069e+2, 1.945901e+2, -1031830.8, -1088344.6, -6112.3877, -0.0062882686, -0.1500857, -1031177.25, 1825.8291, 0.0, 10.000231, 9.999476 
3.5500917e+2, 2.0458965e+2, -941140.25, -1002829.06, -4671.575, -0.01096983, -0.13769302, -940788.44, -5780.2505, 0.0, 10.000219, 9.999396 
3.5501114e+2, 2.1458918e+2, -818219.9, -893672.1, -1399.1085, -0.04825698, -0.12943152, -818193.94, 18819.344, 0.0, 10.000393, 9.99939 
3.5501325e+2, 2.2458853e+2, -727192.1, -813278.2, -16997.393, -0.050090406, -0.1248059, -723957.56, 15062.23, 0.0, 10.000406, 9.999263 
3.5501564e+2, 2.3458776e+2, -655267.3, -728384.8, -22053.434, -0.0065008174, -0.13214168, -649130.7, -8103.053, 0.0, 10.00023, 9.999257 
3.550178e+2, 2.4458703e+2, -549720.75, -638566.0, -14867.769, 0.0062274463, -0.12386305, -547298.7, -4263.662, 0.0, 10.000332, 9.999152 
3.5501975e+2, 2.545864e+2, -387309.28, -508695.63, -9166.357, -0.019752368, -0.10511696, -386621.0, 58420.62, 0.0, 10.0007715, 9.999159 
3.5502154e+2, 2.6458538e+2, -300245.9, -462237.38, -14302.5205, -0.046293166, -0.101955295, -298992.8, 48059.17, 0.0, 10.000897, 9.998744 
3.5502324e+2, 2.7458394e+2, -240421.11, -384698.1, -6790.605, -0.069431104, -0.12661427, -240102.2, 8964.562, 0.0, 10.000644, 9.998726 
3.5502508e+2, 2.8458259e+2, -176162.67, -336906.25, -13528.505, -0.064789124, -0.1150548, -175032.05, -23951.93, 0.0, 10.000559, 9.998422 
3.5502708e+2, 2.9458153e+2, -58232.652, -231931.16, -12488.763, -0.040504232, -0.064438336, -57339.316, -4248.3237, 0.0, 10.000707, 9.998398 
3.5502893e+2, 3.0457962e+2, 31799.236, -120750.27, 11755.284, -0.081798576, -0.114515744, 32699.768, 32699.768, 0.0, 10.000807, 9.99878 
3.5503218e+2, 3.1457886e+2, 44218.41, -85713.555, -24577.488, -0.0021578681, -0.07282306, 48711.996, 48711.996, 0.0, 10.000766, 9.99904 
3.6499396e+2, 1.2458942e+2, -1726724.3, -1765657.6, 80325.54, 0.09684586, -0.1490774, -1663540.1, 55465.336, 0.000055122826, 10.000116, 9.999592 
3.649939e+2, 1.3458925e+2, -1654814.9, -1645495.9, -76522.26, 0.02134629, -0.15901202, -1573491.5, 47517.47, 0.000023501116, 9.999781, 9.99991 
3.6499462e+2, 1.4458905e+2, -1539079.0, -1520735.1, -19748.494, -0.052466422, -0.17783, -1508132.6, 14878.482, 0.00000526637, 9.999827, 10.000067 
3.6499733e+2, 1.545892e+2, -1376923.6, -1394166.3, -28265.52, -0.002685672, -0.1696005, -1355993.9, 69014.445, 0.00000017249042, 10.000278, 10.000045 
3.650001e+2, 1.6458903e+2, -1303738.8, -1364293.8, -8565.311, 0.037472792, -0.16567306, -1302550.6, 24459.287, 0.0, 10.000351, 9.999541 
3.6500245e+2, 1.7458855e+2, -1261392.1, -1295120.4, 5178.7793, 0.014168567, -0.17088804, -1260614.9, -31598.928, 0.0, 9.999978, 9.999523 
3.6500475e+2, 1.8458813e+2, -1172756.4, -1211676.6, 6762.9976, -0.008258664, -0.15880653, -1171614.6, -40593.15, 0.0, 9.999955, 9.999435 
3.6500713e+2, 1.9458784e+2, -1016115.5, -1085449.0, 3155.6514, -0.012725844, -0.13530505, -1015972.1, 17054.041, 0.0, 10.000358, 9.999436 
3.6500943e+2, 2.0458743e+2, -894397.4, -976542.4, -226.82652, -0.020927599, -0.11882451, -894396.75, 40634.387, 0.0, 10.000522, 9.999433 
3.650116e+2, 2.145869e+2, -814597.9, -887200.2, -265.16873, -0.040117256, -0.11908388, -814596.94, 22439.248, 0.0, 10.000397, 9.999433 
3.6501378e+2, 2.2458623e+2, -724240.5, -811616.0, -11428.002, -0.041326776, -0.12027424, -722770.5, 16272.223, 0.0, 10.000425, 9.999265 
3.6501592e+2, 2.3458543e+2, -595917.75, -699808.7, -6775.897, -0.018030131, -0.12975745, -595477.7, 45572.99, 0.0, 10.000637, 9.999257 
3.6501813e+2, 2.4458466e+2, -507153.66, -620925.94, 5424.023, -0.009037604, -0.123423874, -506895.66, 36162.81, 0.0, 10.000637, 9.9991255 
3.6502033e+2, 2.54584e+2, -445328.6, -540009.44, 136.00967, -0.019698905, -0.10674762, -445328.4, -262.6342, 0.0, 10.000387, 9.999129 
3.6502218e+2, 2.6458308e+2, -374045.0, -486479.78, -17483.555, -0.044274077, -0.099996865, -371389.06, -24313.607, 0.0, 10.00034, 9.998846 
3.6502367e+2, 2.745818e+2, -245590.88, -375088.84, -17603.285, -0.08189353, -0.1147234, -243240.63, 5847.2886, 0.0, 10.000556, 9.998834 
3.6502558e+2, 2.8458047e+2, -148916.05, -326688.84, -16538.863, -0.08042871, -0.106482714, -147390.47, 3710.7883, 0.0, 10.000757, 9.998397 
3.6502784e+2, 2.9457924e+2, -33126.02, -223725.44, -7734.6484, -0.043392096, -0.07314943, -32812.66, 20302.0, 0.0, 10.000895, 9.998364 
3.650298e+2, 3.0457777e+2, 43241.285, -103638.625, 11253.616, -0.0749124, -0.081134126, 44098.51, 44098.51, 0.0, 10.000834, 9.998885 
3.650327e+2, 3.1457686e+2, 17224.201, -101496.51, -32384.596, -0.015135592, -0.06281651, 25483.473, 25483.473, 0.0, 10.000589, 9.999018 
3.7499362e+2, 1.2458643e+2, -1726717.8, -1765330.6, 79862.7, 0.048994526, -0.1689471, -1663861.0, 55174.434, 0.00005010573, 10.000114, 9.999596 
3.749943e+2, 1.345864e+2, -1651066.6, -1637902.8, -87932.516, 0.0815307, -0.17161343, -1556306.1, 64731.332, 0.000020857056, 9.999781, 9.999963 
3.7499508e+2, 1.445864e+2, -1549446.5, -1542052.0, -4039.4063, 0.009336442, -0.16523828, -1540273.3, -17235.004, 0.000004428325, 9.9998255, 9.999921 
3.7499726e+2, 1.5458652e+2, -1386738.1, -1415012.6, -10728.764, -0.03801826, -0.14600098, -1383128.0, 41908.94, 0.00000011962439, 10.00028, 9.999901 
3.7499994e+2, 1.6458642e+2, -1278774.8, -1312868.3, -21526.902, -0.013998152, -0.14406797, -1268362.5, 58675.094, 0.0, 10.000352, 9.999894 
3.7500268e+2, 1.7458612e+2, -1234972.6, -1240664.0, -8326.609, 0.03764139, -0.16786319, -1229018.9, 21.1144, 0.0, 9.999979, 9.999897 
3.7500513e+2, 1.845859e+2, -1175978.4, -1218254.3, 20242.445, 0.032810893, -0.15639815, -1167849.1, -36805.89, 0.0, 9.999954, 9.999392 
3.7500742e+2, 1.9458574e+2, -1020859.2, -1094932.1, 18848.996, -0.019685186, -0.11243844, -1016338.6, 16708.803, 0.0, 10.000356, 9.9993725 
3.7500983e+2, 2.0458531e+2, -894566.06, -975980.75, -4268.449, -0.033843264, -0.09324747, -894342.9, 40709.883, 0.0, 10.000518, 9.999438 
3.7501234e+2, 2.1458462e+2, -814157.7, -885565.6, -4406.3677, -0.00795677, -0.1111906, -813886.8, 23172.248, 0.0, 10.000394, 9.999445 
3.7501445e+2, 2.245839e+2, -715269.3, -792372.5, -4404.1733, -0.0135750435, -0.12575418, -715018.56, 24047.166, 0.0, 10.0004225, 9.999398 
3.7501624e+2, 2.3458312e+2, -586303.25, -679111.8, 1486.2217, -0.053622067, -0.14501706, -586279.44, 54793.023, 0.0, 10.000634, 9.999401 
3.750183e+2, 2.4458236e+2, -518078.25, -642613.94, -3559.1604, -0.05582747, -0.14100045, -517976.63, 25103.854, 0.0, 10.000633, 9.998979 
3.7502074e+2, 2.545816e+2, -456843.63, -563873.2, -8956.181, -0.014923136, -0.11678794, -456099.38, -11009.817, 0.0, 10.000386, 9.998965 
3.7502277e+2, 2.6458073e+2, -373703.53, -485977.03, -10815.195, -0.019225106, -0.096318714, -372671.22, -25571.994, 0.0, 10.000341, 9.998849 
3.7502432e+2, 2.7457964e+2, -244693.84, -372063.16, -9125.409, -0.075114675, -0.091941394, -244043.38, 5066.2607, 0.0, 10.00055, 9.9988575 
3.7502632e+2, 2.845783e+2, -143824.63, -314086.5, -11105.795, -0.08526926, -0.09194901, -143103.27, 8019.9526, 0.0, 10.000749, 9.998487 
3.750287e+2, 2.945768e+2, -27509.889, -211877.34, -1905.6235, -0.047549188, -0.09509383, -27490.195, 25649.21, 0.0, 10.000895, 9.998446 
3.7503055e+2, 3.0457583e+2, 49485.41, -91329.305, 1366.4354, -0.08617324, -0.057678197, 49498.668, 49498.668, 0.0, 10.000837, 9.998968 
3.7503272e+2, 3.1457493e+2, 21649.607, -89824.24, -43579.996, -0.07511401, -0.053370103, 36664.508, 36664.508, 0.0, 10.00058, 9.999103 
3.8499355e+2, 1.24583505e+2, -1735191.6, -1763186.8, 84627.22, 0.037012424, -0.17965221, -1663412.1, 55652.902, 0.00004363311, 10.0000305, 9.999649 
3.8499427e+2, 1.3458368e+2, -1599857.0, -1603383.5, -93617.73, 0.08655659, -0.17031322, -1507985.9, 113078.89, 0.000017489165, 10.000088, 10.0000515 
3.8499504e+2, 1.4458388e+2, -1515877.0, -1525918.6, 7528.149, 0.012429191, -0.14882785, -1511849.0, 11214.509, 0.0000034194288, 10.000056, 9.999921 
3.8499737e+2, 1.5458386e+2, -1454639.5, -1448135.3, 9581.102, -0.030934138, -0.14357479, -1441269.4, -16205.486, 0.00000006772674, 9.999816, 9.999897 
3.8500008e+2, 1.6458377e+2, -1340515.9, -1331617.6, -6159.15, -0.007986509, -0.14549837, -1328468.8, -1404.3724, 0.0, 9.999879, 9.999994 
3.850028e+2, 1.7458366e+2, -1174508.9, -1199546.3, -13806.178, 0.03193978, -0.160847, -1168390.8, 60673.797, 0.0, 10.00034, 10.000006 
3.8500527e+2, 1.8458351e+2, -1101976.9, -1180321.5, 7486.6357, 0.028698254, -0.14741263, -1101267.9, 29798.871, 0.0, 10.000452, 9.999413 
3.850078e+2, 1.9458331e+2, -1051543.4, -1107524.6, 11498.264, -0.0066105225, -0.109336495, -1049273.8, -16202.454, 0.0, 10.000135, 9.999392 
3.8501027e+2, 2.0458286e+2, -956250.06, -1003157.3, -5784.7266, -0.017441392, -0.095749885, -955547.2, -20470.3, 0.0, 10.000084, 9.999459 
3.8501272e+2, 2.1458215e+2, -818608.6, -885045.44, -5945.5674, -0.004981783, -0.1183512, -818080.75, 19002.799, 0.0, 10.000352, 9.999469 
3.8501486e+2, 2.2458147e+2, -712697.0, -789106.0, -10105.445, -0.017131468, -0.12850094, -711383.06, 27706.604, 0.0, 10.000431, 9.999416 
3.8501665e+2, 2.3458087e+2, -634976.2, -700552.1, -14188.341, -0.056475587, -0.13365936, -632038.0, 9057.17, 0.0, 10.000291, 9.999419 
3.8501877e+2, 2.4458016e+2, -558524.25, -660783.44, -17991.96, -0.060225103, -0.1255377, -555451.06, -12348.343, 0.0, 10.000349, 9.998991 
3.8502118e+2, 2.5457937e+2, -417859.97, -543733.25, -11420.178, -0.023743512, -0.10785626, -416832.25, 28279.98, 0.0, 10.000649, 9.998977 
3.850233e+2, 2.6457843e+2, -314639.75, -461270.7, -6346.5313, -0.024451138, -0.08990869, -314365.56, 32756.623, 0.0, 10.000763, 9.998816 
3.85025e+2, 2.7457732e+2, -233305.94, -370222.0, -8724.907, -0.067038745, -0.084481, -232752.19, 16380.602, 0.0, 10.000644, 9.998825 
3.8502702e+2, 2.8457597e+2, -173162.7, -317863.56, -12678.454, -0.07557113, -0.09067064, -172060.23, -20913.576, 0.0, 10.000501, 9.998581 
3.850293e+2, 2.9457444e+2, -97836.93, -235879.67, -4877.0747, -0.049198933, -0.106711656, -97664.836, -44501.684, 0.0, 10.000367, 9.998536 
3.8503122e+2, 3.0457386e+2, 14360.997, -110966.2, 2263.7568, -0.09041503, -0.035538994, 14401.873, 14401.873, 0.0, 10.000607, 9.998945 
3.850334e+2, 3.145724e+2, 124175.086, -28983.168, -53988.65, -0.09803321, -0.081724286, 141293.0, 141293.0, 0.000000000002787424, 10.001232, 9.999207 
3.949938e+2, 1.2458062e+2, -1728841.4, -1748836.9, 98288.6, 0.05725316, -0.1817312, -1640043.4, 79051.26, 0.0000362571, 10.000027, 9.999749 
3.9499384e+2, 1.3458109e+2, -1589908.3, -1583693.9, -90187.4, 0.032332484, -0.15562975, -1496560.1, 124530.66, 0.000013744367, 10.000091, 10.000186 
3.949945e+2, 1.4458148e+2, -1507037.0, -1506927.4, -189.91116, -0.04892512, -0.12814139, -1506784.5, 16302.5, 0.0000023661473, 10.000052, 10.000052 
3.9499766e+2, 1.545812e+2, -1445039.6, -1428697.0, 938.81744, 0.016202064, -0.16252904, -1428643.3, -3554.1138, 0.000000028035489, 9.999817, 10.00003 
3.950006e+2, 1.6458108e+2, -1351125.1, -1353720.5, 9153.701, 0.052719396, -0.16993794, -1343177.5, -16087.17, 0.0, 9.99988, 9.999843 
3.9500275e+2, 1.7458114e+2, -1185644.6, -1222324.1, 4076.396, -0.0048966706, -0.14958347, -1185197.1, 43892.89, 0.0, 10.0003395, 9.99985 
3.9500523e+2, 1.84581e+2, -1096063.6, -1167478.0, -3254.918, -0.023507724, -0.1317931, -1095915.5, 35176.723, 0.0, 10.000449, 9.999501 
3.9500824e+2, 1.9458058e+2, -1044833.8, -1093036.9, 4.2703433, 0.024384825, -0.12632626, -1044833.8, -11736.045, 0.0, 10.0001335, 9.999492 
3.9501083e+2, 2.0458007e+2, -953932.56, -997826.56, 3062.8743, 0.025932755, -0.12621024, -953719.9, -18616.277, 0.0, 10.000082, 9.999497 
3.950128e+2, 2.1457946e+2, -816621.06, -880069.44, 4756.5313, -0.033398226, -0.13974516, -816266.44, 20843.074, 0.0, 10.000348, 9.999504 
3.950149e+2, 2.2457898e+2, -719907.1, -803145.0, -14993.778, -0.054482646, -0.12834138, -717288.7, 21826.045, 0.0, 10.000427, 9.999322 
3.9501724e+2, 2.3457865e+2, -642127.1, -715147.56, -19084.46, -0.0279478, -0.09646229, -637440.1, 3678.7117, 0.0, 10.00029, 9.99932 
3.9501947e+2, 2.4457808e+2, -547218.5, -637036.3, -7818.5825, -0.02404419, -0.077480055, -546543.0, -3417.7415, 0.0, 10.000348, 9.999155 
3.950216e+2, 2.5457725e+2, -406152.13, -517877.66, 228.8482, -0.048770554, -0.08006749, -406151.66, 38982.246, 0.0, 10.000642, 9.999158 
3.9502364e+2, 2.645762e+2, -319917.2, -470574.44, -10434.326, -0.06259948, -0.08076968, -319197.97, 27946.482, 0.0, 10.000756, 9.998755 
3.950257e+2, 2.7457485e+2, -238460.05, -381382.63, -12960.651, -0.060188904, -0.09188274, -237294.23, 11863.099, 0.0, 10.000646, 9.998748 
3.9502773e+2, 2.8457347e+2, -166484.92, -304403.88, -18652.342, -0.054013766, -0.10264509, -164006.88, -12835.335, 0.0, 10.000504, 9.9986725 
3.9502966e+2, 2.9457211e+2, -92838.14, -222546.94, -9302.373, -0.051499832, -0.107824005, -92174.39, -38988.477, 0.0, 10.000355, 9.998633 
3.9503184e+2, 3.0457175e+2, 3666.0884, -130143.25, 24754.393, -0.09058327, -0.014289827, 8098.7495, 8098.7495, 0.0, 10.000594, 9.998819 
3.950347e+2, 3.1456935e+2, 131608.77, -12304.823, -30461.268, -0.09304528, -0.14096144, 137790.75, 137790.75, 0.000000001718879, 10.001229, 9.999322 
4.0499377e+2, 1.24578275e+2, -1668329.5, -1723992.5, 121698.78, 0.030739123, -0.15674257, -1571320.4, 147798.28, 0.000028702449, 10.000462, 9.99971 
4.0499383e+2, 1.3457863e+2, -1628033.8, -1602397.9, -90518.23, 0.036790475, -0.14147066, -1523794.5, 97321.414, 0.000010028613, 9.99983, 10.000185 
4.0499446e+2, 1.4457908e+2, -1559442.0, -1519840.8, 6212.982, -0.040425517, -0.1138961, -1518888.9, 4222.1934, 0.0000013962007, 9.999639, 10.000165 
4.0499765e+2, 1.545787e+2, -1422477.3, -1404331.4, 4066.236, 0.029821627, -0.17128773, -1403461.9, 21651.227, 0.000000006286357, 9.999913, 10.000152 
4.0500075e+2, 1.6457853e+2, -1332060.9, -1357322.0, 21508.105, 0.06898617, -0.18349744, -1319748.9, 7365.772, 0.0, 10.000065, 9.999729 
4.0500307e+2, 1.7457862e+2, -1235934.0, -1260639.0, 18469.664, 0.0072769695, -0.14813228, -1226066.9, 3048.347, 0.0, 10.000054, 9.999724 
4.0500554e+2, 1.8457848e+2, -1137113.9, -1175387.9, 3219.6555, -0.016297024, -0.12832259, -1136844.9, -5727.282, 0.0, 10.000117, 9.999607 
4.050085e+2, 1.9457805e+2, -1013694.1, -1064829.3, 6437.5127, 0.026588362, -0.13596119, -1012896.1, 20226.12, 0.0, 10.000291, 9.99961 
4.0501103e+2, 2.0457758e+2, -920151.9, -986275.25, 13264.287, 0.025013585, -0.13572933, -917590.3, 17537.17, 0.0, 10.000335, 9.9994545 
4.0501302e+2, 2.1457708e+2, -837808.44, -895566.2, 8177.564, -0.037283707, -0.1345373, -836673.0, 460.29077, 0.0, 10.000226, 9.999457 
4.0501523e+2, 2.2457665e+2, -746395.7, -818737.4, -13235.412, -0.055861104, -0.115186095, -744050.2, -4911.6733, 0.0, 10.000258, 9.999296 
4.0501767e+2, 2.345763e+2, -619290.6, -706548.56, -12439.02, -0.019831464, -0.0828688, -617552.06, 23590.945, 0.0, 10.000458, 9.999297 
4.0502e+2, 2.4457568e+2, -517600.84, -624800.25, 244.45532, -0.018258685, -0.06560276, -517600.28, 25549.563, 0.0, 10.00056, 9.999137 
4.0502205e+2, 2.5457478e+2, -420415.4, -526361.06, -6663.355, -0.059026662, -0.07294363, -419997.97, 25161.09, 0.0, 10.00055, 9.999145 
4.0502417e+2, 2.6457375e+2, -347086.66, -471514.9, -25719.64, -0.076053955, -0.074359454, -341979.94, 5189.1753, 0.0, 10.000516, 9.998864 
4.0502626e+2, 2.745726e+2, -255825.0, -377484.38, -15769.422, -0.06228132, -0.080422685, -253814.2, -4633.8877, 0.0, 10.000473, 9.998858 
4.0502825e+2, 2.8457126e+2, -151503.66, -289317.28, -10025.231, -0.054629475, -0.09532779, -150778.19, 415.59146, 0.0, 10.000571, 9.998744 
4.0503016e+2, 2.945698e+2, -22203.227, -180273.11, -3060.4395, -0.059950072, -0.11826232, -22143.994, 31064.7, 0.0, 10.000804, 9.998708 
4.050326e+2, 3.0456954e+2, 25547.746, -137792.03, 38118.2, -0.0848673, -0.006731676, 34005.367, 34005.367, 0.0, 10.000823, 9.998656 
4.0503576e+2, 3.14567e+2, 56713.742, -31601.654, -23813.695, -0.078881584, -0.13824694, 62725.7, 62725.7, 0.00000001196501, 10.000642, 9.999473 
4.1499346e+2, 1.2457644e+2, -1681072.4, -1749465.9, 111141.99, -0.04869517, -0.10846104, -1598985.1, 120152.55, 0.000021697306, 10.000459, 9.999536 
4.1499427e+2, 1.345763e+2, -1636585.1, -1621905.9, -113175.305, 0.09692821, -0.12957327, -1515832.5, 105307.71, 0.000006740833, 9.999836, 10.000049 
4.1499484e+2, 1.4457667e+2, -1553665.4, -1507453.9, 15472.416, 0.034148593, -0.10725457, -1502751.9, 20383.781, 0.0000006540361, 9.999638, 10.00025 
4.1499737e+2, 1.5457635e+2, -1415008.6, -1388699.3, 14912.235, 0.009144887, -0.1695658, -1381968.8, 43167.09, 0.0000000002364484, 9.999913, 10.000259 
4.150005e+2, 1.6457613e+2, -1338275.3, -1369508.1, 21204.15, 0.03877272, -0.18586439, -1327557.5, -420.17996, 0.0, 10.000062, 9.999646 
4.1500372e+2, 1.7457607e+2, -1242656.9, -1274255.8, 18471.322, 0.06518007, -0.15631461, -1234149.6, -5009.472, 0.0, 10.000053, 9.999632 
4.150063e+2, 1.8457595e+2, -1128680.0, -1157716.5, 8974.207, 0.046589658, -0.13713053, -1126130.3, 5012.547, 0.0, 10.000116, 9.999728 
4.1500852e+2, 1.9457571e+2, -1004872.3, -1045732.6, 13439.133, -0.0011375697, -0.13759053, -1000848.44, 32296.342, 0.0, 10.000287, 9.9997425 
4.150109e+2, 2.0457537e+2, -929169.0, -1004089.3, 9363.633, -0.02158863, -0.1242129, -928016.44, 7132.2764, 0.0, 10.000331, 9.999334 
4.1501346e+2, 2.1457495e+2, -847447.44, -914650.6, 4521.1934, -0.018676871, -0.10325176, -847144.6, -9989.707, 0.0, 10.000222, 9.999328 
4.1501582e+2, 2.2457442e+2, -743667.06, -812622.25, -6477.349, -0.02350119, -0.08947504, -743063.9, -3902.565, 0.0, 10.000257, 9.999339 
4.15018e+2, 2.3457378e+2, -616174.25, -699206.2, -4507.0415, -0.034407258, -0.09210567, -615930.3, 25237.41, 0.0, 10.000454, 9.99935 
4.1502026e+2, 2.4457295e+2, -531520.06, -652885.2, -113.05246, -0.045134515, -0.089122936, -531519.94, 11656.575, 0.0, 10.000556, 9.998945 
4.1502264e+2, 2.5457194e+2, -434791.16, -556039.4, -6763.449, -0.056344472, -0.086960375, -434415.06, 10772.712, 0.0, 10.000549, 9.998941 
4.150248e+2, 2.6457113e+2, -328372.3, -431860.56, -27763.824, -0.066635914, -0.07126001, -321394.34, 25801.982, 0.0, 10.000513, 9.999138 
4.1502658e+2, 2.7457052e+2, -236614.77, -335277.88, -16502.766, -0.07599171, -0.05045792, -233927.64, 15274.208, 0.0, 10.0004635, 9.999152 
4.1502857e+2, 2.845693e+2, -148815.08, -281757.8, -1996.4955, -0.08000788, -0.06901568, -148785.1, 2428.3557, 0.0, 10.000564, 9.9988 
4.1503075e+2, 2.9456747e+2, -18445.148, -172564.16, 5456.45, -0.078086376, -0.13679005, -18252.209, 34979.2, 0.0, 10.000804, 9.99876 
4.150335e+2, 3.0456728e+2, 11849.425, -166473.17, 31019.762, -0.07704949, -0.011837737, 17091.318, 17091.318, 0.0, 10.000824, 9.998458 
4.150366e+2, 3.1456515e+2, 67369.61, -6644.3154, -31141.35, -0.06301488, -0.07766669, 78728.945, 78728.945, 0.000000036873733, 10.00063, 9.999649 
4.2499375e+2, 1.24574274e+2, -1761450.3, -1792797.1, 117688.234, -0.04037649, -0.09706146, -1658396.4, 60762.47, 0.000015823704, 9.99993, 9.999493 
4.2499432e+2, 1.3457385e+2, -1619184.9, -1615273.6, -112593.37, 0.11162267, -0.144364, -1504618.9, 116544.89, 0.0000041887733, 9.999964, 10.000033 
4.2499465e+2, 1.4457422e+2, -1499296.0, -1493026.5, 31882.1, 0.032947496, -0.1165481, -1464125.4, 59034.0, 0.00000021832761, 10.000062, 10.000145 
4.249973e+2, 1.5457387e+2, -1393508.0, -1390311.5, 14154.642, 0.0015644953, -0.16892134, -1377665.3, 47494.85, 0.0, 10.0001135, 10.000152 
4.2500052e+2, 1.6457368e+2, -1338336.9, -1367457.5, 8108.0947, 0.03510022, -0.17817992, -1336231.5, -9069.979, 0.0, 10.000054, 9.999663 
4.250038e+2, 1.745737e+2, -1261955.1, -1280988.5, 12258.96, 0.074321136, -0.14570929, -1255952.5, -26788.49, 0.0, 9.999911, 9.999654 
4.2500648e+2, 1.8457358e+2, -1151977.4, -1164871.8, 14485.572, 0.057899684, -0.12855276, -1142569.0, -11402.614, 0.0, 9.99994, 9.999764 
4.250087e+2, 1.945733e+2, -1020615.4, -1049238.3, 11771.258, -0.0012256298, -0.1366606, -1016396.3, 16772.24, 0.0, 10.000162, 9.999778 
4.2501116e+2, 2.0457298e+2, -939596.7, -1008266.56, -814.8761, -0.02271046, -0.12338252, -939587.0, -4414.7944, 0.0, 10.000257, 9.999341 
4.2501375e+2, 2.1457265e+2, -850330.94, -915362.56, 3485.5298, -0.007944589, -0.09434346, -850144.6, -12966.941, 0.0, 10.0002, 9.999334 
4.2501616e+2, 2.2457208e+2, -747106.25, -818219.25, 5507.066, -0.013599433, -0.081207484, -746682.25, -7497.915, 0.0, 10.00025, 9.999303 
4.2501837e+2, 2.3457131e+2, -622165.44, -706139.1, 334.7392, -0.0407617, -0.09333052, -622164.1, 19027.916, 0.0, 10.00043, 9.999313 
4.2502066e+2, 2.4457042e+2, -546260.1, -655988.56, -308.15045, -0.055156436, -0.09591335, -546259.25, -3057.968, 0.0, 10.000438, 9.9989805 
4.2502308e+2, 2.5456944e+2, -476132.97, -571937.25, 9633.036, -0.055165615, -0.095727295, -475173.97, -29961.813, 0.0, 10.000248, 9.998977 
4.250252e+2, 2.645687e+2, -360542.16, -448918.53, -3081.2231, -0.06221392, -0.073645666, -360434.84, -13214.669, 0.0, 10.0002985, 9.9991255 
4.250271e+2, 2.7456823e+2, -214402.77, -325450.5, -14994.004, -0.07724326, -0.03625158, -212413.86, 36811.004, 0.0, 10.00062, 9.999145 
4.250292e+2, 2.8456712e+2, -124710.305, -264889.16, -14757.437, -0.08463985, -0.050284017, -123173.555, 28062.402, 0.0, 10.000706, 9.998847 
4.250314e+2, 2.9456517e+2, -54931.52, -184416.52, -9290.756, -0.0818634, -0.13060732, -54268.29, -1014.1419, 0.0, 10.000528, 9.998812 
4.250343e+2, 3.045649e+2, -29896.424, -211268.13, 20317.17, -0.06844431, -0.012419474, -27648.367, -27648.367, 0.0, 10.000644, 9.998238 
4.2503744e+2, 3.1456277e+2, 145955.31, 46954.07, -44125.188, -0.062989555, -0.05087689, 162767.17, 162767.17, 0.00000007454206, 10.0011015, 9.999791 
4.349946e+2, 1.2457179e+2, -1756712.9, -1782588.6, 131638.78, 0.05093989, -0.12182511, -1637377.8, 81804.195, 0.0000113764345, 9.999929, 9.999563 
4.3499395e+2, 1.345713e+2, -1611770.4, -1601671.6, -109354.03, 0.07938752, -0.18513553, -1497250.5, 123936.19, 0.0000025044064, 9.9999695, 10.000125 
4.3499392e+2, 1.4457174e+2, -1519531.1, -1535218.5, 34612.62, -0.047133896, -0.14134486, -1491884.6, 31297.494, 0.000000047491298, 10.000063, 9.999855 
4.3499744e+2, 1.5457131e+2, -1415620.0, -1435972.0, 16524.432, 0.0031426984, -0.17108786, -1406389.6, 18796.242, 0.0, 10.000113, 9.999839 
4.3500078e+2, 1.645712e+2, -1331517.3, -1352505.5, 2604.47, 0.053806033, -0.16194415, -1331198.9, -4011.3892, 0.0, 10.0000515, 9.999767 
4.350033e+2, 1.7457145e+2, -1253118.4, -1262365.5, 7514.454, 0.03343563, -0.116037585, -1248919.0, -19732.389, 0.0, 9.99991, 9.999782 
4.35006e+2, 1.8457136e+2, -1156093.8, -1172514.1, 22008.95, 0.015517231, -0.10169663, -1140813.5, -9624.993, 0.0, 9.999936, 9.999714 
4.3500912e+2, 1.9457078e+2, -1025150.44, -1057906.1, 20514.08, 0.023837393, -0.13270856, -1015278.3, 17915.271, 0.0, 10.000159, 9.99972 
4.3501183e+2, 2.0457037e+2, -930783.25, -989033.44, -2633.61, 0.01935055, -0.1334958, -930664.44, 4533.609, 0.0, 10.000253, 9.9994755 
4.3501398e+2, 2.1457015e+2, -840865.25, -894859.2, 1908.2314, -0.0072822934, -0.1073015, -840797.94, -3596.2522, 0.0, 10.000196, 9.999476 
4.3501627e+2, 2.2456966e+2, -755634.1, -835287.75, 11585.09, -0.028451536, -0.0895527, -753983.4, -14775.726, 0.0, 10.000247, 9.999187 
4.350188e+2, 2.345689e+2, -631324.25, -724623.0, 7432.2236, -0.040456485, -0.08748007, -630735.94, 10480.118, 0.0, 10.000428, 9.999187 
4.3502116e+2, 2.445681e+2, -528697.4, -618779.3, -7198.9517, -0.049935255, -0.08696553, -528125.7, 15098.572, 0.0, 10.000435, 9.999238 
4.3502328e+2, 2.5456727e+2, -457439.34, -532372.06, 2947.7114, -0.058445625, -0.09868507, -457323.56, -12091.213, 0.0, 10.000244, 9.99925 
4.3502548e+2, 2.645665e+2, -381480.56, -491665.88, 7780.823, -0.06544993, -0.080931455, -380933.84, -33693.04, 0.0, 10.000296, 9.998834 
4.3502784e+2, 2.7456576e+2, -236709.17, -371257.28, -2925.7542, -0.06885483, -0.03711095, -236645.58, 12603.84, 0.0, 10.000617, 9.998832 
4.3503e+2, 2.845646e+2, -122410.56, -258667.14, -21211.215, -0.07152873, -0.03884311, -119184.95, 32076.42, 0.0, 10.0007, 9.998892 
4.35032e+2, 2.9456294e+2, -51665.527, -176529.05, -15232.254, -0.074739546, -0.100934885, -49834.188, 3442.9033, 0.0, 10.0005245, 9.998868 
4.35035e+2, 3.0456227e+2, -47477.895, -246531.86, 35788.113, -0.062064618, -0.009559799, -41239.05, -41239.05, 0.0, 10.000639, 9.997997 
4.3503833e+2, 3.145598e+2, 152049.95, 61651.152, -24351.432, -0.08609701, -0.06346785, 158192.33, 158192.33, 0.0000001100893, 10.001094, 9.999896 
4.4499475e+2, 1.2456901e+2, -1756254.0, -1772363.9, 115409.664, 0.07663494, -0.13399345, -1648618.5, 70590.44, 0.000008277144, 9.999892, 9.99965 
4.44994e+2, 1.345686e+2, -1603820.3, -1584760.6, -136534.02, 0.083436824, -0.20079921, -1457424.3, 163788.11, 0.0000015575915, 9.999967, 10.000243 
4.4499376e+2, 1.4456925e+2, -1544108.6, -1550605.0, 12769.37, -0.06166092, -0.1421041, -1534180.8, -10974.741, 0.000000013935479, 9.99991, 9.999823 
4.4499737e+2, 1.5456887e+2, -1490378.4, -1476265.8, 11372.457, 0.010306769, -0.16338699, -1469938.3, -44727.84, 0.0, 9.999619, 9.9998 
4.4500077e+2, 1.6456874e+2, -1377360.8, -1368885.3, 18926.137, 0.06472899, -0.15476099, -1353728.3, -26515.896, 0.0, 9.999713, 9.999819 
4.450033e+2, 1.7456895e+2, -1196563.3, -1228508.0, 19308.086, 0.025581481, -0.12048418, -1187477.3, 41733.68, 0.0, 10.000271, 9.99984 
4.45006e+2, 1.845688e+2, -1100127.4, -1156427.8, 18766.736, 0.005196587, -0.10957996, -1094445.3, 36767.902, 0.0, 10.000368, 9.999615 
4.4500926e+2, 1.9456817e+2, -1067042.6, -1089856.5, 12364.091, 0.030205617, -0.13452825, -1061627.3, -28407.893, 0.0, 9.999923, 9.999614 
4.4501203e+2, 2.0456775e+2, -984098.6, -1012040.1, -5469.131, 0.030989429, -0.132379, -983066.25, -47841.984, 0.0, 9.999875, 9.999498 
4.4501424e+2, 2.1456756e+2, -824303.2, -883588.06, -9495.404, -0.0043055555, -0.10666057, -822819.44, 14407.908, 0.0, 10.000297, 9.999505 
4.450166e+2, 2.2456704e+2, -736368.6, -827749.94, -8990.008, -0.027919533, -0.09003173, -735492.56, 3740.7317, 0.0, 10.000388, 9.999171 
4.450191e+2, 2.3456623e+2, -682384.94, -751597.7, -6296.7007, -0.03562235, -0.09164304, -681816.8, -40574.395, 0.0, 10.000088, 9.9991665 
4.4502148e+2, 2.445655e+2, -567156.25, -626117.25, -15203.605, -0.04435493, -0.08837738, -563466.75, -20216.834, 0.0, 10.000122, 9.999339 
4.4502372e+2, 2.5456488e+2, -404708.9, -494196.84, -17815.295, -0.055756822, -0.088989556, -401292.66, 43962.855, 0.0, 10.000552, 9.999364 
4.4502598e+2, 2.645641e+2, -332736.7, -474861.66, -13523.603, -0.06345932, -0.07555916, -331461.3, 15802.511, 0.0, 10.000659, 9.998773 
4.4502836e+2, 2.745631e+2, -274733.72, -397685.16, -6831.9497, -0.06488697, -0.051616378, -274355.25, -25080.252, 0.0, 10.00039, 9.998759 
4.450306e+2, 2.8456193e+2, -164656.88, -292667.3, -16521.89, -0.07005792, -0.04852124, -162558.84, -11271.13, 0.0, 10.000467, 9.998772 
4.450327e+2, 2.945604e+2, -1169.413, -164839.61, -25199.117, -0.07852012, -0.08171916, 2622.4634, 55924.973, 0.0, 10.000925, 9.998755 
4.4503587e+2, 3.045593e+2, 4441.009, -227532.27, 25513.33, -0.056831177, -0.024016218, 7213.919, 7213.919, 0.00000000000009396187, 10.00102, 9.997946 
4.4503915e+2, 3.1455687e+2, 110835.71, 64609.715, -20521.098, -0.09224884, -0.06777361, 118631.06, 118631.06, 0.00000013361628, 10.000712, 10.000099 
4.549942e+2, 1.2456589e+2, -1746607.1, -1753575.1, 130644.13, 0.029787812, -0.13712114, -1619400.5, 99839.875, 0.0000061456926, 9.999897, 9.999777 
4.5499432e+2, 1.3456576e+2, -1592840.4, -1562236.1, -131876.2, 0.12180701, -0.19365093, -1444777.3, 176463.9, 0.0000010596042, 9.999966, 10.0004 
4.5499417e+2, 1.4456671e+2, -1529777.0, -1519859.1, 3742.161, -0.013383934, -0.119904265, -1518605.6, 4625.8447, 0.000000007555667, 9.999906, 10.000036 
4.549971e+2, 1.5456651e+2, -1475003.5, -1444473.6, 1305.6885, 0.019764623, -0.14388976, -1444417.9, -19183.98, 0.0, 9.9996195, 10.000017 
4.550005e+2, 1.6456632e+2, -1376253.8, -1367086.3, 38166.758, 0.064490475, -0.15443455, -1333229.0, -5993.206, 0.0, 9.999715, 9.99983 
4.5500383e+2, 1.7456615e+2, -1196916.3, -1228861.3, 41058.055, 0.04930206, -0.15951733, -1168833.3, 60403.934, 0.0, 10.000269, 9.999839 
4.550066e+2, 1.8456586e+2, -1111501.4, -1178527.0, 3636.631, 0.024939127, -0.15365228, -1111304.6, 19935.865, 0.0, 10.000362, 9.999466 
4.55009e+2, 1.9456546e+2, -1078227.8, -1112418.3, -4008.2168, 0.015567335, -0.14243896, -1077764.1, -44517.98, 0.0, 9.999921, 9.99946 
4.550117e+2, 2.0456511e+2, -990768.1, -1025014.3, 8673.772, 0.009630651, -0.119925894, -988696.56, -53445.563, 0.0, 9.999871, 9.999412 
4.550146e+2, 2.1456484e+2, -830175.44, -895454.8, 6933.7007, -0.00039277345, -0.09210929, -829447.06, 7807.7285, 0.0, 10.000295, 9.999424 
4.5501712e+2, 2.2456427e+2, -731561.3, -817239.4, -19421.36, -0.013385143, -0.08306652, -727364.5, 11896.917, 0.0, 10.000385, 9.999245 
4.550193e+2, 2.3456332e+2, -676806.1, -739918.5, -17415.656, -0.0279332, -0.10509731, -672319.3, -31048.15, 0.0, 10.000087, 9.999248 
4.5502168e+2, 2.4456264e+2, -571091.7, -633912.94, -656.84674, -0.040357005, -0.09898932, -571084.8, -27806.586, 0.0, 10.00012, 9.999287 
4.5502433e+2, 2.545623e+2, -409266.28, -502014.5, -1556.2135, -0.049557105, -0.067583434, -409240.2, 36041.633, 0.0, 10.0005455, 9.999313 
4.5502672e+2, 2.6456153e+2, -321612.3, -450618.44, -22961.064, -0.058000755, -0.05835124, -317647.47, 29642.043, 0.0, 10.000654, 9.998942 
4.550287e+2, 2.7456024e+2, -262473.5, -372636.5, -16211.911, -0.068336695, -0.080765635, -260137.25, -10835.424, 0.0, 10.000392, 9.998931 
4.5503095e+2, 2.8455895e+2, -185399.45, -334813.4, -964.3616, -0.08298242, -0.08025975, -185393.23, -34078.063, 0.0, 10.000464, 9.998484 
4.5503345e+2, 2.9455754e+2, -22505.125, -207034.2, -8324.032, -0.0970082, -0.071903445, -22130.393, 31200.037, 0.0, 10.0009165, 9.99847 
4.5503694e+2, 3.04556e+2, 11910.707, -209313.81, 14466.964, -0.055984322, -0.054465618, 12852.762, 12852.762, 0.00000000000087855477, 10.001009, 9.9980755 
4.5503995e+2, 3.1455392e+2, 131542.25, 108190.836, -28498.758, -0.08782304, -0.075165406, 150664.28, 150664.28, 0.00000014519496, 10.0007105, 10.0004 
4.6499416e+2, 1.2456316e+2, -1719916.3, -1733427.4, 162545.69, 0.030687641, -0.13949743, -1563985.8, 155281.7, 0.000004581255, 10.000054, 9.999836 
4.649942e+2, 1.3456309e+2, -1655378.4, -1583586.4, -119663.76, 0.13707308, -0.1957206, -1494550.6, 126716.75, 0.0000007444035, 9.999497, 10.000479 
4.6499392e+2, 1.4456424e+2, -1585240.4, -1545634.6, 21559.8, -0.008101421, -0.108501285, -1536163.3, -12907.191, 0.0000000034677494, 9.999521, 10.000045 
4.6499705e+2, 1.5456407e+2, -1397584.3, -1406085.4, 2585.3413, 0.02554471, -0.12999643, -1396859.6, 28398.662, 0.0, 10.000147, 10.000027 
4.650005e+2, 1.645638e+2, -1300184.3, -1333510.4, 25731.73, 0.06974331, -0.14727126, -1286191.5, 41069.457, 0.0, 10.00025, 9.999803 
4.6500385e+2, 1.7456344e+2, -1275434.9, -1270190.5, 25244.018, 0.05227431, -0.1697492, -1247432.9, -18168.926, 0.0, 9.999744, 9.999808 
4.6500668e+2, 1.8456312e+2, -1204087.5, -1227767.6, -6447.3667, 0.027968932, -0.16270456, -1202445.9, -71178.28, 0.0, 9.999745, 9.999426 
4.650092e+2, 1.9456291e+2, -1016992.6, -1087488.3, -5145.583, 0.021034218, -0.12735547, -1016619.06, 16652.617, 0.0, 10.0003605, 9.999419 
4.650119e+2, 2.0456254e+2, -903366.56, -994115.5, 9424.377, 0.013179257, -0.10003369, -902398.2, 32878.836, 0.0, 10.00052, 9.9993105 
4.6501473e+2, 2.14562e+2, -861679.06, -922527.7, 4662.263, -0.005927959, -0.09046307, -861323.94, -24040.193, 0.0, 10.00013, 9.999317 
4.6501735e+2, 2.2456135e+2, -760685.2, -821454.8, -18616.223, -0.018966725, -0.08549296, -755435.75, -16145.024, 0.0, 10.000142, 9.999333 
4.6501967e+2, 2.3456065e+2, -590474.1, -686842.94, -15471.035, -0.022690777, -0.09387656, -588051.3, 53246.492, 0.0, 10.000631, 9.999349 
4.6502212e+2, 2.4456e+2, -500383.7, -618281.44, -5343.7466, -0.03270147, -0.08146951, -500142.0, 43162.62, 0.0, 10.000687, 9.999121 
4.6502468e+2, 2.5455943e+2, -468072.97, -551023.7, -16695.895, -0.049395934, -0.053556625, -464838.6, -19527.62, 0.0, 10.00023, 9.999129 
4.650271e+2, 2.645585e+2, -381139.1, -467663.97, -40822.85, -0.059701473, -0.0558306, -364919.22, -17599.035, 0.0, 10.000195, 9.999046 
4.6502927e+2, 2.7455717e+2, -215996.63, -336705.1, -39400.965, -0.06514605, -0.09756273, -204274.03, 45058.234, 0.0, 10.000653, 9.999051 
4.650316e+2, 2.84556e+2, -133059.52, -309193.7, -13485.132, -0.08219604, -0.08949153, -132033.05, 19310.7, 0.0, 10.000822, 9.9984865 
4.6503413e+2, 2.9455495e+2, -63723.465, -225901.88, 305.26913, -0.10481027, -0.04510724, -63722.89, -10367.283, 0.0, 10.000628, 9.998479 
4.650378e+2, 3.0455294e+2, -41006.63, -236993.58, 26456.021, -0.051085077, -0.07358485, -37498.17, -37498.17, 0.00000000000042122027, 10.000653, 9.998057 
4.6504086e+2, 3.14551e+2, 166403.39, 124133.586, -27366.447, -0.07814175, -0.07799933, 179846.03, 179846.03, 0.00000014428599, 10.000951, 10.000395 
4.7499466e+2, 1.2456077e+2, -1722530.6, -1737764.0, 153164.6, 0.07122563, -0.14227833, -1576793.5, 142496.95, 0.0000033199578, 10.000049, 9.999809 
4.749936e+2, 1.3456066e+2, -1655527.9, -1585669.5, -138528.81, 0.12359938, -0.20335734, -1477734.1, 143556.94, 0.00000048107097, 9.999503, 10.000463 
4.7499305e+2, 1.4456183e+2, -1596659.8, -1571392.6, 43745.223, -0.0518527, -0.103953004, -1538493.3, -15213.46, 0.000000000765976, 9.99953, 9.999865 
4.749972e+2, 1.5456149e+2, -1411238.4, -1433680.9, 26862.322, 0.026714709, -0.12330242, -1393347.8, 31936.352, 0.0, 10.000144, 9.999839 
4.7500086e+2, 1.6456115e+2, -1305905.5, -1344249.1, 8531.772, 0.07896893, -0.13449623, -1304092.8, 23195.174, 0.0, 10.000245, 9.999731 
4.7500336e+2, 1.7456077e+2, -1279612.0, -1279114.4, 6866.801, 0.029795542, -0.15084015, -1272491.9, -43200.406, 0.0, 9.999746, 9.999746 
4.7500622e+2, 1.8456055e+2, -1198735.8, -1216798.9, 14592.503, 0.00896835, -0.1352693, -1190606.0, -59311.742, 0.0, 9.999746, 9.9995 
4.7500983e+2, 1.9456054e+2, -1011222.4, -1075684.1, 18698.225, 0.045940403, -0.08931312, -1006191.3, 27104.727, 0.0, 10.0003605, 9.9995 
4.750127e+2, 2.0456004e+2, -913419.44, -1013331.4, -3828.6245, 0.0404109, -0.073252656, -913272.94, 22029.506, 0.0, 10.000513, 9.999183 
4.7501472e+2, 2.1455897e+2, -871399.1, -942507.75, -9850.992, -0.023064597, -0.10178099, -870059.6, -32745.361, 0.0, 10.000129, 9.999181 
4.7501722e+2, 2.2455831e+2, -753637.44, -806240.8, -2179.0046, -0.04738099, -0.097037934, -753547.3, -14225.935, 0.0, 10.000139, 9.999439 
4.7502032e+2, 2.3455818e+2, -582170.25, -668783.4, 3315.3635, -0.021853935, -0.05916648, -582043.56, 59278.94, 0.0, 10.0006275, 9.999475 
4.750229e+2, 2.4455757e+2, -521097.53, -660726.4, -21441.154, -0.02347533, -0.037356522, -517879.25, 25450.025, 0.0, 10.000684, 9.998831 
4.7502485e+2, 2.5455633e+2, -489887.06, -596849.25, -33629.88, -0.057600554, -0.04657783, -480192.25, -34849.152, 0.0, 10.000232, 9.998815 
4.750272e+2, 2.6455507e+2, -378713.28, -462555.97, -25325.89, -0.070343144, -0.06685585, -371657.06, -24301.27, 0.0, 10.000195, 9.999082 
4.7503e+2, 2.7455384e+2, -212860.3, -328177.66, -21829.65, -0.058608245, -0.10139574, -208866.25, 40500.09, 0.0, 10.000645, 9.999114 
4.7503254e+2, 2.8455305e+2, -113624.984, -267062.84, -19993.252, -0.07044167, -0.07583425, -111062.62, 40310.95, 0.0, 10.000814, 9.99878 
4.7503477e+2, 2.945526e+2, -41581.066, -180293.58, -6414.8213, -0.105759636, -0.003932592, -41285.043, 12093.344, 0.0, 10.00063, 9.998792 
4.750385e+2, 3.045501e+2, -53614.61, -261947.52, 35731.367, -0.045224983, -0.08448184, -47656.676, -47656.676, 0.0, 10.0006485, 9.997888 
4.750419e+2, 3.1454802e+2, 144400.36, 81721.375, -9556.568, -0.07123184, -0.08569805, 145825.05, 145825.05, 0.00000012581201, 10.000938, 10.000109 
4.849946e+2, 1.24558404e+2, -1781253.4, -1779390.9, 149317.2, 0.07840872, -0.13025789, -1631002.0, 88311.945, 0.0000022837717, 9.999706, 9.999687 
4.8499352e+2, 1.3455816e+2, -1583406.8, -1565175.4, -162201.78, 0.13992465, -0.19220017, -1411833.3, 209483.08, 0.0000002759338, 10.000058, 10.000337 
4.8499286e+2, 1.4455922e+2, -1517588.1, -1541842.6, 27520.037, -0.051779304, -0.09287572, -1499641.8, 23664.412, 0.000000000009128432, 10.00011, 9.999787 
4.849971e+2, 1.5455864e+2, -1486695.6, -1479128.5, 16163.687, 0.026784148, -0.12906896, -1466311.4, -40998.707, 0.0, 9.999663, 9.99976 
4.8500085e+2, 1.6455826e+2, -1386513.4, -1390310.8, 4187.0415, 0.07960744, -0.13709608, -1383814.6, -56497.57, 0.0, 9.999723, 9.999667 
4.8500347e+2, 1.7455809e+2, -1184396.6, -1240063.6, 2093.5825, 0.033198822, -0.12568355, -1184318.0, 45001.05, 0.0, 10.000429, 9.999685 
4.8500645e+2, 1.8455786e+2, -1075208.9, -1161098.6, 5571.887, 0.01204464, -0.104907684, -1074848.9, 56473.12, 0.0, 10.000609, 9.999468 
4.8501e+2, 1.9455764e+2, -1045264.56, -1095592.6, 263.8935, 0.041386154, -0.07864482, -1045263.2, -11937.297, 0.0, 10.000141, 9.99947 
4.8501295e+2, 2.0455708e+2, -968559.25, -1030121.44, -19327.025, 0.032350462, -0.06909176, -962994.6, -27662.244, 0.0, 10.000092, 9.999271 
4.8501498e+2, 2.145562e+2, -805603.6, -899926.1, -8076.6533, -0.028910197, -0.08815835, -804917.0, 32424.938, 0.0, 10.000534, 9.999279 
4.8501754e+2, 2.2455557e+2, -694768.06, -791670.5, 2015.2332, -0.04849952, -0.080306366, -694726.2, 44622.71, 0.0, 10.000604, 9.999315 
4.850208e+2, 2.3455527e+2, -649563.0, -716723.44, -13107.523, -0.01751275, -0.04729684, -647095.5, -5743.104, 0.0, 10.000231, 9.999336 
4.8502344e+2, 2.4455456e+2, -581090.06, -681294.25, -36556.035, -0.015697287, -0.0286092, -569171.5, -25811.63, 0.0, 10.000235, 9.998906 
4.8502538e+2, 2.5455338e+2, -417690.88, -552115.56, -19938.094, -0.04910845, -0.03970489, -414795.97, 30576.344, 0.0, 10.000686, 9.998902 
4.8502776e+2, 2.6455212e+2, -297983.53, -436389.0, 2282.598, -0.062628604, -0.058255542, -297945.88, 49439.0, 0.0, 10.000805, 9.998967 
4.8503065e+2, 2.7455088e+2, -240292.77, -355758.63, -7928.562, -0.053143602, -0.08625796, -239750.89, 9645.852, 0.0, 10.000519, 9.998986 
4.850332e+2, 2.8455004e+2, -156124.92, -279171.3, -21749.66, -0.06865141, -0.05765176, -152393.61, -989.69507, 0.0, 10.000486, 9.998856 
4.850354e+2, 2.9454964e+2, -16624.307, -157841.2, -26639.076, -0.10866767, 0.01221752, -11766.251, 41640.94, 0.0, 10.000756, 9.998885 
4.850393e+2, 3.0454686e+2, -21344.62, -241325.05, 16608.754, -0.040677525, -0.10796497, -20097.709, -20097.709, 0.0, 10.000849, 9.997933 
4.8504272e+2, 3.145452e+2, 98161.47, 39855.348, -7654.4575, -0.069460556, -0.06561202, 99149.61, 99149.61, 0.00000009052117, 10.000706, 9.999933 
4.9499393e+2, 1.2455601e+2, -1796663.5, -1811370.4, 171684.06, 0.04088316, -0.10365856, -1632175.5, 87163.02, 0.0000015131136, 9.999707, 9.999468 
4.9499404e+2, 1.3455552e+2, -1600318.9, -1599691.9, -146963.45, 0.18498729, -0.16419084, -1453041.6, 168302.13, 0.00000014199817, 10.000055, 10.000102 
4.949934e+2, 1.4455637e+2, -1516560.4, -1539246.0, 13217.19, -0.010385573, -0.07587241, -1510486.1, 12849.447, 0.0, 10.000107, 9.999807 
4.949967e+2, 1.545555e+2, -1484172.9, -1474672.5, -212.168, 0.019548621, -0.14476182, -1474667.8, -49323.73, 0.0, 9.999667, 9.999788 
4.9500042e+2, 1.6455513e+2, -1389417.6, -1398011.0, 27874.393, 0.06479848, -0.15090756, -1365510.8, -38162.61, 0.0, 9.99973, 9.999611 
4.950042e+2, 1.7455535e+2, -1188545.8, -1248884.6, 29428.912, 0.062023453, -0.09463262, -1176569.6, 52777.39, 0.0, 10.00043, 9.999624 
4.950073e+2, 1.8455504e+2, -1086029.5, -1182040.4, -10140.263, 0.035942614, -0.07185548, -1084970.3, 46380.832, 0.0, 10.000603, 9.999328 
4.950098e+2, 1.9455417e+2, -1055094.4, -1116276.9, -16935.783, 0.004672344, -0.09598306, -1050719.4, -17357.998, 0.0, 10.000142, 9.999328 
4.9501255e+2, 2.0455368e+2, -947130.6, -984911.25, -4580.129, -0.014681674, -0.087888904, -946583.3, -11216.391, 0.0, 10.000088, 9.999583 
4.9501553e+2, 2.145537e+2, -782299.44, -851198.44, 9316.237, -0.024971658, -0.050930917, -781062.0, 56304.766, 0.0, 10.000531, 9.999616 
4.950184e+2, 2.2455312e+2, -721260.94, -845656.25, -11095.036, -0.025032697, -0.037012085, -720279.06, 19094.203, 0.0, 10.000599, 9.998947 
4.9502108e+2, 2.3455188e+2, -677754.44, -775686.8, -26971.78, -0.010688214, -0.05696408, -670817.44, -29430.025, 0.0, 10.000232, 9.998932 
4.9502376e+2, 2.4455105e+2, -550734.0, -618052.0, -21309.213, -0.0105991885, -0.053366855, -544555.75, -1159.4674, 0.0, 10.000234, 9.999341 
4.9502632e+2, 2.5455064e+2, -384370.7, -482034.13, -2580.754, -0.02669153, -0.033057805, -384302.53, 61096.27, 0.0, 10.000682, 9.999385 
4.950288e+2, 2.645497e+2, -317216.22, -475574.3, -7744.3545, -0.039664578, -0.031324342, -316838.4, 30569.355, 0.0, 10.000802, 9.9987 
4.9503115e+2, 2.7454823e+2, -261769.27, -400489.06, -18280.693, -0.051337175, -0.053734846, -259400.66, -9976.977, 0.0, 10.00052, 9.998678 
4.9503356e+2, 2.8454706e+2, -167305.03, -301684.34, -12893.307, -0.0785114, -0.035418272, -166079.14, -14644.2705, 0.0, 10.0004835, 9.998702 
4.950361e+2, 2.9454625e+2, -26067.916, -175955.6, -15588.135, -0.11638934, 0.005858577, -24463.934, 28977.906, 0.0, 10.00075, 9.998764 
4.9504015e+2, 3.0454326e+2, -5345.456, -205855.39, 11688.584, -0.0399991, -0.14158495, -4666.3784, -4666.3784, 0.0, 10.000839, 9.998181 
4.9504334e+2, 3.1454256e+2, 93695.56, 32769.586, -5998.6187, -0.080042325, -0.02577422, 94280.555, 94280.555, 0.000000050936965, 10.000697, 9.999888 
5.049938e+2, 1.24553174e+2, -1776613.5, -1800213.3, 146413.83, 0.04924657, -0.06870944, -1641524.8, 77843.11, 0.0000009949754, 9.999842, 9.999478 
5.0499415e+2, 1.3455233e+2, -1646078.4, -1622648.3, -164059.23, 0.20461524, -0.16537745, -1469886.4, 151489.9, 0.000000065122016, 9.9997425, 10.000096 
5.0499344e+2, 1.445531e+2, -1542762.9, -1552940.8, 1573.0519, -0.0055603664, -0.08316606, -1542525.4, -19156.805, 0.0, 9.999931, 9.999798 
5.049967e+2, 1.5455243e+2, -1375633.1, -1423716.0, -18122.602, 0.019570742, -0.13056521, -1369567.8, 55807.355, 0.0, 10.000418, 9.999776 
5.0500053e+2, 1.6455211e+2, -1280044.9, -1350408.1, 13994.265, 0.06330236, -0.1296913, -1277363.8, 50015.133, 0.0, 10.000502, 9.999566 
5.0500447e+2, 1.7455219e+2, -1243335.5, -1280545.0, 15946.668, 0.06448141, -0.081661515, -1237436.5, -8057.4185, 0.0, 10.000075, 9.999578 
5.050076e+2, 1.845518e+2, -1175038.4, -1222184.6, -23341.57, 0.041118946, -0.066204466, -1165437.4, -34053.43, 0.0, 9.999979, 9.999352 
5.0501007e+2, 1.945509e+2, -1030183.25, -1101003.3, -18288.184, 0.009083635, -0.095369875, -1025739.44, 7654.6113, 0.0, 10.000299, 9.999357 
5.050128e+2, 2.0455045e+2, -904459.8, -966360.44, -3379.6162, -0.012133851, -0.08496958, -904275.8, 31123.463, 0.0, 10.000388, 9.999567 
5.0501585e+2, 2.1455055e+2, -832687.7, -877393.44, -16951.727, -0.027940968, -0.03749727, -826986.9, 10411.805, 0.0, 10.000194, 9.999598 
5.050188e+2, 2.2455001e+2, -762009.0, -857509.4, -37796.24, -0.032653704, -0.022871533, -748860.6, -9455.683, 0.0, 10.000285, 9.999018 
5.0502145e+2, 2.3454872e+2, -602463.06, -730938.1, -18583.012, -0.021905757, -0.054193873, -599829.1, 41589.957, 0.0, 10.000713, 9.999007 
5.050242e+2, 2.445479e+2, -461729.06, -572307.75, -5616.769, -0.01791569, -0.054442074, -461444.5, 81982.984, 0.0, 10.0008335, 9.999366 
5.05027e+2, 2.5454757e+2, -395954.88, -485342.72, -21338.066, -0.021677798, -0.029248526, -391122.44, 54306.695, 0.0, 10.000592, 9.999406 
5.0502956e+2, 2.645467e+2, -354161.8, -491397.16, -39648.58, -0.030147811, -0.024551844, -343530.53, 3907.0154, 0.0, 10.000541, 9.998716 
5.050318e+2, 2.745452e+2, -232831.97, -385113.84, -28324.633, -0.047766004, -0.047650147, -227734.2, 21719.406, 0.0, 10.000712, 9.998691 
5.0503427e+2, 2.8454402e+2, -124389.25, -293437.25, -1060.7473, -0.07627434, -0.029540332, -124382.59, 27082.824, 0.0, 10.000832, 9.99859 
5.05037e+2, 2.945431e+2, -17214.336, -183462.06, -2148.5425, -0.1076963, 0.015572393, -17186.574, 36286.61, 0.0, 10.000863, 9.998658 
5.0504106e+2, 3.0454004e+2, 1551.2719, -176378.03, 14313.663, -0.02900869, -0.14388913, 2695.3887, 2695.3887, 0.0, 10.000775, 9.998415 
5.0504386e+2, 3.145398e+2, 62606.77, 3345.0996, -2350.586, -0.0888595, -0.007869467, 62699.86, 62699.86, 0.000000020855737, 10.000546, 9.999759 
5.149941e+2, 1.2454984e+2, -1760452.0, -1765318.9, 148652.48, 0.09422469, -0.02862848, -1614213.0, 105189.74, 0.00000067894854, 9.999835, 9.999721 
5.149938e+2, 1.3454857e+2, -1628982.1, -1588522.1, -166425.84, 0.19315997, -0.19151813, -1441101.3, 180312.47, 0.000000029496794, 9.999747, 10.000329 
5.1499295e+2, 1.4454944e+2, -1545473.8, -1560444.5, 18344.064, -0.04565743, -0.10902859, -1533146.6, -9741.824, 0.0, 9.999939, 9.999743 
5.149972e+2, 1.545494e+2, -1379864.6, -1432607.8, 634.962, 0.024487106, -0.08702973, -1379857.0, 45549.176, 0.0, 10.000418, 9.999715 
5.150012e+2, 1.6454914e+2, -1281962.9, -1353883.3, -1063.8536, 0.07306296, -0.07379158, -1281947.1, 45462.31, 0.0, 10.000499, 9.999544 
5.150043e+2, 1.7454861e+2, -1244310.0, -1283409.5, 225.63695, 0.036974087, -0.08737286, -1244308.8, -14893.208, 0.0, 10.000079, 9.9995575 
5.1500744e+2, 1.8454814e+2, -1161644.1, -1195003.0, -13177.293, 0.022050492, -0.08718123, -1157066.9, -25646.34, 0.0, 9.999982, 9.999538 
5.150108e+2, 1.9454783e+2, -1016434.0, -1072489.5, -5795.261, 0.053090226, -0.077061765, -1015841.1, 17582.97, 0.0, 10.000298, 9.999554 
5.150137e+2, 2.0454738e+2, -929836.5, -1017309.44, -10289.727, 0.03771769, -0.060939737, -928642.4, 6787.341, 0.0, 10.000381, 9.999221 
5.1501596e+2, 2.1454677e+2, -858853.1, -931868.4, -23887.5, -0.03923162, -0.04749823, -851732.56, -14294.873, 0.0, 10.000194, 9.999225 
5.1501864e+2, 2.2454622e+2, -726739.1, -783592.6, -23049.975, -0.07345242, -0.03792669, -718568.3, 20875.523, 0.0, 10.000282, 9.999526 
5.1502186e+2, 2.3454578e+2, -563945.9, -650577.8, -1919.666, -0.053191915, -0.04028948, -563903.4, 77544.18, 0.0, 10.0007105, 9.99956 
5.150248e+2, 2.4454512e+2, -489445.1, -629117.44, -14263.388, -0.040691808, -0.034239404, -488003.4, 55450.426, 0.0, 10.000831, 9.998978 
5.1502746e+2, 2.5454417e+2, -426688.25, -548866.1, -30208.533, -0.035590004, -0.02827049, -419627.25, 25836.01, 0.0, 10.000591, 9.998971 
5.1503e+2, 2.6454306e+2, -334353.3, -449759.56, -33964.746, -0.034983914, -0.03665721, -325099.3, 22374.842, 0.0, 10.000538, 9.999004 
5.150326e+2, 2.745418e+2, -210365.16, -337966.16, -21101.125, -0.044737805, -0.06672472, -206966.23, 42520.27, 0.0, 10.00071, 9.999016 
5.150352e+2, 2.8454083e+2, -130953.35, -305301.5, 82.05736, -0.06550271, -0.03985499, -130953.31, 20542.404, 0.0, 10.000825, 9.998512 
5.150381e+2, 2.9454017e+2, -24545.318, -196676.44, -236.93092, -0.08731195, 0.038562868, -24544.992, 28956.678, 0.0, 10.0008545, 9.99857 
5.15042e+2, 3.0453724e+2, 15208.009, -146134.05, 5142.679, -0.011135481, -0.117579564, 15371.763, 15371.763, 0.0, 10.000767, 9.998627 
5.1504433e+2, 3.1453687e+2, 48837.625, -24276.465, -3550.3472, -0.09998796, -0.011209734, 49009.625, 49009.625, 0.0000000053166334, 10.000543, 9.999571 
5.2499413e+2, 1.2454603e+2, -1731724.5, -1741825.8, 158275.56, 0.11074817, -0.040269725, -1578419.0, 141022.11, 0.0000005002885, 9.999994, 9.999804 
5.2499366e+2, 1.3454513e+2, -1583477.4, -1561039.6, -179487.73, 0.19437921, -0.16935982, -1392420.5, 229027.98, 0.000000016983103, 10.000035, 10.00038 
5.249929e+2, 1.4454612e+2, -1526818.4, -1550570.5, 9219.026, -0.060248427, -0.07755283, -1523660.1, -221.62753, 0.0, 10.000064, 9.99975 
5.249974e+2, 1.5454595e+2, -1449893.0, -1465778.6, -4929.691, 0.02942763, -0.07063846, -1448487.6, -23046.197, 0.0, 9.999935, 9.99972 
5.2500147e+2, 1.6454564e+2, -1358046.0, -1385497.5, -10256.648, 0.08138704, -0.065980025, -1354637.1, -27191.895, 0.0, 9.999954, 9.99959 
5.250044e+2, 1.7454514e+2, -1224595.6, -1269110.4, -6004.208, 0.034119386, -0.079596326, -1223800.0, 5650.672, 0.0, 10.000192, 9.999602 
5.250075e+2, 1.8454473e+2, -1114185.3, -1170323.5, -14277.801, 0.016357722, -0.07671768, -1110762.6, 20692.547, 0.0, 10.000299, 9.999556 
5.2501106e+2, 1.945445e+2, -1024941.94, -1074350.4, -21060.291, 0.050537273, -0.060031913, -1017183.4, 16274.558, 0.0, 10.000231, 9.999573 
5.2501404e+2, 2.0454402e+2, -951341.7, -1031765.1, -25926.857, 0.03857991, -0.045914583, -943708.0, -8244.224, 0.0, 10.000251, 9.999184 
5.250163e+2, 2.1454325e+2, -834909.56, -924589.25, -15718.37, -0.034247868, -0.043203868, -832234.4, 5238.803, 0.0, 10.000377, 9.999186 
5.2501905e+2, 2.245427e+2, -706912.4, -770205.75, -10987.813, -0.06866226, -0.033409845, -705059.1, 34420.168, 0.0, 10.0004015, 9.999561 
5.250223e+2, 2.3454241e+2, -619750.0, -672820.1, -28793.617, -0.05495501, -0.024613563, -607129.2, 34352.234, 0.0, 10.000309, 9.999601 
5.250253e+2, 2.4454178e+2, -553846.8, -655833.8, -51116.043, -0.046140727, -0.019290492, -532637.94, 10849.437, 0.0, 10.00037, 9.999016 
5.2502793e+2, 2.5454074e+2, -421684.28, -542066.6, -33293.24, -0.041976605, -0.027117865, -413090.16, 32407.53, 0.0, 10.0006075, 9.999009 
5.250306e+2, 2.6453963e+2, -312632.75, -435600.2, -26748.28, -0.036334574, -0.039181463, -307066.34, 40442.086, 0.0, 10.00067, 9.999037 
5.2503324e+2, 2.7453846e+2, -236034.53, -346045.47, -35614.082, -0.033377584, -0.06366841, -225511.66, 24007.953, 0.0, 10.000516, 9.999053 
5.25036e+2, 2.845375e+2, -169945.31, -311344.63, -14753.237, -0.057022456, -0.04225431, -168422.4, -16894.105, 0.0, 10.000503, 9.998626 
5.250387e+2, 2.9453683e+2, -45773.543, -194532.03, -825.7036, -0.10105278, 0.02331497, -45768.96, 7765.103, 0.0, 10.000655, 9.998682 
5.2504265e+2, 3.0453414e+2, 19346.068, -129791.38, 1844.031, -0.020031463, -0.11870027, 19368.865, 19368.865, 0.0, 10.000732, 9.998755 
5.2504516e+2, 3.1453395e+2, 53921.41, -48573.387, -8641.248, -0.07723976, -0.011807828, 54644.84, 54644.84, 0.00000000056215, 10.00069, 9.999334 
5.349939e+2, 1.2454175e+2, -1738174.6, -1757343.8, 162992.56, 0.08461065, -0.10091747, -1584485.1, 134997.52, 0.00000041209, 10.000003, 9.999693 
5.349938e+2, 1.3454199e+2, -1593608.9, -1583516.6, -176791.61, 0.20513009, -0.099970214, -1411699.1, 209781.39, 0.000000018082496, 10.000039, 10.000224 
5.34993e+2, 1.4454314e+2, -1521491.6, -1538953.6, 4568.325, -0.05258217, 0.010509218, -1520368.8, 3100.9385, 0.0, 10.000061, 9.999832 
5.349974e+2, 1.5454207e+2, -1443600.8, -1453050.3, -9868.823, 0.030693999, -0.08095007, -1437384.0, -11903.34, 0.0, 9.999937, 9.999806 
5.350014e+2, 1.6454157e+2, -1350635.1, -1370949.4, -2937.0266, 0.08270954, -0.10413106, -1350219.0, -22733.05, 0.0, 9.999957, 9.999689 
5.3500473e+2, 1.7454176e+2, -1217101.9, -1254005.1, 3469.19, 0.053552233, -0.05813754, -1216778.6, 12706.086, 0.0, 10.000193, 9.999705 
5.350079e+2, 1.8454155e+2, -1124952.9, -1191969.8, -16777.82, 0.021196738, -0.03499112, -1120987.3, 10500.519, 0.0, 10.000296, 9.999408 
5.3501076e+2, 1.9454087e+2, -1036260.9, -1098012.9, -23487.166, -0.0004809001, -0.045632597, -1028342.9, 5152.7163, 0.0, 10.000231, 9.999412 
5.350138e+2, 2.0454034e+2, -932855.8, -992455.1, -21848.285, -0.012162096, -0.040647987, -925704.56, 9797.046, 0.0, 10.000247, 9.999455 
5.3501683e+2, 2.1454e+2, -814970.06, -882609.75, -10510.605, -0.015359761, -0.025370179, -813374.44, 24130.867, 0.0, 10.000374, 9.9994755 
5.350199e+2, 2.2453944e+2, -737985.1, -833954.3, -14741.796, -0.021388555, -0.010925221, -735771.7, 3739.8516, 0.0, 10.000399, 9.9991255 
5.35023e+2, 2.3453863e+2, -652658.75, -741662.6, -31901.105, -0.028946998, -0.007097808, -642405.75, -884.97235, 0.0, 10.00031, 9.999129 
5.3502584e+2, 2.445379e+2, -521870.4, -588960.4, -42706.277, -0.036430966, -0.009732916, -501109.84, 42418.156, 0.0, 10.000367, 9.999476 
5.350286e+2, 2.5453725e+2, -386729.4, -469268.4, -23800.734, -0.04336083, -0.026441874, -380358.1, 65174.445, 0.0, 10.000606, 9.999511 
5.350313e+2, 2.6453635e+2, -328655.06, -467966.66, -32234.95, -0.03698135, -0.03386778, -321557.88, 25982.826, 0.0, 10.000667, 9.9988165 
5.35034e+2, 2.7453512e+2, -254034.53, -382632.38, -41058.51, -0.016938694, -0.039902013, -242043.53, 7509.6455, 0.0, 10.000512, 9.998803 
5.350365e+2, 2.8453404e+2, -149426.89, -267584.56, -9911.364, -0.05362573, -0.036885124, -148601.27, 2962.0347, 0.0, 10.000497, 9.998929 
5.350388e+2, 2.9453307e+2, -23682.656, -148093.13, 6010.281, -0.14970554, -0.02813351, -23392.975, 30177.246, 0.0, 10.000652, 9.999002 
5.35043e+2, 3.0453083e+2, 20801.953, -124958.99, 197.06622, -0.05772832, -0.14685258, 20802.219, 20802.219, 0.0, 10.000725, 9.998793 
5.3504634e+2, 3.145309e+2, 32961.64, -89356.12, -2297.9253, -0.030109312, -0.010412072, 33004.793, 33004.793, 0.0000000000003731001, 10.00068, 9.999058 
5.449939e+2, 1.2453801e+2, -1693632.0, -1741725.0, 172196.47, 0.06822488, -0.1187766, -1543811.1, 175707.72, 0.00000036785775, 10.000334, 9.99964 
5.4499394e+2, 1.3453843e+2, -1590665.6, -1593735.1, -167212.39, 0.21005343, -0.08994507, -1424980.9, 196534.88, 0.000000024396927, 10.000109, 10.000121 
5.4499304e+2, 1.4453952e+2, -1534325.0, -1549378.4, 14130.948, -0.051244892, 0.024465336, -1525841.3, -2335.5015, 0.0, 9.999992, 9.999792 
5.449974e+2, 1.545383e+2, -1437964.4, -1454772.5, -13284.902, 0.03110045, -0.0788372, -1430648.5, -5130.03, 0.0, 9.999994, 9.999766 
5.450013e+2, 1.645378e+2, -1335180.4, -1355273.0, -4074.885, 0.07794575, -0.10365608, -1334385.4, -6861.399, 0.0, 10.00003, 9.999761 
5.4500484e+2, 1.7453818e+2, -1229225.4, -1250225.8, 415.15723, 0.044109628, -0.046457257, -1229217.1, 303.67883, 0.0, 10.000072, 9.999788 
5.4500794e+2, 1.8453808e+2, -1147369.5, -1199049.6, -18258.219, 0.010756754, -0.016757395, -1141569.9, -10047.129, 0.0, 10.000127, 9.99944 
5.4501086e+2, 1.9453746e+2, -1037192.94, -1095213.9, -12018.356, -0.010269353, -0.026134267, -1034802.0, -1271.6226, 0.0, 10.000211, 9.99944 
5.4501396e+2, 2.0453697e+2, -923674.9, -981257.7, -6961.9727, -0.018338155, -0.022232275, -922845.1, 12690.925, 0.0, 10.00028, 9.9995165 
5.450172e+2, 2.1453664e+2, -816819.06, -876109.5, -13230.334, -0.014093791, -0.011829905, -814000.75, 23538.375, 0.0, 10.00033, 9.999541 
5.450204e+2, 2.2453605e+2, -750467.7, -847362.06, -17436.766, -0.011632349, -0.0019163622, -747425.4, -7879.716, 0.0, 10.000345, 9.999059 
5.4502344e+2, 2.3453513e+2, -656117.6, -751173.75, -5934.4414, -0.009729812, -0.0020979973, -655748.56, -14192.42, 0.0, 10.00032, 9.999058 
5.450263e+2, 2.4453437e+2, -534634.94, -594361.06, -11516.436, -0.017172297, -0.001825172, -532491.25, 11072.407, 0.0, 10.0002775, 9.999481 
5.4502904e+2, 2.5453386e+2, -443521.25, -495332.38, -29544.371, -0.035483018, -0.007283823, -430133.44, 15434.06, 0.0, 10.000212, 9.99952 
5.450318e+2, 2.6453304e+2, -371164.3, -477227.2, -44875.035, -0.03654441, -0.0121454615, -354725.6, -7150.8613, 0.0, 10.000327, 9.998917 
5.450345e+2, 2.745318e+2, -226745.13, -358086.38, -28507.799, -0.01919569, -0.02834156, -220824.36, 28761.887, 0.0, 10.00065, 9.998906 
5.450371e+2, 2.8453064e+2, -120323.71, -259077.38, -481.5899, -0.051899876, -0.034860928, -120322.04, 31274.75, 0.0, 10.000721, 9.998879 
5.4503953e+2, 2.9452965e+2, -53102.09, -168396.69, -13968.315, -0.13626568, -0.02821292, -51433.92, 2171.1118, 0.0, 10.000478, 9.998946 
5.4504377e+2, 3.045277e+2, 7556.652, -108205.8, -19214.646, -0.048260063, -0.11753537, 10662.629, 10662.629, 0.0, 10.000534, 9.998999 
5.4504704e+2, 3.1452748e+2, 71727.49, -69541.56, -1487.4275, -0.039380897, -0.0372316, 71743.15, 71743.15, 0.000000000015387011, 10.00094, 9.999068 
5.5499417e+2, 1.2453473e+2, -1691011.8, -1736379.8, 164699.0, 0.056168124, -0.09686394, -1547441.9, 172108.17, 0.0000003291145, 10.000335, 9.999677 
5.5499405e+2, 1.3453443e+2, -1591249.3, -1596407.0, -175199.66, 0.2060811, -0.13826738, -1418609.5, 202944.31, 0.000000025104656, 10.000114, 10.0001 
5.549929e+2, 1.4453533e+2, -1546579.0, -1576104.4, 13316.641, -0.061649695, -0.034448102, -1541460.3, -17913.979, 0.0, 9.999996, 9.999608 
5.549973e+2, 1.5453465e+2, -1450562.9, -1481585.0, -12681.795, 0.027558476, -0.06416209, -1446038.4, -20483.697, 0.0, 9.999996, 9.999583 
5.5500126e+2, 1.6453432e+2, -1331951.8, -1347529.5, -3222.522, 0.06417166, -0.06493136, -1331311.5, -3752.3057, 0.0, 10.000025, 9.999816 
5.550045e+2, 1.745344e+2, -1224924.4, -1240977.5, 2078.6863, 0.0037985332, -0.04494381, -1224659.5, 4899.59, 0.0, 10.000071, 9.999852 
5.550078e+2, 1.8453436e+2, -1133142.8, -1169153.1, -15630.7, -0.01769172, -0.022294836, -1127304.5, 4255.766, 0.0, 10.000125, 9.999647 
5.550114e+2, 1.9453426e+2, -1022504.06, -1064346.0, -8485.639, 0.019313939, -0.0017628043, -1020848.6, 12713.774, 0.0, 10.000209, 9.999654 
5.550146e+2, 2.0453387e+2, -934241.1, -1002197.25, -5463.298, 0.017821021, 0.008408496, -933804.75, 1762.3582, 0.0, 10.000277, 9.999374 
5.550174e+2, 2.1453315e+2, -828590.56, -899824.0, -11025.448, -0.032680012, -0.0029404443, -826923.06, 10651.634, 0.0, 10.000326, 9.999381 
5.5502045e+2, 2.2453249e+2, -729880.94, -803729.06, -18587.955, -0.041301563, -0.0067523546, -725466.2, 14115.4375, 0.0, 10.000341, 9.99936 
5.5502385e+2, 2.3453186e+2, -633812.4, -704608.1, -6652.518, 0.0011109472, -0.009776539, -633192.7, 8394.887, 0.0, 10.0003195, 9.999378 
5.550268e+2, 2.4453118e+2, -565932.2, -658930.7, -14367.405, 0.009997159, 0.0035110102, -563763.1, -20168.523, 0.0, 10.000276, 9.999039 
5.550294e+2, 2.5453052e+2, -476915.56, -564616.56, -31555.988, -0.020556832, 0.02975888, -466741.56, -21138.873, 0.0, 10.000212, 9.999044 
5.5503213e+2, 2.6452968e+2, -342441.63, -417108.06, -33518.723, -0.037456214, 0.02557629, -329602.4, 18008.225, 0.0, 10.000324, 9.9993305 
5.55035e+2, 2.745285e+2, -195700.77, -293383.47, -15842.574, -0.041672464, -0.029527305, -193195.6, 56423.383, 0.0, 10.000649, 9.9993515 
5.550378e+2, 2.8452733e+2, -149622.06, -318541.63, -9126.983, -0.053779278, -0.037109762, -149130.34, 2498.645, 0.0, 10.000715, 9.998474 
5.550407e+2, 2.9452643e+2, -85252.63, -233279.1, -22762.344, -0.06613466, 0.022356385, -81831.484, -28192.725, 0.0, 10.000469, 9.998505 
5.550448e+2, 3.0452484e+2, 33428.305, -52265.19, -5844.3286, 0.0032612022, -0.030695379, 33825.055, 33825.055, 0.0, 10.0005245, 9.999388 
5.550473e+2, 3.1452367e+2, 92952.98, -23532.625, 20597.67, -0.10834727, -0.08633389, 96487.9, 96487.9, 0.0000000020600701, 10.000932, 9.999389 
5.649943e+2, 1.2453121e+2, -1727754.0, -1756058.5, 158906.95, 0.05186158, -0.086641125, -1582370.4, 137214.52, 0.00000027083397, 10.000094, 9.999655 
5.6499416e+2, 1.3453065e+2, -1571942.4, -1597106.1, -190541.9, 0.19952595, -0.14719184, -1393567.4, 228024.17, 0.000000017878008, 10.000289, 10.000011 
5.649929e+2, 1.4453144e+2, -1491105.6, -1541897.5, 3299.502, -0.07836294, -0.05019361, -1490892.3, 32692.785, 0.0, 10.000345, 9.999674 
5.6499726e+2, 1.5453112e+2, -1413502.6, -1454735.8, -3184.3784, 0.013264011, -0.050729286, -1413258.1, 12331.382, 0.0, 10.000214, 9.9996605 
5.6500113e+2, 1.6453092e+2, -1333565.6, -1357206.0, 12218.844, 0.05242828, -0.04184136, -1328385.3, -792.1265, 0.0, 10.000054, 9.999735 
5.650044e+2, 1.7453076e+2, -1261405.8, -1269121.9, 3785.884, 0.00007259019, -0.034662027, -1259858.5, -30262.633, 0.0, 9.999866, 9.999758 
5.650078e+2, 1.8453066e+2, -1166212.1, -1173229.9, -15721.6, -0.014475434, -0.01965241, -1153612.6, -22014.756, 0.0, 9.999846, 9.999753 
5.650116e+2, 1.9453064e+2, -1039962.7, -1059277.9, -16116.334, 0.025299843, -0.00095948647, -1030831.8, 2766.6482, 0.0, 10.000031, 9.999773 
5.650149e+2, 2.0453033e+2, -955221.3, -1013254.7, -15054.031, 0.024224926, 0.012069102, -951548.6, -15946.437, 0.0, 10.000136, 9.999366 
5.6501764e+2, 2.1452971e+2, -855132.3, -913992.0, -10689.383, -0.02809268, 0.009378232, -853251.2, -15641.586, 0.0, 10.000151, 9.999368 
5.650207e+2, 2.245291e+2, -746094.2, -799436.6, -19172.21, -0.03938459, 0.0072397734, -739918.4, -302.4678, 0.0, 10.000178, 9.999468 
5.6502414e+2, 2.345285e+2, -639488.8, -694572.25, -23384.033, -0.00052511063, -0.002428124, -630900.75, 10720.158, 0.0, 10.000225, 9.999493 
5.650272e+2, 2.4452783e+2, -568980.3, -670342.8, -25516.455, 0.009702962, 0.007917486, -562919.3, -19291.396, 0.0, 10.000297, 9.998951 
5.650298e+2, 2.545271e+2, -456282.25, -565586.6, -15341.894, -0.013635024, 0.036319733, -454169.72, -8532.736, 0.0, 10.0004, 9.998948 
5.650326e+2, 2.6452622e+2, -325514.3, -415733.94, -13574.104, -0.02911656, 0.038936812, -323516.28, 24128.99, 0.0, 10.000471, 9.999269 
5.650356e+2, 2.7452508e+2, -221500.86, -311697.13, -34424.867, -0.038814552, -0.006789997, -209863.53, 39789.94, 0.0, 10.0005, 9.999296 
5.650385e+2, 2.8452381e+2, -173056.83, -330010.34, -40880.965, -0.04715066, -0.024806535, -163047.11, -11382.325, 0.0, 10.000555, 9.998471 
5.650415e+2, 2.945226e+2, -60748.883, -223341.5, -22942.842, -0.04410014, 0.008643554, -57573.516, -3896.6653, 0.0, 10.000646, 9.998488 
5.6504554e+2, 3.0452144e+2, 49266.39, -49664.64, 4215.3096, 0.018037723, 0.001021298, 49445.676, 49445.676, 0.0, 10.000654, 9.999343 
5.65048e+2, 3.1452012e+2, 38463.45, -51728.832, -332.08456, -0.114950806, -0.06958024, 38464.67, 38464.67, 0.000000017271022, 10.000566, 9.999372 
5.749944e+2, 1.2452749e+2, -1734373.6, -1773752.9, 162685.77, 0.047652677, -0.08845042, -1590190.3, 129432.24, 0.00000019303324, 10.000109, 9.999528 
5.749943e+2, 1.3452706e+2, -1583622.1, -1623063.6, -182712.56, 0.18759453, -0.11656339, -1419569.1, 202059.78, 0.000000007774616, 10.000295, 9.999832 
5.7499295e+2, 1.445279e+2, -1469098.1, -1495158.3, -2006.575, -0.104870185, -0.022683477, -1468944.5, 54677.375, 0.0, 10.000341, 9.999996 
5.749972e+2, 1.5452778e+2, -1388647.5, -1403274.5, -7841.2207, -0.01467992, -0.038519662, -1385238.5, 40384.316, 0.0, 10.000215, 10.000013 
5.750011e+2, 1.6452757e+2, -1349558.3, -1390814.0, 4873.577, 0.039559063, -0.034624554, -1348990.4, -21364.646, 0.0, 10.000055, 9.999504 
5.750046e+2, 1.7452729e+2, -1279415.5, -1307152.9, -2818.6484, 0.030828916, -0.015927637, -1279132.0, -49501.047, 0.0, 9.999867, 9.999496 
5.75008e+2, 1.8452697e+2, -1166295.0, -1172794.0, -9879.47, 0.017227719, -0.009193987, -1159144.4, -27508.957, 0.0, 9.999845, 9.999757 
5.7501143e+2, 1.9452663e+2, -1039017.4, -1056608.6, -9009.49, 0.005329055, -0.023650084, -1035222.0, -1583.4799, 0.0, 10.000029, 9.999793 
5.7501477e+2, 2.045264e+2, -946893.1, -995233.3, -14780.177, -0.0009078808, -0.011162061, -942732.2, -7090.7905, 0.0, 10.0001335, 9.999492 
5.7501805e+2, 2.145263e+2, -846208.44, -894963.06, -9897.826, -0.0027518377, 0.02539566, -844275.7, -6631.8857, 0.0, 10.000148, 9.999499 
5.750212e+2, 2.2452587e+2, -752044.7, -811360.06, -17784.861, -0.008083381, 0.0398338, -747120.9, -7472.285, 0.0, 10.000176, 9.999387 
5.750242e+2, 2.3452508e+2, -646070.75, -707741.3, -21154.81, -0.016291957, 0.01908639, -639511.7, 2144.6099, 0.0, 10.000223, 9.999403 
5.7502717e+2, 2.445243e+2, -550997.9, -632613.44, -22160.336, -0.019840168, 0.010608177, -545369.06, -1705.3574, 0.0, 10.000295, 9.999211 
5.7503015e+2, 2.5452358e+2, -437618.44, -526448.6, -11323.544, -0.0167894, 0.01249008, -436197.72, 9472.768, 0.0, 10.000398, 9.999217 
5.7503325e+2, 2.645227e+2, -363099.3, -493374.75, -12791.576, -0.013166132, 0.028355042, -361855.22, -14176.474, 0.0, 10.000469, 9.998737 
5.750363e+2, 2.745216e+2, -261152.63, -393177.5, -33002.75, -0.013662602, 0.0403386, -253362.47, -3672.69, 0.0, 10.000495, 9.998739 
5.750392e+2, 2.8452e+2, -145785.72, -272027.94, -38085.05, -0.03528906, 0.0025458098, -135186.1, 16518.146, 0.0, 10.000549, 9.998873 
5.750419e+2, 2.945182e+2, -31918.793, -162985.14, -18921.443, -0.072087325, -0.070108585, -29241.865, 24477.6, 0.0, 10.000644, 9.998904 
5.7504594e+2, 3.0451754e+2, 14331.148, -121295.03, 437.88763, -0.0058075697, -0.023145996, 14332.562, 14332.562, 0.00000000021282408, 10.00065, 9.998854 
5.75049e+2, 3.1451678e+2, 10581.934, -106395.87, 2568.4387, -0.06684545, 0.015846848, 10638.301, 10638.301, 0.0000000699572, 10.000551, 9.999002 
5.849945e+2, 1.24524176e+2, -1673411.9, -1738703.6, 169606.45, 0.029900288, -0.065291815, -1533338.1, 186318.92, 0.00000011738098, 10.000505, 9.999576 
5.8499444e+2, 1.3452381e+2, -1613512.0, -1640106.1, -162123.14, 0.18072098, -0.08438276, -1464141.6, 157520.92, 0.0000000014227642, 10.000104, 9.999805 
5.8499306e+2, 1.445245e+2, -1531714.9, -1520868.6, 17779.213, -0.1112231, -0.0037827871, -1507703.9, 15952.652, 0.0, 9.999893, 10.000035 
5.849973e+2, 1.5452436e+2, -1426846.0, -1416829.0, -13099.213, -0.013648845, -0.0288725, -1407813.5, 17844.213, 0.0, 9.999932, 10.000056 
5.850012e+2, 1.6452412e+2, -1351427.6, -1390502.8, -1947.2026, 0.04397913, -0.030280199, -1351330.9, -23670.354, 0.0, 10.000036, 9.999516 
5.8500475e+2, 1.7452382e+2, -1226310.6, -1280308.5, 10293.053, 0.041240666, -0.012854924, -1224415.1, 5250.2246, 0.0, 10.000227, 9.999507 
5.8500814e+2, 1.8452346e+2, -1107850.0, -1156437.1, 12529.8125, 0.023336293, -0.005054466, -1104809.0, 26860.977, 0.0, 10.000298, 9.999651 
5.8501136e+2, 1.9452305e+2, -1019814.8, -1059851.0, 2904.1921, -0.008644656, -0.016324265, -1019605.25, 14069.276, 0.0, 10.000215, 9.9996805 
5.8501476e+2, 2.045228e+2, -935915.25, -980322.4, -10277.634, -0.016817652, -0.004151919, -933651.94, 2025.6935, 0.0, 10.000168, 9.999577 
5.850183e+2, 2.1452275e+2, -836438.8, -879653.6, -9105.028, 0.001984447, 0.028206313, -834598.8, 3080.147, 0.0, 10.00017, 9.999595 
5.850215e+2, 2.2452237e+2, -757440.9, -826661.75, -17527.865, 0.0042873854, 0.04720014, -753255.6, -13572.103, 0.0, 10.000193, 9.999274 
5.850245e+2, 2.3452161e+2, -651845.06, -724228.44, -24005.447, -0.012343069, 0.04066253, -644607.5, -2915.6123, 0.0, 10.000242, 9.999281 
5.8502746e+2, 2.4452075e+2, -540405.9, -619175.0, -29752.322, -0.019342951, 0.028825097, -530431.1, 13268.735, 0.0, 10.000333, 9.999285 
5.850306e+2, 2.5451988e+2, -421496.3, -509119.44, -33605.35, -0.014501207, 0.00640464, -410092.2, 35614.66, 0.0, 10.000467, 9.999302 
5.8503383e+2, 2.6451892e+2, -365141.5, -509969.84, -31934.434, -0.0036109006, 0.017819945, -358412.63, -10697.195, 0.0, 10.000522, 9.998597 
5.8503705e+2, 2.7451786e+2, -272669.88, -415885.13, -22212.953, 0.011066063, 0.04966253, -269303.72, -19576.904, 0.0, 10.000489, 9.998587 
5.850399e+2, 2.8451622e+2, -144911.73, -268334.97, -19980.28, -0.0145723615, 0.010806262, -141757.83, 9984.526, 0.0, 10.000542, 9.998902 
5.850424e+2, 2.9451418e+2, -25103.232, -157002.84, -32398.365, -0.07993628, -0.0877364, -17574.94, 36184.492, 0.0, 10.000679, 9.998927 
5.850464e+2, 3.0451375e+2, 11948.791, -133404.16, -21346.822, -0.026624592, -0.011817274, 15018.979, 15018.979, 0.000000006848287, 10.000681, 9.998755 
5.850496e+2, 3.1451294e+2, 20768.445, -86014.61, 16376.139, -0.060594033, 0.025887018, 23223.432, 23223.432, 0.00000018333391, 10.000555, 9.999141 
5.9499466e+2, 1.2452131e+2, -1656232.8, -1705208.1, 149309.53, -0.0042031216, -0.013951617, -1529416.1, 190271.53, 0.000000058921596, 10.000513, 9.999803 
5.949945e+2, 1.345209e+2, -1603350.8, -1620576.3, -177100.45, 0.17597516, -0.05197274, -1434653.8, 187038.47, 0.000000000010343272, 10.000109, 9.999937 
5.9499305e+2, 1.445213e+2, -1549624.3, -1558238.0, 17882.701, -0.100810714, 0.004864502, -1535537.1, -11848.264, 0.0, 9.999894, 9.999779 
5.949975e+2, 1.5452085e+2, -1445998.3, -1457030.8, -10925.54, 0.014334696, -0.022200078, -1439275.4, -13581.399, 0.0, 9.999933, 9.999781 
5.950014e+2, 1.6452053e+2, -1334425.4, -1354741.8, 4402.7017, 0.062652305, -0.029415932, -1333512.4, -5814.981, 0.0, 10.000034, 9.999762 
5.950048e+2, 1.7452039e+2, -1206427.9, -1239495.6, 17809.111, 0.02885286, -0.025351511, -1198660.9, 31038.018, 0.0, 10.000228, 9.999786 
5.950082e+2, 1.8452017e+2, -1122885.3, -1187665.0, 9614.901, 0.0010563545, -0.007499165, -1121488.3, 10213.568, 0.0, 10.000297, 9.999437 
5.950115e+2, 1.9451992e+2, -1036532.7, -1094831.5, 66.61915, -0.018558482, 0.021070795, -1036532.6, -2826.2732, 0.0, 10.000216, 9.999441 
5.950148e+2, 2.0451955e+2, -933545.2, -974769.6, -10815.652, -0.025412338, 0.033108886, -930879.94, 4830.9263, 0.0, 10.000165, 9.999617 
5.9501827e+2, 2.1451907e+2, -833060.56, -871756.7, -8706.518, -0.015550383, 0.017371066, -831191.8, 6523.31, 0.0, 10.000166, 9.99965 
5.950216e+2, 2.2451858e+2, -768104.7, -847990.3, -16368.608, -0.0040042587, 0.028859062, -764880.8, -25160.2, 0.0, 10.000189, 9.99913 
5.950249e+2, 2.3451808e+2, -662957.7, -747126.94, -21872.762, 0.0088026095, 0.06312764, -657613.06, -15885.376, 0.0, 10.000241, 9.999125 
5.950281e+2, 2.445172e+2, -548255.4, -635409.25, -24988.463, 0.008398133, 0.063483305, -541599.1, 2137.0537, 0.0, 10.000332, 9.999174 
5.9503114e+2, 2.54516e+2, -428784.25, -523711.34, -28085.53, -0.008297499, 0.018334122, -421097.22, 24648.752, 0.0, 10.000465, 9.999204 
5.9503436e+2, 2.645149e+2, -348405.94, -474594.66, -33154.688, -0.0016927148, 0.007343435, -340225.28, 7530.0156, 0.0, 10.000519, 9.998841 
5.950377e+2, 2.7451393e+2, -255404.88, -379630.72, -22914.031, 0.03185022, 0.020154135, -251313.05, -1548.2137, 0.0, 10.000487, 9.9988365 
5.9504074e+2, 2.845124e+2, -169952.28, -319401.34, -15573.145, 0.011115389, -0.0010378294, -168346.75, -16567.387, 0.0, 10.000537, 9.998554 
5.9504324e+2, 2.9451057e+2, -53007.184, -212676.06, -27313.635, -0.07073941, -0.04271427, -48464.066, 5332.622, 0.0, 10.000669, 9.99855 
5.950469e+2, 3.0451015e+2, 31017.613, -90651.11, -26295.637, -0.046039768, 0.038249537, 36457.53, 36457.53, 0.000000033052434, 10.000668, 9.999056 
5.950498e+2, 3.1450853e+2, 64866.79, 8106.8193, 17146.904, -0.10079963, -0.038255256, 69644.61, 69644.61, 0.00000037488923, 10.0005455, 9.999792 
6.049947e+2, 1.2451827e+2, -1753633.8, -1742090.0, 162526.45, -0.01549984, -0.005001302, -1585233.0, 134485.36, 0.000000021349177, 9.999802, 9.999892 
6.049946e+2, 1.3451791e+2, -1594597.5, -1614414.0, -170320.55, 0.16815643, -0.03901287, -1433897.3, 187824.78, 0.0, 10.000162, 9.999953 
6.049931e+2, 1.4451814e+2, -1502561.9, -1556299.6, 24308.8, -0.103504874, 0.008668897, -1493197.5, 30523.05, 0.0, 10.000307, 9.999593 
6.0499775e+2, 1.5451756e+2, -1407012.8, -1459225.9, 1557.5719, 0.028486302, -0.011256511, -1406966.3, 18761.262, 0.0, 10.000293, 9.999592 
6.050017e+2, 1.645172e+2, -1292371.0, -1328822.3, 17387.547, 0.07291349, -0.017022377, -1285407.4, 42324.25, 0.0, 10.0002985, 9.999812 
6.0500497e+2, 1.7451707e+2, -1191662.5, -1225282.6, 13816.049, 0.014793076, -0.017413331, -1186713.4, 43018.777, 0.0, 10.000299, 9.999849 
6.0500836e+2, 1.8451688e+2, -1124803.3, -1192231.8, -637.10986, -0.014119633, 0.0013699664, -1124797.3, 6937.388, 0.0, 10.000299, 9.999404 
6.050118e+2, 1.9451666e+2, -1024762.0, -1093577.1, 3706.5852, -0.009549563, 0.03716617, -1024562.9, 9176.151, 0.0, 10.000316, 9.999401 
6.050152e+2, 2.0451619e+2, -912971.7, -978392.3, -1628.9727, -0.014897131, 0.047385592, -912931.1, 22813.465, 0.0, 10.000364, 9.9994955 
6.0501844e+2, 2.1451546e+2, -801502.56, -870870.9, -13505.331, -0.030648, 0.018755164, -798966.0, 38785.418, 0.0, 10.000444, 9.999522 
6.050218e+2, 2.2451484e+2, -730154.3, -836228.25, -25346.494, -0.020930026, 0.028533895, -724408.94, 15349.043, 0.0, 10.000479, 9.99907 
6.0502535e+2, 2.345144e+2, -635152.56, -740290.9, -24728.479, 0.017878097, 0.07444834, -629626.9, 12137.643, 0.0, 10.000462, 9.999064 
6.050287e+2, 2.445135e+2, -536448.5, -638349.3, -20448.744, 0.030161502, 0.07816165, -532498.1, 11275.334, 0.0, 10.00045, 9.999097 
6.050318e+2, 2.5451213e+2, -436681.13, -536561.75, -22627.102, 0.010321662, 0.027554596, -431794.25, 13990.494, 0.0, 10.00045, 9.999123 
6.0503495e+2, 2.64511e+2, -344039.9, -466689.28, -33600.18, 0.0037473734, 0.012218187, -335438.28, 12356.306, 0.0, 10.000524, 9.998895 
6.0503817e+2, 2.7451e+2, -224622.4, -358095.5, -38980.258, 0.011878422, 0.021573992, -214072.3, 35731.266, 0.0, 10.0006695, 9.998897 
6.0504115e+2, 2.8450856e+2, -154657.06, -310888.34, -28909.07, -0.00601939, 0.003550681, -149479.33, 2337.9758, 0.0, 10.000636, 9.998565 
6.0504395e+2, 2.9450685e+2, -92782.016, -232892.88, -13753.223, -0.05139661, -0.027366262, -91444.766, -37611.176, 0.00000000003092486, 10.000399, 9.998542 
6.050476e+2, 3.0450636e+2, -24200.629, -135495.03, -9785.588, -0.027448736, 0.0537708, -23346.78, -23346.78, 0.00000008707832, 10.000368, 9.998892 
6.050503e+2, 3.1450433e+2, 84103.15, 33480.76, -3079.4016, -0.10378063, -0.045960158, 84289.78, 84289.78, 0.0000006525611, 10.000608, 9.999936 
6.1499465e+2, 1.2451505e+2, -1757051.1, -1750025.6, 166560.42, -0.003873598, -0.03744285, -1586941.0, 132807.66, 0.0000000039655865, 9.9998045, 9.999837 
6.1499465e+2, 1.3451487e+2, -1602989.5, -1631216.6, -157028.56, 0.15477528, -0.044602375, -1459441.5, 162310.05, 0.0, 10.00016, 9.999839 
6.149933e+2, 1.4451501e+2, -1510620.3, -1573629.3, 22776.172, -0.12256429, 0.00799681, -1503249.4, 20501.967, 0.0, 10.000309, 9.999474 
6.1499804e+2, 1.5451448e+2, -1414160.9, -1475416.5, 1663.9282, 0.026352637, 0.003078269, -1414115.8, 11642.701, 0.0, 10.000297, 9.999479 
6.15002e+2, 1.6451406e+2, -1302165.5, -1349489.3, 17231.28, 0.07132001, 0.0064783925, -1296556.3, 31206.969, 0.0, 10.000299, 9.99967 
6.150051e+2, 1.7451385e+2, -1201876.9, -1246911.5, 14142.911, -0.0026844586, 0.010783934, -1197803.8, 31961.39, 0.0, 10.0003, 9.999701 
6.1500853e+2, 1.8451355e+2, -1115723.1, -1172951.5, -870.2851, -0.02472211, 0.021334827, -1115709.9, 16058.44, 0.0, 10.000298, 9.999537 
6.1501247e+2, 1.9451323e+2, -1014031.9, -1071351.3, 4541.8438, 0.016542211, 0.031492304, -1013674.25, 20098.418, 0.0, 10.000316, 9.999554 
6.1501586e+2, 2.045127e+2, -933202.8, -1019387.7, 673.9155, 0.01239754, 0.038253292, -933197.5, 2581.446, 0.0, 10.0003605, 9.999216 
6.1501867e+2, 2.1451189e+2, -822664.9, -914592.6, -10248.378, -0.045973737, 0.033021577, -821536.25, 16251.313, 0.0, 10.000443, 9.999223 
6.1502194e+2, 2.2451118e+2, -729724.75, -834832.75, -26349.592, -0.04919613, 0.047233332, -723489.06, 16306.32, 0.0, 10.000477, 9.999082 
6.1502576e+2, 2.3451056e+2, -632788.4, -735192.56, -25004.822, 0.014292022, 0.07444336, -627008.94, 14793.449, 0.0, 10.000461, 9.9991 
6.150293e+2, 2.4450961e+2, -540563.56, -646464.1, -21004.39, 0.04525017, 0.072717205, -536549.7, 7262.046, 0.0, 10.000448, 9.9990425 
6.1503255e+2, 2.545083e+2, -441476.47, -546112.94, -22226.26, 0.037818912, 0.033181638, -436951.03, 8872.293, 0.0, 10.000448, 9.999058 
6.1503553e+2, 2.645072e+2, -353896.8, -486735.03, -28420.037, 0.008789736, 0.03174007, -348071.94, -238.47865, 0.0, 10.000521, 9.998758 
6.150382e+2, 2.745062e+2, -234145.94, -376965.7, -33054.56, -0.04945935, 0.055953562, -226866.72, 22976.053, 0.0, 10.000665, 9.99877 
6.150412e+2, 2.8450477e+2, -129847.336, -258235.95, -37382.44, -0.06574135, 0.02712665, -119756.0, 32099.887, 0.0, 10.000631, 9.998929 
6.150446e+2, 2.9450306e+2, -67481.76, -179582.98, -22121.428, -0.026461234, -0.04321156, -63274.35, -9403.982, 0.0000000010306047, 10.000396, 9.99891 
6.1504847e+2, 3.0450234e+2, -70325.81, -229763.27, -2265.7737, 0.023097726, 0.031611186, -70293.62, -70293.62, 0.00000016756015, 10.000361, 9.998247 
6.150512e+2, 3.1450033e+2, 55113.465, -22519.938, 9778.545, -0.07589258, -0.0010896812, 56326.203, 56326.203, 0.000001002472, 10.000591, 9.999559 
6.249944e+2, 1.2451161e+2, -1761072.5, -1744891.0, 135088.95, -0.00907541, -0.048417278, -1617650.8, 102132.016, 0.00000000008306351, 9.999744, 9.999902 
6.2499464e+2, 1.3451155e+2, -1631923.1, -1645990.1, -173815.03, 0.15303034, -0.04078915, -1464999.4, 156785.03, 0.0, 9.999966, 9.99983 
6.249934e+2, 1.4451165e+2, -1536354.6, -1584172.1, 8912.823, -0.12951359, 0.00717168, -1534747.4, -10962.748, 0.0, 10.000123, 9.999491 
6.249981e+2, 1.5451121e+2, -1412696.0, -1471625.4, -2138.4558, 0.004094169, 0.008068862, -1412618.5, 13171.964, 0.0, 10.000294, 9.999506 
6.250021e+2, 1.6451079e+2, -1301618.6, -1363809.8, 16508.37, 0.0503955, 0.013876559, -1297508.1, 30287.332, 0.0, 10.000367, 9.999539 
6.250055e+2, 1.7451039e+2, -1206499.9, -1264560.9, 12746.944, 0.0032089916, 0.016640242, -1203824.6, 25974.96, 0.0, 10.000337, 9.999562 
6.2500906e+2, 1.8451001e+2, -1103548.0, -1167752.9, -2703.4866, -0.01060227, 0.024627931, -1103434.4, 28369.508, 0.0, 10.000383, 9.999532 
6.250128e+2, 1.9450964e+2, -985092.9, -1057398.5, -9240.748, 0.012851133, 0.030641615, -983930.6, 49877.566, 0.0, 10.000514, 9.999554 
6.250162e+2, 2.045091e+2, -906848.6, -1016534.8, -12724.198, 0.007487439, 0.04207725, -905391.9, 30422.63, 0.0, 10.000584, 9.999128 
6.250194e+2, 2.1450834e+2, -808282.7, -918160.8, -9266.113, -0.0324575, 0.05179277, -807506.75, 30316.467, 0.0, 10.000587, 9.999128 
6.2502265e+2, 2.2450754e+2, -713771.7, -829067.25, -19552.33, -0.034582436, 0.062060915, -710546.2, 29285.82, 0.0, 10.000594, 9.999064 
6.250262e+2, 2.3450667e+2, -614183.3, -727931.56, -22438.418, 0.008451327, 0.06362562, -609917.0, 31923.854, 0.0, 10.000595, 9.999084 
6.2502974e+2, 2.4450567e+2, -524099.4, -646115.25, -20016.87, 0.03274737, 0.06316853, -520899.53, 22950.979, 0.0, 10.000594, 9.998974 
6.25033e+2, 2.5450462e+2, -426988.34, -547343.75, -23208.143, 0.03437524, 0.054804925, -422668.2, 23192.494, 0.0, 10.000583, 9.998984 
6.2503606e+2, 2.6450354e+2, -353320.44, -483457.56, -22982.463, 0.010023829, 0.060920283, -349380.97, -1510.2897, 0.0, 10.000512, 9.998785 
6.250387e+2, 2.7450246e+2, -274156.38, -392644.7, -15900.38, -0.047998462, 0.067195125, -272059.75, -22178.668, 0.0, 10.000374, 9.998802 
6.250417e+2, 2.84501e+2, -157048.33, -274962.63, -25683.79, -0.06440827, 0.037709508, -151696.83, 197.32378, 0.0, 10.000461, 9.998897 
6.250452e+2, 2.9449937e+2, -11019.492, -157482.0, -43669.97, -0.02671696, -0.018522523, 1012.8608, 54920.727, 0.000000004235602, 10.000806, 9.998864 
6.25049e+2, 3.0449834e+2, -23270.877, -223532.55, -27409.904, 0.023180662, 0.035033204, -19587.035, -19587.035, 0.000000262113, 10.000754, 9.998101 
6.250519e+2, 3.1449628e+2, 14588.923, -31061.016, 25747.795, -0.046801645, 0.010921155, 26172.21, 26172.21, 0.0000013873902, 10.000264, 9.999659 
6.349939e+2, 1.24507934e+2, -1746554.9, -1716756.3, 130010.56, -0.03158647, -0.03733008, -1600794.0, 119026.49, 0.0, 9.99975, 10.000093 
6.349947e+2, 1.34508e+2, -1625077.8, -1632344.8, -166115.23, 0.15996775, -0.028722404, -1462556.4, 159264.23, 0.0, 9.999967, 9.999924 
6.3499355e+2, 1.445081e+2, -1525132.4, -1561486.4, 13144.779, -0.12767303, 0.0060637128, -1520877.5, 2942.605, 0.0, 10.000126, 9.999645 
6.3499796e+2, 1.5450777e+2, -1401454.3, -1448501.9, 4324.8003, -0.04061841, 0.003822508, -1401060.0, 24763.443, 0.0, 10.000294, 9.999665 
6.35002e+2, 1.6450733e+2, -1310059.8, -1381447.4, 14767.136, 0.0065430896, 0.0051327627, -1307125.6, 20702.86, 0.0, 10.000366, 9.999418 
6.350061e+2, 1.7450671e+2, -1215285.3, -1283755.4, 11771.517, 0.030069381, -0.00042380393, -1213318.0, 16517.484, 0.0, 10.0003395, 9.99943 
6.3500977e+2, 1.8450622e+2, -1113982.0, -1189150.1, 1410.0074, 0.024976088, 0.010807289, -1113955.5, 17885.738, 0.0, 10.000382, 9.999386 
6.35013e+2, 1.945059e+2, -995268.5, -1078895.6, -4168.8525, -0.022439463, 0.03512551, -995061.2, 38784.234, 0.0, 10.000515, 9.999406 
6.350165e+2, 2.0450544e+2, -901050.1, -1003910.25, -13146.726, -0.032183044, 0.059227627, -899396.4, 36454.676, 0.0, 10.000581, 9.999217 
6.350203e+2, 2.1450484e+2, -801032.0, -903067.5, -8821.315, 0.008007421, 0.07346877, -800275.0, 37583.402, 0.0, 10.0005865, 9.999233 
6.3502383e+2, 2.2450393e+2, -718114.0, -836696.44, -20029.207, 0.020408222, 0.07135716, -714822.4, 25045.576, 0.0, 10.000588, 9.999015 
6.3502675e+2, 2.345027e+2, -618286.56, -736217.9, -21876.047, -0.002069789, 0.041872624, -614359.4, 27520.594, 0.0, 10.000594, 9.999028 
6.3502985e+2, 2.4450172e+2, -530857.06, -659760.8, -20654.64, -0.010287911, 0.049677067, -527628.4, 16261.359, 0.0, 10.000592, 9.998882 
6.3503325e+2, 2.545011e+2, -433058.72, -559888.2, -23231.14, -0.0009004836, 0.093839094, -428937.4, 16959.217, 0.0, 10.000583, 9.9988985 
6.350366e+2, 2.6450008e+2, -340820.3, -457264.63, -28109.371, 0.006620432, 0.101574175, -334389.88, 13516.225, 0.0, 10.00051, 9.998966 
6.350397e+2, 2.7449864e+2, -261279.7, -364909.13, -20336.156, 0.011282855, 0.054055396, -257431.83, -7513.1245, 0.0, 10.000369, 9.998995 
6.350428e+2, 2.8449717e+2, -187740.25, -337489.3, -13480.911, -0.007544153, 0.032278612, -186536.33, -34603.89, 0.0, 10.000455, 9.99847 
6.350457e+2, 2.944958e+2, -43969.574, -224437.06, -30096.457, -0.052980326, 0.047653846, -39082.734, 14863.233, 0.000000008608103, 10.000799, 9.998407 
6.350493e+2, 3.0449435e+2, 191.93213, -173750.28, -44686.656, -0.02723704, 0.06787062, 11000.529, 11000.529, 0.00000035003856, 10.00075, 9.9984455 
6.3505244e+2, 3.1449217e+2, 53963.88, 52852.16, 10519.5, -0.023528997, -0.009211828, 63942.195, 63942.195, 0.0000017531552, 10.000255, 10.00024 
6.449934e+2, 1.2450443e+2, -1812709.0, -1734015.9, 136396.22, -0.02907395, -0.008285977, -1631404.4, 88452.234, 0.0, 9.999232, 10.000225 
6.4499456e+2, 1.3450444e+2, -1624029.5, -1624023.5, -152015.28, 0.15068935, -0.011780449, -1472011.3, 149845.14, 0.0, 9.999944, 9.99999 
6.4499366e+2, 1.4450437e+2, -1499503.3, -1545265.8, 9539.128, -0.13925925, 0.0011734804, -1497594.4, 26262.467, 0.0, 10.000286, 9.99968 
6.449982e+2, 1.5450403e+2, -1397372.5, -1442732.8, -10090.656, -0.051133145, -0.0061567686, -1395229.0, 30630.879, 0.0, 10.000306, 9.999699 
6.450023e+2, 1.6450359e+2, -1315127.3, -1391907.9, -3991.2192, -0.0015650553, -0.0028168156, -1314920.3, 12944.47, 0.0, 10.000366, 9.999348 
6.450065e+2, 1.74503e+2, -1203091.1, -1286480.1, -4063.8735, 0.0298642, 0.0020500906, -1202893.5, 26978.445, 0.0, 10.000461, 9.999352 
6.4501023e+2, 1.8450247e+2, -1097453.5, -1183957.6, -6175.4194, 0.027513908, 0.014108502, -1097014.9, 34863.527, 0.0, 10.000508, 9.99936 
6.4501345e+2, 1.9450203e+2, -997273.44, -1082017.8, -3194.4585, -0.026059197, 0.028603612, -997153.2, 36730.27, 0.0, 10.000513, 9.999384 
6.450169e+2, 2.045016e+2, -912706.06, -1004229.9, -11774.303, -0.03688719, 0.054183107, -911215.6, 24673.25, 0.0, 10.000479, 9.999263 
6.4502084e+2, 2.1450119e+2, -826335.6, -910084.2, -12694.005, 0.008446025, 0.083002314, -824453.9, 13440.778, 0.0, 10.000391, 9.999279 
6.450243e+2, 2.2450037e+2, -740779.2, -844730.3, -17996.393, 0.022046935, 0.086128846, -737751.75, 2151.664, 0.0, 10.00042, 9.999041 
6.450273e+2, 2.3449908e+2, -617137.3, -733009.9, -14971.556, -0.004648066, 0.050383292, -615234.2, 26681.566, 0.0, 10.000591, 9.999052 
6.4503044e+2, 2.4449807e+2, -525060.6, -656892.9, -12275.391, -0.012940219, 0.052998267, -523927.34, 19998.441, 0.0, 10.000631, 9.998882 
6.4503384e+2, 2.544974e+2, -443605.0, -565098.5, -9137.239, 0.0006482746, 0.093251556, -442921.66, 3011.3867, 0.0, 10.00051, 9.998898 
6.4503706e+2, 2.6449636e+2, -346657.75, -462072.7, -16183.382, 0.01088762, 0.10020061, -344431.47, 3511.2952, 0.0, 10.000481, 9.998946 
6.450402e+2, 2.7449495e+2, -235556.92, -354687.03, -25605.29, 0.0170595, 0.056682814, -230286.6, 19668.842, 0.0, 10.000557, 9.998974 
6.450433e+2, 2.8449354e+2, -169237.05, -339207.5, -6387.4536, -0.003189511, 0.04618922, -168997.34, -17028.365, 0.0, 10.0006275, 9.998375 
6.450465e+2, 2.9449221e+2, -67390.07, -246800.47, 3056.402, -0.054319624, 0.07612299, -67338.016, -13355.455, 0.000000011710588, 10.000686, 9.998308 
6.4504987e+2, 3.0449042e+2, -16323.54, -176029.53, -26476.516, -0.033973623, 0.06338873, -12048.616, -12048.616, 0.00000040808163, 10.00061, 9.998497 
6.450529e+2, 3.1448853e+2, 84365.875, 80416.734, 2336.0532, -0.009948232, 0.0115358755, 85450.07, 85450.07, 0.0000020409286, 10.000406, 10.000357 
6.54993e+2, 1.2450113e+2, -1806191.1, -1723493.3, 148081.6, 0.0017495608, 0.03774857, -1611096.0, 108794.69, 0.0, 9.999243, 10.000294 
6.549942e+2, 1.3450094e+2, -1622160.3, -1619604.6, -126528.055, 0.121178865, 0.0100172255, -1494347.9, 127543.65, 0.0, 9.999941, 10.000022 
6.5499365e+2, 1.4450051e+2, -1506121.9, -1558324.4, 8957.167, -0.1682908, -0.008570541, -1504627.8, 19267.121, 0.0, 10.000282, 9.999591 
6.5499866e+2, 1.5450002e+2, -1403702.6, -1456708.3, -8915.521, -0.030361803, -0.022141265, -1402243.3, 23656.111, 0.0, 10.000309, 9.999602 
6.5500295e+2, 1.6449958e+2, -1316938.9, -1396333.0, -1420.3357, 0.023057614, -0.0097192945, -1316913.4, 10990.655, 0.0, 10.000369, 9.999316 
6.5500665e+2, 1.7449927e+2, -1204958.4, -1290759.4, -665.8727, 0.00073596794, 0.023785228, -1204953.3, 24955.78, 0.0, 10.000462, 9.999323 
6.5501046e+2, 1.8449874e+2, -1091422.6, -1170671.8, -6878.753, -0.00597818, 0.034166288, -1090830.0, 41085.074, 0.0, 10.000505, 9.999453 
6.550142e+2, 1.9449802e+2, -990335.25, -1067424.8, -2918.4282, 0.0000457042, 0.009672405, -990224.94, 43697.33, 0.0, 10.000511, 9.999485 
6.550177e+2, 2.0449755e+2, -913460.7, -1004840.56, -15400.91, -0.008668406, 0.025465578, -910934.9, 24993.057, 0.0, 10.000475, 9.999261 
6.5502083e+2, 2.1449739e+2, -827119.5, -911594.94, -15705.997, -0.032448646, 0.08058339, -824293.9, 13637.906, 0.0, 10.00039, 9.999269 
6.5502423e+2, 2.2449684e+2, -734742.1, -831562.5, -12726.4795, -0.03169255, 0.10692408, -733097.25, 6841.102, 0.0, 10.000417, 9.999133 
6.5502787e+2, 2.3449583e+2, -610141.1, -718704.06, -8272.232, -0.00090072886, 0.088462524, -609514.44, 32433.71, 0.0, 10.000591, 9.99915 
6.5503144e+2, 2.4449472e+2, -519765.6, -645124.6, -16796.168, 0.022054104, 0.07246676, -517554.2, 26404.604, 0.0, 10.0006275, 9.998964 
6.5503466e+2, 2.5449353e+2, -438181.75, -552756.06, -13305.422, 0.03594964, 0.052451238, -436656.9, 9313.115, 0.0, 10.000505, 9.998984 
6.5503764e+2, 2.6449242e+2, -362832.88, -495011.03, -13822.524, 0.020648004, 0.055577673, -361402.84, -13422.053, 0.0, 10.000478, 9.998722 
6.5504026e+2, 2.744914e+2, -252566.7, -389567.84, -22034.51, -0.0314332, 0.07631422, -249110.02, 881.105, 0.0, 10.000555, 9.998735 
6.550435e+2, 2.844901e+2, -153847.83, -306769.8, -4219.2197, -0.052896637, 0.08292381, -153731.5, -1728.0225, 0.0, 10.000626, 9.998599 
6.5504736e+2, 2.9448858e+2, -50881.11, -210541.6, 5802.194, -0.03493066, 0.067647524, -50670.53, 3347.2036, 0.000000011654482, 10.000677, 9.998562 
6.5505075e+2, 3.0448648e+2, -34245.438, -210828.56, -33984.8, -0.0012935355, 0.019633159, -27930.623, -27930.623, 0.00000041978168, 10.0006, 9.998262 
6.550533e+2, 3.1448534e+2, 59730.184, 31880.375, -3532.4302, -0.009656143, 0.069205284, 60171.246, 60171.246, 0.000002202322, 10.000396, 10.000028 
6.649923e+2, 1.2449732e+2, -1748063.6, -1703390.3, 145033.39, -0.014198498, 0.047066618, -1578983.5, 140944.5, 0.0, 9.999675, 10.000224 
6.6499406e+2, 1.3449694e+2, -1626756.3, -1636079.0, -130981.6, 0.11106648, 0.016342402, -1500353.1, 121577.69, 0.0, 9.999974, 9.999892 
6.649939e+2, 1.4449638e+2, -1523317.8, -1568874.0, -11945.926, -0.16419174, -0.009194546, -1520375.4, 3560.3792, 0.0, 10.0001745, 9.999571 
6.6499907e+2, 1.5449603e+2, -1394222.1, -1453511.3, -23889.451, -0.020880003, -0.0070662834, -1385794.3, 40144.72, 0.0, 10.0003805, 9.999589 
6.6500336e+2, 1.6449563e+2, -1301471.3, -1385656.1, -13937.144, 0.024496349, 0.0071673053, -1299223.9, 28719.547, 0.0, 10.000463, 9.999343 
6.650068e+2, 1.7449519e+2, -1213068.6, -1291116.8, -10369.767, -0.019776227, 0.025328375, -1211714.4, 18234.791, 0.0, 10.000393, 9.999352 
6.650107e+2, 1.8449467e+2, -1109610.8, -1171324.6, -14535.103, -0.024076674, 0.031209009, -1106358.8, 25596.262, 0.0, 10.000347, 9.999524 
6.6501474e+2, 1.944941e+2, -1011195.1, -1069895.4, -14291.449, 0.011909376, 0.01479305, -1007900.6, 26060.11, 0.0, 10.000335, 9.999554 
6.650183e+2, 2.0449363e+2, -927611.56, -1014084.0, -27121.125, 0.007833761, 0.027935674, -919809.3, 16157.037, 0.0, 10.000388, 9.999239 
6.650212e+2, 2.144933e+2, -809024.56, -905038.5, -29451.229, -0.042655468, 0.06846887, -800710.6, 37261.18, 0.0, 10.000525, 9.999247 
6.650245e+2, 2.2449279e+2, -720378.5, -822434.5, -30387.107, -0.046031553, 0.098214194, -712016.0, 27962.293, 0.0, 10.000507, 9.999151 
6.6502845e+2, 2.3449203e+2, -651730.6, -736575.4, -32456.758, 0.0070320317, 0.10447131, -640738.56, 1247.462, 0.0, 10.000297, 9.999169 
6.65032e+2, 2.4449104e+2, -567246.56, -657383.44, -41359.16, 0.038950656, 0.09380095, -551145.2, -7149.514, 0.0, 10.000257, 9.99906 
6.650352e+2, 2.5448975e+2, -443406.2, -544322.4, -38189.61, 0.04553759, 0.054454092, -430583.44, 15423.981, 0.0, 10.0004225, 9.999082 
6.6503817e+2, 2.6448858e+2, -351106.97, -490257.6, -27801.092, 0.01856066, 0.04800321, -345758.16, 2260.3577, 0.0, 10.000562, 9.9987135 
6.6504073e+2, 2.7448758e+2, -237985.7, -383995.28, -19747.943, -0.05070761, 0.07291889, -235361.92, 14666.834, 0.0, 10.000662, 9.998721 
6.6504395e+2, 2.8448644e+2, -143344.4, -284800.66, -478.61386, -0.066660695, 0.08761127, -143342.78, 8696.888, 0.0, 10.000627, 9.998748 
6.650481e+2, 2.9448518e+2, -74214.04, -203339.13, 657.1687, -0.016687198, 0.080260895, -74210.69, -20159.36, 0.000000008469742, 10.00044, 9.998724 
6.6505146e+2, 3.0448294e+2, -62412.695, -225841.3, -32403.291, 0.013100196, 0.010440752, -56222.5, -56222.5, 0.00000038345433, 10.000415, 9.998248 
6.650537e+2, 3.1448212e+2, 71309.92, 16826.318, 14484.828, -0.017111117, 0.09582274, 74921.414, 74921.414, 0.0000022156387, 10.000564, 9.999843 
6.749913e+2, 1.2449303e+2, -1762346.5, -1734021.9, 138601.56, -0.077676095, 0.018657891, -1608860.9, 111107.41, 0.0, 9.999677, 10.000014 
6.7499405e+2, 1.3449258e+2, -1646549.6, -1678316.6, -120337.68, 0.11602456, 0.007166195, -1541051.8, 80921.83, 0.0, 9.99998, 9.9995985 
6.7499447e+2, 1.4449205e+2, -1519242.9, -1562358.8, -6798.592, -0.13011768, -0.00043136138, -1518196.3, 5782.8555, 0.0, 10.000182, 9.999613 
6.749995e+2, 1.5449212e+2, -1389666.5, -1444364.1, -16103.41, -0.025850737, 0.038207736, -1385277.6, 40700.855, 0.0, 10.0003805, 9.999653 
6.750036e+2, 1.6449174e+2, -1296128.3, -1373178.5, -16847.031, -0.001136866, 0.046719924, -1292605.8, 35376.813, 0.0, 10.000457, 9.999431 
6.7500716e+2, 1.744908e+2, -1206797.9, -1277965.4, -12565.791, -0.033756576, 0.0063968194, -1204644.4, 25347.791, 0.0, 10.000392, 9.999443 
6.750109e+2, 1.8449028e+2, -1107387.0, -1166662.4, -15769.698, -0.029357873, 0.0049769413, -1103452.8, 28545.148, 0.0, 10.000346, 9.999557 
6.750151e+2, 1.9449028e+2, -1009709.9, -1066368.9, -14808.221, 0.00781142, 0.044172127, -1006073.06, 27925.52, 0.0, 10.000332, 9.999579 
6.7501867e+2, 2.0448984e+2, -930869.5, -1019774.06, -23015.89, 0.0101465415, 0.061978854, -925264.44, 10739.468, 0.0, 10.000382, 9.999203 
6.750218e+2, 2.1448891e+2, -812014.25, -910831.75, -24016.246, -0.024169974, 0.045799546, -806486.6, 31528.082, 0.0, 10.000524, 9.999209 
6.750253e+2, 2.2448818e+2, -724573.2, -830518.94, -38124.605, -0.023872262, 0.058933917, -712280.4, 27742.934, 0.0, 10.0005045, 9.999097 
6.7502886e+2, 2.3448771e+2, -655637.7, -744580.56, -39832.426, 0.018044205, 0.09818615, -640407.06, 1622.176, 0.0, 10.000296, 9.999115 
6.7503226e+2, 2.4448703e+2, -560270.5, -642964.2, -36076.83, 0.03645656, 0.116402075, -546743.8, -2707.42, 0.0, 10.000257, 9.999159 
6.750355e+2, 2.5448605e+2, -436173.94, -529285.8, -31458.129, 0.027305733, 0.09938491, -426542.06, 19503.0, 0.0, 10.0004225, 9.999186 
6.750385e+2, 2.6448488e+2, -337603.06, -461337.3, -24056.129, 0.0015858457, 0.07855395, -333090.7, 14965.037, 0.0, 10.000558, 9.998914 
6.7504144e+2, 2.7448353e+2, -224338.58, -353753.06, -15416.154, -0.04355923, 0.046119273, -222527.52, 27540.854, 0.0, 10.000653, 9.998933 
6.750448e+2, 2.8448254e+2, -139405.0, -274944.3, -7303.2915, -0.046827298, 0.05879667, -139012.61, 13065.097, 0.0, 10.000619, 9.998819 
6.7504865e+2, 2.9448193e+2, -70873.195, -194750.06, -5616.087, -0.001954583, 0.11385139, -70619.11, -16535.734, 0.0000000040864183, 10.000432, 9.998786 
6.750518e+2, 3.0447978e+2, -48840.668, -196428.94, -27291.86, 0.0067671845, 0.036456734, -43955.58, -43955.58, 0.0000003121116, 10.000409, 9.998452 
6.750541e+2, 3.144789e+2, 68030.5, 12008.578, 21477.941, -0.03824076, 0.09780528, 75317.07, 75317.07, 0.0000020914758, 10.000555, 9.999813 
6.8499106e+2, 1.2448841e+2, -1731310.3, -1720977.5, 101054.836, -0.07903456, 0.0029242588, -1624957.1, 95056.05, 0.0, 9.999899, 9.999997 
6.8499416e+2, 1.3448802e+2, -1634740.6, -1680776.9, -128678.19, 0.11484993, 0.0064985338, -1527038.0, 94980.164, 0.0, 10.000099, 9.999523 
6.8499464e+2, 1.444875e+2, -1513397.3, -1548409.9, -8547.418, -0.12790863, -0.0019502718, -1511422.1, 12601.794, 0.0, 10.000176, 9.99971 
6.849996e+2, 1.5448767e+2, -1404638.6, -1439481.5, -14595.4375, -0.04045679, 0.035747148, -1399332.6, 26689.342, 0.0, 10.000228, 9.999759 
6.8500376e+2, 1.6448738e+2, -1315759.6, -1370868.0, -16859.635, -0.018101946, 0.04246797, -1311010.9, 17013.95, 0.0, 10.000274, 9.999535 
6.8500745e+2, 1.7448652e+2, -1211854.4, -1268973.3, -13693.387, -0.032444354, -0.0012279238, -1208741.3, 21292.441, 0.0, 10.000309, 9.999544 
6.850113e+2, 1.8448603e+2, -1114303.6, -1178871.3, -19102.635, -0.02276794, 0.0012164009, -1109075.4, 22963.854, 0.0, 10.000338, 9.999476 
6.850153e+2, 1.9448608e+2, -1009754.94, -1074936.5, -26570.748, 0.00095844734, 0.053177495, -1000296.2, 33744.234, 0.0, 10.000373, 9.999499 
6.8501896e+2, 2.0448571e+2, -928208.56, -1003737.4, -31827.242, 0.005430101, 0.075626925, -916585.5, 19459.725, 0.0, 10.0003395, 9.999332 
6.850224e+2, 2.1448487e+2, -845133.2, -911352.7, -20670.771, -0.008510487, 0.05402484, -839210.44, -1156.0557, 0.0, 10.000229, 9.999348 
6.850258e+2, 2.2448413e+2, -758912.7, -846688.56, -25213.857, -0.005992912, 0.05785196, -752185.56, -12122.751, 0.0, 10.000266, 9.999102 
6.850292e+2, 2.3448353e+2, -627546.1, -730563.0, -24113.77, 0.015566365, 0.08325324, -622181.06, 19889.137, 0.0, 10.000487, 9.999118 
6.8503255e+2, 2.4448286e+2, -526245.06, -629352.56, -23209.434, 0.022653336, 0.105374634, -521261.53, 22815.883, 0.0, 10.000503, 9.999133 
6.8503565e+2, 2.5448212e+2, -460780.1, -543842.3, -28929.041, 0.0119531015, 0.11323684, -451697.75, -5613.3296, 0.0, 10.000266, 9.999161 
6.850388e+2, 2.6448107e+2, -382154.94, -466604.75, -22553.846, -0.0044482746, 0.09754219, -376508.97, -28414.906, 0.0, 10.000183, 9.999058 
6.85042e+2, 2.7447966e+2, -265345.72, -356429.8, -19187.219, -0.025891064, 0.04590124, -261468.88, -11362.251, 0.0, 10.0002985, 9.999085 
6.850454e+2, 2.844787e+2, -181593.05, -298823.63, -24657.16, -0.031478103, 0.056932196, -176618.03, -24502.682, 0.0, 10.000345, 9.998787 
6.850488e+2, 2.9447824e+2, -93096.39, -209199.88, -31697.506, -0.02204366, 0.130019, -85006.34, -30886.389, 0.0000000009738006, 10.000297, 9.998753 
6.850519e+2, 3.0447602e+2, -34146.043, -161359.44, -42282.86, -0.019210696, 0.037935548, -21374.393, -21374.393, 0.00000022618863, 10.00039, 9.998703 
6.85055e+2, 3.1447512e+2, 82589.14, 18768.635, 7905.339, -0.009610359, 0.07055655, 83553.78, 83553.78, 0.0000018666766, 10.000658, 9.999809 
6.9499165e+2, 1.2448348e+2, -1718641.8, -1698702.4, 92834.41, -0.01719961, -0.0033394448, -1615303.9, 104758.35, 0.0, 9.999913, 10.000144 
6.949941e+2, 1.3448335e+2, -1625860.9, -1661321.1, -122320.42, 0.103709266, 0.013254494, -1519992.3, 102071.93, 0.0, 10.000095, 9.999659 
6.9499445e+2, 1.4448278e+2, -1503160.0, -1525577.8, -8326.467, -0.16139682, -0.015627557, -1500405.8, 23664.031, 0.0, 10.00017, 9.99987 
6.949996e+2, 1.5448274e+2, -1392682.6, -1415711.4, -11365.499, -0.06744913, -0.014556491, -1388018.1, 38050.72, 0.0, 10.000233, 9.99992 
6.950039e+2, 1.6448261e+2, -1308881.1, -1357282.8, -16329.641, -0.030210992, -0.005580678, -1303887.1, 24182.904, 0.0, 10.000276, 9.999627 
6.950079e+2, 1.7448235e+2, -1206107.9, -1256303.9, -12652.541, -0.01909924, 0.002584311, -1203099.0, 26974.502, 0.0, 10.000305, 9.999634 
6.9501185e+2, 1.8448198e+2, -1127073.4, -1203924.1, -18615.182, -0.008016662, 0.019814592, -1122801.8, 9277.146, 0.0, 10.000331, 9.999308 
6.950156e+2, 1.9448152e+2, -1022995.7, -1101761.5, -24852.395, -0.0097103305, 0.040903736, -1015809.8, 18276.25, 0.0, 10.000369, 9.999317 
6.9501925e+2, 2.0448124e+2, -908352.1, -962156.5, -36380.484, -0.00815925, 0.06794112, -890007.56, 46082.637, 0.0, 10.000338, 9.999619 
6.9502276e+2, 2.1448119e+2, -823975.5, -866776.44, -24648.67, 0.002165924, 0.09336013, -812733.44, 25357.316, 0.0, 10.000225, 9.999656 
6.9502616e+2, 2.2448061e+2, -754433.06, -836970.4, -18114.273, 0.004879196, 0.095326595, -750632.56, -10535.972, 0.0, 10.000264, 9.999169 
6.9502956e+2, 2.3447946e+2, -624132.75, -723410.0, -15505.675, -0.001963132, 0.060187887, -621767.3, 20341.531, 0.0, 10.000486, 9.999168 
6.950328e+2, 2.4447855e+2, -536166.7, -649612.06, -31645.068, -0.0047370447, 0.06103379, -527936.56, 16182.118, 0.0, 10.000501, 9.998995 
6.9503576e+2, 2.5447792e+2, -471517.1, -565394.8, -37376.93, -0.0020810985, 0.09574139, -458453.53, -12328.163, 0.0, 10.000262, 9.999015 
6.9503903e+2, 2.6447707e+2, -376681.28, -454604.75, -19012.55, -0.0012257225, 0.10375706, -372289.9, -24156.297, 0.0, 10.00018, 9.999142 
6.950426e+2, 2.7447596e+2, -259867.66, -344055.56, -14222.557, -0.0005962333, 0.07234905, -257529.83, -7386.392, 0.0, 10.000295, 9.999172 
6.950458e+2, 2.8447497e+2, -191352.17, -317929.28, -26245.166, -0.023671528, 0.082343064, -186126.13, -33973.64, 0.0, 10.00034, 9.998658 
6.950486e+2, 2.9447412e+2, -102924.555, -228281.13, -32648.838, -0.0789723, 0.12860183, -94930.97, -40769.938, 0.000000000021633938, 10.000291, 9.998624 
6.950519e+2, 3.0447173e+2, -14877.358, -119556.305, -33149.1, -0.06644395, 0.01475309, -5262.9507, -5262.9507, 0.00000014519733, 10.000382, 9.998993 
6.950563e+2, 3.1447092e+2, 80647.21, 18958.176, 17849.793, 0.06141548, 0.023499057, 85439.74, 85439.74, 0.0000015881137, 10.000641, 9.999819 
7.049917e+2, 1.2447894e+2, -1716840.8, -1692329.0, 113684.445, 0.00027912576, -0.0020668802, -1590241.8, 129865.24, 0.0, 9.999903, 10.000194 
7.0499414e+2, 1.344789e+2, -1606026.6, -1649479.1, -97866.234, 0.09409481, 0.020425325, -1527504.0, 94604.14, 0.0, 10.000225, 9.999675 
7.049946e+2, 1.4447828e+2, -1474708.9, -1495614.9, 2060.7175, -0.1684997, -0.019867105, -1474507.8, 49605.973, 0.0, 10.000296, 10.000014 
7.0499974e+2, 1.5447822e+2, -1388325.0, -1396932.4, -2166.839, -0.07096951, -0.035212483, -1387810.3, 38301.9, 0.0, 10.000191, 10.000069 
7.0500416e+2, 1.6447818e+2, -1327703.5, -1367059.8, -8410.152, -0.028234046, -0.024925604, -1325981.6, 2130.6816, 0.0, 10.000151, 9.9996195 
7.0500827e+2, 1.7447811e+2, -1224445.1, -1265884.0, -12697.307, -0.011493309, 0.005662407, -1220864.0, 9250.488, 0.0, 10.000185, 9.999623 
7.0501214e+2, 1.8447782e+2, -1149787.0, -1211039.9, -16456.754, 0.00033271837, 0.027012872, -1145645.6, -13526.002, 0.0, 10.00016, 9.99934 
7.050159e+2, 1.9447722e+2, -1064941.9, -1118855.4, -8461.598, -0.006913372, 0.029353539, -1063645.0, -29516.979, 0.0, 10.000067, 9.999346 
7.050194e+2, 2.0447692e+2, -935410.5, -968740.06, -15511.053, -0.010213418, 0.051742125, -929308.9, 6823.2656, 0.0, 10.000123, 9.999678 
7.0502293e+2, 2.1447705e+2, -798282.06, -846732.44, -22791.568, -0.004109299, 0.08879788, -789245.94, 48884.996, 0.0, 10.00037, 9.9997225 
7.0502645e+2, 2.244766e+2, -730014.75, -819031.7, -27644.875, -0.0029933953, 0.0965882, -722128.2, 18007.486, 0.0, 10.000406, 9.999224 
7.050298e+2, 2.344755e+2, -664466.06, -736786.8, -25817.012, -0.009188481, 0.061143726, -656195.7, -14048.286, 0.0, 10.000183, 9.999223 
7.05033e+2, 2.4447459e+2, -579702.0, -666015.56, -33829.902, -0.009465639, 0.058839764, -568022.94, -23866.021, 0.0, 10.000183, 9.999036 
7.050361e+2, 2.5447395e+2, -439242.72, -545281.06, -26852.734, -0.0020961536, 0.08698935, -432830.4, 13333.295, 0.0, 10.000464, 9.999055 
7.050394e+2, 2.6447308e+2, -343621.72, -455573.28, -13439.253, -0.0017056997, 0.098786674, -342031.0, 6141.3247, 0.0, 10.000481, 9.998991 
7.050428e+2, 2.7447197e+2, -289752.53, -375947.9, -28060.428, -0.008277221, 0.08314229, -281422.6, -31239.535, 0.0, 10.000166, 9.999016 
7.05046e+2, 2.8447092e+2, -219192.2, -323805.66, -33665.16, -0.028577639, 0.09078416, -209294.94, -57101.906, 0.0, 10.000117, 9.998725 
7.0504904e+2, 2.9446992e+2, -79034.51, -207328.64, -24293.33, -0.06837913, 0.11471249, -74588.484, -20386.156, 0.0, 10.000414, 9.998709 
7.050523e+2, 3.0446777e+2, -4124.2305, -100984.055, -29293.898, -0.0591587, 0.01244298, 4046.1133, 4046.1133, 0.00000008201181, 10.000399, 9.999113 
7.0505667e+2, 3.14467e+2, -27370.725, -47470.82, 3269.4246, 0.061806157, 0.0189392, -26852.3, -26852.3, 0.0000012936833, 9.999959, 9.999692 
7.1499133e+2, 1.2447482e+2, -1719989.0, -1700158.8, 109101.234, -0.028361145, 0.0042299097, -1600523.1, 119623.99, 0.0, 9.999906, 10.000139 
7.1499425e+2, 1.3447468e+2, -1611279.8, -1662384.1, -85367.27, 0.081577875, 0.027844567, -1547722.5, 74427.0, 0.0, 10.000234, 9.999583 
7.14995e+2, 1.4447404e+2, -1466857.1, -1480026.8, -3558.6807, -0.15447737, -0.014852311, -1465957.0, 58198.23, 0.0, 10.000299, 10.000119 
7.1500003e+2, 1.5447415e+2, -1380521.8, -1380083.9, -5930.7593, -0.054430228, -0.02660164, -1374368.0, 51783.69, 0.0, 10.000188, 10.000185 
7.1500444e+2, 1.6447411e+2, -1334168.1, -1379516.1, -7575.401, -0.015621389, -0.016785778, -1332936.1, -4784.516, 0.0, 10.000146, 9.9995365 
7.1500844e+2, 1.7447391e+2, -1230932.6, -1279861.3, -10597.413, -0.011231131, 0.007268299, -1228736.0, 1420.3047, 0.0, 10.000187, 9.999528 
7.150123e+2, 1.8447359e+2, -1135043.0, -1180257.1, -20361.39, -0.0005942865, 0.02218659, -1127225.4, 4935.9194, 0.0, 10.000159, 9.999552 
7.1501607e+2, 1.9447316e+2, -1049656.1, -1086101.6, -11935.408, 0.006201069, 0.019560015, -1046095.3, -11928.947, 0.0, 10.000061, 9.999574 
7.150196e+2, 2.0447278e+2, -947073.0, -992108.8, -7606.6074, -0.0035112982, 0.028047001, -945822.94, -9651.974, 0.0, 10.000118, 9.99952 
7.1502316e+2, 2.1447247e+2, -811424.5, -873436.7, -13272.131, -0.028359078, 0.04037221, -808703.4, 29471.598, 0.0, 10.000367, 9.999541 
7.1502656e+2, 2.2447209e+2, -726413.0, -811304.0, -35851.426, -0.03116673, 0.06142743, -713298.2, 26881.668, 0.0, 10.000404, 9.999278 
7.1502995e+2, 2.3447163e+2, -660508.25, -727890.5, -33790.055, -0.0081276735, 0.08565516, -646482.94, -4297.183, 0.0, 10.00018, 9.999286 
7.150334e+2, 2.4447103e+2, -565273.6, -635467.25, -24598.031, 0.0057650385, 0.09849978, -557511.94, -13319.759, 0.0, 10.00018, 9.999247 
7.1503675e+2, 2.5447023e+2, -424504.25, -514417.6, -15883.498, 0.00963153, 0.08804299, -421780.84, 24418.445, 0.0, 10.0004635, 9.999269 
7.150398e+2, 2.6446912e+2, -369643.63, -509498.22, -24404.865, -0.007776137, 0.08311285, -365507.25, -17297.043, 0.0, 10.00048, 9.998621 
7.1504253e+2, 2.7446768e+2, -318170.0, -434112.13, -39437.848, -0.0506256, 0.07744654, -306026.94, -55801.434, 0.0, 10.000161, 9.998619 
7.15046e+2, 2.8446653e+2, -201936.48, -286679.13, -23886.453, -0.048504643, 0.08187397, -195667.38, -43430.438, 0.0, 10.000112, 9.998982 
7.1505016e+2, 2.9446563e+2, -59943.203, -165247.28, -11926.148, 0.005519629, 0.089814186, -58609.406, -4365.689, 0.0, 10.000403, 9.999002 
7.1505326e+2, 3.0446407e+2, -8427.693, -108063.336, -44267.867, -0.0008303245, 0.030797975, 8398.76, 8398.76, 0.00000004119849, 10.00039, 9.999069 
7.150558e+2, 3.1446353e+2, -47535.402, -87777.336, -13942.292, -0.013317146, 0.06528232, -43176.973, -43176.973, 0.0000010048329, 9.999952, 9.999418 
7.2499126e+2, 1.2447073e+2, -1663656.5, -1679770.6, 108968.14, -0.04314343, 0.0020363443, -1562448.0, 157739.06, 0.0, 10.000319, 10.000081 
7.249945e+2, 1.3447055e+2, -1610937.3, -1671967.8, -71976.7, 0.07824358, 0.029906163, -1563274.4, 58915.742, 0.0, 10.00028, 9.999493 
7.2499555e+2, 1.4446989e+2, -1481586.8, -1489554.4, -504.52982, -0.13530913, -0.009172619, -1481555.0, 42641.34, 0.0, 10.00021, 10.000096 
7.250005e+2, 1.5447009e+2, -1379056.5, -1381535.1, -13092.97, -0.035339702, -0.00950182, -1367144.4, 59047.957, 0.0, 10.000209, 10.000164 
7.250047e+2, 1.6447008e+2, -1323485.1, -1369518.8, -12379.387, -0.003000211, 0.0009076591, -1320367.3, 7824.964, 0.0, 10.000198, 9.999579 
7.250086e+2, 1.7446977e+2, -1228467.5, -1274063.3, -6117.355, -0.012763179, 0.011774522, -1227661.0, 2536.4434, 0.0, 10.000183, 9.99957 
7.250124e+2, 1.8446945e+2, -1123786.9, -1165779.4, -15365.522, -0.005531621, 0.0203488, -1118765.0, 13436.973, 0.0, 10.000197, 9.999634 
7.2501624e+2, 1.9446911e+2, -1015597.5, -1059553.9, -17909.744, 0.009682027, 0.018835466, -1009224.3, 24981.203, 0.0, 10.000254, 9.999662 
7.250198e+2, 2.0446874e+2, -941779.8, -1000572.4, -13883.612, 0.0020034867, 0.026428781, -938666.2, -2456.049, 0.0, 10.000203, 9.99942 
7.250233e+2, 2.1446827e+2, -869412.4, -913762.3, -15195.195, -0.029235361, 0.036305267, -864705.7, -26489.668, 0.0, 10.000021, 9.999432 
7.250267e+2, 2.2446786e+2, -779683.0, -835276.5, -36263.27, -0.035270482, 0.059160605, -761788.56, -21567.033, 0.0, 10.000031, 9.999293 
7.250302e+2, 2.3446749e+2, -643013.6, -716586.3, -38500.11, -0.011160483, 0.089060456, -626550.6, 15675.916, 0.0, 10.000288, 9.999311 
7.250336e+2, 2.4446692e+2, -539676.6, -619464.6, -35525.848, 0.0010298328, 0.10295392, -526151.4, 18081.137, 0.0, 10.0003395, 9.99928 
7.250369e+2, 2.5446612e+2, -469632.88, -531861.6, -40559.125, -0.000746493, 0.08847053, -449628.3, -3388.6902, 0.0, 10.000135, 9.999307 
7.2503996e+2, 2.6446503e+2, -418998.38, -528664.06, -43741.47, -0.02149355, 0.082715064, -403688.8, -55438.68, 0.0, 10.000121, 9.998662 
7.2504264e+2, 2.7446368e+2, -287323.2, -414880.6, -27244.47, -0.0646398, 0.079472095, -281747.84, -31483.064, 0.0, 10.000354, 9.998658 
7.250461e+2, 2.8446245e+2, -177930.39, -275192.0, -4523.359, -0.051278934, 0.07734181, -177720.48, -25443.855, 0.0, 10.000276, 9.998983 
7.2505045e+2, 2.9446143e+2, -145165.17, -206231.39, -14946.921, 0.027443329, 0.070066035, -141702.97, -87418.016, 0.0, 9.999818, 9.999003 
7.2505355e+2, 3.0446032e+2, -75651.53, -133216.78, -45544.688, 0.00998238, 0.053415123, -50556.91, -50556.91, 0.000000018939705, 9.999898, 9.999134 
7.250559e+2, 3.144599e+2, 47378.98, -46951.504, -8460.675, -0.041774478, 0.09307995, 48131.824, 48131.824, 0.0000007295325, 10.000625, 9.999376 
7.3499155e+2, 1.2446668e+2, -1669081.0, -1691461.4, 92443.97, -0.050012793, -0.00988651, -1587152.4, 133074.3, 0.0, 10.000319, 10.000002 
7.349948e+2, 1.344665e+2, -1617562.3, -1685264.1, -74082.766, 0.08127284, 0.026145952, -1569962.9, 52266.69, 0.0, 10.000279, 9.999402 
7.3499596e+2, 1.444658e+2, -1490815.0, -1508996.8, -2064.2473, -0.11436282, -0.0042847022, -1490583.6, 33653.01, 0.0, 10.000211, 9.999963 
7.3500085e+2, 1.5446606e+2, -1388467.5, -1402724.8, -11988.898, -0.016972002, 0.015454164, -1381648.0, 44585.785, 0.0, 10.000215, 10.000016 
7.35005e+2, 1.6446605e+2, -1313032.1, -1347960.6, -13614.849, 0.0056033554, 0.02749171, -1308352.1, 19881.766, 0.0, 10.000199, 9.999727 
7.350087e+2, 1.7446573e+2, -1216836.3, -1249615.3, -6621.771, -0.018326152, 0.020121295, -1215549.1, 14688.751, 0.0, 10.000181, 9.999739 
7.350126e+2, 1.8446541e+2, -1126550.9, -1171053.4, -14054.466, -0.016866583, 0.021740932, -1122484.0, 9757.744, 0.0, 10.000195, 9.9995985 
7.350164e+2, 1.944651e+2, -1019079.5, -1066632.9, -15674.9, 0.0018389845, 0.02648074, -1014377.56, 19867.95, 0.0, 10.000252, 9.999615 
7.350201e+2, 2.044648e+2, -944869.0, -1006548.5, -21024.484, 0.0038476514, 0.04623657, -938384.25, -2134.661, 0.0, 10.000201, 9.999381 
7.350235e+2, 2.1446452e+2, -872951.4, -920190.2, -21854.025, -0.009444164, 0.076427475, -864392.0, -26138.016, 0.0, 10.000017, 9.99939 
7.3502696e+2, 2.2446395e+2, -781762.25, -838869.9, -28208.813, -0.017489154, 0.08979939, -770178.06, -29917.58, 0.0, 10.000028, 9.99927 
7.350304e+2, 2.3446311e+2, -644698.94, -720028.2, -28539.588, -0.019819407, 0.07238197, -635107.56, 7162.1733, 0.0, 10.000287, 9.999289 
7.350337e+2, 2.4446231e+2, -548751.6, -638240.6, -42679.117, -0.025380217, 0.07275129, -531661.06, 12616.839, 0.0, 10.0003395, 9.999151 
7.350367e+2, 2.5446165e+2, -479534.4, -551275.1, -47853.016, -0.03542562, 0.08729546, -455600.13, -9315.588, 0.0, 10.000131, 9.999176 
7.3503983e+2, 2.6446086e+2, -388959.2, -465070.5, -35965.902, -0.045239266, 0.09672144, -374652.84, -26360.777, 0.0, 10.000116, 9.999102 
7.350431e+2, 2.7445996e+2, -255557.19, -347879.2, -17844.209, -0.052556768, 0.09103, -252228.25, -1927.566, 0.0, 10.00035, 9.999121 
7.350465e+2, 2.8445876e+2, -195081.53, -310279.06, -20572.523, -0.038969092, 0.07828804, -191517.84, -39205.844, 0.0, 10.000273, 9.998743 
7.3504996e+2, 2.9445732e+2, -165147.72, -246534.47, -31075.082, -0.00478085, 0.05337489, -154639.42, -100313.31, 0.0, 9.999812, 9.99873 
7.3505306e+2, 3.0445653e+2, -65560.95, -110909.086, -20145.232, -0.029680783, 0.07871022, -57904.445, -57904.445, 0.0000000073965225, 9.999892, 9.9992895 
7.350566e+2, 3.1445625e+2, 55244.914, -25761.158, 17850.47, -0.031346235, 0.11700142, 59004.0, 59004.0, 0.0000004773962, 10.000606, 9.999531 
7.449922e+2, 1.2446287e+2, -1609382.5, -1649700.4, 75261.88, -0.036667895, 0.00186371, -1551626.6, 168638.78, 0.0, 10.000674, 10.000115 
7.4499506e+2, 1.344627e+2, -1595729.8, -1662689.4, -66104.05, 0.071196936, 0.02859409, -1555110.6, 67156.38, 0.0, 10.00038, 9.999507 
7.4499613e+2, 1.4446197e+2, -1505380.0, -1532821.4, 19933.633, -0.11383756, -0.004486695, -1494901.4, 29372.994, 0.0, 10.000181, 9.999814 
7.4500126e+2, 1.5446216e+2, -1399000.1, -1426228.4, 9532.132, 0.0011033403, 0.024979947, -1395994.9, 30278.387, 0.0, 10.000221, 9.999852 
7.450054e+2, 1.6446213e+2, -1303942.4, -1333950.4, 4679.8413, 0.027710486, 0.038860187, -1303229.5, 25044.342, 0.0, 10.00022, 9.999813 
7.4500895e+2, 1.7446183e+2, -1212291.5, -1236425.3, 5643.002, -0.010561327, 0.022656538, -1211037.3, 19239.377, 0.0, 10.000166, 9.999836 
7.450127e+2, 1.844615e+2, -1134266.0, -1187165.6, -1546.8274, -0.018336505, 0.0246976, -1134220.8, -1940.5568, 0.0, 10.000195, 9.999489 
7.4501663e+2, 1.9446118e+2, -1016194.6, -1079290.8, -9624.926, -0.0038834587, 0.04120589, -1014759.06, 19525.814, 0.0, 10.000331, 9.999491 
7.450203e+2, 2.0446086e+2, -921180.1, -992352.6, -23898.803, -0.0003944192, 0.06453121, -913899.94, 22389.371, 0.0, 10.000352, 9.999406 
7.4502367e+2, 2.1446052e+2, -839295.56, -899804.4, -20677.662, -0.0052943258, 0.08756491, -832904.44, 5388.932, 0.0, 10.000231, 9.999426 
7.450271e+2, 2.2445995e+2, -765583.5, -830418.3, -13085.44, -0.012472767, 0.09406632, -763042.06, -22742.17, 0.0, 10.000135, 9.999277 
7.450305e+2, 2.3445903e+2, -676731.75, -734613.9, -11600.085, -0.023569895, 0.070767604, -674493.5, -32184.031, 0.0, 10.000064, 9.999295 
7.450338e+2, 2.4445817e+2, -592275.7, -666560.75, -26917.35, -0.032716103, 0.06787348, -583547.6, -39229.22, 0.0, 10.000073, 9.999084 
7.450368e+2, 2.5445744e+2, -476543.84, -558080.25, -29012.326, -0.04006546, 0.08298388, -467274.44, -20948.207, 0.0, 10.000186, 9.999103 
7.4504e+2, 2.6445678e+2, -379569.13, -452670.38, -25551.55, -0.04290881, 0.102855064, -371523.44, -23190.395, 0.0, 10.000145, 9.999173 
7.450434e+2, 2.7445614e+2, -312142.6, -366265.63, -36877.035, -0.037551306, 0.118042074, -293463.1, -43124.24, 0.0, 9.999922, 9.999201 
7.450466e+2, 2.84455e+2, -247464.66, -331471.94, -48531.305, -0.034084648, 0.10056564, -225284.23, -72934.37, 0.0, 9.999896, 9.998779 
7.450496e+2, 2.9445317e+2, -118115.02, -220281.92, -37220.375, -0.03804907, 0.0429233, -105993.45, -51626.99, 0.0, 10.000119, 9.998762 
7.4505275e+2, 3.0445263e+2, -28732.951, -105678.33, -6917.2163, -0.064837426, 0.09191129, -28116.055, -28116.055, 0.0000000015345106, 10.000199, 9.999178 
7.450571e+2, 3.1445205e+2, -19199.373, -66313.38, 4688.9814, -0.01347651, 0.108876154, -18737.238, -18737.238, 0.00000026410652, 10.0001135, 9.999489 
7.549931e+2, 1.2445935e+2, -1589611.9, -1610110.8, 50075.945, -0.012049361, 0.037649862, -1548747.3, 171555.33, 0.0, 10.000679, 10.000385 
7.549951e+2, 1.3445918e+2, -1575719.4, -1621036.8, -77810.62, 0.044501603, 0.036453146, -1517335.5, 104966.875, 0.0, 10.000379, 9.999793 
7.549961e+2, 1.4445838e+2, -1517069.3, -1556648.5, 18870.416, -0.13702326, -0.010195055, -1509514.4, 14795.085, 0.0, 10.00018, 9.999651 
7.5500166e+2, 1.544584e+2, -1411096.5, -1451856.3, 11567.599, 0.017094929, 0.020208012, -1408042.4, 18268.047, 0.0, 10.000223, 9.999676 
7.5500596e+2, 1.6445832e+2, -1301363.8, -1329448.8, 2237.6033, 0.059952617, 0.034849558, -1301186.6, 27125.04, 0.0, 10.000223, 9.999844 
7.5500935e+2, 1.7445803e+2, -1209601.9, -1231808.8, 3775.696, 0.007898127, 0.01842396, -1208977.5, 21336.17, 0.0, 10.000168, 9.999867 
7.55013e+2, 1.8445772e+2, -1148137.9, -1215076.0, 2530.8057, -0.013426872, 0.028170455, -1148042.4, -15724.9, 0.0, 10.000191, 9.999299 
7.550169e+2, 1.9445738e+2, -1030952.25, -1109186.9, -4254.42, -0.008790749, 0.06315139, -1030721.56, 3601.9226, 0.0, 10.000328, 9.999287 
7.550205e+2, 2.0445694e+2, -915476.5, -979909.6, -28749.994, -0.011732995, 0.08153349, -904513.56, 31815.494, 0.0, 10.000348, 9.999494 
7.550237e+2, 2.1445638e+2, -832103.7, -884568.25, -25266.672, -0.019194681, 0.07016533, -821914.3, 16419.742, 0.0, 10.000229, 9.999533 
7.550271e+2, 2.2445582e+2, -763039.3, -824327.5, -16498.525, -0.023306847, 0.07241461, -758880.25, -18540.617, 0.0, 10.000133, 9.99932 
7.550306e+2, 2.3445527e+2, -674790.7, -729537.4, -14082.513, -0.024218151, 0.08334281, -671380.6, -29034.797, 0.0, 10.00006, 9.999332 
7.5503397e+2, 2.4445453e+2, -593698.06, -668517.94, -23392.941, -0.02228732, 0.08777162, -586986.25, -42632.203, 0.0, 10.000069, 9.999074 
7.5503725e+2, 2.544535e+2, -478219.5, -561203.9, -24310.852, -0.017007438, 0.076895356, -471621.97, -25257.441, 0.0, 10.000184, 9.999082 
7.550404e+2, 2.6445276e+2, -399584.13, -494063.22, -33412.016, -0.017137365, 0.10209849, -388962.3, -40589.32, 0.0, 10.000144, 9.99889 
7.5504345e+2, 2.7445224e+2, -333292.47, -408974.13, -44252.504, -0.022664927, 0.15789436, -312907.75, -62528.42, 0.0, 9.999916, 9.998911 
7.550465e+2, 2.8445104e+2, -227700.19, -289363.53, -40860.555, -0.03944873, 0.14253724, -207344.2, -54953.965, 0.0, 9.999891, 9.999071 
7.5504935e+2, 2.944492e+2, -96578.84, -174161.58, -27746.893, -0.07526464, 0.04365976, -87676.81, -33271.29, 0.0, 10.000113, 9.999083 
7.550526e+2, 3.044487e+2, -54155.277, -157392.63, -9631.939, -0.09859213, 0.09812203, -53264.316, -53264.316, 0.00000000001992495, 10.000195, 9.998824 
7.5505745e+2, 3.1444728e+2, -38412.184, -102122.42, 1120.1908, 0.005804514, 0.074577324, -38392.496, -38392.496, 0.000000109993245, 10.000096, 9.99925 
7.649934e+2, 1.24455914e+2, -1681383.1, -1659373.4, 70173.67, -0.019084247, 0.043270733, -1599346.9, 120990.375, 0.0, 10.000068, 10.000344 
7.649957e+2, 1.3445587e+2, -1557234.5, -1616470.5, -71089.086, 0.054607373, 0.05940533, -1509840.3, 112495.92, 0.0, 10.000525, 9.999753 
7.6499677e+2, 1.4445509e+2, -1448406.0, -1520235.5, 15622.51, -0.1125229, 0.013156906, -1445155.3, 79187.94, 0.0, 10.000637, 9.9996805 
7.6500195e+2, 1.5445492e+2, -1377357.3, -1432153.1, 24096.055, 0.016593818, 0.021179374, -1368268.6, 58076.688, 0.0, 10.00044, 9.999707 
7.6500624e+2, 1.6445471e+2, -1287580.1, -1337080.3, 22077.793, 0.05357725, 0.030021459, -1279164.0, 49183.203, 0.0, 10.000378, 9.999718 
7.650097e+2, 1.7445444e+2, -1172029.5, -1228464.9, 10215.583, 0.0150255235, 0.028352818, -1170237.3, 60112.188, 0.0, 10.00049, 9.999735 
7.6501346e+2, 1.8445408e+2, -1113850.8, -1201481.8, 5951.1147, -0.0014477383, 0.04106558, -1113448.4, 18905.42, 0.0, 10.000439, 9.999272 
7.650173e+2, 1.944536e+2, -1053561.9, -1122409.8, 12088.811, -0.0020610949, 0.06367479, -1051500.9, -17140.107, 0.0, 10.000183, 9.999266 
7.650208e+2, 2.0445305e+2, -946036.4, -989506.6, -2471.6765, -0.0076467087, 0.07009268, -945896.3, -9529.395, 0.0, 10.000116, 9.999539 
7.6502407e+2, 2.1445242e+2, -821585.0, -874057.7, -3835.6206, -0.016086658, 0.046896394, -821306.1, 17065.965, 0.0, 10.000278, 9.99958 
7.6502734e+2, 2.244519e+2, -744425.6, -822664.8, -5887.351, -0.01929098, 0.05323661, -743985.06, -3607.825, 0.0, 10.000294, 9.999253 
7.6503074e+2, 2.3445152e+2, -670779.4, -736332.7, -13585.572, -0.017236251, 0.087769054, -668075.4, -25692.828, 0.0, 10.000126, 9.999254 
7.6503414e+2, 2.4445081e+2, -593604.9, -671081.9, -18861.879, -0.015323852, 0.10077801, -589256.94, -44866.223, 0.0, 10.00008, 9.99905 
7.650375e+2, 2.5444967e+2, -478548.13, -563586.44, -20435.965, -0.014229419, 0.07960526, -473892.0, -27489.662, 0.0, 10.000192, 9.999062 
7.650406e+2, 2.644488e+2, -392543.56, -497920.03, -30639.988, -0.019143974, 0.09814877, -384282.16, -35870.29, 0.0, 10.000225, 9.998823 
7.6504344e+2, 2.744482e+2, -303106.22, -402259.1, -26572.975, -0.029606704, 0.15140106, -296433.72, -46014.44, 0.0, 10.000157, 9.998839 
7.650465e+2, 2.8444698e+2, -195912.33, -274443.22, -14585.23, -0.040542293, 0.13669215, -193290.97, -40860.38, 0.0, 10.000111, 9.999068 
7.650497e+2, 2.944452e+2, -96990.734, -174872.86, -26284.426, -0.057053387, 0.04375748, -88950.13, -34504.723, 0.0, 10.000112, 9.999079 
7.6505286e+2, 3.0444482e+2, -78889.56, -171034.56, -17850.547, -0.08743466, 0.11463791, -75552.375, -75552.375, 0.0, 10.0000305, 9.99881 
7.650572e+2, 3.1444305e+2, -62582.75, -89330.12, 16631.48, -0.014843375, 0.053028934, -54614.887, -54614.887, 0.000000028836135, 9.999824, 9.99947 
7.7499306e+2, 1.2445263e+2, -1706422.6, -1710098.8, 73719.734, -0.06424411, 0.022888796, -1634518.0, 85850.99, 0.00000000003061157, 10.000062, 9.999999 
7.7499664e+2, 1.344528e+2, -1582645.6, -1668844.5, -54161.348, 0.09762319, 0.09792482, -1556527.9, 65840.37, 0.0, 10.0005245, 9.999393 
7.7499807e+2, 1.4445208e+2, -1431959.0, -1487329.9, 7399.504, -0.045987032, 0.06530239, -1430987.3, 93387.96, 0.0, 10.000641, 9.999905 
7.7500224e+2, 1.5445167e+2, -1359968.0, -1397198.5, 16939.21, -0.0027554887, 0.026132308, -1353414.5, 72963.09, 0.0, 10.0004425, 9.999947 
7.750062e+2, 1.6445135e+2, -1307640.8, -1378129.4, 24847.17, 0.0060899775, 0.02295437, -1299762.6, 28617.844, 0.0, 10.000376, 9.999436 
7.750101e+2, 1.744511e+2, -1193276.9, -1272405.1, 14587.759, 0.009004871, 0.05275791, -1190673.3, 39710.61, 0.0, 10.000489, 9.9994335 
7.75014e+2, 1.8445063e+2, -1104287.5, -1181225.1, -3588.5288, 0.014644586, 0.063358344, -1104120.5, 28268.65, 0.0, 10.000436, 9.9994135 
7.7501756e+2, 1.9444987e+2, -1042372.94, -1099089.6, 2482.4258, 0.013914667, 0.043123886, -1042264.5, -7867.926, 0.0, 10.000181, 9.999428 
7.750211e+2, 2.0444922e+2, -946344.2, -988812.0, 1904.5935, 0.008524317, 0.030170053, -946258.94, -9856.226, 0.0, 10.000111, 9.999546 
7.7502453e+2, 2.1444869e+2, -822653.1, -875376.0, 2218.4277, 0.0023777988, 0.017567862, -822559.94, 15847.266, 0.0, 10.000275, 9.999574 
7.750278e+2, 2.2444819e+2, -757664.1, -849630.9, -12343.458, -0.0018299313, 0.036034383, -756036.25, -15623.564, 0.0, 10.000291, 9.999069 
7.7503103e+2, 2.3444776e+2, -684331.94, -764428.75, -19603.342, -0.004908352, 0.084552705, -679791.5, -37372.074, 0.0, 10.000125, 9.999062 
7.750342e+2, 2.4444702e+2, -596539.2, -676386.06, -15637.657, -0.014869033, 0.10710238, -593585.9, -49157.555, 0.0, 10.000076, 9.999016 
7.750374e+2, 2.544459e+2, -480774.72, -567001.0, -15609.577, -0.03360731, 0.08952137, -478035.9, -31596.258, 0.0, 10.000187, 9.999041 
7.7504045e+2, 2.6444492e+2, -383613.56, -478336.9, -32800.82, -0.04975815, 0.09088569, -373364.28, -24914.686, 0.0, 10.00022, 9.9989605 
7.7504325e+2, 2.7444404e+2, -293882.7, -382150.22, -28298.234, -0.061189327, 0.10347018, -285589.56, -35131.332, 0.0, 10.000154, 9.9989805 
7.750466e+2, 2.8444275e+2, -215517.3, -314451.9, -14981.959, -0.04135004, 0.08665601, -213298.3, -60827.74, 0.0, 10.000107, 9.9987955 
7.7505046e+2, 2.944411e+2, -119613.195, -220015.22, -24402.943, 0.012797256, 0.037376177, -113996.234, -59509.832, 0.0, 10.000103, 9.998773 
7.750534e+2, 3.04441e+2, -59455.016, -128890.1, -24123.535, -0.03447051, 0.13795617, -51896.65, -51896.65, 0.0, 10.000023, 9.999104 
7.7505636e+2, 3.1443933e+2, -20611.088, -92.52138, 8059.681, -0.08379943, 0.05317282, 2694.703, 2694.703, 0.0000000029769756, 9.999814, 10.000088 
7.849933e+2, 1.2444937e+2, -1653549.8, -1689798.1, 47121.934, -0.06314143, 0.035699777, -1621186.6, 99215.13, 0.0000000009851104, 10.000446, 9.999953 
7.849971e+2, 1.3444945e+2, -1618706.1, -1689539.3, -47210.918, 0.10225326, 0.10385506, -1595104.0, 27298.156, 0.0, 10.000293, 9.999364 
7.8499866e+2, 1.4444873e+2, -1492155.8, -1522037.5, 12782.573, -0.028705502, 0.07551138, -1487433.9, 36975.484, 0.0, 10.000251, 9.999856 
7.8500277e+2, 1.544484e+2, -1365978.0, -1405541.1, -168.81071, 0.0064062406, 0.050593715, -1365977.4, 60433.906, 0.0, 10.000425, 9.999898 
7.850066e+2, 1.6444808e+2, -1289556.3, -1370425.3, 9355.727, 0.0082700895, 0.050802138, -1288488.0, 39926.023, 0.0, 10.0005045, 9.999428 
7.850106e+2, 1.7444775e+2, -1195003.0, -1274366.8, 20494.723, 0.004197172, 0.071898475, -1190022.9, 40395.05, 0.0, 10.000482, 9.999425 
7.8501445e+2, 1.8444714e+2, -1088424.4, -1167177.5, 7790.61, 0.011384669, 0.068991445, -1087661.0, 44762.656, 0.0, 10.000517, 9.999472 
7.850181e+2, 1.9444627e+2, -973698.06, -1058797.9, 5131.3804, 0.020714197, 0.029061522, -973389.8, 61041.83, 0.0, 10.000623, 9.999492 
7.8502154e+2, 2.0444563e+2, -889325.06, -973830.5, -2237.448, 0.021045687, 0.020013765, -889265.9, 47171.563, 0.0, 10.000557, 9.9994335 
7.850249e+2, 2.1444531e+2, -830395.8, -893200.75, -11531.655, 0.015604822, 0.041053478, -828345.44, 10095.367, 0.0, 10.000282, 9.999447 
7.850282e+2, 2.2444476e+2, -778210.4, -867793.1, -24716.527, 0.009338836, 0.063551985, -771843.4, -31396.043, 0.0, 10.000186, 9.998995 
7.8503126e+2, 2.3444392e+2, -660929.0, -760976.3, -24373.82, -0.00042795305, 0.07815206, -655306.94, -12848.989, 0.0, 10.00032, 9.99899 
7.8503436e+2, 2.4444309e+2, -556332.3, -650456.6, -12148.627, -0.016748847, 0.09325339, -554789.6, -10322.164, 0.0, 10.000325, 9.999073 
7.850375e+2, 2.544423e+2, -480062.7, -559668.8, -6690.6094, -0.04147596, 0.10192245, -479504.28, -33028.914, 0.0, 10.000162, 9.999103 
7.850405e+2, 2.644414e+2, -403982.13, -484135.03, -23709.367, -0.057868324, 0.107124776, -397494.03, -49009.867, 0.0, 10.000062, 9.998997 
7.850434e+2, 2.7444032e+2, -304997.88, -383944.38, -28481.832, -0.062626205, 0.095306724, -295795.16, -45300.625, 0.0, 10.000061, 9.999012 
7.850467e+2, 2.84439e+2, -224165.72, -316163.72, -8879.553, -0.038373422, 0.07160616, -223316.52, -70809.22, 0.0, 10.000037, 9.998817 
7.850505e+2, 2.944375e+2, -138799.08, -226973.7, 4369.489, 0.018535128, 0.036906935, -138583.08, -84061.055, 0.0, 9.999962, 9.998793 
7.8505343e+2, 3.0443743e+2, -76983.42, -145275.42, 5631.8535, -0.0316658, 0.14496565, -76522.09, -76522.09, 0.0, 9.999938, 9.999031 
7.8505623e+2, 3.144357e+2, 22228.184, 43481.617, 1833.1637, -0.087809466, 0.057664078, 43638.574, 43638.574, 0.0, 10.00001, 10.000294 
7.949941e+2, 1.2444618e+2, -1635147.0, -1653454.3, 29786.955, -0.028843258, 0.08329446, -1613138.9, 107296.12, 0.0000000034592607, 10.000453, 10.000201 
7.949971e+2, 1.344458e+2, -1597274.6, -1646437.0, -53338.46, 0.06715511, 0.07591662, -1563125.8, 59312.125, 0.0, 10.000298, 9.999658 
7.949986e+2, 1.4444503e+2, -1514170.4, -1567738.3, 16801.254, -0.06258045, 0.0429965, -1509336.9, 15108.54, 0.0, 10.000252, 9.999541 
7.950035e+2, 1.5444514e+2, -1389979.4, -1454651.1, 6743.311, 0.03938965, 0.09494912, -1389283.8, 37161.914, 0.0, 10.0004225, 9.999561 
7.950076e+2, 1.6444497e+2, -1271522.1, -1332834.1, 8090.883, 0.055120517, 0.11390298, -1270472.4, 57975.117, 0.0, 10.000503, 9.999687 
7.9501104e+2, 1.7444439e+2, -1174870.0, -1233040.4, 19921.078, -0.0004602323, 0.08574682, -1168701.9, 61749.703, 0.0, 10.000483, 9.999709 
7.9501474e+2, 1.844437e+2, -1090779.8, -1171069.0, 10748.444, -0.013389078, 0.05726035, -1089365.8, 43091.66, 0.0, 10.000513, 9.999446 
7.950186e+2, 1.944428e+2, -977154.06, -1065225.9, 8970.5625, 0.016053246, 0.020041361, -976249.6, 58216.156, 0.0, 10.000619, 9.999449 
7.9502213e+2, 2.044423e+2, -905908.94, -1007503.4, -12719.184, 0.027623953, 0.038413502, -904340.75, 32130.303, 0.0, 10.000553, 9.999205 
7.950253e+2, 2.1444233e+2, -847682.25, -928403.4, -21835.492, 0.021599822, 0.11720805, -842154.25, -3681.596, 0.0, 10.000278, 9.9992075 
7.950284e+2, 2.2444162e+2, -777138.4, -864572.06, -21330.271, 0.011372922, 0.13543583, -772212.2, -31731.191, 0.0, 10.000181, 9.99902 
7.9503155e+2, 2.3444e+2, -658420.2, -755245.75, -19038.01, -0.0050227116, 0.06858679, -654811.4, -12313.496, 0.0, 10.000319, 9.999031 
7.9503465e+2, 2.4443902e+2, -546484.7, -629590.7, -17952.486, -0.022480112, 0.05976984, -542772.44, 1735.5438, 0.0, 10.000323, 9.999218 
7.9503775e+2, 2.5443888e+2, -470082.28, -538338.4, -12313.649, -0.04139814, 0.11805733, -467928.78, -21419.479, 0.0, 10.000158, 9.99925 
7.950407e+2, 2.6443827e+2, -408621.6, -493046.25, -24578.271, -0.047445208, 0.14631303, -401987.5, -53472.02, 0.0, 10.000059, 9.998938 
7.950437e+2, 2.7443698e+2, -310866.5, -394876.6, -27639.227, -0.03605914, 0.12239954, -302588.84, -52060.473, 0.0, 10.000055, 9.99894 
7.9504675e+2, 2.8443566e+2, -204500.97, -273951.44, -10898.969, -0.033248838, 0.089678034, -202830.73, -50289.883, 0.0, 10.0000305, 9.99911 
7.9504985e+2, 2.9443443e+2, -117243.56, -180882.16, 2705.0723, -0.044937182, 0.04970195, -117128.79, -62577.11, 0.0, 9.999955, 9.999112 
7.9505277e+2, 3.044342e+2, -105768.8, -204456.52, 7273.7544, -0.08508989, 0.14226337, -105235.56, -105235.56, 0.0, 9.999935, 9.998627 
7.9505676e+2, 3.14432e+2, 7496.9604, 15331.929, 4307.0596, -0.03304243, 0.055290386, 17236.596, 17236.596, 0.0, 9.999999, 10.000106 
8.049946e+2, 1.2444269e+2, -1667203.5, -1668673.6, 27889.469, -0.018527798, 0.096864626, -1640039.4, 80430.55, 0.0000000057252847, 10.000231, 10.000205 
8.049974e+2, 1.3444221e+2, -1566668.5, -1627668.3, -67935.31, 0.06303276, 0.07725913, -1522700.6, 99772.945, 0.0, 10.000492, 9.999692 
8.04999e+2, 1.4444146e+2, -1477670.9, -1555705.6, 947.57666, -0.06055471, 0.04501268, -1477659.4, 46821.734, 0.0, 10.000528, 9.99949 
8.0500394e+2, 1.5444161e+2, -1398459.5, -1465662.3, 11816.75, 0.042691562, 0.10721271, -1396442.3, 30038.87, 0.0, 10.000394, 9.9995 
8.0500805e+2, 1.6444139e+2, -1287802.5, -1332844.3, 19028.826, 0.062333096, 0.12375069, -1280839.8, 47643.402, 0.0, 10.000357, 9.999758 
8.050116e+2, 1.7444074e+2, -1176697.4, -1225231.1, 14004.73, 0.009715476, 0.07716245, -1172946.1, 57541.363, 0.0, 10.000433, 9.999786 
8.0501527e+2, 1.8444006e+2, -1103160.3, -1182589.5, -3315.6016, -0.007708088, 0.05071459, -1103022.0, 29471.047, 0.0, 10.000453, 9.999396 
8.050191e+2, 1.9443938e+2, -1011000.7, -1088235.1, -6844.2686, 0.0091590965, 0.04148436, -1010398.9, 24101.234, 0.0, 10.000417, 9.999389 
8.050226e+2, 2.0443894e+2, -924748.1, -1016925.6, -25388.82, 0.020972459, 0.06759284, -918217.8, 18287.607, 0.0, 10.000426, 9.999201 
8.050257e+2, 2.1443877e+2, -817047.25, -913287.6, -18100.53, 0.029030362, 0.12807563, -813755.56, 24753.055, 0.0, 10.000489, 9.999208 
8.050288e+2, 2.2443804e+2, -736647.8, -840569.25, -4009.6248, 0.020117424, 0.1407491, -736493.3, 4023.7617, 0.0, 10.000441, 9.999059 
8.050317e+2, 2.3443657e+2, -665268.44, -753862.7, -2148.2424, -0.00990678, 0.085884996, -665216.4, -22684.352, 0.0, 10.000251, 9.999073 
8.050349e+2, 2.4443561e+2, -568767.3, -639844.2, -6422.112, -0.027590275, 0.076384015, -568191.7, -23650.025, 0.0, 10.000169, 9.999222 
8.0503803e+2, 2.544353e+2, -459405.0, -533136.25, -13228.142, -0.031162094, 0.11628151, -457103.56, -10558.868, 0.0, 10.000232, 9.999251 
8.05041e+2, 2.6443467e+2, -385617.8, -481264.5, -29138.35, -0.031977672, 0.14206122, -377440.13, -28888.895, 0.0, 10.000215, 9.998943 
8.050438e+2, 2.7443355e+2, -306318.13, -391882.1, -27519.504, -0.02712599, 0.13686103, -298231.44, -47668.816, 0.0, 10.000084, 9.998947 
8.0504674e+2, 2.8443238e+2, -205756.36, -263927.13, -13271.38, -0.0325955, 0.11260888, -202871.61, -50297.734, 0.0, 9.999977, 9.999205 
8.050497e+2, 2.9443118e+2, -116009.32, -169160.7, -17509.102, -0.055569526, 0.06585353, -110759.93, -56175.99, 0.0, 9.999916, 9.999211 
8.0505264e+2, 3.0443072e+2, -114791.195, -227217.25, -6802.6987, -0.09742711, 0.1388631, -114381.07, -114381.07, 0.0, 9.999952, 9.998462 
8.050568e+2, 3.1442863e+2, 23087.23, 29053.682, 7078.1777, -0.0329768, 0.079455405, 33751.617, 33751.617, 0.0, 10.00008, 10.00016 
8.149945e+2, 1.24439e+2, -1683414.6, -1703144.8, 27732.938, -0.04462826, 0.08269547, -1663844.4, 56661.17, 0.000000004999778, 10.000236, 9.999966 
8.149981e+2, 1.3443875e+2, -1584121.3, -1661840.5, -58598.72, 0.08422765, 0.10854091, -1552668.1, 69840.52, 0.0, 10.000485, 9.999459 
8.149999e+2, 1.4443803e+2, -1462668.1, -1525240.8, -5012.1406, -0.028317086, 0.083096504, -1462269.3, 62246.555, 0.0, 10.000528, 9.999701 
8.150041e+2, 1.5443784e+2, -1381423.9, -1432744.6, 7706.0313, 0.015323452, 0.08758123, -1380291.8, 46225.566, 0.0, 10.000402, 9.999723 
8.150081e+2, 1.6443744e+2, -1296033.8, -1350789.6, 20888.426, 0.02794548, 0.079241045, -1288975.1, 39545.355, 0.0, 10.0003605, 9.999632 
8.150122e+2, 1.7443675e+2, -1187042.5, -1245466.4, 16851.078, 0.030637762, 0.044376057, -1182530.6, 47995.145, 0.0, 10.000428, 9.999649 
8.1501603e+2, 1.8443628e+2, -1109060.3, -1193992.3, -5209.7314, 0.024196334, 0.049079724, -1108741.9, 23788.434, 0.0, 10.000448, 9.99932 
8.150194e+2, 1.9443609e+2, -1016377.7, -1099289.9, -8120.8794, -0.0014243991, 0.09472267, -1015589.8, 18944.344, 0.0, 10.000415, 9.999313 
8.1502277e+2, 2.0443556e+2, -910291.0, -986134.8, -24032.807, -0.00068117917, 0.10812889, -903316.94, 33223.11, 0.0, 10.0004225, 9.9994135 
8.150262e+2, 2.1443468e+2, -801354.7, -879975.44, -15826.638, 0.035486344, 0.073734306, -798288.3, 40260.277, 0.0, 10.000485, 9.999439 
8.150294e+2, 2.2443402e+2, -732485.7, -831698.75, -11456.67, 0.03292055, 0.07978549, -731179.94, 9375.539, 0.0, 10.000439, 9.999121 
8.1503195e+2, 2.3443367e+2, -661888.94, -746734.4, -9095.156, -0.017454494, 0.12927508, -660924.94, -18364.773, 0.0, 10.00025, 9.999123 
8.150349e+2, 2.4443288e+2, -579151.2, -661255.56, -5231.137, -0.034839906, 0.14138679, -578819.25, -34250.81, 0.0, 10.000167, 9.999076 
8.1503844e+2, 2.5443155e+2, -470823.16, -556012.7, -10525.755, -0.012015073, 0.09637399, -469541.88, -22960.494, 0.0, 10.000228, 9.999097 
8.150414e+2, 2.644306e+2, -381851.75, -472204.66, -33489.492, -0.012863162, 0.096399255, -370792.47, -22201.383, 0.0, 10.000209, 9.999009 
8.150438e+2, 2.7443013e+2, -301592.06, -381013.7, -31369.314, -0.0410772, 0.14296281, -290696.72, -40099.785, 0.0, 10.000078, 9.999024 
8.150466e+2, 2.8442916e+2, -211969.45, -276678.66, -16308.719, -0.042581275, 0.14163905, -208091.55, -55485.375, 0.0, 9.999975, 9.999119 
8.1505007e+2, 2.944277e+2, -124511.92, -185950.7, -18538.188, -0.015912002, 0.079185225, -119351.72, -64732.48, 0.0, 9.999911, 9.9991 
8.1505287e+2, 3.04427e+2, -111908.03, -219089.14, -1158.1477, -0.07063569, 0.1307834, -111895.516, -111895.516, 0.0, 9.999945, 9.998521 
8.1505626e+2, 3.1442553e+2, 40492.656, 68180.47, 11726.046, -0.09771286, 0.12728044, 72479.164, 72479.164, 0.0000000016901937, 10.000068, 10.000435 
8.2499456e+2, 1.2443511e+2, -1709120.4, -1726278.5, 13131.635, -0.054903433, 0.0705757, -1702013.8, 18529.375, 0.0000000017683296, 10.000107, 9.999867 
8.249986e+2, 1.3443494e+2, -1616649.8, -1685449.4, -54327.914, 0.09522596, 0.11149802, -1586746.6, 35799.434, 0.0, 10.000296, 9.99939 
8.250005e+2, 1.4443427e+2, -1475400.9, -1521267.8, -6547.18, -0.005646337, 0.090065934, -1474484.6, 50068.023, 0.0, 10.000398, 9.999791 
8.2500446e+2, 1.5443398e+2, -1366534.5, -1414354.5, -5041.7827, 0.013859425, 0.07485641, -1366008.8, 60545.68, 0.0, 10.000458, 9.999823 
8.2500845e+2, 1.6443354e+2, -1283094.1, -1351186.1, 8755.81, 0.018288452, 0.060345564, -1281986.3, 46571.566, 0.0, 10.00048, 9.999571 
8.250127e+2, 1.744329e+2, -1184355.3, -1252492.8, 9706.116, 0.030718721, 0.038297433, -1182999.6, 47563.62, 0.0, 10.000483, 9.999574 
8.2501656e+2, 1.844325e+2, -1103358.3, -1187932.4, -7262.612, 0.02945879, 0.05154691, -1102739.1, 29828.496, 0.0, 10.000474, 9.999349 
8.2501984e+2, 1.9443236e+2, -1009281.6, -1092063.4, -3273.393, 0.002132615, 0.09922596, -1009152.4, 25418.701, 0.0, 10.000448, 9.999347 
8.250232e+2, 2.0443186e+2, -912506.06, -978544.1, -19386.098, -0.0013187329, 0.109233916, -907235.7, 29341.027, 0.0, 10.00037, 9.999491 
8.250266e+2, 2.1443097e+2, -832446.06, -885969.06, -22889.25, 0.02812278, 0.06645229, -823992.6, 14592.221, 0.0, 10.000234, 9.999519 
8.250297e+2, 2.2443034e+2, -757933.94, -841892.56, -23693.035, 0.026422216, 0.07056861, -751709.25, -11118.144, 0.0, 10.000256, 9.99914 
8.2503235e+2, 2.3443004e+2, -628408.9, -728923.5, -25226.035, -0.014858373, 0.124592975, -622433.2, 20162.1, 0.0, 10.000473, 9.999137 
8.250353e+2, 2.4442926e+2, -543239.9, -650223.9, -24558.832, -0.031869892, 0.13941105, -537871.6, 6732.0996, 0.0, 10.000441, 9.99902 
8.250385e+2, 2.5442788e+2, -493383.3, -573225.2, -23924.291, -0.018892094, 0.09579592, -486763.38, -40145.87, 0.0, 10.000101, 9.999039 
8.2504135e+2, 2.6442695e+2, -413229.63, -474360.47, -36963.066, -0.021708893, 0.09405531, -395831.4, -47204.223, 0.0, 9.999939, 9.999123 
8.250438e+2, 2.7442652e+2, -303790.4, -367891.94, -32208.168, -0.04208756, 0.13572843, -290403.13, -39771.305, 0.0, 10.000004, 9.99915 
8.2504666e+2, 2.8442568e+2, -207420.5, -276705.34, -13749.193, -0.04226034, 0.13964005, -204791.78, -52151.87, 0.0, 10.000016, 9.999098 
8.2504994e+2, 2.9442436e+2, -119572.836, -186186.36, -11538.476, -0.021775512, 0.09199877, -117630.81, -62978.555, 0.0, 9.999958, 9.999075 
8.250527e+2, 3.0442333e+2, -123464.95, -224059.02, 11014.468, -0.07530134, 0.1138841, -122273.055, -122273.055, 0.0, 9.999862, 9.998528 
8.2505614e+2, 3.144221e+2, -4229.024, 61171.42, 13891.646, -0.092855014, 0.1296273, 63999.813, 63999.813, 0.000000023716037, 9.999699, 10.000564 
8.349946e+2, 1.2443106e+2, -1705139.0, -1719270.5, 12284.711, -0.062931836, 0.060572494, -1698033.0, 22549.139, 0.000000000051048894, 10.000109, 9.999916 
8.349989e+2, 1.3443083e+2, -1607168.1, -1668909.0, -46294.816, 0.093518086, 0.08545997, -1582395.1, 40189.906, 0.0, 10.000307, 9.999498 
8.3500105e+2, 1.444302e+2, -1478300.0, -1528898.1, -5458.113, 0.0043599764, 0.0643338, -1477717.9, 46873.445, 0.0, 10.000405, 9.999735 
8.3500516e+2, 1.5443005e+2, -1370773.6, -1421285.6, -2874.7776, 0.035294298, 0.06841928, -1370610.6, 55981.65, 0.0, 10.00045, 9.999778 
8.3500904e+2, 1.6442975e+2, -1282253.4, -1349311.9, 8347.3545, 0.029715655, 0.068713285, -1281230.0, 47364.82, 0.0, 10.000477, 9.999586 
8.350129e+2, 1.7442927e+2, -1183160.4, -1251340.6, 10409.02, 0.008400519, 0.060999483, -1181606.8, 48992.598, 0.0, 10.000487, 9.99958 
8.350168e+2, 1.8442877e+2, -1095067.6, -1170648.9, -8704.847, 0.005731848, 0.058694318, -1094078.0, 38526.508, 0.0, 10.000474, 9.999467 
8.350204e+2, 1.944282e+2, -1001006.9, -1073640.0, -4423.627, 0.017152132, 0.05361343, -1000738.44, 33872.41, 0.0, 10.0004425, 9.9994755 
8.3502376e+2, 2.0442784e+2, -916612.06, -986625.75, -25281.639, 0.01647997, 0.070464894, -908437.4, 28177.773, 0.0, 10.000367, 9.999436 
8.3502656e+2, 2.1442768e+2, -837133.8, -895494.7, -28390.418, 0.005086846, 0.1061606, -825601.7, 13015.364, 0.0, 10.000232, 9.9994545 
8.350296e+2, 2.2442701e+2, -760452.3, -847021.2, -17221.268, -0.0012298536, 0.11255882, -757152.25, -16528.338, 0.0, 10.000254, 9.999105 
8.350329e+2, 2.3442575e+2, -630783.4, -733514.1, -17021.348, -0.0031970243, 0.07336712, -628036.56, 14600.506, 0.0, 10.000471, 9.999107 
8.350358e+2, 2.4442482e+2, -541337.94, -645506.2, -36695.363, -0.019901913, 0.073195614, -529709.4, 14937.61, 0.0, 10.000437, 9.999054 
8.3503824e+2, 2.5442433e+2, -491584.38, -568529.3, -36114.08, -0.05542123, 0.11427647, -477289.84, -30636.947, 0.0, 10.000096, 9.999073 
8.350409e+2, 2.6442367e+2, -401986.78, -451319.66, -35710.367, -0.06231591, 0.13271178, -383252.03, -34592.484, 0.0, 9.999938, 9.999282 
8.3504397e+2, 2.7442282e+2, -292682.94, -344230.94, -29226.096, -0.031635623, 0.112681754, -279489.47, -28822.037, 0.0, 9.999999, 9.999315 
8.3504677e+2, 2.84422e+2, -205740.44, -271305.06, -15293.587, -0.032742802, 0.10689315, -202348.55, -49673.48, 0.0, 10.000009, 9.999139 
8.3504933e+2, 2.9442117e+2, -118211.875, -181102.88, -12423.192, -0.07829241, 0.10867473, -115846.8, -61164.074, 0.0, 9.9999485, 9.999114 
8.3505213e+2, 3.0441976e+2, -126090.914, -229190.95, 4989.062, -0.116996706, 0.091486596, -125850.055, -125850.055, 0.0, 9.999859, 9.998493 
8.3505654e+2, 3.144181e+2, -5320.0913, 59628.85, 7684.23, -0.026499802, 0.07143363, 60525.605, 60525.605, 0.00000010288848, 9.999694, 10.000556 
8.4499514e+2, 1.2442705e+2, -1656480.6, -1687504.4, 10599.453, -0.042706713, 0.059274785, -1653205.1, 67416.2, 0.0, 10.000405, 9.99999 
8.449992e+2, 1.3442676e+2, -1575644.1, -1639237.8, -44035.063, 0.087406404, 0.06437073, -1553125.9, 69498.23, 0.0, 10.0004635, 9.999624 
8.4500146e+2, 1.4442614e+2, -1474456.4, -1536452.0, -6433.1694, 0.0011284308, 0.04262623, -1473795.9, 50834.227, 0.0, 10.000474, 9.999648 
8.450057e+2, 1.5442607e+2, -1371674.0, -1432521.1, -6556.3765, 0.041959926, 0.06506764, -1370975.5, 55655.223, 0.0, 10.000491, 9.9996805 
8.4500957e+2, 1.6442582e+2, -1286103.9, -1352597.5, -46.96859, 0.04015618, 0.07770244, -1286103.9, 42529.47, 0.0, 10.000458, 9.999572 
8.4501344e+2, 1.7442538e+2, -1202191.8, -1261757.9, -1283.7697, 0.011662172, 0.07374381, -1202164.1, 28474.08, 0.0, 10.000362, 9.999569 
8.4501714e+2, 1.8442492e+2, -1112699.9, -1162761.8, -19548.928, 0.0067411726, 0.06923104, -1105970.8, 26672.338, 0.0, 10.00028, 9.999616 
8.4502083e+2, 1.9442445e+2, -1021959.75, -1065575.1, -12944.303, 0.0218877, 0.05580206, -1018407.4, 16240.377, 0.0, 10.00022, 9.999639 
8.4502405e+2, 2.0442407e+2, -933425.1, -997716.0, -28041.629, 0.018504253, 0.06613555, -922913.06, 13738.565, 0.0, 10.000265, 9.999411 
8.450268e+2, 2.144238e+2, -809765.0, -886707.44, -29750.896, -0.0040423623, 0.0955632, -799603.4, 39051.168, 0.0, 10.000439, 9.999415 
8.4502983e+2, 2.2442317e+2, -733728.4, -827861.5, -15422.359, -0.012005357, 0.102272466, -731266.06, 9395.411, 0.0, 10.000412, 9.99916 
8.450332e+2, 2.3442206e+2, -674173.06, -747720.94, -9990.815, -0.0036788639, 0.07364182, -672840.06, -30166.842, 0.0, 10.000145, 9.999166 
8.450361e+2, 2.4442126e+2, -601091.7, -665117.25, -29819.834, -0.01966829, 0.07976734, -589354.7, -44672.816, 0.0, 9.999989, 9.999135 
8.450382e+2, 2.5442085e+2, -504430.25, -565544.1, -27236.426, -0.06640183, 0.12003789, -494053.72, -47366.78, 0.0, 9.9999695, 9.999154 
8.450408e+2, 2.6442012e+2, -399311.56, -448670.25, -22136.58, -0.07524876, 0.12784578, -390838.25, -42144.37, 0.0, 9.999952, 9.999292 
8.450439e+2, 2.7441907e+2, -299530.44, -346423.34, -28390.637, -0.034672983, 0.08684939, -286156.2, -35452.87, 0.0, 9.999949, 9.999322 
8.4504676e+2, 2.8441834e+2, -220845.58, -278726.78, -25683.25, -0.030994022, 0.0903295, -211092.67, -58382.543, 0.0, 9.9999075, 9.999136 
8.450492e+2, 2.9441795e+2, -141458.47, -192214.67, -27171.629, -0.076107435, 0.13508905, -129656.664, -74942.234, 0.0, 9.999789, 9.999113 
8.45052e+2, 3.0441633e+2, -133397.08, -227137.39, -4869.2354, -0.11454557, 0.09134956, -133144.83, -133144.83, 0.00000000024035085, 9.999785, 9.998542 
8.4505635e+2, 3.1441468e+2, 29303.477, 78000.88, 1250.6198, -0.029150141, 0.065775685, 78032.984, 78032.984, 0.00000026211356, 9.999924, 10.000571 
8.5499585e+2, 1.2442316e+2, -1650076.4, -1676079.5, 7105.251, -0.008436277, 0.069075815, -1648261.6, 72398.195, 0.0, 10.000413, 10.000066 
8.549996e+2, 1.3442272e+2, -1569135.6, -1624687.4, -42339.21, 0.07683476, 0.049576942, -1546274.5, 76388.445, 0.0, 10.00046, 9.999726 
8.5500175e+2, 1.4442213e+2, -1480485.4, -1549029.1, -6959.1685, -0.01744132, 0.027706495, -1479786.0, 44882.438, 0.0, 10.000472, 9.999564 
8.5500604e+2, 1.544221e+2, -1378756.0, -1449335.0, -4792.7295, 0.029884432, 0.066007145, -1378432.0, 48237.402, 0.0, 10.000499, 9.999562 
8.5501015e+2, 1.6442184e+2, -1290438.8, -1362566.4, -3560.6145, 0.045252144, 0.08649722, -1290263.4, 38409.676, 0.0, 10.000462, 9.999501 
8.55014e+2, 1.7442127e+2, -1206261.6, -1269403.4, -4861.137, 0.03911049, 0.07508438, -1205889.6, 24790.297, 0.0, 10.000359, 9.999518 
8.550177e+2, 1.8442099e+2, -1099639.9, -1135261.5, -22608.824, 0.030322002, 0.08305763, -1088669.0, 44013.992, 0.0, 10.0002775, 9.999805 
8.55021e+2, 1.944211e+2, -1007646.75, -1036177.2, -15397.684, 0.014431271, 0.106822774, -1000921.9, 33759.625, 0.0, 10.00022, 9.999841 
8.5502416e+2, 2.0442063e+2, -933422.7, -997394.5, -22946.553, 0.0029760615, 0.09662256, -926043.06, 10642.568, 0.0, 10.000263, 9.9994135 
8.5502726e+2, 2.1441945e+2, -810981.94, -888357.9, -23434.533, -0.0011728294, 0.03566014, -804437.9, 34258.996, 0.0, 10.000434, 9.999407 
8.550303e+2, 2.2441885e+2, -724782.4, -808756.9, -25663.385, -0.0079228515, 0.041455656, -717560.44, 23142.863, 0.0, 10.000408, 9.999292 
8.550332e+2, 2.34419e+2, -664287.6, -726918.9, -19896.271, -0.018821103, 0.12346765, -658501.6, -15798.014, 0.0, 10.000143, 9.99931 
8.550359e+2, 2.4441859e+2, -592913.9, -648238.94, -31504.162, -0.033986904, 0.15589325, -578651.1, -33942.637, 0.0, 9.999988, 9.999252 
8.550383e+2, 2.5441748e+2, -496478.7, -548607.0, -27799.34, -0.053506, 0.11412583, -484435.84, -37716.41, 0.0, 9.999967, 9.999273 
8.5504085e+2, 2.644164e+2, -409291.0, -468788.22, -22750.846, -0.06125237, 0.082758546, -401588.56, -52858.766, 0.0, 9.999949, 9.999156 
8.5504365e+2, 2.7441534e+2, -311427.5, -369573.6, -27585.988, -0.055025946, 0.059830077, -300422.78, -49683.52, 0.0, 9.999943, 9.9991665 
8.550466e+2, 2.8441477e+2, -224686.95, -286086.1, -29485.018, -0.041238636, 0.08968366, -212820.94, -60075.793, 0.0, 9.999904, 9.999087 
8.5504955e+2, 2.9441467e+2, -144911.1, -198521.45, -30406.42, -0.020244751, 0.16916212, -131181.5, -76433.95, 0.0, 9.999784, 9.999072 
8.550522e+2, 3.0441293e+2, -125231.51, -209108.56, 4.829674, -0.07082699, 0.111477196, -125231.51, -125231.51, 0.0000000059514194, 9.999781, 9.998668 
8.5505545e+2, 3.1441158e+2, 30507.236, 83849.695, 6744.981, -0.1055105, 0.102012224, 84689.35, 84689.35, 0.0000005093443, 9.99991, 10.000618 
8.649965e+2, 1.244194e+2, -1646901.0, -1688465.4, 27292.75, 0.012366485, 0.066215076, -1633378.8, 87317.484, 0.00000000000000000000885557, 10.000498, 9.999938 
8.6500007e+2, 1.344189e+2, -1553207.1, -1627029.9, -33787.36, 0.07425913, 0.050179586, -1540078.3, 82621.71, 0.0, 10.000613, 9.999636 
8.650023e+2, 1.4441828e+2, -1451840.6, -1536057.3, -4935.6875, -0.021774039, 0.031153794, -1451552.4, 73153.4, 0.0, 10.000673, 9.999556 
8.650066e+2, 1.5441822e+2, -1350233.3, -1436599.6, 2987.781, 0.029254913, 0.06571253, -1350130.0, 76577.36, 0.0, 10.000699, 9.999553 
8.650107e+2, 1.6441792e+2, -1271401.8, -1353031.4, 4494.567, 0.049373254, 0.08357676, -1271155.0, 57556.406, 0.0, 10.000588, 9.999508 
8.6501443e+2, 1.7441736e+2, -1211402.3, -1269966.1, 8369.891, 0.045554306, 0.072891764, -1210229.5, 20488.74, 0.0, 10.000315, 9.999536 
8.6501795e+2, 1.8441714e+2, -1108858.6, -1139781.9, -4617.4863, 0.03429117, 0.08528732, -1108183.9, 24537.068, 0.0, 10.0002165, 9.999804 
8.650212e+2, 1.9441733e+2, -991549.25, -1029313.3, -13421.849, 0.0107520195, 0.117043905, -987265.0, 47453.906, 0.0, 10.000335, 9.999832 
8.650244e+2, 2.0441689e+2, -918766.06, -984852.8, -27446.066, -0.0014029962, 0.108591996, -908854.25, 27868.588, 0.0, 10.00034, 9.999463 
8.650276e+2, 2.1441573e+2, -841014.25, -896760.75, -24138.102, 0.00064947206, 0.043537695, -832015.25, 6718.762, 0.0, 10.000202, 9.999461 
8.650305e+2, 2.244152e+2, -769624.7, -817790.3, -32566.758, -0.006032594, 0.047801737, -753203.5, -12463.797, 0.0, 10.000047, 9.999405 
8.6503315e+2, 2.3441546e+2, -696146.06, -728901.6, -30490.426, -0.023841407, 0.1290591, -677913.2, -35174.668, 0.0, 9.999867, 9.999428 
8.650358e+2, 2.444151e+2, -611848.2, -652712.44, -34403.12, -0.036187667, 0.15826349, -592267.25, -47524.582, 0.0, 9.999839, 9.999292 
8.650384e+2, 2.5441396e+2, -487466.63, -540395.3, -37261.797, -0.0416963, 0.11139917, -468227.53, -21473.865, 0.0, 10.000012, 9.999307 
8.650409e+2, 2.644129e+2, -398559.22, -455767.13, -35882.44, -0.05027188, 0.078041434, -381274.88, -32511.27, 0.0, 9.99999, 9.999225 
8.650434e+2, 2.7441192e+2, -340507.5, -376047.66, -25591.13, -0.06179798, 0.057477694, -327121.8, -76349.87, 0.0, 9.999711, 9.999234 
8.650462e+2, 2.8441137e+2, -270712.88, -324054.66, -13887.692, -0.051442858, 0.09084893, -267313.78, -114535.82, 0.0, 9.999656, 9.998945 
8.650494e+2, 2.9441115e+2, -139030.36, -212480.16, -24546.865, -0.016907057, 0.1732337, -131582.13, -76799.86, 0.0, 9.999899, 9.99892 
8.650521e+2, 3.044092e+2, -101906.84, -198374.75, -6215.3066, -0.06552938, 0.100503735, -101508.05, -101508.05, 0.000000027135602, 9.999943, 9.998663 
8.650552e+2, 3.144083e+2, -12815.315, 46806.977, -12974.602, -0.117243454, 0.13729557, 49508.055, 49508.055, 0.00000083365, 9.999681, 10.000473 
8.74997e+2, 1.24415785e+2, -1668249.4, -1732678.4, 28270.686, 0.007814872, 0.051069327, -1657603.5, 63126.633, 0.0000000055054987, 10.000496, 9.999636 
8.7500066e+2, 1.3441534e+2, -1570632.3, -1663624.8, -28876.494, 0.07356316, 0.065087356, -1562395.1, 60339.6, 0.0, 10.000614, 9.999384 
8.75003e+2, 1.4441465e+2, -1449708.5, -1532823.6, -4220.971, -0.01863371, 0.051183946, -1449494.6, 75247.11, 0.0, 10.000677, 9.999576 
8.7500745e+2, 1.5441443e+2, -1345748.8, -1427561.1, 4201.228, 0.040285315, 0.06464709, -1345533.6, 81210.8, 0.0, 10.000699, 9.999616 
8.7501127e+2, 1.6441411e+2, -1263474.0, -1337000.1, -6279.445, 0.052265555, 0.071395464, -1262941.5, 65806.63, 0.0, 10.000589, 9.999618 
8.750146e+2, 1.7441374e+2, -1204009.9, -1255286.4, -1930.0209, 0.02815811, 0.068627864, -1203937.4, 26815.486, 0.0, 10.000318, 9.999635 
8.75018e+2, 1.8441342e+2, -1123071.3, -1169103.6, -1628.8068, 0.015093067, 0.07632312, -1123013.6, 9743.018, 0.0, 10.000215, 9.999603 
8.750215e+2, 1.9441317e+2, -1006914.75, -1060928.5, -9036.539, 0.009193074, 0.08637167, -1005443.06, 29316.617, 0.0, 10.000333, 9.999617 
8.7502486e+2, 2.044129e+2, -912697.3, -971746.3, -33019.707, 0.0031657573, 0.10213686, -897927.4, 38835.36, 0.0, 10.000337, 9.999555 
8.750278e+2, 2.1441266e+2, -833158.1, -880221.06, -29619.404, -0.00079044356, 0.117857695, -818860.56, 19905.154, 0.0, 10.0002, 9.999576 
8.750306e+2, 2.244122e+2, -763600.4, -805145.25, -40279.51, -0.008361724, 0.119288504, -739052.5, 1717.8971, 0.0, 10.000046, 9.999493 
8.750331e+2, 2.3441146e+2, -690238.2, -716452.9, -37321.992, -0.019627044, 0.0927255, -663788.8, -21011.404, 0.0, 9.9998665, 9.999515 
8.750357e+2, 2.4441084e+2, -614164.3, -657605.9, -29454.941, -0.027802035, 0.09080046, -599287.5, -54503.742, 0.0, 9.999838, 9.999259 
8.7503844e+2, 2.5441033e+2, -491023.44, -547081.0, -30126.523, -0.03428169, 0.11139257, -477903.47, -31114.059, 0.0, 10.00001, 9.999263 
8.7504095e+2, 2.644097e+2, -380934.63, -418766.66, -45063.535, -0.04520433, 0.11122954, -350977.97, -2182.652, 0.0, 9.999988, 9.999481 
8.7504315e+2, 2.744089e+2, -321128.84, -335297.16, -35360.293, -0.058205042, 0.0788189, -292150.06, -41348.67, 0.0, 9.999708, 9.999516 
8.750458e+2, 2.844082e+2, -287937.53, -359441.9, -6402.22, -0.06418198, 0.094619125, -287368.8, -134560.31, 0.0, 9.999654, 9.998704 
8.750488e+2, 2.9440743e+2, -159172.88, -252207.2, -14166.835, -0.06699014, 0.14880885, -157063.44, -102245.016, 0.0, 9.999889, 9.998652 
8.7505174e+2, 3.044051e+2, -112700.14, -218372.69, -13717.979, -0.09938151, 0.059521466, -110948.37, -110948.37, 0.00000006425192, 9.999933, 9.998529 
8.750553e+2, 3.144047e+2, -36361.273, 766.83966, -21307.955, -0.07549099, 0.16088235, 10463.234, 10463.234, 0.0000011924308, 9.999671, 10.000161 
8.8499767e+2, 1.24412015e+2, -1646659.5, -1731845.1, 15229.302, 0.017170388, 0.04690372, -1644018.8, 76748.01, 0.00000006865043, 10.000687, 9.999551 
8.850015e+2, 1.3441151e+2, -1524574.5, -1645248.5, -26383.646, 0.075938806, 0.05903892, -1519058.3, 103713.52, 0.0, 10.000948, 9.99935 
8.8500386e+2, 1.4441076e+2, -1419267.6, -1519930.5, -6044.9756, -0.01248082, 0.042047318, -1418906.0, 105873.57, 0.0, 10.000894, 9.99956 
8.8500804e+2, 1.5441051e+2, -1375793.1, -1442487.4, -3013.5916, 0.041165784, 0.05247544, -1375657.1, 51125.484, 0.0, 10.000497, 9.99961 
8.850118e+2, 1.6441028e+2, -1285616.0, -1337611.5, -9300.079, 0.051498197, 0.06368066, -1284002.6, 44783.05, 0.0, 10.000397, 9.999704 
8.850151e+2, 1.7441012e+2, -1147365.3, -1218901.6, -7344.2373, 0.030399987, 0.07442738, -1146619.0, 84168.96, 0.0, 10.000666, 9.999718 
8.850184e+2, 1.8440983e+2, -1060255.4, -1144473.9, -5207.069, 0.016985266, 0.08086886, -1059934.6, 72857.055, 0.0, 10.0006695, 9.999555 
8.850218e+2, 1.9440931e+2, -1009094.06, -1067441.3, -1414.2928, 0.0031213514, 0.07253052, -1009059.8, 25737.375, 0.0, 10.000342, 9.999567 
8.8502496e+2, 2.044091e+2, -946425.3, -988574.06, -22198.139, -0.0039058104, 0.09362479, -936891.06, -90.67315, 0.0, 10.00011, 9.999548 
8.850279e+2, 2.1440917e+2, -863923.06, -895454.94, -28419.375, 0.0008785816, 0.14317884, -847189.4, -8388.605, 0.0, 9.999992, 9.999571 
8.850306e+2, 2.2440872e+2, -776207.6, -811046.1, -43295.875, -0.0007172632, 0.14551842, -746958.25, -6152.7305, 0.0, 9.999959, 9.999495 
8.850331e+2, 2.344076e+2, -665718.94, -704849.44, -48176.977, -0.011067662, 0.080677055, -633285.94, 9529.766, 0.0, 10.000035, 9.999514 
8.850357e+2, 2.4440692e+2, -584798.56, -630293.2, -37140.895, -0.021431109, 0.06725844, -563992.6, -19170.314, 0.0, 9.999984, 9.999376 
8.850384e+2, 2.5440675e+2, -516278.13, -545071.5, -26454.049, -0.033330485, 0.10855861, -500557.0, -53732.38, 0.0, 9.999775, 9.999389 
8.8504076e+2, 2.644063e+2, -429169.2, -447778.9, -47927.59, -0.046600346, 0.12272121, -389651.56, -40822.535, 0.0, 9.999681, 9.999429 
8.8504285e+2, 2.744055e+2, -320825.44, -341927.6, -64818.492, -0.059397895, 0.09762431, -265704.9, -14869.08, 0.0, 9.999741, 9.9994545 
8.850454e+2, 2.8440478e+2, -267890.88, -339992.5, -30328.033, -0.07049199, 0.11086388, -256830.63, -103987.484, 0.0, 9.999751, 9.99879 
8.8504845e+2, 2.9440397e+2, -182964.45, -253203.94, -11598.018, -0.0827878, 0.14970975, -181098.92, -126246.19, 0.0, 9.9996805, 9.998747 
8.850514e+2, 3.0440158e+2, -141232.84, -210517.98, 7875.81, -0.10619795, 0.041427847, -140348.86, -140348.86, 0.00000010587227, 9.999643, 9.998724 
8.850551e+2, 3.1440154e+2, -41356.434, -2355.9143, 20289.604, -0.05918536, 0.16177686, 6285.044, 6285.044, 0.0000015115112, 9.99964, 10.000154 
8.9499843e+2, 1.2440813e+2, -1639134.6, -1716365.5, 22242.926, 0.021807333, 0.053478684, -1633186.6, 87618.8, 0.00000033567557, 10.000687, 9.999657 
8.950025e+2, 1.3440748e+2, -1514000.1, -1623656.9, -16452.771, 0.08247586, 0.03520268, -1511584.8, 111225.97, 0.00000000007521531, 10.000949, 9.999497 
8.950048e+2, 1.444067e+2, -1419072.0, -1522068.9, -21803.541, -0.0023078294, 0.00815119, -1414646.5, 110171.89, 0.0, 10.000903, 9.999542 
8.9500844e+2, 1.5440649e+2, -1378907.0, -1449326.4, -17993.547, 0.026966289, 0.029370535, -1374575.6, 52246.086, 0.0, 10.000498, 9.999563 
8.950121e+2, 1.6440645e+2, -1282693.1, -1331528.4, -788.9258, 0.040873233, 0.058982763, -1282680.4, 46143.113, 0.0, 10.000396, 9.999747 
8.95016e+2, 1.7440656e+2, -1143328.9, -1210646.3, 3007.931, 0.050507307, 0.08967006, -1143194.8, 87628.49, 0.0, 10.000666, 9.999775 
8.9501935e+2, 1.8440636e+2, -1053126.1, -1129801.1, -17278.582, 0.03735896, 0.09979105, -1049412.4, 83413.3, 0.0, 10.000669, 9.999656 
8.9502203e+2, 1.9440582e+2, -1001437.8, -1051953.1, -14225.909, -0.008975742, 0.075762056, -997707.1, 37124.016, 0.0, 10.000343, 9.999673 
8.950249e+2, 2.0440544e+2, -953907.3, -1004018.0, -28382.51, -0.02388216, 0.08298984, -941103.2, -4267.5967, 0.0, 10.000109, 9.999443 
8.9502794e+2, 2.1440528e+2, -872541.6, -913068.25, -33241.145, 0.0034584794, 0.12070103, -853874.5, -15035.767, 0.0, 9.99999, 9.999451 
8.9503074e+2, 2.244048e+2, -782516.75, -824158.8, -41845.297, 0.013432171, 0.12846445, -756598.7, -15754.231, 0.0, 9.999957, 9.999405 
8.9503324e+2, 2.3440386e+2, -671973.0, -717832.5, -45023.625, -0.00063851796, 0.09197449, -644376.5, -1523.3275, 0.0, 10.000034, 9.999425 
8.950357e+2, 2.4440332e+2, -567179.4, -593688.6, -44711.387, -0.01882427, 0.08533502, -533799.3, 11058.961, 0.0, 9.999983, 9.999629 
8.9503807e+2, 2.544032e+2, -497058.84, -504413.3, -33829.03, -0.04067657, 0.10340529, -466707.75, -19848.572, 0.0, 9.999771, 9.99967 
8.9504033e+2, 2.6440272e+2, -453956.28, -498790.84, -46931.277, -0.05710701, 0.11485717, -424363.2, -75498.75, 0.0, 9.999679, 9.999081 
8.9504254e+2, 2.7440175e+2, -349131.94, -399631.47, -61712.664, -0.06715951, 0.11472063, -307703.34, -56828.48, 0.0, 9.999736, 9.999061 
8.950451e+2, 2.8440112e+2, -240536.36, -282335.4, -31704.62, -0.07188342, 0.13945083, -223462.56, -70580.93, 0.0, 9.999746, 9.999188 
8.9504826e+2, 2.9440072e+2, -152000.56, -187814.58, -12496.973, -0.0710051, 0.17591678, -148071.02, -93185.96, 0.0, 9.999675, 9.999199 
8.950512e+2, 3.0439863e+2, -107195.11, -138371.47, 7224.206, -0.09306378, 0.04630854, -105602.47, -105602.47, 0.00000013409642, 9.999637, 9.999223 
8.9505464e+2, 3.1439877e+2, -23570.44, 38899.324, 20937.527, -0.072473384, 0.13077238, 45267.605, 45267.605, 0.0000016978646, 9.999622, 10.000445 
9.049995e+2, 1.2440433e+2, -1559546.8, -1671371.8, 26610.861, 0.03612743, 0.0614746, -1553537.1, 167306.77, 0.0000010657902, 10.0012, 9.999721 
9.050034e+2, 1.3440377e+2, -1532799.0, -1618598.4, -13997.15, 0.08960293, 0.03862705, -1530573.3, 92274.64, 0.000000007369457, 10.000758, 9.999623 
9.050057e+2, 1.4440307e+2, -1455892.1, -1537081.3, -16498.533, 0.005163045, 0.01217607, -1452667.5, 72186.836, 0.0, 10.000642, 9.999564 
9.0500903e+2, 1.5440297e+2, -1313645.3, -1417382.9, -10386.373, 0.018941043, 0.04283782, -1312615.5, 114241.37, 0.0, 10.000942, 9.999569 
9.0501255e+2, 1.6440287e+2, -1216234.6, -1304034.0, 4565.114, 0.029308174, 0.07016882, -1215998.0, 112861.14, 0.0, 10.000872, 9.999707 
9.050164e+2, 1.7440277e+2, -1191651.8, -1237377.0, 37.042038, 0.045000207, 0.08440329, -1191651.6, 39209.063, 0.0, 10.000352, 9.999741 
9.050197e+2, 1.8440261e+2, -1125634.8, -1153438.5, -21823.615, 0.037329078, 0.09404817, -1113661.4, 19201.383, 0.0, 10.000125, 9.999754 
9.050224e+2, 1.9440237e+2, -1005552.9, -1042699.44, -19259.29, -0.0023650655, 0.09015576, -997370.1, 37494.953, 0.0, 10.000267, 9.999774 
9.050251e+2, 2.04402e+2, -923268.7, -994849.0, -29950.75, -0.018965108, 0.093652725, -912390.0, 24479.518, 0.0, 10.000343, 9.999393 
9.05028e+2, 2.1440144e+2, -826291.3, -897508.44, -31838.592, -0.006119342, 0.09816286, -814133.06, 24743.48, 0.0, 10.000338, 9.999391 
9.050308e+2, 2.2440097e+2, -739572.56, -794889.0, -33316.31, 0.0036903254, 0.10721802, -723930.06, 16952.186, 0.0, 10.0002165, 9.999481 
9.0503335e+2, 2.3440057e+2, -677379.2, -710901.5, -24736.637, 0.007995265, 0.11472492, -664259.94, -21373.865, 0.0, 9.999957, 9.99951 
9.0503573e+2, 2.4440017e+2, -606687.3, -619121.9, -31041.79, -0.005018094, 0.12284235, -581246.3, -36356.477, 0.0, 9.99974, 9.999571 
9.0503776e+2, 2.5439978e+2, -530029.7, -527826.7, -47192.715, -0.03903088, 0.11910997, -481722.63, -34828.84, 0.0, 9.9995775, 9.999602 
9.0503997e+2, 2.643991e+2, -467200.56, -504997.53, -49592.08, -0.059801865, 0.1174266, -433028.1, -84127.27, 0.0, 9.999588, 9.999081 
9.0504235e+2, 2.7439815e+2, -336801.63, -393178.75, -35501.152, -0.06380525, 0.11517133, -319658.88, -68747.516, 0.0, 9.999818, 9.999065 
9.050449e+2, 2.8439763e+2, -229135.95, -260655.34, -11982.776, -0.06709109, 0.14400911, -225097.8, -72180.914, 0.0, 9.999754, 9.999334 
9.050477e+2, 2.9439753e+2, -193883.75, -189770.13, -16748.37, -0.070635244, 0.19232862, -174952.75, -120035.45, 0.0, 9.99931, 9.999361 
9.050506e+2, 3.043956e+2, -167163.58, -137643.52, -4493.397, -0.0915345, 0.060717925, -136974.7, -136974.7, 0.0000001316986, 9.999099, 9.999486 
9.0505403e+2, 3.1439584e+2, -86689.21, 12954.026, -10708.642, -0.07207584, 0.12990788, 14091.889, 14091.889, 0.0000016698094, 9.999166, 10.000489 
9.1500086e+2, 1.244007e+2, -1551649.5, -1659814.0, 8261.24, 0.04883484, 0.07350097, -1551022.1, 169859.73, 0.000002613721, 10.001219, 9.999792 
9.150042e+2, 1.3440043e+2, -1524117.1, -1599735.6, -31129.836, 0.091370836, 0.0684689, -1512950.8, 109931.77, 0.00000007607973, 10.000754, 9.999756 
9.150063e+2, 1.4439991e+2, -1453611.4, -1531643.5, -6852.253, 0.0021137304, 0.052223217, -1453014.1, 71872.82, 0.0, 10.000638, 9.999603 
9.1501e+2, 1.5439998e+2, -1310624.3, -1411350.5, 1648.0148, 0.015004752, 0.09363868, -1310597.3, 116290.34, 0.0, 10.000943, 9.999609 
9.150133e+2, 1.6439964e+2, -1223729.8, -1321562.6, -14545.558, 0.015165182, 0.10049274, -1221612.9, 107278.92, 0.0, 10.000878, 9.999584 
9.150164e+2, 1.7439885e+2, -1200584.5, -1256608.0, -19918.865, 0.012003752, 0.059759717, -1194224.5, 36675.355, 0.0, 10.000354, 9.999609 
9.1501963e+2, 1.843986e+2, -1119128.4, -1139682.5, -18871.627, 0.014377451, 0.063542865, -1107917.0, 24985.533, 0.0, 10.000124, 9.999849 
9.150229e+2, 1.9439903e+2, -998524.56, -1027555.4, -14163.091, 0.02021096, 0.1150947, -992759.7, 42138.83, 0.0, 10.000264, 9.999879 
9.150258e+2, 2.0439877e+2, -924562.3, -996982.44, -30937.729, 0.0071649933, 0.12588865, -913145.56, 23756.084, 0.0, 10.0003395, 9.999381 
9.150281e+2, 2.1439767e+2, -827590.1, -899734.3, -32430.09, -0.0292299, 0.07554515, -815155.44, 23758.316, 0.0, 10.000335, 9.999377 
9.1503066e+2, 2.2439724e+2, -723366.2, -761260.3, -43704.266, -0.03039169, 0.08128882, -694678.6, 46239.945, 0.0, 10.000216, 9.999713 
9.1503334e+2, 2.3439771e+2, -660095.75, -674563.6, -34533.75, 0.013250148, 0.14939107, -632046.4, 10867.769, 0.0, 9.999954, 9.999761 
9.1503567e+2, 2.4439752e+2, -631977.06, -671754.7, -37867.21, 0.016613347, 0.18085128, -609093.3, -64176.69, 0.0, 9.99974, 9.99921 
9.150374e+2, 2.543965e+2, -558756.06, -587425.2, -52742.953, -0.03101957, 0.15603054, -518434.4, -71506.34, 0.0, 9.9995775, 9.999194 
9.150396e+2, 2.6439553e+2, -443512.03, -455982.53, -41542.633, -0.05649354, 0.13017432, -407739.3, -58801.434, 0.0, 9.999588, 9.999418 
9.150422e+2, 2.743947e+2, -310146.03, -336934.28, -25673.84, -0.05351493, 0.09891584, -294582.44, -43637.22, 0.0, 9.999812, 9.9994545 
9.150447e+2, 2.843943e+2, -237629.14, -276396.75, -27788.586, -0.061167948, 0.12524888, -223131.72, -70182.9, 0.0, 9.999745, 9.99923 
9.1504693e+2, 2.9439428e+2, -204173.27, -209148.61, -32531.373, -0.08297591, 0.19968176, -174034.6, -119085.32, 0.0, 9.999302, 9.999232 
9.150496e+2, 3.0439252e+2, -165061.86, -132373.67, -2580.989, -0.10181073, 0.08464338, -132171.14, -132171.14, 0.00000009563079, 9.999094, 9.999525 
9.1505325e+2, 3.1439275e+2, -99502.47, -11864.02, -5785.107, -0.06841153, 0.1487301, -11483.788, -11483.788, 0.0000014046396, 9.999158, 10.000322 
9.250022e+2, 1.2439761e+2, -1569089.0, -1685772.8, 46677.67, 0.065806456, 0.08552072, -1552714.3, 168198.92, 0.0000053718704, 10.00118, 9.999629 
9.2500514e+2, 1.3439739e+2, -1465471.5, -1585433.1, -14712.333, 0.08374642, 0.09708843, -1463693.5, 159220.63, 0.00000033393198, 10.001218, 9.99963 
9.250071e+2, 1.4439681e+2, -1392957.9, -1506244.9, 5098.3677, -0.006186551, 0.08131305, -1392728.9, 132190.63, 0.0, 10.001072, 9.999568 
9.2501074e+2, 1.543967e+2, -1345987.3, -1430402.3, 7217.987, 0.011240279, 0.109017745, -1345374.5, 81546.84, 0.0, 10.000712, 9.999588 
9.2501396e+2, 1.6439629e+2, -1267414.9, -1341206.3, -11329.214, 0.010277462, 0.109808244, -1265714.8, 63211.066, 0.0, 10.000577, 9.999593 
9.250168e+2, 1.7439558e+2, -1144342.3, -1228911.3, -7044.2256, -0.0015069508, 0.07464359, -1143759.5, 87173.375, 0.0, 10.000738, 9.999614 
9.250199e+2, 1.8439525e+2, -1047573.4, -1117800.3, -4710.4736, 0.0026385665, 0.07640804, -1047258.8, 85677.37, 0.0, 10.0006695, 9.999737 
9.250232e+2, 1.9439544e+2, -999892.44, -1041140.06, -18263.87, 0.02105128, 0.11669153, -992967.94, 41966.945, 0.0, 10.000313, 9.999762 
9.2502606e+2, 2.0439519e+2, -946670.75, -989326.7, -33178.62, 0.0147521235, 0.12741502, -928556.3, 8381.458, 0.0, 10.000111, 9.999542 
9.250284e+2, 2.143944e+2, -848093.1, -889836.2, -20788.438, -0.022021823, 0.09172766, -839506.56, -560.492, 0.0, 10.000109, 9.999554 
9.2503077e+2, 2.2439407e+2, -747811.9, -775075.1, -38889.313, -0.029943172, 0.09730631, -720234.25, 20715.574, 0.0, 10.000058, 9.999694 
9.2503315e+2, 2.343943e+2, -663706.56, -679730.4, -52996.977, -0.0012331752, 0.14599726, -618119.3, 24828.629, 0.0, 9.999946, 9.999729 
9.250354e+2, 2.4439406e+2, -601461.2, -657737.8, -48160.676, 0.0050690263, 0.17268223, -573821.25, -28870.004, 0.0, 9.999952, 9.999204 
9.2503744e+2, 2.5439316e+2, -479121.3, -549624.7, -33892.69, -0.017637987, 0.16319165, -465471.1, -18509.875, 0.0, 10.000126, 9.999189 
9.250395e+2, 2.6439232e+2, -382422.4, -417363.13, -21235.863, -0.038516123, 0.1428146, -372394.13, -23424.139, 0.0, 9.999968, 9.999501 
9.250418e+2, 2.7439147e+2, -367166.66, -354114.6, -28869.791, -0.05658468, 0.10433625, -331042.4, -80065.66, 0.0, 9.999377, 9.999546 
9.250441e+2, 2.8439105e+2, -317527.47, -323744.75, -34322.31, -0.06872208, 0.12599668, -286173.3, -133192.64, 0.0, 9.999236, 9.99915 
9.250465e+2, 2.9439095e+2, -157166.13, -196526.67, -37764.16, -0.072938755, 0.20052369, -134261.83, -79279.44, 0.0, 9.999667, 9.999144 
9.2504907e+2, 3.0438924e+2, -84702.414, -84601.484, -14649.686, -0.08810521, 0.09456574, -70002.18, -70002.18, 0.00000004550982, 9.999606, 9.999607 
9.2505217e+2, 3.1438947e+2, -142142.25, -42704.85, -16410.852, -0.07745283, 0.14904217, -40066.457, -40066.457, 0.0000009683944, 9.99891, 10.000231 
9.350034e+2, 1.243951e+2, -1599150.8, -1746853.3, 48625.695, 0.06968224, 0.09110359, -1584579.9, 136357.69, 0.000009857008, 10.001175, 9.999213 
9.3500614e+2, 1.3439474e+2, -1493019.3, -1643667.3, -12461.976, 0.06457353, 0.12739919, -1491995.3, 130946.164, 0.0000009955157, 10.001224, 9.999227 
9.35008e+2, 1.4439382e+2, -1397913.1, -1520796.6, -8776.38, -0.021756448, 0.10435488, -1397289.5, 127661.28, 0.00000000002439963, 10.001088, 9.999462 
9.350114e+2, 1.5439318e+2, -1352203.5, -1443727.4, -6425.874, 0.004875177, 0.09016631, -1351754.5, 75202.66, 0.0, 10.000712, 9.999498 
9.350146e+2, 1.6439287e+2, -1258244.4, -1321474.4, -7119.6313, 0.010784655, 0.09790666, -1257452.6, 71507.805, 0.0, 10.000574, 9.99973 
9.3501765e+2, 1.7439294e+2, -1134653.1, -1207994.0, -831.5777, 0.001676412, 0.12823987, -1134643.6, 96315.62, 0.0, 10.000735, 9.999759 
9.3502057e+2, 1.8439257e+2, -1071224.8, -1166676.4, -17868.336, -0.0015834814, 0.13320437, -1067989.5, 64973.715, 0.0, 10.000668, 9.999403 
9.350233e+2, 1.9439164e+2, -1024418.75, -1092492.9, -32077.484, -0.00087952596, 0.095690444, -1011685.25, 23288.34, 0.0, 10.000314, 9.99941 
9.3502605e+2, 2.0439129e+2, -923109.75, -941049.75, -35362.06, 0.0031132232, 0.09876257, -895597.75, 41379.715, 0.0, 10.000113, 9.999874 
9.3502885e+2, 2.1439171e+2, -822541.4, -836036.56, -21185.623, 0.012713682, 0.1468753, -807054.75, 31918.299, 0.0, 10.000105, 9.999926 
9.350311e+2, 2.2439148e+2, -767553.0, -815591.3, -44005.82, 0.0014137578, 0.1558476, -741438.0, -462.49295, 0.0, 10.000055, 9.999417 
9.350327e+2, 2.3439041e+2, -686530.6, -726482.94, -57283.14, -0.037088674, 0.105749734, -645840.44, -2853.555, 0.0, 9.999943, 9.99941 
9.3503493e+2, 2.4438982e+2, -577691.8, -608574.4, -42859.56, -0.0408422, 0.10001022, -547576.8, -2583.648, 0.0, 9.999952, 9.999542 
9.3503773e+2, 2.5438982e+2, -452395.16, -493602.6, -26702.633, -0.0013100499, 0.14028467, -439271.38, 7721.714, 0.0, 10.000123, 9.999577 
9.350398e+2, 2.643894e+2, -394248.6, -440888.88, -41940.75, -0.0089473, 0.1546479, -369580.66, -20583.656, 0.0, 9.999963, 9.999342 
9.35041e+2, 2.7438855e+2, -381638.16, -383696.3, -50437.84, -0.07547059, 0.1310607, -332218.9, -81213.17, 0.0, 9.999375, 9.999345 
9.3504316e+2, 2.8438792e+2, -321595.44, -332523.5, -20414.04, -0.09216753, 0.14650865, -305926.84, -152914.69, 0.0, 9.999236, 9.999091 
9.3504643e+2, 2.9438755e+2, -161492.05, -204436.69, -20047.15, -0.04662221, 0.19561481, -153588.38, -98572.05, 0.0, 9.9996605, 9.999093 
9.35049e+2, 3.0438587e+2, -78360.32, -68390.28, -38729.12, -0.056851868, 0.09092932, -34326.67, -34326.67, 0.000000010385675, 9.999594, 9.999724 
9.3505085e+2, 3.1438595e+2, -145379.6, -45595.723, -40559.86, -0.105584584, 0.12251235, -31189.078, -31189.078, 0.00000050425, 9.998895, 10.000217 
9.450048e+2, 1.2439245e+2, -1547238.5, -1729479.5, 27627.191, 0.07153694, 0.110092245, -1543142.4, 177822.27, 0.000016753027, 10.001563, 9.9991455 
9.450072e+2, 1.3439193e+2, -1497815.4, -1650526.9, -10425.034, 0.052174475, 0.13738032, -1497107.0, 125862.73, 0.000002343361, 10.001211, 9.999185 
9.4500905e+2, 1.4439085e+2, -1413143.1, -1537526.3, 8670.469, -0.022573905, 0.104781576, -1412541.6, 112438.836, 0.0000000053592455, 10.001028, 9.999374 
9.4501233e+2, 1.5439014e+2, -1305679.9, -1431467.3, 10101.097, 0.009070379, 0.08985974, -1304873.9, 122113.93, 0.0, 10.001078, 9.999406 
9.450154e+2, 1.6438982e+2, -1206266.0, -1297248.1, 6692.3438, 0.017827446, 0.10173812, -1205776.4, 123214.79, 0.0, 10.000935, 9.999722 
9.450183e+2, 1.7438999e+2, -1162621.8, -1221105.5, 632.8337, 0.0063089556, 0.14146295, -1162614.9, 68374.25, 0.0, 10.000544, 9.99976 
9.4502103e+2, 1.8438959e+2, -1113843.8, -1187502.0, -9114.643, -0.00038322745, 0.14448, -1112732.6, 20260.453, 0.0, 10.000379, 9.999398 
9.4502366e+2, 1.943885e+2, -996048.44, -1079722.5, 2320.7542, -0.0046789167, 0.09162919, -995984.1, 39020.547, 0.0, 10.000513, 9.9994 
9.450263e+2, 2.043881e+2, -882721.8, -930305.1, -3785.0613, -0.0017439288, 0.09345838, -882422.6, 54586.402, 0.0, 10.000428, 9.999795 
9.450289e+2, 2.143886e+2, -834168.2, -850890.3, -25203.236, 0.011090831, 0.15778095, -815975.3, 23028.781, 0.0, 10.000067, 9.999842 
9.450311e+2, 2.2438832e+2, -788115.9, -829508.94, -49769.996, 0.0032119504, 0.16905287, -754910.7, -13903.512, 0.0, 9.999932, 9.99938 
9.450328e+2, 2.3438707e+2, -666862.7, -721217.5, -42378.75, -0.03195369, 0.104700185, -643695.56, -675.29236, 0.0, 10.000095, 9.9993725 
9.450349e+2, 2.4438645e+2, -559910.7, -585201.9, -28138.242, -0.0380386, 0.09201082, -541707.06, 3319.419, 0.0, 10.000011, 9.999675 
9.450375e+2, 2.543866e+2, -517237.38, -508495.38, -31748.31, -0.0073663085, 0.13401432, -480818.6, -33794.543, 0.0, 9.999608, 9.9997225 
9.450395e+2, 2.6438627e+2, -459775.44, -492554.5, -54428.99, -0.017134154, 0.15442486, -419321.94, -70294.34, 0.0, 9.999599, 9.999162 
9.450407e+2, 2.743853e+2, -288970.75, -361266.66, -63702.66, -0.07727942, 0.14305653, -251874.56, -836.08875, 0.0, 10.000108, 9.9991455 
9.450428e+2, 2.843846e+2, -203331.66, -259835.88, -33438.49, -0.091390446, 0.15497477, -187808.03, -34762.223, 0.0, 9.999981, 9.999231 
9.4504577e+2, 2.9438418e+2, -242019.52, -224724.61, -18499.756, -0.04760814, 0.18302314, -212951.02, -157901.86, 0.0, 9.999028, 9.999258 
9.450483e+2, 3.043827e+2, -195977.67, -134008.3, -23226.64, -0.052823216, 0.094560966, -126269.24, -126269.24, 0.00000000032400083, 9.998825, 9.999644 
9.450502e+2, 3.143829e+2, -60716.95, -29767.799, -44873.043, -0.09304258, 0.14282432, 2223.9543, 2223.9543, 0.00000016973306, 9.999583, 9.999994 
9.5500624e+2, 1.2438975e+2, -1524057.6, -1686675.6, 14291.787, 0.053426202, 0.14516772, -1522811.1, 198182.16, 0.00002677623, 10.001584, 9.999431 
9.550084e+2, 1.343891e+2, -1476184.3, -1605500.9, -23677.08, 0.044110313, 0.12755002, -1471985.4, 151012.69, 0.0000047533053, 10.001209, 9.999496 
9.550102e+2, 1.4438802e+2, -1419177.8, -1548752.6, 9192.99, -0.012163625, 0.08170827, -1418528.8, 106479.3, 0.000000046136613, 10.001022, 9.9993 
9.550136e+2, 1.5438762e+2, -1313016.4, -1446432.6, 12583.606, 0.020938635, 0.107928015, -1311839.9, 115172.66, 0.0, 10.001077, 9.999303 
9.5501643e+2, 1.6438718e+2, -1216646.9, -1319579.8, -7443.5303, 0.027544832, 0.12232104, -1216111.4, 112905.875, 0.0, 10.0009365, 9.999569 
9.5501894e+2, 1.7438674e+2, -1172625.3, -1242702.1, -13997.603, 0.010758941, 0.1153319, -1169932.6, 61089.184, 0.0, 10.0005455, 9.999611 
9.550215e+2, 1.8438636e+2, -1091528.0, -1141638.6, -6352.173, 0.0039194943, 0.11152973, -1090735.3, 42290.184, 0.0, 10.00038, 9.999713 
9.550243e+2, 1.9438605e+2, -972802.6, -1030747.25, 6960.346, 0.0073049203, 0.10535525, -971978.25, 63049.445, 0.0, 10.00051, 9.999739 
9.550267e+2, 2.0438564e+2, -917750.75, -1002619.3, -17619.555, -0.0026508358, 0.11190945, -914238.1, 22793.844, 0.0, 10.000425, 9.999301 
9.550286e+2, 2.1438509e+2, -872444.1, -929945.44, -39292.453, -0.028388541, 0.1251403, -852507.0, -13468.192, 0.0, 10.000065, 9.9993 
9.5503074e+2, 2.2438465e+2, -774272.94, -800980.25, -46021.055, -0.02596018, 0.13799374, -739707.3, 1336.936, 0.0, 9.999932, 9.999577 
9.550333e+2, 2.3438433e+2, -649636.9, -685193.75, -36021.973, 0.01153682, 0.14179602, -627244.94, 15802.922, 0.0, 10.000093, 9.999621 
9.550354e+2, 2.4438398e+2, -565634.4, -596765.75, -42387.313, 0.010752869, 0.14723684, -536045.06, 9005.96, 0.0, 10.000009, 9.999597 
9.550368e+2, 2.543836e+2, -525052.3, -523963.28, -46548.95, -0.038354952, 0.14542894, -477955.7, -30902.016, 0.0, 9.999604, 9.999618 
9.550386e+2, 2.6438287e+2, -473633.03, -521509.94, -37615.965, -0.06544757, 0.14473778, -452984.38, -103923.14, 0.0, 9.999599, 9.998964 
9.5504093e+2, 2.7438182e+2, -303519.72, -390648.34, -43526.316, -0.06546976, 0.14061148, -285501.66, -34426.98, 0.0, 10.000102, 9.998947 
9.5504296e+2, 2.8438112e+2, -180818.36, -210933.84, -65749.73, -0.06946257, 0.15019572, -128424.18, 24657.377, 0.0, 9.999971, 9.999572 
9.550445e+2, 2.943809e+2, -216499.75, -170168.06, -53016.383, -0.07917813, 0.16108103, -135477.25, -80396.45, 0.0, 9.999022, 9.999636 
9.5504683e+2, 3.0437985e+2, -216273.17, -175563.97, 1518.3685, -0.07933399, 0.10487835, -175507.42, -175507.42, 0.0, 9.99882, 9.999362 
9.5505023e+2, 3.1438026e+2, -92969.734, -93078.44, -13230.147, -0.04962247, 0.20965049, -79793.83, -79793.83, 0.000000027453995, 9.999567, 9.999568 
9.650076e+2, 1.2438694e+2, -1551797.3, -1702379.3, 34907.07, 0.04182182, 0.14043152, -1544098.9, 176922.52, 0.000040530904, 10.001408, 9.999405 
9.650096e+2, 1.3438648e+2, -1436694.8, -1586378.8, -29466.09, 0.03607141, 0.14150533, -1431103.1, 191921.72, 0.000008656152, 10.001482, 9.999494 
9.650115e+2, 1.4438546e+2, -1369855.0, -1516058.9, -4630.019, -0.0012205743, 0.09859588, -1369708.6, 155325.55, 0.00000019058375, 10.001324, 9.999378 
9.650145e+2, 1.5438506e+2, -1343326.6, -1451418.1, 10167.971, 0.023568327, 0.11701863, -1342378.5, 84659.47, 0.0, 10.000828, 9.999388 
9.650172e+2, 1.6438456e+2, -1264891.1, -1352403.0, 6289.258, 0.025939807, 0.124391556, -1264441.5, 64601.656, 0.0, 10.000648, 9.999481 
9.650196e+2, 1.7438397e+2, -1128505.4, -1231809.5, 3776.6511, 0.007666188, 0.11247576, -1128367.5, 102681.92, 0.0, 10.000895, 9.999517 
9.650221e+2, 1.8438359e+2, -1023196.25, -1111186.8, 335.42642, 0.0009175011, 0.11515104, -1023194.94, 109858.195, 0.0, 10.00086, 9.99969 
9.6502477e+2, 1.9438347e+2, -979887.5, -1035988.9, -13974.747, 0.005715665, 0.12918812, -976599.2, 58454.434, 0.0, 10.00047, 9.999722 
9.6502703e+2, 2.0438299e+2, -937464.44, -1020288.6, -35331.13, -0.0043990337, 0.1323843, -924440.8, 12617.709, 0.0, 10.000327, 9.999226 
9.650288e+2, 2.1438202e+2, -813715.56, -910656.9, -23250.305, -0.033034798, 0.112322405, -808427.7, 30641.31, 0.0, 10.000506, 9.99922 
9.650309e+2, 2.2438148e+2, -711249.6, -777582.9, -22449.31, -0.029166535, 0.12259064, -704366.3, 36709.133, 0.0, 10.000395, 9.999515 
9.650334e+2, 2.3438144e+2, -680205.94, -706365.2, -37267.234, 0.014881911, 0.16188763, -653789.7, -10712.982, 0.0, 9.999912, 9.999563 
9.6503526e+2, 2.4438113e+2, -611349.06, -622745.0, -52762.113, 0.012963249, 0.17602333, -563978.1, -18898.375, 0.0, 9.999714, 9.999559 
9.6503645e+2, 2.5438046e+2, -486534.25, -509127.06, -52323.055, -0.04720212, 0.15057953, -444302.03, 2782.8533, 0.0, 9.9998865, 9.999583 
9.650382e+2, 2.6437974e+2, -441431.22, -497594.3, -25502.01, -0.074197285, 0.1418305, -431579.6, -82486.57, 0.0, 9.999785, 9.999039 
9.650407e+2, 2.7437884e+2, -412177.13, -433806.47, -11397.037, -0.058930323, 0.14897248, -407280.34, -156175.8, 0.0, 9.999317, 9.999029 
9.6504265e+2, 2.8437823e+2, -284992.22, -260624.89, -42734.24, -0.06259519, 0.16247517, -228371.44, -75260.77, 0.0, 9.999254, 9.999577 
9.650438e+2, 2.9437795e+2, -113023.5, -120176.59, -60702.96, -0.09034783, 0.16868322, -55791.816, -681.29095, 0.0, 9.999733, 9.999637 
9.65046e+2, 3.0437705e+2, -93313.51, -107566.44, -1655.5955, -0.08877359, 0.12178043, -93123.73, -93123.73, 0.0, 9.99963, 9.999438 
9.650495e+2, 3.143775e+2, -209512.84, -147404.48, 13560.561, -0.03562095, 0.22058414, -144572.81, -144572.81, 0.00000000015790982, 9.99876, 9.999583 
9.750088e+2, 1.2438402e+2, -1575441.8, -1750671.8, 40388.98, 0.018392513, 0.09004437, -1566580.5, 154468.14, 0.000058506626, 10.001404, 9.999076 
9.75011e+2, 1.3438413e+2, -1458237.6, -1632036.1, -25252.209, 0.024082772, 0.17950314, -1454643.0, 168406.23, 0.00001444443, 10.001486, 9.999179 
9.750129e+2, 1.4438324e+2, -1353943.3, -1483979.9, -21772.455, 0.0052485475, 0.15617575, -1350394.6, 174663.36, 0.0000005546723, 10.001327, 9.999597 
9.750153e+2, 1.5438254e+2, -1325217.6, -1413921.6, -8184.872, 0.015098224, 0.11783746, -1324468.8, 102594.59, 0.0, 10.000828, 9.999646 
9.750177e+2, 1.6438201e+2, -1266270.9, -1355409.6, 12898.657, 0.0103319185, 0.10916816, -1264442.0, 64625.977, 0.0, 10.000648, 9.999461 
9.7502035e+2, 1.7438175e+2, -1131717.9, -1238105.6, 13041.704, -0.0050120708, 0.13372917, -1130142.5, 100928.8, 0.0, 10.000893, 9.9994755 
9.7502285e+2, 1.8438135e+2, -1048325.25, -1162950.8, -13869.077, -0.01255162, 0.15487753, -1046671.06, 86404.71, 0.0, 10.000857, 9.999336 
9.7502506e+2, 1.943808e+2, -1005936.94, -1090003.4, -28973.04, -0.011052058, 0.16254818, -996918.94, 38163.016, 0.0, 10.000469, 9.999351 
9.750273e+2, 2.0438015e+2, -914004.06, -971773.44, -31198.336, -0.009219473, 0.15493186, -900372.1, 36715.953, 0.0, 10.000327, 9.999559 
9.750296e+2, 2.1437943e+2, -787569.7, -855544.4, -16899.385, -0.005568386, 0.119943425, -783600.1, 55494.004, 0.0, 10.000503, 9.9996 
9.750315e+2, 2.2437885e+2, -734608.2, -825486.75, -40388.484, -0.009212014, 0.12303843, -719253.1, 21847.129, 0.0, 10.000392, 9.999187 
9.750329e+2, 2.3437849e+2, -706979.3, -761081.9, -55552.125, -0.022980632, 0.16649723, -672242.2, -29135.834, 0.0, 9.999908, 9.999188 
9.7503453e+2, 2.44378e+2, -611070.56, -622102.7, -48338.746, -0.03256288, 0.18111968, -567934.2, -22822.078, 0.0, 9.999712, 9.999565 
9.7503644e+2, 2.543773e+2, -484112.03, -503933.34, -45207.676, -0.036942676, 0.14838429, -447741.44, -623.8949, 0.0, 9.999885, 9.99962 
9.7503835e+2, 2.6437673e+2, -418423.06, -449055.25, -41235.504, -0.04613747, 0.14295602, -389751.1, -40628.164, 0.0, 9.999782, 9.999374 
9.7504e+2, 2.743764e+2, -387783.0, -382565.28, -27923.967, -0.061398808, 0.16687256, -357128.56, -106000.57, 0.0, 9.999314, 9.999383 
9.750418e+2, 2.8437594e+2, -308928.78, -310195.66, -27082.95, -0.07462182, 0.19305429, -282471.84, -129338.95, 0.0, 9.999252, 9.999237 
9.750436e+2, 2.943754e+2, -140872.22, -176155.42, -41261.914, -0.086022526, 0.20927054, -113638.76, -58500.844, 0.0, 9.999724, 9.999257 
9.750456e+2, 3.0437434e+2, -65459.156, -46950.633, -31119.268, -0.08484544, 0.14737311, -23738.754, -23738.754, 0.0, 9.999617, 9.999862 
9.75048e+2, 3.1437442e+2, -180406.11, -82997.37, -16529.29, -0.05912678, 0.1640678, -80268.94, -80268.94, 0.0, 9.998743, 10.000034 
9.850104e+2, 1.2438166e+2, -1530383.4, -1733681.6, 40601.855, 0.018161876, 0.08841151, -1522574.5, 198496.94, 0.00008108169, 10.001733, 9.999034 
9.8501223e+2, 1.3438171e+2, -1514061.6, -1663553.4, -9022.604, 0.018274631, 0.17685376, -1513519.0, 109553.766, 0.000022462764, 10.0011215, 9.999139 
9.850141e+2, 1.4438075e+2, -1411041.6, -1516839.6, 4553.8613, 0.013891102, 0.15140235, -1410846.0, 114236.484, 0.0000013019285, 10.0009575, 9.99955 
9.850163e+2, 1.5438008e+2, -1254413.9, -1384107.3, -4777.615, 0.008106701, 0.12021024, -1254238.1, 172849.5, 0.0, 10.001333, 9.999606 
9.8501855e+2, 1.6437955e+2, -1171047.1, -1311401.4, 2642.5957, -0.001143934, 0.11491465, -1170997.4, 158094.73, 0.0, 10.00131, 9.999443 
9.850212e+2, 1.7437924e+2, -1149352.3, -1248489.0, 3298.7021, -0.006636874, 0.13646093, -1149242.6, 81852.85, 0.0, 10.000779, 9.999458 
9.850235e+2, 1.8437877e+2, -1101774.9, -1195650.0, -11117.981, -0.010957531, 0.15282898, -1100476.1, 32624.748, 0.0, 10.000521, 9.999274 
9.850256e+2, 1.9437808e+2, -988389.6, -1088556.9, -4060.5884, -0.017312702, 0.15366726, -988225.25, 46883.4, 0.0, 10.000619, 9.9992895 
9.8502773e+2, 2.0437746e+2, -889558.06, -956880.4, -3169.1052, -0.012584549, 0.14850074, -889409.25, 47705.676, 0.0, 10.000481, 9.999588 
9.8503006e+2, 2.143769e+2, -851201.8, -882180.9, -15400.874, 0.0067237075, 0.12647268, -844848.44, -5729.3555, 0.0, 10.000049, 9.999636 
9.850317e+2, 2.243763e+2, -810505.06, -863484.9, -41829.492, 0.0013778275, 0.12773861, -787483.1, -46358.117, 0.0, 9.999879, 9.999172 
9.850328e+2, 2.3437575e+2, -687847.56, -754323.2, -31960.305, -0.036240235, 0.15226546, -674974.5, -31841.617, 0.0, 10.0000515, 9.9991665 
9.850342e+2, 2.4437517e+2, -574081.9, -621294.0, -11488.248, -0.047908507, 0.16797294, -571434.9, -26295.082, 0.0, 10.000041, 9.999412 
9.850364e+2, 2.5437456e+2, -509852.16, -534558.6, -24666.617, -0.027332578, 0.1605054, -494618.34, -47472.805, 0.0, 9.999787, 9.999456 
9.8503816e+2, 2.6437408e+2, -435813.97, -443410.97, -44287.383, -0.03246948, 0.16429521, -395162.5, -46011.89, 0.0, 9.999603, 9.999498 
9.8503935e+2, 2.7437374e+2, -347177.28, -346500.25, -48616.477, -0.070435055, 0.17768559, -298221.13, -47066.79, 0.0, 9.999525, 9.999528 
9.85041e+2, 2.843733e+2, -296499.53, -314240.66, -33237.58, -0.08498913, 0.19999318, -270969.16, -117810.086, 0.0, 9.999383, 9.9991455 
9.8504317e+2, 2.943727e+2, -236251.06, -234253.6, -26535.496, -0.06875419, 0.22157238, -208698.05, -153532.66, 0.0, 9.999122, 9.999148 
9.850452e+2, 3.0437165e+2, -134177.4, -66289.94, -28591.273, -0.06453168, 0.16301474, -55853.063, -55853.063, 0.0, 9.999087, 9.999983 
9.85047e+2, 3.143716e+2, -80720.75, -23690.566, -44484.35, -0.06965542, 0.15170531, 633.4172, 633.4172, 0.0, 9.999378, 10.000135 
9.950122e+2, 1.2437987e+2, -1514854.3, -1701284.3, 18371.447, 0.025516849, 0.13171601, -1513061.1, 208028.0, 0.000108580556, 10.001733, 9.999256 
9.9501336e+2, 1.3437927e+2, -1498879.3, -1632044.9, -31078.068, 0.016854582, 0.13441844, -1491983.4, 131111.58, 0.000033028722, 10.0011215, 9.999355 
9.9501514e+2, 1.4437807e+2, -1432321.9, -1561173.6, 16081.512, 0.021505352, 0.08573718, -1430345.1, 94761.88, 0.0000026281716, 10.000957, 9.999247 
9.950175e+2, 1.5437774e+2, -1277924.5, -1432894.0, 9981.22, -0.0006606213, 0.123845965, -1277284.4, 149826.05, 0.00000000019976186, 10.001332, 9.999272 
9.950198e+2, 1.6437724e+2, -1172800.1, -1314421.9, -15996.316, -0.012366878, 0.14001648, -1171015.8, 158099.4, 0.0, 10.0013075, 9.999425 
9.9502206e+2, 1.7437653e+2, -1148904.4, -1247890.8, -16828.479, 0.0005296803, 0.12067198, -1146121.6, 84999.97, 0.0, 10.00078, 9.999463 
9.9502414e+2, 1.843759e+2, -1085913.0, -1162963.8, -10005.771, 0.0019249787, 0.11018759, -1084634.9, 48492.754, 0.0, 10.000521, 9.999499 
9.950262e+2, 1.943754e+2, -971854.3, -1053798.9, -927.053, -0.014890504, 0.104845285, -971843.8, 63289.402, 0.0, 10.000617, 9.999529 
9.9502814e+2, 2.0437491e+2, -908833.44, -996523.7, -19856.03, -0.016642662, 0.11417884, -904546.9, 32591.553, 0.0, 10.000479, 9.999317 
9.9503005e+2, 2.1437444e+2, -872900.4, -926588.7, -32289.88, 0.002643392, 0.13199829, -857753.5, -18610.13, 0.0, 10.000046, 9.999331 
9.950316e+2, 2.2437388e+2, -790450.56, -821908.7, -37977.18, 0.0008258263, 0.13720074, -765074.0, -23924.78, 0.0, 9.999878, 9.999458 
9.950329e+2, 2.343732e+2, -664825.9, -706412.4, -25447.697, -0.027741585, 0.11846774, -652756.6, -9600.4795, 0.0, 10.00005, 9.999496 
9.950344e+2, 2.4437267e+2, -597196.6, -668600.25, -20360.34, -0.036567643, 0.13531359, -591799.0, -46636.42, 0.0, 10.000037, 9.999089 
9.9503624e+2, 2.543723e+2, -535898.7, -588093.8, -33468.4, -0.020440478, 0.1876402, -519555.5, -72386.945, 0.0, 9.999784, 9.99909 
9.9503773e+2, 2.6437172e+2, -442625.3, -457853.22, -47829.906, -0.034727026, 0.20924354, -401807.13, -52631.74, 0.0, 9.999603, 9.9994 
9.950387e+2, 2.7437094e+2, -352949.66, -357877.1, -50633.836, -0.08947407, 0.1841851, -304719.66, -53536.52, 0.0, 9.999521, 9.999453 
9.950403e+2, 2.843703e+2, -286337.88, -291288.5, -41749.89, -0.09749742, 0.1830662, -246989.97, -93800.81, 0.0, 9.999374, 9.999308 
9.9504256e+2, 2.9436988e+2, -223956.0, -207533.16, -34098.66, -0.043558735, 0.2019746, -180671.14, -125478.086, 0.0, 9.999117, 9.999333 
9.950445e+2, 3.0436906e+2, -149137.77, -97295.37, -18373.809, -0.03237992, 0.16630758, -91443.85, -91443.85, 0.0, 9.999085, 9.999771 
9.950463e+2, 3.1436905e+2, -101917.12, -63312.61, -30196.98, -0.07405111, 0.1845953, -46775.85, -46775.85, 0.0, 9.999359, 9.999873 
1.0050138e+3, 1.2437775e+2, -1581601.3, -1732923.0, 23539.74, 0.038606208, 0.13039333, -1578023.9, 143085.58, 0.00014134821, 10.00127, 9.999265 
1.00501455e+3, 1.3437706e+2, -1427799.3, -1597580.9, -42211.266, 0.0046693822, 0.12341666, -1417883.8, 205232.25, 0.000046426092, 10.001609, 9.999358 
1.0050165e+3, 1.4437576e+2, -1344266.8, -1529927.5, 8441.279, 0.025396, 0.07219976, -1343883.8, 181245.02, 0.00000474816, 10.001611, 9.9991455 
1.0050188e+3, 1.543755e+2, -1314009.5, -1463225.5, 16573.887, 0.0055152294, 0.124569304, -1312190.8, 114941.6, 0.000000004412824, 10.001139, 9.999158 
1.00502096e+3, 1.6437492e+2, -1236867.1, -1342273.4, -6114.34, -0.005870855, 0.14030357, -1236513.6, 92624.23, 0.0, 10.000853, 9.999454 
1.0050228e+3, 1.7437407e+2, -1141125.3, -1239058.1, -5266.196, 0.0033202968, 0.10275764, -1140842.9, 90302.125, 0.0, 10.000812, 9.999508 
1.00502476e+3, 1.8437342e+2, -1066941.5, -1157667.9, 1943.9705, 0.0042063473, 0.090311415, -1066899.9, 66251.24, 0.0, 10.000669, 9.999464 
1.0050267e+3, 1.9437306e+2, -1006031.44, -1074805.9, -9956.046, -0.009786467, 0.102748185, -1004619.1, 30536.498, 0.0, 10.0004015, 9.999488 
1.00502856e+3, 2.0437261e+2, -932411.5, -1007108.06, -31226.664, -0.016586185, 0.118180715, -921077.1, 16083.613, 0.0, 10.000316, 9.999321 
1.0050301e+3, 2.1437207e+2, -811331.3, -896231.4, -21706.992, -0.013192038, 0.12855068, -806103.3, 33063.26, 0.0, 10.000466, 9.999337 
1.0050316e+3, 2.2437155e+2, -714421.3, -783252.06, -22086.586, -0.015172926, 0.13641705, -707943.75, 33228.36, 0.0, 10.000393, 9.9994755 
1.00503296e+3, 2.3437102e+2, -665982.06, -704853.5, -34214.83, -0.025122873, 0.13051264, -646068.06, -2890.688, 0.0, 10.000033, 9.999514 
1.00503445e+3, 2.4437048e+2, -640996.1, -695316.3, -35654.434, -0.027356543, 0.14632277, -623335.4, -78151.34, 0.0, 9.999763, 9.999037 
1.0050359e+3, 2.5436988e+2, -565363.2, -608235.5, -27084.299, -0.020080877, 0.18335916, -552258.5, -105066.31, 0.0, 9.99961, 9.999034 
1.0050372e+3, 2.6436922e+2, -457863.13, -478192.2, -22777.096, -0.038504023, 0.20360288, -443085.44, -93885.17, 0.0, 9.9995575, 9.99928 
1.0050382e+3, 2.7436846e+2, -349530.8, -370252.72, -29464.91, -0.09115775, 0.19324565, -328658.28, -77450.07, 0.0, 9.999605, 9.999326 
1.0050397e+3, 2.8436777e+2, -253779.02, -261739.52, -30581.268, -0.096578434, 0.1882558, -226920.06, -73705.44, 0.0, 9.999539, 9.999431 
1.0050418e+3, 2.943672e+2, -180456.81, -170986.27, -30116.705, -0.039702684, 0.1803602, -145234.84, -90015.85, 0.0, 9.99935, 9.999472 
1.0050438e+3, 3.0436656e+2, -137817.67, -113096.67, -2651.4814, -0.02789176, 0.16147937, -112815.484, -112815.484, 0.0, 9.999255, 9.999581 
1.0050456e+3, 3.143668e+2, -135879.22, -105506.76, -11286.6, -0.07197181, 0.22780634, -101771.87, -101771.87, 0.0, 9.999237, 9.999641 
1.0150151e+3, 1.24375276e+2, -1594760.3, -1758733.5, 35358.063, 0.035624634, 0.08039835, -1587460.9, 133671.77, 0.0001798155, 10.001265, 9.99909 
1.0150159e+3, 1.343751e+2, -1441350.9, -1624951.8, -27989.352, -0.022652688, 0.14260449, -1437178.9, 185956.38, 0.000062927356, 10.001606, 9.999171 
1.0150181e+3, 1.4437392e+2, -1338774.0, -1518719.8, -7631.4907, 0.021652993, 0.10892787, -1338451.0, 186696.22, 0.000007860604, 10.00161, 9.999224 
1.01502016e+3, 1.5437335e+2, -1306964.0, -1449308.6, -1033.6714, 0.023214215, 0.1229741, -1306956.5, 120196.55, 0.000000028517778, 10.001141, 9.999253 
1.01502195e+3, 1.6437267e+2, -1231292.0, -1331212.8, -9612.174, 0.013780659, 0.11819308, -1230375.8, 98783.555, 0.0, 10.0008545, 9.999529 
1.0150236e+3, 1.7437191e+2, -1135550.9, -1227385.6, -7061.1846, -0.0004020047, 0.08336903, -1135011.1, 96154.234, 0.0, 10.000811, 9.999589 
1.0150254e+3, 1.843714e+2, -1087483.3, -1200222.4, -8956.724, -0.0063721463, 0.09208235, -1086776.1, 46394.66, 0.0, 10.000667, 9.999173 
1.01502724e+3, 1.9437112e+2, -1027975.3, -1120580.3, -20442.025, -0.004140808, 0.14601496, -1023663.56, 11511.985, 0.0, 10.000402, 9.999174 
1.0150289e+3, 2.0437063e+2, -913575.7, -967860.44, -27843.186, -0.015631134, 0.15996043, -901834.25, 35347.1, 0.0, 10.000314, 9.999592 
1.0150303e+3, 2.1436988e+2, -790066.94, -851324.5, -16475.117, -0.0431355, 0.116792075, -785917.1, 53270.938, 0.0, 10.000462, 9.999648 
1.0150316e+3, 2.2436939e+2, -733267.8, -821163.9, -35730.465, -0.049626354, 0.12566139, -720575.75, 20617.283, 0.0, 10.000387, 9.999219 
1.015033e+3, 2.3436926e+2, -686697.7, -747738.94, -47698.695, -0.029070428, 0.18867916, -660590.8, -17394.748, 0.0, 10.000032, 9.99922 
1.01503424e+3, 2.4436864e+2, -626337.3, -665200.2, -42520.715, -0.021536442, 0.20320803, -599018.44, -53815.03, 0.0, 9.999763, 9.999244 
1.0150354e+3, 2.5436738e+2, -548550.56, -573096.75, -32319.238, -0.029947056, 0.14803693, -526252.5, -79036.41, 0.0, 9.999608, 9.999277 
1.0150368e+3, 2.6436654e+2, -468329.28, -498511.5, -20856.846, -0.048185706, 0.14535436, -457676.47, -108451.21, 0.0, 9.999551, 9.999145 
1.015038e+3, 2.743663e+2, -360738.44, -393246.25, -25741.32, -0.07906365, 0.2024241, -346548.88, -95319.37, 0.0, 9.999604, 9.999168 
1.0150394e+3, 2.8436574e+2, -250262.66, -255377.56, -36658.32, -0.085554704, 0.21580653, -216072.69, -62837.52, 0.0, 9.999541, 9.999474 
1.01504095e+3, 2.9436478e+2, -177979.17, -163692.73, -35656.51, -0.0612686, 0.16366789, -134470.97, -79228.33, 0.0, 9.999339, 9.999527 
1.0150428e+3, 3.0436417e+2, -150547.56, -135959.17, -2682.847, -0.055592746, 0.15377766, -135481.44, -135481.44, 0.0, 9.999239, 9.999432 
1.0150449e+3, 3.143648e+2, -149477.44, -129973.36, -8361.667, -0.07372601, 0.27150655, -126879.4, -126879.4, 0.0, 9.999223, 9.999479 
1.0250164e+3, 1.24373086e+2, -1560959.4, -1741334.0, 33695.17, 0.03493335, 0.06970767, -1554870.4, 166283.22, 0.00022439056, 10.001493, 9.999097 
1.02501735e+3, 1.3437304e+2, -1473202.3, -1641579.8, -16841.96, -0.03598836, 0.14523268, -1471534.1, 151621.13, 0.0000828242, 10.001391, 9.999161 
1.0250195e+3, 1.4437188e+2, -1382287.9, -1531139.8, -4272.9023, 0.032840118, 0.11150099, -1382165.4, 143001.58, 0.000012107546, 10.001273, 9.999301 
1.0250214e+3, 1.5437129e+2, -1311047.0, -1441384.0, -825.72687, 0.035543274, 0.11497498, -1311041.9, 116130.836, 0.00000009714164, 10.001071, 9.999341 
1.02502294e+3, 1.6437066e+2, -1223616.3, -1336767.4, -3035.759, 0.019933067, 0.11400815, -1223534.9, 105643.79, 0.0, 10.000949, 9.999444 
1.0250244e+3, 1.7437002e+2, -1123468.0, -1233087.8, -14120.324, -0.008607698, 0.100722864, -1121678.4, 109506.02, 0.0, 10.000942, 9.999487 
1.025026e+3, 1.8436946e+2, -1063086.8, -1185594.1, -19314.434, -0.01917738, 0.1103655, -1060113.8, 73076.5, 0.0, 10.000823, 9.999198 
1.02502756e+3, 1.9436899e+2, -1000579.8, -1103246.0, -6359.139, -0.010792714, 0.1398056, -1000187.44, 35008.85, 0.0, 10.000573, 9.99921 
1.0250292e+3, 2.0436843e+2, -918549.56, -973278.06, -3654.5215, -0.015545283, 0.14715037, -918306.56, 18895.764, 0.0, 10.000294, 9.999565 
1.02503054e+3, 2.1436778e+2, -862498.94, -889603.9, -18078.988, -0.03683949, 0.118954495, -853456.7, -14248.431, 0.0, 9.99998, 9.999618 
1.0250319e+3, 2.243673e+2, -811842.6, -860422.6, -42820.902, -0.04296641, 0.13055962, -786902.2, -45688.68, 0.0, 9.999854, 9.999205 
1.0250329e+3, 2.3436709e+2, -696360.9, -753482.5, -35074.16, -0.030002, 0.1842252, -679689.9, -36472.098, 0.0, 9.999973, 9.9992075 
1.02503404e+3, 2.4436644e+2, -589247.06, -639273.1, -24122.152, -0.03018159, 0.19602501, -579510.56, -34285.566, 0.0, 9.999984, 9.999314 
1.025035e+3, 2.543653e+2, -508766.34, -545608.6, -27734.617, -0.04747229, 0.14365532, -493892.63, -46656.555, 0.0, 9.9998455, 9.9993515 
1.0250363e+3, 2.643645e+2, -443344.25, -477062.56, -12079.2295, -0.057727437, 0.13773763, -439463.63, -90219.195, 0.0, 9.999681, 9.999228 
1.0250377e+3, 2.7436426e+2, -371698.47, -388334.5, -862.05707, -0.05860386, 0.18478298, -371653.94, -120405.125, 0.0, 9.999487, 9.999256 
1.025039e+3, 2.843638e+2, -272691.16, -279221.1, -6119.0186, -0.06277278, 0.20799358, -269020.53, -115766.5, 0.0, 9.999446, 9.999354 
1.0250403e+3, 2.94363e+2, -150547.48, -165437.66, -18804.133, -0.071494244, 0.18962759, -137768.22, -82507.73, 0.0, 9.999593, 9.9993925 
1.0250419e+3, 3.043624e+2, -119407.69, -112104.56, 7048.873, -0.073659085, 0.18368609, -107817.58, -107817.58, 0.0, 9.999416, 9.999509 
1.02504395e+3, 3.143626e+2, -203380.48, -147966.6, 14760.07, -0.068916485, 0.2476381, -144280.31, -144280.31, 0.0, 9.9988165, 9.999553 
1.0350178e+3, 1.24371216e+2, -1550797.6, -1719844.6, 25112.559, 0.02090452, 0.09489587, -1547145.9, 174026.08, 0.00027553758, 10.0014925, 9.999245 
1.0350187e+3, 1.3437094e+2, -1462814.0, -1619799.0, -19585.643, -0.039426085, 0.13248284, -1460407.4, 162767.84, 0.000106410545, 10.00139, 9.9993105 
1.0350211e+3, 1.4436975e+2, -1376866.4, -1519679.6, -11876.793, 0.054134335, 0.08278279, -1375885.5, 149301.58, 0.000017580353, 10.001271, 9.999381 
1.03502244e+3, 1.5436937e+2, -1305387.9, -1429299.3, -8177.578, 0.04049422, 0.10018761, -1304850.6, 122339.96, 0.00000023822265, 10.00107, 9.999424 
1.0350238e+3, 1.6436894e+2, -1240788.4, -1373601.4, -4833.9707, 0.010795039, 0.12578283, -1240612.8, 88582.64, 0.0, 10.000952, 9.99919 
1.0350251e+3, 1.7436844e+2, -1142772.4, -1273498.0, -14456.95, -0.024204334, 0.15384926, -1141192.6, 90008.94, 0.0, 10.000942, 9.999209 
1.0350266e+3, 1.8436772e+2, -1040447.94, -1138308.0, -29342.594, -0.038565412, 0.14643818, -1032324.2, 100884.66, 0.0, 10.00082, 9.999523 
1.03502795e+3, 1.9436671e+2, -974977.6, -1049606.8, -16379.218, -0.031061575, 0.08602006, -971541.06, 63676.07, 0.0, 10.00057, 9.999579 
1.03502944e+3, 2.0436607e+2, -941590.06, -1020638.7, -16830.723, -0.017879223, 0.080600545, -938155.75, -932.5138, 0.0, 10.000291, 9.999241 
1.035031e+3, 2.1436587e+2, -888234.2, -943339.6, -30345.89, 0.0040792297, 0.13384211, -874798.8, -35571.996, 0.0, 9.99998, 9.9992485 
1.0350321e+3, 2.2436537e+2, -796103.2, -827864.7, -40598.434, 0.0020548035, 0.15149063, -768390.0, -27157.025, 0.0, 9.999854, 9.999429 
1.03503294e+3, 2.3436452e+2, -678127.0, -715573.75, -30493.164, -0.030195449, 0.11725583, -661067.75, -17825.598, 0.0, 9.999971, 9.99947 
1.0350337e+3, 2.4436392e+2, -594773.4, -649390.6, -29003.459, -0.056525823, 0.12291609, -582245.3, -36996.715, 0.0, 9.999978, 9.999248 
1.0350346e+3, 2.543637e+2, -514727.44, -558362.0, -31992.986, -0.07436335, 0.1692448, -497820.75, -50569.055, 0.0, 9.9998455, 9.999264 
1.0350358e+3, 2.643632e+2, -423677.4, -436692.3, -18994.576, -0.06873232, 0.18275322, -410106.5, -60849.305, 0.0, 9.999682, 9.999505 
1.0350375e+3, 2.7436236e+2, -351657.9, -345094.56, -7385.02, -0.033396795, 0.14513539, -340294.9, -89029.28, 0.0, 9.999478, 9.999558 
1.0350388e+3, 2.843619e+2, -292200.2, -316920.63, -1013.3388, -0.032731246, 0.16599181, -292158.72, -138887.6, 0.0, 9.9994335, 9.999102 
1.03503995e+3, 2.9436195e+2, -170712.48, -206555.2, -10640.108, -0.07503456, 0.25324017, -167791.89, -112519.24, 0.0, 9.99959, 9.999111 
1.0350413e+3, 3.0436128e+2, -100474.88, -74116.89, -12206.945, -0.086358234, 0.24720651, -69332.164, -69332.164, 0.0, 9.99942, 9.999769 
1.03504285e+3, 3.1436026e+2, -185328.23, -107935.34, -4718.411, -0.06262231, 0.16232209, -107648.734, -107648.734, 0.0, 9.998804, 9.999833 
1.0450194e+3, 1.2436944e+2, -1539391.5, -1710773.9, 40007.516, 0.03615957, 0.09555435, -1530512.1, 190676.98, 0.0003338259, 10.001553, 9.999278 
1.0450199e+3, 1.3436903e+2, -1488639.3, -1630549.1, -9983.856, -0.03755698, 0.11953835, -1487940.3, 135253.0, 0.00013404706, 10.0012045, 9.999327 
1.0450223e+3, 1.4436781e+2, -1403734.8, -1535682.4, -2456.3105, 0.06564751, 0.06628541, -1403689.0, 121516.39, 0.000024406929, 10.001102, 9.999351 
1.0450234e+3, 1.5436749e+2, -1280037.3, -1421591.9, -9895.857, 0.024569595, 0.09265066, -1279348.8, 147859.78, 0.0000004785213, 10.001262, 9.999385 
1.0450247e+3, 1.6436705e+2, -1212606.8, -1362837.8, -9425.319, -0.008468801, 0.121831484, -1212017.8, 117195.87, 0.0, 10.001158, 9.999166 
1.0450261e+3, 1.7436652e+2, -1174346.3, -1290663.3, -1461.9425, -0.016158866, 0.14802083, -1174327.9, 56892.516, 0.0, 10.000736, 9.99919 
1.04502745e+3, 1.8436581e+2, -1081164.4, -1152480.4, -10999.702, -0.022390613, 0.14210595, -1079506.3, 53721.125, 0.0, 10.00052, 9.99957 
1.0450286e+3, 1.9436494e+2, -970560.06, -1041865.9, -22053.486, -0.03322734, 0.08764777, -964290.6, 70943.93, 0.0, 10.000578, 9.999629 
1.04502976e+3, 2.0436427e+2, -913246.8, -1013567.7, -30717.324, -0.025857426, 0.08133874, -904588.7, 32652.041, 0.0, 10.000514, 9.999181 
1.0450311e+3, 2.1436393e+2, -845599.1, -929993.25, -23155.139, 0.0060543166, 0.12695725, -839663.56, -417.7616, 0.0, 10.000306, 9.999182 
1.0450322e+3, 2.243634e+2, -760663.6, -807550.8, -20624.426, 0.008461995, 0.1444081, -752882.75, -11630.434, 0.0, 10.000083, 9.999457 
1.0450328e+3, 2.3436268e+2, -694222.56, -719418.8, -28554.486, -0.027318848, 0.117618516, -675610.56, -32350.002, 0.0, 9.999844, 9.999505 
1.04503356e+3, 2.4436216e+2, -621624.25, -651205.56, -28414.268, -0.054232772, 0.12614834, -604381.6, -59115.547, 0.0, 9.999744, 9.999348 
1.04503445e+3, 2.5436202e+2, -510691.84, -543906.06, -18268.295, -0.06921377, 0.17156868, -502610.34, -55342.645, 0.0, 9.999822, 9.999373 
1.0450355e+3, 2.6436153e+2, -424926.56, -444144.84, -18203.105, -0.0652749, 0.18493026, -413952.0, -64679.13, 0.0, 9.999705, 9.999442 
1.04503684e+3, 2.7436066e+2, -376709.4, -365606.9, -35508.67, -0.038017526, 0.1456086, -335218.2, -83935.49, 0.0, 9.999343, 9.999482 
1.0450381e+3, 2.8436023e+2, -323568.03, -315090.28, -16180.687, -0.040396135, 0.16756357, -302602.44, -149314.38, 0.0, 9.9991455, 9.999252 
1.0450392e+3, 2.9436046e+2, -224414.61, -213396.4, 5478.986, -0.07754593, 0.26105988, -211135.72, -155848.4, 0.0, 9.99914, 9.99928 
1.0450406e+3, 3.043599e+2, -138974.13, -78253.945, 2297.3818, -0.08473306, 0.25011194, -78167.14, -78167.14, 0.0, 9.999094, 9.999897 
1.04504175e+3, 3.1435877e+2, -146412.05, -75941.234, -3722.6226, -0.05949462, 0.13895094, -75745.13, -75745.13, 0.0, 9.999015, 9.99995 
1.0550212e+3, 1.24367796e+2, -1544151.0, -1719648.3, 20924.797, 0.06088281, 0.06892385, -1541690.6, 179513.92, 0.00039971265, 10.001548, 9.99922 
1.0550212e+3, 1.3436742e+2, -1495385.1, -1645047.9, -21472.158, -0.03124935, 0.106188536, -1492365.4, 130843.19, 0.00016604259, 10.001206, 9.999227 
1.05502345e+3, 1.4436615e+2, -1413765.9, -1558226.3, 2246.884, 0.065687194, 0.061264876, -1413731.0, 111490.39, 0.000032768716, 10.001109, 9.999194 
1.0550243e+3, 1.5436572e+2, -1292200.8, -1446038.0, -3717.2087, -0.015930029, 0.09293207, -1292111.0, 135115.05, 0.0000008393984, 10.001258, 9.99922 
1.0550255e+3, 1.6436511e+2, -1199447.0, -1334978.0, -24880.59, -0.043126307, 0.105175786, -1195023.9, 134208.45, 0.0, 10.001155, 9.999358 
1.0550271e+3, 1.7436433e+2, -1158740.8, -1258255.4, -17612.063, 0.013868073, 0.08487135, -1155715.8, 75524.28, 0.0, 10.000736, 9.9994135 
1.05502844e+3, 1.8436383e+2, -1097185.1, -1186245.5, -11213.435, 0.027253192, 0.09716293, -1095794.9, 37450.582, 0.0, 10.000521, 9.999338 
1.0550293e+3, 1.9436367e+2, -989017.8, -1080255.1, -20265.932, -0.019619606, 0.14188841, -984718.8, 50529.336, 0.0, 10.000577, 9.999366 
1.05503015e+3, 2.043631e+2, -899863.2, -985347.56, -39221.047, -0.04266837, 0.14863214, -884595.1, 52659.13, 0.0, 10.000512, 9.999376 
1.055031e+3, 2.1436203e+2, -830090.56, -897435.9, -31338.652, -0.03261259, 0.09890296, -817763.6, 21500.996, 0.0, 10.000303, 9.999408 
1.0550319e+3, 2.2436146e+2, -772722.5, -832116.75, -30739.143, -0.025949838, 0.10856321, -759678.4, -18407.209, 0.0, 10.00008, 9.99929 
1.0550327e+3, 2.3436156e+2, -707174.4, -747333.06, -37523.055, -0.023188291, 0.18388462, -684696.0, -41423.21, 0.0, 9.999846, 9.999312 
1.0550337e+3, 2.4436122e+2, -603299.56, -613398.9, -26618.857, -0.02577458, 0.20641594, -581255.6, -35978.824, 0.0, 9.999744, 9.999608 
1.0550347e+3, 2.5436035e+2, -490832.66, -501828.72, -14820.848, -0.03471677, 0.15193765, -480522.9, -33239.227, 0.0, 9.999816, 9.999665 
1.0550354e+3, 2.6435962e+2, -453041.9, -500729.75, -30871.031, -0.05006964, 0.1422957, -437878.75, -88587.35, 0.0, 9.999697, 9.999058 
1.05503574e+3, 2.743591e+2, -406709.6, -428112.53, -47617.883, -0.075486094, 0.18267553, -368605.5, -117305.664, 0.0, 9.999343, 9.999053 
1.0550367e+3, 2.8435877e+2, -287024.88, -239801.13, -16081.693, -0.088472664, 0.21179402, -234844.81, -81540.34, 0.0, 9.999146, 9.999769 
1.05503835e+3, 2.9435873e+2, -185367.36, -130076.11, 6800.4263, -0.082035616, 0.21867579, -129251.984, -73948.07, 0.0, 9.999128, 9.999859 
1.0550397e+3, 3.043584e+2, -139465.5, -76636.375, -538.006, -0.072635196, 0.19683653, -76631.77, -76631.77, 0.0, 9.999083, 9.999914 
1.0550408e+3, 3.1435812e+2, -147250.72, -77715.91, -3853.8157, -0.067757726, 0.17611776, -77502.97, -77502.97, 0.0, 9.999015, 9.999939 
1.0650227e+3, 1.2436634e+2, -1581501.1, -1736555.8, 4031.2122, 0.058468938, 0.08086061, -1581396.4, 139823.77, 0.00047318285, 10.00129, 9.999228 
1.0650226e+3, 1.3436596e+2, -1437087.4, -1619810.6, -27259.838, -0.031105775, 0.12014245, -1433107.3, 190116.63, 0.00020250746, 10.001617, 9.999203 
1.065025e+3, 1.4436466e+2, -1340285.4, -1529264.5, -1053.3684, 0.08390416, 0.07508787, -1340279.5, 184957.38, 0.000042863663, 10.001641, 9.999136 
1.0650255e+3, 1.5436417e+2, -1304304.9, -1458102.0, -1231.1844, -0.021539455, 0.10681648, -1304295.0, 122947.38, 0.0000013547858, 10.001204, 9.999161 
1.0650264e+3, 1.6436349e+2, -1229615.5, -1341476.4, -24819.754, -0.055505857, 0.113137335, -1224355.8, 104893.164, 0.0, 10.0009165, 9.999427 
1.06502794e+3, 1.7436266e+2, -1137734.9, -1239690.8, -29387.926, 0.015794698, 0.0785909, -1129870.6, 101385.78, 0.0, 10.000844, 9.999488 
1.0650292e+3, 1.8436214e+2, -1080820.5, -1190929.5, -18428.342, 0.036429066, 0.09026041, -1077818.1, 55444.02, 0.0, 10.000689, 9.999225 
1.0650299e+3, 1.9436201e+2, -1017353.7, -1107797.4, -17909.402, -0.013625373, 0.15346324, -1013936.44, 21328.99, 0.0, 10.000443, 9.99924 
1.06503054e+3, 2.0436153e+2, -925205.9, -984299.2, -34961.926, -0.04209461, 0.16930246, -908977.6, 28293.533, 0.0, 10.000281, 9.999494 
1.0650312e+3, 2.1436056e+2, -831290.1, -882818.7, -34982.633, -0.041041635, 0.1162471, -813608.1, 25671.906, 0.0, 10.00023, 9.999543 
1.0650319e+3, 2.2436003e+2, -762006.94, -828452.94, -32670.5, -0.040190108, 0.12206034, -748634.56, -7348.701, 0.0, 10.00016, 9.999277 
1.0650325e+3, 2.3436007e+2, -675656.44, -734103.6, -27788.291, -0.039777342, 0.19449537, -664553.75, -21265.902, 0.0, 10.000073, 9.999293 
1.0650333e+3, 2.4435973e+2, -589626.94, -601238.4, -18334.986, -0.0352106, 0.21532965, -576200.44, -30908.59, 0.0, 9.999816, 9.999657 
1.0650343e+3, 2.543589e+2, -555875.7, -527277.0, -25537.111, -0.025295213, 0.1584125, -512308.34, -65009.773, 0.0, 9.999345, 9.999719 
1.06503494e+3, 2.643582e+2, -521076.84, -529945.2, -30104.195, -0.038813263, 0.14663011, -495082.0, -145776.05, 0.0, 9.999213, 9.99909 
1.0650352e+3, 2.743577e+2, -382069.2, -412203.72, -13546.987, -0.08263922, 0.18714146, -376874.6, -125560.9, 0.0, 9.9994955, 9.999089 
1.0650359e+3, 2.8435737e+2, -251289.19, -220155.6, 9709.713, -0.09624262, 0.21109733, -217375.64, -64057.26, 0.0, 9.999383, 9.999789 
1.0650373e+3, 2.9435718e+2, -232463.88, -150447.98, -9986.721, -0.06978507, 0.20316774, -149249.45, -93930.266, 0.0, 9.9987955, 9.999877 
1.0650387e+3, 3.0435687e+2, -191811.03, -93777.92, -18346.898, -0.060074646, 0.18258037, -90456.81, -90456.81, 0.0, 9.99869, 9.999984 
1.0650397e+3, 3.1435707e+2, -124298.89, -58307.504, -17955.248, -0.07613366, 0.20172977, -53738.496, -53738.496, 0.0, 9.999138, 10.000012 
1.07502356e+3, 1.2436519e+2, -1578683.8, -1730142.0, 6715.576, 0.016352475, 0.13177858, -1578386.5, 142848.23, 0.00055371417, 10.001289, 9.99927 
1.07502416e+3, 1.3436474e+2, -1435889.3, -1615256.0, -13316.499, -0.040935136, 0.16209936, -1434906.0, 188332.17, 0.00024334127, 10.001609, 9.999238 
1.075027e+3, 1.443634e+2, -1338276.1, -1523632.0, -15646.037, 0.114378475, 0.10889689, -1336964.8, 188286.47, 0.00005483326, 10.001634, 9.999178 
1.075027e+3, 1.543629e+2, -1300921.6, -1451643.1, -17478.398, 0.0060257707, 0.13492261, -1298921.4, 128335.46, 0.000002073113, 10.001205, 9.999205 
1.07502736e+3, 1.6436225e+2, -1232917.0, -1349584.0, -29470.95, -0.047676563, 0.1448033, -1225895.1, 103367.82, 0.0000000000166348, 10.000921, 9.99937 
1.07502855e+3, 1.7436153e+2, -1142747.5, -1249671.9, -32053.146, -0.0125062065, 0.12755504, -1133875.0, 97394.266, 0.0, 10.000842, 9.999421 
1.0750295e+3, 1.8436079e+2, -1081490.9, -1191948.9, -28409.262, 0.0011703061, 0.12215463, -1074612.5, 58664.324, 0.0, 10.000686, 9.99922 
1.0750303e+3, 1.9436008e+2, -1017817.25, -1108462.0, -27493.004, -0.017062563, 0.12414177, -1010130.4, 25155.252, 0.0, 10.000442, 9.999237 
1.075031e+3, 2.0435964e+2, -922581.7, -978852.4, -38702.492, -0.026464276, 0.14403725, -902868.5, 34422.363, 0.0, 10.00028, 9.999533 
1.0750316e+3, 2.1435957e+2, -828429.94, -876982.1, -37461.7, -0.021807969, 0.17731957, -808066.25, 31225.316, 0.0, 10.000229, 9.999584 
1.0750321e+3, 2.2435914e+2, -752045.75, -807628.5, -37125.027, -0.03696045, 0.18471853, -733462.25, 7833.78, 0.0, 10.000159, 9.999421 
1.0750322e+3, 2.3435827e+2, -665261.7, -712462.56, -30906.613, -0.07821917, 0.15029927, -649975.1, -6669.906, 0.0, 10.000072, 9.999443 
1.0750327e+3, 2.4435773e+2, -601144.8, -624743.5, -35601.164, -0.08399503, 0.1517732, -575438.56, -30127.719, 0.0, 9.999813, 9.999496 
1.0750335e+3, 2.5435767e+2, -568463.94, -553907.94, -42637.047, -0.043921735, 0.18961802, -517932.2, -70620.2, 0.0, 9.999346, 9.999535 
1.0750342e+3, 2.6435727e+2, -490484.47, -466695.63, -20591.936, -0.033943582, 0.19819036, -454809.72, -105493.555, 0.0, 9.999213, 9.999525 
1.0750349e+3, 2.7435648e+2, -349313.4, -342833.6, -1843.1766, -0.062020633, 0.16104245, -342346.0, -91022.12, 0.0, 9.999488, 9.99957 
1.0750356e+3, 2.84356e+2, -284786.03, -287654.16, -10867.2705, -0.0668197, 0.1654459, -275258.63, -121928.96, 0.0, 9.999373, 9.9993305 
1.0750365e+3, 2.943558e+2, -268694.25, -225941.47, -30347.264, -0.04475488, 0.2118549, -210197.69, -154864.72, 0.0, 9.998796, 9.999359 
1.0750375e+3, 3.0435547e+2, -184385.3, -79184.54, -1900.5492, -0.049871787, 0.20563297, -79150.22, -79150.22, 0.0, 9.998692, 10.000084 
1.0750387e+3, 3.1435576e+2, -115456.484, -37774.44, 1610.0385, -0.08981191, 0.22258756, -37741.086, -37741.086, 0.0, 9.999127, 10.000159 
1.08502515e+3, 1.2436397e+2, -1514267.0, -1684846.8, 4751.559, 0.034959886, 0.16924988, -1514134.8, 207114.95, 0.00064071716, 10.001672, 9.999397 
1.0850254e+3, 1.3436356e+2, -1469464.6, -1618841.8, 338.74402, -0.066880316, 0.19050917, -1469463.9, 153788.22, 0.00028839763, 10.001327, 9.999349 
1.08502835e+3, 1.4436221e+2, -1404971.3, -1553206.1, -4668.8384, 0.103887334, 0.13198747, -1404824.4, 120440.016, 0.00006873226, 10.001168, 9.999198 
1.0850284e+3, 1.5436165e+2, -1303828.1, -1452118.8, -12443.528, 0.03264591, 0.15116173, -1302791.1, 124479.19, 0.0000030594845, 10.001183, 9.999212 
1.0850287e+3, 1.6436101e+2, -1206458.3, -1341974.5, -21170.746, -0.022277819, 0.16084315, -1203227.9, 126048.87, 0.000000000186287, 10.001124, 9.999323 
1.0850292e+3, 1.743603e+2, -1125663.4, -1246587.0, -23260.188, -0.036814272, 0.15255947, -1121343.5, 109939.61, 0.0, 10.000983, 9.9993725 
1.0850299e+3, 1.8435961e+2, -1061219.9, -1167064.6, -19072.271, -0.03248438, 0.14637524, -1057888.1, 75401.93, 0.0, 10.000761, 9.999353 
1.0850307e+3, 1.9435889e+2, -1006344.8, -1086478.8, -8190.3804, -0.01085281, 0.13402826, -1005516.25, 29781.639, 0.0, 10.00045, 9.999384 
1.0850314e+3, 2.0435843e+2, -936837.44, -992218.6, -9198.21, -0.004969936, 0.14676493, -935349.7, 1953.25, 0.0, 10.000211, 9.999474 
1.08503185e+3, 2.1435831e+2, -855766.06, -898061.75, -16676.951, -0.017726582, 0.1834991, -849981.56, -10677.289, 0.0, 10.000076, 9.999513 
1.0850321e+3, 2.2435786e+2, -779843.3, -812790.75, -23643.27, -0.03876667, 0.1873651, -767500.56, -26191.607, 0.0, 9.999933, 9.999495 
1.0850322e+3, 2.3435694e+2, -701384.5, -720633.7, -24360.225, -0.07154538, 0.1398187, -684816.5, -41498.484, 0.0, 9.9997835, 9.999526 
1.08503245e+3, 2.4435638e+2, -625131.5, -648931.94, -33900.6, -0.08119376, 0.141319, -601103.1, -55779.297, 0.0, 9.999702, 9.999384 
1.0850328e+3, 2.5435638e+2, -525547.8, -546905.3, -37564.95, -0.060680095, 0.19698708, -497173.28, -49847.98, 0.0, 9.9997, 9.999413 
1.0850334e+3, 2.6435605e+2, -438796.75, -418941.3, -16478.605, -0.048756912, 0.2092029, -409630.97, -60302.13, 0.0, 9.999472, 9.999728 
1.08503416e+3, 2.7435535e+2, -408674.63, -346589.75, -17279.873, -0.048219528, 0.15663041, -342104.34, -90769.58, 0.0, 9.998974, 9.999791 
1.0850349e+3, 2.8435487e+2, -367909.34, -348283.84, -25274.174, -0.049787052, 0.16068083, -330984.34, -177644.25, 0.0, 9.998891, 9.999146 
1.0850354e+3, 2.9435468e+2, -210389.31, -221802.33, -23674.984, -0.054048344, 0.22741711, -191742.81, -136398.25, 0.0, 9.9993, 9.999145 
1.0850364e+3, 3.0435413e+2, -108595.8, -36984.69, 13198.025, -0.06276065, 0.20961578, -34629.723, -34629.723, 0.0, 9.999188, 10.000134 
1.0850376e+3, 3.143543e+2, -206354.22, -71328.414, 9482.466, -0.07821869, 0.20707324, -70665.734, -70665.734, 0.0, 9.998461, 10.000248 
1.09502755e+3, 1.2436274e+2, -1499795.5, -1652278.9, -19944.064, 0.10162214, 0.19077119, -1497230.1, 224034.19, 0.000734217, 10.001661, 9.999625 
1.0950262e+3, 1.3436246e+2, -1455416.0, -1591066.5, -10579.644, -0.11180129, 0.2066281, -1454595.9, 168668.64, 0.00033773432, 10.001331, 9.999537 
1.095029e+3, 1.443612e+2, -1405032.3, -1554248.6, -4945.964, 0.049471408, 0.14497896, -1404868.5, 120406.97, 0.0000845864, 10.001172, 9.999188 
1.0950299e+3, 1.543605e+2, -1306880.3, -1457730.4, -11352.938, 0.05528741, 0.15519112, -1306030.6, 121251.76, 0.0000043925156, 10.00118, 9.999175 
1.09503016e+3, 1.643598e+2, -1209554.1, -1347816.9, -27002.33, 0.015943006, 0.16165058, -1204467.9, 124821.92, 0.0000000006358386, 10.0011215, 9.999285 
1.0950299e+3, 1.7435907e+2, -1128555.0, -1252737.3, -28679.695, -0.05954716, 0.15480213, -1122251.5, 109045.74, 0.0, 10.000983, 9.9993305 
1.0950303e+3, 1.843586e+2, -1042290.1, -1127820.8, -31762.63, -0.06822529, 0.16299325, -1031785.0, 101516.62, 0.0, 10.000761, 9.999623 
1.09503135e+3, 1.9435848e+2, -985887.0, -1043834.25, -20575.24, 0.0033605269, 0.18181589, -979324.56, 55977.395, 0.0, 10.000449, 9.999678 
1.0950319e+3, 2.0435794e+2, -947581.7, -1014574.8, -16214.625, 0.020274896, 0.17755356, -943863.56, -6556.7036, 0.0, 10.00021, 9.999322 
1.0950317e+3, 2.1435687e+2, -868932.7, -925406.7, -22041.975, -0.030803548, 0.1359356, -861348.25, -22030.707, 0.0, 10.000075, 9.999326 
1.09503195e+3, 2.2435622e+2, -780091.7, -813553.7, -30518.018, -0.048256386, 0.13068555, -762019.25, -20695.023, 0.0, 9.999933, 9.99949 
1.0950325e+3, 2.3435609e+2, -700867.2, -719710.06, -30152.99, -0.022614215, 0.162283, -678698.06, -35372.086, 0.0, 9.9997835, 9.999533 
1.0950327e+3, 2.4435572e+2, -629525.75, -658146.9, -34623.758, -0.029470695, 0.18348236, -606371.75, -61041.35, 0.0, 9.999702, 9.999322 
1.0950323e+3, 2.5435507e+2, -530507.56, -556201.44, -37028.18, -0.07742698, 0.18111114, -504161.03, -56822.92, 0.0, 9.999695, 9.9993515 
1.0950325e+3, 2.6435456e+2, -441538.88, -423601.38, -34201.7, -0.08510204, 0.17968783, -397212.03, -47868.383, 0.0, 9.999466, 9.999699 
1.0950332e+3, 2.7435428e+2, -410660.1, -350742.8, -34764.203, -0.04388386, 0.17321664, -334809.53, -83463.55, 0.0, 9.998974, 9.999763 
1.0950338e+3, 2.84354e+2, -362995.47, -338058.0, -10866.435, -0.046650346, 0.19739854, -333987.4, -180638.19, 0.0, 9.99889, 9.999218 
1.0950342e+3, 2.9435375e+2, -206059.63, -210811.22, -6431.672, -0.10111279, 0.2492976, -201578.97, -146225.22, 0.0, 9.99929, 9.999226 
1.09503515e+3, 3.0435288e+2, -110603.734, -38759.523, -12308.754, -0.10346324, 0.1932814, -36709.23, -36709.23, 0.0, 9.999177, 10.000128 
1.09503634e+3, 3.1435272e+2, -204552.08, -67108.72, -15505.737, -0.04716555, 0.15806903, -65381.15, -65381.15, 0.0, 9.998458, 10.000279 
1.10502906e+3, 1.2436188e+2, -1542539.4, -1681215.5, 15653.582, 0.095638275, 0.18777388, -1540794.4, 180478.64, 0.00083503575, 10.001404, 9.99955 
1.1050278e+3, 1.3436157e+2, -1417290.8, -1585322.3, 14017.622, -0.10483325, 0.21286225, -1416129.4, 207144.89, 0.0003918232, 10.001644, 9.999428 
1.10503055e+3, 1.4436033e+2, -1329404.0, -1510536.5, 6197.855, 0.067057654, 0.15539107, -1329192.1, 196093.14, 0.000102570426, 10.00166, 9.999254 
1.10503085e+3, 1.543596e+2, -1287225.9, -1439402.0, 5570.1167, 0.03554362, 0.15358396, -1287022.3, 140269.67, 0.0000061708192, 10.001278, 9.999252 
1.105031e+3, 1.6435888e+2, -1234716.9, -1361037.0, -2777.0679, -0.0038386, 0.15822114, -1234655.9, 94642.94, 0.0000000015512864, 10.000957, 9.999272 
1.10503115e+3, 1.7435826e+2, -1165442.4, -1272683.0, -3969.0623, -0.034258414, 0.1618802, -1165295.6, 66010.17, 0.0, 10.00074, 9.9993105 
1.1050314e+3, 1.8435779e+2, -1069023.5, -1147258.8, -16028.222, -0.03433846, 0.17288554, -1065867.1, 67443.375, 0.0, 10.000606, 9.999564 
1.1050319e+3, 1.9435754e+2, -969965.6, -1042769.4, -31883.014, -0.0020695364, 0.18572725, -957977.2, 77334.625, 0.0, 10.000587, 9.999618 
1.105032e+3, 2.0435692e+2, -903667.7, -993171.5, -34806.074, -0.0022542898, 0.17534761, -891725.7, 45591.58, 0.0, 10.000511, 9.999323 
1.1050319e+3, 2.143558e+2, -826671.1, -904253.44, -27792.389, -0.04259192, 0.1263898, -817742.56, 21585.504, 0.0, 10.000362, 9.999332 
1.105032e+3, 2.2435512e+2, -754230.0, -810896.75, -33460.11, -0.051754437, 0.12387937, -738718.7, 2616.1958, 0.0, 10.000154, 9.999401 
1.10503234e+3, 2.3435505e+2, -694789.8, -727388.4, -41485.77, -0.021563666, 0.17146039, -666516.25, -23179.8, 0.0, 9.999871, 9.999437 
1.10503234e+3, 2.4435468e+2, -638558.6, -652627.1, -41102.563, -0.024922268, 0.19310218, -603892.75, -58551.813, 0.0, 9.9995985, 9.999409 
1.105032e+3, 2.543539e+2, -573647.8, -566282.25, -32886.414, -0.07151941, 0.1709977, -536873.06, -89524.12, 0.0, 9.999352, 9.999447 
1.1050319e+3, 2.6435336e+2, -486888.13, -465380.7, -32362.49, -0.08315182, 0.16752812, -442032.0, -92676.89, 0.0, 9.999241, 9.99952 
1.10503234e+3, 2.743531e+2, -379727.88, -357885.88, -46921.53, -0.05107677, 0.18330297, -320631.16, -69272.79, 0.0, 9.999282, 9.999565 
1.1050327e+3, 2.843529e+2, -315800.34, -293885.28, -16832.605, -0.05510923, 0.21623126, -284757.9, -131396.72, 0.0, 9.999123, 9.999409 
1.1050332e+3, 2.9435277e+2, -272708.5, -219004.66, -2831.0313, -0.102316335, 0.25714782, -218855.83, -163492.11, 0.0, 9.998731, 9.999438 
1.10503405e+3, 3.0435178e+2, -193431.72, -94603.836, -13395.931, -0.10341088, 0.1870558, -92820.234, -92820.234, 0.0, 9.998677, 9.999986 
1.1050352e+3, 3.143517e+2, -130058.336, -44999.902, -32619.482, -0.049877755, 0.17762963, -33930.938, -33930.938, 0.0, 9.999028, 10.000156 
1.1150295e+3, 1.2436141e+2, -1569577.9, -1736948.3, 8794.324, 0.009585408, 0.15527329, -1569117.0, 152158.84, 0.000944546, 10.001404, 9.999167 
1.11503005e+3, 1.3436097e+2, -1447063.4, -1646844.4, 25557.725, -0.050141543, 0.20828585, -1443845.8, 179435.39, 0.00045159098, 10.001642, 9.999007 
1.1150331e+3, 1.4435968e+2, -1319474.8, -1488987.8, -6840.4604, 0.15210918, 0.16224076, -1319199.1, 206094.23, 0.00012308804, 10.001656, 9.999405 
1.1150315e+3, 1.5435901e+2, -1273677.9, -1411584.9, -8821.335, -0.029856358, 0.14753968, -1273116.0, 154182.19, 0.000008505592, 10.00128, 9.999443 
1.1150311e+3, 1.6435839e+2, -1233846.4, -1359826.1, -12497.018, -0.085704796, 0.15137242, -1232618.6, 96684.69, 0.0000000033697685, 10.000958, 9.99928 
1.1150324e+3, 1.7435794e+2, -1165412.6, -1272925.1, -12249.144, 0.03704841, 0.17341623, -1164034.8, 67273.7, 0.0, 10.000741, 9.999309 
1.11503296e+3, 1.8435723e+2, -1095963.8, -1203211.4, -18615.115, 0.06602584, 0.17663857, -1092824.5, 40491.465, 0.0, 10.000605, 9.999182 
1.1150321e+3, 1.9435614e+2, -998983.9, -1103324.5, -32943.207, -0.02958119, 0.1468329, -989453.4, 45873.38, 0.0, 10.000587, 9.999202 
1.11503184e+3, 2.0435539e+2, -893404.75, -971853.75, -41561.89, -0.075381204, 0.14040792, -875480.75, 61852.863, 0.0, 10.000511, 9.99947 
1.1150321e+3, 2.1435507e+2, -813823.6, -876912.9, -34113.926, -0.05448752, 0.15439562, -798905.1, 40430.453, 0.0, 10.00036, 9.999522 
1.1150321e+3, 2.2435457e+2, -766252.44, -835295.6, -45034.156, -0.050870735, 0.16643195, -744030.6, -2690.1838, 0.0, 10.000151, 9.999235 
1.1150318e+3, 2.3435387e+2, -708432.25, -755208.5, -52004.3, -0.069600865, 0.1682249, -674798.9, -31449.889, 0.0, 9.999869, 9.9992485 
1.1150315e+3, 2.4435332e+2, -623142.94, -620156.8, -50863.105, -0.06939696, 0.17144996, -570764.9, -25409.96, 0.0, 9.999596, 9.999634 
1.1150316e+3, 2.54353e+2, -556407.9, -530424.0, -41435.227, -0.045329742, 0.16657668, -499991.66, -52634.22, 0.0, 9.999352, 9.999694 
1.1150315e+3, 2.6435247e+2, -510197.03, -513983.2, -31127.691, -0.044898752, 0.1722684, -480904.9, -131541.92, 0.0, 9.999241, 9.9991865 
1.1150314e+3, 2.743518e+2, -406714.3, -412325.88, -44157.086, -0.073495634, 0.18564923, -365273.97, -113902.18, 0.0, 9.999275, 9.999195 
1.1150316e+3, 2.8435156e+2, -295396.06, -249420.94, -30703.97, -0.07991691, 0.21645671, -234052.77, -80677.06, 0.0, 9.999113, 9.99972 
1.11503236e+3, 2.9435176e+2, -247448.44, -166985.73, -15500.114, -0.06032443, 0.25245768, -164103.1, -108729.164, 0.0, 9.998732, 9.999796 
1.1150331e+3, 3.0435088e+2, -214232.83, -138040.55, -873.2637, -0.064055264, 0.19362517, -138030.55, -138030.55, 0.0, 9.998677, 9.999687 
1.1150337e+3, 3.1435138e+2, -150951.05, -85728.77, -16616.342, -0.093774125, 0.27210063, -81739.516, -81739.516, 0.0, 9.999016, 9.999884 
1.1250311e+3, 1.24361254e+2, -1527371.8, -1724945.1, -13663.093, 0.005959534, 0.16689602, -1526431.3, 194846.36, 0.0010643419, 10.001731, 9.999092 
1.1250315e+3, 1.3436064e+2, -1472750.9, -1670315.6, 43882.098, -0.057374407, 0.21280617, -1463442.5, 159842.66, 0.00051804923, 10.001514, 9.998907 
1.12503454e+3, 1.4435938e+2, -1352033.3, -1503497.9, 13315.005, 0.15551187, 0.1732846, -1350871.6, 174425.95, 0.00014661087, 10.001429, 9.9994135 
1.125033e+3, 1.5435883e+2, -1255531.9, -1401957.6, -5526.278, -0.022497803, 0.17277281, -1255323.6, 171977.23, 0.00001150662, 10.001399, 9.999453 
1.1250324e+3, 1.6435821e+2, -1189777.6, -1346186.8, -17869.828, -0.07957671, 0.17680556, -1187761.9, 141544.2, 0.0000000061074554, 10.001293, 9.999213 
1.1250334e+3, 1.7435752e+2, -1117389.4, -1257731.1, -23662.662, 0.033927426, 0.1810654, -1113507.1, 117806.234, 0.0, 10.001106, 9.999237 
1.1250337e+3, 1.8435661e+2, -1056760.3, -1200022.0, -18690.781, 0.06007335, 0.17737561, -1054361.9, 78960.69, 0.0, 10.000943, 9.99904 
1.1250328e+3, 1.9435546e+2, -976508.9, -1108823.1, -14076.086, -0.031876862, 0.15383829, -975028.0, 60306.547, 0.0, 10.0008135, 9.999056 
1.1250324e+3, 2.043547e+2, -885705.2, -969546.7, -23222.734, -0.07480227, 0.1550619, -879702.6, 57639.086, 0.0, 10.00057, 9.999457 
1.12503245e+3, 2.1435447e+2, -838501.2, -889139.0, -31108.443, -0.053173248, 0.17879875, -823710.5, 15632.101, 0.0, 10.000192, 9.999518 
1.1250321e+3, 2.243539e+2, -802639.1, -857348.94, -42449.06, -0.051206864, 0.1855331, -779494.4, -38146.42, 0.0, 9.999922, 9.999194 
1.1250315e+3, 2.343529e+2, -722399.9, -766425.4, -40583.652, -0.075441614, 0.16381969, -698243.44, -54884.67, 0.0, 9.999794, 9.999207 
1.1250311e+3, 2.4435227e+2, -616900.6, -621854.3, -42524.22, -0.07515925, 0.16227773, -576781.2, -31415.764, 0.0, 9.9996605, 9.999591 
1.12503104e+3, 2.5435206e+2, -536634.4, -525463.2, -55317.61, -0.043962307, 0.17621185, -475449.88, -28083.025, 0.0, 9.999509, 9.999652 
1.12503074e+3, 2.643516e+2, -491010.72, -501237.03, -38063.355, -0.045693073, 0.18464781, -457718.63, -108346.5, 0.0, 9.99936, 9.999216 
1.1250305e+3, 2.743508e+2, -412050.6, -411671.66, -21979.934, -0.08857051, 0.18100522, -389880.38, -138498.58, 0.0, 9.999225, 9.999224 
1.1250307e+3, 2.8435045e+2, -318767.2, -275871.3, -17910.21, -0.09037684, 0.21086976, -269376.63, -115990.26, 0.0, 9.999018, 9.999583 
1.12503126e+3, 2.943507e+2, -261129.5, -190139.88, -43449.063, -0.04087429, 0.26675594, -169530.3, -114145.266, 0.0, 9.998711, 9.999646 
1.12503186e+3, 3.0434972e+2, -222003.38, -122973.555, -13567.931, -0.044397403, 0.19635181, -121148.27, -121148.27, 0.0, 9.998545, 9.999854 
1.1250324e+3, 3.1435037e+2, -197181.6, -75888.44, 10736.57, -0.1089669, 0.27048036, -74945.4, -74945.4, 0.0, 9.998562, 10.00017 
1.1350336e+3, 1.2436147e+2, -1511258.1, -1689568.1, -40483.96, 0.07821086, 0.22289015, -1502497.0, 218780.83, 0.0011953667, 10.001724, 9.999337 
1.13503225e+3, 1.3436067e+2, -1456390.9, -1636543.0, 37827.47, -0.1309531, 0.2278374, -1448770.4, 174515.48, 0.00059164723, 10.001514, 9.99914 
1.13503516e+3, 1.4435948e+2, -1362306.9, -1524638.3, 12198.279, 0.07241395, 0.1897678, -1361395.4, 163901.92, 0.00017336896, 10.001427, 9.9992695 
1.13503516e+3, 1.5435918e+2, -1267486.3, -1427274.1, -6361.249, 0.05462697, 0.22801256, -1267233.4, 160066.22, 0.000015247707, 10.001401, 9.999278 
1.13503456e+3, 1.6435839e+2, -1199966.9, -1367434.1, -25930.46, 0.010628489, 0.23346993, -1196043.6, 133262.98, 0.000000009421829, 10.001292, 9.999068 
1.1350337e+3, 1.7435703e+2, -1127204.0, -1278490.4, -30899.633, -0.046001505, 0.18533158, -1121136.3, 110183.58, 0.0, 10.001107, 9.999094 
1.13503344e+3, 1.8435603e+2, -1050157.1, -1186364.4, -25097.836, -0.055397388, 0.17509134, -1045679.75, 87649.9, 0.0, 10.000942, 9.999135 
1.1350338e+3, 1.9435553e+2, -968758.25, -1092328.6, -19594.557, -0.010418613, 0.20629187, -965725.56, 69609.234, 0.0, 10.000811, 9.99917 
1.1350337e+3, 2.0435487e+2, -898104.1, -994588.9, -38332.582, -0.0031798468, 0.21928273, -884729.0, 52612.02, 0.0, 10.0005665, 9.999288 
1.1350327e+3, 2.1435404e+2, -852061.3, -917329.25, -45690.82, -0.04173589, 0.20018451, -828547.06, 10801.5625, 0.0, 10.000191, 9.999326 
1.13503195e+3, 2.2435313e+2, -797737.1, -847031.5, -49157.18, -0.056375187, 0.18200037, -767394.2, -26037.434, 0.0, 9.99992, 9.999267 
1.1350316e+3, 2.343522e+2, -716259.25, -753506.2, -45507.836, -0.04080619, 0.15770355, -685711.6, -42346.074, 0.0, 9.999792, 9.999297 
1.135031e+3, 2.4435155e+2, -638372.94, -666030.6, -48585.754, -0.04407874, 0.16423339, -601686.3, -56313.957, 0.0, 9.999659, 9.999289 
1.13503024e+3, 2.5435123e+2, -560197.2, -573173.5, -60310.36, -0.070380546, 0.19957557, -506027.0, -58650.227, 0.0, 9.999503, 9.999327 
1.1350298e+3, 2.6435077e+2, -464651.03, -445050.34, -42911.08, -0.08884932, 0.20585692, -410834.7, -61452.68, 0.0, 9.999352, 9.999606 
1.1350296e+3, 2.7435008e+2, -381132.1, -348044.6, -25228.662, -0.09899223, 0.17055869, -334419.13, -83031.28, 0.0, 9.999226, 9.9996605 
1.13502964e+3, 2.843497e+2, -361156.9, -364145.25, -28645.66, -0.0888639, 0.20028222, -333966.47, -180573.72, 0.0, 9.999019, 9.998978 
1.13502994e+3, 2.9434967e+2, -310013.47, -289541.3, -53435.754, -0.049271677, 0.29669395, -245370.06, -189972.92, 0.0, 9.9987, 9.998969 
1.1350304e+3, 3.043483e+2, -178881.55, -29699.951, -13399.857, -0.050686512, 0.19260487, -28505.9, -28505.9, 0.0, 9.998528, 10.000504 
1.135031e+3, 3.1434885e+2, -135640.58, 51467.35, 15085.915, -0.10254958, 0.18238375, 52675.875, 52675.875, 0.0, 9.998562, 10.001045 
1.1450352e+3, 1.2436149e+2, -1530751.0, -1694734.8, -38418.48, 0.07727148, 0.23345073, -1522196.5, 199081.81, 0.0013373722, 10.001574, 9.999374 
1.1450338e+3, 1.3436066e+2, -1431752.3, -1623245.9, 42202.402, -0.1383011, 0.23209323, -1422864.0, 200422.45, 0.000672049, 10.001676, 9.999155 
1.14503674e+3, 1.4435944e+2, -1331834.1, -1522436.5, 7626.3726, 0.067496456, 0.19639245, -1331529.4, 193768.64, 0.0002032588, 10.00169, 9.99916 
1.1450366e+3, 1.5435901e+2, -1263751.5, -1438620.4, -9107.186, 0.06551702, 0.23420261, -1263278.5, 164023.52, 0.000019742625, 10.001485, 9.99916 
1.145036e+3, 1.6435815e+2, -1201528.9, -1372779.3, -23089.197, 0.021908239, 0.24104412, -1198470.5, 130839.445, 0.000000013934886, 10.001302, 9.999026 
1.1450348e+3, 1.7435679e+2, -1123072.4, -1281087.9, -21378.691, -0.058125228, 0.19626135, -1120231.1, 111092.086, 0.0, 10.001154, 9.999055 
1.1450342e+3, 1.843558e+2, -1050713.8, -1182076.0, -14501.283, -0.07350643, 0.1868601, -1049132.0, 84200.77, 0.0, 10.000919, 9.999175 
1.1450346e+3, 1.9435531e+2, -997081.75, -1100804.0, -15088.192, -0.012500261, 0.21590015, -994931.5, 40405.85, 0.0, 10.000595, 9.999216 
1.1450342e+3, 2.0435461e+2, -933527.94, -1023416.56, -33655.39, 0.006177672, 0.22731544, -922323.56, 15020.426, 0.0, 10.000375, 9.999181 
1.1450331e+3, 2.1435365e+2, -846521.5, -927276.44, -36877.695, -0.028428571, 0.20778884, -832215.3, 7137.856, 0.0, 10.000285, 9.999211 
1.1450322e+3, 2.243527e+2, -761476.44, -823047.75, -35034.887, -0.04253754, 0.18713424, -745623.06, -4261.315, 0.0, 10.000143, 9.999323 
1.1450316e+3, 2.3435177e+2, -691114.7, -733721.4, -33140.74, -0.031802252, 0.15655164, -673020.8, -29651.285, 0.0, 9.999933, 9.999364 
1.1450308e+3, 2.4435109e+2, -636163.06, -680998.06, -30670.713, -0.0399244, 0.1625104, -620590.6, -75214.04, 0.0, 9.999743, 9.999144 
1.1450298e+3, 2.5435072e+2, -559926.44, -591203.5, -31919.066, -0.071156934, 0.20587829, -540020.75, -92638.125, 0.0, 9.999584, 9.999165 
1.14502914e+3, 2.6435018e+2, -458412.16, -438685.6, -21892.15, -0.08823419, 0.21638007, -424537.4, -75148.89, 0.0, 9.99938, 9.999638 
1.14502884e+3, 2.7434954e+2, -393596.88, -348629.44, -34581.11, -0.089211725, 0.17970838, -329865.47, -78471.79, 0.0, 9.999119, 9.999707 
1.1450287e+3, 2.8434914e+2, -373182.66, -371751.25, -32101.553, -0.084829934, 0.2050028, -340357.44, -186958.89, 0.0, 9.998946, 9.99896 
1.14502855e+3, 2.9434896e+2, -287331.88, -281920.03, -8620.849, -0.06912126, 0.2917229, -275590.4, -220186.61, 0.0, 9.998871, 9.9989395 
1.14502884e+3, 3.043475e+2, -174421.84, -26605.748, 32747.824, -0.06865834, 0.17417516, -19675.564, -19675.564, 0.0, 9.998555, 10.000512 
1.1450295e+3, 3.1434825e+2, -214829.28, 32405.342, 1214.916, -0.08115408, 0.18676946, 32411.313, 32411.313, 0.0, 9.997941, 10.001211 
1.155036e+3, 1.243614e+2, -1544754.1, -1721232.8, -56509.56, -0.002693934, 0.19964884, -1528210.3, 193067.92, 0.001489488, 10.001564, 9.999197 
1.155036e+3, 1.3436061e+2, -1446169.9, -1654061.4, 48319.445, -0.08266801, 0.22436965, -1435488.1, 187798.52, 0.00075867696, 10.001679, 9.998942 
1.1550391e+3, 1.4435929e+2, -1335918.8, -1532044.8, 381.96478, 0.13732605, 0.19227959, -1335918.0, 189381.48, 0.0002361324, 10.001694, 9.999092 
1.1550376e+3, 1.5435843e+2, -1267524.8, -1446738.1, -16656.846, 0.0078007304, 0.19314381, -1265989.8, 161317.56, 0.000024990082, 10.001484, 9.9991045 
1.1550366e+3, 1.6435759e+2, -1197973.5, -1364740.6, -29799.59, -0.049482625, 0.2011422, -1192808.6, 136506.52, 0.000000023716384, 10.001299, 9.9990835 
1.1550364e+3, 1.7435686e+2, -1119075.5, -1272224.4, -27212.65, -0.0051894253, 0.2136914, -1114383.9, 116938.65, 0.0, 10.001151, 9.999117 
1.1550359e+3, 1.8435596e+2, -1052339.8, -1185079.9, -27592.914, 0.0016039546, 0.21240102, -1046832.5, 86498.7, 0.0, 10.000917, 9.999156 
1.1550349e+3, 1.9435488e+2, -998616.0, -1104500.1, -27642.24, -0.040440965, 0.18300998, -991834.06, 43507.453, 0.0, 10.000596, 9.999191 
1.1550341e+3, 2.04354e+2, -937093.4, -1030851.6, -38993.168, -0.04928767, 0.17952438, -922996.1, 14353.82, 0.0, 10.000375, 9.99913 
1.15503356e+3, 2.143534e+2, -850341.25, -934784.0, -40933.95, -0.01406744, 0.20161249, -833755.9, 5599.983, 0.0, 10.000282, 9.999162 
1.15503274e+3, 2.2435263e+2, -758738.44, -816236.25, -43889.65, -0.011236695, 0.2003564, -735020.2, 6342.328, 0.0, 10.000138, 9.9993725 
1.1550314e+3, 2.3435166e+2, -687564.4, -725944.4, -40991.09, -0.0505784, 0.16058041, -661493.75, -18123.5, 0.0, 9.999931, 9.999419 
1.1550303e+3, 2.4435093e+2, -636494.4, -681077.7, -37111.55, -0.06581294, 0.1581208, -615494.2, -70116.73, 0.0, 9.999741, 9.9991455 
1.1550295e+3, 2.5435048e+2, -560158.8, -591901.75, -37266.594, -0.049200732, 0.19518742, -535524.7, -88140.664, 0.0, 9.999583, 9.999161 
1.15502894e+3, 2.6434988e+2, -482143.38, -487822.63, -31492.69, -0.046501756, 0.21465339, -453362.56, -103971.15, 0.0, 9.999379, 9.9993 
1.1550282e+3, 2.7434918e+2, -419676.1, -401081.63, -43640.734, -0.06263708, 0.20663682, -365758.75, -114359.46, 0.0, 9.999111, 9.9993515 
1.1550276e+3, 2.843488e+2, -332872.44, -285307.78, -34669.918, -0.08208938, 0.2242399, -267047.25, -113643.74, 0.0, 9.998933, 9.999559 
1.155027e+3, 2.943487e+2, -240606.73, -185611.28, -8549.546, -0.10628688, 0.25287673, -184312.83, -128908.55, 0.0, 9.998873, 9.999601 
1.155027e+3, 3.0434728e+2, -223471.98, -128694.07, 11177.608, -0.10262211, 0.14135818, -127393.69, -127393.69, 0.0, 9.998556, 9.999811 
1.15502775e+3, 3.143486e+2, -258689.64, -56968.902, -19996.422, -0.050659765, 0.28641665, -55005.777, -55005.777, 0.0, 9.997932, 10.000602 
1.1650376e+3, 1.243617e+2, -1486419.1, -1714242.4, -50194.25, -0.027246252, 0.17813073, -1475850.6, 245423.36, 0.0016512593, 10.002058, 9.999006 
1.16503805e+3, 1.3436076e+2, -1403933.5, -1659701.5, 73131.27, -0.06711755, 0.21260154, -1384499.8, 238784.67, 0.0008513687, 10.002081, 9.998711 
1.165041e+3, 1.4435938e+2, -1304291.9, -1520873.0, 12252.061, 0.1468836, 0.18752348, -1303601.0, 221697.42, 0.00027198074, 10.001927, 9.999056 
1.16503894e+3, 1.5435843e+2, -1273284.0, -1452147.5, -6034.6016, -0.0032276548, 0.18211545, -1273080.6, 154226.25, 0.00003101119, 10.001455, 9.999082 
1.16503775e+3, 1.6435757e+2, -1225192.3, -1376714.1, -11813.894, -0.06018363, 0.18935029, -1224276.6, 105038.266, 0.00000004774233, 10.001107, 9.999094 
1.1650376e+3, 1.7435692e+2, -1147327.3, -1284394.0, -13420.234, 0.006244286, 0.20781605, -1146025.6, 85296.17, 0.0, 10.000952, 9.999129 
1.16503686e+3, 1.8435603e+2, -1074086.6, -1201890.9, -18946.982, 0.019654829, 0.2098617, -1071336.9, 61993.707, 0.0, 10.000794, 9.9991 
1.1650355e+3, 1.943549e+2, -996756.8, -1110009.9, -22606.645, -0.036480807, 0.18117371, -992411.0, 42930.527, 0.0, 10.000637, 9.999133 
1.1650344e+3, 2.0435399e+2, -913930.9, -1013140.44, -25348.889, -0.053395893, 0.17533225, -907829.3, 29520.74, 0.0, 10.000506, 9.999187 
1.1650338e+3, 2.1435338e+2, -825402.3, -915757.5, -18822.445, -0.0190794, 0.1902416, -821638.1, 17717.201, 0.0, 10.000423, 9.999225 
1.1650328e+3, 2.243526e+2, -747584.4, -824647.8, -27512.428, -0.013743861, 0.18929856, -738770.25, 2591.9138, 0.0, 10.000274, 9.9992485 
1.16503134e+3, 2.343516e+2, -681941.94, -738362.3, -41220.55, -0.046304718, 0.16066556, -660202.7, -16831.813, 0.0, 10.000035, 9.999283 
1.16503015e+3, 2.4435088e+2, -625589.0, -669502.7, -42348.426, -0.062110845, 0.16321349, -599843.75, -54465.504, 0.0, 9.999788, 9.999202 
1.165029e+3, 2.5435045e+2, -562550.0, -584943.94, -37361.12, -0.05706049, 0.19590962, -534744.06, -87360.12, 0.0, 9.999534, 9.999231 
1.1650282e+3, 2.643498e+2, -506003.4, -519106.34, -23861.797, -0.053255796, 0.21413574, -487810.03, -138418.05, 0.0, 9.999303, 9.999122 
1.1650275e+3, 2.7434894e+2, -437699.94, -432742.47, -25085.328, -0.04972062, 0.2108192, -410013.72, -158611.36, 0.0, 9.999085, 9.999146 
1.1650267e+3, 2.8434855e+2, -329861.47, -265408.44, -20581.814, -0.0665423, 0.23204263, -259396.75, -105990.03, 0.0, 9.998874, 9.999726 
1.16502576e+3, 2.9434866e+2, -254885.14, -171182.03, -32567.668, -0.11068593, 0.26067215, -160003.34, -104598.42, 0.0, 9.998685, 9.999789 
1.1650254e+3, 3.0434722e+2, -257099.6, -174841.05, -27783.541, -0.113096215, 0.15090926, -166336.23, -166336.23, 0.0, 9.998454, 9.999542 
1.1650259e+3, 3.143485e+2, -239307.95, -59924.35, -21503.514, -0.042291775, 0.31964582, -57382.64, -57382.64, 0.0, 9.998116, 10.000496 
1.1750399e+3, 1.24362476e+2, -1500379.1, -1743556.9, -70532.234, 0.000012114113, 0.17185113, -1481402.6, 239861.92, 0.0018234614, 10.002059, 9.998805 
1.1750399e+3, 1.3436121e+2, -1421292.0, -1695667.8, 75848.09, -0.0954205, 0.19773333, -1401720.8, 221558.53, 0.0009506097, 10.002078, 9.9984665 
1.1750424e+3, 1.443598e+2, -1305869.4, -1522834.9, -4558.734, 0.091977224, 0.1832214, -1305773.6, 219520.42, 0.00031097958, 10.001923, 9.999044 
1.17504075e+3, 1.5435907e+2, -1273029.6, -1451362.0, -23988.885, 0.029228663, 0.20009868, -1269859.1, 157441.16, 0.00003785508, 10.001454, 9.999087 
1.1750392e+3, 1.6435817e+2, -1227424.9, -1382434.8, -19655.22, -0.01443839, 0.20355166, -1224971.5, 104337.37, 0.00000010132158, 10.00111, 9.999054 
1.1750382e+3, 1.7435703e+2, -1149742.9, -1290164.1, -19359.74, -0.025229448, 0.17867, -1147122.6, 84197.734, 0.0, 10.000953, 9.99909 
1.17503725e+3, 1.843561e+2, -1080748.9, -1215331.0, -26184.12, -0.021916134, 0.18055062, -1075834.0, 57495.973, 0.0, 10.0007925, 9.999008 
1.1750365e+3, 1.9435544e+2, -1003957.2, -1124392.4, -29054.432, -0.0022387325, 0.21045233, -997314.4, 38022.445, 0.0, 10.000634, 9.999036 
1.1750354e+3, 2.0435466e+2, -902729.25, -989447.3, -29936.352, -0.008730524, 0.21396986, -893398.75, 43945.063, 0.0, 10.0005045, 9.999352 
1.175034e+3, 2.1435367e+2, -812795.3, -889482.8, -22327.182, -0.046312097, 0.1728809, -806768.5, 32582.62, 0.0, 10.000422, 9.999406 
1.1750327e+3, 2.2435266e+2, -769780.25, -869992.2, -37304.707, -0.053615842, 0.15411125, -757418.2, -16058.091, 0.0, 10.00027, 9.9989395 
1.1750316e+3, 2.3435163e+2, -705986.56, -788057.9, -50398.977, -0.020661307, 0.15658164, -682030.06, -38659.023, 0.0, 10.000033, 9.998943 
1.1750302e+3, 2.4435095e+2, -618034.0, -653270.56, -52655.95, -0.030506562, 0.17680551, -580127.0, -34748.41, 0.0, 9.999786, 9.999314 
1.1750282e+3, 2.5435066e+2, -552853.3, -563997.8, -46430.965, -0.09652564, 0.20760784, -511661.4, -64279.324, 0.0, 9.99953, 9.999377 
1.175027e+3, 2.6434997e+2, -507433.34, -521352.3, -31499.012, -0.11032206, 0.21544276, -482134.16, -132744.38, 0.0, 9.999298, 9.999109 
1.1750265e+3, 2.7434888e+2, -439506.3, -436445.4, -31345.23, -0.05668158, 0.1923397, -406593.28, -155191.1, 0.0, 9.999084, 9.999123 
1.1750258e+3, 2.843485e+2, -352474.25, -312159.3, -27507.094, -0.044064038, 0.22733396, -298214.53, -144806.77, 0.0, 9.998872, 9.999406 
1.1750248e+3, 2.943488e+2, -279548.88, -220430.94, -38724.3, -0.08501601, 0.31392694, -201273.33, -145867.53, 0.0, 9.998675, 9.999456 
1.1750239e+3, 3.0434728e+2, -242177.55, -141133.83, -39016.793, -0.10244282, 0.20149073, -127821.77, -127821.77, 0.0, 9.998442, 9.999781 
1.1750237e+3, 3.1434804e+2, -205368.19, 11300.413, -29603.8, -0.0685637, 0.2917935, 15272.416, 15272.416, 0.0, 9.998112, 10.000987 
1.185042e+3, 1.24363035e+2, -1524065.0, -1741493.0, -101929.43, 0.015228862, 0.17197141, -1483754.4, 237504.52, 0.0020081834, 10.001842, 9.998923 
1.1850419e+3, 1.3436179e+2, -1436460.5, -1692937.9, 85167.08, -0.09336262, 0.1906761, -1410755.8, 212517.16, 0.0010574218, 10.001932, 9.998555 
1.185044e+3, 1.4436045e+2, -1319476.3, -1534605.1, 1317.4692, 0.060743205, 0.18253192, -1319468.3, 205818.52, 0.00035351914, 10.001853, 9.998997 
1.1850421e+3, 1.5435973e+2, -1268380.9, -1455017.6, -25350.016, 0.024711974, 0.2040733, -1264999.0, 162294.78, 0.00004562391, 10.001513, 9.999033 
1.18504055e+3, 1.643588e+2, -1208202.4, -1383096.3, -13773.011, -0.0073514148, 0.21141386, -1207124.4, 122178.734, 0.00000019883093, 10.001285, 9.998965 
1.1850393e+3, 1.7435761e+2, -1118447.4, -1284791.3, -17417.416, -0.030707981, 0.19006371, -1116643.3, 114672.15, 0.0, 10.001211, 9.999002 
1.1850381e+3, 1.8435661e+2, -1045646.2, -1198632.8, -26299.9, -0.029160058, 0.19234483, -1041251.2, 92074.15, 0.0, 10.001036, 9.999005 
1.1850372e+3, 1.9435592e+2, -987875.5, -1116384.6, -23061.242, 0.002548008, 0.21783172, -983862.44, 51469.875, 0.0, 10.000743, 9.999038 
1.185036e+3, 2.043551e+2, -908076.56, -997075.75, -23474.906, -0.00048434862, 0.21876062, -902264.25, 35075.31, 0.0, 10.000488, 9.999308 
1.1850343e+3, 2.1435408e+2, -836398.25, -905114.5, -33579.6, -0.04754306, 0.17850173, -822714.0, 16633.19, 0.0, 10.00028, 9.999366 
1.1850328e+3, 2.2435303e+2, -800072.3, -884418.7, -49147.977, -0.05567954, 0.15749668, -777483.6, -36126.973, 0.0, 10.000062, 9.9989395 
1.1850316e+3, 2.3435195e+2, -735210.56, -801599.8, -37529.17, -0.013487703, 0.1532067, -718302.06, -74933.86, 0.0, 9.99983, 9.998947 
1.18503004e+3, 2.4435122e+2, -629764.7, -661351.1, -26003.725, -0.018674154, 0.17150061, -615133.9, -69757.875, 0.0, 9.999717, 9.999292 
1.18502796e+3, 2.5435096e+2, -522793.34, -552677.2, -33788.867, -0.084711984, 0.20704786, -500790.06, -53410.902, 0.0, 9.99975, 9.99935 
1.1850264e+3, 2.6435024e+2, -456806.8, -488362.47, -28848.29, -0.10816395, 0.21234018, -439703.6, -90316.9, 0.0, 9.999609, 9.999186 
1.1850254e+3, 2.7434912e+2, -408192.1, -411548.0, -22968.268, -0.07796379, 0.1756468, -386840.56, -135441.2, 0.0, 9.999259, 9.999208 
1.1850244e+3, 2.843488e+2, -359569.44, -328885.1, -7784.352, -0.063813105, 0.21700493, -327023.25, -173618.55, 0.0, 9.998883, 9.999285 
1.1850234e+3, 2.943493e+2, -322589.34, -257210.88, -3634.2266, -0.068875566, 0.33702824, -257009.48, -201607.63, 0.0, 9.998448, 9.999313 
1.18502244e+3, 3.0434772e+2, -286098.2, -164950.08, -1077.3441, -0.08306665, 0.22838984, -164940.5, -164940.5, 0.0, 9.998153, 9.999756 
1.1850216e+3, 3.1434795e+2, -198771.16, 37635.133, -18964.648, -0.08249478, 0.26590604, 39146.824, 39146.824, 0.0, 9.998058, 10.001192 
1.19504385e+3, 1.24363475e+2, -1495683.5, -1681140.3, -114327.57, 0.010729679, 0.17858759, -1441206.8, 280049.38, 0.0022081332, 10.001835, 9.99934 
1.1950441e+3, 1.3436256e+2, -1408054.5, -1634307.0, 89809.81, -0.06402998, 0.19109277, -1376739.3, 246525.36, 0.0011730703, 10.001932, 9.998959 
1.1950458e+3, 1.4436144e+2, -1324542.4, -1545964.0, -11259.453, 0.049950205, 0.1845293, -1323971.3, 201304.78, 0.00040013902, 10.001855, 9.998919 
1.1950432e+3, 1.5436047e+2, -1275879.4, -1471279.1, -38268.223, -0.018443456, 0.19468346, -1268652.0, 158634.78, 0.00005450229, 10.001514, 9.998921 
1.19504154e+3, 1.6435954e+2, -1218102.0, -1403735.9, -18157.783, -0.042197917, 0.21483725, -1216342.5, 112954.51, 0.00000035173326, 10.001285, 9.998823 
1.19504064e+3, 1.743587e+2, -1128558.5, -1305732.6, -20359.139, -0.012641585, 0.2414478, -1126249.1, 105057.09, 0.0, 10.00121, 9.998859 
1.19503945e+3, 1.8435766e+2, -1040049.56, -1187135.9, -37908.91, -0.005980424, 0.24278718, -1030854.06, 102462.28, 0.0, 10.001035, 9.999084 
1.19503774e+3, 1.943564e+2, -980999.06, -1102542.5, -34607.953, -0.024389861, 0.2022391, -971835.75, 63491.813, 0.0, 10.000744, 9.999133 
1.1950361e+3, 2.0435537e+2, -925991.6, -1033668.56, -32845.14, -0.0315643, 0.19095519, -916763.56, 20573.08, 0.0, 10.000485, 9.999058 
1.19503476e+3, 2.1435465e+2, -855868.94, -945342.25, -41962.38, -0.023839585, 0.20724835, -839268.75, 74.286964, 0.0, 10.000278, 9.999091 
1.19503334e+3, 2.2435373e+2, -778423.75, -839101.2, -58950.445, -0.021729654, 0.19863348, -742463.2, -1111.8381, 0.0, 10.00006, 9.999252 
1.1950314e+3, 2.3435256e+2, -710455.7, -750492.8, -46221.86, -0.026552435, 0.14997125, -680103.56, -36741.63, 0.0, 9.999831, 9.999299 
1.1950297e+3, 2.4435173e+2, -641621.25, -685875.4, -25760.365, -0.028998068, 0.14757322, -629789.5, -84419.5, 0.0, 9.999715, 9.999125 
1.19502835e+3, 2.5435138e+2, -537498.75, -582266.75, -31817.717, -0.026864612, 0.19423471, -520980.16, -73605.4, 0.0, 9.999745, 9.999149 
1.1950266e+3, 2.6435068e+2, -447806.5, -468840.53, -41213.18, -0.05155921, 0.20399143, -415789.63, -66407.12, 0.0, 9.999604, 9.999323 
1.1950244e+3, 2.7434963e+2, -397448.28, -388129.94, -35412.414, -0.11378683, 0.16141988, -357071.53, -105677.86, 0.0, 9.999254, 9.9993725 
1.1950227e+3, 2.843494e+2, -351505.13, -311719.22, -23241.963, -0.12627137, 0.20191999, -301019.4, -147622.1, 0.0, 9.998879, 9.999405 
1.1950219e+3, 2.9435015e+2, -316102.06, -242187.39, -17334.71, -0.07296339, 0.32897094, -238323.94, -182931.42, 0.0, 9.998442, 9.99942 
1.19502075e+3, 3.0434853e+2, -313570.88, -221089.72, -4856.781, -0.065254405, 0.230936, -220835.36, -220835.36, 0.0, 9.998147, 9.999373 
1.1950196e+3, 3.143482e+2, -213238.56, 10038.551, -19879.428, -0.085599676, 0.25230107, 11794.698, 11794.698, 0.0, 9.998048, 10.001007 
1.20504566e+3, 1.24364324e+2, -1431054.3, -1633977.1, -103992.25, -0.0016053802, 0.19066027, -1387227.0, 334021.66, 0.0024257244, 10.002213, 9.999481 
1.205046e+3, 1.3436322e+2, -1440628.0, -1637864.5, 89451.08, -0.04643914, 0.17387527, -1406103.3, 217154.52, 0.0012988481, 10.001655, 9.999067 
1.2050472e+3, 1.443622e+2, -1381673.4, -1574871.1, -13063.144, 0.038443077, 0.17220195, -1380794.1, 144473.77, 0.00045139206, 10.001469, 9.998905 
1.2050448e+3, 1.5436143e+2, -1244711.1, -1457926.5, -34645.266, -0.027267141, 0.20217, -1239222.9, 188054.83, 0.00006471426, 10.001738, 9.998905 
1.2050428e+3, 1.6436055e+2, -1162655.1, -1375737.0, -13576.215, -0.042811718, 0.22882162, -1161793.6, 167493.97, 0.00000057087306, 10.001662, 9.998833 
1.20504186e+3, 1.7435959e+2, -1133954.1, -1307478.4, -6003.3354, -0.005351226, 0.24437779, -1133746.8, 97550.76, 0.0, 10.00117, 9.998865 
1.20504044e+3, 1.8435846e+2, -1067646.0, -1209760.4, -17710.002, -0.0012060725, 0.23852037, -1065472.3, 67836.125, 0.0, 10.000885, 9.9990015 
1.2050384e+3, 1.943571e+2, -969677.9, -1106159.1, -28336.291, -0.03485605, 0.19627225, -964028.56, 71292.21, 0.0, 10.000862, 9.99905 
1.20503664e+3, 2.0435603e+2, -899314.44, -1021771.56, -29794.945, -0.040887404, 0.185442, -892449.9, 44880.586, 0.0, 10.000673, 9.999048 
1.2050353e+3, 2.1435533e+2, -857082.6, -946621.7, -20148.113, -0.012443329, 0.20522499, -852757.75, -13420.872, 0.0, 10.000273, 9.999084 
1.2050334e+3, 2.2435449e+2, -774721.3, -830641.7, -27777.236, -0.008376917, 0.20237224, -763269.0, -21924.54, 0.0, 10.000056, 9.999312 
1.2050313e+3, 2.3435347e+2, -669578.06, -722947.9, -37154.324, -0.0349783, 0.16260232, -650518.8, -7165.5537, 0.0, 10.000079, 9.999368 
1.2050293e+3, 2.4435267e+2, -617495.6, -671240.2, -25852.783, -0.04125419, 0.1556061, -607078.7, -61717.59, 0.0, 9.999869, 9.99915 
1.2050279e+3, 2.543521e+2, -592140.7, -605550.75, -16770.904, -0.021214856, 0.17949751, -580784.1, -133416.4, 0.0, 9.999358, 9.999175 
1.205026e+3, 2.6435143e+2, -527141.0, -497950.78, -18400.016, -0.038955767, 0.18876347, -489060.2, -139685.23, 0.0, 9.9990225, 9.999402 
1.2050235e+3, 2.7435076e+2, -441845.1, -400587.78, -18938.057, -0.106075175, 0.1740801, -393213.0, -141830.36, 0.0, 9.99891, 9.999453 
1.2050216e+3, 2.843506e+2, -361636.78, -310646.78, -14282.03, -0.1236129, 0.21378712, -306919.0, -153533.3, 0.0, 9.998785, 9.999456 
1.2050204e+3, 2.94351e+2, -282112.38, -220561.78, -17005.527, -0.07627287, 0.3034278, -216175.92, -160791.81, 0.0, 9.998654, 9.999465 
1.2050189e+3, 3.043495e+2, -295269.78, -225157.92, 1844.4098, -0.07493529, 0.21883275, -225109.42, -225109.42, 0.0, 9.99833, 9.999256 
1.2050175e+3, 3.143493e+2, -253773.14, -1579.1158, 9810.905, -0.09431587, 0.26487833, -1198.0259, -1198.0259, 0.0, 9.997735, 10.001079 
1.21504776e+3, 1.2436567e+2, -1441448.6, -1655152.6, -137908.23, -0.025281368, 0.20877771, -1373841.4, 347394.25, 0.0026624324, 10.002211, 9.999338 
1.21504776e+3, 1.3436386e+2, -1452597.9, -1664558.8, 68953.73, -0.044241447, 0.13897309, -1432140.6, 191110.9, 0.0014356553, 10.001661, 9.998882 
1.2150486e+3, 1.4436284e+2, -1377179.8, -1566613.9, -5639.237, 0.021111341, 0.14539528, -1377012.1, 148249.48, 0.0005075534, 10.001472, 9.9989605 
1.2150467e+3, 1.5436263e+2, -1239798.8, -1447607.0, -24262.893, -0.0043718154, 0.22556405, -1237003.5, 190262.52, 0.000076397075, 10.001736, 9.998978 
1.2150449e+3, 1.6436186e+2, -1153061.0, -1355114.5, -31826.133, -0.01326554, 0.25135964, -1148166.5, 181108.14, 0.0000008702971, 10.0016575, 9.998977 
1.215043e+3, 1.7436038e+2, -1123536.6, -1286284.6, -25067.922, -0.011029503, 0.19958109, -1119762.9, 111525.52, 0.0, 10.001171, 9.999011 
1.2150411e+3, 1.843591e+2, -1084503.6, -1244471.9, -20858.02, -0.01768617, 0.18268216, -1081828.8, 51472.03, 0.0, 10.000883, 9.998764 
1.21503934e+3, 1.9435808e+2, -988209.25, -1144939.0, -29420.89, -0.030257704, 0.19996433, -982868.44, 52442.832, 0.0, 10.000863, 9.998784 
1.2150373e+3, 2.0435709e+2, -883385.0, -989052.3, -45274.977, -0.030824918, 0.20042694, -866639.8, 70680.83, 0.0, 10.000674, 9.999273 
1.21503554e+3, 2.1435615e+2, -839088.9, -909140.7, -35827.113, -0.016126003, 0.17164035, -824010.94, 15317.413, 0.0, 10.000271, 9.999344 
1.21503346e+3, 2.2435535e+2, -789106.5, -859565.5, -29213.234, -0.018312065, 0.16913056, -778569.94, -37234.492, 0.0, 10.0000515, 9.999117 
1.2150312e+3, 2.3435473e+2, -685741.4, -756075.9, -36266.29, -0.040895842, 0.19109432, -670391.5, -27049.725, 0.0, 10.000076, 9.999142 
1.21502906e+3, 2.4435402e+2, -602657.8, -640231.8, -44391.19, -0.057537917, 0.19485979, -573241.8, -27892.738, 0.0, 9.9998665, 9.999365 
1.2150268e+3, 2.5435314e+2, -574781.56, -569868.3, -35429.668, -0.06820054, 0.16319224, -536810.2, -89452.484, 0.0, 9.999358, 9.99942 
1.2150248e+3, 2.6435256e+2, -525275.2, -494459.4, -23283.22, -0.07085458, 0.16715597, -481947.56, -132583.78, 0.0, 9.999023, 9.999426 
1.2150228e+3, 2.7435252e+2, -442180.44, -399332.3, -21511.475, -0.06266944, 0.21276477, -390396.28, -139030.33, 0.0, 9.998901, 9.999465 
1.215021e+3, 2.8435233e+2, -367260.5, -321036.94, -18768.7, -0.06413733, 0.25180912, -314375.94, -161006.28, 0.0, 9.998778, 9.99939 
1.2150191e+3, 2.9435188e+2, -287635.06, -231170.92, -20904.684, -0.07910415, 0.26265335, -224273.86, -168897.31, 0.0, 9.99865, 9.999394 
1.21501684e+3, 3.0435058e+2, -280723.44, -194768.2, -18641.43, -0.11229222, 0.19472241, -190899.5, -190899.5, 0.0, 9.998329, 9.999466 
1.215015e+3, 3.143513e+2, -227658.78, 56284.32, -7845.4917, -0.12177288, 0.30826226, 56500.93, 56500.93, 0.0, 9.997721, 10.001483 
1.2250498e+3, 1.243671e+2, -1504996.5, -1698139.6, -118892.62, -0.020519068, 0.20630997, -1448396.6, 272824.63, 0.0029179724, 10.001828, 9.999225 
1.22504994e+3, 1.3436517e+2, -1357303.5, -1632648.3, 97960.06, -0.03344383, 0.13920411, -1326008.8, 297229.84, 0.0015834377, 10.002379, 9.998754 
1.2250502e+3, 1.443642e+2, -1262511.3, -1518951.1, 11222.958, -0.0041812616, 0.15785673, -1262021.0, 263227.6, 0.00056846405, 10.0022955, 9.99889 
1.2250483e+3, 1.5436375e+2, -1287861.4, -1478337.3, -19920.018, 0.0011802079, 0.22191171, -1285800.5, 141454.63, 0.00008951281, 10.00144, 9.998907 
1.2250464e+3, 1.6436288e+2, -1239126.0, -1392678.5, -30240.027, 0.0028461053, 0.23973316, -1233385.4, 95879.31, 0.0000012652538, 10.00105, 9.999011 
1.2250442e+3, 1.7436148e+2, -1109636.6, -1274011.8, -31734.744, -0.012870626, 0.19145706, -1103722.6, 127555.016, 0.0, 10.001244, 9.999059 
1.2250421e+3, 1.8436033e+2, -1039194.5, -1212440.4, -22595.717, -0.025502577, 0.1801863, -1036295.94, 96992.77, 0.0, 10.001152, 9.998854 
1.22504e+3, 1.9435945e+2, -1004295.8, -1142428.0, -5964.253, -0.031201418, 0.20467511, -1004038.8, 31258.6, 0.0, 10.000709, 9.998876 
1.22503795e+3, 2.043585e+2, -921901.25, -1012937.3, -16425.768, -0.029777337, 0.20617637, -919028.25, 18278.295, 0.0, 10.000433, 9.999226 
1.2250358e+3, 2.1435745e+2, -828330.56, -909532.06, -30964.287, -0.018953456, 0.17100413, -817870.5, 21445.322, 0.0, 10.000371, 9.999291 
1.22503355e+3, 2.2435667e+2, -764085.44, -842419.7, -24413.834, -0.019961843, 0.16958131, -757099.56, -15776.368, 0.0, 10.000203, 9.999161 
1.22503124e+3, 2.343562e+2, -709260.6, -761890.56, -12476.7705, -0.035594, 0.20218131, -706452.6, -63124.617, 0.0, 9.999891, 9.99919 
1.2250288e+3, 2.4435554e+2, -635618.0, -659346.6, -24176.74, -0.05841346, 0.21163647, -620551.3, -75216.55, 0.0, 9.999655, 9.999336 
1.225026e+3, 2.5435463e+2, -552295.3, -562491.44, -37516.04, -0.091887064, 0.1799483, -519532.53, -72188.375, 0.0, 9.999529, 9.999389 
1.2250237e+3, 2.6435414e+2, -481955.53, -464195.3, -32418.385, -0.09350981, 0.1851228, -439462.8, -90112.79, 0.0, 9.999281, 9.999509 
1.22502185e+3, 2.7435416e+2, -441522.34, -388890.03, -27237.916, -0.053332187, 0.23174462, -377332.13, -125981.03, 0.0, 9.998863, 9.999554 
1.2250198e+3, 2.84354e+2, -408428.06, -333671.38, -14957.015, -0.042340033, 0.2661611, -330789.88, -177435.47, 0.0, 9.9984665, 9.999452 
1.22501746e+3, 2.9435351e+2, -363245.66, -261204.7, -7527.2954, -0.07081067, 0.26866704, -260652.42, -205290.98, 0.0, 9.998103, 9.999452 
1.2250149e+3, 3.0435252e+2, -340389.4, -218765.23, -7549.584, -0.11468148, 0.22459485, -218298.4, -218298.4, 0.0, 9.997899, 9.999507 
1.22501284e+3, 3.14353e+2, -191283.53, 92733.625, -14676.327, -0.12257411, 0.31102365, 93490.0, 93490.0, 0.0, 9.997888, 10.001653 
1.2350519e+3, 1.243687e+2, -1511043.5, -1710940.1, -105131.75, 0.0046429373, 0.18152402, -1465932.0, 255272.53, 0.0031899144, 10.00183, 9.999136 
1.2350525e+3, 1.3436727e+2, -1363219.3, -1644739.4, 118907.945, -0.015631435, 0.1733544, -1319717.3, 303501.06, 0.0017411282, 10.0023775, 9.9986725 
1.2350521e+3, 1.4436632e+2, -1278177.4, -1549916.5, -19767.426, -0.040373534, 0.20867445, -1276747.0, 248481.36, 0.0006337289, 10.002288, 9.998681 
1.2350497e+3, 1.5436485e+2, -1302383.5, -1510400.6, -52302.48, -0.013811952, 0.19176959, -1289973.3, 137271.2, 0.00010392506, 10.001446, 9.998685 
1.2350475e+3, 1.6436368e+2, -1243272.4, -1402015.0, -26008.135, 0.0015159929, 0.19484767, -1239119.9, 90137.234, 0.0000017603737, 10.001052, 9.998946 
1.2350454e+3, 1.7436293e+2, -1113335.0, -1282142.8, -24340.217, -0.012401391, 0.21827275, -1109895.5, 121369.234, 0.0, 10.001245, 9.999003 
1.2350432e+3, 1.8436214e+2, -1011445.94, -1154315.9, -39460.05, -0.02791914, 0.22767478, -1001271.75, 132000.22, 0.0, 10.001149, 9.999254 
1.23504065e+3, 1.943613e+2, -973854.4, -1079121.1, -23520.441, -0.03998297, 0.21020263, -968838.06, 66440.72, 0.0, 10.000707, 9.999311 
1.23503834e+3, 2.0436035e+2, -944347.6, -1058978.3, -21013.209, -0.03954007, 0.2042032, -940617.06, -3329.424, 0.0, 10.000429, 9.998911 
1.2350361e+3, 2.1435928e+2, -853997.7, -962978.25, -33647.563, -0.023032198, 0.20304766, -844446.2, -5147.2485, 0.0, 10.00037, 9.998925 
1.2350338e+3, 2.2435844e+2, -744484.1, -801970.94, -36558.867, -0.015926123, 0.20293757, -726722.3, 14584.921, 0.0, 10.000202, 9.999439 
1.2350313e+3, 2.343579e+2, -686977.1, -715644.3, -24125.566, -0.020680895, 0.19572242, -673248.4, -29936.793, 0.0, 9.99989, 9.99951 
1.2350286e+3, 2.4435729e+2, -655399.5, -700316.7, -29993.326, -0.045614436, 0.20598297, -640388.25, -95070.34, 0.0, 9.999653, 9.999056 
1.2350255e+3, 2.543566e+2, -575351.8, -609072.3, -41393.703, -0.09665537, 0.22922684, -547516.3, -100189.61, 0.0, 9.999522, 9.999072 
1.2350227e+3, 2.6435608e+2, -474008.47, -446637.7, -47033.348, -0.11122432, 0.2423449, -411339.16, -62005.652, 0.0, 9.999275, 9.999634 
1.2350204e+3, 2.7435568e+2, -430904.3, -367018.78, -41723.367, -0.07906567, 0.2326361, -346414.63, -95076.75, 0.0, 9.998863, 9.999705 
1.2350181e+3, 2.843556e+2, -394251.94, -304399.78, -28342.535, -0.059872907, 0.25827798, -296206.66, -142866.88, 0.0, 9.9984665, 9.999653 
1.2350158e+3, 2.9435593e+2, -350544.94, -232430.23, -18960.008, -0.058262445, 0.31924394, -229461.36, -174122.67, 0.0, 9.998092, 9.999654 
1.2350131e+3, 3.0435526e+2, -354070.34, -244978.44, -7739.4424, -0.09001474, 0.3066738, -244432.11, -244432.11, 0.0, 9.997888, 9.999333 
1.23501085e+3, 3.1435448e+2, -201402.7, 73148.95, -10615.389, -0.10177163, 0.28669298, 73558.77, 73558.77, 0.0, 9.99788, 10.001522 
1.2450541e+3, 1.2437044e+2, -1392823.1, -1669217.3, -101662.85, -0.0018196942, 0.1674204, -1359457.5, 361729.4, 0.003475539, 10.002714, 9.998996 
1.2450548e+3, 1.3436908e+2, -1422066.1, -1686240.4, 119252.6, 0.003246494, 0.17805931, -1376197.6, 247003.38, 0.0019075654, 10.002031, 9.998553 
1.2450539e+3, 1.4436829e+2, -1359415.6, -1586587.0, -20774.285, -0.060199376, 0.23424836, -1357531.5, 167678.36, 0.0007030745, 10.001719, 9.998703 
1.2450512e+3, 1.5436663e+2, -1231215.8, -1471286.0, -35799.523, -0.02886312, 0.19443329, -1225991.0, 201236.36, 0.00011956255, 10.001917, 9.998725 
1.2450487e+3, 1.6436537e+2, -1146413.0, -1364285.8, 4868.8555, -0.0060163876, 0.19097722, -1146304.3, 182936.34, 0.0000023468863, 10.001758, 9.998864 
1.2450466e+3, 1.7436466e+2, -1133520.4, -1302324.3, 3004.5981, -0.014748483, 0.22745675, -1133466.9, 97781.22, 0.0, 10.001152, 9.998908 
1.2450442e+3, 1.8436386e+2, -1065580.5, -1176070.8, -28113.004, -0.025612047, 0.23986974, -1058838.9, 74416.81, 0.0, 10.000759, 9.999292 
1.2450415e+3, 1.9436298e+2, -983645.9, -1078211.0, -41971.18, -0.031921513, 0.21320644, -967704.9, 67557.95, 0.0, 10.000617, 9.99936 
1.2450388e+3, 2.0436206e+2, -935786.3, -1045176.25, -34595.89, -0.032807484, 0.20376928, -925763.3, 11507.857, 0.0, 10.000448, 9.998996 
1.24503635e+3, 2.1436112e+2, -865990.3, -959008.9, -14718.433, -0.029484848, 0.20592992, -863716.94, -24435.98, 0.0, 10.000247, 9.999012 
1.2450338e+3, 2.243603e+2, -770916.8, -819828.2, -15131.273, -0.029099042, 0.20769078, -766614.3, -25325.36, 0.0, 10.000043, 9.999393 
1.2450311e+3, 2.3435971e+2, -696808.44, -725486.56, -31682.232, -0.031847984, 0.199764, -676371.44, -33077.047, 0.0, 9.999846, 9.999462 
1.2450282e+3, 2.443591e+2, -659967.0, -693156.56, -38564.086, -0.04642129, 0.20937409, -634578.75, -89277.94, 0.0, 9.999583, 9.999137 
1.245025e+3, 2.543585e+2, -612684.6, -617128.2, -21310.797, -0.07608649, 0.23246379, -593480.1, -146171.78, 0.0, 9.999224, 9.99916 
1.2450221e+3, 2.6435804e+2, -533931.3, -482377.3, -20358.91, -0.089996666, 0.24842867, -475307.13, -125992.38, 0.0, 9.998894, 9.999571 
1.24501914e+3, 2.7435762e+2, -470826.3, -394000.22, -32763.826, -0.084414996, 0.24382572, -381925.34, -130605.336, 0.0, 9.998623, 9.999635 
1.2450164e+3, 2.8435755e+2, -392170.1, -287458.63, -27508.088, -0.074185446, 0.2651835, -280672.0, -127350.03, 0.0, 9.998412, 9.999794 
1.2450138e+3, 2.9435787e+2, -317751.13, -198914.23, -24613.125, -0.058041457, 0.314054, -194018.16, -138698.66, 0.0, 9.998242, 9.999811 
1.2450111e+3, 3.0435747e+2, -348477.28, -248794.72, -7144.2886, -0.07885723, 0.32303613, -248285.28, -248285.28, 0.0, 9.997955, 9.999273 
1.2450088e+3, 3.1435618e+2, -254466.61, 41101.07, 1011.36755, -0.0768719, 0.25546834, 41104.53, 41104.53, 0.0, 9.997545, 10.001462 
1.2550564e+3, 1.2437242e+2, -1407248.1, -1699881.6, -128526.016, -0.045144334, 0.16406508, -1358815.0, 362352.34, 0.0037739007, 10.002715, 9.998786 
1.255057e+3, 1.3437067e+2, -1432873.3, -1710968.0, 93107.81, 0.019224262, 0.15288594, -1404579.0, 218607.1, 0.0020822603, 10.002038, 9.998382 
1.2550555e+3, 1.4437014e+2, -1341605.1, -1549602.1, -16867.021, -0.068736516, 0.23226534, -1340246.3, 184946.44, 0.0007764397, 10.001719, 9.998958 
1.255053e+3, 1.5436912e+2, -1210784.0, -1428762.6, -28117.025, -0.04521594, 0.22771105, -1207215.6, 219987.66, 0.00013646827, 10.001915, 9.999019 
1.2550505e+3, 1.6436797e+2, -1155031.8, -1381169.0, -17787.953, -0.02205091, 0.22576484, -1153641.1, 175573.72, 0.0000030208696, 10.001753, 9.998752 
1.2550478e+3, 1.7436671e+2, -1142506.3, -1322200.1, -20149.406, -0.02269218, 0.22010499, -1140274.6, 90952.87, 0.0, 10.001156, 9.998771 
1.2550451e+3, 1.8436556e+2, -1087791.3, -1222480.6, -35375.58, -0.021741359, 0.21842828, -1079065.4, 54173.65, 0.0, 10.00076, 9.998974 
1.2550423e+3, 1.9436455e+2, -1006733.06, -1126761.6, -47522.168, -0.009197258, 0.21291159, -990196.25, 45052.777, 0.0, 10.000618, 9.999026 
1.2550394e+3, 2.0436366e+2, -903116.3, -977242.8, -43428.527, -0.012599793, 0.20325722, -883085.56, 54171.195, 0.0, 10.000446, 9.999463 
1.2550364e+3, 2.14363e+2, -829562.7, -883002.56, -22814.867, -0.039690707, 0.17994425, -821147.56, 18113.922, 0.0, 10.000244, 9.999535 
1.2550335e+3, 2.2436231e+2, -796824.7, -873241.4, -23979.525, -0.06057774, 0.1842815, -789923.2, -48655.36, 0.0, 10.00004, 9.999028 
1.2550305e+3, 2.3436168e+2, -726644.4, -786998.0, -39064.668, -0.071256764, 0.21449733, -707458.4, -64182.21, 0.0, 9.999843, 9.999042 
1.2550277e+3, 2.4436104e+2, -629608.0, -629580.94, -51970.12, -0.0636383, 0.22213525, -577624.3, -32341.145, 0.0, 9.999579, 9.999577 
1.2550248e+3, 2.5436038e+2, -578292.0, -545742.06, -34033.113, -0.03248944, 0.19084553, -524292.7, -77004.04, 0.0, 9.999223, 9.999651 
1.2550215e+3, 2.6436e+2, -551651.56, -519450.9, -30584.598, -0.032550894, 0.20427375, -500987.7, -151694.25, 0.0, 9.998894, 9.999316 
1.2550178e+3, 2.7435994e+2, -492437.78, -437692.25, -41383.12, -0.073246315, 0.26428407, -415448.2, -164150.67, 0.0, 9.998616, 9.999338 
1.2550147e+3, 2.8435975e+2, -388865.34, -278851.0, -33118.664, -0.088986635, 0.2858397, -269650.4, -116349.28, 0.0, 9.998404, 9.999858 
1.255012e+3, 2.943594e+2, -312024.75, -186509.98, -29399.66, -0.07425074, 0.2551814, -179964.92, -124661.12, 0.0, 9.998239, 9.999898 
1.255009e+3, 3.043592e+2, -343471.03, -237847.81, -21881.666, -0.08588132, 0.27574036, -233494.1, -233494.1, 0.0, 9.997952, 9.999351 
1.2550066e+3, 3.1435812e+2, -255055.39, 42866.867, -9305.462, -0.055266224, 0.22434305, 43157.234, 43157.234, 0.0, 9.997532, 10.001481 
1.2650588e+3, 1.2437494e+2, -1419057.3, -1704408.1, -119312.45, -0.060906947, 0.18876977, -1375744.1, 345399.6, 0.004085261, 10.002627, 9.998797 
1.2650594e+3, 1.3437286e+2, -1378575.5, -1675379.9, 115623.78, 0.040603414, 0.13723603, -1338849.9, 284314.88, 0.0022650692, 10.002374, 9.998464 
1.2650573e+3, 1.4437239e+2, -1296536.0, -1529032.5, 21218.53, -0.0767384, 0.21964626, -1294615.4, 230554.86, 0.00085386867, 10.002036, 9.998944 
1.2650546e+3, 1.5437153e+2, -1249855.8, -1450486.6, -12827.345, -0.051925134, 0.23327047, -1249039.0, 178140.61, 0.00015477135, 10.00166, 9.998991 
1.2650518e+3, 1.6437043e+2, -1202861.0, -1399022.5, -17912.799, -0.026663521, 0.23423563, -1201238.8, 127951.89, 0.0000038088367, 10.001403, 9.998796 
1.265049e+3, 1.7436905e+2, -1120475.9, -1305506.4, -8192.3125, -0.023899397, 0.21103615, -1120113.8, 111089.805, 0.0, 10.001283, 9.998823 
1.2650459e+3, 1.8436775e+2, -1054137.9, -1230855.6, -6608.9116, -0.01947753, 0.20370698, -1053891.0, 79325.42, 0.0, 10.001099, 9.998753 
1.265043e+3, 1.9436659e+2, -992078.4, -1146453.3, -12727.697, -0.006678796, 0.20639189, -991036.06, 44193.188, 0.0, 10.000836, 9.998785 
1.26504e+3, 2.0436569e+2, -886413.25, -962904.06, -21228.477, -0.009888997, 0.20568268, -880916.7, 56321.008, 0.0, 10.000535, 9.999518 
1.2650368e+3, 2.1436518e+2, -834779.2, -876691.94, -35077.78, -0.03590996, 0.19212267, -814874.56, 24365.855, 0.0, 10.000172, 9.999613 
1.2650335e+3, 2.243646e+2, -821987.5, -875323.1, -36456.76, -0.0566575, 0.19532935, -803486.0, -62240.14, 0.0, 9.9998255, 9.999117 
1.2650302e+3, 2.343639e+2, -770112.0, -798140.1, -15118.896, -0.06916564, 0.21057154, -763511.1, -120256.516, 0.0, 9.999502, 9.999129 
1.2650271e+3, 2.443633e+2, -668280.8, -632456.7, -18003.799, -0.060688768, 0.21066888, -624972.3, -79711.29, 0.0, 9.999246, 9.999718 
1.265024e+3, 2.5436282e+2, -588193.7, -533734.44, -27289.787, -0.026780363, 0.18127896, -522413.0, -75148.46, 0.0, 9.999083, 9.9998 
1.2650205e+3, 2.643625e+2, -554995.0, -525785.5, -29898.287, -0.02382411, 0.19915237, -507115.56, -157847.39, 0.0, 9.998892, 9.999274 
1.2650166e+3, 2.7436247e+2, -493033.8, -444181.4, -23851.762, -0.059227537, 0.26586467, -434467.5, -183195.27, 0.0, 9.998639, 9.999282 
1.2650132e+3, 2.843621e+2, -392514.28, -281446.94, -5111.852, -0.07783391, 0.2748182, -281212.16, -127934.7, 0.0, 9.998383, 9.99985 
1.2650101e+3, 2.943614e+2, -327496.97, -194478.38, -9451.465, -0.07705403, 0.21072486, -193810.17, -138526.86, 0.0, 9.998135, 9.999893 
1.2650068e+3, 3.0436167e+2, -355920.4, -233504.63, -11954.064, -0.087262094, 0.27041522, -232348.22, -232348.22, 0.0, 9.997823, 9.999442 
1.2650043e+3, 3.1436092e+2, -274859.2, 29888.326, 1427.58, -0.030154103, 0.2442839, 29895.014, 29895.014, 0.0, 9.99741, 10.001451 
1.2750615e+3, 1.2437808e+2, -1403745.6, -1670812.5, -125596.836, -0.055953655, 0.24090604, -1353960.4, 367155.13, 0.0044096503, 10.00262, 9.999033 
1.2750621e+3, 1.3437572e+2, -1354907.9, -1626392.0, 105394.72, 0.06606265, 0.13028571, -1318795.5, 304341.0, 0.0024558255, 10.002375, 9.998799 
1.2750593e+3, 1.4437515e+2, -1315786.6, -1569950.5, 5413.4233, -0.08706826, 0.19616123, -1315671.4, 209470.61, 0.00093550276, 10.002038, 9.998664 
1.2750563e+3, 1.5437397e+2, -1272815.3, -1499847.3, -26839.002, -0.053204622, 0.21176337, -1269685.6, 157469.95, 0.00017466526, 10.001665, 9.9986515 
1.2750533e+3, 1.6437282e+2, -1189707.5, -1371582.4, -24000.223, -0.023829289, 0.21633083, -1186593.8, 142573.45, 0.0000047674703, 10.001401, 9.998986 
1.2750503e+3, 1.7437172e+2, -1104017.8, -1271778.1, -13149.2705, -0.020083232, 0.19959797, -1102993.4, 128182.76, 0.0, 10.001284, 9.999055 
1.275047e+3, 1.8437052e+2, -1063552.0, -1250145.5, -17781.68, -0.02176851, 0.1940956, -1061872.6, 71315.26, 0.0, 10.001097, 9.998622 
1.2750436e+3, 1.9436915e+2, -1002665.94, -1168790.0, -23057.592, -0.025498603, 0.19419555, -999525.0, 35678.12, 0.0, 10.000837, 9.998632 
1.2750404e+3, 2.0436819e+2, -911148.8, -1014255.25, -35767.145, -0.025635071, 0.21149236, -899956.3, 37257.125, 0.0, 10.000534, 9.9991665 
1.275037e+3, 2.1436776e+2, -860857.3, -930432.8, -49047.79, -0.021017391, 0.24181724, -835512.94, 3704.4731, 0.0, 10.000169, 9.999246 
1.2750337e+3, 2.2436717e+2, -785194.6, -798075.3, -49860.723, -0.021552632, 0.2403367, -741360.06, -137.42873, 0.0, 9.999821, 9.999649 
1.2750302e+3, 2.3436639e+2, -728649.9, -712200.56, -27225.467, -0.027384143, 0.18830678, -691984.56, -48755.105, 0.0, 9.999502, 9.99972 
1.2750265e+3, 2.4436589e+2, -679529.2, -655974.0, -25002.273, -0.039699852, 0.17510934, -640114.2, -94880.02, 0.0, 9.999245, 9.9995575 
1.2750228e+3, 2.5436577e+2, -602907.0, -563734.1, -32568.305, -0.06128549, 0.20323975, -545316.3, -98080.5, 0.0, 9.999079, 9.999597 
1.2750189e+3, 2.643656e+2, -544155.9, -502252.4, -38668.87, -0.06548224, 0.2325268, -479223.94, -129985.164, 0.0, 9.998886, 9.999439 
1.2750153e+3, 2.7436525e+2, -480036.9, -416984.75, -31808.473, -0.04637348, 0.24944836, -403726.1, -152482.1, 0.0, 9.998637, 9.999471 
1.2750119e+3, 2.8436467e+2, -398154.7, -293327.4, -14133.168, -0.045511585, 0.2329307, -291455.34, -138204.66, 0.0, 9.998382, 9.99977 
1.2750083e+3, 2.94364e+2, -335782.4, -209217.42, -17062.832, -0.07016825, 0.18010817, -206957.45, -151699.53, 0.0, 9.998123, 9.999799 
1.2750047e+3, 3.043649e+2, -351256.1, -221251.78, -25779.635, -0.08514663, 0.3057401, -216326.33, -216326.33, 0.0, 9.99781, 9.999532 
1.2750019e+3, 3.143647e+2, -283652.13, 14517.693, -7857.902, -0.0098364325, 0.3269746, 14724.635, 14724.635, 0.0, 9.997397, 10.00135 
1.285064e+3, 1.24381155e+2, -1415075.0, -1683445.5, -85950.836, -0.055468436, 0.24126403, -1389907.8, 331177.8, 0.0047468157, 10.002576, 9.998965 
1.2850645e+3, 1.3437898e+2, -1347966.0, -1619612.5, 113202.58, 0.06920214, 0.14612512, -1306976.4, 316128.16, 0.0026545508, 10.002409, 9.998828 
1.2850611e+3, 1.443784e+2, -1305906.6, -1579927.6, 2849.8557, -0.11271084, 0.21405746, -1305877.0, 219233.0, 0.0010215283, 10.00217, 9.998531 
1.2850581e+3, 1.5437672e+2, -1245407.1, -1502532.1, -15994.605, -0.050472252, 0.1932424, -1244416.0, 182712.25, 0.00019628371, 10.001924, 9.9985075 
1.285055e+3, 1.6437535e+2, -1147142.8, -1357331.3, -6457.704, -0.0079257265, 0.18908687, -1146944.6, 182197.27, 0.0000059623408, 10.001722, 9.998929 
1.2850517e+3, 1.7437448e+2, -1066680.5, -1259754.0, -16990.213, -0.01271956, 0.19972326, -1065196.8, 165952.38, 0.0, 10.001568, 9.999001 
1.2850483e+3, 1.8437338e+2, -1036456.94, -1234982.5, -35058.105, -0.023035483, 0.20753866, -1030447.8, 102712.125, 0.0, 10.001275, 9.998639 
1.2850444e+3, 1.9437201e+2, -1006449.1, -1168080.1, -28999.803, -0.035067894, 0.20245874, -1001403.5, 33771.715, 0.0, 10.000801, 9.998654 
1.2850408e+3, 2.0437098e+2, -932790.9, -1029152.56, -22147.928, -0.03378257, 0.21332258, -927944.2, 9242.034, 0.0, 10.000406, 9.9991255 
1.2850372e+3, 2.1437043e+2, -871907.06, -940304.06, -12491.656, -0.017257769, 0.23539576, -869697.06, -30505.576, 0.0, 10.0001135, 9.999204 
1.2850335e+3, 2.2436984e+2, -777361.2, -785602.4, -14249.14, -0.011708195, 0.23393755, -766648.8, -25452.127, 0.0, 9.999838, 9.999726 
1.2850298e+3, 2.3436925e+2, -711483.7, -693832.25, -30548.94, -0.01945338, 0.19197877, -670859.7, -27658.023, 0.0, 9.999578, 9.999809 
1.2850259e+3, 2.4436888e+2, -673810.8, -655331.75, -41398.434, -0.031502675, 0.18890436, -622154.3, -76949.12, 0.0, 9.999294, 9.999537 
1.2850219e+3, 2.5436884e+2, -619990.06, -575094.25, -36700.594, -0.049490858, 0.22826205, -554520.75, -107314.08, 0.0, 9.998975, 9.999569 
1.2850179e+3, 2.6436865e+2, -558790.1, -497935.25, -35530.12, -0.05405096, 0.25257745, -481584.28, -132374.58, 0.0, 9.998736, 9.99954 
1.285014e+3, 2.7436814e+2, -476590.06, -402871.7, -35680.83, -0.040902473, 0.24163255, -388430.56, -137215.14, 0.0, 9.998607, 9.999582 
1.2850104e+3, 2.8436756e+2, -412796.94, -315262.88, -28237.916, -0.03650106, 0.22418205, -307677.4, -154455.2, 0.0, 9.998345, 9.999637 
1.2850066e+3, 2.943671e+2, -379694.88, -247041.22, -37275.926, -0.04411925, 0.20746388, -237284.27, -182055.55, 0.0, 9.997892, 9.99965 
1.2850027e+3, 3.0436823e+2, -364752.28, -209852.05, -37582.56, -0.065615736, 0.3564148, -201215.17, -201215.17, 0.0, 9.9976425, 9.99969 
1.2849994e+3, 3.1436762e+2, -244945.86, 24301.684, -13536.084, -0.025895925, 0.31784192, 24980.48, 24980.48, 0.0, 9.997702, 10.001271 
1.2950666e+3, 1.243843e+2, -1440504.1, -1739237.4, -85365.2, -0.06763228, 0.19104499, -1417831.1, 303221.75, 0.0050962004, 10.002586, 9.998578 
1.2950666e+3, 1.3438274e+2, -1368041.6, -1660529.6, 105879.89, 0.047488574, 0.18370926, -1333736.9, 289331.63, 0.0028611089, 10.002406, 9.9985485 
1.2950629e+3, 1.443822e+2, -1306557.9, -1579775.4, -8303.76, -0.15770076, 0.2719147, -1306305.6, 218768.22, 0.00111182, 10.002163, 9.998536 
1.2950602e+3, 1.5437979e+2, -1241521.3, -1495764.1, -25190.104, -0.04565689, 0.17765404, -1239049.4, 188047.69, 0.000219555, 10.001928, 9.998552 
1.295057e+3, 1.6437812e+2, -1167556.3, -1400556.3, -13569.116, 0.017818533, 0.15190925, -1166768.6, 162345.22, 0.0000074533, 10.001724, 9.998632 
1.2950534e+3, 1.743774e+2, -1089860.4, -1308044.5, -22978.523, -0.004172841, 0.2107, -1087466.6, 143655.28, 0.0, 10.001567, 9.99867 
1.2950495e+3, 1.8437643e+2, -1026384.0, -1213478.1, -53217.766, -0.025879111, 0.24322069, -1012305.8, 120826.24, 0.0, 10.001271, 9.998789 
1.2950452e+3, 1.9437519e+2, -993624.5, -1141390.8, -47199.613, -0.037686937, 0.23130427, -979834.9, 55310.176, 0.0, 10.000799, 9.998838 
1.2950411e+3, 2.0437407e+2, -914374.5, -990733.0, -34939.56, -0.037826356, 0.21142063, -900800.25, 36355.258, 0.0, 10.000404, 9.999392 
1.2950373e+3, 2.1437317e+2, -852604.2, -900789.06, -24007.37, -0.025859352, 0.17306775, -842684.9, -3522.4146, 0.0, 10.000115, 9.999475 
1.2950332e+3, 2.2437261e+2, -803406.7, -839910.1, -25239.174, -0.028278528, 0.17626879, -790511.3, -49343.574, 0.0, 9.999838, 9.999354 
1.295029e+3, 2.3437247e+2, -740804.5, -754627.44, -40079.184, -0.04736814, 0.22127183, -707045.25, -63874.426, 0.0, 9.999576, 9.999393 
1.295025e+3, 2.4437228e+2, -666158.9, -638698.75, -53528.76, -0.038851503, 0.25161582, -597167.25, -51993.277, 0.0, 9.9992895, 9.999655 
1.2950213e+3, 2.5437206e+2, -609596.75, -553475.94, -47920.72, 0.0055142846, 0.2567216, -526004.5, -78827.695, 0.0, 9.998974, 9.999719 
1.2950172e+3, 2.6437172e+2, -556130.1, -493013.75, -40498.21, 0.0070628193, 0.25930965, -473229.72, -124049.06, 0.0, 9.998737, 9.999575 
1.2950127e+3, 2.7437118e+2, -475463.66, -398754.28, -38874.71, -0.046207994, 0.24267358, -382498.3, -131312.0, 0.0, 9.998598, 9.999616 
1.2950085e+3, 2.8437075e+2, -427668.2, -344399.53, -43375.727, -0.053160094, 0.24859376, -325910.06, -172718.2, 0.0, 9.998337, 9.999441 
1.295005e+3, 2.9437074e+2, -394786.78, -276980.06, -52381.707, -0.0038661165, 0.29481897, -257057.98, -201862.61, 0.0, 9.997887, 9.999447 
1.2950006e+3, 3.0437165e+2, -348920.0, -178075.61, -36579.19, -0.033705704, 0.42374074, -170573.16, -170573.16, 0.0, 9.997644, 9.999908 
1.2949964e+3, 3.143697e+2, -252068.89, 14218.096, -5785.4326, -0.08600081, 0.22712944, 14343.732, 14343.732, 0.0, 9.997681, 10.001212 
1.3050696e+3, 1.2438782e+2, -1328878.0, -1714578.8, -92442.51, -0.079507336, 0.18176636, -1307866.6, 413150.88, 0.0054552136, 10.003487, 9.998314 
1.3050693e+3, 1.343861e+2, -1347740.8, -1672253.4, 91770.99, 0.062205452, 0.18000391, -1323586.1, 299449.53, 0.003073975, 10.002641, 9.998354 
1.305065e+3, 1.4438552e+2, -1304848.5, -1572374.5, -83.55355, -0.1585355, 0.27167147, -1304848.5, 220193.25, 0.0012055306, 10.002148, 9.998594 
1.3050622e+3, 1.5438321e+2, -1202450.5, -1468619.1, -13917.967, -0.04615464, 0.17777061, -1201724.6, 225338.61, 0.000244213, 10.002162, 9.998626 
1.3050589e+3, 1.6438153e+2, -1157151.3, -1413148.5, -6992.5103, 0.014177693, 0.15495592, -1156960.4, 172119.64, 0.000009295233, 10.001873, 9.998473 
1.3050547e+3, 1.7438069e+2, -1154292.0, -1358217.9, -6408.681, -0.014291283, 0.21993127, -1154090.9, 76999.52, 0.0, 10.001207, 9.998498 
1.3050504e+3, 1.8437968e+2, -1075345.3, -1223306.1, -22649.582, -0.03254542, 0.25086042, -1071955.8, 61145.53, 0.0, 10.000876, 9.998911 
1.3050461e+3, 1.9437845e+2, -959485.4, -1108446.5, -20196.566, -0.03128626, 0.22741507, -956795.6, 78317.28, 0.0, 10.000965, 9.998984 
1.3050419e+3, 2.0437737e+2, -854575.3, -962436.56, -24267.555, -0.029807813, 0.20314367, -849366.94, 87755.67, 0.0, 10.000818, 9.999386 
1.3050374e+3, 2.1437651e+2, -816777.94, -885226.4, -36234.9, -0.030945227, 0.17012532, -801159.75, 37969.707, 0.0, 10.000369, 9.999459 
1.3050331e+3, 2.2437596e+2, -787884.5, -837767.9, -34701.613, -0.03466183, 0.17703253, -770091.06, -28956.22, 0.0, 9.999969, 9.999307 
1.3050286e+3, 2.3437577e+2, -736170.5, -757640.56, -23723.18, -0.040808, 0.22358765, -720866.5, -77728.24, 0.0, 9.999632, 9.999345 
1.3050245e+3, 2.443755e+2, -660267.4, -640983.56, -26504.113, -0.027101628, 0.24982437, -622422.0, -77279.67, 0.0, 9.999352, 9.999609 
1.3050205e+3, 2.5437513e+2, -588205.25, -548254.4, -36491.066, 0.012322501, 0.2429129, -526629.2, -79482.16, 0.0, 9.999143, 9.999673 
1.3050161e+3, 2.6437485e+2, -536442.3, -477974.47, -36389.74, 0.013622902, 0.25191453, -460530.4, -111379.96, 0.0, 9.998849, 9.999623 
1.3050114e+3, 2.7437466e+2, -492842.47, -401149.3, -34710.723, -0.033105128, 0.26487002, -389491.6, -138338.6, 0.0, 9.998453, 9.999668 
1.3050069e+3, 2.8437427e+2, -441885.66, -349083.63, -27887.393, -0.038259365, 0.27067617, -341348.13, -188190.08, 0.0, 9.998231, 9.999459 
1.305003e+3, 2.9437384e+2, -341981.53, -249613.14, -21709.39, 0.007031958, 0.27800196, -244765.2, -189600.73, 0.0, 9.99824, 9.999465 
1.3049985e+3, 3.043747e+2, -296542.66, -136430.38, -2838.6265, -0.024588667, 0.38875398, -136380.06, -136380.06, 0.0, 9.997936, 10.000054 
1.304994e+3, 3.14373e+2, -327175.5, -40937.15, 21158.012, -0.08123177, 0.20341624, -39381.652, -39381.652, 0.0, 9.997245, 10.001045 
1.3150729e+3, 1.24391854e+2, -1341398.1, -1737779.8, -114372.91, -0.09942823, 0.21781226, -1310764.3, 410213.7, 0.005819013, 10.003472, 9.998163 
1.3150725e+3, 1.343892e+2, -1354609.4, -1688608.4, 59412.336, 0.11058422, 0.13498937, -1344355.8, 278649.8, 0.0032902497, 10.002649, 9.998238 
1.3150676e+3, 1.4438848e+2, -1295728.4, -1555842.0, -3144.0134, -0.12101694, 0.21328147, -1295690.4, 229322.47, 0.0013013786, 10.002157, 9.998703 
1.3150643e+3, 1.5438701e+2, -1196295.9, -1454736.6, -13461.173, -0.054890845, 0.19288498, -1195596.6, 231429.45, 0.00026992275, 10.002156, 9.998724 
1.3150603e+3, 1.6438563e+2, -1160266.9, -1418512.3, -31837.717, -0.021220146, 0.19714202, -1156399.8, 172640.14, 0.00001153221, 10.001866, 9.99844 
1.3150555e+3, 1.7438443e+2, -1155214.5, -1361576.8, -31731.756, -0.044712484, 0.22827552, -1150445.4, 80608.516, 0.0, 10.001213, 9.998473 
1.3150512e+3, 1.8438318e+2, -1067966.1, -1208745.9, -22148.754, -0.046941284, 0.23148833, -1064563.8, 68503.19, 0.0, 10.000879, 9.999011 
1.3150473e+3, 1.9438186e+2, -951988.6, -1093491.9, -17288.201, -0.017755553, 0.18998428, -949907.06, 85171.41, 0.0, 10.000966, 9.999087 
1.3150428e+3, 2.0438093e+2, -874120.5, -1002902.1, -41277.258, -0.011554958, 0.18757753, -862026.1, 75061.086, 0.0, 10.000817, 9.999108 
1.3150378e+3, 2.1438047e+2, -838397.75, -929936.3, -53334.09, -0.03477899, 0.22600943, -813886.5, 25205.592, 0.0, 10.000367, 9.999154 
1.3150331e+3, 2.2437993e+2, -769767.44, -799360.56, -48768.27, -0.034391657, 0.2360897, -733600.44, 7497.119, 0.0, 9.999964, 9.999573 
1.3150288e+3, 2.3437922e+2, -714880.06, -713736.94, -36404.063, -0.0019364397, 0.1989875, -677899.94, -34796.21, 0.0, 9.999632, 9.999647 
1.3150242e+3, 2.4437858e+2, -674475.06, -670687.3, -35048.348, 0.0016089248, 0.18325207, -637481.7, -92371.445, 0.0, 9.999352, 9.999405 
1.3150191e+3, 2.5437808e+2, -605468.25, -582974.06, -43325.137, -0.031611215, 0.1875661, -549460.0, -102343.09, 0.0, 9.999137, 9.999438 
1.3150144e+3, 2.6437804e+2, -533767.2, -471627.28, -50168.086, -0.03651291, 0.23106553, -443687.22, -94568.42, 0.0, 9.998844, 9.99967 
1.31501e+3, 2.7437857e+2, -488643.38, -392306.84, -47880.12, -0.0048114136, 0.30956003, -372558.34, -121443.03, 0.0, 9.998452, 9.99973 
1.3150056e+3, 2.8437808e+2, -425114.66, -315551.7, -28165.506, 0.0043743667, 0.29136062, -308735.22, -155614.5, 0.0, 9.998235, 9.999689 
1.3150011e+3, 2.9437652e+2, -327028.97, -214927.61, -19308.914, -0.016794853, 0.15867348, -211694.97, -156559.22, 0.0, 9.998224, 9.999712 
1.3149963e+3, 3.0437735e+2, -294318.9, -129110.086, -25927.775, -0.043363564, 0.25278434, -125136.56, -125136.56, 0.0, 9.997923, 10.000113 
1.3149919e+3, 3.1437758e+2, -346582.06, -78735.88, 1369.3162, -0.017634895, 0.25556898, -78728.88, -78728.88, 0.0, 9.997235, 10.00079 
1.325076e+3, 1.2439576e+2, -1438603.1, -1792938.1, -95634.98, -0.09332263, 0.22161072, -1414439.1, 306500.63, 0.006183249, 10.002834, 9.998094 
1.3250753e+3, 1.3439299e+2, -1300825.3, -1665437.5, 70790.46, 0.108760975, 0.12998949, -1287563.4, 335405.4, 0.0035072896, 10.003036, 9.99821 
1.3250698e+3, 1.4439228e+2, -1207599.1, -1512272.3, 5032.924, -0.13812043, 0.21084832, -1207516.0, 317460.2, 0.0013982238, 10.00276, 9.998712 
1.3250662e+3, 1.5439104e+2, -1225156.8, -1468169.5, -12601.84, -0.052710775, 0.21308465, -1224505.0, 202482.19, 0.00029637254, 10.001957, 9.998728 
1.325062e+3, 1.6438967e+2, -1195021.4, -1426433.6, -22832.867, -0.016311198, 0.21450515, -1192790.0, 136210.69, 0.000014169166, 10.001591, 9.998519 
1.325057e+3, 1.7438823e+2, -1067966.5, -1310047.3, -15845.896, -0.05593703, 0.21267112, -1066933.6, 164082.55, 0.0, 10.001772, 9.998557 
1.3250522e+3, 1.8438694e+2, -968887.5, -1166548.9, -8375.745, -0.060930308, 0.21036403, -968533.2, 164495.98, 0.0, 10.001584, 9.9989605 
1.3250482e+3, 1.9438586e+2, -961015.3, -1104335.3, -16205.598, -0.020126978, 0.19766733, -959205.75, 75833.36, 0.0, 10.000933, 9.999029 
1.3250436e+3, 2.0438495e+2, -923037.94, -1035632.06, -39100.137, -0.0049117645, 0.20590353, -910791.7, 26256.188, 0.0, 10.000521, 9.999026 
1.3250384e+3, 2.143843e+2, -838249.8, -938419.2, -36386.586, -0.023141036, 0.23231457, -826427.6, 12627.421, 0.0, 10.000407, 9.999075 
1.3250332e+3, 2.2438367e+2, -736355.4, -778068.4, -32958.465, -0.022922698, 0.23640595, -718208.6, 22852.688, 0.0, 10.000173, 9.999618 
1.3250284e+3, 2.3438303e+2, -690129.1, -695437.2, -40302.625, 0.0023396723, 0.20122902, -652393.25, -9326.713, 0.0, 9.999775, 9.999703 
1.3250236e+3, 2.4438243e+2, -662882.06, -654830.9, -35597.21, 0.004030448, 0.18186569, -623032.4, -77960.06, 0.0, 9.99939, 9.9994955 
1.3250183e+3, 2.5438192e+2, -615715.94, -576730.06, -21018.465, -0.025014354, 0.17498045, -567556.8, -120478.37, 0.0, 9.999021, 9.999536 
1.3250133e+3, 2.6438186e+2, -558269.94, -488595.56, -18999.592, -0.02767862, 0.21543287, -483751.34, -134670.97, 0.0, 9.9987, 9.999622 
1.3250086e+3, 2.743824e+2, -494679.72, -401630.66, -26724.613, 0.00457523, 0.30077478, -394501.34, -143423.75, 0.0, 9.998439, 9.999673 
1.325004e+3, 2.8438205e+2, -433805.06, -306269.38, -10539.423, 0.012731585, 0.29082438, -305404.28, -152322.17, 0.0, 9.998119, 9.999807 
1.3249992e+3, 2.9438066e+2, -389057.84, -228983.48, -12140.156, -0.010622662, 0.16585395, -228068.0, -172973.5, 0.0, 9.997731, 9.999852 
1.3249941e+3, 3.043814e+2, -342410.4, -138276.27, -23357.99, -0.02923502, 0.23815793, -135637.64, -135637.64, 0.0, 9.997535, 10.000236 
1.3249895e+3, 3.1438196e+2, -305148.75, -74257.15, 10356.494, 0.003661598, 0.26279584, -73793.55, -73793.55, 0.0, 9.997587, 10.000651 
1.335079e+3, 1.2439962e+2, -1437293.9, -1792952.0, -78873.55, -0.072320424, 0.19399399, -1420587.1, 300315.13, 0.0065457188, 10.002845, 9.998089 
1.3350779e+3, 1.3439752e+2, -1299400.1, -1659314.5, 77115.55, 0.05709922, 0.16510786, -1283573.3, 339351.66, 0.0037237175, 10.003023, 9.998258 
1.3350719e+3, 1.4439698e+2, -1215479.6, -1525749.1, -24741.406, -0.2112662, 0.26395264, -1213519.0, 311412.0, 0.0014951822, 10.002748, 9.998626 
1.3350683e+3, 1.5439537e+2, -1229564.1, -1479069.9, -42636.16, -0.042817004, 0.2377548, -1222479.5, 204466.78, 0.00032323142, 10.001964, 9.998651 
1.335064e+3, 1.6439372e+2, -1181865.4, -1400962.9, -19149.342, 0.023118071, 0.20726258, -1180204.3, 148757.47, 0.000017128494, 10.001597, 9.998691 
1.3350588e+3, 1.7439212e+2, -1055388.0, -1284148.3, -9454.238, -0.05051125, 0.17285717, -1054998.0, 175978.63, 0.00000000003443261, 10.001772, 9.998735 
1.3350537e+3, 1.84391e+2, -983058.25, -1195443.8, -32521.486, -0.07681751, 0.18675596, -978190.0, 154797.77, 0.0, 10.00158, 9.998765 
1.335049e+3, 1.9439046e+2, -975932.44, -1136056.8, -41184.42, -0.039879106, 0.24984898, -965960.7, 69033.66, 0.0, 10.000935, 9.998811 
1.3350439e+3, 2.043895e+2, -915872.6, -1020642.7, -45834.613, -0.012894334, 0.25820208, -898651.56, 38352.65, 0.0, 10.00052, 9.99913 
1.335039e+3, 2.1438801e+2, -829537.9, -920553.9, -41091.523, 0.0014901841, 0.1888234, -813731.2, 25286.766, 0.0, 10.000407, 9.999199 
1.3350336e+3, 2.2438721e+2, -748134.7, -802336.5, -48326.21, -0.002458894, 0.17743084, -719829.06, 21196.76, 0.0, 10.000171, 9.999453 
1.335028e+3, 2.3438725e+2, -703624.7, -723012.25, -54879.957, -0.029024202, 0.22998542, -657588.94, -14562.686, 0.0, 9.999772, 9.9995165 
1.3350227e+3, 2.4438709e+2, -637609.56, -601587.0, -49737.453, -0.021397455, 0.24532133, -566700.06, -21671.973, 0.0, 9.999385, 9.999865 
1.335018e+3, 2.5438663e+2, -587880.44, -518856.78, -34198.066, 0.029216334, 0.2057379, -504782.88, -57751.31, 0.0, 9.99902, 9.999934 
1.3350128e+3, 2.6438636e+2, -567444.75, -508052.5, -28850.553, 0.037135936, 0.20504348, -496345.56, -147310.33, 0.0, 9.998701, 9.999489 
1.3350068e+3, 2.743862e+2, -507710.2, -426461.88, -34758.926, -0.008971867, 0.23889412, -413621.06, -162581.4, 0.0, 9.998429, 9.999508 
1.3350017e+3, 2.8438613e+2, -435866.16, -309030.38, -23696.402, -0.017030582, 0.26981992, -304747.84, -151705.73, 0.0, 9.998111, 9.999794 
1.3349973e+3, 2.9438636e+2, -389156.5, -228896.55, -24527.621, 0.023192834, 0.30275092, -225226.66, -170186.1, 0.0, 9.997729, 9.999854 
1.334992e+3, 3.043869e+2, -328123.88, -109125.01, -21322.754, 0.013994533, 0.34703475, -107068.24, -107068.24, 0.0, 9.997536, 10.000435 
1.3349868e+3, 3.143862e+2, -307277.22, -73900.445, 17818.756, -0.026258957, 0.22697408, -72547.79, -72547.79, 0.0, 9.997566, 10.000663 
1.3450822e+3, 1.2440409e+2, -1306217.1, -1721387.8, -48860.48, -0.0923907, 0.18595408, -1300544.4, 420314.0, 0.0069055543, 10.003721, 9.998157 
1.3450807e+3, 1.3440217e+2, -1342834.4, -1672712.8, 95491.51, 0.05942664, 0.16929746, -1317186.1, 305692.16, 0.0039389143, 10.002693, 9.998325 
1.3450743e+3, 1.4440158e+2, -1307866.3, -1589412.3, -772.4331, -0.20744283, 0.26830256, -1307864.1, 217020.9, 0.0015916337, 10.002194, 9.998455 
1.3450706e+3, 1.5439971e+2, -1179112.8, -1476044.4, -28335.775, -0.047919787, 0.23274273, -1176432.9, 250471.36, 0.0003501717, 10.002402, 9.99846 
1.345066e+3, 1.6439795e+2, -1089524.0, -1349717.5, -12134.152, 0.018707529, 0.19930726, -1088959.4, 239961.58, 0.000020254476, 10.002203, 9.998752 
1.3450606e+3, 1.7439649e+2, -1089710.3, -1291933.5, -10142.76, -0.040789656, 0.17091791, -1089202.8, 141730.47, 0.0000000014653116, 10.001498, 9.998815 
1.3450551e+3, 1.8439537e+2, -1054474.0, -1238665.0, -33261.336, -0.06646503, 0.18376137, -1048651.6, 84292.336, 0.0, 10.001128, 9.998686 
1.3450499e+3, 1.9439463e+2, -947789.06, -1132101.3, -34153.695, -0.047824915, 0.23751326, -941663.8, 93289.05, 0.0, 10.00117, 9.998724 
1.3450445e+3, 2.0439361e+2, -845082.4, -977529.75, -33910.87, -0.025866669, 0.24121429, -836904.94, 100058.38, 0.0, 10.000968, 9.999211 
1.3450393e+3, 2.1439223e+2, -815780.0, -903701.0, -32409.818, -0.00040949392, 0.17256, -805124.4, 33851.24, 0.0, 10.000457, 9.99929 
1.3450336e+3, 2.2439149e+2, -772320.9, -822492.06, -38511.535, 0.0011122981, 0.1671125, -751445.3, -10462.383, 0.0, 10.000042, 9.999375 
1.3450277e+3, 2.343916e+2, -712563.2, -736058.5, -39901.01, -0.027653398, 0.23289105, -682716.4, -39732.566, 0.0, 9.999752, 9.999435 
1.345022e+3, 2.4439152e+2, -633513.1, -596678.9, -44144.258, -0.019036017, 0.2607029, -567263.94, -22278.57, 0.0, 9.999404, 9.9998865 
1.345017e+3, 2.543912e+2, -591622.3, -517149.3, -57477.348, 0.037316043, 0.23110926, -485900.75, -38913.086, 0.0, 9.9989805, 9.999964 
1.3450114e+3, 2.6439086e+2, -566987.6, -499649.38, -53077.42, 0.048427284, 0.22351538, -470462.94, -121471.58, 0.0, 9.9986725, 9.999559 
1.3450055e+3, 2.7439052e+2, -490328.94, -408957.38, -42783.33, 0.0019226752, 0.230989, -390602.94, -139605.97, 0.0, 9.998512, 9.999585 
1.345e+3, 2.8439054e+2, -416349.34, -306397.9, -28120.068, -0.008049941, 0.26453692, -299623.6, -146624.53, 0.0, 9.998278, 9.99973 
1.344995e+3, 2.9439098e+2, -361125.84, -222610.97, -35462.113, 0.02869284, 0.33191875, -214059.97, -159064.33, 0.0, 9.997956, 9.999787 
1.3449897e+3, 3.0439132e+2, -310662.72, -81864.3, -31571.78, 0.024375869, 0.34817657, -77587.66, -77587.66, 0.0, 9.997577, 10.000603 
1.3449842e+3, 3.143911e+2, -369976.34, -93477.625, 5006.7417, -0.017180093, 0.25856686, -93386.99, -93386.99, 0.0, 9.997093, 10.000757 
1.3550852e+3, 1.2440925e+2, -1300110.4, -1705152.8, -77792.945, -0.1571571, 0.19801317, -1285683.3, 435124.25, 0.0072628423, 10.003705, 9.998277 
1.355084e+3, 1.3440703e+2, -1335520.8, -1658129.6, 56095.605, 0.11047955, 0.14175011, -1326045.0, 296783.6, 0.004152666, 10.002697, 9.998422 
1.3550773e+3, 1.4440618e+2, -1326079.3, -1629980.8, 2908.4634, -0.13593516, 0.22329609, -1326051.5, 198786.06, 0.0016872559, 10.002204, 9.998173 
1.3550726e+3, 1.5440412e+2, -1201577.3, -1523038.5, -20856.049, -0.06980923, 0.20008622, -1200229.9, 226630.67, 0.0003769789, 10.002402, 9.998137 
1.3550676e+3, 1.6440243e+2, -1092752.9, -1355679.5, -38294.414, -0.02996299, 0.19174193, -1087289.0, 241588.5, 0.000023370363, 10.002198, 9.998713 
1.3550621e+3, 1.7440137e+2, -1089806.3, -1293271.0, -37005.766, -0.029053856, 0.2053597, -1083284.8, 147600.81, 0.0000000068048798, 10.001502, 9.998803 
1.3550566e+3, 1.8440007e+2, -1052266.4, -1234925.4, -34482.656, -0.03502971, 0.20104782, -1045973.5, 86923.87, 0.0, 10.001131, 9.998711 
1.355051e+3, 1.9439845e+2, -945569.56, -1127798.4, -32924.367, -0.04633712, 0.16134526, -939803.4, 95110.76, 0.0, 10.00117, 9.9987545 
1.3550454e+3, 2.0439737e+2, -841264.94, -969452.6, -53266.418, -0.045326944, 0.15508197, -822020.1, 114904.76, 0.0, 10.000966, 9.999268 
1.3550395e+3, 2.14397e+2, -811825.25, -895230.0, -52063.656, -0.03002826, 0.18313143, -786821.44, 52106.227, 0.0, 10.000455, 9.999351 
1.3550337e+3, 2.2439657e+2, -772837.5, -822655.7, -51065.496, -0.01394327, 0.20498933, -740929.8, 2.4883914, 0.0, 10.000037, 9.999377 
1.3550279e+3, 2.3439607e+2, -713308.1, -737158.44, -50844.37, 0.00333294, 0.21034293, -673009.2, -30070.105, 0.0, 9.999748, 9.99943 
1.3550217e+3, 2.4439573e+2, -655546.5, -641973.56, -60196.75, 0.008060156, 0.22777297, -588181.94, -43237.914, 0.0, 9.999401, 9.9995775 
1.3550155e+3, 2.543956e+2, -615257.5, -565143.44, -72342.27, -0.0030923805, 0.25066143, -513641.63, -66695.01, 0.0, 9.998976, 9.999638 
1.3550097e+3, 2.643955e+2, -550310.6, -463906.75, -58942.875, 0.004262039, 0.27042925, -434028.78, -85080.21, 0.0, 9.998666, 9.999808 
1.3550043e+3, 2.7439547e+2, -470766.2, -367768.56, -47079.313, 0.03422291, 0.27896488, -349492.1, -98542.59, 0.0, 9.998509, 9.999871 
1.3549986e+3, 2.843952e+2, -423794.4, -321957.66, -39191.6, 0.035480727, 0.27648714, -308621.34, -155668.25, 0.0, 9.998277, 9.999624 
1.3549928e+3, 2.943946e+2, -372126.1, -243275.27, -45108.73, 0.00057571783, 0.25182116, -229053.16, -174093.06, 0.0, 9.997945, 9.999651 
1.354987e+3, 3.0439466e+2, -303434.1, -64962.297, -47798.234, -0.003378558, 0.23987384, -55738.586, -55738.586, 0.0, 9.997567, 10.000725 
1.3549817e+3, 3.143966e+2, -358787.3, -67280.414, -8703.9375, 0.026305504, 0.3521679, -67020.766, -67020.766, 0.0, 9.99708, 10.000944 
1.3650887e+3, 1.2441448e+2, -1361319.3, -1733665.9, -82689.27, -0.15069814, 0.2148649, -1343781.9, 376974.7, 0.0076198755, 10.003275, 9.99829 
1.3650869e+3, 1.3441192e+2, -1266253.3, -1627054.6, 30264.523, 0.11492946, 0.12613106, -1263732.3, 359048.2, 0.004366158, 10.003187, 9.998399 
1.3650799e+3, 1.4441098e+2, -1237982.4, -1597678.3, -7900.1924, -0.13493171, 0.20325822, -1237809.0, 286981.1, 0.0017823466, 10.002855, 9.99808 
1.365075e+3, 1.5440895e+2, -1227120.1, -1547206.1, -14779.8545, -0.07708745, 0.19744717, -1226439.1, 200373.56, 0.0004035849, 10.002278, 9.998032 
1.3650696e+3, 1.6440728e+2, -1133494.8, -1378493.9, -28895.28, -0.04197772, 0.19836256, -1130133.0, 198696.78, 0.000026350568, 10.001933, 9.998684 
1.3650638e+3, 1.7440622e+2, -1038748.3, -1271552.5, -30412.172, -0.036912296, 0.21202852, -1034841.0, 195997.17, 0.000000016360648, 10.001865, 9.998777 
1.365058e+3, 1.8440488e+2, -984340.94, -1193871.6, -22376.861, -0.032914978, 0.20147038, -981977.8, 150872.38, 0.0, 10.001561, 9.998785 
1.3650523e+3, 1.9440317e+2, -968379.4, -1129805.0, -17449.078, -0.031095507, 0.14606461, -966514.75, 68352.31, 0.0, 10.000975, 9.998835 
1.3650462e+3, 2.0440212e+2, -901788.9, -1000782.75, -40718.098, -0.032991637, 0.13865286, -887192.8, 49684.64, 0.0, 10.000561, 9.999248 
1.3650398e+3, 2.1440192e+2, -826906.94, -904961.94, -47182.37, -0.039927054, 0.18506023, -804702.7, 34176.48, 0.0, 10.000364, 9.999326 
1.3650335e+3, 2.2440152e+2, -765741.56, -808038.0, -46950.656, -0.026057828, 0.20786488, -735396.0, 5487.367, 0.0, 10.000041, 9.999475 
1.3650276e+3, 2.3440091e+2, -735367.5, -736685.5, -40060.234, 0.013481931, 0.19118948, -695960.9, -53070.324, 0.0, 9.99955, 9.999528 
1.3650212e+3, 2.4440052e+2, -686179.56, -670297.9, -33024.527, 0.021095766, 0.20385116, -644272.94, -99376.88, 0.0, 9.99925, 9.9994545 
1.3650145e+3, 2.544004e+2, -592535.25, -568709.0, -32425.525, -0.011592592, 0.24281433, -546077.4, -99178.12, 0.0, 9.999197, 9.999504 
1.3650084e+3, 2.6440033e+2, -514635.6, -436715.47, -23170.799, -0.006807282, 0.2683263, -430345.94, -81444.555, 0.0, 9.998872, 9.999894 
1.3650028e+3, 2.7440035e+2, -509542.03, -375086.13, -27135.63, 0.044629995, 0.2716095, -369816.22, -118914.64, 0.0, 9.998198, 9.999969 
1.3649969e+3, 2.8440017e+2, -481507.5, -337603.22, -9641.72, 0.049274955, 0.2696496, -336960.1, -184056.3, 0.0, 9.99783, 9.999731 
1.3649906e+3, 2.943997e+2, -379446.97, -233821.19, 1645.2913, -0.0022551203, 0.24529935, -233802.61, -178893.42, 0.0, 9.997841, 9.999764 
1.3649848e+3, 3.0439934e+2, -294751.5, -83113.125, -9401.965, 0.0005108132, 0.19747996, -82696.27, -82696.27, 0.0, 9.997725, 10.000524 
1.3649791e+3, 3.144016e+2, -312182.6, -52230.945, -269.27835, 0.04202789, 0.36337894, -52230.668, -52230.668, 0.0, 9.997431, 10.000878 
1.3750927e+3, 1.24419786e+2, -1368730.4, -1748980.3, -80496.41, -0.08408347, 0.23037855, -1352391.9, 368313.6, 0.0079810945, 10.003272, 9.998187 
1.3750897e+3, 1.3441688e+2, -1277115.4, -1648411.8, 25617.387, 0.07381323, 0.12442269, -1275356.3, 347376.7, 0.0045821774, 10.003182, 9.998254 
1.375082e+3, 1.44416e+2, -1231149.4, -1583466.8, -30482.637, -0.20351852, 0.20989114, -1228531.5, 296210.3, 0.0018779465, 10.002855, 9.998179 
1.3750772e+3, 1.544143e+2, -1218357.0, -1529873.1, -36493.434, -0.07317969, 0.22231583, -1214139.0, 212621.44, 0.00043006244, 10.002281, 9.99815 
1.3750717e+3, 1.644126e+2, -1135499.6, -1383418.5, -33341.93, -0.023585297, 0.21742418, -1131093.9, 197683.34, 0.000029160963, 10.001935, 9.998651 
1.3750653e+3, 1.744111e+2, -1041762.06, -1278226.0, -33250.047, -0.06544814, 0.19225222, -1037175.6, 193614.86, 0.000000027808229, 10.001865, 9.998733 
1.3750592e+3, 1.8440984e+2, -976418.3, -1177283.6, -44846.637, -0.06133995, 0.18536071, -966860.3, 165941.67, 0.0, 10.00156, 9.9989 
1.3750535e+3, 1.9440885e+2, -959209.1, -1111266.6, -40064.492, -0.003984701, 0.19005774, -949298.7, 85512.65, 0.0, 10.000976, 9.998962 
1.3750473e+3, 2.044079e+2, -908705.8, -1015139.06, -50170.46, 0.008225988, 0.19077548, -888785.0, 48035.715, 0.0, 10.00056, 9.999149 
1.3750403e+3, 2.14407e+2, -835094.44, -921474.4, -54735.36, -0.033225726, 0.17868492, -808561.1, 30268.602, 0.0, 10.000361, 9.999215 
1.3750334e+3, 2.2440638e+2, -753266.9, -781400.3, -65715.07, -0.038211755, 0.1754905, -700129.8, 40705.977, 0.0, 10.000037, 9.99966 
1.375027e+3, 2.3440613e+2, -721132.44, -706873.3, -58353.18, 0.0016456795, 0.1753048, -655215.8, -12377.818, 0.0, 9.999548, 9.999734 
1.3750204e+3, 2.4440587e+2, -683307.0, -663731.3, -36202.965, 0.01896902, 0.18849008, -636016.4, -91175.24, 0.0, 9.999247, 9.999502 
1.3750139e+3, 2.5440562e+2, -590740.75, -563824.3, -33553.06, 0.008184148, 0.20920904, -541131.0, -94285.555, 0.0, 9.999191, 9.999541 
1.3750075e+3, 2.6440537e+2, -520498.97, -448445.38, -46884.555, 0.011689981, 0.21824615, -425344.4, -76494.664, 0.0, 9.998868, 9.999816 
1.3750009e+3, 2.7440515e+2, -516153.4, -388095.06, -50852.645, 0.029255284, 0.20703793, -370357.94, -119504.45, 0.0, 9.998194, 9.999883 
1.3749945e+3, 2.8440547e+2, -460484.6, -292680.22, -9631.863, 0.029282168, 0.24234018, -292129.16, -139277.78, 0.0, 9.997825, 10.000042 
1.3749887e+3, 2.9440632e+2, -357404.03, -184782.33, 4777.498, 0.014460875, 0.3176313, -184650.2, -129807.62, 0.0, 9.997827, 10.000109 
1.3749827e+3, 3.0440545e+2, -332795.3, -161419.31, -18116.064, 0.029622357, 0.22545603, -159525.2, -159525.2, 0.0, 9.997719, 9.999989 
1.3749763e+3, 3.1440598e+2, -336161.78, -100864.26, -8077.8354, 0.022505417, 0.2765978, -100587.266, -100587.266, 0.0, 9.997424, 10.000547 
1.3850962e+3, 1.2442497e+2, -1370607.4, -1751877.1, -77138.88, -0.06523854, 0.23973912, -1355591.9, 365063.3, 0.008351057, 10.003272, 9.998166 
1.3850927e+3, 1.3442211e+2, -1295995.1, -1665732.4, 25374.047, 0.06852044, 0.14449678, -1294261.9, 328421.2, 0.004803759, 10.00309, 9.998179 
1.3850848e+3, 1.4442132e+2, -1221867.0, -1560015.1, -35468.2, -0.20772788, 0.23588727, -1218186.9, 306503.88, 0.0019753822, 10.002838, 9.998348 
1.3850798e+3, 1.5441953e+2, -1170212.3, -1486634.1, -39135.637, -0.06682332, 0.22183257, -1165443.8, 261265.22, 0.00045665295, 10.002525, 9.998329 
1.3850738e+3, 1.6441782e+2, -1104033.9, -1365137.9, -24233.06, -0.016186176, 0.20469688, -1101803.9, 226921.58, 0.00003186285, 10.002137, 9.998678 
1.385067e+3, 1.744164e+2, -1067729.6, -1288648.8, -19642.48, -0.06818562, 0.18509203, -1065996.8, 164741.75, 0.000000039188958, 10.001679, 9.998751 
1.3850605e+3, 1.8441525e+2, -1007712.8, -1182052.0, -34762.418, -0.06867738, 0.1865069, -1001036.94, 131711.84, 0.0, 10.001302, 9.998991 
1.3850544e+3, 1.9441451e+2, -945701.6, -1093946.9, -33649.484, -0.009965696, 0.20437172, -938421.25, 96334.38, 0.0, 10.001023, 9.999058 
1.3850479e+3, 2.0441358e+2, -891726.9, -1007563.06, -36950.742, 0.009441382, 0.20338891, -880943.7, 55820.81, 0.0, 10.00068, 9.999143 
1.3850406e+3, 2.1441245e+2, -851295.8, -931207.8, -35032.773, -0.019059319, 0.16939412, -838112.56, 663.245, 0.0, 10.000258, 9.999197 
1.3850336e+3, 2.2441174e+2, -766486.94, -791764.5, -49446.01, -0.02973616, 0.16078506, -728089.94, 12692.796, 0.0, 9.999964, 9.999623 
1.3850264e+3, 2.3441161e+2, -681757.25, -691181.8, -61558.563, -0.019082224, 0.17577358, -624730.9, 18053.053, 0.0, 9.999835, 9.999702 
1.3850197e+3, 2.4441141e+2, -645167.8, -625166.44, -47793.156, -0.00061822444, 0.18864477, -586338.9, -41552.766, 0.0, 9.999426, 9.999679 
1.385013e+3, 2.5441116e+2, -655316.4, -573835.4, -34969.527, 0.027422594, 0.18968472, -560885.5, -114096.125, 0.0, 9.998659, 9.999727 
1.3850062e+3, 2.644109e+2, -607028.2, -500945.2, -36385.18, 0.03631403, 0.19273914, -489664.97, -140871.28, 0.0, 9.9983225, 9.999717 
1.384999e+3, 2.7441067e+2, -474949.2, -381130.47, -43974.293, 0.018379545, 0.19219425, -363741.88, -112943.2, 0.0, 9.998532, 9.999765 
1.3849925e+3, 2.8441113e+2, -377863.28, -239417.95, -14146.7, 0.010338028, 0.24558051, -237987.19, -85191.85, 0.0, 9.998337, 10.00016 
1.3849865e+3, 2.944124e+2, -375583.5, -177885.64, -18197.297, 0.022441493, 0.34553865, -176224.61, -121442.2, 0.0, 9.997638, 10.000245 
1.3849805e+3, 3.0441123e+2, -391895.84, -209905.73, -22955.186, 0.051459882, 0.22533223, -207054.95, -207054.95, 0.0, 9.997403, 9.999807 
1.384974e+3, 3.144113e+2, -282670.8, -58247.957, 16354.996, 0.022965856, 0.25067532, -57062.34, -57062.34, 0.0, 9.997723, 10.000695 
1.3950992e+3, 1.2443011e+2, -1365438.6, -1743027.9, -78096.836, -0.0957926, 0.24109687, -1349923.4, 370681.94, 0.008733579, 10.003279, 9.998225 
1.395096e+3, 1.3442762e+2, -1297552.9, -1667299.4, 18584.004, 0.094457276, 0.18471916, -1296621.1, 326009.06, 0.005033633, 10.003083, 9.998172 
1.3950881e+3, 1.4442697e+2, -1207416.4, -1528629.5, -48086.777, -0.15599078, 0.27850652, -1200372.0, 324264.5, 0.002076125, 10.002831, 9.998568 
1.3950823e+3, 1.5442473e+2, -1154367.5, -1453577.9, -51177.72, -0.059259515, 0.1977201, -1145856.0, 280801.56, 0.00048381835, 10.002524, 9.998557 
1.3950759e+3, 1.6442302e+2, -1097427.1, -1352510.9, -42575.31, -0.021241626, 0.16294563, -1090508.6, 238164.98, 0.000034571214, 10.002141, 9.998764 
1.3950689e+3, 1.7442213e+2, -1061418.1, -1276569.5, -37144.473, -0.048170302, 0.1897853, -1055185.9, 175495.8, 0.00000005013657, 10.001682, 9.998833 
1.395062e+3, 1.844212e+2, -1003321.75, -1173003.6, -46652.52, -0.059256155, 0.2040372, -991341.0, 141349.17, 0.0, 10.001301, 9.999054 
1.395055e+3, 1.9442019e+2, -941280.75, -1085290.3, -44368.69, -0.050315034, 0.18978068, -928708.5, 105990.86, 0.0, 10.001024, 9.999117 
1.395048e+3, 2.0441921e+2, -886620.94, -996821.3, -53488.656, -0.03149763, 0.17658366, -864928.75, 71779.69, 0.0, 10.000678, 9.999218 
1.3950412e+3, 2.144183e+2, -845986.44, -920409.7, -51061.496, 0.0009819476, 0.15735362, -820015.94, 18701.182, 0.0, 10.000258, 9.999272 
1.3950337e+3, 2.2441766e+2, -784885.2, -830055.9, -55806.53, -0.0025435756, 0.16355687, -747267.0, -6543.067, 0.0, 9.999963, 9.999362 
1.395026e+3, 2.344174e+2, -701935.06, -732531.6, -66154.22, -0.051433712, 0.19355732, -649333.25, -6605.2363, 0.0, 9.999832, 9.99942 
1.3950187e+3, 2.4441718e+2, -624030.3, -580751.94, -75567.88, -0.040887184, 0.20480213, -523786.03, 20944.543, 0.0, 9.999422, 9.999987 
1.3950118e+3, 2.5441703e+2, -631471.56, -523983.16, -63124.383, 0.043539762, 0.1828854, -494823.03, -48092.004, 0.0, 9.998656, 10.000072 
1.3950048e+3, 2.6441693e+2, -616403.8, -520274.8, -29823.58, 0.064611524, 0.19044115, -511773.94, -163040.75, 0.0, 9.998321, 9.999586 
1.3949974e+3, 2.7441695e+2, -486957.28, -404358.44, -33879.03, 0.0066935257, 0.23104914, -392240.34, -141503.67, 0.0, 9.998524, 9.999611 
1.3949905e+3, 2.844173e+2, -384400.4, -253312.56, -37564.727, -0.012965318, 0.28303033, -243311.03, -90575.67, 0.0, 9.998336, 10.000066 
1.394984e+3, 2.944179e+2, -383369.03, -193882.63, -42371.066, 0.016477598, 0.32492077, -184839.61, -130110.2, 0.0, 9.997636, 10.000138 
1.394978e+3, 3.0441663e+2, -378134.78, -181348.22, -12178.664, 0.060708944, 0.19409016, -180597.38, -180597.38, 0.0, 9.997402, 10.000004 
1.3949718e+3, 3.1441754e+2, -240909.14, 32978.273, 30601.623, 0.03314765, 0.2778479, 36355.76, 36355.76, 0.0, 9.997703, 10.001331 
1.4051026e+3, 1.2443592e+2, -1222204.3, -1673691.9, -34157.85, -0.11852003, 0.22366798, -1219634.6, 500912.75, 0.009133226, 10.004273, 9.998224 
1.4050992e+3, 1.344333e+2, -1305080.6, -1679298.9, 49809.65, 0.09484139, 0.1633967, -1298564.3, 324009.7, 0.005275387, 10.003069, 9.998096 
1.405091e+3, 1.4443278e+2, -1265362.0, -1543901.8, -2174.213, -0.13396013, 0.26898006, -1265345.1, 259234.03, 0.0021822979, 10.002379, 9.998679 
1.4050849e+3, 1.5443064e+2, -1168056.3, -1446342.8, -12254.609, -0.04964786, 0.18760471, -1167517.6, 259080.97, 0.00051218417, 10.002372, 9.998679 
1.4050782e+3, 1.6442898e+2, -1093340.0, -1349841.3, -20451.645, -0.018427555, 0.15207392, -1091719.6, 236894.28, 0.000037386584, 10.002169, 9.998768 
1.4050707e+3, 1.744281e+2, -1054801.1, -1273476.3, -23319.479, -0.04136558, 0.1781094, -1052342.0, 178280.23, 0.00000006103049, 10.00173, 9.998831 
1.4050634e+3, 1.8442714e+2, -990641.6, -1165720.4, -30393.195, -0.054529194, 0.18959437, -985515.56, 147115.52, 0.0, 10.001384, 9.999064 
1.405056e+3, 1.9442609e+2, -920293.44, -1073826.6, -32558.227, -0.05971498, 0.1703697, -913674.5, 120966.125, 0.0, 10.0011635, 9.999127 
1.4050487e+3, 2.0442514e+2, -864969.25, -984513.94, -52558.703, -0.04753002, 0.15941113, -845147.94, 91501.39, 0.0, 10.00082, 9.999233 
1.4050412e+3, 2.1442436e+2, -834274.75, -912377.9, -55489.4, -0.011796856, 0.15091778, -805472.8, 33183.875, 0.0, 10.000331, 9.999291 
1.4050336e+3, 2.2442375e+2, -796527.3, -839588.6, -46769.277, -0.0072811414, 0.16058375, -766570.75, -25907.45, 0.0, 9.999902, 9.999325 
1.4050257e+3, 2.3442338e+2, -747135.3, -759444.8, -39761.125, -0.044008333, 0.18543759, -713055.4, -70386.68, 0.0, 9.999543, 9.999374 
1.4050181e+3, 2.4442312e+2, -652006.4, -608158.7, -61428.164, -0.036346752, 0.20014873, -564859.3, -20187.145, 0.0, 9.9992895, 9.999862 
1.4050107e+3, 2.5442296e+2, -565186.94, -506625.1, -86358.03, 0.0264399, 0.18989705, -444718.94, 1954.2272, 0.0, 9.999174, 9.999942 
1.4050034e+3, 2.6442286e+2, -526466.5, -465637.2, -53370.31, 0.046774365, 0.19782186, -434623.5, -85948.086, 0.0, 9.998891, 9.999685 
1.4049959e+3, 2.7442288e+2, -497696.8, -396037.97, -38405.69, 0.013730331, 0.22708537, -383160.03, -132481.98, 0.0, 9.998395, 9.999728 
1.4049888e+3, 2.8442317e+2, -439102.34, -286586.53, -41391.92, -0.00018248273, 0.2711756, -276077.2, -123400.04, 0.0, 9.997992, 10.000003 
1.4049818e+3, 2.944236e+2, -377776.9, -200236.44, -45891.777, 0.012763128, 0.3065476, -189075.64, -134402.27, 0.0, 9.997712, 10.000057 
1.4049755e+3, 3.044225e+2, -383019.16, -182503.84, -4717.0635, 0.061389327, 0.1948335, -182392.94, -182392.94, 0.0, 9.997363, 10.000014 
1.4049692e+3, 3.1442356e+2, -326708.25, 35666.92, 16942.992, 0.044971034, 0.28994712, 36457.375, 36457.375, 0.0, 9.996923, 10.001726 
1.4151068e+3, 1.24442354e+2, -1230287.8, -1685761.3, -77400.336, -0.14042619, 0.18336695, -1217494.3, 502987.1, 0.009556688, 10.004252, 9.998152 
1.415102e+3, 1.344392e+2, -1316035.9, -1702108.6, 3895.62, 0.06991437, 0.084909916, -1315996.6, 306516.9, 0.0055341963, 10.00307, 9.997938 
1.4150932e+3, 1.4443883e+2, -1261527.3, -1540100.1, -6631.116, -0.14238411, 0.21241552, -1261369.5, 263148.16, 0.0022969088, 10.002396, 9.998699 
1.4150873e+3, 1.5443732e+2, -1166004.5, -1442577.3, -12488.72, -0.042019527, 0.19124494, -1165441.8, 261089.81, 0.0005425403, 10.002373, 9.998706 
1.4150803e+3, 1.6443579e+2, -1100283.9, -1363633.6, -37527.066, -0.013017555, 0.1709443, -1095040.8, 233505.23, 0.000040406845, 10.002164, 9.998675 
1.4150724e+3, 1.7443432e+2, -1061135.5, -1287794.8, -40181.04, -0.04881119, 0.14995559, -1054223.3, 176336.53, 0.00000007226826, 10.001734, 9.998731 
1.4150646e+3, 1.8443312e+2, -993467.06, -1172522.1, -40188.65, -0.05745325, 0.14393507, -984860.44, 147710.58, 0.0, 10.001387, 9.999017 
1.4150575e+3, 1.9443223e+2, -923234.44, -1080663.5, -41012.46, -0.040379465, 0.1467172, -913190.9, 121388.3, 0.0, 10.001165, 9.999081 
1.4150496e+3, 2.0443141e+2, -867934.44, -990732.44, -71562.15, -0.04097632, 0.15179496, -835041.44, 101545.49, 0.0, 10.000819, 9.999192 
1.4150411e+3, 2.1443066e+2, -837151.0, -918396.6, -74036.87, -0.05942683, 0.15021585, -793324.6, 45269.586, 0.0, 10.000329, 9.999251 
1.4150332e+3, 2.2443002e+2, -784402.0, -813877.56, -61177.152, -0.047255985, 0.15192848, -736212.5, 4388.1636, 0.0, 9.999898, 9.999504 
1.4150257e+3, 2.344296e+2, -733465.4, -731491.9, -52892.08, 0.0018333748, 0.15117447, -679577.4, -36971.605, 0.0, 9.999544, 9.999567 
1.4150178e+3, 2.4442926e+2, -691167.94, -690078.06, -66283.914, 0.011221292, 0.17387615, -624336.8, -79726.19, 0.0, 9.99929, 9.9993 
1.4150093e+3, 2.54429e+2, -608394.3, -595547.25, -89672.47, -0.027055098, 0.21324012, -512068.53, -65453.145, 0.0, 9.999169, 9.999334 
1.4150015e+3, 2.6442868e+2, -504386.78, -419864.47, -70491.77, -0.021141963, 0.21760523, -379936.25, -31316.26, 0.0, 9.998889, 10.000002 
1.4149946e+3, 2.7442837e+2, -472009.47, -342591.34, -55580.36, 0.035974864, 0.17774114, -321998.38, -71375.2, 0.0, 9.998393, 10.000097 
1.4149871e+3, 2.8442872e+2, -439738.66, -287737.22, -51709.043, 0.04521155, 0.20737621, -271814.4, -119193.43, 0.0, 9.99799, 9.999996 
1.4149792e+3, 2.9442966e+2, -381607.63, -206320.86, -53538.438, 0.005145634, 0.29549214, -191262.13, -136648.48, 0.0, 9.997703, 10.00002 
1.4149727e+3, 3.0442894e+2, -397617.9, -213267.95, -19074.496, 0.04686996, 0.23449914, -211315.03, -211315.03, 0.0, 9.997363, 9.999804 
1.4149661e+3, 3.1442925e+2, -321451.3, 47871.56, 63.174103, 0.051855154, 0.27749607, 47871.57, 47871.57, 0.0, 9.996917, 10.001813 
1.4251105e+3, 1.2444919e+2, -1390732.5, -1754441.6, -75854.48, -0.12132066, 0.17573805, -1375546.5, 344867.3, 0.010011913, 10.003101, 9.998233 
1.4251052e+3, 1.3444597e+2, -1229848.1, -1660388.1, 13869.594, 0.05432874, 0.06929248, -1229401.9, 393044.63, 0.0058154534, 10.003667, 9.997936 
1.4250961e+3, 1.4444566e+2, -1105212.3, -1472476.6, -1489.0461, -0.15636581, 0.20816167, -1105206.1, 419243.66, 0.002423067, 10.003509, 9.998627 
1.4250897e+3, 1.5444414e+2, -1153421.5, -1445545.1, -17253.637, -0.044673186, 0.1916943, -1152406.0, 274058.44, 0.00057589856, 10.0025, 9.998624 
1.4250824e+3, 1.6444257e+2, -1128741.0, -1373022.4, -29312.934, -0.012497732, 0.1707532, -1125272.9, 203206.17, 0.00004378684, 10.001951, 9.998713 
1.4250742e+3, 1.7444105e+2, -1021908.25, -1263596.9, -21941.242, -0.054371662, 0.14076969, -1019932.5, 210560.14, 0.00000008454083, 10.001982, 9.9987755 
1.4250663e+3, 1.8443978e+2, -956771.2, -1166035.0, -26962.742, -0.060624544, 0.12980348, -953353.0, 179151.5, 0.0, 10.00169, 9.998914 
1.4250585e+3, 1.9443882e+2, -953017.4, -1106802.5, -33833.633, -0.03132129, 0.13424511, -945902.94, 88611.03, 0.0, 10.001015, 9.998973 
1.4250503e+3, 2.0443793e+2, -895355.44, -1003245.3, -57822.28, -0.03301812, 0.14005509, -870221.5, 66300.93, 0.0, 10.000629, 9.999197 
1.4250416e+3, 2.1443719e+2, -796565.2, -897858.9, -57219.82, -0.071057804, 0.13862866, -770797.25, 67732.21, 0.0, 10.000605, 9.99926 
1.425033e+3, 2.2443658e+2, -729194.56, -793293.1, -58458.66, -0.059883527, 0.14467323, -694576.25, 45959.58, 0.0, 10.000302, 9.999451 
1.4250255e+3, 2.3443617e+2, -720345.25, -731167.7, -70839.03, 0.011217784, 0.15198053, -654711.06, -12170.123, 0.0, 9.9996605, 9.999513 
1.4250173e+3, 2.4443576e+2, -699800.94, -695716.25, -61714.7, 0.023390368, 0.17169343, -636010.1, -91463.58, 0.0, 9.999238, 9.999286 
1.4250083e+3, 2.5443536e+2, -620758.1, -602317.1, -40367.98, -0.036973074, 0.19623224, -570130.0, -123577.39, 0.0, 9.999088, 9.999326 
1.4250001e+3, 2.6443502e+2, -532035.7, -433698.6, -23838.588, -0.033918135, 0.2009274, -428224.44, -79667.32, 0.0, 9.998702, 9.999996 
1.424993e+3, 2.7443486e+2, -524552.44, -368787.1, -39352.19, 0.044206828, 0.17717975, -359409.78, -108850.984, 0.0, 9.998034, 10.000092 
1.4249851e+3, 2.8443518e+2, -482255.16, -307557.72, -32553.936, 0.054346174, 0.20353109, -301688.66, -149131.64, 0.0, 9.997694, 10.000002 
1.4249767e+3, 2.9443592e+2, -373011.3, -201606.16, -33345.75, -0.008626678, 0.26896062, -195347.48, -140795.63, 0.0, 9.997761, 10.000024 
1.42497e+3, 3.0443552e+2, -387215.2, -222066.88, -8868.918, 0.03329884, 0.24824303, -221591.95, -221591.95, 0.0, 9.997495, 9.99968 
1.4249632e+3, 3.1443554e+2, -329391.3, 51796.195, 12130.77, 0.055125866, 0.27351335, 52181.848, 52181.848, 0.0, 9.996828, 10.001883 
1.4351143e+3, 1.2445649e+2, -1373067.3, -1719326.4, -55284.348, -0.06435057, 0.1970986, -1364454.8, 355889.78, 0.010506617, 10.00311, 9.998471 
1.4351088e+3, 1.3445365e+2, -1220793.9, -1638108.8, 34898.844, 0.04177223, 0.1146082, -1217895.5, 404476.78, 0.006123269, 10.003654, 9.9980955 
1.4350994e+3, 1.4445335e+2, -1119656.8, -1500329.4, -38038.613, -0.1828712, 0.25402784, -1115893.0, 408482.25, 0.002563054, 10.003497, 9.998441 
1.4350921e+3, 1.5445115e+2, -1166405.9, -1474179.6, -55359.336, -0.05905687, 0.1884584, -1156751.3, 269645.38, 0.0006133788, 10.002505, 9.9984255 
1.4350842e+3, 1.6444941e+2, -1116083.9, -1349300.8, -31549.121, -0.018711768, 0.15357429, -1111891.4, 216521.03, 0.000047750204, 10.001962, 9.998872 
1.435076e+3, 1.7444836e+2, -1009420.1, -1237835.9, -21043.203, -0.060859084, 0.1506172, -1007497.6, 222922.86, 0.00000010052836, 10.001982, 9.998953 
1.4350678e+3, 1.8444714e+2, -968575.7, -1189972.6, -52354.883, -0.06744278, 0.14681768, -956819.3, 175611.86, 0.0, 10.001685, 9.998753 
1.4350596e+3, 1.944458e+2, -964970.1, -1132732.5, -59407.12, -0.03480577, 0.13167922, -946063.9, 88380.98, 0.0, 10.001017, 9.998795 
1.4350511e+3, 2.0444472e+2, -892235.1, -996987.8, -60775.92, -0.027379103, 0.12385501, -864380.56, 72074.945, 0.0, 10.000629, 9.99924 
1.4350423e+3, 2.1444397e+2, -792574.9, -889981.9, -57923.883, -0.048563413, 0.11624411, -765600.06, 72862.27, 0.0, 10.000605, 9.999314 
1.4350335e+3, 2.2444342e+2, -749630.0, -835830.7, -82014.125, -0.046808966, 0.13835286, -700080.7, 40387.906, 0.0, 10.000301, 9.99916 
1.4350247e+3, 2.3444313e+2, -742552.44, -777128.8, -94602.12, -0.017948836, 0.1886049, -663671.8, -21197.797, 0.0, 9.999658, 9.999199 
1.4350161e+3, 2.4444267e+2, -662728.9, -618295.7, -68311.25, -0.0033868288, 0.1949151, -568679.1, -24199.592, 0.0, 9.999234, 9.99982 
1.4350078e+3, 2.5444204e+2, -580068.94, -517598.28, -45031.926, -0.005514446, 0.13765167, -494029.25, -47544.438, 0.0, 9.999085, 9.999909 
1.4349993e+3, 2.644419e+2, -554104.25, -479695.9, -47256.715, 0.0069367043, 0.14631085, -456755.7, -108268.85, 0.0, 9.998701, 9.999682 
1.4349909e+3, 2.7444243e+2, -551105.44, -423091.63, -62445.816, 0.0352273, 0.22891352, -397676.13, -147191.77, 0.0, 9.998028, 9.9997225 
1.4349826e+3, 2.8444263e+2, -483119.06, -309324.13, -29987.053, 0.022557573, 0.26329672, -304295.56, -151810.9, 0.0, 9.997692, 9.999991 
1.4349744e+3, 2.9444233e+2, -374107.16, -203030.02, -28566.805, -0.034040738, 0.22355743, -198385.94, -143897.42, 0.0, 9.997755, 10.000017 
1.4349672e+3, 3.0444223e+2, -387026.94, -221256.38, -32111.227, 0.01670427, 0.23297356, -215253.52, -215253.52, 0.0, 9.997492, 9.999687 
1.4349598e+3, 3.1444257e+2, -325910.84, 60283.92, -13139.523, 0.049363412, 0.28805524, 60730.45, 60730.45, 0.0, 9.996822, 10.001945 
1.4451179e+3, 1.2446435e+2, -1231856.0, -1636748.6, -29782.773, -0.05840862, 0.23355508, -1229677.0, 490592.4, 0.011047908, 10.004033, 9.998596 
1.4451122e+3, 1.3446139e+2, -1317939.8, -1679765.3, 49696.83, 0.049329374, 0.13352285, -1311238.0, 311059.47, 0.00646129, 10.002962, 9.998142 
1.4451025e+3, 1.44461e+2, -1254432.8, -1567003.3, -19914.84, -0.16832763, 0.26178578, -1253169.1, 271131.6, 0.0027186894, 10.002579, 9.998425 
1.4450948e+3, 1.5445863e+2, -1087741.3, -1438116.5, -24774.953, -0.06981456, 0.18339673, -1085998.0, 340325.1, 0.0006559602, 10.003057, 9.998405 
1.4450866e+3, 1.6445681e+2, -994244.8, -1300941.6, -11579.577, -0.034984406, 0.14645965, -993808.25, 334531.28, 0.000052490832, 10.002847, 9.998775 
1.445078e+3, 1.7445575e+2, -1041825.9, -1265005.4, -24055.334, -0.056829304, 0.15368502, -1039262.5, 191085.31, 0.00000012546444, 10.001811, 9.998848 
1.4450695e+3, 1.8445453e+2, -1029818.0, -1214109.1, -51860.344, -0.058012333, 0.1504476, -1016226.6, 116132.16, 0.0, 10.001243, 9.998799 
1.4450607e+3, 1.9445315e+2, -926801.56, -1108359.6, -42811.13, -0.0422008, 0.12609017, -917213.2, 117159.36, 0.0, 10.001255, 9.998846 
1.4450519e+3, 2.0445207e+2, -843500.7, -978245.2, -37519.06, -0.033137985, 0.11869112, -833758.06, 102625.055, 0.0, 10.000985, 9.999197 
1.445043e+3, 2.144514e+2, -830304.9, -913347.8, -43473.184, -0.029168012, 0.123273626, -811710.2, 26679.36, 0.0, 10.00037, 9.999266 
1.445034e+3, 2.2445081e+2, -800427.0, -861040.1, -64279.953, -0.028542196, 0.1448659, -759667.44, -19271.15, 0.0, 9.999957, 9.999151 
1.4450243e+3, 2.3445036e+2, -723796.5, -769017.25, -55224.67, -0.03494483, 0.17915416, -686732.8, -44329.754, 0.0, 9.999791, 9.99919 
1.4450152e+3, 2.444499e+2, -627878.5, -590307.9, -30446.234, -0.026065588, 0.18214919, -573318.0, -28909.756, 0.0, 9.999425, 9.999921 
1.4450067e+3, 2.544495e+2, -612303.6, -521440.34, -44729.72, 0.0025723844, 0.13626304, -503116.34, -56705.15, 0.0, 9.998813, 10.000015 
1.444998e+3, 2.6444942e+2, -594251.25, -510416.97, -57094.285, 0.019917237, 0.15177883, -481504.72, -133092.23, 0.0, 9.998473, 9.999581 
1.444989e+3, 2.7444988e+2, -494897.8, -408023.6, -54123.047, 0.021446267, 0.23531556, -382062.66, -131651.45, 0.0, 9.9984665, 9.999614 
1.4449802e+3, 2.8444988e+2, -419720.72, -279125.34, -9469.986, 0.0038693075, 0.25817552, -278490.34, -126077.09, 0.0, 9.99813, 9.999988 
1.444972e+3, 2.9444933e+2, -427684.47, -229687.5, -9726.981, -0.030335754, 0.19437525, -229210.78, -174791.56, 0.0, 9.99739, 10.0000105 
1.4449646e+3, 3.0444968e+2, -471960.84, -255027.72, -13491.413, 0.026170444, 0.24582441, -254191.89, -254191.89, 0.0, 9.99688, 9.999749 
1.4449565e+3, 3.144498e+2, -350535.44, 46550.906, 2649.0579, 0.04369875, 0.27036425, 46568.58, 46568.58, 0.0, 9.996663, 10.001925 
1.4551215e+3, 1.24472834e+2, -1232108.0, -1637539.6, -72281.17, -0.10825063, 0.28351837, -1219607.0, 500580.84, 0.011640397, 10.004033, 9.998592 
1.4551154e+3, 1.3446926e+2, -1322063.0, -1691136.6, 9806.395, 0.075544916, 0.12668628, -1321802.6, 300418.8, 0.0068325973, 10.002974, 9.998059 
1.4551055e+3, 1.4446868e+2, -1242617.5, -1545131.6, -6975.665, -0.11509548, 0.23495816, -1242456.8, 281768.78, 0.0028915813, 10.00259, 9.9985695 
1.4550976e+3, 1.5446666e+2, -1077480.5, -1415268.1, -6873.1196, -0.081259444, 0.17717639, -1077340.8, 348902.8, 0.00070428615, 10.003051, 9.998565 
1.455089e+3, 1.6446486e+2, -1020445.6, -1354799.4, -48942.055, -0.06669972, 0.15001412, -1013428.9, 314831.13, 0.000058062662, 10.002842, 9.998408 
1.4550799e+3, 1.7446333e+2, -1068054.9, -1321508.0, -62886.652, -0.045061313, 0.14895357, -1053309.4, 176964.98, 0.00000016567238, 10.001818, 9.998458 
1.455071e+3, 1.8446197e+2, -1012415.2, -1179280.0, -54337.203, -0.03660237, 0.1411592, -996281.06, 136005.77, 0.0, 10.001247, 9.999037 
1.4550617e+3, 1.9446085e+2, -907451.56, -1068886.9, -42181.73, -0.05486718, 0.11764701, -897094.3, 137202.42, 0.0, 10.001257, 9.999117 
1.4550526e+3, 2.0446e+2, -853316.4, -998563.8, -60543.297, -0.05144002, 0.12426159, -831390.1, 104914.96, 0.0, 10.000983, 9.99906 
1.4550436e+3, 2.1445948e+2, -841247.5, -936482.56, -66555.17, -0.015895342, 0.15875533, -807029.7, 31281.408, 0.0, 10.00037, 9.999108 
1.455034e+3, 2.2445875e+2, -782132.94, -822444.9, -72011.984, -0.009482676, 0.16373956, -727509.3, 12809.443, 0.0, 9.999953, 9.999419 
1.455024e+3, 2.3445785e+2, -702874.25, -725883.2, -60846.49, -0.04115004, 0.12354436, -652454.2, -10126.184, 0.0, 9.999791, 9.999487 
1.4550143e+3, 2.4445745e+2, -651444.3, -639614.5, -52493.535, -0.045331284, 0.13286908, -592703.7, -48370.938, 0.0, 9.999425, 9.999583 
1.4550054e+3, 2.544577e+2, -639290.5, -576897.9, -66578.52, -0.015131215, 0.19336237, -534569.3, -88237.78, 0.0, 9.998809, 9.999638 
1.4549962e+3, 2.644576e+2, -587665.94, -495740.16, -57720.84, 0.0016023484, 0.21891166, -467917.66, -119583.84, 0.0, 9.998468, 9.999684 
1.4549872e+3, 2.7445713e+2, -486062.22, -388712.3, -52642.81, -0.00080062123, 0.19490707, -365689.88, -115350.3, 0.0, 9.998462, 9.999749 
1.4549783e+3, 2.844569e+2, -417750.75, -275159.22, -34976.727, -0.003896358, 0.18599564, -267041.78, -114698.78, 0.0, 9.998129, 10.000016 
1.4549698e+3, 2.9445696e+2, -427618.53, -229013.33, -35396.043, -0.00039616713, 0.18354416, -222893.52, -168549.98, 0.0, 9.997386, 10.000018 
1.4549617e+3, 3.044579e+2, -465623.7, -241724.44, -21016.895, 0.057269186, 0.28991434, -239768.72, -239768.72, 0.0, 9.996878, 9.999842 
1.4549531e+3, 3.1445736e+2, -363925.22, 20703.736, -6457.9365, 0.030235125, 0.23605977, 20812.135, 20812.135, 0.0, 9.996654, 10.001753 
1.4651255e+3, 1.24481454e+2, -1241764.5, -1660188.0, -28428.871, -0.11062049, 0.26310986, -1239841.9, 480260.6, 0.012282834, 10.004047, 9.998428 
1.4651187e+3, 1.3447781e+2, -1176690.3, -1647017.3, 43819.242, 0.05216572, 0.12369932, -1172642.5, 449494.6, 0.007237046, 10.004095, 9.99782 
1.4651087e+3, 1.444771e+2, -1094820.8, -1478114.6, 21921.9, -0.12026496, 0.23356213, -1093571.0, 430571.78, 0.0030819494, 10.003632, 9.998526 
1.4651006e+3, 1.5447506e+2, -1150500.6, -1453968.0, 6763.4854, -0.060694374, 0.17660181, -1150350.0, 275810.9, 0.0007585455, 10.002564, 9.998533 
1.4650919e+3, 1.644732e+2, -1139687.4, -1410616.1, -33854.516, -0.039658695, 0.14403677, -1135521.1, 192656.69, 0.00006440502, 10.002017, 9.998422 
1.465082e+3, 1.7447153e+2, -1023565.0, -1298051.0, -19682.617, -0.035106614, 0.12835525, -1022160.8, 208032.22, 0.00000022299002, 10.002118, 9.998472 
1.4650725e+3, 1.8447015e+2, -934818.7, -1153346.8, -4078.0671, -0.033986796, 0.12259559, -934742.6, 197463.31, 0.0, 10.001833, 9.998931 
1.465063e+3, 1.9446917e+2, -941416.9, -1097817.8, -21012.082, -0.04910634, 0.12282465, -938643.1, 95572.19, 0.0, 10.0010805, 9.999002 
1.4650534e+3, 2.0446831e+2, -914995.25, -1025480.1, -50329.51, -0.047562517, 0.134714, -895506.25, 40717.53, 0.0, 10.000548, 9.9990835 
1.4650439e+3, 2.1446763e+2, -851686.3, -938334.8, -43724.914, -0.021893265, 0.15205033, -833456.9, 4773.888, 0.0, 10.000285, 9.999135 
1.4650339e+3, 2.2446688e+2, -771943.56, -817529.94, -42739.023, -0.016038524, 0.15184104, -746299.6, -6061.0854, 0.0, 10.000023, 9.999418 
1.4650239e+3, 2.3446606e+2, -707937.9, -728369.6, -55019.22, -0.03680402, 0.1198376, -662194.1, -19946.97, 0.0, 9.999758, 9.999486 
1.4650139e+3, 2.4446568e+2, -660504.06, -661025.2, -62273.06, -0.03870571, 0.13864195, -598491.0, -54238.92, 0.0, 9.999437, 9.99943 
1.4650042e+3, 2.544659e+2, -616525.6, -583944.6, -61919.844, -0.017137313, 0.21115954, -536208.2, -89956.086, 0.0, 9.999044, 9.999475 
1.4649947e+3, 2.644657e+2, -561994.4, -472201.9, -35034.45, -0.0045243385, 0.23271516, -460150.06, -111894.91, 0.0, 9.998597, 9.9997835 
1.4649855e+3, 2.7446508e+2, -533100.9, -398922.3, -32814.85, -0.004997903, 0.18300256, -391327.0, -141065.66, 0.0, 9.998085, 9.99986 
1.4649762e+3, 2.8446484e+2, -486634.22, -308666.63, -26431.672, -0.0021864364, 0.16734247, -304823.97, -152559.42, 0.0, 9.997657, 10.000013 
1.4649671e+3, 2.9446512e+2, -435008.56, -233667.53, -31164.732, 0.0121923415, 0.1861748, -228954.02, -174690.4, 0.0, 9.997341, 10.000007 
1.4649586e+3, 3.044664e+2, -441844.38, -198301.81, -4518.03, 0.06299085, 0.31336114, -198218.03, -198218.03, 0.0, 9.996903, 10.000126 
1.4649494e+3, 3.1446555e+2, -415736.3, -8939.381, 19024.875, 0.018240001, 0.19888239, -8051.573, -8051.573, 0.0, 9.996319, 10.001708 
1.47513e+3, 1.244903e+2, -1263607.4, -1704582.3, -31226.861, -0.06734207, 0.17936215, -1261407.0, 458605.16, 0.012969413, 10.004044, 9.998123 
1.475122e+3, 1.3448714e+2, -1203364.6, -1701754.9, 45175.63, -0.024238963, 0.12465899, -1199302.9, 422741.28, 0.0076708114, 10.004092, 9.997446 
1.4751117e+3, 1.4448632e+2, -1111236.0, -1513622.5, -17320.105, -0.1887585, 0.25737113, -1110491.9, 413560.22, 0.0032881629, 10.003636, 9.998281 
1.4751038e+3, 1.5448388e+2, -1165529.0, -1486955.5, -33334.594, -0.010624749, 0.18079008, -1162108.4, 263966.53, 0.00081847684, 10.002571, 9.998304 
1.4750946e+3, 1.644819e+2, -1112626.3, -1356479.5, -34099.83, 0.041690607, 0.12968251, -1107947.6, 220144.75, 0.000071419374, 10.002025, 9.99879 
1.4750843e+3, 1.7448041e+2, -994845.6, -1239763.1, -16385.348, -0.029354524, 0.09270194, -993754.25, 236349.5, 0.0000002932695, 10.002123, 9.998871 
1.4750741e+3, 1.844791e+2, -965767.75, -1218491.5, -31980.697, -0.053186394, 0.09532273, -961783.6, 170332.25, 0.0, 10.001835, 9.998484 
1.4750643e+3, 1.9447808e+2, -975102.1, -1169495.8, -49488.934, -0.02793584, 0.14054072, -963228.44, 70899.73, 0.0, 10.001085, 9.998508 
1.4750542e+3, 2.0447701e+2, -902894.6, -1000552.2, -62042.668, -0.025815863, 0.14924544, -872770.6, 63368.57, 0.0, 10.000548, 9.999255 
1.4750439e+3, 2.144759e+2, -836819.56, -908063.9, -53448.38, -0.04848381, 0.10386418, -808210.4, 29937.852, 0.0, 10.000287, 9.999343 
1.4750338e+3, 2.2447519e+2, -791561.06, -858323.06, -53355.39, -0.04891422, 0.109529205, -762004.9, -21849.299, 0.0, 10.000022, 9.99914 
1.4750238e+3, 2.3447497e+2, -729542.8, -773286.8, -64394.152, -0.024243377, 0.16798, -683407.56, -41247.05, 0.0, 9.999757, 9.999178 
1.4750136e+3, 2.4447457e+2, -659279.3, -657707.94, -76750.56, -0.0095165195, 0.1990682, -581739.06, -37572.637, 0.0, 9.999433, 9.9994545 
1.4750034e+3, 2.54474e+2, -613665.8, -577225.0, -75555.805, -0.006250284, 0.18917741, -517723.7, -71550.766, 0.0, 9.999041, 9.999523 
1.4749934e+3, 2.6447374e+2, -555492.56, -459010.13, -53137.598, -0.00023746572, 0.19276585, -435482.13, -87305.625, 0.0, 9.998597, 9.999875 
1.4749837e+3, 2.7447376e+2, -527567.56, -386597.8, -50201.945, 0.0062808823, 0.20094669, -370547.44, -120371.07, 0.0, 9.998079, 9.9999485 
1.474974e+3, 2.8447372e+2, -490866.13, -316284.4, -37776.79, 0.0055727046, 0.2043473, -308460.72, -156282.97, 0.0, 9.997651, 9.999964 
1.4749645e+3, 2.9447377e+2, -440161.3, -242856.44, -40829.86, 0.0028802922, 0.20195279, -234741.0, -180561.27, 0.0, 9.9973345, 9.999948 
1.4749554e+3, 3.044751e+2, -406564.34, -125402.71, -25087.541, 0.040242665, 0.3142688, -123181.74, -123181.74, 0.0, 9.996902, 10.000628 
1.4749457e+3, 3.1447455e+2, -409906.8, 3820.195, -3610.1113, 0.000877148, 0.18234037, 3851.6938, 3851.6938, 0.0, 9.996314, 10.0018 
1.4851339e+3, 1.2449942e+2, -1267553.3, -1699819.3, -65777.266, -0.07095664, 0.16855884, -1257765.6, 462156.8, 0.013699306, 10.003994, 9.9981785 
1.485126e+3, 1.3449645e+2, -1248659.9, -1720210.8, 41237.35, -0.017368682, 0.12774101, -1245080.8, 376871.78, 0.008132345, 10.003765, 9.997478 
1.4851154e+3, 1.444955e+2, -1137922.1, -1539701.9, -21826.18, -0.1678267, 0.25155765, -1136739.9, 387221.97, 0.0035089264, 10.00351, 9.998161 
1.4851065e+3, 1.5449296e+2, -1078896.3, -1457986.6, -31608.02, -0.014022417, 0.17814185, -1076278.9, 349706.94, 0.0008836724, 10.003224, 9.998187 
1.4850968e+3, 1.6449098e+2, -1000299.8, -1299118.8, -24283.615, 0.02814326, 0.13411346, -998339.25, 329664.13, 0.00007901186, 10.002786, 9.998816 
1.4850862e+3, 1.7448965e+2, -984255.25, -1231245.3, -34213.457, -0.03719423, 0.10870333, -979603.5, 250409.83, 0.00000037325287, 10.002181, 9.9989 
1.4850758e+3, 1.8448834e+2, -992193.06, -1236989.1, -60865.58, -0.053942572, 0.1124169, -977894.75, 154130.67, 0.0, 10.001678, 9.998432 
1.4850655e+3, 1.9448717e+2, -947678.44, -1162242.3, -47941.277, -0.021446913, 0.14747809, -937453.9, 96585.3, 0.0, 10.001302, 9.998453 
1.4850551e+3, 2.0448598e+2, -851939.2, -978543.56, -41832.93, -0.018980013, 0.1479357, -839365.44, 96685.805, 0.0, 10.000911, 9.99923 
1.4850442e+3, 2.1448478e+2, -807607.9, -896796.6, -51256.2, -0.050326873, 0.09544831, -784262.2, 53798.887, 0.0, 10.000501, 9.999316 
1.4850336e+3, 2.2448404e+2, -788964.25, -867343.56, -53472.492, -0.04861357, 0.104181446, -761858.06, -21789.371, 0.0, 10.000086, 9.999046 
1.4850235e+3, 2.3448387e+2, -750538.8, -794943.56, -50555.523, -0.009292351, 0.17834723, -717525.2, -75451.84, 0.0, 9.999663, 9.999074 
1.4850132e+3, 2.4448338e+2, -675408.44, -662733.06, -54032.258, 0.0042970376, 0.20550531, -614668.06, -70587.97, 0.0, 9.999312, 9.999477 
1.4850023e+3, 2.5448257e+2, -611631.3, -573189.8, -56192.23, -0.012950889, 0.16678658, -533021.94, -86933.13, 0.0, 9.9990425, 9.999549 
1.4849919e+3, 2.6448232e+2, -551461.7, -458181.0, -46041.43, -0.009819197, 0.17478848, -439284.06, -91192.08, 0.0, 9.9986315, 9.999864 
1.4849818e+3, 2.744828e+2, -531907.9, -390209.44, -52315.676, 0.015031119, 0.22732751, -372987.44, -122899.08, 0.0, 9.998058, 9.999933 
1.4849716e+3, 2.8448284e+2, -497881.56, -308233.06, -31154.691, 0.015112426, 0.23640941, -303246.22, -151157.4, 0.0, 9.997556, 10.000064 
1.4849615e+3, 2.944826e+2, -462226.72, -242117.88, -24153.59, -0.0075469743, 0.19365235, -239498.56, -185405.61, 0.0, 9.997135, 10.000048 
1.484952e+3, 3.0448383e+2, -420177.72, -103937.484, -15668.952, 0.021190561, 0.28020293, -103163.02, -103163.02, 0.0, 9.996691, 10.000877 
1.484942e+3, 3.14484e+2, -432303.5, -19700.275, -19449.885, 0.009066424, 0.19239661, -18785.447, -18785.447, 0.0, 9.996217, 10.001684 
1.4951375e+3, 1.2450891e+2, -1241427.4, -1646357.1, -80197.47, -0.12206193, 0.22855307, -1226122.5, 493709.72, 0.014482067, 10.004001, 9.998548 
1.4951307e+3, 1.3450578e+2, -1222457.5, -1664206.4, 33061.5, 0.06904529, 0.13323312, -1219996.8, 401864.72, 0.008626904, 10.003763, 9.997863 
1.49512e+3, 1.4450467e+2, -1136773.0, -1537832.8, -34328.816, -0.06266201, 0.21903987, -1133855.8, 390015.66, 0.0037456818, 10.003511, 9.998175 
1.4951092e+3, 1.5450236e+2, -1078402.6, -1458566.4, -42686.48, -0.07293344, 0.16919658, -1073668.5, 352224.75, 0.0009542572, 10.003229, 9.998181 
1.4950985e+3, 1.6450055e+2, -1021599.6, -1345005.4, -47442.977, -0.0818712, 0.15722513, -1014783.5, 313126.75, 0.00008722728, 10.002791, 9.998499 
1.4950882e+3, 1.7449932e+2, -1007506.6, -1280214.8, -56917.29, -0.05939545, 0.17424132, -996104.06, 233817.36, 0.0000004647829, 10.002183, 9.998565 
1.4950776e+3, 1.8449792e+2, -969462.75, -1189840.1, -76376.07, -0.039427504, 0.17284134, -945581.1, 186353.06, 0.0, 10.0016775, 9.998756 
1.4950667e+3, 1.9449648e+2, -921530.56, -1109316.0, -62112.36, -0.031228125, 0.14379308, -902845.4, 131102.66, 0.0, 10.001306, 9.998816 
1.4950559e+3, 2.0449522e+2, -867940.8, -1011922.0, -58007.383, -0.028797165, 0.13067889, -847478.7, 88481.14, 0.0, 10.000911, 9.999002 
1.495045e+3, 2.1449424e+2, -825362.25, -934228.4, -66563.44, -0.030092955, 0.12610978, -793808.94, 44160.125, 0.0, 10.000502, 9.99906 
1.4950341e+3, 2.2449341e+2, -783765.1, -856383.1, -69930.375, -0.01886259, 0.1345026, -741279.44, -1301.5775, 0.0, 10.000084, 9.999124 
1.4950234e+3, 2.3449276e+2, -743583.7, -780482.44, -65917.586, 0.005996454, 0.15137587, -693582.3, -51596.63, 0.0, 9.999662, 9.999174 
1.4950125e+3, 2.4449214e+2, -675611.94, -663001.4, -64207.926, 0.0010508972, 0.15861827, -604789.9, -60796.82, 0.0, 9.9993105, 9.999477 
1.4950012e+3, 2.5449157e+2, -612863.94, -574992.4, -65034.85, -0.039257135, 0.14471509, -526192.7, -80192.96, 0.0, 9.999038, 9.999539 
1.4949903e+3, 2.6449153e+2, -559921.94, -475052.88, -66534.734, -0.03587738, 0.17909262, -438572.5, -90570.84, 0.0, 9.998627, 9.99975 
1.4949799e+3, 2.7449214e+2, -540381.5, -407211.0, -72225.71, 0.017866174, 0.26179582, -375561.1, -125563.61, 0.0, 9.998055, 9.999818 
1.4949694e+3, 2.8449222e+2, -481072.2, -274149.38, -46057.695, 0.02358709, 0.26259553, -264360.72, -112362.7, 0.0, 9.997558, 10.0002985 
1.4949585e+3, 2.944916e+2, -446237.22, -207371.19, -37870.188, -0.023457669, 0.16193394, -201510.97, -147507.56, 0.0, 9.997127, 10.000292 
1.4949484e+3, 3.0449262e+2, -421666.78, -105478.484, -32733.879, 0.001232558, 0.21194828, -102125.22, -102125.22, 0.0, 9.996683, 10.000871 
1.4949384e+3, 3.1449392e+2, -455391.75, -66155.25, -35853.38, 0.036690917, 0.24322891, -62880.277, -62880.277, 0.0, 9.996211, 10.001368 
1.5051417e+3, 1.2451869e+2, -1142800.8, -1596866.1, -36539.09, -0.12839608, 0.22926164, -1139879.1, 579857.8, 0.015329327, 10.004682, 9.998566 
1.5051344e+3, 1.3451576e+2, -1188281.0, -1642598.5, 56990.94, 0.065542735, 0.14861877, -1181241.0, 440522.72, 0.009161525, 10.003981, 9.997906 
1.5051235e+3, 1.4451444e+2, -1135522.4, -1535795.1, -13046.262, -0.053709123, 0.21183418, -1135097.6, 388677.47, 0.0040015676, 10.003517, 9.998185 
1.5051125e+3, 1.5451197e+2, -1057549.0, -1446760.9, -21295.436, -0.085330576, 0.1440549, -1056387.3, 369410.9, 0.001031135, 10.0033655, 9.998197 
1.5051013e+3, 1.6451016e+2, -1003270.94, -1349849.0, -33404.918, -0.096714646, 0.13720635, -1000080.56, 327734.8, 0.000096309515, 10.002975, 9.998378 
1.5050904e+3, 1.7450911e+2, -1002039.2, -1291627.4, -29160.133, -0.052546415, 0.1861669, -999132.06, 230693.66, 0.000000575819, 10.002282, 9.998438 
1.5050794e+3, 1.8450774e+2, -958185.0, -1169987.0, -38080.64, -0.024298951, 0.18585406, -951546.44, 180291.94, 0.0, 10.001695, 9.998883 
1.5050681e+3, 1.9450606e+2, -920013.5, -1093404.4, -41266.23, -0.026612623, 0.12067128, -910693.3, 123159.71, 0.0, 10.001252, 9.99895 
1.5050568e+3, 2.0450476e+2, -888742.25, -1042758.7, -42697.44, -0.026817024, 0.104709715, -877697.44, 58167.914, 0.0, 10.000858, 9.998816 
1.5050454e+3, 2.1450396e+2, -837719.44, -962922.7, -48408.113, -0.021547068, 0.13804565, -821186.3, 16688.2, 0.0, 10.000517, 9.998856 
1.5050341e+3, 2.2450314e+2, -763629.2, -832247.56, -48299.832, -0.013848776, 0.15448314, -738693.2, 1190.0869, 0.0, 10.000162, 9.99925 
1.5050231e+3, 2.3450235e+2, -715110.94, -750952.5, -42613.188, -0.0049333973, 0.14265972, -686803.6, -44912.45, 0.0, 9.999792, 9.999314 
1.5050118e+3, 2.445017e+2, -673401.44, -663298.75, -40130.805, -0.0101231905, 0.14002754, -627902.6, -84004.33, 0.0, 9.999333, 9.999463 
1.5050001e+3, 2.545012e+2, -653225.0, -597033.5, -43937.082, -0.03306799, 0.13822675, -572977.2, -127072.95, 0.0, 9.998774, 9.999515 
1.5049888e+3, 2.6450115e+2, -593425.94, -488520.56, -39306.664, -0.031377666, 0.17237799, -475427.1, -127520.55, 0.0, 9.998387, 9.999772 
1.5049778e+3, 2.745017e+2, -517005.84, -393284.34, -35717.24, -0.0012958343, 0.24086308, -383713.5, -133809.58, 0.0, 9.998206, 9.99984 
1.5049666e+3, 2.8450185e+2, -460096.78, -251357.7, -20253.123, 0.0032241808, 0.24793498, -249410.78, -97507.62, 0.0, 9.997648, 10.000411 
1.5049554e+3, 2.9450166e+2, -507143.78, -223275.22, -23959.21, -0.019082636, 0.17680068, -221267.2, -167363.25, 0.0, 9.996652, 10.000411 
1.504945e+3, 3.0450234e+2, -502237.22, -140696.31, -3631.6157, 0.0049809804, 0.18717232, -140659.83, -140659.83, 0.0, 9.996116, 10.000902 
1.5049347e+3, 3.14504e+2, -476480.72, -88486.47, -4818.8535, 0.038799405, 0.24855743, -88426.625, -88426.625, 0.0, 9.996119, 10.00126 
1.5151468e+3, 1.24528885e+2, -1164184.1, -1638905.4, -70571.06, -0.09265889, 0.1821527, -1153915.3, 565720.44, 0.01624411, 10.004675, 9.998277 
1.5151374e+3, 1.3452642e+2, -1205805.4, -1680884.5, 30903.922, -0.028154487, 0.17309798, -1203803.5, 417855.22, 0.009738072, 10.003988, 9.99764 
1.5151262e+3, 1.4452487e+2, -1134576.4, -1536410.6, -20786.566, -0.14133762, 0.22899434, -1133504.0, 390168.38, 0.004278066, 10.003529, 9.998177 
1.5151161e+3, 1.5452184e+2, -1056940.8, -1445495.5, -26755.215, -0.05370371, 0.10366587, -1055107.1, 370593.03, 0.0011151112, 10.003365, 9.998207 
1.5151049e+3, 1.6451986e+2, -997841.9, -1338366.9, -59639.965, -0.022406323, 0.07647817, -987698.56, 340019.8, 0.000106548556, 10.002973, 9.998459 
1.5150931e+3, 1.745191e+2, -995486.8, -1279610.4, -55367.523, -0.021186026, 0.14586906, -985078.56, 244647.34, 0.0000007145684, 10.002287, 9.998519 
1.5150812e+3, 1.8451779e+2, -963283.5, -1181939.8, -55958.645, -0.012797665, 0.15232247, -949794.7, 181943.08, 0.0, 10.001699, 9.9988 
1.5150695e+3, 1.9451593e+2, -925755.1, -1106751.1, -57873.387, -0.009268502, 0.07878118, -908832.4, 124921.625, 0.0, 10.001256, 9.9988575 
1.5150577e+3, 2.045146e+2, -899389.7, -1065245.9, -56395.57, -0.015103739, 0.070400104, -882030.56, 53736.906, 0.0, 10.000858, 9.998662 
1.5150459e+3, 2.1451391e+2, -848953.1, -986075.94, -61016.867, -0.026920257, 0.13174862, -825733.7, 12043.395, 0.0, 10.000515, 9.998697 
1.5150341e+3, 2.2451326e+2, -753086.4, -809242.6, -62670.66, -0.035955865, 0.16395988, -712491.44, 27293.354, 0.0, 10.000156, 9.999412 
1.5150225e+3, 2.3451266e+2, -702738.4, -725332.1, -55835.67, -0.04315614, 0.15221408, -657068.25, -15278.439, 0.0, 9.999791, 9.999491 
1.5150107e+3, 2.4451205e+2, -676132.8, -669073.6, -60780.79, -0.031492695, 0.14925912, -611720.0, -67924.266, 0.0, 9.999332, 9.999425 
1.5149993e+3, 2.5451154e+2, -656913.3, -603999.0, -63899.953, 0.0030255434, 0.1472169, -561295.56, -115493.17, 0.0, 9.99877, 9.99947 
1.5149875e+3, 2.6451126e+2, -583750.4, -467744.53, -45740.73, 0.0013812609, 0.15456527, -451878.97, -104072.25, 0.0, 9.9983835, 9.999917 
1.5149756e+3, 2.7451137e+2, -507246.25, -372227.34, -40468.066, -0.044995666, 0.16508077, -361027.25, -111219.52, 0.0, 9.998201, 9.999988 
1.5149638e+3, 2.845118e+2, -460449.94, -252163.5, -56000.176, -0.049082935, 0.19366889, -238061.92, -86257.68, 0.0, 9.997647, 10.000407 
1.5149523e+3, 2.9451275e+2, -508186.94, -224969.38, -59771.992, 0.0015647059, 0.23898667, -212871.48, -159076.9, 0.0, 9.996648, 10.0004015 
1.5149413e+3, 3.0451304e+2, -497422.75, -131623.98, -3521.187, 0.028406909, 0.20442322, -131590.1, -131590.1, 0.0, 9.996117, 10.000965 
1.5149306e+3, 3.1451413e+2, -467521.88, -68267.06, -117.379906, 0.0072191856, 0.2044456, -68267.03, -68267.03, 0.0, 9.99611, 10.001404 
1.5251514e+3, 1.2453983e+2, -1194429.1, -1676950.6, -58529.41, -0.0887535, 0.17599677, -1187431.1, 532095.9, 0.017221564, 10.004573, 9.99806 
1.5251416e+3, 1.3453715e+2, -1123904.5, -1660616.3, 53821.414, -0.045466125, 0.16199705, -1118560.5, 502992.13, 0.010353633, 10.004643, 9.997464 
1.5251301e+3, 1.445354e+2, -1033951.5, -1493010.4, -4752.3447, -0.1395735, 0.20919521, -1033902.3, 489666.25, 0.004573846, 10.004244, 9.998132 
1.5251195e+3, 1.5453261e+2, -1076796.5, -1458284.5, -15137.332, -0.038362425, 0.11032822, -1076196.9, 349397.44, 0.0012060112, 10.0032425, 9.9981785 
1.5251079e+3, 1.6453065e+2, -1037759.3, -1341744.6, -40011.07, -0.006731201, 0.08042891, -1032581.2, 295030.78, 0.000118081814, 10.002633, 9.998598 
1.5250954e+3, 1.7452966e+2, -951526.1, -1242303.3, -32241.988, -0.023096725, 0.11302713, -947993.94, 281626.7, 0.0000008766353, 10.002521, 9.998662 
1.5250832e+3, 1.8452832e+2, -903158.0, -1168137.5, -36693.297, -0.020361504, 0.11530638, -898170.75, 233461.95, 0.0, 10.002177, 9.998665 
1.525071e+3, 1.9452667e+2, -893339.3, -1107735.0, -43546.996, -0.008655916, 0.07776165, -884831.9, 148815.97, 0.0, 10.001552, 9.998709 
1.5250586e+3, 2.0452535e+2, -881567.7, -1056715.5, -34397.94, -0.010208165, 0.078904964, -875054.4, 60607.164, 0.0, 10.000983, 9.998659 
1.5250465e+3, 2.1452445e+2, -851958.5, -987687.75, -28379.684, -0.023245456, 0.11815525, -846263.5, -8590.471, 0.0, 10.000496, 9.998695 
1.5250343e+3, 2.2452372e+2, -776764.0, -821709.1, -30137.023, -0.033144865, 0.1444489, -761643.25, -21961.838, 0.0, 10.0, 9.999401 
1.5250221e+3, 2.3452322e+2, -747276.06, -748021.2, -39166.336, -0.042242836, 0.14576145, -708480.5, -66794.91, 0.0, 9.999493, 9.999478 
1.5250099e+3, 2.4452275e+2, -711810.2, -678102.75, -48219.95, -0.034350004, 0.1513166, -643876.0, -100185.42, 0.0, 9.999054, 9.999496 
1.524998e+3, 2.5452232e+2, -662688.2, -598525.1, -43381.008, -0.0056730425, 0.15315214, -576651.7, -130955.56, 0.0, 9.998696, 9.999542 
1.5249857e+3, 2.6452208e+2, -615617.5, -473858.56, -24040.95, -0.005409689, 0.15516245, -469892.4, -122192.36, 0.0, 9.998127, 9.999999 
1.5249734e+3, 2.745221e+2, -632564.5, -423387.03, -25741.86, -0.040824246, 0.14771727, -420265.75, -170564.0, 0.0, 9.997303, 10.000069 
1.5249611e+3, 2.8452265e+2, -556690.7, -294903.06, -36849.68, -0.04514373, 0.18121475, -289814.94, -138117.69, 0.0, 9.996973, 10.000438 
1.524949e+3, 2.9452392e+2, -420503.53, -179351.25, -38978.23, -0.009891029, 0.2589137, -173207.6, -119522.98, 0.0, 9.997237, 10.000431 
1.5249375e+3, 3.0452386e+2, -404363.1, -87409.43, 6007.866, 0.0057231826, 0.18828629, -87295.586, -87295.586, 0.0, 9.996762, 10.000957 
1.5249263e+3, 3.1452513e+2, -555813.7, -86395.38, 4502.375, 0.006846235, 0.2034649, -86352.2, -86352.2, 0.0, 9.995401, 10.001619 
1.5351558e+3, 1.2455159e+2, -1204659.8, -1700563.9, -63788.3, -0.11496762, 0.21037053, -1196586.0, 522824.34, 0.018256215, 10.004586, 9.99789 
1.5351467e+3, 1.3454802e+2, -1131459.8, -1676796.1, 56906.195, 0.007063624, 0.11706446, -1125584.9, 495860.06, 0.011005478, 10.004645, 9.997354 
1.5351352e+3, 1.4454608e+2, -1039238.06, -1503113.4, -41647.41, -0.056174435, 0.15516423, -1035528.56, 487934.75, 0.0048871194, 10.004241, 9.998064 
1.5351228e+3, 1.5454428e+2, -1080489.4, -1466588.5, -52923.063, -0.04236964, 0.16151132, -1073366.6, 352113.88, 0.0013030368, 10.003245, 9.99812 
1.5351102e+3, 1.6454253e+2, -1024053.56, -1315408.9, -46715.676, -0.051964115, 0.14631203, -1016746.44, 310749.44, 0.00013086536, 10.00264, 9.998776 
1.5350977e+3, 1.7454082e+2, -937587.06, -1214555.8, -36452.535, -0.0581526, 0.08791294, -932869.8, 296639.94, 0.0000010420176, 10.002523, 9.998852 
1.5350851e+3, 1.8453935e+2, -916437.25, -1195546.3, -60372.684, -0.048104215, 0.076108195, -903938.1, 227584.8, 0.0, 10.002175, 9.998479 
1.5350723e+3, 1.9453827e+2, -907949.4, -1138143.6, -67173.77, -0.027265469, 0.11585862, -889781.06, 143753.34, 0.0, 10.001551, 9.998501 
1.5350595e+3, 2.04537e+2, -872312.8, -1037691.3, -53692.23, -0.015845958, 0.12791312, -856410.2, 79137.44, 0.0, 10.000982, 9.998792 
1.535047e+3, 2.1453556e+2, -841320.9, -966159.5, -46165.5, -0.012161299, 0.09740959, -826103.75, 11458.69, 0.0, 10.000496, 9.998844 
1.5350345e+3, 2.2453454e+2, -790353.8, -849951.4, -49589.56, -0.007888756, 0.09702453, -762298.56, -22725.432, 0.0, 9.999998, 9.999208 
1.535022e+3, 2.345341e+2, -762316.5, -778913.3, -57525.75, -0.004116229, 0.12359754, -712493.7, -70915.18, 0.0, 9.99949, 9.999269 
1.5350091e+3, 2.4453375e+2, -700194.75, -652958.56, -61874.72, -0.020984158, 0.14587578, -610347.56, -66764.664, 0.0, 9.999048, 9.999672 
1.534996e+3, 2.5453362e+2, -649803.06, -571662.0, -55341.47, -0.06150997, 0.15659694, -542989.0, -97403.6, 0.0, 9.998694, 9.999728 
1.5349832e+3, 2.6453364e+2, -614025.25, -471032.78, -53500.17, -0.05507323, 0.17431478, -453231.88, -105645.305, 0.0, 9.998127, 10.000018 
1.5349711e+3, 2.7453387e+2, -631955.1, -421797.56, -55098.84, 0.0077201626, 0.187286, -408227.97, -158641.9, 0.0, 9.9973, 10.000082 
1.5349588e+3, 2.8453434e+2, -553820.06, -288009.6, -27295.518, 0.011553573, 0.20912848, -285235.63, -133653.23, 0.0, 9.996968, 10.000488 
1.534946e+3, 2.945352e+2, -417314.2, -172625.72, -26363.951, -0.056435667, 0.23909919, -169817.38, -116243.45, 0.0, 9.997236, 10.000478 
1.5349334e+3, 3.0453482e+2, -408679.56, -97476.37, -41936.434, -0.065401636, 0.14069973, -91924.25, -91924.25, 0.0, 9.996764, 10.000888 
1.5349218e+3, 3.1453666e+2, -533977.4, -39556.87, -40149.09, 0.027327258, 0.22127435, -36317.813, -36317.813, 0.0, 9.995393, 10.001946 
1.5451607e+3, 1.24563314e+2, -1076478.0, -1658335.6, -44809.95, -0.114229806, 0.1845952, -1073047.4, 646246.2, 0.019346818, 10.005577, 9.997709 
1.5451513e+3, 1.3455965e+2, -1150847.3, -1701659.9, 79812.31, 0.0048413477, 0.09694996, -1139515.6, 481813.78, 0.011694374, 10.004582, 9.997212 
1.5451396e+3, 1.4455763e+2, -1090123.1, -1531954.5, -24202.666, -0.034960147, 0.13581483, -1088801.4, 434547.9, 0.005218326, 10.003912, 9.998023 
1.5451263e+3, 1.5455605e+2, -1028245.56, -1444637.9, -35331.273, -0.03951185, 0.16786966, -1025269.0, 400095.47, 0.0014059247, 10.003619, 9.998091 
1.5451129e+3, 1.6455431e+2, -962682.2, -1300190.1, -30344.402, -0.059853364, 0.16024734, -959975.7, 367404.44, 0.00014487762, 10.003122, 9.998649 
1.5450999e+3, 1.7455232e+2, -966948.2, -1243473.4, -44269.76, -0.06671783, 0.087984405, -960033.75, 269363.0, 0.000001197513, 10.002386, 9.99872 
1.5450871e+3, 1.8455075e+2, -958278.2, -1208691.9, -72464.445, -0.05665407, 0.06993394, -938820.44, 192590.58, 0.0, 10.00186, 9.998539 
1.5450737e+3, 1.9454975e+2, -897022.4, -1125285.8, -60145.375, -0.03776806, 0.11322734, -882144.3, 151277.22, 0.0, 10.001594, 9.998568 
1.5450606e+3, 2.0454861e+2, -838442.4, -1007012.2, -39970.74, -0.022129953, 0.12761374, -829444.9, 105988.43, 0.0, 10.001154, 9.998919 
1.5450476e+3, 2.1454732e+2, -830041.56, -946051.06, -35323.67, -0.00794914, 0.0978424, -820132.3, 17313.879, 0.0, 10.000512, 9.998974 
1.5450345e+3, 2.2454628e+2, -810382.9, -870523.9, -34651.773, 0.0013358726, 0.09267623, -794573.25, -55116.258, 0.0, 9.999909, 9.99911 
1.5450215e+3, 2.3454559e+2, -789918.1, -805054.9, -35954.516, 0.0037491382, 0.10821046, -760744.06, -119279.13, 0.0, 9.999356, 9.999153 
1.5450081e+3, 2.445452e+2, -728249.1, -662195.75, -36850.44, -0.018261418, 0.13096128, -645737.94, -102267.88, 0.0, 9.998839, 9.999709 
1.5449944e+3, 2.5454527e+2, -694974.94, -588538.25, -43315.547, -0.07043742, 0.1553662, -573138.6, -127667.43, 0.0, 9.998365, 9.99977 
1.5449812e+3, 2.6454538e+2, -630670.06, -468699.2, -49387.758, -0.06675883, 0.17844845, -454827.94, -107356.81, 0.0, 9.99797, 10.000111 
1.5449686e+3, 2.7454564e+2, -571716.94, -382655.66, -46290.008, 0.0047331015, 0.18681759, -371930.38, -122460.84, 0.0, 9.997671, 10.000172 
1.5449557e+3, 2.8454614e+2, -540068.8, -277254.66, -8439.222, 0.014366196, 0.20257051, -276983.94, -125518.31, 0.0, 9.997047, 10.000524 
1.5449426e+3, 2.9454696e+2, -593191.7, -253600.2, -10757.574, -0.051313035, 0.22515722, -253259.77, -199801.73, 0.0, 9.996016, 10.00051 
1.5449296e+3, 3.0454656e+2, -597584.1, -190233.03, -33991.094, -0.06773062, 0.12610666, -187416.16, -187416.16, 0.0, 9.995479, 10.00087 
1.5449172e+3, 3.1454852e+2, -483933.13, 26683.275, -26484.404, 0.017438872, 0.21838497, 28053.281, 28053.281, 0.0, 9.995559, 10.00232 
1.5551667e+3, 1.2457512e+2, -1091373.8, -1685452.4, -90616.914, -0.088976756, 0.11004381, -1077859.1, 641316.0, 0.020498328, 10.005568, 9.997524 
1.5551554e+3, 1.3457207e+2, -1162347.0, -1725819.1, 43168.066, -0.051603206, 0.100213364, -1159059.0, 462147.13, 0.012424806, 10.004586, 9.997045 
1.555143e+3, 1.4457005e+2, -1090472.3, -1535460.8, -36847.867, -0.07582599, 0.14996855, -1087441.6, 435784.6, 0.005570551, 10.003922, 9.997995 
1.5551299e+3, 1.5456796e+2, -1028164.4, -1446935.1, -45922.88, -0.032918066, 0.1318111, -1023187.56, 402058.3, 0.0015157443, 10.003628, 9.998073 
1.5551163e+3, 1.6456601e+2, -991842.2, -1361754.8, -58156.867, -0.034890413, 0.1250875, -982914.4, 344349.84, 0.00016035176, 10.003126, 9.998225 
1.5551025e+3, 1.7456418e+2, -998193.94, -1308505.5, -71622.22, -0.052623387, 0.11139558, -982460.7, 246820.92, 0.0000013687348, 10.002386, 9.998275 
1.5550889e+3, 1.8456253e+2, -937724.2, -1166240.1, -83410.375, -0.05180824, 0.09525505, -910517.75, 220779.11, 0.0, 10.001859, 9.998833 
1.5550753e+3, 1.945612e+2, -873547.4, -1077415.1, -69411.5, -0.041401725, 0.07182196, -852158.6, 181150.2, 0.0, 10.0015955, 9.998897 
1.5550616e+3, 2.0456022e+2, -830925.94, -991410.75, -63879.707, -0.030088352, 0.080570124, -808603.94, 126714.38, 0.0, 10.001153, 9.999027 
1.5550481e+3, 2.1455969e+2, -823801.56, -932336.06, -59301.742, -0.013170875, 0.11884159, -797684.56, 39639.93, 0.0, 10.000507, 9.999071 
1.5550344e+3, 2.2455887e+2, -811295.06, -871646.5, -56123.477, -0.008947588, 0.12953843, -777749.4, -38416.07, 0.0, 9.999905, 9.999105 
1.5550205e+3, 2.3455772e+2, -790769.44, -807196.8, -55750.43, -0.020067068, 0.09943509, -742630.9, -101286.07, 0.0, 9.999356, 9.99914 
1.5550068e+3, 2.4455713e+2, -736613.0, -679522.44, -54262.03, -0.028914087, 0.10657577, -646755.4, -103403.39, 0.0, 9.998838, 9.999592 
1.5549931e+3, 2.545572e+2, -703557.94, -606386.4, -59772.164, -0.035057787, 0.14811382, -577944.3, -132590.58, 0.0, 9.9983635, 9.99965 
1.5549795e+3, 2.645573e+2, -619261.75, -444711.9, -60045.344, -0.042462777, 0.16645858, -426051.22, -78697.3, 0.0, 9.997968, 10.0002775 
1.5549657e+3, 2.745575e+2, -559695.4, -358384.75, -55157.594, -0.05262033, 0.14838158, -344262.66, -94910.695, 0.0, 9.997673, 10.000339 
1.5549523e+3, 2.8455806e+2, -538558.56, -274617.38, -44897.85, -0.040385257, 0.16241959, -267189.06, -115842.05, 0.0, 9.997047, 10.000543 
1.5549392e+3, 2.9455915e+2, -593552.7, -252707.34, -48040.66, -0.00057481084, 0.21224171, -246065.64, -192728.22, 0.0, 9.996006, 10.000522 
1.5549256e+3, 3.0455905e+2, -599216.9, -191091.3, -31443.518, -0.007051411, 0.14030941, -188682.98, -188682.98, 0.0, 9.995466, 10.000871 
1.5549123e+3, 3.1456044e+2, -455253.84, 84892.43, -14438.033, -0.028649889, 0.17740561, 85278.08, 85278.08, 0.0, 9.995563, 10.002719 
1.5651721e+3, 1.2458789e+2, -1100427.6, -1679428.3, -89837.54, -0.09491378, 0.089691766, -1086808.8, 632240.9, 0.021721935, 10.005466, 9.997614 
1.5651599e+3, 1.345852e+2, -1096933.8, -1683281.3, 66711.016, -0.07857872, 0.10665544, -1089439.6, 531636.7, 0.013204188, 10.004999, 9.997138 
1.5651472e+3, 1.4458305e+2, -1026317.5, -1523965.1, 1227.9999, -0.07346925, 0.14722478, -1026314.5, 496782.78, 0.0059484444, 10.004453, 9.997818 
1.5651336e+3, 1.5458044e+2, -1012643.25, -1459858.0, -21170.453, -0.028584128, 0.0961235, -1011643.3, 413478.8, 0.0016344632, 10.003825, 9.997888 
1.5651195e+3, 1.645783e+2, -987103.3, -1368470.3, -35035.984, -0.029735025, 0.084205665, -983911.25, 343231.3, 0.00017771397, 10.003201, 9.998142 
1.5651052e+3, 1.7457667e+2, -976187.8, -1306934.1, -23406.74, -0.04747799, 0.1007122, -974539.56, 254618.69, 0.0000016137079, 10.002578, 9.998192 
1.5650909e+3, 1.8457511e+2, -918138.06, -1148784.9, -19332.498, -0.04525633, 0.09253177, -916528.8, 214644.02, 0.0, 10.00196, 9.998902 
1.5650767e+3, 1.9457367e+2, -902732.44, -1082874.4, -24989.313, -0.032807715, 0.051054157, -899330.2, 133855.13, 0.0, 10.00136, 9.998972 
1.5650626e+3, 2.0457266e+2, -885858.0, -1031132.7, -40838.973, -0.023252705, 0.058433212, -875164.6, 60030.688, 0.0, 10.0008335, 9.998908 
1.5650484e+3, 2.1457219e+2, -849681.8, -959406.94, -53728.633, -0.012745406, 0.115222506, -827754.6, 9447.404, 0.0, 10.000394, 9.9989395 
1.5650342e+3, 2.2457145e+2, -795859.44, -840437.6, -50999.965, -0.014917966, 0.13270582, -762490.6, -23280.746, 0.0, 9.99991, 9.999315 
1.5650198e+3, 2.3457046e+2, -772144.56, -773206.56, -35532.508, -0.033654027, 0.09564047, -737139.1, -95920.42, 0.0, 9.999378, 9.999361 
1.5650055e+3, 2.4456985e+2, -749844.4, -692861.2, -23677.252, -0.038908917, 0.09274085, -684307.06, -141081.52, 0.0, 9.998777, 9.999529 
1.5649915e+3, 2.545697e+2, -747311.7, -635955.3, -26480.715, -0.027441954, 0.120584995, -629978.9, -184749.11, 0.0, 9.998101, 9.999572 
1.5649773e+3, 2.6456985e+2, -674704.44, -457641.22, -19172.85, -0.03216071, 0.13868861, -455960.72, -108730.75, 0.0, 9.997529, 10.000399 
1.564963e+3, 2.745703e+2, -639578.7, -382609.75, -19247.313, -0.057329588, 0.13449293, -381176.1, -131950.92, 0.0, 9.997066, 10.000464 
1.564949e+3, 2.8457087e+2, -589409.3, -291867.0, -19186.271, -0.04538512, 0.142352, -290634.94, -139415.2, 0.0, 9.996668, 10.000607 
1.5649354e+3, 2.945718e+2, -539928.1, -219649.22, -20518.023, 0.011128721, 0.1676064, -218340.13, -165128.25, 0.0, 9.996345, 10.000585 
1.5649214e+3, 3.045721e+2, -560607.4, -182075.31, 7894.255, 0.0060063754, 0.1383303, -181910.75, -181910.75, 0.0, 9.995772, 10.000785 
1.5649074e+3, 3.1457338e+2, -541170.44, 55950.176, 20435.06, -0.04162632, 0.17100528, 56648.703, 56648.703, 0.0, 9.994919, 10.002831 
1.5751773e+3, 1.2460163e+2, -1077498.5, -1631645.6, -113473.86, -0.13045199, 0.123144224, -1055162.5, 663753.9, 0.023031188, 10.005471, 9.99795 
1.575165e+3, 1.3459906e+2, -1073584.3, -1635270.9, 49031.547, -0.08132805, 0.11623938, -1069336.3, 551603.25, 0.014041279, 10.005005, 9.997466 
1.5751521e+3, 1.4459664e+2, -1049452.5, -1572376.6, -23635.734, -0.03360735, 0.12918429, -1048386.4, 474575.84, 0.0063569034, 10.004455, 9.997486 
1.5751374e+3, 1.545935e+2, -1037863.75, -1511940.4, -44204.445, -0.028557852, 0.060589842, -1033777.2, 391215.9, 0.0017639704, 10.003823, 9.997531 
1.5751225e+3, 1.645912e+2, -969572.7, -1332929.6, -58703.39, -0.047645807, 0.039024115, -960324.06, 366691.0, 0.00019721544, 10.003202, 9.998386 
1.5751076e+3, 1.7458984e+2, -956755.5, -1268436.0, -46379.54, -0.052357547, 0.05737451, -950000.4, 279026.28, 0.0000019795527, 10.002584, 9.998454 
1.5750928e+3, 1.8458848e+2, -929003.94, -1172638.0, -42507.867, -0.038226735, 0.06289, -921800.44, 209238.61, 0.0, 10.001964, 9.998737 
1.5750784e+3, 1.9458713e+2, -915648.06, -1110160.4, -47600.832, -0.01561179, 0.049396947, -904624.0, 128427.266, 0.0, 10.00136, 9.998785 
1.5750638e+3, 2.045859e+2, -909575.06, -1080354.1, -57954.438, -0.0064798915, 0.05971721, -891765.3, 43299.223, 0.0, 10.000832, 9.998572 
1.575049e+3, 2.145848e+2, -873787.8, -1009852.44, -69297.91, -0.008126693, 0.087537475, -844708.9, -7630.26, 0.0, 10.000394, 9.998594 
1.5750341e+3, 2.2458404e+2, -767869.06, -782390.0, -70684.48, -0.018024828, 0.1033072, -704073.2, 35013.402, 0.0, 9.999908, 9.999716 
1.575019e+3, 2.3458378e+2, -741781.8, -710181.9, -54789.242, -0.039108787, 0.09634495, -668959.9, -27873.146, 0.0, 9.999376, 9.999796 
1.5750042e+3, 2.4458335e+2, -750223.7, -693504.1, -48624.137, -0.050214104, 0.0885734, -665573.75, -122482.695, 0.0, 9.9987755, 9.999526 
1.5749893e+3, 2.545828e+2, -749267.5, -639927.1, -50343.477, -0.0504627, 0.07373894, -620278.44, -175179.06, 0.0, 9.998099, 9.999547 
1.5749748e+3, 2.6458293e+2, -670522.94, -448771.38, -35527.56, -0.039226346, 0.09486935, -443218.44, -96119.125, 0.0, 9.997527, 10.000463 
1.5749605e+3, 2.7458397e+2, -634608.94, -372698.44, -34576.24, -0.013183965, 0.1413619, -368210.72, -119121.06, 0.0, 9.997066, 10.000534 
1.574946e+3, 2.8458452e+2, -581798.5, -276354.78, -30134.781, -0.0040778657, 0.13957565, -273410.13, -122325.836, 0.0, 9.996668, 10.000714 
1.5749314e+3, 2.9458484e+2, -530937.9, -203230.08, -30203.768, -0.019229226, 0.0942381, -200469.55, -147388.2, 0.0, 9.996352, 10.000695 
1.5749167e+3, 3.0458573e+2, -572142.06, -207213.02, -22453.605, -0.032019626, 0.12256924, -205836.67, -205836.67, 0.0, 9.995776, 10.00061 
1.5749025e+3, 3.145871e+2, -555557.56, 27306.805, -4935.7725, -0.03489222, 0.18855093, 27348.598, 27348.598, 0.0, 9.994911, 10.002639 
1.5851828e+3, 1.2461596e+2, -1045124.4, -1625344.8, -71775.52, -0.120584846, 0.12717307, -1036377.3, 682398.4, 0.024436997, 10.005752, 9.997857 
1.5851699e+3, 1.3461317e+2, -1066120.6, -1645855.6, 59956.676, -0.08721505, 0.11331691, -1059984.9, 560816.1, 0.014943394, 10.005126, 9.997333 
1.5851568e+3, 1.446106e+2, -1047941.94, -1563732.0, -20191.666, -0.008239828, 0.11337765, -1047152.7, 475672.53, 0.006799629, 10.0044365, 9.997552 
1.5851411e+3, 1.5460768e+2, -1053739.6, -1510974.3, -11613.272, -0.035464253, 0.06032403, -1053444.9, 371408.66, 0.0019053617, 10.00368, 9.997605 
1.5851255e+3, 1.6460544e+2, -978302.25, -1333138.6, -8084.8086, -0.06348399, 0.03984898, -978118.1, 348756.22, 0.0002187055, 10.003128, 9.998419 
1.5851104e+3, 1.7460395e+2, -919055.2, -1246777.5, -14164.436, -0.047961444, 0.04153148, -918444.1, 310442.66, 0.000002466339, 10.0028305, 9.998482 
1.5850951e+3, 1.8460247e+2, -891192.3, -1185316.5, -29673.15, -0.030681733, 0.04799499, -888228.56, 242672.02, 0.0, 10.002359, 9.998459 
1.5850797e+3, 1.9460106e+2, -889592.5, -1130256.1, -43551.438, -0.026837485, 0.056951307, -881953.7, 150961.19, 0.0, 10.001682, 9.998491 
1.5850644e+3, 2.0459966e+2, -873212.4, -1054736.8, -38287.043, -0.02419402, 0.064471066, -865467.4, 69462.35, 0.0, 10.001049, 9.998642 
1.5850492e+3, 2.1459833e+2, -856440.7, -992139.06, -19816.906, -0.01841267, 0.060239393, -853605.94, -16661.098, 0.0, 10.000475, 9.998675 
1.585034e+3, 2.2459756e+2, -781260.4, -794397.06, -24340.736, -0.019068046, 0.07189204, -762617.3, -23664.563, 0.0, 9.999842, 9.999666 
1.5850185e+3, 2.3459753e+2, -779533.7, -734439.6, -45366.203, -0.028345237, 0.09317581, -706326.44, -65374.703, 0.0, 9.999145, 9.999741 
1.585003e+3, 2.4459721e+2, -768217.44, -683710.3, -49674.04, -0.037607934, 0.092936546, -660749.8, -117794.945, 0.0, 9.998575, 9.999689 
1.5849875e+3, 2.5459665e+2, -730046.44, -611931.56, -38862.105, -0.0485441, 0.06257806, -600292.2, -155330.06, 0.0, 9.998152, 9.999713 
1.5849723e+3, 2.6459685e+2, -660919.44, -446808.7, -20180.785, -0.035244472, 0.08095774, -444923.2, -97961.79, 0.0, 9.997605, 10.000437 
1.5849577e+3, 2.7459797e+2, -658670.75, -387701.3, -28032.408, 0.008915969, 0.13866653, -384831.7, -135880.0, 0.0, 9.996918, 10.000501 
1.5849428e+3, 2.8459853e+2, -616174.5, -283052.63, -18989.395, 0.011990299, 0.13689217, -281973.63, -131027.36, 0.0, 9.996392, 10.000799 
1.5849274e+3, 2.9459888e+2, -570054.56, -211353.84, -22430.674, -0.037454136, 0.082327895, -209956.63, -157013.55, 0.0, 9.996041, 10.000788 
1.5849122e+3, 3.0460012e+2, -609733.2, -215399.23, -23208.947, -0.044675432, 0.14078909, -214037.94, -214037.94, 0.0, 9.995479, 10.000697 
1.5848972e+3, 3.1460103e+2, -596447.8, -852.5776, 14341.84, -0.026655309, 0.15271223, -507.42828, -507.42828, 0.0, 9.994671, 10.002559 
1.5951891e+3, 1.2463097e+2, -1080950.9, -1697034.6, -98307.086, -0.07101899, 0.11232505, -1065644.5, 652982.1, 0.025948009, 10.005747, 9.997355 
1.595175e+3, 1.3462763e+2, -1105322.0, -1729006.6, 37570.59, -0.09813607, 0.0978127, -1103067.0, 517593.3, 0.015915722, 10.005131, 9.996761 
1.5951613e+3, 1.4462496e+2, -1016808.75, -1500076.3, -49257.35, -0.000005805232, 0.10025185, -1011839.25, 510846.53, 0.0072788945, 10.004442, 9.997988 
1.5951447e+3, 1.5462299e+2, -1019890.94, -1442526.5, -40103.12, -0.051102262, 0.09339041, -1016119.3, 408584.1, 0.0020591137, 10.003688, 9.998073 
1.5951285e+3, 1.6462101e+2, -990137.3, -1359571.9, -21137.908, -0.07968477, 0.08413094, -988931.75, 337789.1, 0.00024185247, 10.003135, 9.998235 
1.5951133e+3, 1.7461899e+2, -933760.75, -1277623.8, -25241.33, -0.03814367, 0.051707704, -931917.75, 296821.06, 0.0000030340082, 10.0028305, 9.998271 
1.5950975e+3, 1.846171e+2, -918547.7, -1241840.8, -55117.023, -0.02780002, 0.048226073, -909409.25, 221348.19, 0.0, 10.002357, 9.998074 
1.5950811e+3, 1.9461547e+2, -917027.56, -1188054.4, -68229.06, -0.06659229, 0.07388, -900820.5, 131955.39, 0.0, 10.001684, 9.998094 
1.595065e+3, 2.04614e+2, -841481.6, -990034.6, -60032.98, -0.07603069, 0.07304197, -820254.44, 114536.36, 0.0, 10.001052, 9.999085 
1.5950495e+3, 2.1461278e+2, -823046.56, -922652.94, -40983.906, -0.046576824, 0.032965515, -808351.44, 28449.572, 0.0, 10.000472, 9.999155 
1.5950337e+3, 2.2461195e+2, -816043.6, -866313.0, -50778.906, -0.021636814, 0.038156535, -784519.25, -45710.355, 0.0, 9.999838, 9.999174 
1.5950178e+3, 2.3461166e+2, -816901.9, -811928.4, -70353.086, -0.0037482088, 0.08653111, -744018.1, -103204.5, 0.0, 9.999143, 9.999209 
1.5950018e+3, 2.4461141e+2, -746883.25, -639570.25, -65270.387, -0.003786714, 0.106382445, -608732.7, -65915.63, 0.0, 9.998573, 9.999994 
1.5949859e+3, 2.5461128e+2, -705703.3, -562215.94, -53106.96, -0.02417582, 0.08602807, -544698.7, -99880.336, 0.0, 9.998154, 10.000054 
1.5949701e+3, 2.6461154e+2, -668906.6, -464265.56, -44833.938, -0.021907704, 0.09671515, -454874.06, -108057.47, 0.0, 9.997607, 10.000317 
1.5949546e+3, 2.7461225e+2, -668639.56, -408527.44, -52000.52, 0.005248141, 0.12867312, -398516.97, -149705.6, 0.0, 9.996916, 10.00036 
1.594939e+3, 2.846129e+2, -612786.9, -276082.66, -31304.55, -0.0018816573, 0.13549717, -273196.88, -122390.78, 0.0, 9.996391, 10.000849 
1.5949233e+3, 2.9461375e+2, -565167.9, -202325.89, -33625.12, -0.05005879, 0.12819578, -199236.11, -146438.03, 0.0, 9.996044, 10.00085 
1.5949078e+3, 3.0461523e+2, -586542.56, -166671.45, -52203.75, -0.0376355, 0.19035748, -160278.16, -160278.16, 0.0, 9.995474, 10.001034 
1.594892e+3, 3.1461522e+2, -596284.4, -861.0494, -13219.196, -0.021586807, 0.07585825, -567.70996, -567.70996, 0.0, 9.994671, 10.00256 
1.6051953e+3, 1.24646336e+2, -1090391.0, -1701427.5, -92630.17, -0.030914765, 0.1026522, -1076657.4, 641818.3, 0.027575288, 10.005691, 9.997351 
1.6051796e+3, 1.3464312e+2, -1111730.0, -1735119.0, 76347.42, -0.1342228, 0.10539119, -1102515.8, 517992.47, 0.016964993, 10.005105, 9.996731 
1.6051656e+3, 1.4464031e+2, -999954.8, -1496822.1, -5071.1255, -0.0095356675, 0.094958745, -999903.06, 522632.6, 0.0077982917, 10.004586, 9.997939 
1.6051486e+3, 1.5463841e+2, -950266.8, -1413887.9, -34287.21, -0.055417147, 0.102616765, -947744.8, 476807.66, 0.0022265608, 10.004192, 9.998024 
1.6051318e+3, 1.6463643e+2, -931526.56, -1341557.4, -31064.365, -0.083138965, 0.09962127, -929186.44, 397383.7, 0.00026665046, 10.003585, 9.998139 
1.605116e+3, 1.746343e+2, -954595.3, -1298367.3, -28375.06, -0.04351595, 0.06663684, -952268.94, 276320.4, 0.0000036433328, 10.002737, 9.998172 
1.6050997e+3, 1.8463233e+2, -954321.1, -1259430.6, -37982.184, -0.029924741, 0.059521962, -949663.94, 180945.05, 0.0, 10.002115, 9.998067 
1.6050828e+3, 1.946306e+2, -907015.56, -1183900.8, -23941.465, -0.0621514, 0.07726022, -904960.7, 127667.555, 0.0, 10.001759, 9.998085 
1.6050662e+3, 2.0462917e+2, -806010.4, -965337.7, -17724.129, -0.07000709, 0.077272914, -804062.5, 130579.98, 0.0, 10.001265, 9.999151 
1.60505e+3, 2.1462812e+2, -797292.6, -902692.4, -29609.963, -0.044358637, 0.048772138, -789543.94, 47106.28, 0.0, 10.000618, 9.999221 
1.6050337e+3, 2.2462723e+2, -799645.44, -873540.25, -42261.797, -0.020955013, 0.049534567, -780457.56, -41798.723, 0.0, 10.000018, 9.999036 
1.605017e+3, 2.3462658e+2, -779650.56, -811073.7, -35979.176, -0.0036883515, 0.075622685, -756102.06, -115434.17, 0.0, 9.999474, 9.999055 
1.6050006e+3, 2.4462622e+2, -709077.2, -618960.9, -25503.92, -0.0013007574, 0.092418894, -612243.7, -69571.12, 0.0, 9.998824, 10.000014 
1.604984e+3, 2.546263e+2, -718102.3, -564770.25, -37945.03, -0.01499582, 0.09132176, -555893.9, -111222.41, 0.0, 9.998056, 10.000082 
1.6049677e+3, 2.6462662e+2, -695084.75, -476655.56, -36805.492, -0.01458982, 0.1065952, -470620.53, -123951.7, 0.0, 9.997431, 10.000315 
1.6049515e+3, 2.746272e+2, -661898.56, -406294.25, -35554.387, -0.00024551214, 0.12669235, -401440.8, -152776.16, 0.0, 9.996969, 10.000347 
1.6049352e+3, 2.8462777e+2, -618544.1, -278260.53, -10694.989, -0.006530039, 0.12799208, -277924.72, -127264.7, 0.0, 9.99635, 10.000853 
1.6049193e+3, 2.9462862e+2, -637978.9, -235675.17, -19057.777, -0.03586398, 0.122465506, -234774.39, -182122.38, 0.0, 9.99554, 10.000862 
1.6049033e+3, 3.0463028e+2, -629398.4, -161385.42, -37261.973, -0.01659103, 0.18748692, -158437.28, -158437.28, 0.0, 9.99507, 10.001264 
1.6048867e+3, 3.1463057e+2, -557771.5, 7583.9585, -12593.657, -0.044494223, 0.07807389, 7864.351, 7864.351, 0.0, 9.994982, 10.002466 
1.6152012e+3, 1.24662146e+2, -1059202.6, -1637035.0, -109728.92, -0.0027246622, 0.102665715, -1039067.0, 679254.9, 0.029335428, 10.005702, 9.997802 
1.6151841e+3, 1.346597e+2, -1079112.1, -1667702.3, 53684.426, -0.19584398, 0.1358781, -1074255.8, 546089.25, 0.018103808, 10.005115, 9.99719 
1.61517e+3, 1.4465658e+2, -1035456.94, -1570965.9, -21928.703, -0.03863181, 0.09806762, -1034560.44, 487814.5, 0.008365866, 10.004587, 9.997429 
1.6151527e+3, 1.54654e+2, -989085.1, -1494427.8, -48120.992, -0.052296974, 0.088824995, -984543.6, 439856.72, 0.002411363, 10.00419, 9.997473 
1.6151354e+3, 1.6465175e+2, -932240.5, -1343408.6, -62577.81, -0.079139315, 0.088661425, -922927.44, 403494.22, 0.0002938313, 10.003585, 9.998128 
1.6151184e+3, 1.7464992e+2, -953324.9, -1297863.3, -59461.223, -0.06451677, 0.08630821, -943351.6, 285086.47, 0.000004294035, 10.002745, 9.998173 
1.6151017e+3, 1.8464811e+2, -929421.75, -1209370.6, -52340.25, -0.038404156, 0.08111986, -919956.1, 210499.03, 0.0, 10.002121, 9.998408 
1.615085e+3, 1.9464645e+2, -882118.06, -1132683.3, -36927.973, -0.017846715, 0.06728631, -876789.0, 155683.11, 0.0, 10.001759, 9.998437 
1.615068e+3, 2.0464516e+2, -827495.06, -1009859.9, -42123.355, -0.011722366, 0.07802372, -818235.4, 116249.59, 0.0, 10.001263, 9.998848 
1.6150509e+3, 2.1464436e+2, -820406.2, -950719.6, -52885.906, -0.014145774, 0.10727666, -801644.44, 34848.22, 0.0, 10.000617, 9.998892 
1.6150337e+3, 2.2464336e+2, -786905.94, -847430.4, -62923.035, -0.019433195, 0.10613775, -747346.2, -8843.575, 0.0, 10.000017, 9.999217 
1.6150163e+3, 2.3464218e+2, -765345.06, -781854.5, -55526.887, -0.029935049, 0.060469396, -717462.7, -76947.89, 0.0, 9.999474, 9.999257 
1.614999e+3, 2.4464156e+2, -728379.75, -658881.75, -53792.484, -0.031957302, 0.051220354, -629590.75, -87069.01, 0.0, 9.998821, 9.999742 
1.6149819e+3, 2.5464162e+2, -738896.4, -607252.3, -65120.145, -0.024602812, 0.07900405, -580482.94, -135961.33, 0.0, 9.998052, 9.999794 
1.614965e+3, 2.6464203e+2, -688273.06, -462820.75, -53362.758, -0.017661624, 0.11113701, -450828.16, -104309.7, 0.0, 9.99743, 10.000411 
1.6149482e+3, 2.746427e+2, -653081.2, -390098.56, -50751.863, -0.011030496, 0.13177705, -380644.06, -132131.86, 0.0, 9.996976, 10.000457 
1.6149317e+3, 2.8464308e+2, -622109.2, -286718.06, -40031.984, -0.00424677, 0.11347027, -282006.06, -131497.38, 0.0, 9.996353, 10.000793 
1.6149151e+3, 2.9464346e+2, -642073.7, -243932.52, -47986.02, 0.0019503236, 0.064261205, -238230.66, -185725.02, 0.0, 9.995536, 10.000808 
1.6148987e+3, 3.0464518e+2, -622028.6, -145895.98, -40195.887, 0.013823754, 0.13241968, -142526.42, -142526.42, 0.0, 9.995069, 10.001372 
1.614881e+3, 3.146471e+2, -570767.7, -20846.58, -19000.49, -0.10451247, 0.17700967, -20190.87, -20190.87, 0.0, 9.994987, 10.002269 
1.625207e+3, 1.2467855e+2, -1007759.7, -1625457.8, -61756.434, -0.013311234, 0.0812182, -1001645.94, 716514.6, 0.031249383, 10.00614, 9.997672 
1.6251892e+3, 1.3467643e+2, -1034997.06, -1651735.3, 51554.055, -0.21655639, 0.1538536, -1030717.25, 589463.8, 0.019348834, 10.005455, 9.997135 
1.6251747e+3, 1.446731e+2, -1019693.4, -1563982.1, -21894.418, -0.008489847, 0.09658465, -1018814.06, 503399.3, 0.008991966, 10.0047035, 9.997419 
1.6251568e+3, 1.5467039e+2, -1020282.94, -1510183.9, -10323.25, -0.051312514, 0.0788883, -1020065.5, 404173.84, 0.002618451, 10.003983, 9.997462 
1.6251388e+3, 1.646681e+2, -953171.9, -1362187.1, -5708.8027, -0.0932149, 0.07601698, -953092.2, 373169.13, 0.0003247618, 10.003481, 9.998048 
1.6251214e+3, 1.746662e+2, -889557.9, -1276550.4, -10062.953, -0.07563574, 0.07733757, -889296.4, 338982.5, 0.000005034694, 10.003225, 9.998086 
1.625104e+3, 1.8466441e+2, -842470.25, -1160367.6, -18066.646, -0.04239808, 0.07486962, -841446.75, 288849.03, 0.0, 10.002689, 9.998469 
1.6250868e+3, 1.9466282e+2, -866301.56, -1117377.1, -24956.676, -0.011585489, 0.06272284, -863844.94, 168466.33, 0.0, 10.001837, 9.998504 
1.6250694e+3, 2.0466153e+2, -860403.44, -1039903.4, -35007.047, 0.0001632981, 0.076619804, -853817.8, 80506.42, 0.0, 10.0011, 9.998719 
1.6250515e+3, 2.1466064e+2, -849278.56, -979971.5, -33521.23, -0.00329781, 0.11063552, -841182.3, -4848.4346, 0.0, 10.000486, 9.998754 
1.6250336e+3, 2.246597e+2, -798809.44, -840437.75, -36005.18, -0.011055041, 0.115835935, -778035.06, -39691.31, 0.0, 9.999883, 9.99933 
1.6250157e+3, 2.346587e+2, -783156.0, -776747.06, -35195.445, -0.025977299, 0.078382105, -744610.5, -104256.945, 0.0, 9.999294, 9.999377 
1.6249979e+3, 2.4465811e+2, -737384.8, -666562.56, -28914.547, -0.034232106, 0.06734921, -656257.2, -113897.38, 0.0, 9.998776, 9.999709 
1.62498e+3, 2.5465804e+2, -700074.9, -593285.2, -23739.605, -0.036600586, 0.08302396, -588245.6, -143884.69, 0.0, 9.998341, 9.999749 
1.6249625e+3, 2.6465827e+2, -649173.5, -449429.66, -8952.472, -0.026266584, 0.10532285, -449029.2, -102670.16, 0.0, 9.997722, 10.000361 
1.6249453e+3, 2.746588e+2, -669952.94, -403142.8, -19508.203, -0.00015569264, 0.11823191, -401723.97, -153369.98, 0.0, 9.996883, 10.00041 
1.6249281e+3, 2.8465924e+2, -648356.9, -296585.47, -13627.911, 0.009074903, 0.10387784, -296058.28, -145708.22, 0.0, 9.996164, 10.000815 
1.6249107e+3, 2.946598e+2, -634061.4, -236858.7, -17442.0, -0.0026834174, 0.071106754, -236094.27, -183749.31, 0.0, 9.99558, 10.0008335 
1.6248937e+3, 3.0466115e+2, -617684.4, -143980.05, 8112.0474, 0.0077870316, 0.10337153, -143841.17, -143841.17, 0.0, 9.995098, 10.00137 
1.6248758e+3, 3.1466332e+2, -618856.2, -55791.39, 12845.078, -0.10129845, 0.17527202, -55498.51, -55498.51, 0.0, 9.994704, 10.002167 
1.6352126e+3, 1.24695644e+2, -1054001.9, -1718980.4, -71771.28, -0.06533553, 0.048188303, -1046343.75, 671647.2, 0.033335652, 10.00614, 9.997011 
1.6351947e+3, 1.3469334e+2, -1073080.4, -1730919.3, 26277.674, -0.20274314, 0.15812044, -1072032.4, 547983.8, 0.020713273, 10.005454, 9.996593 
1.6351804e+3, 1.4468983e+2, -988908.25, -1498523.9, -50481.62, 0.0712302, 0.089394994, -983955.75, 538094.94, 0.009683891, 10.0047, 9.997873 
1.6351607e+3, 1.5468764e+2, -985796.8, -1440053.9, -36794.008, -0.054441053, 0.07345178, -982835.9, 441233.5, 0.002851303, 10.003987, 9.997944 
1.6351418e+3, 1.6468543e+2, -963280.75, -1383643.8, -16518.424, -0.12647364, 0.06215861, -962632.7, 363456.94, 0.0003608522, 10.003482, 9.9979 
1.6351245e+3, 1.7468314e+2, -902355.7, -1302683.0, -19187.943, -0.07970685, 0.040785506, -901438.1, 326673.75, 0.000005927034, 10.003222, 9.997909 
1.6351067e+3, 1.8468119e+2, -857997.1, -1191896.8, -49617.363, -0.046240754, 0.042231917, -850780.0, 279350.97, 0.0, 10.002685, 9.998257 
1.6350883e+3, 1.9467972e+2, -881119.56, -1148906.5, -56080.99, -0.043938734, 0.063837335, -869849.2, 162296.42, 0.0, 10.001838, 9.998287 
1.63507e+3, 2.0467828e+2, -858044.6, -1035666.44, -58252.035, -0.035368882, 0.07316276, -840645.0, 93515.21, 0.0, 10.001101, 9.998749 
1.6350518e+3, 2.1467696e+2, -846779.0, -975402.7, -55672.754, -0.013451274, 0.059496965, -826029.3, 10144.803, 0.0, 10.000486, 9.998785 
1.6350336e+3, 2.246762e+2, -795724.5, -834075.94, -58298.164, 0.0013276687, 0.07977614, -753529.3, -15346.744, 0.0, 9.999881, 9.999375 
1.6350153e+3, 2.3467614e+2, -780188.7, -770715.94, -56072.535, 0.005658909, 0.12947078, -719180.1, -78995.68, 0.0, 9.999293, 9.99942 
1.6349968e+3, 2.4467587e+2, -724397.25, -639819.7, -44767.836, -0.011707957, 0.14130251, -620525.2, -78338.14, 0.0, 9.9987755, 9.999894 
1.6349782e+3, 2.5467545e+2, -686141.56, -565929.56, -38300.465, -0.053342447, 0.103442624, -554763.8, -110573.945, 0.0, 9.998344, 9.999936 
1.63496e+3, 2.6467532e+2, -663168.0, -479329.66, -39087.02, -0.042206176, 0.08875891, -471364.25, -125173.16, 0.0, 9.997724, 10.000156 
1.6349424e+3, 2.746755e+2, -685203.8, -435129.53, -49298.246, 0.029015148, 0.08554177, -425762.03, -177571.5, 0.0, 9.996882, 10.000192 
1.6349244e+3, 2.846761e+2, -641659.06, -283393.7, -34688.023, 0.028527468, 0.09946857, -280066.03, -129881.33, 0.0, 9.996164, 10.000907 
1.6349058e+3, 2.9467756e+2, -625807.6, -222208.67, -36735.926, -0.056619383, 0.14566116, -218892.19, -166721.86, 0.0, 9.995587, 10.000932 
1.6348884e+3, 3.0467817e+2, -625304.4, -160389.02, -6270.1265, -0.03947233, 0.10176001, -160304.47, -160304.47, 0.0, 9.9951, 10.001258 
1.6348712e+3, 3.1467918e+2, -618248.3, -53468.8, -7857.403, -0.033455674, 0.06917482, -53359.508, -53359.508, 0.0, 9.9946995, 10.002185 
1.6452192e+3, 1.2471336e+2, -1049762.9, -1734975.3, -62486.89, -0.037244458, 0.0567505, -1044111.06, 673706.5, 0.035601884, 10.006265, 9.9968405 
1.6452e+3, 1.3471106e+2, -1106071.4, -1743461.3, 49369.203, -0.21781859, 0.16368482, -1102270.1, 517572.88, 0.02220156, 10.005215, 9.996622 
1.645185e+3, 1.4470744e+2, -1014449.7, -1501671.8, -3756.2244, 0.08694831, 0.078461245, -1014420.75, 507457.84, 0.010444071, 10.004487, 9.997953 
1.6451648e+3, 1.5470548e+2, -944973.3, -1411776.9, -18472.557, -0.059371646, 0.07896176, -944243.44, 479651.25, 0.0031110013, 10.004234, 9.998018 
1.6451454e+3, 1.6470337e+2, -932429.1, -1371992.9, -11031.169, -0.1375353, 0.07641163, -932152.5, 393761.3, 0.00040293386, 10.003709, 9.99787 
1.6451275e+3, 1.7470106e+2, -954826.75, -1331394.1, -4741.888, -0.07780826, 0.056700304, -954767.06, 273169.38, 0.0000070009137, 10.002878, 9.997876 
1.6451092e+3, 1.8469904e+2, -920881.3, -1226477.4, -25066.96, -0.041023146, 0.054291338, -918838.75, 211117.48, 0.0, 10.002274, 9.998217 
1.6450901e+3, 1.9469744e+2, -873190.7, -1149845.3, -20151.973, -0.04949294, 0.065363206, -871730.44, 160241.75, 0.0, 10.001915, 9.998242 
1.6450712e+3, 2.0469591e+2, -810970.06, -1010662.5, -16572.773, -0.04633387, 0.066614725, -809604.0, 124383.516, 0.0, 10.001415, 9.998768 
1.6450524e+3, 2.1469453e+2, -805826.7, -953476.0, -16520.318, -0.023589818, 0.047842015, -804000.8, 32000.703, 0.0, 10.000761, 9.998803 
1.6450335e+3, 2.2469379e+2, -764590.2, -826490.5, -21679.428, -0.0047927923, 0.07260012, -757752.6, -19742.66, 0.0, 10.000128, 9.999308 
1.6450146e+3, 2.3469381e+2, -752275.56, -765330.5, -30041.564, 0.0062846816, 0.13798197, -728060.5, -88048.984, 0.0, 9.99952, 9.999347 
1.6449957e+3, 2.4469358e+2, -709119.4, -630532.9, -27796.5, -0.005408701, 0.15618776, -621695.0, -79681.02, 0.0, 9.998873, 9.99991 
1.6449766e+3, 2.5469312e+2, -710434.3, -575524.9, -35299.844, -0.042454306, 0.113122806, -566846.7, -122829.82, 0.0, 9.99817, 9.999953 
1.6449578e+3, 2.646929e+2, -703507.6, -502743.94, -43600.438, -0.03233776, 0.09148193, -493683.97, -147665.14, 0.0, 9.997466, 10.000118 
1.6449393e+3, 2.7469295e+2, -705685.9, -450121.13, -42420.74, 0.0311652, 0.080857985, -443263.78, -195244.16, 0.0, 9.996766, 10.000143 
1.6449206e+3, 2.8469366e+2, -637218.25, -280507.66, -14463.778, 0.025679938, 0.10375931, -279922.16, -129908.97, 0.0, 9.996193, 10.000912 
1.6449012e+3, 2.9469538e+2, -604933.3, -210641.14, -25088.504, -0.059578013, 0.17522898, -209051.19, -157055.1, 0.0, 9.995727, 10.000942 
1.6448833e+3, 3.0469564e+2, -628435.56, -162308.42, 4678.102, -0.046791185, 0.098779395, -162261.47, -162261.47, 0.0, 9.995083, 10.00125 
1.644866e+3, 3.1469637e+2, -660524.0, -43121.56, 1887.8706, -0.011354625, 0.0399919, -43115.785, -43115.785, 0.0, 9.994278, 10.002459 
1.6552262e+3, 1.24731705e+2, -1031771.94, -1693280.4, -74603.79, 0.05462799, 0.10127424, -1023462.6, 694177.75, 0.03804193, 10.006263, 9.997133 
1.6552047e+3, 1.3472958e+2, -1067473.4, -1663097.0, 9762.01, -0.2615495, 0.17223683, -1067313.5, 552348.06, 0.023810154, 10.005226, 9.9971695 
1.6551891e+3, 1.4472589e+2, -1033770.5, -1541978.1, -16348.658, 0.040539823, 0.064430825, -1033245.1, 488452.16, 0.01127207, 10.00449, 9.997675 
1.655169e+3, 1.547239e+2, -966815.44, -1457731.5, -27452.701, -0.06933231, 0.09353711, -965285.0, 458430.4, 0.003397641, 10.004236, 9.997703 
1.6551492e+3, 1.647219e+2, -926308.1, -1359912.1, -41965.63, -0.13219386, 0.116380945, -922283.94, 403450.06, 0.00045125975, 10.00371, 9.997954 
1.6551305e+3, 1.7471999e+2, -947144.56, -1317154.8, -35292.86, -0.072423585, 0.123130955, -943808.3, 283944.34, 0.000008273259, 10.002883, 9.997973 
1.6551116e+3, 1.8471795e+2, -912057.4, -1209018.5, -39354.133, -0.030268278, 0.1095166, -906930.56, 222841.36, 0.0, 10.002275, 9.998336 
1.6550921e+3, 1.9471592e+2, -865075.9, -1133353.8, -33255.51, -0.030661358, 0.06667019, -861015.0, 170776.31, 0.0, 10.001915, 9.998357 
1.6550726e+3, 2.0471434e+2, -810617.94, -1010055.5, -41189.113, -0.03565933, 0.05697974, -802446.1, 131360.39, 0.0, 10.001414, 9.998774 
1.655053e+3, 2.1471335e+2, -805981.0, -953947.25, -40326.83, -0.03654926, 0.07501079, -795704.06, 40112.41, 0.0, 10.000759, 9.998801 
1.6550334e+3, 2.2471245e+2, -778088.0, -854498.0, -44722.387, -0.032697897, 0.093671836, -757473.7, -19647.416, 0.0, 10.000126, 9.999117 
1.6550139e+3, 2.3471172e+2, -765869.5, -794251.8, -51704.324, -0.026023261, 0.10355074, -726444.2, -86608.87, 0.0, 9.999521, 9.999149 
1.6549943e+3, 2.4471119e+2, -720113.0, -653603.2, -53442.93, -0.017323725, 0.111682646, -623913.4, -82072.3, 0.0, 9.998872, 9.999754 
1.6549751e+3, 2.54711e+2, -721257.9, -598415.06, -60044.03, -0.0063918876, 0.11160724, -573941.9, -130099.516, 0.0, 9.99817, 9.999798 
1.6549556e+3, 2.64711e+2, -695231.06, -486261.53, -68894.27, 0.00038600314, 0.11421649, -465592.44, -119749.87, 0.0, 9.997466, 10.000233 
1.6549358e+3, 2.7471122e+2, -696451.44, -433005.16, -66282.11, 0.0017348917, 0.10670834, -417268.78, -169427.23, 0.0, 9.996772, 10.000259 
1.6549166e+3, 2.847118e+2, -643091.5, -294252.4, -31259.953, -0.0025735009, 0.11710372, -291473.3, -141637.22, 0.0, 9.996198, 10.000816 
1.6548975e+3, 2.9471308e+2, -610536.9, -223505.17, -41362.695, -0.013920966, 0.15600175, -219134.05, -167310.69, 0.0, 9.995729, 10.000854 
1.6548787e+3, 3.047135e+2, -620961.2, -146433.6, -24430.932, -0.017327106, 0.09229845, -145179.08, -145179.08, 0.0, 9.99508, 10.001362 
1.65486e+3, 3.1471488e+2, -623290.1, 34884.383, -31059.771, -0.04232208, 0.087195285, 36346.867, 36346.867, 0.0, 9.994274, 10.0029955 
1.6652325e+3, 1.2475065e+2, -1061885.8, -1719183.0, -12761.673, 0.05229863, 0.1252744, -1061638.1, 655817.5, 0.0406422, 10.006119, 9.997017 
1.6652098e+3, 1.3474838e+2, -1012865.0, -1619719.3, 7479.1406, -0.27811316, 0.16845983, -1012772.8, 606704.5, 0.025533326, 10.005553, 9.997307 
1.6651939e+3, 1.4474471e+2, -987000.6, -1534208.3, -14655.183, 0.049065795, 0.062342014, -986608.44, 534904.4, 0.012167604, 10.004884, 9.997538 
1.6651732e+3, 1.5474279e+2, -975204.1, -1477827.6, -12680.491, -0.06692799, 0.1133681, -974884.4, 448646.88, 0.0037118734, 10.00425, 9.997557 
1.6651528e+3, 1.6474077e+2, -927457.56, -1358504.8, -29728.941, -0.1307705, 0.13878508, -925416.9, 400133.7, 0.0005059591, 10.003695, 9.997971 
1.6651335e+3, 1.7473869e+2, -897372.8, -1291106.6, -30489.283, -0.06616169, 0.12965257, -895025.8, 332544.22, 0.000009797576, 10.003217, 9.997991 
1.665114e+3, 1.8473662e+2, -864513.44, -1186786.5, -38020.586, -0.025579903, 0.11025785, -860088.7, 269501.03, 0.0, 10.002605, 9.998329 
1.665094e+3, 1.947346e+2, -874879.94, -1138405.1, -41791.17, -0.035929702, 0.07101531, -868411.25, 163197.67, 0.0, 10.00185, 9.998352 
1.665074e+3, 2.0473313e+2, -838391.6, -1009766.7, -52404.684, -0.03573121, 0.06801951, -823637.1, 109985.64, 0.0, 10.001166, 9.998894 
1.6650538e+3, 2.147324e+2, -827331.75, -950395.25, -43918.207, -0.01529679, 0.09706166, -813266.1, 22363.738, 0.0, 10.000555, 9.998923 
1.6650337e+3, 2.2473142e+2, -806012.25, -877057.4, -36886.04, -0.009859505, 0.10646595, -790325.1, -52685.082, 0.0, 9.999974, 9.999035 
1.6650133e+3, 2.3473027e+2, -786317.3, -814181.6, -37172.438, -0.023944966, 0.08448881, -760551.94, -120898.9, 0.0, 9.999426, 9.999058 
1.6649932e+3, 2.4472961e+2, -733711.75, -660968.94, -34256.086, -0.024629733, 0.084308006, -647376.8, -105716.47, 0.0, 9.998783, 9.999745 
1.6649732e+3, 2.5472963e+2, -740353.2, -608827.94, -31684.705, -0.010527646, 0.10308967, -601593.0, -157932.58, 0.0, 9.998045, 9.999785 
1.664953e+3, 2.647298e+2, -691880.4, -481743.06, -31588.822, -0.004778006, 0.12347822, -477097.2, -131438.08, 0.0, 9.9974785, 10.000257 
1.6649327e+3, 2.7473018e+2, -649703.2, -408177.97, -37102.125, -0.008108041, 0.1303268, -402607.0, -154950.6, 0.0, 9.997085, 10.000278 
1.6649127e+3, 2.8473058e+2, -611326.3, -280533.47, -7854.0483, 0.0011640147, 0.12419948, -280347.1, -130694.664, 0.0, 9.996425, 10.000799 
1.6648935e+3, 2.9473135e+2, -649199.7, -243060.75, -14811.537, 0.022610994, 0.11516532, -242521.3, -190876.94, 0.0, 9.99547, 10.000843 
1.6648737e+3, 3.0473217e+2, -668607.56, -182472.8, 3038.6528, -0.010525281, 0.09748547, -182453.8, -182453.8, 0.0, 9.99481, 10.001243 
1.6648541e+3, 3.1473383e+2, -583485.6, 68258.82, -26093.197, -0.054519426, 0.13345674, 69301.81, 69301.81, 0.0, 9.994489, 10.00312 
1.6752376e+3, 1.247701e+2, -1093015.4, -1787907.8, 1458.9941, -0.042590506, 0.12066697, -1093012.3, 624252.06, 0.043389864, 10.006138, 9.996537 
1.6752155e+3, 1.3476746e+2, -1029896.7, -1656183.0, -14263.792, -0.2735868, 0.15230687, -1029572.0, 589718.25, 0.02736847, 10.005561, 9.997055 
1.6751993e+3, 1.4476389e+2, -988291.94, -1534619.4, -39379.4, 0.1026895, 0.069439664, -985468.06, 535857.25, 0.013133085, 10.004877, 9.9975395 
1.6751775e+3, 1.5476216e+2, -974966.94, -1476386.9, -34615.82, -0.055204656, 0.13857794, -972588.5, 450753.75, 0.0040558977, 10.004245, 9.99757 
1.6751565e+3, 1.6475993e+2, -931964.2, -1367453.1, -47438.12, -0.13572854, 0.1451832, -926856.6, 398506.8, 0.00056745566, 10.003691, 9.997912 
1.6751368e+3, 1.7475721e+2, -902056.56, -1301059.4, -47594.35, -0.061508927, 0.07894531, -896457.94, 330930.66, 0.000011659807, 10.003216, 9.997924 
1.6751166e+3, 1.8475504e+2, -873388.9, -1205087.1, -65845.24, -0.029744484, 0.058737658, -860796.06, 268613.3, 0.0, 10.002603, 9.998206 
1.6750956e+3, 1.947535e+2, -883712.75, -1157363.9, -68788.695, -0.066793434, 0.07879246, -867394.2, 164030.88, 0.0, 10.001851, 9.998223 
1.675075e+3, 2.0475233e+2, -822045.06, -976312.8, -75291.53, -0.04913641, 0.09935063, -791390.0, 142046.28, 0.0, 10.001167, 9.999125 
1.6750549e+3, 2.1475165e+2, -810929.0, -916673.0, -65893.98, 0.037898645, 0.11343953, -779317.5, 56124.363, 0.0, 10.000554, 9.999157 
1.6750343e+3, 2.2475068e+2, -804639.44, -874186.6, -57320.805, 0.060980584, 0.11092827, -772369.2, -34917.707, 0.0, 9.999973, 9.999056 
1.675013e+3, 2.3474947e+2, -785215.7, -812407.4, -56453.88, 0.010433723, 0.080839574, -740743.56, -101278.664, 0.0, 9.999426, 9.999071 
1.6749918e+3, 2.4474883e+2, -724735.1, -642945.56, -61389.23, -0.03000669, 0.07433634, -610077.06, -68605.04, 0.0, 9.998783, 9.99987 
1.6749705e+3, 2.547489e+2, -731337.6, -591013.5, -57570.02, -0.059182204, 0.08820989, -570417.56, -126946.22, 0.0, 9.998047, 9.999908 
1.67495e+3, 2.647492e+2, -696719.44, -492880.2, -45239.17, -0.051027626, 0.11835985, -483291.13, -137822.22, 0.0, 9.997481, 10.00018 
1.6749297e+3, 2.7474973e+2, -654250.7, -419268.1, -49568.305, -0.00024187096, 0.1494808, -409239.9, -161775.03, 0.0, 9.997089, 10.000201 
1.6749096e+3, 2.8474995e+2, -607209.3, -273364.6, -42153.176, 0.03467367, 0.12437042, -268124.34, -118661.69, 0.0, 9.996428, 10.000849 
1.6748892e+3, 2.9475018e+2, -644499.8, -234014.66, -48453.766, 0.04471761, 0.057343017, -228372.72, -176913.58, 0.0, 9.995471, 10.000906 
1.6748683e+3, 3.047516e+2, -695084.7, -238282.06, -8473.096, -0.03077893, 0.116107665, -238124.94, -238124.94, 0.0, 9.994812, 10.00086 
1.6748486e+3, 3.1475312e+2, -607428.1, 16146.985, -31265.164, -0.053537417, 0.17732246, 17710.654, 17710.654, 0.0, 9.994499, 10.002758 
1.685244e+3, 1.24789976e+2, -984226.56, -1743822.6, 46668.867, -0.056663025, 0.09975838, -981370.0, 735698.4, 0.04627701, 10.0069895, 9.9964285 
1.685221e+3, 1.347874e+2, -1019693.7, -1646325.4, 10865.638, -0.26711285, 0.1340468, -1019505.3, 599588.56, 0.029316323, 10.005623, 9.997093 
1.685204e+3, 1.4478411e+2, -1031930.0, -1559244.6, 11417.134, 0.11625744, 0.07882321, -1031682.9, 489443.47, 0.01417318, 10.004592, 9.997508 
1.6851817e+3, 1.547821e+2, -1001831.75, -1492866.8, 13636.855, -0.041204125, 0.12369625, -1001453.3, 421692.7, 0.004433546, 10.004076, 9.997539 
1.6851601e+3, 1.6477974e+2, -955723.44, -1384954.5, 2878.191, -0.12698016, 0.12139444, -955704.1, 369464.5, 0.0006367317, 10.003553, 9.997858 
1.6851398e+3, 1.7477706e+2, -934592.56, -1322538.3, 3076.8582, -0.06493039, 0.0641798, -934568.2, 292625.44, 0.00001399049, 10.003017, 9.997871 
1.685119e+3, 1.8477494e+2, -887746.6, -1206186.4, -13126.362, -0.034753285, 0.050018344, -887206.5, 242007.4, 0.0, 10.00248, 9.998258 
1.6850974e+3, 1.9477348e+2, -868734.9, -1144542.9, -4327.8154, -0.0633485, 0.07445559, -868666.94, 162561.6, 0.0, 10.001929, 9.998273 
1.6850762e+3, 2.0477223e+2, -807068.75, -982710.2, -15625.284, -0.04464126, 0.09104618, -805689.56, 127551.22, 0.0, 10.001328, 9.999002 
1.6850555e+3, 2.1477129e+2, -801896.44, -925687.1, -33938.926, 0.035341233, 0.09172015, -793202.25, 42047.19, 0.0, 10.000675, 9.999035 
1.6850343e+3, 2.247704e+2, -791435.0, -849433.0, -33528.79, 0.058896255, 0.09475576, -776104.3, -38845.84, 0.0, 9.999987, 9.999218 
1.6850124e+3, 2.3476963e+2, -798408.9, -799868.56, -22425.701, 0.016522208, 0.09105904, -776701.1, -137433.8, 0.0, 9.999257, 9.999237 
1.6849907e+3, 2.4476914e+2, -740821.44, -651842.56, -23893.248, -0.022360457, 0.09264988, -645832.5, -104559.61, 0.0, 9.99868, 9.999858 
1.6849688e+3, 2.5476906e+2, -701126.94, -578698.3, -32479.234, -0.057062622, 0.09421549, -570615.5, -127341.555, 0.0, 9.998265, 9.9998865 
1.6849475e+3, 2.647693e+2, -665988.1, -470059.56, -20618.186, -0.05126669, 0.11649842, -467913.34, -122641.35, 0.0, 9.997659, 10.000251 
1.6849267e+3, 2.7476987e+2, -683350.6, -425412.38, -14838.467, 0.0009078563, 0.14532939, -424561.56, -177294.58, 0.0, 9.996858, 10.00027 
1.6849059e+3, 2.847701e+2, -625682.94, -292389.16, -6237.227, 0.0365613, 0.123368174, -292272.47, -143007.72, 0.0, 9.996346, 10.000756 
1.6848849e+3, 2.9477033e+2, -556384.0, -200459.39, -26285.934, 0.048066124, 0.062846705, -198528.58, -147266.2, 0.0, 9.996115, 10.000826 
1.6848631e+3, 3.0477217e+2, -627490.25, -191149.64, 16179.923, -0.04034963, 0.15922838, -190550.5, -190550.5, 0.0, 9.995214, 10.000989 
1.6848432e+3, 3.147729e+2, -744922.94, -68054.92, 40266.82, -0.01145734, 0.13717148, -65667.875, -65667.875, 0.0, 9.993631, 10.002599 
1.6952515e+3, 1.2481014e+2, -974074.2, -1714248.9, 33871.63, -0.004386784, 0.04738109, -972527.44, 744341.94, 0.049304117, 10.006977, 9.996638 
1.6952269e+3, 1.348082e+2, -1000716.5, -1602676.1, -40046.15, -0.2614115, 0.1140284, -998064.06, 620824.4, 0.031380344, 10.005619, 9.997398 
1.6952084e+3, 1.4480531e+2, -1037792.2, -1571989.4, -10716.188, 0.09017638, 0.0897341, -1037577.3, 483339.22, 0.0152931, 10.004596, 9.99742 
1.6951859e+3, 1.5480259e+2, -1006181.8, -1505385.0, -5221.94, -0.028850721, 0.071839586, -1006127.25, 416815.6, 0.004849519, 10.00409, 9.997447 
1.6951638e+3, 1.6480017e+2, -957077.75, -1390135.4, -17413.66, -0.10973375, 0.07047799, -956378.6, 368587.63, 0.0007154191, 10.003561, 9.99782 
1.6951427e+3, 1.7479816e+2, -936625.6, -1328072.0, -16107.758, -0.07792328, 0.08296092, -935963.94, 291021.78, 0.000016975888, 10.003021, 9.997833 
1.6951215e+3, 1.8479624e+2, -873262.56, -1176197.5, -33764.418, -0.0430985, 0.081643015, -869544.94, 259458.95, 0.0, 10.002479, 9.998466 
1.6950998e+3, 1.947945e+2, -853963.75, -1114032.3, -24511.42, -0.02850204, 0.057928845, -851673.7, 179346.25, 0.0, 10.001928, 9.998485 
1.6950777e+3, 2.0479284e+2, -840272.75, -1051153.6, -40285.84, -0.024953038, 0.044262797, -832838.75, 100197.77, 0.0, 10.001326, 9.998535 
1.6950555e+3, 2.1479131e+2, -835598.7, -996070.1, -57423.59, -0.024081977, 0.032691035, -817167.06, 17885.816, 0.0, 10.000675, 9.998553 
1.6950335e+3, 2.2479054e+2, -770146.25, -805457.2, -60749.027, -0.017645393, 0.0583048, -724539.06, 12522.245, 0.0, 9.999986, 9.999521 
1.6950114e+3, 2.3479068e+2, -776561.3, -754708.0, -48452.227, -0.007842936, 0.11494588, -715965.6, -76905.016, 0.0, 9.999255, 9.999549 
1.6949895e+3, 2.4479048e+2, -752654.8, -676218.4, -38769.047, -0.0036036838, 0.13869826, -659997.0, -118933.664, 0.0, 9.998677, 9.999693 
1.6949676e+3, 2.5479004e+2, -713042.9, -604099.1, -46126.44, -0.0048168763, 0.12135177, -587192.94, -144124.22, 0.0, 9.998266, 9.999713 
1.6949455e+3, 2.6479003e+2, -650693.94, -439598.63, -49504.465, -0.006857379, 0.1184794, -428565.8, -83497.0, 0.0, 9.997662, 10.00046 
1.6949235e+3, 2.7479056e+2, -667719.2, -394529.72, -42551.31, -0.010072176, 0.11913887, -388055.47, -140992.31, 0.0, 9.996862, 10.000481 
1.6949019e+3, 2.8479105e+2, -642617.44, -329173.9, -13730.894, 0.0017609141, 0.12213987, -328573.56, -179514.45, 0.0, 9.996351, 10.000503 
1.6948809e+3, 2.9479173e+2, -572101.4, -234892.45, -32515.363, 0.028200554, 0.13397686, -231785.78, -180731.16, 0.0, 9.99612, 10.000588 
1.6948582e+3, 3.0479372e+2, -579639.94, -93949.8, -42303.54, -0.043134462, 0.22367468, -90292.7, -90292.7, 0.0, 9.995221, 10.001655 
1.6948375e+3, 3.1479347e+2, -738373.1, -54322.324, -602.984, 0.06350719, 0.037275676, -54321.793, -54321.793, 0.0, 9.99363, 10.002694 
1.7052585e+3, 1.2483173e+2, -1016916.8, -1746320.3, 87207.13, 0.004720812, 0.04768692, -1006635.3, 710021.2, 0.05247533, 10.006733, 9.996538 
1.7052327e+3, 1.3482949e+2, -1011281.9, -1621884.1, -54499.04, -0.23454002, 0.09843801, -1006455.7, 612223.44, 0.033564325, 10.00562, 9.997263 
1.705213e+3, 1.448268e+2, -997776.4, -1547724.4, -3396.9998, 0.07621151, 0.09739392, -997755.4, 522950.2, 0.016496848, 10.004862, 9.9974575 
1.7051902e+3, 1.5482391e+2, -928271.2, -1462618.9, 12524.324, -0.04162646, 0.058176026, -927977.8, 494754.88, 0.0053077913, 10.004608, 9.997491 
1.7051676e+3, 1.6482145e+2, -885313.1, -1354528.0, -4648.8525, -0.11482731, 0.050244536, -885267.06, 439489.28, 0.00080528925, 10.004051, 9.9978285 
1.7051458e+3, 1.7481954e+2, -915620.0, -1317471.6, -2163.755, -0.07224083, 0.07488813, -915608.4, 311166.75, 0.000020835996, 10.003163, 9.997838 
1.705124e+3, 1.8481773e+2, -881160.8, -1181240.6, -19773.73, -0.0341706, 0.08356874, -879863.44, 248929.3, 0.0, 10.00243, 9.998454 
1.7051016e+3, 1.9481605e+2, -864228.6, -1119616.4, -27688.766, -0.02444963, 0.065971, -861261.1, 169547.42, 0.0, 10.001863, 9.998477 
1.705079e+3, 2.0481436e+2, -843345.94, -1051525.8, -35601.94, -0.026792265, 0.05175436, -837425.8, 95399.484, 0.0, 10.001302, 9.998543 
1.7050561e+3, 2.1481277e+2, -827197.56, -991547.2, -18006.182, -0.034906108, 0.034268275, -825247.94, 9594.179, 0.0, 10.000733, 9.998555 
1.7050335e+3, 2.2481196e+2, -753792.2, -804356.9, -18822.346, -0.02970787, 0.05794401, -747555.06, -10703.938, 0.0, 10.000129, 9.999459 
1.7050107e+3, 2.3481205e+2, -746957.0, -747387.6, -37042.883, -0.011967193, 0.11701025, -710128.8, -71277.89, 0.0, 9.999491, 9.999484 
1.7049883e+3, 2.4481183e+2, -736481.75, -664268.4, -31245.75, 0.005381565, 0.13974838, -652625.9, -111772.02, 0.0, 9.998773, 9.999728 
1.704966e+3, 2.5481135e+2, -754477.0, -619694.5, -23778.96, 0.022828458, 0.11565451, -615622.3, -172763.08, 0.0, 9.997966, 9.999749 
1.7049432e+3, 2.648113e+2, -695502.9, -461697.13, -26410.307, 0.01752012, 0.106546655, -458751.0, -113891.3, 0.0, 9.997359, 10.000452 
1.7049202e+3, 2.748118e+2, -655282.8, -389704.56, -38190.754, -0.012794036, 0.103853874, -384321.75, -137467.33, 0.0, 9.996954, 10.000469 
1.7048982e+3, 2.848124e+2, -650062.0, -332322.03, -5584.1216, -0.0023916569, 0.1181887, -332223.94, -183374.2, 0.0, 9.996301, 10.0005045 
1.7048769e+3, 2.9481322e+2, -674656.3, -282854.94, -5412.8364, 0.05217877, 0.14843868, -282780.2, -231935.84, 0.0, 9.995414, 10.000598 
1.7048535e+3, 3.0481517e+2, -606317.56, -55178.08, -29248.42, -0.026901787, 0.2122906, -53630.24, -53630.24, 0.0, 9.994817, 10.002116 
1.7048314e+3, 3.1481537e+2, -621406.6, -5974.2534, 13610.038, 0.06144317, 0.02234698, -5673.42, -5673.42, 0.0, 9.994471, 10.00262 
1.7152648e+3, 1.24854475e+2, -1046587.4, -1807130.1, 76551.18, -0.027373126, 0.079773545, -1038958.75, 677473.7, 0.055785373, 10.006734, 9.996121 
1.7152387e+3, 1.3485132e+2, -1046608.9, -1700121.9, -96187.81, -0.19310059, 0.08921076, -1032745.5, 585720.44, 0.03586658, 10.005639, 9.996721 
1.7152178e+3, 1.4484857e+2, -986296.6, -1524354.5, -14703.004, 0.06688396, 0.10499058, -985895.2, 534597.75, 0.017785558, 10.004869, 9.997615 
1.7151943e+3, 1.54846e+2, -918389.6, -1438843.1, 3949.4165, -0.08026763, 0.077895984, -918359.6, 504156.38, 0.0058109183, 10.004596, 9.997661 
1.7151713e+3, 1.648435e+2, -884852.75, -1350532.0, -37783.65, -0.1431746, 0.05722287, -881807.0, 442732.28, 0.000907932, 10.004036, 9.997865 
1.7151491e+3, 1.7484123e+2, -912602.1, -1312625.9, -34938.344, -0.051220145, 0.041718945, -909573.5, 316988.28, 0.000025810483, 10.003167, 9.99787 
1.7151266e+3, 1.848394e+2, -896084.9, -1213720.1, -41591.176, -0.012872642, 0.058107838, -890729.25, 237851.2, 0.0, 10.002434, 9.99823 
1.7151031e+3, 1.9483806e+2, -879645.94, -1152965.5, -47971.97, -0.052512936, 0.09670201, -871470.6, 159124.05, 0.0, 10.001866, 9.998248 
1.71508e+3, 2.0483677e+2, -810635.56, -983574.3, -56557.15, -0.051742587, 0.111414194, -793781.8, 138825.56, 0.0, 10.0013, 9.999011 
1.7150572e+3, 2.1483566e+2, -794518.4, -923239.94, -38306.06, -0.00009823978, 0.094857715, -783981.44, 50636.184, 0.0, 10.000729, 9.999028 
1.7150341e+3, 2.248346e+2, -785797.0, -869734.44, -42726.016, 0.01933123, 0.09260108, -767875.06, -31246.744, 0.0, 10.000123, 9.999014 
1.7150104e+3, 2.3483369e+2, -778984.4, -814317.5, -59739.906, 0.0023799413, 0.097132035, -734353.56, -95714.89, 0.0, 9.999491, 9.999026 
1.714987e+3, 2.4483311e+2, -719950.06, -629894.56, -60720.83, 0.002113544, 0.09533425, -599327.9, -58683.01, 0.0, 9.998771, 9.999966 
1.7149639e+3, 2.5483295e+2, -737337.7, -584510.8, -52133.438, 0.021067722, 0.07725708, -568420.7, -125774.63, 0.0, 9.997966, 9.999991 
1.7149407e+3, 2.6483303e+2, -712350.4, -497613.6, -40701.664, 0.018343914, 0.08047302, -490157.78, -145512.52, 0.0, 9.997361, 10.000206 
1.7149173e+3, 2.7483347e+2, -672565.8, -426410.1, -51862.43, -0.0091164615, 0.100097455, -415929.47, -169287.98, 0.0, 9.996956, 10.000217 
1.7148946e+3, 2.8483403e+2, -631392.7, -293737.84, -38329.85, 0.022244202, 0.111285254, -289441.4, -140804.06, 0.0, 9.9963, 10.000771 
1.7148729e+3, 2.948348e+2, -656028.8, -244466.28, -35658.29, 0.11723268, 0.10421541, -241399.66, -190767.36, 0.0, 9.995413, 10.000863 
1.7148486e+3, 3.048365e+2, -591243.7, -26217.844, -41493.03, 0.0032885168, 0.12235177, -23187.035, -23187.035, 0.0, 9.994824, 10.002314 
1.7148249e+3, 3.1483862e+2, -633077.2, -35159.22, 27876.547, -0.03708189, 0.1067225, -33862.35, -33862.35, 0.0, 9.99449, 10.002411 
1.7252713e+3, 1.24877214e+2, -1007220.94, -1775891.9, 81141.445, -0.057428036, 0.09416533, -998748.94, 717460.94, 0.05922134, 10.007, 9.996207 
1.7252448e+3, 1.3487373e+2, -964726.44, -1668433.6, -88720.195, -0.17281945, 0.08035026, -953713.4, 664532.56, 0.03827999, 10.006281, 9.996628 
1.7252225e+3, 1.4487097e+2, -935462.7, -1501575.3, 8914.505, 0.039447688, 0.09988139, -935322.4, 584950.56, 0.019157078, 10.005241, 9.997595 
1.7251988e+3, 1.5486833e+2, -1008373.5, -1484577.1, 13847.064, -0.07007125, 0.070485555, -1007971.25, 414325.25, 0.0063599474, 10.003986, 9.997641 
1.7251752e+3, 1.6486588e+2, -983561.1, -1393755.3, -21060.963, -0.12003633, 0.052630503, -982482.6, 341836.97, 0.001024785, 10.003341, 9.997903 
1.7251524e+3, 1.7486371e+2, -887439.94, -1296139.0, -18892.486, -0.04629289, 0.04283395, -886568.5, 339772.78, 0.00003215152, 10.003323, 9.997909 
1.7251292e+3, 1.8486188e+2, -826863.3, -1177127.6, -25828.441, -0.01656217, 0.05716808, -824969.0, 303390.88, 0.0, 10.002896, 9.998258 
1.725105e+3, 1.9486049e+2, -852811.7, -1137488.1, -15453.418, -0.0548992, 0.08882581, -851975.25, 178399.28, 0.0, 10.00204, 9.99827 
1.7250814e+3, 2.0485929e+2, -807527.9, -975978.9, -25051.578, -0.048361946, 0.107177846, -803881.2, 128505.414, 0.0, 10.001296, 9.999064 
1.725058e+3, 2.1485835e+2, -798910.06, -918720.44, -39520.23, 0.013711296, 0.10374986, -787048.44, 47346.586, 0.0, 10.000673, 9.999084 
1.7250341e+3, 2.2485727e+2, -791392.7, -867119.3, -41833.395, 0.035621468, 0.0938768, -772832.0, -36426.324, 0.0, 10.000064, 9.99906 
1.7250098e+3, 2.3485613e+2, -781267.5, -810025.5, -22391.652, 0.011797754, 0.070342705, -769035.56, -130617.7, 0.0, 9.9994545, 9.999071 
1.7249857e+3, 2.4485551e+2, -716854.75, -632779.75, -18736.893, 0.00030767368, 0.06600585, -628793.1, -88368.89, 0.0, 9.998814, 9.999924 
1.7249617e+3, 2.5485554e+2, -715400.7, -579057.94, -34007.434, 0.0037687295, 0.070296675, -571046.3, -128622.33, 0.0, 9.998141, 9.999943 
1.724938e+3, 2.6485562e+2, -694601.75, -485689.16, -15506.271, 0.010884363, 0.075112656, -484544.5, -140121.16, 0.0, 9.997471, 10.000235 
1.7249145e+3, 2.7485588e+2, -692517.75, -432625.94, -6627.415, 0.019564677, 0.07923483, -432457.03, -186036.17, 0.0, 9.996807, 10.000245 
1.724891e+3, 2.8485662e+2, -664226.56, -309072.28, -2885.4688, 0.048444595, 0.104312606, -309048.8, -160633.53, 0.0, 9.996075, 10.000772 
1.724868e+3, 2.9485768e+2, -678513.6, -257720.72, -22220.717, 0.10366159, 0.1282137, -256550.56, -206143.31, 0.0, 9.995272, 10.000839 
1.7248434e+3, 3.048586e+2, -613627.1, -59175.438, -34101.5, 0.0081871655, 0.07456074, -57085.902, -57085.902, 0.0, 9.994767, 10.002114 
1.7248197e+3, 3.1486145e+2, -635669.25, -51086.02, 29768.814, -0.018707141, 0.1523815, -49574.008, -49574.008, 0.0, 9.994537, 10.002278 
1.7352779e+3, 1.24899976e+2, -980034.1, -1706439.6, 71115.58, -0.092812024, 0.093490645, -973137.3, 742850.9, 0.06278199, 10.006983, 9.996694 
1.735251e+3, 1.348967e+2, -947778.44, -1625039.4, -115091.14, -0.17482367, 0.06880868, -928754.7, 689264.94, 0.040801004, 10.006265, 9.996937 
1.7352273e+3, 1.4489391e+2, -950795.56, -1531160.9, -37469.65, -0.006422156, 0.08115284, -948386.44, 571659.6, 0.020608556, 10.005236, 9.997394 
1.7352033e+3, 1.5489095e+2, -1019011.0, -1512900.5, -31344.354, -0.017699987, 0.04007067, -1017029.7, 405044.28, 0.0069545982, 10.004012, 9.997436 
1.7351791e+3, 1.648886e+2, -977677.1, -1386649.3, -21811.791, -0.0551252, 0.040002804, -976517.1, 347579.75, 0.0011568551, 10.003361, 9.997943 
1.7351556e+3, 1.7488693e+2, -884797.56, -1290383.1, -18206.787, -0.059435688, 0.07504101, -883981.9, 342131.97, 0.00004011834, 10.00332, 9.997951 
1.7351317e+3, 1.8488513e+2, -810874.6, -1141400.0, -57062.125, -0.046023972, 0.07825667, -801300.7, 326830.72, 0.0, 10.002884, 9.99851 
1.7351073e+3, 1.9488333e+2, -835267.7, -1101054.5, -46393.89, -0.03462914, 0.043438777, -827402.25, 202746.36, 0.0, 10.002038, 9.998523 
1.7350829e+3, 2.0488186e+2, -832905.5, -1028787.4, -48559.113, -0.020785917, 0.040947754, -821528.44, 110634.76, 0.0, 10.001294, 9.998704 
1.7350586e+3, 2.148808e+2, -824532.6, -972859.9, -61467.305, 0.0042696786, 0.061067086, -802371.4, 31803.19, 0.0, 10.000675, 9.998713 
1.735034e+3, 2.2487989e+2, -754230.4, -789630.9, -63957.164, 0.016929038, 0.061883897, -705569.4, 30614.152, 0.0, 10.000061, 9.999594 
1.7350094e+3, 2.3487929e+2, -743908.7, -732011.75, -43659.242, 0.013675959, 0.037414897, -693897.6, -55708.81, 0.0, 9.999451, 9.99961 
1.7349845e+3, 2.4487898e+2, -741429.7, -683304.94, -43336.516, -0.0028111427, 0.052366737, -660188.06, -119995.73, 0.0, 9.99881, 9.999579 
1.7349595e+3, 2.5487903e+2, -739887.7, -630676.25, -57644.938, -0.03125918, 0.09490291, -605879.7, -163686.02, 0.0, 9.998142, 9.999589 
1.7349352e+3, 2.6487896e+2, -673165.5, -442076.84, -39426.71, -0.007123135, 0.09026055, -435535.3, -91340.7, 0.0, 9.997473, 10.000534 
1.7349118e+3, 2.7487907e+2, -669990.2, -387930.75, -29672.91, 0.06866493, 0.04179863, -384842.94, -138649.78, 0.0, 9.996815, 10.000549 
1.7348874e+3, 2.848801e+2, -682876.7, -350211.16, -32121.428, 0.070507266, 0.097813, -347137.97, -198953.8, 0.0, 9.996083, 10.000488 
1.7348623e+3, 2.9488185e+2, -701881.75, -307780.6, -49715.453, 0.0040290467, 0.22228743, -301605.8, -251435.94, 0.0, 9.9952755, 10.000496 
1.7348379e+3, 3.048813e+2, -657370.5, -150542.36, -42955.832, -0.016933214, 0.07524028, -146927.45, -146927.45, 0.0, 9.994769, 10.001487 
1.7348155e+3, 3.1488326e+2, -637460.6, -56601.35, 44855.242, 0.113849476, 0.12051768, -53157.94, -53157.94, 0.0, 9.994546, 10.002236 
1.7452848e+3, 1.2492375e+2, -1001195.56, -1686021.8, 132004.42, -0.097784884, 0.07418751, -976631.94, 739122.75, 0.06648259, 10.006716, 9.996971 
1.7452575e+3, 1.3492066e+2, -1000546.56, -1633844.8, -74495.914, -0.12504017, 0.053118218, -991901.5, 625881.7, 0.043433163, 10.00583, 9.997081 
1.7452323e+3, 1.4491777e+2, -959665.7, -1553473.9, 5437.799, -0.029384824, 0.057040952, -959615.9, 560194.6, 0.02213846, 10.005261, 9.997227 
1.7452079e+3, 1.5491474e+2, -877453.75, -1462831.4, 13010.542, -0.010214736, 0.025115438, -877164.7, 544675.5, 0.0075937174, 10.005077, 9.997264 
1.7451832e+3, 1.6491234e+2, -836919.8, -1315703.5, 23723.727, -0.036399603, 0.029059248, -835747.2, 488116.53, 0.0013044622, 10.004318, 9.997968 
1.7451589e+3, 1.7491065e+2, -933922.3, -1310998.5, 24799.91, -0.055277884, 0.06085794, -932298.25, 293582.0, 0.0000499099, 10.002971, 9.997975 
1.7451343e+3, 1.8490888e+2, -905995.06, -1177919.6, -13240.292, -0.045818202, 0.059984572, -905351.94, 222545.52, 0.0000000000000006446772, 10.0021925, 9.998591 
1.7451094e+3, 1.9490708e+2, -835427.7, -1091847.6, -16246.451, -0.026882825, 0.019734068, -834402.44, 195511.92, 0.0, 10.002, 9.998602 
1.7450842e+3, 2.0490564e+2, -790252.06, -997979.94, -13468.728, -0.016577467, 0.011411809, -789382.44, 142546.13, 0.0, 10.001545, 9.998793 
1.7450592e+3, 2.1490462e+2, -797801.44, -950265.7, 5917.8086, -0.007872733, 0.02714956, -797572.06, 36367.15, 0.0, 10.000818, 9.998797 
1.745034e+3, 2.2490384e+2, -749530.06, -790256.2, 825.68695, 0.0023583886, 0.03818528, -749513.3, -13566.141, 0.0, 10.000108, 9.999566 
1.7450088e+3, 2.3490344e+2, -751354.44, -738522.7, -23174.385, 0.011292365, 0.038187537, -720892.44, -82941.32, 0.0, 9.999414, 9.999581 
1.7449833e+3, 2.4490316e+2, -744711.6, -687538.44, -30106.156, 0.0035831272, 0.059219163, -674609.06, -134654.4, 0.0, 9.998801, 9.999553 
1.7449577e+3, 2.5490305e+2, -724391.75, -626094.5, -20856.234, -0.019252535, 0.08905116, -621852.4, -179894.94, 0.0, 9.998264, 9.99956 
1.7449327e+3, 2.6490295e+2, -671955.25, -446684.3, -11226.809, 0.0032932805, 0.08321849, -446126.2, -102167.12, 0.0, 9.997507, 10.000484 
1.7449084e+3, 2.749031e+2, -716632.44, -415810.84, -29939.611, 0.06801238, 0.045261677, -412860.0, -166902.52, 0.0, 9.99652, 10.000498 
1.7448834e+3, 2.849041e+2, -687596.0, -355916.56, -19212.1, 0.053871527, 0.10372842, -354807.44, -206858.78, 0.0, 9.996068, 10.000455 
1.7448577e+3, 2.9490575e+2, -581352.6, -259246.27, -18326.957, -0.02844378, 0.22288865, -258206.86, -208272.08, 0.0, 9.996147, 10.000407 
1.7448331e+3, 3.049048e+2, -613584.44, -172589.9, -15401.421, 0.015290679, 0.058487985, -172052.67, -172052.67, 0.0, 9.995256, 10.001101 
1.7448094e+3, 3.1490675e+2, -781206.06, -82817.77, 100258.38, 0.11470894, 0.13679762, -68709.984, -68709.984, 0.0, 9.993377, 10.00262 
1.7552918e+3, 1.2494857e+2, -1003324.44, -1680291.1, 98668.52, -0.07509794, 0.04551869, -989236.6, 726272.9, 0.07033963, 10.006693, 9.997027 
1.7552643e+3, 1.3494557e+2, -1001602.44, -1635981.9, -106683.945, -0.032384593, 0.034724735, -984141.9, 633395.2, 0.046181425, 10.00584, 9.997066 
1.7552374e+3, 1.4494254e+2, -969293.7, -1574293.8, -2116.7886, -0.037805375, 0.031339698, -969286.3, 550280.06, 0.023745848, 10.00527, 9.99708 
1.7552125e+3, 1.5493958e+2, -889783.7, -1485794.5, 7069.8555, -0.04706096, 0.022944173, -889699.8, 531896.2, 0.008275861, 10.005067, 9.997112 
1.7551872e+3, 1.64937e+2, -838436.3, -1316589.1, -26387.861, -0.06271965, 0.017480986, -836984.44, 486636.5, 0.0014674142, 10.004307, 9.997969 
1.755162e+3, 1.7493486e+2, -931919.3, -1310432.4, -24861.588, -0.037460674, 0.003471895, -930293.3, 295347.4, 0.000061555744, 10.002984, 9.997974 
1.7551367e+3, 1.8493307e+2, -909884.3, -1189663.0, -20419.816, -0.022380317, 0.0055080354, -908401.8, 219256.27, 0.0000000010737394, 10.002207, 9.998506 
1.7551112e+3, 1.949317e+2, -841204.25, -1105114.1, -22057.543, -0.03366529, 0.01647685, -839373.4, 190298.84, 0.0, 10.002003, 9.998511 
1.7550856e+3, 2.0493056e+2, -754567.7, -923367.44, -40207.266, -0.03667417, 0.017622221, -745479.8, 186203.2, 0.0, 10.001541, 9.999309 
1.7550598e+3, 2.1492973e+2, -761847.3, -875350.5, -20227.785, -0.024859002, 0.0016740541, -758350.2, 75339.29, 0.0, 10.000814, 9.999315 
1.7550339e+3, 2.2492902e+2, -791824.56, -877508.94, -24962.025, -0.011107848, 0.022123536, -785082.94, -49385.605, 0.0, 10.000103, 9.99897 
1.7550081e+3, 2.3492852e+2, -793784.5, -827249.75, -47683.664, 0.0023043295, 0.07161456, -759982.9, -122277.33, 0.0, 9.999415, 9.998973 
1.7549823e+3, 2.44928e+2, -724457.9, -645578.44, -49673.41, 0.017159576, 0.08565279, -621591.5, -81879.57, 0.0, 9.998799, 9.999843 
1.7549565e+3, 2.5492755e+2, -703198.06, -583015.0, -39166.53, 0.037161652, 0.052743338, -571377.8, -129661.92, 0.0, 9.998266, 9.999856 
1.7549306e+3, 2.6492745e+2, -700824.8, -508208.94, -47335.973, 0.038500115, 0.054564524, -497204.66, -153487.4, 0.0, 9.997511, 10.00006 
1.7549042e+3, 2.749279e+2, -746693.56, -479110.03, -65150.42, 0.013475264, 0.09095145, -464090.47, -218375.92, 0.0, 9.996522, 10.000064 
1.7548788e+3, 2.8492853e+2, -671201.94, -323125.97, -15389.895, -0.00448953, 0.12133145, -322446.84, -174737.13, 0.0, 9.996072, 10.000679 
1.7548542e+3, 2.9492927e+2, -565054.0, -232351.47, -13760.422, 0.004750848, 0.12243429, -231783.31, -182079.78, 0.0, 9.996175, 10.00058 
1.7548293e+3, 3.0492896e+2, -618925.1, -188421.78, -85633.016, 0.0996336, 0.026951507, -172013.6, -172013.6, 0.0, 9.995275, 10.000984 
1.7548014e+3, 3.1493205e+2, -739426.25, 10542.869, 31157.002, -0.027721377, 0.22309583, 11835.041, 11835.041, 0.0, 9.993346, 10.003277 
1.765298e+3, 1.24974124e+2, -1072072.9, -1718138.9, 108759.07, -0.08886162, 0.0394855, -1054255.6, 661002.3, 0.07436687, 10.006228, 9.996982 
1.7652707e+3, 1.349711e+2, -954523.06, -1614712.1, -89328.98, 0.018673224, 0.031540688, -942649.6, 674636.6, 0.04905088, 10.006214, 9.997028 
1.7652425e+3, 1.4496796e+2, -912336.44, -1543191.9, 14376.846, -0.062345117, 0.018118003, -912009.0, 607307.94, 0.02542956, 10.005671, 9.9971 
1.7652173e+3, 1.5496524e+2, -949087.75, -1512515.1, 34846.47, -0.048542783, 0.03347617, -946940.75, 474403.44, 0.008998607, 10.004654, 9.997127 
1.7651914e+3, 1.6496266e+2, -881323.0, -1339350.6, 1831.2852, -0.051057376, 0.027421603, -881315.7, 442053.34, 0.0016449586, 10.004025, 9.997945 
1.7651655e+3, 1.7496023e+2, -817229.1, -1257783.3, -202.55614, -0.030282985, -0.013460249, -817229.0, 408162.34, 0.00007487245, 10.003787, 9.997948 
1.7651393e+3, 1.8495832e+2, -780444.0, -1132054.3, 9368.16, -0.020097192, -0.015979754, -780194.56, 347214.88, 0.000000009428086, 10.0031185, 9.998461 
1.7651132e+3, 1.9495712e+2, -841724.6, -1110521.9, 9196.873, -0.035169616, 0.014965373, -841410.4, 188011.95, 0.0, 10.002024, 9.998463 
1.765087e+3, 2.0495605e+2, -801310.94, -946085.25, -24346.793, -0.040852245, 0.02561357, -797326.2, 134106.48, 0.0, 10.001223, 9.999305 
1.7650604e+3, 2.149552e+2, -775988.94, -881878.0, -44295.34, -0.031841658, 0.007681738, -759903.06, 73536.62, 0.0, 10.000719, 9.999315 
1.7650339e+3, 2.2495443e+2, -788089.25, -877749.9, -48591.68, -0.014101194, 0.02331547, -766806.7, -31358.682, 0.0, 10.00014, 9.998949 
1.7650075e+3, 2.3495382e+2, -786607.4, -826513.0, -29010.47, 0.010139688, 0.06551904, -771350.5, -133893.52, 0.0, 9.999478, 9.998946 
1.7649812e+3, 2.4495323e+2, -731009.4, -647664.3, -18600.523, 0.027638601, 0.073065296, -643701.56, -104237.62, 0.0, 9.998751, 9.999851 
1.7649548e+3, 2.5495273e+2, -746658.6, -602616.6, -31189.227, 0.041996814, 0.036466952, -596153.3, -154685.4, 0.0, 9.997964, 9.9998665 
1.7649281e+3, 2.6495266e+2, -718712.4, -536067.3, -38063.008, 0.038837533, 0.046246827, -528452.5, -184982.92, 0.0, 9.997474, 9.999886 
1.7649011e+3, 2.7495307e+2, -647913.06, -450731.38, -37482.94, 0.009881619, 0.096532375, -443846.5, -198378.45, 0.0, 9.997285, 9.999889 
1.7648748e+3, 2.849535e+2, -621204.44, -282193.97, 12496.519, -0.013653205, 0.10868963, -281733.94, -134268.78, 0.0, 9.996344, 10.000828 
1.7648494e+3, 2.94954e+2, -783078.3, -323874.53, 6551.9907, -0.007631671, 0.07413038, -323781.06, -274320.9, 0.0, 9.994623, 10.000698 
1.7648244e+3, 3.049544e+2, -802977.56, -290845.2, -59651.04, 0.14614286, 0.051540427, -283989.06, -283989.06, 0.0, 9.994073, 10.000858 
1.7647947e+3, 3.1495655e+2, -532808.6, 127738.32, 31928.896, -0.08734795, 0.16287832, 129278.08, 129278.08, 0.0, 9.994691, 10.003431 
1.7753038e+3, 1.2500055e+2, -1086909.1, -1742327.0, 83342.66, -0.12922423, 0.07029172, -1076477.4, 638521.3, 0.07858913, 10.006217, 9.996819 
1.775277e+3, 1.3499722e+2, -964045.9, -1629168.9, -90318.06, 0.027337609, 0.04063556, -951999.6, 665031.44, 0.0520526, 10.006205, 9.996935 
1.7752478e+3, 1.44994e+2, -902155.06, -1518009.8, -23659.93, -0.105523, 0.015237949, -901247.44, 617815.06, 0.027190434, 10.005662, 9.997278 
1.7752221e+3, 1.5499172e+2, -936582.44, -1488251.9, -2350.3225, -0.020207545, 0.056286994, -936572.44, 484512.53, 0.009759321, 10.0046625, 9.997291 
1.7751959e+3, 1.6498928e+2, -884467.8, -1347558.3, -7394.252, -0.008877515, 0.058325414, -884349.8, 438758.56, 0.0018359896, 10.004032, 9.997887 
1.7751691e+3, 1.7498666e+2, -822297.44, -1267137.9, -8384.054, -0.035554305, 0.0074892538, -822139.44, 402993.22, 0.000089597095, 10.00378, 9.997888 
1.7751423e+3, 1.8498462e+2, -783360.3, -1136531.9, -31576.742, -0.0397862, -0.0060315733, -780559.3, 346592.72, 0.000000028818846, 10.003109, 9.998436 
1.7751153e+3, 1.9498329e+2, -843141.2, -1114028.5, -30861.07, -0.033775534, 0.014497749, -839669.8, 189495.38, 0.0, 10.002024, 9.998441 
1.7750882e+3, 2.0498204e+2, -837035.0, -1020987.5, -42788.85, -0.032871857, 0.03457693, -827569.06, 103609.0, 0.0, 10.001224, 9.998792 
1.7750612e+3, 2.1498096e+2, -812169.75, -957711.5, -61485.63, -0.031921413, 0.043962963, -789672.1, 43517.984, 0.0, 10.00072, 9.9987955 
1.7750342e+3, 2.2498001e+2, -749868.25, -798546.4, -72702.28, -0.009209003, 0.04196598, -697539.1, 37660.55, 0.0, 10.000138, 9.999495 
1.7750072e+3, 2.349793e+2, -748241.6, -747034.3, -52259.5, 0.03329703, 0.02003353, -695375.0, -58169.09, 0.0, 9.999476, 9.999495 
1.7749798e+3, 2.4497879e+2, -751157.25, -689649.56, -47367.836, 0.03224904, 0.020491013, -663927.6, -124716.414, 0.0, 9.99875, 9.999565 
1.7749521e+3, 2.5497857e+2, -767205.06, -646181.1, -59180.902, -0.009012548, 0.039070435, -622052.25, -180837.98, 0.0, 9.997965, 9.999568 
1.7749251e+3, 2.6497847e+2, -712434.0, -524756.4, -44193.938, 0.00096851663, 0.057508122, -514870.44, -171653.61, 0.0, 9.997479, 9.999962 
1.7748988e+3, 2.749785e+2, -639426.56, -437566.6, -42105.902, 0.053861566, 0.061161593, -429135.84, -183917.14, 0.0, 9.997302, 9.999973 
1.7748715e+3, 2.849789e+2, -614513.75, -270985.47, -52287.945, 0.022276375, 0.065181285, -263203.1, -115987.484, 0.0, 9.996353, 10.000901 
1.7748433e+3, 2.9497996e+2, -781373.8, -316601.03, -57706.227, -0.0694996, 0.08063616, -309543.4, -260338.44, 0.0, 9.994604, 10.000758 
1.7748185e+3, 3.0498108e+2, -813630.5, -309555.6, -32087.28, 0.15159385, 0.13138808, -307521.28, -307521.28, 0.0, 9.994057, 10.000738 
1.77479e+3, 3.1498128e+2, -560719.0, 60769.72, 20850.98, -0.045553718, 0.06404505, 61468.484, 61468.484, 0.0, 9.994728, 10.002954 
1.7853102e+3, 1.2502682e+2, -1089063.4, -1737859.5, 67320.375, -0.10411343, 0.059536073, -1082151.8, 632590.2, 0.08304492, 10.006209, 9.99685 
1.7852832e+3, 1.3502386e+2, -985334.1, -1623412.5, -62014.07, 0.03954583, 0.05644352, -979362.94, 637407.8, 0.055203177, 10.006005, 9.997066 
1.785253e+3, 1.4502074e+2, -908619.25, -1511361.0, -14616.414, -0.15528445, 0.030836314, -908265.0, 610536.1, 0.029032713, 10.005589, 9.997358 
1.7852272e+3, 1.5501837e+2, -885857.1, -1455178.9, -2196.1497, -0.0031088516, 0.055409253, -885848.7, 534975.44, 0.010557775, 10.004986, 9.997359 
1.7852004e+3, 1.6501597e+2, -856269.2, -1338631.1, -1454.7059, 0.027438017, 0.061099365, -856264.8, 466582.47, 0.0020400672, 10.004249, 9.997843 
1.7851727e+3, 1.7501353e+2, -883789.75, -1301619.6, -2611.4417, -0.03161524, 0.03309833, -883773.44, 341097.1, 0.00010559814, 10.003382, 9.997842 
1.785145e+3, 1.8501152e+2, -843457.94, -1159851.0, -31209.938, -0.043193277, 0.020957032, -840408.7, 286481.03, 0.0000000562377, 10.002676, 9.998482 
1.7851174e+3, 1.9501002e+2, -823111.25, -1099135.3, -27045.4, -0.019735549, 0.021579541, -820486.25, 208417.27, 0.0, 10.002142, 9.998484 
1.7850897e+3, 2.0500864e+2, -804878.1, -1016805.7, -14561.662, -0.0136092, 0.030911148, -803882.25, 127035.36, 0.0, 10.001495, 9.998688 
1.785062e+3, 2.1500742e+2, -817420.56, -972303.4, -4191.736, -0.02028844, 0.040228225, -817307.2, 15623.962, 0.0, 10.000737, 9.998686 
1.7850342e+3, 2.250065e+2, -742331.8, -778074.6, -12026.921, -0.010025265, 0.036642298, -738661.8, -3721.2786, 0.0, 10.000118, 9.999645 
1.7850065e+3, 2.3500589e+2, -713544.3, -712600.5, -22887.053, 0.015284719, 0.009711825, -690180.5, -53235.574, 0.0, 9.99964, 9.999651 
1.7849785e+3, 2.450054e+2, -705152.9, -672405.5, -28227.867, 0.0128145, 0.00938014, -656146.25, -117196.62, 0.0, 9.999088, 9.999519 
1.7849502e+3, 2.5500518e+2, -699632.9, -619554.7, -22661.277, -0.013790301, 0.033118088, -613586.6, -172633.45, 0.0, 9.998455, 9.999515 
1.7849226e+3, 2.6500517e+2, -706584.56, -514402.88, 1295.9568, 0.009481661, 0.05935145, -514394.13, -171438.9, 0.0, 9.997487, 10.00003 
1.7848958e+3, 2.750053e+2, -795776.9, -505265.3, 1657.7526, 0.07405076, 0.06907866, -505255.88, -260299.95, 0.0, 9.996197, 10.000041 
1.7848675e+3, 2.8500566e+2, -726031.5, -333127.47, -18100.879, 0.025704015, 0.06661522, -332295.34, -185341.78, 0.0, 9.9956255, 10.000825 
1.7848381e+3, 2.9500657e+2, -616907.8, -241709.02, -37532.688, -0.10764431, 0.076514006, -237991.3, -189047.02, 0.0, 9.995752, 10.000719 
1.784813e+3, 3.0500802e+2, -653887.4, -223751.33, 13715.949, 0.14739296, 0.15680796, -223314.4, -223314.4, 0.0, 9.995115, 10.000817 
1.7847842e+3, 3.1500772e+2, -751721.6, -86335.74, 28189.834, -0.02672639, 0.03437869, -85143.586, -85143.586, 0.0, 9.993658, 10.002458 
1.7953172e+3, 1.2505302e+2, -1079620.0, -1707678.3, 23771.14, -0.021709561, 0.015709044, -1078721.5, 635764.75, 0.08777298, 10.0062, 9.997064 
1.7952894e+3, 1.3505104e+2, -966675.56, -1579148.6, -67443.06, 0.052918825, 0.07822216, -959336.94, 657168.3, 0.058521446, 10.006002, 9.997385 
1.795258e+3, 1.4504816e+2, -912464.56, -1516267.3, -36232.992, -0.21355955, 0.06312298, -910298.06, 608234.9, 0.030964756, 10.005584, 9.997327 
1.7952321e+3, 1.5504521e+2, -888798.5, -1460799.5, -22769.98, -0.00025281167, 0.032820918, -887893.5, 532668.06, 0.0113980295, 10.004986, 9.997322 
1.7952049e+3, 1.6504276e+2, -859366.25, -1345115.1, -33269.72, 0.054532047, 0.038640585, -857098.2, 465487.4, 0.0022584517, 10.004248, 9.9978 
1.7951761e+3, 1.7504081e+2, -886389.5, -1307463.4, -33544.67, -0.020906363, 0.06318512, -883733.94, 340871.25, 0.00012299688, 10.003382, 9.997803 
1.7951477e+3, 1.8503895e+2, -836268.56, -1145551.9, -50507.613, -0.03477358, 0.06377941, -828229.4, 298393.6, 0.000000085167756, 10.002676, 9.998582 
1.7951198e+3, 1.9503728e+2, -815923.3, -1085241.5, -45384.67, 0.0035175965, 0.0362557, -808480.9, 220156.9, 0.0, 10.002144, 9.998579 
1.7950915e+3, 2.0503578e+2, -784971.0, -975785.6, -42255.867, 0.014296517, 0.016241016, -776032.2, 154619.36, 0.0, 10.001494, 9.998972 
1.7950629e+3, 2.1503457e+2, -797591.75, -931509.8, -30820.17, 0.0017819392, -0.003594819, -790839.25, 41824.12, 0.0, 10.000736, 9.998968 
1.7950341e+3, 2.2503379e+2, -759999.0, -815240.06, -29258.973, -0.018867647, 0.0060072215, -747383.0, -12711.607, 0.0, 10.000117, 9.999391 
1.7950055e+3, 2.3503348e+2, -731280.9, -750412.56, -39257.65, -0.04820767, 0.034247775, -700440.44, -63765.64, 0.0, 9.999641, 9.9993925 
1.7949772e+3, 2.4503304e+2, -690829.06, -643186.4, -51135.164, -0.033937152, 0.040600605, -610596.2, -71916.48, 0.0, 9.999088, 9.999722 
1.794949e+3, 2.5503257e+2, -684628.7, -589881.7, -44534.582, 0.026527526, 0.020134239, -572235.4, -131550.4, 0.0, 9.998459, 9.999718 
1.7949207e+3, 2.650327e+2, -702011.7, -506462.1, -46311.543, 0.06288538, 0.051212933, -496048.75, -153363.58, 0.0, 9.997491, 10.000083 
1.7948918e+3, 2.7503347e+2, -793247.9, -500064.97, -44657.86, 0.06610169, 0.11739069, -493413.56, -248733.27, 0.0, 9.996194, 10.000079 
1.7948627e+3, 2.850337e+2, -742982.4, -368821.03, -11190.49, -0.007220899, 0.11291828, -368486.63, -221807.13, 0.0, 9.995626, 10.000581 
1.7948337e+3, 2.950338e+2, -624708.2, -264630.97, -29186.37, -0.12976317, 0.06630758, -262280.6, -213602.33, 0.0, 9.995779, 10.000549 
1.7948078e+3, 3.0503508e+2, -629723.3, -179333.27, -40114.492, 0.12137597, 0.1189853, -175788.31, -175788.31, 0.0, 9.995138, 10.001112 
1.7947781e+3, 3.1503633e+2, -773300.8, -129982.14, -79824.51, -0.009515684, 0.12549713, -120225.305, -120225.305, 0.0, 9.99365, 10.002163 
1.8053234e+3, 1.2508115e+2, -1060374.8, -1693391.6, 53287.016, -0.030796139, 0.041963574, -1055920.5, 658291.3, 0.09280529, 10.006356, 9.997096 
1.8052958e+3, 1.3507889e+2, -968477.75, -1566454.1, -9764.403, 0.10340078, 0.06486993, -968318.3, 647914.0, 0.06202982, 10.005952, 9.997502 
1.8052636e+3, 1.4507607e+2, -918146.94, -1517022.4, 11588.266, -0.18649994, 0.048988696, -917922.8, 600336.44, 0.032999795, 10.0055485, 9.997336 
1.8052371e+3, 1.5507326e+2, -867652.0, -1449703.9, 26997.61, -0.010557913, 0.03453537, -866402.44, 553884.44, 0.012287133, 10.0051365, 9.997324 
1.8052089e+3, 1.6507088e+2, -838385.2, -1333195.3, 3936.0364, 0.037866525, 0.04619433, -838353.9, 483956.7, 0.002493694, 10.004391, 9.99781 
1.8051794e+3, 1.7506893e+2, -892961.1, -1309031.4, 5725.842, -0.020699011, 0.068957135, -892882.3, 331447.94, 0.00014217863, 10.003333, 9.997813 
1.8051504e+3, 1.8506703e+2, -850256.44, -1148779.5, 5580.9536, -0.028145093, 0.06492153, -850152.1, 276196.2, 0.00000010953618, 10.002567, 9.9986105 
1.8051219e+3, 1.950653e+2, -821320.94, -1084219.8, 4349.514, 0.0071827, 0.030483713, -821249.0, 207114.58, 0.0, 10.002094, 9.998609 
1.8050928e+3, 2.0506388e+2, -773607.25, -957482.2, -8706.961, 0.018789152, 0.01011466, -773195.9, 157180.47, 0.0, 10.00152, 9.9990835 
1.8050638e+3, 2.1506283e+2, -773878.6, -907010.94, -11619.078, 0.009480339, -0.0044287713, -772872.2, 59513.563, 0.0, 10.000846, 9.999081 
1.8050344e+3, 2.2506206e+2, -767334.0, -831804.8, -6925.8657, -0.010228882, 0.008209214, -766598.4, -32204.703, 0.0, 10.000126, 9.999272 
1.805005e+3, 2.3506166e+2, -781181.8, -787832.25, -7788.4395, -0.04090967, 0.03938142, -776038.44, -139639.27, 0.0, 9.999357, 9.999271 
1.804976e+3, 2.4506128e+2, -755950.9, -660111.7, -19964.88, -0.03094854, 0.052808266, -656119.0, -117715.18, 0.0, 9.998578, 9.999851 
1.8049471e+3, 2.5506103e+2, -773393.2, -617480.2, -20224.107, 0.02165351, 0.04164103, -614899.56, -174493.05, 0.0, 9.997786, 9.999852 
1.8049179e+3, 2.650612e+2, -732707.25, -522663.66, -29088.95, 0.050723035, 0.06771504, -518709.56, -176303.05, 0.0, 9.997288, 10.00007 
1.8048882e+3, 2.7506173e+2, -669325.8, -442371.63, -33890.832, 0.05091325, 0.11565986, -437418.84, -193015.2, 0.0, 9.997053, 10.000061 
1.8048586e+3, 2.8506204e+2, -650969.25, -319965.4, 17274.418, -0.0042403364, 0.11863363, -319066.3, -172664.08, 0.0, 9.996238, 10.000621 
1.8048292e+3, 2.950625e+2, -745573.44, -312244.16, 20785.602, -0.094780914, 0.10141458, -311249.44, -262851.34, 0.0, 9.994905, 10.000643 
1.8048021e+3, 3.050635e+2, -741818.56, -210567.28, 9156.92, 0.08325697, 0.10795136, -210409.48, -210409.48, 0.0, 9.994275, 10.001311 
1.804772e+3, 3.150659e+2, -682710.4, -77457.9, -82665.02, 0.00034121962, 0.21857853, -66370.66, -66370.66, 0.0, 9.994235, 10.002242 
1.8153287e+3, 1.2511106e+2, -1073144.0, -1711421.5, -5892.668, -0.12391762, 0.13082536, -1073089.6, 640830.4, 0.09816668, 10.00635, 9.996964 
1.8153024e+3, 1.3510737e+2, -975025.94, -1576658.4, -22132.049, 0.18081255, 0.019211212, -974212.9, 641739.75, 0.065753326, 10.005958, 9.997426 
1.8152702e+3, 1.4510444e+2, -917058.8, -1512386.8, -3431.334, -0.08960389, -0.006632808, -917039.06, 600941.2, 0.035154685, 10.0055485, 9.997372 
1.8152419e+3, 1.5510246e+2, -868262.94, -1447114.0, 12380.164, -0.035116307, 0.05888824, -867998.25, 552002.6, 0.0132331755, 10.005122, 9.99735 
1.8152127e+3, 1.6510022e+2, -836378.0, -1327247.9, -35770.51, -0.0223031, 0.08124672, -833785.06, 488238.13, 0.0027487818, 10.00438, 9.997858 
1.8151826e+3, 1.750978e+2, -888161.25, -1301495.4, -32512.676, -0.033289723, 0.05200474, -885619.44, 338427.0, 0.00016371603, 10.00334, 9.997863 
1.8151529e+3, 1.8509568e+2, -852875.56, -1156321.0, -11679.638, -0.026909325, 0.027960923, -852426.7, 273639.6, 0.00000012908751, 10.002575, 9.998556 
1.8151237e+3, 1.9509402e+2, -824206.44, -1091579.9, -11988.071, -0.008949123, 0.0039750594, -823670.0, 204411.58, 0.0, 10.002098, 9.998558 
1.8150942e+3, 2.050928e+2, -778076.06, -967456.1, -33435.85, -0.0015104469, 0.010929897, -772346.2, 157746.53, 0.0, 10.00152, 9.999016 
1.8150644e+3, 2.1509211e+2, -778397.75, -917406.1, -35333.504, -0.0009092791, 0.03736532, -769932.1, 62166.836, 0.0, 10.000847, 9.999011 
1.8150346e+3, 2.2509125e+2, -766712.75, -830159.94, -35112.582, 0.012410078, 0.044172168, -751115.3, -17007.258, 0.0, 10.000122, 9.999287 
1.8150051e+3, 2.3509035e+2, -779741.7, -785783.6, -34806.336, 0.037127808, 0.024264434, -747825.44, -111706.61, 0.0, 9.999359, 9.999287 
1.814975e+3, 2.4509005e+2, -752289.6, -653471.7, -48886.223, 0.020305352, 0.04363761, -633374.5, -95251.695, 0.0, 9.99858, 9.999897 
1.8149441e+3, 2.550905e+2, -770276.75, -611911.94, -48021.78, -0.035158806, 0.09677937, -598487.94, -158369.28, 0.0, 9.9977865, 9.999891 
1.8149143e+3, 2.650905e+2, -738042.3, -534652.56, -36606.277, -0.032670695, 0.108731285, -528264.75, -186144.72, 0.0, 9.99729, 9.999988 
1.814885e+3, 2.7509007e+2, -672728.56, -452724.4, -41175.383, 0.02382849, 0.06432251, -445270.66, -201144.14, 0.0, 9.997066, 9.999986 
1.8148552e+3, 2.8509063e+2, -623722.4, -268361.94, -32669.771, 0.032427166, 0.08342703, -265383.4, -119261.14, 0.0, 9.996255, 10.000969 
1.8148251e+3, 2.9509258e+2, -717969.1, -258246.67, -25792.744, -0.00075416337, 0.18063454, -256804.1, -208699.95, 0.0, 9.994915, 10.001012 
1.8147957e+3, 3.0509314e+2, -738743.4, -203380.83, 9770.917, 0.029909855, 0.121336326, -203202.56, -203202.56, 0.0, 9.994272, 10.001362 
1.8147656e+3, 3.150949e+2, -641248.4, 4394.141, -97374.36, -0.05526222, 0.16403838, 18760.264, 18760.264, 0.0, 9.994249, 10.002799 
1.8253355e+3, 1.2514071e+2, -1054459.4, -1694091.8, -22161.0, -0.099962145, 0.146078, -1053692.5, 659938.44, 0.1038703, 10.006494, 9.997027 
1.8253085e+3, 1.3513704e+2, -913898.25, -1535786.6, 12460.6, 0.17340393, 0.028193945, -913648.7, 702013.5, 0.06970868, 10.006385, 9.997522 
1.8252759e+3, 1.4513421e+2, -898760.3, -1510201.1, 14012.455, -0.08154507, 0.011927725, -898439.4, 619249.25, 0.03744264, 10.005725, 9.9973 
1.8252468e+3, 1.5513217e+2, -957444.06, -1497880.3, 21912.578, -0.030271824, 0.0778117, -956557.06, 463153.63, 0.014242748, 10.00454, 9.99728 
1.8252169e+3, 1.6512981e+2, -905600.4, -1349851.9, -19694.176, -0.012827211, 0.088066235, -904729.0, 417004.9, 0.0030263602, 10.003861, 9.9979515 
1.8251863e+3, 1.7512725e+2, -835243.9, -1265455.1, -15237.656, -0.013364767, 0.036423076, -834704.8, 389052.56, 0.00018819713, 10.003662, 9.997953 
1.8251559e+3, 1.851252e+2, -783953.0, -1129502.3, 3377.2507, -0.011379299, 0.01653485, -783920.0, 341856.63, 0.00000015151502, 10.003078, 9.998496 
1.8251257e+3, 1.9512376e+2, -823597.3, -1097710.5, 1128.8157, -0.012926482, 0.022370134, -823592.7, 204197.84, 0.0, 10.002132, 9.998497 
1.8250954e+3, 2.0512255e+2, -799913.2, -976246.5, -14285.358, -0.012140725, 0.03088899, -798763.4, 131038.516, 0.0, 10.001365, 9.999029 
1.825065e+3, 2.1512161e+2, -789363.6, -920732.5, -11716.049, -0.0063728453, 0.033395343, -788326.94, 43483.17, 0.0, 10.000767, 9.999025 
1.8250348e+3, 2.2512072e+2, -774536.6, -836519.1, -13984.942, 0.0120155625, 0.038671996, -771527.3, -37707.92, 0.0, 10.000081, 9.999263 
1.8250045e+3, 2.3511998e+2, -789366.6, -791981.94, -17927.162, 0.042244405, 0.037063185, -772699.5, -136870.56, 0.0, 9.999304, 9.9992695 
1.8249737e+3, 2.4511969e+2, -731366.1, -639957.75, -27426.85, 0.026282772, 0.055006932, -632359.94, -94527.06, 0.0, 9.998712, 9.999925 
1.8249422e+3, 2.5511995e+2, -695718.75, -573005.8, -28739.191, -0.034067284, 0.08803909, -566608.6, -126778.48, 0.0, 9.998287, 9.999916 
1.8249115e+3, 2.6511994e+2, -694474.56, -496914.63, -10031.06, -0.042666934, 0.09043629, -496406.6, -154575.34, 0.0, 9.997518, 10.000136 
1.8248814e+3, 2.7511966e+2, -757360.6, -476800.4, 770.2677, 0.0007980698, 0.048504863, -476798.28, -232962.5, 0.0, 9.996415, 10.000133 
1.824851e+3, 2.851205e+2, -707433.5, -298915.9, -2044.7179, 0.031593986, 0.0789913, -298905.7, -153076.16, 0.0, 9.995641, 10.001055 
1.8248205e+3, 2.9512262e+2, -677873.94, -227374.78, -16842.88, 0.046336662, 0.18725736, -226745.95, -178935.8, 0.0, 9.995142, 10.001114 
1.8247895e+3, 3.0512324e+2, -727402.56, -178059.72, 27800.379, -0.017769521, 0.12160129, -176656.42, -176656.42, 0.0, 9.994267, 10.001536 
1.8247597e+3, 3.1512484e+2, -746703.3, 25117.44, -55376.89, -0.0095796585, 0.13365114, 29070.396, 29070.396, 0.0, 9.9932165, 10.00344 
1.835343e+3, 1.2517019e+2, -1045172.56, -1666105.0, -61029.656, 0.0071063805, 0.0971259, -1039231.0, 674112.8, 0.10991182, 10.006493, 9.997246 
1.835314e+3, 1.3516785e+2, -903405.56, -1506288.8, 10011.076, 0.087730736, 0.08815771, -903239.4, 712122.3, 0.07389721, 10.006376, 9.997747 
1.8352808e+3, 1.451653e+2, -911872.4, -1535627.6, -28626.543, -0.15513779, 0.09856389, -910561.4, 606824.0, 0.03986904, 10.005724, 9.997127 
1.8352516e+3, 1.5516235e+2, -966018.4, -1520203.1, -19518.588, -0.0023652397, 0.09063705, -965331.75, 454084.8, 0.015320166, 10.0045595, 9.997119 
1.8352214e+3, 1.6515966e+2, -895348.2, -1332145.4, -26269.125, 0.055531316, 0.06828317, -893774.0, 427668.75, 0.0033286698, 10.003876, 9.998067 
1.8351904e+3, 1.7515725e+2, -827389.9, -1249674.3, -21655.863, 0.03482816, 0.021294866, -826282.25, 397181.44, 0.00021621921, 10.003662, 9.998063 
1.8351592e+3, 1.851555e+2, -789609.06, -1141098.0, -31526.578, 0.014495604, 0.029342929, -786803.7, 338676.34, 0.00000018976193, 10.003075, 9.99842 
1.8351279e+3, 1.9515447e+2, -828182.9, -1109038.0, -32563.504, -0.008468438, 0.08437405, -824456.8, 203034.08, 0.0, 10.002137, 9.998419 
1.8350968e+3, 2.0515302e+2, -793615.2, -964252.94, -35831.34, -0.016341127, 0.06976148, -786396.5, 143108.02, 0.0, 10.001368, 9.999112 
1.8350658e+3, 2.1515127e+2, -782820.44, -908630.2, -32372.316, -0.008183471, -0.018048856, -774979.4, 56540.45, 0.0, 10.00077, 9.999109 
1.8350345e+3, 2.251504e+2, -779478.9, -847177.2, -42456.855, -0.013300409, -0.010162991, -759029.3, -25500.848, 0.0, 10.00008, 9.99919 
1.835003e+3, 2.3515052e+2, -794281.06, -802716.6, -45173.848, -0.030212618, 0.07852955, -753128.5, -117598.484, 0.0, 9.999303, 9.999197 
1.8349719e+3, 2.4515009e+2, -731319.1, -639498.3, -42332.598, -0.016032966, 0.087497674, -622960.25, -85425.375, 0.0, 9.998709, 9.99993 
1.8349412e+3, 2.5514928e+2, -693509.0, -570236.5, -42920.938, 0.02513437, 0.01370924, -556764.6, -117222.79, 0.0, 9.998293, 9.999934 
1.8349096e+3, 2.651494e+2, -667176.44, -442942.6, -50796.23, 0.020749332, 0.010920308, -431972.3, -90431.23, 0.0, 9.997525, 10.0005045 
1.8348776e+3, 2.7515048e+2, -732064.94, -425637.4, -38267.13, -0.022526003, 0.06865345, -420930.84, -177398.9, 0.0, 9.996417, 10.000484 
1.8348463e+3, 2.8515142e+2, -721304.7, -328185.2, -19557.053, -0.012997836, 0.10333352, -327214.66, -181689.78, 0.0, 9.995641, 10.0008545 
1.8348156e+3, 2.951524e+2, -689950.94, -255264.7, -35724.188, 0.03472132, 0.114681266, -252348.33, -204830.69, 0.0, 9.995152, 10.000917 
1.8347833e+3, 3.051538e+2, -705204.06, -133927.84, -15700.591, -0.060442895, 0.11876119, -133496.66, -133496.66, 0.0, 9.994273, 10.001839 
1.8347536e+3, 3.1515563e+2, -719040.9, 79134.89, -47243.824, 0.039816648, 0.123396926, 81921.51, 81921.51, 0.0, 9.993223, 10.003812 
1.84535e+3, 1.2520146e+2, -990497.5, -1659420.5, -14308.406, 0.03302447, 0.08747737, -990191.56, 722845.06, 0.116269864, 10.007062, 9.997025 
1.84532e+3, 1.3519903e+2, -931115.0, -1537862.8, 59224.883, 0.053535577, 0.08707537, -925388.06, 689668.56, 0.078311, 10.006289, 9.997556 
1.8452866e+3, 1.4519645e+2, -914384.06, -1541971.4, 3332.8818, -0.13444713, 0.10852371, -914366.4, 602714.44, 0.042435754, 10.005746, 9.99707 
1.8452565e+3, 1.5519328e+2, -854579.5, -1471650.0, 17635.758, 0.013871286, 0.084220625, -854075.9, 565037.94, 0.016469583, 10.005371, 9.997061 
1.8452257e+3, 1.6519055e+2, -792698.6, -1283454.5, 13230.63, 0.06494545, 0.06275958, -792342.2, 528798.06, 0.0036582127, 10.004591, 9.998056 
1.8451938e+3, 1.7518832e+2, -859833.7, -1266366.5, 8584.173, 0.03143121, 0.03520064, -859652.5, 363506.94, 0.00024859162, 10.003447, 9.998051 
1.8451619e+3, 1.8518655e+2, -848877.94, -1170287.8, -2230.939, 0.011008684, 0.04213717, -848862.5, 276313.5, 0.00000025167606, 10.002673, 9.998411 
1.8451302e+3, 1.951853e+2, -812755.5, -1102128.5, -323.50607, -0.000055394015, 0.076578714, -812755.1, 214433.67, 0.0, 10.002249, 9.998411 
1.8450983e+3, 2.0518386e+2, -764159.9, -957914.1, -8054.081, -0.0073577673, 0.06808907, -763825.7, 165377.05, 0.0, 10.001606, 9.99904 
1.8450665e+3, 2.1518235e+2, -789691.9, -919250.44, -17032.295, -0.009597449, 0.011294919, -787490.2, 43726.49, 0.0, 10.000757, 9.999041 
1.8450344e+3, 2.2518148e+2, -774029.25, -828214.44, -22195.193, -0.020977562, 0.013654853, -766098.5, -32873.344, 0.0, 10.000051, 9.999333 
1.8450023e+3, 2.3518132e+2, -760213.75, -770696.06, -10623.657, -0.039940737, 0.06429484, -753608.75, -118381.21, 0.0, 9.999472, 9.999334 
1.8449704e+3, 2.4518088e+2, -735477.25, -637550.6, 226.27583, -0.02146111, 0.06188583, -637550.1, -100317.92, 0.0, 9.998665, 9.999965 
1.8449391e+3, 2.551802e+2, -785927.25, -609581.06, 108.31789, 0.030896902, -0.00022600175, -609581.0, -170342.88, 0.0, 9.99764, 9.999976 
1.8449068e+3, 2.6518053e+2, -755001.7, -473148.06, -20636.764, 0.031610202, 0.009900906, -471645.1, -130409.53, 0.0, 9.996875, 10.000608 
1.844874e+3, 2.751819e+2, -734457.56, -415604.4, -28327.83, -0.01249041, 0.082325436, -413107.22, -169883.28, 0.0, 9.996356, 10.000581 
1.844842e+3, 2.8518268e+2, -701792.2, -314402.1, -1741.6327, -0.014188271, 0.09985895, -314394.28, -169176.69, 0.0, 9.995758, 10.000891 
1.8448102e+3, 2.9518324e+2, -708171.4, -259834.38, -5404.563, 0.014671959, 0.06372223, -259769.23, -212555.16, 0.0, 9.995012, 10.000952 
1.8447773e+3, 3.0518508e+2, -716355.25, -135291.58, 4134.7715, -0.073571615, 0.11503829, -135262.16, -135262.16, 0.0, 9.9941845, 10.001869 
1.8447469e+3, 3.1518614e+2, -685699.0, 69197.62, -493.16782, 0.052390605, 0.037634503, 69197.945, 69197.945, 0.0, 9.993565, 10.003578 
1.8553564e+3, 1.252344e+2, -1029523.3, -1739084.1, -61090.453, -0.033052348, 0.112209246, -1024302.06, 688409.56, 0.12291191, 10.007087, 9.996425 
1.8553261e+3, 1.3523054e+2, -966396.2, -1610153.8, 35555.363, 0.059555292, 0.028173858, -964438.4, 650309.1, 0.0829419, 10.006313, 9.997006 
1.8552934e+3, 1.452277e+2, -913970.1, -1539349.4, -9752.432, -0.036819275, 0.046829496, -913818.06, 602956.94, 0.045147497, 10.005752, 9.9970875 
1.8552619e+3, 1.5522492e+2, -855823.44, -1471625.9, 4670.523, 0.016111666, 0.061889123, -855788.06, 563015.06, 0.017697977, 10.005363, 9.997066 
1.8552297e+3, 1.6522245e+2, -802306.4, -1302613.9, -28873.875, 0.01740678, 0.07372102, -800645.5, 520181.38, 0.004018752, 10.004586, 9.997929 
1.8551967e+3, 1.7522043e+2, -866744.9, -1283683.3, -32088.924, -0.021996696, 0.07675848, -864289.6, 358555.75, 0.00028652788, 10.003457, 9.997929 
1.8551643e+3, 1.8521829e+2, -844813.06, -1164661.8, -17378.191, -0.022608947, 0.053350538, -843871.6, 280993.53, 0.0000003514084, 10.002683, 9.998447 
1.8551324e+3, 1.9521622e+2, -809947.0, -1097672.6, -14873.666, 0.0104830135, -0.0001530269, -809180.2, 217704.75, 0.0, 10.002252, 9.998442 
1.8551001e+3, 2.0521504e+2, -779723.9, -990782.44, -39208.87, 0.01193849, 0.027548453, -772675.3, 156221.77, 0.0, 10.001606, 9.998816 
1.8550672e+3, 2.152148e+2, -805119.3, -951297.75, -46811.49, -0.014047817, 0.12145682, -791413.6, 39487.594, 0.0, 10.000754, 9.998823 
1.8550345e+3, 2.2521384e+2, -750447.8, -779069.1, -43018.65, -0.0132715795, 0.10907696, -719421.94, 13488.231, 0.0, 10.000047, 9.999675 
1.8550022e+3, 2.3521234e+2, -736303.94, -722356.56, -30723.584, 0.011927182, -0.008226993, -697825.1, -62902.715, 0.0, 9.999475, 9.999666 
1.8549694e+3, 2.4521194e+2, -731515.44, -630332.6, -37744.53, 0.007491732, -0.02339882, -617804.0, -80878.25, 0.0, 9.998666, 10.000014 
1.8549362e+3, 2.552127e+2, -782480.5, -602797.0, -36700.094, -0.023342622, 0.04856157, -595590.06, -156670.56, 0.0, 9.997639, 10.000026 
1.8549033e+3, 2.6521325e+2, -768410.3, -500590.6, -39473.27, -0.01373202, 0.08946609, -494893.9, -153978.48, 0.0, 9.996872, 10.0004225 
1.8548708e+3, 2.752137e+2, -746113.44, -441156.9, -45197.605, 0.030856328, 0.09008346, -434599.16, -191686.38, 0.0, 9.99636, 10.000404 
1.854838e+3, 2.852142e+2, -680726.1, -274267.97, -29438.756, 0.026458131, 0.06821478, -272146.88, -127238.12, 0.0, 9.9957695, 10.0011635 
1.8548049e+3, 2.95215e+2, -687472.7, -220987.83, -35605.24, -0.021752223, 0.03350926, -218285.84, -171385.38, 0.0, 9.995026, 10.001214 
1.8547717e+3, 3.0521706e+2, -731513.25, -170668.9, -22910.543, -0.053089794, 0.10606467, -169734.56, -169734.56, 0.0, 9.994201, 10.001618 
1.8547402e+3, 3.1521848e+2, -747879.56, -66759.734, 10060.491, 0.02595865, 0.09040954, -66611.164, -66611.164, 0.0, 9.993592, 10.002632 
1.8653639e+3, 1.252678e+2, -932949.3, -1738049.8, -43919.105, -0.028185677, 0.10861997, -930560.56, 781821.8, 0.12980267, 10.008131, 9.995926 
1.8653327e+3, 1.3526346e+2, -868110.94, -1611111.1, 61598.887, 0.037207905, 0.023851162, -863038.7, 751387.2, 0.08778394, 10.007317, 9.996517 
1.8652998e+3, 1.452606e+2, -833557.1, -1487974.3, 22044.105, 0.0131855365, 0.06220011, -832815.4, 683638.3, 0.048012313, 10.0063, 9.997184 
1.8652672e+3, 1.5525784e+2, -888643.1, -1477212.0, 42905.445, 0.0061509944, 0.06970165, -885531.9, 532948.06, 0.019014671, 10.005097, 9.997154 
1.865234e+3, 1.652552e+2, -855229.75, -1351539.9, 12781.503, -0.011142718, 0.071713395, -854900.8, 465604.22, 0.0044150073, 10.004326, 9.997716 
1.8652003e+3, 1.7525284e+2, -811264.94, -1280014.5, 858.4023, -0.030964449, 0.06308589, -811263.4, 411264.25, 0.00033142808, 10.003939, 9.997721 
1.8651672e+3, 1.8525065e+2, -764595.0, -1120922.1, 14086.105, -0.022473345, 0.04259359, -764039.0, 360509.16, 0.00000050835786, 10.003214, 9.99849 
1.8651347e+3, 1.9524877e+2, -816394.4, -1095995.5, 16380.64, 0.008914954, 0.0047139595, -815438.0, 211127.6, 0.0, 10.00219, 9.998482 
1.8651015e+3, 2.0524755e+2, -820264.8, -1015312.94, -1296.7933, 0.010414869, 0.0294431, -820256.2, 108321.766, 0.0, 10.001352, 9.998768 
1.865068e+3, 2.1524706e+2, -818084.3, -962486.1, 2215.596, -0.014042451, 0.10508521, -818050.3, 12534.337, 0.0, 10.0006895, 9.998776 
1.8650346e+3, 2.2524615e+2, -753887.6, -770659.9, 7089.9966, -0.007998246, 0.093614005, -751292.2, -18698.81, 0.0, 9.999982, 9.999763 
1.8650016e+3, 2.352449e+2, -765199.4, -726021.0, -756.4723, 0.024975495, -0.0069441916, -726006.44, -91403.38, 0.0, 9.999235, 9.999755 
1.8649681e+3, 2.4524464e+2, -752806.2, -641789.2, -25461.29, 0.012288023, -0.010560189, -636228.3, -99623.24, 0.0, 9.998529, 9.999999 
1.8649337e+3, 2.5524545e+2, -753187.1, -591210.8, -31043.852, -0.039284613, 0.06974748, -585464.9, -146866.22, 0.0, 9.997854, 9.999999 
1.8649001e+3, 2.6524585e+2, -736755.25, -493041.75, -24200.936, -0.024513563, 0.10057023, -490661.8, -150065.69, 0.0, 9.997125, 10.000352 
1.8648672e+3, 2.7524593e+2, -754906.06, -451415.97, -22342.371, 0.04511744, 0.07355573, -449779.97, -207183.36, 0.0, 9.996329, 10.000347 
1.8648337e+3, 2.8524646e+2, -719029.3, -290441.34, -16848.068, 0.024117675, 0.05902679, -289780.06, -145188.17, 0.0, 9.9955015, 10.001179 
1.8647993e+3, 2.9524767e+2, -739316.5, -243918.42, -44675.707, -0.06409671, 0.061683822, -239921.75, -193341.97, 0.0, 9.994665, 10.001228 
1.8647662e+3, 3.0524936e+2, -748427.75, -187141.52, -24196.691, -0.011142346, 0.0975242, -186100.34, -186100.34, 0.0, 9.994122, 10.001542 
1.8647332e+3, 3.1525096e+2, -739916.9, -94508.914, 21782.225, -0.030367838, 0.11187219, -93774.61, -93774.61, 0.0, 9.993785, 10.002346 
1.8753724e+3, 1.2530158e+2, -969183.2, -1804689.3, -70696.06, 0.0069221337, 0.06738702, -963243.5, 748806.9, 0.1369204, 10.008104, 9.995486 
1.8753394e+3, 1.3529764e+2, -903265.06, -1679725.8, 34606.652, -0.014135915, 0.07214984, -901725.7, 712366.94, 0.092838936, 10.007305, 9.996051 
1.8753062e+3, 1.4529505e+2, -824469.8, -1464302.9, -20363.46, 0.015986966, 0.15155394, -823822.4, 692295.5, 0.051041912, 10.006295, 9.997359 
1.8752718e+3, 1.5529193e+2, -876043.44, -1451524.8, 871.6906, -0.017870879, 0.102608696, -876042.1, 542103.3, 0.020429919, 10.005106, 9.997327 
1.875238e+3, 1.652887e+2, -876421.0, -1397714.4, -1806.1914, -0.02589116, 0.05313252, -876414.75, 443760.8, 0.0048519066, 10.004333, 9.997397 
1.8752044e+3, 1.7528553e+2, -833080.44, -1325829.4, -12635.055, -0.0009405307, -0.0022592556, -832756.6, 389449.97, 0.00038462906, 10.003938, 9.997408 
1.8751706e+3, 1.852836e+2, -761027.2, -1113547.3, -23476.426, 0.005618628, 0.014767631, -759470.6, 364754.56, 0.000000733184, 10.003211, 9.998544 
1.8751366e+3, 1.9528289e+2, -813035.9, -1089275.0, -20309.11, -0.006823207, 0.08977111, -811550.7, 214680.8, 0.0, 10.002188, 9.99853 
1.8751025e+3, 2.0528132e+2, -812367.3, -999954.0, -25543.998, -0.012976032, 0.07081876, -808951.2, 119295.23, 0.0, 10.001353, 9.998874 
1.8750685e+3, 2.152791e+2, -810937.0, -948566.4, -20982.393, -0.011519541, -0.0374318, -807809.2, 22458.46, 0.0, 10.00069, 9.998873 
1.8750344e+3, 2.2527832e+2, -764858.0, -794470.9, -20363.031, -0.007954305, -0.030317124, -754487.4, -22212.01, 0.0, 9.999984, 9.999599 
1.8750004e+3, 2.3527893e+2, -776447.4, -749722.7, -27069.313, -0.0040102084, 0.07068702, -732897.25, -98627.36, 0.0, 9.999234, 9.999595 
1.8749662e+3, 2.452789e+2, -759495.7, -656259.9, -49903.37, -0.008827901, 0.10086197, -636081.1, -99810.234, 0.0, 9.998529, 9.999902 
1.8749316e+3, 2.552784e+2, -759415.9, -607027.6, -54701.266, -0.018446177, 0.061202705, -589425.3, -151148.73, 0.0, 9.997864, 9.999887 
1.8748973e+3, 2.6527822e+2, -732665.7, -487714.8, -53795.207, -0.0030421126, 0.040479306, -476421.22, -136142.42, 0.0, 9.997135, 10.000384 
1.8748632e+3, 2.7527854e+2, -750319.56, -444848.7, -51283.098, 0.024734762, 0.030392643, -436469.03, -194192.45, 0.0, 9.996339, 10.000389 
1.8748285e+3, 2.8527954e+2, -737411.2, -329520.53, -49166.54, -0.027197111, 0.0747992, -323677.75, -179409.83, 0.0, 9.995503, 10.000911 
1.8747935e+3, 2.9528132e+2, -758936.7, -283443.72, -74381.914, -0.11705467, 0.15977438, -272079.66, -225827.19, 0.0, 9.9946575, 10.000962 
1.874761e+3, 3.0528173e+2, -738326.7, -171023.69, -36180.953, 0.051582232, 0.080533676, -168725.47, -168725.47, 0.0, 9.994137, 10.001648 
1.8747276e+3, 3.152831e+2, -680854.75, 16314.684, -35155.832, 0.015640547, 0.056644574, 18082.984, 18082.984, 0.0, 9.993834, 10.003085 
1.8853807e+3, 1.2533604e+2, -963356.25, -1776886.9, -68930.97, 0.043985076, 0.068834394, -957557.0, 754156.06, 0.14426948, 10.008116, 9.995669 
1.885346e+3, 1.3533227e+2, -943282.2, -1694991.3, 51923.016, -0.061784487, 0.08728025, -939712.7, 674040.5, 0.098122485, 10.007015, 9.996086 
1.8853123e+3, 1.4532971e+2, -847631.7, -1493927.6, 6240.1733, 0.023854373, 0.17636102, -847571.44, 668206.75, 0.05425166, 10.006234, 9.997174 
1.8852772e+3, 1.5532586e+2, -801807.9, -1433859.4, 902.5625, -0.020099465, 0.076710016, -801806.56, 616006.06, 0.021952698, 10.005718, 9.997153 
1.8852426e+3, 1.6532263e+2, -782142.75, -1336027.4, 8131.437, -0.02603328, 0.026992492, -782023.44, 537819.44, 0.005333432, 10.004918, 9.997538 
1.8852083e+3, 1.7532007e+2, -833949.4, -1312044.1, 28668.877, 0.009259897, 0.017949916, -832236.4, 389631.25, 0.0004472595, 10.003873, 9.997533 
1.8851738e+3, 1.8531808e+2, -813240.3, -1167920.8, 15765.344, 0.017978935, 0.03784821, -812540.94, 311346.0, 0.0000010252129, 10.002981, 9.99828 
1.8851388e+3, 1.9531675e+2, -824903.06, -1122813.1, -5245.185, -0.00076032395, 0.076819696, -824810.75, 201089.33, 0.0, 10.002228, 9.99828 
1.8851039e+3, 2.0531505e+2, -774897.7, -963845.25, -9571.178, -0.01393037, 0.050899282, -774414.1, 153501.69, 0.0, 10.001535, 9.999033 
1.8850692e+3, 2.1531315e+2, -769790.75, -911903.06, -2729.1, -0.019885339, -0.04033763, -769738.4, 60194.363, 0.0, 10.000903, 9.999022 
1.8850343e+3, 2.2531243e+2, -758198.56, -810133.0, -6834.87, -0.023308232, -0.027496617, -757314.1, -25373.852, 0.0, 10.000115, 9.999426 
1.8849996e+3, 2.3531283e+2, -794151.4, -776553.75, -15689.143, -0.026624033, 0.072486475, -767364.56, -133426.64, 0.0, 9.999195, 9.999427 
1.8849646e+3, 2.4531274e+2, -770813.75, -649359.44, -24314.922, -0.018052215, 0.09812448, -644672.5, -108732.61, 0.0, 9.998402, 10.00001 
1.8849297e+3, 2.5531223e+2, -774518.9, -602699.2, -14722.589, 0.006315944, 0.047445558, -601446.75, -163501.89, 0.0, 9.997713, 9.999989 
1.8848947e+3, 2.653121e+2, -746268.7, -489183.78, -7076.4756, 0.01616376, 0.024653004, -488989.16, -149042.88, 0.0, 9.997024, 10.000426 
1.8848592e+3, 2.7531254e+2, -749520.5, -439171.0, -6337.6973, -0.0032440186, 0.026528316, -439041.63, -197099.31, 0.0, 9.9963255, 10.000433 
1.8848236e+3, 2.853136e+2, -750995.94, -342122.97, -1473.3679, -0.062040523, 0.07739497, -342117.66, -198184.3, 0.0, 9.99544, 10.000854 
1.8847881e+3, 2.9531518e+2, -798259.25, -312104.1, -8443.896, -0.0995048, 0.15003607, -311957.5, -266037.22, 0.0, 9.994433, 10.000872 
1.8847552e+3, 3.0531543e+2, -793951.06, -206856.19, 42729.33, 0.08576642, 0.06297166, -203762.61, -203762.61, 0.0, 9.993795, 10.001567 
1.8847205e+3, 3.153172e+2, -748502.6, 44385.004, -34673.06, -0.03390999, 0.088845566, 45898.37, 45898.37, 0.0, 9.993118, 10.003618 
1.895389e+3, 1.2537104e+2, -928800.9, -1682324.9, -80681.164, 0.05371027, 0.09789477, -920259.0, 791112.44, 0.15187019, 10.008122, 9.996345 
1.8953526e+3, 1.3536729e+2, -919373.56, -1629714.5, 17197.635, -0.11020806, 0.06859084, -918957.44, 694450.75, 0.10365758, 10.007012, 9.996534 
1.8953186e+3, 1.4536448e+2, -886283.5, -1569948.5, -12101.5625, 0.030816974, 0.13817112, -886069.4, 629366.0, 0.057656437, 10.006219, 9.996653 
1.895283e+3, 1.5535973e+2, -838191.94, -1507078.3, -16315.681, -0.0064367284, 0.00023606143, -837794.2, 579686.94, 0.023588961, 10.005707, 9.996657 
1.8952474e+3, 1.6535702e+2, -744343.56, -1256262.4, -29455.54, -0.018335598, 0.00036705914, -742654.25, 576852.06, 0.0058620996, 10.004912, 9.998093 
1.8952121e+3, 1.753563e+2, -797298.9, -1237327.3, -9055.924, -0.0018407153, 0.11834714, -797112.56, 424399.4, 0.0005202389, 10.003877, 9.998047 
1.8951766e+3, 1.853539e+2, -852147.8, -1250981.9, -12316.174, 0.012935487, 0.10434987, -851767.9, 271767.06, 0.0000013718216, 10.002988, 9.997708 
1.8951413e+3, 1.9535026e+2, -861724.75, -1201962.4, -31354.969, 0.024116259, -0.031084405, -858859.3, 166712.28, 0.0, 10.002236, 9.997734 
1.8951055e+3, 2.0534874e+2, -759839.9, -934685.06, -32089.19, 0.0036707176, -0.02513573, -754136.6, 173449.61, 0.0, 10.001542, 9.999232 
1.8950696e+3, 2.1534917e+2, -757839.25, -886552.9, -24836.67, -0.04211086, 0.09568627, -753213.0, 76367.52, 0.0, 10.000898, 9.9992 
1.895034e+3, 2.2534831e+2, -771529.2, -837735.7, -40741.21, -0.05591112, 0.09884487, -752137.94, -20548.955, 0.0, 10.000112, 9.99924 
1.8949984e+3, 2.3534651e+2, -806423.75, -803100.8, -48252.02, -0.045228813, -0.0039509013, -756481.6, -122873.555, 0.0, 9.999197, 9.999246 
1.894963e+3, 2.4534605e+2, -748582.0, -604815.44, -49285.99, -0.01786188, -0.01884, -589541.9, -53929.066, 0.0, 9.998405, 10.000315 
1.8949276e+3, 2.5534683e+2, -752267.2, -558546.2, -38766.39, 0.032575596, 0.029439595, -551076.5, -113472.23, 0.0, 9.997719, 10.000291 
1.8948917e+3, 2.653474e+2, -741262.25, -481509.78, -32210.943, 0.030563857, 0.05370952, -477575.03, -137975.9, 0.0, 9.997032, 10.000477 
1.894855e+3, 2.7534792e+2, -744527.9, -433126.9, -32272.33, -0.0442582, 0.06277426, -429817.5, -188223.11, 0.0, 9.99634, 10.00047 
1.8948187e+3, 2.853486e+2, -738437.4, -317532.1, -38781.016, -0.08198358, 0.06420974, -313988.75, -170399.92, 0.0, 9.995444, 10.001021 
1.8947834e+3, 2.9534918e+2, -792686.8, -301737.1, -37898.41, -0.006430158, 0.022618344, -298828.8, -253244.5, 0.0, 9.994435, 10.000944 
1.894749e+3, 3.053504e+2, -815842.0, -256729.38, 23191.693, 0.07729959, 0.047529723, -255769.05, -255769.05, 0.0, 9.993809, 10.001221 
1.8947129e+3, 3.1535217e+2, -749017.56, 44342.78, -126181.3, -0.10301923, 0.1010733, 63928.004, 63928.004, 0.0, 9.993115, 10.003618 
1.905397e+3, 1.2540695e+2, -884000.25, -1656327.6, -3357.2368, 0.030761044, 0.07007333, -883985.7, 827032.6, 0.15973337, 10.008543, 9.996356 
1.9053595e+3, 1.3540296e+2, -886643.94, -1635026.3, 25899.83, -0.13310748, 0.04062754, -885748.7, 727308.8, 0.10945305, 10.007409, 9.996307 
1.905325e+3, 1.4540012e+2, -867271.2, -1553613.1, 10118.85, 0.056321062, 0.11552658, -867122.0, 647963.0, 0.061260052, 10.006354, 9.996698 
1.9052885e+3, 1.5539555e+2, -884253.6, -1525106.4, 43046.67, 0.002901564, -0.008241085, -881375.06, 535753.94, 0.025339302, 10.005373, 9.996694 
1.9052522e+3, 1.653928e+2, -794844.6, -1298483.8, 22976.96, -0.0168247, -0.0037107875, -793798.5, 525356.5, 0.0064386376, 10.004646, 9.997928 
1.905216e+3, 1.7539185e+2, -769375.75, -1240764.9, -8592.362, -0.0028285505, 0.10850932, -769219.2, 451944.47, 0.00060416857, 10.004144, 9.997893 
1.9051798e+3, 1.8538947e+2, -759160.8, -1192574.4, -5454.4175, 0.0060581495, 0.09648661, -759092.2, 364094.4, 0.0000017786746, 10.003571, 9.997828 
1.9051436e+3, 1.9538604e+2, -752785.2, -1137504.0, 23080.803, 0.007887076, -0.029926404, -751405.4, 273815.22, 0.0, 10.002935, 9.997838 
1.9051072e+3, 2.0538445e+2, -711891.06, -928451.75, 21737.635, -0.008571307, -0.025457852, -709730.7, 217505.05, 0.0, 10.001946, 9.999078 
1.9050704e+3, 2.1538462e+2, -802893.8, -923614.94, 2237.8948, -0.039148096, 0.08586888, -802852.3, 26380.64, 0.0, 10.000657, 9.99906 
1.9050339e+3, 2.2538376e+2, -823910.06, -848624.5, -5871.465, -0.045233876, 0.08848934, -822586.1, -91344.62, 0.0, 9.999693, 9.999366 
1.9049975e+3, 2.3538212e+2, -826153.3, -799655.9, 9256.274, -0.0338457, -0.009257971, -796742.7, -163484.22, 0.0, 9.999007, 9.999359 
1.9049612e+3, 2.4538168e+2, -766853.94, -619869.44, 9088.956, -0.02004338, -0.023568444, -619309.56, -84046.59, 0.0, 9.99831, 10.000256 
1.904925e+3, 2.553824e+2, -773021.44, -574074.0, -9611.398, 0.007562886, 0.023380585, -573610.75, -136355.16, 0.0, 9.997603, 10.000237 
1.9048885e+3, 2.65383e+2, -769462.8, -482489.63, -17244.473, 0.012652838, 0.050882474, -481457.1, -142207.22, 0.0, 9.996787, 10.0005865 
1.9048513e+3, 2.753837e+2, -806180.7, -449671.97, -14188.824, -0.033272237, 0.06580271, -449108.13, -207864.84, 0.0, 9.995864, 10.000584 
1.9048142e+3, 2.8538436e+2, -775941.9, -321470.4, -16645.928, -0.056838673, 0.053942736, -320861.53, -177623.83, 0.0, 9.99513, 10.001145 
1.9047782e+3, 2.953848e+2, -766926.1, -283391.13, -15921.425, 0.033684496, -0.015718957, -282867.44, -237632.88, 0.0, 9.994591, 10.000993 
1.9047417e+3, 3.053867e+2, -792391.5, -210279.63, 65096.53, -0.013255823, 0.064793035, -203088.83, -203088.83, 0.0, 9.993817, 10.001536 
1.904706e+3, 3.1538758e+2, -845320.0, -2920.8787, -70435.33, -0.052995414, -0.0069122505, 2927.8074, 2927.8074, 0.0, 9.992465, 10.003605 
1.9154046e+3, 1.2544364e+2, -928443.6, -1731491.4, -11431.422, -0.040037267, -0.009981677, -928280.94, 782374.4, 0.16784324, 10.008518, 9.995783 
1.9153668e+3, 1.3543929e+2, -941938.75, -1753497.5, -9317.819, -0.13777666, 0.009153867, -941831.8, 670869.2, 0.11549064, 10.007408, 9.995496 
1.9153318e+3, 1.454366e+2, -833149.8, -1477707.3, -22993.713, 0.09078396, 0.11179037, -832330.56, 682396.7, 0.06505036, 10.006364, 9.997234 
1.915294e+3, 1.5543312e+2, -850123.2, -1453475.5, 8888.55, 0.0041713677, 0.043163378, -849992.25, 566766.2, 0.027198762, 10.005385, 9.997181 
1.9152567e+3, 1.654298e+2, -851822.06, -1418981.1, 4625.8154, -0.024101509, 0.0075195064, -851784.3, 467006.53, 0.0070622377, 10.004653, 9.997099 
1.91522e+3, 1.7542675e+2, -822976.6, -1352757.8, -24755.69, 0.0031094449, -0.0038891032, -821822.4, 399000.06, 0.0006994091, 10.004144, 9.997126 
1.9151832e+3, 1.854248e+2, -707145.44, -1083900.9, -27380.63, -0.0069274046, 0.02368545, -705165.94, 417675.34, 0.0000023137907, 10.003564, 9.998579 
1.9151458e+3, 1.954239e+2, -705697.8, -1037581.2, -255.32355, -0.050531667, 0.0776288, -705697.6, 319150.56, 0.0, 10.002923, 9.998532 
1.9151086e+3, 2.0542201e+2, -748046.2, -1002251.1, -25967.566, -0.050920095, 0.044568222, -745420.6, 181445.1, 0.0, 10.001938, 9.998577 
1.9150713e+3, 2.1541944e+2, -835373.9, -991459.5, -43290.594, -0.013699554, -0.06818013, -824171.25, 4719.546, 0.0, 10.000656, 9.998595 
1.9150342e+3, 2.254187e+2, -793224.4, -786094.4, -30588.283, 0.0054630525, -0.054186516, -758864.06, -27965.855, 0.0, 9.999695, 9.999797 
1.914997e+3, 2.354196e+2, -798148.5, -741961.25, -14744.188, 0.005094402, 0.05889438, -738327.25, -105437.67, 0.0, 9.999006, 9.999758 
1.9149594e+3, 2.4541953e+2, -797023.25, -683977.5, -16433.37, -0.026924275, 0.08363008, -681637.06, -146745.97, 0.0, 9.998314, 9.999816 
1.9149217e+3, 2.5541878e+2, -801600.06, -635978.06, -34805.56, -0.07541997, 0.028246244, -628960.94, -192061.23, 0.0, 9.997611, 9.99981 
1.9148844e+3, 2.6541886e+2, -756768.06, -457631.25, -51399.85, -0.041333213, 0.016038978, -449045.75, -110146.32, 0.0, 9.996791, 10.000757 
1.9148478e+3, 2.7541977e+2, -792833.44, -423756.5, -47393.05, 0.030734416, 0.034237206, -417767.94, -176877.88, 0.0, 9.995868, 10.000762 
1.9148101e+3, 2.8542078e+2, -768607.75, -309301.56, -36435.44, 0.0131217325, 0.045478236, -306429.2, -163548.25, 0.0, 9.995139, 10.001225 
1.9147725e+3, 2.9542187e+2, -762024.7, -279998.8, -30958.975, 0.011297924, 0.036736142, -278018.53, -233146.61, 0.0, 9.9946165, 10.001006 
1.9147335e+3, 3.054244e+2, -715393.06, -55725.06, 21364.463, -0.20389228, 0.12437673, -55033.86, -55033.86, 0.0, 9.993836, 10.002591 
1.9146995e+3, 3.15426e+2, -857106.94, -24664.777, -80419.27, 0.043084424, 0.014331126, -16966.941, -16966.941, 0.0, 9.992452, 10.003463 
1.925413e+3, 1.254818e+2, -914719.5, -1704458.5, 3085.4937, -0.05605302, 0.026808241, -914707.44, 795574.75, 0.17616229, 10.008633, 9.995917 
1.9253743e+3, 1.35477e+2, -934712.5, -1751469.5, 22122.342, -0.12910132, 0.0065286118, -934113.75, 678217.2, 0.121736735, 10.007523, 9.995454 
1.9253382e+3, 1.4547402e+2, -797985.3, -1460178.8, 26711.729, 0.09766109, 0.08158974, -796909.56, 717450.3, 0.069007285, 10.006653, 9.997224 
1.9252993e+3, 1.5547103e+2, -768138.44, -1414416.5, 21792.334, -0.01583324, 0.06372733, -767404.44, 648982.25, 0.029159095, 10.005984, 9.99716 
1.9252613e+3, 1.6546759e+2, -787034.5, -1400287.4, 30791.348, -0.04126508, 0.025920153, -785492.4, 532927.75, 0.0077308607, 10.005162, 9.99698 
1.9252242e+3, 1.7546396e+2, -821367.8, -1364445.4, 49018.67, 0.007144695, -0.03295888, -816978.8, 403478.7, 0.0008063255, 10.004213, 9.99701 
1.9251865e+3, 1.8546197e+2, -756935.3, -1103677.6, 37764.25, 0.0014855426, -0.0032963534, -752870.0, 369606.72, 0.0000031359323, 10.003207, 9.998613 
1.9251484e+3, 1.9546154e+2, -814547.0, -1086273.5, 12708.553, -0.050272934, 0.095037416, -813953.94, 210525.4, 0.0, 10.002162, 9.998563 
1.9251102e+3, 2.054597e+2, -818130.0, -1037216.56, -16140.19, -0.053200085, 0.06635807, -816947.3, 109549.24, 0.0, 10.001465, 9.998563 
1.925072e+3, 2.1545681e+2, -778386.0, -966087.25, -66.37665, -0.014282013, -0.076708764, -778385.94, 50138.8, 0.0, 10.00106, 9.998574 
1.9250341e+3, 2.2545601e+2, -707451.75, -748290.3, 9804.79, 0.0062376964, -0.065225415, -705219.75, 25312.857, 0.0, 10.000302, 9.999762 
1.924996e+3, 2.3545708e+2, -764753.25, -729806.0, -10014.153, 0.0077358508, 0.068728685, -727139.9, -94617.945, 0.0, 9.999255, 9.999721 
1.9249576e+3, 2.4545692e+2, -799371.5, -693490.94, -8360.187, -0.023682175, 0.092658475, -692834.9, -158310.72, 0.0, 9.998336, 9.999738 
1.9249192e+3, 2.5545594e+2, -820091.06, -653086.06, -895.1657, -0.07382723, 0.021175358, -653081.3, -216545.69, 0.0, 9.997522, 9.999735 
1.924881e+3, 2.65456e+2, -761793.0, -453885.56, -11530.693, -0.054566044, 0.011470479, -453454.38, -114918.82, 0.0, 9.996734, 10.000809 
1.9248432e+3, 2.7545708e+2, -775431.7, -408779.5, -18081.56, -0.0013049686, 0.040161345, -407889.97, -167365.05, 0.0, 9.995963, 10.000817 
1.924805e+3, 2.8545815e+2, -757268.4, -297117.16, -5677.6846, 0.010889287, 0.05420065, -297047.13, -154532.03, 0.0, 9.995192, 10.001283 
1.9247676e+3, 2.954595e+2, -788760.1, -286121.66, -104.58085, 0.06731189, 0.06435618, -286121.63, -241618.06, 0.0, 9.994408, 10.001063 
1.9247265e+3, 3.0546185e+2, -752532.44, -43696.426, 5134.0625, -0.26605856, 0.11947673, -43659.242, -43659.242, 0.0, 9.993455, 10.002856 
1.9246925e+3, 3.1546438e+2, -911790.25, -78927.93, -89207.234, 0.12343315, 0.07440525, -69480.19, -69480.19, 0.0, 9.992203, 10.003206 
1.9354218e+3, 1.2552132e+2, -885052.06, -1619969.3, -4716.242, -0.03461578, 0.16948116, -885021.8, 824877.4, 0.18466413, 10.008598, 9.996647 
1.9353819e+3, 1.3551596e+2, -904734.44, -1665456.0, -13253.089, -0.11486667, 0.027115881, -904503.6, 707445.2, 0.12816748, 10.007507, 9.996053 
1.9353446e+3, 1.4551224e+2, -834631.4, -1529962.9, 3851.344, 0.074394666, 0.02659403, -834610.06, 679374.1, 0.07311599, 10.006644, 9.996722 
1.9353049e+3, 1.5550923e+2, -801553.0, -1482391.4, -620.9769, -0.058344074, 0.058205508, -801552.44, 614461.1, 0.03121371, 10.00598, 9.996696 
1.9352663e+3, 1.655062e+2, -752087.8, -1327806.8, -3747.9858, -0.072063625, 0.055257436, -752063.44, 565979.44, 0.008442615, 10.005164, 9.9974785 
1.9352284e+3, 1.7550325e+2, -789423.6, -1299658.5, 14349.902, 0.006437825, 0.015830405, -789020.4, 431050.3, 0.00092555746, 10.004216, 9.997456 
1.93519e+3, 1.855008e+2, -801027.06, -1196876.1, -851.681, 0.027631944, 0.0095501505, -801025.25, 321069.66, 0.0000044945964, 10.003211, 9.9979725 
1.935151e+3, 1.9549888e+2, -854157.3, -1170881.0, -23147.15, 0.0032469989, 0.024871213, -852474.56, 171639.98, 0.0, 10.00217, 9.99798 
1.9351119e+3, 2.0549749e+2, -787003.5, -974723.2, -29903.773, -0.020584907, 0.04394876, -782354.94, 143773.39, 0.0, 10.001471, 9.998991 
1.9350727e+3, 2.154966e+2, -751948.6, -911079.25, -14154.677, -0.04366194, 0.0598067, -750699.4, 77436.5, 0.0, 10.001056, 9.998955 
1.9350338e+3, 2.2549552e+2, -742608.0, -821758.56, -28665.154, -0.044279955, 0.052454468, -733317.2, -3171.3394, 0.0, 10.0003, 9.999259 
1.9349948e+3, 2.3549442e+2, -797324.2, -798056.8, -46944.336, -0.02907646, 0.018412137, -750744.75, -118588.234, 0.0, 9.999255, 9.999253 
1.934956e+3, 2.454938e+2, -779563.8, -654130.44, -38088.81, -0.011494841, 0.0037823985, -643470.4, -109307.53, 0.0, 9.99834, 10.000009 
1.9349174e+3, 2.5549376e+2, -800091.2, -614214.5, -29926.525, 0.01309254, 0.0015598838, -609515.06, -173351.06, 0.0, 9.99753, 10.0 
1.9348781e+3, 2.6549438e+2, -765580.3, -464454.47, -39720.133, -0.029231118, 0.036829956, -459303.28, -121144.3, 0.0, 9.996742, 10.000734 
1.9348377e+3, 2.754956e+2, -780399.1, -422198.28, -45261.258, -0.14375767, 0.08601958, -416567.7, -176419.17, 0.0, 9.995973, 10.000722 
1.9347994e+3, 2.8549647e+2, -752960.9, -292026.72, -35000.508, -0.07122596, 0.0816461, -289384.13, -147243.28, 0.0, 9.995204, 10.001313 
1.9347633e+3, 2.9549757e+2, -779488.94, -272831.4, -27166.758, 0.20987731, 0.06432048, -271378.9, -227248.27, 0.0, 9.994429, 10.001147 
1.9347207e+3, 3.0549887e+2, -789413.3, -123146.65, -39520.492, -0.19165057, 0.04078081, -120810.625, -120810.625, 0.0, 9.993465, 10.002307 
1.934683e+3, 3.155024e+2, -900003.4, -60582.406, -7594.947, -0.03601752, 0.1527543, -60513.695, -60513.695, 0.0, 9.992223, 10.003326 
1.9454306e+3, 1.2556043e+2, -954891.06, -1638183.4, 52835.863, 0.029145742, 0.16035776, -950829.6, 758686.9, 0.19335538, 10.0080185, 9.996776 
1.9453892e+3, 1.3555543e+2, -912767.75, -1648512.0, -2277.0137, -0.10816146, 0.03698705, -912760.7, 698800.75, 0.13477662, 10.007406, 9.996217 
1.9453509e+3, 1.4555135e+2, -833673.94, -1544855.5, 20256.732, 0.04076842, 0.0027082565, -833097.44, 680502.7, 0.07736827, 10.00675, 9.996568 
1.9453108e+3, 1.5554829e+2, -808843.06, -1500607.3, 35775.566, -0.051444177, 0.044085003, -806997.8, 608633.4, 0.033358738, 10.006007, 9.996556 
1.9452715e+3, 1.6554548e+2, -736777.5, -1301120.3, 25681.314, -0.057793804, 0.061161328, -735611.2, 582047.25, 0.00919663, 10.005198, 9.997643 
1.9452326e+3, 1.7554294e+2, -757782.5, -1267461.5, 19577.459, -0.0040788786, 0.047822945, -757031.6, 462649.94, 0.0010577777, 10.004366, 9.997602 
1.9451931e+3, 1.8554035e+2, -757090.9, -1193394.5, 13232.458, 0.013372444, 0.029713698, -756689.94, 365017.0, 0.0000066792695, 10.0035925, 9.99781 
1.9451535e+3, 1.9553785e+2, -764968.9, -1145348.5, 23417.297, 0.003134175, 0.003122918, -763532.7, 260199.97, 0.0, 10.002861, 9.997821 
1.9451137e+3, 2.055364e+2, -713160.6, -940688.3, 20565.432, -0.015795983, 0.026946612, -711316.75, 214430.25, 0.0, 10.001988, 9.998974 
1.9450738e+3, 2.1553592e+2, -760803.2, -917732.6, 1702.5537, -0.04315598, 0.08623025, -760784.75, 66965.85, 0.0, 10.001008, 9.998931 
1.945034e+3, 2.255347e+2, -772116.8, -849775.75, -18350.986, -0.045385465, 0.07381759, -767998.8, -38236.93, 0.0, 10.000161, 9.999132 
1.944994e+3, 2.3553301e+2, -781313.2, -803155.25, -9824.594, -0.027699666, -0.0062965057, -777544.4, -145766.03, 0.0, 9.999424, 9.999134 
1.9449544e+3, 2.4553235e+2, -741979.2, -623603.1, 5469.8223, -0.0057935757, -0.02558231, -623350.94, -89565.97, 0.0, 9.998549, 10.000115 
1.944915e+3, 2.555327e+2, -788216.1, -597672.1, 248.05771, 0.02267378, 0.0021911797, -597671.8, -161890.14, 0.0, 9.997569, 10.000093 
1.9448748e+3, 2.655334e+2, -777581.5, -486171.3, -13267.896, -0.02909156, 0.047372315, -485568.47, -147792.25, 0.0, 9.996731, 10.000588 
1.9448335e+3, 2.7553436e+2, -788275.0, -442123.16, -25396.13, -0.15657102, 0.08826811, -440269.84, -200500.95, 0.0, 9.995992, 10.000575 
1.9447945e+3, 2.8553513e+2, -749353.6, -290383.84, -17786.744, -0.08108561, 0.082791716, -289695.56, -147933.33, 0.0, 9.995234, 10.001309 
1.9447576e+3, 2.9553637e+2, -769389.0, -257038.88, -13854.951, 0.19579232, 0.081006706, -256664.48, -212914.48, 0.0, 9.994456, 10.001239 
1.9447145e+3, 3.0553737e+2, -828532.7, -184022.58, -36084.688, -0.14327742, 0.03479198, -182008.58, -182008.58, 0.0, 9.993384, 10.0019245 
1.9446748e+3, 3.1554118e+2, -907313.4, -36792.49, 103865.77, -0.06622062, 0.2211525, -24571.365, -24571.365, 0.0, 9.992061, 10.003567 
1.9554394e+3, 1.2559935e+2, -982617.5, -1685730.9, 49268.066, 0.11314876, 0.03375728, -979182.0, 729950.5, 0.20224926, 10.00805, 9.996359 
1.9553965e+3, 1.3559543e+2, -929778.2, -1679252.8, -19607.117, -0.1117323, 0.0404779, -929265.6, 681903.2, 0.14156522, 10.007416, 9.996002 
1.9553572e+3, 1.4559133e+2, -828272.94, -1527189.1, -3965.9644, -0.005475839, 0.008271706, -828250.44, 684957.9, 0.0817609, 10.006754, 9.996689 
1.9553171e+3, 1.5558812e+2, -802302.0, -1484091.4, 9763.153, -0.0039271847, 0.022393668, -802162.2, 613078.2, 0.035593025, 10.006007, 9.996671 
1.955277e+3, 1.6558534e+2, -747446.5, -1322301.8, -4463.554, -0.007148714, 0.045874115, -747411.9, 569855.9, 0.009992887, 10.005194, 9.9975 
1.9552366e+3, 1.7558299e+2, -766762.5, -1286066.6, -9294.02, -0.02624174, 0.0639403, -766596.25, 452694.2, 0.0012032384, 10.004363, 9.997478 
1.9551961e+3, 1.8558058e+2, -739040.56, -1155760.5, -12707.351, -0.04221682, 0.05764653, -738653.44, 382659.9, 0.000009907366, 10.003589, 9.998073 
1.9551556e+3, 1.9557834e+2, -749794.5, -1114121.5, -2632.174, -0.050435647, 0.02909712, -749775.5, 273559.2, 0.0, 10.002858, 9.998038 
1.9551152e+3, 2.0557635e+2, -745749.4, -1009096.06, -15277.523, -0.039162554, 0.014682597, -744866.06, 180487.75, 0.0, 10.001987, 9.998506 
1.955075e+3, 2.1557473e+2, -790771.3, -980175.44, -32490.229, -0.015543902, 0.0041086376, -785352.94, 42016.8, 0.0, 10.001006, 9.998505 
1.9550344e+3, 2.2557351e+2, -755280.1, -816017.06, -44875.867, -0.00031061115, 0.0012543777, -731462.94, -2081.5896, 0.0, 10.000162, 9.999366 
1.9549938e+3, 2.355728e+2, -765764.8, -771643.9, -36036.324, 0.008860944, -0.0035403862, -732548.3, -101160.11, 0.0, 9.999423, 9.999353 
1.9549529e+3, 2.4557248e+2, -746511.75, -634691.56, -30443.363, -0.010573876, 0.0052867257, -626940.56, -93549.33, 0.0, 9.998553, 10.000038 
1.9549118e+3, 2.5557268e+2, -793635.2, -611210.06, -34377.418, -0.052282598, 0.023867207, -604946.8, -169557.48, 0.0, 9.997576, 9.999999 
1.9548711e+3, 2.6557294e+2, -792862.44, -520347.84, -40546.492, -0.056049425, 0.04310761, -514443.03, -177054.84, 0.0, 9.9967375, 10.000353 
1.9548307e+3, 2.7557322e+2, -801608.06, -474945.38, -52140.043, -0.034228716, 0.04115353, -466824.94, -227437.25, 0.0, 9.996009, 10.000343 
1.9547902e+3, 2.8557408e+2, -749560.0, -295852.22, -48039.215, -0.020108595, 0.05558281, -290821.53, -149440.92, 0.0, 9.995252, 10.001265 
1.95475e+3, 2.9557595e+2, -762054.3, -245730.58, -43495.12, 0.00046493715, 0.12240025, -242092.19, -198729.98, 0.0, 9.994469, 10.001313 
1.954708e+3, 3.055772e+2, -842762.94, -215335.03, -87768.35, -0.12118866, 0.09827595, -203288.75, -203288.75, 0.0, 9.993391, 10.001708 
1.9546676e+3, 3.1557807e+2, -894806.06, -23251.03, 93407.266, 0.005192747, 0.028254561, -13352.698, -13352.698, 0.0, 9.992103, 10.003645 
1.9654475e+3, 1.2564033e+2, -893967.0, -1669497.9, 82185.016, 0.06856092, 0.02233636, -885353.3, 823376.75, 0.21131021, 10.009061, 9.996014 
1.9654046e+3, 1.3563646e+2, -881548.94, -1658030.4, 12076.78, -0.0669237, 0.045651305, -881361.2, 729405.4, 0.14852032, 10.007893, 9.995916 
1.965364e+3, 1.4563228e+2, -807510.7, -1509994.4, 36517.64, 0.00461569, 0.007627803, -805617.44, 707189.6, 0.08629178, 10.006926, 9.996721 
1.965323e+3, 1.5562908e+2, -789598.9, -1474843.4, 41948.97, -0.015598905, 0.022405563, -787040.44, 627798.44, 0.037916724, 10.006103, 9.996686 
1.9652821e+3, 1.6562618e+2, -754944.6, -1338435.3, 23272.773, -0.013246137, 0.04131317, -754017.9, 562849.5, 0.010830728, 10.005203, 9.997384 
1.965241e+3, 1.7562364e+2, -790401.06, -1308541.6, 19225.918, -0.013848351, 0.051412914, -789688.6, 429203.63, 0.0013612739, 10.004253, 9.997374 
1.9651997e+3, 1.8562125e+2, -753632.4, -1155949.8, 15162.116, -0.031352215, 0.048467305, -753061.8, 367853.22, 0.000014253208, 10.003465, 9.998129 
1.9651583e+3, 1.9561917e+2, -755149.1, -1110807.0, 8686.998, -0.054073673, 0.033097267, -754937.06, 267997.16, 0.0, 10.002802, 9.998085 
1.9651172e+3, 2.0561713e+2, -748460.44, -1014604.7, -1326.6643, -0.040213645, 0.012338044, -748453.8, 176499.94, 0.0, 10.001991, 9.998464 
1.965076e+3, 2.156152e+2, -785428.4, -982444.5, 11293.963, -0.00094526197, -0.021872835, -784783.06, 42189.35, 0.0, 10.001067, 9.998458 
1.9650348e+3, 2.2561404e+2, -744562.9, -813308.1, 10505.182, 0.016150339, -0.016180798, -742993.4, -14009.416, 0.0, 10.000251, 9.999339 
1.9649933e+3, 2.3561364e+2, -753493.44, -768846.06, -2652.215, 0.016496046, 0.014504545, -753048.1, -122059.77, 0.0, 9.999524, 9.999322 
1.9649513e+3, 2.4561332e+2, -735006.75, -639190.94, -14001.6, -0.014885661, 0.030278148, -637186.8, -104195.195, 0.0, 9.998678, 9.999946 
1.9649091e+3, 2.5561324e+2, -777513.7, -612517.75, -19976.63, -0.071708865, 0.032710455, -610133.56, -175141.5, 0.0, 9.99773, 9.999912 
1.9648679e+3, 2.6561332e+2, -776360.06, -510497.0, -8550.372, -0.061211824, 0.035406332, -510222.3, -173229.88, 0.0, 9.996849, 10.000364 
1.9648269e+3, 2.7561346e+2, -801492.44, -473457.84, -2635.4607, 0.0052014203, 0.020144198, -473436.66, -234444.16, 0.0, 9.99601, 10.000349 
1.9647855e+3, 2.8561428e+2, -777882.0, -315498.16, 6118.043, -0.008845864, 0.03631637, -315417.22, -174431.69, 0.0, 9.995087, 10.001206 
1.9647433e+3, 2.9561615e+2, -815712.3, -267996.0, 7814.964, -0.09286417, 0.103233986, -267884.5, -224916.5, 0.0, 9.994091, 10.00134 
1.9647017e+3, 3.056176e+2, -869091.8, -220152.72, -37833.406, -0.058760736, 0.09984439, -217954.45, -217954.45, 0.0, 9.99318, 10.001774 
1.9646588e+3, 3.1561744e+2, -852458.4, 10431.747, 150620.19, -0.08723574, -0.075710416, 35967.3, 35967.3, 0.0, 9.992338, 10.003762 
1.975455e+3, 1.2568302e+2, -920749.8, -1700552.9, 49227.133, -0.08516102, 0.104463145, -917654.5, 790657.44, 0.22044654, 10.0090275, 9.995761 
1.9754133e+3, 1.3567843e+2, -889614.56, -1656651.1, -23970.1, 0.014717633, 0.052758716, -888866.25, 721489.1, 0.15560114, 10.007863, 9.995942 
1.9753714e+3, 1.4567412e+2, -817969.6, -1522490.4, 9777.205, 0.05478694, 0.005155167, -817833.94, 694563.06, 0.09095031, 10.006907, 9.996645 
1.9753283e+3, 1.5567107e+2, -798452.5, -1488935.8, 13519.118, -0.08371528, 0.04218304, -798187.94, 616239.56, 0.040328283, 10.006093, 9.996596 
1.9752866e+3, 1.6566794e+2, -763531.1, -1355626.6, -11791.08, -0.07308115, 0.047108263, -763296.4, 553161.6, 0.011708667, 10.0052, 9.99727 
1.9752456e+3, 1.7566483e+2, -797496.7, -1325595.6, -13853.18, 0.028470263, 0.01319384, -797133.56, 421354.22, 0.0015304467, 10.004261, 9.997254 
1.9752038e+3, 1.8566225e+2, -762889.06, -1177299.0, -8276.796, 0.038365643, 0.005592941, -762723.8, 357788.84, 0.000019590076, 10.00347, 9.997981 
1.9751614e+3, 1.956603e+2, -762824.7, -1127479.8, -14678.144, -0.013694953, 0.015820326, -762234.8, 260297.14, 0.0, 10.002801, 9.997973 
1.9751193e+3, 2.0565861e+2, -723666.8, -963822.3, -34621.035, -0.023018945, 0.018822089, -718775.44, 205772.31, 0.0, 10.00199, 9.998816 
1.9750771e+3, 2.1565728e+2, -763936.6, -938271.5, -20483.885, -0.0025559147, 0.008431027, -761562.2, 64997.28, 0.0, 10.001065, 9.998764 
1.9750348e+3, 2.2565617e+2, -765702.75, -858507.56, -15583.717, 0.0009817616, 0.021585794, -763155.8, -34585.133, 0.0, 10.000253, 9.999029 
1.9749925e+3, 2.3565543e+2, -774091.2, -813110.5, -28521.518, -0.0076165874, 0.046970587, -759045.06, -128464.99, 0.0, 9.999527, 9.999019 
1.97495e+3, 2.4565476e+2, -742538.3, -657035.4, -49103.508, -0.019826876, 0.049567275, -634680.44, -102093.3, 0.0, 9.998684, 9.999823 
1.974907e+3, 2.5565434e+2, -782738.94, -626806.25, -54406.715, -0.037778083, 0.028036477, -609699.75, -175108.69, 0.0, 9.997741, 9.999812 
1.9748646e+3, 2.6565439e+2, -756186.4, -471978.1, -40203.133, -0.048945613, 0.02364061, -466400.53, -129810.32, 0.0, 9.9968605, 10.000625 
1.9748224e+3, 2.75655e+2, -783329.06, -439210.03, -33532.52, -0.04779895, 0.026146613, -435972.9, -197388.7, 0.0, 9.99602, 10.000582 
1.97478e+3, 2.856557e+2, -782761.1, -328146.94, -31607.447, -0.05291147, 0.02421759, -325959.94, -185382.06, 0.0, 9.995094, 10.001119 
1.9747375e+3, 2.9565668e+2, -816675.94, -275488.78, -28160.424, -0.08267122, 0.014415586, -274027.4, -231458.11, 0.0, 9.99411, 10.001282 
1.974696e+3, 3.0565858e+2, -845543.4, -176217.94, -72720.31, 0.0485112, 0.03823842, -168408.2, -168408.2, 0.0, 9.993198, 10.002068 
1.9746512e+3, 3.1566006e+2, -845508.94, 17890.348, 26403.152, -0.072309904, 0.002488384, 18697.014, 18697.014, 0.0, 9.992359, 10.003807 
1.985464e+3, 1.2572518e+2, -990241.75, -1715416.0, 32305.924, -0.047514964, 0.11438149, -988805.4, 719094.56, 0.22955751, 10.008402, 9.995948 
1.9854209e+3, 1.3572082e+2, -910652.75, -1628710.8, -24456.865, 0.011961801, 0.05414603, -909820.7, 700119.75, 0.16274206, 10.007583, 9.996268 
1.9853777e+3, 1.4571689e+2, -846091.3, -1542550.9, 22928.51, 0.011582193, 0.029582594, -845337.25, 666641.4, 0.09570505, 10.006754, 9.99658 
1.9853345e+3, 1.5571368e+2, -838989.2, -1514193.1, 25564.805, -0.06715988, 0.059390284, -838022.6, 575988.06, 0.04281732, 10.005843, 9.99654 
1.9852921e+3, 1.6571046e+2, -771460.44, -1351470.3, 12721.148, -0.038012046, 0.054373514, -771181.56, 544860.3, 0.0126237655, 10.005123, 9.997331 
1.98525e+3, 1.7570731e+2, -750599.3, -1297277.8, 21086.766, 0.046651576, 0.0109138135, -749787.2, 468284.2, 0.0017090862, 10.004566, 9.997299 
1.9852073e+3, 1.8570466e+2, -732982.56, -1176385.5, 29549.508, 0.04923937, 0.0027247048, -731022.0, 389074.9, 0.000025644316, 10.003737, 9.997857 
1.9851643e+3, 1.9570263e+2, -784246.2, -1149454.4, 23417.393, -0.0025760182, 0.017928718, -782750.75, 239366.77, 0.0, 10.0027075, 9.997866 
1.985121e+3, 2.0570101e+2, -728972.7, -952305.56, -3135.9297, -0.018286787, 0.02574611, -728928.6, 195204.25, 0.0, 10.001898, 9.998938 
1.985078e+3, 2.1569982e+2, -729013.7, -908198.1, -7974.958, -0.010001379, 0.021129847, -728659.44, 97483.39, 0.0, 10.001252, 9.9988785 
1.985035e+3, 2.2569875e+2, -738116.7, -843760.75, 1885.9788, -0.012278272, 0.031664878, -738083.06, -9929.383, 0.0, 10.000439, 9.999039 
1.9849917e+3, 2.3569791e+2, -778863.4, -814480.4, 12393.993, -0.020116216, 0.04797516, -774975.0, -144811.25, 0.0, 9.9994955, 9.999022 
1.9849485e+3, 2.4569722e+2, -750137.9, -665776.3, 5468.1665, -0.015999319, 0.05037811, -665423.3, -133251.94, 0.0, 9.99866, 9.999771 
1.9849052e+3, 2.5569674e+2, -761623.2, -620952.25, 4285.089, -0.0063401377, 0.032603685, -620821.8, -186645.88, 0.0, 9.997909, 9.999768 
1.9848616e+3, 2.656968e+2, -743284.75, -455070.47, 7518.4604, -0.028655553, 0.025572395, -454874.47, -118699.516, 0.0, 9.996906, 10.000717 
1.984818e+3, 2.756975e+2, -824931.44, -448242.72, 81.594955, -0.06618257, 0.029276168, -448242.72, -210075.36, 0.0, 9.995694, 10.000674 
1.9847746e+3, 2.8569826e+2, -813603.06, -329957.56, 13264.785, -0.07541764, 0.024056107, -329594.03, -189433.94, 0.0, 9.994831, 10.001229 
1.9847314e+3, 2.956991e+2, -798282.56, -258939.66, 29746.664, -0.081316486, -0.011917586, -257303.98, -215150.94, 0.0, 9.994209, 10.001344 
1.9846892e+3, 3.0570126e+2, -824910.0, -158849.44, -27621.064, 0.055823848, 0.03836459, -157705.97, -157705.97, 0.0, 9.993311, 10.002131 
1.984643e+3, 3.1570363e+2, -859290.0, 16496.025, -4651.435, -0.10246526, 0.078506865, 16520.729, 16520.729, 0.0, 9.992246, 10.00385 
1.9954741e+3, 1.2576684e+2, -977099.06, -1658879.5, 4279.6143, 0.13433279, 0.05270707, -977072.2, 730421.2, 0.23858131, 10.008344, 9.996465 
1.9954275e+3, 1.357637e+2, -885647.75, -1560723.4, -46220.387, -0.069559164, 0.052975208, -882497.9, 727023.75, 0.16988151, 10.007579, 9.996804 
1.995383e+3, 1.4576048e+2, -850724.06, -1550770.5, -6735.178, -0.11401194, 0.08035993, -850659.3, 660893.3, 0.10051526, 10.006774, 9.996516 
1.995341e+3, 1.5575686e+2, -841016.3, -1518620.8, -4600.7363, 0.022778118, 0.07382112, -840985.06, 572603.8, 0.04536774, 10.005854, 9.996506 
1.9952983e+3, 1.6575368e+2, -757752.06, -1323293.3, -6531.359, 0.07621144, 0.06327803, -757676.6, 557942.75, 0.013572883, 10.005128, 9.997524 
1.9952545e+3, 1.7575091e+2, -738050.25, -1272612.0, 885.9676, 0.03853289, 0.0414326, -738048.8, 479595.4, 0.0018962773, 10.004569, 9.997469 
1.9952105e+3, 1.8574834e+2, -740789.75, -1193583.9, -8180.8354, 0.0027489387, 0.03634126, -740642.0, 379026.9, 0.000032100925, 10.003738, 9.997741 
1.9951667e+3, 1.9574605e+2, -792206.2, -1167186.8, -11724.032, -0.020942856, 0.039271552, -791840.0, 229851.97, 0.0, 10.002709, 9.997745 
1.9951229e+3, 2.0574418e+2, -737176.8, -970702.6, -25979.502, -0.02742883, 0.03407459, -734321.5, 189388.77, 0.0, 10.0019, 9.998812 
1.9950789e+3, 2.1574275e+2, -735876.25, -922538.0, -30568.613, -0.025768084, 0.016286608, -730997.7, 94725.8, 0.0, 10.001249, 9.998783 
1.9950351e+3, 2.2574168e+2, -714932.8, -796585.6, -32575.258, -0.02531698, 0.013874315, -703529.5, 24204.344, 0.0, 10.00044, 9.999366 
1.9949912e+3, 2.3574103e+2, -757671.94, -771355.4, -20667.838, -0.023766309, 0.01779501, -742742.9, -113002.42, 0.0, 9.999495, 9.999321 
1.9949472e+3, 2.4574059e+2, -749209.4, -665980.06, -22000.29, -0.0068950756, 0.032492843, -660522.5, -128777.22, 0.0, 9.998665, 9.999769 
1.9949034e+3, 2.5574043e+2, -760022.94, -621587.94, -23463.264, 0.019295968, 0.04536075, -617719.25, -183971.58, 0.0, 9.997922, 9.99976 
1.9948588e+3, 2.6574048e+2, -748928.8, -470171.72, -38478.227, -0.00025367783, 0.04276277, -464957.9, -129210.4, 0.0, 9.996917, 10.00061 
1.9948137e+3, 2.757409e+2, -829760.25, -462068.75, -43782.34, -0.05217109, 0.031207409, -456927.3, -219184.2, 0.0, 9.995706, 10.000576 
1.9947693e+3, 2.8574193e+2, -789606.4, -283588.25, -10580.032, -0.080458194, 0.037084956, -283367.16, -143633.67, 0.0, 9.9948435, 10.001544 
1.9947255e+3, 2.957433e+2, -782901.94, -232431.6, 4995.19, -0.097783804, 0.02381496, -232386.27, -190665.8, 0.0, 9.994228, 10.001518 
1.9946814e+3, 3.0574572e+2, -835305.4, -186832.73, -70060.984, -0.049530897, 0.11057723, -179349.7, -179349.7, 0.0, 9.993334, 10.00193 
1.9946358e+3, 3.15748e+2, -873868.94, -17223.813, -58281.14, -0.060118083, 0.15254065, -13276.889, -13276.889, 0.0, 9.992262, 10.00361 
2.0054817e+3, 1.2581097e+2, -1057731.1, -1692373.9, 76379.18, 0.098438986, 0.05128047, -1048668.4, 658392.2, 0.2475502, 10.007677, 9.996484 
2.0054354e+3, 1.3580775e+2, -900229.94, -1571112.0, 6579.2334, -0.027232587, 0.05554427, -900165.44, 708924.94, 0.17701802, 10.007545, 9.996734 
2.0053901e+3, 1.4580472e+2, -811838.5, -1519339.6, 25590.469, -0.09379204, 0.10209851, -810914.06, 700205.44, 0.10536856, 10.007071, 9.996585 
2.005347e+3, 1.5580077e+2, -779079.7, -1480129.9, 34107.754, 0.022145556, 0.056391243, -777424.2, 635734.06, 0.047971886, 10.006289, 9.99656 
2.0053034e+3, 1.6579755e+2, -714250.4, -1311781.4, 31379.572, 0.06336376, 0.04596155, -712607.0, 602582.25, 0.014554847, 10.005481, 9.997432 
2.0052588e+3, 1.75795e+2, -728519.4, -1275533.6, 17023.826, 0.014961821, 0.054697566, -727990.06, 489222.78, 0.0020922825, 10.004673, 9.997397 
2.0052141e+3, 1.8579248e+2, -717398.4, -1161467.3, 1729.0836, -0.012736659, 0.050037406, -717391.6, 401845.13, 0.000038712944, 10.003814, 9.997922 
2.0051694e+3, 1.9579016e+2, -752510.9, -1129938.3, 18117.086, -0.012807992, 0.031935275, -751643.25, 269616.03, 0.0, 10.00291, 9.997902 
2.0051247e+3, 2.0578827e+2, -746067.7, -987627.25, 17376.563, -0.012284956, 0.026595237, -744824.1, 178453.66, 0.0, 10.001898, 9.998694 
2.0050801e+3, 2.1578686e+2, -807136.6, -968344.1, 12198.728, -0.015841711, 0.022787092, -806218.75, 19073.19, 0.0, 10.000813, 9.998677 
2.0050353e+3, 2.2578582e+2, -768695.7, -808004.44, 6069.8228, -0.015188455, 0.023308434, -767779.8, -40477.746, 0.0, 10.000012, 9.999491 
2.0049906e+3, 2.3578525e+2, -759578.5, -758674.25, 603.10065, -0.00969145, 0.022085618, -758372.6, -129065.164, 0.0, 9.999427, 9.999439 
2.0049459e+3, 2.4578486e+2, -758195.44, -662479.5, -7913.2944, -0.0017246477, 0.03424577, -661829.7, -130518.086, 0.0, 9.998571, 9.999837 
2.0049007e+3, 2.5578478e+2, -815729.7, -640569.3, -5151.5605, 0.008462356, 0.049185652, -640417.94, -207104.48, 0.0, 9.99751, 9.9998255 
2.0048553e+3, 2.6578495e+2, -773581.9, -480126.8, -11883.709, -0.007725825, 0.053721398, -479646.34, -144333.88, 0.0, 9.996745, 10.000621 
2.0048095e+3, 2.7578548e+2, -758472.94, -426062.94, -8374.067, -0.043611057, 0.049791884, -425852.13, -188544.6, 0.0, 9.996193, 10.000586 
2.0047644e+3, 2.8578645e+2, -725515.4, -249042.06, 16845.057, -0.06755409, 0.054584738, -248447.28, -109149.42, 0.0, 9.995272, 10.001573 
2.0047197e+3, 2.9578784e+2, -816168.25, -253021.36, 6925.1885, -0.081798375, 0.042964026, -252936.2, -211651.83, 0.0, 9.994024, 10.001473 
2.0046742e+3, 3.0579016e+2, -843038.06, -170354.52, -51642.13, -0.08902909, 0.11082714, -166413.02, -166413.02, 0.0, 9.993196, 10.00211 
2.0046285e+3, 3.1579164e+2, -822239.4, -19308.596, 6006.4893, -0.014528062, 0.048130054, -19263.666, -19263.666, 0.0, 9.9927435, 10.003357 
2.0154871e+3, 1.2585706e+2, -1075705.0, -1740051.6, 58203.973, -0.118975475, 0.090134144, -1070644.3, 635962.2, 0.25670397, 10.0077715, 9.996093 
2.0154443e+3, 1.3585286e+2, -938794.94, -1646920.3, 3599.792, 0.11736991, 0.05897532, -938776.6, 669871.44, 0.18428773, 10.00755, 9.996158 
2.0153984e+3, 1.4584956e+2, -809189.6, -1501238.9, 1180.5428, 0.04235959, 0.09699818, -809187.6, 701492.3, 0.11032276, 10.007049, 9.996729 
2.0153524e+3, 1.5584537e+2, -774597.6, -1466689.5, 7635.2627, -0.06422698, 0.012733263, -774513.4, 638206.2, 0.050647218, 10.006286, 9.9966545 
2.0153074e+3, 1.6584204e+2, -740159.25, -1365697.5, 2494.7012, -0.06512689, 0.008410918, -740149.3, 574602.6, 0.015574577, 10.00548, 9.997065 
2.015263e+3, 1.7583948e+2, -751090.4, -1321216.4, -10536.942, -0.023205977, 0.052869827, -750895.7, 465882.06, 0.0022989651, 10.004664, 9.997089 
2.0152178e+3, 1.8583703e+2, -687674.94, -1097886.4, -30075.848, -0.001990985, 0.0451076, -685481.6, 433319.34, 0.000045413177, 10.003802, 9.998365 
2.0151725e+3, 1.9583486e+2, -726051.6, -1073331.1, -14251.277, 0.016983144, -0.0027471164, -725467.75, 295352.6, 0.0, 10.002899, 9.998297 
2.015127e+3, 2.0583321e+2, -754452.25, -1005948.6, -22190.832, 0.023467233, 0.003542289, -752509.25, 170327.39, 0.0, 10.001898, 9.99857 
2.015081e+3, 2.1583208e+2, -815253.6, -986787.56, -24641.338, 0.015917288, 0.041365627, -811784.0, 13065.087, 0.0, 10.000815, 9.998551 
2.0150355e+3, 2.2583114e+2, -774824.94, -822839.25, -14740.772, 0.014625135, 0.060773473, -770660.56, -43801.387, 0.0, 10.000017, 9.999389 
2.0149903e+3, 2.3583044e+2, -764465.7, -771028.75, -21215.764, 0.019314883, 0.060976103, -746279.2, -117413.305, 0.0, 9.999432, 9.999353 
2.0149443e+3, 2.4582994e+2, -747654.3, -643233.56, -47505.004, -0.0026045116, 0.056397974, -624856.06, -93984.65, 0.0, 9.998579, 9.999968 
2.0148978e+3, 2.5582972e+2, -806214.75, -623084.7, -42939.996, -0.044738073, 0.04318305, -613516.1, -180641.73, 0.0, 9.997516, 9.999946 
2.0148516e+3, 2.6583007e+2, -763308.0, -462053.53, -32392.402, -0.05638654, 0.057495944, -458609.9, -123738.836, 0.0, 9.996755, 10.000742 
2.0148057e+3, 2.7583098e+2, -745675.8, -407754.28, -28962.719, -0.04555945, 0.08338057, -405289.9, -168428.14, 0.0, 9.996223, 10.000699 
2.01476e+3, 2.8583178e+2, -743125.44, -291803.94, -31747.041, -0.035885695, 0.07612618, -289581.72, -150727.33, 0.0, 9.995295, 10.001269 
2.0147142e+3, 2.9583266e+2, -835919.06, -296207.25, -41426.387, -0.030659677, 0.04629247, -293046.03, -252199.86, 0.0, 9.994029, 10.001177 
2.0146675e+3, 3.058343e+2, -795933.4, -77052.195, -67631.055, -0.06715196, 0.027495198, -70744.93, -70744.93, 0.0, 9.99321, 10.002746 
2.0146199e+3, 3.158372e+2, -837789.06, -63666.16, 55053.348, -0.14879496, 0.043897703, -59770.53, -59770.53, 0.0, 9.992798, 10.003025 
2.0254955e+3, 1.25903e+2, -908982.4, -1660336.5, 53110.89, -0.14482667, 0.052063406, -905246.7, 800907.0, 0.26654783, 10.009498, 9.995909 
2.025452e+3, 1.3589862e+2, -911875.3, -1672383.4, 22852.484, 0.10296293, 0.048063684, -911189.25, 697009.94, 0.19198743, 10.008027, 9.995752 
2.0254053e+3, 1.4589524e+2, -813755.6, -1496544.3, 27992.848, 0.029942468, 0.09622077, -812609.9, 697622.25, 0.115511134, 10.007023, 9.996777 
2.0253585e+3, 1.5589115e+2, -777747.3, -1462260.4, 27138.201, -0.06450378, 0.017123282, -776673.1, 635597.25, 0.053438388, 10.006258, 9.996696 
2.025313e+3, 1.6588782e+2, -750042.2, -1359088.8, 34199.035, -0.058907297, 0.0056643053, -748127.8, 566174.75, 0.016644986, 10.005371, 9.997158 
2.0252675e+3, 1.7588517e+2, -782082.3, -1326331.5, 51859.066, -0.011713581, 0.034032073, -777185.0, 439144.25, 0.0025200623, 10.004414, 9.997172 
2.0252214e+3, 1.8588282e+2, -746268.75, -1126953.8, 25299.35, 0.007548971, 0.034145504, -744594.8, 373757.13, 0.00005236836, 10.003408, 9.998354 
2.0251752e+3, 1.9588086e+2, -802910.0, -1111927.4, 7703.2026, 0.018114528, 0.009481116, -802718.1, 217651.94, 0.0, 10.00238, 9.998281 
2.0251286e+3, 2.058792e+2, -774605.3, -1015453.2, 730.09827, 0.0224358, 0.016338646, -774603.06, 147783.33, 0.0, 10.001761, 9.9985695 
2.0250821e+3, 2.1587794e+2, -726152.6, -943843.0, 4233.3906, 0.017774837, 0.039951894, -726070.3, 98329.58, 0.0, 10.001432, 9.998548 
2.0250358e+3, 2.2587691e+2, -707579.94, -796591.44, 11518.344, 0.016487181, 0.057471324, -706113.56, 20296.988, 0.0, 10.000508, 9.9993305 
2.0249894e+3, 2.3587623e+2, -807371.1, -796177.8, 7982.8433, 0.019651193, 0.06398068, -792025.2, -163607.61, 0.0, 9.99916, 9.9993105 
2.0249425e+3, 2.4587578e+2, -779492.75, -639949.8, -9223.796, -0.0039127157, 0.06004438, -639342.75, -108920.27, 0.0, 9.998285, 10.00013 
2.0248951e+3, 2.5587568e+2, -762536.9, -585182.06, -3637.6187, -0.04860466, 0.04470703, -585107.5, -152683.55, 0.0, 9.997746, 10.0000925 
2.0248483e+3, 2.658761e+2, -733678.7, -441204.8, 7271.1875, -0.055045117, 0.05894805, -441024.16, -106604.39, 0.0, 9.996933, 10.000798 
2.0248018e+3, 2.7587712e+2, -788289.25, -422141.06, 3332.511, -0.02902457, 0.08304204, -422110.75, -185700.33, 0.0, 9.995909, 10.00075 
2.024755e+3, 2.8587794e+2, -799343.4, -320322.97, -2509.0579, -0.027777884, 0.081713185, -320309.8, -181907.27, 0.0, 9.99492, 10.001251 
2.0247076e+3, 2.9587907e+2, -845997.44, -297101.4, 10005.186, -0.05386631, 0.07677234, -296919.1, -256526.84, 0.0, 9.993949, 10.001206 
2.024661e+3, 3.058801e+2, -778911.7, -78181.15, -1542.1257, -0.032209903, 0.0021468995, -78177.75, -78177.75, 0.0, 9.993368, 10.002661 
2.0246124e+3, 3.1588367e+2, -827527.06, -85437.195, 69239.5, -0.17527364, 0.09652497, -79032.2, -79032.2, 0.0, 9.992987, 10.002783 
2.0355059e+3, 1.2594897e+2, -936806.9, -1675295.6, -783.9804, -0.030178457, -0.043535106, -936806.06, 768894.6, 0.27770165, 10.009384, 9.995828 
2.0354582e+3, 1.3594505e+2, -933973.25, -1715493.5, -16252.432, -0.05533367, 0.031084925, -933635.44, 674108.1, 0.20048343, 10.008045, 9.995449 
2.0354107e+3, 1.4594178e+2, -815758.8, -1500442.8, 5024.8955, -0.111477435, 0.10433889, -815721.94, 694054.7, 0.12110231, 10.007061, 9.996731 
2.0353656e+3, 1.5593797e+2, -780619.9, -1463741.8, 1937.0502, 0.01000426, 0.061148502, -780614.4, 631197.56, 0.05640659, 10.006252, 9.996691 
2.0353194e+3, 1.6593471e+2, -719070.75, -1289333.5, 485.71927, 0.06255061, 0.029977016, -719070.3, 594772.44, 0.017785756, 10.005353, 9.997651 
2.0352723e+3, 1.7593198e+2, -754523.9, -1267599.9, 17384.262, 0.04043672, -0.00053715805, -753935.5, 461933.1, 0.0027612317, 10.004405, 9.997582 
2.0352249e+3, 1.8592976e+2, -777487.1, -1193503.0, -12691.151, 0.012152216, 0.019521628, -777100.3, 340790.6, 0.000060117985, 10.003412, 9.997897 
2.035177e+3, 1.9592807e+2, -829955.44, -1171720.8, -26297.385, -0.0107458625, 0.06857478, -827943.8, 191965.36, 0.0, 10.002393, 9.997867 
2.03513e+3, 2.0592616e+2, -766029.0, -1000940.0, -10073.473, -0.015660578, 0.06416206, -765597.9, 156330.2, 0.0, 10.001772, 9.998666 
2.0350832e+3, 2.1592431e+2, -719982.94, -931507.75, -9011.058, -0.011658589, 0.018035984, -719599.8, 104345.69, 0.0, 10.0014305, 9.998634 
2.035036e+3, 2.2592308e+2, -708901.44, -800531.2, -38238.316, -0.011523364, 0.013562663, -695040.75, 30916.54, 0.0, 10.000509, 9.999305 
2.0349881e+3, 2.3592249e+2, -807753.7, -797812.0, -38146.715, -0.011932583, 0.030590456, -764313.6, -136349.92, 0.0, 9.99916, 9.999301 
2.0349407e+3, 2.4592231e+2, -766443.06, -615582.3, -28823.11, -0.007520419, 0.045373235, -610263.0, -80297.24, 0.0, 9.998293, 10.000296 
2.0348932e+3, 2.5592262e+2, -749032.7, -561998.56, -24193.326, -0.003748106, 0.054211397, -558919.75, -126956.84, 0.0, 9.997763, 10.000246 
2.0348457e+3, 2.65923e+2, -732955.56, -443906.25, -31779.02, -0.0036590584, 0.057263773, -440453.6, -106493.99, 0.0, 9.996946, 10.000775 
2.034798e+3, 2.7592358e+2, -788418.94, -425088.16, -34918.445, 0.0017939716, 0.044884015, -421762.7, -185807.89, 0.0, 9.995915, 10.000729 
2.0347497e+3, 2.8592482e+2, -779419.4, -280460.1, -39393.816, -0.049034815, 0.071146175, -277369.03, -139425.86, 0.0, 9.994922, 10.001527 
2.0347005e+3, 2.9592696e+2, -817479.1, -244220.17, -23348.795, -0.16150545, 0.13954128, -243270.75, -203348.16, 0.0, 9.993971, 10.001561 
2.0346546e+3, 3.059275e+2, -837902.06, -206183.6, -13531.532, 0.009266532, 0.032933902, -205893.88, -205893.88, 0.0, 9.993389, 10.001774 
2.0346065e+3, 3.1592885e+2, -783505.1, -3288.0662, 1471.5537, -0.07030776, 0.0064732796, -3285.2908, -3285.2908, 0.0, 9.993016, 10.003339 
2.0455146e+3, 1.25997e+2, -1097748.4, -1778701.0, 29612.92, -0.014708349, -0.034206238, -1096463.0, 608766.06, 0.29061595, 10.008018, 9.995701 
2.0454663e+3, 1.3599259e+2, -888026.44, -1707105.3, 31745.697, -0.06975725, 0.015800409, -886797.9, 720478.9, 0.2100541, 10.008622, 9.995228 
2.045418e+3, 1.4598894e+2, -709347.06, -1441048.6, 34374.84, -0.12411587, 0.060767185, -707735.7, 801577.75, 0.1272356, 10.007911, 9.996786 
2.0453715e+3, 1.5598556e+2, -781855.25, -1458187.6, 38531.418, -0.002828152, 0.05589275, -779667.1, 631677.94, 0.059609387, 10.006238, 9.996736 
2.0453243e+3, 1.6598248e+2, -759429.44, -1306397.0, 36370.973, 0.05399596, 0.04130374, -757021.5, 556352.7, 0.019017827, 10.00507, 9.997666 
2.0452765e+3, 1.7597973e+2, -774777.4, -1277629.0, 19354.688, 0.040665973, 0.008508789, -774033.5, 441366.88, 0.0030291495, 10.00427, 9.997578 
2.0452283e+3, 1.859774e+2, -754335.25, -1200542.6, -8084.6353, 0.009688731, 0.02630933, -754188.8, 363235.56, 0.000069704285, 10.003652, 9.997732 
2.0451798e+3, 1.9597554e+2, -728915.5, -1137351.6, -2273.1304, -0.024781007, 0.07598732, -728902.8, 290542.2, 0.0, 10.003153, 9.997733 
2.0451318e+3, 2.0597367e+2, -692322.94, -951566.06, 22872.283, -0.020802725, 0.075059004, -690320.5, 231143.08, 0.0, 10.002223, 9.998785 
2.0450845e+3, 2.1597193e+2, -775402.3, -946274.8, 23331.451, 0.0061431844, 0.032237634, -772273.9, 51205.156, 0.0, 10.001001, 9.998739 
2.0450361e+3, 2.2597066e+2, -765353.5, -825967.0, -10632.226, 0.0012878487, 0.01663058, -763542.56, -38051.543, 0.0, 10.000119, 9.999316 
2.0449872e+3, 2.3596987e+2, -761366.6, -773215.8, -9237.213, -0.021923793, 0.013999707, -756317.3, -128818.336, 0.0, 9.999473, 9.999317 
2.0449388e+3, 2.4596971e+2, -740080.25, -600064.3, -559.85126, -0.014979964, 0.02965773, -600062.06, -70561.32, 0.0, 9.998465, 10.000318 
2.0448908e+3, 2.5597018e+2, -826227.75, -595213.1, -7111.6304, 0.008900994, 0.052888952, -594994.4, -163497.92, 0.0, 9.99722, 10.0002775 
2.0448422e+3, 2.6597062e+2, -813382.1, -470796.0, -11885.135, 0.011250833, 0.054011088, -470384.2, -136891.45, 0.0, 9.996348, 10.000877 
2.0447937e+3, 2.7597123e+2, -812561.25, -426826.25, -6888.1846, 0.009091871, 0.033756405, -426703.28, -191215.45, 0.0, 9.995713, 10.000812 
2.0447443e+3, 2.8597257e+2, -764144.1, -275153.56, -18385.436, -0.050902445, 0.06946641, -274463.28, -136987.92, 0.0, 9.995039, 10.001504 
2.0446943e+3, 2.9597476e+2, -764320.25, -215990.08, -27099.68, -0.18069184, 0.14508954, -214654.0, -175199.33, 0.0, 9.9943285, 10.001581 
2.0446481e+3, 3.059753e+2, -828157.1, -214353.1, 8255.65, 0.010287804, 0.04361095, -214242.08, -214242.08, 0.0, 9.99352, 10.00165 
2.044599e+3, 3.1597704e+2, -800140.4, 44925.71, 25967.855, -0.06870951, 0.07728728, 45722.92, 45722.92, 0.0, 9.992666, 10.003835 
2.0555218e+3, 1.2604693e+2, -1110424.8, -1798162.6, 34695.26, -0.092028335, 0.079657994, -1108678.9, 596061.1, 0.30537426, 10.008096, 9.995532 
2.0554759e+3, 1.3604099e+2, -911535.94, -1731671.3, 45822.44, 0.03397336, -0.0054555596, -908983.7, 697817.25, 0.22077975, 10.008567, 9.99509 
2.0554267e+3, 1.4603662e+2, -716353.0, -1430527.0, -19428.32, -0.03342644, -0.032832924, -715824.9, 793019.25, 0.13397607, 10.007843, 9.996909 
2.0553768e+3, 1.5603384e+2, -779543.8, -1448745.5, -16075.8955, -0.0981203, 0.010774715, -779157.8, 631712.4, 0.063087225, 10.006237, 9.996802 
2.0553279e+3, 1.6603106e+2, -786488.4, -1367748.5, 7946.195, -0.073427536, 0.046309154, -786379.75, 526517.8, 0.02036055, 10.00509, 9.997237 
2.0552802e+3, 1.7602834e+2, -799720.2, -1333753.5, -6990.642, -0.007871056, 0.058141984, -799628.7, 415296.78, 0.0033310298, 10.004284, 9.997187 
2.0552316e+3, 1.8602562e+2, -746627.5, -1186516.6, -24479.068, -0.0010534843, 0.050804608, -745269.5, 371683.72, 0.00008248452, 10.003656, 9.9978285 
2.0551826e+3, 1.9602318e+2, -722493.3, -1123107.8, -20662.94, -0.02659095, 0.032805428, -721430.4, 297548.0, 0.0, 10.003145, 9.997837 
2.055134e+3, 2.0602162e+2, -684040.75, -934132.1, -21655.063, 0.0032620241, 0.051275212, -682179.5, 238814.28, 0.0, 10.002218, 9.998909 
2.0550859e+3, 2.1602076e+2, -768356.1, -931499.25, -18095.666, 0.066519216, 0.083899505, -766373.06, 56628.26, 0.0, 10.000997, 9.998844 
2.0550366e+3, 2.2601955e+2, -763021.3, -822944.25, -33501.832, 0.051691674, 0.06747147, -748037.7, -23024.963, 0.0, 10.000122, 9.999338 
2.0549868e+3, 2.3601827e+2, -759912.3, -772052.25, -33894.777, -0.01307889, 0.014087485, -731548.25, -104523.664, 0.0, 9.999476, 9.999326 
2.054937e+3, 2.4601787e+2, -748402.9, -619976.75, -47727.914, -0.029003914, 0.013061067, -604181.9, -75153.23, 0.0, 9.998472, 10.000179 
2.0548877e+3, 2.5601822e+2, -833178.56, -610881.4, -51266.91, -0.015449033, 0.039022736, -599627.75, -168601.84, 0.0, 9.997221, 10.000172 
2.0548384e+3, 2.6601884e+2, -797906.56, -439630.3, -36148.242, -0.014736851, 0.049684864, -436019.53, -102999.29, 0.0, 9.996348, 10.001094 
2.054789e+3, 2.7601987e+2, -798331.56, -400868.53, -30788.416, -0.013430435, 0.051685113, -398497.75, -163487.47, 0.0, 9.995723, 10.000988 
2.0547394e+3, 2.86021e+2, -786715.2, -327379.0, -45605.535, -0.03470094, 0.07521015, -322894.8, -185894.38, 0.0, 9.995058, 10.001139 
2.0546892e+3, 2.9602212e+2, -782675.44, -264139.8, -54652.32, -0.1049663, 0.08268586, -258442.2, -219451.05, 0.0, 9.994367, 10.001234 
2.0546411e+3, 3.0602336e+2, -781170.6, -120308.9, -29535.193, -0.033461314, 0.035779487, -118991.54, -118991.54, 0.0, 9.993532, 10.002291 
2.0545916e+3, 3.160273e+2, -825176.6, -9885.086, -58757.414, -0.07720441, 0.2226892, -5672.255, -5672.255, 0.0, 9.992665, 10.003466 
2.0655306e+3, 1.2609585e+2, -938703.75, -1650594.3, 8637.191, -0.12067348, 0.088523366, -938598.94, 765662.75, 0.3216791, 10.009805, 9.995889 
2.0654836e+3, 1.3609031e+2, -1007077.56, -1738658.8, 54950.344, 0.030084534, -0.0021076743, -1002973.2, 603343.3, 0.23252742, 10.007605, 9.995506 
2.065434e+3, 1.460858e+2, -882127.1, -1519782.5, -91.97863, -0.0067865527, -0.05575854, -882127.06, 626233.75, 0.14130041, 10.006623, 9.996799 
2.0653827e+3, 1.5608314e+2, -758054.5, -1447672.1, -12120.751, -0.09123209, 0.010574956, -757841.56, 652545.5, 0.066855825, 10.006465, 9.996699 
2.0653333e+3, 1.6608033e+2, -685998.25, -1320663.4, 21177.158, -0.083796225, 0.049791455, -685292.44, 627122.7, 0.021828428, 10.005815, 9.9972105 
2.0652844e+3, 1.7607747e+2, -722615.44, -1297443.9, 34440.035, -0.02773064, 0.05240562, -720559.4, 493884.66, 0.0036730645, 10.004825, 9.997174 
2.0652351e+3, 1.8607472e+2, -717091.7, -1161757.4, 33467.676, -0.007985497, 0.03964512, -714586.9, 401884.7, 0.00009968895, 10.003819, 9.997917 
2.0651858e+3, 1.9607233e+2, -767937.5, -1137512.5, 33715.824, -0.008335683, 0.017513288, -764886.8, 253608.97, 0.0, 10.002803, 9.997903 
2.0651363e+3, 2.060708e+2, -742350.94, -974342.5, 13160.872, 0.019002132, 0.04412658, -741606.75, 178904.53, 0.0, 10.001873, 9.998798 
2.0650867e+3, 2.1607001e+2, -774425.75, -943843.8, -1581.6224, 0.06331625, 0.0938064, -774411.0, 48108.395, 0.0, 10.001, 9.998755 
2.0650366e+3, 2.260688e+2, -755387.4, -812657.2, -10738.634, 0.051842462, 0.08181221, -753440.0, -28909.338, 0.0, 10.000152, 9.999392 
2.0649861e+3, 2.3606753e+2, -780276.3, -777389.44, -11231.75, 0.004351117, 0.024957381, -767508.75, -140966.77, 0.0, 9.999322, 9.999361 
2.0649356e+3, 2.4606705e+2, -752055.06, -631044.5, -31230.266, -0.013210444, 0.019562388, -623460.0, -94913.13, 0.0, 9.998491, 10.0000925 
2.064885e+3, 2.5606725e+2, -776140.44, -591348.9, -31020.33, -0.013124885, 0.03993464, -586280.6, -155734.61, 0.0, 9.997651, 10.000096 
2.0648345e+3, 2.6606783e+2, -728447.5, -403261.53, -11821.627, -0.02914312, 0.051013596, -402832.34, -70291.82, 0.0, 9.996816, 10.001117 
2.0647845e+3, 2.7606893e+2, -758695.75, -378199.88, -23105.62, -0.045039043, 0.0584179, -376801.9, -142272.5, 0.0, 9.995983, 10.001018 
2.0647344e+3, 2.8607008e+2, -786356.6, -321342.56, -29586.24, -0.03435884, 0.0798217, -319467.72, -182948.36, 0.0, 9.99504, 10.001187 
2.064684e+3, 2.9607117e+2, -841358.7, -293455.44, -10032.545, -0.038388703, 0.07833733, -293271.8, -254760.94, 0.0, 9.993976, 10.001219 
2.0646338e+3, 3.0607232e+2, -844070.2, -142488.36, 6200.077, -0.06697326, 0.027915742, -142433.56, -142433.56, 0.0, 9.993072, 10.0023575 
2.0645842e+3, 3.160753e+2, -845633.25, -11367.386, -61094.727, -0.060200263, 0.09887366, -6917.053, -6917.053, 0.0, 9.992489, 10.00354 
2.07554e+3, 1.2614411e+2, -932403.56, -1582300.8, -45282.71, -0.12311827, 0.022755483, -929263.56, 774526.9, 0.3389686, 10.009694, 9.996664 
2.0754902e+3, 1.3614048e+2, -971089.7, -1614392.6, -1547.2755, -0.07348547, 0.02700649, -971085.94, 634737.8, 0.24501133, 10.007608, 9.996352 
2.0754401e+3, 1.4613633e+2, -904303.44, -1566954.6, -3870.4941, -0.04084496, -0.013511533, -904280.9, 603584.1, 0.14911526, 10.006647, 9.996467 
2.07539e+3, 1.5613325e+2, -778988.56, -1487206.4, -16803.697, 0.0024618448, 0.046625283, -778590.06, 631306.9, 0.07090591, 10.006456, 9.996434 
2.0753399e+3, 1.6613013e+2, -666206.94, -1274568.5, -12310.254, 0.005342153, 0.04756446, -665957.94, 645969.8, 0.023428068, 10.005798, 9.997543 
2.075289e+3, 1.7612705e+2, -701754.7, -1253035.3, -329.7229, -0.025197338, -0.004267433, -701754.5, 512202.4, 0.004058989, 10.004819, 9.997484 
2.0752388e+3, 1.8612464e+2, -712817.5, -1153433.9, -3522.3818, -0.014302886, -0.0027475136, -712789.3, 403191.16, 0.00012216535, 10.003818, 9.997977 
2.0751888e+3, 1.9612285e+2, -767478.5, -1137344.9, -1636.2416, 0.025398444, 0.030705672, -767471.25, 250527.33, 0.0, 10.002803, 9.997906 
2.075138e+3, 2.0612107e+2, -765888.5, -1025630.4, -18257.945, 0.023994094, 0.0532605, -764611.4, 155405.83, 0.0, 10.001879, 9.9984455 
2.075087e+3, 2.1611953e+2, -795252.56, -988666.4, -31855.068, -0.0043761586, 0.062136948, -790141.1, 31893.143, 0.0, 10.001003, 9.998448 
2.0750362e+3, 2.2611833e+2, -749147.0, -801810.6, -40725.84, 0.0011100717, 0.06098271, -726981.8, -2935.9841, 0.0, 10.000156, 9.999466 
2.0749857e+3, 2.3611757e+2, -776131.56, -770253.9, -40506.99, 0.028526982, 0.04732071, -732579.25, -106527.125, 0.0, 9.999324, 9.999412 
2.0749344e+3, 2.4611717e+2, -754740.2, -639046.75, -62438.223, 0.030353937, 0.04985755, -611777.2, -83720.69, 0.0, 9.998498, 10.000036 
2.0748828e+3, 2.5611717e+2, -778771.56, -601088.9, -62171.684, 0.012416808, 0.056067, -581495.44, -151437.47, 0.0, 9.997664, 10.000026 
2.0748313e+3, 2.661175e+2, -740238.06, -432905.97, -44013.383, -0.033273697, 0.058687422, -426727.0, -94672.17, 0.0, 9.996834, 10.000907 
2.07478e+3, 2.7611828e+2, -764748.4, -397321.2, -55188.195, -0.08768541, 0.05394479, -389210.84, -155163.86, 0.0, 9.996007, 10.000876 
2.0747292e+3, 2.861197e+2, -750545.75, -252010.1, -72492.26, -0.055351257, 0.08270865, -241682.9, -105649.14, 0.0, 9.995056, 10.001658 
2.0746782e+3, 2.9612178e+2, -818039.5, -247986.58, -52504.207, 0.0038823728, 0.13242523, -243191.08, -205176.2, 0.0, 9.993982, 10.00153 
2.0746267e+3, 3.0612218e+2, -883688.6, -223979.73, -22307.338, -0.08460357, 0.028030029, -223226.3, -223226.3, 0.0, 9.993067, 10.0018015 
2.0745765e+3, 3.1612393e+2, -782400.8, 114879.266, -13139.406, -0.089908764, 0.018994756, 115071.63, 115071.63, 0.0, 9.992508, 10.0044 
2.0855494e+3, 1.2619463e+2, -1070428.1, -1653801.0, 14078.148, -0.086521976, -0.017764261, -1070088.6, 633205.7, 0.35658225, 10.008517, 9.9965 
2.085498e+3, 1.3619153e+2, -932240.8, -1580612.1, 17829.217, -0.062473487, 0.034408845, -931750.94, 673572.4, 0.2578857, 10.008028, 9.996436 
2.0854473e+3, 1.4618754e+2, -831072.1, -1501371.5, 34621.36, -0.019163297, -0.0017627348, -829288.6, 678073.9, 0.15729143, 10.007202, 9.9966545 
2.0853965e+3, 1.5618436e+2, -806730.56, -1484638.3, 57913.83, 0.013799877, 0.029490253, -801818.56, 607576.3, 0.075207815, 10.006207, 9.996572 
2.0853454e+3, 1.6618112e+2, -737769.2, -1334120.4, 50476.676, 0.012268016, 0.027594702, -733526.9, 577900.3, 0.025157157, 10.005416, 9.997312 
2.085294e+3, 1.7617798e+2, -725919.25, -1286223.9, 21873.535, -0.017596455, -0.007270546, -725066.6, 488391.5, 0.0044901636, 10.004747, 9.997291 
2.0852427e+3, 1.8617561e+2, -692775.25, -1133461.9, -807.3875, -0.014164214, 0.0034977375, -692773.75, 422707.53, 0.00015039185, 10.003912, 9.998069 
2.0851915e+3, 1.9617395e+2, -738741.1, -1115387.9, 3109.9153, 0.013063382, 0.040457647, -738715.44, 278782.13, 0.0, 10.002969, 9.997973 
2.0851399e+3, 2.06172e+2, -725602.9, -1022195.4, 5286.689, 0.010581475, 0.050647568, -725508.6, 194009.14, 0.0, 10.002231, 9.998297 
2.0850882e+3, 2.1617006e+2, -715458.06, -964964.56, 3768.294, -0.012208673, 0.037447505, -715401.1, 106137.51, 0.0, 10.001619, 9.998312 
2.0850363e+3, 2.2616889e+2, -686914.8, -771956.2, -13181.932, -0.0040950147, 0.04428842, -684918.44, 38632.047, 0.0, 10.000588, 9.99946 
2.084985e+3, 2.3616837e+2, -781896.4, -774184.5, -19407.629, 0.026176678, 0.05741285, -758253.44, -132698.8, 0.0, 9.999294, 9.999396 
2.0849326e+3, 2.4616797e+2, -773546.94, -657713.2, -32440.842, 0.029101608, 0.06688456, -649246.5, -121687.26, 0.0, 9.998413, 9.999947 
2.0848803e+3, 2.5616786e+2, -766037.8, -603187.5, -36446.62, 0.012681472, 0.06931846, -595402.75, -165840.6, 0.0, 9.997791, 9.9999485 
2.0848282e+3, 2.6616815e+2, -743599.8, -434693.88, -18695.813, -0.025213461, 0.07168412, -433566.47, -102007.055, 0.0, 9.996815, 10.000901 
2.0847759e+3, 2.7616888e+2, -823391.5, -426226.8, -14195.373, -0.06985852, 0.06581861, -425720.1, -192168.45, 0.0, 9.995612, 10.000866 
2.0847242e+3, 2.8617004e+2, -771064.5, -258112.44, -37620.234, -0.053479932, 0.069459684, -255368.03, -119827.15, 0.0, 9.994902, 10.00169 
2.0846722e+3, 2.9617184e+2, -744506.5, -208663.67, -55558.516, -0.017441927, 0.091232724, -202963.75, -165439.19, 0.0, 9.994471, 10.001565 
2.0846197e+3, 3.0617362e+2, -852872.94, -214233.7, -21863.959, -0.0806008, 0.12028646, -213486.06, -213486.06, 0.0, 9.993302, 10.001755 
2.0845686e+3, 3.161757e+2, -884693.7, 93578.65, 57397.55, -0.055152524, 0.1529747, 96934.78, 96934.78, 0.0, 9.991692, 10.004645 
2.0955583e+3, 1.2624702e+2, -1125687.1, -1761045.1, 6365.977, -0.031146077, -0.0397021, -1125623.4, 577154.25, 0.37395036, 10.008546, 9.995567 
2.0955068e+3, 1.3624328e+2, -975425.25, -1656854.0, 5663.494, 0.04076441, 0.022035385, -975378.2, 629438.1, 0.2708575, 10.008002, 9.995871 
2.0954551e+3, 1.4623937e+2, -803732.25, -1426383.1, 5042.294, 0.044079445, -0.017783139, -803691.44, 703162.9, 0.16571964, 10.007175, 9.997286 
2.0954019e+3, 1.5623637e+2, -776156.06, -1413982.6, 26036.951, -0.051435772, -0.033115584, -775094.94, 633787.1, 0.079735234, 10.006226, 9.997047 
2.0953499e+3, 1.662332e+2, -787845.4, -1443934.6, 27297.715, -0.055732217, -0.005904575, -786711.56, 524203.22, 0.027013032, 10.005434, 9.9965515 
2.0952986e+3, 1.7623009e+2, -771430.44, -1382783.5, -874.0686, -0.007198997, 0.039136816, -771429.2, 441519.97, 0.004967768, 10.004752, 9.996628 
2.0952463e+3, 1.8622755e+2, -684005.56, -1117467.5, -33691.445, -0.010894723, 0.053742133, -681402.44, 433572.6, 0.00018478319, 10.003917, 9.9981785 
2.0951936e+3, 1.9622552e+2, -730786.8, -1101105.1, -28116.39, -0.044953536, 0.04625858, -728664.25, 288329.3, 0.0, 10.0029745, 9.998072 
2.0951416e+3, 2.0622344e+2, -721711.2, -1016116.25, -16122.699, -0.021208182, 0.037162315, -720830.9, 198182.98, 0.0, 10.002235, 9.998339 
2.0950902e+3, 2.1622153e+2, -714712.94, -962840.3, -19178.8, 0.036062405, 0.020262439, -713239.25, 107794.266, 0.0, 10.001613, 9.998332 
2.0950371e+3, 2.2622034e+2, -695004.3, -789218.25, -60685.918, 0.032573387, 0.031760454, -665287.8, 57757.69, 0.0, 10.0005865, 9.999346 
2.0949836e+3, 2.3621981e+2, -790560.8, -792718.8, -63481.402, -0.0073557436, 0.05480889, -728149.25, -103098.45, 0.0, 9.999292, 9.999272 
2.0949304e+3, 2.4621935e+2, -781190.4, -676473.2, -55846.37, -0.019988568, 0.07188624, -652279.56, -125223.305, 0.0, 9.998422, 9.999816 
2.0948777e+3, 2.5621915e+2, -769997.94, -616185.2, -61996.133, -0.016930986, 0.08083401, -594308.4, -165248.67, 0.0, 9.9978075, 9.999854 
2.0948249e+3, 2.6621962e+2, -727363.0, -405212.34, -65772.03, -0.0069764685, 0.08930815, -392301.4, -61245.996, 0.0, 9.996828, 10.0011 
2.0947722e+3, 2.762206e+2, -814797.1, -411477.88, -56307.66, 0.009312557, 0.0901849, -403764.25, -170719.58, 0.0, 9.995621, 10.000965 
2.094719e+3, 2.8622097e+2, -802829.44, -327164.1, -54346.56, -0.028724184, 0.038717914, -321033.8, -185991.72, 0.0, 9.994911, 10.001213 
2.0946655e+3, 2.9622126e+2, -758771.1, -246052.67, -77961.64, -0.11308336, -0.044111565, -234460.28, -197418.7, 0.0, 9.9945, 10.001297 
2.094613e+3, 3.0622637e+2, -812970.4, -138268.23, -86629.28, -0.05645069, 0.30001608, -127322.91, -127322.91, 0.0, 9.993326, 10.002268 
2.0945606e+3, 3.1622684e+2, -918180.1, 19650.643, -15499.139, -0.017282326, 0.1347197, 19906.72, 19906.72, 0.0, 9.991705, 10.004133 
2.1055676e+3, 1.2630048e+2, -1049443.9, -1693567.8, 23764.768, -0.0027116751, -0.04789302, -1048568.3, 653684.3, 0.39074787, 10.0095825, 9.995563 
2.1055144e+3, 1.3629654e+2, -1013770.0, -1677531.3, 57650.184, 0.0212381, -0.010173099, -1008800.06, 595493.3, 0.2837541, 10.007746, 9.995864 
2.1054617e+3, 1.4629272e+2, -856409.5, -1470891.4, 69336.664, 0.024906768, -0.024862295, -848682.9, 657648.2, 0.17433392, 10.006915, 9.997045 
2.1054082e+3, 1.5628958e+2, -719065.6, -1404383.9, 40124.664, -0.05685834, -0.028036555, -716724.3, 691636.25, 0.084473774, 10.006775, 9.996849 
2.1053554e+3, 1.6628633e+2, -702964.3, -1402911.6, 39336.06, -0.05698145, -0.00007669436, -700760.6, 609633.56, 0.028996201, 10.006052, 9.996534 
2.1053033e+3, 1.7628315e+2, -746159.0, -1376061.6, 61489.074, -0.007817061, 0.041337073, -740212.8, 472216.1, 0.0054935026, 10.004958, 9.9965725 
2.1052502e+3, 1.8628041e+2, -677160.75, -1149160.3, 34010.668, -0.011873952, 0.05913294, -674722.6, 439734.47, 0.00022596269, 10.004121, 9.99786 
2.1051966e+3, 1.9627814e+2, -681913.8, -1106165.1, 7838.376, -0.048622966, 0.057049077, -681769.0, 334710.4, 0.0, 10.003436, 9.997813 
2.1051438e+3, 2.0627604e+2, -683928.75, -977459.5, 10545.209, -0.024892794, 0.04740625, -683550.4, 234949.1, 0.0, 10.00241, 9.998518 
2.1050914e+3, 2.1627423e+2, -769148.75, -974601.25, 15333.742, 0.03641754, 0.026285646, -768010.6, 52505.76, 0.0, 10.001181, 9.998457 
2.1050376e+3, 2.2627288e+2, -726732.75, -832059.8, -24225.133, 0.02906375, 0.03221815, -721428.2, 1101.791, 0.0, 10.000491, 9.999095 
2.1049829e+3, 2.3627205e+2, -685340.0, -765560.6, -37943.98, -0.020084288, 0.0496567, -670236.3, -45696.957, 0.0, 10.00012, 9.999058 
2.104929e+3, 2.4627148e+2, -668516.56, -616331.5, -27939.693, -0.03008269, 0.06223996, -604195.2, -77649.234, 0.0, 9.999175, 9.999864 
2.1048754e+3, 2.5627127e+2, -758421.0, -608775.7, -22860.498, -0.015342251, 0.06749134, -605361.3, -176812.69, 0.0, 9.997884, 9.999866 
2.1048215e+3, 2.662718e+2, -744799.9, -433343.44, -44084.063, -0.0021685117, 0.095003195, -427223.94, -96679.89, 0.0, 9.996797, 10.00092 
2.1047679e+3, 2.7627292e+2, -794999.7, -416729.5, -62471.88, 0.012118177, 0.12732719, -406679.22, -174145.83, 0.0, 9.995821, 10.000833 
2.1047136e+3, 2.8627312e+2, -815547.44, -315787.84, -27277.656, -0.026048938, 0.056571424, -314303.4, -179771.28, 0.0, 9.994751, 10.001368 
2.1046597e+3, 2.962731e+2, -876661.0, -290517.63, -6642.332, -0.099418975, -0.07244813, -290442.38, -253908.8, 0.0, 9.993642, 10.001403 
2.1046065e+3, 3.062789e+2, -843579.8, -133812.31, -32628.467, -0.031411458, 0.32984722, -132315.52, -132315.52, 0.0, 9.993038, 10.002435 
2.1045518e+3, 3.1627786e+2, -826744.8, -264.428, 3803.5103, -0.09639704, 0.0006954172, -246.92442, -246.92442, 0.0, 9.992615, 10.003554 
2.1155769e+3, 1.2635477e+2, -1048812.1, -1636648.5, -11847.792, -0.00702662, -0.05930357, -1048573.4, 653147.75, 0.40689665, 10.009435, 9.996292 
2.1155207e+3, 1.363511e+2, -999413.0, -1611755.4, 11472.69, -0.10729299, -0.059952006, -999198.1, 604558.6, 0.29650804, 10.007779, 9.996288 
2.1154675e+3, 1.4634739e+2, -915877.2, -1610174.0, 65059.184, -0.06777846, -0.022863042, -909833.44, 595961.25, 0.18309288, 10.006962, 9.996027 
2.1154153e+3, 1.5634389e+2, -773880.75, -1519885.0, 33734.766, -0.01293686, 0.0363613, -772358.3, 635473.25, 0.089410566, 10.006767, 9.996061 
2.115362e+3, 1.663404e+2, -663935.1, -1313231.8, 736.86334, -0.004244148, 0.039058592, -663934.3, 645932.2, 0.031108368, 10.006034, 9.99716 
2.115308e+3, 1.7633706e+2, -714180.25, -1309897.4, 23684.797, -0.022094311, 0.003821922, -713240.06, 498658.56, 0.00607039, 10.004959, 9.997027 
2.1152541e+3, 1.8633415e+2, -726192.06, -1253771.1, 9193.567, -0.01842234, 0.024254339, -726031.94, 387897.03, 0.0002751568, 10.004128, 9.997141 
2.1152005e+3, 1.9633166e+2, -722427.0, -1192096.3, -17260.797, -0.0037801072, 0.0730656, -721793.5, 294162.72, 0.00000000000010610821, 10.00344, 9.997224 
2.1151462e+3, 2.0632963e+2, -662579.56, -936156.8, -33993.305, -0.004581138, 0.08018542, -658419.0, 259556.63, 0.0, 10.0024185, 9.9988 
2.1150918e+3, 2.1632807e+2, -755295.0, -947454.9, -24318.049, -0.013987828, 0.055883832, -752265.3, 67723.15, 0.0, 10.001183, 9.998645 
2.1150373e+3, 2.2632645e+2, -752984.4, -888755.25, -36518.03, -0.015845085, 0.046983443, -743785.44, -21780.484, 0.0, 10.000496, 9.998706 
2.1149832e+3, 2.3632498e+2, -705206.06, -809913.4, -54411.324, -0.013801394, 0.041962925, -682051.5, -58029.926, 0.0, 10.00013, 9.998751 
2.1149285e+3, 2.463242e+2, -651632.94, -585140.2, -77036.234, -0.0020920339, 0.035557408, -534482.44, -8452.919, 0.0, 9.9991865, 10.000074 
2.1148735e+3, 2.5632405e+2, -750596.1, -595777.6, -70072.92, 0.01515258, 0.025493873, -568772.3, -140742.13, 0.0, 9.997893, 9.999952 
2.1148181e+3, 2.6632464e+2, -785038.0, -519790.34, -81539.195, -0.014403654, 0.08968953, -496729.47, -166703.02, 0.0, 9.996805, 10.000325 
2.1147625e+3, 2.763258e+2, -817907.5, -469900.03, -100715.18, -0.07517344, 0.1846788, -442854.4, -210835.77, 0.0, 9.995841, 10.000461 
2.114708e+3, 2.863265e+2, -754402.1, -192940.17, -71924.58, -0.051218525, 0.12825295, -183872.9, -49861.32, 0.0, 9.994762, 10.002209 
2.1146545e+3, 2.9632732e+2, -841549.6, -218253.72, -43257.44, 0.037919484, 0.003337937, -215265.92, -179265.22, 0.0, 9.993639, 10.001904 
2.1145996e+3, 3.063311e+2, -864355.94, -178360.9, -45745.574, -0.010888763, 0.20418762, -175323.81, -175323.81, 0.0, 9.993042, 10.002129 
2.1145438e+3, 3.163313e+2, -872575.44, -111510.26, -23194.9, -0.15883458, 0.016855985, -110804.01, -110804.01, 0.0, 9.99268, 10.002762 
2.125586e+3, 1.2641056e+2, -1217118.1, -1736954.4, 27436.09, 0.05849706, -0.017490923, -1215674.1, 485501.63, 0.4224185, 10.007709, 9.9961405 
2.1255286e+3, 1.3640644e+2, -931760.1, -1590704.1, 4707.6416, -0.14845946, -0.0369694, -931726.5, 671489.8, 0.3090833, 10.008683, 9.996032 
2.1254744e+3, 1.464025e+2, -804410.06, -1565877.1, 49928.29, -0.11896637, 0.002335068, -801150.3, 704106.4, 0.19195314, 10.008081, 9.995785 
2.125422e+3, 1.5639879e+2, -813811.06, -1562382.4, 64381.684, 0.0036116317, 0.06541468, -808314.2, 598981.5, 0.094526984, 10.006596, 9.9958515 
2.125368e+3, 1.6639513e+2, -714772.2, -1333886.8, 28052.42, 0.019459834, 0.06055283, -713503.75, 595827.75, 0.033351444, 10.005672, 9.9971895 
2.1253127e+3, 1.7639169e+2, -695715.8, -1298404.6, 10087.997, -0.02871928, 0.011035094, -695547.0, 515816.7, 0.006703754, 10.005082, 9.9970455 
2.1252583e+3, 1.8638866e+2, -687827.0, -1238976.5, 13357.395, -0.02779541, 0.021472445, -687503.5, 425891.1, 0.00033462787, 10.004413, 9.997104 
2.1252039e+3, 1.9638604e+2, -690440.9, -1182635.1, 30460.416, 0.0010933637, 0.062263403, -688562.94, 326860.03, 0.0000000000129771185, 10.00369, 9.997166 
2.1251486e+3, 2.063839e+2, -604272.56, -928768.1, 749.1825, -0.005143529, 0.07312612, -604270.8, 313172.97, 0.0, 10.0029125, 9.99861 
2.1250932e+3, 2.1638227e+2, -635006.3, -907069.9, -23781.396, -0.03195061, 0.061318614, -632943.2, 186514.83, 0.0, 10.0020895, 9.998483 
2.1250379e+3, 2.2638069e+2, -689667.9, -853017.75, -23098.691, -0.025749218, 0.06275477, -686464.4, 35009.906, 0.0, 10.000914, 9.998747 
2.1249829e+3, 2.3637933e+2, -790142.75, -846828.75, -11393.7, 0.00017298029, 0.06384249, -787938.4, -164448.44, 0.0, 9.999533, 9.998783 
2.1249272e+3, 2.4637848e+2, -736324.56, -624032.9, -34464.223, 0.0074952366, 0.050230667, -614299.0, -88800.79, 0.0, 9.9986, 10.000089 
2.1248712e+3, 2.563782e+2, -749268.3, -596273.6, -42735.38, 0.0065283533, 0.027578304, -585145.9, -157646.33, 0.0, 9.99791, 9.999939 
2.124815e+3, 2.6637864e+2, -763084.6, -528916.9, -37231.445, -0.021932041, 0.08616876, -523139.75, -193642.1, 0.0, 9.997045, 10.000144 
2.1247584e+3, 2.7637956e+2, -797403.4, -476772.53, -29267.021, -0.07521877, 0.17647465, -474122.97, -242630.28, 0.0, 9.99606, 10.000304 
2.124703e+3, 2.8638032e+2, -735039.9, -181244.44, -37279.438, -0.05227433, 0.13522756, -178746.2, -45261.184, 0.0, 9.99489, 10.002224 
2.1246482e+3, 2.9638156e+2, -835300.06, -210728.05, -65463.695, 0.04836766, 0.052456412, -203940.31, -168470.4, 0.0, 9.993668, 10.001939 
2.1245925e+3, 3.0638465e+2, -850401.75, -146768.6, -28176.65, -0.00028419116, 0.17315161, -145642.08, -145642.08, 0.0, 9.993032, 10.002349 
2.1245366e+3, 3.1638658e+2, -951791.25, -179117.69, 22215.57, -0.10670567, 0.13595323, -178479.48, -178479.48, 0.0, 9.992263, 10.002498 
2.1355948e+3, 1.264676e+2, -1264108.9, -1870059.4, 53988.418, 0.17168498, 0.06555093, -1259336.3, 441282.63, 0.43732205, 10.00773, 9.995229 
2.1355374e+3, 1.3646246e+2, -987834.25, -1711175.6, 23845.115, -0.122797765, 0.04769509, -987049.06, 615623.2, 0.3214368, 10.008637, 9.9951935 
2.1354821e+3, 1.46458e+2, -793210.25, -1509035.9, 5586.1274, -0.14112265, 0.04590845, -793166.6, 711550.4, 0.20087318, 10.008045, 9.996191 
2.1354285e+3, 1.5645422e+2, -796336.9, -1520962.8, 18552.148, -0.007143953, 0.0631212, -795862.2, 610891.5, 0.09981113, 10.006621, 9.996122 
2.1353735e+3, 1.6645047e+2, -746369.2, -1408127.3, 8020.8784, 0.015115554, 0.06749818, -746271.94, 562518.2, 0.035733514, 10.005708, 9.996665 
2.1353176e+3, 1.7644693e+2, -719010.25, -1351780.6, -9463.062, -0.030765021, 0.05866341, -718868.8, 491955.94, 0.0074025886, 10.005101, 9.996672 
2.1352622e+3, 1.8644384e+2, -647877.06, -1158223.0, -11752.382, -0.042548794, 0.04695147, -647606.56, 465248.28, 0.0004079853, 10.004417, 9.997658 
2.135207e+3, 1.9644116e+2, -663943.94, -1127038.1, 4949.5527, -0.033883743, 0.027824957, -663891.0, 350989.7, 0.0000000000136278775, 10.003683, 9.997553 
2.1351513e+3, 2.0643874e+2, -649791.3, -1023245.56, -28755.295, -0.026597146, 0.030438019, -647590.2, 269314.94, 0.0, 10.002908, 9.997967 
2.1350951e+3, 2.1643671e+2, -669425.94, -979242.6, -54495.64, -0.020351512, 0.042684853, -660119.9, 158806.39, 0.0, 10.002088, 9.997991 
2.1350388e+3, 2.264355e+2, -658210.06, -789249.5, -73770.67, -0.0034930212, 0.077476226, -625063.94, 95875.22, 0.0, 10.000916, 9.9991865 
2.1349823e+3, 2.3643495e+2, -766484.5, -797901.3, -58010.844, 0.01809227, 0.116338715, -722092.9, -99147.23, 0.0, 9.999529, 9.999123 
2.1349256e+3, 2.464342e+2, -749710.44, -653630.3, -60134.543, -0.0042286417, 0.11028718, -624702.75, -99749.945, 0.0, 9.998603, 9.9998865 
2.1348684e+3, 2.5643364e+2, -756200.4, -615418.44, -69599.62, -0.047938313, 0.077531725, -586819.5, -159861.86, 0.0, 9.997926, 9.999803 
2.1348117e+3, 2.664336e+2, -742028.5, -490705.47, -75329.8, -0.027062519, 0.08238757, -469856.25, -140897.52, 0.0, 9.997064, 10.000401 
2.1347551e+3, 2.7643397e+2, -790079.1, -468135.66, -68363.46, 0.017803142, 0.09115137, -454220.4, -223263.64, 0.0, 9.996083, 10.000355 
2.1346977e+3, 2.8643438e+2, -799353.44, -319422.8, -86057.58, -0.029263923, 0.06968974, -304458.22, -171504.05, 0.0, 9.994907, 10.001269 
2.13464e+3, 2.964356e+2, -867689.5, -282777.88, -105916.84, -0.091355406, 0.07695942, -264189.03, -229245.47, 0.0, 9.993685, 10.001438 
2.1345854e+3, 3.064396e+2, -778841.8, -3922.292, -47903.902, -0.009344974, 0.24525842, -972.20416, -972.20416, 0.0, 9.993051, 10.0033245 
2.1345283e+3, 3.1644124e+2, -914411.44, -104611.5, 40050.72, -0.13618477, 0.11012541, -102635.516, -102635.516, 0.0, 9.992277, 10.003002 
2.1456021e+3, 1.2652384e+2, -1210900.3, -1779859.1, 54385.504, 0.10849297, 0.077920854, -1205748.4, 494321.38, 0.45161158, 10.008382, 9.995536 
2.145546e+3, 1.3651922e+2, -1058310.0, -1735740.1, 81473.8, -0.080830656, 0.08859868, -1048649.0, 553468.8, 0.3335373, 10.007937, 9.995384 
2.1454902e+3, 1.4651445e+2, -858075.0, -1559912.5, 51545.273, -0.11413774, 0.057643626, -854309.56, 649855.44, 0.20982552, 10.007623, 9.996047 
2.145435e+3, 1.5651026e+2, -712082.6, -1488497.8, 35554.496, -0.024597239, 0.04965827, -710457.9, 695746.7, 0.1052586, 10.007366, 9.995985 
2.1453792e+3, 1.6650642e+2, -628047.06, -1364025.6, 29301.469, -0.004116794, 0.057950247, -626882.3, 681359.7, 0.038264614, 10.006638, 9.996517 
2.145323e+3, 1.7650288e+2, -650719.5, -1331835.5, 35349.99, -0.03190479, 0.065676935, -648889.75, 561387.3, 0.008176897, 10.005641, 9.996546 
2.1452668e+3, 1.8649971e+2, -618062.06, -1137115.9, 16896.371, -0.031581733, 0.051426858, -617512.6, 494794.94, 0.00049967534, 10.0046, 9.997712 
2.1452107e+3, 1.9649698e+2, -684660.94, -1130616.9, -1458.9966, -0.013296143, 0.021261178, -684656.2, 329677.25, 0.0000000017420022, 10.003518, 9.997605 
2.145154e+3, 2.0649467e+2, -691224.0, -1036069.0, -13259.355, -0.01298767, 0.029557506, -690714.94, 225641.88, 0.0, 10.002597, 9.998026 
2.145097e+3, 2.1649282e+2, -714872.44, -996985.8, 7289.798, -0.022500018, 0.054024093, -714684.2, 103692.63, 0.0, 10.001761, 9.998025 
2.1450396e+3, 2.264915e+2, -656031.7, -792397.06, -24389.615, -0.009513763, 0.08155889, -651800.75, 68590.016, 0.0, 10.000952, 9.9991455 
2.1449822e+3, 2.3649076e+2, -679996.9, -760453.25, -43492.574, 0.015909525, 0.10528092, -660980.56, -38581.594, 0.0, 10.000145, 9.999081 
2.1449241e+3, 2.464901e+2, -677077.44, -628532.2, -44390.98, -0.01127165, 0.11739688, -602211.2, -77805.7, 0.0, 9.999149, 9.999793 
2.144866e+3, 2.5648978e+2, -741864.7, -613349.5, -47740.58, -0.066292986, 0.11762035, -597555.8, -171147.06, 0.0, 9.99805, 9.999755 
2.1448083e+3, 2.6648954e+2, -748331.3, -472414.63, -58454.742, -0.036906093, 0.094136804, -460541.53, -132130.4, 0.0, 9.996932, 10.000587 
2.1447513e+3, 2.764895e+2, -824302.56, -471738.66, -57505.766, 0.037753016, 0.046045974, -462596.13, -232184.64, 0.0, 9.995794, 10.000468 
2.1446927e+3, 2.8649023e+2, -832688.3, -363495.25, -39435.563, -0.016078701, 0.065655895, -360203.8, -227797.69, 0.0, 9.9948015, 10.001017 
2.1446335e+3, 2.9649195e+2, -848333.8, -292271.06, -4017.8975, -0.13187608, 0.14788148, -292242.03, -257850.03, 0.0, 9.9939, 10.0012665 
2.1445784e+3, 3.064943e+2, -803720.3, -24183.557, 16896.02, 0.008268878, 0.1632165, -23817.516, -23817.516, 0.0, 9.992916, 10.003248 
2.1445207e+3, 3.164961e+2, -987620.7, -89451.24, 12580.896, -0.078248866, 0.0560639, -89275.055, -89275.055, 0.0, 9.991577, 10.003434 
2.1556081e+3, 1.2657958e+2, -1192354.4, -1651267.8, 38146.996, -0.09250584, 0.039457247, -1189205.0, 510320.28, 0.46539482, 10.008166, 9.996782 
2.1555541e+3, 1.3657668e+2, -1022570.1, -1593011.8, 62182.914, -0.030169753, 0.094319, -1015870.4, 585683.9, 0.3454403, 10.007928, 9.996372 
2.1554983e+3, 1.4657174e+2, -896046.5, -1648841.0, 42658.035, -0.05484918, 0.04392371, -893636.94, 609965.2, 0.21883345, 10.00765, 9.995424 
2.1554421e+3, 1.5656689e+2, -747892.5, -1561667.6, 25245.94, -0.050388537, 0.027710393, -747110.0, 658538.94, 0.11088176, 10.00736, 9.995487 
2.1553855e+3, 1.665629e+2, -621243.4, -1342928.1, -5268.245, -0.03786342, 0.03446419, -621204.9, 686482.94, 0.040956393, 10.006624, 9.996671 
2.1553284e+3, 1.7655945e+2, -646023.44, -1322201.5, -65.02708, -0.033801157, 0.03749609, -646023.4, 563698.3, 0.009036326, 10.005642, 9.9966135 
2.1552715e+3, 1.8655623e+2, -646672.25, -1198067.8, -21712.615, 0.0008737309, 0.038238414, -645818.56, 465935.22, 0.0006145088, 10.0046015, 9.997295 
2.1552148e+3, 1.9655341e+2, -701378.94, -1166980.6, -37037.24, 0.056302357, 0.039491475, -698451.1, 315330.97, 0.00000008138219, 10.00352, 9.997357 
2.155157e+3, 2.0655158e+2, -641948.06, -935430.4, -42587.348, 0.030959966, 0.06584091, -635893.1, 279907.03, 0.0, 10.0026, 9.998717 
2.1550983e+3, 2.1655044e+2, -679976.4, -924426.2, -21480.584, -0.041074645, 0.09606368, -678103.1, 139707.94, 0.0, 10.001757, 9.998528 
2.15504e+3, 2.2654857e+2, -693380.0, -870618.1, -53004.465, -0.044799197, 0.07705343, -678738.2, 41092.074, 0.0, 10.00095, 9.998612 
2.154982e+3, 2.3654658e+2, -709718.75, -825175.9, -73848.125, -0.009534333, 0.029318213, -673712.94, -51861.56, 0.0, 10.000154, 9.998635 
2.1549231e+3, 2.4654603e+2, -674582.3, -627161.3, -86711.62, -0.015854033, 0.068421744, -560976.94, -37119.13, 0.0, 9.999161, 9.999799 
2.154864e+3, 2.5654647e+2, -738316.7, -609496.6, -89712.13, -0.050034657, 0.14700852, -563467.0, -137612.81, 0.0, 9.99806, 9.999778 
2.1548049e+3, 2.6654634e+2, -738819.5, -456083.53, -102695.68, -0.054424644, 0.123006605, -422719.4, -94863.49, 0.0, 9.996942, 10.000698 
2.154746e+3, 2.765461e+2, -809235.1, -442998.63, -100197.82, -0.029246116, 0.044739004, -417378.06, -187520.28, 0.0, 9.9958, 10.000666 
2.1546872e+3, 2.8654787e+2, -794374.1, -286520.72, -73285.4, -0.01664537, 0.13148402, -276156.8, -144316.52, 0.0, 9.994808, 10.001543 
2.1546279e+3, 2.9655072e+2, -832332.6, -267445.78, -33157.1, -0.057192966, 0.27659464, -265506.22, -231693.38, 0.0, 9.993932, 10.001424 
2.1545716e+3, 3.065482e+2, -901160.94, -232925.28, -28506.258, 0.046478275, -0.11717333, -231711.44, -231711.44, 0.0, 9.992937, 10.00181 
2.1545127e+3, 3.1655315e+2, -978735.4, -68417.22, -152517.84, -0.038179144, 0.204094, -43543.504, -43543.504, 0.0, 9.991554, 10.003595 
2.1656145e+3, 1.2663569e+2, -1424777.3, -1809322.5, 88593.38, -0.11348701, 0.0047126156, -1405348.3, 293626.56, 0.47897056, 10.005251, 9.9969015 
2.1655622e+3, 1.3663347e+2, -1003491.1, -1557339.9, 60030.203, 0.010346275, 0.104451716, -997059.3, 603938.75, 0.3573595, 10.008101, 9.996667 
2.1655063e+3, 1.4662887e+2, -794213.56, -1526596.0, 4491.293, -0.027735386, 0.044805106, -794186.0, 708856.5, 0.22801295, 10.008392, 9.995898 
2.1654493e+3, 1.566244e+2, -748941.6, -1518077.4, 44311.93, -0.045515005, 0.022357805, -746397.1, 658687.9, 0.11672925, 10.00721, 9.995857 
2.1653919e+3, 1.6662054e+2, -654166.56, -1365730.9, 29805.686, -0.032907262, 0.032620028, -652920.3, 654202.5, 0.04382997, 10.006438, 9.996602 
2.1653342e+3, 1.7661709e+2, -618447.8, -1313434.6, 18434.066, -0.01819066, 0.042080887, -617959.25, 591198.3, 0.009992498, 10.005863, 9.996565 
2.1652761e+3, 1.866139e+2, -606683.56, -1171133.9, -620.70105, 0.010223012, 0.046069115, -606682.9, 504506.4, 0.0007577843, 10.0048485, 9.997358 
2.165218e+3, 1.9661115e+2, -689080.2, -1156074.5, 16714.31, 0.051381662, 0.049855012, -688482.7, 324734.03, 0.0000007166928, 10.003588, 9.997397 
2.1651591e+3, 2.0660925e+2, -638093.7, -935571.8, 1515.9137, 0.027357405, 0.070456035, -638086.0, 277149.47, 0.0, 10.002638, 9.998696 
2.1651001e+3, 2.1660799e+2, -666252.06, -915940.94, -29813.496, -0.0351493, 0.09092386, -662741.6, 154505.95, 0.0, 10.001847, 9.99854 
2.1650408e+3, 2.2660623e+2, -685937.6, -852082.1, -49112.938, -0.047319658, 0.074882805, -672505.6, 46759.69, 0.0, 10.000942, 9.998741 
2.1649815e+3, 2.3660444e+2, -730327.9, -824035.1, -23023.791, -0.028033545, 0.035268717, -724976.5, -103692.6, 0.0, 9.999969, 9.998731 
2.1649219e+3, 2.4660374e+2, -707178.6, -647686.75, -26171.746, -0.019544488, 0.060630824, -637812.2, -114520.69, 0.0, 9.998961, 9.999753 
2.164862e+3, 2.5660393e+2, -760726.7, -623604.75, -34223.113, -0.023974195, 0.11523652, -615537.9, -190246.95, 0.0, 9.997924, 9.999746 
2.1648018e+3, 2.6660386e+2, -734661.2, -454329.34, -53041.258, -0.054944724, 0.10752502, -444629.13, -117337.41, 0.0, 9.996976, 10.000691 
2.1647415e+3, 2.76604e+2, -768436.9, -421125.03, -61371.17, -0.07717871, 0.06664076, -410599.5, -181308.89, 0.0, 9.996077, 10.00068 
2.1646819e+3, 2.866058e+2, -761577.4, -258622.06, -62077.11, -0.011285642, 0.15021451, -251073.5, -119800.805, 0.0, 9.9949875, 10.001646 
2.1646225e+3, 2.9660848e+2, -864410.3, -273362.4, -57748.14, 0.02790643, 0.26748678, -267773.0, -234526.61, 0.0, 9.993678, 10.001503 
2.1645632e+3, 3.0660594e+2, -990855.2, -256878.13, 18836.027, -0.025874767, -0.13987169, -256395.05, -256395.05, 0.0, 9.992249, 10.001972 
2.1645035e+3, 3.166116e+2, -989609.25, -84432.34, -36436.84, -0.10247764, 0.23766235, -82967.99, -82967.99, 0.0, 9.9915285, 10.003497 
2.1756208e+3, 1.2669224e+2, -1379634.3, -1860430.5, 155518.19, -0.0050464263, -0.020512924, -1333715.9, 364702.38, 0.4929187, 10.006418, 9.9961 
2.1755706e+3, 1.366898e+2, -1006288.4, -1571479.8, 119892.89, 0.036530524, 0.11867292, -981907.44, 618539.6, 0.3697161, 10.008313, 9.996419 
2.1755147e+3, 1.4668593e+2, -736484.9, -1374532.3, -23957.004, -0.029902037, 0.058701914, -735586.6, 766898.3, 0.23759894, 10.00834, 9.997242 
2.1754566e+3, 1.5668271e+2, -686527.5, -1368080.5, 11173.117, -0.018071054, 0.030798938, -686344.4, 718169.2, 0.12290525, 10.007221, 9.996916 
2.1753985e+3, 1.6667922e+2, -673032.7, -1405776.0, 11631.132, 0.0012585452, 0.050176024, -672848.1, 633700.06, 0.046928927, 10.006449, 9.996324 
2.17534e+3, 1.7667565e+2, -631015.94, -1337467.8, -2812.914, 0.009361522, 0.07457442, -631004.7, 577580.9, 0.01106471, 10.005855, 9.996407 
2.1752807e+3, 1.866726e+2, -574494.8, -1104163.0, -45399.266, -0.0042247334, 0.07105159, -570631.7, 539983.75, 0.00093645754, 10.004845, 9.997823 
2.1752207e+3, 1.9667007e+2, -669276.75, -1117342.8, -25004.69, -0.024570134, 0.05407517, -667885.7, 344753.06, 0.0000029233315, 10.003593, 9.997663 
2.1751614e+3, 2.0666759e+2, -686589.7, -1038596.4, -26120.193, -0.021070655, 0.046949256, -684662.06, 230001.75, 0.0, 10.002644, 9.99799 
2.1751021e+3, 2.1666536e+2, -698774.4, -984670.8, -57359.195, -0.008720991, 0.038802184, -687695.75, 128991.59, 0.0, 10.001847, 9.998071 
2.1750417e+3, 2.2666436e+2, -631546.1, -740616.44, -83954.73, -0.021101573, 0.07408927, -585968.94, 132728.11, 0.0, 10.000943, 9.999508 
2.1749812e+3, 2.3666424e+2, -686855.9, -734726.4, -58310.656, -0.042760916, 0.12549473, -647759.1, -27061.666, 0.0, 9.999968, 9.999347 
2.1749206e+3, 2.4666317e+2, -715179.7, -665943.56, -65314.492, -0.02349714, 0.094487034, -620761.7, -98054.1, 0.0, 9.998963, 9.99963 
2.1748601e+3, 2.5666186e+2, -767558.7, -641530.4, -72596.83, 0.0074480656, 0.01791987, -608414.0, -183693.75, 0.0, 9.997934, 9.99962 
2.1747988e+3, 2.6666206e+2, -743826.75, -476973.72, -87682.16, -0.0403445, 0.045407392, -450741.84, -124022.19, 0.0, 9.996986, 10.000533 
2.174737e+3, 2.7666315e+2, -779885.9, -451388.06, -95194.98, -0.10597803, 0.11721121, -425795.47, -197084.84, 0.0, 9.996099, 10.0004635 
2.1746768e+3, 2.8666374e+2, -786411.7, -317606.72, -114723.96, -0.0037094883, 0.11193469, -291037.72, -160331.55, 0.0, 9.995013, 10.001232 
2.1746168e+3, 2.966646e+2, -862322.1, -273564.34, -118235.875, 0.10775792, 0.08552957, -250707.27, -218008.36, 0.0, 9.993691, 10.001499 
2.1745534e+3, 3.066682e+2, -853645.2, 32335.797, -29459.967, -0.21380882, 0.17554578, 33314.297, 33314.297, 0.0, 9.992227, 10.00397 
2.1744956e+3, 3.16671e+2, -1005710.8, -129212.71, -9764.451, -0.00046935206, 0.09078779, -129103.945, -129103.945, 0.0, 9.991562, 10.0031805 
2.1855801e+3, 1.3674948e+2, -729130.75, -1435937.8, 144848.86, -0.0023129315, 0.122874856, -700598.06, 899265.1, 0.38307637, 10.011572, 9.99636 
2.1855228e+3, 1.4674518e+2, -844128.2, -1432499.5, 95921.19, 0.012972112, 0.030986205, -828885.25, 673019.25, 0.24790223, 10.007511, 9.997123 
2.185464e+3, 1.5674242e+2, -628010.9, -1344361.5, 62594.957, 0.003002648, 0.06364344, -622582.44, 781347.6, 0.12956205, 10.007766, 9.9968405 
2.185405e+3, 1.6673902e+2, -586413.5, -1335771.9, 39365.86, 0.005119106, 0.08251071, -584351.2, 721612.75, 0.05032477, 10.006989, 9.996543 
2.1853454e+3, 1.7673534e+2, -652073.2, -1327759.6, 57167.805, -0.003766089, 0.07647307, -647270.5, 560730.94, 0.012284477, 10.005631, 9.996579 
2.1852851e+3, 1.8673238e+2, -589480.1, -1112420.1, 6787.094, -0.012245769, 0.07866719, -589392.06, 520638.28, 0.00116128, 10.004751, 9.997809 
2.1852246e+3, 1.9673008e+2, -594649.06, -1081290.4, -6801.704, -0.015821775, 0.0851769, -594554.0, 417498.1, 0.000008260521, 10.00411, 9.99766 
2.1851641e+3, 2.0672747e+2, -633540.0, -1010348.56, 11038.47, -0.010125035, 0.066027984, -633216.9, 280860.84, 0.0, 10.003002, 9.998008 
2.1851037e+3, 2.1672495e+2, -726398.94, -995975.0, 30460.646, -0.0008676344, 0.028451158, -722999.9, 93103.26, 0.0, 10.001654, 9.998084 
2.1850425e+3, 2.2672395e+2, -658235.25, -747711.8, -4454.7026, -0.015405134, 0.06295813, -658014.0, 60098.703, 0.0, 10.000739, 9.999556 
2.184981e+3, 2.36724e+2, -673393.75, -721559.94, -34589.098, -0.039146192, 0.12905696, -655329.5, -35217.797, 0.0, 10.000035, 9.999402 
2.1849194e+3, 2.4672298e+2, -700650.56, -648358.4, -55819.51, -0.027006611, 0.094985634, -612864.9, -90743.61, 0.0, 9.999023, 9.999719 
2.1848579e+3, 2.5672162e+2, -775720.2, -636570.06, -48034.91, -0.0015803536, 0.005489637, -621599.06, -197464.98, 0.0, 9.997847, 9.999694 
2.1847954e+3, 2.6672193e+2, -778390.8, -486870.38, -43211.293, -0.039212972, 0.040281698, -480600.13, -154467.86, 0.0, 9.996725, 10.000588 
2.1847329e+3, 2.767232e+2, -846973.0, -480395.03, -34695.816, -0.09316384, 0.12566742, -477140.06, -249018.36, 0.0, 9.995629, 10.000488 
2.1846716e+3, 2.8672338e+2, -829129.7, -341658.4, -31632.959, -0.0049850983, 0.08399479, -339614.25, -209492.89, 0.0, 9.9947405, 10.001196 
2.1846104e+3, 2.9672378e+2, -826728.4, -252104.97, -18608.838, 0.100965485, 0.016691662, -251502.97, -219384.02, 0.0, 9.993921, 10.001533 
2.1845451e+3, 3.067293e+2, -812461.94, 78421.234, -22293.293, -0.2565941, 0.28507605, 78978.75, 78978.75, 0.0, 9.992398, 10.004203 
2.1844873e+3, 3.1673062e+2, -1119087.9, -140180.77, -35003.418, 0.06421913, 0.031677682, -138930.72, -138930.72, 0.0, 9.9906025, 10.003566 
2.1955906e+3, 1.3681188e+2, -770626.6, -1445057.5, -88397.48, -0.09243278, 0.11553594, -759232.9, 840019.44, 0.39791286, 10.011302, 9.996427 
2.1955308e+3, 1.4680628e+2, -913011.7, -1606172.4, 109605.88, 0.08648366, -0.027644757, -896093.2, 605211.5, 0.2592135, 10.007625, 9.995758 
2.1954717e+3, 1.5680332e+2, -696011.56, -1485633.8, 69652.484, 0.014419875, 0.1174679, -689914.56, 713421.94, 0.13688087, 10.007767, 9.995818 
2.1954116e+3, 1.6679975e+2, -549888.3, -1249571.4, -4489.514, -0.02018585, 0.12558952, -549859.5, 755511.9, 0.054120738, 10.006971, 9.997167 
2.1953505e+3, 1.76796e+2, -621525.4, -1265087.5, 14801.061, -0.05412004, 0.051716905, -621185.1, 586221.5, 0.013700349, 10.005642, 9.997006 
2.1952897e+3, 1.8679315e+2, -619233.25, -1178495.8, -14273.426, -0.014894684, 0.07332016, -618869.25, 490566.16, 0.001449267, 10.0047655, 9.997352 
2.1952292e+3, 1.9679102e+2, -611795.94, -1118190.0, -31602.781, 0.06709105, 0.1406017, -609831.3, 401626.75, 0.000019271816, 10.004111, 9.997409 
2.1951675e+3, 2.0678873e+2, -585008.9, -911610.94, -38101.492, 0.052525386, 0.12374962, -580622.9, 332855.94, 0.0, 10.003005, 9.998687 
2.195105e+3, 2.167866e+2, -694986.5, -932571.94, -13452.45, -0.0139865605, 0.059106026, -694227.25, 121269.32, 0.0, 10.001657, 9.998521 
2.195043e+3, 2.2678486e+2, -705248.8, -847126.2, -29025.436, -0.030733528, 0.041429743, -699540.44, 17973.293, 0.0, 10.000742, 9.998875 
2.194981e+3, 2.367836e+2, -707986.0, -796484.8, -62616.977, -0.021656718, 0.043743037, -675561.44, -56033.375, 0.0, 10.000044, 9.998886 
2.1949182e+3, 2.4678305e+2, -679288.7, -606777.56, -101211.734, -0.0343686, 0.062478065, -535523.7, -13989.773, 0.0, 9.99903, 10.000004 
2.1948549e+3, 2.567831e+2, -755332.5, -597493.25, -92214.09, -0.058026966, 0.08529862, -555038.5, -131505.4, 0.0, 9.997855, 9.999961 
2.1947917e+3, 2.6678342e+2, -758437.3, -447848.88, -86222.49, -0.054311257, 0.09409291, -425518.16, -99987.8, 0.0, 9.99673, 10.000857 
2.1947287e+3, 2.7678397e+2, -825289.3, -437216.75, -73939.87, -0.037098482, 0.08291842, -423606.25, -196081.02, 0.0, 9.995632, 10.000787 
2.194666e+3, 2.8678483e+2, -803039.7, -290214.28, -61050.83, -0.020014085, 0.070051044, -283046.5, -153528.8, 0.0, 9.994745, 10.00155 
2.1946031e+3, 2.967864e+2, -821781.3, -250051.78, -52638.914, -0.012334331, 0.09012271, -245245.73, -213742.89, 0.0, 9.993951, 10.001536 
2.1945386e+3, 3.067884e+2, -935677.3, -185462.4, -97496.58, -0.12927683, 0.11798372, -172998.98, -172998.98, 0.0, 9.99243, 10.002378 
2.194477e+3, 3.167903e+2, -1045700.6, 13848.78, 13679.882, -0.0104846135, 0.084481634, 14025.372, 14025.372, 0.0, 9.9906, 10.004623 
2.2056006e+3, 1.3687544e+2, -1026801.7, -1555464.5, -65878.63, -0.04480026, 0.15666166, -1018715.94, 579913.5, 0.4142969, 10.008511, 9.996523 
2.2055395e+3, 1.4686902e+2, -665954.3, -1488331.1, 128781.05, 0.06982417, -0.045589443, -646259.4, 854430.8, 0.27165428, 10.010258, 9.995315 
2.2054794e+3, 1.5686597e+2, -712735.44, -1536293.9, 153326.88, 0.014312315, 0.13556942, -685115.94, 717608.0, 0.14500645, 10.0078745, 9.995438 
2.2054182e+3, 1.6686219e+2, -592922.7, -1272108.8, 84199.93, -0.015366728, 0.14320013, -582639.94, 722120.5, 0.058429144, 10.0067005, 9.997131 
2.2053562e+3, 1.7685822e+2, -557881.4, -1240748.3, 64305.1, -0.048042506, 0.05373806, -551878.56, 654918.2, 0.015371814, 10.006128, 9.996938 
2.2052947e+3, 1.8685514e+2, -575461.2, -1183579.5, 33585.01, -0.01185088, 0.07026537, -573611.94, 535216.06, 0.0018226358, 10.005187, 9.997111 
2.2052331e+3, 1.9685276e+2, -630466.4, -1144108.1, 28021.943, 0.065221675, 0.13711596, -628942.1, 381911.97, 0.00004015415, 10.004061, 9.997252 
2.2051704e+3, 2.0685054e+2, -552321.75, -871630.0, -1515.4734, 0.053708035, 0.122718796, -552314.56, 360559.22, 0.0, 10.003131, 9.9988985 
2.2051069e+3, 2.1684863e+2, -592873.7, -864941.75, -11331.134, -0.0053204615, 0.06250828, -592402.6, 222485.58, 0.0, 10.002284, 9.99868 
2.2050437e+3, 2.268469e+2, -669386.94, -840269.9, -7904.7373, -0.02263756, 0.044793367, -669022.06, 47883.55, 0.0, 10.001039, 9.9987755 
2.2049807e+3, 2.368455e+2, -776183.94, -833745.9, 1267.013, -0.017156817, 0.043506842, -776156.06, -157233.88, 0.0, 9.999601, 9.99884 
2.2049168e+3, 2.4684508e+2, -737748.06, -611204.75, -24549.457, -0.03756866, 0.06578604, -606609.06, -85682.305, 0.0, 9.998531, 10.000212 
2.2048523e+3, 2.5684538e+2, -777879.8, -589707.0, -22817.117, -0.07001988, 0.097169116, -586979.8, -164057.16, 0.0, 9.997624, 10.000124 
2.2047883e+3, 2.668457e+2, -756557.75, -444437.44, -30012.46, -0.05839382, 0.10145596, -441577.72, -116657.875, 0.0, 9.996738, 10.000874 
2.2047244e+3, 2.768462e+2, -794648.6, -415712.16, -40313.48, -0.023559477, 0.07987188, -411470.84, -184555.06, 0.0, 9.995819, 10.000841 
2.2046602e+3, 2.868473e+2, -816026.56, -273760.4, -42457.652, -0.032418802, 0.08103374, -270456.25, -141551.02, 0.0, 9.994564, 10.001747 
2.2045957e+3, 2.968492e+2, -919463.3, -287022.28, -45430.234, -0.06460521, 0.11291921, -283775.53, -252888.78, 0.0, 9.993243, 10.00162 
2.2045317e+3, 3.0684993e+2, -1006405.94, -310932.84, -52772.26, -0.024225295, 0.0530442, -306951.28, -306951.28, 0.0, 9.992341, 10.001558 
2.2044675e+3, 3.1685248e+2, -947581.3, 115540.55, 149567.81, -0.0039696586, 0.16879888, 136182.08, 136182.08, 0.0, 9.991046, 10.005103 
2.2156103e+3, 1.3693993e+2, -1033400.8, -1544708.3, 103232.95, 0.09269784, 0.23608729, -1013344.75, 584652.5, 0.43173748, 10.008588, 9.996624 
2.2155486e+3, 1.4693306e+2, -686430.5, -1464484.1, 62196.54, -0.027756559, -0.031092322, -681489.94, 818573.8, 0.2850715, 10.010054, 9.995623 
2.215487e+3, 1.5693004e+2, -704862.0, -1511236.0, 85639.33, 0.0035740822, 0.12375994, -695867.1, 706228.2, 0.15398107, 10.007927, 9.995569 
2.215425e+3, 1.6692604e+2, -625298.94, -1354044.8, 65585.5, 0.013735229, 0.14147744, -619443.44, 684690.4, 0.06333491, 10.006782, 9.996522 
2.2153628e+3, 1.7692177e+2, -590762.1, -1312598.0, 42112.8, 0.003945349, 0.079936884, -588313.5, 617860.4, 0.017352518, 10.0061455, 9.996439 
2.2152996e+3, 1.8691815e+2, -578723.5, -1192172.5, -6367.075, -0.008060434, 0.06773231, -578657.44, 529552.6, 0.002303132, 10.005192, 9.997053 
2.2152361e+3, 1.9691516e+2, -635438.4, -1157672.4, -8721.181, -0.01692695, 0.0796976, -635292.75, 374948.72, 0.000076304845, 10.004069, 9.997158 
2.2151726e+3, 2.069128e+2, -568721.9, -907998.6, -30485.006, -0.0024333538, 0.06836958, -566004.44, 346259.2, 0.0, 10.003136, 9.998649 
2.2151092e+3, 2.1691096e+2, -601514.8, -882740.44, -43956.53, 0.02058937, 0.039802182, -594804.4, 219474.63, 0.0, 10.002278, 9.998563 
2.215045e+3, 2.2690998e+2, -637201.9, -773841.9, -60752.965, 0.0043974435, 0.07294593, -614096.8, 102192.52, 0.0, 10.001036, 9.999236 
2.21498e+3, 2.369096e+2, -747878.5, -776299.44, -47857.566, -0.029072808, 0.12942703, -712166.2, -93871.15, 0.0, 9.999601, 9.999238 
2.214915e+3, 2.469089e+2, -729821.5, -596081.2, -58865.21, -0.03742851, 0.10344778, -573863.0, -53562.117, 0.0, 9.998532, 10.000318 
2.21485e+3, 2.5690836e+2, -773216.5, -584185.94, -56203.33, -0.03799133, 0.03541292, -568737.8, -146433.58, 0.0, 9.997637, 10.000158 
2.2147849e+3, 2.669087e+2, -773292.8, -483859.94, -64989.008, -0.054645054, 0.05952205, -469937.1, -145635.31, 0.0, 9.996752, 10.0006 
2.2147197e+3, 2.7690977e+2, -807442.4, -448987.78, -80560.125, -0.068714865, 0.12373708, -431714.8, -205420.97, 0.0, 9.995842, 10.000606 
2.2146545e+3, 2.869107e+2, -815467.56, -274226.66, -96997.46, -0.044401236, 0.11904012, -257368.53, -129083.33, 0.0, 9.994567, 10.001745 
2.2145891e+3, 2.969118e+2, -907676.5, -258872.4, -88701.54, -0.032454673, 0.071714796, -246964.1, -216690.23, 0.0, 9.993223, 10.001826 
2.2145244e+3, 3.0691403e+2, -972034.25, -245269.73, -84694.34, 0.029049141, 0.11933334, -235530.3, -235530.3, 0.0, 9.992355, 10.0020075 
2.2144583e+3, 3.169158e+2, -981098.3, 30485.664, 23820.66, -0.039966904, 0.13108595, 31046.28, 31046.28, 0.0, 9.991104, 10.004495 
2.2256199e+3, 1.3700335e+2, -942605.1, -1562423.0, 104296.28, 0.09783764, 0.06092565, -925525.9, 671849.94, 0.44979537, 10.010484, 9.995507 
2.2255571e+3, 1.4699936e+2, -966325.4, -1620644.1, 110293.3, -0.017305842, 0.12380833, -948234.3, 551181.4, 0.29933324, 10.007409, 9.9957695 
2.2254954e+3, 1.5699454e+2, -534681.5, -1402047.3, 113645.266, 0.0036187957, 0.08574274, -520038.5, 881424.0, 0.1638226, 10.00936, 9.995637 
2.2254325e+3, 1.6699019e+2, -407726.1, -1275827.9, 69999.57, 0.019078365, 0.083564326, -402117.9, 901386.44, 0.068883464, 10.008573, 9.996206 
2.2253692e+3, 1.7698623e+2, -557254.25, -1319916.8, 68893.336, 0.022566652, 0.086789146, -551080.94, 654461.2, 0.019668853, 10.0065, 9.996216 
2.225305e+3, 1.8698262e+2, -556304.1, -1164056.5, 49374.957, 0.00912741, 0.0765383, -552318.94, 555259.0, 0.0029023031, 10.00528, 9.997201 
2.2252402e+3, 1.9697946e+2, -574527.6, -1118796.9, 57980.547, -0.010111919, 0.06029161, -568419.5, 441190.4, 0.00013233708, 10.004453, 9.997237 
2.2251755e+3, 2.0697704e+2, -580458.7, -939634.2, 35886.156, -0.008876183, 0.055415552, -576908.3, 334725.22, 0.00000000002443796, 10.003173, 9.998411 
2.2251108e+3, 2.169752e+2, -698336.0, -944632.0, 22201.096, 0.0030618268, 0.050454237, -696350.8, 117299.83, 0.0, 10.001685, 9.998421 
2.2250454e+3, 2.2697434e+2, -667063.56, -762512.0, -1885.0623, -0.004068632, 0.0893141, -667026.4, 48633.39, 0.0, 10.000726, 9.99946 
2.2249797e+3, 2.3697414e+2, -676236.6, -720320.0, -7023.0483, -0.019491863, 0.14418873, -675144.8, -57482.18, 0.0, 10.000008, 9.999423 
2.2249138e+3, 2.4697343e+2, -662925.2, -563825.1, -25832.68, -0.023348993, 0.10844408, -557495.5, -37826.97, 0.0, 9.998999, 10.000311 
2.2248477e+3, 2.569727e+2, -742402.44, -566003.56, -32415.09, -0.025171574, 0.023858437, -560235.56, -138561.94, 0.0, 9.997843, 10.000179 
2.2247812e+3, 2.669731e+2, -791698.3, -483654.97, -27028.686, -0.05823789, 0.049909107, -481301.38, -157630.66, 0.0, 9.996593, 10.000673 
2.2247149e+3, 2.769744e+2, -883144.44, -478787.06, -20159.91, -0.09189601, 0.13093624, -477784.44, -252123.55, 0.0, 9.995299, 10.000659 
2.2246487e+3, 2.8697538e+2, -867370.25, -299194.4, -28755.438, -0.04586221, 0.13213268, -297742.8, -170090.98, 0.0, 9.994217, 10.0017395 
2.2245826e+3, 2.969763e+2, -914414.6, -260532.19, -20448.154, -0.0025526616, 0.06881129, -259893.36, -230251.1, 0.0, 9.9931755, 10.001835 
2.2245166e+3, 3.0697897e+2, -964721.7, -174781.83, -20077.059, 0.047614604, 0.13221624, -174271.88, -174271.88, 0.0, 9.992125, 10.002599 
2.2244488e+3, 3.1697986e+2, -970106.0, -13246.636, 74859.195, -0.094652705, -0.0032414368, -7425.4946, -7425.4946, 0.0, 9.991407, 10.004039 
2.2356291e+3, 1.3706623e+2, -1104628.0, -1901614.6, -138235.86, 0.001146417, -0.28716257, -1081332.1, 515427.88, 0.4694485, 10.009736, 9.993438 
2.2355655e+3, 1.4706752e+2, -947472.44, -1608102.5, 162512.56, 0.07467839, 0.3910243, -909659.25, 589090.6, 0.31504673, 10.0077305, 9.995758 
2.2355047e+3, 1.570594e+2, -546226.56, -1405174.8, 148686.05, 0.006302703, 0.024550578, -521216.8, 879609.25, 0.17479618, 10.0093565, 9.995636 
2.2354409e+3, 1.670546e+2, -425608.28, -1289797.4, -2917.7998, -0.0018156709, -0.020449685, -425598.4, 877273.75, 0.07513369, 10.008515, 9.996134 
2.2353752e+3, 1.7705151e+2, -557838.1, -1320319.9, 3869.7678, 0.009214161, 0.07659097, -557818.5, 647083.94, 0.022313317, 10.006507, 9.996212 
2.2353104e+3, 1.8704839e+2, -531899.25, -1117995.9, 20841.123, 0.03774785, 0.09644248, -531159.06, 575773.94, 0.0036130552, 10.005299, 9.99751 
2.2352454e+3, 1.9704549e+2, -559708.06, -1089574.5, 24308.678, 0.07501215, 0.076026306, -558595.2, 450366.22, 0.0002094018, 10.004454, 9.99744 
2.235179e+3, 2.070431e+2, -597235.94, -975631.3, -19374.342, 0.026778873, 0.080947205, -596246.56, 314738.88, 0.0000000065898873, 10.003172, 9.998167 
2.2351116e+3, 2.1704118e+2, -711142.1, -973454.1, -25520.44, -0.059943102, 0.092450365, -708682.3, 104322.53, 0.0, 10.001689, 9.998224 
2.2350454e+3, 2.2703983e+2, -668035.44, -766618.6, -26944.922, -0.048324846, 0.09318853, -661151.5, 53866.867, 0.0, 10.00073, 9.999433 
2.2349797e+3, 2.37039e+2, -677932.06, -726777.06, -35930.066, 0.008541773, 0.08623841, -658910.06, -41883.57, 0.0, 10.000014, 9.999378 
2.2349128e+3, 2.4703847e+2, -671167.06, -584409.5, -70219.79, 0.0017169636, 0.08021711, -545250.2, -26219.133, 0.0, 9.999008, 10.000168 
2.2348452e+3, 2.5703833e+2, -740881.25, -566817.5, -77930.48, -0.038591594, 0.067275375, -537026.0, -115994.195, 0.0, 9.997854, 10.000172 
2.2347777e+3, 2.6703882e+2, -761198.56, -421568.3, -78028.28, -0.07179509, 0.0743029, -404499.56, -81472.0, 0.0, 9.996593, 10.001103 
2.23471e+3, 2.7703992e+2, -857954.25, -426666.75, -66120.97, -0.090232775, 0.09404399, -416757.38, -191739.27, 0.0, 9.995295, 10.001022 
2.2346428e+3, 2.8704125e+2, -867393.8, -301798.63, -67511.48, -0.039254144, 0.11616428, -293851.84, -166846.38, 0.0, 9.994221, 10.001723 
2.2345755e+3, 2.9704276e+2, -927199.44, -294953.3, -60111.832, 0.0051832413, 0.11398035, -289288.84, -260297.84, 0.0, 9.993201, 10.00159 
2.2345082e+3, 3.070445e+2, -925141.4, -94368.39, -60088.59, 0.032241568, 0.078337505, -90044.77, -90044.77, 0.0, 9.992129, 10.00315 
2.2344404e+3, 3.1704777e+2, -1005428.75, -99373.62, 88228.47, -0.056842923, 0.09555511, -90862.195, -90862.195, 0.0, 9.991447, 10.003436 
2.2456318e+3, 1.371354e+2, -1503554.3, -1550425.5, 118185.195, -0.21297531, 0.27656454, -1406503.5, 189579.03, 0.4932363, 10.00141, 10.00028 
2.245576e+3, 1.4713301e+2, -457331.38, -1326046.0, 152668.86, 0.10658268, 0.32003498, -431282.28, 1066825.5, 0.3337005, 10.012965, 9.995664 
2.245514e+3, 1.5712558e+2, -586986.9, -1423479.0, 146510.52, 0.035328764, 0.030391674, -562068.06, 838109.3, 0.1874844, 10.009134, 9.995617 
2.2454487e+3, 1.6712104e+2, -545024.1, -1316482.3, 6939.9404, 0.01278124, -0.0015094584, -544961.7, 757259.3, 0.082173534, 10.007542, 9.996408 
2.2453818e+3, 1.7711806e+2, -482051.94, -1255986.4, 34343.26, 0.008199806, 0.08045768, -480530.97, 723719.7, 0.0252419, 10.00695, 9.996438 
2.2453156e+3, 1.8711504e+2, -453127.25, -1073462.9, 51587.2, 0.037575632, 0.100524284, -448866.53, 657413.7, 0.0044057677, 10.005824, 9.997562 
2.2452497e+3, 1.9711228e+2, -555218.1, -1081115.4, 34928.875, 0.08266024, 0.08809073, -552908.4, 455398.84, 0.00030327702, 10.004464, 9.99749 
2.2451821e+3, 2.0710994e+2, -571301.4, -957423.0, -4850.0283, 0.03540231, 0.09595468, -571240.5, 339090.0, 0.000000048944283, 10.003332, 9.998212 
2.2451136e+3, 2.1710807e+2, -620887.0, -926487.4, 8936.563, -0.053481556, 0.10846526, -620625.9, 191723.7, 0.0, 10.0023, 9.998249 
2.2450462e+3, 2.2710651e+2, -627294.06, -753284.7, 19423.105, -0.042843845, 0.092602074, -624367.75, 89997.21, 0.0, 10.001042, 9.999371 
2.2449794e+3, 2.3710534e+2, -728542.2, -752823.7, 7353.8, 0.014967964, 0.060789652, -726488.75, -110112.805, 0.0, 9.9996805, 9.999356 
2.2449113e+3, 2.47105e+2, -739974.0, -605198.5, -17064.467, -0.0016270863, 0.06733764, -603071.44, -84692.234, 0.0, 9.998489, 10.000271 
2.2448425e+3, 2.5710526e+2, -804608.6, -584756.3, -8980.78, -0.05470668, 0.08584194, -584390.06, -164013.38, 0.0, 9.997369, 10.000278 
2.2447737e+3, 2.6710582e+2, -785503.6, -417358.75, -19544.959, -0.07557007, 0.08963828, -416324.0, -93952.27, 0.0, 9.996367, 10.001236 
2.2447051e+3, 2.771068e+2, -832883.94, -398559.25, -30048.682, -0.0703034, 0.08539636, -396490.2, -172127.19, 0.0, 9.995408, 10.001154 
2.2446367e+3, 2.871083e+2, -840480.7, -277905.47, -34409.863, -0.03737238, 0.11660434, -275808.63, -149460.13, 0.0, 9.994368, 10.001811 
2.2445682e+3, 2.971102e+2, -921413.5, -286627.88, -23952.74, -0.024691125, 0.14655817, -285725.34, -257395.1, 0.0, 9.993228, 10.001629 
2.2445005e+3, 3.0711117e+2, -919903.9, -84245.375, -15925.916, 0.056381244, 0.030469812, -83941.97, -83941.97, 0.0, 9.992142, 10.003209 
2.2444318e+3, 3.171161e+2, -1073253.4, -137626.56, 88744.74, -0.001746961, 0.2033577, -129283.47, -129283.47, 0.0, 9.991003, 10.00339 
2.2555883e+3, 1.4719659e+2, -511062.2, -1354503.8, 58150.79, 0.07736422, -0.0148807, -507071.88, 990410.7, 0.35675052, 10.01286, 9.995474 
2.2555235e+3, 1.5719298e+2, -602879.75, -1427732.8, 54329.445, 0.08400734, 0.09650053, -599316.7, 800200.3, 0.2023613, 10.009151, 9.995551 
2.2554566e+3, 1.6718927e+2, -513213.34, -1244454.8, -7554.879, 0.056158144, 0.119280145, -513135.28, 788418.06, 0.08999846, 10.007577, 9.996927 
2.2553885e+3, 1.7718573e+2, -458764.5, -1203795.3, 10348.354, 0.014361101, 0.095443904, -458620.8, 744967.5, 0.028358374, 10.006955, 9.996797 
2.2553208e+3, 1.871825e+2, -468210.5, -1103271.6, 2627.4436, 0.007259283, 0.09178038, -468199.63, 637420.75, 0.0052298913, 10.005816, 9.997363 
2.2552532e+3, 1.9717969e+2, -562610.6, -1096290.5, -10433.958, 0.01579226, 0.0956275, -562406.7, 445241.47, 0.00040456676, 10.004458, 9.997393 
2.2551851e+3, 2.0717746e+2, -550780.94, -916351.8, -40542.367, 0.018677656, 0.10022857, -546338.75, 363330.97, 0.000000125085, 10.003333, 9.998496 
2.2551163e+3, 2.1717574e+2, -606058.25, -897130.2, -29216.316, 0.01717644, 0.098644055, -603154.6, 208531.48, 0.0, 10.0023, 9.998453 
2.2550476e+3, 2.2717422e+2, -635803.7, -770927.7, -30396.691, 0.0075718877, 0.08721742, -629280.75, 84420.12, 0.0, 10.001038, 9.999254 
2.2549787e+3, 2.371731e+2, -729048.1, -755227.94, -41373.586, -0.004811085, 0.06796809, -698743.1, -83030.98, 0.0, 9.999681, 9.999343 
2.2549091e+3, 2.4717288e+2, -716956.8, -558308.2, -60079.066, -0.03590354, 0.06986874, -538124.5, -20410.428, 0.0, 9.998488, 10.000596 
2.2548394e+3, 2.5717333e+2, -789993.0, -556788.1, -50226.414, -0.07788401, 0.07778083, -546430.6, -126721.18, 0.0, 9.997374, 10.000471 
2.2547698e+3, 2.6717395e+2, -799929.4, -449988.53, -57205.62, -0.07213482, 0.09435923, -440874.38, -119169.95, 0.0, 9.996372, 10.001013 
2.2547007e+3, 2.771749e+2, -842492.75, -422408.28, -67826.35, -0.03677896, 0.108814076, -411728.63, -188031.84, 0.0, 9.995419, 10.000989 
2.2546309e+3, 2.8717643e+2, -826977.0, -255291.75, -80247.33, -0.04389207, 0.13798045, -244241.06, -118558.91, 0.0, 9.994384, 10.001963 
2.2545606e+3, 2.971785e+2, -895228.7, -240846.52, -71750.73, -0.09877309, 0.16901317, -233071.67, -205409.98, 0.0, 9.9932575, 10.001933 
2.2544932e+3, 3.071787e+2, -943436.1, -136748.34, -53420.93, 0.12267846, -0.02534511, -133226.05, -133226.05, 0.0, 9.992154, 10.002844 
2.2544222e+3, 3.171834e+2, -983190.6, 55756.184, 10288.757, -0.04860077, 0.17664035, 55858.066, 55858.066, 0.0, 9.990968, 10.004739 
2.2656009e+3, 1.4726579e+2, -612029.94, -1406693.4, 109498.71, 0.0874251, -0.085293435, -597217.94, 899585.1, 0.38418254, 10.012336, 9.995203 
2.2655328e+3, 1.5726286e+2, -524454.44, -1406070.4, 126145.77, 0.070218824, 0.12588276, -506760.06, 892071.8, 0.21911392, 10.010139, 9.995247 
2.2654644e+3, 1.6725878e+2, -414564.13, -1224761.5, 95060.305, 0.058667358, 0.14777756, -403560.16, 897312.0, 0.09831519, 10.008538, 9.996615 
2.2653958e+3, 1.7725445e+2, -434290.16, -1215134.5, 63549.44, 0.049134467, 0.077361256, -429151.97, 773762.94, 0.031491455, 10.007258, 9.996571 
2.2653267e+3, 1.8725121e+2, -455975.8, -1087233.0, 41296.41, 0.021398103, 0.077165164, -453285.7, 651661.6, 0.006020954, 10.005869, 9.997445 
2.2652574e+3, 1.9724871e+2, -558094.25, -1083125.1, 47655.836, -0.011859569, 0.106466524, -553803.7, 453168.53, 0.00050149375, 10.004449, 9.997484 
2.265188e+3, 2.0724645e+2, -542163.9, -899196.25, 27579.85, 0.0057876864, 0.100281894, -540045.94, 368947.56, 0.00000020427954, 10.003342, 9.998607 
2.2651187e+3, 2.1724458e+2, -588910.9, -877355.0, 22133.535, 0.045031145, 0.07388368, -587222.4, 223788.36, 0.0, 10.002376, 9.998549 
2.2650486e+3, 2.2724321e+2, -618981.6, -759460.7, 14403.095, 0.021896947, 0.072954886, -617520.06, 95504.36, 0.0, 10.001144, 9.999278 
2.264978e+3, 2.3724234e+2, -708993.75, -738965.7, 13742.837, -0.026485404, 0.0797422, -703646.4, -88612.38, 0.0, 9.999797, 9.999396 
2.2649072e+3, 2.4724227e+2, -706378.4, -536403.25, -5799.2085, -0.048194095, 0.08746659, -536205.6, -19170.88, 0.0, 9.998495, 10.00074 
2.2648367e+3, 2.5724283e+2, -804616.1, -550868.2, -7270.814, -0.06158489, 0.092271276, -550660.0, -131630.73, 0.0, 9.997225, 10.00058 
2.2647661e+3, 2.6724344e+2, -812529.2, -455559.0, 3048.78, -0.06455061, 0.10337141, -455532.97, -134508.55, 0.0, 9.996291, 10.00101 
2.2646958e+3, 2.7724427e+2, -838306.75, -419336.97, 3763.355, -0.04803917, 0.11002336, -419303.2, -196285.69, 0.0, 9.99545, 10.000992 
2.264625e+3, 2.8724572e+2, -841999.0, -255549.84, -16376.661, -0.045181476, 0.13229375, -255092.89, -130089.63, 0.0, 9.994259, 10.002018 
2.2645535e+3, 2.9724786e+2, -931020.56, -244644.4, -17700.795, -0.08708128, 0.16527203, -244188.22, -217206.2, 0.0, 9.992961, 10.002046 
2.2644849e+3, 3.0724812e+2, -1003600.8, -189982.78, 456.11636, 0.11206953, -0.021326227, -189982.52, -189982.52, 0.0, 9.991857, 10.002616 
2.2644126e+3, 3.1725255e+2, -956333.4, 146052.27, 41289.934, -0.07474472, 0.18649468, 147596.63, 147596.63, 0.0, 9.99083, 10.005419 
2.2756132e+3, 1.4733952e+2, -689975.5, -1453715.1, 53541.34, 0.11787894, 0.048514277, -686240.25, 809839.7, 0.41356584, 10.012092, 9.994822 
2.275542e+3, 1.573348e+2, -566491.8, -1481751.1, 66027.73, -0.0008956307, 0.122159675, -561753.06, 836373.06, 0.23631485, 10.010204, 9.994677 
2.2754724e+3, 1.6732943e+2, -477609.88, -1361621.8, 53037.074, 0.021679414, 0.1013297, -474439.22, 825739.94, 0.10646697, 10.008603, 9.995594 
2.2754033e+3, 1.7732413e+2, -485579.84, -1321432.1, 19999.19, 0.10459236, 0.030246552, -485101.63, 717130.1, 0.03440227, 10.0072565, 9.995844 
2.2753328e+3, 1.87321e+2, -436202.7, -1045731.2, -8667.875, 0.07241679, 0.056106173, -436079.44, 668183.2, 0.006715053, 10.005865, 9.997737 
2.2752614e+3, 1.9731916e+2, -542445.94, -1053403.5, 662.77325, -0.007565796, 0.120142855, -542445.06, 463836.16, 0.00058419164, 10.004455, 9.997688 
2.275191e+3, 2.0731677e+2, -546314.7, -908912.1, -6638.87, -0.006658112, 0.0968978, -546193.2, 362110.4, 0.0000002772361, 10.003341, 9.998544 
2.2751206e+3, 2.1731447e+2, -591393.94, -881431.6, -14124.12, 0.027295506, 0.033323895, -590707.75, 219617.05, 0.0, 10.002365, 9.998529 
2.2750491e+3, 2.2731334e+2, -610706.6, -741724.5, -34475.418, -0.0013765733, 0.050038755, -602188.75, 110148.25, 0.0, 10.001138, 9.999406 
2.2749773e+3, 2.3731299e+2, -701984.94, -725923.1, -35332.953, -0.05385452, 0.09610647, -676648.9, -62306.168, 0.0, 9.999798, 9.999488 
2.2749057e+3, 2.4731308e+2, -710336.3, -547025.25, -55096.668, -0.0403882, 0.119480595, -530175.6, -13833.154, 0.0, 9.998499, 10.000668 
2.2748339e+3, 2.573136e+2, -802891.9, -550921.75, -51554.81, -0.0072686644, 0.12909238, -540781.4, -122444.06, 0.0, 9.997234, 10.000578 
2.2747622e+3, 2.673141e+2, -796198.94, -425154.78, -29548.29, -0.054405447, 0.11785782, -422816.44, -102483.99, 0.0, 9.9963, 10.001218 
2.2746904e+3, 2.7731484e+2, -823234.44, -394553.38, -33299.32, -0.11490092, 0.09175945, -391982.16, -169656.77, 0.0, 9.995472, 10.001155 
2.2746189e+3, 2.873161e+2, -845714.2, -266645.5, -67920.63, -0.044936925, 0.09095473, -258785.58, -134472.63, 0.0, 9.9942665, 10.001941 
2.274547e+3, 2.9731798e+2, -942836.6, -266680.06, -63490.363, 0.016511232, 0.109737225, -260770.06, -234475.86, 0.0, 9.992944, 10.001906 
2.2744754e+3, 3.0731985e+2, -1015898.6, -216041.22, -41722.58, 0.008791544, 0.10390782, -213870.75, -213870.75, 0.0, 9.991851, 10.002443 
2.274404e+3, 3.173222e+2, -1008427.0, 11322.41, -28410.473, 0.0050139343, 0.11743775, 12113.319, 12113.319, 0.0, 9.990922, 10.004461 
2.2856231e+3, 1.4741263e+2, -910372.1, -1592735.1, 60638.953, 0.02799201, 0.12575144, -905025.3, 590338.06, 0.4408184, 10.009878, 9.994754 
2.2855532e+3, 1.5740658e+2, -407346.6, -1384300.5, 65997.15, 0.055123452, 0.07440694, -402908.38, 994513.5, 0.25180212, 10.011882, 9.994554 
2.285482e+3, 1.6740105e+2, -269469.94, -1271201.1, 36889.004, 0.061110254, 0.057568032, -268113.34, 1031363.0, 0.113550656, 10.010373, 9.99538 
2.2854102e+3, 1.7739606e+2, -473723.63, -1336124.9, 59399.453, 0.06811443, 0.04165978, -469651.6, 731874.4, 0.036814954, 10.007452, 9.995646 
2.2853382e+3, 1.8739276e+2, -444208.9, -1062851.0, 57112.79, 0.0444838, 0.066737734, -438980.47, 664578.5, 0.0072565274, 10.0058775, 9.997609 
2.285266e+3, 1.9739054e+2, -484831.84, -1032079.94, 35983.715, 0.004126297, 0.108411856, -482475.9, 523105.5, 0.000645654, 10.004888, 9.9976225 
2.2851941e+3, 2.0738822e+2, -523549.75, -885077.44, 27261.035, 0.002779419, 0.08786309, -521505.7, 386097.8, 0.00000034673354, 10.003449, 9.9986515 
2.2851223e+3, 2.1738613e+2, -658635.6, -899858.8, 29553.89, 0.018963287, 0.037430424, -655067.56, 154555.16, 0.0, 10.001849, 9.998649 
2.2850496e+3, 2.273852e+2, -682087.0, -757420.56, 17002.37, -0.007207099, 0.06009373, -678427.44, 33205.82, 0.0, 10.000572, 9.999568 
2.2849765e+3, 2.37385e+2, -746221.3, -733992.75, 19159.809, -0.04839269, 0.10915134, -719995.25, -106357.8, 0.0, 9.999443, 9.999599 
2.2849038e+3, 2.4738511e+2, -714657.0, -556596.7, 6499.8784, -0.040325545, 0.134851, -556329.9, -40692.418, 0.0, 9.998508, 10.000594 
2.2848311e+3, 2.5738555e+2, -748378.3, -526555.06, 8059.5205, -0.015669433, 0.14574178, -526262.56, -108629.4, 0.0, 9.9976225, 10.000555 
2.2847582e+3, 2.6738608e+2, -786646.2, -408625.3, 22511.906, -0.057236366, 0.13145478, -407289.4, -87661.5, 0.0, 9.996321, 10.001318 
2.2846854e+3, 2.7738687e+2, -903391.1, -421734.78, 10814.989, -0.10952336, 0.102641426, -421492.06, -199872.33, 0.0, 9.994878, 10.001251 
2.2846131e+3, 2.8738797e+2, -858423.6, -266375.03, -13453.843, -0.032809746, 0.08000266, -266069.47, -142460.73, 0.0, 9.994158, 10.001991 
2.2845402e+3, 2.973895e+2, -842513.94, -219416.2, -5191.5474, 0.040605698, 0.060859542, -219372.95, -193779.5, 0.0, 9.993645, 10.001889 
2.2844666e+3, 3.0739293e+2, -926166.56, -163790.23, 21909.732, -0.053245977, 0.21168765, -163161.1, -163161.1, 0.0, 9.992437, 10.002515 
2.284395e+3, 3.173933e+2, -1044663.7, -78205.06, 40368.355, 0.04307212, 0.024096785, -76521.836, -76521.836, 0.0, 9.990994, 10.003804 
2.2956309e+3, 1.474853e+2, -911126.75, -1562584.4, 102124.65, -0.17136839, 0.16023368, -895492.5, 599158.8, 0.46201172, 10.010064, 9.994933 
2.2955666e+3, 1.5747826e+2, -423127.53, -1365363.9, 89419.8, 0.2108419, -0.009017138, -414716.53, 982001.9, 0.2634633, 10.011757, 9.994795 
2.2954929e+3, 1.6747351e+2, -264248.03, -1223256.5, -61941.95, 0.15462103, 0.016335174, -260263.78, 1038501.06, 0.11867673, 10.010243, 9.995821 
2.295416e+3, 1.7746998e+2, -459198.53, -1305578.3, -30644.14, -0.05293535, 0.10522342, -458090.5, 742709.9, 0.038463052, 10.00746, 9.995855 
2.2953428e+3, 1.8746622e+2, -478077.13, -1137182.5, 21982.666, -0.05435854, 0.10585625, -477344.75, 625493.94, 0.0075943004, 10.005889, 9.997094 
2.2952707e+3, 1.9746274e+2, -510498.4, -1081240.5, -3184.7786, 0.01923256, 0.07104214, -510480.63, 494393.53, 0.0006792974, 10.004863, 9.9973 
2.2951975e+3, 2.0746066e+2, -508999.25, -852569.8, -30549.5, 0.029116297, 0.07297618, -506304.0, 400590.44, 0.0000003861362, 10.003433, 9.998885 
2.2951238e+3, 2.1745943e+2, -643228.4, -868389.06, -23785.521, 0.015619434, 0.08411574, -640743.1, 168162.83, 0.0, 10.001844, 9.99887 
2.29505e+3, 2.2745861e+2, -670376.2, -734100.75, -24063.832, 0.0016167613, 0.10132077, -662310.1, 48604.652, 0.0, 10.00057, 9.999732 
2.2949763e+3, 2.3745827e+2, -737781.8, -718644.8, -20083.479, -0.013999721, 0.117527075, -705966.9, -93047.18, 0.0, 9.999447, 9.999706 
2.294902e+3, 2.4745825e+2, -719703.6, -570269.1, -26977.922, -0.051997177, 0.13330528, -565547.9, -50627.207, 0.0, 9.998516, 10.0005 
2.2948277e+3, 2.574586e+2, -750025.5, -535614.0, -30737.781, -0.097725056, 0.142547, -531294.5, -114376.805, 0.0, 9.997641, 10.000487 
2.2947541e+3, 2.6745918e+2, -787694.3, -414072.53, -35205.754, -0.07669408, 0.14280902, -410784.1, -91872.375, 0.0, 9.996328, 10.00128 
2.2946806e+3, 2.7746022e+2, -903094.4, -421486.28, -35427.75, -0.023932075, 0.14000216, -418894.13, -197992.39, 0.0, 9.994873, 10.001259 
2.2946072e+3, 2.8746134e+2, -846144.5, -243529.19, -32149.512, -0.01103301, 0.107943095, -241818.86, -118928.305, 0.0, 9.9941635, 10.002149 
2.294533e+3, 2.9746258e+2, -830015.6, -204330.13, -34343.582, -0.042998746, 0.045473386, -202450.66, -177572.9, 0.0, 9.993685, 10.001977 
2.2944587e+3, 3.0746666e+2, -895552.56, -114060.984, -31009.85, -0.055002023, 0.24598697, -112832.43, -112832.43, 0.0, 9.992488, 10.002836 
2.2943854e+3, 3.1746787e+2, -1053335.4, -98670.266, -21768.787, 0.008217258, 0.10398842, -98174.14, -98174.14, 0.0, 9.99101, 10.003654 
2.3056436e+3, 1.4755788e+2, -594734.3, -1366308.3, 93783.75, -0.09921152, 0.09967839, -583498.6, 910440.2, 0.47425327, 10.014376, 9.9949 
2.3055767e+3, 1.5755145e+2, -646168.4, -1490877.6, 77749.09, 0.18158089, -0.0060421596, -639071.75, 756929.25, 0.2697964, 10.009709, 9.994855 
2.3055017e+3, 1.6754708e+2, -496879.22, -1298139.6, -74504.6, 0.12539487, 0.031116923, -490010.34, 808034.06, 0.121187106, 10.00827, 9.996191 
2.3054236e+3, 1.7754386e+2, -351613.53, -1215678.5, -53215.824, -0.05473096, 0.116645835, -348348.44, 851728.4, 0.03912426, 10.008086, 9.996167 
2.3053487e+3, 1.8754016e+2, -392647.47, -1085216.4, 22231.346, -0.056785595, 0.10842808, -391934.6, 710179.7, 0.0076775406, 10.006443, 9.997181 
2.3052749e+3, 1.9753665e+2, -586878.4, -1105920.4, 36242.723, 0.008924306, 0.061753284, -584359.9, 419790.0, 0.00067828235, 10.0042925, 9.997401 
2.3052004e+3, 2.0753483e+2, -569261.9, -868207.3, 25234.2, 0.0202002, 0.080158256, -567146.8, 339021.2, 0.00000036724302, 10.002968, 9.998998 
2.3051254e+3, 2.1753395e+2, -616127.4, -843186.94, 22214.518, 0.011392494, 0.11904644, -613974.44, 194201.94, 0.0, 10.001987, 9.99897 
2.3050503e+3, 2.2753306e+2, -636729.9, -713510.06, 15806.967, -0.0046951436, 0.121632576, -633603.0, 76582.8, 0.0, 10.00079, 9.9997635 
2.3049754e+3, 2.375324e+2, -724712.8, -707069.25, 12995.125, -0.022795022, 0.107610695, -700184.44, -87991.67, 0.0, 9.99952, 9.999747 
2.3049001e+3, 2.4753235e+2, -723581.56, -565440.4, 20951.176, -0.055955403, 0.11538534, -562711.75, -48517.918, 0.0, 9.9984665, 10.000554 
2.3048249e+3, 2.5753275e+2, -770431.1, -542374.6, 22717.857, -0.096048966, 0.1264093, -540133.6, -123943.46, 0.0, 9.997493, 10.000509 
2.3047502e+3, 2.675334e+2, -772509.6, -413833.88, 8776.63, -0.0774686, 0.1348158, -413619.25, -95434.92, 0.0, 9.996469, 10.001212 
2.3046756e+3, 2.7753443e+2, -828963.4, -387798.66, 9204.39, -0.022417437, 0.14164494, -387606.72, -167431.9, 0.0, 9.995398, 10.001234 
2.304601e+3, 2.8753564e+2, -845191.9, -233892.4, 18393.68, -0.0035916038, 0.120707124, -233339.45, -111176.91, 0.0, 9.994137, 10.002225 
2.3045258e+3, 2.9753718e+2, -949338.6, -244054.34, 4396.659, -0.040427927, 0.07390171, -244026.94, -219879.39, 0.0, 9.992794, 10.002131 
2.3044504e+3, 3.07541e+2, -976213.56, -123687.98, 8676.81, -0.06916815, 0.23300393, -123599.67, -123599.67, 0.0, 9.991804, 10.003102 
2.3043765e+3, 3.1754234e+2, -1070517.4, -112647.3, -6517.2847, 0.042622905, 0.0844317, -112602.96, -112602.96, 0.0, 9.990929, 10.003592 
2.3156601e+3, 1.4763057e+2, -618826.2, -1390835.4, -1134.1156, 0.13639173, -0.031209314, -618824.56, 874399.6, 0.47569522, 10.0141945, 9.994669 
2.3155843e+3, 1.5762599e+2, -646827.56, -1504022.5, -22179.207, -0.007994616, 0.06957072, -646254.06, 749017.3, 0.26997894, 10.009755, 9.994732 
2.3155083e+3, 1.6762158e+2, -475174.97, -1258470.5, -75311.14, -0.0063014, 0.09055932, -467999.78, 829316.25, 0.120729305, 10.008291, 9.996486 
2.3154324e+3, 1.776177e+2, -333823.16, -1167413.1, -72863.9, 0.04225837, 0.079030685, -327502.06, 871853.0, 0.038678654, 10.008028, 9.996538 
2.3153555e+3, 1.8761458e+2, -359112.38, -1006056.25, -56213.13, 0.01757073, 0.07848068, -354264.34, 747121.7, 0.007482248, 10.006393, 9.997756 
2.3152785e+3, 1.976121e+2, -558094.56, -1044939.6, -31546.096, -0.030045612, 0.079357326, -556059.0, 447351.47, 0.00064118777, 10.00428, 9.99783 
2.3152027e+3, 2.0761053e+2, -569849.0, -870572.94, -9134.498, -0.022942228, 0.10873119, -569571.8, 335854.13, 0.0000002876449, 10.002968, 9.998985 
2.3151273e+3, 2.1760958e+2, -619426.25, -849578.6, -14392.918, 0.0020752184, 0.14109467, -618529.7, 188905.81, 0.0, 10.001979, 9.998933 
2.3150508e+3, 2.2760835e+2, -645704.8, -732581.2, -30401.352, -0.029798502, 0.12071429, -636123.06, 73324.62, 0.0, 10.000786, 9.999639 
2.3149739e+3, 2.3760732e+2, -727074.44, -713674.9, -31064.402, -0.078886, 0.07811555, -688596.0, -77138.02, 0.0, 9.99952, 9.999705 
2.3148984e+3, 2.4760729e+2, -709819.44, -539875.0, -16669.844, -0.052439343, 0.07946562, -538255.3, -24797.24, 0.0, 9.998473, 10.000729 
2.3148233e+3, 2.576079e+2, -761994.3, -529299.56, -15536.523, -0.007915339, 0.09524368, -528266.8, -112815.05, 0.0, 9.997505, 10.000596 
2.3147465e+3, 2.6760852e+2, -778964.4, -431166.66, -32927.3, -0.06317563, 0.10651313, -428076.75, -110630.13, 0.0, 9.996479, 10.001091 
2.3146696e+3, 2.7760938e+2, -830212.6, -397041.03, -33692.617, -0.12837724, 0.10731593, -394436.06, -174996.4, 0.0, 9.9954195, 10.0011635 
2.3145947e+3, 2.8761083e+2, -846254.3, -237744.08, -35010.27, -0.011990727, 0.11322651, -235736.4, -114310.78, 0.0, 9.994138, 10.002201 
2.3145197e+3, 2.97613e+2, -937247.9, -214764.64, -42976.848, 0.08361526, 0.13352022, -212217.16, -188812.64, 0.0, 9.992768, 10.002349 
2.3144414e+3, 3.0761623e+2, -961360.6, -89513.2, -22635.357, -0.14061956, 0.19343919, -88925.93, -88925.93, 0.0, 9.99178, 10.003353 
2.3143679e+3, 3.1761795e+2, -1036218.25, -39432.85, -44738.91, 0.11539294, 0.071909174, -37428.855, -37428.855, 0.0, 9.990922, 10.004096 
2.3256738e+3, 1.4770624e+2, -668891.94, -1439978.1, -7994.3, 0.14822772, -0.031564165, -668809.06, 823675.3, 0.46536693, 10.01348, 9.994353 
2.3255937e+3, 1.5770184e+2, -505286.6, -1426285.5, -25167.979, -0.06460066, 0.11765438, -504599.34, 889931.25, 0.26358402, 10.011068, 9.99463 
2.3255163e+3, 1.6769749e+2, -370376.13, -1165444.6, -13407.239, -0.042389687, 0.12412521, -370150.1, 926424.06, 0.117213435, 10.008875, 9.996922 
2.3254395e+3, 1.776937e+2, -463323.53, -1184999.1, -5846.5884, 0.05625618, 0.079795815, -463276.16, 735335.44, 0.03716078, 10.006899, 9.996951 
2.3253614e+3, 1.8769093e+2, -478388.44, -1030838.1, -10802.08, 0.031874318, 0.08350223, -478177.3, 622461.25, 0.007041946, 10.005431, 9.998043 
2.3252825e+3, 1.9768889e+2, -553809.0, -1014735.6, -452.9654, -0.033791374, 0.100894175, -553808.56, 448849.88, 0.0005764907, 10.004197, 9.998072 
2.3252054e+3, 2.0768723e+2, -554200.8, -855126.2, 39120.832, -0.025268015, 0.10965142, -549198.2, 355476.13, 0.0000001776364, 10.003049, 9.999047 
2.3251289e+3, 2.17686e+2, -620475.94, -843187.7, 34842.004, 0.008372117, 0.11059312, -615152.4, 191533.7, 0.0, 10.001949, 9.998988 
2.3250513e+3, 2.2768484e+2, -644440.8, -731075.8, 23407.629, -0.030357882, 0.09654793, -638520.9, 70176.484, 0.0, 10.000797, 9.9996395 
2.3249732e+3, 2.3768398e+2, -711791.4, -704708.7, 32750.342, -0.08909852, 0.07294874, -675308.8, -64602.953, 0.0, 9.999627, 9.999712 
2.3248965e+3, 2.4768388e+2, -714407.6, -541674.25, 45188.43, -0.05306031, 0.069520354, -530566.8, -17860.291, 0.0, 9.998447, 10.000726 
2.3248203e+3, 2.5768435e+2, -796711.94, -543567.0, 32966.008, 0.009875169, 0.07377722, -539344.4, -124642.88, 0.0, 9.997265, 10.00061 
2.3247427e+3, 2.676851e+2, -818426.75, -442055.78, 23484.385, -0.05385171, 0.09416245, -440596.1, -123900.99, 0.0, 9.996181, 10.001156 
2.3246646e+3, 2.776861e+2, -874119.0, -414884.7, 31967.404, -0.13836768, 0.10657675, -412670.1, -193983.69, 0.0, 9.9951105, 10.001186 
2.3245886e+3, 2.8768736e+2, -851736.3, -249195.4, 26656.945, -0.018077673, 0.095672935, -248018.38, -127343.61, 0.0, 9.994145, 10.002115 
2.3245125e+3, 2.9768932e+2, -871527.44, -183568.64, 12501.857, 0.09649482, 0.10855106, -183341.53, -160686.1, 0.0, 9.993231, 10.002335 
2.3244332e+3, 3.076926e+2, -909096.1, -65288.098, 9411.18, -0.12359693, 0.16982234, -65183.15, -65183.15, 0.0, 9.99215, 10.003338 
2.3243584e+3, 3.1769463e+2, -993038.1, 4533.0747, -31382.701, 0.08425212, 0.09439533, 5519.371, 5519.371, 0.0, 9.991131, 10.0042925 
2.3356853e+3, 1.4778431e+2, -648378.94, -1470482.3, -59264.016, -0.03287658, 0.064970784, -644128.7, 847595.5, 0.443354, 10.013504, 9.993942 
2.335605e+3, 1.5777877e+2, -502815.97, -1451818.5, -88085.37, -0.020914368, 0.1373519, -494709.25, 899071.1, 0.25067613, 10.011, 9.99451 
2.3355252e+3, 1.6777465e+2, -340220.8, -1102302.6, -73786.21, -0.010832877, 0.13595326, -333142.44, 962677.94, 0.110836685, 10.008804, 9.997438 
2.3354456e+3, 1.7777158e+2, -436882.5, -1131020.5, -66337.54, -0.005714799, 0.114537, -430599.6, 767249.56, 0.034743916, 10.006879, 9.997348 
2.335366e+3, 1.87769e+2, -477675.4, -1029678.44, -53397.785, -0.0071613817, 0.11952683, -472557.44, 627316.9, 0.006431971, 10.005423, 9.998058 
2.3352866e+3, 1.9776681e+2, -552114.5, -1009646.44, -41213.887, -0.009775582, 0.12298917, -548431.7, 453463.97, 0.0004987027, 10.004183, 9.998117 
2.3352085e+3, 2.0776476e+2, -547422.9, -840863.8, 856.3351, 0.006321609, 0.08260135, -547420.4, 356494.22, 0.000000083399684, 10.003042, 9.999153 
2.3351306e+3, 2.177631e+2, -613670.1, -829103.94, -3905.011, 0.025455773, 0.02904769, -613599.3, 192330.11, 0.0, 10.001943, 9.999091 
2.3350517e+3, 2.277624e+2, -636727.9, -716516.4, -19021.393, -0.008433321, 0.051460844, -632425.25, 75510.8, 0.0, 10.000797, 9.999742 
2.3349729e+3, 2.3776229e+2, -709314.56, -701884.56, -10529.277, -0.058184836, 0.093493514, -694434.1, -84496.59, 0.0, 9.99963, 9.999732 
2.3348945e+3, 2.4776204e+2, -727780.2, -571876.06, -1001.9874, -0.06263744, 0.08669597, -571869.6, -59929.348, 0.0, 9.998452, 10.000519 
2.3348166e+3, 2.57762e+2, -801400.3, -555382.7, -11315.207, -0.053296007, 0.062290475, -554863.4, -140922.89, 0.0, 9.997268, 10.000531 
2.3347385e+3, 2.6776305e+2, -801703.94, -407913.06, -18533.463, -0.048731856, 0.09843415, -407042.72, -91112.29, 0.0, 9.996177, 10.001396 
2.3346604e+3, 2.7776456e+2, -866142.8, -401498.0, -7498.6626, -0.039755058, 0.13969615, -401377.0, -183461.55, 0.0, 9.995117, 10.00128 
2.3345822e+3, 2.877651e+2, -863423.5, -278714.9, -8381.985, -0.031443913, 0.06613791, -278594.78, -158684.34, 0.0, 9.994162, 10.001908 
2.3345041e+3, 2.97766e+2, -889294.5, -230224.23, -22153.084, -0.047702163, -0.006843198, -229480.45, -207579.0, 0.0, 9.993266, 10.002002 
2.3344268e+3, 3.0776975e+2, -933240.94, -120292.66, -42755.344, 0.041037817, 0.14625917, -118050.21, -118050.21, 0.0, 9.992166, 10.002955 
2.3343484e+3, 3.1777126e+2, -1052124.5, -141704.36, -34637.035, -0.008447178, 0.057190537, -140388.5, -140388.5, 0.0, 9.991204, 10.003266 
2.3456989e+3, 1.4786349e+2, -554794.7, -1382272.3, -84139.625, 0.033024922, 0.15271878, -546325.9, 944624.6, 0.4117275, 10.013573, 9.994914 
2.345615e+3, 1.5785816e+2, -561914.94, -1415098.6, -46285.098, -0.021727957, 0.15471506, -559411.3, 833592.4, 0.23238306, 10.009911, 9.99527 
2.3455332e+3, 1.6785415e+2, -446001.97, -1156316.8, 18507.215, -0.01624341, 0.13658877, -445520.1, 849522.06, 0.10217918, 10.007933, 9.997426 
2.3454522e+3, 1.778511e+2, -467073.2, -1142104.9, 2386.998, 0.0019672404, 0.1199902, -467064.75, 730005.7, 0.03166506, 10.006638, 9.997379 
2.3453711e+3, 1.8784857e+2, -490960.2, -1024679.4, 21435.027, -0.008476743, 0.1263839, -490100.72, 608994.2, 0.0057181404, 10.005287, 9.998153 
2.3452903e+3, 1.9784646e+2, -583673.25, -1017246.75, 39004.6, -0.024322297, 0.129317, -580192.3, 420923.44, 0.00041843537, 10.003942, 9.998177 
2.3452109e+3, 2.0784433e+2, -589669.25, -868367.06, 80328.71, -0.0030286422, 0.08701617, -568174.06, 334961.28, 0.000000030505163, 10.00279, 9.999081 
2.3451324e+3, 2.1784256e+2, -645840.4, -843397.44, 61547.332, 0.028594416, 0.031671707, -628234.75, 176916.36, 0.0, 10.001725, 9.999093 
2.3450525e+3, 2.2784194e+2, -641357.9, -699569.3, 47624.527, 0.0031008928, 0.05314562, -614649.25, 92507.28, 0.0, 10.000691, 9.999906 
2.3449723e+3, 2.3784196e+2, -698709.0, -685810.25, 60029.83, -0.039429937, 0.095594145, -631884.4, -22728.186, 0.0, 9.999663, 9.999823 
2.3448928e+3, 2.4784164e+2, -723696.25, -582091.44, 74174.4, -0.059840642, 0.08828398, -550352.06, -39192.645, 0.0, 9.998541, 10.000402 
2.3448135e+3, 2.578415e+2, -789163.0, -556177.4, 70045.22, -0.06951928, 0.061873253, -536740.4, -123579.37, 0.0, 9.997389, 10.000463 
2.3447347e+3, 2.6784226e+2, -758276.25, -384524.25, 57649.207, -0.034656487, 0.07621129, -375834.25, -60681.363, 0.0, 9.996472, 10.00141 
2.344656e+3, 2.7784353e+2, -797287.44, -368949.75, 49324.344, 0.015394622, 0.0947098, -363343.28, -146203.77, 0.0, 9.995602, 10.001265 
2.3445764e+3, 2.878442e+2, -832295.7, -276704.22, 47119.63, -0.03025992, 0.050218467, -272736.34, -153603.47, 0.0, 9.994439, 10.001785 
2.3444964e+3, 2.9784527e+2, -921119.44, -272749.0, 41025.94, -0.10428751, 0.007695776, -270163.38, -249040.39, 0.0, 9.993173, 10.001751 
2.3444192e+3, 3.0784804e+2, -915311.4, -129289.4, 32105.246, 0.091014124, 0.08831488, -127980.23, -127980.23, 0.0, 9.9923725, 10.0027895 
2.3443393e+3, 3.1785044e+2, -1077649.8, -133033.45, 60094.29, 0.0060426206, 0.08655582, -129225.734, -129225.734, 0.0, 9.9909525, 10.00344 
2.3557146e+3, 1.479437e+2, -443711.75, -1213146.1, -166167.22, 0.27263117, 0.2317965, -409359.9, 1080805.0, 0.37513262, 10.013203, 9.996879 
2.3556243e+3, 1.5793963e+2, -464536.25, -1251216.6, -131380.63, -0.06669527, 0.1690446, -443174.9, 949030.25, 0.21108304, 10.00988, 9.996666 
2.3555402e+3, 1.6793562e+2, -463712.13, -1216285.0, -20433.547, -0.055217903, 0.12829551, -463157.72, 831085.8, 0.09218963, 10.007949, 9.996957 
2.355459e+3, 1.77932e+2, -487983.38, -1185270.1, -39753.156, 0.06375769, 0.0984061, -485724.3, 710553.56, 0.028181445, 10.006605, 9.997092 
2.3553762e+3, 1.8792948e+2, -482738.7, -1007138.0, -24821.826, 0.01816826, 0.10673051, -481566.38, 616735.94, 0.0049382364, 10.005275, 9.998283 
2.3552932e+3, 1.979276e+2, -579445.75, -1013040.94, -4746.545, -0.07708744, 0.1221051, -579393.8, 420926.9, 0.0003382193, 10.003955, 9.998203 
2.3552129e+3, 2.0792575e+2, -605742.56, -905657.75, 42915.434, -0.050495915, 0.123208106, -599722.56, 302615.84, 0.000000009033158, 10.002801, 9.998822 
2.3551336e+3, 2.179242e+2, -655243.06, -862510.06, 25002.836, 0.013805834, 0.11492337, -652269.6, 152083.33, 0.0, 10.001717, 9.998969 
2.3550527e+3, 2.279233e+2, -626498.5, -670297.2, 11150.418, 0.0013728775, 0.098601975, -623823.25, 82537.195, 0.0, 10.000691, 10.00011 
2.3549716e+3, 2.3792288e+2, -688909.4, -667821.94, 21095.184, -0.036918987, 0.07677694, -654782.25, -46419.18, 0.0, 9.999667, 9.999948 
2.3548912e+3, 2.4792261e+2, -726146.94, -590501.3, 29414.92, -0.04523958, 0.07480788, -584397.3, -74032.625, 0.0, 9.9985485, 10.000344 
2.354811e+3, 2.5792265e+2, -793711.3, -570983.25, 29514.926, -0.042525936, 0.07353254, -567138.44, -154774.78, 0.0, 9.997405, 10.000357 
2.3547313e+3, 2.6792258e+2, -773599.56, -421498.72, 24130.322, -0.015402563, 0.023350317, -419852.7, -105489.22, 0.0, 9.99649, 10.001151 
2.3546514e+3, 2.7792278e+2, -805260.25, -391816.84, 11937.569, 0.017959476, -0.03931576, -391472.47, -175111.95, 0.0, 9.995623, 10.001101 
2.3545706e+3, 2.8792477e+2, -832580.0, -280813.97, -3195.571, -0.011066121, 0.05231658, -280795.44, -162453.13, 0.0, 9.994448, 10.001756 
2.3544897e+3, 2.979275e+2, -930562.4, -297503.38, 941.3407, -0.06451476, 0.17829084, -297501.97, -277184.2, 0.0, 9.993187, 10.001578 
2.3544101e+3, 3.0792734e+2, -907608.2, -122821.22, 8076.7495, -0.015685251, -0.016202213, -122738.11, -122738.11, 0.0, 9.992406, 10.002822 
2.3543303e+3, 3.1793153e+2, -966256.7, 115849.48, -75352.74, 0.06477782, 0.11611502, 121071.484, 121071.484, 0.0, 9.990883, 10.00518 
2.3658147e+3, 1.3802832e+2, -1306451.8, -1325150.8, -447387.16, -0.49645433, 0.08154323, -868316.4, 719022.44, 0.49974662, 10.003275, 10.002853 
2.3657268e+3, 1.4802752e+2, -773908.4, -1406575.0, 82.180435, 0.41230226, 0.18309733, -773908.3, 715432.8, 0.33889174, 10.009288, 9.996578 
2.3656332e+3, 1.5802343e+2, -483043.88, -1290317.0, -37333.08, -0.09240055, 0.15292546, -481321.03, 910061.3, 0.18951786, 10.009636, 9.996411 
2.3655476e+3, 1.6801915e+2, -450609.13, -1242944.5, 48542.457, -0.098482765, 0.113204464, -447646.25, 845777.7, 0.08190105, 10.008124, 9.996659 
2.3654649e+3, 1.7801513e+2, -589059.9, -1264665.0, 51650.035, 0.053187538, 0.076527685, -585134.0, 610328.44, 0.024544137, 10.006005, 9.99683 
2.3653811e+3, 1.8801247e+2, -527717.2, -1053156.0, 77352.26, 0.024525378, 0.09674224, -516566.44, 580922.25, 0.0041211275, 10.0050745, 9.998056 
2.3652974e+3, 1.9801052e+2, -510278.94, -997997.3, 68577.82, -0.06028323, 0.12919137, -500819.72, 498688.6, 0.00025794192, 10.004518, 9.998032 
2.3652156e+3, 2.0800851e+2, -555591.5, -888581.25, 108007.16, -0.042529687, 0.12824732, -523627.13, 377900.25, 0.000000001585009, 10.003184, 9.998752 
2.3651348e+3, 2.1800682e+2, -673835.06, -878741.9, 105563.8, 0.008913612, 0.11329411, -629181.6, 174361.63, 0.0, 10.001628, 9.998897 
2.365053e+3, 2.2800584e+2, -634436.7, -683761.8, 92149.266, -0.004145558, 0.10031602, -563706.75, 141844.72, 0.0, 10.000687, 10.000016 
2.3649712e+3, 2.3800533e+2, -656562.25, -662763.0, 77875.72, -0.036094487, 0.08289218, -581725.2, 25829.568, 0.0, 9.999944, 9.9998455 
2.3648897e+3, 2.4800481e+2, -676674.1, -581457.0, 70413.266, -0.036053553, 0.07033082, -544067.9, -34509.3, 0.0, 9.9989605, 10.000203 
2.3648083e+3, 2.5800455e+2, -735689.8, -557441.94, 64951.254, -0.025196053, 0.05588242, -536285.6, -124725.53, 0.0, 9.997874, 10.000219 
2.3647276e+3, 2.680044e+2, -751841.7, -424992.3, 66854.805, -0.0057875873, 0.011239608, -411846.34, -98285.195, 0.0, 9.996708, 10.001017 
2.3646465e+3, 2.7800456e+2, -827610.06, -412486.22, 60882.582, 0.02357544, -0.04126348, -403741.34, -188182.23, 0.0, 9.995523, 10.001001 
2.364565e+3, 2.8800663e+2, -811794.1, -272956.88, 43242.777, 0.0053553823, 0.06387984, -269508.63, -151968.39, 0.0, 9.99461, 10.001726 
2.3644829e+3, 2.980094e+2, -855497.25, -252767.28, 44440.805, -0.052449767, 0.20223977, -249508.17, -229993.55, 0.0, 9.993676, 10.001644 
2.3644018e+3, 3.0800873e+2, -955863.8, -141786.06, 69312.59, -0.04157645, -0.051204525, -135926.8, -135926.8, 0.0, 9.992064, 10.002853 
2.3643214e+3, 3.1801215e+2, -912658.1, 93898.266, -38907.656, 0.075912416, 0.0043060556, 95399.98, 95399.98, 0.0, 9.991464, 10.004746 
2.3758195e+3, 1.3811922e+2, -1250600.8, -1390155.4, -94136.875, -0.29662445, 0.14711009, -1203200.3, 383244.3, 0.45470622, 10.004079, 10.000723 
2.3757361e+3, 1.4811435e+2, -847115.3, -1678162.4, 2949.2512, 0.46018818, 0.044980876, -847104.8, 641380.94, 0.30640107, 10.00923, 9.994458 
2.3756424e+3, 1.5810923e+2, -566326.56, -1503659.1, -48464.29, -0.105181344, 0.11361915, -563827.4, 826712.0, 0.16964258, 10.009508, 9.994855 
2.3755549e+3, 1.6810441e+2, -463271.13, -1273235.5, -26185.309, -0.14709939, 0.09062089, -462425.47, 830161.25, 0.0721298, 10.008053, 9.996469 
2.3754697e+3, 1.7810018e+2, -603391.56, -1306087.4, -7471.7754, -0.021198742, 0.05353023, -603312.1, 591315.25, 0.020986814, 10.006027, 9.996537 
2.3753858e+3, 1.8809728e+2, -563325.3, -1134817.3, 60516.22, 0.0132065145, 0.09621418, -556987.44, 539669.3, 0.0033085297, 10.005096, 9.997488 
2.3753023e+3, 1.98095e+2, -538519.94, -1054617.8, 40347.414, 0.0150523065, 0.14905973, -535384.7, 463295.84, 0.000180933, 10.004501, 9.997654 
2.375219e+3, 2.0809247e+2, -550284.7, -877860.8, 49958.723, 0.012632347, 0.10308365, -542834.9, 357868.94, 0.00000000012725644, 10.003179, 9.998832 
2.375136e+3, 2.1809025e+2, -678297.56, -889989.44, 58152.62, 0.007915968, 0.03059848, -663374.75, 139348.64, 0.0, 10.00163, 9.998822 
2.3750532e+3, 2.2808944e+2, -661201.8, -743153.1, 66022.79, -0.015423548, 0.06251911, -624472.8, 80257.9, 0.0, 10.000696, 9.999607 
2.3749708e+3, 2.3808922e+2, -680954.9, -716305.4, 47325.836, -0.041828264, 0.11596732, -648111.3, -41378.973, 0.0, 9.999949, 9.999478 
2.3748884e+3, 2.4808812e+2, -692165.4, -617554.6, 28451.27, -0.03472252, 0.074047, -607943.4, -99201.07, 0.0, 9.998971, 9.999953 
2.374806e+3, 2.580871e+2, -746037.44, -585142.0, 21750.854, -0.021979686, 0.0071329484, -582253.44, -171501.89, 0.0, 9.997894, 10.000023 
2.3747239e+3, 2.680877e+2, -752430.5, -430329.44, 18908.486, -0.008892445, 0.04663815, -429223.22, -116476.86, 0.0, 9.996718, 10.000978 
2.3746419e+3, 2.780889e+2, -830371.06, -422570.06, 19698.965, 0.018598173, 0.10404924, -421620.72, -206885.67, 0.0, 9.995535, 10.00093 
2.3745593e+3, 2.880896e+2, -813865.2, -283350.16, 8304.401, 0.0144917555, 0.08285445, -283220.2, -166492.33, 0.0, 9.99463, 10.001649 
2.3744763e+3, 2.9809073e+2, -829089.56, -206970.63, -4714.0806, -0.057822026, 0.058851685, -206934.9, -188218.6, 0.0, 9.993708, 10.001947 
2.3743941e+3, 3.0809227e+2, -953062.94, -128365.016, 1390.3696, 0.011190376, -0.012048801, -128362.67, -128362.67, 0.0, 9.992025, 10.002967 
2.3743127e+3, 3.1809422e+2, -1048839.9, -222869.14, 97797.11, 0.08358322, -0.044368237, -211447.66, -211447.66, 0.0, 9.991585, 10.002525 
2.3858279e+3, 1.382061e+2, -795061.8, -1303364.6, -94900.46, -0.15658224, 0.11939887, -777921.8, 807668.44, 0.4177621, 10.010196, 9.998633 
2.3857434e+3, 1.4820044e+2, -892685.56, -1727515.5, -80542.17, 0.32758942, 0.0011298248, -884986.1, 602655.2, 0.27891865, 10.008566, 9.99445 
2.3856506e+3, 1.5819554e+2, -783890.25, -1643046.9, -45434.914, -0.08504067, 0.09369735, -781494.2, 608198.44, 0.15232909, 10.007637, 9.994794 
2.3855622e+3, 1.6819079e+2, -586587.8, -1347663.4, -7692.3486, -0.118470736, 0.08745991, -586510.06, 705229.3, 0.06335926, 10.007134, 9.996387 
2.3854756e+3, 1.7818661e+2, -511616.75, -1281872.6, 19698.168, -0.032932915, 0.0664455, -511113.3, 682666.5, 0.017707113, 10.006749, 9.996352 
2.3853907e+3, 1.8818326e+2, -518841.66, -1158316.1, 100663.836, 0.00042759805, 0.099500835, -503369.84, 592444.0, 0.0025539603, 10.005602, 9.99708 
2.3853064e+3, 1.9818039e+2, -602102.2, -1119335.3, 85121.766, 0.01713648, 0.13509952, -588453.75, 409389.84, 0.00011387725, 10.004218, 9.997342 
2.3852219e+3, 2.0817779e+2, -568968.06, -896867.56, 80043.73, 0.012454813, 0.10136141, -550471.9, 349395.8, 0.0, 10.003101, 9.998734 
2.3851374e+3, 2.1817565e+2, -625091.1, -880881.56, 79402.69, 0.00025432344, 0.04828824, -602447.4, 199439.27, 0.0, 10.002074, 9.998668 
2.385054e+3, 2.2817439e+2, -634314.94, -761509.94, 101923.984, -0.012729283, 0.06263863, -577774.44, 126123.66, 0.0, 10.001023, 9.99932 
2.3849705e+3, 2.3817365e+2, -693122.6, -743840.94, 91219.93, -0.022441443, 0.09076387, -623802.56, -17897.602, 0.0, 9.999966, 9.999278 
2.3848872e+3, 2.4817254e+2, -688934.4, -613348.56, 88166.41, -0.026926294, 0.05571209, -555216.4, -47301.457, 0.0, 9.998991, 9.9999695 
2.3848034e+3, 2.5817162e+2, -729916.7, -581272.2, 96864.59, -0.03072688, 0.0043573547, -533502.06, -123579.36, 0.0, 9.998032, 9.999979 
2.3847201e+3, 2.6817223e+2, -719003.44, -431885.2, 88327.484, -0.02073971, 0.062288716, -406888.78, -94971.0, 0.0, 9.997033, 10.000812 
2.384637e+3, 2.781735e+2, -775643.06, -409499.1, 78095.48, 0.0086438265, 0.13923211, -393537.78, -179630.73, 0.0, 9.995975, 10.000804 
2.3845537e+3, 2.8817376e+2, -802229.4, -276402.5, 70882.41, 0.013491219, 0.08304519, -267015.0, -151111.48, 0.0, 9.994713, 10.001652 
2.3844695e+3, 2.9817435e+2, -868556.2, -230503.0, 56812.27, -0.045171533, 0.007123977, -225483.92, -207587.31, 0.0, 9.993467, 10.001897 
2.3843865e+3, 3.0817673e+2, -829829.25, -83613.6, 19898.62, 0.039379153, 0.034620855, -83083.36, -83083.36, 0.0, 9.992942, 10.002829 
2.3843032e+3, 3.1818062e+2, -1025384.44, -125636.32, 154378.11, 0.016516143, 0.21897914, -99885.24, -99885.24, 0.0, 9.991391, 10.00328 
2.3958384e+3, 1.382904e+2, -869540.25, -1487191.8, -172214.38, -0.08110073, 0.034574714, -824768.56, 759993.4, 0.38871884, 10.009927, 9.996536 
2.3957488e+3, 1.4828609e+2, -794233.1, -1505976.3, -97531.21, 0.060371745, 0.020762619, -781110.25, 705693.56, 0.25648203, 10.008548, 9.995998 
2.3956585e+3, 1.5828238e+2, -710408.0, -1494775.5, -68555.0, -0.040994335, 0.087097205, -704461.3, 684380.3, 0.13774264, 10.007643, 9.995816 
2.3955698e+3, 1.6827819e+2, -583596.06, -1353594.1, -19610.672, -0.032717302, 0.10307698, -583096.9, 707785.9, 0.05578924, 10.007127, 9.996353 
2.3954824e+3, 1.7827423e+2, -524115.34, -1305235.6, -2941.222, 0.0026029812, 0.11156946, -524104.28, 668816.9, 0.0148370005, 10.006712, 9.996214 
2.3953958e+3, 1.8827024e+2, -542813.44, -1203577.8, 49514.2, -0.017444316, 0.10547004, -539123.7, 555837.56, 0.0019043143, 10.005572, 9.996786 
2.3953095e+3, 1.9826657e+2, -624259.5, -1163247.4, 39918.906, -0.050256085, 0.09021803, -621319.0, 375679.6, 0.000062805484, 10.004203, 9.997051 
2.3952241e+3, 2.0826438e+2, -588239.44, -939268.5, 43612.54, -0.038940918, 0.12397698, -582902.06, 316118.03, 0.0, 10.003105, 9.998445 
2.3951389e+3, 2.1826284e+2, -643334.2, -919917.6, 43890.926, -0.016028337, 0.16170108, -636536.25, 164498.3, 0.0, 10.002072, 9.998404 
2.3950547e+3, 2.2826058e+2, -646651.1, -789332.8, 63456.363, 0.002019442, 0.09710862, -622513.06, 80541.984, 0.0, 10.001026, 9.99913 
2.3949705e+3, 2.3825847e+2, -695460.44, -751677.2, 52988.83, 0.015970657, 0.0063701742, -663586.3, -58512.6, 0.0, 9.999972, 9.999225 
2.3948857e+3, 2.4825796e+2, -668677.9, -575354.25, 51059.363, -0.0155690005, 0.017101834, -552846.8, -45769.805, 0.0, 9.999, 10.00023 
2.3948011e+3, 2.5825813e+2, -722368.44, -570567.06, 59997.67, -0.05892592, 0.05072162, -549717.4, -140643.58, 0.0, 9.998045, 10.00005 
2.3947166e+3, 2.6825804e+2, -739826.1, -480138.13, 48255.25, -0.044836897, 0.053955663, -471461.25, -160385.16, 0.0, 9.997049, 10.000476 
2.3946325e+3, 2.7825814e+2, -784588.5, -436607.7, 34583.87, -0.0082082525, 0.053520635, -433203.88, -220127.64, 0.0, 9.996005, 10.000607 
2.3945479e+3, 2.8825906e+2, -798105.06, -270540.88, 19701.525, 0.000068202964, 0.06075074, -269806.16, -154738.48, 0.0, 9.994717, 10.001694 
2.3944628e+3, 2.9826018e+2, -905931.8, -307219.97, 24413.555, -0.028266791, 0.043652065, -306226.13, -289169.78, 0.0, 9.993456, 10.001378 
2.394379e+3, 3.0826235e+2, -861860.1, -167825.66, 2385.7034, 0.03928217, 0.12529297, -167817.45, -167817.45, 0.0, 9.99301, 10.002223 
2.3942937e+3, 3.1826532e+2, -947171.2, 43171.992, -100466.58, -0.043813568, 0.20934933, 53261.164, 53261.164, 0.0, 9.99136, 10.004456 
2.405942e+3, 1.2838428e+2, -1451210.8, -1927229.4, -162550.23, -0.048158873, 0.21921915, -1400999.6, 280840.84, 0.48400414, 10.005325, 9.996139 
2.4058469e+3, 1.3837819e+2, -1072057.5, -1659720.9, -92543.0, -0.053484503, 0.040189613, -1057828.8, 526072.0, 0.36621666, 10.007681, 9.99606 
2.4057557e+3, 1.4837405e+2, -822479.6, -1526040.0, -18266.68, -0.04682516, 0.06600345, -822005.7, 663936.9, 0.238443, 10.008123, 9.996034 
2.4056658e+3, 1.5836991e+2, -674991.56, -1471434.8, -51594.27, -0.030399121, 0.08772108, -671663.1, 716321.3, 0.12566626, 10.0078125, 9.99589 
2.4055769e+3, 1.683659e+2, -584621.8, -1347747.9, -17082.129, -0.0074718418, 0.11231229, -584239.6, 705784.2, 0.04941695, 10.007051, 9.996427 
2.4054883e+3, 1.7836219e+2, -608116.06, -1338007.1, 802.7599, 0.008192905, 0.13903922, -608115.2, 583944.3, 0.012425347, 10.006081, 9.996289 
2.4054004e+3, 1.8835795e+2, -617379.9, -1228694.6, 60811.8, -0.026496857, 0.10102619, -611389.2, 482711.8, 0.0013834775, 10.005015, 9.996879 
2.405313e+3, 1.9835395e+2, -662261.94, -1180643.0, 79818.914, -0.07041907, 0.046543807, -650250.0, 345890.6, 0.000029565042, 10.003945, 9.997053 
2.4052268e+3, 2.083518e+2, -591172.44, -961882.9, 104520.62, -0.05479947, 0.10087618, -563734.06, 334428.0, 0.0, 10.003183, 9.998248 
2.4051408e+3, 2.183504e+2, -598463.5, -919228.94, 104978.484, -0.02089359, 0.17412686, -567161.3, 233014.73, 0.0, 10.002478, 9.99821 
2.4050555e+3, 2.2834796e+2, -621280.2, -795923.3, 118578.71, -0.0039444417, 0.111904144, -561340.2, 140858.61, 0.0, 10.001289, 9.998956 
2.4049702e+3, 2.3834558e+2, -705300.5, -771817.1, 111683.34, 0.007802284, 0.013064847, -622028.6, -17808.19, 0.0, 9.999979, 9.99908 
2.4048845e+3, 2.4834497e+2, -667691.4, -583632.44, 98302.4, -0.016569087, 0.025747804, -518751.5, -12526.533, 0.0, 9.999052, 10.000144 
2.4047989e+3, 2.583451e+2, -704829.9, -569505.2, 79373.95, -0.05083651, 0.06319142, -532867.9, -124645.44, 0.0, 9.998204, 9.999977 
2.4047133e+3, 2.6834473e+2, -739745.4, -481716.84, 73859.44, -0.04549202, 0.048558787, -462070.78, -151844.2, 0.0, 9.997065, 10.000454 
2.404628e+3, 2.7834463e+2, -809211.7, -451856.7, 81153.84, -0.016538793, 0.029166367, -434290.47, -222061.98, 0.0, 9.995862, 10.000566 
2.4045424e+3, 2.883457e+2, -755631.25, -259348.14, 64448.72, 0.011261775, 0.060829174, -251115.22, -136896.55, 0.0, 9.995057, 10.001602 
2.4044566e+3, 2.983469e+2, -795794.1, -269155.28, 65894.66, 0.001513341, 0.06033372, -261035.52, -244828.19, 0.0, 9.994283, 10.001239 
2.4043714e+3, 3.0834866e+2, -869610.1, -178771.95, 100043.94, 0.00327465, 0.117985874, -164575.78, -164575.78, 0.0, 9.992993, 10.0021515 
2.4042854e+3, 3.183491e+2, -939951.25, -27731.615, -105280.14, 0.012180044, -0.053328637, -15738.8, -15738.8, 0.0, 9.99174, 10.003779 
2.4159455e+3, 1.2847038e+2, -1355324.9, -1667170.5, -80461.28, -0.17338331, 0.012781923, -1335788.5, 345210.5, 0.46505058, 10.005473, 9.997807 
2.4158542e+3, 1.384686e+2, -1023343.2, -1567645.8, -51701.375, -0.052970678, 0.116314135, -1018475.75, 564538.5, 0.3484371, 10.007736, 9.996671 
2.4157634e+3, 1.4846385e+2, -870817.75, -1686369.8, -33113.258, -0.044194285, 0.13797837, -869475.5, 615587.1, 0.22380076, 10.008101, 9.994949 
2.4156731e+3, 1.5845807e+2, -713801.3, -1566874.5, -66355.58, -0.05257153, 0.09442346, -708670.8, 678451.3, 0.11566759, 10.007743, 9.995272 
2.4155833e+3, 1.684539e+2, -577800.25, -1330964.3, -49579.18, -0.031940363, 0.1134759, -574550.56, 714611.94, 0.04410807, 10.006999, 9.996572 
2.4154939e+3, 1.7845042e+2, -593777.06, -1305482.5, -33290.695, -0.012644643, 0.14719453, -592223.25, 598971.94, 0.010451714, 10.006053, 9.99653 
2.415405e+3, 1.8844633e+2, -590211.44, -1171942.0, 20782.314, -0.029304737, 0.087621376, -589469.94, 503763.9, 0.0009903156, 10.005007, 9.997276 
2.4153167e+3, 1.984424e+2, -647349.9, -1150074.9, 45840.87, -0.052573886, 0.0049896077, -643204.1, 352066.78, 0.000011510201, 10.003941, 9.997268 
2.4152297e+3, 2.0844e+2, -600566.2, -982662.0, 79785.766, -0.040650517, 0.03538791, -584575.3, 312719.34, 0.0, 10.003182, 9.99811 
2.4151431e+3, 2.184383e+2, -611212.94, -944108.0, 73353.34, -0.021512996, 0.09267285, -595766.25, 203545.73, 0.0, 10.002464, 9.998049 
2.4150561e+3, 2.284365e+2, -633683.25, -823121.5, 69328.516, -0.033790756, 0.1121947, -611022.0, 90308.18, 0.0, 10.001288, 9.998773 
2.4149692e+3, 2.3843491e+2, -724383.2, -813739.8, 68706.41, -0.050791796, 0.11320504, -687105.9, -83759.88, 0.0, 9.999982, 9.998795 
2.4148831e+3, 2.4843343e+2, -699201.3, -652395.5, 65789.09, -0.030670857, 0.08043374, -605970.75, -100610.766, 0.0, 9.99906, 9.999671 
2.4147971e+3, 2.5843233e+2, -718376.06, -602479.7, 41304.36, -0.008756119, 0.038755782, -589265.75, -181895.64, 0.0, 9.998219, 9.999747 
2.4147102e+3, 2.6843232e+2, -718660.3, -440903.3, 24942.58, -0.022866365, 0.048291262, -438681.25, -129311.28, 0.0, 9.997069, 10.000736 
2.4146235e+3, 2.7843297e+2, -802323.56, -439902.6, 41349.055, -0.023687735, 0.07516118, -435244.88, -223881.31, 0.0, 9.995865, 10.00065 
2.4145377e+3, 2.8843364e+2, -769048.56, -293670.78, 37625.926, 0.04751126, 0.086849645, -290711.16, -177354.55, 0.0, 9.995079, 10.00136 
2.4144512e+3, 2.9843432e+2, -763132.44, -217848.08, 28632.455, 0.05172461, 0.052356545, -216348.73, -200998.75, 0.0, 9.994347, 10.001564 
2.414363e+3, 3.084354e+2, -829773.75, -94218.69, 45681.496, -0.08896398, -0.024747299, -91392.51, -91392.51, 0.0, 9.992979, 10.002743 
2.4142766e+3, 3.1843933e+2, -981827.8, -121209.39, -47478.15, 0.003041531, 0.14866269, -118598.07, -118598.07, 0.0, 9.991761, 10.003131 
2.4259514e+3, 1.2855904e+2, -1193861.0, -1601084.8, -24110.295, -0.18400215, 0.0015209711, -1192438.5, 487692.0, 0.44930273, 10.007444, 9.997633 
2.4258623e+3, 1.3855714e+2, -950340.6, -1546886.6, -66815.21, -0.023015838, 0.1100129, -942948.7, 639198.25, 0.33356842, 10.008419, 9.996545 
2.425771e+3, 1.4855246e+2, -893873.75, -1690485.1, -74483.76, -0.031470723, 0.13478307, -886969.25, 597225.06, 0.21147133, 10.00775, 9.995094 
2.4256797e+3, 1.5854697e+2, -834804.94, -1614329.5, -45856.082, -0.067438506, 0.10540041, -832116.75, 554134.06, 0.10722815, 10.006675, 9.995456 
2.4255891e+3, 1.685427e+2, -685718.75, -1364702.8, -10846.037, -0.05425389, 0.09652122, -685545.56, 602746.1, 0.03966459, 10.006114, 9.996762 
2.425499e+3, 1.7853905e+2, -642730.25, -1314044.0, 4607.585, -0.03556074, 0.0959301, -642698.6, 547627.1, 0.008855776, 10.005648, 9.996663 
2.4254097e+3, 1.8853535e+2, -603453.06, -1177532.4, 31151.457, -0.035484094, 0.07384913, -601767.6, 490593.1, 0.0007066245, 10.004917, 9.997277 
2.4253206e+3, 1.9853193e+2, -627579.0, -1140042.5, 30483.746, -0.036549974, 0.040364027, -625772.06, 368621.5, 0.000003590948, 10.004078, 9.997269 
2.4252324e+3, 2.0852917e+2, -626104.25, -997729.75, 65589.31, -0.029959373, 0.038563907, -614867.94, 281552.38, 0.0, 10.003025, 9.998079 
2.4251448e+3, 2.1852696e+2, -689520.7, -979625.56, 62891.53, -0.023565609, 0.048453398, -676473.3, 121968.766, 0.0, 10.0019245, 9.998061 
2.4250567e+3, 2.2852543e+2, -669452.75, -831549.94, 70903.664, -0.045265585, 0.09022197, -642815.7, 57642.188, 0.0, 10.001012, 9.998844 
2.4249688e+3, 2.3852427e+2, -702209.56, -804629.06, 91788.19, -0.06649183, 0.13043606, -648312.2, -45842.16, 0.0, 10.000147, 9.998774 
2.4248819e+3, 2.485227e+2, -694278.4, -671760.7, 115395.83, -0.03052921, 0.103763625, -567075.75, -62589.91, 0.0, 9.999195, 9.99947 
2.4247952e+3, 2.5852135e+2, -729145.06, -621718.6, 105032.375, 0.013157612, 0.058349457, -557461.9, -150962.52, 0.0, 9.998214, 9.999614 
2.424707e+3, 2.6852128e+2, -688824.06, -427936.44, 69914.875, -0.013580686, 0.06885311, -410381.34, -101881.625, 0.0, 9.997288, 10.000716 
2.4246192e+3, 2.785218e+2, -741020.3, -415932.88, 63536.664, -0.0327213, 0.092444405, -403956.22, -193462.55, 0.0, 9.996313, 10.000597 
2.4245325e+3, 2.8852233e+2, -782040.6, -309634.63, 67668.57, 0.061066788, 0.09518927, -300132.75, -187644.14, 0.0, 9.995038, 10.0012665 
2.424445e+3, 2.9852307e+2, -838625.94, -234404.08, 62919.22, 0.089797325, 0.07528312, -227921.67, -213440.3, 0.0, 9.993754, 10.00173 
2.4243547e+3, 3.0852416e+2, -821499.06, -57175.27, 44538.043, -0.16075586, -0.03320249, -54588.74, -54588.74, 0.0, 9.992902, 10.003031 
2.4242678e+3, 3.1852832e+2, -884681.2, -21664.05, 20907.246, -0.029204657, 0.15825959, -21157.854, -21157.854, 0.0, 9.992207, 10.003597 
2.435959e+3, 1.286496e+2, -1237895.1, -1751964.0, -5295.0674, -0.12983786, 0.12993328, -1237840.6, 441401.28, 0.43474486, 10.007465, 9.996149 
2.4358706e+3, 1.3864435e+2, -978895.2, -1632042.1, -58143.82, 0.02038597, 0.03382837, -973759.5, 607533.6, 0.32011423, 10.008303, 9.995914 
2.4357785e+3, 1.4864026e+2, -836566.25, -1548331.6, -104006.836, -0.015683059, 0.06929514, -821679.6, 661654.44, 0.20052761, 10.0076685, 9.996126 
2.4356858e+3, 1.5863653e+2, -785419.2, -1507851.6, -71297.05, -0.07957751, 0.118711084, -778450.06, 606921.56, 0.09987888, 10.006654, 9.996202 
2.4355948e+3, 1.6863222e+2, -670086.0, -1335102.6, -25958.672, -0.078246325, 0.06685715, -669074.25, 618338.1, 0.035889823, 10.006103, 9.996974 
2.4355039e+3, 1.7862809e+2, -643170.9, -1313904.9, -14989.273, -0.06579959, -0.00009607586, -642836.06, 546615.0, 0.0075657945, 10.0056305, 9.9966755 
2.435414e+3, 1.88625e+2, -629959.06, -1232153.5, 1690.1055, -0.046733357, 0.06292632, -629954.3, 461527.84, 0.00050764455, 10.004908, 9.99691 
2.4353245e+3, 1.9862236e+2, -643809.75, -1172389.1, -483.6038, -0.025555389, 0.14373723, -643809.25, 349700.28, 0.0000008584225, 10.0040655, 9.997056 
2.4352351e+3, 2.086192e+2, -622815.9, -991498.7, 25573.578, -0.0243102, 0.1036032, -621050.44, 274489.5, 0.0, 10.003021, 9.998127 
2.4351463e+3, 2.186163e+2, -680570.44, -960838.56, 27170.129, -0.030541353, 0.036941357, -677960.8, 119606.58, 0.0, 10.001918, 9.998198 
2.4350573e+3, 2.2861466e+2, -647770.7, -788826.75, 39812.953, -0.0394781, 0.04370625, -637309.4, 62273.62, 0.0, 10.001016, 9.999139 
2.4349688e+3, 2.3861362e+2, -686997.7, -774934.44, 58650.613, -0.045475565, 0.06679002, -657664.56, -56071.313, 0.0, 10.000149, 9.9989805 
2.4348806e+3, 2.4861273e+2, -688536.0, -663080.56, 76817.87, -0.019599736, 0.09879567, -597943.1, -94340.16, 0.0, 9.999202, 9.999529 
2.434793e+3, 2.5861216e+2, -732990.75, -634111.9, 68122.445, 0.0076473253, 0.12736718, -599379.3, -193769.19, 0.0, 9.998226, 9.999526 
2.4347042e+3, 2.6861152e+2, -713344.06, -483332.25, 33236.5, -0.02009429, 0.11067799, -478625.9, -171009.4, 0.0, 9.9973, 10.000333 
2.434615e+3, 2.7861115e+2, -752178.3, -447356.8, 20590.502, -0.04408852, 0.07574969, -445972.25, -236352.03, 0.0, 9.996342, 10.000371 
2.4345268e+3, 2.8861162e+2, -781260.8, -310001.75, 13397.657, 0.043436248, 0.08348621, -309621.2, -198005.1, 0.0, 9.995039, 10.001267 
2.4344385e+3, 2.986131e+2, -849893.0, -250813.11, 20672.734, 0.08909955, 0.13623819, -250100.6, -236498.05, 0.0, 9.993717, 10.001638 
2.4343471e+3, 3.0861518e+2, -826182.06, -65914.68, 11066.675, -0.17905615, 0.1350444, -65753.625, -65753.625, 0.0, 9.992891, 10.002978 
2.4342605e+3, 3.1861597e+2, -875502.06, -22932.03, -21540.336, 0.042314246, -0.019719144, -22388.156, -22388.156, 0.0, 9.992275, 10.003565 
2.445967e+3, 1.2873918e+2, -1182503.4, -1722341.1, 8809.849, -0.06897891, 0.13163091, -1182359.8, 496004.75, 0.4199819, 10.008009, 9.996092 
2.4458775e+3, 1.387339e+2, -1067381.0, -1682373.4, 6474.5923, -0.020629866, 0.035937887, -1067312.9, 513102.88, 0.30705586, 10.007234, 9.996067 
2.4457851e+3, 1.4873004e+2, -897882.44, -1518846.3, -43768.324, -0.038417872, 0.053963006, -894812.6, 587641.0, 0.19032386, 10.006791, 9.996727 
2.4456921e+3, 1.5872677e+2, -784047.0, -1469330.1, -27598.313, -0.057183467, 0.095378645, -782937.4, 601548.75, 0.093269885, 10.006466, 9.99655 
2.4456003e+3, 1.687227e+2, -692584.7, -1355346.6, 2176.938, -0.072366424, 0.06474165, -692577.5, 593947.3, 0.032620125, 10.005966, 9.996899 
2.4455088e+3, 1.7871872e+2, -674594.06, -1327467.3, -6032.0034, -0.088133395, 0.019113876, -674538.3, 514024.56, 0.0065141288, 10.005403, 9.996691 
2.4454182e+3, 1.8871559e+2, -652800.0, -1225798.6, 26622.076, -0.060362257, 0.067633025, -651565.75, 439028.6, 0.0003699311, 10.004681, 9.997061 
2.445328e+3, 1.9871292e+2, -661533.25, -1167276.8, 52115.332, -0.022464873, 0.13215931, -656218.75, 336403.22, 0.00000014402339, 10.003896, 9.997169 
2.4452375e+3, 2.0870991e+2, -639549.9, -998481.44, 75930.016, -0.03188417, 0.10563171, -624148.2, 270502.66, 0.0, 10.00291, 9.998129 
2.4451475e+3, 2.1870713e+2, -688304.5, -966903.06, 74265.85, -0.049861383, 0.05262713, -669744.0, 126933.2, 0.0, 10.001879, 9.998172 
2.4450581e+3, 2.287052e+2, -661262.25, -803310.1, 68990.16, -0.036035087, 0.039461717, -633270.8, 65424.95, 0.0, 10.000964, 9.999061 
2.4449688e+3, 2.3870385e+2, -696742.9, -775111.6, 61181.895, -0.013306778, 0.03892535, -663273.0, -62563.844, 0.0, 10.000071, 9.999012 
2.4448797e+3, 2.4870329e+2, -687247.8, -641988.7, 80197.51, -0.0063037737, 0.090563744, -581289.1, -78573.33, 0.0, 9.999129, 9.999706 
2.4447906e+3, 2.5870314e+2, -735342.0, -623820.1, 80499.34, -0.0057844114, 0.14745057, -581655.44, -176936.73, 0.0, 9.998165, 9.999624 
2.4447007e+3, 2.6870245e+2, -726417.6, -495390.47, 68441.375, -0.03263019, 0.12668498, -476637.13, -169911.13, 0.0, 9.997241, 10.000276 
2.4446109e+3, 2.7870184e+2, -756678.6, -451572.03, 74970.7, -0.04568699, 0.078067265, -434145.56, -225413.4, 0.0, 9.996328, 10.000343 
2.4445218e+3, 2.8870237e+2, -716474.9, -280444.5, 65936.13, 0.04796534, 0.08959659, -270691.8, -159963.67, 0.0, 9.995496, 10.001247 
2.4444324e+3, 2.987039e+2, -736108.44, -213617.03, 70354.945, 0.09726091, 0.15675467, -204309.34, -191595.4, 0.0, 9.994574, 10.001482 
2.4443401e+3, 3.087061e+2, -774583.6, -59840.12, 56222.75, -0.15359178, 0.19266213, -55444.59, -55444.59, 0.0, 9.99333, 10.002807 
2.4442527e+3, 3.1870744e+2, -878632.56, -65832.16, 38331.684, 0.0849536, 0.09726669, -64028.438, -64028.438, 0.0, 9.992447, 10.00318 
2.4559751e+3, 1.288282e+2, -1128472.5, -1616825.1, -6916.866, -0.01513996, 0.044749957, -1128374.5, 549118.7, 0.40433627, 10.007987, 9.997103 
2.4558833e+3, 1.3882539e+2, -1030475.0, -1587476.6, -9428.052, -0.13264088, 0.1018211, -1030315.5, 549203.3, 0.29386917, 10.007164, 9.996753 
2.4557911e+3, 1.4882152e+2, -880807.4, -1491175.5, -53827.883, -0.095321395, 0.08120527, -876096.7, 605459.7, 0.18048884, 10.006769, 9.996934 
2.4556987e+3, 1.5881763e+2, -778489.8, -1469798.8, -41260.67, -0.01283022, 0.045346115, -776035.9, 607558.75, 0.0871676, 10.006475, 9.996546 
2.4556062e+3, 1.6881405e+2, -714104.1, -1405448.8, -17204.963, -0.04621826, 0.08481799, -713676.25, 571953.9, 0.029729921, 10.005961, 9.996561 
2.4555136e+3, 1.7881069e+2, -677524.4, -1329214.3, -25741.031, -0.10656556, 0.13039656, -676509.25, 511154.13, 0.0056441347, 10.005374, 9.9966955 
2.4554224e+3, 1.88807e+2, -615530.8, -1144414.4, -780.17303, -0.07766051, 0.082244545, -615529.7, 474168.9, 0.00027485262, 10.004657, 9.997635 
2.4553312e+3, 1.9880357e+2, -641107.44, -1119584.1, 21033.83, -0.031010376, 0.019995194, -640184.56, 351546.47, 0.00000001256012, 10.003866, 9.997513 
2.45524e+3, 2.0880125e+2, -645122.1, -1009083.1, 37226.918, -0.053230986, 0.053284746, -641353.5, 252400.2, 0.0, 10.002899, 9.998064 
2.4551487e+3, 2.1879934e+2, -705020.75, -1000181.6, 39802.285, -0.08605569, 0.09882538, -699747.6, 96024.945, 0.0, 10.001866, 9.997952 
2.4550585e+3, 2.2879694e+2, -693824.8, -873154.9, 37032.01, -0.036972888, 0.07838144, -686478.56, 11318.609, 0.0, 10.000967, 9.998583 
2.4549687e+3, 2.3879485e+2, -707932.8, -802160.25, 27030.527, 0.025979785, 0.04514144, -700729.44, -100910.24, 0.0, 10.000081, 9.998825 
2.4548784e+3, 2.4879423e+2, -666151.1, -601566.94, 41447.203, 0.0076161018, 0.075869925, -581317.1, -79491.37, 0.0, 9.999137, 9.999983 
2.4547881e+3, 2.5879422e+2, -714601.8, -583532.1, 42651.395, -0.033549543, 0.11730563, -570875.2, -167048.8, 0.0, 9.99817, 9.999902 
2.4546972e+3, 2.6879397e+2, -706273.2, -455420.44, 31859.115, -0.054418866, 0.11561497, -451437.47, -145608.47, 0.0, 9.997243, 10.000553 
2.4546067e+3, 2.78794e+2, -743051.56, -426264.66, 42956.504, -0.044761118, 0.09956707, -420543.1, -212713.47, 0.0, 9.996335, 10.000518 
2.4545173e+3, 2.8879458e+2, -714268.7, -282514.44, 34108.934, 0.079010844, 0.11738927, -279836.4, -170012.56, 0.0, 9.995517, 10.001227 
2.4544267e+3, 2.9879567e+2, -743145.5, -242230.0, 30581.742, 0.13262148, 0.14625587, -240369.84, -228556.66, 0.0, 9.994626, 10.001264 
2.4543335e+3, 3.0879638e+2, -799364.25, -121395.29, 11402.917, -0.106688894, 0.0720356, -121203.555, -121203.555, 0.0, 9.993366, 10.002371 
2.4542439e+3, 3.1879863e+2, -896081.0, -100032.91, 53104.36, -0.009411211, 0.1109488, -96505.945, -96505.945, 0.0, 9.992445, 10.002942 
2.4659829e+3, 1.2891997e+2, -1090799.5, -1586745.0, 26015.28, -0.0012259535, 0.082104936, -1089438.6, 587156.94, 0.38770786, 10.008104, 9.997363 
2.4658896e+3, 1.3891694e+2, -1046024.1, -1588601.1, 6221.902, -0.13584049, 0.096168466, -1045952.75, 532669.3, 0.2803731, 10.006844, 9.996897 
2.4657969e+3, 1.4891322e+2, -893517.7, -1507285.5, -31821.96, -0.11514795, 0.09101023, -891872.25, 588786.1, 0.17081654, 10.00663, 9.996883 
2.4657045e+3, 1.589095e+2, -749397.4, -1447558.3, -37409.227, -0.040700592, 0.0749644, -747398.6, 635296.6, 0.08140349, 10.00663, 9.996622 
2.4656115e+3, 1.689059e+2, -706350.25, -1368130.8, 162.23715, -0.045836158, 0.09100501, -706350.25, 578379.8, 0.027117552, 10.005866, 9.996859 
2.4655189e+3, 1.7890252e+2, -728378.0, -1330574.0, 26386.482, -0.07641953, 0.10985208, -727224.06, 459538.25, 0.004909428, 10.00493, 9.996895 
2.4654263e+3, 1.8889901e+2, -695017.44, -1179313.4, 28693.482, -0.071114436, 0.07221621, -693323.4, 395472.78, 0.00020853154, 10.004103, 9.997658 
2.4653342e+3, 1.9889574e+2, -718379.94, -1151008.5, 13912.226, -0.05370296, 0.022653056, -717933.0, 272894.53, 0.00000000021894557, 10.003311, 9.997564 
2.4652421e+3, 2.0889339e+2, -689346.25, -1020303.1, 27659.38, -0.05674278, 0.045962654, -687050.56, 205799.97, 0.0, 10.002558, 9.998149 
2.4651504e+3, 2.1889147e+2, -707465.25, -989360.25, 40623.305, -0.06220444, 0.0822379, -701727.9, 93141.6, 0.0, 10.001808, 9.99805 
2.465059e+3, 2.2888935e+2, -687332.8, -863335.1, 73534.87, -0.02877793, 0.08262869, -660653.6, 36238.145, 0.0, 10.000991, 9.998636 
2.4649683e+3, 2.388875e+2, -694921.44, -785950.56, 97990.766, 0.014345602, 0.07064237, -632390.8, -33479.1, 0.0, 10.0001335, 9.998908 
2.4648772e+3, 2.4888672e+2, -661262.94, -584732.3, 106447.625, 0.0039299135, 0.07771105, -509881.2, -8962.109, 0.0, 9.999115, 10.000106 
2.4647859e+3, 2.588865e+2, -724953.4, -580524.75, 95737.56, -0.023970876, 0.0880938, -532820.0, -129898.97, 0.0, 9.998073, 9.999965 
2.4646944e+3, 2.688864e+2, -703246.2, -457526.06, 66752.85, -0.04325502, 0.10211701, -440562.9, -135639.69, 0.0, 9.997284, 10.000516 
2.4646027e+3, 2.7888662e+2, -718095.5, -414035.2, 52868.254, -0.029458083, 0.11494298, -405105.06, -198182.53, 0.0, 9.996508, 10.000518 
2.4645124e+3, 2.888873e+2, -702393.25, -268541.88, 40928.65, 0.08336223, 0.13587128, -264714.5, -155798.88, 0.0, 9.995568, 10.001296 
2.464421e+3, 2.9888818e+2, -749121.2, -247702.33, 40495.926, 0.112334244, 0.13932142, -244452.83, -233546.48, 0.0, 9.994607, 10.00123 
2.4643274e+3, 3.0888826e+2, -735608.4, -126921.22, 41785.02, -0.0478396, 0.022604275, -124066.164, -124066.164, 0.0, 9.99397, 10.002036 
2.4642363e+3, 3.1889093e+2, -823473.44, -91533.91, 49847.28, -0.009735259, 0.13994192, -88154.76, -88154.76, 0.0, 9.993061, 10.002702 
2.4759905e+3, 1.2901373e+2, -1089891.5, -1612613.5, -6698.006, -0.020386271, 0.2013637, -1089805.6, 585872.7, 0.370216, 10.008077, 9.997062 
2.4758969e+3, 1.3900864e+2, -1048380.0, -1630442.0, -16438.533, -0.06863579, 0.037536472, -1047916.1, 529808.4, 0.2665083, 10.006867, 9.9966 
2.4758032e+3, 1.490052e+2, -901733.9, -1545626.6, -29358.43, -0.114439964, 0.089005, -900398.06, 579360.7, 0.16116238, 10.006625, 9.996627 
2.4757098e+3, 1.5900223e+2, -743916.8, -1431020.8, -45538.496, -0.12631185, 0.1666868, -740911.9, 640877.06, 0.07584045, 10.006567, 9.99677 
2.475617e+3, 1.6899824e+2, -657191.7, -1257896.1, -33094.4, -0.06577598, 0.08554452, -655373.94, 628450.8, 0.024698226, 10.005819, 9.997645 
2.475524e+3, 1.7899437e+2, -710114.1, -1288855.1, -6704.231, -0.010327365, -0.016060919, -710036.5, 475822.56, 0.0042731334, 10.004905, 9.997197 
2.4754302e+3, 1.889916e+2, -728371.56, -1249270.8, -432.8266, -0.047736086, 0.044796098, -728371.2, 359516.3, 0.00016109807, 10.004098, 9.997184 
2.4753366e+3, 1.9898923e+2, -734006.5, -1183936.0, -11847.651, -0.09301899, 0.12694252, -733694.7, 256218.36, 0.00000000023303823, 10.003307, 9.997343 
2.4752444e+3, 2.089862e+2, -675787.2, -993541.2, 1569.0151, -0.044705983, 0.07693258, -675779.44, 216162.78, 0.0, 10.002557, 9.998336 
2.4751526e+3, 2.1898341e+2, -684271.5, -940259.1, 13843.64, 0.0137718795, 0.005585494, -683525.0, 110443.445, 0.0, 10.001798, 9.998396 
2.4750598e+3, 2.289823e+2, -646895.0, -781053.25, 42860.855, -0.015201776, 0.054866355, -634371.0, 61609.336, 0.0, 10.000992, 9.999204 
2.4749672e+3, 2.3898174e+2, -671777.5, -739900.75, 63824.363, -0.05422023, 0.119915426, -633494.5, -35507.434, 0.0, 10.000135, 9.999228 
2.4748757e+3, 2.4898072e+2, -665292.7, -595698.2, 65335.49, -0.018438378, 0.09748063, -556471.3, -56475.156, 0.0, 9.99912, 10.000031 
2.474784e+3, 2.5897986e+2, -737432.9, -611094.56, 59857.125, 0.021802958, 0.057843283, -587239.44, -185235.98, 0.0, 9.998086, 9.999752 
2.4746917e+3, 2.6897955e+2, -730939.56, -518357.84, 36307.043, 0.0031225511, 0.08538222, -512327.97, -208318.28, 0.0, 9.997291, 10.000099 
2.4745993e+3, 2.7897972e+2, -730468.5, -444572.3, 18957.67, -0.00045264896, 0.12826468, -443320.72, -237308.88, 0.0, 9.996521, 10.000305 
2.4745071e+3, 2.889803e+2, -694637.3, -255036.77, -600.9694, 0.04907347, 0.14071232, -255035.94, -147030.33, 0.0, 9.995573, 10.0013895 
2.4744141e+3, 2.9898104e+2, -737112.6, -225957.77, 5721.038, 0.006400746, 0.12128217, -225893.75, -215896.78, 0.0, 9.994614, 10.00138 
2.4743217e+3, 3.0898213e+2, -738508.3, -139892.2, 21797.521, 0.049213544, 0.10239833, -139099.53, -139099.53, 0.0, 9.993995, 10.001938 
2.4742295e+3, 3.1898418e+2, -808836.25, -87208.93, -73359.98, 0.03897468, 0.17590977, -79826.74, -79826.74, 0.0, 9.993137, 10.002713 
2.4859978e+3, 1.2910657e+2, -1061012.0, -1624911.4, -12231.687, -0.0646746, 0.18586653, -1060746.9, 614022.4, 0.35191143, 10.008332, 9.996785 
2.4859038e+3, 1.3910186e+2, -978342.0, -1603082.9, -14355.186, -0.04531661, 0.08784104, -978012.3, 598799.9, 0.2522043, 10.007462, 9.996502 
2.4858096e+3, 1.4909825e+2, -892521.0, -1519257.1, 5756.2524, -0.08355344, 0.11049912, -892468.1, 586379.56, 0.15140434, 10.006549, 9.996837 
2.4857157e+3, 1.5909505e+2, -845333.7, -1463947.1, 8087.714, -0.10346948, 0.14701027, -845227.94, 535651.44, 0.07037075, 10.005704, 9.996953 
2.4856219e+3, 1.690913e+2, -741511.8, -1281210.8, -8954.29, -0.06358313, 0.07352458, -741363.3, 541549.56, 0.022407658, 10.005142, 9.997805 
2.4855281e+3, 1.7908771e+2, -737988.06, -1285883.1, -17350.094, -0.024533592, -0.013985897, -737439.2, 447505.16, 0.0037080615, 10.004641, 9.997343 
2.4854338e+3, 1.8908502e+2, -730437.75, -1234741.4, 13185.19, -0.040978648, 0.042900693, -730093.25, 356878.53, 0.00012574976, 10.004024, 9.997316 
2.4853398e+3, 1.9908272e+2, -717855.2, -1158530.3, 34989.15, -0.061606243, 0.119742244, -715094.4, 273902.16, 0.00000000017417703, 10.003354, 9.997489 
2.4852465e+3, 2.0907982e+2, -687385.7, -984721.94, 49587.496, -0.027815985, 0.07194045, -679333.94, 211690.7, 0.0, 10.002423, 9.998457 
2.4851535e+3, 2.1907718e+2, -726577.0, -943789.1, 55518.227, 0.012520033, 0.0032209517, -713209.5, 79840.35, 0.0, 10.001439, 9.998542 
2.4850601e+3, 2.290763e+2, -699957.9, -784858.9, 59681.793, -0.023295876, 0.060241662, -669169.3, 25889.87, 0.0, 10.00054, 9.999392 
2.4849668e+3, 2.3907597e+2, -730345.8, -752938.2, 53735.625, -0.064823434, 0.13283826, -686731.9, -89668.72, 0.0, 9.999676, 9.999354 
2.4848743e+3, 2.4907479e+2, -685168.6, -605006.4, 56672.688, -0.012993671, 0.089778885, -575673.6, -76599.94, 0.0, 9.998988, 10.000028 
2.484782e+3, 2.590737e+2, -705952.6, -593980.5, 58938.902, 0.04847354, 0.027389292, -568675.5, -167592.39, 0.0, 9.998301, 9.9997635 
2.4846888e+3, 2.6907364e+2, -707894.8, -502988.63, 65999.74, 0.020918068, 0.07723473, -483570.44, -180483.14, 0.0, 9.9974375, 10.00013 
2.4845955e+3, 2.7907404e+2, -726864.25, -441837.66, 78612.37, -0.0024290567, 0.14586544, -421593.63, -216506.31, 0.0, 9.996551, 10.000305 
2.4845022e+3, 2.8907436e+2, -639665.6, -233182.31, 57727.914, 0.01041006, 0.13774322, -225142.92, -118059.22, 0.0, 9.995976, 10.001342 
2.484408e+3, 2.9907492e+2, -623896.0, -175641.0, 50290.37, -0.04351028, 0.102307126, -170068.14, -160990.83, 0.0, 9.995411, 10.00134 
2.4843162e+3, 3.0907667e+2, -683459.56, -110092.48, 55659.633, 0.09571678, 0.151819, -104739.3, -104739.3, 0.0, 9.9943695, 10.001957 
2.4842216e+3, 3.1907675e+2, -758680.8, -38385.875, -51244.086, -0.007215393, 0.0327673, -34758.473, -34758.473, 0.0, 9.993389, 10.00292 
2.4960048e+3, 1.2919898e+2, -1057901.4, -1647138.5, -32570.883, -0.13280511, 0.089292735, -1056106.5, 617757.1, 0.33277836, 10.008284, 9.996562 
2.4959107e+3, 1.3919641e+2, -968225.6, -1597100.9, -35620.51, -0.058972303, 0.21969058, -966214.44, 609672.9, 0.23741172, 10.007409, 9.9965725 
2.4958162e+3, 1.4919221e+2, -856984.06, -1452686.1, -20123.51, -0.03366755, 0.14748177, -856305.06, 621621.9, 0.14147887, 10.006534, 9.997334 
2.4957219e+3, 1.5918802e+2, -831261.75, -1442022.8, -16480.666, -0.0030883874, 0.041626457, -830817.4, 549149.06, 0.06493945, 10.005707, 9.997106 
2.4956267e+3, 1.6918497e+2, -764582.5, -1334653.8, -25353.03, -0.049007013, 0.058907077, -763457.2, 518537.9, 0.020211603, 10.005144, 9.99744 
2.4955314e+3, 1.791823e+2, -737466.06, -1284123.5, -34568.766, -0.10760687, 0.09373931, -735288.75, 448731.03, 0.0031977694, 10.00463, 9.997364 
2.4954376e+3, 1.8917917e+2, -689737.75, -1146346.4, -8752.428, -0.0473629, 0.06026656, -689570.06, 396479.72, 0.0000980351, 10.004001, 9.997937 
2.4953437e+3, 1.9917624e+2, -694321.56, -1102172.5, 7437.2324, 0.028354522, 0.01636452, -694186.0, 293892.1, 0.00000000005180779, 10.003315, 9.997899 
2.4952488e+3, 2.091742e+2, -685265.3, -978415.3, 13248.65, -0.010348246, 0.038046457, -684667.75, 205430.7, 0.0, 10.002408, 9.998511 
2.4951538e+3, 2.191726e+2, -731592.1, -954336.7, 22621.146, -0.0668938, 0.070455596, -729318.0, 62796.97, 0.0, 10.001433, 9.998476 
2.4950601e+3, 2.291712e+2, -715383.7, -819018.06, 27818.158, -0.05216898, 0.095162764, -708388.7, -14259.133, 0.0, 10.000543, 9.999158 
2.4949662e+3, 2.3917007e+2, -736709.44, -769582.06, 24118.691, -0.020665593, 0.107931025, -723959.06, -127817.63, 0.0, 9.999683, 9.99924 
2.4948733e+3, 2.491688e+2, -679189.5, -596158.56, 29192.842, 0.017994106, 0.054424584, -586922.1, -88769.04, 0.0, 9.998997, 10.000088 
2.49478e+3, 2.5916788e+2, -685612.8, -556798.0, 28091.406, 0.047565218, -0.00080550864, -550938.5, -150777.47, 0.0, 9.998315, 10.000015 
2.4946855e+3, 2.6916856e+2, -670522.1, -428940.97, 29467.998, 0.004044134, 0.07914617, -425398.4, -123241.836, 0.0, 9.997446, 10.000638 
2.494591e+3, 2.7916962e+2, -710102.44, -411549.4, 50466.527, -0.04150874, 0.16873507, -403249.44, -199100.8, 0.0, 9.996562, 10.000511 
2.4944973e+3, 2.891695e+2, -651412.2, -265339.75, 39358.59, -0.033496797, 0.124392405, -261368.14, -155218.23, 0.0, 9.996002, 10.001112 
2.4944031e+3, 2.9916972e+2, -636366.7, -215500.69, 23397.748, -0.040984653, 0.077642106, -214203.9, -206056.25, 0.0, 9.995465, 10.001043 
2.4943098e+3, 3.0917153e+2, -687899.06, -126210.086, 3275.4792, 0.08686082, 0.16242728, -126190.984, -126190.984, 0.0, 9.994392, 10.001839 
2.4942148e+3, 3.1917268e+2, -758418.2, -52018.71, -30809.379, 0.009591723, 0.14795743, -50677.516, -50677.516, 0.0, 9.9934435, 10.002804 
2.5060132e+3, 1.2929387e+2, -1045629.06, -1644438.8, -5528.9805, -0.095919065, 0.116897695, -1045578.06, 627355.3, 0.31288177, 10.008185, 9.996626 
2.5059175e+3, 1.392904e+2, -990493.7, -1611345.9, 7171.1113, -0.053358123, 0.15479782, -990410.9, 584554.3, 0.22218059, 10.007078, 9.996629 
2.5058222e+3, 1.4928651e+2, -867100.75, -1457292.9, 17658.742, -0.030112626, 0.11146302, -866572.9, 610429.2, 0.13140863, 10.006386, 9.997361 
2.5057274e+3, 1.5928279e+2, -812318.6, -1428753.8, 2460.4292, 0.0059638047, 0.05156885, -812308.8, 566728.6, 0.05954629, 10.005807, 9.997145 
2.5056314e+3, 1.6927986e+2, -763012.25, -1328156.6, 12746.064, -0.04173861, 0.07793834, -762724.9, 518340.7, 0.018101124, 10.005128, 9.997488 
2.5055355e+3, 1.7927727e+2, -757981.7, -1272627.8, 21534.93, -0.10478531, 0.113811724, -757082.1, 426008.22, 0.0027338688, 10.004403, 9.997546 
2.5054407e+3, 1.8927422e+2, -750354.0, -1134203.5, 32519.637, -0.045696743, 0.059359357, -747618.44, 337500.28, 0.00007529004, 10.003412, 9.9983 
2.5053462e+3, 1.9927138e+2, -807142.9, -1127904.9, 34561.97, 0.03160436, -0.00645898, -803461.1, 183683.8, 0.0000000000010010511, 10.00242, 9.998151 
2.5052506e+3, 2.092697e+2, -756659.25, -1001766.9, 41490.426, -0.020828156, 0.037474133, -749826.5, 139335.67, 0.0, 10.001877, 9.998604 
2.5051546e+3, 2.1926841e+2, -733346.3, -949545.4, 49656.332, -0.08979419, 0.095848516, -722486.75, 68689.09, 0.0, 10.001406, 9.998517 
2.5050604e+3, 2.2926664e+2, -699945.56, -818598.9, 63653.094, -0.046473052, 0.0880072, -672258.6, 20935.186, 0.0, 10.000686, 9.999089 
2.504966e+3, 2.3926507e+2, -709128.7, -757251.4, 73045.87, 0.017790765, 0.06383331, -656283.3, -61073.492, 0.0, 9.999884, 9.999225 
2.5048718e+3, 2.4926418e+2, -682894.44, -592724.94, 79613.08, 0.02613044, 0.047203045, -546317.2, -49098.74, 0.0, 9.998957, 10.000127 
2.5047773e+3, 2.5926372e+2, -720994.4, -563189.94, 73814.805, 0.019221468, 0.036338683, -534045.0, -134822.6, 0.0, 9.998033, 10.000104 
2.5046822e+3, 2.6926422e+2, -655603.6, -405565.38, 52746.63, -0.013273046, 0.08649652, -394893.72, -93674.85, 0.0, 9.997484, 10.000776 
2.5045875e+3, 2.79265e+2, -648379.94, -373325.5, 46590.918, -0.039160743, 0.13620879, -365647.88, -162435.4, 0.0, 9.996955, 10.000582 
2.504493e+3, 2.8926498e+2, -653810.8, -272092.5, 42461.746, -0.032481514, 0.10379783, -267426.16, -162213.27, 0.0, 9.996016, 10.001057 
2.504398e+3, 2.9926535e+2, -701764.94, -250093.69, 38968.19, -0.040138405, 0.07881137, -246756.34, -239546.89, 0.0, 9.995037, 10.001008 
2.504304e+3, 3.0926698e+2, -658981.44, -107740.86, 36144.555, 0.08557089, 0.14740433, -105380.98, -105380.98, 0.0, 9.994575, 10.001875 
2.5042084e+3, 3.192685e+2, -732196.25, -63868.71, 45901.36, 0.05363985, 0.16504097, -60730.895, -60730.895, 0.0, 9.993736, 10.002577 
2.5160217e+3, 1.2939048e+2, -1023491.6, -1622686.8, -35870.35, -0.0022768085, 0.21868467, -1021351.94, 650633.75, 0.29242325, 10.008102, 9.996865 
2.5159243e+3, 1.3938414e+2, -976043.1, -1611044.6, -18535.195, -0.038694665, -0.049473, -975502.56, 598541.0, 0.2066679, 10.007104, 9.996619 
2.515828e+3, 1.4938124e+2, -877411.5, -1502497.8, 812.2471, -0.06314225, 0.029762495, -877410.44, 598662.06, 0.12128538, 10.006406, 9.9970255 
2.515732e+3, 1.5937908e+2, -814633.75, -1437374.4, -16340.028, -0.05707032, 0.15248938, -814205.3, 563889.5, 0.054226432, 10.005784, 9.9971 
2.515636e+3, 1.6937579e+2, -742968.4, -1280973.1, -10308.428, -0.040314812, 0.121002086, -742770.94, 537355.2, 0.016081106, 10.005091, 9.997832 
2.51554e+3, 1.793726e+2, -745070.06, -1237418.8, -8483.096, -0.03523399, 0.06194647, -744923.94, 437232.38, 0.0023122863, 10.00436, 9.997812 
2.5154436e+3, 1.8937007e+2, -742648.4, -1117565.6, -5768.254, -0.041607425, 0.044929374, -742559.6, 341619.84, 0.000056231012, 10.003403, 9.998423 
2.5153473e+3, 1.9936796e+2, -799019.8, -1114696.9, 6935.2817, -0.045753464, 0.03981389, -798867.56, 187331.38, 0.0, 10.00243, 9.9982395 
2.5152513e+3, 2.0936617e+2, -749063.94, -989409.6, 25668.69, -0.05580311, 0.0649483, -746353.1, 141863.72, 0.0, 10.001885, 9.998687 
2.5151557e+3, 2.193646e+2, -727928.1, -937879.0, 29202.957, -0.06258762, 0.08418556, -723941.8, 66291.164, 0.0, 10.001397, 9.998605 
2.515061e+3, 2.2936258e+2, -693190.06, -806098.94, 34944.88, -0.010045147, 0.042380437, -683249.9, 9002.743, 0.0, 10.000687, 9.999178 
2.5149658e+3, 2.393609e+2, -703538.6, -748923.06, 41133.402, 0.04448352, -0.00019233176, -679253.25, -84984.3, 0.0, 9.999891, 9.999282 
2.5148702e+3, 2.4936087e+2, -683151.2, -595990.75, 41973.46, 0.008429947, 0.06987393, -579064.7, -82794.61, 0.0, 9.998961, 10.000106 
2.5147745e+3, 2.5936124e+2, -730276.7, -585157.9, 44400.344, -0.042015575, 0.14470822, -572651.06, -174383.67, 0.0, 9.998037, 9.999954 
2.514679e+3, 2.6936048e+2, -675617.5, -450410.0, 32734.365, -0.03211376, 0.096593164, -445748.47, -145472.9, 0.0, 9.997492, 10.000468 
2.5145844e+3, 2.793599e+2, -651576.8, -386151.53, 16679.697, 0.0018924624, 0.034571804, -385107.47, -182825.61, 0.0, 9.996975, 10.000487 
2.514489e+3, 2.8936073e+2, -644911.1, -254494.05, -474.896, 0.022158947, 0.080588475, -254493.47, -150219.78, 0.0, 9.996012, 10.001183 
2.5143924e+3, 2.9936203e+2, -683201.3, -207635.86, 10185.991, -0.020712623, 0.1356118, -207417.8, -201157.05, 0.0, 9.995012, 10.001315 
2.5142977e+3, 3.0936268e+2, -626870.3, -45622.19, 24482.486, 0.047313336, 0.055612657, -44592.797, -44592.797, 0.0, 9.994587, 10.002299 
2.514202e+3, 3.1936336e+2, -756942.8, -110941.336, 12116.202, 0.059404474, -0.030856576, -110714.17, -110714.17, 0.0, 9.993726, 10.0022545 
2.5260296e+3, 1.2948675e+2, -1034049.0, -1641225.0, 393.97528, 0.032469496, 0.17769773, -1034048.75, 636991.9, 0.27166548, 10.007857, 9.996792 
2.525931e+3, 1.3948104e+2, -918500.9, -1588125.0, 5438.3545, -0.058137257, -0.021601804, -918456.75, 654637.2, 0.1910676, 10.007511, 9.996578 
2.5258338e+3, 1.49478e+2, -855528.6, -1493720.0, 35042.9, -0.082892545, 0.04790796, -853610.2, 621513.94, 0.11122095, 10.006528, 9.997022 
2.525737e+3, 1.5947561e+2, -854978.4, -1455887.5, 34650.69, -0.066740535, 0.1511823, -852986.94, 524161.53, 0.049025297, 10.005462, 9.997124 
2.5256407e+3, 1.6947229e+2, -817173.56, -1310072.1, 32499.984, -0.035317868, 0.11220771, -815039.9, 464140.4, 0.014160929, 10.0045395, 9.997894 
2.525544e+3, 1.7946912e+2, -833898.2, -1268871.3, 19198.828, -0.014766973, 0.049943577, -833052.44, 348157.9, 0.00193098, 10.003704, 9.997909 
2.5254464e+3, 1.8946694e+2, -761847.44, -1113039.1, 19725.383, -0.034315165, 0.057639565, -760743.0, 322487.6, 0.000040405128, 10.00322, 9.998538 
2.5253493e+3, 1.9946516e+2, -745869.6, -1081858.1, 30364.59, -0.05655988, 0.07646351, -743147.56, 242099.69, 0.0, 10.002771, 9.998297 
2.525253e+3, 2.0946313e+2, -735045.8, -985046.25, 43822.344, -0.061648864, 0.079637095, -727586.8, 159680.52, 0.0, 10.001999, 9.998658 
2.5251567e+3, 2.1946126e+2, -759909.75, -947207.2, 36911.875, -0.056521885, 0.0731221, -752897.8, 36388.156, 0.0, 10.001158, 9.998652 
2.5250608e+3, 2.2945942e+2, -738343.8, -812792.44, 39781.36, -0.007583589, 0.03826437, -721086.9, -29783.39, 0.0, 10.000319, 9.999306 
2.524965e+3, 2.3945798e+2, -750817.3, -758987.94, 49743.36, 0.040824655, 0.0067724995, -704991.8, -111674.58, 0.0, 9.99952, 9.999388 
2.5248685e+3, 2.4945797e+2, -670872.3, -585210.6, 57451.652, -0.0017892366, 0.07500094, -556381.4, -61063.39, 0.0, 9.999032, 10.000142 
2.524772e+3, 2.594583e+2, -661750.25, -553068.7, 62955.22, -0.05485177, 0.14643389, -524245.28, -126929.76, 0.0, 9.99852, 9.999937 
2.5246763e+3, 2.6945737e+2, -684671.6, -464935.3, 63822.895, -0.023654351, 0.08732243, -447742.97, -148417.48, 0.0, 9.997481, 10.000369 
2.524581e+3, 2.794566e+2, -739709.9, -433612.97, 59622.688, 0.034621786, 0.016455533, -422409.5, -221075.98, 0.0, 9.996399, 10.000434 
2.5244847e+3, 2.8945765e+2, -659501.8, -261396.25, 35791.832, 0.044843476, 0.088382244, -258203.97, -154880.95, 0.0, 9.99592, 10.001175 
2.5243875e+3, 2.99459e+2, -618115.8, -173497.88, 31339.281, -0.014054892, 0.15109752, -171299.77, -165990.42, 0.0, 9.995458, 10.001329 
2.5242913e+3, 3.0945843e+2, -674190.1, -70981.92, 7531.3867, 0.014423038, -0.0474996, -70887.91, -70887.91, 0.0, 9.994284, 10.002266 
2.5241956e+3, 3.194617e+2, -686346.75, -33437.79, -597.48584, 0.097322725, 0.12380019, -33437.242, -33437.242, 0.0, 9.99403, 10.002637 
2.536037e+3, 1.2958312e+2, -1032299.75, -1673997.1, -6938.6353, 0.019179096, 0.053139303, -1032224.75, 637869.94, 0.25088212, 10.007847, 9.996498 
2.5359374e+3, 1.3958031e+2, -916767.1, -1602223.8, -11226.858, -0.10488939, 0.17114885, -916583.3, 655539.4, 0.17556839, 10.00745, 9.996512 
2.5358397e+3, 1.4957634e+2, -839065.06, -1468094.4, -287.54944, -0.09476932, 0.13286495, -839064.94, 635096.1, 0.101324536, 10.006502, 9.997216 
2.5357425e+3, 1.5957247e+2, -850328.75, -1451987.0, -542.8513, -0.039688613, 0.07053407, -850328.25, 525870.0, 0.043990508, 10.005457, 9.997156 
2.5356448e+3, 1.6956936e+2, -826142.75, -1335798.8, 1267.4147, -0.030673668, 0.06568969, -826139.6, 452088.63, 0.012352641, 10.004556, 9.997714 
2.535547e+3, 1.7956671e+2, -835215.06, -1277598.5, -3642.8274, -0.036852222, 0.07271253, -835185.06, 345068.75, 0.0015898246, 10.003723, 9.997843 
2.5354496e+3, 1.8956472e+2, -756784.25, -1103117.5, 5880.9785, -0.024187304, 0.0930917, -756684.4, 325588.66, 0.000027801365, 10.003216, 9.9986105 
2.5353524e+3, 1.9956292e+2, -751314.7, -1087530.5, 9310.505, -0.0124653, 0.10671974, -751057.06, 233233.19, 0.0, 10.002741, 9.998275 
2.5352547e+3, 2.0956053e+2, -745734.75, -1006785.9, 13203.487, -0.04404639, 0.08411486, -745068.6, 141245.34, 0.0, 10.001991, 9.998517 
2.5351572e+3, 2.1955836e+2, -760463.7, -950345.9, 7684.3154, -0.07557933, 0.059465602, -760153.2, 28182.25, 0.0, 10.001161, 9.998633 
2.5350603e+3, 2.2955711e+2, -728492.4, -794934.3, 9306.051, -0.039618976, 0.074492015, -727213.56, -36866.363, 0.0, 10.000324, 9.999429 
2.5349635e+3, 2.3955622e+2, -742367.25, -743870.1, 25283.496, 0.0038797916, 0.08703966, -717824.0, -125468.875, 0.0, 9.999524, 9.999494 
2.5348672e+3, 2.4955536e+2, -663570.6, -573532.7, 39551.684, -0.004434404, 0.059576187, -558626.4, -64263.2, 0.0, 9.999042, 10.000221 
2.5347704e+3, 2.595548e+2, -650982.3, -537006.6, 32927.742, -0.020954652, 0.031312417, -528177.6, -131809.22, 0.0, 9.998541, 10.000041 
2.5346738e+3, 2.6955485e+2, -676998.44, -450476.47, 17812.848, 0.013918725, 0.061322786, -449084.28, -150715.4, 0.0, 9.997481, 10.000472 
2.5345773e+3, 2.795552e+2, -745253.3, -442968.9, 28801.893, 0.058663476, 0.10070597, -440249.1, -239883.08, 0.0, 9.996383, 10.000381 
2.53448e+3, 2.8955564e+2, -674972.56, -294432.53, 20168.246, 0.022736078, 0.12611492, -293366.63, -191004.84, 0.0, 9.995917, 10.000953 
2.534382e+3, 2.995558e+2, -642987.4, -231992.47, -1054.401, -0.05355761, 0.09465591, -231989.77, -227630.03, 0.0, 9.995481, 10.00092 
2.5342855e+3, 3.095545e+2, -725548.1, -171093.11, -50472.035, 0.036242396, -0.11991141, -166536.1, -166536.1, 0.0, 9.994249, 10.001598 
2.5341886e+3, 3.1955963e+2, -594154.2, 113015.22, 79988.31, 0.045618404, 0.27287495, 121949.86, 121949.86, 0.0, 9.994176, 10.003597 
2.546044e+3, 1.296811e+2, -1002720.06, -1671428.8, 16843.34, -0.0076303794, 0.009500869, -1002296.06, 666837.0, 0.23033172, 10.007974, 9.996457 
2.5459442e+3, 1.3967888e+2, -957618.6, -1634156.8, 20379.885, -0.11392003, 0.19145794, -957005.25, 614151.5, 0.16033955, 10.007024, 9.996497 
2.5458458e+3, 1.496747e+2, -871099.44, -1488422.1, 22185.227, -0.08556077, 0.13668783, -870303.2, 602893.75, 0.091691904, 10.006219, 9.997206 
2.5457475e+3, 1.5967052e+2, -843710.06, -1445729.5, 14381.348, -0.015759692, 0.045143977, -843366.7, 531870.06, 0.03916419, 10.005474, 9.997187 
2.5456488e+3, 1.6966756e+2, -789732.4, -1311563.5, 29587.82, -0.023891808, 0.049837273, -788060.1, 489205.06, 0.010667356, 10.00478, 9.997768 
2.5455502e+3, 1.7966507e+2, -789765.3, -1259255.8, 34991.547, -0.049329277, 0.07218544, -787171.7, 392117.38, 0.0012893855, 10.004056, 9.997806 
2.545452e+3, 1.8966287e+2, -795485.5, -1137568.3, 33966.266, -0.028040145, 0.08612249, -792145.5, 289165.22, 0.000018403796, 10.003025, 9.998462 
2.5453544e+3, 1.9966088e+2, -854654.44, -1136097.8, 29737.701, -0.0014049605, 0.09259981, -851546.7, 131783.72, 0.0, 10.002034, 9.998279 
2.545256e+3, 2.096587e+2, -782808.6, -1005728.75, 53799.34, -0.03155524, 0.0791671, -770503.94, 114847.93, 0.0, 10.001662, 9.998678 
2.545158e+3, 2.1965674e+2, -727677.2, -922090.9, 58427.5, -0.06575665, 0.0631128, -711469.06, 75901.805, 0.0, 10.001339, 9.998737 
2.5450602e+3, 2.2965547e+2, -699235.5, -778767.3, 49590.246, -0.044807624, 0.07354826, -675436.3, 13946.351, 0.0, 10.000523, 9.99944 
2.5449628e+3, 2.3965451e+2, -731764.06, -743761.56, 62332.297, -0.013230101, 0.08128353, -675142.56, -83751.25, 0.0, 9.999626, 9.99944 
2.5448656e+3, 2.4965343e+2, -694034.25, -602870.94, 67864.625, -0.0036440548, 0.045624413, -566701.2, -73299.38, 0.0, 9.998902, 10.000082 
2.5447685e+3, 2.5965267e+2, -699097.75, -553994.7, 38384.184, 0.0022103956, 0.009354957, -544466.56, -149057.36, 0.0, 9.998192, 10.000089 
2.544671e+3, 2.696531e+2, -665427.2, -416722.5, 21648.744, 0.024235528, 0.057847586, -414852.13, -117446.805, 0.0, 9.997447, 10.000717 
2.544573e+3, 2.7965385e+2, -695382.94, -407698.13, 50817.14, 0.05296971, 0.11433984, -398985.56, -199587.39, 0.0, 9.996685, 10.000474 
2.5444752e+3, 2.8965384e+2, -676169.56, -302971.6, 62477.76, 0.021919256, 0.101642065, -292789.88, -191391.88, 0.0, 9.99595, 10.0008745 
2.544377e+3, 2.9965362e+2, -693780.44, -289871.7, 47448.758, -0.04221901, 0.04605653, -284372.56, -280972.63, 0.0, 9.99528, 10.000617 
2.5442797e+3, 3.096528e+2, -607403.75, -164420.06, 2744.8167, 0.054215353, -0.07170896, -164403.06, -164403.06, 0.0, 9.995286, 10.001139 
2.5441816e+3, 3.1965467e+2, -673859.3, 72467.25, 133294.42, -0.012665926, 0.019818278, 95559.234, 95559.234, 0.0, 9.99366, 10.003555 
2.556051e+3, 1.2978029e+2, -986308.06, -1658370.4, -10900.718, -0.0504118, 0.019523054, -986131.3, 682028.3, 0.2102301, 10.007896, 9.996596 
2.555951e+3, 1.397771e+2, -946714.2, -1636235.1, -6307.212, -0.10133691, 0.091637775, -946656.5, 623536.4, 0.14552182, 10.0070305, 9.996481 
2.5558516e+3, 1.4977327e+2, -875918.94, -1516738.1, -2545.1145, -0.06518334, 0.086082734, -875908.9, 596321.44, 0.08240168, 10.006224, 9.997013 
2.555753e+3, 1.5976962e+2, -843616.3, -1447065.1, -9326.667, 0.0024447553, 0.06295665, -843472.2, 530793.2, 0.034580622, 10.00545, 9.997193 
2.5556535e+3, 1.6976671e+2, -778029.94, -1283262.0, 5801.9224, -0.01735636, 0.057156105, -777963.3, 498329.3, 0.009113773, 10.004751, 9.997979 
2.5555536e+3, 1.7976412e+2, -797192.3, -1269941.8, 2920.3037, -0.057215482, 0.05323413, -797174.25, 381142.63, 0.0010293925, 10.004029, 9.997747 
2.5554544e+3, 1.8976142e+2, -818610.94, -1189398.3, -5569.1323, -0.04546648, 0.04381678, -818527.3, 261816.66, 0.000011845724, 10.003035, 9.998105 
2.5553554e+3, 1.9975904e+2, -849719.06, -1133569.5, 6394.4233, -0.022842325, 0.038223427, -849575.06, 132792.77, 0.0, 10.002061, 9.998286 
2.5552574e+3, 2.0975755e+2, -752776.1, -946958.25, 45453.86, -0.023857197, 0.06646783, -742663.06, 141718.64, 0.0, 10.001672, 9.999081 
2.555159e+3, 2.1975632e+2, -717670.9, -899342.8, 38442.555, -0.031087544, 0.085388646, -709871.1, 76521.945, 0.0, 10.001325, 9.998903 
2.5550607e+3, 2.2975439e+2, -707109.0, -796002.56, 15712.06, -0.02579079, 0.035820395, -704413.6, -16002.806, 0.0, 10.000522, 9.999326 
2.554962e+3, 2.3975272e+2, -747133.25, -778905.44, 32148.502, -0.016096056, -0.012598327, -727159.94, -136733.48, 0.0, 9.999634, 9.999199 
2.554864e+3, 2.4975213e+2, -720889.1, -661339.75, 39631.504, -0.00065304094, 0.035709403, -641544.4, -149109.97, 0.0, 9.998908, 9.999682 
2.5547662e+3, 2.5975195e+2, -700596.1, -558845.8, 8831.646, 0.0096128015, 0.0884058, -558297.7, -163859.55, 0.0, 9.998193, 10.000059 
2.5546676e+3, 2.6975206e+2, -638023.4, -361459.72, -8832.598, 0.00004345767, 0.07604917, -361177.9, -64742.06, 0.0, 9.997448, 10.001099 
2.554569e+3, 2.7975225e+2, -674058.8, -369657.88, 22114.658, 0.003399978, 0.045003418, -368059.63, -169627.97, 0.0, 9.996705, 10.00073 
2.5544712e+3, 2.8975213e+2, -669407.9, -290943.75, 33127.74, 0.05133337, 0.005364969, -288065.88, -187633.17, 0.0, 9.995951, 10.000961 
2.5543728e+3, 2.997525e+2, -708636.6, -319427.5, 36700.777, 0.047991876, 0.008532035, -315997.0, -313567.8, 0.0, 9.995268, 10.000423 
2.5542745e+3, 3.0975366e+2, -628730.56, -228896.77, 7362.4497, 0.022087593, 0.12890436, -228761.23, -228761.23, 0.0, 9.995366, 10.000661 
2.554175e+3, 3.1975234e+2, -725005.25, -2211.0808, -105961.945, 0.016277572, -0.052329198, 13002.758, 13002.758, 0.0, 9.993534, 10.003098 
2.5660583e+3, 1.2988055e+2, -1018124.6, -1692823.0, 19585.188, -0.05551722, 0.05565016, -1017556.56, 649620.7, 0.19075277, 10.007511, 9.996534 
2.565958e+3, 1.3987678e+2, -904654.44, -1618160.8, 8409.33, -0.051233795, 0.07649818, -904555.3, 664660.7, 0.13123044, 10.00728, 9.996484 
2.5658575e+3, 1.4987311e+2, -864138.44, -1507305.9, 14250.153, -0.053217933, 0.082317814, -863822.9, 607429.1, 0.07351828, 10.0062475, 9.997064 
2.5657573e+3, 1.5986969e+2, -883450.0, -1465861.4, 22385.512, -0.030465527, 0.080436826, -882590.9, 490694.03, 0.03026765, 10.005147, 9.997208 
2.5656572e+3, 1.6986667e+2, -840707.94, -1317908.0, 31522.93, -0.028777743, 0.06739292, -838634.6, 436678.72, 0.007697785, 10.004334, 9.99794 
2.565557e+3, 1.798639e+2, -857821.6, -1301970.8, 17201.65, -0.040571533, 0.05162966, -857156.44, 320182.88, 0.00080801407, 10.003629, 9.997718 
2.565457e+3, 1.8986113e+2, -794766.6, -1181572.1, 24951.219, -0.039891444, 0.03995865, -793163.75, 286202.94, 0.000007464854, 10.0032215, 9.998066 
2.5653574e+3, 1.998587e+2, -745493.8, -1080951.9, 50787.96, -0.030655341, 0.032342333, -737973.1, 243417.75, 0.0, 10.002772, 9.998302 
2.5652584e+3, 2.0985717e+2, -743909.75, -934517.3, 70717.125, -0.01646465, 0.05157164, -720538.6, 162866.25, 0.0, 10.001705, 9.999146 
2.5651598e+3, 2.1985589e+2, -814586.44, -939558.4, 44528.04, -0.005412703, 0.064134166, -800344.06, -14927.894, 0.0, 10.000638, 9.998955 
2.5650606e+3, 2.2985406e+2, -745198.0, -811488.3, 30216.824, -0.010499066, 0.01984058, -733491.6, -46058.33, 0.0, 10.000255, 9.999345 
2.5649613e+3, 2.3985246e+2, -707866.0, -754788.44, 53821.004, -0.013320499, -0.022306247, -672615.0, -83166.56, 0.0, 9.999889, 9.999237 
2.5648627e+3, 2.4985199e+2, -718830.4, -655601.56, 85660.45, -0.0011665246, 0.03572147, -595907.8, -104452.695, 0.0, 9.99891, 9.999716 
2.564764e+3, 2.598519e+2, -744992.4, -585473.06, 84523.99, 0.008458207, 0.09743735, -549017.8, -155559.7, 0.0, 9.997917, 10.000005 
2.5646645e+3, 2.6985168e+2, -632788.4, -374870.66, 41999.0, -0.00625469, 0.06964578, -368203.94, -72744.7, 0.0, 9.99756, 10.00095 
2.5645652e+3, 2.7985162e+2, -605453.4, -335773.44, 28122.264, -0.0035338495, 0.021647712, -332872.06, -135413.83, 0.0, 9.997179, 10.0007305 
2.564467e+3, 2.8985173e+2, -617063.5, -247185.31, 30487.617, 0.06118958, -0.0061122095, -244689.17, -145232.7, 0.0, 9.996239, 10.001119 
2.564368e+3, 2.9985243e+2, -692920.94, -283953.13, 60195.188, 0.07111495, 0.014121271, -275277.16, -273828.22, 0.0, 9.995266, 10.000663 
2.5642687e+3, 3.0985373e+2, -713396.56, -242358.1, 102194.28, 0.012689165, 0.124991365, -221142.1, -221142.1, 0.0, 9.994671, 10.000903 
2.5641686e+3, 3.1985465e+2, -621983.75, 37983.125, -115658.01, 0.035388507, 0.1662567, 57665.016, 57665.016, 0.0, 9.9942875, 10.003009 
2.5760654e+3, 1.2998164e+2, -1027446.1, -1726309.5, 14827.692, -0.040482964, 0.10743728, -1027131.7, 639056.25, 0.17207225, 10.007398, 9.996356 
2.5759655e+3, 1.3997766e+2, -907716.75, -1626098.9, -10149.965, 0.019622788, 0.12223658, -907573.4, 660655.0, 0.11757795, 10.0071745, 9.996483 
2.5758633e+3, 1.49974e+2, -852338.94, -1482351.9, -24370.092, -0.052515782, 0.113892496, -851397.7, 618866.2, 0.065104194, 10.006192, 9.997266 
2.5757614e+3, 1.599706e+2, -885230.7, -1470244.6, -10631.416, -0.10395915, 0.098053485, -885037.56, 487258.72, 0.02625141, 10.005124, 9.997192 
2.575661e+3, 1.6996732e+2, -857410.6, -1355414.6, 5846.2334, -0.05415509, 0.07936497, -857342.0, 416985.97, 0.006423624, 10.004334, 9.997685 
2.5755605e+3, 1.7996435e+2, -857646.56, -1304771.0, -824.94, -0.0074526817, 0.06303598, -857645.06, 318711.63, 0.0006226271, 10.003636, 9.997698 
2.57546e+3, 1.899619e+2, -780367.5, -1153061.1, 13868.77, -0.017009782, 0.068872206, -779852.1, 298527.88, 0.0000046197197, 10.0032215, 9.998265 
2.5753596e+3, 1.999597e+2, -749047.06, -1086196.8, 24703.303, -0.028649122, 0.07035531, -747246.6, 233154.25, 0.0, 10.002758, 9.998276 
2.57526e+3, 2.099574e+2, -761968.7, -973876.0, 27630.604, -0.010827903, 0.03443636, -758425.2, 123997.08, 0.0, 10.001707, 9.9988785 
2.5751603e+3, 2.1995547e+2, -817691.06, -949405.2, 18838.604, 0.0063138977, 0.00033784265, -815049.6, -30609.137, 0.0, 10.000648, 9.998886 
2.5750604e+3, 2.299544e+2, -734609.1, -793207.56, 21156.6, 0.00028796145, 0.026597532, -727769.1, -41318.54, 0.0, 10.000264, 9.999469 
2.5749606e+3, 2.3995367e+2, -685673.56, -710965.44, 28736.041, -0.0076253735, 0.053034298, -666923.94, -78466.34, 0.0, 9.999893, 9.999539 
2.5748608e+3, 2.4995296e+2, -685917.1, -587842.3, 43462.22, -0.007853222, 0.043583658, -571353.94, -80889.68, 0.0, 9.998907, 10.000185 
2.5747612e+3, 2.5995243e+2, -753168.56, -604565.06, 59288.508, -0.0081922505, 0.03048322, -583809.6, -191340.27, 0.0, 9.997921, 9.999875 
2.5746617e+3, 2.6995194e+2, -685758.5, -489358.06, 31212.604, 0.0091331145, 0.037335604, -484517.0, -190040.94, 0.0, 9.997572, 10.000162 
2.574562e+3, 2.799518e+2, -622014.8, -377736.44, 1627.8859, 0.03663659, 0.04949893, -377725.6, -181246.66, 0.0, 9.997206, 10.000433 
2.5744623e+3, 2.8995264e+2, -601141.25, -217965.98, -12547.244, 0.03743412, 0.08584903, -217555.56, -119086.56, 0.0, 9.996249, 10.001317 
2.574362e+3, 2.9995346e+2, -634543.75, -165557.84, 29134.178, -0.006092869, 0.08243495, -163754.92, -163296.52, 0.0, 9.995272, 10.001477 
2.5742635e+3, 3.0995244e+2, -616493.75, -33712.14, 85443.07, 0.059948467, -0.16828997, -21443.402, -21443.402, 0.0, 9.994632, 10.002359 
2.574162e+3, 3.1995693e+2, -697666.1, -139999.2, -124781.9, -0.011702362, 0.15070313, -113351.695, -113351.695, 0.0, 9.994364, 10.001758 
2.5860718e+3, 1.3008264e+2, -1040814.94, -1692840.1, 28987.605, -0.058025263, 0.11586001, -1039528.75, 625669.9, 0.15435293, 10.00696, 9.996802 
2.5859717e+3, 1.4007871e+2, -990990.7, -1641652.1, 20091.402, 0.026922192, 0.09540791, -990370.94, 576866.2, 0.10467715, 10.006314, 9.996789 
2.5858685e+3, 1.5007527e+2, -924284.2, -1504803.1, 877.4001, -0.039450813, 0.093850784, -924282.9, 544987.3, 0.057222053, 10.005564, 9.997411 
2.585766e+3, 1.600721e+2, -917098.6, -1478819.9, 18847.045, -0.08939875, 0.089587465, -916467.0, 454833.75, 0.02255582, 10.004859, 9.997258 
2.5856647e+3, 1.7006889e+2, -863942.0, -1361141.5, 52795.887, -0.049472988, 0.07977055, -858397.6, 414934.4, 0.005293505, 10.004303, 9.99766 
2.5855637e+3, 1.8006596e+2, -841030.2, -1295827.1, 58189.375, -0.009747658, 0.07018981, -833703.1, 341657.66, 0.00047042564, 10.003753, 9.997702 
2.585463e+3, 1.9006345e+2, -799294.7, -1158397.3, 65475.402, -0.0073783975, 0.0712435, -787729.06, 289655.47, 0.0000028007903, 10.003081, 9.998293 
2.5853622e+3, 2.0006119e+2, -802943.4, -1117923.1, 59816.754, -0.006328644, 0.06853744, -791966.3, 187439.47, 0.0, 10.0024185, 9.9982195 
2.5852615e+3, 2.1005884e+2, -752800.1, -987235.0, 62188.105, 0.006480728, 0.04026621, -737325.1, 144103.44, 0.0, 10.001854, 9.9987135 
2.585161e+3, 2.200568e+2, -733787.7, -915299.25, 62439.2, 0.01755623, 0.014082579, -714383.25, 69064.914, 0.0, 10.001259, 9.998821 
2.5850603e+3, 2.3005576e+2, -714301.56, -780793.9, 63282.707, 0.0072297314, 0.04462617, -676063.4, 9394.7, 0.0, 10.000401, 9.999484 
2.58496e+3, 2.4005507e+2, -731937.4, -724450.56, 55761.688, -0.0035175283, 0.07316241, -672306.75, -84842.15, 0.0, 9.999544, 9.999612 
2.5848594e+3, 2.500542e+2, -670877.7, -566181.75, 41364.293, -0.008633219, 0.03853966, -551811.5, -62339.816, 0.0, 9.998955, 10.000308 
2.5847587e+3, 2.6005352e+2, -688563.2, -571884.0, 46665.684, -0.010223839, 0.0014835616, -555516.2, -164038.88, 0.0, 9.998365, 9.999882 
2.584659e+3, 2.7005315e+2, -675979.7, -500287.16, 65698.98, 0.0168474, 0.03025992, -478436.94, -184953.17, 0.0, 9.997714, 10.000013 
2.584559e+3, 2.8005314e+2, -650730.44, -400548.34, 68407.75, 0.053339887, 0.069705725, -383065.25, -187578.73, 0.0, 9.997054, 10.000346 
2.584458e+3, 2.900539e+2, -575384.4, -209817.69, 35320.188, 0.020408861, 0.10877038, -206436.4, -108959.234, 0.0, 9.99645, 10.001274 
2.584356e+3, 3.0005464e+2, -546253.0, -85285.36, 49904.383, -0.05617114, 0.089650884, -79944.586, -79944.586, 0.0, 9.995717, 10.001813 
2.5842577e+3, 3.100537e+2, -577343.2, 68386.53, 50186.684, 0.10291034, -0.21222983, 72263.805, 72263.805, 0.0, 9.994551, 10.003096 
2.5841552e+3, 3.2005787e+2, -747792.8, -243188.84, -115409.06, -0.053062428, 0.023299221, -218046.17, -218046.17, 0.0, 9.994374, 10.001037 
2.596078e+3, 1.3018379e+2, -986698.3, -1585156.0, 11475.271, -0.108602606, 0.09876664, -986478.3, 677728.94, 0.13770798, 10.006881, 9.997661 
2.5959772e+3, 1.4017999e+2, -962105.06, -1578733.6, -6256.954, -0.01454909, 0.016069079, -962041.56, 604200.25, 0.09261918, 10.0062475, 9.997253 
2.595874e+3, 1.5017694e+2, -917436.06, -1495626.0, -27564.674, -0.017327162, 0.034979463, -916124.94, 552146.56, 0.049927, 10.00554, 9.99749 
2.595771e+3, 1.6017416e+2, -907987.9, -1463319.4, -4303.488, -0.013685955, 0.0620621, -907954.5, 462344.22, 0.019201161, 10.004854, 9.99737 
2.5956687e+3, 1.7017129e+2, -852383.44, -1341936.0, 32225.703, -0.025816036, 0.07233849, -850271.25, 422055.44, 0.004307531, 10.004314, 9.997788 
2.5955665e+3, 1.8016858e+2, -840109.6, -1298310.6, 34525.8, -0.042048387, 0.07556962, -837522.7, 336830.53, 0.00034830783, 10.003765, 9.997681 
2.5954652e+3, 1.901657e+2, -809004.3, -1181209.6, 39316.684, -0.009318385, 0.05166452, -804896.56, 271484.5, 0.0000016193491, 10.003087, 9.9981365 
2.5953642e+3, 2.0016311e+2, -811225.5, -1134560.8, 37136.8, 0.028355615, 0.031161515, -807015.0, 171391.25, 0.0, 10.00241, 9.998112 
2.5952628e+3, 2.1016133e+2, -758296.2, -1000228.6, 42030.89, 0.032372616, 0.06794371, -751202.2, 129222.5, 0.0, 10.001855, 9.998627 
2.5951615e+3, 2.2015978e+2, -741127.44, -930725.56, 36658.363, 0.026890846, 0.09993654, -734286.44, 48154.09, 0.0, 10.001254, 9.998721 
2.5950602e+3, 2.3015806e+2, -723011.2, -799521.7, 30113.227, 0.009083115, 0.072244555, -712581.0, -28124.303, 0.0, 10.0004, 9.999359 
2.5949588e+3, 2.4015658e+2, -744720.3, -752973.44, 28583.76, -0.006811009, 0.03708881, -719966.75, -133496.48, 0.0, 9.999547, 9.999418 
2.5948578e+3, 2.5015566e+2, -688545.0, -605866.9, 18723.242, -0.0039897147, 0.020996407, -601824.44, -113346.016, 0.0, 9.998961, 10.000036 
2.5947568e+3, 2.601551e+2, -674968.2, -549302.9, 21377.215, -0.0004871214, 0.0135961, -545765.9, -155282.81, 0.0, 9.9983835, 10.0000305 
2.594656e+3, 2.7015528e+2, -636184.7, -419256.56, 38491.945, 0.010999167, 0.051464867, -412629.0, -120146.555, 0.0, 9.997716, 10.000572 
2.5945553e+3, 2.801556e+2, -643345.8, -385652.0, 45644.805, 0.032155048, 0.08208682, -377805.94, -183325.7, 0.0, 9.99705, 10.000453 
2.594454e+3, 2.9015538e+2, -597770.6, -260537.97, 13174.742, 0.017142914, 0.04539638, -260024.05, -163541.77, 0.0, 9.996461, 10.000925 
2.5943515e+3, 3.0015567e+2, -563307.5, -127787.31, 12538.134, -0.055032987, 0.018769005, -127426.66, -127426.66, 0.0, 9.995742, 10.001513 
2.5942516e+3, 3.1015822e+2, -605759.94, 15889.962, -4061.5771, 0.090147264, 0.093051404, 15916.497, 15916.497, 0.0, 9.994515, 10.002756 
2.5941497e+3, 3.201591e+2, -656581.25, -68270.07, 39217.78, -0.0070299953, 0.0023841138, -65667.266, -65667.266, 0.0, 9.994427, 10.002218 
2.6060838e+3, 1.302861e+2, -1016562.4, -1615657.5, 55484.086, -0.13488592, 0.080425926, -1011467.1, 651736.56, 0.12218533, 10.006604, 9.997545 
2.6059827e+3, 1.4028239e+2, -1009482.25, -1599774.4, -1861.8988, 0.0011489424, 0.015614745, -1009476.4, 555761.56, 0.081455395, 10.005807, 9.997321 
2.605879e+3, 1.502795e+2, -932833.7, -1479965.9, -19145.068, -0.013335153, 0.033509005, -932164.6, 535101.1, 0.043254156, 10.005302, 9.997706 
2.605775e+3, 1.6027689e+2, -899138.06, -1448160.4, 8664.331, -0.018712066, 0.056938674, -899001.4, 470290.06, 0.016199796, 10.004865, 9.997466 
2.6056725e+3, 1.7027391e+2, -841004.94, -1337590.1, 37858.055, -0.009734269, 0.056646794, -838135.4, 433184.9, 0.0034631274, 10.004401, 9.997774 
2.6055703e+3, 1.8027109e+2, -822692.0, -1289852.0, 26230.553, -0.01098555, 0.051447228, -821223.8, 352123.88, 0.00025282687, 10.003891, 9.997676 
2.605468e+3, 1.902683e+2, -809083.7, -1182240.8, 33292.21, -0.010724382, 0.038198795, -806136.7, 269238.25, 0.00000086705097, 10.0030985, 9.99812 
2.6053658e+3, 2.0026584e+2, -823744.1, -1133644.4, 43904.5, -0.0006749324, 0.030306755, -817644.1, 159755.11, 0.0, 10.002303, 9.998166 
2.6052642e+3, 2.102642e+2, -775363.2, -996194.3, 63415.12, 0.022998145, 0.074624546, -758448.2, 120968.19, 0.0, 10.001692, 9.998729 
2.6051623e+3, 2.202628e+2, -759704.7, -936535.4, 63989.098, 0.038480677, 0.11284886, -738978.44, 42452.664, 0.0, 10.001119, 9.998744 
2.6050603e+3, 2.302609e+2, -705377.7, -797533.2, 60669.234, 0.010517193, 0.07373577, -675272.0, 8176.9165, 0.0, 10.000553, 9.999295 
2.604958e+3, 2.4025922e+2, -694695.9, -741013.25, 66032.7, -0.0137701025, 0.027434701, -647878.56, -62414.11, 0.0, 9.999951, 9.999301 
2.6048565e+3, 2.5025824e+2, -664616.06, -616009.3, 63108.063, -0.00012230048, 0.025504814, -572686.6, -85213.0, 0.0, 9.999227, 9.999835 
2.604755e+3, 2.6025766e+2, -663241.2, -544390.5, 63492.508, 0.013644672, 0.032075316, -516852.22, -127373.29, 0.0, 9.998474, 10.000018 
2.6046532e+3, 2.7025777e+2, -623680.2, -393731.97, 51514.063, 0.0077532963, 0.05350545, -382719.0, -91241.14, 0.0, 9.9977255, 10.000739 
2.6045516e+3, 2.8025806e+2, -645879.4, -380794.34, 39426.0, 0.013304864, 0.06352481, -375054.8, -181579.42, 0.0, 9.997014, 10.0005 
2.60445e+3, 2.9025763e+2, -573057.8, -255930.77, 26106.467, 0.019945156, 0.01421997, -253796.0, -158316.11, 0.0, 9.996672, 10.00085 
2.6043475e+3, 3.002579e+2, -516257.63, -142548.63, 22863.781, -0.023845864, 0.0019025061, -141155.0, -141155.0, 0.0, 9.996237, 10.001167 
2.6042455e+3, 3.1026143e+2, -559204.3, -28056.025, -26457.19, 0.04832948, 0.22396694, -26741.412, -26741.412, 0.0, 9.995132, 10.002151 
2.604144e+3, 3.2026103e+2, -581270.6, 67422.38, 120354.08, 0.030947503, 0.03726374, 89032.17, 89032.17, 0.0, 9.994524, 10.0030985 
2.6160896e+3, 1.3038936e+2, -1055683.9, -1716602.6, 25658.773, -0.14615425, 0.06096384, -1054689.3, 607501.44, 0.1077965, 10.006574, 9.99682 
2.6159886e+3, 1.4038582e+2, -1024633.25, -1633538.8, -20376.295, 0.04676448, 0.070105754, -1023952.1, 540273.6, 0.07119935, 10.005744, 9.997121 
2.6158836e+3, 1.5038294e+2, -912925.0, -1445581.0, -33213.53, -0.029702688, 0.073584236, -910862.0, 555391.06, 0.037211377, 10.005297, 9.997955 
2.6157787e+3, 1.603802e+2, -892554.56, -1443182.9, -7560.9624, -0.08535315, 0.068974726, -892450.75, 475828.06, 0.013550711, 10.004886, 9.997494 
2.6156768e+3, 1.7037676e+2, -851316.56, -1360976.0, 21411.791, 0.0013629049, 0.034171477, -850418.6, 419893.4, 0.002753739, 10.0044, 9.997617 
2.6155746e+3, 1.8037358e+2, -827385.7, -1294306.0, 2999.6448, 0.06579498, 0.0039493726, -827366.44, 344976.63, 0.00018050935, 10.003862, 9.997662 
2.6154706e+3, 1.9037126e+2, -803179.0, -1170161.0, 3958.0593, -0.015815444, 0.030378314, -803136.3, 271229.44, 0.00000042407203, 10.003094, 9.998209 
2.6153666e+3, 2.0036928e+2, -811701.8, -1110404.8, 20161.82, -0.08576725, 0.058949113, -810347.06, 166038.36, 0.0, 10.002305, 9.998328 
2.615265e+3, 2.1036744e+2, -759560.6, -963968.7, 42682.465, -0.018042862, 0.061539743, -751006.1, 127397.78, 0.0, 10.001689, 9.998954 
2.615163e+3, 2.2036579e+2, -753977.4, -923047.8, 43720.953, 0.046111993, 0.057368238, -743340.56, 37079.8, 0.0, 10.001105, 9.998846 
2.6150602e+3, 2.3036425e+2, -705789.3, -800053.9, 39859.543, 0.009157068, 0.05063026, -691194.44, -8759.33, 0.0, 10.000555, 9.99928 
2.6149574e+3, 2.4036291e+2, -698903.4, -752892.3, 40796.74, -0.02750123, 0.043508716, -676978.8, -92531.14, 0.0, 9.999958, 9.99922 
2.614855e+3, 2.5036192e+2, -674604.3, -638621.6, 33610.043, 0.0010579344, 0.053044856, -618490.5, -132032.88, 0.0, 9.99923, 9.9996805 
2.614753e+3, 2.6036114e+2, -677746.5, -578153.56, 34471.758, 0.025806898, 0.05740877, -567386.1, -178920.72, 0.0, 9.998485, 9.999784 
2.6146504e+3, 2.703605e+2, -645445.3, -440430.88, 20479.072, 0.007973942, 0.03226604, -438405.22, -147933.78, 0.0, 9.9977255, 10.000422 
2.6145482e+3, 2.803602e+2, -647837.6, -386328.97, 17418.197, 0.000307046, 0.009765218, -385173.88, -192699.72, 0.0, 9.997015, 10.000464 
2.614446e+3, 2.903606e+2, -556608.94, -225731.81, 11301.178, 0.021503296, 0.025204815, -225346.27, -130875.94, 0.0, 9.996683, 10.001055 
2.6143432e+3, 3.003613e+2, -544262.0, -211559.8, -9073.957, 0.00604717, 0.05111742, -211312.5, -211312.5, 0.0, 9.996277, 10.000677 
2.61424e+3, 3.1036222e+2, -625171.0, -177997.77, -77183.72, 0.02826212, 0.113833435, -165050.44, -165050.44, 0.0, 9.995182, 10.001101 
2.6141372e+3, 3.2036212e+2, -607887.94, -2037.7925, 82203.93, -0.051120013, 0.038420998, 8917.82, 8917.82, 0.0, 9.994556, 10.002622 
2.626096e+3, 1.3049354e+2, -1028994.44, -1679095.9, 28177.188, -0.124735214, 0.07947238, -1027775.44, 633393.7, 0.094533384, 10.006578, 9.997078 
2.6259935e+3, 1.4048995e+2, -1049098.3, -1647730.0, 35412.258, 0.043443095, 0.06768375, -1047010.75, 516192.94, 0.061832998, 10.005522, 9.997129 
2.6258883e+3, 1.5048671e+2, -929094.3, -1476474.9, 21727.768, -0.027918622, 0.05392558, -928233.25, 537001.6, 0.031779144, 10.005265, 9.997748 
2.6257834e+3, 1.604837e+2, -872556.0, -1437640.5, 18857.303, -0.07698611, 0.039821204, -871927.44, 495336.4, 0.0112372935, 10.005041, 9.997452 
2.6256806e+3, 1.7048065e+2, -856068.25, -1352072.6, 51425.54, -0.008417766, 0.036768124, -850792.56, 418501.34, 0.002167795, 10.004327, 9.997708 
2.6255774e+3, 1.8047778e+2, -860296.25, -1295116.5, 44067.09, 0.04372465, 0.03167018, -855875.2, 315446.72, 0.00012753345, 10.003581, 9.997787 
2.6254728e+3, 1.904753e+2, -818318.56, -1161192.0, 46741.074, -0.012107683, 0.028646441, -812060.94, 261284.7, 0.00000019125741, 10.002929, 9.998345 
2.6253685e+3, 2.0047311e+2, -812643.7, -1105176.9, 61685.168, -0.06151838, 0.029431976, -800168.44, 175198.08, 0.0, 10.00228, 9.998372 
2.625266e+3, 2.1047126e+2, -782486.3, -980292.5, 68825.1, -0.023093376, 0.034010418, -760895.75, 116489.5, 0.0, 10.00156, 9.998901 
2.6251632e+3, 2.2046964e+2, -787840.0, -936475.56, 56555.113, 0.018141506, 0.0356074, -768768.2, 10633.568, 0.0, 10.00087, 9.998862 
2.62506e+3, 2.3046821e+2, -726689.3, -804053.44, 56751.64, 0.007261442, 0.039133135, -696690.56, -15275.128, 0.0, 10.000392, 9.999328 
2.624957e+3, 2.4046703e+2, -704828.5, -753058.4, 58964.71, -0.0049292413, 0.043476794, -665238.1, -81811.29, 0.0, 9.999912, 9.999238 
2.6248538e+3, 2.5046602e+2, -666959.2, -635794.7, 58758.9, 0.0020542154, 0.05313112, -590587.0, -105150.0, 0.0, 9.999291, 9.999668 
2.6247507e+3, 2.6046517e+2, -663367.94, -585926.2, 70601.66, 0.008866819, 0.05617759, -544124.4, -156678.84, 0.0, 9.998653, 9.999646 
2.624648e+3, 2.7046433e+2, -600021.56, -447260.47, 61458.773, 0.0033385246, 0.034621675, -425604.47, -136150.53, 0.0, 9.998167, 10.000159 
2.6245448e+3, 2.8046378e+2, -569608.94, -362568.34, 59318.55, 0.009228745, 0.012777527, -346777.5, -155318.39, 0.0, 9.997619, 10.000333 
2.6244423e+3, 2.90464e+2, -539362.94, -219605.44, 38579.18, 0.01568078, 0.017879933, -215016.66, -121560.1, 0.0, 9.996817, 10.001029 
2.624339e+3, 3.0046454e+2, -583254.3, -260960.13, 10011.946, -0.010867815, 0.035780787, -260649.4, -260649.4, 0.0, 9.996146, 10.000399 
2.6242357e+3, 3.1046504e+2, -487799.94, -163879.97, -17263.584, 0.08131423, 0.100922056, -162962.48, -162962.48, 0.0, 9.996355, 10.000629 
2.6241308e+3, 3.2046402e+2, -614354.06, -66941.34, 110460.06, -0.10986193, -0.019912107, -45492.492, -45492.492, 0.0, 9.994791, 10.002056 
2.6361024e+3, 1.305985e+2, -976786.2, -1564910.9, -15860.307, -0.09153728, 0.1215124, -976358.8, 683781.2, 0.08236874, 10.006481, 9.997964 
2.635998e+3, 1.4059477e+2, -1043291.8, -1637975.4, 9166.378, 0.0009550581, 0.029243581, -1043150.5, 519022.03, 0.053321622, 10.005489, 9.997212 
2.635893e+3, 1.5059091e+2, -964653.56, -1558100.9, 15882.484, -0.013892842, -0.006390737, -964228.8, 499982.25, 0.02692568, 10.005257, 9.997196 
2.6357883e+3, 1.605875e+2, -881799.0, -1454330.3, 2802.5005, -0.017124783, -0.018969543, -881785.3, 484460.34, 0.009235165, 10.005013, 9.997354 
2.6356837e+3, 1.7058544e+2, -842293.7, -1317755.8, 23722.838, -0.039394673, 0.058960702, -841113.0, 427153.88, 0.0016909282, 10.004296, 9.997961 
2.6355794e+3, 1.8058343e+2, -850636.8, -1269834.0, 17935.414, -0.05929814, 0.117086336, -849870.9, 320415.9, 0.00008980601, 10.003552, 9.997977 
2.6354754e+3, 1.9058026e+2, -810508.94, -1143634.9, 23009.129, 0.000616388, 0.030954538, -808927.2, 263388.63, 0.00000008629741, 10.002916, 9.998475 
2.6353717e+3, 2.0057735e+2, -821510.6, -1122419.0, 36656.152, 0.051703054, -0.048909526, -817109.6, 157233.16, 0.0, 10.00227, 9.998261 
2.635267e+3, 2.1057561e+2, -802097.2, -1024820.1, 41676.94, -0.00022215299, -0.005189631, -794553.9, 81807.12, 0.0, 10.001573, 9.998592 
2.635163e+3, 2.2057419e+2, -791559.44, -948489.94, 36218.188, -0.045939367, 0.04128552, -783603.94, -5227.563, 0.0, 10.000882, 9.998777 
2.63506e+3, 2.3057275e+2, -720670.06, -793135.4, 40496.35, 0.0052761515, 0.037758622, -702563.44, -22172.953, 0.0, 10.000395, 9.999404 
2.6349568e+3, 2.4057148e+2, -697014.6, -738424.56, 37851.945, 0.048719894, 0.027091855, -674574.9, -92172.4, 0.0, 9.999913, 9.99934 
2.6348525e+3, 2.5057048e+2, -657891.25, -618631.5, 33158.227, 0.00064020575, 0.023638804, -599728.25, -115315.94, 0.0, 9.999293, 9.999787 
2.6347482e+3, 2.605697e+2, -665178.06, -594257.0, 49448.727, -0.0445629, 0.027433343, -568868.3, -182448.52, 0.0, 9.998667, 9.999585 
2.6346454e+3, 2.7056924e+2, -612612.4, -478899.0, 42786.31, -0.00911469, 0.06634913, -466380.1, -177955.19, 0.0, 9.998186, 9.999935 
2.6345426e+3, 2.8056884e+2, -582987.25, -400416.4, 32913.277, 0.033854697, 0.08248308, -394664.16, -204234.66, 0.0, 9.997657, 10.000058 
2.6344386e+3, 2.9056776e+2, -560827.2, -265791.6, 4359.051, 0.0021884248, -0.015811786, -265727.22, -173287.33, 0.0, 9.996819, 10.000714 
2.634334e+3, 3.0056748e+2, -584108.5, -257124.4, 3406.6938, -0.06308745, -0.056038827, -257088.92, -257088.92, 0.0, 9.996117, 10.000442 
2.6342326e+3, 3.1057036e+2, -451432.5, -114870.64, 2001.421, 0.1805793, 0.22316405, -114858.74, -114858.74, 0.0, 9.996459, 10.00092 
2.6341254e+3, 3.205678e+2, -642212.75, -113308.03, -88587.98, -0.08050303, -0.063963905, -98864.57, -98864.57, 0.0, 9.994756, 10.001746 
2.6461083e+3, 1.30703e+2, -1009936.4, -1562678.3, -19987.346, -0.058717266, 0.07907754, -1009214.56, 649899.7, 0.07125494, 10.006073, 9.998169 
2.6460028e+3, 1.4069934e+2, -1045397.6, -1623527.6, -5320.48, -0.023646388, -0.024534157, -1045348.6, 515797.13, 0.045627344, 10.00537, 9.997367 
2.6458976e+3, 1.5069598e+2, -980481.25, -1551852.0, 44401.06, -0.021908022, -0.023244381, -977051.44, 486128.13, 0.022620056, 10.005075, 9.997321 
2.645793e+3, 1.6069295e+2, -916604.5, -1466509.3, 45353.49, -0.0017729065, -0.0060764183, -912889.06, 452321.75, 0.007519479, 10.004754, 9.997391 
2.6456875e+3, 1.7069063e+2, -905009.4, -1351642.1, 42833.945, -0.036482625, 0.0498021, -900938.5, 366296.63, 0.001308413, 10.003886, 9.997922 
2.645582e+3, 1.8068843e+2, -919214.4, -1294695.4, 28471.691, -0.069852374, 0.09033623, -917067.75, 252189.66, 0.000063545034, 10.003055, 9.998043 
2.6454777e+3, 1.9068556e+2, -835314.0, -1140747.4, 37048.62, 0.00022053973, 0.02390739, -830884.25, 240399.17, 0.000000036839044, 10.00269, 9.998599 
2.6453736e+3, 2.006829e+2, -808056.06, -1117343.0, 49351.64, 0.06373738, -0.038949877, -800372.1, 172935.8, 0.0, 10.0023775, 9.9982395 
2.6452684e+3, 2.1068095e+2, -752906.75, -1017390.0, 61954.977, 0.0009607218, -0.0018090196, -739113.25, 136215.11, 0.0, 10.001988, 9.998439 
2.6451635e+3, 2.2067934e+2, -710483.4, -916484.7, 57360.44, -0.057347193, 0.039407976, -695588.5, 81757.39, 0.0, 10.001476, 9.998708 
2.6450595e+3, 2.3067787e+2, -716014.9, -792968.0, 52292.55, -0.015842943, 0.03834503, -689568.75, -10208.465, 0.0, 10.000441, 9.999381 
2.6449558e+3, 2.4067661e+2, -757371.3, -765467.6, 52149.953, 0.027960427, 0.028433807, -709112.6, -127740.19, 0.0, 9.999497, 9.9993515 
2.6448512e+3, 2.506755e+2, -646528.06, -610202.1, 47368.42, 0.00053083827, 0.014068238, -577633.9, -94251.2, 0.0, 9.999365, 9.999807 
2.644747e+3, 2.6067466e+2, -595634.5, -562942.56, 51111.77, -0.02978012, 0.00971831, -525626.56, -140236.08, 0.0, 9.99916, 9.999559 
2.6446432e+3, 2.7067426e+2, -599767.6, -480451.28, 48653.965, -0.014645349, 0.059615437, -463126.97, -175731.55, 0.0, 9.998312, 9.999862 
2.6445392e+3, 2.806739e+2, -621017.8, -431106.56, 51180.78, 0.020304104, 0.08750081, -418191.7, -228791.64, 0.0, 9.997453, 9.999944 
2.6444352e+3, 2.9067266e+2, -545063.75, -275756.22, 35411.875, 0.027582671, -0.0048885094, -271177.7, -179766.1, 0.0, 9.997008, 10.000551 
2.64433e+3, 3.0067223e+2, -529906.1, -220516.02, 48708.203, -0.029652562, -0.046890263, -213028.92, -213028.92, 0.0, 9.99645, 10.000528 
2.644227e+3, 3.1067505e+2, -608080.8, -163503.27, 51144.688, 0.099899426, 0.20083831, -157695.4, -157695.4, 0.0, 9.995272, 10.001157 
2.6441208e+3, 3.2067293e+2, -535017.25, -57661.49, -106100.42, -0.005952601, -0.046163097, -35141.3, -35141.3, 0.0, 9.99549, 10.001767 
2.656114e+3, 1.308074e+2, -1031256.8, -1598969.0, -45770.355, -0.03387209, -0.01535761, -1027590.4, 630498.44, 0.061131615, 10.005979, 9.997938 
2.6560074e+3, 1.4080393e+2, -1027652.25, -1591605.1, -18525.03, -0.04121873, -0.08955512, -1027044.4, 533075.7, 0.038708214, 10.005361, 9.997592 
2.655902e+3, 1.5080187e+2, -941288.1, -1472592.9, 36716.03, -0.049121205, -0.009289667, -938762.9, 523377.94, 0.018829271, 10.005067, 9.997872 
2.655797e+3, 1.6079976e+2, -913991.56, -1457644.9, 20380.393, -0.02364401, 0.058763944, -913228.6, 450933.75, 0.0060644434, 10.004727, 9.997467 
2.655691e+3, 1.7079623e+2, -926194.6, -1394615.1, 8032.6943, -0.008365291, 0.015691698, -926056.94, 340141.84, 0.0010056077, 10.003875, 9.997636 
2.655585e+3, 1.8079303e+2, -923601.8, -1304757.0, 8694.201, -0.010756582, -0.022396201, -923403.6, 244827.9, 0.000045459063, 10.003053, 9.997977 
2.6554796e+3, 1.9079123e+2, -826763.56, -1126584.5, 27034.916, -0.015966399, 0.011560204, -824345.3, 245902.78, 0.000000014947995, 10.002701, 9.998694 
2.6553744e+3, 2.0078956e+2, -805515.6, -1113935.4, 37115.25, -0.015515295, 0.042284142, -801112.06, 171151.48, 0.0, 10.00238, 9.998265 
2.6552698e+3, 2.107872e+2, -756955.0, -1024485.3, 47943.785, -0.015770467, 0.03770412, -748622.56, 125665.62, 0.0, 10.001977, 9.998399 
2.655165e+3, 2.2078505e+2, -720878.9, -932041.4, 28729.943, -0.025808051, 0.031525794, -717039.8, 59270.926, 0.0, 10.001445, 9.998619 
2.655059e+3, 2.3078357e+2, -726338.75, -813986.75, 11427.263, -0.059597913, 0.04167678, -724873.44, -46548.15, 0.0, 10.000435, 9.999241 
2.654954e+3, 2.4078232e+2, -763304.2, -780826.94, 33579.926, -0.07338617, 0.04637806, -737361.5, -157024.17, 0.0, 9.999504, 9.999246 
2.6548502e+3, 2.5078103e+2, -651760.8, -624910.9, 44202.31, 0.002847131, 0.024986012, -592139.8, -109791.12, 0.0, 9.999375, 9.999704 
2.6547465e+3, 2.6077995e+2, -591364.8, -560132.06, 28400.615, 0.05487447, 0.0037033602, -543337.56, -158979.16, 0.0, 9.999181, 9.999572 
2.654641e+3, 2.7077913e+2, -593613.1, -468347.2, 11129.776, -0.014797145, 0.0057825516, -467366.0, -180999.19, 0.0, 9.99831, 9.9999485 
2.6545355e+3, 2.8077868e+2, -617345.44, -421610.94, 27305.338, -0.042685434, 0.019038297, -417873.2, -229501.3, 0.0, 9.997439, 10.000018 
2.654432e+3, 2.9077896e+2, -542918.2, -274848.13, 21064.736, 0.1009855, 0.06859002, -273203.0, -182833.33, 0.0, 9.997018, 10.000556 
2.6543272e+3, 3.0077922e+2, -516827.63, -201628.27, 14415.238, 0.096431755, 0.0925565, -200970.38, -200970.38, 0.0, 9.99648, 10.000648 
2.6542187e+3, 3.1077853e+2, -606719.7, -136613.23, -811.6813, -0.21820307, -0.028872538, -136611.84, -136611.84, 0.0, 9.995161, 10.001398 
2.6541173e+3, 3.2078025e+2, -504274.0, -26363.3, 53383.62, 0.17978483, 0.07984235, -20472.842, -20472.842, 0.0, 9.995609, 10.001936 
2.666119e+3, 1.3091348e+2, -1114476.0, -1656782.3, 11065.643, -0.0263315, -0.04655409, -1114250.3, 542797.75, 0.05194119, 10.005399, 9.997796 
2.6660118e+3, 1.4091076e+2, -1017126.8, -1589545.9, 33682.59, -0.07505836, -0.03331788, -1015151.7, 543921.75, 0.032514293, 10.005419, 9.997577 
2.665906e+3, 1.5090822e+2, -954757.6, -1470869.1, 63475.24, -0.07151814, -0.0033813873, -947065.6, 514032.88, 0.015511751, 10.004929, 9.997948 
2.6658008e+3, 1.6090572e+2, -954168.7, -1464141.1, 17661.107, -0.031511318, 0.018906439, -953557.8, 409565.63, 0.004839872, 10.0043955, 9.99758 
2.6656944e+3, 1.709026e+2, -930435.2, -1381856.9, 19136.8, -0.01417492, 0.0024315442, -929625.4, 335530.63, 0.00076741294, 10.003789, 9.99776 
2.6655877e+3, 1.8089971e+2, -896296.06, -1284988.4, 47744.77, -0.016127642, -0.012180509, -890517.25, 276668.38, 0.000032791508, 10.003219, 9.998029 
2.6654816e+3, 1.9089781e+2, -817866.0, -1124020.0, 67833.1, -0.033081807, 0.015292788, -803509.7, 265693.72, 0.0000000057994387, 10.002777, 9.998672 
2.665376e+3, 2.008961e+2, -815746.7, -1111294.5, 66059.414, -0.039688338, 0.042770036, -801653.44, 169566.25, 0.0, 10.002284, 9.998325 
2.665271e+3, 2.1089385e+2, -821794.4, -1042216.75, 79947.66, -0.020872194, 0.040516425, -795850.75, 77392.16, 0.0, 10.00148, 9.998512 
2.6651657e+3, 2.2089177e+2, -821133.94, -985115.44, 69648.86, -0.010157225, 0.035398293, -795544.75, -20280.195, 0.0, 10.000784, 9.998569 
2.665059e+3, 2.3089014e+2, -701505.7, -822875.75, 51821.16, -0.046407234, 0.047139116, -682390.3, -5109.3438, 0.0, 10.000701, 9.999048 
2.6649535e+3, 2.408887e+2, -630534.0, -733367.4, 70667.31, -0.066682555, 0.05402929, -594557.6, -15262.606, 0.0, 10.000494, 9.999091 
2.6648492e+3, 2.5088727e+2, -643789.9, -636194.1, 77467.3, -0.004068429, 0.033062313, -562431.6, -81123.68, 0.0, 9.999501, 9.999563 
2.6647446e+3, 2.60886e+2, -683549.75, -604748.7, 56816.15, 0.044923816, 0.008442996, -575008.25, -191689.16, 0.0, 9.998554, 9.999564 
2.6646385e+3, 2.708851e+2, -600528.8, -463385.47, 36142.766, -0.015810557, -0.006101516, -454443.44, -169115.28, 0.0, 9.998233, 10.000016 
2.6645327e+3, 2.8088462e+2, -560974.44, -398636.75, 47786.11, -0.03788574, -0.0018610451, -385614.84, -198281.42, 0.0, 9.997852, 9.999973 
2.6644287e+3, 2.908851e+2, -545694.8, -292235.25, 29214.56, 0.10868853, 0.08719923, -288911.47, -199582.56, 0.0, 9.997074, 10.000406 
2.6643232e+3, 3.0088544e+2, -539395.44, -212096.6, 4433.0806, 0.11248861, 0.12553416, -212036.55, -212036.55, 0.0, 9.996327, 10.000647 
2.6642132e+3, 3.108835e+2, -472393.2, -57366.273, -27482.1, -0.2602065, -0.13173649, -55554.383, -55554.383, 0.0, 9.99603, 10.00152 
2.664113e+3, 3.2088706e+2, -551302.56, -19129.15, 116756.84, 0.23709852, 0.1463241, 5359.946, 5359.946, 0.0, 9.995166, 10.002194 
2.676124e+3, 1.3102084e+2, -1111908.9, -1666052.3, 13163.594, -0.036305964, -0.032599673, -1111596.4, 544398.94, 0.043636583, 10.005422, 9.997721 
2.676016e+3, 1.4101927e+2, -1027501.5, -1620134.6, 24672.43, -0.12621683, 0.106622025, -1026476.1, 531534.6, 0.026991144, 10.0054245, 9.997365 
2.6759103e+3, 1.5101503e+2, -979563.25, -1517511.5, 44697.066, -0.09437841, -0.0046345335, -975874.75, 484177.6, 0.0126198325, 10.004884, 9.997652 
2.6758048e+3, 1.6101125e+2, -956783.4, -1452418.0, -3004.3767, -0.031752884, -0.09554619, -956765.1, 405324.75, 0.003812902, 10.004312, 9.997703 
2.675697e+3, 1.7100964e+2, -905784.6, -1325389.3, -2166.005, -0.048728507, 0.0073040505, -905773.44, 358333.47, 0.0005796616, 10.003761, 9.998164 
2.6755896e+3, 1.8100809e+2, -887991.94, -1269895.0, 30364.238, -0.07673731, 0.09200607, -885592.8, 280530.53, 0.000023679033, 10.003222, 9.998134 
2.6754835e+3, 1.9100522e+2, -828033.6, -1144576.1, 52869.063, -0.050861977, 0.029545503, -819436.9, 248713.81, 0.000000001728097, 10.0027685, 9.998537 
2.675378e+3, 2.0100261e+2, -815058.44, -1104437.0, 41947.195, -0.02056315, -0.024392672, -809100.6, 161075.08, 0.0, 10.002256, 9.998389 
2.6752716e+3, 2.1100093e+2, -805679.94, -1011113.56, 48859.813, -0.018419292, 0.012581301, -794651.3, 77541.35, 0.0, 10.001486, 9.998725 
2.6751658e+3, 2.2099939e+2, -822065.3, -991691.9, 57032.82, -0.014457137, 0.04803149, -804672.75, -30464.156, 0.0, 10.000798, 9.998519 
2.67506e+3, 2.3099749e+2, -717664.56, -859567.0, 51522.707, 0.023415953, 0.053304527, -700930.75, -24702.633, 0.0, 10.00071, 9.9987955 
2.6749542e+3, 2.4099573e+2, -645021.2, -765117.25, 46352.188, 0.04288002, 0.052056078, -629212.2, -50966.207, 0.0, 10.000496, 9.998875 
2.6748475e+3, 2.5099415e+2, -658651.6, -667012.75, 35591.27, -0.02595621, 0.038242143, -626996.25, -146735.4, 0.0, 9.999497, 9.999356 
2.6747414e+3, 2.6099288e+2, -687801.0, -613609.56, 33855.344, -0.07781909, 0.02690477, -600483.0, -218210.31, 0.0, 9.998549, 9.999508 
2.6746362e+3, 2.709922e+2, -598531.3, -460645.97, 25436.8, -0.016571121, 0.03265081, -456103.13, -171824.05, 0.0, 9.998233, 10.000038 
2.6745307e+3, 2.809916e+2, -572771.2, -429221.7, 24178.193, 0.04502327, 0.034875866, -425258.75, -238974.27, 0.0, 9.997872, 9.999757 
2.6744246e+3, 2.9099086e+2, -571251.9, -345787.44, -5602.8125, 0.025956655, 0.030178651, -345648.3, -257355.92, 0.0, 9.99707, 10.000044 
2.6743177e+3, 3.0099037e+2, -554262.56, -240746.89, -15989.799, -0.020225216, 0.023158066, -239933.5, -239933.5, 0.0, 9.996313, 10.000461 
2.6742125e+3, 3.109902e+2, -474794.47, -78009.86, -39691.598, 0.10313818, -0.042380266, -74078.336, -74078.336, 0.0, 9.99609, 10.001352 
2.6741052e+3, 3.2099178e+2, -537436.94, 26679.219, 33096.926, 0.0113416, 0.040185396, 28614.39, 28614.39, 0.0, 9.995087, 10.00255 
2.6861292e+3, 1.311283e+2, -1062870.5, -1632604.8, 34497.504, -0.022809345, -0.026893647, -1060789.3, 594152.56, 0.036169775, 10.005682, 9.997832 
2.686021e+3, 1.4112641e+2, -1009597.44, -1612259.4, 30906.654, -0.13471417, 0.073171735, -1008016.56, 548943.7, 0.022084666, 10.00553, 9.997367 
2.685914e+3, 1.5112256e+2, -1057651.4, -1564680.8, 48968.06, -0.10552083, 0.008090061, -1052965.5, 406033.94, 0.0101065645, 10.004376, 9.997569 
2.685808e+3, 1.6111907e+2, -1076302.1, -1483651.8, 26483.19, -0.042221453, -0.05110509, -1074587.6, 286446.94, 0.002953164, 10.003377, 9.997935 
2.6857e+3, 1.7111741e+2, -943820.25, -1296557.4, 40761.313, -0.05776092, 0.008682143, -939171.25, 323879.03, 0.00043102045, 10.003302, 9.99858 
2.6855922e+3, 1.8111582e+2, -889062.06, -1265641.3, 64655.7, -0.0844002, 0.061040614, -878270.44, 286795.22, 0.000016889995, 10.0032015, 9.998169 
2.6854858e+3, 1.91113e+2, -873288.9, -1190128.6, 74367.33, -0.05818492, 0.02064756, -856702.06, 210391.9, 0.0000000002885943, 10.002566, 9.998318 
2.6853794e+3, 2.011104e+2, -852881.94, -1119218.4, 59625.258, -0.027347935, -0.016045, -840142.9, 128977.0, 0.0, 10.001987, 9.998413 
2.6852727e+3, 2.1110877e+2, -745315.25, -963452.5, 65683.14, -0.03175975, 0.014024401, -727064.44, 144070.94, 0.0, 10.001827, 9.998884 
2.6851663e+3, 2.2110727e+2, -713444.4, -940244.75, 70627.7, -0.02736489, 0.042417295, -693248.6, 79901.62, 0.0, 10.001556, 9.998504 
2.6850602e+3, 2.3110515e+2, -733599.3, -882280.56, 70307.67, 0.030207878, 0.03847512, -705618.44, -30446.264, 0.0, 10.000671, 9.998654 
2.684954e+3, 2.4110323e+2, -741490.25, -812335.6, 71475.62, 0.06824704, 0.031937543, -697141.2, -119949.3, 0.0, 9.999844, 9.998861 
2.6848468e+3, 2.5110182e+2, -645608.25, -656456.6, 75708.27, -0.015431428, 0.032919835, -575130.1, -95924.98, 0.0, 9.999575, 9.999388 
2.6847398e+3, 2.6110065e+2, -595708.6, -580715.7, 88355.09, -0.080002174, 0.034849983, -499539.63, -118323.625, 0.0, 9.999239, 9.999398 
2.684634e+3, 2.7109978e+2, -566425.56, -467319.8, 66153.56, -0.00031594853, 0.04106333, -434218.1, -150993.61, 0.0, 9.998555, 9.999833 
2.6845282e+3, 2.810989e+2, -579882.4, -441498.34, 51693.594, 0.06889646, 0.035473477, -424320.47, -239087.98, 0.0, 9.997867, 9.999672 
2.6844203e+3, 2.9109782e+2, -520035.28, -322597.2, 43092.27, -0.041065738, -0.00026713475, -313601.8, -226358.34, 0.0, 9.997436, 10.000023 
2.6843128e+3, 3.010971e+2, -484985.22, -232177.67, 50829.625, -0.10829773, -0.01905951, -222340.63, -222340.63, 0.0, 9.996904, 10.00023 
2.6842105e+3, 3.110975e+2, -523520.16, -143164.7, 10899.684, 0.37298512, 0.007964893, -142852.61, -142852.61, 0.0, 9.995944, 10.00097 
2.6840985e+3, 3.2109755e+2, -500425.97, 63744.742, 28346.12, -0.14875409, -0.037558693, 65165.383, 65165.383, 0.0, 9.995267, 10.002713 
2.6961342e+3, 1.312359e+2, -1051219.9, -1603159.8, 37180.26, -0.002307579, -0.030886717, -1048726.5, 605160.3, 0.029486336, 10.005626, 9.998064 
2.6960263e+3, 1.4123274e+2, -1013586.5, -1601566.5, 3573.3723, -0.11726785, -0.07530172, -1013564.75, 542351.75, 0.017745683, 10.005423, 9.997494 
2.695918e+3, 1.5123072e+2, -1053871.5, -1558149.3, 3814.627, -0.11135574, 0.035350934, -1053842.6, 404097.3, 0.007931982, 10.004369, 9.997621 
2.6958102e+3, 1.612287e+2, -1047984.25, -1437270.0, 11205.284, -0.064462915, 0.10739959, -1047662.0, 312300.34, 0.0022362382, 10.003424, 9.998234 
2.6957026e+3, 1.712258e+2, -914907.2, -1236661.8, 43062.65, -0.048389606, 0.0026002408, -909243.5, 352743.63, 0.0003130717, 10.003297, 9.998996 
2.6955953e+3, 1.8122315e+2, -900069.25, -1278462.5, 49170.484, -0.05212182, -0.07548141, -893784.1, 270226.22, 0.000011633441, 10.003153, 9.998107 
2.6954877e+3, 1.9122116e+2, -897543.75, -1240089.6, 48926.555, -0.0601912, -0.0038340476, -890692.44, 175340.47, 0.000000000007316074, 10.002561, 9.99798 
2.6953807e+3, 2.012193e+2, -853285.2, -1124041.8, 47840.016, -0.062218573, 0.05674118, -845080.94, 122972.82, 0.0, 10.002, 9.998377 
2.6952738e+3, 2.1121731e+2, -737605.56, -947442.9, 62064.066, -0.059931584, 0.039948456, -720623.1, 149448.69, 0.0, 10.0018215, 9.999 
2.695167e+3, 2.2121538e+2, -717850.4, -943142.7, 48049.96, -0.054348774, 0.018423986, -708030.4, 64059.34, 0.0, 10.001524, 9.998502 
2.6950598e+3, 2.312131e+2, -739448.56, -893200.2, 35194.063, -0.028020058, 0.0028843007, -731775.5, -57662.17, 0.0, 10.000663, 9.998585 
2.6949528e+3, 2.4121115e+2, -728983.1, -788991.5, 52712.215, 0.0016420063, -0.00519174, -698333.94, -122200.8, 0.0, 9.999849, 9.999021 
2.694846e+3, 2.512102e+2, -624625.9, -616127.4, 66555.56, 0.0317609, 0.01688295, -553685.56, -75544.58, 0.0, 9.999583, 9.999663 
2.6947397e+3, 2.612093e+2, -606032.9, -608713.75, 68470.4, 0.04670562, 0.03221204, -538889.8, -158740.97, 0.0, 9.999262, 9.999198 
2.6946324e+3, 2.7120772e+2, -599624.44, -538843.1, 37652.402, 0.02998675, 0.013036363, -520846.8, -238681.78, 0.0, 9.998562, 9.999342 
2.694525e+3, 2.812065e+2, -573730.06, -430944.75, 31503.979, 0.00908971, -0.003144056, -424302.72, -240124.81, 0.0, 9.997871, 9.999744 
2.694417e+3, 2.9120615e+2, -489500.66, -265823.63, 28533.305, -0.08407974, 0.0061201113, -262241.16, -176060.73, 0.0, 9.997457, 10.000406 
2.694309e+3, 3.0120587e+2, -501487.63, -277327.4, 23620.963, -0.1247894, 0.014240977, -274865.38, -274865.38, 0.0, 9.996944, 9.999904 
2.6942068e+3, 3.112052e+2, -574716.25, -248697.52, -27903.438, 0.4591924, 0.0023928385, -246326.53, -246326.53, 0.0, 9.995936, 10.000251 
2.6940927e+3, 3.212049e+2, -506952.22, 38971.73, 1265.3735, -0.17098758, -0.029913055, 38974.664, 38974.664, 0.0, 9.995293, 10.0025425 
2.7061388e+3, 1.3134424e+2, -1090285.0, -1615743.6, 49362.402, -0.047342565, -0.0034974662, -1085688.0, 567138.8, 0.023541514, 10.005284, 9.99814 
2.706031e+3, 1.4134088e+2, -1126586.8, -1624075.4, 9627.376, -0.08714422, -0.08357343, -1126400.5, 428457.4, 0.013937054, 10.0044775, 9.997793 
2.7059215e+3, 1.5133923e+2, -1047850.25, -1508951.6, 28000.912, -0.098436214, 0.02606387, -1046156.06, 410720.72, 0.0060662674, 10.00421, 9.998031 
2.7058133e+3, 1.6133757e+2, -965421.3, -1374398.9, 50323.67, -0.07273366, 0.10227966, -959320.1, 399574.7, 0.0016438835, 10.003897, 9.998434 
2.7057055e+3, 1.713347e+2, -937197.6, -1240656.3, 64724.23, -0.059132762, -0.0058229584, -923969.3, 336949.7, 0.00021976365, 10.003119, 9.99905 
2.7055973e+3, 1.8133204e+2, -999830.0, -1325954.5, 59479.883, -0.060762446, -0.089953445, -989320.5, 173622.06, 0.000007542903, 10.002471, 9.998106 
2.7054894e+3, 1.9133003e+2, -921355.4, -1255592.1, 78239.414, -0.065523885, -0.015747793, -903947.44, 161018.1, 0.0, 10.00242, 9.997939 
2.705382e+3, 2.0132817e+2, -816992.7, -1104984.8, 85920.266, -0.0630725, 0.050106037, -793307.0, 173679.52, 0.0, 10.002249, 9.998384 
2.7052745e+3, 2.1132614e+2, -795387.0, -973356.9, 90107.625, -0.05694181, 0.028280238, -757731.9, 111273.055, 0.0, 10.001423, 9.999011 
2.7051675e+3, 2.2132418e+2, -829903.9, -984940.3, 72477.15, -0.04871395, 0.0012877767, -801299.44, -30276.51, 0.0, 10.000708, 9.998604 
2.70506e+3, 2.3132205e+2, -736804.56, -876022.2, 74767.21, -0.035238497, -0.010367876, -704258.94, -31214.463, 0.0, 10.000618, 9.998721 
2.704952e+3, 2.4132021e+2, -638904.8, -744925.2, 101584.22, -0.012905749, -0.016277207, -577331.25, -2268.2686, 0.0, 10.000473, 9.99902 
2.7048454e+3, 2.5131914e+2, -578331.9, -603446.1, 90193.27, 0.029975269, 0.0006515733, -499825.8, -22753.398, 0.0, 9.9999485, 9.999571 
2.7047384e+3, 2.613181e+2, -596159.3, -604817.9, 69140.46, 0.06138508, 0.010193419, -531212.7, -152131.0, 0.0, 9.999339, 9.999184 
2.7046305e+3, 2.713165e+2, -585933.75, -531293.94, 67920.75, 0.031915963, -0.008745886, -485404.53, -204306.89, 0.0, 9.99866, 9.999342 
2.7045223e+3, 2.8131524e+2, -556087.8, -422448.66, 91158.49, -0.00096938433, -0.022196015, -376242.9, -193132.64, 0.0, 9.998002, 9.999736 
2.7044138e+3, 2.9131496e+2, -483235.13, -263979.88, 62811.49, -0.07170037, -0.0046316455, -247260.75, -162148.27, 0.0, 9.997512, 10.000388 
2.7043056e+3, 3.013148e+2, -494417.25, -286098.84, 35792.215, -0.09652932, 0.01366708, -280120.78, -280120.78, 0.0, 9.99705, 9.999789 
2.704202e+3, 3.1131414e+2, -453950.44, -210655.44, 22424.05, 0.38835707, 0.024111247, -208605.92, -208605.92, 0.0, 9.996859, 10.000065 
2.704088e+3, 3.2131317e+2, -504295.25, 6772.2554, 34317.31, -0.12498023, -0.049327474, 9066.307, 9066.307, 0.0, 9.9954605, 10.002235 
2.7161425e+3, 1.3145325e+2, -1083196.6, -1611273.8, 19517.598, -0.13904843, 0.04828522, -1082476.3, 569285.56, 0.018316377, 10.005309, 9.998155 
2.716035e+3, 1.4145035e+2, -1097723.4, -1564887.3, -3006.514, -0.051939543, 0.00078327965, -1097704.0, 456083.84, 0.0106385145, 10.004469, 9.998204 
2.7159256e+3, 1.5144806e+2, -1007097.2, -1419265.5, 23465.629, -0.074761204, -0.013567855, -1005765.56, 450044.28, 0.0044901706, 10.004176, 9.998667 
2.7158168e+3, 1.6144603e+2, -967905.2, -1367549.5, 29220.59, -0.07358102, -0.020899743, -965779.94, 392049.4, 0.0011633647, 10.003838, 9.998512 
2.7157074e+3, 1.7144415e+2, -955563.1, -1278010.6, 34988.293, -0.08821308, -0.011307485, -951810.25, 308035.66, 0.00014725362, 10.003112, 9.998799 
2.715599e+3, 1.8144219e+2, -993563.4, -1318854.6, 49820.523, -0.105834514, -0.008115242, -986104.06, 175760.08, 0.0000045032148, 10.002492, 9.998147 
2.7154914e+3, 1.914395e+2, -907166.7, -1226389.0, 80385.695, -0.07338824, -0.020987663, -888067.0, 175825.53, 0.0, 10.002417, 9.998143 
2.715384e+3, 2.0143706e+2, -820874.75, -1106557.6, 66481.55, -0.038136326, -0.027872909, -806161.5, 159756.47, 0.0, 10.002216, 9.998391 
2.715276e+3, 2.1143527e+2, -804123.56, -992265.3, 57831.363, -0.028138008, -0.015855595, -787768.94, 80165.84, 0.0, 10.001423, 9.998882 
2.715168e+3, 2.2143364e+2, -815640.5, -958898.8, 60439.38, -0.019433757, -0.0054507046, -793548.5, -23598.504, 0.0, 10.000719, 9.998779 
2.7150604e+3, 2.3143199e+2, -711164.8, -825948.25, 73609.67, 0.0069287913, -0.0003611273, -675217.4, -3251.519, 0.0, 10.000627, 9.9990635 
2.7149525e+3, 2.4143037e+2, -652179.6, -774101.2, 88058.01, 0.018237974, -0.0013067517, -606040.3, -32058.67, 0.0, 10.000475, 9.998821 
2.7148443e+3, 2.514285e+2, -613859.1, -678731.9, 68270.555, -0.029387197, -0.018182894, -570711.2, -94711.12, 0.0, 9.999952, 9.999054 
2.7147362e+3, 2.61427e+2, -580452.44, -576770.75, 43365.203, -0.058021948, -0.029719772, -535207.3, -157192.28, 0.0, 9.999354, 9.999372 
2.7146283e+3, 2.7142614e+2, -546076.2, -450976.03, 40967.78, 0.0032756154, -0.021731596, -435761.72, -155739.88, 0.0, 9.998664, 9.999895 
2.7145204e+3, 2.814254e+2, -565026.0, -444021.34, 71848.03, 0.05271899, -0.019833364, -410594.6, -228565.95, 0.0, 9.99801, 9.999587 
2.7144116e+3, 2.9142424e+2, -521656.38, -344357.0, 43641.12, 0.0041264207, -0.03812561, -334197.22, -250156.73, 0.0, 9.997509, 9.999841 
2.7143028e+3, 3.014237e+2, -479248.53, -257097.02, 23993.748, -0.048308544, -0.021902915, -254535.08, -254535.08, 0.0, 9.997056, 9.999989 
2.7141958e+3, 3.1142446e+2, -403798.75, -122908.42, 21130.328, 0.14431709, 0.07742878, -121327.76, -121327.76, 0.0, 9.996922, 10.00064 
2.7140844e+3, 3.2142282e+2, -556420.94, -90351.48, -80687.766, 0.02595005, -0.085870385, -76777.81, -76777.81, 0.0, 9.99542, 10.001584 
2.7261475e+3, 1.3156337e+2, -1029938.4, -1598085.9, 61230.258, -0.15509096, 0.06606579, -1023414.4, 627269.4, 0.013810519, 10.00571, 9.9980545 
2.726039e+3, 1.4156075e+2, -1104081.1, -1550624.0, 47195.066, -0.015265955, 0.050625704, -1099147.6, 453560.28, 0.0078416355, 10.004341, 9.998362 
2.7259293e+3, 1.515583e+2, -1067610.6, -1417895.1, 65953.81, -0.04467439, -0.004678886, -1055604.0, 399126.25, 0.003191945, 10.003629, 9.998936 
2.7258196e+3, 1.615561e+2, -1073014.9, -1418912.8, 56069.777, -0.05465227, -0.043476135, -1064153.1, 292597.22, 0.00078576844, 10.003122, 9.998501 
2.72571e+3, 1.7155437e+2, -984474.56, -1311139.0, 65493.914, -0.08629042, -0.004916916, -971832.75, 286934.16, 0.000092971146, 10.003003, 9.998622 
2.725601e+3, 1.8155254e+2, -937533.6, -1271654.5, 86831.64, -0.11412247, 0.022966461, -916315.2, 244469.11, 0.0000024128854, 10.002796, 9.998322 
2.7254933e+3, 1.9154997e+2, -918582.3, -1191398.1, 126461.93, -0.07114063, -0.010830124, -868980.1, 193829.94, 0.0, 10.00217, 9.998499 
2.7253854e+3, 2.0154756e+2, -898591.0, -1139758.9, 117582.625, -0.024555007, -0.038480286, -850752.4, 114081.71, 0.0, 10.00167, 9.998423 
2.7252772e+3, 2.1154568e+2, -779986.75, -999038.25, 106939.25, -0.013596008, -0.020889822, -736437.7, 130414.77, 0.0, 10.001674, 9.998712 
2.7251685e+3, 2.2154398e+2, -700769.9, -903765.7, 101296.84, -0.0064898273, -0.0031062583, -658870.2, 109998.72, 0.0, 10.001514, 9.998773 
2.7250603e+3, 2.315424e+2, -696870.0, -809953.44, 93971.53, 0.0022906908, 0.0013232931, -643741.25, 27142.89, 0.0, 10.000691, 9.999139 
2.7249518e+3, 2.415408e+2, -729195.6, -802864.3, 101871.34, 0.0047110594, -0.0022631222, -657703.9, -84804.664, 0.0, 9.999916, 9.998889 
2.7248433e+3, 2.5153893e+2, -671803.25, -703252.1, 119948.35, -0.035576522, -0.021855196, -566553.06, -91635.664, 0.0, 9.999547, 9.999077 
2.7247348e+3, 2.6153734e+2, -602792.75, -587359.7, 115324.63, -0.06037488, -0.036065184, -479493.72, -102561.21, 0.0, 9.999209, 9.999365 
2.7246264e+3, 2.715365e+2, -506459.5, -432534.3, 70779.67, -0.0067360085, -0.028350497, -389647.1, -110707.57, 0.0, 9.998947, 9.999882 
2.724518e+3, 2.8153566e+2, -495918.84, -421083.78, 70185.4, 0.0492331, -0.02973929, -378964.78, -198017.77, 0.0, 9.998534, 9.999489 
2.7244088e+3, 2.9153433e+2, -490995.1, -346991.4, 66612.75, 0.023705823, -0.05037042, -320903.9, -237943.02, 0.0, 9.997804, 9.999677 
2.724299e+3, 3.0153376e+2, -466174.5, -219296.6, 70319.13, -0.04147471, -0.035711356, -200672.33, -200672.33, 0.0, 9.997022, 10.000259 
2.724191e+3, 3.115348e+2, -489798.5, -106492.28, 62258.652, 0.062696025, 0.04597521, -96633.47, -96633.47, 0.0, 9.996091, 10.001148 
2.7240804e+3, 3.2153368e+2, -416889.84, -84129.6, -57816.066, 0.080032185, -0.07587653, -74370.45, -74370.45, 0.0, 9.996651, 10.00103 
2.7361527e+3, 1.3167438e+2, -1049227.0, -1627526.0, 4815.105, -0.12997822, 0.062660426, -1049187.0, 600408.7, 0.010024251, 10.005647, 9.997877 
2.7360433e+3, 1.4167194e+2, -1109973.6, -1560015.1, 13467.621, 0.017478362, 0.07780694, -1109571.0, 442048.66, 0.00553999, 10.004317, 9.99831 
2.7359325e+3, 1.5166964e+2, -1066643.9, -1420165.4, 44253.74, -0.011984937, 0.03957428, -1061188.4, 392452.06, 0.0021615007, 10.003638, 9.998919 
2.7358225e+3, 1.6166745e+2, -1076763.9, -1431039.9, 48583.43, -0.02493622, 0.0058284267, -1070222.3, 285438.22, 0.0005022658, 10.003137, 9.998413 
2.7357125e+3, 1.7166522e+2, -991804.6, -1330201.0, 65563.695, -0.062272422, 0.008212475, -979545.9, 278136.6, 0.000054572123, 10.0030155, 9.998487 
2.7356032e+3, 1.8166319e+2, -918803.4, -1234114.1, 72200.07, -0.09643126, 0.01371574, -903057.25, 256645.16, 0.0000011019603, 10.002798, 9.998581 
2.7354947e+3, 1.9166137e+2, -885592.0, -1126131.4, 102742.516, -0.06273957, 0.014348494, -847681.94, 214037.1, 0.0, 10.00218, 9.998943 
2.7353865e+3, 2.0165952e+2, -896497.9, -1137609.4, 110073.25, -0.025867661, 0.012439274, -853805.94, 109930.39, 0.0, 10.001676, 9.998437 
2.735278e+3, 2.1165726e+2, -794918.0, -1030286.44, 108876.84, -0.012874421, 0.009047558, -752278.3, 113480.66, 0.0, 10.001671, 9.998502 
2.7351695e+3, 2.2165512e+2, -718554.1, -935478.7, 80789.8, -0.015149548, 0.0038200475, -691772.0, 76008.445, 0.0, 10.001488, 9.9985695 
2.73506e+3, 2.3165315e+2, -713055.44, -842835.2, 61537.414, -0.05096182, -0.007562921, -688516.3, -18716.555, 0.0, 10.000685, 9.998919 
2.7349508e+3, 2.416515e+2, -704532.6, -754436.9, 81913.695, -0.06055048, -0.014133226, -643854.94, -72039.44, 0.0, 9.999924, 9.99922 
2.734843e+3, 2.5165048e+2, -629801.94, -617393.3, 106241.16, 0.017524898, -0.0060601975, -517175.47, -43351.785, 0.0, 9.999548, 9.999669 
2.7347347e+3, 2.6164934e+2, -620665.5, -626402.8, 105490.07, 0.061720733, -0.0048145195, -518005.1, -142171.9, 0.0, 9.999213, 9.999097 
2.7346247e+3, 2.7164754e+2, -554039.75, -534334.2, 60826.04, -0.0020738463, -0.030130714, -482568.13, -204717.05, 0.0, 9.998956, 9.99918 
2.7345148e+3, 2.81646e+2, -492724.72, -422806.53, 46010.457, -0.03831391, -0.049221344, -399980.7, -220114.64, 0.0, 9.998566, 9.999464 
2.7344054e+3, 2.9164532e+2, -468825.53, -304612.28, 36313.176, -0.025371086, -0.03426539, -296940.6, -215067.63, 0.0, 9.997813, 9.999966 
2.7342954e+3, 3.0164492e+2, -445530.16, -173568.97, 37995.46, -0.06017538, -0.029931815, -168360.4, -168360.4, 0.0, 9.997004, 10.000585 
2.734187e+3, 3.1164476e+2, -476749.63, -61195.313, 25266.863, 0.15385075, -0.10315111, -59664.652, -59664.652, 0.0, 9.996009, 10.001501 
2.7340758e+3, 3.2164603e+2, -425511.25, -154550.13, 60137.04, 0.011023273, 0.008881109, -141803.0, -141803.0, 0.0, 9.996851, 10.000463 
2.7461576e+3, 1.3178611e+2, -1122349.3, -1687358.0, 7130.477, -0.113630556, 0.048674695, -1122259.4, 526239.8, 0.006945555, 10.005226, 9.99767 
2.7460468e+3, 1.4178346e+2, -1135830.4, -1573306.0, 35850.78, 0.024087971, 0.060086988, -1132911.9, 417614.6, 0.003718767, 10.004138, 9.998303 
2.7459353e+3, 1.5178148e+2, -1065634.9, -1412332.0, 81337.38, -0.024763532, 0.049174294, -1047501.06, 405043.47, 0.0013822963, 10.003621, 9.998977 
2.745825e+3, 1.6177951e+2, -1059947.5, -1417421.1, 99953.76, -0.04347736, 0.033962082, -1033897.56, 320665.16, 0.00030087403, 10.003234, 9.998457 
2.745715e+3, 1.7177711e+2, -987687.94, -1325781.3, 130876.48, -0.052057963, 0.01893032, -942946.4, 313640.2, 0.00002933857, 10.003037, 9.998505 
2.7456057e+3, 1.8177493e+2, -918134.2, -1233982.0, 127401.64, -0.06490222, 0.010932853, -873151.4, 285456.63, 0.00000039166414, 10.002809, 9.998573 
2.7454966e+3, 1.9177319e+2, -857810.4, -1115812.1, 123210.445, -0.04282183, 0.023300957, -808423.94, 252199.92, 0.0, 10.002391, 9.99891 
2.7453876e+3, 2.0177144e+2, -855307.1, -1106118.8, 116721.67, -0.0177963, 0.03083067, -809392.9, 153247.13, 0.0, 10.001915, 9.998535 
2.745279e+3, 2.1176916e+2, -839132.56, -1035068.3, 139296.03, -0.014349549, 0.0135733895, -766803.4, 97858.984, 0.0, 10.001302, 9.998644 
2.74517e+3, 2.21767e+2, -818828.56, -980870.8, 126630.49, -0.020518376, -0.0030134667, -749517.7, 17166.16, 0.0, 10.0007925, 9.9985895 
2.7450597e+3, 2.317651e+2, -729064.3, -858160.7, 117059.99, -0.05583953, -0.0008972957, -659935.6, 8767.238, 0.0, 10.000614, 9.998844 
2.74495e+3, 2.4176346e+2, -639397.3, -726053.5, 138574.77, -0.060191393, 0.0009915885, -537534.9, 33183.883, 0.0, 10.000391, 9.999187 
2.7448422e+3, 2.5176224e+2, -568407.56, -588562.44, 118751.04, 0.035469364, -0.0055269212, -459307.16, 13421.188, 0.0, 9.999979, 9.999657 
2.7447337e+3, 2.6176098e+2, -580130.25, -608964.1, 94048.3, 0.08966575, -0.01587481, -499400.3, -124661.45, 0.0, 9.999506, 9.999073 
2.744623e+3, 2.717592e+2, -552274.2, -539739.2, 95397.84, -0.013337388, -0.031885415, -450403.2, -173646.8, 0.0, 9.999003, 9.999116 
2.7445126e+3, 2.817577e+2, -510204.56, -426656.22, 103581.27, -0.071366794, -0.044593986, -356742.6, -177971.4, 0.0, 9.998437, 9.999495 
2.744403e+3, 2.9175693e+2, -481473.34, -302607.0, 73779.99, -0.012364819, -0.04265873, -276101.47, -195323.13, 0.0, 9.997699, 10.000032 
2.7442923e+3, 3.0175638e+2, -430433.25, -171368.7, 63329.688, -0.026286816, -0.053655125, -156716.17, -156716.17, 0.0, 9.997132, 10.000536 
2.744183e+3, 3.1175607e+2, -284638.63, 18589.705, 15669.985, 0.114658736, -0.13274333, 19397.336, 19397.336, 0.0, 9.997385, 10.001386 
2.7440718e+3, 3.2175785e+2, -516952.88, -198073.67, 102302.51, 0.019102763, 0.040856637, -168075.17, -168075.17, 0.0, 9.996231, 10.000458 
2.7561623e+3, 1.318984e+2, -1151792.9, -1723877.8, -40375.035, -0.10638879, 0.025413057, -1148957.5, 498438.72, 0.0045431904, 10.005111, 9.997474 
2.75605e+3, 1.418954e+2, -1133850.4, -1572051.3, 13934.916, 0.0059494516, 0.012881308, -1133407.8, 416020.47, 0.0023454148, 10.004144, 9.998311 
2.755938e+3, 1.5189381e+2, -1057564.3, -1401212.1, 65540.18, -0.07362674, 0.036196355, -1045488.8, 405954.2, 0.00082545396, 10.003638, 9.999047 
2.755827e+3, 1.6189219e+2, -1051167.1, -1401369.4, 89366.26, -0.09938717, 0.04820963, -1029680.56, 323777.63, 0.0001665299, 10.00324, 9.998567 
2.7557176e+3, 1.7188987e+2, -981167.8, -1310114.9, 123313.33, -0.051699825, 0.02695677, -940074.5, 315406.44, 0.000014111729, 10.003025, 9.99862 
2.7556083e+3, 1.818876e+2, -941019.8, -1274918.3, 113565.84, -0.024652107, 0.011585137, -906055.1, 251448.08, 0.00000009505926, 10.002777, 9.998309 
2.755499e+3, 1.918854e+2, -890764.56, -1182215.6, 108296.766, -0.015838798, 0.018386185, -854929.9, 204594.89, 0.0, 10.002379, 9.998462 
2.7553892e+3, 2.0188333e+2, -844758.75, -1082657.5, 97339.766, -0.0073838593, 0.019597922, -810007.1, 151537.45, 0.0, 10.001905, 9.998704 
2.7552795e+3, 2.118814e+2, -807914.06, -971588.3, 116733.24, -0.019367073, -0.005084213, -747189.0, 116373.5, 0.0, 10.001304, 9.999081 
2.75517e+3, 2.2187963e+2, -804995.7, -953548.25, 115121.02, -0.028108569, -0.015896779, -742268.94, 23310.047, 0.0, 10.000795, 9.998778 
2.7550602e+3, 2.318782e+2, -723029.3, -848907.5, 111121.836, -0.013328013, 0.024321036, -658260.2, 9333.287, 0.0, 10.000625, 9.998905 
2.7549505e+3, 2.418766e+2, -670035.25, -790965.7, 125861.414, 0.00040552526, 0.041100774, -590868.3, -21258.914, 0.0, 10.000392, 9.998743 
2.7548414e+3, 2.5187412e+2, -615990.1, -689057.0, 101934.62, 0.0104455985, -0.02611474, -544239.9, -72607.46, 0.0, 9.999983, 9.998966 
2.7547318e+3, 2.6187217e+2, -558285.7, -569188.2, 73715.62, 0.00560394, -0.07040491, -489820.03, -116169.65, 0.0, 9.999526, 9.999338 
2.7546212e+3, 2.718716e+2, -505024.1, -443337.7, 75318.53, -0.040009186, -0.03016064, -392791.78, -117136.97, 0.0, 9.999005, 9.999781 
2.7545106e+3, 2.818708e+2, -506146.88, -417104.47, 79961.22, -0.03855265, -0.014233083, -370105.53, -192444.48, 0.0, 9.998427, 9.999567 
2.754401e+3, 2.9186913e+2, -500589.6, -336806.84, 46850.39, 0.074115954, -0.08630061, -324352.28, -244675.27, 0.0, 9.997672, 9.999811 
2.7542895e+3, 3.0186817e+2, -469568.84, -252023.67, 64848.637, 0.050393727, -0.108648516, -234159.69, -234159.69, 0.0, 9.997127, 9.999987 
2.7541777e+3, 3.1186914e+2, -320659.4, -84306.72, 27836.334, -0.07579435, 0.0141147245, -81072.56, -81072.56, 0.0, 9.997498, 10.000628 
2.7540675e+3, 3.2186833e+2, -472907.97, -64837.75, -223.75967, 0.056986798, -0.05748505, -64837.625, -64837.625, 0.0, 9.996075, 10.001436 
2.7661666e+3, 1.3201094e+2, -1230858.0, -1699362.8, -17698.084, -0.091793746, -0.029229876, -1230190.4, 416100.5, 0.0027631873, 10.004284, 9.998043 
2.7660534e+3, 1.420084e+2, -1128119.9, -1578642.6, 57948.715, -0.018131528, -0.02833734, -1120785.6, 427532.25, 0.0013674889, 10.004222, 9.998228 
2.765941e+3, 1.5200663e+2, -1085640.4, -1458961.4, 84824.664, -0.08171017, 0.012368697, -1067270.8, 383065.38, 0.00045201046, 10.003638, 9.998649 
2.7658296e+3, 1.6200489e+2, -1073147.6, -1415649.8, 93467.09, -0.092212535, 0.03997094, -1049301.3, 303052.44, 0.000082991, 10.003108, 9.99853 
2.76572e+3, 1.7200275e+2, -1014272.44, -1313019.9, 128104.27, -0.04867868, 0.028446825, -966864.06, 287510.56, 0.000005757098, 10.0027485, 9.99873 
2.7656102e+3, 1.820006e+2, -985292.4, -1283570.5, 124359.02, -0.024708357, 0.015997397, -940246.94, 216148.38, 0.00000000965895, 10.002428, 9.998415 
2.7655002e+3, 1.919983e+2, -919037.7, -1188021.5, 150181.98, -0.018086502, 0.008069409, -851929.25, 206488.1, 0.0, 10.002156, 9.998527 
2.7653903e+3, 2.0199615e+2, -851679.44, -1087954.5, 151831.69, -0.008262332, -0.001671609, -777438.9, 182999.19, 0.0, 10.001869, 9.998682 
2.7652806e+3, 2.1199425e+2, -785992.06, -968684.7, 136955.4, -0.016817361, -0.014512886, -712714.75, 149741.28, 0.0, 10.0014925, 9.999007 
2.7651703e+3, 2.2199258e+2, -751499.7, -921155.25, 115421.55, -0.020936867, -0.013921031, -693086.8, 71385.164, 0.0, 10.001141, 9.998832 
2.7650607e+3, 2.319912e+2, -679300.6, -817180.2, 113851.51, 0.0018308163, 0.0223877, -615143.25, 51342.164, 0.0, 10.000885, 9.998995 
2.7649507e+3, 2.4198955e+2, -659819.25, -797099.56, 130302.805, 0.019464877, 0.034116782, -581183.1, -12681.735, 0.0, 10.000516, 9.998639 
2.7648407e+3, 2.5198692e+2, -651342.6, -730454.75, 136435.23, -0.0010737276, -0.029632827, -548845.0, -78318.08, 0.0, 9.999852, 9.998741 
2.7647302e+3, 2.6198483e+2, -593446.06, -579632.6, 127576.266, -0.023519816, -0.07127758, -458776.25, -86229.63, 0.0, 9.999266, 9.999388 
2.7646196e+3, 2.7198434e+2, -497324.6, -421480.2, 92287.24, -0.039589517, -0.034017317, -359627.5, -85077.93, 0.0, 9.998987, 9.999936 
2.764509e+3, 2.8198364e+2, -467139.56, -397041.9, 66509.88, -0.011460101, -0.021193312, -356911.03, -180356.39, 0.0, 9.998694, 9.999574 
2.7643985e+3, 2.919819e+2, -394162.72, -294186.84, 39044.094, 0.10229137, -0.09304005, -280745.8, -202174.66, 0.0, 9.998449, 9.999724 
2.7642867e+3, 3.019808e+2, -363760.53, -224690.42, 76459.07, 0.070129536, -0.112304136, -190876.0, -190876.0, 0.0, 9.997968, 9.9997635 
2.7641734e+3, 3.119816e+2, -445350.03, -181081.56, 78068.86, -0.13541761, 0.023271978, -159742.02, -159742.02, 0.0, 9.996811, 10.00029 
2.7640632e+3, 3.219799e+2, -376957.0, 22118.127, -32553.098, 0.028530492, -0.12259649, 24756.09, 24756.09, 0.0, 9.996565, 10.001794 
2.77617e+3, 1.3212381e+2, -1174061.6, -1555726.0, -16833.592, -0.07990839, -0.100066654, -1173320.6, 471861.56, 0.0015289318, 10.004174, 9.999079 
2.7760565e+3, 1.4212221e+2, -1145703.0, -1610560.4, 36581.18, -0.050847866, -0.06428618, -1142841.9, 404356.4, 0.0007190954, 10.004199, 9.99802 
2.7759442e+3, 1.5211982e+2, -1134286.3, -1565709.8, 60212.227, -0.061247397, -0.021151435, -1126040.4, 323184.44, 0.00022026579, 10.003657, 9.99791 
2.7758324e+3, 1.6211762e+2, -1079180.3, -1434085.1, 79625.01, -0.040976748, 0.0131391175, -1062134.6, 289113.97, 0.000035434383, 10.00313, 9.998395 
2.775722e+3, 1.721158e+2, -1006948.7, -1299270.8, 116778.02, -0.048618715, 0.027250893, -966026.44, 287240.06, 0.0000017161015, 10.002752, 9.998824 
2.7756116e+3, 1.8211399e+2, -960384.3, -1230014.9, 113567.49, -0.06343488, 0.027353767, -918925.0, 236358.83, 0.00000000000031198744, 10.002417, 9.998791 
2.7755016e+3, 1.921119e+2, -886133.4, -1119614.5, 139283.63, -0.04480096, -0.007120099, -821137.06, 236165.2, 0.0, 10.002152, 9.999001 
2.7753916e+3, 2.0210981e+2, -869793.5, -1123988.0, 136748.23, -0.021353526, -0.02989837, -810199.06, 149122.31, 0.0, 10.001859, 9.998442 
2.7752814e+3, 2.1210772e+2, -824310.25, -1049068.1, 121771.51, -0.008825749, -0.014893258, -770986.7, 90356.78, 0.0, 10.001493, 9.998456 
2.775171e+3, 2.2210576e+2, -758527.56, -934165.25, 104514.99, -0.0058650095, -0.0029733218, -709834.4, 53528.953, 0.0, 10.00113, 9.99875 
2.7750605e+3, 2.3210402e+2, -671923.1, -803031.7, 104737.23, -0.012273165, -0.01030482, -613916.7, 51462.445, 0.0, 10.000887, 9.999093 
2.7749503e+3, 2.4210234e+2, -642616.56, -763666.6, 108798.21, -0.0117128445, -0.01501015, -578641.25, -11246.813, 0.0, 10.000523, 9.998867 
2.7748397e+3, 2.5210068e+2, -632984.0, -692890.94, 109886.07, 0.0022226153, -0.0092048105, -549042.1, -79631.2, 0.0, 9.99985, 9.999003 
2.774729e+3, 2.6209903e+2, -611378.4, -616317.25, 113540.52, 0.0047163344, -0.013913002, -500280.47, -128853.79, 0.0, 9.999259, 9.999142 
2.7746183e+3, 2.7209738e+2, -531476.6, -490866.0, 81501.75, -0.0103885345, -0.049278334, -427178.22, -153736.5, 0.0, 9.998978, 9.999465 
2.774507e+3, 2.8209603e+2, -470963.7, -407745.6, 55348.867, 0.0015482194, -0.07055778, -375615.88, -200162.02, 0.0, 9.998704, 9.999497 
2.7743956e+3, 2.9209524e+2, -384896.72, -286583.47, 27249.438, 0.0536626, -0.04847091, -279535.94, -202075.13, 0.0, 9.998493, 9.99976 
2.7742836e+3, 3.0209434e+2, -338692.75, -190604.84, 38218.01, 0.01579218, -0.05710106, -181323.39, -181323.39, 0.0, 9.998038, 9.999967 
2.774171e+3, 3.120929e+2, -441950.72, -155562.95, 29869.318, -0.020694261, -0.17234652, -152480.86, -152480.86, 0.0, 9.99673, 10.0005045 
2.7740586e+3, 3.220936e+2, -420637.34, -91630.54, -31489.104, -0.025734477, -0.06015827, -88643.84, -88643.84, 0.0, 9.996618, 10.00101 
2.7861732e+3, 1.3223714e+2, -1305855.0, -1627150.1, -866.8948, -0.06323311, -0.1026731, -1305852.6, 338219.53, 0.00074650114, 10.003293, 9.999016 
2.7860597e+3, 1.4223607e+2, -1176471.0, -1607539.1, -7357.5713, -0.11883651, -0.015740057, -1176345.4, 369737.7, 0.0003293364, 10.003909, 9.99818 
2.785947e+3, 1.5223345e+2, -1112365.9, -1529839.1, 57808.08, -0.07833771, -0.019072454, -1104509.0, 343601.63, 0.00009087811, 10.003706, 9.99813 
2.7858356e+3, 1.6223104e+2, -1041778.44, -1412291.8, 111945.77, -0.017957529, -0.018690772, -1010582.1, 339553.4, 0.000011753326, 10.003377, 9.998424 
2.785724e+3, 1.7222928e+2, -1020231.44, -1313554.9, 138359.84, -0.04583255, 0.0059154998, -965267.0, 286886.22, 0.00000025139548, 10.002697, 9.998753 
2.7856132e+3, 1.8222748e+2, -998851.06, -1250041.9, 128122.97, -0.07567912, 0.015625162, -945031.6, 209138.73, 0.0, 10.002156, 9.998779 
2.785503e+3, 1.922254e+2, -904625.5, -1127253.6, 127710.086, -0.048641995, -0.018602379, -846526.75, 209662.25, 0.0, 10.002026, 9.999006 
2.7853927e+3, 2.0222336e+2, -871269.25, -1125646.6, 105478.16, -0.018141922, -0.03855633, -833223.0, 124985.04, 0.0, 10.001864, 9.998423 
2.785282e+3, 2.1222126e+2, -824643.06, -1056338.6, 118799.18, -0.0070498968, -0.016158562, -774557.25, 85672.83, 0.0, 10.001529, 9.998386 
2.7851716e+3, 2.2221926e+2, -748349.6, -928097.3, 127283.375, -0.0009960057, -0.005749249, -682408.3, 79842.36, 0.0, 10.001199, 9.998755 
2.785061e+3, 2.3221733e+2, -669312.44, -799105.8, 123582.414, -0.010884522, -0.03171929, -594623.3, 69644.38, 0.0, 10.000898, 9.999112 
2.78495e+3, 2.4221562e+2, -631197.56, -750633.25, 111087.266, -0.01229655, -0.043988764, -564794.0, 1489.3201, 0.0, 10.000575, 9.998928 
2.7848393e+3, 2.5221425e+2, -579551.6, -659328.0, 93238.86, 0.008365702, -0.015035598, -518027.03, -49729.645, 0.0, 10.000189, 9.999067 
2.7847284e+3, 2.622128e+2, -540199.0, -581177.5, 99609.01, 0.01992359, -0.0040974095, -458993.78, -88682.17, 0.0, 9.999748, 9.9991455 
2.784617e+3, 2.72211e+2, -493365.13, -477071.75, 100151.375, 0.0055514798, -0.04962348, -384736.28, -112408.22, 0.0, 9.999268, 9.999416 
2.7845055e+3, 2.8220958e+2, -475634.56, -414039.63, 91357.39, 0.010644576, -0.07292186, -348428.3, -174087.11, 0.0, 9.9987, 9.999451 
2.784393e+3, 2.9220894e+2, -465161.28, -330958.25, 55519.203, 0.018685011, -0.026806284, -310967.9, -234621.13, 0.0, 9.997973, 9.9997015 
2.78428e+3, 3.02208e+2, -410601.84, -220078.97, 58393.473, -0.034228563, -0.03804622, -203606.17, -203606.17, 0.0, 9.997527, 10.000009 
2.784168e+3, 3.122058e+2, -261665.1, -55944.8, 29794.414, 0.0371298, -0.23867716, -51716.586, -51716.586, 0.0, 9.997921, 10.00061 
2.784055e+3, 3.2220763e+2, -341810.8, -76337.25, 1356.9176, -0.0118045295, -0.0098499665, -76330.31, -76330.31, 0.0, 9.997266, 10.000799 
2.7961764e+3, 1.3235085e+2, -1353993.4, -1731477.9, 29140.898, -0.049749836, -0.058585767, -1351757.0, 291203.78, 0.00030920087, 10.003313, 9.99829 
2.7960616e+3, 1.4235009e+2, -1153028.3, -1544642.5, -3420.4104, -0.21287909, 0.08971347, -1152998.4, 391971.28, 0.00012485002, 10.003846, 9.998643 
2.7959496e+3, 1.5234752e+2, -1059252.4, -1406111.8, 47623.203, -0.12493094, 0.008895671, -1052832.6, 394160.34, 0.000029062048, 10.003644, 9.999011 
2.795838e+3, 1.6234511e+2, -1045201.6, -1404886.5, 87330.57, -0.023115888, -0.05232273, -1025119.25, 323896.2, 0.0000024460635, 10.003313, 9.998507 
2.7957264e+3, 1.7234309e+2, -1036241.2, -1347447.3, 109602.22, -0.041130457, -0.032506786, -1001515.7, 249519.7, 0.0000000042322403, 10.002696, 9.998522 
2.795615e+3, 1.823411e+2, -1018102.25, -1296982.9, 116226.74, -0.065585844, -0.017086789, -976015.0, 177040.22, 0.0, 10.002183, 9.9984455 
2.7955046e+3, 1.923389e+2, -930108.1, -1183123.9, 123988.63, -0.03614748, -0.026210833, -879479.25, 175597.53, 0.0, 10.002037, 9.998619 
2.7953944e+3, 2.0233682e+2, -861584.56, -1102250.4, 95672.805, -0.008878894, -0.030142436, -828186.2, 128910.76, 0.0, 10.001847, 9.998593 
2.7952832e+3, 2.1233496e+2, -799484.1, -1004390.6, 106624.805, -0.012197476, -0.018916482, -754067.44, 105048.125, 0.0, 10.001527, 9.998746 
2.795172e+3, 2.2233312e+2, -745740.9, -921529.1, 116109.92, -0.012479205, -0.01629551, -688009.1, 73124.36, 0.0, 10.001191, 9.998806 
2.7950612e+3, 2.3233117e+2, -674582.6, -811346.75, 112532.61, 0.0048167426, -0.039059736, -611284.4, 51866.637, 0.0, 10.000899, 9.999029 
2.7949503e+3, 2.4232931e+2, -641354.56, -771986.75, 96968.41, 0.015743768, -0.05578788, -589755.9, -24587.328, 0.0, 10.000572, 9.998785 
2.7948388e+3, 2.523275e+2, -591107.9, -684455.6, 77556.19, 0.015365105, -0.054366235, -547264.3, -80076.63, 0.0, 10.000192, 9.998895 
2.7947274e+3, 2.6232606e+2, -516762.75, -538247.4, 80761.164, 0.011061987, -0.045874722, -446032.6, -76830.164, 0.0, 9.99977, 9.999431 
2.7946156e+3, 2.7232528e+2, -462238.78, -415671.9, 80328.336, 0.0040589953, -0.027867744, -355320.66, -84112.69, 0.0, 9.999276, 9.999837 
2.7945033e+3, 2.823244e+2, -479197.84, -421963.1, 65165.484, 0.008277863, -0.02052236, -379408.2, -206192.72, 0.0, 9.998699, 9.999399 
2.79439e+3, 2.9232296e+2, -486576.88, -363932.94, 25477.66, 0.0004890951, -0.03723846, -358850.88, -283621.0, 0.0, 9.997923, 9.9995 
2.7942765e+3, 3.0232173e+2, -434458.03, -253803.06, 65228.016, -0.07438754, -0.058870796, -232713.55, -232713.55, 0.0, 9.997457, 9.999812 
2.7941653e+3, 3.123207e+2, -259086.78, -73118.38, 48131.69, -0.00082907506, -0.1192738, -61399.57, -61399.57, 0.0, 9.998011, 10.000454 
2.794052e+3, 3.2232156e+2, -303401.9, -63.08782, -63806.48, 0.026523545, -0.0058424985, 12811.954, 12811.954, 0.0, 9.997299, 10.001298 
2.806179e+3, 1.3246499e+2, -1315505.9, -1678942.0, 44358.363, -0.048019927, 0.029756427, -1310170.1, 331674.16, 0.00010249549, 10.003431, 9.998593 
2.806065e+3, 1.4246307e+2, -1258027.8, -1572906.5, 26216.5, -0.18292123, 0.03616719, -1255859.9, 288002.56, 0.000035755456, 10.003029, 9.998844 
2.805952e+3, 1.5246119e+2, -1185552.1, -1448340.6, 33511.14, -0.12853478, 0.0065185493, -1181346.1, 264533.44, 0.0000060332013, 10.0027, 9.999174 
2.8058404e+3, 1.6245924e+2, -1148717.9, -1440471.8, 48979.098, -0.04146092, -0.022468446, -1140714.9, 207182.5, 0.00000016363987, 10.002541, 9.998635 
2.8057286e+3, 1.7245704e+2, -1027645.25, -1332662.5, 91013.91, -0.02667118, -0.033067774, -1002552.0, 247366.52, 0.0, 10.002716, 9.998611 
2.805617e+3, 1.8245493e+2, -939757.1, -1252442.5, 114761.305, -0.03470634, -0.036535062, -902158.56, 249780.5, 0.0, 10.002705, 9.998494 
2.805506e+3, 1.9245288e+2, -915296.06, -1176725.6, 143664.3, -0.035933003, -0.0298267, -851779.56, 202179.78, 0.0, 10.002146, 9.998609 
2.805395e+3, 2.0245093e+2, -879014.56, -1097700.9, 131501.42, -0.0238908, -0.024408283, -817335.7, 138642.98, 0.0, 10.001669, 9.998712 
2.805284e+3, 2.1244913e+2, -799919.8, -985829.56, 130136.75, -0.014241682, -0.023086386, -732949.1, 125047.23, 0.0, 10.001447, 9.99891 
2.8051728e+3, 2.2244732e+2, -746957.2, -922911.75, 126390.91, -0.008674292, -0.025322678, -680938.8, 79074.9, 0.0, 10.001194, 9.998792 
2.8050616e+3, 2.3244537e+2, -692861.7, -831017.8, 119734.93, -0.0009451335, -0.03954924, -623707.2, 38324.78, 0.0, 10.000828, 9.998925 
2.8049502e+3, 2.424435e+2, -659024.75, -771613.0, 107494.28, 0.012930295, -0.051692832, -593976.2, -29926.223, 0.0, 10.000418, 9.998859 
2.8048384e+3, 2.5244173e+2, -616870.3, -683180.06, 108483.06, 0.026208851, -0.055694412, -536588.75, -70520.664, 0.0, 9.999961, 9.999012 
2.8047264e+3, 2.624403e+2, -544480.56, -547227.4, 119208.36, 0.024766812, -0.0511263, -426637.7, -58555.316, 0.0, 9.999568, 9.999463 
2.804614e+3, 2.7243957e+2, -443826.38, -409088.38, 85867.53, -0.009250183, -0.029190794, -338850.78, -68762.734, 0.0, 9.999414, 9.999814 
2.8045014e+3, 2.824387e+2, -404052.3, -387757.84, 45230.258, -0.01364956, -0.020277994, -349946.9, -177850.94, 0.0, 9.999222, 9.999383 
2.804388e+3, 2.924372e+2, -335283.88, -292709.94, 16748.596, 0.016223786, -0.043581296, -286910.9, -212799.56, 0.0, 9.998972, 9.999482 
2.8042743e+3, 3.0243605e+2, -297844.66, -206062.3, 75355.4, -0.05086603, -0.04652605, -163724.03, -163724.03, 0.0, 9.998479, 9.999644 
2.8041616e+3, 3.1243563e+2, -349264.2, -144998.06, 60844.844, -0.060330387, -0.023020934, -128247.74, -128247.74, 0.0, 9.997515, 10.000197 
2.8040487e+3, 3.2243547e+2, -231498.81, 66786.93, -84482.13, 0.017418452, -0.007391614, 89052.42, 89052.42, 0.0, 9.997659, 10.001579 
2.8161818e+3, 1.3257952e+2, -1246268.9, -1542886.1, 33480.27, -0.05931988, 0.136509, -1242536.8, 398186.94, 0.000024203617, 10.00347, 9.999505 
2.8160682e+3, 1.4257547e+2, -1265519.9, -1583365.1, 14929.872, -0.07643572, -0.12413965, -1264820.1, 277938.25, 0.000006462912, 10.003007, 9.998782 
2.8159544e+3, 1.5257464e+2, -1209928.6, -1503639.8, 24921.201, -0.105205245, -0.0132835675, -1207829.1, 236939.03, 0.00000052844416, 10.002715, 9.99879 
2.8158417e+3, 1.6257352e+2, -1129936.1, -1410230.9, 55251.21, -0.06801468, 0.054949615, -1119438.3, 227341.88, 0.0000000005064632, 10.002575, 9.998827 
2.8157306e+3, 1.7257117e+2, -1001982.1, -1280401.4, 100877.5, -0.008305424, -0.0046292217, -969274.3, 279527.06, 0.0, 10.002718, 9.99897 
2.8156194e+3, 1.8256903e+2, -923160.3, -1209859.1, 101294.04, 0.0021542565, -0.044852484, -890983.25, 259837.77, 0.0, 10.002667, 9.998806 
2.8155077e+3, 1.9256735e+2, -899589.5, -1138369.3, 122586.7, -0.047998097, -0.030601334, -847861.1, 204975.86, 0.0, 10.002118, 9.998887 
2.815396e+3, 2.0256564e+2, -879148.44, -1093053.5, 119911.29, -0.0626217, -0.020847576, -825422.5, 129431.09, 0.0, 10.001646, 9.998756 
2.815285e+3, 2.1256371e+2, -803019.5, -992237.6, 122288.73, -0.014120719, -0.028668243, -743014.8, 113858.0, 0.0, 10.001444, 9.998869 
2.8151736e+3, 2.2256179e+2, -755609.7, -937758.6, 113850.71, 0.0050694332, -0.03463382, -700887.94, 58003.86, 0.0, 10.001178, 9.998699 
2.8150615e+3, 2.3255987e+2, -701736.4, -850229.0, 105730.07, -0.030182589, -0.034566246, -646787.6, 14123.363, 0.0, 10.000829, 9.998795 
2.8149495e+3, 2.4255823e+2, -636780.56, -727806.3, 90249.305, -0.03234425, -0.02861135, -581217.44, -18290.234, 0.0, 10.000425, 9.999159 
2.814838e+3, 2.5255707e+2, -587995.1, -623181.75, 90405.16, 0.0406184, -0.012820809, -513487.3, -48549.46, 0.0, 9.999956, 9.999429 
2.814726e+3, 2.6255572e+2, -566187.94, -592033.56, 111136.17, 0.060314033, -0.015410095, -467225.78, -100275.06, 0.0, 9.999564, 9.99916 
2.8146127e+3, 2.725538e+2, -482345.22, -490100.28, 79620.12, -0.038843393, -0.060397793, -406508.28, -137538.64, 0.0, 9.999417, 9.999258 
2.8144994e+3, 2.8255227e+2, -395458.1, -377059.63, 35251.613, -0.061393667, -0.08135245, -349826.7, -178842.11, 0.0, 9.999249, 9.999444 
2.814387e+3, 2.9255158e+2, -312335.16, -259575.08, 6566.96, 0.07487942, -0.043319136, -258769.98, -185778.53, 0.0, 9.999029, 9.999685 
2.814273e+3, 3.02551e+2, -296337.75, -220373.78, 42288.508, 0.03837589, 0.0022377314, -201514.33, -201514.33, 0.0, 9.99855, 9.999514 
2.8141576e+3, 3.1255057e+2, -380329.2, -196575.17, 18591.463, -0.14826992, 0.04935855, -194713.03, -194713.03, 0.0, 9.997456, 9.999874 
2.8140455e+3, 3.22549e+2, -223043.25, 72037.16, -5164.5444, -0.0029972794, -0.051707227, 72127.52, 72127.52, 0.0, 9.997698, 10.001603 
2.826184e+3, 1.3269334e+2, -1232805.9, -1521518.5, 70638.8, -0.0982794, 0.066873126, -1216449.5, 423156.78, 0.0000033294093, 10.003493, 9.999644 
2.826071e+3, 1.4269009e+2, -1273267.3, -1586459.8, 39960.39, -0.02770845, -0.11934017, -1268249.0, 273384.16, 0.00000050691085, 10.002954, 9.998786 
2.8259566e+3, 1.5268907e+2, -1195965.9, -1502754.5, 75955.445, -0.07357534, -0.022811383, -1178190.5, 265454.94, 0.0000000023756648, 10.002843, 9.998732 
2.825844e+3, 1.6268782e+2, -1108021.8, -1395448.0, 115404.91, -0.059764743, 0.038607202, -1067420.5, 278238.56, 0.0, 10.002714, 9.998858 
2.8257325e+3, 1.7268562e+2, -1045267.5, -1297973.1, 139578.33, -0.021506522, -0.009159285, -983346.2, 264333.4, 0.0, 10.002408, 9.998999 
2.825621e+3, 1.8268362e+2, -995815.9, -1223441.4, 111914.83, -0.014892079, -0.042781577, -950009.44, 199688.58, 0.0, 10.002073, 9.9990015 
2.8255087e+3, 1.9268213e+2, -951690.6, -1136933.6, 126982.1, -0.037805747, -0.033449538, -887139.6, 164572.28, 0.0, 10.001651, 9.999119 
2.825397e+3, 2.0268056e+2, -915181.56, -1100464.9, 135614.25, -0.039785914, -0.025773186, -843586.5, 110140.336, 0.0, 10.001367, 9.998834 
2.8252858e+3, 2.1267869e+2, -811812.9, -996081.06, 143893.1, -0.009598047, -0.028526664, -733084.7, 122660.914, 0.0, 10.001389, 9.998866 
2.825174e+3, 2.2267681e+2, -738508.06, -927619.06, 131674.0, 0.003563427, -0.03009875, -670956.25, 86808.305, 0.0, 10.001289, 9.9987135 
2.8250617e+3, 2.3267493e+2, -695206.06, -846288.9, 129545.11, -0.02858182, -0.026997074, -620786.0, 38997.832, 0.0, 10.000874, 9.998798 
2.8249493e+3, 2.4267332e+2, -616150.9, -710324.9, 115397.15, -0.030722165, -0.017002512, -538603.7, 23196.215, 0.0, 10.000539, 9.999221 
2.8248373e+3, 2.5267228e+2, -512717.5, -578619.8, 89694.875, 0.037354026, 0.0028677662, -450112.66, 13696.835, 0.0, 10.000441, 9.999499 
2.824725e+3, 2.6267096e+2, -483268.03, -564393.2, 99099.77, 0.055183977, 0.0031101631, -416750.78, -50928.582, 0.0, 10.000186, 9.99905 
2.8246114e+3, 2.7266887e+2, -467136.94, -503129.28, 94470.59, -0.050419524, -0.041710928, -388963.72, -121120.25, 0.0, 9.999614, 9.999072 
2.824498e+3, 2.8266722e+2, -407936.75, -376492.5, 71019.41, -0.061573282, -0.06492511, -319475.78, -149615.86, 0.0, 9.999145, 9.999495 
2.8243858e+3, 2.9266652e+2, -307216.88, -248512.36, 35597.48, 0.10994222, -0.034890488, -231726.39, -159860.58, 0.0, 9.999031, 9.99976 
2.8242713e+3, 3.0266586e+2, -248353.33, -213695.64, 54200.445, 0.0653398, 0.0048517655, -174121.25, -174121.25, 0.0, 9.998948, 9.999369 
2.8241545e+3, 3.126652e+2, -187233.69, -130735.33, 25864.174, -0.21128783, 0.052559935, -120683.445, -120683.445, 0.0, 9.998902, 9.999627 
2.824043e+3, 3.2266304e+2, -249198.66, 30836.557, 25575.55, 0.024329435, -0.08357259, 33153.2, 33153.2, 0.0, 9.997654, 10.001335 
2.8361866e+3, 1.328069e+2, -1267694.8, -1572957.0, 40047.24, -0.15037532, -0.09750986, -1262528.4, 375960.56, 0.00000016214108, 10.0034075, 9.99933 
2.8360733e+3, 1.4280635e+2, -1263262.5, -1573150.8, 29482.191, -0.028247068, -0.00011323817, -1260482.5, 280010.06, 0.0000000020979667, 10.002985, 9.998863 
2.8359592e+3, 1.5280423e+2, -1180558.5, -1477149.6, 71925.96, -0.045786712, -0.02994609, -1164036.1, 278478.03, 0.0, 10.002867, 9.998898 
2.8358465e+3, 1.6280222e+2, -1120203.1, -1418643.0, 105162.195, -0.033317864, -0.048737697, -1086869.9, 257665.02, 0.0, 10.002703, 9.998707 
2.8357342e+3, 1.7280036e+2, -1067239.3, -1338290.5, 128450.28, -0.05919997, -0.036763392, -1016038.7, 230515.06, 0.0, 10.002383, 9.998735 
2.8356218e+3, 1.8279867e+2, -991857.1, -1209642.5, 97282.625, -0.07243515, -0.029958373, -954730.9, 193839.83, 0.0, 10.002048, 9.999109 
2.83551e+3, 1.9279718e+2, -934593.6, -1106255.4, 111428.78, -0.009838389, -0.03842028, -879771.4, 170812.81, 0.0, 10.00167, 9.999322 
2.8353983e+3, 2.0279568e+2, -906834.06, -1087538.6, 132981.03, 0.02795705, -0.039259095, -836414.8, 116183.44, 0.0, 10.001383, 9.998916 
2.8352863e+3, 2.1279405e+2, -808423.6, -991329.56, 145279.84, -0.0048569227, -0.02266942, -728208.7, 126406.195, 0.0, 10.001395, 9.998897 
2.8351745e+3, 2.2279237e+2, -732424.5, -912693.7, 119537.305, -0.02195581, -0.012379645, -672848.0, 83784.016, 0.0, 10.001278, 9.998823 
2.835062e+3, 2.3279053e+2, -687961.9, -830500.4, 113415.61, 0.0030158109, -0.016512193, -625281.9, 33368.723, 0.0, 10.000868, 9.998911 
2.8349498e+3, 2.427888e+2, -632039.5, -742967.9, 109041.65, 0.01706646, -0.017164396, -565166.6, -4498.4604, 0.0, 10.000534, 9.999001 
2.8348368e+3, 2.527873e+2, -533862.4, -626092.06, 85830.41, 0.011192881, -0.011728955, -482542.97, -19859.006, 0.0, 10.000454, 9.999168 
2.834724e+3, 2.6278597e+2, -468790.4, -541972.8, 79098.61, -0.0058455495, 0.004173471, -418229.4, -53531.727, 0.0, 10.000216, 9.999191 
2.8346103e+3, 2.7278495e+2, -448988.88, -466704.13, 70639.805, -0.040319446, 0.038360763, -386653.53, -119945.11, 0.0, 9.999615, 9.999325 
2.834497e+3, 2.827837e+2, -407178.78, -374549.4, 63029.152, -0.014307781, 0.04204007, -325757.7, -157037.69, 0.0, 9.999141, 9.999512 
2.834384e+3, 2.9278204e+2, -315615.7, -263651.84, 32547.195, 0.108838744, -0.017695257, -247987.88, -177253.94, 0.0, 9.999021, 9.999661 
2.834269e+3, 3.0278057e+2, -256656.5, -233447.69, 56106.586, 0.018448958, -0.04886233, -187758.02, -187758.02, 0.0, 9.998957, 9.999231 
2.8341526e+3, 3.127793e+2, -183812.1, -150052.5, 27405.213, -0.24490994, -0.046432372, -134745.75, -134745.75, 0.0, 9.999011, 9.999445 
2.8340402e+3, 3.227783e+2, -322041.8, -98379.336, -101696.83, 0.069159396, -0.021210004, -59053.47, -59053.47, 0.0, 9.997563, 10.000489 
2.8461888e+3, 1.3292186e+2, -1375908.6, -1666282.0, 41632.195, -0.13602586, -0.11812764, -1370057.5, 267302.53, 0.00000000032983427, 10.002836, 9.998966 
2.8460756e+3, 1.4292139e+2, -1252670.9, -1560521.3, 18626.775, -0.033147063, 0.0073464974, -1251548.0, 287817.22, 0.0, 10.003024, 9.998931 
2.8459615e+3, 1.5291922e+2, -1192936.4, -1467535.4, 59102.035, -0.050028525, -0.04256885, -1180756.1, 260630.53, 0.0, 10.002718, 9.999035 
2.8458485e+3, 1.6291721e+2, -1154299.8, -1418785.8, 93780.43, -0.032324295, -0.07460703, -1124422.5, 218984.16, 0.0, 10.002399, 9.998851 
2.8457355e+3, 1.7291564e+2, -1116403.4, -1346578.1, 140188.77, -0.06195581, -0.04932308, -1050112.8, 195310.14, 0.0, 10.001985, 9.998867 
2.8456232e+3, 1.8291411e+2, -1032118.1, -1222771.5, 131131.28, -0.07966483, -0.032972995, -965325.75, 182112.48, 0.0, 10.001752, 9.999156 
2.845511e+3, 1.9291261e+2, -901421.8, -1090873.0, 133110.67, -0.015393217, -0.042433362, -832772.44, 216679.92, 0.0, 10.001903, 9.999314 
2.8453994e+3, 2.0291112e+2, -829925.94, -1046180.56, 141668.6, 0.02706365, -0.043077104, -759835.7, 191631.11, 0.0, 10.001891, 9.998957 
2.845287e+3, 2.1290953e+2, -794528.44, -979321.94, 152691.89, -0.0123706665, -0.026866538, -708454.0, 145028.81, 0.0, 10.00147, 9.998942 
2.845175e+3, 2.229079e+2, -748706.8, -902914.5, 124349.66, -0.032221425, -0.018720526, -679496.44, 76002.73, 0.0, 10.001095, 9.998976 
2.8450626e+3, 2.3290615e+2, -678797.1, -807616.56, 119343.25, 0.005970982, -0.030702172, -607591.9, 49924.906, 0.0, 10.000855, 9.999071 
2.84495e+3, 2.4290451e+2, -627070.25, -737990.06, 128663.44, 0.030283114, -0.031717498, -542422.75, 17110.729, 0.0, 10.000562, 9.99902 
2.8448367e+3, 2.529031e+2, -575612.8, -651646.9, 127478.25, 0.0055746026, -0.0117634, -480603.53, -19054.52, 0.0, 10.000194, 9.999117 
2.8447232e+3, 2.6290184e+2, -505025.38, -552378.9, 129196.45, -0.015741365, 0.013945977, -397354.06, -33791.617, 0.0, 9.999943, 9.9992485 
2.8446096e+3, 2.729009e+2, -379267.28, -422752.56, 106446.375, -0.023950469, 0.04910066, -292365.66, -26793.766, 0.0, 10.000051, 9.999416 
2.844496e+3, 2.8289965e+2, -295870.03, -334160.6, 85565.46, 0.005635253, 0.050715555, -227334.14, -59750.656, 0.0, 9.999957, 9.999399 
2.8443825e+3, 2.9289773e+2, -257398.78, -255439.14, 47148.26, 0.078191265, -0.018912245, -209260.52, -139660.05, 0.0, 9.999507, 9.999483 
2.8442672e+3, 3.0289608e+2, -248964.72, -228025.11, 72076.68, -0.017973058, -0.05399936, -165661.78, -165661.78, 0.0, 9.999014, 9.999235 
2.8441513e+3, 3.128949e+2, -254813.78, -182700.3, 59748.11, -0.20589222, -0.044577632, -148972.19, -148972.19, 0.0, 9.9985285, 9.99945 
2.8440377e+3, 3.2289395e+2, -143455.83, -67816.91, -108822.86, 0.07386866, 0.0041555325, 9570.95, 9570.95, 0.0, 9.999028, 9.999995 
2.8561917e+3, 1.3303763e+2, -1410963.3, -1728860.1, 54126.098, -0.10364538, -0.05875997, -1402000.3, 234224.19, 0.0, 10.002796, 9.998554 
2.856078e+3, 1.4303568e+2, -1257245.9, -1558184.0, 13297.304, -0.036864612, -0.059820388, -1256659.4, 281586.72, 0.0, 10.002974, 9.998971 
2.8559634e+3, 1.530342e+2, -1186358.4, -1452547.4, 48866.72, -0.07075265, -0.05199279, -1177671.0, 262589.6, 0.0, 10.002708, 9.999144 
2.85585e+3, 1.6303274e+2, -1127235.0, -1362670.6, 80051.875, -0.05130915, -0.050019637, -1102594.9, 239679.56, 0.0, 10.0023985, 9.999237 
2.8557372e+3, 1.7303133e+2, -1081112.0, -1279155.4, 123506.86, -0.043644663, -0.0537419, -1021832.6, 222455.03, 0.0, 10.002008, 9.999319 
2.8556246e+3, 1.8302989e+2, -1033746.25, -1230327.3, 130826.04, -0.056537263, -0.053165663, -968401.56, 177899.9, 0.0, 10.001768, 9.999098 
2.8555122e+3, 1.9302839e+2, -917917.1, -1122342.1, 139056.83, -0.05172924, -0.04471749, -847548.6, 200768.14, 0.0, 10.001887, 9.999107 
2.8554e+3, 2.0302685e+2, -835934.8, -1048768.5, 130080.42, -0.03665343, -0.03875227, -774287.75, 176044.69, 0.0, 10.001847, 9.9989605 
2.8552878e+3, 2.1302512e+2, -793384.1, -973858.3, 136714.23, -0.029917048, -0.040711123, -719811.8, 132537.58, 0.0, 10.001455, 9.998987 
2.8551754e+3, 2.2302343e+2, -739033.3, -879157.75, 113940.05, -0.030024039, -0.048400104, -675338.1, 79027.95, 0.0, 10.001077, 9.999148 
2.8550625e+3, 2.3302178e+2, -665317.7, -780460.9, 110475.914, -0.023130044, -0.06843725, -598312.3, 58070.125, 0.0, 10.000856, 9.999259 
2.8549495e+3, 2.4302046e+2, -605994.3, -698207.75, 115159.66, -0.0067291656, -0.060173996, -528054.4, 30341.594, 0.0, 10.000576, 9.999288 
2.8548363e+3, 2.5301978e+2, -558093.75, -614355.4, 112372.68, 0.021867665, 0.0040355227, -470384.34, -9980.225, 0.0, 10.000187, 9.999378 
2.854723e+3, 2.6301864e+2, -508805.16, -561167.94, 131077.39, 0.028401049, 0.029540166, -401320.0, -38904.26, 0.0, 9.999945, 9.999188 
2.8546095e+3, 2.7301666e+2, -386041.34, -442675.1, 112812.44, -0.0032885238, -0.024166118, -298046.2, -33611.64, 0.0, 10.000073, 9.99927 
2.8544953e+3, 2.830149e+2, -308365.0, -370865.7, 70576.08, -0.011885366, -0.055212352, -262430.06, -95978.484, 0.0, 10.000001, 9.999127 
2.8543806e+3, 2.930135e+2, -277011.88, -300063.5, 27930.1, 0.0074163163, -0.039667163, -258322.86, -189857.0, 0.0, 9.999521, 9.999171 
2.854265e+3, 3.0301255e+2, -234834.16, -199527.05, 50779.47, -0.060041163, 0.003492907, -163420.0, -163420.0, 0.0, 9.999017, 9.999431 
2.8541505e+3, 3.130124e+2, -246531.19, -150959.58, 41005.457, -0.06312671, 0.09111732, -135777.69, -135777.69, 0.0, 9.998466, 9.999701 
2.8540355e+3, 3.2300922e+2, -124981.055, -69261.54, -31504.578, 0.01605134, -0.09229862, -55065.33, -55065.33, 0.0, 9.999184, 9.999919 
2.8661934e+3, 1.3315289e+2, -1445890.4, -1705150.0, 60537.785, -0.11864512, -0.046087444, -1432451.3, 202643.58, 0.0, 10.002376, 9.998922 
2.86608e+3, 1.4315066e+2, -1343653.0, -1580092.1, 42196.848, -0.020892158, -0.10376546, -1336347.9, 200770.36, 0.0, 10.002295, 9.999146 
2.865965e+3, 1.5314975e+2, -1234781.5, -1462919.1, 77328.69, -0.083736815, -0.04976742, -1211041.0, 228086.47, 0.0, 10.002325, 9.999254 
2.8658512e+3, 1.6314861e+2, -1137752.9, -1360069.6, 94790.27, -0.07465908, -0.026317095, -1102824.4, 238314.3, 0.0, 10.0022955, 9.999302 
2.8657386e+3, 1.731469e+2, -1062525.9, -1265540.0, 110096.734, -0.038055234, -0.06361679, -1014283.25, 228871.58, 0.0, 10.002117, 9.999359 
2.8656256e+3, 1.8314539e+2, -1013481.3, -1210095.9, 108636.03, -0.037354216, -0.076309495, -965275.4, 179893.86, 0.0, 10.001861, 9.999193 
2.865513e+3, 1.9314425e+2, -980183.56, -1142111.1, 136084.25, -0.058761906, -0.04229358, -902799.44, 144381.69, 0.0, 10.001418, 9.999196 
2.8654006e+3, 2.0314287e+2, -927739.75, -1070109.1, 143981.63, -0.056444485, -0.031779803, -838307.0, 110887.88, 0.0, 10.001123, 9.99916 
2.8652886e+3, 2.13141e+2, -828436.0, -967468.2, 159563.28, -0.028598102, -0.06834324, -723903.44, 127309.04, 0.0, 10.001119, 9.999191 
2.865176e+3, 2.2313938e+2, -737694.6, -859247.7, 140611.06, -0.014201772, -0.08696687, -645287.4, 107940.76, 0.0, 10.001006, 9.999318 
2.8650624e+3, 2.3313819e+2, -685937.8, -774918.2, 133607.77, -0.027993299, -0.075976975, -589607.5, 65633.125, 0.0, 10.00065, 9.999395 
2.864949e+3, 2.431371e+2, -615847.06, -697239.2, 136556.81, -0.024036841, -0.053156465, -514051.25, 43200.8, 0.0, 10.000488, 9.999334 
2.864836e+3, 2.5313625e+2, -476589.97, -573386.1, 113771.13, 0.013032129, -0.007324676, -401350.5, 57911.0, 0.0, 10.000744, 9.999389 
2.8647226e+3, 2.63135e+2, -404895.72, -515461.9, 117917.29, 0.030590877, 0.002825564, -329945.53, 31328.9, 0.0, 10.000677, 9.999149 
2.8646088e+3, 2.731328e+2, -392326.56, -454383.8, 103628.84, 0.002190218, -0.060457233, -315180.72, -51885.93, 0.0, 10.000071, 9.999189 
2.8644943e+3, 2.8313097e+2, -366991.8, -400168.88, 70562.75, -0.011204468, -0.08912882, -311093.94, -145781.6, 0.0, 9.999612, 9.999109 
2.8643793e+3, 2.9312986e+2, -261731.69, -292953.78, 56222.78, -0.031715717, -0.050305933, -218992.88, -151668.02, 0.0, 9.999634, 9.999165 
2.8642634e+3, 3.03129e+2, -143855.4, -162298.02, 82790.79, -0.086551, 0.010149491, -69773.96, -69773.96, 0.0, 9.99967, 9.999375 
2.8641498e+3, 3.1312883e+2, -63500.266, -73635.33, 44042.543, 0.051940545, 0.103108555, -24234.68, -24234.68, 0.0, 9.999773, 9.999601 
2.8640336e+3, 3.2312533e+2, -120735.34, -61664.57, 7422.5435, -0.032418553, -0.11446701, -60746.168, -60746.168, 0.0, 9.999202, 9.999956 
2.8761947e+3, 1.33268e+2, -1382479.5, -1571958.9, 53467.99, -0.15721835, -0.054557502, -1368433.0, 265534.7, 0.0, 10.002373, 9.999834 
2.876082e+3, 1.4326622e+2, -1332823.9, -1546330.3, 39614.023, -0.0037050606, -0.13241665, -1325710.8, 210272.84, 0.0, 10.002247, 9.999401 
2.8759664e+3, 1.5326576e+2, -1232406.8, -1451227.5, 76766.21, -0.10161165, -0.045007043, -1208162.0, 229827.13, 0.0, 10.002294, 9.999351 
2.8758526e+3, 1.632647e+2, -1157796.8, -1394885.0, 88935.14, -0.10622332, -0.008592747, -1128144.5, 211855.88, 0.0, 10.002265, 9.999079 
2.87574e+3, 1.7326242e+2, -1086773.8, -1310920.1, 105244.08, -0.040778324, -0.07474246, -1045104.5, 196918.78, 0.0, 10.002093, 9.999061 
2.8756273e+3, 1.8326075e+2, -1001065.2, -1178298.9, 95711.17, -0.021175388, -0.09651362, -959245.94, 184793.92, 0.0, 10.001834, 9.999425 
2.875514e+3, 1.932602e+2, -955319.06, -1092195.6, 120196.69, -0.0432948, -0.036556777, -885442.3, 160602.64, 0.0, 10.001425, 9.999536 
2.8754014e+3, 2.0325916e+2, -903836.7, -1020941.75, 141084.11, -0.044114318, -0.02608488, -809637.4, 138416.97, 0.0, 10.001123, 9.999497 
2.875289e+3, 2.1325718e+2, -805641.9, -919783.75, 159824.45, -0.013928991, -0.10835201, -693004.44, 157067.77, 0.0, 10.001113, 9.999523 
2.8751764e+3, 2.2325574e+2, -729947.94, -838528.3, 128491.17, 0.001175129, -0.13391833, -644748.3, 107337.4, 0.0, 10.000984, 9.999472 
2.8750628e+3, 2.3325533e+2, -680121.56, -761842.1, 119658.34, -0.009161263, -0.054249134, -594539.44, 59552.027, 0.0, 10.000647, 9.999488 
2.874949e+3, 2.432544e+2, -629372.4, -726572.44, 143067.95, -0.020187484, -0.013882276, -526875.06, 29226.963, 0.0, 10.000492, 9.999132 
2.8748357e+3, 2.5325245e+2, -494480.34, -616175.6, 123112.55, -0.027365549, -0.049094837, -417999.44, 40122.367, 0.0, 10.000765, 9.999086 
2.8747222e+3, 2.6325074e+2, -401181.03, -516035.7, 97911.45, -0.028839875, -0.06520628, -345098.22, 15040.898, 0.0, 10.0007105, 9.99913 
2.874608e+3, 2.732494e+2, -393236.5, -453801.16, 76305.41, -0.012302998, -0.04984896, -341424.16, -79271.664, 0.0, 10.000058, 9.9992 
2.8744936e+3, 2.8324807e+2, -344353.7, -353296.7, 64783.36, -0.0005329167, -0.042251363, -283887.7, -119722.73, 0.0, 9.999608, 9.999434 
2.8743783e+3, 2.932468e+2, -233287.66, -238102.22, 62733.7, -0.03287264, -0.052680578, -172915.08, -106738.66, 0.0, 9.999647, 9.9995365 
2.8742623e+3, 3.0324546e+2, -166810.78, -218456.77, 86784.05, -0.08449985, -0.049398832, -102089.32, -102089.32, 0.0, 9.999709, 9.99897 
2.8741494e+3, 3.132439e+2, -95582.734, -159440.64, 51858.434, 0.10222518, -0.03427444, -66612.14, -66612.14, 0.0, 9.999864, 9.998966 
2.874032e+3, 3.2324335e+2, -106956.33, -12284.79, -46915.176, -0.053747177, 0.05560199, 7025.5864, 7025.5864, 0.0, 9.999118, 10.000333 
2.8861967e+3, 1.3338341e+2, -1404707.3, -1556792.5, 46493.77, -0.1280921, -0.048623305, -1391620.0, 241217.75, 0.0, 10.002102, 10.0000725 
2.8860828e+3, 1.4338233e+2, -1401603.0, -1554563.3, 25467.469, -0.05234257, -0.07842864, -1397474.1, 137372.28, 0.0, 10.001665, 9.999624 
2.8859678e+3, 1.5338132e+2, -1303314.5, -1464874.6, 70123.53, -0.09808619, -0.06653582, -1277123.9, 159732.7, 0.0, 10.0017185, 9.999534 
2.8858542e+3, 1.6338019e+2, -1222195.4, -1404920.5, 89175.766, -0.07598784, -0.0564106, -1185888.8, 152979.48, 0.0, 10.001733, 9.999267 
2.8857413e+3, 1.733787e+2, -1142394.5, -1318270.1, 132495.17, -0.033305865, -0.0586766, -1071310.3, 169573.13, 0.0, 10.001628, 9.999233 
2.885628e+3, 1.8337739e+2, -1038774.9, -1188277.9, 133967.89, -0.029004375, -0.058242925, -960114.56, 182782.19, 0.0, 10.001541, 9.9994955 
2.8855148e+3, 1.9337636e+2, -943169.56, -1080703.0, 137657.05, -0.052820984, -0.049000453, -858058.6, 186847.66, 0.0, 10.001486, 9.999584 
2.8854018e+3, 2.0337524e+2, -865030.2, -977545.8, 143281.81, -0.04760814, -0.05830819, -767357.44, 179558.9, 0.0, 10.001284, 9.99972 
2.8852895e+3, 2.1337381e+2, -834869.44, -905502.6, 155643.81, -0.012741422, -0.108916126, -710585.75, 138342.84, 0.0, 10.000792, 9.999777 
2.8851768e+3, 2.2337271e+2, -787541.56, -862592.9, 125459.64, 0.0052558766, -0.11747431, -694115.75, 56823.195, 0.0, 10.000575, 9.999503 
2.8850627e+3, 2.333722e+2, -648677.8, -747047.75, 108084.67, -0.0015093524, -0.047923155, -579113.25, 73832.69, 0.0, 10.000866, 9.999482 
2.884949e+3, 2.4337119e+2, -561162.06, -684251.4, 136637.31, -0.0101999575, -0.017845405, -472848.44, 82108.73, 0.0, 10.000921, 9.999215 
2.8848356e+3, 2.5336918e+2, -518195.53, -619313.6, 143086.67, -0.033199783, -0.06694901, -416998.16, 39978.906, 0.0, 10.000571, 9.999156 
2.884722e+3, 2.6336756e+2, -447638.34, -527510.9, 129699.8, -0.040175647, -0.08096532, -351865.56, 7127.8564, 0.0, 10.000356, 9.999216 
2.8846076e+3, 2.7336657e+2, -343265.66, -424556.6, 105106.42, -0.01682152, -0.033857454, -271219.44, -10215.834, 0.0, 10.000387, 9.999236 
2.884493e+3, 2.8336537e+2, -261215.31, -312655.66, 88557.625, 0.0022283765, -0.017710423, -194718.45, -31703.012, 0.0, 10.00018, 9.999434 
2.8843775e+3, 2.9336372e+2, -184030.19, -233267.67, 64923.594, -0.021334406, -0.05597613, -139214.39, -74184.29, 0.0, 10.000075, 9.999359 
2.8842616e+3, 3.0336204e+2, -127704.69, -215189.05, 65003.777, -0.07709157, -0.07031221, -93095.93, -93095.93, 0.0, 10.000054, 9.998825 
2.884148e+3, 3.1336012e+2, -137888.23, -222212.47, 59074.0, 0.0556158, -0.06595678, -107473.625, -107473.625, 0.0, 9.999769, 9.998589 
2.8840315e+3, 3.233598e+2, 73650.414, 66068.3, -77908.734, -0.018229384, 0.08544748, 147860.27, 147860.27, 0.0, 10.000385, 10.000281 
2.8961986e+3, 1.3349906e+2, -1430223.1, -1590800.4, 21425.705, -0.07019028, -0.033126738, -1427413.5, 204292.14, 0.0, 10.002029, 9.99987 
2.8960827e+3, 1.4349887e+2, -1392238.3, -1529477.6, 26400.508, -0.14542447, 0.030846307, -1387334.8, 146372.06, 0.0, 10.001643, 9.999807 
2.8959692e+3, 1.5349664e+2, -1285506.6, -1431255.6, 74048.54, -0.07651028, -0.10364113, -1254487.6, 181239.61, 0.0, 10.001731, 9.999759 
2.8958562e+3, 1.6349533e+2, -1186858.9, -1333760.3, 86936.95, -0.0024252343, -0.14504077, -1146498.1, 191241.06, 0.0, 10.00174, 9.999751 
2.8957424e+3, 1.7349562e+2, -1105394.0, -1240879.0, 126921.95, -0.02401785, -0.02421736, -1029267.7, 210469.0, 0.0, 10.001624, 9.999767 
2.8956288e+3, 1.8349497e+2, -1049053.0, -1205006.1, 129434.95, -0.06374808, 0.018034061, -975921.2, 165822.11, 0.0, 10.00152, 9.999391 
2.8955153e+3, 1.934927e+2, -959889.4, -1112526.6, 135564.78, -0.08429226, -0.07804947, -880637.0, 163128.6, 0.0, 10.001471, 9.999374 
2.8954023e+3, 2.0349118e+2, -860105.25, -961887.2, 127429.57, -0.071396306, -0.12039658, -773780.4, 171999.7, 0.0, 10.00126, 9.999839 
2.8952897e+3, 2.134909e+2, -820850.8, -878062.2, 136851.3, -0.024228431, -0.07247291, -709647.5, 138134.2, 0.0, 10.000798, 9.999962 
2.8951764e+3, 2.2349022e+2, -793809.9, -876706.7, 131649.4, -0.0027126765, -0.04665632, -697238.25, 52550.168, 0.0, 10.000578, 9.999405 
2.895063e+3, 2.3348877e+2, -656622.94, -764969.6, 119581.99, -0.009069217, -0.057612196, -579515.7, 72288.36, 0.0, 10.00087, 9.999358 
2.8949493e+3, 2.4348752e+2, -534107.8, -629217.7, 125798.65, -0.008881714, -0.06195215, -447175.7, 106641.55, 0.0, 10.000925, 9.999592 
2.894836e+3, 2.5348648e+2, -486637.1, -551849.0, 128926.766, -0.0015070898, -0.057926998, -386257.13, 69569.83, 0.0, 10.000563, 9.999624 
2.894722e+3, 2.6348546e+2, -434104.13, -501266.34, 131389.86, -0.0030543723, -0.04366852, -332071.88, 25765.084, 0.0, 10.000362, 9.9993925 
2.8946075e+3, 2.734844e+2, -338272.72, -419242.4, 103977.34, -0.013609364, -0.013136047, -267176.6, -7328.8154, 0.0, 10.000405, 9.999264 
2.8944921e+3, 2.8348285e+2, -284626.7, -373887.7, 73773.66, -0.006931168, -0.016810033, -243034.03, -81170.17, 0.0, 10.00023, 9.998992 
2.8943768e+3, 2.9348043e+2, -244926.8, -357701.06, 69865.66, 0.0030937796, -0.06224709, -211532.42, -147644.44, 0.0, 10.000076, 9.998497 
2.894261e+3, 3.0347866e+2, -107368.15, -169237.77, 51921.26, -0.09506167, -0.053992767, -77864.73, -77864.73, 0.0, 10.000044, 9.999142 
2.8941455e+3, 3.1347734e+2, -141288.25, -211682.14, 44445.71, -0.10856435, -0.020501133, -119790.88, -119790.88, 0.0, 9.999701, 9.998693 
2.8940326e+3, 3.234728e+2, 18413.285, -72006.89, 15565.604, 0.123019494, -0.22003242, 21017.84, 21017.84, 0.0, 10.000482, 9.999292 
2.9061997e+3, 1.3361493e+2, -1542882.6, -1684297.8, 27835.691, -0.050977714, -0.041198473, -1537600.8, 92968.305, 0.0, 10.001417, 9.999527 
2.9060835e+3, 1.4361437e+2, -1437225.4, -1537298.1, 52087.56, -0.15802094, -0.00085534464, -1415034.8, 117541.15, 0.0, 10.001271, 9.999934 
2.9059702e+3, 1.536129e+2, -1294899.5, -1414948.0, 99504.93, -0.07248884, -0.07697653, -1238716.5, 195872.36, 0.0, 10.001575, 9.999946 
2.9058573e+3, 1.6361187e+2, -1189585.1, -1320374.6, 88739.74, 0.005632354, -0.10441597, -1144747.4, 191850.4, 0.0, 10.0016575, 9.999883 
2.905743e+3, 1.7361178e+2, -1130674.3, -1237359.4, 101353.18, -0.04030071, -0.03642673, -1069483.5, 169114.92, 0.0, 10.001383, 9.9999075 
2.9056293e+3, 1.8361107e+2, -1087095.4, -1204062.5, 102139.41, -0.08095962, -0.01692615, -1027881.06, 112724.15, 0.0, 10.001174, 9.999566 
2.905516e+3, 1.936092e+2, -1005777.9, -1115795.3, 132117.97, -0.06640525, -0.08945979, -917674.3, 124949.36, 0.0, 10.001072, 9.999545 
2.905403e+3, 2.0360798e+2, -889065.75, -972286.25, 132751.16, -0.04248744, -0.113328874, -791556.4, 153079.14, 0.0, 10.001041, 9.999873 
2.9052898e+3, 2.1360785e+2, -772457.94, -851924.0, 128983.39, -0.023396239, -0.051813886, -677226.44, 169409.5, 0.0, 10.001117, 9.999989 
2.9051766e+3, 2.236072e+2, -709739.06, -826421.75, 132036.03, -0.015049134, -0.027676826, -623729.4, 124912.87, 0.0, 10.001112, 9.999494 
2.9050633e+3, 2.3360553e+2, -635205.56, -740331.44, 138723.67, -0.021173557, -0.07227261, -539420.5, 111238.87, 0.0, 10.000955, 9.999487 
2.9049498e+3, 2.4360429e+2, -557015.9, -620543.3, 135091.69, -0.015035577, -0.08862386, -450003.9, 102668.055, 0.0, 10.000686, 9.999765 
2.9048356e+3, 2.5360373e+2, -508993.0, -534196.3, 115618.15, 0.002630788, -0.06009604, -405291.78, 49385.43, 0.0, 10.000289, 9.999876 
2.9047218e+3, 2.6360303e+2, -454499.78, -479681.22, 130465.72, 0.002880116, -0.038422104, -336018.66, 20665.184, 0.0, 10.000089, 9.999672 
2.904607e+3, 2.7360207e+2, -326153.75, -371597.4, 119975.85, -0.020550577, -0.03259899, -226767.08, 31926.523, 0.0, 10.000312, 9.999633 
2.904492e+3, 2.8360075e+2, -244835.58, -322752.34, 116585.17, 0.00252955, -0.045060515, -160871.8, -164.53531, 0.0, 10.000382, 9.999261 
2.904376e+3, 2.9359892e+2, -334535.97, -334495.5, 158746.13, 0.018392544, -0.069532186, -175769.61, -113043.695, 0.0, 9.999186, 9.999083 
2.9162005e+3, 1.3373095e+2, -1569805.6, -1741900.0, 8424.737, -0.056711156, -0.06566653, -1569394.1, 60035.81, 0.0, 10.001431, 9.999122 
2.9160845e+3, 1.4372922e+2, -1431066.6, -1523526.5, 64916.355, -0.12280597, -0.122498535, -1397601.3, 133848.63, 0.0, 10.001268, 10.000029 
2.915971e+3, 1.5372983e+2, -1288667.3, -1395437.9, 111257.33, -0.08659476, -0.0052268147, -1218650.0, 214793.89, 0.0, 10.001545, 10.000095 
2.915858e+3, 1.6372938e+2, -1207335.3, -1344611.8, 81525.48, -0.038259935, 0.023588696, -1169401.4, 166046.36, 0.0, 10.001602, 9.999743 
2.9157433e+3, 1.7372736e+2, -1145946.5, -1262846.4, 93114.54, -0.075039126, -0.08588048, -1094456.9, 143009.67, 0.0, 10.001354, 9.999747 
2.9156297e+3, 1.8372606e+2, -1061849.6, -1148149.5, 99348.766, -0.08625652, -0.13242032, -996684.8, 142793.63, 0.0, 10.001159, 9.999957 
2.915517e+3, 1.9372587e+2, -971393.06, -1046214.2, 127987.805, -0.009800714, -0.08388629, -875460.4, 166019.92, 0.0, 10.001079, 10.00002 
2.915404e+3, 2.0372544e+2, -894134.75, -982660.6, 133647.34, 0.026045179, -0.0520615, -797611.25, 145872.9, 0.0, 10.00104, 9.999803 
2.9152903e+3, 2.1372464e+2, -781391.75, -870499.3, 131040.83, -0.016249966, -0.046173383, -687537.7, 157953.6, 0.0, 10.001116, 9.999863 
2.9151767e+3, 2.237237e+2, -693484.3, -788260.3, 126830.69, -0.04255923, -0.05571122, -605477.94, 142022.08, 0.0, 10.001093, 9.999766 
2.9150632e+3, 2.3372246e+2, -608861.94, -684891.2, 132141.56, -0.037298538, -0.09150279, -509375.63, 140136.31, 0.0, 10.00095, 9.999871 
2.9149494e+3, 2.4372149e+2, -560106.0, -628053.8, 120544.695, -0.032715976, -0.10166177, -468839.13, 82682.54, 0.0, 10.00069, 9.999711 
2.914835e+3, 2.5372088e+2, -510910.75, -535287.06, 99751.6, -0.029180195, -0.07356591, -422605.44, 30922.53, 0.0, 10.0002775, 9.999872 
2.9147208e+3, 2.6372018e+2, -425211.38, -426063.25, 133410.06, -0.037891276, -0.06708589, -292226.56, 63308.17, 0.0, 10.0001135, 10.000031 
2.9146063e+3, 2.737194e+2, -274694.94, -271932.9, 127107.516, -0.043938532, -0.098713055, -146198.9, 111343.53, 0.0, 10.000336, 10.000311 
2.914492e+3, 2.8371894e+2, -170583.36, -171358.94, 110771.55, 0.0066108326, -0.105807684, -60198.918, 99347.2, 0.0, 10.000403, 10.000291 
2.9143748e+3, 2.9371923e+2, -185006.56, -26740.041, 73292.664, 0.025430119, -0.0748449, 1987.1968, 63528.355, 0.0, 9.999206, 10.001188 
2.926201e+3, 1.3384715e+2, -1528058.9, -1667041.3, -21313.5, -0.08146525, -0.053263575, -1524863.9, 103427.98, 0.0, 10.00148, 9.999611 
2.9260853e+3, 1.4384551e+2, -1459949.4, -1537279.0, 83380.91, -0.095049724, -0.12722829, -1406704.8, 123604.4, 0.0, 10.001066, 10.000033 
2.9259714e+3, 1.538462e+2, -1373705.0, -1442342.5, 117081.5, -0.099596255, 0.0011542755, -1286016.3, 146287.3, 0.0, 10.000986, 10.000045 
2.9258582e+3, 1.6384582e+2, -1305681.0, -1385495.3, 79763.51, -0.060098007, 0.037094444, -1256398.5, 77908.695, 0.0, 10.000895, 9.999806 
2.925744e+3, 1.738438e+2, -1212241.6, -1285910.8, 104784.28, -0.05852532, -0.07985304, -1138006.3, 98319.48, 0.0, 10.000856, 9.999831 
2.9256305e+3, 1.8384257e+2, -1096837.5, -1163411.0, 116415.48, -0.058266364, -0.12490035, -1009043.44, 129293.48, 0.0, 10.000904, 9.999977 
2.9255173e+3, 1.938426e+2, -968610.3, -1042945.3, 116045.38, -0.012091043, -0.055355888, -883925.6, 156411.06, 0.0, 10.001086, 10.00004 
2.9254046e+3, 2.0384215e+2, -875759.06, -971241.7, 106628.1, 0.014352939, -0.028698398, -806672.4, 135668.17, 0.0, 10.001153, 9.999828 
2.9252908e+3, 2.1384089e+2, -795407.75, -874529.8, 112693.02, -0.015319633, -0.07230861, -715533.5, 128818.1, 0.0, 10.001003, 9.999889 
2.9251772e+3, 2.2383988e+2, -732537.6, -793276.1, 104154.55, -0.034561343, -0.0951965, -654415.1, 91945.555, 0.0, 10.000761, 9.999893 
2.9250634e+3, 2.3383921e+2, -679029.1, -696105.25, 92632.93, -0.030183569, -0.091438845, -594541.6, 53825.52, 0.0, 10.000367, 10.000076 
2.9249492e+3, 2.4383858e+2, -612054.5, -633168.4, 89603.766, -0.026018031, -0.088812694, -532387.9, 17985.463, 0.0, 10.000241, 9.999896 
2.9248348e+3, 2.5383788e+2, -452188.22, -478357.47, 89220.305, -0.025596146, -0.08988124, -375098.2, 77281.43, 0.0, 10.00055, 10.000136 
2.9247203e+3, 2.6383728e+2, -376354.34, -385419.5, 123718.69, -0.03874623, -0.09848536, -257085.25, 97300.16, 0.0, 10.000365, 10.000195 
2.9246056e+3, 2.738368e+2, -368655.44, -283018.38, 90050.97, -0.05883069, -0.12414664, -226124.3, 30266.494, 0.0, 9.999533, 10.000626 
2.924491e+3, 2.8383675e+2, -291405.9, -176827.47, 60252.32, 0.0027138907, -0.13099238, -150975.88, 7414.2954, 0.0, 9.999324, 10.00079 
2.924374e+3, 2.9383752e+2, 73208.43, 150375.8, -92431.34, 0.04174715, -0.10706858, 211953.25, 272333.03, 0.0, 10.000722, 10.0016985 
2.9362014e+3, 1.3396354e+2, -1470974.8, -1521355.6, -45391.543, -0.12169344, -0.014538283, -1444252.3, 182901.52, 0.0, 10.0013685, 10.000662 
2.936086e+3, 1.4396277e+2, -1468818.0, -1551972.0, 80058.086, -0.074269935, -0.058341473, -1420184.4, 108974.69, 0.0, 10.001052, 9.999939 
2.9359716e+3, 1.5396212e+2, -1387466.4, -1471064.0, 112101.625, -0.11296326, -0.042238243, -1309624.5, 121542.41, 0.0, 10.000985, 9.999847 
2.9358584e+3, 1.639615e+2, -1290690.5, -1355670.3, 76151.64, -0.0686077, -0.029395087, -1240387.5, 92785.9, 0.0, 10.0009, 10.000009 
2.9357448e+3, 1.7396088e+2, -1190906.6, -1247156.5, 101268.04, -0.0058193626, -0.03126262, -1113930.5, 121247.945, 0.0, 10.000879, 10.000086 
2.935631e+3, 1.8396017e+2, -1114724.5, -1204431.0, 120144.664, -0.008562606, -0.025024686, -1031333.56, 105851.17, 0.0, 10.00092, 9.999688 
2.9355174e+3, 1.9395931e+2, -992270.7, -1092748.8, 122113.35, -0.06767841, -0.010597873, -910465.7, 128727.78, 0.0, 10.001087, 9.999698 
2.9354042e+3, 2.0395818e+2, -870619.0, -954826.4, 102621.31, -0.07274931, -0.039556418, -801800.0, 139403.7, 0.0, 10.001128, 9.999953 
2.935291e+3, 2.1395664e+2, -785190.06, -849642.6, 105935.01, -0.017687326, -0.12910399, -706688.0, 136528.44, 0.0, 10.000987, 10.00007 
2.9351777e+3, 2.2395575e+2, -736358.75, -796738.94, 90486.805, 0.0052904803, -0.147499, -671158.56, 74065.57, 0.0, 10.000741, 9.999879 
2.9350632e+3, 2.3395585e+2, -680347.8, -695089.5, 76722.98, -0.005520944, -0.068475, -610642.44, 36582.188, 0.0, 10.000351, 10.000091 
2.934949e+3, 2.4395558e+2, -580028.6, -569098.75, 98293.68, -0.0024834832, -0.047109418, -476118.2, 73108.78, 0.0, 10.000248, 10.000336 
2.9348353e+3, 2.539548e+2, -409017.63, -396453.97, 101067.87, 0.015891796, -0.109400555, -301472.9, 149759.2, 0.0, 10.000579, 10.000689 
2.9347202e+3, 2.6395437e+2, -372321.7, -385632.72, 95329.086, -0.008006221, -0.1296958, -283416.1, 69819.44, 0.0, 10.000402, 10.0001745 
2.9346043e+3, 2.7395436e+2, -378156.25, -297837.4, 55866.887, -0.07131429, -0.09879537, -269193.56, -13955.893, 0.0, 9.999515, 10.000528 
2.9344893e+3, 2.839541e+2, -292509.13, -201795.33, 82039.445, -0.03246285, -0.11263731, -153409.39, 3831.3752, 0.0, 9.999407, 10.0005865 
2.9343742e+3, 2.9395396e+2, 29749.02, 35985.5, -23866.729, 0.03655124, -0.12378272, 56936.832, 116177.77, 0.0, 10.000823, 10.000864 
2.9462016e+3, 1.340796e+2, -1575942.5, -1558797.8, -49066.516, -0.13839416, -0.016721493, -1517560.4, 108456.16, 0.0, 10.00058, 10.000793 
2.9460865e+3, 1.440792e+2, -1509092.6, -1574618.4, 55937.28, -0.03720597, -0.029358147, -1477029.6, 50988.05, 0.0, 10.000788, 9.999911 
2.945972e+3, 1.5407792e+2, -1419536.9, -1493669.1, 90533.32, -0.08549054, -0.07088071, -1358775.8, 71255.67, 0.0, 10.0007925, 9.999787 
2.9458585e+3, 1.6407704e+2, -1302994.5, -1366392.4, 56180.734, -0.051284898, -0.078547366, -1270186.9, 61853.72, 0.0, 10.000833, 9.9999695 
2.945745e+3, 1.7407686e+2, -1168414.5, -1236952.1, 67436.4, 0.0009664692, -0.03488407, -1127039.3, 107002.5, 0.0, 10.001032, 10.000086 
2.9456314e+3, 1.8407626e+2, -1093194.5, -1195818.3, 83451.836, -0.007079581, -0.018679867, -1046541.5, 89505.59, 0.0, 10.001072, 9.999678 
2.945518e+3, 1.9407499e+2, -1016710.44, -1110510.0, 103734.12, -0.060682986, -0.043927036, -949766.7, 88292.8, 0.0, 10.0009365, 9.999653 
2.9454046e+3, 2.0407383e+2, -923244.4, -983425.2, 83929.664, -0.06424043, -0.07140516, -864174.1, 75895.81, 0.0, 10.000769, 9.999935 
2.9452914e+3, 2.1407281e+2, -861339.9, -887151.3, 70621.85, -0.013077735, -0.1069764, -802454.2, 39624.277, 0.0, 10.000458, 10.000072 
2.9451776e+3, 2.240721e+2, -785065.0, -813432.8, 58091.668, 0.011479106, -0.11454156, -739450.75, 4634.13, 0.0, 10.000366, 9.99995 
2.945063e+3, 2.3407185e+2, -642985.44, -665941.56, 50490.043, 0.0026217136, -0.07955263, -602685.25, 43402.5, 0.0, 10.000547, 10.000201 
2.944949e+3, 2.4407156e+2, -539158.56, -530797.56, 73086.31, 0.0068980185, -0.075750336, -461772.3, 86317.516, 0.0, 10.000442, 10.000507 
2.9448348e+3, 2.5407118e+2, -464843.25, -402403.63, 52116.54, 0.01984715, -0.11985792, -372871.4, 77219.64, 0.0, 10.000096, 10.000884 
2.94472e+3, 2.6407108e+2, -424118.06, -400663.2, 23264.91, -0.0039753653, -0.12474113, -386337.06, -34245.8, 0.0, 9.999999, 10.00027 
2.9446036e+3, 2.740712e+2, -266757.88, -248157.28, -4820.616, -0.05954646, -0.082420655, -246982.19, 7109.8687, 0.0, 10.000281, 10.000511 
2.9444885e+3, 2.840706e+2, -160000.08, -162433.56, 57941.684, -0.025300557, -0.11757793, -103262.37, 52836.53, 0.0, 10.000418, 10.000365 
2.9443744e+3, 2.9407063e+2, -7961.976, -4564.317, -4579.018, 0.045488376, -0.0831114, -1379.149, 56718.953, 0.0, 10.000645, 10.000665 
2.9562014e+3, 1.3419533e+2, -1622770.0, -1626306.0, -46454.35, -0.14476456, -0.043333054, -1578050.0, 46830.85, 0.0, 10.000459, 10.000386 
2.9560873e+3, 1.4419505e+2, -1509560.1, -1571674.5, 57079.957, 0.0050597545, -0.022746265, -1475635.3, 51247.027, 0.0, 10.000773, 9.999939 
2.9559729e+3, 1.5419364e+2, -1418062.9, -1489714.3, 86517.61, -0.032351863, -0.08312631, -1360246.8, 68649.805, 0.0, 10.000788, 9.999818 
2.955859e+3, 1.6419247e+2, -1320965.8, -1399571.8, 60098.01, -0.018403692, -0.109224245, -1288460.0, 42448.418, 0.0, 10.000814, 9.999752 
2.9557455e+3, 1.74192e+2, -1183080.6, -1262835.0, 75915.914, -0.030968381, -0.0767851, -1137205.8, 95707.48, 0.0, 10.001012, 9.999918 
2.9556316e+3, 1.8419117e+2, -1082851.9, -1168467.0, 77614.22, -0.047134113, -0.08567549, -1037022.8, 97898.125, 0.0, 10.001047, 9.999877 
2.9555187e+3, 1.941898e+2, -1005105.2, -1082498.0, 97638.625, -0.00006392193, -0.13967785, -938774.4, 98158.6, 0.0, 10.00092, 9.999853 
2.9554054e+3, 2.0418924e+2, -937043.4, -1007131.8, 72977.09, 0.024305483, -0.11273496, -891132.3, 47805.97, 0.0, 10.000748, 9.9997835 
2.955291e+3, 2.1418947e+2, -872993.7, -911720.2, 56736.313, -0.008761574, -0.005691219, -832407.44, 8529.916, 0.0, 10.000457, 9.999905 
2.955177e+3, 2.2418883e+2, -773913.5, -788407.8, 64268.82, -0.025120787, -0.0038019891, -716484.5, 26458.85, 0.0, 10.000358, 10.000127 
2.955063e+3, 2.3418722e+2, -627880.3, -633499.44, 56100.492, -0.005570131, -0.12929262, -574519.06, 70437.69, 0.0, 10.000543, 10.000426 
2.9549488e+3, 2.4418652e+2, -542580.44, -540336.94, 58855.664, -0.0009817419, -0.17479947, -482592.34, 64369.543, 0.0, 10.000449, 10.00044 
2.954834e+3, 2.5418702e+2, -476159.0, -424255.97, 38233.47, -0.02157184, -0.11670874, -403998.4, 44957.87, 0.0, 10.000088, 10.00074 
2.954719e+3, 2.641874e+2, -404947.75, -363005.94, 30443.107, -0.035807036, -0.077557296, -347009.8, 3942.7285, 0.0, 10.000007, 10.000526 
2.9546037e+3, 2.7418736e+2, -247625.63, -221263.38, 14399.698, -0.02340855, -0.07748181, -214922.89, 38030.99, 0.0, 10.000338, 10.0006695 
2.9544887e+3, 2.8418642e+2, -155155.67, -178268.61, 54439.81, 0.0065272483, -0.14577511, -111059.25, 43903.55, 0.0, 10.00052, 10.000212 
2.954374e+3, 2.9418668e+2, 19905.164, 47530.523, 15091.412, 0.023991847, -0.07830661, 54176.113, 111135.74, 0.0, 10.000667, 10.001013 
2.9662013e+3, 1.3431022e+2, -1698929.8, -1654099.0, -59038.52, -0.09156831, -0.066625506, -1613363.8, 10390.128, 0.0, 9.999902, 10.000462 
2.9660866e+3, 1.4430995e+2, -1517038.4, -1572278.4, 23604.85, -0.037771355, -0.046353176, -1508325.8, 17429.813, 0.0, 10.000704, 9.999972 
2.9659727e+3, 1.5430905e+2, -1425954.6, -1479830.4, 47376.78, -0.0628996, -0.06670677, -1398392.9, 29371.346, 0.0, 10.00067, 9.999945 
2.9658592e+3, 1.6430832e+2, -1354357.4, -1408721.8, 39291.09, -0.034624185, -0.063938364, -1333762.4, -3990.8313, 0.0, 10.000548, 9.999822 
2.9657453e+3, 1.7430776e+2, -1239733.1, -1294890.5, 70097.984, -0.03792411, -0.037229892, -1191983.8, 39793.43, 0.0, 10.000635, 9.999885 
2.9656318e+3, 1.8430687e+2, -1137174.8, -1213181.3, 56146.69, -0.0365511, -0.04311696, -1107379.1, 26406.895, 0.0, 10.000741, 9.999724 
2.965519e+3, 1.9430545e+2, -1037181.6, -1104734.8, 52907.637, 0.016205998, -0.09537388, -1008188.2, 27611.193, 0.0, 10.00072, 9.999803 
2.965406e+3, 2.043046e+2, -942697.44, -1008045.25, 23078.684, 0.034455035, -0.09313921, -935368.75, 2438.973, 0.0, 10.000694, 9.999805 
2.965291e+3, 2.1430467e+2, -832976.3, -878930.1, 24207.03, -0.017172744, -0.01493611, -822577.8, 17230.645, 0.0, 10.000669, 10.0000305 
2.9651767e+3, 2.2430426e+2, -714947.56, -729002.3, 57561.973, -0.03095975, -0.00930506, -663985.56, 77826.28, 0.0, 10.000624, 10.000409 
2.965063e+3, 2.343031e+2, -616858.7, -607908.2, 48564.73, 0.011533116, -0.11290445, -563612.94, 80207.445, 0.0, 10.00052, 10.00062 
2.9649487e+3, 2.4430248e+2, -556054.5, -552283.3, 41509.14, 0.017736671, -0.16116267, -512616.97, 33207.875, 0.0, 10.000366, 10.000406 
2.9648334e+3, 2.5430262e+2, -457362.8, -436631.56, 21795.379, -0.027367325, -0.12679745, -422862.47, 24961.2, 0.0, 10.000293, 10.000566 
2.9647183e+3, 2.6430285e+2, -348769.3, -327561.88, 22661.178, -0.038575254, -0.095572464, -313146.25, 36675.26, 0.0, 10.000344, 10.000615 
2.964604e+3, 2.7430302e+2, -218687.69, -206377.7, -61.74921, 0.0021674742, -0.08163122, -206377.39, 45442.69, 0.0, 10.00053, 10.000682 
2.964489e+3, 2.8430223e+2, -177751.22, -174069.4, 19227.205, 0.020720052, -0.14720641, -156595.19, -2767.9148, 0.0, 10.000307, 10.000351 
2.9643732e+3, 2.943023e+2, -125657.99, 1831.3097, -1295.2489, -0.018760934, -0.09939241, 1844.4677, 57669.637, 0.0, 9.999596, 10.001217 
2.9762015e+3, 1.3442451e+2, -1710304.8, -1630451.9, -23858.82, -0.012565448, -0.09049416, -1623866.4, -1233.5114, 0.0, 9.999701, 10.000719 
2.9760858e+3, 1.4442404e+2, -1499842.5, -1561279.0, 14223.936, -0.13586366, -0.098752655, -1496709.1, 27927.271, 0.0, 10.0008135, 9.999994 
2.975972e+3, 1.5442404e+2, -1377360.5, -1433927.4, 27657.32, -0.14955877, -0.047079228, -1366085.4, 60550.395, 0.0, 10.000908, 10.000146 
2.9758584e+3, 1.644242e+2, -1299236.3, -1351259.0, 22170.94, -0.08945959, 0.015727952, -1291069.5, 37564.402, 0.0, 10.000796, 10.000095 
2.9757455e+3, 1.7442386e+2, -1216319.5, -1275834.1, 65382.316, -0.028242549, 0.05162377, -1174241.3, 56395.926, 0.0, 10.000764, 9.999952 
2.9756325e+3, 1.8442315e+2, -1161303.6, -1276619.1, 51575.21, 0.011855648, 0.0840068, -1141602.4, -8957.462, 0.0, 10.000799, 9.99926 
2.9755187e+3, 1.9442163e+2, -1048284.94, -1138724.0, 48991.92, -0.010874186, 0.056357108, -1026833.56, 7827.615, 0.0, 10.000768, 9.999545 
2.9754052e+3, 2.0441972e+2, -926775.44, -978981.06, 22322.45, -0.032596957, -0.040284835, -918532.25, 18147.951, 0.0, 10.000711, 9.999997 
2.9752907e+3, 2.1441841e+2, -803454.3, -816509.94, 23538.727, -0.03341174, -0.13684534, -785555.0, 53136.72, 0.0, 10.000663, 10.000462 
2.975177e+3, 2.2441855e+2, -693839.6, -676960.06, 54583.027, -0.0044964175, -0.12090509, -630168.2, 110521.1, 0.0, 10.000588, 10.000784 
2.9750633e+3, 2.3441967e+2, -605581.7, -582939.0, 44364.89, 0.051150255, -0.020260237, -548473.7, 94203.555, 0.0, 10.000511, 10.000796 
2.9749486e+3, 2.4441959e+2, -558633.7, -556425.7, 35854.0, 0.053142052, -0.025238495, -521658.7, 23018.734, 0.0, 10.0003605, 10.000381 
2.9748333e+3, 2.54418e+2, -471910.9, -469581.8, 22428.46, 0.0023017419, -0.15153632, -448287.7, -1594.7003, 0.0, 10.000305, 10.000332 
2.9747182e+3, 2.6441744e+2, -349612.53, -336469.7, 26882.11, -0.016266378, -0.1804816, -315367.47, 33330.824, 0.0, 10.000374, 10.00054 
2.9746035e+3, 2.7441826e+2, -222643.55, -219481.64, 9014.064, 0.007169366, -0.09346822, -211910.94, 38779.516, 0.0, 10.000549, 10.000585 
2.974488e+3, 2.8441817e+2, -142544.16, -101716.35, -10736.817, -0.0062876027, -0.11148858, -99064.984, 53626.02, 0.0, 10.000325, 10.000835 
2.9743716e+3, 2.9441777e+2, -141584.36, -17525.0, -16621.24, -0.06699023, -0.14838617, -15336.717, 39355.953, 0.0, 9.999566, 10.001085 
2.9861993e+3, 1.3453884e+2, -1696201.4, -1662570.8, 24310.664, -0.13758063, 0.035546646, -1649826.5, -28316.584, 0.0, 9.999945, 10.0004 
2.9860863e+3, 1.4453651e+2, -1429726.9, -1515723.3, -69222.69, -0.11122318, -0.15303923, -1391235.0, 132297.44, 0.0, 10.001248, 10.000098 
2.9859748e+3, 1.5453598e+2, -1288579.0, -1388453.6, -43409.66, 0.07044077, -0.16033542, -1272348.9, 153187.64, 0.0, 10.001522, 10.000155 
2.9858616e+3, 1.6453525e+2, -1181970.1, -1261331.3, -99126.984, 0.17247596, -0.1996782, -1114876.6, 212666.72, 0.0, 10.001481, 10.000371 
2.9857466e+3, 1.7453463e+2, -1132408.8, -1185095.6, -37844.004, 0.05647676, -0.2358926, -1112642.1, 116907.67, 0.0, 10.001148, 10.000377 
2.9856324e+3, 1.8453404e+2, -1056910.9, -1146386.5, 11508.335, -0.04556673, -0.24874517, -1055454.4, 76101.945, 0.0, 10.001198, 9.9999485 
2.9855192e+3, 1.9453408e+2, -959930.6, -1042287.94, 54475.813, 0.0018925036, -0.1765331, -932820.94, 100736.43, 0.0, 10.001157, 10.000014 
2.985406e+3, 2.0453425e+2, -863796.8, -914977.5, 58462.727, 0.055798586, -0.106410965, -825569.0, 109986.99, 0.0, 10.001005, 10.000296 
2.9852918e+3, 2.145336e+2, -822235.4, -821254.1, 32468.064, 0.061439153, -0.14556734, -789273.0, 48288.09, 0.0, 10.000513, 10.000505 
2.985177e+3, 2.2453348e+2, -809726.7, -748244.0, 28249.305, 0.04360795, -0.14640984, -737235.44, 2326.1655, 0.0, 9.999849, 10.000656 
2.9850626e+3, 2.3453464e+2, -691314.56, -616675.94, 13366.025, 0.02753421, -0.043814436, -614354.6, 27195.799, 0.0, 9.999889, 10.000865 
2.9849482e+3, 2.4453478e+2, -548624.5, -549022.0, 6496.3506, 0.02667542, -0.0315374, -542323.9, 1225.1489, 0.0, 10.000418, 10.000404 
2.984833e+3, 2.5453338e+2, -419708.7, -443941.44, 1076.7402, 0.024132334, -0.14067747, -419660.94, 25901.576, 0.0, 10.000658, 10.0003395 
2.9847184e+3, 2.6453292e+2, -318573.16, -309681.47, 20252.197, 0.0147656035, -0.16614139, -293392.88, 54173.996, 0.0, 10.000526, 10.000658 
2.9846033e+3, 2.7453366e+2, -253234.9, -225899.6, 18126.445, 0.0069961315, -0.09907601, -216865.42, 32694.164, 0.0, 10.000282, 10.000684 
2.9844874e+3, 2.8453392e+2, -134255.5, -83080.43, -19897.648, -0.023078805, -0.093332924, -76254.414, 75302.53, 0.0, 10.000313, 10.0009985 
2.9843712e+3, 2.9453304e+2, -15320.413, -22956.785, -49996.188, -0.046915088, -0.16703196, 31003.17, 84566.95, 0.0, 10.000652, 10.000612 
2.996199e+3, 1.3464849e+2, -1643450.8, -1641871.1, 15249.305, -0.09264227, -0.17140944, -1627391.3, -6958.783, 0.0, 10.00036, 10.000324 
2.996088e+3, 1.4464784e+2, -1316488.4, -1390539.0, -64817.01, -0.03065767, -0.23399825, -1278867.1, 243572.03, 0.0, 10.001721, 10.000729 
2.9959738e+3, 1.5464899e+2, -1542713.9, -1504741.3, 119042.03, -0.0926177, -0.094002835, -1403180.9, 21245.424, 0.0, 9.999703, 10.000257 
2.9958594e+3, 1.6464825e+2, -1580316.3, -1442199.4, 41458.855, -0.09788477, -0.12518294, -1430710.3, -104277.06, 0.0, 9.998629, 10.000539 
2.9957464e+3, 1.7464817e+2, -1418805.8, -1266864.5, 57606.152, 0.017685005, -0.15851343, -1247493.6, -19057.955, 0.0, 9.99887, 10.000947 
2.995632e+3, 1.8464924e+2, -1244460.4, -1084213.9, 42132.008, -0.10626812, -0.1087682, -1073811.8, 56613.617, 0.0, 9.999182, 10.001382 
2.99552e+3, 1.946496e+2, -1072824.8, -992163.2, 23483.936, 0.035853792, -0.12020781, -985824.25, 46597.055, 0.0, 9.999873, 10.001004 
2.9954064e+3, 2.0465015e+2, -983561.4, -958841.5, -23393.732, 0.07012569, -0.091581106, -944743.3, -10326.967, 0.0, 10.000077, 10.000463 
2.9952905e+3, 2.1464947e+2, -794757.44, -852493.3, -23822.014, -0.033792652, -0.113219626, -786197.5, 50226.6, 0.0, 10.000869, 10.000128 
2.9951757e+3, 2.2464886e+2, -686721.1, -761346.2, -27902.139, 0.0033451882, -0.104545675, -677442.3, 60988.45, 0.0, 10.000998, 10.000014 
2.9950616e+3, 2.3464848e+2, -723847.8, -638037.25, -48207.92, -0.005779566, -0.1348387, -616406.75, 24028.143, 0.0, 9.999686, 10.000816 
2.994947e+3, 2.4464811e+2, -537620.3, -531599.3, 1076.1503, -0.034432437, -0.17273775, -531412.75, 11025.977, 0.0, 10.000441, 10.00051 
2.9948336e+3, 2.54649e+2, -392903.75, -393108.38, 5178.9624, 0.041248076, -0.08274675, -387826.1, 56604.246, 0.0, 10.000681, 10.000672 
2.9947188e+3, 2.646495e+2, -300323.78, -270626.34, 9549.516, 0.055413008, -0.044424903, -267820.66, 78604.43, 0.0, 10.000514, 10.0009365 
2.994603e+3, 2.746492e+2, -233698.02, -193341.17, 16519.055, -0.010352573, -0.105843306, -187441.88, 60985.547, 0.0, 10.000303, 10.000904 
2.9944867e+3, 2.846493e+2, -167400.13, -128447.85, -11811.465, -0.052772034, -0.108868346, -125146.13, 25280.387, 0.0, 10.0002575, 10.0006895 
2.9943717e+3, 2.9464966e+2, -57134.395, -72395.71, -5295.7314, 0.022537977, -0.04305195, -55476.793, -3052.232, 0.0, 10.000561, 10.000287 
