coord_x,coord_y,stress_xx,stress_yy,tau_xy,velocity_x,velocity_y,stress_1,eps,damage,lx,ly
5.0011504e+0, 1.2576279e+2, -1406080.6, -1738832.1, -16156.078, -0.028013865, -0.046356842, -1405298.0, 302201.1, 0.002661235, 10.002795, 9.998483 
5.0016963e+0, 1.3575809e+2, -1514192.0, -1841738.5, 30288.47, 0.07562158, -0.30709633, -1511414.8, 98132.44, 0.0015827751, 10.0018425, 9.997557 
5.001401e+0, 1.4575714e+2, -1303167.9, -1464667.0, 73449.61, 0.055292513, -0.25928694, -1274760.0, 236792.27, 0.0007101352, 10.001661, 9.999552 
5.000505e+0, 1.557557e+2, -1156048.1, -1342489.8, 56042.816, -0.050958846, -0.3930202, -1140499.0, 273058.7, 0.00020845665, 10.001995, 9.999558 
5.000323e+0, 1.6575474e+2, -1054853.3, -1240952.8, 35044.645, -0.069567725, -0.44408637, -1048472.7, 267089.44, 0.000030560015, 10.002008, 9.9995775 
5.000672e+0, 1.7575382e+2, -996212.06, -1170442.5, 9526.22, -0.023060868, -0.51783025, -995692.75, 221876.28, 0.0000010193884, 10.001774, 9.999502 
5.000892e+0, 1.8575324e+2, -909936.44, -1082007.1, -7984.3306, 0.0013859296, -0.52355915, -909566.75, 210007.52, 0.0, 10.00172, 9.999459 
5.0009906e+0, 1.9575277e+2, -819223.75, -1015524.56, -45273.023, 0.008115799, -0.5378705, -809285.5, 212293.63, 0.0, 10.001787, 9.999215 
5.000641e+0, 2.0575203e+2, -867165.2, -1190659.4, -19032.71, -0.020651108, -0.433534, -866049.25, 57542.785, 0.0, 10.001662, 9.997396 
4.9999362e+0, 2.1575095e+2, -799744.25, -1093556.9, 45418.902, -0.07761561, -0.30884248, -792883.4, 32728.645, 0.0, 10.001391, 9.997522 
4.99999e+0, 2.2574992e+2, -615595.06, -711155.94, 35525.137, -0.04957076, -0.27715153, -603835.56, 123789.49, 0.0, 10.000939, 9.99969 
5.0006187e+0, 2.3574881e+2, -615044.5, -683314.3, -38745.906, 0.04178902, -0.38396764, -597541.9, 32092.322, 0.0, 10.000368, 9.999486 
5.000518e+0, 2.4574839e+2, -626981.3, -808889.44, -8496.234, 0.03317108, -0.29232216, -626585.3, -94944.086, 0.0, 10.000345, 9.997962 
4.9998912e+0, 2.5574827e+2, -471218.3, -685363.7, 51851.223, -0.050020188, -0.1226271, -459324.16, -25675.898, 0.0, 10.000751, 9.997944 
4.999949e+0, 2.6574743e+2, -336974.66, -448542.78, 40435.992, -0.030495975, -0.05522254, -323860.75, 11798.521, 0.000000019594776, 10.00048, 9.9990225 
5.000508e+0, 2.7574608e+2, -352887.38, -406533.9, -10416.037, 0.06403494, -0.12106783, -350936.0, -113263.016, 0.00000068486895, 9.999701, 9.999014 
5.0000554e+0, 2.857453e+2, -313068.63, -308912.25, -10822.688, 0.044700958, -0.1140938, -299970.03, -160290.75, 0.0000056407102, 9.999186, 9.999255 
4.9988204e+0, 2.9574427e+2, -254067.25, -224096.63, 4340.608, -0.06419496, -0.16869749, -223480.64, -181793.89, 0.00003698917, 9.998883, 9.999313 
4.9991518e+0, 3.057422e+2, -54667.066, 23952.559, 24849.18, -0.055168774, -0.36892784, 31148.047, 31148.047, 0.00018828975, 9.999372, 10.000448 
5.000635e+0, 3.1574425e+2, 25037.748, -47608.52, -6265.0405, 0.04166188, -0.22389336, 25574.088, 25574.088, 0.00054298295, 10.000356, 9.999492 
1.500342e+1, 1.2575988e+2, -1323979.5, -1538163.0, -69374.83, -0.08553882, -0.33762017, -1303472.1, 404053.78, 0.0025654268, 10.002683, 9.999926 
1.50051e+1, 1.3575956e+2, -1425508.8, -1645234.4, 2425.9517, 0.22742568, -0.28290018, -1425482.0, 184045.75, 0.001528762, 10.001802, 9.998933 
1.5004209e+1, 1.4575902e+2, -1328939.0, -1500179.8, 81915.01, 0.16823001, -0.24764736, -1296065.0, 215462.78, 0.0006838554, 10.001594, 9.999349 
1.5001513e+1, 1.5575539e+2, -1182681.5, -1381947.9, 73185.805, -0.15320335, -0.562289, -1158690.5, 254864.61, 0.00019662829, 10.001935, 9.999322 
1.5000989e+1, 1.6575444e+2, -1101355.9, -1319086.9, 21354.084, -0.20587388, -0.5744806, -1099281.4, 216281.31, 0.00002664921, 10.001937, 9.9990835 
1.5002045e+1, 1.7575526e+2, -1037979.8, -1244581.5, 6686.0396, -0.066898756, -0.41031697, -1037763.7, 179794.0, 0.00000066228677, 10.001722, 9.999027 
1.5002649e+1, 1.8575513e+2, -980364.9, -1204053.6, -9091.824, 0.0025527142, -0.30788702, -979996.0, 139567.13, 0.0, 10.001631, 9.998667 
1.5002975e+1, 1.9575422e+2, -871439.9, -1104272.4, -37240.145, 0.024893876, -0.277398, -865628.56, 155948.1, 0.0, 10.001709, 9.998649 
1.5001905e+1, 2.0575336e+2, -746456.94, -915826.2, -32877.652, -0.062459417, -0.26238915, -740298.7, 183288.28, 0.0, 10.001573, 9.999329 
1.4999793e+1, 2.1575248e+2, -699894.06, -859620.5, 40946.066, -0.23340312, -0.29312015, -690009.25, 135586.1, 0.0, 10.001289, 9.999179 
1.4999957e+1, 2.2575139e+2, -757808.25, -980740.25, 8279.217, -0.14867727, -0.24945717, -757501.2, -29891.59, 0.0, 10.000844, 9.997889 
1.5001832e+1, 2.3575012e+2, -735968.1, -908074.06, -51886.473, 0.124487035, -0.17773055, -721535.7, -91907.33, 0.0, 10.00027, 9.9979925 
1.5001564e+1, 2.4574903e+2, -511327.25, -551499.9, 1842.6399, 0.09993956, -0.18159905, -511242.9, 20396.447, 0.0, 10.000277, 9.999769 
1.499967e+1, 2.557479e+2, -370558.03, -450440.44, 68865.336, -0.1504555, -0.28327268, -330889.34, 102756.414, 0.0, 10.000645, 9.999613 
1.4999849e+1, 2.6574647e+2, -429788.44, -622686.06, 5391.1455, -0.09188571, -0.29664508, -429637.88, -93976.44, 0.0000000045160005, 10.00041, 9.997865 
1.500154e+1, 2.757448e+2, -442491.2, -570553.8, -35155.586, 0.19325675, -0.26212108, -433475.1, -195791.44, 0.0000004592844, 9.999612, 9.997937 
1.5000144e+1, 2.8574464e+2, -291377.4, -244472.17, -26642.836, 0.1323603, -0.16618593, -232430.2, -92744.664, 0.00000436483, 9.999112, 9.999738 
1.4996462e+1, 2.957451e+2, -235157.81, -159342.19, 4396.3486, -0.19365108, -0.1062214, -159088.11, -117411.07, 0.000032381515, 9.998777, 9.999816 
1.4997461e+1, 3.0574262e+2, -106448.65, -58230.625, 59772.39, -0.16406387, -0.34702626, -17888.234, -17888.234, 0.00017490126, 9.99929, 9.9999275 
1.5001883e+1, 3.1574285e+2, -1112.1489, -54313.523, 46858.3, 0.124168, -0.3069386, 26169.416, 26169.416, 0.0005127624, 10.000176, 9.999537 
2.5005087e+1, 1.2575959e+2, -1535202.9, -1577144.5, -25639.88, -0.096513376, -0.39804867, -1523050.0, 184476.86, 0.0024531346, 10.000971, 10.000469 
2.500718e+1, 1.3576013e+2, -1369074.5, -1567151.8, -31325.287, 0.24994135, -0.3139424, -1364238.6, 245280.39, 0.001461298, 10.001984, 9.999379 
2.5006285e+1, 1.4576003e+2, -1226060.0, -1454416.8, 43466.605, 0.18376574, -0.2528629, -1218066.1, 293449.38, 0.0006489441, 10.002326, 9.999298 
2.5003457e+1, 1.5575682e+2, -1160321.6, -1385260.9, 39546.977, -0.16006394, -0.52350265, -1153571.4, 259969.84, 0.0001814002, 10.002156, 9.999184 
2.50028e+1, 1.6575573e+2, -1149999.8, -1403513.8, -5404.5605, -0.21158169, -0.5127007, -1149884.6, 165668.14, 0.000022322774, 10.001876, 9.99852 
2.500379e+1, 1.7575604e+2, -1115381.4, -1336570.3, -29910.469, -0.047831398, -0.35096216, -1111408.0, 106147.49, 0.00000035252413, 10.001448, 9.998513 
2.5004026e+1, 1.857558e+2, -1063427.3, -1236273.5, 7835.203, 0.010959768, -0.23852742, -1063072.8, 56489.516, 0.0, 10.001019, 9.998739 
2.5003788e+1, 1.9575514e+2, -1035330.44, -1170528.8, 42400.664, -0.0029996282, -0.19499284, -1023133.25, -1561.3271, 0.0, 10.000533, 9.998752 
2.5002846e+1, 2.0575416e+2, -850629.7, -947772.4, 30868.482, -0.08347431, -0.20663248, -841650.75, 81931.33, 0.0, 10.000773, 9.999494 
2.5001368e+1, 2.1575283e+2, -662116.0, -828972.94, -33529.973, -0.2119114, -0.30530226, -655630.25, 169963.47, 0.0, 10.00149, 9.999292 
2.5001487e+1, 2.2575186e+2, -633529.94, -937353.2, -52477.16, -0.12305763, -0.24667446, -624721.3, 102885.45, 0.0, 10.001753, 9.997748 
2.5002825e+1, 2.3575118e+2, -544895.7, -833309.44, 7666.7813, 0.13062765, -0.107412554, -544692.0, 84928.77, 0.0, 10.001642, 9.997844 
2.5001982e+1, 2.4575007e+2, -423248.1, -485710.44, 55094.9, 0.090985246, -0.11289183, -391148.13, 140483.1, 0.0, 10.000786, 9.999968 
2.499949e+1, 2.5574854e+2, -540775.5, -512226.06, -5114.0205, -0.16722894, -0.27982238, -511337.63, -77697.48, 0.0, 9.999391, 9.999785 
2.4999447e+1, 2.6574683e+2, -552546.1, -668631.44, -25626.582, -0.1259489, -0.33113986, -547140.6, -211484.03, 0.00000000030772893, 9.9995165, 9.997974 
2.5001252e+1, 2.7574506e+2, -265857.88, -476844.25, 22308.068, 0.14689934, -0.32084432, -263524.97, -25847.121, 0.000000332103, 10.000797, 9.998001 
2.4999736e+1, 2.8574488e+2, -73520.69, -197261.7, 16813.865, 0.09654927, -0.20352803, -71276.72, 68404.27, 0.000003312623, 10.000853, 9.999224 
2.4995774e+1, 2.957455e+2, -101277.195, -145907.13, -33651.9, -0.19352809, -0.08680054, -83213.85, -41539.145, 0.000027299557, 9.999925, 9.999352 
2.4996689e+1, 3.0574295e+2, -176037.78, -99911.99, 45004.195, -0.14396542, -0.30456665, -79032.87, -79032.87, 0.00015832737, 9.998857, 9.999851 
2.5000986e+1, 3.1574318e+2, -310284.4, -113979.98, 49371.758, 0.15006858, -0.26928124, -102262.14, -102262.14, 0.0004751241, 9.997684, 10.000322 
3.5006043e+1, 1.2576184e+2, -1568606.1, -1629756.4, -9716.045, -0.12762372, -0.2565911, -1567099.5, 140402.9, 0.0023328552, 10.000912, 10.000135 
3.5007763e+1, 1.3575979e+2, -1387115.9, -1600374.9, 8172.0815, 0.092802554, -0.3960361, -1386803.1, 222718.06, 0.001385082, 10.001983, 9.9991455 
3.500748e+1, 1.4576009e+2, -1217221.3, -1430280.8, 31600.646, 0.05315043, -0.2914451, -1212633.1, 298883.47, 0.00060841354, 10.002298, 9.999479 
3.5006168e+1, 1.5575998e+2, -1150246.9, -1359676.3, 38907.2, -0.122500785, -0.2707782, -1143252.4, 270263.8, 0.00016439817, 10.002141, 9.999365 
3.5005677e+1, 1.6575861e+2, -1190976.9, -1483531.6, -27137.865, -0.12806764, -0.26964784, -1188480.8, 127051.6, 0.000017966355, 10.00185, 9.997989 
3.5005772e+1, 1.75756e+2, -1146908.8, -1400204.1, -41012.223, -0.010164109, -0.34133235, -1140433.9, 77130.03, 0.00000014192928, 10.001437, 9.998085 
3.5004893e+1, 1.8575512e+2, -994755.0, -1080983.9, -14702.645, -0.018122345, -0.33094478, -992317.0, 127256.02, 0.0, 10.000968, 9.999827 
3.500328e+1, 1.957555e+2, -979147.8, -1042806.75, 33222.895, -0.12255843, -0.28879976, -964967.75, 56597.87, 0.0, 10.0004835, 9.999654 
3.500331e+1, 2.0575435e+2, -965912.56, -1166690.3, 51833.324, -0.1254624, -0.28006026, -953320.8, -29742.479, 0.0, 10.000693, 9.998029 
3.5004523e+1, 2.1575193e+2, -758276.25, -1009696.7, -2840.0688, -0.059147276, -0.33754587, -758244.2, 67363.12, 0.0, 10.001413, 9.998087 
3.5004467e+1, 2.257513e+2, -530902.1, -702778.6, -61260.64, -0.013706221, -0.27926314, -511302.47, 216314.16, 0.0, 10.001666, 9.9994 
3.5003436e+1, 2.35752e+2, -455818.7, -627132.94, 5777.645, 0.014266277, -0.16082358, -455624.03, 173986.94, 0.0, 10.001556, 9.9993 
3.5001644e+1, 2.4575159e+2, -528165.0, -690206.9, -3461.6775, -0.03425987, -0.09143838, -528091.06, 3525.3696, 0.0, 10.000728, 9.998592 
3.499923e+1, 2.5575027e+2, -634395.1, -685838.9, -45618.336, -0.14667556, -0.100825034, -607746.7, -174115.53, 0.0, 9.999306, 9.998632 
3.4998676e+1, 2.6574868e+2, -453837.7, -457369.3, 17251.99, -0.1677205, -0.16359341, -438261.38, -102617.21, 0.00000000006499392, 9.999484, 9.999444 
3.4999466e+1, 2.7574694e+2, -184696.05, -294014.6, 70535.53, -0.12682927, -0.29168084, -150120.25, 87535.195, 0.0000002836276, 10.000732, 9.99929 
3.499869e+1, 2.8574607e+2, -181857.98, -406180.16, -24243.256, -0.1063237, -0.23009863, -179267.84, -39602.016, 0.000002745044, 10.000793, 9.997815 
3.4996614e+1, 2.9574534e+2, -202610.38, -337689.6, -64059.785, -0.11664103, -0.10215508, -177062.63, -135382.8, 0.000022379118, 9.999851, 9.99807 
3.499667e+1, 3.057431e+2, -144390.55, -33126.473, -2720.7537, -0.044446565, -0.2577775, -33059.984, -33059.984, 0.00013928866, 9.99884, 10.00032 
3.4997693e+1, 3.1574515e+2, -205301.16, 108781.12, 20005.48, 0.023063876, -0.08628099, 110050.234, 110050.234, 0.00043208257, 9.997646, 10.001877 
4.500837e+1, 1.2576231e+2, -1433383.5, -1572921.4, 9865.986, -0.020948853, -0.2994398, -1432689.4, 274805.75, 0.0022111118, 10.001896, 10.000047 
4.5008418e+1, 1.3576004e+2, -1599885.1, -1716755.8, 17712.664, 0.039248463, -0.44524127, -1597259.6, 12257.754, 0.0013064536, 10.000583, 9.999026 
4.5008102e+1, 1.4576043e+2, -1483686.4, -1552546.9, 69708.305, -0.013704025, -0.32817775, -1440369.0, 71145.19, 0.00056747237, 10.000438, 9.999545 
4.5008123e+1, 1.5576126e+2, -1286164.9, -1418862.4, 50865.016, -0.08646247, -0.2172352, -1268910.9, 144596.83, 0.00014805637, 10.001171, 9.999438 
4.500762e+1, 1.6576031e+2, -1249085.4, -1467002.5, 7730.03, -0.083870284, -0.19814472, -1248811.5, 66708.3, 0.000013959289, 10.001264, 9.998385 
4.5006728e+1, 1.7575774e+2, -1199954.4, -1386131.8, 53176.62, -0.026561921, -0.30554596, -1185836.4, 31712.355, 0.000000037538413, 10.000896, 9.998446 
4.5005676e+1, 1.8575661e+2, -967105.7, -1076940.4, 89291.02, -0.042951144, -0.3316302, -917195.5, 202363.7, 0.0, 10.001194, 9.999754 
4.5004466e+1, 1.9575664e+2, -779515.25, -956865.7, 40770.414, -0.117670774, -0.3163112, -770591.7, 250963.31, 0.0, 10.001902, 9.999563 
4.500469e+1, 2.0575546e+2, -843346.7, -1137672.6, 77056.33, -0.10026016, -0.2918249, -824393.44, 99175.164, 0.0, 10.00166, 9.997763 
4.5006025e+1, 2.1575327e+2, -881029.7, -1092887.6, 102267.5, -0.007780491, -0.30171442, -839718.75, -14122.219, 0.0, 10.00067, 9.997876 
4.500553e+1, 2.2575256e+2, -689337.0, -722100.56, 50440.133, -0.0021355879, -0.26642764, -652685.1, 74920.195, 0.0, 10.0003395, 9.999906 
4.5003644e+1, 2.3575297e+2, -579577.06, -638929.1, 20077.418, -0.0631184, -0.22665256, -573423.4, 56176.414, 0.0, 10.0005045, 9.999727 
4.5001888e+1, 2.4575274e+2, -486678.3, -708591.2, 21895.977, -0.10074633, -0.14156643, -484538.5, 47065.52, 0.0, 10.001188, 9.99824 
4.5000213e+1, 2.5575182e+2, -224922.81, -528550.7, 45700.824, -0.12368204, -0.06839049, -218193.27, 215423.84, 0.0, 10.002286, 9.998281 
4.4999397e+1, 2.6575035e+2, -133229.27, -277849.06, 88961.07, -0.14507394, -0.119041, -90897.14, 244732.19, 0.00000000016705606, 10.001587, 9.999661 
4.4999236e+1, 2.7574843e+2, -339337.97, -350636.16, 38044.117, -0.16119182, -0.28398877, -306525.8, -68885.66, 0.00000025698242, 9.999594, 9.999454 
4.4998482e+1, 2.857473e+2, -428063.56, -544667.6, -22769.916, -0.12194988, -0.24749032, -423774.88, -284122.0, 0.0000023157831, 9.999197, 9.997632 
4.499716e+1, 2.9574627e+2, -192120.23, -360394.53, 13581.984, -0.052118395, -0.12799421, -191031.03, -149360.31, 0.000017842196, 10.000051, 9.997818 
4.4996402e+1, 3.0574375e+2, -68651.52, -82820.086, 31771.81, 0.005029346, -0.2558123, -43183.77, -43183.77, 0.0001190779, 9.999725, 9.999556 
4.4995332e+1, 3.1574586e+2, -88136.69, 181222.47, -50056.336, -0.007365455, -0.009102987, 190223.88, 190223.88, 0.00038609168, 9.998388, 10.002014 
5.501141e+1, 1.2576124e+2, -1414122.5, -1568527.0, -58399.8, 0.047232836, -0.5093341, -1394522.3, 312980.25, 0.0020867882, 10.002028, 10.000018 
5.5008906e+1, 1.3576101e+2, -1589942.6, -1716241.8, -20771.902, 0.005833843, -0.45439866, -1586614.1, 22892.516, 0.0012253985, 10.000661, 9.998993 
5.500799e+1, 1.4576113e+2, -1482755.5, -1564361.6, 91944.43, -0.09254156, -0.35634315, -1422967.0, 88540.836, 0.00052635156, 10.000491, 9.999439 
5.5009025e+1, 1.557607e+2, -1281429.0, -1416672.6, 81639.945, -0.13442186, -0.36068058, -1243042.4, 170473.03, 0.00013276051, 10.001205, 9.999436 
5.500834e+1, 1.6576089e+2, -1158433.1, -1279629.8, -12105.17, -0.15642081, -0.29662108, -1157235.9, 158278.64, 0.0000106646075, 10.0012665, 9.999672 
5.500645e+1, 1.757612e+2, -1122168.0, -1224724.4, 47755.53, -0.1620549, -0.2458216, -1103374.5, 114136.305, 0.000000007551507, 10.000897, 9.999554 
5.500621e+1, 1.8576029e+2, -1055694.6, -1255481.8, 110668.64, -0.12407162, -0.23641467, -1006503.44, 113017.35, 0.0, 10.00117, 9.99854 
5.5007124e+1, 1.9575855e+2, -856159.1, -1110639.1, 66969.36, -0.059201296, -0.27736005, -839611.4, 181928.92, 0.0, 10.001882, 9.998516 
5.5006826e+1, 2.0575748e+2, -783001.4, -1002483.44, 34762.734, -0.06724173, -0.24552456, -777627.06, 145925.84, 0.0, 10.001618, 9.998711 
5.5005634e+1, 2.1575676e+2, -829980.06, -975776.06, 72844.164, -0.12968877, -0.19904639, -799822.8, 25738.912, 0.0, 10.000625, 9.998701 
5.5004436e+1, 2.2575563e+2, -739927.8, -818611.2, 51433.2, -0.16120313, -0.21095172, -714515.0, 13057.976, 0.0, 10.000301, 9.99926 
5.5003273e+1, 2.3575416e+2, -625206.1, -721640.2, 33504.418, -0.16594106, -0.29721886, -614708.4, 14877.948, 0.0, 10.000453, 9.999182 
5.5002517e+1, 2.4575353e+2, -446546.84, -619575.44, 59121.37, -0.17211081, -0.26151222, -428275.34, 103318.22, 0.0, 10.001161, 9.998867 
5.500212e+1, 2.5575334e+2, -200871.5, -458577.63, 83281.87, -0.17886108, -0.17972004, -176300.38, 257297.22, 0.0, 10.002203, 9.998798 
5.500134e+1, 2.657519e+2, -212782.3, -435843.47, 7677.37, -0.12405814, -0.1928884, -212518.36, 123093.15, 0.00000000012003064, 10.001555, 9.998591 
5.5000377e+1, 2.757495e+2, -411409.25, -486144.22, -24915.797, -0.021730676, -0.30140764, -403864.3, -166232.08, 0.00000017731924, 9.999532, 9.998553 
5.499896e+1, 2.857485e+2, -361811.34, -401839.34, 3781.952, -0.008949836, -0.26048306, -361457.16, -221814.66, 0.0000014956321, 9.999172, 9.998628 
5.4997194e+1, 2.9574817e+2, -144755.52, -250456.48, 47249.906, -0.0707664, -0.16957568, -126713.64, -85065.42, 0.000012909044, 9.999996, 9.998602 
5.499564e+1, 3.0574492e+2, -210583.39, -366843.0, -22055.549, -0.059092227, -0.30564317, -207529.98, -207529.98, 0.00009809619, 9.999685, 9.9976225 
5.4993397e+1, 3.157452e+2, -188156.55, -10203.625, -78143.82, -0.071464285, -0.04912269, 19239.791, 19239.791, 0.00033776127, 9.998321, 10.000728 
6.501277e+1, 1.2576328e+2, -1629074.9, -1719633.5, 54375.73, 0.05332477, -0.5419892, -1603594.5, 103887.234, 0.0019618457, 10.000748, 9.999604 
6.501002e+1, 1.3576397e+2, -1315650.0, -1617459.1, 48201.902, -0.044887237, -0.35678843, -1308138.6, 301341.1, 0.0011414166, 10.002682, 9.9987 
6.5008897e+1, 1.4576359e+2, -1262468.3, -1477200.0, 127903.03, -0.12614648, -0.2917733, -1202841.3, 308645.97, 0.0004823892, 10.002096, 9.999261 
6.500985e+1, 1.557622e+2, -1490397.0, -1531436.9, 105159.74, -0.09884365, -0.3737773, -1403773.9, 9729.821, 0.00011742101, 9.999832, 9.999308 
6.5009224e+1, 1.6576236e+2, -1328029.4, -1303832.5, 34958.703, -0.11947844, -0.33482718, -1278937.9, 36563.293, 0.000008467286, 9.999854, 10.000184 
6.500746e+1, 1.7576331e+2, -1004878.2, -1120765.5, 24873.057, -0.17674315, -0.26960057, -999765.25, 217722.95, 0.000000004638606, 10.001504, 9.999973 
6.500742e+1, 1.8576252e+2, -1064673.9, -1324122.1, 65897.14, -0.12714058, -0.23463641, -1048896.3, 70601.8, 0.0, 10.001393, 9.997956 
6.500862e+1, 1.9576052e+2, -1167057.3, -1314607.1, 60946.055, 0.0014369723, -0.24584652, -1145139.1, -123614.96, 0.0, 9.999975, 9.9980345 
6.5007955e+1, 2.0575967e+2, -979164.1, -1012985.94, 59193.73, -0.026984379, -0.20890388, -934513.06, -10978.782, 0.0, 9.9999075, 9.999463 
6.500585e+1, 2.1575963e+2, -758720.3, -866867.44, 73781.9, -0.17492342, -0.17026277, -721318.7, 104214.38, 0.0, 10.000793, 9.999367 
6.500471e+1, 2.257584e+2, -671868.1, -833336.2, 62022.34, -0.19325693, -0.19904746, -650794.7, 76749.16, 0.0, 10.00097, 9.998842 
6.500432e+1, 2.357563e+2, -629714.1, -767704.06, 50868.594, -0.110628396, -0.3069676, -612989.1, 16574.666, 0.0, 10.000603, 9.998802 
6.500386e+1, 2.457553e+2, -553879.1, -666927.0, 88694.83, -0.111633025, -0.28929293, -505228.3, 26346.246, 0.0, 10.000394, 9.998921 
6.500335e+1, 2.5575507e+2, -471987.88, -585783.6, 55580.36, -0.17662579, -0.21655452, -449346.2, -15766.974, 0.0, 10.0003195, 9.998841 
6.500231e+1, 2.6575378e+2, -364940.1, -542566.8, -36133.78, -0.13432494, -0.19848782, -357870.9, -22277.35, 0.00000000000043891748, 10.000649, 9.998298 
6.500095e+1, 2.7575174e+2, -168235.47, -392080.5, -18428.527, -0.000854064, -0.24832031, -166728.45, 70886.21, 0.00000007111923, 10.001308, 9.998339 
6.499944e+1, 2.8575093e+2, -45575.246, -190523.39, 48572.504, 0.031157602, -0.20702487, -30803.809, 108818.61, 0.00000065443334, 10.001081, 9.999162 
6.4997786e+1, 2.957508e+2, -89734.24, -171098.9, 46527.047, -0.012845344, -0.14913203, -68611.9, -26989.422, 0.000008482825, 10.000143, 9.999076 
6.4995515e+1, 3.0574754e+2, -256703.5, -441133.97, 9075.864, -0.030188998, -0.28219628, -256257.95, -256257.95, 0.00007932554, 9.999591, 9.997159 
6.4992064e+1, 3.1574705e+2, -68803.51, 2068.424, 47444.52, -0.078239344, -0.053453255, 25849.771, 25849.771, 0.00029245962, 9.999321, 10.000342 
7.5012e+1, 1.2576823e+2, -1660011.3, -1805016.6, 106093.664, -0.13634886, -0.3993189, -1604013.0, 103421.75, 0.001839182, 10.000836, 9.998976 
7.501148e+1, 1.3576896e+2, -1346268.1, -1694186.8, 109845.445, -0.18640792, -0.1528826, -1314490.1, 294946.78, 0.0010576415, 10.002737, 9.99815 
7.5010544e+1, 1.457678e+2, -1272370.5, -1506959.9, 37409.45, -0.19110775, -0.12940182, -1266549.3, 244903.1, 0.00043753645, 10.002137, 9.999037 
7.50104e+1, 1.557657e+2, -1506251.3, -1569999.9, 37389.715, -0.04607874, -0.25519457, -1488993.5, -75520.92, 0.00010224, 9.999856, 9.999033 
7.501004e+1, 1.657647e+2, -1346025.0, -1341199.6, 94121.8, -0.040046632, -0.30433816, -1249459.6, 66019.88, 0.000007138289, 9.999853, 9.999928 
7.5009537e+1, 1.7576408e+2, -1018399.94, -1152923.3, 83175.78, -0.13778019, -0.37278756, -978692.75, 238788.23, 0.00000003688298, 10.001522, 9.999744 
7.500912e+1, 1.8576331e+2, -1060503.8, -1316730.6, 7639.1196, -0.11283509, -0.32904154, -1060276.3, 59214.867, 0.0, 10.001395, 9.998008 
7.5008774e+1, 1.9576252e+2, -1164077.3, -1305063.6, 18920.63, 0.0021402126, -0.2239606, -1161582.3, -140075.05, 0.0, 9.999961, 9.998109 
7.5007856e+1, 2.0576212e+2, -945792.6, -935404.8, 89015.414, -0.04147701, -0.17562708, -851431.94, 72080.2, 0.0, 9.999874, 10.00001 
7.500649e+1, 2.1576189e+2, -731142.2, -799314.7, 108909.54, -0.20655975, -0.21226771, -651109.4, 174400.86, 0.0, 10.000747, 9.999853 
7.500613e+1, 2.257609e+2, -694351.5, -870074.94, 43784.715, -0.16244268, -0.22744189, -684046.06, 43471.434, 0.0, 10.000926, 9.99861 
7.500654e+1, 2.357593e+2, -656991.5, -811747.75, 44234.367, 0.037771273, -0.2611683, -645240.25, -15708.007, 0.0, 10.000545, 9.998528 
7.500561e+1, 2.4575809e+2, -598118.8, -747327.56, 82228.07, 0.010635941, -0.22593218, -561694.94, -30148.285, 0.0, 10.000348, 9.998387 
7.5003743e+1, 2.557571e+2, -513336.44, -658268.5, 59397.684, -0.18305916, -0.18025616, -492103.97, -58542.223, 0.0, 10.000259, 9.998372 
7.5002116e+1, 2.657561e+2, -336552.72, -472667.06, -14613.402, -0.23137234, -0.13589536, -335001.5, 573.50946, 0.0, 10.000606, 9.998799 
7.500071e+1, 2.7575514e+2, -146904.16, -332638.78, 10022.993, -0.17310981, -0.12630261, -146364.84, 91222.26, 0.000000009748358, 10.001243, 9.998779 
7.49996e+1, 2.8575456e+2, -41416.746, -174586.97, 9075.258, -0.075000495, -0.08626854, -40801.133, 98790.97, 0.00000018808618, 10.001051, 9.999285 
7.49987e+1, 2.9575416e+2, -86225.63, -150915.9, 18900.75, 0.04979048, -0.07152231, -81108.17, -39514.94, 0.000005696117, 10.000084, 9.999245 
7.4995905e+1, 3.0575162e+2, -195476.58, -307180.66, -707.7685, 0.03573552, -0.1898049, -195472.1, -195472.1, 0.00006525944, 9.999563, 9.998089 
7.499102e+1, 3.1575122e+2, -48988.07, 70387.06, 53570.406, -0.14192742, -0.04856234, 90901.7, 90901.7, 0.00025509726, 9.999205, 10.000864 
8.5012734e+1, 1.257711e+2, -1675708.1, -1837078.6, 22180.129, -0.14114244, -0.30990547, -1672715.0, 34694.38, 0.0017199421, 10.000836, 9.998751 
8.5012645e+1, 1.3577126e+2, -1732007.0, -1890168.8, 38600.957, -0.20911087, -0.11208216, -1723088.9, -113670.266, 0.0009794245, 10.000142, 9.998048 
8.5011595e+1, 1.4576966e+2, -1497259.1, -1610987.6, -35769.47, -0.21619257, -0.128259, -1486944.5, 24493.3, 0.0003977733, 10.000566, 9.999086 
8.501117e+1, 1.5576796e+2, -1223479.6, -1427642.8, -19415.05, -0.04649309, -0.22084188, -1221649.8, 191803.0, 0.000088897265, 10.001775, 9.999084 
8.5011077e+1, 1.6576713e+2, -1105271.6, -1245623.4, 88944.06, -0.0049125776, -0.24479835, -1062152.8, 253305.7, 0.000006071428, 10.001594, 9.999747 
8.5011244e+1, 1.757665e+2, -1191212.9, -1248498.0, 73121.16, -0.05820295, -0.29767206, -1141324.5, 76137.664, 0.000000076650345, 10.000381, 9.99964 
8.501051e+1, 1.8576573e+2, -1182585.6, -1301786.1, 11153.654, -0.052042708, -0.28335246, -1181551.0, -62080.254, 0.0, 10.000242, 9.99867 
8.500914e+1, 1.9576505e+2, -992216.44, -1157448.3, 62060.617, 0.0012904274, -0.23014493, -971503.25, 49978.11, 0.0, 10.000867, 9.998685 
8.5008216e+1, 2.0576437e+2, -846047.6, -954654.44, 130870.31, -0.038087614, -0.20326032, -758661.56, 164826.94, 0.0, 10.00084, 9.99942 
8.500759e+1, 2.1576363e+2, -835954.1, -909057.94, 53999.88, -0.14341831, -0.2313631, -807298.44, 18195.436, 0.0, 10.000279, 9.9993305 
8.500734e+1, 2.257626e+2, -721061.5, -854241.1, -13324.159, -0.114629105, -0.24001962, -719741.56, 7760.3984, 0.0, 10.000625, 9.99886 
8.500739e+1, 2.3576137e+2, -480211.94, -698459.06, 9197.648, 0.016939437, -0.26234344, -479825.0, 149686.92, 0.0, 10.001647, 9.998767 
8.500661e+1, 2.4576019e+2, -428156.03, -660736.5, 67208.195, 0.022289945, -0.23521447, -410131.88, 121393.33, 0.0, 10.001493, 9.998429 
8.500531e+1, 2.5575906e+2, -479171.22, -632232.3, 82595.07, -0.058260914, -0.20658162, -443101.28, -9560.092, 0.0, 10.0004635, 9.998448 
8.500331e+1, 2.6575842e+2, -383582.78, -470654.06, 59602.21, -0.145454, -0.14318551, -353309.38, -17757.977, 0.0, 10.000165, 9.999031 
8.500087e+1, 2.7575812e+2, -259152.02, -365512.75, 50170.13, -0.23305218, -0.08901428, -239221.55, -1663.5609, 0.0, 10.000366, 9.998984 
8.4999746e+1, 2.8575748e+2, -147465.0, -246330.86, 7453.4707, -0.12882195, -0.057385214, -146906.23, -7341.629, 0.000000024133003, 10.000405, 9.999105 
8.499963e+1, 2.957565e+2, -52814.18, -149160.75, -15540.033, 0.12424454, -0.07925206, -50369.703, -8798.083, 0.0000041706858, 10.000375, 9.999117 
8.499669e+1, 3.0575472e+2, -37069.613, -176277.08, -39707.69, 0.12037833, -0.141701, -26539.828, -26539.828, 0.00005536609, 10.000413, 9.998579 
8.4991163e+1, 3.1575403e+2, 119916.7, 147394.14, -39496.55, -0.0987576, -0.083113216, 175473.23, 175473.23, 0.00022562832, 10.000382, 10.000816 
9.501466e+1, 1.2577209e+2, -1661916.4, -1814010.9, -22127.795, -0.06600311, -0.26016656, -1658762.4, 48641.805, 0.0016117445, 10.000863, 9.998893 
9.5013165e+1, 1.3577078e+2, -1705945.3, -1850468.3, 20758.793, -0.18840003, -0.23270513, -1703022.6, -93597.24, 0.00091292575, 10.000198, 9.998293 
9.501178e+1, 1.4576912e+2, -1464946.1, -1549221.9, 6458.3877, -0.27149805, -0.2899468, -1464454.0, 46990.223, 0.00036647206, 10.00059, 9.999495 
9.501198e+1, 1.5576893e+2, -1195021.9, -1374127.5, 25027.602, -0.16218309, -0.2706987, -1191590.3, 221853.92, 0.00007896108, 10.0018, 9.999437 
9.50122e+1, 1.6576967e+2, -1113096.0, -1262431.5, 38114.234, -0.0677659, -0.15037277, -1103930.8, 211506.95, 0.000005121987, 10.001595, 9.999632 
9.5012367e+1, 1.757705e+2, -1190710.5, -1249703.4, 37210.797, -0.0002121312, -0.043744586, -1172723.4, 44708.457, 0.00000007826353, 10.000389, 9.999629 
9.501136e+1, 1.8576978e+2, -1097224.3, -1122002.3, 31330.887, -0.003418774, -0.09324847, -1075921.9, 43514.773, 0.0, 10.00023, 9.999909 
9.5009494e+1, 1.9576806e+2, -924067.4, -1010016.44, 88277.01, -0.066814944, -0.27011386, -868860.2, 152587.34, 0.0, 10.000843, 9.999707 
9.5008814e+1, 2.0576645e+2, -975271.25, -1211904.1, 104839.055, -0.07527513, -0.28915522, -935505.44, -12041.926, 0.0, 10.000793, 9.997675 
9.500895e+1, 2.1576479e+2, -951112.1, -1140234.5, 44117.375, -0.049792483, -0.23656349, -941326.94, -115842.09, 0.0, 10.000242, 9.997763 
9.5008165e+1, 2.2576343e+2, -680418.2, -759097.7, 21367.945, -0.10911744, -0.24107306, -674989.56, 52508.12, 0.0, 10.000579, 9.999534 
9.500669e+1, 2.3576231e+2, -440120.44, -603895.3, 46063.344, -0.23149289, -0.32041267, -428053.72, 201450.63, 0.0, 10.001594, 9.999443 
9.50067e+1, 2.4576154e+2, -391654.5, -569479.9, 22790.021, -0.12969564, -0.31943431, -388780.2, 142730.55, 0.0, 10.001434, 9.999081 
9.500781e+1, 2.55761e+2, -446480.66, -551341.4, 53275.457, 0.13227175, -0.30006176, -424163.3, 9354.317, 0.0, 10.000408, 9.999029 
9.500571e+1, 2.6576072e+2, -392474.88, -482330.8, 63494.555, 0.0648252, -0.22373629, -359620.6, -24097.36, 0.0, 10.000135, 9.998965 
9.500127e+1, 2.7576062e+2, -273851.34, -381407.16, 63658.563, -0.24446243, -0.14478074, -244295.72, -6767.242, 0.0, 10.000301, 9.998907 
9.499973e+1, 2.8575963e+2, -184153.72, -316461.88, 1407.9814, -0.18557592, -0.11974479, -184138.73, -44598.496, 0.000000004406078, 10.0003805, 9.998634 
9.50003e+1, 2.9575786e+2, -96563.38, -224082.47, -7823.088, 0.13863586, -0.17276134, -96085.24, -54527.65, 0.0000031909003, 10.000304, 9.998636 
9.4997597e+1, 3.0575693e+2, -35874.08, -166978.77, -41521.42, 0.15650277, -0.13289051, -23830.428, -23830.428, 0.000047523536, 10.000384, 9.998655 
9.499202e+1, 3.157555e+2, 58985.18, 43574.95, -21139.469, -0.08427742, -0.14968422, 73779.98, 73779.98, 0.00020078661, 10.000286, 10.000151 
1.0501567e+2, 1.257728e+2, -1555085.4, -1722982.6, -28900.068, -0.071690015, -0.2372849, -1550250.1, 157152.22, 0.0015258539, 10.001408, 9.999259 
1.0501398e+2, 1.3577208e+2, -1502857.8, -1701870.3, 17883.729, -0.17949611, -0.19873692, -1501263.5, 108151.61, 0.00086255383, 10.00136, 9.998758 
1.0501269e+2, 1.4577048e+2, -1398609.1, -1485008.9, 39054.95, -0.25151667, -0.28738943, -1383572.3, 127859.87, 0.00034425873, 10.000913, 9.999778 
1.0501329e+2, 1.5577058e+2, -1413722.5, -1455668.8, 31181.95, -0.1253701, -0.2636784, -1397116.5, 16312.8955, 0.00007295785, 10.0001955, 9.999655 
1.0501307e+2, 1.657715e+2, -1349338.9, -1355141.0, 33416.996, -0.051536296, -0.1436079, -1318697.3, -3275.9138, 0.0000044141693, 9.999891, 9.999808 
1.0501226e+2, 1.7577247e+2, -1254324.9, -1259779.4, 46515.89, -0.020604677, -0.041415982, -1210456.4, 6958.3022, 0.000000050630582, 9.999877, 9.999799 
1.0501132e+2, 1.8577209e+2, -1071178.8, -1071605.9, 62764.008, -0.02855278, -0.0822795, -1008627.94, 110787.16, 0.0, 10.000241, 10.000246 
1.05010286e+2, 1.9577086e+2, -909379.3, -970109.25, 36974.99, -0.06562384, -0.245507, -891898.9, 129520.445, 0.0, 10.000795, 10.000003 
1.05009675e+2, 2.057692e+2, -993113.8, -1225815.4, 66840.66, -0.05956393, -0.28191653, -975281.2, -51846.1, 0.0, 10.000701, 9.997621 
1.05009414e+2, 2.1576707e+2, -977794.4, -1157574.8, 125591.38, -0.015927937, -0.26992083, -913239.0, -87778.164, 0.0, 10.000088, 9.997712 
1.0500862e+2, 2.2576566e+2, -805188.4, -839566.94, 166783.6, -0.080819644, -0.26837897, -654710.6, 72764.6, 0.0, 9.999809, 9.999358 
1.0500745e+2, 2.3576482e+2, -716517.7, -750889.5, 116481.06, -0.22013514, -0.3013187, -615961.5, 13519.434, 0.0, 9.9997635, 9.999316 
1.0500714e+2, 2.4576423e+2, -592528.8, -637398.56, 27887.143, -0.15036015, -0.29188478, -579172.44, -47686.91, 0.0, 9.999923, 9.999343 
1.0500752e+2, 2.557637e+2, -458930.34, -533093.3, 20144.615, 0.075702906, -0.29227218, -453811.8, -20321.557, 0.0, 10.000214, 9.9992485 
1.05006106e+2, 2.6576316e+2, -363753.63, -490407.66, 40604.18, 0.079360984, -0.2456258, -351854.25, -16356.583, 0.0, 10.000438, 9.998755 
1.0500343e+2, 2.757625e+2, -236060.97, -384191.22, 16855.7, -0.07156898, -0.19989146, -234167.17, 3340.0718, 0.0, 10.000657, 9.998711 
1.0500134e+2, 2.8576133e+2, -144060.36, -294990.84, -30515.156, -0.07289345, -0.18417555, -138124.27, 1396.6415, 0.0000000012345152, 10.000645, 9.998659 
1.04999594e+2, 2.9575968e+2, -71333.15, -207382.66, -14131.922, 0.034335133, -0.2352918, -69880.73, -28342.281, 0.0000025074758, 10.000455, 9.99868 
1.0499705e+2, 3.0575964e+2, -20425.406, -189792.27, -16557.861, 0.056796215, -0.08851787, -18821.838, -18821.838, 0.000040782536, 10.000618, 9.998392 
1.0499388e+2, 3.1575724e+2, 128073.76, 3864.7063, -37974.88, 0.039926384, -0.17788376, 138763.9, 138763.9, 0.0001788825, 10.001074, 9.999503 
1.15015194e+2, 1.2577303e+2, -1503242.8, -1635223.4, -55249.133, -0.30097058, -0.25740463, -1483168.0, 224237.78, 0.0014675308, 10.001489, 9.9998255 
1.1501495e+2, 1.3577506e+2, -1446207.0, -1593246.0, 15466.829, -0.23790722, -0.017882, -1444597.6, 164791.13, 0.0008305489, 10.001401, 9.999483 
1.15014285e+2, 1.4577374e+2, -1392776.0, -1473222.9, 6840.904, -0.19985193, -0.11663111, -1392198.4, 119203.32, 0.00033210375, 10.000911, 9.999862 
1.1501474e+2, 1.5577286e+2, -1399187.9, -1433135.9, 14012.402, -0.018116962, -0.20125093, -1394151.3, 19257.082, 0.00007103606, 10.000232, 9.999788 
1.1501345e+2, 1.6577263e+2, -1315217.3, -1293285.3, 28598.43, -0.02004323, -0.22478683, -1273622.5, 41786.742, 0.0000041839003, 9.999919, 10.000228 
1.15010805e+2, 1.7577235e+2, -1224242.9, -1204722.0, 52310.438, -0.1714575, -0.29222417, -1161269.1, 56141.715, 0.000000024917117, 9.999905, 10.000167 
1.1501028e+2, 1.8577264e+2, -1115555.4, -1155290.6, 80890.23, -0.17185488, -0.25237018, -1052128.6, 67277.92, 0.0, 10.000206, 9.99969 
1.1501127e+2, 1.9577342e+2, -938359.9, -1027016.7, 58968.332, -0.06449836, -0.15783305, -908916.5, 112480.516, 0.0, 10.000783, 9.999619 
1.1501063e+2, 2.057726e+2, -885100.4, -994338.7, 37799.52, -0.046923615, -0.17931436, -873296.2, 50107.004, 0.0, 10.000668, 9.999228 
1.1500877e+2, 2.1577045e+2, -885050.1, -953847.3, 107843.48, -0.10261137, -0.33203274, -806252.06, 19170.225, 0.0, 10.000038, 9.999135 
1.1500852e+2, 2.2576925e+2, -884025.94, -992488.94, 159917.31, -0.082275115, -0.31859258, -769394.8, -41959.992, 0.0, 9.999762, 9.998331 
1.15009405e+2, 2.3576878e+2, -791794.3, -893727.2, 121264.01, -0.013836357, -0.21293668, -711221.7, -81779.26, 0.0, 9.999702, 9.998365 
1.1500779e+2, 2.4576813e+2, -611823.2, -663304.3, 33953.03, -0.09170055, -0.15859431, -594956.4, -63506.22, 0.0, 9.999863, 9.999196 
1.15004286e+2, 2.5576717e+2, -478190.25, -559429.56, 34102.73, -0.28205222, -0.18671444, -465772.63, -32313.236, 0.0, 10.000154, 9.999098 
1.150044e+2, 2.657657e+2, -392297.22, -543647.5, 43955.027, -0.14823166, -0.20736705, -380457.94, -44983.23, 0.0, 10.000413, 9.998404 
1.1500717e+2, 2.7576378e+2, -267387.56, -436106.88, 29883.77, 0.22271393, -0.2511593, -262250.9, -24756.338, 0.0, 10.000597, 9.998387 
1.15004316e+2, 2.857626e+2, -111845.664, -218802.45, -42455.66, 0.14940865, -0.24905394, -97042.13, 42464.68, 0.00000000007947066, 10.000608, 9.999198 
1.1499729e+2, 2.9576185e+2, -51234.164, -144880.13, -14671.813, -0.25526047, -0.26022175, -48989.297, -7474.9385, 0.000001910546, 10.000371, 9.999149 
1.1499483e+2, 3.0576292e+2, -64047.32, -271530.97, -2136.8093, -0.23858352, 0.0002664831, -64025.313, -64025.313, 0.000034748213, 10.000589, 9.997839 
1.1499627e+2, 3.1575915e+2, 65609.61, -96833.15, -6694.049, 0.14115544, -0.16785078, 65885.0, 65885.0, 0.00015878698, 10.0009575, 9.998862 
1.2501518e+2, 1.2577477e+2, -1739297.4, -1738281.8, 6816.3867, -0.36382774, -0.19401313, -1731954.3, -24562.92, 0.0014351123, 9.999844, 9.999904 
1.2501661e+2, 1.3577606e+2, -1599023.4, -1641770.9, 20524.07, -0.14727725, -0.045870207, -1590764.9, 18614.896, 0.00081633194, 10.000249, 9.999705 
1.2501569e+2, 1.4577511e+2, -1472886.6, -1462157.4, -316.89224, -0.10576798, -0.14276831, -1462148.0, 49240.742, 0.00033045214, 10.000149, 10.000301 
1.2501456e+2, 1.557757e+2, -1445652.6, -1414694.0, 18873.977, -0.030469792, -0.121400066, -1405763.5, 7618.156, 0.00007352079, 9.999731, 10.000157 
1.2501286e+2, 1.657754e+2, -1335083.6, -1296484.9, 59575.703, -0.059871558, -0.17124085, -1253160.5, 62221.73, 0.0000047035833, 9.999759, 10.000284 
1.2501067e+2, 1.7577398e+2, -1196176.9, -1188956.1, 43960.805, -0.18011418, -0.35844883, -1148457.6, 68935.625, 0.000000012759114, 10.000079, 10.000196 
1.2501034e+2, 1.8577398e+2, -1142459.4, -1174931.0, 88997.336, -0.1740729, -0.34230712, -1068229.0, 51162.875, 0.0, 10.000054, 9.999628 
1.250114e+2, 1.9577527e+2, -1096776.3, -1108828.3, 95236.664, -0.0728385, -0.1882915, -1007375.1, 14004.401, 0.0, 9.999723, 9.999568 
1.2501088e+2, 2.0577502e+2, -956947.5, -1000341.1, 37228.184, -0.054953758, -0.16353968, -935555.0, -12174.159, 0.0, 10.000048, 9.999483 
1.250092e+2, 2.1577351e+2, -757346.44, -867152.0, -6513.7695, -0.09919888, -0.27685785, -756961.4, 68432.164, 0.0, 10.0008, 9.999365 
1.250091e+2, 2.2577234e+2, -725567.9, -899412.7, 48303.63, -0.04654109, -0.28121874, -713048.1, 14357.094, 0.0, 10.000774, 9.998481 
1.2501019e+2, 2.357714e+2, -717736.9, -846694.9, 87535.23, 0.0763465, -0.2353487, -673496.25, -44080.137, 0.0, 10.00016, 9.998468 
1.2500863e+2, 2.457707e+2, -563888.5, -664135.6, 73963.914, -0.0124759665, -0.17893894, -524664.25, 6760.34, 0.0, 10.000299, 9.998979 
1.2500513e+2, 2.5577006e+2, -362985.88, -526937.75, 57287.47, -0.25537667, -0.15525325, -344952.28, 88479.984, 0.0, 10.001042, 9.998895 
1.2500502e+2, 2.657685e+2, -299690.28, -478017.66, 68368.44, -0.15142551, -0.18131013, -276495.6, 58951.67, 0.0, 10.0009575, 9.998593 
1.2500748e+2, 2.7576628e+2, -302409.06, -429459.75, 86555.414, 0.21312149, -0.2751408, -258569.11, -21101.51, 0.0, 10.000266, 9.998588 
1.2500444e+2, 2.8576493e+2, -165105.61, -242494.08, 35180.625, 0.1234105, -0.30259404, -151503.38, -12022.426, 0.00000000021645001, 10.000233, 9.999216 
1.2499737e+2, 2.957641e+2, -3412.4954, -116576.51, 16932.723, -0.29608476, -0.32370007, -933.1727, 40556.54, 0.0000014014497, 10.000677, 9.999196 
1.2499541e+2, 3.0576593e+2, 4823.1426, -235177.95, 58809.4, -0.25870892, 0.0066531496, 18458.955, 18458.955, 0.000028996776, 10.00103, 9.997888 
1.2499798e+2, 3.1576237e+2, 121508.69, -52442.477, 77846.69, 0.20890068, -0.14537086, 151258.67, 151258.67, 0.00013884061, 10.001249, 9.999039 
1.3501532e+2, 1.25778e+2, -1772761.1, -1809498.0, 1107.8195, -0.36817145, -0.04532795, -1772727.8, -65368.574, 0.0014283952, 9.999858, 9.999406 
1.3501872e+2, 1.3577518e+2, -1605817.6, -1664307.4, 39375.92, 0.019491367, -0.27858916, -1586014.3, 23372.701, 0.000819765, 10.000299, 9.999518 
1.3501672e+2, 1.4577469e+2, -1415595.4, -1358234.3, -22241.5, -0.03752555, -0.36064366, -1350620.8, 160771.45, 0.00033887546, 10.000203, 10.000991 
1.3501261e+2, 1.5577917e+2, -1401531.9, -1325248.5, 10334.341, -0.21578673, -0.020661693, -1323873.3, 89475.33, 0.0000801792, 9.99974, 10.000766 
1.3501112e+2, 1.6577989e+2, -1365403.8, -1354299.9, 67788.49, -0.22252707, 0.024413142, -1291836.4, 23503.463, 0.0000062149566, 9.999738, 9.999897 
1.3501157e+2, 1.7577726e+2, -1215924.4, -1232916.5, 61791.293, -0.11505902, -0.24362326, -1162047.8, 55314.504, 0.000000017143847, 10.000099, 9.999881 
1.3501126e+2, 1.8577617e+2, -1113501.8, -1116754.0, 71402.016, -0.10242697, -0.346733, -1043707.4, 75663.28, 0.0, 10.000054, 10.0000305 
1.3501042e+2, 1.957764e+2, -1076595.4, -1064977.9, 91278.6, -0.15867986, -0.34095827, -979323.4, 42043.44, 0.0, 9.999713, 9.999875 
1.3501024e+2, 2.0577645e+2, -1042564.8, -1167832.6, 62215.258, -0.13730867, -0.2374853, -1016916.5, -93548.4, 0.0, 10.000005, 9.998356 
1.3501047e+2, 2.1577628e+2, -830982.75, -1006168.0, 24923.406, -0.066525556, -0.10634669, -827505.94, -2131.317, 0.0, 10.000745, 9.998435 
1.3501021e+2, 2.2577494e+2, -641486.56, -717977.8, 19292.904, -0.027905405, -0.15244253, -636895.94, 90490.18, 0.0, 10.000737, 9.999746 
1.3500957e+2, 2.3577267e+2, -642218.75, -681080.5, 71986.11, -0.01573721, -0.36853552, -587087.2, 42314.91, 0.0, 10.000118, 9.999625 
1.3500948e+2, 2.4577193e+2, -591878.1, -712468.56, 97140.19, 0.029939026, -0.352398, -537841.7, -6432.8584, 0.0, 10.0002575, 9.998668 
1.3500983e+2, 2.557723e+2, -387909.34, -564148.56, 86892.05, 0.097668916, -0.19883542, -352273.97, 81134.94, 0.0, 10.000979, 9.99867 
1.3500777e+2, 2.6577157e+2, -256667.17, -377827.16, 38161.07, 0.017134475, -0.16781986, -245649.66, 89765.48, 0.0, 10.000914, 9.999301 
1.3500407e+2, 2.7576998e+2, -269301.5, -342856.9, 69311.14, -0.1674032, -0.26989764, -227614.98, 9811.884, 0.0, 10.000191, 9.999218 
1.3500151e+2, 2.857682e+2, -199560.0, -304712.3, 46510.547, -0.20667043, -0.34400025, -181940.13, -42495.992, 0.000000004047862, 10.000197, 9.998805 
1.3499969e+2, 2.957663e+2, -36521.473, -170288.42, 38192.855, -0.14528936, -0.43267936, -26384.863, 15080.732, 0.0000011638989, 10.000611, 9.99886 
1.3499852e+2, 3.057686e+2, 43617.75, -137771.5, 66620.23, -0.058865882, -0.07538953, 65456.54, 65456.54, 0.00002379093, 10.000968, 9.998583 
1.3499866e+2, 3.157669e+2, 178946.17, 89413.42, 97808.18, 0.124807276, -0.1062782, 241745.92, 241745.92, 0.00011909773, 10.001162, 10.000054 
1.4501703e+2, 1.2578028e+2, -1446438.5, -1654867.4, 63427.03, -0.28563267, -0.10086586, -1428654.5, 278679.47, 0.0014440229, 10.002105, 9.999387 
1.4501943e+2, 1.3577797e+2, -1636357.3, -1667814.8, 120050.13, 0.07732224, -0.30169588, -1531009.9, 78346.75, 0.00083842565, 10.000026, 9.99963 
1.4501674e+2, 1.4577718e+2, -1511316.4, -1452382.0, 76493.61, -0.030656768, -0.39610922, -1399876.1, 111489.516, 0.00035495815, 9.999759, 10.00056 
1.4501223e+2, 1.5578087e+2, -1271595.3, -1309442.0, 8140.077, -0.2783675, -0.08880167, -1269918.8, 143412.69, 0.00008912459, 10.000832, 10.000352 
1.45011e+2, 1.6578193e+2, -1228671.0, -1276201.0, 37260.574, -0.25028506, 0.0049095633, -1208241.9, 107078.305, 0.000008328298, 10.000628, 9.999999 
1.4501214e+2, 1.7578053e+2, -1312697.8, -1273830.1, 56011.305, -0.030529486, -0.14994147, -1233977.0, -16645.8, 0.0000000715251, 9.999406, 9.999935 
1.4501168e+2, 1.8577945e+2, -1236729.9, -1196685.6, 85416.98, -0.02653952, -0.244973, -1128975.5, -9635.629, 0.0, 9.999294, 9.999848 
1.4500998e+2, 1.9577874e+2, -1047388.44, -1071041.3, 49344.016, -0.18480888, -0.31308484, -1008473.4, 12871.877, 0.0, 9.999988, 9.999707 
1.450102e+2, 2.0577857e+2, -1002507.6, -1121347.8, 72604.555, -0.14585441, -0.24050741, -968107.8, -44759.066, 0.0, 10.000166, 9.998594 
1.4501178e+2, 2.1577863e+2, -934785.25, -1034342.0, 123465.04, 0.035391554, -0.10573003, -851441.5, -26089.54, 0.0, 9.999938, 9.998631 
1.4501123e+2, 2.2577752e+2, -734543.8, -755915.3, 106079.016, 0.036935363, -0.14007463, -638613.7, 88747.36, 0.0, 10.000078, 9.999802 
1.4500912e+2, 2.3577552e+2, -582001.56, -644961.94, 56776.83, -0.08934861, -0.33639076, -548561.75, 80813.19, 0.0, 10.0005045, 9.999689 
1.4500955e+2, 2.4577464e+2, -526101.9, -649286.9, 90669.555, -0.00053759135, -0.3503291, -478083.25, 53298.727, 0.0, 10.000575, 9.998948 
1.4501192e+2, 2.5577462e+2, -456005.44, -561477.2, 110945.33, 0.24386697, -0.26140505, -385900.2, 47483.695, 0.0, 10.000372, 9.998975 
1.4500932e+2, 2.6577428e+2, -336183.0, -384203.78, 49156.582, 0.1179564, -0.22348173, -305486.28, 29899.563, 0.0, 10.000225, 9.999592 
1.4500315e+2, 2.7577364e+2, -262549.7, -312317.8, 43297.81, -0.26980636, -0.2613001, -237494.61, -105.971725, 0.0, 10.0001135, 9.99947 
1.4500087e+2, 2.8577197e+2, -207380.02, -341730.84, 52676.03, -0.28933373, -0.32349756, -189189.75, -49784.42, 0.000000009906891, 10.000277, 9.998518 
1.450013e+2, 2.957696e+2, -46055.074, -197089.98, 42259.7, -0.041563302, -0.4297955, -35034.863, 6396.6167, 0.0000010398929, 10.000645, 9.998657 
1.4500007e+2, 3.0577084e+2, 36608.22, -120668.69, 53880.887, 0.012605551, -0.18067926, 53296.344, 53296.344, 0.000019274365, 10.00083, 9.998764 
1.449987e+2, 3.1576908e+2, 146061.56, 125624.164, 26529.873, 0.042302176, -0.23523442, 164272.7, 164272.7, 0.00010043125, 10.000711, 10.000517 
1.5501983e+2, 1.257818e+2, -1402950.0, -1589682.3, -38244.13, -0.25267392, -0.34821117, -1395420.9, 311892.88, 0.0014662774, 10.002203, 9.999793 
1.5501852e+2, 1.3578443e+2, -1600510.1, -1602405.6, 52666.906, -0.031850915, -0.109360635, -1548782.4, 60506.156, 0.0008607167, 10.000055, 10.000069 
1.550155e+2, 1.4578259e+2, -1620546.6, -1680209.9, 111672.37, -0.14504322, -0.24532053, -1534790.0, -23481.283, 0.00037131715, 9.999764, 9.998994 
1.550132e+2, 1.557808e+2, -1366964.0, -1512269.1, 49463.395, -0.28274247, -0.3275406, -1351724.5, 61605.25, 0.00009663115, 10.000856, 9.998945 
1.5501222e+2, 1.6578162e+2, -1190882.6, -1195045.1, -14599.682, -0.20421293, -0.22536933, -1178216.6, 137105.89, 0.000009881803, 10.000618, 10.000563 
1.550122e+2, 1.7578386e+2, -1281075.0, -1204754.4, 21100.42, 0.019468207, -0.07144887, -1199309.3, 17990.219, 0.00000020107916, 9.999394, 10.000415 
1.5501134e+2, 1.8578386e+2, -1295114.3, -1316172.6, 106972.766, -0.003705209, -0.036018252, -1198153.8, -78854.4, 0.0, 9.999286, 9.999034 
1.5500987e+2, 1.9578232e+2, -1096635.5, -1164776.4, 78661.516, -0.20982815, -0.10724085, -1044982.94, -23668.04, 0.0, 9.999958, 9.999076 
1.5501061e+2, 2.0578133e+2, -898296.25, -898250.9, 58894.17, -0.13565703, -0.1690208, -839379.4, 83943.19, 0.0, 10.000133, 10.000146 
1.550129e+2, 2.157806e+2, -846449.4, -838204.25, 121043.164, 0.13858214, -0.26996928, -721213.5, 104112.09, 0.0, 9.999885, 10.000003 
1.5501198e+2, 2.2578014e+2, -825589.06, -933702.56, 116827.445, 0.09236899, -0.23836222, -750918.25, -23588.613, 0.0, 10.000028, 9.998608 
1.550087e+2, 2.3577988e+2, -661802.5, -801301.1, 78202.38, -0.193856, -0.14079836, -626763.56, 2571.166, 0.0, 10.00046, 9.99864 
1.5500869e+2, 2.457788e+2, -470787.34, -526956.2, 77952.38, -0.15856926, -0.1732834, -416014.6, 115329.64, 0.0, 10.000542, 9.9998045 
1.5501119e+2, 2.5577703e+2, -409985.03, -453636.7, 108762.266, 0.11977803, -0.34557682, -320880.25, 112477.71, 0.0, 10.000314, 9.999745 
1.5500943e+2, 2.657766e+2, -348040.97, -398644.38, 40184.766, 0.09510881, -0.34670237, -325855.9, 9504.018, 0.0, 10.000187, 9.999506 
1.5500455e+2, 2.7577713e+2, -281217.88, -335444.25, 46225.434, -0.15344581, -0.25790125, -254740.81, -17386.908, 0.0, 10.000047, 9.999343 
1.5500234e+2, 2.8577605e+2, -222083.7, -363883.63, 62428.875, -0.18332934, -0.24552402, -198515.86, -59150.707, 0.000000005626964, 10.00024, 9.998381 
1.55002e+2, 2.957739e+2, -62072.55, -220644.67, 64067.65, -0.055103984, -0.32024586, -39422.637, 1965.4702, 0.00000084127635, 10.000595, 9.998522 
1.5499987e+2, 3.0577257e+2, 5639.878, -167347.97, 47131.81, -0.103569955, -0.3056487, 17647.764, 17647.764, 0.000015268795, 10.0007715, 9.998459 
1.5499772e+2, 3.1576893e+2, 122750.85, 105203.73, 31979.652, -0.15229693, -0.5212549, 147138.61, 147138.61, 0.00008386637, 10.000606, 10.000418 
1.65021e+2, 1.2578465e+2, -1936769.3, -1895090.9, -83991.2, -0.17962961, -0.3839421, -1829392.3, -122107.05, 0.0014745225, 9.998747, 9.99936 
1.6501845e+2, 1.357883e+2, -1452596.4, -1555963.1, -70328.79, -0.09850364, -0.0150256995, -1417002.5, 192251.03, 0.00086981576, 10.001186, 9.999842 
1.650152e+2, 1.4578632e+2, -1476566.0, -1612628.3, 10058.544, -0.1974732, -0.15537402, -1475826.4, 35448.402, 0.00037795518, 10.000779, 9.99896 
1.6501352e+2, 1.5578322e+2, -1745236.1, -1706021.8, 55163.652, -0.2049252, -0.36267793, -1667084.4, -253779.22, 0.000098805474, 9.998316, 9.998837 
1.6501272e+2, 1.6578332e+2, -1485637.9, -1384602.5, 57375.09, -0.12247373, -0.30541855, -1358674.5, -43369.992, 0.000009884257, 9.998786, 10.000145 
1.6501251e+2, 1.7578533e+2, -1019323.1, -1118651.9, 6133.1294, 0.016600158, -0.13320656, -1018945.9, 198339.06, 0.0000002904704, 10.001356, 10.000059 
1.6501154e+2, 1.8578549e+2, -974986.8, -1135144.5, 71500.0, -0.014753785, -0.07875968, -947711.7, 171571.08, 0.0, 10.001389, 9.999254 
1.6500999e+2, 1.9578435e+2, -1145772.3, -1165165.8, 110629.16, -0.16721596, -0.13194053, -1044415.7, -23123.12, 0.0, 9.999528, 9.999276 
1.6501059e+2, 2.0578335e+2, -1028733.4, -946345.3, 102846.85, -0.10018919, -0.20968994, -876749.3, 46550.145, 0.0, 9.999177, 10.000275 
1.6501266e+2, 2.157824e+2, -830379.6, -816924.1, 46866.05, 0.1279853, -0.3445762, -776305.4, 48999.426, 0.0, 9.999937, 10.000125 
1.6501214e+2, 2.2578214e+2, -792515.5, -909400.9, 58364.69, 0.09778148, -0.3045996, -768362.9, -41055.24, 0.0, 10.000228, 9.998671 
1.6500963e+2, 2.3578241e+2, -702643.3, -809741.56, 99888.97, -0.12643945, -0.15938844, -642855.25, -13546.997, 0.0, 10.000148, 9.998722 
1.650092e+2, 2.4578157e+2, -529446.4, -539280.7, 109006.69, -0.13395649, -0.17840806, -425246.03, 106069.69, 0.0, 10.00007, 9.999949 
1.6501036e+2, 2.557799e+2, -446639.25, -455815.34, 77494.805, 0.0255732, -0.356363, -373596.78, 59731.836, 0.0, 9.999993, 9.9998865 
1.6500922e+2, 2.6577947e+2, -308633.0, -387315.16, 19379.537, 0.042356327, -0.36125466, -304118.78, 31212.475, 0.0, 10.000477, 9.999453 
1.650064e+2, 2.757799e+2, -87362.42, -243464.7, 16689.828, -0.037171368, -0.2788834, -85597.95, 151729.36, 0.0, 10.001379, 9.999331 
1.6500466e+2, 2.8577912e+2, -19680.875, -256568.08, 45224.992, -0.038630493, -0.24170466, -11340.46, 127995.44, 0.00000000009995645, 10.001596, 9.998463 
1.6500373e+2, 2.9577765e+2, 51601.133, -158721.94, 49789.25, 0.027296428, -0.25248373, 62792.156, 104143.62, 0.00000051342266, 10.00135, 9.998583 
1.6500078e+2, 3.0577534e+2, 58729.793, -178268.72, 45105.277, -0.1095551, -0.3245543, 67023.914, 67023.914, 0.000011747977, 10.001268, 9.998157 
1.649981e+2, 3.1577188e+2, 172472.44, 80021.734, 1840.5876, -0.19690694, -0.4890026, 172509.06, 172509.06, 0.00007014343, 10.001142, 9.9999895 
1.7502017e+2, 1.2578882e+2, -2018308.1, -2071912.9, -10769.555, -0.16891056, -0.2101124, -2016225.4, -308977.28, 0.0014574766, 9.99878, 9.99813 
1.7501894e+2, 1.3578972e+2, -1511593.5, -1682216.1, 10097.531, -0.18281494, -0.010513395, -1510998.0, 98252.016, 0.00085594517, 10.001209, 9.99896 
1.7501572e+2, 1.4578839e+2, -1369833.6, -1399592.4, -88930.13, -0.23927164, -0.122358546, -1294546.6, 216716.33, 0.0003688444, 10.000807, 10.000415 
1.75013e+2, 1.5578805e+2, -1654693.5, -1521510.5, -16694.877, -0.10593682, -0.19832808, -1519449.6, -106191.28, 0.00009401229, 9.998331, 10.000096 
1.7501226e+2, 1.6578703e+2, -1580500.1, -1582306.1, 151131.13, -0.062306963, -0.23709853, -1430269.3, -115003.375, 0.000008393363, 9.998786, 9.998791 
1.7501287e+2, 1.7578508e+2, -1099575.1, -1287687.9, 95466.39, -0.100856975, -0.3280631, -1059615.0, 157671.64, 0.00000020811186, 10.0013685, 9.998892 
1.7501202e+2, 1.8578446e+2, -887123.3, -956472.3, -3326.092, -0.118146785, -0.36387992, -886964.1, 232325.1, 0.0, 10.001394, 10.0004835 
1.7501013e+2, 1.9578487e+2, -1073893.3, -1013970.5, 53990.727, -0.12229662, -0.38343248, -982184.94, 39092.938, 0.0, 9.999514, 10.000322 
1.7500992e+2, 2.057847e+2, -1124852.4, -1138937.4, 126302.2, -0.09674804, -0.35691264, -1005396.5, -82117.55, 0.0, 9.999145, 9.998968 
1.7501093e+2, 2.1578403e+2, -913838.2, -983433.4, 79272.586, -0.05187102, -0.3365654, -862062.0, -36771.934, 0.0, 9.9999075, 9.998997 
1.7501149e+2, 2.2578354e+2, -706811.4, -722442.44, 50961.555, -0.0011100891, -0.3363232, -663069.5, 64225.34, 0.0, 10.000188, 9.999973 
1.7501174e+2, 2.3578309e+2, -627991.44, -645827.94, 103257.805, 0.05542539, -0.39287344, -533267.5, 96028.35, 0.0, 10.000103, 9.999871 
1.750109e+2, 2.4578297e+2, -575422.1, -625849.1, 100045.64, 0.01760756, -0.3614407, -497461.75, 33834.758, 0.0, 10.000032, 9.99937 
1.750093e+2, 2.5578314e+2, -493933.16, -541197.25, 81259.94, -0.09287823, -0.2975585, -432938.7, 358.07986, 0.0, 9.999938, 9.999327 
1.7500854e+2, 2.6578283e+2, -310740.53, -384121.03, 48561.375, -0.082954, -0.26781535, -286567.16, 48733.29, 0.0, 10.000447, 9.999486 
1.7500848e+2, 2.7578196e+2, -90353.88, -238836.92, 52825.91, 0.018920407, -0.32043976, -73478.0, 163830.84, 0.0, 10.00133, 9.999387 
1.7500766e+2, 2.8578115e+2, -2213.9202, -217592.56, 27811.332, 0.089277096, -0.30207896, 1319.3287, 140636.77, 0.0, 10.001582, 9.998737 
1.750063e+2, 2.9578078e+2, 57467.31, -134498.61, 48528.633, 0.13364454, -0.22954352, 69037.86, 110360.336, 0.00000027417164, 10.001298, 9.998775 
1.7500265e+2, 3.0577895e+2, 37843.5, -213336.4, 38193.766, -0.06072069, -0.24548522, 43522.734, 43522.734, 0.000009335192, 10.001239, 9.99793 
1.7499933e+2, 3.1577802e+2, 102603.9, -36875.297, 5335.5156, -0.21681437, -0.13598377, 102807.7, 102807.7, 0.000059812894, 10.001037, 9.99923 
1.8501967e+2, 1.2579171e+2, -1915558.9, -1990136.5, 58458.035, -0.11992871, -0.18426885, -1883509.4, -176290.16, 0.0014119628, 9.999339, 9.998419 
1.8501917e+2, 1.3579178e+2, -1739234.4, -1751245.5, 172305.89, -0.19101533, -0.109485656, -1572829.5, 36398.832, 0.0008198644, 9.999464, 9.999326 
1.8501621e+2, 1.4579114e+2, -1456598.1, -1453655.8, 3712.1936, -0.24048862, -0.16391067, -1451133.9, 60101.3, 0.0003462985, 10.000254, 10.000308 
1.8501338e+2, 1.5579213e+2, -1182451.9, -1308025.8, -49053.94, -0.062421724, -0.09744113, -1165561.4, 247658.23, 0.000084445885, 10.001621, 9.99998 
1.8501253e+2, 1.6579095e+2, -1249164.5, -1449870.4, 158030.33, -0.033474103, -0.13319476, -1162316.1, 152912.84, 0.000006352812, 10.001202, 9.9985285 
1.85013e+2, 1.7578776e+2, -1394105.6, -1460334.1, 170994.64, -0.12791048, -0.31739995, -1253048.3, -35787.57, 0.000000056960435, 9.999488, 9.998615 
1.8501249e+2, 1.8578656e+2, -1180745.8, -1114768.6, 29609.58, -0.11016735, -0.3909976, -1103429.3, 15839.946, 0.0, 9.999449, 10.000333 
1.8501125e+2, 1.9578691e+2, -922625.56, -955988.06, -25714.861, -0.012972207, -0.40153155, -908655.25, 112603.88, 0.0, 10.000616, 10.000189 
1.8501072e+2, 2.0578708e+2, -916465.44, -1039939.2, 77010.18, -0.00032820433, -0.3352278, -879500.7, 43757.03, 0.0, 10.000581, 9.998955 
1.850107e+2, 2.1578705e+2, -948115.25, -997296.5, 118734.14, -0.051940378, -0.2493059, -851452.06, -26188.947, 0.0, 9.999657, 9.999022 
1.8501146e+2, 2.2578646e+2, -739277.1, -699705.8, 118320.22, -0.0012937738, -0.2784711, -599528.4, 127739.31, 0.0, 9.999787, 10.000332 
1.8501286e+2, 2.3578544e+2, -519909.53, -556060.9, 88593.28, 0.13302712, -0.42824438, -447566.75, 181705.31, 0.0, 10.000673, 10.000219 
1.8501191e+2, 2.4578546e+2, -473768.94, -569448.75, 67691.63, 0.082854375, -0.4030204, -438718.47, 92552.305, 0.0, 10.000696, 9.999436 
1.850092e+2, 2.557863e+2, -467626.4, -520230.22, 90043.99, -0.10056338, -0.2798032, -400121.53, 33143.508, 0.0, 10.000086, 9.999394 
1.8500882e+2, 2.6578602e+2, -354628.16, -425469.1, 118436.04, -0.085913375, -0.24150953, -266429.44, 68839.875, 0.0, 10.000233, 9.999305 
1.8501022e+2, 2.7578467e+2, -160906.72, -290482.22, 95376.77, 0.08525174, -0.31998053, -110394.07, 126888.92, 0.0, 10.000927, 9.999225 
1.8500943e+2, 2.8578386e+2, -75755.0, -259544.5, 22818.074, 0.13569754, -0.29676634, -72964.44, 66328.62, 0.0, 10.001098, 9.998684 
1.8500698e+2, 2.9578373e+2, -8623.623, -174492.89, 8133.303, 0.096843965, -0.19290559, -8225.766, 33070.734, 0.00000021710767, 10.0008745, 9.998704 
1.8500377e+2, 3.05782e+2, 84129.17, -151324.33, 49616.605, -0.074977174, -0.21600015, 94157.63, 94157.63, 0.0000079127085, 10.001376, 9.998295 
1.8500234e+2, 3.1578177e+2, 279729.7, 13414.463, 34738.02, -0.08057152, -0.06723801, 284186.3, 284186.3, 0.00005116492, 10.002371, 9.998957 
1.9501919e+2, 1.2579332e+2, -1787429.6, -1727455.1, 38079.65, -0.13654427, -0.30696362, -1708972.9, -1774.2399, 0.0013384911, 9.99936, 10.000209 
1.95019e+2, 1.357944e+2, -1629552.8, -1516990.4, 181816.5, -0.16657281, -0.3164194, -1382943.5, 226245.53, 0.0007672974, 9.999445, 10.000939 
1.9501658e+2, 1.4579454e+2, -1571133.6, -1693107.1, 49243.76, -0.24790037, -0.2801111, -1553734.6, -42543.027, 0.00031672008, 10.000255, 9.998666 
1.9501445e+2, 1.5579554e+2, -1285651.4, -1520880.1, -839.9402, -0.13159053, -0.049886793, -1285648.4, 127539.516, 0.000073711046, 10.001617, 9.998519 
1.9501327e+2, 1.6579516e+2, -1192860.5, -1334906.4, 89718.22, -0.090189606, 0.020189336, -1149456.1, 165736.5, 0.0000047225935, 10.001203, 9.999319 
1.950128e+2, 1.7579345e+2, -1349542.3, -1368581.8, 121720.94, -0.11355093, -0.09931431, -1236969.4, -19762.602, 0.0000000036456946, 9.999488, 9.999245 
1.9501281e+2, 1.8579184e+2, -1291978.0, -1343288.1, 68825.92, -0.038052622, -0.15744464, -1244181.1, -124959.016, 0.0, 9.9994335, 9.998776 
1.9501318e+2, 1.9579041e+2, -1018545.1, -1151650.3, 18208.191, 0.10427347, -0.19112459, -1016099.25, 5137.7563, 0.0, 10.000599, 9.9988575 
1.9501276e+2, 2.0579045e+2, -830380.8, -852888.5, 37787.66, 0.13186318, -0.14623696, -802206.8, 121029.17, 0.0, 10.0005455, 10.000256 
1.9501172e+2, 2.1579145e+2, -873688.06, -831787.5, 95307.16, 0.07155496, -0.08735736, -755155.1, 70069.13, 0.0, 9.99961, 10.000179 
1.9501185e+2, 2.2579096e+2, -787096.0, -787714.56, 146145.36, 0.048585642, -0.12751637, -641259.6, 85966.375, 0.0, 9.9997425, 9.999748 
1.9501284e+2, 2.3578945e+2, -561680.5, -629412.3, 123158.66, 0.05044289, -0.2689011, -467816.38, 161420.84, 0.0, 10.000617, 9.999742 
1.9501203e+2, 2.45789e+2, -431720.63, -471654.53, 39722.73, 0.015170501, -0.30624074, -407228.88, 124010.0, 0.0, 10.000651, 10.00013 
1.9500992e+2, 2.557893e+2, -432278.53, -434101.5, 76078.44, -0.050983924, -0.30633616, -357106.13, 76127.85, 0.0, 10.0000305, 10.000012 
1.950099e+2, 2.6578903e+2, -383071.22, -477640.13, 139497.33, -0.012413771, -0.27700937, -283062.34, 52175.184, 0.0, 10.000206, 9.998959 
1.9501148e+2, 2.7578813e+2, -194538.0, -349438.72, 125862.17, 0.103325866, -0.27798283, -124205.25, 113044.19, 0.0, 10.000877, 9.998847 
1.9500978e+2, 2.857871e+2, -108551.516, -321565.16, 11052.817, 0.04730695, -0.23063949, -107979.55, 31283.58, 0.0, 10.001073, 9.998269 
1.9500564e+2, 2.957865e+2, -44011.64, -232926.67, 10559.371, -0.13876238, -0.13276246, -43423.26, -2150.146, 0.0000002787285, 10.000812, 9.998333 
1.9500399e+2, 3.0578437e+2, 150379.84, -3354.1787, 84036.125, -0.20359081, -0.230656, 187401.4, 187401.4, 0.000006930128, 10.001342, 9.999322 
1.9500677e+2, 3.157834e+2, 294280.66, 68743.02, 70023.414, 0.10011567, -0.26546684, 314252.5, 314252.5, 0.00004299831, 10.00228, 9.999372 
2.0501849e+2, 1.2579449e+2, -1856456.3, -1696528.6, -92039.02, -0.09880997, -0.28229618, -1654568.8, 52621.85, 0.0012408808, 9.998626, 10.000774 
2.0501891e+2, 1.3579588e+2, -1641926.1, -1461678.6, -55936.88, -0.09912039, -0.31872636, -1445730.6, 163444.0, 0.0007023467, 9.999094, 10.001493 
2.0501676e+2, 1.4579642e+2, -1689144.0, -1723079.4, -119162.57, -0.20264646, -0.27868202, -1585747.1, -74574.92, 0.0002832004, 9.999342, 9.998899 
2.0501469e+2, 1.5579727e+2, -1577005.9, -1633809.4, -48323.43, -0.15991049, -0.08582387, -1549355.8, -136185.05, 0.000063005726, 9.999503, 9.998761 
2.0501338e+2, 1.6579717e+2, -1374926.8, -1390343.3, 42928.52, -0.12775758, -0.01418367, -1339019.9, -23846.988, 0.0000035155435, 9.999808, 9.999611 
2.0501263e+2, 1.7579615e+2, -1225325.3, -1281685.4, 31131.604, -0.111804426, -0.09201549, -1211513.8, 5666.4897, 0.0000000004928599, 10.000221, 9.99949 
2.0501289e+2, 1.8579495e+2, -1152766.3, -1291018.0, 78062.22, -0.020901522, -0.113065846, -1117622.8, 1569.6481, 0.0, 10.000459, 9.998636 
2.0501389e+2, 1.9579366e+2, -1034192.0, -1174292.4, 118441.734, 0.120740384, -0.12159985, -966635.94, 54571.906, 0.0, 10.000556, 9.99872 
2.0501344e+2, 2.0579332e+2, -785753.0, -830642.6, 107174.39, 0.13357008, -0.1075511, -698698.4, 224511.56, 0.0, 10.000853, 10.00026 
2.0501195e+2, 2.1579362e+2, -633831.25, -716187.9, 58968.598, 0.054243032, -0.11692563, -603086.3, 222116.8, 0.0, 10.00126, 10.000178 
2.0501195e+2, 2.2579336e+2, -609115.94, -702118.75, 114432.6, 0.024582831, -0.13507175, -532097.3, 195105.44, 0.0, 10.000968, 9.999741 
2.0501304e+2, 2.357927e+2, -628479.94, -662857.2, 122231.016, 0.033328168, -0.19158757, -522234.9, 106972.24, 0.0, 10.000167, 9.999726 
2.0501229e+2, 2.4579209e+2, -541185.1, -522050.6, 28342.799, 0.017021988, -0.2458611, -501703.88, 29506.563, 0.0, 9.99989, 10.000149 
2.0501025e+2, 2.5579146e+2, -429627.03, -431447.03, 7368.199, -0.017426828, -0.34087712, -423112.84, 10100.821, 0.0, 10.00004, 10.000029 
2.0501046e+2, 2.6579124e+2, -368864.75, -442500.06, 105835.99, 0.025686773, -0.31858906, -293625.3, 41590.348, 0.0, 10.000186, 9.9992075 
2.0501235e+2, 2.7579117e+2, -256903.6, -353527.13, 122498.086, 0.1334995, -0.26096204, -173534.66, 63683.78, 0.0, 10.000343, 9.999073 
2.0501083e+2, 2.8579006e+2, -142775.67, -357791.34, 47218.477, 0.055309895, -0.22243603, -132863.23, 6369.101, 0.0, 10.000931, 9.998089 
2.0500673e+2, 2.9578868e+2, 94689.01, -184006.03, 59202.855, -0.16007172, -0.18815789, 106743.96, 147993.61, 0.00000036340376, 10.001852, 9.998165 
2.050058e+2, 3.057864e+2, 324999.84, 95293.94, 127280.55, -0.20952287, -0.29671565, 381586.5, 381586.5, 0.000006339283, 10.002486, 9.999449 
2.0500988e+2, 3.1578454e+2, 368680.38, 102411.02, 4579.791, 0.1601443, -0.44147533, 368759.13, 368759.13, 0.00003635789, 10.002823, 9.999329 
2.1501726e+2, 1.2579519e+2, -1896393.3, -1787340.8, -95382.555, -0.11528284, -0.108789705, -1731999.1, -24804.041, 0.0011227193, 9.998656, 10.000138 
2.150187e+2, 1.3579628e+2, -1667487.1, -1526920.0, -34344.44, -0.04305755, -0.10728696, -1518977.5, 90206.43, 0.0006268979, 9.999142, 10.001027 
2.1501663e+2, 1.4579688e+2, -1541494.9, -1423368.5, -118684.61, -0.16791543, -0.14843482, -1349862.9, 161312.97, 0.0002465844, 9.99937, 10.000944 
2.1501394e+2, 1.5579732e+2, -1440257.6, -1355389.1, -36165.06, -0.20351584, -0.20352188, -1342068.8, 71099.28, 0.000052325075, 9.999524, 10.000664 
2.1501267e+2, 1.6579695e+2, -1391143.4, -1420424.4, 52713.215, -0.19604617, -0.23707648, -1351075.3, -35904.895, 0.000002586899, 9.999794, 9.999413 
2.1501236e+2, 1.7579588e+2, -1233082.8, -1293581.5, 50769.766, -0.17396507, -0.29872128, -1204234.0, 12947.191, 0.000000000052014764, 10.000208, 9.999411 
2.150126e+2, 1.8579589e+2, -1069206.3, -1112989.4, 77889.64, -0.11018108, -0.26228318, -1010190.25, 108990.266, 0.0, 10.000436, 9.999872 
2.1501325e+2, 1.9579662e+2, -961616.5, -1020716.0, 128917.15, -0.014251788, -0.18973857, -858905.8, 162265.92, 0.0, 10.000543, 9.999782 
2.1501267e+2, 2.0579572e+2, -879628.25, -1020166.9, 117233.914, -0.042273268, -0.21255098, -813217.06, 109962.56, 0.0, 10.000829, 9.99897 
2.1501118e+2, 2.1579358e+2, -720915.1, -883694.3, 74913.36, -0.16284455, -0.33811387, -691687.0, 133512.8, 0.0, 10.001202, 9.999055 
2.1501155e+2, 2.2579363e+2, -577652.25, -623047.6, 78673.61, -0.12338889, -0.3069251, -518467.56, 208730.9, 0.0, 10.000909, 10.000313 
2.1501328e+2, 2.3579518e+2, -605804.56, -597791.44, 101837.81, 0.030092582, -0.19714236, -499881.4, 129300.56, 0.0, 10.000091, 10.00021 
2.1501254e+2, 2.4579473e+2, -592683.9, -621063.94, 28700.273, 0.039066937, -0.22216506, -574857.3, -43671.754, 0.0, 9.999859, 9.999485 
2.1501005e+2, 2.5579277e+2, -478845.75, -516004.63, 18034.982, -0.056444813, -0.38045457, -471532.0, -38327.934, 0.0, 9.999966, 9.999484 
2.150103e+2, 2.657927e+2, -317509.6, -327650.47, 107839.836, -0.020089213, -0.36366177, -214621.06, 120582.34, 0.0, 10.000152, 10.00001 
2.1501267e+2, 2.7579382e+2, -215242.92, -254091.94, 137671.0, 0.11580479, -0.26510778, -95632.84, 141557.48, 0.0, 10.000286, 9.999783 
2.1501237e+2, 2.857927e+2, -136472.14, -337046.84, 74822.33, 0.10402894, -0.27062494, -111635.81, 27565.348, 0.0, 10.000901, 9.998243 
2.1501008e+2, 2.957902e+2, 90361.36, -183454.98, 95826.39, -0.02400937, -0.36242792, 120565.56, 161791.97, 0.0000004878426, 10.001808, 9.998191 
2.1500906e+2, 3.0578807e+2, 265594.97, -23522.662, 138769.0, -0.14087677, -0.41255015, 321421.0, 321421.0, 0.0000063211505, 10.002467, 9.998643 
2.1501139e+2, 3.157853e+2, 313597.53, 3612.6003, 14895.013, 0.00086039683, -0.57422143, 314311.63, 314311.63, 0.0000317033, 10.002753, 9.998688 
2.2501712e+2, 1.25797e+2, -1670602.3, -1723910.4, 71867.74, -0.07515982, -0.060216997, -1620605.1, 86574.73, 0.0009915447, 10.000388, 9.9997425 
2.2501801e+2, 1.357978e+2, -1729751.5, -1597870.5, 135359.34, -0.011462281, -0.046351302, -1513244.4, 95928.516, 0.000545711, 9.998906, 10.000644 
2.2501603e+2, 1.4579843e+2, -1611000.0, -1406945.0, 36345.62, -0.12803218, -0.09200025, -1400664.5, 110499.086, 0.00020902291, 9.998668, 10.001404 
2.2501369e+2, 1.5579835e+2, -1432089.1, -1302209.1, -8401.467, -0.16887954, -0.24509777, -1301668.0, 111490.39, 0.000042237294, 9.999364, 10.001112 
2.2501273e+2, 1.6579814e+2, -1369938.1, -1390579.6, 53083.09, -0.16778065, -0.29293063, -1326181.8, -11023.577, 0.0000020119714, 9.999851, 9.999592 
2.2501269e+2, 1.7579776e+2, -1234877.9, -1275736.9, 67350.445, -0.15288503, -0.30398223, -1184926.6, 32236.174, 0.0, 10.000111, 9.999585 
2.2501296e+2, 1.8579814e+2, -1055615.6, -1066187.0, 71115.734, -0.11048737, -0.25586745, -989589.4, 129568.5, 0.0, 10.000358, 10.000229 
2.2501345e+2, 1.9579907e+2, -938134.06, -975010.4, 46160.637, -0.046872016, -0.20021611, -906865.4, 114280.914, 0.0, 10.000566, 10.000083 
2.2501296e+2, 2.05798e+2, -910806.7, -1057638.1, 65164.504, -0.08715305, -0.24317043, -886057.9, 37097.676, 0.0, 10.000706, 9.998777 
2.2501175e+2, 2.1579538e+2, -794573.06, -938065.6, 94034.086, -0.20189492, -0.39769793, -748040.25, 77140.445, 0.0, 10.000773, 9.99889 
2.2501205e+2, 2.2579539e+2, -638828.0, -645192.9, 87140.5, -0.13827208, -0.36514485, -554811.9, 172368.22, 0.0, 10.00046, 10.000376 
2.250135e+2, 2.3579723e+2, -641285.1, -610211.1, 64745.566, 0.060197413, -0.2340106, -559164.44, 69997.08, 0.0, 9.9998255, 10.000251 
2.2501305e+2, 2.4579705e+2, -503205.0, -602911.4, 64252.254, 0.06990949, -0.22182661, -471733.56, 59429.656, 0.0, 10.000576, 9.999268 
2.250112e+2, 2.5579536e+2, -143532.05, -377726.6, 71773.1, -0.05345832, -0.333318, -123286.14, 309894.06, 0.0, 10.002367, 9.999278 
2.250114e+2, 2.65795e+2, -8181.193, -220830.73, 85886.086, -0.039317638, -0.31657365, 22173.87, 357357.03, 0.0, 10.002455, 9.999638 
2.2501315e+2, 2.7579546e+2, -86699.125, -226893.95, 23691.59, 0.08885238, -0.24812846, -82803.7, 154373.3, 0.0, 10.001315, 9.999475 
2.2501358e+2, 2.8579414e+2, -42225.203, -267408.8, -8839.724, 0.11178272, -0.27197915, -41878.73, 97309.766, 0.00000000075483947, 10.001431, 9.998472 
2.2501293e+2, 2.9579166e+2, 188474.72, -123638.56, 1633.8339, 0.053202324, -0.38111103, 188483.27, 229693.98, 0.00000073344995, 10.00242, 9.998311 
2.250124e+2, 3.0578983e+2, 241457.55, -136256.39, 29244.201, -0.062432483, -0.35826752, 243708.34, 243708.34, 0.000007274646, 10.002726, 9.9977455 
2.2501391e+2, 3.1578666e+2, 261895.42, -71769.91, -134464.6, -0.007783721, -0.47454226, 309337.97, 309337.97, 0.000030117351, 10.002596, 9.998253 
2.3501776e+2, 1.2579991e+2, -1674027.3, -1741729.4, -11158.252, -0.0838337, -0.14076081, -1672235.6, 34909.652, 0.0008595536, 10.000441, 9.999595 
2.3501661e+2, 1.3580029e+2, -1748091.5, -1648754.5, 82544.97, -0.057150263, -0.13614051, -1602087.0, 7056.2944, 0.00046458573, 9.998952, 10.0002775 
2.3501472e+2, 1.4580083e+2, -1685539.5, -1556096.5, 55187.363, -0.13622147, -0.1190091, -1535762.1, -24624.023, 0.00017252294, 9.998651, 10.000386 
2.3501377e+2, 1.5580031e+2, -1490414.4, -1429699.9, 21636.658, -0.11429128, -0.213348, -1422778.3, -9636.385, 0.000033446406, 9.999392, 10.000223 
2.3501346e+2, 1.658007e+2, -1335640.0, -1317266.4, 57011.918, -0.09425733, -0.18731998, -1268705.9, 46430.918, 0.0000017722703, 9.999844, 10.000101 
2.3501351e+2, 1.758017e+2, -1201439.3, -1205948.0, 81713.82, -0.09505561, -0.11323026, -1121948.8, 95176.99, 0.0000000001389195, 10.000109, 10.000066 
2.3501381e+2, 1.858017e+2, -1100292.8, -1151547.0, 74127.77, -0.073604554, -0.09682326, -1047487.25, 71637.64, 0.0, 10.000325, 9.9996605 
2.3501426e+2, 1.9580093e+2, -972145.06, -1041719.25, 56680.344, -0.034808185, -0.15297699, -940428.0, 80704.0, 0.0, 10.000546, 9.999636 
2.3501408e+2, 2.0580009e+2, -850022.25, -919746.8, 63731.336, -0.056052648, -0.2047786, -812241.2, 110897.195, 0.0, 10.000657, 9.999745 
2.3501346e+2, 2.1579908e+2, -742056.25, -818088.56, 100833.64, -0.12257722, -0.2959912, -672310.4, 152834.9, 0.0, 10.000724, 9.999739 
2.3501329e+2, 2.2579876e+2, -681803.2, -720743.94, 59562.504, -0.07152923, -0.30938628, -638609.44, 88537.61, 0.0, 10.000404, 9.999884 
2.350135e+2, 2.3579888e+2, -680882.44, -678183.25, 53220.63, 0.064559184, -0.29782003, -626295.1, 2850.5007, 0.0, 9.999764, 9.999816 
2.3501354e+2, 2.4579902e+2, -490847.8, -567110.1, 126950.375, 0.049159218, -0.2463028, -396425.66, 134718.38, 0.0, 10.000535, 9.999532 
2.3501351e+2, 2.5579914e+2, -146678.53, -367483.44, 136144.95, -0.071912624, -0.2011525, -81797.93, 351345.0, 0.0, 10.002296, 9.999383 
2.3501356e+2, 2.6579806e+2, -119288.04, -442082.66, 36881.9, -0.0800123, -0.17756276, -115127.61, 220027.84, 0.0, 10.002417, 9.998136 
2.3501366e+2, 2.7579603e+2, -189192.63, -424901.9, -6537.598, -0.007276438, -0.2130022, -189011.44, 48167.555, 0.0, 10.001252, 9.998145 
2.3501422e+2, 2.8579438e+2, -24116.518, -222721.66, 24639.098, 0.01880681, -0.22465737, -21105.426, 118088.734, 0.00000003119879, 10.001403, 9.998793 
2.3501508e+2, 2.9579306e+2, 194286.42, -100917.26, 40246.1, 0.010361074, -0.24819066, 199674.94, 240877.81, 0.0000012360658, 10.002368, 9.998496 
2.3501559e+2, 3.0579165e+2, 168220.77, -276625.56, 21448.654, -0.029318517, -0.13705282, 169252.55, 169252.55, 0.000009095323, 10.002683, 9.996799 
2.3501702e+2, 3.1578875e+2, 231958.5, -111658.86, -135333.05, 0.01632465, -0.13487148, 278857.97, 278857.97, 0.00003154515, 10.002508, 9.998018 
2.4501814e+2, 1.2580286e+2, -1798895.1, -1755470.1, -31499.379, -0.030753603, -0.21090929, -1738925.1, -31812.244, 0.0007335385, 9.999389, 10.0000105 
2.4501562e+2, 1.3580325e+2, -1642698.1, -1588328.6, 93539.59, -0.08120921, -0.22317423, -1518103.6, 91005.02, 0.00038622954, 9.999639, 10.000366 
2.4501416e+2, 1.4580381e+2, -1513614.3, -1585782.5, 145818.75, -0.1367701, -0.15398453, -1399481.3, 111623.766, 0.00013762695, 10.000312, 9.999379 
2.4501471e+2, 1.5580304e+2, -1279062.8, -1430498.0, 98313.48, -0.050723683, -0.17385331, -1230689.0, 182426.75, 0.000025817635, 10.001295, 9.999296 
2.4501465e+2, 1.6580318e+2, -1151552.3, -1229301.3, 76699.33, -0.020753173, -0.130651, -1104438.4, 210675.95, 0.0000016011192, 10.001113, 10.00009 
2.4501413e+2, 1.7580387e+2, -1216904.0, -1219413.6, 51526.19, -0.038363583, -0.085300185, -1166617.4, 50487.523, 0.0000000006420841, 10.000027, 10.000011 
2.4501415e+2, 1.8580347e+2, -1204610.1, -1230911.1, 71209.05, -0.040165406, -0.092317395, -1145347.5, -26239.438, 0.0, 9.999735, 9.999397 
2.4501458e+2, 1.9580221e+2, -1067448.0, -1110187.8, 66512.83, -0.028114814, -0.17061968, -1018956.4, 2164.2808, 0.0, 9.9999895, 9.99943 
2.4501462e+2, 2.0580183e+2, -913935.94, -896737.3, 58558.1, -0.031364538, -0.1921122, -846150.5, 76972.31, 0.0, 9.999989, 10.000226 
2.4501449e+2, 2.1580204e+2, -862374.56, -828906.94, 49514.832, -0.035954263, -0.20863055, -793374.7, 31743.035, 0.0, 9.999706, 10.000153 
2.4501447e+2, 2.2580159e+2, -682330.94, -777375.1, 25940.242, -0.0011813081, -0.22642447, -675712.06, 51408.74, 0.0, 10.000635, 9.999386 
2.4501456e+2, 2.358006e+2, -325932.3, -556967.25, 10088.073, 0.065237045, -0.27866927, -325492.66, 303637.7, 0.0, 10.002421, 9.999367 
2.450146e+2, 2.458003e+2, -297412.6, -488220.6, 52333.152, 0.0331229, -0.24508324, -284001.72, 247131.66, 0.0, 10.0019245, 9.999407 
2.4501462e+2, 2.5580046e+2, -521122.3, -562450.44, 26023.23, -0.06139762, -0.18446636, -508556.7, -75424.48, 0.0, 9.9997835, 9.999257 
2.4501504e+2, 2.6579928e+2, -432926.6, -604865.44, 15920.284, -0.06472937, -0.1604198, -431464.94, -96319.29, 0.0, 10.000307, 9.998036 
2.4501574e+2, 2.757971e+2, 24103.045, -335142.63, 64599.15, 0.0052378294, -0.20019537, 35366.074, 272536.2, 0.0, 10.002779, 9.998025 
2.4501663e+2, 2.857953e+2, 222071.83, -166445.63, 95172.34, 0.025248112, -0.19287595, 244132.84, 383320.72, 0.00000009388162, 10.003368, 9.998232 
2.4501753e+2, 2.9579374e+2, 193129.6, -152897.39, 31752.313, 0.011953487, -0.18811753, 196019.14, 237220.13, 0.0000018075962, 10.002596, 9.998022 
2.4501841e+2, 3.0579183e+2, 123547.24, -301508.7, 39692.773, 0.0050329184, -0.103100844, 127222.08, 127222.08, 0.000010445255, 10.002388, 9.996773 
2.4501969e+2, 3.1578955e+2, 256347.22, -60833.316, -76893.99, 0.03928953, -0.032582827, 274005.53, 274005.53, 0.00003251449, 10.002515, 9.998363 
2.5501794e+2, 1.2580599e+2, -1723976.0, -1613085.8, -47995.24, -0.021171357, -0.26201546, -1595198.0, 111883.086, 0.0006147494, 9.999435, 10.000972 
2.550149e+2, 1.3580666e+2, -1596383.3, -1501183.0, 108168.17, -0.13227826, -0.31647742, -1430604.8, 178464.3, 0.00031221876, 9.999676, 10.000948 
2.550143e+2, 1.4580733e+2, -1585222.3, -1737358.9, 177951.4, -0.1706438, -0.2034157, -1467762.5, 43301.973, 0.00010529937, 10.000324, 9.998333 
2.5501624e+2, 1.5580647e+2, -1345468.1, -1570370.8, 134715.36, -0.042093206, -0.13347022, -1282438.6, 130641.516, 0.000019009012, 10.001304, 9.998331 
2.5501606e+2, 1.6580547e+2, -1193448.4, -1311796.6, 30979.973, -0.0038289744, -0.12955451, -1185829.3, 129262.08, 0.0000013062046, 10.001096, 9.999532 
2.550143e+2, 1.7580433e+2, -1251887.3, -1292046.3, 19756.482, -0.037982967, -0.21103776, -1243797.5, -26698.072, 0.000000000635992, 10.000031, 9.999509 
2.5501376e+2, 1.8580353e+2, -1204350.3, -1227742.3, 76890.43, -0.06294606, -0.23588873, -1138271.4, -19165.041, 0.0, 9.999722, 9.999428 
2.5501415e+2, 1.9580288e+2, -1065812.3, -1104489.4, 79504.5, -0.08302867, -0.26043507, -1003328.1, 17784.793, 0.0, 9.999976, 9.999476 
2.5501448e+2, 2.0580317e+2, -925803.8, -908796.44, 43198.727, -0.057868417, -0.21345358, -873272.4, 49837.355, 0.0, 9.999936, 10.000168 
2.5501466e+2, 2.1580414e+2, -873145.44, -845201.75, 49569.156, -0.0042094896, -0.1485623, -807673.0, 17426.635, 0.0, 9.999677, 10.000056 
2.550154e+2, 2.2580379e+2, -719972.4, -844595.2, 88039.46, 0.015574278, -0.12749873, -674424.4, 52678.297, 0.0, 10.000588, 9.998948 
2.550165e+2, 2.3580237e+2, -363644.3, -625153.56, 71376.62, 0.005814764, -0.18137084, -345431.2, 283685.28, 0.0, 10.002373, 9.998924 
2.55016e+2, 2.4580087e+2, -338729.9, -564083.75, -33529.47, -0.030698184, -0.21921386, -333847.0, 197284.5, 0.0, 10.001886, 9.9989 
2.550143e+2, 2.5579926e+2, -555583.56, -619447.1, -37689.95, -0.083638534, -0.28480926, -538117.25, -104969.0, 0.0, 9.99972, 9.998897 
2.5501567e+2, 2.6579863e+2, -346532.78, -417384.56, 105134.85, -0.04344215, -0.26359, -271015.75, 64138.023, 0.0, 10.000273, 9.999342 
2.5501928e+2, 2.7579856e+2, 90712.49, -182520.69, 154357.58, 0.06557146, -0.21652868, 160227.8, 397379.38, 0.0, 10.002712, 9.999109 
2.550206e+2, 2.8579676e+2, 114717.67, -377206.22, 58432.824, 0.070423946, -0.18158147, 121563.305, 260733.8, 0.00000013919723, 10.003321, 9.996803 
2.5502005e+2, 2.957935e+2, 98666.09, -331504.94, 9768.38, -0.008996538, -0.20177583, 98887.8, 140093.77, 0.0000021199414, 10.0025215, 9.996831 
2.550207e+2, 3.057902e+2, 183705.36, -167768.77, 41645.305, -0.0167054, -0.258829, 188572.4, 188572.4, 0.000010666905, 10.002356, 9.9977045 
2.5502157e+2, 3.1578884e+2, 308711.44, 65288.68, -57510.42, -0.053648353, -0.18048817, 321614.72, 321614.72, 0.00003213242, 10.002445, 9.999261 
2.650164e+2, 1.2580882e+2, -1938510.4, -1746033.9, -89826.77, -0.043952364, -0.20653845, -1710626.3, -3571.3848, 0.0005062773, 9.9980955, 10.0006895 
2.650154e+2, 1.358088e+2, -1507627.9, -1515392.9, -46885.598, -0.08805204, -0.28415197, -1464464.3, 144586.3, 0.0002464049, 10.00052, 10.000442 
2.650153e+2, 1.4580914e+2, -1534548.0, -1687264.9, -4381.8853, -0.113582246, -0.19034456, -1534422.4, -23373.941, 0.00007758306, 10.000569, 9.998556 
2.6501614e+2, 1.5580826e+2, -1658865.9, -1697597.3, 34719.105, -0.065988936, -0.14618583, -1638476.8, -225414.13, 0.000013419433, 9.999046, 9.9985485 
2.6501578e+2, 1.6580714e+2, -1475739.6, -1442067.4, 20371.717, -0.0401981, -0.16555443, -1432475.1, -117401.625, 0.0000010267595, 9.999129, 9.99959 
2.650145e+2, 1.758059e+2, -1201594.0, -1261468.1, 46137.156, -0.034390286, -0.26484492, -1176532.3, 40549.4, 0.0000000012219834, 10.000346, 9.999568 
2.650144e+2, 1.8580508e+2, -1023171.06, -1144216.3, 134400.28, -0.031713624, -0.29092124, -936294.8, 182793.17, 0.0, 10.000983, 9.999394 
2.6501524e+2, 1.9580452e+2, -904146.7, -1039826.0, 120062.75, -0.026418978, -0.30066183, -834083.2, 187010.48, 0.0, 10.001143, 9.999361 
2.6501557e+2, 2.0580445e+2, -758500.0, -926639.0, 51905.73, -0.016595673, -0.2378303, -743767.25, 179328.63, 0.0, 10.001519, 9.999279 
2.6501548e+2, 2.158047e+2, -592817.1, -802921.3, -14993.273, -0.0040704627, -0.15309176, -591752.56, 233343.38, 0.0, 10.0020075, 9.999224 
2.6501617e+2, 2.2580425e+2, -577628.0, -757622.4, 35579.848, -0.008636985, -0.111795045, -570850.1, 156250.61, 0.0, 10.001487, 9.999112 
2.6501748e+2, 2.3580328e+2, -669291.2, -758521.0, 47897.332, -0.021997374, -0.13561384, -648448.9, -19339.826, 0.0, 10.000215, 9.999049 
2.6501718e+2, 2.4580175e+2, -549858.2, -695045.25, -37569.77, -0.031592045, -0.1706275, -540712.44, -9587.468, 0.0, 10.00056, 9.998643 
2.6501572e+2, 2.557997e+2, -224430.27, -479246.44, -24727.549, -0.031423815, -0.25417373, -222052.86, 211094.25, 0.0, 10.002088, 9.998713 
2.6501742e+2, 2.657989e+2, -49044.285, -251846.78, 126037.7, 0.00982237, -0.24971479, 11318.852, 346472.1, 0.0, 10.002219, 9.99954 
2.650215e+2, 2.75799e+2, -96017.016, -250093.13, 80147.35, 0.09215054, -0.20837317, -61886.46, 175261.05, 0.0, 10.001337, 9.999305 
2.6502302e+2, 2.8579736e+2, -149068.9, -501250.4, -1557.0251, 0.077595346, -0.16721357, -149062.03, -9898.239, 0.00000017298198, 10.001492, 9.996834 
2.6502243e+2, 2.957943e+2, 83214.18, -330109.38, 49792.61, -0.011211851, -0.17496262, 89128.02, 130325.63, 0.0000022646286, 10.002371, 9.996915 
2.650237e+2, 3.0579022e+2, 308804.0, -113395.375, 114568.19, 0.009806967, -0.31221616, 337889.56, 337889.56, 0.000010678338, 10.003226, 9.997667 
2.6502484e+2, 3.1578898e+2, 505129.63, 116632.3, -72809.3, -0.04106977, -0.21619524, 518326.72, 518326.72, 0.000032089163, 10.003963, 9.99889 
2.7501327e+2, 1.2581123e+2, -2041427.1, -1970404.0, -18362.137, -0.20503737, -0.059360195, -1965937.5, -258902.34, 0.00041453895, 9.998133, 9.999136 
2.7501678e+2, 1.3580966e+2, -1605618.6, -1730159.9, 31721.97, -0.016564025, -0.11904363, -1598004.3, 11048.427, 0.00019313562, 10.000565, 9.998945 
2.750169e+2, 1.458093e+2, -1430432.5, -1474946.9, -70597.17, -0.0246166, -0.105971575, -1378667.1, 132388.86, 0.000056136425, 10.0005865, 10.000005 
2.7501428e+2, 1.5580848e+2, -1559039.4, -1493218.5, -8825.062, -0.17182444, -0.20117036, -1492055.8, -78993.484, 0.000009372096, 9.999064, 9.999941 
2.7501366e+2, 1.6580828e+2, -1425346.5, -1339908.1, 60531.926, -0.18111052, -0.23109207, -1308539.1, 6520.851, 0.0000008660051, 9.999139, 10.000283 
2.7501443e+2, 1.7580849e+2, -1158556.3, -1171002.0, 93455.39, -0.091656104, -0.25402972, -1071116.8, 145935.42, 0.000000004874734, 10.000345, 10.000186 
2.7501583e+2, 1.8580809e+2, -1037443.4, -1165238.0, 135079.52, -0.0019619407, -0.2596656, -951910.6, 167143.0, 0.0, 10.000948, 9.999266 
2.7501765e+2, 1.9580726e+2, -924470.5, -1076143.9, 132803.55, 0.08097669, -0.28518754, -847375.9, 173685.92, 0.0, 10.001123, 9.999118 
2.750178e+2, 2.0580582e+2, -886015.7, -1186355.3, 65623.52, 0.043593697, -0.2519747, -872303.2, 50776.605, 0.0, 10.001492, 9.997514 
2.7501675e+2, 2.1580377e+2, -707295.6, -1030896.25, 4779.837, -0.08959406, -0.22457962, -707225.0, 117881.445, 0.0, 10.001961, 9.997683 
2.7501667e+2, 2.25803e+2, -540498.56, -664249.7, -17278.846, -0.11951014, -0.18022364, -538131.25, 188983.61, 0.0, 10.001418, 9.999787 
2.750173e+2, 2.358032e+2, -635072.3, -672321.06, 12914.051, -0.074006826, -0.1523646, -631033.06, -1923.2312, 0.0, 10.000149, 9.999675 
2.7501795e+2, 2.4580276e+2, -554208.1, -690249.2, 15428.435, -0.019889142, -0.11047345, -552480.4, -21365.168, 0.0, 10.000506, 9.998698 
2.750186e+2, 2.558017e+2, -236627.22, -490988.7, 30682.771, 0.036486946, -0.102237985, -232978.4, 200151.13, 0.0, 10.002025, 9.998664 
2.7502015e+2, 2.6580018e+2, -119975.234, -384997.5, 85630.52, 0.045287322, -0.11723823, -94715.055, 240429.03, 0.0, 10.002165, 9.99865 
2.750223e+2, 2.7579832e+2, -153934.69, -357428.94, 57892.855, 0.022308748, -0.18260695, -138617.47, 98541.484, 0.00000000009324417, 10.001283, 9.998593 
2.7502382e+2, 2.8579703e+2, -45094.652, -281202.97, 27044.139, -0.009069345, -0.15737073, -42036.59, 97132.42, 0.00000023612336, 10.001472, 9.998352 
2.7502447e+2, 2.9579598e+2, 170772.3, -139011.48, 88566.055, -0.06346639, -0.11310552, 194305.3, 235482.2, 0.0000024951785, 10.002321, 9.998254 
2.7502713e+2, 3.0579194e+2, 237426.44, -243795.47, 138525.1, 0.017690897, -0.2639078, 274453.44, 274453.44, 0.000011113361, 10.003169, 9.996788 
2.7502912e+2, 3.1578988e+2, 367540.44, -133544.97, -32482.506, -0.040837865, -0.15138908, 369637.3, 369637.3, 0.000032683794, 10.003822, 9.9972315 
2.8501236e+2, 1.2581153e+2, -1860007.9, -1826392.5, -43782.02, -0.1547693, -0.017955346, -1796302.9, -89267.0, 0.0003410361, 9.999147, 9.999627 
2.8501624e+2, 1.3581e+2, -1859245.9, -1819062.3, 129632.06, -0.027615549, -0.1041368, -1707974.3, -98922.6, 0.00015204525, 9.998693, 9.99923 
2.8501704e+2, 1.4580962e+2, -1622168.1, -1549439.0, 12052.406, 0.0025574744, -0.1147192, -1547493.8, -36439.664, 0.000040681283, 9.999189, 10.000169 
2.850146e+2, 1.5580913e+2, -1350126.6, -1375555.0, -32881.484, -0.112139784, -0.19176228, -1327586.8, 85469.31, 0.0000066741927, 10.000418, 10.0001 
2.850141e+2, 1.6580902e+2, -1197110.1, -1245649.9, -8398.771, -0.12881707, -0.21214123, -1195697.9, 119355.28, 0.00000074756446, 10.000782, 10.000141 
2.8501508e+2, 1.7580903e+2, -1142344.0, -1184432.0, -52790.816, -0.068973616, -0.23681632, -1106557.4, 110490.74, 0.000000006090155, 10.000544, 10.000008 
2.8501663e+2, 1.8580866e+2, -1127123.6, -1241670.0, -47458.348, 0.011151647, -0.21658254, -1110016.0, 9034.486, 0.0, 10.0004835, 9.99896 
2.850186e+2, 1.95808e+2, -1031689.0, -1159400.8, -75376.29, 0.09884511, -0.19223407, -996756.44, 24301.666, 0.0, 10.0005245, 9.998835 
2.8501877e+2, 2.058062e+2, -998561.7, -1222167.6, -50531.883, 0.036433868, -0.1905608, -987672.44, -64594.125, 0.0, 10.00064, 9.99767 
2.850176e+2, 2.1580344e+2, -871225.25, -1094256.0, 17053.367, -0.13813102, -0.2492795, -869928.9, -44819.863, 0.0, 10.000775, 9.997811 
2.8501782e+2, 2.258023e+2, -615932.0, -717020.44, 2746.8145, -0.12021735, -0.24052948, -615857.44, 111262.555, 0.0, 10.000973, 9.999639 
2.8501907e+2, 2.3580234e+2, -496191.47, -622511.25, -33312.387, 0.041916173, -0.21585093, -487944.88, 141171.98, 0.0, 10.001177, 9.99952 
2.8501981e+2, 2.4580199e+2, -420461.84, -666764.06, -6057.816, 0.062317748, -0.13701873, -420312.94, 110809.305, 0.0, 10.001589, 9.9983425 
2.8502014e+2, 2.5580138e+2, -240716.77, -532236.8, -36852.887, -0.016430262, -0.049608137, -236130.13, 197003.72, 0.0, 10.002165, 9.998316 
2.8502178e+2, 2.657996e+2, -122422.87, -430942.25, -16610.639, -0.010040685, -0.05178923, -121531.13, 213620.55, 0.0, 10.0023365, 9.998253 
2.8502452e+2, 2.7579695e+2, -46232.836, -339251.38, -14999.709, 0.07596745, -0.16113086, -45466.996, 191707.98, 0.0000000018932573, 10.002166, 9.998293 
2.850262e+2, 2.8579533e+2, 117274.0, -155906.63, -21201.604, 0.041068893, -0.1763891, 118909.67, 258096.64, 0.00000028816427, 10.002385, 9.998779 
2.8502676e+2, 2.9579452e+2, 290984.38, -26699.959, -49946.527, -0.09098096, -0.14963803, 298651.94, 339842.28, 0.0000027347362, 10.002924, 9.998734 
2.850304e+2, 3.057915e+2, 248371.13, -195176.92, 11448.602, 0.039717108, -0.2448496, 248666.44, 248666.44, 0.000011990512, 10.003037, 9.997193 
2.850336e+2, 3.1579012e+2, 162148.2, -263702.6, -77685.91, 0.09847188, -0.09857517, 175877.44, 175877.44, 0.000033758955, 10.002541, 9.996956 
2.9501313e+2, 1.2580997e+2, -1680041.9, -1477355.4, -81760.516, -0.034684602, -0.067719445, -1448486.4, 258567.73, 0.00028049768, 9.999234, 10.001989 
2.9501358e+2, 1.358098e+2, -1716887.0, -1539010.8, 118239.96, -0.18247227, -0.23846087, -1479993.9, 129053.234, 0.000119661214, 9.998751, 10.001128 
2.9501545e+2, 1.4580998e+2, -1692341.6, -1702816.9, 48221.34, -0.094529584, -0.22042714, -1649074.4, -138030.83, 0.000029635712, 9.99922, 9.999104 
2.9501674e+2, 1.5581022e+2, -1424764.0, -1530002.0, 12338.261, 0.0431451, -0.1185557, -1423336.8, -10292.515, 0.0000047316526, 10.000417, 9.99904 
2.9501688e+2, 1.658094e+2, -1269786.1, -1394748.4, -21525.771, 0.05773411, -0.10767305, -1266182.0, 48870.938, 0.00000054097734, 10.000775, 9.99912 
2.9501623e+2, 1.7580765e+2, -1207676.1, -1323795.6, -52881.785, -0.022788541, -0.20673135, -1187203.0, 29865.47, 0.0000000012704189, 10.000565, 9.999038 
2.950167e+2, 1.8580684e+2, -1163674.5, -1317272.9, -50897.734, -0.048440065, -0.15705726, -1148339.5, -29261.768, 0.0, 10.00048, 9.998445 
2.95018e+2, 1.9580665e+2, -1057097.0, -1208398.6, -67722.3, -0.03239669, -0.032962997, -1031212.8, -10129.772, 0.0, 10.000507, 9.9985075 
2.9501826e+2, 2.0580551e+2, -862613.4, -928906.75, -48934.89, -0.09274435, -0.061398122, -836655.7, 86436.57, 0.0, 10.000593, 9.999705 
2.9501775e+2, 2.1580364e+2, -753528.7, -835731.0, 28814.55, -0.21192193, -0.23469208, -744434.4, 80670.195, 0.0, 10.000715, 9.999614 
2.9501945e+2, 2.2580208e+2, -692371.1, -858101.3, 4769.9204, -0.06569268, -0.3014099, -692233.94, 34882.977, 0.0, 10.000898, 9.998705 
2.950227e+2, 2.3580067e+2, -571366.75, -762147.44, -18285.838, 0.27558523, -0.32627937, -569629.94, 59500.293, 0.0, 10.001108, 9.998593 
2.950226e+2, 2.4579954e+2, -477299.03, -775598.6, 10596.428, 0.17185988, -0.24256274, -476923.1, 54221.945, 0.0, 10.001548, 9.997618 
2.9502004e+2, 2.5579864e+2, -295969.88, -635053.25, -11759.995, -0.25447202, -0.10866111, -295562.5, 137598.52, 0.0, 10.002109, 9.997641 
2.9502225e+2, 2.6579702e+2, -118750.79, -415431.78, -27539.604, -0.21185881, -0.07191671, -116216.06, 218961.75, 0.0, 10.002302, 9.998377 
2.950279e+2, 2.7579477e+2, -51178.246, -336519.56, -15472.097, 0.18275097, -0.15083058, -50341.754, 186854.73, 0.0000000016821552, 10.002106, 9.9983425 
2.9502997e+2, 2.8579232e+2, 67112.125, -247805.98, -7358.718, 0.16953413, -0.21651326, 67283.984, 206501.31, 0.00000022409213, 10.002336, 9.998172 
2.950291e+2, 2.957899e+2, 253165.3, -95539.22, -21739.527, -0.16512845, -0.2927921, 254515.39, 295753.97, 0.0000026529046, 10.002876, 9.998288 
2.9503334e+2, 3.0578884e+2, 362365.03, 53621.87, -9925.77, 0.013951592, -0.26037246, 362683.8, 362683.8, 0.000012335517, 10.002993, 9.99892 
2.9503775e+2, 3.1578943e+2, 228083.45, -108322.94, -67109.9, 0.22810784, -0.09185973, 240977.06, 240977.06, 0.000034800534, 10.002463, 9.998056 
3.0501243e+2, 1.2580939e+2, -1890309.1, -1572204.3, -5367.802, 0.05104357, -0.087702624, -1572113.6, 134945.1, 0.00022859985, 9.997773, 10.002046 
3.0501223e+2, 1.3580942e+2, -1724613.5, -1545279.0, 7162.0107, -0.18696456, -0.23372178, -1544993.5, 64056.957, 0.00009393993, 9.998702, 10.001114 
3.0501488e+2, 1.4580926e+2, -1675710.0, -1682013.1, -46546.895, -0.069875024, -0.2551084, -1632208.1, -121158.695, 0.000021636553, 9.999294, 9.999203 
3.0501744e+2, 1.5580955e+2, -1518941.0, -1574458.9, -14751.718, 0.113637075, -0.15475553, -1515264.6, -102216.55, 0.0000030875526, 9.999771, 9.999042 
3.05018e+2, 1.6580857e+2, -1358347.9, -1516870.9, -4851.3564, 0.111778475, -0.12060913, -1358199.6, -43140.07, 0.0000002653173, 10.000505, 9.998406 
3.050171e+2, 1.7580651e+2, -1132072.3, -1355733.3, -23849.16, -0.028868578, -0.18457964, -1129557.4, 87524.125, 0.0, 10.001384, 9.998417 
3.0501732e+2, 1.8580541e+2, -1010386.94, -1240120.3, 4329.021, -0.07776225, -0.13850014, -1010305.44, 108789.25, 0.0, 10.001513, 9.998482 
3.0501848e+2, 1.9580497e+2, -969553.9, -1160959.4, 19447.77, -0.05591969, -0.045009453, -967597.9, 53503.824, 0.0, 10.001078, 9.998563 
3.0501902e+2, 2.0580408e+2, -848575.3, -895515.44, -10997.741, -0.07007878, -0.06195966, -846126.4, 76980.9, 0.0, 10.000572, 9.999952 
3.0501917e+2, 2.1580285e+2, -844554.7, -860816.25, -75495.29, -0.10615165, -0.1939981, -776753.56, 48358.465, 0.0, 10.000001, 9.999793 
3.05021e+2, 2.2580117e+2, -784112.94, -964211.4, -94463.42, 0.021842156, -0.25085634, -743654.7, -16528.453, 0.0, 10.000534, 9.998153 
3.0502412e+2, 2.357991e+2, -497216.16, -780462.4, -101919.97, 0.27073225, -0.28662282, -464354.94, 164792.95, 0.0, 10.001857, 9.998103 
3.0502442e+2, 2.4579753e+2, -386094.3, -716119.5, -36207.875, 0.17118464, -0.23383287, -382168.56, 148997.7, 0.0, 10.002117, 9.997746 
3.0502266e+2, 2.5579625e+2, -352548.8, -645558.4, -484.1359, -0.1812134, -0.14891998, -352548.0, 80634.55, 0.0, 10.001662, 9.997776 
3.050249e+2, 2.6579452e+2, -203421.08, -474062.44, 17509.414, -0.1487186, -0.12318737, -202293.0, 132906.78, 0.0, 10.001799, 9.998218 
3.050301e+2, 2.7579233e+2, -23065.457, -343259.8, -1970.8107, 0.18117906, -0.18063802, -23053.326, 214165.5, 0.00000000014964384, 10.002385, 9.998163 
3.05032e+2, 2.857898e+2, 22301.174, -301848.63, 11462.126, 0.15465744, -0.23213819, 22705.975, 161948.08, 0.00000013461268, 10.002171, 9.997875 
3.0503133e+2, 2.9578727e+2, 8348.545, -242805.81, 11913.342, -0.14869663, -0.28933984, 8912.381, 50178.684, 0.0000024042524, 10.001335, 9.99801 
3.0503607e+2, 3.0578697e+2, 214310.19, -11777.053, -4739.038, 0.04576444, -0.1750234, 214409.48, 214409.48, 0.000011969342, 10.001938, 9.998985 
3.0504063e+2, 3.157861e+2, 375303.66, -32852.47, -187127.13, 0.22792417, -0.15806112, 448109.0, 448109.0, 0.00003458678, 10.003435, 9.99812 
3.1500998e+2, 1.258099e+2, -2032458.6, -1883351.3, 19182.139, -0.004611519, -0.064490825, -1880923.1, -173874.47, 0.00018624985, 9.99785, 9.999871 
3.1501186e+2, 1.3580903e+2, -1855099.3, -1815633.9, 42552.66, -0.10695303, -0.08282479, -1788461.3, -179401.84, 0.00007443096, 9.998714, 9.999249 
3.1501517e+2, 1.458076e+2, -1593549.3, -1516910.1, -35475.46, 0.010139887, -0.2087516, -1503010.0, 8060.4434, 0.000015949841, 9.999309, 10.000332 
3.1501663e+2, 1.558071e+2, -1442850.8, -1427747.9, 9967.916, 0.036021274, -0.3004605, -1422793.9, -9725.882, 0.00000170519, 9.999815, 10.000029 
3.150174e+2, 1.6580649e+2, -1381444.3, -1567030.4, 19753.846, -0.01873158, -0.25528878, -1379364.9, -64290.98, 0.000000057148895, 10.000513, 9.998061 
3.1501752e+2, 1.7580555e+2, -1151796.0, -1394874.8, 8163.453, -0.14215852, -0.17038783, -1151522.1, 65565.695, 0.0, 10.001376, 9.998152 
3.1501842e+2, 1.8580435e+2, -969436.9, -1153794.9, -17458.986, -0.13583854, -0.1554395, -967798.06, 151303.03, 0.0, 10.001503, 9.999081 
3.1501994e+2, 1.958029e+2, -942207.8, -1097217.0, 7316.0757, -0.034443576, -0.22332716, -941863.25, 79250.77, 0.0, 10.001047, 9.999016 
3.1502092e+2, 2.058019e+2, -965188.25, -1123230.4, -39567.695, 0.050742082, -0.18998447, -955835.5, -32712.252, 0.0, 10.000514, 9.998417 
3.1502154e+2, 2.1580112e+2, -954004.25, -1074407.4, -86298.13, 0.11962821, -0.12218228, -908984.2, -83853.305, 0.0, 9.999945, 9.998354 
3.1502226e+2, 2.2579965e+2, -801745.4, -988954.7, -48751.117, 0.082182765, -0.08364846, -789810.94, -62663.863, 0.0, 10.000484, 9.998007 
3.1502306e+2, 2.3579763e+2, -509742.53, -793170.6, -51329.855, -0.03188137, -0.10071632, -500732.9, 128437.24, 0.0, 10.001799, 9.998046 
3.1502497e+2, 2.4579585e+2, -317660.84, -569114.06, -60398.453, 0.0007760819, -0.11939558, -303905.72, 227281.02, 0.0, 10.002095, 9.998766 
3.1502765e+2, 2.5579426e+2, -296698.0, -515163.5, -12685.092, 0.14080867, -0.17016576, -295963.9, 137234.64, 0.0, 10.001598, 9.998703 
3.1502956e+2, 2.657922e+2, -236384.45, -533385.56, 34712.55, 0.13003345, -0.19811428, -232381.31, 102835.664, 0.0, 10.00176, 9.997831 
3.150309e+2, 2.7578962e+2, -55675.445, -397957.06, 22832.574, 0.0090858145, -0.25436017, -54159.07, 183083.16, 0.00000000001473293, 10.002329, 9.997816 
3.1503212e+2, 2.857877e+2, 16262.36, -306583.7, -27042.225, -0.064309925, -0.22884218, 18511.797, 157773.61, 0.000000108201135, 10.002137, 9.997858 
3.1503314e+2, 2.9578653e+2, -14904.867, -276152.47, -7431.998, -0.11766056, -0.14570604, -14693.611, 26580.941, 0.0000022594174, 10.001264, 9.997818 
3.150384e+2, 3.0578566e+2, 102243.58, -230869.8, 51021.668, 0.0762, 0.0042453115, 109883.164, 109883.164, 0.00001165084, 10.001887, 9.997499 
3.1504187e+2, 3.1578016e+2, 303871.7, -156515.55, -101687.08, -0.022823785, -0.30374143, 325331.34, 325331.34, 0.000033846463, 10.003339, 9.997312 
3.2500872e+2, 1.2580748e+2, -1983212.5, -1920939.5, -124665.086, 0.05855717, -0.0688003, -1823581.4, -116509.23, 0.00015560584, 9.998445, 9.999327 
3.250112e+2, 1.3580689e+2, -1811389.0, -1840863.6, -8308.629, -0.06347115, -0.017045192, -1809208.1, -200125.22, 0.000061447354, 9.999203, 9.998845 
3.250151e+2, 1.4580497e+2, -1534574.8, -1509793.4, -80204.945, 0.054735355, -0.16034147, -1441027.6, 70072.02, 0.000012624197, 9.999798, 10.000148 
3.2501653e+2, 1.558041e+2, -1351601.5, -1392003.8, -142898.05, 0.015878797, -0.2743324, -1227483.8, 185617.45, 0.0000008198343, 10.000478, 9.999955 
3.2501745e+2, 1.6580375e+2, -1355489.8, -1461815.1, -129929.18, -0.04955503, -0.24484406, -1268267.8, 46834.977, 0.000000004124255, 10.0003, 9.998883 
3.2501796e+2, 1.7580356e+2, -1377886.6, -1425240.9, -65307.816, -0.13924336, -0.16604117, -1332096.4, -114990.02, 0.0, 9.999481, 9.99886 
3.2501915e+2, 1.858024e+2, -1225893.3, -1300048.1, -69140.9, -0.12590767, -0.16630112, -1184515.6, -65397.793, 0.0, 9.99985, 9.998866 
3.2502094e+2, 1.9580051e+2, -957301.3, -1130031.8, -119542.44, -0.035444845, -0.25756955, -896189.94, 124945.27, 0.0, 10.001062, 9.998778 
3.2502216e+2, 2.0579903e+2, -824605.4, -1102768.8, -154216.19, 0.07018171, -0.23934643, -756018.25, 167131.22, 0.0, 10.001679, 9.997995 
3.2502308e+2, 2.1579781e+2, -709973.3, -999885.1, -123273.305, 0.18690892, -0.17439142, -664643.9, 160517.97, 0.0, 10.001808, 9.997967 
3.2502368e+2, 2.2579645e+2, -610790.06, -909677.56, -7205.4355, 0.11129337, -0.10125952, -610616.44, 116561.62, 0.0, 10.0018425, 9.997901 
3.2502416e+2, 2.357949e+2, -510906.28, -804460.6, -19024.354, -0.099621125, -0.059943106, -509678.5, 119519.34, 0.0, 10.001825, 9.99796 
3.250264e+2, 2.4579309e+2, -379368.38, -592044.8, -92160.56, -0.03980854, -0.08163642, -344989.22, 186225.56, 0.0, 10.001637, 9.998834 
3.2502988e+2, 2.5579107e+2, -321980.66, -519660.34, -121675.414, 0.21916154, -0.1815731, -264058.8, 169170.77, 0.0, 10.001386, 9.998777 
3.2503188e+2, 2.6578915e+2, -251165.1, -522674.22, -39969.016, 0.19732139, -0.20811735, -245403.48, 89842.984, 0.0, 10.001584, 9.997985 
3.2503277e+2, 2.7578712e+2, -76100.15, -390069.4, -25343.965, -0.023581093, -0.22551404, -74067.51, 163199.28, 0.00000000010851988, 10.002121, 9.997965 
3.2503414e+2, 2.857853e+2, 65465.445, -285241.56, -76117.05, -0.090290226, -0.19742575, 81273.27, 220559.13, 0.00000014601811, 10.002477, 9.997847 
3.2503578e+2, 2.9578388e+2, 187265.39, -183742.77, -62119.574, -0.0472956, -0.1401615, 197390.06, 238691.13, 0.000002235968, 10.002672, 9.997774 
3.250414e+2, 3.0578297e+2, 206734.23, -231094.61, 92754.9, 0.14342612, 0.03413243, 225573.88, 225573.88, 0.000011376777, 10.002831, 9.997042 
3.250446e+2, 3.1577677e+2, 262614.2, -140016.8, 6978.963, -0.05382986, -0.30521446, 262735.13, 262735.13, 0.000032649332, 10.002908, 9.997627 
3.3500808e+2, 1.258021e+2, -1900669.6, -1763201.8, -98673.72, 0.11574629, -0.09757494, -1711682.4, -4552.729, 0.00013659472, 9.998498, 10.000384 
3.3501014e+2, 1.358029e+2, -1728342.9, -1680798.9, 17737.342, -0.111713, -0.03239334, -1674910.8, -65789.164, 0.000054929977, 9.999258, 9.999914 
3.350146e+2, 1.4580135e+2, -1632857.1, -1714027.1, -63913.973, 0.008785944, -0.114312775, -1597731.3, -86593.39, 0.000011796083, 9.999805, 9.998737 
3.3501688e+2, 1.5580064e+2, -1429351.9, -1551517.3, -115929.84, -0.014383024, -0.072455265, -1359397.0, 53749.313, 0.00000057438905, 10.000477, 9.998856 
3.3501798e+2, 1.6580045e+2, -1220416.0, -1182515.0, -165900.45, -0.042593695, -0.08232696, -1034486.25, 280658.56, 0.00000000201948, 10.0003, 10.000804 
3.3501822e+2, 1.758005e+2, -1257023.4, -1179288.0, -85664.76, -0.07590679, -0.16975494, -1124085.8, 93051.086, 0.0, 9.999498, 10.000543 
3.350194e+2, 1.8579951e+2, -1304912.9, -1455118.9, -29468.336, -0.10053114, -0.17418416, -1299338.5, -180193.39, 0.0, 9.999813, 9.99782 
3.350213e+2, 1.9579768e+2, -1024974.6, -1263826.8, -71932.51, -0.11846906, -0.15301788, -1004984.5, 16181.244, 0.0, 10.001037, 9.997871 
3.3502263e+2, 2.0579545e+2, -780410.9, -1000855.06, -154685.4, -0.06288493, -0.20691481, -700694.9, 222490.73, 0.0, 10.001637, 9.998714 
3.3502352e+2, 2.1579285e+2, -672904.1, -905516.4, -114220.1, 0.04242818, -0.35481894, -626196.94, 199008.64, 0.0, 10.001737, 9.998648 
3.350251e+2, 2.2579147e+2, -623687.06, -923389.2, -13703.258, 0.05923421, -0.3110575, -623061.8, 104158.266, 0.0, 10.001784, 9.997836 
3.350272e+2, 2.3579097e+2, -529625.25, -826339.44, -16951.018, 0.010101878, -0.15910381, -528660.0, 100570.96, 0.0, 10.001751, 9.997848 
3.350285e+2, 2.4578932e+2, -443238.2, -717110.3, -106958.98, -0.006009339, -0.11463577, -406416.66, 124833.24, 0.0, 10.001605, 9.99799 
3.350292e+2, 2.5578678e+2, -380022.63, -630598.6, -123800.63, -0.00012302648, -0.18445125, -329175.22, 104100.02, 0.0, 10.001345, 9.998035 
3.3503172e+2, 2.657854e+2, -208534.69, -430081.72, -25089.412, 0.007986253, -0.15537384, -205728.94, 129559.17, 0.0, 10.001565, 9.9986315 
3.3503547e+2, 2.7578476e+2, -41930.637, -304601.66, -2062.1616, 0.017293718, -0.09766246, -41914.45, 195378.73, 0.000000000044508567, 10.002055, 9.998585 
3.350378e+2, 2.8578255e+2, 66067.49, -277477.84, -73709.1, 0.015795333, -0.14161634, 81214.27, 220528.42, 0.00000018850986, 10.002446, 9.997915 
3.35039e+2, 2.9577938e+2, 183897.06, -181859.25, -49499.89, -0.008115354, -0.26605624, 190477.77, 231822.5, 0.0000021997091, 10.002627, 9.997812 
3.3504474e+2, 3.057788e+2, 233856.58, -163138.77, 90060.79, 0.18416667, -0.083023384, 253332.0, 253332.0, 0.000010801098, 10.002788, 9.997526 
3.350484e+2, 3.157758e+2, 333945.97, 46932.71, 42571.67, 0.006404226, -0.1576506, 340127.34, 340127.34, 0.000030818417, 10.002751, 9.998983 
3.4500793e+2, 1.2579763e+2, -1595813.1, -1603268.9, 16407.854, 0.15500286, -0.14319457, -1582715.0, 124457.54, 0.00012625929, 10.00055, 10.00049 
3.4500974e+2, 1.3579884e+2, -1647835.9, -1609087.1, 15113.665, -0.089621276, -0.06796586, -1603889.4, 5270.2534, 0.000053424294, 9.999666, 10.0002165 
3.4501433e+2, 1.4579757e+2, -1712201.5, -1731418.3, 2599.693, 0.03569057, -0.14528787, -1711856.0, -200682.9, 0.0000131995685, 9.99917, 9.998925 
3.450166e+2, 1.5579742e+2, -1611820.6, -1628495.6, 53596.94, -0.020211557, -0.065227665, -1565916.5, -152739.94, 0.00000089811203, 9.999171, 9.998959 
3.4501827e+2, 1.6579714e+2, -1312291.4, -1282997.0, -46182.766, -0.01793723, -0.05972942, -1249194.4, 65982.984, 0.0000000015154811, 9.999909, 10.000301 
3.4501946e+2, 1.7579666e+2, -1047540.5, -1126184.8, -157595.11, 0.018858008, -0.15285586, -924435.9, 292741.3, 0.0, 10.001151, 10.000108 
3.4502104e+2, 1.857956e+2, -1043206.8, -1312630.6, -107530.87, -0.00089326303, -0.15203789, -1005552.3, 113633.78, 0.0, 10.001529, 9.997974 
3.4502304e+2, 1.9579408e+2, -989564.8, -1231721.4, -70289.47, -0.055362143, -0.11603358, -970641.06, 50560.99, 0.0, 10.001204, 9.998016 
3.450239e+2, 2.0579182e+2, -871987.6, -1035489.4, -151566.3, -0.061178688, -0.1868519, -781530.6, 141690.88, 0.0, 10.000954, 9.998814 
3.4502396e+2, 2.157888e+2, -812093.0, -962319.7, -166628.13, -0.03310573, -0.38179943, -704430.6, 120814.37, 0.0, 10.000718, 9.998756 
3.4502596e+2, 2.2578743e+2, -732174.9, -935796.2, -48723.668, 0.014569399, -0.36208954, -721116.56, 6141.771, 0.0, 10.000878, 9.998183 
3.4502935e+2, 2.3578724e+2, -569762.9, -812249.06, -32736.613, 0.07744081, -0.21164213, -565421.06, 63842.96, 0.0, 10.00134, 9.998138 
3.4503073e+2, 2.457857e+2, -443282.72, -756351.2, -85182.99, 0.05348174, -0.15141994, -421606.1, 109676.21, 0.0, 10.001774, 9.997641 
3.4503064e+2, 2.5578305e+2, -282430.66, -620012.5, -75778.75, -0.03044685, -0.1948319, -266200.53, 167110.2, 0.0, 10.002166, 9.997717 
3.4503308e+2, 2.6578167e+2, -165658.36, -392064.94, 17417.893, -0.019835133, -0.15927611, -164326.2, 170998.17, 0.0, 10.001786, 9.998785 
3.450374e+2, 2.7578115e+2, -202082.53, -364309.13, -3255.3142, 0.068738095, -0.10496468, -202017.23, 35310.813, 0.0, 10.000885, 9.998738 
3.4504026e+2, 2.8577903e+2, -108206.61, -346569.38, -49096.06, 0.082836725, -0.15266106, -98490.266, 40857.656, 0.00000016974016, 10.001203, 9.998033 
3.4504187e+2, 2.957758e+2, 159625.89, -181828.05, -38377.902, 0.03226922, -0.29330885, 163886.23, 205265.16, 0.0000019719364, 10.002422, 9.997909 
3.4504735e+2, 3.0577505e+2, 130073.46, -230708.47, 45406.355, 0.20435528, -0.123825975, 135700.34, 135700.34, 0.000009630792, 10.0021305, 9.997384 
3.450506e+2, 3.157734e+2, 50005.586, -52496.867, -47303.99, 0.06742245, -0.056213252, 68499.29, 68499.29, 0.000028581368, 10.000608, 9.999339 
3.5500792e+2, 1.2579417e+2, -1644152.6, -1732059.6, -11767.945, 0.05407378, -0.19534355, -1642604.5, 64595.246, 0.00012021515, 10.00066, 9.999557 
3.550097e+2, 1.3579474e+2, -1672616.5, -1670467.0, -15845.238, -0.07491383, -0.11943519, -1655660.1, -46463.273, 0.000054251253, 9.999708, 9.999774 
3.5501397e+2, 1.4579372e+2, -1586873.4, -1480244.6, -5283.526, 0.06366837, -0.24593385, -1479983.5, 31221.246, 0.000015580335, 9.999205, 10.000636 
3.5501564e+2, 1.5579447e+2, -1511768.0, -1433700.0, 61877.875, -0.054788664, -0.24319042, -1399573.0, 13618.6455, 0.0000017221554, 9.999224, 10.000274 
3.5501823e+2, 1.657938e+2, -1514935.4, -1702475.9, -6230.407, -0.031357326, -0.17896666, -1514728.6, -199527.94, 0.000000007086625, 9.999907, 9.997423 
3.5502142e+2, 1.7579198e+2, -1222866.5, -1494857.9, -109114.61, 0.08292309, -0.12196549, -1184503.9, 32723.955, 0.0, 10.001168, 9.997569 
3.5502383e+2, 1.8579064e+2, -956259.3, -1122098.4, -123886.086, 0.1149964, -0.102078654, -890103.6, 229137.28, 0.0, 10.00149, 9.9993 
3.550259e+2, 1.9578974e+2, -911357.6, -1059465.0, -77347.26, 0.0966747, -0.14000209, -878329.4, 142914.36, 0.0, 10.0011635, 9.999216 
3.5502586e+2, 2.0578808e+2, -916361.4, -1116471.5, -165235.64, 0.026112858, -0.17551929, -823248.56, 100008.586, 0.0, 10.000904, 9.998282 
3.5502422e+2, 2.1578576e+2, -848699.75, -1027489.0, -168491.69, -0.09080268, -0.25137988, -747356.7, 77922.74, 0.0, 10.000671, 9.99833 
3.550261e+2, 2.2578442e+2, -687872.4, -833051.3, -35265.855, -0.071337394, -0.2462937, -679759.2, 47532.35, 0.0, 10.000832, 9.998911 
3.550305e+2, 2.357838e+2, -529890.3, -718737.9, -10251.666, 0.04568465, -0.21420708, -529335.44, 99961.16, 0.0, 10.001292, 9.998804 
3.5503295e+2, 2.4578223e+2, -440520.75, -740398.1, -75824.516, 0.08719081, -0.19225983, -422438.72, 108873.49, 0.0, 10.001732, 9.99777 
3.5503393e+2, 2.5577992e+2, -284968.9, -610312.4, -61371.043, 0.06973122, -0.21584229, -273777.2, 159559.27, 0.0, 10.002104, 9.997813 
3.5503584e+2, 2.65778e+2, -194687.31, -444412.13, -20391.006, 0.06369343, -0.21731086, -193033.27, 142321.84, 0.0, 10.001754, 9.99844 
3.5503846e+2, 2.757764e+2, -232804.13, -417092.94, -24182.12, 0.070160285, -0.23869523, -229683.83, 7686.505, 0.0, 10.00084, 9.998395 
3.5504133e+2, 2.8577474e+2, -100553.41, -329501.94, -8345.954, 0.0559989, -0.2293298, -100249.57, 39137.355, 0.00000011654808, 10.001192, 9.998157 
3.5504428e+2, 2.9577303e+2, 160646.6, -172186.2, 5667.8555, 0.012785581, -0.2337224, 160743.08, 202147.73, 0.0000016005947, 10.00238, 9.997997 
3.5504907e+2, 3.057717e+2, 79535.59, -320906.13, -11847.3, 0.15234454, -0.09734961, 79885.8, 79885.8, 0.000008029012, 10.002078, 9.996786 
3.5505083e+2, 3.1577003e+2, -2486.6797, -136484.3, -71132.086, -0.001792454, 0.03062307, 28231.521, 28231.521, 0.00002594716, 10.000518, 9.9988 
3.6500773e+2, 1.2579016e+2, -1888714.6, -1907907.9, -67868.51, 0.046719864, -0.19866528, -1829767.6, -122531.2, 0.00011678404, 9.999234, 9.999038 
3.6500907e+2, 1.357904e+2, -1734236.3, -1722978.9, -87419.01, -0.08891702, -0.13095713, -1641007.5, -31769.496, 0.000055597222, 9.9993925, 9.9995575 
3.650136e+2, 1.4578931e+2, -1478782.3, -1410648.0, -88048.6, 0.0762887, -0.26336098, -1350305.8, 160940.48, 0.000017763748, 9.999879, 10.000787 
3.6501586e+2, 1.5578973e+2, -1289562.8, -1311156.4, -146664.17, -0.020338329, -0.3047607, -1153298.5, 259936.4, 0.000002786188, 10.000685, 10.000412 
3.6501896e+2, 1.657892e+2, -1346956.8, -1635068.4, -121791.51, -0.004626277, -0.2293708, -1302372.1, 12871.139, 0.00000008230677, 10.001115, 9.997306 
3.650225e+2, 1.757878e+2, -1217729.8, -1499876.0, -34745.445, 0.07699445, -0.11481814, -1213514.0, 3753.1702, 0.0, 10.001238, 9.997501 
3.6502483e+2, 1.8578659e+2, -1013480.0, -1104427.4, -34870.906, 0.10000769, -0.10417587, -1001648.94, 117630.2, 0.0, 10.000901, 9.999706 
3.650264e+2, 1.957854e+2, -1033434.5, -1080961.9, -62293.98, 0.08831513, -0.20833638, -990525.44, 30757.936, 0.0, 10.000164, 9.999553 
3.6502686e+2, 2.0578401e+2, -968951.9, -1184295.9, -124744.75, 0.050127897, -0.21034901, -911837.56, 11457.7705, 0.0, 10.000738, 9.997891 
3.6502644e+2, 2.157824e+2, -647089.5, -972539.75, -135133.28, -0.011675226, -0.17356913, -598295.2, 227018.58, 0.0, 10.002249, 9.997947 
3.650282e+2, 2.2578089e+2, -507865.44, -759250.9, -63257.453, -0.006385525, -0.16555946, -492845.13, 234483.42, 0.0, 10.002117, 9.998801 
3.650316e+2, 2.3577933e+2, -615333.9, -767767.94, -104787.21, 0.05374537, -0.21351849, -561977.0, 67364.29, 0.0, 10.000736, 9.998736 
3.6503425e+2, 2.4577767e+2, -505904.88, -720739.44, -122138.91, 0.07944086, -0.2236482, -450667.97, 80688.03, 0.0, 10.0010605, 9.998229 
3.6503634e+2, 2.5577587e+2, -180465.48, -513014.7, -97997.984, 0.07962833, -0.24183047, -153735.3, 279637.4, 0.0, 10.002624, 9.998228 
3.6503837e+2, 2.65774e+2, -82304.195, -434072.47, -107265.08, 0.09840218, -0.24006256, -52176.13, 283215.3, 0.0, 10.002715, 9.998051 
3.650404e+2, 2.75772e+2, -130911.6, -407543.84, -120425.836, 0.1415997, -0.2582745, -85832.71, 151579.97, 0.0, 10.001704, 9.998049 
3.650428e+2, 2.8577045e+2, -56957.93, -280860.5, -31341.283, 0.08159534, -0.23502456, -52653.605, 86775.23, 0.000000055764154, 10.001366, 9.99841 
3.6504543e+2, 2.9576924e+2, 55797.277, -189614.02, -24168.07, -0.061427593, -0.21552292, 58154.703, 99595.82, 0.0000011854916, 10.001525, 9.998289 
3.650503e+2, 3.0576754e+2, 112704.12, -285234.9, -24423.63, 0.06547534, -0.13916972, 114197.52, 114197.52, 0.000006614604, 10.002214, 9.996974 
3.6505333e+2, 3.1576598e+2, 383220.6, 46991.297, -36974.707, 0.064382255, -0.012664135, 387238.66, 387238.66, 0.000023524617, 10.003177, 9.998791 
3.750068e+2, 1.2578571e+2, -1887105.8, -1919063.6, -51778.438, -0.002598538, -0.13951561, -1848896.8, -141614.89, 0.000116595606, 9.999291, 9.998933 
3.750077e+2, 1.3578592e+2, -1720756.0, -1712996.5, -77141.27, -0.18878596, -0.09036336, -1639637.5, -30355.494, 0.000057458026, 9.999466, 9.99959 
3.7501305e+2, 1.4578433e+2, -1577097.3, -1613763.9, -65838.805, 0.014167343, -0.19939749, -1527086.9, -15789.2705, 0.000019792478, 9.999881, 9.999389 
3.7501708e+2, 1.5578322e+2, -1360309.4, -1465114.6, -111707.766, 0.016177883, -0.25973213, -1289323.8, 123983.16, 0.000003853391, 10.000716, 9.999338 
3.750203e+2, 1.6578329e+2, -1165233.1, -1257598.1, -121618.39, 0.0006358761, -0.21472496, -1081323.9, 233981.16, 0.00000020238203, 10.001114, 9.999896 
3.7502262e+2, 1.7578422e+2, -1051427.6, -1158485.5, -27269.143, -0.052161682, -0.12517701, -1044882.0, 172412.81, 0.0, 10.001251, 9.999839 
3.750239e+2, 1.8578336e+2, -1050567.6, -1176011.5, -67711.87, -0.09905412, -0.16084293, -1020991.5, 98309.8, 0.0, 10.000879, 9.999224 
3.750245e+2, 1.9578107e+2, -1070979.6, -1150886.4, -77540.125, -0.13504852, -0.32730734, -1023704.9, -2383.6536, 0.0, 10.000133, 9.999085 
3.7502685e+2, 2.0577961e+2, -998935.56, -1237210.6, -72050.195, -0.037489247, -0.29453996, -978843.1, -55506.836, 0.0, 10.000696, 9.99755 
3.750304e+2, 2.1577877e+2, -680119.2, -1028799.6, -79909.266, 0.14564954, -0.15034325, -662678.25, 162670.0, 0.0, 10.002195, 9.997585 
3.7503204e+2, 2.2577676e+2, -582824.3, -901312.5, -120849.77, 0.15813568, -0.12091539, -542160.06, 185209.38, 0.0, 10.002056, 9.997856 
3.7503237e+2, 2.3577385e+2, -677586.7, -886469.7, -143847.2, 0.045885373, -0.215145, -604264.2, 25134.055, 0.0, 10.000687, 9.997945 
3.7503445e+2, 2.4577205e+2, -457608.63, -606685.56, -66263.51, -0.019089535, -0.2467125, -432413.28, 98999.89, 0.0, 10.001004, 9.999039 
3.7503776e+2, 2.5577098e+2, -139926.81, -416291.75, -40064.59, -0.056785997, -0.26885492, -134235.84, 299182.84, 0.0, 10.002566, 9.998921 
3.7504056e+2, 2.657696e+2, -119975.07, -502881.66, -150958.6, 0.035242427, -0.22720821, -67619.305, 267814.16, 0.0, 10.002678, 9.997595 
3.7504303e+2, 2.757679e+2, -165869.64, -466345.75, -149554.38, 0.22140536, -0.17395142, -104121.88, 133333.84, 0.0, 10.001645, 9.997673 
3.750445e+2, 2.8576618e+2, -35567.973, -229590.94, -29833.373, 0.098748825, -0.16833125, -31084.342, 108389.12, 0.00000003400916, 10.001331, 9.998781 
3.750452e+2, 2.9576445e+2, 79349.28, -132261.17, -9226.79, -0.25466353, -0.23718444, 79750.836, 121239.266, 0.0000008994765, 10.001479, 9.99871 
3.7505078e+2, 3.0576256e+2, 168766.81, -148224.36, 8145.3115, -0.119044, -0.24714704, 168975.97, 168975.97, 0.000005653841, 10.002144, 9.997943 
3.7505752e+2, 3.1576124e+2, 399079.0, 115562.92, 11995.881, 0.13919832, -0.19341639, 399585.63, 399585.63, 0.000021891798, 10.003038, 9.999322 
3.8500717e+2, 1.2578025e+2, -1695562.3, -1801613.3, -71789.43, 0.047735274, -0.08847232, -1659338.5, 47997.797, 0.00011972094, 10.000511, 9.999146 
3.8500783e+2, 1.3577963e+2, -1529059.8, -1593102.6, -137034.73, -0.17466985, -0.15271497, -1420354.9, 188987.16, 0.000060093465, 10.000661, 9.999843 
3.850133e+2, 1.4577849e+2, -1518517.3, -1632160.4, -62439.93, 0.02414249, -0.20717579, -1490914.6, 20439.867, 0.000021868578, 10.000471, 9.998982 
3.8501796e+2, 1.5577804e+2, -1470886.9, -1551069.9, -51589.4, 0.06879268, -0.16260794, -1445642.4, -32281.123, 0.000004862859, 10.000099, 9.999045 
3.8502112e+2, 1.6577806e+2, -1295483.6, -1221442.6, -102583.125, 0.04134027, -0.15555337, -1149404.4, 165953.8, 0.00000029520132, 9.999782, 10.000793 
3.8502273e+2, 1.7577843e+2, -1254158.3, -1167924.8, -140632.64, -0.07436462, -0.21189612, -1063947.8, 153400.33, 0.0, 9.999469, 10.000638 
3.8502404e+2, 1.857779e+2, -1188496.0, -1285491.6, -207012.27, -0.13052368, -0.23042817, -1024376.5, 94975.52, 0.0, 10.000117, 9.99884 
3.8502535e+2, 1.9577655e+2, -901147.4, -1105982.8, -222649.94, -0.12418207, -0.2645369, -758488.8, 262879.22, 0.0, 10.001451, 9.998762 
3.850281e+2, 2.0577532e+2, -788246.6, -1066340.8, -150115.81, -0.035459448, -0.23052222, -722674.94, 200705.7, 0.0, 10.001836, 9.998178 
3.8503176e+2, 2.1577409e+2, -745636.7, -1002228.25, -99090.92, 0.104572155, -0.1843201, -711825.0, 113566.29, 0.0, 10.001482, 9.998117 
3.850337e+2, 2.2577189e+2, -664002.56, -990085.1, -110033.09, 0.1347321, -0.17603333, -630346.8, 97066.99, 0.0, 10.001713, 9.997412 
3.850343e+2, 2.3576891e+2, -460712.34, -827554.44, -107144.17, 0.08983444, -0.23087062, -431711.28, 197734.17, 0.0, 10.002379, 9.997533 
3.8503623e+2, 2.4576703e+2, -315353.3, -543373.0, -23160.752, 0.013524894, -0.2509307, -313024.6, 218437.9, 0.0, 10.002003, 9.998989 
3.8503906e+2, 2.5576586e+2, -396046.47, -547382.5, -71797.375, -0.09039094, -0.2783502, -367404.78, 66064.734, 0.0, 10.000837, 9.998854 
3.850418e+2, 2.6576453e+2, -365539.47, -603083.3, -181224.8, -0.0150190815, -0.23411113, -267633.75, 67849.734, 0.0, 10.000904, 9.997763 
3.8504452e+2, 2.757631e+2, -125981.87, -428218.88, -146354.22, 0.20062679, -0.17161843, -66728.41, 170774.31, 0.0, 10.0018425, 9.997837 
3.8504648e+2, 2.8576148e+2, 57436.406, -203050.6, -17274.307, 0.13021831, -0.1574199, 58576.965, 198096.64, 0.000000026095549, 10.002052, 9.998615 
3.8504776e+2, 2.9575968e+2, 102402.06, -133343.84, -44304.64, -0.15188785, -0.21524037, 110453.43, 151988.86, 0.0000006696504, 10.001699, 9.9985895 
3.85053e+2, 3.0575794e+2, 110771.26, -135595.72, -38888.86, -0.07491129, -0.23089658, 116764.06, 116764.06, 0.0000049598348, 10.001562, 9.99831 
3.8505936e+2, 3.1575632e+2, 182271.08, 36664.344, -104873.91, 0.10881303, -0.23955159, 237134.72, 237134.72, 0.000021460863, 10.001431, 9.999558 
3.9500844e+2, 1.2577388e+2, -1666987.3, -1743206.8, -52897.047, 0.09007436, -0.04143482, -1639901.5, 67497.55, 0.0001233599, 10.000529, 9.9995365 
3.9500934e+2, 1.357714e+2, -1495421.9, -1525115.3, -130731.46, -0.10862724, -0.33380747, -1378696.8, 230722.86, 0.00006261113, 10.000681, 10.000296 
3.9501414e+2, 1.457717e+2, -1479775.3, -1556895.5, -82521.34, 0.04109194, -0.29181728, -1427249.4, 84168.37, 0.000023583854, 10.0004835, 9.999497 
3.9501828e+2, 1.5577424e+2, -1431464.5, -1481726.5, -59252.26, 0.0702992, -0.0009772176, -1392234.0, 21163.352, 0.000005569423, 10.000146, 9.999502 
3.950212e+2, 1.657735e+2, -1346059.4, -1327465.8, -122887.67, 0.056331214, -0.0525816, -1213523.8, 101879.375, 0.00000035120044, 9.999787, 10.000063 
3.9502266e+2, 1.7577046e+2, -1301262.6, -1265522.3, -142822.94, -0.040669117, -0.37775055, -1139455.9, 77970.92, 0.0, 9.999471, 9.999967 
3.9502522e+2, 1.8577021e+2, -1217261.4, -1337602.3, -160683.45, -0.037170075, -0.31796068, -1105852.0, 13579.446, 0.0, 10.000081, 9.998503 
3.950288e+2, 1.9577192e+2, -920186.4, -1132505.5, -171588.38, 0.060377263, -0.01446606, -824572.75, 196850.64, 0.0, 10.001398, 9.998605 
3.9503044e+2, 2.0577107e+2, -686154.94, -837925.75, -169406.56, 0.0032135868, -0.018591126, -576413.9, 347014.53, 0.0, 10.001768, 9.999777 
3.950305e+2, 2.1576837e+2, -653944.5, -790138.4, -104234.76, -0.18527678, -0.2811624, -597534.06, 227909.28, 0.0, 10.001396, 9.999611 
3.95033e+2, 2.2576626e+2, -671332.8, -992099.7, -89274.555, -0.11816457, -0.33418155, -648160.25, 79301.48, 0.0, 10.001652, 9.997431 
3.9503726e+2, 2.3576446e+2, -472082.66, -837549.1, -80841.56, 0.1330637, -0.27043545, -454999.0, 174484.78, 0.0, 10.002318, 9.997496 
3.9503947e+2, 2.4576251e+2, -387847.53, -681821.2, -71896.27, 0.12174488, -0.24448523, -371206.13, 160298.75, 0.0, 10.001953, 9.998062 
3.9504012e+2, 2.5576037e+2, -459286.28, -665869.56, -103112.04, -0.08418952, -0.27986428, -416628.4, 16897.543, 0.0, 10.000778, 9.99807 
3.9504197e+2, 2.6575884e+2, -318713.56, -491498.72, -148629.5, -0.10380704, -0.26370063, -233192.17, 102349.24, 0.0, 10.000844, 9.998558 
3.950447e+2, 2.7575767e+2, -84418.18, -331225.97, -107388.19, 0.020502837, -0.25106692, -44234.96, 193318.8, 0.0, 10.001793, 9.9985285 
3.950485e+2, 2.8575635e+2, 5477.089, -300516.66, -35524.438, 0.1162186, -0.20342349, 9547.173, 149114.73, 0.000000010243951, 10.002013, 9.997963 
3.950529e+2, 2.9575497e+2, 47124.7, -229986.48, -48000.51, 0.17920497, -0.15322322, 55203.69, 96785.86, 0.00000051187845, 10.001624, 9.997963 
3.950568e+2, 3.0575353e+2, 90681.086, -167735.42, -44600.344, 0.1393068, -0.09755472, 98162.125, 98162.125, 0.0000058228006, 10.001521, 9.998108 
3.9505854e+2, 3.157512e+2, 169159.9, 30701.314, -102553.64, -0.14357965, -0.15722664, 223663.97, 223663.97, 0.00002601799, 10.001349, 9.999551 
4.0500864e+2, 1.2576663e+2, -1653228.1, -1714705.0, 43435.953, 0.066166684, -0.1669345, -1630754.5, 76711.47, 0.00012458346, 10.000507, 9.999748 
4.0501022e+2, 1.3576552e+2, -1642960.4, -1581963.1, -106730.44, -0.025419654, -0.34137878, -1501459.3, 108014.73, 0.00006386204, 9.999593, 10.000436 
4.050144e+2, 1.4576639e+2, -1585744.3, -1556316.1, -34450.066, 0.07271168, -0.2721601, -1533569.5, -22103.693, 0.000024485202, 9.999539, 9.999953 
4.0501803e+2, 1.5576805e+2, -1394407.5, -1422000.3, -29025.094, 0.031902894, -0.11600417, -1376066.8, 37385.484, 0.000005781208, 10.000217, 9.999878 
4.0502122e+2, 1.6576743e+2, -1221810.8, -1319452.8, -72792.555, 0.02628658, -0.1473302, -1182983.3, 132475.17, 0.0000003430959, 10.0008745, 9.999587 
4.0502334e+2, 1.757653e+2, -1041240.75, -1189222.4, -90055.24, -0.018534034, -0.33397484, -998678.6, 218799.14, 0.0, 10.0014715, 9.999521 
4.050264e+2, 1.8576519e+2, -1043667.44, -1233811.6, -66879.93, 0.02024383, -0.25115877, -1022500.0, 96982.13, 0.0, 10.0011835, 9.998685 
4.050304e+2, 1.9576634e+2, -1082318.9, -1192681.3, -45895.938, 0.14380406, -0.019245822, -1065726.9, -44248.99, 0.0, 10.000201, 9.998773 
4.0503204e+2, 2.0576528e+2, -891963.5, -927752.7, -80762.09, 0.06358208, -0.05883154, -827137.3, 96347.16, 0.0, 10.00032, 9.999856 
4.050319e+2, 2.1576254e+2, -671688.56, -791407.1, -142306.45, -0.17358388, -0.3307484, -577164.4, 248335.25, 0.0, 10.001243, 9.999678 
4.0503436e+2, 2.2576079e+2, -694702.94, -967724.2, -161748.0, -0.12679712, -0.36694, -619559.2, 107955.766, 0.0, 10.001349, 9.997738 
4.050387e+2, 2.357597e+2, -666087.56, -901945.5, -145022.98, 0.12510544, -0.26289195, -597097.0, 32434.234, 0.0, 10.000864, 9.997751 
4.0504113e+2, 2.457581e+2, -557875.4, -765044.06, -97254.875, 0.15729886, -0.21149284, -519374.44, 12174.682, 0.0, 10.000785, 9.998057 
4.050421e+2, 2.5575617e+2, -425486.78, -644960.8, -67494.8, 0.029982664, -0.22740579, -406391.5, 27176.377, 0.0, 10.001003, 9.998099 
4.0504366e+2, 2.6575437e+2, -242463.78, -478618.38, -70414.516, -0.043007106, -0.22949044, -223062.16, 112523.61, 0.0, 10.001466, 9.998348 
4.0504575e+2, 2.7575248e+2, -56359.17, -342420.3, -115942.695, -0.06814956, -0.2665934, -15268.983, 222335.97, 0.0, 10.002085, 9.998314 
4.0504965e+2, 2.857509e+2, 4477.2754, -296822.75, -81121.92, 0.034854013, -0.23788811, 24930.133, 164550.47, 0.0000000008315615, 10.001988, 9.997998 
4.0505493e+2, 2.9574957e+2, 12465.971, -240671.6, -51974.805, 0.23509204, -0.18907666, 22722.03, 64354.58, 0.00000071034475, 10.001362, 9.99801 
4.0505883e+2, 3.0574802e+2, 48441.992, -222540.64, 7573.9473, 0.20144247, -0.1312231, 48653.52, 48653.52, 0.0000094188645, 10.00137, 9.997807 
4.0506e+2, 3.157456e+2, 242277.52, 65112.793, -83081.56, -0.14877853, -0.17213066, 275142.2, 275142.2, 0.00003801625, 10.001825, 9.999565 
4.1500744e+2, 1.2575847e+2, -1637335.5, -1701095.8, 17455.691, -0.14444235, -0.47400376, -1632869.5, 74667.96, 0.00012201354, 10.000586, 9.999804 
4.150103e+2, 1.3576216e+2, -1637379.4, -1588794.3, -135450.73, 0.0055206614, -0.16080156, -1475474.9, 134028.69, 0.00006271878, 9.999662, 10.000356 
4.150139e+2, 1.4576265e+2, -1555484.9, -1496893.1, -13545.931, 0.05056521, -0.14635326, -1493913.0, 17584.771, 0.000024127196, 9.999562, 10.000349 
4.1501713e+2, 1.5575956e+2, -1368929.3, -1367584.8, 3386.802, -0.09804166, -0.50561035, -1364804.1, 48720.78, 0.0000053776757, 10.000217, 10.000248 
4.1502097e+2, 1.6575988e+2, -1246515.9, -1365926.9, -55041.08, -0.09928304, -0.44287297, -1225016.3, 90507.97, 0.0000002359893, 10.000853, 9.999279 
4.150245e+2, 1.7576297e+2, -1054552.0, -1219475.6, -65667.49, -0.06715806, -0.078613035, -1031599.56, 185901.33, 0.0, 10.001482, 9.999309 
4.1502732e+2, 1.8576276e+2, -993918.56, -1129576.1, -109190.56, -0.020579778, -0.033830833, -933204.25, 186300.55, 0.0, 10.001179, 9.999403 
4.150299e+2, 1.9575994e+2, -1047428.56, -1111897.1, -73328.44, 0.062070325, -0.27217487, -999562.25, 21968.447, 0.0, 10.000169, 9.999339 
4.1503277e+2, 2.05758e+2, -1000841.25, -1147138.5, -50898.16, 0.095109865, -0.34394106, -984875.6, -61327.84, 0.0, 10.000283, 9.998373 
4.1503572e+2, 2.1575667e+2, -771791.9, -985451.1, -106137.65, 0.07624958, -0.3291995, -728030.1, 97529.12, 0.0, 10.00118, 9.998377 
4.1503754e+2, 2.2575554e+2, -667682.9, -897434.44, -183852.77, 0.046122596, -0.27164984, -565767.75, 161805.2, 0.0, 10.001287, 9.998251 
4.1503853e+2, 2.3575447e+2, -635121.06, -825384.8, -155091.52, 0.005809998, -0.21738455, -548309.4, 81279.64, 0.0, 10.00081, 9.998304 
4.150411e+2, 2.4575374e+2, -499345.25, -631984.3, -93174.625, 0.059986833, -0.15704301, -451297.88, 80297.88, 0.0, 10.000739, 9.998989 
4.1504484e+2, 2.5575316e+2, -378939.6, -536188.75, -52393.313, 0.18660559, -0.13001636, -363082.0, 70514.39, 0.0, 10.00095, 9.998872 
4.1504678e+2, 2.6575103e+2, -329452.53, -648049.06, -52071.69, 0.1080577, -0.13918072, -321157.84, 14459.907, 0.0, 10.001426, 9.997199 
4.1504738e+2, 2.7574763e+2, -140248.7, -497711.44, -88894.27, -0.13028462, -0.21347432, -119362.695, 118293.055, 0.0, 10.002009, 9.997281 
4.150497e+2, 2.857452e+2, 51916.46, -195564.2, -109663.49, -0.17048807, -0.2592106, 93517.445, 233194.81, 0.00000000001177225, 10.001969, 9.998706 
4.1505355e+2, 2.9574347e+2, 48612.652, -152410.44, -66418.195, -0.054584283, -0.3194528, 68574.95, 110261.625, 0.0000013022876, 10.0013, 9.998648 
4.1505885e+2, 3.0574146e+2, 21726.42, -271113.94, 22730.506, 0.051269088, -0.32157403, 23480.275, 23480.275, 0.000014524035, 10.001345, 9.997483 
4.1506335e+2, 3.1573966e+2, 234384.11, 77064.445, -64847.68, -0.027035736, -0.27165076, 257668.33, 257668.33, 0.000053920798, 10.001714, 9.999699 
4.2500776e+2, 1.2575275e+2, -1585853.8, -1659784.6, 26743.104, -0.1815232, -0.529104, -1577194.3, 130397.78, 0.000114420596, 10.000861, 9.999956 
4.2501107e+2, 1.3575684e+2, -1466683.6, -1516039.3, -161418.7, 0.058299497, -0.16904804, -1328067.3, 281487.8, 0.00005866896, 10.000872, 10.000274 
4.25014e+2, 1.457575e+2, -1404493.4, -1413849.6, -23995.2, 0.055617444, -0.1394432, -1384724.5, 126822.52, 0.00002226237, 10.0005455, 10.000448 
4.2501712e+2, 1.5575394e+2, -1423785.3, -1383786.0, -44878.96, -0.095090345, -0.5545888, -1354652.1, 58924.883, 0.0000044458184, 9.999792, 10.000344 
4.2502117e+2, 1.6575427e+2, -1426900.0, -1445786.3, -66354.4, -0.09321183, -0.49748874, -1369320.1, -53744.098, 0.00000009724189, 9.99958, 9.999346 
4.250251e+2, 1.7575765e+2, -1291660.1, -1324157.6, -60592.387, -0.06488783, -0.11224616, -1245175.6, -27624.611, 0.0, 9.99981, 9.999398 
4.2502806e+2, 1.857576e+2, -1082251.3, -1143519.5, -121203.08, -0.025852198, -0.068845436, -987870.9, 131681.84, 0.0, 10.000459, 9.99965 
4.2503056e+2, 1.9575484e+2, -859311.1, -999601.25, -129882.17, 0.05073361, -0.32406682, -781842.8, 239733.5, 0.0, 10.001371, 9.999528 
4.2503375e+2, 2.0575315e+2, -865939.2, -1102579.8, -55088.117, 0.114735715, -0.37222293, -853743.6, 69849.05, 0.0, 10.001305, 9.9981785 
4.2503732e+2, 2.1575218e+2, -883600.56, -1057144.5, -26936.074, 0.15514685, -0.30052915, -879515.9, -53911.56, 0.0, 10.000495, 9.99821 
4.2503914e+2, 2.2575134e+2, -756772.56, -909890.0, -63442.848, 0.11939877, -0.22146438, -733901.75, -6285.366, 0.0, 10.000539, 9.9985285 
4.2503974e+2, 2.3575057e+2, -561060.7, -759597.94, -64049.26, 0.029167265, -0.16647683, -542191.4, 87437.47, 0.0, 10.001188, 9.998573 
4.25042e+2, 2.457496e+2, -380997.06, -579609.0, -37299.246, 0.04127408, -0.14084691, -374223.3, 157413.56, 0.0, 10.001565, 9.998957 
4.250456e+2, 2.5574833e+2, -267333.56, -491035.94, -78396.53, 0.13532653, -0.17678119, -242595.2, 191047.61, 0.0, 10.001743, 9.998806 
4.250481e+2, 2.6574618e+2, -371358.78, -713757.8, -77893.195, 0.10817787, -0.16293776, -354471.53, -18806.244, 0.0, 10.0013275, 9.996802 
4.250498e+2, 2.7574328e+2, -385163.78, -651636.8, -69230.984, -0.0054900614, -0.14992021, -368250.72, -130549.71, 0.0, 10.000483, 9.996961 
4.2505175e+2, 2.8574073e+2, -170973.34, -288817.84, -77163.734, -0.081554726, -0.19928323, -132807.63, 6915.7114, 0.0000000012455732, 10.000383, 9.998826 
4.2505398e+2, 2.9573837e+2, -9050.123, -168768.31, -90796.336, -0.11492435, -0.33338732, 32009.969, 73746.305, 0.0000019825331, 10.000848, 9.998758 
4.2505938e+2, 3.0573547e+2, -56147.46, -303099.3, 11729.163, 0.0031389734, -0.43204603, -55591.625, -55591.625, 0.000019596095, 10.0007925, 9.997533 
4.2506492e+2, 3.1573442e+2, 47113.703, -1199.9983, -84251.305, 0.03267421, -0.312199, 110602.93, 110602.93, 0.00006922057, 10.000393, 9.999797 
4.3500906e+2, 1.2574953e+2, -1563504.6, -1617326.9, 31371.014, -0.17035605, -0.32903534, -1549083.5, 158545.69, 0.00010246441, 10.000895, 10.000226 
4.3501246e+2, 1.357496e+2, -1466491.6, -1522270.1, -155167.39, 0.0889117, -0.36745757, -1336727.0, 272901.03, 0.000052240124, 10.000903, 10.000216 
4.350145e+2, 1.4575085e+2, -1420940.8, -1450144.4, -52883.01, 0.035551116, -0.25934383, -1380680.8, 130933.305, 0.000019361623, 10.000553, 10.0001955 
4.3501773e+2, 1.5575114e+2, -1430637.3, -1408935.5, -63982.773, -0.03176556, -0.26696098, -1354890.0, 58718.9, 0.0000034941986, 9.999835, 10.000154 
4.3502164e+2, 1.6575055e+2, -1392449.3, -1376482.3, -64070.52, -0.023656853, -0.31927094, -1319899.8, -4285.108, 0.000000032016867, 9.999591, 9.999816 
4.350251e+2, 1.7574944e+2, -1261080.8, -1262636.1, -44404.695, -0.06678329, -0.43037847, -1217446.9, 180.31584, 0.0, 9.999816, 9.999819 
4.3502837e+2, 1.8574977e+2, -1106495.5, -1183085.4, -90989.58, -0.050464556, -0.35472023, -1046070.56, 73554.9, 0.0, 10.000415, 9.999399 
4.3503207e+2, 1.9575106e+2, -875834.8, -1023398.44, -94829.77, 0.051928088, -0.1812205, -829464.9, 192149.77, 0.0, 10.001329, 9.999384 
4.3503475e+2, 2.0575067e+2, -802904.56, -956170.25, -91567.56, 0.072189346, -0.14646304, -760133.9, 163485.3, 0.0, 10.00124, 9.999214 
4.350365e+2, 2.1574901e+2, -824927.9, -921312.7, -49056.688, 0.009923035, -0.24924575, -804352.06, 21283.496, 0.0, 10.000437, 9.999168 
4.35039e+2, 2.2574821e+2, -766655.7, -911078.06, -45461.8, 0.040327523, -0.2103855, -753536.75, -25891.504, 0.0, 10.000459, 9.998558 
4.3504214e+2, 2.3574795e+2, -574231.4, -770273.75, -37555.395, 0.14057769, -0.106458716, -567283.25, 62367.684, 0.0, 10.001119, 9.998533 
4.3504378e+2, 2.4574567e+2, -457168.7, -726795.44, -36420.918, 0.052465152, -0.15778212, -452335.63, 79336.85, 0.0, 10.001517, 9.99797 
4.3504432e+2, 2.5574178e+2, -338860.2, -625572.1, -70281.28, -0.1819895, -0.3594619, -322559.03, 111147.555, 0.0, 10.001682, 9.997912 
4.3504754e+2, 2.657399e+2, -348921.9, -661187.1, -114061.94, -0.0936678, -0.29754737, -311696.0, 24031.945, 0.0, 10.001302, 9.997175 
4.350528e+2, 2.7573937e+2, -367473.94, -607894.75, -91783.22, 0.23622207, -0.0796329, -336440.5, -98699.56, 0.0, 10.000448, 9.99728 
4.3505546e+2, 2.8573743e+2, -205340.9, -355555.8, -63925.51, 0.23687129, -0.06203563, -181819.77, -42060.918, 0.000000012355592, 10.000367, 9.998374 
4.3505603e+2, 2.957343e+2, -47226.13, -236910.63, -68807.43, -0.0088721905, -0.2293481, -24895.367, 16885.768, 0.0000027659546, 10.000801, 9.998314 
4.3506026e+2, 3.0573004e+2, -30832.627, -250069.9, -7241.321, 0.0011752609, -0.45937178, -30593.71, -30593.71, 0.000024042205, 10.000786, 9.997901 
4.3506435e+2, 3.1572956e+2, 36178.508, -7232.509, -89097.875, -0.08953516, -0.31581923, 106176.66, 106176.66, 0.00008111006, 10.000323, 9.999785 
4.45011e+2, 1.2574755e+2, -1591883.5, -1660768.3, 184261.23, -0.05556356, -0.18970895, -1438873.3, 268777.2, 0.000089493355, 10.000844, 9.99995 
4.4501323e+2, 1.357453e+2, -1579888.3, -1634443.4, -68507.88, 0.10796119, -0.4063729, -1533427.1, 76244.31, 0.000044922584, 10.000386, 9.999693 
4.450145e+2, 1.4574613e+2, -1442415.6, -1518086.9, 29065.541, -0.02088207, -0.29144114, -1432540.3, 79122.44, 0.00001621496, 10.00066, 9.999676 
4.4501916e+2, 1.5574744e+2, -1248296.3, -1372914.5, -17315.205, 0.057727724, -0.14637545, -1245935.0, 167714.14, 0.0000027558995, 10.001317, 9.999683 
4.450233e+2, 1.6574639e+2, -1168948.1, -1295742.5, -48659.785, 0.102770396, -0.21129338, -1152426.8, 163232.53, 0.000000035556127, 10.001237, 9.999578 
4.450259e+2, 1.7574371e+2, -1163668.6, -1237160.0, -90663.41, -0.0032562607, -0.45281237, -1102587.4, 115097.93, 0.0, 10.000585, 9.9996195 
4.4502887e+2, 1.8574387e+2, -1100980.3, -1151476.8, -103240.97, -0.03511414, -0.40159696, -1019945.06, 99739.445, 0.0, 10.000318, 9.999666 
4.4503272e+2, 1.9574593e+2, -1009191.1, -1056395.5, -81668.87, 0.042081524, -0.17659491, -947782.3, 73883.07, 0.0, 10.000272, 9.999669 
4.4503555e+2, 2.05746e+2, -873392.75, -955688.7, -101396.88, 0.06479958, -0.12640065, -805112.75, 118552.85, 0.0, 10.00061, 9.99952 
4.4503745e+2, 2.1574454e+2, -694510.44, -827199.4, -122694.19, 0.02548643, -0.2379704, -621372.1, 204308.69, 0.0, 10.001196, 9.999452 
4.4503996e+2, 2.2574395e+2, -627594.8, -821475.4, -114118.0, 0.04754076, -0.20309779, -574800.9, 152886.83, 0.0, 10.001316, 9.998756 
4.4504297e+2, 2.357439e+2, -570623.44, -754498.0, -104100.46, 0.119029604, -0.09793525, -523674.56, 106015.04, 0.0, 10.0010805, 9.99866 
4.4504496e+2, 2.4574141e+2, -571613.0, -835407.6, -71658.805, 0.048020065, -0.14766975, -553404.06, -21689.816, 0.0, 10.000964, 9.997485 
4.4504607e+2, 2.5573707e+2, -471912.53, -732439.25, -79174.445, -0.13442068, -0.34725592, -449738.56, -15982.238, 0.0, 10.0009575, 9.997522 
4.450492e+2, 2.6573527e+2, -308699.9, -561552.2, -92192.24, -0.054481808, -0.29961264, -278655.7, 57120.86, 0.0, 10.001233, 9.9978895 
4.4505385e+2, 2.7573523e+2, -138122.92, -428287.88, -51543.02, 0.22990306, -0.10443099, -129239.15, 108542.23, 0.0, 10.001727, 9.997896 
4.4505665e+2, 2.857338e+2, -856.125, -305320.28, 11596.635, 0.24257986, -0.04062708, -415.06348, 139380.1, 0.00000003062236, 10.001975, 9.997946 
4.4505808e+2, 2.9573116e+2, 100308.79, -203001.1, -7236.1113, 0.05957384, -0.115149245, 100481.32, 142297.75, 0.0000032981313, 10.001985, 9.997971 
4.450623e+2, 3.0572686e+2, 96446.78, -165797.2, 35559.84, 0.0934699, -0.34706134, 101183.09, 101183.09, 0.000027025699, 10.0015545, 9.998108 
4.4506508e+2, 3.1572658e+2, 76068.266, -29460.9, -76977.26, -0.06322096, -0.20251709, 116628.92, 116628.92, 0.00008860118, 10.0007515, 9.999433 
4.550133e+2, 1.2574686e+2, -1642442.0, -1775065.6, 147759.89, 0.05231501, -0.10819336, -1546796.3, 160859.02, 0.00007906838, 10.000888, 9.999142 
4.5501304e+2, 1.3574389e+2, -1647015.8, -1785386.6, -75472.33, 0.035405543, -0.29317868, -1613816.3, -4129.8184, 0.00003857364, 10.000434, 9.998636 
4.550137e+2, 1.4574315e+2, -1487734.8, -1619682.8, 52632.4, -0.1862908, -0.24444439, -1469312.5, 42381.91, 0.000013268856, 10.000694, 9.998961 
4.550212e+2, 1.5574285e+2, -1296647.3, -1478420.3, 12757.894, 0.11136689, -0.18734358, -1295756.1, 117941.08, 0.0000020825275, 10.001343, 9.998945 
4.5502597e+2, 1.6574182e+2, -1232110.0, -1431033.1, -79981.336, 0.22906266, -0.16514736, -1203940.8, 111768.36, 0.00000004449902, 10.00125, 9.998646 
4.5502737e+2, 1.7574039e+2, -1216188.1, -1354360.9, -108147.625, 0.07031269, -0.19129845, -1156943.5, 60782.867, 0.0, 10.000613, 9.998804 
4.5502934e+2, 1.8573974e+2, -1050874.9, -1038892.1, -108591.555, -0.03457999, -0.2237437, -936126.8, 183604.25, 0.0, 10.000285, 10.000452 
4.550323e+2, 1.957395e+2, -967356.6, -959774.2, -75620.16, -0.045824487, -0.30849966, -887850.25, 133878.05, 0.0, 10.000234, 10.000348 
4.5503595e+2, 2.0573916e+2, -913624.3, -1022486.56, -86105.67, 0.028989432, -0.30639306, -866188.2, 57543.46, 0.0, 10.000537, 9.999097 
4.5503992e+2, 2.1573876e+2, -731133.8, -882141.0, -97010.85, 0.14312279, -0.270785, -683706.94, 142032.88, 0.0, 10.001106, 9.999116 
4.5504177e+2, 2.2573856e+2, -614302.4, -776586.1, -126729.164, 0.08803616, -0.20059888, -544964.06, 182779.3, 0.0, 10.001241, 9.999102 
4.550421e+2, 2.3573838e+2, -553960.0, -709328.4, -105859.336, -0.09050428, -0.1422903, -500339.06, 129405.45, 0.0, 10.001033, 9.998992 
4.550453e+2, 2.4573684e+2, -577612.2, -836944.44, -76805.32, -0.02555508, -0.11505923, -556572.1, -24810.06, 0.0, 10.000919, 9.997498 
4.5505068e+2, 2.5573418e+2, -474861.16, -721047.94, -72149.8, 0.21840471, -0.14846441, -455274.56, -21481.895, 0.0, 10.000883, 9.997638 
4.5505285e+2, 2.6573223e+2, -242892.4, -413486.47, -76062.57, 0.17955464, -0.1722516, -213904.27, 121907.195, 0.0, 10.001186, 9.998927 
4.5505264e+2, 2.7573082e+2, -82817.84, -299595.06, -27018.479, -0.07407042, -0.22374544, -79501.09, 158321.27, 0.0, 10.001668, 9.998806 
4.5505524e+2, 2.8572983e+2, -34231.8, -364525.0, 7608.194, -0.107756555, -0.13510622, -34056.64, 105775.38, 0.000000022691747, 10.001928, 9.997564 
4.5505995e+2, 2.9572904e+2, 70471.42, -252055.06, -1501.5685, 0.031716425, 0.0128150005, 70478.414, 112320.45, 0.0000033719941, 10.001921, 9.997669 
4.5506534e+2, 3.0572584e+2, 95467.8, -155890.17, 5172.2295, 0.22621684, -0.10255096, 95574.18, 95574.18, 0.000028147611, 10.0015135, 9.998192 
4.550669e+2, 3.1572542e+2, 17201.139, -128142.234, -90247.39, 0.014774638, 0.02756504, 60399.055, 60399.055, 0.00009108323, 10.000661, 9.9987955 
4.650134e+2, 1.2574261e+2, -1851535.4, -1872869.1, -25858.268, 0.05598115, -0.106867, -1834230.3, -126531.945, 0.000072079085, 9.999427, 9.999178 
4.65015e+2, 1.3574038e+2, -1441773.8, -1697914.4, -181345.36, 0.11899757, -0.20696189, -1347834.8, 261887.52, 0.000033639506, 10.001877, 9.998547 
4.6501502e+2, 1.4573914e+2, -1246936.3, -1506740.6, -22225.229, -0.2023199, -0.20560159, -1245048.6, 266686.75, 0.000010536622, 10.002352, 9.99894 
4.6502203e+2, 1.5573797e+2, -1332679.3, -1495137.6, -26113.557, 0.0786679, -0.23667586, -1328585.0, 85161.77, 0.0000014175026, 10.001085, 9.998957 
4.650268e+2, 1.6573748e+2, -1302952.9, -1432484.8, -24114.422, 0.2233157, -0.17755464, -1298609.3, 17143.857, 0.000000030371112, 10.000637, 9.998926 
4.6502858e+2, 1.7573752e+2, -1164336.5, -1303042.5, 27083.62, 0.12147733, -0.08287189, -1159235.8, 58519.63, 0.0, 10.000861, 9.999037 
4.6503055e+2, 1.8573654e+2, -1014962.6, -1071229.0, 22805.83, 0.038151782, -0.13623679, -1006880.0, 112883.53, 0.0, 10.000749, 10.000006 
4.6503317e+2, 1.9573463e+2, -981956.2, -1015064.94, -43731.01, 0.018961724, -0.3407039, -951751.1, 70026.87, 0.0, 10.0003395, 9.999921 
4.6503657e+2, 2.0573415e+2, -943923.8, -1016641.9, -35324.977, 0.05810216, -0.34509712, -929589.3, -5806.6035, 0.0, 10.000235, 9.999283 
4.650404e+2, 2.1573469e+2, -830517.1, -912306.94, -15378.428, 0.119347185, -0.23323089, -827721.2, -1940.6212, 0.0, 10.000344, 9.999276 
4.6504247e+2, 2.2573446e+2, -694434.0, -810647.44, -36213.875, 0.06584589, -0.17604156, -684072.94, 43711.008, 0.0, 10.000675, 9.999136 
4.6504343e+2, 2.3573351e+2, -524667.3, -688190.75, -50564.73, -0.06595049, -0.20022736, -510294.88, 119497.76, 0.0, 10.001209, 9.999049 
4.6504667e+2, 2.4573246e+2, -509691.06, -759872.9, -18959.488, 0.006729452, -0.14705782, -508262.44, 23543.295, 0.0, 10.001191, 9.997898 
4.6505156e+2, 2.5573123e+2, -467802.94, -676718.44, 5892.4604, 0.22999516, -0.07525296, -467636.88, -33813.95, 0.0, 10.000751, 9.998007 
4.650538e+2, 2.6572955e+2, -310554.53, -448895.6, -687.3991, 0.17995927, -0.090011135, -310551.1, 25287.805, 0.0, 10.000723, 9.998913 
4.6505395e+2, 2.7572748e+2, -182550.34, -347590.2, -41856.816, -0.07177222, -0.20475814, -172541.73, 65313.21, 0.0, 10.000978, 9.998812 
4.6505648e+2, 2.8572598e+2, -186372.23, -434981.75, -28986.469, -0.11909763, -0.16737963, -183037.31, -43167.996, 0.00000001636591, 10.000868, 9.997592 
4.6506077e+2, 2.957249e+2, -127844.75, -338623.7, -19564.934, -0.0029362442, -0.055479847, -126044.08, -84160.95, 0.0000038591365, 10.00052, 9.997748 
4.650666e+2, 3.0572277e+2, 25965.314, -174570.88, 21037.428, 0.23727655, -0.07394412, 28148.498, 28148.498, 0.00002953643, 10.000966, 9.998337 
4.650683e+2, 3.1572318e+2, 177785.33, -75326.18, -79317.67, 0.036986332, 0.12680906, 200587.05, 200587.05, 0.00009247593, 10.001874, 9.998577 
4.7501084e+2, 1.2573476e+2, -1783188.8, -1732155.8, 25382.023, -0.18409267, -0.18416306, -1721681.5, -13901.692, 0.00006757851, 9.999441, 10.000129 
4.7501883e+2, 1.3573496e+2, -1376980.4, -1563053.8, -89498.41, 0.30029628, -0.13802646, -1340921.0, 268857.06, 0.000029630666, 10.001883, 9.999463 
4.7501832e+2, 1.4573416e+2, -1194742.8, -1404024.8, -70810.88, -0.1278586, -0.16847667, -1173035.3, 338749.88, 0.00000816001, 10.002369, 9.999641 
4.7502142e+2, 1.5573275e+2, -1272279.6, -1379759.0, -63855.65, -0.11042484, -0.29420996, -1242559.9, 171238.14, 0.0000009257674, 10.001124, 9.999734 
4.750256e+2, 1.6573322e+2, -1196637.6, -1212831.3, -21689.547, 0.024821298, -0.25453168, -1181582.9, 134209.22, 0.000000014696447, 10.000642, 10.000432 
4.750293e+2, 1.7573506e+2, -1073689.9, -1116344.4, 39500.04, 0.093094766, -0.12914377, -1050127.3, 167645.45, 0.0, 10.000872, 10.000312 
4.7503227e+2, 1.8573426e+2, -1133143.0, -1312661.5, 2168.0867, 0.122380264, -0.13629477, -1133116.9, -13334.611, 0.0, 10.000729, 9.998361 
4.7503522e+2, 1.9573133e+2, -1085600.8, -1228077.8, -52443.58, 0.17720255, -0.2762945, -1068378.9, -46564.242, 0.0, 10.000325, 9.998469 
4.7503734e+2, 2.0573093e+2, -897675.56, -909068.56, -35991.594, 0.09838558, -0.2473563, -866932.5, 56886.543, 0.0, 10.000186, 10.000047 
4.7503862e+2, 2.1573234e+2, -790758.7, -816835.7, -5765.7876, -0.10351813, -0.12405187, -789540.7, 36262.453, 0.0, 10.000288, 9.999959 
4.7504187e+2, 2.257316e+2, -720191.0, -854122.4, -20769.97, -0.07593395, -0.1324005, -717044.0, 10765.931, 0.0, 10.000627, 9.998866 
4.7504675e+2, 2.3572922e+2, -550066.75, -722066.4, -27691.906, 0.1351925, -0.2718733, -545718.3, 84115.92, 0.0, 10.001125, 9.99886 
4.7504884e+2, 2.4572822e+2, -462192.22, -651152.06, -39792.46, 0.09153323, -0.24387674, -454154.34, 77691.13, 0.0, 10.001144, 9.998667 
4.7504866e+2, 2.5572821e+2, -432277.72, -594433.75, -2928.5166, -0.15104613, -0.12818868, -432224.84, 1623.0712, 0.0, 10.000707, 9.998597 
4.7505182e+2, 2.6572716e+2, -388445.94, -600455.9, 5793.03, -0.10255973, -0.052995287, -388287.78, -52428.297, 0.0, 10.000684, 9.997888 
4.7505748e+2, 2.757252e+2, -254508.16, -483270.94, -27366.63, 0.16818753, -0.05439384, -251279.88, -13400.23, 0.0, 10.000922, 9.997905 
4.7506016e+2, 2.857223e+2, -157358.72, -373946.63, -46666.305, 0.14530647, -0.14069775, -147731.84, -7824.582, 0.0000000367379, 10.000859, 9.998016 
4.7506043e+2, 2.957187e+2, -107743.18, -290592.6, -22451.271, -0.103718825, -0.32192716, -105026.84, -63086.355, 0.000004901276, 10.000478, 9.998104 
4.7506604e+2, 3.0571765e+2, 33798.92, -144371.86, 52666.746, 0.07387873, -0.25924572, 48202.63, 48202.63, 0.000032485186, 10.000908, 9.998568 
4.7506896e+2, 3.157197e+2, 181729.48, -54512.03, -9640.565, -0.1138268, 0.08260971, 182122.25, 182122.25, 0.000096372605, 10.001814, 9.998748 
4.8501128e+2, 1.257279e+2, -1676659.0, -1647672.0, 101188.53, -0.10602647, -0.22439669, -1559944.3, 147901.98, 0.00006360682, 10.000022, 10.000428 
4.8502e+2, 1.3572828e+2, -1612831.8, -1640124.1, -51431.04, 0.32645872, -0.19185676, -1573267.4, 36575.88, 0.000025765483, 10.000087, 9.999807 
4.850189e+2, 1.4572819e+2, -1505160.6, -1470717.3, -111827.38, -0.17742123, -0.21166773, -1374793.3, 137051.11, 0.000006126259, 9.999893, 10.00037 
4.8502207e+2, 1.5572837e+2, -1493134.4, -1409092.1, -117535.58, -0.06227548, -0.2488287, -1326291.9, 87550.41, 0.0000005794279, 9.999283, 10.000417 
4.8502615e+2, 1.6572928e+2, -1323707.3, -1236836.5, -58803.285, 0.07053091, -0.21523169, -1207166.0, 108665.86, 0.0000000048834687, 9.999606, 10.00077 
4.8502967e+2, 1.7573062e+2, -1086098.0, -1089706.6, -93547.82, 0.05535145, -0.17232841, -994337.1, 223479.4, 0.0, 10.000644, 10.000605 
4.850327e+2, 1.8573014e+2, -1110073.9, -1319336.0, -128848.305, 0.0845668, -0.15135933, -1048724.4, 71099.38, 0.0, 10.000965, 9.998197 
4.8503602e+2, 1.9572821e+2, -1037694.1, -1216503.8, -80448.6, 0.20709763, -0.17914677, -1006827.6, 15021.108, 0.0, 10.000711, 9.998355 
4.8503804e+2, 2.0572785e+2, -795528.9, -822886.75, -8690.773, 0.12740709, -0.15866986, -793001.56, 130850.25, 0.0, 10.0007305, 10.000378 
4.8503897e+2, 2.1572852e+2, -673666.75, -725522.6, -15652.399, -0.123203516, -0.14153205, -669308.44, 156531.2, 0.0, 10.000944, 10.000271 
4.8504248e+2, 2.2572775e+2, -663695.6, -821377.44, -20223.787, -0.09190322, -0.17171949, -661143.06, 66703.08, 0.0, 10.000991, 9.998915 
4.85048e+2, 2.3572582e+2, -575703.44, -727239.94, -12425.076, 0.16156358, -0.2719948, -574691.4, 55176.13, 0.0, 10.000912, 9.998927 
4.850503e+2, 2.45725e+2, -413107.88, -595445.06, -24333.148, 0.1168888, -0.24508457, -409916.44, 121959.85, 0.0, 10.001346, 9.99895 
4.8505005e+2, 2.55725e+2, -202397.69, -455172.5, -36091.582, -0.15356845, -0.15643442, -197345.45, 236530.69, 0.0, 10.002171, 9.998841 
4.850533e+2, 2.6572374e+2, -200372.92, -568055.75, -22319.123, -0.096174866, -0.089522146, -199023.06, 136867.67, 0.0, 10.002229, 9.997366 
4.8505932e+2, 2.7572125e+2, -172779.56, -497806.0, -25588.527, 0.22311449, -0.08683312, -170777.38, 67141.03, 0.0, 10.001711, 9.997428 
4.85062e+2, 2.8571832e+2, -6300.4775, -300329.2, -25668.719, 0.19715163, -0.15133995, -4076.4204, 135870.78, 0.00000008825205, 10.001899, 9.998019 
4.8506206e+2, 2.957153e+2, 201106.23, -142182.45, -48541.934, -0.091702245, -0.27470845, 207838.19, 249812.94, 0.0000056074396, 10.002618, 9.998085 
4.850676e+2, 3.057139e+2, 190365.89, -88520.05, -8809.836, 0.086758986, -0.23817539, 190643.9, 190643.9, 0.000034672463, 10.002063, 9.998384 
4.8507005e+2, 3.1571382e+2, -10305.848, -136909.75, -90841.09, -0.11305905, -0.09386016, 37113.656, 37113.656, 0.000099448036, 10.000452, 9.998825 
4.9501434e+2, 1.2572204e+2, -1696840.8, -1698434.9, 42192.387, 0.15915613, -0.23300892, -1655437.9, 52460.13, 0.00005696404, 10.000068, 10.000056 
4.9501827e+2, 1.3572043e+2, -1624471.0, -1666330.1, -41723.797, 0.12822062, -0.37042964, -1598721.6, 11195.6455, 0.00002106699, 10.000102, 9.999618 
4.950166e+2, 1.4572118e+2, -1452161.0, -1367248.0, -137010.8, -0.41700312, -0.33516806, -1266266.4, 245646.52, 0.000004231548, 9.999918, 10.001071 
4.9502376e+2, 1.5572487e+2, -1448610.6, -1321021.6, -131167.4, 0.1587539, -0.091737755, -1238957.9, 174921.03, 0.00000029436407, 9.999305, 10.001009 
4.9502823e+2, 1.6572571e+2, -1377721.8, -1351305.6, -25116.986, 0.30300233, -0.05071462, -1336135.6, -20263.748, 0.0000000005507737, 9.999612, 9.999981 
4.9502948e+2, 1.7572424e+2, -1128584.0, -1179727.5, -52315.367, -0.043624222, -0.21195309, -1095925.1, 121961.34, 0.0, 10.00065, 9.999983 
4.950317e+2, 1.8572421e+2, -1023205.0, -1131304.9, -142921.03, -0.12566185, -0.18617195, -924455.0, 195433.27, 0.0, 10.000933, 9.999503 
4.9503535e+2, 1.957252e+2, -955958.7, -1041384.6, -85348.85, 0.05331087, -0.05280646, -903231.5, 118649.76, 0.0, 10.000685, 9.999572 
4.9503854e+2, 2.0572484e+2, -806098.6, -832159.4, -5908.1943, 0.09227044, -0.0851812, -804821.75, 119060.055, 0.0, 10.000672, 10.000344 
4.950413e+2, 2.157234e+2, -682357.44, -731332.4, -3063.9668, 0.0037408913, -0.2779643, -682166.5, 143722.45, 0.0, 10.000885, 10.000264 
4.950441e+2, 2.2572291e+2, -650487.25, -776895.44, -26932.113, -0.039715268, -0.29526526, -644988.4, 82904.18, 0.0, 10.00092, 9.999252 
4.9504703e+2, 2.3572317e+2, -565257.06, -688685.94, -7991.5454, -0.043025546, -0.2096792, -564741.8, 65151.973, 0.0, 10.000841, 9.999226 
4.9505085e+2, 2.457227e+2, -430718.75, -623513.5, 2079.7896, 0.025121814, -0.15467884, -430696.3, 101202.52, 0.0, 10.0013075, 9.998776 
4.9505535e+2, 2.5572154e+2, -222494.47, -483890.5, -3462.5088, 0.14566596, -0.16368975, -222448.63, 211459.72, 0.0, 10.0021105, 9.998675 
4.95058e+2, 2.6571915e+2, -207927.13, -571100.94, -47112.863, 0.13970985, -0.20005088, -201914.92, 134018.31, 0.0, 10.002177, 9.997368 
4.9505928e+2, 2.7571565e+2, -187127.75, -509851.94, -34110.305, 0.034823276, -0.30404976, -183561.88, 54409.684, 0.0, 10.0016365, 9.997379 
4.950619e+2, 2.8571424e+2, -45125.1, -370226.53, -2475.9922, -0.018172078, -0.18939227, -45106.246, 94881.99, 0.00000018947561, 10.001854, 9.997561 
4.950654e+2, 2.9571456e+2, 163676.81, -212273.44, -17330.676, -0.036108434, 0.073712714, 164474.03, 206461.27, 0.000005616016, 10.002581, 9.9976225 
4.9507117e+2, 3.0571133e+2, 145756.22, -173285.27, -71536.22, 0.22131467, -0.022569777, 161061.95, 161061.95, 0.000033520122, 10.002031, 9.997815 
4.9507102e+2, 3.1570548e+2, -27331.627, -150944.05, -100172.04, -0.09228574, -0.40797037, 28567.068, 28567.068, 0.000095768366, 10.000364, 9.998768 
5.050145e+2, 1.2571639e+2, -1601771.1, -1587705.9, 58705.902, 0.15523219, -0.32935065, -1535612.9, 172339.58, 0.000046012723, 10.000466, 10.000618 
5.0501746e+2, 1.357168e+2, -1741188.1, -1655542.5, 85049.09, 0.099196486, -0.32985273, -1603143.8, 6807.431, 0.000015500982, 9.999006, 10.000229 
5.0501555e+2, 1.4571771e+2, -1521756.9, -1427489.5, 39367.586, -0.49134496, -0.29231986, -1413211.6, 98733.74, 0.0000026245805, 9.999565, 10.000823 
5.0502384e+2, 1.5572047e+2, -1159992.6, -1211367.0, -49444.082, 0.13670753, -0.11568849, -1129961.4, 283960.13, 0.00000011750303, 10.001416, 10.000743 
5.0502867e+2, 1.6572115e+2, -1129186.3, -1247066.4, 35454.215, 0.2989037, -0.07088244, -1119344.5, 196572.98, 0.000000000026416515, 10.001388, 9.999838 
5.050297e+2, 1.757201e+2, -1237928.8, -1242570.0, 44715.805, -0.04912396, -0.17474759, -1195473.4, 22456.43, 0.0, 9.999942, 9.999893 
5.050319e+2, 1.8572035e+2, -1137941.8, -1094641.3, -19069.992, -0.13863252, -0.16070692, -1087440.1, 32487.227, 0.0, 9.99975, 10.000326 
5.050356e+2, 1.9572155e+2, -934987.5, -947255.8, -7805.347, 0.025794227, -0.085818894, -931194.4, 90719.68, 0.0, 10.000479, 10.000313 
5.050391e+2, 2.0572114e+2, -857350.56, -904074.44, 33656.973, 0.09353816, -0.1362854, -839742.1, 84172.85, 0.0, 10.0005245, 9.999917 
5.050424e+2, 2.157194e+2, -839979.3, -849635.75, -3615.473, 0.068275265, -0.31379128, -838775.7, -12847.98, 0.0, 9.999993, 9.999875 
5.0504506e+2, 2.2571923e+2, -756237.5, -810413.5, -22476.79, 0.008214341, -0.2933874, -748126.56, -20196.922, 0.0, 10.000117, 9.999411 
5.050475e+2, 2.3572014e+2, -572969.7, -676246.94, -27004.443, -0.066928715, -0.1568284, -566334.94, 63589.023, 0.0, 10.000721, 9.999369 
5.050518e+2, 2.4571945e+2, -482181.44, -659488.56, -2680.0823, 0.008533871, -0.124259345, -482140.94, 49789.8, 0.0, 10.001007, 9.998674 
5.050575e+2, 2.5571743e+2, -376642.44, -564907.6, -12951.287, 0.20198603, -0.20841236, -375755.66, 58192.54, 0.0, 10.001086, 9.998612 
5.050602e+2, 2.657151e+2, -304028.84, -580673.56, -48253.85, 0.18563676, -0.2542336, -295853.72, 40118.375, 0.0, 10.001357, 9.997699 
5.050607e+2, 2.7571237e+2, -156442.64, -462871.13, -26666.06, 0.011266434, -0.31017226, -154139.42, 83862.76, 0.00000000061010413, 10.001714, 9.997662 
5.0506353e+2, 2.8571144e+2, -55142.31, -401324.88, 55106.26, -0.037147775, -0.15196982, -46582.023, 93433.79, 0.00000027597625, 10.001899, 9.997323 
5.050681e+2, 2.9571193e+2, 52534.94, -291076.22, 40580.063, 0.012810331, 0.15152134, 57262.36, 99277.94, 0.0000049400037, 10.001934, 9.997393 
5.0507367e+2, 3.0570826e+2, 72475.49, -216552.88, -29419.736, 0.2962168, 0.026495814, 75439.68, 75439.68, 0.000029285811, 10.00156, 9.997757 
5.0507265e+2, 3.1570217e+2, 42443.383, -103661.73, -10656.382, 0.018459242, -0.37303752, 43216.53, 43216.53, 0.000085814645, 10.00077, 9.998916 
5.150113e+2, 1.25711e+2, -1492868.6, -1373352.9, -69488.59, -0.2495471, -0.5058168, -1341461.0, 366548.2, 0.00003362694, 10.000517, 10.002062 
5.1501745e+2, 1.3571754e+2, -1633421.8, -1442041.3, 50880.734, 0.18220708, -0.060336147, -1429355.0, 180588.39, 0.0000102900585, 9.999051, 10.001669 
5.150156e+2, 1.4571792e+2, -1602418.3, -1608795.3, 107019.57, -0.46240708, -0.07466835, -1498539.6, 13400.771, 0.0000014940234, 9.999619, 9.999556 
5.1502216e+2, 1.5571517e+2, -1236579.5, -1375625.8, 18787.49, -0.18925741, -0.3243177, -1234085.8, 179884.28, 0.00000003629146, 10.00144, 9.999604 
5.150272e+2, 1.6571556e+2, -1100712.1, -1184518.9, -22750.098, 0.0033322014, -0.2772424, -1094934.8, 221034.36, 0.0, 10.001374, 10.000272 
5.1503e+2, 1.7571817e+2, -1205970.6, -1180330.5, 1973.6487, -0.02137918, -0.060515154, -1180179.5, 37767.49, 0.0, 9.999959, 10.000311 
5.1503295e+2, 1.8571861e+2, -1113615.4, -1041594.3, 2675.0762, -0.01954207, -0.0672878, -1041495.1, 78445.38, 0.0, 9.999742, 10.00069 
5.1503664e+2, 1.9571735e+2, -917583.56, -909817.4, 22651.717, 0.06335081, -0.27755275, -890718.3, 131228.08, 0.0, 10.000467, 10.000576 
5.150396e+2, 2.0571668e+2, -927731.7, -1037395.2, 8587.071, 0.077040575, -0.31604978, -927063.3, -3111.5364, 0.0, 10.000469, 9.999027 
5.15042e+2, 2.1571644e+2, -901293.9, -969955.06, -16247.6, 0.01757339, -0.2610522, -897643.25, -71685.766, 0.0, 9.999959, 9.999065 
5.150452e+2, 2.2571649e+2, -764797.3, -816040.6, -6109.303, 0.00012918451, -0.1775276, -764079.0, -36120.113, 0.0, 10.000065, 9.999398 
5.150493e+2, 2.3571672e+2, -582162.3, -681936.2, -1721.4609, 0.021944184, -0.10985876, -582132.6, 47825.39, 0.0, 10.000663, 9.999358 
5.150529e+2, 2.4571532e+2, -489479.38, -664370.8, -4805.6475, 0.0061106696, -0.14740287, -489347.44, 42623.977, 0.0, 10.000964, 9.998662 
5.1505625e+2, 2.5571263e+2, -382618.63, -564626.6, -1201.9767, -0.045101885, -0.29881772, -382610.7, 51385.617, 0.0, 10.00103, 9.998644 
5.150597e+2, 2.657115e+2, -267650.66, -495165.25, -39892.69, -0.013651372, -0.2567729, -260858.6, 75149.4, 0.0, 10.001319, 9.998304 
5.150633e+2, 2.7571133e+2, -125497.75, -384258.22, -7646.152, 0.08279442, -0.11355166, -125272.01, 112739.68, 0.0000000018853024, 10.001652, 9.998233 
5.150667e+2, 2.857098e+2, -62159.5, -405772.5, 50529.35, 0.07402569, -0.040837828, -54883.09, 85147.8, 0.00000034894228, 10.001857, 9.9973135 
5.150699e+2, 2.9570737e+2, 44543.15, -298979.13, 48708.62, -0.0223056, -0.033525977, 51316.094, 93376.21, 0.0000043002137, 10.001894, 9.997358 
5.1507485e+2, 3.057046e+2, 100224.25, -151727.69, -63076.945, 0.24275757, -0.088307604, 115133.5, 115133.5, 0.00002546161, 10.001538, 9.998211 
5.1507455e+2, 3.1570378e+2, 51767.715, -54915.43, 7412.9927, 0.103484675, -0.008308596, 52280.35, 52280.35, 0.00007750593, 10.000658, 9.999298 
5.250098e+2, 1.2570994e+2, -1883654.1, -1602135.9, 3114.3452, -0.31512254, -0.39311862, -1602101.4, 105918.93, 0.000024083258, 9.997999, 10.001705 
5.2501756e+2, 1.3571511e+2, -1489466.4, -1395984.8, 27850.3, 0.23861599, -0.06638328, -1388316.5, 221650.36, 0.000006343457, 10.000122, 10.001474 
5.2501637e+2, 1.4571488e+2, -1437743.8, -1557750.6, 93989.734, -0.40638697, -0.11952117, -1386237.1, 125731.44, 0.00000066930806, 10.000878, 9.999295 
5.250226e+2, 1.5571193e+2, -1405510.3, -1486825.3, 59248.02, -0.22489169, -0.3622447, -1374311.3, 39687.395, 0.000000004981165, 10.000406, 9.999338 
5.250276e+2, 1.657121e+2, -1301828.4, -1312446.8, -17661.363, -0.032324933, -0.3119293, -1288695.4, 27304.738, 0.0, 10.00012, 10.000007 
5.250304e+2, 1.7571448e+2, -1213647.0, -1210798.8, -51872.96, 0.018112712, -0.09043372, -1160330.4, 57651.12, 0.0, 10.000018, 10.000079 
5.250335e+2, 1.8571475e+2, -1017552.75, -996247.44, -27550.941, 0.02359843, -0.102408215, -977361.44, 142615.8, 0.0, 10.000406, 10.000684 
5.250373e+2, 1.9571334e+2, -824750.75, -863852.75, -50234.06, 0.054869123, -0.32389972, -790397.2, 231587.17, 0.0, 10.001108, 10.000581 
5.250402e+2, 2.0571308e+2, -792475.6, -978880.3, -64407.15, 0.045684814, -0.32136354, -772386.5, 151600.69, 0.0, 10.001428, 9.99897 
5.2504236e+2, 2.1571355e+2, -691548.1, -875818.94, -37749.543, -0.010766781, -0.18382147, -684114.6, 141873.0, 0.0, 10.001432, 9.999002 
5.2504593e+2, 2.2571325e+2, -612231.25, -760892.6, 13524.569, 0.012010539, -0.12419298, -611010.9, 116981.445, 0.0, 10.0012, 9.999227 
5.2505076e+2, 2.3571225e+2, -577013.5, -697319.25, -5021.062, 0.10389195, -0.16113849, -576804.3, 53197.117, 0.0, 10.000785, 9.999191 
5.250544e+2, 2.4571083e+2, -507146.0, -669927.44, 1048.8173, 0.067856126, -0.19407547, -507139.25, 24875.928, 0.0, 10.00083, 9.998688 
5.250571e+2, 2.5570905e+2, -355200.7, -546259.06, -5992.8833, -0.070537224, -0.2560303, -355012.88, 79019.89, 0.0, 10.0012, 9.998687 
5.250606e+2, 2.6570815e+2, -253809.03, -464933.06, -50740.18, -0.053070713, -0.20455058, -242247.6, 93794.15, 0.0, 10.001307, 9.99852 
5.250648e+2, 2.7570772e+2, -171991.81, -378708.53, -55446.043, 0.098729156, -0.11311195, -158059.03, 79987.02, 0.00000000009174081, 10.001214, 9.998481 
5.2506846e+2, 2.857061e+2, -160420.97, -403825.38, 11741.433, 0.1183681, -0.081637554, -159855.9, -19791.576, 0.00000033351301, 10.000973, 9.997752 
5.2507156e+2, 2.9570377e+2, -120306.87, -340950.63, 28690.895, 0.02545444, -0.11174757, -116637.15, -74544.96, 0.0000041079616, 10.000596, 9.997696 
5.250762e+2, 3.0570132e+2, 88376.22, -210327.56, -65534.254, 0.22858886, -0.12042139, 102121.62, 102121.62, 0.000024461535, 10.001682, 9.997741 
5.2507675e+2, 3.1570137e+2, 461615.63, 63282.543, -67953.36, 0.10915161, 0.09287027, 472889.03, 472889.03, 0.000075222786, 10.003806, 9.998599 
5.350096e+2, 1.2571314e+2, -2024116.5, -1903526.8, 414.6232, -0.17272307, 0.00073554175, -1903525.4, -195538.75, 0.000017799504, 9.998056, 9.999605 
5.3501755e+2, 1.3570957e+2, -1619488.3, -1660930.1, 107078.734, 0.21472703, -0.3406055, -1531144.0, 78877.03, 0.0000036805177, 10.000111, 9.999662 
5.3501755e+2, 1.4570862e+2, -1383585.9, -1451597.8, 74458.26, -0.388034, -0.42094713, -1335735.6, 176294.02, 0.00000019448485, 10.000897, 10.000018 
5.350252e+2, 1.5571076e+2, -1360100.1, -1399018.6, 47417.055, -0.030221518, -0.22779661, -1328304.8, 85702.87, 0.00000000000050979853, 10.00043, 9.999931 
5.3502953e+2, 1.6571075e+2, -1366882.9, -1449316.1, -28377.205, 0.13245963, -0.17033657, -1358058.8, -42048.23, 0.0, 10.00013, 9.9990635 
5.350306e+2, 1.7570901e+2, -1274287.1, -1342298.8, -47202.07, 0.0152498055, -0.26568842, -1250117.1, -32083.67, 0.0, 10.000042, 9.999167 
5.3503317e+2, 1.8570875e+2, -1045905.06, -1053939.6, -5375.111, -0.063765764, -0.26873717, -1043211.9, 76825.84, 0.0, 10.0004015, 10.000289 
5.3503734e+2, 1.957095e+2, -852793.1, -916481.94, -19430.822, -0.060043406, -0.23557314, -847333.06, 174695.36, 0.0, 10.00108, 10.0002365 
5.3504074e+2, 2.0571025e+2, -746815.44, -870918.44, -68959.72, -0.06052126, -0.15586098, -716099.3, 207922.19, 0.0, 10.001374, 9.999734 
5.350433e+2, 2.157109e+2, -651434.2, -779925.1, -33363.746, -0.073455684, -0.079851285, -643287.56, 182729.64, 0.0, 10.001377, 9.999686 
5.3504705e+2, 2.2570962e+2, -645937.2, -821504.1, -7374.558, -0.010101318, -0.12984216, -645628.0, 82401.14, 0.0, 10.001155, 9.998835 
5.350518e+2, 2.3570676e+2, -607461.2, -750750.0, -12742.711, 0.120045654, -0.31527427, -606336.8, 23717.584, 0.0, 10.00074, 9.998847 
5.3505605e+2, 2.4570596e+2, -511345.53, -668677.44, 10425.381, 0.13754743, -0.27081376, -510657.72, 21404.95, 0.0, 10.000791, 9.9987135 
5.3505975e+2, 2.5570664e+2, -361977.22, -548339.9, 12552.912, 0.062290307, -0.08832181, -361135.5, 72923.266, 0.0, 10.001148, 9.998696 
5.350627e+2, 2.6570505e+2, -265515.13, -481376.44, -58133.855, 0.0129319625, -0.10036091, -250854.7, 85219.1, 0.0, 10.001272, 9.998424 
5.350651e+2, 2.757016e+2, -179500.8, -385817.97, -51105.67, -0.011420384, -0.30582565, -167535.61, 70569.14, 0.0, 10.001175, 9.998452 
5.3506875e+2, 2.8570044e+2, -103414.984, -283887.7, -8835.949, 0.03115266, -0.27396804, -102983.41, 37132.75, 0.00000019037492, 10.000965, 9.99858 
5.3507304e+2, 2.9570106e+2, -83324.5, -248342.25, 26696.77, 0.104577824, -0.08472711, -79112.945, -37000.57, 0.0000040138116, 10.000527, 9.998365 
5.350778e+2, 3.0569845e+2, -19983.799, -420028.56, 12995.411, 0.20753789, -0.064818464, -19562.088, -19562.088, 0.000024849203, 10.001622, 9.996325 
5.350789e+2, 3.1569508e+2, 328487.2, -192289.61, 37491.2, -0.09171097, -0.05688966, 331172.34, 331172.34, 0.00007616266, 10.003727, 9.996872 
5.4500943e+2, 1.2571019e+2, -1906072.8, -1885363.1, -154669.39, -0.040571023, -0.0011882774, -1740702.4, -32687.67, 0.000013143151, 9.9990425, 9.999266 
5.450174e+2, 1.3570577e+2, -1648575.0, -1701630.8, 121432.43, 0.19256315, -0.3982108, -1550806.6, 59251.105, 0.000002162896, 10.000028, 9.999428 
5.450182e+2, 1.4570498e+2, -1482794.5, -1493561.4, 63387.363, -0.37711984, -0.45182237, -1424562.4, 87502.44, 0.000000029643958, 10.000194, 10.000067 
5.4502606e+2, 1.5570772e+2, -1447595.3, -1432879.3, -27503.068, 0.05262482, -0.20623824, -1411767.0, 2270.2617, 0.0, 9.999797, 10.0 
5.4503006e+2, 1.6570778e+2, -1374755.5, -1447527.0, -43922.516, 0.18013677, -0.14887014, -1354105.1, -38065.742, 0.0, 10.000063, 9.9991 
5.450305e+2, 1.7570572e+2, -1166683.5, -1287777.8, -1926.354, -0.033576187, -0.27983022, -1166652.8, 51412.566, 0.0, 10.000779, 9.99918 
5.45033e+2, 1.8570541e+2, -1053215.5, -1094574.8, 69417.53, -0.124092266, -0.26952204, -1001462.8, 118608.38, 0.0, 10.000496, 9.999973 
5.4503745e+2, 1.9570641e+2, -1099700.6, -1063086.9, 54110.73, -0.07200242, -0.18306093, -1024270.1, -2208.2417, 0.0, 9.999492, 9.999998 
5.4504144e+2, 2.0570722e+2, -968173.7, -942645.7, 26158.883, -0.03945113, -0.102566525, -926302.9, -2249.12, 0.0, 9.9997, 10.000052 
5.450448e+2, 2.1570778e+2, -715262.9, -778419.3, 18747.844, -0.029321875, -0.06709906, -710116.94, 115930.94, 0.0, 10.000798, 9.999978 
5.4504865e+2, 2.2570626e+2, -614071.2, -835076.5, 25389.826, 0.01781581, -0.14023171, -611191.8, 116869.38, 0.0, 10.001494, 9.998579 
5.4505295e+2, 2.3570307e+2, -455848.44, -707527.5, 16347.082, 0.09964665, -0.33354715, -454791.1, 175299.33, 0.0, 10.001904, 9.998587 
5.4505706e+2, 2.4570224e+2, -368230.75, -613882.0, 44807.188, 0.11429692, -0.274222, -360313.06, 171786.34, 0.0, 10.001828, 9.998591 
5.450611e+2, 2.5570315e+2, -333315.28, -546001.75, 25328.715, 0.07273882, -0.057889257, -330340.5, 103753.086, 0.0, 10.0014, 9.998589 
5.450643e+2, 2.6570135e+2, -260268.03, -494518.75, -34669.945, 0.042065654, -0.07687751, -255244.48, 80865.72, 0.0, 10.001376, 9.998283 
5.450669e+2, 2.7569732e+2, -119210.03, -374020.53, -45172.445, 0.029549392, -0.32280353, -111438.92, 126706.79, 0.0, 10.001659, 9.998305 
5.450701e+2, 2.8569573e+2, -17646.535, -266677.56, -53726.793, 0.042943537, -0.31398794, -6549.8037, 133611.06, 0.00000011177434, 10.001667, 9.998358 
5.450737e+2, 2.9569605e+2, 49483.74, -198648.44, -102370.46, 0.066856295, -0.13735577, 86265.734, 128426.16, 0.0000045059896, 10.001517, 9.998223 
5.450787e+2, 3.0569407e+2, 32178.965, -335036.34, 1787.6761, 0.13426258, -0.07903709, 32187.668, 32187.668, 0.00002638034, 10.001716, 9.996862 
5.4508203e+2, 3.1569082e+2, 106896.414, -247551.77, 146052.28, -0.050590284, -0.10753821, 159323.47, 159323.47, 0.00007851539, 10.001969, 9.997343 
5.550087e+2, 1.2570125e+2, -1796369.5, -1658573.6, -199504.08, -0.047518674, -0.37739757, -1516405.8, 191697.52, 0.000010165176, 9.999062, 10.000804 
5.5501676e+2, 1.3570374e+2, -1550762.1, -1499633.5, 160132.81, 0.11578253, -0.23539244, -1363037.3, 247039.42, 0.0000015959415, 10.000039, 10.000807 
5.5501807e+2, 1.4570403e+2, -1520778.0, -1580423.0, 41616.21, -0.43217355, -0.21373494, -1499402.0, 12671.95, 0.000000016896806, 10.000223, 9.999458 
5.550252e+2, 1.5570286e+2, -1479250.6, -1504437.9, -32474.37, -0.033882238, -0.29542905, -1457013.5, -42926.598, 0.0, 9.999818, 9.999501 
5.55029e+2, 1.6570322e+2, -1303232.3, -1300133.1, -21864.527, 0.05264212, -0.24112476, -1279763.4, 36323.21, 0.0, 10.000069, 10.000106 
5.5502987e+2, 1.7570454e+2, -1103798.3, -1154362.6, 25219.703, -0.18229032, -0.13434665, -1093370.3, 124707.42, 0.0, 10.000771, 10.000098 
5.550328e+2, 1.8570478e+2, -1068974.0, -1122453.0, 26087.023, -0.20487045, -0.10221598, -1058356.6, 61720.69, 0.0, 10.000475, 9.999793 
5.550375e+2, 1.957041e+2, -1117083.3, -1095478.4, 27271.13, -0.034719147, -0.1622182, -1076948.1, -54863.61, 0.0, 9.999471, 9.999791 
5.550421e+2, 2.0570399e+2, -976470.94, -952983.1, 62967.016, 0.05064491, -0.16086827, -900674.2, 23410.115, 0.0, 9.999673, 9.999992 
5.550466e+2, 2.157042e+2, -730869.6, -797185.25, 63600.547, 0.0642784, -0.15201776, -692302.5, 133777.22, 0.0, 10.000736, 9.999881 
5.550505e+2, 2.2570316e+2, -636736.9, -864040.1, 35789.336, 0.041474383, -0.16278715, -631234.94, 96854.19, 0.0, 10.001422, 9.998413 
5.550539e+2, 2.3570111e+2, -480596.56, -739528.8, 35839.89, -0.006401488, -0.22386171, -475727.38, 154382.7, 0.0, 10.001821, 9.998407 
5.5505735e+2, 2.4569966e+2, -394977.9, -657670.1, 24323.021, -0.05172639, -0.2042154, -392744.8, 139380.61, 0.0, 10.001776, 9.998318 
5.550609e+2, 2.5569856e+2, -360955.84, -589928.94, 17775.295, -0.09506278, -0.16039182, -359584.16, 74553.1, 0.0, 10.001341, 9.998317 
5.550652e+2, 2.65697e+2, -279077.47, -523909.34, -29237.305, -0.014562543, -0.13740988, -275634.44, 60517.25, 0.0, 10.001338, 9.998096 
5.5507e+2, 2.756949e+2, -149868.86, -422369.8, -29858.72, 0.16329247, -0.16785252, -146635.52, 91533.95, 0.0, 10.001597, 9.998001 
5.5507255e+2, 2.8569204e+2, -105702.36, -451432.7, -63766.76, 0.103161976, -0.20303026, -94316.164, 45882.66, 0.00000024371042, 10.001664, 9.997096 
5.550732e+2, 2.956886e+2, -17230.482, -343526.72, -98150.59, -0.15205742, -0.27570575, 10017.951, 52255.047, 0.0000058589785, 10.001529, 9.9972315 
5.550786e+2, 3.0568802e+2, 198834.69, 21199.309, 10394.319, -0.060382623, -0.16454668, 199440.84, 199440.84, 0.000029983938, 10.001685, 9.999315 
5.550859e+2, 3.1568834e+2, 281179.06, 138101.58, 165032.84, 0.10939334, -0.081589475, 389511.5, 389511.5, 0.00008393316, 10.001875, 10.000032 
5.650083e+2, 1.2569655e+2, -1754858.0, -1602911.6, -87686.92, 0.006719905, -0.47112226, -1562863.6, 145285.83, 0.000007999431, 9.9991665, 10.00114 
5.6501687e+2, 1.3570082e+2, -1512240.4, -1450757.4, 200812.08, 0.11999677, -0.18269193, -1278347.4, 331758.1, 0.00000128022, 10.00015, 10.001093 
5.650188e+2, 1.4570147e+2, -1529448.8, -1550359.5, 36123.64, -0.36607715, -0.15282294, -1502297.9, 9800.76, 0.000000037787355, 10.000016, 9.999768 
5.650246e+2, 1.5569937e+2, -1565840.5, -1509802.0, 20575.54, -0.030700587, -0.35948342, -1503058.8, -88938.88, 0.0, 9.99907, 9.999827 
5.650282e+2, 1.6569987e+2, -1450054.8, -1353458.3, 85403.625, 0.02339101, -0.31322867, -1303641.8, 12475.97, 0.0, 9.998987, 10.000265 
5.650299e+2, 1.7570217e+2, -1260541.8, -1215416.6, 54851.75, -0.19346431, -0.1243963, -1178668.3, 39431.49, 0.0, 9.999626, 10.000234 
5.6503326e+2, 1.8570262e+2, -1095890.5, -1153192.9, 13373.087, -0.19105004, -0.068235315, -1092923.3, 27174.441, 0.0, 10.000371, 9.999627 
5.650381e+2, 1.9570161e+2, -882062.75, -997288.3, 10504.233, -0.0019386846, -0.14885564, -881113.0, 140995.3, 0.0, 10.001158, 9.999644 
5.6504285e+2, 2.0570089e+2, -794446.75, -904444.56, 56700.293, 0.08479396, -0.18288584, -770453.2, 153660.45, 0.0, 10.001098, 9.999637 
5.650475e+2, 2.1570031e+2, -803831.0, -866810.75, 26661.756, 0.0981243, -0.21726553, -794060.0, 32055.791, 0.0, 10.000395, 9.999559 
5.650516e+2, 2.2569932e+2, -781187.9, -966329.5, 13309.195, 0.059038583, -0.19429626, -780236.0, -52109.92, 0.0, 10.000567, 9.998121 
5.6505543e+2, 2.3569794e+2, -562361.94, -803816.94, -5624.96, -0.008440219, -0.16206619, -562230.94, 67912.48, 0.0, 10.001371, 9.998175 
5.6505877e+2, 2.4569637e+2, -440719.2, -679120.44, -34270.44, -0.07070192, -0.1425012, -435890.56, 96269.48, 0.0, 10.001476, 9.998304 
5.6506175e+2, 2.5569448e+2, -399171.63, -613247.9, -32407.654, -0.12744159, -0.17734139, -394373.2, 39804.703, 0.0, 10.001102, 9.998269 
5.6506616e+2, 2.6569262e+2, -307343.78, -565627.25, -32858.574, -0.043508396, -0.16332342, -303229.1, 32965.086, 0.0, 10.001275, 9.997835 
5.6507164e+2, 2.7569076e+2, -124806.69, -433451.9, -47965.344, 0.15598711, -0.14969444, -117524.4, 120685.47, 0.0, 10.001887, 9.997772 
5.650744e+2, 2.856876e+2, -28470.635, -463042.2, -45986.645, 0.08389601, -0.18352653, -23657.604, 116585.25, 0.00000046127252, 10.002404, 9.99666 
5.650748e+2, 2.9568344e+2, 146956.83, -304435.7, -32343.209, -0.20399337, -0.283659, 149262.52, 191551.3, 0.000007820285, 10.002832, 9.996871 
5.650801e+2, 3.0568278e+2, 309411.34, 103502.81, -473.9028, -0.10593863, -0.1797141, 309412.44, 309412.44, 0.000035959114, 10.002298, 9.999599 
5.650879e+2, 3.156831e+2, 185783.14, 175178.4, -30176.96, 0.17977405, -0.123659834, 211120.03, 211120.03, 0.000094359246, 10.000852, 10.000787 
5.750076e+2, 1.2569599e+2, -1806807.5, -1720958.0, -111323.56, -0.012230298, -0.29258257, -1644570.3, 63584.074, 0.0000055281434, 9.999215, 10.000298 
5.750174e+2, 1.3569704e+2, -1568599.9, -1569824.1, 235392.02, 0.14293805, -0.23428597, -1333819.1, 276324.84, 0.00000085256136, 10.000158, 10.000268 
5.750203e+2, 1.4569739e+2, -1442016.9, -1369987.3, -8567.907, -0.2346704, -0.25970328, -1368982.1, 143156.14, 0.00000002938157, 10.000023, 10.001002 
5.750242e+2, 1.5569723e+2, -1488534.0, -1348740.3, -6258.965, 0.0047338977, -0.39625618, -1348460.6, 65675.62, 0.0, 9.999072, 10.000933 
5.7502747e+2, 1.6569774e+2, -1495499.9, -1450497.8, 103080.62, 0.035054307, -0.3649449, -1367490.9, -51357.465, 0.0, 9.998993, 9.999597 
5.750304e+2, 1.7569862e+2, -1302967.9, -1308568.0, 85829.516, -0.12522155, -0.251082, -1219892.8, -1761.1012, 0.0, 9.999643, 9.999586 
5.750343e+2, 1.8569903e+2, -1104201.1, -1165364.4, 39788.223, -0.14086655, -0.16370064, -1084599.6, 35531.496, 0.0, 10.000357, 9.999548 
5.7503915e+2, 1.9569899e+2, -897421.94, -1017917.6, 42419.383, -0.033400014, -0.13618572, -883986.6, 138146.14, 0.0, 10.001113, 9.999524 
5.750434e+2, 2.0569797e+2, -845222.75, -1000066.75, 24053.518, 0.015135107, -0.16184187, -841572.3, 82569.016, 0.0, 10.001053, 9.999002 
5.750472e+2, 2.156961e+2, -855688.94, -962605.56, 8948.101, 0.014939105, -0.26361892, -854945.2, -28788.867, 0.0, 10.00034, 9.998931 
5.750519e+2, 2.2569469e+2, -810541.4, -1012177.9, 39188.844, 0.017419286, -0.2372568, -803192.7, -75020.33, 0.0, 10.000506, 9.997834 
5.750573e+2, 2.3569357e+2, -592945.44, -849686.7, 29095.21, 0.027858805, -0.14497308, -589689.5, 40500.332, 0.0, 10.001296, 9.997897 
5.75061e+2, 2.4569233e+2, -428467.03, -649478.9, -54292.414, -0.007251581, -0.09370964, -415850.13, 116353.625, 0.0, 10.00145, 9.998526 
5.7506347e+2, 2.556908e+2, -393104.88, -590630.56, -39527.984, -0.08257201, -0.1103051, -385488.4, 48727.797, 0.0, 10.001055, 9.99845 
5.750671e+2, 2.656883e+2, -332482.4, -612739.2, -14510.941, -0.091746666, -0.15695341, -331733.06, 4504.622, 0.0, 10.001249, 9.997526 
5.750716e+2, 2.7568483e+2, -148034.55, -474232.03, -20803.504, -0.051037237, -0.2687009, -146713.14, 91554.164, 0.0, 10.001845, 9.997518 
5.750753e+2, 2.856823e+2, -7929.2847, -405993.88, -36114.902, -0.07397328, -0.25197628, -4679.2505, 135614.11, 0.0000006054728, 10.002344, 9.997081 
5.750783e+2, 2.956804e+2, 155807.9, -272164.97, -12298.166, -0.15269777, -0.1652471, 156161.02, 198477.73, 0.000009307056, 10.00277, 9.997126 
5.75083e+2, 3.056782e+2, 179096.44, -155943.38, -55051.92, -0.05422391, -0.13171543, 187910.39, 187910.39, 0.00004067109, 10.0022545, 9.997837 
5.7508785e+2, 3.1567496e+2, 103732.47, 15893.29, -78316.68, 0.05673935, -0.26085618, 149603.94, 149603.94, 0.00010363106, 10.000806, 9.999715 
5.850066e+2, 1.2569445e+2, -1796472.8, -1724960.8, -179857.5, -0.039452266, -0.13415298, -1577339.5, 130832.83, 0.0000029888902, 9.999316, 10.000226 
5.850164e+2, 1.3569348e+2, -1779716.4, -1682689.1, 235686.19, 0.108373374, -0.26311973, -1490575.3, 119605.46, 0.00000032572908, 9.998754, 10.000173 
5.8502036e+2, 1.456938e+2, -1644866.4, -1436866.8, -25788.252, -0.15102428, -0.30161458, -1433717.1, 78457.89, 0.0000000021906112, 9.998507, 10.001269 
5.850229e+2, 1.5569519e+2, -1515764.9, -1331443.0, -105825.414, -0.0072756913, -0.3108633, -1283273.5, 130884.11, 0.0, 9.998754, 10.001201 
5.850265e+2, 1.6569571e+2, -1443957.5, -1418765.3, 53569.133, 0.02949388, -0.29611772, -1376331.3, -60177.742, 0.0, 9.9993105, 9.9996605 
5.850313e+2, 1.7569543e+2, -1233625.0, -1266602.5, 79214.266, -0.021501021, -0.30526614, -1169201.6, 48959.21, 0.0, 10.000083, 9.99966 
5.850354e+2, 1.8569563e+2, -1104787.1, -1172067.6, 55919.203, -0.06321199, -0.2421288, -1073169.3, 46992.535, 0.0, 10.000377, 9.999496 
5.850392e+2, 1.9569607e+2, -1026745.0, -1089215.8, 49860.496, -0.09127778, -0.15951219, -999144.0, 23014.947, 0.0, 10.00026, 9.99945 
5.850435e+2, 2.0569497e+2, -901109.56, -1078903.9, 51803.258, -0.060461942, -0.16498648, -887117.06, 37052.176, 0.0, 10.000889, 9.998542 
5.850484e+2, 2.1569256e+2, -626927.5, -898162.1, 40237.215, 0.016758738, -0.2756408, -621084.25, 205106.45, 0.0, 10.0021105, 9.998519 
5.850532e+2, 2.2569093e+2, -591044.25, -919351.3, 81263.516, 0.023118384, -0.24731638, -572030.8, 156179.03, 0.0, 10.002073, 9.997721 
5.85058e+2, 2.3568977e+2, -638572.2, -888033.6, 72968.25, -0.016896516, -0.14794898, -618796.44, 11431.773, 0.0, 10.00105, 9.99776 
5.8506215e+2, 2.456885e+2, -482154.44, -705438.0, 4940.545, -0.027479278, -0.076592416, -482045.16, 50197.656, 0.0, 10.001207, 9.998261 
5.850658e+2, 2.5568706e+2, -220960.42, -534418.3, -25202.121, -0.01646378, -0.059281014, -218947.1, 215308.0, 0.0, 10.002353, 9.998211 
5.850694e+2, 2.6568425e+2, -155833.02, -530522.75, -6611.1187, -0.045329593, -0.12418293, -155716.4, 180562.89, 0.0, 10.002477, 9.997497 
5.8507293e+2, 2.756802e+2, -152323.23, -478990.38, -3531.818, -0.10017291, -0.29292747, -152285.06, 86028.83, 0.0, 10.001829, 9.997491 
5.8507675e+2, 2.8567788e+2, -124570.94, -433600.75, -2046.0679, -0.11578155, -0.2623162, -124557.4, 15778.718, 0.00000055145284, 10.001419, 9.9973345 
5.8508074e+2, 2.95677e+2, -68590.67, -360373.66, -2060.0525, -0.09953731, -0.10081275, -68576.13, -26228.107, 0.000008783807, 10.001153, 9.997291 
5.8508545e+2, 3.0567348e+2, 48922.266, -332315.03, -11820.284, -0.015129271, -0.15243955, 49288.402, 49288.402, 0.000039664603, 10.001845, 9.996817 
5.850896e+2, 3.1566882e+2, 394937.1, 69870.79, -7533.017, 0.03674663, -0.32641783, 395111.56, 395111.56, 0.00010367087, 10.003173, 9.998939 
5.950048e+2, 1.256919e+2, -1729762.3, -1594436.4, -236840.61, -0.18876477, 0.0081731435, -1415783.0, 292421.0, 0.000001124367, 9.999366, 10.001092 
5.9501386e+2, 1.3569018e+2, -1733954.5, -1586855.3, 215597.25, -0.039239597, -0.27174404, -1432607.4, 177608.22, 0.000000025767086, 9.998759, 10.000826 
5.9501874e+2, 1.4569068e+2, -1691213.4, -1536236.8, -24704.488, -0.182611, -0.28440398, -1532393.9, -20185.123, 0.0, 9.998517, 10.000582 
5.950207e+2, 1.5569328e+2, -1553638.8, -1415832.4, -88952.37, -0.12783419, -0.10547953, -1372218.1, 41965.855, 0.0, 9.998776, 10.000611 
5.9502524e+2, 1.6569385e+2, -1388601.9, -1300279.9, 76511.4, -0.044962913, -0.10197036, -1256099.6, 60077.836, 0.0, 9.999298, 10.000481 
5.9503233e+2, 1.7569262e+2, -1177189.9, -1153815.8, 111513.02, 0.0635532, -0.28620398, -1053379.0, 164808.25, 0.0, 10.000101, 10.000428 
5.950363e+2, 1.8569234e+2, -1108301.6, -1174696.5, 45833.566, -0.019896252, -0.30425557, -1084906.0, 35284.16, 0.0, 10.00036, 9.999484 
5.9503806e+2, 1.9569276e+2, -1034026.3, -1097226.5, 52987.137, -0.24236493, -0.22332084, -1003932.0, 18255.834, 0.0, 10.00023, 9.99941 
5.950431e+2, 2.0569184e+2, -922318.8, -1112551.4, 92496.89, -0.20001121, -0.1971598, -884759.6, 39438.258, 0.0, 10.000845, 9.998331 
5.9505093e+2, 2.156898e+2, -650201.25, -932824.4, 87248.2, 0.0429433, -0.24953496, -625436.94, 200781.56, 0.0, 10.002052, 9.99831 
5.9505534e+2, 2.2568808e+2, -595080.44, -918340.3, 36635.41, 0.021007912, -0.22141384, -590980.5, 137257.8, 0.0, 10.002028, 9.997751 
5.9505725e+2, 2.3568647e+2, -649726.5, -897896.75, 44696.82, -0.2054891, -0.16961218, -641921.8, -11662.797, 0.0, 10.000988, 9.997725 
5.950619e+2, 2.4568485e+2, -536660.7, -811915.4, 42286.32, -0.19112092, -0.093116105, -530310.9, 1966.8497, 0.0, 10.001174, 9.997547 
5.950685e+2, 2.5568318e+2, -273455.38, -629789.94, 18417.541, 0.007865498, -0.02940597, -272505.97, 161789.19, 0.0, 10.002292, 9.997586 
5.9507287e+2, 2.656805e+2, -145526.03, -498709.03, -35436.113, 0.041010804, -0.06530909, -142005.69, 194313.33, 0.0, 10.002434, 9.997736 
5.950753e+2, 2.7567676e+2, -142767.44, -450320.16, -19857.11, -0.06115726, -0.22872634, -141490.67, 96859.54, 0.0, 10.00179, 9.997707 
5.950784e+2, 2.8567433e+2, -122660.76, -426059.9, -18930.033, -0.10431345, -0.22074693, -121484.22, 18887.332, 0.0000003359344, 10.001404, 9.997392 
5.95082e+2, 2.9567316e+2, -70834.42, -356775.5, -4098.6084, -0.10581424, -0.09801847, -70775.69, -28392.076, 0.000006914508, 10.001117, 9.997332 
5.9508723e+2, 3.0566853e+2, 18959.695, -379172.03, 35451.125, -0.03408516, -0.247701, 22091.754, 22091.754, 0.000035630153, 10.001788, 9.996523 
5.950927e+2, 3.1566468e+2, 346232.13, -1757.4148, 52092.508, 0.0017102481, -0.31141597, 353862.8, 353862.8, 0.0000986736, 10.003056, 9.998501 
6.0500455e+2, 1.256886e+2, -1648924.4, -1573507.1, -143012.58, -0.17233305, -0.06954044, -1463315.3, 244920.16, 0.00000033090242, 9.999975, 10.000959 
6.0501194e+2, 1.3568766e+2, -1689145.4, -1578175.1, 224064.98, -0.11756695, -0.25772202, -1402827.5, 207413.13, 0.000000000013925105, 9.99913, 10.000704 
6.0501796e+2, 1.4568807e+2, -1596602.9, -1513562.4, 42435.92, -0.14311972, -0.26291963, -1495713.1, 16522.191, 0.0, 9.999265, 10.0003805 
6.0502034e+2, 1.5568998e+2, -1318711.9, -1323784.4, 226.40181, -0.12226357, -0.12999216, -1318701.9, 95514.77, 0.0, 10.000481, 10.0004225 
6.050247e+2, 1.6569039e+2, -1255583.9, -1254021.9, 117601.27, -0.07005604, -0.12647004, -1137199.0, 179012.63, 0.0, 10.000285, 10.000323 
6.050315e+2, 1.7568943e+2, -1355386.0, -1256220.0, 72170.59, 0.026742192, -0.2696283, -1218241.3, -21.993572, 0.0, 9.99895, 10.00028 
6.0503596e+2, 1.8568905e+2, -1271379.0, -1248707.9, 20869.477, -0.033151194, -0.29464686, -1236294.1, -116071.59, 0.0, 9.999212, 9.999534 
6.0503876e+2, 1.9568901e+2, -964676.9, -1055780.4, 24047.406, -0.21113512, -0.26525748, -958719.0, 63504.223, 0.0, 10.000671, 9.999479 
6.0504436e+2, 2.0568828e+2, -865187.1, -1085224.5, 79308.38, -0.182191, -0.22420956, -839581.56, 84650.28, 0.0, 10.001235, 9.998335 
6.0505205e+2, 2.1568686e+2, -798961.94, -1005415.2, 78310.64, 0.009894866, -0.21201615, -772618.94, 53629.082, 0.0, 10.001023, 9.998313 
6.0505676e+2, 2.2568537e+2, -708536.9, -960460.25, 21897.314, 0.003073215, -0.16701777, -706647.7, 21617.506, 0.0, 10.001198, 9.99786 
6.050591e+2, 2.3568368e+2, -542050.8, -832562.9, 28377.047, -0.15318145, -0.13536826, -539304.94, 90979.71, 0.0, 10.001678, 9.997834 
6.0506374e+2, 2.4568146e+2, -464106.9, -808279.44, 85734.77, -0.15269439, -0.10772009, -443932.6, 88375.92, 0.0, 10.0018215, 9.997254 
6.0507005e+2, 2.5567877e+2, -378064.9, -710677.1, 78235.375, -0.030716224, -0.11522114, -360581.75, 73754.6, 0.0, 10.001709, 9.997309 
6.050746e+2, 2.6567626e+2, -218507.95, -531223.9, 15524.436, -0.00033782527, -0.122219, -217739.16, 118620.484, 0.0, 10.001911, 9.997772 
6.0507756e+2, 2.756737e+2, -58588.09, -409269.72, 5720.802, -0.038241923, -0.1720088, -58494.79, 179886.52, 0.0, 10.002355, 9.997726 
6.0508114e+2, 2.8567111e+2, 101753.98, -339505.28, 16942.299, -0.052338704, -0.16798382, 102403.53, 242808.05, 0.00000016006682, 10.00304, 9.9972 
6.050851e+2, 2.9566884e+2, 322152.3, -185292.69, -2254.6194, -0.040731765, -0.13433285, 322162.34, 364589.16, 0.0000052467194, 10.003887, 9.997179 
6.0508996e+2, 3.056644e+2, 228978.73, -187809.75, 53589.203, 0.01797693, -0.29994836, 235758.75, 235758.75, 0.000031327, 10.002848, 9.997328 
6.050946e+2, 3.1566295e+2, -36092.59, -155938.72, 118468.39, 0.027901895, -0.19713083, 36745.54, 36745.54, 0.00009198692, 10.000308, 9.998772 
6.1500555e+2, 1.2568462e+2, -1712597.9, -1714262.0, -185793.48, -0.10783354, -0.36144724, -1527634.6, 180631.5, 0.000000091949275, 10.00002, 9.999967 
6.1501056e+2, 1.3568604e+2, -1751512.1, -1709043.6, 196360.03, -0.18632804, -0.21239825, -1532773.0, 77482.2, 0.0, 9.9991455, 9.999795 
6.1501795e+2, 1.4568594e+2, -1572486.5, -1473103.5, 76631.26, -0.089578785, -0.23719725, -1431462.6, 80791.85, 0.0, 9.999294, 10.000648 
6.150216e+2, 1.5568529e+2, -1297734.6, -1293824.8, 44499.73, -0.054909572, -0.39055452, -1251237.0, 163018.86, 0.0, 10.000527, 10.00061 
6.150248e+2, 1.6568533e+2, -1336240.5, -1416739.1, 62871.313, -0.1110778, -0.37286845, -1301838.6, 14417.816, 0.0, 10.000273, 9.999209 
6.150285e+2, 1.7568576e+2, -1425027.6, -1407711.8, 34202.047, -0.17980872, -0.26169318, -1381088.9, -162831.22, 0.0, 9.998979, 9.999228 
6.150341e+2, 1.8568562e+2, -1264561.6, -1227405.4, 71328.92, -0.15076388, -0.22151329, -1172274.9, -52015.055, 0.0, 9.999185, 9.999689 
6.1504114e+2, 1.9568491e+2, -957844.3, -1037354.2, 80997.57, -0.059411753, -0.27775034, -907371.44, 114892.64, 0.0, 10.000652, 9.999616 
6.1504686e+2, 2.0568433e+2, -857529.9, -1057927.9, 65881.63, -0.06440647, -0.23831964, -837811.3, 86459.15, 0.0, 10.001186, 9.998545 
6.1505175e+2, 2.1568377e+2, -793047.7, -978967.8, 75498.68, -0.1367063, -0.16292246, -766251.25, 60028.01, 0.0, 10.000962, 9.998524 
6.1505723e+2, 2.2568282e+2, -702587.6, -933418.0, 35494.527, -0.078437306, -0.08528332, -697252.94, 31037.584, 0.0, 10.001133, 9.998077 
6.150632e+2, 2.3568143e+2, -535332.7, -805082.8, 51654.26, 0.07760114, -0.045917977, -525779.75, 104525.26, 0.0, 10.001618, 9.998053 
6.150674e+2, 2.4567834e+2, -464990.72, -802096.5, 74260.21, 0.025341943, -0.12190284, -449357.13, 82978.39, 0.0, 10.001784, 9.997314 
6.150704e+2, 2.5567383e+2, -384405.25, -712599.3, 79199.59, -0.18725434, -0.32054803, -366292.5, 68086.83, 0.0, 10.0016575, 9.997321 
6.1507446e+2, 2.6567158e+2, -236675.63, -559413.75, 26771.797, -0.21692075, -0.2897894, -234469.92, 101931.234, 0.0, 10.001871, 9.997597 
6.150794e+2, 2.7567095e+2, -80761.76, -439578.84, 30699.871, -0.101305395, -0.12646976, -78154.08, 160253.22, 0.0, 10.00229, 9.997546 
6.150846e+2, 2.8566828e+2, 62872.4, -410190.72, 43818.625, -0.021144794, -0.10342421, 66896.97, 207331.55, 0.00000012615395, 10.002994, 9.9967375 
6.150898e+2, 2.9566413e+2, 288120.03, -237178.25, 28088.975, 0.023948086, -0.21513973, 289617.75, 332094.9, 0.000004351736, 10.003808, 9.996859 
6.150936e+2, 3.056612e+2, 347177.22, 67847.92, -45558.875, 0.07672264, -0.30623454, 354420.1, 354420.1, 0.000027327762, 10.002804, 9.99911 
6.150948e+2, 3.1566375e+2, 22880.76, -17528.03, 36319.473, -0.010723841, 0.022065824, 44237.426, 44237.426, 0.00008366508, 10.000248, 9.99975 
6.2500584e+2, 1.2568316e+2, -1935128.0, -1857214.8, -165438.36, 0.0011294582, -0.3681207, -1726208.3, -17930.139, 0.000000014013729, 9.9986515, 9.999648 
6.250098e+2, 1.3568406e+2, -1658844.4, -1694058.1, 221080.47, -0.21192795, -0.24192269, -1454670.8, 155601.92, 0.0, 9.999905, 9.999536 
6.25018e+2, 1.4568375e+2, -1511952.9, -1445951.0, 129702.06, -0.034144357, -0.27572018, -1345117.4, 167157.03, 0.0, 9.999731, 10.000618 
6.250216e+2, 1.5568335e+2, -1527652.6, -1412155.8, 67611.65, -0.026897332, -0.39960882, -1380987.3, 33286.07, 0.0, 9.998999, 10.000527 
6.250247e+2, 1.656832e+2, -1475419.1, -1561637.4, 100765.56, -0.11399982, -0.35919288, -1408928.5, -92651.86, 0.0, 9.999646, 9.998523 
6.2502843e+2, 1.7568313e+2, -1149854.5, -1344681.0, 92804.12, -0.1924969, -0.23291321, -1112724.3, 105560.41, 0.0, 10.001177, 9.998597 
6.250345e+2, 1.856825e+2, -938903.1, -1109602.0, 147187.33, -0.14753604, -0.19283333, -854109.56, 266182.5, 0.0, 10.001581, 9.999348 
6.250422e+2, 1.9568133e+2, -919091.9, -1055378.4, 110019.84, -0.03593721, -0.260347, -857821.56, 164478.94, 0.0, 10.00107, 9.999293 
6.250481e+2, 2.056804e+2, -879487.94, -1072635.9, 64596.375, -0.050168894, -0.23847742, -859875.75, 64433.57, 0.0, 10.001056, 9.998506 
6.2505287e+2, 2.1567956e+2, -732436.9, -952193.8, 45152.43, -0.14544612, -0.18879174, -723521.3, 102798.336, 0.0, 10.001397, 9.998495 
6.250584e+2, 2.2567831e+2, -613044.75, -900542.8, 6973.7437, -0.101831265, -0.1328676, -612875.7, 115457.68, 0.0, 10.001787, 9.99799 
6.2506473e+2, 2.3567666e+2, -459583.75, -778169.0, -12500.602, 0.046738118, -0.109351516, -459094.03, 171257.13, 0.0, 10.002174, 9.9979725 
6.250692e+2, 2.4567409e+2, -402084.44, -737562.75, -4783.1284, 0.014079368, -0.14502233, -402016.25, 130360.5, 0.0, 10.002063, 9.997627 
6.2507224e+2, 2.5567073e+2, -370088.94, -670088.75, 10009.296, -0.1550075, -0.26120743, -369755.34, 64653.8, 0.0, 10.001605, 9.997638 
6.2507653e+2, 2.656686e+2, -275608.66, -575113.06, 7991.6855, -0.17756261, -0.23456706, -275395.56, 61034.574, 0.0, 10.001583, 9.99763 
6.2508166e+2, 2.756673e+2, -139485.33, -461926.22, 14837.656, -0.082747005, -0.1448128, -138803.98, 99639.875, 0.0, 10.001853, 9.997604 
6.250872e+2, 2.856647e+2, -72493.41, -445665.84, 78797.28, 0.0006056843, -0.12819082, -56537.215, 83933.18, 0.000000116905284, 10.001933, 9.997007 
6.250931e+2, 2.9566115e+2, 27824.48, -339300.56, 98460.13, 0.07057891, -0.20375875, 52563.656, 95070.56, 0.000004287332, 10.001906, 9.99708 
6.2509644e+2, 3.0565888e+2, 299881.8, 42739.492, -51779.063, 0.105941765, -0.24076486, 309916.63, 309916.63, 0.000025839543, 10.002488, 9.999085 
6.2509626e+2, 3.1566098e+2, 474166.78, 154547.0, -121898.27, -0.04960636, 0.041357275, 515350.4, 515350.4, 0.00007841617, 10.003521, 9.999361 
6.350053e+2, 1.2568425e+2, -1899504.6, -1803010.4, -102037.4, 0.04257961, -0.08977511, -1738388.5, -30117.383, 0.0000000049225286, 9.99873, 9.999987 
6.3500947e+2, 1.3568173e+2, -1629090.3, -1637231.3, 257325.84, -0.24934816, -0.34927595, -1375802.8, 234490.67, 0.0, 9.999924, 9.99992 
6.3501793e+2, 1.4568144e+2, -1536560.9, -1496835.1, 91138.21, -0.029265337, -0.37665275, -1423420.4, 88874.84, 0.0, 9.999731, 10.000269 
6.3502014e+2, 1.5568405e+2, -1545932.1, -1458481.6, 54339.453, -0.09275187, -0.16617483, -1432459.8, -18189.682, 0.0, 9.999031, 10.0001955 
6.3502425e+2, 1.656839e+2, -1493842.9, -1595138.5, 152461.33, -0.13728164, -0.100170664, -1383836.9, -67563.36, 0.0, 9.999629, 9.998299 
6.35031e+2, 1.7568141e+2, -1167438.3, -1385154.9, 149962.06, -0.06780676, -0.19128235, -1090989.4, 127311.73, 0.0, 10.00119, 9.998315 
6.3503695e+2, 1.856796e+2, -1000103.25, -1231789.9, 123386.78, -0.08090796, -0.21303698, -946701.25, 173618.75, 0.0, 10.001564, 9.998514 
6.3504183e+2, 1.9567822e+2, -978376.4, -1172086.9, 97657.92, -0.1934875, -0.21866845, -937688.9, 84644.05, 0.0, 10.001043, 9.998503 
6.350479e+2, 2.0567644e+2, -910266.44, -1121124.5, 71649.31, -0.18483981, -0.22950578, -888224.25, 36124.72, 0.0, 10.000989, 9.998204 
6.3505507e+2, 2.1567416e+2, -763144.9, -999746.8, 64618.258, -0.075898424, -0.29265365, -746647.4, 79721.78, 0.0, 10.0013275, 9.998201 
6.3506013e+2, 2.2567189e+2, -653465.2, -966398.56, 17997.354, -0.12369167, -0.30688626, -652433.5, 75959.99, 0.0, 10.00171, 9.997573 
6.350636e+2, 2.3566946e+2, -495131.0, -834649.7, 7322.035, -0.29790002, -0.32120377, -494973.16, 135449.17, 0.0, 10.002098, 9.997622 
6.350689e+2, 2.4566884e+2, -370499.94, -660183.44, -25593.666, -0.23773935, -0.17438816, -368256.1, 164175.06, 0.0, 10.002014, 9.998182 
6.350756e+2, 2.5566947e+2, -340586.66, -596358.56, 700.9974, 0.0049361214, 0.057412647, -340584.75, 93841.055, 0.0, 10.001549, 9.998174 
6.350806e+2, 2.6566726e+2, -266232.78, -542984.2, 13592.915, 0.057929356, 0.035873152, -265566.78, 70880.4, 0.0, 10.001536, 9.9978695 
6.350841e+2, 2.7566272e+2, -131822.03, -427255.78, 31115.451, -0.038532242, -0.22186168, -128580.484, 109909.91, 0.0, 10.001778, 9.997878 
6.350889e+2, 2.856605e+2, -5575.5986, -302579.7, 69220.516, -0.039199643, -0.23773888, 9764.7705, 150276.36, 0.0000001448745, 10.001914, 9.998002 
6.350947e+2, 2.9566e+2, 74544.83, -226327.16, 105196.15, 0.030178186, -0.09970234, 107676.86, 150192.78, 0.000005079309, 10.001846, 9.997884 
6.3509834e+2, 3.0565754e+2, 168889.64, -226105.33, -15814.2705, 0.03268221, -0.09334892, 169521.78, 169521.78, 0.000027818513, 10.002471, 9.997246 
6.3509834e+2, 3.1565493e+2, 329259.7, -109269.234, -62893.934, -0.2220518, -0.10461012, 338101.66, 338101.66, 0.00008105603, 10.003374, 9.997612 
6.450036e+2, 1.2568101e+2, -1957427.0, -1726593.3, -179968.13, 0.050438043, -0.03548299, -1628212.1, 80095.0, 0.0000000021351345, 9.997882, 10.0009165 
6.4500856e+2, 1.3567917e+2, -1854026.4, -1639914.4, 158079.5, -0.22720551, -0.33355978, -1556051.3, 54266.297, 0.0, 9.99794, 10.000845 
6.450179e+2, 1.4567906e+2, -1744091.9, -1677937.1, 5312.5103, 0.05661188, -0.3483127, -1677513.3, -165195.16, 0.0, 9.9986515, 9.999551 
6.4501977e+2, 1.5568139e+2, -1425394.8, -1469829.6, -68272.23, -0.083766975, -0.09398396, -1375815.9, 38484.57, 0.0, 10.0001545, 9.9995775 
6.4502424e+2, 1.6568086e+2, -1329528.9, -1463823.3, 62204.547, -0.14064386, -0.061341416, -1305143.9, 11162.864, 0.0, 10.0005245, 9.998772 
6.45032e+2, 1.7567797e+2, -1309311.0, -1409461.4, 101346.164, -0.027800256, -0.2393377, -1246343.8, -28010.395, 0.0, 10.000016, 9.99872 
6.450381e+2, 1.8567622e+2, -1202744.4, -1380787.8, 114925.04, -0.052707896, -0.24871597, -1146395.4, -26044.008, 0.0, 10.00039, 9.998059 
6.450427e+2, 1.9567527e+2, -958094.06, -1208633.5, 104150.78, -0.2196117, -0.16638048, -920453.06, 101910.68, 0.0, 10.001387, 9.998087 
6.450489e+2, 2.0567326e+2, -813765.25, -1064248.6, 109171.81, -0.21532899, -0.18593624, -772862.56, 151519.53, 0.0, 10.001604, 9.998298 
6.450563e+2, 2.1567029e+2, -779028.3, -1003088.44, 117113.36, -0.06636814, -0.3273501, -728989.7, 97416.945, 0.0, 10.001192, 9.998247 
6.450617e+2, 2.2566791e+2, -747285.1, -1025114.5, 115584.21, -0.110106565, -0.346156, -705487.3, 22944.16, 0.0, 10.001117, 9.997461 
6.450652e+2, 2.356659e+2, -618345.2, -901311.0, 112154.85, -0.30479673, -0.30835336, -579284.1, 51173.31, 0.0, 10.001283, 9.997557 
6.4507055e+2, 2.4566522e+2, -431203.2, -664658.25, 73476.516, -0.24415134, -0.17710717, -410002.78, 122463.6, 0.0, 10.001485, 9.998412 
6.4507735e+2, 2.5566542e+2, -302292.16, -553428.3, 69415.81, 0.018532112, -0.012735373, -284382.38, 150080.98, 0.0, 10.001703, 9.998397 
6.4508253e+2, 2.6566327e+2, -199849.81, -530014.8, 86486.42, 0.076201424, -0.029147843, -178566.72, 157917.88, 0.0, 10.002073, 9.997701 
6.4508647e+2, 2.756592e+2, -19228.445, -387961.56, 62210.547, -0.012449931, -0.22298987, -9015.508, 229510.08, 0.000000000000000000046744374, 10.002617, 9.997745 
6.450913e+2, 2.8565726e+2, 163896.17, -188454.73, 59129.863, -0.040278554, -0.21936654, 173554.33, 314098.4, 0.00000034821963, 10.002938, 9.998292 
6.4509654e+2, 2.956568e+2, 264211.16, -108398.91, 32489.504, -0.024041938, -0.11025069, 267022.84, 309569.6, 0.0000068469953, 10.003024, 9.998131 
6.45101e+2, 3.0565432e+2, 261824.67, -235435.53, -11186.088, 0.01451485, -0.09154332, 262076.19, 262076.19, 0.00003363737, 10.003341, 9.996762 
6.451028e+2, 3.1565064e+2, 403537.78, -98618.625, 22687.521, -0.13885596, -0.16275434, 404560.72, 404560.72, 0.000093360155, 10.003978, 9.9973955 
6.5500057e+2, 1.2567343e+2, -1845589.5, -1501661.6, -152582.06, -0.07322969, -0.21492796, -1443728.0, 264658.13, 0.0000000012982254, 9.997913, 10.002446 
6.550068e+2, 1.3567635e+2, -1747644.0, -1424050.9, 160323.88, -0.21030118, -0.1974735, -1358071.5, 252273.52, 0.0, 9.997969, 10.002309 
6.550178e+2, 1.456765e+2, -1816045.0, -1833559.1, 50781.055, 0.16610035, -0.19890992, -1773271.5, -260927.84, 0.0, 9.998674, 9.998477 
6.5502036e+2, 1.5567532e+2, -1488109.4, -1606157.8, -11508.655, -0.060906798, -0.185512, -1486997.9, -72633.19, 0.0, 10.000176, 9.998635 
6.5502447e+2, 1.6567416e+2, -1248145.3, -1295276.0, 36743.58, -0.18737514, -0.2350913, -1228059.6, 88316.26, 0.0, 10.000526, 9.999925 
6.5503114e+2, 1.7567286e+2, -1231159.5, -1253062.0, 91741.43, -0.12937614, -0.3711164, -1149718.0, 68662.77, 0.0, 10.000038, 9.999782 
6.55038e+2, 1.8567236e+2, -1209846.9, -1390174.1, 145184.56, -0.117260024, -0.2995589, -1129106.9, -8720.617, 0.0, 10.000369, 9.998005 
6.550447e+2, 1.9567242e+2, -964746.06, -1210364.5, 144215.63, -0.1768783, -0.11050641, -898134.5, 124258.72, 0.0, 10.00134, 9.9980955 
6.5505075e+2, 2.0567086e+2, -794414.75, -1010208.6, 88003.55, -0.19801418, -0.10824978, -763076.75, 161331.94, 0.0, 10.001542, 9.998701 
6.550566e+2, 2.1566787e+2, -760799.44, -948775.44, 108622.48, -0.1778645, -0.29241875, -711146.94, 115285.414, 0.0, 10.001122, 9.998652 
6.5506274e+2, 2.2566637e+2, -748773.9, -1009515.9, 115231.88, -0.1177127, -0.25106147, -705147.8, 23299.885, 0.0, 10.001042, 9.997601 
6.5506923e+2, 2.3566587e+2, -621812.6, -887130.0, 124343.88, -0.038968198, -0.076207526, -572648.0, 57809.76, 0.0, 10.001198, 9.997691 
6.5507394e+2, 2.4566315e+2, -443873.56, -675162.94, 75553.555, -0.06465354, -0.15322141, -421380.5, 111102.69, 0.0, 10.00142, 9.998367 
6.550773e+2, 2.556586e+2, -317283.16, -568582.94, 83964.94, -0.16906567, -0.4623996, -291810.56, 142710.92, 0.0, 10.001641, 9.998318 
6.5508235e+2, 2.656567e+2, -237624.98, -607492.94, 100002.01, -0.16471553, -0.4185951, -212318.67, 124222.836, 0.0, 10.002062, 9.997178 
6.5508866e+2, 2.7565685e+2, -62566.08, -466272.84, 88532.92, -0.073361985, -0.13667288, -44004.25, 194544.0, 0.0000000002377775, 10.002562, 9.997236 
6.5509397e+2, 2.856551e+2, 131395.88, -245164.94, 57180.727, -0.07561696, -0.0700779, 139887.28, 280454.5, 0.0000008000927, 10.002894, 9.997921 
6.550984e+2, 2.956517e+2, 232010.2, -154393.52, 42717.42, -0.15864551, -0.22255129, 236676.33, 279274.0, 0.000010270006, 10.002943, 9.997849 
6.551042e+2, 3.056493e+2, 318962.16, -114369.945, 7311.6265, -0.012704183, -0.22366427, 319085.5, 319085.5, 0.00004390313, 10.003329, 9.997602 
6.5510917e+2, 3.1564814e+2, 480364.1, 79432.29, 77123.37, 0.071262926, -0.12747478, 494687.84, 494687.84, 0.000113456364, 10.003906, 9.998654 
6.649991e+2, 1.2566768e+2, -1867898.4, -1557243.3, -34160.656, -0.0017707169, -0.26497686, -1553531.1, 154911.0, 0.00000000035571668, 9.997935, 10.002058 
6.65005e+2, 1.3567087e+2, -1672017.9, -1422236.1, 60019.527, -0.21569198, -0.18839309, -1408562.6, 201838.6, 0.0, 9.998618, 10.002018 
6.6501695e+2, 1.4567122e+2, -1746994.1, -1742918.8, -10326.99, 0.20343232, -0.18284456, -1734430.3, -222032.14, 0.0, 9.998919, 9.99897 
6.6502094e+2, 1.5567002e+2, -1563743.9, -1591491.4, 31686.09, 0.018158965, -0.22126761, -1543027.4, -128609.62, 0.0, 9.999447, 9.999083 
6.650253e+2, 1.656693e+2, -1312176.9, -1306230.6, 68834.0, -0.12653397, -0.25439247, -1240305.6, 76118.43, 0.0, 10.000005, 10.0001 
6.650313e+2, 1.7566887e+2, -1152856.1, -1189153.5, 39225.0, -0.12929171, -0.32272863, -1127784.8, 90636.41, 0.0, 10.000472, 10.000006 
6.6503835e+2, 1.8566862e+2, -1165254.9, -1315552.0, 107105.19, -0.122700125, -0.26343238, -1109564.5, 10859.25, 0.0, 10.000452, 9.998476 
6.650457e+2, 1.9566838e+2, -1119448.9, -1238052.9, 131175.61, -0.14636888, -0.1506908, -1034793.4, -12361.331, 0.0, 10.000067, 9.998523 
6.65052e+2, 2.0566729e+2, -969134.6, -1077993.0, 84353.16, -0.16132765, -0.12936918, -923174.6, 1268.6766, 0.0, 10.000273, 9.998848 
6.650577e+2, 2.156654e+2, -780611.06, -941307.06, 73408.625, -0.15505017, -0.216799, -752126.06, 74332.23, 0.0, 10.000918, 9.998802 
6.650641e+2, 2.2566411e+2, -680395.75, -946466.7, 92005.06, -0.100456364, -0.17569004, -651680.3, 76790.9, 0.0, 10.001381, 9.9978695 
6.650708e+2, 2.3566316e+2, -538192.3, -822864.06, 99031.49, -0.01754306, -0.07323702, -507130.53, 123353.125, 0.0, 10.00166, 9.997913 
6.6507566e+2, 2.456602e+2, -393816.34, -671552.56, 59525.56, -0.049413837, -0.17318581, -381596.25, 150914.44, 0.0, 10.001847, 9.998191 
6.650791e+2, 2.556556e+2, -281340.44, -574036.6, 43939.875, -0.16660817, -0.4691288, -274886.47, 159663.67, 0.0, 10.001973, 9.998128 
6.6508436e+2, 2.6565373e+2, -214199.58, -619755.7, 90879.93, -0.17991325, -0.40604797, -194765.8, 141805.08, 0.0, 10.002317, 9.996974 
6.650909e+2, 2.7565387e+2, -35141.875, -475142.53, 90398.25, -0.11061496, -0.10276312, -17293.537, 221284.58, 0.0000000023427176, 10.00284, 9.997042 
6.650968e+2, 2.856519e+2, 114320.22, -284475.72, 66749.0, -0.08508604, -0.035778865, 125195.836, 265795.66, 0.0000014418595, 10.002914, 9.997638 
6.651018e+2, 2.9564804e+2, 180896.7, -203811.5, 46553.96, -0.09516047, -0.2047143, 186450.08, 229084.94, 0.000014823799, 10.002703, 9.997621 
6.651079e+2, 3.0564523e+2, 299384.84, -139131.56, 17252.637, 0.029419674, -0.23316817, 300062.56, 300062.56, 0.000057815294, 10.0032625, 9.997467 
6.651131e+2, 3.156445e+2, 537054.94, 113391.16, 5940.9204, 0.056108233, -0.070411555, 537138.2, 537138.2, 0.0001407211, 10.004272, 9.998714 
6.74999e+2, 1.2566371e+2, -2027376.0, -1895161.9, 26027.14, 0.15923938, -0.19768302, -1890222.8, -181747.45, 0.0000000023126079, 9.997974, 9.999716 
6.750029e+2, 1.3566276e+2, -1812244.0, -1712231.0, 81720.69, -0.30530244, -0.30864513, -1666430.8, -55945.316, 0.0, 9.998627, 10.000017 
6.750151e+2, 1.4566338e+2, -1604691.9, -1453042.8, -102.30838, 0.103967585, -0.2893817, -1453042.8, 59437.234, 0.0, 9.998936, 10.000954 
6.750211e+2, 1.5566553e+2, -1429236.8, -1322545.0, 59272.19, 0.07808105, -0.19123867, -1296147.6, 118311.18, 0.0, 9.999487, 10.000912 
6.750265e+2, 1.6566634e+2, -1360853.1, -1411200.0, 79830.53, -0.022879371, -0.11991973, -1302321.0, 14130.088, 0.0, 10.000021, 9.9993725 
6.750325e+2, 1.7566603e+2, -1195256.3, -1276953.4, 60109.867, -0.08048457, -0.10081595, -1163428.9, 55025.47, 0.0, 10.000472, 9.999403 
6.750389e+2, 1.8566501e+2, -1098661.5, -1176010.9, 85527.96, -0.1263327, -0.14283235, -1043470.56, 76992.91, 0.0, 10.000442, 9.999441 
6.750454e+2, 1.9566327e+2, -1064305.9, -1111621.8, 124389.61, -0.1950874, -0.27639467, -961344.4, 61134.445, 0.0, 10.000017, 9.9994135 
6.7505234e+2, 2.0566268e+2, -987990.4, -1104970.1, 102156.59, -0.16611697, -0.2362884, -928764.3, -4279.615, 0.0, 10.000216, 9.998693 
6.750598e+2, 2.1566288e+2, -797380.9, -959869.9, 102250.555, -0.053284246, -0.10059293, -748027.3, 78456.98, 0.0, 10.000848, 9.998709 
6.750656e+2, 2.2566119e+2, -662753.25, -890388.94, 97404.0, -0.10530911, -0.117413945, -626764.44, 101737.13, 0.0, 10.001299, 9.998294 
6.7506987e+2, 2.3565792e+2, -526391.8, -775637.8, 116144.16, -0.29122773, -0.29027408, -480661.22, 149872.5, 0.0, 10.001569, 9.99828 
6.7507565e+2, 2.4565652e+2, -427557.63, -728147.0, 58405.3, -0.25292632, -0.23169306, -416608.2, 115939.375, 0.0, 10.00179, 9.997827 
6.7508245e+2, 2.5565645e+2, -314822.94, -628940.94, 53965.035, -0.039120805, -0.03663253, -305810.4, 128738.39, 0.0, 10.001909, 9.997781 
6.750883e+2, 2.6565424e+2, -214845.77, -608488.9, 105254.61, -0.03077986, 0.0029674463, -188469.52, 148103.08, 0.0, 10.002267, 9.997073 
6.750931e+2, 2.7565023e+2, -39541.863, -467556.06, 114543.49, -0.18710579, -0.1198692, -10816.085, 227798.88, 0.0000000015372758, 10.002773, 9.997123 
6.7509943e+2, 2.8564757e+2, 102117.52, -312382.75, 51887.773, -0.12709624, -0.11370172, 108514.195, 249155.94, 0.0000017821444, 10.002917, 9.997448 
6.7510664e+2, 2.9564583e+2, 159132.97, -241814.03, 48012.125, 0.09478886, -0.051132042, 164802.11, 207459.7, 0.000019076204, 10.0026655, 9.99738 
6.751117e+2, 3.0564204e+2, 215241.89, -300019.3, 51546.53, 0.069040366, -0.11578197, 220347.98, 220347.98, 0.000073988194, 10.003212, 9.996379 
6.75114e+2, 3.156395e+2, 439974.4, -60813.38, 64979.957, -0.31299302, -0.02139043, 448268.53, 448268.53, 0.00017623325, 10.004164, 9.997561 
6.849978e+2, 1.2565851e+2, -1743174.1, -1835592.6, -763.19904, 0.13407807, -0.14897726, -1743167.8, -34639.918, 0.0000000036242784, 10.000249, 9.999036 
6.8500197e+2, 1.3565695e+2, -1725712.1, -1734858.5, 108135.5, -0.29694974, -0.2531904, -1622053.1, -11504.76, 0.0, 9.999512, 9.999431 
6.850139e+2, 1.4565758e+2, -1589111.9, -1407422.8, 34728.074, 0.103353925, -0.22304486, -1401011.1, 111531.164, 0.0, 9.998867, 10.001304 
6.8501985e+2, 1.5565974e+2, -1533653.6, -1338805.6, -35821.836, 0.047319748, -0.16032559, -1332428.6, 82088.73, 0.0, 9.998612, 10.001226 
6.8502575e+2, 1.6566058e+2, -1518389.3, -1503769.4, -16110.957, -0.04720942, -0.0927613, -1493387.5, -176878.44, 0.0, 9.999009, 9.999229 
6.8503267e+2, 1.7566034e+2, -1287742.9, -1336741.0, -7480.7246, -0.07258063, -0.05174784, -1286626.3, -68112.02, 0.0, 9.999896, 9.999274 
6.850393e+2, 1.8565935e+2, -1135739.0, -1156089.3, -16890.117, -0.10089905, -0.1032113, -1126195.9, -5672.8633, 0.0, 10.00003, 9.999773 
6.850454e+2, 1.9565757e+2, -1108543.4, -1094943.8, -32200.848, -0.16683605, -0.27479634, -1068832.6, -46295.813, 0.0, 9.999554, 9.999747 
6.850527e+2, 2.0565714e+2, -1037056.3, -1100613.3, -6795.698, -0.13176008, -0.24816744, -1036337.8, -111797.7, 0.0, 9.9997635, 9.998934 
6.8506086e+2, 2.1565765e+2, -830414.25, -950122.6, 9073.746, -0.01197021, -0.10483869, -829730.4, -3193.7446, 0.0, 10.0005045, 9.99894 
6.850666e+2, 2.2565618e+2, -735522.6, -905376.7, -5568.792, -0.09779927, -0.12089054, -735340.25, -6788.3286, 0.0, 10.000707, 9.998481 
6.8507034e+2, 2.3565304e+2, -670239.56, -824786.4, -15409.915, -0.34522942, -0.29754722, -668718.06, -38135.16, 0.0, 10.000483, 9.998471 
6.850769e+2, 2.4565212e+2, -520363.7, -754255.75, -22629.865, -0.26625535, -0.20954646, -518194.28, 14398.165, 0.0, 10.001065, 9.997998 
6.850856e+2, 2.5565284e+2, -244461.4, -573181.0, 2117.6455, 0.066103496, 0.044649143, -244447.77, 190138.73, 0.0, 10.002301, 9.9979725 
6.850918e+2, 2.6565042e+2, -182796.2, -571108.8, 57449.07, 0.08908008, 0.044675317, -174475.17, 162135.53, 0.0, 10.002392, 9.997269 
6.8509597e+2, 2.7564543e+2, -198959.75, -526052.44, 62282.09, -0.122222014, -0.19589348, -187501.9, 51157.707, 0.00000000039754933, 10.0015955, 9.997291 
6.851023e+2, 2.856427e+2, -30702.43, -410555.56, 38029.633, -0.09086309, -0.18907268, -26932.447, 113754.94, 0.000001935021, 10.002156, 9.99714 
6.851101e+2, 2.956416e+2, 307762.13, -203223.45, 13603.493, 0.12211535, -0.0298487, 308124.03, 350823.84, 0.000022833043, 10.00383, 9.997087 
6.8511516e+2, 3.0563748e+2, 382395.88, -238626.66, 48805.145, 0.036746956, -0.100717425, 386208.0, 386208.0, 0.00009092674, 10.004432, 9.996214 
6.851176e+2, 3.1563464e+2, 375401.7, -152081.3, 117003.49, -0.3452883, -0.023132259, 400189.9, 400189.9, 0.00021661, 10.003961, 9.997036 
6.949952e+2, 1.2565213e+2, -1665211.3, -1682534.5, -12034.41, -0.18825987, -0.11544992, -1659045.5, 49553.668, 0.00000000017840025, 10.0003, 10.0000515 
6.950021e+2, 1.3565348e+2, -1667152.1, -1613941.3, 81158.09, -0.24803229, -0.023269897, -1555138.9, 55450.438, 0.0, 9.999524, 10.000247 
6.9501334e+2, 1.4565381e+2, -1674893.4, -1590813.0, 17777.86, 0.14801984, 0.0041997884, -1587208.6, -74622.984, 0.0, 9.99889, 10.000035 
6.9501686e+2, 1.5565264e+2, -1609049.0, -1507497.8, -34477.914, -0.13226144, -0.13573359, -1496898.4, -82305.32, 0.0, 9.998661, 10.00005 
6.9502276e+2, 1.6565211e+2, -1488746.9, -1444633.8, 11765.902, -0.26108068, -0.17163305, -1441691.8, -125094.69, 0.0, 9.9990225, 9.999626 
6.950318e+2, 1.7565197e+2, -1262471.3, -1284082.6, 29024.842, -0.1634674, -0.16286118, -1242305.9, -23706.69, 0.0, 9.999896, 9.999635 
6.9503945e+2, 1.8565175e+2, -1156526.0, -1196161.5, -38774.953, -0.105468, -0.14026529, -1132797.9, -12196.521, 0.0, 10.000016, 9.999504 
6.950456e+2, 1.9565131e+2, -1127485.8, -1128010.4, -40729.906, -0.11799385, -0.14932446, -1087017.4, -64412.17, 0.0, 9.999529, 9.999532 
6.9505274e+2, 2.0565067e+2, -998785.5, -1012034.25, 15386.528, -0.1133945, -0.1664103, -988657.94, -64048.676, 0.0, 9.999722, 9.999564 
6.9506073e+2, 2.1564978e+2, -799177.3, -870624.94, 39835.207, -0.086356245, -0.22541994, -781393.8, 45220.805, 0.0, 10.000442, 9.999517 
6.9506705e+2, 2.2564913e+2, -748707.9, -916765.44, -19453.305, -0.13119672, -0.18272536, -746485.5, -17863.885, 0.0, 10.00064, 9.998433 
6.9507194e+2, 2.3564853e+2, -681719.2, -829543.44, -14051.157, -0.2403251, -0.10128885, -680395.44, -49764.098, 0.0, 10.000404, 9.998473 
6.950792e+2, 2.4564709e+2, -476806.4, -649851.4, 18574.568, -0.14862424, -0.10559849, -474835.1, 57809.527, 0.0, 10.001005, 9.998746 
6.950883e+2, 2.556449e+2, -204305.86, -474109.66, 49032.23, 0.096258126, -0.2156687, -195671.4, 238990.28, 0.0, 10.002233, 9.998688 
6.950947e+2, 2.6564243e+2, -170175.03, -534420.44, 22335.705, 0.13529491, -0.26983935, -168810.5, 167873.19, 0.0, 10.002349, 9.99754 
6.950991e+2, 2.7563956e+2, -191917.92, -500654.47, 43909.6, 0.02077265, -0.32314235, -185794.4, 52916.723, 0.0000000054780975, 10.001549, 9.997488 
6.951051e+2, 2.8563726e+2, -65829.98, -476255.97, 95875.445, -0.041746654, -0.2586523, -44538.063, 96198.48, 0.000002364329, 10.002126, 9.996702 
6.95112e+2, 2.956353e+2, 273585.44, -260711.6, 81796.125, -0.08544747, -0.14087775, 285827.22, 328588.34, 0.000027093956, 10.003772, 9.996718 
6.951181e+2, 3.0563167e+2, 427064.8, -133411.98, 30579.566, -0.12872496, -0.18847077, 428728.28, 428728.28, 0.00010798756, 10.004385, 9.996957 
6.951238e+2, 3.1562987e+2, 364143.5, -150905.69, 120278.54, -0.1549863, -0.07366946, 390847.44, 390847.44, 0.0002566069, 10.003861, 9.99709 
7.049938e+2, 1.2564635e+2, -2054950.1, -1861884.1, 99536.33, -0.21443398, -0.093057185, -1819758.9, -111101.6, 0.0, 9.997568, 10.0001545 
7.050019e+2, 1.3564813e+2, -1729670.5, -1645823.5, 66309.336, -0.19583961, 0.039763585, -1609296.3, 1347.4255, 0.0, 9.99909, 10.000242 
7.050129e+2, 1.4564826e+2, -1595620.6, -1612129.9, 6916.968, 0.17935422, 0.07619759, -1593105.6, -80463.22, 0.0, 9.999689, 9.999505 
7.050162e+2, 1.5564607e+2, -1455685.3, -1483384.8, 1388.9236, -0.12571679, -0.11443157, -1455615.9, -40955.098, 0.0, 9.999942, 9.999589 
7.0502216e+2, 1.6564514e+2, -1337161.5, -1354778.6, 86192.836, -0.26854545, -0.17521285, -1259328.4, 57339.754, 0.0, 9.999998, 9.999768 
7.0503145e+2, 1.7564508e+2, -1268189.1, -1271249.1, 71105.086, -0.18123026, -0.17260182, -1198597.6, 20070.566, 0.0, 9.999797, 9.999767 
7.0503944e+2, 1.8564516e+2, -1182559.6, -1218373.5, -1559.337, -0.099673204, -0.121208, -1182491.9, -61824.426, 0.0, 9.999877, 9.999419 
7.05046e+2, 1.9564517e+2, -1038563.3, -1094272.0, 362.35995, -0.057733867, -0.07736977, -1038560.94, -15892.85, 0.0, 10.000171, 9.999459 
7.0505303e+2, 2.0564446e+2, -878036.06, -924539.4, 78542.0, -0.087648384, -0.112752646, -819376.25, 105296.09, 0.0, 10.00043, 9.9998255 
7.050605e+2, 2.156431e+2, -756576.25, -820934.1, 63291.625, -0.16206875, -0.24407287, -717753.0, 108927.07, 0.0, 10.000614, 9.999775 
7.050676e+2, 2.2564259e+2, -741350.44, -906966.3, -14610.542, -0.14450146, -0.2022654, -740071.4, -11386.297, 0.0, 10.000664, 9.998486 
7.050742e+2, 2.3564261e+2, -648510.9, -807205.0, -9043.335, -0.06110152, -0.065034606, -647997.2, -17307.672, 0.0, 10.000609, 9.998526 
7.0508164e+2, 2.4564101e+2, -520773.97, -664438.94, 39558.684, 0.010608586, -0.09139254, -510601.6, 22103.041, 0.0, 10.000682, 9.998796 
7.050896e+2, 2.5563803e+2, -398035.97, -558797.9, 7392.061, 0.07143336, -0.28505954, -397696.78, 37032.41, 0.0, 10.000869, 9.99876 
7.0509607e+2, 2.656358e+2, -269664.78, -543873.5, -49378.293, 0.078883134, -0.33701372, -261043.98, 75704.42, 0.0, 10.001504, 9.997883 
7.0510143e+2, 2.7563396e+2, -34729.125, -386067.25, -33044.234, 0.057597738, -0.320694, -31648.25, 207116.61, 0.000000016182126, 10.002468, 9.9978285 
7.05108e+2, 2.856321e+2, 60793.617, -430973.84, 78688.88, -0.010550754, -0.22106338, 73077.945, 213865.28, 0.0000030357212, 10.003055, 9.99657 
7.051151e+2, 2.956302e+2, 203510.69, -299548.34, 74010.42, -0.12908916, -0.08984421, 214173.17, 256987.84, 0.000031540207, 10.003311, 9.996674 
7.0512164e+2, 3.056271e+2, 315940.25, -92196.266, 1345.4165, -0.14390579, -0.122885086, 315944.7, 315944.7, 0.00012311795, 10.003206, 9.997811 
7.051289e+2, 3.1562483e+2, 233717.27, -154887.75, 71782.086, 0.034906797, -0.14491235, 246552.72, 246552.72, 0.00029056397, 10.0027075, 9.997621 
7.1499336e+2, 1.2564112e+2, -2096024.3, -1961356.4, 171344.6, -0.052309234, -0.08169719, -1844590.3, -135887.56, 0.0, 9.997632, 9.99944 
7.150011e+2, 1.3564083e+2, -1776232.4, -1759428.1, 120219.84, -0.19811165, -0.07244856, -1647317.1, -36605.17, 0.0, 9.999157, 9.999434 
7.150124e+2, 1.4564092e+2, -1575891.9, -1577712.3, 5612.963, 0.13451518, -0.012213354, -1571115.8, -58402.848, 0.0, 9.999723, 9.99972 
7.150176e+2, 1.5564002e+2, -1440226.3, -1455336.8, 15770.526, 0.008823447, -0.097994626, -1430294.6, -15574.205, 0.0, 9.999956, 9.999775 
7.1502376e+2, 1.6563964e+2, -1346575.0, -1369881.8, 74810.586, -0.12493841, -0.107257165, -1282515.5, 34207.13, 0.0, 9.999983, 9.99967 
7.1503145e+2, 1.7563966e+2, -1272192.0, -1284957.9, 71245.43, -0.1791414, -0.083973065, -1207044.1, 11677.12, 0.0, 9.999821, 9.999662 
7.150391e+2, 1.8563958e+2, -1177078.6, -1204368.1, 4502.2354, -0.13709374, -0.050540414, -1176355.0, -55633.34, 0.0, 9.999867, 9.999519 
7.1504647e+2, 1.9563921e+2, -1039167.9, -1084001.6, 17945.518, -0.045950413, -0.054673485, -1032869.6, -10144.506, 0.0, 10.000124, 9.999549 
7.150533e+2, 2.0563854e+2, -896736.1, -947204.6, 79976.29, -0.111204565, -0.081410736, -838107.56, 86621.06, 0.0, 10.000364, 9.999698 
7.150599e+2, 2.1563755e+2, -778385.56, -843913.1, 72853.64, -0.29345772, -0.16630709, -731267.44, 95466.02, 0.0, 10.0005245, 9.999657 
7.1506786e+2, 2.2563653e+2, -738767.7, -884331.44, -23231.006, -0.187741, -0.18069036, -735150.06, -6407.408, 0.0, 10.0005865, 9.998681 
7.150769e+2, 2.3563536e+2, -645921.44, -789858.25, -5695.913, 0.13503973, -0.17923592, -645696.4, -14939.903, 0.0, 10.000556, 9.998671 
7.1508384e+2, 2.4563393e+2, -570355.7, -758735.7, 40089.023, 0.15514834, -0.16114382, -562179.25, -29407.447, 0.0, 10.000644, 9.998169 
7.1508926e+2, 2.5563216e+2, -444996.63, -643629.2, 20938.969, -0.06381164, -0.16883054, -442813.34, -8023.875, 0.0, 10.000815, 9.998203 
7.150956e+2, 2.6563045e+2, -242703.69, -481912.0, -18257.836, -0.13089313, -0.16462071, -241318.16, 95487.0, 0.0, 10.001476, 9.9983225 
7.151028e+2, 2.7562863e+2, -15324.193, -330994.5, 9017.874, -0.07624459, -0.1971137, -15066.787, 223754.45, 0.000000020828322, 10.002401, 9.99824 
7.151107e+2, 2.856272e+2, 67311.56, -405778.63, 82009.01, -0.054204974, -0.08260575, 81124.336, 221964.53, 0.0000037854625, 10.003007, 9.996766 
7.151191e+2, 2.9562613e+2, 204078.94, -276688.34, 89644.016, -0.0725281, 0.11661512, 220250.06, 263111.4, 0.000035842306, 10.003221, 9.996876 
7.1512574e+2, 3.0562374e+2, 377964.56, 50373.2, -21018.059, -0.07449809, 0.09317784, 379307.56, 379307.56, 0.00013552581, 10.00315, 9.998815 
7.1513236e+2, 3.1561953e+2, 289841.94, -18716.178, 52315.87, 0.07749131, -0.22756965, 298470.75, 298470.75, 0.0003156811, 10.002626, 9.998591 
7.249932e+2, 1.2563337e+2, -1773703.4, -1791526.5, 6358.371, 0.0740058, -0.05844948, -1771667.5, -62888.86, 0.0, 9.999748, 9.999606 
7.2499955e+2, 1.3563198e+2, -1891957.5, -1804283.4, -20177.215, -0.22036259, -0.1621451, -1799862.6, -189065.23, 0.0, 9.998329, 9.999523 
7.250105e+2, 1.4563254e+2, -1803290.0, -1664334.0, -73877.984, 0.05959108, -0.070033275, -1632396.3, -119601.695, 0.0, 9.998063, 9.999928 
7.250174e+2, 1.556331e+2, -1595623.8, -1505298.9, -74698.81, 0.06315301, -0.027601417, -1463171.3, -48381.367, 0.0, 9.998788, 9.999993 
7.250243e+2, 1.6563295e+2, -1451958.0, -1426997.4, -16158.177, -0.023365421, -0.022847008, -1419060.9, -102270.5, 0.0, 9.999271, 9.999628 
7.250318e+2, 1.7563218e+2, -1315462.3, -1307864.5, -26092.56, -0.10397068, -0.07674431, -1285295.6, -66500.23, 0.0, 9.999529, 9.999646 
7.2503936e+2, 1.856318e+2, -1165295.3, -1192433.3, -71817.53, -0.09233656, -0.07543138, -1105776.1, 15021.474, 0.0, 9.999913, 9.999581 
7.250468e+2, 1.9563152e+2, -1001977.06, -1061346.4, -72465.305, -0.031019716, -0.075867556, -953352.06, 69447.29, 0.0, 10.000355, 9.999597 
7.250538e+2, 2.0563084e+2, -939660.94, -1002988.25, -27410.014, -0.09023694, -0.091085054, -929445.06, -4641.473, 0.0, 10.000214, 9.999393 
7.2506046e+2, 2.1562967e+2, -931642.0, -950546.5, -54592.664, -0.23546338, -0.16029122, -885689.3, -58877.74, 0.0, 9.9996, 9.999377 
7.250687e+2, 2.2562855e+2, -786383.2, -869755.5, -106260.68, -0.13977712, -0.18921478, -713924.44, 14897.015, 0.0, 10.000097, 9.999017 
7.250779e+2, 2.356274e+2, -490630.13, -680719.44, -93419.81, 0.14149696, -0.22078486, -452405.34, 178428.14, 0.0, 10.0014715, 9.998982 
7.250852e+2, 2.4562642e+2, -369201.6, -643102.25, -24085.906, 0.15753609, -0.1796594, -367099.7, 165744.06, 0.0, 10.001944, 9.998335 
7.250907e+2, 2.556255e+2, -302026.03, -559495.9, 7406.474, -0.03947031, -0.1223843, -301813.16, 133040.75, 0.0, 10.001727, 9.998342 
7.250974e+2, 2.656239e+2, -198820.98, -488971.9, 1369.5167, -0.11807979, -0.09958739, -198814.52, 138055.52, 0.0, 10.001908, 9.998061 
7.25105e+2, 2.7562165e+2, -27685.416, -358676.56, -38925.043, -0.09297773, -0.1473182, -23169.39, 215723.06, 0.000000011844985, 10.0024185, 9.998038 
7.251133e+2, 2.8562003e+2, -46352.23, -399686.8, -1544.0525, -0.04007197, -0.07000775, -46345.484, 94566.77, 0.000004675658, 10.001973, 9.997302 
7.2512203e+2, 2.956189e+2, -117513.2, -376344.0, 21315.947, 0.025951, 0.06889779, -115769.48, -72838.89, 0.000040333267, 10.000775, 9.997366 
7.2512907e+2, 3.0561718e+2, 189999.42, -40701.098, -45141.504, 0.017808454, 0.0903584, 198517.8, 198517.8, 0.00014552723, 10.001857, 9.998814 
7.2513646e+2, 3.1561276e+2, 610658.75, 176784.38, -82519.914, 0.12965204, -0.2518673, 625823.44, 625823.44, 0.00033096623, 10.00464, 9.998974 
7.349932e+2, 1.2562306e+2, -1689278.8, -1620212.6, -47475.848, 0.07279715, -0.01961218, -1596038.9, 112846.555, 0.0, 9.999779, 10.000759 
7.3499715e+2, 1.3562156e+2, -1825166.6, -1670858.6, -68256.79, -0.31415674, -0.22925834, -1644999.4, -34099.375, 0.0, 9.998349, 10.000429 
7.350071e+2, 1.4562303e+2, -1789623.8, -1630616.6, -51794.855, -0.10363063, -0.10425761, -1615233.3, -102345.31, 0.0, 9.998049, 10.00016 
7.350156e+2, 1.5562533e+2, -1577280.1, -1477941.3, -39578.98, -0.023701457, 0.089610286, -1464100.5, -49230.914, 0.0, 9.998833, 10.000157 
7.350238e+2, 1.6562505e+2, -1445309.9, -1418176.9, -13547.605, -0.019562127, 0.071197405, -1412570.8, -95699.15, 0.0, 9.999295, 9.999676 
7.350325e+2, 1.7562266e+2, -1311559.5, -1299991.1, -10025.929, -0.005615529, -0.1499968, -1294200.5, -75310.055, 0.0, 9.999529, 9.9997015 
7.350402e+2, 1.8562184e+2, -1167998.1, -1191044.4, -59390.707, -0.016031543, -0.19326279, -1119023.0, 1872.2333, 0.0, 9.999885, 9.999605 
7.3504686e+2, 1.9562216e+2, -1010268.06, -1065599.9, -52510.215, -0.0677576, -0.13606404, -978581.44, 44308.82, 0.0, 10.000305, 9.999589 
7.350542e+2, 2.0562139e+2, -977353.5, -1071574.1, -55942.46, -0.07845991, -0.13547266, -951327.4, -26430.951, 0.0, 10.000169, 9.998945 
7.35062e+2, 2.1561964e+2, -964092.7, -1006416.2, -66927.92, -0.05342921, -0.22166228, -915060.7, -88147.85, 0.0, 9.999553, 9.999014 
7.3506975e+2, 2.2561887e+2, -765649.06, -813328.0, -60619.18, -0.05482461, -0.22137518, -724350.2, 4569.3906, 0.0, 10.000039, 9.9994335 
7.3507726e+2, 2.356187e+2, -471150.25, -619987.5, -39721.008, -0.08674953, -0.19564834, -461213.13, 169707.2, 0.0, 10.001384, 9.999442 
7.350853e+2, 2.4561846e+2, -312012.97, -508494.16, -37292.832, -0.034408774, -0.15330683, -305172.78, 227747.84, 0.0, 10.001877, 9.999291 
7.3509383e+2, 2.5561804e+2, -254320.55, -442746.84, 5186.9014, 0.08439107, -0.14125922, -254177.88, 180744.2, 0.0, 10.001654, 9.999178 
7.351013e+2, 2.656162e+2, -273154.84, -630704.56, 15602.781, 0.06488643, -0.13041817, -272475.25, 64466.6, 0.0, 10.001855, 9.997114 
7.3510784e+2, 2.756131e+2, -94798.5, -485871.63, -14813.674, -0.058563296, -0.16625632, -94238.17, 144739.69, 0.000000051096855, 10.002364, 9.997193 
7.3511547e+2, 2.8561065e+2, 16806.121, -267060.56, -52575.168, -0.0342521, -0.18234181, 26230.705, 167233.94, 0.0000058850314, 10.001966, 9.998214 
7.351236e+2, 2.9560867e+2, -68169.76, -267601.16, -6846.387, 0.09054863, -0.2184568, -67935.0, -24914.05, 0.000044056193, 10.000748, 9.998124 
7.351316e+2, 3.0560762e+2, 115875.98, -191763.97, 58319.402, 0.068101704, -0.11486785, 126560.52, 126560.52, 0.00015023218, 10.001844, 9.997781 
7.3514086e+2, 3.156047e+2, 571488.8, 125903.37, 26080.035, 0.07282608, -0.2076261, 573010.06, 573010.06, 0.0003328002, 10.004514, 9.998681 
7.4499214e+2, 1.2561372e+2, -1876253.6, -1651587.6, 62562.355, 0.068763554, -0.04731125, -1635340.9, 73636.69, 0.0, 9.998248, 10.001271 
7.449959e+2, 1.35613e+2, -1896183.8, -1661735.5, -28763.223, -0.2301071, -0.21930674, -1658258.3, -47275.184, 0.0, 9.997691, 10.000798 
7.4500537e+2, 1.4561453e+2, -1753104.8, -1610808.6, 49570.227, -0.081734076, -0.10491402, -1595243.0, -82273.45, 0.0, 9.998281, 10.000187 
7.4501467e+2, 1.5561657e+2, -1423763.6, -1399519.6, 32004.043, -0.049596302, 0.056932263, -1377418.8, 37535.145, 0.0, 9.999867, 10.0001955 
7.4502325e+2, 1.6561629e+2, -1332940.8, -1372595.4, 9544.096, -0.036155213, 0.041863736, -1330763.3, -13806.924, 0.0, 10.0001, 9.999605 
7.450322e+2, 1.7561409e+2, -1351082.0, -1325108.3, -4321.844, 0.025783658, -0.15224037, -1324408.0, -105434.05, 0.0, 9.999281, 9.999652 
7.4504006e+2, 1.8561335e+2, -1248219.4, -1233964.1, -16759.451, 0.016300961, -0.18665944, -1222879.6, -101900.94, 0.0, 9.999354, 9.999565 
7.4504703e+2, 1.9561352e+2, -1038411.75, -1086962.6, -26916.355, -0.07276744, -0.13868503, -1026441.0, -3465.7393, 0.0, 10.000138, 9.999525 
7.450547e+2, 2.0561269e+2, -927963.06, -1071133.3, -39799.246, -0.061148632, -0.13173823, -917643.3, 7339.4663, 0.0, 10.000612, 9.998729 
7.450631e+2, 2.1561094e+2, -790359.6, -948189.6, -44221.0, 0.036266163, -0.19370915, -778814.25, 48185.66, 0.0, 10.0008545, 9.998788 
7.450708e+2, 2.2560996e+2, -655913.1, -766189.25, -15235.13, 0.009466405, -0.20016512, -653847.06, 75161.33, 0.0, 10.000822, 9.999378 
7.450777e+2, 2.3560944e+2, -592487.1, -682466.1, -42924.375, -0.12552992, -0.20360585, -575294.94, 55716.426, 0.0, 10.000566, 9.999408 
7.4508613e+2, 2.4560905e+2, -444820.5, -544142.3, -82797.07, -0.08755513, -0.19080947, -397933.16, 135079.38, 0.0, 10.000841, 9.999549 
7.4509543e+2, 2.556086e+2, -245357.03, -412838.53, -104682.64, 0.091238335, -0.2025795, -195041.94, 239971.5, 0.0, 10.001601, 9.999414 
7.451036e+2, 2.6560718e+2, -258952.64, -622121.9, -66357.09, 0.11436918, -0.16397649, -247207.9, 89821.664, 0.0, 10.001937, 9.997138 
7.4511075e+2, 2.756048e+2, -153500.31, -510499.1, -36609.895, 0.023797799, -0.12819551, -149784.67, 89274.45, 0.00000017449423, 10.001945, 9.997226 
7.4511826e+2, 2.8560197e+2, 125069.14, -225184.11, -77752.31, 0.017534902, -0.18251105, 141553.47, 282640.63, 0.0000070145306, 10.002758, 9.998117 
7.451259e+2, 2.955986e+2, 432374.8, -39944.7, -115152.88, 0.07239085, -0.34787902, 458953.72, 502068.78, 0.00004543542, 10.004251, 9.998 
7.451345e+2, 3.0559713e+2, 394684.25, -165765.61, -43700.816, 0.055408675, -0.22696924, 398071.34, 398071.34, 0.00014809403, 10.004225, 9.996822 
7.451449e+2, 3.155954e+2, 291132.72, -63795.81, -102751.336, 0.11453877, -0.10209845, 318732.84, 318732.84, 0.00032277982, 10.002819, 9.998199 
7.549895e+2, 1.2560543e+2, -1885930.0, -1672030.5, 25426.018, -0.051843587, -0.13926472, -1669049.6, 40004.49, 0.0, 9.998256, 10.001125 
7.5499576e+2, 1.3560612e+2, -1909697.1, -1696705.6, -42581.605, -0.02909143, -0.14646532, -1688508.1, -77460.47, 0.0, 9.997724, 10.000542 
7.5500536e+2, 1.4560695e+2, -1758993.9, -1628632.3, 101765.46, 0.07495364, -0.084467255, -1572963.0, -59922.465, 0.0, 9.998304, 10.000055 
7.550144e+2, 1.5560687e+2, -1431420.5, -1416223.3, 93690.23, -0.07494957, -0.11805595, -1329824.0, 85218.47, 0.0, 9.999869, 10.000083 
7.550226e+2, 1.6560675e+2, -1344280.0, -1396502.3, -27596.291, -0.1333484, -0.10424866, -1332399.6, -15355.729, 0.0, 10.000102, 9.999439 
7.5503063e+2, 1.7560658e+2, -1363246.3, -1353141.1, -25714.693, -0.064867675, -0.078259, -1331987.3, -112942.02, 0.0, 9.999293, 9.999454 
7.5503886e+2, 1.8560626e+2, -1253076.6, -1242998.6, 6956.8403, -0.053568948, -0.055173956, -1239447.5, -118399.54, 0.0, 9.99935, 9.999505 
7.55047e+2, 1.9560564e+2, -1049405.1, -1097185.6, 7813.2236, -0.10605187, -0.082578555, -1048159.94, -25105.887, 0.0, 10.000088, 9.999477 
7.550552e+2, 2.0560475e+2, -937515.5, -1081747.4, -36882.06, -0.090202436, -0.075640045, -928631.44, -3569.2686, 0.0, 10.000567, 9.998681 
7.5506353e+2, 2.1560353e+2, -806798.5, -961832.9, -31472.025, -0.015312556, -0.079590686, -800653.25, 26419.826, 0.0, 10.000771, 9.9987335 
7.5507164e+2, 2.2560188e+2, -704607.7, -847998.8, -29423.697, 0.0018595558, -0.123439014, -698804.8, 30282.53, 0.0, 10.000739, 9.998858 
7.550793e+2, 2.3559973e+2, -637992.94, -762517.9, -42814.04, -0.035728972, -0.23811483, -624693.1, 6412.612, 0.0, 10.000506, 9.998886 
7.550873e+2, 2.455983e+2, -482172.1, -613379.25, -59764.17, -0.06267118, -0.2795294, -459031.16, 74086.9, 0.0, 10.000807, 9.999089 
7.5509554e+2, 2.5559723e+2, -277397.0, -469795.28, -72459.516, -0.077199765, -0.308792, -253160.86, 181966.64, 0.0, 10.001558, 9.999043 
7.5510424e+2, 2.6559684e+2, -195345.72, -480671.53, -70130.17, -0.024492465, -0.20360741, -179040.25, 158092.61, 0.0, 10.001901, 9.998125 
7.5511354e+2, 2.755968e+2, -104120.65, -391954.53, -25267.494, 0.08473925, -0.032693185, -101919.375, 137216.94, 0.0000002213921, 10.001878, 9.998072 
7.551216e+2, 2.8559393e+2, 44864.88, -384145.72, -26426.77, 0.05690418, -0.06967944, 46486.62, 187650.63, 0.000006961638, 10.002721, 9.997047 
7.5512874e+2, 2.9558864e+2, 349140.0, -195975.39, -56404.938, -0.0856697, -0.3188408, 354915.25, 398127.8, 0.00004401986, 10.0041685, 9.996974 
7.551374e+2, 3.0558574e+2, 321962.75, -294690.4, -95968.336, -0.08273, -0.25108218, 336552.88, 336552.88, 0.0001416952, 10.004144, 9.995968 
7.5514805e+2, 3.1558484e+2, 234083.14, -164580.19, -140198.48, 0.122534774, 0.04315084, 278449.5, 278449.5, 0.00030697437, 10.002749, 9.997537 
7.649868e+2, 1.2559646e+2, -2035753.8, -1743823.0, -11784.194, -0.08543992, -0.19880818, -1743348.1, -34208.36, 0.0, 9.997192, 10.001153 
7.6499546e+2, 1.355982e+2, -1690356.0, -1600438.8, -88043.305, 0.09897422, -0.09643381, -1546539.4, 64583.94, 0.0, 9.999247, 10.000474 
7.650051e+2, 1.455987e+2, -1606153.8, -1563236.1, 63925.305, 0.16830856, -0.060785368, -1517264.0, -4145.504, 0.0, 9.999387, 9.999982 
7.650135e+2, 1.5559752e+2, -1674893.6, -1543328.8, 45836.11, -0.068645135, -0.19582477, -1528934.8, -113804.98, 0.0, 9.998234, 10.000003 
7.6502174e+2, 1.6559719e+2, -1554246.3, -1489422.1, -43605.676, -0.14744152, -0.20312795, -1467501.9, -150369.33, 0.0, 9.998626, 9.999515 
7.6503044e+2, 1.7559747e+2, -1224244.0, -1278014.8, -34520.758, -0.0560745, -0.13997386, -1207374.4, 11755.017, 0.0, 10.0002165, 9.999522 
7.6503927e+2, 1.855974e+2, -1085054.9, -1204836.3, -1780.8029, -0.016296044, -0.07515846, -1085028.4, 36103.184, 0.0, 10.000689, 9.999122 
7.6504785e+2, 1.9559689e+2, -1047114.7, -1135598.6, -34957.51, -0.032760106, -0.05390659, -1034970.7, -11830.585, 0.0, 10.000271, 9.999127 
7.650561e+2, 2.0559596e+2, -970478.2, -1079840.4, -66393.76, -0.037317954, -0.04310953, -939146.75, -13997.183, 0.0, 10.000269, 9.998839 
7.6506406e+2, 2.1559453e+2, -823235.6, -955986.3, -58856.305, -0.028911637, -0.082487725, -800899.3, 26262.135, 0.0, 10.000592, 9.998863 
7.650723e+2, 2.2559287e+2, -688719.7, -850697.4, -31324.291, -0.013245992, -0.12929045, -682873.06, 46302.258, 0.0, 10.000897, 9.99876 
7.650806e+2, 2.355909e+2, -551083.25, -736638.44, -25865.42, 0.0016013118, -0.21321282, -547545.2, 83646.34, 0.0, 10.001176, 9.99874 
7.6508874e+2, 2.455892e+2, -426963.9, -668488.6, -9060.675, -0.03549046, -0.23658445, -426624.47, 106583.914, 0.0, 10.001537, 9.998359 
7.6509684e+2, 2.5558755e+2, -267060.97, -535771.75, -52346.69, -0.112085536, -0.25264868, -257223.61, 178003.28, 0.0, 10.001948, 9.998397 
7.6510584e+2, 2.655868e+2, -101721.125, -389421.7, -87739.9, -0.07387919, -0.17330693, -77074.55, 260160.48, 0.0, 10.002351, 9.998533 
7.6511556e+2, 2.7558658e+2, 45629.844, -276323.75, -97559.695, 0.06395663, -0.06172482, 72885.414, 312121.9, 0.00000016204108, 10.002724, 9.998457 
7.6512444e+2, 2.855841e+2, 31587.691, -407957.7, -51674.133, 0.07306821, -0.06951396, 37580.92, 178841.02, 0.000006290961, 10.002703, 9.996895 
7.6513255e+2, 2.955797e+2, 74172.14, -338281.9, -28176.273, -0.025086874, -0.21700254, 76088.06, 119390.664, 0.000041719115, 10.00233, 9.996876 
7.6514125e+2, 3.0557635e+2, 154965.58, -367033.2, -7713.708, -0.0483828, -0.19335271, 155079.55, 155079.55, 0.00013461517, 10.00296, 9.996038 
7.6515096e+2, 3.1557518e+2, 433965.22, -77545.03, -11244.558, 0.06761922, 0.06782108, 434212.28, 434212.28, 0.00029000925, 10.004183, 9.997431 
7.7498364e+2, 1.2558681e+2, -2018426.3, -1704518.5, 41002.09, -0.15781398, -0.22647792, -1699251.3, 9982.782, 0.00000000003061157, 9.997187, 10.001423 
7.7499485e+2, 1.3558926e+2, -1676195.8, -1573576.3, -16400.941, 0.092165455, -0.06760726, -1571018.8, 40190.434, 0.0, 9.999261, 10.000649 
7.750044e+2, 1.4558983e+2, -1605929.3, -1568151.8, 11749.37, 0.1345554, -0.0328365, -1564795.8, -51592.59, 0.0, 9.999407, 9.999942 
7.7501166e+2, 1.5558855e+2, -1670251.1, -1544902.5, 14648.45, -0.08902037, -0.17318255, -1543213.5, -127998.15, 0.0, 9.998276, 9.999976 
7.7502066e+2, 1.6558762e+2, -1528488.3, -1436741.1, 10319.902, -0.13432331, -0.25753495, -1435594.6, -118372.6, 0.0, 9.9986315, 9.99987 
7.750314e+2, 1.7558682e+2, -1203321.8, -1233671.5, 27758.354, -0.0027874275, -0.33774418, -1186861.1, 32364.676, 0.0, 10.000213, 9.999828 
7.7504086e+2, 1.8558685e+2, -1137785.6, -1308504.0, -22780.752, 0.07039804, -0.2421902, -1134798.1, -13569.341, 0.0, 10.000662, 9.9984255 
7.750495e+2, 1.9558737e+2, -1097163.6, -1230100.9, -43168.645, 0.087234, -0.0465904, -1084375.6, -61143.16, 0.0, 10.000228, 9.998501 
7.7505726e+2, 2.0558639e+2, -956899.9, -1035620.06, -60577.29, 0.04018364, -0.03006787, -924018.5, 1225.8472, 0.0, 10.0002, 9.999175 
7.7506447e+2, 2.1558402e+2, -810319.44, -912411.94, -41273.816, -0.05944041, -0.1969872, -795720.9, 31543.441, 0.0, 10.000524, 9.999193 
7.7507246e+2, 2.2558299e+2, -680544.94, -816062.75, -27205.143, -0.09305967, -0.20935346, -675287.44, 53984.035, 0.0, 10.000822, 9.999036 
7.750811e+2, 2.3558286e+2, -546145.3, -710571.06, -9168.725, -0.07120406, -0.1400575, -545635.6, 85634.66, 0.0, 10.001104, 9.998955 
7.750901e+2, 2.4558166e+2, -504958.66, -814219.5, 261.02487, -0.06480944, -0.07225644, -504958.44, 28326.158, 0.0, 10.001471, 9.997391 
7.750993e+2, 2.5557947e+2, -340919.84, -676108.0, -29580.125, -0.071466126, -0.041505806, -338329.44, 96982.77, 0.0, 10.001891, 9.997462 
7.751082e+2, 2.6557702e+2, -121584.12, -420292.34, -76475.31, -0.084779784, -0.07691651, -103143.336, 234193.02, 0.0, 10.002303, 9.998345 
7.751168e+2, 2.7557415e+2, 29795.547, -298388.44, -77226.62, -0.0956704, -0.21262133, 47059.926, 286419.6, 0.00000014054619, 10.002669, 9.998337 
7.751265e+2, 2.8557244e+2, 78410.49, -298396.78, -70041.04, 0.0006606506, -0.18220057, 91008.54, 232384.23, 0.0000059856334, 10.002654, 9.997667 
7.75137e+2, 2.955715e+2, 124160.72, -231090.78, -30660.625, 0.17670576, -0.059515756, 126787.52, 170174.83, 0.0000396548, 10.002311, 9.9976225 
7.751457e+2, 3.0556872e+2, 217088.56, -226764.53, 38571.844, 0.09254111, -0.062324084, 220415.61, 220415.61, 0.00012692052, 10.002914, 9.997023 
7.751531e+2, 3.1556642e+2, 441650.7, -35959.16, 48841.434, -0.17295603, -0.015908131, 446594.16, 446594.16, 0.00027213217, 10.004061, 9.997782 
7.849817e+2, 1.255771e+2, -1970788.6, -1679173.4, 84198.516, -0.07369024, -0.22543229, -1656608.6, 52717.387, 0.0000000009851104, 9.997508, 10.001439 
7.8499275e+2, 1.3557835e+2, -1819053.1, -1648988.5, -11685.3545, 0.0071990206, -0.18472333, -1648189.3, -36878.332, 0.0, 9.998318, 10.000582 
7.850023e+2, 1.4557876e+2, -1676980.8, -1628502.1, -45017.945, 0.012928865, -0.15090002, -1601612.6, -88305.266, 0.0, 9.999033, 9.999706 
7.8501093e+2, 1.5557852e+2, -1477574.1, -1475304.1, -65832.48, -0.056714784, -0.1621219, -1410596.9, 4715.596, 0.0, 9.999709, 9.999758 
7.850204e+2, 1.6557781e+2, -1336255.0, -1316466.5, -39517.254, -0.07867731, -0.2245036, -1285623.6, 31694.219, 0.0, 9.99984, 10.000107 
7.850309e+2, 1.7557657e+2, -1292428.0, -1249655.4, -46673.887, -0.033003144, -0.37410682, -1219701.4, -376.10284, 0.0, 9.999492, 10.000059 
7.850407e+2, 1.8557666e+2, -1278746.5, -1343872.1, -71887.516, 0.039409574, -0.2996685, -1232390.8, -111063.93, 0.0, 9.999552, 9.998719 
7.8504986e+2, 1.9557765e+2, -1131402.4, -1215649.1, -29667.932, 0.12806574, -0.08699127, -1122003.4, -98678.3, 0.0, 9.999865, 9.998774 
7.850579e+2, 2.0557679e+2, -941502.4, -1057550.8, -7620.2065, 0.07872163, -0.055253636, -941004.1, -15667.995, 0.0, 10.000435, 9.998909 
7.85065e+2, 2.1557434e+2, -744566.6, -910106.06, -45552.766, -0.08020852, -0.20488375, -732859.44, 94499.52, 0.0, 10.001105, 9.998926 
7.850735e+2, 2.255733e+2, -589785.5, -778332.2, -64091.043, -0.095507406, -0.20226748, -570062.7, 159304.77, 0.0, 10.001466, 9.998985 
7.850832e+2, 2.3557328e+2, -481773.78, -681743.3, -82000.77, 0.00641777, -0.11690031, -452448.53, 178917.2, 0.0, 10.00156, 9.99893 
7.850925e+2, 2.455723e+2, -459591.78, -761269.44, -19987.129, 0.017075542, -0.038303148, -458273.34, 75103.945, 0.0, 10.001652, 9.997662 
7.8510135e+2, 2.5557047e+2, -345972.34, -652225.8, 28545.188, -0.047081903, -0.002933415, -343334.44, 92066.2, 0.0, 10.0017395, 9.997698 
7.851103e+2, 2.655677e+2, -183577.02, -468820.1, 38862.33, -0.08159388, -0.074238405, -178377.1, 159050.34, 0.0, 10.001951, 9.998186 
7.851193e+2, 2.75564e+2, -36002.06, -343752.22, 27619.8, -0.08611327, -0.27563486, -33542.9, 205915.61, 0.0000001311964, 10.002277, 9.998213 
7.8512925e+2, 2.8556246e+2, 90324.45, -271500.66, 11298.708, 0.013442642, -0.23042539, 90676.93, 232150.8, 0.0000058891046, 10.002643, 9.997859 
7.851399e+2, 2.9556262e+2, 236057.95, -146744.45, -2684.117, 0.20103039, -0.01737467, 236076.78, 279553.94, 0.000037489564, 10.002955, 9.9978895 
7.8514856e+2, 3.0556065e+2, 229095.34, -73908.48, 73542.84, 0.12263488, -0.024167534, 246001.8, 246001.8, 0.00011865352, 10.002342, 9.998357 
7.8515583e+2, 3.1555805e+2, 50656.313, -115671.28, 87539.586, -0.13787355, -0.1380287, 88237.69, 88237.69, 0.0002544846, 10.000884, 9.998772 
7.949807e+2, 1.2556757e+2, -1985643.3, -1721739.9, 88196.57, 0.037443615, -0.19204593, -1694978.4, 14435.112, 0.0000000034592607, 9.997567, 10.001119 
7.94989e+2, 1.355655e+2, -1832092.0, -1684429.8, 21003.549, -0.21671215, -0.45066512, -1681500.3, -70072.33, 0.0, 9.998361, 10.000316 
7.949988e+2, 1.4556551e+2, -1706574.1, -1693393.8, -26381.951, -0.25409642, -0.42052215, -1672791.4, -159360.58, 0.0, 9.999048, 9.999254 
7.9501104e+2, 1.555675e+2, -1501324.3, -1531057.8, -34220.074, -0.035610106, -0.16950072, -1478881.0, -63460.12, 0.0, 9.999735, 9.999362 
7.950208e+2, 1.6556786e+2, -1333456.4, -1308034.6, -57833.043, -0.039779842, -0.1106452, -1261532.0, 55887.82, 0.0, 9.9998255, 10.000174 
7.9502887e+2, 1.7556679e+2, -1278370.5, -1227573.9, -52981.46, -0.19917198, -0.24941848, -1194217.5, 25209.795, 0.0, 9.9995165, 10.000201 
7.9503834e+2, 1.8556686e+2, -1195298.0, -1162993.9, -65527.0, -0.1618702, -0.24853799, -1111657.6, 9767.824, 0.0, 9.999518, 9.999976 
7.950489e+2, 1.9556768e+2, -1055091.1, -1051314.8, -11154.635, 0.022864804, -0.17883754, -1041889.6, -18471.803, 0.0, 9.999838, 9.999912 
7.9505783e+2, 2.0556717e+2, -1012524.5, -1187960.5, 10666.659, 0.017654583, -0.122848175, -1011878.3, -86453.09, 0.0, 10.000362, 9.998049 
7.9506564e+2, 2.1556537e+2, -812639.56, -1036046.6, -15707.597, -0.14127047, -0.12014974, -811540.56, 15905.997, 0.0, 10.001039, 9.998095 
7.950753e+2, 2.2556378e+2, -629457.0, -839137.75, -65408.44, -0.074705474, -0.11352621, -610726.44, 118736.59, 0.0, 10.001374, 9.998611 
7.9508656e+2, 2.3556225e+2, -512128.75, -728677.4, -70830.15, 0.17115268, -0.14068599, -491019.0, 140457.84, 0.0, 10.001486, 9.998646 
7.950955e+2, 2.4556121e+2, -367107.9, -555072.94, -22626.479, 0.14580113, -0.13068908, -364422.6, 169063.31, 0.0, 10.001592, 9.999106 
7.951027e+2, 2.5556043e+2, -261057.0, -460233.97, 36360.563, -0.094921105, -0.1338661, -254626.83, 180866.05, 0.0, 10.00167, 9.999051 
7.95112e+2, 2.6555866e+2, -197966.9, -487088.47, 43858.3, -0.12279813, -0.16459389, -191460.25, 146048.98, 0.0, 10.001903, 9.998083 
7.951228e+2, 2.755559e+2, -54415.09, -370533.94, 46767.67, 0.021286828, -0.26152068, -47641.277, 191893.58, 0.000000103459534, 10.002226, 9.9980545 
7.9513246e+2, 2.855541e+2, 59555.676, -325741.78, 19107.994, 0.054619588, -0.21442114, 60500.977, 202056.31, 0.0000054454867, 10.002601, 9.997506 
7.951409e+2, 2.9555306e+2, 208463.97, -187588.86, 15435.015, -0.009362622, -0.08568297, 209064.6, 252636.5, 0.00003447301, 10.00288, 9.997648 
7.9514974e+2, 3.0555207e+2, 341534.84, 170711.42, 14967.596, -0.015186146, -0.07891616, 342836.4, 342836.4, 0.0001104858, 10.0023, 10.000054 
7.951587e+2, 3.1555e+2, 145844.6, 95466.25, 48291.305, 0.029695433, -0.3085561, 175121.4, 175121.4, 0.000240168, 10.00083, 10.000247 
8.0497956e+2, 1.2555657e+2, -1867987.4, -1641947.1, -23344.662, 0.13517867, -0.13343416, -1639561.4, 69962.75, 0.0000000057252847, 9.998276, 10.001334 
8.0498755e+2, 1.3555421e+2, -1851386.9, -1667706.8, -56127.27, -0.1758062, -0.44599712, -1651913.8, -40373.91, 0.0, 9.998106, 10.000569 
8.049974e+2, 1.4555411e+2, -1809303.0, -1692574.3, -31072.273, -0.25767952, -0.46047747, -1684818.4, -171275.83, 0.0, 9.9981365, 9.999696 
8.0501026e+2, 1.5555659e+2, -1665320.6, -1568074.9, 5324.379, -0.019614222, -0.19952722, -1567784.3, -152256.98, 0.0, 9.998433, 9.999735 
8.050203e+2, 1.6555771e+2, -1507448.9, -1387723.1, -1071.9773, -0.011580355, -0.08542363, -1387713.5, -70193.61, 0.0, 9.998607, 10.000221 
8.050282e+2, 1.7555764e+2, -1406036.1, -1283173.3, -7919.7847, -0.17069149, -0.12634216, -1282664.8, -63145.06, 0.0, 9.998621, 10.000255 
8.0503756e+2, 1.8555748e+2, -1241253.4, -1158224.8, -30743.385, -0.16802947, -0.1640338, -1148080.6, -26561.412, 0.0, 9.999096, 10.000207 
8.05048e+2, 1.9555706e+2, -1038180.0, -1022441.5, -65366.68, -0.046191473, -0.2415618, -964472.1, 59048.387, 0.0, 9.999868, 10.000098 
8.050579e+2, 2.0555657e+2, -984761.25, -1154354.8, -25091.836, -0.01898849, -0.19807535, -981126.75, -55600.387, 0.0, 10.000466, 9.998232 
8.050673e+2, 2.1555589e+2, -828901.6, -1024935.9, 10827.18, -0.062668875, -0.10213237, -828305.44, -767.85864, 0.0, 10.000849, 9.998261 
8.0507725e+2, 2.2555429e+2, -713780.4, -908517.2, -10637.152, 0.00880923, -0.09302558, -713201.06, 16354.375, 0.0, 10.000919, 9.998352 
8.050875e+2, 2.3555182e+2, -645240.7, -817864.4, -17732.025, 0.16840012, -0.18933153, -643438.06, -11858.22, 0.0, 10.000685, 9.998416 
8.0509645e+2, 2.4555057e+2, -451245.28, -574770.4, 11222.544, 0.11800704, -0.20058714, -450233.97, 83357.32, 0.0, 10.000917, 9.999302 
8.051043e+2, 2.5555012e+2, -265871.84, -440014.72, -33819.613, -0.09423542, -0.1885176, -259534.5, 176059.56, 0.0, 10.001535, 9.999259 
8.051142e+2, 2.655492e+2, -187633.4, -457434.13, -46083.316, -0.08653359, -0.15115464, -179979.3, 157623.17, 0.0, 10.001864, 9.998303 
8.051257e+2, 2.7554783e+2, -77645.64, -355886.88, -30632.676, 0.10299759, -0.13781022, -74313.08, 165303.98, 0.00000004701224, 10.001952, 9.998286 
8.0513495e+2, 2.85546e+2, -31931.793, -355990.8, -18060.43, 0.086278625, -0.11204231, -30928.36, 110709.586, 0.000004093495, 10.001913, 9.997629 
8.051423e+2, 2.9554376e+2, 64391.527, -246100.45, -3028.0667, -0.10119375, -0.11649855, 64421.055, 108085.74, 0.000029631305, 10.001845, 9.997742 
8.0515176e+2, 3.0554286e+2, 319938.28, 94180.36, -78601.414, -0.045303006, -0.06867308, 344608.75, 344608.75, 0.00010221737, 10.002441, 9.999466 
8.051626e+2, 3.1554064e+2, 501615.8, 239319.38, -223981.25, 0.2093879, -0.25208002, 630020.0, 630020.0, 0.00023173615, 10.0034075, 9.999996 
8.1497765e+2, 1.2554424e+2, -1813575.1, -1537029.9, -58978.902, 0.08466401, -0.051132783, -1524976.8, 184680.22, 0.000000004999778, 9.998322, 10.002027 
8.149882e+2, 1.3554452e+2, -1788916.3, -1540947.3, -56712.926, 0.06489057, -0.1799523, -1528592.0, 83054.055, 0.0, 9.998128, 10.001421 
8.149977e+2, 1.455447e+2, -1724615.1, -1521132.3, -25848.244, -0.05846931, -0.26991853, -1517900.1, -4258.6113, 0.0, 9.99815, 10.00087 
8.1500834e+2, 1.5554589e+2, -1579901.4, -1401277.3, 24419.025, -0.06934757, -0.2546935, -1397999.1, 17632.016, 0.0, 9.998472, 10.000864 
8.1501853e+2, 1.6554745e+2, -1507239.6, -1387908.0, -7483.901, -0.05581571, -0.15071408, -1387440.5, -69822.85, 0.0, 9.998612, 10.000215 
8.1502855e+2, 1.7554912e+2, -1405550.1, -1286804.4, -261.27713, -0.00897544, -0.01725767, -1286803.8, -67200.82, 0.0, 9.998639, 10.000219 
8.15038e+2, 1.855485e+2, -1304638.6, -1281838.8, -5457.358, -0.038794544, -0.05694201, -1280599.8, -158991.36, 0.0, 9.999062, 9.999377 
8.150471e+2, 1.9554581e+2, -1092634.6, -1129954.0, -29847.44, -0.13973515, -0.2769255, -1076094.1, -52461.895, 0.0, 9.999841, 9.999374 
8.1505775e+2, 2.0554513e+2, -916910.06, -992324.06, -16853.947, -0.08703735, -0.2801496, -913314.9, 12323.611, 0.0, 10.000379, 9.999386 
8.150698e+2, 2.1554594e+2, -764754.1, -871490.5, 29900.836, 0.09250736, -0.15026006, -756948.56, 70683.14, 0.0, 10.000761, 9.999356 
8.150791e+2, 2.255448e+2, -737510.5, -934680.6, -26019.453, 0.09303975, -0.13939385, -734134.6, -4489.8364, 0.0, 10.000821, 9.99822 
8.1508607e+2, 2.3554188e+2, -667622.25, -848771.56, -18847.682, -0.05736817, -0.26674342, -665682.06, -34006.395, 0.0, 10.000616, 9.998239 
8.1509507e+2, 2.4554025e+2, -527273.4, -723437.94, 28185.24, -0.11861561, -0.25476447, -523303.97, 10390.1, 0.0, 10.000874, 9.998304 
8.151059e+2, 2.5553954e+2, -336896.3, -579301.3, -3872.0776, -0.10386618, -0.16968898, -336834.47, 98869.305, 0.0, 10.001493, 9.998328 
8.151167e+2, 2.6553947e+2, -153387.28, -373460.6, -45973.867, -0.03047554, -0.03819675, -144169.33, 193537.13, 0.0, 10.001816, 9.9989 
8.151277e+2, 2.7553976e+2, -51343.313, -277593.3, -18792.809, 0.09407532, 0.090139344, -49792.965, 189911.8, 0.000000004527389, 10.001856, 9.998869 
8.151366e+2, 2.8553808e+2, 3099.5552, -278489.9, -27203.01, 0.044935565, 0.07101018, 5703.4297, 147425.44, 0.0000024308686, 10.001885, 9.9981785 
8.151439e+2, 2.955346e+2, 82596.2, -204000.03, 2026.9949, -0.14636186, -0.107987046, 82610.54, 126366.49, 0.00002455122, 10.001819, 9.998048 
8.1515443e+2, 3.055331e+2, 126515.305, -297938.34, -40912.824, -0.027865738, 0.008573414, 130422.9, 130422.9, 0.00009685274, 10.002409, 9.996781 
8.1516695e+2, 3.1553003e+2, 347939.75, -53964.547, -166074.11, 0.27190274, -0.000011139611, 407683.56, 407683.56, 0.00023258898, 10.003299, 9.998032 
8.249752e+2, 1.2553321e+2, -2007856.5, -1675376.0, 92032.09, 0.07392016, -0.020089012, -1651601.3, 58166.36, 0.0000000017683296, 9.997158, 10.001639 
8.249871e+2, 1.3553403e+2, -1836426.9, -1593859.4, 371.6394, 0.16043493, -0.06718804, -1593858.9, 17897.207, 0.0, 9.997919, 10.001158 
8.2499665e+2, 1.4553438e+2, -1666794.1, -1414931.8, -13820.776, 0.024289893, -0.16486643, -1414175.6, 99573.27, 0.0, 9.99821, 10.001567 
8.2500654e+2, 1.5553564e+2, -1576869.0, -1327717.0, -13797.846, -0.081477456, -0.21041396, -1326955.3, 88777.125, 0.0, 9.998187, 10.001502 
8.250169e+2, 1.655369e+2, -1515432.9, -1410868.9, -46608.086, -0.07658582, -0.1576065, -1393110.0, -75390.305, 0.0, 9.998644, 10.000034 
8.25028e+2, 1.7553794e+2, -1298588.5, -1259744.5, -66770.086, 0.03227478, -0.06887284, -1209629.0, 10082.896, 0.0, 9.999475, 10.000002 
8.250379e+2, 1.8553723e+2, -1224276.1, -1254669.3, -45234.98, 0.017401038, -0.10103449, -1191753.3, -70034.04, 0.0, 9.999669, 9.999269 
8.2504696e+2, 1.9553494e+2, -1177984.0, -1176411.8, -29983.314, -0.10393095, -0.26962814, -1147204.3, -123463.99, 0.0, 9.999292, 9.999313 
8.250575e+2, 2.0553467e+2, -1035677.0, -970515.56, 2529.0308, -0.08645555, -0.26683378, -970417.56, -44675.26, 0.0, 9.999219, 10.000091 
8.2506937e+2, 2.1553592e+2, -927342.4, -875082.0, 4672.9243, 0.049161725, -0.16308728, -874667.5, -46937.332, 0.0, 9.999323, 10.000025 
8.2507914e+2, 2.2553545e+2, -805962.5, -938808.8, -22217.26, 0.048103355, -0.13072383, -802345.3, -72608.5, 0.0, 10.000223, 9.998484 
8.2508713e+2, 2.3553337e+2, -491175.66, -736712.75, -1110.8855, -0.064697415, -0.19934991, -491170.63, 140590.08, 0.0, 10.001714, 9.998481 
8.2509685e+2, 2.4553196e+2, -331971.9, -639287.06, 91587.9, -0.09778185, -0.17094809, -306746.84, 227030.36, 0.0, 10.002268, 9.998205 
8.2510805e+2, 2.55531e+2, -256249.08, -547148.9, 112584.67, -0.06243036, -0.10277368, -217766.97, 218021.86, 0.0, 10.002095, 9.998249 
8.251187e+2, 2.655304e+2, -172805.34, -415083.75, 63351.824, -0.012014381, -0.0068160687, -157239.9, 180557.11, 0.0, 10.001815, 9.998621 
8.251289e+2, 2.755299e+2, -130203.82, -342308.53, 17094.578, 0.057348747, 0.06482403, -128834.92, 110969.52, 0.0, 10.001425, 9.998633 
8.251382e+2, 2.8552815e+2, 1822.3448, -255347.1, 3142.1047, 0.025067538, 0.04437968, 1860.7295, 143682.08, 0.000001518397, 10.001779, 9.998387 
8.2514673e+2, 2.9552534e+2, 221338.6, -118463.445, -2310.6572, -0.08119705, -0.09336129, 221354.31, 265201.88, 0.000022026383, 10.002695, 9.998212 
8.251579e+2, 3.055236e+2, 200101.13, -362372.7, 39696.61, 0.035220068, 0.03869155, 202888.9, 202888.9, 0.00009707927, 10.003334, 9.995889 
8.2517004e+2, 3.1552032e+2, 382911.5, -72443.13, 16931.633, 0.24010876, 0.093065545, 383540.2, 383540.2, 0.00024342752, 10.003685, 9.997709 
8.3497167e+2, 1.2552351e+2, -2106848.8, -1882945.5, 93248.33, -0.02910094, -0.043083366, -1849197.4, -139341.95, 0.000000000051048894, 9.997173, 10.000203 
8.349841e+2, 1.3552281e+2, -1917520.6, -1773639.0, 34262.92, 0.049198177, -0.111227445, -1765896.5, -154027.58, 0.0, 9.997969, 9.999899 
8.34994e+2, 1.455232e+2, -1651600.8, -1392703.8, -21363.111, -0.07738503, -0.1503317, -1390952.8, 122911.25, 0.0, 9.998249, 10.0017 
8.3500445e+2, 1.555259e+2, -1562010.4, -1303266.4, -6915.867, -0.12550491, -0.07158271, -1303081.6, 112749.01, 0.0, 9.998213, 10.001657 
8.350152e+2, 1.6552612e+2, -1543296.4, -1464544.5, -20358.668, -0.13052228, -0.10968871, -1459592.9, -141766.95, 0.0, 9.998628, 9.999676 
8.350264e+2, 1.7552425e+2, -1317566.4, -1303866.9, -29458.918, -0.0947141, -0.2758537, -1280471.9, -60626.473, 0.0, 9.9994955, 9.999689 
8.3503705e+2, 1.855238e+2, -1186994.8, -1176720.8, -65302.95, -0.05219296, -0.29358837, -1116353.1, 5497.447, 0.0, 9.999663, 9.999809 
8.3504736e+2, 1.9552433e+2, -1140980.9, -1096403.6, -36833.207, -0.0074838866, -0.23512512, -1075640.4, -51794.76, 0.0, 9.999272, 9.999875 
8.350569e+2, 2.0552509e+2, -1027662.9, -937917.44, 835.2987, -0.07902745, -0.17205326, -937909.6, -12070.663, 0.0, 9.99915, 10.000347 
8.350659e+2, 2.1552585e+2, -915896.8, -837506.4, 17679.852, -0.24443762, -0.14472069, -833703.44, -5870.897, 0.0, 9.999265, 10.000308 
8.350773e+2, 2.2552629e+2, -773378.75, -853910.94, 25893.492, -0.1738293, -0.06646774, -765771.75, -35940.906, 0.0, 10.000144, 9.999108 
8.350904e+2, 2.3552631e+2, -456427.3, -649642.6, 57813.934, 0.078938164, 0.010295275, -440449.5, 191385.16, 0.0, 10.001641, 9.999117 
8.3510137e+2, 2.455257e+2, -289934.9, -534500.2, 78185.03, 0.11419292, 0.046649527, -267076.44, 266764.47, 0.0, 10.002192, 9.998961 
8.351106e+2, 2.555244e+2, -221408.33, -459656.03, 111262.23, -0.026454737, 0.005050116, -177529.8, 258321.14, 0.0, 10.002025, 9.998887 
8.3511984e+2, 2.655219e+2, -253939.56, -573201.4, 43625.652, -0.08262755, -0.060749836, -248085.66, 89790.375, 0.0, 10.001772, 9.997555 
8.3512926e+2, 2.7551824e+2, -209669.98, -497205.63, 12850.066, -0.06772817, -0.19385543, -209096.84, 30818.418, 0.0, 10.001378, 9.997594 
8.351395e+2, 2.855164e+2, -7839.486, -266865.66, 33482.62, -0.031843085, -0.17490669, -3581.4043, 138353.39, 0.0000012583888, 10.001747, 9.998322 
8.3515066e+2, 2.955158e+2, 209671.38, -128580.3, 39821.87, 0.02484894, -0.08165833, 214296.31, 258236.66, 0.000022671806, 10.002635, 9.998174 
8.351618e+2, 3.0551416e+2, 247735.6, -247417.97, 53418.887, 0.08160583, 0.019038487, 253433.05, 253433.05, 0.0001036696, 10.003272, 9.996707 
8.351716e+2, 3.155115e+2, 447479.38, 84995.65, 55376.055, -0.009311622, 0.05609428, 455750.38, 455750.38, 0.00026236358, 10.00359, 9.998838 
8.4496915e+2, 1.255111e+2, -1976168.3, -1819159.0, -12736.322, -0.03072143, -0.16909824, -1818132.6, -108159.45, 0.0, 9.99807, 10.000213 
8.44982e+2, 1.35512e+2, -1866187.3, -1741965.5, 22490.213, 0.033203892, -0.08112152, -1738019.1, -126044.734, 0.0, 9.998301, 9.999959 
8.4499216e+2, 1.4551267e+2, -1674171.4, -1445193.9, -13787.649, -0.08327537, -0.0761128, -1444366.6, 69602.4, 0.0, 9.9982815, 10.001321 
8.450029e+2, 1.5551454e+2, -1586832.0, -1356996.0, -52061.76, -0.09675965, -0.03890463, -1345753.1, 70191.5, 0.0, 9.998226, 10.001283 
8.4501374e+2, 1.6551442e+2, -1601506.0, -1462875.5, -35060.88, -0.1080676, -0.10858978, -1454512.8, -136569.7, 0.0, 9.998093, 9.999951 
8.450248e+2, 1.7551261e+2, -1547957.1, -1381948.0, -8623.374, -0.108902656, -0.29444593, -1381501.3, -161540.7, 0.0, 9.997775, 9.999984 
8.4503585e+2, 1.855128e+2, -1386285.0, -1212424.6, -17373.168, -0.05783164, -0.2915335, -1210705.6, -88747.07, 0.0, 9.998033, 10.000347 
8.450467e+2, 1.9551444e+2, -1189658.6, -1067280.1, -1230.4656, 0.031640735, -0.17710422, -1067267.9, -43325.266, 0.0, 9.998712, 10.000344 
8.450565e+2, 2.0551528e+2, -1013984.9, -975933.1, 28245.686, -0.047550194, -0.10686533, -960903.1, -34967.188, 0.0, 9.9994335, 9.999954 
8.450654e+2, 2.1551524e+2, -822610.3, -835481.5, -16536.39, -0.25812486, -0.11704482, -811301.4, 16637.646, 0.0, 10.000084, 9.999932 
8.450773e+2, 2.2551557e+2, -729228.1, -770918.44, -15578.604, -0.1854202, -0.059037443, -724050.0, 5888.0117, 0.0, 10.0001955, 9.999642 
8.450914e+2, 2.3551612e+2, -681883.8, -698811.7, -9278.558, 0.111585855, 0.01695263, -677788.7, -45854.184, 0.0, 9.999852, 9.999635 
8.4510297e+2, 2.4551582e+2, -531514.75, -610006.8, 1745.1818, 0.15036044, 0.042246394, -531475.94, 2460.4465, 0.0, 10.000351, 9.999331 
8.451124e+2, 2.5551465e+2, -270119.66, -439942.03, -7279.358, -0.021477565, -0.023211401, -269808.2, 166136.31, 0.0, 10.001509, 9.999265 
8.4512174e+2, 2.6551226e+2, -171943.13, -534969.5, -46212.016, -0.09673448, -0.09459507, -166152.84, 171815.77, 0.0, 10.002344, 9.9975395 
8.451312e+2, 2.7550882e+2, 15560.987, -385860.8, -9657.205, -0.08105098, -0.20971823, 15793.182, 255800.11, 0.0000000050987805, 10.002923, 9.997611 
8.4514195e+2, 2.855072e+2, 205046.16, -165001.42, 74322.65, -0.032666586, -0.16692816, 219415.6, 361440.13, 0.0000017149706, 10.003208, 9.998321 
8.4515375e+2, 2.9550683e+2, 295091.13, -74403.63, 70373.37, 0.049739268, -0.05370249, 308040.47, 352068.5, 0.0000255943, 10.003172, 9.998283 
8.4516484e+2, 3.0550483e+2, 244404.7, -152338.33, 83931.59, 0.08827062, -0.042998254, 261429.97, 261429.97, 0.000114907256, 10.002817, 9.997593 
8.451739e+2, 3.1550327e+2, 294912.88, 104948.65, 77904.125, -0.060224704, 0.02007726, 322774.78, 322774.78, 0.00028673265, 10.00212, 9.999696 
8.549674e+2, 1.2549604e+2, -1878451.5, -1624442.3, -31890.74, -0.05124873, -0.39556986, -1620499.5, 89620.25, 0.0, 9.99811, 10.001529 
8.5498077e+2, 1.355017e+2, -1775397.3, -1550999.0, 30907.133, 0.06229618, 0.028093744, -1546819.9, 65251.523, 0.0, 9.998303, 10.001261 
8.54991e+2, 1.4550285e+2, -1731064.3, -1571978.5, -21941.604, -0.039740693, 0.06442427, -1569007.8, -54944.887, 0.0, 9.998306, 10.000444 
8.550017e+2, 1.5550162e+2, -1635495.9, -1471468.3, -44181.363, -0.059037294, -0.12050245, -1460325.0, -44250.9, 0.0, 9.998276, 10.000475 
8.550124e+2, 1.6550183e+2, -1542323.3, -1341536.5, -51945.547, -0.06836273, -0.15969914, -1328893.8, -10822.933, 0.0, 9.998099, 10.00078 
8.5502315e+2, 1.7550302e+2, -1485158.9, -1255797.8, -12824.022, -0.06738678, -0.13517883, -1255083.0, -35025.36, 0.0, 9.99779, 10.000842 
8.55034e+2, 1.8550423e+2, -1353135.1, -1139063.6, 3664.6301, -0.056633078, -0.098967336, -1139000.9, -16957.203, 0.0, 9.998011, 10.000863 
8.550448e+2, 1.9550529e+2, -1157915.6, -1004314.9, 30105.107, -0.042834632, -0.09148579, -998625.2, 25405.66, 0.0, 9.998717, 10.000775 
8.5505605e+2, 2.0550528e+2, -1094422.0, -1134301.8, 45567.883, -0.043586563, -0.06887278, -1064622.3, -138589.52, 0.0, 9.999393, 9.99889 
8.550676e+2, 2.1550418e+2, -899863.6, -979001.75, 13131.098, -0.0584826, -0.082277246, -897741.7, -69692.97, 0.0, 10.000008, 9.998984 
8.5507894e+2, 2.2550339e+2, -719627.1, -727571.56, -34078.945, -0.049135935, -0.11201765, -689289.6, 40767.793, 0.0, 10.000094, 9.999991 
8.550901e+2, 2.3550276e+2, -664503.94, -653100.5, -12136.684, -0.019378664, -0.18606178, -645392.94, -13332.127, 0.0, 9.999806, 9.999971 
8.551015e+2, 2.455024e+2, -539182.56, -614386.94, 38715.043, -0.038562004, -0.1843109, -522814.56, 11248.81, 0.0, 10.000302, 9.999326 
8.5511327e+2, 2.55502e+2, -278738.5, -440183.9, 40503.715, -0.095810704, -0.1739701, -269146.72, 166921.06, 0.0, 10.001428, 9.999306 
8.551243e+2, 2.6550162e+2, -112011.53, -390185.03, -31447.121, -0.092288375, -0.10084469, -108500.79, 229573.17, 0.0, 10.002258, 9.998576 
8.5513467e+2, 2.7550128e+2, 69749.22, -252529.56, 17731.947, -0.044304833, -0.005185713, 70721.9, 310803.78, 0.0000001292932, 10.002834, 9.998571 
8.551452e+2, 2.8550032e+2, 204091.55, -152701.31, 68407.56, -0.04153517, 0.04816067, 216757.63, 358850.63, 0.0000031613251, 10.003146, 9.998433 
8.551559e+2, 2.9549834e+2, 297842.03, -58000.207, 73497.36, -0.07170508, -0.004840007, 312424.9, 356535.97, 0.000030116835, 10.003117, 9.998426 
8.5516685e+2, 3.0549547e+2, 303775.8, -7843.5786, 51337.77, -0.0047842995, -0.14088106, 312015.6, 312015.6, 0.0001273879, 10.002751, 9.998606 
8.5517645e+2, 3.154955e+2, 317156.66, 182466.08, 67699.61, -0.036854096, -0.018751297, 345302.88, 345302.88, 0.00031292182, 10.002012, 10.000272 
8.649654e+2, 1.2548365e+2, -1843718.6, -1601240.4, -15677.303, -0.06408793, -0.38806698, -1600231.0, 110010.77, 0.00000000000000000000885557, 9.998325, 10.001577 
8.6497843e+2, 1.354889e+2, -1912364.9, -1607775.3, -60396.508, 0.057789907, -0.02078425, -1596236.5, 15959.154, 0.0, 9.997303, 10.001362 
8.6498886e+2, 1.4549018e+2, -1877541.3, -1621799.1, -70511.48, -0.024750348, 0.016519884, -1603646.6, -89460.75, 0.0, 9.997223, 10.000619 
8.650001e+2, 1.554895e+2, -1658814.6, -1463394.6, -30325.598, -0.029364513, -0.13011004, -1458796.8, -42603.117, 0.0, 9.99804, 10.000642 
8.650109e+2, 1.6549024e+2, -1480071.6, -1279781.0, -32389.533, -0.032736044, -0.13967408, -1274673.4, 43512.242, 0.0, 9.998388, 10.001062 
8.650215e+2, 1.7549197e+2, -1388629.6, -1183144.5, -47259.734, -0.033414826, -0.08852174, -1172796.3, 47370.26, 0.0, 9.998335, 10.001078 
8.650326e+2, 1.8549302e+2, -1256805.6, -1110252.0, -34638.074, -0.031173063, -0.06932212, -1102477.8, 19675.775, 0.0, 9.99875, 10.000702 
8.6504406e+2, 1.9549344e+2, -1056364.4, -972685.94, -69138.55, -0.026208803, -0.10990919, -933712.7, 90433.836, 0.0, 9.999496, 10.000614 
8.6505586e+2, 2.0549318e+2, -1056415.9, -1107594.1, -42717.816, -0.0097347675, -0.1088458, -1032209.25, -106058.94, 0.0, 9.999625, 9.998953 
8.650679e+2, 2.1549214e+2, -1016679.3, -1030605.4, -7684.1987, 0.012638186, -0.12116212, -1013272.6, -185107.9, 0.0, 9.999194, 9.999018 
8.650792e+2, 2.254913e+2, -766938.5, -770786.94, -8300.88, -0.010148562, -0.14787579, -760341.7, -30167.96, 0.0, 9.999853, 9.999812 
8.6509013e+2, 2.354905e+2, -447359.53, -565831.44, -37097.527, -0.066335626, -0.22247095, -436701.8, 195477.4, 0.0, 10.001375, 9.999811 
8.651019e+2, 2.454901e+2, -365764.97, -513059.66, -10091.219, -0.086007595, -0.22461109, -365076.8, 169106.02, 0.0, 10.001421, 9.999477 
8.651143e+2, 2.554898e+2, -435130.8, -495110.78, -8722.011, -0.07783364, -0.21610941, -433888.22, 2298.6619, 0.0, 10.00027, 9.999484 
8.65126e+2, 2.654901e+2, -329313.6, -415117.5, -42020.484, -0.045820083, -0.12058825, -312163.1, 26022.736, 0.0000000005766255, 10.000413, 9.999292 
8.651374e+2, 2.7549085e+2, -58674.395, -238216.08, -30002.018, 0.010871366, 0.009338839, -53793.64, 186387.78, 0.000000514823, 10.001614, 9.999256 
8.65148e+2, 2.8549013e+2, 45561.184, -259162.27, -22868.154, -0.025298478, 0.068575814, 47267.78, 189457.56, 0.0000054394536, 10.00218, 9.998172 
8.6515796e+2, 2.9548782e+2, 156201.66, -149668.13, -53051.902, -0.12626489, 0.0064595197, 165141.98, 209354.05, 0.000035908153, 10.002247, 9.998216 
8.6516964e+2, 3.054841e+2, 378992.28, -19712.492, -105149.78, -0.034401268, -0.18361582, 405023.7, 405023.7, 0.00014004746, 10.003455, 9.99819 
8.651809e+2, 3.1548336e+2, 743861.7, 284081.47, -206412.9, 0.044433538, -0.092473656, 822930.7, 822930.7, 0.0003371157, 10.005381, 9.999345 
8.7496275e+2, 1.2547411e+2, -1920338.5, -1775556.4, -76343.94, -0.19855325, -0.13287838, -1742738.8, -32401.49, 0.0000000055054987, 9.998383, 10.000354 
8.749749e+2, 1.3547362e+2, -1978326.5, -1744342.9, -91718.53, -0.042087957, -0.2343897, -1712676.1, -100329.46, 0.0, 9.997305, 10.000418 
8.749856e+2, 1.4547476e+2, -1799074.3, -1465794.8, -45173.715, -0.0939309, -0.22274408, -1459780.3, 54557.082, 0.0, 9.997247, 10.001681 
8.74998e+2, 1.5547821e+2, -1582586.6, -1306957.5, 5296.846, -0.061339647, -0.066884324, -1306855.8, 109447.36, 0.0, 9.998053, 10.001707 
8.750093e+2, 1.654797e+2, -1495752.0, -1316635.5, -40911.56, -0.05295713, -0.040168136, -1307733.4, 10553.693, 0.0, 9.998402, 10.000806 
8.750197e+2, 1.7547949e+2, -1404792.0, -1225085.0, -41924.34, -0.061444014, -0.15475181, -1215785.6, 4501.419, 0.0, 9.998367, 10.000776 
8.750314e+2, 1.8547934e+2, -1318739.9, -1235033.4, -11970.965, -0.034765653, -0.19764955, -1233355.0, -111068.2, 0.0, 9.998734, 9.999853 
8.7504417e+2, 1.9547896e+2, -1111237.1, -1079886.3, -36838.453, 0.02065268, -0.2369747, -1055526.8, -31237.758, 0.0, 9.999464, 9.999894 
8.750557e+2, 2.0547892e+2, -990221.06, -952076.9, -65013.176, -0.00015181737, -0.23584656, -903396.06, 22892.674, 0.0, 9.999549, 10.000058 
8.7506616e+2, 2.1547912e+2, -953698.75, -887430.1, -15420.022, -0.09061378, -0.2346455, -884017.75, -55730.684, 0.0, 9.99914, 10.000028 
8.7507814e+2, 2.2547933e+2, -822986.5, -873932.3, 42842.023, -0.115007624, -0.16719091, -798616.56, -68329.875, 0.0, 9.999793, 9.999134 
8.750915e+2, 2.3547934e+2, -503476.47, -663113.8, 22448.053, -0.08318777, -0.09442805, -500379.9, 131909.52, 0.0, 10.0012865, 9.999188 
8.751038e+2, 2.4547893e+2, -359368.66, -479969.5, -58954.91, -0.054421183, -0.0833712, -335337.44, 198957.0, 0.0, 10.001336, 9.999744 
8.7511504e+2, 2.5547802e+2, -426082.25, -461058.06, -41239.46, -0.032059833, -0.16162156, -398775.97, 37526.563, 0.0, 10.000206, 9.999746 
8.751269e+2, 2.6547772e+2, -303005.75, -358061.06, -1873.8077, -0.00857992, -0.16279548, -302942.06, 35362.8, 0.0000000691861, 10.000397, 9.999695 
8.7513924e+2, 2.754777e+2, -43481.74, -190431.56, 18486.81, 0.015132353, -0.14837554, -41191.72, 199112.47, 0.000001269736, 10.001542, 9.99962 
8.7515014e+2, 2.8547695e+2, 1019.57965, -342885.72, -29456.932, -0.043032046, -0.079586096, 3524.4448, 145836.77, 0.000008255043, 10.00214, 9.997619 
8.751599e+2, 2.9547524e+2, 107743.72, -242853.95, -40896.5, -0.1709438, -0.02447027, 112451.01, 156781.95, 0.000042714033, 10.002209, 9.9976 
8.75173e+2, 3.054707e+2, 249865.52, -269238.13, -30134.89, -0.055568334, -0.18289374, 251609.05, 251609.05, 0.00015286829, 10.003386, 9.996501 
8.7518674e+2, 3.1546706e+2, 555993.44, -77031.14, -110745.6, 0.054670386, -0.20593208, 574808.8, 574808.8, 0.0003572186, 10.00526, 9.996919 
8.8496065e+2, 1.2546314e+2, -2042629.4, -1833269.6, -95279.266, -0.19852053, -0.0027247795, -1796400.9, -85950.836, 0.00000006865043, 9.997539, 10.000369 
8.8497233e+2, 1.3546151e+2, -1854853.6, -1679251.0, -39179.06, -0.0647772, -0.22482508, -1670906.3, -58438.496, 0.0, 9.998121, 10.000476 
8.8498294e+2, 1.4546229e+2, -1710345.5, -1424367.6, 27929.844, -0.1053322, -0.24894544, -1421665.4, 92794.414, 0.0, 9.9978695, 10.001663 
8.8499546e+2, 1.5546584e+2, -1718492.0, -1380052.6, -20361.188, -0.06604159, -0.07990462, -1378832.0, 37591.605, 0.0, 9.997145, 10.001646 
8.850074e+2, 1.6546728e+2, -1620168.3, -1393526.3, -65245.188, -0.033239473, -0.04784894, -1376085.8, -57677.58, 0.0, 9.997632, 10.000647 
8.8501906e+2, 1.7546698e+2, -1307610.0, -1194846.3, -74076.03, -0.0035217628, -0.15216227, -1158135.9, 62273.543, 0.0, 9.999118, 10.000622 
8.850309e+2, 1.8546666e+2, -1208830.4, -1189010.1, -19241.896, 0.008684466, -0.19980425, -1177276.3, -54865.03, 0.0, 9.999516, 9.999794 
8.8504314e+2, 1.9546607e+2, -1186754.5, -1120493.4, -386.94672, 0.0032387981, -0.2542825, -1120491.1, -96075.25, 0.0, 9.998967, 9.999854 
8.850548e+2, 2.0546614e+2, -1010063.1, -936538.9, -17592.45, -0.026928745, -0.2547558, -932546.3, -6132.4053, 0.0, 9.999299, 10.000287 
8.85066e+2, 2.1546668e+2, -766873.56, -772801.1, -41723.9, -0.073916495, -0.24158515, -728008.3, 100398.71, 0.0, 10.000313, 10.000252 
8.8507867e+2, 2.254669e+2, -725468.56, -830350.1, 30148.346, -0.07304666, -0.18104054, -717420.06, 12986.009, 0.0, 10.000483, 9.999097 
8.8509256e+2, 2.3546666e+2, -699716.56, -761760.94, 38660.586, -0.03397993, -0.12844735, -681170.44, -48758.637, 0.0, 9.999962, 9.999147 
8.8510484e+2, 2.454664e+2, -510862.25, -564542.0, -40184.508, -0.022343673, -0.09348148, -489378.5, 45037.297, 0.0, 10.000342, 9.999646 
8.851159e+2, 2.5546595e+2, -241410.13, -384412.88, -59521.54, -0.031733517, -0.11844188, -219877.84, 216542.16, 0.00000000006372724, 10.001517, 9.999645 
8.8512784e+2, 2.654651e+2, -112297.59, -306517.25, -36307.22, -0.025150944, -0.14779732, -105732.29, 232695.19, 0.00000025387644, 10.001891, 9.999324 
8.8514054e+2, 2.7546382e+2, -52981.465, -233307.31, -86364.06, -0.0020197968, -0.22477858, -18292.059, 222147.16, 0.0000021793016, 10.001652, 9.999269 
8.8515234e+2, 2.854628e+2, -547.5784, -331562.44, -118213.39, -0.027486466, -0.17011158, 37334.063, 179783.5, 0.000011106664, 10.002093, 9.997709 
8.851633e+2, 2.9546177e+2, 243408.25, -164499.5, -95934.02, -0.08751534, -0.056088187, 264844.1, 309304.8, 0.000049522223, 10.003098, 9.9977 
8.851773e+2, 3.0545777e+2, 264255.97, -282868.16, 19747.602, 0.033726033, -0.15503135, 264967.78, 264967.78, 0.00016466355, 10.00356, 9.996337 
8.8519156e+2, 3.1545335e+2, 244122.22, -288551.66, 33705.754, 0.10997613, -0.23566777, 246246.53, 246246.53, 0.00037254568, 10.003378, 9.996384 
8.949586e+2, 1.2545067e+2, -1958483.1, -1655989.1, -96582.21, -0.18721703, -0.004071464, -1627782.0, 82798.55, 0.00000033567557, 9.997539, 10.00158 
8.9497066e+2, 1.3545278e+2, -1776760.3, -1515059.9, -17827.611, -0.05811381, 0.029402865, -1513851.0, 98705.555, 0.00000000007521531, 9.99813, 10.001592 
8.949809e+2, 1.4545313e+2, -1783516.9, -1588974.8, -8450.938, -0.11764762, -0.034041513, -1588608.4, -74058.04, 0.0, 9.997913, 10.000518 
8.9499235e+2, 1.554525e+2, -1793086.6, -1541277.8, -36108.38, -0.10539569, -0.16562256, -1536202.3, -119648.055, 0.0, 9.9971695, 10.00053 
8.9500517e+2, 1.6545303e+2, -1626651.3, -1412632.6, -14554.742, -0.03762149, -0.16002384, -1411647.4, -93099.67, 0.0, 9.997652, 10.000505 
8.950192e+2, 1.7545442e+2, -1311801.8, -1206319.1, -14095.346, 0.08868668, -0.08717098, -1204468.1, 16065.602, 0.0, 9.999126, 10.000539 
8.950309e+2, 1.85455e+2, -1163361.9, -1089174.8, -46076.504, 0.047488935, -0.07889147, -1067116.1, 55410.758, 0.0, 9.99949, 10.000493 
8.950408e+2, 1.9545476e+2, -1146573.4, -1031487.7, -13107.469, -0.13725454, -0.16676049, -1030013.75, -5486.348, 0.0, 9.99894, 10.000479 
8.95053e+2, 2.0545477e+2, -1060159.9, -1027898.6, 13950.667, -0.14381346, -0.17005783, -1022702.75, -96176.92, 0.0, 9.999245, 9.999686 
8.9506716e+2, 2.1545483e+2, -817689.6, -857041.44, 117.08096, -0.0008271553, -0.14788014, -817689.25, 10834.991, 0.0, 10.000225, 9.999714 
8.9508057e+2, 2.2545409e+2, -701576.0, -762486.44, 3778.7893, 0.053820785, -0.18500255, -701342.5, 29188.424, 0.0, 10.000399, 9.999605 
8.9509314e+2, 2.3545255e+2, -676819.75, -698875.25, 27553.338, 0.021405669, -0.31499392, -658169.25, -25623.49, 0.0, 9.999894, 9.999613 
8.951051e+2, 2.4545254e+2, -546832.6, -631266.56, -3344.571, -0.04265463, -0.2530752, -546700.3, -12153.4795, 0.0, 10.000305, 9.9992075 
8.951165e+2, 2.5545365e+2, -288835.4, -460485.56, -11732.153, -0.13426888, -0.07918705, -288037.22, 148501.17, 0.0000000002378373, 10.001423, 9.999169 
8.9512867e+2, 2.6545247e+2, -198323.5, -471898.7, -51199.445, -0.14880452, -0.06158542, -189055.53, 149496.28, 0.00000030747992, 10.001833, 9.998216 
8.9514136e+2, 2.7544922e+2, -136957.19, -390420.8, -84431.92, -0.10107339, -0.22129989, -111407.35, 129178.05, 0.0000026197797, 10.001579, 9.998225 
8.951545e+2, 2.8544763e+2, 38863.633, -242460.81, -83909.76, -0.038035624, -0.2064386, 61990.02, 204590.58, 0.000013171274, 10.002055, 9.998341 
8.951679e+2, 2.954473e+2, 286083.8, -68946.77, -52231.813, 0.043108407, -0.089465834, 293608.63, 338210.3, 0.000055655084, 10.0030575, 9.998379 
8.9518225e+2, 3.0544522e+2, 342614.47, -97627.945, 8095.903, 0.1666145, -0.098371, 342763.28, 342763.28, 0.00017577781, 10.003479, 9.997641 
8.9519507e+2, 3.154413e+2, 311764.75, -119706.19, 46428.434, 0.093819365, -0.25966564, 316704.16, 316704.16, 0.0003866523, 10.003264, 9.997591 
9.049567e+2, 1.2543844e+2, -1973376.8, -1652008.6, -32563.781, -0.11590008, -0.02117066, -1648742.3, 61959.035, 0.0000010657902, 9.997386, 10.001688 
9.049684e+2, 1.3544135e+2, -1828406.0, -1531431.0, -58890.0, -0.072209775, 0.08366867, -1520179.5, 92489.0, 0.000000007369457, 9.997733, 10.001677 
9.049793e+2, 1.454416e+2, -1702358.6, -1595062.5, -45354.695, -0.104527704, 0.028169664, -1578459.9, -63797.2, 0.0, 9.99867, 10.000105 
9.049919e+2, 1.5543984e+2, -1378730.0, -1385095.9, -34002.62, -0.011031646, -0.17687912, -1347761.6, 68915.836, 0.0, 10.000206, 10.000134 
9.050047e+2, 1.6543989e+2, -1302545.6, -1257155.6, 11682.969, 0.044412058, -0.20051892, -1254325.0, 64350.313, 0.0, 9.999884, 10.000497 
9.0501755e+2, 1.7544128e+2, -1474512.6, -1283151.6, 7701.656, 0.07509589, -0.12686336, -1282842.1, -62181.137, 0.0, 9.998007, 10.000546 
9.050294e+2, 1.8544215e+2, -1386599.6, -1180059.6, -7939.085, 0.028335482, -0.09727929, -1179754.9, -57103.68, 0.0, 9.997887, 10.00064 
9.050404e+2, 1.954425e+2, -1090910.8, -992383.6, -24846.809, -0.08627431, -0.13992123, -986472.3, 38174.09, 0.0, 9.99926, 10.000599 
9.0505314e+2, 2.0544247e+2, -984238.75, -1016041.94, 11895.167, -0.08135019, -0.1408598, -980281.94, -53636.492, 0.0, 9.999871, 9.999466 
9.050674e+2, 2.1544194e+2, -889667.1, -918926.9, 8042.119, 0.023367913, -0.1550699, -887602.44, -58952.76, 0.0, 9.99984, 9.999477 
9.0508074e+2, 2.2544098e+2, -762915.56, -801191.0, -6409.0977, 0.05614, -0.19788127, -761870.9, -31212.373, 0.0, 10.000021, 9.999521 
9.050933e+2, 2.3543954e+2, -605326.5, -675377.0, -37824.15, 0.022907948, -0.3071484, -588801.44, 43871.05, 0.0, 10.000431, 9.999516 
9.051056e+2, 2.4543929e+2, -505833.3, -626536.75, -42038.992, -0.042129654, -0.25882906, -492635.0, 42040.71, 0.0, 10.000655, 9.999065 
9.051176e+2, 2.5543988e+2, -395640.22, -528328.6, -44067.883, -0.13642475, -0.12344951, -382338.13, 54333.31, 0.0, 10.000758, 9.999021 
9.051301e+2, 2.6543868e+2, -341502.97, -570633.5, -45690.715, -0.14155106, -0.08562486, -332727.88, 5957.5957, 0.0000002007212, 10.000983, 9.997948 
9.051432e+2, 2.7543584e+2, -186424.66, -442190.1, -31279.078, -0.06383262, -0.17753366, -182654.9, 58061.84, 0.0000025589381, 10.001357, 9.997978 
9.0515673e+2, 2.8543392e+2, 4367.087, -253675.63, 12827.248, 0.00043913777, -0.18411869, 5003.1587, 147738.27, 0.000014749117, 10.001795, 9.998393 
9.0517074e+2, 2.9543284e+2, 174435.27, -112073.0, -13519.747, 0.05869308, -0.14934228, 175071.83, 219814.61, 0.00006245814, 10.002256, 9.998466 
9.0518534e+2, 3.0543175e+2, 242492.42, -98102.414, -22440.932, 0.181567, -0.08349253, 243964.63, 243964.63, 0.00018870574, 10.002581, 9.998073 
9.051982e+2, 3.1542897e+2, 253872.69, -77636.29, -62641.402, 0.12738611, -0.17321977, 265314.4, 265314.4, 0.00040376265, 10.002563, 9.9982195 
9.149543e+2, 1.2542684e+2, -2033416.1, -1795238.1, -35599.5, -0.12883256, -0.0241859, -1790031.1, -79223.37, 0.000002613721, 9.997468, 10.000665 
9.1496533e+2, 1.3542725e+2, -1892616.5, -1668480.9, -39746.953, -0.16321601, -0.07209704, -1661641.1, -48837.914, 0.00000007607973, 9.997746, 10.00073 
9.149779e+2, 1.4542764e+2, -1680540.0, -1552520.4, 5919.5435, -0.13089818, -0.08145095, -1552247.3, -37449.574, 0.0, 9.998679, 10.000392 
9.14994e+2, 1.5542793e+2, -1354108.4, -1340335.9, 26201.842, 0.15874843, -0.112757005, -1320130.5, 96662.24, 0.0, 10.000231, 10.000429 
9.150058e+2, 1.6542797e+2, -1292557.5, -1239981.5, -66733.734, 0.15346925, -0.1591176, -1194544.6, 124245.27, 0.0, 9.9999, 10.000606 
9.1501397e+2, 1.7542766e+2, -1468187.8, -1272177.9, -52109.605, -0.09912297, -0.26456782, -1259185.6, -38395.453, 0.0, 9.9980135, 10.00062 
9.150261e+2, 1.854282e+2, -1414335.3, -1234852.0, 38093.348, -0.10588817, -0.25106424, -1227101.9, -104318.32, 0.0, 9.997874, 10.000271 
9.150416e+2, 1.9542937e+2, -1121959.9, -1047350.75, 31920.85, 0.09581482, -0.1749143, -1035557.75, -10785.406, 0.0, 9.999221, 10.00024 
9.15055e+2, 2.0542936e+2, -986869.06, -1008162.94, 5368.8765, 0.10088527, -0.16054861, -985592.0, -58820.453, 0.0, 9.999812, 9.999547 
9.150665e+2, 2.1542817e+2, -897959.1, -916749.8, 13706.653, -0.0586334, -0.24820618, -890736.9, -61955.273, 0.0, 9.99976, 9.999529 
9.150791e+2, 2.2542769e+2, -818050.0, -904800.7, 1562.5532, -0.11772946, -0.2123366, -818021.9, -87234.08, 0.0, 9.999969, 9.998838 
9.150927e+2, 2.3542766e+2, -660794.56, -774479.4, -16217.522, -0.086502865, -0.112232804, -658526.3, -25734.47, 0.0, 10.000362, 9.998868 
9.1510594e+2, 2.4542671e+2, -502074.9, -608119.5, -42773.563, -0.08520205, -0.11028667, -486972.75, 47828.598, 0.0, 10.000607, 9.999218 
9.151187e+2, 2.554248e+2, -394734.94, -510447.6, -32209.11, -0.1060871, -0.23825163, -386373.6, 50443.85, 0.0, 10.000687, 9.999181 
9.15132e+2, 2.6542383e+2, -310970.78, -498959.78, -36828.055, -0.06470824, -0.21068725, -304013.44, 34814.117, 0.00000011562638, 10.000946, 9.998458 
9.1514564e+2, 2.7542353e+2, -160301.06, -377933.63, -10376.79, 0.035168473, -0.100489, -159807.42, 81027.29, 0.0000025826089, 10.00131, 9.998445 
9.1515887e+2, 2.854216e+2, -37324.98, -329558.66, 23018.084, 0.021325273, -0.10666994, -35523.047, 107331.13, 0.000017159802, 10.001746, 9.997895 
9.151716e+2, 2.9541826e+2, 127394.586, -195159.2, 12415.426, -0.09077018, -0.24288136, 127871.766, 172756.27, 0.00007135739, 10.002186, 9.997932 
9.1518664e+2, 3.054174e+2, 196866.06, -165086.64, -23630.805, 0.03585961, -0.10910819, 198402.33, 198402.33, 0.00020552066, 10.002471, 9.99766 
9.152007e+2, 3.1541574e+2, 241696.7, -70819.14, -33166.34, 0.08452683, -0.051323198, 245177.77, 245177.77, 0.00042645857, 10.002434, 9.9983225 
9.249523e+2, 1.2541416e+2, -1917858.1, -1799989.3, -17115.203, -0.115770325, -0.117656074, -1797554.4, -86630.32, 0.0000053718704, 9.9985, 10.000137 
9.2496413e+2, 1.3541351e+2, -1738925.6, -1648442.1, -5698.403, -0.11807022, -0.22323352, -1648084.6, -35153.03, 0.00000033393198, 9.999025, 10.000254 
9.24977e+2, 1.4541405e+2, -1707300.0, -1554325.9, 55768.547, -0.074610315, -0.20107314, -1536153.5, -21227.105, 0.0, 9.998454, 10.000491 
9.249928e+2, 1.5541522e+2, -1800612.6, -1543904.5, 43158.977, 0.16999073, -0.15282233, -1536842.6, -119928.57, 0.0, 9.997123, 10.000529 
9.250047e+2, 1.654155e+2, -1607953.9, -1406444.8, -47235.43, 0.16078068, -0.17321843, -1395921.9, -77012.3, 0.0, 9.997793, 10.000479 
9.2501336e+2, 1.7541496e+2, -1162531.8, -1141476.9, -61351.816, -0.064280055, -0.2884711, -1089755.8, 131156.28, 0.0, 10.000183, 10.000472 
9.25026e+2, 1.854152e+2, -1000844.6, -1086490.3, 32805.49, -0.05563914, -0.27534145, -989723.1, 133185.63, 0.0, 10.000934, 9.999813 
9.2504185e+2, 1.9541593e+2, -1000808.0, -1034908.3, 3951.1338, 0.15006416, -0.19904143, -1000356.2, 24545.992, 0.0, 10.000259, 9.999818 
9.2505515e+2, 2.0541555e+2, -936000.5, -1000465.06, -24424.39, 0.121206366, -0.19450937, -927791.8, -886.4112, 0.0, 10.000231, 9.999402 
9.250663e+2, 2.1541405e+2, -759905.8, -866049.1, -43034.324, -0.10280304, -0.29799315, -744650.6, 84268.03, 0.0, 10.0007715, 9.9993925 
9.250791e+2, 2.2541362e+2, -669363.5, -852831.56, -28823.256, -0.1676479, -0.23893423, -664941.8, 65983.2, 0.0, 10.001076, 9.998658 
9.250934e+2, 2.3541398e+2, -550448.3, -740790.75, -24760.818, -0.09774659, -0.08239212, -547280.06, 85646.586, 0.0, 10.0012, 9.998697 
9.25107e+2, 2.4541295e+2, -442815.84, -572322.8, -41366.867, -0.056973513, -0.0842594, -430730.34, 104206.6, 0.0, 10.000983, 9.999286 
9.2512e+2, 2.5541055e+2, -409435.84, -506236.06, -47507.14, -0.03856006, -0.2671505, -390016.34, 46939.926, 0.0, 10.000544, 9.999277 
9.2513317e+2, 2.654096e+2, -352871.44, -519679.97, -37653.35, -0.019272408, -0.24649496, -344765.88, -5799.9, 0.00000007319143, 10.000655, 9.998461 
9.251466e+2, 2.754096e+2, -170738.48, -379329.94, -58246.613, 0.0095708575, -0.10332672, -155575.98, 85393.664, 0.0000027897247, 10.001223, 9.998476 
9.2515993e+2, 2.854078e+2, -71106.766, -310357.22, -8903.518, -0.0272387, -0.11523233, -70775.89, 72211.695, 0.000020180585, 10.001365, 9.998208 
9.25173e+2, 2.9540446e+2, -4705.6396, -226699.08, 25260.027, -0.116062604, -0.28431454, -1867.6514, 43149.813, 0.00008284934, 10.00114, 9.998219 
9.2518836e+2, 3.054036e+2, 34828.11, -248834.13, 51187.85, 0.022897864, -0.16177706, 43782.477, 43782.477, 0.00022869528, 10.001356, 9.997628 
9.252028e+2, 3.1540224e+2, 182406.42, -57902.617, 51996.7, 0.08760741, -0.0722492, 193174.64, 193174.64, 0.0004606453, 10.00183, 9.998707 
9.3495023e+2, 1.2540008e+2, -1914672.6, -1787758.0, -14624.707, -0.20756716, -0.34224528, -1786094.5, -75041.2, 0.000009857008, 9.998491, 10.000218 
9.349645e+2, 1.3540033e+2, -1728212.4, -1634640.1, 14628.873, 0.0032403686, -0.36415508, -1632406.5, -19354.324, 0.0000009955157, 9.999071, 10.00032 
9.3497634e+2, 1.4540109e+2, -1710481.4, -1577248.8, -2459.1753, -0.00067962526, -0.314072, -1577203.4, -62157.38, 0.00000000002439963, 9.998516, 10.000308 
9.3498796e+2, 1.5540177e+2, -1813979.0, -1572768.0, 5777.283, -0.03638309, -0.29644102, -1572629.8, -155588.88, 0.0, 9.997122, 10.000336 
9.350011e+2, 1.6540249e+2, -1631130.1, -1451270.1, 34943.465, 0.0071073305, -0.24688877, -1444719.8, -125685.64, 0.0, 9.997784, 10.000174 
9.3501556e+2, 1.7540321e+2, -1184031.0, -1187187.6, 29916.984, 0.1223969, -0.20271903, -1155650.8, 65375.742, 0.0, 10.000192, 10.000154 
9.350288e+2, 1.8540318e+2, -1044297.5, -1172596.8, 2386.3225, 0.120446, -0.17108531, -1044253.1, 78773.21, 0.0, 10.0009165, 9.999233 
9.3504095e+2, 1.9540222e+2, -1047038.56, -1122271.8, -13537.293, 0.01565079, -0.20385852, -1044676.9, -19641.53, 0.0, 10.000222, 9.999238 
9.350535e+2, 2.0540105e+2, -962403.5, -1048267.2, -12088.832, -0.07709835, -0.23610285, -960733.94, -33687.46, 0.0, 10.000198, 9.999091 
9.350666e+2, 2.1539955e+2, -792017.2, -916717.6, -17190.75, -0.15998301, -0.30493617, -789690.75, 39369.887, 0.0, 10.000697, 9.999084 
9.3508047e+2, 2.2539887e+2, -661542.75, -814850.44, -28876.629, -0.15130797, -0.27421007, -656284.0, 74785.39, 0.0, 10.000984, 9.998962 
9.35095e+2, 2.3539864e+2, -545998.6, -709858.1, -13471.724, -0.06048886, -0.20606068, -544898.44, 88177.27, 0.0, 10.001104, 9.998958 
9.3510854e+2, 2.4539806e+2, -450414.34, -574487.06, -63535.83, -0.014834554, -0.17513521, -423651.44, 111430.4, 0.0, 10.000926, 9.999297 
9.351211e+2, 2.5539702e+2, -416258.2, -514144.34, -56794.19, 0.007565145, -0.22015536, -390227.9, 46861.266, 0.0, 10.000511, 9.999243 
9.351336e+2, 2.6539585e+2, -382281.38, -576832.75, -20169.158, -0.054763105, -0.19931686, -380212.44, -41111.313, 0.00000003612581, 10.000639, 9.998075 
9.3514603e+2, 2.753943e+2, -203918.3, -436111.94, -28384.998, -0.1857526, -0.17399131, -200498.67, 40620.75, 0.0000027030533, 10.001169, 9.998113 
9.351597e+2, 2.8539276e+2, -3194.993, -158639.69, -19991.523, -0.19630514, -0.196719, -665.0862, 142468.13, 0.000022488803, 10.001322, 9.9992695 
9.3517447e+2, 2.9539126e+2, 62480.28, -83477.586, 26390.248, -0.09481295, -0.28720826, 67105.27, 112247.984, 0.000095232324, 10.0011215, 9.999213 
9.3519026e+2, 3.053902e+2, 50319.414, -206161.98, 62940.684, 0.066240735, -0.2470137, 64932.508, 64932.508, 0.0002574787, 10.001316, 9.997938 
9.35204e+2, 3.1538814e+2, 214842.39, 39558.93, 95940.45, 0.0035460591, -0.2630164, 257145.42, 257145.42, 0.0005076133, 10.001707, 9.9994335 
9.4494945e+2, 1.2538716e+2, -1923792.9, -1749071.0, -63877.484, -0.113216534, -0.33794063, -1728208.6, -17028.643, 0.000016753027, 9.998238, 10.000614 
9.449637e+2, 1.3538808e+2, -1818087.0, -1640628.5, -42647.582, 0.057579562, -0.3279245, -1630911.4, -17740.033, 0.000002343361, 9.998294, 10.000659 
9.4497514e+2, 1.4538905e+2, -1656726.9, -1545240.1, -42524.633, 0.0146488985, -0.27465346, -1530871.6, -15709.518, 0.0000000053592455, 9.998864, 10.000353 
9.44986e+2, 1.5538935e+2, -1386001.1, -1366319.0, -30206.191, -0.09484325, -0.2993344, -1344391.3, 72768.39, 0.0, 10.000054, 10.000338 
9.449997e+2, 1.6538984e+2, -1305637.5, -1335218.3, 54488.59, -0.025694383, -0.25535208, -1263967.6, 55187.74, 0.0, 10.000189, 9.999814 
9.4501615e+2, 1.753904e+2, -1320630.6, -1290707.3, 31992.617, 0.2034803, -0.1925894, -1270350.6, -49200.52, 0.0, 9.999414, 9.999817 
9.4502974e+2, 1.8538985e+2, -1257924.9, -1306354.1, 2355.4895, 0.19471957, -0.18384077, -1257810.5, -134655.42, 0.0, 9.999587, 9.99895 
9.4504094e+2, 1.953881e+2, -1010461.75, -1137150.5, -850.16174, -0.021564642, -0.26716226, -1010456.06, 14715.045, 0.0, 10.000613, 9.998946 
9.4505364e+2, 2.0538686e+2, -887942.5, -1025312.2, 23896.21, -0.11324981, -0.28414345, -883904.3, 43278.965, 0.0, 10.000772, 9.998967 
9.4506764e+2, 2.15386e+2, -874875.25, -964203.1, 18965.81, -0.09163316, -0.2815022, -871015.3, -41822.414, 0.0, 10.000172, 9.999003 
9.450816e+2, 2.2538541e+2, -801435.0, -853949.1, 30418.244, -0.07400927, -0.2500558, -787508.7, -56308.406, 0.0, 9.999902, 9.999217 
9.450956e+2, 2.3538487e+2, -697978.44, -751922.3, 31830.258, -0.05417911, -0.23847151, -683229.3, -50021.863, 0.0, 9.999933, 9.999228 
9.45109e+2, 2.4538422e+2, -529433.6, -661380.44, -11270.102, -0.0364813, -0.20633125, -528477.9, 6737.1826, 0.0, 10.000587, 9.998866 
9.45122e+2, 2.553833e+2, -258654.16, -478622.75, -44123.223, -0.011341368, -0.19808483, -250133.58, 187090.72, 0.0, 10.001771, 9.998877 
9.45135e+2, 2.65382e+2, -128274.19, -445478.38, 2829.5154, -0.058951728, -0.17949146, -128248.945, 210988.89, 0.000000027783642, 10.002342, 9.998157 
9.45148e+2, 2.7538007e+2, -20357.764, -336982.03, 16482.758, -0.15868032, -0.20007, -19502.021, 221755.22, 0.000002329391, 10.002387, 9.998205 
9.4516176e+2, 2.8537843e+2, 78532.06, -180711.69, -30928.19, -0.16247226, -0.20840111, 82170.77, 225443.33, 0.000023981273, 10.002143, 9.99873 
9.4517595e+2, 2.9537705e+2, 90319.7, -123515.21, -109523.93, -0.07676274, -0.23373394, 136460.52, 181744.72, 0.000106754764, 10.001551, 9.99873 
9.4519114e+2, 3.0537564e+2, 68727.65, -156619.25, -87215.07, 0.034866497, -0.22241248, 98538.49, 98538.49, 0.00028782972, 10.001269, 9.99831 
9.4520473e+2, 3.153741e+2, 180457.11, 80770.4, -59313.227, -0.06619513, -0.22063008, 208089.03, 208089.03, 0.00056174357, 10.00121, 9.999973 
9.549494e+2, 1.253758e+2, -1874948.9, -1657438.9, -72821.875, 0.019733673, -0.07762801, -1635309.6, 75991.21, 0.00002677623, 9.99829, 10.001209 
9.549614e+2, 1.3537689e+2, -1781524.6, -1558653.6, -36367.402, -0.009275507, -0.11199503, -1552869.5, 60418.445, 0.0000047533053, 9.998273, 10.001226 
9.549732e+2, 1.4537787e+2, -1639851.8, -1509049.6, -4772.688, -0.08556129, -0.09831329, -1508875.8, 6399.557, 0.000000046136613, 9.998856, 10.000608 
9.5498633e+2, 1.5537801e+2, -1362721.4, -1329490.1, 17895.92, -0.0794672, -0.16114637, -1321685.6, 95584.664, 0.0, 10.000102, 10.00057 
9.550002e+2, 1.6537765e+2, -1325953.3, -1386850.9, 18617.46, -0.0067508877, -0.19497299, -1320712.6, -1440.4196, 0.0, 10.000228, 9.999441 
9.5501494e+2, 1.7537665e+2, -1346406.8, -1346486.6, 11227.916, 0.12578472, -0.25241974, -1335218.8, -113936.914, 0.0, 9.999422, 9.999432 
9.550287e+2, 1.853753e+2, -1254332.5, -1301431.8, 34801.004, 0.111208566, -0.30376893, -1235861.9, -112568.06, 0.0, 9.999596, 9.9989805 
9.5504165e+2, 1.9537355e+2, -1011662.3, -1134298.4, 41516.582, -0.028032392, -0.38947698, -998929.5, 26379.84, 0.0, 10.000589, 9.998979 
9.5505524e+2, 2.05373e+2, -888972.75, -1018114.3, -5962.6455, -0.044249967, -0.3439198, -888698.0, 38617.727, 0.0, 10.00073, 9.999039 
9.550693e+2, 2.1537331e+2, -882444.75, -963020.0, 3204.2349, 0.045289524, -0.2292981, -882317.5, -53001.516, 0.0, 10.000096, 9.99905 
9.550825e+2, 2.253732e+2, -792157.8, -819305.8, 24749.1, 0.008307808, -0.16479886, -777504.7, -46186.64, 0.0, 9.999838, 9.999484 
9.550949e+2, 2.3537253e+2, -693548.7, -730310.3, 40312.43, -0.13266417, -0.19111976, -667624.4, -34300.832, 0.0, 9.999873, 9.999411 
9.551082e+2, 2.4537131e+2, -591015.25, -775187.0, 28017.393, -0.18196873, -0.18555824, -586847.4, -51509.574, 0.0, 10.000534, 9.998106 
9.5512253e+2, 2.5536942e+2, -321663.88, -593633.7, 4903.5337, -0.14516312, -0.19741903, -321575.5, 115785.67, 0.0, 10.0017, 9.998121 
9.5513725e+2, 2.6536795e+2, -102770.11, -372435.25, 1180.6283, -0.07826723, -0.18445587, -102764.94, 236611.25, 0.000000030362223, 10.002263, 9.998693 
9.551523e+2, 2.7536663e+2, -1379.0565, -281855.5, 25460.23, 0.015438874, -0.19616315, 913.3574, 242299.05, 0.000002140531, 10.00232, 9.998617 
9.551655e+2, 2.8536463e+2, -65099.47, -468512.78, -58033.55, -0.0027037086, -0.16246794, -56916.945, 86490.59, 0.000025889522, 10.0021, 9.99677 
9.5517725e+2, 2.9536194e+2, -45868.87, -403214.72, -121390.06, -0.113682695, -0.12240605, -8533.55, 36906.707, 0.000117742304, 10.001533, 9.996818 
9.55191e+2, 3.0536008e+2, 93630.766, -90451.875, -85790.99, -0.11120655, -0.08628874, 127413.52, 127413.52, 0.00031737162, 10.001218, 9.998787 
9.552045e+2, 3.1536028e+2, 192536.25, 136828.22, -31467.084, -0.2377372, 0.03827804, 206706.33, 206706.33, 0.0006187058, 10.001084, 10.000418 
9.6494836e+2, 1.2536265e+2, -1900961.4, -1671142.6, -33760.72, 0.103794985, -0.029692197, -1666285.9, 45144.95, 0.000040530904, 9.998102, 10.001212 
9.649596e+2, 1.3536316e+2, -1838123.4, -1580072.8, -66745.125, 0.00908664, -0.12598939, -1563831.3, 49591.035, 0.000008656152, 9.997856, 10.001281 
9.6497184e+2, 1.4536396e+2, -1771250.4, -1552027.8, -1037.1418, -0.046936333, -0.14332706, -1552022.9, -36613.14, 0.00000019058375, 9.997873, 10.000785 
9.6498626e+2, 1.5536414e+2, -1615236.5, -1430070.9, 218.32837, -0.00212752, -0.22021616, -1430070.6, -12668.717, 0.0, 9.998294, 10.000746 
9.6500033e+2, 1.6536358e+2, -1513516.9, -1522662.1, -14018.08, 0.030609505, -0.26005927, -1503344.5, -183938.9, 0.0, 9.999137, 9.999033 
9.6501404e+2, 1.753622e+2, -1235513.9, -1337752.6, -34378.02, 0.05308288, -0.31523705, -1225029.4, -3608.2705, 0.0, 10.00037, 9.999037 
9.6502805e+2, 1.8536104e+2, -1074380.4, -1184947.1, 13498.523, 0.039997578, -0.34271702, -1072756.3, 50675.723, 0.0, 10.000701, 9.999253 
9.650423e+2, 1.9535995e+2, -1040235.75, -1117883.0, 26000.234, 0.0012280851, -0.39011458, -1032333.75, -6893.3955, 0.0, 10.000261, 9.999251 
9.650564e+2, 2.0535949e+2, -916652.4, -1032777.9, -7061.8135, 0.013159456, -0.34647837, -916224.5, 11221.154, 0.0, 10.000562, 9.999011 
9.650703e+2, 2.1535945e+2, -670841.3, -862490.3, -19087.053, 0.06856941, -0.26544318, -668958.9, 160490.83, 0.0, 10.001565, 9.999026 
9.650833e+2, 2.2535916e+2, -497777.03, -684323.1, -10108.796, 0.012243491, -0.21357937, -497230.84, 234222.06, 0.0, 10.0018835, 9.999431 
9.650955e+2, 2.3535855e+2, -441913.44, -607843.1, -25683.992, -0.13236251, -0.23150451, -438028.78, 195427.81, 0.0, 10.001601, 9.999416 
9.651091e+2, 2.4535728e+2, -476147.28, -725648.25, 13889.384, -0.18471202, -0.22898206, -475376.47, 60094.51, 0.0, 10.001346, 9.998059 
9.6512395e+2, 2.553553e+2, -407573.66, -636960.9, 31647.908, -0.1435591, -0.24381296, -403287.38, 34208.27, 0.0, 10.001129, 9.998096 
9.651391e+2, 2.6535392e+2, -220849.33, -429374.66, 43660.14, -0.07257615, -0.22158879, -212077.0, 127433.63, 0.000000012060779, 10.001441, 9.998703 
9.651545e+2, 2.753528e+2, -22341.594, -290816.38, 19292.969, 0.023403034, -0.21294443, -20962.262, 220556.8, 0.0000023356135, 10.002167, 9.99863 
9.651681e+2, 2.853507e+2, 37360.504, -451851.63, -14720.307, 0.0020582061, -0.17296745, 37803.035, 181345.31, 0.000028869204, 10.002941, 9.996479 
9.651799e+2, 2.9534772e+2, 256513.75, -291790.53, 25289.453, -0.106848516, -0.13497868, 257677.7, 303256.03, 0.00012890252, 10.00376, 9.996511 
9.6519285e+2, 3.0534533e+2, 279206.0, -61656.504, 33768.79, -0.12314059, -0.109144464, 282519.22, 282519.22, 0.00034520676, 10.002747, 9.998248 
9.6520495e+2, 3.1534562e+2, -26357.031, -50961.996, -2697.6921, -0.22819154, 0.07361882, -26064.729, -26064.729, 0.0006746552, 9.999946, 9.999665 
9.7494584e+2, 1.2534747e+2, -1927629.8, -1734382.3, -58045.832, 0.006516435, -0.21440078, -1718287.5, -6715.335, 0.000058506626, 9.998138, 10.000756 
9.7495794e+2, 1.3534692e+2, -1861541.8, -1635787.6, -75242.42, 0.04651538, -0.37281358, -1613008.3, 565.81396, 0.00001444443, 9.997889, 10.000879 
9.7497106e+2, 1.4534739e+2, -1759123.3, -1537160.0, 7573.839, 0.06537855, -0.4096338, -1536901.9, -21337.334, 0.0000005546723, 9.997913, 10.000871 
9.749856e+2, 1.5534773e+2, -1609392.1, -1422849.6, 23730.543, 0.08913645, -0.47713476, -1419878.1, -2323.8904, 0.0, 9.99831, 10.000791 
9.749996e+2, 1.6534764e+2, -1542652.1, -1583212.8, 23748.117, 0.03746939, -0.44927, -1531703.3, -212147.66, 0.0, 9.999138, 9.998617 
9.750134e+2, 1.7534709e+2, -1260056.9, -1391818.5, 13253.181, -0.06854791, -0.37985864, -1258737.0, -37169.285, 0.0, 10.000382, 9.99866 
9.750278e+2, 1.8534708e+2, -1036078.4, -1105746.3, -8594.496, -0.07368202, -0.3041062, -1035033.75, 88535.555, 0.0, 10.000701, 9.999797 
9.7504276e+2, 1.9534732e+2, -1009832.94, -1047216.5, 17552.35, 0.010700585, -0.27003074, -1002883.56, 22680.137, 0.0, 10.000229, 9.999753 
9.75057e+2, 2.0534644e+2, -931213.9, -1057157.3, 23721.873, 0.0057564573, -0.2862851, -926894.0, 678.206, 0.0, 10.000528, 9.998863 
9.7507054e+2, 2.1534437e+2, -692742.2, -893418.25, 22619.53, -0.07599033, -0.390216, -690224.2, 139370.31, 0.0, 10.001495, 9.998853 
9.75084e+2, 2.253433e+2, -527702.06, -728008.94, -27213.766, -0.119462036, -0.39554805, -524070.63, 207534.22, 0.0, 10.001807, 9.999164 
9.7509736e+2, 2.3534295e+2, -475717.44, -654867.5, -30719.549, -0.121941105, -0.3594964, -470596.25, 163010.03, 0.0, 10.001501, 9.999141 
9.7511137e+2, 2.4534218e+2, -438585.47, -635234.75, -1276.7649, -0.10412154, -0.32581463, -438577.2, 97036.83, 0.0, 10.001291, 9.998706 
9.751259e+2, 2.5534087e+2, -371207.63, -553428.44, 30282.732, -0.07178223, -0.3407806, -366306.8, 71321.99, 0.0, 10.001089, 9.998692 
9.751404e+2, 2.6533973e+2, -259806.6, -495384.9, 65666.93, -0.099948704, -0.29878223, -242738.67, 96903.914, 0.0000000034767167, 10.001384, 9.998273 
9.751548e+2, 2.753386e+2, -61305.39, -352170.63, 54024.52, -0.1810174, -0.2514232, -51595.184, 190061.97, 0.0000028342504, 10.002085, 9.998246 
9.7516924e+2, 2.8533673e+2, 112404.08, -274852.72, 11448.458, -0.18478146, -0.23350866, 112742.23, 256419.03, 0.000032313746, 10.002856, 9.997735 
9.751836e+2, 2.953342e+2, 321102.3, -131081.16, 60818.617, -0.12841167, -0.2739888, 329139.56, 374840.72, 0.00013997531, 10.003649, 9.997669 
9.751962e+2, 3.0533114e+2, 158931.11, -291143.7, -75390.7, -0.07532662, -0.29193306, 171223.84, 171223.84, 0.00037147623, 10.002664, 9.996711 
9.752058e+2, 3.153302e+2, -157913.98, -323427.34, -82466.586, -0.17221738, -0.07650448, -123839.99, -123839.99, 0.00072747667, 9.9999485, 9.997787 
9.8494315e+2, 1.2533326e+2, -2002451.4, -1764390.1, 579.1984, -0.04349753, -0.32677472, -1764388.8, -52682.0, 0.00008108169, 9.997602, 10.000809 
9.849569e+2, 1.3533358e+2, -1741306.1, -1575104.6, -8194.376, 0.115825616, -0.40384609, -1574701.6, 38998.586, 0.000022462764, 9.998696, 10.00091 
9.849707e+2, 1.453339e+2, -1606776.0, -1529836.5, 74118.26, 0.17814952, -0.42530206, -1484799.3, 30893.688, 0.0000013019285, 9.999235, 10.000285 
9.8498464e+2, 1.5533333e+2, -1484199.1, -1424566.8, 26501.277, 0.11098179, -0.5308144, -1414491.5, 3202.2195, 0.0, 9.999433, 10.000236 
9.849988e+2, 1.6533309e+2, -1463168.8, -1524948.4, 59027.14, 0.026256885, -0.4987018, -1427437.4, -107740.664, 0.0, 9.999604, 9.998789 
9.850135e+2, 1.7533311e+2, -1340572.0, -1409044.1, 78982.44, -0.058115095, -0.38979617, -1288724.8, -67022.32, 0.0, 9.999751, 9.99884 
9.85028e+2, 1.8533327e+2, -1153169.9, -1165951.9, 33683.805, -0.07070464, -0.30412847, -1125276.1, -1573.3347, 0.0, 9.999911, 9.999764 
9.8504245e+2, 1.9533338e+2, -1035145.2, -1062016.4, 5473.495, -0.029603874, -0.2825044, -1034073.06, -8372.714, 0.0, 10.000063, 9.999733 
9.850569e+2, 2.0533267e+2, -966334.7, -1045517.44, 45502.266, -0.035170022, -0.29221636, -945610.75, -17904.291, 0.0, 10.0001545, 9.999131 
9.8507136e+2, 2.1533112e+2, -868369.06, -947022.8, 64309.38, -0.07599004, -0.37421554, -832314.94, -2593.4604, 0.0, 10.000157, 9.999129 
9.850853e+2, 2.2532965e+2, -732458.75, -874160.75, 28792.14, -0.09897932, -0.41080803, -726832.0, 4903.4346, 0.0, 10.000599, 9.998746 
9.85099e+2, 2.3532814e+2, -516194.8, -716334.8, 4263.167, -0.09611377, -0.449095, -516104.03, 117645.766, 0.0, 10.001401, 9.998769 
9.85113e+2, 2.4532743e+2, -337920.9, -539083.44, 22949.316, -0.08776138, -0.41344362, -335336.0, 200420.36, 0.0, 10.001786, 9.999124 
9.8512733e+2, 2.5532722e+2, -231537.63, -442911.28, 24488.578, -0.07537741, -0.3586937, -228737.6, 209020.23, 0.0, 10.0018635, 9.999076 
9.851417e+2, 2.6532617e+2, -245765.69, -537187.56, 68896.484, -0.11292456, -0.30419514, -230298.45, 109473.07, 0.00000001775074, 10.001683, 9.997849 
9.851564e+2, 2.7532429e+2, -210122.84, -466249.63, 44836.64, -0.1807193, -0.2890135, -202500.72, 39296.375, 0.000003544514, 10.001241, 9.997876 
9.851713e+2, 2.8532282e+2, -77440.47, -266765.56, 13256.634, -0.16977516, -0.26085114, -76516.74, 67295.96, 0.00003520851, 10.001118, 9.9986315 
9.8518634e+2, 2.9532158e+2, 35538.63, -173651.38, 24423.865, -0.09442844, -0.2585689, 38352.38, 84172.914, 0.00014919741, 10.001272, 9.998522 
9.851991e+2, 3.0531836e+2, 165748.78, -306109.6, -69721.12, -0.0490063, -0.32881156, 175835.08, 175835.08, 0.00039500848, 10.002781, 9.996551 
9.85209e+2, 3.15316e+2, 609208.5, -4739.367, 483.58542, -0.11892177, -0.23994687, 609208.9, 609208.9, 0.00077431643, 10.005411, 9.997361 
9.9493986e+2, 1.2532023e+2, -1961600.6, -1688603.5, 29325.277, -0.17040686, -0.36060554, -1685488.9, 26344.201, 0.000108580556, 9.997644, 10.001308 
9.949564e+2, 1.3532326e+2, -1704295.8, -1502978.5, 35102.926, 0.17490382, -0.21871005, -1497033.4, 116766.44, 0.000033028722, 9.998719, 10.001394 
9.9497074e+2, 1.4532365e+2, -1693290.5, -1713854.6, 71383.57, 0.23953366, -0.18902268, -1631452.3, -115658.23, 0.0000026281716, 9.999249, 9.999018 
9.949831e+2, 1.55321e+2, -1558380.8, -1590242.1, 39352.973, -0.0029250816, -0.3786309, -1531856.3, -114036.71, 0.00000000019976186, 9.999476, 9.99908 
9.949977e+2, 1.6532e+2, -1407708.6, -1412587.1, 57868.066, -0.06672336, -0.40918294, -1352228.4, -32399.658, 0.0, 9.9996195, 9.999551 
9.9501437e+2, 1.7532025e+2, -1287488.9, -1304807.4, 90085.83, 0.035223752, -0.3497808, -1205647.0, 16178.309, 0.0, 9.999773, 9.999546 
9.9502873e+2, 1.8531963e+2, -1197119.8, -1255689.8, 31710.963, -0.0060634785, -0.34511563, -1183240.0, -59407.367, 0.0, 9.999906, 9.999151 
9.9504125e+2, 1.9531809e+2, -1076148.0, -1144097.8, 15621.034, -0.17443849, -0.4279395, -1072729.0, -46878.563, 0.0, 10.000048, 9.999178 
9.9505585e+2, 2.0531821e+2, -924003.8, -945083.75, 37747.953, -0.16199937, -0.36417693, -895352.0, 32496.553, 0.0, 10.000103, 9.999844 
9.950724e+2, 2.1531965e+2, -833602.56, -854538.94, 70789.52, 0.012367132, -0.21813014, -772511.4, 57319.598, 0.0, 10.000071, 9.999806 
9.950872e+2, 2.2531822e+2, -783262.0, -955161.75, 53210.242, 0.023135172, -0.25676343, -768124.25, -36279.734, 0.0, 10.000499, 9.998236 
9.951003e+2, 2.3531415e+2, -564746.6, -793950.75, 39554.953, -0.112864316, -0.50132394, -558112.44, 75774.45, 0.0, 10.001307, 9.998279 
9.9511397e+2, 2.4531302e+2, -332975.16, -516238.5, 19083.268, -0.18834391, -0.49324006, -331009.13, 204888.9, 0.0, 10.001727, 9.999311 
9.95128e+2, 2.5531435e+2, -230548.25, -423731.38, 33310.32, -0.20731181, -0.30455357, -224965.9, 212916.98, 0.0, 10.001783, 9.9992485 
9.9514306e+2, 2.6531327e+2, -288432.9, -608669.9, 47446.355, -0.16208209, -0.23857082, -281551.13, 58345.984, 0.000000028595345, 10.001613, 9.99739 
9.95159e+2, 2.7530992e+2, -250964.16, -534185.9, 37746.707, -0.06280658, -0.32471564, -246019.73, -4080.9963, 0.000003781716, 10.001173, 9.997439 
9.95174e+2, 2.853089e+2, -40169.805, -182943.5, 14237.575, -0.029131064, -0.25685468, -38763.86, 105186.49, 0.000036350866, 10.001084, 9.999226 
9.951881e+2, 2.9530987e+2, 79959.99, -79156.58, 41430.05, -0.057666887, -0.09592813, 90101.04, 136037.27, 0.00015454051, 10.001261, 9.999177 
9.9520165e+2, 3.0530694e+2, 231695.86, -153428.44, 26243.313, -0.085927784, -0.22506443, 233475.92, 233475.92, 0.00041140616, 10.002719, 9.997625 
9.9521387e+2, 3.1530282e+2, 628925.7, 105135.14, 110413.03, -0.19449955, -0.41699666, 651248.94, 651248.94, 0.00080724823, 10.005129, 9.998246 
1.0049386e+3, 1.253067e+2, -2048651.6, -1759970.6, 56384.83, -0.026457045, -0.38215524, -1749348.5, -37387.543, 0.00014134821, 9.997183, 10.001037 
1.0049544e+3, 1.3530955e+2, -1699366.4, -1525297.1, -22287.77, 0.10859376, -0.2373826, -1522488.6, 91443.12, 0.000046426092, 9.998869, 10.001162 
1.0049694e+3, 1.4530998e+2, -1655467.5, -1715972.4, 2385.6123, 0.16985714, -0.18175344, -1655373.6, -139445.84, 0.00000474816, 9.999618, 9.9988165 
1.0049828e+3, 1.5530775e+2, -1555851.6, -1611386.6, 27794.836, 0.020480987, -0.30415618, -1544330.6, -126379.44, 0.000000004412824, 9.999603, 9.998872 
1.0049977e+3, 1.6530672e+2, -1407422.9, -1364639.6, 72424.89, -0.013616477, -0.34867254, -1310513.3, 9446.72, 0.0, 9.999406, 9.999993 
1.0050139e+3, 1.753066e+2, -1365693.9, -1293076.6, 69302.06, 0.056232657, -0.37157708, -1251147.9, -29190.498, 0.0, 9.999025, 9.9999895 
1.0050283e+3, 1.85306e+2, -1309122.3, -1302198.1, 57416.848, 0.0093116695, -0.38879797, -1248139.0, -124175.67, 0.0, 9.9991045, 9.999217 
1.0050414e+3, 1.9530484e+2, -1142067.4, -1168129.9, 79063.55, -0.13755386, -0.44164518, -1074968.4, -48990.105, 0.0, 9.999568, 9.999241 
1.0050562e+3, 2.0530485e+2, -894904.6, -925893.94, 114786.1, -0.14379258, -0.3964546, -794572.1, 133405.19, 0.0, 10.000281, 9.9998865 
1.0050727e+3, 2.153057e+2, -668813.75, -771497.25, 83987.39, -0.026879009, -0.3128797, -621718.44, 208245.6, 0.0, 10.0011835, 9.99984 
1.0050878e+3, 2.2530465e+2, -672553.0, -909236.06, 61700.973, -0.008762184, -0.31376135, -657433.94, 74540.49, 0.0, 10.001292, 9.998171 
1.00510165e+3, 2.3530173e+2, -659434.44, -848754.06, 67795.65, -0.075454056, -0.43509856, -637660.9, -3653.528, 0.0, 10.000691, 9.998201 
1.00511536e+3, 2.4530049e+2, -510268.97, -627267.8, 62066.6, -0.15736136, -0.42135698, -483478.03, 52542.54, 0.0, 10.00061, 9.999089 
1.0051289e+3, 2.5530064e+2, -360156.16, -505927.03, 33518.883, -0.24689865, -0.3295838, -352818.13, 85199.38, 0.0, 10.000983, 9.999067 
1.00514434e+3, 2.6529935e+2, -265269.03, -549911.1, 77312.984, -0.18484333, -0.29863963, -245625.34, 94407.055, 0.000000017098808, 10.001579, 9.997804 
1.0051614e+3, 2.752966e+2, -53180.168, -396500.38, 117219.74, 0.008822231, -0.36582878, -16975.75, 225089.33, 0.000003428396, 10.002353, 9.997814 
1.0051766e+3, 2.852956e+2, 143539.89, -148830.73, 89596.586, 0.059811413, -0.29066822, 168812.13, 312888.44, 0.00003625069, 10.002577, 9.998741 
1.0051904e+3, 2.9529607e+2, 196765.34, -76204.62, 25448.81, -0.00714376, -0.13190486, 199117.66, 245187.1, 0.00015742959, 10.002279, 9.998712 
1.0052042e+3, 3.0529335e+2, 136991.81, -161590.16, -11182.367, -0.058486793, -0.23168103, 137410.03, 137410.03, 0.00042159262, 10.0019, 9.997967 
1.0052176e+3, 3.1528932e+2, 93575.01, -135562.69, -6964.276, -0.13639845, -0.4536575, 93786.484, 93786.484, 0.0008274677, 10.001361, 9.998406 
1.014939e+3, 1.252928e+2, -2116738.5, -1912756.3, 101810.83, 0.26177558, -0.3974006, -1870637.5, -158548.23, 0.0001798155, 9.997221, 9.999973 
1.0149508e+3, 1.3529247e+2, -1757167.5, -1661718.6, 43814.58, -0.15319154, -0.46834674, -1644656.1, -30560.393, 0.000062927356, 9.998927, 10.0002 
1.0149665e+3, 1.4529291e+2, -1597253.4, -1604014.3, -6505.3877, -0.09996793, -0.40700024, -1593302.6, -77208.75, 0.000007860604, 9.999653, 9.99957 
1.01498365e+3, 1.5529363e+2, -1503307.4, -1508148.8, 32349.096, 0.12712963, -0.30753034, -1473288.5, -55200.168, 0.000000028517778, 9.999626, 9.999571 
1.0149986e+3, 1.652934e+2, -1394185.5, -1342544.1, 49686.836, 0.13009778, -0.3118416, -1312369.4, 7720.2813, 0.0, 9.999426, 10.000135 
1.01501204e+3, 1.7529222e+2, -1347057.6, -1265103.0, 61457.824, -0.04710258, -0.45830032, -1232214.3, -10116.097, 0.0, 9.999064, 10.000164 
1.0150267e+3, 1.8529242e+2, -1257592.4, -1194475.5, 67405.11, -0.07870036, -0.44130746, -1151606.9, -27511.727, 0.0, 9.999101, 9.999958 
1.01504266e+3, 1.9529365e+2, -1099187.9, -1069858.3, 101643.99, 0.019852044, -0.32758474, -981826.6, 44257.363, 0.0, 9.999523, 9.999938 
1.01505764e+3, 2.0529258e+2, -950275.75, -1022821.75, 141968.63, -0.041840214, -0.39049074, -840019.5, 88073.06, 0.0, 10.000207, 9.999256 
1.0150718e+3, 2.1528935e+2, -720600.2, -863056.7, 120851.89, -0.24696508, -0.6527072, -651547.9, 178572.11, 0.0, 10.001117, 9.999242 
1.0150868e+3, 2.2528894e+2, -659791.44, -861633.2, 31033.96, -0.2421377, -0.579249, -655127.56, 76997.305, 0.0, 10.001204, 9.998539 
1.0151028e+3, 2.3529087e+2, -646976.06, -803797.06, 52309.477, -0.0470877, -0.2539698, -631129.0, 2982.3708, 0.0, 10.0006075, 9.998549 
1.0151171e+3, 2.4528989e+2, -569577.2, -727184.56, 69212.09, -0.058958065, -0.19922344, -543498.4, -7374.585, 0.0, 10.000518, 9.998445 
1.0151299e+3, 2.5528616e+2, -412500.0, -597292.94, 54296.676, -0.25831994, -0.43149996, -397727.28, 40433.77, 0.0, 10.000912, 9.998472 
1.0151455e+3, 2.652844e+2, -185354.1, -370061.75, 101321.2, -0.23536733, -0.48171234, -140612.28, 199565.27, 0.000000011022683, 10.001515, 9.999073 
1.01516366e+3, 2.752843e+2, 23371.543, -222459.67, 153591.38, -0.015457296, -0.41223025, 97175.42, 339352.03, 0.0000031084232, 10.002284, 9.999044 
1.0151792e+3, 2.8528297e+2, 23309.281, -380432.53, 71166.484, 0.05213256, -0.35365468, 35486.34, 179676.58, 0.000035475467, 10.002505, 9.997181 
1.0151927e+3, 2.952804e+2, 67016.08, -310888.84, 23344.46, -0.012359091, -0.34382412, 68452.69, 114670.68, 0.00015859005, 10.002141, 9.997159 
1.0152064e+3, 3.052778e+2, 101290.13, -217645.34, -30787.875, -0.03818074, -0.3369305, 104234.99, 104234.99, 0.00042792628, 10.001821, 9.997623 
1.01521984e+3, 3.1527558e+2, 41935.277, -218116.36, -6704.053, -0.07144341, -0.33863103, 42107.99, 42107.99, 0.0008405054, 10.001264, 9.997884 
1.0249382e+3, 1.2527782e+2, -1885850.6, -1833723.0, 18085.625, 0.37551507, -0.38011098, -1828062.8, -115826.68, 0.00022439056, 9.998944, 9.999685 
1.02494925e+3, 1.3527673e+2, -1919735.3, -1771631.9, -1844.0427, -0.1527377, -0.49576944, -1771609.0, -157358.03, 0.0000828242, 9.997944, 9.999925 
1.02496535e+3, 1.4527707e+2, -1810391.1, -1629933.8, -12940.502, -0.094240285, -0.46671188, -1629010.6, -112761.13, 0.000012107546, 9.997851, 10.00026 
1.0249826e+3, 1.5527858e+2, -1591826.8, -1473661.4, 11229.866, 0.12470835, -0.36132047, -1472603.6, -54369.23, 0.00000009714164, 9.998685, 10.000257 
1.0249978e+3, 1.6527903e+2, -1459858.4, -1374557.8, 14971.058, 0.12381921, -0.330425, -1372006.5, -51776.586, 0.0, 9.998978, 10.000129 
1.025011e+3, 1.7527851e+2, -1379639.6, -1279572.5, 974.1561, -0.044242825, -0.41093427, -1279563.0, -57327.7, 0.0, 9.998834, 10.000177 
1.02502584e+3, 1.8527906e+2, -1264758.0, -1153920.9, 18956.734, -0.05964652, -0.38033977, -1150768.3, -26539.39, 0.0, 9.998861, 10.000354 
1.0250421e+3, 1.9528036e+2, -1142674.5, -1044274.06, 16654.807, 0.04848291, -0.29759535, -1041531.56, -15317.801, 0.0, 9.999035, 10.000344 
1.0250577e+3, 2.0527926e+2, -1075273.5, -1099488.5, 91893.71, -0.0066121197, -0.3769728, -994693.1, -66470.5, 0.0, 9.999414, 9.999116 
1.0250728e+3, 2.152759e+2, -901646.4, -965954.44, 93450.36, -0.20068495, -0.6373455, -834973.0, -4719.0986, 0.0, 9.999939, 9.999106 
1.025088e+3, 2.2527544e+2, -712745.5, -844908.25, 11379.497, -0.21549012, -0.5809966, -711772.8, 20486.139, 0.0, 10.000654, 9.998918 
1.0251035e+3, 2.3527743e+2, -498152.53, -691313.44, 19250.777, -0.06987383, -0.28409135, -496252.63, 137989.34, 0.0, 10.001463, 9.998908 
1.0251179e+3, 2.4527647e+2, -448483.34, -704379.1, 49042.707, -0.06888039, -0.2300924, -439406.25, 96848.266, 0.0, 10.001508, 9.998123 
1.0251312e+3, 2.5527266e+2, -454171.22, -654359.8, 42488.703, -0.19886239, -0.4361811, -445526.56, -7231.5186, 0.0, 10.000785, 9.998143 
1.0251471e+3, 2.652711e+2, -276485.34, -407593.38, 103985.81, -0.18898657, -0.45616898, -219115.1, 121194.734, 0.00000001218603, 10.000844, 9.999143 
1.0251652e+3, 2.7527136e+2, -76243.6, -261618.08, 55205.375, -0.04970058, -0.3567326, -61048.69, 181254.13, 0.0000027111198, 10.001556, 9.9991255 
1.02518104e+3, 2.8526953e+2, -84048.29, -460800.28, -45115.336, 0.010322073, -0.3380347, -78721.14, 65599.38, 0.00003356273, 10.0019045, 9.996913 
1.0251948e+3, 2.952656e+2, 7456.4243, -368728.97, -18253.0, 0.0030095926, -0.4348702, 8340.008, 54702.184, 0.00015687123, 10.001863, 9.996894 
1.0252086e+3, 3.0526325e+2, 177993.56, -163129.11, 23496.97, -0.011494901, -0.39672405, 179604.45, 179604.45, 0.0004299211, 10.002283, 9.997772 
1.0252224e+3, 3.152619e+2, 313225.03, -75795.484, 54449.125, -0.036627747, -0.32925817, 320702.25, 320702.25, 0.000848036, 10.003076, 9.997989 
1.0349356e+3, 1.2526187e+2, -1844733.4, -1766470.3, -50805.848, 0.18051946, -0.32303107, -1741472.9, -29071.93, 0.00027553758, 9.999027, 10.000105 
1.03494935e+3, 1.3526244e+2, -1893793.5, -1714344.5, -36269.32, 0.058727607, -0.31190464, -1707291.1, -92894.7, 0.000106410545, 9.997938, 10.0003195 
1.0349656e+3, 1.4526261e+2, -1758900.6, -1527785.4, 9694.499, 0.12487418, -0.35215515, -1527379.4, -10986.012, 0.000017580353, 9.997869, 10.000956 
1.0349799e+3, 1.5526259e+2, -1537200.6, -1367893.5, 47239.07, -0.04525266, -0.47127816, -1355605.1, 62784.59, 0.00000023822265, 9.9987135, 10.000973 
1.0349947e+3, 1.6526365e+2, -1467084.5, -1393622.8, 1029.2048, -0.09033231, -0.40938526, -1393608.4, -73227.82, 0.0, 9.998997, 9.999989 
1.0350105e+3, 1.7526555e+2, -1391626.6, -1305880.9, 1455.4365, 0.0103465505, -0.2301838, -1305856.1, -83488.02, 0.0, 9.998838, 9.999996 
1.0350255e+3, 1.8526602e+2, -1262755.3, -1147095.4, 17587.496, 0.0055196113, -0.20003715, -1144480.1, -20116.781, 0.0, 9.998851, 10.000402 
1.0350398e+3, 1.9526504e+2, -1141221.1, -1037664.94, 26943.635, -0.101315886, -0.353991, -1031074.1, -4706.944, 0.0, 9.999017, 10.000398 
1.0350565e+3, 2.0526484e+2, -1059733.0, -1054587.5, 103384.34, -0.08442715, -0.36294517, -953743.9, -25376.121, 0.0, 9.999359, 9.999451 
1.0350752e+3, 2.1526517e+2, -885622.25, -919473.94, 119870.46, 0.048672453, -0.28759903, -781488.56, 48878.492, 0.0, 9.999877, 9.999456 
1.0350909e+3, 2.2526406e+2, -704249.75, -801372.25, 34719.684, 0.0064205173, -0.33253357, -693114.7, 39262.582, 0.0, 10.000546, 9.999267 
1.0351037e+3, 2.352615e+2, -487215.97, -649284.4, 54217.203, -0.20054144, -0.5261043, -470751.22, 163647.25, 0.0, 10.001377, 9.999239 
1.0351178e+3, 2.4526027e+2, -466369.97, -718422.94, 16394.906, -0.24139734, -0.5116222, -465308.03, 71104.12, 0.0, 10.0014105, 9.998074 
1.0351329e+3, 2.5526005e+2, -459428.72, -664364.8, 24704.846, -0.12524165, -0.35528284, -456492.63, -18072.19, 0.0, 10.000775, 9.998082 
1.03514895e+3, 2.6525927e+2, -354463.72, -560869.1, 124866.86, -0.10148107, -0.23773898, -295670.94, 44759.016, 0.00000000560088, 10.0008135, 9.998101 
1.0351658e+3, 2.7525786e+2, -164459.47, -418711.9, 91536.91, -0.16071437, -0.2050395, -134932.95, 107509.484, 0.0000022721786, 10.001451, 9.998095 
1.03518166e+3, 2.852553e+2, -32959.477, -335270.3, -49131.01, -0.13216771, -0.250315, -25175.232, 119291.27, 0.000031159278, 10.001818, 9.997817 
1.03519656e+3, 2.9525173e+2, 66262.36, -238698.27, -5817.144, -0.021105252, -0.40501165, 66373.28, 112874.59, 0.00015252481, 10.001826, 9.997807 
1.0352108e+3, 3.0524975e+2, 214032.66, -83571.93, 49335.508, -0.036637314, -0.40443572, 221998.06, 221998.06, 0.00042681675, 10.002268, 9.99832 
1.03522435e+3, 3.1524834e+2, 325142.25, -965.95886, 101083.47, -0.16881534, -0.3965599, 353933.16, 353933.16, 0.0008482349, 10.002879, 9.998589 
1.0449335e+3, 1.2524684e+2, -2007052.1, -1759569.8, 22232.29, 0.15337642, -0.26841685, -1757588.5, -45034.098, 0.0003338259, 9.997533, 10.00088 
1.0449484e+3, 1.3524821e+2, -1686612.6, -1534366.1, 62926.715, 0.12096364, -0.2521837, -1511724.5, 102813.42, 0.00013404706, 9.998995, 10.001054 
1.0449651e+3, 1.452485e+2, -1610167.1, -1455235.8, 99151.68, 0.24458075, -0.316704, -1406876.3, 109655.53, 0.000024406929, 9.998889, 10.000961 
1.0449785e+3, 1.5524839e+2, -1716787.3, -1452764.4, 64755.344, 0.016380213, -0.44563466, -1437737.5, -19207.99, 0.0000004785213, 9.997479, 10.000983 
1.04499355e+3, 1.6524929e+2, -1694584.3, -1519822.3, 37415.797, -0.039145656, -0.39325553, -1512148.8, -191625.78, 0.0, 9.997509, 9.999838 
1.04501e+3, 1.7525093e+2, -1391484.6, -1318700.8, 28190.219, 0.08278858, -0.22569422, -1309059.4, -86545.48, 0.0, 9.998899, 9.999872 
1.04502514e+3, 1.8525115e+2, -1133437.8, -1078502.6, 44957.945, 0.053212382, -0.21911271, -1053285.4, 71226.17, 0.0, 9.999713, 10.00046 
1.0450392e+3, 1.9524994e+2, -993730.9, -961346.75, 42865.23, -0.1135479, -0.39942494, -931717.3, 94799.02, 0.0, 10.000004, 10.000452 
1.0450563e+3, 2.0525023e+2, -943492.1, -994639.3, 121296.36, -0.0739542, -0.36144483, -845102.75, 83410.55, 0.0, 10.000147, 9.999481 
1.0450763e+3, 2.152517e+2, -845213.75, -892278.44, 100892.24, 0.15526769, -0.176739, -765145.8, 65359.44, 0.0, 10.000134, 9.999515 
1.04509205e+3, 2.2525102e+2, -770267.5, -765369.94, 18976.672, 0.10785879, -0.21010308, -748684.7, -16173.532, 0.0, 9.999795, 9.999878 
1.0451041e+3, 2.3524837e+2, -773500.7, -723019.9, 44575.92, -0.19128595, -0.4764373, -697034.4, -62503.78, 0.0, 9.999126, 9.99982 
1.0451185e+3, 2.452471e+2, -628864.06, -817583.94, 66009.195, -0.25422662, -0.48342857, -608067.56, -71524.555, 0.0, 10.000373, 9.997896 
1.04513526e+3, 2.5524697e+2, -99809.6, -507900.22, 50647.445, -0.09636662, -0.30242, -93617.77, 344932.4, 0.0, 10.0033245, 9.997925 
1.0451515e+3, 2.6524583e+2, 28709.158, -414412.53, 108363.94, -0.061764706, -0.19807126, 53789.652, 394352.94, 0.0000000009945924, 10.003616, 9.997757 
1.0451674e+3, 2.7524352e+2, -194820.45, -471497.25, 111773.8, -0.1343571, -0.21604837, -155308.1, 87276.0, 0.0000020282196, 10.0014, 9.997759 
1.0451831e+3, 2.852409e+2, -125583.734, -365147.78, 42195.496, -0.12304542, -0.2637181, -118368.94, 26240.172, 0.00002862002, 10.0011, 9.997965 
1.0451986e+3, 2.952379e+2, 183563.28, -159985.9, 14054.134, -0.029995091, -0.37913844, 184137.27, 230775.47, 0.00014590684, 10.00253, 9.998009 
1.0452133e+3, 3.0523634e+2, 347911.34, 18169.816, 24773.902, -0.054342266, -0.3638294, 349762.25, 349762.25, 0.0004167961, 10.003026, 9.998656 
1.04522705e+3, 3.1523454e+2, 305504.63, 36228.87, 35063.25, -0.16574076, -0.42656288, 309995.44, 309995.44, 0.0008355391, 10.002523, 9.999027 
1.0549314e+3, 1.2523279e+2, -1916551.4, -1571266.0, 34871.48, 0.1529868, -0.21785548, -1567779.5, 144915.98, 0.00039971265, 9.997544, 10.002156 
1.054946e+3, 1.3523413e+2, -1606244.3, -1368542.6, 121591.99, -0.031453416, -0.3212355, -1317363.6, 297310.22, 0.00016604259, 9.999005, 10.002184 
1.0549636e+3, 1.4523494e+2, -1654947.5, -1560109.5, 37359.434, 0.1957839, -0.35398996, -1547160.6, -30497.84, 0.000032768716, 9.998937, 10.00022 
1.0549785e+3, 1.5523608e+2, -1767461.5, -1564712.8, 18435.533, 0.2560759, -0.2781894, -1563050.1, -144397.42, 0.0000008393984, 9.997501, 10.000209 
1.05499364e+3, 1.6523603e+2, -1703003.8, -1535700.9, 82934.29, 0.21459922, -0.27848923, -1501557.4, -180901.5, 0.0, 9.997505, 9.999727 
1.0550094e+3, 1.7523466e+2, -1395036.1, -1332963.4, 84456.12, 0.1147806, -0.4021265, -1274021.5, -51348.973, 0.0, 9.998928, 9.999761 
1.0550248e+3, 1.8523444e+2, -1130043.3, -1067854.5, 48229.805, 0.028282074, -0.43683365, -1041564.44, 83108.695, 0.0, 9.9997015, 10.000537 
1.0550399e+3, 1.9523512e+2, -994339.9, -955431.6, 59479.957, -0.05250897, -0.43579456, -912305.1, 114355.37, 0.0, 9.999972, 10.000507 
1.0550569e+3, 2.0523557e+2, -973064.25, -1042507.7, 112972.29, -0.034391463, -0.37109178, -889598.25, 39060.074, 0.0, 10.000087, 9.999182 
1.0550757e+3, 2.1523562e+2, -873316.3, -937538.44, 105665.32, 0.073875345, -0.2969096, -794990.56, 35676.46, 0.0, 10.000074, 9.999234 
1.0550913e+3, 2.2523648e+2, -722857.1, -649064.8, -11954.17, 0.04575272, -0.20743865, -647176.56, 85483.11, 0.0, 9.999717, 10.000714 
1.0551041e+3, 2.352379e+2, -720224.1, -603579.06, 28364.756, -0.10542003, -0.15209411, -597047.3, 37592.08, 0.0, 9.999085, 10.00066 
1.0551198e+3, 2.4523687e+2, -659110.3, -865215.56, 169242.5, -0.17348158, -0.16087286, -564014.4, -27366.686, 0.0, 10.000307, 9.9976015 
1.05513796e+3, 2.552335e+2, -136262.42, -560186.44, 162854.55, -0.16819352, -0.27458736, -80924.04, 357759.4, 0.0, 10.003219, 9.99762 
1.05515465e+3, 2.6523075e+2, 30210.857, -380420.2, 20557.195, -0.121433765, -0.32932454, 31237.434, 371946.8, 0.000000000012280949, 10.00349, 9.998047 
1.0551699e+3, 2.752284e+2, -181988.56, -433387.78, 40548.457, -0.035544198, -0.38077134, -175610.28, 67117.52, 0.0000016155456, 10.001353, 9.998042 
1.0551853e+3, 2.8522623e+2, -163959.23, -443803.56, 88821.76, -0.028017884, -0.3706914, -138148.13, 6600.505, 0.000025303238, 10.001095, 9.997428 
1.0552007e+3, 2.9522398e+2, 132488.64, -249433.45, 75101.586, -0.08684876, -0.35552713, 146725.95, 193499.17, 0.000137169, 10.002456, 9.997435 
1.0552156e+3, 3.0522284e+2, 347749.1, 38068.703, 4346.8716, -0.13253774, -0.27719706, 347810.1, 347810.1, 0.00040068463, 10.002941, 9.998832 
1.05523e+3, 3.1522053e+2, 311170.44, 69534.7, 32196.404, -0.15364042, -0.41205266, 315386.8, 315386.8, 0.00081052736, 10.002432, 9.999303 
1.0649297e+3, 1.252182e+2, -1952750.4, -1592757.8, 69898.41, 0.24658611, -0.2506366, -1579662.3, 133175.73, 0.00047318285, 9.997303, 10.0021305 
1.0649441e+3, 1.352199e+2, -1887148.3, -1511065.8, 67522.65, -0.029569376, -0.31162402, -1499310.0, 115504.95, 0.00020250746, 9.997111, 10.002112 
1.06496215e+3, 1.4522073e+2, -1806148.6, -1642412.1, -37139.074, 0.20900479, -0.33195132, -1634381.9, -117577.25, 0.000042863663, 9.997944, 10.0001335 
1.0649779e+3, 1.552218e+2, -1434849.3, -1410020.1, -20143.174, 0.33376896, -0.25507477, -1398773.1, 20022.932, 0.0000013547858, 9.999815, 10.000151 
1.0649933e+3, 1.652218e+2, -1278782.9, -1310786.6, 101851.51, 0.28587243, -0.25502422, -1191683.9, 129114.016, 0.0, 10.000328, 9.999913 
1.06500864e+3, 1.7522073e+2, -1289321.6, -1260347.3, 111414.59, 0.12598285, -0.36770675, -1162481.9, 60328.13, 0.0, 9.999571, 9.999949 
1.0650244e+3, 1.852206e+2, -1189788.3, -1127811.0, 84340.6, 0.036547765, -0.38860387, -1068946.3, 55864.152, 0.0, 9.999415, 10.000267 
1.06504016e+3, 1.9522116e+2, -1038200.9, -1005688.56, 56986.27, -0.0060455347, -0.37322286, -962685.1, 64116.816, 0.0, 9.999791, 10.000252 
1.06505714e+3, 2.052214e+2, -981817.94, -1022554.94, 116740.125, -0.012813858, -0.328091, -883682.7, 45119.07, 0.0, 9.99992, 9.999401 
1.06507495e+3, 2.1522124e+2, -901798.9, -929953.75, 133407.95, 0.018920535, -0.29663217, -781727.7, 49082.59, 0.0, 9.999787, 9.999427 
1.06509104e+3, 2.2522202e+2, -661385.25, -673853.8, 8734.282, 0.016752155, -0.19870569, -656888.56, 75915.31, 0.0, 10.000371, 10.000232 
1.06510535e+3, 2.3522349e+2, -387947.97, -493263.2, -59772.188, -0.014521938, -0.08855615, -360946.7, 273839.0, 0.0, 10.001589, 10.000211 
1.06512174e+3, 2.4522248e+2, -466361.16, -703440.1, 91142.11, -0.06519593, -0.10683662, -435373.1, 101419.62, 0.0, 10.001333, 9.998219 
1.0651396e+3, 2.55219e+2, -606181.0, -721305.2, 135043.94, -0.13966504, -0.28699675, -516943.03, -78118.8, 0.0, 9.999703, 9.998209 
1.06515646e+3, 2.6521614e+2, -458123.47, -643852.0, 4526.6235, -0.115760215, -0.37160873, -458013.2, -117162.84, 0.0, 10.00025, 9.997802 
1.0651723e+3, 2.752137e+2, 2713.0684, -367311.75, -28310.768, 0.0081506325, -0.4149415, 4866.6045, 247739.05, 0.00000091217555, 10.002725, 9.997833 
1.065188e+3, 2.8521138e+2, 165936.1, -295806.0, 29527.81, 0.01865647, -0.39621422, 167816.69, 312711.13, 0.000020741376, 10.003421, 9.997321 
1.06520325e+3, 2.9520914e+2, 128393.48, -261519.67, 32883.28, -0.06986875, -0.37097374, 131147.23, 178065.31, 0.0001251533, 10.002477, 9.997336 
1.06521815e+3, 3.052079e+2, 232759.39, -81271.65, -33651.645, -0.13365714, -0.26862925, 236325.02, 236325.02, 0.0003777452, 10.002407, 9.998275 
1.0652327e+3, 3.1520504e+2, 373951.75, 59375.86, -84863.62, -0.14666286, -0.40448552, 395385.2, 395385.2, 0.00077367935, 10.00303, 9.998943 
1.0749278e+3, 1.252031e+2, -2035675.5, -1772021.9, 9636.195, 0.29621086, -0.36761475, -1771670.1, -58688.773, 0.00055371417, 9.99735, 10.000869 
1.0749423e+3, 1.3520554e+2, -1982996.5, -1706341.0, 62558.547, 0.07018294, -0.2193113, -1692852.6, -77891.98, 0.00024334127, 9.997103, 10.000772 
1.07496046e+3, 1.4520594e+2, -1758326.3, -1551028.0, 23766.371, 0.22398591, -0.24837977, -1548338.1, -31380.885, 0.00005483326, 9.997969, 10.0007515 
1.0749765e+3, 1.5520552e+2, -1384311.3, -1316731.5, 53916.81, 0.18680148, -0.38503498, -1286891.4, 132068.6, 0.000002073113, 9.999859, 10.000772 
1.07499205e+3, 1.652067e+2, -1243480.9, -1242315.4, 65529.164, 0.11933729, -0.32091036, -1177366.4, 143582.23, 0.0000000000166348, 10.000351, 10.000371 
1.07500784e+3, 1.7520915e+2, -1253477.6, -1194672.6, 89072.336, 0.06507953, -0.12822585, -1130275.4, 92650.86, 0.0, 9.999602, 10.000385 
1.0750238e+3, 1.8520962e+2, -1234960.9, -1216415.3, 90204.6, 0.021210356, -0.08113604, -1135008.1, -10084.678, 0.0, 9.999399, 9.999666 
1.07503995e+3, 1.9520809e+2, -1080412.1, -1088133.5, 75549.14, -0.027317028, -0.21446404, -1008625.1, 18314.795, 0.0, 9.999771, 9.999695 
1.07505664e+3, 2.0520778e+2, -942178.2, -929339.56, 102906.17, -0.057010803, -0.23086616, -832652.7, 96290.53, 0.0, 9.999869, 10.000068 
1.075074e+3, 2.1520844e+2, -868160.6, -842919.4, 134661.03, -0.06793108, -0.185946, -720288.8, 110646.9, 0.0, 9.999711, 10.000061 
1.0750909e+3, 2.2520764e+2, -797783.0, -935505.6, 47866.598, -0.03698981, -0.1865307, -782780.75, -49837.1, 0.0, 10.000278, 9.998481 
1.0751075e+3, 2.352054e+2, -517563.47, -743650.75, -8859.977, 0.032326974, -0.2748017, -517216.78, 117750.34, 0.0, 10.001509, 9.998529 
1.0751239e+3, 2.452041e+2, -376804.78, -501744.78, 25884.566, 0.019993918, -0.3094282, -371654.4, 165321.42, 0.0, 10.001265, 9.999638 
1.0751402e+3, 2.5520352e+2, -509673.2, -518324.38, 84244.43, -0.06904501, -0.34672678, -429643.38, 9329.402, 0.0, 9.999687, 9.999612 
1.075157e+3, 2.6520193e+2, -516921.66, -753809.06, 91019.5, -0.092797436, -0.33466047, -485988.44, -145001.72, 0.000000000031670343, 10.000199, 9.997072 
1.0751746e+3, 2.7519923e+2, -60684.074, -480283.2, 70870.625, -0.05702859, -0.32585052, -49037.25, 193980.56, 0.00000057346807, 10.002642, 9.997101 
1.0751909e+3, 2.851965e+2, 176966.81, -254965.08, -11703.106, -0.04036326, -0.33369398, 177283.67, 322329.1, 0.000016659129, 10.003348, 9.997635 
1.0752062e+3, 2.9519352e+2, 145858.88, -219868.34, 9889.231, -0.040954553, -0.4143527, 146126.08, 193197.42, 0.00011189467, 10.00245, 9.99764 
1.07522085e+3, 3.0519164e+2, 144444.42, -259015.73, -11303.517, -0.11811934, -0.32785097, 144760.86, 144760.86, 0.00035149738, 10.00239, 9.99706 
1.07523486e+3, 3.1518817e+2, 280895.4, -114546.5, -41106.758, -0.2630989, -0.4033772, 285123.3, 285123.3, 0.00073250505, 10.002948, 9.99779 
1.0849264e+3, 1.2518856e+2, -1963811.1, -1782942.4, -93490.43, 0.3855401, -0.30817786, -1743304.4, -30176.73, 0.00064071716, 9.998038, 10.000472 
1.08494066e+3, 1.3519046e+2, -1799827.0, -1668002.3, 41160.33, 0.13285528, -0.16210058, -1656206.0, -41091.863, 0.00028839763, 9.998573, 10.000334 
1.0849586e+3, 1.451908e+2, -1634560.9, -1458894.6, 64806.01, 0.2085043, -0.19034669, -1437574.3, 79537.695, 0.00006873226, 9.998693, 10.00103 
1.084975e+3, 1.5519056e+2, -1572654.3, -1377048.3, 46972.133, 0.13257843, -0.3362853, -1366353.3, 52758.47, 0.0000030594845, 9.998444, 10.001038 
1.08499125e+3, 1.6519187e+2, -1464612.6, -1320722.9, 17933.898, 0.08292433, -0.2822257, -1318521.4, 2576.2625, 0.000000000186287, 9.99871, 10.000624 
1.0850076e+3, 1.7519452e+2, -1251495.9, -1168927.9, 12614.093, 0.08881457, -0.0950954, -1167043.9, 56028.53, 0.0, 9.999509, 10.000609 
1.08502366e+3, 1.851951e+2, -1176608.0, -1221591.1, 39713.93, 0.055568337, -0.0311573, -1153458.9, -28389.422, 0.0, 9.99994, 9.999369 
1.0850398e+3, 1.951937e+2, -1067842.3, -1115278.5, 33274.88, -0.022772018, -0.1218278, -1050697.6, -23609.451, 0.0, 10.000004, 9.999394 
1.0850565e+3, 2.0519342e+2, -896843.25, -876842.75, 57229.28, -0.057304762, -0.13280247, -828746.56, 100344.07, 0.0, 10.000052, 10.000333 
1.08507395e+3, 2.1519399e+2, -797410.06, -783294.8, 43370.51, -0.054186404, -0.124465056, -746411.44, 84668.89, 0.0, 10.000085, 10.000288 
1.08509146e+3, 2.2519273e+2, -799834.5, -984670.06, 42718.16, -0.019868465, -0.16184834, -790439.3, -57347.53, 0.0, 10.000477, 9.998049 
1.08510904e+3, 2.3518965e+2, -592038.2, -828722.9, 64206.535, 0.04347263, -0.28519008, -575742.56, 59381.75, 0.0, 10.001207, 9.998095 
1.0851255e+3, 2.4518806e+2, -321836.7, -467646.84, 41446.496, 0.031417295, -0.33105746, -310879.0, 226257.16, 0.0, 10.001616, 9.9997015 
1.085141e+3, 2.5518772e+2, -214894.86, -367780.5, -10879.655, -0.050453454, -0.34958637, -214124.53, 225005.78, 0.0, 10.001691, 9.999678 
1.0851582e+3, 2.651866e+2, -238345.34, -578697.2, 79822.46, -0.07396718, -0.31048504, -220554.6, 120584.2, 0.000000020287489, 10.001929, 9.997439 
1.085177e+3, 2.7518466e+2, -93103.58, -456324.06, 122555.836, -0.043472573, -0.2660456, -55619.742, 187542.17, 0.0000009638229, 10.002245, 9.997454 
1.0851941e+3, 2.85182e+2, 78633.93, -320123.06, 22176.414, -0.023290865, -0.27536684, 79863.45, 225052.08, 0.000015514439, 10.002741, 9.997481 
1.0852095e+3, 2.9517856e+2, 261264.4, -176833.03, -8420.027, -0.0008062297, -0.38577083, 261426.17, 308645.75, 0.00010321646, 10.003307, 9.997517 
1.0852242e+3, 3.0517638e+2, 364575.1, -202404.75, 30172.287, -0.10283363, -0.30335975, 366176.22, 366176.22, 0.0003319706, 10.004128, 9.996609 
1.0852383e+3, 3.1517258e+2, 561593.56, -21141.191, 26387.393, -0.31368524, -0.3633249, 562786.0, 562786.0, 0.0007041168, 10.005082, 9.997393 
1.09492496e+3, 1.2517461e+2, -1920605.0, -1701995.1, -117588.67, 0.4137611, -0.0736891, -1650755.1, 62520.918, 0.000734217, 9.998078, 10.001006 
1.094939e+3, 1.3517492e+2, -1762832.8, -1598327.5, 65335.918, 0.09232536, -0.13950582, -1575536.0, 39737.61, 0.00033773432, 9.998602, 10.000799 
1.0949563e+3, 1.451755e+2, -1643062.5, -1481321.5, 49328.152, 0.09335269, -0.156535, -1467464.5, 49802.504, 0.0000845864, 9.998716, 10.000863 
1.0949734e+3, 1.5517694e+2, -1584961.6, -1403005.3, 45241.586, 0.11772015, -0.11453054, -1392377.3, 26873.803, 0.0000043925156, 9.998448, 10.000856 
1.09499045e+3, 1.6517743e+2, -1456022.8, -1312416.1, 40874.77, 0.12272701, -0.13773127, -1301597.0, 19647.295, 0.0000000006358386, 9.998744, 10.000668 
1.0950078e+3, 1.7517684e+2, -1240189.5, -1159053.4, 49729.027, 0.1454376, -0.27778953, -1135444.0, 87804.24, 0.0, 9.9995575, 10.000657 
1.0950242e+3, 1.8517713e+2, -1179018.3, -1224927.8, 35514.324, 0.087116584, -0.24333188, -1159686.0, -34438.04, 0.0, 9.999939, 9.999343 
1.0950397e+3, 1.951781e+2, -1076010.6, -1122456.3, 43042.582, -0.04629639, -0.09549518, -1050325.6, -23080.09, 0.0, 9.999963, 9.999364 
1.0950566e+3, 2.0517841e+2, -915543.06, -906319.5, 50467.637, -0.07148674, -0.038039487, -860253.4, 68990.16, 0.0, 10.000008, 10.000156 
1.09507486e+3, 2.1517801e+2, -815170.06, -806919.0, 50726.203, 0.007833966, -0.108090915, -760150.8, 71091.85, 0.0, 10.000025, 10.000158 
1.0950924e+3, 2.251773e+2, -758401.8, -880883.6, 63836.355, 0.016550012, -0.121474944, -731180.7, 2066.4368, 0.0, 10.000401, 9.998796 
1.0951095e+3, 2.351761e+2, -554789.8, -732632.5, 98932.46, -0.03900365, -0.13546742, -510689.94, 124568.72, 0.0, 10.001122, 9.9987955 
1.095126e+3, 2.4517423e+2, -421738.78, -653283.4, 37201.133, -0.09186887, -0.18223508, -415908.66, 121366.28, 0.0, 10.001522, 9.998471 
1.095142e+3, 2.5517166e+2, -304038.88, -542117.3, 789.3522, -0.13554682, -0.3049431, -304036.28, 135260.16, 0.0, 10.001641, 9.998505 
1.09515995e+3, 2.6517028e+2, -153441.3, -385039.53, 88249.29, -0.10746711, -0.30049524, -123647.24, 217658.27, 0.00000010014453, 10.001858, 9.998804 
1.0951797e+3, 2.7516988e+2, -3435.6338, -261950.48, 144188.05, -0.020622302, -0.23777667, 60950.11, 304255.25, 0.0000018004142, 10.002207, 9.998809 
1.0951973e+3, 2.8516775e+2, 29648.164, -411152.78, 33787.375, 0.0061758445, -0.22947766, 32222.926, 177548.5, 0.000016749296, 10.002693, 9.996881 
1.0952128e+3, 2.95164e+2, 210122.3, -271027.66, 20117.82, -0.017213553, -0.31414086, 210962.0, 258327.67, 0.000099959936, 10.003247, 9.996902 
1.09522805e+3, 3.0516186e+2, 364444.25, -176320.42, 60739.848, -0.1488495, -0.20755993, 371182.7, 371182.7, 0.00032156563, 10.0040245, 9.996835 
1.09524265e+3, 3.1515813e+2, 558386.6, -1909.8682, 74596.41, -0.41646254, -0.28243726, 568148.2, 568148.2, 0.0006902331, 10.004965, 9.997586 
1.1049226e+3, 1.2515916e+2, -1952442.4, -1701886.9, -103008.82, 0.39032358, 0.028469585, -1664975.5, 48458.273, 0.00083503575, 9.997791, 10.001138 
1.1049379e+3, 1.3515909e+2, -1732880.4, -1568147.5, 49123.613, 0.11719841, -0.09282391, -1554611.0, 60822.125, 0.0003918232, 9.998723, 10.00095 
1.1049549e+3, 1.4515983e+2, -1576538.3, -1442472.4, 14129.146, 0.08084483, -0.107469454, -1440999.5, 76424.88, 0.000102570426, 9.999143, 10.000924 
1.10497266e+3, 1.551615e+2, -1480175.6, -1343684.9, 14720.712, 0.17456986, -0.047665153, -1342115.3, 77290.836, 0.0000061708192, 9.999129, 10.000932 
1.1049901e+3, 1.6516195e+2, -1386095.4, -1286375.5, 57363.684, 0.18979846, -0.07530914, -1260231.4, 61168.844, 0.0000000015512864, 9.99926, 10.000596 
1.1050076e+3, 1.7516115e+2, -1235391.8, -1159462.6, 41606.785, 0.16623518, -0.23060685, -1141102.9, 82304.26, 0.0, 9.999612, 10.000622 
1.1050239e+3, 1.8516143e+2, -1205934.5, -1195239.3, 23143.143, 0.097235546, -0.21692704, -1176833.9, -51427.617, 0.0, 9.999564, 9.999731 
1.1050394e+3, 1.9516249e+2, -1167536.8, -1122234.1, 50734.016, -0.023982154, -0.099192634, -1089324.4, -61924.07, 0.0, 9.999145, 9.999759 
1.1050566e+3, 2.0516276e+2, -991951.7, -978665.94, 117314.93, -0.045705177, -0.047743566, -867805.94, 61592.063, 0.0, 9.9996395, 9.999838 
1.10507555e+3, 2.1516222e+2, -688286.8, -780398.9, 90304.31, 0.032921724, -0.09914434, -632972.06, 198427.95, 0.0, 10.001047, 9.999847 
1.10509336e+3, 2.2516167e+2, -607806.44, -775216.4, 62318.4, 0.03659414, -0.09708745, -587155.75, 146247.36, 0.0, 10.001295, 9.999085 
1.1051102e+3, 2.351609e+2, -635778.3, -739265.56, 49973.6, -0.030175883, -0.09470681, -615586.1, 19822.895, 0.0, 10.000437, 9.999074 
1.1051271e+3, 2.4515913e+2, -575730.75, -776443.6, 45302.563, -0.08119972, -0.12310103, -565979.4, -28554.533, 0.0, 10.000674, 9.998034 
1.10514395e+3, 2.551563e+2, -290610.63, -583383.6, 48728.305, -0.11177687, -0.22517711, -282713.44, 156737.42, 0.0, 10.00194, 9.998075 
1.1051621e+3, 2.6515445e+2, -59474.27, -341952.16, 102239.57, -0.10613374, -0.2505099, -26353.332, 315111.38, 0.00000018749917, 10.002515, 9.998783 
1.1051814e+3, 2.751533e+2, 16708.076, -256360.16, 42156.984, -0.06787936, -0.25534374, 23068.242, 266537.28, 0.0000025324416, 10.002375, 9.998766 
1.1051993e+3, 2.8515106e+2, -3540.544, -448969.3, -73642.68, -0.03815945, -0.24440816, 8319.028, 153809.98, 0.000018771152, 10.002573, 9.996672 
1.1052159e+3, 2.9514778e+2, 162662.44, -317705.63, -76777.414, -0.0053167497, -0.25888598, 174635.39, 222164.95, 0.00010053436, 10.003035, 9.996679 
1.10523194e+3, 3.0514607e+2, 299614.03, -184821.95, -1369.8213, -0.12553342, -0.1115077, 299617.9, 299617.9, 0.00031863083, 10.003452, 9.997064 
1.1052469e+3, 3.1514275e+2, 376821.06, -53258.094, -18151.127, -0.40459025, -0.16906144, 377585.75, 377585.75, 0.00068517454, 10.003564, 9.997902 
1.1149188e+3, 1.2514214e+2, -1973493.8, -1743806.6, -87371.64, 0.20177253, -0.03230979, -1714348.9, -747.7516, 0.000944546, 9.997801, 10.000836 
1.11493714e+3, 1.3514313e+2, -1752371.5, -1604860.5, 91069.39, 0.16364913, -0.01645298, -1561426.0, 54165.39, 0.00045159098, 9.998717, 10.000698 
1.1149547e+3, 1.4514388e+2, -1541782.9, -1385688.4, 5394.449, 0.115782894, -0.036774047, -1385502.1, 132080.75, 0.00012308804, 9.999199, 10.00129 
1.1149727e+3, 1.5514435e+2, -1449981.4, -1291030.3, 20063.352, 0.24083775, -0.1343265, -1288536.9, 131038.86, 0.000008505592, 9.999164, 10.001282 
1.1149899e+3, 1.6514555e+2, -1396759.1, -1315052.8, 61712.836, 0.22040847, -0.09263022, -1281896.0, 39668.234, 0.0000000033697685, 9.999287, 10.000387 
1.1150066e+3, 1.7514741e+2, -1247476.8, -1189280.4, 59842.504, 0.10027931, 0.04159339, -1151836.6, 71712.63, 0.0, 9.999629, 10.000413 
1.115023e+3, 1.8514791e+2, -1144541.6, -1071047.3, -1176.3383, 0.024933418, 0.04556711, -1071028.4, 54516.223, 0.0, 9.999578, 10.000575 
1.11503884e+3, 1.9514695e+2, -1112771.3, -1004511.2, 38990.418, -0.014020067, -0.12534572, -991930.56, 35620.797, 0.0, 9.999126, 10.000576 
1.1150565e+3, 2.0514655e+2, -1030984.6, -1053209.8, 159575.33, -0.034429625, -0.15648326, -882135.4, 47418.125, 0.0, 9.99961, 9.999339 
1.115076e+3, 2.1514651e+2, -737432.56, -862140.94, 148254.67, -0.034533832, -0.10876492, -638953.0, 192600.22, 0.0, 10.000957, 9.9993305 
1.1150943e+3, 2.2514574e+2, -630528.25, -803106.1, 22714.04, -0.02072716, -0.09445136, -627588.75, 105971.12, 0.0, 10.001215, 9.998932 
1.1151112e+3, 2.3514417e+2, -651750.06, -762190.6, 24539.123, 0.016987657, -0.1594009, -646543.1, -10968.933, 0.0, 10.00039, 9.99894 
1.1151288e+3, 2.4514283e+2, -565632.44, -740842.2, 86371.12, 0.0067227436, -0.15022132, -530214.6, 7370.6284, 0.0, 10.000612, 9.998307 
1.1151466e+3, 2.551416e+2, -281289.38, -553762.5, 102567.086, -0.046467435, -0.12205928, -246996.16, 192598.69, 0.0, 10.001894, 9.9983015 
1.11516446e+3, 2.6513898e+2, -161231.14, -541883.7, 88703.23, -0.13233796, -0.16461357, -141575.61, 200041.61, 0.00000020790911, 10.002462, 9.997437 
1.1151821e+3, 2.7513498e+2, -86710.836, -452638.44, 47579.563, -0.245098, -0.32486594, -80625.52, 163027.25, 0.0000030041272, 10.002291, 9.997458 
1.1152003e+3, 2.8513208e+2, -11674.317, -442201.3, -58177.46, -0.20634776, -0.3193362, -3951.2893, 141731.48, 0.000021469468, 10.002471, 9.996768 
1.11521885e+3, 2.9513007e+2, 168688.98, -302385.44, -44050.547, -0.02989916, -0.21727529, 172772.78, 220482.0, 0.00010455908, 10.00302, 9.996792 
1.1152358e+3, 3.0512908e+2, 309785.5, -156956.42, 1793.7211, -0.09267013, -0.011444648, 309792.4, 309792.4, 0.00032151054, 10.003427, 9.997266 
1.1152506e+3, 3.1512618e+2, 376211.63, -27390.209, 7243.3296, -0.42354494, -0.052222393, 376341.56, 376341.56, 0.0006861148, 10.003444, 9.998138 
1.124917e+3, 1.2512505e+2, -1927439.3, -1722681.8, -88941.13, 0.23219964, -0.061583098, -1689443.6, 24323.705, 0.0010643419, 9.998106, 10.000846 
1.1249363e+3, 1.35126e+2, -1957242.6, -1691993.6, 88987.11, 0.27933478, -0.060480393, -1664906.0, -49148.52, 0.00051804923, 9.997264, 10.000798 
1.1249529e+3, 1.4512673e+2, -1838126.0, -1572862.8, 26993.318, 0.11231469, -0.06750703, -1570143.8, -52393.355, 0.00014661087, 9.997363, 10.000889 
1.12497084e+3, 1.5512714e+2, -1574965.4, -1394970.5, -35336.984, 0.18353546, -0.13200745, -1388281.6, 31465.463, 0.00001150662, 9.998498, 10.000889 
1.1249883e+3, 1.6512856e+2, -1482825.3, -1347963.4, -23102.572, 0.17463443, -0.052824657, -1344115.6, -22380.082, 0.0000000061074554, 9.998661, 10.000463 
1.1250055e+3, 1.7513083e+2, -1484574.3, -1292225.6, -14368.818, 0.11908982, 0.11394003, -1291158.1, -67441.266, 0.0, 9.997954, 10.000511 
1.1250226e+3, 1.851314e+2, -1294670.5, -1135293.3, -47053.555, 0.08562485, 0.11594357, -1122438.4, 3272.5193, 0.0, 9.998514, 10.0006485 
1.1250393e+3, 1.9513015e+2, -927076.7, -908635.1, -78120.99, 0.06289598, -0.086085856, -839192.6, 188525.72, 0.0, 10.000364, 10.000644 
1.1250571e+3, 2.0512968e+2, -842946.4, -962281.7, 33342.516, 0.00461121, -0.12805377, -834262.3, 95458.52, 0.0, 10.000906, 9.999334 
1.12507604e+3, 2.1512972e+2, -841721.5, -908342.4, 41911.77, -0.08638929, -0.07320639, -821495.2, 10225.259, 0.0, 10.000232, 9.999355 
1.1250946e+3, 2.251288e+2, -742293.5, -892015.9, -58955.977, -0.069177106, -0.05906397, -721865.6, 11863.935, 0.0, 10.000593, 9.998628 
1.1251128e+3, 2.3512691e+2, -438432.22, -688624.7, -81529.43, 0.0593523, -0.12504452, -414209.63, 221538.77, 0.0, 10.001986, 9.998676 
1.1251309e+3, 2.451255e+2, -267511.25, -583373.75, -7551.197, 0.061175045, -0.1172662, -267330.8, 270429.6, 0.0, 10.0026, 9.998432 
1.1251487e+3, 2.551244e+2, -192189.69, -498073.97, -12925.809, -0.060319033, -0.08650639, -191644.44, 248123.27, 0.0, 10.002452, 9.998417 
1.1251665e+3, 2.6512194e+2, -216191.63, -572437.3, -2632.9443, -0.1506751, -0.11565539, -216172.17, 125616.24, 0.00000016860811, 10.00211, 9.997394 
1.12518445e+3, 2.7511808e+2, -186675.89, -504009.28, 31366.77, -0.20607156, -0.259345, -183605.16, 60218.273, 0.0000038179373, 10.00162, 9.997425 
1.1252026e+3, 2.8511506e+2, -46826.203, -438590.8, 38433.26, -0.20312898, -0.2738833, -43091.39, 102762.5, 0.000026281929, 10.0021305, 9.996962 
1.12522095e+3, 2.9511276e+2, 252126.75, -239411.53, 40132.27, -0.14816624, -0.2182065, 255381.84, 303263.13, 0.00011344339, 10.003495, 9.996996 
1.1252386e+3, 3.0511147e+2, 384884.13, -85561.07, 58326.33, -0.16390617, -0.06850221, 392007.63, 392007.63, 0.00033238306, 10.003805, 9.997567 
1.12525515e+3, 3.151084e+2, 327595.44, -27004.928, 43296.207, -0.2858948, -0.1520001, 332805.28, 332805.28, 0.0006975335, 10.002999, 9.998364 
1.1349172e+3, 1.2510785e+2, -1883990.6, -1638588.9, -111651.6, 0.405292, -0.069339916, -1595393.5, 118539.38, 0.0011953667, 9.998155, 10.00139 
1.1349348e+3, 1.3510777e+2, -1921191.1, -1611644.9, 60172.09, 0.3981745, -0.22752015, -1600359.5, 15570.789, 0.00059164723, 9.997251, 10.001353 
1.1349493e+3, 1.4510849e+2, -1919100.4, -1744929.3, 62529.99, 0.00048892986, -0.20379291, -1724805.3, -206879.48, 0.00017336896, 9.997377, 9.999704 
1.1349671e+3, 1.5510999e+2, -1653965.3, -1565767.5, 14701.6, -0.0536878, -0.03834204, -1563381.4, -143462.28, 0.000015247707, 9.998524, 9.999706 
1.13498524e+3, 1.6511105e+2, -1451567.8, -1290222.1, -57339.285, -0.012570095, 0.04483301, -1271920.8, 49992.01, 0.000000009421829, 9.998692, 10.000842 
1.135004e+3, 1.7511152e+2, -1455562.3, -1238254.0, -34354.33, 0.16144384, -0.009026572, -1232952.3, -9043.633, 0.0, 9.997981, 10.000869 
1.1350226e+3, 1.8511194e+2, -1337787.8, -1232378.4, 13952.282, 0.2199785, -0.004653922, -1230562.9, -104658.77, 0.0, 9.998546, 9.999967 
1.1350407e+3, 1.9511217e+2, -980136.44, -1010859.4, -3952.6602, 0.15380515, 0.007611013, -979636.06, 48264.89, 0.0, 10.000327, 9.999961 
1.13505825e+3, 2.0511222e+2, -820422.6, -903852.2, 402.01273, 0.016924644, 0.030940253, -820420.7, 109478.67, 0.0, 10.000856, 9.999759 
1.1350755e+3, 2.1511193e+2, -823998.7, -853458.75, 21121.244, -0.17362095, 0.0111134155, -812978.4, 18922.434, 0.0, 10.000151, 9.999774 
1.1350944e+3, 2.2511092e+2, -785818.94, -957461.0, -16128.98, -0.16285479, 0.016069949, -784316.5, -50405.254, 0.0, 10.00049, 9.998225 
1.1351147e+3, 2.3510912e+2, -484688.0, -760305.9, -22303.596, 0.04354268, -0.0004293934, -482894.8, 153036.64, 0.0, 10.001881, 9.998235 
1.1351332e+3, 2.4510713e+2, -280054.66, -588816.5, -18850.16, 0.024469726, -0.026909737, -278908.1, 259041.7, 0.0, 10.002512, 9.998436 
1.13514975e+3, 2.551049e+2, -200539.89, -495857.13, -11031.937, -0.20126173, -0.11066262, -200128.36, 239838.95, 0.0, 10.002368, 9.998473 
1.1351681e+3, 2.6510343e+2, -144223.23, -408575.0, -23610.217, -0.21459432, -0.10600414, -142131.08, 199846.16, 0.00000020663475, 10.002046, 9.998552 
1.135188e+3, 2.7510244e+2, -113182.64, -344408.22, 24700.254, -0.02709515, -0.07036003, -110573.52, 133408.4, 0.0000055002247, 10.00159, 9.998538 
1.1352058e+3, 2.8509983e+2, -36693.992, -406405.38, 81126.09, -0.10506909, -0.11301776, -19675.787, 126330.26, 0.00003348711, 10.002088, 9.9972 
1.1352218e+3, 2.9509565e+2, 252618.27, -208932.39, 98567.2, -0.42280605, -0.27299035, 272786.66, 320835.16, 0.00012779766, 10.00337, 9.997264 
1.1352402e+3, 3.0509317e+2, 391808.44, -38895.152, 23299.746, -0.39402354, -0.27840745, 393065.22, 393065.22, 0.00035402225, 10.003667, 9.997955 
1.13526e+3, 3.150895e+2, 336103.53, 9243.629, 30609.557, -0.12514494, -0.45693496, 338945.3, 338945.3, 0.0007264602, 10.002922, 9.998648 
1.1449143e+3, 1.2508999e+2, -2070211.6, -1764096.9, -71426.81, 0.3638071, -0.109617315, -1748250.9, -34144.85, 0.0013373722, 9.997005, 10.001103 
1.1449331e+3, 1.3509016e+2, -1821924.4, -1595121.0, -30372.07, 0.47497764, -0.21349731, -1591124.3, 24979.732, 0.000672049, 9.998037, 10.001108 
1.14494726e+3, 1.4509101e+2, -1773971.1, -1640847.9, 25924.61, 0.024233714, -0.17906183, -1635977.5, -117879.04, 0.0002032588, 9.998229, 10.000006 
1.1449651e+3, 1.5509288e+2, -1755518.1, -1581761.4, 70028.7, -0.06509953, -0.00637691, -1557051.8, -136965.48, 0.000019742625, 9.997692, 9.999994 
1.1449834e+3, 1.6509359e+2, -1543815.0, -1380104.6, 44248.258, -0.034195863, 0.04551529, -1368910.4, -46827.508, 0.000000013934886, 9.998254, 10.000438 
1.14500284e+3, 1.7509297e+2, -1200896.5, -1161132.5, -4290.4087, 0.14426588, -0.07459238, -1160674.8, 63415.06, 0.0, 9.999923, 10.0004635 
1.14502184e+3, 1.850933e+2, -1076666.0, -1127524.5, 52913.832, 0.19977027, -0.049357433, -1043388.2, 82699.39, 0.0, 10.000441, 9.999769 
1.1450404e+3, 1.9509436e+2, -1053571.4, -1062056.0, 55475.953, 0.12106726, 0.06548925, -1002175.75, 25901.967, 0.0, 9.999909, 9.999799 
1.1450586e+3, 2.0509435e+2, -1004003.2, -1029848.3, 31276.764, 0.023896005, 0.10741969, -983084.5, -53006.324, 0.0, 9.999754, 9.999432 
1.1450765e+3, 2.1509318e+2, -872810.0, -910308.1, -14856.31, -0.07381816, 0.033190403, -867637.56, -35547.824, 0.0, 9.999967, 9.999474 
1.1450957e+3, 2.2509228e+2, -780873.5, -903244.9, 8901.432, -0.053723417, 0.038985778, -780229.4, -46130.098, 0.0, 10.000288, 9.998698 
1.1451163e+3, 2.3509148e+2, -623693.3, -773088.9, 53809.96, 0.076574884, 0.074200004, -606329.9, 29778.334, 0.0, 10.000679, 9.99873 
1.145135e+3, 2.4508987e+2, -498491.38, -682691.6, 76578.19, 0.032279443, 0.055286027, -470813.97, 67308.484, 0.0, 10.000968, 9.998531 
1.14515185e+3, 2.5508735e+2, -356536.34, -555761.56, 75242.62, -0.17012544, -0.06744634, -331312.56, 108830.87, 0.0, 10.001244, 9.998594 
1.1451704e+3, 2.6508585e+2, -170425.89, -414537.2, 41510.98, -0.16894689, -0.07398227, -163560.08, 178594.05, 0.00000038376965, 10.001826, 9.998621 
1.1451905e+3, 2.7508518e+2, 51618.69, -257527.14, 2212.6206, 0.021993222, -0.021125738, 51634.527, 295791.44, 0.0000075917305, 10.002678, 9.998614 
1.14520885e+3, 2.8508297e+2, 87895.42, -304023.63, 48755.727, -0.038841475, -0.043765444, 93869.69, 240046.34, 0.0000412879, 10.002765, 9.997575 
1.1452255e+3, 2.950794e+2, 89540.59, -246521.13, 58879.215, -0.32109946, -0.17707452, 99557.85, 147769.95, 0.00014478626, 10.002071, 9.997631 
1.145244e+3, 3.0507717e+2, 241917.64, -64789.426, 3663.3613, -0.31257755, -0.19585334, 241961.39, 241961.39, 0.00038253577, 10.002418, 9.9983835 
1.1452633e+3, 3.1507355e+2, 461636.78, 110298.26, -18161.607, -0.11690305, -0.41808054, 462573.1, 462573.1, 0.00077112904, 10.003612, 9.999006 
1.1549081e+3, 1.2507132e+2, -2146149.8, -1913498.0, 15175.977, 0.008682965, -0.19895765, -1912512.3, -198223.94, 0.001489488, 9.996981, 10.000082 
1.15493104e+3, 1.3507341e+2, -1887787.3, -1737903.1, 12861.891, 0.44590062, -0.009500302, -1736807.5, -120531.266, 0.00075867696, 9.998068, 10.000107 
1.15494676e+3, 1.4507452e+2, -1645554.1, -1391036.8, -2448.9075, 0.13010508, 0.014974891, -1391013.3, 127253.586, 0.0002361324, 9.998289, 10.0016985 
1.1549645e+3, 1.5507586e+2, -1628042.5, -1330037.0, 56599.734, 0.086363435, -0.03614632, -1319649.1, 100598.98, 0.000024990082, 9.997736, 10.001706 
1.1549827e+3, 1.6507612e+2, -1620927.3, -1544444.0, 98215.63, 0.041765068, -0.056368645, -1477287.8, -155041.8, 0.000000023716384, 9.998277, 9.999296 
1.1550016e+3, 1.7507525e+2, -1280929.0, -1327007.8, 62819.66, 0.017952643, -0.090236515, -1237057.0, -12796.53, 0.0, 9.999926, 9.999321 
1.15502015e+3, 1.8507555e+2, -1059664.4, -1095618.5, 25645.566, -0.027587682, -0.020134475, -1046322.6, 79937.875, 0.0, 10.000452, 9.999985 
1.1550382e+3, 1.9507682e+2, -1041756.8, -1033738.3, 40172.195, -0.097074255, 0.09334232, -997375.8, 30872.309, 0.0, 9.999886, 10.00001 
1.1550578e+3, 2.0507616e+2, -1080513.3, -1179899.4, 26614.68, -0.040079713, 0.109710135, -1073834.9, -143577.89, 0.0, 9.999715, 9.998419 
1.1550787e+3, 2.1507345e+2, -953361.9, -1063706.1, -430.1722, 0.14643928, -0.017064165, -953360.2, -121072.51, 0.0, 9.999898, 9.998456 
1.1550986e+3, 2.250728e+2, -700283.44, -715841.9, 17145.684, 0.19390632, -0.0017388201, -689234.75, 45059.492, 0.0, 10.000207, 10.000021 
1.1551173e+3, 2.35074e+2, -542867.4, -586242.1, 74318.79, 0.10370089, 0.10008113, -487136.25, 149142.3, 0.0, 10.000602, 10.000048 
1.155136e+3, 2.4507365e+2, -496200.1, -661108.6, 76536.336, 0.028534407, 0.12971532, -466153.16, 72126.195, 0.0, 10.000894, 9.998715 
1.15515456e+3, 2.5507164e+2, -353342.78, -538833.8, 90167.25, -0.030501865, 0.040229682, -316736.6, 123560.82, 0.0, 10.001194, 9.998735 
1.1551732e+3, 2.6506922e+2, -244429.72, -553608.94, 66507.9, -0.07458021, -0.017972713, -230730.16, 111589.56, 0.0000005356376, 10.001768, 9.997692 
1.1551921e+3, 2.7506623e+2, -24743.563, -388550.53, 41686.65, -0.1074947, -0.10589074, -20028.04, 224320.02, 0.000008957139, 10.002564, 9.997767 
1.15521155e+3, 2.8506458e+2, 112958.7, -227429.45, 18760.207, -0.06402616, -0.06401569, 113989.54, 260354.13, 0.00004724257, 10.002659, 9.998152 
1.1552316e+3, 2.9506412e+2, 127452.75, -171299.98, 47432.71, 0.058165215, 0.06086635, 134802.78, 183173.52, 0.0001595295, 10.002078, 9.998149 
1.1552495e+3, 3.0506346e+2, 254944.64, -22052.447, 45688.67, -0.0113896765, 0.15812221, 262286.1, 262286.1, 0.000411773, 10.002366, 9.998694 
1.1552647e+3, 3.1506e+2, 453144.44, 139323.14, 43305.195, -0.37277964, -0.07936214, 459010.6, 459010.6, 0.0008237711, 10.00342, 9.999292 
1.1649049e+3, 1.2505259e+2, -2085143.6, -1864208.5, 24267.74, -0.008296634, -0.17788075, -1861574.4, -147099.5, 0.0016512593, 9.997313, 10.000249 
1.1649277e+3, 1.350554e+2, -2051148.9, -1810084.3, 16938.14, 0.37475154, 0.073675156, -1808899.9, -192443.2, 0.0008513687, 9.9969225, 10.000158 
1.1649443e+3, 1.4505622e+2, -1818437.8, -1467179.0, -14222.272, 0.12170093, 0.06547077, -1466604.0, 51845.375, 0.00027198074, 9.997086, 10.001749 
1.164963e+3, 1.5505692e+2, -1609919.3, -1315041.8, -98029.24, 0.16076025, -0.052976303, -1285427.0, 135008.14, 0.00003101119, 9.997844, 10.001753 
1.1649816e+3, 1.6505715e+2, -1626979.8, -1541049.8, -34141.656, 0.12046679, -0.079595745, -1529136.4, -206704.33, 0.00000004774233, 9.998212, 9.99935 
1.16500065e+3, 1.7505683e+2, -1528073.4, -1439357.5, 5309.536, 0.022221576, -0.06167353, -1439040.9, -214600.47, 0.0, 9.998204, 9.99938 
1.1650192e+3, 1.8505715e+2, -1370915.8, -1249096.3, -17952.008, -0.052318744, 0.007898418, -1246505.8, -120065.484, 0.0, 9.998318, 9.999963 
1.1650372e+3, 1.9505797e+2, -1233216.8, -1126170.6, -31245.412, -0.11249745, 0.07668863, -1117718.0, -89284.65, 0.0, 9.998569, 10.00001 
1.1650575e+3, 2.0505732e+2, -1081574.4, -1156633.3, 50984.586, -0.029640054, 0.08575372, -1055796.0, -125354.09, 0.0, 9.999609, 9.998626 
1.1650799e+3, 2.1505517e+2, -716707.3, -921120.44, 95760.17, 0.20086919, -0.011692574, -678856.06, 153610.42, 0.0, 10.001408, 9.9987 
1.1651e+3, 2.2505467e+2, -461473.66, -589783.94, 79131.61, 0.23603928, 0.0018631755, -423757.8, 310713.1, 0.0, 10.001803, 10.000116 
1.1651178e+3, 2.3505557e+2, -501534.94, -554973.8, 32099.393, 0.08816304, 0.06570376, -486489.56, 149968.45, 0.0, 10.000841, 10.000145 
1.16513684e+3, 2.4505538e+2, -472908.6, -654129.7, 38041.99, 0.024544258, 0.10891106, -465246.72, 73211.65, 0.0, 10.001066, 9.998682 
1.16515696e+3, 2.5505403e+2, -176019.27, -457645.16, 21561.496, 0.03682349, 0.089821585, -174378.06, 266094.25, 0.0, 10.002422, 9.998706 
1.165176e+3, 2.6505175e+2, -126239.46, -497119.63, 1945.7327, -0.008404401, 0.047360618, -126229.26, 216265.48, 0.00000056359414, 10.002591, 9.99768 
1.1651941e+3, 2.7504835e+2, -169349.33, -461119.2, 22774.418, -0.10502005, -0.07587014, -167582.34, 76945.19, 0.00000928475, 10.001592, 9.997738 
1.1652139e+3, 2.8504664e+2, 13149.965, -254020.47, 50672.082, -0.050915767, -0.049607374, 22437.662, 168982.25, 0.000050363375, 10.001865, 9.99836 
1.1652351e+3, 2.950465e+2, 330574.8, -45027.598, 36535.38, 0.15161994, 0.08748732, 334095.66, 382642.13, 0.00017032117, 10.003361, 9.998397 
1.16525315e+3, 3.0504602e+2, 401081.9, -7707.1743, -6393.277, 0.059436955, 0.21397053, 401181.88, 401181.88, 0.0004381968, 10.003608, 9.998204 
1.1652671e+3, 3.1504282e+2, 254860.77, -28182.146, -87078.36, -0.41116276, 0.058576994, 279504.78, 279504.78, 0.0008745914, 10.002355, 9.998669 
1.174905e+3, 1.2503392e+2, -1990422.8, -1667028.6, 50961.152, 0.2391413, -0.052627277, -1659188.1, 55476.75, 0.0018234614, 9.997317, 10.001599 
1.1749231e+3, 1.350361e+2, -1969416.5, -1645262.5, 6716.005, 0.20584369, 0.025980867, -1645123.4, -28478.3, 0.0009506097, 9.996941, 10.001282 
1.1749397e+3, 1.4503613e+2, -1933539.4, -1706561.8, 7394.848, -0.069135234, -0.03790659, -1706321.0, -187674.97, 0.00031097958, 9.997087, 10.000105 
1.17496036e+3, 1.5503609e+2, -1722840.0, -1555810.0, -61881.79, 0.09751341, -0.06578576, -1535382.1, -114734.805, 0.00003785508, 9.997868, 10.00009 
1.1749801e+3, 1.650367e+2, -1540263.6, -1367067.1, -41211.695, 0.13844728, -0.030312851, -1357760.9, -35119.695, 0.00000010132158, 9.998237, 10.000529 
1.1749998e+3, 1.7503782e+2, -1442022.8, -1264189.6, 10745.327, 0.10584774, 0.011560834, -1263542.6, -38913.69, 0.0, 9.998214, 10.000579 
1.1750188e+3, 1.8503822e+2, -1385815.4, -1277953.4, -17158.889, 0.06564087, 0.040311113, -1275289.5, -148663.66, 0.0, 9.998315, 9.9997635 
1.17503725e+3, 1.9503781e+2, -1251387.8, -1158604.6, -14851.757, 0.011344936, 0.0036009694, -1156285.3, -127652.2, 0.0, 9.998545, 9.9998 
1.1750575e+3, 2.0503788e+2, -990336.7, -957490.5, 110446.7, -0.0026380413, 0.025075128, -862252.56, 68380.164, 0.0, 9.999566, 10.000014 
1.1750797e+3, 2.1503833e+2, -634204.3, -729660.6, 167809.97, 0.035509937, 0.050791807, -507467.13, 325158.84, 0.0, 10.001316, 10.000064 
1.1750998e+3, 2.2503781e+2, -552373.3, -753146.4, 32755.176, 0.027195908, 0.04891779, -547164.56, 187465.5, 0.0, 10.001695, 9.999048 
1.17511764e+3, 2.3503625e+2, -587836.06, -712962.25, 3059.3245, -0.02806331, -0.028630015, -587761.25, 48884.66, 0.0, 10.0007515, 9.999104 
1.1751373e+3, 2.4503523e+2, -503999.72, -700492.56, 83157.67, -0.043472853, -0.0008159065, -473531.1, 65126.7, 0.0, 10.000984, 9.998406 
1.1751589e+3, 2.550346e+2, -202578.06, -496606.22, 80761.39, -0.01774558, 0.075846955, -181855.63, 258811.64, 0.0, 10.002348, 9.998476 
1.1751787e+3, 2.650334e+2, -85698.734, -391037.63, -41720.51, -0.016105661, 0.1136633, -80100.81, 262578.7, 0.0000005132723, 10.002499, 9.998452 
1.1751964e+3, 2.7503145e+2, -121521.69, -354875.22, -5317.49, -0.044386834, 0.054907568, -121400.586, 123295.984, 0.000009286575, 10.001562, 9.998481 
1.1752157e+3, 2.8502917e+2, -8293.858, -290975.28, 100857.63, -0.064793885, 0.0049038264, 24001.426, 170718.03, 0.00005131962, 10.001834, 9.99812 
1.1752365e+3, 2.950266e+2, 312650.75, -71350.055, 100596.086, -0.07500151, -0.085143246, 337407.66, 386147.2, 0.00017691198, 10.003303, 9.998247 
1.1752549e+3, 3.0502498e+2, 310570.03, -167839.94, -54855.88, -0.13696599, -0.015935471, 316779.38, 316779.38, 0.0004557373, 10.003499, 9.997151 
1.17527e+3, 3.150226e+2, 157880.45, -219236.33, -111631.45, -0.3843128, 0.01735396, 188447.25, 188447.25, 0.00090565084, 10.00232, 9.997367 
1.1849026e+3, 1.2501483e+2, -2199718.8, -1701446.0, 115445.51, 0.35001597, 0.029911058, -1675998.0, 38859.297, 0.0020081834, 9.995602, 10.002191 
1.1849193e+3, 1.3501659e+2, -1976332.5, -1605744.9, -35688.297, 0.14991964, 0.025070585, -1602339.4, 14498.794, 0.0010574218, 9.996713, 10.001666 
1.1849375e+3, 1.4501658e+2, -1844925.1, -1711340.0, 22143.639, -0.029219726, -0.038660854, -1707765.0, -188925.98, 0.00035351914, 9.9979, 9.999678 
1.1849586e+3, 1.5501675e+2, -1574311.3, -1527061.0, 27961.145, 0.09267444, -0.0057179877, -1514080.5, -93239.516, 0.00004562391, 9.999076, 9.999699 
1.18497886e+3, 1.6501743e+2, -1364255.6, -1241966.5, 30959.836, 0.14635502, 0.03603886, -1234575.1, 88259.12, 0.00000019883093, 9.999265, 10.0009 
1.1849989e+3, 1.7501844e+2, -1365865.4, -1180308.1, 10698.334, 0.17912914, 0.02778118, -1179693.4, 45126.902, 0.0, 9.998537, 10.000998 
1.1850182e+3, 1.8501875e+2, -1294100.9, -1235627.8, 20958.08, 0.14151995, 0.026823873, -1228891.9, -102074.93, 0.0, 9.998958, 9.999743 
1.1850369e+3, 1.9501823e+2, -958982.4, -1014944.8, 19295.572, 0.021224644, -0.016923293, -952974.4, 75850.88, 0.0, 10.000552, 9.999814 
1.18505724e+3, 2.050186e+2, -813264.44, -823340.56, 101332.234, -0.02683616, 0.010552022, -716845.1, 213976.33, 0.0, 10.000568, 10.000455 
1.1850796e+3, 2.150196e+2, -936804.25, -825021.0, 79390.81, 0.010862349, 0.04759598, -783821.06, 48986.86, 0.0, 9.999022, 10.000512 
1.1851e+3, 2.2501925e+2, -929201.44, -951513.56, -27665.152, 0.009041208, 0.04809489, -910527.7, -175717.03, 0.0, 9.999182, 9.998893 
1.18511826e+3, 2.3501751e+2, -556651.8, -713662.56, -8621.227, -0.04046752, -0.03321068, -556179.9, 80650.34, 0.0, 10.001033, 9.998961 
1.1851385e+3, 2.450164e+2, -426633.8, -654828.3, 121675.1, -0.0449616, -0.011607015, -373928.72, 164915.14, 0.0, 10.001488, 9.998476 
1.1851605e+3, 2.5501573e+2, -453651.5, -611104.9, 127886.33, -0.0012825076, 0.056167644, -382202.28, 58651.477, 0.0, 10.000605, 9.998528 
1.1851808e+3, 2.6501474e+2, -274592.97, -471257.75, 13623.195, 0.020556746, 0.109055944, -273653.75, 69210.336, 0.0000005059796, 10.00115, 9.998551 
1.18519925e+3, 2.7501333e+2, 103033.945, -236666.23, -15214.312, 0.012457658, 0.09741811, 103713.99, 348590.34, 0.000009353779, 10.003062, 9.9985695 
1.18521854e+3, 2.8501102e+2, 230244.4, -215329.0, 71822.805, -0.048881263, 0.054603763, 241535.53, 388433.28, 0.000051335024, 10.003659, 9.997752 
1.18523866e+3, 2.950078e+2, 227580.5, -154080.81, 42833.434, -0.14831217, -0.06221436, 232328.6, 281256.8, 0.00017968877, 10.002914, 9.997858 
1.18525766e+3, 3.0500576e+2, 306718.06, -166108.1, -73739.1, -0.19530502, -0.012254675, 317951.1, 317951.1, 0.0004594549, 10.003434, 9.997201 
1.1852743e+3, 3.1500438e+2, 542968.56, -47683.535, -83272.2, -0.32097557, 0.11189337, 554484.06, 554484.06, 0.0009054023, 10.005009, 9.997255 
1.1948966e+3, 1.249954e+2, -2211317.8, -1723148.9, 131285.94, 0.16894569, 0.062151887, -1690081.4, 24969.846, 0.0022081332, 9.995595, 10.002041 
1.19491614e+3, 1.349969e+2, -1998716.3, -1653916.6, 13147.274, 0.14470604, 0.06307326, -1653416.0, -36381.063, 0.0011730703, 9.996718, 10.001332 
1.1949376e+3, 1.4499766e+2, -1788301.4, -1597637.9, 61995.535, 0.18091823, 0.052979123, -1579252.5, -60225.086, 0.00040013902, 9.997916, 10.000451 
1.1949579e+3, 1.5499902e+2, -1515392.9, -1413498.0, 79873.74, 0.09625425, 0.1299281, -1369706.5, 51308.51, 0.00005450229, 9.999106, 10.000469 
1.19497776e+3, 1.6499943e+2, -1383713.9, -1289833.6, -6518.16, 0.085205704, 0.12331119, -1289383.3, 33626.984, 0.00000035173326, 9.999297, 10.000556 
1.1949976e+3, 1.7499872e+2, -1392087.4, -1235993.3, -11315.667, 0.18908717, -0.020718053, -1235177.3, -10163.125, 0.0, 9.998539, 10.000617 
1.19501695e+3, 1.8499872e+2, -1283707.8, -1215542.4, 73865.61, 0.11548841, -0.040120978, -1168275.5, -41261.977, 0.0, 9.998965, 9.999876 
1.1950359e+3, 1.9499934e+2, -957130.75, -1002704.2, 85426.73, -0.13844258, 0.017067445, -891503.9, 137505.58, 0.0, 10.000511, 9.999921 
1.19505666e+3, 2.049995e+2, -851021.94, -887547.56, 33200.26, -0.1578349, 0.041303147, -831392.94, 99615.23, 0.0, 10.000512, 10.000039 
1.1950792e+3, 2.1499908e+2, -976813.8, -889971.56, 26328.64, 0.063287795, -0.02254409, -882612.9, -49601.74, 0.0, 9.998947, 10.000101 
1.1951003e+3, 2.2499907e+2, -890386.4, -855320.06, 35111.387, 0.1135662, -0.0032242485, -833607.56, -98596.016, 0.0, 9.999112, 9.999587 
1.1951198e+3, 2.3499937e+2, -518552.06, -618576.4, 66839.71, -0.0058681658, 0.05024017, -485085.1, 151925.36, 0.0, 10.000964, 9.999647 
1.1951401e+3, 2.4499884e+2, -409186.25, -606288.0, 79949.24, -0.040073875, 0.078354895, -380834.97, 158181.92, 0.0, 10.001431, 9.998838 
1.19516134e+3, 2.5499737e+2, -434087.78, -560063.7, 101162.04, 0.0147904465, 0.03096665, -377906.78, 63125.363, 0.0, 10.000558, 9.9989 
1.1951823e+3, 2.6499584e+2, -324791.72, -563089.5, 78837.86, 0.035122458, 0.04034862, -301070.5, 41977.605, 0.0000006389743, 10.001094, 9.997951 
1.1952024e+3, 2.7499413e+2, 54370.574, -322452.03, 65871.836, 0.011241172, 0.054727897, 65553.66, 310619.9, 0.000009301616, 10.002996, 9.998012 
1.19522214e+3, 2.849922e+2, 182081.84, -300684.0, 38399.69, -0.05512552, 0.10554881, 185117.11, 332204.4, 0.000051838055, 10.003591, 9.997201 
1.1952417e+3, 2.9498985e+2, 184636.7, -239727.03, 28788.383, -0.15320285, 0.13180241, 186580.78, 235693.83, 0.00018142357, 10.002888, 9.997286 
1.19526125e+3, 3.0498818e+2, 350865.6, -44606.25, -15650.4, -0.1940103, 0.20000952, 351484.0, 351484.0, 0.00045536188, 10.003323, 9.998081 
1.1952794e+3, 3.1498787e+2, 570744.94, 66766.555, -7332.0293, -0.3332402, 0.33822453, 570851.6, 570851.6, 0.0008843741, 10.004781, 9.998143 
1.20489284e+3, 1.24975346e+2, -2007975.1, -1639984.8, 80831.84, 0.16497004, 0.103686675, -1623012.3, 92237.55, 0.0024257244, 9.997039, 10.00193 
1.2049131e+3, 1.349769e+2, -1845534.4, -1585195.9, 10107.186, 0.13021535, 0.11602219, -1584804.0, 32430.07, 0.0012988481, 9.997786, 10.001292 
1.20493665e+3, 1.4497808e+2, -1778543.3, -1532771.8, 51074.586, 0.3031479, 0.122889906, -1522580.4, -3358.842, 0.00045139206, 9.997722, 10.000993 
1.20495595e+3, 1.5497917e+2, -1819206.5, -1494103.1, 32130.148, 0.107001096, 0.11595583, -1490958.0, -69748.75, 0.00006471426, 9.996746, 10.001051 
1.2049755e+3, 1.6497964e+2, -1752946.8, -1482113.1, -34735.355, 0.051931523, 0.09347471, -1477729.1, -154525.44, 0.00000057087306, 9.99683, 10.000422 
1.2049957e+3, 1.7497933e+2, -1466659.0, -1283233.4, -37148.055, 0.18062077, 0.0018633356, -1275995.6, -50789.563, 0.0, 9.998084, 10.000505 
1.2050156e+3, 1.849796e+2, -1343637.5, -1204492.4, 89703.91, 0.12081703, -0.0027807758, -1160543.4, -33340.777, 0.0, 9.998378, 10.000235 
1.2050349e+3, 1.9498028e+2, -1335496.0, -1141725.9, 109121.04, -0.13450381, 0.023964476, -1092685.9, -63490.7, 0.0, 9.997725, 10.000306 
1.205056e+3, 2.0498033e+2, -1168960.5, -1053602.3, 85228.17, -0.14997062, 0.020219686, -1008370.1, -77175.64, 0.0, 9.998383, 9.999924 
1.2050791e+3, 2.1497956e+2, -772922.4, -803948.9, 84271.28, 0.08112572, -0.067377254, -702748.4, 130453.72, 0.0, 10.000393, 9.999998 
1.2051007e+3, 2.2497976e+2, -554622.56, -690957.1, 118809.61, 0.13227664, -0.023369055, -485813.56, 249388.06, 0.0, 10.001407, 9.999614 
1.2051211e+3, 2.3498079e+2, -448422.6, -582443.9, 88050.86, 0.0038555614, 0.103050016, -404783.44, 232411.05, 0.0, 10.001437, 9.99967 
1.2051417e+3, 2.4498044e+2, -367420.72, -589973.94, 33577.492, -0.03174922, 0.14974065, -362465.1, 176734.44, 0.0, 10.001731, 9.998803 
1.20516285e+3, 2.5497857e+2, -185191.88, -445112.34, 11303.539, 0.015590929, 0.06422446, -184701.23, 256517.03, 0.00000000020898414, 10.002279, 9.998863 
1.20518394e+3, 2.6497683e+2, -89730.266, -440386.53, 59489.17, 0.027905453, 0.052321974, -79912.734, 263323.06, 0.00000074892756, 10.002676, 9.998024 
1.2052052e+3, 2.7497515e+2, 51438.83, -314957.38, 76569.83, 0.0024985254, 0.06569382, 66796.72, 312050.06, 0.000009032264, 10.002942, 9.998084 
1.20522544e+3, 2.8497356e+2, 131565.8, -331886.03, 55641.473, -0.06997273, 0.148031, 138152.44, 285423.94, 0.000052112464, 10.00327, 9.997143 
1.20524466e+3, 2.9497182e+2, 279479.78, -199751.13, 59459.51, -0.18232152, 0.24094573, 286746.9, 336039.2, 0.00018285186, 10.0035715, 9.99723 
1.20526455e+3, 3.049693e+2, 384437.34, -89397.62, 34688.688, -0.21063155, 0.25384235, 386963.38, 386963.38, 0.00045298232, 10.003811, 9.997538 
1.2052841e+3, 3.1496808e+2, 375099.63, -85043.56, -93073.85, -0.27442425, 0.35887143, 393212.8, 393212.8, 0.0008651462, 10.003689, 9.997621 
1.21488966e+3, 1.2495421e+2, -2009673.0, -1642376.6, 1456.5104, 0.123877734, 0.09747432, -1642370.9, 73086.57, 0.0026624324, 9.997052, 10.001897 
1.2149104e+3, 1.3495669e+2, -1831457.0, -1558601.5, 44600.35, 0.06675475, 0.18702015, -1551496.3, 65938.14, 0.0014356553, 9.997804, 10.001465 
1.2149343e+3, 1.449579e+2, -1744414.5, -1469858.4, 8052.7485, 0.28628144, 0.16740221, -1469622.4, 49798.387, 0.0005075534, 9.997755, 10.001409 
1.2149524e+3, 1.5495718e+2, -1792062.9, -1442112.9, 3098.4395, 0.062004387, -0.061006024, -1442085.4, -20661.76, 0.000076397075, 9.996759, 10.001406 
1.2149717e+3, 1.6495797e+2, -1747474.8, -1472029.9, 3743.8936, -0.01878406, -0.06740894, -1471979.0, -148563.95, 0.0000008702971, 9.996838, 10.0004835 
1.2149933e+3, 1.749603e+2, -1462468.4, -1276089.3, 15247.882, 0.10413519, 0.096598834, -1274850.0, -49454.375, 0.0, 9.998086, 10.000555 
1.215014e+3, 1.8496141e+2, -1291666.4, -1100342.1, 56763.582, 0.10512208, 0.13726643, -1084768.6, 42615.355, 0.0, 9.998394, 10.000942 
1.2150338e+3, 1.9496116e+2, -1290614.4, -1045220.7, 91220.91, -0.033749633, 0.00079588295, -1015026.1, 14355.701, 0.0, 9.997706, 10.00098 
1.2150553e+3, 2.0496108e+2, -1164933.4, -1033057.8, 151574.83, -0.07133859, -0.055413097, -933699.75, -2319.4968, 0.0, 9.998334, 10.000086 
1.21507876e+3, 2.1496108e+2, -776668.06, -787438.4, 164730.67, 0.007020106, -0.08332103, -617234.56, 216145.67, 0.0, 10.000289, 10.000159 
1.21510096e+3, 2.2496134e+2, -614229.94, -792008.8, 109823.47, 0.011732854, -0.0090028765, -561830.56, 173549.95, 0.0, 10.001307, 9.998971 
1.215122e+3, 2.349618e+2, -505324.1, -680359.8, 95703.31, -0.059976023, 0.12286567, -463155.8, 174226.19, 0.0, 10.001348, 9.999043 
1.21514305e+3, 2.449612e+2, -412048.88, -656608.9, 48338.68, -0.08205422, 0.19676219, -402841.13, 136550.31, 0.0, 10.001622, 9.998394 
1.2151646e+3, 2.5495934e+2, -224577.64, -510993.1, 39054.855, -0.04810562, 0.15314987, -219347.72, 222063.48, 0.00000000018849695, 10.002213, 9.998441 
1.21518604e+3, 2.6495776e+2, -52618.777, -348975.06, 63260.387, -0.05044874, 0.14292103, -39680.074, 303746.56, 0.00000061447383, 10.00261, 9.998686 
1.2152075e+3, 2.7495635e+2, 87907.43, -222623.33, 94506.84, -0.082183786, 0.11654737, 114408.06, 359846.6, 0.000008322687, 10.002863, 9.998759 
1.2152279e+3, 2.8495502e+2, 133219.92, -298112.16, 58707.766, -0.16567735, 0.17641975, 141067.73, 288519.28, 0.000050693892, 10.003142, 9.997436 
1.2152472e+3, 2.949536e+2, 292160.2, -158207.08, 80691.44, -0.29876533, 0.27061906, 306181.03, 355648.03, 0.00018217303, 10.003506, 9.997546 
1.21526755e+3, 3.0494916e+2, 240791.38, -370110.47, 24591.537, -0.300013, 0.16834025, 241779.7, 241779.7, 0.0004520243, 10.00374, 9.99564 
1.2152881e+3, 3.1494516e+2, 239525.89, -341157.8, -78061.805, -0.2794398, 0.18847072, 249836.72, 249836.72, 0.0008554338, 10.003589, 9.995903 
1.22488625e+3, 1.2493356e+2, -2253118.5, -1780500.8, 15800.631, 0.16033314, 0.06786857, -1779973.1, -64317.26, 0.0029179724, 9.995446, 10.001735 
1.22490734e+3, 1.3493563e+2, -2101131.3, -1677716.9, 115669.19, 0.07833063, 0.10949086, -1648178.8, -30541.674, 0.0015834377, 9.995903, 10.001565 
1.2249312e+3, 1.449371e+2, -1884267.0, -1523991.4, 59956.22, 0.24407159, 0.10259761, -1514275.6, 5346.4346, 0.00056846405, 9.9967375, 10.001527 
1.2249497e+3, 1.5493694e+2, -1608885.0, -1338613.3, 16507.258, 0.07267832, -0.082466446, -1337608.8, 84012.04, 0.00008951281, 9.997951, 10.001538 
1.2249697e+3, 1.6493823e+2, -1484142.1, -1325457.1, 49654.04, 0.027467046, -0.058169752, -1311200.8, 12407.629, 0.0000012652538, 9.998546, 10.000675 
1.22499205e+3, 1.7494094e+2, -1383662.3, -1214586.6, 62760.336, 0.16199008, 0.1263115, -1193836.8, 31748.357, 0.0, 9.998518, 10.000774 
1.22501306e+3, 1.84942e+2, -1251251.0, -1100337.5, 64293.78, 0.16255954, 0.15786223, -1076661.0, 50913.523, 0.0, 9.998756, 10.000771 
1.2250327e+3, 1.9494118e+2, -1065167.1, -950827.1, 16425.236, 0.009390835, -0.019025816, -948514.4, 81063.836, 0.0, 9.999328, 10.000843 
1.22505456e+3, 2.0494117e+2, -960810.06, -938757.8, 95466.19, -0.0486444, -0.061054755, -853683.1, 77893.414, 0.0, 9.999744, 10.000057 
1.22507885e+3, 2.1494183e+2, -827958.1, -815351.3, 84488.32, 0.00499266, -0.015716042, -736931.56, 96638.836, 0.0, 9.999949, 10.000133 
1.2251016e+3, 2.24942e+2, -795080.94, -901601.94, 19726.318, -0.0022619248, 0.060669754, -791545.25, -55973.344, 0.0, 10.000159, 9.998767 
1.2251224e+3, 2.3494151e+2, -657441.2, -776164.25, 18015.533, -0.08421201, 0.11720586, -654767.7, -17185.379, 0.0, 10.000394, 9.998842 
1.22514404e+3, 2.4494052e+2, -510238.8, -711003.25, 36969.688, -0.11096595, 0.1630862, -503647.44, 35947.67, 0.0, 10.000974, 9.99834 
1.22516625e+3, 2.5493887e+2, -267951.28, -533675.6, 40790.438, -0.076074116, 0.14614639, -261830.64, 179781.25, 0.0, 10.001933, 9.998417 
1.225188e+3, 2.6493728e+2, -118038.29, -390909.75, 30359.459, -0.086280495, 0.14487483, -114701.33, 228925.5, 0.0000003685213, 10.002208, 9.998592 
1.2252091e+3, 2.749357e+2, -86833.96, -317185.2, -8822.493, -0.14437945, 0.11074215, -86496.55, 159144.53, 0.0000073761885, 10.001717, 9.998659 
1.2252301e+3, 2.849344e+2, -25267.473, -382085.94, -37052.45, -0.1970351, 0.1796085, -21460.52, 126194.234, 0.00004908337, 10.002082, 9.997366 
1.2252511e+3, 2.9493308e+2, 253582.83, -186993.38, -56383.098, -0.24039535, 0.29439574, 260684.05, 310353.75, 0.00018062291, 10.003282, 9.9974575 
1.2252725e+3, 3.0492795e+2, 333192.0, -305057.13, -57782.77, -0.21101902, 0.12107515, 338381.1, 338381.1, 0.00044943238, 10.004281, 9.995836 
1.225293e+3, 3.149233e+2, 454045.7, -185597.05, -45901.242, -0.20145285, 0.054163087, 457322.78, 457322.78, 0.0008480561, 10.004813, 9.996397 
1.23488195e+3, 1.2491313e+2, -2247939.0, -1780414.1, -41074.15, 0.1524824, -0.017510714, -1776833.0, -60985.47, 0.0031899144, 9.995494, 10.001709 
1.23490356e+3, 1.3491377e+2, -2092577.3, -1664195.3, 136534.84, 0.10526163, -0.12804046, -1624379.3, -6537.2715, 0.0017411282, 9.995915, 10.001653 
1.23492666e+3, 1.4491569e+2, -1895853.8, -1554268.6, 101702.89, 0.103236206, -0.08410621, -1526281.0, -6455.7915, 0.0006337289, 9.996761, 10.001309 
1.234948e+3, 1.5491852e+2, -1615710.8, -1368503.3, 68672.71, 0.086216316, 0.05338957, -1350707.4, 71093.23, 0.00010392506, 9.998006, 10.001313 
1.2349696e+3, 1.6492039e+2, -1447076.5, -1254315.0, 38781.977, 0.14009947, 0.12309057, -1246805.0, 76978.73, 0.0000017603737, 9.998574, 10.001146 
1.2349921e+3, 1.7492133e+2, -1351539.5, -1150678.9, 66336.67, 0.2974756, 0.08481389, -1130748.1, 95026.04, 0.0, 9.998526, 10.00121 
1.2350127e+3, 1.8492137e+2, -1327539.3, -1259177.5, 78090.3, 0.23515064, 0.048254382, -1208115.0, -80341.17, 0.0, 9.99876, 9.999679 
1.2350315e+3, 1.9492033e+2, -1144307.6, -1111262.3, 44863.504, -0.057860542, -0.038813397, -1079975.6, -50191.426, 0.0, 9.999308, 9.999755 
1.2350536e+3, 2.0492055e+2, -978912.06, -962327.75, 93085.625, -0.1336631, 0.0021088903, -877165.7, 54617.72, 0.0, 9.999687, 9.999922 
1.23507895e+3, 2.1492194e+2, -850035.44, -843977.8, 97512.63, 0.019506138, 0.13184524, -749447.0, 84324.88, 0.0, 9.999871, 9.999975 
1.23510204e+3, 2.2492184e+2, -796321.0, -880957.7, 20696.545, 0.024203148, 0.18148084, -791531.06, -55756.234, 0.0, 10.000061, 9.998956 
1.2351225e+3, 2.3492004e+2, -658104.44, -758612.2, 34295.98, -0.12652975, 0.08915504, -647516.94, -9722.396, 0.0, 10.000314, 9.9990015 
1.2351444e+3, 2.449185e+2, -499555.44, -674127.5, 64431.93, -0.18220398, 0.059661884, -478350.34, 61459.105, 0.0, 10.00091, 9.998623 
1.23516776e+3, 2.5491717e+2, -256029.16, -495816.72, 82796.17, -0.12952255, 0.043812774, -230218.7, 211601.34, 0.0, 10.001866, 9.9987135 
1.23518966e+3, 2.649155e+2, -192404.08, -518321.8, 5294.5635, -0.14315388, 0.057269145, -192318.1, 151518.22, 0.00000016286783, 10.002096, 9.997769 
1.2352099e+3, 2.749134e+2, -154834.38, -444327.13, -17939.545, -0.23710862, 0.053387694, -153726.9, 92132.67, 0.000006622681, 10.001659, 9.997811 
1.2352319e+3, 2.8491175e+2, -63473.62, -447478.38, 4128.617, -0.22672296, 0.15633744, -63429.24, 84450.46, 0.0000487502, 10.002021, 9.996947 
1.235256e+3, 2.9491034e+2, 211588.86, -256703.44, 2075.2986, -0.09009083, 0.3017305, 211598.05, 261497.08, 0.00018150224, 10.0032015, 9.99702 
1.23527855e+3, 3.0490568e+2, 458311.94, -20968.252, -36515.563, -0.03002273, 0.09957314, 461078.03, 461078.03, 0.00045010986, 10.004177, 9.997838 
1.2352984e+3, 3.1490234e+2, 612234.1, 172410.34, -6803.055, -0.17114364, -0.042416874, 612339.3, 612339.3, 0.00084515545, 10.004692, 9.998915 
1.24487795e+3, 1.2489177e+2, -1997012.5, -1672698.0, -97247.29, 0.12136791, -0.086439684, -1645773.3, 70280.49, 0.003475539, 9.997288, 10.001576 
1.2449009e+3, 1.3489266e+2, -1930895.1, -1605197.1, 33638.113, 0.19770253, -0.15400143, -1601759.3, 16287.001, 0.0019075654, 9.997107, 10.001485 
1.2449225e+3, 1.4489445e+2, -1908569.1, -1552918.0, 23327.867, 0.028352827, -0.114679895, -1551394.4, -31363.227, 0.0007030745, 9.99664, 10.00138 
1.24494515e+3, 1.5489778e+2, -1885327.3, -1485192.3, 52.12338, 0.110375494, 0.06372227, -1485192.3, -63189.836, 0.00011956255, 9.996112, 10.001423 
1.24496765e+3, 1.6489969e+2, -1732724.0, -1385020.4, -5365.084, 0.18837808, 0.12857193, -1384937.6, -60952.242, 0.0000023468863, 9.996583, 10.00121 
1.24499e+3, 1.7490014e+2, -1411527.8, -1170020.4, -22597.598, 0.27098218, 0.035377573, -1167924.1, 58056.39, 0.0, 9.998081, 10.001286 
1.2450111e+3, 1.8490031e+2, -1320610.5, -1260716.3, 9661.745, 0.198113, 0.0103452215, -1259196.3, -131217.2, 0.0, 9.998821, 9.999637 
1.24503076e+3, 1.9489998e+2, -1226313.4, -1157649.5, 45054.59, -0.032467403, -0.0041515115, -1135336.9, -105353.66, 0.0, 9.998762, 9.999702 
1.2450533e+3, 2.0490004e+2, -1118355.1, -1086406.8, 139078.39, -0.08206577, 0.049984608, -962388.2, -30403.215, 0.0, 9.998966, 9.999422 
1.245079e+3, 2.1490042e+2, -948802.5, -943381.94, 101117.664, 0.059656855, 0.12688115, -844938.25, -10953.211, 0.0, 9.999418, 9.999511 
1.2451024e+3, 2.2490002e+2, -781581.6, -870931.44, 30638.762, 0.061105903, 0.1677713, -772084.75, -36093.613, 0.0, 10.000151, 9.9989805 
1.2451237e+3, 2.3489864e+2, -531463.3, -691897.6, 19443.916, -0.08098362, 0.111784786, -529140.44, 108865.12, 0.0, 10.001161, 9.999049 
1.245146e+3, 2.4489714e+2, -418379.34, -640328.4, 34308.305, -0.14028658, 0.08696472, -413197.03, 126822.05, 0.0, 10.0014925, 9.998574 
1.2451694e+3, 2.5489545e+2, -371980.56, -556909.2, 11795.9795, -0.10998906, 0.04475627, -371231.16, 70801.44, 0.0, 10.001098, 9.998662 
1.24519154e+3, 2.6489353e+2, -308478.3, -596888.94, -43512.74, -0.12615912, 0.044209246, -302056.5, 41995.055, 0.000000050542315, 10.001387, 9.997572 
1.24521226e+3, 2.7489123e+2, -63678.715, -424606.75, -37390.02, -0.19811864, 0.040744863, -59846.027, 186231.25, 0.0000061370592, 10.002377, 9.997607 
1.2452345e+3, 2.8488958e+2, 56448.82, -364807.78, 49858.44, -0.20518228, 0.14327084, 62269.46, 210366.78, 0.000049450737, 10.002746, 9.997166 
1.2452583e+3, 2.948883e+2, 118818.48, -276420.94, 74692.516, -0.13437124, 0.27805927, 132462.88, 182577.78, 0.00018681613, 10.002463, 9.997237 
1.2452821e+3, 3.0488402e+2, 326547.66, -66037.516, 40453.695, -0.03940306, 0.09607391, 330672.84, 330672.84, 0.00046225268, 10.003181, 9.998008 
1.2453047e+3, 3.1488124e+2, 686427.56, 277400.53, -87177.76, -0.018034834, -0.009006061, 704233.06, 704233.06, 0.000861858, 10.004904, 9.999535 
1.2548745e+3, 1.2487004e+2, -2001879.3, -1703880.8, -57562.613, 0.023297433, -0.08770089, -1693148.3, 23120.88, 0.0037739007, 9.997371, 10.001322 
1.2548994e+3, 1.3487232e+2, -1957100.1, -1677738.3, 27569.71, 0.31595862, 0.031007068, -1675043.4, -56793.37, 0.0020822603, 9.997169, 10.000964 
1.2549187e+3, 1.4487348e+2, -1872269.9, -1485194.3, -6415.364, -0.02476253, 0.012182545, -1485087.9, 35151.707, 0.0007764397, 9.996675, 10.001825 
1.2549412e+3, 1.5487474e+2, -1848061.1, -1416377.9, -13056.297, 0.08918427, -0.06225703, -1415983.4, 6242.6484, 0.00013646827, 9.99614, 10.001885 
1.2549636e+3, 1.6487606e+2, -1760538.8, -1442538.6, 42901.67, 0.11430193, -0.061184905, -1436852.4, -112638.3, 0.0000030208696, 9.996585, 10.0008135 
1.254986e+3, 1.7487742e+2, -1437512.0, -1229032.6, 38899.19, 0.037809603, -0.021929303, -1222011.1, 4192.7295, 0.0, 9.998097, 10.000875 
1.255008e+3, 1.8487883e+2, -1242527.9, -1101333.9, -355.23514, 0.0004777738, 0.04280629, -1101332.9, 26857.584, 0.0, 9.998834, 10.000725 
1.2550302e+3, 1.948801e+2, -1150498.1, -998684.7, 47607.36, 0.020431655, 0.07893869, -984990.7, 45184.797, 0.0, 9.998751, 10.000799 
1.2550537e+3, 2.0487967e+2, -1186432.8, -1212396.4, 146984.19, 0.0475214, 0.070770964, -1051858.3, -119677.02, 0.0, 9.998903, 9.998589 
1.2550786e+3, 2.1487738e+2, -1019950.94, -1074692.6, 123919.33, 0.071854055, -0.032421, -920415.7, -86206.31, 0.0, 9.999346, 9.998647 
1.2551026e+3, 2.2487658e+2, -802532.44, -892936.2, 60396.18, 0.049820505, 0.018029185, -772296.2, -36075.414, 0.0, 10.000057, 9.998876 
1.2551256e+3, 2.3487727e+2, -547091.25, -710340.4, 63424.2, -0.008883197, 0.17995545, -525346.6, 112868.766, 0.0, 10.001093, 9.99896 
1.2551485e+3, 2.448764e+2, -457500.3, -700599.4, 12391.192, -0.048532996, 0.23933792, -456870.34, 83353.836, 0.0, 10.001402, 9.998203 
1.2551709e+3, 2.5487375e+2, -412034.5, -622815.75, 4922.273, -0.073192045, 0.13611072, -411919.63, 30329.893, 0.0, 10.00102, 9.998247 
1.2551934e+3, 2.648713e+2, -300578.4, -556176.3, -13203.832, -0.08958458, 0.09121964, -299898.13, 44375.11, 0.00000007625481, 10.001285, 9.997901 
1.2552159e+3, 2.7486914e+2, -53941.617, -378828.6, 8337.405, -0.097531416, 0.06563072, -53727.8, 192567.31, 0.0000061507535, 10.00227, 9.9979725 
1.2552375e+3, 2.848678e+2, 101232.336, -258853.05, 32502.43, -0.20406592, 0.1416153, 104142.586, 252451.34, 0.000051587293, 10.002683, 9.997925 
1.2552582e+3, 2.948669e+2, 169090.48, -170089.23, 71509.61, -0.40911362, 0.23618905, 183550.47, 233868.42, 0.0001993085, 10.002448, 9.997975 
1.255283e+3, 3.0486292e+2, 216723.55, -286227.5, 96482.05, -0.2758885, 0.119844355, 234596.72, 234596.72, 0.0004947282, 10.003147, 9.996511 
1.2553112e+3, 3.1485957e+2, 576526.8, 94610.46, -7516.418, 0.1224748, 0.108811975, 576644.06, 576644.06, 0.000916626, 10.004707, 9.998373 
1.2648723e+3, 1.248481e+2, -2126735.5, -1764278.5, 8932.125, 0.09646741, -0.064984076, -1764058.5, -47572.945, 0.004085261, 9.996521, 10.001316 
1.2648965e+3, 1.3485023e+2, -2151265.3, -1790540.8, -12879.493, 0.38645935, 0.06423069, -1790081.4, -171613.52, 0.0022650692, 9.995943, 10.000764 
1.2649147e+3, 1.4485112e+2, -1928402.0, -1516859.9, 295.79898, -0.062175516, 0.028159378, -1516859.8, 3600.146, 0.00085386867, 9.99631, 10.001785 
1.2649383e+3, 1.5485215e+2, -1581049.3, -1284909.5, -55885.117, 0.08929545, -0.06642475, -1274714.3, 147733.27, 0.00015477135, 9.9979725, 10.001896 
1.2649612e+3, 1.6485332e+2, -1497002.8, -1336070.0, 1799.3789, 0.12584195, -0.069829725, -1336049.9, -11613.273, 0.0000038088367, 9.998478, 10.000629 
1.2649836e+3, 1.7485458e+2, -1486993.1, -1271034.1, 2832.1492, 0.009463257, -0.025324265, -1270997.0, -44569.055, 0.0, 9.99784, 10.000709 
1.2650064e+3, 1.8485607e+2, -1346960.8, -1147850.6, -48511.758, -0.0083867125, 0.055311132, -1136660.0, -8245.3955, 0.0, 9.9981, 10.00076 
1.2650299e+3, 1.9485766e+2, -1068012.9, -952148.6, -94114.6, 0.09131635, 0.119912595, -899565.2, 130832.91, 0.0, 9.999302, 10.000849 
1.2650539e+3, 2.0485733e+2, -1044379.3, -1131445.0, -4295.0205, 0.12786067, 0.114834495, -1044168.0, -111765.27, 0.0, 9.99983, 9.998691 
1.2650782e+3, 2.1485485e+2, -977971.4, -1044019.5, 29575.139, 0.08768885, -0.01693693, -966664.0, -132232.95, 0.0, 9.999592, 9.998733 
1.2651025e+3, 2.2485389e+2, -799725.06, -897018.1, 58949.344, 0.036037683, 0.014548704, -771941.8, -35498.746, 0.0, 10.000094, 9.998833 
1.2651268e+3, 2.3485449e+2, -514520.7, -697091.8, 52266.26, -0.01873441, 0.17340204, -500616.8, 137821.3, 0.0, 10.001335, 9.998933 
1.26515e+3, 2.4485373e+2, -433398.56, -700480.3, -39079.055, -0.03857196, 0.25022, -427798.0, 112648.52, 0.0, 10.001617, 9.998097 
1.2651724e+3, 2.5485134e+2, -439676.38, -647881.3, -42280.836, -0.022324003, 0.18318874, -431417.84, 11053.357, 0.0, 10.000879, 9.99814 
1.265195e+3, 2.64849e+2, -320129.75, -545599.8, 19252.293, -0.038274027, 0.14423352, -318497.66, 25996.174, 0.00000015326442, 10.001058, 9.998087 
1.265218e+3, 2.7484664e+2, -59395.344, -359831.78, 13640.823, -0.090612344, 0.085951, -58777.277, 187737.55, 0.0000068361555, 10.002131, 9.998173 
1.2652402e+3, 2.8484488e+2, 121172.92, -276954.13, -19439.463, -0.20262739, 0.12153404, 122119.84, 270651.1, 0.00005543398, 10.002943, 9.99767 
1.2652615e+3, 2.9484338e+2, 316504.3, -128805.95, -71067.53, -0.37130666, 0.18270628, 327571.03, 378117.13, 0.00021874357, 10.003598, 9.997699 
1.2652868e+3, 3.048396e+2, 309991.3, -289254.3, -11308.589, -0.24167071, 0.12437688, 310204.63, 310204.63, 0.0005474249, 10.004001, 9.996078 
1.2653157e+3, 3.1483614e+2, 453532.44, 11606.149, -75464.92, 0.14994097, 0.14688383, 466063.78, 466063.78, 0.0010136369, 10.003964, 9.998159 
1.2748708e+3, 1.248264e+2, -2101748.0, -1719508.8, 92832.98, 0.2700331, 0.020068696, -1698155.6, 18542.857, 0.0044096503, 9.996555, 10.001603 
1.2748922e+3, 1.3482642e+2, -2148083.0, -1790140.9, -36293.84, 0.34630814, -0.063722566, -1786498.0, -167798.2, 0.0024558255, 9.995958, 10.000768 
1.2749104e+3, 1.4482732e+2, -1959852.5, -1585538.8, 52397.867, -0.15455876, -0.07530254, -1578342.3, -57650.19, 0.00093550276, 9.996329, 10.001301 
1.274936e+3, 1.5483001e+2, -1615027.8, -1364534.9, 13815.337, 0.058440562, 0.04659031, -1363775.3, 58891.516, 0.00017466526, 9.998005, 10.001338 
1.2749602e+3, 1.6483146e+2, -1481465.9, -1316011.0, -30136.43, 0.16340934, 0.0956033, -1310692.9, 13960.573, 0.0000047674703, 9.998527, 10.000745 
1.2749827e+3, 1.7483161e+2, -1472432.4, -1251379.4, -17234.363, 0.1275222, 0.01727683, -1250043.8, -23390.953, 0.0, 9.997877, 10.00083 
1.2750058e+3, 1.8483207e+2, -1417581.8, -1295848.5, -10215.654, 0.10985775, 0.037481967, -1294997.3, -166345.77, 0.0, 9.998108, 9.99974 
1.2750296e+3, 1.9483274e+2, -1141234.9, -1105415.5, -41994.14, 0.12394348, 0.116404004, -1077671.4, -47021.516, 0.0, 9.9993, 9.9998 
1.2750535e+3, 2.0483306e+2, -983197.56, -992272.0, -21202.889, 0.10394799, 0.17964438, -966051.9, -33402.805, 0.0, 9.999778, 9.999672 
1.2750775e+3, 2.1483283e+2, -917359.44, -899107.6, 25673.027, 0.050547853, 0.17018923, -880986.8, -46336.723, 0.0, 9.999508, 9.999768 
1.2751019e+3, 2.2483195e+2, -811873.44, -896266.3, 97701.336, -0.036452632, 0.15546645, -747645.75, -10988.088, 0.0, 9.999986, 9.998889 
1.2751266e+3, 2.3483035e+2, -528935.3, -702873.1, 107282.08, -0.15959994, 0.0886992, -477799.06, 160874.05, 0.0, 10.001228, 9.998945 
1.2751505e+3, 2.4482912e+2, -445209.2, -696931.2, -73019.78, -0.15595634, 0.11670838, -425561.13, 115125.02, 0.0, 10.001499, 9.9981785 
1.2751733e+3, 2.5482824e+2, -439834.84, -632574.4, -63456.777, -0.016856927, 0.18982244, -420818.75, 21878.553, 0.0, 10.0008135, 9.998276 
1.2751962e+3, 2.648266e+2, -323404.38, -541478.7, 51384.785, -0.035119183, 0.2097879, -311903.16, 32809.746, 0.00000020123079, 10.001007, 9.99814 
1.2752189e+3, 2.7482393e+2, -70525.96, -362605.88, 62639.15, -0.22854088, 0.11135086, -57659.242, 189076.0, 0.0000077157165, 10.002046, 9.998194 
1.2752427e+3, 2.8482106e+2, 21055.33, -465049.47, -4321.857, -0.26131755, 0.09874101, 21093.752, 169856.8, 0.000060402712, 10.002857, 9.996418 
1.2752678e+3, 2.948178e+2, 215662.83, -316865.47, -34642.008, -0.11513254, 0.10993221, 217906.9, 268704.84, 0.00024154171, 10.003508, 9.9964485 
1.2752932e+3, 3.0481422e+2, 329656.3, -236828.0, -13518.91, -0.023195256, 0.11284628, 329978.75, 329978.75, 0.0006104457, 10.003946, 9.996465 
1.275318e+3, 3.1481132e+2, 470072.4, 78099.54, -58814.24, -0.04076342, 0.1410607, 478707.1, 478707.1, 0.0011368251, 10.003838, 9.998672 
1.2848672e+3, 1.2480244e+2, -2227956.0, -1752628.3, 86382.26, 0.32335132, 0.05454328, -1737416.6, -20481.484, 0.0047468157, 9.995555, 10.001869 
1.2848882e+3, 1.3480224e+2, -1944625.1, -1656377.3, -141870.45, 0.29072186, -0.07571742, -1598266.4, 20670.818, 0.0026545508, 9.997213, 10.001074 
1.2849082e+3, 1.4480338e+2, -1781458.9, -1525468.9, -12011.145, -0.06560607, -0.06950528, -1524906.5, -3979.5015, 0.0010215283, 9.997666, 10.001068 
1.2849338e+3, 1.548059e+2, -1746438.8, -1448985.5, -41130.254, 0.09119483, 0.060057443, -1443403.0, -20498.617, 0.00019628371, 9.997206, 10.001135 
1.2849584e+3, 1.6480744e+2, -1630654.9, -1355369.3, -69564.195, 0.19541319, 0.11301956, -1338789.1, -13899.26, 0.0000059623408, 9.997361, 10.001044 
1.2849815e+3, 1.7480795e+2, -1413576.6, -1185610.8, -55295.31, 0.2094906, 0.04173276, -1172906.4, 53977.535, 0.0, 9.998128, 10.001163 
1.2850049e+3, 1.848082e+2, -1359197.4, -1309116.8, 22063.426, 0.18584245, 0.044162787, -1300783.3, -171898.94, 0.0, 9.998688, 9.99937 
1.2850288e+3, 1.9480805e+2, -1197623.8, -1174101.4, 26926.883, 0.13195916, 0.075973675, -1156479.3, -125586.38, 0.0, 9.9991, 9.999424 
1.285053e+3, 2.048084e+2, -977148.6, -957765.2, 39478.91, 0.09037424, 0.14887999, -926805.8, 6085.952, 0.0, 9.99968, 9.999958 
1.2850775e+3, 2.1480915e+2, -770808.6, -793806.44, 18863.6, 0.06482225, 0.20729598, -760215.44, 74666.266, 0.0, 10.000365, 10.000079 
1.2851024e+3, 2.2480845e+2, -772646.0, -858213.25, 71763.086, 0.0013555263, 0.18610053, -731880.94, 5005.49, 0.0, 10.000175, 9.999058 
1.2851273e+3, 2.3480614e+2, -834375.0, -830220.25, 74531.2, -0.10380406, 0.034362294, -757737.44, -118829.695, 0.0, 9.999051, 9.999117 
1.2851514e+3, 2.4480468e+2, -719519.94, -826392.5, -56226.4, -0.1281217, 0.028492639, -695387.94, -154465.4, 0.0, 9.999595, 9.998211 
1.2851742e+3, 2.5480407e+2, -281253.28, -554868.3, -66162.18, -0.06549068, 0.12549071, -266094.6, 176836.45, 0.0, 10.001892, 9.998296 
1.2851974e+3, 2.6480255e+2, -104340.195, -468986.03, 16148.459, -0.085551366, 0.17339073, -103626.45, 241319.42, 0.00000014147287, 10.00266, 9.997837 
1.2852211e+3, 2.747999e+2, -122716.84, -422281.6, -18313.525, -0.19704361, 0.11142704, -121601.42, 125367.81, 0.000007879153, 10.00184, 9.997879 
1.285246e+3, 2.8479674e+2, -60466.28, -511745.06, 3911.656, -0.17780794, 0.08708285, -60432.38, 88568.08, 0.00006525831, 10.002332, 9.996353 
1.2852725e+3, 2.9479277e+2, 303397.22, -283905.56, 35823.887, -0.01099958, 0.034989383, 305574.3, 356615.84, 0.00026775803, 10.004146, 9.996372 
1.2852982e+3, 3.0478963e+2, 454822.6, -170805.27, 48700.598, 0.04465988, 0.08784751, 458590.88, 458590.88, 0.0006827303, 10.004793, 9.996506 
1.2853222e+3, 3.14787e+2, 525312.56, 95334.164, -58200.54, -0.029427756, 0.1389171, 533051.1, 533051.1, 0.0012767329, 10.004248, 9.998596 
1.29486e+3, 1.24775745e+2, -2209966.5, -1716682.1, 164359.69, 0.019102257, -0.011857262, -1666935.3, 50265.063, 0.0050962004, 9.995563, 10.002114 
1.2948842e+3, 1.3477767e+2, -1908251.1, -1583760.9, -79532.85, 0.1641624, 0.020529406, -1565315.8, 53864.934, 0.0028611089, 9.997227, 10.001565 
1.2949082e+3, 1.447792e+2, -1767987.9, -1508191.6, -41003.33, 0.15171437, 0.038625043, -1501873.8, 19291.852, 0.00111182, 9.997711, 10.001164 
1.2949316e+3, 1.5477991e+2, -1734794.1, -1435205.8, -53062.71, 0.12739938, -0.022205094, -1426085.0, -2925.2844, 0.000219555, 9.997239, 10.001219 
1.2949556e+3, 1.6478129e+2, -1590541.5, -1276155.6, -50489.93, 0.15545546, -0.01818337, -1268246.0, 56899.895, 0.0000074533, 9.997379, 10.001576 
1.2949796e+3, 1.7478363e+2, -1374243.6, -1110508.4, -22037.842, 0.20412163, 0.039246395, -1108679.5, 118441.28, 0.0, 9.998151, 10.001666 
1.2950036e+3, 1.8478453e+2, -1339758.5, -1271157.9, 30198.074, 0.16843797, 0.06905567, -1259758.8, -130645.83, 0.0, 9.998697, 9.999627 
1.2950273e+3, 1.9478358e+2, -1180331.0, -1138121.8, 48738.543, 0.06222173, -0.0023573693, -1106114.8, -74988.336, 0.0, 9.999093, 9.999677 
1.2950522e+3, 2.0478332e+2, -1012821.2, -1017794.3, 58710.805, 0.029378546, 0.015684921, -956544.3, -23413.34, 0.0, 9.999622, 9.999572 
1.295078e+3, 2.1478383e+2, -812487.75, -861131.06, 49999.547, 0.07527837, 0.08897013, -781208.2, 53917.715, 0.0, 10.000282, 9.999657 
1.2951034e+3, 2.2478339e+2, -771660.9, -833361.1, 23066.107, 0.09123003, 0.106139235, -763991.2, -26862.1, 0.0, 10.000079, 9.999273 
1.2951283e+3, 2.3478186e+2, -826120.94, -797190.5, 39717.836, 0.07735131, 0.005745161, -769385.75, -130243.56, 0.0, 9.998981, 9.999377 
1.2951522e+3, 2.4478039e+2, -733650.25, -832486.3, 19803.418, -0.024988558, -0.014632426, -729830.0, -188674.2, 0.0, 9.999499, 9.998214 
1.2951747e+3, 2.547789e+2, -300942.56, -566923.9, 28395.646, -0.22086503, -0.00304312, -297944.88, 145226.34, 0.0, 10.001774, 9.998267 
1.2951988e+3, 2.64777e+2, -168091.63, -582988.4, -19079.297, -0.24121861, 0.04547145, -167216.1, 177975.1, 0.000000052302592, 10.002569, 9.997104 
1.2952243e+3, 2.7477473e+2, -178100.92, -526154.75, -38284.516, -0.075342916, 0.08683672, -173939.53, 73276.41, 0.000007172051, 10.001786, 9.997195 
1.2952499e+3, 2.8477192e+2, -2914.0647, -376790.4, 64673.46, -0.02966033, 0.0880194, 7957.108, 157200.55, 0.000069658236, 10.002259, 9.997317 
1.2952758e+3, 2.947683e+2, 347677.66, -156723.89, 114819.07, -0.11049596, -0.02792077, 372584.53, 423861.1, 0.0002984911, 10.003992, 9.997321 
1.2953018e+3, 3.0476594e+2, 405236.94, -234084.48, 22606.662, -0.08813005, 0.07127116, 406035.3, 406035.3, 0.0007671863, 10.00463, 9.996146 
1.2953275e+3, 3.1476316e+2, 448994.06, -7429.5454, -58275.62, 0.055126533, 0.1414172, 456317.13, 456317.13, 0.0014363097, 10.004027, 9.997986 
1.3048564e+3, 1.24750264e+2, -2074741.5, -1661735.3, 204197.23, 0.06988008, 0.024864338, -1577824.8, 139627.39, 0.0054552136, 9.99653, 10.002027 
1.3048804e+3, 1.3475232e+2, -2006740.3, -1610638.6, -66895.92, 0.101580046, 0.05597079, -1599646.0, 19785.531, 0.003073975, 9.9964695, 10.001741 
1.3049069e+3, 1.4475408e+2, -1904807.3, -1539554.0, -43854.73, 0.31287706, 0.06984125, -1534362.3, -12948.812, 0.0012055306, 9.996613, 10.001485 
1.3049288e+3, 1.5475471e+2, -1740539.3, -1401838.9, -50850.336, 0.1419532, -0.02937124, -1394369.3, 29036.855, 0.000244213, 9.9970455, 10.001542 
1.3049524e+3, 1.6475596e+2, -1589406.1, -1311141.5, -32017.023, 0.10784431, -0.038887445, -1307505.1, 17888.377, 0.000009295233, 9.997553, 10.001249 
1.3049777e+3, 1.74758e+2, -1386446.8, -1153963.9, -84426.57, 0.18979456, 0.023225764, -1126539.4, 100834.44, 0.0, 9.998241, 10.00132 
1.3050023e+3, 1.8475905e+2, -1302043.1, -1192307.3, -59639.324, 0.1836229, 0.059737742, -1166136.1, -36772.324, 0.0, 9.998691, 10.000171 
1.3050266e+3, 1.9475882e+2, -1180594.3, -1074009.1, -33228.973, 0.08621811, 0.0040195193, -1064498.4, -33131.863, 0.0, 9.998819, 10.000245 
1.3050519e+3, 2.0475857e+2, -1100634.5, -1091071.5, 18888.477, 0.068201415, 0.008282074, -1076368.8, -142998.72, 0.0, 9.999159, 9.999291 
1.3050786e+3, 2.1475832e+2, -911409.75, -938852.94, 6442.881, 0.13752371, 0.035515007, -909972.44, -74598.22, 0.0, 9.999746, 9.999377 
1.3051042e+3, 2.2475776e+2, -746490.75, -837480.75, -48498.188, 0.14741255, 0.06337392, -725488.6, 11891.201, 0.0, 10.000316, 9.999131 
1.3051283e+3, 2.347568e+2, -571424.56, -690254.75, -75626.086, 0.09184447, 0.031982176, -534665.56, 104722.73, 0.0, 10.000795, 9.999236 
1.3051523e+3, 2.4475555e+2, -489963.3, -655472.7, -30101.646, -0.011665769, 0.014850962, -484658.66, 56739.984, 0.0, 10.000913, 9.998748 
1.3051763e+3, 2.5475392e+2, -422302.38, -564930.5, 4332.2236, -0.16150807, -0.042438574, -422170.9, 21241.475, 0.0, 10.00067, 9.998816 
1.3052012e+3, 2.64752e+2, -360496.56, -690647.1, -5929.894, -0.17481898, -0.014671228, -360390.06, -14958.531, 0.000000026393016, 10.001322, 9.996962 
1.3052268e+3, 2.7474976e+2, -12797.011, -468556.25, -4533.991, -0.052028686, 0.04739363, -12751.91, 234705.97, 0.0000066700077, 10.003011, 9.997005 
1.3052526e+3, 2.8474712e+2, 138396.92, -287245.66, 92343.805, -0.02539577, 0.067899674, 157567.61, 307051.9, 0.00007501981, 10.0031395, 9.997506 
1.3052787e+3, 2.947441e+2, 20872.676, -290053.4, 67172.56, -0.09607232, -0.009763017, 34764.027, 86275.28, 0.00033195864, 10.001642, 9.997535 
1.305305e+3, 3.0474186e+2, 28702.15, -391186.4, 16482.605, -0.07503538, 0.07807709, 29348.178, 29348.178, 0.00085839094, 10.001908, 9.996393 
1.3053319e+3, 3.1473792e+2, 441062.16, -30935.793, -53544.125, 0.109538324, 0.012743556, 447060.06, 447060.06, 0.0016110885, 10.004024, 9.997847 
1.3148545e+3, 1.24725886e+2, -2089610.9, -1711110.0, 89923.375, 0.18495108, 0.13132219, -1690832.5, 26859.361, 0.005819013, 9.996596, 10.0016575 
1.3148765e+3, 1.347263e+2, -2020006.3, -1643507.4, -63472.05, 0.05657284, 0.026207322, -1633094.9, -13406.163, 0.0032902497, 9.996486, 10.001511 
1.314904e+3, 1.447281e+2, -1859859.0, -1447439.3, -37036.523, 0.34628612, 0.020288896, -1444139.6, 77530.12, 0.0013013786, 9.996622, 10.002112 
1.3149254e+3, 1.5473047e+2, -1699443.4, -1319089.4, -28827.453, 0.07988359, 0.03809495, -1316916.9, 106725.42, 0.00026992275, 9.997055, 10.002108 
1.3149491e+3, 1.6473153e+2, -1673539.8, -1492343.4, -14713.626, 0.0024286043, 0.04495438, -1491156.4, -165524.0, 0.00001153221, 9.997573, 9.999999 
1.3149753e+3, 1.7473109e+2, -1469935.4, -1336671.3, -52303.555, 0.118431866, -0.013710352, -1318595.0, -90952.67, 0.0, 9.998271, 10.000055 
1.315001e+3, 1.847318e+2, -1247817.8, -1077315.5, -61706.496, 0.17065178, 0.01342721, -1057326.8, 72309.81, 0.0, 9.998683, 10.000963 
1.315026e+3, 1.9473372e+2, -1123255.3, -953906.06, -24045.322, 0.1497095, 0.087671675, -950558.1, 81055.47, 0.0, 9.99881, 10.001076 
1.315052e+3, 2.0473407e+2, -1117651.4, -1115236.1, 32377.23, 0.15350421, 0.11661429, -1084044.0, -150434.64, 0.0, 9.99911, 9.999148 
1.315079e+3, 2.1473257e+2, -934204.06, -971529.44, 35557.316, 0.19452198, 0.038256608, -912709.3, -77082.43, 0.0, 9.999675, 9.99919 
1.315104e+3, 2.2473158e+2, -795724.25, -913019.2, -36665.73, 0.109470546, 0.05276417, -785206.0, -47567.37, 0.0, 10.000205, 9.998666 
1.315127e+3, 2.3473103e+2, -621046.0, -770522.3, -48174.867, -0.11276197, 0.11333652, -606865.06, 32779.875, 0.0, 10.000697, 9.9987335 
1.315152e+3, 2.447302e+2, -434693.6, -516969.5, -44968.695, -0.1464025, 0.11693129, -414884.72, 126765.4, 0.0, 10.000809, 9.99975 
1.315179e+3, 2.5472915e+2, -360607.7, -414981.2, 1615.3258, 0.038057335, 0.011941245, -360559.75, 83093.76, 0.0, 10.000575, 9.999891 
1.3152047e+3, 2.6472756e+2, -350652.4, -646714.6, 45169.297, 0.03608474, -0.0060057817, -343914.4, 1752.7817, 0.000000066602475, 10.00122, 9.997313 
1.3152286e+3, 2.7472508e+2, -13238.144, -432449.53, 67115.26, -0.17957087, 0.0022862144, -2755.2073, 244939.8, 0.0000067822207, 10.002864, 9.997317 
1.315254e+3, 2.8472257e+2, 90296.53, -373880.0, 30394.678, -0.2116987, 0.043933548, 92278.336, 242000.03, 0.00008157081, 10.003066, 9.996956 
1.315281e+3, 2.9472008e+2, -21956.314, -370436.53, 21635.313, -0.042130183, 0.07715829, -20618.229, 31127.73, 0.0003645955, 10.001595, 9.997012 
1.3153079e+3, 3.0471736e+2, 74561.49, -281564.13, 86991.65, 0.0027497136, 0.1069768, 94675.15, 94675.15, 0.0009459137, 10.001858, 9.997165 
1.315335e+3, 3.1471175e+2, 423642.28, -1204.248, 46497.766, 0.0072496906, -0.20489979, 428671.75, 428671.75, 0.0017802353, 10.003769, 9.998163 
1.3248509e+3, 1.24700285e+2, -2271769.3, -1758717.6, -10545.031, 0.25800008, 0.16768938, -1758501.0, -40555.05, 0.006183249, 9.995156, 10.002036 
1.3248725e+3, 1.3470085e+2, -2039070.3, -1603006.9, -33593.51, 0.032334536, 0.03659868, -1600434.1, 19505.2, 0.0035072896, 9.996163, 10.001932 
1.3249008e+3, 1.4470269e+2, -1807928.9, -1446264.4, 4968.0327, 0.35790107, 0.023642072, -1446196.3, 75722.84, 0.0013982238, 9.997085, 10.001895 
1.324923e+3, 1.5470493e+2, -1582930.4, -1291643.3, -63518.25, 0.09737097, 0.05304589, -1278395.0, 145498.44, 0.00029637254, 9.997978, 10.001851 
1.3249472e+3, 1.6470593e+2, -1575531.4, -1474995.8, -45686.492, 0.019647816, 0.07996986, -1457336.3, -131451.25, 0.000014169166, 9.998376, 9.999725 
1.3249736e+3, 1.747055e+2, -1501352.4, -1384047.8, -23297.74, 0.12354937, 0.051213562, -1379590.0, -151693.81, 0.0, 9.998199, 9.999761 
1.3249995e+3, 1.8470588e+2, -1291386.0, -1114384.4, -7730.243, 0.16934401, 0.06714374, -1114047.4, 15846.285, 0.0, 9.998459, 10.0008135 
1.325025e+3, 1.9470705e+2, -1066908.1, -942433.94, -57787.883, 0.14882463, 0.08048666, -919742.25, 112134.34, 0.0, 9.999272, 10.000927 
1.3250513e+3, 2.0470731e+2, -1005137.9, -1038906.56, -19639.248, 0.15704843, 0.09852949, -996122.75, -62250.152, 0.0, 9.999782, 9.9993515 
1.3250788e+3, 2.1470653e+2, -886506.3, -925040.6, -2707.8223, 0.20158121, 0.07058236, -886316.94, -50433.3, 0.0, 9.9999, 9.999403 
1.3251041e+3, 2.2470577e+2, -815688.44, -900098.44, -24918.922, 0.11056015, 0.088142864, -808881.06, -70988.914, 0.0, 9.999984, 9.998857 
1.3251272e+3, 2.347049e+2, -695444.75, -778715.25, -2201.0012, -0.13071236, 0.097350694, -695386.56, -55487.668, 0.0, 10.000086, 9.998964 
1.3251527e+3, 2.4470377e+2, -539613.3, -634946.56, -19533.742, -0.13004252, 0.085853055, -535766.1, 6141.413, 0.0, 10.000375, 9.99915 
1.3251808e+3, 2.5470233e+2, -366568.7, -486323.63, -108876.695, 0.13966191, 0.0059031635, -302190.6, 141727.61, 0.0, 10.000833, 9.999276 
1.3252068e+3, 2.6470092e+2, -324378.06, -568882.06, -79098.664, 0.12793677, 0.010633829, -301020.5, 44910.254, 0.0000000978673, 10.001121, 9.997896 
1.3252303e+3, 2.746992e+2, -206146.61, -456406.72, -52896.895, -0.2041184, 0.037747964, -195425.23, 52522.93, 0.000006920427, 10.001236, 9.997943 
1.3252561e+3, 2.8469676e+2, -100824.53, -468001.53, -80688.95, -0.23754098, 0.055509143, -83875.14, 66098.3, 0.00008668865, 10.001779, 9.996922 
1.3252842e+3, 2.946935e+2, 173329.86, -280568.44, -76886.05, 0.05222047, 0.017898219, 185999.95, 238006.78, 0.00038909205, 10.002959, 9.996968 
1.3253112e+3, 3.0469114e+2, 348719.22, -93281.21, 53320.992, 0.070843734, 0.056227054, 355060.66, 355060.66, 0.0010147927, 10.003513, 9.997656 
1.3253379e+3, 3.1468776e+2, 372767.2, -10875.43, -36419.3, -0.063626185, -0.07581568, 376193.88, 376193.88, 0.0019148608, 10.003331, 9.998316 
1.3348447e+3, 1.24673694e+2, -2181622.5, -1577326.3, -65781.07, 0.084307626, 0.13944213, -1570248.5, 147963.98, 0.0065457188, 9.995179, 10.003277 
1.3348684e+3, 1.3467611e+2, -1964136.4, -1449184.1, 7849.292, -0.014994352, 0.08937684, -1449064.5, 171116.95, 0.0037237175, 9.996169, 10.002989 
1.3348973e+3, 1.4467789e+2, -1878078.4, -1596134.1, 32214.395, 0.28481507, 0.06685387, -1592500.1, -70339.27, 0.0014951822, 9.997098, 10.000862 
1.3349216e+3, 1.5467817e+2, -1651466.5, -1445306.6, -20915.506, 0.1393418, 0.0067078723, -1443206.1, -19046.924, 0.00032323142, 9.998017, 10.000781 
1.3349466e+3, 1.6467921e+2, -1530701.5, -1383827.0, -59196.44, 0.10306542, 0.06362179, -1362939.0, -36787.746, 0.000017128494, 9.998384, 10.000348 
1.3349722e+3, 1.746813e+2, -1451355.6, -1283661.1, -24429.371, 0.15516087, 0.21757929, -1280174.8, -52040.08, 0.00000000003443261, 9.998213, 10.000443 
1.3349977e+3, 1.8468134e+2, -1365640.9, -1273374.8, 13334.048, 0.12620267, 0.21794403, -1271486.4, -141351.7, 0.0, 9.998475, 9.999717 
1.3350232e+3, 1.9467883e+2, -1147599.6, -1109558.6, -20812.268, 0.030427815, -0.021973442, -1100384.6, -68229.21, 0.0, 9.999263, 9.999787 
1.3350499e+3, 2.0467836e+2, -978711.9, -967929.75, -23250.818, 0.022283478, -0.043900818, -949453.2, -15294.021, 0.0, 9.999713, 9.999871 
1.3350779e+3, 2.146802e+2, -861425.25, -852132.06, 7294.2495, 0.1088281, 0.13258253, -848130.2, -11986.096, 0.0, 9.9998045, 9.999954 
1.335104e+3, 2.2468024e+2, -769192.9, -783313.6, -26994.893, 0.0921397, 0.16371569, -748350.3, -10209.323, 0.0, 9.99989, 9.999705 
1.3351284e+3, 2.3467831e+2, -644240.75, -659440.5, 8914.794, -0.030349972, -0.020220915, -640126.0, 25.402267, 0.0, 10.000022, 9.999818 
1.335154e+3, 2.4467613e+2, -695283.94, -942383.9, -10712.528, -0.03804518, -0.07950209, -694820.4, -152648.6, 0.0, 10.000308, 9.997071 
1.3351811e+3, 2.546736e+2, -529433.9, -811131.94, -82618.516, 0.08612116, -0.05069185, -506990.9, -62786.47, 0.0, 10.000774, 9.997072 
1.3352072e+3, 2.6467228e+2, -277742.72, -464146.72, -77744.3, 0.04380031, 0.042050194, -249574.27, 96645.55, 0.00000008871969, 10.0010805, 9.998638 
1.3352317e+3, 2.746722e+2, -155107.28, -335958.78, -36524.223, -0.19133739, 0.14461634, -148009.53, 100207.01, 0.000006673535, 10.001172, 9.998802 
1.3352585e+3, 2.846698e+2, -82553.03, -418557.06, -47167.895, -0.1811564, 0.10570536, -76057.234, 74181.61, 0.00008850924, 10.001723, 9.99729 
1.335288e+3, 2.9466474e+2, 175641.48, -239053.75, -21395.738, 0.12116263, -0.15053834, 176742.45, 229032.69, 0.00040084837, 10.002803, 9.997331 
1.3353147e+3, 3.046634e+2, 350763.72, -57770.523, 47650.28, 0.061840065, -0.04158892, 356247.9, 356247.9, 0.0010550235, 10.003383, 9.99796 
1.3353398e+3, 3.1466556e+2, 344060.22, -18001.05, -16375.185, -0.21651751, 0.3526174, 344799.3, 344799.3, 0.0019988737, 10.003119, 9.998365 
1.3448398e+3, 1.2464782e+2, -2164992.8, -1594007.9, 63016.316, 0.06759859, 0.06883844, -1587135.8, 131328.73, 0.0069055543, 9.995405, 10.003045 
1.3448654e+3, 1.3465089e+2, -1824554.1, -1428286.4, 41858.79, 0.025667371, 0.11913786, -1423913.0, 196515.03, 0.0039389143, 9.99733, 10.002574 
1.344894e+3, 1.4465235e+2, -1806225.6, -1619918.1, -12844.494, 0.21932937, 0.11793934, -1619036.8, -96624.875, 0.0015916337, 9.997851, 10.00033 
1.3449195e+3, 1.5465166e+2, -1824937.3, -1584925.5, -42722.086, 0.17641951, 0.011469413, -1577547.8, -153125.38, 0.0003501717, 9.997091, 10.000258 
1.3449451e+3, 1.646524e+2, -1638699.1, -1408563.3, -31193.822, 0.16835655, 0.0541588, -1404410.0, -77992.78, 0.000020254476, 9.997528, 10.000593 
1.3449708e+3, 1.7465489e+2, -1272690.1, -1167238.0, -40661.37, 0.14712186, 0.22147253, -1153380.4, 75013.336, 0.0000000014653116, 9.999313, 10.000713 
1.3449965e+3, 1.8465507e+2, -1180646.9, -1207005.9, -6504.2837, 0.114132315, 0.23476407, -1179129.3, -48738.047, 0.0, 9.999843, 9.999512 
1.3450228e+3, 1.9465254e+2, -1206833.3, -1163417.4, 11809.065, 0.08430128, 0.01373837, -1160413.3, -127999.0, 0.0, 9.998969, 9.999559 
1.3450494e+3, 2.0465186e+2, -1134744.0, -1061215.9, 47492.984, 0.061915156, -0.009042128, -1037920.2, -103499.28, 0.0, 9.998723, 9.999707 
1.3450766e+3, 2.1465322e+2, -961189.75, -911119.9, 8407.031, 0.03910756, 0.13434635, -909746.0, -73336.305, 0.0, 9.999182, 9.999838 
1.3451032e+3, 2.2465311e+2, -753595.8, -752754.8, -50665.05, 0.03937846, 0.14230458, -702508.5, 35898.805, 0.0, 9.999886, 9.999924 
1.3451299e+3, 2.346513e+2, -501534.47, -565546.75, -70378.25, 0.07484734, -0.052006193, -456226.38, 184188.67, 0.0, 10.000885, 10.0000515 
1.3451561e+3, 2.4464935e+2, -532707.1, -871782.44, -40338.05, 0.08267578, -0.09391547, -527974.4, 14458.408, 0.0, 10.001476, 9.996988 
1.345182e+3, 2.546472e+2, -411417.56, -761999.44, 22111.342, 0.053270504, -0.020359129, -410028.5, 34434.69, 0.0, 10.001636, 9.996992 
1.345208e+3, 2.6464552e+2, -171357.52, -446149.9, 84841.57, -0.014532894, 0.05642208, -147273.66, 199208.73, 0.000000062099474, 10.001961, 9.998332 
1.345234e+3, 2.746443e+2, 26398.84, -282940.47, 25479.746, -0.12922972, 0.072705, 28483.514, 276973.72, 0.0000065347235, 10.002566, 9.998488 
1.3452615e+3, 2.8464198e+2, 47239.62, -349781.72, -25149.414, -0.09361067, 0.05615344, 48826.375, 199338.7, 0.00008965579, 10.002586, 9.997348 
1.3452901e+3, 2.946385e+2, 65786.016, -275733.84, -42471.816, 0.109801136, -0.047252648, 70988.61, 123538.32, 0.0004062936, 10.001976, 9.997476 
1.3453169e+3, 3.0463693e+2, 171369.52, -141774.48, 30660.67, 0.01847889, 0.02686058, 174343.34, 174343.34, 0.0010726983, 10.002111, 9.99801 
1.3453436e+3, 3.1463832e+2, 344045.25, -10152.417, -69017.34, -0.14712413, 0.3352058, 357018.47, 357018.47, 0.00203618, 10.00308, 9.998434 
1.354837e+3, 1.2462245e+2, -2295297.8, -1860363.0, 151962.95, 0.21833986, -0.097274095, -1812529.1, -93825.56, 0.0072628423, 9.995408, 10.001206 
1.3548636e+3, 1.3462512e+2, -1957213.8, -1706377.5, 116226.52, 0.10288287, 0.10560429, -1660803.5, -40124.457, 0.004152666, 9.997354, 10.000646 
1.3548909e+3, 1.4462623e+2, -1810720.0, -1639981.4, -46385.23, 0.0990837, 0.17906561, -1628193.6, -105522.74, 0.0016872559, 9.9978895, 10.000178 
1.3549162e+3, 1.5462555e+2, -1820790.9, -1586990.8, -64788.746, 0.1461875, 0.0763389, -1570237.5, -145555.8, 0.0003769789, 9.997126, 10.000233 
1.3549425e+3, 1.646255e+2, -1644278.0, -1425722.1, 24481.367, 0.15208139, 0.044197757, -1423013.4, -96330.29, 0.000023370363, 9.997546, 10.00047 
1.3549693e+3, 1.7462616e+2, -1281595.8, -1188878.1, 33175.703, 0.04977679, 0.04542563, -1178230.3, 50443.81, 0.0000000068048798, 9.999318, 10.0005665 
1.3549961e+3, 1.8462709e+2, -1136012.6, -1115580.0, -43418.836, 0.06389621, 0.110641055, -1081191.8, 49471.832, 0.0, 9.999846, 10.000136 
1.3550234e+3, 1.9462821e+2, -1160691.3, -1068440.9, -15223.876, 0.24264833, 0.18929952, -1065993.5, -33340.73, 0.0, 9.998964, 10.000216 
1.3550498e+3, 2.046278e+2, -1196662.1, -1182057.8, 54429.92, 0.21322367, 0.1983588, -1134442.4, -199784.8, 0.0, 9.998687, 9.998896 
1.3550748e+3, 2.146256e+2, -1030804.7, -1042618.6, 31182.035, -0.061331745, 0.07215885, -1004975.06, -168294.25, 0.0, 9.999119, 9.99897 
1.3551019e+3, 2.2462426e+2, -793224.5, -810576.7, -23283.39, -0.10206114, 0.02238018, -777053.25, -38361.656, 0.0, 9.9997835, 9.999574 
1.3551314e+3, 2.3462394e+2, -539651.2, -621295.2, -26588.598, 0.13095829, 0.007578526, -531755.75, 108932.586, 0.0, 10.000784, 9.999717 
1.3551585e+3, 2.4462348e+2, -422558.03, -620636.75, -40440.715, 0.17525147, 0.045125607, -414619.6, 128070.1, 0.0, 10.001374, 9.998766 
1.3551831e+3, 2.5462285e+2, -294617.47, -498856.03, 33407.34, -0.008751303, 0.085897386, -289291.9, 155405.2, 0.0, 10.001546, 9.998845 
1.3552092e+3, 2.646203e+2, -272049.0, -637527.2, 95927.625, -0.103820704, 0.04434152, -248400.86, 98321.24, 0.000000036385206, 10.0018835, 9.997057 
1.3552374e+3, 2.7461553e+2, -91350.23, -496010.78, 56738.793, -0.079328716, -0.15390523, -83545.234, 165223.4, 0.0000068750182, 10.002433, 9.997091 
1.3552646e+3, 2.8461337e+2, 17649.904, -392731.53, -51835.77, -0.05122039, -0.07139226, 24096.088, 174888.83, 0.000091050126, 10.002505, 9.997091 
1.3552907e+3, 2.946143e+2, 39097.246, -319171.88, -52892.523, -0.036304224, 0.2839864, 46742.797, 99533.49, 0.0004082825, 10.00192, 9.997208 
1.3553177e+3, 3.046113e+2, 151600.48, -160676.88, 57683.25, -0.11799391, 0.24312174, 161914.94, 161914.94, 0.0010723871, 10.002038, 9.997906 
1.3553484e+3, 3.146065e+2, 301746.66, -24377.576, 1753.8484, -0.0030599323, -0.062191047, 301756.1, 301756.1, 0.002029895, 10.002789, 9.998468 
1.3648342e+3, 1.24597065e+2, -1850113.3, -1696057.3, 40560.94, 0.26237097, -0.026379673, -1686030.8, 32921.33, 0.0076198755, 9.998647, 10.000784 
1.3648613e+3, 1.3459806e+2, -1997335.9, -1786791.1, 39668.164, 0.14887902, 0.05883236, -1779565.4, -158621.23, 0.004366158, 9.997311, 10.000126 
1.3648881e+3, 1.4459887e+2, -1899217.8, -1672126.3, -23889.678, 0.06455947, 0.124280885, -1669640.3, -146700.73, 0.0017823466, 9.997244, 10.000264 
1.3649142e+3, 1.5459953e+2, -1480729.5, -1410394.4, -38771.83, 0.12019748, 0.14555879, -1393216.9, 31720.975, 0.0004035849, 9.999405, 10.000344 
1.3649411e+3, 1.6459954e+2, -1302976.4, -1277197.9, 52970.125, 0.14801487, 0.120360605, -1235571.4, 91367.2, 0.000026350568, 9.999957, 10.000322 
1.3649684e+3, 1.7459889e+2, -1393634.5, -1256404.9, 43995.19, 0.07298065, 0.0018649006, -1243511.6, -14570.666, 0.000000016360648, 9.998614, 10.000435 
1.3649954e+3, 1.8459947e+2, -1363980.5, -1239300.5, -47333.125, 0.08764837, 0.04468792, -1223367.3, -92433.24, 0.0, 9.9983425, 10.000015 
1.3650225e+3, 1.9460134e+2, -1102656.6, -1048495.44, -88919.93, 0.23010206, 0.21056324, -982623.8, 50293.844, 0.0, 9.999408, 10.000135 
1.365049e+3, 2.0460115e+2, -977267.3, -1066748.3, 6304.153, 0.20666452, 0.24050301, -976825.4, -41904.938, 0.0, 10.000152, 9.998982 
1.365075e+3, 2.1459855e+2, -818008.7, -930809.44, 43324.52, -0.017462637, 0.06749615, -803289.3, 33655.855, 0.0, 10.00054, 9.999053 
1.3651027e+3, 2.2459696e+2, -693607.6, -812670.6, 36532.723, -0.04196105, 0.008741419, -683291.9, 55667.094, 0.0, 10.000693, 9.999113 
1.3651323e+3, 2.3459649e+2, -611362.94, -710213.2, 3861.3328, 0.1677176, 0.028214032, -611212.3, 29748.377, 0.0, 10.000532, 9.999224 
1.3651597e+3, 2.4459606e+2, -503570.6, -625047.94, -55723.664, 0.1979151, 0.07951131, -481881.66, 61080.88, 0.0, 10.000669, 9.999073 
1.3651846e+3, 2.5459567e+2, -320969.06, -474921.56, -105721.31, 0.006732954, 0.11050831, -267169.4, 177795.69, 0.0, 10.001201, 9.999174 
1.365211e+3, 2.6459336e+2, -300461.38, -630477.75, -32910.97, -0.0918222, 0.06440193, -297211.34, 49775.508, 0.000000033203506, 10.001602, 9.997242 
1.3652393e+3, 2.745888e+2, -159536.23, -503179.56, 22105.69, -0.074009955, -0.1288953, -158120.06, 90911.08, 0.0000069323874, 10.001859, 9.997316 
1.365267e+3, 2.8458667e+2, -8082.997, -417820.38, -12507.551, -0.056049768, -0.049621515, -7701.5493, 143353.11, 0.00008927096, 10.002402, 9.996963 
1.3652933e+3, 2.9458728e+2, 251171.63, -225469.83, -22249.973, -0.04879288, 0.28839955, 252208.02, 305262.72, 0.00039892914, 10.003434, 9.997113 
1.3653202e+3, 3.045836e+2, 342015.06, -82448.77, 93271.836, -0.12803689, 0.18712513, 361606.4, 361606.4, 0.001045218, 10.003392, 9.9978 
1.3653512e+3, 3.1457865e+2, 197664.78, -54321.945, 11541.464, 0.06054128, -0.11618147, 198192.3, 198192.3, 0.0019745822, 10.001938, 9.998695 
1.3748327e+3, 1.2457162e+2, -1772068.0, -1536114.0, 20343.002, 0.2162642, 0.28635564, -1534372.9, 184838.42, 0.0079810945, 9.998677, 10.001863 
1.3748582e+3, 1.345698e+2, -1923970.8, -1634145.5, -19310.371, 0.08334747, -0.011608326, -1632864.5, -11641.703, 0.0045821774, 9.997313, 10.00117 
1.3748854e+3, 1.4457028e+2, -1875257.9, -1625659.0, 39525.19, 0.056893136, -0.048435032, -1619549.5, -96332.06, 0.0018779465, 9.997253, 10.000581 
1.3749132e+3, 1.5457352e+2, -1458124.1, -1371301.6, 52256.11, 0.04302739, 0.20316012, -1346777.4, 78414.51, 0.00043006244, 9.999436, 10.000599 
1.3749407e+3, 1.6457461e+2, -1306166.9, -1296180.4, -1865.7301, 0.09092653, 0.28191397, -1295843.3, 31339.592, 0.000029160963, 10.000003, 10.000174 
1.3749678e+3, 1.7457321e+2, -1401280.4, -1278857.4, -2783.3179, 0.15670115, 0.10483016, -1278794.1, -49601.266, 0.000000027808229, 9.998631, 10.00028 
1.3749942e+3, 1.8457231e+2, -1417171.4, -1353417.1, -19787.11, 0.12267397, 0.044286214, -1347775.3, -216573.63, 0.0, 9.998361, 9.999224 
1.3750197e+3, 1.945719e+2, -1166834.1, -1176367.3, -44819.254, 0.00015654077, 0.0667476, -1126528.6, -93319.2, 0.0, 9.99938, 9.999276 
1.3750471e+3, 2.0457184e+2, -915335.94, -925591.9, 13999.055, -0.016804537, 0.1093633, -905555.2, 29654.809, 0.0, 10.000098, 9.999977 
1.3750768e+3, 2.1457218e+2, -756822.1, -782592.2, 64910.746, 0.09801039, 0.12104634, -703529.9, 133672.3, 0.0, 10.000447, 10.000116 
1.3751054e+3, 2.2457129e+2, -753627.94, -908823.7, 25367.877, 0.14876118, 0.1059769, -749586.6, -10377.858, 0.0, 10.000571, 9.998513 
1.3751325e+3, 2.3456895e+2, -670935.44, -813446.3, 5581.553, 0.12644131, 0.006809073, -670717.2, -29484.72, 0.0, 10.000446, 9.998555 
1.3751595e+3, 2.4456714e+2, -591609.9, -792549.1, -45304.17, 0.090346165, 0.009036353, -581867.8, -38616.723, 0.0, 10.000597, 9.99796 
1.3751861e+3, 2.5456592e+2, -409897.8, -642049.8, -77629.664, 0.042118274, 0.06816724, -386331.4, 58932.863, 0.0, 10.00112, 9.99807 
1.3752131e+3, 2.645648e+2, -207814.34, -416151.2, -28347.371, -0.042813044, 0.1280855, -204026.14, 143247.83, 0.000000022673568, 10.001511, 9.998756 
1.3752405e+3, 2.7456382e+2, -67532.91, -278650.56, 37749.367, -0.16779755, 0.12724273, -60986.066, 188294.2, 0.000006624494, 10.001725, 9.998919 
1.3752684e+3, 2.845616e+2, -16457.287, -414440.0, 13771.838, -0.16325733, 0.11516223, -15981.294, 135319.16, 0.00008435929, 10.002306, 9.997036 
1.3752973e+3, 2.945579e+2, 229989.78, -234621.02, 27017.668, -0.0074565886, 0.020546509, 231555.61, 284893.9, 0.00037578115, 10.00328, 9.99713 
1.375324e+3, 3.0455405e+2, 316969.47, -107498.45, 38941.734, -0.10140315, -0.097690746, 320512.5, 320512.5, 0.0009853418, 10.003284, 9.997672 
1.375352e+3, 3.1455386e+2, 192647.78, -10375.277, -15572.083, -0.0773952, 0.09494541, 193835.23, 193835.23, 0.001864521, 10.001734, 9.999082 
1.3848299e+3, 1.24543354e+2, -2106528.5, -1661111.4, 41419.836, 0.18538506, 0.3382871, -1657292.4, 62199.652, 0.008351057, 9.996223, 10.002188 
1.3848557e+3, 1.3454154e+2, -1756405.0, -1507319.6, -84667.3, 0.06637842, 0.003069943, -1481265.4, 140236.58, 0.004803759, 9.998259, 10.0015955 
1.3848844e+3, 1.4454237e+2, -1655924.4, -1487237.4, -22457.338, 0.1774486, -0.03561996, -1484298.8, 39193.29, 0.0019753822, 9.998617, 10.000876 
1.3849114e+3, 1.5454556e+2, -1716204.5, -1464370.1, -22171.096, 0.032615565, 0.184925, -1462433.1, -36967.273, 0.00045665295, 9.997535, 10.000877 
1.384939e+3, 1.6454701e+2, -1651429.3, -1446869.1, -66649.43, 0.03676232, 0.27922237, -1427069.9, -99616.31, 0.00003186285, 9.997578, 10.000305 
1.3849668e+3, 1.7454651e+2, -1330335.3, -1228104.4, -62272.016, 0.16305579, 0.17868975, -1198655.6, 30800.861, 0.000000039188958, 9.999059, 10.000417 
1.3849933e+3, 1.8454556e+2, -1215907.0, -1267717.3, -13863.036, 0.1377334, 0.11127477, -1212430.9, -80965.14, 0.0, 9.999786, 9.999128 
1.3850185e+3, 1.9454408e+2, -1119860.6, -1159001.9, 6519.9595, -0.056957632, 0.03620963, -1118803.1, -85320.8, 0.0, 9.999732, 9.999222 
1.3850464e+3, 2.0454387e+2, -968871.8, -939683.75, 69140.68, -0.07239706, 0.058741745, -883613.6, 51870.324, 0.0, 9.99968, 10.00008 
1.3850771e+3, 2.1454503e+2, -858106.1, -815396.8, 33588.727, 0.12947245, 0.14070286, -796949.2, 40519.56, 0.0, 9.999682, 10.000258 
1.385106e+3, 2.2454457e+2, -842737.75, -983147.0, -6750.165, 0.1879699, 0.17262442, -842414.0, -102941.5, 0.0, 10.000075, 9.998254 
1.3851327e+3, 2.3454215e+2, -604458.0, -814243.1, -10973.766, 0.07575301, 0.09326889, -603885.5, 37613.46, 0.0, 10.001026, 9.998281 
1.38516e+3, 2.4453989e+2, -470381.1, -761944.3, -2898.94, 0.028308233, 0.07808473, -470352.28, 73170.13, 0.0, 10.001563, 9.997696 
1.3851877e+3, 2.5453785e+2, -340442.94, -633057.94, 6537.2446, 0.0525727, 0.08213114, -340296.94, 105245.164, 0.0, 10.0017185, 9.997831 
1.385215e+3, 2.6453647e+2, -219505.42, -424522.63, 25740.602, 0.015321973, 0.12448042, -216323.0, 131231.45, 0.0000000049794013, 10.001444, 9.998729 
1.3852423e+3, 2.7453578e+2, -211709.47, -351678.66, -37155.887, -0.08893843, 0.15458043, -202457.69, 47101.234, 0.0000064646365, 10.000739, 9.998896 
1.3852708e+3, 2.845337e+2, -159419.86, -429827.53, -34085.332, -0.07611278, 0.13713886, -155189.53, -3612.565, 0.00007935542, 10.001094, 9.997515 
1.3853008e+3, 2.9453e+2, 199294.1, -185581.75, -4452.578, 0.055210125, -0.008084882, 199345.6, 252957.55, 0.00034767005, 10.002795, 9.997694 
1.3853276e+3, 3.0452654e+2, 287925.84, -182525.8, -61926.37, -0.07180485, -0.08827404, 295940.75, 295940.75, 0.00091041916, 10.003353, 9.99712 
1.3853543e+3, 3.145265e+2, 311288.84, 26699.01, -163003.64, -0.05843341, 0.1760539, 385368.7, 385368.7, 0.0017264363, 10.002624, 9.998912 
1.3948248e+3, 1.24511726e+2, -2148615.3, -1723949.1, 42145.883, 0.043353073, 0.073730536, -1719806.8, -7.8789234, 0.008733579, 9.996137, 10.001786 
1.3948536e+3, 1.3451329e+2, -1770045.1, -1539156.5, -7849.386, 0.03426418, 0.09823813, -1538890.0, 82891.68, 0.005033633, 9.998273, 10.001367 
1.3948852e+3, 1.4451528e+2, -1628227.8, -1441067.8, -76335.12, 0.36997283, 0.17145301, -1413882.4, 109879.72, 0.002076125, 9.998662, 10.001175 
1.3949089e+3, 1.5451576e+2, -1697056.0, -1422127.9, -57091.742, 0.016271982, 0.092901535, -1410743.6, 15015.361, 0.00048381835, 9.997521, 10.001177 
1.3949353e+3, 1.6451678e+2, -1622836.8, -1392408.9, -23660.729, -0.094805986, 0.10925225, -1390004.5, -62254.113, 0.000034571214, 9.997592, 10.000677 
1.3949648e+3, 1.745186e+2, -1307315.0, -1179820.0, -1375.9666, 0.044448197, 0.20809709, -1179805.3, 49927.93, 0.00000005013657, 9.999051, 10.000757 
1.3949926e+3, 1.8451916e+2, -1160277.8, -1160190.8, -23796.19, 0.07306691, 0.24000502, -1136438.0, -4711.053, 0.0, 9.999817, 9.999851 
1.395019e+3, 1.9451798e+2, -1071827.3, -1056225.4, 9209.449, -0.007047, 0.12191158, -1051957.0, -18221.447, 0.0, 9.999709, 9.999943 
1.3950466e+3, 2.0451728e+2, -1027895.06, -1048203.1, 60753.273, -0.026199773, 0.09125507, -976453.06, -40711.28, 0.0, 9.999622, 9.999361 
1.3950758e+3, 2.1451715e+2, -929608.94, -942100.8, 38318.477, 0.023681635, 0.12580302, -897030.7, -59285.98, 0.0, 9.999591, 9.999433 
1.3951044e+3, 2.245168e+2, -846386.6, -974532.6, 18629.604, 0.017077621, 0.20903912, -843733.25, -103982.97, 0.0, 9.999997, 9.998353 
1.3951325e+3, 2.3451611e+2, -607224.9, -799828.56, 31817.303, -0.04079801, 0.28682485, -602104.94, 39654.89, 0.0, 10.000935, 9.9984255 
1.3951607e+3, 2.4451439e+2, -448830.53, -697240.25, -3862.5156, -0.054974254, 0.2915358, -448770.5, 95005.38, 0.0, 10.001473, 9.998185 
1.3951887e+3, 2.5451133e+2, -325420.1, -573687.3, 18602.064, -0.017594839, 0.14591286, -324034.0, 121766.43, 0.0, 10.0016, 9.998295 
1.3952167e+3, 2.6450822e+2, -328532.4, -636371.56, -6812.06, 0.024113113, 0.060979243, -328381.72, 19447.512, 0.0000000011462398, 10.001374, 9.997311 
1.395245e+3, 2.7450502e+2, -325481.53, -573953.75, -52795.37, 0.08877685, -0.011792439, -314728.9, -64865.652, 0.000006299897, 10.000676, 9.997402 
1.3952741e+3, 2.8450337e+2, -112968.42, -320509.63, 20574.568, 0.11629492, 0.04971783, -110948.42, 40931.277, 0.00007482128, 10.001036, 9.998293 
1.3953039e+3, 2.945033e+2, 232710.92, -79945.96, 70343.875, 0.07228731, 0.1840686, 247808.39, 301685.84, 0.00032370954, 10.002639, 9.998497 
1.3953306e+3, 3.0450085e+2, 214487.67, -306561.06, -91852.945, -0.10819096, 0.20247583, 230205.78, 230205.78, 0.0008490811, 10.003231, 9.996325 
1.3953575e+3, 3.1449685e+2, 245519.16, -79352.62, -152830.44, -0.01108761, 0.15390024, 306113.66, 306113.66, 0.0016132931, 10.002497, 9.998245 
1.4048223e+3, 1.2448237e+2, -2021979.0, -1675674.6, 55219.594, 0.14781883, 0.0015158162, -1667082.8, 53002.51, 0.009133226, 9.99705, 10.001677 
1.404851e+3, 1.3448533e+2, -1903221.4, -1569172.0, 100750.484, -0.0007861553, 0.13413222, -1541138.0, 80918.625, 0.005275387, 9.997212, 10.00167 
1.4048834e+3, 1.4448787e+2, -1792546.5, -1547378.4, 5606.5693, 0.39129427, 0.25551337, -1547250.3, -23217.564, 0.0021822979, 9.997652, 10.000924 
1.4049074e+3, 1.5448712e+2, -1563080.0, -1390983.8, -39163.38, 0.08080246, 0.082311094, -1382490.6, 43550.617, 0.00051218417, 9.998585, 10.000872 
1.4049341e+3, 1.6448765e+2, -1462960.4, -1327990.1, -10495.749, -0.031300783, 0.07008812, -1327178.8, 858.9993, 0.000037386584, 9.998751, 10.000555 
1.4049636e+3, 1.7448972e+2, -1440014.6, -1253024.9, -37593.215, 0.07569724, 0.20060799, -1245750.0, -15730.876, 0.00000006103049, 9.99818, 10.000671 
1.4049919e+3, 1.8449064e+2, -1348419.1, -1196630.0, -66592.195, 0.10217593, 0.25103164, -1171556.6, -39548.023, 0.0, 9.998301, 10.000329 
1.4050189e+3, 1.9449009e+2, -1080192.5, -1000094.94, -65937.4, 0.03628772, 0.14399368, -962996.8, 71011.69, 0.0, 9.9994, 10.000473 
1.4050467e+3, 2.0448945e+2, -1013621.75, -1097787.8, -19997.922, 0.016875414, 0.11599333, -1009111.9, -73097.96, 0.0, 9.999956, 9.998866 
1.4050756e+3, 2.1448873e+2, -916173.6, -993787.8, -33999.027, 0.05014645, 0.14386617, -903386.9, -65361.348, 0.0, 9.99993, 9.998917 
1.4051045e+3, 2.2448805e+2, -806615.0, -928489.06, 8239.298, 0.03090581, 0.2132308, -806060.5, -66025.73, 0.0, 10.000182, 9.998567 
1.4051333e+3, 2.344874e+2, -596191.7, -759482.1, 13589.998, -0.050317623, 0.26823884, -595068.4, 46973.48, 0.0, 10.000882, 9.998715 
1.4051619e+3, 2.4448587e+2, -484592.75, -700751.56, -47895.145, -0.05960982, 0.2720457, -474455.8, 69599.336, 0.0, 10.001166, 9.998311 
1.4051901e+3, 2.5448325e+2, -404943.94, -597343.75, -66763.56, 0.004531332, 0.15835617, -384046.47, 62029.88, 0.0, 10.000985, 9.998431 
1.4052182e+3, 2.644803e+2, -353327.13, -688505.2, -43220.113, 0.050199527, 0.096902564, -347843.72, 261.37125, 0.0000000047036606, 10.001379, 9.996948 
1.4052464e+3, 2.7447695e+2, -73293.77, -492425.56, -31557.186, 0.081940316, 0.05277576, -70931.1, 179210.81, 0.000006310048, 10.002585, 9.997041 
1.4052756e+3, 2.84475e+2, 103363.11, -210593.3, 62506.035, 0.10570688, 0.10261927, 115349.875, 267511.2, 0.00007120588, 10.002508, 9.998332 
1.4053057e+3, 2.9447448e+2, -17044.758, -191426.28, 38418.684, 0.09669584, 0.1827647, -8955.804, 45206.316, 0.00031037428, 10.000893, 9.998568 
1.4053334e+3, 3.044723e+2, -24696.703, -441777.13, -52056.117, -0.06404684, 0.2308004, -18297.717, -18297.717, 0.00081845216, 10.00166, 9.996164 
1.4053619e+3, 3.1446773e+2, 666567.1, 115976.03, -78596.055, 0.026325962, 0.14163296, 677566.8, 677566.8, 0.0015563706, 10.0054245, 9.9981785 
1.414821e+3, 1.2445535e+2, -2003045.9, -1638870.1, -78664.73, 0.27451614, 0.09547256, -1622604.4, 97746.38, 0.009556688, 9.997067, 10.001924 
1.4148472e+3, 1.3445784e+2, -1851216.6, -1448046.9, 116571.734, -0.102984875, 0.10066641, -1416768.1, 205556.75, 0.0055341963, 9.997166, 10.002524 
1.4148788e+3, 1.4446019e+2, -1845596.6, -1667942.9, 31162.137, 0.14018995, 0.19710404, -1662635.4, -138332.23, 0.0022969088, 9.997685, 10.000088 
1.414907e+3, 1.5445983e+2, -1627252.3, -1530999.8, 1998.3073, 0.1654545, 0.15951341, -1530958.3, -104647.23, 0.0005425403, 9.99861, 9.999902 
1.414935e+3, 1.6445982e+2, -1495280.4, -1405941.4, -40897.426, 0.17075443, 0.17435715, -1390047.3, -61733.3, 0.000040406845, 9.9987955, 10.000001 
1.4149632e+3, 1.7445998e+2, -1479062.4, -1328896.9, -53956.59, 0.19905427, 0.16537145, -1311520.3, -81207.33, 0.00000007226826, 9.9981575, 10.000164 
1.414991e+3, 1.8446015e+2, -1331845.1, -1163414.1, -36750.434, 0.15802293, 0.15514526, -1155744.6, -23435.506, 0.0, 9.998304, 10.000556 
1.4150181e+3, 1.944604e+2, -1067979.8, -968499.56, -18784.791, 0.015265133, 0.10290877, -965070.6, 69230.516, 0.0, 9.999373, 10.000703 
1.4150466e+3, 2.0446035e+2, -1028407.56, -1124012.9, -30331.762, -0.0016093955, 0.13155709, -1019596.5, -83295.81, 0.0, 9.99993, 9.9987 
1.4150769e+3, 2.1445982e+2, -943459.2, -1030537.56, -29616.422, 0.15548012, 0.19828498, -934341.06, -96030.39, 0.0, 9.999837, 9.998714 
1.4151062e+3, 2.2445847e+2, -799298.8, -888208.1, 24636.322, 0.16288754, 0.19228064, -792928.6, -52603.67, 0.0, 10.000074, 9.998894 
1.4151347e+3, 2.3445617e+2, -593969.4, -724981.6, 48232.96, -0.011768469, 0.05082754, -578127.7, 64216.39, 0.0, 10.000757, 9.999012 
1.4151633e+3, 2.4445456e+2, -507336.75, -731450.4, -58949.703, -0.060040053, 0.041755956, -492776.84, 51581.758, 0.0, 10.001085, 9.99814 
1.4151917e+3, 2.5445375e+2, -426428.22, -630189.5, -65352.285, 0.055976287, 0.12610176, -407269.25, 39099.137, 0.0, 10.000927, 9.998237 
1.4152196e+3, 2.6445267e+2, -325856.1, -615013.44, -6467.584, 0.034060247, 0.23707423, -325711.5, 22669.947, 0.000000079284355, 10.001309, 9.997483 
1.4152469e+3, 2.744512e+2, -54705.746, -425364.94, 24041.867, -0.14954707, 0.32337806, -53152.836, 197245.7, 0.000007370017, 10.002466, 9.997557 
1.4152756e+3, 2.8444836e+2, 58505.414, -295683.84, 1017.0997, -0.15459624, 0.2833604, 58508.336, 210933.53, 0.00007169882, 10.002457, 9.99778 
1.4153063e+3, 2.944437e+2, -57618.344, -284004.1, -11009.934, 0.06258931, 0.008114141, -57084.152, -2619.41, 0.00031191297, 10.000905, 9.997938 
1.4153354e+3, 3.0444106e+2, -14436.178, -395090.06, 74493.9, -0.020575974, 0.033252526, -377.0001, -377.0001, 0.00082090596, 10.001575, 9.996509 
1.4153665e+3, 3.1443897e+2, 619776.56, 109456.87, 94436.18, -0.06536287, 0.14192969, 636691.6, 636691.6, 0.0015570638, 10.005058, 9.998296 
1.424819e+3, 1.24428354e+2, -1949498.3, -1669442.3, -65607.47, 0.34139833, 0.11749729, -1654834.6, 65781.336, 0.010011913, 9.99767, 10.0014305 
1.4248453e+3, 1.3443056e+2, -1806571.5, -1464080.1, 86273.52, -0.02673115, 0.12798464, -1443575.5, 179019.45, 0.0058154534, 9.997634, 10.002192 
1.4248756e+3, 1.4443226e+2, -1796740.9, -1652900.4, 31169.307, 0.033115882, 0.18258068, -1646436.8, -121856.7, 0.002423067, 9.998084, 9.9999895 
1.424906e+3, 1.544325e+2, -1556691.3, -1506542.1, 50116.52, 0.18299705, 0.21219134, -1475577.4, -48996.66, 0.00057589856, 9.999145, 9.99981 
1.4249347e+3, 1.6443233e+2, -1416421.5, -1419063.8, 12511.7705, 0.23690265, 0.23608664, -1405161.3, -76576.79, 0.00004378684, 9.999551, 9.999546 
1.4249621e+3, 1.7443155e+2, -1341998.3, -1313163.3, -15226.826, 0.23782845, 0.17828004, -1306611.3, -76018.66, 0.00000008454083, 9.999315, 9.99971 
1.4249896e+3, 1.8443108e+2, -1241700.0, -1179530.0, 28962.533, 0.16548423, 0.1530457, -1168128.5, -35532.58, 0.0, 9.999185, 10.000016 
1.425017e+3, 1.9443104e+2, -1111742.5, -1049847.8, -23550.793, -0.027637085, 0.12345056, -1041905.8, -7312.825, 0.0, 9.999334, 10.00016 
1.4250459e+3, 2.0443082e+2, -1058860.5, -1122230.5, -50202.7, -0.046295635, 0.15866904, -1031180.06, -94585.625, 0.0, 9.9996605, 9.998839 
1.4250769e+3, 2.1443032e+2, -861165.75, -965548.8, -40053.02, 0.16496019, 0.2104279, -847568.25, -8966.249, 0.0, 10.000302, 9.998927 
1.4251067e+3, 2.2442904e+2, -735394.8, -829739.06, 31025.523, 0.20672274, 0.1886475, -726106.4, 14507.664, 0.0, 10.000381, 9.999154 
1.4251353e+3, 2.3442692e+2, -712569.6, -750411.8, 37055.125, 0.02915974, 0.03599726, -689884.4, -47253.453, 0.0, 9.999792, 9.999309 
1.425164e+3, 2.4442543e+2, -659555.44, -827473.75, -29468.215, -0.028365863, 0.032805745, -654534.2, -109889.01, 0.0, 10.000151, 9.997932 
1.4251931e+3, 2.5442466e+2, -305241.2, -593738.56, -56916.207, 0.062863104, 0.14445, -294418.5, 152238.64, 0.00000000006254562, 10.001862, 9.998035 
1.4252214e+3, 2.644237e+2, -150860.7, -510148.38, -21421.912, 0.035950895, 0.27071273, -149587.97, 199081.58, 0.00000036239143, 10.002421, 9.997672 
1.4252488e+3, 2.744225e+2, -173397.34, -454055.1, -27534.95, -0.12886955, 0.3598235, -170721.44, 79960.93, 0.000010082052, 10.001526, 9.99781 
1.4252779e+3, 2.844197e+2, -53269.445, -380199.13, -30649.74, -0.1366117, 0.32217205, -50420.844, 102287.96, 0.000078412035, 10.001823, 9.997507 
1.4253084e+3, 2.9441488e+2, 336920.6, -122014.94, -46493.55, 0.03958086, 0.06789719, 341583.34, 396334.9, 0.00032778483, 10.003753, 9.997675 
1.4253381e+3, 3.044125e+2, 372095.13, -161590.23, 89421.195, -0.026124166, 0.10555038, 386679.47, 386679.47, 0.00085219054, 10.004009, 9.996948 
1.4253706e+3, 3.144097e+2, 188841.0, -84329.46, 101679.47, -0.0016129263, 0.099315755, 222532.72, 222532.72, 0.0016103159, 10.002015, 9.998435 
1.4348154e+3, 1.24401495e+2, -2024775.9, -1831634.8, -74788.18, 0.17346293, 0.056742534, -1806061.4, -85181.79, 0.010506618, 9.997689, 10.000302 
1.434845e+3, 1.3440388e+2, -1921890.3, -1696185.1, 93249.74, 0.1786601, 0.2365222, -1662643.6, -39780.504, 0.006123269, 9.997616, 10.000592 
1.4348735e+3, 1.4440437e+2, -1739811.4, -1553857.0, 60515.637, 0.009587043, 0.22360136, -1535897.8, -11036.833, 0.002563054, 9.998151, 10.000646 
1.4349042e+3, 1.5440518e+2, -1495678.0, -1382884.3, 97134.64, 0.0713388, 0.23047777, -1326961.4, 99888.66, 0.0006133788, 9.99915, 10.000662 
1.434933e+3, 1.6440526e+2, -1438425.9, -1471431.5, -1758.6349, 0.087972686, 0.25249174, -1438332.5, -109484.28, 0.000047750204, 9.999576, 9.999177 
1.4349605e+3, 1.7440444e+2, -1372860.0, -1382575.6, -18310.223, 0.12859245, 0.23595272, -1358774.1, -127916.63, 0.00000010052836, 9.999333, 9.999228 
1.4349881e+3, 1.844034e+2, -1326598.1, -1361106.8, 23530.863, 0.06566286, 0.24106728, -1314673.5, -181804.61, 0.0, 9.999207, 9.998761 
1.4350152e+3, 1.9440204e+2, -1206360.1, -1241144.8, -12588.866, -0.15063432, 0.20823509, -1202282.3, -167398.86, 0.0, 9.99931, 9.998863 
1.4350443e+3, 2.0440097e+2, -1034593.25, -1062676.8, -35994.824, -0.18790032, 0.20560798, -1009998.25, -73104.62, 0.0, 9.999618, 9.999269 
1.4350758e+3, 2.1440026e+2, -842579.5, -903865.06, -8983.216, 0.018963007, 0.18462, -841289.9, -2390.9233, 0.0, 10.000199, 9.999403 
1.4351061e+3, 2.2439975e+2, -732832.6, -799862.8, 4080.874, 0.09907056, 0.20343442, -732585.1, 8317.319, 0.0, 10.0002775, 9.999408 
1.435135e+3, 2.3439954e+2, -709352.56, -721632.0, 20845.459, 0.018526118, 0.21829313, -693761.44, -50858.2, 0.0, 9.999698, 9.999554 
1.4351644e+3, 2.4439833e+2, -689264.0, -870050.44, 21032.531, -0.030033067, 0.24032842, -686849.3, -141933.4, 0.0, 10.000061, 9.997685 
1.4351942e+3, 2.5439587e+2, -345780.16, -652201.25, 15685.179, -0.029728945, 0.21189204, -344979.34, 101964.39, 0.000000006122379, 10.001749, 9.997691 
1.4352235e+3, 2.6439342e+2, -164546.3, -519062.44, -54537.805, -0.004721225, 0.21455868, -156346.02, 192622.89, 0.0000008787704, 10.002331, 9.997658 
1.4352524e+3, 2.7439108e+2, -183886.86, -459943.56, -49813.0, 0.060104113, 0.19044456, -175173.39, 75817.51, 0.000014138208, 10.001448, 9.997816 
1.4352818e+3, 2.8438914e+2, -74086.82, -399653.94, 31108.135, 0.058585186, 0.24059731, -71141.07, 81869.27, 0.00009033198, 10.001719, 9.997421 
1.4353116e+3, 2.9438764e+2, 302859.47, -161867.25, 40717.313, -0.0386706, 0.32424745, 306399.97, 361426.8, 0.00035666508, 10.0036125, 9.997471 
1.4353411e+3, 3.0438596e+2, 396275.5, -71896.81, 20669.293, -0.14139578, 0.41557467, 397186.25, 397186.25, 0.0009144842, 10.003852, 9.997636 
1.4353737e+3, 3.1438014e+2, 166129.11, -77470.586, 63402.258, 0.08673365, 0.03411226, 181642.95, 181642.95, 0.0017225327, 10.001781, 9.998598 
1.4448126e+3, 1.2437421e+2, -1920143.8, -1834079.0, -58629.78, 0.08755054, 0.060543545, -1804384.3, -83235.05, 0.011047917, 9.998635, 9.999828 
1.4448449e+3, 1.343764e+2, -1780412.6, -1762076.6, 51686.06, 0.3223792, 0.3331713, -1718751.8, -95614.2, 0.00646129, 9.999152, 9.999402 
1.4448723e+3, 1.4437608e+2, -1585938.3, -1483786.5, 31062.936, 0.025439879, 0.3067864, -1475082.4, 50061.88, 0.0027186894, 9.999235, 10.000594 
1.4449032e+3, 1.543768e+2, -1528345.9, -1392409.6, -13770.372, 0.09123593, 0.2999854, -1391028.8, 36103.965, 0.0006559602, 9.998907, 10.000707 
1.4449322e+3, 1.6437663e+2, -1557798.1, -1538123.1, -130601.02, 0.096275374, 0.30015218, -1416989.6, -87857.07, 0.000052490832, 9.998818, 9.999075 
1.4449595e+3, 1.7437543e+2, -1381024.6, -1396957.4, -136212.8, 0.09763326, 0.2582376, -1252545.5, -21399.732, 0.00000012546444, 9.999335, 9.999122 
1.4449874e+3, 1.8437442e+2, -1266109.0, -1334410.5, -22172.283, 0.05896889, 0.2727389, -1259542.6, -126385.516, 0.0, 9.999623, 9.998748 
1.4450155e+3, 1.9437367e+2, -1153709.5, -1211543.5, 24920.006, -0.06606615, 0.30206063, -1144453.3, -109287.67, 0.0, 9.999655, 9.998898 
1.4450447e+3, 2.043725e+2, -1023934.4, -1053125.4, 59505.574, -0.10753722, 0.2837951, -977260.44, -40084.38, 0.0, 9.999678, 9.999301 
1.4450751e+3, 2.1437068e+2, -903271.3, -927185.0, 37375.65, -0.027600983, 0.14847752, -875986.5, -36796.67, 0.0, 9.999761, 9.999451 
1.4451055e+3, 2.2437005e+2, -788770.3, -854601.7, 20428.914, 0.022117835, 0.16266103, -782946.06, -41751.305, 0.0, 10.000013, 9.999158 
1.4451352e+3, 2.3437093e+2, -605797.4, -697454.44, -15015.366, 0.02923711, 0.312108, -603400.2, 39787.645, 0.0, 10.000522, 9.999316 
1.445165e+3, 2.4437018e+2, -561965.0, -784491.44, 28179.014, 0.009532297, 0.38079628, -558452.06, -13255.234, 0.0, 10.000835, 9.997896 
1.4451952e+3, 2.5436726e+2, -440218.2, -672179.2, 51838.48, -0.049009964, 0.28553608, -429160.5, 18066.195, 0.000000012932129, 10.00098, 9.997928 
1.4452249e+3, 2.6436436e+2, -328375.63, -570496.9, -16334.196, -0.033059884, 0.21517253, -327278.66, 21975.71, 0.0000016431604, 10.001087, 9.997899 
1.445254e+3, 2.7436158e+2, -189140.64, -429639.5, -15828.95, 0.085480995, 0.119578786, -188103.3, 63175.125, 0.00001933506, 10.001279, 9.9980955 
1.4452837e+3, 2.8435975e+2, -95976.41, -414309.88, 141935.48, 0.10477494, 0.1685043, -41883.367, 111413.51, 0.000106984284, 10.00159, 9.997379 
1.4453144e+3, 2.9435903e+2, 63025.66, -279500.7, 147643.11, -0.008112185, 0.33681172, 117880.96, 173189.97, 0.00040085675, 10.001977, 9.997442 
1.4453442e+3, 3.0435804e+2, 175970.02, -70550.45, 76469.34, -0.09645881, 0.44920838, 197763.72, 197763.72, 0.0010132887, 10.001865, 9.998613 
1.4453757e+3, 3.1435344e+2, 114136.66, -38267.887, 106679.016, 0.14547846, 0.0877286, 169034.34, 169034.34, 0.0019005061, 10.00115, 9.999174 
1.4548115e+3, 1.2434733e+2, -1899741.3, -1805929.8, 82284.61, 0.087840945, 0.19105418, -1758120.6, -36703.777, 0.011640448, 9.998697, 9.999992 
1.4548443e+3, 1.3434824e+2, -1833850.5, -1869576.3, 75697.02, 0.34930527, 0.4101663, -1773937.3, -150520.22, 0.0068325973, 9.99914, 9.998671 
1.4548716e+3, 1.4434761e+2, -1647259.8, -1613494.6, 13273.969, 0.002317505, 0.4351263, -1608901.3, -83473.336, 0.0028915813, 9.999245, 9.999697 
1.454903e+3, 1.543475e+2, -1593863.5, -1523254.4, -23368.133, 0.1736, 0.42885262, -1516221.1, -88793.38, 0.00070428615, 9.99889, 9.999813 
1.4549322e+3, 1.6434652e+2, -1537863.5, -1507490.9, -124893.75, 0.19737653, 0.386714, -1396863.6, -67426.48, 0.000058062662, 9.998855, 9.999271 
1.4549589e+3, 1.7434452e+2, -1360618.5, -1357591.3, -109063.59, 0.09314955, 0.24062218, -1250030.9, -18573.545, 0.00000016567238, 9.999342, 9.9993925 
1.4549872e+3, 1.8434417e+2, -1178130.9, -1155391.1, -28469.688, 0.07887225, 0.24891253, -1136104.9, -2644.9338, 0.0, 9.9996395, 9.999968 
1.4550175e+3, 1.9434595e+2, -1070613.0, -1033043.6, 31248.39, 0.16218702, 0.40404823, -1015368.4, 20071.453, 0.0, 9.999628, 10.000137 
1.4550467e+3, 2.0434529e+2, -1056347.0, -1106637.6, 54149.543, 0.1297693, 0.39038584, -1021789.2, -84346.48, 0.0, 9.9996195, 9.9989605 
1.455075e+3, 2.1434149e+2, -944627.25, -994669.4, 45880.215, -0.034961585, 0.09830487, -917388.9, -77913.33, 0.0, 9.999681, 9.999027 
1.4551044e+3, 2.2433992e+2, -847076.94, -954354.4, 30602.082, -0.089639954, 0.070044376, -838961.3, -97470.42, 0.0, 9.999925, 9.998515 
1.4551353e+3, 2.3434123e+2, -674772.94, -810692.75, 11915.013, 0.0015040695, 0.3322256, -673736.4, -30253.088, 0.0, 10.000398, 9.998597 
1.4551662e+3, 2.4434099e+2, -526253.44, -695395.8, 27331.377, 0.023084346, 0.46163705, -521946.66, 23540.959, 0.0, 10.00076, 9.998548 
1.4551961e+3, 2.5433877e+2, -396805.78, -566029.8, 63105.45, -0.053658266, 0.3585707, -375864.53, 71642.64, 0.000000017460069, 10.000905, 9.998695 
1.4552253e+3, 2.6433632e+2, -307913.13, -507409.94, -17180.732, -0.10818306, 0.26795855, -306444.34, 43083.184, 0.000002726617, 10.000998, 9.998377 
1.4552534e+3, 2.743336e+2, -174114.0, -373958.06, -3989.7585, -0.10600427, 0.13352215, -174034.39, 77514.19, 0.0000251694, 10.001179, 9.998524 
1.4552839e+3, 2.8433123e+2, -103441.61, -408144.53, 145457.03, -0.046141513, 0.10698048, -45154.246, 108417.04, 0.00012713004, 10.0014925, 9.997472 
1.4553173e+3, 2.9432932e+2, 53087.24, -273211.06, 168997.73, 0.063190505, 0.14367288, 124837.805, 180434.8, 0.00045719108, 10.00185, 9.997554 
1.4553475e+3, 3.0432886e+2, 237833.67, 95360.91, 42254.29, 0.033953067, 0.24459603, 249422.7, 249422.7, 0.0011416287, 10.001715, 9.99982 
1.4553761e+3, 3.143292e+2, 145834.45, 58502.832, 93582.59, 0.058106262, 0.25280714, 205437.25, 205437.25, 0.00213379, 10.001031, 9.99989 
1.464811e+3, 1.2431784e+2, -1775583.5, -1695944.6, 42441.152, 0.14087097, 0.27790788, -1677567.5, 44142.797, 0.012283002, 9.999316, 10.000459 
1.4648427e+3, 1.3431773e+2, -1852229.9, -1835691.3, -22197.08, 0.29751304, 0.35766804, -1820273.3, -196556.47, 0.00723705, 9.998834, 9.999049 
1.4648701e+3, 1.4431757e+2, -1750379.6, -1667506.3, 22621.293, -0.014570472, 0.41357908, -1661733.6, -136012.36, 0.0030819494, 9.998547, 9.99967 
1.4649022e+3, 1.5431716e+2, -1567539.6, -1513844.1, 34216.313, 0.19668423, 0.3814575, -1497199.9, -69474.62, 0.0007585455, 9.999069, 9.999799 
1.4649318e+3, 1.6431652e+2, -1446911.8, -1433166.9, -4355.987, 0.24694465, 0.3590728, -1431902.6, -102170.25, 0.00006440502, 9.999348, 9.999545 
1.4649583e+3, 1.7431556e+2, -1307604.9, -1300151.6, -3311.0488, 0.112072095, 0.28693634, -1298893.1, -67149.52, 0.00000022299002, 9.999567, 9.999679 
1.4649868e+3, 1.8431558e+2, -1174125.0, -1145525.3, 39141.83, 0.08104959, 0.31484184, -1118153.0, 15590.051, 0.0, 9.999651, 10.00002 
1.4650172e+3, 1.9431685e+2, -1053691.0, -1017169.6, -9099.232, 0.17034724, 0.41284087, -1015028.1, 20699.064, 0.0, 9.99972, 10.000193 
1.4650469e+3, 2.0431617e+2, -1025641.4, -1109516.6, -4770.16, 0.16533062, 0.40001145, -1025370.94, -87640.67, 0.0, 9.999898, 9.998815 
1.4650756e+3, 2.1431306e+2, -865341.56, -970705.25, -3954.2046, 0.04553292, 0.19474277, -865193.4, -25436.742, 0.0, 10.000287, 9.998905 
1.4651054e+3, 2.2431114e+2, -786442.1, -966373.1, 14216.251, -0.01081843, 0.15690425, -785325.8, -43550.582, 0.0, 10.000526, 9.998144 
1.465136e+3, 2.3431063e+2, -660128.25, -846793.4, 3232.402, 0.014892452, 0.27511308, -660072.3, -16287.544, 0.0, 10.000681, 9.998218 
1.4651668e+3, 2.4430977e+2, -516515.1, -673117.2, 23680.29, 0.027620412, 0.35810456, -513012.66, 32781.83, 0.0, 10.000768, 9.99869 
1.4651977e+3, 2.5430858e+2, -379675.63, -532471.8, 2127.599, 0.013581757, 0.34348392, -379646.03, 68157.43, 0.000000044837254, 10.000932, 9.998902 
1.4652272e+3, 2.643067e+2, -295178.5, -523890.63, -107401.78, -0.027663633, 0.30900368, -252651.02, 97168.12, 0.0000038968087, 10.001186, 9.998174 
1.4652549e+3, 2.7430388e+2, -139891.98, -385657.53, -153149.25, -0.09237115, 0.19318521, -66420.82, 185422.45, 0.000030512307, 10.001525, 9.998284 
1.4652854e+3, 2.8430173e+2, -67115.02, -305786.63, -5098.2954, -0.040773537, 0.16325204, -67006.164, 86858.13, 0.00014596309, 10.001379, 9.998227 
1.4653192e+3, 2.9430044e+2, -50361.688, -227898.22, 43723.1, 0.1373894, 0.18353418, -40177.87, 15702.84, 0.00051297166, 10.000744, 9.99839 
1.4653498e+3, 3.0429968e+2, 192052.53, 56128.207, -48687.367, 0.104593895, 0.21759662, 207692.5, 207692.5, 0.0012762429, 10.00147, 9.99966 
1.465378e+3, 3.1430057e+2, 516152.34, 188390.48, -121642.414, 0.012365002, 0.30694377, 556364.1, 556364.1, 0.0023861257, 10.003762, 9.9994755 
1.4748111e+3, 1.24285296e+2, -1719659.0, -1584783.9, 71169.63, 0.19102834, 0.29330936, -1554175.9, 167858.23, 0.012969953, 9.999346, 10.001207 
1.4748393e+3, 1.3428484e+2, -1745652.0, -1609197.3, -44433.11, 0.06293458, 0.18166895, -1596004.4, 28032.232, 0.0076708426, 9.998813, 10.000611 
1.4748679e+3, 1.4428593e+2, -1673675.9, -1520109.9, 26054.4, -0.10944863, 0.23423819, -1515809.8, 10214.461, 0.0032881629, 9.9985895, 10.000665 
1.4749005e+3, 1.54286e+2, -1508440.4, -1383075.4, 61380.785, 0.10369461, 0.15849385, -1358027.0, 69995.92, 0.00081847684, 9.999038, 10.000711 
1.4749305e+3, 1.6428684e+2, -1420419.3, -1390491.1, -4502.8745, 0.17321204, 0.22367333, -1389828.4, -59811.84, 0.000071419374, 9.999389, 9.99982 
1.4749579e+3, 1.7428866e+2, -1290921.3, -1265993.1, 10815.358, 0.088271804, 0.40482622, -1261955.0, -29951.412, 0.0000002932695, 9.999566, 9.999913 
1.4749858e+3, 1.8428871e+2, -1244959.0, -1302828.6, 33415.246, 0.0006372787, 0.47401497, -1229692.0, -95686.34, 0.0, 9.999687, 9.998928 
1.4750142e+3, 1.9428638e+2, -1138815.6, -1192228.0, -606.6763, -0.09823467, 0.33081198, -1138808.8, -102781.016, 0.0, 9.999708, 9.999002 
1.4750445e+3, 2.0428513e+2, -1024190.56, -1099053.3, -1844.1646, -0.06876705, 0.32095623, -1024145.2, -86106.875, 0.0, 9.999866, 9.9989 
1.475077e+3, 2.1428542e+2, -872226.06, -960305.9, 14754.097, 0.14536735, 0.4370121, -869820.3, -29787.367, 0.0, 10.000184, 9.999023 
1.475108e+3, 2.2428367e+2, -811836.4, -995072.94, 11879.103, 0.19330022, 0.4192645, -811069.5, -69021.06, 0.0, 10.000416, 9.998003 
1.4751367e+3, 2.3427919e+2, -679677.6, -869467.94, 16244.707, 0.010616991, 0.15498641, -678297.25, -34205.742, 0.0, 10.000601, 9.998102 
1.475167e+3, 2.4427672e+2, -547066.6, -727159.7, 21513.096, -0.04416605, 0.09505177, -544532.44, 1583.211, 0.0, 10.000719, 9.998346 
1.4751995e+3, 2.5427684e+2, -421069.47, -598260.6, 15816.647, 0.08892248, 0.25021553, -419668.72, 28446.04, 0.000000082863835, 10.00084, 9.998499 
1.47523e+3, 2.6427567e+2, -367546.8, -649341.25, -98003.19, 0.13018043, 0.34523457, -336814.63, 13313.488, 0.0000048986644, 10.00108, 9.997361 
1.4752579e+3, 2.742727e+2, -211541.77, -511264.88, -125647.58, 0.0483581, 0.29148597, -165837.98, 86322.266, 0.00003489618, 10.001426, 9.997466 
1.4752877e+3, 2.8427133e+2, 5191.1523, -140316.58, -30593.143, 0.04117013, 0.33111274, 11361.715, 165535.56, 0.00016114493, 10.001307, 9.999401 
1.47532e+3, 2.942721e+2, 33097.992, -42381.76, 30120.152, 0.13779844, 0.42147943, 43643.95, 99807.05, 0.00056240807, 10.000691, 9.999689 
1.4753507e+3, 3.042703e+2, 85026.484, -142381.19, 26139.605, 0.04549329, 0.34518912, 87992.445, 87992.445, 0.001400618, 10.001373, 9.998336 
1.4753808e+3, 3.1426826e+2, 385221.75, -7907.3823, -15334.064, -0.113550834, 0.2842234, 385818.94, 385818.94, 0.0026176444, 10.003457, 9.99826 
1.4848104e+3, 1.2425398e+2, -1861961.6, -1647593.0, 146120.19, 0.23763964, 0.3447244, -1573560.3, 148784.22, 0.013700781, 9.998338, 10.001273 
1.484837e+3, 1.342537e+2, -1771870.3, -1545400.1, -63839.633, -0.023626436, 0.1850129, -1528644.1, 95698.42, 0.00813248, 9.998284, 10.001318 
1.484867e+3, 1.4425516e+2, -1712795.4, -1481881.4, -7284.4365, -0.02406147, 0.21457922, -1481651.8, 44673.4, 0.0035089266, 9.998099, 10.001154 
1.4848985e+3, 1.5425546e+2, -1561906.5, -1350452.6, -19073.008, 0.039059475, 0.112206206, -1348746.1, 79575.234, 0.0008836724, 9.99843, 10.001222 
1.4849286e+3, 1.6425692e+2, -1502780.0, -1394016.3, -86384.04, 0.08383532, 0.19828042, -1346321.8, -16013.304, 0.00007901186, 9.99869, 10.000124 
1.4849573e+3, 1.7425975e+2, -1348502.8, -1257856.9, -85158.88, 0.123318575, 0.4514051, -1206711.1, 25573.672, 0.00000037325287, 9.99903, 10.000221 
1.4849861e+3, 1.8425956e+2, -1307130.3, -1414651.6, -21035.402, 0.07640519, 0.5151271, -1303161.4, -168871.7, 0.0, 9.999613, 9.9981985 
1.4850144e+3, 1.9425549e+2, -1039082.25, -1231033.6, -38447.676, -0.11120851, 0.27841052, -1031667.7, 4663.0103, 0.0, 10.00077, 9.998225 
1.4850445e+3, 2.0425363e+2, -861545.1, -1038872.56, -48148.074, -0.10414627, 0.25662902, -849315.4, 89033.7, 0.0, 10.00107, 9.998726 
1.4850774e+3, 2.1425472e+2, -866119.25, -967959.8, -68502.805, 0.17128064, 0.4654468, -831684.3, 8652.98, 0.0, 10.000276, 9.99892 
1.4851086e+3, 2.2425337e+2, -842874.8, -1001873.94, -29208.477, 0.24189945, 0.49050823, -837678.94, -95329.75, 0.0, 10.000166, 9.998071 
1.4851376e+3, 2.3424894e+2, -604445.5, -822164.56, -24286.428, 0.020588314, 0.22032143, -601769.25, 42621.87, 0.0, 10.001073, 9.998193 
1.4851679e+3, 2.4424636e+2, -464963.84, -702583.2, -21735.875, -0.057315376, 0.15350536, -462991.97, 83424.2, 0.0, 10.001338, 9.998224 
1.4851998e+3, 2.5424626e+2, -444882.28, -621575.06, -24571.172, 0.06029338, 0.29692864, -441529.03, 6889.8306, 0.00000011463164, 10.000724, 9.998398 
1.4852308e+3, 2.6424512e+2, -382238.63, -587460.56, -36653.617, 0.12038458, 0.37421668, -375888.6, -25457.379, 0.000005857849, 10.00069, 9.99797 
1.4852598e+3, 2.742427e+2, -145163.03, -405102.22, 21601.252, 0.100536324, 0.31329742, -143380.16, 109074.94, 0.0000392753, 10.00157, 9.998123 
1.48529e+3, 2.842414e+2, 98554.32, -157990.66, 102643.31, 0.1023668, 0.34628987, 134566.6, 289033.75, 0.00017652393, 10.002231, 9.998831 
1.4853215e+3, 2.9424134e+2, 258537.78, -10648.752, 6919.408, 0.12679294, 0.4231806, 258715.52, 315180.63, 0.0006113254, 10.00257, 9.999004 
1.4853524e+3, 3.0423826e+2, 260211.22, -94922.73, 18423.17, 0.013402779, 0.27633595, 261164.39, 261164.39, 0.0015128748, 10.002721, 9.99803 
1.4853838e+3, 3.142362e+2, 271320.94, -47773.363, 24093.725, -0.09101174, 0.23996519, 273129.94, 273129.94, 0.0028091935, 10.002596, 9.998407 
1.4948077e+3, 1.2422385e+2, -1883984.5, -1705242.4, 34994.617, 0.10363255, 0.40997827, -1698635.3, 24006.523, 0.014485426, 9.998394, 10.000836 
1.4948353e+3, 1.3422485e+2, -1796740.0, -1583611.6, -64754.293, -0.020924741, 0.40316105, -1565480.0, 59149.477, 0.008627366, 9.998236, 10.001072 
1.4948675e+3, 1.4422539e+2, -1711493.0, -1493362.3, -12793.674, 0.1838867, 0.3593316, -1492614.5, 34008.223, 0.0037456865, 9.99814, 10.001064 
1.4948958e+3, 1.5422572e+2, -1561878.0, -1350135.4, -514.26154, -0.07578859, 0.25897893, -1350134.1, 78484.734, 0.0009542572, 9.998425, 10.00123 
1.4949255e+3, 1.6422693e+2, -1467299.5, -1337100.0, -84627.06, -0.10724624, 0.30212522, -1295430.3, 35176.32, 0.00008722728, 9.998756, 10.0004835 
1.494957e+3, 1.7422885e+2, -1328263.8, -1210550.9, -69394.93, 0.16406456, 0.43116185, -1178414.3, 54172.906, 0.0000004647829, 9.999011, 10.000555 
1.4949876e+3, 1.8422821e+2, -1324922.4, -1462274.6, 9284.836, 0.23975207, 0.44710422, -1324297.5, -189703.28, 0.0, 9.99965, 9.997858 
1.495017e+3, 1.9422424e+2, -1072150.5, -1295789.9, 9638.287, 0.05777247, 0.2611994, -1071735.9, -35100.26, 0.0, 10.000747, 9.997794 
1.4950466e+3, 2.0422168e+2, -892354.2, -1095070.4, -80715.49, -0.011943944, 0.21097544, -864142.0, 74520.28, 0.0, 10.001032, 9.99836 
1.4950767e+3, 2.1422109e+2, -901253.44, -1023692.6, -92390.06, 0.0750978, 0.2845525, -851640.9, -10972.256, 0.0, 10.000202, 9.998572 
1.4951073e+3, 2.2422041e+2, -836291.4, -977434.7, -8482.82, 0.08026289, 0.38599563, -835783.4, -93107.305, 0.0, 10.000109, 9.998272 
1.4951383e+3, 2.342197e+2, -604169.06, -796920.8, 16047.301, -0.018478354, 0.46329868, -602842.25, 41842.46, 0.0, 10.000962, 9.998423 
1.495169e+3, 2.442185e+2, -476276.5, -696171.25, -46005.62, -0.085132994, 0.5185716, -467039.38, 79658.234, 0.0, 10.001207, 9.998331 
1.4951989e+3, 2.542166e+2, -449564.6, -612243.94, -38338.688, -0.11797181, 0.46811804, -440982.1, 7735.0986, 0.00000015644366, 10.000641, 9.998503 
1.4952293e+3, 2.6421493e+2, -265603.2, -329876.8, -14366.084, -0.10010664, 0.4048771, -262538.28, 88191.234, 0.000006865855, 10.00062, 9.999774 
1.4952604e+3, 2.7421376e+2, -23657.783, -132373.2, 59700.77, 0.009216774, 0.27341008, 2724.4753, 255455.16, 0.00004412312, 10.00148, 10.000041 
1.495292e+3, 2.8421175e+2, -68087.555, -478833.84, 107402.984, 0.06880854, 0.23472278, -41698.902, 113047.54, 0.0001927245, 10.002118, 9.996682 
1.4953233e+3, 2.9420835e+2, 67659.62, -380115.28, 34390.42, 0.038991183, 0.21804748, 70285.5, 127070.34, 0.0006575808, 10.002449, 9.996527 
1.4953542e+3, 3.04204e+2, 269595.34, -32842.8, 13325.987, -0.07118121, 0.050270885, 270181.4, 270181.4, 0.0016033244, 10.002554, 9.998528 
1.4953868e+3, 3.1420416e+2, 325950.1, 118866.234, 43828.62, -0.07433543, 0.1646361, 334844.28, 334844.28, 0.0029428573, 10.002381, 9.999651 
1.5048069e+3, 1.2419306e+2, -1853555.8, -1676836.4, -18167.447, 0.18128954, 0.39238974, -1674988.0, 47956.105, 0.015336173, 9.998564, 10.00094 
1.5048335e+3, 1.3419455e+2, -1761499.9, -1587267.6, -49835.797, -0.02171338, 0.4411459, -1574020.3, 50907.16, 0.0091627855, 9.99856, 10.0008955 
1.504866e+3, 1.4419468e+2, -1720803.8, -1553016.6, 18189.992, 0.22146061, 0.39268118, -1551067.3, -24141.506, 0.0040015904, 9.998333, 10.000549 
1.5048946e+3, 1.5419513e+2, -1573256.3, -1409619.1, -21528.781, -0.030329147, 0.35255075, -1406834.0, 22088.63, 0.001031135, 9.998579, 10.000745 
1.5049247e+3, 1.6419582e+2, -1433517.1, -1313243.5, -110621.984, -0.066774085, 0.3664346, -1247469.0, 83446.26, 0.000096309515, 9.998945, 10.000566 
1.5049563e+3, 1.7419635e+2, -1219634.3, -1142286.0, -126620.98, 0.1648456, 0.34295958, -1048564.6, 184341.39, 0.000000575819, 9.999674, 10.0007105 
1.5049875e+3, 1.8419568e+2, -1225817.3, -1369219.5, -6946.4907, 0.252403, 0.3290125, -1225481.5, -90569.99, 0.0, 10.000151, 9.998242 
1.5050183e+3, 1.9419356e+2, -1081177.0, -1249870.3, 41527.043, 0.14798774, 0.28661266, -1071508.4, -34573.46, 0.0, 10.0004835, 9.998223 
1.5050483e+3, 2.0419154e+2, -952820.25, -1175436.8, -35150.793, 0.07436596, 0.28557587, -947401.9, -8444.15, 0.0, 10.000846, 9.997901 
1.5050772e+3, 2.141896e+2, -769345.8, -1020897.56, -78982.39, 0.032987677, 0.28308895, -746603.06, 94376.31, 0.0, 10.001367, 9.998037 
1.5051071e+3, 2.2418858e+2, -655919.75, -854217.06, 16555.502, 0.008484857, 0.36357218, -654547.06, 88444.414, 0.0, 10.001208, 9.998585 
1.505139e+3, 2.341888e+2, -689335.25, -794077.9, 36452.24, 0.0050777225, 0.4972231, -677898.06, -32908.098, 0.0, 10.000194, 9.998813 
1.50517e+3, 2.4418801e+2, -633679.6, -732139.25, 13013.099, -0.026429374, 0.554078, -631988.75, -84990.89, 0.0, 9.999973, 9.998666 
1.5051995e+3, 2.5418586e+2, -385806.97, -543241.2, 16569.623, -0.11262642, 0.44786245, -384081.94, 64935.8, 0.00000020302433, 10.000925, 9.998828 
1.5052302e+3, 2.6418412e+2, -132278.67, -270984.78, 12609.573, -0.107415296, 0.35807213, -131141.67, 219888.58, 0.0000077496, 10.00156, 9.999724 
1.5052623e+3, 2.7418295e+2, 17420.496, -122007.37, -66600.27, 0.033594973, 0.24034247, 44120.406, 297151.72, 0.0000484326, 10.001797, 9.999965 
1.5052943e+3, 2.8418115e+2, -70092.19, -466259.7, -15011.081, 0.100364074, 0.2222679, -69524.22, 85521.66, 0.00020690759, 10.002053, 9.996796 
1.5053257e+3, 2.9417837e+2, 72162.91, -358443.4, 64218.71, 0.042940997, 0.25542858, 81536.164, 138615.64, 0.0006956865, 10.002417, 9.99668 
1.5053567e+3, 3.0417418e+2, 231205.6, -106391.11, 106424.695, -0.06759422, 0.119726904, 261954.48, 261954.48, 0.001664292, 10.002495, 9.99807 
1.5053897e+3, 3.1417343e+2, 268254.6, 79364.92, 31929.115, 0.0013666315, 0.19370364, 273505.78, 273505.78, 0.0030088103, 10.002006, 9.999581 
1.5148069e+3, 1.24162726e+2, -1789447.8, -1566501.0, -124679.34, 0.28069443, 0.3711982, -1510728.3, 212512.06, 0.016257107, 9.998649, 10.001679 
1.5148315e+3, 1.3416295e+2, -1777700.6, -1609003.3, -44060.027, -0.106003806, 0.2943049, -1598189.0, 27045.455, 0.009740974, 9.998521, 10.00076 
1.5148622e+3, 1.4416331e+2, -1784512.8, -1706494.1, 10838.825, -0.017209275, 0.33124548, -1705016.4, -177785.36, 0.0042781597, 9.99841, 9.999464 
1.5148948e+3, 1.5416381e+2, -1651337.1, -1565586.1, -6600.3994, 0.11141369, 0.4034667, -1565081.0, -135849.81, 0.0011151112, 9.998559, 9.99968 
1.514926e+3, 1.6416371e+2, -1432753.0, -1329221.6, -95438.375, 0.14431955, 0.4028942, -1272414.0, 58818.8, 0.000106548556, 9.999008, 10.000429 
1.514955e+3, 1.7416237e+2, -1219814.0, -1145825.9, -94178.98, 0.062051058, 0.1900613, -1081635.8, 151604.52, 0.0000007145684, 9.999682, 10.000683 
1.5149857e+3, 1.8416208e+2, -1141373.9, -1204842.9, -1491.0345, 0.043682918, 0.16564865, -1141338.9, -6098.386, 0.0, 10.000192, 9.999355 
1.5150185e+3, 1.9416349e+2, -1001134.75, -1077737.0, 58220.66, 0.103154, 0.35697395, -969746.44, 67481.96, 0.0, 10.000459, 9.999418 
1.5150495e+3, 2.0416315e+2, -998568.3, -1263763.0, -27221.525, 0.09239185, 0.4887664, -995802.94, -56567.676, 0.0, 10.000812, 9.9973135 
1.5150781e+3, 2.1416031e+2, -835533.3, -1135516.3, -55160.81, -0.012629419, 0.4650978, -825711.9, 15557.519, 0.0, 10.001266, 9.997301 
1.5151079e+3, 2.2415794e+2, -644206.5, -800161.2, -24302.314, -0.043572783, 0.43330905, -640507.25, 102787.266, 0.0, 10.00108, 9.999019 
1.5151395e+3, 2.3415637e+2, -663973.44, -722990.75, 6331.5605, 0.030018546, 0.33583665, -663301.8, -17995.87, 0.0, 10.000114, 9.999339 
1.515171e+3, 2.4415505e+2, -609309.1, -668634.3, 35040.14, 0.050619483, 0.2894863, -593062.2, -45747.05, 0.0, 9.999908, 9.99914 
1.5152018e+3, 2.541541e+2, -363352.5, -480871.13, 58403.105, 0.005463981, 0.25427726, -339265.1, 110055.75, 0.00000026346208, 10.00085, 9.999299 
1.515233e+3, 2.6415256e+2, -269526.75, -529617.0, 18383.848, 0.013413936, 0.24349616, -268233.75, 83099.96, 0.0000083363275, 10.00145, 9.998 
1.515265e+3, 2.741504e+2, -134575.61, -408096.88, -44931.164, 0.09946644, 0.20860021, -127383.88, 125971.516, 0.000050839903, 10.0016775, 9.998053 
1.5152967e+3, 2.841496e+2, 55034.168, -185026.13, -5893.606, 0.12040794, 0.30496135, 55178.773, 210542.81, 0.00021853698, 10.001946, 9.998784 
1.5153284e+3, 2.9415083e+2, 219791.42, -28453.004, 87867.54, 0.057659987, 0.505612, 247744.94, 305098.88, 0.0007280365, 10.002305, 9.999004 
1.5153594e+3, 3.041482e+2, 114193.37, -293006.2, 81262.19, -0.05849502, 0.4558429, 129811.32, 129811.32, 0.0017041201, 10.002284, 9.996874 
1.5153919e+3, 3.1414345e+2, 149049.05, -95805.125, 39987.613, 0.002409078, 0.27403897, 155414.03, 155414.03, 0.0030231727, 10.00174, 9.998482 
1.5248045e+3, 1.2413242e+2, -1965398.8, -1711105.0, -86235.87, 0.23903342, 0.3391147, -1684619.4, 38916.258, 0.017244658, 9.997718, 10.001112 
1.5248308e+3, 1.3413167e+2, -1656041.6, -1633729.0, -62542.414, -0.07341972, 0.23129578, -1581355.6, 44186.316, 0.010359608, 9.999701, 10.000026 
1.5248604e+3, 1.4413215e+2, -1535732.6, -1618669.8, -21576.844, -0.10431823, 0.33394706, -1530455.0, -2916.9155, 0.0045741852, 10.000269, 9.999169 
1.524894e+3, 1.5413205e+2, -1518227.9, -1530560.0, 7502.852, 0.12425481, 0.37001127, -1514682.5, -85140.28, 0.0012060112, 9.999582, 9.999435 
1.5249254e+3, 1.6413172e+2, -1428974.9, -1336236.4, -4203.7114, 0.18978065, 0.36483198, -1336046.3, -4500.6514, 0.000118081814, 9.999108, 10.00032 
1.5249543e+3, 1.7413098e+2, -1271298.8, -1179786.1, -26090.164, 0.050885476, 0.22642533, -1172870.5, 60677.977, 0.0000008766353, 9.9993925, 10.000585 
1.5249853e+3, 1.8413097e+2, -1176571.3, -1199952.5, 47225.293, 0.011719742, 0.22411758, -1139611.1, -4064.1443, 0.0, 9.999855, 9.999553 
1.5250187e+3, 1.9413206e+2, -939017.25, -1030500.7, 18990.652, 0.07275943, 0.36461616, -935231.7, 102305.96, 0.0, 10.000791, 9.999593 
1.5250504e+3, 2.0413178e+2, -926028.06, -1174055.6, -77055.18, 0.09531561, 0.47073814, -904038.7, 35504.44, 0.0, 10.001069, 9.9978 
1.5250796e+3, 2.1412966e+2, -908762.5, -1112317.8, -29719.941, 0.06054014, 0.46811357, -904512.06, -62944.15, 0.0, 10.000506, 9.997822 
1.5251096e+3, 2.2412756e+2, -760995.5, -875471.6, 37450.234, 0.051043637, 0.44115442, -749832.44, -6242.6997, 0.0, 10.000358, 9.998847 
1.5251403e+3, 2.3412563e+2, -580123.56, -707512.25, -2037.621, 0.06847491, 0.32725298, -580091.0, 65515.336, 0.0, 10.000799, 9.999111 
1.5251717e+3, 2.4412405e+2, -433777.53, -595065.2, 19501.672, 0.0797117, 0.27421522, -431453.06, 116165.78, 0.0, 10.001169, 9.999033 
1.5252036e+3, 2.541231e+2, -277530.3, -448820.1, -8403.885, 0.0794296, 0.24859239, -277118.97, 172505.94, 0.0000003530132, 10.001482, 9.999212 
1.5252352e+3, 2.6412156e+2, -248860.23, -544077.9, -25143.676, 0.08494504, 0.25053266, -246734.06, 104904.58, 0.00000861748, 10.001695, 9.997784 
1.5252665e+3, 2.741193e+2, -136008.64, -430628.13, 12735.885, 0.09822323, 0.23068583, -135459.13, 118203.03, 0.000051572304, 10.001767, 9.997849 
1.5252982e+3, 2.841184e+2, 37084.406, -172911.06, 72406.17, 0.10899023, 0.3192481, 59629.516, 215301.75, 0.00023011875, 10.001738, 9.99897 
1.5253308e+3, 2.9411957e+2, 135746.22, -47704.95, 1600.453, 0.10883422, 0.49735272, 135760.19, 193422.92, 0.0007596861, 10.001628, 9.9992075 
1.525362e+3, 3.0411792e+2, 103343.99, -230917.53, -8778.304, 0.007375505, 0.50484324, 103574.37, 103574.37, 0.0017371096, 10.001897, 9.9974985 
1.5253942e+3, 3.141138e+2, 317029.3, 58037.477, 68193.74, 0.037890293, 0.32186922, 333887.7, 333887.7, 0.0030213417, 10.002541, 9.999172 
1.5347992e+3, 1.2410242e+2, -2124379.5, -2042384.1, 22951.324, -0.10081728, 0.30963343, -2036397.0, -312570.22, 0.018294634, 9.997719, 9.9988365 
1.5348314e+3, 1.3410108e+2, -1753244.4, -1826216.3, 9680.845, 0.008122016, 0.2782422, -1751982.0, -126135.266, 0.011016667, 9.999675, 9.998709 
1.534861e+3, 1.4410162e+2, -1481880.8, -1538124.4, -54114.33, -0.10194259, 0.4381919, -1449017.4, 78825.47, 0.0048880493, 10.000392, 9.999673 
1.5348917e+3, 1.5410015e+2, -1474518.6, -1429705.4, -14770.736, -0.06282616, 0.2698913, -1425274.9, 4577.9575, 0.0013030368, 9.999551, 10.000141 
1.5349227e+3, 1.6410014e+2, -1435045.5, -1364498.6, -7314.6543, -0.009792966, 0.26990372, -1363748.1, -31897.709, 0.00013086536, 9.999159, 10.00011 
1.5349542e+3, 1.7410241e+2, -1293380.6, -1223174.1, -8943.291, 0.07589347, 0.46072716, -1222052.8, 11776.085, 0.0000010420176, 9.999382, 10.000292 
1.534986e+3, 1.8410248e+2, -1222063.3, -1308240.5, 71962.14, 0.087611325, 0.5188311, -1181276.0, -45446.5, 0.0, 9.9999075, 9.998788 
1.5350188e+3, 1.9409938e+2, -995818.5, -1144764.1, 59646.32, -0.0037374878, 0.31654897, -974877.06, 62984.816, 0.0, 10.000773, 9.998817 
1.5350507e+3, 2.0409755e+2, -826574.06, -955412.94, -99789.45, 0.013428159, 0.24078964, -772217.25, 167662.34, 0.0, 10.001016, 9.999327 
1.5350814e+3, 2.1409775e+2, -799692.2, -866572.7, -45647.33, 0.18757519, 0.2962307, -776546.8, 65327.535, 0.0, 10.0004225, 9.999548 
1.5351117e+3, 2.2409743e+2, -827321.1, -992840.8, 42707.676, 0.22454701, 0.38891107, -816951.3, -73073.89, 0.0, 10.000262, 9.998091 
1.5351412e+3, 2.3409636e+2, -656653.25, -853087.1, 22218.559, 0.07006866, 0.45832828, -654171.5, -8278.908, 0.0, 10.000734, 9.998147 
1.5351722e+3, 2.4409482e+2, -499512.53, -701413.4, 26194.514, -0.0017238082, 0.49048448, -496169.4, 51741.0, 0.0, 10.001046, 9.998358 
1.5352048e+3, 2.5409275e+2, -339465.1, -551831.6, 13965.6, 0.052294873, 0.4186046, -338550.63, 111379.68, 0.0000004707298, 10.001377, 9.998552 
1.5352367e+3, 2.6409096e+2, -180096.4, -382641.88, -28734.188, 0.046809252, 0.37807408, -176098.92, 175846.4, 0.000008627056, 10.001607, 9.998939 
1.5352671e+3, 2.7408952e+2, -51458.863, -240922.73, 21046.809, -0.03020786, 0.30904856, -49149.016, 204804.44, 0.00005249674, 10.001701, 9.999188 
1.535299e+3, 2.8408748e+2, -79584.59, -394856.28, 61248.98, -0.010100912, 0.27744228, -68103.62, 87868.65, 0.00024287311, 10.001646, 9.997494 
1.5353326e+3, 2.9408497e+2, 3574.1855, -306256.06, 12150.239, 0.124005176, 0.25454795, 4049.9363, 62053.34, 0.0007920956, 10.001555, 9.997466 
1.5353645e+3, 3.0408376e+2, 233841.28, 78996.79, 4793.2627, 0.05588879, 0.30581817, 233989.52, 233989.52, 0.0017746214, 10.001748, 9.99969 
1.5353964e+3, 3.1408444e+2, 430278.47, 377439.7, 115167.07, -0.022000834, 0.3396188, 522017.63, 522017.63, 0.003039379, 10.002211, 10.001518 
1.5447967e+3, 1.24071784e+2, -2077957.4, -2053249.3, 25362.154, -0.13395396, 0.38265163, -2037392.3, -313262.72, 0.019406972, 9.998191, 9.9985285 
1.5448314e+3, 1.3407041e+2, -1835079.3, -1838745.5, 39146.594, 0.07577787, 0.3307321, -1797722.9, -171574.89, 0.0117135905, 9.998989, 9.998955 
1.5448613e+3, 1.4407066e+2, -1632217.6, -1587920.5, 1980.7086, -0.04316574, 0.4336855, -1587832.1, -59686.586, 0.0052204016, 9.999271, 9.999864 
1.5448913e+3, 1.5406905e+2, -1442907.5, -1401020.9, -21193.46, -0.05116927, 0.23925187, -1392168.4, 37986.7, 0.0014059248, 9.999699, 10.000272 
1.5449221e+3, 1.6406879e+2, -1368527.8, -1394845.1, -19255.24, -0.018008422, 0.23154628, -1358364.5, -26209.063, 0.00014487762, 9.999889, 9.999539 
1.5449537e+3, 1.7407064e+2, -1248644.9, -1276493.0, -61605.9, 0.07872547, 0.44221193, -1199409.1, 34731.32, 0.000001197513, 9.999994, 9.999632 
1.5449859e+3, 1.8407054e+2, -1256666.9, -1336582.8, 41004.65, 0.1036791, 0.5255538, -1239370.9, -103226.5, 0.0, 9.999733, 9.998674 
1.5450189e+3, 1.9406779e+2, -1226471.8, -1256773.8, 72638.53, 0.010310456, 0.36416677, -1167420.9, -129247.17, 0.0, 9.999208, 9.998797 
1.545051e+3, 2.0406598e+2, -1023206.2, -999455.25, -73072.766, 0.01719734, 0.26998863, -937299.25, 2891.1023, 0.0, 9.999463, 9.999772 
1.5450817e+3, 2.1406564e+2, -703385.56, -766245.2, -125192.96, 0.16725667, 0.2271143, -605737.44, 236450.06, 0.0, 10.000865, 10.000025 
1.5451124e+3, 2.2406535e+2, -600672.56, -849626.25, -45572.414, 0.20852903, 0.28396723, -592592.5, 151596.31, 0.0, 10.001683, 9.998387 
1.5451424e+3, 2.3406522e+2, -499669.16, -744635.9, 5509.551, 0.08486885, 0.42057478, -499545.28, 146649.67, 0.0, 10.00169, 9.998426 
1.5451737e+3, 2.4406417e+2, -429076.8, -697594.94, 79570.195, 0.031555854, 0.4996022, -407268.84, 140940.08, 0.000000000009610117, 10.00165, 9.9981 
1.5452065e+3, 2.5406197e+2, -346417.0, -590135.4, 78877.61, 0.075662784, 0.44547603, -323116.47, 127116.02, 0.0000005675007, 10.00148, 9.998244 
1.5452383e+3, 2.6406017e+2, -185034.08, -382362.44, 35193.41, 0.050613552, 0.42375308, -178945.23, 173303.39, 0.000008574752, 10.001574, 9.998953 
1.5452684e+3, 2.74059e+2, 11085.378, -208795.75, -22100.703, -0.07679595, 0.3743138, 13284.766, 267539.44, 0.000054083346, 10.002127, 9.999207 
1.5453006e+3, 2.8405657e+2, 16513.115, -392392.94, 2728.7314, -0.038330566, 0.32120037, 16531.324, 172808.27, 0.0002557582, 10.002507, 9.997083 
1.5453354e+3, 2.9405278e+2, 123118.51, -301927.84, 20766.201, 0.19459462, 0.22123484, 124130.664, 182450.16, 0.0008260998, 10.002614, 9.99698 
1.5453672e+3, 3.0405128e+2, 304730.53, 59191.074, -2594.3057, 0.1332191, 0.28641266, 304757.94, 304757.94, 0.0018264704, 10.002455, 9.999221 
1.5453976e+3, 3.1405202e+2, 305952.3, 206715.78, -127399.77, -0.066439584, 0.383698, 393055.2, 393055.2, 0.0030999654, 10.001794, 10.000558 
1.5547979e+3, 1.2404028e+2, -1941808.0, -1785594.5, 110689.57, 0.1288249, 0.5482847, -1728228.5, -3781.84, 0.020587768, 9.998254, 10.000336 
1.5548302e+3, 1.3403995e+2, -1707075.6, -1551826.6, 60913.965, 0.051042147, 0.41206387, -1530779.5, 95663.62, 0.012455585, 9.998908, 10.000965 
1.554861e+3, 1.4403929e+2, -1633525.1, -1601446.5, 9041.948, -0.017757809, 0.3150379, -1599073.4, -70628.46, 0.0055746003, 9.999301, 9.999763 
1.5548925e+3, 1.5403903e+2, -1473180.5, -1464415.1, 4633.698, 0.090886526, 0.29443434, -1462419.9, -31973.754, 0.001515748, 9.999705, 9.999831 
1.5549234e+3, 1.6403794e+2, -1423966.3, -1531532.1, -24182.758, 0.09572513, 0.27378103, -1418779.6, -86322.14, 0.00016035176, 9.999971, 9.998569 
1.5549532e+3, 1.7403576e+2, -1319242.1, -1420668.5, -55365.97, 0.013138888, 0.1805816, -1294873.9, -60391.445, 0.0000013687348, 9.999985, 9.998648 
1.5549847e+3, 1.8403526e+2, -1214164.6, -1254490.4, 14971.581, -0.00565741, 0.2527221, -1209214.0, -72723.53, 0.0, 9.999759, 9.999226 
1.5550186e+3, 1.9403736e+2, -1183349.0, -1159899.8, 58502.156, 0.051088654, 0.5091291, -1111958.9, -73486.336, 0.0, 9.999181, 9.999474 
1.5550508e+3, 2.0403707e+2, -1073294.6, -1097884.6, -34905.95, 0.04360975, 0.5605903, -1048581.6, -108106.38, 0.0, 9.999427, 9.999121 
1.5550806e+3, 2.1403335e+2, -768096.1, -882627.9, -65713.414, -0.048301432, 0.25519952, -738197.6, 104309.625, 0.0, 10.000777, 9.999273 
1.5551114e+3, 2.2403142e+2, -533185.9, -681685.8, -46814.348, -0.060681686, 0.13245727, -519659.75, 224863.13, 0.0, 10.00156, 9.999601 
1.5551439e+3, 2.3403223e+2, -414128.56, -547347.75, 13378.09, 0.048395522, 0.22231051, -412798.4, 233714.84, 0.0, 10.0016, 9.999826 
1.5551761e+3, 2.4403211e+2, -435239.66, -685259.7, 66786.805, 0.10410458, 0.31326294, -418517.6, 129997.1, 0.0, 10.001539, 9.99824 
1.5552081e+3, 2.5403073e+2, -357021.78, -592188.56, 78089.59, 0.0875384, 0.33952928, -333453.34, 117078.49, 0.0000005355393, 10.001391, 9.998276 
1.5552396e+3, 2.6402923e+2, -276442.9, -547057.6, 49521.46, 0.01893909, 0.38986033, -267665.38, 84883.836, 0.000008556659, 10.001464, 9.997874 
1.5552703e+3, 2.7402765e+2, -92761.48, -394840.53, 11210.864, -0.106525436, 0.4188843, -92345.984, 162219.6, 0.00005618316, 10.001999, 9.997987 
1.555303e+3, 2.840255e+2, 26968.676, -338521.6, 4596.405, -0.048342086, 0.4385712, 27026.47, 183613.6, 0.00027013978, 10.002362, 9.997527 
1.5553387e+3, 2.9402268e+2, 159252.92, -206371.56, 36419.977, 0.24764633, 0.3731333, 162845.42, 221459.97, 0.0008660021, 10.0025215, 9.997684 
1.55537e+3, 3.0402017e+2, 75647.99, -369662.5, -25955.832, 0.15293223, 0.42690513, 77155.77, 77155.77, 0.0019021073, 10.002278, 9.996347 
1.5553983e+3, 3.1401688e+2, -2675.6316, -357128.38, -109542.234, -0.22814389, 0.4419046, 28445.516, 28445.516, 0.003217579, 10.001494, 9.996806 
1.5647979e+3, 1.2400671e+2, -1740933.5, -1596451.9, 102972.33, 0.28880382, 0.56426674, -1542907.0, 181871.67, 0.021849003, 9.999215, 10.001203 
1.5648283e+3, 1.3400674e+2, -1727334.3, -1472182.5, -76401.45, 0.007556941, 0.3830412, -1451054.8, 175713.1, 0.013250772, 9.998349, 10.001807 
1.5648605e+3, 1.4400615e+2, -1834601.4, -1679390.8, -139890.28, 0.06553933, 0.23863463, -1597021.5, -68253.31, 0.0059556314, 9.997863, 9.999915 
1.5648924e+3, 1.5400702e+2, -1699700.5, -1570153.1, -128303.5, 0.17781584, 0.32763302, -1491199.9, -60438.387, 0.0016345053, 9.998143, 9.999856 
1.564923e+3, 1.6400647e+2, -1594529.8, -1582003.4, -69024.0, 0.14403497, 0.3490701, -1518959.0, -186190.39, 0.00017771397, 9.998673, 9.99885 
1.5649526e+3, 1.7400411e+2, -1310094.8, -1378924.9, -9875.701, -0.018293345, 0.20856272, -1308705.8, -73912.516, 0.0000016137079, 9.999889, 9.99898 
1.5649843e+3, 1.840034e+2, -1129501.6, -1215802.0, 68551.24, -0.044439945, 0.24086986, -1091650.5, 45151.438, 0.0, 10.000348, 9.999206 
1.5650184e+3, 1.9400519e+2, -1091206.8, -1125232.8, 39342.734, 0.08785327, 0.47069994, -1065356.0, -26569.34, 0.0, 9.9998455, 9.999397 
1.5650505e+3, 2.0400493e+2, -1091275.8, -1101441.5, -16256.796, 0.09459131, 0.5299684, -1079325.8, -138536.44, 0.0, 9.999287, 9.999155 
1.56508e+3, 2.1400194e+2, -1043521.8, -1005959.9, 3363.5461, -0.08622262, 0.2892372, -1005661.06, -162845.3, 0.0, 9.9988575, 9.99934 
1.5651111e+3, 2.2400028e+2, -868268.56, -824734.6, 41933.285, -0.12323837, 0.18178578, -799255.4, -54426.555, 0.0, 9.999183, 9.999761 
1.5651448e+3, 2.3400061e+2, -549631.2, -593928.44, 1395.1058, 0.043620314, 0.20763066, -549587.25, 97234.414, 0.0, 10.000583, 9.999995 
1.5651779e+3, 2.4400024e+2, -445313.97, -685953.8, -12032.624, 0.13376682, 0.26274687, -444713.8, 104110.51, 0.0, 10.00145, 9.998278 
1.5652096e+3, 2.5399902e+2, -323854.3, -570659.2, -18402.37, 0.097777486, 0.30149192, -322489.75, 128349.99, 0.00000039469393, 10.0016, 9.998317 
1.5652409e+3, 2.6399747e+2, -294313.22, -587069.6, -11851.493, 0.026904948, 0.3586126, -293834.22, 59024.125, 0.000008163994, 10.00148, 9.997592 
1.5652719e+3, 2.739955e+2, -270214.75, -516696.16, -4909.569, -0.09194433, 0.38421002, -270116.97, -15236.014, 0.00005803459, 10.000935, 9.9976635 
1.5653047e+3, 2.839935e+2, -147213.05, -418096.16, 54202.43, -0.05550017, 0.43552437, -136770.0, 20132.633, 0.00028587517, 10.00115, 9.997568 
1.5653405e+3, 2.939916e+2, 176762.38, -188565.69, 26519.781, 0.1816317, 0.46014783, 178677.45, 237598.48, 0.0009116344, 10.00261, 9.997765 
1.565372e+3, 3.03989e+2, 188030.38, -310439.47, -16591.986, 0.118534535, 0.49100217, 188582.05, 188582.05, 0.0019994664, 10.003003, 9.996414 
1.5654005e+3, 3.139852e+2, 5680.5586, -385714.97, 90006.445, -0.13281995, 0.45949712, 25386.543, 25386.543, 0.003389772, 10.001658, 9.996546 
1.5747966e+3, 1.23971544e+2, -1732539.5, -1594585.5, -5691.716, 0.19057742, 0.47325164, -1594351.0, 130769.195, 0.023204513, 9.999271, 10.001187 
1.5748252e+3, 1.3397108e+2, -1757962.9, -1526234.6, -105632.7, -0.13915846, 0.27332526, -1485309.9, 141809.08, 0.014108494, 9.998324, 10.001437 
1.5748593e+3, 1.4397149e+2, -1799634.0, -1626891.9, -145234.78, 0.14137389, 0.236311, -1544286.3, -15173.397, 0.0063687824, 9.997933, 10.000251 
1.5748903e+3, 1.5397298e+2, -1669930.3, -1504243.5, -114833.54, 0.15468831, 0.34490332, -1445489.6, -14388.009, 0.00176415, 9.998125, 10.00032 
1.5749209e+3, 1.6397442e+2, -1475179.6, -1344350.5, -35639.156, 0.051677033, 0.46639475, -1335272.0, -2183.7952, 0.00019721544, 9.99871, 10.000464 
1.574952e+3, 1.7397587e+2, -1194696.3, -1134665.4, 43205.824, -0.07724935, 0.5357945, -1112072.1, 122999.2, 0.0000019795527, 9.999871, 10.000665 
1.5749845e+3, 1.8397516e+2, -1162105.1, -1297139.0, 49459.332, -0.08163103, 0.5011801, -1145927.6, -8850.458, 0.0, 10.0004, 9.998625 
1.575018e+3, 1.939714e+2, -1152225.6, -1246925.4, 25142.75, 0.06183886, 0.25754127, -1145964.3, -106849.51, 0.0, 9.999825, 9.998573 
1.57505e+3, 2.0396975e+2, -1047586.5, -1006333.9, -38509.234, 0.0976856, 0.19133292, -983274.94, -42144.05, 0.0, 9.999261, 9.999823 
1.5750796e+3, 2.139714e+2, -997901.06, -893973.06, -7607.156, -0.010121776, 0.33411047, -893419.25, -50305.984, 0.0, 9.998782, 10.000145 
1.5751112e+3, 2.2397177e+2, -937437.06, -950456.2, 81610.234, -0.050061, 0.42342064, -862077.2, -116969.164, 0.0, 9.999102, 9.998937 
1.5751451e+3, 2.3397024e+2, -635493.94, -748722.7, 59799.914, 0.010327647, 0.36222032, -609760.2, 37361.188, 0.0, 10.000483, 9.998981 
1.5751785e+3, 2.4396859e+2, -471553.3, -710646.8, -8720.015, 0.048579503, 0.34766218, -471235.72, 77901.44, 0.0, 10.001317, 9.998172 
1.575211e+3, 2.5396687e+2, -340040.6, -582590.25, -6855.2417, 0.057871405, 0.3363066, -339847.0, 111308.21, 0.00000029448665, 10.001502, 9.9982815 
1.5752424e+3, 2.639649e+2, -282198.3, -540199.3, -34685.164, 0.017320748, 0.3388962, -277616.7, 75559.26, 0.000007127328, 10.001384, 9.997962 
1.5752727e+3, 2.739626e+2, -244806.98, -452002.9, -16921.117, -0.100237794, 0.2836908, -243434.17, 11766.6, 0.000058416226, 10.000884, 9.998132 
1.5753052e+3, 2.8396067e+2, -183899.9, -488936.16, 94951.23, -0.13725443, 0.33558372, -156758.6, 464.38678, 0.00029913065, 10.001114, 9.997105 
1.5753408e+3, 2.9395953e+2, 113590.64, -289562.3, 99642.195, -0.054543205, 0.4886893, 136873.33, 196112.34, 0.0009575958, 10.002467, 9.997146 
1.5753736e+3, 3.0395734e+2, 339067.53, 54326.117, -57226.652, -0.051150598, 0.4837266, 350138.38, 350138.38, 0.0021071383, 10.002809, 9.999 
1.5754041e+3, 3.139565e+2, 193821.75, 29217.385, 60615.99, 0.04243655, 0.44617838, 213734.77, 213734.77, 0.0035913412, 10.001582, 9.999418 
1.5847944e+3, 1.2393701e+2, -2077763.0, -1766722.6, -36038.83, 0.17137744, 0.39699894, -1762601.6, -37144.05, 0.024665277, 9.996964, 10.001089 
1.5848231e+3, 1.3393788e+2, -1848609.0, -1570929.9, -46193.26, -0.14641424, 0.33144864, -1563447.1, 64001.56, 0.0150364665, 9.997714, 10.001418 
1.5848581e+3, 1.4393899e+2, -1683122.1, -1507094.1, -36745.67, 0.22043397, 0.33966997, -1499731.4, 29705.62, 0.0068181083, 9.998465, 10.000812 
1.5848887e+3, 1.5394008e+2, -1491493.1, -1350513.9, -7480.0317, 0.1357307, 0.34764564, -1350118.1, 81307.11, 0.0019058621, 9.999049, 10.00093 
1.5849192e+3, 1.6394143e+2, -1406245.8, -1324161.6, 34155.125, -0.0014123803, 0.427149, -1311808.6, 21602.088, 0.0002187055, 9.99924, 10.000344 
1.5849516e+3, 1.7394304e+2, -1332090.5, -1223627.9, -45499.613, -0.06747273, 0.534048, -1207069.0, 28324.697, 0.000002466339, 9.999023, 10.000462 
1.5849845e+3, 1.8394242e+2, -1372780.5, -1359556.5, -99133.19, -0.031269196, 0.50696373, -1266815.0, -129416.26, 0.0, 9.998794, 9.998969 
1.5850176e+3, 1.9393878e+2, -1261498.8, -1249520.1, -47624.246, 0.092480004, 0.2343671, -1207510.1, -168076.27, 0.0, 9.998862, 9.999015 
1.5850496e+3, 2.039375e+2, -1040717.2, -1007428.8, -50291.945, 0.13489556, 0.18181491, -971098.4, -29652.502, 0.0, 9.999332, 9.9997835 
1.58508e+3, 2.1393974e+2, -759712.94, -792883.5, -98016.22, 0.07445803, 0.3965937, -676888.7, 166534.98, 0.0, 10.0004635, 10.000041 
1.585112e+3, 2.2393987e+2, -675279.4, -887833.1, -7004.9463, 0.035593186, 0.49374306, -675048.75, 70373.25, 0.0, 10.001183, 9.998366 
1.5851462e+3, 2.3393701e+2, -527059.6, -765226.06, -14914.382, 0.019970037, 0.36511117, -526129.25, 121319.48, 0.0, 10.001526, 9.998369 
1.5851797e+3, 2.4393475e+2, -440249.06, -666730.1, -84300.945, 0.041727144, 0.3146636, -412315.7, 137154.4, 0.0, 10.001422, 9.998415 
1.5852123e+3, 2.5393352e+2, -437578.94, -594896.0, -78682.82, 0.10832371, 0.32245168, -404980.3, 46501.656, 0.00000023115544, 10.000678, 9.998593 
1.5852442e+3, 2.63932e+2, -336872.6, -524459.25, -51504.04, 0.0992811, 0.33315396, -323661.94, 29836.246, 0.0000061293663, 10.000836, 9.998324 
1.5852751e+3, 2.7393007e+2, 16028.289, -281032.06, -51037.64, -0.028017236, 0.2865505, 24552.414, 280071.4, 0.000059467606, 10.002499, 9.998519 
1.5853074e+3, 2.839287e+2, 120030.13, -259491.58, 78918.64, -0.102078535, 0.3374589, 135786.52, 293321.56, 0.00031124914, 10.002859, 9.997832 
1.5853418e+3, 2.9392794e+2, -16488.861, -262248.16, 148507.03, -0.120283976, 0.4541356, 53384.566, 112928.62, 0.0010018346, 10.001197, 9.997934 
1.5853754e+3, 3.0392522e+2, 206395.08, -11344.803, 43977.227, -0.088682495, 0.3506, 214941.75, 214941.75, 0.0022124546, 10.001863, 9.999028 
1.5854093e+3, 3.1392482e+2, 825823.2, 349349.75, -64952.69, 0.18461405, 0.36282182, 834518.8, 834518.8, 0.0037847501, 10.005858, 9.999583 
1.5947902e+3, 1.23903126e+2, -2096676.8, -1821170.6, -143890.3, 0.027108438, 0.31039256, -1759724.5, -33933.594, 0.026239868, 9.99701, 10.000701 
1.594822e+3, 1.3390738e+2, -1831780.5, -1530014.0, 1115.9694, -0.047809463, 0.56148475, -1530009.9, 97744.65, 0.016040104, 9.997686, 10.001714 
1.5948568e+3, 1.4390884e+2, -1616101.0, -1395432.1, -20283.063, 0.22869875, 0.55343133, -1393583.3, 136155.38, 0.0073062, 9.99856, 10.001545 
1.594887e+3, 1.539086e+2, -1436365.3, -1242028.9, 21657.094, 0.058874685, 0.35023358, -1239644.6, 192084.66, 0.002060233, 9.999065, 10.001673 
1.5949178e+3, 1.6390765e+2, -1531551.5, -1595743.5, 20636.736, -0.085601196, 0.24544191, -1525489.5, -191755.55, 0.00024185247, 9.999288, 9.998459 
1.5949509e+3, 1.7390569e+2, -1489043.1, -1545653.8, -49085.65, -0.037025217, 0.21048021, -1460686.4, -224926.8, 0.0000030340082, 9.999009, 9.998258 
1.5949841e+3, 1.8390526e+2, -1276749.4, -1171322.1, -106513.21, 0.044431016, 0.26539704, -1105192.3, 32574.469, 0.0, 9.998835, 10.000242 
1.595017e+3, 1.9390738e+2, -1150418.9, -1012171.44, -38122.785, 0.12725198, 0.40489188, -1002355.7, 37387.605, 0.0, 9.998834, 10.000658 
1.5950492e+3, 2.0390819e+2, -1098741.3, -1120850.6, -18729.379, 0.14676303, 0.5059572, -1088047.5, -146313.22, 0.0, 9.999298, 9.999022 
1.5950808e+3, 2.1390705e+2, -847687.1, -948949.9, -50273.457, 0.10447822, 0.4809807, -826967.56, 16778.902, 0.0, 10.000356, 9.999018 
1.5951136e+3, 2.2390483e+2, -716069.6, -949999.8, 2772.4949, 0.059838858, 0.41594332, -716036.75, 29731.162, 0.0, 10.001074, 9.997995 
1.5951476e+3, 2.3390111e+2, -563908.4, -819748.8, 7979.701, 0.01216473, 0.23029937, -563659.75, 84142.05, 0.0, 10.001423, 9.998048 
1.5951812e+3, 2.438989e+2, -423406.16, -605155.3, -109255.7, 0.035619784, 0.1800227, -372171.63, 177650.11, 0.0, 10.0013075, 9.998892 
1.5952139e+3, 2.5389898e+2, -409406.13, -514428.56, -97833.65, 0.17719735, 0.2608333, -350882.0, 100938.11, 0.00000009760233, 10.000588, 9.9991865 
1.5952463e+3, 2.6389864e+2, -327774.28, -489283.4, -3866.6052, 0.2034984, 0.3472701, -327681.78, 26142.914, 0.0000054247644, 10.000754, 9.9986105 
1.5952785e+3, 2.7389792e+2, 13764.503, -257550.48, 23503.969, 0.05810949, 0.386922, 15785.593, 271621.78, 0.00006233866, 10.002363, 9.998751 
1.5953109e+3, 2.838973e+2, 212575.98, -24622.96, 21842.895, -0.043843564, 0.4278495, 214570.66, 372412.25, 0.00032281963, 10.002678, 9.999535 
1.5953434e+3, 2.938965e+2, 106723.43, 7715.3184, 89975.57, -0.10259019, 0.34837246, 159914.34, 219755.63, 0.0010343667, 10.001131, 9.999826 
1.5953773e+3, 3.0389246e+2, 30703.1, -336441.66, 158487.38, -0.08319059, 0.11060443, 89653.02, 89653.02, 0.0022870717, 10.001714, 9.996857 
1.5954153e+3, 3.1389034e+2, 610341.3, 1359.0602, 116406.96, 0.1827197, 0.21306552, 631834.0, 631834.0, 0.0039174845, 10.005448, 9.997375 
1.6047879e+3, 1.238719e+2, -1980656.9, -1773023.1, -25510.611, 0.06144091, 0.2976487, -1769934.8, -43838.92, 0.027939666, 9.997845, 10.000624 
1.6048202e+3, 1.3387638e+2, -1921438.4, -1633064.8, 95968.41, 0.043996554, 0.6262958, -1604047.1, 24012.547, 0.01712635, 9.997345, 10.001154 
1.6048542e+3, 1.4387688e+2, -1788065.8, -1502645.0, 46253.727, 0.15505217, 0.5613361, -1495336.5, 34717.516, 0.007836914, 9.997512, 10.001299 
1.6048865e+3, 1.538766e+2, -1460964.5, -1279948.5, -5558.6626, 0.10587629, 0.3773867, -1279777.9, 152265.11, 0.0022287087, 9.999012, 10.001434 
1.6049182e+3, 1.6387516e+2, -1507070.0, -1626912.6, -27483.578, 0.023856679, 0.25573024, -1501067.9, -167016.42, 0.00026665046, 9.999658, 9.998061 
1.6049503e+3, 1.7387214e+2, -1453915.0, -1572066.4, 18137.166, -0.014458686, 0.15766597, -1451193.5, -215105.53, 0.0000036433328, 9.999445, 9.997864 
1.604983e+3, 1.8387151e+2, -1181870.6, -1115549.4, 24927.246, 0.025952114, 0.20767419, -1107225.1, 30872.0, 0.0, 9.999435, 10.000339 
1.6050163e+3, 1.9387452e+2, -979247.06, -913149.3, -30285.379, 0.14387715, 0.41980657, -901371.5, 138692.55, 0.0, 9.999919, 10.00082 
1.6050492e+3, 2.0387529e+2, -995192.3, -1121830.6, -36323.78, 0.17854291, 0.5293806, -985513.3, -43458.05, 0.0, 10.000233, 9.998565 
1.6050811e+3, 2.1387284e+2, -869606.25, -1016435.4, -45903.484, 0.09271261, 0.42634386, -856436.56, -12355.05, 0.0, 10.000457, 9.998501 
1.6051142e+3, 2.2387017e+2, -771888.4, -949071.4, 42383.496, 0.05072617, 0.33587512, -762271.9, -16163.853, 0.0, 10.000577, 9.998234 
1.605149e+3, 2.3386748e+2, -657450.9, -822514.2, 77825.33, 0.060853615, 0.21613345, -626544.2, 21588.127, 0.0, 10.0006075, 9.998409 
1.6051827e+3, 2.4386582e+2, -476598.66, -601361.9, -17534.451, 0.09785457, 0.1902764, -474181.2, 75964.88, 0.0, 10.000816, 9.999163 
1.6052148e+3, 2.5386596e+2, -281393.97, -420664.5, -40771.492, 0.18111904, 0.2500261, -270336.1, 181806.23, 0.000000007673713, 10.001339, 9.999474 
1.6052473e+3, 2.6386562e+2, -247043.72, -458508.75, 56241.93, 0.1923801, 0.32431883, -233015.97, 121130.1, 0.0000049768487, 10.001347, 9.998538 
1.6052802e+3, 2.7386484e+2, -262030.02, -409385.5, 36426.777, 0.09400989, 0.37286323, -253517.02, 2642.2898, 0.00006447964, 10.000542, 9.99859 
1.6053133e+3, 2.83864e+2, -85120.96, -190092.77, -29686.625, 0.025875872, 0.41061458, -77307.07, 80860.336, 0.00032949253, 10.0007105, 9.999347 
1.6053458e+3, 2.9386294e+2, 282270.03, 75684.0, -120640.9, -0.021674596, 0.32817146, 337796.66, 397965.22, 0.001045755, 10.002411, 9.999675 
1.6053803e+3, 3.0385873e+2, 237711.34, -238369.19, -592.88654, -0.013180876, 0.0821563, 237712.08, 237712.08, 0.0023101745, 10.003147, 9.996833 
1.6054192e+3, 3.1385627e+2, 195966.33, -147621.6, 101594.88, 0.19917007, 0.14767462, 223758.66, 223758.66, 0.0039577326, 10.002358, 9.997834 
1.6147873e+3, 1.2384376e+2, -1923604.4, -1700027.6, -24405.861, 0.17707737, 0.36531588, -1697394.5, 28973.65, 0.02978273, 9.998015, 10.001058 
1.6148178e+3, 1.338454e+2, -2025989.8, -1849389.0, 81039.51, 0.07160839, 0.54864794, -1817838.0, -189479.38, 0.018308382, 9.997337, 9.999676 
1.6148493e+3, 1.4384325e+2, -1875318.0, -1695039.6, 91213.234, -0.09376941, 0.36166203, -1656941.1, -126560.0, 0.008418617, 9.997554, 9.999959 
1.6148867e+3, 1.5384412e+2, -1556478.4, -1478400.8, 57510.97, 0.22437869, 0.43063164, -1447930.3, -15564.38, 0.0024150687, 9.999019, 10.000066 
1.6149205e+3, 1.6384402e+2, -1411303.8, -1457536.6, -39382.96, 0.2684142, 0.46800032, -1388754.3, -54391.34, 0.0002938315, 9.999767, 9.999175 
1.6149494e+3, 1.738425e+2, -1351680.6, -1367360.6, 15258.913, -0.05174514, 0.37895256, -1342365.4, -105987.414, 0.000004294035, 9.999463, 9.999264 
1.6149808e+3, 1.8384118e+2, -1250937.0, -1267572.9, 33788.93, -0.1523266, 0.33295652, -1224457.3, -86067.53, 0.0, 9.9994755, 9.999272 
1.6150157e+3, 1.938403e+2, -1078102.9, -1115049.0, -5415.081, 0.083479434, 0.288705, -1077325.6, -36930.61, 0.0, 9.999907, 9.999439 
1.6150492e+3, 2.0383896e+2, -1017801.75, -1156655.6, -36984.68, 0.15751827, 0.2734939, -1008565.06, -66157.66, 0.0, 10.00018, 9.998351 
1.6150805e+3, 2.1383715e+2, -886724.6, -1033508.6, -31947.691, -0.005989916, 0.23985784, -880072.6, -35644.023, 0.0, 10.000375, 9.998423 
1.6151138e+3, 2.2383592e+2, -738218.5, -844613.75, 36693.582, -0.04805424, 0.26216632, -726791.0, 19651.41, 0.0, 10.000434, 9.999018 
1.6151501e+3, 2.3383582e+2, -610558.6, -698658.8, 86023.13, 0.101450495, 0.31375512, -557963.0, 90479.74, 0.0, 10.000499, 9.9993105 
1.6151842e+3, 2.4383533e+2, -485794.94, -596042.7, -7469.9873, 0.15614083, 0.34881404, -485291.13, 65154.063, 0.0, 10.000707, 9.999253 
1.615215e+3, 2.538343e+2, -295483.03, -428208.97, -13086.849, 0.066320844, 0.29092956, -294204.97, 158244.66, 0.00000000987263, 10.001243, 9.999468 
1.6152467e+3, 2.638328e+2, -301964.47, -545898.5, 23951.586, 0.010442649, 0.26950645, -299634.94, 54828.51, 0.000004852571, 10.001233, 9.997992 
1.61528e+3, 2.7383062e+2, -311750.84, -500306.5, 16098.569, 0.01970248, 0.24248776, -310386.25, -53895.836, 0.000064250504, 10.0005, 9.997982 
1.615314e+3, 2.838288e+2, -220387.4, -460839.53, 18192.713, 0.03522876, 0.29840115, -219018.73, -60507.176, 0.00032939267, 10.000664, 9.997512 
1.615349e+3, 2.9382753e+2, 127828.42, -221184.36, -37966.81, 0.039838336, 0.38537818, 131910.83, 192433.66, 0.0010398338, 10.0023, 9.997691 
1.615384e+3, 3.0382395e+2, 328300.25, 4515.3457, -24383.543, 0.029322188, 0.23561552, 330126.22, 330126.22, 0.0022900703, 10.002943, 9.998584 
1.6154207e+3, 3.1382227e+2, 342659.7, 228774.73, 89212.45, 0.10198229, 0.1559032, 391553.44, 391553.44, 0.0039131315, 10.002095, 10.000531 
1.6247846e+3, 1.2381207e+2, -2136390.3, -1735824.5, -133356.3, 0.21112731, 0.36566544, -1695489.1, 31189.857, 0.03179242, 9.996278, 10.001643 
1.6248164e+3, 1.3381277e+2, -1921330.8, -1845593.0, -53382.81, 0.15664536, 0.49077278, -1818011.4, -189335.53, 0.019603958, 9.998247, 9.999264 
1.624847e+3, 1.4381075e+2, -1722689.5, -1684005.8, 50625.64, -0.13022827, 0.36675623, -1649153.0, -118456.336, 0.009062119, 9.998882, 9.999388 
1.6248861e+3, 1.5381074e+2, -1606889.9, -1557778.0, 73702.13, 0.27641824, 0.40054286, -1504648.6, -71955.76, 0.002624408, 9.998925, 9.999557 
1.624921e+3, 1.638106e+2, -1520849.4, -1482043.0, -32990.777, 0.373452, 0.44913635, -1463172.5, -128480.72, 0.00032476612, 9.998905, 9.999417 
1.6249491e+3, 1.7381014e+2, -1415758.8, -1359664.0, -79387.37, 0.005234212, 0.4329033, -1303515.1, -66819.62, 0.000005034694, 9.998867, 9.999599 
1.6249801e+3, 1.8380873e+2, -1334884.3, -1358631.8, -45613.188, -0.14339459, 0.38298613, -1299624.8, -160917.38, 0.0, 9.999123, 9.998818 
1.6250153e+3, 1.9380617e+2, -1101301.6, -1177878.5, -31227.828, 0.041907635, 0.22202422, -1090181.8, -49452.617, 0.0, 9.999992, 9.998957 
1.6250491e+3, 2.0380445e+2, -956434.2, -1084682.4, -15550.022, 0.11454284, 0.17774712, -954575.7, -11830.625, 0.0, 10.000421, 9.998727 
1.625081e+3, 2.1380417e+2, -878808.4, -974795.0, 15594.164, 0.008935839, 0.25209725, -876338.44, -31587.768, 0.0, 10.000194, 9.998916 
1.6251147e+3, 2.2380385e+2, -774270.44, -863424.94, 99047.37, 0.009721185, 0.33776572, -710231.4, 36524.62, 0.0, 10.000184, 9.999012 
1.6251512e+3, 2.3380357e+2, -612869.44, -710925.25, 62820.367, 0.1588718, 0.38045225, -582209.6, 66549.766, 0.0, 10.000525, 9.999218 
1.6251856e+3, 2.4380276e+2, -449552.97, -582483.9, -50233.75, 0.20791502, 0.390645, -432705.25, 118060.44, 0.0, 10.00096, 9.999225 
1.6252165e+3, 2.538012e+2, -253197.95, -414057.6, -73740.23, 0.07818545, 0.2810831, -224510.52, 228264.77, 0.000000011745934, 10.001538, 9.999428 
1.6252483e+3, 2.6379946e+2, -163106.6, -490247.22, -23283.078, 0.009665025, 0.24590151, -161457.81, 193332.9, 0.0000048598445, 10.002235, 9.9978895 
1.625282e+3, 2.7379766e+2, 66453.44, -330817.03, -15277.343, 0.03923323, 0.26698476, 67040.08, 323853.44, 0.00006262461, 10.003148, 9.99787 
1.6253166e+3, 2.837956e+2, 136554.44, -348670.47, 71817.66, 0.088212505, 0.3272473, 146960.9, 305797.53, 0.00032550952, 10.003383, 9.996972 
1.6253524e+3, 2.9379314e+2, 130714.875, -290564.9, 78748.02, 0.14001712, 0.36072832, 144953.66, 205813.66, 0.0010260388, 10.00262, 9.997065 
1.6253875e+3, 3.0378953e+2, 236640.14, -64451.945, 94149.88, 0.120514534, 0.2494669, 263656.25, 263656.25, 0.0022449591, 10.002389, 9.998399 
1.6254228e+3, 3.1378797e+2, 482347.47, 288215.06, 16267.222, 0.07181719, 0.19935021, 483701.13, 483701.13, 0.0038080325, 10.003031, 10.000527 
1.6347799e+3, 1.23777665e+2, -2091042.8, -1646377.0, 32738.146, 0.07423669, 0.37918115, -1643979.6, 83040.99, 0.03398967, 9.996292, 10.002259 
1.6348156e+3, 1.3377841e+2, -1879347.6, -1765251.4, 6067.8955, 0.24667525, 0.45396996, -1764929.6, -135917.11, 0.02102759, 9.998281, 9.999797 
1.6348472e+3, 1.4377947e+2, -1676130.9, -1618202.3, 37751.926, -0.013791282, 0.59444743, -1599583.5, -68583.78, 0.009775217, 9.999002, 9.999784 
1.6348843e+3, 1.5377659e+2, -1576390.9, -1495046.0, 80655.414, 0.18964438, 0.29484528, -1445388.3, -12365.448, 0.002860367, 9.998924, 9.999989 
1.6349187e+3, 1.637749e+2, -1562829.1, -1578823.5, -39981.902, 0.2625959, 0.19394037, -1530052.5, -195014.86, 0.00036087315, 9.998941, 9.998739 
1.6349491e+3, 1.7377496e+2, -1476168.9, -1487317.9, -78049.664, 0.1055416, 0.31929588, -1403494.9, -166453.94, 0.000005927034, 9.998877, 9.998722 
1.6349807e+3, 1.8377407e+2, -1310956.1, -1322793.3, -25629.684, -0.0078850165, 0.35938728, -1290570.5, -151519.69, 0.0, 9.999175, 9.999042 
1.6350146e+3, 1.9377197e+2, -1076947.8, -1124692.0, 7579.5825, -0.035476957, 0.20760663, -1075773.3, -34705.57, 0.0, 9.999978, 9.999331 
1.6350482e+3, 2.0377149e+2, -895702.4, -945947.06, -27053.521, -0.018029358, 0.22457017, -883905.56, 59164.95, 0.0, 10.000364, 9.999707 
1.6350818e+3, 2.1377371e+2, -815812.9, -829377.75, 13445.134, 0.0758152, 0.44351628, -807536.3, 37513.598, 0.0, 10.000124, 9.99995 
1.6351162e+3, 2.2377382e+2, -852125.44, -994632.9, 102983.17, 0.14052938, 0.5526107, -798148.9, -51098.703, 0.0, 10.000052, 9.998175 
1.6351518e+3, 2.3377074e+2, -701685.8, -874213.8, 83299.81, 0.1750639, 0.41705227, -668031.75, -18949.6, 0.0, 10.00043, 9.998142 
1.6351862e+3, 2.4376816e+2, -487480.06, -622806.0, -35218.305, 0.18372935, 0.32031322, -478863.22, 72243.86, 0.0, 10.000799, 9.999023 
1.6352187e+3, 2.537667e+2, -274872.97, -430632.16, -44198.13, 0.14745419, 0.22816274, -263205.3, 189912.83, 0.000000006263202, 10.001424, 9.999367 
1.6352516e+3, 2.6376578e+2, -161214.61, -458666.63, 3348.9143, 0.107576, 0.26637557, -161176.92, 193949.2, 0.000005059976, 10.002107, 9.998175 
1.6352856e+3, 2.737658e+2, 71270.45, -291049.16, 32337.818, 0.07281322, 0.4353857, 74134.04, 331262.66, 0.00006071332, 10.003014, 9.998212 
1.6353202e+3, 2.8376403e+2, 145940.28, -297065.63, 42841.605, 0.09433941, 0.48555848, 150045.31, 309191.03, 0.00031809925, 10.003249, 9.99739 
1.6353557e+3, 2.9375952e+2, 152159.92, -231721.95, 60365.824, 0.19945762, 0.26987046, 161428.72, 222612.6, 0.0010037508, 10.002566, 9.997492 
1.6353905e+3, 3.0375537e+2, 91933.234, -332150.2, 100831.14, 0.17665249, 0.16083625, 114686.336, 114686.336, 0.0021809242, 10.0022545, 9.996619 
1.6354251e+3, 3.1375322e+2, 280010.38, -44827.59, 70048.234, -0.036973238, 0.24941207, 294471.78, 294471.78, 0.0036664398, 10.002672, 9.998392 
1.6447768e+3, 1.2374211e+2, -1920734.0, -1593608.9, 16782.771, 0.07756523, 0.46992204, -1592750.1, 134622.34, 0.036383986, 9.997596, 10.002008 
1.644814e+3, 1.3374199e+2, -1857102.3, -1657855.3, -95707.336, 0.27842435, 0.38216606, -1619331.3, 10038.1, 0.022584815, 9.99803, 10.000654 
1.644847e+3, 1.4374435e+2, -1825074.1, -1632578.0, -71301.41, 0.12632822, 0.5850009, -1609044.8, -77702.22, 0.010560797, 9.99774, 10.000298 
1.6448823e+3, 1.5374202e+2, -1767022.9, -1533955.4, -43004.598, 0.18327352, 0.29361615, -1526273.5, -92911.44, 0.0031241647, 9.99738, 10.00047 
1.6449167e+3, 1.637407e+2, -1729967.8, -1649205.8, -86560.28, 0.22137411, 0.19828957, -1594070.8, -258696.08, 0.0004029895, 9.997747, 9.998835 
1.6449487e+3, 1.7374079e+2, -1376914.6, -1431949.1, -62163.434, 0.1595398, 0.3206513, -1336450.4, -99072.44, 0.0000070009137, 9.999523, 9.998793 
1.6449812e+3, 1.8374029e+2, -1136049.4, -1196887.5, 17513.068, 0.08501834, 0.3817796, -1131368.1, 8015.394, 0.0, 10.000216, 9.999393 
1.6450144e+3, 1.9373918e+2, -1142631.4, -1113990.4, 30181.379, -0.0037703612, 0.29054114, -1094904.4, -53513.99, 0.0, 9.999349, 9.999706 
1.6450481e+3, 2.0373887e+2, -1070552.4, -1050059.5, -10450.258, -0.0013867075, 0.30910227, -1045670.44, -102279.03, 0.0, 9.99924, 9.999537 
1.6450827e+3, 2.1373998e+2, -782574.8, -837019.1, -76241.06, 0.1357297, 0.44156608, -728841.75, 116539.73, 0.0, 10.000461, 9.999728 
1.6451173e+3, 2.2373955e+2, -693324.6, -904940.6, -12373.234, 0.20423315, 0.5039561, -692603.6, 54782.875, 0.0, 10.001084, 9.998298 
1.6451523e+3, 2.3373675e+2, -642095.1, -825676.8, 42814.645, 0.16291896, 0.382744, -632601.0, 16813.246, 0.0, 10.000754, 9.998324 
1.6451868e+3, 2.4373437e+2, -553414.3, -700991.94, -6774.1147, 0.16920322, 0.31498456, -553104.0, -1666.091, 0.0, 10.000564, 9.99859 
1.6452205e+3, 2.537329e+2, -426852.47, -566410.7, -62881.74, 0.23061235, 0.2756608, -402699.5, 50753.965, 0.000000005166704, 10.00066, 9.998799 
1.6452543e+3, 2.6373196e+2, -277285.06, -465140.03, 2492.0269, 0.22102508, 0.32783666, -277252.0, 78210.49, 0.000005473011, 10.001099, 9.9986105 
1.6452882e+3, 2.7373204e+2, -6610.782, -263975.78, 26471.965, 0.08672127, 0.4416832, -3916.1506, 253544.78, 0.00005878461, 10.002209, 9.998779 
1.645323e+3, 2.8373024e+2, 170516.17, -268216.47, 31922.816, 0.056527004, 0.45220146, 172826.75, 332302.4, 0.0003059286, 10.003357, 9.997531 
1.645359e+3, 2.9372582e+2, 433840.44, -85599.33, 3813.092, 0.19090395, 0.24573186, 433868.44, 495380.6, 0.00097049924, 10.00448, 9.997565 
1.6453938e+3, 3.0372217e+2, 339400.13, -237170.0, 45970.176, 0.20760146, 0.19024774, 343042.34, 343042.34, 0.002105415, 10.004026, 9.996426 
1.6454275e+3, 3.1371942e+2, -25553.477, -255504.69, 78588.64, 0.054867446, 0.24339391, -1261.1222, -1261.1222, 0.0035218329, 10.000821, 9.997832 
1.6547753e+3, 1.2370433e+2, -1974162.6, -1731166.3, 43277.953, 0.13512546, 0.55639744, -1723688.5, 4056.445, 0.03897044, 9.997734, 10.000957 
1.654811e+3, 1.3370366e+2, -1769732.8, -1477394.0, -91540.74, 0.17063057, 0.29216903, -1451095.4, 178649.77, 0.024272982, 9.99801, 10.001932 
1.6548458e+3, 1.4370532e+2, -1784684.5, -1550081.3, -97011.99, 0.22456373, 0.32494062, -1515162.6, 16563.38, 0.0114189135, 9.997745, 10.000862 
1.6548799e+3, 1.5370716e+2, -1741801.9, -1477635.0, -53614.484, 0.20234442, 0.41313815, -1467168.4, -33458.246, 0.0034161112, 9.997366, 10.000864 
1.654914e+3, 1.6370818e+2, -1647708.1, -1500733.6, -38586.08, 0.1698669, 0.48852226, -1491219.3, -155518.02, 0.00045137366, 9.997829, 9.999818 
1.6549478e+3, 1.7370772e+2, -1298917.6, -1271060.8, 10708.162, 0.10790033, 0.44390157, -1267420.4, -29715.295, 0.000008273259, 9.999525, 9.999895 
1.6549814e+3, 1.8370745e+2, -1098043.0, -1133038.0, -9700.846, 0.07145296, 0.44444796, -1095533.8, 44171.78, 0.0, 10.000271, 9.99981 
1.6550146e+3, 1.937078e+2, -1123505.8, -1072767.1, 1352.9244, 0.08174107, 0.47085446, -1072731.0, -31033.6, 0.0, 9.999336, 10.0 
1.6550484e+3, 2.0370664e+2, -1167375.5, -1240522.9, 19974.492, 0.09515949, 0.4465276, -1162276.5, -218569.61, 0.0, 9.999194, 9.998253 
1.6550831e+3, 2.1370313e+2, -899798.25, -1062553.3, -23538.404, 0.13219987, 0.26180625, -896462.4, -50718.43, 0.0, 10.00038, 9.998221 
1.6551177e+3, 2.2370104e+2, -636748.8, -761523.94, -25005.574, 0.12802966, 0.19865726, -631924.1, 115840.59, 0.0, 10.00097, 9.999339 
1.655152e+3, 2.3370159e+2, -558436.2, -630087.56, 38148.8, 0.06450977, 0.27473316, -541928.25, 107827.86, 0.0, 10.000657, 9.999718 
1.6551867e+3, 2.4370126e+2, -620630.8, -813426.25, -9079.182, 0.0872172, 0.364435, -620204.25, -68444.41, 0.0, 10.000445, 9.997876 
1.6552216e+3, 2.5369963e+2, -507836.5, -717533.2, -49589.56, 0.27020884, 0.4086779, -496700.78, -42918.19, 0.00000000856411, 10.000596, 9.9977865 
1.6552562e+3, 2.6369792e+2, -255647.4, -410144.25, 33672.53, 0.28745598, 0.42363983, -248627.45, 107173.35, 0.0000057188686, 10.001047, 9.999019 
1.65529e+3, 2.7369633e+2, 27258.24, -171682.84, 77147.21, 0.025393132, 0.30632865, 53668.914, 311478.8, 0.00005715205, 10.002111, 9.999463 
1.655325e+3, 2.836943e+2, 140008.53, -292458.94, 65645.586, -0.09255189, 0.25958803, 149753.5, 309578.16, 0.00029385797, 10.003179, 9.997456 
1.6553622e+3, 2.9369193e+2, 392300.28, -126783.97, 60355.516, 0.046290483, 0.26574016, 399225.6, 461071.88, 0.0009389974, 10.004274, 9.997385 
1.6553971e+3, 3.0368954e+2, 367099.5, -106421.53, -60832.344, 0.12678999, 0.30191743, 374789.63, 374789.63, 0.0020470126, 10.003739, 9.997452 
1.65543e+3, 3.136863e+2, 259.4801, -168584.97, -20402.986, 0.20464398, 0.19128852, 2689.9692, 2689.9692, 0.0034252028, 10.000693, 9.998483 
1.6647738e+3, 1.2366712e+2, -2045541.0, -1782467.8, 193917.8, 0.25187254, 0.48785442, -1679684.0, 48423.57, 0.041736465, 9.9972725, 10.000862 
1.6648078e+3, 1.3366805e+2, -1839850.4, -1439716.4, 16697.771, 0.10476346, 0.3205087, -1439020.8, 191071.92, 0.026087236, 9.997193, 10.002601 
1.6648442e+3, 1.436691e+2, -1818022.1, -1558876.5, -7592.6567, 0.30540356, 0.25361735, -1558654.1, -26573.299, 0.012349877, 9.997493, 10.0009165 
1.664878e+3, 1.5367237e+2, -1564392.6, -1387624.0, -1844.463, 0.2343623, 0.47940102, -1387604.9, 46449.34, 0.003737191, 9.998571, 10.000894 
1.6649123e+3, 1.6367409e+2, -1441725.3, -1331898.4, 5785.6997, 0.1505287, 0.59749454, -1331594.4, 4444.375, 0.00050616945, 9.998961, 10.000419 
1.6649461e+3, 1.7367321e+2, -1418221.9, -1254662.3, 8209.81, 0.039396595, 0.44322184, -1254251.1, -16208.463, 0.000009797576, 9.998382, 10.000557 
1.6649802e+3, 1.8367271e+2, -1405372.4, -1294006.9, -50922.523, 0.03473554, 0.38949922, -1274233.1, -134189.63, 0.0, 9.998228, 9.999683 
1.6650149e+3, 1.9367315e+2, -1157353.3, -1108941.3, -95286.234, 0.18392237, 0.4444356, -1034834.5, 7201.5386, 0.0, 9.999209, 9.999795 
1.665049e+3, 2.0367189e+2, -1113506.1, -1238263.8, -38222.81, 0.22622117, 0.429439, -1102726.9, -158679.16, 0.0, 9.999675, 9.998033 
1.6650826e+3, 2.1366806e+2, -1063396.0, -1163377.4, 3458.4736, 0.096691236, 0.23688154, -1063276.5, -217187.89, 0.0, 9.999357, 9.998019 
1.6651168e+3, 2.2366601e+2, -853680.2, -845524.75, 32614.535, 0.037133873, 0.18028189, -816734.0, -68624.55, 0.0, 9.9994, 9.999513 
1.6651525e+3, 2.3366708e+2, -625599.8, -634324.6, -5986.1475, 0.08803114, 0.28363854, -622555.2, 27540.64, 0.0, 10.000078, 9.999958 
1.6651879e+3, 2.4366707e+2, -538867.0, -773749.8, -49973.367, 0.15478107, 0.39242187, -528676.8, 23419.25, 0.0, 10.000985, 9.997905 
1.6652226e+3, 2.5366545e+2, -257151.58, -597191.9, -27803.125, 0.23848191, 0.4386926, -254893.27, 199225.31, 0.0000000057748837, 10.002304, 9.997802 
1.6652575e+3, 2.636635e+2, -13456.087, -328972.06, 70499.52, 0.23844665, 0.44278252, 1579.922, 357719.22, 0.0000055479773, 10.002874, 9.9986925 
1.6652925e+3, 2.736613e+2, 21429.777, -225577.97, 22073.88, 0.07780783, 0.30548403, 23386.906, 281541.97, 0.000055344583, 10.002274, 9.9990225 
1.665328e+3, 2.836592e+2, -35119.8, -318688.4, 5571.2676, -0.01233187, 0.25379443, -35010.383, 125160.92, 0.00028373505, 10.00172, 9.997975 
1.6653644e+3, 2.936577e+2, 15630.102, -232722.42, 31031.143, 0.0026996853, 0.28950512, 19448.666, 81633.016, 0.0009164015, 10.001371, 9.99805 
1.6653992e+3, 3.0365607e+2, 179588.2, -163512.75, -70547.24, 0.053784195, 0.34958753, 193527.56, 193527.56, 0.0020178298, 10.002298, 9.997756 
1.6654336e+3, 3.13654e+2, 606408.6, 107524.41, -136611.17, 0.29551408, 0.34026915, 641367.6, 641367.6, 0.003395846, 10.004953, 9.998335 
1.6747716e+3, 1.2363033e+2, -1956173.4, -1595422.6, 65980.84, 0.27228814, 0.23469256, -1583733.6, 144728.11, 0.044670317, 9.997256, 10.002176 
1.6748044e+3, 1.336355e+2, -1851013.1, -1454710.6, 21975.324, 0.022944018, 0.4898013, -1453495.9, 176912.42, 0.028026333, 9.997168, 10.002507 
1.6748416e+3, 1.4363599e+2, -1828370.8, -1597956.1, 23779.742, 0.29311368, 0.38331833, -1595527.5, -63123.31, 0.013357116, 9.997558, 10.000621 
1.6748767e+3, 1.5363768e+2, -1587765.6, -1443147.0, 50218.582, 0.21888383, 0.4886129, -1427419.1, 6974.21, 0.004090086, 9.998589, 10.000511 
1.6749108e+3, 1.6363828e+2, -1421988.8, -1303675.5, -16293.209, 0.09117119, 0.5074391, -1301472.8, 34915.637, 0.0005678562, 9.999017, 10.0005865 
1.6749431e+3, 1.7363738e+2, -1408591.6, -1225601.9, -11896.86, -0.097568534, 0.33004388, -1224831.8, 13558.25, 0.000011659807, 9.998351, 10.000771 
1.6749772e+3, 1.8363632e+2, -1440054.1, -1380517.4, -29396.695, -0.09425647, 0.2362583, -1368448.9, -228053.34, 0.0, 9.998278, 9.999072 
1.6750148e+3, 1.9363524e+2, -1213477.1, -1223053.0, -52820.152, 0.2394955, 0.21464819, -1165228.4, -122821.98, 0.0, 9.999193, 9.999025 
1.6750498e+3, 2.0363452e+2, -1054625.6, -1112796.5, -52194.973, 0.32086876, 0.26076284, -1023959.3, -79544.664, 0.0, 9.999659, 9.9989 
1.6750808e+3, 2.1363465e+2, -999590.2, -1015385.9, -4306.994, -0.021917662, 0.3574974, -998492.1, -152075.44, 0.0, 9.999285, 9.999073 
1.6751146e+3, 2.2363426e+2, -918238.6, -952122.6, 47139.977, -0.13335545, 0.4349334, -885088.6, -136666.02, 0.0, 9.999282, 9.9988365 
1.6751534e+3, 2.3363309e+2, -703331.06, -779263.2, 25519.717, 0.17017479, 0.40828323, -695551.3, -45117.47, 0.0, 10.000007, 9.998997 
1.6751903e+3, 2.4363177e+2, -504322.25, -678621.9, -12223.99, 0.29011807, 0.4066786, -503469.16, 48977.855, 0.0, 10.00088, 9.998608 
1.6752236e+3, 2.5363043e+2, -208752.3, -465234.3, 26803.824, 0.08949292, 0.38597503, -205981.1, 248479.52, 0.0000000017385277, 10.002169, 9.998771 
1.6752583e+3, 2.6362872e+2, -110052.19, -493622.38, 48380.027, 0.013920874, 0.40384436, -104044.086, 252433.36, 0.0000048816705, 10.002711, 9.997644 
1.6752958e+3, 2.736266e+2, -89528.33, -433581.25, 10772.846, 0.16689993, 0.4113423, -89191.34, 169307.44, 0.000051549086, 10.0021715, 9.997646 
1.6753319e+3, 2.8362453e+2, 6230.3335, -202678.36, -13935.001, 0.19007158, 0.40810937, 7155.7515, 167673.1, 0.00027035348, 10.001591, 9.998835 
1.6753656e+3, 2.936231e+2, 94741.23, -50402.348, 33624.44, -0.021365302, 0.317968, 102152.36, 164679.42, 0.00089028233, 10.001281, 9.99935 
1.6754001e+3, 3.0362168e+2, 112761.45, -239130.56, 7424.7085, -0.10019347, 0.33844623, 112918.04, 112918.04, 0.0019930173, 10.002043, 9.997353 
1.6754377e+3, 3.1362206e+2, 504586.56, -25740.38, 1467.4646, 0.18250795, 0.6427188, 504590.63, 504590.63, 0.0033945646, 10.004633, 9.997561 
1.6847694e+3, 1.23595774e+2, -1905242.1, -1588072.0, 25336.012, 0.32423115, 0.21086036, -1586060.9, 142736.08, 0.04776628, 9.997695, 10.002005 
1.6848022e+3, 1.3360044e+2, -1801622.8, -1537149.5, -48793.082, 0.05790159, 0.50783134, -1528434.8, 102317.03, 0.030093629, 9.997993, 10.001514 
1.6848394e+3, 1.4360051e+2, -1744838.8, -1548745.6, -62136.0, 0.30328453, 0.41118905, -1530714.6, 2038.9457, 0.0144471, 9.998089, 10.000702 
1.6848741e+3, 1.5360212e+2, -1733765.1, -1484588.1, -10549.707, 0.17851949, 0.48637715, -1484142.3, -49400.348, 0.004479329, 9.997469, 10.000763 
1.6849084e+3, 1.6360272e+2, -1677681.9, -1435910.8, -44037.805, 0.0563389, 0.4956535, -1428139.3, -91402.96, 0.0006375465, 9.997313, 10.000498 
1.6849421e+3, 1.7360187e+2, -1412094.8, -1233816.4, -72792.49, -0.02007363, 0.3326662, -1207870.6, 30866.947, 0.00001399049, 9.998366, 10.000698 
1.684977e+3, 1.8360086e+2, -1328190.6, -1307644.3, -59423.62, 0.015487439, 0.23935026, -1257612.4, -116869.12, 0.0, 9.998972, 9.999232 
1.6850135e+3, 1.9359976e+2, -1229477.5, -1211573.4, -20991.77, 0.20710285, 0.19974253, -1197704.5, -154950.02, 0.0, 9.998987, 9.999209 
1.6850485e+3, 2.0359926e+2, -1095571.1, -1126842.0, -1282.477, 0.23926191, 0.25377545, -1095518.6, -150757.4, 0.0, 9.999353, 9.998957 
1.6850808e+3, 2.1360004e+2, -842131.06, -930156.2, -43956.566, 0.0057689566, 0.411891, -823940.06, 22817.166, 0.0, 10.000336, 9.999149 
1.6851154e+3, 2.2359967e+2, -681672.06, -890457.8, -5556.0264, -0.062187523, 0.508754, -681524.3, 67239.0, 0.0, 10.001123, 9.998381 
1.685154e+3, 2.3359753e+2, -511627.34, -745400.94, -7350.3813, 0.14310883, 0.43960354, -511396.47, 139388.25, 0.0, 10.001577, 9.998479 
1.685191e+3, 2.435958e+2, -377319.38, -601692.75, -38916.08, 0.2376983, 0.42285797, -370761.3, 182040.6, 0.0, 10.001693, 9.998736 
1.6852255e+3, 2.535949e+2, -330005.13, -505193.5, -71020.664, 0.12571636, 0.42878187, -304831.1, 149979.4, 0.0000000018399801, 10.001243, 9.998947 
1.6852607e+3, 2.635934e+2, -337899.88, -593856.2, -43990.855, 0.08738318, 0.4530453, -330550.28, 26275.258, 0.0000039092515, 10.001107, 9.997725 
1.6852975e+3, 2.7359104e+2, -160109.55, -454529.66, -5785.465, 0.16690621, 0.42755726, -159995.9, 98854.086, 0.00004640097, 10.001655, 9.997737 
1.6853335e+3, 2.8358898e+2, 80649.83, -152246.72, 14981.991, 0.18370996, 0.4140068, 81609.65, 242478.31, 0.0002555915, 10.002035, 9.998971 
1.6853681e+3, 2.9358792e+2, 217318.34, 29103.844, -32490.588, 0.07362387, 0.35164887, 222769.17, 285642.97, 0.0008588424, 10.002039, 9.99953 
1.6854031e+3, 3.0358624e+2, 127565.56, -235743.1, -19389.408, -0.008143963, 0.33592248, 128597.42, 128597.42, 0.0019559679, 10.002136, 9.997346 
1.6854402e+3, 3.1358662e+2, 175898.06, -192040.94, -8159.903, 0.09580519, 0.6544517, 176078.94, 176078.94, 0.0033782288, 10.002349, 9.997551 
1.6947663e+3, 1.2356425e+2, -2013287.1, -1836236.8, -1543.4647, 0.20707412, 0.47493765, -1836223.4, -107117.734, 0.051028147, 9.997812, 10.000205 
1.6948013e+3, 1.3356264e+2, -1948874.5, -1831744.0, -26378.346, 0.15576811, 0.35113582, -1826077.5, -194951.61, 0.032295942, 9.9979515, 9.999497 
1.6948374e+3, 1.4356239e+2, -1705385.3, -1477415.5, -86177.24, 0.26849368, 0.31563094, -1448505.0, 84626.39, 0.015627254, 9.998124, 10.001187 
1.6948703e+3, 1.5356582e+2, -1677650.8, -1367735.9, -31431.678, 0.04400017, 0.49288574, -1364580.3, 70518.5, 0.004910431, 9.997463, 10.001574 
1.694905e+3, 1.6356753e+2, -1683950.3, -1462030.1, -21856.133, -0.03696859, 0.57632273, -1459898.0, -122816.93, 0.0007170378, 9.99736, 10.0002985 
1.694943e+3, 1.7356674e+2, -1439378.3, -1292618.5, -27351.887, 0.2197821, 0.4581133, -1287686.6, -48601.39, 0.000016975888, 9.998369, 10.000298 
1.6949789e+3, 1.8356632e+2, -1255557.9, -1170318.5, -62728.6, 0.29629114, 0.40520066, -1137100.8, 3985.7954, 0.0, 9.9990225, 10.000153 
1.6950108e+3, 1.9356672e+2, -1155932.6, -1051909.3, -18129.637, 0.027586745, 0.4038114, -1048840.0, -5759.2725, 0.0, 9.998956, 10.00032 
1.6950446e+3, 2.035662e+2, -1156140.3, -1235640.0, 22353.04, -0.081587076, 0.4227653, -1150286.3, -205199.83, 0.0, 9.999279, 9.998246 
1.6950823e+3, 2.1356428e+2, -924236.4, -1085822.4, -399.69528, 0.112683095, 0.40872747, -924235.4, -77125.81, 0.0, 10.000265, 9.998117 
1.6951188e+3, 2.235623e+2, -710887.0, -926417.0, 6776.9263, 0.16282006, 0.4128173, -710674.1, 38456.867, 0.0, 10.001019, 9.998181 
1.6951537e+3, 2.3356046e+2, -537277.25, -768486.3, 19862.863, -0.045250997, 0.38032886, -535583.25, 115564.36, 0.0, 10.001443, 9.998384 
1.6951898e+3, 2.4355912e+2, -438442.6, -684548.0, -55117.33, -0.06173582, 0.42884025, -426662.5, 126499.04, 0.0, 10.001504, 9.99826 
1.6952282e+3, 2.5355887e+2, -384563.84, -590044.6, -78284.25, 0.27225325, 0.55232704, -358137.66, 97030.91, 0.0000000033657745, 10.001123, 9.998422 
1.6952647e+3, 2.6355755e+2, -289655.66, -459159.06, -33642.22, 0.35770693, 0.57993305, -283222.66, 73960.66, 0.0000030031388, 10.000958, 9.99872 
1.6952978e+3, 2.7355456e+2, -93798.555, -282663.4, 25038.338, 0.02580977, 0.36856174, -90535.53, 168673.27, 0.000041424442, 10.001511, 9.998983 
1.695333e+3, 2.8355247e+2, 19156.621, -239765.03, 7445.528, -0.08070883, 0.2978596, 19370.549, 180596.33, 0.00024223694, 10.001859, 9.998458 
1.6953714e+3, 2.9355195e+2, 144879.5, -95884.0, -22622.754, 0.19933043, 0.37149295, 146986.75, 210214.13, 0.00082563167, 10.001921, 9.9987335 
1.6954073e+3, 3.035495e+2, 105888.31, -224214.44, -22712.65, 0.20400657, 0.3171963, 107443.73, 107443.73, 0.001899321, 10.00191, 9.997524 
1.6954407e+3, 3.135485e+2, 195879.77, -76832.28, 38925.188, -0.10360909, 0.4546356, 201326.9, 201326.9, 0.0033136408, 10.002057, 9.998468 
1.7047644e+3, 1.2352866e+2, -1980062.6, -1830942.3, -117516.53, 0.22486193, 0.5314612, -1766328.6, -36871.85, 0.054460447, 9.998065, 10.000133 
1.7047988e+3, 1.335265e+2, -2049486.5, -1855331.1, -23181.057, 0.17447068, 0.3357327, -1852601.8, -221120.84, 0.034638863, 9.99714, 9.999734 
1.7048343e+3, 1.4352666e+2, -1914330.8, -1604075.4, 24696.059, 0.21759892, 0.33656117, -1602122.0, -68640.81, 0.016903277, 9.996833, 10.000925 
1.704868e+3, 1.5352912e+2, -1635563.9, -1385945.4, -25204.215, 0.03686496, 0.4521917, -1383425.9, 52030.79, 0.00538814, 9.99793, 10.001217 
1.7049031e+3, 1.6353025e+2, -1524466.6, -1378220.9, -41302.043, -0.0039075078, 0.49372512, -1367362.6, -29918.432, 0.0008082668, 9.99841, 10.000378 
1.7049415e+3, 1.7352973e+2, -1472527.8, -1290800.6, -15959.748, 0.26445886, 0.38801032, -1289409.6, -49963.965, 0.000020835996, 9.998053, 10.000475 
1.7049778e+3, 1.8352978e+2, -1384735.0, -1236100.5, -38047.53, 0.33703405, 0.37686327, -1226927.3, -85484.17, 0.0, 9.998153, 10.000127 
1.70501e+3, 1.9353096e+2, -1110801.9, -1036663.75, -92716.01, 0.034328695, 0.45959982, -973881.06, 69551.055, 0.0, 9.999292, 10.00027 
1.7050442e+3, 2.0353056e+2, -1042968.25, -1202727.5, -68424.41, -0.07929199, 0.5038349, -1017668.7, -72230.8, 0.0, 10.0001545, 9.998039 
1.7050828e+3, 2.1352774e+2, -881632.4, -1094389.4, -48647.426, 0.13427706, 0.42499295, -871036.7, -23567.273, 0.0, 10.000685, 9.997853 
1.70512e+3, 2.2352527e+2, -725166.2, -922501.25, -13503.64, 0.19464894, 0.3903911, -724246.44, 25248.799, 0.0, 10.000874, 9.99828 
1.7051548e+3, 2.3352364e+2, -661265.5, -807299.3, -4735.052, -0.014987119, 0.36255124, -661112.1, -9603.489, 0.0, 10.000504, 9.998569 
1.7051907e+3, 2.4352232e+2, -642360.06, -815324.8, -56069.08, -0.042988963, 0.41633222, -625774.75, -72252.58, 0.0, 10.000243, 9.9979725 
1.7052284e+3, 2.5352162e+2, -531259.25, -697251.44, -84434.71, 0.23094165, 0.5306003, -495859.53, -40323.965, 0.0000000026261497, 10.000281, 9.998087 
1.7052647e+3, 2.635204e+2, -341774.4, -433262.16, -18462.164, 0.30454555, 0.5680395, -338189.25, 19360.953, 0.0000021613648, 10.000382, 9.999179 
1.7052989e+3, 2.7351865e+2, -186488.22, -263801.03, -18721.531, 0.026298305, 0.42627642, -182193.33, 77369.39, 0.000036573332, 10.000599, 9.999559 
1.7053346e+3, 2.8351712e+2, -119536.34, -330615.72, -33302.473, -0.051022913, 0.39286298, -114406.8, 47167.242, 0.00022753773, 10.001018, 9.998235 
1.7053732e+3, 2.9351574e+2, 95941.445, -164758.16, -58753.6, 0.192056, 0.42161933, 108570.86, 172156.36, 0.00078445283, 10.00178, 9.99833 
1.7054094e+3, 3.0351275e+2, 184964.55, -168448.6, -28998.934, 0.21257152, 0.3296066, 187328.22, 187328.22, 0.0018108649, 10.002371, 9.997678 
1.7054442e+3, 3.1351203e+2, 326546.13, 38874.88, -12291.781, 0.024959719, 0.46582776, 327070.38, 327070.38, 0.003176979, 10.002721, 9.99893 
1.7147633e+3, 1.234879e+2, -1860307.6, -1583037.4, -69111.914, 0.28094938, 0.27159303, -1566765.5, 163096.25, 0.058051143, 9.998037, 10.001906 
1.7147946e+3, 1.3349266e+2, -1874075.9, -1486149.8, -54880.023, 0.03209767, 0.5115268, -1478535.4, 153275.38, 0.037118543, 9.997106, 10.002318 
1.7148297e+3, 1.4349374e+2, -1972916.1, -1750640.1, 51318.53, 0.058279645, 0.5018951, -1739363.9, -205565.94, 0.018276531, 9.996917, 9.999888 
1.7148666e+3, 1.5349196e+2, -1752354.1, -1630481.9, 23836.508, 0.09326659, 0.35260075, -1625985.8, -190169.1, 0.005915651, 9.99793, 9.999541 
1.7149027e+3, 1.6349074e+2, -1491541.4, -1318051.6, -58927.43, 0.09484866, 0.24034813, -1299929.4, 37897.336, 0.0009130136, 9.998447, 10.00077 
1.7149377e+3, 1.7349091e+2, -1423147.6, -1183381.6, -25730.164, 0.054612685, 0.12895404, -1180651.5, 59166.453, 0.000025810483, 9.998035, 10.001216 
1.7149733e+3, 1.8349138e+2, -1448401.1, -1375535.4, -8806.987, 0.05939233, 0.15844136, -1374486.1, -232674.61, 0.0, 9.998175, 9.999163 
1.7150106e+3, 1.9349253e+2, -1200943.9, -1222338.5, -41779.418, 0.159448, 0.36125982, -1168514.0, -124705.98, 0.0, 9.999281, 9.999002 
1.715047e+3, 2.0349243e+2, -1033076.75, -1176025.6, -51506.355, 0.16662525, 0.49901718, -1016451.8, -70636.78, 0.0, 10.000124, 9.9982395 
1.7150824e+3, 2.134904e+2, -864395.9, -1034148.2, -22796.502, 0.019411165, 0.45456564, -861387.75, -13550.309, 0.0, 10.000577, 9.99832 
1.7151187e+3, 2.2348845e+2, -722232.0, -883502.0, -27547.383, -0.017530764, 0.43098474, -717656.3, 32200.639, 0.0, 10.000728, 9.99862 
1.715157e+3, 2.3348702e+2, -651690.4, -766879.0, -11200.203, 0.15572485, 0.39140907, -650611.5, 1256.3018, 0.0, 10.000411, 9.998894 
1.7151934e+3, 2.434853e+2, -667449.0, -842242.1, -62722.61, 0.18762255, 0.39071056, -647271.0, -93386.41, 0.0, 10.0001335, 9.997839 
1.715226e+3, 2.534831e+2, -555811.25, -736716.44, -73149.2, -0.03490402, 0.3714921, -529934.7, -74022.555, 0.0000000000058928205, 10.000228, 9.997842 
1.715261e+3, 2.634819e+2, -356021.5, -448782.1, -17520.371, -0.111516, 0.4287958, -352822.63, 5104.4624, 0.0000014626683, 10.000324, 9.999101 
1.7153001e+3, 2.73483e+2, -198910.08, -268725.56, -725.0529, 0.08447131, 0.5795085, -198902.55, 61011.547, 0.000032081512, 10.000513, 9.999566 
1.715338e+3, 2.8348264e+2, -145498.44, -353172.34, -13676.515, 0.15912499, 0.663528, -144601.63, 17314.63, 0.00021186807, 10.000875, 9.998152 
1.7153731e+3, 2.9347935e+2, 72283.13, -183091.22, -14026.437, -0.00490225, 0.5018198, 73051.23, 136999.03, 0.0007360161, 10.001642, 9.99827 
1.7154095e+3, 3.03476e+2, 138963.03, -197948.9, -23754.973, -0.040096283, 0.38182297, 140629.7, 140629.7, 0.0016991491, 10.0021, 9.997605 
1.7154501e+3, 3.13476e+2, 279748.25, 38790.973, 38829.832, 0.3032527, 0.59428704, 285851.06, 285851.06, 0.0029899257, 10.002325, 9.999115 
1.724762e+3, 1.2345068e+2, -2084600.5, -1634838.8, 84615.516, 0.44985026, 0.24225171, -1619446.5, 110783.88, 0.06177432, 9.996268, 10.002385 
1.7247917e+3, 1.3345705e+2, -1779704.6, -1395771.0, -118255.7, 0.0046836575, 0.59104097, -1362270.1, 269890.94, 0.039721623, 9.997554, 10.002746 
1.7248276e+3, 1.4345752e+2, -1792779.8, -1686824.9, -55376.246, 0.113403745, 0.5075585, -1663165.9, -129013.65, 0.019743169, 9.998245, 9.999686 
1.724865e+3, 1.5345469e+2, -1721251.9, -1643623.9, 7153.808, 0.14571223, 0.28004912, -1642970.1, -206790.06, 0.006494274, 9.998242, 9.999312 
1.7249012e+3, 1.6345334e+2, -1515498.5, -1348709.3, -27545.518, 0.12535825, 0.17619924, -1344277.9, -6086.2, 0.001032908, 9.998379, 10.0005865 
1.7249356e+3, 1.7345454e+2, -1292262.3, -1136962.6, -82103.12, 0.004788063, 0.18416326, -1101606.3, 138569.1, 0.00003215152, 9.999017, 10.001052 
1.7249712e+3, 1.8345504e+2, -1319790.6, -1351521.3, -62552.957, -0.0068831677, 0.23939966, -1271122.4, -128952.266, 0.0, 9.999224, 9.998817 
1.7250095e+3, 1.934546e+2, -1267405.8, -1291129.0, -41011.72, 0.15721074, 0.31893978, -1236574.8, -192393.23, 0.0, 9.99899, 9.998663 
1.725047e+3, 2.0345397e+2, -1152208.5, -1191353.9, 12855.6875, 0.20573628, 0.4090488, -1148364.1, -202171.4, 0.0, 9.999126, 9.998621 
1.7250828e+3, 2.134533e+2, -905538.44, -996541.3, 34919.484, 0.04849622, 0.4509976, -893683.5, -45482.133, 0.0, 10.000045, 9.998838 
1.7251197e+3, 2.2345212e+2, -757718.8, -905350.9, 1420.237, 0.009230191, 0.47779092, -757705.2, -7491.68, 0.0, 10.000524, 9.998557 
1.7251574e+3, 2.3345038e+2, -674973.7, -795738.75, -40310.04, 0.16456927, 0.4243156, -662754.94, -10526.179, 0.0, 10.000347, 9.998715 
1.7251937e+3, 2.434485e+2, -549292.8, -748007.3, -51633.074, 0.18693146, 0.4035901, -536677.56, 17569.572, 0.0, 10.000789, 9.998166 
1.7252272e+3, 2.5344655e+2, -219343.88, -524390.2, -21888.791, -0.041511938, 0.37083465, -217781.25, 238487.8, 0.0000000000049057277, 10.002336, 9.998277 
1.7252626e+3, 2.6344523e+2, -6683.966, -339414.7, 20652.785, -0.11093074, 0.4143962, -5406.937, 352876.97, 0.0000011502509, 10.002981, 9.998567 
1.7253013e+3, 2.7344528e+2, -34558.645, -272371.8, -34621.797, 0.095866226, 0.52756006, -29620.791, 230662.6, 0.000029088935, 10.0019865, 9.998831 
1.7253391e+3, 2.8344452e+2, -75775.02, -310722.3, -28896.475, 0.1810968, 0.61114186, -72273.2, 90017.695, 0.00020043374, 10.001324, 9.99822 
1.7253748e+3, 2.9344225e+2, 46418.402, -175210.52, -36247.344, 0.019683247, 0.5346644, 52196.027, 116509.03, 0.00069486385, 10.001392, 9.998435 
1.7254117e+3, 3.0343974e+2, 38239.133, -267143.06, -29370.406, 0.027844043, 0.4945429, 41038.203, 41038.203, 0.0016012073, 10.001476, 9.997451 
1.725452e+3, 3.1343865e+2, 116900.02, -85298.55, -10407.526, 0.33072317, 0.6335738, 117434.305, 117434.305, 0.0028236557, 10.001362, 9.99876 
1.7347603e+3, 1.23417996e+2, -2133332.8, -1736325.1, 71897.68, 0.61645037, 0.52046454, -1723705.8, 6846.709, 0.06561491, 9.9963, 10.001624 
1.7347895e+3, 1.3341951e+2, -1925840.5, -1678225.8, -70309.45, 0.020795915, 0.560996, -1659654.5, -27121.041, 0.042436883, 9.997499, 10.000763 
1.7348282e+3, 1.4341755e+2, -1741766.8, -1587689.8, -61450.91, 0.31840643, 0.32685852, -1566183.1, -31634.404, 0.021297567, 9.998277, 10.000348 
1.734863e+3, 1.5341744e+2, -1630974.4, -1453418.4, 11192.341, 0.117777824, 0.2453943, -1452715.6, -16169.698, 0.0071235094, 9.998238, 10.000614 
1.7348985e+3, 1.6341835e+2, -1557109.0, -1457621.9, -13249.517, -0.0008580848, 0.3246815, -1455887.6, -117351.63, 0.0011691477, 9.998457, 9.999808 
1.7349352e+3, 1.734207e+2, -1371148.8, -1309277.8, -53445.953, 0.06216186, 0.56142104, -1278459.9, -37942.645, 0.00004011834, 9.99904, 9.999865 
1.7349714e+3, 1.8342075e+2, -1295013.8, -1311484.5, -78935.77, 0.07334034, 0.6298759, -1223884.9, -81365.93, 0.0, 9.999271, 9.999069 
1.7350067e+3, 1.934171e+2, -1239261.1, -1220663.5, -47265.098, -0.02558196, 0.33946064, -1181791.3, -137238.28, 0.0, 9.998939, 9.999171 
1.7350438e+3, 2.0341513e+2, -1118155.4, -1112696.5, 32076.99, -0.03023645, 0.24122196, -1083233.0, -136661.38, 0.0, 9.9990835, 9.999184 
1.735084e+3, 2.1341647e+2, -876588.1, -921277.9, 75663.5, 0.14827964, 0.42589998, -820039.06, 28521.623, 0.0, 9.999972, 9.999392 
1.7351219e+3, 2.2341627e+2, -810274.8, -989270.8, -6845.207, 0.1833308, 0.5412211, -810013.4, -59448.848, 0.0, 10.000413, 9.9980345 
1.7351557e+3, 2.3341355e+2, -735832.4, -903755.56, -40509.992, -0.03693067, 0.454048, -726570.5, -73977.45, 0.0, 10.000263, 9.998014 
1.7351916e+3, 2.4341166e+2, -517657.25, -648485.9, -8584.501, -0.101894155, 0.44380385, -517096.38, 37515.44, 0.0, 10.000645, 9.99892 
1.7352311e+3, 2.5341177e+2, -167568.56, -379922.28, 45346.387, 0.12087073, 0.51406676, -158290.58, 298318.28, 0.000000000000012544113, 10.002178, 9.999345 
1.7352687e+3, 2.6341018e+2, -106491.53, -498292.28, -9901.024, 0.19452922, 0.511273, -106241.484, 252382.03, 0.0000010511417, 10.002771, 9.997577 
1.7353024e+3, 2.7340576e+2, -152518.33, -481585.78, -62267.41, -0.0015214103, 0.30607313, -141129.97, 119538.35, 0.000028849088, 10.001839, 9.997462 
1.7353383e+3, 2.834032e+2, -91787.125, -318896.03, -39701.492, -0.05095594, 0.28719255, -85046.85, 77647.625, 0.00019664556, 10.001205, 9.998226 
1.7353778e+3, 2.9340416e+2, 47561.67, -146041.52, -19990.672, 0.16217805, 0.5079734, 49604.277, 114289.15, 0.0006730264, 10.001272, 9.998694 
1.7354158e+3, 3.034035e+2, -16260.831, -324087.5, -42075.082, 0.27634558, 0.6505945, -10613.435, -10613.435, 0.0015493486, 10.001247, 9.997161 
1.7354502e+3, 3.1339934e+2, 3207.634, -222511.8, 20599.314, -0.00720173, 0.5101231, 5072.1406, 5072.1406, 0.0027442316, 10.000956, 9.998001 
1.7447567e+3, 1.23383135e+2, -1993763.8, -1705398.9, 9303.432, 0.5822344, 0.6203589, -1705099.0, 25794.719, 0.06957688, 9.997411, 10.001315 
1.7447877e+3, 1.3338254e+2, -1740637.5, -1670896.9, 32904.24, 0.03222715, 0.52133745, -1657823.3, -24925.895, 0.045260757, 9.99911, 10.000044 
1.7448287e+3, 1.4338015e+2, -1481996.4, -1457168.8, 36351.723, 0.46728706, 0.28315148, -1431169.6, 103748.266, 0.022935338, 10.000046, 10.0004015 
1.744862e+3, 1.5338132e+2, -1461811.9, -1343730.1, 1789.447, 0.1552674, 0.30575505, -1343703.0, 93199.17, 0.0078018596, 9.999284, 10.00086 
1.7448969e+3, 1.6338272e+2, -1551883.0, -1489585.8, -19170.66, -0.0059225215, 0.43226087, -1484159.0, -145271.19, 0.0013223152, 9.998638, 9.999506 
1.7449346e+3, 1.7338423e+2, -1458354.6, -1398071.6, -11713.124, 0.12597963, 0.6272816, -1395875.8, -154996.75, 0.000049909977, 9.998636, 9.999458 
1.7449711e+3, 1.8338388e+2, -1329128.8, -1296331.3, 11330.016, 0.15259048, 0.66744787, -1292798.0, -149913.3, 0.0000000000000006446772, 9.998907, 9.999346 
1.7450058e+3, 1.9338056e+2, -1090546.3, -1105065.4, 21185.615, -0.042397313, 0.36995658, -1075410.9, -30498.895, 0.0, 9.999765, 9.999565 
1.7450427e+3, 2.0337865e+2, -968186.9, -1069681.5, 88118.6, -0.08547265, 0.26327896, -917247.5, 29681.293, 0.0, 10.000244, 9.998914 
1.745084e+3, 2.1337947e+2, -866304.06, -957469.56, 44620.05, 0.14398055, 0.4341467, -848100.2, 824.20105, 0.0, 10.000227, 9.999013 
1.7451227e+3, 2.2337906e+2, -785380.94, -956739.6, -47318.45, 0.2259378, 0.54278255, -773182.94, -22252.07, 0.0, 10.000486, 9.998231 
1.7451571e+3, 2.3337674e+2, -568328.1, -789620.1, -22933.828, 0.028908, 0.47090495, -565976.4, 86977.35, 0.0, 10.001265, 9.998323 
1.7451933e+3, 2.4337499e+2, -429880.56, -650573.9, 27468.373, -0.030031256, 0.4714609, -426513.13, 128458.06, 0.0, 10.001441, 9.998517 
1.7452326e+3, 2.533745e+2, -441300.53, -575515.75, -49424.918, 0.14880475, 0.53473455, -425063.97, 31912.95, 0.0, 10.000569, 9.998776 
1.7452702e+3, 2.6337278e+2, -440999.8, -622812.7, -127519.56, 0.2096263, 0.53632367, -375300.94, -16306.663, 0.0000010008785, 10.000309, 9.997914 
1.7453042e+3, 2.7336913e+2, -189380.48, -443133.97, -69478.36, 0.029601783, 0.3667844, -171602.63, 89426.5, 0.00002996529, 10.001337, 9.9979725 
1.7453398e+3, 2.833667e+2, -123.71804, -307345.63, 34910.8, -0.027346352, 0.34362286, 3793.3865, 166846.3, 0.00019663884, 10.001996, 9.997916 
1.745379e+3, 2.9336622e+2, 100493.08, -185765.48, -21443.078, 0.14577499, 0.46747994, 102090.42, 167148.72, 0.0006700608, 10.001913, 9.998117 
1.7454173e+3, 3.0336496e+2, 62064.707, -264266.13, -53315.086, 0.29017138, 0.5793867, 70554.33, 70554.33, 0.0015533518, 10.001667, 9.997374 
1.7454511e+3, 3.1336248e+2, 45791.836, -187176.84, -15611.787, -0.0085749645, 0.5667673, 46833.363, 46833.363, 0.0027765408, 10.001171, 9.998125 
1.7547499e+3, 1.2334583e+2, -1997223.4, -1701825.5, -128220.83, 0.12061921, 0.51387286, -1653934.1, 77322.484, 0.07366958, 9.997376, 10.001371 
1.7547862e+3, 1.3334629e+2, -1701645.8, -1588602.0, 111693.65, -0.04160374, 0.47224924, -1519943.3, 113307.805, 0.048192136, 9.999107, 10.000637 
1.754829e+3, 1.4334592e+2, -1511052.4, -1534785.1, 15073.023, 0.47041705, 0.42402422, -1503735.3, 31518.584, 0.024652572, 10.000115, 9.999828 
1.7548619e+3, 1.533465e+2, -1521985.3, -1472554.3, -23525.086, 0.19930652, 0.4737539, -1463148.0, -25900.852, 0.008527423, 9.999299, 9.999969 
1.7548962e+3, 1.6334637e+2, -1538204.0, -1467570.3, -36057.137, 0.04275461, 0.49430943, -1452415.4, -113167.26, 0.0014925194, 9.998664, 9.999646 
1.7549333e+3, 1.733451e+2, -1434251.4, -1342575.6, -5881.236, 0.1343424, 0.37622857, -1342199.9, -100938.93, 0.00006156021, 9.998614, 9.999849 
1.7549704e+3, 1.8334444e+2, -1303848.4, -1248410.8, 33382.258, 0.15524402, 0.34757593, -1232739.4, -89472.42, 0.0000000010737394, 9.998922, 9.999667 
1.7550065e+3, 1.9334508e+2, -1075615.0, -1068273.0, 60809.71, 0.037551202, 0.415132, -1011023.56, 34234.39, 0.0, 9.999739, 9.999831 
1.7550436e+3, 2.0334455e+2, -1051901.4, -1236233.8, 82771.93, -0.037526786, 0.48099634, -1020189.4, -72925.74, 0.0, 10.000207, 9.99779 
1.7550826e+3, 2.1334219e+2, -973610.0, -1163388.5, 48224.95, -0.014219701, 0.46809074, -962058.6, -112765.37, 0.0, 10.000148, 9.997642 
1.7551216e+3, 2.2334038e+2, -741973.0, -842031.7, -27838.979, 0.07692038, 0.47968197, -734749.06, 16564.15, 0.0, 10.000377, 9.999074 
1.7551608e+3, 2.3334e+2, -494344.16, -613794.5, 15559.002, 0.27977943, 0.47798803, -492350.78, 160960.11, 0.0, 10.0011635, 9.99958 
1.7551981e+3, 2.4333844e+2, -558671.56, -887266.56, -2446.1792, 0.2949482, 0.4901647, -558653.4, -3327.6372, 0.0, 10.001305, 9.996961 
1.7552318e+3, 2.5333488e+2, -600338.6, -885317.44, -74122.31, -0.003482327, 0.44899893, -582212.5, -124841.19, 0.0, 10.000483, 9.996692 
1.7552674e+3, 2.6333302e+2, -353925.72, -423902.22, -102898.8, -0.11055189, 0.5013846, -280229.38, 79165.33, 0.00000094846536, 10.000225, 9.999321 
1.7553063e+3, 2.73335e+2, -58564.457, -135499.31, -20022.59, 0.10584381, 0.6848743, -53665.457, 207703.95, 0.000030532858, 10.001189, 10.000151 
1.7553437e+3, 2.8333437e+2, -71437.516, -417560.56, 28543.975, 0.14199844, 0.7402131, -69099.36, 94272.94, 0.00019885889, 10.001824, 9.997246 
1.7553787e+3, 2.933283e+2, -21183.998, -391950.47, -10233.054, -0.08772839, 0.41913942, -20901.783, 44531.87, 0.0006867082, 10.001712, 9.996799 
1.755416e+3, 3.0332443e+2, 54846.22, -223174.66, -75581.22, -0.013566325, 0.3365913, 74064.8, 74064.8, 0.001609284, 10.001431, 9.997766 
1.755454e+3, 3.1332815e+2, 31174.033, -151650.94, -32956.465, 0.13629371, 0.8576245, 36933.41, 36933.41, 0.0028959955, 10.000911, 9.998486 
1.7647465e+3, 1.2330853e+2, -1898154.0, -1665552.6, -222714.95, 0.025214383, 0.4574218, -1530600.9, 201020.52, 0.07790593, 9.998085, 10.001331 
1.7647852e+3, 1.3330965e+2, -2003559.1, -1706989.0, 57160.844, 0.06049842, 0.46783862, -1696353.3, -62743.348, 0.05123237, 9.996909, 10.000859 
1.7648265e+3, 1.4331013e+2, -2033215.9, -1778786.4, -8783.463, 0.3988916, 0.48480925, -1778483.5, -242878.6, 0.026445003, 9.996499, 9.999894 
1.7648615e+3, 1.5331054e+2, -1602015.9, -1517082.6, 2118.9355, 0.25737765, 0.52240163, -1517029.8, -79428.85, 0.009296644, 9.998787, 9.999906 
1.7648965e+3, 1.6330996e+2, -1366099.1, -1401732.6, -7979.563, 0.15261571, 0.5106018, -1364393.8, -24787.734, 0.0016790463, 9.999935, 9.999477 
1.7649321e+3, 1.7330772e+2, -1423639.5, -1358634.0, -46959.152, 0.15267435, 0.31267923, -1334026.4, -92399.04, 0.000074904594, 9.998788, 9.999648 
1.7649686e+3, 1.8330677e+2, -1384612.9, -1303469.0, 20200.559, 0.14002259, 0.2724747, -1298718.3, -155082.23, 0.000000009428086, 9.998436, 9.999528 
1.7650066e+3, 1.9330841e+2, -1038815.6, -1063784.0, 12912.137, 0.077149734, 0.4549123, -1033339.4, 12279.714, 0.0, 10.000049, 9.999718 
1.7650446e+3, 2.0330824e+2, -947368.5, -1189312.4, 17585.867, 0.021509307, 0.5670565, -946096.94, 1524.7711, 0.0, 10.000945, 9.997755 
1.7650828e+3, 2.1330506e+2, -928545.1, -1144043.1, 58760.426, -0.016163237, 0.47627175, -913564.2, -63906.406, 0.0, 10.000473, 9.997617 
1.7651217e+3, 2.2330269e+2, -760577.3, -863629.75, 53786.58, 0.05416709, 0.43818587, -737619.0, 14063.286, 0.0, 10.000308, 9.998952 
1.765162e+3, 2.3330222e+2, -537930.25, -648568.2, -12751.31, 0.29637223, 0.43948638, -536479.6, 117202.055, 0.0, 10.00093, 9.999448 
1.7651996e+3, 2.4330077e+2, -558673.3, -876028.06, -68168.164, 0.32773212, 0.4672769, -544650.4, 11045.651, 0.0, 10.001262, 9.997062 
1.7652322e+3, 2.5329775e+2, -510226.25, -824042.4, -4788.1216, -0.021146452, 0.47168148, -510153.22, -52417.094, 0.0, 10.001033, 9.996847 
1.7652676e+3, 2.632962e+2, -268957.5, -392729.56, 59866.844, -0.14156866, 0.54660475, -244739.4, 115017.46, 0.0000007067664, 10.000868, 9.999217 
1.7653072e+3, 2.7329767e+2, -115170.9, -184518.28, -24549.781, 0.106118426, 0.6960711, -107359.805, 154377.02, 0.00002910251, 10.00089, 9.999961 
1.7653452e+3, 2.8329694e+2, -199722.97, -456223.47, -50116.215, 0.17208856, 0.7437415, -190278.78, -26537.754, 0.00020251243, 10.000841, 9.997453 
1.7653805e+3, 2.9329175e+2, -111018.14, -410487.1, -21458.41, -0.013570109, 0.4926601, -109488.36, -43694.883, 0.00071674364, 10.000987, 9.997017 
1.765418e+3, 3.032875e+2, 112872.695, -195160.95, 9542.913, 0.04367575, 0.35918868, 113168.05, 113168.05, 0.0016874821, 10.00183, 9.99777 
1.7654544e+3, 3.132898e+2, 406393.3, 37962.36, -66654.62, -0.021466335, 0.7479225, 418081.34, 418081.34, 0.0030254049, 10.003447, 9.998584 
1.7747462e+3, 1.2327121e+2, -1891704.9, -1665824.1, -286928.78, 0.15499273, 0.4466442, -1470408.1, 261580.33, 0.08231803, 9.99815, 10.001326 
1.7747845e+3, 1.3327274e+2, -2012711.6, -1717585.4, 1445.1511, 0.2842865, 0.51629925, -1717578.3, -83605.375, 0.054393712, 9.996862, 10.000812 
1.7748208e+3, 1.4327252e+2, -1988866.8, -1675445.0, 40969.492, 0.16461009, 0.4296416, -1670178.1, -134204.2, 0.02831169, 9.996447, 10.00063 
1.7748603e+3, 1.5327346e+2, -1550290.8, -1402728.1, 101906.12, 0.25362515, 0.44211027, -1350697.9, 87264.95, 0.010105246, 9.998755, 10.0007105 
1.7748976e+3, 1.6327366e+2, -1402012.9, -1484934.9, -36728.82, 0.24857828, 0.4842083, -1388084.3, -48123.77, 0.0018804772, 9.99997, 9.99889 
1.7749308e+3, 1.732722e+2, -1487386.5, -1488144.4, -88537.6, 0.12327135, 0.44811082, -1399227.0, -157249.73, 0.00008970714, 9.998779, 9.998761 
1.7749661e+3, 1.8327093e+2, -1422441.0, -1392948.6, 54447.273, 0.036739156, 0.4565096, -1351286.0, -207294.73, 0.000000028818846, 9.998476, 9.998897 
1.775006e+3, 1.9327052e+2, -1079727.5, -1146788.0, 81086.87, 0.014420964, 0.49080172, -1025511.8, 20483.652, 0.0, 10.000034, 9.999158 
1.7750457e+3, 2.0326963e+2, -882607.44, -1046552.44, 6160.5596, 0.0124179, 0.51989603, -882376.25, 65627.59, 0.0, 10.000913, 9.998746 
1.7750843e+3, 2.1326801e+2, -856405.6, -967701.56, 44875.207, 0.069630705, 0.45725393, -840565.94, 9452.632, 0.0, 10.000365, 9.998873 
1.7751224e+3, 2.2326595e+2, -851886.94, -1030753.56, 62925.457, 0.08858013, 0.42318365, -831967.94, -79929.32, 0.0, 10.000201, 9.997861 
1.7751606e+3, 2.3326342e+2, -656375.2, -875748.44, 19723.951, 0.04191433, 0.36477128, -654615.9, -550.3775, 0.0, 10.00084, 9.997935 
1.7751977e+3, 2.4326193e+2, -469727.75, -657661.94, -77421.75, 0.0131923165, 0.4110548, -441941.22, 114140.86, 0.0, 10.001117, 9.998629 
1.7752339e+3, 2.5326288e+2, -372581.44, -513548.0, -7848.0347, 0.029179266, 0.5961353, -372145.88, 85928.836, 0.0, 10.000931, 9.999025 
1.7752703e+3, 2.632619e+2, -388564.7, -619076.75, 50426.504, 0.030545825, 0.6646361, -378016.16, -17930.717, 0.00000032366296, 10.00077, 9.997714 
1.7753069e+3, 2.732575e+2, -295698.63, -522900.8, -13356.722, -0.02787768, 0.44328225, -294916.13, -32787.844, 0.00002512301, 10.000746, 9.997702 
1.7753443e+3, 2.8325504e+2, -167900.31, -361730.9, -53172.445, -0.011973647, 0.42368674, -154272.03, 9880.573, 0.00020058491, 10.000704, 9.998177 
1.7753841e+3, 2.9325628e+2, -34023.31, -218312.28, -4024.8179, 0.24085334, 0.6818322, -33935.453, 32205.662, 0.0007353816, 10.000844, 9.998409 
1.7754227e+3, 3.0325347e+2, 52798.016, -258635.02, 56555.83, 0.3088766, 0.6211024, 62750.43, 62750.43, 0.0017296278, 10.001575, 9.997452 
1.775453e+3, 3.1324965e+2, 320688.44, 5419.144, -7211.0317, -0.5408533, 0.45455888, 320853.28, 320853.28, 0.0030613176, 10.002872, 9.998611 
1.784744e+3, 1.23234004e+2, -2100048.8, -1804729.1, -176663.03, 0.18058857, 0.42192796, -1722142.9, 10208.527, 0.08696164, 9.996923, 10.000843 
1.784783e+3, 1.3323525e+2, -1836007.4, -1665961.8, -15680.61, 0.3988527, 0.5034329, -1664527.9, -30188.146, 0.057701517, 9.998239, 10.000496 
1.7848168e+3, 1.432349e+2, -1708675.5, -1530840.0, 37012.992, 0.039976668, 0.41629174, -1523444.1, 12898.766, 0.030258754, 9.998331, 10.000717 
1.7848584e+3, 1.5323573e+2, -1717731.4, -1474535.5, 39874.066, 0.25796616, 0.40903893, -1468164.6, -29830.945, 0.0109521225, 9.997565, 10.00079 
1.784897e+3, 1.6323611e+2, -1712721.8, -1638672.1, -101594.29, 0.30617762, 0.46552402, -1567566.3, -227236.28, 0.0020959692, 9.997851, 9.998854 
1.7849304e+3, 1.7323531e+2, -1238597.4, -1378125.8, -111306.414, 0.13518722, 0.5008945, -1176998.9, 65341.168, 0.000105867584, 10.0005245, 9.998676 
1.784966e+3, 1.832341e+2, -991789.94, -1207524.1, 62167.492, 0.035028625, 0.5298469, -975157.6, 169195.97, 0.0000000562377, 10.001539, 9.9986925 
1.785006e+3, 1.9323277e+2, -1188002.0, -1221372.4, 96083.57, 0.02243907, 0.49367514, -1107165.6, -60797.86, 0.0, 9.999394, 9.99895 
1.7850456e+3, 2.0323153e+2, -1204052.4, -1173480.1, 57009.375, 0.03459261, 0.48708895, -1129743.1, -181363.13, 0.0, 9.998589, 9.999002 
1.7850849e+3, 2.132306e+2, -784715.56, -894283.06, 20269.313, 0.09799844, 0.46297768, -781086.06, 69300.33, 0.0, 10.00069, 9.999228 
1.7851233e+3, 2.23229e+2, -647369.6, -947424.94, 5443.8467, 0.10378879, 0.46342623, -647270.9, 105130.92, 0.0, 10.0016775, 9.997723 
1.7851605e+3, 2.332265e+2, -739487.1, -944112.4, 24661.695, -0.012789729, 0.4330561, -736556.8, -82125.21, 0.0, 10.000399, 9.997681 
1.7851977e+3, 2.4322508e+2, -597705.7, -659342.75, -6777.393, -0.047600877, 0.4798931, -596969.25, -40521.445, 0.0, 9.999975, 9.999168 
1.7852353e+3, 2.532262e+2, -263909.56, -388185.88, -48870.316, 0.06121212, 0.6139297, -246994.2, 211439.77, 0.0, 10.001347, 9.999691 
1.7852722e+3, 2.6322496e+2, -244616.05, -610730.0, -42096.844, 0.10209766, 0.6402204, -239837.98, 120606.805, 0.00000018370703, 10.002014, 9.997172 
1.7853077e+3, 2.732193e+2, -257318.55, -600122.44, -33689.85, -0.034174662, 0.37508807, -254038.97, 8462.749, 0.000020759246, 10.001396, 9.996868 
1.7853448e+3, 2.8321627e+2, -128366.234, -316598.6, 2400.7654, -0.037714094, 0.34037372, -128335.625, 36196.906, 0.00019242667, 10.000898, 9.998377 
1.7853853e+3, 2.9321858e+2, 5213.5, -152519.56, -30790.295, 0.27991927, 0.66736424, 11010.846, 77520.97, 0.0007322789, 10.00093, 9.998811 
1.785424e+3, 3.0321643e+2, -42659.492, -302039.13, 36457.047, 0.33884537, 0.64973974, -37632.7, -37632.7, 0.001712866, 10.0009, 9.997478 
1.7854552e+3, 3.1321236e+2, -18166.479, -135913.63, -77917.62, -0.44425836, 0.4725783, 20618.807, 20618.807, 0.0029707379, 10.000413, 9.99883 
1.7947394e+3, 1.2319719e+2, -2172104.0, -1955591.5, 13424.385, -0.0023609302, 0.38190126, -1954762.4, -222055.22, 0.09190124, 9.996917, 9.999812 
1.7947803e+3, 1.3319728e+2, -1883133.4, -1771927.4, 21897.63, 0.30904156, 0.4236519, -1767770.9, -133061.53, 0.06119029, 9.998266, 9.999757 
1.7948145e+3, 1.4319743e+2, -1751954.5, -1632308.1, 494.5717, -0.045947924, 0.46066594, -1632306.1, -95596.14, 0.03230053, 9.998382, 9.999994 
1.7948554e+3, 1.531974e+2, -1772503.1, -1577694.4, 12166.871, 0.2057706, 0.4355297, -1576937.4, -138224.3, 0.011841973, 9.997526, 10.000097 
1.7948943e+3, 1.631973e+2, -1673953.9, -1561992.4, -32084.918, 0.25120926, 0.46276042, -1553449.5, -212734.48, 0.0023264778, 9.997853, 9.999387 
1.794931e+3, 1.7319699e+2, -1179659.0, -1260552.8, -3039.9026, 0.13035843, 0.472711, -1179544.9, 63171.52, 0.00012352158, 10.000537, 9.999481 
1.794968e+3, 1.8319629e+2, -971431.3, -1172670.3, 4126.428, 0.060578097, 0.4943864, -971346.75, 173375.98, 0.000000085167756, 10.001575, 9.998912 
1.7950055e+3, 1.9319518e+2, -1189535.8, -1215797.4, 17011.686, 0.04011801, 0.47146937, -1181176.6, -134440.77, 0.0, 9.999359, 9.999004 
1.795044e+3, 2.0319396e+2, -1241079.8, -1243300.9, 100181.6, 0.014965801, 0.48574236, -1142002.5, -193253.2, 0.0, 9.998551, 9.998543 
1.7950848e+3, 2.131929e+2, -835173.6, -982637.7, 108921.2, 0.014722647, 0.50152373, -777375.3, 73384.87, 0.0, 10.000611, 9.998664 
1.7951244e+3, 2.231918e+2, -624688.9, -868418.7, -25925.771, 0.028742453, 0.55825835, -621961.6, 130810.734, 0.0, 10.001544, 9.998329 
1.7951617e+3, 2.3319107e+2, -697727.1, -827984.2, -17303.375, 0.060542967, 0.62269473, -695467.7, -40684.367, 0.0, 10.000277, 9.998532 
1.7951988e+3, 2.4318989e+2, -645711.3, -730580.75, 22345.982, 0.061498288, 0.65720135, -640187.2, -83390.97, 0.0, 9.99985, 9.998741 
1.7952362e+3, 2.5318795e+2, -331445.13, -497314.47, 12597.409, 0.019508025, 0.5538821, -330493.84, 128317.164, 0.0, 10.00122, 9.999001 
1.7952734e+3, 2.6318562e+2, -248645.84, -589656.56, -58337.094, 0.0044933963, 0.50304127, -238942.17, 121889.42, 0.00000013255313, 10.001877, 9.997388 
1.7953096e+3, 2.7318284e+2, -244874.88, -543149.75, -50641.8, -0.00086253823, 0.4797246, -236511.31, 26348.117, 0.0000188634, 10.001269, 9.997315 
1.7953461e+3, 2.831804e+2, -168426.83, -377611.94, -12871.831, -0.004534786, 0.48908037, -167637.77, -2753.9792, 0.00018750537, 10.000791, 9.998014 
1.7953841e+3, 2.9317892e+2, -48088.258, -224924.66, -13435.244, 0.06052005, 0.48587188, -47073.332, 19824.17, 0.00072388566, 10.000772, 9.998384 
1.7954223e+3, 3.0317682e+2, -73286.1, -316732.03, 15763.721, 0.059320915, 0.499493, -72269.6, -72269.6, 0.0016677033, 10.000679, 9.997489 
1.7954601e+3, 3.1317717e+2, -14423.995, -55781.563, -78521.26, -0.00942348, 0.73435056, 46095.742, 46095.742, 0.0028169882, 10.000128, 9.999503 
1.8047363e+3, 1.2315951e+2, -2068402.8, -1914172.5, 32029.873, -0.026550988, 0.41067007, -1907785.3, -174709.75, 0.097200245, 9.997673, 9.999731 
1.8047772e+3, 1.3315892e+2, -1979862.1, -1783434.4, -18860.18, 0.21080525, 0.35724553, -1781639.9, -146557.05, 0.06490086, 9.997452, 10.000076 
1.8048123e+3, 1.4315942e+2, -1903577.1, -1770298.5, 32222.158, -0.04353933, 0.43270737, -1762917.1, -225836.81, 0.034457777, 9.997624, 9.999408 
1.8048537e+3, 1.531595e+2, -1597767.3, -1584186.4, 21755.094, 0.20176609, 0.49686185, -1568186.6, -129100.14, 0.0127833225, 9.999114, 9.999284 
1.8048929e+3, 1.6315927e+2, -1384984.3, -1366539.4, 766.11957, 0.2295858, 0.5394396, -1366507.6, -25416.297, 0.0025744103, 9.999616, 9.999873 
1.8049301e+3, 1.7315865e+2, -1437582.6, -1292998.9, 15856.954, 0.098975405, 0.4431569, -1291280.3, -48188.855, 0.00014305822, 9.998398, 10.000279 
1.8049678e+3, 1.8315805e+2, -1469446.8, -1406959.0, -139.03271, 0.057262495, 0.42495263, -1406958.8, -261864.17, 0.00000010953618, 9.998116, 9.998978 
1.8050055e+3, 1.9315782e+2, -1112464.6, -1188391.4, -19370.416, 0.092456095, 0.49733633, -1107808.4, -60707.098, 0.0, 9.999926, 9.998921 
1.8050441e+3, 2.0315696e+2, -923187.2, -1102236.9, 105673.54, 0.069431566, 0.5554506, -874214.4, 74898.64, 0.0, 10.000778, 9.998443 
1.8050842e+3, 2.1315509e+2, -967609.9, -1055575.6, 139597.4, -0.037342444, 0.5025104, -865230.4, -14098.602, 0.0, 9.999743, 9.998577 
1.805124e+3, 2.2315384e+2, -909690.56, -941166.25, 14046.845, -0.04055509, 0.5225135, -904333.56, -151188.47, 0.0, 9.999323, 9.99889 
1.8051626e+3, 2.3315416e+2, -647737.5, -730661.5, -7790.917, 0.14176019, 0.62776715, -647011.9, 8131.9595, 0.0, 10.000304, 9.9991865 
1.8052001e+3, 2.4315332e+2, -521029.9, -725947.44, 58053.727, 0.1831322, 0.6781251, -505726.06, 51426.805, 0.0, 10.000946, 9.998249 
1.8052363e+3, 2.5315028e+2, -431760.2, -635649.56, 29466.43, -0.060772166, 0.5413995, -427587.06, 31593.898, 0.0, 10.000903, 9.998216 
1.8052733e+3, 2.631476e+2, -362453.47, -621326.25, -53665.95, -0.13632695, 0.493651, -351769.13, 9437.233, 0.00000007008213, 10.001008, 9.997586 
1.8053117e+3, 2.731459e+2, -184312.75, -475483.06, -74657.484, 0.09056325, 0.5484979, -166286.23, 96936.4, 0.000018211342, 10.001518, 9.997667 
1.8053491e+3, 2.8314352e+2, -36726.67, -326923.25, -20570.525, 0.17720802, 0.5534181, -35275.79, 129969.55, 0.00018362651, 10.00174, 9.997909 
1.8053843e+3, 2.9314056e+2, 50899.504, -202896.23, -27793.857, -0.03244653, 0.42470974, 53907.63, 121181.01, 0.00070971565, 10.00154, 9.99818 
1.8054207e+3, 3.0313888e+2, 41155.473, -194893.1, 38910.523, -0.17636278, 0.4647361, 47404.113, 47404.113, 0.0016126586, 10.00118, 9.998081 
1.8054637e+3, 3.1314054e+2, 81566.984, 25870.742, -66893.195, 0.3115879, 0.778983, 126177.24, 126177.24, 0.0026732127, 10.000577, 9.999884 
1.8147348e+3, 1.231206e+2, -2005436.9, -1788395.5, 31922.252, 0.027795443, 0.48959818, -1783797.8, -50337.19, 0.10291468, 9.997693, 10.000587 
1.8147728e+3, 1.3312012e+2, -1875319.6, -1560848.0, -27120.035, 0.018286439, 0.30330157, -1558526.4, 76934.16, 0.06887483, 9.997414, 10.0016575 
1.8148102e+3, 1.4312086e+2, -1925619.5, -1824115.9, 68954.28, -0.031527266, 0.32112023, -1789249.8, -251796.25, 0.036753505, 9.997646, 9.999036 
1.8148527e+3, 1.5312205e+2, -1652983.3, -1712646.5, 88866.14, 0.18006608, 0.58611125, -1589075.3, -149621.55, 0.01378539, 9.999162, 9.998387 
1.8148917e+3, 1.6312218e+2, -1349373.9, -1306814.6, -37153.953, 0.15122807, 0.7002206, -1285277.9, 56179.36, 0.002842686, 9.999674, 10.000256 
1.8149273e+3, 1.7312033e+2, -1392186.5, -1197426.3, -26579.977, -0.010469315, 0.41641498, -1193863.9, 49600.59, 0.00016504708, 9.998383, 10.000947 
1.814965e+3, 1.831194e+2, -1474141.5, -1414519.4, 41934.92, -0.041434053, 0.32552293, -1392879.1, -247410.25, 0.00000012908751, 9.998107, 9.998931 
1.8150057e+3, 1.9312069e+2, -1128426.0, -1219537.8, 56970.66, 0.11299897, 0.5709307, -1101036.6, -53572.293, 0.0, 9.999917, 9.998713 
1.8150455e+3, 2.031204e+2, -913028.44, -1073729.9, 77996.71, 0.12752727, 0.6892216, -881398.25, 68073.984, 0.0, 10.000744, 9.998655 
1.8150833e+3, 2.1311708e+2, -958550.7, -1015165.25, 104555.04, -0.11322804, 0.45900637, -878538.7, -27036.088, 0.0, 9.999647, 9.998902 
1.8151222e+3, 2.2311506e+2, -895472.25, -881696.9, 30551.72, -0.16565412, 0.36374748, -857266.06, -103745.33, 0.0, 9.999188, 9.999368 
1.8151632e+3, 2.3311597e+2, -626717.6, -666176.6, 37511.754, 0.1672659, 0.47743347, -604063.3, 51448.027, 0.0, 10.000212, 9.999676 
1.8152018e+3, 2.4311559e+2, -584816.94, -835488.44, 54990.348, 0.2382768, 0.5757262, -573284.2, -15768.066, 0.0, 10.000841, 9.997548 
1.8152356e+3, 2.5311297e+2, -511285.63, -774418.6, 34795.44, -0.23216523, 0.56793493, -506762.22, -47216.56, 0.0, 10.00079, 9.997315 
1.815272e+3, 2.6311058e+2, -381356.88, -625473.94, -44308.605, -0.38156763, 0.5980765, -373563.44, -11991.609, 0.0000000874347, 10.000849, 9.997637 
1.8153141e+3, 2.7310854e+2, -189718.44, -448779.88, -43345.934, 0.16513392, 0.59052765, -182658.23, 80932.484, 0.00001648955, 10.001366, 9.997918 
1.8153532e+3, 2.8310594e+2, -65292.4, -355902.38, -28995.998, 0.39689016, 0.5644431, -62427.527, 103187.67, 0.00017232615, 10.001596, 9.997785 
1.815385e+3, 2.9310325e+2, 29554.936, -215612.39, -19363.867, -0.1063119, 0.46808103, 31074.914, 98714.66, 0.0006746176, 10.001399, 9.998158 
1.8154189e+3, 3.0310246e+2, 60163.434, -95614.58, 6319.7305, -0.48269072, 0.5548302, 60419.395, 60419.395, 0.0015411106, 10.000931, 9.998881 
1.815464e+3, 3.1310052e+2, 48321.176, 55999.703, -26551.629, 0.27875933, 0.41772664, 78988.2, 78988.2, 0.0025631795, 10.000197, 10.000248 
1.824733e+3, 1.2308192e+2, -1948771.9, -1758918.6, 89326.83, 0.08025264, 0.53943056, -1723498.3, 10343.604, 0.10907774, 9.998044, 10.000631 
1.8247701e+3, 1.3308105e+2, -1732622.6, -1523944.6, -103212.09, -0.032459915, 0.32974833, -1481520.6, 154324.69, 0.07313931, 9.998499, 10.001427 
1.8248096e+3, 1.4308167e+2, -1757359.4, -1735918.5, -50946.008, 0.101137556, 0.34625402, -1694577.3, -156738.05, 0.039204508, 9.998784, 9.999086 
1.8248516e+3, 1.5308236e+2, -1717779.9, -1732117.8, 27921.168, 0.18859297, 0.55088997, -1696122.0, -256278.83, 0.014855209, 9.998676, 9.998484 
1.8248904e+3, 1.6308227e+2, -1458663.8, -1360465.6, -76706.93, 0.09272809, 0.642768, -1318489.6, 23358.46, 0.0031336718, 9.9989195, 10.000251 
1.8249266e+3, 1.7308117e+2, -1153040.1, -1080507.5, -132520.6, 0.0035770047, 0.43286276, -979380.4, 264468.75, 0.00019006866, 10.000015, 10.00096 
1.8249647e+3, 1.8308054e+2, -1150858.8, -1262527.6, -68898.35, 0.024678461, 0.3742059, -1118011.4, 27840.053, 0.00000015151502, 10.00035, 9.998887 
1.8250056e+3, 1.9308117e+2, -1228546.5, -1273322.6, -53489.05, 0.14551419, 0.5619676, -1192949.1, -145095.94, 0.0, 9.999273, 9.998645 
1.8250453e+3, 2.0308079e+2, -1198263.0, -1148051.3, -31430.51, 0.15513445, 0.6550495, -1132930.5, -183069.13, 0.0, 9.998529, 9.999198 
1.8250829e+3, 2.1307854e+2, -1062328.9, -987895.06, 2157.5164, -0.057202514, 0.46182415, -987832.6, -135952.36, 0.0, 9.99861, 9.999582 
1.8251216e+3, 2.2307701e+2, -911862.56, -906996.1, -6040.154, -0.12210763, 0.382431, -902917.5, -149024.69, 0.0, 9.999138, 9.999224 
1.8251628e+3, 2.3307727e+2, -593622.0, -685331.25, -60217.402, 0.10298829, 0.46109778, -563787.94, 92102.47, 0.0, 10.000589, 9.999362 
1.825202e+3, 2.4307653e+2, -509079.28, -778446.0, -92405.53, 0.15903357, 0.53657746, -480427.44, 77471.42, 0.0, 10.00128, 9.997723 
1.8252367e+3, 2.5307432e+2, -554427.8, -762943.0, -56540.906, -0.16197526, 0.5410704, -540083.06, -80158.68, 0.0, 10.000358, 9.997596 
1.8252735e+3, 2.630723e+2, -471042.0, -612979.8, -21198.105, -0.2611406, 0.577933, -467943.75, -105997.96, 0.00000011582431, 10.0000105, 9.99812 
1.8253148e+3, 2.7307072e+2, -194387.44, -399863.66, -15525.196, 0.12593518, 0.5651401, -193221.02, 70739.12, 0.000015405387, 10.0011015, 9.998387 
1.8253541e+3, 2.8306842e+2, -55801.67, -342451.7, -7358.8257, 0.34299132, 0.53926635, -55612.883, 110368.38, 0.0001600689, 10.001635, 9.997854 
1.8253876e+3, 2.9306597e+2, -48682.727, -257949.64, -31628.83, 0.045199174, 0.47973108, -44006.793, 23996.434, 0.0006309303, 10.000881, 9.99812 
1.825421e+3, 3.030652e+2, 3580.7217, -99361.89, 19320.15, -0.32891735, 0.55496943, 7087.261, 7087.261, 0.0014651801, 10.000457, 9.999074 
1.8254645e+3, 3.1306207e+2, 213266.52, 58340.258, -65347.4, 0.2404523, 0.30186087, 237148.44, 237148.44, 0.0024874755, 10.001608, 9.999622 
1.8347302e+3, 1.2304326e+2, -2002704.8, -1875183.0, 25080.967, -0.033840064, 0.51459694, -1870427.5, -136206.08, 0.11569034, 9.998069, 9.999813 
1.8347691e+3, 1.3304196e+2, -1878179.0, -1820992.1, -78436.336, 0.010331283, 0.45475605, -1766100.0, -129864.586, 0.07769921, 9.998515, 9.999304 
1.8348104e+3, 1.4304198e+2, -1723233.8, -1675565.6, -62939.742, 0.27401015, 0.5255646, -1632098.3, -93861.59, 0.04181763, 9.998827, 9.999481 
1.83485e+3, 1.530403e+2, -1642164.8, -1575585.3, 29339.732, 0.15667365, 0.39093688, -1564501.3, -124245.734, 0.015997248, 9.998672, 9.999562 
1.8348883e+3, 1.6303948e+2, -1479847.3, -1407688.3, -52215.457, -0.01747516, 0.35575613, -1380299.8, -38035.152, 0.0034491862, 9.998935, 9.99992 
1.8349276e+3, 1.7304102e+2, -1196477.9, -1178281.3, -86366.7, 0.08486017, 0.4765553, -1100535.0, 143712.17, 0.00021871291, 10.000043, 10.0002775 
1.8349667e+3, 1.8304135e+2, -1152859.9, -1272472.8, -101967.914, 0.17577812, 0.55823153, -1094453.5, 51790.254, 0.00000018976193, 10.000376, 9.998805 
1.8350047e+3, 1.9303933e+2, -1228528.1, -1267430.9, -89254.38, 0.13241917, 0.47391653, -1156630.1, -108362.38, 0.0, 9.999246, 9.998697 
1.8350433e+3, 2.0303823e+2, -1142584.3, -1024878.6, -42633.133, 0.08476301, 0.45646778, -1011059.3, -60779.066, 0.0, 9.998492, 10.000066 
1.8350828e+3, 2.1303953e+2, -1000843.94, -841252.0, 10906.648, 0.062111776, 0.5199777, -840510.06, 11754.035, 0.0, 9.99853, 10.0006275 
1.8351223e+3, 2.2303979e+2, -980034.6, -1021771.9, 34551.426, 0.010608265, 0.58767456, -960538.7, -206278.4, 0.0, 9.999017, 9.998497 
1.8351614e+3, 2.3303793e+2, -690197.2, -855618.7, 5886.289, -0.09614907, 0.5637616, -689988.0, -33706.285, 0.0, 10.000459, 9.998258 
1.8352006e+3, 2.4303603e+2, -465889.6, -650352.4, -114777.28, -0.1063688, 0.546449, -410878.16, 147423.92, 0.0, 10.001109, 9.998689 
1.8352394e+3, 2.5303447e+2, -474076.44, -567056.4, -82742.44, 0.06797356, 0.48395348, -425657.88, 34657.1, 0.0, 10.000237, 9.999001 
1.8352772e+3, 2.630332e+2, -436470.34, -520973.88, -186.76076, 0.108482555, 0.48088005, -436469.94, -74144.51, 0.000000090536304, 9.999909, 9.998806 
1.8353139e+3, 2.730324e+2, -170276.02, -320783.78, 38366.6, -0.07982674, 0.48945385, -161060.13, 103271.08, 0.00001528185, 10.000975, 9.99899 
1.835352e+3, 2.830309e+2, -72430.22, -344688.97, -36824.016, -0.04078928, 0.49997133, -67537.56, 98807.22, 0.00015262204, 10.001484, 9.997917 
1.8353914e+3, 2.930287e+2, -66270.34, -264741.75, -54432.484, 0.3097984, 0.4678079, -52322.035, 16042.852, 0.0005955264, 10.000764, 9.998123 
1.8354261e+3, 3.0302727e+2, -66008.7, -202217.36, 30108.914, 0.12358678, 0.49869516, -59649.977, -59649.977, 0.0014001345, 10.000277, 9.998454 
1.835463e+3, 3.1302613e+2, 30469.281, -226086.38, 75917.64, -0.07878393, 0.5095259, 51250.8, 51250.8, 0.0024305002, 10.001211, 9.9978485 
1.8447292e+3, 1.2300352e+2, -1873534.6, -1782841.9, -60740.69, 0.02829525, 0.51875776, -1752387.8, -17773.975, 0.12272786, 9.998837, 10.000075 
1.8447678e+3, 1.3300234e+2, -1734752.9, -1769576.9, -19544.188, -0.019779902, 0.47555375, -1725989.5, -89362.68, 0.08254445, 9.999603, 9.999122 
1.8448094e+3, 1.4300293e+2, -1546616.0, -1570975.9, 61637.41, 0.2553416, 0.61425024, -1495966.6, 42655.418, 0.04459436, 9.999951, 9.999667 
1.8448493e+3, 1.5300089e+2, -1475091.3, -1447271.3, 84627.33, 0.18112358, 0.4005129, -1375418.4, 65224.28, 0.017215712, 9.999613, 9.999997 
1.844888e+3, 1.6299996e+2, -1450876.6, -1433823.1, 15217.628, 0.04974477, 0.34381405, -1424906.3, -82253.53, 0.0037916328, 9.999317, 9.999554 
1.8449272e+3, 1.7300178e+2, -1317904.6, -1298942.3, -19622.727, 0.091791585, 0.54774624, -1286630.3, -41993.816, 0.00025177147, 9.999486, 9.999717 
1.8449661e+3, 1.8300225e+2, -1246174.8, -1266695.6, -39744.043, 0.140119, 0.65678257, -1215388.0, -68754.94, 0.00000025167606, 9.999518, 9.999255 
1.8450037e+3, 1.9299996e+2, -1145249.3, -1149793.1, -2384.3337, 0.099602066, 0.47745645, -1144227.8, -95572.51, 0.0, 9.999475, 9.999399 
1.8450421e+3, 2.0299882e+2, -1007861.9, -965071.9, 78959.77, 0.08620433, 0.41335085, -904659.9, 46005.805, 0.0, 9.999435, 10.000026 
1.8450823e+3, 2.1300054e+2, -853531.06, -797264.56, 34561.203, 0.13504727, 0.53992426, -780833.75, 71812.91, 0.0, 9.999656, 10.000392 
1.8451223e+3, 2.2300088e+2, -889806.06, -1003683.06, 48111.164, 0.10207565, 0.6392995, -872201.44, -117558.055, 0.0, 9.999765, 9.998249 
1.8451612e+3, 2.3299845e+2, -810166.0, -942718.44, 68799.27, -0.12867998, 0.5823323, -780912.75, -124241.09, 0.0, 9.999768, 9.997986 
1.8452004e+3, 2.4299636e+2, -630336.44, -682258.0, -50736.46, -0.17856269, 0.5479918, -599304.7, -40610.977, 0.0, 9.999793, 9.999094 
1.8452398e+3, 2.5299555e+2, -473738.13, -502577.7, -105887.164, 0.11106649, 0.50080323, -381293.4, 79404.68, 0.0, 9.99997, 9.999567 
1.8452781e+3, 2.629946e+2, -375517.06, -463710.44, -21959.482, 0.2029255, 0.48957226, -370351.84, -7648.0005, 0.00000009817215, 10.000209, 9.999054 
1.8453145e+3, 2.7299377e+2, -216055.08, -325259.72, -15517.518, -0.09072142, 0.47711426, -213892.9, 50816.805, 0.000013983738, 10.000586, 9.999145 
1.8453526e+3, 2.829924e+2, -122622.18, -351058.3, -109919.74, -0.09331729, 0.48928362, -78321.74, 88399.83, 0.0001420209, 10.001079, 9.998063 
1.8453929e+3, 2.929904e+2, 101139.195, -172380.0, -158675.77, 0.33708376, 0.46378246, 173857.95, 242598.66, 0.00055699964, 10.001856, 9.998244 
1.8454282e+3, 3.0298838e+2, 204036.3, -9385.038, -26696.36, 0.23710588, 0.40862864, 207325.0, 207325.0, 0.0013265306, 10.001859, 9.999025 
1.8454638e+3, 3.1298915e+2, 19695.313, -176789.13, 111485.57, -0.092521235, 0.55535203, 70048.41, 70048.41, 0.0023433012, 10.000881, 9.998345 
1.8547295e+3, 1.22962825e+2, -1760401.9, -1599982.0, -29161.785, 0.14051573, 0.5605102, -1594845.4, 140172.7, 0.13014582, 9.998956, 10.001418 
1.8547659e+3, 1.3296205e+2, -1606791.9, -1516668.5, 12628.733, -0.18840688, 0.36510783, -1514932.3, 122087.836, 0.08765755, 9.999621, 10.000931 
1.8548062e+3, 1.429645e+2, -1540711.0, -1569575.6, 51468.57, -0.061483257, 0.58571076, -1501689.5, 37305.44, 0.04753598, 9.999997, 9.999656 
1.8548492e+3, 1.5296419e+2, -1489899.5, -1489579.4, 76524.63, 0.190489, 0.5753977, -1413214.6, 27788.875, 0.01851746, 9.999657, 9.999686 
1.8548891e+3, 1.6296385e+2, -1471040.8, -1487599.5, 10914.567, 0.21715654, 0.611744, -1465620.6, -122609.3, 0.0041650403, 9.999366, 9.999161 
1.8549256e+3, 1.7296359e+2, -1349175.8, -1367395.4, -5560.1924, -0.034874104, 0.65046495, -1347613.0, -102596.97, 0.00029041685, 9.999494, 9.999246 
1.8549629e+3, 1.8296319e+2, -1172824.0, -1124357.8, -47440.793, -0.15553811, 0.6645905, -1095319.1, 51700.535, 0.0000003514084, 9.999557, 10.000218 
1.855002e+3, 1.9296303e+2, -1052694.6, -957586.0, -344.05954, -0.01972089, 0.57088995, -957584.75, 91431.41, 0.0, 9.999467, 10.000727 
1.8550417e+3, 2.0296249e+2, -1077879.8, -1101034.5, 78518.24, 0.08261823, 0.5275878, -1010089.94, -59072.035, 0.0, 9.999393, 9.999116 
1.8550819e+3, 2.129615e+2, -970039.9, -1017295.56, 49703.93, 0.11842507, 0.52132505, -938633.56, -85605.11, 0.0, 9.999561, 9.998929 
1.855122e+3, 2.2296023e+2, -892535.2, -983854.7, 44853.75, 0.090103656, 0.53902936, -874189.7, -119147.05, 0.0, 9.99965, 9.9984455 
1.8551615e+3, 2.3295882e+2, -786107.44, -869609.7, 77646.43, -0.06703776, 0.5334754, -739698.9, -82638.984, 0.0, 9.999662, 9.998543 
1.8552004e+3, 2.4295767e+2, -663097.9, -717050.56, -50187.258, -0.1470935, 0.56663233, -633096.3, -74023.29, 0.0, 9.999645, 9.998929 
1.8552381e+3, 2.529573e+2, -512550.5, -553185.1, -89868.39, -0.06456727, 0.59320635, -440731.38, 20343.992, 0.0, 9.999845, 9.999278 
1.8552762e+3, 2.6295635e+2, -400446.97, -491365.1, -16140.859, -0.01104922, 0.60235244, -397666.5, -34583.668, 0.00000008466028, 10.000101, 9.9989195 
1.855316e+3, 2.7295473e+2, -242900.94, -350173.75, 11559.527, 0.011809259, 0.522978, -241669.44, 23426.4, 0.000011475633, 10.00046, 9.999033 
1.8553555e+3, 2.8295308e+2, -146309.97, -364376.7, -92467.14, 0.066301346, 0.51539415, -112380.24, 54729.73, 0.00012583715, 10.00091, 9.998061 
1.8553922e+3, 2.929511e+2, 74857.91, -172756.7, -118255.266, 0.08407214, 0.48291796, 122259.7, 191388.42, 0.00050954643, 10.001622, 9.998355 
1.8554273e+3, 3.0294856e+2, 245896.42, 150630.61, -76006.664, -0.051331248, 0.32137144, 287962.5, 287962.5, 0.001235729, 10.001551, 10.00027 
1.855467e+3, 3.129528e+2, 135703.45, 153770.1, 120011.766, 0.11030648, 0.65133965, 265088.03, 265088.03, 0.0022093125, 10.0005245, 10.00078 
1.8647288e+3, 1.2292234e+2, -1848335.3, -1538131.1, -14303.997, 0.23104408, 0.6233507, -1537473.0, 197946.69, 0.1378835, 9.997863, 10.002445 
1.8647641e+3, 1.3292119e+2, -1779434.0, -1542116.9, -66944.9, -0.23344982, 0.3227051, -1524535.0, 112888.15, 0.09301642, 9.998168, 10.001452 
1.8648054e+3, 1.429246e+2, -1799027.3, -1685296.3, -93730.414, -0.048439234, 0.61344296, -1632530.3, -93142.305, 0.050644647, 9.998206, 9.999707 
1.8648483e+3, 1.5292525e+2, -1683429.9, -1578676.5, -66071.17, 0.22136204, 0.69604164, -1546740.0, -105350.63, 0.01991141, 9.998332, 9.999701 
1.8648885e+3, 1.6292526e+2, -1573065.3, -1504159.4, -71416.71, 0.27565393, 0.7576533, -1459319.5, -115925.086, 0.0045744055, 9.998525, 9.99945 
1.8649249e+3, 1.72924e+2, -1413375.1, -1351486.6, -36236.59, -0.013103096, 0.6557542, -1334779.6, -89373.24, 0.0003360051, 9.998863, 9.999648 
1.8649623e+3, 1.8292317e+2, -1243623.4, -1151218.4, -58112.92, -0.14442512, 0.60164565, -1123179.5, 24233.27, 0.00000050835786, 9.999048, 10.000274 
1.8650018e+3, 1.9292405e+2, -1090740.5, -978595.44, -122173.77, 0.024201863, 0.61459255, -900241.2, 149159.08, 0.0, 9.999231, 10.0006895 
1.8650416e+3, 2.0292407e+2, -1091652.5, -1116334.1, -65571.85, 0.14586523, 0.63156587, -1037270.25, -85872.44, 0.0, 9.9993515, 9.999022 
1.8650815e+3, 2.129223e+2, -991927.7, -1038207.75, -9503.802, 0.12947902, 0.55828136, -990052.06, -136636.16, 0.0, 9.999458, 9.998829 
1.8651213e+3, 2.2292067e+2, -911871.75, -951001.3, 50753.867, 0.088834144, 0.5295576, -877042.3, -121609.27, 0.0, 9.999339, 9.998822 
1.8651612e+3, 2.329199e+2, -868009.3, -851416.44, 64313.742, -0.0075161355, 0.5407927, -794866.2, -137424.08, 0.0, 9.99886, 9.999055 
1.8652003e+3, 2.4291916e+2, -780716.0, -776051.2, -22712.982, -0.07288126, 0.5841168, -755551.2, -196100.89, 0.0, 9.9988365, 9.998916 
1.8652374e+3, 2.5291854e+2, -531708.56, -580970.6, -54368.945, -0.10070069, 0.5968733, -496651.5, -35195.99, 0.0, 9.999782, 9.999119 
1.865276e+3, 2.6291734e+2, -354652.6, -496741.7, 32907.027, -0.078550845, 0.6013513, -347401.56, 16064.292, 0.000000065173005, 10.000549, 9.998659 
1.8653171e+3, 2.7291563e+2, -184047.33, -360134.78, 21608.748, 0.053017512, 0.54326606, -181434.38, 84046.47, 0.000009431519, 10.0010195, 9.9987 
1.8653569e+3, 2.8291398e+2, -134734.13, -366405.44, -88281.56, 0.12450003, 0.55587053, -104927.984, 62567.8, 0.00011328213, 10.001028, 9.997982 
1.865392e+3, 2.9291204e+2, -141827.8, -285185.4, -157109.31, -0.007821861, 0.5350624, -40818.484, 28695.88, 0.0004718481, 10.000174, 9.998265 
1.8654275e+3, 3.029089e+2, -36083.8, -113881.87, -139780.8, -0.10379216, 0.37116814, 70109.57, 70109.57, 0.0011571009, 10.000155, 9.999118 
1.8654676e+3, 3.1291232e+2, 344721.84, 180376.5, -172497.84, 0.06087355, 0.7493275, 453619.44, 453619.44, 0.0020726682, 10.002235, 10.000152 
1.8747263e+3, 1.2288257e+2, -1805198.4, -1459852.4, -74657.336, 0.1737796, 0.7459345, -1444404.0, 291409.72, 0.14588223, 9.997863, 10.003091 
1.8747626e+3, 1.3287985e+2, -1845950.8, -1664134.9, -59866.008, -0.20988204, 0.35601237, -1646193.5, -8358.394, 0.0986057, 9.998139, 10.000556 
1.8748066e+3, 1.4288326e+2, -1791225.0, -1673728.5, -96730.04, 0.24151853, 0.69919425, -1619304.0, -79502.6, 0.053927336, 9.998219, 9.999782 
1.8748465e+3, 1.5288393e+2, -1658144.4, -1530124.1, -50915.08, 0.21074243, 0.7536989, -1512344.0, -70542.26, 0.021407956, 9.998336, 10.000036 
1.874886e+3, 1.628841e+2, -1495769.5, -1350434.0, -66465.62, 0.14269452, 0.76966536, -1324621.9, 19181.098, 0.0050250688, 9.998552, 10.000492 
1.8749249e+3, 1.7288293e+2, -1324046.4, -1169216.1, -18151.52, 0.096046984, 0.557012, -1167116.6, 78691.39, 0.00038988978, 9.998867, 10.000902 
1.8749638e+3, 1.8288217e+2, -1295867.8, -1265663.9, -57801.17, 0.09173537, 0.46297067, -1221024.4, -73211.97, 0.000000733184, 9.999076, 9.999477 
1.8750025e+3, 1.9288307e+2, -1190730.3, -1181052.5, -110016.805, 0.1764019, 0.61030966, -1075768.3, -25960.588, 0.0, 9.999209, 9.999314 
1.8750416e+3, 2.0288344e+2, -1043226.9, -1014956.44, -70109.664, 0.20326833, 0.7182578, -957571.25, -5764.9424, 0.0, 9.999337, 9.99973 
1.8750806e+3, 2.1288292e+2, -916702.56, -867233.6, 45.486702, 0.101474956, 0.6549368, -867233.56, -13424.357, 0.0, 9.999383, 10.000046 
1.8751201e+3, 2.2288218e+2, -891544.9, -879870.94, 31681.959, 0.016796278, 0.62205875, -853492.75, -97678.21, 0.0, 9.999208, 9.999374 
1.8751602e+3, 2.328815e+2, -855711.06, -800990.9, 54706.57, -0.0072743753, 0.5978741, -767184.1, -109363.85, 0.0, 9.9987545, 9.999449 
1.8751995e+3, 2.4288052e+2, -788031.2, -761266.8, -1933.1823, -0.03158802, 0.58764875, -761127.94, -201299.63, 0.0, 9.998707, 9.999082 
1.8752375e+3, 2.5287923e+2, -541030.1, -574014.9, -9534.293, -0.07278894, 0.5255714, -538472.5, -76634.06, 0.0, 9.999676, 9.999217 
1.8752764e+3, 2.6287773e+2, -404938.47, -576837.3, 45336.887, -0.08409588, 0.51245445, -393714.16, -29862.592, 0.00000004605578, 10.000431, 9.998175 
1.8753174e+3, 2.7287647e+2, -251386.5, -457675.78, 49564.836, -0.030202748, 0.5571489, -240095.61, 25768.791, 0.000008317367, 10.000835, 9.998121 
1.8753567e+3, 2.8287503e+2, -176758.11, -413118.22, -119682.586, -0.008092993, 0.63579977, -126740.516, 41138.31, 0.00010640216, 10.000845, 9.997757 
1.875392e+3, 2.9287294e+2, -174812.27, -329669.75, -174451.64, -0.0283863, 0.6165828, -61378.273, 8521.894, 0.00044872746, 10.000081, 9.998005 
1.8754283e+3, 3.028693e+2, -266381.63, -574682.06, -92500.27, -0.06351094, 0.55251616, -240758.14, -240758.14, 0.0011006381, 10.000077, 9.995994 
1.8754676e+3, 3.1286693e+2, 52028.17, -290742.7, -68681.484, -0.20285372, 0.71113634, 65277.82, 65277.82, 0.0019602836, 10.001677, 9.99717 
1.8847235e+3, 1.2284274e+2, -2055729.9, -1614441.8, -43106.934, 0.1958272, 0.7799714, -1610270.3, 125933.89, 0.15411249, 9.996375, 10.002575 
1.8847618e+3, 1.3283968e+2, -1722977.5, -1642729.5, 88597.75, -0.14695328, 0.38106024, -1585593.6, 52637.734, 0.10442951, 9.999144, 10.000245 
1.8848078e+3, 1.4284281e+2, -1429118.9, -1494816.9, 18923.604, 0.42015368, 0.7161227, -1424058.0, 116142.89, 0.057399224, 10.000731, 9.999818 
1.8848448e+3, 1.5284324e+2, -1549952.8, -1448839.3, 24552.943, 0.17156424, 0.7225095, -1443192.5, -990.19446, 0.023018045, 9.998969, 10.000279 
1.8848827e+3, 1.6284351e+2, -1600925.3, -1374808.6, 31723.604, 0.02900605, 0.7244144, -1370442.3, -26240.854, 0.005521801, 9.997723, 10.000724 
1.884924e+3, 1.7284296e+2, -1406465.5, -1184790.6, 1798.1858, 0.1645801, 0.5515263, -1184776.0, 61424.383, 0.0004532519, 9.9981985, 10.001122 
1.8849643e+3, 1.8284258e+2, -1360373.4, -1297125.9, -51408.652, 0.26202404, 0.48187503, -1268393.1, -120191.74, 0.0000010252129, 9.998625, 9.999481 
1.8850023e+3, 1.9284323e+2, -1212181.6, -1195783.5, -15646.03, 0.23776536, 0.604384, -1186318.4, -136118.56, 0.0, 9.999071, 9.999279 
1.8850406e+3, 2.0284364e+2, -1047741.1, -997982.3, 71064.07, 0.19370349, 0.71103734, -947568.4, 4630.246, 0.0, 9.999235, 9.99989 
1.8850799e+3, 2.1284382e+2, -944319.7, -850830.25, 50865.855, 0.10636268, 0.6960264, -828492.4, 25702.785, 0.0, 9.999093, 10.000286 
1.8851194e+3, 2.2284359e+2, -902763.4, -865150.0, 34396.055, 0.045654137, 0.6897026, -844754.9, -88559.42, 0.0, 9.999053, 9.999542 
1.8851593e+3, 2.3284264e+2, -761106.06, -742248.1, 27231.596, 0.020785514, 0.62677747, -722859.3, -64657.28, 0.0, 9.999339, 9.999572 
1.8851991e+3, 2.4284145e+2, -657125.06, -723110.3, -10863.324, 0.003465843, 0.59559447, -655382.6, -95171.12, 0.0, 9.999722, 9.998852 
1.8852381e+3, 2.5284004e+2, -464594.28, -580438.25, -60984.98, -0.004335366, 0.55823153, -438408.47, 23815.887, 0.0, 10.000381, 9.998837 
1.8852778e+3, 2.628383e+2, -395151.47, -582001.6, -33412.383, 0.009303072, 0.5510749, -389356.4, -25115.924, 0.000000017635879, 10.000547, 9.998079 
1.8853177e+3, 2.728365e+2, -410154.78, -530193.9, -14665.541, -0.006717766, 0.5437561, -408389.03, -142131.19, 0.000007212163, 9.999745, 9.998138 
1.8853566e+3, 2.828347e+2, -328958.53, -493018.72, -98585.51, -0.046160996, 0.58818835, -282738.72, -114463.16, 0.00009812263, 9.999857, 9.997668 
1.8853931e+3, 2.9283294e+2, 144017.48, -204998.34, -165309.9, -0.045539048, 0.6177762, 209885.06, 280180.0, 0.0004217314, 10.002387, 9.997756 
1.8854304e+3, 3.0283028e+2, 226625.77, -307350.2, -23309.104, -0.022858508, 0.6566287, 227641.33, 227641.33, 0.0010395171, 10.003321, 9.9962845 
1.885468e+3, 3.1282696e+2, -154636.23, -320383.7, 153414.48, -0.20320083, 0.67487, -63142.363, -63142.363, 0.0018505019, 9.999937, 9.997811 
1.8947193e+3, 1.22802034e+2, -2180543.5, -1862213.6, -112294.73, 0.09894994, 0.61432123, -1826587.5, -89988.92, 0.16258536, 9.996422, 10.000698 
1.8947612e+3, 1.3280077e+2, -1713660.4, -1618326.9, 209160.72, -0.12986943, 0.39382082, -1451470.1, 187140.31, 0.110513955, 9.999134, 10.000494 
1.8948084e+3, 1.4280346e+2, -1415543.4, -1471785.9, -13459.233, 0.40008923, 0.6644394, -1412488.4, 128095.875, 0.06108175, 10.000766, 9.999969 
1.8948425e+3, 1.5280327e+2, -1544640.0, -1439478.1, -38757.574, 0.042423125, 0.6008378, -1426737.5, 15851.902, 0.024752133, 9.998976, 10.000344 
1.8948789e+3, 1.6280352e+2, -1633029.8, -1457619.1, 26992.9, -0.14574006, 0.6169529, -1453559.3, -108970.016, 0.0060684755, 9.997784, 10.000131 
1.894922e+3, 1.7280409e+2, -1462806.0, -1305807.8, 27164.842, 0.13721046, 0.6370185, -1301240.4, -54656.848, 0.0005270964, 9.998207, 10.000294 
1.8949634e+3, 1.8280435e+2, -1296370.6, -1166496.3, -38899.95, 0.2962857, 0.64914244, -1155736.4, -7155.838, 0.0000013718216, 9.998642, 10.000365 
1.8950003e+3, 1.928047e+2, -1123297.4, -1001206.8, 5704.2017, 0.14071396, 0.6089256, -1000940.9, 49634.688, 0.0, 9.999034, 10.000628 
1.8950383e+3, 2.0280482e+2, -1076620.3, -1058243.1, 62883.484, 0.037353553, 0.6216364, -1003880.44, -51306.87, 0.0, 9.999223, 9.999491 
1.8950787e+3, 2.1280494e+2, -1012394.06, -980524.0, 50098.58, 0.087934405, 0.681152, -943887.25, -89312.7, 0.0, 9.99903, 9.999432 
1.895119e+3, 2.2280453e+2, -934443.25, -906128.7, 35258.484, 0.10640709, 0.71768165, -882291.4, -125712.266, 0.0, 9.998943, 9.999315 
1.8951586e+3, 2.3280333e+2, -781695.2, -758809.6, 45978.957, 0.008592833, 0.6359413, -722870.94, -64283.47, 0.0, 9.999229, 9.999508 
1.8951984e+3, 2.4280204e+2, -722370.0, -831007.94, 4426.5513, -0.04540144, 0.6249145, -722189.94, -161591.34, 0.0, 9.99959, 9.99818 
1.895239e+3, 2.5280094e+2, -543960.44, -712262.6, -25716.074, 0.04878813, 0.69636595, -540118.8, -77505.79, 0.0, 10.000237, 9.998003 
1.8952794e+3, 2.6279902e+2, -400896.66, -562299.75, -55368.566, 0.12368543, 0.7137592, -383728.8, -19095.541, 0.0000000071100716, 10.000408, 9.998282 
1.8953182e+3, 2.727957e+2, -390615.53, -458647.6, -34725.96, 0.045917172, 0.5114748, -376021.06, -109359.59, 0.0000064261117, 9.999624, 9.998683 
1.895356e+3, 2.8279313e+2, -347782.6, -507990.16, -37981.38, -0.08753488, 0.4394445, -339234.25, -170549.02, 0.00008727804, 9.999734, 9.997633 
1.8953945e+3, 2.927921e+2, 69888.33, -273535.4, -40582.43, -0.14217953, 0.56261176, 74618.8, 145317.36, 0.00038336485, 10.002011, 9.997471 
1.8954328e+3, 3.0279177e+2, 373658.3, 104783.805, -99296.1, -0.12589593, 0.73006564, 406353.0, 406353.0, 0.0009605094, 10.00288, 9.99932 
1.8954691e+3, 3.1279147e+2, -3148.949, 81186.78, 17047.082, -0.11899807, 0.6717548, 84502.234, 84502.234, 0.0017295349, 9.999621, 10.000704 
1.9047178e+3, 1.22760944e+2, -1753748.4, -1807670.8, -214425.58, 0.14583792, 0.5750017, -1564595.6, 172407.97, 0.1713416, 10.000119, 9.999399 
1.9047603e+3, 1.327635e+2, -1719504.6, -1491358.4, 167978.64, -0.09307913, 0.64448047, -1402381.0, 236595.83, 0.11689223, 9.998486, 10.001741 
1.9048062e+3, 1.4276397e+2, -1880868.6, -1670260.6, -18336.098, 0.2754863, 0.60543346, -1668676.1, -127705.47, 0.06499328, 9.997405, 10.000195 
1.9048409e+3, 1.5276374e+2, -1637145.6, -1496681.1, -83748.57, 0.025761925, 0.54218316, -1457613.8, -14638.387, 0.026617203, 9.998383, 10.000239 
1.9048777e+3, 1.6276413e+2, -1474081.6, -1392335.0, 22331.057, -0.09572854, 0.58530885, -1386632.5, -41658.69, 0.0066676727, 9.998923, 10.000028 
1.9049205e+3, 1.7276563e+2, -1367410.5, -1261332.8, 75154.086, 0.14996274, 0.7014867, -1222386.5, 24574.564, 0.0006122247, 9.998884, 10.000258 
1.9049618e+3, 1.8276629e+2, -1298273.0, -1160646.3, 23589.611, 0.29092282, 0.75182354, -1156715.3, -7760.6284, 0.0000017786746, 9.998609, 10.000417 
1.9049987e+3, 1.9276562e+2, -1254390.3, -1059375.4, -40459.184, 0.1337281, 0.6084658, -1051314.6, -357.24374, 0.0, 9.998116, 10.000673 
1.9050372e+3, 2.0276509e+2, -1255936.8, -1168086.5, -8841.205, 0.054531842, 0.5613779, -1167205.5, -214244.53, 0.0, 9.998114, 9.999259 
1.9050787e+3, 2.1276523e+2, -979543.1, -1004512.1, 6555.546, 0.16956101, 0.65506023, -977926.6, -122963.27, 0.0, 9.999431, 9.999071 
1.9051196e+3, 2.227646e+2, -763841.75, -848556.1, 6545.13, 0.21240315, 0.70290375, -763339.06, -6368.0215, 0.0, 10.000217, 9.999099 
1.9051583e+3, 2.327628e+2, -713631.4, -749709.6, -9988.955, 0.03864884, 0.579769, -711050.4, -52065.29, 0.0, 9.999792, 9.999303 
1.9051978e+3, 2.4276151e+2, -724224.06, -800127.4, -1498.2146, -0.05642964, 0.5703856, -724194.5, -163198.17, 0.0, 9.999461, 9.998443 
1.905239e+3, 2.5276154e+2, -601337.0, -691985.9, 38669.797, 0.048965484, 0.71958977, -587082.44, -124082.93, 0.0, 9.999649, 9.998414 
1.9052796e+3, 2.6276028e+2, -482054.2, -616931.1, 52949.734, 0.1356255, 0.7795503, -463751.06, -98736.65, 0.000000016068412, 9.999926, 9.998132 
1.9053182e+3, 2.727566e+2, -291744.16, -456256.16, -5689.3843, 0.0689001, 0.5689909, -291547.63, -24498.074, 0.000006012962, 10.000469, 9.9983015 
1.9053563e+3, 2.8275403e+2, -209693.3, -332460.88, 7239.4673, -0.05075081, 0.48642808, -209267.86, -40194.516, 0.000076659555, 10.000214, 9.99861 
1.9053946e+3, 2.9275417e+2, -345138.72, -314267.25, 79901.94, -0.13404383, 0.590303, -248323.73, -177253.58, 0.00034009607, 9.998481, 9.998883 
1.9054332e+3, 3.0275387e+2, -236302.05, -178400.56, 58898.305, -0.12778306, 0.66875845, -141722.38, -141722.38, 0.0008710436, 9.9986515, 9.999411 
1.9054729e+3, 3.1275263e+2, 408993.28, 171070.48, -153261.27, 0.1480802, 0.5567686, 484044.3, 484044.3, 0.0016033415, 10.002889, 9.999772 
1.9147183e+3, 1.2271862e+2, -1780970.4, -1874594.0, -199935.13, 0.13818479, 0.58897495, -1622440.0, 114988.41, 0.18042894, 10.000166, 9.998865 
1.9147587e+3, 1.3272795e+2, -1566236.4, -1195690.0, 95847.46, -0.1045713, 1.1401184, -1172365.8, 466964.66, 0.12358676, 9.998461, 10.004037 
1.9148007e+3, 1.4272419e+2, -1855062.1, -1620205.9, -6677.9478, -0.041761708, 0.5218885, -1620016.1, -78654.48, 0.069141634, 9.997415, 10.000536 
1.9148396e+3, 1.5272461e+2, -1660871.4, -1542772.3, -37770.703, 0.05394984, 0.5491802, -1531725.6, -88364.945, 0.028615344, 9.998363, 9.999937 
1.9148788e+3, 1.6272552e+2, -1430906.8, -1316855.4, 19420.023, 0.10460887, 0.6436241, -1313639.4, 31714.41, 0.0073205116, 9.998983, 10.000517 
1.9149195e+3, 1.7272769e+2, -1315531.5, -1156313.4, 77558.51, 0.14504375, 0.7548127, -1124778.8, 122552.8, 0.00070924795, 9.998894, 10.000976 
1.9149594e+3, 1.827284e+2, -1345437.6, -1270415.6, 3301.2708, 0.17267147, 0.7964658, -1270270.6, -120947.33, 0.0000023137907, 9.998653, 9.999646 
1.9149972e+3, 1.9272615e+2, -1345542.8, -1241306.0, -53644.598, 0.15786082, 0.6146126, -1218630.9, -167286.77, 0.0, 9.998082, 9.999444 
1.9150364e+3, 2.0272444e+2, -1272744.8, -1198357.8, 21258.477, 0.17335236, 0.53245497, -1192711.1, -239350.25, 0.0, 9.998085, 9.999068 
1.9150794e+3, 2.1272467e+2, -982935.6, -993382.7, 64199.414, 0.28574803, 0.6259474, -923747.6, -68386.12, 0.0, 9.999346, 9.999189 
1.9151208e+3, 2.2272392e+2, -798637.06, -887732.7, 1849.5496, 0.29376447, 0.6612313, -798598.7, -41228.805, 0.0, 10.0000725, 9.998903 
1.9151582e+3, 2.3272121e+2, -754670.94, -801308.0, -17485.896, 0.05398636, 0.47659674, -748843.1, -89449.65, 0.0, 9.999654, 9.999017 
1.9151966e+3, 2.4271978e+2, -669958.8, -655653.0, -4100.9434, -0.111051485, 0.43270186, -654560.8, -93155.64, 0.0, 9.999318, 9.999506 
1.9152375e+3, 2.5272182e+2, -514089.53, -483156.88, 52900.414, -0.06876705, 0.6361636, -443508.22, 19877.39, 0.0, 9.999536, 9.999901 
1.9152781e+3, 2.6272216e+2, -530455.2, -696546.56, 61399.473, -0.019824903, 0.7857135, -510222.22, -144837.72, 0.000000038925435, 9.999826, 9.99764 
1.9153179e+3, 2.7271894e+2, -397761.28, -633172.6, 26278.537, -0.009793742, 0.72204584, -394863.5, -127439.63, 0.000005437274, 10.000287, 9.997175 
1.9153567e+3, 2.8271717e+2, -118147.664, -101550.59, -48179.27, -0.047165066, 0.7287002, -60960.402, 108481.93, 0.00006527873, 10.000031, 10.000287 
1.9153935e+3, 2.9271853e+2, -176380.27, 53418.88, 21208.281, -0.11544947, 0.70736474, 55359.81, 126775.51, 0.00029241332, 9.998413, 10.001442 
1.9154318e+3, 3.0271646e+2, -399285.28, -518409.78, 151010.6, -0.15313455, 0.53426653, -296514.97, -296514.97, 0.00076916284, 9.998645, 9.997078 
1.9154765e+3, 3.127135e+2, 62404.508, -429935.4, 70249.57, 0.1890003, 0.6086323, 72231.914, 72231.914, 0.001457183, 10.002393, 9.995865 
1.9247174e+3, 1.2267721e+2, -2106766.5, -2064821.9, 27766.457, 0.15733527, 0.53046125, -2050997.4, -313163.56, 0.18987963, 9.997955, 9.9985695 
1.9247568e+3, 1.3268766e+2, -1695350.4, -1198667.6, 47729.63, -0.06801387, 1.1453938, -1194122.6, 445602.28, 0.13060497, 9.997208, 10.004651 
1.9247971e+3, 1.4268333e+2, -1941730.6, -1630648.8, -41593.387, -0.08671525, 0.42307812, -1625183.5, -83422.586, 0.07352615, 9.996694, 10.00081 
1.9248381e+3, 1.5268494e+2, -1665530.0, -1524400.5, -32678.256, 0.077824265, 0.5506368, -1517201.3, -73453.11, 0.030745408, 9.99826, 10.000104 
1.9248785e+3, 1.6268632e+2, -1402704.0, -1312358.0, -6183.871, 0.17675793, 0.6859973, -1311936.6, 33799.906, 0.008026891, 9.999232, 10.000422 
1.9249184e+3, 1.7268749e+2, -1333096.8, -1184849.6, -43175.664, 0.17232749, 0.7126355, -1173191.9, 74533.19, 0.0008187495, 9.998865, 10.000794 
1.9249581e+3, 1.8268773e+2, -1340685.5, -1266089.9, -113931.016, 0.17841479, 0.7187228, -1183506.9, -33785.0, 0.0000031359323, 9.998675, 9.99967 
1.9249958e+3, 1.9268624e+2, -1141975.1, -1130623.1, -79821.39, 0.16299997, 0.6049088, -1056276.1, -4541.314, 0.0, 9.999416, 9.999562 
1.9250354e+3, 2.0268498e+2, -1024556.8, -1094917.3, 86027.14, 0.18122853, 0.56247455, -966794.44, -13047.099, 0.0, 9.999863, 9.99892 
1.9250788e+3, 2.126848e+2, -930717.94, -993666.0, 96099.7, 0.2821476, 0.638019, -861069.44, -5316.0264, 0.0, 9.999827, 9.998951 
1.9251205e+3, 2.226841e+2, -862229.44, -901223.1, 4084.8772, 0.30263436, 0.68517596, -861806.1, -104043.555, 0.0, 9.999574, 9.999047 
1.9251579e+3, 2.3268236e+2, -840273.75, -813065.2, -2976.7576, 0.100490816, 0.5757082, -812743.3, -152966.4, 0.0, 9.998937, 9.999284 
1.9251962e+3, 2.426811e+2, -745580.44, -682959.75, 58205.99, -0.053419575, 0.5279642, -648177.1, -86390.45, 0.0, 9.998762, 9.999583 
1.9252369e+3, 2.526815e+2, -461133.97, -461607.9, 15167.581, -0.09152777, 0.5706413, -446201.5, 17579.582, 0.0, 9.999902, 9.99988 
1.9252774e+3, 2.626814e+2, -424163.78, -566128.25, -30989.328, -0.06753074, 0.6486618, -417694.0, -51910.957, 0.000000047147957, 10.000223, 9.9983425 
1.9253178e+3, 2.726806e+2, -569975.75, -608767.0, 32662.576, 0.033157475, 0.74040824, -551384.06, -283586.03, 0.0000043683804, 9.998655, 9.998124 
1.9253568e+3, 2.826801e+2, -396049.22, -274788.34, 47328.887, 0.061465852, 0.82600194, -258502.75, -88698.266, 0.000052619915, 9.998328, 9.9999 
1.9253936e+3, 2.9267985e+2, 161150.92, 117523.1, -109805.17, -0.06925484, 0.72750145, 251288.0, 323083.1, 0.00024219825, 10.001151, 10.000566 
1.9254321e+3, 3.026761e+2, 171225.52, -239677.23, -31912.486, -0.16966261, 0.4465322, 173689.22, 173689.22, 0.00065834424, 10.002542, 9.99712 
1.9254784e+3, 3.1267503e+2, -122622.14, -470458.22, 143026.58, 0.24394299, 0.6813709, -71364.51, -71364.51, 0.0012847214, 10.000865, 9.996346 
1.934715e+3, 1.226382e+2, -2097516.3, -2048321.0, 148497.61, 0.10330119, 0.52357554, -1922397.6, -184193.77, 0.1997211, 9.997959, 9.998684 
1.934754e+3, 1.3264222e+2, -1792988.1, -1366411.5, 11813.562, -0.07343941, 0.61187005, -1366084.5, 274078.78, 0.13795441, 9.9971485, 10.003376 
1.9347954e+3, 1.4264166e+2, -1924859.6, -1597349.5, -11001.677, 0.058075216, 0.32995865, -1596980.4, -54814.246, 0.07814733, 9.996697, 10.001036 
1.9348359e+3, 1.5264481e+2, -1619896.3, -1434980.8, 37748.363, 0.030481791, 0.5546069, -1427571.6, 16564.982, 0.033007, 9.998272, 10.000719 
1.9348764e+3, 1.626465e+2, -1444376.9, -1408359.9, -11000.668, 0.02987305, 0.707925, -1405265.8, -59143.277, 0.008786739, 9.999272, 9.999743 
1.9349174e+3, 1.7264494e+2, -1412538.0, -1350959.1, -55427.12, 0.1752412, 0.5739687, -1318343.9, -70201.7, 0.00094156526, 9.998866, 9.999659 
1.9349574e+3, 1.8264414e+2, -1274513.6, -1136395.4, -101060.8, 0.23678508, 0.51299894, -1083051.8, 67099.94, 0.0000044945964, 9.998706, 10.000545 
1.9349946e+3, 1.9264595e+2, -1042191.25, -916664.3, -43854.734, 0.08856278, 0.5834148, -902860.9, 149268.38, 0.0, 9.999387, 10.001045 
1.9350335e+3, 2.0264676e+2, -1034839.75, -1114377.6, 83538.695, 0.0032477328, 0.6623836, -982086.9, -27966.809, 0.0, 9.999845, 9.998801 
1.9350767e+3, 2.1264549e+2, -988898.06, -1095042.5, 100144.96, 0.10418215, 0.6888584, -928631.56, -72491.35, 0.0, 9.999738, 9.998303 
1.9351186e+3, 2.2264478e+2, -855019.56, -849557.4, -19983.064, 0.16414437, 0.759317, -832119.6, -73967.44, 0.0, 9.999419, 9.999473 
1.9351569e+3, 2.3264594e+2, -802700.2, -707297.0, -21510.496, 0.10706473, 0.8674545, -702671.3, -42533.02, 0.0, 9.998825, 10.000056 
1.9351958e+3, 2.4264535e+2, -816786.8, -812403.9, 76977.47, 0.025662314, 0.87036943, -737586.7, -175445.03, 0.0, 9.998675, 9.998743 
1.9352368e+3, 2.5264072e+2, -576239.1, -663494.44, 67792.88, -0.08905571, 0.5361388, -539248.9, -75063.89, 0.0, 9.999747, 9.998568 
1.9352774e+3, 2.626382e+2, -335355.6, -336091.0, -75054.805, -0.09600162, 0.390777, -260667.61, 105540.12, 0.00000001782158, 10.00003, 10.000014 
1.9353172e+3, 2.7264157e+2, -399054.34, -229645.63, -25136.984, 0.117085055, 0.6480347, -225994.47, 42178.87, 0.0000032439186, 9.9985695, 10.00076 
1.9353564e+3, 2.8264287e+2, -546595.7, -598824.9, 97080.99, 0.17901753, 0.83543485, -472178.25, -302018.5, 0.000042492127, 9.998354, 9.997673 
1.9353946e+3, 2.9263848e+2, -126812.22, -436587.25, 12543.028, -0.09693552, 0.6724113, -126305.17, -54100.73, 0.00020128557, 10.000963, 9.996849 
1.9354337e+3, 3.0263358e+2, 238743.81, -14414.02, -69827.055, -0.28242266, 0.43985176, 256726.44, 256726.44, 0.0005611698, 10.002178, 9.998843 
1.9354774e+3, 3.1263524e+2, 111254.65, 123125.055, 158922.98, 0.052348994, 0.6140948, 276223.63, 276223.63, 0.0011167474, 10.000445, 10.000608 
1.9447134e+3, 1.2259852e+2, -2128557.8, -2023365.1, 84389.25, 0.17319901, 0.5619017, -1976523.5, -237934.67, 0.20999403, 9.997573, 9.999038 
1.9447513e+3, 1.3259995e+2, -1755434.5, -1395066.3, -33079.96, -0.065670565, 0.4224055, -1392054.9, 248522.25, 0.14565058, 9.997603, 10.00295 
1.9447944e+3, 1.4260244e+2, -1698065.9, -1464203.1, 37698.773, 0.22635034, 0.46359545, -1458276.3, 84274.66, 0.083007626, 9.998102, 10.001334 
1.9448347e+3, 1.5260454e+2, -1554115.5, -1345238.4, 74897.55, 0.08341389, 0.53049165, -1321158.3, 123370.164, 0.03539992, 9.998457, 10.001273 
1.944875e+3, 1.6260564e+2, -1578361.0, -1475995.0, 12320.199, 0.010676765, 0.5890488, -1474533.0, -128014.75, 0.009600047, 9.998353, 9.999728 
1.9449157e+3, 1.7260477e+2, -1581000.9, -1450067.4, 15872.542, 0.17722471, 0.5399333, -1448170.6, -199637.25, 0.0010784023, 9.997782, 9.999497 
1.9449557e+3, 1.8260442e+2, -1423087.5, -1225123.1, 46305.863, 0.25952554, 0.53696364, -1214827.3, -64286.8, 0.0000066792873, 9.997769, 10.00038 
1.9449939e+3, 1.9260581e+2, -1051736.0, -938078.75, -12169.669, 0.084431686, 0.5819812, -936790.3, 115732.5, 0.0, 9.99941, 10.000878 
1.9450332e+3, 2.0260648e+2, -965777.25, -1047475.06, 4916.876, -0.028078193, 0.64601046, -965482.4, -10967.464, 0.0, 10.000185, 9.999088 
1.9450752e+3, 2.1260567e+2, -1070067.8, -1088663.4, 64696.19, 0.016869234, 0.6789646, -1014004.7, -157475.63, 0.0, 9.998981, 9.998709 
1.9451165e+3, 2.2260523e+2, -995519.9, -923012.75, 28748.754, 0.066852145, 0.7534228, -912997.44, -154459.61, 0.0, 9.998471, 9.999426 
1.9451562e+3, 2.3260619e+2, -656712.56, -658015.25, -36744.113, 0.09621062, 0.8575259, -620614.0, 39913.77, 0.0, 9.999912, 9.999876 
1.945196e+3, 2.4260563e+2, -582692.4, -713067.0, 24410.293, 0.09355855, 0.87883514, -578271.9, -15739.437, 0.0, 10.000351, 9.998618 
1.9452366e+3, 2.526015e+2, -777666.5, -778449.4, 69543.59, 0.002918188, 0.610447, -708513.25, -243941.88, 0.0, 9.99843, 9.998421 
1.9452772e+3, 2.6259896e+2, -656598.44, -491762.28, -15881.718, -0.009134392, 0.46941587, -490246.03, -123651.9, 0.000000002142629, 9.997825, 10.000007 
1.9453168e+3, 2.7260086e+2, -80253.59, -83655.36, -141897.22, 0.10558399, 0.5818609, 59952.938, 328524.03, 0.0000029419668, 10.000759, 10.000727 
1.945356e+3, 2.8260115e+2, -3266.409, -364255.78, -83835.08, 0.1017645, 0.6815614, 15253.1045, 185819.78, 0.000037529444, 10.002201, 9.997434 
1.9453947e+3, 2.9259783e+2, -299207.97, -548434.5, 11513.8, -0.121869735, 0.66215324, -298677.2, -226072.86, 0.00017698373, 9.999894, 9.996598 
1.9454351e+3, 3.025944e+2, -248389.19, -217492.14, 62011.1, -0.15222317, 0.5791013, -169034.22, -169034.22, 0.00049046375, 9.998704, 9.999107 
1.945477e+3, 3.125947e+2, 176197.66, 215926.77, 84340.49, -0.027176278, 0.5879862, 282710.47, 282710.47, 0.00097077974, 10.000586, 10.001185 
1.9547115e+3, 1.22557946e+2, -2071303.4, -1927828.3, -79221.79, 0.19357233, 0.6353874, -1892690.4, -153698.64, 0.22070916, 9.997656, 9.999658 
1.9547485e+3, 1.3256106e+2, -1710434.9, -1331169.6, -8915.098, -0.10700295, 0.6087332, -1330960.3, 310003.8, 0.15369554, 9.997653, 10.003467 
1.9547936e+3, 1.4256588e+2, -1653028.5, -1399892.5, 45647.883, 0.330203, 0.8318859, -1391912.4, 151001.86, 0.08810495, 9.9981985, 10.001775 
1.9548342e+3, 1.525641e+2, -1523152.4, -1287949.8, 89945.29, 0.1727363, 0.4724566, -1257496.3, 187427.92, 0.037922986, 9.998472, 10.001681 
1.9548738e+3, 1.6256365e+2, -1519379.6, -1365195.1, -8511.628, 0.035541765, 0.3233563, -1364726.8, -17801.824, 0.010466628, 9.9984, 10.000466 
1.954913e+3, 1.72567e+2, -1521349.6, -1333496.3, -1804.0112, 0.11841671, 0.6140863, -1333478.9, -84580.44, 0.0012294218, 9.997805, 10.000288 
1.9549526e+3, 1.8256854e+2, -1499217.1, -1394259.6, 84818.2, 0.16572452, 0.79632187, -1346998.0, -196109.64, 0.000009908067, 9.997819, 9.999194 
1.9549935e+3, 1.9256583e+2, -1181263.1, -1205048.9, 57654.402, 0.09412966, 0.60737514, -1134287.8, -81372.4, 0.0, 9.999397, 9.999056 
1.955034e+3, 2.0256402e+2, -932662.06, -961462.5, -23804.984, 0.01566831, 0.51216686, -919240.6, 35692.78, 0.0, 10.0001135, 9.999713 
1.9550736e+3, 2.1256521e+2, -984009.1, -885409.2, 22476.793, -0.043014295, 0.61317503, -880527.1, -23605.746, 0.0, 9.998881, 10.00015 
1.9551137e+3, 2.225654e+2, -1042942.8, -994402.25, 56780.85, -0.0651593, 0.67647576, -956922.1, -198001.88, 0.0, 9.998351, 9.998995 
1.955155e+3, 2.325633e+2, -750948.7, -818679.75, 27804.348, 0.006320825, 0.5712601, -740996.94, -80053.52, 0.0, 9.999772, 9.998836 
1.9551961e+3, 2.4256206e+2, -576391.56, -663742.6, -24897.082, 0.06403158, 0.5740946, -569793.6, -6835.9497, 0.0, 10.000194, 9.999032 
1.955236e+3, 2.525636e+2, -724935.2, -651639.7, 1303.2191, 0.111407906, 0.7852769, -651616.5, -186673.55, 0.0, 9.998368, 9.999312 
1.9552764e+3, 2.625634e+2, -768265.44, -719912.75, 45863.3, 0.11495427, 0.8861234, -692243.75, -325299.78, 0.00000003752054, 9.997797, 9.99846 
1.9553159e+3, 2.725587e+2, -263031.3, -426812.78, -12895.277, -0.058975037, 0.55640835, -262022.22, 6965.6987, 0.0000033154865, 10.000605, 9.998442 
1.9553548e+3, 2.8255546e+2, 43504.7, -202872.19, -133998.63, -0.24074382, 0.39930508, 102335.55, 273353.72, 0.00003554113, 10.001924, 9.998677 
1.9553936e+3, 2.9255778e+2, -139207.44, -181237.6, -70816.29, -0.21925059, 0.7105184, -86353.85, -13357.289, 0.00016173386, 9.999758, 9.999179 
1.9554365e+3, 3.0255818e+2, -324814.7, -366387.6, 74957.57, 0.08447345, 0.8845887, -267814.8, -267814.8, 0.0004325806, 9.998642, 9.998126 
1.9554777e+3, 3.12553e+2, -53192.273, -186007.05, 162559.72, -0.028922465, 0.5441458, 56001.035, 56001.035, 0.00082952436, 10.000297, 9.998549 
1.9647086e+3, 1.2251858e+2, -2133651.3, -1929630.8, -63952.76, 0.17526966, 0.6670109, -1911241.5, -171864.77, 0.23177752, 9.997129, 9.99989 
1.9647467e+3, 1.3252096e+2, -1629204.0, -1322460.8, 83262.0, -0.08031054, 0.5863327, -1301317.5, 340039.28, 0.1620495, 9.998382, 10.003203 
1.9647922e+3, 1.4252643e+2, -1536546.1, -1369889.4, 58317.895, 0.31743845, 0.899802, -1351509.4, 191792.14, 0.093428105, 9.999133, 10.001543 
1.9648324e+3, 1.5252411e+2, -1597650.0, -1341085.8, 33431.14, 0.17889318, 0.5054925, -1336801.1, 108516.28, 0.04057487, 9.998058, 10.001485 
1.9648719e+3, 1.6252333e+2, -1598737.8, -1377634.9, -66847.73, 0.05719572, 0.32562405, -1358995.6, -11674.389, 0.011385711, 9.99775, 10.000694 
1.9649115e+3, 1.7252697e+2, -1218525.0, -1143561.4, -94319.79, 0.10380348, 0.6096073, -1079548.8, 169740.78, 0.0013940044, 9.999706, 10.000674 
1.9649516e+3, 1.8252861e+2, -1095137.9, -1228998.9, -8444.457, 0.14229801, 0.786571, -1094607.3, 56670.023, 0.000014255441, 10.000714, 9.998938 
1.9649927e+3, 1.925255e+2, -1215020.0, -1273907.6, 45209.902, 0.09691684, 0.60525095, -1190511.4, -137201.77, 0.0, 9.999395, 9.998584 
1.9650333e+3, 2.0252346e+2, -1127937.6, -1032265.2, 21563.36, 0.03866557, 0.5056741, -1027629.7, -72299.11, 0.0, 9.998653, 9.99994 
1.9650728e+3, 2.1252465e+2, -840204.1, -764612.56, -13683.411, -0.03357256, 0.5623773, -762211.9, 95104.664, 0.0, 9.999631, 10.000627 
1.965113e+3, 2.2252494e+2, -787059.1, -865295.0, 11581.639, -0.06532928, 0.6048783, -785380.6, -26067.49, 0.0, 10.000084, 9.999051 
1.965154e+3, 2.3252289e+2, -824390.9, -870693.7, 37221.82, -0.045422357, 0.5156487, -803707.94, -142370.78, 0.0, 9.999316, 9.998711 
1.965195e+3, 2.425217e+2, -715678.1, -707787.0, 19436.104, 0.0022552416, 0.52338296, -691900.0, -128548.73, 0.0, 9.999129, 9.999243 
1.9652356e+3, 2.5252345e+2, -390861.3, -461415.03, -13939.65, 0.119676396, 0.72800153, -388207.06, 77125.93, 0.0, 10.000531, 9.999579 
1.9652763e+3, 2.6252326e+2, -318677.5, -574457.94, 67942.54, 0.16963044, 0.8371304, -301750.28, 65584.055, 0.00000006167767, 10.0012, 9.997817 
1.965316e+3, 2.725183e+2, -433750.84, -614441.2, 85804.8, -0.07034045, 0.57829213, -399497.8, -130113.266, 0.000003603985, 9.999895, 9.997491 
1.9653547e+3, 2.825149e+2, -378354.88, -408446.4, -25203.477, -0.27860638, 0.46262005, -364047.78, -192628.42, 0.00003406456, 9.999045, 9.998647 
1.9653939e+3, 2.925169e+2, -60482.7, -120571.33, -131157.38, -0.17964122, 0.7212917, 44027.508, 117427.19, 0.0001486936, 10.000194, 9.999395 
1.9654381e+3, 3.025169e+2, 94136.3, -178858.08, 925.6336, 0.24567695, 0.84929335, 94139.43, 94139.43, 0.00038063264, 10.001588, 9.997998 
1.9654785e+3, 3.1251222e+2, 76126.82, -214408.11, 67858.72, -0.035701305, 0.6032195, 91194.766, 91194.766, 0.0006981545, 10.001543, 9.997779 
1.9747038e+3, 1.2248009e+2, -2126066.0, -1941507.6, -194875.2, -0.061412502, 0.5818187, -1818167.3, -78420.98, 0.24301729, 9.997242, 9.999762 
1.9747455e+3, 1.324796e+2, -1716598.3, -1477918.4, 152853.22, -0.03604589, 0.3261711, -1403335.4, 238420.27, 0.17062773, 9.998406, 10.001981 
1.974789e+3, 1.42484e+2, -1590771.5, -1491973.8, 37552.395, 0.085966565, 0.6453308, -1479320.9, 64392.508, 0.09895461, 9.999207, 10.000593 
1.9748291e+3, 1.5248461e+2, -1654686.6, -1466695.6, -5429.443, 0.033905942, 0.631475, -1466539.0, -20830.754, 0.04335473, 9.998098, 10.00058 
1.9748692e+3, 1.6248475e+2, -1608159.6, -1408318.9, -26716.709, -0.0018844141, 0.611796, -1404808.8, -57101.62, 0.012356995, 9.997801, 10.000459 
1.974911e+3, 1.7248462e+2, -1214473.0, -1141489.1, -11129.963, 0.07924617, 0.52530915, -1139829.6, 109878.23, 0.0015709848, 9.999735, 10.000677 
1.9749522e+3, 1.8248443e+2, -1042538.8, -1129430.4, -35653.566, 0.11817901, 0.4960054, -1029782.1, 121927.09, 0.000019593592, 10.000755, 9.999602 
1.9749914e+3, 1.924847e+2, -1157920.4, -1149415.4, -1894.481, 0.0229407, 0.56746125, -1149012.5, -95305.45, 0.0, 9.999371, 9.99945 
1.9750312e+3, 2.0248465e+2, -1148743.3, -1059452.3, 33906.93, -0.046127472, 0.62067825, -1048036.2, -92328.266, 0.0, 9.998589, 9.9997835 
1.9750726e+3, 2.1248408e+2, -891020.44, -845405.94, 31290.98, -0.016219044, 0.5455236, -829492.44, 28221.201, 0.0, 9.999525, 10.000123 
1.9751135e+3, 2.2248383e+2, -778418.25, -813635.0, -9885.466, -0.017400974, 0.5478192, -775833.1, -16116.107, 0.0, 9.999935, 9.999476 
1.9751526e+3, 2.3248476e+2, -787517.8, -770156.94, 12532.548, -0.11377684, 0.6833129, -763592.25, -101881.52, 0.0, 9.999212, 9.999449 
1.9751926e+3, 2.4248444e+2, -737832.44, -728260.5, 47067.613, -0.1577808, 0.73436004, -685736.2, -122021.86, 0.0, 9.999012, 9.999164 
1.9752347e+3, 2.5248125e+2, -427566.0, -510581.75, 47217.844, -0.0218501, 0.47439787, -406205.53, 59534.445, 0.0, 10.000414, 9.999299 
1.9752766e+3, 2.6247877e+2, -341540.25, -577270.06, 33182.51, 0.07414493, 0.36893478, -336958.38, 30804.094, 0.000000055759365, 10.00101, 9.997887 
1.9753164e+3, 2.7247944e+2, -439635.47, -590766.25, 40015.22, -0.015591834, 0.6473583, -429694.44, -159930.22, 0.0000036492006, 9.999755, 9.997711 
1.9753553e+3, 2.824791e+2, -478922.25, -598289.25, -18745.424, -0.12866485, 0.87078935, -476047.7, -304273.84, 0.00003270161, 9.998953, 9.9973955 
1.9753951e+3, 2.9247528e+2, -184213.94, -365737.53, -61163.227, -0.09574919, 0.71662754, -165528.75, -91717.21, 0.00013867494, 10.000144, 9.997736 
1.9754396e+3, 3.0247125e+2, 75090.02, -165583.1, 21069.01, 0.21598037, 0.5339721, 76920.52, 76920.52, 0.0003432849, 10.001373, 9.998193 
1.975481e+3, 3.1247213e+2, 70767.12, -108580.47, -13405.421, 0.05566684, 0.7647865, 71763.57, 71763.57, 0.0006047232, 10.001084, 9.998705 
1.9847012e+3, 1.2244071e+2, -2098935.5, -2043563.6, -298775.03, -0.07991177, 0.5958117, -1771194.5, -31063.57, 0.25424254, 9.997937, 9.998727 
1.9847448e+3, 1.3243802e+2, -1682973.5, -1522305.0, 68725.01, 0.041320268, 0.19465576, -1496919.3, 145243.6, 0.17932345, 9.998916, 10.001341 
1.9847867e+3, 1.4244294e+2, -1691657.1, -1574415.5, -36278.3, -0.03734979, 0.61984384, -1564097.8, -19981.572, 0.104643695, 9.998675, 10.000246 
1.9848269e+3, 1.5244417e+2, -1565271.9, -1446356.9, -54352.61, -0.014836391, 0.69151986, -1425257.5, 20849.467, 0.046255346, 9.998816, 10.000377 
1.9848676e+3, 1.624444e+2, -1475322.8, -1368450.5, 13067.65, 0.02939638, 0.6992222, -1366875.9, -18769.436, 0.013380272, 9.998823, 10.000232 
1.9849102e+3, 1.724435e+2, -1384983.1, -1250354.9, 16695.58, 0.097665295, 0.5595187, -1248315.4, 1799.102, 0.0017591557, 9.99868, 10.000436 
1.984952e+3, 1.8244304e+2, -1329862.8, -1214331.1, -57618.7, 0.13563244, 0.4989851, -1190507.8, -38390.223, 0.0000256483, 9.998542, 10.000087 
1.9849908e+3, 1.9244394e+2, -1194207.4, -1087138.6, -60062.695, 0.06401791, 0.5612744, -1060215.1, -6109.227, 0.0, 9.998761, 10.0001745 
1.9850303e+3, 2.0244418e+2, -1141632.5, -1085600.1, 7039.8984, 0.009473268, 0.6107814, -1084729.3, -128626.984, 0.0, 9.99877, 9.999512 
1.9850716e+3, 2.1244314e+2, -1089744.8, -1010945.06, -7684.443, -0.0038291037, 0.54742074, -1010202.7, -152087.3, 0.0, 9.998468, 9.999491 
1.9851124e+3, 2.2244276e+2, -974975.9, -871074.25, -55529.52, -0.023960382, 0.5652489, -846982.9, -86861.38, 0.0, 9.998427, 9.999805 
1.9851519e+3, 2.3244452e+2, -761015.75, -680548.4, -57245.24, -0.0768759, 0.7212153, -650812.3, 11292.092, 0.0, 9.999075, 10.000119 
1.9851923e+3, 2.4244459e+2, -674499.0, -712438.4, 5745.4565, -0.09578433, 0.77498686, -673648.0, -109545.2, 0.0, 9.999533, 9.999009 
1.9852343e+3, 2.524404e+2, -571594.9, -630600.1, -9052.445, -0.052319653, 0.45799613, -570237.3, -104096.06, 0.0, 9.999652, 9.998839 
1.985276e+3, 2.6243764e+2, -485323.56, -569697.9, -45091.24, -0.004352098, 0.32769006, -465761.4, -97593.83, 0.00000004684117, 9.99969, 9.998573 
1.9853161e+3, 2.724399e+2, -414976.53, -470986.47, -18776.977, 0.013259683, 0.6700731, -409264.25, -139114.31, 0.000003631824, 9.99944, 9.9986925 
1.9853562e+3, 2.8244022e+2, -364655.94, -581990.8, 71724.836, 0.021650635, 0.9137728, -343119.44, -170968.64, 0.000030883682, 9.999913, 9.997039 
1.9853973e+3, 2.9243466e+2, 82105.42, -334716.06, 95657.05, 0.021545803, 0.6650089, 103009.55, 177217.98, 0.00012816787, 10.0024, 9.996859 
1.9854404e+3, 3.0243036e+2, 349955.3, 22308.273, 113011.125, 0.1062218, 0.48647517, 385153.56, 385153.56, 0.00031301894, 10.003004, 9.998698 
1.9854818e+3, 3.124326e+2, -236065.13, -127061.48, -77326.836, 0.17294112, 0.76611924, -86959.45, -86959.45, 0.0005439667, 9.998394, 9.999879 
1.9947004e+3, 1.224005e+2, -2236777.8, -2344791.3, -119278.86, 0.021559227, 0.73047173, -2159848.8, -419317.56, 0.26535824, 9.998001, 9.996625 
1.9947442e+3, 1.3239615e+2, -1677991.9, -1529489.5, 61533.926, 0.08206412, 0.19710168, -1507305.9, 135274.27, 0.18805622, 9.998978, 10.001263 
1.9947846e+3, 1.4240329e+2, -1655959.5, -1520967.4, -43698.773, -0.12412807, 0.8361782, -1508056.4, 36453.996, 0.11045076, 9.99875, 10.000607 
1.9948258e+3, 1.5240267e+2, -1523151.1, -1369826.3, -42711.94, -0.02870476, 0.6784388, -1358730.8, 87784.086, 0.04926506, 9.998847, 10.000912 
1.9948672e+3, 1.6240199e+2, -1479448.5, -1389079.9, 2687.3196, 0.078274995, 0.5659523, -1389000.0, -40478.68, 0.014456319, 9.998874, 10.000067 
1.9949092e+3, 1.724035e+2, -1417050.6, -1320391.8, 12858.888, 0.107212, 0.70987576, -1318710.4, -68200.07, 0.0019582892, 9.998689, 9.999952 
1.9949505e+3, 1.8240431e+2, -1305351.6, -1167469.3, -57502.785, 0.12683514, 0.79594445, -1146635.9, 5867.1245, 0.000032105352, 9.998564, 10.000397 
1.9949907e+3, 1.9240311e+2, -1154580.6, -996668.94, -46662.49, 0.16607678, 0.5926671, -983911.06, 70596.16, 0.0, 9.998734, 10.000805 
1.9950305e+3, 2.0240197e+2, -1176138.5, -1144700.1, -7711.5576, 0.13959448, 0.4746666, -1142910.5, -186395.95, 0.0, 9.9987135, 9.999135 
1.9950697e+3, 2.1240178e+2, -1153306.5, -1124337.3, -13219.044, -0.052420095, 0.5649092, -1119212.0, -260689.14, 0.0, 9.998387, 9.998752 
1.9951096e+3, 2.2240177e+2, -976074.9, -848882.56, -40553.703, -0.1605604, 0.6590972, -837052.8, -76525.98, 0.0, 9.998316, 10.000012 
1.9951518e+3, 2.3240234e+2, -734157.4, -605394.8, -22013.291, -0.0004671976, 0.6447467, -601735.44, 60781.383, 0.0, 9.998983, 10.000682 
1.9951938e+3, 2.4240217e+2, -721697.1, -773394.2, 6586.703, 0.09049769, 0.64928, -720871.1, -156354.2, 0.0, 9.999373, 9.998668 
1.9952342e+3, 2.5240064e+2, -632695.5, -730312.56, 987.3237, -0.039153997, 0.65828127, -632685.56, -166147.02, 0.0, 9.999538, 9.998205 
1.9952744e+3, 2.6239955e+2, -428755.06, -420130.6, -55810.74, -0.13624185, 0.6893788, -368465.75, 86.26468, 0.000000042002604, 9.999553, 9.999667 
1.9953151e+3, 2.7239975e+2, -304897.28, -226810.28, -22043.178, -0.0476644, 0.66412294, -221017.45, 49523.945, 0.0000035134383, 9.999385, 10.00039 
1.9953567e+3, 2.823985e+2, -360303.44, -552565.2, 125099.99, 0.07479779, 0.6339464, -298665.0, -126115.78, 0.00002820436, 9.999825, 9.997285 
1.9954005e+3, 2.923946e+2, 25323.172, -390837.3, 202053.11, 0.08915525, 0.5638989, 107282.32, 181877.55, 0.00011358975, 10.002131, 9.996601 
1.9954407e+3, 3.023936e+2, 312248.47, 61632.945, -9292.948, -0.18221197, 0.7086882, 312592.56, 312592.56, 0.00027750974, 10.002508, 9.999202 
1.9954798e+3, 3.1239355e+2, -165872.55, 43745.973, -225132.92, 0.09387747, 0.6643889, 187270.8, 187270.8, 0.00048846455, 9.998309, 10.0010805 
2.0046994e+3, 1.223583e+2, -2096990.3, -2247428.3, -41544.29, 0.09828616, 0.8094874, -2086280.1, -345327.78, 0.27641812, 9.99881, 9.996903 
2.0047422e+3, 1.3235514e+2, -1665274.1, -1454310.0, 6653.8955, 0.008059622, 0.33027184, -1454100.3, 188885.98, 0.1968332, 9.998641, 10.002067 
2.0047839e+3, 1.4236264e+2, -1792548.4, -1561414.6, -33659.48, -0.0001887393, 0.93981993, -1556612.6, -11701.885, 0.11636926, 9.997723, 10.000788 
2.0048252e+3, 1.5236075e+2, -1620742.4, -1435500.0, -73328.11, 0.07784491, 0.66805524, -1409987.0, 36940.113, 0.05238356, 9.998261, 10.0007305 
2.0048666e+3, 1.6235927e+2, -1518930.9, -1416837.0, -62422.51, 0.1479173, 0.49077842, -1387246.8, -38305.586, 0.015589432, 9.998638, 9.999995 
2.0049073e+3, 1.7236166e+2, -1437725.0, -1336671.5, -41392.848, 0.06834176, 0.727146, -1321881.1, -70959.24, 0.0021699998, 9.998578, 9.999892 
2.0049481e+3, 1.8236299e+2, -1304953.1, -1174927.9, -74329.57, 0.050337873, 0.8729845, -1141190.6, 11719.679, 0.00003871999, 9.998608, 10.00032 
2.0049901e+3, 1.9236133e+2, -1076634.5, -970347.44, -118150.38, 0.21254578, 0.63323593, -893938.8, 160981.64, 0.0, 9.999325, 10.000697 
2.0050308e+3, 2.0236002e+2, -1031689.4, -1060252.0, -116508.32, 0.2687303, 0.5017007, -928590.4, 28339.928, 0.0, 9.999645, 9.999266 
2.0050688e+3, 2.1236049e+2, -1034363.6, -1041715.94, -75966.34, 0.0009251005, 0.63787776, -961984.56, -103053.3, 0.0, 9.999095, 9.99898 
2.005108e+3, 2.2236057e+2, -920827.06, -824586.7, -29405.277, -0.15088144, 0.7267462, -816313.44, -55380.297, 0.0, 9.998717, 9.999985 
2.005151e+3, 2.3235954e+2, -720195.9, -611299.9, -61676.16, 0.032016214, 0.5689535, -583476.8, 79460.03, 0.0, 9.999151, 10.000558 
2.0051937e+3, 2.4235883e+2, -687209.3, -736140.94, -56544.383, 0.16101916, 0.5219232, -650064.7, -85123.055, 0.0, 9.999492, 9.998881 
2.0052342e+3, 2.5235972e+2, -649866.5, -705800.56, -15165.688, 0.047595434, 0.74345976, -646019.2, -179076.44, 0.0, 9.999255, 9.998522 
2.0052746e+3, 2.6236004e+2, -418030.25, -384045.53, -9715.479, -0.06920432, 0.8834188, -381464.16, -12520.722, 0.000000029896977, 9.999505, 9.9999275 
2.0053151e+3, 2.7235812e+2, 16469.666, -53167.703, -78018.84, -0.06952092, 0.62953335, 67086.81, 338035.56, 0.0000031274246, 10.001514, 10.000554 
2.0053576e+3, 2.823556e+2, 55695.324, -283917.03, -13925.184, 0.062051486, 0.4415698, 56265.344, 229231.05, 0.000025154262, 10.002386, 9.997898 
2.0054018e+3, 2.9235366e+2, -359097.03, -502517.1, 67518.77, 0.18295828, 0.49977973, -332312.84, -257319.03, 0.00009776422, 9.99918, 9.997255 
2.0054406e+3, 3.0235437e+2, -413228.44, -264036.94, -69046.336, -0.16904989, 0.7715135, -236986.63, -236986.63, 0.00024032156, 9.997411, 9.999429 
2.0054805e+3, 3.1235272e+2, 382976.1, 319554.94, -269646.34, 0.16169378, 0.5665111, 622770.06, 622770.06, 0.00043283863, 10.002003, 10.00122 
2.0146984e+3, 1.22312985e+2, -1873855.1, -1796051.0, 80443.16, 0.073198624, 0.7452753, -1745597.3, -4191.057, 0.28771394, 9.998873, 9.999968 
2.0147382e+3, 1.3231511e+2, -1556407.4, -1242018.9, -28569.027, -0.27249324, 0.6127157, -1239443.9, 403936.2, 0.20582092, 9.998649, 10.003922 
2.0147845e+3, 1.4232072e+2, -1791157.4, -1560237.1, -41889.637, 0.26643664, 0.90923166, -1552873.0, -7553.3315, 0.12247417, 9.997724, 10.000796 
2.0148252e+3, 1.5231833e+2, -1684109.1, -1564021.1, -44998.273, 0.24537851, 0.6612377, -1549031.0, -101686.625, 0.055639356, 9.998253, 9.999839 
2.0148654e+3, 1.6231635e+2, -1510912.5, -1411254.3, -64124.547, 0.1580366, 0.48779148, -1379874.4, -30509.37, 0.016791714, 9.998687, 10.000011 
2.0149045e+3, 1.7231785e+2, -1412824.9, -1284401.3, -40461.395, -0.07081854, 0.6083388, -1272716.6, -21366.01, 0.0023981123, 9.998578, 10.000251 
2.0149447e+3, 1.823189e+2, -1332879.8, -1241853.8, -63878.49, -0.16771486, 0.7198484, -1208932.8, -55591.91, 0.000045425786, 9.99864, 9.999848 
2.0149887e+3, 1.9231856e+2, -1136735.6, -1089675.8, -86382.586, 0.13584131, 0.6891406, -1023675.75, 31670.355, 0.0, 9.9993, 9.999892 
2.015031e+3, 2.0231842e+2, -995436.9, -971923.25, -131221.95, 0.30922663, 0.7001971, -851932.5, 105416.66, 0.0, 9.99959, 9.999898 
2.0150688e+3, 2.1231927e+2, -973201.75, -889583.25, -92606.62, 0.098293185, 0.77319217, -829785.4, 29555.352, 0.0, 9.998992, 10.000073 
2.0151077e+3, 2.22319e+2, -963270.7, -884378.5, -28866.271, -0.073295064, 0.771503, -874944.56, -113602.66, 0.0, 9.998588, 9.9996395 
2.0151496e+3, 2.3231599e+2, -787080.94, -741290.0, -35222.316, -0.033548858, 0.49282202, -722175.75, -58810.047, 0.0, 9.999097, 9.999699 
2.0151922e+3, 2.423145e+2, -656869.9, -641878.75, -58893.81, 0.041120563, 0.39339855, -590005.44, -24627.27, 0.0, 9.999368, 9.999583 
2.0152345e+3, 2.5231767e+2, -577255.8, -531659.2, -18029.945, 0.14121385, 0.7285782, -525391.4, -58037.453, 0.0, 9.99917, 9.999752 
2.0152758e+3, 2.6231903e+2, -474062.8, -476168.03, 35620.445, 0.10172058, 0.917857, -439479.4, -70136.234, 0.0000000091701935, 9.999396, 9.999351 
2.0153163e+3, 2.7231508e+2, -90055.164, -234645.97, 14384.14, -0.121880025, 0.57087463, -88638.09, 182733.38, 0.0000023642951, 10.001345, 9.99939 
2.0153584e+3, 2.8231186e+2, 68141.68, -200558.81, -88796.34, -0.110173754, 0.35543922, 94834.22, 268231.47, 0.000021595964, 10.002144, 9.998583 
2.0154014e+3, 2.923118e+2, -262566.06, -308949.8, -59884.973, 0.21313119, 0.473489, -221538.98, -146135.11, 0.000083873885, 9.999199, 9.998577 
2.0154396e+3, 3.0231243e+2, -436629.4, -299112.13, -3823.421, -0.020544587, 0.6668527, -299005.9, -299005.9, 0.00020821096, 9.997375, 9.999195 
2.0154822e+3, 3.1231242e+2, 279589.56, 208591.47, 100193.68, 0.101682596, 0.6760165, 350387.06, 350387.06, 0.00038267355, 10.001584, 10.000642 
2.0246978e+3, 1.2227057e+2, -1913533.6, -1663501.1, 222356.38, 0.20535803, 0.77049226, -1533426.4, 208400.58, 0.29983783, 9.997877, 10.001809 
2.0247349e+3, 1.3227354e+2, -1835137.9, -1372773.8, -46781.383, -0.35695595, 0.7167463, -1368088.0, 275700.97, 0.21537028, 9.996673, 10.003769 
2.024784e+3, 1.422763e+2, -1931896.4, -1653044.9, -102487.945, 0.49466136, 0.74115425, -1619429.3, -73672.62, 0.12892798, 9.996864, 10.000577 
2.0248242e+3, 1.5227583e+2, -1640366.0, -1588967.4, -66109.83, 0.30614564, 0.72366816, -1543737.4, -95971.17, 0.05909158, 9.998753, 9.999425 
2.024864e+3, 1.6227497e+2, -1331599.6, -1314843.3, -94809.125, 0.09824267, 0.6883765, -1228042.9, 121734.74, 0.018083457, 9.999879, 10.000103 
2.0249037e+3, 1.7227472e+2, -1296220.8, -1194999.1, -102281.89, -0.03719425, 0.60770553, -1131491.4, 120285.44, 0.0026487417, 9.9992485, 10.000537 
2.0249443e+3, 1.8227495e+2, -1304983.0, -1193977.4, -70501.086, -0.07062597, 0.6074917, -1159753.0, -5980.1167, 0.000052423693, 9.998678, 10.000157 
2.0249875e+3, 1.922766e+2, -1165475.9, -1070842.0, -14928.546, 0.12535226, 0.7408842, -1068542.9, -12782.003, 0.0, 9.998951, 10.000191 
2.0250298e+3, 2.0227775e+2, -1036391.1, -962703.4, -25171.986, 0.2545487, 0.8531196, -954925.56, 2826.5205, 0.0, 9.9991865, 10.00015 
2.0250684e+3, 2.1227767e+2, -894433.06, -826859.2, -67730.11, 0.1336661, 0.80539024, -784956.5, 74794.79, 0.0, 9.999423, 10.000291 
2.0251076e+3, 2.2227676e+2, -815352.0, -822636.8, -5566.838, 0.0138409985, 0.7311561, -812341.8, -50584.457, 0.0, 9.999652, 9.999544 
2.0251489e+3, 2.3227456e+2, -655994.0, -697300.56, 28052.633, -0.05867075, 0.55026644, -641811.8, 21962.904, 0.0, 10.000095, 9.99951 
2.0251912e+3, 2.4227345e+2, -494288.84, -558775.8, 10361.927, -0.032757297, 0.499886, -492664.75, 73118.75, 0.0, 10.000471, 9.999617 
2.0252346e+3, 2.5227538e+2, -349501.38, -411475.03, -40399.742, 0.16265906, 0.7004172, -329573.34, 138195.55, 0.0, 10.000694, 9.999838 
2.0252767e+3, 2.6227587e+2, -304544.3, -424448.56, -1219.8029, 0.20437893, 0.8076339, -304531.9, 65234.035, 0.000000001074916, 10.000675, 9.999097 
2.0253171e+3, 2.722729e+2, -327193.5, -393765.03, 19445.588, -0.07775753, 0.5951225, -321929.66, -50140.035, 0.0000018159459, 9.999899, 9.998998 
2.0253588e+3, 2.8227085e+2, -234476.16, -307523.7, -69308.984, -0.13935305, 0.5109455, -192656.31, -18849.78, 0.000018189116, 9.9998865, 9.998939 
2.0254008e+3, 2.9227114e+2, 138892.4, -38773.805, -130883.734, 0.12705807, 0.60720444, 208242.34, 284048.75, 0.000072171526, 10.00164, 9.999249 
2.0254402e+3, 3.0226958e+2, 284012.63, -47660.098, -39599.86, 0.044798113, 0.57013005, 288675.1, 288675.1, 0.00017990798, 10.002694, 9.998377 
2.0254833e+3, 3.1227085e+2, 331621.06, 150945.02, 96176.49, 0.04440928, 0.8395205, 373233.3, 373233.3, 0.00033465834, 10.002265, 9.999927 
2.0346971e+3, 1.2223204e+2, -1858616.1, -1608683.8, 41168.086, 0.29196683, 0.9388328, -1602077.4, 140126.78, 0.3135409, 9.997948, 10.002127 
2.0347321e+3, 1.3223025e+2, -2004981.0, -1654997.8, -61344.695, -0.32231724, 0.6211689, -1644556.8, -341.84607, 0.22593072, 9.996673, 10.001324 
2.034782e+3, 1.42229e+2, -1956920.6, -1722225.1, -65206.594, 0.59112465, 0.41531602, -1705325.4, -159099.66, 0.13594478, 9.996936, 10.000069 
2.034822e+3, 1.5223306e+2, -1630903.4, -1572587.9, 9701.559, 0.19406527, 0.8521666, -1571016.3, -122821.54, 0.06282382, 9.998768, 9.999529 
2.0348617e+3, 1.622352e+2, -1305413.3, -1279627.0, -103655.625, -0.12621555, 1.1003683, -1188065.8, 162113.22, 0.019494196, 9.999956, 10.000313 
2.0349044e+3, 1.7223233e+2, -1271149.3, -1152914.5, -125054.11, 0.10446192, 0.73135537, -1073708.4, 178492.08, 0.0029308582, 9.99928, 10.000815 
2.0349464e+3, 1.8223114e+2, -1224266.4, -1034821.25, -72780.805, 0.2641298, 0.52941614, -1010089.2, 144117.63, 0.00006041413, 9.998717, 10.001232 
2.0349868e+3, 1.9223537e+2, -1075320.3, -876146.75, 2718.2566, 0.12966199, 0.79208815, -876109.7, 180055.58, 0.0, 9.998921, 10.001542 
2.0350267e+3, 2.0223793e+2, -1045297.94, -975863.75, -21828.555, 0.016111232, 0.9612347, -969571.56, -11431.345, 0.0, 9.999162, 10.000072 
2.035067e+3, 2.122356e+2, -947273.1, -920954.0, -54513.184, 0.043304045, 0.7430243, -878034.5, -17871.33, 0.0, 9.99935, 9.999684 
2.0351073e+3, 2.2223388e+2, -825561.75, -808419.1, 5072.659, 0.024517136, 0.61595345, -807030.56, -44851.137, 0.0, 9.999506, 9.999708 
2.0351487e+3, 2.3223495e+2, -647807.75, -652808.94, 55377.668, -0.099610716, 0.7280022, -594874.25, 69292.21, 0.0, 9.999978, 9.999871 
2.0351906e+3, 2.4223521e+2, -561297.06, -658530.2, 16386.395, -0.14068669, 0.81389064, -558609.8, 7552.817, 0.0, 10.0003, 9.999016 
2.0352343e+3, 2.5223276e+2, -427024.97, -554424.7, -24716.016, 0.059468158, 0.66527146, -422398.0, 45790.383, 0.0, 10.000605, 9.998905 
2.035277e+3, 2.6223066e+2, -335481.88, -446495.4, -23943.344, 0.14973919, 0.5747957, -330537.97, 39672.742, 0.000000023664393, 10.000507, 9.999021 
2.0353177e+3, 2.7223113e+2, -329876.84, -365981.7, 1918.8837, -0.018355414, 0.68246263, -329775.13, -57568.598, 0.0000019634658, 9.999758, 9.999255 
2.035359e+3, 2.8223193e+2, -266410.1, -317974.72, -31751.26, -0.12706445, 0.8654402, -251291.69, -77092.62, 0.000016146072, 9.999652, 9.99898 
2.0354003e+3, 2.922314e+2, 125162.27, -40359.145, -49054.887, -0.11833697, 0.87901837, 138608.2, 214811.8, 0.00006227005, 10.001508, 9.99931 
2.0354415e+3, 3.0222568e+2, 111198.875, -304405.72, -52669.695, -0.10147823, 0.48594576, 117769.83, 117769.83, 0.00015426715, 10.002293, 9.996785 
2.0354849e+3, 3.122257e+2, 206385.33, 9843.316, 168056.3, -0.050329532, 0.8126327, 302793.8, 302793.8, 0.00028896972, 10.001779, 9.999179 
2.0446956e+3, 1.2219158e+2, -1906999.9, -1573217.0, -20867.906, 0.39866918, 0.9108913, -1571917.4, 170684.53, 0.3294151, 9.99726, 10.002849 
2.0447305e+3, 1.321905e+2, -1916733.8, -1778768.5, 18250.045, -0.19165488, 0.78141814, -1776395.1, -131787.1, 0.23787552, 9.997999, 9.999838 
2.0447798e+3, 1.4218734e+2, -1741604.5, -1617747.9, 103518.945, 0.61345214, 0.479534, -1559047.5, -12408.226, 0.14372098, 9.998409, 10.000075 
2.04482e+3, 1.5219119e+2, -1702622.4, -1543174.9, 207419.19, 0.18189822, 0.84002864, -1400685.6, 47921.27, 0.06692591, 9.998002, 10.000116 
2.0448604e+3, 1.621935e+2, -1638839.9, -1440147.4, 102088.37, -0.14211269, 1.0668255, -1397044.6, -46457.84, 0.021061258, 9.99767, 10.000295 
2.044904e+3, 1.7219132e+2, -1447127.6, -1267010.6, 18043.049, 0.19177607, 0.7826239, -1265220.9, -12617.447, 0.003256253, 9.998202, 10.000543 
2.0449464e+3, 1.8219028e+2, -1228672.0, -1034997.25, 34253.965, 0.40924937, 0.6121865, -1029117.5, 125491.47, 0.00007088071, 9.998687, 10.0012455 
2.0449856e+3, 1.921932e+2, -1035280.5, -838979.44, 16148.748, 0.13958181, 0.7311218, -837659.8, 218917.73, 0.0, 9.999127, 10.001696 
2.0450251e+3, 2.0219497e+2, -992447.3, -971829.9, -51510.61, -0.06666341, 0.82017636, -929606.56, 28952.322, 0.0, 9.999612, 9.999891 
2.0450662e+3, 2.1219368e+2, -794296.2, -877539.4, -78253.516, -0.009935136, 0.736709, -747283.9, 113290.53, 0.0, 10.000543, 9.999405 
2.0451075e+3, 2.2219285e+2, -619638.0, -702446.56, -26953.531, 0.037389383, 0.7155939, -611637.75, 150946.38, 0.0, 10.000872, 9.999784 
2.0451492e+3, 2.3219393e+2, -695149.8, -647395.44, -7775.4272, -0.0057579563, 0.8055075, -646161.3, 18409.84, 0.0, 9.999522, 10.000126 
2.0451912e+3, 2.4219404e+2, -799994.7, -792696.94, 6233.614, -0.019932069, 0.86444336, -789122.8, -222553.95, 0.0, 9.998739, 9.998846 
2.045234e+3, 2.5219125e+2, -575746.75, -660721.5, 6829.954, 0.03387264, 0.71334565, -575201.3, -106603.34, 0.0, 9.999743, 9.998583 
2.0452765e+3, 2.6218906e+2, -345539.84, -423732.3, 9529.082, 0.076176085, 0.624728, -344395.3, 26225.922, 0.00000011200642, 10.000316, 9.9992695 
2.0453182e+3, 2.7219003e+2, -373987.28, -331129.4, 15749.416, 0.08742076, 0.737174, -325964.28, -53352.22, 0.000002326167, 9.999228, 9.999742 
2.0453598e+3, 2.8219092e+2, -419633.1, -457219.8, 74734.69, 0.039721858, 0.91883403, -361365.03, -186761.25, 0.000014696717, 9.998863, 9.998405 
2.0454007e+3, 2.921895e+2, -40653.797, -225311.02, -2870.7512, -0.17141783, 0.94155955, -40609.176, 36009.59, 0.00005375532, 10.000828, 9.99836 
2.0454434e+3, 3.0218396e+2, 137439.31, -220913.44, -50156.188, -0.11885083, 0.59866154, 144326.95, 144326.95, 0.00013227915, 10.0021515, 9.997429 
2.0454863e+3, 3.121841e+2, 68136.34, -12820.589, 225425.3, 0.0077583655, 0.84163547, 256688.61, 256688.61, 0.00025110375, 10.0006075, 9.999593 
2.0546928e+3, 1.2214893e+2, -1819361.6, -1469770.6, -15861.217, 0.34841698, 0.6473619, -1469052.5, 273970.38, 0.3476065, 9.997324, 10.00396 
2.0547302e+3, 1.3215479e+2, -1937693.6, -1839078.6, 58661.81, -0.029113619, 1.2282842, -1811754.4, -166790.69, 0.2513395, 9.998068, 9.999392 
2.0547765e+3, 1.4215192e+2, -1691023.5, -1531700.4, 90924.04, 0.44033283, 0.96612394, -1490477.0, 56514.86, 0.15236652, 9.99847, 10.000694 
2.0548181e+3, 1.5215051e+2, -1620825.5, -1378248.5, 194615.98, 0.1868989, 0.690279, -1270220.0, 178779.45, 0.071473114, 9.998003, 10.001306 
2.0548594e+3, 1.6214989e+2, -1660443.1, -1493332.9, 110591.414, -0.020231092, 0.56110674, -1438280.9, -87279.91, 0.022826005, 9.997698, 9.999924 
2.0549019e+3, 1.7215161e+2, -1517050.3, -1413356.4, 46420.473, 0.16758363, 0.7623984, -1395611.9, -142626.19, 0.0036400491, 9.998202, 9.999544 
2.0549439e+3, 1.8215227e+2, -1291629.3, -1179250.5, 46802.473, 0.27381212, 0.86306643, -1162311.8, -7331.9946, 0.00008593674, 9.998735, 10.000235 
2.0549844e+3, 1.9214997e+2, -1106085.1, -988368.44, 37076.492, 0.081787094, 0.55943865, -977664.06, 79334.7, 0.0, 9.999129, 10.000674 
2.0550247e+3, 2.021488e+2, -1019378.7, -1020702.75, -26717.246, -0.07943123, 0.42810547, -993315.25, -34306.227, 0.0, 9.999582, 9.999568 
2.0550662e+3, 2.1215165e+2, -815374.2, -900187.06, -36450.08, -0.082007594, 0.7704495, -801861.8, 59125.81, 0.0, 10.000446, 9.999297 
2.0551077e+3, 2.2215334e+2, -640576.5, -707131.44, -60212.64, -0.033304866, 1.0068557, -605057.5, 157917.63, 0.0, 10.000711, 9.999827 
2.0551504e+3, 2.3215151e+2, -696961.4, -632614.3, -55534.7, 0.14860564, 0.79340893, -600606.56, 64382.59, 0.0, 9.999442, 10.000269 
2.0551926e+3, 2.4215004e+2, -805796.94, -768908.06, 13640.147, 0.23080158, 0.67649037, -764412.3, -197410.94, 0.0, 9.998596, 9.999075 
2.0552337e+3, 2.5215048e+2, -577340.94, -639096.5, 56189.2, 0.0231502, 0.82604367, -544104.25, -75103.164, 0.0, 9.999642, 9.99878 
2.0552751e+3, 2.621504e+2, -333273.3, -359137.94, -15174.272, -0.08511119, 0.92113584, -326268.13, 44735.387, 0.00000017468948, 10.00015, 9.999792 
2.055318e+3, 2.721493e+2, -327827.44, -237631.53, -22253.633, 0.1585768, 0.75979203, -232439.83, 40569.34, 0.0000023499456, 9.999225, 10.000391 
2.0553605e+3, 2.8214777e+2, -532786.2, -657981.8, 102212.41, 0.23028877, 0.70701593, -475526.3, -300504.4, 0.000012296112, 9.998738, 9.997078 
2.0554018e+3, 2.9214525e+2, -201154.22, -520763.63, 91134.305, -0.14672747, 0.80074644, -176994.23, -99940.73, 0.000044415407, 10.000666, 9.996407 
2.0554453e+3, 3.0214334e+2, 230648.03, 94470.69, -81409.42, -0.15946633, 0.8418651, 268689.28, 268689.28, 0.000112162, 10.001662, 9.999816 
2.0554875e+3, 3.121447e+2, 68140.03, 79403.04, 69161.0, 0.03706454, 0.86185384, 143161.44, 143161.44, 0.00022092767, 10.000225, 10.000405 
2.0646909e+3, 1.22107044e+2, -1564308.6, -1321689.6, 6059.8354, 0.33656564, 0.56705105, -1321538.4, 421896.94, 0.36771804, 9.999463, 10.004616 
2.06473e+3, 1.3211372e+2, -1666438.4, -1711244.6, -2638.3467, 0.048310835, 1.2140949, -1666283.6, -20915.516, 0.26616043, 9.99994, 9.999358 
2.0647745e+3, 1.421124e+2, -1574938.4, -1481786.6, 27959.275, 0.3527, 1.1110222, -1474039.1, 73342.22, 0.1618756, 9.999261, 10.000689 
2.0648167e+3, 1.5210986e+2, -1550030.6, -1333080.0, 30789.877, 0.22577374, 0.7120576, -1328794.9, 120603.25, 0.07651462, 9.998423, 10.001404 
2.0648584e+3, 1.621084e+2, -1580930.1, -1447195.0, -33279.8, 0.0952346, 0.49037296, -1439371.0, -87964.57, 0.024829434, 9.998207, 9.999993 
2.0649007e+3, 1.7211038e+2, -1244352.9, -1268418.9, -9803.273, 0.14427659, 0.70809966, -1240865.0, 12523.228, 0.0041003036, 10.00002, 9.99966 
2.0649426e+3, 1.8211126e+2, -1021044.1, -1132827.1, 16664.375, 0.17476022, 0.85002416, -1018612.75, 136768.19, 0.000108260756, 10.000969, 9.999469 
2.0649834e+3, 1.9210902e+2, -1122546.3, -1115757.4, -29924.568, 0.07599236, 0.66055256, -1089035.4, -31631.854, 0.0, 9.999547, 9.999589 
2.0650244e+3, 2.021076e+2, -1189899.5, -1109142.6, -47695.043, -0.006046781, 0.57572746, -1087029.3, -127610.63, 0.0, 9.998445, 9.999506 
2.065066e+3, 2.1210912e+2, -1020237.25, -957003.5, -21970.002, -0.04831311, 0.75556207, -950119.6, -88713.76, 0.0, 9.998867, 9.999665 
2.065108e+3, 2.221099e+2, -821679.0, -810324.3, -35435.996, -0.02592693, 0.88238156, -780113.75, -16714.406, 0.0, 9.999537, 9.999687 
2.0651506e+3, 2.3210865e+2, -535808.44, -594686.44, -84934.766, 0.17602982, 0.762204, -475355.47, 190054.2, 0.0, 10.0007305, 9.999907 
2.0651929e+3, 2.4210772e+2, -395217.84, -552958.56, -32308.896, 0.28495055, 0.7157368, -388856.75, 178561.53, 0.0, 10.001331, 9.999244 
2.0652339e+3, 2.5210807e+2, -488100.0, -551621.3, 4324.6626, 0.07159466, 0.8226007, -487806.94, -18389.338, 0.0, 10.000061, 9.999178 
2.0652752e+3, 2.62108e+2, -449536.3, -446143.13, -47867.605, -0.05473529, 0.9002591, -399942.06, -28522.63, 0.00000012472299, 9.999471, 9.999528 
2.0653176e+3, 2.7210686e+2, -73121.0, -170984.7, -142668.25, 0.10093606, 0.7864623, 28773.396, 302199.75, 0.0000018192295, 10.001215, 9.999889 
2.0653605e+3, 2.8210506e+2, 567.2671, -354448.1, -21075.125, 0.18700145, 0.72651356, 1813.9921, 177255.17, 0.000008845643, 10.002184, 9.997514 
2.0654038e+3, 2.9210222e+2, -233162.38, -461882.03, 107998.914, 0.035682462, 0.7173475, -190226.52, -112752.76, 0.000033872344, 10.0001335, 9.99707 
2.0654477e+3, 3.0210114e+2, -155924.27, -121807.48, 15371.475, 0.06953236, 0.809745, -115903.49, -115903.49, 0.000092230024, 9.999071, 9.999618 
2.0654878e+3, 3.121014e+2, 184690.48, 72277.88, -173221.66, 0.006023369, 0.77331203, 310596.5, 310596.5, 0.00019251609, 10.001272, 9.999874 
2.0746893e+3, 1.22066304e+2, -1556597.9, -1322707.6, 108283.59, 0.1877236, 0.7129531, -1280274.4, 463560.9, 0.38886976, 9.999564, 10.004719 
2.0747288e+3, 1.3206665e+2, -1624278.9, -1636013.1, -13149.522, -0.08367561, 0.67668456, -1615746.9, 30080.633, 0.28190908, 10.000047, 9.999852 
2.0747732e+3, 1.4206849e+2, -1612305.6, -1571656.6, -8404.03, 0.2668057, 0.8859771, -1569987.6, -22177.111, 0.17213808, 9.999353, 9.999944 
2.0748152e+3, 1.5206914e+2, -1620682.4, -1483014.5, 3110.9155, 0.2249443, 0.9155595, -1482944.3, -33139.61, 0.08207624, 9.99847, 10.000286 
2.0748569e+3, 1.620691e+2, -1531528.0, -1351681.8, -3100.4778, 0.10931574, 0.88430876, -1351628.4, 175.36435, 0.027111659, 9.998237, 10.000634 
2.0749e+3, 1.720676e+2, -1148251.6, -1072314.8, 65647.086, 0.055098046, 0.6310299, -1034446.9, 219364.86, 0.0046569863, 10.000036, 10.001004 
2.0749424e+3, 1.8206711e+2, -1043225.4, -1197879.4, -8467.153, 0.036326114, 0.5669366, -1042763.2, 113050.67, 0.00014131474, 10.001049, 9.998984 
2.074983e+3, 1.9207019e+2, -1213260.3, -1304029.5, -85214.086, 0.06730564, 1.024953, -1162098.5, -104304.67, 0.0000000002137382, 9.999543, 9.998301 
2.0750237e+3, 2.0207117e+2, -1180194.4, -1083981.4, -57919.62, 0.07331793, 1.2603511, -1056795.6, -97006.09, 0.0, 9.998419, 9.99969 
2.0750654e+3, 2.1206602e+2, -973019.44, -842507.5, 3312.535, 0.02426523, 0.6971506, -842423.5, 19406.438, 0.0, 9.998789, 10.000491 
2.0751074e+3, 2.2206256e+2, -866881.3, -866904.2, 315.0815, -0.011107922, 0.35434932, -866577.44, -102720.86, 0.0, 9.999386, 9.999366 
2.0751499e+3, 2.3206523e+2, -615575.0, -732053.1, -29114.102, 0.027295081, 0.70302683, -608703.25, 57130.96, 0.0, 10.000612, 9.999019 
2.0751922e+3, 2.4206668e+2, -413854.22, -552085.25, -57183.277, 0.06923955, 0.95178145, -393265.3, 174557.78, 0.0, 10.001166, 9.999327 
2.0752344e+3, 2.5206408e+2, -461098.47, -479642.2, -40152.24, 0.10621268, 0.71431804, -429161.47, 40686.246, 0.0, 9.999992, 9.999704 
2.0752761e+3, 2.6206204e+2, -541394.75, -604205.25, -21801.969, 0.0665493, 0.59781057, -534568.94, -162701.78, 0.000000021824269, 9.999341, 9.998501 
2.0753166e+3, 2.7206254e+2, -204153.05, -410460.8, -58192.387, -0.13749555, 0.8040024, -188870.97, 84993.19, 0.00000084431264, 10.001084, 9.998304 
2.0753594e+3, 2.8206235e+2, 95199.516, -98704.766, -66319.914, -0.16966309, 0.9262891, 115712.47, 291578.53, 0.000005133315, 10.001937, 9.999385 
2.0754065e+3, 2.9205993e+2, -38985.625, -57174.773, 29999.426, 0.2603521, 0.67495245, -16732.523, 61151.17, 0.000023723636, 10.000109, 9.999865 
2.0754501e+3, 3.020572e+2, -390533.13, -519545.84, 31286.809, 0.39379424, 0.53683996, -383346.16, -383346.16, 0.00007269587, 9.998743, 9.997019 
2.075486e+3, 3.1205672e+2, -22844.56, -215295.69, 5406.7026, -0.3076858, 0.7947433, -22692.785, -22692.785, 0.0001601903, 10.00072, 9.998137 
2.0846882e+3, 1.2202716e+2, -1704884.0, -1434176.5, 278557.34, 0.20135263, 0.84536684, -1259829.1, 484390.22, 0.40993002, 9.99863, 10.004219 
2.0847273e+3, 1.3202488e+2, -1862060.8, -1814482.4, 9394.442, -0.1518914, 0.5992191, -1812694.6, -166456.64, 0.29801235, 9.998635, 9.999278 
2.084772e+3, 1.4202648e+2, -1802760.9, -1720743.0, -6161.364, 0.27717102, 0.835235, -1720282.8, -172058.47, 0.18298064, 9.998311, 9.999411 
2.0848134e+3, 1.5202749e+2, -1640168.0, -1557923.9, 32824.938, 0.20771123, 0.9569479, -1546429.4, -96212.32, 0.088167645, 9.998623, 9.999701 
2.0848547e+3, 1.6202769e+2, -1453933.3, -1290274.5, 80731.45, 0.07736719, 0.98063725, -1257153.4, 95061.55, 0.029713616, 9.998653, 10.000878 
2.0848982e+3, 1.7202635e+2, -1412306.0, -1136006.9, 91525.914, -0.0002693022, 0.6893807, -1108438.9, 145780.81, 0.005333032, 9.997936, 10.001583 
2.0849411e+3, 1.8202595e+2, -1502356.9, -1398532.1, 215.78596, -0.009864615, 0.5884774, -1398531.6, -242312.28, 0.00018960002, 9.997795, 9.999185 
2.0849827e+3, 1.9202872e+2, -1140021.1, -1264106.9, 4700.1553, 0.07616388, 1.00668, -1139843.4, -81642.125, 0.000000020895914, 10.0000105, 9.998358 
2.0850241e+3, 2.0202947e+2, -763778.5, -922155.56, 78749.32, 0.13033664, 1.226131, -731287.6, 228911.11, 0.0, 10.001465, 9.9993305 
2.0850657e+3, 2.1202448e+2, -741120.6, -789697.3, 25004.639, 0.086204425, 0.731761, -730549.94, 131688.97, 0.0, 10.000649, 9.9999485 
2.0851074e+3, 2.22021e+2, -804376.56, -854488.2, -12208.479, 0.04091303, 0.4287997, -801560.5, -37293.992, 0.0, 9.999876, 9.999228 
2.0851496e+3, 2.32023e+2, -739813.6, -783968.75, 16496.797, -0.0004208894, 0.7073118, -734331.0, -68081.516, 0.0, 9.999712, 9.999105 
2.0851919e+3, 2.4202402e+2, -627730.1, -684327.0, 19627.063, -0.0008495331, 0.91382116, -621589.9, -53348.137, 0.0, 9.999816, 9.99907 
2.0852344e+3, 2.5202164e+2, -384788.5, -489953.72, -42164.73, 0.08258631, 0.74163663, -369970.84, 100294.17, 0.0, 10.000716, 9.999287 
2.0852765e+3, 2.6201952e+2, -273080.84, -507348.4, -14320.9795, 0.101684734, 0.649797, -272208.66, 100077.66, 0.0, 10.001327, 9.998208 
2.0853181e+3, 2.7201876e+2, -236925.13, -459527.94, 28718.318, -0.083147794, 0.76368344, -233279.83, 41014.715, 0.000000115745564, 10.001002, 9.998008 
2.085361e+3, 2.8201813e+2, -59183.094, -193869.5, 3599.3127, -0.1255325, 0.86687857, -59086.977, 117213.84, 0.0000020138657, 10.000956, 9.999204 
2.0854065e+3, 2.9201725e+2, 169954.36, 33581.65, -152256.4, 0.19460958, 0.78438175, 268595.44, 346901.44, 0.000014504671, 10.001606, 9.99976 
2.0854497e+3, 3.020148e+2, 93898.2, -262261.06, -137908.17, 0.33774012, 0.6758709, 141054.05, 141054.05, 0.00005340179, 10.001929, 9.997267 
2.0854878e+3, 3.1201398e+2, 41425.03, -173276.75, 98316.85, -0.21251214, 0.87490803, 79643.42, 79643.42, 0.00012530175, 10.001046, 9.998291 
2.0946875e+3, 1.2198928e+2, -1785816.5, -1565450.0, 286209.22, 0.2213849, 0.919209, -1368947.6, 375642.84, 0.42994058, 9.998658, 10.002965 
2.094725e+3, 1.3198906e+2, -1980678.5, -2057382.6, -2673.0042, -0.24678615, 1.0382912, -1980585.5, -333991.88, 0.31401625, 9.998628, 9.997617 
2.0947705e+3, 1.4198664e+2, -1819762.4, -1766913.1, -10780.522, 0.28204784, 0.9895406, -1764798.6, -216177.88, 0.19429262, 9.998344, 9.999088 
2.094811e+3, 1.5198483e+2, -1626416.0, -1548596.3, 54038.656, 0.09424999, 0.83215064, -1520916.6, -70280.195, 0.094824284, 9.998694, 9.999738 
2.094852e+3, 1.6198394e+2, -1450880.6, -1310052.5, 59631.156, -0.099738434, 0.7513669, -1288195.1, 64447.348, 0.032688897, 9.998763, 10.000687 
2.0948952e+3, 1.7198664e+2, -1430316.0, -1174172.3, 63374.332, -0.08337693, 0.88894886, -1159350.1, 95262.234, 0.0061590113, 9.997938, 10.00132 
2.0949389e+3, 1.8198791e+2, -1436508.4, -1266118.9, 46425.11, -0.04149266, 0.94281316, -1254290.8, -97694.516, 0.00026052183, 9.997812, 10.000086 
2.0949824e+3, 1.9198467e+2, -1042534.75, -1059105.9, 98345.67, 0.039644714, 0.62600124, -952126.2, 106498.766, 0.00000016154512, 9.999999, 9.999771 
2.0950253e+3, 2.0198241e+2, -834058.6, -1058644.4, 71701.29, 0.09395406, 0.4815942, -813119.5, 147526.92, 0.0, 10.001425, 9.99841 
2.0950665e+3, 2.1198419e+2, -895020.8, -1087675.8, -5614.3486, 0.080310345, 0.8469701, -894857.4, -32222.354, 0.0, 10.000555, 9.997948 
2.0951077e+3, 2.2198479e+2, -822920.25, -860041.8, -30848.979, 0.054144118, 1.0811751, -805478.75, -40846.05, 0.0, 9.999734, 9.999258 
2.0951495e+3, 2.319818e+2, -689684.9, -652691.9, 19853.1, 0.022323163, 0.78009677, -644054.2, 22602.531, 0.0, 9.999596, 10.000063 
2.0951916e+3, 2.4197967e+2, -692218.9, -776282.1, 37820.785, -0.020708054, 0.6267128, -677707.9, -109033.29, 0.0, 9.999638, 9.998524 
2.0952336e+3, 2.5198054e+2, -483430.8, -679711.2, 2027.0043, -0.054683123, 0.8909133, -483409.88, -12738.068, 0.0, 10.0006485, 9.998018 
2.0952766e+3, 2.6197982e+2, -271428.66, -477601.3, -17976.031, -0.034418166, 1.0163043, -269873.06, 102808.71, 0.0, 10.001219, 9.998462 
2.0953216e+3, 2.7197525e+2, -188406.44, -346170.3, 25763.209, 0.15071428, 0.6671745, -184305.83, 90414.766, 0.0, 10.000949, 9.998812 
2.095365e+3, 2.8197244e+2, -240114.63, -509953.25, 10367.273, 0.17429966, 0.58277714, -239716.89, -62971.22, 0.00000039293647, 10.00071, 9.997149 
2.0954046e+3, 2.9197407e+2, -47515.438, -376442.2, -103057.75, -0.17854922, 1.034086, -17893.52, 60846.02, 0.000007667558, 10.001428, 9.997031 
2.0954466e+3, 3.0197248e+2, 189767.47, 69181.76, -158203.25, -0.20358098, 1.0731168, 298777.6, 298777.6, 0.000037309004, 10.001408, 9.999775 
2.0954925e+3, 3.1197086e+2, 90470.82, 62902.387, 145959.34, 0.10789435, 0.8274218, 223295.38, 223295.38, 0.00009591088, 10.00053, 10.000139 
2.104686e+3, 1.2194791e+2, -1928130.4, -1593578.9, 170640.67, 0.2867199, 0.95842785, -1521899.8, 223098.9, 0.44859928, 9.997086, 10.003273 
2.1047243e+3, 1.3194875e+2, -2081172.6, -2099230.8, -98929.5, -0.13881575, 1.1731731, -1990861.1, -343871.06, 0.3298663, 9.997907, 9.997683 
2.104769e+3, 1.4194472e+2, -1704996.4, -1705938.1, -8716.299, 0.27951232, 0.9581232, -1696738.1, -147706.48, 0.20615475, 9.999117, 9.999127 
2.1048099e+3, 1.5194277e+2, -1541902.5, -1499008.8, 41762.527, 0.07861643, 0.7791068, -1473508.0, -22460.76, 0.10215144, 9.99925, 9.999799 
2.1048506e+3, 1.6194186e+2, -1439577.6, -1357470.9, 34993.297, -0.108783476, 0.7086719, -1344580.8, 8473.066, 0.036114734, 9.999078, 10.000194 
2.1048938e+3, 1.7194514e+2, -1330350.5, -1200989.5, -8783.577, -0.063885435, 0.9708641, -1200395.8, 54626.33, 0.007176738, 9.998949, 10.000646 
2.1049374e+3, 1.819467e+2, -1282864.6, -1166254.4, -9177.355, 0.0066060093, 1.0877141, -1165536.6, -8530.721, 0.0003661867, 9.998774, 10.000301 
2.1049817e+3, 1.9194235e+2, -1170618.0, -1054742.4, -13286.089, 0.04464059, 0.61256284, -1053238.6, 5802.441, 0.00000091193453, 9.9988575, 10.000342 
2.1050252e+3, 2.0193964e+2, -1153302.9, -1193503.6, -76499.57, 0.07188315, 0.38093412, -1094307.1, -133242.98, 0.0, 9.999119, 9.998606 
2.1050662e+3, 2.1194296e+2, -966258.25, -1115957.5, -35836.133, 0.053558428, 0.8921596, -958121.75, -95081.65, 0.0, 10.000027, 9.998016 
2.1051076e+3, 2.2194459e+2, -700753.8, -801470.25, 42495.547, 0.05615367, 1.2250364, -685219.56, 79809.88, 0.0, 10.000591, 9.999233 
2.1051499e+3, 2.319404e+2, -597044.1, -615846.0, 11710.166, 0.09005099, 0.80910033, -591428.2, 75635.64, 0.0, 10.000273, 9.999978 
2.1051924e+3, 2.4193738e+2, -602024.44, -748479.8, 39919.297, 0.07739603, 0.5779741, -591850.44, -22760.992, 0.0, 10.000326, 9.9983835 
2.1052344e+3, 2.5193864e+2, -350409.06, -632577.8, 77458.08, -0.094147205, 0.90012795, -330544.53, 140538.84, 0.0, 10.001652, 9.997852 
2.1052776e+3, 2.619382e+2, -62358.094, -404420.6, 70244.805, -0.13539083, 1.0726397, -48494.72, 324596.63, 0.0, 10.002753, 9.998234 
2.1053232e+3, 2.7193326e+2, 50323.168, -257917.45, 9902.028, 0.150579, 0.71126443, 50640.938, 325775.22, 0.0, 10.002696, 9.998579 
2.1053669e+3, 2.819301e+2, -47044.203, -443007.7, 12207.495, 0.24473338, 0.60981786, -46668.207, 130495.47, 0.00000006547354, 10.002153, 9.996907 
2.1054055e+3, 2.9193106e+2, -145583.48, -455175.88, 47090.84, -0.17758688, 1.0326151, -138579.16, -59415.355, 0.000004738257, 10.000902, 9.9967375 
2.1054478e+3, 3.019295e+2, 100573.75, 23195.305, 69966.83, -0.15467231, 1.0865519, 141835.84, 141835.84, 0.000029055158, 10.00075, 9.999795 
2.1054941e+3, 3.119278e+2, 334489.16, 201573.86, 23527.723, 0.16611548, 0.82285076, 338530.97, 338530.97, 0.000079673504, 10.002067, 10.000368 
2.1146826e+3, 1.2190209e+2, -1791868.6, -1431124.8, 164293.58, 0.20966643, 0.88923335, -1367516.3, 377937.1, 0.46656317, 9.997162, 10.005264 
2.1147247e+3, 1.319036e+2, -1941019.3, -1818937.0, -41892.64, 0.09413001, 0.97386545, -1805944.3, -158513.27, 0.34608045, 9.997952, 9.999577 
2.1147673e+3, 1.4190018e+2, -1663918.9, -1654030.1, 16042.907, 0.16965511, 0.69198704, -1642187.0, -92724.875, 0.21890919, 9.9992485, 9.999421 
2.1148093e+3, 1.5190125e+2, -1520960.9, -1478495.8, 41590.008, 0.08544115, 0.7959408, -1453032.0, -1581.6672, 0.110347085, 9.999341, 9.999893 
2.1148506e+3, 1.6190164e+2, -1481360.0, -1461453.8, 24538.39, -0.033585873, 0.8779833, -1444926.8, -91480.11, 0.040102176, 9.999151, 9.999444 
2.1148935e+3, 1.7190188e+2, -1399126.0, -1357874.6, -8788.556, 0.0031438423, 0.9392424, -1356080.3, -100630.91, 0.008443992, 9.999, 9.999546 
2.1149367e+3, 1.81902e+2, -1313006.6, -1241335.0, -15873.384, 0.049683444, 1.0012012, -1237976.8, -80525.555, 0.00052604213, 9.998831, 9.999755 
2.1149805e+3, 1.9190158e+2, -1196843.1, -1107572.3, -5132.467, 0.028222423, 0.9546983, -1107278.1, -47826.668, 0.0000034897541, 9.998853, 9.99998 
2.1150234e+3, 2.0190108e+2, -1068963.0, -1004829.56, -54428.723, -0.017551413, 0.92280763, -973723.8, -12271.214, 0.0, 9.999061, 9.999929 
2.1150652e+3, 2.119009e+2, -836645.8, -822957.8, 4251.6396, -0.056815594, 0.890441, -821744.7, 41708.434, 0.0, 9.9999275, 10.000074 
2.1151075e+3, 2.2190036e+2, -732410.2, -826647.44, 39043.938, -0.04075432, 0.8726496, -718335.75, 47121.457, 0.0, 10.000418, 9.999144 
2.1151508e+3, 2.3189862e+2, -689503.44, -784333.06, 4375.725, 0.14164616, 0.79622185, -689301.94, -21829.428, 0.0, 10.00017, 9.998872 
2.1151939e+3, 2.4189687e+2, -609863.56, -728221.8, 67170.56, 0.19385757, 0.7550785, -579521.44, -10032.507, 0.0, 10.000173, 9.998592 
2.1152358e+3, 2.5189584e+2, -313426.5, -530814.06, 138020.8, -0.10491865, 0.7795957, -246438.55, 225062.7, 0.0, 10.001543, 9.998603 
2.1152788e+3, 2.618946e+2, -140755.5, -512177.06, 80382.086, -0.29246292, 0.846745, -124105.77, 249409.83, 0.0, 10.0025215, 9.997603 
2.1153232e+3, 2.7189255e+2, -53989.098, -437370.4, 16529.148, -0.12052708, 0.882449, -53277.777, 222259.98, 0.0, 10.002528, 9.997431 
2.1153668e+3, 2.8189015e+2, -11877.012, -297747.56, -29827.28, -0.022148397, 0.8870155, -8798.043, 168764.48, 0.00000005479561, 10.001853, 9.998045 
2.1154086e+3, 2.918878e+2, -40133.465, -222331.36, 24052.436, 0.041230246, 0.7860253, -37011.727, 42573.246, 0.0000044706885, 10.000826, 9.998379 
2.1154524e+3, 3.0188578e+2, -123980.24, -318030.97, 93901.72, 0.19944876, 0.7868145, -85981.7, -85981.7, 0.00002714467, 10.000265, 9.997659 
2.1154937e+3, 3.1188497e+2, 114743.805, -76090.02, 47624.438, -0.11865835, 0.89633864, 125968.695, 125968.695, 0.000074751726, 10.001349, 9.998787 
2.1246754e+3, 1.2185832e+2, -1754753.3, -1418073.9, 59434.35, -0.23571154, 1.0297927, -1407889.9, 337996.84, 0.48543465, 9.996999, 10.005589 
2.1247233e+3, 1.3186035e+2, -2004995.4, -1763837.1, -12547.192, 0.22108555, 1.0050311, -1763186.0, -115330.984, 0.3637423, 9.997172, 10.000317 
2.1247664e+3, 1.4185548e+2, -1589558.0, -1588252.4, -44036.64, 0.13757992, 0.53427017, -1544863.8, 5033.616, 0.23315269, 9.999628, 9.9997 
2.1248086e+3, 1.5185826e+2, -1543583.6, -1463056.9, -72286.24, 0.10741006, 0.7878517, -1420577.0, 31292.967, 0.1197026, 9.99906, 10.00017 
2.1248502e+3, 1.6185981e+2, -1597335.6, -1522535.0, -42217.54, 0.053924706, 0.9680694, -1503534.0, -149677.67, 0.044803485, 9.998374, 9.999402 
2.1248923e+3, 1.7185877e+2, -1427551.4, -1395313.8, -11892.357, -0.0015154952, 0.9230012, -1391401.5, -135528.98, 0.01004214, 9.998913, 9.999326 
2.1249351e+3, 1.818581e+2, -1263789.4, -1244671.4, 31562.38, -0.00914455, 0.9282401, -1221252.3, -63369.24, 0.0007722133, 9.999264, 9.999526 
2.1249798e+3, 1.9185875e+2, -1180323.8, -1125429.4, 42237.27, 0.06720111, 1.00973, -1102504.6, -42630.6, 0.000010944595, 9.999065, 9.999756 
2.1250235e+3, 2.0185888e+2, -1086469.9, -980762.2, -2163.371, 0.097320355, 1.0428816, -980717.94, -18848.563, 0.0, 9.998824, 10.000198 
2.1250647e+3, 2.118574e+2, -950516.1, -825010.3, -63016.42, -0.051360708, 0.83602035, -798830.7, 65049.33, 0.0, 9.998932, 10.000533 
2.1251065e+3, 2.2185616e+2, -894382.0, -894637.56, -91992.055, -0.097240284, 0.71683156, -802517.6, -36628.285, 0.0, 9.99925, 9.999246 
2.1251509e+3, 2.318561e+2, -690682.2, -787328.44, -73191.84, 0.13639925, 0.81463367, -651300.3, 16590.445, 0.0, 10.000183, 9.998841 
2.1251948e+3, 2.4185549e+2, -483428.28, -640981.56, 58782.2, 0.25294864, 0.88106483, -463914.0, 105983.78, 0.0, 10.00093, 9.998826 
2.1252377e+3, 2.5185347e+2, -370638.4, -519180.3, 95980.305, -0.031719286, 0.77611053, -323548.75, 148369.39, 0.0, 10.000977, 9.998959 
2.125281e+3, 2.6185212e+2, -363672.06, -567126.7, 28983.805, -0.21655044, 0.78879654, -359623.66, 14309.3545, 0.0, 10.000778, 9.998062 
2.1253242e+3, 2.718521e+2, -407696.16, -546700.06, 38101.6, -0.11697205, 0.9877947, -397937.44, -122000.625, 0.0, 9.999869, 9.99795 
2.1253674e+3, 2.8185076e+2, -287049.2, -382128.53, 93815.625, -0.021651527, 1.0472193, -229415.7, -51463.813, 0.000000117451826, 9.999745, 9.99849 
2.1254109e+3, 2.9184666e+2, 165647.03, -73608.29, 47001.0, 0.13006459, 0.73293287, 174549.03, 254536.1, 0.0000050467984, 10.002039, 9.998808 
2.1254548e+3, 3.0184448e+2, 287359.84, -163475.27, 85633.61, 0.28340405, 0.7014147, 303077.5, 303077.5, 0.000026973656, 10.00322, 9.997335 
2.1254946e+3, 3.1184557e+2, -223691.0, -291404.0, 75284.8, -0.027157342, 1.070563, -175000.16, -175000.16, 0.00007138213, 9.999209, 9.9983635 
2.1347202e+3, 1.3181894e+2, -2039431.0, -1824967.0, 83264.1, 0.16391307, 1.3070648, -1796435.9, -148173.36, 0.38411817, 9.997145, 9.999892 
2.1347657e+3, 1.418109e+2, -1567608.4, -1564718.3, -20415.283, 0.08209629, 0.53832287, -1545697.0, 4638.3345, 0.24951555, 9.99972, 9.999814 
2.1348074e+3, 1.5181376e+2, -1505630.1, -1399404.3, -99087.03, 0.08623503, 0.7622673, -1340092.9, 112214.53, 0.13052814, 9.99911, 10.000645 
2.1348488e+3, 1.6181599e+2, -1541607.1, -1426075.6, -46277.348, 0.07513379, 0.95267737, -1409824.6, -55537.67, 0.050404422, 9.998448, 10.0000305 
2.13489e+3, 1.718156e+2, -1377285.4, -1301441.9, 13540.446, -0.14756112, 0.90800494, -1299097.0, -42803.43, 0.012084308, 9.998955, 9.999949 
2.1349321e+3, 1.8181497e+2, -1247115.4, -1223909.5, 28748.074, -0.2575813, 0.87275165, -1204511.1, -46210.055, 0.001155736, 9.999322, 9.999642 
2.1349792e+3, 1.9181389e+2, -1186561.3, -1141488.1, 36762.055, 0.0984367, 0.79017365, -1120904.6, -60595.992, 0.000030850606, 9.999073, 9.999644 
2.1350247e+3, 2.0181282e+2, -1148950.5, -1097582.8, -10428.795, 0.32125312, 0.7371506, -1095546.3, -133229.75, 0.0, 9.998771, 9.999423 
2.1350642e+3, 2.1181215e+2, -1040893.75, -991190.8, -52384.527, 0.017653836, 0.7175544, -958061.8, -93738.766, 0.0, 9.998839, 9.999439 
2.1351047e+3, 2.218119e+2, -897399.1, -860487.4, -65659.63, -0.19449098, 0.75638777, -810739.06, -44413.05, 0.0, 9.999083, 9.999557 
2.1351498e+3, 2.3181283e+2, -645048.6, -668056.56, -27682.313, 0.018995244, 0.87021995, -626575.06, 41743.445, 0.0, 10.000073, 9.999715 
2.1351951e+3, 2.4181306e+2, -493984.75, -621255.94, 64893.36, 0.1673899, 0.9567416, -466732.28, 103585.44, 0.0, 10.000754, 9.999044 
2.1352397e+3, 2.518113e+2, -394060.44, -537979.94, 103112.445, 0.05895296, 0.8766024, -340280.84, 132055.11, 0.0, 10.000844, 9.998895 
2.1352836e+3, 2.6181024e+2, -299862.4, -385660.44, 658.3492, -0.020119973, 0.87674236, -299857.38, 74489.71, 0.0, 10.000579, 9.999398 
2.135326e+3, 2.7181154e+2, -290523.16, -287137.56, 9262.5205, 0.058483742, 1.021075, -279414.44, -3078.66, 0.00000000014169585, 9.999793, 9.999771 
2.1353681e+3, 2.8181124e+2, -333737.72, -424826.44, 132740.64, 0.08572074, 1.0797112, -238945.47, -60606.703, 0.000000256191, 9.999531, 9.998287 
2.1354121e+3, 2.91807e+2, 80807.125, -211358.4, 158851.55, 0.04405082, 0.8303531, 150534.44, 230910.78, 0.0000052967753, 10.001858, 9.997953 
2.1354549e+3, 3.0180407e+2, 278616.06, -26434.623, 1689.8558, -0.07432255, 0.7213124, 278625.4, 278625.4, 0.000025189602, 10.00262, 9.998534 
2.135495e+3, 3.1180575e+2, -283580.75, -288676.4, 29359.281, 0.054452356, 0.99041104, -256658.95, -256658.95, 0.00006330713, 9.998722, 9.998593 
2.1447197e+3, 1.3177347e+2, -1471755.0, -1586621.6, 49896.2, 0.21002667, 1.187329, -1453108.0, 195597.61, 0.40760165, 10.002064, 9.999449 
2.1447642e+3, 1.4176744e+2, -1963896.0, -1731443.8, -24611.463, 0.11246188, 0.64065886, -1728866.5, -178105.11, 0.26811564, 9.996887, 10.000028 
2.144806e+3, 1.517699e+2, -1602581.1, -1380332.1, -67076.21, 0.07398219, 0.7675293, -1361657.3, 91080.69, 0.14296411, 9.998114, 10.001268 
2.1448477e+3, 1.6177207e+2, -1393056.1, -1306454.1, -12131.845, 0.072317384, 0.8951078, -1304786.8, 49931.016, 0.057087187, 9.999266, 10.000476 
2.1448886e+3, 1.7177245e+2, -1398556.4, -1273623.4, 7455.3696, -0.13427368, 0.8914166, -1273180.0, -16464.727, 0.014719365, 9.998659, 10.000285 
2.144931e+3, 1.8177234e+2, -1395326.3, -1269782.4, 29775.143, -0.23167203, 0.8782663, -1263078.6, -104361.9, 0.0017550356, 9.998208, 9.999862 
2.1449783e+3, 1.9177118e+2, -1136465.9, -1100218.4, 53888.473, 0.08769749, 0.7721798, -1061487.6, -761.629, 0.00008036648, 9.999354, 9.999794 
2.1450236e+3, 2.0177004e+2, -974000.3, -1050540.5, 22536.188, 0.30148384, 0.71440625, -967857.8, -5122.0684, 0.000000018813253, 10.00012, 9.999099 
2.1450634e+3, 2.1176948e+2, -958385.06, -1014113.56, -2059.892, 0.0354135, 0.7557769, -958309.06, -93566.58, 0.0, 9.999666, 9.998883 
2.1451043e+3, 2.2176918e+2, -878247.3, -858418.1, 27545.781, -0.14506581, 0.8275017, -839056.94, -72310.19, 0.0, 9.999246, 9.999494 
2.1451494e+3, 2.3176955e+2, -734378.6, -691374.0, 16999.133, 0.021632604, 0.87267077, -685466.1, -16721.639, 0.0, 9.999377, 9.999894 
2.1451949e+3, 2.4176964e+2, -658753.56, -651610.25, 73660.71, 0.15568723, 0.9199199, -581434.7, -10690.378, 0.0, 9.999414, 9.999483 
2.1452397e+3, 2.5176907e+2, -608157.94, -575095.7, 132582.8, 0.082292065, 0.90646577, -458017.4, 14731.821, 0.0, 9.999096, 9.999477 
2.145284e+3, 2.617686e+2, -507342.22, -472259.1, 50228.992, 0.039353278, 0.9205299, -436596.72, -61843.46, 0.0, 9.9990835, 9.999527 
2.1453261e+3, 2.717684e+2, -241379.1, -272412.44, -84498.58, 0.10462465, 0.92147046, -170984.31, 105771.76, 0.00000000016893417, 10.00017, 9.999688 
2.1453686e+3, 2.8176764e+2, -90832.63, -297914.72, 765.6387, 0.11231498, 0.9342983, -90829.805, 87934.21, 0.0000002738674, 10.0011215, 9.998407 
2.1454126e+3, 2.9176596e+2, -22730.16, -220316.6, 85618.44, -0.050689816, 0.9246586, 9207.707, 89987.52, 0.0000047479944, 10.000973, 9.998317 
2.1454562e+3, 3.017649e+2, 110814.17, -129621.57, -79748.92, -0.0891247, 0.9746396, 134860.73, 134860.73, 0.000021515176, 10.001476, 9.998415 
2.1454982e+3, 3.1176165e+2, 504939.38, 93761.9, -233443.38, 0.2596493, 0.7934824, 610417.44, 610417.44, 0.000053622698, 10.004101, 9.998623 
2.1547227e+3, 1.3172375e+2, -1479360.3, -1623189.1, -92941.12, 0.22021084, 0.6263607, -1433759.9, 215425.78, 0.43279883, 10.002298, 9.999008 
2.154761e+3, 1.4172491e+2, -1922660.5, -1672862.4, -107734.445, 0.08638511, 0.8115013, -1632817.5, -81639.87, 0.28823382, 9.996986, 10.000389 
2.1548033e+3, 1.517268e+2, -1543649.5, -1287369.6, 1088.8132, -0.0051135453, 0.80766326, -1287365.0, 165795.5, 0.15688464, 9.998152, 10.002006 
2.1548457e+3, 1.617284e+2, -1364217.3, -1273708.0, -12040.927, -0.058460597, 0.82426566, -1272133.5, 83012.58, 0.06501248, 9.999374, 10.000664 
2.1548887e+3, 1.7172936e+2, -1397246.4, -1275952.6, -20190.238, -0.025366884, 0.878568, -1272680.1, -15542.5625, 0.018139776, 9.998684, 10.000252 
2.1549316e+3, 1.8173008e+2, -1369849.5, -1230574.5, 44630.277, -0.0072661876, 0.94372547, -1217500.1, -58368.785, 0.0026903055, 9.9982605, 10.00011 
2.1549766e+3, 1.9173053e+2, -1101104.4, -1030166.56, 106233.18, -0.02680152, 0.9560847, -953637.56, 107489.31, 0.00019736934, 9.999368, 10.000267 
2.1550205e+3, 2.0173053e+2, -974786.25, -1045325.5, 20651.465, -0.051584724, 0.97741765, -969185.0, -6058.033, 0.0000007869328, 10.000088, 9.999151 
2.1550623e+3, 2.1172917e+2, -978930.75, -1041246.2, -18753.31, -0.064147584, 0.94971234, -973722.44, -108582.445, 0.0, 9.999591, 9.998735 
2.1551044e+3, 2.2172767e+2, -926524.9, -929546.9, 20403.582, -0.04719548, 0.9233879, -907576.44, -140421.83, 0.0, 9.999122, 9.9990635 
2.1551494e+3, 2.317261e+2, -785014.06, -775191.5, 29858.639, 0.07179002, 0.8246908, -749842.94, -80672.87, 0.0, 9.999283, 9.999364 
2.1551941e+3, 2.4172515e+2, -642761.2, -572351.44, 61438.477, 0.12646756, 0.77930397, -536746.2, 34432.184, 0.0, 9.999227, 10.000111 
2.1552378e+3, 2.5172663e+2, -539374.4, -416557.88, 123592.26, -0.012992486, 0.86645484, -339958.8, 133201.47, 0.0, 9.99903, 10.000598 
2.1552818e+3, 2.6172695e+2, -590920.44, -619103.06, 67597.51, -0.113822006, 0.9172639, -535961.1, -160806.42, 0.0, 9.998974, 9.9985695 
2.1553253e+3, 2.717227e+2, -383908.5, -553325.6, -32066.422, -0.028593998, 0.6905571, -378042.25, -100844.016, 0.0, 10.000102, 9.997793 
2.1553685e+3, 2.817199e+2, -106264.195, -265224.97, 6467.288, -0.039554704, 0.60527647, -106001.51, 73227.5, 0.000000100631844, 10.000875, 9.998736 
2.1554117e+3, 2.917234e+2, 20305.807, -79620.914, 92619.88, -0.23892957, 1.0040697, 75579.23, 156777.78, 0.0000031808088, 10.000747, 9.999395 
2.1554585e+3, 3.0172566e+2, -93013.38, -376717.3, -27683.982, -0.058225438, 1.3818362, -90337.21, -90337.21, 0.00001657147, 10.000768, 9.997029 
2.1555029e+3, 3.117159e+2, 328402.44, -136897.02, -32396.416, 0.27358183, 0.719464, 330647.2, 330647.2, 0.000044990633, 10.003518, 9.997317 
2.1647227e+3, 1.3168168e+2, -1795063.8, -1799028.9, -100883.85, 0.17311187, 0.60692436, -1696143.0, -46546.992, 0.45757636, 9.999225, 9.99905 
2.1647601e+3, 1.4168301e+2, -1596872.6, -1550348.4, 44005.516, 0.18587527, 0.80452085, -1523834.9, 27752.004, 0.3088363, 9.999392, 10.000118 
2.1648018e+3, 1.5168457e+2, -1553614.8, -1366605.8, 77801.47, 0.025693648, 0.8303693, -1338470.8, 115103.1, 0.17204043, 9.998496, 10.001212 
2.164844e+3, 1.6168566e+2, -1643102.9, -1447172.0, -16735.283, -0.06710096, 0.86366075, -1445752.9, -90188.22, 0.07433442, 9.997631, 10.000278 
2.164888e+3, 1.7168579e+2, -1334685.0, -1258004.8, -35208.676, 0.034719337, 0.84985846, -1244290.9, 13272.119, 0.022589553, 9.999149, 10.000158 
2.1649316e+3, 1.8168604e+2, -1120040.6, -1123250.5, 12241.396, 0.10223396, 0.8775842, -1109299.4, 50261.52, 0.00413868, 10.000034, 9.9999895 
2.1649754e+3, 1.9168732e+2, -1200247.3, -1103847.5, 5911.2915, -0.026166014, 0.9906573, -1103486.4, -41934.77, 0.00045452762, 9.998796, 10.000037 
2.1650188e+3, 2.0168789e+2, -1263800.9, -1157702.6, -82278.1, -0.11346349, 1.079077, -1112854.4, -149306.31, 0.000007502901, 9.99799, 9.999388 
2.1650615e+3, 2.1168625e+2, -937890.1, -966005.56, -81944.016, -0.07794658, 0.9822898, -868806.75, -3244.7703, 0.0, 9.999648, 9.999219 
2.1651047e+3, 2.2168449e+2, -700769.8, -829148.3, -24225.475, -0.013363649, 0.9023198, -696350.5, 71227.09, 0.0, 10.000722, 9.998975 
2.1651489e+3, 2.3168296e+2, -761511.3, -806006.7, -30369.318, 0.09171785, 0.8432027, -746112.56, -76519.53, 0.0, 9.999632, 9.998979 
2.1651931e+3, 2.4168196e+2, -696929.7, -612982.94, 26487.723, 0.14557283, 0.8251029, -605324.06, -33721.816, 0.0, 9.9989, 9.999996 
2.1652374e+3, 2.5168276e+2, -404043.9, -336641.9, 20567.7, -0.012595065, 0.8386679, -330861.44, 142728.38, 0.0, 9.9999075, 10.000713 
2.1652812e+3, 2.6168266e+2, -329087.28, -501293.38, -47724.926, -0.12660684, 0.83904284, -316745.4, 58842.348, 0.0, 10.000821, 9.99848 
2.1653251e+3, 2.7167913e+2, -235693.06, -498971.38, -45443.95, -0.086262785, 0.7078411, -228069.8, 49554.81, 0.0, 10.001216, 9.997619 
2.165369e+3, 2.8167677e+2, -80648.75, -283319.88, 23655.818, -0.065999165, 0.6864437, -77924.266, 101726.99, 0.0000000029805467, 10.00117, 9.998474 
2.1654129e+3, 2.9167846e+2, -165212.66, -184797.38, -34257.633, -0.117529474, 0.9429009, -139375.31, -57737.008, 0.0000013452404, 9.999575, 9.99922 
2.1654604e+3, 3.016794e+2, -263678.13, -370496.63, -14764.197, 0.18038471, 1.1582253, -261675.02, -261675.02, 0.000010696579, 9.999184, 9.997846 
2.1655051e+3, 3.116739e+2, 278614.13, -88163.79, 145172.42, 0.1885773, 0.8302422, 329119.47, 329119.47, 0.000035610625, 10.002861, 9.99797 
2.1747197e+3, 1.3164884e+2, -1755482.8, -1758514.1, -160495.27, -0.089432694, 1.2217909, -1596496.0, 53426.41, 0.48078975, 9.999611, 9.999256 
2.1747613e+3, 1.4164232e+2, -1659548.0, -1716642.1, 66876.195, 0.32575396, 0.628081, -1615380.8, -63397.242, 0.32934, 9.999566, 9.998826 
2.1748012e+3, 1.5164322e+2, -1732730.5, -1727537.0, 45749.03, 0.113195054, 0.82840437, -1684311.0, -230333.16, 0.18832743, 9.998511, 9.998582 
2.174842e+3, 1.616437e+2, -1701434.6, -1590263.1, 1068.8025, -0.058015425, 1.0136982, -1590252.9, -234277.42, 0.0852701, 9.997718, 9.999255 
2.1748868e+3, 1.7164177e+2, -1328983.8, -1261507.6, 36010.887, -0.028035956, 0.80901426, -1245899.6, 12092.063, 0.028395085, 9.999214, 10.000099 
2.1749309e+3, 1.8164028e+2, -1154024.0, -1216872.0, -8720.866, 0.0019232656, 0.688638, -1152836.3, 7169.0815, 0.006367479, 10.000131, 9.9993 
2.1749748e+3, 1.9164135e+2, -1267157.1, -1249588.9, -45379.508, 0.028022679, 0.87552786, -1212151.1, -150149.38, 0.0009868387, 9.998822, 9.999024 
2.1750183e+3, 2.0164193e+2, -1238706.1, -1103356.6, -59087.734, 0.020039525, 1.0199281, -1081191.4, -117190.69, 0.000047582707, 9.997973, 9.999772 
2.1750616e+3, 2.1164063e+2, -874883.9, -813047.6, -7297.742, -0.06429326, 0.85627484, -812198.06, 53811.02, 0.00000000032497088, 9.999547, 10.00032 
2.1751045e+3, 2.2163953e+2, -716980.1, -818356.56, -36121.254, -0.11228223, 0.76439184, -705426.56, 62590.055, 0.0, 10.000536, 9.999134 
2.175148e+3, 2.316399e+2, -800758.44, -861709.25, -70376.68, 0.01999441, 0.9173398, -754542.06, -84526.31, 0.0, 9.999528, 9.998641 
2.175192e+3, 2.416398e+2, -771491.9, -732171.56, 34226.9, 0.10875717, 1.0325795, -712360.2, -140341.63, 0.0, 9.998758, 9.99924 
2.1752372e+3, 2.5163743e+2, -486659.3, -477777.53, 69544.44, 0.010786186, 0.81876206, -412532.3, 61505.027, 0.0, 9.999783, 9.999802 
2.1752825e+3, 2.6163566e+2, -322547.3, -431513.66, -30186.15, -0.103835, 0.6952715, -314743.9, 61307.586, 0.0, 10.000588, 9.999066 
2.1753258e+3, 2.7163714e+2, -172277.67, -329216.7, -21510.39, -0.1522415, 0.94111097, -169382.81, 108656.44, 0.0, 10.001057, 9.998857 
2.1753699e+3, 2.8163734e+2, -181315.38, -420243.06, -20526.402, -0.12009175, 1.1291201, -179564.77, 474.60995, 0.0, 10.000878, 9.997664 
2.1754153e+3, 2.9163116e+2, -274552.3, -417903.28, -86285.46, 0.16237268, 0.73948497, -234055.8, -151956.11, 0.00000028754212, 9.999595, 9.99761 
2.1754621e+3, 3.0162588e+2, -133470.14, -27794.777, 51591.18, 0.41341883, 0.34459242, -6784.843, -6784.843, 0.0000061160813, 9.998938, 10.000287 
2.1755064e+3, 3.1163526e+2, 284007.56, 132880.16, 269141.56, -0.0096596675, 1.1370828, 487991.8, 487991.8, 0.000027460846, 10.001989, 9.999899 
2.1847615e+3, 1.4159979e+2, -1613775.9, -1760774.8, -80924.63, 0.3762926, 0.6409646, -1577954.9, -25550.842, 0.34983045, 10.000136, 9.998247 
2.1848004e+3, 1.5160038e+2, -1357782.4, -1612230.5, -183782.5, 0.037782926, 0.8979439, -1261484.8, 192915.03, 0.2059314, 10.001655, 9.997947 
2.184841e+3, 1.6159889e+2, -1430858.0, -1481551.4, -62524.11, -0.013104065, 0.9350945, -1388738.3, -32323.84, 0.09816949, 9.999691, 9.999052 
2.1848862e+3, 1.7159721e+2, -1341615.9, -1277555.9, 1212.3683, 0.029933354, 0.77280885, -1277532.9, -19104.98, 0.036017943, 9.999212, 9.99998 
2.1849309e+3, 1.8159601e+2, -1326232.4, -1301072.1, -51943.75, 0.055370037, 0.6884673, -1260206.9, -99767.97, 0.009796201, 9.998949, 9.999292 
2.1849741e+3, 1.9159661e+2, -1204773.6, -1208335.9, -37378.266, 0.07760416, 0.82402617, -1169134.1, -106695.1, 0.0020521113, 9.999208, 9.999111 
2.1850173e+3, 2.0159703e+2, -1041774.2, -993754.06, 41679.56, 0.07909857, 0.9384068, -969663.5, -5224.1147, 0.00020967671, 9.9992695, 9.999903 
2.185061e+3, 2.1159641e+2, -954879.6, -838007.4, 29510.02, -0.023955276, 0.83377653, -830978.8, 35463.04, 0.00000086887735, 9.998938, 10.000449 
2.1851042e+3, 2.2159584e+2, -946123.8, -925811.2, -52322.883, -0.09394169, 0.7857957, -882668.0, -114223.08, 0.0, 9.998929, 9.999186 
2.1851473e+3, 2.3159584e+2, -671068.0, -786595.9, -79319.016, -0.033302274, 0.8972791, -630708.7, 39737.695, 0.0, 10.000376, 9.998747 
2.1851909e+3, 2.4159536e+2, -418345.88, -599594.56, 59789.004, 0.023579877, 0.97878253, -400399.97, 172052.13, 0.0, 10.001339, 9.998914 
2.1852371e+3, 2.5159293e+2, -450355.97, -527609.56, 101475.81, -0.014443057, 0.8147601, -380403.9, 94069.7, 0.0, 10.000305, 9.999221 
2.1852827e+3, 2.6159137e+2, -463129.03, -462896.6, 33370.6, -0.06564866, 0.7385553, -429642.0, -53154.863, 0.0, 9.999438, 9.999422 
2.1853262e+3, 2.7159327e+2, -311675.25, -306478.38, -1816.1549, -0.12378262, 0.95526326, -305906.6, -27437.102, 0.0, 9.99969, 9.999687 
2.1853706e+3, 2.8159362e+2, -284394.97, -478718.5, 8476.247, -0.07747239, 1.1010227, -284025.94, -103559.195, 0.0, 10.000181, 9.997612 
2.1854168e+3, 2.9158717e+2, 56929.58, -322261.7, -182.45749, 0.22265986, 0.74409115, 56929.668, 139459.9, 0.000000027227998, 10.002133, 9.997056 
2.1854633e+3, 3.015823e+2, 510478.4, 307406.4, 109873.95, 0.4411709, 0.40582922, 558548.06, 558548.06, 0.0000044959556, 10.003193, 10.000578 
2.1855056e+3, 3.1159163e+2, -171168.75, -11917.732, 14471.809, -0.053490758, 1.1564527, -10613.303, -10613.303, 0.000025056414, 9.998451, 10.000644 
2.1947595e+3, 1.415542e+2, -1605474.9, -1667548.9, 224497.27, 0.12752217, 0.83649665, -1409879.3, 142981.58, 0.371045, 10.000112, 9.999138 
2.1947989e+3, 1.5155564e+2, -1253941.8, -1388856.9, -219325.06, -0.29839146, 1.0581919, -1091934.8, 362908.7, 0.22535217, 10.001772, 9.99961 
2.1948408e+3, 1.6155115e+2, -1373979.3, -1381452.5, -115911.48, -0.025214419, 0.642145, -1261744.1, 95138.38, 0.113554515, 9.999796, 9.999729 
2.1948867e+3, 1.7155187e+2, -1361464.4, -1317225.4, -7688.1753, 0.15524562, 0.7332605, -1315927.4, -57052.68, 0.046104282, 9.999209, 9.999706 
2.1949314e+3, 1.8155289e+2, -1267987.4, -1191026.8, -47941.418, 0.1883265, 0.8656646, -1168032.6, -7167.9517, 0.015073848, 9.998991, 10.0000305 
2.1949734e+3, 1.9155306e+2, -1118025.4, -1028655.44, -20367.684, 0.060937192, 0.84339076, -1024232.5, 38631.574, 0.004138987, 9.999213, 10.000344 
2.1950157e+3, 2.0155309e+2, -1060139.0, -1025751.8, 30157.24, -0.036717076, 0.8451354, -1008231.2, -43366.36, 0.00072646124, 9.999244, 9.999692 
2.1950598e+3, 2.1155345e+2, -1032361.75, -979632.75, 18051.756, -0.03276444, 0.91537255, -974044.9, -107182.76, 0.000022642807, 9.9988575, 9.999509 
2.1951038e+3, 2.2155322e+2, -970385.4, -942425.9, -22952.867, -0.048243072, 0.9651796, -929530.56, -160666.22, 0.000000000011542125, 9.998781, 9.999142 
2.1951465e+3, 2.3155074e+2, -652232.94, -727244.8, -13883.383, -0.13334912, 0.78894746, -649745.8, 21139.363, 0.0, 10.000281, 9.999199 
2.1951899e+3, 2.4154869e+2, -455366.4, -619487.8, 41971.227, -0.20249595, 0.6830248, -445255.8, 127646.96, 0.0, 10.001105, 9.998882 
2.1952361e+3, 2.5154907e+2, -491400.47, -585850.9, 62923.87, -0.1534211, 0.8223726, -459951.44, 14949.35, 0.0, 10.000195, 9.99887 
2.1952817e+3, 2.615493e+2, -496561.53, -474206.5, 23604.348, -0.11497754, 0.9493037, -459266.94, -82367.24, 0.0, 9.999208, 9.999441 
2.1953264e+3, 2.7154747e+2, -306860.78, -263874.22, 15511.328, -0.08983165, 0.76425326, -258861.61, 20054.217, 0.0, 9.999568, 10.000028 
2.1953711e+3, 2.8154552e+2, -281739.2, -423024.3, 44695.504, -0.07019123, 0.6394503, -268787.13, -87853.08, 0.0, 9.99998, 9.998086 
2.195417e+3, 2.9154584e+2, 36290.03, -308951.44, 96951.664, 0.017881282, 0.9130109, 61652.99, 144589.89, 0.000000020729713, 10.00189, 9.997266 
2.1954633e+3, 3.015467e+2, 307270.38, 29431.281, 25298.352, 0.082161225, 1.212505, 309555.13, 309555.13, 0.0000055230016, 10.002614, 9.998916 
2.1955039e+3, 3.1154132e+2, -330802.6, -252670.19, -68963.41, -0.104259975, 0.6852962, -212476.56, -212476.56, 0.000029811183, 9.998134, 9.9991045 
2.2047578e+3, 1.4150816e+2, -1744025.6, -1765730.6, 369427.66, 0.00743502, 0.9815955, -1385291.0, 168030.28, 0.39437363, 9.999307, 9.998964 
2.2047988e+3, 1.5151033e+2, -1549300.0, -1392694.9, -277173.34, -0.3182419, 1.1781526, -1182976.0, 272319.13, 0.24751917, 9.998733, 10.001185 
2.2048406e+3, 1.6150633e+2, -1448839.4, -1322021.9, -161570.84, 0.02326501, 0.6555842, -1211862.8, 145464.53, 0.13222682, 9.998819, 10.000684 
2.204886e+3, 1.7150792e+2, -1403392.0, -1319933.8, -8817.43, 0.18565655, 0.8037092, -1319012.3, -59701.867, 0.059555795, 9.998795, 9.999915 
2.2049302e+3, 1.8150942e+2, -1285663.5, -1165451.1, -3607.8484, 0.20456997, 0.95737886, -1165343.0, -4048.092, 0.023171267, 9.998718, 10.000342 
2.204973e+3, 1.9150925e+2, -1082527.0, -983552.6, -46703.688, 0.106822565, 0.8720067, -964994.1, 98301.06, 0.008108057, 9.999319, 10.000622 
2.2050159e+3, 2.0150898e+2, -973691.6, -1000778.6, -42390.11, 0.04332112, 0.83293855, -942734.06, 22562.95, 0.0021629941, 9.9999, 9.9995575 
2.2050595e+3, 2.115093e+2, -803599.1, -905459.2, -28742.617, -0.005655675, 0.93094355, -796048.3, 71246.91, 0.00023583506, 10.000575, 9.999195 
2.2051035e+3, 2.2150895e+2, -641534.06, -764661.94, -14704.846, -0.048744727, 0.98775053, -639802.25, 129496.43, 0.0000019906881, 10.000955, 9.999315 
2.2051471e+3, 2.3150656e+2, -609685.25, -665616.6, -19619.512, -0.09856095, 0.7836926, -603489.5, 67828.0, 0.0, 10.000379, 9.99959 
2.2051911e+3, 2.4150455e+2, -628398.6, -678063.2, 24841.42, -0.120257266, 0.65434235, -618106.25, -44772.813, 0.0, 9.999794, 9.999117 
2.2052361e+3, 2.5150532e+2, -553562.06, -581325.3, 49616.223, -0.10789573, 0.8061945, -515922.16, -40594.637, 0.0, 9.999659, 9.999133 
2.2052813e+3, 2.6150578e+2, -461715.56, -520264.38, 62909.15, -0.07988754, 0.95367146, -421603.0, -44278.363, 0.0, 9.999704, 9.998897 
2.2053267e+3, 2.7150312e+2, -265901.8, -352921.3, -16768.426, -0.034327153, 0.7792205, -262782.4, 16569.035, 0.0, 10.000302, 9.99907 
2.2053719e+3, 2.815008e+2, -142801.83, -270989.06, -29010.994, -0.0014069172, 0.64531106, -136541.84, 44833.63, 0.0, 10.000583, 9.998835 
2.2054175e+3, 2.9150185e+2, -123451.44, -221250.34, 67127.45, -0.015509643, 0.86980665, -89301.2, -5933.276, 0.00000007580395, 10.0000925, 9.9987335 
2.2054641e+3, 3.0150425e+2, -74961.805, -241098.7, 64321.56, 0.036905546, 1.2518694, -52970.125, -52970.125, 0.0000083740215, 10.000314, 9.998189 
2.2055057e+3, 3.114983e+2, 375440.25, 94656.57, -96836.8, 0.015693344, 0.8205036, 405598.2, 405598.2, 0.000042885644, 10.002916, 9.999203 
2.2147578e+3, 1.414635e+2, -1761303.8, -1870089.8, 254838.61, 0.032113057, 1.2734914, -1555118.0, -1350.3219, 0.4221777, 9.999343, 9.997863 
2.2148003e+3, 1.5146397e+2, -1472686.8, -1236495.1, -231313.77, -0.04616514, 1.2387092, -1094874.4, 360885.16, 0.27423543, 9.998615, 10.002607 
2.2148396e+3, 1.6146424e+2, -1356048.9, -1148942.0, -160091.02, 0.025304535, 0.99198574, -1061832.3, 295918.44, 0.15564767, 9.9988365, 10.002045 
2.2148833e+3, 1.7146547e+2, -1343564.6, -1200951.8, -9457.388, 0.042916577, 1.0032206, -1200327.3, 59407.14, 0.07778218, 9.998794, 10.000767 
2.2149272e+3, 1.8146566e+2, -1289147.8, -1190709.6, 4477.0024, 0.008355539, 0.97750366, -1190506.4, -28777.432, 0.035576556, 9.998786, 10.000141 
2.2149727e+3, 1.9146508e+2, -1139609.4, -1095956.6, -19413.482, 0.15044516, 0.918161, -1088572.1, -24838.705, 0.0154146915, 9.999297, 9.999856 
2.2150178e+3, 2.0146452e+2, -982156.25, -1010316.0, -21331.127, 0.23018461, 0.901762, -970677.2, -4939.587, 0.005714695, 9.999864, 9.999509 
2.2150603e+3, 2.1146385e+2, -793350.9, -865776.2, 3630.3738, -0.009587394, 0.8764321, -793169.3, 74573.02, 0.0013616167, 10.000492, 9.999508 
2.215103e+3, 2.2146317e+2, -652705.0, -741931.3, -26135.217, -0.19109975, 0.8723362, -645613.4, 124133.49, 0.00013056793, 10.000757, 9.999566 
2.2151485e+3, 2.3146303e+2, -607893.56, -635693.0, -37281.656, -0.0006313131, 0.8658557, -582004.8, 89740.85, 0.0000045921656, 10.000258, 9.999855 
2.2151937e+3, 2.4146259e+2, -635010.44, -630796.8, 4709.584, 0.1490604, 0.8635082, -627744.25, -53996.977, 0.000000030624218, 9.999549, 9.999551 
2.2152373e+3, 2.5146145e+2, -526049.6, -493972.13, 49142.453, 0.042725377, 0.7645431, -458317.34, 17438.576, 0.0, 9.999534, 9.999791 
2.2152814e+3, 2.6146054e+2, -559401.3, -677960.25, 63335.59, -0.05929638, 0.7605422, -531931.44, -154166.7, 0.0, 9.999528, 9.997891 
2.2153272e+3, 2.7146e+2, -424277.72, -654869.8, 12481.778, -0.03182545, 0.97370523, -423604.06, -143825.61, 0.0, 10.0001955, 9.997042 
2.2153723e+3, 2.814588e+2, -133380.1, -184288.66, -39762.254, -0.014206189, 1.0689452, -111622.55, 70173.17, 0.0, 10.000316, 9.999545 
2.2154178e+3, 2.9145548e+2, 11146.553, 87424.59, 55953.813, 0.013791548, 0.64916056, 117001.26, 200823.03, 0.00000027397763, 9.999984, 10.000892 
2.2154652e+3, 3.0145535e+2, -120590.586, -240521.2, 111267.695, 0.09603081, 0.6432695, -54158.355, -54158.355, 0.000015050563, 9.999952, 9.9983425 
2.2155073e+3, 3.1146044e+2, 318455.6, 166436.98, -28201.676, -0.1325132, 1.3406483, 323518.78, 323518.78, 0.00007034586, 10.002167, 10.000027 
2.2247612e+3, 1.4141878e+2, -1154260.0, -1422812.4, -45539.883, 0.14460412, 1.324558, -1146747.8, 407459.63, 0.45833316, 10.005334, 9.998793 
2.2247988e+3, 1.5141904e+2, -1578294.6, -1303062.1, -51306.563, 0.005381381, 1.1399486, -1293809.0, 162392.47, 0.30885017, 9.997769, 10.00235 
2.2248396e+3, 1.6142084e+2, -1344364.6, -1151052.1, -49220.03, 0.15848085, 1.0750316, -1139241.6, 218937.45, 0.18666483, 9.998849, 10.00205 
2.2248828e+3, 1.714223e+2, -1234943.8, -1095916.9, 31521.01, 0.08875045, 1.0629886, -1089104.1, 171055.11, 0.103338934, 9.999302, 10.001328 
2.224926e+3, 1.8142262e+2, -1208196.6, -1162494.4, 59781.023, -0.004296563, 1.014989, -1121345.9, 40805.42, 0.054786276, 9.999376, 10.0000725 
2.2249721e+3, 1.9142175e+2, -1027378.8, -1083914.0, 67307.97, 0.13767381, 0.95931524, -982643.5, 81514.89, 0.028543482, 10.0002365, 9.999492 
2.2250178e+3, 2.0142074e+2, -860221.94, -976672.75, 76597.27, 0.23258187, 0.9223897, -822232.3, 143934.69, 0.013685946, 10.000826, 9.999271 
2.2250603e+3, 2.1141922e+2, -857854.56, -920327.6, 37279.49, -0.014794332, 0.8335501, -840454.9, 27724.715, 0.005262215, 10.000157, 9.999294 
2.2251032e+3, 2.2141805e+2, -827570.7, -838737.44, -17428.586, -0.17446637, 0.7993803, -814853.0, -44664.152, 0.001420654, 9.999593, 9.999471 
2.225149e+3, 2.3141909e+2, -695682.9, -673749.25, -60411.195, 0.0678389, 0.91047007, -623317.5, 48860.15, 0.0002619265, 9.99963, 9.999902 
2.2251943e+3, 2.4141937e+2, -598339.94, -627602.9, -15650.974, 0.25653476, 0.98458433, -591546.3, -17373.129, 0.000035642544, 9.999844, 9.999444 
2.2252378e+3, 2.51417e+2, -370628.2, -436263.94, -16738.945, 0.07959554, 0.77694887, -366605.78, 109586.97, 0.0000011567587, 10.000637, 9.999681 
2.2252814e+3, 2.6141506e+2, -319349.72, -548696.5, -8200.156, -0.06252302, 0.6765557, -319056.9, 59153.402, 0.0, 10.001121, 9.998009 
2.2253281e+3, 2.7141538e+2, -229189.02, -533800.94, 57496.477, 0.016725708, 0.9583427, -218697.72, 61517.64, 0.0, 10.001447, 9.997264 
2.2253746e+3, 2.8141513e+2, 37666.566, -140359.75, 72532.805, 0.10651065, 1.1426623, 63476.53, 245699.48, 0.0, 10.001635, 9.9992285 
2.2254184e+3, 2.9141092e+2, 104961.08, 54279.855, -42700.855, 0.041108534, 0.7016476, 129274.37, 213533.27, 0.00000073017384, 10.000969, 10.00019 
2.2254643e+3, 3.014091e+2, -111713.71, -225436.34, -48137.105, 0.030528314, 0.5524019, -94074.086, -94074.086, 0.00002755439, 9.99994, 9.998468 
2.2255081e+3, 3.1141296e+2, 107254.96, 124548.02, -155062.77, -0.17559297, 1.1215822, 271205.16, 271205.16, 0.000118261974, 10.000391, 10.000626 
2.2347939e+3, 1.513763e+2, -1733194.5, -1500525.0, -66414.82, -0.28750274, 0.9606512, -1482902.0, -26289.434, 0.35698506, 9.997581, 10.0005665 
2.2348408e+3, 1.613759e+2, -1468533.8, -1353642.0, -28258.703, 0.35382, 0.87072283, -1347067.8, 11545.96, 0.23053116, 9.998766, 10.000398 
2.234884e+3, 1.7137808e+2, -1239566.4, -1096898.1, 41200.258, 0.26881692, 0.95342475, -1085855.0, 174732.8, 0.14104874, 9.999227, 10.001412 
2.2349262e+3, 1.8138006e+2, -1204691.6, -1150904.3, 73716.19, 0.063226946, 1.051433, -1099329.1, 63235.22, 0.08532412, 9.999363, 10.000171 
2.2349712e+3, 1.913792e+2, -1026123.44, -1071423.3, 104659.21, 0.0046921894, 0.98949635, -941691.25, 122879.7, 0.05187056, 10.000206, 9.999606 
2.2350161e+3, 2.0137776e+2, -904250.9, -1047859.5, 67330.67, -0.042374793, 0.91614836, -877621.06, 88962.89, 0.030293982, 10.00075, 9.998818 
2.2350599e+3, 2.1137527e+2, -925954.1, -1038812.56, 13400.167, -0.087272316, 0.7983191, -924384.9, -55776.44, 0.015773455, 10.000056, 9.998531 
2.2351037e+3, 2.2137335e+2, -893074.9, -918238.25, -30113.6, -0.09765885, 0.7584462, -873020.25, -102393.14, 0.0069356123, 9.999363, 9.999026 
2.2351484e+3, 2.3137455e+2, -719353.1, -703497.9, -50301.184, 0.036830116, 0.9036095, -660503.44, 12111.952, 0.002541045, 9.999545, 9.999733 
2.2351927e+3, 2.413749e+2, -675384.94, -737193.5, -2861.3606, 0.111334756, 1.0207818, -675252.75, -100641.24, 0.00075579167, 9.99964, 9.998782 
2.235237e+3, 2.5137207e+2, -444762.4, -557816.44, 20136.031, -0.06364627, 0.8361539, -441283.06, 35353.766, 0.00014769337, 10.000497, 9.998911 
2.2352813e+3, 2.6136947e+2, -313608.6, -450330.0, -7995.519, -0.20655727, 0.7000849, -313142.63, 65517.664, 0.000007045108, 10.000777, 9.998834 
2.2353299e+3, 2.7136925e+2, -123740.05, -263824.7, 77381.4, 0.030709038, 0.7558935, -89408.97, 191253.7, 0.00000000065814787, 10.001242, 9.999203 
2.2353774e+3, 2.813696e+2, -102789.805, -345720.75, 47909.05, 0.22832067, 0.891437, -93682.93, 88977.9, 0.0, 10.001293, 9.997965 
2.235419e+3, 2.913679e+2, -161262.89, -444205.7, -64620.813, -0.020220986, 0.98557293, -147202.92, -62521.36, 0.0000012574419, 10.000759, 9.996853 
2.2354607e+3, 3.0136442e+2, -206725.44, -300029.84, -68701.55, -0.34137204, 0.8943992, -170333.5, -170333.5, 0.000044073433, 9.999468, 9.998156 
2.235509e+3, 3.1136128e+2, -58321.8, -3766.7654, 53808.367, -0.13449351, 0.6809125, 29283.186, 29283.186, 0.00018419352, 9.999541, 10.000127 
2.2447993e+3, 1.5133701e+2, -1226254.3, -1678143.4, -51059.95, 0.12716596, 0.99426466, -1220556.8, 236429.83, 0.42759266, 10.004456, 9.995973 
2.2448403e+3, 1.6133235e+2, -1448479.3, -1550050.4, -81274.93, 0.41504642, 0.854415, -1403427.5, -44389.24, 0.29616648, 9.999788, 9.998548 
2.2448833e+3, 1.713332e+2, -1206382.8, -1131368.4, -21214.213, 0.27300677, 0.8747571, -1125784.6, 135243.13, 0.19952731, 9.999749, 10.000957 
2.2449262e+3, 1.8133439e+2, -1142568.9, -1144071.3, -20507.701, 0.119106166, 0.93312234, -1122798.6, 40214.727, 0.13536815, 9.999888, 9.99996 
2.244971e+3, 1.9133416e+2, -1036201.7, -1076884.0, -15661.91, -0.019187476, 0.93912095, -1030870.7, 34144.633, 0.09319166, 10.000133, 9.999603 
2.2450158e+3, 2.0133364e+2, -950025.2, -1045952.3, -58954.285, -0.10920998, 0.951853, -921988.0, 45031.844, 0.06306426, 10.000286, 9.999091 
2.24506e+3, 2.113322e+2, -914990.3, -991609.75, -64886.504, -0.044504613, 0.9118272, -877948.25, -8915.266, 0.0400799, 9.99992, 9.998948 
2.2451045e+3, 2.213306e+2, -831290.7, -905978.8, 2252.948, 0.027070077, 0.8820747, -831222.75, -60175.188, 0.023131557, 9.999835, 9.998898 
2.2451487e+3, 2.313295e+2, -633257.3, -711408.9, -36799.21, 0.09504723, 0.83475447, -618657.25, 54400.44, 0.011994159, 10.000344, 9.999296 
2.2451931e+3, 2.4132827e+2, -518977.63, -713276.06, 15803.16, 0.12635599, 0.843107, -517700.66, 57368.594, 0.0054928027, 10.000924, 9.99833 
2.2452375e+3, 2.5132713e+2, -334184.22, -532377.2, 57936.87, -0.070419736, 0.8596996, -318490.47, 158589.23, 0.002050329, 10.00138, 9.998658 
2.2452822e+3, 2.6132545e+2, -216846.25, -368863.8, 26455.549, -0.19226865, 0.8278051, -212373.8, 166721.22, 0.0004876709, 10.001264, 9.999175 
2.2453308e+3, 2.7132398e+2, -106974.0, -160560.77, 38889.43, 0.03978407, 0.6845416, -86541.62, 194564.89, 0.000047167257, 10.000932, 10.000072 
2.2453779e+3, 2.8132442e+2, -256994.83, -453136.47, -14456.214, 0.21609603, 0.7748509, -255935.1, -72833.46, 0.00000034188096, 10.000375, 9.99767 
2.2454196e+3, 2.913246e+2, -95966.164, -534837.94, -21743.674, -0.04433855, 1.1702503, -94891.516, -9783.737, 0.0000013302117, 10.001723, 9.995776 
2.2454631e+3, 3.0131933e+2, 245547.03, -45096.42, 70641.734, -0.1782888, 0.931621, 261807.03, 261807.03, 0.0000584347, 10.002372, 9.998519 
2.2455087e+3, 3.1131798e+2, -211796.14, -158381.78, 94567.57, -0.064425506, 0.86156744, -86822.49, -86822.49, 0.00025945, 9.998752, 9.999448 
2.2548379e+3, 1.6129032e+2, -1688630.1, -1982821.5, -176355.86, 0.11869247, 1.0516698, -1606077.1, -246625.23, 0.39765337, 9.999492, 9.995718 
2.2548808e+3, 1.712874e+2, -1275301.4, -1261948.9, -31682.17, 0.01917353, 0.8202342, -1236247.1, 25234.346, 0.29298013, 9.9997015, 9.999909 
2.254926e+3, 1.8128532e+2, -1218434.0, -1256815.4, -42843.92, 0.07826719, 0.64768916, -1190679.1, -27177.674, 0.21888196, 9.999689, 9.999249 
2.2549714e+3, 1.9128607e+2, -1075238.1, -1127400.6, -10774.215, -0.009799723, 0.7808965, -1073100.4, -7603.985, 0.16615056, 9.999972, 9.999322 
2.2550164e+3, 2.0128782e+2, -911177.06, -925207.5, -60844.16, -0.094172396, 0.9962662, -856945.06, 110534.914, 0.12546477, 10.000144, 10.000019 
2.2550608e+3, 2.1128972e+2, -824081.2, -782867.56, -68435.41, 0.017108692, 1.1419405, -732003.8, 137452.52, 0.0914258, 9.999841, 10.000469 
2.255105e+3, 2.2128972e+2, -854001.75, -912259.25, 10336.73, 0.09227992, 1.1656917, -852222.06, -80770.875, 0.062582165, 9.999659, 9.99894 
2.2551501e+3, 2.3128402e+2, -697744.25, -826678.9, -10389.507, 0.18593013, 0.71398294, -696912.44, -23408.488, 0.039919913, 10.000239, 9.998565 
2.2551946e+3, 2.4127963e+2, -612676.75, -803712.5, 19110.365, 0.18212444, 0.48283756, -610783.8, -35238.777, 0.023601582, 10.000497, 9.997903 
2.2552395e+3, 2.5128207e+2, -357788.25, -523280.63, 74537.71, -0.03808603, 0.84220725, -329166.56, 148355.89, 0.012405956, 10.001159, 9.998816 
2.2552842e+3, 2.612825e+2, -289149.1, -430238.56, -7674.295, -0.14763147, 1.0308279, -288732.88, 90786.164, 0.005154125, 10.000901, 9.998921 
2.2553311e+3, 2.7127934e+2, -159999.56, -196566.81, 23401.059, -0.040642545, 0.72001565, -148586.38, 132961.17, 0.0013586987, 10.000626, 9.999967 
2.2553757e+3, 2.8127944e+2, -326766.03, -467492.44, -24315.473, -0.058480754, 0.7831991, -322683.13, -139137.61, 0.00015517221, 9.99986, 9.997796 
2.2554207e+3, 2.91281e+2, -103300.875, -456056.3, 42818.8, -0.12857622, 1.2765386, -98177.77, -12640.664, 0.0000026982873, 10.001389, 9.996441 
2.25547e+3, 3.012736e+2, 239729.72, 46787.367, -6012.867, 0.23322773, 0.7131923, 239916.92, 239916.92, 0.000065484004, 10.001972, 9.999319 
2.2555052e+3, 3.1127852e+2, -338404.7, -368576.28, 32787.32, -0.33123693, 1.2653522, -317399.06, -317399.06, 0.00034262822, 9.998566, 9.998091 
2.2648816e+3, 1.7124723e+2, -1365491.9, -1329894.5, 212910.34, 0.19695298, 0.9783327, -1134040.1, 127821.414, 0.44342524, 9.998934, 10.0002775 
2.264932e+3, 1.8124992e+2, -1430537.4, -1586272.3, 351447.0, 0.72560555, 1.2048687, -1148434.9, 15401.128, 0.3585124, 9.999142, 9.997301 
2.2649737e+3, 1.9124566e+2, -1423948.0, -1563128.4, 200397.17, 0.29908898, 1.0999665, -1281401.9, -215515.6, 0.29413474, 9.998759, 9.996878 
2.2650154e+3, 2.012423e+2, -1069108.8, -1078340.6, 24776.35, -0.1556284, 0.978721, -1048522.0, -80596.375, 0.24160613, 9.9992695, 9.999352 
2.2650589e+3, 2.112434e+2, -780741.9, -776350.2, -101104.99, -0.16398329, 1.0635844, -677417.2, 192493.1, 0.1940874, 10.000233, 10.000443 
2.265104e+3, 2.2124349e+2, -635445.6, -845918.1, -90006.984, -0.06442204, 1.1038426, -602204.75, 169700.27, 0.14888066, 10.00149, 9.998554 
2.2651504e+3, 2.312395e+2, -445414.13, -762830.75, -129425.38, 0.100814395, 0.8952076, -399331.7, 274611.0, 0.108788945, 10.002456, 9.9979725 
2.2651963e+3, 2.4123636e+2, -222581.44, -546709.44, -77439.6, 0.18083444, 0.80973524, -205030.2, 370942.8, 0.07581198, 10.003027, 9.998505 
2.2652411e+3, 2.5123796e+2, -307249.25, -418682.88, -16748.172, 0.037898898, 1.0052563, -304786.47, 173172.89, 0.048806984, 10.001099, 9.999646 
2.265285e+3, 2.6123753e+2, -539317.5, -585542.1, -39833.7, -0.060489774, 1.082347, -516376.56, -136411.22, 0.026684597, 9.99927, 9.998656 
2.2653316e+3, 2.7123395e+2, -128472.48, -219373.89, -6380.6855, -0.025997296, 0.7633452, -128026.78, 153971.97, 0.010897145, 10.000941, 9.99969 
2.2653762e+3, 2.8123385e+2, -150503.33, -305007.78, -67231.11, -0.008165806, 0.80314505, -125344.97, 58654.254, 0.002788968, 10.000708, 9.99852 
2.2654234e+3, 2.9123655e+2, -6470.673, -257141.75, 99115.82, 0.004561469, 1.3012643, 27984.1, 113960.52, 0.0003034348, 10.001396, 9.997809 
2.2654732e+3, 3.0123058e+2, 365385.7, 115849.23, 34842.418, 0.31433845, 0.74464774, 370159.34, 370159.34, 0.000074942734, 10.002833, 9.999385 
2.2655064e+3, 3.1123242e+2, 488226.7, -142470.55, -158627.97, -0.39583004, 1.1899202, 525876.06, 525876.06, 0.00045627946, 10.004916, 9.996645 
2.2750159e+3, 2.0119753e+2, -1225540.5, -1488437.9, 82043.555, -0.084600896, 0.96872693, -1202037.9, -233685.9, 0.4526298, 9.99965, 9.996323 
2.2750603e+3, 2.1119286e+2, -775841.3, -914589.1, 17964.326, -0.06112765, 0.6391672, -773553.1, 96846.08, 0.38963944, 10.001301, 9.998798 
2.2751069e+3, 2.2119147e+2, -759086.7, -1045784.94, 55347.555, 0.059641562, 0.6607302, -748772.8, 23640.824, 0.32267725, 10.001133, 9.997305 
2.2751519e+3, 2.3119444e+2, -610437.4, -908376.44, -33627.336, -0.006798656, 1.2025115, -606689.1, 67699.21, 0.25840095, 10.001579, 9.997334 
2.2751978e+3, 2.4119666e+2, -313574.8, -505060.38, -81809.46, -0.031013643, 1.6601502, -283383.22, 292987.03, 0.20062341, 10.0023155, 9.999216 
2.275243e+3, 2.5119457e+2, -305097.78, -274213.63, -75550.734, 0.084838025, 1.3018247, -212543.0, 265849.3, 0.14660953, 10.000571, 10.001079 
2.2752847e+3, 2.611912e+2, -777073.94, -803593.44, -60511.707, -0.04567624, 1.0415282, -728386.25, -347959.56, 0.09444842, 9.998127, 9.997674 
2.275333e+3, 2.7118862e+2, -232689.06, -310492.6, 54910.582, -0.004600126, 0.8582167, -204296.55, 78155.55, 0.04983968, 10.000454, 9.999262 
2.2753792e+3, 2.811879e+2, -196476.83, -214218.0, -129943.51, 0.17835891, 0.83518714, -75101.484, 109357.555, 0.019500945, 9.999961, 9.999479 
2.2754265e+3, 2.9119164e+2, 48519.855, -25873.504, 121942.336, 0.20536755, 1.2377775, 138812.5, 225234.06, 0.004786881, 10.0009365, 9.9995985 
2.275472e+3, 3.0119097e+2, 157411.63, -91043.75, 49044.23, -0.11598897, 1.1010065, 166742.36, 166742.36, 0.0007184054, 10.001954, 9.998345 
2.2755092e+3, 3.111821e+2, 155718.36, -539812.44, -154346.63, -0.62386256, 0.74553096, 188431.16, 188431.16, 0.0007782504, 10.00387, 9.994319 
2.2852007e+3, 2.4114154e+2, -779676.8, -519847.7, 11723.576, 0.23428516, 0.45245615, -519319.78, 57578.652, 0.45869297, 9.996944, 10.002291 
2.2852363e+3, 2.5114036e+2, -923970.4, -746120.2, -100591.45, -0.43549192, 0.32810107, -700783.2, -221862.14, 0.36361384, 9.996925, 9.999452 
2.2852854e+3, 2.611497e+2, -1002190.56, -963025.1, 5028.099, 0.27487177, 1.4662658, -962389.9, -581550.1, 0.26167566, 9.996598, 9.997398 
2.2853355e+3, 2.7114576e+2, -225661.9, -438659.06, 174124.14, 0.1991107, 1.2237235, -128049.82, 154833.22, 0.1640845, 10.001064, 9.998241 
2.2853792e+3, 2.8114045e+2, 16577.652, -104633.69, -202208.8, 0.12483897, 0.8500376, 167067.8, 352004.78, 0.0825175, 10.00143, 9.99964 
2.2854275e+3, 2.9114336e+2, 251097.98, 224454.73, 88729.59, 0.18463407, 1.039327, 327500.4, 414405.34, 0.030766612, 10.001599, 10.001125 
2.2854725e+3, 3.011482e+2, 11919.872, -41194.508, 37179.69, -0.17063503, 1.3289492, 31053.094, 31053.094, 0.009050018, 10.00031, 9.99952 
2.2855107e+3, 3.1114095e+2, -124923.74, -153026.42, -10446.188, -0.6272527, 0.99971944, -121466.14, -121466.14, 0.00396133, 9.999589, 9.999052 
2.295336e+3, 2.7110434e+2, 100954.016, -307880.47, 109893.22, 0.11392, 1.7461134, 128620.66, 411921.53, 0.43463576, 10.005824, 9.996864 
2.295375e+3, 2.8109273e+2, -613991.7, -621053.06, -444268.25, -0.5018079, 0.86545163, -173240.1, 12180.498, 0.2541732, 9.998, 9.997602 
2.295426e+3, 2.910947e+2, 208994.58, 349880.63, 95730.164, -0.16094078, 0.7836254, 398292.5, 485689.34, 0.12172139, 10.000886, 10.002564 
2.2954732e+3, 3.0110425e+2, -569311.7, -130547.76, -90681.6, -0.20040637, 1.4074087, -112544.805, -112544.805, 0.053793974, 9.995661, 10.001042 
2.2955139e+3, 3.111077e+2, 459442.38, 1233935.9, 26579.088, -0.3905216, 1.665756, 1234847.0, 1234847.0, 0.030915003, 9.999045, 10.008992 
2.30545e+3, 2.9108408e+2, 828621.7, -370932.47, -212462.0, 1.1372534, 3.263583, 865140.6, 952664.7, 0.3598295, 10.013522, 9.991645 
2.305455e+3, 3.0104998e+2, -1344941.8, -1023936.1, -167925.45, -1.7827318, 0.15655915, -952145.75, -952145.75, 0.21211481, 9.99223, 9.996674 
2.3055224e+3, 3.110507e+2, 748749.44, -542312.25, 248348.25, -0.03420016, 1.4180497, 794873.75, 794873.75, 0.1625616, 10.009805, 9.991991 
2.3520386e+3, 2.7476096e+2, -205237.25, 25231.895, 960407.0, 0.3128626, 0.45022154, 877292.9, 1124640.3, 0.4482896, 9.999852, 10.004736 
2.3516168e+3, 2.8473705e+2, -1002521.3, -1259057.3, -721389.5, 0.3120955, -1.0933522, -398085.06, -248517.0, 0.3501484, 9.996043, 9.993823 
2.3511852e+3, 2.9474154e+2, 852311.8, 443056.97, 620134.4, -0.6998873, 0.04648772, 1300707.4, 1352238.3, 0.2717677, 10.00826, 10.00024 
2.3507944e+3, 3.0473718e+2, -272364.7, 317630.56, 411861.75, 0.49608427, 0.7390204, 529242.94, 529242.94, 0.21635866, 9.997178, 10.004318 
2.3662446e+3, 1.7526172e+2, -2162388.3, -1210316.6, -115132.32, 0.768781, -0.21394733, -1196591.8, 25793.12, 0.43640667, 9.990787, 10.003991 
2.3658067e+3, 1.8524173e+2, -534918.0, -939385.4, 237687.3, -0.61334616, -1.3247052, -425072.03, 699502.2, 0.3775988, 10.006816, 9.997954 
2.365395e+3, 1.9523707e+2, -1090693.9, -1214965.8, 268577.94, 0.23063207, -0.8012388, -877157.94, 149466.0, 0.33353588, 10.000025, 9.998138 
2.36497e+3, 2.0523465e+2, -403595.84, -478219.6, -98569.21, -0.40664047, -0.16913117, -335512.9, 593135.75, 0.30097756, 10.003411, 10.002013 
2.3645577e+3, 2.1522342e+2, -509025.72, -494117.56, -120027.16, 0.48059696, -0.688018, -381313.25, 449442.38, 0.27814138, 10.001263, 10.00195 
2.364135e+3, 2.2521679e+2, 358811.22, -258884.58, -76467.62, 0.5081993, -0.5341823, 368136.72, 1100957.4, 0.26103863, 10.009854, 9.9989605 
2.3637111e+3, 2.3520544e+2, -868240.1, -713181.8, -157900.94, 0.510462, -0.80033207, -614803.44, 20133.412, 0.24561448, 9.997556, 10.0000305 
2.3632886e+3, 2.4520105e+2, -1916288.5, -842961.0, 472054.1, 0.36915952, -0.50231767, -664891.9, -127904.44, 0.23007867, 9.98828, 10.002913 
2.3628744e+3, 2.551946e+2, -467816.88, 8360.87, 500401.9, 0.35747206, -0.52481663, 324427.53, 763486.25, 0.20982312, 9.9969845, 10.004907 
2.3624429e+3, 2.6519057e+2, 554592.2, 100594.77, -123967.63, -0.34939992, -0.41029194, 586236.9, 927345.56, 0.17454442, 10.0064945, 10.00006 
2.3620273e+3, 2.7518758e+2, -923328.6, -1513348.9, 74105.09, 0.080445595, 0.48808545, -914163.56, -671011.25, 0.12466501, 9.998865, 9.991172 
2.3616035e+3, 2.85174e+2, 178027.31, -2892.4053, -111573.19, 0.012595128, 0.47774133, 231204.38, 376485.72, 0.08153213, 10.001723, 9.999676 
2.3611832e+3, 2.9515928e+2, 330277.97, 632107.8, 642260.75, -0.7629351, -0.5967648, 1140946.0, 1188351.1, 0.05459831, 10.000363, 10.004473 
2.3607859e+3, 3.0514714e+2, -471104.16, -518857.13, -292815.47, 0.8483249, -0.8114947, -201193.31, -201193.31, 0.038551264, 9.998301, 9.997339 
2.3770699e+3, 1.5571204e+2, -1963742.6, -2226873.5, -20568.465, 0.27592084, 0.2181734, -1962144.5, -548184.75, 0.40915975, 9.997893, 9.994783 
2.3766543e+3, 1.6568524e+2, -2177383.8, -1816328.6, 464290.66, 0.72935635, -1.2347289, -1498703.6, -182471.56, 0.31914032, 9.99397, 9.998783 
2.3762348e+3, 1.756852e+2, -1092640.8, -1247610.5, 149917.77, 0.57409537, -0.27858046, -1001367.6, 216868.36, 0.25440004, 10.001035, 9.998831 
2.3758103e+3, 1.8567464e+2, -772379.25, -1013945.25, -20684.09, 0.32474783, -0.31934217, -770620.94, 349717.4, 0.20803122, 10.002849, 9.9989 
2.3753862e+3, 1.956618e+2, -1080041.8, -1161238.0, 14072.487, 0.27012026, -0.61903924, -1077672.0, -55211.22, 0.17323056, 9.999424, 9.998748 
2.3749624e+3, 2.0565239e+2, -1253005.5, -972941.94, -10921.27, 0.05133089, -0.6444991, -972516.7, -47960.93, 0.14628343, 9.9966345, 10.000671 
2.3745373e+3, 2.1564546e+2, -1348793.6, -914099.1, -99872.84, -0.19319439, -0.5609381, -892251.06, -65620.805, 0.1255341, 9.995073, 10.001163 
2.3741145e+3, 2.2563827e+2, -1108294.6, -842444.25, 61339.766, -0.35984313, -0.47773597, -828973.8, -100271.1, 0.10829949, 9.99649, 10.000289 
2.3736921e+3, 2.35629e+2, -369592.7, -396254.44, 11551.294, -0.5864922, -0.5283476, -365284.28, 265508.6, 0.09199208, 10.000871, 10.000726 
2.373269e+3, 2.4562274e+2, -249889.6, -277457.4, -72032.55, -0.6692833, -0.38930577, -190333.98, 342530.25, 0.07586676, 10.000911, 10.000867 
2.3728533e+3, 2.556174e+2, -989353.25, -815297.0, -183550.94, -0.45182776, -0.012851016, -699187.6, -264253.88, 0.059159193, 9.996177, 9.9985695 
2.3724355e+3, 2.6560897e+2, -409409.9, -259232.4, -365619.5, -0.052925445, -0.02723015, 38929.344, 375946.1, 0.040411934, 9.9983835, 10.000784 
2.3720224e+3, 2.7559763e+2, -58493.934, -436516.16, 178169.39, 0.3380581, -0.25114235, 12243.932, 251361.95, 0.021717502, 10.002213, 9.996827 
2.3715994e+3, 2.8558713e+2, 225556.1, 45831.273, 16253.172, 0.19053042, -0.21466437, 227014.1, 368225.3, 0.009484875, 10.002255, 9.999403 
2.3711777e+3, 2.9557866e+2, -394977.7, 219853.38, 410297.3, -0.21442002, -0.46416909, 425125.06, 468407.47, 0.004323496, 9.99587, 10.003258 
2.3707725e+3, 3.055667e+2, -6236.1045, 124118.61, 28124.926, 0.4851988, -0.7976061, 129927.87, 129927.87, 0.0025107223, 9.999726, 10.000738 
2.3874876e+3, 1.4612915e+2, -2094053.4, -1445181.0, -46295.406, 0.25121847, -0.7106124, -1441894.6, 65976.016, 0.38967866, 9.993941, 10.0029335 
2.3870625e+3, 1.5612161e+2, -1205739.1, -1161514.0, -180981.1, 0.42148444, -0.92409897, -1001299.56, 408645.9, 0.2783623, 10.000521, 10.001543 
2.3866399e+3, 1.6611181e+2, -1216477.3, -1513291.9, 153175.42, 0.23282057, -0.93785614, -1151606.8, 160443.28, 0.19862524, 10.001587, 9.997229 
2.38622e+3, 1.7610498e+2, -1381487.6, -1585216.4, 112632.484, -0.16122672, -0.5024156, -1331488.8, -117358.95, 0.1461588, 9.999604, 9.997039 
2.3857954e+3, 1.8609606e+2, -1117948.9, -1167595.5, -84152.836, -0.45399225, -0.33891186, -1055034.5, 61182.227, 0.11113541, 9.999779, 9.999135 
2.3853691e+3, 1.9608368e+2, -890706.7, -1040104.06, -44974.016, -0.61972606, -0.6372764, -878212.75, 140116.53, 0.08556882, 10.000759, 9.998923 
2.3849507e+3, 2.0607457e+2, -690984.1, -851177.06, -17828.232, -0.20076552, -0.5892048, -689024.0, 231398.55, 0.065839775, 10.001353, 9.99924 
2.3845342e+3, 2.1606764e+2, -527093.6, -711014.3, -124776.96, 0.48078176, -0.35094112, -464050.78, 358451.9, 0.050802168, 10.0017185, 9.999395 
2.3841158e+3, 2.2606164e+2, -517235.06, -405642.63, 30107.488, 0.7380008, -0.17794214, -398037.9, 326525.03, 0.038884565, 9.999993, 10.00166 
2.3836973e+3, 2.3605546e+2, -905412.8, -714809.6, -16579.041, 0.77145964, -0.029525872, -713378.3, -86759.945, 0.028499383, 9.997371, 10.000068 
2.3832725e+3, 2.4604678e+2, -848130.0, -955309.44, -103901.73, 0.5173614, 0.09109661, -784812.0, -256097.72, 0.019239577, 9.998445, 9.997226 
2.3828486e+3, 2.5603518e+2, -801872.1, -1091059.9, 26736.346, 0.14501767, 0.20459023, -799421.0, -368571.6, 0.011432521, 9.999103, 9.995264 
2.3824294e+3, 2.6602402e+2, 138026.86, 326852.72, -35154.63, 0.22965415, -0.05296988, 333185.25, 666138.0, 0.005416997, 10.00092, 10.003469 
2.3820168e+3, 2.7601102e+2, -33523.277, 97353.09, 73151.414, 0.43777946, -0.83418494, 130064.21, 365118.78, 0.001679893, 10.000089, 10.0015335 
2.381593e+3, 2.860014e+2, 26407.498, -35259.445, -315751.34, 0.2176276, -0.9518599, 312827.28, 449962.78, 0.00032890253, 10.000774, 9.999583 
2.3811716e+3, 2.9600152e+2, -405720.28, -62560.617, 12762.826, 0.29317135, -0.27601415, -62086.598, -22956.715, 0.000101376245, 9.996845, 10.000948 
2.3807593e+3, 3.0598912e+2, 104082.25, 514288.84, 279545.75, -0.12380789, -0.70001435, 655903.25, 655903.25, 0.00014155441, 9.998895, 10.003927 
2.3978926e+3, 1.3655576e+2, -1942834.0, -2772494.8, -66749.36, 0.3894375, -1.4709362, -1937498.1, -335812.22, 0.42782024, 10.001498, 9.990595 
2.397477e+3, 1.4655672e+2, -1893488.8, -1565644.0, 13970.122, 0.6013984, -0.21337116, -1565049.9, -61360.063, 0.2998544, 9.996298, 10.000781 
2.3970552e+3, 1.5654418e+2, -1193716.0, -1311895.5, -48313.977, 0.46283934, -0.64107054, -1176478.5, 229331.69, 0.19614406, 10.001273, 9.999689 
2.3966353e+3, 1.6653635e+2, -1095196.3, -1370888.9, 29211.594, 0.42300713, -0.44546798, -1092135.1, 215761.8, 0.12585048, 10.001912, 9.998088 
2.3962168e+3, 1.7653076e+2, -1249148.3, -1417773.6, 27826.156, 0.40419593, 0.049343456, -1244675.1, -34706.824, 0.083471425, 9.999992, 9.998029 
2.3957935e+3, 1.865205e+2, -932391.7, -931480.0, -58834.992, 0.2242292, -0.052618463, -873099.06, 238967.6, 0.057587944, 10.000387, 10.000543 
2.3953679e+3, 1.965076e+2, -681206.44, -835091.6, -2211.4932, -0.02397966, -0.5210301, -681174.7, 333006.44, 0.03970386, 10.00173, 9.999896 
2.3949458e+3, 2.0649776e+2, -694271.25, -1063225.6, -9777.503, 0.00891903, -0.47878644, -694012.4, 222269.81, 0.026570952, 10.002184, 9.997341 
2.3945251e+3, 2.1648957e+2, -491069.1, -853457.25, -92030.77, 0.21470065, -0.15070836, -469036.78, 349339.22, 0.017417854, 10.002619, 9.997926 
2.3941024e+3, 2.264809e+2, -346378.16, -325086.94, -94066.484, 0.18406686, -0.17496768, -241065.58, 479393.4, 0.011141793, 10.001183, 10.001583 
2.3936792e+3, 2.3647077e+2, -707147.25, -605796.3, -86238.85, 0.016427226, -0.40227905, -556446.06, 66101.9, 0.0065593217, 9.998699, 10.00014 
2.3932578e+3, 2.4646169e+2, -555807.8, -609859.44, 15776.087, 0.011747455, -0.41277412, -551540.2, -26899.5, 0.0032030866, 9.999609, 9.998997 
2.3928405e+3, 2.564529e+2, -350355.6, -669509.06, 222465.78, 0.11557378, -0.2123516, -236151.84, 190586.92, 0.0011282732, 10.001382, 9.997007 
2.3924217e+3, 2.6644287e+2, -160266.23, -339207.28, 62895.652, 0.15655053, -0.12737033, -140371.14, 188465.11, 0.00023273825, 10.001207, 9.99868 
2.3920037e+3, 2.7643088e+2, -431502.03, -333331.06, -21299.115, 0.045148455, -0.38103575, -328909.22, -97964.77, 0.000018051116, 9.998447, 9.999293 
2.3915826e+3, 2.8641856e+2, -240990.4, -57307.637, -342940.06, 0.11899573, -0.7427139, 205875.94, 338928.56, 0.000004039042, 9.9985285, 10.000465 
2.3911677e+3, 2.9641366e+2, -128432.14, -71201.164, -64369.938, 0.90634924, -0.52338266, -29372.809, 5714.469, 0.000013542408, 9.99931, 9.999698 
2.3907481e+3, 3.0639994e+2, 165669.14, 252132.25, 43317.875, -0.32418647, -0.80015695, 270100.4, 270100.4, 0.00005303312, 10.000461, 10.001428 
2.4083015e+3, 1.2698586e+2, -1821022.0, -1485877.0, 129442.74, -0.17221405, -0.49139103, -1441704.4, 253766.28, 0.49043, 9.997106, 10.003561 
2.407886e+3, 1.3698357e+2, -1387611.1, -1301921.8, 10837.055, 0.4107174, -0.22979182, -1300572.5, 296928.84, 0.36336082, 10.000508, 10.002362 
2.4074678e+3, 1.4697404e+2, -1317887.6, -1472690.3, 943.16266, 0.57371175, -0.37849927, -1317881.9, 181717.64, 0.24041095, 10.001654, 9.998812 
2.4070472e+3, 1.5696178e+2, -1293730.1, -1481320.9, -96152.92, 0.39712122, -0.62961453, -1253201.5, 148520.75, 0.14389461, 10.001032, 9.998435 
2.4066277e+3, 1.669548e+2, -1211429.0, -1308582.6, -75889.64, 0.4149756, -0.36899433, -1169900.6, 133899.42, 0.08188297, 10.000482, 9.999202 
2.4062094e+3, 1.7694929e+2, -1269723.0, -1336748.9, -88478.49, 0.56044, 0.027503978, -1208623.3, -2755.787, 0.047678713, 9.999483, 9.998846 
2.4057868e+3, 1.869396e+2, -1123770.4, -1051551.6, -177339.86, 0.45196515, -0.05613602, -906682.25, 201280.53, 0.028905774, 9.9992075, 10.000215 
2.4053621e+3, 1.969283e+2, -1138254.4, -1111367.8, -261492.86, 0.21980299, -0.3481447, -862972.9, 147093.3, 0.017015342, 9.998803, 9.999365 
2.4049388e+3, 2.0691867e+2, -1132452.0, -1207712.5, -190219.06, 0.11095605, -0.32843864, -976176.8, -64013.65, 0.00915297, 9.998865, 9.997956 
2.4045166e+3, 2.1690966e+2, -1030888.3, -1121701.9, -104261.336, 0.13839184, -0.13497172, -962575.25, -148315.63, 0.0045936005, 9.998948, 9.997851 
2.4040918e+3, 2.2689968e+2, -663163.56, -585945.6, -126406.23, -0.032532614, -0.24036935, -492383.53, 223971.48, 0.0022051786, 9.999472, 10.000582 
2.4036662e+3, 2.3688771e+2, -660390.2, -663685.0, -151248.25, -0.3224227, -0.5750875, -510780.38, 107683.4, 0.0009056362, 9.999394, 9.999419 
2.4032463e+3, 2.4687898e+2, -375880.72, -384439.8, -54189.26, -0.2685435, -0.6041821, -325802.28, 194745.95, 0.00023937336, 10.000338, 10.000152 
2.402832e+3, 2.5687164e+2, -516009.66, -698349.3, -5215.125, 0.010283405, -0.42504066, -515860.63, -93236.98, 0.000025130046, 10.000028, 9.997476 
2.4024126e+3, 2.6686206e+2, -425762.25, -819722.7, -110800.125, 0.014710171, -0.15196736, -396738.3, -72016.984, 0.00000030344088, 10.000926, 9.995515 
2.4019915e+3, 2.7685136e+2, -401810.2, -534281.06, -76729.64, -0.21568863, -0.018908836, -366682.06, -139852.84, 0.000000006555133, 9.9995365, 9.997443 
2.4015732e+3, 2.8683785e+2, 119853.38, 192316.19, -206133.67, 0.13638675, -0.48946452, 365378.38, 494327.44, 0.00000087941476, 10.000688, 10.001145 
2.4011612e+3, 2.968268e+2, -144994.39, -330658.0, 34957.125, 1.0323367, -0.8148167, -138630.7, -107592.58, 0.0000071974287, 10.000272, 9.997471 
2.4007383e+3, 3.0681452e+2, -478348.53, -465570.97, 338480.72, -0.5771711, -0.6435508, -133418.75, -133418.75, 0.000033846587, 9.997823, 9.997726 
2.4182937e+3, 1.2740885e+2, -1863193.3, -1649687.5, 127508.98, 0.22500065, -0.60465413, -1590143.3, 101192.49, 0.44509992, 9.9978285, 10.001176 
2.4178776e+3, 1.3740008e+2, -1426698.3, -1533032.0, 72367.625, 0.3468462, -0.68895996, -1390066.5, 203348.8, 0.31930807, 10.001349, 9.999458 
2.417459e+3, 1.473899e+2, -1366329.9, -1734346.1, -21967.502, 0.3570699, -0.6420473, -1365023.3, 130497.234, 0.20041417, 10.002141, 9.996739 
2.4170385e+3, 1.5737836e+2, -1295210.3, -1602089.6, -88335.336, 0.24464774, -0.61086375, -1271599.4, 126044.25, 0.110025235, 10.001506, 9.997345 
2.4166182e+3, 1.6736987e+2, -1042392.06, -1087131.8, -97668.22, 0.25664955, -0.54684126, -964564.7, 335169.0, 0.054970514, 10.00105, 10.000499 
2.4161986e+3, 1.7736241e+2, -1108255.8, -1176587.3, -100656.5, 0.32968774, -0.4618061, -1036124.6, 165688.17, 0.027314784, 10.000242, 9.999589 
2.4157752e+3, 1.8735418e+2, -1165251.1, -1284493.1, -184238.02, 0.22667749, -0.31301752, -1031227.4, 72671.6, 0.013986388, 9.999806, 9.9983225 
2.4153505e+3, 1.9734523e+2, -1092983.4, -1168719.5, -252079.83, 0.027015068, -0.17992698, -875943.1, 130047.5, 0.006556314, 9.999419, 9.998673 
2.4149293e+3, 2.0733608e+2, -852314.6, -729915.3, -194044.78, 0.13364321, -0.2676873, -587648.06, 320428.78, 0.002469395, 9.999299, 10.001044 
2.4145092e+3, 2.1732675e+2, -793122.5, -765040.0, -75272.71, 0.34668916, -0.39613914, -702510.1, 107653.3, 0.00078321603, 9.999494, 10.000044 
2.4140859e+3, 2.2731817e+2, -736805.44, -819328.94, -105662.97, 0.29802418, -0.3372595, -664633.56, 47615.3, 0.00023610769, 9.999781, 9.998835 
2.413662e+3, 2.3730898e+2, -659951.44, -808392.6, -103524.8, 0.104634695, -0.22891112, -606790.44, 7551.198, 0.000047296035, 10.000002, 9.998122 
2.41324e+3, 2.4729842e+2, -489606.53, -601858.6, -64468.69, -0.08551324, -0.28898498, -460255.44, 56190.188, 0.0000020598873, 10.000254, 9.998707 
2.4128214e+3, 2.5728732e+2, -542827.56, -706090.44, -62280.69, -0.21733391, -0.37294263, -521781.97, -103227.52, 0.0, 9.999815, 9.997505 
2.4124053e+3, 2.6727703e+2, -386963.0, -600500.0, -93201.79, 0.078593574, -0.27335232, -352006.13, -31349.336, 0.0, 10.0003805, 9.997252 
2.41199e+3, 2.772674e+2, -111326.055, -252353.58, -33863.95, 0.42666572, -0.17558289, -103616.05, 119137.07, 0.0, 10.000856, 9.998756 
2.4115656e+3, 2.8725618e+2, 246585.66, 149469.11, -183603.84, 0.08317647, -0.41504124, 387943.88, 512798.1, 0.0000001537889, 10.001898, 10.000329 
2.4111421e+3, 2.9724678e+2, 201816.22, -242034.47, -15276.616, -0.24919991, -0.46395835, 202341.4, 229275.36, 0.000003139397, 10.002885, 9.996842 
2.4107346e+3, 3.0723277e+2, -668179.0, -615098.44, 107437.96, 0.20151539, -0.42693895, -530971.2, -530971.2, 0.000017110242, 9.996738, 9.99722 
2.4282868e+3, 1.2782413e+2, -1422551.4, -1445224.3, 15734.184, 0.35636592, -0.8092925, -1414495.0, 272775.38, 0.4141129, 10.001823, 10.001395 
2.4278703e+3, 1.3781856e+2, -1330289.1, -1489547.4, -14529.08, 0.2733451, -0.63941205, -1328974.5, 260343.33, 0.28877336, 10.002209, 9.999404 
2.4274519e+3, 1.4780885e+2, -1344958.6, -1654144.6, -44130.645, 0.31508932, -0.5882335, -1338783.1, 152633.7, 0.17287979, 10.001925, 9.997428 
2.4270323e+3, 1.5779765e+2, -1269243.4, -1556309.9, 4126.687, 0.34833604, -0.5785054, -1269184.0, 124350.99, 0.08747846, 10.001434, 9.997737 
2.426611e+3, 1.6778895e+2, -961746.1, -1063153.4, -8087.3496, 0.27310234, -0.5356979, -961105.2, 334521.28, 0.038149297, 10.00164, 10.000364 
2.4261896e+3, 1.7778127e+2, -881081.56, -1061249.3, -79785.52, 0.21317667, -0.46030498, -850829.1, 346877.66, 0.01570925, 10.001811, 9.999622 
2.4257658e+3, 1.8777286e+2, -811092.94, -1058335.0, -68888.85, 0.07132196, -0.36704654, -793194.25, 306598.72, 0.0064830934, 10.001997, 9.998827 
2.4253413e+3, 1.9776402e+2, -780352.6, -996749.94, -1201.8851, -0.062072527, -0.2416845, -780346.0, 221537.34, 0.0021827125, 10.001513, 9.998839 
2.4249202e+3, 2.0775469e+2, -678743.5, -621014.0, -50223.645, 0.12789455, -0.35004747, -591951.3, 312019.75, 0.00044835047, 10.000412, 10.001234 
2.4245003e+3, 2.1774502e+2, -943848.06, -834521.1, -131794.8, 0.43299818, -0.5390912, -746503.25, 59555.51, 0.000068581576, 9.998489, 10.00005 
2.4240774e+3, 2.2773743e+2, -959327.8, -946445.8, -104795.97, 0.40990195, -0.37548935, -847893.06, -139756.73, 0.0000096515805, 9.998441, 9.998572 
2.4236543e+3, 2.3772985e+2, -960917.44, -1034717.1, 2304.0872, 0.2904952, -0.07781032, -960845.56, -350627.94, 0.00000040342232, 9.998342, 9.997369 
2.4232322e+3, 2.4771796e+2, -685157.3, -809837.4, 104617.945, 0.0033802646, -0.16967902, -625713.94, -113378.53, 0.0, 9.99946, 9.997641 
2.4228115e+3, 2.5770444e+2, -616469.6, -783759.94, 101481.984, -0.32043535, -0.40023047, -568603.94, -154136.95, 0.0, 9.9995365, 9.997121 
2.4223977e+3, 2.6769394e+2, -284300.28, -382745.7, 76957.99, 0.13440569, -0.4046266, -242169.78, 74401.6, 0.0, 10.000421, 9.998698 
2.421986e+3, 2.776847e+2, -261804.05, -358819.4, 45532.832, 0.80925524, -0.35199994, -243781.78, -25118.17, 0.0, 9.999996, 9.998455 
2.4215567e+3, 2.876751e+2, -98750.88, -162049.73, -49498.637, -0.103779905, -0.31735313, -71648.28, 49105.223, 0.0000000009564638, 10.000211, 9.998982 
2.4211259e+3, 2.976667e+2, -414270.03, -537796.06, 115130.14, -1.2527531, -0.17992322, -345382.28, -322551.88, 0.0000004799063, 9.998707, 9.996837 
2.4207285e+3, 3.0765426e+2, -518010.0, -527872.25, -93755.76, 0.6705722, -0.13452347, -429055.78, -429055.78, 0.0000055147566, 9.997614, 9.997457 
2.4382783e+3, 1.2824146e+2, -1361549.5, -1375149.3, 58974.586, 0.1039142, -0.65482885, -1308984.0, 374199.75, 0.39271495, 10.002141, 10.001909 
2.437863e+3, 1.3823712e+2, -1311001.1, -1374696.3, 11192.208, 0.1258939, -0.40231833, -1309091.8, 276131.03, 0.26710206, 10.001695, 10.000683 
2.4374454e+3, 1.4822799e+2, -1234280.3, -1365195.8, -51254.516, 0.30466715, -0.47791523, -1216601.1, 270711.75, 0.15331793, 10.001686, 9.999689 
2.4370266e+3, 1.5821752e+2, -1189801.0, -1365943.0, 6000.6045, 0.48168468, -0.6019911, -1189596.9, 199821.75, 0.07196278, 10.001345, 9.9991045 
2.436605e+3, 1.6821025e+2, -1015253.56, -1200283.3, 10063.474, 0.35273474, -0.39539754, -1014707.8, 276789.16, 0.027363949, 10.001708, 9.999363 
2.4361822e+3, 1.782037e+2, -847053.2, -1023589.44, -53310.8, 0.11525684, -0.12076385, -832203.44, 361365.38, 0.009079448, 10.001955, 9.999788 
2.4357583e+3, 1.8819441e+2, -635688.6, -703983.1, -73944.49, -0.013904184, -0.27094904, -588387.6, 507268.7, 0.002868925, 10.002045, 10.001233 
2.4353342e+3, 1.9818409e+2, -643455.7, -805698.44, -18077.88, -0.10069399, -0.509756, -641465.75, 356285.75, 0.00059867656, 10.001894, 9.999967 
2.4349114e+3, 2.0817436e+2, -835855.44, -994129.0, -114318.3, 0.07949819, -0.5181932, -775955.2, 123892.87, 0.000045539302, 10.0005865, 9.998598 
2.434489e+3, 2.1816468e+2, -983685.44, -986769.25, -162457.2, 0.3112003, -0.46107313, -822762.9, -20817.463, 0.0000022398012, 9.998769, 9.998857 
2.4340652e+3, 2.2815654e+2, -822776.6, -688560.9, -82562.414, 0.22105579, -0.4096928, -649273.2, 54752.293, 0.000000052409952, 9.9985485, 10.00029 
2.4336419e+3, 2.3814848e+2, -795690.1, -771472.5, 59055.297, 0.04511701, -0.32836112, -723297.4, -117192.914, 0.0, 9.9986725, 9.999007 
2.4332228e+3, 2.481371e+2, -716480.0, -835121.7, 182251.11, -0.0116161015, -0.40337607, -584138.56, -75921.95, 0.0, 9.999268, 9.997573 
2.4328054e+3, 2.5812474e+2, -537808.75, -690478.56, 186620.13, -0.080118425, -0.51539516, -412515.1, -2176.1812, 0.0, 9.999801, 9.997624 
2.4323882e+3, 2.6811472e+2, -281817.16, -411673.78, 132709.3, -0.0081493175, -0.46270669, -199004.33, 113437.61, 0.0, 10.000492, 9.998502 
2.4319717e+3, 2.7810565e+2, -93266.17, -240118.75, 76725.68, 0.17399289, -0.3537925, -60493.355, 154043.11, 0.0, 10.000911, 9.998842 
2.4315493e+3, 2.8809717e+2, 3923.918, 12815.106, 19737.893, 0.056451272, -0.2830922, 28601.854, 145220.52, 0.0, 10.00031, 10.000163 
2.4311279e+3, 2.9808924e+2, -197278.17, -128062.38, 263566.88, -0.084102154, -0.22663067, 103159.01, 121852.82, 0.000000008678429, 9.998841, 9.999586 
2.430714e+3, 3.0808172e+2, -73980.49, -22543.164, -58012.563, 0.24550918, 0.033591527, 15196.087, 15196.087, 0.0000009202062, 9.999201, 10.000263 
2.4486972e+3, 1.1866819e+2, -1795197.6, -1997579.3, -106360.01, 0.6859809, -0.92831224, -1749582.4, 27418.729, 0.4945417, 10.000595, 9.997739 
2.4482705e+3, 1.2866655e+2, -1480981.8, -1536762.5, 111170.27, -0.0062747374, -0.1807991, -1394256.6, 284768.53, 0.3775347, 10.001582, 10.00031 
2.4478558e+3, 1.386559e+2, -1572856.3, -1536134.1, 56127.168, 0.2316708, -0.40904573, -1495441.1, 85685.68, 0.25111946, 9.999495, 10.000254 
2.447436e+3, 1.486466e+2, -1426355.1, -1374970.4, -14891.259, 0.21792373, -0.54492056, -1370966.9, 112247.25, 0.13882844, 9.999692, 10.000557 
2.447016e+3, 1.5863733e+2, -1335988.6, -1347467.5, -7734.158, 0.23975745, -0.6310395, -1332096.9, 53204.76, 0.060861234, 9.999903, 9.999907 
2.4465954e+3, 1.6863008e+2, -1207342.1, -1227575.9, 50656.887, 0.18455666, -0.49534953, -1165801.8, 121573.6, 0.02025213, 10.000156, 9.9998665 
2.4461739e+3, 1.7862311e+2, -1124208.5, -1150761.6, 35135.02, 0.078947425, -0.2925278, -1099925.3, 89522.875, 0.0052852775, 10.000028, 9.999831 
2.4457502e+3, 1.8861437e+2, -1041988.7, -930646.75, -100601.38, -0.0011130162, -0.36987123, -871339.94, 220193.55, 0.0012089658, 9.999405, 10.000934 
2.4453261e+3, 1.9860478e+2, -1171077.5, -1107334.9, -194944.2, -0.023257803, -0.5200911, -941673.8, 51951.004, 0.00012403581, 9.998514, 9.999519 
2.4449027e+3, 2.085947e+2, -970999.25, -1133598.8, -200402.17, 0.07117379, -0.5346875, -836033.7, 59692.816, 0.000001917801, 10.000034, 9.997874 
2.4444793e+3, 2.185845e+2, -666084.0, -920553.75, -120940.47, 0.20952038, -0.4623401, -617775.94, 180055.03, 0.000000018702426, 10.001373, 9.998042 
2.4440552e+3, 2.2857592e+2, -312396.13, -444870.13, -109301.375, 0.09119906, -0.42962947, -250828.08, 449086.28, 0.0, 10.002074, 10.000256 
2.443632e+3, 2.3856735e+2, -364926.84, -572609.94, -98109.72, -0.06534691, -0.4250215, -325909.78, 276086.2, 0.0, 10.0017, 9.998918 
2.4432144e+3, 2.4855651e+2, -441254.53, -662838.4, 26113.139, 0.0022618405, -0.49422252, -438218.75, 65883.305, 0.0, 10.001055, 9.997864 
2.4427982e+3, 2.5854516e+2, -570244.94, -718711.06, 68298.97, 0.08236875, -0.5428914, -543605.3, -137391.2, 0.0, 9.999651, 9.997516 
2.4423781e+3, 2.685359e+2, -394367.3, -467908.75, 83806.07, -0.16916466, -0.43327352, -339620.03, -31308.77, 0.0, 9.999726, 9.998483 
2.4419585e+3, 2.7852726e+2, -324360.1, -314459.16, 36815.926, -0.3640472, -0.3077729, -282262.38, -71858.61, 0.0, 9.99918, 9.999188 
2.4415427e+3, 2.8851968e+2, -76034.88, 121182.05, -59496.39, 0.2660374, -0.275302, 137740.64, 250219.36, 0.0, 9.999177, 10.001438 
2.4411274e+3, 2.985127e+2, -397553.4, -76744.7, 132516.61, 0.82146764, -0.2594972, -29086.07, -14539.854, 0.0, 9.996857, 10.000912 
2.4406958e+3, 3.0850494e+2, -128146.516, 251584.55, 59171.465, -0.6930309, -0.29678097, 260591.3, 260591.3, 0.00000009975268, 9.997797, 10.002706 
2.4586882e+3, 1.1909446e+2, -1775301.3, -1978868.4, 41670.113, 0.5400206, -0.44302922, -1767101.6, 5732.813, 0.48539782, 10.000547, 9.997867 
2.4582636e+3, 1.2909131e+2, -1567329.9, -1662832.8, 44322.008, -0.005002669, 0.21246025, -1549930.4, 124939.68, 0.36593348, 10.001162, 9.999129 
2.4578476e+3, 1.3907461e+2, -1587905.1, -1607983.6, 62483.785, 0.29769847, -0.49927214, -1534659.3, 42371.77, 0.23856215, 9.99974, 9.999532 
2.4574256e+3, 1.4906527e+2, -1366906.1, -1319578.3, 24924.057, 0.039100852, -0.62879723, -1308873.8, 170240.1, 0.1275105, 10.000026, 10.00081 
2.457003e+3, 1.590572e+2, -1212979.0, -1192489.5, 21658.89, -0.24269797, -0.6333265, -1178774.6, 202408.98, 0.052560914, 10.000362, 10.000789 
2.456584e+3, 1.6904852e+2, -1068883.1, -1015095.94, 48623.168, -0.12532333, -0.75902885, -986424.44, 296839.1, 0.01541553, 10.000464, 10.001199 
2.4561651e+3, 1.7903979e+2, -1086301.5, -1128157.3, 3477.9219, 0.027781604, -0.83406025, -1086014.5, 99332.26, 0.0031067657, 10.000255, 9.999877 
2.4557415e+3, 1.8903288e+2, -1169551.9, -1237081.9, -136811.45, 0.06680743, -0.5704531, -1062400.5, 25024.617, 0.00048131414, 9.999574, 9.9987545 
2.4553174e+3, 1.9902566e+2, -1170884.3, -1188713.4, -175270.67, 0.077853814, -0.29094824, -1004301.6, -14794.254, 0.000015932997, 9.998854, 9.998782 
2.454894e+3, 2.0901491e+2, -841317.6, -927715.1, -128412.03, 0.08547807, -0.42588207, -749032.9, 142580.42, 0.0000000054715246, 10.000296, 9.999162 
2.4544714e+3, 2.1900357e+2, -541297.0, -823305.06, -66649.06, 0.09099805, -0.57299155, -526338.75, 267384.66, 0.0, 10.002039, 9.998395 
2.4540488e+3, 2.2899485e+2, -399315.94, -741801.2, -110395.99, 0.0736483, -0.39970452, -366815.3, 328996.63, 0.0, 10.002536, 9.998024 
2.4536271e+3, 2.3898625e+2, -307472.9, -633144.6, -134365.83, 0.04634513, -0.1923442, -259193.42, 338705.88, 0.0, 10.002425, 9.998161 
2.4532078e+3, 2.4897523e+2, -312996.3, -502476.28, -57109.727, 0.046049543, -0.30676404, -297114.47, 202892.36, 0.0, 10.001473, 9.998788 
2.4527892e+3, 2.589641e+2, -390117.22, -480310.8, -8587.321, 0.022462519, -0.43702826, -389306.9, 12808.72, 0.0, 10.00016, 9.998924 
2.4523701e+3, 2.689558e+2, -360870.7, -337718.44, 28693.781, -0.0794382, -0.34745407, -318353.66, -14153.926, 0.0, 9.999379, 9.999585 
2.4519512e+3, 2.789483e+2, -277347.03, -187944.61, -11076.711, -0.13403885, -0.21082507, -186592.69, 19684.627, 0.0, 9.998977, 10.000171 
2.451531e+3, 2.8894085e+2, -143644.39, 44492.918, -151928.38, 0.09190777, -0.17705816, 129117.13, 237466.9, 0.0, 9.998807, 10.001124 
2.4511115e+3, 2.9893282e+2, -297934.03, -212411.0, -25748.102, 0.31522515, -0.19706355, -205257.47, -194829.66, 0.0, 9.998184, 9.999367 
2.4506882e+3, 3.0892053e+2, -121909.87, 1660.2737, -66278.266, -0.44124147, -0.39669487, 30485.375, 30485.375, 0.000000000000427524, 9.998862, 10.000463 
2.468676e+3, 1.19511664e+2, -1814127.4, -1749195.1, -30138.506, 0.17868145, -0.521311, -1737362.5, 31389.838, 0.47722325, 9.999045, 10.000372 
2.468256e+3, 1.2951091e+2, -1632809.5, -1553339.9, 20170.053, 0.09267942, 0.14986856, -1548513.8, 122244.49, 0.3557266, 9.999439, 10.0011215 
2.4678367e+3, 1.3949627e+2, -1604471.5, -1562502.4, 114241.16, 0.09926411, -0.50723344, -1467334.5, 105563.56, 0.22774403, 9.99936, 10.000132 
2.4674167e+3, 1.4948684e+2, -1409322.0, -1415838.4, 98638.18, 0.00907216, -0.6041877, -1313888.3, 161095.67, 0.11809006, 10.0001, 10.000007 
2.4669966e+3, 1.5947834e+2, -1209735.3, -1270151.8, 30257.85, -0.057789505, -0.57561195, -1197187.5, 179872.53, 0.04605504, 10.000731, 10.000049 
2.4665761e+3, 1.6946879e+2, -1157831.8, -1123037.3, -52521.336, -0.06956446, -0.73118436, -1085106.8, 194042.33, 0.012013259, 10.00013, 10.000615 
2.4661553e+3, 1.7945933e+2, -1283633.1, -1263171.1, -181941.86, -0.025898464, -0.8427309, -1091172.9, 90066.195, 0.0018483637, 9.999093, 9.99951 
2.4657315e+3, 1.8945287e+2, -1239870.6, -1284875.8, -226431.2, 0.01909091, -0.5414421, -1034826.6, 48486.016, 0.00018026956, 9.999162, 9.998624 
2.4653074e+3, 1.9944634e+2, -1179084.8, -1234000.5, -125374.14, 0.086071976, -0.1721811, -1078197.0, -92808.15, 0.0000007906511, 9.999026, 9.9983835 
2.4648856e+3, 2.0943493e+2, -947881.25, -995625.9, -97311.85, 0.109620996, -0.35624996, -871556.3, 15944.431, 0.0, 9.999668, 9.998994 
2.4644642e+3, 2.1942279e+2, -860431.06, -1015856.06, -131970.45, 0.12640172, -0.57656604, -784991.94, 4625.554, 0.0, 10.000057, 9.998027 
2.464042e+3, 2.2941385e+2, -703318.7, -916435.1, -69099.055, 0.09226666, -0.4173939, -682875.6, 8830.8955, 0.0, 10.000649, 9.997687 
2.4636203e+3, 2.3940527e+2, -628207.4, -839446.0, 27524.365, 0.08244934, -0.16280317, -624679.8, -30886.5, 0.0, 10.000502, 9.99766 
2.4632e+3, 2.493944e+2, -447300.9, -562879.06, 52791.652, 0.044322997, -0.24415082, -426817.78, 69084.06, 0.0, 10.000531, 9.998831 
2.4627805e+3, 2.5938326e+2, -449706.53, -459886.9, 29897.938, -0.003476517, -0.37935427, -424468.56, -26456.482, 0.0, 9.999555, 9.9993725 
2.4623616e+3, 2.6937556e+2, -386081.53, -186315.53, 93315.06, 0.021623714, -0.36361173, -149507.95, 150578.39, 0.0, 9.998537, 10.001009 
2.4619429e+3, 2.7936915e+2, -539489.8, -287747.63, 103668.36, 0.044423398, -0.22247429, -250552.3, -48403.875, 0.0, 9.997131, 10.000365 
2.461518e+3, 2.8936163e+2, -161701.16, -88268.914, -37079.742, -0.24947615, -0.12881592, -72802.84, 31419.404, 0.0, 9.999241, 9.999999 
2.461097e+3, 2.993508e+2, -393241.53, -668070.8, 25669.24, -0.21189484, -0.21225537, -390864.56, -384534.25, 0.0, 9.999379, 9.995663 
2.4606836e+3, 3.0933428e+2, -586606.2, -585065.75, 129600.15, 0.0134040285, -0.45440757, -456233.5, -456233.5, 0.0, 9.997413, 9.997067 
2.4786656e+3, 1.1992854e+2, -1591111.9, -1458387.5, 26451.676, 0.0012225825, -0.60364735, -1453310.0, 311360.47, 0.4678463, 10.000148, 10.003456 
2.4782473e+3, 1.2992978e+2, -1486604.6, -1305612.9, 34134.598, 0.107912675, 0.030349864, -1299389.1, 367262.16, 0.34520847, 9.999867, 10.0034275 
2.4778244e+3, 1.399185e+2, -1527170.9, -1459541.1, 71321.76, -0.2327664, -0.48692846, -1414424.1, 154333.13, 0.21743059, 9.999555, 10.000821 
2.4774086e+3, 1.4990896e+2, -1473980.8, -1555494.1, 117811.3, 0.046141125, -0.5370804, -1390075.5, 80773.27, 0.109704144, 10.000139, 9.998967 
2.4769932e+3, 1.5989962e+2, -1308011.5, -1448089.5, 45096.277, 0.3649312, -0.47947747, -1294749.0, 78189.91, 0.040704507, 10.000603, 9.99885 
2.4765696e+3, 1.6988978e+2, -1241793.4, -1332435.3, -71126.86, 0.121463194, -0.51716197, -1202775.6, 72261.305, 0.00953522, 10.000264, 9.999109 
2.4761447e+3, 1.7988022e+2, -1208183.5, -1218459.8, -181787.27, -0.16854714, -0.5186312, -1031461.8, 145670.31, 0.0011160366, 9.99956, 9.999592 
2.4757205e+3, 1.898734e+2, -1086335.1, -1036515.6, -213354.28, -0.13200983, -0.36105072, -846621.9, 232579.33, 0.00006263998, 9.99945, 10.0001955 
2.4752969e+3, 1.9986634e+2, -1100261.5, -1156784.8, -101677.8, -0.036161248, -0.16749799, -1022990.75, -41717.203, 0.0000000031066179, 9.999401, 9.998725 
2.4748772e+3, 2.0985432e+2, -1009886.56, -1191391.5, -73671.945, 0.1692751, -0.30008128, -983747.8, -100354.01, 0.0, 9.999929, 9.997551 
2.4744575e+3, 2.1984176e+2, -757328.44, -882280.7, -107719.71, 0.31518734, -0.46251428, -695278.25, 90239.305, 0.0, 10.00037, 9.998802 
2.4740341e+3, 2.2983237e+2, -518306.3, -534827.06, -47655.44, 0.12011752, -0.5498883, -478200.66, 209400.28, 0.0, 10.0006275, 10.000341 
2.4736108e+3, 2.3982346e+2, -499149.2, -646715.2, 64000.566, -0.080880925, -0.5473588, -475259.25, 114421.91, 0.0, 10.000773, 9.998863 
2.4731916e+3, 2.4981368e+2, -518380.53, -724312.3, 72485.836, 0.011181208, -0.45586672, -495425.13, -3639.7278, 0.0, 10.000556, 9.997729 
2.4727729e+3, 2.598038e+2, -301224.22, -284783.2, 33774.21, 0.11558637, -0.39250052, -258243.45, 135646.22, 0.0, 10.000077, 10.000324 
2.4723513e+3, 2.6979643e+2, -203737.13, 155387.4, 76412.84, 0.009192904, -0.53035307, 170970.03, 466921.94, 0.0, 9.998643, 10.003336 
2.4719292e+3, 2.7979013e+2, -444260.44, -197279.97, 173107.2, -0.19623482, -0.5450956, -108129.8, 89873.914, 0.0, 9.997551, 10.00078 
2.471507e+3, 2.8978154e+2, -182436.44, -363689.6, 104186.44, -0.44852734, -0.38955414, -134976.11, -34880.15, 0.0, 10.00014, 9.997727 
2.471092e+3, 2.9976982e+2, 14703.873, -563964.44, 88649.15, -0.027117554, -0.3475283, 27979.902, 30202.063, 0.0, 10.002467, 9.994932 
2.4706751e+3, 3.0975673e+2, -244964.33, -334575.97, 105450.2, 0.159091, -0.23299833, -175195.69, -175195.69, 0.0, 9.99918, 9.99804 
2.4886629e+3, 1.2035212e+2, -1588841.8, -1536368.4, 50880.598, 0.5141463, -0.6046396, -1505358.3, 255156.16, 0.45571515, 10.00071, 10.002117 
2.488239e+3, 1.3034955e+2, -1590636.9, -1583386.9, 25373.006, 0.14958946, -0.0794834, -1561381.3, 101160.234, 0.33319858, 10.000217, 10.000332 
2.4878152e+3, 1.4033723e+2, -1509122.3, -1496207.3, -52339.793, -0.2632051, -0.47329128, -1449928.1, 114737.17, 0.20679392, 9.999963, 10.000295 
2.4873994e+3, 1.5032999e+2, -1465352.0, -1401571.0, 17775.832, 0.0076109027, -0.40791243, -1396951.4, 69782.64, 0.10179194, 9.999475, 10.000403 
2.4869841e+3, 1.6032256e+2, -1554013.4, -1543675.4, 43244.777, 0.38709643, -0.27005455, -1505291.8, -136486.8, 0.036105353, 9.998795, 9.999066 
2.4865611e+3, 1.7031269e+2, -1381810.4, -1491698.4, -11549.43, 0.16173728, -0.25427034, -1380609.6, -109705.02, 0.0076701324, 9.999698, 9.998286 
2.4861364e+3, 1.8030252e+2, -1127150.0, -1244940.4, -110441.1, -0.10051471, -0.23026887, -1060881.8, 112124.86, 0.000687035, 10.000422, 9.998983 
2.4857122e+3, 1.9029298e+2, -999701.8, -1010015.44, -231190.34, -0.047831256, -0.32720378, -773610.75, 301485.13, 0.000019881356, 10.000139, 10.000022 
2.4852885e+3, 2.0028365e+2, -1083249.3, -1147007.1, -159848.27, 0.073770754, -0.35806057, -952132.06, 25052.07, 0.0, 9.999552, 9.998704 
2.4848692e+3, 2.1027383e+2, -882299.8, -1099208.8, -4151.2363, 0.22157697, -0.30449286, -882220.4, -2936.4297, 0.0, 10.000724, 9.997764 
2.4844499e+3, 2.2026332e+2, -606840.2, -772312.0, 17707.352, 0.3420886, -0.27867085, -604966.5, 176422.58, 0.0, 10.00127, 9.999116 
2.4840254e+3, 2.3025271e+2, -496432.7, -445813.03, -61395.64, 0.07283403, -0.5473664, -404714.94, 278765.88, 0.0, 10.000442, 10.001048 
2.4836011e+3, 2.4024254e+2, -723644.94, -733182.94, -56362.746, -0.18485557, -0.7395204, -671849.8, -86280.14, 0.0, 9.99917, 9.999046 
2.4831824e+3, 2.5023383e+2, -723564.44, -826629.0, 36651.137, -0.030398661, -0.5666842, -711860.0, -224194.94, 0.0, 9.999174, 9.9976845 
2.4827647e+3, 2.6022524e+2, -507873.2, -379414.28, 47667.29, 0.17878538, -0.37434486, -363658.78, 26099.824, 0.0, 9.9987, 10.000334 
2.4823414e+3, 2.7021763e+2, -77734.6, 257818.73, -84147.93, -0.024853285, -0.57764554, 277738.3, 569556.75, 0.0, 9.999392, 10.003654 
2.4819167e+3, 2.802102e+2, -273980.7, -229299.4, -69382.945, -0.40568334, -0.7244685, -178749.06, 15127.894, 0.0, 9.999243, 9.999754 
2.4814975e+3, 2.9019988e+2, -380618.66, -587426.1, 28296.502, -0.55809164, -0.6480634, -376816.84, -280827.16, 0.0, 9.999428, 9.996493 
2.4810871e+3, 3.0018967e+2, -487029.9, -756258.56, 17569.066, 0.16687287, -0.39495897, -485888.25, -485888.25, 0.0, 9.998884, 9.995328 
2.480667e+3, 3.1018302e+2, -109411.35, -30922.695, -94703.21, 0.22301465, 0.14690185, 32345.492, 32345.492, 0.0, 9.9991045, 10.000177 
2.4986589e+3, 1.2077674e+2, -1699300.1, -1711678.4, -44382.535, 0.8755316, -0.52476394, -1660677.3, 95671.11, 0.43991756, 10.000304, 10.000046 
2.4982314e+3, 1.3076922e+2, -1827399.4, -2122105.0, 51612.28, 0.21783307, -0.14655858, -1818621.9, -160186.52, 0.31901658, 10.00027, 9.996351 
2.4978068e+3, 1.40755e+2, -1526661.0, -1542088.6, 149.67987, -0.27189422, -0.42526335, -1526659.6, 33928.14, 0.19536594, 10.000017, 9.999854 
2.4973892e+3, 1.5075052e+2, -1297737.6, -1088045.1, 23556.373, -0.09696054, -0.2408813, -1085431.4, 377196.03, 0.094030365, 9.999629, 10.002698 
2.4969724e+3, 1.6074584e+2, -1440695.6, -1395751.8, 39727.484, 0.14943537, -0.008616418, -1372580.9, -7912.22, 0.032013185, 9.999183, 9.999881 
2.496552e+3, 1.7073627e+2, -1354832.9, -1508661.6, 36068.008, 0.12301461, 0.039147247, -1346795.9, -80031.15, 0.0062260167, 10.000015, 9.998004 
2.4961302e+3, 1.8072523e+2, -1138853.9, -1323916.1, -90163.32, 0.052745495, 0.016333679, -1102189.8, 66683.875, 0.00043419475, 10.00065, 9.998322 
2.4957061e+3, 1.9071099e+2, -1035639.3, -1170155.0, -233322.73, 0.19636679, -0.42951888, -860073.94, 210929.89, 0.0000058323185, 10.000489, 9.998759 
2.4952823e+3, 2.0069827e+2, -948495.4, -1004686.1, -125433.46, 0.3052534, -0.7143402, -848049.3, 125071.24, 0.000000000090419006, 10.000118, 9.999404 
2.4948616e+3, 2.1069345e+2, -679438.75, -762966.06, 52078.707, 0.22095726, -0.3364091, -654446.2, 220724.47, 0.0, 10.001054, 9.999914 
2.4944407e+3, 2.2068758e+2, -516274.84, -700474.06, 11950.977, 0.1007517, -0.009096196, -515502.7, 261728.16, 0.0, 10.001743, 9.999368 
2.4940158e+3, 2.3067518e+2, -595906.7, -701101.0, -111982.25, -0.068288736, -0.31652614, -524784.44, 154562.47, 0.0, 10.000628, 9.999208 
2.4935916e+3, 2.4066311e+2, -639487.5, -627490.6, -90076.945, -0.21522212, -0.57485104, -543212.6, 38247.34, 0.0, 9.9994335, 9.999632 
2.4931724e+3, 2.506559e+2, -575886.75, -510486.56, 26702.295, -0.08029569, -0.43987277, -500969.25, -17434.793, 0.0, 9.999062, 9.9999275 
2.4927537e+3, 2.6064837e+2, -538560.4, -525593.6, 71943.89, 0.06630194, -0.2658943, -459841.56, -74229.945, 0.0, 9.999, 9.999185 
2.4923325e+3, 2.7063832e+2, -275264.56, -341940.94, -86512.93, -0.025981436, -0.3327762, -215888.55, 71816.72, 0.0, 10.000171, 9.999167 
2.4919105e+3, 2.8062803e+2, -60976.242, -205697.66, -182729.33, -0.2329923, -0.42391184, 63198.23, 252999.13, 0.0, 10.0009575, 9.999107 
2.4914905e+3, 2.9061714e+2, -228675.11, -244503.97, -103748.09, -0.32735604, -0.5722887, -132540.0, -40629.594, 0.0, 9.999235, 9.998977 
2.4910773e+3, 3.006076e+2, -414746.94, -426745.56, 22459.688, 0.23888408, -0.51143473, -397499.1, -397499.1, 0.0, 9.998069, 9.9979725 
2.4906561e+3, 3.1060055e+2, 218672.47, 291793.34, -81321.38, -0.00800106, -0.17827863, 344394.75, 344394.75, 0.0, 10.000543, 10.001718 
2.5086442e+3, 1.2119489e+2, -1760261.8, -1651941.9, -202859.33, 0.32601687, -0.5223892, -1496137.0, 256124.95, 0.42027465, 9.999275, 10.001594 
2.5082245e+3, 1.3119185e+2, -1738634.0, -1828896.3, 23714.54, 0.39892012, 0.08086183, -1732782.9, -78481.414, 0.30251706, 9.999784, 9.998638 
2.5077996e+3, 1.411815e+2, -1586409.3, -1621005.5, 127731.43, -0.112181544, 0.062772244, -1474810.0, 81604.125, 0.18302314, 9.999756, 9.99949 
2.5073808e+3, 1.5117244e+2, -1381211.9, -1331728.8, 23780.555, -0.0516401, -0.044925306, -1322153.3, 136347.31, 0.08629053, 9.9999, 10.000721 
2.5069627e+3, 1.6116409e+2, -1332322.1, -1336614.1, -71650.69, 0.092485175, -0.059433866, -1262785.3, 97793.195, 0.028287582, 9.9999, 9.99995 
2.506543e+3, 1.7115542e+2, -1212421.9, -1287307.5, -5620.4385, 0.10268361, -0.05497435, -1212002.4, 50657.434, 0.0050760456, 10.000327, 9.999378 
2.5061226e+3, 1.8114553e+2, -1137148.9, -1295668.1, -54945.477, 0.124707185, -0.06685768, -1119966.4, 44786.78, 0.00028139996, 10.000591, 9.998545 
2.5056988e+3, 1.9113186e+2, -912932.6, -1151346.3, -135567.75, 0.24886917, -0.42447546, -851615.56, 215263.94, 0.0000014559199, 10.001596, 9.998336 
2.505275e+3, 2.0111907e+2, -705406.9, -929790.5, -3579.4897, 0.34419826, -0.66197973, -705349.75, 263648.94, 0.0, 10.001987, 9.999028 
2.5048536e+3, 2.1111356e+2, -742878.3, -778623.44, 25353.734, 0.179257, -0.3510903, -729730.9, 141324.44, 0.0, 10.000612, 10.0000105 
2.5044313e+3, 2.2110792e+2, -933162.4, -948198.56, -137498.97, 0.014655411, -0.0065521714, -802976.1, -29862.68, 0.0, 9.999119, 9.9989395 
2.5040072e+3, 2.3109621e+2, -887803.44, -913414.56, -172853.3, -0.05429733, -0.20591846, -727282.0, -52055.03, 0.0, 9.998944, 9.998558 
2.503583e+3, 2.4108455e+2, -775831.4, -689076.9, -62581.91, -0.1093826, -0.3782745, -656309.0, -78969.35, 0.0, 9.998495, 9.999675 
2.5031623e+3, 2.5107723e+2, -496013.84, -356318.3, -34160.51, -0.12199607, -0.33828488, -348412.28, 130997.195, 0.0, 9.999167, 10.000914 
2.5027427e+3, 2.610696e+2, -548946.5, -677143.56, -26501.064, -0.107981436, -0.21972524, -543684.2, -162200.9, 0.0, 9.999594, 9.997866 
2.5023237e+3, 2.7105808e+2, -434997.13, -740708.5, 11489.368, -0.08208259, -0.20037325, -434565.94, -150966.77, 0.0, 10.000465, 9.996309 
2.5019047e+3, 2.810463e+2, -196855.66, -325733.0, -35816.52, -0.064533, -0.20009072, -187570.75, -1854.0969, 0.0, 10.000314, 9.9985895 
2.5014836e+3, 2.9103574e+2, -201897.02, -55710.27, -99400.01, -0.061602022, -0.4342259, -5422.1133, 82395.41, 0.0, 9.998708, 10.000505 
2.5010654e+3, 3.0102563e+2, -436735.56, -250192.3, 11762.444, 0.08419103, -0.5860992, -249453.55, -249453.55, 0.0, 9.997173, 9.999605 
2.5006446e+3, 3.1101674e+2, -58806.652, 208202.06, 29524.08, -0.36604238, -0.6414707, 211427.67, 211427.67, 0.0, 9.998535, 10.002067 
2.5186327e+3, 1.2161194e+2, -1487181.9, -1323492.9, -74516.23, 0.022324653, -0.48498416, -1294652.4, 453535.2, 0.39734322, 10.000594, 10.004296 
2.518217e+3, 1.3161488e+2, -1420124.1, -1325008.6, 40957.773, 0.5194543, 0.37112403, -1309802.8, 340359.16, 0.28406283, 10.000768, 10.002482 
2.5177926e+3, 1.4160948e+2, -1565120.3, -1684479.5, 92394.72, 0.037596703, 0.6137006, -1514806.9, 37414.184, 0.16993596, 10.000231, 9.998763 
2.517373e+3, 1.5159371e+2, -1592022.3, -1797225.5, 41256.32, 0.02464993, 0.11668019, -1584038.3, -129661.34, 0.078587286, 10.000021, 9.997372 
2.516954e+3, 1.6157942e+2, -1307942.5, -1284230.5, -21611.41, 0.051183492, -0.26916465, -1271436.6, 85078.055, 0.024857625, 9.999879, 10.00032 
2.5165346e+3, 1.7157184e+2, -1034822.9, -926144.7, 33088.824, 0.06417352, -0.35262448, -916863.0, 341713.56, 0.0041356636, 10.000348, 10.0018635 
2.516114e+3, 1.8156414e+2, -1027648.4, -1116865.3, -43882.133, 0.06602727, -0.34394336, -1009682.44, 150959.81, 0.00018434241, 10.00079, 9.999668 
2.5156903e+3, 1.9155492e+2, -862514.06, -1097965.4, -92938.59, 0.12342043, -0.2925704, -830250.0, 232481.28, 0.00000026313862, 10.00179, 9.998617 
2.5152665e+3, 2.0154458e+2, -729462.25, -1041610.3, -18480.777, 0.14833379, -0.27279118, -728371.9, 236460.73, 0.0, 10.002253, 9.998126 
2.5148448e+3, 2.1153285e+2, -853806.94, -1057269.1, -32076.45, 0.106066026, -0.39389953, -848869.75, 18080.793, 0.0, 10.0008, 9.998027 
2.5144228e+3, 2.2152251e+2, -859584.1, -883834.6, -173076.8, 0.080582164, -0.38456962, -698208.4, 70846.2, 0.0, 9.999443, 9.999243 
2.5139996e+3, 2.3151533e+2, -788736.2, -719468.44, -184932.31, 0.19527029, -0.23535174, -565954.9, 105170.17, 0.0, 9.998951, 9.999907 
2.5135761e+3, 2.4150723e+2, -740296.6, -701631.2, -29316.104, 0.19515352, -0.13417833, -685847.1, -112643.86, 0.0, 9.998835, 9.999422 
2.513153e+3, 2.5149634e+2, -536781.9, -558184.6, -17090.412, -0.15794879, -0.3075664, -527318.9, -52014.242, 0.0, 9.999615, 9.999339 
2.5127316e+3, 2.614859e+2, -370785.38, -488596.63, -38960.977, -0.37907875, -0.39270127, -359066.44, 18336.482, 0.0, 10.00032, 9.998826 
2.512315e+3, 2.7147648e+2, -244588.14, -410450.3, 51846.04, -0.14193773, -0.346563, -229715.47, 49780.883, 0.0, 10.000686, 9.998503 
2.5118974e+3, 2.814667e+2, -169340.75, -359690.44, 6910.772, 0.03994765, -0.27099952, -169090.19, 12504.859, 0.0, 10.000648, 9.998206 
2.5114742e+3, 2.914566e+2, -322602.72, -388136.16, -145246.11, -0.024546986, -0.25224385, -206473.2, -122772.16, 0.0, 9.998956, 9.998139 
2.511054e+3, 3.0144694e+2, -372135.3, -214999.83, -23697.393, 0.04646767, -0.20882918, -211503.83, -211503.83, 0.0, 9.997528, 9.999694 
2.5106382e+3, 3.1143764e+2, -44844.992, 261905.17, 37124.832, 0.044251587, -0.36720508, 266334.28, 266334.28, 0.0, 9.998341, 10.002558 
2.528625e+3, 1.2203743e+2, -1345412.0, -1466606.8, 41533.625, -0.089002974, -0.4059425, -1332544.5, 411459.8, 0.3720952, 10.003497, 10.001119 
2.5282073e+3, 1.320319e+2, -1363091.9, -1552666.3, 24415.225, 0.2094017, -0.06361879, -1359997.9, 286065.75, 0.26429757, 10.002721, 9.999334 
2.527786e+3, 1.4202303e+2, -1462858.9, -1668381.4, -75940.95, 0.15239151, 0.0332744, -1437843.3, 110314.03, 0.15642525, 10.001236, 9.998352 
2.527366e+3, 1.5201136e+2, -1611583.0, -1753348.5, -16462.207, 0.19607426, -0.11318505, -1609696.5, -159419.97, 0.071005836, 9.999718, 9.997786 
2.526946e+3, 1.6199999e+2, -1488286.8, -1351226.9, 78367.53, 0.22573695, -0.23304461, -1315651.9, 36737.09, 0.021693112, 9.998591, 10.000475 
2.5265253e+3, 1.7199229e+2, -1246696.6, -1013281.4, 42043.402, 0.04582129, -0.32562095, -1005939.3, 248515.38, 0.00335279, 9.998908, 10.0019455 
2.5261042e+3, 1.8198463e+2, -1264329.6, -1256019.9, -118380.79, -0.025300121, -0.31292406, -1141721.0, 14801.04, 0.00011963712, 9.999253, 9.999466 
2.5256827e+3, 1.9197619e+2, -1099417.6, -1224095.5, -179445.31, 0.13413902, -0.19792801, -971791.4, 86815.445, 0.00000002568285, 10.000185, 9.998531 
2.5252602e+3, 2.0196676e+2, -947839.4, -1173717.1, -118012.875, 0.23306663, -0.09399014, -897431.25, 63270.152, 0.0, 10.000841, 9.9979105 
2.5248373e+3, 2.1195383e+2, -826147.44, -1081833.0, -29968.744, 0.14108476, -0.33547693, -822681.8, 40147.887, 0.0, 10.001103, 9.997723 
2.5244147e+3, 2.2194202e+2, -664989.7, -840471.94, -75010.43, 0.112896875, -0.42679846, -637296.56, 127650.64, 0.0, 10.001048, 9.99875 
2.523991e+3, 2.3193541e+2, -432243.5, -577995.0, -195523.86, 0.21865785, -0.19734423, -296455.75, 370558.47, 0.0, 10.001569, 9.999605 
2.5235677e+3, 2.4192771e+2, -431216.4, -640242.94, -109139.67, 0.22159904, -0.013427304, -384618.8, 184470.23, 0.0, 10.001388, 9.998605 
2.5231442e+3, 2.5191492e+2, -492080.4, -640860.3, -36233.4, -0.18494114, -0.3065032, -483725.44, -12519.574, 0.0, 10.0004225, 9.998365 
2.5227222e+3, 2.6190317e+2, -498178.28, -488917.06, -32076.498, -0.4508428, -0.4741539, -461138.66, -87824.27, 0.0, 9.999227, 9.999338 
2.522306e+3, 2.7189532e+2, -514966.7, -352813.53, -5357.37, -0.146021, -0.43430978, -352636.72, -77246.12, 0.0, 9.998068, 10.000129 
2.5218886e+3, 2.818869e+2, -650441.75, -645471.0, -89661.66, 0.059115935, -0.32259053, -558260.25, -380784.22, 0.0, 9.997638, 9.997683 
2.5214636e+3, 2.918771e+2, -380250.47, -573197.75, -103181.68, -0.1258252, -0.16216381, -335466.8, -255881.42, 0.0, 9.9992895, 9.996693 
2.5210437e+3, 3.0186865e+2, -109196.46, -160511.08, 124296.69, 0.034811903, 0.12988468, -7936.6123, -7936.6123, 0.0, 9.999712, 9.999003 
2.5206283e+3, 3.118565e+2, -81212.73, 211297.28, 176054.73, 0.015219585, -0.28709954, 293921.72, 293921.72, 0.0, 9.998382, 10.002143 
2.5386164e+3, 1.2246304e+2, -1593855.0, -2025773.5, -39031.996, -0.48748505, -0.42676097, -1590356.0, 149460.2, 0.34545994, 10.002976, 9.996404 
2.5381976e+3, 1.3244666e+2, -1595607.5, -2203713.8, 8043.783, -0.16724786, -0.7085761, -1595501.1, 46482.695, 0.24384509, 10.002803, 9.994592 
2.537779e+3, 1.4243215e+2, -1402779.8, -1606191.4, -56362.02, 0.18919651, -0.87530994, -1388206.9, 155926.28, 0.14280653, 10.001602, 9.998578 
2.537359e+3, 1.5242814e+2, -1371185.5, -1400116.8, -24586.338, 0.37157652, -0.42600745, -1357125.0, 89054.8, 0.06363834, 10.000406, 9.999886 
2.5369382e+3, 1.6242287e+2, -1382579.1, -1325061.5, 80882.22, 0.40469167, -0.058600698, -1267977.4, 80258.766, 0.0187796, 9.999426, 10.000248 
2.536515e+3, 1.7241432e+2, -1263923.8, -1174149.8, 63631.17, -0.022526268, -0.11648344, -1141166.6, 109152.195, 0.0026956536, 9.99941, 10.000605 
2.5360936e+3, 1.8240532e+2, -1233136.3, -1285282.4, -96224.31, -0.21499218, -0.13237074, -1159515.1, -7108.707, 0.00007576087, 9.999671, 9.999048 
2.5356752e+3, 1.9239525e+2, -1053175.6, -1212198.6, -136258.36, 0.24396062, -0.15521285, -974926.44, 79582.14, 0.00000000011876218, 10.00053, 9.998449 
2.5352553e+3, 2.0238568e+2, -789041.8, -930270.94, -89602.945, 0.5088565, -0.1079217, -745572.6, 211031.61, 0.0, 10.001195, 9.999399 
2.5348312e+3, 2.1237715e+2, -639873.1, -776518.1, -8532.304, 0.26547375, -0.0848615, -639342.44, 219343.42, 0.0, 10.001424, 9.999662 
2.5344065e+3, 2.2236739e+2, -645451.5, -952370.25, -52319.973, 0.020531902, -0.057629306, -636777.7, 124004.05, 0.0, 10.001669, 9.997683 
2.5339806e+3, 2.3235555e+2, -504581.84, -895441.8, -171862.89, -0.14362715, -0.10639369, -439762.44, 223140.78, 0.0, 10.0022335, 9.997128 
2.5335568e+3, 2.4234414e+2, -310141.7, -592070.6, -148744.95, -0.20456788, -0.1309372, -246176.8, 318839.16, 0.0, 10.002203, 9.998557 
2.533137e+3, 2.5233334e+2, -390498.22, -518251.4, -89099.81, -0.0831168, -0.27062, -344743.63, 122368.06, 0.0, 10.000776, 9.999047 
2.5327167e+3, 2.6232302e+2, -459648.34, -433344.56, -82617.375, -0.03625789, -0.3484261, -362838.78, 6365.904, 0.0, 9.999294, 9.999697 
2.532296e+3, 2.7231413e+2, -610802.94, -422698.8, -83906.95, -0.038574874, -0.39197767, -390710.53, -119420.016, 0.0, 9.997449, 9.999972 
2.5318754e+3, 2.8230557e+2, -593543.25, -354754.63, -46452.066, -0.07664933, -0.36849213, -346036.5, -172661.77, 0.0, 9.996888, 10.000026 
2.531453e+3, 2.9229775e+2, -67730.875, -82980.39, 56997.426, -0.259127, -0.28695393, -17850.475, 57605.33, 0.0, 9.999954, 9.99975 
2.5310352e+3, 3.0229023e+2, 68523.43, -273298.6, 199873.38, -0.07581699, -0.020432156, 160595.19, 160595.19, 0.0, 10.001753, 9.997269 
2.5306195e+3, 3.1228086e+2, -167952.38, -248792.89, 108734.59, 0.071250394, 0.23289758, -92368.28, -92368.28, 0.0, 9.999465, 9.99854 
2.5486153e+3, 1.22882254e+2, -1564511.9, -1696973.4, -88149.69, 0.038904425, -0.32833287, -1520484.4, 215234.3, 0.31815657, 10.001879, 9.999254 
2.5481933e+3, 1.3286923e+2, -1499884.9, -1912403.5, -40743.77, 0.014834709, -0.52540034, -1495899.1, 141946.42, 0.22319712, 10.002661, 9.996638 
2.5477743e+3, 1.428562e+2, -1204914.3, -1476608.1, 24846.66, 0.33475965, -0.6760839, -1202660.8, 337313.94, 0.12934339, 10.002964, 9.998904 
2.5473514e+3, 1.5285052e+2, -1118143.4, -1318143.0, -23090.342, 0.3234391, -0.35488147, -1115512.1, 326522.16, 0.05657354, 10.0023775, 9.999586 
2.5469288e+3, 1.6284388e+2, -1175472.3, -1350850.6, 41078.004, 0.29223475, -0.06201126, -1166327.6, 177775.8, 0.016116831, 10.001409, 9.999107 
2.546507e+3, 1.7283376e+2, -1199534.8, -1323470.9, 7233.297, 0.030098658, -0.15173984, -1199114.0, 47091.715, 0.0021455006, 10.000606, 9.999 
2.546086e+3, 1.8282375e+2, -1150406.3, -1236567.1, -90312.17, -0.073219806, -0.17434476, -1093425.6, 54880.445, 0.000046550977, 10.00022, 9.999122 
2.5456676e+3, 1.9281395e+2, -910348.25, -1069181.5, -70083.08, 0.27206385, -0.23917995, -883846.8, 166557.06, 0.0, 10.001207, 9.999109 
2.5452477e+3, 2.0280495e+2, -740867.4, -875077.8, -50308.473, 0.467673, -0.18055642, -724103.4, 228390.81, 0.0, 10.001435, 9.99965 
2.5448224e+3, 2.127979e+2, -775029.3, -809163.4, -105731.62, 0.19105038, -0.044795487, -684996.1, 169568.22, 0.0, 10.000415, 9.9999075 
2.5443974e+3, 2.2278914e+2, -940469.3, -1127954.4, -147550.25, -0.060161732, 0.07293837, -859401.25, -102749.266, 0.0, 9.999839, 9.997358 
2.543972e+3, 2.3277605e+2, -799259.2, -1090632.9, -77751.555, -0.24689682, -0.07552748, -779809.9, -121024.414, 0.0, 10.0005, 9.996609 
2.5435486e+3, 2.4276361e+2, -568731.56, -755117.5, -7799.371, -0.2912012, -0.13686755, -568405.8, -7497.3374, 0.0, 10.000665, 9.998159 
2.5431293e+3, 2.527533e+2, -529736.3, -606386.44, -41200.957, -0.019784832, -0.2085877, -511791.25, -48790.484, 0.0, 9.999939, 9.998838 
2.542709e+3, 2.627431e+2, -508514.16, -487120.4, -89936.09, 0.14647268, -0.2451491, -407247.28, -42153.7, 0.0, 9.999129, 9.999403 
2.542286e+3, 2.72733e+2, -453856.22, -373450.94, -95068.83, 0.019934773, -0.39338407, -310433.72, -43243.902, 0.0, 9.998688, 9.999703 
2.541864e+3, 2.8272465e+2, -314803.13, -83228.44, -2793.539, -0.1250865, -0.3738356, -83194.74, 86074.82, 0.0, 9.998245, 10.001239 
2.5414434e+3, 2.9271868e+2, -69485.234, 146952.14, 9277.115, -0.33855593, -0.32293943, 147349.06, 218674.4, 0.0, 9.998997, 10.001778 
2.541026e+3, 3.0271006e+2, -420543.88, -726445.94, -6466.3315, -0.24942365, -0.21859294, -420407.25, -420407.25, 0.0, 9.999381, 9.995295 
2.5406095e+3, 3.1270263e+2, -494280.25, -565479.3, 37277.715, 0.0044039623, 0.46872354, -478334.13, -478334.13, 0.0, 9.997972, 9.997078 
2.558609e+3, 1.23299845e+2, -1566974.1, -1516485.1, -115196.76, 0.045951292, -0.2063323, -1423799.3, 307842.38, 0.29081753, 10.000681, 10.001546 
2.5581902e+3, 1.3329391e+2, -1362342.4, -1422053.4, 1884.9022, 0.31055278, -0.08006874, -1362282.9, 271408.1, 0.2027681, 10.00181, 10.000781 
2.5577694e+3, 1.4328444e+2, -1285688.9, -1505863.0, -32108.611, 0.39403126, -0.12514102, -1281101.9, 254676.77, 0.11625642, 10.002262, 9.998986 
2.5573426e+3, 1.5327431e+2, -1200373.1, -1459802.8, -66188.8, 0.12116542, -0.17314342, -1184462.1, 253415.63, 0.04988728, 10.002233, 9.998621 
2.5569192e+3, 1.632635e+2, -1232965.3, -1537117.8, 6399.8228, 0.01602946, -0.17699182, -1232830.6, 107154.58, 0.013707004, 10.001683, 9.997701 
2.5565007e+3, 1.7325121e+2, -1278885.9, -1524049.0, -5127.7544, 0.16966772, -0.3227738, -1278778.6, -36668.23, 0.0016894786, 10.000759, 9.997555 
2.5560808e+3, 1.8324044e+2, -1040692.9, -1066464.3, -51926.527, 0.22256108, -0.37767833, -1000077.1, 144140.78, 0.000027889511, 10.0004635, 10.000162 
2.5556594e+3, 1.9323234e+2, -786262.8, -849955.1, -11048.618, 0.17292471, -0.40542045, -784400.7, 261893.8, 0.0, 10.001371, 10.000532 
2.5552368e+3, 2.0322394e+2, -747164.56, -957797.75, -72163.164, 0.09662402, -0.33948296, -724813.2, 223565.48, 0.0, 10.001712, 9.998957 
2.5548118e+3, 2.1321513e+2, -831127.75, -989192.4, -135848.64, -0.08494655, -0.23978767, -752994.7, 97480.18, 0.0, 10.000651, 9.998572 
2.554388e+3, 2.2320668e+2, -760807.4, -817353.56, -125719.46, -0.12851103, -0.092226446, -660221.06, 92342.6, 0.0, 10.00009, 9.9993725 
2.5539672e+3, 2.3319836e+2, -585936.3, -690244.7, -22469.121, 0.09475783, -0.008162937, -581302.06, 73342.086, 0.0, 10.000673, 9.999277 
2.553545e+3, 2.4318823e+2, -565778.1, -817959.4, 18231.941, 0.12591536, 0.025389448, -564466.8, -7724.4863, 0.0, 10.000918, 9.997616 
2.5531194e+3, 2.531752e+2, -623913.2, -839818.2, -41418.395, -0.14344859, -0.15151325, -616240.3, -157372.27, 0.0, 10.0000515, 9.997201 
2.5526962e+3, 2.6316327e+2, -467990.94, -491432.2, -70954.8, -0.20065463, -0.24993627, -407795.25, -46813.965, 0.0, 9.999468, 9.999225 
2.5522774e+3, 2.7315363e+2, -341346.66, -341146.9, -72316.375, 0.108954154, -0.32120708, -268930.3, -5859.0195, 0.0, 9.999515, 9.999549 
2.5518572e+3, 2.8314477e+2, -255494.73, -251351.48, 890.1876, 0.16150741, -0.27296373, -251168.31, -86012.64, 0.0, 9.9994335, 9.999532 
2.551434e+3, 2.9313654e+2, -238924.28, -203262.64, -79237.38, -0.29084843, -0.21182813, -139874.61, -72637.01, 0.0, 9.998917, 9.999443 
2.551015e+3, 3.0312568e+2, -284673.13, -285840.7, -119167.45, -0.310293, -0.3405531, -166088.03, -166088.03, 0.0, 9.9986315, 9.998705 
2.5505945e+3, 3.1311598e+2, -280148.5, -106795.14, 8432.651, -0.41798085, -0.30077553, -106385.91, -106385.91, 0.0, 9.997799, 10.00034 
2.5685978e+3, 1.2372146e+2, -1777556.4, -1627291.6, 95752.38, -0.14700109, -0.13179234, -1580713.8, 146788.19, 0.26403108, 9.998942, 10.001347 
2.5681826e+3, 1.3371183e+2, -1712886.6, -1677104.8, -42753.46, 0.3952331, -0.26404095, -1648649.8, -19061.037, 0.18292536, 9.999398, 9.999848 
2.5677618e+3, 1.4370179e+2, -1622529.6, -1733950.4, -165109.69, 0.45565316, -0.30249235, -1503984.9, 27698.28, 0.1037245, 9.999943, 9.998524 
2.567335e+3, 1.5369181e+2, -1334805.6, -1601544.3, -197023.78, 0.07769842, -0.3222409, -1230255.4, 203528.0, 0.043632858, 10.00153, 9.998014 
2.5669116e+3, 1.6368103e+2, -1214317.9, -1512533.4, -129415.04, -0.04273958, -0.31181505, -1165988.6, 169903.52, 0.011545959, 10.001779, 9.997797 
2.5664926e+3, 1.7366917e+2, -1357493.8, -1557206.1, -92195.31, 0.18470469, -0.4449909, -1321441.0, -83428.01, 0.0013158798, 10.000233, 9.997559 
2.5660723e+3, 1.8365929e+2, -1227662.0, -1106223.3, -53226.875, 0.27060598, -0.4331797, -1086196.5, 53915.87, 0.000016496271, 9.998998, 10.000594 
2.5656497e+3, 1.9365269e+2, -1222135.0, -1028934.44, -65362.566, 0.1009113, -0.35972476, -1008899.06, 33276.38, 0.0, 9.998245, 10.000829 
2.565227e+3, 2.0364472e+2, -1264555.1, -1200722.8, -125345.6, -0.020779794, -0.26763657, -1103293.8, -159038.1, 0.0, 9.998183, 9.998986 
2.5648028e+3, 2.1363463e+2, -1031058.6, -1097277.4, -98383.89, -0.10427303, -0.30293593, -960362.3, -113998.11, 0.0, 9.9993725, 9.998447 
2.5643802e+3, 2.2362602e+2, -689985.5, -685794.25, -56864.2, -0.051584646, -0.18710409, -630987.06, 117466.664, 0.0, 10.00017, 10.000227 
2.5639603e+3, 2.3361978e+2, -578821.3, -561519.7, -69624.336, 0.20528176, -0.022264373, -500010.8, 150500.72, 0.0, 10.000193, 10.000385 
2.563538e+3, 2.4361077e+2, -692318.3, -913674.06, -84711.664, 0.24114463, 0.06438533, -663620.25, -111022.414, 0.0, 10.000243, 9.99727 
2.56311e+3, 2.535967e+2, -655194.0, -925092.9, -46487.105, -0.19462676, -0.17857751, -647411.56, -192675.4, 0.0, 10.000178, 9.996542 
2.5626862e+3, 2.6358446e+2, -458395.78, -565668.2, -6683.7617, -0.2953278, -0.23515409, -457980.94, -101125.34, 0.0, 9.999927, 9.998463 
2.562269e+3, 2.7357525e+2, -362684.47, -443120.97, -54161.625, 0.18584268, -0.19745606, -335441.7, -76498.46, 0.0, 9.999799, 9.998696 
2.5618488e+3, 2.8356513e+2, -419661.66, -517394.88, -6723.18, 0.27719787, -0.1520047, -419201.34, -258159.48, 0.0, 9.99915, 9.997828 
2.5614235e+3, 2.9355386e+2, -525997.0, -560745.0, 19620.74, -0.33579075, -0.21793084, -517163.56, -454007.97, 0.0, 9.997939, 9.997432 
2.5610048e+3, 3.0354315e+2, -307061.13, 41926.18, -44021.723, -0.2940374, -0.32263988, 47393.484, 47393.484, 0.0, 9.9971, 10.001647 
2.560586e+3, 3.135372e+2, -295678.13, 408708.47, -13410.472, -0.12735613, -0.33196917, 408963.7, 408963.7, 0.0, 9.995595, 10.004878 
2.578586e+3, 1.2414181e+2, -1710694.3, -1952336.3, 82156.836, -0.43065155, -0.2098255, -1685407.5, 37963.28, 0.23823552, 10.001085, 9.9978 
2.5781733e+3, 1.3412699e+2, -1689986.4, -1902969.0, -49635.35, 0.35747927, -0.6580335, -1678987.0, -53476.887, 0.16394834, 10.000566, 9.99772 
2.5777534e+3, 1.4411543e+2, -1578753.1, -1746048.1, -79267.53, 0.46215394, -0.7144035, -1547160.6, -19537.71, 0.09188186, 10.000392, 9.99821 
2.5773284e+3, 1.5410669e+2, -1362354.9, -1622706.1, -86588.15, 0.08824782, -0.5804096, -1336187.3, 93528.555, 0.03784501, 10.001351, 9.997948 
2.5769046e+3, 1.6409744e+2, -1181463.5, -1377286.0, -135684.84, -0.06613695, -0.45309195, -1112051.8, 219760.4, 0.009625426, 10.001517, 9.998836 
2.5764832e+3, 1.7408738e+2, -1250416.4, -1383779.8, -106033.695, 0.071925834, -0.5022138, -1191840.0, 42074.63, 0.0010124295, 10.000447, 9.998634 
2.5760612e+3, 1.8407941e+2, -1160325.6, -1056074.6, -66169.266, 0.12348251, -0.36447042, -1023965.6, 112031.46, 0.000009793076, 9.99939, 10.00074 
2.575639e+3, 1.940745e+2, -1185337.4, -1027196.6, -66837.24, 0.06042518, -0.09157195, -1002732.75, 35317.492, 0.0, 9.998556, 10.0006895 
2.5752172e+3, 2.0406707e+2, -1126629.3, -1011710.1, -75157.58, 0.062063944, 0.011079282, -974563.9, -34437.934, 0.0, 9.998549, 10.000119 
2.574796e+3, 2.1405624e+2, -879422.56, -887664.5, -27272.879, 0.164375, -0.20904593, -855961.06, -13728.577, 0.0, 9.999777, 9.999707 
2.5743735e+3, 2.2404659e+2, -653186.56, -710204.9, -36608.883, 0.104543835, -0.2553787, -635295.5, 109032.15, 0.0, 10.00057, 9.999855 
2.5739488e+3, 2.3403852e+2, -575760.4, -650033.7, -65049.414, -0.123094894, -0.18882953, -537993.4, 108412.36, 0.0, 10.000542, 9.999617 
2.573526e+3, 2.4402933e+2, -534463.2, -661521.6, -85275.24, -0.12904754, -0.14409673, -491654.13, 56838.94, 0.0, 10.000538, 9.998863 
2.5731048e+3, 2.540182e+2, -448025.22, -619500.1, -19226.031, 0.091353185, -0.26237547, -445896.03, 4701.355, 0.0, 10.000661, 9.99843 
2.5726822e+3, 2.6400733e+2, -456560.72, -718946.8, 17991.598, 0.1367577, -0.22651792, -455332.8, -102627.51, 0.0, 10.000572, 9.997098 
2.5722587e+3, 2.73997e+2, -442277.8, -704046.7, -53881.69, 0.04918791, -0.09042725, -431620.84, -176805.02, 0.0, 10.000167, 9.996739 
2.571836e+3, 2.839863e+2, -314149.28, -349376.28, -26046.152, -0.050494347, -0.03958034, -300320.2, -143395.67, 0.0, 9.99933, 9.998898 
2.5714138e+3, 2.939754e+2, -445576.06, -386491.94, 48172.727, -0.23967302, -0.18195103, -359524.3, -300495.5, 0.0, 9.997855, 9.998681 
2.570994e+3, 3.0396584e+2, -531936.1, -191842.92, -5523.402, -0.14772008, -0.1848838, -191753.25, -191753.25, 0.0, 9.996052, 10.000557 
2.570576e+3, 3.1395817e+2, -517328.44, 248354.34, -116901.23, 0.28710485, -0.18995999, 265804.63, 265804.63, 0.0, 9.994205, 10.004476 
2.5885832e+3, 1.2455647e+2, -1268276.4, -1561939.3, -160399.56, -0.2083426, -0.39010122, -1197650.9, 521664.47, 0.2137318, 10.004141, 9.999282 
2.5881642e+3, 1.3454628e+2, -1273747.3, -1524948.3, -120268.09, 0.08652851, -0.57347834, -1225451.5, 395953.4, 0.14603192, 10.003067, 9.999241 
2.5877422e+3, 1.4453648e+2, -1378939.4, -1586474.0, -46505.305, 0.121146224, -0.55660146, -1368994.8, 154505.67, 0.080827504, 10.001635, 9.9987 
2.5873214e+3, 1.5452774e+2, -1496061.0, -1646965.4, -41320.387, 0.20251933, -0.46148524, -1485487.5, -59890.77, 0.032553293, 10.000274, 9.998276 
2.5868988e+3, 1.6451909e+2, -1338641.6, -1330684.8, -35831.76, 0.18019973, -0.3396568, -1298611.3, 29075.002, 0.007938516, 9.999913, 9.999914 
2.5864747e+3, 1.7451043e+2, -1162875.5, -1241452.8, -3903.7427, 0.08092999, -0.34907287, -1162682.0, 67087.195, 0.00076767127, 10.000617, 9.999538 
2.5860518e+3, 1.8450236e+2, -1014395.94, -1091718.9, 12066.201, 0.037857473, -0.21399945, -1012556.75, 119295.125, 0.000005913737, 10.000854, 9.999774 
2.5856292e+3, 1.9449534e+2, -1042009.06, -1082753.3, -52308.242, 0.030748326, -0.052898884, -1006245.9, 27684.662, 0.0, 10.000103, 9.999538 
2.5852078e+3, 2.0448732e+2, -931585.44, -858010.2, -47228.355, 0.089854605, 0.033206157, -834932.56, 101079.32, 0.0, 9.9996605, 10.000629 
2.5847876e+3, 2.1447746e+2, -889679.7, -820146.9, -33361.32, 0.2169165, -0.1782857, -806729.44, 31374.14, 0.0, 9.999394, 10.000354 
2.584365e+3, 2.244678e+2, -906865.8, -871263.1, -68126.695, 0.14494699, -0.24072556, -818650.44, -78454.08, 0.0, 9.999082, 9.999452 
2.5839388e+3, 2.3445858e+2, -907497.6, -866621.06, -74797.914, -0.19513585, -0.24869221, -809519.3, -167231.1, 0.0, 9.998594, 9.999054 
2.5835162e+3, 2.444492e+2, -736157.1, -670197.3, -90730.125, -0.19289957, -0.22572447, -606639.0, -62261.477, 0.0, 9.998815, 9.999613 
2.5830975e+3, 2.544395e+2, -563979.75, -573704.5, -100688.164, 0.25073496, -0.3165991, -468036.63, -21571.799, 0.0, 9.999481, 9.999292 
2.5826755e+3, 2.6442927e+2, -641825.56, -913058.1, -81613.89, 0.30708423, -0.22589691, -619161.75, -270593.72, 0.0, 9.99977, 9.996156 
2.5822482e+3, 2.7441835e+2, -629699.2, -924255.06, -37808.64, -0.14236055, -0.06737561, -624923.56, -374232.2, 0.0, 9.999488, 9.995539 
2.5818247e+3, 2.8440818e+2, -284465.9, -202039.6, 8236.151, -0.26876372, 0.047990452, -201224.69, -48427.65, 0.0, 9.999002, 10.000051 
2.5814047e+3, 2.9439837e+2, -366927.78, -218957.77, 37668.293, -0.06565281, -0.11501224, -209920.61, -155035.42, 0.0, 9.997876, 9.999813 
2.5809819e+3, 3.0438885e+2, -529966.9, -359762.25, -42789.89, -0.09903758, -0.108081214, -349610.28, -349610.28, 0.0, 9.9967985, 9.9990425 
2.580558e+3, 3.1438306e+2, -406360.06, 85833.15, -81813.47, -0.13214235, 0.2553378, 99076.06, 99076.06, 0.0, 9.995924, 10.002535 
2.5985834e+3, 1.24972954e+2, -1314350.5, -1322955.1, -102868.48, 0.24096058, -0.38290834, -1215694.4, 499551.34, 0.19077101, 10.002272, 10.002174 
2.5981542e+3, 1.3496755e+2, -1262031.1, -1271982.4, -59156.28, -0.30660343, -0.30953458, -1207641.6, 409642.44, 0.12932456, 10.001888, 10.001794 
2.597731e+3, 1.4495996e+2, -1374127.9, -1504899.8, -35324.375, -0.32413015, -0.22106755, -1365196.1, 154161.81, 0.07062259, 10.001316, 9.999418 
2.5973147e+3, 1.549511e+2, -1363914.1, -1503473.6, -33809.387, 0.35244212, -0.1896529, -1356155.0, 65303.75, 0.027766839, 10.000854, 9.9989805 
2.5968933e+3, 1.649431e+2, -1133732.8, -1085383.0, 9703.931, 0.48091933, -0.102737896, -1083508.1, 240031.02, 0.0064744665, 10.000679, 10.001244 
2.5964674e+3, 1.7493595e+2, -1016230.7, -1030890.0, 40885.215, 0.10719903, -0.07085782, -982023.3, 243576.23, 0.0005723583, 10.000994, 10.000814 
2.596043e+3, 1.8492644e+2, -1099430.9, -1307119.5, -11353.332, -0.059017442, -0.06872678, -1098812.1, 28882.113, 0.0000035552432, 10.00101, 9.998226 
2.5956202e+3, 1.9491468e+2, -1105365.9, -1299351.6, -58348.48, -0.027128775, -0.20160878, -1089168.0, -59346.254, 0.0, 10.00044, 9.997903 
2.595198e+3, 2.0490536e+2, -842012.94, -758608.3, -39028.918, -0.018477395, -0.19049224, -743193.75, 188721.77, 0.0, 10.000024, 10.0011425 
2.5947762e+3, 2.1489814e+2, -797534.3, -734744.75, -23919.404, -0.019280508, -0.15737185, -726670.94, 107308.24, 0.0, 9.999809, 10.000765 
2.5943547e+3, 2.2488989e+2, -848596.8, -824713.6, -82838.76, 0.06942171, -0.10754993, -752960.2, -16901.68, 0.0, 9.999384, 9.999623 
2.5939327e+3, 2.3488072e+2, -856860.06, -830481.4, -71825.52, 0.2133076, -0.11145322, -770644.25, -132491.88, 0.0, 9.998849, 9.999187 
2.5935102e+3, 2.4487035e+2, -753824.1, -750915.44, -58211.03, 0.17507441, -0.16343665, -694140.56, -153886.61, 0.0, 9.998956, 9.999003 
2.593086e+3, 2.5485882e+2, -583075.6, -655765.0, -87016.01, 0.022102697, -0.35660166, -525119.06, -82756.72, 0.0, 9.999607, 9.998684 
2.5926626e+3, 2.6484856e+2, -510355.5, -652261.25, -99471.01, -0.076402284, -0.32083458, -459124.94, -114659.86, 0.0, 9.999826, 9.997908 
2.5922388e+3, 2.7483952e+2, -465056.6, -632259.6, -20489.545, -0.14527354, -0.14540476, -462582.38, -216017.47, 0.0, 9.999675, 9.9974575 
2.5918165e+3, 2.8483033e+2, -231399.42, -132839.97, 6709.544, -0.10791949, -0.051531322, -132385.3, 16271.031, 0.0, 9.999182, 10.000439 
2.5913948e+3, 2.9482093e+2, -305510.94, -168515.4, -5157.1636, 0.015734553, -0.16484784, -168321.55, -117581.84, 0.0, 9.998179, 10.000026 
2.590973e+3, 3.0481112e+2, -426671.38, -422944.0, -52672.293, 0.16889188, -0.14790638, -372102.44, -372102.44, 0.0, 9.99795, 9.998071 
2.5905472e+3, 3.1479815e+2, -78068.09, 234448.55, 307650.2, -0.13507313, -0.38929167, 423248.63, 423248.63, 0.0, 9.998206, 10.002447 
2.608575e+3, 1.254001e+2, -1701226.4, -1629861.4, 128025.65, 0.24745588, -0.19541085, -1532638.6, 178421.64, 0.16949522, 9.999714, 10.000833 
2.6081473e+3, 1.3539141e+2, -1581485.3, -1512527.3, 70284.49, -0.17356065, -0.34059945, -1468720.1, 144411.38, 0.11391173, 9.999823, 10.000874 
2.6077238e+3, 1.453828e+2, -1470086.1, -1603231.8, 110303.05, -0.2337588, -0.2748934, -1407823.0, 107393.3, 0.061296463, 10.000816, 9.998976 
2.607306e+3, 1.553742e+2, -1114233.6, -1430878.0, 64939.914, 0.14755014, -0.17718467, -1101432.8, 315880.88, 0.023481611, 10.002796, 9.99855 
2.6068845e+3, 1.6536543e+2, -865988.6, -1056174.1, -13765.726, 0.28169715, -0.100030534, -864997.4, 454403.3, 0.005220199, 10.002928, 10.000397 
2.6064602e+3, 1.7535676e+2, -1064282.6, -1159751.8, -92783.2, 0.16376211, -0.14764063, -1007674.9, 213801.36, 0.00041937284, 10.001104, 9.999906 
2.6060358e+3, 1.8534662e+2, -1171659.0, -1379801.8, -105148.94, 0.009886672, -0.15987173, -1127787.4, -4210.635, 0.0000020172258, 10.000667, 9.997905 
2.605611e+3, 1.9533478e+2, -1022912.06, -1301364.5, -83707.29, -0.1323443, -0.28241497, -999685.6, 26017.713, 0.0, 10.001192, 9.997532 
2.6051888e+3, 2.0532544e+2, -750185.75, -727128.5, -60823.2, -0.10039344, -0.25046715, -676751.0, 251045.98, 0.0, 10.0007715, 10.000964 
2.6047677e+3, 2.1531853e+2, -931435.7, -828591.06, -85537.62, 0.04240403, -0.18069398, -780208.9, 49649.95, 0.0, 9.999089, 10.000439 
2.6043457e+3, 2.2531086e+2, -914511.06, -831106.6, -114890.44, 0.15767293, -0.0697964, -750584.06, -18650.387, 0.0, 9.998818, 9.999861 
2.603924e+3, 2.3530224e+2, -811915.44, -796175.3, -85133.36, 0.32553068, -0.061868373, -718549.0, -84525.734, 0.0, 9.99911, 9.999297 
2.603501e+3, 2.4529189e+2, -736387.1, -768571.8, -18698.777, 0.25874513, -0.10002594, -727809.5, -191682.94, 0.0, 9.999249, 9.998724 
2.6030758e+3, 2.5528e+2, -696473.06, -753511.9, -6466.864, -0.08846415, -0.306339, -695749.06, -257507.06, 0.0, 9.999066, 9.998262 
2.6026517e+3, 2.6527023e+2, -519787.4, -475064.84, -31103.365, -0.23622851, -0.27561268, -459118.84, -118779.76, 0.0, 9.999012, 9.999515 
2.6022294e+3, 2.752622e+2, -529890.75, -496223.63, 32548.912, -0.13568494, -0.16310026, -476412.94, -233990.81, 0.0, 9.998539, 9.998941 
2.6018077e+3, 2.852532e+2, -369202.78, -233322.06, 12274.06, -0.008437161, -0.10660121, -232222.25, -87713.7, 0.0, 9.998373, 10.00015 
2.6013845e+3, 2.9524377e+2, -368380.25, -264427.63, -18212.486, 0.04624695, -0.19697969, -261329.16, -214736.05, 0.0, 9.998045, 9.99944 
2.6009646e+3, 3.0523327e+2, -395176.22, -530370.9, -7841.1113, 0.3870555, -0.16229579, -394722.97, -394722.97, 0.0, 9.998748, 9.996923 
2.6005358e+3, 3.1521827e+2, -280332.1, -279856.63, 214046.27, -0.30436304, -0.499696, -66047.95, -66047.95, 0.0, 9.9986925, 9.998651 
2.618565e+3, 1.2582901e+2, -1504118.6, -1637181.0, 48811.754, 0.070021085, -0.0053134034, -1488133.3, 218721.81, 0.14988379, 10.001759, 9.999718 
2.6181415e+3, 1.3581552e+2, -1490444.9, -1662009.3, 22432.207, 0.109669104, -0.450678, -1487560.4, 121415.45, 0.09979615, 10.001404, 9.999 
2.617718e+3, 1.458052e+2, -1424475.0, -1640078.9, 131750.56, -0.067701116, -0.44425908, -1362043.4, 149034.3, 0.05285716, 10.001429, 9.998414 
2.6172957e+3, 1.5579695e+2, -1221230.5, -1570401.4, 109257.21, -0.31241181, -0.24058333, -1189861.6, 223306.5, 0.019694533, 10.002409, 9.997784 
2.6168743e+3, 1.6578639e+2, -1025504.1, -1323199.1, -83378.84, -0.16404347, -0.21970965, -1003742.1, 311530.7, 0.004163879, 10.002648, 9.998675 
2.6164535e+3, 1.7577426e+2, -1107298.1, -1363387.4, -126653.0, 0.21894673, -0.43369597, -1055241.6, 162144.44, 0.00030229846, 10.001609, 9.998245 
2.616029e+3, 1.8576434e+2, -1024537.3, -1214316.1, -59912.13, 0.11870355, -0.38533235, -1007206.1, 112277.78, 0.0000010444409, 10.001246, 9.998764 
2.615602e+3, 1.9575575e+2, -903869.8, -1153733.8, -36701.695, -0.31715268, -0.25141144, -898590.4, 122983.71, 0.0, 10.001567, 9.998379 
2.6151803e+3, 2.0574678e+2, -756011.2, -799834.75, -109298.914, -0.15436745, -0.19572237, -666449.3, 257214.84, 0.0, 10.000999, 10.000361 
2.614762e+3, 2.1573779e+2, -911968.94, -878113.5, -130231.07, 0.41343746, -0.25945938, -763714.6, 62036.574, 0.0, 9.999444, 9.999927 
2.614338e+3, 2.2572984e+2, -801109.6, -678256.56, -85017.3, 0.3654317, -0.19948857, -634796.7, 93034.234, 0.0, 9.999142, 10.000768 
2.613911e+3, 2.3572251e+2, -670245.8, -631257.56, -47940.46, -0.07263878, -0.13006505, -598999.3, 30907.596, 0.0, 9.999608, 10.000212 
2.6134887e+3, 2.4571422e+2, -628830.5, -635605.06, -8627.916, -0.059776917, -0.045038577, -622948.75, -90957.01, 0.0, 9.999623, 9.999462 
2.613069e+3, 2.557051e+2, -585976.56, -615985.9, 17842.219, 0.20712857, -0.020507282, -577668.5, -143584.66, 0.0, 9.999426, 9.99905 
2.6126456e+3, 2.6569644e+2, -389751.16, -245322.08, -6531.4395, 0.13051604, 0.008958349, -245027.31, 91140.54, 0.0, 9.9991455, 10.001045 
2.6122192e+3, 2.7568832e+2, -415802.56, -279861.97, 55443.754, -0.121741824, -0.012255678, -260116.98, -21872.068, 0.0, 9.998566, 10.000436 
2.6117963e+3, 2.8567943e+2, -413748.4, -334284.84, 65436.867, -0.101265326, 0.019285314, -297462.1, -157131.5, 0.0, 9.9983835, 9.9994545 
2.611374e+3, 2.956702e+2, -328039.97, -319792.53, 42144.07, 0.034879755, 0.03910449, -281570.94, -239151.03, 0.0, 9.998617, 9.998789 
2.6109543e+3, 3.056576e+2, -272749.13, -435601.4, 107407.01, 0.29302564, -0.11544057, -219392.17, -219392.17, 0.0, 9.999401, 9.997262 
2.6105243e+3, 3.1564313e+2, 94947.33, 125178.37, -48215.34, -0.53135794, -0.41004992, 160592.03, 160592.03, 0.0, 10.0001955, 10.00073 
2.6285607e+3, 1.2624998e+2, -1100703.3, -1566547.9, -146542.92, 0.06929329, -0.047763605, -1058439.0, 644297.6, 0.13183959, 10.005547, 9.99842 
2.6281354e+3, 1.3623798e+2, -1132212.0, -1612497.4, -194990.34, 0.044475667, -0.24298765, -1063017.1, 541833.0, 0.08692967, 10.004676, 9.9978 
2.627711e+3, 1.4622764e+2, -1197630.1, -1497837.6, -76844.47, -0.12377981, -0.2191454, -1179103.5, 327847.72, 0.045284744, 10.002878, 9.998727 
2.6272875e+3, 1.5621835e+2, -1490061.3, -1675813.5, -70512.734, -0.3482905, -0.1639732, -1466326.9, -57281.457, 0.01638905, 10.000416, 9.998047 
2.6268664e+3, 1.6620801e+2, -1248780.8, -1412425.4, -102276.12, -0.20211639, -0.15695956, -1199624.9, 111520.73, 0.0032885466, 10.001065, 9.99881 
2.626447e+3, 1.761966e+2, -829963.1, -1232999.6, -71805.28, 0.19799776, -0.31170118, -817552.44, 395700.72, 0.00021471751, 10.003525, 9.998226 
2.626023e+3, 1.8618657e+2, -703058.6, -989328.25, -45124.625, 0.1645111, -0.3054309, -696114.06, 419236.28, 0.00000047553752, 10.003191, 9.999355 
2.625596e+3, 1.9617781e+2, -1019193.8, -1160806.0, -35983.33, -0.1761092, -0.24600115, -1010575.06, 6862.316, 0.0, 10.000613, 9.998779 
2.6251727e+3, 2.0616893e+2, -910044.9, -890453.06, -54196.184, -0.09049132, -0.18833885, -845174.6, 74350.8, 0.0, 10.000003, 10.000236 
2.624752e+3, 2.1615978e+2, -844470.94, -875991.25, -31900.693, 0.339596, -0.25133118, -824649.7, -3033.899, 0.0, 10.000069, 9.999643 
2.624328e+3, 2.2615136e+2, -681056.75, -662185.56, -1377.1105, 0.29508016, -0.19215575, -662085.6, 61616.73, 0.0, 10.000196, 10.000344 
2.6239014e+3, 2.3614362e+2, -690509.4, -681771.5, -69147.18, -0.1296612, -0.13788864, -616855.4, 8928.931, 0.0, 9.999693, 9.999812 
2.623479e+3, 2.461363e+2, -592310.8, -497503.66, -52079.246, -0.093772754, -0.0014631229, -474484.6, 53373.93, 0.0, 9.999372, 10.000527 
2.6230606e+3, 2.5612906e+2, -670653.25, -565751.8, 17242.889, 0.30347663, 0.09946782, -562990.25, -133059.55, 0.0, 9.998464, 9.9998665 
2.622637e+3, 2.6612103e+2, -470261.13, -214731.22, -38952.72, 0.2626815, 0.11721342, -208925.22, 123081.53, 0.0, 9.998323, 10.001635 
2.6222092e+3, 2.7611274e+2, -468321.3, -278853.1, -53047.72, -0.102784894, -0.0046437024, -265011.8, -30929.406, 0.0, 9.998134, 10.000637 
2.621785e+3, 2.8610423e+2, -420151.38, -417051.44, -47471.773, -0.18131095, 0.08729033, -371104.34, -234937.39, 0.0, 9.998739, 9.9986925 
2.6213634e+3, 2.9609516e+2, -301872.28, -406560.63, -49711.8, -0.049987525, 0.17055365, -282027.97, -243767.03, 0.0, 9.999267, 9.997874 
2.6209444e+3, 3.0608156e+2, -290250.53, -350962.78, 12782.077, 0.23032828, -0.088646926, -287669.2, -287669.2, 0.0, 9.998928, 9.998066 
2.620519e+3, 3.1606767e+2, -253061.39, -71527.72, 146024.63, -0.2009424, -0.43036914, 9640.929, 9640.929, 0.0, 9.99802, 10.000419 
2.638557e+3, 1.2666932e+2, -1373247.9, -1799663.5, -137224.16, 0.026843453, -0.08058245, -1332904.8, 365731.63, 0.115287155, 10.003772, 9.997551 
2.638129e+3, 1.3666002e+2, -1272778.0, -1762331.3, -126473.28, -0.20184329, 0.083272025, -1242035.0, 358697.0, 0.07524967, 10.003901, 9.997118 
2.6377037e+3, 1.4664987e+2, -1130295.8, -1381944.5, -73356.98, -0.2687178, 0.121756114, -1110473.3, 392357.28, 0.038529176, 10.002974, 9.999499 
2.6372808e+3, 1.5663914e+2, -1298802.1, -1470149.5, -62405.164, -0.21775834, -0.038347866, -1278483.4, 126448.72, 0.013527696, 10.001266, 9.999039 
2.63686e+3, 1.6663016e+2, -1096096.8, -1211768.9, 33112.164, -0.09720661, 0.0002909656, -1087288.9, 219727.9, 0.0025719018, 10.0015545, 9.999967 
2.6364407e+3, 1.766219e+2, -797128.3, -1090438.1, 29747.648, 0.065302454, 0.058661643, -794141.75, 414952.2, 0.00015054179, 10.003179, 9.999379 
2.6360172e+3, 1.8661144e+2, -729490.7, -955786.25, -118918.14, 0.16275707, -0.04787254, -678492.4, 432700.6, 0.0000001940375, 10.002822, 9.999757 
2.6355916e+3, 1.9660003e+2, -941762.94, -1059036.3, -88696.64, 0.18187955, -0.28393534, -894072.94, 119228.82, 0.0, 10.000843, 9.999371 
2.6351646e+3, 2.0659178e+2, -826521.8, -774525.9, -28287.74, -0.024319582, -0.23061854, -762103.94, 153277.19, 0.0, 10.000253, 10.0009 
2.6347372e+3, 2.1658505e+2, -747971.94, -795805.56, 7815.825, -0.2987249, -0.105538204, -746727.25, 70719.2, 0.0, 10.000552, 9.999963 
2.6343164e+3, 2.2657567e+2, -764060.8, -933252.06, 9539.479, -0.05475035, -0.034790784, -763524.6, -43978.78, 0.0, 10.000587, 9.998305 
2.633898e+3, 2.3656523e+2, -672658.94, -812914.0, -72608.85, 0.3810726, -0.038726535, -641841.4, -20182.03, 0.0, 10.000372, 9.998589 
2.6334733e+3, 2.4655709e+2, -400295.03, -172925.11, -79060.51, 0.26626426, -0.055141643, -148136.84, 375598.84, 0.0, 9.9996605, 10.002622 
2.6330465e+3, 2.565501e+2, -525228.1, -296993.38, 8091.8384, -0.073401295, -0.12638557, -296706.84, 129086.62, 0.0, 9.998573, 10.001653 
2.6326224e+3, 2.6654097e+2, -570623.1, -435077.13, -29647.432, -0.10626262, -0.20595315, -428876.16, -100997.625, 0.0, 9.998334, 10.000134 
2.6321995e+3, 2.7653104e+2, -503960.28, -444498.75, -74671.55, -0.013165329, -0.33025745, -393856.88, -163881.89, 0.0, 9.998473, 9.999351 
2.6317772e+3, 2.8652206e+2, -393004.16, -484922.38, -65393.83, 0.0056773904, -0.19178694, -359034.6, -226965.58, 0.0, 9.999213, 9.99802 
2.631355e+3, 2.9651344e+2, -193314.95, -376166.6, -95850.21, 0.00070499204, 0.0078003, -152279.67, -118115.875, 0.0, 10.000049, 9.997725 
2.6309332e+3, 3.0650118e+2, -183122.73, -173310.83, -133082.42, 0.13202868, -0.19119725, -45043.965, -45043.965, 0.0, 9.999075, 9.999242 
2.6305103e+3, 3.1649798e+2, -206691.03, 409120.84, -62514.668, 0.124809824, 0.4217523, 415402.97, 415402.97, 0.0, 9.996286, 10.004583 
2.6485485e+3, 1.2709223e+2, -1630012.8, -1744221.8, -18958.512, -0.1390243, -0.08497811, -1626947.9, 67546.18, 0.1001696, 10.0009575, 9.999269 
2.6481235e+3, 1.3708483e+2, -1408833.0, -1691335.5, 62993.23, -0.11986624, 0.12760052, -1395423.1, 201145.14, 0.06469248, 10.002291, 9.998363 
2.6477e+3, 1.4707422e+2, -1131475.1, -1465307.4, 106457.13, -0.07877895, 0.13233942, -1100416.3, 398254.63, 0.032530583, 10.003343, 9.998704 
2.647277e+3, 1.5706204e+2, -973851.44, -1390264.6, 53120.97, 0.003174846, -0.08278151, -967181.75, 433605.66, 0.011066901, 10.0038595, 9.998329 
2.6468548e+3, 1.670523e+2, -1026454.6, -1199994.1, 75573.77, 0.063307226, -0.07386526, -998157.5, 304722.44, 0.0019930317, 10.002105, 9.999785 
2.646433e+3, 1.7704394e+2, -1447146.5, -1417859.0, 7727.6724, 0.10002965, -0.006064922, -1415945.0, -210986.2, 0.00010503105, 9.998782, 9.999257 
2.6460087e+3, 1.8703447e+2, -1252361.4, -1132242.3, -94240.99, 0.14214632, -0.05304323, -1080549.8, 26498.64, 0.00000008640195, 9.998928, 10.000409 
2.6455832e+3, 1.9702415e+2, -1017179.9, -1056457.3, -58686.105, 0.20402326, -0.24258582, -974933.7, 34212.25, 0.0, 10.000185, 9.999703 
2.6451558e+3, 2.0701557e+2, -765137.6, -756994.75, -10692.479, -0.040212877, -0.22870375, -749624.75, 161602.3, 0.0, 10.000751, 10.000777 
2.6447275e+3, 2.1700822e+2, -803348.2, -866704.8, -28578.06, -0.4399961, -0.15651749, -792362.44, 20934.594, 0.0, 10.000367, 9.999583 
2.644307e+3, 2.2699896e+2, -728106.0, -936852.9, 66219.625, -0.17100208, -0.05254814, -708871.8, 6523.2856, 0.0, 10.000927, 9.9981165 
2.6438907e+3, 2.3698862e+2, -613750.0, -821551.7, 112464.99, 0.45476958, -0.017692834, -564537.3, 52971.043, 0.0, 10.000968, 9.998246 
2.6434648e+3, 2.4697977e+2, -330182.3, -126652.54, -15326.187, 0.3217005, -0.08394542, -125504.92, 394085.5, 0.0, 10.000112, 10.002709 
2.6430345e+3, 2.569718e+2, -626977.94, -373124.5, -85757.7, -0.22906336, -0.27493137, -346869.03, 74786.234, 0.0, 9.998017, 10.0014 
2.642611e+3, 2.66962e+2, -622728.44, -544244.75, -57389.34, -0.23801151, -0.37685266, -513963.5, -190216.52, 0.0, 9.998389, 9.999328 
2.6421902e+3, 2.7695113e+2, -492007.53, -559073.44, -9806.986, 0.05350555, -0.5164832, -490602.9, -264748.84, 0.0, 9.999118, 9.998243 
2.641769e+3, 2.8694183e+2, -440328.9, -503279.66, 56569.188, 0.14111923, -0.35593873, -407068.1, -279115.22, 0.0, 9.998945, 9.997993 
2.6413462e+3, 2.9693347e+2, -514190.84, -540031.9, 80284.01, 0.041628603, -0.115299754, -445794.3, -415748.13, 0.0, 9.99795, 9.997599 
2.640921e+3, 3.069215e+2, -351212.47, -193016.7, -47091.445, -0.087790385, -0.301012, -180059.83, -180059.83, 0.0, 9.997688, 9.99975 
2.6404926e+3, 3.1691658e+2, -111968.26, 635331.8, -40033.918, -0.40738472, 0.06203356, 637470.4, 637470.4, 0.0, 9.996201, 10.0061655 
2.6585385e+3, 1.2751645e+2, -1412210.4, -1411248.1, 64074.69, -0.36936456, -0.09514267, -1347652.8, 342682.6, 0.08642923, 10.001561, 10.00143 
2.658119e+3, 1.3751057e+2, -1285942.9, -1480144.9, 122328.86, 0.04316007, 0.06867662, -1226861.5, 365526.8, 0.055199467, 10.002492, 9.999759 
2.657697e+3, 1.4749917e+2, -1223051.6, -1648694.5, 139095.39, 0.16656512, 0.015595724, -1181628.1, 312870.72, 0.027235242, 10.003299, 9.997457 
2.6572743e+3, 1.5748571e+2, -1051437.5, -1543731.5, 81098.45, 0.19171527, -0.19539927, -1038421.8, 358209.06, 0.0089680515, 10.003811, 9.997294 
2.6568496e+3, 1.6747431e+2, -1045267.9, -1286276.1, -11339.004, 0.20478392, -0.26650584, -1044735.56, 254004.81, 0.0015322798, 10.002351, 9.999052 
2.656424e+3, 1.7746395e+2, -1338954.3, -1387340.3, -30531.89, 0.18052818, -0.32107702, -1324192.1, -123352.76, 0.00007382683, 9.999608, 9.999066 
2.6559982e+3, 1.8745647e+2, -1094826.0, -956245.7, -11173.514, 0.05667536, -0.21466218, -955350.6, 147560.13, 0.000000036839044, 9.99956, 10.001322 
2.655572e+3, 1.9744982e+2, -900528.7, -928858.06, 4592.8975, -0.10582766, -0.1135974, -899802.7, 105171.39, 0.0, 10.000647, 10.0003605 
2.6551473e+3, 2.0743953e+2, -793251.94, -868708.75, -1236.3516, -0.078876674, -0.24142258, -793231.7, 113839.41, 0.0, 10.000984, 9.999889 
2.6547235e+3, 2.1742833e+2, -725854.5, -836401.0, -4085.5435, -0.030745504, -0.46570176, -725703.75, 83473.28, 0.0, 10.000895, 9.99954 
2.6542997e+3, 2.27421e+2, -507385.78, -550460.56, 108023.39, -0.13189054, -0.31617695, -418773.66, 292476.75, 0.0, 10.001218, 10.000639 
2.6538768e+3, 2.3741482e+2, -411398.94, -570073.5, 155687.66, -0.21484591, -0.088585086, -315999.13, 297316.5, 0.0, 10.001641, 9.999662 
2.6534528e+3, 2.4740525e+2, -520236.4, -589657.75, -50351.04, -0.014533825, -0.07575151, -493791.06, 21622.379, 0.0, 10.000385, 9.999412 
2.6530284e+3, 2.5739467e+2, -715594.2, -652430.7, -121815.5, 0.21425413, -0.1897885, -558169.6, -140650.7, 0.0, 9.998396, 9.9993 
2.6526046e+3, 2.6738614e+2, -482478.2, -337779.53, 1003.1472, 0.1576727, -0.1613719, -337772.6, -18171.625, 0.0, 9.9987335, 10.000582 
2.6521817e+3, 2.773781e+2, -251961.6, -261581.78, 43079.285, 0.08174023, -0.13429321, -213424.69, 8252.085, 0.0, 9.999937, 9.999898 
2.6517585e+3, 2.8736928e+2, -259565.47, -187931.14, 72500.37, 0.07188101, -0.10691511, -142883.14, -19121.408, 0.0, 9.999172, 10.000069 
2.651334e+3, 2.973605e+2, -473702.25, -350432.38, 138716.42, -0.030935025, -0.08270308, -260274.31, -234426.05, 0.0, 9.997457, 9.999136 
2.65091e+3, 3.0734774e+2, -594229.9, -475560.47, 42431.86, 0.019984707, -0.30719388, -461949.53, -461949.53, 0.0, 9.996701, 9.998301 
2.6504833e+3, 3.173409e+2, -159707.02, 370368.28, 95411.445, -0.1137289, 0.031675886, 387018.9, 387018.9, 0.0, 9.996842, 10.004061 
2.6685324e+3, 1.279401e+2, -1210598.9, -1389330.3, 109302.83, -0.36459404, -0.34031114, -1158779.1, 527394.06, 0.073998824, 10.003333, 10.0007 
2.6681122e+3, 1.3793522e+2, -1266242.9, -1559445.9, 64482.094, -0.0062470455, -0.016534472, -1252688.4, 335529.66, 0.046711158, 10.002987, 9.998943 
2.6676905e+3, 1.4792387e+2, -1255520.3, -1689108.5, 100688.46, 0.079397075, -0.026713302, -1233279.0, 257052.25, 0.022592442, 10.003167, 9.997243 
2.667268e+3, 1.5791054e+2, -1132252.3, -1593784.6, 54208.684, 0.109946065, -0.20868671, -1125970.8, 266494.44, 0.0071954923, 10.003289, 9.997219 
2.6668426e+3, 1.679e+2, -854019.25, -1151854.8, -12392.205, 0.12100479, -0.219055, -853504.56, 441063.06, 0.001170623, 10.003491, 9.999429 
2.6664162e+3, 1.7789036e+2, -851170.06, -1168700.0, 27699.75, 0.12846993, -0.22665617, -848771.8, 347888.1, 0.00005271245, 10.00307, 9.998889 
2.6659897e+3, 1.8788174e+2, -818722.56, -965439.5, 4070.251, 0.021550145, -0.13963662, -818609.7, 280135.6, 0.000000014947995, 10.002105, 10.000028 
2.6655638e+3, 1.9787394e+2, -1021760.9, -1085192.0, -102474.05, -0.099261984, -0.041026488, -946206.7, 54616.508, 0.0, 10.000292, 9.999451 
2.66514e+3, 2.0786346e+2, -908637.4, -880189.0, -64585.16, 0.014708224, -0.19572234, -828280.2, 74640.24, 0.0, 10.000044, 10.000232 
2.6647174e+3, 2.1785209e+2, -917756.25, -893168.6, 17153.588, 0.20734821, -0.47850204, -884358.3, -79333.35, 0.0, 9.999497, 9.999795 
2.6642916e+3, 2.2784491e+2, -721183.4, -533464.06, 77862.94, -0.11327711, -0.39082623, -505371.78, 201720.92, 0.0, 9.99929, 10.001654 
2.6638648e+3, 2.378394e+2, -864485.94, -760113.2, -1165.4417, -0.5592446, -0.21123323, -760100.2, -150953.95, 0.0, 9.99847, 9.999877 
2.6634425e+3, 2.4782985e+2, -796000.6, -892434.1, -124326.984, -0.16377605, -0.12215894, -710868.0, -199620.77, 0.0, 9.999259, 9.997871 
2.6630214e+3, 2.5781873e+2, -641469.0, -761791.2, -19528.86, 0.48562965, -0.1387775, -638378.75, -225012.69, 0.0, 9.999576, 9.997979 
2.662597e+3, 2.6781082e+2, -332926.75, -197423.58, 130018.64, 0.3770087, -0.026441857, -118563.01, 196880.05, 0.0, 9.999504, 10.001158 
2.662172e+3, 2.7780426e+2, -390717.2, -259209.95, 85937.086, 0.03894231, 0.08239618, -216756.72, 746.2021, 0.0, 9.998733, 10.000495 
2.6617473e+3, 2.8779563e+2, -300175.8, -54132.285, -31864.959, -0.035298377, 0.01409946, -50072.46, 69507.28, 0.0, 9.998247, 10.001426 
2.6613215e+3, 2.977863e+2, -546388.9, -346467.88, -28939.072, -0.13732053, -0.15594919, -342363.16, -320700.13, 0.0, 9.996816, 9.9994755 
2.6608998e+3, 3.0777398e+2, -704484.6, -659860.3, -56228.973, 0.2182464, -0.28935134, -621678.44, -621678.44, 0.0, 9.996555, 9.997079 
2.6604757e+3, 3.1776068e+2, -456369.84, -41926.957, 125009.13, 0.2896442, -0.49099863, -7140.1157, -7140.1157, 0.0, 9.99603, 10.001606 
2.6785272e+3, 1.283635e+2, -1357156.3, -1587233.1, 10809.475, -0.39079428, -0.5891826, -1356649.5, 325363.3, 0.0627781, 10.002847, 9.999441 
2.678105e+3, 1.3835889e+2, -1311721.6, -1690331.9, 18871.148, -0.19679104, -0.116148226, -1310783.4, 273274.8, 0.039145205, 10.003097, 9.997993 
2.6776826e+3, 1.4834808e+2, -1261456.3, -1657934.0, 94778.25, -0.1580911, -0.058175985, -1239964.5, 246205.11, 0.018543137, 10.002995, 9.997532 
2.6772606e+3, 1.5833558e+2, -1137273.8, -1516875.9, 66746.7, -0.13814856, -0.1834637, -1125879.5, 262419.16, 0.00571063, 10.002904, 9.9979315 
2.676835e+3, 1.6832747e+2, -862153.56, -1036759.7, -17219.975, -0.0987676, -0.05360339, -860471.5, 429907.3, 0.0008890518, 10.00291, 10.000496 
2.6764086e+3, 1.7832032e+2, -900153.7, -1199314.5, 5029.778, -0.076047026, 0.10202017, -900069.1, 292378.78, 0.000037964888, 10.002751, 9.99882 
2.675983e+3, 1.8830863e+2, -1004366.3, -1357329.5, -44116.297, 0.022842834, 0.065158375, -998935.9, 95631.73, 0.0000000057994387, 10.00212, 9.997337 
2.6755577e+3, 1.9829628e+2, -1013868.94, -1203785.4, -110362.82, 0.115106575, -0.036774263, -963235.2, 33459.203, 0.0, 10.000845, 9.99837 
2.675133e+3, 2.0828782e+2, -752093.94, -610875.56, -46040.156, 0.17735459, -0.06491641, -597191.5, 301578.63, 0.0, 10.000276, 10.001974 
2.6747084e+3, 2.1828006e+2, -749991.9, -689943.94, 32069.99, 0.2007093, -0.1365065, -676037.06, 124798.89, 0.0, 10.000067, 10.000924 
2.6742825e+3, 2.282704e+2, -767945.1, -660944.5, 59980.152, -0.06391986, -0.27656427, -634071.25, 68855.65, 0.0, 9.99939, 10.000743 
2.6738563e+3, 2.3826072e+2, -837636.0, -749655.25, -15127.167, -0.37938496, -0.42131054, -747127.0, -142106.52, 0.0, 9.998617, 9.999886 
2.6734334e+3, 2.4825266e+2, -634217.94, -602658.25, -69361.89, -0.08622834, -0.30378985, -547303.9, -40203.543, 0.0, 9.999424, 9.999792 
2.673011e+3, 2.5824472e+2, -404123.47, -498945.75, 58549.055, 0.36076087, -0.17054184, -376196.63, 32983.332, 0.0, 10.00051, 9.999347 
2.6725864e+3, 2.6823515e+2, -324055.2, -312311.16, 140379.67, 0.21900651, -0.20131633, -177680.75, 133591.55, 0.0, 10.000028, 10.000141 
2.6721612e+3, 2.782254e+2, -411005.4, -347434.78, 65832.375, -0.05466838, -0.2958906, -306116.0, -92751.18, 0.0, 9.99889, 9.999814 
2.6717362e+3, 2.882158e+2, -407821.28, -205113.9, -71866.336, -0.060523957, -0.37864283, -182220.5, -66765.875, 0.0, 9.997921, 10.000564 
2.67131e+3, 2.9820624e+2, -524714.0, -358341.2, -104051.56, -0.067658044, -0.47774708, -308310.84, -290767.53, 0.0, 9.996996, 9.9993305 
2.6708877e+3, 3.0819753e+2, -557064.8, -434528.16, -75986.43, 0.25835532, -0.32683253, -398186.3, -398186.3, 0.0, 9.9969, 9.99846 
2.6704615e+3, 3.18185e+2, -342403.7, 220050.84, -20648.646, 0.19021618, -0.592743, 220807.88, 220807.88, 0.0, 9.995852, 10.003496 
2.6885223e+3, 1.2878919e+2, -1431757.6, -1656893.1, -104344.56, -0.2162212, -0.12745887, -1390835.0, 287014.13, 0.052669767, 10.002376, 9.999196 
2.6881e+3, 1.3877839e+2, -1201190.9, -1592968.1, -119981.53, -0.12070785, -0.27811274, -1167366.8, 412584.94, 0.03242249, 10.003695, 9.998369 
2.6876763e+3, 1.487694e+2, -1200725.0, -1454452.3, -39828.17, -0.16448031, -0.17801717, -1194620.0, 287421.94, 0.015032302, 10.002626, 9.999105 
2.6872528e+3, 1.5876037e+2, -1425165.1, -1565890.0, -39604.88, -0.1647497, -0.114647955, -1414784.6, -30650.576, 0.00447637, 10.000545, 9.99873 
2.6868272e+3, 1.6875169e+2, -1406448.6, -1361116.1, -154149.16, -0.08744202, -0.038009934, -1227975.8, 58245.117, 0.00066900725, 9.999454, 9.99994 
2.686401e+3, 1.7874323e+2, -1536607.5, -1523799.9, -175917.23, -0.0067566326, 0.019565701, -1354170.0, -165865.14, 0.000027210404, 9.998458, 9.998684 
2.6859757e+3, 1.8873225e+2, -1178068.5, -1341618.9, -43234.1, 0.06707084, -0.018666418, -1167343.1, -76927.31, 0.000000001728097, 10.000528, 9.9982 
2.6855507e+3, 1.9872083e+2, -785238.7, -1051239.8, 44371.75, 0.16732161, -0.097210824, -778032.25, 214499.55, 0.0, 10.002245, 9.998753 
2.685125e+3, 2.087131e+2, -687158.8, -586764.56, 12132.632, 0.20478474, -0.048979294, -585319.1, 309283.34, 0.0, 10.000741, 10.001926 
2.6846987e+3, 2.1870641e+2, -1118545.5, -930632.44, 6041.129, 0.203725, -0.00026570234, -930438.44, -133777.69, 0.0, 9.997839, 10.000353 
2.6842737e+3, 2.2869597e+2, -863689.1, -826012.1, 43587.82, 0.0066257906, -0.13541412, -797366.0, -98602.91, 0.0, 9.99926, 9.999663 
2.6838487e+3, 2.3868474e+2, -613060.56, -708692.3, -49187.906, -0.19951725, -0.34668833, -592277.56, 8596.518, 0.0, 10.000496, 9.999253 
2.6834247e+3, 2.4867639e+2, -423721.75, -380682.2, -145156.9, -0.048169687, -0.32542476, -255458.58, 247491.33, 0.0, 10.000391, 10.000815 
2.683001e+3, 2.5866914e+2, -573354.4, -548074.6, -92757.516, 0.17710395, -0.24651825, -467099.75, -62085.16, 0.0, 9.9992485, 9.999611 
2.6825756e+3, 2.6865923e+2, -572654.4, -478355.2, -4688.7856, 0.068790115, -0.3118119, -478122.63, -171013.64, 0.0, 9.998559, 9.999687 
2.68215e+3, 2.7864832e+2, -699087.6, -567468.94, -7284.0835, -0.10244037, -0.48781094, -567067.06, -357852.88, 0.0, 9.997297, 9.999072 
2.681725e+3, 2.886378e+2, -553428.5, -324380.94, -68018.68, -0.026273804, -0.61602384, -305704.72, -194390.19, 0.0, 9.9971485, 10.000102 
2.6812994e+3, 2.9862797e+2, -619148.7, -430266.53, -23579.957, 0.047887616, -0.7005629, -427367.34, -413959.22, 0.0, 9.996511, 9.99906 
2.6808754e+3, 3.0862197e+2, -340188.84, -204685.83, 3428.493, 0.193165, -0.33672252, -204599.14, -204599.14, 0.0, 9.99787, 9.999559 
2.680448e+3, 3.1860977e+2, -13431.767, 516037.75, -209368.02, 0.060468744, -0.6968907, 588822.56, 588822.56, 0.0, 9.997599, 10.004677 
2.698518e+3, 1.2921427e+2, -1383002.3, -1628375.5, 56468.914, -0.061398584, 0.36053553, -1370630.6, 303064.06, 0.04361018, 10.002723, 9.999189 
2.6980963e+3, 1.3919668e+2, -1265125.4, -1511716.4, -1797.9639, -0.029124783, -0.48338267, -1265112.3, 310747.84, 0.026484415, 10.002756, 9.999367 
2.6976708e+3, 1.4919017e+2, -1126327.9, -1190049.8, -32265.904, -0.11256811, -0.3016621, -1112843.4, 365077.53, 0.012009277, 10.002149, 10.001167 
2.697245e+3, 1.5918517e+2, -1313361.4, -1429550.6, -59751.402, -0.14649123, -0.0053994795, -1288118.0, 91850.66, 0.0034557092, 10.000952, 9.99946 
2.6968187e+3, 1.691738e+2, -1393892.4, -1504094.9, -137896.6, 0.022241775, -0.12552659, -1300495.8, -18412.537, 0.00049606664, 10.000153, 9.998622 
2.6963925e+3, 1.7916189e+2, -1341003.4, -1357942.8, -91760.64, 0.17290471, -0.31162214, -1257322.4, -73119.2, 0.00001910138, 9.999473, 9.999327 
2.695968e+3, 1.8915401e+2, -883501.3, -825756.9, 82424.52, 0.103651255, -0.29263335, -767294.06, 318983.63, 0.0000000002885943, 10.000917, 10.001556 
2.6955432e+3, 1.9914682e+2, -614062.5, -793956.44, 74217.23, 0.012948452, -0.23851202, -587396.2, 400948.7, 0.0, 10.002628, 10.000332 
2.6951155e+3, 2.091386e+2, -772042.6, -812379.94, -77564.73, 0.086367495, -0.17726064, -712067.25, 178358.52, 0.0, 10.0008955, 10.000327 
2.6946878e+3, 2.1913043e+2, -1133626.4, -1086566.0, 2816.5706, 0.16854894, -0.106577925, -1086398.0, -293890.9, 0.0, 9.998333, 9.9990425 
2.6942652e+3, 2.2912176e+2, -889508.3, -969965.75, 140765.97, 0.07880343, 0.06108814, -783335.5, -88734.06, 0.0, 9.99962, 9.998513 
2.6938426e+3, 2.3911263e+2, -500994.88, -699383.56, -12481.22, -0.043859106, 0.17008716, -500212.72, 96486.53, 0.0, 10.001425, 9.998865 
2.6934162e+3, 2.4910088e+2, -385444.1, -406263.9, -188273.89, -0.050381206, -0.112630606, -207292.55, 291510.53, 0.0, 10.000812, 10.000454 
2.692989e+3, 2.5908947e+2, -485752.5, -448055.38, -149525.53, -0.020871324, -0.41152632, -316195.1, 84705.95, 0.0, 9.999544, 10.000163 
2.6925644e+3, 2.6908323e+2, -485624.5, -277003.28, -54016.19, 0.011460074, -0.22990674, -263847.1, 39113.8, 0.0, 9.998431, 10.00115 
2.69214e+3, 2.7907726e+2, -579256.4, -336904.2, -20491.813, 0.05825144, -0.040688246, -335183.72, -130164.305, 0.0, 9.997323, 10.000647 
2.6917157e+3, 2.8906715e+2, -473774.34, -145195.77, -31627.469, 0.22729993, -0.26353747, -142179.14, -35066.992, 0.0, 9.997044, 10.001386 
2.69129e+3, 2.9905662e+2, -477060.6, -275742.28, 69933.49, 0.3340011, -0.52585995, -253833.27, -244624.42, 0.0, 9.997074, 9.99984 
2.6908627e+3, 3.0904794e+2, -221341.39, -193800.31, 131936.72, -0.026478076, -0.4176271, -74917.44, -74917.44, 0.0, 9.998831, 9.999204 
2.6904362e+3, 3.1903806e+2, 181619.83, 303391.88, -274348.8, -0.14660338, -0.44874674, 523529.66, 523529.66, 0.0, 10.000171, 10.002006 
2.7085134e+3, 1.2963785e+2, -1303511.3, -1681254.6, 208006.5, -0.004390717, -0.051382802, -1211421.6, 458116.6, 0.0355415, 10.003667, 9.998379 
2.7080905e+3, 1.3962547e+2, -1576967.9, -1737460.3, 162829.5, 0.15024486, -0.26383907, -1475684.6, 95973.09, 0.021268591, 10.000846, 9.998764 
2.7076644e+3, 1.4961706e+2, -1279872.6, -1296830.6, 108869.82, 0.017894328, -0.21679185, -1179152.1, 294585.88, 0.009415497, 10.001226, 10.0008745 
2.7072382e+3, 1.5960954e+2, -1159414.6, -1350499.5, 2428.513, -0.071100384, -0.13771093, -1159383.8, 216426.14, 0.0026134893, 10.00199, 9.999507 
2.706812e+3, 1.6959924e+2, -954521.3, -1220761.4, -4657.4556, 0.086995654, -0.19687138, -954439.8, 323472.47, 0.0003600524, 10.002863, 9.999247 
2.7063859e+3, 1.795885e+2, -828900.75, -1088867.4, 118383.53, 0.2380168, -0.29894635, -783070.75, 396948.47, 0.000012952271, 10.00292, 9.999505 
2.7059603e+3, 1.8958065e+2, -803494.94, -789522.8, 147862.31, 0.10529105, -0.2674443, -648481.6, 433612.9, 0.000000000007316074, 10.001479, 10.001533 
2.7055347e+3, 1.995734e+2, -1096424.8, -1072422.3, -36270.37, -0.049205314, -0.21793322, -1046219.2, -62056.13, 0.0, 9.9995365, 9.999918 
2.7051067e+3, 2.0956443e+2, -814792.44, -907727.0, -177518.52, 0.026650773, -0.18833831, -677760.3, 208492.38, 0.0, 10.000949, 9.99964 
2.7046788e+3, 2.1955544e+2, -715988.6, -990313.06, -9229.665, 0.13745965, -0.13431379, -715678.44, 72666.63, 0.0, 10.001696, 9.998082 
2.7042565e+3, 2.2954737e+2, -897039.56, -1024700.56, 192225.63, 0.12465549, 0.15168618, -758323.7, -67886.96, 0.0, 9.999842, 9.998006 
2.7038348e+3, 2.395392e+2, -1101111.4, -1023441.7, 89370.234, 0.07074587, 0.4027771, -964833.3, -372305.44, 0.0, 9.997486, 9.998543 
2.7034074e+3, 2.4952616e+2, -644598.06, -483947.66, -24889.033, -0.032455135, -0.027123876, -480180.03, 14459.935, 0.0, 9.99885, 10.000851 
2.702979e+3, 2.5951305e+2, -494930.2, -456031.2, 47718.227, -0.1115105, -0.5090181, -423950.97, -27201.002, 0.0, 9.99957, 10.000076 
2.7025542e+3, 2.6950803e+2, -312706.9, -163179.8, 19131.246, -0.018537115, -0.19988795, -160770.86, 138029.27, 0.0, 9.999548, 10.001367 
2.7021298e+3, 2.795044e+2, -384099.53, -199863.58, -62304.383, 0.13157243, 0.18591109, -180772.03, 20066.982, 0.0, 9.998548, 10.000984 
2.7017057e+3, 2.8949538e+2, -285945.88, 20568.92, -132432.06, 0.39232796, 0.005193892, 69860.48, 172780.81, 0.0, 9.998044, 10.002026 
2.7012804e+3, 2.994851e+2, -489113.0, -285104.66, -33372.484, 0.50055975, -0.30043277, -279784.2, -274770.25, 0.0, 9.997053, 9.999786 
2.7008504e+3, 3.0947343e+2, -390498.97, -310601.8, 72139.414, -0.2572424, -0.48599708, -268088.38, -268088.38, 0.0, 9.997881, 9.99884 
2.7004266e+3, 3.194683e+2, -235837.2, -225431.55, -380145.03, -0.20075215, 0.029629972, 149546.27, 149546.27, 0.0, 9.998789, 9.999036 
2.7185085e+3, 1.300629e+2, -1284914.4, -1765679.0, 84370.44, -0.016129503, -0.507754, -1270537.9, 394826.53, 0.028406449, 10.004194, 9.997525 
2.7180842e+3, 1.4005768e+2, -1420969.1, -1764613.6, 149220.55, 0.2776597, 0.08125702, -1365217.9, 202202.02, 0.016711894, 10.002393, 9.997816 
2.717658e+3, 1.500458e+2, -1267873.5, -1417301.4, 186067.38, 0.121671245, -0.10515521, -1142080.0, 327456.44, 0.0071980706, 10.001881, 9.999714 
2.717232e+3, 1.6003393e+2, -1151167.1, -1315999.8, 81642.6, -0.03365627, -0.3690635, -1117575.0, 254076.9, 0.0019202423, 10.001916, 9.999776 
2.7168062e+3, 1.7002681e+2, -861584.4, -991016.7, 53168.375, 0.08979, -0.22918421, -842544.6, 431174.56, 0.00025324232, 10.002715, 10.000897 
2.7163798e+3, 1.8001984e+2, -818020.0, -1096550.0, 111340.516, 0.18825628, -0.06889162, -778983.44, 396802.84, 0.000008369746, 10.003021, 9.999411 
2.7159527e+3, 1.9001015e+2, -938384.44, -1105201.1, 92822.73, 0.068953075, -0.04794423, -897000.9, 180885.08, 0.0, 10.001627, 9.999298 
2.7155253e+3, 2.0000044e+2, -1079005.9, -1161985.8, -23847.271, -0.06854771, -0.04587895, -1072640.8, -92655.21, 0.0, 10.000064, 9.999049 
2.7150983e+3, 2.099907e+2, -752703.8, -854361.56, -87615.06, 0.008536044, -0.078013875, -702241.2, 179840.42, 0.0, 10.001268, 9.999862 
2.7146715e+3, 2.1998116e+2, -565809.6, -847569.6, -1596.2059, 0.09301366, -0.09529681, -565800.56, 218375.55, 0.0, 10.00239, 9.9987335 
2.7142477e+3, 2.2997215e+2, -823729.4, -925703.25, 108878.77, 0.12063169, 0.045862116, -754490.44, -68217.76, 0.0, 10.000036, 9.998618 
2.713824e+3, 2.3996331e+2, -963326.7, -782223.94, 94804.36, 0.1129701, 0.16207862, -741674.5, -153309.55, 0.0, 9.997629, 10.000132 
2.713398e+3, 2.499534e+2, -515188.44, -212584.84, 99881.72, 0.059554074, -0.12760599, -182589.67, 307852.8, 0.0, 9.998811, 10.002747 
2.7129716e+3, 2.599431e+2, -404766.75, -425855.9, 149456.11, 0.0039515393, -0.45284396, -265483.72, 127040.04, 0.0, 10.000213, 9.999966 
2.712545e+3, 2.699327e+2, -423117.56, -547160.7, 49866.992, -0.031013403, -0.4508237, -405556.5, -110927.9, 0.0, 10.000178, 9.998444 
2.7121192e+3, 2.7992347e+2, -333761.03, -366197.3, -89255.46, 0.006252676, -0.34728375, -259262.22, -62536.797, 0.0, 9.999698, 9.999274 
2.711694e+3, 2.8991735e+2, -247240.7, -80060.375, -201802.5, 0.25374693, -0.11288962, 54779.23, 153567.56, 0.0, 9.998825, 10.000956 
2.7112678e+3, 2.999104e+2, -408936.5, -295251.56, -112641.71, 0.38767445, 0.014166659, -225922.64, -225063.92, 0.0, 9.997767, 9.999374 
2.7108416e+3, 3.0989695e+2, -445393.5, -329171.22, -4919.5923, 0.0044720015, -0.34519204, -328963.34, -328963.34, 0.0, 9.997435, 9.998948 
2.710417e+3, 3.1989178e+2, -152478.34, 20498.768, -324939.66, -0.052908488, 0.12067515, 270263.2, 270263.2, 0.0, 9.998425, 10.000911 
2.7285042e+3, 1.304967e+2, -984776.9, -1561656.0, 65824.07, -0.082251005, -0.04838517, -977361.44, 683760.0, 0.022181803, 10.005973, 9.998113 
2.728079e+3, 1.404846e+2, -864146.9, -1469552.3, 114350.89, 0.2016331, -0.18754864, -843268.0, 719968.56, 0.012782409, 10.006099, 9.998092 
2.727652e+3, 1.504749e+2, -1013971.7, -1303434.4, 185147.27, 0.10455667, -0.16521199, -923699.5, 541631.06, 0.005327248, 10.003629, 9.999689 
2.727225e+3, 1.6046512e+2, -1306963.5, -1421895.1, 169635.34, 0.02673124, -0.19369775, -1185324.6, 182100.2, 0.0013580795, 10.000989, 9.999514 
2.726799e+3, 1.7045566e+2, -1077366.5, -1121417.3, 111937.11, 0.07491639, -0.25767392, -985308.44, 284204.3, 0.00016970174, 10.0013895, 10.00064 
2.7263725e+3, 1.8044682e+2, -1053639.0, -1291739.5, 82071.2, 0.12696312, -0.24324216, -1028091.0, 143505.48, 0.0000049540654, 10.00181, 9.998649 
2.7259457e+3, 1.9043761e+2, -834500.94, -1172973.0, 89486.72, 0.06556186, -0.08443113, -812298.44, 261397.34, 0.0, 10.002878, 9.998219 
2.725519e+3, 2.0042805e+2, -739891.4, -1095950.5, 25444.066, 0.0067731184, 0.041245192, -738082.4, 237716.08, 0.0, 10.002857, 9.998143 
2.7250904e+3, 2.104174e+2, -803121.0, -914485.75, -50401.938, -0.025577797, -0.033519566, -783697.56, 94205.5, 0.0, 10.001144, 9.999469 
2.7246624e+3, 2.2040708e+2, -1048469.9, -1063380.5, 1783.4575, -0.021055534, -0.103464946, -1048259.56, -268255.78, 0.0, 9.999057, 9.998845 
2.7242383e+3, 2.3039806e+2, -795170.3, -790738.4, 106999.984, 0.074515566, -0.049754824, -685931.44, -3836.7217, 0.0, 9.999767, 9.999646 
2.723814e+3, 2.4038929e+2, -701416.9, -654472.8, 127877.95, 0.15030818, 0.0014577386, -547930.56, 36250.51, 0.0, 9.999498, 10.0000925 
2.7233887e+3, 2.503803e+2, -508818.88, -264188.78, -8347.344, 0.11045424, -0.16781941, -263904.28, 222349.5, 0.0, 9.999138, 10.002212 
2.7229625e+3, 2.6037094e+2, -762929.2, -726256.7, -119498.164, 0.055684324, -0.35755062, -623696.2, -235366.64, 0.0, 9.9983425, 9.998816 
2.7225357e+3, 2.7035773e+2, -792547.1, -859133.1, -80632.16, -0.018258836, -0.56010926, -738605.0, -448144.63, 0.0, 9.998238, 9.9972315 
2.722109e+3, 2.803452e+2, -767194.25, -759709.3, -64954.156, -0.049943388, -0.6578784, -698389.9, -505801.6, 0.0, 9.997541, 9.997625 
2.7216822e+3, 2.9034007e+2, -471629.7, -345086.78, -180428.33, 0.11850825, -0.1900398, -217157.66, -122508.164, 0.0, 9.997979, 9.99954 
2.7212548e+3, 3.0033466e+2, -479484.6, -424140.75, -88317.66, 0.19679566, 0.22347274, -359261.38, -359261.38, 0.0, 9.997725, 9.99851 
2.720833e+3, 3.1032035e+2, -317309.84, -238998.11, 35982.86, 0.27875063, -0.23147373, -224975.52, -224975.52, 0.0, 9.998213, 9.999162 
2.7204046e+3, 3.2031405e+2, -146325.83, 257379.47, -157524.3, -0.26410323, 0.047763765, 311570.56, 311570.56, 0.0, 9.997563, 10.0029 
2.7385e+3, 1.3093106e+2, -1054287.6, -1516055.9, 58663.03, -0.21716048, 0.49056035, -1046951.6, 609923.94, 0.016843367, 10.005144, 9.9988 
2.7380744e+3, 1.409099e+2, -991163.8, -1452604.0, 37944.74, -0.0042378553, -0.640713, -988064.4, 571005.8, 0.0094649205, 10.004875, 9.998784 
2.7376455e+3, 1.5090473e+2, -1010110.75, -1242919.5, 56770.867, 0.012721192, -0.22393303, -997004.8, 464112.88, 0.0037924107, 10.003426, 10.000183 
2.7372172e+3, 1.6089897e+2, -1233485.1, -1427321.4, 115314.44, 0.023214953, 0.12698288, -1179769.4, 183401.7, 0.0009170214, 10.001688, 9.999116 
2.7367905e+3, 1.7088462e+2, -1095723.1, -1256621.1, 131793.17, 0.0072769807, -0.32130408, -1021765.25, 243539.45, 0.0001065257, 10.001837, 9.999479 
2.7363646e+3, 1.8087132e+2, -1024972.25, -1335232.3, 118486.2, -0.007287619, -0.6496719, -984899.0, 182532.55, 0.0000025959862, 10.002245, 9.998135 
2.73594e+3, 1.9086386e+2, -831073.7, -1193517.4, 141035.1, 0.07717632, -0.28377172, -782660.5, 286855.75, 0.0, 10.002966, 9.998058 
2.735514e+3, 2.008561e+2, -710577.0, -1118199.6, 3997.3855, 0.09460873, 0.051710457, -710537.8, 261065.48, 0.0, 10.0031805, 9.997831 
2.7350813e+3, 2.108442e+2, -835203.7, -1030123.9, -109787.61, -0.13038969, -0.06949464, -785858.5, 87862.195, 0.0, 10.00132, 9.998604 
2.7346504e+3, 2.2083299e+2, -910793.0, -912830.75, 17385.844, -0.28662667, -0.17989346, -894396.25, -118566.99, 0.0, 9.9995985, 9.999617 
2.734228e+3, 2.3082541e+2, -638343.06, -544520.0, 160662.6, -0.042461928, -0.11303041, -424060.22, 253837.86, 0.0, 10.000078, 10.001198 
2.7338055e+3, 2.408174e+2, -692517.8, -843784.3, 130743.26, 0.16505422, -0.03638646, -617107.44, -37134.246, 0.0, 10.000359, 9.998372 
2.7333787e+3, 2.508053e+2, -782449.75, -922610.56, -64291.32, 0.08302128, -0.106561504, -757426.9, -275331.4, 0.0, 9.999493, 9.997533 
2.7329516e+3, 2.6079378e+2, -717240.25, -675901.4, -200260.8, 0.017510729, -0.18298274, -495246.2, -111036.93, 0.0, 9.998497, 9.999081 
2.7325258e+3, 2.7078483e+2, -593015.25, -371027.25, -113595.8, 0.11518781, -0.23387, -323201.63, -36912.38, 0.0, 9.997888, 10.000763 
2.7321e+3, 2.8077543e+2, -727501.3, -663184.1, -28689.973, 0.21622755, -0.27953014, -652246.44, -463869.84, 0.0, 9.997399, 9.998379 
2.731671e+3, 2.9076514e+2, -599222.8, -613961.4, -119914.22, 0.1457784, -0.1847934, -486451.66, -395965.84, 0.0, 9.997922, 9.997767 
2.7312425e+3, 3.007554e+2, -369587.34, -363479.22, -12359.568, 0.02246616, -0.06609694, -353801.97, -353801.97, 0.0, 9.998415, 9.998593 
2.7308223e+3, 3.107447e+2, -129207.49, -32282.643, 122698.05, 0.18535887, -0.23670031, 51176.945, 51176.945, 0.0, 9.998987, 10.00021 
2.7303937e+3, 3.2073846e+2, -252159.2, 134383.8, -369858.06, -0.13193794, 0.009698432, 358423.78, 358423.78, 0.0, 9.997088, 10.002294 
2.7485013e+3, 1.3135768e+2, -1295880.9, -1803494.6, -10102.451, 0.35447788, 0.32762983, -1295679.9, 357015.0, 0.012347257, 10.004168, 9.9972725 
2.7480683e+3, 1.4133976e+2, -1318050.1, -1656236.0, -99354.234, -0.039268672, -0.3681274, -1291021.5, 263845.66, 0.0067427186, 10.002814, 9.998351 
2.7476394e+3, 1.5133333e+2, -991560.2, -1220570.5, -92492.64, -0.00677593, -0.103694215, -958870.56, 498055.06, 0.0025849484, 10.003477, 10.000299 
2.7472118e+3, 1.6132656e+2, -966552.4, -1351430.1, -47220.254, 0.07314935, 0.13326375, -960843.6, 398143.72, 0.0005889778, 10.0037365, 9.998643 
2.746784e+3, 1.7131288e+2, -910803.75, -1261895.5, -19354.012, -0.015202722, -0.20519865, -909740.1, 351376.38, 0.00006228534, 10.00347, 9.998664 
2.7463573e+3, 1.812998e+2, -988303.1, -1319134.1, -7592.9395, -0.06745324, -0.46501878, -988128.94, 175112.45, 0.0000011486238, 10.002503, 9.998117 
2.7459332e+3, 1.9129203e+2, -1017099.06, -1183185.8, 59774.242, 0.09452891, -0.22389708, -997823.5, 67499.47, 0.0, 10.001283, 9.998903 
2.7455077e+3, 2.0128414e+2, -1129778.6, -1312725.6, -183.62938, 0.18351845, 0.029461075, -1129778.5, -162372.31, 0.0, 10.000318, 9.997868 
2.745075e+3, 2.1127225e+2, -634417.94, -961159.06, -60763.664, -0.048594244, -0.07733875, -623483.7, 246039.48, 0.0, 10.002838, 9.998344 
2.7446437e+3, 2.2126073e+2, -343253.1, -687451.0, 58221.586, -0.22369258, -0.18154389, -333671.53, 437963.03, 0.0, 10.003752, 9.999161 
2.74422e+3, 2.3125225e+2, -479391.7, -497837.5, 43008.027, -0.039744854, -0.1817038, -444628.78, 229081.33, 0.0, 10.001339, 10.000892 
2.743796e+3, 2.4124363e+2, -1011795.1, -1156569.6, -26563.191, 0.12910114, -0.11651597, -1007075.2, -431284.3, 0.0, 9.998891, 9.99693 
2.743369e+3, 2.512312e+2, -925152.6, -1184899.3, 32104.81, 0.0522896, -0.07407887, -921243.25, -443316.97, 0.0, 9.999374, 9.995775 
2.7429414e+3, 2.612195e+2, -595324.4, -625166.2, 64307.285, -0.00792123, -0.01809432, -544229.7, -164178.83, 0.0, 9.999415, 9.998976 
2.7425158e+3, 2.7121252e+2, -239927.84, -25720.436, -35758.035, 0.16518532, 0.017273132, -19908.947, 262199.38, 0.0, 9.999586, 10.002299 
2.74209e+3, 2.8120452e+2, -485360.78, -584737.1, -84301.13, 0.30277666, 0.014735194, -437194.0, -253017.03, 0.0, 9.999294, 9.997983 
2.7416605e+3, 2.9119056e+2, -419029.28, -638348.8, -92202.695, 0.13089441, -0.18249592, -385417.97, -299098.7, 0.0, 9.99972, 9.996694 
2.741231e+3, 3.011778e+2, -276907.16, -309537.13, 70220.766, -0.12150321, -0.29046914, -221130.98, -221130.98, 0.0, 9.999084, 9.998628 
2.74081e+3, 3.1117073e+2, -353077.22, -26672.93, 171809.28, -0.00039072617, -0.18689647, 47091.953, 47091.953, 0.0, 9.997, 10.001191 
2.740384e+3, 3.211627e+2, -491646.84, -127510.96, -542828.3, 0.12235705, -0.1579146, 262969.16, 262969.16, 0.0, 9.996084, 10.000993 
2.758502e+3, 1.317829e+2, -1430579.4, -2068482.3, -46057.12, 0.898968, 0.04215692, -1427271.1, 221255.16, 0.008675535, 10.004109, 9.995487 
2.7580616e+3, 1.4177112e+2, -1271316.5, -1679812.9, -15089.69, -0.122630484, 0.10448086, -1270759.9, 279891.56, 0.004590717, 10.003341, 9.997931 
2.757634e+3, 1.5176126e+2, -964431.25, -1202551.3, 10114.657, -0.021032138, 0.039818723, -964002.4, 488740.06, 0.0016781248, 10.003658, 10.000333 
2.7572072e+3, 1.6175166e+2, -980569.75, -1392825.9, 9399.514, 0.09777283, 0.016566373, -980355.56, 374475.88, 0.0003582228, 10.003787, 9.998332 
2.7567786e+3, 1.7174111e+2, -949834.25, -1341234.9, 16039.136, -0.035511874, 0.050863955, -949178.06, 307756.7, 0.000033741435, 10.003456, 9.998124 
2.756351e+3, 1.8173075e+2, -873048.75, -1134623.9, -8880.66, -0.12684758, 0.063996725, -872747.56, 286287.4, 0.00000040337267, 10.002717, 9.999275 
2.7559257e+3, 1.917214e+2, -868074.8, -923654.44, 39035.676, 0.07350532, -0.0075832345, -847947.44, 213173.28, 0.0, 10.001478, 10.000595 
2.7555e+3, 2.0171215e+2, -970926.25, -1134884.4, 55029.836, 0.23738572, -0.022780497, -954169.06, 9038.106, 0.0, 10.000933, 9.998805 
2.7550718e+3, 2.1170153e+2, -547758.44, -876869.44, 61002.637, 0.23587492, -0.04268748, -536815.1, 328495.5, 0.0, 10.0032, 9.998779 
2.754643e+3, 2.2169033e+2, -339064.38, -821478.2, 37762.633, 0.18169384, -0.09755068, -336126.28, 431293.6, 0.0, 10.00436, 9.997935 
2.7542135e+3, 2.3167789e+2, -628018.4, -862167.56, -60618.29, 0.077245995, -0.24756733, -613255.8, 56284.492, 0.0, 10.00157, 9.99829 
2.7537853e+3, 2.4166693e+2, -821063.1, -862800.0, -45094.29, 0.015983235, -0.28803045, -792242.7, -220595.33, 0.0, 9.999273, 9.998773 
2.7533594e+3, 2.5165933e+2, -609216.94, -611052.75, 107831.06, 0.046537414, -0.09029258, -502299.88, -28571.967, 0.0, 9.999687, 9.999583 
2.7529332e+3, 2.6165086e+2, -515097.22, -646011.2, 169600.6, 0.049925238, 0.062430453, -398760.4, -22943.97, 0.0, 10.000175, 9.998472 
2.7525055e+3, 2.7163976e+2, -341749.75, -455354.38, 18230.668, -0.0073636617, -0.005755704, -338895.88, -60972.547, 0.0, 10.000505, 9.998915 
2.7520782e+3, 2.8162882e+2, -297415.75, -514629.25, -81296.19, -0.010301396, -0.057549052, -270359.3, -90331.15, 0.0, 10.00067, 9.997791 
2.7516508e+3, 2.9161727e+2, -164059.73, -368633.84, -65367.957, 0.04041752, -0.097846076, -144956.45, -62814.46, 0.0, 10.000868, 9.99798 
2.7512226e+3, 3.0160683e+2, -56871.766, -72740.76, 32707.912, -0.050064478, -0.09132421, -31149.707, -31149.707, 0.0, 9.999986, 9.999838 
2.7507958e+3, 3.1160048e+2, -451150.7, -16167.168, 69416.78, -0.1510481, 0.027354486, -5357.9097, -5357.9097, 0.0, 9.995993, 10.001803 
2.7503714e+3, 3.2159138e+2, -437855.47, -93660.89, -188521.86, 0.18102293, -0.08050446, -10497.591, -10497.591, 0.0, 9.9963255, 10.001123 
2.7684936e+3, 1.3221127e+2, -1193260.1, -1725802.5, 24812.707, 0.52488476, -0.15695293, -1192106.5, 452218.25, 0.0058144014, 10.004741, 9.997564 
2.7680558e+3, 1.4220263e+2, -1058788.9, -1599551.8, 139642.53, -0.21136098, 0.124108806, -1024857.7, 521556.06, 0.002967849, 10.004896, 9.997749 
2.7676278e+3, 1.5219124e+2, -948211.1, -1323473.9, 128575.36, -0.09868679, 0.015469742, -908384.5, 540138.7, 0.0010278012, 10.004336, 9.999169 
2.7672014e+3, 1.6218017e+2, -1057432.8, -1490797.8, 101384.92, 0.06527061, -0.042321138, -1034886.9, 315742.9, 0.00020336722, 10.003529, 9.997801 
2.7667737e+3, 1.7216994e+2, -1023488.6, -1387833.0, 123413.76, 0.07596715, 0.04937515, -985620.6, 267111.84, 0.000016580547, 10.003001, 9.998037 
2.766346e+3, 1.8215984e+2, -942184.3, -1176614.8, 107721.4, 0.052025996, 0.11603011, -900203.75, 254626.94, 0.00000009587778, 10.002312, 9.9991865 
2.7659184e+3, 1.9214924e+2, -726858.44, -860529.8, 52537.48, 0.071505256, -0.07006882, -708681.25, 348243.16, 0.0, 10.002493, 10.000547 
2.7654913e+3, 2.0213883e+2, -847953.3, -1138641.8, 19488.674, 0.137092, -0.16943006, -846652.5, 112366.73, 0.0, 10.002078, 9.998229 
2.765065e+3, 2.121285e+2, -858008.44, -1063761.1, -19738.58, 0.2559317, -0.13792582, -856131.94, 4991.5, 0.0, 10.001259, 9.998415 
2.7646378e+3, 2.2211792e+2, -939289.94, -1134184.5, -87959.57, 0.29777086, -0.118059784, -905463.25, -142234.11, 0.0, 10.0003805, 9.997699 
2.764206e+3, 2.321056e+2, -758696.5, -941158.3, -16241.805, 0.099271595, -0.26396203, -757262.06, -91913.09, 0.0, 10.000765, 9.99812 
2.7637753e+3, 2.4209455e+2, -620529.5, -698237.6, 150434.48, -0.0445791, -0.2998142, -504012.47, 63444.805, 0.0, 10.000417, 9.99934 
2.7633503e+3, 2.5208813e+2, -387483.88, -335697.0, 120712.47, 0.031353287, -0.11647029, -238132.06, 231390.8, 0.0, 10.000525, 10.001056 
2.7629244e+3, 2.6208037e+2, -589619.9, -820128.56, 59490.26, 0.053138133, 0.045473747, -575172.06, -203570.44, 0.0, 10.000325, 9.997203 
2.762496e+3, 2.720671e+2, -491658.38, -779663.25, 35107.87, -0.12417866, -0.047570355, -487440.47, -213704.67, 0.0, 10.00063, 9.996615 
2.762068e+3, 2.8205445e+2, -367038.4, -572610.75, 20782.943, -0.20444496, -0.10150073, -364958.3, -189096.17, 0.0, 10.000331, 9.99756 
2.761642e+3, 2.920444e+2, -193783.8, -270893.78, 15895.572, -0.016173339, -0.08129837, -190635.6, -112678.83, 0.0, 10.000176, 9.99899 
2.7612138e+3, 3.0203587e+2, -176344.61, -107135.79, -23790.223, -0.0037617844, 0.04497223, -99746.87, -99746.87, 0.0, 9.999114, 10.000006 
2.7607822e+3, 3.1202978e+2, -284031.6, 60679.617, -104980.836, -0.23056772, 0.18711892, 90134.39, 90134.39, 0.0, 9.997204, 10.001715 
2.7603585e+3, 3.220194e+2, -371426.9, -50431.63, 119153.73, 0.1155223, -0.06267349, -11036.54, -11036.54, 0.0, 9.996884, 10.001089 
2.7784836e+3, 1.3264081e+2, -1191904.5, -1396712.4, -18356.49, -0.07381094, -0.2999146, -1190272.3, 449838.2, 0.0036833826, 10.003358, 10.000471 
2.778051e+3, 1.4263389e+2, -1191803.1, -1693985.5, 81415.05, -0.30985194, -0.033644795, -1178933.8, 363238.97, 0.0018028482, 10.004129, 9.997452 
2.7776217e+3, 1.5262185e+2, -1163922.5, -1608979.8, 95040.79, -0.23495352, -0.067527756, -1144476.4, 299815.47, 0.0005854822, 10.003636, 9.9975395 
2.777195e+3, 1.6261004e+2, -1123490.3, -1543185.6, 85175.125, -0.042779386, -0.09060338, -1106863.1, 239546.38, 0.00010501676, 10.003143, 9.997625 
2.7767694e+3, 1.7259902e+2, -1022573.56, -1348527.4, 121082.85, 0.22937837, -0.10306346, -982517.1, 266002.63, 0.0000068884756, 10.002827, 9.998392 
2.7763423e+3, 1.8258789e+2, -970790.2, -1271970.4, 116194.28, 0.30614826, -0.12992497, -931173.8, 219453.25, 0.00000000965895, 10.00247, 9.998448 
2.7759117e+3, 1.9257595e+2, -808953.6, -1053993.1, 86857.695, 0.028231384, -0.31566527, -781289.0, 271444.28, 0.0, 10.002581, 9.999186 
2.775482e+3, 2.0256433e+2, -872879.25, -1251066.5, 16884.713, -0.13976502, -0.40934965, -872126.94, 82715.52, 0.0, 10.00234, 9.997316 
2.775055e+3, 2.1255305e+2, -907785.9, -1200849.3, -29148.152, -0.018463288, -0.3618844, -904914.94, -47951.336, 0.0, 10.001418, 9.997391 
2.774627e+3, 2.2254343e+2, -702322.94, -744453.94, -71519.766, 0.056252893, -0.26734534, -648830.9, 110232.54, 0.0, 10.000779, 10.000198 
2.774197e+3, 2.3253672e+2, -482167.72, -436581.94, 36078.063, 0.013246779, -0.15750077, -416699.97, 244421.55, 0.0, 10.001019, 10.001497 
2.7737677e+3, 2.4252838e+2, -574223.25, -761287.06, 206670.13, -0.031099075, -0.09664628, -440905.53, 122294.11, 0.0, 10.001096, 9.9985695 
2.7733418e+3, 2.5251666e+2, -500687.84, -702170.1, 138410.58, -0.020145679, -0.17896198, -430238.28, 35082.434, 0.0, 10.0010805, 9.998286 
2.7729157e+3, 2.6250565e+2, -461359.72, -717318.75, 52345.85, -0.00067083834, -0.16966099, -451068.34, -83635.17, 0.0, 10.001002, 9.997585 
2.772489e+3, 2.724954e+2, -331578.66, -567098.3, 74221.305, -0.01626236, -0.06273602, -310140.16, -40605.793, 0.0, 10.001108, 9.997867 
2.7720615e+3, 2.8248435e+2, -214395.67, -394991.4, 87003.32, -0.0063979626, -0.05856388, -179301.03, -7660.0635, 0.0, 10.000882, 9.998512 
2.7716336e+3, 2.9247186e+2, -145177.78, -211980.19, 66193.9, 0.0428884, -0.31424648, -104435.39, -30680.63, 0.0, 10.000274, 9.999373 
2.7712044e+3, 3.0246145e+2, -235663.19, -315716.06, -7418.918, 0.026925266, -0.33337143, -234981.45, -234981.45, 0.0, 9.999431, 9.998414 
2.7707744e+3, 3.1245515e+2, -294500.78, -233554.55, -147949.16, 0.08332679, 0.032829158, -112972.83, -112972.83, 0.0, 9.998344, 9.999138 
2.7703467e+3, 3.224435e+2, -223881.98, -103025.71, 131453.25, 0.019149879, -0.12709057, -18776.563, -18776.563, 0.0, 9.998363, 10.000015 
2.7884763e+3, 1.3307218e+2, -1417183.3, -1470476.4, -26846.258, -0.10803201, -0.0014755557, -1406004.4, 229880.84, 0.0021685336, 10.001651, 10.00076 
2.7880493e+3, 1.4306161e+2, -1352798.9, -1750374.0, -90072.94, 0.14884953, -0.14611068, -1333344.3, 204635.3, 0.0010068332, 10.002886, 9.997676 
2.7876174e+3, 1.5304944e+2, -1404829.8, -1692177.4, -37780.836, -0.026822975, -0.24962516, -1399945.3, 40151.547, 0.00030057534, 10.001794, 9.997877 
2.787188e+3, 1.6303818e+2, -1422348.8, -1649864.0, 49074.887, -0.024214262, -0.25411934, -1412214.6, -70007.41, 0.000046417692, 10.000958, 9.997943 
2.7867615e+3, 1.7302847e+2, -1205330.6, -1402107.0, 74391.64, 0.15229875, -0.17361201, -1180372.4, 63932.957, 0.0000020738605, 10.001458, 9.998681 
2.7863342e+3, 1.8301778e+2, -1129078.3, -1405957.0, 89704.84, 0.21867712, -0.15737534, -1102555.8, 43853.79, 0.00000000000031198744, 10.001636, 9.9979315 
2.7859047e+3, 1.9300494e+2, -936166.0, -1185139.3, 94012.04, 0.031055206, -0.3852084, -904655.25, 143871.97, 0.0, 10.002014, 9.998544 
2.7854753e+3, 2.0299318e+2, -960147.25, -1267178.3, 72177.03, -0.10109306, -0.45897403, -944026.25, 6613.3325, 0.0, 10.001691, 9.9975 
2.7850464e+3, 2.1298292e+2, -910764.5, -1138012.9, 133297.8, -0.072013125, -0.35407844, -849235.2, 3514.552, 0.0, 10.001188, 9.99791 
2.7846175e+3, 2.229738e+2, -705715.44, -699025.9, 132921.27, -0.033847712, -0.22928517, -569407.3, 185436.52, 0.0, 10.000588, 10.000588 
2.784188e+3, 2.3296747e+2, -424119.3, -330606.97, 29108.848, -0.0275451, -0.14054164, -322286.25, 334611.25, 0.0, 10.001119, 10.002156 
2.7837598e+3, 2.4295932e+2, -662383.7, -932798.5, 92004.9, -0.023664514, -0.0666714, -634049.25, -75075.66, 0.0, 10.001082, 9.997398 
2.783334e+3, 2.5294572e+2, -582794.56, -897516.4, 140165.86, -0.015765404, -0.21137507, -529421.25, -68306.96, 0.0, 10.00124, 9.996852 
2.782908e+3, 2.6293352e+2, -510228.53, -691255.1, 126850.22, 0.020767193, -0.24000344, -444909.78, -81671.6, 0.0, 10.000506, 9.997985 
2.7824816e+3, 2.7292466e+2, -515307.8, -518807.28, 130237.27, 0.120340146, -0.107299566, -386808.53, -121486.56, 0.0, 9.999297, 9.999051 
2.7820545e+3, 2.8291443e+2, -577256.1, -539579.9, 115203.25, 0.16317047, -0.0976393, -441684.7, -274267.78, 0.0, 9.998322, 9.998742 
2.7816248e+3, 2.929003e+2, -346883.0, -299996.9, 68643.46, 0.076641455, -0.53195524, -250903.73, -181359.02, 0.0, 9.99891, 9.999402 
2.7811944e+3, 3.0288833e+2, -456042.75, -631400.2, -21817.844, 0.012731494, -0.62484187, -453368.94, -453368.94, 0.0, 9.998884, 9.996508 
2.7807662e+3, 3.1288114e+2, -415013.78, -536136.8, -89840.77, 0.33301726, -0.14316157, -367228.34, -367228.34, 0.0, 9.998636, 9.996917 
2.7803344e+3, 3.2286856e+2, -451547.9, -341151.84, 312006.5, -0.16937853, -0.18656948, -79498.35, -79498.35, 0.0, 9.997392, 9.998875 
2.7984706e+3, 1.3350303e+2, -1328146.6, -1495770.6, 104864.37, 0.007725193, 0.28161505, -1277716.4, 353949.63, 0.0011658049, 10.002561, 10.000148 
2.7980486e+3, 1.434885e+2, -1267048.3, -1635759.8, -82806.04, 0.67506987, -0.23155965, -1249305.3, 284493.56, 0.0005045759, 10.003176, 9.998316 
2.7976128e+3, 1.5347633e+2, -1200504.9, -1451364.0, -59338.01, 0.243583, -0.44524541, -1187177.3, 248733.72, 0.0001343589, 10.002612, 9.999126 
2.7971804e+3, 1.6346592e+2, -1230078.4, -1510667.9, 58589.176, -0.014052024, -0.45257404, -1218336.0, 119674.15, 0.00001642319, 10.002066, 9.99837 
2.7967516e+3, 1.7345817e+2, -1116320.6, -1344088.1, 103769.17, -0.10232085, -0.18407391, -1076134.5, 163955.42, 0.0000003300107, 10.001997, 9.998827 
2.796324e+3, 1.8344869e+2, -1045708.8, -1342788.3, 110131.766, -0.10695516, -0.064068034, -1009334.9, 132849.86, 0.0, 10.002065, 9.998171 
2.7958983e+3, 1.9343549e+2, -901254.75, -1166420.0, 124766.92, 0.06659775, -0.32307437, -851779.9, 192531.72, 0.0, 10.002219, 9.998593 
2.7954707e+3, 2.0342492e+2, -764459.9, -943935.1, 60399.055, 0.13848671, -0.3559626, -746026.9, 200386.56, 0.0, 10.00205, 9.999535 
2.79504e+3, 2.1341826e+2, -726339.75, -804874.75, 138797.34, 0.05795814, -0.10040594, -621362.2, 227117.36, 0.0, 10.001402, 10.000097 
2.79461e+3, 2.2340919e+2, -750968.6, -928138.1, 174657.8, -0.01274285, -0.017149227, -643715.2, 106853.56, 0.0, 10.001123, 9.998755 
2.7941802e+3, 2.3339641e+2, -574602.4, -742715.4, 60918.1, -0.060430087, -0.27619833, -554848.94, 97843.016, 0.0, 10.001505, 9.999136 
2.7937526e+3, 2.4338554e+2, -520379.0, -792325.8, 103190.125, -0.036817968, -0.31665403, -485656.88, 69141.664, 0.0, 10.001709, 9.998063 
2.7933276e+3, 2.5337657e+2, -415307.22, -671941.2, 170825.39, 0.1013813, -0.11488379, -329973.63, 126918.27, 0.0, 10.001702, 9.998209 
2.7929017e+3, 2.6336658e+2, -364199.22, -487098.53, 116510.13, 0.21769798, -0.04841307, -293926.9, 65063.72, 0.0, 10.000881, 9.999208 
2.7924734e+3, 2.7335513e+2, -494294.53, -423146.34, 109964.68, 0.29959917, -0.24743539, -343144.72, -82049.52, 0.0, 9.999027, 9.999847 
2.7920446e+3, 2.8334382e+2, -653494.2, -615698.06, 167007.08, 0.2872714, -0.36901525, -466523.2, -303323.0, 0.0, 9.99797, 9.998365 
2.7916142e+3, 2.9333198e+2, -430320.03, -433730.47, 119458.34, 0.067285, -0.48114604, -312554.75, -247241.73, 0.0, 9.998728, 9.998561 
2.7911833e+3, 3.0332074e+2, -347303.97, -531219.44, 23008.033, -0.088582054, -0.4641351, -344469.3, -344469.3, 0.0, 9.999369, 9.996969 
2.7907547e+3, 3.1331128e+2, -178953.28, -367708.06, 319.63312, 0.15385403, -0.24185275, -178952.75, -178952.75, 0.0, 9.999959, 9.997468 
2.790325e+3, 3.2329944e+2, -576215.0, -486184.7, 256307.58, 0.0434012, -0.19090071, -270969.28, -270969.28, 0.0, 9.99684, 9.998158 
2.8084657e+3, 1.3392957e+2, -1248636.0, -1773439.9, 184395.9, 0.011714591, -0.14916515, -1190325.3, 437146.94, 0.00056472304, 10.004429, 9.997373 
2.8080404e+3, 1.4391817e+2, -1132502.6, -1648332.5, -35697.156, 0.37497768, -0.1576044, -1130044.0, 399545.28, 0.00022531899, 10.004438, 9.997628 
2.8076062e+3, 1.5390636e+2, -773522.9, -1289471.8, -69260.85, 0.07142383, -0.299301, -764387.1, 667316.1, 0.000052747473, 10.0057125, 9.998764 
2.807175e+3, 1.6389604e+2, -700568.6, -1234631.4, -26098.367, -0.070737086, -0.28924286, -699296.25, 634507.25, 0.0000047753, 10.005651, 9.998505 
2.8067455e+3, 1.738879e+2, -785593.94, -1160499.9, 1675.7297, -0.10734584, -0.10609071, -785586.44, 450298.38, 0.00000002399446, 10.004161, 9.999018 
2.8063175e+3, 1.8387844e+2, -941113.9, -1283111.3, 41129.246, -0.10600563, -0.004703757, -936237.1, 201741.4, 0.0, 10.002821, 9.998189 
2.805891e+3, 1.938663e+2, -890003.06, -1147254.3, 44389.773, 0.031461064, -0.17765395, -882558.8, 157538.45, 0.0, 10.002296, 9.998664 
2.8054634e+3, 2.0385627e+2, -819799.6, -926111.56, -61492.777, 0.12635495, -0.18598086, -791672.6, 150520.63, 0.0, 10.001462, 9.999958 
2.805032e+3, 2.1384959e+2, -766072.8, -740286.1, -92785.92, 0.100577675, -0.030770404, -659502.0, 184751.47, 0.0, 10.00075, 10.000857 
2.804602e+3, 2.2384016e+2, -930005.44, -1121421.8, 3737.6648, 0.032340553, -0.012527653, -929932.44, -183589.84, 0.0, 10.000434, 9.997751 
2.8041726e+3, 2.338254e+2, -685074.75, -938050.1, 33590.316, -0.06253495, -0.37073576, -680690.56, -32203.504, 0.0, 10.001406, 9.997848 
2.803745e+3, 2.4381383e+2, -540702.1, -721379.8, 136471.92, -0.015681235, -0.42787132, -467377.63, 83223.8, 0.0, 10.00129, 9.998735 
2.8033212e+3, 2.5380728e+2, -533912.2, -585793.6, 169497.77, 0.22941458, -0.11183333, -388381.6, 64286.9, 0.0, 10.000346, 9.999421 
2.8028944e+3, 2.6379853e+2, -559768.25, -570421.94, 56389.063, 0.36335164, 0.008564519, -508455.0, -153701.97, 0.0, 9.99954, 9.999271 
2.802464e+3, 2.7378565e+2, -361134.4, -345038.2, -8967.976, 0.3532266, -0.36263207, -341036.53, -84165.516, 0.0, 9.999914, 9.999946 
2.8020343e+3, 2.8377405e+2, -473063.66, -602089.1, 83586.41, 0.28168613, -0.4953491, -431989.56, -273009.5, 0.0, 9.99956, 9.9977 
2.8016043e+3, 2.9376414e+2, -399049.72, -471834.0, 100562.09, 0.063910276, -0.37770978, -328497.38, -267418.03, 0.0, 9.999221, 9.99806 
2.801173e+3, 3.037537e+2, -354031.0, -498234.63, 29309.643, -0.16091292, -0.26657265, -348301.44, -348301.44, 0.0, 9.999232, 9.997238 
2.8007433e+3, 3.1374234e+2, -80020.13, -250265.56, 6255.459, -0.077160165, -0.29766488, -79790.59, -79790.59, 0.0, 10.000397, 9.998031 
2.800315e+3, 3.2373184e+2, -537670.25, -502479.78, 9343.434, 0.21336934, -0.14028749, -500152.88, -500152.88, 0.0, 9.997409, 9.99771 
2.8184596e+3, 1.3435625e+2, -1504009.4, -2216851.8, 79212.39, -0.15415901, -0.6059156, -1495313.3, 127962.81, 0.00024801813, 10.004076, 9.994496 
2.8180295e+3, 1.443489e+2, -1293109.5, -1803312.0, 7100.983, -0.23445153, -0.024158526, -1293010.8, 232358.81, 0.00009111463, 10.003683, 9.996926 
2.8175995e+3, 1.5433791e+2, -1011709.1, -1490405.8, 26271.97, -0.27262938, -0.006806575, -1010271.56, 417212.97, 0.000018145423, 10.0044565, 9.997989 
2.8171703e+3, 1.6432743e+2, -818693.25, -1245235.6, -30225.979, -0.18384774, 0.017581765, -816562.0, 513028.28, 0.000001252134, 10.004623, 9.998938 
2.816742e+3, 1.743177e+2, -821140.56, -1133071.4, -4140.85, -0.007334069, 0.017072031, -821085.6, 410598.28, 0.0000000065346386, 10.003722, 9.999423 
2.8163126e+3, 1.8430787e+2, -916165.8, -1237542.9, 41486.06, 0.0050107283, 0.05852911, -910896.8, 222882.83, 0.0, 10.00287, 9.998458 
2.8158832e+3, 1.9429736e+2, -870871.2, -1127640.8, 61151.11, -0.12929964, 0.045005407, -857051.5, 178831.95, 0.0, 10.00238, 9.998757 
2.8154534e+3, 2.0428698e+2, -779132.5, -919484.5, -73640.13, -0.11343052, 0.002345724, -747585.6, 190396.52, 0.0, 10.001781, 9.999847 
2.8150237e+3, 2.1427673e+2, -763905.7, -793478.44, -95773.75, 0.04754555, -0.14196464, -681783.6, 158290.7, 0.0, 10.000969, 10.000396 
2.8145942e+3, 2.2426645e+2, -773401.94, -910405.44, 49110.527, 0.077246875, -0.22989617, -757616.44, -15447.768, 0.0, 10.000908, 9.998974 
2.8141657e+3, 2.3425514e+2, -517083.4, -719147.9, 100218.76, -0.04478158, -0.35453087, -475808.53, 168466.94, 0.0, 10.001928, 9.999114 
2.8137383e+3, 2.44245e+2, -380934.25, -527767.94, 128838.37, 0.025425702, -0.38413993, -306063.0, 240309.52, 0.0, 10.001861, 9.999789 
2.8133136e+3, 2.5423664e+2, -465762.1, -469111.06, 146933.75, 0.3381209, -0.31008458, -320493.28, 127960.24, 0.0, 10.000431, 10.000193 
2.8128856e+3, 2.642274e+2, -565514.06, -681884.06, 85844.05, 0.39369828, -0.23658806, -519994.25, -169449.53, 0.0, 9.999913, 9.998347 
2.8124532e+3, 2.7421618e+2, -328431.06, -489717.7, 9672.352, 0.11856152, -0.289581, -327853.1, -75197.53, 0.0, 10.000756, 9.998588 
2.8120235e+3, 2.842057e+2, -206456.23, -361700.56, 56078.125, 0.063721396, -0.280752, -188318.5, -33560.137, 0.0, 10.000838, 9.998761 
2.8115967e+3, 2.941961e+2, -191759.13, -256105.97, 84354.12, 0.23040031, -0.23325475, -133651.08, -76798.32, 0.0, 10.000084, 9.99916 
2.8111666e+3, 3.0418628e+2, -197481.3, -380437.97, 96815.98, 0.122327045, -0.1324004, -155761.95, -155761.95, 0.0, 10.000105, 9.99762 
2.810735e+3, 3.1417593e+2, 86786.63, -161916.44, 71490.414, -0.07831754, -0.064767234, 105872.13, 105872.13, 0.0, 10.0014515, 9.998146 
2.8103024e+3, 3.2416496e+2, -98439.125, -45954.094, -234465.88, 0.008981538, -0.06523236, 163733.3, 163733.3, 0.0, 9.999262, 9.999987 
2.8284547e+3, 1.3478693e+2, -1261019.8, -1714904.5, -123540.41, -0.1375859, -0.30429772, -1229572.8, 389496.8, 0.000104967556, 10.004154, 9.997861 
2.8280213e+3, 1.4477906e+2, -1435267.1, -1749001.3, -6133.6855, -0.3873983, 0.008089932, -1435147.3, 86009.484, 0.000034652854, 10.002207, 9.997987 
2.8275934e+3, 1.5476906e+2, -1461352.0, -1626114.8, 67438.31, -0.17368662, 0.047671843, -1437269.3, -14010.011, 0.000005523166, 10.001056, 9.998677 
2.8271648e+3, 1.647589e+2, -1392114.8, -1529680.9, 72669.84, -0.0607329, 0.084811196, -1360837.8, -35476.438, 0.0000002527922, 10.00075, 9.998851 
2.826734e+3, 1.7474829e+2, -1158399.0, -1308546.9, 66030.65, -0.119369246, 0.01242136, -1133492.3, 93973.05, 0.0, 10.001499, 9.999297 
2.8263047e+3, 1.8473835e+2, -1030869.56, -1223971.5, 135017.28, -0.115778804, 0.031041477, -961433.3, 168127.9, 0.0, 10.001792, 9.999075 
2.8258768e+3, 1.9472873e+2, -898186.44, -1068263.1, 184329.47, -0.061672244, 0.03864483, -780225.06, 251428.16, 0.0, 10.001881, 9.999407 
2.8254467e+3, 2.0471823e+2, -844343.1, -1043666.9, 57515.535, -0.031292275, 0.008135047, -828937.5, 104815.89, 0.0, 10.001794, 9.998967 
2.8250152e+3, 2.1470638e+2, -708907.2, -870578.44, 4880.381, -0.00028344814, -0.20146787, -708760.0, 127105.055, 0.0, 10.001832, 9.999442 
2.824586e+3, 2.2469589e+2, -698753.9, -809492.1, 145640.66, 0.048337214, -0.27045214, -598312.4, 139649.67, 0.0, 10.001191, 9.99951 
2.824159e+3, 2.3468646e+2, -713922.5, -717696.44, 151443.13, 0.08445345, -0.29389197, -564354.56, 75693.37, 0.0, 10.000228, 9.999912 
2.8237316e+3, 2.446767e+2, -689484.75, -706451.6, 93714.16, 0.13922921, -0.30765826, -603870.8, -61730.543, 0.0, 9.999926, 9.999486 
2.8233045e+3, 2.5466642e+2, -492759.4, -503408.8, 29227.127, 0.2968348, -0.42313725, -468375.9, -24135.223, 0.0, 10.000376, 9.999975 
2.8228754e+3, 2.6465696e+2, -553141.5, -714783.56, 27994.207, 0.26941335, -0.34587666, -548430.56, -202095.81, 0.0, 10.000223, 9.997952 
2.8224432e+3, 2.7464762e+2, -449653.66, -575128.8, 83553.48, -0.028782792, -0.20916207, -407905.88, -159475.31, 0.0, 10.000091, 9.998299 
2.8220138e+3, 2.84638e+2, -383579.72, -395740.44, 116024.57, -0.039719697, -0.10401319, -273476.28, -122948.72, 0.0, 9.999474, 9.999157 
2.8215885e+3, 2.9462788e+2, -334322.72, -248917.6, 80030.32, 0.35325965, -0.1825735, -200909.84, -148282.8, 0.0, 9.998818, 9.999803 
2.821159e+3, 3.0461857e+2, -463485.4, -452087.34, 140955.03, 0.29143167, -0.077456236, -316716.2, -316716.2, 0.0, 9.998077, 9.9981 
2.8207266e+3, 3.1461e+2, -411357.88, -329105.47, 189888.95, -0.10118321, 0.09634004, -175940.19, -175940.19, 0.0, 9.997761, 9.998763 
2.8202894e+3, 3.2459795e+2, -84683.6, 237291.77, -339610.16, -0.25933132, -0.15037355, 452139.28, 452139.28, 0.0, 9.998282, 10.002364 
2.83845e+3, 1.3521841e+2, -1037427.5, -1118846.1, -133681.89, -0.14177398, 0.09756742, -938393.9, 676464.94, 0.00004788907, 10.003554, 10.002261 
2.8380147e+3, 1.4520915e+2, -1310371.1, -1516206.0, -22223.418, -0.398918, -0.011713861, -1307999.0, 208944.95, 0.000014416294, 10.002333, 9.999513 
2.837588e+3, 1.552002e+2, -1324054.8, -1419737.5, 56973.383, 0.05998171, 0.0022698971, -1297500.1, 121528.92, 0.000001952137, 10.00141, 9.999913 
2.8371578e+3, 1.6519031e+2, -1353355.0, -1537348.8, 105778.24, 0.06567838, 0.02112302, -1305164.6, 15961.951, 0.00000005936716, 10.001125, 9.9986105 
2.8367236e+3, 1.7517918e+2, -1175970.1, -1363560.1, 116802.82, -0.4183273, -0.061219573, -1119963.9, 103274.984, 0.0, 10.0015545, 9.998903 
2.836295e+3, 1.8516931e+2, -910389.6, -1015130.44, 143816.97, -0.36663553, -0.085238725, -809704.56, 315627.5, 0.0, 10.001921, 10.000467 
2.8358722e+3, 1.9516021e+2, -795977.8, -888369.25, 196198.55, 0.17937315, -0.14016277, -640609.9, 386802.13, 0.0, 10.001991, 10.000602 
2.8354427e+3, 2.0515017e+2, -873698.75, -1172198.1, 60074.08, 0.25467893, -0.1297253, -862062.25, 67446.24, 0.0, 10.002075, 9.997952 
2.835007e+3, 2.1513884e+2, -741759.0, -1024540.75, 32848.355, -0.11596108, -0.15529302, -737993.44, 93630.414, 0.0, 10.002181, 9.998229 
2.8345773e+3, 2.2512865e+2, -610909.94, -724242.75, 128763.15, -0.056993738, -0.14919032, -526895.75, 206825.44, 0.0, 10.001581, 9.999915 
2.8341532e+3, 2.3511933e+2, -679260.6, -685860.7, 134597.2, 0.36704323, -0.16909109, -547923.0, 87881.39, 0.0, 10.000363, 10.000083 
2.8337246e+3, 2.4510884e+2, -750558.44, -895504.4, 134001.97, 0.3386844, -0.19133429, -670686.8, -132779.05, 0.0, 10.000155, 9.998085 
2.8332928e+3, 2.5509703e+2, -523336.84, -705375.8, 63244.582, -0.056022637, -0.28235283, -503521.22, -63489.664, 0.0, 10.000916, 9.998348 
2.8328636e+3, 2.650878e+2, -247628.25, -246054.3, 27237.299, -0.07816985, -0.2474798, -219592.61, 122528.79, 0.0, 10.000907, 10.000841 
2.832436e+3, 2.7508047e+2, -235729.11, -185677.5, 106190.2, 0.16838862, -0.15863279, -101604.04, 142581.02, 0.0, 10.000306, 10.000878 
2.832007e+3, 2.8507063e+2, -424159.1, -490955.7, 145719.53, 0.27090436, -0.16806595, -308059.47, -161777.83, 0.0, 9.999494, 9.998502 
2.831577e+3, 2.950582e+2, -428180.25, -416697.75, 81171.96, 0.27527305, -0.35428932, -341064.25, -292654.44, 0.0, 9.998668, 9.998734 
2.8311452e+3, 3.0504912e+2, -357852.9, -82228.85, 136449.5, 0.11146664, -0.31254262, -26106.293, -26106.293, 0.0, 9.997381, 10.000985 
2.830714e+3, 3.1504318e+2, -526558.4, -109958.87, 212082.8, -0.044229195, -0.12994994, -20991.229, -20991.229, 0.0, 9.995724, 10.001268 
2.8302804e+3, 3.2503048e+2, -108775.055, 579.73553, -62057.56, -0.033531543, -0.46089426, 28611.217, 28611.217, 0.0, 9.999017, 10.00041 
2.848445e+3, 1.356497e+2, -1320020.5, -1657671.8, -6423.999, -0.042392068, -0.024697136, -1319898.3, 290726.5, 0.000025215255, 10.00328, 9.99873 
2.8480095e+3, 1.4563999e+2, -1144133.5, -1355134.1, -7437.7227, -0.2582563, -0.0417847, -1143871.6, 368850.75, 0.000007550391, 10.003122, 10.000237 
2.84758e+3, 1.556307e+2, -1033355.5, -1213262.1, 38106.28, -0.025287265, -0.13054548, -1025617.06, 389188.56, 0.0000012508747, 10.003114, 10.000505 
2.8471497e+3, 1.6562086e+2, -1166401.5, -1456682.4, 89475.484, -0.008683469, -0.12782602, -1141037.9, 175862.73, 0.000000073245815, 10.002481, 9.99849 
2.846717e+3, 1.7561011e+2, -1199214.9, -1388370.3, 105982.94, -0.29081795, -0.16526264, -1151745.6, 67264.15, 0.0, 10.001467, 9.998761 
2.846289e+3, 1.8559986e+2, -1078847.6, -1165298.9, 112330.4, -0.2225991, -0.18896128, -1001713.1, 119394.3, 0.0, 10.001103, 9.999819 
2.845865e+3, 1.9558987e+2, -930751.56, -1028586.7, 36425.293, 0.21164736, -0.29448923, -918679.5, 104517.555, 0.0, 10.001394, 9.999933 
2.845435e+3, 2.0558031e+2, -899828.1, -1109209.8, -67835.414, 0.25119305, -0.25355077, -879771.94, 45516.85, 0.0, 10.001599, 9.998596 
2.8449997e+3, 2.1557051e+2, -778105.6, -994170.44, 22187.074, -0.10816495, -0.20577958, -775850.8, 51538.03, 0.0, 10.001752, 9.998631 
2.84457e+3, 2.2556072e+2, -609645.1, -779455.0, 129396.75, -0.0448719, -0.14647292, -539784.5, 189698.89, 0.0, 10.001856, 9.999398 
2.8441456e+3, 2.3555097e+2, -489421.0, -660466.5, 85595.41, 0.40819338, -0.18214145, -453944.94, 177628.06, 0.0, 10.001966, 9.999485 
2.843716e+3, 2.4554025e+2, -633582.25, -927302.6, 135585.19, 0.32459167, -0.1535236, -580564.3, -46882.207, 0.0, 10.001378, 9.997268 
2.8432828e+3, 2.5552824e+2, -652292.5, -842421.06, 129672.71, -0.21457292, -0.19798392, -586570.5, -150757.8, 0.0, 10.000403, 9.997633 
2.8428534e+3, 2.6551932e+2, -364635.7, -141657.6, 39267.535, -0.20603026, -0.15984234, -134944.5, 202953.45, 0.0, 9.999474, 10.002227 
2.842428e+3, 2.755127e+2, -388218.6, -111654.24, 3026.1895, 0.2948977, -0.17370333, -111621.13, 128327.21, 0.0, 9.998678, 10.002147 
2.8419986e+3, 2.8550294e+2, -588721.94, -621282.9, 53776.055, 0.42378196, -0.21497492, -548815.94, -406773.2, 0.0, 9.998621, 9.998005 
2.8415662e+3, 2.9548988e+2, -392433.25, -446148.56, 69824.055, 0.21482609, -0.43956757, -344479.6, -300299.06, 0.0, 9.999137, 9.998297 
2.8411326e+3, 3.0548102e+2, -52370.004, 249039.45, 37230.066, -0.03280327, -0.4370954, 253570.0, 253570.0, 0.0, 9.998753, 10.002578 
2.840701e+3, 3.1547585e+2, -157902.27, 222595.0, -14818.822, -0.03451502, -0.3704503, 223171.27, 223171.27, 0.0, 9.997648, 10.002604 
2.8402722e+3, 3.2546285e+2, -264479.6, -298644.25, 72473.49, 0.13458331, -0.7363844, -207102.45, -207102.45, 0.0, 9.999008, 9.998305 
2.8584397e+3, 1.3608137e+2, -1731662.4, -2361820.5, -30624.244, 0.02529141, -0.22530644, -1730177.6, -123794.516, 0.000013079658, 10.002612, 9.994239 
2.8580046e+3, 1.4607129e+2, -1249956.1, -1351388.9, 40328.234, -0.15310888, -0.092973925, -1235876.5, 272618.72, 0.0000037431412, 10.002156, 10.000728 
2.8575715e+3, 1.5606116e+2, -1142474.4, -1242567.4, 75606.36, -0.2931096, -0.29880655, -1101851.3, 308731.44, 0.00000051506584, 10.002257, 10.000722 
2.8571418e+3, 1.6605143e+2, -1161036.3, -1432668.3, 67774.6, -0.15171617, -0.29878944, -1145065.0, 167609.97, 0.00000002542409, 10.002416, 9.998691 
2.8567132e+3, 1.7604159e+2, -1115699.4, -1354339.5, 106064.3, 0.061499916, -0.24910127, -1075373.3, 139400.92, 0.0, 10.002071, 9.998701 
2.856284e+3, 1.8603042e+2, -1110418.9, -1361468.3, 148050.17, 0.06660845, -0.27058497, -1041842.3, 75041.57, 0.0, 10.001667, 9.998192 
2.8558555e+3, 1.9601826e+2, -1008884.3, -1217460.4, 90903.1, -0.0045993417, -0.40822324, -974827.25, 44173.754, 0.0, 10.001497, 9.998589 
2.8554255e+3, 2.0600912e+2, -704883.5, -759163.4, -32614.252, 0.013920531, -0.38723582, -689593.9, 231493.28, 0.0, 10.001788, 10.00092 
2.8549942e+3, 2.1600148e+2, -593389.56, -684661.9, 62558.664, 0.033655085, -0.33601826, -561590.3, 261568.03, 0.0, 10.002024, 10.000635 
2.854564e+3, 2.2599192e+2, -610557.1, -884918.5, 159878.8, 0.017267877, -0.2960393, -537072.75, 188178.08, 0.0, 10.002281, 9.998469 
2.854135e+3, 2.3598093e+2, -456473.8, -748763.25, 118698.875, 0.019046286, -0.33510458, -414342.94, 213015.42, 0.0, 10.002596, 9.998584 
2.8537062e+3, 2.4597065e+2, -483055.3, -763925.4, 110079.75, 0.079277396, -0.26417583, -445053.94, 84410.62, 0.0, 10.001976, 9.998116 
2.8532776e+3, 2.5596055e+2, -542226.44, -695665.8, 124689.24, 0.10963577, -0.17574626, -472544.88, -40971.47, 0.0, 10.000701, 9.998515 
2.8528467e+3, 2.6595134e+2, -428967.06, -291448.94, 34001.543, 0.088806115, -0.16222455, -283501.34, 50163.496, 0.0, 9.999505, 10.001203 
2.852415e+3, 2.7594265e+2, -461817.0, -250641.98, -28093.605, 0.07655456, -0.24213779, -246968.45, -11225.065, 0.0, 9.998578, 10.001261 
2.8519866e+3, 2.8593466e+2, -413073.38, -327014.5, 89994.23, 0.23828694, -0.1695728, -270291.78, -132470.72, 0.0, 9.998862, 9.999933 
2.8515592e+3, 2.9592648e+2, -149015.23, -155648.1, 128187.375, 0.458532, -0.065010525, -24101.398, 15803.51, 0.0, 10.0000305, 9.999877 
2.8511256e+3, 3.0591673e+2, -23329.525, -70759.38, 20073.748, 0.18138905, -0.07172457, -15974.321, -15974.321, 0.0, 10.00035, 9.999631 
2.85069e+3, 3.1590632e+2, 26188.332, 12074.917, -133705.03, -0.17974447, -0.21996263, 153022.75, 153022.75, 0.0, 10.000178, 9.999958 
2.8502637e+3, 3.2589588e+2, -13333.304, 32387.742, -83162.766, 0.24162208, -0.32198152, 95774.82, 95774.82, 0.0, 9.999694, 10.000316 
2.868433e+3, 1.3651603e+2, -1677056.8, -2052323.1, -63525.555, 0.063355, -0.16995966, -1666594.8, -64473.027, 0.0000059629547, 10.001773, 9.996764 
2.8679976e+3, 1.4650528e+2, -1536327.3, -1622691.1, 123013.87, -0.034878273, -0.14682792, -1449136.4, 55100.156, 0.0000015122073, 10.0007715, 9.999541 
2.8675643e+3, 1.5649413e+2, -1502462.1, -1547857.6, 107636.81, -0.19384584, -0.33225587, -1415155.9, -8816.482, 0.0000000966577, 10.000337, 9.999567 
2.8671357e+3, 1.664845e+2, -1214345.9, -1458600.9, 148564.13, -0.057414867, -0.26424733, -1144154.9, 164278.02, 0.00000000026919006, 10.002055, 9.998703 
2.866709e+3, 1.7647547e+2, -715008.25, -1167546.8, 145026.19, 0.18777393, -0.13722257, -672520.4, 538003.7, 0.0, 10.004827, 9.998683 
2.866278e+3, 1.8646446e+2, -785566.44, -1156140.4, 151926.89, 0.09229986, -0.15916789, -731243.2, 381387.28, 0.0, 10.003732, 9.998587 
2.8658456e+3, 1.9645207e+2, -1165822.6, -1270976.1, 221300.72, -0.15830019, -0.3484012, -990938.8, 23809.996, 0.0, 10.000389, 9.998727 
2.8654164e+3, 2.064421e+2, -968985.44, -961374.6, 151871.52, -0.0889415, -0.34945354, -813260.8, 103582.74, 0.0, 10.000354, 10.000201 
2.864988e+3, 2.1643354e+2, -631555.5, -774024.25, 35893.67, 0.15359887, -0.3369769, -623023.44, 195900.95, 0.0, 10.002111, 9.999966 
2.8645575e+3, 2.2642335e+2, -655542.6, -985000.94, 50073.168, 0.063601784, -0.2994685, -648100.3, 72925.47, 0.0, 10.002347, 9.997731 
2.8641257e+3, 2.3641181e+2, -649933.2, -908609.1, 26966.24, -0.20468697, -0.34627596, -647151.94, -24008.47, 0.0, 10.001614, 9.997936 
2.8636974e+3, 2.4640231e+2, -595747.25, -691283.7, 32973.12, -0.06569351, -0.23401786, -585472.1, -60231.82, 0.0, 10.000727, 9.999182 
2.8632706e+3, 2.5639364e+2, -667399.6, -684383.0, 66519.63, 0.31245285, -0.12723331, -608831.9, -181502.38, 0.0, 9.999577, 9.99912 
2.8628388e+3, 2.6638392e+2, -540183.44, -482007.66, 13419.243, 0.27686837, -0.115365535, -479061.47, -149634.53, 0.0, 9.999399, 9.999912 
2.862404e+3, 2.7637342e+2, -395430.78, -339648.4, -24895.254, -0.015041117, -0.27259198, -330153.88, -98623.71, 0.0, 9.999601, 10.00014 
2.8619757e+3, 2.863667e+2, -203385.28, -81586.27, 94527.5, 0.13436764, -0.08607597, -30039.357, 103555.39, 0.0, 9.999729, 10.001191 
2.8615513e+3, 2.963619e+2, -135542.64, -71311.03, 66555.53, 0.56966734, 0.20935157, -29527.828, 6112.259, 0.0, 9.999823, 10.000555 
2.8611177e+3, 3.0635074e+2, -300314.8, -482797.03, -29752.09, 0.28808233, 0.16725591, -295586.53, -295586.53, 0.0, 9.999706, 9.997087 
2.86068e+3, 3.1633618e+2, -299896.38, -400318.28, -49156.992, -0.2755699, -0.14890711, -279839.63, -279839.63, 0.0, 9.999091, 9.997636 
2.8602552e+3, 3.263286e+2, 24217.99, 317826.88, -6296.912, 0.34147832, 0.020089928, 317961.88, 317961.88, 0.0, 9.998864, 10.002667 
2.878425e+3, 1.3695128e+2, -1564154.0, -1571971.1, -178985.53, 0.06205302, -0.08195586, -1389034.4, 208820.77, 0.0000021473002, 10.000699, 10.000583 
2.87799e+3, 1.4694002e+2, -1550585.9, -1790549.9, 57381.074, 0.04934579, -0.18493693, -1537570.6, -37601.094, 0.00000043033984, 10.001359, 9.998107 
2.8775576e+3, 1.5692812e+2, -1474793.8, -1683613.1, 110031.69, -0.007232424, -0.29414582, -1427518.4, -25430.133, 0.000000019645139, 10.00116, 9.998242 
2.8771305e+3, 1.6691881e+2, -1181403.8, -1441274.9, 245764.11, 0.07415002, -0.14122847, -1033340.7, 270841.84, 0.0, 10.002266, 9.998719 
2.876704e+3, 1.7691064e+2, -792155.0, -1172095.6, 226411.03, 0.11729458, 0.08689655, -686573.8, 519691.9, 0.0, 10.004145, 9.998977 
2.8762716e+3, 1.8690076e+2, -714196.6, -922477.0, 21159.41, -0.049069725, 0.056909297, -712068.75, 396288.25, 0.0, 10.003324, 10.000402 
2.875836e+3, 1.9688968e+2, -1072656.9, -1124688.1, 135671.94, -0.28461242, -0.15857734, -960528.75, 49927.676, 0.0, 10.000561, 9.999662 
2.8754073e+3, 2.068781e+2, -1108355.8, -1345673.4, 224209.0, -0.12542519, -0.19403607, -973342.4, -60771.594, 0.0, 10.000769, 9.997352 
2.874982e+3, 2.1686627e+2, -745306.6, -1112523.5, 114148.164, 0.1871378, -0.19980411, -712716.44, 101975.586, 0.0, 10.00253, 9.997442 
2.8745514e+3, 2.2685514e+2, -613633.5, -974944.2, 35933.586, 0.096611254, -0.14205588, -610094.44, 106714.59, 0.0, 10.002656, 9.997653 
2.8741187e+3, 2.368442e+2, -576185.1, -836257.06, 13077.454, -0.19641191, -0.10865049, -575529.2, 43396.37, 0.0, 10.001926, 9.998289 
2.8736883e+3, 2.4683553e+2, -434170.25, -423398.03, 9702.654, -0.10656456, -0.033771936, -417686.78, 103322.7, 0.0, 10.000963, 10.00094 
2.8732598e+3, 2.5682762e+2, -525750.6, -477600.72, 61511.656, 0.17064053, 0.011294915, -435620.5, -12538.696, 0.0, 9.999881, 10.000428 
2.8728297e+3, 2.6681757e+2, -514993.72, -567786.44, 68489.13, 0.30167606, -0.017051524, -467990.28, -142809.81, 0.0, 9.999953, 9.999064 
2.8723985e+3, 2.7680638e+2, -284713.66, -372088.7, 31281.791, 0.31981015, -0.12996437, -274668.97, -47377.023, 0.0, 10.000685, 9.999403 
2.871968e+3, 2.867978e+2, -102860.164, -81197.85, 102514.28, 0.21861199, -0.08262668, 11055.871, 140429.08, 0.0, 10.000608, 10.000778 
2.8715375e+3, 2.9679027e+2, -69171.02, -63243.03, 38800.598, 0.09921472, 0.002012879, -27293.383, 4147.454, 0.0, 10.000346, 10.000367 
2.8711066e+3, 3.067783e+2, -136552.22, -224129.31, -20485.148, 0.113574795, -0.20406394, -131997.42, -131997.42, 0.0, 10.0000105, 9.998724 
2.8706756e+3, 3.167645e+2, -99674.64, -159236.75, 36000.707, 0.27480522, -0.5773406, -82733.516, -82733.516, 0.0, 9.999772, 9.998984 
2.870245e+3, 3.267569e+2, 11283.519, 196788.95, 61429.336, 0.33948627, -0.4056974, 215286.55, 215286.55, 0.0, 9.999213, 10.001667 
2.8884175e+3, 1.3738136e+2, -1625346.8, -1520617.3, -108342.83, 0.22491828, -0.17042887, -1452648.1, 140992.78, 0.0000003382392, 9.9999075, 10.0013 
2.887982e+3, 1.4737087e+2, -1265642.6, -1654978.5, -55143.76, -0.06133577, -0.23496857, -1257983.0, 237763.23, 0.000000039050374, 10.003303, 9.998091 
2.8875512e+3, 1.5736055e+2, -1026505.3, -1469849.9, 19900.713, -0.029661002, -0.19134367, -1025613.8, 372238.34, 0.0000000006124831, 10.004228, 9.99824 
2.8871232e+3, 1.673516e+2, -1037979.7, -1278037.0, 174774.4, 0.0115737775, -0.06103179, -945987.1, 353954.53, 0.0, 10.002884, 9.999508 
2.886696e+3, 1.7734307e+2, -1299075.8, -1386525.9, 173145.9, -0.032833666, 0.04145522, -1164219.1, 37806.875, 0.0, 10.000555, 9.999217 
2.8862634e+3, 1.8733227e+2, -1175728.6, -1262526.9, -105274.836, -0.10341254, -0.028305339, -1105258.3, -1130.1692, 0.0, 10.000712, 9.999317 
2.8858292e+3, 1.9732048e+2, -949594.9, -1151330.6, -144849.02, -0.14502445, -0.2497981, -873953.4, 132283.98, 0.0, 10.001791, 9.9988985 
2.8854007e+3, 2.0731011e+2, -863534.4, -1177799.0, 95304.26, -0.056413013, -0.1895442, -836891.1, 71449.44, 0.0, 10.002279, 9.997779 
2.8849745e+3, 2.1729973e+2, -771603.2, -1122053.9, 181090.66, 0.11357733, -0.0928255, -694840.94, 115607.13, 0.0, 10.002393, 9.997441 
2.8845438e+3, 2.2728917e+2, -876070.06, -1080808.9, 122529.92, 0.057439674, 0.029147549, -818773.94, -106211.34, 0.0, 10.000803, 9.997817 
2.8841108e+3, 2.3727854e+2, -1088641.9, -1076914.8, 122876.26, -0.108915776, 0.090135016, -959762.2, -345083.1, 0.0, 9.9984255, 9.998329 
2.8836802e+3, 2.472693e+2, -598848.25, -467082.44, 102042.02, -0.057435744, 0.103728496, -411502.88, 105263.24, 0.0, 9.999709, 10.0012245 
2.8832507e+3, 2.5726062e+2, -253511.13, -342472.75, 39416.03, 0.10139368, 0.027210137, -238559.9, 180281.17, 0.0, 10.001793, 10.000415 
2.882821e+3, 2.6725075e+2, -352395.06, -525731.75, 44287.1, 0.2813661, 0.036788896, -341735.34, -20798.146, 0.0, 10.0013, 9.998682 
2.8823912e+3, 2.7723977e+2, -480097.34, -532031.8, 71640.37, 0.48645258, -0.026728185, -429863.28, -206815.95, 0.0, 9.9997, 9.998761 
2.881959e+3, 2.8722936e+2, -216438.6, -208923.3, 146388.78, 0.20753224, -0.08566167, -66243.95, 58901.254, 0.0, 10.000195, 10.000079 
2.8815255e+3, 2.9721898e+2, -33126.21, -102967.0, 68435.44, -0.26943776, -0.22951272, 8783.354, 36022.902, 0.0, 10.000885, 9.999827 
2.8810963e+3, 3.0720744e+2, 51532.1, 51774.86, -42992.094, -0.0048682033, -0.4637451, 94645.74, 94645.74, 0.0, 10.000569, 10.000343 
2.8806707e+3, 3.1719533e+2, -84791.305, -62739.668, -5176.054, 0.7082705, -0.8196583, -61585.168, -61585.168, 0.0, 9.999557, 9.999748 
2.880232e+3, 3.2718644e+2, -278674.97, -71138.11, 65488.746, 0.026940465, -0.78795344, -52200.94, -52200.94, 0.0, 9.997957, 10.000344 
2.8984094e+3, 1.3780983e+2, -1611529.8, -1542757.6, 91880.195, 0.28647676, -0.3083949, -1479039.9, 110403.04, 0.0000000028010363, 10.000112, 10.00106 
2.8979743e+3, 1.4780043e+2, -1325722.8, -1629836.8, -46379.42, -0.25395173, -0.28236225, -1318806.9, 172730.75, 0.0, 10.002655, 9.998571 
2.8975448e+3, 1.5779237e+2, -1203528.3, -1469768.4, 29226.982, -0.16711925, -0.060857926, -1200357.5, 193264.08, 0.0, 10.002629, 9.999013 
2.8971153e+3, 1.6778351e+2, -1055601.0, -1143452.4, 78520.375, -0.17413114, -0.04047278, -1009555.0, 286152.1, 0.0, 10.002127, 10.000798 
2.896685e+3, 1.7777404e+2, -1232570.5, -1332501.3, 102514.39, -0.27754223, -0.1346496, -1168493.3, 29303.205, 0.0, 10.000907, 9.999416 
2.896255e+3, 1.8776067e+2, -1284236.6, -1623987.8, -62673.277, -0.12033648, -0.298354, -1273044.1, -173115.05, 0.0, 10.001258, 9.996585 
2.8958246e+3, 1.9774626e+2, -972399.8, -1287053.9, -80004.055, 0.12624913, -0.5094219, -953226.3, 48846.426, 0.0, 10.002124, 9.997822 
2.8953952e+3, 2.077391e+2, -588795.6, -669139.44, 117468.016, 0.058644857, -0.30210033, -504820.38, 399321.47, 0.0, 10.002493, 10.00119 
2.8949657e+3, 2.1773387e+2, -528351.94, -700185.0, 181385.69, -0.11972486, -0.009149088, -413563.66, 392628.34, 0.0, 10.00269, 10.000215 
2.8945342e+3, 2.2772516e+2, -825506.9, -997901.56, 40964.594, -0.06204036, 0.15933028, -816268.0, -107981.3, 0.0, 10.000858, 9.99837 
2.8941014e+3, 2.3771495e+2, -1064481.8, -1046783.4, 116492.336, 0.044176903, 0.23016623, -938804.6, -328405.78, 0.0, 9.998442, 9.998546 
2.8936726e+3, 2.4770331e+2, -679761.3, -696761.5, 240956.27, 0.109890886, 0.09244715, -447155.28, 65354.55, 0.0, 9.999938, 9.999541 
2.8932446e+3, 2.5769138e+2, -164481.64, -392204.78, 112368.24, 0.14861599, -0.13703741, -118371.09, 296246.9, 0.0, 10.002756, 9.999612 
2.8928122e+3, 2.6768234e+2, -162490.58, -307104.72, -7062.7285, 0.15690304, -0.083196655, -162146.45, 154558.48, 0.0, 10.00203, 9.999844 
2.892379e+3, 2.7767378e+2, -362992.3, -395526.1, 84535.164, 0.15632641, 0.0072520184, -293173.2, -74382.93, 0.0, 10.00013, 9.99949 
2.8919494e+3, 2.8766277e+2, -222610.66, -321657.3, 248329.53, 0.11705537, -0.071458, -18914.479, 101982.66, 0.0, 10.000582, 9.999123 
2.891521e+3, 2.9765114e+2, 85902.39, -96334.2, 138045.22, 0.02757975, -0.23255761, 160189.73, 183199.22, 0.0, 10.001888, 9.999386 
2.891088e+3, 3.0764404e+2, 216138.81, 181704.72, -31474.578, -0.019348389, -0.034427647, 234797.61, 234797.61, 0.0, 10.001494, 10.000813 
2.8906554e+3, 3.1763768e+2, 90803.94, 88563.305, -47314.367, 0.12454602, 0.17777279, 137011.25, 137011.25, 0.0, 10.000449, 10.000411 
2.8902146e+3, 3.2762524e+2, -134014.58, 102300.48, -44146.816, -0.5730784, -0.18143414, 110278.36, 110278.36, 0.0, 9.998394, 10.001443 
2.9083997e+3, 1.3823749e+2, -1560521.0, -1684986.1, 295247.7, 0.11695953, -0.3355677, -1321018.5, 264231.06, 0.00000000011876347, 10.0011835, 9.999589 
2.9079705e+3, 1.4822976e+2, -1403257.4, -1564858.8, -213735.2, 0.066900745, -0.15560523, -1255559.8, 231772.14, 0.0, 10.001714, 9.9994755 
2.907538e+3, 1.5822074e+2, -1772102.0, -1654309.9, -87137.586, 0.06364093, -0.1337866, -1608031.3, -218605.88, 0.0, 9.998372, 9.999792 
2.9071078e+3, 1.682129e+2, -1371645.8, -1269825.1, 25439.12, -0.10216283, -0.06500958, -1263823.1, 27679.094, 0.0, 9.999859, 10.001024 
2.906677e+3, 1.7820476e+2, -1010171.25, -1216424.6, -19843.063, -0.339184, -0.072452515, -1008279.56, 185300.92, 0.0, 10.002413, 9.9994955 
2.9062477e+3, 1.881923e+2, -981103.6, -1432492.8, -70430.62, -0.13082345, -0.17921606, -970369.5, 125334.26, 0.0, 10.003187, 9.996946 
2.9058194e+3, 1.9817854e+2, -809805.94, -1171382.0, 65556.94, 0.23233786, -0.3635145, -798286.9, 199553.86, 0.0, 10.003129, 9.998096 
2.9053885e+3, 2.0817077e+2, -683569.75, -671359.2, 124815.81, 0.069709465, -0.24378902, -552499.44, 347414.4, 0.0, 10.001674, 10.001536 
2.9049566e+3, 2.1816504e+2, -946945.75, -882319.75, -8907.631, -0.2382062, -0.062830776, -881114.5, -79148.18, 0.0, 9.999755, 10.00036 
2.9045257e+3, 2.2815676e+2, -663143.94, -895488.8, -173012.34, -0.124173835, 0.112134874, -570919.4, 133135.42, 0.0, 10.001927, 9.998526 
2.9040942e+3, 2.3814729e+2, -239472.0, -664777.9, -107291.305, 0.12676488, 0.20210613, -213938.67, 392219.47, 0.0, 10.00424, 9.99835 
2.9036653e+3, 2.4813536e+2, -336253.0, -590106.2, 105521.02, 0.16600521, 0.05729241, -298118.84, 210153.67, 0.0, 10.002637, 9.998927 
2.903237e+3, 2.5812256e+2, -608504.6, -656852.9, 43065.934, 0.13731179, -0.22222628, -583291.9, -172900.61, 0.0, 9.999995, 9.9991 
2.9028034e+3, 2.6811433e+2, -383079.56, -335666.13, -118438.805, 0.057351854, -0.12128879, -238584.78, 73885.67, 0.0, 10.000203, 10.000511 
2.902368e+3, 2.781071e+2, -328813.47, -376726.22, -33848.8, -0.041957047, 0.01871584, -311301.2, -96759.734, 0.0, 10.000363, 9.999516 
2.9019403e+3, 2.8809604e+2, -346117.47, -414432.16, 192108.39, 0.054975674, -0.052924976, -185153.42, -68502.875, 0.0, 9.999966, 9.998752 
2.9015148e+3, 2.9808396e+2, -331446.44, -323402.75, 129758.49, 0.22962469, -0.22611281, -197603.78, -178832.9, 0.0, 9.999238, 9.999064 
2.9010814e+3, 3.080783e+2, -92988.54, 112112.56, -38093.16, 0.19045992, 0.07138417, 118959.016, 118959.016, 0.0, 9.999125, 10.00139 
2.900645e+3, 3.180754e+2, -257535.31, -172421.14, -8746.973, 0.049566217, 0.59508526, -171531.53, -171531.53, 0.0, 9.99859, 9.999437 
2.9002097e+3, 3.280645e+2, 167859.28, 272252.0, -92743.305, -0.047209248, 0.4267344, 326478.28, 326478.28, 0.0, 10.000508, 10.001471 
2.9183918e+3, 1.3866562e+2, -1656150.3, -1849826.4, 518696.88, 0.03165716, -0.25244126, -1225329.4, 355722.3, 0.0000000000007792345, 10.001045, 9.998536 
2.917967e+3, 1.4865895e+2, -1476081.8, -1470507.6, -268609.5, 0.4989756, -0.0014277999, -1204670.8, 278456.75, 0.0, 10.000653, 10.00064 
2.9175302e+3, 1.5864779e+2, -1581234.9, -1491104.5, -51033.594, 0.34385973, -0.28289407, -1468086.8, -82844.77, 0.0, 9.99936, 10.000443 
2.9171e+3, 1.6864127e+2, -1269562.6, -1238764.0, 159526.03, 0.030260349, -0.09337355, -1093895.8, 193414.69, 0.0, 10.000626, 10.000866 
2.9166704e+3, 1.7863545e+2, -937860.56, -1109996.5, 51455.047, -0.36476323, 0.14783213, -923652.4, 265718.44, 0.0, 10.002558, 10.000171 
2.9162416e+3, 1.8862611e+2, -806465.94, -1066778.6, -63388.67, -0.17744938, 0.16479878, -791850.75, 299608.84, 0.0, 10.00315, 9.999478 
2.9158127e+3, 1.9861546e+2, -730739.75, -1009276.75, 53178.76, 0.14428468, 0.07010962, -720932.1, 272627.9, 0.0, 10.003102, 9.9992285 
2.9153803e+3, 2.0860395e+2, -812772.25, -975159.2, 45450.63, -0.00131129, -0.08704869, -800916.6, 94752.664, 0.0, 10.001766, 9.999431 
2.9149473e+3, 2.185926e+2, -994814.94, -1062960.9, -18516.336, -0.2769599, -0.25022468, -990108.75, -192331.58, 0.0, 10.000048, 9.998998 
2.9145184e+3, 2.2858305e+2, -616365.94, -890038.56, -54923.76, -0.14248364, -0.14718033, -605754.6, 94121.35, 0.0, 10.002291, 9.998409 
2.9140896e+3, 2.3857377e+2, -55109.17, -518657.38, -71299.93, 0.07455058, -0.020663261, -44390.15, 557583.9, 0.0, 10.0051985, 9.998913 
2.9136583e+3, 2.4856432e+2, -182888.72, -386081.5, -39704.95, 0.06431024, -0.026051061, -175405.73, 328659.94, 0.0, 10.003074, 10.000132 
2.9132262e+3, 2.5855458e+2, -564483.0, -538868.25, -39697.113, -0.0016405822, -0.10262641, -509963.63, -103805.836, 0.0, 9.999798, 10.000025 
2.9127944e+3, 2.6854616e+2, -449392.0, -392590.84, -84009.95, 0.0961714, -0.036782306, -332310.72, -24069.676, 0.0, 9.999812, 10.000321 
2.912362e+3, 2.7853814e+2, -238385.2, -269419.63, -29020.484, 0.19017224, 0.036468286, -220993.86, -10672.763, 0.0, 10.000669, 10.000111 
2.9119313e+3, 2.885283e+2, -232388.81, -204441.77, 172700.81, 0.047216102, -0.030943708, -45150.094, 67261.59, 0.0, 10.000033, 10.000183 
2.911503e+3, 2.9851678e+2, -319878.03, -50736.16, 120316.37, 0.09280632, -0.29452324, -4792.9253, 9725.922, 0.0, 9.998082, 10.001506 
2.928387e+3, 1.3909541e+2, -1636479.3, -1668893.6, 219800.61, 0.3184311, -0.32293874, -1432289.0, 144549.52, 0.0, 10.000463, 10.000036 
2.9279563e+3, 1.4909045e+2, -1544810.5, -1324229.9, -15817.409, 0.4014611, -0.051783673, -1323101.5, 155792.53, 0.0, 9.999408, 10.002237 
2.927522e+3, 1.5908098e+2, -1061315.3, -1250577.9, 198378.92, 0.26458368, -0.27248296, -936152.9, 444837.06, 0.0, 10.002979, 10.000345 
2.927093e+3, 1.6907203e+2, -1044185.3, -1380359.1, 301116.9, -0.02181941, -0.14143081, -867417.75, 415667.53, 0.0, 10.003269, 9.998614 
2.926664e+3, 1.7906368e+2, -992480.44, -1214009.0, 83507.76, -0.35458842, 0.038855754, -964528.2, 220646.31, 0.0, 10.002548, 9.999455 
2.926235e+3, 1.8905593e+2, -837766.4, -913875.1, -91336.914, -0.16404518, 0.12849973, -776873.44, 310373.2, 0.0, 10.002209, 10.000984 
2.925806e+3, 1.9904761e+2, -909785.9, -1036256.7, -26910.008, 0.16814093, 0.119603306, -904298.2, 85024.12, 0.0, 10.001609, 9.99978 
2.9253733e+3, 2.090355e+2, -781090.9, -1022173.5, 31125.537, 0.0041702283, -0.07733107, -777137.2, 114300.19, 0.0, 10.002323, 9.998817 
2.92494e+3, 2.1902257e+2, -651009.8, -943194.3, 84015.35, -0.25621793, -0.34425443, -628574.56, 164986.92, 0.0, 10.00266, 9.998555 
2.9245117e+3, 2.2901243e+2, -623042.6, -843631.0, 156994.89, -0.12250772, -0.30168977, -541471.75, 154191.45, 0.0, 10.002053, 9.998833 
2.9240844e+3, 2.3900308e+2, -631171.9, -762662.6, 118486.7, 0.09194256, -0.2175084, -561412.44, 36346.19, 0.0, 10.00114, 9.999187 
2.9236507e+3, 2.4899495e+2, -519018.34, -493000.1, 9620.434, 0.028988646, -0.107535444, -489829.28, 10010.347, 0.0, 10.000584, 10.000586 
2.9232165e+3, 2.5898698e+2, -599618.7, -550735.4, -4136.237, -0.05653998, -0.057497382, -550387.9, -148469.17, 0.0, 9.99961, 10.00002 
2.922786e+3, 2.6897785e+2, -266300.3, -354255.8, 3186.982, 0.12714987, -0.021475995, -266185.0, 37826.26, 0.0, 10.001353, 9.999819 
2.9223555e+3, 2.7896878e+2, 61384.605, -96794.95, -4815.45, 0.3158706, -0.029123988, 61531.066, 267633.56, 0.0, 10.00266, 10.000332 
2.9219222e+3, 2.8896105e+2, -22218.355, 46048.094, 79634.6, -0.00701484, 0.010478207, 98556.35, 206724.45, 0.0, 10.000936, 10.001413 
2.9214913e+3, 2.9895017e+2, -283361.2, 224363.86, -63087.31, 0.038692914, -0.38729435, 232085.34, 242349.0, 0.0, 9.99728, 10.00378 
2.9383793e+3, 1.3952586e+2, -1612925.9, -1445204.8, -236010.86, 0.42792428, -0.45753902, -1278598.3, 294020.3, 0.0, 9.999718, 10.001928 
2.937944e+3, 1.4952284e+2, -1352929.6, -1057460.5, 91289.69, 0.100557424, -0.16002111, -1031530.7, 443119.16, 0.0, 9.999945, 10.003825 
2.9375133e+3, 1.5951632e+2, -1148187.1, -1353986.1, 206115.45, -0.011048373, -0.19661954, -1020713.25, 356000.66, 0.0, 10.002617, 9.999824 
2.9370856e+3, 1.6950348e+2, -1269621.6, -1826952.4, 259060.36, -0.15998924, -0.23017247, -1167804.9, 111044.31, 0.0, 10.003149, 9.995623 
2.9366577e+3, 1.7949036e+2, -1032540.25, -1357119.9, 92144.91, -0.3829079, -0.25981537, -1008205.7, 172781.56, 0.0, 10.002764, 9.998387 
2.9362285e+3, 1.8948326e+2, -756131.06, -769042.4, -89311.22, -0.1275959, -0.14812787, -673042.5, 410011.0, 0.0, 10.00228, 10.001961 
2.935799e+3, 1.9947658e+2, -828093.2, -900256.1, -10012.063, 0.19211894, -0.072269686, -826729.9, 158383.38, 0.0, 10.001715, 10.000673 
2.935367e+3, 2.0946613e+2, -713031.44, -910920.4, 57109.984, 0.030610068, -0.1759485, -697732.5, 189479.53, 0.0, 10.002449, 9.99952 
2.9349342e+3, 2.1945497e+2, -520801.28, -770066.6, 84143.31, -0.22687984, -0.33124062, -495056.4, 294262.03, 0.0, 10.0030155, 9.99959 
2.9345053e+3, 2.2944543e+2, -510076.16, -664128.25, 117458.05, -0.057154223, -0.34184217, -446640.78, 244769.9, 0.0, 10.002199, 10.000036 
2.9340768e+3, 2.394363e+2, -580047.8, -669003.25, 87971.07, 0.14933375, -0.3335228, -525949.8, 67550.375, 0.0, 10.001084, 9.999898 
2.933643e+3, 2.4942791e+2, -594634.94, -619098.94, -5883.7056, 0.111743435, -0.21744324, -593293.44, -97706.99, 0.0, 10.000379, 9.999856 
2.9332083e+3, 2.5941932e+2, -578194.7, -630334.75, 23287.398, 0.040321946, -0.13699342, -569308.3, -171632.78, 0.0, 10.000054, 9.999289 
2.9327783e+3, 2.6940817e+2, -255022.14, -492174.97, 83578.875, 0.1043062, -0.20030215, -228526.88, 71262.07, 0.0, 10.001967, 9.998608 
2.9323483e+3, 2.7939752e+2, 221847.38, -69072.33, -39480.098, 0.15368001, -0.26047328, 227109.94, 429006.44, 0.0, 10.003853, 9.999988 
2.9319146e+3, 2.8939265e+2, 21538.416, 38344.477, -104627.64, 0.05714154, 0.07100605, 134905.98, 238845.83, 0.0, 10.001213, 10.001305 
2.9314804e+3, 2.9938233e+2, -176948.73, 131534.42, -289795.0, 0.12857842, -0.22881924, 305578.72, 311613.3, 0.0, 9.9984045, 10.002688 
2.9483652e+3, 1.3995975e+2, -1614799.1, -1597004.1, -181502.22, -0.039678924, -0.42444837, -1424181.5, 144183.2, 0.0, 10.000338, 10.000606 
2.9479378e+3, 1.4995429e+2, -1342365.1, -1384277.4, 60592.902, 0.3299485, -0.11606427, -1299206.8, 171220.1, 0.0, 10.001461, 10.0008545 
2.947506e+3, 1.5994595e+2, -1258811.9, -1430062.1, 20362.69, -0.04241183, -0.1266199, -1256423.9, 116087.91, 0.0, 10.001965, 9.999629 
2.94708e+3, 1.6993472e+2, -1090263.6, -1420327.4, 240474.61, -0.1419558, -0.22329217, -963638.9, 310982.3, 0.0, 10.003029, 9.998467 
2.9466534e+3, 1.7992301e+2, -831209.9, -1137292.8, 249119.77, -0.2430911, -0.34696952, -691877.7, 484858.2, 0.0, 10.003642, 9.999461 
2.9462218e+3, 1.8991525e+2, -824512.3, -868202.94, 28786.135, -0.061122943, -0.26527715, -810220.94, 268589.0, 0.0, 10.002139, 10.001326 
2.945791e+3, 1.9990773e+2, -1072880.6, -1087265.6, 76761.38, 0.19814412, -0.2043147, -1002975.5, -22094.28, 0.0, 10.000367, 10.000033 
2.94536e+3, 2.0989726e+2, -859036.9, -1008792.1, 130669.68, 0.053133897, -0.27378634, -783311.6, 99671.586, 0.0, 10.001568, 9.999268 
2.9449287e+3, 2.1988665e+2, -609063.44, -797379.6, 57073.12, -0.12285905, -0.36291438, -593116.6, 191969.7, 0.0, 10.002376, 9.99971 
2.9444993e+3, 2.2987852e+2, -476528.72, -514156.22, 47788.67, 0.049879406, -0.3255931, -443983.78, 243178.75, 0.0, 10.001947, 10.001134 
2.9440692e+3, 2.3987035e+2, -625055.5, -702336.0, 21338.377, 0.23833777, -0.31635833, -619555.1, -30315.04, 0.0, 10.000914, 9.999717 
2.9436347e+3, 2.498611e+2, -441637.38, -650969.8, -56589.625, 0.1345978, -0.219001, -427318.72, 64019.332, 0.0, 10.001964, 9.998838 
2.9432e+3, 2.5985152e+2, -300243.47, -585991.0, -16743.947, 0.03369431, -0.16002047, -299265.66, 94174.22, 0.0, 10.002425, 9.9984455 
2.9427704e+3, 2.698394e+2, -416211.88, -604780.56, 136835.98, 0.06567864, -0.27601004, -344322.75, -48762.48, 0.0, 10.001051, 9.998258 
2.9423407e+3, 2.7982792e+2, -461361.56, -460272.8, 46739.082, 0.079392046, -0.38795194, -414074.94, -216400.28, 0.0, 9.999493, 9.999382 
2.941907e+3, 2.8982392e+2, -160584.34, -95121.77, -102582.56, 0.120434575, 0.09675304, -20175.213, 79539.4, 0.0, 10.000223, 10.000851 
2.9414698e+3, 2.9981273e+2, -70221.87, -34597.55, -216498.44, 0.048382625, -0.18664907, 164820.23, 166643.94, 0.0, 10.000243, 10.000613 
2.9583535e+3, 1.4039403e+2, -1882587.4, -1983586.1, -183345.42, -0.33578986, -0.33700022, -1742913.9, -178805.28, 0.0, 9.99956, 9.998349 
2.9579332e+3, 1.5038526e+2, -1648863.3, -2009391.6, 72994.3, 0.65299404, 0.0010804272, -1634645.3, -168432.5, 0.0, 10.001395, 9.996605 
2.957499e+3, 1.6037335e+2, -1199141.3, -1322640.9, 108636.445, -0.06359963, -0.05490425, -1135931.4, 232405.77, 0.0, 10.002001, 10.000363 
2.957075e+3, 1.7036621e+2, -813416.44, -680780.4, 275883.4, -0.07300537, -0.17210132, -463356.06, 807036.25, 0.0, 10.002272, 10.003926 
2.9566494e+3, 1.8035905e+2, -854625.3, -929119.44, 167080.45, -0.101089776, -0.2951345, -720690.56, 451757.4, 0.0, 10.002489, 10.001455 
2.9562154e+3, 1.9034979e+2, -965038.2, -1118092.3, -89315.49, -0.015597483, -0.30137643, -923948.75, 150590.33, 0.0, 10.001913, 9.999732 
2.9557818e+3, 2.0034005e+2, -1082907.0, -1239062.9, 57286.477, 0.105826914, -0.30276084, -1064145.4, -87508.14, 0.0, 10.00087, 9.998766 
2.9553527e+3, 2.1032864e+2, -869537.44, -1128593.4, 170639.6, 0.068551205, -0.36286712, -784833.4, 93920.375, 0.0, 10.001878, 9.998344 
2.9549235e+3, 2.2031783e+2, -496797.56, -700101.8, 45282.703, -0.0066385907, -0.4100206, -487167.72, 293695.47, 0.0, 10.002881, 10.000159 
2.9544938e+3, 2.3031189e+2, -391131.4, -370146.25, -562.863, 0.18008979, -0.2409412, -370131.16, 312787.2, 0.0, 10.002081, 10.002066 
2.9540625e+3, 2.4030553e+2, -552411.2, -692341.75, 7289.5024, 0.32384413, -0.10251223, -552032.5, 32946.61, 0.0, 10.001441, 9.999546 
2.953627e+3, 2.5029463e+2, -440790.63, -818987.7, -29020.043, 0.05489391, -0.05961999, -438576.8, 48520.684, 0.0, 10.002599, 9.99743 
2.953192e+3, 2.6028344e+2, -95003.37, -437119.47, -68340.52, -0.1653062, -0.051372703, -81856.95, 307360.06, 0.0, 10.003515, 9.998988 
2.9527628e+3, 2.702735e+2, -269730.06, -325103.88, 14150.995, 0.09917809, -0.12316377, -266323.3, 24986.568, 0.0, 10.001076, 10.000206 
2.9523325e+3, 2.802637e+2, -507015.4, -437602.97, 38582.08, 0.3006835, -0.20008145, -420414.13, -227013.0, 0.0, 9.9988785, 9.999872 
2.951898e+3, 2.9025516e+2, -191098.06, -269200.13, -20136.74, 0.13737628, -0.08681487, -186211.97, -90722.555, 0.0, 10.00058, 9.999537 
2.9514623e+3, 3.0024555e+2, 214719.77, -26953.951, -190518.14, 0.062288556, -0.06047093, 319490.34, 319490.34, 0.0, 10.002564, 9.9996 
2.968346e+3, 1.4082123e+2, -2017369.0, -1994669.9, -97657.13, -0.04989038, -0.4531402, -1907705.0, -347778.8, 0.0, 9.998473, 9.998766 
2.9679242e+3, 1.5081654e+2, -1467630.1, -1712334.9, 158059.11, 0.45971802, 0.1223322, -1390100.6, 71880.9, 0.0, 10.001793, 9.998431 
2.967494e+3, 1.6080245e+2, -1092985.6, -1197100.4, 282030.63, 0.10045155, -0.28680906, -858248.2, 505873.6, 0.0, 10.002415, 10.001027 
2.9670674e+3, 1.7079669e+2, -1306509.4, -932275.56, 199023.94, 0.02484869, -0.2531338, -846219.9, 419947.88, 0.0, 9.998954, 10.003794 
2.9666394e+3, 1.8079089e+2, -1799807.9, -1454433.9, -35655.473, -0.08004593, -0.23776121, -1450791.4, -282576.8, 0.0, 9.99633, 10.000816 
2.9662064e+3, 1.9078037e+2, -1230682.6, -1346357.1, -224022.9, -0.09931485, -0.31103772, -1057151.4, 13170.313, 0.0, 10.000568, 9.998801 
2.965774e+3, 2.0076944e+2, -660822.44, -1068540.6, -87013.75, 0.0014496316, -0.37595883, -643028.8, 329404.88, 0.0, 10.00396, 9.998442 
2.965346e+3, 2.107601e+2, -729985.56, -982669.2, 67285.02, 0.047667813, -0.2896303, -713185.75, 161343.7, 0.0, 10.002583, 9.998972 
2.9649168e+3, 2.2075088e+2, -839403.0, -863424.94, 5401.5703, 0.042348128, -0.239717, -838244.3, -61621.285, 0.0, 10.000574, 10.000142 
2.964485e+3, 2.3074386e+2, -528032.7, -466785.72, -93543.36, 0.074026786, -0.1633197, -398980.75, 279708.97, 0.0, 10.001276, 10.001799 
2.964053e+3, 2.4073692e+2, -592525.2, -756451.2, -127377.39, 0.1458219, -0.07348227, -523018.94, 57738.38, 0.0, 10.001395, 9.99914 
2.9636192e+3, 2.5072658e+2, -693785.94, -942451.94, -49749.08, -0.0015419023, 0.025540184, -684202.3, -201330.56, 0.0, 10.000907, 9.997375 
2.9631856e+3, 2.6071584e+2, -547630.94, -601731.9, -28730.186, -0.12438571, 0.05798349, -535220.7, -150233.25, 0.0, 10.000233, 9.999413 
2.9627553e+3, 2.707071e+2, -183403.83, -134160.13, -34592.62, 0.15934424, -0.005893248, -116321.586, 170741.53, 0.0, 10.001047, 10.0015135 
2.9623237e+3, 2.8069815e+2, -213907.0, -294169.66, 9167.295, 0.37247983, -0.11075071, -212873.27, -23731.352, 0.0, 10.000964, 9.999831 
2.9618892e+3, 2.9068682e+2, -189343.11, -335823.5, 81426.16, 0.09413769, -0.22898522, -153064.61, -61805.863, 0.0, 10.000972, 9.9988365 
2.9614562e+3, 3.006796e+2, -92500.34, -268905.22, -45379.543, 0.13784403, 0.099211834, -81511.19, -81511.19, 0.0, 10.000974, 9.998659 
2.9783365e+3, 1.4124978e+2, -1600910.5, -1649716.1, 171430.61, -0.031994555, -0.31442758, -1452154.6, 103575.66, 0.0, 10.000728, 10.000038 
2.9779133e+3, 1.5124731e+2, -1191971.6, -1164783.6, 176597.97, 0.1139304, 0.16902497, -1001257.25, 456492.78, 0.0, 10.001898, 10.002139 
2.9774895e+3, 1.6123223e+2, -1189996.8, -1231724.8, 116423.53, 0.2849169, -0.6101226, -1092582.5, 267308.7, 0.0, 10.001685, 10.001142 
2.977058e+3, 1.7122677e+2, -1458641.9, -1307478.5, -7286.9053, 0.08887522, -0.348455, -1307128.0, -45181.414, 0.0, 9.999198, 10.00111 
2.976626e+3, 1.8122037e+2, -1737435.9, -1597862.6, -36159.016, -0.21112351, -0.14229155, -1589051.1, -425038.66, 0.0, 9.997462, 9.999303 
2.9761964e+3, 1.9120829e+2, -1194951.6, -1387425.4, -66640.47, -0.25352937, -0.3026196, -1174130.9, -107991.51, 0.0, 10.000983, 9.998359 
2.9757673e+3, 2.0119715e+2, -557565.94, -885895.7, -75160.125, -0.190869, -0.3951771, -541178.44, 427076.9, 0.0, 10.004011, 9.999703 
2.9753384e+3, 2.1119177e+2, -608221.8, -729256.06, -32677.88, -0.055780634, -0.07555533, -599962.75, 270345.1, 0.0, 10.002542, 10.000762 
2.9749078e+3, 2.2118543e+2, -768444.94, -819923.44, -40948.6, -0.05026093, 0.13831978, -745817.94, 26551.52, 0.0, 10.000919, 10.000314 
2.9744732e+3, 2.3117392e+2, -588420.4, -683028.1, -83955.76, -0.31422094, -0.11748475, -539359.2, 135122.7, 0.0, 10.001528, 10.000258 
2.97404e+3, 2.4116331e+2, -447547.8, -614510.6, -168595.97, -0.4215986, -0.29602394, -342896.94, 233690.6, 0.0, 10.001988, 9.999863 
2.9736114e+3, 2.5115666e+2, -529247.9, -631330.3, -108165.125, 0.042399667, -0.0136262365, -460686.0, 17977.367, 0.0, 10.000943, 9.999531 
2.9731816e+3, 2.611492e+2, -442445.63, -421127.47, -27243.379, 0.3846314, 0.16868392, -402532.2, -21788.818, 0.0, 10.000264, 10.000671 
2.9727483e+3, 2.711392e+2, -97914.76, -91116.57, 76.726456, 0.25703403, -0.047429524, -91115.7, 191714.88, 0.0, 10.001545, 10.001632 
2.972314e+3, 2.8112975e+2, 121389.46, 11375.998, -13402.342, 0.10213498, -0.22081643, 122998.66, 307912.1, 0.0, 10.002527, 10.001235 
2.971881e+3, 2.9112273e+2, 36423.637, -6190.7646, 66957.73, 0.091374174, -0.10000398, 85382.6, 172366.1, 0.0, 10.001496, 10.000906 
2.9714486e+3, 3.0111438e+2, -98302.58, -280509.84, 24166.178, 0.20997621, 0.006389011, -95151.9, -95151.9, 0.0, 10.000934, 9.9986315 
2.988334e+3, 1.4167744e+2, -1097381.9, -1620932.0, 196756.66, 0.23067285, -0.39558068, -1031682.75, 519852.1, 0.0, 10.005031, 9.998205 
2.9879045e+3, 1.5167333e+2, -1164440.3, -1247276.1, -16658.281, -0.11513238, 0.018436953, -1161215.8, 292360.5, 0.0, 10.002437, 10.001346 
2.9874796e+3, 1.616592e+2, -1484471.9, -1491178.8, -169111.84, 0.1381955, -0.6161432, -1318680.3, 37032.64, 0.0, 10.000169, 10.000105 
2.987049e+3, 1.7165355e+2, -1232735.9, -1322299.6, -233338.81, 0.08210796, -0.2911143, -1039920.56, 217854.02, 0.0, 10.001306, 9.999993 
2.986618e+3, 1.8164727e+2, -1045752.8, -1185930.5, -135843.98, -0.085695416, -0.035497606, -962982.1, 196859.83, 0.0, 10.001881, 10.000019 
2.9861885e+3, 1.9163832e+2, -1098601.0, -1097747.9, -14441.938, -0.2149029, -0.07904569, -1083726.3, -21793.922, 0.0, 10.000595, 10.000546 
2.9857594e+3, 2.0162962e+2, -1136293.5, -995447.1, 56841.52, -0.23987196, -0.13081776, -975369.56, -11349.957, 0.0, 9.999333, 10.001202 
2.9853302e+3, 2.1162258e+2, -821200.9, -752042.2, 46052.09, -0.10920816, -0.06889099, -729032.25, 137054.94, 0.0, 10.0007105, 10.0015 
2.9849e+3, 2.2161575e+2, -752854.4, -792849.56, 15355.602, -0.008376778, 0.035860013, -747638.9, 20514.078, 0.0, 10.001003, 10.000446 
2.984466e+3, 2.3160528e+2, -845837.1, -806422.0, 57898.86, -0.21566255, -0.112452894, -764968.56, -94710.336, 0.0, 9.999862, 10.00017 
2.9840323e+3, 2.4159457e+2, -875213.44, -758022.1, 35523.77, -0.330983, -0.27936596, -748094.9, -175728.75, 0.0, 9.998851, 10.000373 
2.9836032e+3, 2.5158876e+2, -616578.2, -485341.47, 38834.69, 0.1174148, -0.028922308, -474710.88, -282.1435, 0.0, 9.999626, 10.001136 
2.983174e+3, 2.6158246e+2, -524028.72, -454242.88, 103752.66, 0.53086346, 0.1709364, -379672.88, -3178.7966, 0.0, 9.999768, 10.000673 
2.98274e+3, 2.7157164e+2, -313472.6, -202767.75, 121375.53, 0.25885767, -0.10761667, -124718.86, 153873.33, 0.0, 10.000148, 10.0015135 
2.982305e+3, 2.8156212e+2, -236884.98, -87884.016, 38024.35, -0.057310425, -0.3087584, -78741.37, 101935.97, 0.0, 9.9998455, 10.0018215 
2.9818726e+3, 2.9155844e+2, -120302.18, 88866.29, -2510.6658, 0.07456829, 0.012574203, 88896.42, 171608.33, 0.0, 9.999779, 10.002356 
2.9814398e+3, 3.0154794e+2, -190588.16, -287680.72, 33082.42, 0.16604018, -0.20651518, -180387.63, -180387.63, 0.0, 10.00029, 9.998845 
2.9983315e+3, 1.4210238e+2, -1488027.0, -2003417.9, 67142.32, 0.3376431, -0.68064624, -1479423.6, 67943.51, 0.0, 10.00324, 9.996441 
2.9978952e+3, 1.520975e+2, -1441476.0, -1586468.4, -161049.97, -0.36393696, -0.17095622, -1337357.4, 112069.05, 0.0, 10.001434, 9.999511 
2.9974672e+3, 1.6208474e+2, -1607103.4, -1640987.3, -111752.56, -0.21548465, -0.5088736, -1511015.8, -159457.4, 0.0, 9.999703, 9.999311 
2.9970416e+3, 1.7207764e+2, -1386950.1, -1432539.8, -89751.445, 0.10690439, -0.28253308, -1317144.1, -63508.23, 0.0, 10.000377, 9.999702 
2.9966134e+3, 1.8207243e+2, -931590.5, -777288.2, -57551.863, 0.13695002, 0.0044419225, -758187.0, 397503.4, 0.0, 10.001148, 10.003172 
2.9961804e+3, 1.9206975e+2, -785398.1, -488937.6, -19308.11, -0.17301677, 0.20637858, -487685.38, 570022.56, 0.0, 10.0008, 10.0046215 
2.9957497e+3, 2.0206442e+2, -994534.7, -775119.9, 57080.758, -0.25645453, 0.20583643, -761158.7, 198594.44, 0.0, 9.999631, 10.002567 
2.9953226e+3, 2.1205269e+2, -785550.44, -674584.94, 93507.52, -0.027246403, -0.25575843, -621338.7, 240528.31, 0.0, 10.000696, 10.002034 
2.9948938e+3, 2.220423e+2, -593808.44, -599673.56, -16481.764, 0.14431943, -0.55849326, -580000.4, 183969.02, 0.0, 10.001546, 10.001513 
2.9944628e+3, 2.3203748e+2, -760465.94, -639833.6, -10375.071, 0.44027594, -0.24730463, -638947.8, 27073.963, 0.0, 9.999829, 10.001372 
2.9940313e+3, 2.4203241e+2, -744538.25, -560546.5, 58696.063, 0.5953922, 0.024615886, -543416.44, 24658.096, 0.0, 9.999109, 10.00162 
2.9935944e+3, 2.520241e+2, -501351.63, -383741.0, 81366.7, 0.19219635, -0.03675733, -342154.06, 127998.85, 0.0, 10.000149, 10.001634 
2.9931593e+3, 2.6201516e+2, -423907.9, -394064.25, 122773.29, -0.048557624, -0.11649893, -285309.3, 86929.55, 0.0, 10.000318, 10.000874 
2.9927295e+3, 2.7200568e+2, -385065.75, -279427.06, 136771.34, 0.14943743, -0.22107866, -185630.31, 88702.22, 0.0, 9.999796, 10.001206 
2.9922974e+3, 2.819968e+2, -320455.16, -198086.64, 41460.926, 0.17678079, -0.30482855, -185362.03, -8941.958, 0.0, 9.9995, 10.001278 
2.9918617e+3, 2.9198954e+2, -251162.73, -106222.17, -32451.826, 0.008732325, -0.23565401, -99288.02, -20796.143, 0.0, 9.999369, 10.001309 
2.9914308e+3, 3.019826e+2, 3722.8093, 1847.8806, 158914.23, 0.15027949, -0.04944615, 161702.34, 161702.34, 0.0, 10.000583, 10.000854 
3.008325e+3, 1.4253351e+2, -1701740.9, -1692310.4, -87455.02, 0.4005767, 0.09406601, -1609443.6, -66277.15, 0.0, 9.999908, 10.000206 
3.0078867e+3, 1.5253079e+2, -1352667.9, -1263180.1, -154576.55, -0.3493197, 0.51444244, -1147001.9, 298197.8, 0.0, 10.000845, 10.001985 
3.0074564e+3, 1.6252099e+2, -1355068.9, -1030833.44, 42830.063, -0.35706562, 0.16971986, -1025271.2, 322023.2, 0.0, 9.999243, 10.003722 
3.00703e+3, 1.7251451e+2, -1417738.4, -888514.7, 325310.9, 0.0033241697, -0.02449418, -733785.9, 515558.4, 0.0, 9.997651, 10.004753 
3.006605e+3, 1.8250665e+2, -1525616.0, -1191544.1, 581548.9, 0.30350703, -0.24811143, -753518.0, 397894.13, 0.0, 9.9975395, 10.002083 
3.006174e+3, 1.9249798e+2, -1005019.94, -917671.94, 254863.75, 0.0018536218, -0.3602222, -702767.25, 350727.1, 0.0, 10.000586, 10.001775 
3.0057418e+3, 2.0248796e+2, -771984.0, -1016211.3, -14475.518, -0.2442808, -0.52487564, -771129.0, 184465.48, 0.0, 10.002616, 9.999467 
3.005311e+3, 2.1248351e+2, -1093677.0, -971517.94, -149988.36, -0.287571, -0.09755025, -870649.25, -12997.068, 0.0, 9.999243, 10.000636 
3.00488e+3, 2.2247832e+2, -1113651.6, -780188.44, -309701.7, -0.28891397, 0.15413672, -595189.2, 164523.25, 0.0, 9.997668, 10.002117 
3.0044484e+3, 2.3247282e+2, -419312.84, -277176.8, -204073.25, -0.092596024, 0.19171964, -132150.97, 529617.6, 0.0, 10.0013, 10.003103 
3.0040187e+3, 2.4246727e+2, -254961.88, -254502.56, -77906.78, 0.17411162, 0.21930306, -176825.1, 386995.7, 0.0, 10.002191, 10.002198 
3.0035853e+3, 2.5245526e+2, -70833.66, -153917.64, -48078.79, 0.06636155, -0.28165174, -48835.84, 417089.13, 0.0, 10.003066, 10.001715 
3.0031505e+3, 2.6244593e+2, -137840.47, -300250.88, -57337.87, -0.14618169, -0.44818792, -119637.84, 248372.31, 0.0, 10.002524, 10.000401 
3.0027202e+3, 2.7244407e+2, -416946.72, -347962.1, -51720.484, 0.18118258, 0.22472332, -320287.47, -50249.004, 0.0, 9.999879, 10.000613 
3.0022877e+3, 2.824368e+2, -573152.56, -622856.06, -122433.8, 0.21014777, 0.41133347, -473073.75, -300956.13, 0.0, 9.999103, 9.998518 
3.0018508e+3, 2.9241797e+2, -13659.482, -315190.2, -312129.75, -0.18501517, -0.4232773, 182209.22, 256514.22, 0.0, 10.002504, 9.998274 
3.0014268e+3, 3.0241323e+2, 837523.6, 737131.0, -43877.48, 0.45614317, -0.01807929, 853997.4, 853997.4, 0.0, 10.00508, 10.00363 
