coord_x,coord_y,stress_xx,stress_yy,tau_xy,velocity_x,velocity_y,stress_1,eps,damage,lx,ly
4.9994788e+0, 1.2571687e+2, -1825153.1, -1823602.3, -30956.588, -0.025154911, -0.29212642, -1793411.4, -85451.08, 0.0027102246, 9.999273, 9.999598 
4.9999696e+0, 1.3571975e+2, -1713024.6, -1788955.9, -29707.455, 0.0046212394, -0.008883584, -1702783.3, -92841.97, 0.0016001622, 9.999749, 9.9989195 
5.0001514e+0, 1.45717e+2, -1530852.0, -1605031.4, 1030.7915, 0.001950477, -0.18344687, -1530837.8, -18865.445, 0.00071385584, 10.000154, 9.999297 
5.0000453e+0, 1.5571888e+2, -1379651.4, -1485440.3, 3000.5613, -0.027334826, -0.010918106, -1379566.4, 34387.824, 0.00020880907, 10.00054, 9.999262 
4.9999768e+0, 1.6571943e+2, -1331828.8, -1490612.3, 15155.252, -0.03397597, 0.16258144, -1330395.1, -14442.572, 0.00003056022, 10.000545, 9.998552 
4.9999005e+0, 1.7571774e+2, -1285492.5, -1424647.4, 2480.878, -0.025462588, 0.07283469, -1285448.4, -67472.6, 0.0000010193884, 10.000219, 9.99849 
5.000025e+0, 1.8571655e+2, -1136569.1, -1194607.5, 28257.766, -0.008311022, 0.05990787, -1125083.8, -5095.231, 0.0, 10.000119, 9.99944 
5.000285e+0, 1.9571562e+2, -1034702.25, -1108153.5, 21012.035, 0.014019621, -0.040601075, -1029116.2, -7121.6025, 0.0, 10.000201, 9.999329 
5.000206e+0, 2.0571682e+2, -944222.25, -984218.44, 12737.775, 0.014860383, 0.13935715, -940510.06, -16525.543, 0.0, 10.000027, 9.999582 
4.9998277e+0, 2.15719e+2, -903111.5, -925218.56, -33569.37, -0.0059245923, 0.33231688, -878822.7, -52854.45, 0.0, 9.999684, 9.999481 
4.999991e+0, 2.2571832e+2, -772927.6, -808021.6, -20546.436, 0.00034494008, 0.323414, -763455.1, -35483.04, 0.0, 9.999894, 9.999513 
5.000595e+0, 2.3571518e+2, -596570.1, -689442.44, -46999.33, 0.02975226, -0.011707413, -576936.2, 53058.19, 0.0, 10.000503, 9.999362 
5.0007516e+0, 2.4571411e+2, -549645.75, -740014.2, -33675.55, 0.036987122, 0.0106547475, -543864.25, -11861.811, 0.0, 10.000683, 9.998254 
5.000564e+0, 2.5571406e+2, -483917.1, -673782.25, -10734.731, 0.025372671, 0.11557922, -483312.1, -49306.793, 0.000000000017365094, 10.000525, 9.998116 
5.000653e+0, 2.6571247e+2, -275565.22, -457193.22, 28156.666, 0.010780527, 0.123515, -271300.4, 64718.375, 0.000000288742, 10.001005, 9.9986925 
5.000957e+0, 2.757097e+2, -44132.266, -298854.94, -10276.945, -0.0060784, -0.09073049, -43718.31, 194322.14, 0.0000033591298, 10.001937, 9.998657 
5.00097e+0, 2.8570867e+2, 49562.082, -207910.5, -54491.336, -0.004090595, -0.05129954, 60619.703, 200664.73, 0.000018802597, 10.001932, 9.998604 
5.0006723e+0, 2.9570732e+2, 61257.31, -142949.7, -92117.11, -0.0029848209, -0.12345723, 96669.94, 138723.56, 0.000081046455, 10.001277, 9.998699 
5.000809e+0, 3.0570436e+2, 53704.508, -299643.94, -68262.83, -0.006583112, -0.22154243, 66433.55, 66433.55, 0.0003038914, 10.00165, 9.997108 
5.0010145e+0, 3.1570426e+2, 325189.34, 53219.25, -82718.266, -0.032743454, 0.010837072, 348371.66, 348371.66, 0.00078894256, 10.00246, 9.999169 
1.4998414e+1, 1.2571836e+2, -1836215.9, -1743928.4, -61165.867, -0.073772766, -0.030630419, -1713452.9, -5496.188, 0.0026043395, 9.998901, 10.000344 
1.5000002e+1, 1.357206e+2, -1689565.9, -1682152.6, 4044.9927, 0.027898243, 0.17459428, -1680372.9, -70434.46, 0.0015429672, 9.999556, 9.999771 
1.5000437e+1, 1.4571771e+2, -1522858.0, -1521938.5, 722.47296, 0.0058757747, -0.09060526, -1521541.9, -9574.615, 0.0006869522, 9.999899, 10.000006 
1.5000118e+1, 1.557185e+2, -1368218.1, -1407191.8, 33402.168, -0.08230061, -0.05184669, -1349034.0, 64923.87, 0.0001968844, 10.000339, 9.999908 
1.4999938e+1, 1.6571897e+2, -1356332.8, -1479298.5, -12055.057, -0.09814617, 0.07138935, -1355162.1, -39205.926, 0.000026649353, 10.000314, 9.998754 
1.4999738e+1, 1.7571843e+2, -1298418.0, -1399147.5, 6173.2603, -0.07154777, 0.113303624, -1298041.1, -80073.17, 0.00000066228677, 10.000019, 9.998778 
1.5000038e+1, 1.8571799e+2, -1153266.3, -1159012.0, 16186.571, -0.024786009, 0.13830717, -1139699.6, -19726.676, 0.0, 9.999861, 9.999817 
1.5000843e+1, 1.9571756e+2, -1052514.1, -1080177.5, 39503.156, 0.04504698, 0.08873799, -1024491.2, -2518.0256, 0.0, 9.999959, 9.999648 
1.5000595e+1, 2.0571671e+2, -1033446.7, -1105758.4, -13134.404, 0.04353066, 0.087979235, -1031134.9, -107153.53, 0.0, 9.999788, 9.998872 
1.4999463e+1, 2.1571532e+2, -985542.3, -1033522.8, -27406.748, -0.019208321, 0.029922545, -973109.2, -147111.34, 0.0, 9.999447, 9.998862 
1.4999963e+1, 2.2571446e+2, -818544.0, -839025.9, -14403.072, 0.00437946, 0.03229998, -811112.25, -83106.67, 0.0, 9.999659, 9.999425 
1.5001757e+1, 2.357139e+2, -637620.5, -708327.0, -10119.249, 0.089600205, 0.0058030104, -636200.75, -6192.9927, 0.0, 10.000255, 9.999361 
1.5002263e+1, 2.4571306e+2, -510385.66, -603410.3, -54980.82, 0.113421, -0.006378213, -484882.1, 47130.324, 0.0, 10.000479, 9.999303 
1.5001684e+1, 2.5571173e+2, -450337.6, -535240.94, -164.61375, 0.078614116, -0.0985197, -450337.28, -16315.712, 0.0, 10.000263, 9.999206 
1.5001965e+1, 2.6571006e+2, -337361.63, -529367.6, 49261.668, 0.03480751, -0.1353597, -325460.56, 10574.996, 0.00000013049092, 10.000803, 9.998305 
1.5002896e+1, 2.7570808e+2, -117679.32, -385538.97, 32542.844, -0.01482328, -0.19122109, -113782.31, 124271.07, 0.0000024373799, 10.001684, 9.998197 
1.500287e+1, 2.8570724e+2, -24641.502, -308229.25, -92986.0, -0.013732949, -0.07824946, 3128.4746, 143189.13, 0.000015368285, 10.001738, 9.998024 
1.5002003e+1, 2.9570633e+2, -20241.982, -237666.38, -88225.125, -0.0106840655, -0.010627067, 11053.016, 53122.69, 0.000069496324, 10.000978, 9.998209 
1.5002511e+1, 3.0570203e+2, 41695.98, -244501.58, -48242.066, -0.0030260356, -0.2357492, 49608.984, 49608.984, 0.00026841622, 10.001399, 9.997631 
1.5003018e+1, 3.157011e+2, 265456.38, 67284.12, -15871.898, -0.09047972, -0.08217476, 266719.53, 266719.53, 0.0007052667, 10.001957, 9.999534 
2.4998467e+1, 1.2571858e+2, -1660936.5, -1626778.8, -4874.3857, 0.0048064957, 0.10236322, -1626096.8, 81863.33, 0.0024837567, 10.000003, 10.000586 
2.4999458e+1, 1.3571987e+2, -1760843.6, -1692736.9, -15196.9375, 0.06111738, 0.17059335, -1689499.9, -79552.72, 0.0014731403, 9.999007, 9.999941 
2.5000036e+1, 1.4571755e+2, -1669887.1, -1587663.3, 20059.615, 0.038626187, -0.04816172, -1583030.5, -71061.15, 0.00065158884, 9.998901, 10.000016 
2.5000548e+1, 1.5571815e+2, -1484484.4, -1463082.3, -19732.51, -0.023278104, -0.039853416, -1451336.0, -37373.29, 0.0001815959, 9.999562, 9.999887 
2.5000575e+1, 1.6571859e+2, -1378252.3, -1447688.3, -42783.95, -0.039231222, 0.06348649, -1357872.1, -41912.03, 0.000022322774, 9.999989, 9.999115 
2.5000268e+1, 1.7571823e+2, -1242206.4, -1328989.9, -27820.072, -0.02140541, 0.07475563, -1234053.9, -16087.283, 0.00000035252413, 10.000242, 9.999133 
2.500048e+1, 1.8571799e+2, -1098350.1, -1150244.4, 11069.973, 0.020513924, 0.11211981, -1096087.4, 23881.41, 0.0, 10.000307, 9.999653 
2.500121e+1, 1.9571777e+2, -1042540.7, -1090826.6, -18422.969, 0.089493215, 0.08401316, -1036314.44, -14346.237, 0.0, 10.000098, 9.999489 
2.5001052e+1, 2.057163e+2, -934813.9, -1091826.0, -7122.9478, 0.07769483, 0.043941952, -934491.4, -10509.387, 0.0, 10.000619, 9.998561 
2.5000158e+1, 2.1571359e+2, -689063.25, -929708.7, -8186.6143, 0.004245249, -0.12112294, -688785.1, 137224.45, 0.0, 10.0016575, 9.998504 
2.5000677e+1, 2.2571284e+2, -585242.8, -766362.7, 29434.373, 0.028952131, -0.07215807, -580579.44, 147438.61, 0.0, 10.001431, 9.999051 
2.5002322e+1, 2.3571335e+2, -671144.75, -768909.0, 2852.2349, 0.1309974, 0.033655167, -671061.56, -41047.67, 0.0, 10.000206, 9.998957 
2.5003093e+1, 2.4571267e+2, -520071.78, -599166.06, -16718.174, 0.1608782, 0.053399153, -516683.22, 15334.911, 0.0, 10.000399, 9.99935 
2.500315e+1, 2.5571075e+2, -241480.33, -430327.72, -57008.652, 0.13747625, -0.11206647, -225605.25, 208426.25, 0.0, 10.001694, 9.999219 
2.5003684e+1, 2.6570895e+2, -208251.03, -476426.4, -4511.761, 0.088363625, -0.15381673, -208175.14, 127871.45, 0.00000003137998, 10.001754, 9.998197 
2.500457e+1, 2.757072e+2, -241313.1, -457472.0, -15471.729, 0.033252534, -0.18378593, -240211.31, -2147.6624, 0.0000016497497, 10.000908, 9.998066 
2.5004458e+1, 2.8570652e+2, -150883.6, -377639.7, -60924.33, 0.022626253, -0.047654945, -135551.28, 4519.5337, 0.000012071121, 10.00092, 9.997928 
2.5003627e+1, 2.95706e+2, 37311.664, -227972.97, -38155.586, 0.04222775, 0.05877721, 42690.48, 84767.164, 0.00005739791, 10.001486, 9.998015 
2.500452e+1, 3.0570135e+2, 68793.95, -217633.64, 66697.63, 0.06860077, -0.19266088, 83563.59, 83563.59, 0.00023072664, 10.001545, 9.997744 
2.5005502e+1, 3.1569967e+2, 164631.27, 59018.227, 20686.313, 0.031611174, -0.15913242, 168538.52, 168538.52, 0.000617959, 10.001132, 9.999843 
3.4999204e+1, 1.2571734e+2, -1696162.4, -1649821.1, -96725.52, 0.004034482, 0.026697408, -1573529.6, 134442.97, 0.0023583595, 9.999807, 10.000519 
3.499789e+1, 1.3571756e+2, -1773901.4, -1695673.5, -37964.023, -0.035260186, 0.008557191, -1680279.0, -70311.6, 0.0013953737, 9.998926, 9.999952 
3.4998512e+1, 1.4571634e+2, -1720298.3, -1654823.5, 26479.658, -0.048798606, -0.0801494, -1645455.0, -133475.0, 0.0006105934, 9.99875, 9.999623 
3.50009e+1, 1.5571775e+2, -1514917.0, -1500565.3, 20478.09, 0.016217569, 0.05068325, -1486042.3, -72072.836, 0.00016453842, 9.999471, 9.999666 
3.50016e+1, 1.6571812e+2, -1330797.4, -1324491.1, -51540.504, 0.025890505, 0.10785094, -1276007.4, 39957.97, 0.000017966355, 9.999876, 10.000024 
3.5001117e+1, 1.7571697e+2, -1199653.4, -1223439.3, -2414.234, 0.0015847605, -0.041505132, -1199410.9, 18562.986, 0.00000014192928, 10.000165, 9.999901 
3.500099e+1, 1.8571639e+2, -1145828.0, -1209068.3, -12052.8955, 0.0067751063, -0.05368927, -1143608.8, -23630.428, 0.0, 10.000147, 9.999321 
3.500102e+1, 1.9571622e+2, -1081985.3, -1137261.1, -7828.1416, 0.025808705, -0.036096256, -1080898.0, -58918.055, 0.0, 9.999954, 9.999237 
3.500124e+1, 2.0571543e+2, -932436.06, -1046845.2, 14611.028, 0.004744584, -0.016389221, -930599.6, -6612.133, 0.0, 10.000455, 9.998948 
3.5001582e+1, 2.1571384e+2, -690447.2, -889592.44, 40776.645, -0.05068868, -0.103598386, -682421.25, 143581.86, 0.0, 10.00148, 9.998863 
3.5001785e+1, 2.2571336e+2, -638547.56, -825774.2, -28007.648, -0.03439785, -0.023636714, -634447.6, 93562.46, 0.0, 10.0012245, 9.998738 
3.5001895e+1, 2.3571368e+2, -723573.75, -825419.44, -20967.488, 0.034158673, 0.09877832, -719426.0, -89414.445, 0.0, 9.999997, 9.998663 
3.5002935e+1, 2.4571294e+2, -594758.4, -719884.8, 18730.12, 0.074410796, 0.16864476, -592014.8, -59995.58, 0.0, 10.000249, 9.998597 
3.5004616e+1, 2.5571114e+2, -315317.94, -540266.44, 2906.999, 0.08150422, 0.09703676, -315280.38, 118754.086, 0.0, 10.001512, 9.998551 
3.5005447e+1, 2.6570928e+2, -193381.5, -421573.03, -49818.46, 0.058703236, 0.055955987, -182979.39, 153071.58, 0.0000000045955626, 10.00165, 9.998621 
3.5005534e+1, 2.7570722e+2, -228720.97, -396875.63, -24815.176, 0.0031525977, -0.04547864, -225135.36, 12934.482, 0.0000011896407, 10.00076, 9.998551 
3.500542e+1, 2.857065e+2, -116334.945, -283677.16, -53077.055, -0.007895742, 0.026629267, -100920.086, 39155.1, 0.000009641755, 10.0008335, 9.998615 
3.5005137e+1, 2.9570627e+2, 47388.043, -172565.67, -4991.4824, 0.0024853065, 0.10745848, 47501.258, 89576.26, 0.0000464018, 10.001345, 9.998467 
3.5006282e+1, 3.0570206e+2, 68424.79, -207647.67, 39752.13, 0.059258986, -0.12257815, 74034.766, 74034.766, 0.00019513248, 10.001481, 9.997837 
3.5007623e+1, 3.1570053e+2, 180098.42, 109434.5, 45375.78, 0.053623196, -0.09741944, 202275.67, 202275.67, 0.00053834624, 10.001032, 10.000235 
4.4998875e+1, 1.2571596e+2, -2051678.6, -1791002.9, -40309.33, 0.14978927, 0.001334034, -1784912.0, -76926.445, 0.0022337737, 9.997262, 10.000759 
4.4997922e+1, 1.357159e+2, -1500432.4, -1548034.6, -44597.7, 0.0075939307, -0.061933007, -1473682.0, 136299.97, 0.0013153872, 10.000745, 10.000083 
4.4998553e+1, 1.457155e+2, -1384111.3, -1517195.5, 15707.691, -0.019817637, -0.062326584, -1382282.5, 129704.28, 0.00056916923, 10.0011425, 9.999432 
4.5000577e+1, 1.5571648e+2, -1549931.4, -1539592.3, -12274.577, 0.06166403, 0.05025121, -1531443.0, -117461.21, 0.00014812649, 9.999308, 9.9994955 
4.5001626e+1, 1.6571681e+2, -1410861.4, -1317257.5, -23292.078, 0.092179604, 0.08990272, -1311781.9, 4195.8623, 0.000013959289, 9.999145, 10.0004225 
4.5002034e+1, 1.7571592e+2, -1162633.8, -1165907.6, -46001.67, 0.08518926, -0.06983759, -1118239.9, 99741.5, 0.000000037538413, 10.000255, 10.000254 
4.5001984e+1, 1.8571532e+2, -1103364.9, -1213533.4, -67682.734, 0.0849956, -0.08609423, -1071183.9, 48802.703, 0.0, 10.000541, 9.999113 
4.500145e+1, 1.9571497e+2, -1073893.6, -1154704.9, -79786.586, 0.079401605, -0.06604137, -1024864.9, -2872.3406, 0.0, 10.000092, 9.9990635 
4.5001638e+1, 2.0571464e+2, -982842.25, -1025912.5, 8283.83, 0.039050482, -0.0138174975, -981303.94, -57308.008, 0.0, 9.999902, 9.999364 
4.5002377e+1, 2.1571405e+2, -903980.56, -951811.2, 4980.7114, -0.02275063, -0.041347325, -903467.4, -77467.18, 0.0, 9.999831, 9.999233 
4.5002782e+1, 2.2571348e+2, -770933.94, -931415.4, -48131.96, -0.007748883, 0.027681926, -757605.1, -29596.645, 0.0, 10.000492, 9.998374 
4.500295e+1, 2.357127e+2, -505183.25, -761502.7, -72391.4, 0.06870797, 0.08408604, -486151.16, 143870.06, 0.0, 10.001678, 9.998303 
4.5004168e+1, 2.4571171e+2, -383485.47, -635310.5, 31112.537, 0.10981866, 0.15341616, -379698.53, 152334.05, 0.0, 10.001778, 9.998439 
4.5006135e+1, 2.5571018e+2, -392161.06, -596672.8, 28060.666, 0.115961425, 0.123611964, -388380.78, 45665.645, 0.0, 10.001056, 9.998385 
4.5006743e+1, 2.6570874e+2, -321897.06, -444197.38, -6364.168, 0.08732442, 0.115093164, -321566.78, 14492.14, 0.000000013083459, 10.0006, 9.998968 
4.5006448e+1, 2.7570727e+2, -251014.08, -372564.47, -11605.225, 0.04703892, 0.041272167, -249915.97, -11844.61, 0.0000010541644, 10.000451, 9.998872 
4.5006597e+1, 2.8570613e+2, -113336.35, -269759.4, 3054.01, 0.039521225, 0.05381277, -113276.75, 26802.857, 0.000008106713, 10.000807, 9.998728 
4.500692e+1, 2.9570493e+2, 77446.24, -154424.36, -27979.81, 0.049748905, 0.022310613, 80774.78, 122862.76, 0.000037622078, 10.001544, 9.998496 
4.5008057e+1, 3.0570185e+2, 39927.72, -284336.8, -21323.236, 0.09960444, -0.061365653, 41323.9, 41323.9, 0.00016443121, 10.001546, 9.997273 
4.5009387e+1, 3.1570008e+2, 164257.4, 115574.01, -115187.52, 0.15224904, -0.018864365, 257647.11, 257647.11, 0.00047154687, 10.0008545, 10.000357 
5.4995924e+1, 1.2571466e+2, -2025281.4, -1750527.5, 37455.98, 0.030231364, 0.025711644, -1745512.8, -37516.06, 0.0021078985, 9.997296, 10.001028 
5.4998964e+1, 1.3571486e+2, -1473577.8, -1513009.5, 88889.52, -0.016621692, -0.037705228, -1402243.9, 207747.0, 0.0012334009, 10.000819, 10.000291 
5.4999727e+1, 1.4571501e+2, -1381967.6, -1515020.4, -77710.234, -0.07455932, 0.0045767357, -1346197.1, 165792.58, 0.00052778376, 10.001145, 9.999448 
5.499907e+1, 1.5571445e+2, -1553237.0, -1548094.5, -58245.992, -0.06619711, -0.035087105, -1492363.0, -78363.96, 0.00013278752, 9.999307, 9.99944 
5.499998e+1, 1.6571473e+2, -1437970.3, -1352434.3, 2769.9968, -0.02821155, 0.013167052, -1352344.6, -36348.305, 0.0000106646075, 9.99906, 10.000215 
5.5002403e+1, 1.7571509e+2, -1178763.0, -1187418.1, 6671.0596, 0.05397879, -0.006631908, -1175138.8, 42850.92, 0.000000007551507, 10.00021, 10.000119 
5.500297e+1, 1.8571484e+2, -1122447.0, -1230257.9, -101884.52, 0.09253241, 0.017351199, -1061086.4, 58906.984, 0.0, 10.00044, 9.999049 
5.5002e+1, 1.9571398e+2, -1088168.1, -1163845.8, -82650.664, 0.08649474, -0.002810433, -1035106.44, -13100.33, 0.0, 10.000004, 9.9990425 
5.5001724e+1, 2.0571396e+2, -972025.94, -964104.25, -7482.146, 0.025485827, 0.051572748, -959599.25, -35592.6, 0.0, 9.9997425, 9.999861 
5.5002004e+1, 2.1571429e+2, -894388.25, -898663.06, 20427.902, -0.07858483, 0.070106484, -875986.25, -49985.67, 0.0, 9.999693, 9.999662 
5.500315e+1, 2.2571312e+2, -819047.8, -999784.9, -16305.736, -0.05398565, 0.08219515, -817588.56, -89575.58, 0.0, 10.000359, 9.99797 
5.5005026e+1, 2.357106e+2, -550319.6, -824166.56, -16845.578, 0.073878534, 0.0028252043, -549287.25, 80754.336, 0.0, 10.001544, 9.997938 
5.500624e+1, 2.4570899e+2, -370489.75, -583668.5, -7587.7217, 0.10376113, 0.0057435343, -370220.03, 161838.05, 0.0, 10.001677, 9.998838 
5.5007064e+1, 2.5570783e+2, -389597.38, -545609.56, 17500.148, 0.064400785, -0.028687315, -387658.44, 46409.07, 0.0, 10.000876, 9.998814 
5.500719e+1, 2.6570743e+2, -309994.47, -411242.94, -26571.324, 0.032899994, 0.03108733, -303444.84, 32625.035, 0.000000016276152, 10.000551, 9.999225 
5.5006903e+1, 2.7570736e+2, -250407.44, -352433.8, 1523.6241, 0.007817758, 0.07296424, -250384.69, -12315.742, 0.00000094951764, 10.000357, 9.999064 
5.500738e+1, 2.8570545e+2, -151146.98, -336291.0, 16814.484, -0.000202484, 0.02333049, -149632.31, -9547.472, 0.0000068871877, 10.000762, 9.998286 
5.5008376e+1, 2.9570186e+2, 31803.344, -226868.58, 12620.578, -0.0059738117, -0.19866827, 32417.643, 74533.766, 0.00003070153, 10.001441, 9.998048 
5.5009365e+1, 3.057007e+2, -43914.445, -438432.44, -56062.0, 0.04121345, -0.020707605, -36102.574, -36102.574, 0.00013855331, 10.001474, 9.996251 
5.500989e+1, 3.1569806e+2, 136694.13, 93686.2, -87684.19, 0.040449556, 0.047839858, 205472.7, 205472.7, 0.0004144919, 10.000718, 10.000269 
6.4995e+1, 1.2571272e+2, -1598410.6, -1560527.4, 59129.867, 0.08452567, 0.02003568, -1517379.4, 190635.02, 0.0019834668, 10.000251, 10.000933 
6.499884e+1, 1.3571264e+2, -1859881.5, -1719653.9, 28570.002, 0.035765294, -0.044953283, -1714056.4, -104043.33, 0.001149572, 9.998223, 10.000142 
6.499979e+1, 1.4571345e+2, -1774762.0, -1653210.8, -117690.31, -0.024577577, 0.04607563, -1581530.0, -69524.77, 0.00048384682, 9.998254, 9.999883 
6.4998764e+1, 1.5571254e+2, -1412193.3, -1431681.1, -106371.92, -0.052709352, -0.06928703, -1315119.9, 98896.25, 0.00011744106, 10.000093, 9.999841 
6.499972e+1, 1.6571291e+2, -1249062.5, -1263323.0, 13607.462, -0.012075424, -0.032413647, -1240830.4, 75182.195, 0.000008467286, 10.000355, 10.000206 
6.500237e+1, 1.7571369e+2, -1317425.9, -1259145.9, -1403.6132, 0.088096134, -0.0070705474, -1259112.1, -41109.066, 0.000000004638606, 9.999273, 10.000085 
6.5003073e+1, 1.8571378e+2, -1271589.0, -1270082.0, -57476.773, 0.12795924, 0.04050838, -1213353.8, -93350.24, 0.0, 9.999289, 9.999323 
6.500217e+1, 1.9571318e+2, -1059483.6, -1123798.4, -46472.92, 0.11036734, 0.018306129, -1035127.06, -13113.698, 0.0, 10.000094, 9.999271 
6.5002215e+1, 2.0571305e+2, -861604.4, -942809.4, 30834.496, 0.06685325, 0.06614479, -851223.25, 72792.43, 0.0, 10.0006275, 9.99958 
6.5002966e+1, 2.1571304e+2, -747935.5, -852058.3, -22555.633, 0.0031176328, 0.07683484, -743259.4, 82754.84, 0.0, 10.000804, 9.999442 
6.50044e+1, 2.2571184e+2, -720493.4, -913004.44, -6702.6514, 0.021133117, 0.0763093, -720260.3, 7765.7974, 0.0, 10.000853, 9.998331 
6.50064e+1, 2.3570953e+2, -634165.25, -823967.06, 19811.7, 0.106200516, -0.019696107, -632119.3, -2069.5176, 0.0, 10.000779, 9.998308 
6.5007484e+1, 2.4570803e+2, -484709.78, -634424.5, 38752.934, 0.112618, -0.025291339, -475273.53, 56791.35, 0.0, 10.0008545, 9.998909 
6.500794e+1, 2.55707e+2, -361146.7, -525451.2, 8329.963, 0.06965908, -0.05389394, -360725.47, 73349.62, 0.0, 10.001023, 9.998905 
6.500801e+1, 2.6570675e+2, -258319.92, -370096.9, -22270.213, 0.055390857, 0.01309044, -254046.25, 82029.72, 0.00000000394634, 10.000842, 9.999373 
6.500783e+1, 2.7570698e+2, -217193.33, -314566.25, -28713.338, 0.068226285, 0.06934339, -209356.98, 28714.219, 0.0000007712445, 10.000513, 9.999239 
6.5008545e+1, 2.857049e+2, -154021.48, -347849.0, 64542.836, 0.050986644, -0.0006380919, -134496.19, 5592.3647, 0.000006042053, 10.00078, 9.998201 
6.5010035e+1, 2.9570088e+2, 26420.527, -225721.31, 52046.3, 0.031346966, -0.26274556, 36741.3, 78866.35, 0.000026519589, 10.001403, 9.998068 
6.501103e+1, 3.0570066e+2, -97801.35, -462973.1, 19821.674, 0.094500974, 0.0064835884, -96728.57, -96728.57, 0.00012024143, 10.001085, 9.996278 
6.501067e+1, 3.1569752e+2, 19333.588, 52956.332, 21243.219, 0.11240883, 0.032853898, 63235.484, 63235.484, 0.00036921015, 9.99981, 10.000455 
7.49952e+1, 1.2570989e+2, -1605271.4, -1582076.0, -78797.17, -0.011090604, -0.013432028, -1514027.6, 194013.22, 0.0018629195, 10.000294, 10.000756 
7.4996924e+1, 1.3570912e+2, -1885597.1, -1781340.9, -31437.668, -0.025306428, -0.098223954, -1772594.9, -162545.22, 0.0010666472, 9.9982605, 9.9997 
7.499793e+1, 1.457108e+2, -1726384.3, -1539254.6, -65671.42, -0.08407391, 0.057085168, -1518508.0, -6474.651, 0.0004391749, 9.998197, 10.000692 
7.4999154e+1, 1.5571065e+2, -1355812.1, -1324686.3, -26693.393, -0.069170736, -0.064239636, -1309350.3, 104684.125, 0.00010226521, 10.000125, 10.000567 
7.500033e+1, 1.6571121e+2, -1246908.1, -1244527.9, -44499.48, -0.026576085, -0.04912558, -1201202.6, 114825.07, 0.000007138289, 10.000298, 10.0003605 
7.500151e+1, 1.757117e+2, -1311483.9, -1238907.9, -24053.227, 0.03378559, -0.07074642, -1231659.9, -13638.734, 0.00000003688298, 9.999236, 10.000243 
7.50018e+1, 1.8571211e+2, -1246001.9, -1199091.5, -41057.58, 0.03541268, -0.02626169, -1175261.8, -55244.453, 0.0, 9.999204, 9.999857 
7.500149e+1, 1.9571239e+2, -1034594.94, -1061467.5, -3319.1775, -0.0058824853, -0.016269175, -1034191.0, -12174.884, 0.0, 10.000045, 9.999726 
7.5002664e+1, 2.057118e+2, -949919.56, -1098732.8, 24820.768, 0.014044171, 0.019107774, -945888.8, -21864.758, 0.0, 10.000513, 9.998563 
7.500482e+1, 2.1571024e+2, -826241.4, -987712.06, -2814.1711, 0.07167904, -0.027143285, -826192.3, -150.53766, 0.0, 10.000681, 9.998572 
7.5006056e+1, 2.2570959e+2, -659125.3, -754543.8, -21907.623, 0.06905984, 0.006615831, -654335.8, 73711.945, 0.0, 10.00072, 9.999482 
7.500666e+1, 2.3570943e+2, -583307.56, -684901.56, 34394.574, 0.018731087, 0.009241967, -572758.6, 57288.027, 0.0, 10.0006275, 9.999339 
7.50074e+1, 2.457089e+2, -518732.88, -681559.56, 31868.313, -0.012032289, 0.064515784, -512717.84, 19335.275, 0.0, 10.000754, 9.99863 
7.500833e+1, 2.5570777e+2, -401703.44, -578316.2, 28319.576, -0.028210552, 0.05506493, -397273.53, 36794.527, 0.0, 10.000881, 9.998612 
7.5008637e+1, 2.657069e+2, -273191.25, -374109.1, -48180.58, 0.0016523196, 0.07464924, -253882.9, 82192.49, 0.00000000015133415, 10.000738, 9.999391 
7.500863e+1, 2.7570617e+2, -236626.86, -321379.6, -19865.814, 0.059160125, 0.029618304, -232201.45, 5876.4443, 0.00000065427645, 10.000375, 9.999256 
7.500968e+1, 2.8570455e+2, -133015.2, -297289.88, 75308.85, 0.04951241, -0.015968043, -103716.62, 36374.008, 0.0000058927376, 10.000744, 9.9985695 
7.5011396e+1, 2.9570183e+2, 44568.145, -165567.58, 89709.74, -0.016746111, -0.17863388, 77656.336, 119771.45, 0.000025865007, 10.001287, 9.998547 
7.501248e+1, 3.0570167e+2, -39678.203, -320065.34, -31232.887, 0.095460154, 0.013546811, -36241.24, -36241.24, 0.00011203884, 10.001005, 9.997286 
7.501073e+1, 3.1569815e+2, 33995.77, 124858.84, 29459.523, 0.06390258, -0.09256261, 133574.22, 133574.22, 0.00034091447, 9.99964, 10.001021 
8.499575e+1, 1.2570857e+2, -1727092.5, -1661611.4, 33276.395, 0.06707571, -0.03637507, -1647669.4, 60382.18, 0.0017451695, 9.999569, 10.000547 
8.4995735e+1, 1.3570733e+2, -1634436.1, -1704865.1, 27206.848, -0.049668033, -0.116904356, -1625150.4, -15083.234, 0.0009891815, 10.000202, 9.999275 
8.4996706e+1, 1.4570917e+2, -1463232.1, -1402376.8, 46826.824, -0.09864553, 0.06550663, -1376960.1, 135090.03, 0.000399723, 9.99993, 10.000812 
8.499939e+1, 1.557092e+2, -1507373.6, -1386038.9, 256.02377, 0.0082901465, -0.046495322, -1386038.4, 28010.203, 0.00008899464, 9.999029, 10.000679 
8.5000694e+1, 1.6570982e+2, -1415300.9, -1311450.6, -33758.402, 0.050888237, -0.036151808, -1301441.5, 14599.632, 0.000006071428, 9.999095, 10.000475 
8.500101e+1, 1.7571022e+2, -1224924.1, -1179985.6, -46797.758, 0.044729955, -0.076822795, -1150542.5, 67493.12, 0.000000076650345, 9.999777, 10.000376 
8.500134e+1, 1.8571053e+2, -1085073.6, -1135100.6, -33976.54, 0.021414183, -0.043186, -1067896.1, 52136.395, 0.0, 10.000359, 9.999744 
8.5001755e+1, 1.9571073e+2, -939943.0, -1030316.25, -74936.96, -0.008916226, -0.026588736, -897623.2, 124408.305, 0.0, 10.000749, 9.999604 
8.500333e+1, 2.0571004e+2, -926068.2, -1098768.1, -30668.066, 0.02781507, 0.009650994, -920783.8, 3256.9583, 0.0, 10.000733, 9.998457 
8.500563e+1, 2.157084e+2, -875396.25, -1019397.56, -22921.947, 0.109361656, -0.031566486, -871835.6, -45775.2, 0.0, 10.000385, 9.998501 
8.500676e+1, 2.2570792e+2, -693932.75, -710625.2, -14007.209, 0.10053809, -0.005437426, -685973.75, 42090.285, 0.0, 10.000232, 10.000011 
8.500707e+1, 2.357082e+2, -615648.1, -641272.94, -33474.363, 0.02985062, -0.010325639, -592617.94, 37438.65, 0.0, 10.000171, 9.999849 
8.5007936e+1, 2.4570803e+2, -597760.06, -702696.0, -4238.456, 0.0061615366, 0.05194536, -597589.2, -65530.19, 0.0, 10.000135, 9.998771 
8.5009265e+1, 2.5570732e+2, -498778.9, -606595.7, -5024.43, 0.024427025, 0.06998805, -498545.25, -64474.59, 0.0, 10.000153, 9.998751 
8.500955e+1, 2.6570633e+2, -315619.3, -407921.44, -41439.74, 0.043811165, 0.07018967, -299744.78, 36334.992, 0.0000000019213902, 10.000461, 9.999308 
8.5009295e+1, 2.7570486e+2, -178995.06, -303262.9, -50116.316, 0.078528315, -0.040020417, -161302.48, 76786.53, 0.0000006294421, 10.000771, 9.999207 
8.501052e+1, 2.8570378e+2, -168647.83, -298701.3, 63678.523, 0.08557821, -0.041601114, -142661.2, -2563.5215, 0.0000062489003, 10.000427, 9.998712 
8.501279e+1, 2.9570258e+2, -146597.17, -232354.64, 31777.668, 0.078356005, -0.06711514, -136105.45, -93996.53, 0.000027811611, 9.999869, 9.998767 
8.501385e+1, 3.057014e+2, -73176.22, -253820.84, -83755.89, 0.17667142, -0.021988504, -40319.11, -40319.11, 0.00011222166, 10.0004, 9.998046 
8.501152e+1, 3.1569833e+2, 255813.69, 228046.56, -80025.984, 0.12187895, -0.1615245, 323151.5, 323151.5, 0.00032900518, 10.001181, 10.000979 
9.4995636e+1, 1.2570895e+2, -1756219.5, -1709657.8, 4865.887, 0.017636165, -0.03498538, -1709154.8, -1110.1052, 0.0016362383, 9.999518, 10.000238 
9.4994634e+1, 1.3570726e+2, -1656230.9, -1775883.5, 61352.563, -0.22399817, -0.11247742, -1630363.9, -20297.992, 0.0009229167, 10.000301, 9.998741 
9.4995636e+1, 1.4570856e+2, -1503250.1, -1481665.6, -2609.9365, -0.24435577, 0.06884624, -1481354.5, 30700.95, 0.00036888671, 9.999917, 10.000272 
9.499901e+1, 1.5570834e+2, -1544263.6, -1465795.9, -12611.396, 0.024265122, -0.010772625, -1463818.8, -49761.105, 0.00007923838, 9.999039, 10.000128 
9.500044e+1, 1.6570887e+2, -1420945.4, -1309603.3, -20937.93, 0.07993173, 0.01341668, -1305796.1, 10255.756, 0.0000051224774, 9.999032, 10.00052 
9.500035e+1, 1.7570934e+2, -1225714.8, -1181066.8, -4995.067, -0.038864456, -0.026111655, -1180514.8, 37531.004, 0.00000007826353, 9.999769, 10.000374 
9.500115e+1, 1.8570909e+2, -1151973.3, -1257505.4, -33182.563, -0.066258535, -0.0041107386, -1142406.9, -22358.02, 0.0, 10.000284, 9.9989395 
9.500253e+1, 1.9570826e+2, -1000072.56, -1138048.4, -46754.85, -0.04326088, -0.016028857, -985721.7, 36337.67, 0.0, 10.00067, 9.998901 
9.50038e+1, 2.0570783e+2, -894504.75, -1006578.6, -58040.258, -0.031256583, 0.043257087, -869864.5, 54200.906, 0.0, 10.00061, 9.999152 
9.500492e+1, 2.1570738e+2, -849268.56, -936726.1, -18467.545, -0.03460762, 0.049970526, -845528.8, -19457.521, 0.0, 10.000257, 9.999133 
9.5005995e+1, 2.2570668e+2, -722262.3, -739133.9, -28217.303, -0.032684945, 0.030463804, -701246.8, 26829.36, 0.0, 10.000101, 9.999876 
9.500713e+1, 2.3570558e+2, -639178.25, -666008.6, -22652.164, -0.017607268, -0.1006815, -626266.9, 3815.291, 0.0, 10.000055, 9.999738 
9.5008606e+1, 2.4570534e+2, -571950.6, -624286.6, -17639.438, 0.025788864, -0.07284231, -566560.5, -34476.59, 0.0, 10.000026, 9.999364 
9.501032e+1, 2.5570554e+2, -473911.13, -537227.06, 15288.171, 0.07689131, -0.025885457, -470412.94, -36328.305, 0.0, 10.000059, 9.999279 
9.501036e+1, 2.6570475e+2, -338190.8, -429047.72, -43487.74, 0.046546467, -0.02475975, -320731.06, 15360.887, 0.0000000017799018, 10.000366, 9.9992 
9.500927e+1, 2.7570295e+2, -208713.94, -330350.25, -27923.97, -0.036992148, -0.15682115, -202609.78, 35496.46, 0.0000005677249, 10.000628, 9.9990835 
9.501054e+1, 2.857026e+2, -185750.25, -320935.34, 25992.258, 0.00954719, -0.0708228, -180924.92, -40815.406, 0.0000064583187, 10.00037, 9.998585 
9.5013666e+1, 2.95703e+2, -176645.33, -264629.4, 40324.348, 0.13643974, 0.0720701, -160960.3, -118853.28, 0.000029725905, 9.999734, 9.9986105 
9.5014673e+1, 3.0569994e+2, -36789.766, -163812.38, -58540.43, 0.18575706, -0.09831141, -13925.912, -13925.912, 0.0001135958, 10.00034, 9.998683 
9.501204e+1, 3.156982e+2, 183849.61, 110422.94, 6933.079, -0.020195646, -0.1675688, 184498.5, 184498.5, 0.00032168903, 10.001041, 10.000236 
1.0499509e+2, 1.257086e+2, -1763374.9, -1696009.4, -3302.9592, 0.039318476, -0.040880717, -1695847.9, 12199.767, 0.0015480418, 9.999363, 10.000422 
1.0499483e+2, 1.3570708e+2, -1761264.5, -1805076.8, 52984.793, -0.17939547, -0.118087746, -1725835.9, -115770.48, 0.00087241904, 9.999479, 9.998945 
1.0499602e+2, 1.4570801e+2, -1541892.9, -1519577.1, 42946.6, -0.17813879, 0.024080282, -1486362.5, 25695.203, 0.0003471946, 9.999757, 10.000076 
1.0499892e+2, 1.5570757e+2, -1392348.8, -1429716.8, 24376.46, 0.06391825, -0.048822198, -1380319.5, 33742.582, 0.000073446034, 10.000241, 9.999798 
1.05000176e+2, 1.6570784e+2, -1261087.5, -1285576.6, 55349.0, 0.09416124, -0.007290979, -1216644.9, 99414.99, 0.000004420773, 10.000362, 10.000039 
1.0500035e+2, 1.7570816e+2, -1197120.3, -1221576.9, 1249.4276, -0.0293438, -0.014430657, -1197056.6, 21000.809, 0.000000050630582, 10.000202, 9.999887 
1.05001524e+2, 1.857078e+2, -1130555.4, -1244175.0, 21860.59, -0.056921594, 0.015231426, -1126494.5, -6432.066, 0.0, 10.000433, 9.998951 
1.0500341e+2, 1.9570683e+2, -982332.0, -1122603.5, 31566.152, -0.018144907, -0.010614896, -975555.8, 46518.05, 0.0, 10.000782, 9.99894 
1.0500466e+2, 2.057065e+2, -867776.0, -952893.2, 30619.262, 0.003935154, 0.0367594, -857905.9, 66172.06, 0.0, 10.000619, 9.9995165 
1.0500547e+2, 2.1570636e+2, -870328.2, -908747.56, 16832.996, 0.020683711, 0.03767467, -863996.5, -37917.316, 0.0, 9.999947, 9.999475 
1.0500638e+2, 2.2570567e+2, -753343.25, -776207.1, 48874.85, 0.009904338, 0.01607481, -714581.2, 13502.834, 0.0, 9.999977, 9.999697 
1.0500743e+2, 2.3570448e+2, -578383.06, -651313.9, 21568.865, -0.00766303, -0.102605954, -572481.75, 57610.87, 0.0, 10.000545, 9.99961 
1.0500879e+2, 2.4570423e+2, -502151.47, -565540.4, 16523.824, 0.031295758, -0.08123055, -498102.75, 33991.52, 0.0, 10.0004, 9.99959 
1.05010495e+2, 2.5570446e+2, -517900.1, -532584.3, -3381.9563, 0.11651067, -0.0544245, -517158.63, -83065.58, 0.0, 9.999663, 9.999497 
1.05010875e+2, 2.657038e+2, -416332.72, -477100.34, -12580.668, 0.09393674, -0.043650825, -413831.16, -77731.66, 0.00000000014537505, 9.999896, 9.999088 
1.0501042e+2, 2.7570227e+2, -174729.72, -324859.1, -31249.826, 0.0105924755, -0.13716993, -168484.75, 69628.79, 0.00000042821608, 10.000931, 9.998968 
1.0501151e+2, 2.8570202e+2, -95039.625, -266046.63, 11708.621, 0.049390264, -0.037876163, -94241.67, 45874.355, 0.0000059800022, 10.000926, 9.998704 
1.05013795e+2, 2.9570255e+2, -131418.77, -237005.66, 13933.832, 0.17525625, 0.0993943, -129610.93, -87498.96, 0.000029321069, 10.000007, 9.998676 
1.0501477e+2, 3.056987e+2, -63318.754, -177280.36, -11242.302, 0.18372433, -0.14932686, -62220.29, -62220.29, 0.000109980174, 10.00017, 9.998672 
1.05013885e+2, 3.1569842e+2, 156761.86, 32820.31, -41525.36, 0.07180981, -0.07466201, 169388.22, 169388.22, 0.0003078243, 10.001131, 9.999663 
1.1499311e+2, 1.2570731e+2, -1709963.6, -1601650.3, -55070.27, -0.18029353, -0.060954314, -1578569.1, 129493.18, 0.0014882531, 9.999422, 10.001045 
1.1499584e+2, 1.3570671e+2, -1690340.1, -1668161.5, 68549.77, -0.06823407, -0.14040583, -1609809.9, 256.60144, 0.000840427, 9.999518, 9.999865 
1.1499749e+2, 1.4570737e+2, -1546409.1, -1511967.1, 43553.273, -0.050509524, -0.07438908, -1482353.8, 29704.725, 0.00033535642, 9.999681, 10.000166 
1.149984e+2, 1.5570682e+2, -1391828.5, -1427235.8, 59747.33, -0.054410808, -0.16841444, -1347217.0, 66845.61, 0.0000716502, 10.000247, 9.999805 
1.149994e+2, 1.6570678e+2, -1339445.6, -1443010.0, 35638.523, -0.059125952, -0.09965173, -1328366.9, -12301.701, 0.0000041980056, 10.000332, 9.998979 
1.1500061e+2, 1.7570668e+2, -1261905.6, -1351496.4, 11160.939, -0.06103619, -0.048541807, -1260536.1, -42465.02, 0.000000024917117, 10.000183, 9.999003 
1.1500215e+2, 1.8570659e+2, -1096273.4, -1142931.8, 20556.52, -0.06971454, 0.012154754, -1088508.8, 31565.057, 0.0, 10.000307, 9.999709 
1.1500385e+2, 1.9570638e+2, -943500.9, -1023849.4, 56864.45, -0.092730805, -0.01496186, -914050.9, 108024.83, 0.0, 10.000706, 9.999658 
1.15005426e+2, 2.05706e+2, -885883.94, -961707.1, -10833.482, -0.014329583, -0.006296408, -884366.44, 39712.2, 0.0, 10.000492, 9.999519 
1.15006834e+2, 2.1570517e+2, -890971.94, -920913.0, 6528.3887, 0.1309695, -0.07501961, -889610.44, -63525.04, 0.0, 9.999809, 9.99946 
1.15007475e+2, 2.257049e+2, -790036.75, -818211.1, 55906.086, 0.094033875, -0.041910335, -746470.3, -18382.637, 0.0, 9.999836, 9.999473 
1.1500753e+2, 2.3570485e+2, -613952.4, -692756.0, 55343.64, -0.085343696, -0.02670452, -585417.3, 44671.27, 0.0, 10.000397, 9.999398 
1.1500812e+2, 2.4570464e+2, -531934.94, -596413.1, -25407.746, -0.10788795, 0.015716158, -523126.34, 8964.419, 0.0, 10.0002775, 9.9994335 
1.1500924e+2, 2.5570402e+2, -548919.44, -564849.44, -15194.969, -0.009504924, -0.022783771, -539728.44, -105632.12, 0.0, 9.999528, 9.999341 
1.1501065e+2, 2.657035e+2, -435386.13, -500744.7, 13854.872, 0.051156167, 0.014409183, -432570.44, -96467.84, 0.0, 9.999825, 9.998967 
1.1501232e+2, 2.7570277e+2, -198869.08, -348125.84, 22224.92, 0.07223643, 0.016554315, -195630.0, 42481.38, 0.0000002594802, 10.000805, 9.9988785 
1.1501291e+2, 2.8570205e+2, -83520.81, -219647.77, -34874.08, 0.063018255, 0.050575458, -75106.59, 65011.375, 0.000005001763, 10.000839, 9.9990635 
1.1501271e+2, 2.9570112e+2, -142639.97, -222848.88, -1437.714, 0.024573438, 0.013033935, -142614.2, -100489.65, 0.000026475647, 9.999851, 9.998851 
1.15013726e+2, 3.056976e+2, -119092.88, -271286.56, 22138.576, 0.029207248, -0.16872558, -115937.94, -115937.94, 0.000100772006, 10.000097, 9.9980545 
1.1501611e+2, 3.1569892e+2, 110792.914, -28444.514, 37268.82, 0.10575657, 0.11057339, 120140.84, 120140.84, 0.00028477798, 10.000994, 9.999308 
1.2499333e+2, 1.257067e+2, -1600651.1, -1561424.5, -6389.129, -0.12744962, -0.041290116, -1560410.1, 147659.73, 0.0014562852, 10.000253, 10.000907 
1.249964e+2, 1.3570632e+2, -1581167.5, -1600485.5, 9167.919, 0.01881786, -0.11278764, -1577509.3, 32561.37, 0.0008261713, 10.000204, 9.999998 
1.2499805e+2, 1.4570664e+2, -1493396.4, -1498733.9, 1013.80396, 0.031806175, -0.08195899, -1493210.3, 18855.266, 0.00033346904, 10.000097, 10.000054 
1.2499859e+2, 1.5570602e+2, -1400898.8, -1443293.1, -37290.563, -0.04946653, -0.17018627, -1379201.9, 34868.51, 0.00007407354, 10.000236, 9.999696 
1.2499963e+2, 1.6570587e+2, -1339307.5, -1449969.5, -10568.375, -0.062020507, -0.10853753, -1338307.3, -22233.436, 0.000004716059, 10.000347, 9.998935 
1.2500115e+2, 1.7570561e+2, -1248028.4, -1352596.1, 12132.224, -0.021174284, -0.06283252, -1246639.3, -28558.883, 0.000000012759114, 10.000287, 9.998961 
1.2500261e+2, 1.8570554e+2, -1122268.0, -1133787.3, 64015.125, -0.02984512, -0.009562017, -1063754.0, 56328.746, 0.0, 10.00003, 9.9999 
1.2500402e+2, 1.9570555e+2, -1095537.6, -1079415.1, 27020.83, -0.07892717, -0.03188455, -1059278.6, -37196.445, 0.0, 9.999578, 9.999819 
1.2500581e+2, 2.0570523e+2, -960296.75, -983757.44, -22984.623, 0.012427453, -0.031658426, -946222.2, -22138.178, 0.0, 9.99993, 9.999631 
1.2500784e+2, 2.157044e+2, -739812.44, -836875.94, -28005.225, 0.20976217, -0.111426346, -732311.8, 93778.01, 0.0, 10.000808, 9.999547 
1.2500836e+2, 2.2570415e+2, -672596.94, -790774.8, 44384.227, 0.16214435, -0.06677753, -657784.2, 70308.36, 0.0, 10.000763, 9.9992075 
1.2500781e+2, 2.3570423e+2, -688654.8, -751241.94, 11335.708, -0.06630726, -0.014278299, -686664.94, -56570.844, 0.0, 9.999998, 9.999174 
1.250082e+2, 2.4570382e+2, -564499.9, -612715.5, -33305.61, -0.10709075, 0.018479964, -547492.6, -15394.268, 0.0, 10.000053, 9.999432 
1.2500948e+2, 2.557028e+2, -371863.6, -483168.84, -39526.508, 0.011299184, -0.058918785, -359255.28, 74851.74, 0.0, 10.00075, 9.999321 
1.2501106e+2, 2.657023e+2, -317966.25, -440047.75, 33677.246, 0.078899406, -0.01743433, -309292.34, 26820.441, 0.0, 10.000617, 9.998993 
1.2501293e+2, 2.7570197e+2, -334710.66, -405737.25, 21243.658, 0.11199642, 0.017205283, -328841.75, -90722.984, 0.00000012209664, 9.99986, 9.998922 
1.2501338e+2, 2.8570125e+2, -219692.89, -269199.53, -19139.93, 0.0870409, 0.041575894, -213156.22, -73030.75, 0.000003888246, 9.999852, 9.999191 
1.250129e+2, 2.957001e+2, -53264.066, -164653.47, -31978.785, 0.043756876, -0.026965022, -44736.168, -2602.9875, 0.00002250982, 10.000416, 9.998971 
1.2501392e+2, 3.0569708e+2, -66465.44, -301345.8, 59165.523, 0.02575039, -0.14264539, -52403.7, -52403.7, 0.000088219014, 10.000646, 9.997614 
1.2501772e+2, 3.15698e+2, 43341.773, -20649.463, 22639.803, 0.21648575, 0.1346054, 50541.566, 50541.566, 0.00025421134, 10.000351, 9.999676 
1.3499486e+2, 1.257066e+2, -1675133.4, -1708985.1, -67033.28, -0.08099102, 0.0027070348, -1622922.1, 85149.46, 0.0014504807, 10.000221, 9.999909 
1.3499594e+2, 1.3570595e+2, -1614731.6, -1677684.3, 18739.662, -0.087745465, -0.037995525, -1609575.5, 502.09085, 0.0008289551, 10.000245, 9.999442 
1.349972e+2, 1.4570597e+2, -1518844.6, -1560556.9, -13572.21, -0.10876941, 0.009695112, -1514817.4, -2739.9456, 0.0003411424, 10.000122, 9.999624 
1.349991e+2, 1.5570518e+2, -1427356.9, -1492605.4, -17745.377, -0.06059486, -0.05282547, -1422843.0, -8757.76, 0.00008049032, 10.000203, 9.999378 
1.3500036e+2, 1.6570503e+2, -1288245.6, -1310752.3, -29028.957, -0.05442419, -0.028675064, -1268365.1, 47720.902, 0.0000062176173, 10.000217, 9.999946 
1.3500127e+2, 1.7570499e+2, -1194025.6, -1225442.1, 26380.436, -0.07360937, -0.061355792, -1179030.9, 39054.23, 0.000000017143847, 10.000239, 9.999849 
1.3500229e+2, 1.857048e+2, -1159345.6, -1199493.8, 33688.426, -0.104204126, -0.03925403, -1140203.9, -20116.469, 0.0, 9.999966, 9.999485 
1.3500334e+2, 1.9570439e+2, -1130585.0, -1137025.6, 30278.18, -0.1446036, -0.06674579, -1103356.4, -81262.98, 0.0, 9.999506, 9.99946 
1.3500534e+2, 2.0570423e+2, -963949.1, -965483.6, -5683.598, -0.059281033, -0.0421312, -958981.25, -34887.207, 0.0, 9.999814, 9.999816 
1.3500795e+2, 2.15704e+2, -750395.06, -823861.2, 17450.344, 0.104464024, -0.081741795, -746460.8, 79632.305, 0.0, 10.000654, 9.999712 
1.3500859e+2, 2.2570348e+2, -713940.5, -849582.8, 180.36613, 0.075821206, -0.05421038, -713940.25, 14157.923, 0.0, 10.000636, 9.998867 
1.350077e+2, 2.3570253e+2, -729463.1, -805125.44, 1288.7201, -0.11064342, -0.07231766, -729441.1, -99331.32, 0.0, 9.999857, 9.998873 
1.3500856e+2, 2.4570169e+2, -567385.2, -596831.6, -20582.328, -0.10876154, -0.078693084, -556802.2, -24684.139, 0.0, 9.999956, 9.999586 
1.3501076e+2, 2.557007e+2, -381386.25, -470852.38, 313.43427, 0.031022886, -0.16902418, -381385.16, 52740.242, 0.0, 10.000608, 9.999472 
1.3501169e+2, 2.657002e+2, -323805.13, -430197.66, -9383.588, 0.04759176, -0.14137454, -322983.88, 13146.591, 0.0, 10.000527, 9.9991 
1.350117e+2, 2.756997e+2, -346820.0, -396897.44, 10562.557, -0.03345734, -0.13565278, -344683.25, -106546.44, 0.000000046518082, 9.99972, 9.999047 
1.3501249e+2, 2.8569943e+2, -226363.06, -276582.22, -11538.245, -0.022831945, -0.069594696, -223838.94, -83699.125, 0.0000029362805, 9.999818, 9.999158 
1.3501391e+2, 2.956993e+2, -65715.35, -171087.08, 5632.6284, 0.058479454, -0.040429763, -65415.113, -23274.836, 0.000019015239, 10.000319, 9.998978 
1.3501483e+2, 3.0569702e+2, -90853.01, -328940.16, 39204.59, 0.024662023, -0.07737966, -84563.54, -84563.54, 0.000075927965, 10.000564, 9.997455 
1.350178e+2, 3.1569555e+2, 90958.336, 113988.38, 50586.38, 0.114720516, -0.01068845, 154353.78, 154353.78, 0.0002226974, 10.000203, 10.000671 
1.4499578e+2, 1.2570561e+2, -1783584.5, -1808740.9, -29035.305, 0.035948258, -0.015845517, -1764520.0, -56439.535, 0.0014659849, 9.999696, 9.999476 
1.4499642e+2, 1.3570492e+2, -1508466.8, -1631821.1, 34513.05, -0.092191316, -0.051569, -1499467.1, 110621.516, 0.0008466132, 10.001006, 9.999383 
1.4499769e+2, 1.4570525e+2, -1414187.3, -1508437.3, 35399.613, -0.09911568, 0.02696579, -1402372.4, 109713.49, 0.00035647568, 10.000825, 9.99965 
1.4499956e+2, 1.5570463e+2, -1512501.5, -1526533.9, 37440.098, 0.007871306, -0.0233196, -1481425.9, -67334.2, 0.00008921642, 9.99958, 9.999451 
1.4500085e+2, 1.6570446e+2, -1385450.8, -1316665.5, 79326.44, 0.02518795, -0.026084254, -1264597.0, 51494.47, 0.000008328298, 9.999377, 10.000305 
1.4500187e+2, 1.7570435e+2, -1213769.3, -1200373.1, 51494.473, -0.013709656, -0.10270427, -1155142.9, 62946.44, 0.0000000715251, 9.99995, 10.000159 
1.4500287e+2, 1.8570414e+2, -1129398.0, -1215626.9, 53921.28, -0.05056361, -0.08137104, -1103473.6, 16618.176, 0.0, 10.000308, 9.999221 
1.450037e+2, 1.9570367e+2, -1010109.7, -1109981.1, 30173.322, -0.09526608, -0.081990555, -1001701.56, 20398.096, 0.0, 10.000457, 9.999206 
1.4500552e+2, 2.0570354e+2, -880576.1, -913244.9, 38698.348, -0.040020168, -0.048293512, -854906.06, 69194.336, 0.0, 10.00033, 9.999926 
1.45008e+2, 2.1570346e+2, -851840.06, -862851.06, 21632.98, 0.09068211, -0.08450781, -835023.0, -8925.353, 0.0, 9.999916, 9.999799 
1.4500877e+2, 2.257029e+2, -788172.8, -871939.06, 38766.82, 0.06719727, -0.070898525, -772985.25, -44882.66, 0.0, 10.000086, 9.998977 
1.4500831e+2, 2.3570172e+2, -598465.3, -738247.1, 37965.86, -0.070229076, -0.11870234, -588819.1, 41296.76, 0.0, 10.000741, 9.998913 
1.4500938e+2, 2.457009e+2, -499282.94, -606180.3, 37611.973, -0.046179272, -0.102896616, -487375.5, 44749.598, 0.0, 10.0006, 9.999217 
1.4501165e+2, 2.5570017e+2, -508962.28, -566617.1, -11889.346, 0.10424192, -0.13166702, -506606.75, -72473.914, 0.0, 9.999881, 9.999164 
1.4501232e+2, 2.6569968e+2, -403769.66, -435242.66, -4646.927, 0.101060465, -0.10338502, -403097.88, -66960.58, 0.0, 9.999825, 9.999413 
1.450118e+2, 2.7569914e+2, -243637.06, -323602.75, 645.43854, -0.014211536, -0.1333653, -243631.86, -5490.0864, 0.00000002138944, 10.000305, 9.999287 
1.4501274e+2, 2.856985e+2, -135548.4, -286334.5, 15709.911, -0.012434261, -0.08586275, -133929.03, 6218.996, 0.0000023054517, 10.000659, 9.998689 
1.4501484e+2, 2.95698e+2, 3650.384, -173244.44, -37697.184, 0.09881348, -0.052351873, 11348.811, 53503.195, 0.000016570593, 10.000954, 9.998646 
1.4501545e+2, 3.0569592e+2, -16350.699, -288117.38, 3109.5945, 0.01808624, -0.05889569, -16315.124, -16315.124, 0.0000664134, 10.001079, 9.997474 
1.4501806e+2, 3.156939e+2, 201605.72, 210509.48, -45591.87, 0.10816061, -0.039258137, 251866.31, 251866.31, 0.0001967113, 10.000794, 10.001044 
1.5499534e+2, 1.257042e+2, -1766424.4, -1799987.8, -35434.363, -0.062485296, -0.056758028, -1743998.6, -35906.45, 0.0014879738, 9.99979, 9.999504 
1.5499732e+2, 1.3570336e+2, -1480646.1, -1579465.6, 84877.336, -0.141345, -0.13864455, -1431844.5, 178258.38, 0.0008684092, 10.001021, 9.999745 
1.5499891e+2, 1.4570451e+2, -1378507.1, -1420185.1, -30930.467, -0.10051584, -0.024984062, -1362050.6, 150040.23, 0.00037251608, 10.0007715, 10.000277 
1.5499938e+2, 1.557045e+2, -1480182.9, -1445888.6, 11607.158, -0.009994985, -0.078352764, -1442329.4, -28241.146, 0.00009664872, 9.999535, 10.000017 
1.5500064e+2, 1.6570431e+2, -1417921.5, -1370780.5, 86744.03, 0.028723532, -0.09012431, -1304461.6, 11626.467, 0.000009881803, 9.999314, 9.99997 
1.550026e+2, 1.7570382e+2, -1246698.3, -1251840.4, 88925.07, 0.027411724, -0.17019165, -1160307.1, 57784.496, 0.00000020107916, 9.999877, 9.9998455 
1.550039e+2, 1.8570362e+2, -1155058.4, -1248761.0, 44210.85, -0.008818123, -0.12464082, -1137492.0, -17396.697, 0.0, 10.000217, 9.999037 
1.5500465e+2, 1.9570337e+2, -1036245.3, -1141071.4, 51169.406, -0.07969114, -0.08448156, -1015409.25, 6692.1226, 0.0, 10.000366, 9.999032 
1.5500593e+2, 2.0570317e+2, -897638.56, -921671.75, 10026.992, -0.06434253, -0.048933648, -894004.6, 30098.346, 0.0, 10.000208, 9.999932 
1.5500747e+2, 2.1570283e+2, -870530.9, -864798.94, 23651.871, 0.01193289, -0.11156127, -843840.0, -17737.135, 0.0, 9.999761, 9.999861 
1.550085e+2, 2.2570243e+2, -776663.9, -820991.9, 48768.36, -0.00029882637, -0.10735625, -745259.25, -17153.797, 0.0, 9.999962, 9.99939 
1.5500923e+2, 2.3570175e+2, -596705.25, -702294.6, 75472.62, -0.08379798, -0.14852268, -557394.6, 72717.96, 0.0, 10.000595, 9.999233 
1.5501024e+2, 2.4570142e+2, -574755.06, -740088.75, -4968.355, -0.05190398, -0.052963912, -574605.9, -42485.98, 0.0, 10.000501, 9.998344 
1.5501158e+2, 2.557011e+2, -586994.94, -695570.6, -18696.201, 0.07586314, 0.0450018, -583865.7, -149735.53, 0.0, 9.999731, 9.998355 
1.550124e+2, 2.6570076e+2, -380291.88, -367056.75, -441.66916, 0.09401837, 0.09889657, -367042.03, -30908.6, 0.0, 9.999743, 9.999916 
1.5501279e+2, 2.7570012e+2, -238786.97, -284632.66, 37077.324, 0.02140105, 0.012426878, -218118.7, 20015.709, 0.000000019825112, 10.000176, 9.999617 
1.5501368e+2, 2.8569838e+2, -208144.84, -424737.63, 14860.914, -0.018389525, -0.016084492, -207129.95, -66979.13, 0.0000019865888, 10.000605, 9.997765 
1.5501522e+2, 2.95696e+2, -65426.582, -291850.75, -8646.44, -0.005263757, -0.07859852, -65096.88, -22919.5, 0.000014949104, 10.000836, 9.997892 
1.550153e+2, 3.0569375e+2, -15258.544, -260088.13, -16735.24, -0.13436444, -0.0818391, -14119.908, -14119.908, 0.000059797247, 10.000995, 9.997689 
1.5501747e+2, 3.1569296e+2, 156525.45, 162642.14, -42079.7, -0.09813369, 0.042285684, 201774.5, 201774.5, 0.00017773658, 10.000621, 10.000784 
1.6499618e+2, 1.257032e+2, -1678596.9, -1717629.9, -36867.188, 0.03456295, -0.014211277, -1656399.0, 51705.3, 0.0014964563, 10.000221, 9.999854 
1.6499738e+2, 1.3570225e+2, -1773964.6, -1688228.5, 38463.22, -0.11462343, -0.14209169, -1673502.4, -63387.75, 0.0008776996, 9.998845, 10.000055 
1.64999e+2, 1.4570397e+2, -1621700.6, -1466931.0, -42274.59, -0.062030975, -0.019331504, -1456136.8, 55958.703, 0.00037921302, 9.998826, 10.000881 
1.6499944e+2, 1.557041e+2, -1353268.6, -1326879.1, -38099.348, 0.023973271, -0.1157814, -1299754.4, 114335.06, 0.00009882513, 10.000162, 10.000531 
1.650007e+2, 1.65704e+2, -1270060.6, -1346132.6, 66918.12, 0.054757692, -0.12084446, -1231124.0, 84965.22, 0.000009884257, 10.000519, 9.999558 
1.650026e+2, 1.7570367e+2, -1247781.4, -1294168.5, 31812.596, 0.041728016, -0.14654477, -1231605.1, -13511.219, 0.0000002904704, 10.000037, 9.999476 
1.6500433e+2, 1.8570343e+2, -1170999.0, -1249099.1, 39070.395, 0.027375612, -0.090617105, -1154809.5, -34711.14, 0.0, 10.000091, 9.999076 
1.6500594e+2, 1.9570298e+2, -1003690.06, -1120575.1, 32629.709, 0.010501485, -0.078582495, -995198.06, 26907.22, 0.0, 10.000573, 9.999056 
1.6500677e+2, 2.0570263e+2, -876905.56, -925387.0, -6773.1196, -0.0040544397, -0.052288964, -875977.1, 48131.574, 0.0, 10.000438, 9.999787 
1.650069e+2, 2.1570222e+2, -864973.25, -875094.6, -34455.098, -0.012582338, -0.104184516, -835209.2, -9098.708, 0.0, 9.999866, 9.999737 
1.6500819e+2, 2.2570196e+2, -778588.2, -795095.56, 42352.52, -0.012192599, -0.093094915, -743692.56, -15580.866, 0.0, 9.9998255, 9.999636 
1.6501026e+2, 2.3570168e+2, -643678.56, -693221.3, 24939.695, -0.008860717, -0.12046269, -633298.7, -3184.7996, 0.0, 10.000142, 9.99951 
1.6501118e+2, 2.4570148e+2, -605607.75, -740064.75, -17782.617, 0.014552129, -0.030207505, -603295.6, -71176.336, 0.0, 10.000235, 9.99847 
1.6501133e+2, 2.5570115e+2, -511606.47, -641011.7, 12374.38, 0.06599242, 0.055120073, -510433.8, -76304.82, 0.0, 10.000189, 9.998498 
1.6501227e+2, 2.6570064e+2, -327555.56, -390204.66, 83889.766, 0.08787139, 0.105196744, -269332.8, 66801.65, 0.0, 10.000297, 9.999496 
1.650138e+2, 2.7569962e+2, -206557.95, -303043.6, 21011.291, 0.09821111, 0.015877662, -202180.97, 35959.324, 0.000000024295247, 10.000551, 9.999295 
1.6501503e+2, 2.8569773e+2, -193258.02, -422351.8, 42597.75, 0.061135564, -0.009881075, -185593.78, -45435.355, 0.0000019697127, 10.000733, 9.997722 
1.6501643e+2, 2.956954e+2, -43153.49, -276694.6, 51957.113, 0.039270084, -0.05840898, -32115.967, 10067.897, 0.000013995548, 10.000968, 9.997942 
1.6501641e+2, 3.0569312e+2, -12395.523, -252042.34, 83344.24, -0.103886485, -0.07836509, 13739.663, 13739.663, 0.000055183133, 10.000945, 9.997787 
1.650182e+2, 3.1569257e+2, 112340.33, 92006.25, -39493.125, -0.061389383, 0.064490676, 142954.11, 142954.11, 0.00016346599, 10.000486, 10.000377 
1.7499718e+2, 1.2570262e+2, -1632578.6, -1620751.1, -140094.25, 0.03594855, 0.10655293, -1486445.9, 221671.28, 0.0014785845, 10.000212, 10.000521 
1.7499603e+2, 1.3570178e+2, -1759531.4, -1642533.4, 978.9787, -0.17178401, -0.05165167, -1642525.3, -32402.832, 0.00086354057, 9.998796, 10.000379 
1.749975e+2, 1.4570375e+2, -1594856.5, -1403620.1, -9205.841, -0.13670781, 0.0593557, -1403178.0, 108920.34, 0.00037008742, 9.998777, 10.001348 
1.7499933e+2, 1.5570343e+2, -1322729.6, -1259010.0, 25491.291, -0.043673884, -0.13573156, -1250067.1, 164028.3, 0.000094032526, 10.000141, 10.001007 
1.750006e+2, 1.6570355e+2, -1305990.3, -1413558.0, 32980.55, -0.043915473, -0.11557587, -1296683.5, 19411.01, 0.000008393363, 10.000478, 9.999122 
1.750014e+2, 1.7570394e+2, -1282064.9, -1352729.6, 31429.44, -0.11737803, -0.023965817, -1270108.9, -52013.164, 0.00000020811186, 9.999986, 9.999099 
1.7500368e+2, 1.8570371e+2, -1160913.1, -1212374.0, 44110.785, -0.08146568, 0.032365613, -1135576.8, -15476.642, 0.0, 10.000014, 9.99937 
1.7500705e+2, 1.9570266e+2, -1001950.0, -1088932.3, 63494.08, 0.028482711, -0.04684757, -968480.25, 53629.723, 0.0, 10.000455, 9.9993305 
1.7500757e+2, 2.05702e+2, -919298.3, -988762.7, -45947.004, 0.002569825, -0.041798037, -896433.2, 27683.148, 0.0, 10.00032, 9.999413 
1.7500596e+2, 2.157015e+2, -910560.4, -937790.4, -38362.88, -0.12646428, -0.068047486, -883468.1, -57346.402, 0.0, 9.999727, 9.999373 
1.7500734e+2, 2.2570144e+2, -787465.7, -782197.75, 39776.184, -0.1098542, -0.029905278, -744968.44, -16846.42, 0.0, 9.999689, 9.999789 
1.7501087e+2, 2.3570144e+2, -650678.94, -674013.9, 50631.76, 0.0085297935, -0.04203883, -610387.75, 19732.805, 0.0, 9.999991, 9.999715 
1.7501172e+2, 2.457011e+2, -543999.75, -590507.44, -34005.297, 0.015278056, -0.03318924, -526057.7, 6065.2695, 0.0, 10.000141, 9.999539 
1.750105e+2, 2.5570035e+2, -471924.03, -523633.1, 25333.502, -0.06974397, -0.09748474, -461581.28, -27451.582, 0.0, 10.000039, 9.999376 
1.7501166e+2, 2.6569927e+2, -418720.3, -573060.44, 76893.414, -0.03687016, -0.07840755, -386950.88, -50809.836, 0.0, 10.00026, 9.99826 
1.7501444e+2, 2.7569756e+2, -295948.75, -467217.47, 44380.363, 0.069630496, -0.11511713, -285131.78, -46972.08, 0.000000035492793, 10.00045, 9.99822 
1.7501628e+2, 2.856966e+2, -134652.47, -292425.78, 35476.957, 0.076743625, -0.05036741, -127042.19, 13128.148, 0.0000021240596, 10.000705, 9.998621 
1.7501779e+2, 2.9569632e+2, -3503.268, -164198.95, 78005.87, 0.038228787, 0.015189308, 28134.115, 70307.586, 0.000013429294, 10.000854, 9.998759 
1.7501837e+2, 3.0569392e+2, -8796.627, -243060.53, 59088.023, -0.03355036, -0.05353594, 5263.2227, 5263.2227, 0.000050919698, 10.000932, 9.997858 
1.750193e+2, 3.156931e+2, 60874.242, 20905.828, -41295.23, -0.07593936, 0.059829812, 86766.66, 86766.66, 0.00014908816, 10.000358, 9.999938 
1.8499768e+2, 1.257024e+2, -1547517.6, -1530939.8, -9618.276, 0.059295017, 0.0869943, -1526531.5, 181587.69, 0.0014297328, 10.000592, 10.000946 
1.849963e+2, 1.3570139e+2, -1522789.9, -1529528.1, 54027.563, -0.09175172, -0.09119952, -1472026.5, 138097.1, 0.00082590414, 10.000433, 10.000357 
1.849979e+2, 1.4570312e+2, -1428201.0, -1399543.4, 80229.9, -0.03561519, 0.03347631, -1332372.9, 179729.97, 0.00034715154, 10.0002365, 10.0006695 
1.849995e+2, 1.5570243e+2, -1361567.9, -1345768.8, -6230.615, -0.03187487, -0.13636766, -1343607.4, 70499.8, 0.0000844504, 10.000151, 10.000412 
1.8500057e+2, 1.6570254e+2, -1341853.0, -1423271.6, -13002.647, -0.0748929, -0.09447536, -1339826.9, -23718.77, 0.000006352812, 10.0002365, 9.999154 
1.8500131e+2, 1.7570308e+2, -1196385.0, -1305625.9, -8518.727, -0.14651923, 0.010795079, -1195724.6, 22383.213, 0.000000056960435, 10.000566, 9.999134 
1.8500379e+2, 1.8570307e+2, -1075088.3, -1117192.9, 53550.418, -0.08339572, 0.06268915, -1038600.6, 81508.49, 0.0, 10.000387, 9.999838 
1.8500745e+2, 1.9570239e+2, -1076203.5, -1077089.4, 54080.355, 0.06721344, -0.024489999, -1022564.25, -450.85104, 0.0, 9.999747, 9.999753 
1.8500812e+2, 2.0570187e+2, -1014776.4, -1054292.9, -10651.067, 0.063797265, -0.019563025, -1012088.4, -87969.695, 0.0, 9.999734, 9.9992485 
1.8500647e+2, 2.1570128e+2, -854296.75, -928483.06, -14629.707, -0.060758393, -0.03942402, -851516.0, -25389.479, 0.0, 10.000169, 9.999231 
1.8500769e+2, 2.2570108e+2, -722316.94, -746715.2, 95145.836, -0.057536364, -0.008295761, -638591.4, 89536.516, 0.0, 10.000121, 9.999827 
1.85011e+2, 2.3570101e+2, -690316.75, -690374.3, 68953.195, 0.04397114, -0.032682844, -621392.3, 8734.019, 0.0, 9.999702, 9.999745 
1.850119e+2, 2.457006e+2, -565836.7, -588749.44, -17004.32, 0.034902997, -0.037209067, -556789.56, -24661.3, 0.0, 9.999931, 9.999654 
1.8501097e+2, 2.5569975e+2, -376047.94, -466833.84, -56722.67, -0.047304876, -0.1227383, -348791.16, 85343.3, 0.0, 10.000637, 9.999481 
1.8501234e+2, 2.6569846e+2, -346332.75, -555719.4, 27850.1, -0.015257709, -0.12013832, -342691.78, -6543.855, 0.0, 10.000859, 9.998081 
1.8501532e+2, 2.7569652e+2, -248412.77, -459766.22, 42597.18, 0.10261584, -0.1587962, -240150.52, -1980.7354, 0.000000044067633, 10.000855, 9.998077 
1.8501706e+2, 2.856961e+2, -94052.03, -241655.61, 65715.234, 0.08667717, -0.049227253, -69034.81, 71140.586, 0.000002141611, 10.000822, 9.998924 
1.8501815e+2, 2.9569694e+2, -12522.281, -142077.06, 27356.064, 0.008927166, 0.09917071, -6982.784, 35184.82, 0.000012353572, 10.000652, 9.99902 
1.8501972e+2, 3.0569357e+2, -41406.63, -253463.06, 20599.504, 0.031910423, -0.08275999, -39424.098, -39424.098, 0.00004451732, 10.0006695, 9.997917 
1.850207e+2, 3.1569263e+2, 141207.61, 55179.234, -150409.42, 0.019502737, 0.014556591, 254632.6, 254632.6, 0.00012893318, 10.000856, 9.999971 
1.949968e+2, 1.2570275e+2, -1552703.5, -1520112.4, -67879.68, -0.1676367, -0.04608296, -1466599.6, 241508.48, 0.0013506947, 10.000514, 10.001055 
1.9499785e+2, 1.3570108e+2, -1560567.0, -1594091.5, 56703.484, -0.016728207, -0.2596232, -1518200.0, 91918.18, 0.00077082973, 10.000394, 9.999927 
1.949997e+2, 1.457021e+2, -1559416.6, -1657730.8, 58028.707, 0.076232, -0.09275851, -1532522.8, -20413.852, 0.0003170448, 10.000172, 9.99893 
1.9499947e+2, 1.5570128e+2, -1478599.3, -1577817.0, 4637.7544, -0.08697858, -0.102369234, -1478383.0, -64260.44, 0.000073711046, 10.00011, 9.998837 
1.9500016e+2, 1.6570109e+2, -1315310.6, -1360007.5, -13326.881, -0.17316465, -0.039918475, -1311638.8, 4489.3184, 0.0000047225935, 10.000186, 9.999622 
1.9500187e+2, 1.7570114e+2, -1169506.0, -1237749.3, 19743.258, -0.18193227, -0.03470892, -1164205.8, 53923.895, 0.0000000036456946, 10.000507, 9.999633 
1.9500418e+2, 1.8570155e+2, -1045775.56, -1035416.56, 14739.674, -0.11459768, 0.006776566, -1024972.9, 95151.95, 0.0, 10.000293, 10.000451 
1.9500676e+2, 1.9570212e+2, -1051835.5, -1003083.5, 47831.22, -0.0086683305, -0.016053759, -973775.06, 48341.242, 0.0, 9.999643, 10.000317 
1.9500792e+2, 2.057022e+2, -1032050.6, -1051041.0, -5949.071, 0.04148654, 0.017474549, -1030340.94, -106225.234, 0.0, 9.999572, 9.999344 
1.9500805e+2, 2.157016e+2, -870967.94, -926563.1, 14455.547, 0.048836276, -0.012046537, -867433.94, -41309.99, 0.0, 10.000012, 9.999319 
1.9500884e+2, 2.2570105e+2, -755320.56, -776671.1, 64015.355, 0.02001829, -0.013482627, -701096.44, 27031.674, 0.0, 9.999964, 9.999694 
1.9501011e+2, 2.357004e+2, -726882.9, -724597.6, 70321.875, -0.043931916, -0.08202272, -655409.06, -25278.334, 0.0, 9.999533, 9.999588 
1.9501126e+2, 2.4569996e+2, -639589.94, -712987.7, -4230.173, -0.049542025, -0.040944204, -639346.94, -107212.05, 0.0, 9.999809, 9.998859 
1.9501226e+2, 2.5569946e+2, -448297.47, -577492.25, -17358.506, -0.0155551005, -0.014243296, -446005.84, -11863.553, 0.0, 10.000471, 9.998799 
1.950139e+2, 2.6569837e+2, -296648.06, -440846.72, 13145.763, 0.020974714, -0.0032479656, -295459.44, 40693.766, 0.0, 10.000802, 9.998904 
1.9501603e+2, 2.7569646e+2, -211658.11, -366563.56, 61049.867, 0.053036112, -0.11649482, -190490.3, 47680.297, 0.000000036761158, 10.0007715, 9.998768 
1.9501698e+2, 2.8569612e+2, -126663.01, -294385.94, 47606.52, -0.036116663, -0.011599106, -114092.49, 26082.484, 0.0000018181237, 10.000762, 9.998589 
1.9501711e+2, 2.956973e+2, -56593.313, -196183.8, 39440.742, -0.2017933, 0.20449133, -46220.305, -4054.5095, 0.000010151812, 10.000503, 9.998715 
1.9501999e+2, 3.0569208e+2, -41865.074, -238887.97, 15741.375, -0.042103995, -0.15602766, -40615.324, -40615.324, 0.00003534469, 10.000619, 9.998032 
1.9502166e+2, 3.1569144e+2, 177056.23, 172545.5, -109430.336, -0.04282716, -0.04966318, 284254.44, 284254.44, 0.000103030594, 10.00071, 10.000827 
2.0499776e+2, 1.2570338e+2, -1689491.4, -1642360.4, -64609.11, -0.07200507, -0.094894156, -1597153.4, 110945.98, 0.0012481128, 9.9998255, 10.000555 
2.0499845e+2, 1.3570175e+2, -1568335.6, -1686027.8, -28739.584, 0.0034766356, -0.22523667, -1561692.5, 48419.477, 0.0007037624, 10.0007, 9.999171 
2.0500064e+2, 1.4570184e+2, -1478685.9, -1671630.9, 38971.34, 0.124997415, -0.085768, -1471111.8, 41002.27, 0.00028324383, 10.000967, 9.998451 
2.0500012e+2, 1.5570103e+2, -1379039.9, -1575523.0, 36724.035, -0.06636832, -0.046365052, -1372400.3, 41729.098, 0.000063005726, 10.0009985, 9.998423 
2.0500076e+2, 1.6570088e+2, -1243663.3, -1276965.9, 76152.02, -0.13680129, 0.014588025, -1182363.3, 133770.25, 0.0000035155435, 10.000467, 10.00006 
2.0500264e+2, 1.757009e+2, -1302579.6, -1260267.9, 73544.66, -0.0919034, -0.02138251, -1204896.6, 13235.757, 0.0000000004928599, 9.999409, 10.000016 
2.0500454e+2, 1.8570124e+2, -1198460.5, -1109809.3, 82676.45, -0.04633746, -0.0059737503, -1060325.8, 59801.68, 0.0, 9.999242, 10.000444 
2.050063e+2, 1.957017e+2, -1033291.94, -994741.2, 40030.633, -0.01469685, -0.03856953, -969586.94, 52533.727, 0.0, 9.9997635, 10.000313 
2.0500769e+2, 2.0570198e+2, -923898.1, -981662.3, 17740.025, 0.03644111, 0.0064627063, -918885.06, 5232.9946, 0.0, 10.000236, 9.999504 
2.0500894e+2, 2.1570186e+2, -777377.06, -865419.3, 15683.635, 0.11610654, 0.009338013, -774666.7, 51454.484, 0.0, 10.000591, 9.999459 
2.0500992e+2, 2.2570121e+2, -633616.2, -739396.0, 76922.65, 0.09249165, 0.0010325777, -593154.94, 134971.08, 0.0, 10.000887, 9.999501 
2.0501071e+2, 2.3569995e+2, -512489.66, -647929.2, 49979.453, -0.008192806, -0.10992301, -496043.44, 134090.92, 0.0, 10.001109, 9.999357 
2.0501193e+2, 2.456993e+2, -477898.3, -675827.3, 29754.24, -0.017785309, -0.058621436, -473522.2, 58619.336, 0.0, 10.001098, 9.99849 
2.0501348e+2, 2.5569895e+2, -402039.2, -591233.1, 17682.453, 0.04674325, 0.020824863, -400400.75, 33748.664, 0.0, 10.000955, 9.998467 
2.0501512e+2, 2.656979e+2, -256608.86, -399156.5, 57288.297, 0.06274276, 0.040590487, -236439.22, 99720.64, 0.0, 10.000976, 9.999108 
2.0501682e+2, 2.7569595e+2, -153169.98, -316142.1, 26002.48, 0.04794108, -0.10024428, -149121.8, 89054.3, 0.00000002096579, 10.001081, 9.998959 
2.0501767e+2, 2.8569543e+2, -130687.11, -323550.53, 20756.102, -0.039261326, -0.0056765354, -128478.62, 11703.013, 0.0000012828043, 10.000865, 9.998338 
2.0501785e+2, 2.9569647e+2, -77039.79, -231805.13, -9414.37, -0.16446063, 0.21761551, -76469.22, -34294.586, 0.000007381431, 10.000473, 9.998488 
2.0502152e+2, 3.0569044e+2, -67064.81, -239590.4, 15176.701, 0.073335834, -0.21540563, -65739.93, -65739.93, 0.00002618385, 10.000403, 9.998142 
2.0502275e+2, 3.1569082e+2, 163864.89, 213699.47, -163637.66, 0.025902882, -0.017359378, 354306.06, 354306.06, 0.000078949044, 10.000451, 10.001227 
2.1499941e+2, 1.2570423e+2, -1776816.3, -1810871.0, -80543.25, 0.03540873, -0.05749984, -1711520.3, -3427.2078, 0.0011286415, 9.9997635, 9.999432 
2.1499774e+2, 1.3570349e+2, -1631925.1, -1830455.9, 16804.545, -0.17449798, 0.013047242, -1630512.9, -20408.625, 0.00062779407, 10.000746, 9.998159 
2.150003e+2, 1.4570259e+2, -1438882.1, -1581135.5, 21855.951, -0.049571585, 0.0667596, -1435599.9, 76516.3, 0.00024660726, 10.000929, 9.999088 
2.1500102e+2, 1.5570179e+2, -1331237.5, -1481096.0, 51608.21, -0.11553066, 0.038426675, -1315184.4, 98942.22, 0.000052325075, 10.001011, 9.999064 
2.1500187e+2, 1.6570185e+2, -1231827.4, -1234942.5, 21536.746, -0.10620595, 0.0754747, -1211792.0, 104332.81, 0.000002586899, 10.000393, 10.000381 
2.1500313e+2, 1.7570229e+2, -1294818.5, -1224407.6, 54338.95, -0.018096594, 0.041607168, -1194866.3, 23250.682, 0.000000000052014764, 9.99933, 10.000293 
2.150044e+2, 1.8570203e+2, -1260748.1, -1214469.6, 89564.664, -0.018648118, 0.02012699, -1145103.5, -24985.72, 0.0, 9.999128, 9.999783 
2.1500567e+2, 1.9570105e+2, -1081611.5, -1081772.3, 75891.37, -0.09231366, -0.095553264, -1005800.44, 16326.692, 0.0, 9.999698, 9.999749 
2.1500705e+2, 2.0570119e+2, -923139.6, -951536.6, 16615.498, -0.08154772, -0.051836725, -915482.44, 8643.678, 0.0, 10.000114, 9.999767 
2.1500865e+2, 2.1570197e+2, -781688.7, -840061.3, 41212.133, -0.003838869, 0.013992028, -760374.7, 65744.484, 0.0, 10.0004425, 9.999702 
2.1501043e+2, 2.2570144e+2, -678504.2, -789965.25, 71101.26, 0.027728165, 0.018906754, -643894.9, 84228.03, 0.0, 10.0007105, 9.999235 
2.1501234e+2, 2.3569968e+2, -557212.06, -694264.3, 73970.43, 0.013541032, -0.11617179, -524904.4, 105232.46, 0.0, 10.000914, 9.999127 
2.1501355e+2, 2.4569875e+2, -493070.94, -684288.2, 9625.378, 0.0031379082, -0.08255089, -492587.66, 39559.38, 0.0, 10.000997, 9.998484 
2.1501428e+2, 2.5569826e+2, -423646.16, -603411.5, 28790.756, -0.004248765, -0.012146389, -419147.66, 15008.029, 0.0, 10.0008135, 9.998454 
2.1501556e+2, 2.656971e+2, -298199.25, -465349.44, 46698.098, -0.022210758, 0.015038054, -286037.7, 50130.215, 0.0, 10.000889, 9.998692 
2.1501717e+2, 2.7569488e+2, -202796.36, -386786.9, 45116.26, -0.05901089, -0.10842228, -192328.92, 45858.223, 0.00000000626477, 10.000941, 9.99854 
2.1501863e+2, 2.85694e+2, -140401.73, -331676.63, -9391.36, -0.06342576, -0.031602036, -139941.73, 254.50504, 0.00000075455597, 10.000818, 9.998302 
2.1502006e+2, 2.956945e+2, -99278.35, -258726.05, -6975.8906, -0.030368924, 0.1443736, -98973.734, -56780.23, 0.0000049684672, 10.000394, 9.998342 
2.1502401e+2, 3.056887e+2, -70550.7, -250159.42, 4850.554, 0.25091904, -0.2493081, -70419.805, -70419.805, 0.000019575336, 10.000409, 9.998072 
2.1502326e+2, 3.1569076e+2, 125986.6, 156665.16, -81633.05, -0.0395089, 0.11952568, 224387.6, 224387.6, 0.00006230811, 10.000355, 10.000888 
2.2500093e+2, 1.2570444e+2, -1744026.5, -1816202.0, -53921.445, 0.21287611, -0.0022786031, -1715230.9, -7136.4937, 0.0009987325, 10.000063, 9.9992485 
2.2499804e+2, 1.3570417e+2, -1590761.9, -1797763.0, 47342.23, -0.21771713, 0.105463386, -1580448.4, 29653.732, 0.0005469882, 10.000992, 9.99825 
2.2500078e+2, 1.4570288e+2, -1463961.4, -1542412.1, 71302.98, -0.06573433, 0.09009248, -1421806.5, 90309.875, 0.00020906689, 10.000541, 9.999551 
2.2500159e+2, 1.5570232e+2, -1562988.1, -1548605.8, 56128.9, -0.06298436, 0.04432395, -1499209.3, -85088.35, 0.000042237294, 9.999236, 9.999464 
2.2500241e+2, 1.6570239e+2, -1404727.1, -1332280.9, 51613.684, -0.025908805, 0.06884183, -1305447.8, 10669.973, 0.0000020119714, 9.999273, 10.000239 
2.2500359e+2, 1.757025e+2, -1166512.3, -1180287.6, 13186.119, 0.055167455, 0.01745557, -1158523.4, 59589.754, 0.0, 10.000297, 10.000116 
2.2500469e+2, 1.857021e+2, -1101067.8, -1167338.1, 73383.35, 0.044128496, 0.003594392, -1053685.5, 66430.67, 0.0, 10.000351, 9.999521 
2.2500569e+2, 1.957012e+2, -1124684.1, -1129858.9, 57992.85, -0.042875666, -0.0752407, -1069221.0, -47094.72, 0.0, 9.999535, 9.999501 
2.250071e+2, 2.0570114e+2, -999281.25, -995692.3, 46978.246, -0.055909906, -0.035782777, -950474.25, -26347.096, 0.0, 9.999614, 9.99972 
2.2500888e+2, 2.1570143e+2, -811604.06, -863659.9, 21617.775, -0.0073752883, -0.011350434, -803797.4, 22326.701, 0.0, 10.000265, 9.999639 
2.2501105e+2, 2.2570091e+2, -715671.56, -811994.8, 61160.016, 0.03833738, -0.0003903629, -685986.6, 42141.344, 0.0, 10.00046, 9.999212 
2.2501354e+2, 2.3569955e+2, -654902.5, -742379.8, 51006.75, 0.08473299, -0.09370511, -631449.2, -1310.0428, 0.0, 10.000248, 9.999119 
2.2501484e+2, 2.456987e+2, -550975.6, -710424.44, 34797.906, 0.059054762, -0.05309122, -543712.2, -11563.538, 0.0, 10.00059, 9.998499 
2.2501515e+2, 2.55698e+2, -340577.47, -569149.56, 23209.852, -0.017471505, -0.008629008, -338244.5, 95914.65, 0.0, 10.001394, 9.998416 
2.2501655e+2, 2.656966e+2, -233996.02, -477797.66, 58003.285, -0.035047267, 0.020391515, -220899.84, 115273.95, 0.0, 10.001519, 9.9983 
2.2501877e+2, 2.7569434e+2, -185138.92, -416656.16, 28411.283, 0.0027129648, -0.073392935, -181703.34, 56491.613, 0.00000000006385136, 10.001224, 9.998197 
2.2502027e+2, 2.8569305e+2, -75794.77, -291411.97, 11899.088, 0.0088576805, -0.022120772, -75140.09, 65066.926, 0.00000032397858, 10.001215, 9.998388 
2.2502115e+2, 2.9569295e+2, 42474.637, -186054.6, -9482.689, 0.00020025883, 0.08609195, 42867.44, 85075.7, 0.000003287384, 10.001358, 9.998367 
2.2502515e+2, 3.056882e+2, 18600.39, -202059.22, 41382.754, 0.30943888, -0.20897557, 26106.059, 26106.059, 0.00001601569, 10.0009985, 9.998112 
2.250241e+2, 3.1569004e+2, 80205.31, 105236.96, -37061.336, 0.037690468, 0.121667385, 131838.75, 131838.75, 0.000054019332, 10.000154, 10.000628 
2.3500164e+2, 1.2570399e+2, -1699305.6, -1717523.8, -46332.117, 0.1979704, 0.055496354, -1661195.6, 46908.19, 0.0008678289, 10.000047, 9.999937 
2.3499882e+2, 1.3570367e+2, -1507829.1, -1636272.1, 79442.4, -0.27398583, 0.056262717, -1469896.4, 140210.47, 0.00046623294, 10.001022, 9.999354 
2.3500146e+2, 1.4570248e+2, -1453235.3, -1493128.0, 3965.0234, -0.086798325, -0.024550794, -1452845.0, 59271.836, 0.00017258529, 10.000432, 9.999943 
2.3500134e+2, 1.5570253e+2, -1548637.8, -1511732.5, 31124.906, -0.047627147, -0.040277306, -1494001.4, -79888.14, 0.000033446406, 9.999207, 9.999735 
2.35002e+2, 1.6570227e+2, -1468461.3, -1442182.0, 74161.5, -0.03072442, -0.02076617, -1380005.1, -63891.02, 0.0000017722703, 9.999182, 9.999531 
2.3500368e+2, 1.7570134e+2, -1214989.3, -1270795.9, 61562.402, -0.001234936, -0.10771962, -1175301.8, 42821.07, 0.0000000001389195, 10.000248, 9.999524 
2.3500499e+2, 1.8570139e+2, -1114801.1, -1166297.6, 28103.703, 0.009103911, -0.054196462, -1102433.9, 17689.428, 0.0, 10.00023, 9.999588 
2.3500587e+2, 1.9570205e+2, -1133835.5, -1132016.9, 44270.332, -0.0092715975, 0.019083072, -1088646.5, -66527.54, 0.0, 9.999458, 9.999526 
2.350073e+2, 2.057017e+2, -1047270.56, -1052793.0, 57662.996, -0.02315565, 0.04407467, -992302.7, -68179.87, 0.0, 9.999439, 9.999407 
2.3500918e+2, 2.1570024e+2, -856156.1, -915365.6, 61579.27, -0.033319224, -0.07670583, -817434.8, 8701.372, 0.0, 10.00009, 9.999367 
2.350114e+2, 2.2569968e+2, -730557.94, -801308.25, 42270.984, -0.00070738373, -0.06491863, -710812.9, 17328.014, 0.0, 10.000286, 9.99937 
2.3501389e+2, 2.356996e+2, -665193.3, -731607.25, 62462.586, 0.061037246, -0.04184896, -627659.4, 2481.5464, 0.0, 10.000107, 9.999266 
2.350152e+2, 2.4569908e+2, -563287.6, -712362.4, 50813.395, 0.0032927417, 0.023237752, -547615.1, -15467.749, 0.0, 10.000486, 9.998536 
2.3501562e+2, 2.5569803e+2, -362152.1, -577466.56, 65443.95, -0.1463574, 0.027166001, -343821.28, 90339.32, 0.0, 10.001235, 9.998435 
2.350177e+2, 2.6569647e+2, -272532.8, -536396.4, 31792.082, -0.104686, 0.060274187, -268756.3, 67420.836, 0.0, 10.0014305, 9.997941 
2.350212e+2, 2.756942e+2, -224184.19, -470829.5, 36759.117, 0.08958842, 0.003252761, -218822.3, 19377.574, 0.0, 10.001104, 9.997888 
2.3502205e+2, 2.856927e+2, -66343.125, -259040.75, 4578.9946, 0.030440502, 0.03108668, -66234.375, 73979.09, 0.00000009734078, 10.001162, 9.998635 
2.3502056e+2, 2.956919e+2, 38589.086, -170803.69, 10515.5, -0.23886509, 0.047845393, 39115.84, 81334.99, 0.0000024854203, 10.001246, 9.998533 
2.3502444e+2, 3.056889e+2, 39516.69, -151203.67, -603.2229, 0.10551983, -0.09387778, 39518.6, 39518.6, 0.000014818684, 10.000972, 9.998474 
2.3502448e+2, 3.1568912e+2, 63794.055, 85913.72, 30866.596, -0.015159849, 0.040049314, 107642.09, 107642.09, 0.00005156838, 10.000081, 10.000538 
2.4500164e+2, 1.257033e+2, -1642909.4, -1648854.8, 40586.344, 0.19828668, 0.0643401, -1605187.0, 102925.09, 0.00074233726, 10.000285, 10.000285 
2.4499947e+2, 1.3570337e+2, -1725074.4, -1670858.3, 46942.113, -0.20992832, 0.038064037, -1643759.1, -33650.215, 0.00038816038, 9.999245, 9.999973 
2.4500242e+2, 1.4570247e+2, -1599580.6, -1539616.1, -11037.327, 0.03392167, -0.0546923, -1537649.0, -25534.596, 0.00013769997, 9.9993105, 10.000159 
2.4500187e+2, 1.5570268e+2, -1347680.1, -1394849.6, -27762.104, 0.030737633, -0.07755631, -1334837.3, 79271.016, 0.000025817635, 10.000511, 9.999895 
2.4500218e+2, 1.6570227e+2, -1290132.8, -1393687.0, 63802.445, 0.009430208, -0.063292295, -1259741.6, 56369.57, 0.0000016011192, 10.000552, 9.999222 
2.4500377e+2, 1.75701e+2, -1335074.9, -1360172.1, 49612.285, 0.027271966, -0.15110351, -1296448.8, -78324.01, 0.0000000006420841, 9.999556, 9.999256 
2.4500507e+2, 1.8570116e+2, -1211315.8, -1204195.9, 54876.594, 0.037617594, -0.077411495, -1152763.9, -32639.285, 0.0, 9.99954, 9.999651 
2.45006e+2, 1.9570224e+2, -1022747.6, -1073188.1, 45287.563, 0.028232636, 0.02967624, -996131.4, 25984.102, 0.0, 10.000215, 9.999552 
2.4500765e+2, 2.0570177e+2, -900325.1, -1008272.5, 101193.875, 0.020730134, 0.055815175, -839610.7, 84510.125, 0.0, 10.000567, 9.999161 
2.4501008e+2, 2.1569988e+2, -809372.44, -916477.5, 75559.32, 0.033895537, -0.08452111, -770312.44, 55827.16, 0.0, 10.000529, 9.999136 
2.4501212e+2, 2.2569928e+2, -701147.75, -804077.94, 58468.684, 0.03683183, -0.058436856, -674720.3, 53425.375, 0.0, 10.000566, 9.999213 
2.4501391e+2, 2.3569946e+2, -598349.0, -712576.0, 31846.596, 0.034833908, 0.004327017, -590070.2, 40073.88, 0.0, 10.000636, 9.999136 
2.4501547e+2, 2.4569884e+2, -540874.06, -696753.8, 56246.64, -0.015234173, 0.06385247, -522697.84, 9453.368, 0.0, 10.0006075, 9.9986 
2.450169e+2, 2.5569746e+2, -467446.63, -616762.5, 44343.773, -0.09248522, 0.028492002, -455270.38, -21103.666, 0.0, 10.000465, 9.998543 
2.450194e+2, 2.6569602e+2, -350138.16, -546361.5, 60705.965, -0.035842024, 0.053113714, -332876.0, 3305.4746, 0.0, 10.000767, 9.998199 
2.4502291e+2, 2.756943e+2, -161226.23, -410949.88, 81202.18, 0.14229517, 0.025299441, -137144.22, 101053.73, 0.0, 10.001417, 9.998146 
2.4502338e+2, 2.8569272e+2, -43810.59, -277049.3, 71407.21, 0.045243602, 0.045971658, -23685.426, 116526.89, 0.00000009803459, 10.001432, 9.99839 
2.4502121e+2, 2.9569107e+2, -16924.844, -221207.6, 8820.551, -0.2743306, 0.0006995781, -16544.695, 25681.92, 0.0000023443192, 10.000963, 9.998325 
2.4502496e+2, 3.056889e+2, 3974.8855, -186342.05, -8770.633, 0.0809602, -0.037987515, 4378.2197, 4378.2197, 0.000014153015, 10.000813, 9.998309 
2.450256e+2, 3.15688e+2, 134969.78, 108467.73, -30985.977, 0.076544076, 0.0025024966, 155419.2, 155419.2, 0.00004937861, 10.000663, 10.000398 
2.5499988e+2, 1.2570247e+2, -1648548.5, -1652618.1, -11359.954, -0.08311216, 0.027604576, -1639042.6, 69075.93, 0.00062344765, 10.000249, 10.00028 
2.5499964e+2, 1.3570312e+2, -1704482.6, -1626629.5, 22076.447, -0.15068148, 0.034061562, -1620805.1, -10695.36, 0.0003143659, 9.999243, 10.000277 
2.5500345e+2, 1.4570275e+2, -1611805.9, -1547831.5, 13638.693, 0.16132541, -0.017102428, -1545045.1, -32935.145, 0.00010539114, 9.999243, 10.00013 
2.5500253e+2, 1.5570268e+2, -1354479.4, -1395956.4, 26304.771, 0.009916326, -0.06893867, -1341721.1, 72385.76, 0.000019009012, 10.000461, 9.999907 
2.5500244e+2, 1.6570236e+2, -1292124.9, -1377579.6, 10421.886, -0.0501487, -0.056180507, -1290872.3, 25237.004, 0.0000013062046, 10.000464, 9.999373 
2.5500336e+2, 1.7570156e+2, -1332617.9, -1344367.3, 33894.637, -0.002390406, -0.10909989, -1304092.6, -85974.23, 0.000000000635992, 9.999512, 9.999384 
2.550045e+2, 1.8570146e+2, -1220158.5, -1202313.9, 68037.23, -0.008048849, -0.06747798, -1142616.4, -22496.982, 0.0, 9.999447, 9.99971 
2.550056e+2, 1.9570166e+2, -1029614.75, -1069109.4, 84992.88, -0.070113204, -0.059661962, -962105.3, 60011.63, 0.0, 10.000127, 9.999622 
2.5500783e+2, 2.0570126e+2, -947230.5, -1063483.0, 87450.91, -0.044865634, -0.014667366, -900350.5, 23771.795, 0.0, 10.000391, 9.998865 
2.5501108e+2, 2.1570021e+2, -850769.44, -968971.94, 88356.266, 0.051721614, -0.043628097, -803570.25, 22565.518, 0.0, 10.000386, 9.998844 
2.5501272e+2, 2.2569956e+2, -752167.1, -875300.6, 45875.266, 0.013045427, 0.01507273, -736954.94, -8811.18, 0.0, 10.000417, 9.9987955 
2.5501314e+2, 2.3569897e+2, -647694.44, -778878.56, 49289.027, -0.13471235, 0.03909522, -631239.4, -1089.3145, 0.0, 10.000476, 9.998758 
2.5501528e+2, 2.4569787e+2, -550950.7, -688377.06, 35519.21, -0.12434326, 0.06140779, -542313.25, -10151.861, 0.0, 10.00049, 9.99871 
2.5501862e+2, 2.5569618e+2, -480606.25, -606965.44, 53653.63, 0.0012130043, -0.015364552, -460898.13, -26719.152, 0.0, 10.000306, 9.998687 
2.550212e+2, 2.6569515e+2, -303993.63, -422485.1, 69699.46, 0.035683196, -0.002066215, -271762.2, 64425.3, 0.0, 10.000656, 9.999099 
2.550234e+2, 2.7569446e+2, -124765.82, -305045.3, 118238.42, 0.013893705, -0.016794542, -66226.38, 171964.78, 0.0, 10.001285, 9.9989395 
2.550239e+2, 2.8569293e+2, -105799.21, -385629.22, 38047.727, -0.08206845, 0.011810094, -100718.23, 39487.19, 0.00000013920514, 10.001355, 9.997677 
2.5502256e+2, 2.956904e+2, -88643.39, -330727.72, 7104.32, -0.27419132, -0.054012243, -88435.086, -46203.46, 0.0000022917138, 10.000803, 9.997646 
2.5502622e+2, 3.0568808e+2, -51213.125, -289676.94, -23569.79, 0.094474256, -0.04195641, -48905.81, -48905.81, 0.0000129202135, 10.000767, 9.997617 
2.5502646e+2, 3.1568605e+2, 90656.31, 34965.03, 46490.72, 0.024823008, -0.040200766, 117002.61, 117002.61, 0.000045825393, 10.000581, 9.999932 
2.6499942e+2, 1.2570153e+2, -1794642.4, -1737225.4, 15909.774, -0.08619925, 0.022679579, -1733111.6, -24985.512, 0.00051409315, 9.999254, 10.0001955 
2.650001e+2, 1.3570194e+2, -1639142.3, -1610538.4, -66470.12, -0.03607738, 0.00909709, -1556849.0, 53271.254, 0.0002486299, 9.999708, 10.000182 
2.6500404e+2, 1.4570184e+2, -1587953.5, -1541976.4, -21222.383, 0.2969584, -0.008089215, -1533678.1, -21559.518, 0.00007773356, 9.999438, 10.000074 
2.65003e+2, 1.5570146e+2, -1542153.3, -1495853.4, -46471.543, 0.081896655, -0.08565633, -1467084.9, -52965.473, 0.000013419433, 9.999194, 9.999844 
2.650028e+2, 1.6570131e+2, -1420732.8, -1427274.5, -53308.508, -0.00643749, -0.057974473, -1370594.9, -54474.477, 0.0000010267595, 9.99954, 9.999468 
2.6500353e+2, 1.7570119e+2, -1216812.1, -1277413.9, -65149.563, 0.033194613, -0.056175083, -1175261.8, 42861.613, 0.0000000012219834, 10.000264, 9.99947 
2.6500466e+2, 1.857009e+2, -1061974.3, -1120381.4, 7468.5103, 0.021219825, -0.04177153, -1061034.4, 59091.33, 0.0, 10.000515, 9.999762 
2.6500607e+2, 1.9570026e+2, -1005041.25, -1052583.8, -12146.623, -0.033731207, -0.11778369, -1002117.7, 20012.082, 0.0, 10.000279, 9.999668 
2.6500848e+2, 2.0569997e+2, -944536.5, -1064635.0, 29017.633, -0.011138548, -0.06346607, -937892.9, -13758.982, 0.0, 10.000405, 9.998859 
2.650118e+2, 2.1569978e+2, -808506.44, -953646.4, 22796.033, 0.076098196, -0.0030256615, -805010.25, 21129.684, 0.0, 10.000693, 9.998809 
2.6501364e+2, 2.2569898e+2, -678156.9, -861226.6, 30210.096, 0.04045088, 0.053078644, -673300.44, 54849.375, 0.0, 10.000999, 9.99862 
2.650144e+2, 2.3569754e+2, -542810.7, -748075.5, 15672.852, -0.086413644, 0.010762075, -541620.9, 88543.48, 0.0, 10.001268, 9.998595 
2.6501647e+2, 2.4569637e+2, -458872.84, -625452.75, 21871.111, -0.07150304, 0.024537284, -456049.16, 76127.21, 0.0, 10.0010605, 9.998859 
2.6501948e+2, 2.5569516e+2, -435718.88, -564512.5, 18715.814, 0.053824883, -0.016567526, -433054.3, 1134.1427, 0.0, 10.000541, 9.998856 
2.650219e+2, 2.6569423e+2, -322552.7, -400282.03, 67179.414, 0.061713703, -0.014166607, -283805.9, 52389.18, 0.0, 10.000384, 9.999388 
2.650241e+2, 2.7569354e+2, -214136.78, -310971.28, 36555.016, 0.007666987, -0.060128726, -201886.9, 36311.09, 0.0, 10.000523, 9.99926 
2.6502538e+2, 2.856924e+2, -146274.22, -401418.5, -7873.357, -0.040987864, -0.016163593, -146031.5, -5822.801, 0.00000017298198, 10.001057, 9.997709 
2.6502532e+2, 2.9569024e+2, 81249.5, -238149.52, -11888.873, -0.12149386, -0.045659494, 81691.42, 123922.61, 0.000002277503, 10.001915, 9.99775 
2.6502827e+2, 3.0568743e+2, 144273.08, -219220.8, 22745.197, 0.16527398, -0.078476906, 145690.8, 145690.8, 0.000011809922, 10.002184, 9.997441 
2.6502725e+2, 3.1568536e+2, 177833.25, 27906.586, 108081.62, 0.020939736, -0.05463705, 234403.7, 234403.7, 0.000042458643, 10.0013485, 9.999532 
2.7499977e+2, 1.257004e+2, -1804638.9, -1757720.3, 16578.926, -0.061282866, 0.03925768, -1752453.3, -44317.613, 0.00042131313, 9.999243, 10.000066 
2.750001e+2, 1.3569999e+2, -1663892.4, -1664045.5, -47248.742, -0.047020886, -0.01794078, -1616720.1, -6580.875, 0.0001952308, 9.99972, 9.999807 
2.7500358e+2, 1.4569986e+2, -1599768.3, -1558743.9, -53586.36, 0.2598893, -0.013321641, -1521878.0, -9738.857, 0.000056360343, 9.999405, 9.999978 
2.7500284e+2, 1.5569918e+2, -1553078.6, -1506737.4, -34914.266, 0.11179677, -0.112815805, -1488004.8, -73860.83, 0.000009372096, 9.999151, 9.999788 
2.7500287e+2, 1.6569927e+2, -1424874.0, -1423210.4, -39731.38, 0.01265849, -0.06128485, -1384302.1, -68158.625, 0.0000008660051, 9.999484, 9.999523 
2.750037e+2, 1.756998e+2, -1223725.3, -1278740.0, -25124.23, -0.016500654, 0.0030336443, -1213978.4, 4162.109, 0.000000004874734, 10.000211, 9.999488 
2.7500516e+2, 1.8569931e+2, -1082328.1, -1134124.1, -16808.283, -0.013648595, -0.0005507799, -1077351.8, 42792.688, 0.0, 10.000395, 9.999723 
2.7500695e+2, 1.9569787e+2, -1020410.9, -1059962.9, -2812.5542, -0.005616143, -0.152692, -1020211.9, 1943.293, 0.0, 10.000179, 9.999663 
2.7500916e+2, 2.0569786e+2, -944224.0, -1032972.3, 25342.639, -0.013253214, -0.08666684, -937497.1, -13341.24, 0.0, 10.000274, 9.999139 
2.750117e+2, 2.1569854e+2, -814418.94, -924802.75, 49487.113, -0.034039002, 0.0321603, -795481.75, 30670.707, 0.0, 10.000517, 9.999089 
2.750144e+2, 2.2569755e+2, -706517.25, -875498.7, 26698.117, -0.009881594, 0.05293454, -702399.44, 25764.398, 0.0, 10.000809, 9.998615 
2.7501723e+2, 2.3569503e+2, -568375.94, -761075.8, 37890.22, 0.03890942, -0.09376206, -561193.4, 68995.05, 0.0, 10.001091, 9.998595 
2.7501863e+2, 2.4569418e+2, -463365.5, -604377.2, -11041.094, 0.010896069, -0.058309864, -462506.22, 69690.9, 0.0, 10.000933, 9.999064 
2.75019e+2, 2.5569427e+2, -443941.63, -552158.25, 16895.283, -0.08327455, 0.009085584, -441365.2, -7168.512, 0.0, 10.000404, 9.999011 
2.7502108e+2, 2.6569325e+2, -359861.0, -453096.75, 54097.703, -0.090560555, 0.008417368, -335066.1, 1139.1351, 0.0, 10.000289, 9.999065 
2.7502468e+2, 2.756913e+2, -254777.3, -363316.34, 57407.652, -0.021856098, -0.123208605, -230047.95, 8172.962, 0.00000000009324417, 10.000387, 9.998965 
2.7502754e+2, 2.856907e+2, -96770.76, -284767.72, 7633.223, 0.031673126, -0.054250922, -96461.336, 43764.05, 0.00000023612336, 10.0009985, 9.998534 
2.7502903e+2, 2.956904e+2, 127996.76, -121068.69, 37969.906, 0.010999936, 0.015393683, 133656.63, 175883.98, 0.0000024951785, 10.001818, 9.998604 
2.750305e+2, 3.056871e+2, 169156.3, -140903.11, -13722.64, 0.14297073, -0.14172022, 169762.44, 169762.44, 0.0000116764495, 10.002103, 9.998 
2.7502695e+2, 3.1568614e+2, 120789.92, -34054.195, 129596.94, -0.21866277, -0.04818559, 194329.92, 194329.92, 0.000040637482, 10.001133, 9.9992 
2.8499985e+2, 1.2569836e+2, -1898398.1, -1757805.0, 70450.06, 0.08239609, -0.0009755565, -1728578.6, -20425.287, 0.00034670465, 9.99845, 10.000423 
2.8500003e+2, 1.3569799e+2, -1769274.1, -1699681.8, -45284.332, 0.029372983, -0.06599363, -1677368.9, -67212.66, 0.00015383656, 9.998966, 9.999907 
2.8500298e+2, 1.4569812e+2, -1605942.4, -1571648.5, -1200.612, 0.27450618, -0.03697894, -1571606.5, -59451.598, 0.00004093297, 9.999405, 9.999889 
2.8500286e+2, 1.5569793e+2, -1422988.5, -1448421.0, -14347.565, 0.1667864, -0.080281354, -1416533.0, -2375.7136, 0.0000066741927, 10.000057, 9.999753 
2.8500324e+2, 1.6569796e+2, -1336281.1, -1385568.4, 9026.66, 0.077382036, -0.029852191, -1334680.0, -18522.006, 0.00000074756446, 10.000118, 9.999483 
2.8500408e+2, 1.7569803e+2, -1293277.5, -1322566.4, -13890.044, 0.034176104, -0.0052833715, -1287738.0, -69578.8, 0.000000006090155, 9.999765, 9.999415 
2.8500575e+2, 1.8569757e+2, -1156322.1, -1179780.4, 22273.135, 0.038356878, 0.0039591645, -1142878.5, -22715.428, 0.0, 9.999932, 9.999629 
2.8500786e+2, 1.9569656e+2, -985190.2, -1053001.9, 2402.4268, 0.06459136, -0.096417375, -985105.2, 37065.71, 0.0, 10.000456, 9.9995775 
2.8500998e+2, 2.0569646e+2, -890392.1, -985748.56, 43210.85, 0.03620937, -0.04550872, -873724.5, 50447.492, 0.0, 10.000573, 9.999308 
2.8501207e+2, 2.1569675e+2, -837065.44, -914119.8, 25740.059, -0.025902867, 0.017162923, -829258.0, -3087.3306, 0.0, 10.000282, 9.99927 
2.85015e+2, 2.2569592e+2, -787117.5, -865164.3, 50357.76, 0.013789561, 0.0257543, -762432.75, -34253.35, 0.0, 10.00006, 9.999039 
2.8501853e+2, 2.356941e+2, -714692.7, -784035.8, 63982.85, 0.12751652, -0.09499598, -676591.2, -46394.207, 0.0, 9.999901, 9.999002 
2.8501987e+2, 2.4569343e+2, -572588.3, -664668.56, 50487.254, 0.08406611, -0.055389542, -550300.9, -18097.535, 0.0, 10.000189, 9.999012 
2.850196e+2, 2.5569353e+2, -391771.38, -531197.9, 30440.637, -0.07168617, 0.012097755, -385415.13, 48787.645, 0.0, 10.000785, 9.998966 
2.8502172e+2, 2.6569232e+2, -259136.6, -446145.53, 94410.516, -0.08743233, 0.015847975, -219763.56, 116450.06, 0.0, 10.001152, 9.998703 
2.8502607e+2, 2.7568996e+2, -139607.22, -344012.34, 66166.09, 0.0416407, -0.12444113, -120058.74, 118176.375, 0.0000000018932573, 10.001311, 9.998661 
2.850291e+2, 2.8568923e+2, -87408.836, -255418.8, 28359.38, 0.10000725, -0.062055357, -82751.02, 57489.395, 0.00000028816427, 10.00096, 9.998757 
2.8503045e+2, 2.956895e+2, -60585.816, -176658.66, -16870.645, 0.054724503, 0.036913596, -58183.47, -15947.126, 0.0000027347362, 10.000393, 9.998897 
2.850317e+2, 3.05686e+2, 40016.59, -168951.02, -72657.99, 0.123677276, -0.17017266, 62796.484, 62796.484, 0.000012525966, 10.001038, 9.998326 
2.850286e+2, 3.1568575e+2, 194021.45, -27146.54, 2903.9175, -0.17772175, -0.041333444, 194059.58, 194059.58, 0.00004059471, 10.001746, 9.998948 
2.9499853e+2, 1.256957e+2, -1838243.6, -1647220.0, 58064.703, 0.018279264, -0.07317322, -1630955.3, 77221.13, 0.00028489743, 9.998497, 10.001163 
2.9499957e+2, 1.3569592e+2, -1736002.3, -1634874.6, -17465.164, 0.045519043, -0.13780048, -1631943.3, -21771.813, 0.000121053716, 9.998984, 10.00034 
2.95002e+2, 1.4569649e+2, -1607123.3, -1576280.0, 638.62933, 0.18714511, -0.08111416, -1576266.8, -64099.723, 0.000029834508, 9.999401, 9.999866 
2.9500252e+2, 1.556976e+2, -1429859.3, -1456548.6, 20823.404, 0.0872749, 0.005076271, -1418471.5, -4311.147, 0.000004731658, 10.0000305, 9.999712 
2.9500327e+2, 1.6569738e+2, -1358675.0, -1410806.0, -17594.764, 0.036751773, 0.04090152, -1353292.4, -37128.176, 0.00000054097734, 10.000041, 9.999338 
2.9500425e+2, 1.7569603e+2, -1311121.4, -1341540.6, -5857.511, 0.03644044, -0.06582991, -1310032.4, -91854.875, 0.0000000012704189, 9.999703, 9.999304 
2.95006e+2, 1.8569586e+2, -1179188.4, -1209260.8, 26180.688, 0.038887154, -0.015641587, -1164033.3, -43853.383, 0.0, 9.999847, 9.999474 
2.9500833e+2, 1.9569631e+2, -1010041.25, -1081540.3, 34394.2, 0.02738599, 0.04567528, -996182.4, 25994.656, 0.0, 10.000357, 9.99943 
2.950105e+2, 2.0569573e+2, -911769.25, -993841.0, 18368.57, 0.0013434027, 0.057165325, -907845.75, 16336.663, 0.0, 10.000415, 9.99933 
2.950124e+2, 2.1569423e+2, -858689.94, -917544.9, 31890.967, -0.047598436, -0.059915833, -844723.75, -18527.91, 0.0, 10.000102, 9.999334 
2.9501495e+2, 2.2569402e+2, -755917.9, -755633.0, 28689.727, -0.026194494, -0.03750179, -727085.4, 1111.8368, 0.0, 9.999873, 9.999878 
2.950179e+2, 2.3569463e+2, -687393.25, -685033.8, 75925.805, 0.04564582, -0.00011639879, -610278.56, 19912.514, 0.0, 9.999724, 9.999764 
2.9501984e+2, 2.4569419e+2, -605392.44, -708279.6, 56190.36, 0.028998256, 0.039909724, -580653.4, -48458.54, 0.0, 10.00008, 9.99877 
2.950208e+2, 2.5569278e+2, -429722.16, -580666.2, 64360.387, -0.06290162, -0.013728196, -406006.06, 28202.031, 0.0, 10.000654, 9.998696 
2.9502344e+2, 2.6569128e+2, -292808.56, -495221.2, 87328.37, -0.06476044, -0.009218375, -260340.05, 75882.45, 0.0, 10.001067, 9.998404 
2.9502764e+2, 2.7568945e+2, -181028.58, -395467.75, 84936.125, 0.033741783, -0.068850875, -151462.98, 86777.74, 0.0000000016821552, 10.001167, 9.998376 
2.9502964e+2, 2.8568822e+2, -118820.516, -311190.47, -8528.591, 0.019250678, -0.02548401, -118443.14, 21808.832, 0.00000022409213, 10.000915, 9.9984 
2.950292e+2, 2.956874e+2, -102179.3, -251502.7, -5927.876, -0.15616058, 0.009499738, -101944.336, -59685.613, 0.0000026534976, 10.000323, 9.99843 
2.950315e+2, 3.0568403e+2, 46256.89, -137270.2, -45327.6, -0.03764682, -0.17559312, 56841.477, 56841.477, 0.00001292508, 10.000971, 9.998566 
2.950311e+2, 3.1568396e+2, 165807.42, -60521.754, 73774.92, -0.18285076, -0.057567045, 187731.55, 187731.55, 0.000040888393, 10.001637, 9.998766 
3.04998e+2, 1.2569292e+2, -1827745.5, -1622269.5, 52525.32, 0.13302529, -0.068107374, -1609621.3, 98583.58, 0.00023189843, 9.998488, 10.001348 
3.0499905e+2, 1.3569331e+2, -1695615.4, -1595225.0, -112929.66, 0.09893539, -0.1304516, -1521837.6, 88359.79, 0.000094942065, 9.999165, 10.000533 
3.05001e+2, 1.4569385e+2, -1614784.9, -1559753.5, -69565.77, 0.16088547, -0.09597564, -1512459.4, -265.49393, 0.000021738364, 9.9992895, 10.000018 
3.0500257e+2, 1.5569574e+2, -1529186.8, -1487641.1, -79723.51, 0.13694143, 0.054524176, -1426028.6, -11847.728, 0.0000030875526, 9.999278, 9.999856 
3.0500382e+2, 1.6569579e+2, -1379188.9, -1382220.8, -59053.867, 0.1145441, 0.08880811, -1321631.5, -5449.7437, 0.0000002653173, 9.999702, 9.999705 
3.050048e+2, 1.7569423e+2, -1187368.6, -1244616.9, -40910.613, 0.09843845, -0.073976, -1166062.6, 52132.59, 0.0, 10.000372, 9.999655 
3.0500662e+2, 1.8569414e+2, -1095167.0, -1190376.9, 34339.31, 0.08831471, -0.023411399, -1084074.3, 36123.008, 0.0, 10.000519, 9.99928 
3.0500898e+2, 1.9569483e+2, -1045452.9, -1126488.6, 6350.2026, 0.07267631, 0.086182624, -1044958.3, -22764.398, 0.0, 10.000213, 9.999205 
3.050112e+2, 2.0569421e+2, -924024.94, -967135.94, 26751.107, 0.050815728, 0.08764478, -911225.5, 12974.146, 0.0, 10.000186, 9.999626 
3.050133e+2, 2.1569246e+2, -800287.2, -863454.5, 28955.264, 0.026497824, -0.08337218, -789023.0, 37190.473, 0.0, 10.000378, 9.9995775 
3.050156e+2, 2.2569242e+2, -674416.5, -727703.06, 26488.861, 0.031106638, -0.050090138, -663489.5, 64723.48, 0.0, 10.000468, 9.999791 
3.0501807e+2, 2.3569353e+2, -584152.44, -643908.75, -22674.992, 0.06428943, 0.045453895, -576522.5, 53680.895, 0.0, 10.000457, 9.999702 
3.050204e+2, 2.4569315e+2, -518084.44, -623355.25, 2782.4568, 0.064079225, 0.074258775, -518010.94, 14195.189, 0.0, 10.000537, 9.999117 
3.0502245e+2, 2.5569138e+2, -373081.13, -510104.44, 24050.035, 0.03508922, -0.048640467, -368982.5, 65238.188, 0.0, 10.000889, 9.999054 
3.050252e+2, 2.6569e+2, -332478.0, -514191.8, 88183.22, 0.023212394, -0.051410165, -296720.28, 39513.125, 0.0, 10.000794, 9.998405 
3.0502862e+2, 2.7568868e+2, -290340.13, -447279.47, 78833.12, 0.06113782, -0.06119771, -257579.63, -19332.252, 0.00000000014964384, 10.000421, 9.998374 
3.0503035e+2, 2.856875e+2, -151758.28, -334934.66, 47236.008, 0.020147456, -0.008272681, -140294.86, -36.212505, 0.00000013461268, 10.00074, 9.998314 
3.0503023e+2, 2.9568648e+2, 57532.207, -183392.42, 42238.207, -0.1353995, 0.016616123, 64722.688, 106990.1, 0.0000024184974, 10.001492, 9.998317 
3.0503315e+2, 3.0568293e+2, 115359.78, -155740.05, 22458.152, 0.012281261, -0.1552098, 117207.64, 117207.64, 0.00001259153, 10.001645, 9.998139 
3.050334e+2, 3.1568256e+2, 53441.195, -116061.84, 48735.28, -0.060670655, -0.029425837, 66454.43, 66454.43, 0.000039642433, 10.000845, 9.998797 
3.149976e+2, 1.2569022e+2, -1848936.1, -1664644.0, 12651.609, 0.1661621, 0.03996849, -1663779.5, 44457.074, 0.0001887222, 9.998492, 10.00105 
3.1499788e+2, 1.3569039e+2, -1711419.4, -1607371.1, -79340.77, 0.033658464, -0.0333721, -1564519.1, 45712.81, 0.00007509751, 9.999103, 10.000472 
3.149993e+2, 1.4569029e+2, -1607135.9, -1536714.8, -89329.37, 0.018836517, -0.068238646, -1475907.0, 36327.18, 0.00001598166, 9.9992485, 10.000196 
3.150025e+2, 1.5569226e+2, -1517605.1, -1457543.6, -63066.676, 0.16267444, 0.06951005, -1417722.8, -3503.0916, 0.00000170519, 9.999254, 10.000072 
3.150046e+2, 1.6569306e+2, -1323286.3, -1252881.8, -55846.17, 0.18401517, 0.11972327, -1222068.9, 94142.85, 0.000000057148895, 9.9996395, 10.000629 
3.150054e+2, 1.7569259e+2, -1135742.0, -1122822.8, -7029.4746, 0.08492992, -0.027390728, -1119735.6, 98476.74, 0.0, 10.00031, 10.000522 
3.15007e+2, 1.8569243e+2, -1130284.0, -1237540.8, 7103.6934, 0.04349721, -0.009763473, -1129815.5, -9600.904, 0.0, 10.000405, 9.999012 
3.150093e+2, 1.9569221e+2, -1073843.0, -1158497.1, 11313.069, 0.050392468, 0.033092886, -1072357.3, -50136.414, 0.0, 10.000101, 9.999036 
3.150117e+2, 2.0569201e+2, -913003.4, -902585.2, 18518.87, 0.05592933, 0.055710398, -888556.75, 35665.484, 0.0, 10.000013, 10.000153 
3.1501424e+2, 2.1569155e+2, -796793.3, -811810.5, 52110.914, 0.053617895, -0.03701301, -751652.8, 74569.42, 0.0, 10.000193, 10.00002 
3.1501648e+2, 2.256913e+2, -760781.94, -872272.8, 11713.609, 0.0459841, 0.0018016235, -759564.56, -31339.29, 0.0, 10.000316, 9.998878 
3.150185e+2, 2.3569097e+2, -664133.56, -771040.3, -6556.787, 0.032422263, 0.049462777, -663732.94, -33500.313, 0.0, 10.000288, 9.998918 
3.1502107e+2, 2.456903e+2, -468817.34, -502535.28, 1440.7266, 0.043987278, 0.041423205, -468755.9, 63481.305, 0.0, 10.000451, 9.9999895 
3.1502402e+2, 2.5568926e+2, -336840.34, -398901.03, 48098.01, 0.07322745, -0.098355345, -310631.7, 123609.56, 0.0, 10.000729, 9.999897 
3.150265e+2, 2.656885e+2, -319090.22, -467832.13, 58614.83, 0.044230886, -0.09857089, -298768.3, 37477.855, 0.0, 10.000713, 9.998764 
3.150286e+2, 2.756876e+2, -282198.1, -407904.63, 82988.77, -0.017222138, -0.10094404, -240947.23, -2691.7031, 0.00000000001473293, 10.000314, 9.998702 
3.150308e+2, 2.8568694e+2, -149579.19, -314794.3, 60064.75, -0.040426128, -0.018330006, -130050.64, 10210.904, 0.000000108201135, 10.000678, 9.998477 
3.1503275e+2, 2.9568645e+2, 41312.1, -189375.98, 87337.86, -0.07462663, 0.043421336, 70647.53, 112913.02, 0.0000023186144, 10.001365, 9.998341 
3.150362e+2, 3.0568254e+2, 44059.2, -294795.7, -15165.159, 0.12039662, -0.114802316, 44736.55, 44736.55, 0.000012381474, 10.001604, 9.997202 
3.150349e+2, 3.1568125e+2, 69893.516, -70887.766, 93276.375, -0.07404371, 0.0013449402, 116358.87, 116358.87, 0.000038038284, 10.000789, 9.999136 
3.24997e+2, 1.2568732e+2, -1860683.3, -1698227.0, 140998.0, 0.27185974, 0.011718476, -1616733.1, 91532.13, 0.0001575099, 9.998507, 10.000818 
3.2499743e+2, 1.3568826e+2, -1631789.5, -1570374.3, 21393.322, 0.06738753, 0.014208495, -1563656.9, 46597.99, 0.00006189271, 9.999615, 10.000493 
3.249983e+2, 1.4568794e+2, -1521407.5, -1501226.3, 18732.512, -0.026983013, -0.04359092, -1490039.5, 22219.715, 0.000012633238, 9.9998455, 10.000165 
3.2500196e+2, 1.556889e+2, -1447953.5, -1426260.8, 389.61658, 0.16699904, -0.0022644259, -1426253.8, -12001.133, 0.0000008198343, 9.999726, 10.000066 
3.2500452e+2, 1.6568993e+2, -1326420.3, -1254718.3, 9990.847, 0.2235976, 0.07187578, -1253352.1, 62890.984, 0.000000004124255, 9.999657, 10.000592 
3.2500577e+2, 1.7569068e+2, -1234414.1, -1175907.5, -52634.68, 0.13425234, 0.054320287, -1144943.1, 73291.35, 0.0, 9.999667, 10.000464 
3.250075e+2, 1.8569066e+2, -1189850.3, -1213794.9, -28621.186, 0.09461542, 0.0666526, -1170798.3, -50563.418, 0.0, 9.999772, 9.999474 
3.2500973e+2, 1.9568995e+2, -1077998.5, -1108057.3, -3984.655, 0.104702584, 0.009559808, -1077479.3, -55235.96, 0.0, 9.999867, 9.999483 
3.2501218e+2, 2.056899e+2, -901463.6, -910859.25, 40498.313, 0.10458991, 0.03279629, -865391.56, 58851.16, 0.0, 10.000129, 10.000047 
3.2501483e+2, 2.1569018e+2, -777046.0, -813474.6, -940.51654, 0.09153684, 0.022048958, -777021.75, 49215.656, 0.0, 10.000367, 9.999928 
3.250171e+2, 2.2568978e+2, -745396.9, -871772.44, -3209.019, 0.076289184, 0.054927055, -745315.5, -17073.379, 0.0, 10.000459, 9.998804 
3.250191e+2, 2.3568863e+2, -641137.44, -766863.56, 12605.231, 0.06509137, 0.0234886, -639886.1, -9629.358, 0.0, 10.000482, 9.998843 
3.2502177e+2, 2.45688e+2, -496183.06, -537129.75, 36618.04, 0.082574986, 0.030945634, -474703.6, 57557.953, 0.0, 10.00033, 9.999823 
3.2502484e+2, 2.5568762e+2, -430330.78, -457991.2, -15994.939, 0.12330528, -0.024964131, -423015.94, 11244.337, 0.0, 10.00012, 9.999791 
3.250273e+2, 2.656869e+2, -348871.47, -438622.3, -5335.9023, 0.08192934, -0.03963785, -348555.38, -12291.158, 0.0, 10.000322, 9.999156 
3.2502928e+2, 2.7568552e+2, -172309.1, -309073.7, -8056.198, 0.0016861217, -0.13054983, -171836.17, 66439.48, 0.00000000010851988, 10.000879, 9.999104 
3.2503188e+2, 2.85685e+2, -70380.24, -265559.84, 10907.5205, -0.014177433, -0.059792746, -69772.57, 70507.016, 0.00000014604628, 10.001156, 9.998596 
3.2503474e+2, 2.9568514e+2, 24784.346, -180053.4, 4395.0845, 0.009443352, 0.052615583, 24878.605, 67155.99, 0.0000023415487, 10.001175, 9.998497 
3.2503802e+2, 3.0568105e+2, -13538.336, -303764.88, -50523.66, 0.17830305, -0.13557087, -4994.5166, -4994.5166, 0.000012312151, 10.001173, 9.997322 
3.250363e+2, 3.156799e+2, 133869.45, 47940.637, 103437.53, 0.00049864844, -0.026500717, 202910.69, 202910.69, 0.000036624067, 10.000903, 9.999865 
3.3499515e+2, 1.256842e+2, -1884405.0, -1728677.8, 93395.125, 0.15614474, -0.14050981, -1684946.1, 23344.576, 0.00013854062, 9.998443, 10.00063 
3.3499715e+2, 1.3568711e+2, -1630288.9, -1549405.8, 64581.813, 0.04299367, 0.041833512, -1513648.0, 96616.48, 0.000055370125, 9.999569, 10.000641 
3.3499753e+2, 1.4568688e+2, -1538546.6, -1524149.4, -8506.62, -0.13209987, -0.0068011507, -1520204.3, -7936.4375, 0.000011804474, 9.99979, 10.000034 
3.350004e+2, 1.5568593e+2, -1461485.6, -1445642.6, 11411.069, 0.0029221938, -0.14720447, -1439673.0, -25395.885, 0.00000057438905, 9.999692, 9.9999485 
3.3500314e+2, 1.6568662e+2, -1414062.5, -1424308.5, -4741.982, 0.08686057, -0.04225959, -1412204.6, -95930.92, 0.00000000201948, 9.9995985, 9.999459 
3.3500552e+2, 1.756884e+2, -1308498.6, -1323865.4, -34618.656, 0.10254333, 0.15729134, -1280721.0, -62458.58, 0.0, 9.999637, 9.999466 
3.3500767e+2, 1.8568875e+2, -1129317.3, -1057753.6, -43041.48, 0.09822698, 0.19266656, -1037563.06, 82695.664, 0.0, 9.999642, 10.000608 
3.3500978e+2, 1.9568779e+2, -1022100.56, -966786.7, 13910.107, 0.09198717, -0.0021280374, -963485.6, 58777.73, 0.0, 9.999761, 10.000504 
3.350121e+2, 2.0568779e+2, -974032.2, -1021752.25, 33648.453, 0.061102886, 0.013830915, -956642.7, -32380.275, 0.0, 9.999964, 9.999364 
3.3501455e+2, 2.1568826e+2, -845331.75, -909146.4, 22640.201, -0.00097226986, 0.0886325, -838115.5, -11855.709, 0.0, 10.000173, 9.999365 
3.3501697e+2, 2.256878e+2, -720536.5, -778140.2, -18107.225, -0.010003684, 0.10374052, -715317.5, 12947.035, 0.0, 10.000283, 9.999529 
3.350195e+2, 2.3568647e+2, -627247.0, -689311.1, 24955.404, 0.02873176, -0.019977655, -618457.44, 11819.139, 0.0, 10.00028, 9.999468 
3.3502206e+2, 2.4568622e+2, -580655.5, -694750.06, 13484.576, 0.051447578, 0.050946638, -579083.44, -46804.082, 0.0, 10.000246, 9.998782 
3.3502457e+2, 2.556866e+2, -518856.94, -607280.94, -8067.994, 0.05075427, 0.17201278, -518126.8, -83849.52, 0.0, 9.999973, 9.998836 
3.3502725e+2, 2.6568532e+2, -333912.22, -390607.22, 177.9623, 0.017193161, 0.13011302, -333911.66, 2374.833, 0.0, 10.000255, 9.999515 
3.3503014e+2, 2.756824e+2, -168896.61, -268051.6, 27258.877, -0.037418097, -0.1501263, -161896.95, 76411.07, 0.000000000044508567, 10.000736, 9.999453 
3.3503315e+2, 2.8568166e+2, -59358.465, -235515.89, -3738.8154, -0.038748465, -0.13179688, -59279.15, 81032.95, 0.00000018851506, 10.001111, 9.99883 
3.350358e+2, 2.956827e+2, 32458.227, -150652.8, 23496.41, -0.04719933, 0.04759087, 35425.164, 77726.77, 0.0000023038672, 10.001096, 9.998749 
3.3503816e+2, 3.0567837e+2, 46070.1, -166560.92, -71023.586, 0.043995384, -0.22740656, 67611.3, 67611.3, 0.000011796056, 10.001125, 9.998284 
3.3503658e+2, 3.1567806e+2, 178178.25, 174781.53, 175264.56, -0.13249525, -0.123722784, 351752.7, 351752.7, 0.000034748333, 10.000748, 10.000821 
3.4499392e+2, 1.2568234e+2, -1788303.9, -1724655.3, 55536.207, 0.16712725, -0.10631246, -1692471.3, 15838.154, 0.00012841672, 9.999285, 10.000253 
3.4499705e+2, 1.3568474e+2, -1698498.3, -1613624.0, -18342.94, 0.10600415, 0.052876346, -1609829.4, 460.97928, 0.00005393956, 9.999205, 10.000399 
3.449976e+2, 1.45685e+2, -1577253.3, -1507659.9, -52510.7, -0.06715278, 0.049302656, -1479463.0, 32826.2, 0.00001321429, 9.999392, 10.000329 
3.4500015e+2, 1.5568464e+2, -1405874.1, -1395471.1, -51601.3, 0.0041571395, -0.05665505, -1348809.9, 65481.72, 0.00000089811203, 9.999984, 10.000148 
3.450029e+2, 1.6568497e+2, -1359697.6, -1422074.0, -1590.9454, 0.08950818, 0.013851414, -1359657.0, -43366.21, 0.0000000015154811, 10.000052, 9.999264 
3.450055e+2, 1.7568569e+2, -1316879.6, -1344194.4, 13478.276, 0.14889015, 0.12464986, -1311348.9, -93059.59, 0.0, 9.999649, 9.999321 
3.4500772e+2, 1.8568593e+2, -1129621.8, -1045459.2, 34769.85, 0.15372041, 0.14730479, -1032953.1, 87333.305, 0.0, 9.999579, 10.0007305 
3.4500986e+2, 1.9568545e+2, -1023778.3, -959058.0, -12391.144, 0.13399023, -0.0095786555, -956766.75, 65519.344, 0.0, 9.999698, 10.000596 
3.4501228e+2, 2.0568563e+2, -992664.0, -1026501.56, 32637.176, 0.093307704, 0.019868381, -972821.0, -48537.496, 0.0, 9.999824, 9.9993925 
3.4501478e+2, 2.1568608e+2, -884674.0, -925813.9, 40017.285, 0.029312313, 0.09132235, -860249.44, -33967.918, 0.0, 9.999895, 9.999379 
3.4501725e+2, 2.256857e+2, -778335.06, -799333.0, 13838.48, 0.019067403, 0.108063966, -771463.56, -43178.215, 0.0, 9.99985, 9.9996 
3.4501973e+2, 2.3568442e+2, -708220.9, -722707.3, -19102.738, 0.061856575, -0.014486807, -695034.25, -64738.28, 0.0, 9.999686, 9.999535 
3.4502244e+2, 2.4568404e+2, -631819.0, -729486.25, 23641.719, 0.08388126, 0.044478573, -626397.2, -94097.305, 0.0, 9.999953, 9.99868 
3.4502515e+2, 2.5568405e+2, -436324.9, -586493.7, 39240.773, 0.08909538, 0.14134349, -426689.16, 7612.5415, 0.0, 10.00061, 9.998679 
3.45028e+2, 2.6568258e+2, -292648.06, -403455.0, 74498.51, 0.05244208, 0.10850897, -255209.89, 81103.24, 0.0, 10.000689, 9.999217 
3.4503096e+2, 2.7567974e+2, -245881.64, -332188.94, 21792.863, 0.00079100375, -0.13258733, -240691.03, -2355.916, 0.0, 10.00034, 9.999204 
3.45034e+2, 2.8567892e+2, -185716.5, -273482.66, -4882.229, -0.007852949, -0.119562104, -185445.73, -45105.273, 0.00000016974016, 10.0001745, 9.999005 
3.4503677e+2, 2.956798e+2, -79646.4, -182352.14, -14080.119, -0.0063930275, 0.02638664, -77751.1, -35419.344, 0.0000020169734, 10.000248, 9.998931 
3.450385e+2, 3.0567583e+2, 3444.5571, -161511.22, -95311.24, 0.0037309465, -0.23148152, 47009.66, 47009.66, 0.0000103175025, 10.000687, 9.998547 
3.4503856e+2, 3.1567532e+2, 222102.94, 210585.9, 71174.66, -0.0028472263, -0.18676662, 287751.66, 287751.66, 0.000031962787, 10.000967, 10.000958 
3.5499242e+2, 1.2568158e+2, -1839408.0, -1818990.1, -49775.95, 0.00222836, 0.105780184, -1778387.0, -70064.37, 0.00012227354, 9.99924, 9.999623 
3.549965e+2, 1.3568112e+2, -1730145.1, -1677995.4, -4891.687, 0.09495937, 0.04005981, -1677540.5, -67207.74, 0.00005490219, 9.999218, 9.999941 
3.549981e+2, 1.4568244e+2, -1542285.9, -1436323.5, -48580.504, -0.005984994, 0.13128977, -1417422.4, 94899.664, 0.000015641235, 9.999388, 10.000828 
3.5500073e+2, 1.5568495e+2, -1372031.0, -1332870.1, -16787.3, 0.020500751, 0.2713346, -1326659.0, 87637.81, 0.0000017221555, 10.000008, 10.000572 
3.5500324e+2, 1.6568488e+2, -1311131.8, -1301872.3, -35682.14, 0.08082712, 0.23779374, -1270520.8, 45774.605, 0.000000007086625, 9.999971, 10.000124 
3.550053e+2, 1.7568259e+2, -1270795.4, -1236291.3, 15478.877, 0.1246761, -0.040364027, -1230365.1, -12050.435, 0.0, 9.999595, 10.000088 
3.5500723e+2, 1.8568219e+2, -1213306.5, -1188175.3, 26985.61, 0.114603214, -0.06848643, -1170973.1, -50655.652, 0.0, 9.999449, 9.999812 
3.5500947e+2, 1.9568306e+2, -1097257.9, -1083879.3, 8684.052, 0.0912236, 0.00048668613, -1079606.8, -57297.215, 0.0, 9.999578, 9.999796 
3.5501218e+2, 2.056836e+2, -970108.6, -942211.44, 20435.008, 0.07549126, 0.06826148, -931418.3, -7114.418, 0.0, 9.999659, 10.000054 
3.5501522e+2, 2.156837e+2, -867336.94, -853055.8, 57900.695, 0.053226817, 0.03631409, -801857.06, 24445.072, 0.0, 9.999733, 9.99996 
3.5501754e+2, 2.2568345e+2, -840476.44, -891429.5, -4741.672, 0.03633373, 0.07117523, -840038.94, -111734.266, 0.0, 9.999695, 9.999042 
3.5501933e+2, 2.3568267e+2, -768868.3, -806257.9, -8271.427, 0.023483755, 0.053710554, -767120.2, -136807.02, 0.0, 9.999507, 9.999046 
3.5502225e+2, 2.4568157e+2, -601902.1, -634590.8, 35718.13, 0.042200215, 0.025306767, -578966.44, -46644.52, 0.0, 9.999818, 9.9993925 
3.550261e+2, 2.5567994e+2, -417525.66, -511410.1, 76446.516, 0.08952122, -0.11203239, -374759.22, 59574.258, 0.0, 10.000463, 9.999264 
3.5502902e+2, 2.6567876e+2, -365850.78, -539763.44, 47365.47, 0.057400953, -0.09702813, -353787.44, -17443.875, 0.0, 10.000616, 9.998317 
3.5503128e+2, 2.7567765e+2, -323676.75, -467877.1, 28128.244, -0.034559716, -0.07546121, -318384.2, -80028.4, 0.0, 10.000225, 9.998327 
3.5503402e+2, 2.8567675e+2, -191610.67, -273033.22, -15305.962, -0.05832637, -0.028004259, -188828.5, -48463.535, 0.00000011654808, 10.000122, 9.999034 
3.5503712e+2, 2.9567623e+2, -95221.766, -190563.16, 10319.232, -0.04203283, -0.027130721, -94117.66, -51747.957, 0.0000016052002, 10.000148, 9.998924 
3.550386e+2, 3.0567342e+2, -6568.391, -184921.17, -93138.09, -0.08947793, -0.16189389, 33201.46, 33201.46, 0.000008325357, 10.000686, 9.998393 
3.5504097e+2, 3.1567276e+2, 159678.92, 101771.16, 122639.6, 0.055995747, -0.11290274, 256736.14, 256736.14, 0.000028551576, 10.000865, 10.000269 
3.649926e+2, 1.2567963e+2, -1713935.4, -1748284.3, -15535.197, 0.07440596, 0.13196316, -1707951.6, 392.59863, 0.000118926524, 10.000037, 9.999741 
3.6499605e+2, 1.356787e+2, -1656900.5, -1646867.0, 53921.49, 0.117429726, 0.023891289, -1597729.4, 12627.908, 0.000056465244, 9.999736, 9.999908 
3.6499843e+2, 1.4568e+2, -1543640.9, -1445474.5, 55263.71, 0.09963648, 0.119517565, -1420644.0, 91701.93, 0.00001794202, 9.999406, 10.000762 
3.6500075e+2, 1.5568237e+2, -1497211.4, -1394677.4, 16643.164, 0.07692057, 0.25195357, -1392043.5, 22278.426, 0.000002788093, 9.999153, 10.000564 
3.650032e+2, 1.6568238e+2, -1376120.8, -1303312.1, -6854.744, 0.11999575, 0.21246585, -1302672.4, 13647.177, 0.00000008230677, 9.999406, 10.000385 
3.6500534e+2, 1.7568035e+2, -1200400.8, -1173537.9, -40726.297, 0.16252676, -0.06429101, -1144085.3, 74249.93, 0.0, 9.999966, 10.000334 
3.6500722e+2, 1.8568014e+2, -1136697.0, -1179014.5, 2143.43, 0.14630176, -0.07384269, -1136588.8, -16252.151, 0.0, 10.000097, 9.999562 
3.6500925e+2, 1.9568102e+2, -1078844.0, -1100092.5, 6486.3594, 0.110175975, 0.024696197, -1077020.5, -54690.94, 0.0, 9.999819, 9.999569 
3.6501208e+2, 2.0568131e+2, -927412.0, -919104.3, 55902.76, 0.0938515, 0.07520013, -867201.3, 57125.066, 0.0, 9.999935, 10.000084 
3.6501548e+2, 2.1568087e+2, -784235.9, -810735.2, 12698.341, 0.08699188, -0.014309144, -779133.4, 47195.36, 0.0, 10.000291, 9.999985 
3.6501798e+2, 2.2568057e+2, -722185.5, -854040.2, -30792.49, 0.07410859, 0.023339301, -715348.94, 12982.972, 0.0, 10.000592, 9.998866 
3.6501983e+2, 2.3568015e+2, -586054.75, -736370.1, -34542.863, 0.06863485, 0.06093166, -578496.75, 51841.203, 0.0, 10.000842, 9.998881 
3.6502302e+2, 2.4567887e+2, -457286.16, -578301.2, 24419.883, 0.09524952, 0.029886292, -452544.25, 79804.23, 0.0, 10.000844, 9.999302 
3.6502716e+2, 2.5567678e+2, -399346.1, -505388.8, -22219.629, 0.15215261, -0.14579396, -394878.53, 39485.645, 0.0, 10.000601, 9.99924 
3.650299e+2, 2.656759e+2, -401465.25, -563598.8, -29804.564, 0.10357346, -0.100052886, -396159.97, -59787.59, 0.0, 10.000414, 9.998239 
3.6503166e+2, 2.7567554e+2, -317733.66, -472634.16, -17991.152, -0.012758658, 0.0046484545, -315671.5, -77292.51, 0.0, 10.000307, 9.998248 
3.650346e+2, 2.856744e+2, -185262.2, -297417.88, 1717.4877, -0.009091095, 0.043916717, -185235.9, -44844.355, 0.000000055764154, 10.000258, 9.998815 
3.6503842e+2, 2.9567298e+2, -104324.77, -218204.2, -19266.902, 0.083428495, -0.030657372, -101153.39, -58747.008, 0.0000011855267, 10.000183, 9.998717 
3.6503938e+2, 3.0567127e+2, -3946.965, -191027.42, -73926.0, -0.07199487, -0.03859644, 21738.762, 21738.762, 0.0000067298934, 10.000764, 9.998301 
3.650424e+2, 3.1567088e+2, 244852.77, 129850.48, 63288.19, 0.099400505, 0.04483367, 272860.56, 272860.56, 0.00002565761, 10.001537, 10.000131 
3.749932e+2, 1.2567668e+2, -1647030.4, -1609585.9, -95469.26, 0.05221857, 0.02226221, -1531020.4, 177351.77, 0.0001191897, 10.000035, 10.000687 
3.749951e+2, 1.3567743e+2, -1620247.4, -1572162.3, 52419.53, 0.012213948, 0.01426803, -1538534.6, 71829.59, 0.00005856906, 9.99974, 10.000412 
3.7499815e+2, 1.456777e+2, -1592366.0, -1527391.1, 25008.893, 0.08274205, 0.012614452, -1518880.0, -6519.3945, 0.000020069963, 9.999328, 10.0002365 
3.749998e+2, 1.5567693e+2, -1529320.6, -1464347.3, 26978.445, 0.02507428, -0.11857363, -1454605.8, -40238.555, 0.0000038584762, 9.999163, 10.000084 
3.750024e+2, 1.6567747e+2, -1413938.4, -1367270.5, 426.36942, 0.06304185, -0.060214397, -1367266.6, -50903.754, 0.00000020238203, 9.999345, 9.999973 
3.7500525e+2, 1.7567903e+2, -1234972.9, -1236894.6, -5375.211, 0.12096097, 0.06177644, -1230473.4, -12122.903, 0.0, 9.999921, 9.999924 
3.7500724e+2, 1.8567966e+2, -1121441.0, -1117603.6, -22818.945, 0.10454132, 0.13112964, -1096622.9, 23721.732, 0.0, 9.999971, 10.000043 
3.750088e+2, 1.9567925e+2, -1068222.0, -1049186.3, 14490.057, 0.048853327, 0.051251326, -1041367.6, -19020.77, 0.0, 9.999698, 9.999974 
3.750115e+2, 2.0567864e+2, -994415.2, -1023093.44, 55329.547, 0.01437562, 0.027097104, -951596.9, -27245.084, 0.0, 9.999783, 9.999445 
3.7501502e+2, 2.1567762e+2, -852851.6, -907164.94, 39784.95, -0.018032553, -0.055075683, -831838.5, -5477.2993, 0.0, 10.000096, 9.999416 
3.750181e+2, 2.2567707e+2, -731926.56, -837253.1, -38737.11, 0.0010915807, -0.024312876, -719214.1, 9152.701, 0.0, 10.000423, 9.999065 
3.7502086e+2, 2.3567669e+2, -598927.4, -729618.2, -12783.015, 0.057434473, -0.0055325814, -597688.8, 32683.117, 0.0, 10.000687, 9.999006 
3.7502426e+2, 2.4567597e+2, -529677.75, -701598.7, 1343.5793, 0.1070885, 0.05358585, -529667.25, 2712.7788, 0.0, 10.00073, 9.998511 
3.7502787e+2, 2.556747e+2, -470442.72, -621402.2, -14371.199, 0.12977031, 0.04063808, -469086.78, -34693.582, 0.0, 10.00046, 9.998514 
3.7503022e+2, 2.656739e+2, -360327.88, -462621.16, -46854.15, 0.057675313, 0.0941537, -342111.03, -5710.547, 0.0, 10.000344, 9.998967 
3.7503162e+2, 2.7567324e+2, -283339.2, -381035.13, -4270.435, -0.08370709, 0.09425327, -283152.88, -44746.61, 0.0, 10.000214, 9.998926 
3.7503517e+2, 2.8567192e+2, -213663.0, -347313.2, -13848.187, -0.013169772, 0.09689072, -212243.19, -71822.914, 0.00000003400916, 10.000216, 9.998495 
3.750401e+2, 2.9567006e+2, -146509.17, -283578.63, -893.6756, 0.19113056, 0.021805141, -146503.36, -104062.59, 0.000000899484, 10.000076, 9.998326 
3.750402e+2, 3.0566937e+2, -21282.787, -210851.05, -47937.918, -0.09445714, 0.14300282, -9849.803, -9849.803, 0.000005766145, 10.000703, 9.998192 
3.7504205e+2, 3.15669e+2, 240210.64, 143753.58, 91270.0, -0.16273557, 0.2375443, 295211.0, 295211.0, 0.000023929499, 10.001434, 10.000278 
3.849927e+2, 1.2567505e+2, -1820455.6, -1670572.0, 18268.447, 0.07386527, -0.03952064, -1668377.5, 40008.664, 0.00012316402, 9.998763, 10.000875 
3.8499418e+2, 1.3567634e+2, -1751858.3, -1644940.6, 47917.727, -0.0011405341, 0.009292628, -1626608.4, -16236.615, 0.000061385945, 9.998864, 10.000342 
3.8499838e+2, 1.4567615e+2, -1642824.8, -1579290.9, 56668.645, 0.19511855, -0.02206516, -1546092.6, -33719.973, 0.000022093489, 9.999107, 9.999979 
3.849994e+2, 1.5567477e+2, -1487299.8, -1470487.0, 31976.213, 0.05789424, -0.18971625, -1445830.6, -31445.11, 0.000004863891, 9.999581, 9.999829 
3.8500193e+2, 1.6567513e+2, -1393928.3, -1416009.1, 42173.684, 0.07086143, -0.11126632, -1361373.9, -44989.508, 0.00000029520132, 9.999707, 9.999483 
3.8500515e+2, 1.7567687e+2, -1323781.3, -1328675.0, 8116.287, 0.15035024, 0.07689609, -1317751.0, -99378.84, 0.0, 9.999509, 9.9995 
3.8500747e+2, 1.8567751e+2, -1133848.3, -1126782.1, 3795.4434, 0.14338095, 0.1695908, -1125129.9, -4762.9854, 0.0, 9.999887, 10.000023 
3.8500935e+2, 1.9567692e+2, -931226.94, -991019.7, -31728.553, 0.09551867, 0.06958374, -917528.6, 104842.445, 0.0, 10.000651, 9.999921 
3.8501197e+2, 2.056762e+2, -910303.25, -1004254.8, 23599.025, 0.057243258, 0.046695046, -904708.7, 19668.459, 0.0, 10.000454, 9.999253 
3.8501507e+2, 2.1567516e+2, -954707.75, -980175.4, 17738.225, 0.018146826, -0.015664464, -945605.94, -119219.21, 0.0, 9.999485, 9.999219 
3.850186e+2, 2.256745e+2, -824484.06, -872448.75, 20534.174, 0.050536595, 0.0068486263, -816894.2, -88500.54, 0.0, 9.999752, 9.999142 
3.850225e+2, 2.3567393e+2, -548610.44, -694974.44, 3444.3992, 0.14099213, -0.0020310895, -548529.44, 81870.945, 0.0, 10.001001, 9.999084 
3.8502577e+2, 2.456734e+2, -444417.56, -672395.56, 34089.527, 0.15909488, 0.07625709, -439429.3, 92978.1, 0.0, 10.001385, 9.998375 
3.850284e+2, 2.556725e+2, -382462.72, -597905.8, 36120.27, 0.11242271, 0.11572602, -376568.22, 57849.81, 0.0, 10.001141, 9.9983425 
3.8503066e+2, 2.656716e+2, -251139.78, -395616.1, 38480.855, 0.043608, 0.15505107, -241529.73, 94896.86, 0.0, 10.001024, 9.999109 
3.8503274e+2, 2.7567047e+2, -156166.34, -302784.1, 6937.2085, -0.022197822, 0.09548869, -155838.83, 82596.32, 0.0, 10.001017, 9.999077 
3.8503632e+2, 2.85669e+2, -101169.266, -312563.1, 17141.857, 0.046607777, 0.08789881, -99788.26, 40661.367, 0.000000026095549, 10.001081, 9.998311 
3.850407e+2, 2.9566714e+2, -1902.5361, -229901.45, 13172.422, 0.20220624, 0.027235847, -1144.0353, 41326.18, 0.00000066980994, 10.001148, 9.998173 
3.8504088e+2, 3.0566666e+2, 51558.242, -187291.14, 27614.504, -0.10584512, 0.18183775, 54709.316, 54709.316, 0.000005131084, 10.001246, 9.998092 
3.8504377e+2, 3.156658e+2, 162217.86, 84761.79, 49928.26, -0.0954519, 0.23318313, 186677.58, 186677.58, 0.000023471404, 10.0009985, 10.000077 
3.949903e+2, 1.2567501e+2, -1884820.3, -1775169.3, 10017.429, -0.120819986, -0.042230785, -1774261.6, -65878.21, 0.0001272644, 9.998677, 10.000193 
3.9499274e+2, 1.3567552e+2, -1809951.3, -1746913.9, 67000.96, -0.06695226, 0.0010305822, -1704388.3, -94009.01, 0.00006380605, 9.998815, 9.9996605 
3.9499864e+2, 1.4567539e+2, -1664615.3, -1610619.6, 55402.13, 0.26581088, 0.020347646, -1575987.3, -63605.99, 0.000023677207, 9.999035, 9.999804 
3.949989e+2, 1.5567578e+2, -1498636.4, -1494601.3, 62864.316, 0.011420403, 0.042449895, -1433722.1, -19344.19, 0.000005569423, 9.9995775, 9.999667 
3.950013e+2, 1.656752e+2, -1433082.5, -1477778.6, 15450.071, 0.0039139288, 0.05254363, -1428261.9, -111876.43, 0.00000035120044, 9.999631, 9.999094 
3.950047e+2, 1.7567383e+2, -1363513.6, -1388931.1, 20204.803, 0.12013214, -0.02724691, -1352353.0, -133952.05, 0.0, 9.999421, 9.999129 
3.9500764e+2, 1.8567365e+2, -1190827.5, -1216719.9, 18571.447, 0.13699235, 0.030712351, -1181135.1, -60730.793, 0.0, 9.99976, 9.999472 
3.9501044e+2, 1.9567412e+2, -984113.44, -1067528.0, 7058.04, 0.106090926, 0.0944714, -983520.44, 38880.82, 0.0, 10.000512, 9.999461 
3.95013e+2, 2.056741e+2, -913582.0, -969602.4, -28784.57, 0.08992534, 0.14605948, -901428.5, 22972.662, 0.0, 10.0002775, 9.999576 
3.950152e+2, 2.156735e+2, -964802.7, -949561.25, 4998.0757, 0.05654531, 0.09511048, -948068.44, -121663.08, 0.0, 9.999271, 9.999528 
3.9501908e+2, 2.2567286e+2, -849613.44, -887208.0, 55880.063, 0.09493384, 0.10448629, -809453.8, -81041.74, 0.0, 9.999587, 9.999123 
3.950242e+2, 2.3567186e+2, -572263.06, -704842.5, 64632.67, 0.18246928, 0.058808506, -545969.3, 84454.27, 0.0, 10.000833, 9.9991 
3.950271e+2, 2.456711e+2, -426127.7, -607793.56, 10856.144, 0.12422544, 0.0902174, -425481.25, 106950.16, 0.0, 10.0012665, 9.998882 
3.9502826e+2, 2.5567025e+2, -368797.88, -538873.75, 42818.992, -0.049595527, 0.081151865, -358625.94, 75813.27, 0.0, 10.001002, 9.99882 
3.9503086e+2, 2.6566902e+2, -293604.9, -464635.0, 24433.691, -0.06928086, 0.088761404, -290182.75, 46267.418, 0.0, 10.0009365, 9.998682 
3.9503458e+2, 2.7566722e+2, -201636.2, -373770.75, 23440.832, 0.023246545, 0.009877765, -198501.19, 39964.652, 0.0, 10.000904, 9.998651 
3.9503756e+2, 2.856657e+2, -114232.555, -315805.66, 5958.097, 0.034648977, 0.013277381, -114056.6, 26423.658, 0.000000010243951, 10.000995, 9.998325 
3.950398e+2, 2.9566416e+2, -20647.9, -230223.75, 36431.75, -0.043410454, -0.00904275, -14495.384, 27999.654, 0.0000005130985, 10.000996, 9.998242 
3.950411e+2, 3.056631e+2, 46668.785, -194260.33, 12441.468, -0.24331824, 0.08405251, 47309.555, 47309.555, 0.0000059963604, 10.0012245, 9.998056 
3.950466e+2, 3.156607e+2, 108064.56, -473.94196, 22478.994, 0.01797645, -0.009226786, 112535.91, 112535.91, 0.000027747768, 10.000884, 9.999548 
4.0499026e+2, 1.2567367e+2, -1889307.3, -1780916.0, -16671.535, 0.034018263, 0.01490053, -1778409.8, -70011.18, 0.0001282802, 9.998628, 10.00019 
4.0499163e+2, 1.3567363e+2, -1730672.5, -1701756.6, -28826.658, -0.06363535, -0.007496941, -1683965.4, -73567.4, 0.00006493345, 9.999314, 9.999734 
4.049983e+2, 1.456734e+2, -1609045.9, -1602318.8, 31457.766, 0.3167889, 0.007815823, -1574045.3, -61644.33, 0.00002457309, 9.999492, 9.999642 
4.0499854e+2, 1.5567455e+2, -1530192.4, -1527119.9, 3291.511, 0.03456799, 0.11980439, -1525023.8, -110632.01, 0.000005781208, 9.999423, 9.999524 
4.0500116e+2, 1.656738e+2, -1398506.0, -1446227.1, 14651.13, 0.026875626, 0.11696385, -1394366.9, -77967.26, 0.0000003430959, 9.999807, 9.999218 
4.0500486e+2, 1.7567159e+2, -1195462.8, -1300463.1, 21388.607, 0.14639643, -0.06335339, -1191273.0, 27147.91, 0.0, 10.000533, 9.999195 
4.0500808e+2, 1.8567103e+2, -1089465.1, -1220160.6, 67506.99, 0.17207055, -0.023394924, -1060858.0, 59570.02, 0.0, 10.000699, 9.99899 
4.050113e+2, 1.9567141e+2, -1037228.1, -1146353.8, 35539.184, 0.15755694, 0.084491566, -1026674.6, -4247.3896, 0.0, 10.000386, 9.998983 
4.0501392e+2, 2.0567124e+2, -893707.94, -977320.25, -11321.928, 0.15073825, 0.1520878, -892202.0, 32227.979, 0.0, 10.000491, 9.999411 
4.0501598e+2, 2.156704e+2, -736427.9, -857392.44, -46549.953, 0.13278916, 0.09185866, -720588.44, 105849.125, 0.0, 10.000918, 9.99936 
4.050195e+2, 2.2566994e+2, -698710.44, -803948.2, 37437.598, 0.13794982, 0.12328452, -686751.3, 41691.88, 0.0, 10.000579, 9.999219 
4.0502414e+2, 2.356695e+2, -741192.2, -778910.7, 28291.393, 0.16305695, 0.12358385, -726050.4, -95600.44, 0.0, 9.999626, 9.999181 
4.0502742e+2, 2.4566883e+2, -640088.9, -654941.4, 11069.634, 0.12240088, 0.13449489, -634185.25, -101729.66, 0.0, 9.999554, 9.999384 
4.050296e+2, 2.5566787e+2, -453066.1, -519519.63, 16553.621, 0.032172717, 0.06380308, -449170.88, -14709.288, 0.0, 10.000195, 9.9993305 
4.0503246e+2, 2.6566657e+2, -335542.47, -521608.84, 35024.86, 0.014631271, 0.053747248, -329167.84, 7305.097, 0.0, 10.000792, 9.998355 
4.050359e+2, 2.7566454e+2, -166399.5, -394750.4, 14680.6, 0.057358257, -0.017013058, -165459.56, 73032.484, 0.0, 10.001289, 9.998321 
4.0503865e+2, 2.85663e+2, -47029.953, -280823.28, 28493.031, 0.0337918, -0.001265213, -43607.527, 96898.69, 0.0000000008315615, 10.00143, 9.99836 
4.0504098e+2, 2.9566166e+2, 36145.65, -192706.45, 29097.1, -0.029506743, -0.01664037, 39787.215, 82305.14, 0.0000007104038, 10.00133, 9.998335 
4.0504324e+2, 3.056606e+2, 29968.055, -247586.3, 20831.3, -0.14353572, 0.09134579, 31522.799, 31522.799, 0.000009515816, 10.001303, 9.997656 
4.050484e+2, 3.156564e+2, 87629.27, -74943.586, -81434.23, 0.121905215, -0.13246056, 121403.766, 121403.766, 0.000039448827, 10.000978, 9.999002 
4.1499165e+2, 1.256707e+2, -1823625.0, -1657572.9, 50342.59, 0.22323067, 0.11926535, -1643502.6, 64931.99, 0.00012596608, 9.998667, 10.001017 
4.1499037e+2, 1.3567072e+2, -1653160.1, -1563218.8, 3287.3157, -0.16451697, -0.0038871965, -1563098.8, 47328.754, 0.00006410072, 9.999383, 10.000656 
4.1499683e+2, 1.4567018e+2, -1620230.5, -1613753.5, 12298.582, 0.1778219, -0.06047089, -1604274.1, -91842.36, 0.00002430965, 9.999458, 9.999577 
4.1499794e+2, 1.5567116e+2, -1541068.9, -1531434.0, 21670.959, -0.006351416, 0.042678982, -1514051.5, -99625.61, 0.0000053776803, 9.99936, 9.999521 
4.1500103e+2, 1.656711e+2, -1375741.5, -1376322.8, 27164.906, 0.00006276159, 0.08014721, -1348865.6, -32439.393, 0.0000002359893, 9.999708, 9.999743 
4.1500506e+2, 1.7567027e+2, -1173057.5, -1235608.5, 62323.234, 0.0761229, -0.013815593, -1134602.5, 83828.49, 0.0, 10.000457, 9.999675 
4.1500837e+2, 1.8566963e+2, -1129800.4, -1281308.4, 39739.316, 0.095636226, 0.014968505, -1120009.8, 427.90863, 0.0, 10.000603, 9.998613 
4.1501138e+2, 1.9566876e+2, -1083189.3, -1211544.6, 39604.16, 0.098183945, 0.033448346, -1071953.0, -49503.766, 0.0, 10.000265, 9.998587 
4.1501424e+2, 2.0566756e+2, -964422.8, -1094363.0, -9593.309, 0.10597363, 0.056021295, -963718.4, -39254.42, 0.0, 10.00035, 9.998683 
4.150169e+2, 2.1566588e+2, -809998.94, -961492.6, -20728.646, 0.1018028, -0.016967447, -807213.9, 19269.246, 0.0, 10.00071, 9.998746 
4.1501942e+2, 2.2566585e+2, -713223.06, -790089.94, -12776.854, 0.044317763, 0.075455725, -711154.94, 17331.396, 0.0, 10.00039, 9.999406 
4.150218e+2, 2.3566678e+2, -749240.8, -757703.44, 11695.369, -0.061730098, 0.19302621, -741034.9, -110554.7, 0.0, 9.999466, 9.999403 
4.150261e+2, 2.4566656e+2, -616276.9, -580083.94, 22985.412, 0.0019760618, 0.20751761, -568926.1, -36446.07, 0.0, 9.999443, 9.999949 
4.150318e+2, 2.5566524e+2, -435053.94, -453558.5, 57095.41, 0.19865625, 0.04464859, -386466.0, 48020.9, 0.0, 10.000066, 9.9998455 
4.1503504e+2, 2.65664e+2, -359956.16, -548655.75, 41657.88, 0.16027994, 0.026709607, -351168.84, -14671.577, 0.0, 10.000701, 9.998208 
4.1503626e+2, 2.7566254e+2, -195194.58, -421775.1, 47401.33, -0.074478306, 0.022977289, -185677.8, 52835.383, 0.0, 10.001164, 9.998188 
4.1503915e+2, 2.856611e+2, -40473.79, -272661.97, 7508.0884, -0.09821012, 0.052897923, -40231.258, 100295.25, 0.00000000001177225, 10.001433, 9.998424 
4.1504353e+2, 2.9565957e+2, 25045.934, -194690.67, 41816.016, 0.0442987, 0.014105758, 32734.523, 75273.234, 0.0000013022876, 10.001227, 9.998378 
4.1504663e+2, 3.056591e+2, -17719.568, -335762.4, 2676.2488, 0.03190382, 0.20604998, -17697.049, -17697.049, 0.000014575742, 10.001267, 9.997058 
4.1504848e+2, 3.1565365e+2, 39627.59, -138383.11, -62717.15, -0.04350772, -0.08201277, 59504.715, 59504.715, 0.000055427667, 10.000844, 9.99862 
4.2499164e+2, 1.2566714e+2, -1628974.9, -1565836.5, 160176.67, 0.30636162, 0.1458047, -1434147.8, 274323.6, 0.00012015749, 9.999993, 10.001011 
4.2498958e+2, 1.3566743e+2, -1865219.8, -1651528.3, -90933.97, -0.09197655, 0.037250713, -1618070.8, -7609.7114, 0.00006079175, 9.997862, 10.000779 
4.2499575e+2, 1.4566688e+2, -1840496.3, -1685195.8, -7028.792, 0.21726036, -0.043569915, -1684878.4, -172413.72, 0.00002257458, 9.997798, 9.999883 
4.2499778e+2, 1.5566742e+2, -1537546.9, -1495491.8, -14434.943, 0.061009146, -0.018713178, -1491013.9, -76552.29, 0.0000044461326, 9.999241, 9.99982 
4.2500132e+2, 1.656676e+2, -1343070.8, -1363116.0, 5705.2534, 0.054813612, 0.032104876, -1341560.8, -25101.225, 0.00000009724189, 9.999959, 9.99971 
4.2500544e+2, 1.7566739e+2, -1226568.0, -1261983.0, -32464.742, 0.09314355, 0.0043115355, -1207295.6, 11163.584, 0.0, 10.000102, 9.999667 
4.250087e+2, 1.8566684e+2, -1158066.1, -1275808.3, -37980.066, 0.09521015, 0.033109874, -1146878.1, -26413.574, 0.0, 10.00031, 9.998801 
4.2501166e+2, 1.9566569e+2, -1033926.8, -1172812.5, -24235.742, 0.09541066, 0.002676158, -1029819.1, -7341.446, 0.0, 10.000516, 9.998739 
4.2501464e+2, 2.0566452e+2, -970514.3, -1121316.6, -2569.7898, 0.11495326, 0.0330887, -970470.5, -45977.887, 0.0, 10.0004225, 9.99846 
4.2501748e+2, 2.1566312e+2, -919599.1, -1041957.1, -8200.656, 0.13400011, 0.014063576, -919051.94, -92540.47, 0.0, 10.0000725, 9.998507 
4.2501986e+2, 2.2566299e+2, -746069.06, -784872.2, 30640.748, 0.07699536, 0.09934848, -729203.9, -688.4253, 0.0, 10.000082, 9.999582 
4.250218e+2, 2.3566368e+2, -608220.75, -668344.9, 21968.66, -0.047279675, 0.17439021, -601049.1, 29460.56, 0.0, 10.000353, 9.999582 
4.2502636e+2, 2.4566346e+2, -437167.4, -503044.47, 63703.492, 0.031369604, 0.18599233, -398390.66, 134118.94, 0.0, 10.000707, 9.999876 
4.250331e+2, 2.5566226e+2, -281016.16, -389170.94, 19070.234, 0.27610934, 0.045085676, -277752.13, 156764.73, 0.0, 10.001151, 9.999774 
4.250367e+2, 2.6566142e+2, -272707.4, -478517.34, 12472.741, 0.24374719, 0.055761375, -271954.28, 64569.664, 0.0, 10.00118, 9.998471 
4.2503792e+2, 2.756605e+2, -222891.95, -407205.1, 21003.441, 0.0006943053, 0.086763725, -220528.8, 18004.73, 0.0, 10.000859, 9.998442 
4.2504075e+2, 2.8565887e+2, -117854.96, -314760.63, 21673.465, -0.05045593, 0.08890779, -115497.58, 25050.615, 0.0000000012455732, 10.000958, 9.998342 
4.25045e+2, 2.956565e+2, 44308.56, -197420.11, 7585.743, 0.074296534, -0.026569232, 44546.375, 87114.914, 0.0000019825331, 10.001419, 9.998263 
4.2504916e+2, 3.0565584e+2, 67601.79, -294142.13, 18081.7, 0.14401454, 0.15344983, 68503.36, 68503.36, 0.000019679212, 10.001863, 9.997056 
4.2505035e+2, 3.1565148e+2, 269905.1, 23149.8, -53542.242, 0.0051028, -0.02724722, 281022.1, 281022.1, 0.00007104561, 10.002199, 9.999084 
4.3498963e+2, 1.2566301e+2, -1692107.3, -1677649.1, 117166.336, 0.025663331, 0.091837004, -1567489.0, 141019.28, 0.00011272219, 9.999943, 10.00026 
4.3498898e+2, 1.3566388e+2, -1912398.3, -1744252.3, -146776.06, 0.016537488, 0.115270056, -1659176.0, -48678.184, 0.00005585788, 9.997857, 10.000143 
4.3499452e+2, 1.4566343e+2, -1804277.8, -1602150.8, 34811.6, 0.2666078, 0.043933008, -1596323.3, -83823.06, 0.000019900395, 9.997753, 10.000479 
4.3499747e+2, 1.5566331e+2, -1496192.8, -1415738.0, 52832.43, 0.06709123, -0.05689757, -1389561.3, 24937.871, 0.0000034951138, 9.999254, 10.000365 
4.3500143e+2, 1.6566323e+2, -1394632.4, -1449054.8, -5179.4165, 0.035262033, -0.029624725, -1394143.9, -77643.625, 0.000000032016867, 9.999876, 9.999156 
4.3500543e+2, 1.7566293e+2, -1271384.4, -1334808.3, -11202.588, 0.048688836, -0.012417918, -1269463.8, -50958.48, 0.0, 10.000021, 9.999203 
4.350087e+2, 1.8566267e+2, -1125209.4, -1177873.9, -44137.12, 0.028525177, 0.029569678, -1100146.4, 20361.72, 0.0, 10.000182, 9.999537 
4.3501166e+2, 1.9566226e+2, -1003343.56, -1076793.9, -1825.9578, 0.009746416, 0.000256126, -1003298.2, 19213.03, 0.0, 10.000381, 9.999463 
4.3501458e+2, 2.0566219e+2, -979380.5, -1101962.6, -31666.098, 0.03745447, 0.092292674, -971683.6, -47168.36, 0.0, 10.0002575, 9.998671 
4.3501738e+2, 2.1566205e+2, -931105.7, -1027453.7, -5414.973, 0.08221052, 0.17662057, -930802.3, -104279.336, 0.0, 9.999906, 9.998685 
4.350204e+2, 2.2566146e+2, -762416.94, -779251.2, 26616.604, 0.09163719, 0.20026658, -742918.25, -14388.554, 0.0, 9.999913, 9.999702 
4.3502358e+2, 2.356602e+2, -628447.4, -669036.3, 47655.62, 0.068195045, 0.07024402, -596944.9, 33593.406, 0.0, 10.000175, 9.999662 
4.350279e+2, 2.4565955e+2, -511494.6, -626100.44, 65915.05, 0.08258432, 0.07474675, -481456.7, 51087.418, 0.0, 10.000579, 9.999087 
4.35033e+2, 2.556591e+2, -351697.53, -500690.3, 49074.348, 0.118767045, 0.08183474, -336986.28, 97563.95, 0.0, 10.001006, 9.999073 
4.3503708e+2, 2.6565892e+2, -232894.97, -382559.78, -12154.112, 0.1303391, 0.1568307, -231914.36, 104637.0, 0.0, 10.001117, 9.999163 
4.3504032e+2, 2.7565858e+2, -190762.27, -319131.8, 27938.334, 0.116212316, 0.172641, -184945.36, 53606.715, 0.0, 10.00076, 9.999096 
4.350428e+2, 2.8565633e+2, -148606.03, -362341.03, 26650.383, 0.023764415, 0.10178738, -145333.14, -4762.035, 0.000000012355592, 10.0009, 9.998038 
4.3504518e+2, 2.9565257e+2, 6416.49, -251609.4, 42460.52, -0.094899304, -0.12358117, 13224.146, 55829.723, 0.0000027662056, 10.001324, 9.997934 
4.3505046e+2, 3.0565095e+2, 100370.195, -225210.64, 18541.51, 0.05266831, -0.04957371, 101422.71, 101422.71, 0.000024180765, 10.001852, 9.997537 
4.3505284e+2, 3.1564948e+2, 326881.9, 175136.38, 38593.516, -0.039911386, 0.0047710203, 336133.38, 336133.38, 0.00008333817, 10.002061, 10.000194 
4.4498825e+2, 1.2565823e+2, -2007784.9, -1828660.3, 153146.56, 0.0213936, 0.031030761, -1740809.8, -32259.287, 0.00010688196, 9.997819, 10.000232 
4.4498894e+2, 1.3565917e+2, -1718712.1, -1645111.5, -167548.14, 0.17731878, 0.059648022, -1510369.9, 100171.34, 0.000051033883, 9.99919, 10.00018 
4.449932e+2, 1.45659e+2, -1530431.6, -1487870.1, 85762.32, 0.27470145, 0.023797391, -1420787.6, 91754.48, 0.000017295639, 9.9997, 10.000326 
4.449973e+2, 1.5565905e+2, -1490670.3, -1428595.3, 4047.5088, 0.1298054, -0.049849596, -1428332.4, -13791.879, 0.0000027656245, 9.999352, 10.000232 
4.4500163e+2, 1.6565908e+2, -1466957.0, -1483514.5, -29818.39, 0.10373918, -0.0056809545, -1444289.4, -127747.805, 0.000000035556127, 9.999351, 9.999188 
4.450052e+2, 1.7565891e+2, -1326009.0, -1358503.0, -20692.852, 0.05574394, 0.020276185, -1315947.1, -97400.24, 0.0, 9.999617, 9.999245 
4.4500855e+2, 1.856587e+2, -1176377.6, -1173410.9, -29392.25, 0.027827771, 0.051520657, -1145464.6, -24915.39, 0.0, 9.999735, 9.999767 
4.4501206e+2, 1.9565813e+2, -1089366.6, -1090859.0, -59693.152, 0.057007138, -0.013767144, -1030415.0, -7862.58, 0.0, 9.999692, 9.999687 
4.4501513e+2, 2.0565833e+2, -989040.0, -1054978.5, -67353.41, 0.088268906, 0.07378003, -947019.56, -22467.117, 0.0, 9.99999, 9.999112 
4.4501773e+2, 2.1565884e+2, -812583.7, -921893.44, -54763.12, 0.10742679, 0.18006776, -789868.3, 36684.367, 0.0, 10.000524, 9.999104 
4.4502094e+2, 2.2565813e+2, -659775.06, -748137.25, 990.025, 0.124711566, 0.18113577, -659763.94, 68795.555, 0.0, 10.000695, 9.9995365 
4.4502467e+2, 2.3565617e+2, -585042.1, -671604.9, -28866.54, 0.14754435, -0.0019697538, -576298.94, 54275.363, 0.0, 10.00057, 9.9994545 
4.450289e+2, 2.4565536e+2, -552970.4, -691215.06, 26807.355, 0.13833496, 0.017303964, -547954.1, -15371.406, 0.0, 10.000487, 9.998685 
4.4503346e+2, 2.5565526e+2, -463907.38, -594222.2, 9351.438, 0.10348079, 0.09795719, -463239.72, -28651.5, 0.0, 10.00041, 9.998714 
4.4503793e+2, 2.65655e+2, -294682.97, -402077.9, -38834.08, 0.13864237, 0.17731287, -282112.03, 54478.95, 0.0, 10.000654, 9.999244 
4.4504225e+2, 2.7565426e+2, -120767.57, -278622.66, -77843.484, 0.22298366, 0.14876923, -88838.61, 149756.42, 0.0, 10.001214, 9.999154 
4.4504473e+2, 2.856522e+2, -59080.1, -323762.6, -55697.465, 0.10720086, 0.09116092, -47837.184, 92775.81, 0.00000003062236, 10.00152, 9.998015 
4.4504645e+2, 2.956489e+2, 29773.387, -230556.58, -56361.473, -0.09686946, -0.0802006, 41451.76, 84094.8, 0.0000032986038, 10.001455, 9.998012 
4.45052e+2, 3.0564684e+2, 23347.77, -194128.52, -35913.137, 0.07951963, -0.08718425, 29124.854, 29124.854, 0.000027227657, 10.001021, 9.998141 
4.4505495e+2, 3.1564698e+2, 118417.64, 121042.5, -12658.391, 0.061329756, 0.06415617, 132456.31, 132456.31, 0.000091368296, 10.000435, 10.000591 
4.5498663e+2, 1.2565273e+2, -1969267.3, -1746744.9, 182526.48, -0.0039920993, -0.05730006, -1644242.3, 64356.508, 0.000102696926, 9.997808, 10.000798 
4.5498887e+2, 1.3565329e+2, -1667751.3, -1555670.8, -102085.54, 0.21136902, -0.13465126, -1495255.1, 115336.31, 0.000047349753, 9.999246, 10.0007715 
4.5499134e+2, 1.456535e+2, -1598596.0, -1617503.4, 63080.79, 0.069071464, -0.11412821, -1544264.5, -31672.994, 0.000015080613, 9.999658, 9.999454 
4.5499682e+2, 1.5565452e+2, -1552219.0, -1546246.6, 10464.991, 0.10529165, 0.00040887395, -1538350.1, -123763.484, 0.0000021144335, 9.999317, 9.999436 
4.5500147e+2, 1.6565515e+2, -1429225.4, -1389947.6, -37518.477, 0.1157361, 0.10476007, -1367238.9, -50655.23, 0.00000004449902, 9.999278, 9.9998665 
4.5500436e+2, 1.7565534e+2, -1287694.5, -1275056.5, 5660.1943, -0.026533304, 0.0989984, -1272892.1, -54308.473, 0.0, 9.999593, 9.999831 
4.5500785e+2, 1.8565482e+2, -1215745.8, -1231698.8, -46178.484, -0.046672087, 0.09052719, -1176859.9, -56271.64, 0.0, 9.999636, 9.999412 
4.5501235e+2, 1.9565333e+2, -1133443.9, -1144917.3, -46641.188, 0.084047176, -0.033354808, -1092187.9, -69587.195, 0.0, 9.9995365, 9.999386 
4.5501578e+2, 2.0565307e+2, -967640.25, -972988.8, -62769.598, 0.1222016, -0.011090283, -907488.0, 17115.207, 0.0, 9.999825, 9.999757 
4.5501813e+2, 2.1565357e+2, -801181.8, -847147.75, -21513.117, 0.06532045, 0.02597759, -792684.2, 33915.76, 0.0, 10.000307, 9.999718 
4.550211e+2, 2.2565311e+2, -718082.8, -830350.8, -17636.484, 0.044865184, 0.049050078, -715377.44, 13226.758, 0.0, 10.000521, 9.999063 
4.5502454e+2, 2.3565161e+2, -636557.1, -744718.44, -17377.201, 0.04380449, -0.043437473, -633833.9, -3216.336, 0.0, 10.000418, 9.999028 
4.550289e+2, 2.4565099e+2, -573096.06, -698512.44, 10591.736, 0.0613731, 0.015182795, -572207.9, -39582.84, 0.0, 10.000348, 9.998704 
4.5503405e+2, 2.5565073e+2, -485052.66, -602939.25, 24840.492, 0.091954194, 0.08586287, -480032.2, -45401.24, 0.0, 10.000259, 9.998732 
4.5503893e+2, 2.656496e+2, -354457.9, -501666.1, -29148.414, 0.141354, 0.10914095, -348896.4, -12252.877, 0.0, 10.000554, 9.998601 
4.550434e+2, 2.7564755e+2, -182387.47, -378561.75, -38089.08, 0.1805343, 0.007154455, -175251.69, 63411.56, 0.0, 10.001095, 9.998518 
4.550462e+2, 2.856464e+2, -44983.105, -286173.88, -70786.945, 0.064675696, 0.060206506, -25742.734, 114930.7, 0.000000022691747, 10.001473, 9.998301 
4.5504826e+2, 2.9564548e+2, 50375.52, -179347.34, -42215.668, -0.10676261, 0.09554605, 57887.742, 100568.766, 0.0000033720132, 10.001396, 9.998403 
4.5505324e+2, 3.0564344e+2, 71673.49, -81828.766, -66986.06, 0.06668883, 0.025545513, 96794.19, 96794.19, 0.000028360193, 10.000984, 9.99892 
4.5505577e+2, 3.1564367e+2, 82706.05, 70051.96, 62703.69, 0.025745878, 0.1118538, 139401.1, 139401.1, 0.00009465621, 10.000337, 10.000285 
4.6498528e+2, 1.2564722e+2, -1991430.9, -1745105.8, 184658.25, 0.10994329, -0.090946525, -1646305.1, 62345.758, 0.00009773488, 9.997556, 10.000937 
4.6498892e+2, 1.3564806e+2, -1682824.8, -1543130.5, -146003.95, 0.3179764, -0.16794929, -1451126.5, 159515.05, 0.000043477085, 9.999012, 10.000984 
4.649897e+2, 1.4564858e+2, -1602485.4, -1619559.4, 22810.201, -0.047605805, -0.12610784, -1586667.0, -74027.49, 0.000012657647, 9.999637, 9.99945 
4.649963e+2, 1.5565002e+2, -1536516.1, -1535243.1, -3708.8806, 0.12833387, 0.029745942, -1532116.5, -117484.86, 0.0000014631825, 9.999422, 9.999461 
4.6500126e+2, 1.6565087e+2, -1397492.5, -1333110.9, 16581.445, 0.17660852, 0.13587935, -1329091.4, -12464.964, 0.000000030371112, 9.999331, 10.000221 
4.650039e+2, 1.7565104e+2, -1297458.9, -1239336.1, 2611.7573, -0.01159391, 0.09281586, -1239219.0, -20593.723, 0.0, 9.999361, 10.000182 
4.650076e+2, 1.8565066e+2, -1189369.9, -1202233.8, -4387.983, -0.029273113, 0.07239061, -1188015.8, -67387.71, 0.0, 9.999715, 9.999593 
4.6501267e+2, 1.9564952e+2, -1013758.44, -1072121.0, 8253.255, 0.13569994, -0.03517066, -1012613.75, 10023.188, 0.0, 10.000258, 9.999558 
4.6501622e+2, 2.0564915e+2, -929718.56, -977060.44, -1456.7292, 0.17761208, -0.023774248, -929673.75, -5033.218, 0.0, 10.00017, 9.999567 
4.650184e+2, 2.156491e+2, -917028.5, -930004.5, -57109.082, 0.10573159, -0.01858894, -866040.06, -39397.496, 0.0, 9.999618, 9.999489 
4.650215e+2, 2.2564863e+2, -816890.94, -894678.06, -22333.176, 0.07080975, 0.021937711, -810934.94, -82286.89, 0.0, 9.999933, 9.998889 
4.6502537e+2, 2.3564756e+2, -570131.56, -728864.25, -34802.316, 0.066089675, -0.009067576, -562836.4, 67822.34, 0.0, 10.000961, 9.998866 
4.6502978e+2, 2.45647e+2, -442125.03, -611311.7, 13495.436, 0.08624583, 0.052432943, -441055.3, 91609.945, 0.0, 10.001134, 9.9989195 
4.650348e+2, 2.556466e+2, -418384.22, -550849.06, 13952.586, 0.13402149, 0.08125082, -416930.53, 17740.803, 0.0, 10.000627, 9.998907 
4.6503964e+2, 2.6564527e+2, -347284.63, -526601.75, 37755.934, 0.15691285, 0.09160932, -339659.22, -2973.6375, 0.0, 10.000706, 9.99837 
4.6504408e+2, 2.7564308e+2, -187347.19, -403183.16, 32343.826, 0.14475684, -0.00094909617, -182604.56, 56103.426, 0.0, 10.00115, 9.998331 
4.6504745e+2, 2.8564218e+2, -80265.06, -280306.78, 21856.572, 0.070875406, 0.07368475, -77904.86, 62811.47, 0.00000001636591, 10.001135, 9.9985 
4.6505067e+2, 2.9564175e+2, -11393.637, -174284.14, -2548.2698, 0.032010242, 0.13641351, -11353.781, 31364.877, 0.0000038591365, 10.0008335, 9.998696 
4.650548e+2, 3.056399e+2, 50939.816, -104754.11, -35253.72, 0.14205305, 0.07349236, 58550.293, 58550.293, 0.000029778155, 10.000856, 9.998861 
4.6505663e+2, 3.1563932e+2, 124888.32, 17250.914, 19009.555, 0.06532954, 0.0958362, 128146.9, 128146.9, 0.00009717631, 10.000922, 9.999661 
4.7498327e+2, 1.2564158e+2, -2023125.9, -1769243.9, 105261.086, 0.06939182, -0.065534756, -1731279.1, -22571.266, 0.00009217974, 9.997417, 10.000819 
4.7498858e+2, 1.3564344e+2, -1686516.9, -1538044.9, -72867.984, 0.34360173, -0.03547418, -1508258.1, 102433.805, 0.00003847725, 9.998986, 10.001014 
4.7498778e+2, 1.4564429e+2, -1543694.4, -1495992.9, -1934.2618, -0.25372463, -0.008921222, -1495914.5, 16771.254, 0.000009911169, 9.99961, 10.00032 
4.7499526e+2, 1.5564547e+2, -1470958.9, -1409948.9, 3862.5615, 0.040379018, 0.033391923, -1409705.4, 4970.801, 0.0000009593812, 9.999452, 10.000316 
4.7500068e+2, 1.6564614e+2, -1405759.8, -1333388.0, 2332.7266, 0.14738876, 0.07825355, -1333312.9, -16642.184, 0.000000014696447, 9.999263, 10.000256 
4.750034e+2, 1.7564596e+2, -1303011.9, -1233975.6, 22154.59, -0.03460989, 0.002631368, -1227477.6, -8805.045, 0.0, 9.999292, 10.000257 
4.7500727e+2, 1.8564628e+2, -1147843.3, -1093084.8, 2693.5635, -0.0690922, 0.006944711, -1092952.6, 27715.47, 0.0, 9.999612, 10.000395 
4.7501257e+2, 1.9564675e+2, -980968.2, -981501.0, 42523.15, 0.06913768, -0.018698117, -938710.6, 83950.29, 0.0, 10.000156, 10.000235 
4.7501612e+2, 2.0564656e+2, -1026268.94, -1141476.4, -36723.414, 0.12032157, 0.036784697, -1015558.7, -90894.14, 0.0, 10.00002, 9.998507 
4.7501805e+2, 2.1564555e+2, -1012659.94, -1083658.9, -57654.4, 0.08125349, 0.049704626, -980452.4, -153772.58, 0.0, 9.999431, 9.998519 
4.7502166e+2, 2.2564472e+2, -833566.44, -898891.94, 2363.6074, 0.061972722, 0.09820247, -833481.06, -104790.625, 0.0, 9.999788, 9.998938 
4.7502664e+2, 2.3564388e+2, -589792.3, -729988.5, 16044.338, 0.068128824, 0.08379618, -587979.6, 42719.613, 0.0, 10.000785, 9.998947 
4.750311e+2, 2.4564327e+2, -434181.7, -566600.9, -18780.537, 0.07204817, 0.11585785, -431569.63, 101135.375, 0.0, 10.001004, 9.999292 
4.7503528e+2, 2.556426e+2, -413935.2, -515911.1, 13413.464, 0.07743048, 0.07792736, -412200.34, 22510.982, 0.0, 10.0005, 9.999213 
4.7503957e+2, 2.6564187e+2, -345133.7, -496038.97, 39436.195, 0.04822357, 0.12298589, -335449.3, 1269.0894, 0.0, 10.000603, 9.998625 
4.7504377e+2, 2.7564082e+2, -184185.56, -368762.1, 64658.6, -0.03483775, 0.1181922, -163789.06, 74940.4, 0.0, 10.0010395, 9.998616 
4.750481e+2, 2.8563935e+2, -84250.88, -283754.88, -6260.757, -0.013589758, 0.123089805, -84054.6, 56687.91, 0.0000000367379, 10.001104, 9.998495 
4.750531e+2, 2.956374e+2, -31228.168, -195687.66, 2742.2693, 0.14875884, 0.02778517, -31182.455, 11576.601, 0.000004901276, 10.000727, 9.998611 
4.750562e+2, 3.05636e+2, -18595.559, -222951.3, -47666.492, 0.17087805, 0.05557669, -8024.099, -8024.099, 0.000032907166, 10.000763, 9.998084 
4.7505644e+2, 3.156341e+2, 49374.727, -117794.02, 80060.04, -0.1247828, 0.033801652, 81531.26, 81531.26, 0.00010232853, 10.000847, 9.998759 
4.849817e+2, 1.2563659e+2, -1956853.6, -1749661.1, 118377.35, 0.16427892, -0.050068047, -1695950.8, 12808.129, 0.00008688649, 9.997923, 10.000722 
4.849875e+2, 1.3563895e+2, -1720279.4, -1560401.5, 682.5482, 0.36424783, 0.040921807, -1560398.5, 50341.18, 0.000032757685, 9.998767, 10.000985 
4.8498622e+2, 1.4563999e+2, -1599046.0, -1482927.9, 42636.438, -0.33347246, 0.069262296, -1468954.1, 43776.883, 0.000007215262, 9.999069, 10.000664 
4.8499498e+2, 1.5564065e+2, -1522130.8, -1403460.1, -35816.6, 0.10252964, 0.024671484, -1393488.0, 21236.148, 0.00000059770906, 9.998963, 10.000595 
4.8500058e+2, 1.6564108e+2, -1443244.3, -1345895.1, -11291.664, 0.23575778, 0.033094727, -1344602.5, -27883.037, 0.0000000048834687, 9.998991, 10.000294 
4.850028e+2, 1.7564104e+2, -1318552.6, -1231627.3, -16607.47, -0.008570952, -0.03568875, -1228562.4, -9842.846, 0.0, 9.999166, 10.000318 
4.8500672e+2, 1.8564178e+2, -1197682.6, -1099985.8, -28117.154, -0.056112327, -0.0016148447, -1092471.6, 28240.451, 0.0, 9.999218, 10.000518 
4.850125e+2, 1.9564287e+2, -1118433.6, -1027692.75, -65022.527, 0.105120696, 0.017483113, -993776.4, 28924.578, 0.0, 9.999155, 10.000376 
4.8501644e+2, 2.056429e+2, -997612.1, -1134685.6, -79372.31, 0.14999598, 0.091042265, -961281.1, -36578.027, 0.0, 10.000232, 9.9984665 
4.850189e+2, 2.156418e+2, -633906.25, -901221.0, -50823.375, 0.1012073, 0.09984218, -624569.5, 202149.2, 0.0, 10.0020275, 9.998528 
4.8502257e+2, 2.2564091e+2, -558892.06, -759700.56, 29085.752, 0.09229672, 0.13779218, -554764.06, 173965.33, 0.0, 10.001638, 9.999009 
4.8502722e+2, 2.3563993e+2, -768186.6, -813806.94, 16247.602, 0.119728334, 0.106529966, -762991.6, -132252.7, 0.0, 9.99953, 9.998985 
4.850317e+2, 2.4563912e+2, -628553.1, -668471.9, 38708.055, 0.10582037, 0.11961045, -604961.5, -72214.945, 0.0, 9.999707, 9.999218 
4.850361e+2, 2.5563827e+2, -255563.13, -442835.0, 312.28586, 0.06491898, 0.07557863, -255562.6, 179191.84, 0.0, 10.001617, 9.999175 
4.8504043e+2, 2.6563784e+2, -165875.9, -372796.97, 4980.3223, 0.029301455, 0.13364397, -165756.11, 171001.92, 0.0, 10.00167, 9.998956 
4.850446e+2, 2.7563733e+2, -273240.5, -380546.25, 5411.01, -0.010732445, 0.15087222, -272968.34, -34205.582, 0.0, 10.000281, 9.998906 
4.8504934e+2, 2.8563568e+2, -189826.78, -350244.66, -855.75305, 0.04272248, 0.13136452, -189822.22, -49044.66, 0.00000008825205, 10.0004425, 9.998356 
4.850551e+2, 2.9563323e+2, 110984.47, -147213.16, -43050.188, 0.23230432, 0.004428514, 117973.21, 160772.73, 0.0000056092463, 10.001788, 9.998431 
4.8505762e+2, 3.0563182e+2, 135490.33, -188655.98, -70306.64, 0.19125809, 0.0567255, 150082.77, 150082.77, 0.000035389916, 10.001992, 9.99772 
4.85058e+2, 3.1562945e+2, 108267.54, -87356.69, 51289.05, -0.053644065, 0.024313478, 120898.97, 120898.97, 0.00010599746, 10.001237, 9.998778 
4.949792e+2, 1.2563209e+2, -1958797.5, -1759137.6, -58982.67, 0.036198754, -0.046065476, -1743015.1, -34209.88, 0.00007926606, 9.99795, 10.00064 
4.949851e+2, 1.3563459e+2, -1717857.4, -1558696.1, 46696.754, 0.21506983, 0.05506518, -1546007.3, 64777.543, 0.000026309035, 9.99878, 10.000987 
4.949845e+2, 1.456357e+2, -1631483.3, -1533012.1, 21710.836, -0.45389602, 0.106604345, -1528437.8, -15662.897, 0.0000047383246, 9.998997, 10.000356 
4.949949e+2, 1.5563558e+2, -1547724.0, -1447697.8, -22913.95, 0.16082661, 0.013896975, -1442698.5, -27923.453, 0.0000002991547, 9.998929, 10.000306 
4.9500048e+2, 1.6563587e+2, -1442847.9, -1332768.6, -21023.994, 0.29098925, 0.014535055, -1328890.0, -12118.635, 0.0000000005507737, 9.998934, 10.000414 
4.9500173e+2, 1.7563628e+2, -1321427.1, -1224300.4, 2226.9646, -0.06474658, -0.020233339, -1224249.4, -5482.674, 0.0, 9.999106, 10.000398 
4.9500564e+2, 1.8563707e+2, -1250340.3, -1182441.0, -44456.117, -0.11798863, 0.04363106, -1160453.9, -39692.824, 0.0, 9.999108, 10.000003 
4.9501193e+2, 1.9563779e+2, -1163706.0, -1096096.9, -49290.496, 0.097545765, 0.07745149, -1070132.8, -47374.652, 0.0, 9.999043, 9.999961 
4.9501678e+2, 2.0563814e+2, -945239.1, -990216.7, -27613.045, 0.13456662, 0.14402495, -932115.75, -7359.2847, 0.0, 10.000071, 9.999538 
4.9502048e+2, 2.1563792e+2, -586990.6, -771582.44, 23688.838, 0.022999479, 0.13434313, -583999.1, 242759.5, 0.0, 10.001874, 9.999498 
4.950237e+2, 2.2563714e+2, -584604.94, -769636.75, -63593.04, 0.013345261, 0.1360531, -564856.56, 163909.0, 0.0, 10.001461, 9.99902 
4.9502668e+2, 2.3563564e+2, -794540.4, -827181.25, -35640.508, 0.07922493, 0.049416702, -771661.3, -140882.56, 0.0, 9.999353, 9.998977 
4.9503112e+2, 2.4563459e+2, -688150.56, -757240.5, 97150.13, 0.046754684, 0.06690648, -619586.4, -86796.84, 0.0, 9.999566, 9.998673 
4.9503687e+2, 2.5563353e+2, -307538.53, -522648.94, 82319.69, -0.057216972, 0.05964369, -279651.3, 155150.42, 0.0, 10.001494, 9.998687 
4.950418e+2, 2.65633e+2, -154344.48, -321530.3, -63843.305, -0.037977144, 0.10870194, -132753.08, 204053.33, 0.0, 10.001564, 9.999354 
4.9504593e+2, 2.756326e+2, -274621.97, -342876.13, -23572.574, 0.06351593, 0.096713975, -267272.25, -28464.215, 0.0, 10.000118, 9.999238 
4.9505064e+2, 2.856314e+2, -219557.02, -391039.22, 38461.598, 0.09093139, 0.116575405, -211325.63, -70506.32, 0.00000018947561, 10.000359, 9.998113 
4.9505615e+2, 2.9562938e+2, 81636.63, -189624.44, 23501.693, 0.11479534, 0.06351783, 83657.73, 126497.195, 0.000005650319, 10.001716, 9.99817 
4.9505877e+2, 3.056274e+2, 139768.61, -183757.73, -107607.66, 0.07200631, 0.07417937, 172290.63, 172290.63, 0.00003451672, 10.001995, 9.997755 
4.950603e+2, 3.1562522e+2, 159068.81, 35014.52, 83810.11, -0.028742071, 0.039660044, 201308.17, 201308.17, 0.00010176044, 10.001155, 9.999658 
5.049776e+2, 1.256286e+2, -2005830.6, -1768728.3, -74690.52, 0.114101, 0.0071012476, -1747161.5, -38319.426, 0.000066640154, 9.997592, 10.000735 
5.04984e+2, 1.3563064e+2, -1635832.9, -1523305.8, 106527.82, 0.21384338, 0.06296109, -1459096.3, 151728.45, 0.0000195532, 9.9993515, 10.000959 
5.0498474e+2, 1.4563155e+2, -1530243.6, -1509157.1, 69253.48, -0.36000556, 0.11025718, -1449649.0, 63167.203, 0.0000028130235, 9.999814, 10.000117 
5.0499415e+2, 1.5563096e+2, -1488342.9, -1438008.4, -9111.862, 0.17761628, -0.0038126411, -1436409.6, -21588.922, 0.00000011765629, 9.999439, 10.000117 
5.049996e+2, 1.6563131e+2, -1390301.1, -1294059.1, 38939.11, 0.3012812, 0.0020424917, -1280277.9, 36538.438, 0.000000000026416515, 9.999221, 10.000548 
5.050016e+2, 1.7563209e+2, -1315025.9, -1211587.1, 34209.47, 0.023419427, -0.0075323097, -1201297.0, 17510.426, 0.0, 9.999086, 10.000505 
5.0500554e+2, 1.856328e+2, -1250207.0, -1216972.8, 33385.656, -0.038003977, 0.059330624, -1196297.4, -75494.36, 0.0, 9.999246, 9.99971 
5.050112e+2, 1.9563314e+2, -1098170.9, -1091860.4, 20002.506, 0.10016285, 0.08891671, -1074765.8, -51960.844, 0.0, 9.999607, 9.999724 
5.0501645e+2, 2.0563352e+2, -975205.56, -947876.4, 70400.85, 0.123893954, 0.14194995, -889826.25, 34976.66, 0.0, 9.999643, 10.000017 
5.0502133e+2, 2.156336e+2, -929352.44, -885666.0, 38594.68, 0.0586387, 0.11590956, -863162.0, -36361.49, 0.0, 9.9993305, 9.999925 
5.050248e+2, 2.2563301e+2, -776676.9, -881562.3, -76724.984, 0.044883657, 0.12679407, -736184.3, -7378.8203, 0.0, 10.000216, 9.998859 
5.050272e+2, 2.3563167e+2, -435513.22, -665363.75, -95123.96, 0.07880353, 0.0713165, -401252.75, 229565.28, 0.0, 10.001889, 9.998858 
5.050316e+2, 2.4563049e+2, -394922.25, -636096.7, 91124.06, 0.039894525, 0.09143888, -364364.28, 168465.83, 0.0, 10.0016575, 9.998501 
5.0503767e+2, 2.556291e+2, -541216.0, -651438.75, 76444.99, -0.04047751, 0.064771324, -502087.8, -67242.61, 0.0, 9.999961, 9.998539 
5.050428e+2, 2.6562828e+2, -381006.03, -450101.7, -48991.727, -0.005215841, 0.09729245, -355606.03, -18752.904, 0.0, 10.000073, 9.999204 
5.0504714e+2, 2.7562758e+2, -81744.11, -265614.9, -87374.74, 0.11340636, 0.07432547, -46847.086, 192011.08, 0.00000000061010413, 10.001494, 9.999114 
5.0505203e+2, 2.8562662e+2, -49359.727, -288851.03, 12375.315, 0.14902389, 0.115654044, -48721.953, 92145.25, 0.00000027597625, 10.001437, 9.998303 
5.050576e+2, 2.956253e+2, -125709.484, -273030.84, -5738.7983, 0.16851304, 0.11369686, -125486.27, -82605.7, 0.0000049916057, 10.000222, 9.998325 
5.0506e+2, 3.05623e+2, -67436.445, -275047.25, -77792.586, 0.08043308, 0.0781841, -41521.965, -41521.965, 0.000030276777, 10.000542, 9.997826 
5.0506264e+2, 3.1562153e+2, 259366.7, 107711.44, 62031.74, 0.07548873, 0.10291993, 281507.25, 281507.25, 0.000090633286, 10.001746, 9.99987 
5.149755e+2, 1.2562618e+2, -1989649.6, -1740951.9, -178101.4, 0.05753505, 0.1183108, -1648084.9, 60783.945, 0.000052165007, 9.997609, 10.0009165 
5.149837e+2, 1.3562718e+2, -1635359.3, -1530831.4, 185693.52, 0.21137212, 0.067083605, -1390187.0, 220671.5, 0.000013925394, 9.999385, 10.000891 
5.149864e+2, 1.4562759e+2, -1548444.0, -1542530.8, 33687.043, -0.22426581, 0.08144104, -1511670.9, 1183.3872, 0.000001645238, 9.99979, 9.999906 
5.1499224e+2, 1.5562679e+2, -1506441.9, -1466992.1, -6380.684, 0.0074165557, -0.034325536, -1465985.8, -51123.855, 0.00000003629146, 9.999401, 9.99994 
5.1499736e+2, 1.6562733e+2, -1393575.4, -1278742.9, 20214.377, 0.12579574, -0.0077878223, -1275288.4, 41566.95, 0.0, 9.999129, 10.000693 
5.150019e+2, 1.7562857e+2, -1317833.3, -1199032.4, 46614.707, 0.10224202, 0.0089107435, -1182925.6, 35915.53, 0.0, 9.999016, 10.000619 
5.150059e+2, 1.8562917e+2, -1266777.5, -1230097.5, 32115.596, 0.03581792, 0.06342765, -1211454.1, -90618.06, 0.0, 9.999148, 9.999664 
5.1500976e+2, 1.9562902e+2, -1112472.1, -1106697.0, 48306.605, -0.03873417, 0.0417881, -1061191.8, -38350.594, 0.0, 9.999531, 9.9996605 
5.1501495e+2, 2.0562893e+2, -1020240.4, -1000418.1, 43675.766, -0.018330568, 0.06958959, -965543.06, -40699.594, 0.0, 9.999468, 9.999742 
5.150211e+2, 2.1562868e+2, -969728.5, -932919.8, 46495.805, 0.07053619, 0.031346932, -901318.4, -74472.13, 0.0, 9.999166, 9.999681 
5.1502544e+2, 2.256284e+2, -820190.25, -939070.8, -30053.21, 0.06168768, 0.10140146, -813024.7, -84174.11, 0.0, 10.000067, 9.998542 
5.1502824e+2, 2.3562787e+2, -477171.25, -720420.0, -23911.492, -0.03359077, 0.15914766, -474843.03, 156015.39, 0.0, 10.001745, 9.998556 
5.1503253e+2, 2.4562675e+2, -391711.97, -601580.9, 12546.919, -0.065595485, 0.18496917, -390964.5, 141904.92, 0.0, 10.001543, 9.998788 
5.150379e+2, 2.5562492e+2, -547832.6, -630671.5, 37169.18, -0.045820855, 0.083137944, -533600.3, -98714.766, 0.0, 9.999805, 9.998757 
5.15043e+2, 2.656236e+2, -446542.53, -560238.8, -9804.35, -0.019728804, 0.0950048, -445703.25, -108804.6, 0.0, 9.9999695, 9.998498 
5.1504785e+2, 2.7562222e+2, -140139.27, -365002.9, -17215.79, -0.00012411815, 0.07710214, -138828.84, 100085.12, 0.0000000018853024, 10.001392, 9.9984865 
5.1505303e+2, 2.856214e+2, -13019.431, -203417.55, -48953.21, 0.07078424, 0.13032956, -1170.4742, 139751.14, 0.00000034894228, 10.0014, 9.998903 
5.1505864e+2, 2.9562095e+2, -102817.02, -206060.06, -23144.068, 0.20811619, 0.14904158, -97866.21, -54942.305, 0.000004315403, 10.000132, 9.998829 
5.1506066e+2, 3.0561838e+2, -67737.37, -257439.53, -38691.324, 0.054151654, 0.061619, -60149.457, -60149.457, 0.000026122347, 10.000486, 9.99797 
5.150641e+2, 3.1561774e+2, 206983.5, 35222.863, 162615.03, -0.027451433, 0.16334201, 305002.8, 305002.8, 0.000081293096, 10.00161, 9.999435 
5.2497447e+2, 1.2562262e+2, -1842177.1, -1672758.4, -177584.22, 0.16052398, 0.12347365, -1560714.5, 148190.66, 0.000041919076, 9.998621, 10.0008955 
5.2498233e+2, 1.3562301e+2, -1768813.3, -1620675.8, 163346.9, 0.19109239, 0.035227377, -1515389.0, 95510.75, 0.000010470756, 9.998577, 10.000661 
5.249878e+2, 1.4562348e+2, -1689559.6, -1590639.4, 40877.58, -0.0018634503, 0.05681565, -1575933.5, -63038.98, 0.0000009776196, 9.998732, 10.000086 
5.249916e+2, 1.556234e+2, -1487823.3, -1440740.5, -5380.6016, 0.009670417, -0.0045219585, -1440133.4, -25238.324, 0.000000005050013, 9.999444, 10.000099 
5.249962e+2, 1.6562392e+2, -1336200.1, -1296089.9, 35395.59, 0.074766695, 0.031662848, -1275462.6, 41427.07, 0.0, 9.999719, 10.000295 
5.250017e+2, 1.7562449e+2, -1251101.3, -1210071.5, -14756.046, 0.16193654, 0.025101746, -1205315.8, 13567.252, 0.0, 9.999648, 10.000246 
5.25006e+2, 1.8562478e+2, -1175837.9, -1172562.9, -289.11774, 0.11788025, 0.058901202, -1172537.5, -51656.883, 0.0, 9.999724, 9.999786 
5.250096e+2, 1.9562455e+2, -1067871.3, -1070958.4, -7339.4, -0.01566578, 0.025028022, -1061914.9, -39030.785, 0.0, 9.9998045, 9.999772 
5.250146e+2, 2.0562446e+2, -978585.25, -1003499.7, 14814.446, -0.0116281025, 0.059339963, -971686.6, -46800.664, 0.0, 9.999841, 9.999544 
5.250208e+2, 2.1562426e+2, -891917.0, -918481.3, -2545.1887, 0.09675543, 0.04492965, -891675.3, -64786.004, 0.0, 9.999789, 9.999483 
5.250255e+2, 2.2562388e+2, -840005.25, -934090.3, 8148.2295, 0.078995615, 0.10919165, -839304.8, -110410.05, 0.0, 9.999895, 9.998642 
5.250291e+2, 2.3562306e+2, -702672.44, -819142.94, 8006.4536, -0.036501054, 0.13098346, -702124.6, -71219.63, 0.0, 10.00016, 9.998636 
5.250336e+2, 2.4562211e+2, -534238.5, -645376.4, 22421.021, -0.048149757, 0.15684836, -529885.75, 3028.1777, 0.0, 10.000445, 9.999028 
5.2503884e+2, 2.5562087e+2, -402211.9, -535529.06, 16422.742, 0.031456687, 0.09260731, -400218.7, 34704.855, 0.0, 10.000698, 9.998986 
5.250439e+2, 2.656195e+2, -352560.7, -531415.0, 73124.79, 0.039050717, 0.09552475, -326469.66, 10467.347, 0.0, 10.00069, 9.998339 
5.2504873e+2, 2.7561766e+2, -285121.63, -441050.03, 71565.05, 0.0044213803, 0.03982835, -257255.9, -18298.936, 0.00000000009174081, 10.000461, 9.998388 
5.2505416e+2, 2.8561676e+2, -105283.89, -260364.42, 35573.664, 0.07837498, 0.095791474, -97513.09, 43452.215, 0.00000033351301, 10.000824, 9.998783 
5.250599e+2, 2.9561648e+2, 107235.625, -115396.41, -27157.684, 0.25541252, 0.14438683, 110500.56, 153466.56, 0.0000041082662, 10.001623, 9.998725 
5.2506167e+2, 3.056139e+2, 122128.43, -168682.77, -13584.085, 0.056031946, 0.061583567, 122761.58, 122761.58, 0.000024723933, 10.001784, 9.99797 
5.2506655e+2, 3.1561285e+2, 82251.25, -68541.83, 98123.63, 0.1084798, 0.13035314, 130599.95, 130599.95, 0.00007789345, 10.000928, 9.999064 
5.349732e+2, 1.2561779e+2, -1842230.6, -1681171.0, -235354.05, 0.0815305, 0.0118866805, -1512950.8, 196001.84, 0.000035694404, 9.99867, 10.00081 
5.3497946e+2, 1.3561818e+2, -1804029.4, -1685244.3, 169531.56, 0.010700343, -0.027984561, -1565002.6, 45944.97, 0.000008273398, 9.998545, 10.000238 
5.349883e+2, 1.4561929e+2, -1658947.1, -1511536.1, 49964.234, 0.13229564, 0.05010349, -1496197.1, 16738.912, 0.00000061502607, 9.998663, 10.000656 
5.349916e+2, 1.5562098e+2, -1460741.9, -1377498.4, 36257.387, 0.03519309, 0.0981435, -1363920.8, 50998.477, 0.00000000036285042, 9.999413, 10.0005455 
5.349956e+2, 1.6562109e+2, -1414960.5, -1446908.6, 14457.527, 0.008703412, 0.12949601, -1409389.5, -92470.49, 0.0, 9.999662, 9.999289 
5.3500074e+2, 1.756198e+2, -1322261.4, -1350170.8, -1066.7328, 0.066220336, 0.03712785, -1322220.8, -103286.9, 0.0, 9.999611, 9.999308 
5.3500557e+2, 1.856195e+2, -1172647.8, -1145870.0, -11428.326, 0.067513525, 0.046131607, -1141655.8, -20718.762, 0.0, 9.999637, 10.0000105 
5.3501016e+2, 1.9561966e+2, -1071008.9, -1056049.1, 11211.6455, 0.02759172, 0.027114585, -1050051.3, -27116.684, 0.0, 9.999702, 9.9999275 
5.350148e+2, 2.056201e+2, -1010754.75, -1024469.56, -1255.7938, 0.0014533275, 0.10895809, -1010640.75, -85710.3, 0.0, 9.999654, 9.999483 
5.350198e+2, 2.1562053e+2, -921525.44, -937360.6, 10107.985, -0.004562769, 0.16594313, -916603.25, -89675.71, 0.0, 9.999607, 9.999438 
5.350246e+2, 2.2561957e+2, -834398.2, -888442.7, 3725.1921, -0.030561818, 0.15288633, -834142.6, -105205.91, 0.0, 9.99974, 9.999034 
5.350292e+2, 2.3561728e+2, -700240.1, -771901.4, 34884.633, -0.076546356, -0.01767518, -686063.06, -55105.117, 0.0, 9.999974, 9.999049 
5.350344e+2, 2.4561653e+2, -542432.8, -629806.8, 18449.125, -0.039250936, 0.000603381, -538697.0, -5732.732, 0.0, 10.000314, 9.999195 
5.3504e+2, 2.5561675e+2, -408479.66, -520897.0, 42670.45, 0.04865319, 0.06722098, -394117.94, 40843.59, 0.0, 10.000579, 9.999144 
5.3504485e+2, 2.6561585e+2, -332650.38, -470156.0, 47552.727, 0.04082887, 0.08924943, -317807.7, 19161.447, 0.0, 10.000607, 9.998799 
5.3504914e+2, 2.756137e+2, -275229.56, -397579.2, 82485.9, -0.038877245, -0.041140817, -233709.28, 5279.2544, 0.0, 10.00035, 9.998751 
5.350547e+2, 2.8561246e+2, -166207.0, -374179.53, 53322.94, 0.017812558, 0.0007754531, -153332.33, -12331.586, 0.00000019037492, 10.000776, 9.998021 
5.35061e+2, 2.956118e+2, 39043.832, -233587.81, 24800.396, 0.15765743, 0.08659161, 41281.473, 84290.125, 0.0000040138116, 10.001519, 9.997967 
5.350626e+2, 3.0560938e+2, 102506.93, -206473.81, -50967.06, -0.06009142, 0.07186864, 110696.97, 110696.97, 0.000024880646, 10.001766, 9.997717 
5.3506875e+2, 3.1560692e+2, 58083.12, -127894.414, 105307.15, 0.14750223, 0.021851217, 105581.03, 105581.03, 0.00007745561, 10.000946, 9.998654 
5.449736e+2, 1.2561451e+2, -1635833.0, -1655815.0, -129363.9, 0.18770863, 0.031883597, -1516074.9, 192910.89, 0.00003031358, 10.000394, 10.000192 
5.4497784e+2, 1.3561438e+2, -1603864.6, -1658633.3, 127856.484, -0.071806304, 0.0145212915, -1500492.8, 110494.36, 0.000006366235, 10.000227, 9.999617 
5.4498875e+2, 1.4561492e+2, -1559315.1, -1472778.6, 30438.498, 0.2910084, 0.072158836, -1463144.8, 49837.066, 0.00000037085837, 9.999386, 10.000583 
5.4499114e+2, 1.5561664e+2, -1553942.0, -1423989.8, -65890.6, 0.086946204, 0.13116285, -1396426.9, 18538.01, 0.00000000007720086, 9.998778, 10.000535 
5.449948e+2, 1.656169e+2, -1525374.1, -1475090.5, -13350.038, 0.006984688, 0.16488801, -1471766.0, -154802.94, 0.0, 9.998829, 9.99948 
5.4500026e+2, 1.7561585e+2, -1359302.5, -1345289.1, 24388.67, 0.08219135, 0.07858195, -1326920.6, -107945.984, 0.0, 9.999294, 9.999479 
5.4500544e+2, 1.8561545e+2, -1210864.8, -1183558.0, 60109.934, 0.10814846, 0.07857327, -1135570.4, -14592.004, 0.0, 9.999438, 9.999859 
5.450102e+2, 1.9561535e+2, -1130552.9, -1095989.1, 26859.244, 0.090211116, 0.045892477, -1081332.4, -58354.195, 0.0, 9.999331, 9.999834 
5.450149e+2, 2.0561552e+2, -1009513.1, -1021397.7, 49497.035, 0.05144021, 0.10221836, -965602.94, -40627.15, 0.0, 9.999644, 9.999521 
5.4501975e+2, 2.1561559e+2, -841479.3, -888752.9, 41443.98, 0.015890546, 0.12078144, -817405.5, 9569.381, 0.0, 10.000125, 9.999523 
5.450248e+2, 2.2561473e+2, -709778.44, -805959.0, 58903.656, -0.0050780405, 0.10345422, -681827.2, 47154.8, 0.0, 10.000489, 9.999239 
5.450301e+2, 2.3561287e+2, -575071.3, -696172.75, 40674.383, -0.016048504, -0.042253647, -562678.25, 68320.09, 0.0, 10.000763, 9.999195 
5.450355e+2, 2.4561216e+2, -497661.47, -639385.0, 20608.621, 0.019138684, -0.013359798, -494725.5, 38280.008, 0.0, 10.000752, 9.9989195 
5.450409e+2, 2.556121e+2, -436650.53, -562250.3, -21891.135, 0.08850343, 0.05206091, -432944.4, 2063.3796, 0.0, 10.000508, 9.998896 
5.4504585e+2, 2.6561135e+2, -287215.38, -432351.2, 594.01666, 0.07460876, 0.09425683, -287212.94, 49801.227, 0.0, 10.0008545, 9.998936 
5.450506e+2, 2.7560967e+2, -67865.88, -281458.16, -21801.531, 0.013111115, -0.0048991656, -65663.3, 173364.33, 0.0, 10.001707, 9.998892 
5.450562e+2, 2.856081e+2, -53935.668, -350986.4, -18525.406, 0.05589308, 0.014208086, -52784.8, 88258.086, 0.00000011177434, 10.001685, 9.997749 
5.4506236e+2, 2.9560658e+2, -57758.86, -298625.84, -40528.38, 0.18406898, 0.043601863, -51122.387, -8062.5093, 0.0000045059896, 10.000961, 9.997779 
5.4506373e+2, 3.0560437e+2, 19699.3, -219474.92, -45255.05, -0.07473783, 0.041974604, 27975.777, 27975.777, 0.000026381855, 10.001083, 9.997944 
5.450712e+2, 3.1560272e+2, 122459.445, -60503.633, 57899.367, 0.29772618, 0.04308637, 139242.44, 139242.44, 0.00007890932, 10.00126, 9.998939 
5.549748e+2, 1.2561314e+2, -1706474.9, -1794718.4, -74381.47, 0.18884215, 0.2328354, -1664113.5, 44887.457, 0.000026661766, 10.000373, 9.999242 
5.549771e+2, 1.3561168e+2, -1671122.0, -1795735.9, 121880.016, -0.2010372, 0.17535718, -1596546.1, 14471.335, 0.0000052899522, 10.000212, 9.998691 
5.549889e+2, 1.4561029e+2, -1614082.4, -1566720.8, -16395.613, 0.32350084, 0.11680564, -1561598.9, -48566.344, 0.00000021782215, 9.999316, 9.999966 
5.549897e+2, 1.5561044e+2, -1595892.1, -1501510.4, -66229.08, 0.02335439, 0.08675911, -1467379.3, -52347.438, 0.00000000000011946363, 9.998741, 10.000024 
5.549931e+2, 1.6561139e+2, -1436949.3, -1283187.5, -11840.878, -0.07660927, 0.14253153, -1282281.0, 34739.934, 0.0, 9.998791, 10.000815 
5.5499977e+2, 1.7561255e+2, -1284238.4, -1175719.1, 54653.88, 0.07191556, 0.1451605, -1152964.8, 66041.55, 0.0, 9.999232, 10.000676 
5.550052e+2, 1.8561259e+2, -1257628.9, -1253558.4, 40522.12, 0.11026249, 0.15524378, -1215020.4, -94015.68, 0.0, 9.999322, 9.999437 
5.550093e+2, 1.9561155e+2, -1173615.8, -1163648.4, 40543.168, 0.034266777, 0.07468447, -1127783.8, -104768.38, 0.0, 9.99923, 9.999426 
5.5501425e+2, 2.056106e+2, -1018068.9, -1000436.3, 53005.363, -0.0003406651, 0.027546221, -955519.0, -30496.012, 0.0, 9.999485, 9.999738 
5.550202e+2, 2.1560939e+2, -855234.06, -875194.06, 74952.734, 0.011442807, -0.10279575, -789599.8, 37431.523, 0.0, 9.999939, 9.999706 
5.550259e+2, 2.2560926e+2, -741561.25, -828568.2, 54612.918, 0.017513556, -0.053408455, -715242.6, 13788.83, 0.0, 10.000304, 9.999175 
5.550313e+2, 2.3560975e+2, -612089.94, -724195.2, 65894.06, 0.0048995684, 0.043824337, -581632.9, 49394.395, 0.0, 10.000554, 9.999104 
5.550363e+2, 2.4560896e+2, -569204.6, -755407.5, -1715.2024, -0.0008421943, 0.10943778, -569188.8, -36151.176, 0.0, 10.000605, 9.998201 
5.5504084e+2, 2.5560686e+2, -503686.03, -669537.94, -9461.8, -0.0039148997, 0.043825362, -503148.0, -68085.51, 0.0, 10.000363, 9.998234 
5.550463e+2, 2.656059e+2, -313188.75, -462520.2, 18750.328, 0.0036924079, 0.09919621, -310870.4, 26202.326, 0.0, 10.00076, 9.99877 
5.5505264e+2, 2.7560538e+2, -100288.08, -321749.47, 24371.662, 0.013648408, 0.13727152, -97637.71, 141437.84, 0.0, 10.00159, 9.998673 
5.5505836e+2, 2.8560355e+2, -46206.527, -319665.47, -62119.926, 0.070134684, 0.13135102, -32756.66, 108336.35, 0.00000024371042, 10.001617, 9.997999 
5.550634e+2, 2.956007e+2, -48090.15, -264499.63, -44468.914, 0.14802738, 0.0016062247, -39308.78, 3813.1704, 0.0000058589785, 10.000888, 9.998055 
5.550644e+2, 3.0559874e+2, 63635.7, -109964.72, -44043.867, -0.14712447, -0.0309822, 74170.68, 74170.68, 0.000029984647, 10.001017, 9.998722 
5.550731e+2, 3.1559992e+2, 163088.8, 50681.13, 62367.06, 0.28188315, 0.17536497, 190840.44, 190840.44, 0.00008416486, 10.001135, 9.99977 
5.6497616e+2, 1.2560846e+2, -1650182.1, -1800650.4, -10950.819, 0.27631962, 0.21188074, -1649389.3, 59656.434, 0.000022362967, 10.000888, 9.9989395 
5.649767e+2, 1.3560735e+2, -1810581.1, -1869745.9, 40184.44, -0.20280518, 0.19553769, -1790264.6, -179204.66, 0.000004259607, 9.999294, 9.9986 
5.6498826e+2, 1.4560582e+2, -1733747.4, -1633594.8, 27833.201, 0.38041162, 0.1279231, -1626379.5, -113302.516, 0.00000013010742, 9.998502, 9.999917 
5.6498873e+2, 1.556057e+2, -1576924.6, -1492030.0, -3182.9282, 0.05553033, 0.07507498, -1491910.8, -76831.98, 0.0, 9.998857, 10.000043 
5.6499213e+2, 1.6560674e+2, -1382162.4, -1249225.5, 72281.14, -0.05773629, 0.13330181, -1217497.1, 99569.97, 0.0, 9.999114, 10.000902 
5.649993e+2, 1.7560814e+2, -1260510.0, -1152708.6, 16069.435, 0.100024395, 0.148469, -1150364.3, 68685.516, 0.0, 9.999331, 10.000784 
5.650048e+2, 1.8560821e+2, -1238100.0, -1259638.1, -7122.8457, 0.14292328, 0.16351403, -1235957.5, -114909.39, 0.0, 9.999536, 9.999277 
5.6500894e+2, 1.9560708e+2, -1132857.9, -1155859.8, -12199.642, 0.064604305, 0.085258655, -1127592.8, -104532.164, 0.0, 9.9995775, 9.999293 
5.650142e+2, 2.0560619e+2, -959550.25, -971987.3, 50373.375, 0.0230363, 0.049353767, -915013.0, 10055.137, 0.0, 9.999895, 9.999728 
5.650205e+2, 2.1560524e+2, -790429.75, -840193.75, 25013.297, 0.038211767, -0.052611798, -780030.3, 47043.773, 0.0, 10.000382, 9.999723 
5.6502646e+2, 2.2560517e+2, -745651.0, -831567.1, 9165.337, 0.061332118, 0.0022085793, -744684.1, -15610.814, 0.0, 10.000288, 9.999162 
5.6503224e+2, 2.3560548e+2, -740180.56, -784770.1, -3512.6724, 0.09217142, 0.082947485, -739905.56, -108835.39, 0.0, 9.999676, 9.999107 
5.6503725e+2, 2.4560459e+2, -644799.06, -774473.5, 19165.71, 0.07072451, 0.12958796, -642025.75, -108944.76, 0.0, 10.00004, 9.998322 
5.6504166e+2, 2.556024e+2, -368927.88, -593252.06, 35765.59, 0.014265918, 0.043975655, -363363.53, 71742.375, 0.0, 10.001259, 9.998312 
5.6504726e+2, 2.6560134e+2, -244398.1, -451413.9, 104229.375, 0.0028961408, 0.09885415, -201012.67, 136104.78, 0.0, 10.001319, 9.998578 
5.650537e+2, 2.7560088e+2, -278993.03, -421118.38, 80837.8, 0.03342559, 0.1589149, -242423.69, -3302.6597, 0.0, 10.000427, 9.998544 
5.650597e+2, 2.855992e+2, -220913.66, -397436.78, 26122.387, 0.11548227, 0.16532415, -217129.14, -75991.26, 0.00000046127252, 10.0003605, 9.99808 
5.650652e+2, 2.9559654e+2, -34870.6, -252912.98, 3322.6257, 0.23948176, 0.044277806, -34819.984, 8345.003, 0.000007820285, 10.000937, 9.99812 
5.650659e+2, 3.0559456e+2, 123566.984, -48012.016, 22137.906, -0.10083563, -0.003680549, 126377.29, 126377.29, 0.00003595913, 10.001276, 9.999028 
5.6507397e+2, 3.1559572e+2, 149603.73, 52499.07, -23039.752, 0.2851071, 0.1605939, 154793.0, 154793.0, 0.000094486146, 10.001007, 9.999841 
5.749772e+2, 1.2560008e+2, -1622437.6, -1729397.6, 30157.281, 0.2189243, -0.06611054, -1614520.8, 94603.0, 0.000015098279, 10.000839, 9.999442 
5.7497597e+2, 1.356012e+2, -1767112.0, -1774210.4, -15687.873, -0.24571104, 0.06848237, -1754576.9, -143460.44, 0.0000026568694, 9.999268, 9.999266 
5.7498646e+2, 1.4560135e+2, -1693087.0, -1536565.8, 15354.383, 0.30680066, 0.10228288, -1535073.8, -21957.33, 0.000000050157187, 9.998453, 10.000604 
5.7498777e+2, 1.5560238e+2, -1545674.9, -1416142.8, 26394.477, 0.043894038, 0.10003998, -1410970.9, 4135.2744, 0.0, 9.998812, 10.000589 
5.749914e+2, 1.656029e+2, -1465466.4, -1403711.3, 61993.156, -0.07644079, 0.13505265, -1365331.5, -48230.0, 0.0, 9.999033, 9.999877 
5.7499814e+2, 1.7560263e+2, -1337252.8, -1299240.5, 39470.06, 0.019830761, 0.08513071, -1274438.9, -55334.28, 0.0, 9.999272, 9.999808 
5.750039e+2, 1.8560241e+2, -1239830.8, -1240151.5, -19147.115, 0.06619367, 0.10793306, -1220843.4, -99735.86, 0.0, 9.99944, 9.999455 
5.750086e+2, 1.9560193e+2, -1141122.4, -1141340.4, 5395.6196, 0.035097614, 0.079860106, -1135834.6, -112721.164, 0.0, 9.999444, 9.999457 
5.7501405e+2, 2.0560232e+2, -1001001.9, -1015125.44, 52259.074, -0.0049566366, 0.17567378, -955329.6, -30219.115, 0.0, 9.999707, 9.999523 
5.750203e+2, 2.1560322e+2, -834003.75, -884520.75, 56148.547, -0.04795511, 0.27756876, -797694.0, 29408.387, 0.0, 10.000183, 9.999516 
5.750264e+2, 2.2560248e+2, -762189.1, -827333.56, -29473.29, -0.009623885, 0.27114657, -750833.9, -21726.35, 0.0, 10.000115, 9.999276 
5.750322e+2, 2.3560014e+2, -753991.25, -773340.1, -5652.6445, 0.08687455, 0.07616964, -752460.94, -121334.56, 0.0, 9.999498, 9.999272 
5.750378e+2, 2.4559902e+2, -600358.9, -661951.75, 48851.008, 0.08617586, 0.048271485, -573407.2, -40271.84, 0.0, 9.999937, 9.999151 
5.7504314e+2, 2.5559855e+2, -335972.28, -491582.72, 95153.23, -0.0028118447, 0.049597558, -290863.75, 144275.78, 0.0, 10.001103, 9.99909 
5.750483e+2, 2.6559764e+2, -264041.28, -476749.75, 54376.66, -0.055178914, 0.090579085, -250946.61, 86202.35, 0.0, 10.001242, 9.998449 
5.7505333e+2, 2.755961e+2, -294848.56, -441700.03, 64335.176, -0.08513306, 0.05503189, -270650.78, -31485.174, 0.0, 10.000352, 9.99845 
5.750597e+2, 2.8559497e+2, -228128.34, -393509.0, 31518.043, 0.042321928, 0.11781446, -222325.3, -81146.93, 0.0000006054728, 10.000286, 9.998142 
5.75067e+2, 2.9559398e+2, -52791.125, -262337.34, 45650.3, 0.28440613, 0.15920758, -43277.95, -87.83192, 0.000009307056, 10.000823, 9.99811 
5.750678e+2, 3.055919e+2, 103368.53, -73403.766, 6923.0894, -0.072738454, 0.11565422, 103639.25, 103639.25, 0.000040671366, 10.001212, 9.998888 
5.7507336e+2, 3.1558964e+2, 82063.664, -67746.836, -45015.02, 0.039549123, -0.045816723, 94549.195, 94549.195, 0.000103750725, 10.000918, 9.999064 
5.849771e+2, 1.2559432e+2, -1753202.5, -1733029.4, 103312.79, 0.2005803, -0.04640051, -1639312.0, 69870.46, 0.000008007214, 9.999649, 10.0000105 
5.849758e+2, 1.3559562e+2, -1768197.5, -1694816.5, -107908.56, -0.15977721, 0.038294215, -1617531.4, -6360.77, 0.0000012151539, 9.998906, 9.999993 
5.849846e+2, 1.4559633e+2, -1709288.6, -1509272.6, 1633.1792, 0.29778728, 0.07809685, -1509259.3, 3904.2637, 0.000000012980553, 9.998231, 10.00087 
5.8498675e+2, 1.5559775e+2, -1620553.8, -1419961.3, -54480.555, 0.103839956, 0.082643844, -1406119.5, 9029.176, 0.0, 9.998188, 10.000833 
5.8499074e+2, 1.6559821e+2, -1531696.4, -1469848.5, 49668.48, -0.019959664, 0.117510445, -1442263.9, -125118.984, 0.0, 9.998717, 9.999582 
5.8499736e+2, 1.755977e+2, -1299632.3, -1308845.8, 53704.67, 0.0069978065, 0.073170565, -1250337.1, -31184.813, 0.0, 9.999641, 9.999569 
5.8500355e+2, 1.8559752e+2, -1149221.5, -1190665.1, 24119.85, 0.060614794, 0.10566097, -1138144.6, -16988.936, 0.0, 10.000029, 9.999522 
5.8500886e+2, 1.9559722e+2, -1066112.8, -1103257.8, 8194.874, 0.10869902, 0.09209167, -1064385.3, -41225.684, 0.0, 9.999934, 9.999497 
5.850145e+2, 2.0559767e+2, -1009541.56, -1026858.2, 91271.03, 0.081368126, 0.19445314, -926519.06, -1362.9907, 0.0, 9.999674, 9.999457 
5.850205e+2, 2.1559848e+2, -970057.4, -961606.7, 78166.06, 0.00369562, 0.29452944, -887551.8, -60402.59, 0.0, 9.999282, 9.999427 
5.850265e+2, 2.2559744e+2, -802760.5, -845783.44, 34495.24, 0.014396143, 0.26034856, -783619.0, -54461.605, 0.0, 9.999838, 9.999287 
5.850324e+2, 2.355946e+2, -515147.78, -660628.1, 15226.337, 0.09048395, 0.017661074, -513571.25, 117609.18, 0.0, 10.0011425, 9.999263 
5.850382e+2, 2.4559362e+2, -427033.5, -558607.44, 59283.63, 0.09024162, -0.0046165125, -404262.72, 128924.875, 0.0, 10.001047, 9.999317 
5.850439e+2, 2.5559384e+2, -491284.28, -546001.75, 22831.045, 0.02728898, 0.045925237, -483009.34, -47824.65, 0.0, 9.999958, 9.999256 
5.850493e+2, 2.655931e+2, -434311.2, -549941.8, 6732.287, -0.019092828, 0.09452412, -433920.53, -96727.71, 0.0, 10.000053, 9.998511 
5.8505446e+2, 2.7559143e+2, -176932.61, -372530.13, -971.8544, -0.03962367, 0.03747199, -176927.78, 62284.348, 0.0, 10.001138, 9.998535 
5.8506066e+2, 2.8559056e+2, -61271.98, -276688.4, 8236.687, 0.07048082, 0.10485769, -60957.5, 80264.79, 0.00000055145284, 10.001281, 9.998455 
5.850677e+2, 2.9559e+2, -74250.75, -240938.7, 6769.332, 0.29735965, 0.16329871, -73976.3, -30748.152, 0.000008783807, 10.000541, 9.998384 
5.8506954e+2, 3.0558854e+2, 12572.14, -169720.92, 23354.846, 0.014855685, 0.18628877, 15516.729, 15516.729, 0.000039667964, 10.000813, 9.998413 
5.850755e+2, 3.15585e+2, 160810.7, -65136.125, -155951.56, 0.14209916, -0.05833883, 240409.05, 240409.05, 0.00010388018, 10.001617, 9.998735 
5.9497553e+2, 1.2559113e+2, -1689463.5, -1596717.4, 100601.89, -0.008600204, 0.2763789, -1532315.0, 176907.17, 0.0000033727015, 9.999653, 10.000936 
5.9497577e+2, 1.3559072e+2, -1714980.3, -1580287.3, -130090.2, -0.08670595, 0.104639955, -1501144.8, 110077.07, 0.00000044999516, 9.9988985, 10.000783 
5.9498227e+2, 1.455908e+2, -1725104.4, -1531773.6, -23295.63, 0.19380301, 0.050105713, -1529006.1, -15788.044, 0.000000014541682, 9.998187, 10.000733 
5.949852e+2, 1.5559174e+2, -1636625.1, -1445114.9, -37998.344, 0.081178136, 0.022255262, -1437851.0, -22644.01, 0.0, 9.998149, 10.000682 
5.9498966e+2, 1.6559276e+2, -1508539.5, -1400750.9, 68619.85, -0.030627755, 0.09302594, -1367391.0, -50193.883, 0.0, 9.998641, 10.000086 
5.949966e+2, 1.7559345e+2, -1275067.1, -1240444.5, 101829.08, -0.07578298, 0.11795032, -1154465.8, 64726.516, 0.0, 9.999577, 10.000065 
5.950031e+2, 1.8559352e+2, -1169977.0, -1209982.1, 2536.1313, -0.011737987, 0.15868907, -1169816.9, -48624.49, 0.0, 9.999926, 9.99944 
5.9500927e+2, 1.9559287e+2, -1092349.1, -1123473.4, 18683.783, 0.12599449, 0.11533501, -1083595.3, -60396.15, 0.0, 9.999791, 9.999427 
5.95015e+2, 2.055922e+2, -1025929.7, -1021338.56, 61762.027, 0.13608614, 0.102949396, -961829.44, -36624.332, 0.0, 9.999503, 9.999578 
5.950206e+2, 2.1559119e+2, -989662.94, -957786.3, 83027.86, 0.053162146, 0.009138309, -889180.8, -61967.18, 0.0, 9.999094, 9.999542 
5.950265e+2, 2.255902e+2, -833794.8, -877043.3, 67067.26, 0.000018588198, -0.019193176, -784951.9, -55730.24, 0.0, 9.999685, 9.999152 
5.950325e+2, 2.3558888e+2, -554967.5, -700258.5, 75438.414, -0.041385796, -0.095133215, -522883.22, 108349.05, 0.0, 10.000952, 9.999088 
5.950382e+2, 2.4558838e+2, -479691.4, -639469.7, 3708.4993, -0.058591463, -0.03437011, -479605.38, 53632.305, 0.0, 10.000918, 9.998829 
5.9504336e+2, 2.555883e+2, -539553.4, -615843.9, 316.26413, -0.05748861, 0.03456839, -539552.06, -104310.95, 0.0, 9.999824, 9.998844 
5.9504956e+2, 2.6558787e+2, -427388.13, -515799.34, 30888.186, -0.029687919, 0.11509416, -417665.84, -80417.88, 0.0, 9.999971, 9.998789 
5.950565e+2, 2.7558687e+2, -176714.13, -344576.2, 54993.215, 0.011750443, 0.103339896, -160302.38, 78958.04, 0.0, 10.0010195, 9.998788 
5.950622e+2, 2.855859e+2, -34379.715, -199588.81, -32397.174, 0.060135532, 0.12107154, -28253.84, 113015.984, 0.0000003359344, 10.001195, 9.999023 
5.950668e+2, 2.9558465e+2, -52916.59, -167383.48, 514.8467, 0.10405755, 0.050225504, -52914.273, -9634.562, 0.000006914508, 10.000423, 9.998942 
5.950707e+2, 3.0558434e+2, -47546.813, -290358.97, 44847.53, 0.01766179, 0.20403062, -39528.254, -39528.254, 0.000035638073, 10.000781, 9.997604 
5.950793e+2, 3.1558183e+2, 162444.33, -41327.055, -104926.125, 0.28073353, 0.14278091, 206812.48, 206812.48, 0.00009897654, 10.001527, 9.998941 
6.049739e+2, 1.2558585e+2, -1836678.8, -1630644.8, 210956.58, -0.05160086, 0.28542665, -1498895.5, 210379.22, 0.0000011596172, 9.998485, 10.001276 
6.04976e+2, 1.35586e+2, -1821297.0, -1590797.5, -138919.48, 0.10983785, 0.14082657, -1525544.8, 85723.27, 0.00000014603442, 9.998021, 10.00112 
6.0498035e+2, 1.4558598e+2, -1699243.5, -1545204.4, 35953.066, 0.18276194, 0.070879206, -1537226.1, -23961.332, 0.0000000031309833, 9.998445, 10.000545 
6.049842e+2, 1.5558608e+2, -1393350.8, -1347627.3, -22132.281, 0.103980154, -0.02034425, -1338669.3, 76592.625, 0.0, 9.999886, 10.000533 
6.049893e+2, 1.6558695e+2, -1300932.9, -1292115.3, 78349.43, 0.010044465, 0.03794556, -1218050.8, 99202.54, 0.0, 10.000002, 10.000196 
6.049959e+2, 1.7558807e+2, -1352081.6, -1264572.1, 52905.367, -0.056757666, 0.09711008, -1239672.3, -20428.809, 0.0, 9.998979, 10.0002 
6.0500264e+2, 1.8558836e+2, -1296393.5, -1237205.8, -2242.478, 0.0046592467, 0.13717729, -1237120.9, -115879.92, 0.0, 9.998932, 9.9997225 
6.0500926e+2, 1.9558771e+2, -1089670.4, -1089599.8, 7193.2983, 0.16425572, 0.06634239, -1082441.6, -59194.76, 0.0, 9.999684, 9.999704 
6.050152e+2, 2.05587e+2, -940123.9, -983282.5, 71351.336, 0.1793673, 0.038666587, -887160.06, 38092.977, 0.0, 10.000107, 9.999558 
6.0502046e+2, 2.1558587e+2, -833132.75, -886855.8, 51783.875, 0.08601284, -0.062102184, -801658.06, 25605.086, 0.0, 10.000184, 9.999515 
6.0502666e+2, 2.2558525e+2, -759796.4, -839660.3, 96287.7, 0.034958035, -0.051409896, -695488.8, 33780.1, 0.0, 10.000208, 9.99914 
6.050335e+2, 2.3558472e+2, -662578.94, -746247.8, 79778.01, 0.011809882, -0.05159302, -614332.06, 16941.938, 0.0, 10.000216, 9.999106 
6.050392e+2, 2.4558432e+2, -556423.7, -686409.5, 28060.395, -0.010860377, 0.023331858, -550624.9, -17345.713, 0.0, 10.000446, 9.998733 
6.050439e+2, 2.5558376e+2, -395217.56, -557781.3, 25806.81, -0.02887884, 0.060817145, -391219.13, 44067.83, 0.0, 10.000873, 9.998742 
6.050499e+2, 2.655832e+2, -312477.94, -449531.53, 108307.68, -0.014391635, 0.1251882, -252838.92, 84455.984, 0.0, 10.000712, 9.998885 
6.050571e+2, 2.7558222e+2, -308360.44, -396832.94, 84393.4, 0.03353112, 0.10657431, -257312.42, -18006.262, 0.0, 10.000055, 9.998895 
6.0506284e+2, 2.8558123e+2, -156709.6, -238495.19, 6956.5244, 0.06373808, 0.10918016, -156122.11, -14807.312, 0.00000016006682, 10.000267, 9.99921 
6.0506725e+2, 2.955801e+2, 74118.695, -86189.516, -19553.215, 0.082780346, 0.029073052, 76469.195, 119792.33, 0.0000052467194, 10.001207, 9.999131 
6.050729e+2, 3.0557957e+2, 81035.87, -270674.16, 75195.336, 0.11885971, 0.17216673, 96438.08, 96438.08, 0.000031333126, 10.0018635, 9.997217 
6.050823e+2, 3.1557742e+2, 222586.23, -2009.341, -115276.086, 0.4213916, 0.19944237, 271221.25, 271221.25, 0.00009226463, 10.001884, 9.999058 
6.1497194e+2, 1.2557848e+2, -1841219.3, -1634409.9, 111994.664, -0.17858016, -0.013728348, -1585383.1, 123957.23, 0.000000319301, 9.998468, 10.001249 
6.1497605e+2, 1.3558146e+2, -1838375.1, -1624741.6, -139858.86, 0.27626908, 0.1470838, -1555574.5, 55734.934, 0.000000018009526, 9.998018, 10.000888 
6.149784e+2, 1.455819e+2, -1720624.3, -1589711.0, 64198.69, 0.097560614, 0.14974244, -1563483.1, -50179.504, 0.0, 9.998439, 10.00024 
6.1498374e+2, 1.5558064e+2, -1410675.3, -1390945.4, 39130.465, 0.029186267, -0.047695816, -1360455.5, 54858.82, 0.0, 9.9999, 10.000235 
6.149892e+2, 1.6558073e+2, -1323430.3, -1324391.9, 22357.758, -0.038104977, -0.044328153, -1301548.1, 15765.293, 0.0, 9.999943, 10.000003 
6.1499506e+2, 1.7558157e+2, -1373234.6, -1298248.9, 34436.62, -0.07599985, 0.0046887207, -1284834.0, -65527.684, 0.0, 9.998926, 9.999998 
6.150015e+2, 1.8558201e+2, -1270902.1, -1154666.9, 12466.746, -0.030430598, 0.03821109, -1153344.9, -32043.318, 0.0, 9.998805, 10.000346 
6.1500853e+2, 1.9558188e+2, -1064334.3, -1016325.5, 52204.324, 0.085951574, -0.043639276, -982871.2, 40430.16, 0.0, 9.99959, 10.000257 
6.150145e+2, 2.0558223e+2, -972988.7, -1015748.8, 59810.34, 0.071863964, 0.015589572, -930851.94, -5553.3247, 0.0, 9.999955, 9.999407 
6.150197e+2, 2.155826e+2, -872259.8, -923753.2, 69491.836, -0.039004374, 0.07841311, -823898.4, 3398.9517, 0.0, 9.999991, 9.999355 
6.150266e+2, 2.2558263e+2, -779872.5, -839295.06, 85209.76, -0.021102685, 0.1586212, -719342.6, 9956.197, 0.0, 10.000029, 9.999228 
6.1503494e+2, 2.3558211e+2, -682606.4, -743305.4, 98085.03, 0.0977503, 0.15013407, -610282.75, 21022.424, 0.0, 10.000026, 9.999217 
6.150409e+2, 2.455814e+2, -553345.56, -651621.8, 26493.574, 0.08641125, 0.17181936, -546658.4, -13346.174, 0.0, 10.000322, 9.999033 
6.15045e+2, 2.5558025e+2, -397729.75, -533541.2, 54945.586, -0.039627023, 0.117949985, -378284.44, 57038.074, 0.0, 10.000739, 9.998976 
6.1504996e+2, 2.6557904e+2, -333459.75, -472864.75, 68607.43, -0.11244813, 0.11667253, -305359.3, 31974.654, 0.0, 10.000624, 9.998766 
6.150558e+2, 2.7557746e+2, -335049.4, -423454.06, 80605.07, -0.13796173, 0.043551236, -287322.3, -47972.703, 0.0, 9.99993, 9.99877 
6.150622e+2, 2.8557664e+2, -177996.13, -269647.4, 24750.195, -0.06712328, 0.075856, -171739.5, -30382.672, 0.00000012615395, 10.000207, 9.999024 
6.150686e+2, 2.9557645e+2, 49110.484, -113071.13, 34634.906, 0.048667826, 0.105767176, 56197.313, 99554.5, 0.000004351736, 10.001104, 9.998989 
6.150757e+2, 3.0557418e+2, 71746.55, -288089.53, 66206.58, 0.17229097, 0.08893828, 83541.34, 83541.34, 0.000027327982, 10.001844, 9.99712 
6.150834e+2, 3.1557187e+2, 207621.78, -6108.579, -53309.586, 0.26302987, 0.11383866, 220180.55, 220180.55, 0.00008384043, 10.001768, 9.999093 
6.2497056e+2, 1.2557358e+2, -1977682.1, -1691743.4, 86227.71, -0.093547106, -0.0526804, -1667753.3, 41633.094, 0.00000004128188, 9.997482, 10.001345 
6.2497556e+2, 1.3557647e+2, -1645073.1, -1525988.9, -133256.64, 0.3757237, 0.09462703, -1439576.9, 171779.28, 0.000000000001578113, 9.999298, 10.000965 
6.2497675e+2, 1.4557688e+2, -1566491.8, -1558972.3, 117871.4, 0.035858896, 0.111026034, -1444800.8, 68551.21, 0.0, 9.999684, 9.999855 
6.2498397e+2, 1.555762e+2, -1529784.6, -1480339.4, 57574.45, 0.09646152, 0.009688481, -1442404.0, -27045.111, 0.0, 9.9992485, 9.999921 
6.249896e+2, 1.6557623e+2, -1442272.4, -1375205.6, 45214.633, 0.06080526, 0.019153422, -1352446.4, -35087.4, 0.0, 9.999135, 10.00002 
6.249945e+2, 1.7557646e+2, -1327722.9, -1265582.9, 33550.223, -0.029683474, 0.004731856, -1250925.8, -31568.736, 0.0, 9.999237, 10.000049 
6.2500066e+2, 1.8557687e+2, -1161279.9, -1098099.5, 65639.82, -0.023534698, 0.027848676, -1056843.9, 64508.37, 0.0, 9.999501, 10.000419 
6.2500787e+2, 1.9557709e+2, -1028285.56, -988802.94, 38891.66, 0.06234429, -0.028555429, -964929.06, 58419.223, 0.0, 9.999771, 10.000364 
6.250143e+2, 2.055776e+2, -948561.44, -1023358.0, 50574.156, 0.053628962, 0.049578592, -923060.0, 2284.3806, 0.0, 10.000192, 9.9992485 
6.2502015e+2, 2.1557795e+2, -774485.1, -887057.44, 30471.969, -0.018110769, 0.12713045, -766766.06, 60577.83, 0.0, 10.000709, 9.99926 
6.2502724e+2, 2.2557792e+2, -672916.1, -800506.4, 53156.008, 0.009356614, 0.21112794, -653672.8, 75673.7, 0.0, 10.00081, 9.9991255 
6.250354e+2, 2.3557729e+2, -610905.7, -723512.06, 24981.959, 0.12537153, 0.20494246, -605612.25, 25742.441, 0.0, 10.000566, 9.999107 
6.2504154e+2, 2.4557646e+2, -503108.9, -604811.4, -11006.456, 0.114256985, 0.21033491, -501931.4, 31431.143, 0.0, 10.000553, 9.99925 
6.25046e+2, 2.5557524e+2, -375675.75, -495894.88, -23625.406, -0.002415068, 0.12696847, -371199.56, 64173.08, 0.0, 10.00077, 9.99922 
6.250511e+2, 2.6557407e+2, -283402.63, -436191.25, 4841.093, -0.072279446, 0.11042307, -283249.4, 54132.82, 0.0, 10.000896, 9.998892 
6.2505656e+2, 2.7557254e+2, -190507.14, -347229.03, 3240.101, -0.08995246, 0.032406364, -190440.17, 48955.2, 0.0, 10.00088, 9.99884 
6.250631e+2, 2.8557137e+2, -107011.09, -305905.47, 6724.8203, -0.025844557, 0.06397755, -106783.98, 34622.285, 0.000000116905284, 10.001003, 9.998393 
6.250701e+2, 2.9557052e+2, 23067.13, -198423.55, -55011.42, 0.09224102, 0.093866825, 35977.71, 79393.33, 0.000004287332, 10.001216, 9.998365 
6.250778e+2, 3.0556792e+2, 66659.91, -212451.03, 7402.527, 0.23327634, 0.03779762, 66856.1, 66856.1, 0.000025852014, 10.001498, 9.997788 
6.250849e+2, 3.1556675e+2, 203506.08, 26258.602, -99663.74, 0.26614717, 0.10339214, 248250.36, 248250.36, 0.00007870898, 10.001615, 9.999372 
6.3496906e+2, 1.2557127e+2, -1955268.0, -1657254.3, -16032.99, -0.078465536, 0.18858162, -1656394.1, 53017.723, 0.000000010756334, 9.997531, 10.001563 
6.349741e+2, 1.3557087e+2, -1624483.3, -1489955.3, -64785.086, 0.2638385, -0.020886024, -1463830.0, 147580.06, 0.0, 9.999315, 10.001214 
6.349749e+2, 1.4557086e+2, -1592951.6, -1595796.3, 77678.33, -0.15697101, -0.043544743, -1516682.6, -3272.8645, 0.0, 9.999615, 9.999632 
6.3498425e+2, 1.5557285e+2, -1549815.4, -1520842.0, 62166.656, 0.16844402, 0.14414527, -1471496.4, -56101.848, 0.0, 9.99924, 9.99965 
6.349902e+2, 1.655734e+2, -1440873.4, -1365007.4, 32220.506, 0.17255053, 0.21674298, -1353170.3, -35779.867, 0.0, 9.999094, 10.000114 
6.349939e+2, 1.755726e+2, -1325745.5, -1259497.3, 53602.094, -0.053183563, 0.089552276, -1229610.3, -10213.074, 0.0, 9.999211, 10.000113 
6.349996e+2, 1.855727e+2, -1201256.3, -1155377.0, 59690.492, -0.11704125, 0.09589581, -1114369.9, 7025.3125, 0.0, 9.999397, 10.000072 
6.3500684e+2, 1.9557314e+2, -1070835.1, -1050073.8, 63097.914, -0.05472499, 0.09748671, -996508.4, 26881.324, 0.0, 9.999652, 10.000002 
6.350141e+2, 2.0557295e+2, -986128.7, -1057715.3, 54413.875, -0.013356924, 0.13308811, -956791.1, -31399.396, 0.0, 10.000006, 9.999099 
6.350214e+2, 2.1557191e+2, -814011.75, -921331.56, 65020.434, 0.00499071, 0.08287551, -783368.4, 44034.625, 0.0, 10.000502, 9.999122 
6.350281e+2, 2.2557116e+2, -721807.6, -856109.5, 29357.467, -0.0075501567, 0.11391888, -715670.75, 13741.201, 0.0, 10.000616, 9.998834 
6.350345e+2, 2.3557025e+2, -660175.75, -779174.2, 34926.547, -0.049031325, 0.10677945, -650682.06, -19259.5, 0.0, 10.000366, 9.99882 
6.350406e+2, 2.4556956e+2, -518687.06, -604084.0, -16149.819, -0.06535237, 0.13425465, -515734.94, 17695.006, 0.0, 10.000415, 9.99932 
6.350465e+2, 2.5556874e+2, -392055.72, -493926.75, -491.74545, -0.06471483, 0.087315895, -392053.34, 43383.836, 0.0, 10.000615, 9.999309 
6.3505274e+2, 2.6556826e+2, -272941.2, -387270.1, -12739.552, -0.028915014, 0.11527403, -271538.84, 65900.71, 0.0, 10.000788, 9.999275 
6.35059e+2, 2.7556762e+2, -188922.05, -312524.4, 20751.945, 0.026492983, 0.083021134, -185530.98, 53911.434, 0.0, 10.00075, 9.99914 
6.350652e+2, 2.855656e+2, -191356.05, -462695.88, -2711.8088, 0.045834772, 0.069570035, -191328.94, -49866.38, 0.0000001448745, 10.000931, 9.997352 
6.350711e+2, 2.9556257e+2, -70187.67, -353538.13, -23925.664, 0.029813949, -0.008600581, -68181.625, -24685.5, 0.000005079309, 10.001073, 9.997362 
6.3507867e+2, 3.0556107e+2, 153636.6, -40346.61, 4723.496, 0.13179459, 0.033327196, 153751.55, 153751.55, 0.000027855136, 10.001501, 9.998984 
6.350857e+2, 3.1556213e+2, 204698.22, 51693.793, -22069.484, 0.10405068, 0.19178653, 207817.92, 207817.92, 0.00008149468, 10.001498, 9.999609 
6.4496696e+2, 1.2556653e+2, -2075050.0, -1730375.1, -35594.074, 0.020428805, 0.22421421, -1726737.8, -17278.68, 0.0000000047013002, 9.99678, 10.001419 
6.4497334e+2, 1.35566e+2, -1679785.5, -1507073.0, -58508.45, 0.28349158, -0.001505173, -1489119.0, 122339.484, 0.0, 9.998931, 10.001261 
6.449744e+2, 1.4556593e+2, -1568847.0, -1578407.6, 47289.57, -0.15965287, -0.036929987, -1526096.8, -12638.054, 0.0, 9.999757, 9.999678 
6.449838e+2, 1.5556797e+2, -1490154.9, -1486825.0, 14186.782, 0.18896596, 0.15209518, -1474205.8, -58763.234, 0.0, 9.99962, 9.999699 
6.449899e+2, 1.6556847e+2, -1367976.0, -1342301.5, 37243.668, 0.21414903, 0.22113691, -1315744.8, 1694.1427, 0.0, 9.999646, 10.00001 
6.449939e+2, 1.755675e+2, -1243365.3, -1229855.4, 16968.707, 0.0061348635, 0.08761838, -1218346.5, 1100.929, 0.0, 9.999824, 10.000021 
6.449996e+2, 1.8556744e+2, -1113260.6, -1141142.4, 56562.547, -0.07707919, 0.09989496, -1068946.3, 52500.58, 0.0, 10.000132, 9.999812 
6.450067e+2, 1.9556785e+2, -971264.8, -1025581.7, 31890.1, -0.05957255, 0.12251266, -956535.75, 66906.38, 0.0, 10.000461, 9.999771 
6.4501435e+2, 2.0556739e+2, -887217.1, -1000846.56, 67070.555, -0.011105411, 0.1373005, -856132.06, 69313.83, 0.0, 10.000649, 9.999173 
6.4502245e+2, 2.1556589e+2, -789974.5, -906130.56, 58754.324, 0.065460086, 0.03364905, -765438.2, 62021.688, 0.0, 10.000649, 9.999153 
6.450292e+2, 2.2556485e+2, -707516.56, -853869.3, 60438.438, 0.03747215, 0.03647207, -685784.6, 43685.883, 0.0, 10.000702, 9.998816 
6.450348e+2, 2.3556384e+2, -597016.25, -748225.5, 53833.77, -0.06748396, 0.015579382, -579808.56, 51673.082, 0.0, 10.000781, 9.998831 
6.450408e+2, 2.4556322e+2, -500698.8, -621533.9, 36786.97, -0.089100756, 0.06347375, -490380.5, 43108.22, 0.0, 10.0006695, 9.999079 
6.4504725e+2, 2.5556263e+2, -436182.16, -539533.2, 1221.9412, -0.03320978, 0.06431082, -436167.7, -672.54175, 0.0, 10.000431, 9.999083 
6.45054e+2, 2.6556218e+2, -316796.88, -443746.66, -5070.252, 0.032873742, 0.12211363, -316594.7, 20904.375, 0.0, 10.000636, 9.998964 
6.450609e+2, 2.755614e+2, -138756.52, -321016.78, -60862.152, 0.12607393, 0.114012755, -120301.51, 119203.4, 0.000000000000000000046744374, 10.001233, 9.998856 
6.450671e+2, 2.855593e+2, -81044.78, -400342.4, -31636.229, 0.11947779, 0.0987582, -77940.42, 63585.633, 0.00000034821963, 10.001637, 9.99744 
6.4507234e+2, 2.95556e+2, 35596.863, -302802.4, -6111.215, 0.023709025, -0.0149113415, 35707.19, 79267.984, 0.0000068469953, 10.001783, 9.997371 
6.4508003e+2, 3.05555e+2, 148546.63, -38472.324, 36754.535, 0.13228908, 0.076507494, 155510.63, 155510.63, 0.00003364889, 10.001477, 9.998987 
6.450871e+2, 3.1555587e+2, 88458.05, -8238.38, -130361.19, 0.15186746, 0.2141473, 179147.92, 179147.92, 0.000093661416, 10.000725, 9.9995575 
6.549631e+2, 1.2555912e+2, -2102073.5, -1780808.4, -106242.695, -0.12584433, 0.029813748, -1748852.5, -39322.297, 0.000000001405694, 9.996762, 10.001077 
6.5497255e+2, 1.3556196e+2, -1680076.4, -1511958.8, 28731.166, 0.27597642, 0.1480037, -1507184.3, 104316.6, 0.0, 9.998951, 10.001211 
6.5497506e+2, 1.4556213e+2, -1562174.8, -1552245.3, 21427.262, -0.12237188, 0.1277198, -1535215.1, -21717.055, 0.0, 9.999703, 9.999889 
6.5498203e+2, 1.555616e+2, -1482951.4, -1464341.5, 25135.19, 0.010006427, 0.040327284, -1446844.3, -31341.51, 0.0, 9.999581, 9.99988 
6.549881e+2, 1.655613e+2, -1391715.6, -1375018.4, 24669.094, 0.032627244, 0.033613157, -1357323.5, -39817.91, 0.0, 9.999576, 9.999815 
6.5499395e+2, 1.7556103e+2, -1264768.4, -1263499.6, 39740.727, -0.0062983367, -0.011219534, -1224388.3, -4879.6323, 0.0, 9.999779, 9.999808 
6.5500045e+2, 1.8556115e+2, -1141512.5, -1175895.0, 52255.105, -0.04304902, 0.037810866, -1103693.5, 17813.516, 0.0, 10.00003, 9.999622 
6.550072e+2, 1.9556126e+2, -996690.75, -1052085.3, 61352.324, -0.09340333, 0.047269877, -957073.5, 66431.7, 0.0, 10.000349, 9.999643 
6.550147e+2, 2.0556086e+2, -892955.9, -977644.1, 51413.508, -0.06966446, 0.06206691, -868693.9, 56813.406, 0.0, 10.000497, 9.99941 
6.5502286e+2, 2.155597e+2, -802078.5, -883415.25, 74761.82, 0.015348089, -0.027897125, -757639.6, 69876.4, 0.0, 10.000447, 9.999408 
6.550299e+2, 2.2555895e+2, -719101.5, -826135.1, 48790.22, 0.01117607, -0.025774637, -700199.1, 29323.527, 0.0, 10.000486, 9.999104 
6.550358e+2, 2.3555812e+2, -609762.44, -726022.56, 71340.63, -0.08060172, -0.055790164, -575867.56, 55663.617, 0.0, 10.000579, 9.999077 
6.550417e+2, 2.4555755e+2, -558360.3, -708782.5, 10361.8545, -0.098723054, 0.0119035095, -557649.9, -24111.57, 0.0, 10.000531, 9.998544 
6.550477e+2, 2.5555682e+2, -497037.4, -629715.44, 11751.089, -0.06566724, 0.048112143, -496004.66, -60457.23, 0.0, 10.000278, 9.998532 
6.550544e+2, 2.6555577e+2, -398881.94, -598057.75, 1968.7656, -0.022776477, 0.124278545, -398862.47, -61301.523, 0.0, 10.000561, 9.997942 
6.550617e+2, 2.755541e+2, -216595.22, -462850.0, -17445.234, 0.039967634, 0.13016374, -215365.5, 24215.705, 0.0000000002377775, 10.001138, 9.9979315 
6.5506804e+2, 2.8555265e+2, -11486.404, -228739.53, -40991.29, 0.02013736, 0.16037485, -4009.4966, 137585.89, 0.0000008000927, 10.001537, 9.998657 
6.5507334e+2, 2.9555097e+2, 87450.836, -154510.33, 16379.655, -0.09736846, 0.08307342, 88554.625, 132163.2, 0.000010270006, 10.001622, 9.998458 
6.5508133e+2, 3.0554986e+2, 56713.44, -227166.83, -1005.0676, 0.08026464, 0.18257792, 56717.0, 56717.0, 0.00004390313, 10.001456, 9.997709 
6.550883e+2, 3.155477e+2, 50045.813, -67785.94, -90153.06, 0.11612349, 0.141703, 98826.99, 98826.99, 0.00011355634, 10.000638, 9.999194 
6.649614e+2, 1.2555316e+2, -1988754.5, -1753266.3, -112798.18, 0.0040204846, 0.03723823, -1707954.9, 1634.2975, 0.00000000035571668, 9.99766, 10.000823 
6.6497135e+2, 1.3555588e+2, -1723525.6, -1562805.3, 13999.866, 0.28823838, 0.16460603, -1561594.9, 49967.453, 0.0, 9.998756, 10.00097 
6.6497546e+2, 1.455562e+2, -1645763.5, -1551192.4, -17229.76, 0.0022215806, 0.15140127, -1548151.1, -34593.56, 0.0, 9.998959, 10.000249 
6.649814e+2, 1.5555553e+2, -1561803.4, -1463877.0, -37875.184, 0.035914533, 0.010848136, -1450937.6, -35376.395, 0.0, 9.99889, 10.000206 
6.649873e+2, 1.6555534e+2, -1466145.9, -1431748.6, 23242.92, 0.023318524, 0.008796643, -1420033.1, -102470.445, 0.0, 9.999153, 9.99963 
6.6499376e+2, 1.755553e+2, -1310290.5, -1306576.8, 2900.3743, 0.01866355, 0.0072041214, -1304989.8, -85425.055, 0.0, 9.999545, 9.999628 
6.6500074e+2, 1.8555534e+2, -1181259.4, -1182668.5, 57410.62, 0.010203175, 0.049706835, -1124549.0, -2985.0417, 0.0, 9.999723, 9.999718 
6.650079e+2, 1.9555508e+2, -1079916.6, -1086235.1, 52243.066, -0.017822614, 0.0135323545, -1030737.4, -7172.799, 0.0, 9.999749, 9.9997 
6.6501546e+2, 2.055546e+2, -949016.44, -1004092.5, 73674.82, -0.015696604, 0.019043325, -897901.3, 27665.482, 0.0, 10.000106, 9.999425 
6.650234e+2, 2.155537e+2, -772012.9, -868698.9, 45878.39, 0.02097793, -0.047032934, -753708.5, 73864.66, 0.0, 10.000653, 9.999415 
6.650305e+2, 2.255531e+2, -685531.4, -814570.75, 16144.554, 0.017549198, -0.025664393, -683542.1, 46036.47, 0.0, 10.000752, 9.999061 
6.6503674e+2, 2.3555245e+2, -629512.5, -742600.4, -15782.3125, -0.025142018, -0.029062498, -627351.25, 4234.8506, 0.0, 10.000485, 9.999014 
6.650431e+2, 2.4555162e+2, -494797.56, -680482.7, -18695.365, -0.019846898, 0.019182337, -492933.97, 40660.98, 0.0, 10.000947, 9.998548 
6.650496e+2, 2.5555032e+2, -260525.1, -521954.06, -15704.39, 0.029660938, -0.0011347213, -259585.1, 176022.97, 0.0, 10.001898, 9.998505 
6.650562e+2, 2.6554894e+2, -196738.47, -538728.3, 41942.8, 0.03430839, 0.060844753, -191669.6, 145955.44, 0.0, 10.002103, 9.997613 
6.650628e+2, 2.7554724e+2, -150392.83, -457282.16, 39775.54, 0.018375497, 0.09517288, -145321.38, 94325.664, 0.0000000023427176, 10.00172, 9.99768 
6.6506916e+2, 2.8554612e+2, -14053.362, -191022.61, 37138.73, -0.0027959591, 0.14863308, -6575.421, 135082.55, 0.0000014418595, 10.001336, 9.999023 
6.650751e+2, 2.9554486e+2, -695.3597, -151483.1, -3737.0273, -0.03410779, 0.07719171, -602.8004, 43062.203, 0.000014823799, 10.000822, 9.998864 
6.650832e+2, 3.0554333e+2, -12420.603, -294135.97, 33914.168, 0.15753122, 0.12580027, -8395.375, -8395.375, 0.000057815294, 10.001124, 9.997409 
6.650895e+2, 3.1554082e+2, 205861.64, -2167.929, -36600.184, 0.12878588, 0.08611441, 212113.11, 212113.11, 0.00014076945, 10.001736, 9.99912 
6.749609e+2, 1.2554874e+2, -2017593.3, -1806572.5, -156971.66, 0.11269612, 0.23854253, -1722946.6, -13311.8125, 0.0000000023126079, 9.997645, 10.000461 
6.749693e+2, 1.3554773e+2, -1756237.3, -1625336.1, 62188.38, 0.1722275, 0.038622238, -1600502.9, 11140.659, 0.0, 9.998745, 10.000545 
6.749753e+2, 1.4554815e+2, -1617694.1, -1477717.5, -41999.72, 0.04145319, 0.030413602, -1466082.6, 47554.445, 0.0, 9.998895, 10.000783 
6.749813e+2, 1.5554993e+2, -1522799.5, -1381963.5, -21100.553, 0.09743795, 0.08255879, -1378870.1, 36746.31, 0.0, 9.998889, 10.000767 
6.74987e+2, 1.6555077e+2, -1483916.8, -1459802.5, 21349.938, 0.044120185, 0.1620941, -1447340.4, -129731.86, 0.0, 9.999109, 9.999463 
6.749929e+2, 1.7555049e+2, -1327931.5, -1328766.3, 32907.293, -0.057107415, 0.15304084, -1295439.0, -75824.94, 0.0, 9.999484, 9.999505 
6.7500013e+2, 1.855501e+2, -1171649.9, -1140711.1, 38283.844, -0.056046437, 0.13998379, -1114889.4, 6727.3354, 0.0, 9.999624, 10.000058 
6.7500824e+2, 1.9554937e+2, -1081880.4, -1051407.4, 69288.13, 0.013737885, 0.028514097, -995700.3, 27919.137, 0.0, 9.999587, 10.000017 
6.7501605e+2, 2.0554873e+2, -992829.0, -1058346.9, 78905.016, 0.009487448, 0.01789582, -940152.9, -14529.655, 0.0, 9.999935, 9.999142 
6.750235e+2, 2.1554789e+2, -818354.5, -920692.9, 79700.875, -0.060153525, -0.018535813, -774810.9, 52820.12, 0.0, 10.00046, 9.999152 
6.750306e+2, 2.2554736e+2, -740631.25, -884968.5, -9342.557, -0.072008446, 0.045217488, -740029.06, -10391.536, 0.0, 10.000563, 9.998669 
6.7503726e+2, 2.3554678e+2, -683814.4, -805886.3, -4665.2075, -0.044756796, 0.08729935, -683636.3, -51990.01, 0.0, 10.000276, 9.998679 
6.750447e+2, 2.4554554e+2, -487484.78, -623672.44, 5273.798, 0.016865477, 0.08252107, -487280.88, 46377.066, 0.0, 10.000773, 9.99902 
6.750525e+2, 2.5554335e+2, -254981.44, -471954.13, 34870.414, 0.09806622, -0.072711244, -249515.02, 186160.61, 0.0, 10.001729, 9.99893 
6.7505884e+2, 2.655419e+2, -191832.02, -494831.56, 10301.633, 0.059770677, -0.052962486, -191482.17, 146207.6, 0.0, 10.0019655, 9.997978 
6.750639e+2, 2.7554083e+2, -145492.3, -418657.72, 43888.414, -0.0817389, 0.0055497903, -138614.11, 101089.38, 0.0000000015372758, 10.001596, 9.998009 
6.750701e+2, 2.8553966e+2, -48472.566, -247676.58, 3367.5503, -0.076340914, 0.058097042, -48415.656, 93298.97, 0.0000017821444, 10.001276, 9.998659 
6.7507696e+2, 2.9553798e+2, -39495.684, -201468.98, 3317.9414, 0.020951772, -0.01904408, -39427.746, 4299.958, 0.000019076204, 10.000694, 9.99858 
6.75085e+2, 3.0553538e+2, 12858.523, -223133.48, 48177.66, 0.18367581, -0.09276778, 22315.037, 22315.037, 0.000073988194, 10.00105, 9.99793 
6.7508954e+2, 3.1553492e+2, 206739.31, 35527.383, 51565.176, -0.11847486, 0.024210691, 221070.06, 221070.06, 0.00017626988, 10.001593, 9.99944 
6.8496025e+2, 1.2554254e+2, -1734028.3, -1694078.5, -89834.13, 0.19624233, 0.23553258, -1622025.4, 87668.21, 0.0000000036242784, 9.999657, 10.000285 
6.8496776e+2, 1.3554095e+2, -1739433.8, -1649755.8, 70848.32, 0.14695048, 0.015230921, -1610749.5, 959.1218, 0.0, 9.999021, 10.000234 
6.849752e+2, 1.4554149e+2, -1627890.4, -1472334.9, -245.35516, 0.16404678, 0.027931122, -1472334.5, 41367.137, 0.0, 9.998775, 10.000882 
6.849807e+2, 1.5554331e+2, -1473624.4, -1349938.1, -46453.695, 0.13980499, 0.07537687, -1334434.5, 81246.336, 0.0, 9.999174, 10.000862 
6.8498653e+2, 1.6554423e+2, -1401673.3, -1389672.1, 33728.22, 0.07690867, 0.14206888, -1361414.9, -43743.465, 0.0, 9.999534, 9.999745 
6.849932e+2, 1.7554408e+2, -1264472.3, -1274963.4, 43580.273, 0.020890607, 0.119717464, -1225823.0, -6148.8047, 0.0, 9.999809, 9.999728 
6.850005e+2, 1.8554375e+2, -1138445.5, -1137509.1, 65731.66, 0.014784916, 0.11048473, -1072244.0, 49432.16, 0.0, 9.999896, 9.9999485 
6.850079e+2, 1.9554292e+2, -1067028.8, -1053873.3, 35225.086, 0.028646018, -0.0028057024, -1024617.06, -936.40393, 0.0, 9.999719, 9.999933 
6.8501604e+2, 2.0554249e+2, -984673.94, -1031130.1, 101595.09, 0.023613386, -0.00033926123, -903685.4, 21997.73, 0.0, 9.999932, 9.999301 
6.8502456e+2, 2.1554203e+2, -797098.2, -894963.5, 98720.164, 0.0022113859, -0.009586005, -735848.9, 91838.51, 0.0, 10.000553, 9.99927 
6.8503183e+2, 2.2554147e+2, -697018.6, -864093.75, 43960.617, -0.0043176594, 0.042560894, -686157.75, 43536.65, 0.0, 10.000846, 9.998679 
6.850382e+2, 2.3554052e+2, -603467.9, -766880.4, 48138.62, 0.0024330777, 0.047782157, -590341.44, 41364.918, 0.0, 10.000809, 9.998693 
6.850457e+2, 2.4553944e+2, -468441.13, -612046.9, 112869.26, 0.045622345, 0.05782698, -406471.34, 127245.45, 0.0, 10.000906, 9.999024 
6.8505406e+2, 2.5553796e+2, -331694.56, -501516.63, 76251.11, 0.11418314, -0.029750884, -302482.34, 133246.47, 0.0, 10.001198, 9.998968 
6.850607e+2, 2.6553658e+2, -276878.97, -499562.28, 35784.676, 0.09431835, -0.02282213, -271269.75, 66471.63, 0.0, 10.001212, 9.998309 
6.8506604e+2, 2.75535e+2, -232314.88, -427652.44, 32870.15, 0.026200606, -0.0504872, -226932.03, 12825.494, 0.00000000039754933, 10.000842, 9.998314 
6.8507206e+2, 2.855336e+2, -104736.836, -303047.66, 45673.96, 0.016151153, -0.02078819, -94723.086, 47047.348, 0.000001935021, 10.001009, 9.998405 
6.8507826e+2, 2.9553196e+2, 107005.41, -154134.89, 16936.602, 0.040878523, -0.06466048, 108099.27, 151883.98, 0.000022833043, 10.001782, 9.998386 
6.850862e+2, 3.055297e+2, 152224.14, -93042.9, 91578.625, 0.1787638, -0.12203575, 182644.94, 182644.94, 0.00009092674, 10.001754, 9.998477 
6.850909e+2, 3.155296e+2, 50124.805, -35915.87, 70991.766, -0.07258874, -0.017607778, 90113.984, 90113.984, 0.00021663251, 10.000481, 9.999497 
6.949584e+2, 1.2553461e+2, -1720002.9, -1664114.8, -117649.16, -0.039421704, 0.032046594, -1571136.5, 138628.23, 0.00000000017840025, 9.999676, 10.000466 
6.949663e+2, 1.3553573e+2, -1751197.8, -1675330.4, 59407.49, 0.06552125, 0.10085625, -1642778.5, -31022.498, 0.0, 9.999034, 10.000047 
6.949749e+2, 1.455362e+2, -1655681.8, -1525539.5, -4095.48, 0.2157842, 0.1312018, -1525410.8, -11659.341, 0.0, 9.998749, 10.000531 
6.949791e+2, 1.5553555e+2, -1498169.8, -1403279.0, -13619.427, 0.02224635, -0.031939823, -1401362.9, 14392.76, 0.0, 9.999172, 10.0005045 
6.9498533e+2, 1.6553564e+2, -1364183.5, -1294153.5, 29273.055, -0.027385177, -0.064368345, -1283529.0, 34223.207, 0.0, 9.999467, 10.000426 
6.9499433e+2, 1.7553622e+2, -1231441.9, -1190729.6, 73857.01, 0.11138667, -0.083195135, -1134474.9, 85268.83, 0.0, 9.9997425, 10.000339 
6.9500136e+2, 1.8553641e+2, -1191724.4, -1218854.8, 45479.58, 0.07926013, -0.042199425, -1157830.0, -36089.152, 0.0, 9.999776, 9.999441 
6.9500655e+2, 1.9553588e+2, -1121098.8, -1133047.5, 44989.33, -0.11586957, -0.075421065, -1081688.9, -57942.1, 0.0, 9.999588, 9.999444 
6.9501495e+2, 2.0553592e+2, -968727.5, -968489.0, 107130.266, -0.11135487, -0.030108165, -861477.94, 64268.24, 0.0, 9.999794, 9.9998 
6.95026e+2, 2.1553612e+2, -792784.44, -838232.44, 135152.88, 0.061184086, -0.024334015, -678458.56, 149284.47, 0.0, 10.000344, 9.99976 
6.9503385e+2, 2.2553545e+2, -697157.6, -817744.4, 26685.338, 0.08533263, -0.02812207, -691516.2, 38232.926, 0.0, 10.000644, 9.999092 
6.95039e+2, 2.355337e+2, -604951.3, -726442.4, 61478.37, -0.025330903, -0.14696684, -579269.94, 52496.26, 0.0, 10.000625, 9.999054 
6.9504577e+2, 2.4553345e+2, -514871.94, -680553.06, 109648.414, -0.07234254, -0.048031196, -460288.6, 73482.234, 0.0, 10.00078, 9.998616 
6.950538e+2, 2.5553405e+2, -373801.88, -561972.0, 104009.88, -0.06983401, 0.112200774, -327636.97, 108131.74, 0.0, 10.00107, 9.998617 
6.950614e+2, 2.6553285e+2, -275522.25, -465988.0, 9055.399, 0.01223852, 0.13356462, -275092.7, 62688.344, 0.0, 10.001089, 9.998594 
6.9506866e+2, 2.755297e+2, -235726.64, -402386.7, 38884.53, 0.16856289, -0.07000275, -227100.7, 12707.992, 0.0000000054780975, 10.000709, 9.998548 
6.9507444e+2, 2.855279e+2, -127177.38, -333975.13, 57327.703, 0.11587458, -0.08246688, -112348.54, 29476.68, 0.000002364329, 10.000941, 9.998223 
6.950786e+2, 2.955269e+2, 79369.98, -182289.05, 66951.85, -0.1512488, -0.05526204, 95506.15, 139341.75, 0.000027093956, 10.00166, 9.998248 
6.9508654e+2, 3.0552635e+2, 185267.6, -16516.637, 38101.773, 0.0028331869, 0.031830054, 192222.42, 192222.42, 0.00010798756, 10.001712, 9.999022 
6.9509274e+2, 3.1552547e+2, 17778.521, -80817.83, 110190.44, -0.018506998, 0.008839786, 89195.89, 89195.89, 0.00025661878, 10.000381, 9.999234 
7.0495796e+2, 1.2552692e+2, -1827816.3, -1702575.1, -104877.04, 0.0076695248, -0.08096796, -1643046.1, 66791.12, 0.0, 9.998851, 10.000619 
7.0496464e+2, 1.355292e+2, -1821159.4, -1716032.8, -25126.146, 0.03350826, 0.10903649, -1710336.0, -98517.96, 0.0, 9.998562, 10.000001 
7.0497376e+2, 1.4552978e+2, -1737775.1, -1566421.5, 85.82686, 0.26221108, 0.15259586, -1566421.5, -52607.98, 0.0, 9.998193, 10.000513 
7.0497805e+2, 1.5552895e+2, -1612754.6, -1450996.1, -15843.515, 0.052176315, -0.027964152, -1449459.0, -33638.37, 0.0, 9.998374, 10.000543 
7.049846e+2, 1.6552903e+2, -1441368.9, -1304828.3, 64032.05, -0.005833406, -0.074398935, -1279498.8, 38318.285, 0.0, 9.998838, 10.000644 
7.049941e+2, 1.7552958e+2, -1273519.3, -1181746.8, 36653.004, 0.14497249, -0.11667071, -1168904.9, 50902.25, 0.0, 9.999347, 10.000573 
7.0500153e+2, 1.8552989e+2, -1202317.4, -1236576.1, 29451.25, 0.13179544, -0.07256386, -1185376.4, -63573.27, 0.0, 9.999751, 9.999337 
7.0500714e+2, 1.9552952e+2, -1056303.1, -1113942.9, 29070.063, -0.03215445, -0.07766603, -1044188.3, -20379.912, 0.0, 10.000072, 9.999353 
7.050155e+2, 2.0552953e+2, -926248.56, -947699.75, 121973.88, -0.03745914, -0.03191391, -814529.6, 111279.16, 0.0, 10.000056, 9.999832 
7.0502627e+2, 2.1552959e+2, -884302.2, -876145.5, 87011.48, 0.09071636, -0.04445367, -793116.9, 34690.566, 0.0, 9.999667, 9.999836 
7.050344e+2, 2.2552918e+2, -761983.7, -802591.2, 6987.018, 0.10779413, -0.047148895, -760815.1, -31004.547, 0.0, 10.000012, 9.99949 
7.050402e+2, 2.3552804e+2, -520149.03, -642844.25, 5817.3594, 0.018715492, -0.14608496, -519873.8, 111946.84, 0.0, 10.001029, 9.999428 
7.0504695e+2, 2.4552795e+2, -475919.88, -660699.06, 71388.07, -0.03637179, -0.047319505, -451552.9, 82270.664, 0.0, 10.001036, 9.998635 
7.050545e+2, 2.5552845e+2, -498694.13, -616914.56, 68310.125, -0.051628895, 0.09961168, -467470.03, -31646.266, 0.0, 10.000188, 9.998671 
7.050622e+2, 2.6552755e+2, -361475.56, -474936.75, 39564.055, 0.031318318, 0.13747376, -349042.03, -11209.159, 0.0, 10.0003605, 9.998888 
7.0507e+2, 2.7552524e+2, -119343.875, -311820.53, 33940.734, 0.20598665, -0.020426953, -113534.23, 126318.35, 0.000000016182126, 10.001369, 9.998846 
7.050761e+2, 2.8552338e+2, -20914.44, -295318.34, 88062.21, 0.15835501, -0.047444936, 4915.2866, 146784.92, 0.0000030357212, 10.00171, 9.99813 
7.0508057e+2, 2.9552168e+2, 25492.842, -217949.63, 69610.54, -0.089193076, -0.07662306, 43991.742, 87878.7, 0.000031540207, 10.00132, 9.998176 
7.0508826e+2, 3.0552155e+2, 140725.7, -36382.348, 37395.195, 0.03597774, 0.0570011, 148297.72, 148297.72, 0.00012311795, 10.001393, 9.999037 
7.0509386e+2, 3.1552023e+2, 219972.45, 57936.2, 36081.08, 0.017279468, -0.019378971, 227643.56, 227643.56, 0.0002906225, 10.001605, 9.999585 
7.149582e+2, 1.2551953e+2, -1803416.8, -1648112.3, -108459.16, 0.06825146, -0.077513784, -1592373.1, 117537.22, 0.0, 9.998841, 10.000989 
7.149623e+2, 1.3552116e+2, -1803278.9, -1689508.6, -28945.848, -0.101796895, 0.024508104, -1682567.5, -70671.03, 0.0, 9.998598, 10.000168 
7.149711e+2, 1.4552215e+2, -1714147.1, -1514353.0, -15294.043, 0.13490987, 0.083273925, -1513189.0, 699.27167, 0.0, 9.998186, 10.000867 
7.149771e+2, 1.555236e+2, -1593479.4, -1406218.8, 10192.722, 0.08342123, 0.094508424, -1405665.5, 10208.833, 0.0, 9.99835, 10.000861 
7.1498394e+2, 1.6552438e+2, -1471555.6, -1344191.6, 66536.36, 0.0054522855, 0.11409669, -1315773.1, 2092.398, 0.0, 9.99875, 10.000412 
7.1499217e+2, 1.7552418e+2, -1300120.6, -1220631.8, 69761.58, -0.017796695, 0.01816799, -1180087.4, 39777.715, 0.0, 9.999287, 10.000333 
7.150006e+2, 1.855241e+2, -1191723.9, -1193904.4, 24228.36, 0.03272489, 0.020024166, -1168561.3, -46697.21, 0.0, 9.999662, 9.999676 
7.1500915e+2, 1.9552387e+2, -1059649.0, -1081471.8, 56569.87, 0.13263002, -0.0043666973, -1012947.75, 10917.411, 0.0, 9.999908, 9.999657 
7.150172e+2, 2.0552345e+2, -981629.44, -1015699.3, 91973.12, 0.10070907, 0.00445169, -905126.94, 20742.572, 0.0, 9.999865, 9.9994545 
7.150248e+2, 2.1552254e+2, -945438.06, -944016.2, 89026.8, -0.042506956, -0.06867335, -855697.5, -27817.8, 0.0, 9.99943, 9.999479 
7.150329e+2, 2.2552277e+2, -762153.4, -763409.94, 27671.973, -0.06890688, -0.007853758, -735102.56, -5224.9224, 0.0, 9.999836, 9.999848 
7.150412e+2, 2.3552358e+2, -525235.5, -605464.8, 56022.38, -0.009647755, 0.05429983, -496446.66, 135422.3, 0.0, 10.000821, 9.999788 
7.1504885e+2, 2.4552307e+2, -472534.4, -612047.5, 22842.523, 0.01713403, 0.06964756, -468889.63, 64984.563, 0.0, 10.000857, 9.999058 
7.1505564e+2, 2.555212e+2, -494728.22, -568215.8, 56002.89, 0.012693987, -0.06037501, -464491.2, -28597.662, 0.0, 10.000023, 9.999083 
7.150627e+2, 2.6552087e+2, -347122.0, -434755.53, 59864.15, 0.0075282096, -0.000568005, -316752.34, 21143.988, 0.0, 10.000308, 9.999194 
7.1506965e+2, 2.7552143e+2, -116784.77, -278714.1, 87721.93, -0.004406888, 0.09776626, -78374.336, 161515.2, 0.000000020828322, 10.001245, 9.999139 
7.150768e+2, 2.855198e+2, -33310.465, -295663.88, 58097.8, 0.017223949, 0.079326004, -21020.512, 120884.05, 0.0000037854625, 10.001615, 9.998167 
7.150836e+2, 2.9551622e+2, 3852.3057, -229963.88, 80447.695, 0.03653674, -0.13759562, 28857.336, 72796.625, 0.000035842306, 10.001196, 9.998145 
7.1509075e+2, 3.0551553e+2, 101558.74, -121284.37, 33099.063, 0.106719546, -0.029467408, 106371.05, 106371.05, 0.000135526, 10.001395, 9.998462 
7.150936e+2, 3.1551334e+2, 251181.45, 146932.5, 116690.93, -0.2522034, -0.14291047, 326860.47, 326860.47, 0.00031586387, 10.001486, 10.000268 
7.2495687e+2, 1.25513e+2, -1901056.0, -1684870.4, 38853.918, 0.11113691, -0.050708137, -1678099.4, 31875.148, 0.0, 9.998082, 10.001136 
7.249613e+2, 1.3551438e+2, -1720818.9, -1612326.8, 5537.1753, -0.068200655, -0.0005589098, -1612044.9, -82.605934, 0.0, 9.999022, 10.000491 
7.2497e+2, 1.4551505e+2, -1567922.6, -1466439.9, 30785.861, 0.15623313, 0.02495906, -1457831.0, 56125.773, 0.0, 9.999276, 10.000689 
7.2497606e+2, 1.5551703e+2, -1480336.3, -1366960.9, -15000.256, 0.11245457, 0.10614535, -1365009.9, 50929.31, 0.0, 9.999187, 10.000736 
7.2498316e+2, 1.6551805e+2, -1402966.1, -1336426.5, 73540.625, 0.036536526, 0.16564056, -1288980.1, 28949.266, 0.0, 9.999284, 10.000237 
7.249916e+2, 1.7551784e+2, -1278688.4, -1224176.8, 52624.457, -0.0018908207, 0.08681363, -1192168.6, 27761.814, 0.0, 9.999473, 10.000233 
7.250006e+2, 1.8551777e+2, -1166330.8, -1156364.3, 34151.527, 0.072526306, 0.080459766, -1126834.3, -4904.8555, 0.0, 9.999723, 9.999902 
7.250098e+2, 1.955175e+2, -1033159.7, -1042390.4, 23390.77, 0.21589129, 0.027760485, -1013933.25, 9996.827, 0.0, 9.99997, 9.999895 
7.2501767e+2, 2.0551716e+2, -976666.44, -985052.25, 86118.195, 0.1692028, 0.020012466, -894639.1, 31293.549, 0.0, 9.999798, 9.999699 
7.250242e+2, 2.1551634e+2, -954307.44, -924712.56, 102370.914, -0.023405243, -0.06230929, -836075.1, -8134.385, 0.0, 9.999271, 9.999693 
7.250325e+2, 2.2551672e+2, -800292.1, -783009.75, 132228.6, -0.06608259, 0.0043266565, -659140.3, 70796.766, 0.0, 9.9995775, 9.999847 
7.250421e+2, 2.3551776e+2, -563208.6, -623905.25, 98074.125, 0.02112524, 0.09100793, -490894.63, 141032.05, 0.0, 10.000556, 9.999799 
7.250501e+2, 2.4551709e+2, -475530.2, -603635.56, 18892.953, 0.07405932, 0.08446412, -472801.97, 61130.953, 0.0, 10.0008135, 9.9991255 
7.2505665e+2, 2.5551468e+2, -410049.1, -523841.0, -5276.5693, 0.08628525, -0.10442083, -409804.97, 26151.068, 0.0, 10.000588, 9.999114 
7.250635e+2, 2.6551422e+2, -308672.0, -413836.03, 44944.707, 0.05336261, -0.06009557, -292081.06, 45878.81, 0.0, 10.000574, 9.999205 
7.250706e+2, 2.75515e+2, -183746.1, -312056.0, 13156.696, 0.003878219, 0.060109843, -182410.92, 57540.832, 0.000000011844985, 10.000779, 9.999139 
7.250782e+2, 2.855138e+2, -102970.55, -332797.84, -6438.308, 0.036866564, 0.08867423, -102790.33, 39172.934, 0.000004675658, 10.001176, 9.998112 
7.250858e+2, 2.9551083e+2, 78131.73, -202401.95, -32780.164, 0.12197241, -0.06369292, 81911.15, 125904.195, 0.000040333267, 10.001759, 9.9980545 
7.2509277e+2, 3.055089e+2, 149663.9, -181304.03, -51755.54, 0.14868909, -0.029938938, 157568.47, 157568.47, 0.00014552829, 10.002093, 9.99772 
7.250963e+2, 3.155061e+2, 300266.56, 146678.83, -24443.182, -0.13309288, -0.13085522, 304062.8, 304062.8, 0.00033116215, 10.001928, 10.000056 
7.349535e+2, 1.2550755e+2, -1901652.5, -1676751.5, 67257.9, -0.10348493, 0.025434522, -1658172.4, 51855.75, 0.0, 9.998056, 10.001193 
7.349613e+2, 1.3550885e+2, -1706175.4, -1582522.9, 44778.563, -0.010208901, 0.039320596, -1568010.4, 44004.52, 0.0, 9.999012, 10.000704 
7.349697e+2, 1.4550835e+2, -1629692.9, -1569505.0, 5626.9473, 0.15724784, -0.031946465, -1568983.4, -54962.477, 0.0, 9.999184, 10.000014 
7.3497444e+2, 1.5550901e+2, -1534648.1, -1476012.4, 1159.6013, -0.013137711, -0.014260431, -1475989.4, -59972.293, 0.0, 9.999172, 9.999994 
7.3498183e+2, 1.6550994e+2, -1404645.5, -1333748.9, 62059.79, -0.05817727, 0.0739448, -1297727.0, 20282.316, 0.0, 9.99926, 10.000264 
7.349921e+2, 1.7551076e+2, -1289237.4, -1226787.9, 78244.36, 0.059966482, 0.09310131, -1173768.0, 46233.633, 0.0, 9.999387, 10.000258 
7.35001e+2, 1.8551104e+2, -1183324.0, -1154307.8, 28165.72, 0.110098, 0.11561316, -1137133.1, -15134.924, 0.0, 9.999572, 9.999983 
7.350087e+2, 1.9551052e+2, -1048589.6, -1036286.4, 44882.363, 0.07820893, 0.031500045, -997136.0, 26865.635, 0.0, 9.99982, 10.000002 
7.3501635e+2, 2.0551074e+2, -938193.4, -872380.2, 48782.555, 0.03976645, 0.03140183, -846443.06, 79553.8, 0.0, 9.99965, 10.000545 
7.35024e+2, 2.1551119e+2, -927749.4, -820421.8, 101266.25, -0.00557228, -0.01349626, -759479.1, 68509.79, 0.0, 9.99906, 10.000508 
7.350328e+2, 2.2551125e+2, -859177.94, -851781.6, 152849.45, -0.024049222, 0.0022833361, -702585.6, 27401.31, 0.0, 9.9993515, 9.999481 
7.350424e+2, 2.3551068e+2, -621337.2, -690891.0, 150238.64, -0.029613253, -0.036132827, -501902.94, 130089.984, 0.0, 10.000335, 9.99944 
7.350505e+2, 2.4551006e+2, -512638.56, -654207.9, -5004.807, -0.0069519593, -0.0046123094, -512461.84, 21537.684, 0.0, 10.000691, 9.998838 
7.35057e+2, 2.55509e+2, -457714.84, -580017.4, 2881.639, 0.032494247, -0.030299867, -457647.0, -21636.592, 0.0, 10.000402, 9.998817 
7.3506427e+2, 2.6550785e+2, -350044.4, -469859.1, 39989.46, 0.04854691, -0.02442185, -337923.66, 97.70787, 0.0, 10.000446, 9.9988785 
7.350723e+2, 2.7550617e+2, -223599.11, -368212.16, 45342.746, 0.057626214, -0.11473734, -210558.13, 29478.65, 0.000000051096855, 10.000668, 9.998805 
7.350799e+2, 2.8550556e+2, -110148.336, -352593.1, 34.00154, 0.048485827, -0.0072614467, -110148.33, 31895.602, 0.0000058850314, 10.001183, 9.997976 
7.3508686e+2, 2.9550555e+2, 49749.914, -242543.6, 11780.092, -0.0049567088, 0.14930868, 50223.906, 94271.04, 0.000044056193, 10.001669, 9.997826 
7.3509395e+2, 3.0550182e+2, 75280.26, -329678.47, -64295.066, 0.016599528, 0.0651033, 85243.234, 85243.234, 0.00015023243, 10.002065, 9.996715 
7.351005e+2, 3.1549767e+2, 204710.14, -21824.451, 46127.473, 0.007933933, -0.06930848, 213742.58, 213742.58, 0.0003329124, 10.001799, 9.99896 
7.449519e+2, 1.2550043e+2, -1973320.9, -1704002.4, 68093.945, -0.02902871, 0.05199497, -1687764.6, 22334.996, 0.0, 9.99756, 10.001224 
7.449599e+2, 1.3550232e+2, -1884151.1, -1619972.9, -34353.836, 0.03987967, 0.08485118, -1615578.6, -3498.5522, 0.0, 9.997615, 10.0011015 
7.4496794e+2, 1.4550193e+2, -1752636.4, -1623454.0, 10596.154, 0.12565508, 0.0013307992, -1622590.6, -108506.36, 0.0, 9.998314, 10.000056 
7.44974e+2, 1.5550219e+2, -1443234.1, -1420549.8, 19277.373, 0.0090206135, -0.02847394, -1409525.5, 6557.7476, 0.0, 9.999766, 10.000072 
7.449819e+2, 1.6550298e+2, -1327705.0, -1308773.3, 98261.26, 0.000039734405, 0.04629711, -1219523.0, 98553.46, 0.0, 9.999847, 10.000151 
7.449918e+2, 1.7550378e+2, -1377812.6, -1278830.8, 71218.305, 0.13208057, 0.073441885, -1241595.6, -21526.074, 0.0, 9.998814, 10.000178 
7.4500054e+2, 1.8550405e+2, -1288225.6, -1194349.6, 87815.69, 0.15908037, 0.09419323, -1141714.6, -19648.684, 0.0, 9.998797, 10.000089 
7.4500835e+2, 1.9550352e+2, -1076282.4, -1043418.1, 76446.0, 0.08103368, -0.00052673364, -981658.2, 42410.645, 0.0, 9.999589, 10.000071 
7.4501616e+2, 2.0550393e+2, -893564.94, -862805.6, 46883.38, 0.045749344, 0.019049425, -828843.8, 97218.81, 0.0, 10.000002, 10.000425 
7.4502397e+2, 2.1550475e+2, -782516.06, -765616.56, -9047.34, 0.045522097, 0.024434611, -761686.8, 66365.266, 0.0, 10.000116, 10.000368 
7.45033e+2, 2.2550458e+2, -762170.56, -799974.5, 77887.09, 0.041579552, 0.020653427, -700924.7, 29127.576, 0.0, 9.999996, 9.999521 
7.4504286e+2, 2.3550326e+2, -720104.06, -738584.6, 70425.7, 0.027950743, -0.0999029, -658315.06, -26250.416, 0.0, 9.999635, 9.999456 
7.4505097e+2, 2.4550271e+2, -613147.1, -700184.2, -22458.998, 0.019824186, -0.061130628, -607693.56, -73623.484, 0.0, 9.999987, 9.998869 
7.450575e+2, 2.5550252e+2, -357199.72, -527350.6, -25095.254, 0.020730773, -0.0049717855, -353575.66, 82497.414, 0.0, 10.001071, 9.998859 
7.4506515e+2, 2.6550117e+2, -227662.56, -461398.25, 38835.17, 0.04094616, 0.0032820818, -221379.03, 116707.64, 0.0, 10.001513, 9.99842 
7.450736e+2, 2.754985e+2, -146705.05, -371257.56, 19.416388, 0.09366094, -0.1424275, -146705.05, 93407.59, 0.00000017449423, 10.001399, 9.998417 
7.450816e+2, 2.854977e+2, -69987.16, -329977.8, 1199.6433, 0.09399342, -0.03877067, -69981.625, 72140.68, 0.0000070145306, 10.001445, 9.998009 
7.4508893e+2, 2.9549804e+2, 53856.426, -231001.17, -11682.847, 0.04840527, 0.15431824, 54334.77, 98456.22, 0.00004543542, 10.001647, 9.99792 
7.4509573e+2, 3.0549452e+2, 83614.51, -296231.88, 1291.0968, 0.005012727, 0.065719105, 83618.9, 83618.9, 0.00014809403, 10.001991, 9.996979 
7.4510384e+2, 3.1549075e+2, 220046.19, -39228.977, 142090.28, 0.1653762, -0.05036571, 282750.88, 282750.88, 0.00032280377, 10.002026, 9.998717 
7.549513e+2, 1.254914e+2, -1978422.4, -1696104.4, 26951.133, 0.07656421, -0.010634977, -1693554.5, 16636.9, 0.0, 9.99749, 10.0013075 
7.5495684e+2, 1.354947e+2, -1851748.5, -1553911.6, -16193.109, -0.0632288, 0.117252894, -1553033.8, 59125.04, 0.0, 9.997612, 10.001562 
7.549646e+2, 1.4549576e+2, -1702017.3, -1506564.3, 43783.188, -0.08839996, 0.11664652, -1497204.8, 16942.514, 0.0, 9.998269, 10.000878 
7.549743e+2, 1.5549679e+2, -1397863.9, -1312371.5, 84480.4, 0.02352527, 0.08502177, -1260438.4, 155696.97, 0.0, 9.999708, 10.000845 
7.5498265e+2, 1.6549721e+2, -1348816.6, -1339095.3, 39553.004, 0.06278229, 0.09343482, -1304105.4, 14025.193, 0.0, 9.999785, 9.999973 
7.549903e+2, 1.7549688e+2, -1399390.0, -1311713.6, 51671.09, 0.06769246, 0.030006943, -1287789.8, -67655.414, 0.0, 9.998763, 9.999977 
7.549989e+2, 1.854968e+2, -1287581.3, -1171464.9, 98987.44, 0.07792959, 0.016689302, -1114765.6, 7367.12, 0.0, 9.998704, 10.000295 
7.550083e+2, 1.9549657e+2, -1086360.4, -1027776.9, 121625.81, 0.08158734, -0.069290936, -931965.3, 92165.5, 0.0, 9.999437, 10.000251 
7.5501657e+2, 2.0549677e+2, -1002118.4, -1044912.1, 34761.867, 0.052401535, -0.015816467, -982696.0, -56567.043, 0.0, 9.999812, 9.999272 
7.5502384e+2, 2.1549709e+2, -890448.6, -933650.25, 9962.523, -0.007925494, 0.052310716, -888261.9, -60131.973, 0.0, 9.999887, 9.999323 
7.5503284e+2, 2.254968e+2, -757968.2, -749108.75, 48991.0, 0.00033662637, 0.06279088, -704347.6, 25784.863, 0.0, 9.999809, 9.999964 
7.550431e+2, 2.3549564e+2, -721693.56, -691231.2, 76118.44, 0.0571189, -0.08166713, -628835.06, 3305.0276, 0.0, 9.999417, 9.999887 
7.550512e+2, 2.4549529e+2, -612395.94, -664144.4, 3150.4038, 0.015891163, -0.06170008, -612204.9, -78062.62, 0.0, 9.999834, 9.999189 
7.5505763e+2, 2.554952e+2, -358073.5, -498384.56, 29845.707, -0.10643242, -0.02782516, -351988.88, 84155.31, 0.0, 10.000936, 9.999124 
7.550654e+2, 2.654941e+2, -277450.22, -545223.3, 19160.586, -0.1161571, 0.024376852, -276086.13, 62069.984, 0.0, 10.0014305, 9.997883 
7.5507414e+2, 2.7549192e+2, -203438.55, -458648.44, 15199.802, -0.03259565, -0.019693378, -202536.45, 37643.082, 0.0000002213921, 10.001265, 9.997884 
7.550829e+2, 2.8549016e+2, -67591.92, -309680.75, -4833.666, 0.045239553, 0.005282272, -67495.445, 74702.55, 0.000006961638, 10.00137, 9.998189 
7.550915e+2, 2.954884e+2, 61803.984, -197221.94, 20913.014, 0.09543549, -0.035095878, 63481.58, 107697.43, 0.00004401986, 10.001558, 9.998203 
7.550973e+2, 3.0548665e+2, 175278.72, -80404.59, -5265.0244, -0.05852004, -0.034872614, 175387.1, 175387.1, 0.0001416952, 10.001904, 9.998487 
7.5510496e+2, 3.154865e+2, 243046.55, 41350.55, 170326.61, -0.006639677, 0.054887313, 340141.66, 340141.66, 0.0003069929, 10.001899, 9.999322 
7.6494956e+2, 1.2548421e+2, -1941054.4, -1727004.9, 126531.89, 0.15566252, 0.029108131, -1668305.1, 41957.063, 0.00000000032551553, 9.997884, 10.000929 
7.6495576e+2, 1.3548672e+2, -1688689.5, -1496195.5, -15434.143, 0.02029694, 0.097019576, -1494965.8, 117271.78, 0.0, 9.998793, 10.001393 
7.6496327e+2, 1.4548804e+2, -1630612.3, -1473779.8, 43427.348, -0.06224865, 0.12599954, -1462557.6, 51665.914, 0.0, 9.998735, 10.000897 
7.649738e+2, 1.5548906e+2, -1591455.0, -1404212.9, -9033.371, 0.082860574, 0.08969704, -1403778.0, 12433.239, 0.0, 9.998344, 10.000891 
7.6498246e+2, 1.6548954e+2, -1508301.9, -1406806.0, -50339.234, 0.13412379, 0.09664906, -1386073.9, -67868.22, 0.0, 9.998662, 10.00004 
7.649899e+2, 1.7548926e+2, -1282323.4, -1246999.1, -50602.055, 0.1290122, 0.033217695, -1211065.4, 9142.978, 0.0, 9.999541, 10.000038 
7.6499844e+2, 1.8548913e+2, -1122051.0, -1087234.0, 44908.1, 0.1125294, 0.0067504277, -1056478.3, 65728.766, 0.0, 9.999827, 10.000323 
7.650076e+2, 1.9548868e+2, -1059581.8, -1017432.2, 18838.406, 0.07406533, -0.1042141, -1010239.8, 13966.96, 0.0, 9.99962, 10.0002365 
7.650164e+2, 2.0548873e+2, -1027743.3, -1082002.6, -4675.797, 0.06580712, -0.05426575, -1027343.3, -101136.41, 0.0, 9.999751, 9.99905 
7.6502466e+2, 2.1548882e+2, -864924.2, -951879.06, 9489.341, 0.07552797, 0.0155861275, -863900.6, -35689.324, 0.0, 10.000171, 9.999076 
7.650335e+2, 2.2548869e+2, -683750.5, -697342.94, 76498.77, 0.07041744, 0.04894355, -613746.6, 116466.13, 0.0, 10.00027, 10.000093 
7.6504266e+2, 2.3548815e+2, -606277.25, -615331.9, 47182.43, 0.048316922, -0.048429042, -563405.44, 68809.05, 0.0, 10.000147, 10.000044 
7.650509e+2, 2.4548793e+2, -562498.94, -621899.2, 18124.885, -0.0038148458, -0.032267157, -557405.25, -23190.314, 0.0, 10.000098, 9.999353 
7.6505834e+2, 2.5548768e+2, -478418.53, -540102.06, 3783.8623, -0.07821851, -0.030319422, -478187.28, -41969.754, 0.0, 10.000041, 9.999269 
7.650667e+2, 2.6548666e+2, -412470.22, -618925.5, 32526.586, -0.07415287, 0.026907519, -407466.97, -69238.25, 0.0, 10.000544, 9.997807 
7.6507574e+2, 2.7548474e+2, -175941.25, -454730.25, 26521.854, 0.0045662816, 0.020518651, -173440.6, 66809.336, 0.00000016204108, 10.001495, 9.997805 
7.6508486e+2, 2.854827e+2, -21175.447, -296165.28, 31081.174, 0.09710994, 0.02761435, -17706.215, 124564.83, 0.000006290961, 10.001732, 9.998096 
7.650938e+2, 2.954803e+2, 16161.449, -217129.25, 1137.6563, 0.19521846, -0.06923598, 16166.997, 60461.484, 0.000041719115, 10.001273, 9.998177 
7.650994e+2, 3.054791e+2, 189787.13, -70384.33, -27423.932, -0.032082222, -0.023361716, 192646.39, 192646.39, 0.00013461517, 10.00197, 9.998539 
7.651077e+2, 3.1547877e+2, 414411.4, 136582.05, -43697.574, 0.029229999, 0.051967185, 421122.16, 421122.16, 0.00029005748, 10.003006, 9.99946 
7.7494586e+2, 1.2547871e+2, -2001580.9, -1831184.9, 66091.99, -0.09575717, 0.1601281, -1808555.0, -98241.88, 0.0000000023621072, 9.9978075, 10.000249 
7.74956e+2, 1.3547839e+2, -1750017.9, -1616516.1, 22261.666, 0.1294001, 0.03225165, -1612901.9, -585.30365, 0.0, 9.998772, 10.00058 
7.749634e+2, 1.4547867e+2, -1671352.0, -1555943.0, 3949.9385, 0.03186597, 0.02319361, -1555808.0, -41494.008, 0.0, 9.99872, 10.000342 
7.74972e+2, 1.5547906e+2, -1633137.8, -1487979.0, -2339.195, 0.032261662, -0.01404215, -1487941.3, -71631.086, 0.0, 9.99833, 10.000323 
7.7498096e+2, 1.6548003e+2, -1493777.8, -1359937.3, -36159.83, 0.074336916, 0.052190926, -1350792.8, -32491.95, 0.0, 9.998595, 10.000395 
7.749904e+2, 1.7548105e+2, -1265147.5, -1195801.0, -956.7494, 0.17511979, 0.081729434, -1195787.8, 24502.902, 0.0, 9.999479, 10.000419 
7.7499866e+2, 1.8548113e+2, -1149961.0, -1121961.9, 22082.871, 0.11807039, 0.065597095, -1109814.9, 12473.077, 0.0, 9.999717, 10.000147 
7.75006e+2, 1.9548002e+2, -1089340.6, -1047061.75, 29001.795, -0.08405136, -0.08962656, -1032312.75, -8017.876, 0.0, 9.999477, 10.000107 
7.750151e+2, 2.0547989e+2, -1008767.3, -995286.75, -5040.992, -0.059443574, -0.08850442, -993610.2, -67314.914, 0.0, 9.999553, 9.999739 
7.750259e+2, 2.1548018e+2, -853321.9, -872275.06, 38878.97, 0.15682444, -0.066562526, -822781.2, 5512.8037, 0.0, 9.999942, 9.999728 
7.750345e+2, 2.2548056e+2, -731813.25, -747405.9, 54397.76, 0.1159748, -0.002103157, -684656.0, 45634.727, 0.0, 10.000053, 9.999859 
7.750412e+2, 2.3548065e+2, -649186.4, -660091.56, 58848.324, -0.14413926, -0.011273984, -595538.56, 36750.6, 0.0, 9.999952, 9.999835 
7.750495e+2, 2.4548052e+2, -584703.0, -625614.25, -186.55034, -0.17984703, 0.022347076, -584702.2, -50413.105, 0.0, 9.999924, 9.999411 
7.7505916e+2, 2.5548e+2, -499810.75, -541202.5, 20850.2, -0.033022404, -0.008711192, -491128.9, -54836.258, 0.0, 9.999862, 9.999346 
7.7506864e+2, 2.6547885e+2, -405153.72, -579458.5, 53645.063, 0.03957507, 0.015646147, -389966.8, -51663.117, 0.0, 10.00044, 9.998129 
7.75078e+2, 2.7547678e+2, -172743.13, -420066.97, 78234.53, 0.043233365, -0.035951935, -150073.52, 90252.195, 0.00000014054619, 10.001371, 9.998107 
7.7508694e+2, 2.8547513e+2, -62398.086, -353141.78, -838.70483, 0.09184269, 0.011835526, -62395.668, 79947.945, 0.0000059856334, 10.001617, 9.997755 
7.750954e+2, 2.9547364e+2, -24613.498, -284833.9, 9461.227, 0.17893937, 0.034923952, -24269.955, 20090.225, 0.0000396548, 10.001196, 9.997748 
7.751015e+2, 3.054717e+2, 91985.87, -254361.11, 4497.2036, -0.05077719, 0.097499244, 92044.26, 92044.26, 0.00012692052, 10.001902, 9.997308 
7.75111e+2, 3.1546798e+2, 354517.97, 49186.58, 13342.33, -0.016148154, -0.036648314, 355099.88, 355099.88, 0.00027215088, 10.002845, 9.998945 
7.8494394e+2, 1.2547088e+2, -1901020.8, -1774638.9, 29001.975, -0.0821682, 0.14778055, -1768301.4, -57913.117, 0.0000000040597263, 9.998512, 10.000272 
7.8495556e+2, 1.3547003e+2, -1829677.8, -1671050.1, -1705.2102, 0.24773273, -0.014516077, -1671031.8, -58635.105, 0.0, 9.99833, 10.000397 
7.8496295e+2, 1.4547035e+2, -1719202.3, -1578316.9, 53211.35, 0.14077152, -0.009282572, -1560478.1, -46084.45, 0.0, 9.998402, 10.000335 
7.8497094e+2, 1.5547079e+2, -1556114.3, -1452215.3, 52334.383, 0.070421316, -0.036866892, -1430424.4, -14034.783, 0.0, 9.998879, 10.000297 
7.849799e+2, 1.6547166e+2, -1419233.5, -1325760.8, 76368.09, 0.09053267, 0.022581445, -1282962.9, 35418.414, 0.0, 9.999112, 10.000376 
7.849898e+2, 1.7547254e+2, -1332912.8, -1230660.0, 41940.246, 0.2007042, 0.037880287, -1215658.5, 4714.495, 0.0, 9.999031, 10.00039 
7.849983e+2, 1.8547304e+2, -1239597.0, -1164946.3, 73318.19, 0.15259787, 0.06507275, -1119999.3, 2368.3472, 0.0, 9.999106, 10.000142 
7.850057e+2, 1.9547284e+2, -1132393.6, -1063491.3, 61384.945, -0.039127126, -0.0005808063, -1027550.7, -3182.4224, 0.0, 9.999182, 10.000125 
7.850148e+2, 2.0547278e+2, -1022645.75, -967703.1, 64332.703, -0.01976369, -0.009458427, -925221.8, 1145.5255, 0.0, 9.999297, 10.000059 
7.850257e+2, 2.1547246e+2, -923734.7, -871683.8, 48844.934, 0.18153876, -0.07798081, -842363.56, -13994.812, 0.0, 9.999312, 10.000037 
7.8503424e+2, 2.2547269e+2, -851278.9, -833620.9, 74733.25, 0.13270561, -0.030438242, -767196.9, -36830.43, 0.0, 9.999352, 9.9996 
7.850409e+2, 2.3547302e+2, -753733.94, -742373.3, 45266.56, -0.13024516, 0.010693692, -702432.06, -70067.42, 0.0, 9.99937, 9.999553 
7.850498e+2, 2.4547261e+2, -597021.9, -653669.25, 26063.467, -0.13387612, 0.039785508, -586854.9, -52487.14, 0.0, 9.999941, 9.999203 
7.850605e+2, 2.554713e+2, -351650.97, -491846.56, -6843.8813, 0.07756488, -0.048939094, -351317.7, 85060.22, 0.0, 10.000968, 9.99915 
7.850702e+2, 2.654701e+2, -294811.22, -497143.38, 33669.22, 0.12606484, -0.03481736, -289355.6, 49033.2, 0.0, 10.00108, 9.998383 
7.850788e+2, 2.7546862e+2, -295085.25, -450502.2, 19083.316, 0.04512396, -0.05331372, -292776.34, -52371.785, 0.0000001311964, 10.000415, 9.998352 
7.850879e+2, 2.854671e+2, -172164.44, -406572.0, -1353.1241, 0.07924446, -0.004644772, -172156.63, -29736.027, 0.0000058891046, 10.000856, 9.9977665 
7.850975e+2, 2.9546544e+2, 102428.57, -231770.14, -2693.0183, 0.23121233, 0.011832236, 102450.266, 146887.72, 0.000037489564, 10.00209, 9.997697 
7.851044e+2, 3.0546287e+2, 190757.45, -273448.53, 79992.56, 0.014693495, 0.04367384, 204155.19, 204155.19, 0.00011865352, 10.00285, 9.99672 
7.851141e+2, 3.1545988e+2, 337258.63, 15839.619, 30464.629, 0.031141577, 0.023969539, 340120.63, 340120.63, 0.00025448482, 10.002821, 9.998719 
7.9494274e+2, 1.2546116e+2, -1841192.5, -1678136.8, -62732.117, -0.1407644, 0.019040044, -1656795.1, 53687.28, 0.0000000034592607, 9.998617, 10.00089 
7.9495394e+2, 1.3546166e+2, -1791314.4, -1607570.8, 3174.5076, 0.20617968, -0.051166825, -1607516.0, 4961.434, 0.0, 9.998388, 10.000807 
7.9496145e+2, 1.4546315e+2, -1691138.3, -1506921.9, 47359.605, 0.10006035, 0.02636434, -1495459.5, 19002.402, 0.0, 9.998356, 10.00084 
7.9497e+2, 1.5546434e+2, -1522909.3, -1377713.0, 89037.7, 0.04421081, 0.015969424, -1335427.6, 81021.18, 0.0, 9.998863, 10.00081 
7.9497874e+2, 1.6546458e+2, -1451968.9, -1391229.4, 55903.18, 0.029530568, 0.009954863, -1357979.3, -39533.05, 0.0, 9.999089, 9.999946 
7.9498774e+2, 1.754638e+2, -1361312.1, -1292107.0, 55343.72, 0.05714942, -0.098945566, -1261438.9, -40984.145, 0.0, 9.999027, 9.999976 
7.9499686e+2, 1.8546486e+2, -1252199.1, -1159419.4, 59921.824, 0.06893045, 0.0019805876, -1130029.0, -7582.881, 0.0, 9.998979, 10.0002365 
7.9500616e+2, 1.9546707e+2, -1140120.8, -1051124.9, 79359.35, 0.053233154, 0.16304839, -1004639.5, 19787.857, 0.0, 9.999066, 10.00026 
7.9501504e+2, 2.0546736e+2, -1046535.1, -977547.4, 47047.594, 0.037650976, 0.18052442, -953703.44, -27280.045, 0.0, 9.9991255, 10.0000725 
7.9502356e+2, 2.1546559e+2, -953002.94, -887811.4, 65425.703, 0.009870882, -0.036734935, -847311.3, -18875.172, 0.0, 9.999118, 10.00002 
7.950323e+2, 2.254651e+2, -906651.75, -896607.06, 61603.88, -0.017331284, -0.04242754, -839821.1, -109381.125, 0.0, 9.999128, 9.999276 
7.950413e+2, 2.3546536e+2, -801865.1, -802553.8, 65914.44, -0.051794123, 0.024417385, -736294.1, -103854.43, 0.0, 9.999192, 9.999227 
7.950513e+2, 2.4546424e+2, -655577.75, -734970.3, 49201.742, -0.011166879, 0.021183291, -632055.3, -97605.14, 0.0, 9.999772, 9.998725 
7.9506195e+2, 2.5546154e+2, -410859.6, -572420.44, 46449.32, 0.090908416, -0.15249115, -398457.3, 38016.035, 0.0, 10.000788, 9.998684 
7.950707e+2, 2.6546043e+2, -292375.2, -471625.38, -5476.4097, 0.037734136, -0.123743854, -292208.03, 46275.605, 0.0, 10.000982, 9.998606 
7.950777e+2, 2.7546027e+2, -294930.06, -431058.38, 20811.166, -0.14169891, -0.03155795, -291819.53, -51333.254, 0.000000103459534, 10.000325, 9.998531 
7.9508746e+2, 2.854587e+2, -156433.48, -360333.53, 31712.535, -0.08037, -0.009293693, -151615.11, -9114.506, 0.0000054454867, 10.000798, 9.998111 
7.950993e+2, 2.9545587e+2, 106565.375, -193932.89, 67256.484, 0.15938628, -0.14933178, 120931.66, 165457.7, 0.00003447301, 10.001961, 9.998022 
7.951074e+2, 3.054528e+2, 177481.56, -278753.6, 75074.85, -0.0030677044, -0.18514942, 189517.81, 189517.81, 0.0001104858, 10.00275, 9.99673 
7.951162e+2, 3.1545228e+2, 305555.56, -16981.379, 47619.285, -0.1297796, 0.043650135, 312439.16, 312439.16, 0.000240168, 10.002674, 9.998565 
8.0494195e+2, 1.2545271e+2, -2105397.8, -1754991.4, 9824.8955, 0.04032816, -0.037603714, -1754716.1, -44152.875, 0.0000000057252847, 9.996599, 10.001351 
8.04952e+2, 1.3545375e+2, -1840790.1, -1614121.8, 27168.285, 0.21453533, -0.06958552, -1610910.9, 1641.2742, 0.0, 9.997961, 10.000992 
8.049598e+2, 1.4545535e+2, -1684649.0, -1513677.1, 73284.44, 0.108358964, 0.01719107, -1486564.5, 27971.465, 0.0, 9.99845, 10.000749 
8.04969e+2, 1.5545657e+2, -1585684.4, -1424479.3, 20758.826, 0.09267346, 0.021948949, -1421849.0, -5325.085, 0.0, 9.998498, 10.000671 
8.0497783e+2, 1.6545674e+2, -1520735.6, -1399559.1, 15675.28, 0.07272654, 0.0052999784, -1397564.1, -79042.375, 0.0, 9.998533, 10.0001545 
8.0498654e+2, 1.7545581e+2, -1408592.4, -1298211.0, 26843.982, 0.06073605, -0.13010457, -1292029.0, -71499.016, 0.0, 9.998643, 10.000124 
8.049958e+2, 1.8545678e+2, -1266337.5, -1180162.8, 80400.984, 0.07518702, -0.038586937, -1132031.5, -9508.984, 0.0, 9.99896, 10.000098 
8.0500567e+2, 1.9545892e+2, -1113635.9, -1060897.9, 42309.098, 0.09793618, 0.13446596, -1037413.3, -12907.484, 0.0, 9.999353, 10.000062 
8.0501467e+2, 2.0545925e+2, -974958.06, -956435.8, 16807.262, 0.07167962, 0.17422272, -946507.0, -20004.504, 0.0, 9.999675, 9.999955 
8.050229e+2, 2.1545771e+2, -859961.3, -856720.6, -11620.001, 0.0023345235, -0.00912961, -846608.56, -18094.396, 0.0, 9.999822, 9.999891 
8.05032e+2, 2.254571e+2, -769381.7, -854910.7, 21951.152, -0.003992458, -0.008870813, -764076.94, -33557.14, 0.0, 10.000175, 9.999052 
8.0504197e+2, 2.35457e+2, -609803.3, -731803.4, 2643.7004, 0.032251522, 0.04352297, -609746.06, 22777.264, 0.0, 10.000617, 9.999017 
8.0505216e+2, 2.4545582e+2, -514880.5, -662939.56, 47703.703, 0.067694135, 0.041703515, -500841.78, 33692.58, 0.0, 10.000699, 9.998783 
8.050628e+2, 2.5545332e+2, -458446.56, -588680.94, 51373.0, 0.11449236, -0.12092246, -440621.4, -4065.772, 0.0, 10.00042, 9.998759 
8.0507153e+2, 2.6545218e+2, -330482.9, -491473.63, 30877.648, 0.045527477, -0.09617644, -324763.8, 13801.583, 0.0, 10.000714, 9.99861 
8.0507886e+2, 2.754518e+2, -121535.33, -344472.94, 11802.863, -0.10926681, -0.027560432, -120912.195, 119657.03, 0.00000004701224, 10.001484, 9.998576 
8.0508894e+2, 2.8545022e+2, -262.5089, -292959.8, 59669.754, -0.059074648, -0.008642185, 11434.427, 154018.1, 0.000004093495, 10.001904, 9.998042 
8.0510116e+2, 2.9544738e+2, 124103.03, -187433.78, 24917.174, 0.15440239, -0.14226587, 126083.36, 170692.7, 0.000029631305, 10.002099, 9.997997 
8.0511016e+2, 3.0544436e+2, 158931.94, -244821.34, 50134.484, 0.03199838, -0.18986437, 165064.06, 165064.06, 0.00010221737, 10.002432, 9.997131 
8.0511934e+2, 3.1544456e+2, 260611.55, -50509.934, -26384.03, -0.05432386, 0.06924622, 262833.13, 262833.13, 0.00023173698, 10.002419, 9.998467 
8.149404e+2, 1.2544586e+2, -2083767.0, -1723366.4, -7655.2134, 0.14045916, 0.005962895, -1723203.8, -12576.566, 0.000000004999778, 9.996654, 10.001542 
8.149493e+2, 1.354465e+2, -1836474.8, -1611095.9, 88420.195, 0.10309783, -0.06923022, -1580547.6, 32071.455, 0.0, 9.997996, 10.00099 
8.1495744e+2, 1.4544721e+2, -1740774.0, -1637769.1, 52995.254, -0.012970705, -0.026816888, -1615373.0, -100759.59, 0.0, 9.998476, 9.99989 
8.149676e+2, 1.5544759e+2, -1637514.3, -1532092.6, 38344.906, 0.059161153, -0.01978352, -1519621.0, -103007.21, 0.0, 9.998496, 9.999936 
8.1497675e+2, 1.6544822e+2, -1479763.1, -1299031.1, 1697.1542, 0.07230048, 0.005903751, -1299015.3, 19592.055, 0.0, 9.998469, 10.000872 
8.1498545e+2, 1.7544872e+2, -1366313.1, -1196591.8, 48916.863, 0.057416566, -0.0641903, -1183502.5, 37095.746, 0.0, 9.99859, 10.00084 
8.149946e+2, 1.8544891e+2, -1314645.4, -1261472.6, 80341.664, 0.021302685, -0.058101017, -1203432.6, -80836.77, 0.0, 9.998867, 9.999591 
8.150039e+2, 1.9544847e+2, -1165010.3, -1143973.6, 74959.96, -0.05792343, -0.092863455, -1078797.6, -54194.727, 0.0, 9.999243, 9.999546 
8.1501335e+2, 2.054486e+2, -1031062.06, -1026839.94, 5629.611, -0.051946927, -0.028097212, -1022938.56, -96335.016, 0.0, 9.9994755, 9.999569 
8.150231e+2, 2.1544884e+2, -913621.2, -919896.75, 12181.683, 0.020493058, 0.0049916664, -904179.6, -75577.41, 0.0, 9.999612, 9.999558 
8.1503284e+2, 2.2544871e+2, -811700.9, -884960.5, 21024.941, 0.028950598, 0.0731563, -806095.75, -75490.45, 0.0, 9.999935, 9.99896 
8.1504226e+2, 2.354479e+2, -648201.3, -757087.7, 34655.906, -0.030728403, 0.061560277, -638106.94, -5491.079, 0.0, 10.000386, 9.998952 
8.1505215e+2, 2.454473e+2, -504012.4, -593479.75, 20763.756, -0.03545344, 0.092522316, -499428.38, 35192.582, 0.0, 10.0005, 9.999356 
8.1506246e+2, 2.5544658e+2, -447831.44, -526524.56, 59672.152, 0.008953642, 0.05156144, -415701.3, 20923.316, 0.0, 10.000247, 9.999271 
8.150722e+2, 2.6544535e+2, -356039.66, -514867.7, 44079.406, 0.013449748, 0.04895451, -344626.47, -5992.154, 0.0, 10.000595, 9.998502 
8.1508154e+2, 2.7544326e+2, -161423.08, -378835.1, 60130.63, -0.021859212, -0.040675145, -145900.7, 94752.516, 0.000000004527389, 10.0012865, 9.998431 
8.150917e+2, 2.8544155e+2, -46411.984, -370097.56, 51095.395, -0.010770376, -0.0022603292, -38537.87, 104132.28, 0.0000024308686, 10.001815, 9.997559 
8.151025e+2, 2.9544008e+2, 66952.62, -274575.3, 57477.24, 0.036883183, 0.04749958, 76366.24, 121053.21, 0.00002455122, 10.001963, 9.997466 
8.151123e+2, 3.0543748e+2, 207541.9, -133119.1, 39571.016, -0.032030437, 0.030398792, 212078.05, 212078.05, 0.00009685274, 10.002396, 9.99791 
8.151221e+2, 3.1543612e+2, 231522.3, -51532.773, 19971.104, -0.09266281, 0.062607944, 232924.42, 232924.42, 0.00023260372, 10.002186, 9.998569 
8.2493836e+2, 1.254369e+2, -2011158.9, -1687865.6, -45815.81, 0.26333612, -0.022025365, -1681498.1, 29215.586, 0.0000000017683296, 9.997133, 10.001556 
8.2494676e+2, 1.3543792e+2, -1868173.3, -1643641.9, -10768.423, 0.07973035, -0.04943097, -1643126.5, -30424.35, 0.0, 9.997833, 10.000855 
8.249558e+2, 1.4543839e+2, -1816846.9, -1652095.4, -2100.1582, 0.01171768, -0.036386594, -1652068.6, -137369.22, 0.0, 9.997867, 10.000082 
8.2496625e+2, 1.554388e+2, -1751640.9, -1568373.1, 19146.287, 0.12770833, -0.043162875, -1566394.3, -149694.75, 0.0, 9.997646, 10.000087 
8.249756e+2, 1.654397e+2, -1534257.9, -1335851.5, 40875.44, 0.13755421, 0.006459081, -1327760.4, -9069.603, 0.0, 9.998114, 10.000795 
8.249844e+2, 1.7544068e+2, -1309900.0, -1186527.4, -9957.7705, 0.08116665, -0.00743576, -1185728.8, 34949.125, 0.0, 9.999018, 10.000716 
8.2499355e+2, 1.854406e+2, -1273304.9, -1247803.5, 24304.326, 0.0278183, -0.021404708, -1233108.3, -110430.44, 0.0, 9.9991665, 9.999541 
8.250028e+2, 1.954392e+2, -1253639.5, -1195408.6, 19303.76, -0.046182472, -0.14519608, -1189590.6, -164898.48, 0.0, 9.998662, 9.999472 
8.250126e+2, 2.0543908e+2, -1154912.1, -1116172.4, 20171.377, -0.027526118, -0.08955702, -1107576.6, -180881.0, 0.0, 9.998761, 9.999289 
8.2502306e+2, 2.1543968e+2, -975228.75, -983015.2, -5298.1353, 0.0757327, 0.008937248, -972547.2, -143854.31, 0.0, 9.999334, 9.999259 
8.2503307e+2, 2.2543949e+2, -820284.25, -891053.6, 48390.477, 0.078194186, 0.0853434, -795721.3, -65024.156, 0.0, 9.99986, 9.998974 
8.250427e+2, 2.3543823e+2, -657243.5, -761034.75, 35076.7, -0.005462277, 0.031009383, -646501.06, -13789.733, 0.0, 10.000301, 9.998981 
8.250526e+2, 2.454379e+2, -505320.0, -563277.1, 21793.844, -0.019305836, 0.07395466, -498039.38, 36673.88, 0.0, 10.0003605, 9.999628 
8.250627e+2, 2.554381e+2, -442164.2, -490900.8, 6284.529, 0.026989244, 0.09245118, -441366.84, -4658.834, 0.0, 10.000157, 9.999553 
8.250732e+2, 2.654368e+2, -336322.1, -527326.44, 56528.48, 0.05152011, 0.080248475, -320846.2, 17871.723, 0.0, 10.000828, 9.9983015 
8.2508403e+2, 2.754338e+2, -43650.66, -340711.53, 28626.182, 0.06646668, -0.08044295, -40917.258, 199827.73, 0.0, 10.002183, 9.998254 
8.250942e+2, 2.8543207e+2, 21348.377, -350249.28, 21143.19, 0.04633796, -0.034147203, 22547.514, 165310.75, 0.000001518397, 10.002343, 9.997439 
8.251039e+2, 2.95431e+2, -11408.349, -322323.56, 18342.506, 0.011721769, 0.072296925, -10329.969, 34447.047, 0.000022026383, 10.001452, 9.997386 
8.251145e+2, 3.0542898e+2, 110435.96, -146700.8, 71858.28, 0.003399748, 0.104149655, 129154.516, 129154.516, 0.00009707927, 10.001597, 9.998191 
8.251252e+2, 3.154262e+2, 291084.7, 7837.5576, -42064.027, 0.004127539, -0.04700692, 297199.47, 297199.47, 0.00024343749, 10.002445, 9.998843 
8.349345e+2, 1.2542638e+2, -2032896.8, -1718437.6, -69595.07, 0.083215535, -0.068143964, -1703723.5, 7094.0684, 0.000000000051048894, 9.997082, 10.00137 
8.349442e+2, 1.3542818e+2, -1865475.5, -1640064.5, 28677.592, -0.0027963282, -0.007334758, -1636473.3, -23672.768, 0.0, 9.997852, 10.000865 
8.3495414e+2, 1.4542894e+2, -1745452.1, -1501083.3, -33440.688, 0.01538152, -0.01742243, -1496589.8, 18203.496, 0.0, 9.997851, 10.001125 
8.3496433e+2, 1.554302e+2, -1682707.3, -1421340.8, 29200.98, 0.1306722, -0.051841546, -1418118.1, -1337.141, 0.0, 9.997627, 10.0011015 
8.349738e+2, 1.654312e+2, -1609656.3, -1469495.6, 57209.22, 0.1143885, 0.0047535044, -1449109.6, -130337.445, 0.0, 9.998017, 9.9999275 
8.34983e+2, 1.7543185e+2, -1374152.5, -1305575.6, 40235.984, -0.00093357486, 0.046769608, -1286999.9, -66231.914, 0.0, 9.998965, 9.999921 
8.349924e+2, 1.8543196e+2, -1262345.8, -1204190.4, -12578.234, -0.035416923, 0.07485462, -1201586.5, -78819.38, 0.0, 9.999075, 9.999889 
8.3500206e+2, 1.9543116e+2, -1248391.6, -1147417.3, 18418.547, -0.015658807, -0.029983088, -1144162.5, -119388.83, 0.0, 9.99851, 9.999872 
8.3501196e+2, 2.0543072e+2, -1200788.0, -1169323.4, 24387.748, 0.0014659906, -0.011332658, -1156033.9, -229255.16, 0.0, 9.99857, 9.999021 
8.350221e+2, 2.1543022e+2, -1021239.94, -1031027.4, 33694.402, 0.011805688, 0.0030029116, -992085.75, -163299.89, 0.0, 9.999129, 9.999026 
8.3503246e+2, 2.2542946e+2, -841444.6, -888083.5, 47754.75, 0.0010835669, 0.026267426, -811619.8, -80824.95, 0.0, 9.999652, 9.999097 
8.3504295e+2, 2.354281e+2, -679542.25, -761989.06, 68874.01, -0.03997157, -0.0505649, -640497.4, -7688.503, 0.0, 10.000097, 9.999077 
8.3505315e+2, 2.454278e+2, -529827.6, -577248.7, -1517.0677, -0.0327857, -0.010402309, -529779.2, 5030.7886, 0.0, 10.0001955, 9.999614 
8.3506304e+2, 2.5542796e+2, -466444.56, -510440.22, 19808.537, 0.014536882, 0.009272702, -458840.3, -22036.008, 0.0, 10.000015, 9.99949 
8.35074e+2, 2.654266e+2, -371164.66, -574238.0, 92512.73, 0.023043694, 0.0090704225, -335339.4, 3475.6206, 0.0, 10.000715, 9.998035 
8.3508587e+2, 2.7542362e+2, -83886.0, -389709.13, 97059.62, -0.007460698, -0.13057294, -55682.914, 185160.45, 0.0, 10.002031, 9.9979925 
8.3509606e+2, 2.8542176e+2, 29599.605, -309821.0, -29050.375, -0.042281453, -0.09512422, 32068.021, 174930.19, 0.0000012583888, 10.002247, 9.997763 
8.351048e+2, 2.9542047e+2, -15904.734, -294080.6, 8497.122, -0.09063263, -0.041991625, -15645.425, 29231.838, 0.000022671806, 10.001293, 9.997661 
8.351162e+2, 3.0541912e+2, 94005.45, -164923.55, 97310.04, -0.019719023, 0.04742783, 126498.664, 126498.664, 0.0001036696, 10.001532, 9.998095 
8.3512765e+2, 3.154172e+2, 287157.75, 48748.46, 60351.81, -0.083519004, -0.003999444, 301564.8, 301564.8, 0.00026239955, 10.002248, 9.999217 
8.449318e+2, 1.2541643e+2, -1971324.3, -1673330.1, 25712.053, 0.11266856, -0.102779396, -1671127.9, 39786.934, 0.0, 9.997418, 10.001519 
8.44942e+2, 1.3541867e+2, -1973934.9, -1664616.1, 78301.21, 0.04449712, -0.028005071, -1645924.4, -33031.535, 0.0, 9.996982, 10.001119 
8.449525e+2, 1.4541955e+2, -1827239.6, -1547923.4, 42063.594, 0.101112574, -0.035779633, -1541726.3, -26842.084, 0.0, 9.997324, 10.001054 
8.4496254e+2, 1.5542081e+2, -1529998.9, -1361252.6, -22758.717, 0.14523202, -0.06074085, -1358237.0, 58634.875, 0.0, 9.998728, 10.000988 
8.449722e+2, 1.6542178e+2, -1490344.5, -1407508.1, 15595.342, 0.114856765, -0.0035945636, -1404669.4, -85805.23, 0.0, 9.998841, 9.999948 
8.4498155e+2, 1.754223e+2, -1553966.1, -1390298.4, 27804.146, 0.030518081, 0.026850756, -1385704.0, -164842.05, 0.0, 9.997746, 9.99992 
8.449913e+2, 1.8542261e+2, -1374898.6, -1240259.9, 49678.895, 0.003749944, 0.06498388, -1223913.9, -101054.586, 0.0, 9.998228, 10.000043 
8.4500146e+2, 1.9542225e+2, -1024669.4, -1030581.44, 30500.547, 0.011219456, -0.009563705, -996981.94, 27879.16, 0.0, 9.999998, 9.99996 
8.450118e+2, 2.0542191e+2, -877418.6, -1002880.44, 58248.063, 0.029597068, 0.0108525185, -854545.8, 72318.66, 0.0, 10.000752, 9.99911 
8.4502226e+2, 2.1542123e+2, -812111.0, -925652.06, 55513.914, 0.058348622, 0.002261891, -789479.44, 39393.04, 0.0, 10.000549, 9.999066 
8.4503275e+2, 2.2542042e+2, -737258.5, -836675.7, 107580.164, 0.04013579, 0.017868109, -668457.9, 62423.457, 0.0, 10.0003805, 9.999085 
8.4504324e+2, 2.354192e+2, -669898.44, -756799.94, 80228.76, -0.021518493, -0.043847736, -622109.8, 10783.185, 0.0, 10.000191, 9.999051 
8.4505385e+2, 2.4541837e+2, -489068.06, -637433.4, 25605.486, -0.0073314426, -0.017068869, -484773.28, 50126.805, 0.0, 10.000818, 9.998903 
8.4506464e+2, 2.5541744e+2, -213026.73, -459081.2, -39115.06, 0.077592485, -0.034974765, -206958.31, 229949.22, 0.0, 10.002077, 9.998842 
8.4507585e+2, 2.6541594e+2, -175122.86, -493517.53, 38837.254, 0.074225724, -0.015802829, -170454.02, 168467.27, 0.0, 10.002109, 9.997919 
8.4508747e+2, 2.7541354e+2, -223913.55, -471469.94, 20642.055, 0.0043898877, -0.07792658, -222204.16, 18739.826, 0.0000000050987805, 10.00111, 9.997885 
8.450978e+2, 2.854116e+2, -86274.68, -366601.44, -70800.11, -0.04151071, -0.05011289, -69408.03, 73555.59, 0.0000017149706, 10.001444, 9.997756 
8.45107e+2, 2.954095e+2, 213013.05, -172358.6, -96001.88, -0.0627515, -0.08116404, 235604.23, 280589.3, 0.0000255943, 10.002827, 9.997745 
8.451188e+2, 3.0540794e+2, 284343.47, -94781.19, 4017.9749, 0.039738547, -0.01572127, 284386.03, 284386.03, 0.000114914044, 10.002916, 9.997919 
8.451305e+2, 3.154064e+2, 190941.56, 22058.143, -68947.49, 0.030234018, -0.0067978567, 215514.34, 215514.34, 0.00028702893, 10.001462, 9.999423 
8.549294e+2, 1.2540697e+2, -1955433.1, -1625953.3, -25343.248, 0.04884689, -0.15700285, -1624015.3, 86990.875, 0.0, 9.997373, 10.001861 
8.549394e+2, 1.3540962e+2, -1941563.1, -1578812.3, 74563.08, 0.054269742, -0.10455178, -1564083.9, 48893.54, 0.0, 9.996931, 10.001715 
8.549503e+2, 1.4541046e+2, -1915843.3, -1731216.9, 74909.375, 0.10344531, -0.08175649, -1704647.3, -189677.13, 0.0, 9.997307, 9.999817 
8.5496044e+2, 1.5541078e+2, -1607299.4, -1523513.0, 48339.016, 0.021466354, -0.07432482, -1501439.8, -84468.79, 0.0, 9.998734, 9.999874 
8.549702e+2, 1.6541149e+2, -1444415.9, -1302603.9, -45490.41, -0.002703042, -0.027579017, -1289266.0, 29699.78, 0.0, 9.998796, 10.00069 
8.5497963e+2, 1.7541204e+2, -1507419.4, -1281673.0, 6315.609, 0.02716254, -0.07434474, -1281496.4, -60536.543, 0.0, 9.997697, 10.000687 
8.5498977e+2, 1.8541256e+2, -1394609.8, -1260363.6, 100295.52, -0.012224634, -0.04889154, -1206802.4, -83847.99, 0.0, 9.998124, 9.999963 
8.5500056e+2, 1.9541268e+2, -1039869.3, -1042020.06, 109975.23, -0.12045897, -0.06779599, -930964.25, 93988.45, 0.0, 9.999903, 9.999929 
8.550117e+2, 2.0541285e+2, -880242.25, -970081.2, 32416.824, -0.079929784, -0.008162237, -869766.7, 57184.195, 0.0, 10.000584, 9.999422 
8.5502326e+2, 2.1541268e+2, -820584.8, -890107.6, 64962.535, 0.075929105, -0.0027556033, -781667.94, 47285.27, 0.0, 10.000323, 9.999418 
8.5503364e+2, 2.2541228e+2, -782632.1, -882241.1, 83146.21, 0.061303154, 0.04986605, -735515.1, -4558.182, 0.0, 10.000164, 9.998881 
8.5504293e+2, 2.3541142e+2, -713765.6, -806238.5, 94015.23, -0.09922215, 0.042149447, -655232.44, -22267.89, 0.0, 10.000004, 9.998806 
8.5505414e+2, 2.4540961e+2, -615505.06, -854640.2, 56447.418, -0.08564604, 0.05519236, -602850.4, -67866.625, 0.0, 10.00063, 9.997501 
8.55067e+2, 2.5540647e+2, -337363.1, -669429.44, 22152.365, 0.07637135, -0.043816246, -335891.8, 101125.89, 0.0, 10.001871, 9.997498 
8.5507834e+2, 2.654046e+2, -192241.8, -494618.34, -15834.609, 0.087676786, 0.0012489767, -191414.84, 147622.66, 0.0, 10.001958, 9.997989 
8.5508835e+2, 2.7540353e+2, -239736.44, -474814.34, 9072.355, -0.04506491, 0.0632543, -239386.83, 1661.151, 0.0000001292932, 10.000986, 9.997924 
8.55099e+2, 2.8540158e+2, -114033.195, -407724.66, -30427.672, -0.10130006, 0.10064183, -110913.89, 32153.176, 0.0000031613251, 10.0013685, 9.99751 
8.5511e+2, 2.9539812e+2, 178066.86, -222459.98, -24835.527, -0.09858308, -0.042480703, 179600.97, 224701.36, 0.000030116835, 10.002715, 9.99746 
8.551219e+2, 3.0539522e+2, 252594.63, -121838.61, -59000.938, 0.022895506, -0.08564042, 261671.6, 261671.6, 0.00012742863, 10.002784, 9.997785 
8.5513306e+2, 3.1539375e+2, 140602.06, -35432.516, -38173.438, 0.057655565, -0.04935002, 148523.58, 148523.58, 0.00031382052, 10.001284, 9.99911 
8.649277e+2, 1.2539813e+2, -2030731.0, -1704764.9, 5683.5527, 0.18629433, -0.102192596, -1704665.8, 6428.425, 0.00000000000000000000885557, 9.99703, 10.001488 
8.649371e+2, 1.3540035e+2, -1739047.9, -1522289.5, -34985.21, 0.077609666, -0.06177111, -1516782.8, 96288.23, 0.0, 9.998461, 10.001383 
8.649481e+2, 1.4540099e+2, -1731322.3, -1617789.8, 27464.941, 0.11088333, -0.056484204, -1611494.6, -96429.63, 0.0, 9.998467, 10.000032 
8.649584e+2, 1.554011e+2, -1761958.1, -1588019.6, 66340.4, 0.014123033, -0.08770789, -1565605.5, -148539.94, 0.0, 9.997608, 9.9999895 
8.6496854e+2, 1.6540164e+2, -1571188.8, -1373252.4, 19937.887, 0.008075029, -0.05563542, -1371264.0, -52203.105, 0.0, 9.997963, 10.000605 
8.6497855e+2, 1.7540224e+2, -1268615.9, -1183343.9, -28737.316, 0.08246682, -0.09013044, -1174563.4, 46491.836, 0.0, 9.99939, 10.00055 
8.649893e+2, 1.8540262e+2, -1151037.6, -1157281.0, 83178.23, 0.047954187, -0.062157046, -1070922.5, 52128.508, 0.0, 9.999885, 9.999809 
8.650004e+2, 1.9540258e+2, -1100880.6, -1090067.8, 53015.996, -0.09224451, -0.07887489, -1042183.25, -17132.318, 0.0, 9.999585, 9.999744 
8.65012e+2, 2.0540266e+2, -1009224.7, -1033035.6, -35428.844, -0.06438647, -0.0199628, -983754.44, -56704.387, 0.0, 9.999705, 9.999409 
8.6502355e+2, 2.1540242e+2, -859917.44, -918478.0, -66039.96, 0.09432561, -0.017990924, -816957.75, 12094.984, 0.0, 10.000083, 9.999344 
8.6503416e+2, 2.254018e+2, -717759.44, -856655.4, -14958.611, 0.086809665, 0.02138501, -716166.7, 14891.408, 0.0, 10.000654, 9.998815 
8.650439e+2, 2.3540065e+2, -514755.4, -717782.94, -31708.828, -0.060221598, -0.00880255, -509918.38, 123149.69, 0.0, 10.001416, 9.998726 
8.6505544e+2, 2.4539883e+2, -494972.22, -811329.1, 21727.957, -0.054086104, 0.014833412, -493486.88, 41600.684, 0.0, 10.0015335, 9.997356 
8.6506844e+2, 2.5539604e+2, -454218.72, -742506.7, 45043.37, 0.08128088, -0.0351021, -447344.84, -10225.352, 0.0, 10.001148, 9.997344 
8.6508e+2, 2.6539427e+2, -269265.84, -524657.0, 69227.27, 0.09248082, 0.02416484, -251707.94, 87431.34, 0.0000000005766255, 10.001411, 9.998037 
8.6509037e+2, 2.75393e+2, -51101.082, -379239.5, 50292.45, 0.0014973626, 0.06475824, -43565.992, 197586.03, 0.000000514823, 10.002272, 9.997954 
8.6510134e+2, 2.8539103e+2, 48664.543, -340660.06, 71874.47, -0.053681314, 0.106279045, 61509.715, 204680.95, 0.0000054394536, 10.002545, 9.997413 
8.651127e+2, 2.9538792e+2, 105813.1, -264195.56, 52059.402, -0.059616316, 0.0097412085, 112998.22, 158199.06, 0.000035908153, 10.002264, 9.997395 
8.651247e+2, 3.053846e+2, 240601.7, -185510.45, 31172.77, 0.036841277, -0.044159826, 242870.11, 242870.11, 0.00014009468, 10.002928, 9.997282 
8.651368e+2, 3.1538296e+2, 472800.4, 65058.816, -17271.508, 0.18807663, 0.019924799, 473530.7, 473530.7, 0.00033844914, 10.003854, 9.998546 
8.749259e+2, 1.2539028e+2, -2116338.5, -1877179.0, 25855.922, 0.21708643, 0.100268625, -1874415.6, -163239.84, 0.0000000055054987, 9.997007, 10.000312 
8.7493485e+2, 1.3539097e+2, -1815050.4, -1667646.5, 28851.691, -0.029822549, 0.094087325, -1662200.5, -49027.555, 0.0, 9.9984255, 10.00039 
8.7494564e+2, 1.4539126e+2, -1632406.6, -1409982.4, -27544.104, -0.0367679, 0.040233776, -1406622.3, 108545.65, 0.0, 9.998449, 10.001471 
8.7495595e+2, 1.5539186e+2, -1667874.8, -1381943.0, 53684.313, -0.033159927, -0.09233014, -1372195.9, 44958.563, 0.0, 9.997572, 10.001414 
8.7496674e+2, 1.6539253e+2, -1643335.1, -1514510.0, 55753.723, -0.007934233, -0.069384, -1493731.9, -174585.2, 0.0, 9.997913, 9.999665 
8.7497807e+2, 1.7539313e+2, -1338451.1, -1320904.1, 38261.633, 0.055436496, -0.0073824944, -1290423.0, -69277.64, 0.0, 9.999352, 9.999624 
8.7498945e+2, 1.8539308e+2, -1185945.0, -1209155.1, 55864.508, 0.04414926, 0.039446443, -1140492.9, -17346.037, 0.0, 9.999798, 9.999495 
8.7500083e+2, 1.9539198e+2, -1140766.3, -1138222.6, 61722.707, -0.04564597, -0.054414824, -1077758.6, -52602.953, 0.0, 9.999442, 9.999479 
8.750119e+2, 2.0539135e+2, -1063969.1, -1106655.9, -36567.266, -0.06415121, -0.03605433, -1042972.2, -115810.49, 0.0, 9.999525, 9.998993 
8.750227e+2, 2.1539076e+2, -916352.94, -990446.94, -36625.164, -0.029221375, -0.025567468, -901305.0, -72136.51, 0.0, 9.999884, 9.998947 
8.75034e+2, 2.2538938e+2, -750437.6, -876619.75, -3851.7036, -0.018354235, -0.042604893, -750320.1, -19138.773, 0.0, 10.000443, 9.998781 
8.750458e+2, 2.3538694e+2, -548237.1, -731845.8, 13886.042, -0.040906154, -0.19688438, -547192.9, 86010.06, 0.0, 10.001175, 9.998747 
8.7505734e+2, 2.4538602e+2, -442820.2, -666369.6, -9480.44, -0.049125288, -0.1412328, -442418.84, 92792.945, 0.0, 10.001364, 9.998437 
8.750685e+2, 2.5538608e+2, -404769.88, -602795.6, 51186.836, -0.05617009, -0.01004595, -392321.34, 44891.414, 0.0, 10.000987, 9.99838 
8.7508035e+2, 2.6538485e+2, -284418.1, -542927.06, 84915.64, -0.047309674, 0.058032617, -259020.11, 80206.31, 0.0000000691861, 10.001341, 9.997951 
8.7509286e+2, 2.75382e+2, -77905.91, -399793.5, 100027.79, -0.021396786, -0.058864262, -49354.414, 191901.39, 0.000001269736, 10.002114, 9.9978895 
8.7510437e+2, 2.8538015e+2, 40226.387, -337357.56, 44742.23, -0.038055114, -0.004571553, 45455.742, 188730.2, 0.000008255043, 10.002449, 9.997487 
8.75115e+2, 2.9537868e+2, 97506.06, -263731.03, 66954.29, -0.104034334, 0.057180386, 109516.53, 154805.34, 0.000042714033, 10.002179, 9.997444 
8.75127e+2, 3.0537596e+2, 171239.53, -309506.22, 58564.86, -0.05357451, 0.09939956, 178271.11, 178271.11, 0.00015288098, 10.002845, 9.996467 
8.7514067e+2, 3.1537208e+2, 379523.13, -106835.91, 68724.64, 0.10651588, 0.023573263, 389047.7, 389047.7, 0.00035815634, 10.003744, 9.997425 
8.849229e+2, 1.2537947e+2, -2083476.3, -1864291.9, 12814.259, 0.2229888, 0.122408226, -1863545.3, -152261.61, 0.00000006865043, 9.997252, 10.000288 
8.8493323e+2, 1.3538015e+2, -1997153.8, -1768238.1, 15142.605, 0.035157453, 0.12885772, -1767240.8, -153958.83, 0.0, 9.9972315, 10.000281 
8.8494444e+2, 1.4538051e+2, -1759889.3, -1467548.9, -40846.945, 0.059186235, 0.088794075, -1461948.9, 53327.813, 0.0, 9.997593, 10.001472 
8.8495475e+2, 1.5538104e+2, -1499234.6, -1302314.3, -112629.29, 0.04154302, -0.04876316, -1251175.8, 166088.31, 0.0, 9.998758, 10.001373 
8.849657e+2, 1.653816e+2, -1448996.8, -1446119.4, -75933.484, 0.03558327, -0.023800034, -1371610.9, -52353.36, 0.0, 9.999363, 9.999433 
8.849772e+2, 1.753821e+2, -1341690.0, -1347202.8, -76676.875, 0.043653145, 0.053377513, -1267719.9, -46462.934, 0.0, 9.999442, 9.999402 
8.849892e+2, 1.8538201e+2, -1213874.8, -1201716.1, -15736.072, 0.0614806, 0.097712845, -1190925.9, -67667.49, 0.0, 9.99951, 9.999684 
8.850014e+2, 1.953809e+2, -1110583.6, -1105920.4, -7758.647, 0.07243682, -0.01620725, -1100150.6, -74883.89, 0.0, 9.999566, 9.999643 
8.8501257e+2, 2.0538002e+2, -998540.9, -1062051.9, -12094.406, 0.040133823, -0.03329841, -996315.7, -69042.19, 0.0, 9.999919, 9.999111 
8.850228e+2, 2.1537913e+2, -814133.6, -929506.9, -1322.1433, -0.025068646, -0.06419577, -814118.5, 15163.203, 0.0, 10.000537, 9.999056 
8.850344e+2, 2.2537784e+2, -684704.2, -839724.1, 82409.46, -0.039086826, -0.079366654, -649081.0, 82212.516, 0.0, 10.000865, 9.998824 
8.85047e+2, 2.3537584e+2, -579111.3, -745313.4, 65824.5, -0.016698662, -0.19638911, -556199.9, 77112.234, 0.0, 10.000943, 9.998764 
8.850589e+2, 2.4537513e+2, -402314.8, -618511.7, 46654.383, -0.021263616, -0.13375624, -392676.66, 142642.08, 0.0, 10.001523, 9.998682 
8.850702e+2, 2.5537512e+2, -147045.69, -454064.84, 8533.036, -0.058483534, -0.04040163, -146808.7, 290510.34, 0.00000000006372724, 10.00263, 9.99861 
8.850821e+2, 2.653739e+2, -151997.77, -492189.06, 20395.34, -0.043293376, 0.024493968, -150779.38, 188553.08, 0.00000025387644, 10.002314, 9.997827 
8.8509464e+2, 2.7537122e+2, -266938.63, -501438.6, -4944.1934, 0.027395798, -0.059639856, -266834.4, -25473.268, 0.0000021793016, 10.000862, 9.997792 
8.8510674e+2, 2.8536937e+2, -152285.97, -404362.56, 20812.59, 0.036854498, -0.015091207, -150579.16, -7199.1343, 0.000011106664, 10.001034, 9.997687 
8.851183e+2, 2.9536772e+2, 181482.83, -203079.95, 12840.062, -0.0048904954, 0.013070423, 181911.06, 227305.83, 0.000049522223, 10.002678, 9.997611 
8.8513047e+2, 3.0536523e+2, 272473.0, -295093.3, 60344.125, -0.021472063, 0.08461989, 278817.9, 278817.9, 0.00016467013, 10.003679, 9.996173 
8.851445e+2, 3.153614e+2, 349363.78, -146087.64, 38399.27, 0.13117883, 0.05277891, 352322.22, 352322.22, 0.00037312726, 10.003641, 9.997216 
8.9491755e+2, 1.2536556e+2, -2018659.9, -1709515.9, -29377.316, -0.11374825, -0.0425719, -1706749.0, 4670.5586, 0.00000033567557, 9.997189, 10.001367 
8.949317e+2, 1.3536823e+2, -1937274.1, -1638112.3, 23572.857, 0.12437809, 0.06676324, -1636266.1, -22871.064, 0.00000000007521531, 9.997216, 10.001175 
8.9494413e+2, 1.4536916e+2, -1873881.0, -1694912.6, -18899.484, 0.22260393, 0.118021995, -1692938.6, -177550.88, 0.0, 9.997556, 9.99993 
8.949544e+2, 1.5536885e+2, -1609505.0, -1523115.8, -49552.535, 0.09123744, 0.054426733, -1500574.4, -83181.53, 0.0, 9.998727, 9.999873 
8.9496493e+2, 1.6536893e+2, -1427705.5, -1390245.8, -92737.92, -0.01727755, 0.08529323, -1314365.3, 5027.428, 0.0, 9.999315, 9.999835 
8.949757e+2, 1.7536911e+2, -1323471.6, -1287041.4, -56123.418, -0.08858921, 0.08642002, -1246251.3, -24860.936, 0.0, 9.999354, 9.999852 
8.9498806e+2, 1.8536945e+2, -1183731.9, -1115084.9, -31315.422, -0.038135566, 0.114640065, -1102946.0, 20439.324, 0.0, 9.999396, 10.000338 
8.9500165e+2, 1.9536948e+2, -1090421.0, -1022173.9, 9542.788, 0.1083677, 0.05172349, -1020864.6, 4517.4336, 0.0, 9.999389, 10.0003 
8.9501345e+2, 2.0536894e+2, -976014.56, -976168.6, -6045.1035, 0.102363184, 0.0011261712, -970046.0, -42662.55, 0.0, 9.999745, 9.999787 
8.950235e+2, 2.1536757e+2, -799660.1, -845148.56, 40791.58, -0.038948696, -0.14677879, -775700.5, 53691.703, 0.0, 10.00031, 9.999741 
8.9503485e+2, 2.2536725e+2, -713764.7, -853955.1, 69569.625, -0.108460456, -0.09783334, -685101.25, 46293.09, 0.0, 10.000654, 9.998836 
8.9504707e+2, 2.3536749e+2, -608010.9, -755167.0, 85798.35, -0.133082, 0.0059839506, -568562.0, 64832.316, 0.0, 10.000726, 9.998803 
8.950598e+2, 2.4536625e+2, -465642.72, -710781.5, 69409.89, -0.11394876, 0.040056437, -447354.06, 88053.34, 0.0, 10.001351, 9.998136 
8.9507306e+2, 2.5536323e+2, -219520.42, -550080.44, 63831.383, -0.0677484, -0.10920228, -207622.75, 229813.58, 0.0000000002378373, 10.002398, 9.998067 
8.950849e+2, 2.653616e+2, -179892.1, -521179.6, -49846.62, -0.03075689, -0.053746216, -172760.78, 166693.58, 0.00000030747992, 10.002189, 9.997687 
8.950956e+2, 2.7536067e+2, -298328.56, -537497.25, -32524.84, -0.0037739142, 0.059138495, -293984.38, -52517.156, 0.0000026197797, 10.000743, 9.9976015 
8.95108e+2, 2.853585e+2, -139174.52, -373880.78, 65553.305, 0.019025767, 0.067297176, -122106.69, 21381.977, 0.000013171274, 10.001005, 9.997916 
8.951219e+2, 2.953549e+2, 182431.55, -173792.22, 91942.58, 0.041449964, -0.1286045, 204762.38, 250282.11, 0.000055655084, 10.002546, 9.99788 
8.951345e+2, 3.0535245e+2, 262109.2, -267844.1, 46737.07, -0.014674815, -0.0810443, 266199.4, 266199.4, 0.00017580122, 10.003499, 9.996435 
8.95147e+2, 3.153495e+2, 361298.4, -48409.543, 62605.387, -0.04769421, -0.05235381, 370651.3, 370651.3, 0.00038747952, 10.003366, 9.997999 
9.04915e+2, 1.253531e+2, -1942342.4, -1649515.0, 39308.887, -0.090438314, -0.07591129, -1644330.0, 67211.414, 0.0000010657902, 9.9975605, 10.001615 
9.049295e+2, 1.3535559e+2, -1775900.0, -1548173.9, -32239.123, 0.14662354, -0.0009977575, -1543697.8, 69819.35, 0.000000007369457, 9.998253, 10.001292 
9.0494263e+2, 1.4535686e+2, -1708133.0, -1667561.4, 7342.3535, 0.26478666, 0.09878706, -1666273.5, -150765.3, 0.0, 9.998881, 9.999491 
9.0495414e+2, 1.5535702e+2, -1502314.1, -1518578.9, 20415.59, 0.15606375, 0.12459548, -1488470.9, -70958.016, 0.0, 9.999632, 9.999482 
9.04965e+2, 1.653571e+2, -1328138.1, -1289270.3, 20403.744, 0.048914824, 0.14854904, -1280526.4, 38986.496, 0.0, 9.999769, 10.00032 
9.049755e+2, 1.7535666e+2, -1284643.3, -1216072.5, 21300.041, -0.03971304, 0.039671525, -1209994.8, 11518.021, 0.0, 9.999392, 10.000324 
9.049877e+2, 1.8535696e+2, -1176501.3, -1120017.9, 67844.38, -0.0070568137, 0.04586657, -1074771.8, 48735.18, 0.0, 9.999469, 10.000273 
9.050013e+2, 1.9535755e+2, -1009165.1, -996681.6, 24110.104, 0.11468491, 0.04523408, -978018.44, 47481.39, 0.0, 9.999968, 10.000213 
9.050135e+2, 2.0535745e+2, -886370.44, -909575.0, 35.04785, 0.12027096, 0.033316955, -886370.4, 41127.12, 0.0, 10.000272, 9.999978 
9.0502435e+2, 2.1535634e+2, -767381.94, -812695.06, -32450.145, 0.020589914, -0.10584976, -750461.56, 79042.01, 0.0, 10.000456, 9.99989 
9.0503615e+2, 2.2535609e+2, -727261.2, -878010.9, -3069.3953, -0.034346692, -0.04891843, -727198.7, 4306.8027, 0.0, 10.00066, 9.998664 
9.0504855e+2, 2.3535624e+2, -584232.5, -764993.56, -34787.027, -0.06179771, 0.069387235, -577769.0, 55738.008, 0.0, 10.000991, 9.99861 
9.050615e+2, 2.4535476e+2, -512996.53, -726227.9, 5440.5757, -0.058609825, 0.087079346, -512857.8, 22664.75, 0.0, 10.001001, 9.998191 
9.050749e+2, 2.5535148e+2, -454840.56, -655536.9, 7530.347, -0.029960308, -0.09418324, -454558.4, -17004.805, 0.0, 10.000756, 9.998125 
9.0508705e+2, 2.653498e+2, -283271.06, -574123.7, -56865.605, 0.009400087, -0.042414326, -272548.38, 67023.11, 0.0000002007212, 10.001513, 9.997645 
9.0509814e+2, 2.7534905e+2, 52778.46, -368149.75, -67205.45, 0.06551796, 0.08662742, 63248.086, 304830.47, 0.0000025589381, 10.003173, 9.997586 
9.051107e+2, 2.8534675e+2, 183603.03, -247710.7, 62731.832, 0.08219147, 0.10043207, 192541.73, 336146.97, 0.000014749117, 10.00334, 9.997673 
9.051245e+2, 2.9534298e+2, 108247.0, -226425.27, 16679.627, 0.08065739, -0.08443747, 109076.234, 154715.67, 0.00006245814, 10.002123, 9.997724 
9.0513766e+2, 3.0534056e+2, 119365.19, -267799.2, 19829.79, 0.032800425, -0.061123423, 120378.18, 120378.18, 0.00018874744, 10.002205, 9.997075 
9.0515065e+2, 3.153384e+2, 361252.03, 31426.213, -20379.56, 0.01669234, -0.008809734, 362506.5, 362506.5, 0.0004049675, 10.002974, 9.998774 
9.1491395e+2, 1.2534249e+2, -1984314.3, -1726106.9, 11893.752, -0.023957452, 0.050084606, -1725560.1, -13914.548, 0.000002613721, 9.997546, 10.001084 
9.149261e+2, 1.3534218e+2, -1821957.4, -1637952.9, 6573.386, -0.05529967, -0.08944377, -1637718.4, -24069.75, 0.00000007607973, 9.998238, 10.000679 
9.149394e+2, 1.453433e+2, -1665270.0, -1564965.1, 12944.1, 0.0047366894, -0.009344511, -1563321.6, -47680.883, 0.0, 9.998826, 10.000218 
9.1495335e+2, 1.5534574e+2, -1453916.8, -1411222.6, 64923.453, 0.07556545, 0.16778801, -1364226.8, 53395.902, 0.0, 9.999608, 10.000226 
9.149654e+2, 1.6534637e+2, -1295148.8, -1216635.3, -14051.168, 0.0772593, 0.18459725, -1214196.4, 105419.1, 0.0, 9.999747, 10.00083 
9.14976e+2, 1.75345e+2, -1259212.9, -1153341.8, 25576.361, 0.037853632, -0.06744137, -1147486.9, 74134.83, 0.0, 9.999346, 10.000777 
9.1498756e+2, 1.8534477e+2, -1244095.5, -1238539.5, 70726.75, -0.00063473417, -0.09787298, -1170536.3, -46914.77, 0.0, 9.999373, 9.999507 
9.1499996e+2, 1.9534521e+2, -1088575.3, -1120954.6, 61139.375, -0.050136875, -0.03481283, -1041518.4, -15899.649, 0.0, 9.999798, 9.999441 
9.150124e+2, 2.0534568e+2, -942578.1, -982797.44, -8752.831, -0.04853885, 0.068372466, -940755.9, -13141.367, 0.0, 10.000085, 9.999563 
9.1502494e+2, 2.1534573e+2, -830702.4, -889754.7, -10458.533, 0.005046541, 0.08330808, -828904.8, 708.4777, 0.0, 10.000229, 9.999466 
9.1503775e+2, 2.2534457e+2, -778902.8, -949194.5, -9158.495, 0.035267174, 0.09200866, -778411.7, -46786.953, 0.0, 10.000488, 9.998265 
9.1505086e+2, 2.3534214e+2, -639947.7, -833490.06, -3770.089, 0.045346867, -0.008382501, -639874.3, -6224.7383, 0.0, 10.000785, 9.998239 
9.150634e+2, 2.4534084e+2, -494098.72, -648987.1, -19432.816, -0.0017727544, 0.012650327, -491697.8, 43964.574, 0.0, 10.000831, 9.998805 
9.1507524e+2, 2.5534e+2, -437773.4, -584614.5, 18625.268, -0.09962851, 0.014270662, -435447.8, 2221.6948, 0.0, 10.000595, 9.998694 
9.1508806e+2, 2.653386e+2, -294844.2, -570082.6, -11132.02, -0.06814167, 0.062221963, -294394.7, 45288.53, 0.00000011562638, 10.001397, 9.997726 
9.1510177e+2, 2.753363e+2, 34767.1, -367668.5, 11710.8545, 0.0780161, 0.029053822, 35107.598, 276813.97, 0.0000025826089, 10.003011, 9.997668 
9.1511434e+2, 2.853342e+2, 119865.1, -349706.5, -652.3974, 0.07897587, 0.092955425, 119866.01, 263594.88, 0.000017159802, 10.003218, 9.997026 
9.151257e+2, 2.953321e+2, 44188.918, -333882.56, -2309.9004, -0.053774647, 0.13568753, 44203.03, 89956.03, 0.00007135739, 10.002016, 9.997036 
9.1513944e+2, 3.0532947e+2, 167151.3, -142965.92, 40570.996, -0.03543217, 0.13242963, 172371.13, 172371.13, 0.00020564985, 10.002105, 9.99797 
9.151542e+2, 3.1532794e+2, 398799.34, 172618.58, 58455.13, 0.0045958334, 0.14436659, 413013.47, 413013.47, 0.00042848263, 10.002729, 9.999842 
9.249131e+2, 1.2533063e+2, -1927020.0, -1707966.3, 5682.868, 0.12942852, 0.11736861, -1707819.0, 3945.742, 0.0000053718704, 9.997966, 10.001021 
9.249239e+2, 1.353301e+2, -1926031.9, -1690621.1, -11412.45, -0.048851717, -0.040639173, -1690069.1, -76299.766, 0.00000033393198, 9.997524, 10.000684 
9.249371e+2, 1.45331e+2, -1813481.8, -1563187.6, 82103.11, -0.028452303, -0.014525316, -1538659.4, -22897.865, 0.0, 9.99751, 10.000862 
9.2495227e+2, 1.553336e+2, -1607028.0, -1419101.1, 83351.195, 0.085653834, 0.11659141, -1387459.9, 30278.783, 0.0, 9.998287, 10.000802 
9.2496514e+2, 1.6533457e+2, -1430090.0, -1318081.4, -19557.656, 0.12638381, 0.15552072, -1314764.6, 4963.889, 0.0, 9.998972, 10.000503 
9.24976e+2, 1.753338e+2, -1246458.3, -1185732.1, -80796.18, 0.10405825, -0.0019868743, -1129782.3, 91950.555, 0.0, 9.999594, 10.000439 
9.249878e+2, 1.8533346e+2, -1139043.6, -1178960.0, 10090.963, 0.06345604, -0.028100071, -1136637.6, -12903.484, 0.0, 10.00007, 9.999576 
9.250004e+2, 1.9533311e+2, -1002727.2, -1070144.6, 24558.426, 0.0013873423, -0.053450532, -994729.8, 31006.922, 0.0, 10.000359, 9.999512 
9.25013e+2, 2.0533319e+2, -882302.7, -1019011.56, 12521.193, -0.019523827, 0.03722183, -881165.3, 46571.547, 0.0, 10.000778, 9.99899 
9.2502564e+2, 2.1533328e+2, -699111.3, -885729.1, -28007.0, 0.0018371576, 0.117629565, -694998.75, 134739.77, 0.0, 10.001384, 9.998943 
9.250389e+2, 2.2533196e+2, -601670.3, -850579.06, 13094.975, 0.051555566, 0.12609318, -600983.25, 130768.85, 0.0, 10.001644, 9.998382 
9.2505276e+2, 2.353291e+2, -517096.94, -766573.4, 16939.979, 0.12258632, -0.027822066, -515951.94, 117827.055, 0.0, 10.001577, 9.998321 
9.250653e+2, 2.4532785e+2, -409763.28, -615024.5, 15918.535, 0.090500765, -0.0013120477, -408536.1, 127254.62, 0.0, 10.001441, 9.998753 
9.250768e+2, 2.5532758e+2, -332523.9, -535273.5, -30670.574, -0.0337577, 0.06393296, -327985.84, 109807.14, 0.0, 10.001335, 9.998679 
9.2508984e+2, 2.653261e+2, -259411.94, -525156.0, 2517.3938, -0.026265774, 0.092039146, -259388.1, 80418.01, 0.00000007319143, 10.001485, 9.998006 
9.2510444e+2, 2.7532312e+2, -118385.06, -412594.38, 7071.934, 0.11551188, -0.039938897, -118215.17, 123617.77, 0.0000027897247, 10.001803, 9.997951 
9.2511725e+2, 2.8532103e+2, -30344.215, -453223.47, 10840.307, 0.1054461, 0.023328256, -30066.512, 113789.0, 0.000020180585, 10.00232, 9.996742 
9.2512834e+2, 2.9531944e+2, 175804.22, -303570.97, -5670.529, -0.029905817, 0.15123083, 175871.28, 221748.03, 0.00008285034, 10.00305, 9.996744 
9.251424e+2, 3.0531645e+2, 320472.66, -60599.824, 63966.086, 0.010822319, 0.114221975, 330923.28, 330923.28, 0.0002292469, 10.003078, 9.998076 
9.251571e+2, 3.1531465e+2, 295730.2, 99397.89, -26813.436, 0.066179015, 0.0897367, 299326.28, 299326.28, 0.0004645645, 10.002079, 9.999662 
9.3491113e+2, 1.2531723e+2, -1900822.8, -1623430.5, -61554.35, 0.060056977, 0.097641155, -1610385.0, 101516.28, 0.000009857008, 9.99787, 10.001635 
9.349223e+2, 1.3531958e+2, -1873409.3, -1580779.0, -14609.822, 0.0075478493, 0.15042152, -1580051.4, 33825.28, 0.0000009955157, 9.997545, 10.001416 
9.349354e+2, 1.453202e+2, -1783929.6, -1505491.4, 91246.555, 0.00024296348, 0.09523865, -1478253.6, 37614.31, 0.00000000002439963, 9.997523, 10.001255 
9.349505e+2, 1.5532058e+2, -1586601.8, -1364113.3, 130240.17, 0.040380426, -0.035732493, -1304074.8, 113785.836, 0.0, 9.998235, 10.0012045 
9.3496376e+2, 1.6532165e+2, -1519628.5, -1489564.3, -17321.314, 0.04989249, 0.05068302, -1481661.9, -161809.45, 0.0, 9.998903, 9.999363 
9.349751e+2, 1.7532311e+2, -1326374.4, -1346309.8, -40207.13, 0.018449176, 0.23077027, -1294917.8, -73072.195, 0.0, 9.999564, 9.999355 
9.3498796e+2, 1.8532313e+2, -1095425.8, -1067391.6, 6846.092, 0.03932926, 0.25143638, -1065809.1, 58035.184, 0.0, 9.999982, 10.000387 
9.350022e+2, 1.9532132e+2, -970489.6, -970836.94, 51798.984, 0.11238597, 0.0003594316, -918864.0, 106989.125, 0.0, 10.000221, 10.000263 
9.3501484e+2, 2.0532009e+2, -947913.1, -1120078.0, 17902.707, 0.056405682, -0.045088056, -946071.25, -18207.46, 0.0, 10.00062, 9.998373 
9.35026e+2, 2.1531908e+2, -770541.9, -990562.25, 12391.732, -0.122524805, -0.011309368, -769846.1, 60032.56, 0.0, 10.001185, 9.998324 
9.3503904e+2, 2.2531822e+2, -596029.6, -788155.2, -4898.014, -0.12179018, 0.047568183, -595904.8, 135982.89, 0.0, 10.001424, 9.998918 
9.3505365e+2, 2.3531711e+2, -512967.28, -708322.56, 30497.84, 0.033151805, 0.010933231, -508316.8, 125578.555, 0.0, 10.001361, 9.998828 
9.350668e+2, 2.4531583e+2, -486153.97, -733029.5, -5763.683, 0.07241442, 0.049626928, -486019.47, 49887.375, 0.0, 10.001267, 9.998027 
9.350789e+2, 2.553141e+2, -406756.94, -651937.25, -14834.981, 0.014393372, 0.0423939, -405862.6, 32062.43, 0.0, 10.0011635, 9.997968 
9.350919e+2, 2.6531222e+2, -243020.66, -450483.8, 1260.1354, 0.0022226428, 0.032392763, -243013.0, 96928.21, 0.00000003612581, 10.001323, 9.99859 
9.3510574e+2, 2.7530968e+2, -109160.43, -349262.63, 41279.83, 0.027452309, -0.1110719, -102261.58, 139698.94, 0.0000027030533, 10.001628, 9.998464 
9.3511903e+2, 2.853074e+2, -40941.906, -457036.8, 22789.691, 0.016439803, -0.09143158, -39697.43, 104285.66, 0.000022488803, 10.002229, 9.996763 
9.351319e+2, 2.953052e+2, 161022.64, -313517.56, 44987.77, -0.035380352, -0.029946359, 165249.95, 211259.42, 0.00009525127, 10.00295, 9.996727 
9.351458e+2, 3.0530155e+2, 262362.75, -155508.13, 16690.6, 0.014241157, -0.09946959, 263028.34, 263028.34, 0.00025879213, 10.002986, 9.997464 
9.351583e+2, 3.1529945e+2, 180678.84, -88991.44, 13226.085, -0.09519545, -0.09568821, 181325.97, 181325.97, 0.0005142612, 10.001881, 9.998457 
9.449091e+2, 1.2530419e+2, -1989019.4, -1661727.9, 1542.3809, 0.12157522, 0.08735965, -1661720.6, 50309.625, 0.000016753027, 9.997216, 10.001698 
9.4492084e+2, 1.3530722e+2, -1801584.3, -1544520.6, -61416.234, 0.09602691, 0.20646457, -1530601.0, 83398.195, 0.000002343361, 9.998016, 10.001438 
9.4493407e+2, 1.4530768e+2, -1638708.1, -1433912.4, 63657.8, 0.08262456, 0.1296933, -1415738.1, 100253.03, 0.0000000053592455, 9.998491, 10.001288 
9.4494903e+2, 1.5530725e+2, -1476447.0, -1319642.1, 31779.477, 0.04553663, -0.08254533, -1313446.3, 104543.336, 0.0, 9.998995, 10.001164 
9.449626e+2, 1.6530818e+2, -1465608.3, -1468489.4, -56394.25, 0.041316237, -0.0036941427, -1410636.1, -90653.39, 0.0, 9.999306, 9.999305 
9.449748e+2, 1.7531006e+2, -1345075.9, -1362645.0, -35880.816, 0.046668317, 0.22385351, -1316919.9, -94946.17, 0.0, 9.999478, 9.999275 
9.449881e+2, 1.8531024e+2, -1133768.3, -1104998.5, 40795.223, 0.07368522, 0.27315274, -1076126.4, 47845.844, 0.0, 9.999823, 10.00019 
9.4500256e+2, 1.9530843e+2, -960272.6, -984270.7, -22860.648, 0.12855779, 0.041927934, -946453.3, 79528.55, 0.0, 10.000394, 10.0000725 
9.4501555e+2, 2.0530714e+2, -941620.9, -1094602.0, -36361.965, 0.07841563, -0.009573741, -933417.9, -5425.175, 0.0, 10.000558, 9.998578 
9.4502723e+2, 2.1530609e+2, -895911.3, -1025316.44, -12705.14, -0.062444538, -0.0028143802, -894675.7, -64668.805, 0.0, 10.000215, 9.998548 
9.450404e+2, 2.2530548e+2, -728510.06, -812925.6, 34507.75, -0.071356, 0.051780265, -716199.2, 15813.167, 0.0, 10.000367, 9.999248 
9.450548e+2, 2.3530486e+2, -537621.9, -683417.25, 19472.156, 0.038636863, 0.033591863, -535066.0, 98947.89, 0.0, 10.001051, 9.999141 
9.450684e+2, 2.4530332e+2, -440498.03, -737009.44, 25709.682, 0.087270804, 0.04177217, -438285.34, 97741.945, 0.0, 10.001686, 9.997794 
9.450813e+2, 2.5530064e+2, -262188.97, -601508.94, 21459.914, 0.09800434, -0.039645467, -260837.14, 177217.1, 0.0, 10.00224, 9.997783 
9.4509447e+2, 2.6529863e+2, -102704.62, -396881.13, 51336.684, 0.08703665, -0.045009002, -94003.234, 246068.73, 0.000000027783642, 10.002336, 9.998479 
9.451078e+2, 2.752968e+2, -71174.53, -344350.9, 2995.927, 0.06758705, -0.10497283, -71141.68, 170944.66, 0.000002329391, 10.001931, 9.998363 
9.451215e+2, 2.8529477e+2, -27973.943, -415690.1, 41246.723, 0.056903303, -0.06879897, -23634.527, 120471.875, 0.000023981273, 10.002179, 9.997074 
9.4513565e+2, 2.952924e+2, 178270.64, -273755.5, 41163.426, 0.06016542, -0.053499978, 181988.58, 228121.7, 0.00010679835, 10.002936, 9.997016 
9.451495e+2, 3.0528894e+2, 258208.89, -159729.9, 27265.416, 0.09453901, -0.11375155, 259980.13, 259980.13, 0.00028981623, 10.0029955, 9.997429 
9.4516087e+2, 3.152867e+2, 196144.08, -118136.414, 17736.785, -0.022461403, -0.11905971, 197141.9, 197141.9, 0.00057081727, 10.002166, 9.998119 
9.5490575e+2, 1.2529165e+2, -2047575.1, -1759072.6, -20884.326, -0.009613698, 0.0930003, -1757568.6, -45418.59, 0.00002677623, 9.99715, 10.001037 
9.549189e+2, 1.3529311e+2, -1859541.8, -1643416.0, -18448.254, 0.07033757, 0.11862986, -1641852.6, -27716.19, 0.0000047533053, 9.997951, 10.000772 
9.549328e+2, 1.4529334e+2, -1676259.3, -1498314.8, 58088.96, 0.056478318, 0.07191371, -1481030.8, 35101.58, 0.000000046136613, 9.998424, 10.000884 
9.549474e+2, 1.5529376e+2, -1496773.1, -1369050.1, 66613.87, -0.062205493, -0.016499663, -1340631.0, 77493.12, 0.0, 9.999025, 10.00081 
9.5496136e+2, 1.6529438e+2, -1398807.3, -1330477.9, -67768.15, -0.058295347, 0.0002014588, -1288749.5, 31368.02, 0.0, 9.999303, 10.000256 
9.5497465e+2, 1.7529474e+2, -1287631.3, -1234577.3, -13139.282, 0.051986318, -0.020491553, -1231501.5, -9385.296, 0.0, 9.999435, 10.000176 
9.549879e+2, 1.8529487e+2, -1229154.1, -1287892.9, 45751.68, 0.032056496, 0.041578315, -1204156.4, -80039.34, 0.0, 9.999744, 9.998979 
9.55001e+2, 1.9529434e+2, -1054871.4, -1157612.1, 14305.474, -0.10501865, 0.06111792, -1052916.6, -26792.914, 0.0, 10.000284, 9.9989395 
9.550147e+2, 2.0529431e+2, -892313.2, -952402.94, -67597.41, -0.091597736, 0.13469034, -848384.44, 79739.81, 0.0, 10.000387, 9.999639 
9.5502883e+2, 2.1529436e+2, -858795.06, -894302.2, -8822.535, 0.045804147, 0.14476448, -856723.75, -26600.83, 0.0, 9.999982, 9.999561 
9.550425e+2, 2.2529377e+2, -753236.06, -812156.94, 42981.863, 0.07144541, 0.14908665, -730587.44, 1537.9884, 0.0, 10.000142, 9.99936 
9.550557e+2, 2.3529229e+2, -564570.06, -687215.1, 64341.71, -0.0055426294, 0.03417979, -537008.94, 97126.12, 0.0, 10.000823, 9.999226 
9.550695e+2, 2.4529019e+2, -451037.63, -704904.44, 31784.703, -0.0062813633, -0.03409653, -447118.6, 89033.85, 0.0, 10.001467, 9.998111 
9.5508355e+2, 2.5528714e+2, -273179.06, -579489.0, 60037.52, 0.061252635, -0.18295257, -261831.92, 176348.75, 0.0, 10.002053, 9.998017 
9.550971e+2, 2.6528546e+2, -182739.61, -526776.9, 18102.729, 0.09056489, -0.1286766, -181789.7, 158408.48, 0.000000030362223, 10.002185, 9.997655 
9.551101e+2, 2.752845e+2, -145812.66, -465096.56, 10072.902, 0.06812727, -0.022639023, -145495.19, 96715.23, 0.000002140531, 10.001791, 9.997596 
9.5512414e+2, 2.8528306e+2, -4005.2024, -340747.75, 52688.96, 0.07021425, 0.08083688, 4046.346, 148272.84, 0.000025889522, 10.00207, 9.99764 
9.551393e+2, 2.95281e+2, 196798.97, -203680.67, 93326.79, 0.08822719, 0.069356166, 217479.67, 263727.7, 0.00011778403, 10.002801, 9.99756 
9.5515287e+2, 3.0527866e+2, 273152.9, -100456.38, -9688.892, 0.109682895, 0.07248428, 273404.0, 273404.0, 0.00031950467, 10.002875, 9.997893 
9.551635e+2, 3.1527624e+2, 202271.64, -70865.29, 56853.41, -0.055847995, 0.0061387382, 213633.08, 213633.08, 0.00062882464, 10.002018, 9.998515 
9.649034e+2, 1.2527807e+2, -2060670.9, -1813854.1, -31796.945, 0.054400668, 0.10007066, -1809823.6, -97542.33, 0.000040530904, 9.997216, 10.000661 
9.649174e+2, 1.3527842e+2, -1762662.6, -1631761.6, -52578.336, 0.104365446, 0.046322264, -1613258.3, 1020.3285, 0.000008656152, 9.998736, 10.000498 
9.64932e+2, 1.4527856e+2, -1616447.4, -1477418.9, 56772.125, 0.12246782, 0.011622822, -1457181.8, 59094.754, 0.00000019058375, 9.998914, 10.000763 
9.6494645e+2, 1.5527984e+2, -1613832.9, -1437038.3, 40784.094, -0.009961212, 0.024118619, -1428083.5, -9821.299, 0.0, 9.998317, 10.000662 
9.649605e+2, 1.6528061e+2, -1456514.4, -1315528.9, -46287.64, -0.03314346, 0.044095166, -1301690.4, 18562.955, 0.0, 9.998746, 10.00062 
9.649743e+2, 1.7528051e+2, -1165226.4, -1140798.1, -76391.27, 0.042992007, -0.057131987, -1075650.8, 146602.31, 0.0, 10.000136, 10.000481 
9.649879e+2, 1.8528056e+2, -1112619.6, -1259816.6, 8009.2275, 0.023432307, -0.004232895, -1112185.1, 12069.167, 0.0, 10.000634, 9.998761 
9.6500134e+2, 1.9528033e+2, -1068997.0, -1192199.1, 20871.697, -0.08860726, 0.06815093, -1065557.1, -39296.31, 0.0, 10.000279, 9.998723 
9.6501523e+2, 2.0528033e+2, -891403.1, -921165.5, -29256.166, -0.058584508, 0.14186174, -873461.0, 54800.266, 0.0, 10.000295, 9.999881 
9.650296e+2, 2.1528016e+2, -738451.6, -809818.2, -71743.5, 0.10390855, 0.10598058, -694007.3, 136252.31, 0.0, 10.000714, 9.999776 
9.6504354e+2, 2.2527951e+2, -663895.6, -794958.8, -15733.09, 0.1404452, 0.103917755, -662033.44, 70229.84, 0.0, 10.000853, 9.999145 
9.650572e+2, 2.3527806e+2, -589453.4, -715025.7, -51758.65, 0.07388075, 0.013986145, -570869.7, 63405.49, 0.0, 10.000713, 9.999086 
9.65071e+2, 2.4527633e+2, -532296.1, -706907.4, -56685.086, 0.055129312, -0.030248001, -515508.22, 20781.7, 0.0, 10.000727, 9.998472 
9.650852e+2, 2.5527406e+2, -425538.56, -619273.0, -58300.953, 0.08976419, -0.13275968, -409347.13, 28962.846, 0.0, 10.00085, 9.998343 
9.6509916e+2, 2.652725e+2, -287652.0, -614223.1, -36962.88, 0.11525825, -0.06109179, -283520.63, 56806.25, 0.000000012060779, 10.001629, 9.997317 
9.651129e+2, 2.7527106e+2, -1174.0675, -433786.75, -52433.863, 0.1260742, 0.034039225, 5090.351, 247436.17, 0.0000023356135, 10.0029545, 9.997247 
9.651272e+2, 2.852694e+2, 161873.33, -213208.03, 13874.89, 0.1361299, 0.10973161, 162385.89, 306750.13, 0.000028869204, 10.003014, 9.998045 
9.6514213e+2, 2.9526743e+2, 91464.125, -207960.22, -5471.783, 0.15483911, 0.0628927, 91564.08, 137947.56, 0.00012892728, 10.001898, 9.997945 
9.651556e+2, 3.05266e+2, 214419.39, -109561.42, -61402.707, 0.13230681, 0.12860513, 225666.36, 225666.36, 0.00034703137, 10.002352, 9.998094 
9.651667e+2, 3.152641e+2, 467532.28, 100554.945, -68718.2, 0.0011241154, 0.090948984, 479978.0, 479978.0, 0.0006841425, 10.003629, 9.99892 
9.74901e+2, 1.2526312e+2, -2053299.4, -1779994.5, -36902.918, 0.008726801, 0.09086323, -1775099.4, -62671.78, 0.000058506626, 9.9971485, 10.00092 
9.7491586e+2, 1.3526331e+2, -1733382.4, -1573291.9, 13159.561, 0.040830977, -0.013830553, -1572217.4, 42206.906, 0.00001444443, 9.9987545, 10.000885 
9.749312e+2, 1.4526369e+2, -1620106.4, -1484919.3, 16541.395, 0.09726328, -0.043848574, -1482924.6, 33495.79, 0.0000005546723, 9.998912, 10.000715 
9.749459e+2, 1.5526566e+2, -1622340.5, -1445314.0, 40689.96, 0.065251455, 0.04114256, -1436409.3, -18006.875, 0.0, 9.99828, 10.000621 
9.749598e+2, 1.6526695e+2, -1483668.8, -1363793.1, -14687.634, -0.016373688, 0.13182212, -1362019.8, -41630.277, 0.0, 9.9987, 10.000318 
9.7497314e+2, 1.7526735e+2, -1186767.1, -1182502.0, -11013.958, -0.119139925, 0.11098191, -1173416.0, 48968.23, 0.0, 10.000114, 10.000211 
9.749877e+2, 1.8526733e+2, -1072306.9, -1152039.0, -19563.29, -0.09452833, 0.13083293, -1067765.4, 56618.555, 0.0, 10.000532, 9.999548 
9.750032e+2, 1.9526656e+2, -1036952.06, -1090305.3, 26293.781, 0.035263736, 0.06522404, -1026171.94, 219.91203, 0.0, 10.000133, 9.999488 
9.7501695e+2, 2.0526542e+2, -965082.94, -1034624.7, -31552.363, 0.051117457, 0.023761056, -952901.0, -24499.387, 0.0, 10.0001135, 9.999197 
9.7502923e+2, 2.1526355e+2, -814384.0, -923353.56, -39781.49, -0.035257276, -0.111257486, -801406.5, 29010.28, 0.0, 10.000518, 9.999097 
9.750432e+2, 2.2526263e+2, -728662.5, -878671.94, -40217.38, -0.010042481, -0.0826023, -718560.56, 13865.658, 0.0, 10.000636, 9.998672 
9.750587e+2, 2.3526219e+2, -659796.3, -799668.94, -41698.984, 0.11961708, -0.026604287, -648308.5, -13874.405, 0.0, 10.000457, 9.998625 
9.750728e+2, 2.452619e+2, -529293.44, -661810.1, -69197.36, 0.13129546, 0.07499945, -499747.6, 36690.46, 0.0, 10.000553, 9.998871 
9.7508574e+2, 2.5526133e+2, -418297.2, -569512.3, -32906.832, 0.031135399, 0.10260146, -411446.5, 26995.672, 0.0, 10.000697, 9.998761 
9.7510016e+2, 2.6525968e+2, -300025.13, -611442.1, -3411.9385, 0.020025272, 0.13854423, -299987.72, 40471.54, 0.0000000034767167, 10.001502, 9.997397 
9.7511584e+2, 2.752566e+2, -15974.632, -431439.3, 18661.979, 0.08506185, 0.05932845, -15138.052, 227354.17, 0.0000028342504, 10.002806, 9.997335 
9.751304e+2, 2.8525403e+2, 156962.28, -194468.94, -42014.543, 0.102645785, 0.030796241, 161915.42, 306433.16, 0.000032313746, 10.002893, 9.998231 
9.751437e+2, 2.9525167e+2, 85304.74, -193036.6, -15685.049, 0.063211314, -0.068121746, 86185.836, 132725.05, 0.0001399921, 10.001782, 9.998103 
9.7515684e+2, 3.0525076e+2, 190382.83, -129980.02, -24435.092, -0.0084261345, 0.04801978, 192235.86, 192235.86, 0.00037284024, 10.002231, 9.998009 
9.751693e+2, 3.1524953e+2, 459320.72, 132872.7, 40277.957, -0.18345506, 0.08025637, 464216.88, 464216.88, 0.00073526404, 10.003423, 9.999235 
9.8490006e+2, 1.2524824e+2, -1812980.4, -1684867.5, 37397.12, 0.13815573, 0.06473886, -1674750.0, 37822.44, 0.00008108169, 9.998885, 10.000731 
9.849146e+2, 1.3524888e+2, -1789875.6, -1631229.1, -15671.276, 0.06991508, 0.027926499, -1629696.0, -15129.555, 0.000022462764, 9.99848, 10.000626 
9.849299e+2, 1.4524919e+2, -1730151.3, -1579186.0, -31398.113, 0.12737773, 0.020848406, -1572916.1, -56351.418, 0.0000013019285, 9.998309, 10.000367 
9.8494476e+2, 1.5525053e+2, -1581858.6, -1466255.1, -71094.41, 0.1132913, 0.075880095, -1432430.1, -13876.3955, 0.0, 9.998711, 10.000273 
9.849591e+2, 1.6525148e+2, -1433743.5, -1338527.8, -44612.883, 0.03630212, 0.14864464, -1320891.3, -347.2117, 0.0, 9.999041, 10.000322 
9.849731e+2, 1.7525181e+2, -1294705.9, -1228836.0, -53665.75, -0.088674046, 0.12209223, -1198804.9, 23732.908, 0.0, 9.999366, 10.000242 
9.849879e+2, 1.8525179e+2, -1193060.8, -1172325.9, -79927.04, -0.06258088, 0.12235596, -1102096.8, 22439.537, 0.0, 9.9995575, 9.99987 
9.850034e+2, 1.9525105e+2, -1108434.6, -1092007.6, -108631.414, 0.08554659, 0.030903583, -991279.6, 35263.348, 0.0, 9.999516, 9.99977 
9.850173e+2, 2.0525011e+2, -974978.75, -1030323.56, -86946.836, 0.088558555, -0.0071964534, -911406.9, 17143.527, 0.0, 9.999981, 9.9993 
9.850297e+2, 2.1524864e+2, -766086.7, -888563.3, -68796.516, -0.042970624, -0.11545089, -735221.3, 95340.82, 0.0, 10.000794, 9.999207 
9.8504376e+2, 2.252478e+2, -675458.06, -887352.1, -25907.91, -0.025020184, -0.06829155, -672336.3, 60235.49, 0.0, 10.001135, 9.998377 
9.850594e+2, 2.3524722e+2, -598251.25, -803977.06, -43305.37, 0.13420598, 0.0044392804, -589507.1, 45075.92, 0.0, 10.001016, 9.998332 
9.850739e+2, 2.45247e+2, -435743.0, -606139.25, -26904.518, 0.16551912, 0.12452839, -431595.88, 104991.4, 0.0, 10.001174, 9.998939 
9.850872e+2, 2.552466e+2, -279485.3, -495008.4, -55896.33, 0.070761815, 0.16122648, -265851.03, 172739.03, 0.0, 10.001623, 9.998819 
9.8510206e+2, 2.65245e+2, -239468.6, -517140.78, 18230.758, 0.060835134, 0.17017488, -238276.75, 102328.96, 0.00000001775074, 10.001645, 9.99798 
9.851183e+2, 2.7524197e+2, -197048.3, -456430.7, 35659.184, 0.1443571, 0.04385077, -192235.28, 50400.62, 0.000003544514, 10.001293, 9.9979 
9.85133e+2, 2.8523973e+2, -15047.01, -279524.8, 607.6779, 0.1482121, 0.015162187, -15045.613, 129612.38, 0.00003520851, 10.0016985, 9.998248 
9.85146e+2, 2.952377e+2, 217164.5, -132424.13, -20951.482, 0.08454874, -0.047822297, 218415.69, 265092.0, 0.00014922032, 10.002677, 9.99811 
9.8515934e+2, 3.0523646e+2, 299724.34, -138103.69, 18883.684, -0.010855648, 0.061887998, 300537.3, 300537.3, 0.00039592202, 10.003268, 9.997438 
9.8517346e+2, 3.1523478e+2, 396517.56, 72800.59, -21026.566, -0.07640062, 0.107806176, 397877.63, 397877.63, 0.0007798097, 10.003141, 9.998949 
9.948996e+2, 1.2523347e+2, -1875615.0, -1806665.8, -36162.617, 0.11522569, 0.020617047, -1791178.0, -78462.55, 0.000108580556, 9.99887, 9.99989 
9.9491334e+2, 1.3523524e+2, -1857901.5, -1759245.6, -19228.225, 0.057677664, 0.1777149, -1755630.5, -140926.13, 0.000033028722, 9.998439, 9.999756 
9.949281e+2, 1.4523509e+2, -1779246.5, -1678709.5, -41927.574, 0.062032297, 0.20583381, -1663519.4, -146810.11, 0.0000026281716, 9.99829, 9.999701 
9.9494255e+2, 1.552345e+2, -1619529.0, -1549212.3, -40458.44, -0.017768074, 0.13233696, -1530770.3, -112053.87, 0.00000000019976186, 9.998726, 9.9997015 
9.9495775e+2, 1.6523425e+2, -1419314.9, -1295422.5, -50931.492, -0.03616282, 0.097468205, -1277173.0, 43543.2, 0.0, 9.998993, 10.000637 
9.949738e+2, 1.7523395e+2, -1278226.0, -1186022.6, -24457.357, 0.002455733, -0.025460962, -1179936.9, 42776.125, 0.0, 9.999329, 10.000554 
9.9498826e+2, 1.8523385e+2, -1227005.5, -1218544.5, -100637.86, -0.016330734, -0.03426147, -1122048.3, 2663.7249, 0.0, 9.999458, 9.999601 
9.9500155e+2, 1.9523361e+2, -1142095.9, -1130841.5, -92431.03, -0.0839447, -0.048430104, -1043866.5, -17150.6, 0.0, 9.999384, 9.999566 
9.950157e+2, 2.0523426e+2, -942656.8, -911275.7, -75543.4, -0.09348315, 0.033983108, -849810.56, 78898.67, 0.0, 9.999767, 10.000216 
9.9503064e+2, 2.1523534e+2, -736573.44, -770263.94, -23507.18, -0.055836953, 0.08764762, -724499.0, 106197.5, 0.0, 10.000557, 10.000126 
9.950451e+2, 2.2523509e+2, -716159.4, -913349.3, -47542.953, -0.030133419, 0.15098383, -705295.2, 27404.436, 0.0, 10.000887, 9.998317 
9.9505913e+2, 2.3523328e+2, -638297.5, -830216.8, -28830.125, -0.022076359, 0.10687666, -634060.2, 660.8501, 0.0, 10.000777, 9.998264 
9.9507385e+2, 2.4523173e+2, -486750.44, -670131.5, -26093.44, 0.011632713, 0.11598173, -483109.88, 53627.332, 0.0, 10.000988, 9.998589 
9.9508905e+2, 2.5522998e+2, -328638.63, -552328.44, -20633.977, 0.06499155, 0.049823362, -326751.2, 112001.766, 0.0, 10.001424, 9.998523 
9.951044e+2, 2.6522863e+2, -199312.83, -391121.38, -10621.214, 0.10365898, 0.051695805, -198726.48, 142038.2, 0.000000028595345, 10.001472, 9.998925 
9.9511987e+2, 2.7522728e+2, -155412.86, -336054.8, 44627.055, 0.13185602, -0.0048258747, -144989.34, 97787.64, 0.000003781716, 10.001157, 9.99879 
9.9513465e+2, 2.8522626e+2, -35444.074, -299764.66, 20961.986, 0.11225046, 0.057221804, -33792.008, 110994.72, 0.000036350866, 10.0016, 9.998156 
9.951487e+2, 2.952254e+2, 198721.94, -146590.05, 39287.438, 0.046046797, 0.11453842, 203135.4, 249931.0, 0.00015456251, 10.002571, 9.998062 
9.9516284e+2, 3.0522305e+2, 200562.55, -315908.8, 4941.576, -0.024166444, 0.1748687, 200609.83, 200609.83, 0.00041193186, 10.003159, 9.996266 
9.9517775e+2, 3.1521913e+2, 299504.16, -69170.03, 22616.383, -0.04146718, 0.115526944, 300886.38, 300886.38, 0.0008105773, 10.002901, 9.998082 
1.0048984e+3, 1.2521775e+2, -2167569.0, -1926422.4, -55431.996, 0.22769283, -0.010021044, -1914290.8, -201420.7, 0.00014134821, 9.996774, 10.000084 
1.0049119e+3, 1.3522023e+2, -1747163.0, -1686561.3, -10045.298, 0.050536886, 0.20232096, -1684939.5, -70087.87, 0.000046426092, 9.999119, 9.999924 
1.004927e+3, 1.4522015e+2, -1585417.3, -1601865.0, 37066.336, 0.062287923, 0.2366709, -1555673.5, -38817.445, 0.00000474816, 9.999729, 9.999515 
1.00494176e+3, 1.5521891e+2, -1572851.5, -1551472.9, 22597.297, 0.017531306, 0.12336201, -1537164.1, -118294.88, 0.000000004412824, 9.999168, 9.99947 
1.00495726e+3, 1.6521844e+2, -1424741.1, -1314131.9, 56549.04, 0.023542356, 0.08400962, -1290339.1, 30532.594, 0.0, 9.999002, 10.000518 
1.0049736e+3, 1.7521831e+2, -1309578.6, -1214374.0, 16378.991, 0.07601092, -0.012545634, -1211635.0, 11233.008, 0.0, 9.999153, 10.000454 
1.0049882e+3, 1.8521835e+2, -1216384.8, -1185293.3, -21622.229, 0.03818816, -0.013713531, -1174208.4, -49342.977, 0.0, 9.999416, 9.999843 
1.0050011e+3, 1.9521825e+2, -1058948.1, -1065321.8, -11227.829, -0.080944315, -0.039838318, -1050463.6, -23596.516, 0.0, 9.999852, 9.999783 
1.0050155e+3, 2.0521897e+2, -903201.2, -915129.44, 23190.87, -0.096118376, 0.04776959, -885219.8, 43640.28, 0.0, 10.000124, 10.000022 
1.00503124e+3, 2.1522002e+2, -804531.06, -831036.75, -45804.617, -0.023300901, 0.122396305, -770100.6, 60748.484, 0.0, 10.000182, 9.999906 
1.0050461e+3, 2.2521985e+2, -750478.25, -867351.1, -62788.67, 0.013607883, 0.17674255, -723140.4, 9709.996, 0.0, 10.0004015, 9.998862 
1.00506015e+3, 2.3521817e+2, -595585.25, -752209.44, -41695.586, 0.013329594, 0.0927099, -585177.0, 49689.68, 0.0, 10.00083, 9.998775 
1.005075e+3, 2.452163e+2, -478392.94, -693085.56, 26342.158, 0.0345087, 0.058732647, -475208.06, 61676.48, 0.0, 10.0011635, 9.998349 
1.00509055e+3, 2.5521398e+2, -349181.94, -579782.0, 2501.768, 0.08358565, -0.040450655, -349154.8, 89751.75, 0.0, 10.001389, 9.998338 
1.00510605e+3, 2.6521283e+2, -157320.31, -372923.63, 6290.691, 0.11813936, -0.011497394, -157136.92, 183780.48, 0.000000017098808, 10.00175, 9.99892 
1.0051215e+3, 2.7521223e+2, -18931.326, -266161.34, -40150.793, 0.14082476, 0.0046376036, -12574.197, 230348.9, 0.000003428396, 10.002068, 9.998828 
1.0051366e+3, 2.8521147e+2, 78151.51, -267230.66, -31328.389, 0.11460269, 0.10115709, 80970.195, 225901.11, 0.00003625069, 10.002492, 9.997936 
1.0051516e+3, 2.952104e+2, 239817.83, -151321.06, -67902.26, 0.062653124, 0.15675145, 251270.42, 298213.16, 0.00015744341, 10.002957, 9.997839 
1.0051662e+3, 3.0520734e+2, 209866.53, -311446.7, -62260.35, 0.0072683436, 0.15494817, 217199.14, 217199.14, 0.00042211023, 10.003181, 9.996317 
1.00518174e+3, 3.1520322e+2, 297964.8, -63030.55, -23271.164, 0.096130334, 0.07944487, 299458.78, 299458.78, 0.0008305699, 10.002798, 9.998219 
1.0148953e+3, 1.2520115e+2, -2083914.6, -1730299.4, -35343.855, 0.1718753, -0.028506994, -1726801.4, -13766.094, 0.0001798155, 9.996698, 10.001454 
1.01490974e+3, 1.3520393e+2, -1654685.9, -1496502.6, 92183.055, -0.11575697, 0.08231009, -1454131.5, 160876.25, 0.000062927356, 9.999129, 10.001218 
1.014926e+3, 1.4520435e+2, -1582632.1, -1588151.8, -7992.4224, -0.06944096, 0.094714396, -1576936.4, -59931.59, 0.000007860604, 9.999701, 9.999617 
1.01494186e+3, 1.552039e+2, -1571028.9, -1542362.5, 19888.117, 0.06977727, 0.048583776, -1532180.9, -113169.38, 0.000000028517778, 9.999153, 9.999534 
1.0149571e+3, 1.652042e+2, -1467586.9, -1397099.6, 44033.67, 0.076338716, 0.112642676, -1375942.1, -54932.75, 0.0, 9.998973, 9.999964 
1.01497225e+3, 1.7520493e+2, -1347404.0, -1291125.9, 38689.555, -0.013848271, 0.1572385, -1271424.8, -48422.637, 0.0, 9.99914, 9.999936 
1.014987e+3, 1.8520536e+2, -1180988.4, -1088391.3, -23837.7, -0.05132018, 0.18255466, -1082614.9, 42381.08, 0.0, 9.999317, 10.000556 
1.0150016e+3, 1.9520508e+2, -1031536.25, -975692.4, 20420.082, -0.047764957, 0.066835575, -969022.2, 57972.938, 0.0, 9.999712, 10.0004635 
1.0150163e+3, 2.0520437e+2, -1021994.25, -1122703.6, 7500.995, -0.061573487, 0.04688505, -1021438.6, -92437.055, 0.0, 9.999957, 9.998677 
1.01503104e+3, 2.1520287e+2, -922891.9, -1028091.75, -27945.174, -0.09218123, -0.0018365319, -915929.3, -84911.06, 0.0, 9.999981, 9.998644 
1.01504624e+3, 2.2520226e+2, -714442.2, -738092.25, -66391.51, -0.03829921, 0.019303834, -658830.8, 74191.41, 0.0, 10.000168, 9.999861 
1.0150621e+3, 2.3520204e+2, -558667.94, -621359.94, -10906.953, 0.088907234, -0.02168338, -556824.56, 78194.0, 0.0, 10.000599, 9.999782 
1.0150771e+3, 2.4520089e+2, -518604.9, -728795.8, 14069.766, 0.09458688, -0.026959743, -517667.28, 19360.43, 0.0, 10.000958, 9.998206 
1.0150912e+3, 2.551985e+2, -383348.0, -615632.56, 28078.357, -0.020312166, -0.118469246, -380002.1, 59050.152, 0.0, 10.00123, 9.998174 
1.0151065e+3, 2.6519737e+2, -235534.44, -497186.34, 4200.4604, -0.037625723, -0.040239047, -235467.03, 105598.836, 0.000000011022683, 10.001592, 9.99814 
1.0151227e+3, 2.7519694e+2, -95555.3, -384655.8, -4205.6055, 0.024281628, 0.07241621, -95494.125, 147579.19, 0.0000031084232, 10.001895, 9.998095 
1.0151385e+3, 2.8519547e+2, 28711.367, -338673.1, -29440.19, 0.019816393, 0.15316015, 31055.586, 176145.06, 0.000035475467, 10.00236, 9.997505 
1.0151538e+3, 2.9519275e+2, 184447.64, -226475.08, -25644.637, -0.04935473, 0.088028826, 186041.88, 233158.52, 0.00015874387, 10.002792, 9.997399 
1.0151687e+3, 3.051893e+2, 277473.06, -141215.52, -84288.984, -0.0806437, 0.010737894, 293804.78, 293804.78, 0.00042931808, 10.003062, 9.997539 
1.0151845e+3, 3.1518695e+2, 332347.9, 86695.55, 8730.028, 0.019047137, -0.015304762, 332657.78, 332657.78, 0.00084597926, 10.002486, 9.999385 
1.0248931e+3, 1.2518527e+2, -1899088.6, -1599710.6, 3343.4004, 0.24368049, 0.04589701, -1599673.4, 113520.75, 0.00022439056, 9.997765, 10.001847 
1.02490835e+3, 1.3518742e+2, -1899057.3, -1573640.0, 8487.677, -0.060614895, 0.06247277, -1573418.8, 41752.016, 0.0000828242, 9.997281, 10.001586 
1.02492504e+3, 1.4518821e+2, -1854655.1, -1674535.3, -87908.3, -0.017526813, 0.07289168, -1638743.4, -121580.53, 0.000012107546, 9.997605, 10.000063 
1.0249411e+3, 1.5518874e+2, -1564750.9, -1490673.1, -69774.15, 0.11439291, 0.07815914, -1448716.4, -29557.055, 0.00000009714164, 9.998965, 9.999991 
1.02495655e+3, 1.6518919e+2, -1443772.0, -1391910.5, 559.77545, 0.118621685, 0.14020492, -1391904.5, -70748.555, 0.0, 9.999199, 9.999867 
1.02497116e+3, 1.7518936e+2, -1446071.4, -1344175.1, -10278.015, 0.017353768, 0.13975786, -1343148.8, -119993.89, 0.0, 9.998526, 9.999846 
1.0249862e+3, 1.8518993e+2, -1280989.0, -1136236.6, -20835.344, -0.011039017, 0.18067455, -1133297.4, -8149.1597, 0.0, 9.99861, 10.000575 
1.02500156e+3, 1.9519044e+2, -1088127.0, -1002529.0, -59599.188, 0.0055972114, 0.14431757, -971953.5, 55186.51, 0.0, 9.99931, 10.000484 
1.02501675e+3, 2.0518959e+2, -1017498.4, -1121288.0, -23640.62, -0.005923561, 0.11148824, -1012367.3, -83220.336, 0.0, 10.000011, 9.998661 
1.0250317e+3, 2.1518706e+2, -821269.6, -983857.7, 331.81873, -0.041049637, -0.035702962, -821268.94, 9902.969, 0.0, 10.000717, 9.998593 
1.0250474e+3, 2.2518599e+2, -607527.06, -707908.44, -11299.69, 0.025101034, -0.04726354, -606270.8, 126908.93, 0.0, 10.000987, 9.999674 
1.0250635e+3, 2.3518592e+2, -549056.56, -639285.6, -75622.99, 0.17448798, -0.051581897, -506113.4, 129061.945, 0.0, 10.000763, 9.99958 
1.0250786e+3, 2.4518506e+2, -518415.28, -704003.4, -41317.348, 0.17167793, -0.028496897, -509632.47, 27549.213, 0.0, 10.000877, 9.998394 
1.02509275e+3, 2.5518307e+2, -367203.53, -590910.4, -43960.746, 0.023714159, -0.09762844, -358874.84, 80326.766, 0.0, 10.001276, 9.998315 
1.025108e+3, 2.6518166e+2, -267160.75, -533356.06, -7071.1255, -0.03065867, -0.038857207, -266973.06, 74243.99, 0.00000001218603, 10.001473, 9.997945 
1.0251241e+3, 2.751805e+2, -174263.11, -439339.66, -11793.983, 0.012611425, 0.014320313, -173739.39, 69492.44, 0.0000027111198, 10.001446, 9.997929 
1.02514036e+3, 2.8517875e+2, -26779.107, -352891.13, 60774.383, 0.015159442, 0.06942215, -15821.359, 129428.484, 0.00003356842, 10.001916, 9.997631 
1.0251568e+3, 2.9517615e+2, 182815.98, -212755.42, 63128.863, -0.014471983, 0.007402716, 192646.36, 239920.61, 0.00015737157, 10.002715, 9.997538 
1.025172e+3, 3.0517274e+2, 266449.72, -142829.2, -19269.88, -0.040560886, -0.076123126, 267354.97, 267354.97, 0.00043278775, 10.002991, 9.997544 
1.0251875e+3, 3.1517074e+2, 310113.8, 56888.76, -87863.1, 0.09265682, -0.07291124, 337613.78, 337613.78, 0.00085735595, 10.00241, 9.999204 
1.0348905e+3, 1.2516986e+2, -1938310.9, -1687717.0, -84898.484, 0.11622137, 0.19585086, -1661663.1, 51685.598, 0.00027553758, 9.997796, 10.0012245 
1.0349071e+3, 1.3517073e+2, -1951477.5, -1677057.3, -2895.892, 0.06572316, 0.15190646, -1677026.6, -61686.18, 0.000106410545, 9.997258, 10.000889 
1.0349237e+3, 1.4517175e+2, -1793130.1, -1541823.8, -61788.46, 0.051260605, 0.17665933, -1527453.6, -10123.311, 0.000017580353, 9.997589, 10.000979 
1.03493944e+3, 1.5517345e+2, -1497396.1, -1352869.9, -3292.884, 0.000967137, 0.20546095, -1352794.9, 66518.125, 0.00000023822265, 9.998967, 10.00094 
1.03495486e+3, 1.6517344e+2, -1433691.0, -1356424.5, -47272.59, -0.014904687, 0.15886068, -1334006.8, -12695.482, 0.0, 9.999145, 10.000132 
1.03497036e+3, 1.7517158e+2, -1438860.5, -1313420.8, -18776.623, 0.03569486, -0.072433755, -1310670.4, -87343.805, 0.0, 9.998462, 10.000086 
1.0349855e+3, 1.851721e+2, -1341524.4, -1238703.3, -15158.237, 0.019574044, -0.012937012, -1236515.3, -111193.75, 0.0, 9.99851, 9.99992 
1.03500046e+3, 1.9517443e+2, -1149010.0, -1102496.6, -20799.732, -0.06256219, 0.19347389, -1094552.4, -67251.2, 0.0, 9.999192, 9.999857 
1.0350163e+3, 2.0517464e+2, -963964.7, -964617.75, -16130.525, -0.06950928, 0.23979801, -948157.44, -18860.748, 0.0, 9.999812, 9.999833 
1.0350331e+3, 2.1517244e+2, -764457.4, -828663.56, 44584.38, 0.0014527866, 0.008125621, -741620.75, 89690.47, 0.0, 10.000546, 9.999745 
1.03504896e+3, 2.2517093e+2, -732755.6, -914562.3, -36317.582, 0.06478052, -0.038051885, -725769.3, 7554.3945, 0.0, 10.000765, 9.998359 
1.03506394e+3, 2.3516978e+2, -669073.7, -839049.94, -66034.77, 0.12078565, -0.021362582, -646434.8, -11097.537, 0.0, 10.000552, 9.998308 
1.0350792e+3, 2.4516882e+2, -526224.6, -668475.2, -38371.89, 0.11778335, 0.038193207, -516534.06, 20812.242, 0.0, 10.00066, 9.998742 
1.0350947e+3, 2.5516772e+2, -366929.72, -547565.0, -7562.879, 0.06278256, 0.020155415, -366613.63, 72740.53, 0.0, 10.001098, 9.998694 
1.0351101e+3, 2.6516593e+2, -261408.23, -491077.78, -24426.508, 0.005868532, -0.00086984516, -258839.08, 82530.89, 0.00000000560088, 10.001345, 9.998297 
1.03512526e+3, 2.7516297e+2, -172362.92, -399190.2, 7586.305, -0.05252385, -0.15993257, -172109.48, 71288.62, 0.0000022721786, 10.001298, 9.998272 
1.03514194e+3, 2.8516132e+2, 2119.7104, -263401.0, 73740.29, -0.04952759, -0.14574243, 21224.236, 166636.4, 0.000031172072, 10.001791, 9.998305 
1.03516005e+3, 2.9516074e+2, 198390.67, -134594.45, 118831.664, -0.0057436093, -0.073104665, 236448.2, 283862.8, 0.00015322318, 10.002519, 9.998171 
1.03517555e+3, 3.0515763e+2, 157213.0, -329405.13, -50237.176, -0.023617996, -0.09808832, 162345.23, 162345.23, 0.00043103905, 10.002828, 9.996335 
1.03518955e+3, 3.1515476e+2, 168652.22, -164503.64, -56052.58, -0.009099582, -0.06147866, 177830.08, 177830.08, 0.00086192216, 10.002129, 9.997806 
1.04488865e+3, 1.2515397e+2, -1752167.6, -1659234.4, -9641.871, 0.10182624, 0.19728333, -1658244.5, 55257.152, 0.0003338259, 9.999309, 10.000704 
1.0449056e+3, 1.3515414e+2, -1813307.1, -1670107.0, 43020.082, 0.1466931, 0.13454835, -1658176.8, -42674.977, 0.00013404706, 9.99843, 10.000379 
1.044922e+3, 1.4515515e+2, -1740823.0, -1479135.0, 71141.99, 0.12116488, 0.16560726, -1461045.0, 56447.324, 0.000024406929, 9.997806, 10.001289 
1.0449383e+3, 1.5515716e+2, -1644983.3, -1381096.0, 36014.766, 0.05391031, 0.19411804, -1376269.1, 43202.875, 0.0000004785213, 9.997803, 10.001289 
1.04495384e+3, 1.6515751e+2, -1546744.5, -1384995.1, -16449.564, 0.02662192, 0.15257981, -1383339.1, -61872.945, 0.0, 9.998237, 10.000391 
1.04496926e+3, 1.7515598e+2, -1319361.1, -1228993.4, -20304.104, 0.05914908, -0.07223309, -1224641.0, -1163.4528, 0.0, 9.999149, 10.000346 
1.0449848e+3, 1.8515617e+2, -1181593.3, -1211727.1, 45797.71, 0.042800162, -0.033672523, -1148447.8, -22972.248, 0.0, 9.999846, 9.999454 
1.0450006e+3, 1.9515756e+2, -1004682.2, -1081961.8, 13421.224, -0.022264346, 0.1292086, -1002417.7, 25047.34, 0.0, 10.00041, 9.999404 
1.0450167e+3, 2.0515776e+2, -867419.06, -879474.56, 2611.7307, -0.022787202, 0.1780012, -866877.56, 62583.137, 0.0, 10.000312, 10.000169 
1.0450334e+3, 2.1515645e+2, -893695.56, -847805.0, -35121.62, 0.03833222, -0.0018992227, -828797.75, 2667.9944, 0.0, 9.999495, 10.000105 
1.0450494e+3, 2.251553e+2, -874294.7, -991075.5, -45325.99, 0.08999209, -0.02804178, -858767.0, -125291.86, 0.0, 9.999814, 9.998303 
1.04506485e+3, 2.351539e+2, -580788.5, -804131.5, -17872.563, 0.13175242, -0.027400358, -579367.4, 56124.895, 0.0, 10.001172, 9.998261 
1.0450808e+3, 2.4515279e+2, -344646.84, -595962.25, 62361.043, 0.14821853, 0.025142428, -330023.56, 207479.73, 0.0, 10.001949, 9.998636 
1.0450972e+3, 2.5515163e+2, -216786.13, -485794.94, 24685.867, 0.1484631, 0.012469937, -214539.56, 224972.02, 0.0, 10.002168, 9.9986105 
1.0451127e+3, 2.6514968e+2, -120117.24, -459377.66, -10318.431, 0.07726584, -0.0035860324, -119803.695, 221725.22, 0.0000000009945924, 10.002447, 9.998004 
1.0451271e+3, 2.7514642e+2, 9133.97, -350862.4, -60006.605, -0.055963047, -0.15945381, 18872.813, 262433.06, 0.0000020282196, 10.002666, 9.99797 
1.0451438e+3, 2.8514478e+2, 93564.8, -179008.13, 465.11353, -0.05840402, -0.14847402, 93565.586, 239139.78, 0.00002862313, 10.002248, 9.998662 
1.04516245e+3, 2.9514453e+2, 30936.77, -165270.34, -19673.814, 0.066656746, -0.08150985, 32890.03, 80462.766, 0.00014660136, 10.00117, 9.998596 
1.0451783e+3, 3.051418e+2, -1050.9122, -341586.66, -72220.1, 0.067436986, -0.118782535, 13632.267, 13632.267, 0.00042212423, 10.001449, 9.996918 
1.0451926e+3, 3.151395e+2, 265168.28, -73520.87, -21951.02, 0.07519332, -0.08185055, 266585.03, 266585.03, 0.00085377786, 10.002562, 9.998234 
1.0548867e+3, 1.2513746e+2, -1766220.0, -1689179.8, -94521.19, -0.10769886, 0.014915875, -1625631.0, 88023.03, 0.00039971265, 9.999326, 10.000483 
1.05490334e+3, 1.351378e+2, -1833938.0, -1705628.0, 26982.316, 0.028110392, -0.0030823506, -1700184.9, -84531.836, 0.00016604259, 9.998405, 10.000146 
1.0549193e+3, 1.4513865e+2, -1774433.9, -1541669.5, 47828.61, 0.021254964, 0.043297466, -1532224.9, -14578.338, 0.000032768716, 9.997775, 10.0008745 
1.0549372e+3, 1.5513995e+2, -1680978.3, -1449748.1, 52356.156, 0.12807666, 0.041131094, -1438445.8, -18810.568, 0.0000008393984, 9.99777, 10.000838 
1.0549531e+3, 1.6514146e+2, -1529985.1, -1339400.1, -1152.627, 0.08865392, 0.12359089, -1339393.1, -17773.111, 0.0, 9.998191, 10.000723 
1.0549675e+3, 1.7514277e+2, -1300962.4, -1185381.3, 30445.777, -0.05963065, 0.1465173, -1177851.9, 45753.547, 0.0, 9.999123, 10.000659 
1.05498366e+3, 1.8514234e+2, -1222651.0, -1271071.8, 45892.03, -0.091698505, 0.12642238, -1194974.8, -69366.52, 0.0, 9.999735, 9.9991 
1.0550013e+3, 1.9513996e+2, -1045795.56, -1141178.8, 50461.844, -0.015291313, -0.057009105, -1024054.56, 3576.3826, 0.0, 10.000291, 9.999057 
1.05501756e+3, 2.0513906e+2, -930562.2, -968654.8, -47678.305, -0.003239934, -0.074351, -898266.7, 31371.525, 0.0, 10.000131, 9.999646 
1.05503224e+3, 2.1513912e+2, -957239.56, -937370.6, -49074.074, -0.05463642, -0.06368746, -897235.56, -65600.46, 0.0, 9.999302, 9.99959 
1.0550482e+3, 2.2513898e+2, -830984.06, -844093.44, -9981.216, -0.029038062, -0.017764527, -825597.7, -91963.13, 0.0, 9.999576, 9.999419 
1.0550657e+3, 2.3513828e+2, -535499.0, -656413.3, 49060.37, 0.07118612, -0.06588491, -518097.4, 117542.984, 0.0, 10.000946, 9.999378 
1.05508275e+3, 2.45137e+2, -414898.1, -693455.75, 51780.582, 0.12431471, -0.05507061, -405584.1, 132068.05, 0.0, 10.001742, 9.998065 
1.0550995e+3, 2.5513488e+2, -285673.47, -584410.3, 47199.58, 0.13504937, -0.11071384, -278393.47, 161279.7, 0.0, 10.001976, 9.998025 
1.055115e+3, 2.6513296e+2, -211940.33, -607759.9, -18285.955, 0.04605095, -0.04596894, -211097.34, 130596.52, 0.000000000012280949, 10.002272, 9.997063 
1.0551292e+3, 2.7513093e+2, -81226.98, -495904.78, -27960.896, -0.14820947, 0.008252993, -79350.125, 164367.28, 0.0000016155456, 10.002484, 9.997056 
1.0551454e+3, 2.851293e+2, 74956.984, -182434.4, -52520.56, -0.15337028, 0.06563801, 85261.26, 230994.77, 0.000025306648, 10.0021, 9.998712 
1.0551637e+3, 2.9512763e+2, 15179.865, -168598.17, -29219.957, 0.02870196, -0.0156714, 19713.861, 67460.875, 0.00013793015, 10.001042, 9.998642 
1.05518006e+3, 3.051252e+2, 142087.44, -18813.05, -36291.05, 0.0679106, -0.13481523, 149894.1, 149894.1, 0.00040720604, 10.001339, 9.999185 
1.0551954e+3, 3.15125e+2, 364134.9, 198825.47, 70310.055, 0.017526615, -0.11937677, 389994.28, 389994.28, 0.0008331317, 10.002276, 10.000245 
1.0648847e+3, 1.2512071e+2, -2142124.0, -1832141.0, -132640.25, -0.08539887, -0.05093638, -1783133.0, -69318.19, 0.00047318285, 9.996611, 10.000804 
1.0649021e+3, 1.3512142e+2, -1865879.0, -1674606.6, -49364.8, 0.10019343, -0.07041499, -1662617.8, -46809.56, 0.00020250746, 9.998017, 10.000535 
1.06491745e+3, 1.4512217e+2, -1691224.4, -1552309.0, 31821.186, 0.03800032, -0.027873287, -1545366.6, -27564.766, 0.000042863663, 9.998552, 10.00044 
1.06493555e+3, 1.5512274e+2, -1581174.6, -1446839.6, -7121.9624, 0.15578324, -0.059164196, -1446463.0, -26664.395, 0.0000013547858, 9.998648, 10.000438 
1.0649518e+3, 1.651243e+2, -1464412.1, -1337524.5, -21021.602, 0.11853444, 0.05967221, -1334132.5, -12347.609, 0.0, 9.998757, 10.000473 
1.0649667e+3, 1.751264e+2, -1353798.0, -1237376.5, -72805.27, -0.035008766, 0.1932803, -1202371.9, 21392.887, 0.0, 9.99887, 10.000433 
1.0649833e+3, 1.8512593e+2, -1306635.1, -1287284.4, -21012.105, -0.060594514, 0.16644427, -1273827.0, -148058.92, 0.0, 9.999033, 9.999334 
1.0650015e+3, 1.9512266e+2, -1177247.1, -1179166.4, -7020.8535, 0.026677307, -0.1272025, -1171120.6, -143323.88, 0.0, 9.999264, 9.999295 
1.0650177e+3, 2.0512171e+2, -1007019.56, -1017657.8, -55492.902, 0.03511772, -0.15618053, -956591.44, -26786.652, 0.0, 9.999662, 9.99953 
1.06503226e+3, 2.151226e+2, -825230.1, -883772.4, -64927.65, -0.024973897, -0.0524862, -783280.5, 48516.18, 0.0, 10.00026, 9.99949 
1.0650484e+3, 2.2512273e+2, -676239.94, -752962.94, 17130.96, -0.006120843, 0.01760589, -672588.7, 61205.586, 0.0, 10.000557, 9.999575 
1.0650665e+3, 2.3512182e+2, -586190.5, -660449.5, -26149.61, 0.093757614, -0.06646091, -577906.3, 57894.504, 0.0, 10.000515, 9.999553 
1.0650841e+3, 2.4512051e+2, -544085.9, -773802.4, -16902.291, 0.13629067, -0.061436288, -542848.9, -5035.132, 0.0, 10.000928, 9.997906 
1.0651011e+3, 2.551184e+2, -328751.5, -628706.4, -26892.38, 0.12129482, -0.09281338, -326359.53, 113477.43, 0.0, 10.001761, 9.997836 
1.0651168e+3, 2.6511678e+2, -210907.3, -531870.44, -8697.733, 0.027233785, -0.020891735, -210671.77, 131182.67, 0.0, 10.00196, 9.997724 
1.0651311e+3, 2.7511546e+2, -186453.28, -465368.0, 50020.73, -0.13597117, 0.03356954, -177753.86, 66114.625, 0.00000091217555, 10.00144, 9.997753 
1.06514744e+3, 2.8511387e+2, -59275.96, -306070.84, 94039.6, -0.118353814, 0.084819496, -27527.1, 118356.91, 0.000020761427, 10.001421, 9.998195 
1.06516555e+3, 2.951115e+2, 102506.875, -184428.83, 38481.44, 0.085012555, -0.010001018, 107578.06, 155484.44, 0.00012637535, 10.00187, 9.998139 
1.0651822e+3, 3.0510908e+2, 263594.56, 82221.875, 7515.5005, 0.11995866, -0.12998332, 263905.47, 263905.47, 0.00038601994, 10.001992, 9.999557 
1.0651975e+3, 3.151091e+2, 268489.25, 190106.73, -85965.766, 0.06113717, -0.12742433, 323775.88, 323775.88, 0.0008001297, 10.001467, 10.000558 
1.0748822e+3, 1.2510344e+2, -2094908.0, -1713519.6, -83398.625, -0.08038166, -0.027673634, -1696080.3, 17906.785, 0.00055371417, 9.996547, 10.0016365 
1.0749014e+3, 1.3510498e+2, -1810474.5, -1546885.0, 9808.716, 0.19716775, -0.056538645, -1546520.5, 69446.68, 0.00024334127, 9.997976, 10.001424 
1.0749161e+3, 1.4510576e+2, -1714553.1, -1609201.1, 6339.1123, -0.0070514744, -0.038180824, -1608821.1, -90862.86, 0.00005483326, 9.998571, 10.000048 
1.07493274e+3, 1.5510555e+2, -1604670.5, -1502583.1, 12059.666, -0.021389551, -0.10997041, -1501177.9, -81215.625, 0.000002073113, 9.998665, 10.000054 
1.07494935e+3, 1.6510603e+2, -1531875.6, -1463018.0, -38600.883, -0.028435472, -0.03443585, -1445722.8, -123762.5, 0.0000000000166348, 9.998706, 9.999631 
1.0749662e+3, 1.7510688e+2, -1418717.1, -1357214.5, -51137.7, 0.0022106303, 0.052646033, -1328294.1, -104338.25, 0.0, 9.99881, 9.999636 
1.0749832e+3, 1.8510693e+2, -1268050.6, -1178461.0, -30224.086, -0.002618875, 0.078251936, -1169218.1, -43263.13, 0.0, 9.998915, 10.000135 
1.0750004e+3, 1.9510573e+2, -1141936.9, -1069816.3, 17061.871, -0.042196006, -0.090345114, -1065983.6, -38021.51, 0.0, 9.999115, 10.0001135 
1.07501686e+3, 2.0510581e+2, -1018024.6, -1000843.94, -54244.29, -0.043616127, -0.06664396, -954514.0, -24554.266, 0.0, 9.999487, 9.999736 
1.0750328e+3, 2.1510677e+2, -837990.1, -864606.75, -26903.281, -0.010648855, 0.020977667, -821283.5, 10668.044, 0.0, 10.000056, 9.999724 
1.0750496e+3, 2.251065e+2, -762891.3, -873656.5, 416.4727, 0.02645261, 0.07344668, -762889.75, -28935.1, 0.0, 10.000308, 9.998866 
1.075067e+3, 2.3510465e+2, -670461.8, -779631.9, -6457.41, 0.06407465, -0.032961298, -670081.2, -34108.918, 0.0, 10.000277, 9.998851 
1.07508436e+3, 2.4510334e+2, -570749.06, -771447.75, 924.972, 0.04741448, 0.0018189085, -570744.8, -32757.65, 0.0, 10.000689, 9.998031 
1.0751017e+3, 2.551022e+2, -343254.03, -612198.75, 24525.043, -0.026403712, 0.04670902, -341035.88, 98967.125, 0.0, 10.001564, 9.998038 
1.0751178e+3, 2.651012e+2, -95263.766, -241398.36, -44909.58, -0.09905981, 0.06289433, -82565.69, 259444.9, 0.000000000031670343, 10.00175, 9.999823 
1.0751326e+3, 2.7509993e+2, -68614.74, -183552.95, 52562.555, -0.17254673, -0.08190101, -48202.4, 195811.98, 0.00000057346807, 10.00128, 9.999773 
1.0751492e+3, 2.8509837e+2, -145353.98, -458981.22, 90417.65, -0.11347613, -0.07185664, -121154.164, 24872.588, 0.000016841232, 10.00131, 9.997193 
1.0751677e+3, 2.9509628e+2, 12373.802, -335831.9, 79228.04, 0.070831805, -0.048020728, 29553.164, 77603.51, 0.000114238224, 10.001716, 9.997173 
1.07518405e+3, 3.0509332e+2, 147382.2, -138032.5, -17443.977, 0.07508785, -0.09607104, 148444.4, 148444.4, 0.0003625103, 10.001902, 9.998087 
1.0751981e+3, 3.1509167e+2, 131514.39, -57083.266, -41894.074, -0.10477629, -0.11969696, 140401.72, 140401.72, 0.00076317973, 10.0013, 9.998946 
1.0848802e+3, 1.2508605e+2, -1823967.5, -1588836.1, 38846.137, -0.0050122906, -0.015076042, -1582584.6, 131574.23, 0.00064071716, 9.998377, 10.001638 
1.08489975e+3, 1.3508776e+2, -1760959.1, -1518561.4, -49581.18, 0.24236897, -0.030634588, -1508812.0, 107324.23, 0.00028839763, 9.998269, 10.001493 
1.0849144e+3, 1.4508848e+2, -1764148.9, -1619995.6, -31255.945, -0.0064065754, -0.023331, -1613510.4, -95383.664, 0.00006873226, 9.998221, 10.0001135 
1.08493105e+3, 1.550884e+2, -1590037.3, -1487786.3, -39431.766, -0.057650506, -0.088359006, -1474346.4, -54217.676, 0.0000030594845, 9.998757, 10.000095 
1.0849481e+3, 1.6508844e+2, -1498886.4, -1471143.6, -23620.574, -0.034713805, -0.05152932, -1457622.6, -135491.75, 0.000000000186287, 9.999031, 9.999417 
1.0849657e+3, 1.7508829e+2, -1393463.1, -1370866.3, -28340.926, 0.07289221, -0.04345767, -1351654.6, -127518.52, 0.0, 9.999087, 9.999407 
1.08498305e+3, 1.8508847e+2, -1212615.8, -1124475.4, 33825.363, 0.08598035, -0.006091917, -1112990.8, 13143.425, 0.0, 9.999177, 10.000388 
1.0849999e+3, 1.9508858e+2, -1102362.8, -1021689.1, 3700.2012, 0.004800181, -0.06645915, -1021519.75, 6609.2974, 0.0, 9.999277, 10.000367 
1.0850166e+3, 2.0508903e+2, -1016278.6, -993553.2, -49047.703, -0.010067995, -0.018051343, -954569.25, -24446.064, 0.0, 9.999486, 9.999776 
1.08503304e+3, 2.1508943e+2, -876234.4, -880411.2, -75724.61, 0.03341819, 0.0102896895, -802569.4, 29551.162, 0.0, 9.999797, 9.999735 
1.0850503e+3, 2.2508897e+2, -780532.9, -903051.6, -10074.214, 0.07235786, 0.054557152, -779710.06, -45583.6, 0.0, 10.000279, 9.998684 
1.085068e+3, 2.3508734e+2, -593260.7, -764248.7, -20547.248, 0.107653074, -0.008680514, -590826.2, 45317.797, 0.0, 10.000898, 9.998667 
1.0850852e+3, 2.450863e+2, -514223.16, -679641.1, 46199.06, 0.06596966, 0.031841703, -502195.0, 35961.086, 0.0, 10.000777, 9.998638 
1.085102e+3, 2.550855e+2, -559328.44, -647378.56, 71737.18, -0.047980856, 0.05330815, -519184.47, -79018.31, 0.0, 9.999787, 9.998662 
1.08511865e+3, 2.6508477e+2, -372925.97, -364042.25, -8789.739, -0.08112598, 0.0616649, -358635.78, -16465.348, 0.000000020287489, 9.999791, 9.999916 
1.0851349e+3, 2.7508372e+2, -137145.13, -208553.78, -98161.8, -0.03374345, -0.07559783, -68395.93, 175777.75, 0.0000009682407, 10.000764, 9.999848 
1.0851519e+3, 2.850822e+2, -86463.195, -413546.8, -39300.402, 0.017552337, -0.074892126, -81807.37, 64378.246, 0.000016002106, 10.001651, 9.997337 
1.0851698e+3, 2.9507998e+2, 108856.48, -264321.94, -14801.918, 0.09062371, -0.07277825, 109442.67, 157650.81, 0.00010691048, 10.00229, 9.99738 
1.0851863e+3, 3.0507684e+2, 216807.77, -177378.06, -27565.668, 0.0783355, -0.117009394, 218726.13, 218726.13, 0.00034615427, 10.002705, 9.997447 
1.0852009e+3, 3.1507492e+2, 270613.13, -69457.22, -59652.99, -0.008870176, -0.09180388, 280773.5, 280773.5, 0.00073994894, 10.0026245, 9.998232 
1.0948787e+3, 1.250686e+2, -1868115.8, -1678421.1, 52725.457, -0.0723182, -0.014141438, -1664751.1, 49578.336, 0.000734217, 9.998364, 10.001034 
1.0948967e+3, 1.3507001e+2, -1803050.5, -1616656.5, -44896.402, 0.08287417, 0.0076286634, -1606406.1, 9906.405, 0.00033773432, 9.998299, 10.0008135 
1.0949118e+3, 1.4507052e+2, -1741622.0, -1565070.8, -35143.71, -0.13139893, 0.009137657, -1558332.4, -40026.406, 0.0000845864, 9.998193, 10.000502 
1.09492965e+3, 1.5507135e+2, -1572878.5, -1435178.4, -1508.0227, -0.10016937, -0.0016076046, -1435161.9, -14863.812, 0.0000043925156, 9.998694, 10.0004835 
1.0949474e+3, 1.6507158e+2, -1471330.9, -1411919.3, -42544.32, -0.048000496, 0.01286306, -1389736.3, -67440.086, 0.0000000006358386, 9.999011, 9.999839 
1.0949648e+3, 1.7507064e+2, -1364622.8, -1312412.4, -8684.3, 0.041206673, -0.09856046, -1311005.8, -86700.42, 0.0, 9.999078, 9.999819 
1.0949823e+3, 1.8507068e+2, -1246306.5, -1175725.3, 16696.387, 0.06322333, -0.078235835, -1171974.9, -45670.664, 0.0, 9.999102, 10.000069 
1.09499976e+3, 1.9507134e+2, -1143649.8, -1073041.1, 25832.695, 0.029121572, -0.05485581, -1064599.4, -36303.06, 0.0, 9.999134, 10.00008 
1.09501645e+3, 2.0507142e+2, -1056813.8, -1040178.9, -55997.785, -0.0021856187, -0.019219965, -991884.2, -61589.117, 0.0, 9.999316, 9.99954 
1.0950325e+3, 2.1507058e+2, -920075.2, -926926.1, -47352.477, -0.033126492, -0.092319734, -876024.44, -43720.445, 0.0, 9.9995985, 9.999514 
1.0950499e+3, 2.2507015e+2, -804088.1, -895453.94, -6258.142, -0.0061700554, -0.04374476, -803661.44, -69351.09, 0.0, 10.000039, 9.99885 
1.09506875e+3, 2.3506969e+2, -615283.1, -753876.75, 19254.896, 0.07630174, -0.008793111, -612657.75, 23660.467, 0.0, 10.000655, 9.998854 
1.09508604e+3, 2.4506924e+2, -470071.66, -530529.4, -8927.004, 0.046054658, 0.023377178, -468781.06, 69541.29, 0.0, 10.000539, 9.999772 
1.0951017e+3, 2.5506842e+2, -511448.88, -499902.66, 53946.617, -0.08872491, -0.07283875, -451421.13, -11094.955, 0.0, 9.999585, 9.999768 
1.0951189e+3, 2.650678e+2, -533403.2, -651814.5, 13795.705, -0.059383303, -0.015238345, -531817.1, -189485.05, 0.00000010014453, 9.9996, 9.99803 
1.0951376e+3, 2.750668e+2, -287041.5, -488155.88, -35528.6, 0.124150954, 0.048145756, -280949.6, -36604.324, 0.0000018117424, 10.000623, 9.997998 
1.0951549e+3, 2.8506505e+2, -26899.861, -254968.5, -30939.852, 0.12379927, 0.058256008, -22777.08, 123584.44, 0.000017402066, 10.001505, 9.998491 
1.0951713e+3, 2.950623e+2, 164645.5, -112190.69, 31233.45, -0.034088198, -0.116061725, 168125.61, 216508.25, 0.00010435712, 10.00213, 9.998502 
1.0951881e+3, 3.050594e+2, 195045.77, -181638.72, -46987.016, -0.030817945, -0.19241367, 200818.39, 200818.39, 0.00033796718, 10.002543, 9.997488 
1.0952047e+3, 3.150585e+2, 231220.83, -100402.77, -9031.761, 0.037260793, -0.07025493, 231466.63, 231466.63, 0.00073108607, 10.002402, 9.99813 
1.1048778e+3, 1.2505122e+2, -2053765.0, -1783841.3, 165987.28, 0.08598243, -0.004038711, -1704872.1, 9624.233, 0.00083503575, 9.997197, 10.00083 
1.10489406e+3, 1.3505201e+2, -1829766.3, -1653367.4, -15246.087, 0.0014539107, -0.025834331, -1652059.4, -35572.215, 0.0003918232, 9.998237, 10.000569 
1.1049104e+3, 1.4505237e+2, -1700103.5, -1557093.8, 26637.316, -0.090964824, -0.029147308, -1552293.4, -33809.957, 0.000102570426, 9.998487, 10.000439 
1.1049292e+3, 1.5505353e+2, -1645171.4, -1479417.0, -7085.802, 0.015992565, 0.001207476, -1479114.6, -58642.03, 0.0000061708192, 9.998204, 10.000434 
1.1049469e+3, 1.6505395e+2, -1548602.9, -1412370.5, -14072.455, 0.04841119, 0.023697622, -1410932.1, -88463.94, 0.0000000015512864, 9.99834, 10.000144 
1.1049637e+3, 1.7505325e+2, -1336121.6, -1257433.0, -29839.395, 0.029511899, -0.10030205, -1247397.6, -22923.438, 0.0, 9.9991255, 10.000154 
1.1049813e+3, 1.8505338e+2, -1208983.0, -1191980.8, 10831.245, 0.048307095, -0.073553145, -1186712.9, -60240.17, 0.0, 9.99951, 9.999757 
1.1049996e+3, 1.9505389e+2, -1115012.9, -1093563.0, -17503.314, 0.1009745, -0.033179976, -1083760.1, -55292.016, 0.0, 9.999477, 9.999772 
1.1050167e+3, 2.0505367e+2, -1027715.25, -1043376.6, -46794.15, 0.084441, -0.006163909, -988101.06, -57630.53, 0.0, 9.999577, 9.999403 
1.1050325e+3, 2.1505234e+2, -887693.94, -927350.9, -68059.29, -0.004088603, -0.11066378, -836633.5, -4150.2197, 0.0, 9.999872, 9.999386 
1.1050499e+3, 2.2505192e+2, -798590.9, -861838.75, 15728.08, 0.00011203633, -0.0679343, -794895.6, -60406.58, 0.0, 9.99995, 9.999113 
1.1050691e+3, 2.35052e+2, -718252.7, -771568.94, 13081.992, 0.09506033, -0.0072187195, -715215.8, -78724.1, 0.0, 9.999825, 9.99912 
1.10508665e+3, 2.4505182e+2, -517859.56, -536544.8, -27132.691, 0.08763425, 0.03218198, -498506.06, 39986.68, 0.0, 10.000152, 9.999903 
1.1051027e+3, 2.5505105e+2, -304745.44, -385656.88, -83976.586, -0.0116839, -0.07233025, -251987.78, 188507.75, 0.0, 10.000944, 9.999886 
1.1051201e+3, 2.6505017e+2, -289439.78, -571841.6, -45322.99, 0.016447637, -0.027397059, -282344.13, 60159.98, 0.00000018749917, 10.001427, 9.997711 
1.105139e+3, 2.7504882e+2, -181882.25, -468532.84, -20659.484, 0.17240962, 0.031402644, -180400.94, 64121.46, 0.0000025365616, 10.00149, 9.997717 
1.1051568e+3, 2.8504714e+2, -14072.625, -223013.28, 38613.023, 0.16644128, 0.052321132, -7165.15, 139373.53, 0.000019295574, 10.00147, 9.998746 
1.10517345e+3, 2.9504496e+2, 54435.617, -141710.05, -6986.585, 0.033303373, -0.08637242, 54684.16, 103239.14, 0.00010487227, 10.001264, 9.998731 
1.1051908e+3, 3.0504256e+2, 148146.2, -169673.28, -46891.64, 0.025073418, -0.13980873, 154920.3, 154920.3, 0.00033641586, 10.00202, 9.9978285 
1.1052078e+3, 3.1504217e+2, 371604.84, 17901.646, -46282.863, 0.08640796, -0.013935552, 377560.75, 377560.75, 0.0007307893, 10.003146, 9.998565 
1.11487634e+3, 1.2503451e+2, -2049063.6, -1773301.4, 155269.8, 0.12446154, 0.026013948, -1703529.1, 11124.012, 0.000944546, 9.997199, 10.000905 
1.11489125e+3, 1.3503388e+2, -1833077.3, -1661917.1, 40483.742, -0.14299071, -0.13068117, -1652824.6, -36165.633, 0.00045159098, 9.998235, 10.00052 
1.1149098e+3, 1.4503399e+2, -1723269.9, -1601964.8, -9704.972, -0.050868187, -0.14022797, -1601193.3, -82534.305, 0.00012308804, 9.998482, 10.000131 
1.1149291e+3, 1.5503512e+2, -1673686.1, -1533247.9, -2513.071, 0.14725827, -0.07902754, -1533203.0, -112552.85, 0.000008505592, 9.998185, 10.000073 
1.11494616e+3, 1.6503584e+2, -1543958.3, -1394446.5, -7039.1187, 0.10580324, -0.013485448, -1394115.9, -71471.49, 0.0000000033697685, 9.998296, 10.000297 
1.1149619e+3, 1.7503615e+2, -1328099.5, -1235255.1, 16765.775, -0.10697337, -0.049351264, -1232320.4, -7678.429, 0.0, 9.999086, 10.000339 
1.1149796e+3, 1.8503647e+2, -1241461.4, -1242223.3, -9304.42, -0.111158796, 0.0024858285, -1232530.1, -105889.97, 0.0, 9.999434, 9.999449 
1.1149991e+3, 1.9503632e+2, -1160262.3, -1153254.3, -3382.902, 0.07298843, 0.007985747, -1151887.6, -123244.02, 0.0, 9.999334, 9.99943 
1.1150167e+3, 2.050359e+2, -1054642.5, -1061008.4, -58929.19, 0.10333743, 0.035831574, -998810.3, -68162.07, 0.0, 9.999413, 9.999356 
1.11503236e+3, 2.1503475e+2, -925323.0, -951295.5, -39670.742, -0.021058952, -0.05098652, -896567.06, -63908.9, 0.0, 9.99964, 9.999331 
1.1150497e+3, 2.2503437e+2, -802985.9, -820298.0, -6246.1787, -0.049569514, -0.019493371, -800967.56, -66305.64, 0.0, 9.999737, 9.9995 
1.1150685e+3, 2.3503444e+2, -726156.2, -732162.3, 26367.166, 0.028114643, 0.0019253845, -702621.6, -65958.7, 0.0, 9.999587, 9.999507 
1.1150867e+3, 2.4503419e+2, -616182.7, -690331.44, -12689.836, 0.051160257, 0.06165181, -614071.1, -75404.96, 0.0, 9.999931, 9.998954 
1.11510426e+3, 2.5503322e+2, -400464.8, -540497.56, -32810.88, 0.025258671, 0.033392876, -393158.2, 47517.17, 0.0, 10.000748, 9.9989195 
1.1151216e+3, 2.6503187e+2, -236199.28, -417659.3, -59594.844, -0.0065731425, 0.018130457, -218377.55, 124309.97, 0.00000020790911, 10.00124, 9.9988575 
1.1151387e+3, 2.7502966e+2, -121898.016, -309375.03, 4588.852, -0.039693303, -0.1278376, -121785.76, 122920.664, 0.0000030041283, 10.001331, 9.998888 
1.11515686e+3, 2.8502858e+2, -86412.56, -325399.25, 14370.336, 0.0050186836, -0.07852092, -85551.57, 61165.31, 0.000021785861, 10.001279, 9.998128 
1.115176e+3, 2.95028e+2, -12760.1, -243999.0, 16611.432, 0.113386676, 0.013532438, -11572.885, 37151.066, 0.00010887074, 10.001106, 9.998102 
1.11519374e+3, 3.0502632e+2, 169167.08, -90253.9, -12312.695, 0.0897212, 0.031239845, 169750.14, 169750.14, 0.00034133886, 10.001874, 9.99844 
1.1152092e+3, 3.1502554e+2, 374581.94, 84322.03, 64597.086, -0.1630902, 0.057571854, 388308.8, 388308.8, 0.0007375019, 10.00288, 9.999154 
1.1248754e+3, 1.2501542e+2, -1957965.8, -1717029.4, 61567.38, 0.2992529, -0.035932194, -1702208.5, 12628.649, 0.0010643419, 9.997764, 10.001036 
1.12488925e+3, 1.3501537e+2, -1850104.1, -1651089.8, -52779.754, -0.1366831, -0.1488737, -1637958.6, -21119.34, 0.00051804923, 9.998042, 10.0006895 
1.12490945e+3, 1.4501593e+2, -1746026.6, -1582905.9, -41986.563, 0.08469387, -0.13318881, -1572733.1, -53898.406, 0.00014661087, 9.998192, 10.000398 
1.124928e+3, 1.5501674e+2, -1608460.1, -1466928.6, -33310.395, 0.21298642, -0.13702965, -1459480.8, -38653.223, 0.00001150662, 9.998491, 10.000369 
1.1249449e+3, 1.6501768e+2, -1516518.9, -1400834.4, 33775.58, 0.14667627, -0.05827056, -1391695.1, -68874.9, 0.0000000061074554, 9.99857, 10.000119 
1.1249609e+3, 1.750186e+2, -1418907.6, -1295591.4, -5703.051, -0.066338286, -0.015366494, -1295328.1, -70513.86, 0.0, 9.998545, 10.000179 
1.1249789e+3, 1.8501894e+2, -1334513.3, -1304479.6, -6484.663, -0.08354274, 0.053648006, -1303139.3, -176325.81, 0.0, 9.99887, 9.999298 
1.1249984e+3, 1.9501813e+2, -1133689.5, -1165321.8, -22171.652, 0.0721368, 0.009784644, -1122270.9, -93447.39, 0.0, 9.99959, 9.999242 
1.1250165e+3, 2.0501764e+2, -966163.06, -1002850.25, -31627.63, 0.11389605, 0.03496994, -947944.44, -17115.807, 0.0, 9.999977, 9.999475 
1.1250328e+3, 2.1501707e+2, -837758.4, -890796.1, -43212.914, 0.04653334, -0.0062591373, -813576.06, 19257.01, 0.0, 10.000185, 9.999475 
1.1250502e+3, 2.2501671e+2, -731875.75, -786896.0, 3566.0376, 0.012941866, 0.019698206, -731645.56, 3190.5007, 0.0, 10.000207, 9.999517 
1.12506814e+3, 2.3501636e+2, -639778.75, -688084.3, -27041.615, 0.018699562, -0.0011685492, -627674.06, 9165.927, 0.0, 10.000151, 9.999544 
1.12508655e+3, 2.4501592e+2, -596728.0, -693902.7, 6314.172, 0.046776578, 0.044235207, -596319.44, -57474.645, 0.0, 10.000132, 9.998833 
1.1251053e+3, 2.5501508e+2, -496131.34, -598138.7, 12154.271, 0.09899859, 0.041799366, -494703.16, -53849.44, 0.0, 10.000163, 9.998806 
1.1251232e+3, 2.6501372e+2, -339979.47, -440890.06, 13576.688, 0.0866499, 0.02626158, -338184.75, 4680.43, 0.00000016860811, 10.000423, 9.999087 
1.1251403e+3, 2.750115e+2, -168646.63, -305607.56, -33443.945, 0.01536056, -0.1438917, -160916.39, 83966.97, 0.0000038179373, 10.000913, 9.999105 
1.12515844e+3, 2.8501043e+2, -65198.715, -356733.44, -10564.505, 0.0285393, -0.085019134, -64816.383, 82077.87, 0.000026510976, 10.001586, 9.997764 
1.1251776e+3, 2.9501006e+2, 128400.66, -208690.78, -33790.785, 0.12439749, 0.05480508, 131754.55, 180656.48, 0.00011807009, 10.002227, 9.997791 
1.1251959e+3, 3.050082e+2, 228709.36, -55308.684, -33334.93, 0.112807564, 0.06603634, 232569.38, 232569.38, 0.0003550206, 10.002278, 9.998488 
1.1252123e+3, 3.15007e+2, 157704.38, -19852.227, -62000.82, -0.05219606, 0.05637937, 177211.28, 177211.28, 0.0007557848, 10.001381, 9.999176 
1.1348717e+3, 1.24993324e+2, -1945962.0, -1688375.0, -76828.41, 0.07650269, -0.24762203, -1667200.6, 47854.234, 0.0011953667, 9.997769, 10.001219 
1.13488756e+3, 1.3499647e+2, -1819543.0, -1579610.1, -30970.969, -0.15268148, -0.08633448, -1575676.8, 41351.53, 0.00059164723, 9.998017, 10.001189 
1.1349086e+3, 1.4499854e+2, -1680239.8, -1441714.6, -51101.234, 0.13518278, 0.0017390628, -1431227.9, 87780.31, 0.00017336896, 9.998173, 10.001379 
1.13492526e+3, 1.5499873e+2, -1541243.6, -1325442.3, -540.7546, 0.0652713, -0.15711094, -1325440.9, 95560.7, 0.000015247707, 9.998479, 10.00135 
1.1349425e+3, 1.6499963e+2, -1557732.6, -1482079.3, 11124.126, 0.004524474, -0.10530915, -1480477.5, -157483.55, 0.000000009421829, 9.998551, 9.99957 
1.1349606e+3, 1.7500073e+2, -1462972.3, -1383083.4, 7212.752, 0.0033669914, 0.012118884, -1382437.4, -157447.56, 0.0, 9.998526, 9.999587 
1.1349789e+3, 1.8500079e+2, -1340347.4, -1299837.0, -615.6272, -0.00959379, 0.07956718, -1299827.6, -172834.75, 0.0, 9.998795, 9.999371 
1.13499716e+3, 1.9499943e+2, -1152468.0, -1163411.4, 22927.33, -0.045990016, -0.028950289, -1134368.5, -105362.016, 0.0, 9.999412, 9.999344 
1.1350153e+3, 2.0499903e+2, -982034.25, -994328.5, -43810.68, -0.025699425, -0.00594513, -943941.56, -12931.224, 0.0, 9.999797, 9.999621 
1.1350336e+3, 2.1499929e+2, -863391.7, -887864.8, -21077.22, 0.06841952, 0.024171535, -851256.5, -18248.75, 0.0, 9.999945, 9.999613 
1.1350509e+3, 2.2499898e+2, -786481.1, -849286.3, -19440.463, 0.050924625, 0.06443437, -780950.6, -45939.92, 0.0, 9.999982, 9.999198 
1.13506764e+3, 2.3499772e+2, -700625.6, -757640.7, -11066.946, -0.07942757, -0.018047955, -698552.8, -61529.758, 0.0, 9.9999, 9.99919 
1.1350857e+3, 2.4499702e+2, -582935.94, -614128.1, -9735.622, -0.08035468, -0.012982998, -580146.7, -41117.926, 0.0, 9.999912, 9.999484 
1.1351055e+3, 2.5499657e+2, -474421.13, -512373.88, 31500.021, 0.06844583, -0.04305801, -456623.13, -15592.596, 0.0, 9.999982, 9.999484 
1.1351245e+3, 2.6499584e+2, -409446.06, -551058.44, 16048.459, 0.15481304, 0.00037484465, -407650.13, -64613.09, 0.00000020663475, 10.000274, 9.998407 
1.13514304e+3, 2.7499428e+2, -241070.16, -425802.75, 9498.938, 0.17397805, -0.031203482, -240583.02, 4470.903, 0.0000055002247, 10.000772, 9.998354 
1.1351608e+3, 2.8499264e+2, -99580.49, -385248.75, -5014.234, 0.07782674, 0.016373111, -99492.51, 47579.395, 0.000033703815, 10.001415, 9.9976425 
1.135178e+3, 2.949908e+2, 92463.01, -238068.53, 14438.807, -0.10658948, 0.019729953, 93092.55, 142184.56, 0.00013271971, 10.0020275, 9.997687 
1.1351967e+3, 3.0498797e+2, 163888.45, -137315.3, -78459.52, -0.06091172, -0.037913587, 183100.66, 183100.66, 0.00037893685, 10.002064, 9.998026 
1.1352156e+3, 3.149865e+2, 94733.42, -94608.15, -41870.95, 0.06365575, -0.026650658, 103579.47, 103579.47, 0.00079122034, 10.001142, 9.998777 
1.1448698e+3, 1.2497546e+2, -1999678.5, -1734344.3, 27571.7, 0.13457198, -0.22166713, -1731509.5, -16278.075, 0.0013373722, 9.997457, 10.001072 
1.1448864e+3, 1.3497864e+2, -1841359.1, -1588864.8, 72949.75, -0.038405895, -0.06368638, -1569303.8, 47900.293, 0.000672049, 9.997826, 10.001237 
1.14490725e+3, 1.4498065e+2, -1704735.5, -1448889.5, 42617.91, 0.20608497, 0.015551665, -1441977.1, 77206.74, 0.0002032588, 9.998008, 10.001398 
1.14492334e+3, 1.5498091e+2, -1577577.5, -1341697.1, -32273.998, 0.044892557, -0.1354444, -1337361.0, 83815.73, 0.000019742625, 9.998244, 10.001347 
1.14494056e+3, 1.649815e+2, -1573270.6, -1510693.4, -5246.584, -0.030182293, -0.101878844, -1510256.6, -187084.88, 0.000000013934886, 9.998536, 9.999386 
1.1449593e+3, 1.7498203e+2, -1405606.5, -1371261.4, -11240.378, 0.017210566, -0.026095152, -1367909.8, -142736.67, 0.0, 9.998997, 9.999439 
1.14497826e+3, 1.8498203e+2, -1249551.1, -1215680.8, 50259.39, 0.042329885, 0.025980461, -1179580.0, -52404.52, 0.0, 9.999254, 9.999714 
1.1449971e+3, 1.9498117e+2, -1143839.0, -1108481.8, 51377.477, 0.024920972, -0.06853189, -1071826.4, -42644.207, 0.0, 9.999291, 9.999752 
1.14501536e+3, 2.0498097e+2, -1058071.8, -1065477.3, 11110.674, 0.038108002, -0.03437906, -1050063.1, -118878.81, 0.0, 9.999392, 9.999344 
1.1450335e+3, 2.1498103e+2, -932453.4, -949847.06, -25648.525, 0.095778294, 0.0014553646, -914067.4, -80881.92, 0.0, 9.999567, 9.999379 
1.14505105e+3, 2.2498067e+2, -818909.0, -875723.94, 6506.389, 0.07820237, 0.05156976, -818173.44, -82983.51, 0.0, 9.999834, 9.999075 
1.1450681e+3, 2.3497944e+2, -657460.5, -743010.7, -11711.3545, -0.020472392, -0.016005576, -655886.25, -18684.615, 0.0, 10.000246, 9.999113 
1.1450865e+3, 2.4497844e+2, -494662.44, -598876.4, 2627.9988, -0.0093475105, -0.024766726, -494596.22, 44613.62, 0.0, 10.000617, 9.999256 
1.1451063e+3, 2.5497746e+2, -338644.3, -463640.13, -54853.71, 0.1258139, -0.088007286, -317986.22, 123230.484, 0.0, 10.000996, 9.999323 
1.1451257e+3, 2.6497677e+2, -274344.3, -515498.88, -44478.566, 0.20409907, -0.020931717, -266402.25, 76821.875, 0.00000038376965, 10.001311, 9.998156 
1.1451446e+3, 2.749759e+2, -148153.31, -403691.6, -54679.28, 0.22699283, 0.037238374, -136944.84, 108292.19, 0.0000075917305, 10.001505, 9.998152 
1.1451625e+3, 2.849744e+2, -62500.742, -334569.66, 5475.593, 0.11205635, 0.09532738, -62390.586, 84863.21, 0.000041535674, 10.001524, 9.997945 
1.1451796e+3, 2.9497224e+2, -353.26215, -245074.5, 12974.207, -0.09536005, 0.036538247, 332.6594, 49607.797, 0.00014998692, 10.001237, 9.998017 
1.1451987e+3, 3.0496925e+2, 103677.69, -180701.86, -14887.468, -0.024393545, -0.047752913, 104454.93, 104454.93, 0.00040888134, 10.001674, 9.997924 
1.1452184e+3, 3.1496802e+2, 266972.72, -7620.0444, -23884.723, 0.19458333, -0.0065564313, 269034.78, 269034.78, 0.0008408799, 10.002323, 9.998792 
1.15486644e+3, 1.2496142e+2, -2020725.6, -1765661.4, -67205.14, -0.0039652027, -0.015047246, -1749037.4, -33666.477, 0.001489488, 9.997413, 10.000871 
1.1548855e+3, 1.3496214e+2, -1863191.4, -1629560.1, 104557.28, 0.04960814, -0.07522677, -1589601.6, 27761.857, 0.00075867696, 9.997814, 10.000952 
1.1549049e+3, 1.449623e+2, -1787180.3, -1626283.1, 30250.383, 0.12061681, -0.107207574, -1620783.8, -101421.766, 0.0002361324, 9.998017, 10.000189 
1.1549215e+3, 1.5496314e+2, -1653850.5, -1508602.5, -7941.3945, -0.0054635024, -0.082765445, -1508169.6, -86815.445, 0.000024990082, 9.998265, 10.000199 
1.1549386e+3, 1.6496329e+2, -1550910.1, -1458926.8, -8466.58, -0.12011162, -0.0546593, -1458153.9, -134800.13, 0.000000023716384, 9.998521, 9.9997425 
1.1549569e+3, 1.7496255e+2, -1391719.8, -1326002.3, 24539.793, -0.16659673, -0.13946958, -1317850.0, -92487.14, 0.0, 9.998934, 9.999774 
1.1549767e+3, 1.8496275e+2, -1228680.9, -1153105.0, 31859.223, -0.078355014, -0.107299045, -1141466.9, -14106.641, 0.0, 9.999171, 10.000182 
1.1549978e+3, 1.9496341e+2, -1128918.0, -1048381.56, 65862.19, 0.12914303, -0.101051934, -1011452.9, 17897.496, 0.0, 9.999162, 10.000229 
1.1550162e+3, 2.0496345e+2, -1114727.8, -1144380.0, -7318.0635, 0.1480336, -0.04549873, -1113020.1, -181669.44, 0.0, 9.999223, 9.998882 
1.1550322e+3, 2.1496242e+2, -1000128.4, -1038373.5, -2569.5063, -0.013280088, -0.071162306, -999956.5, -166591.34, 0.0, 9.999334, 9.998886 
1.15504995e+3, 2.2496183e+2, -853242.0, -893231.44, 3344.0562, -0.043853387, -0.017574184, -852964.3, -117591.305, 0.0, 9.999603, 9.999065 
1.1550695e+3, 2.3496136e+2, -691916.25, -763750.1, 20769.525, 0.05661115, -0.0076148733, -686343.44, -48966.51, 0.0, 10.000028, 9.999078 
1.1550888e+3, 2.449601e+2, -594667.6, -755541.0, -5598.1465, 0.118080564, 0.008567202, -594473.06, -55084.137, 0.0, 10.000396, 9.998287 
1.1551077e+3, 2.549577e+2, -438489.88, -627012.0, -23545.148, 0.13103272, -0.09961409, -435593.75, 5818.6787, 0.0, 10.000793, 9.998302 
1.15512624e+3, 2.6495644e+2, -290253.44, -499502.6, -51434.27, 0.099254, -0.045628324, -278294.22, 65132.496, 0.0000005356376, 10.001108, 9.998357 
1.1551444e+3, 2.7495608e+2, -156517.64, -377286.75, -23920.322, 0.020905402, 0.040067755, -153955.61, 91479.14, 0.000008957139, 10.001315, 9.998425 
1.155163e+3, 2.8495562e+2, -34352.3, -231342.55, -20637.088, -0.02169711, 0.1432876, -32213.54, 115227.03, 0.000047577858, 10.001336, 9.998742 
1.1551819e+3, 2.9495442e+2, 33400.844, -153936.83, 31768.05, -0.036738288, 0.10209311, 38641.36, 88091.74, 0.00016516355, 10.001128, 9.998704 
1.1552014e+3, 3.0495188e+2, 78006.336, -181866.95, -2288.6401, 0.045610238, 0.028454043, 78026.484, 78026.484, 0.00043860512, 10.001473, 9.997997 
1.15521975e+3, 3.1495085e+2, 238780.75, -4474.176, 58080.992, 0.015512992, 0.07730442, 251936.98, 251936.98, 0.0008954558, 10.002056, 9.998938 
1.1648634e+3, 1.2494429e+2, -2145735.5, -1795138.0, -109271.586, 0.011845248, 0.04348162, -1763869.8, -48328.566, 0.0016512593, 9.996423, 10.001137 
1.1648841e+3, 1.3494436e+2, -1840666.4, -1620195.5, 14291.696, 0.13830397, -0.07372366, -1619272.9, -1735.7853, 0.0008513687, 9.997995, 10.000922 
1.16490245e+3, 1.4494394e+2, -1743219.0, -1666298.0, -12954.026, 0.05816031, -0.13473007, -1664175.0, -144633.63, 0.00027198074, 9.998595, 9.999624 
1.1649202e+3, 1.5494494e+2, -1664467.9, -1578293.4, -47186.63, 0.04051099, -0.03887829, -1557481.5, -135946.44, 0.00003101119, 9.998475, 9.999614 
1.164938e+3, 1.6494508e+2, -1525196.1, -1427496.9, 14646.634, -0.030699437, 0.008137304, -1425348.4, -101813.15, 0.00000004774233, 9.998609, 9.999921 
1.1649563e+3, 1.749441e+2, -1364155.4, -1298387.8, -4672.115, -0.10924611, -0.114124164, -1298057.5, -72513.29, 0.0, 9.999037, 9.999929 
1.16497606e+3, 1.8494417e+2, -1246058.4, -1150948.1, -1208.6039, -0.03489088, -0.10889404, -1150932.9, -23391.543, 0.0, 9.998999, 10.00028 
1.1649969e+3, 1.9494489e+2, -1202163.0, -1071400.8, -28602.16, 0.16528378, -0.106328525, -1065418.1, -35888.215, 0.0, 9.998605, 10.000341 
1.1650155e+3, 2.0494486e+2, -1138837.4, -1153169.9, -27717.248, 0.17919798, -0.060037162, -1117374.9, -185844.77, 0.0, 9.99907, 9.998884 
1.16503224e+3, 2.1494372e+2, -844903.75, -956706.25, -34670.605, 0.011688674, -0.09992737, -835025.06, -1479.298, 0.0, 10.0004015, 9.9989195 
1.1650504e+3, 2.2494304e+2, -681862.7, -855942.3, -8904.8, -0.008189745, -0.039213102, -681408.4, 54146.668, 0.0, 10.000952, 9.998683 
1.1650703e+3, 2.3494239e+2, -621555.56, -772501.5, -48249.902, 0.1259329, -0.008086381, -607450.5, 30111.299, 0.0, 10.000678, 9.998714 
1.1650898e+3, 2.4494107e+2, -565099.4, -756917.5, -10106.575, 0.18879184, 0.025155356, -564568.3, -24992.814, 0.0, 10.000661, 9.998148 
1.1651089e+3, 2.549387e+2, -427070.9, -636481.75, -4454.1396, 0.17476875, -0.06652545, -426976.2, 14623.488, 0.0, 10.000927, 9.998174 
1.1651272e+3, 2.6493734e+2, -310059.47, -482098.06, 17179.488, 0.1089455, -0.030463714, -308360.75, 35254.133, 0.00000056359414, 10.000864, 9.998591 
1.16514504e+3, 2.7493677e+2, -275970.88, -408267.28, 3353.1147, 0.00088145025, 0.015699055, -275885.94, -30262.623, 0.00000928475, 10.000401, 9.998651 
1.1651638e+3, 2.849363e+2, -122727.28, -264943.6, 35045.04, -0.026882144, 0.10414538, -114560.44, 33067.92, 0.000050789153, 10.000666, 9.998839 
1.16518386e+3, 2.9493546e+2, 99892.44, -106194.14, -7049.983, 0.032672085, 0.08850049, 100133.33, 149768.2, 0.00017624088, 10.001529, 9.998831 
1.165204e+3, 3.0493304e+2, 179049.03, -146655.13, -19032.348, 0.13683373, 0.025997188, 180157.4, 180157.4, 0.00046429865, 10.002207, 9.9979 
1.1652225e+3, 3.1493175e+2, 252909.7, 16011.159, -32260.232, 0.11269437, 0.06582543, 257224.25, 257224.25, 0.00094360544, 10.002092, 9.999074 
1.1748614e+3, 1.24924146e+2, -2109672.8, -1684405.6, -453.69272, 0.088948786, -0.044391736, -1684405.3, 31336.256, 0.0018234614, 9.996302, 10.001948 
1.17488205e+3, 1.3492532e+2, -1826391.9, -1591532.4, 86548.875, 0.099920645, -0.06690247, -1563083.9, 54641.07, 0.0009506097, 9.99801, 10.001113 
1.1748993e+3, 1.449257e+2, -1738524.1, -1650670.5, -36732.742, -0.15890454, -0.06501648, -1637336.0, -117614.98, 0.00031097958, 9.998575, 9.999736 
1.1749191e+3, 1.5492645e+2, -1661695.8, -1572191.6, -31854.697, 0.034548208, -0.0007498288, -1562012.3, -140294.03, 0.00003785508, 9.998468, 9.999659 
1.1749381e+3, 1.6492683e+2, -1538323.4, -1448760.5, 10866.144, 0.08507031, 0.0769098, -1447461.0, -123744.625, 0.00000010132158, 9.998581, 9.999784 
1.1749573e+3, 1.7492665e+2, -1377323.4, -1313032.6, 29549.572, 0.05071638, 0.035988346, -1301514.5, -75797.0, 0.0, 9.998979, 9.999856 
1.1749759e+3, 1.849264e+2, -1273102.1, -1186084.8, -36213.395, 0.024388913, 0.024352847, -1172985.9, -45268.582, 0.0, 9.998912, 10.000082 
1.174994e+3, 1.949257e+2, -1234706.1, -1112992.5, -22922.133, -0.008350473, -0.09371261, -1108818.8, -79098.94, 0.0, 9.9984865, 10.000117 
1.17501296e+3, 2.0492531e+2, -1139814.5, -1115801.9, 1783.9707, -0.015350571, -0.08879584, -1115670.0, -183947.98, 0.0, 9.998904, 9.999218 
1.1750329e+3, 2.1492496e+2, -852439.2, -924984.1, 31732.486, 0.022826059, -0.08608678, -840517.9, -6790.693, 0.0, 10.000189, 9.999244 
1.17505215e+3, 2.2492415e+2, -763073.06, -961031.44, -39879.53, 0.04091535, -0.02178946, -755341.2, -19603.871, 0.0, 10.000686, 9.998087 
1.1750703e+3, 2.3492262e+2, -700592.9, -872557.7, -40344.055, 0.033092644, -0.021315448, -691598.3, -53842.887, 0.0, 10.000414, 9.998149 
1.1750895e+3, 2.4492143e+2, -558554.0, -688926.3, -18246.188, 0.055244967, 0.025901595, -556048.56, -16279.836, 0.0, 10.000422, 9.998735 
1.1751095e+3, 2.5492027e+2, -408549.38, -552122.0, 22649.314, 0.110166594, -0.0059710094, -405061.1, 36718.88, 0.0, 10.000727, 9.998849 
1.1751283e+3, 2.6491922e+2, -324882.97, -470897.7, -20007.885, 0.104879044, 0.016482115, -322190.97, 21599.24, 0.0000005132723, 10.000679, 9.998763 
1.1751457e+3, 2.7491775e+2, -282946.84, -396008.56, 7013.881, 0.0065173237, -0.046563964, -282513.4, -36709.113, 0.000009286575, 10.000277, 9.998798 
1.1751644e+3, 2.8491643e+2, -192945.53, -370086.94, 50960.152, -0.053512037, -0.0153226685, -179331.56, -31514.191, 0.000051726838, 10.000499, 9.998195 
1.17518485e+3, 2.9491508e+2, 45702.67, -190040.77, 49413.273, -0.05960384, -0.026306277, 55641.023, 105472.89, 0.00018255804, 10.001393, 9.9983225 
1.1752061e+3, 3.0491248e+2, 137248.17, -178925.8, -33171.06, 0.10276525, -0.07970028, 140690.8, 140690.8, 0.0004800074, 10.001995, 9.997772 
1.175226e+3, 3.14911e+2, 229958.28, 38100.203, 8292.528, 0.17688318, -0.04596896, 230316.03, 230316.03, 0.0009690312, 10.001808, 9.999354 
1.18485816e+3, 1.2490342e+2, -1943367.6, -1598655.3, 45831.26, 0.1054672, -0.04588254, -1592665.9, 123280.875, 0.0020081834, 9.99737, 10.002043 
1.18487954e+3, 1.3490501e+2, -1980688.3, -1667547.4, -29770.674, 0.11949487, -0.033918228, -1664742.1, -46814.93, 0.0010574218, 9.996935, 10.0011215 
1.18489735e+3, 1.4490601e+2, -1917818.5, -1685252.9, -105404.484, -0.13480027, 0.0090600215, -1644590.5, -124674.13, 0.00035351914, 9.997098, 10.000223 
1.1849176e+3, 1.549064e+2, -1668830.5, -1513290.6, -110433.086, 0.06972551, -0.015222733, -1455991.5, -34076.742, 0.00004562391, 9.998157, 10.000217 
1.1849373e+3, 1.6490681e+2, -1539142.5, -1441230.8, -13197.965, 0.1524243, 0.035229992, -1439483.0, -115571.88, 0.00000019883093, 9.998552, 9.999852 
1.1849568e+3, 1.7490694e+2, -1460312.1, -1339228.9, -21254.264, 0.14387774, 0.016803108, -1335606.4, -109698.12, 0.0, 9.998364, 9.999963 
1.1849756e+3, 1.8490656e+2, -1308818.5, -1261071.4, -46304.047, 0.098633565, 0.011446229, -1232848.8, -104938.47, 0.0, 9.998906, 9.9995775 
1.1849934e+3, 1.9490525e+2, -1021268.8, -1064455.4, -96393.34, -0.00010728475, -0.1134591, -944079.75, 85841.22, 0.0, 10.000181, 9.999638 
1.18501246e+3, 2.0490475e+2, -926477.56, -1008328.7, -64234.73, -0.022534283, -0.09863191, -891238.8, 40686.207, 0.0, 10.000335, 9.999279 
1.1850328e+3, 2.1490473e+2, -968558.9, -966300.5, -84485.77, 0.051333893, -0.06863718, -882936.4, -49010.938, 0.0, 9.999336, 9.999369 
1.1850525e+3, 2.2490396e+2, -934253.25, -1015603.44, -87357.945, 0.081256166, -0.018463612, -878565.1, -142631.03, 0.0, 9.9993925, 9.998332 
1.18507095e+3, 2.3490207e+2, -671803.94, -832352.25, -67419.57, 0.05883779, -0.078903556, -647248.06, -9292.882, 0.0, 10.000495, 9.998384 
1.1850901e+3, 2.4490109e+2, -512273.44, -640334.4, -18424.945, 0.07118514, -0.03572579, -509675.22, 30291.201, 0.0, 10.000633, 9.998968 
1.1851098e+3, 2.549007e+2, -532824.8, -596360.75, -41810.12, 0.119182006, -0.010115097, -512082.84, -70111.75, 0.0, 9.9998, 9.999004 
1.1851288e+3, 2.6489988e+2, -409495.97, -485354.97, -38367.06, 0.12332124, 0.021668825, -393474.78, -49496.465, 0.0000005059796, 10.000005, 9.998977 
1.1851469e+3, 2.7489826e+2, -121833.125, -299448.8, -54611.508, 0.055592597, -0.07740098, -106385.27, 139607.14, 0.000009353779, 10.001312, 9.998959 
1.185166e+3, 2.8489673e+2, -51069.2, -337295.5, 27557.234, 0.0024408856, -0.058619656, -48440.2, 99567.32, 0.000051580555, 10.001652, 9.997851 
1.1851865e+3, 2.9489517e+2, -45804.137, -275960.75, 3752.757, 0.0028860187, -0.043945733, -45742.965, 4282.101, 0.00018437536, 10.000965, 9.9979315 
1.1852084e+3, 3.0489254e+2, 46851.676, -226797.45, -17746.455, 0.17335717, -0.0840132, 47997.754, 47997.754, 0.00048100852, 10.001362, 9.99776 
1.185229e+3, 3.1489068e+2, 334463.66, 96803.47, -43422.457, 0.2795302, -0.08504508, 342148.78, 342148.78, 0.00096257555, 10.002452, 9.999462 
1.1948545e+3, 1.24881476e+2, -1989917.4, -1693300.3, 29494.297, -0.08910594, -0.02757712, -1690396.0, 25766.955, 0.0022081332, 9.997372, 10.001381 
1.1948758e+3, 1.3488322e+2, -1983595.8, -1675065.4, -35988.957, 0.027135534, 0.0033488092, -1670923.0, -52777.246, 0.0011730703, 9.99693, 10.001071 
1.1948957e+3, 1.448847e+2, -1861550.6, -1557771.4, -88827.12, -0.05021932, 0.05308322, -1533704.5, -13575.144, 0.00040013902, 9.997059, 10.001115 
1.19491555e+3, 1.5488483e+2, -1603580.6, -1382364.3, -52954.586, 0.010406921, -0.088838086, -1370341.4, 51782.953, 0.00005450229, 9.998166, 10.001114 
1.19493484e+3, 1.6488504e+2, -1519629.8, -1399271.0, -42768.516, 0.023863481, -0.11985981, -1385621.5, -61502.57, 0.00000035173326, 9.99854, 10.00015 
1.1949544e+3, 1.7488503e+2, -1449526.8, -1308817.1, -12339.396, 0.028587205, -0.17470983, -1307743.3, -81627.13, 0.0, 9.998321, 10.0002 
1.1949741e+3, 1.8488465e+2, -1381366.4, -1391697.1, -18257.77, 0.034822818, -0.1486514, -1367557.4, -239437.44, 0.0, 9.998825, 9.998717 
1.1949942e+3, 1.9488357e+2, -1100698.8, -1200756.9, -31423.969, 0.040632926, -0.16782957, -1091648.4, -61514.785, 0.0, 10.000053, 9.998764 
1.19501345e+3, 2.0488317e+2, -959994.6, -1034702.06, -121863.24, 0.012236126, -0.09268608, -869888.75, 62250.305, 0.0, 10.000157, 9.99918 
1.1950315e+3, 2.1488316e+2, -1008573.1, -997702.0, -104269.36, -0.044902753, -0.051702496, -898726.6, -64587.438, 0.0, 9.999115, 9.99926 
1.1950509e+3, 2.2488253e+2, -903022.1, -891248.0, -67145.65, -0.030503092, -0.033496212, -829731.9, -93586.9, 0.0, 9.999137, 9.999307 
1.1950718e+3, 2.3488088e+2, -636622.1, -700348.3, -12166.464, 0.061072797, -0.17193347, -634378.3, 3781.4487, 0.0, 10.000245, 9.999407 
1.19509116e+3, 2.4488015e+2, -559401.25, -681208.9, -68809.91, 0.09046018, -0.14415206, -528413.44, 11754.017, 0.0, 10.000389, 9.99881 
1.19510904e+3, 2.5488007e+2, -573143.1, -627708.56, -53928.18, 0.046755467, -0.07077735, -539989.1, -97818.03, 0.0, 9.999582, 9.99889 
1.195128e+3, 2.6487955e+2, -434702.5, -492301.84, -7619.209, 0.01932065, -0.00968832, -433711.7, -89534.93, 0.0000006389743, 9.999805, 9.99903 
1.1951479e+3, 2.748782e+2, -138588.78, -291091.16, 14406.652, 0.005584267, -0.08630363, -137239.75, 108947.95, 0.000009301616, 10.001131, 9.999104 
1.195168e+3, 2.8487712e+2, -83400.2, -369810.8, -13568.861, 0.0076614763, -0.024856968, -82758.805, 65439.867, 0.00005191434, 10.001496, 9.997708 
1.19518824e+3, 2.948758e+2, -78160.36, -315199.4, 3763.6453, 0.036060806, 0.022688601, -78100.61, -27885.771, 0.00018470343, 10.00083, 9.997734 
1.1952101e+3, 3.0487317e+2, 6753.52, -253306.72, 13311.88, 0.18565626, 0.004200011, 7433.148, 7433.148, 0.00047307427, 10.001141, 9.997671 
1.19523056e+3, 3.1487072e+2, 280729.53, 65026.31, 46560.895, 0.12827238, -0.05885085, 290350.84, 290350.84, 0.0009340092, 10.002127, 9.999388 
1.2048533e+3, 1.2486075e+2, -2019528.1, -1753718.4, 97261.61, 0.079765186, 0.050060283, -1721931.0, -5565.2734, 0.0024257244, 9.997378, 10.000971 
1.2048726e+3, 1.3486184e+2, -1911022.0, -1624232.5, -7911.1284, -0.00608169, 0.0143853035, -1624014.4, -5658.444, 0.0012988481, 9.997389, 10.001186 
1.2048938e+3, 1.448632e+2, -1785650.6, -1512717.3, 3261.6602, 0.04124745, 0.03944859, -1512678.3, 7662.3887, 0.00045139206, 9.997526, 10.001205 
1.2049139e+3, 1.5486348e+2, -1593853.8, -1363956.1, -69463.7, 0.05501742, -0.09827862, -1344597.8, 77734.97, 0.00006471426, 9.998168, 10.001241 
1.2049336e+3, 1.6486368e+2, -1506646.4, -1415716.1, -90564.23, 0.043511022, -0.12684156, -1359845.4, -35517.75, 0.00000057087306, 9.998734, 9.999932 
1.2049531e+3, 1.7486344e+2, -1308588.8, -1260847.4, -134951.27, 0.02793016, -0.18265443, -1147671.9, 78657.164, 0.0, 9.999391, 10.000003 
1.2049734e+3, 1.848633e+2, -1272299.8, -1324421.6, -76077.66, 0.05873914, -0.12915157, -1217943.1, -89611.59, 0.0, 9.999526, 9.99883 
1.2049946e+3, 1.9486284e+2, -1219713.5, -1238402.8, -49674.94, 0.13100472, -0.099573426, -1178511.9, -148173.03, 0.0, 9.999171, 9.998916 
1.2050139e+3, 2.0486243e+2, -1088671.8, -1099264.9, -85390.75, 0.11058361, -0.035035428, -1008413.44, -76069.38, 0.0, 9.999256, 9.999178 
1.2050313e+3, 2.1486166e+2, -911222.06, -956069.5, -100861.91, -0.0060658804, -0.06923962, -830321.3, 4029.9387, 0.0, 9.999768, 9.999244 
1.2050506e+3, 2.2486103e+2, -791114.06, -810505.7, -25750.688, -0.010226685, -0.061868276, -773294.3, -36937.707, 0.0, 9.999787, 9.999554 
1.2050719e+3, 2.3486017e+2, -752477.6, -732281.4, -60319.777, 0.1099052, -0.13943319, -681220.3, -42857.19, 0.0, 9.999341, 9.999632 
1.2050917e+3, 2.4485974e+2, -663277.9, -720055.3, -113795.94, 0.15293153, -0.100399636, -574383.0, -34015.277, 0.0, 9.999642, 9.998884 
1.2051095e+3, 2.5485927e+2, -406549.53, -542551.94, -125182.02, 0.09197724, -0.070868716, -332091.25, 110283.33, 0.00000000020898414, 10.000711, 9.998919 
1.20512865e+3, 2.6485854e+2, -271634.88, -450010.47, -39949.414, 0.05605113, -0.016174523, -263096.44, 81286.13, 0.00000074892756, 10.001063, 9.998718 
1.20514914e+3, 2.7485725e+2, -235163.0, -374647.94, -83427.84, 0.04969649, -0.057071637, -196166.27, 50228.063, 0.000009032264, 10.000604, 9.998785 
1.2051697e+3, 2.8485602e+2, -145210.67, -375226.2, -84580.03, 0.060231756, -0.0071857558, -117457.92, 30948.344, 0.000052136886, 10.000968, 9.997931 
1.20519005e+3, 2.948544e+2, 118851.805, -191772.03, -87272.89, 0.08975896, -0.005961966, 141692.48, 192115.28, 0.0001849306, 10.002088, 9.997971 
1.2052122e+3, 3.048521e+2, 228232.36, -173055.92, -16309.698, 0.21450007, 0.0070530437, 228894.14, 228894.14, 0.0004665325, 10.002769, 9.997442 
1.2052327e+3, 3.1484985e+2, 303698.06, 55809.594, -68348.27, 0.12583217, -0.011402462, 321294.16, 321294.16, 0.00090609276, 10.002401, 9.999182 
1.2148522e+3, 1.2484024e+2, -2015993.1, -1729831.9, -57171.367, 0.15318274, 0.08022496, -1718832.5, -2267.6138, 0.0026624324, 9.997339, 10.001141 
1.2148692e+3, 1.3484105e+2, -1898402.4, -1598712.0, 1300.9075, -0.111679845, -0.0022368834, -1598706.4, 19849.871, 0.0014356553, 9.9973955, 10.00136 
1.2148912e+3, 1.4484161e+2, -1828374.6, -1600271.5, 3443.4375, -0.01591049, -0.035646386, -1600219.5, -79670.31, 0.0005075534, 9.997528, 10.000599 
1.2149126e+3, 1.548424e+2, -1644890.6, -1467666.1, -23937.629, 0.05988626, -0.056775544, -1464489.8, -41950.227, 0.000076397075, 9.998155, 10.000538 
1.2149327e+3, 1.648427e+2, -1561368.5, -1523124.9, -84550.914, 0.05094129, -0.0029614863, -1455560.5, -131022.72, 0.0000008702971, 9.998716, 9.999198 
1.21495254e+3, 1.7484218e+2, -1370392.5, -1374547.8, -92888.555, 0.0027517048, -0.012302494, -1279558.4, -53011.344, 0.0, 9.999328, 9.999252 
1.214973e+3, 1.8484244e+2, -1202838.5, -1158785.9, -108524.73, 0.024312446, 0.061011374, -1070074.8, 58470.64, 0.0, 9.999436, 10.00001 
1.2149941e+3, 1.948431e+2, -1156336.9, -1077121.0, -44341.24, 0.12149771, 0.08400735, -1057273.6, -26737.395, 0.0, 9.9990425, 10.000088 
1.21501364e+3, 2.048425e+2, -1112033.3, -1102567.3, -87208.77, 0.12390561, 0.06896147, -1019963.1, -87423.02, 0.0, 9.999065, 9.999245 
1.2150315e+3, 2.1484032e+2, -941991.6, -958333.56, -66299.62, 0.020075751, -0.116994575, -883361.4, -48800.83, 0.0, 9.999504, 9.9993515 
1.2150507e+3, 2.2483961e+2, -861272.1, -899960.06, -62319.594, 0.0011798599, -0.09834781, -815363.4, -78795.85, 0.0, 9.999539, 9.9990635 
1.21507116e+3, 2.3484014e+2, -816646.0, -815197.6, -58055.652, 0.07407716, 0.009319677, -757861.6, -119298.08, 0.0, 9.999122, 9.999167 
1.2150912e+3, 2.4483988e+2, -692166.94, -717780.6, -89916.4, 0.11050411, 0.0813792, -614149.9, -73583.234, 0.0, 9.999378, 9.999024 
1.2151107e+3, 2.5483838e+2, -426840.84, -535758.2, -67645.76, 0.11196646, -0.012422923, -394456.56, 48124.54, 0.00000000018849695, 10.0005, 9.9990635 
1.2151304e+3, 2.6483703e+2, -348642.88, -561774.4, -73798.69, 0.09006301, 0.008424593, -325584.16, 19010.527, 0.00000061447383, 10.000852, 9.998056 
1.21515006e+3, 2.748354e+2, -303318.1, -481862.47, -78279.87, 0.037396677, 0.0055460627, -273858.4, -27246.785, 0.000008322687, 10.000443, 9.998132 
1.2151703e+3, 2.8483352e+2, -153462.81, -328223.63, -58724.688, 0.0017798609, 0.0014687843, -135563.0, 13065.774, 0.000050710027, 10.000715, 9.998365 
1.2151916e+3, 2.9483113e+2, 125062.695, -132317.38, -18235.314, 0.0021972274, -0.1266514, 126348.24, 176996.47, 0.00018357177, 10.001896, 9.998465 
1.2152142e+3, 3.048293e+2, 167610.64, -253035.55, -41102.195, 0.12078417, -0.06798454, 171589.19, 171589.19, 0.00046227945, 10.002573, 9.996991 
1.21523425e+3, 3.1482786e+2, 230306.77, -18708.043, -39877.5, -0.024979105, 0.04193183, 236536.92, 236536.92, 0.0008888424, 10.002068, 9.998834 
1.22484975e+3, 1.2481843e+2, -2035704.5, -1755838.4, -76716.375, 0.19690704, 0.014556679, -1736188.6, -19413.38, 0.0029179724, 9.997248, 10.00101 
1.2248678e+3, 1.3481936e+2, -1821912.1, -1604603.1, -69275.94, -0.0010558667, -0.019556466, -1584397.4, 34369.344, 0.0015834377, 9.998094, 10.000987 
1.22489e+3, 1.4481959e+2, -1744852.0, -1594391.5, -42582.73, 0.08563414, -0.051796656, -1583176.0, -62411.4, 0.00056846405, 9.998264, 10.000278 
1.2249113e+3, 1.5482053e+2, -1676454.3, -1504830.1, -91840.086, 0.13779494, -0.031117167, -1464950.9, -42195.56, 0.00008951281, 9.99807, 10.000303 
1.2249318e+3, 1.6482097e+2, -1621620.9, -1546085.3, -43377.418, 0.11280544, 0.044736784, -1526337.8, -201584.8, 0.0000012652538, 9.998229, 9.999309 
1.2249519e+3, 1.7482057e+2, -1431159.5, -1386347.4, -18689.402, 0.039163303, 0.034483373, -1379575.9, -152814.97, 0.0, 9.99881, 9.999439 
1.2249723e+3, 1.848209e+2, -1229235.0, -1127761.4, -22246.912, 0.04790472, 0.08499381, -1123098.3, 5659.2554, 0.0, 9.999037, 10.000431 
1.2249932e+3, 1.9482158e+2, -1145264.4, -1026968.44, -55139.93, 0.13740529, 0.06797057, -1005252.94, 25493.313, 0.0, 9.998906, 10.000512 
1.2250129e+3, 2.0482112e+2, -1111293.5, -1112108.1, -63809.445, 0.15138404, 0.050757054, -1047890.06, -115141.51, 0.0, 9.999134, 9.999135 
1.2250316e+3, 2.148192e+2, -916926.0, -958150.6, -94590.07, 0.07735919, -0.09666794, -840728.44, -5960.3203, 0.0, 9.999757, 9.999218 
1.22505106e+3, 2.2481848e+2, -775800.5, -872312.0, -74673.87, 0.069262765, -0.06712894, -735147.25, 1628.428, 0.0, 10.000171, 9.998949 
1.2250712e+3, 2.3481865e+2, -653212.44, -753947.94, -86316.02, 0.120600924, 0.01729105, -603643.4, 35131.02, 0.0, 10.000302, 9.999027 
1.2250912e+3, 2.4481802e+2, -544275.8, -669765.56, -49785.57, 0.1301658, 0.071306184, -526923.75, 13856.602, 0.0, 10.000473, 9.99884 
1.2251111e+3, 2.5481626e+2, -407478.88, -544273.44, -84488.18, 0.09409963, -0.030885218, -367172.72, 75624.266, 0.0, 10.000707, 9.998913 
1.2251311e+3, 2.6481485e+2, -325088.47, -561277.7, -69887.13, 0.07897352, -0.0035322232, -305958.63, 38852.74, 0.0000003685213, 10.001089, 9.997929 
1.2251513e+3, 2.748134e+2, -150941.03, -419139.38, -81850.76, 0.06993266, 0.024698352, -127934.71, 118892.73, 0.0000073761885, 10.001589, 9.997988 
1.225172e+3, 2.8481126e+2, -4808.1665, -271503.8, -13734.276, 0.0642982, 0.0024367336, -4102.7456, 144744.45, 0.000049087277, 10.00175, 9.998267 
1.2251941e+3, 2.9480803e+2, 37473.375, -193057.08, -46633.97, 0.092709035, -0.19188575, 46549.613, 97422.37, 0.00018153466, 10.001332, 9.998334 
1.22521654e+3, 3.0480653e+2, 12486.665, -287043.6, -35793.04, 0.17199908, -0.11755596, 16704.443, 16704.443, 0.00045750884, 10.001343, 9.997331 
1.2252357e+3, 3.1480557e+2, 143652.1, -49705.59, -63694.41, -0.02945399, 0.0090915505, 162747.94, 162747.94, 0.0008772591, 10.0013895, 9.998944 
1.23484425e+3, 1.2479564e+2, -2051823.6, -1811610.0, -99078.734, -0.15497191, -0.12145182, -1776017.6, -59024.152, 0.0031899144, 9.997323, 10.000596 
1.2348678e+3, 1.3479668e+2, -1880261.3, -1741133.0, -29990.771, 0.14499287, -0.053808965, -1734943.5, -115955.38, 0.0017411282, 9.998137, 10.000033 
1.23488955e+3, 1.4479694e+2, -1742422.4, -1603393.1, -75636.34, 0.15417719, -0.031866822, -1570179.3, -49191.0, 0.0006337289, 9.998315, 10.000201 
1.2349099e+3, 1.5479766e+2, -1674015.3, -1510563.3, -88196.73, 0.1477387, -0.02446738, -1472048.6, -49066.88, 0.00010392506, 9.998094, 10.000267 
1.2349301e+3, 1.6479832e+2, -1535586.6, -1367422.4, -48978.32, 0.08182293, 0.014396118, -1354197.4, -29222.496, 0.0000017603737, 9.998228, 10.000531 
1.2349504e+3, 1.7479858e+2, -1348131.4, -1213531.9, 18552.746, -0.0147868, -0.05527676, -1211021.5, 15949.515, 0.0, 9.998795, 10.000635 
1.2349709e+3, 1.8479867e+2, -1264817.4, -1186854.6, -44629.1, -0.030510938, -0.07035635, -1166579.8, -37611.727, 0.0, 9.998972, 10.000055 
1.2349912e+3, 1.9479832e+2, -1188398.5, -1088673.3, -42274.918, 0.030925054, -0.1524327, -1073164.3, -42195.727, 0.0, 9.998781, 10.000148 
1.2350114e+3, 2.0479833e+2, -1161078.3, -1169901.9, -62568.016, 0.05200705, -0.0935594, -1102766.6, -169797.44, 0.0, 9.998939, 9.998834 
1.23503126e+3, 2.1479832e+2, -972422.06, -1022266.06, -53469.234, 0.0322781, -0.015967766, -938351.94, -103378.195, 0.0, 9.999533, 9.998888 
1.2350513e+3, 2.2479762e+2, -796024.2, -862821.4, -85739.484, 0.05122888, 0.025556851, -737408.0, -426.9903, 0.0, 9.999943, 9.99913 
1.23507164e+3, 2.3479584e+2, -673103.75, -744353.44, -60413.926, 0.108798414, -0.106025815, -638593.25, 401.3032, 0.0, 10.000075, 9.9992075 
1.2350912e+3, 2.4479438e+2, -611588.8, -751805.0, -57026.914, 0.05595797, -0.120288014, -591324.25, -50317.176, 0.0, 10.000226, 9.998396 
1.23511e+3, 2.54793e+2, -468780.47, -622929.44, -54191.016, -0.10252545, -0.13963754, -451636.34, -8614.715, 0.0, 10.000488, 9.998484 
1.23513035e+3, 2.64792e+2, -349140.0, -546480.56, -66251.49, -0.12405793, -0.063352846, -328961.28, 16071.533, 0.00000016286783, 10.000817, 9.99816 
1.2351525e+3, 2.74791e+2, -164577.36, -401570.03, -39809.02, 0.00020250742, -0.013710032, -158069.14, 88974.95, 0.000006622681, 10.001391, 9.998203 
1.2351743e+3, 2.8478885e+2, -71690.99, -357961.6, -39516.875, 0.092458606, -0.016970223, -66336.234, 82727.88, 0.000048750662, 10.0015335, 9.997776 
1.2351965e+3, 2.947851e+2, -22890.648, -277412.5, -32851.777, 0.16922845, -0.21687494, -18718.768, 32378.12, 0.00018217463, 10.00115, 9.997846 
1.2352184e+3, 3.0478367e+2, 48785.266, -165931.7, -39422.746, 0.18606253, -0.15562059, 55794.598, 55794.598, 0.00045752534, 10.001151, 9.998257 
1.2352363e+3, 3.1478292e+2, 133430.17, 1607.044, -20904.947, -0.1898087, -0.10785755, 136665.92, 136665.92, 0.00087459444, 10.001088, 9.999439 
1.2448411e+3, 1.2477245e+2, -2012598.1, -1784848.9, -88567.03, -0.1984208, -0.16280432, -1754461.4, -37242.324, 0.003475539, 9.997592, 10.000636 
1.2448657e+3, 1.347737e+2, -1941387.1, -1780637.6, -64915.168, 0.16623007, -0.0678042, -1757697.0, -138484.3, 0.0019075654, 9.997763, 9.9999485 
1.2448873e+3, 1.4477432e+2, -1775531.3, -1575346.9, -25706.074, 0.13944381, -0.022309477, -1572098.5, -50889.254, 0.0007030745, 9.997903, 10.0005865 
1.2449086e+3, 1.5477516e+2, -1599534.8, -1436230.5, -46167.14, 0.2056398, -0.04150688, -1424082.5, -881.4922, 0.00011956255, 9.998426, 10.000618 
1.244929e+3, 1.6477606e+2, -1477556.4, -1286812.3, 14974.801, 0.15612173, -0.020934233, -1285643.9, 39546.926, 0.0000023468863, 9.998422, 10.000976 
1.24494895e+3, 1.7477675e+2, -1436715.4, -1204396.8, -18823.898, 0.008515894, -0.09228803, -1202881.4, 24299.88, 0.0, 9.997988, 10.001074 
1.2449696e+3, 1.847769e+2, -1369296.1, -1277198.8, -58912.848, -0.016375387, -0.10629816, -1248473.1, -119295.19, 0.0, 9.998441, 9.999683 
1.244991e+3, 1.9477609e+2, -1055240.3, -1070678.1, -90774.234, 0.07609641, -0.1949469, -971857.3, 59327.887, 0.0, 9.999896, 9.99973 
1.2450114e+3, 2.0477608e+2, -935983.3, -1055532.0, -82782.195, 0.103546426, -0.11715766, -893650.56, 39536.563, 0.0, 10.000452, 9.99889 
1.2450311e+3, 2.1477659e+2, -907374.06, -980353.94, -83569.14, 0.0670735, 0.004452785, -852675.6, -17488.932, 0.0, 9.999931, 9.998982 
1.24505155e+3, 2.2477598e+2, -778131.25, -856393.94, -56286.31, 0.07613948, 0.05023471, -748710.3, -11517.221, 0.0, 10.0001135, 9.999072 
1.24507226e+3, 2.3477376e+2, -532173.0, -675691.4, -88680.555, 0.12852244, -0.12024155, -489854.94, 149355.77, 0.0, 10.001081, 9.999171 
1.245092e+3, 2.4477209e+2, -458775.94, -687510.0, -70302.9, 0.07879217, -0.15084217, -438895.75, 102329.5, 0.0, 10.001315, 9.998308 
1.2451107e+3, 2.5477076e+2, -446079.6, -616836.75, -78847.04, -0.080542505, -0.15441489, -415241.3, 27997.656, 0.0, 10.000682, 9.998418 
1.24513134e+3, 2.6476976e+2, -348177.53, -523174.22, -12903.626, -0.09740342, -0.08449814, -347231.2, -1981.7898, 0.000000050542315, 10.000687, 9.998398 
1.2451541e+3, 2.7476877e+2, -159766.11, -376013.78, -19177.998, 0.038714115, -0.062238563, -158078.48, 89181.49, 0.0000061370592, 10.001286, 9.99845 
1.2451761e+3, 2.8476703e+2, -56129.93, -334715.97, 14759.409, 0.12632066, -0.04530041, -55350.16, 93926.13, 0.000049451548, 10.001594, 9.9979 
1.2451979e+3, 2.9476407e+2, 47205.715, -222074.44, 19987.64, 0.17447887, -0.17699885, 48681.24, 99983.734, 0.00018750013, 10.001574, 9.998007 
1.2452197e+3, 3.0476263e+2, 143973.42, -120026.99, 64442.316, 0.19084826, -0.12429024, 158863.88, 158863.88, 0.000470274, 10.001777, 9.998289 
1.24523886e+3, 3.1476134e+2, 237331.4, 3207.1929, -58045.07, -0.07609481, -0.1287211, 250932.11, 250932.11, 0.0008945071, 10.002007, 9.9990225 
1.254842e+3, 1.24748684e+2, -1969446.3, -1714251.0, -32113.963, 0.038048357, -0.13632654, -1710271.8, 7182.4683, 0.0037739007, 9.99766, 10.001092 
1.2548615e+3, 1.3475065e+2, -1875564.6, -1652656.6, -46373.72, -0.06399329, -0.054977685, -1643393.9, -23956.234, 0.0020822603, 9.997795, 10.000814 
1.2548831e+3, 1.4475201e+2, -1711187.6, -1447763.0, -26282.006, -0.12311616, -0.023696087, -1445166.4, 76258.5, 0.0007764397, 9.997926, 10.00145 
1.2549068e+3, 1.5475325e+2, -1537159.1, -1309437.4, -8138.6846, 0.14811875, -0.09158372, -1309146.9, 114263.96, 0.00013646827, 9.998436, 10.001483 
1.2549281e+3, 1.6475433e+2, -1510576.3, -1360881.8, -22781.33, 0.18887198, -0.070455536, -1357491.6, -32092.559, 0.0000030208696, 9.998437, 10.000466 
1.2549472e+3, 1.7475519e+2, -1473274.8, -1278236.3, -20103.979, -0.01644926, -0.07307862, -1276185.5, -48795.36, 0.0, 9.99797, 10.000579 
1.2549682e+3, 1.8475553e+2, -1402428.4, -1330813.8, -26194.61, -0.041594356, -0.027314652, -1322255.3, -192867.69, 0.0, 9.998373, 9.9993515 
1.2549917e+3, 1.9475484e+2, -1092674.6, -1126799.4, -18931.441, 0.1325274, -0.070506945, -1084251.3, -52854.76, 0.0, 9.999797, 9.999394 
1.2550128e+3, 2.0475444e+2, -935543.94, -1010033.44, -120040.28, 0.16375288, -0.033734933, -847103.2, 86298.71, 0.0, 10.000261, 9.999298 
1.2550311e+3, 2.1475413e+2, -912016.7, -936491.7, -85574.92, 0.03503573, -0.035628974, -837808.7, -2402.737, 0.0, 9.999696, 9.999404 
1.2550509e+3, 2.2475351e+2, -840832.8, -921358.9, -39387.383, -0.012026057, 0.0049764067, -824771.1, -87358.734, 0.0, 9.99984, 9.998754 
1.2550728e+3, 2.3475221e+2, -589535.44, -741664.25, -32622.307, 0.039788418, -0.04092753, -582835.06, 56589.688, 0.0, 10.00085, 9.99883 
1.2550932e+3, 2.4475096e+2, -475360.38, -662902.8, -110143.36, 0.04697029, -0.02883868, -424478.22, 116958.164, 0.0, 10.0010605, 9.9986 
1.2551126e+3, 2.5474942e+2, -461242.16, -599362.75, -84621.36, 0.0063879006, -0.08484214, -421077.47, 22373.146, 0.0, 10.00046, 9.998649 
1.2551333e+3, 2.6474807e+2, -363172.5, -497055.6, -10106.649, -0.00094852375, -0.07444776, -362413.84, -16950.959, 0.00000007625481, 10.000446, 9.99869 
1.2551554e+3, 2.7474666e+2, -168698.94, -344503.84, 25628.164, 0.027084634, -0.12396671, -165039.16, 82436.805, 0.0000061507535, 10.001068, 9.998773 
1.2551768e+3, 2.8474566e+2, -44759.547, -260829.61, -1502.6165, 0.009086663, -0.07732264, -44749.098, 104735.18, 0.000051588533, 10.001381, 9.998505 
1.2551977e+3, 2.947447e+2, 66094.27, -145991.86, 40090.867, -0.040029686, -0.0808346, 73419.67, 124911.48, 0.00020006, 10.001414, 9.998602 
1.2552202e+3, 3.047431e+2, 68352.27, -249220.63, 58440.242, 0.037164386, -0.033221498, 78765.11, 78765.11, 0.0005036429, 10.001652, 9.99746 
1.2552418e+3, 3.1474072e+2, 100140.28, -217493.67, -5194.327, -0.04382782, -0.064637005, 100225.2, 100225.2, 0.0009532297, 10.001719, 9.997647 
1.264841e+3, 1.247254e+2, -2013551.9, -1698890.1, 62022.195, 0.22277854, -0.11032037, -1687106.4, 30578.193, 0.004085261, 9.997205, 10.001439 
1.2648587e+3, 1.347275e+2, -1865297.4, -1570412.5, -44220.816, -0.08869059, -0.06815856, -1563924.0, 55740.02, 0.0022650692, 9.997572, 10.001476 
1.2648813e+3, 1.4472911e+2, -1791112.1, -1465887.4, -27955.973, -0.05070726, -0.05470381, -1463501.9, 58145.61, 0.00085386867, 9.99729, 10.0016365 
1.2649044e+3, 1.5473069e+2, -1780291.9, -1404991.0, -104736.586, 0.16207057, -0.10057807, -1377740.5, 45889.92, 0.00015477135, 9.996693, 10.001667 
1.2649262e+3, 1.6473186e+2, -1694649.6, -1472856.6, -62165.28, 0.2126328, -0.06933382, -1456621.1, -131002.65, 0.0000038088367, 9.997296, 10.000233 
1.2649463e+3, 1.7473236e+2, -1272450.1, -1211458.3, -76934.63, 0.04461255, -0.0817979, -1159195.9, 68417.91, 0.0, 9.99949, 10.0003 
1.2649679e+3, 1.8473265e+2, -1165973.4, -1211572.3, -56392.203, 0.01918512, -0.028963102, -1127946.0, 1666.3246, 0.0, 9.999968, 9.999405 
1.2649909e+3, 1.9473232e+2, -1280218.8, -1209401.4, -59454.855, 0.14624296, -0.038627595, -1175609.9, -143991.52, 0.0, 9.99849, 9.999457 
1.265012e+3, 2.0473212e+2, -1179783.9, -1072557.1, -88854.695, 0.1827449, -0.009723566, -1022394.06, -88772.87, 0.0, 9.9983425, 9.99979 
1.2650314e+3, 2.1473174e+2, -883211.0, -865942.4, -87663.234, 0.109744914, -0.071852855, -786489.3, 49134.137, 0.0, 9.999646, 9.999907 
1.2650515e+3, 2.2473125e+2, -790593.3, -914918.56, 4863.7207, 0.05959006, -0.037597146, -790403.3, -52774.96, 0.0, 10.00024, 9.998615 
1.265073e+3, 2.3473038e+2, -721787.5, -821151.6, -8700.466, 0.0404509, -0.02413347, -721031.44, -81392.414, 0.0, 10.0, 9.998701 
1.2650937e+3, 2.4472943e+2, -602385.3, -702000.9, -66382.08, 0.050085958, 0.015201266, -569202.75, -27554.283, 0.0, 10.000077, 9.998818 
1.265114e+3, 2.5472808e+2, -436803.03, -564209.44, -78352.695, 0.09669881, -0.04239196, -399524.84, 44135.195, 0.0, 10.00051, 9.998879 
1.2651348e+3, 2.647267e+2, -328170.38, -478758.88, 32864.813, 0.10507838, -0.048475947, -321310.38, 24361.947, 0.00000015326442, 10.000694, 9.998692 
1.2651566e+3, 2.7472493e+2, -244216.13, -375407.9, 453.08755, 0.06366533, -0.13013683, -244214.56, 3473.841, 0.0000068361555, 10.000546, 9.998797 
1.2651779e+3, 2.84724e+2, -152558.47, -324154.34, -23636.168, 0.010882277, -0.074812844, -149362.28, 334.70306, 0.000055437977, 10.000664, 9.998429 
1.265199e+3, 2.9472354e+2, 33896.547, -173425.72, -69117.59, -0.02840277, -0.011871608, 54826.23, 106527.67, 0.00021969865, 10.001223, 9.998521 
1.265222e+3, 3.047216e+2, 129927.44, -206128.27, -2551.7576, 0.03272887, -0.0023447857, 129946.81, 129946.81, 0.00055763865, 10.002041, 9.997559 
1.2652443e+3, 3.1471956e+2, 240129.81, -149667.4, -80177.05, 0.007839865, -0.005710159, 255977.08, 255977.08, 0.001054668, 10.002717, 9.997621 
1.2748364e+3, 1.247036e+2, -1969727.5, -1623057.3, -95480.336, -0.042435627, 0.008238552, -1598499.5, 119400.53, 0.0044096503, 9.997275, 10.001918 
1.2748569e+3, 1.3470426e+2, -1848323.3, -1536077.8, -20609.582, -0.066372804, -0.11694419, -1534723.3, 85167.3, 0.0024558255, 9.997564, 10.0017185 
1.2748814e+3, 1.4470562e+2, -1821515.3, -1539637.3, -71327.375, 0.1725524, -0.11894914, -1522616.1, -739.44147, 0.00093550276, 9.997329, 10.001112 
1.274901e+3, 1.5470767e+2, -1815149.4, -1485092.6, -109684.48, 0.114191845, -0.066941306, -1451966.9, -28108.586, 0.00017466526, 9.996716, 10.001108 
1.2749225e+3, 1.6470863e+2, -1687682.5, -1470445.3, -3035.7573, 0.07811434, -0.028258603, -1470402.9, -144553.45, 0.0000047674703, 9.997338, 10.000234 
1.2749463e+3, 1.7470814e+2, -1271026.1, -1212985.0, 23517.459, 0.053396095, -0.13994227, -1204652.4, 23200.834, 0.0, 9.999495, 10.000293 
1.2749681e+3, 1.8470821e+2, -1152564.1, -1162988.8, -125145.19, 0.013239076, -0.12667269, -1032522.75, 97330.03, 0.0, 9.999885, 9.999774 
1.2749879e+3, 1.9470857e+2, -1266816.3, -1158602.6, -96483.38, -0.030280363, -0.10938237, -1102090.4, -70239.46, 0.0, 9.998388, 9.999853 
1.275009e+3, 2.0470908e+2, -1166933.6, -1004651.06, -61796.457, 0.0101127485, -0.05726756, -983798.7, -49953.324, 0.0, 9.998168, 10.000341 
1.2750316e+3, 2.1470942e+2, -880243.2, -804376.44, -22290.23, 0.15077764, -0.10185195, -798312.2, 37526.965, 0.0, 9.999406, 10.000448 
1.275053e+3, 2.2470926e+2, -822800.8, -918991.1, -20738.451, 0.14890532, -0.06772459, -818520.1, -80679.52, 0.0, 9.999976, 9.998713 
1.2750727e+3, 2.347082e+2, -753958.25, -831723.4, 530.9559, -0.015460593, -0.07978701, -753954.6, -114100.53, 0.0, 9.999758, 9.998746 
1.275093e+3, 2.4470745e+2, -630805.7, -701244.7, -66683.75, -0.059774883, -0.027283788, -590612.1, -48749.715, 0.0, 9.999828, 9.998938 
1.275114e+3, 2.547068e+2, -457615.47, -552263.3, -42158.797, 0.040066104, -0.033372372, -441560.25, 2306.8586, 0.0, 10.000277, 9.999071 
1.2751354e+3, 2.647057e+2, -388857.0, -549332.5, 10720.863, 0.06802914, -0.0040875385, -388143.94, -42267.01, 0.00000020123079, 10.000458, 9.99832 
1.2751567e+3, 2.747036e+2, -301565.75, -450797.63, 15724.711, 0.0037350554, -0.08721173, -299926.8, -52029.117, 0.0000077157165, 10.000358, 9.998371 
1.2751785e+3, 2.8470206e+2, -228179.63, -443660.13, -21829.072, -0.01867144, -0.034067277, -225990.48, -76075.91, 0.000060411407, 10.000502, 9.997684 
1.275201e+3, 2.947009e+2, -54002.332, -297365.9, -19449.947, 0.01915457, 0.03158074, -52457.67, -528.35046, 0.00024271311, 10.000972, 9.997788 
1.275224e+3, 3.0469823e+2, 142992.88, -125880.11, 15006.793, 0.012601162, -0.019671502, 143827.86, 143827.86, 0.0006225909, 10.001816, 9.998217 
1.2752458e+3, 3.1469825e+2, 251163.03, -33212.33, -5067.146, -0.18363841, 0.10154112, 251253.3, 251253.3, 0.0011840118, 10.0023365, 9.998593 
1.2848347e+3, 1.2468203e+2, -1950946.4, -1648232.6, -29047.734, 0.07953551, 0.02899467, -1645470.5, 72639.99, 0.0047468157, 9.997504, 10.001637 
1.2848552e+3, 1.3468206e+2, -1915155.9, -1604942.5, 12908.768, 0.03681867, -0.13411126, -1604406.3, 15701.289, 0.0026545508, 9.997227, 10.001407 
1.2848794e+3, 1.4468315e+2, -1839267.6, -1605947.1, -1479.8822, 0.24963325, -0.12328329, -1605937.8, -83840.664, 0.0010215283, 9.997482, 10.000579 
1.2848991e+3, 1.5468492e+2, -1494415.8, -1384527.3, -78125.695, 0.15242562, -0.044422533, -1343959.8, 80123.59, 0.00019628371, 9.999165, 10.000612 
1.284921e+3, 1.646857e+2, -1402310.5, -1326469.3, 59282.813, 0.11541861, -0.0005039838, -1294016.4, 32060.54, 0.0000059623408, 9.999248, 10.000318 
1.2849452e+3, 1.7468528e+2, -1550579.1, -1331430.9, 55369.29, 0.105445266, -0.11455764, -1318235.9, -90156.164, 0.0, 9.997505, 10.000441 
1.284967e+3, 1.8468554e+2, -1488141.3, -1266970.4, -48399.414, 0.05848088, -0.11369987, -1256842.8, -126766.516, 0.0, 9.997356, 10.000268 
1.2849867e+3, 1.9468616e+2, -1108103.4, -1022728.0, -48688.01, -0.030119708, -0.12097735, -1000664.1, 31405.08, 0.0, 9.999249, 10.000361 
1.2850077e+3, 2.0468667e+2, -951479.6, -947337.44, -12680.681, -0.0008083852, -0.07277813, -936559.8, -2496.542, 0.0, 9.9998455, 9.999929 
1.2850307e+3, 2.1468675e+2, -978376.75, -893897.5, -80093.58, 0.16037916, -0.1010535, -845587.9, -9526.163, 0.0, 9.998931, 10.000057 
1.2850526e+3, 2.246865e+2, -932443.75, -940776.25, -60990.883, 0.17884214, -0.0690097, -875477.0, -137412.33, 0.0, 9.9990835, 9.998995 
1.2850733e+3, 2.346856e+2, -636316.75, -738347.7, -59548.797, 0.037158124, -0.09671512, -608918.94, 31156.934, 0.0, 10.000413, 9.999066 
1.2850936e+3, 2.44685e+2, -479829.0, -630204.44, -106481.24, -0.019429198, -0.044959873, -424665.47, 117417.13, 0.0, 10.000875, 9.998918 
1.2851141e+3, 2.5468448e+2, -459037.4, -555927.75, -136486.77, 0.026535654, -0.032040764, -362653.13, 81433.625, 0.0, 10.000287, 9.999037 
1.2851354e+3, 2.6468325e+2, -407627.56, -569207.3, -30645.584, 0.051233914, -0.008527709, -402010.5, -55912.3, 0.00000014147287, 10.000365, 9.998232 
1.2851578e+3, 2.7468082e+2, -169736.05, -396759.34, -41827.246, 0.05024735, -0.11182336, -162274.92, 85847.15, 0.000007879153, 10.0013, 9.998292 
1.28518e+3, 2.8467947e+2, -71503.36, -346248.8, -17588.746, 0.043544926, -0.042641807, -70381.94, 79754.875, 0.00006527563, 10.001497, 9.99787 
1.2852019e+3, 2.946789e+2, -73736.64, -282429.44, 2720.5042, 0.038154196, 0.062439922, -73701.19, -21555.94, 0.000269289, 10.000738, 9.997998 
1.2852252e+3, 3.046757e+2, 16388.148, -187977.86, 132108.38, 0.0035999329, -0.058390863, 81220.086, 81220.086, 0.0006978728, 10.000915, 9.998244 
1.285249e+3, 3.1467524e+2, 236371.95, 8437.776, -6730.5913, -0.06030639, 0.017024307, 236570.52, 236570.52, 0.0013327203, 10.001957, 9.999085 
1.2948325e+3, 1.2466052e+2, -2032010.9, -1806597.3, -102915.31, 0.03707086, -0.09592574, -1766679.1, -48362.043, 0.0050962004, 9.997484, 10.000557 
1.2948534e+3, 1.3466111e+2, -1985607.5, -1737998.4, 12243.258, 0.102410965, -0.1158557, -1737394.5, -117082.266, 0.0028611089, 9.997182, 10.000517 
1.294875e+3, 1.4466177e+2, -1883183.6, -1695365.3, 33744.113, 0.017792357, -0.06478597, -1689486.6, -167178.84, 0.00111182, 9.99748, 9.999964 
1.2948984e+3, 1.5466249e+2, -1537195.3, -1474377.4, 6804.085, 0.13074043, -0.03183846, -1473648.9, -49344.105, 0.000219555, 9.999169, 9.999995 
1.2949212e+3, 1.646632e+2, -1380765.4, -1288326.6, -24868.836, 0.16082416, 0.02296328, -1282060.9, 44238.953, 0.0000074533, 9.9992695, 10.0005665 
1.2949425e+3, 1.7466392e+2, -1536421.4, -1298995.3, 4577.6777, 0.057025824, -0.0076461476, -1298907.0, -70614.56, 0.0, 9.997483, 10.000676 
1.2949641e+3, 1.8466471e+2, -1455819.5, -1193020.5, -932.5597, -0.0034673444, 0.011078822, -1193017.3, -62735.242, 0.0, 9.99732, 10.000794 
1.2949866e+3, 1.9466515e+2, -1083720.4, -954080.4, 38647.793, 0.010191203, -0.06953203, -943433.3, 88839.64, 0.0, 9.999157, 10.000881 
1.295008e+3, 2.046649e+2, -1071692.6, -1152816.8, -63573.594, 0.008386069, -0.06032982, -1036843.3, -102568.305, 0.0, 9.999664, 9.998601 
1.2950283e+3, 2.1466362e+2, -1108864.1, -1110864.5, -99232.58, -0.009482273, -0.08655537, -1010626.75, -174334.53, 0.0, 9.998701, 9.998674 
1.2950502e+3, 2.2466289e+2, -941449.2, -895377.7, -30722.66, -0.000012762587, -0.053991757, -880013.9, -141712.27, 0.0, 9.998809, 9.999437 
1.295074e+3, 2.346625e+2, -637851.8, -680354.6, 11780.228, 0.0464253, -0.08085622, -634805.1, 5499.4785, 0.0, 10.000145, 9.999594 
1.2950952e+3, 2.4466208e+2, -543289.75, -682044.0, -143500.23, 0.01866927, -0.030526487, -453275.8, 89033.01, 0.0, 10.000549, 9.998711 
1.2951136e+3, 2.546611e+2, -516825.5, -608912.25, -137932.63, -0.08925691, -0.03986068, -417454.28, 26864.654, 0.0, 10.000016, 9.998795 
1.2951347e+3, 2.6465943e+2, -426078.3, -568130.94, -15421.86, -0.08663958, -0.05328545, -424423.34, -78088.04, 0.000000052302592, 10.000179, 9.998337 
1.2951595e+3, 2.7465683e+2, -192359.02, -391694.53, 15205.378, 0.044461694, -0.18850428, -191205.83, 57153.813, 0.000007172051, 10.001065, 9.998445 
1.2951818e+3, 2.8465635e+2, -41479.883, -224460.45, -60613.73, 0.03503573, -0.091036946, -23222.748, 127140.63, 0.00006969282, 10.00124, 9.998831 
1.2952013e+3, 2.9465753e+2, -42290.105, -161864.34, -174.71716, -0.13322265, 0.08987424, -42289.848, 10060.203, 0.0003009035, 10.000504, 9.998939 
1.2952249e+3, 3.0465385e+2, -45724.086, -283769.94, 152310.86, -0.14799415, -0.09572633, 28553.416, 28553.416, 0.0007869782, 10.00077, 9.997658 
1.2952529e+3, 3.1465104e+2, 188006.22, 1403.872, 86924.57, 0.06679905, -0.20382772, 222223.64, 222223.64, 0.0015032826, 10.00156, 9.999227 
1.3048297e+3, 1.2463835e+2, -2144844.3, -1857114.5, -101127.93, 0.056910712, -0.12169537, -1825127.3, -106593.79, 0.0054552136, 9.996715, 10.000572 
1.3048516e+3, 1.3463946e+2, -1820521.5, -1654100.3, -54076.824, 0.16374288, -0.086331174, -1638072.3, -17548.447, 0.003073975, 9.998327, 10.000527 
1.3048726e+3, 1.446399e+2, -1720546.6, -1645150.6, 74797.51, -0.020124855, -0.049509816, -1599088.3, -76566.58, 0.0012055306, 9.998693, 9.999727 
1.3048969e+3, 1.5464003e+2, -1654584.1, -1554855.3, 41101.61, 0.11054418, -0.05570282, -1540099.3, -115575.055, 0.000244213, 9.998456, 9.999785 
1.30492e+3, 1.6464065e+2, -1538551.3, -1380130.9, -6151.1104, 0.18898648, 0.011257235, -1379892.5, -53371.76, 0.000009295233, 9.998299, 10.000393 
1.3049412e+3, 1.7464176e+2, -1392680.8, -1243060.5, -52893.652, 0.13108635, 0.03868694, -1226250.3, 2261.1062, 0.0, 9.99857, 10.000523 
1.304963e+3, 1.8464254e+2, -1253082.9, -1105292.0, 44.697712, 0.082074925, 0.06654358, -1105292.0, 25209.867, 0.0, 9.998731, 10.0007305 
1.304986e+3, 1.9464259e+2, -1156490.9, -991259.0, -37454.332, 0.062062543, -0.04588145, -983165.4, 49330.27, 0.0, 9.998665, 10.000866 
1.3050076e+3, 2.0464218e+2, -1147513.8, -1200705.6, -108692.03, 0.038083944, -0.04664632, -1062211.1, -127711.664, 0.0, 9.999184, 9.998508 
1.3050279e+3, 2.1464096e+2, -873494.5, -1007715.1, -87619.125, 0.006285782, -0.055029776, -830237.7, 6279.4976, 0.0, 10.000363, 9.998585 
1.3050497e+3, 2.2464043e+2, -710601.9, -768502.44, 44703.535, 0.007736347, -0.00597725, -686293.1, 52231.957, 0.0, 10.00031, 9.999586 
1.3050734e+3, 2.3464032e+2, -832847.44, -756934.0, 22376.158, 0.050193127, -0.023900073, -750829.3, -110304.46, 0.0, 9.998717, 9.999756 
1.305095e+3, 2.4463992e+2, -812003.8, -805433.44, -74327.23, 0.052670542, 0.016842674, -734318.8, -191790.5, 0.0, 9.998653, 9.998787 
1.3051146e+3, 2.5463882e+2, -458133.97, -575683.5, -80373.586, 0.011628187, -0.013327496, -417337.72, 27202.094, 0.0, 10.000376, 9.998862 
1.3051362e+3, 2.6463723e+2, -284252.56, -499040.5, 72486.88, 0.0060891337, -0.02175957, -262078.72, 84476.37, 0.000000026393016, 10.001148, 9.998349 
1.3051601e+3, 2.7463484e+2, -229058.05, -414187.16, 50745.277, 0.031029172, -0.137362, -216060.88, 32516.502, 0.0000066700077, 10.000812, 9.998424 
1.3051824e+3, 2.8463405e+2, -104416.17, -240651.42, -33678.63, 0.011502301, -0.06885978, -96545.234, 54037.32, 0.00007506801, 10.000745, 9.998948 
1.3052027e+3, 2.9463467e+2, 58195.86, -101421.17, -79120.836, -0.05126117, 0.040656943, 90768.42, 143341.86, 0.00033561388, 10.001133, 9.999043 
1.3052264e+3, 3.0463132e+2, 2752.8088, -250519.84, 117429.11, -0.07376102, -0.11972987, 48819.563, 48819.563, 0.0008838956, 10.001071, 9.99774 
1.3052545e+3, 3.146288e+2, 67963.87, 12731.076, 37838.79, 0.13852564, -0.19714062, 87192.32, 87192.32, 0.0016899819, 10.00043, 9.999864 
1.3148265e+3, 1.2461431e+2, -2052920.1, -1679544.9, 47775.055, -0.017921422, -0.18009143, -1673528.8, 45242.992, 0.005819013, 9.996756, 10.001778 
1.3148493e+3, 1.3461709e+2, -1755295.8, -1531383.0, 17154.52, 0.059957467, -0.059520457, -1530076.4, 90665.94, 0.0032902497, 9.998364, 10.00136 
1.3148715e+3, 1.4461753e+2, -1694684.8, -1596520.8, 37033.445, -0.049037904, -0.08456731, -1584116.9, -61378.477, 0.0013013786, 9.998729, 10.00004 
1.3148941e+3, 1.5461774e+2, -1642706.3, -1523174.4, 44108.98, -0.04382237, -0.10498431, -1508660.0, -83920.68, 0.00026992275, 9.998427, 10.00002 
1.3149175e+3, 1.6461815e+2, -1584223.6, -1484375.5, -18441.709, 0.05583849, -0.036834218, -1481078.3, -154339.27, 0.00001153221, 9.998323, 9.999671 
1.3149406e+3, 1.7461868e+2, -1441547.3, -1348790.3, -26317.566, 0.19528195, 0.004920032, -1341843.5, -113105.37, 0.0, 9.998575, 9.999797 
1.314963e+3, 1.8461889e+2, -1304323.3, -1193402.5, -22828.432, 0.17378804, 0.04114539, -1188888.0, -58151.12, 0.0, 9.998661, 10.000154 
1.314984e+3, 1.946184e+2, -1214410.5, -1083632.6, -26123.95, -0.019223146, -0.06842657, -1078607.3, -45868.992, 0.0, 9.998548, 10.000289 
1.3150062e+3, 2.0461847e+2, -1097928.6, -1056794.0, -81879.23, -0.06022311, -0.04311749, -992938.44, -58201.492, 0.0, 9.99901, 9.999578 
1.3150291e+3, 2.1461882e+2, -827189.8, -865689.8, -24139.582, 0.07140027, -0.0075673647, -815564.56, 21171.8, 0.0, 10.000155, 9.999663 
1.3150507e+3, 2.2461908e+2, -760897.25, -804807.3, -29057.215, 0.059117824, 0.07218909, -746433.25, -7697.695, 0.0, 10.0000305, 9.999467 
1.3150708e+3, 2.346189e+2, -882671.6, -801224.44, -16974.021, -0.09967183, 0.061786283, -797828.56, -157090.7, 0.0, 9.998469, 9.999571 
1.3150926e+3, 2.446185e+2, -826991.06, -773400.1, -32720.578, -0.07204133, 0.097915925, -757903.4, -215161.84, 0.0, 9.998384, 9.999136 
1.3151169e+3, 2.546177e+2, -468322.16, -538927.9, 3823.338, 0.17305347, 0.058822695, -468115.72, -23367.236, 0.0, 10.000122, 9.99924 
1.3151392e+3, 2.6461655e+2, -330622.4, -535651.56, 45131.242, 0.16899668, 0.08096158, -321127.75, 25630.945, 0.000000066602475, 10.000898, 9.998213 
1.3151595e+3, 2.7461463e+2, -277727.2, -454105.66, 62718.36, -0.1346038, 0.028945921, -257699.34, -8922.863, 0.0000067822207, 10.000565, 9.998261 
1.3151817e+3, 2.846128e+2, -177870.08, -357182.13, -35699.61, -0.17441218, 0.03204466, -171023.95, -20230.85, 0.000081610815, 10.000576, 9.998238 
1.3152058e+3, 2.9461056e+2, -34349.137, -229144.5, -39541.65, 0.09989673, -0.072793305, -26628.55, 26184.076, 0.00036944333, 10.000851, 9.998308 
1.315229e+3, 3.046083e+2, 9890.87, -185733.58, 83077.77, 0.0543071, -0.116064966, 40410.824, 40410.824, 0.000976967, 10.000861, 9.998281 
1.315253e+3, 3.1460822e+2, 81074.766, 141104.2, 82924.43, -0.12726235, -0.008866942, 199278.73, 199278.73, 0.0018699723, 10.000014, 10.00094 
1.3248248e+3, 1.2459112e+2, -2066153.4, -1672366.3, 157751.22, 0.17946447, -0.16260555, -1616965.3, 102036.375, 0.006183249, 9.996558, 10.001947 
1.3248464e+3, 1.345939e+2, -1848057.1, -1553445.1, -7173.197, -0.0050990074, -0.055386633, -1553270.5, 67701.414, 0.0035072896, 9.997643, 10.001548 
1.3248703e+3, 1.4459455e+2, -1792017.6, -1609741.9, -19469.873, 0.009580846, -0.084091, -1607685.4, -84720.44, 0.0013982238, 9.997905, 10.000349 
1.3248926e+3, 1.5459517e+2, -1675536.3, -1499171.3, -38683.7, -0.01769534, -0.09707135, -1491059.5, -66099.43, 0.00029637254, 9.998031, 10.000372 
1.3249159e+3, 1.6459568e+2, -1589937.0, -1497479.6, -16064.441, 0.0796065, -0.035142284, -1494767.9, -167809.66, 0.000014169166, 9.998331, 9.999569 
1.3249396e+3, 1.745958e+2, -1400820.6, -1351787.4, -15677.346, 0.21856003, -0.017198533, -1347203.4, -118241.52, 0.0, 9.998931, 9.999613 
1.324962e+3, 1.8459587e+2, -1267370.9, -1213322.9, 30523.291, 0.19640915, 0.030897228, -1199579.6, -68615.96, 0.0, 9.999082, 9.999815 
1.324983e+3, 1.9459553e+2, -1194824.5, -1114799.1, 6980.776, 0.002863107, -0.028416509, -1114194.8, -81228.31, 0.0, 9.998851, 9.999928 
1.3250051e+3, 2.045958e+2, -1122422.1, -1009336.5, -5853.483, -0.030342363, 0.008752976, -1009034.3, -74070.625, 0.0, 9.998611, 10.000085 
1.3250287e+3, 2.1459647e+2, -1044967.75, -907803.6, -24153.176, 0.10979272, 0.022510549, -903674.75, -66717.45, 0.0, 9.998415, 10.000205 
1.3250504e+3, 2.2459686e+2, -951509.6, -881473.7, -38124.62, 0.1057049, 0.083188236, -864725.44, -125771.89, 0.0, 9.998672, 9.999597 
1.3250703e+3, 2.3459671e+2, -726985.75, -706037.44, -44730.395, -0.045700893, 0.06717457, -670571.25, -29616.377, 0.0, 9.999476, 9.999734 
1.3250925e+3, 2.4459626e+2, -588481.3, -667418.1, 24113.77, -0.015710995, 0.09164285, -581697.94, -38739.098, 0.0, 10.000061, 9.999053 
1.3251173e+3, 2.545951e+2, -441542.03, -531975.4, -8844.508, 0.21528192, 0.02857281, -440685.16, 4283.6367, 0.0, 10.000342, 9.999171 
1.3251403e+3, 2.6459402e+2, -388374.84, -568103.8, 11966.441, 0.21553747, 0.06140352, -387581.63, -40602.95, 0.0000000978673, 10.000533, 9.9981575 
1.3251607e+3, 2.7459255e+2, -263813.25, -449679.88, -7164.365, -0.056268137, 0.06358212, -263537.5, -14545.119, 0.000006920427, 10.000683, 9.998227 
1.3251829e+3, 2.8459045e+2, -171767.2, -392416.4, -36513.008, -0.09720032, 0.057353634, -165882.02, -14869.262, 0.000086783395, 10.000813, 9.997877 
1.3252069e+3, 2.9458717e+2, -29191.816, -268492.56, -65704.96, 0.13122016, -0.113625005, -12338.148, 40706.223, 0.0003950438, 10.00108, 9.997927 
1.3252297e+3, 3.045855e+2, 2025.0413, -180272.27, 62144.98, 0.06570923, -0.07793896, 21194.453, 21194.453, 0.0010503886, 10.000787, 9.998344 
1.3252537e+3, 3.145858e+2, 53192.324, 148129.6, -30109.639, -0.013489076, 0.060951743, 156873.61, 156873.61, 0.0020140882, 9.999728, 10.001119 
1.3348222e+3, 1.2456942e+2, -2116485.0, -1773575.3, 11624.486, 0.17119986, -0.007420572, -1773181.6, -53964.984, 0.0065457188, 9.996554, 10.0012455 
1.3348426e+3, 1.3456985e+2, -1893361.6, -1643138.5, 34871.84, -0.17367618, -0.07600189, -1638369.6, -17156.71, 0.0037237175, 9.997624, 10.00094 
1.3348682e+3, 1.4457075e+2, -1748523.4, -1530935.5, -38673.16, -0.018376179, -0.07259729, -1524266.3, -1062.6174, 0.0014951822, 9.99794, 10.00088 
1.3348916e+3, 1.5457243e+2, -1633644.3, -1417691.5, -15979.998, 0.044200882, -0.0354876, -1416515.4, 8670.268, 0.00032323142, 9.998038, 10.000935 
1.3349149e+3, 1.6457337e+2, -1564910.8, -1440688.0, -14709.118, 0.1081662, 0.021718038, -1438970.1, -111792.81, 0.000017128494, 9.998311, 9.999968 
1.3349372e+3, 1.7457329e+2, -1379773.6, -1295411.6, 23467.27, 0.06060935, -0.024903364, -1289323.1, -60141.83, 0.00000000003443261, 9.998878, 10.000022 
1.3349594e+3, 1.8457368e+2, -1286047.8, -1241304.4, 3833.3604, 0.00095795695, 0.041396018, -1240978.4, -109797.9, 0.0, 9.999028, 9.999656 
1.3349818e+3, 1.9457418e+2, -1223127.8, -1148804.9, 14129.735, -0.011425986, 0.08231299, -1146209.3, -113030.516, 0.0, 9.9987335, 9.999757 
1.3350041e+3, 2.045743e+2, -1154083.3, -1031468.44, -33281.836, -0.009859328, 0.11788, -1023017.1, -87838.805, 0.0, 9.9984255, 10.000025 
1.3350262e+3, 2.1457379e+2, -1082889.1, -934801.7, -13601.947, -0.014843285, 0.020462828, -933562.7, -96381.375, 0.0, 9.998188, 10.000135 
1.3350484e+3, 2.2457367e+2, -961346.9, -846748.25, -23316.701, -0.004523041, 0.017398017, -842185.75, -103005.67, 0.0, 9.99843, 9.999948 
1.3350709e+3, 2.345738e+2, -735359.4, -672141.06, 5224.927, 0.05773219, -0.012503543, -671712.2, -30536.139, 0.0, 9.999247, 10.000076 
1.3350935e+3, 2.4457313e+2, -657499.94, -753603.6, 17674.447, 0.060990192, -0.0031711312, -654352.5, -111171.73, 0.0, 9.9998255, 9.998569 
1.3351157e+3, 2.5457114e+2, -512712.94, -627079.06, 20219.23, -0.011370845, -0.09932875, -509243.53, -64043.445, 0.0, 10.000119, 9.998622 
1.335139e+3, 2.6456976e+2, -423125.94, -592629.7, -662.63617, -0.0017353768, -0.0614762, -423123.34, -75909.57, 0.00000008871969, 10.000326, 9.998089 
1.3351633e+3, 2.7456877e+2, -302055.72, -467469.38, 19722.145, 0.1048749, -0.018156145, -299736.75, -50512.723, 0.000006673535, 10.000425, 9.998225 
1.3351858e+3, 2.8456706e+2, -209421.98, -425180.5, -46190.31, 0.07388213, 0.024213437, -199949.3, -48707.71, 0.00008871381, 10.000613, 9.997749 
1.3352059e+3, 2.9456434e+2, -73804.06, -307155.78, -29212.846, -0.11535492, -0.077409655, -70202.55, -16932.988, 0.00040777776, 10.000843, 9.99778 
1.3352281e+3, 3.0456305e+2, -44873.594, -234940.39, 14908.583, -0.20492795, 0.020653538, -43711.29, -43711.29, 0.0010944809, 10.000608, 9.998048 
1.3352557e+3, 3.1456143e+2, -61409.63, 7043.8604, 22117.7, 0.14776875, -0.009706833, 13568.345, 13568.345, 0.002108087, 9.9993105, 10.000352 
1.3448201e+3, 1.245476e+2, -2020463.6, -1783954.9, 24555.477, 0.28563806, 0.108834304, -1781432.4, -61999.23, 0.0069055543, 9.997477, 10.000717 
1.3448414e+3, 1.3454689e+2, -1851661.4, -1677664.1, 78146.086, -0.0803922, -0.023610936, -1647720.1, -26278.662, 0.0039389143, 9.998174, 10.000426 
1.3448668e+3, 1.4454739e+2, -1700106.8, -1483953.6, 2738.8252, 0.022881126, -0.042194486, -1483919.0, 39517.055, 0.0015916337, 9.998185, 10.001084 
1.34489e+3, 1.5454897e+2, -1585378.9, -1367921.1, -39423.586, 0.07902054, -0.03792844, -1360994.5, 64423.324, 0.0003501717, 9.998268, 10.0011635 
1.3449132e+3, 1.6455011e+2, -1531116.5, -1383448.1, -2018.4819, 0.12235258, 0.0118760895, -1383420.6, -56014.594, 0.000020254476, 9.998351, 10.000351 
1.3449354e+3, 1.7455058e+2, -1422885.8, -1268060.3, -4198.843, 0.034513187, -0.01764469, -1267946.5, -38543.12, 0.0000000014653116, 9.998383, 10.000446 
1.344958e+3, 1.8455128e+2, -1377172.8, -1278265.8, 1954.4622, -0.00779212, 0.052876703, -1278227.1, -146827.77, 0.0, 9.998361, 9.999723 
1.3449809e+3, 1.9455184e+2, -1270942.5, -1165567.5, -5481.7065, 0.03842093, 0.09448331, -1165283.0, -131885.02, 0.0, 9.998377, 9.999812 
1.3450034e+3, 2.0455194e+2, -1100723.9, -1003786.5, 12737.0205, 0.05966104, 0.12515108, -1002140.9, -66743.44, 0.0, 9.998764, 10.000053 
1.3450253e+3, 2.1455134e+2, -871191.1, -822744.06, -503.55875, 0.025088185, 0.011504796, -822738.8, 14660.771, 0.0, 9.999591, 10.000219 
1.3450478e+3, 2.2455096e+2, -753167.2, -792236.9, 6036.9272, 0.036677256, -0.0046567037, -752255.6, -12854.878, 0.0, 10.000059, 9.999541 
1.3450713e+3, 2.3455054e+2, -633526.9, -667314.25, -55407.758, 0.12559235, -0.044303082, -592494.6, 48908.9, 0.0, 10.000148, 9.999674 
1.3450941e+3, 2.4454959e+2, -585319.6, -735770.0, -30667.586, 0.1219471, -0.03294838, -579308.56, -35896.523, 0.0, 10.0004, 9.998423 
1.3451162e+3, 2.5454777e+2, -419035.47, -594085.06, -36565.414, 0.0021496578, -0.099393606, -411704.47, 33725.844, 0.0, 10.00083, 9.998512 
1.3451396e+3, 2.6454648e+2, -300455.78, -496442.66, -4192.805, 0.010446516, -0.061770707, -300366.13, 47076.707, 0.000000062099474, 10.001013, 9.998419 
1.3451645e+3, 2.745453e+2, -196814.38, -380084.13, -946.1826, 0.17682199, -0.065666296, -196809.5, 52643.87, 0.0000065347235, 10.000973, 9.998565 
1.3451873e+3, 2.845438e+2, -114980.96, -377336.78, 10583.827, 0.14479099, -0.022238417, -114554.69, 36914.086, 0.00008986311, 10.001232, 9.997785 
1.3452071e+3, 2.9454204e+2, 84031.39, -214292.22, -9195.005, -0.12760009, -0.032246847, 84314.53, 137802.98, 0.00041373618, 10.001863, 9.997919 
1.3452289e+3, 3.0454102e+2, 121782.49, -157021.6, 35894.75, -0.22271109, 0.07814074, 126329.62, 126329.62, 0.001115336, 10.001723, 9.99806 
1.3452567e+3, 3.1453815e+2, 82474.62, 29063.41, 11303.707, 0.28049162, -0.08185626, 84768.375, 84768.375, 0.0021558118, 10.000496, 9.999919 
1.3548161e+3, 1.2452499e+2, -2037232.1, -1818660.1, 13950.466, 0.057531163, 0.08883805, -1817773.4, -98115.79, 0.0072628423, 9.997498, 10.000466 
1.3548422e+3, 1.345252e+2, -1886798.4, -1747108.6, 110265.97, 0.15379211, 0.09675717, -1686428.1, -64772.082, 0.004152666, 9.998168, 9.999953 
1.3548647e+3, 1.4452454e+2, -1725844.9, -1525571.0, -19949.496, -0.030574022, 0.0072714402, -1523603.1, 58.045315, 0.0016872559, 9.998139, 10.000815 
1.3548872e+3, 1.5452474e+2, -1601093.1, -1401424.4, -18395.25, -0.05983535, -0.106820635, -1399743.8, 25912.95, 0.0003769789, 9.998268, 10.000934 
1.3549106e+3, 1.6452578e+2, -1501582.6, -1324622.0, -23021.125, -0.026700903, -0.07779488, -1321676.1, 5969.548, 0.000023370363, 9.998357, 10.000754 
1.354934e+3, 1.7452753e+2, -1403491.3, -1214555.9, 11920.601, 0.017311107, -0.020052126, -1213806.8, 15823.087, 0.0000000068048798, 9.99832, 10.000848 
1.3549569e+3, 1.8452859e+2, -1372362.1, -1241536.5, -16594.693, 0.023320237, 0.053587496, -1239464.4, -107843.31, 0.0, 9.998254, 10.000021 
1.3549793e+3, 1.9452855e+2, -1269641.4, -1133730.4, 14427.461, 0.0122642405, 0.0039802548, -1132215.8, -98591.74, 0.0, 9.99825, 10.000092 
1.3550022e+3, 2.0452878e+2, -1119749.6, -1002147.6, 23009.537, 0.031088494, 0.027393395, -997806.0, -62185.117, 0.0, 9.9985895, 10.000146 
1.3550259e+3, 2.1452908e+2, -900741.2, -829660.6, 44838.168, 0.09442104, -0.0051780627, -807985.75, 29627.203, 0.0, 9.9993515, 10.000288 
1.3550487e+3, 2.2452861e+2, -873732.3, -973749.06, -12586.17, 0.094131604, 0.02078285, -872172.75, -132556.0, 0.0, 9.99977, 9.99843 
1.3550706e+3, 2.3452695e+2, -753778.06, -855238.94, -35407.848, 0.021425093, -0.02800338, -742643.4, -101006.16, 0.0, 9.999887, 9.998507 
1.3550937e+3, 2.4452576e+2, -612649.75, -730453.5, -33507.17, 0.022688197, 0.012758882, -603786.2, -60134.91, 0.0, 10.0001335, 9.998588 
1.3551183e+3, 2.545249e+2, -438728.1, -575154.9, 211.20161, 0.10121099, 0.017300703, -438727.78, 6932.185, 0.0, 10.000574, 9.998767 
1.3551418e+3, 2.6452386e+2, -290136.38, -421320.88, -21960.8, 0.0996616, 0.037063703, -286557.7, 61110.777, 0.000000036385206, 10.000777, 9.999052 
1.3551643e+3, 2.7452216e+2, -192390.75, -309809.16, 21653.594, 0.017056355, -0.08386875, -188524.81, 61156.387, 0.0000068750182, 10.000712, 9.999176 
1.3551868e+3, 2.8452083e+2, -136810.48, -366665.56, 15005.184, -0.04864989, -0.06201725, -135835.08, 15858.13, 0.00009120505, 10.000997, 9.997968 
1.3552095e+3, 2.9452002e+2, 47694.004, -216099.94, 40123.164, -0.10465401, 0.003498728, 53661.746, 107366.15, 0.00041573873, 10.001544, 9.998063 
1.3552316e+3, 3.0451894e+2, 97844.95, -130344.91, -23539.15, -0.15670475, 0.09280943, 100247.85, 100247.85, 0.0011165407, 10.001423, 9.998378 
1.3552558e+3, 3.145153e+2, -11494.353, -58034.71, 32643.229, 0.073167436, -0.17919439, 5323.89, 5323.89, 0.0021572434, 10.000061, 9.99952 
1.364812e+3, 1.24500744e+2, -1955608.3, -1709078.0, -31803.05, -0.099197455, 0.109222025, -1705041.4, 14858.041, 0.0076198755, 9.997717, 10.001122 
1.364841e+3, 1.3450123e+2, -1986252.5, -1746995.6, 5269.7783, 0.26993558, 0.09472622, -1746879.6, -124987.984, 0.004366158, 9.997227, 10.000426 
1.364863e+3, 1.4450085e+2, -1902636.8, -1601639.8, -13315.764, 0.062493216, 0.0005258805, -1601051.8, -77158.31, 0.0017823466, 9.996879, 10.000897 
1.3648856e+3, 1.5450156e+2, -1687074.0, -1434623.8, -19512.51, -0.019047014, -0.06888148, -1433124.5, -7238.9194, 0.0004035849, 9.997647, 10.000998 
1.3649087e+3, 1.6450275e+2, -1543913.8, -1345547.0, -4664.2676, -0.015505341, -0.026152685, -1345437.4, -17563.61, 0.000026350568, 9.998065, 10.000755 
1.364932e+3, 1.7450432e+2, -1426790.0, -1222755.3, -42889.46, 0.0034820056, 0.012399913, -1214106.3, 15753.482, 0.000000016360648, 9.998151, 10.000875 
1.364955e+3, 1.8450531e+2, -1334920.6, -1196825.1, -40605.477, 0.028459592, 0.06661, -1185770.5, -53919.72, 0.0, 9.998422, 10.0002365 
1.3649784e+3, 1.9450529e+2, -1144176.4, -1038619.7, -52575.11, 0.076532766, -0.0035065827, -1016901.75, 16949.016, 0.0, 9.999001, 10.000363 
1.3650018e+3, 2.0450534e+2, -1015521.4, -987923.4, -17993.268, 0.113416135, 0.00089361647, -979047.06, -43198.527, 0.0, 9.99944, 9.999848 
1.3650256e+3, 2.1450521e+2, -872574.5, -852653.0, -58162.156, 0.13640362, -0.04188804, -803604.8, 34241.47, 0.0, 9.99969, 9.999979 
1.3650486e+3, 2.2450472e+2, -859691.56, -982064.44, -67096.97, 0.114196286, 0.005825329, -830071.75, -90220.13, 0.0, 9.999927, 9.998298 
1.3650705e+3, 2.3450357e+2, -728882.5, -864045.44, -55977.113, 0.030860612, 0.021729797, -708710.4, -66841.49, 0.0, 10.00013, 9.998339 
1.365094e+3, 2.4450268e+2, -593695.94, -683279.9, 25673.57, 0.056848615, 0.086864986, -586859.9, -42979.266, 0.0, 10.000109, 9.998917 
1.3651192e+3, 2.5450188e+2, -511887.8, -568640.06, 24854.135, 0.1988917, 0.061337147, -502542.16, -56653.86, 0.0, 9.999898, 9.99913 
1.3651428e+3, 2.64501e+2, -402018.78, -462258.94, 31044.584, 0.18174787, 0.073188245, -388883.97, -40989.19, 0.000000033203506, 9.999963, 9.99916 
1.3651644e+3, 2.7449974e+2, -216624.14, -302918.97, -4254.551, -0.026566926, -0.017307961, -216414.89, 33488.33, 0.0000069323874, 10.00048, 9.999326 
1.3651872e+3, 2.8449854e+2, -180216.22, -368842.94, 10951.679, -0.08805271, -0.0029566453, -179582.5, -27668.55, 0.00008948749, 10.000647, 9.99811 
1.3652118e+3, 2.944973e+2, -81471.516, -253841.22, -6878.829, 0.037238453, 0.012076216, -81197.43, -27269.375, 0.00040625758, 10.000567, 9.998264 
1.3652343e+3, 3.0449602e+2, 46088.223, -128776.48, -40504.688, 0.018165594, 0.051576253, 55014.813, 55014.813, 0.0010893871, 10.000949, 9.998636 
1.3652565e+3, 3.144934e+2, 195878.48, 25131.443, -48766.87, 0.073764525, -0.120629564, 208825.08, 208825.08, 0.00210587, 10.001514, 9.999441 
1.3748115e+3, 1.2447481e+2, -1855897.9, -1499540.3, 25721.082, 0.014647983, 0.16668022, -1497693.4, 222466.05, 0.0079810945, 9.997717, 10.002558 
1.3748366e+3, 1.3447493e+2, -1878422.1, -1524194.0, -11160.896, 0.07551981, -0.04075479, -1523842.8, 98306.9, 0.0045821774, 9.997224, 10.001954 
1.3748612e+3, 1.4447632e+2, -1870189.6, -1535992.5, -17004.305, 0.13288783, -0.061409224, -1535129.5, -10996.968, 0.0018779465, 9.9968815, 10.001351 
1.3748844e+3, 1.5447946e+2, -1662472.6, -1383597.0, 28086.85, 0.070965864, 0.07508893, -1380796.4, 45307.44, 0.00043006244, 9.997637, 10.001358 
1.3749073e+3, 1.644812e+2, -1574311.8, -1405336.9, -22378.621, 0.003947189, 0.17254977, -1402423.4, -74334.19, 0.000029160963, 9.998047, 10.000357 
1.374929e+3, 1.7448111e+2, -1458857.6, -1284779.8, -21510.553, -0.14871368, 0.087193996, -1282161.1, -52069.18, 0.000000027808229, 9.998117, 10.000473 
1.3749522e+3, 1.8448146e+2, -1334488.0, -1181980.3, -39431.973, -0.14676589, 0.09297548, -1172388.1, -40300.043, 0.0, 9.998371, 10.000358 
1.3749778e+3, 1.944819e+2, -1157957.4, -1035151.25, -17847.186, 0.09331812, 0.056176387, -1032610.1, 1470.1868, 0.0, 9.998862, 10.000456 
1.375002e+3, 2.0448148e+2, -1080559.3, -1080072.9, -26312.445, 0.15256047, 0.037146427, -1054002.5, -117920.305, 0.0, 9.999258, 9.999304 
1.3750242e+3, 2.1447985e+2, -951403.3, -959620.8, -29828.756, 0.0003667922, -0.09645019, -925401.6, -87303.49, 0.0, 9.999443, 9.999367 
1.3750471e+3, 2.2447951e+2, -850282.8, -891987.25, -75798.05, -0.05798464, -0.037397154, -792521.06, -52417.867, 0.0, 9.999633, 9.999056 
1.3750707e+3, 2.3448047e+2, -714956.25, -763748.0, -28141.21, 0.0020306713, 0.10892252, -702108.5, -60010.746, 0.0, 9.999834, 9.999164 
1.3750947e+3, 2.4448037e+2, -601757.2, -642723.06, -3651.5159, 0.07439979, 0.1904852, -601434.3, -57333.875, 0.0, 9.999853, 9.999324 
1.3751191e+3, 2.544788e+2, -517391.3, -529123.4, 33672.367, 0.16193269, 0.050065864, -489077.84, -42963.293, 0.0, 9.999675, 9.999513 
1.3751425e+3, 2.644781e+2, -453368.9, -527605.25, 31121.307, 0.11109059, 0.07208622, -442048.5, -93927.84, 0.000000022673568, 9.999779, 9.998798 
1.3751642e+3, 2.744779e+2, -278062.94, -376670.22, 35362.49, -0.10836539, 0.12587795, -266692.4, -16571.078, 0.0000066245593, 10.000252, 9.998927 
1.3751878e+3, 2.844767e+2, -192000.02, -358522.44, -11819.141, -0.12925753, 0.15426683, -191165.33, -39032.72, 0.00008473701, 10.000484, 9.998262 
1.3752136e+3, 2.9447412e+2, -105853.2, -245850.75, 15430.182, 0.11368218, 0.014437586, -104172.695, -50014.79, 0.00038290335, 10.000307, 9.99845 
1.3752365e+3, 3.0447215e+2, 22250.639, -126035.35, -29748.129, 0.116476625, -0.03002332, 27995.908, 27995.908, 0.0010283956, 10.000734, 9.998745 
1.3752572e+3, 3.1447193e+2, 134628.56, 19826.975, 42743.582, -0.06506975, 0.02676971, 148794.98, 148794.98, 0.0019973381, 10.001027, 9.999614 
1.3848099e+3, 1.2445019e+2, -2078649.0, -1582509.8, 177653.55, 0.18688533, 0.17629778, -1525457.5, 194942.9, 0.008351057, 9.996094, 10.00278 
1.3848327e+3, 1.3445063e+2, -1882403.1, -1471578.9, 20386.44, 0.010625462, -0.04338667, -1470569.6, 151817.75, 0.004803759, 9.996975, 10.002446 
1.384859e+3, 1.4445247e+2, -1837682.4, -1522243.8, 15076.582, 0.21779193, -0.039867755, -1521524.9, 2841.022, 0.0019753822, 9.997109, 10.001343 
1.3848826e+3, 1.544556e+2, -1694485.9, -1397191.4, -10489.313, 0.14521122, 0.094302155, -1396821.8, 29516.229, 0.00045665295, 9.997419, 10.001369 
1.3849057e+3, 1.6445719e+2, -1627694.0, -1448054.6, -32410.867, 0.070557676, 0.1872556, -1442385.9, -114060.78, 0.00003186285, 9.997791, 10.00017 
1.3849276e+3, 1.7445683e+2, -1443729.1, -1296069.4, -58233.77, -0.08768766, 0.0912861, -1275867.1, -45536.344, 0.000000039188958, 9.998326, 10.000282 
1.3849512e+3, 1.8445696e+2, -1290953.5, -1166928.3, -33187.215, -0.08346573, 0.08680246, -1158606.4, -26277.588, 0.0, 9.998659, 10.000345 
1.3849771e+3, 1.9445741e+2, -1131806.0, -1013949.1, -44747.563, 0.13683152, 0.04981575, -998884.94, 35434.754, 0.0, 9.998983, 10.000554 
1.3850014e+3, 2.0445718e+2, -1098786.9, -1102307.8, -9746.847, 0.18763852, 0.04823753, -1090642.8, -154322.27, 0.0, 9.999202, 9.99917 
1.3850239e+3, 2.1445583e+2, -961252.0, -974974.9, -18380.266, 0.03509621, -0.04510419, -948494.2, -110158.07, 0.0, 9.999433, 9.999258 
1.3850468e+3, 2.2445557e+2, -818328.8, -822047.94, -18946.473, -0.024466502, 0.00082798646, -801150.9, -60810.438, 0.0, 9.999593, 9.999564 
1.3850705e+3, 2.3445638e+2, -674096.06, -682444.25, -25024.898, 0.024703953, 0.0770338, -652899.56, -10565.921, 0.0, 9.99983, 9.999733 
1.3850947e+3, 2.4445643e+2, -561887.4, -633203.5, 12339.992, 0.09174063, 0.14572337, -559812.56, -15478.631, 0.0, 10.000167, 9.999231 
1.3851193e+3, 2.5445533e+2, -373918.75, -477126.7, -32208.348, 0.16758937, 0.063935004, -364692.25, 81652.89, 0.0, 10.000716, 9.999369 
1.385143e+3, 2.6445454e+2, -282058.25, -457598.34, -8608.4375, 0.14051375, 0.09438492, -281637.1, 66715.555, 0.0000000049794013, 10.001008, 9.998692 
1.3851656e+3, 2.744538e+2, -161851.13, -334108.34, -21643.395, -0.018257335, 0.104424305, -159173.34, 91185.836, 0.0000064670485, 10.001084, 9.998831 
1.3851891e+3, 2.8445265e+2, -108222.33, -302529.16, -35841.65, -0.045307968, 0.13948186, -101821.85, 50547.945, 0.00007994395, 10.000981, 9.9984255 
1.3852139e+3, 2.9445073e+2, -5433.0566, -167313.72, -52906.906, 0.1015263, 0.050390683, 10324.482, 64712.52, 0.00035496187, 10.000859, 9.998728 
1.3852376e+3, 3.0444843e+2, 117625.33, -129416.35, -39080.844, 0.12546703, -0.024512019, 123660.31, 123660.31, 0.00095268304, 10.00159, 9.998311 
1.3852604e+3, 3.1444758e+2, 416515.7, 135145.81, -65345.668, 0.07555687, 0.016237972, 430951.06, 430951.06, 0.001860375, 10.003023, 9.999446 
1.3948056e+3, 1.2442563e+2, -2155412.0, -1725933.9, -83299.766, 0.07217236, 0.015938792, -1710343.4, 10291.137, 0.008733579, 9.99606, 10.001787 
1.3948292e+3, 1.3442828e+2, -1925896.4, -1556255.6, 56686.0, -0.067481674, 0.07330123, -1547757.9, 74847.1, 0.005033633, 9.996958, 10.001866 
1.3948557e+3, 1.4442948e+2, -1867435.8, -1588050.1, -3107.0664, 0.1484148, 0.06326671, -1588015.5, -63423.637, 0.002076125, 9.9971285, 10.000879 
1.3948792e+3, 1.5442994e+2, -1729756.4, -1464000.8, 18885.12, 0.032966193, -0.023313299, -1462665.5, -36077.133, 0.00048381835, 9.997391, 10.000925 
1.3949035e+3, 1.6443054e+2, -1633086.3, -1458416.8, -36334.26, 0.016247071, -0.0042769713, -1451160.0, -122576.32, 0.000034571214, 9.997787, 10.000102 
1.3949278e+3, 1.7443112e+2, -1464583.9, -1319940.3, -25270.533, 0.066485, 0.005549223, -1315652.4, -85072.734, 0.00000005013657, 9.998242, 10.000162 
1.3949518e+3, 1.8443173e+2, -1288111.6, -1148910.3, -44143.457, 0.07071205, 0.04995319, -1136091.9, -3518.541, 0.0, 9.998609, 10.00049 
1.3949756e+3, 1.9443208e+2, -1144510.4, -1008416.0, -17233.596, 0.061770707, -0.013115312, -1006267.6, 28299.568, 0.0, 9.99884, 10.000666 
1.3949998e+3, 2.0443259e+2, -1102970.8, -1073525.9, -20183.371, 0.06697568, 0.04120656, -1063265.9, -126703.67, 0.0, 9.999039, 9.999443 
1.3950242e+3, 2.1443306e+2, -980813.44, -956622.75, 5488.1626, 0.09413069, 0.10353012, -955435.9, -116874.766, 0.0, 9.999181, 9.999503 
1.3950476e+3, 2.2443281e+2, -823232.44, -784221.0, -27078.268, 0.057425898, 0.12112843, -770354.5, -29790.32, 0.0, 9.999371, 9.999933 
1.39507e+3, 2.3443148e+2, -680151.7, -645651.2, 4759.1416, -0.04053606, -0.060074564, -645006.75, -2432.1936, 0.0, 9.999604, 10.000097 
1.3950938e+3, 2.4443105e+2, -642807.7, -741176.2, 14630.934, -0.043966684, -0.030545091, -640677.7, -96098.7, 0.0, 9.999912, 9.998612 
1.3951193e+3, 2.5443134e+2, -466245.94, -600728.44, 7876.2285, 0.08204308, 0.09828522, -465786.22, -19206.03, 0.0, 10.000432, 9.998653 
1.3951442e+3, 2.6443034e+2, -310248.78, -464862.25, -21962.828, 0.13257815, 0.14598104, -307189.5, 41401.234, 0.0000000011462398, 10.000782, 9.998754 
1.3951682e+3, 2.744277e+2, -192105.27, -337453.8, 3010.723, 0.096966095, -0.050727714, -192042.94, 58571.24, 0.0000063015364, 10.000821, 9.998939 
1.395191e+3, 2.844267e+2, -137595.95, -303376.2, -58918.758, 0.0018626535, -0.010226816, -118789.51, 33833.074, 0.000075522126, 10.00073, 9.998536 
1.3952124e+3, 2.944272e+2, -42510.914, -179029.58, -32315.13, -0.15700923, 0.12975356, -35248.035, 19370.176, 0.00033164787, 10.000586, 9.998777 
1.3952371e+3, 3.0442482e+2, 22436.326, -274989.88, -7869.1675, -0.10017037, 0.0933263, 22644.379, 22644.379, 0.0008920203, 10.001368, 9.997418 
1.3952652e+3, 3.1442127e+2, 307262.7, 41364.156, 41400.754, 0.18932873, -0.054870285, 313559.72, 313559.72, 0.0017485601, 10.002476, 9.999057 
1.404804e+3, 1.2440176e+2, -2039502.1, -1741860.9, -102826.195, 0.2630889, -0.02249807, -1709792.5, 11073.561, 0.009133226, 9.997133, 10.001161 
1.4048278e+3, 1.3440421e+2, -1755879.5, -1568166.8, 13945.884, 0.038343176, 0.091862015, -1567136.4, 55704.957, 0.005275387, 9.998501, 10.001045 
1.4048527e+3, 1.4440495e+2, -1659694.1, -1528476.4, -43273.66, 0.07798374, 0.09399458, -1515490.5, 9343.668, 0.0021822979, 9.998739, 10.000509 
1.404877e+3, 1.5440479e+2, -1641753.1, -1464344.3, -64025.9, 0.043869235, -0.015457703, -1443651.3, -16814.27, 0.00051218417, 9.998188, 10.000536 
1.4049017e+3, 1.6440512e+2, -1575906.0, -1382716.9, -32394.768, 0.07636442, -0.021364043, -1377429.5, -48595.832, 0.000037386584, 9.997956, 10.000543 
1.4049271e+3, 1.74406e+2, -1382330.5, -1212850.8, -9806.389, 0.16643637, -0.04108897, -1212285.3, 18537.643, 0.00000006103049, 9.998516, 10.000759 
1.4049512e+3, 1.8440683e+2, -1272736.1, -1157012.1, 16859.396, 0.15758817, -0.0022482995, -1154606.0, -21792.28, 0.0, 9.998786, 10.000348 
1.4049742e+3, 1.9440727e+2, -1156485.4, -1031100.3, -20483.844, 0.042100098, -0.04104107, -1027838.75, 6970.8794, 0.0, 9.99883, 10.000515 
1.4049985e+3, 2.0440799e+2, -1078355.5, -1018975.75, 12956.356, 0.037818734, 0.024419308, -1016271.9, -79468.64, 0.0, 9.999018, 9.999837 
1.4050241e+3, 2.1440886e+2, -879963.4, -851389.44, 17507.377, 0.15774478, 0.08075741, -843079.4, -4283.2305, 0.0, 9.999632, 10.00001 
1.405048e+3, 2.2440884e+2, -750490.9, -781721.56, 2153.6016, 0.14813106, 0.10891261, -750343.1, -9546.238, 0.0, 10.000032, 9.999623 
1.40507e+3, 2.3440744e+2, -611856.1, -642110.75, -60100.445, -0.01803893, -0.042218547, -565008.44, 77801.34, 0.0, 10.000221, 9.999812 
1.4050938e+3, 2.444068e+2, -557559.25, -716242.94, -13400.94, -0.036625743, -0.0112463, -556435.5, -11618.346, 0.0, 10.000556, 9.998481 
1.4051203e+3, 2.5440678e+2, -371280.16, -559236.06, -8747.843, 0.120766565, 0.0969047, -370873.9, 75946.766, 0.0, 10.001112, 9.998608 
1.4051457e+3, 2.6440564e+2, -267217.56, -463335.03, -12030.426, 0.19379662, 0.13838212, -266482.34, 82350.62, 0.0000000047036606, 10.001165, 9.998577 
1.4051694e+3, 2.744031e+2, -231053.95, -369442.78, -58917.668, 0.1667245, -0.025933167, -209368.45, 41487.93, 0.000006310061, 10.000639, 9.998795 
1.4051923e+3, 2.8440192e+2, -137889.16, -338045.88, -78351.195, 0.07232045, 0.018168101, -110866.82, 42000.215, 0.00007178299, 10.000866, 9.998231 
1.405214e+3, 2.944017e+2, 123244.48, -138707.16, -114236.15, -0.09732676, 0.11764361, 166063.25, 220932.66, 0.0003183702, 10.001888, 9.998431 
1.4052396e+3, 3.043993e+2, 158781.0, -247503.98, -33726.055, -0.034271415, 0.11744829, 161561.6, 161561.6, 0.0008620041, 10.002466, 9.997075 
1.405268e+3, 3.1439555e+2, 320852.13, 51538.406, -24372.81, 0.23019254, -0.01928145, 323040.06, 323040.06, 0.0016920328, 10.002531, 9.999109 
1.4148007e+3, 1.2437874e+2, -2032188.6, -1737982.8, 9273.189, 0.1473251, 0.057802916, -1737690.8, -16596.674, 0.009556688, 9.997171, 10.001178 
1.4148282e+3, 1.3437845e+2, -1830612.0, -1719662.4, 74459.76, 0.18121272, 0.006440633, -1682284.0, -59188.16, 0.0055341963, 9.998491, 10.0000105 
1.4148495e+3, 1.4437878e+2, -1671774.5, -1570135.6, -87540.21, -0.1803292, 0.0313137, -1519733.0, 5360.702, 0.0022969088, 9.99881, 10.000189 
1.4148755e+3, 1.5438007e+2, -1673179.5, -1529514.0, -71898.96, 0.042886145, 0.11232208, -1499713.0, -72628.195, 0.0005425403, 9.998186, 10.000092 
1.4149004e+3, 1.643811e+2, -1487274.8, -1205618.3, -40273.184, 0.10147261, 0.14496768, -1199972.9, 129100.09, 0.000040406845, 9.997982, 10.001751 
1.4149249e+3, 1.7438172e+2, -1303651.8, -1030198.56, 27600.973, 0.06565531, -0.029611968, -1027440.5, 203617.7, 0.00000007226826, 9.998429, 10.002063 
1.4149489e+3, 1.8438241e+2, -1309569.4, -1217725.9, 60.24968, 0.017939456, -0.054148596, -1217725.8, -84677.62, 0.0, 9.998722, 9.999958 
1.4149721e+3, 1.9438288e+2, -1215480.6, -1124910.3, -4360.7354, -0.059309997, -0.03583913, -1124700.8, -89652.8, 0.0, 9.998705, 9.999934 
1.4149968e+3, 2.0438327e+2, -1056075.4, -938334.75, 10653.657, -0.04674002, -0.0032426424, -937378.56, -333.80646, 0.0, 9.998864, 10.000465 
1.4150234e+3, 2.1438329e+2, -871382.7, -776506.2, 56970.18, 0.10035767, -0.099910304, -749809.5, 89231.06, 0.0, 9.999376, 10.000653 
1.415048e+3, 2.2438358e+2, -855363.3, -935812.3, -10685.901, 0.11042967, -0.031147297, -853968.1, -112929.46, 0.0, 9.9997635, 9.998691 
1.4150701e+3, 2.3438406e+2, -731099.4, -824147.6, -36930.73, -0.043684926, 0.11391596, -718223.4, -75181.97, 0.0, 9.999946, 9.998693 
1.4150946e+3, 2.4438368e+2, -557559.4, -667008.7, -8680.93, -0.053106427, 0.20831437, -556875.1, -11826.394, 0.0, 10.000336, 9.998924 
1.4151219e+3, 2.5438178e+2, -362228.06, -496185.25, 31880.797, 0.12861112, 0.07102129, -355027.72, 92037.73, 0.0, 10.000912, 9.999138 
1.4151469e+3, 2.6438043e+2, -333632.22, -550083.7, -48451.965, 0.17793179, 0.08617123, -323281.38, 25797.307, 0.000000079284355, 10.000947, 9.998086 
1.4151692e+3, 2.7437967e+2, -309175.03, -476570.34, -54294.277, 0.050981473, 0.15631782, -293107.13, -42018.145, 0.000007370644, 10.000399, 9.998178 
1.4151928e+3, 2.8437796e+2, -204184.98, -428717.56, -58552.508, -0.0010219915, 0.20506011, -189833.28, -36726.72, 0.00007207351, 10.000664, 9.997703 
1.4152183e+3, 2.9437432e+2, 40421.785, -246871.61, -46826.293, 0.089329414, 0.014954279, 47861.406, 103001.914, 0.00031938194, 10.001605, 9.9978285 
1.415244e+3, 3.0437186e+2, 110315.09, -273798.66, -37024.965, 0.13486502, 0.041482206, 113851.4, 113851.4, 0.00086451345, 10.0021715, 9.99702 
1.415268e+3, 3.1437036e+2, 248860.88, 37685.465, 30344.611, -0.059579924, 0.12447784, 253134.72, 253134.72, 0.0016914787, 10.001986, 9.999255 
1.4247966e+3, 1.24353506e+2, -1919086.4, -1686921.3, 60219.492, -0.009865038, 0.0825866, -1672231.0, 49111.33, 0.010011913, 9.997995, 10.001134 
1.4248268e+3, 1.3435285e+2, -1893602.9, -1745475.9, 30255.879, 0.23367445, 0.0044604903, -1739534.3, -116185.46, 0.0058154534, 9.998087, 10.000017 
1.4248492e+3, 1.4435354e+2, -1735653.0, -1575759.0, -56473.02, -0.05674114, 0.055547535, -1557824.8, -32481.781, 0.002423067, 9.998263, 10.000411 
1.4248742e+3, 1.5435499e+2, -1645430.9, -1487802.0, -40430.48, 0.105781, 0.12569606, -1478036.9, -50705.555, 0.00057589856, 9.998259, 10.000332 
1.4248984e+3, 1.6435623e+2, -1472794.4, -1180294.9, 39627.965, 0.111001976, 0.15615377, -1175021.3, 154295.39, 0.00004378684, 9.997996, 10.001911 
1.4249228e+3, 1.743571e+2, -1382048.4, -1048487.44, -16030.653, 0.070510834, -0.013692704, -1047718.75, 183580.55, 0.00000008454083, 9.997795, 10.002236 
1.4249475e+3, 1.8435788e+2, -1404115.0, -1257128.3, -21896.637, 0.05251385, -0.04301306, -1253935.6, -120647.14, 0.0, 9.998043, 10.000016 
1.4249717e+3, 1.943584e+2, -1157335.1, -1081685.5, -13956.109, 0.012784219, -0.026175782, -1079192.9, -43905.406, 0.0, 9.999051, 10.000055 
1.4249966e+3, 2.043587e+2, -949758.1, -896223.75, 34574.375, 0.016709672, -0.004410353, -879266.0, 58018.7, 0.0, 9.999629, 10.000384 
1.4250226e+3, 2.143583e+2, -819541.6, -761858.4, -15428.922, 0.09599031, -0.13246872, -757990.8, 81293.03, 0.0, 9.999758, 10.000573 
1.4250477e+3, 2.243584e+2, -828321.56, -940362.2, -48176.38, 0.11053713, -0.073979475, -810455.25, -69171.54, 0.0, 10.000013, 9.998553 
1.425071e+3, 2.3435897e+2, -648766.56, -797739.06, -39697.02, 0.034289245, 0.09355349, -638848.7, 4437.1216, 0.0, 10.000553, 9.998597 
1.425096e+3, 2.4435857e+2, -490953.8, -617845.3, 47109.105, 0.041460395, 0.18664414, -475376.56, 69916.21, 0.0, 10.000729, 9.999072 
1.4251226e+3, 2.5435662e+2, -391537.78, -491660.78, 19822.115, 0.1530987, 0.02691404, -387756.28, 59553.11, 0.00000000006254562, 10.000627, 9.99931 
1.4251477e+3, 2.6435536e+2, -350196.63, -570988.7, -31027.557, 0.1829605, 0.047088742, -345919.25, 3402.5132, 0.00000036239143, 10.00088, 9.9979725 
1.4251706e+3, 2.7435496e+2, -139793.66, -404194.2, -39686.676, 0.10068668, 0.16499116, -133965.14, 117364.164, 0.000010087366, 10.001593, 9.998098 
1.4251947e+3, 2.8435305e+2, -24252.697, -366260.2, 44901.676, 0.07277214, 0.20663355, -18455.873, 134893.7, 0.00007872079, 10.001999, 9.9974985 
1.4252207e+3, 2.9434863e+2, 120224.19, -227431.33, 22681.81, 0.15550318, -0.040724955, 121697.75, 177089.52, 0.00033516844, 10.002236, 9.997656 
1.4252469e+3, 3.043467e+2, 133745.63, -248224.16, 68095.26, 0.2159588, 0.040696338, 145522.16, 145522.16, 0.0008965645, 10.002227, 9.997195 
1.4252704e+3, 3.1434575e+2, 197044.05, 14294.695, 80633.625, 0.015261498, 0.15485036, 227534.52, 227534.52, 0.0017444047, 10.001584, 9.9993105 
1.4347947e+3, 1.2432705e+2, -1921513.6, -1714928.6, 134205.3, -0.09222688, 0.13896768, -1648868.3, 72732.88, 0.010506618, 9.998071, 10.000909 
1.4348233e+3, 1.3432766e+2, -1834056.0, -1617178.6, 59294.32, 0.046368476, 0.10065472, -1602026.3, 21571.357, 0.006123269, 9.998064, 10.000901 
1.4348513e+3, 1.443295e+2, -1657000.3, -1425989.6, -74506.61, 0.2826163, 0.16646695, -1404044.1, 121535.62, 0.002563054, 9.998313, 10.001425 
1.4348726e+3, 1.543298e+2, -1583480.8, -1351169.6, -22416.088, 0.085372925, 0.026063124, -1349026.5, 78547.086, 0.0006133788, 9.998218, 10.001299 
1.434895e+3, 1.6433063e+2, -1539538.3, -1315387.1, 8551.864, -0.06186173, 0.0064801406, -1315061.4, 14501.709, 0.000047750204, 9.997985, 10.000989 
1.4349207e+3, 1.743319e+2, -1464526.3, -1212023.4, -10016.944, 0.039573703, -0.011781206, -1211626.6, 19922.166, 0.00000010052836, 9.997756, 10.001139 
1.4349465e+3, 1.8433312e+2, -1369061.4, -1166599.8, -10018.244, 0.112604134, 0.031155035, -1166105.1, -32569.418, 0.0, 9.997972, 10.0006695 
1.434972e+3, 1.9433394e+2, -1126760.8, -985176.1, 40282.168, 0.113663524, 0.0004778887, -974517.8, 61009.652, 0.0, 9.998908, 10.000789 
1.434997e+3, 2.0433435e+2, -1024196.1, -1013705.75, 20315.664, 0.06669692, 0.027240414, -997969.1, -60446.367, 0.0, 9.999466, 9.999655 
1.4350218e+3, 2.1433394e+2, -918466.06, -912650.25, 6126.2417, -0.0026268705, -0.018974058, -908776.8, -69250.83, 0.0, 9.999515, 9.999657 
1.4350468e+3, 2.2433333e+2, -823160.06, -860736.56, -46608.418, -0.0061929254, -0.010582533, -791695.5, -50164.188, 0.0, 9.999728, 9.999229 
1.4350723e+3, 2.3433228e+2, -638068.06, -704102.06, 86.43855, 0.07829433, -0.08471916, -638067.94, 5473.5522, 0.0, 10.000259, 9.999376 
1.4350976e+3, 2.4433154e+2, -540281.3, -660143.7, 23741.844, 0.101783484, -0.06029738, -535749.94, 9798.993, 0.0, 10.000465, 9.99891 
1.4351225e+3, 2.5433102e+2, -452526.78, -550637.44, 34655.793, 0.058115922, -0.050126743, -441520.06, 6034.5933, 0.000000006122379, 10.000339, 9.9990425 
1.4351477e+3, 2.6433033e+2, -354616.7, -532484.25, -22541.805, 0.06761364, 0.022990072, -351804.34, -2241.7012, 0.0000008787704, 10.000668, 9.998345 
1.435173e+3, 2.743291e+2, -145405.8, -364975.4, 8447.9, 0.156616, 0.017858405, -145081.25, 106495.36, 0.000014147242, 10.001369, 9.998485 
1.4351974e+3, 2.8432724e+2, -55522.01, -380725.7, 35828.242, 0.12760326, 0.045021135, -51621.54, 101974.58, 0.000090681104, 10.0017805, 9.997502 
1.4352211e+3, 2.9432425e+2, 65067.79, -276087.34, 57123.086, -0.046777163, -0.057952095, 74378.39, 130005.15, 0.0003647409, 10.001942, 9.997471 
1.4352475e+3, 3.0432355e+2, 137742.56, -172750.94, 28674.115, 0.047998685, 0.13076417, 140368.42, 140368.42, 0.0009617202, 10.001965, 9.997827 
1.4352737e+3, 3.1432182e+2, 136957.36, 3344.776, 102357.74, 0.13687782, 0.09505869, 192381.14, 192381.14, 0.001861219, 10.001106, 9.999466 
1.444793e+3, 1.2430075e+2, -1935674.3, -1728587.6, 161466.58, -0.02541638, 0.11855002, -1640316.8, 81539.47, 0.011047917, 9.997966, 10.000873 
1.44482e+3, 1.3430211e+2, -1961297.8, -1614364.4, 97857.41, -0.0035199407, 0.08593105, -1588665.9, 35180.617, 0.00646129, 9.9968815, 10.001496 
1.4448506e+3, 1.4430447e+2, -1846759.9, -1453449.1, -1330.7336, 0.46908066, 0.15216559, -1453444.6, 72378.414, 0.0027186894, 9.996757, 10.001966 
1.4448713e+3, 1.5430509e+2, -1604048.0, -1292991.3, -31528.777, 0.15439732, -0.020930327, -1289827.6, 137984.77, 0.0006559602, 9.997788, 10.0019 
1.4448935e+3, 1.6430596e+2, -1516239.0, -1370847.3, 26929.969, -0.031762, -0.037981275, -1366019.5, -36217.426, 0.000052490832, 9.998437, 10.000394 
1.4449194e+3, 1.7430705e+2, -1322438.0, -1209894.5, 5227.136, 0.08919424, -0.009465993, -1209652.3, 22140.916, 0.00000012546444, 9.999038, 10.000528 
1.4449456e+3, 1.8430814e+2, -1169387.9, -1080890.5, 48308.14, 0.17880881, 0.05459998, -1059628.8, 74154.26, 0.0, 9.999371, 10.000593 
1.4449717e+3, 1.9430883e+2, -1053047.1, -948642.0, 4514.4595, 0.18003656, 0.01465634, -948447.1, 87327.055, 0.0, 9.999403, 10.0008 
1.4449969e+3, 2.0430923e+2, -1046820.2, -1046124.3, -8130.532, 0.13049106, 0.046809062, -1038334.25, -100564.48, 0.0, 9.999422, 9.999453 
1.4450216e+3, 2.1430893e+2, -925720.5, -929278.25, -14572.021, 0.043681316, 0.034431085, -912819.2, -73045.74, 0.0, 9.999554, 9.999515 
1.4450468e+3, 2.243082e+2, -789339.2, -798582.2, 1667.956, 0.039332017, 0.019811925, -789047.44, -47268.566, 0.0, 9.999752, 9.999651 
1.4450729e+3, 2.3430662e+2, -632895.0, -647342.3, -8087.497, 0.13516077, -0.15550643, -629274.8, 14514.81, 0.0, 10.000049, 9.999868 
1.4450984e+3, 2.4430577e+2, -566088.7, -686768.56, 33385.766, 0.15353301, -0.16424178, -557468.4, -11671.972, 0.0, 10.000354, 9.998779 
1.4451231e+3, 2.543056e+2, -389688.22, -541318.8, 12463.081, 0.07251219, -0.10268461, -388670.7, 59130.063, 0.000000012932129, 10.000842, 9.998872 
1.4451487e+3, 2.6430494e+2, -267734.25, -485965.06, -1281.1401, 0.076759525, -0.016580991, -267726.72, 82082.375, 0.0000016431604, 10.001251, 9.998382 
1.4451747e+3, 2.743034e+2, -87139.64, -326335.28, -39318.023, 0.18860278, -0.054741483, -80842.484, 170983.1, 0.000019343763, 10.001734, 9.998565 
1.4451995e+3, 2.8430176e+2, 5048.5127, -332166.66, 8534.46, 0.1581742, -0.021310624, 5264.37, 159107.78, 0.00010742439, 10.002123, 9.997662 
1.4452234e+3, 2.9429987e+2, 135929.61, -213693.45, 11896.277, -0.03460529, -0.03321267, 136333.92, 192197.66, 0.0004102239, 10.002323, 9.997698 
1.4452498e+3, 3.042993e+2, 219126.78, -132938.81, 12460.947, 0.05987176, 0.15540716, 219567.27, 219567.27, 0.001066146, 10.002515, 9.997845 
1.445276e+3, 3.1429657e+2, 318322.28, 43137.7, -62345.043, 0.18981874, 0.024353802, 331788.06, 331788.06, 0.0020519032, 10.002574, 9.999022 
1.4547914e+3, 1.2427419e+2, -1909510.1, -1698668.1, -244935.23, -0.08377038, -0.06624585, -1537430.4, 184681.33, 0.011640448, 9.998079, 10.001027 
1.4548169e+3, 1.3427633e+2, -1955662.8, -1582005.6, 86844.02, -0.048376676, -0.05495264, -1562808.0, 61285.438, 0.0068325973, 9.996794, 10.001766 
1.4548461e+3, 1.4427869e+2, -1854531.5, -1467171.9, 15158.893, 0.2933586, 0.007552381, -1466579.5, 59491.445, 0.0028915813, 9.996744, 10.001877 
1.4548692e+3, 1.5428075e+2, -1604498.6, -1287232.4, 22997.408, 0.15178244, -0.023680836, -1285574.0, 142474.25, 0.00070428615, 9.99776, 10.001953 
1.454893e+3, 1.642823e+2, -1518593.8, -1385027.5, 23898.799, 0.049573272, 0.02851389, -1380880.1, -50847.41, 0.000058062662, 9.998475, 10.00028 
1.4549188e+3, 1.742827e+2, -1341692.3, -1237974.3, 45203.383, 0.08305104, 0.0018680637, -1221038.6, 10992.456, 0.00000016567238, 9.998986, 10.000363 
1.4549446e+3, 1.84283e+2, -1227447.0, -1190911.9, 31185.041, 0.09809614, 0.03164492, -1173037.9, -39008.664, 0.0, 9.999322, 9.999866 
1.4549704e+3, 1.9428308e+2, -1128508.8, -1078082.5, 21983.207, 0.070926145, 0.011592026, -1069844.8, -33816.637, 0.0, 9.999276, 9.999982 
1.454996e+3, 2.0428324e+2, -1054374.4, -1014547.5, -23580.365, 0.057516817, 0.05232669, -1003597.06, -65570.586, 0.0, 9.9992285, 9.999757 
1.4550218e+3, 2.1428317e+2, -938264.7, -891584.6, 7757.078, 0.09092501, 0.022453746, -890329.4, -50302.08, 0.0, 9.999286, 9.999901 
1.4550474e+3, 2.2428283e+2, -806855.56, -772739.94, -6793.4253, 0.09547427, 0.010156156, -771436.94, -29408.879, 0.0, 9.999484, 9.999957 
1.4550723e+3, 2.3428199e+2, -662073.06, -632979.25, 22074.86, 0.06037497, -0.119737215, -621089.2, 22941.098, 0.0, 9.999733, 10.000117 
1.455098e+3, 2.4428123e+2, -610513.9, -719866.2, 34904.266, 0.038999602, -0.12408524, -600322.56, -54287.348, 0.0, 10.000091, 9.998682 
1.455124e+3, 2.542804e+2, -432742.88, -577993.0, 51491.73, 0.052347127, -0.11762567, -416340.97, 31705.385, 0.000000017460069, 10.000608, 9.998738 
1.45515e+3, 2.6427934e+2, -323934.53, -550246.5, 201.75514, 0.05299674, -0.050863296, -323934.38, 26125.14, 0.000002726617, 10.001023, 9.998047 
1.4551753e+3, 2.7427775e+2, -154446.22, -400796.6, 345.12738, 0.04216019, -0.06289207, -154445.73, 97632.11, 0.000025176965, 10.001457, 9.99818 
1.4552006e+3, 2.8427643e+2, -3789.8293, -282184.03, -2098.218, 0.020158166, 0.0050150533, -3774.016, 150318.5, 0.00012773139, 10.001836, 9.998141 
1.4552264e+3, 2.9427543e+2, 135392.03, -146725.33, 44115.293, 0.007322748, 0.022830576, 142129.53, 198232.69, 0.00046808438, 10.002029, 9.998303 
1.4552528e+3, 3.0427408e+2, 132718.75, -249710.97, 1639.2792, 0.0822283, 0.12786902, 132725.77, 132725.77, 0.00120209, 10.002242, 9.997176 
1.4552763e+3, 3.1426987e+2, 149724.23, -204693.72, -14683.529, -0.089199275, -0.0699591, 150331.53, 150331.53, 0.0023053363, 10.002123, 9.997542 
1.4647906e+3, 1.2425056e+2, -1991650.6, -1757780.6, -208934.19, 0.060276076, -0.08133861, -1635284.5, 87057.14, 0.012283002, 9.997619, 10.000835 
1.4648162e+3, 1.3425209e+2, -1737309.4, -1515884.9, 86506.71, 0.14158751, -0.09788558, -1486095.8, 138232.89, 0.00723705, 9.998477, 10.001404 
1.464842e+3, 1.4425361e+2, -1684384.5, -1450784.5, 57174.344, 0.14311767, -0.06599126, -1437541.8, 88773.12, 0.0030819494, 9.998169, 10.00132 
1.464867e+3, 1.5425621e+2, -1569195.3, -1314765.0, -8805.72, 0.14381923, -0.0023981305, -1314460.6, 113829.13, 0.0007585455, 9.998179, 10.001568 
1.4648923e+3, 1.6425787e+2, -1542270.8, -1415590.1, 16648.49, 0.13929717, 0.08729036, -1413438.6, -83164.51, 0.00006440502, 9.998385, 10.000112 
1.4649181e+3, 1.7425773e+2, -1333488.9, -1253099.1, -984.05457, 0.1213459, 0.020586984, -1253087.0, -20810.047, 0.00000022299002, 9.999106, 10.000202 
1.464944e+3, 1.842576e+2, -1240519.1, -1223058.5, 15463.864, 0.11104151, 0.029933358, -1214030.8, -79751.555, 0.0, 9.999381, 9.999595 
1.4649697e+3, 1.9425748e+2, -1127675.8, -1100292.6, 4108.3906, 0.09538897, 0.013109073, -1099689.5, -63408.887, 0.0, 9.999409, 9.999745 
1.4649956e+3, 2.0425755e+2, -1023339.8, -981408.75, 15111.702, 0.10778225, 0.05165291, -976530.2, -38250.563, 0.0, 9.999349, 9.999935 
1.4650218e+3, 2.1425766e+2, -916661.9, -851300.06, 4880.0264, 0.16918008, 0.014435547, -850937.7, -10659.941, 0.0, 9.999302, 10.000171 
1.4650476e+3, 2.2425757e+2, -813473.3, -792244.94, 19645.729, 0.1785206, 0.019388964, -780529.44, -38253.363, 0.0, 9.99951, 9.999807 
1.4650728e+3, 2.3425697e+2, -603322.1, -624639.7, -24135.695, 0.115492925, -0.06691075, -587596.44, 56681.04, 0.0, 10.000207, 9.999948 
1.4650986e+3, 2.4425629e+2, -529952.4, -676840.1, 8977.18, 0.08382555, -0.057977263, -529405.75, 16876.8, 0.0, 10.000629, 9.998718 
1.465125e+3, 2.5425535e+2, -400693.13, -548101.8, 309.76, 0.08564437, -0.0673197, -400692.47, 47601.598, 0.000000044837254, 10.000785, 9.998847 
1.4651512e+3, 2.6425418e+2, -318503.06, -554398.7, 6686.7046, 0.075728334, -0.014074284, -318313.7, 31994.162, 0.0000038968087, 10.001086, 9.997993 
1.4651768e+3, 2.7425247e+2, -132889.45, -399680.44, -3167.7078, 0.049129482, -0.02728463, -132851.84, 119475.414, 0.000030518888, 10.001623, 9.99812 
1.4652024e+3, 2.842511e+2, -19023.072, -287893.28, 10686.573, 0.03345578, 0.037457142, -18598.99, 135743.94, 0.00014669454, 10.001715, 9.998167 
1.4652283e+3, 2.9425025e+2, 25066.188, -193262.97, -42123.465, 0.04918114, 0.07372047, 32911.402, 89264.445, 0.00052534003, 10.001255, 9.998351 
1.465255e+3, 3.0424854e+2, 74002.055, -243406.0, -4404.0586, 0.12099578, 0.12660792, 74063.15, 74063.15, 0.0013448142, 10.001704, 9.997458 
1.4652796e+3, 3.1424534e+2, 291671.78, -111464.45, -13889.985, -0.005834959, 0.0030605812, 292149.78, 292149.78, 0.0025808995, 10.002999, 9.997746 
1.4747874e+3, 1.24229446e+2, -2015662.9, -1813618.3, -61669.617, -0.09029446, 0.040917177, -1796282.5, -73731.76, 0.012969953, 9.997662, 10.000408 
1.4748174e+3, 1.3422947e+2, -1815953.4, -1670911.8, 104357.28, 0.3813055, -0.025739305, -1616351.0, 8200.341, 0.0076708426, 9.99846, 10.000331 
1.4748377e+3, 1.442293e+2, -1721508.3, -1561693.9, 23632.557, -0.15944655, -0.06837915, -1558272.4, -31717.72, 0.0032881629, 9.998298, 10.000504 
1.4748639e+3, 1.542316e+2, -1630486.9, -1438478.3, 6326.318, -0.021499094, 0.049475998, -1438270.0, -9734.635, 0.00081847684, 9.998158, 10.000734 
1.4748904e+3, 1.642328e+2, -1550252.3, -1440440.3, 20271.678, 0.06157089, 0.14678901, -1436817.5, -106292.45, 0.000071419374, 9.998415, 9.999926 
1.474917e+3, 1.7423229e+2, -1355362.1, -1282120.1, 41315.016, 0.054391984, 0.056379456, -1263532.3, -31002.828, 0.0000002932695, 9.999041, 10.00003 
1.4749433e+3, 1.8423204e+2, -1231146.5, -1203541.8, -3525.174, 0.06490668, 0.059007626, -1203098.8, -68567.46, 0.0, 9.999367, 9.999742 
1.4749695e+3, 1.9423194e+2, -1130799.4, -1082688.9, 21033.309, 0.10647981, 0.023917956, -1074790.1, -38257.664, 0.0, 9.999294, 9.9999275 
1.4749955e+3, 2.0423208e+2, -1034859.06, -966609.7, -9772.435, 0.12206231, 0.05092367, -965237.94, -26707.898, 0.0, 9.999182, 10.0001135 
1.475021e+3, 2.1423243e+2, -944150.94, -848613.3, 16981.691, 0.12231269, 0.018770095, -845684.6, -5160.4976, 0.0, 9.999048, 10.000308 
1.475047e+3, 2.2423244e+2, -892342.6, -901458.8, 23160.277, 0.13548495, 0.05500929, -873296.2, -130773.5, 0.0, 9.99926, 9.999186 
1.4750735e+3, 2.3423167e+2, -684649.0, -740203.3, 20020.932, 0.1570525, 0.015943175, -678185.75, -33655.08, 0.0, 9.999969, 9.999276 
1.4750999e+3, 2.4423099e+2, -553478.7, -668162.0, -4735.832, 0.121832356, 0.052572224, -553283.5, -6745.699, 0.0, 10.000382, 9.998896 
1.4751254e+3, 2.5423023e+2, -424571.66, -537338.06, 22852.166, 0.023466201, 0.040842667, -420116.66, 28429.0, 0.000000082863835, 10.000523, 9.999049 
1.4751516e+3, 2.6422924e+2, -337992.13, -533390.75, 11201.039, -0.009006234, 0.088923, -337352.13, 13204.066, 0.0000048986644, 10.000818, 9.998263 
1.4751786e+3, 2.7422756e+2, -152454.08, -374930.34, 44757.58, 0.046270736, 0.04239406, -143787.4, 108786.55, 0.00003489947, 10.001343, 9.99842 
1.4752044e+3, 2.8422588e+2, -107467.54, -409415.13, -22133.781, 0.021752825, 0.09220615, -105853.69, 48739.45, 0.00016199093, 10.001444, 9.997463 
1.4752287e+3, 2.942242e+2, -69081.99, -324449.3, -34172.258, -0.09111715, 0.11669776, -64588.27, -7973.648, 0.0005773318, 10.000976, 9.997584 
1.4752558e+3, 3.0422246e+2, 116451.15, -86374.89, 26783.387, 0.0030068185, 0.15067804, 119928.31, 119928.31, 0.0014793195, 10.001406, 9.998678 
1.4752842e+3, 3.142224e+2, 335235.75, 108643.32, 88930.04, 0.088700354, 0.19575576, 365969.34, 365969.34, 0.0028372656, 10.002442, 9.999528 
1.4847858e+3, 1.2420488e+2, -1992663.9, -1828914.0, -45945.86, -0.0119924275, 0.04737704, -1816903.3, -94109.086, 0.013700781, 9.997908, 10.0001955 
1.4848156e+3, 1.3420533e+2, -1942394.5, -1706066.5, -15828.172, 0.4304329, 0.007847414, -1705011.0, -80221.664, 0.00813248, 9.997439, 10.000598 
1.484835e+3, 1.4420563e+2, -1935774.3, -1709851.4, 52479.383, -0.18284684, 0.015444115, -1698256.1, -171468.27, 0.0035089266, 9.997066, 10.000062 
1.4848624e+3, 1.5420687e+2, -1601208.9, -1477618.9, 20153.63, 0.009366346, 0.08053544, -1474415.5, -45635.77, 0.0008836724, 9.998611, 10.000234 
1.4848897e+3, 1.6420744e+2, -1446702.1, -1395407.9, 70906.875, 0.118716784, 0.14481848, -1345652.4, -14876.694, 0.00007901186, 9.999194, 9.999847 
1.484916e+3, 1.7420681e+2, -1384819.1, -1296775.3, 56758.848, 0.0818329, 0.04910421, -1268967.6, -36188.457, 0.00000037325287, 9.998872, 10.000009 
1.4849424e+3, 1.8420652e+2, -1325024.8, -1253005.1, 52641.14, 0.09278996, 0.04711779, -1225235.6, -90454.72, 0.0, 9.99873, 9.999715 
1.4849691e+3, 1.9420649e+2, -1153840.6, -1092753.1, 25561.127, 0.14887273, 0.023415783, -1083468.6, -46686.684, 0.0, 9.999129, 9.99994 
1.4849952e+3, 2.0420663e+2, -1001430.8, -966310.5, 9980.488, 0.1630501, 0.05590308, -963672.44, -24892.479, 0.0, 9.999493, 9.999961 
1.4850204e+3, 2.1420678e+2, -837868.94, -812152.25, -27180.695, 0.13417327, 0.02251218, -794941.9, 45833.676, 0.0, 9.999843, 10.000175 
1.4850466e+3, 2.2420657e+2, -807303.2, -882869.0, 26716.7, 0.15767911, 0.053806264, -798811.6, -56034.906, 0.0, 9.999952, 9.998971 
1.4850742e+3, 2.3420574e+2, -705654.1, -773212.94, 19674.22, 0.22207117, 0.033597264, -700342.3, -55555.445, 0.0, 9.999935, 9.99906 
1.4851005e+3, 2.4420495e+2, -588011.0, -683918.5, 40783.23, 0.18663314, 0.069845185, -573013.7, -26217.852, 0.0, 10.000139, 9.998908 
1.4851259e+3, 2.542041e+2, -406047.66, -521845.6, 14808.096, 0.027727336, 0.045296006, -404184.0, 44620.484, 0.00000011463164, 10.000628, 9.999104 
1.4851524e+3, 2.6420337e+2, -314256.88, -470957.6, 26094.809, -0.005970948, 0.094629414, -310025.66, 40786.324, 0.000005857849, 10.000778, 9.998703 
1.4851801e+3, 2.7420247e+2, -242993.47, -366804.56, 20855.55, 0.11426339, 0.08385405, -239574.81, 13246.13, 0.000039275426, 10.000514, 9.998868 
1.485206e+3, 2.8420094e+2, -200075.64, -458571.03, 31119.748, 0.09742982, 0.12705074, -196381.98, -41544.492, 0.00017769585, 10.000825, 9.997424 
1.48523e+3, 2.9419845e+2, 57404.727, -275538.2, 28836.287, -0.08444152, 0.087140754, 59883.79, 116749.25, 0.0006303682, 10.001878, 9.997501 
1.4852571e+3, 3.0419636e+2, 225204.95, -17217.86, 114394.68, -0.006619212, 0.079333775, 270661.94, 270661.94, 0.0016042597, 10.002049, 9.998864 
1.4852871e+3, 3.141973e+2, 142349.88, 93060.88, -1587.3484, 0.2388003, 0.20717855, 142400.94, 142400.94, 0.003054721, 10.000765, 10.000231 
1.4947858e+3, 1.2417743e+2, -1949338.3, -1763790.5, -2869.5688, 0.108169965, 0.014051363, -1763746.1, -40679.59, 0.014485426, 9.998021, 10.000581 
1.4948101e+3, 1.3418014e+2, -1835015.1, -1464073.5, -37906.77, 0.10858475, 0.034571297, -1460239.4, 164798.78, 0.008627366, 9.997367, 10.0022955 
1.4948334e+3, 1.4418297e+2, -1921470.1, -1714391.3, 71243.36, -0.10488907, 0.20389721, -1692248.4, -165237.77, 0.0037456865, 9.997186, 9.999983 
1.4948621e+3, 1.5418233e+2, -1624091.0, -1528980.8, 95150.57, 0.084840015, 0.10927838, -1470163.4, -41143.145, 0.0009542572, 9.998614, 9.999889 
1.4948896e+3, 1.6418196e+2, -1431892.5, -1383565.9, 40888.41, 0.14038143, 0.097164445, -1360234.6, -29210.64, 0.00008722728, 9.999267, 9.999894 
1.494915e+3, 1.7418131e+2, -1389161.5, -1293653.1, 58942.73, 0.067270346, -0.0057215556, -1265547.5, -32521.258, 0.0000004647829, 9.998822, 10.0000515 
1.494941e+3, 1.8418106e+2, -1339371.1, -1281569.0, 44125.63, 0.033772822, 0.0025467256, -1257722.1, -122694.83, 0.0, 9.998716, 9.99953 
1.4949676e+3, 1.9418126e+2, -1191244.6, -1138981.4, 54937.953, 0.06455396, 0.020434583, -1104276.9, -67248.805, 0.0, 9.998993, 9.999691 
1.494994e+3, 2.0418128e+2, -1057263.9, -1043920.94, 3596.8958, 0.07509778, 0.075849034, -1043013.1, -103984.59, 0.0, 9.999323, 9.999512 
1.49502e+3, 2.1418078e+2, -905098.3, -897112.3, 1785.3131, 0.07914857, 0.023145834, -896731.4, -55699.86, 0.0, 9.99961, 9.999702 
1.4950463e+3, 2.2418013e+2, -836326.0, -886576.5, 6486.3228, 0.106869966, 0.030050918, -835502.25, -92465.3, 0.0, 9.999699, 9.999074 
1.4950737e+3, 2.3417915e+2, -730454.94, -766893.44, 36547.137, 0.16374867, -0.022388285, -707837.5, -62790.6, 0.0, 9.999682, 9.999228 
1.4951004e+3, 2.4417822e+2, -639043.2, -725923.25, 43292.086, 0.12113602, -0.0015939843, -621154.25, -74097.49, 0.0, 9.999863, 9.998753 
1.495126e+3, 2.5417697e+2, -457042.72, -571220.6, 55988.492, -0.044514827, -0.05086492, -434170.06, 14900.199, 0.00000015644366, 10.000376, 9.998891 
1.4951527e+3, 2.641765e+2, -329427.3, -432906.97, 377.71594, -0.0678779, 0.017910033, -329425.94, 21649.424, 0.000006865855, 10.000488, 9.999099 
1.4951807e+3, 2.7417696e+2, -250771.53, -319930.6, 30952.176, 0.094821215, 0.09841285, -238942.22, 14128.145, 0.00004412461, 10.000257, 9.9993105 
1.4952071e+3, 2.8417602e+2, -192689.64, -387059.25, 46635.574, 0.08907478, 0.14941359, -182079.44, -27000.996, 0.00019465707, 10.000577, 9.998037 
1.4952318e+3, 2.9417294e+2, 58033.164, -203939.86, 98379.61, -0.1187293, -0.019336104, 90863.664, 147971.0, 0.0006807664, 10.001565, 9.998148 
1.4952587e+3, 3.0417022e+2, 102129.12, -184218.34, 56782.074, -0.09530794, -0.074917205, 112977.85, 112977.85, 0.0017053906, 10.001688, 9.997884 
1.4952874e+3, 3.1417006e+2, 32336.736, -35742.586, 3268.3718, 0.12490292, 0.05112732, 32493.285, 32493.285, 0.0032076885, 10.000341, 9.999549 
1.5047844e+3, 1.2415135e+2, -2157187.3, -1859271.0, 125778.71, 0.23709744, 0.04362559, -1813270.6, -89947.47, 0.015336173, 9.996573, 10.000636 
1.5048067e+3, 1.3415354e+2, -1784171.9, -1412736.5, -98559.08, 0.032035258, -0.017644921, -1388204.5, 237095.56, 0.0091627855, 9.997569, 10.002574 
1.5048322e+3, 1.4415753e+2, -1796221.0, -1647167.5, 15137.469, 0.029383853, 0.25337222, -1645645.8, -118385.164, 0.0040015904, 9.998041, 10.000027 
1.5048613e+3, 1.541561e+2, -1688477.3, -1547214.3, 25142.006, 0.17031878, 0.0726969, -1542872.9, -113596.664, 0.001031135, 9.998142, 9.999985 
1.5048887e+3, 1.6415545e+2, -1561376.3, -1450998.6, 5307.829, 0.19607739, 0.031321958, -1450744.0, -119461.88, 0.000096309515, 9.998371, 9.999876 
1.5049146e+3, 1.741554e+2, -1326272.6, -1259798.0, -19882.84, 0.13006435, -0.014186402, -1254304.9, -21025.076, 0.000000575819, 9.999216, 10.000097 
1.5049407e+3, 1.8415548e+2, -1245407.4, -1238695.8, -790.7027, 0.107975654, 0.025826752, -1238603.8, -103325.38, 0.0, 9.999388, 9.999486 
1.5049669e+3, 1.9415559e+2, -1199581.3, -1144633.5, -13285.511, 0.10549482, 0.039903246, -1141589.9, -104309.8, 0.0, 9.99895, 9.99966 
1.5049933e+3, 2.0415542e+2, -1120782.6, -1089649.1, 13924.98, 0.10278328, 0.08208162, -1084329.8, -145047.14, 0.0, 9.998965, 9.999368 
1.5050197e+3, 2.1415462e+2, -891303.2, -908824.4, -3352.0994, 0.100235716, 0.019421624, -890683.75, -49395.33, 0.0, 9.999791, 9.999535 
1.5050463e+3, 2.2415388e+2, -754711.2, -849078.9, 25669.033, 0.12909664, 0.028992468, -748180.9, -4885.782, 0.0, 10.000285, 9.99904 
1.5050738e+3, 2.3415303e+2, -640443.7, -725700.8, -1046.1346, 0.1861716, -0.007574046, -640430.9, 4873.327, 0.0, 10.0003195, 9.999197 
1.5051007e+3, 2.4415225e+2, -561912.4, -659934.7, 51236.4, 0.17269988, 0.019328093, -540020.4, 7291.977, 0.0, 10.000276, 9.9990015 
1.5051271e+3, 2.541513e+2, -462836.78, -540277.7, 56403.2, 0.049690302, -0.02480201, -433142.38, 16179.003, 0.00000020302433, 10.000201, 9.999179 
1.5051539e+3, 2.641507e+2, -344127.78, -478258.2, 40526.824, 0.0123507315, 0.028766146, -332833.78, 18493.691, 0.0000077496, 10.000542, 9.998767 
1.5051813e+3, 2.7415034e+2, -99600.93, -294312.0, -20664.564, 0.089633584, 0.06544579, -97431.98, 155899.3, 0.000048509926, 10.001469, 9.998918 
1.5052082e+3, 2.841491e+2, -21324.76, -249053.28, -13291.383, 0.09260408, 0.0888886, -20551.633, 134789.63, 0.00020995413, 10.00153, 9.998516 
1.505234e+3, 2.941467e+2, -49375.875, -183555.8, -29182.223, 0.0087284185, -0.06820553, -43303.926, 14056.847, 0.0007220719, 10.000563, 9.998736 
1.505261e+3, 3.0414444e+2, -34304.06, -305039.97, 3644.32, 0.033426322, -0.09061201, -34255.01, -34255.01, 0.0017709631, 10.00096, 9.997422 
1.5052892e+3, 3.1414276e+2, 349742.47, 75452.83, -67840.875, 0.17948687, -0.049593877, 365604.47, 365604.47, 0.0032780797, 10.002688, 9.9992075 
1.51478e+3, 1.2412737e+2, -2132314.3, -1853961.9, 5862.4756, 0.05992106, 0.16800489, -1853838.5, -130281.94, 0.016257107, 9.996763, 10.0005865 
1.514805e+3, 1.3412578e+2, -1898447.5, -1625200.5, -27520.018, 0.062531345, -0.14809047, -1622456.4, 3116.5146, 0.009740974, 9.997492, 10.001132 
1.5148307e+3, 1.4412968e+2, -1763470.9, -1620669.1, -7747.718, 0.017610084, 0.1910065, -1620250.0, -92715.54, 0.0042781597, 9.998196, 10.000141 
1.5148592e+3, 1.5412813e+2, -1663185.6, -1502349.1, 42234.71, 0.10857198, -0.030389048, -1491933.0, -62384.797, 0.0011151112, 9.998163, 10.000286 
1.5148868e+3, 1.641279e+2, -1546011.3, -1440410.6, 10174.452, 0.108574875, -0.049836926, -1439439.3, -107889.016, 0.000106548556, 9.998451, 9.999909 
1.514914e+3, 1.7412916e+2, -1330406.9, -1264923.6, 26800.73, 0.13311619, 0.031794816, -1255353.4, -21814.496, 0.0000007145684, 9.999188, 10.00008 
1.5149409e+3, 1.8412988e+2, -1233997.1, -1214836.9, -34246.016, 0.1541526, 0.12866685, -1188856.3, -53323.207, 0.0, 9.999387, 9.99965 
1.5149665e+3, 1.9412956e+2, -1206736.6, -1129927.3, -15877.65, 0.13024405, 0.08199922, -1126774.5, -89237.03, 0.0, 9.998826, 9.99982 
1.5149924e+3, 2.0412914e+2, -1140650.5, -1090463.5, 19165.947, 0.089786485, 0.089306764, -1083981.5, -144440.42, 0.0, 9.998787, 9.999452 
1.5150192e+3, 2.1412846e+2, -920650.8, -911345.3, 44618.18, 0.052101888, 0.025766259, -871137.94, -29593.063, 0.0, 9.999534, 9.999644 
1.5150462e+3, 2.2412793e+2, -812822.7, -901795.8, 11477.66, 0.062015966, 0.05985426, -811365.94, -67816.03, 0.0, 9.99999, 9.998823 
1.5150739e+3, 2.3412737e+2, -696027.25, -783545.56, 19422.164, 0.14838451, 0.08034229, -691910.7, -46351.863, 0.0, 10.000072, 9.998921 
1.5151013e+3, 2.4412708e+2, -559320.5, -598339.4, 28626.742, 0.17829345, 0.14434543, -544187.4, 3375.036, 0.0, 10.000023, 9.999552 
1.5151286e+3, 2.5412697e+2, -450957.16, -462193.4, 71458.555, 0.1460236, 0.1153577, -384896.22, 64663.86, 0.00000026346208, 9.999959, 9.999838 
1.5151553e+3, 2.641257e+2, -451903.47, -631081.8, 56158.58, 0.07110055, 0.11336354, -435757.1, -84186.055, 0.000008336701, 10.000247, 9.997859 
1.5151817e+3, 2.7412271e+2, -219873.69, -470874.63, 40657.223, -0.051509988, -0.0065035415, -213452.3, 40150.156, 0.00005112129, 10.001167, 9.997849 
1.5152083e+3, 2.841206e+2, -53675.42, -248337.88, -61280.242, -0.06532915, -0.024773119, -35990.844, 119631.64, 0.00022272031, 10.001234, 9.998661 
1.5152359e+3, 2.9411963e+2, -68893.82, -169001.48, -39197.11, 0.09834263, -0.065657414, -55372.504, 2254.1658, 0.0007570033, 10.000321, 9.998951 
1.5152638e+3, 3.0411857e+2, -72453.52, -306171.1, 44140.574, 0.18646514, 0.016957445, -64394.875, -64394.875, 0.001811775, 10.000657, 9.997545 
1.5152916e+3, 3.1411535e+2, 277832.03, 67302.48, 68886.836, 0.0902548, -0.11959418, 298368.94, 298368.94, 0.0032877466, 10.002122, 9.999405 
1.5247758e+3, 1.2410136e+2, -2171539.8, -1794955.9, 13700.433, 0.0030424225, 0.14235553, -1794458.1, -70650.39, 0.017244658, 9.996201, 10.001242 
1.524803e+3, 1.340992e+2, -1864717.6, -1683655.9, 10973.396, 0.12129626, -0.17401363, -1682993.3, -57161.92, 0.010359608, 9.998078, 10.000426 
1.5248294e+3, 1.441024e+2, -1688000.9, -1573951.3, 61829.68, 0.07506347, 0.13563757, -1546864.6, -19064.379, 0.0045741852, 9.998685, 10.000215 
1.5248573e+3, 1.5410143e+2, -1556386.9, -1417233.4, 58220.44, 0.096721694, -0.058275208, -1396087.8, 33719.46, 0.0012060112, 9.99874, 10.000588 
1.5248848e+3, 1.6410133e+2, -1542121.0, -1446735.9, 76263.69, 0.094474286, -0.07523572, -1404479.9, -72671.76, 0.000118081814, 9.998552, 9.999808 
1.524913e+3, 1.7410266e+2, -1409700.8, -1310995.9, 44490.84, 0.13850199, 0.027705843, -1293902.1, -60103.29, 0.0000008766353, 9.99871, 9.999984 
1.5249403e+3, 1.8410343e+2, -1300946.9, -1261416.6, -11900.449, 0.1887577, 0.1409729, -1258110.6, -122316.55, 0.0, 9.9989805, 9.99954 
1.5249664e+3, 1.9410315e+2, -1082777.8, -1086683.3, -53462.527, 0.20191938, 0.11503316, -1031232.3, 6565.446, 0.0, 9.999732, 9.9997 
1.5249926e+3, 2.0410256e+2, -954345.25, -1014157.56, 5982.047, 0.17758192, 0.11660544, -953752.8, -13949.874, 0.0, 10.000094, 9.9993515 
1.5250193e+3, 2.1410139e+2, -860567.3, -893577.75, -17133.316, 0.09577771, 0.012028167, -853282.4, -11471.203, 0.0, 9.9999695, 9.99956 
1.5250464e+3, 2.2410072e+2, -798471.1, -883778.5, -13412.231, 0.07868495, 0.033017106, -796412.1, -52595.07, 0.0, 10.000029, 9.998936 
1.525074e+3, 2.3410058e+2, -641314.44, -739036.8, -12484.603, 0.14405736, 0.082395166, -639744.7, 6076.6143, 0.0, 10.000365, 9.999085 
1.5251017e+3, 2.4410045e+2, -487042.88, -575793.0, 20536.139, 0.19140115, 0.15921573, -482521.3, 65302.01, 0.0, 10.000598, 9.999413 
1.5251294e+3, 2.5410014e+2, -346333.56, -426331.9, -34622.4, 0.21368442, 0.13121764, -333430.53, 116393.195, 0.0000003530132, 10.000762, 9.9996805 
1.5251565e+3, 2.6409882e+2, -363703.1, -584473.75, -5185.3594, 0.15491898, 0.1243678, -363581.38, -11745.661, 0.000008619123, 10.000802, 9.997921 
1.5251826e+3, 2.740959e+2, -290647.34, -483911.9, 19859.104, -0.027902381, -0.00175461, -288627.8, -34762.37, 0.000051931653, 10.000599, 9.998021 
1.5252097e+3, 2.8409368e+2, -101385.18, -297931.5, -12493.507, -0.023318185, -0.026413426, -100594.21, 55291.56, 0.00023518385, 10.001005, 9.998451 
1.5252386e+3, 2.9409248e+2, 187551.17, -82425.44, -65881.69, 0.26631415, -0.062552914, 202770.19, 260664.2, 0.000791527, 10.002205, 9.998678 
1.5252669e+3, 3.040918e+2, 223914.47, -141986.25, 52488.62, 0.34887078, 0.06647344, 231295.11, 231295.11, 0.0018473114, 10.002586, 9.997758 
1.5252931e+3, 3.140887e+2, 190001.27, 3891.3347, 5884.4907, 0.06846216, -0.075904325, 190187.14, 190187.14, 0.0032831845, 10.001583, 9.999239 
1.5347719e+3, 1.24072984e+2, -2066712.6, -1611436.5, 63730.996, -0.10035435, -0.08510369, -1602683.5, 121396.54, 0.018294634, 9.996322, 10.002461 
1.5348008e+3, 1.3407418e+2, -1864577.8, -1687509.8, 87222.75, 0.048466664, -0.06999191, -1651761.5, -25690.016, 0.011016667, 9.998098, 10.000391 
1.534828e+3, 1.4407605e+2, -1651810.4, -1545760.8, 39460.55, -0.00029922262, 0.10919322, -1532688.9, -4634.573, 0.0048880493, 9.998875, 10.000325 
1.5348554e+3, 1.5407626e+2, -1545219.1, -1381221.6, 72481.68, -0.016981905, 0.012096932, -1353779.1, 76270.98, 0.0013030368, 9.9986925, 10.000862 
1.534883e+3, 1.6407609e+2, -1550738.1, -1487228.9, 56381.34, -0.0024834184, -0.014700627, -1454274.9, -122222.31, 0.00013086536, 9.998635, 9.999496 
1.5349106e+3, 1.7407592e+2, -1441907.5, -1368564.9, 63239.258, 0.0051142084, -0.025786962, -1332133.5, -98074.375, 0.0000010420176, 9.998669, 9.999609 
1.5349382e+3, 1.8407609e+2, -1332426.3, -1329344.6, -10077.348, 0.048337605, 0.072314404, -1320691.0, -184629.81, 0.0, 9.998984, 9.999075 
1.5349662e+3, 1.9407634e+2, -1124784.1, -1154236.3, -11625.781, 0.17866956, 0.13959081, -1120748.1, -82687.14, 0.0, 9.9996395, 9.999283 
1.5349934e+3, 2.0407562e+2, -1000375.4, -1064897.5, -14695.197, 0.20808719, 0.16167147, -997186.06, -57117.766, 0.0, 9.999904, 9.999092 
1.5350194e+3, 2.1407337e+2, -919968.75, -954608.56, -6071.759, 0.08779386, -0.023261594, -918935.3, -76847.805, 0.0, 9.999704, 9.999266 
1.535046e+3, 2.2407229e+2, -812095.25, -842075.3, -20825.193, 0.015555956, -0.046456248, -801426.2, -57329.96, 0.0, 9.999724, 9.999368 
1.5350735e+3, 2.3407266e+2, -639412.0, -677429.8, 19458.977, 0.033215974, -0.0036260153, -631218.1, 14873.822, 0.0, 10.000109, 9.999636 
1.5351012e+3, 2.4407233e+2, -594963.2, -722507.0, 10355.113, 0.055022556, 0.06212288, -594127.94, -46032.094, 0.0, 10.000279, 9.998551 
1.5351294e+3, 2.5407088e+2, -460230.03, -599804.6, -7563.904, 0.11159111, 0.019391099, -459821.3, -9708.772, 0.0000004707298, 10.000504, 9.9986105 
1.5351571e+3, 2.6407e+2, -330246.7, -456579.72, -31733.7, 0.09652641, 0.07155756, -322723.47, 29397.928, 0.0000086272985, 10.000549, 9.9989195 
1.5351836e+3, 2.7406964e+2, -235557.22, -323737.2, 27237.055, -0.0194136, 0.08231583, -227822.66, 26299.09, 0.000052741245, 10.000399, 9.999218 
1.5352117e+3, 2.840681e+2, -176520.33, -396539.9, 8148.285, 0.033369444, 0.08167771, -176218.97, -20084.336, 0.00024875673, 10.000753, 9.997899 
1.5352419e+3, 2.940651e+2, 89463.836, -211741.2, 8044.7, 0.33916858, -0.06637806, 89678.54, 147842.03, 0.00082812813, 10.0018835, 9.997942 
1.5352698e+3, 3.0406415e+2, 180902.63, -150633.92, 4261.1226, 0.34909883, 0.07258525, 180957.38, 180957.38, 0.001892961, 10.002249, 9.997855 
1.5352924e+3, 3.1406257e+2, 70811.88, -108456.2, 31352.47, -0.2117275, 0.05190159, 76136.984, 76136.984, 0.0033092082, 10.001023, 9.998726 
1.54477e+3, 1.24044545e+2, -2034368.0, -1628393.9, -9802.371, 0.09325681, -0.14901903, -1628157.4, 96201.055, 0.019406972, 9.996675, 10.0021715 
1.5447986e+3, 1.3404685e+2, -2000992.9, -1740538.1, -34543.79, 0.07724567, -0.042282913, -1736034.5, -109696.0, 0.0117135905, 9.997056, 10.000543 
1.5448257e+3, 1.4404802e+2, -1961445.4, -1706328.8, -38891.78, 0.0028102829, 0.06633093, -1700531.6, -172203.14, 0.0052204016, 9.996818, 10.0002165 
1.544854e+3, 1.5404874e+2, -1606365.6, -1418522.4, -63159.094, 0.019931339, 0.026696244, -1399261.3, 31059.62, 0.0014059248, 9.998296, 10.000808 
1.544882e+3, 1.6404882e+2, -1517798.3, -1461021.6, -68907.28, 0.05504762, 0.027678004, -1414884.0, -82562.74, 0.00014487762, 9.998832, 9.999571 
1.5449089e+3, 1.7404862e+2, -1495587.0, -1386770.8, -70580.32, 0.008468722, 0.0034024012, -1352062.0, -117734.2, 0.000001197513, 9.998262, 9.99968 
1.5449367e+3, 1.8404864e+2, -1412087.6, -1337902.0, -15296.09, 0.03991138, 0.07425408, -1334872.0, -198541.67, 0.0, 9.998335, 9.999314 
1.544966e+3, 1.9404884e+2, -1089230.5, -1100534.8, 6600.4478, 0.20197642, 0.10722884, -1086192.8, -47863.676, 0.0, 9.999757, 9.999578 
1.5449938e+3, 2.0404825e+2, -967929.8, -1071437.3, 13119.717, 0.25678128, 0.13419156, -966292.75, -25957.537, 0.0, 10.000237, 9.998885 
1.5450193e+3, 2.1404645e+2, -975846.3, -1010968.6, -21993.229, 0.1370896, 0.021242809, -965263.25, -122910.89, 0.0, 9.999456, 9.9990015 
1.545046e+3, 2.2404534e+2, -872559.3, -864745.56, 25207.275, 0.07706726, 0.009798199, -843144.2, -98782.414, 0.0, 9.999306, 9.999398 
1.5450743e+3, 2.340451e+2, -616348.4, -653641.3, -9960.697, 0.096708596, -0.012378513, -613854.7, 32506.76, 0.0, 10.000248, 9.999714 
1.5451021e+3, 2.4404438e+2, -542628.4, -738092.06, -8935.153, 0.11128853, 0.025168924, -542220.8, 6148.152, 0.000000000009610117, 10.000789, 9.998218 
1.54513e+3, 2.5404283e+2, -450486.97, -635464.5, -12141.962, 0.1270586, 0.012752701, -449693.38, 694.8447, 0.0000005675007, 10.000725, 9.998277 
1.5451579e+3, 2.6404205e+2, -271608.2, -415353.22, 4903.52, 0.118748344, 0.08844277, -271441.13, 80955.81, 0.000008574752, 10.000923, 9.999021 
1.5451851e+3, 2.7404186e+2, -59345.2, -233320.34, -51111.94, 0.057867743, 0.112061806, -45440.414, 208954.52, 0.00005426492, 10.00158, 9.999281 
1.5452136e+3, 2.8404033e+2, -39075.938, -340215.63, -63307.688, 0.119597234, 0.11337721, -26308.275, 130099.88, 0.00026286932, 10.001771, 9.997764 
1.5452434e+3, 2.940371e+2, -4606.8696, -275071.56, -76079.61, 0.33812657, -0.03491022, 15324.874, 73765.74, 0.0008685198, 10.001342, 9.997743 
1.5452711e+3, 3.0403605e+2, 101400.08, -108570.62, -16777.973, 0.33613688, 0.06524019, 102732.29, 102732.29, 0.001959959, 10.001339, 9.998591 
1.5452947e+3, 3.1403577e+2, 177368.63, -36237.457, -33768.617, -0.100350685, 0.107003726, 182579.9, 182579.9, 0.0033945085, 10.001645, 9.998929 
1.5547678e+3, 1.2401683e+2, -2138290.0, -1879730.3, -134678.66, 0.11328536, 0.059100043, -1822324.1, -97688.67, 0.020587768, 9.996859, 10.00034 
1.5547954e+3, 1.3401735e+2, -1978932.3, -1668094.0, -52343.598, 0.024299173, -0.049005546, -1659516.3, -32884.805, 0.012455585, 9.99696, 10.001088 
1.5548222e+3, 1.440182e+2, -1968609.4, -1736399.0, -25406.654, -0.094372295, 0.0070204763, -1733651.8, -205027.6, 0.0055746003, 9.99687, 9.99999 
1.554853e+3, 1.5401885e+2, -1635785.3, -1476336.5, 11024.722, 0.0553853, -0.0051360233, -1475577.8, -44958.29, 0.001515748, 9.998288, 10.000414 
1.5548818e+3, 1.6401975e+2, -1464518.5, -1376712.9, -104060.9, 0.10224558, 0.074932925, -1307672.6, 24939.994, 0.00016035176, 9.998935, 10.000105 
1.5549076e+3, 1.7402084e+2, -1460182.3, -1302054.3, -81406.51, 0.016320458, 0.12556997, -1267636.4, -33032.293, 0.0000013687348, 9.998212, 10.000288 
1.5549351e+3, 1.8402132e+2, -1351684.4, -1198294.5, 9306.285, 0.010641562, 0.1590444, -1197731.9, -61132.563, 0.0, 9.998281, 10.000297 
1.5549652e+3, 1.9402073e+2, -1048006.5, -972250.6, 76827.62, 0.12556465, 0.018238885, -924471.0, 114130.33, 0.0, 9.999586, 10.000539 
1.5549934e+3, 2.0402044e+2, -1000436.44, -1111195.8, -28339.486, 0.16347744, 0.035859175, -993606.56, -53003.242, 0.0, 10.0001, 9.998688 
1.5550189e+3, 2.1402057e+2, -1025666.56, -1069402.9, -34640.348, 0.10787851, 0.14607778, -1006569.25, -163963.66, 0.0, 9.999247, 9.998712 
1.5550458e+3, 2.2401993e+2, -944261.06, -951414.56, 35827.695, 0.098886505, 0.21448477, -911832.0, -167219.06, 0.0, 9.999037, 9.998932 
1.5550755e+3, 2.3401782e+2, -688321.56, -753557.5, 42552.906, 0.18231395, 0.055471566, -667323.5, -20692.805, 0.0, 10.000025, 9.999141 
1.5551038e+3, 2.4401644e+2, -565584.5, -721775.7, -22847.234, 0.18531963, 0.048256442, -562311.06, -13667.191, 0.0, 10.00051, 9.998466 
1.5551308e+3, 2.5401598e+2, -457371.9, -598628.75, 3260.4014, 0.10463957, 0.106895596, -457296.7, -6645.365, 0.0000005355393, 10.0005, 9.99864 
1.5551585e+3, 2.6401487e+2, -368450.1, -556921.4, 12703.813, 0.05778843, 0.16788033, -367597.66, -14934.179, 0.000008556659, 10.00067, 9.998165 
1.5551871e+3, 2.7401263e+2, -170742.06, -398640.38, 189.41664, 0.06548531, 0.078454435, -170741.9, 83942.09, 0.000056489618, 10.0013, 9.998275 
1.5552153e+3, 2.840105e+2, -83224.375, -357592.94, -89489.055, 0.07783655, 0.076227106, -56616.66, 100088.19, 0.00027893353, 10.001456, 9.997793 
1.5552427e+3, 2.940085e+2, -32494.465, -261119.42, -65189.44, 0.09913729, 0.025102325, -15212.848, 43514.035, 0.0009153457, 10.001042, 9.997976 
1.5552707e+3, 3.0400738e+2, 134149.58, 33180.09, -22498.412, 0.13565306, 0.057831444, 138935.88, 138935.88, 0.0020538478, 10.001042, 9.999699 
1.5552984e+3, 3.1400803e+2, 143188.92, 42756.668, 21930.3, 0.06259357, 0.06666154, 147768.75, 147768.75, 0.003548839, 10.001043, 9.999743 
1.5647663e+3, 1.2398865e+2, -2107015.0, -1966733.3, -7040.811, 0.26935098, 0.14111616, -1966380.8, -241466.48, 0.021849003, 9.997511, 9.999445 
1.5647933e+3, 1.3398848e+2, -1749197.1, -1522369.0, -30155.0, 0.07082383, -0.04712507, -1518428.6, 108487.586, 0.013250772, 9.998378, 10.001426 
1.5648195e+3, 1.4398985e+2, -1722985.8, -1604384.1, 56599.62, -0.09257382, 0.027289793, -1581708.8, -52805.8, 0.0059556314, 9.998505, 10.0001 
1.5648517e+3, 1.5399016e+2, -1724036.5, -1525624.9, 75899.016, 0.13837299, -0.015321099, -1499920.9, -69019.5, 0.0016345053, 9.997716, 10.00034 
1.5648809e+3, 1.6399096e+2, -1653392.6, -1435890.9, 2788.2546, 0.1913683, 0.04448162, -1435855.1, -102960.91, 0.00017771397, 9.997486, 10.000411 
1.5649067e+3, 1.7399229e+2, -1348125.6, -1207438.0, -20237.924, 0.07606192, 0.08212495, -1204584.6, 30296.283, 0.0000016137079, 9.998781, 10.000674 
1.5649343e+3, 1.8399289e+2, -1200644.3, -1147577.6, 67576.13, 0.057405703, 0.113779426, -1101512.4, 35361.984, 0.0, 9.999398, 10.000113 
1.5649645e+3, 1.9399232e+2, -1115661.8, -1037460.25, 9363.76, 0.13113505, -0.004048916, -1036354.7, 2523.8225, 0.0, 9.999231, 10.000274 
1.5649931e+3, 2.0399204e+2, -1086027.5, -1143700.0, -114224.4, 0.17223619, 0.028369645, -997055.7, -56173.855, 0.0, 9.999532, 9.998712 
1.5650193e+3, 2.139922e+2, -761874.9, -925188.5, -136127.27, 0.16786659, 0.13653588, -684791.44, 158092.5, 0.0, 10.001044, 9.998806 
1.5650468e+3, 2.2399148e+2, -593489.75, -806398.9, -20038.807, 0.1876825, 0.20523593, -591620.1, 153271.88, 0.0, 10.001519, 9.99875 
1.5650761e+3, 2.3398943e+2, -638146.0, -741918.8, -16736.576, 0.24337809, 0.06684569, -635513.5, 11396.2295, 0.0, 10.000414, 9.999033 
1.5651046e+3, 2.4398813e+2, -601695.94, -714216.0, -15372.051, 0.23730245, 0.063960604, -599633.7, -50712.223, 0.0, 10.00014, 9.9987 
1.5651318e+3, 2.5398776e+2, -351723.8, -514543.5, -27031.14, 0.1400849, 0.10319703, -347353.44, 103573.33, 0.00000039469393, 10.001081, 9.998932 
1.5651597e+3, 2.6398653e+2, -256364.69, -502712.4, 20567.033, 0.09497403, 0.13768944, -254659.39, 98280.0, 0.000008163994, 10.001432, 9.998176 
1.5651885e+3, 2.7398401e+2, -242333.95, -435249.94, 31309.4, 0.11441675, 0.02323783, -237379.8, 17584.025, 0.000058543963, 10.000811, 9.998261 
1.5652166e+3, 2.8398234e+2, -172121.52, -357924.75, 36373.082, 0.12668237, 0.048772592, -165254.84, -8274.029, 0.00029613846, 10.000654, 9.9982 
1.565244e+3, 2.9398167e+2, 41265.79, -174935.73, 33049.387, 0.13407035, 0.0985845, 46205.004, 105193.83, 0.00096601876, 10.001317, 9.998456 
1.5652725e+3, 3.0398e+2, 236790.05, 47753.617, 87829.91, 0.17913626, 0.055199318, 271298.13, 271298.13, 0.002166349, 10.001878, 9.999398 
1.565301e+3, 3.139799e+2, 254520.78, 41607.805, -58394.93, 0.1855976, 0.04041905, 269484.84, 269484.84, 0.0037553748, 10.001981, 9.999309 
1.574764e+3, 1.2395934e+2, -2054673.9, -1891897.3, 77351.7, 0.18954566, 0.04068428, -1861003.1, -135802.34, 0.023204513, 9.997636, 9.999907 
1.5747917e+3, 1.339605e+2, -1727978.0, -1488127.9, 19620.06, 0.03553199, -0.016239094, -1486533.6, 140656.17, 0.014108494, 9.998422, 10.001637 
1.574818e+3, 1.4396346e+2, -1655188.4, -1512146.1, 10758.43, -0.15657283, 0.16467036, -1511341.5, 17818.314, 0.0063687824, 9.998705, 10.000642 
1.5748498e+3, 1.5396272e+2, -1718852.6, -1503954.8, 54139.63, 0.14028408, 0.003556593, -1491085.9, -59920.336, 0.00176415, 9.997675, 10.000511 
1.5748784e+3, 1.639625e+2, -1633100.4, -1403648.4, 20626.094, 0.15618323, -0.060084213, -1401809.0, -68643.28, 0.00019721544, 9.997521, 10.000615 
1.5749052e+3, 1.73963e+2, -1337867.0, -1179729.8, 47166.285, 0.039425988, -0.1293215, -1166730.4, 68427.195, 0.0000019795527, 9.998754, 10.000876 
1.5749337e+3, 1.8396352e+2, -1285616.1, -1330821.0, 47128.55, 0.018037906, -0.06042437, -1255950.4, -118796.67, 0.0, 9.999417, 9.998848 
1.5749633e+3, 1.9396386e+2, -1241422.3, -1263154.3, 15757.932, 0.0756351, 0.05974242, -1233147.1, -193989.2, 0.0, 9.999079, 9.998798 
1.5749924e+3, 2.0396324e+2, -1102899.5, -1140822.3, -84782.89, 0.114973225, 0.1339806, -1034983.56, -93815.1, 0.0, 9.999356, 9.998819 
1.5750207e+3, 2.1396112e+2, -780912.1, -910561.4, -64954.25, 0.17090982, -0.010358359, -753969.2, 89219.98, 0.0, 10.000806, 9.999026 
1.5750486e+3, 2.239599e+2, -609323.8, -779796.25, -66833.38, 0.18282089, -0.019991796, -586246.06, 158954.4, 0.0, 10.001264, 9.999053 
1.5750758e+3, 2.3395991e+2, -656485.2, -720773.9, -43506.477, 0.14150062, 0.020590696, -634536.4, 12662.27, 0.0, 10.000158, 9.999303 
1.5751037e+3, 2.4395949e+2, -632950.06, -708343.06, -5017.081, 0.1099003, 0.080371656, -632617.6, -83415.85, 0.0, 9.999835, 9.998884 
1.5751328e+3, 2.5395817e+2, -380216.63, -514152.44, 26059.41, 0.102076836, 0.006304128, -375325.0, 75889.31, 0.00000029448665, 10.000822, 9.999057 
1.5751614e+3, 2.6395705e+2, -248746.1, -422039.38, -15140.784, 0.08763258, 0.014666451, -247433.19, 105791.5, 0.000007127328, 10.001152, 9.998867 
1.575189e+3, 2.7395594e+2, -218787.3, -332038.44, 27430.654, 0.05326278, -0.041987773, -212493.11, 42742.19, 0.000059012113, 10.000581, 9.999083 
1.5752172e+3, 2.839556e+2, -159573.1, -283440.25, 35172.227, 0.09041928, 0.043566138, -150282.7, 6955.4927, 0.00030982727, 10.000438, 9.9988165 
1.5752469e+3, 2.9395658e+2, 33603.9, -115373.055, 84179.16, 0.2540031, 0.19126973, 71519.44, 130747.83, 0.0010139579, 10.000992, 9.999022 
1.5752755e+3, 3.0395368e+2, 72193.48, -208146.48, 77843.2, 0.26793638, 0.07260468, 92358.11, 92358.11, 0.002282176, 10.001531, 9.997789 
1.5753016e+3, 3.1395128e+2, 63068.18, -206964.86, 4058.8892, -0.02843534, -0.00364648, 63129.176, 63129.176, 0.0039773253, 10.001374, 9.997865 
1.584761e+3, 1.23929754e+2, -1993693.4, -1823344.3, 104095.33, 0.14994413, -0.004044697, -1774017.8, -48528.61, 0.024665277, 9.997894, 10.00023 
1.5847896e+3, 1.3393128e+2, -1721159.4, -1463494.8, -707.23706, 0.0007359422, -0.043406695, -1463492.9, 163981.73, 0.0150364665, 9.998366, 10.001828 
1.5848175e+3, 1.4393492e+2, -1624296.5, -1475166.5, -50700.156, -0.06753828, 0.18232802, -1459562.6, 69875.125, 0.0068181083, 9.998806, 10.000856 
1.5848483e+3, 1.5393397e+2, -1589630.6, -1430375.4, -64974.484, 0.21444888, -0.011228513, -1407230.3, 24214.863, 0.0019058621, 9.998486, 10.000634 
1.5848768e+3, 1.6393355e+2, -1516955.8, -1350588.6, -15682.656, 0.20839167, -0.09809033, -1349123.3, -15676.469, 0.0002187055, 9.99835, 10.000571 
1.5849043e+3, 1.739339e+2, -1293193.4, -1159573.8, -44914.914, 0.06207151, -0.17640965, -1145879.5, 89560.36, 0.000002466339, 9.99909, 10.000846 
1.5849333e+3, 1.8393439e+2, -1311829.9, -1358229.9, -27883.16, 0.047573287, -0.10100652, -1298757.1, -161320.4, 0.0, 9.999311, 9.998707 
1.5849628e+3, 1.9393483e+2, -1234405.4, -1272835.0, 610.005, 0.11423025, 0.04544557, -1234395.8, -194954.11, 0.0, 9.9991865, 9.998673 
1.5849921e+3, 2.0393437e+2, -1093317.5, -1104626.4, 43395.266, 0.15913498, 0.125328, -1055209.9, -113758.67, 0.0, 9.99925, 9.999135 
1.5850212e+3, 2.1393245e+2, -898140.1, -924946.4, 49979.516, 0.20616733, -0.039146774, -859797.75, -16329.209, 0.0, 9.999772, 9.99944 
1.5850495e+3, 2.2393142e+2, -779160.7, -861228.0, 31193.986, 0.21636224, -0.055719677, -768649.94, -23171.965, 0.0, 10.000133, 9.999035 
1.5850762e+3, 2.339315e+2, -600582.25, -708265.9, -15340.615, 0.15413095, 0.00849854, -598439.44, 49037.355, 0.0, 10.000604, 9.999189 
1.585104e+3, 2.4393101e+2, -495772.1, -630549.3, 56867.926, 0.12558514, 0.066742696, -474983.7, 74497.36, 0.0, 10.000744, 9.998973 
1.5851335e+3, 2.5392967e+2, -424348.5, -527288.9, 44916.83, 0.12989604, -0.017189628, -407505.44, 43987.65, 0.00000023115544, 10.000488, 9.999132 
1.5851623e+3, 2.6392862e+2, -353659.7, -452733.13, 3701.3054, 0.124575466, -0.011864354, -353521.6, -19.321636, 0.0000061293663, 10.000359, 9.999026 
1.5851898e+3, 2.739278e+2, -193390.89, -296057.34, -42245.77, 0.09181265, -0.0542751, -178242.5, 77267.4, 0.000060026516, 10.000675, 9.999266 
1.5852183e+3, 2.8392765e+2, -76261.9, -245775.48, -28067.1, 0.13219784, 0.040164534, -71735.57, 85775.33, 0.0003212461, 10.001029, 9.998777 
1.5852481e+3, 2.9392835e+2, 84546.11, -98039.68, -71414.77, 0.2816558, 0.17158227, 109160.34, 168663.66, 0.0010570007, 10.001361, 9.998955 
1.5852772e+3, 3.0392498e+2, 99346.41, -229661.03, -21395.045, 0.27679318, 0.02176432, 100731.87, 100731.87, 0.0023874303, 10.001827, 9.997524 
1.5853041e+3, 3.1392264e+2, 205678.58, -101016.35, -75056.82, 0.07674916, -0.011526463, 223061.81, 223061.81, 0.0041719265, 10.002172, 9.998228 
1.5947594e+3, 1.2389979e+2, -1957494.6, -1815691.1, -37069.38, 0.108844504, -0.055077944, -1806585.4, -80805.336, 0.026239868, 9.998147, 10.000175 
1.5947868e+3, 1.3390104e+2, -1727126.8, -1480188.5, 58899.805, -0.13303454, -0.12629446, -1466859.3, 160908.92, 0.016040104, 9.998388, 10.0017 
1.5948173e+3, 1.4390394e+2, -1609296.5, -1490048.8, -79041.484, -0.028423088, 0.049214788, -1450664.8, 79075.15, 0.0073062, 9.998988, 10.000672 
1.5948471e+3, 1.5390411e+2, -1575578.0, -1416635.8, -65235.35, 0.20645562, -0.042072546, -1393290.0, 38448.164, 0.002060233, 9.998543, 10.000705 
1.5948753e+3, 1.6390458e+2, -1525151.9, -1394163.1, -18385.197, 0.18801476, -0.028783193, -1391631.6, -57898.37, 0.00024185247, 9.998458, 10.000223 
1.5949033e+3, 1.7390521e+2, -1330398.9, -1230105.0, -3804.8293, 0.019105302, -0.034787018, -1229960.8, 5765.174, 0.0000030340082, 9.999059, 10.000379 
1.5949322e+3, 1.8390553e+2, -1239472.5, -1208411.6, -49115.57, -0.01803317, 0.0021410268, -1172429.6, -34705.992, 0.0, 9.99931, 9.999736 
1.5949622e+3, 1.9390526e+2, -1173472.9, -1110844.0, 12064.546, 0.1035101, -0.04210397, -1108600.3, -68870.81, 0.0, 9.9990425, 9.999852 
1.5949914e+3, 2.0390554e+2, -1070912.4, -1020032.1, 43373.22, 0.15074074, 0.017216431, -995188.7, -53459.97, 0.0, 9.999086, 9.999792 
1.5950204e+3, 2.1390644e+2, -898804.75, -858433.4, 84471.914, 0.1326225, 0.07141328, -791768.8, 51950.902, 0.0, 9.999487, 10.000031 
1.5950489e+3, 2.2390623e+2, -846182.56, -942329.6, 31232.99, 0.12614769, 0.12610072, -836927.56, -91205.28, 0.0, 9.999867, 9.998609 
1.5950769e+3, 2.3390424e+2, -680131.6, -813585.9, 23618.656, 0.14007008, 0.030799666, -676074.94, -28331.236, 0.0, 10.000338, 9.998596 
1.5951051e+3, 2.4390285e+2, -548081.8, -671028.4, 37110.586, 0.12097679, 0.037016507, -537748.7, 12009.4, 0.0, 10.000456, 9.998828 
1.5951337e+3, 2.5390217e+2, -471714.78, -553233.3, 52662.625, 0.077671774, 0.025533274, -445880.75, 5882.7817, 0.00000009760233, 10.0001955, 9.9990835 
1.5951623e+3, 2.6390114e+2, -422625.3, -540942.0, -2553.4373, 0.058489714, 0.056943953, -422570.22, -68797.74, 0.0000054247644, 10.000111, 9.998543 
1.5951906e+3, 2.738996e+2, -267751.75, -396427.72, -7117.3203, 0.078629166, -0.007067092, -267359.25, -11572.327, 0.0000627863, 10.00043, 9.998698 
1.5952191e+3, 2.838984e+2, -173633.5, -370015.97, -33753.473, 0.08231499, 0.04432131, -167994.02, -10195.079, 0.0003316825, 10.000705, 9.998076 
1.5952475e+3, 2.9389694e+2, -14663.123, -220755.17, -27992.943, 0.05261559, 0.026491374, -10928.588, 48885.26, 0.0010854213, 10.001013, 9.998279 
1.5952767e+3, 3.038939e+2, 93670.25, -144753.81, -24176.955, 0.03479204, -0.08587895, 96097.164, 96097.164, 0.0024525027, 10.001437, 9.998287 
1.5953077e+3, 3.1389415e+2, 236177.34, 117838.23, -5309.281, 0.17000774, 0.04129092, 236415.08, 236415.08, 0.0042836345, 10.001541, 10.0000305 
1.6047584e+3, 1.2387073e+2, -1855567.3, -1738026.5, -23609.654, 0.19248474, -0.0401968, -1733461.5, -7396.4756, 0.027939666, 9.998753, 10.000428 
1.6047859e+3, 1.3387161e+2, -1787826.4, -1557944.5, 21558.621, -0.039309233, -0.101924844, -1555940.3, 72116.72, 0.01712635, 9.998216, 10.001241 
1.6048159e+3, 1.4387332e+2, -1820338.9, -1595159.0, -67785.305, 0.013163862, -0.01018009, -1576328.5, -46287.555, 0.007836914, 9.997594, 10.000601 
1.6048455e+3, 1.5387432e+2, -1522029.1, -1373769.9, -97559.01, 0.18387116, -0.031247664, -1325372.1, 106659.75, 0.0022287087, 9.998865, 10.000828 
1.6048741e+3, 1.6387531e+2, -1421706.9, -1348175.5, -13674.926, 0.20331007, 0.028920535, -1345714.6, -11691.915, 0.00026665046, 9.999198, 10.000171 
1.6049024e+3, 1.7387606e+2, -1384750.4, -1258575.9, -7037.1587, 0.059001613, 0.04216944, -1258184.6, -22169.559, 0.0000036433328, 9.998708, 10.000342 
1.6049315e+3, 1.838764e+2, -1326770.3, -1211007.5, -19450.422, 0.030350043, 0.06551768, -1207826.9, -69814.664, 0.0, 9.9985285, 10.000096 
1.6049615e+3, 1.9387574e+2, -1108305.5, -1030722.56, -49417.56, 0.1319598, -0.062309496, -1006689.9, 33329.27, 0.0, 9.999253, 10.000305 
1.6049911e+3, 2.0387612e+2, -986125.0, -948284.5, -32432.463, 0.18569851, -0.027403707, -929656.9, 12359.116, 0.0, 9.999554, 10.000057 
1.60502e+3, 2.1387804e+2, -884195.25, -817519.4, -56529.414, 0.16652048, 0.106467694, -785229.6, 58768.145, 0.0, 9.999466, 10.000312 
1.6050488e+3, 2.238783e+2, -865392.44, -942302.7, -56068.69, 0.16046622, 0.18961993, -835858.6, -89862.19, 0.0, 9.999684, 9.998693 
1.6050772e+3, 2.3387605e+2, -645231.3, -773891.25, -49235.59, 0.16034156, 0.057699706, -628552.06, 19468.563, 0.0, 10.000492, 9.998772 
1.6051058e+3, 2.4387465e+2, -498324.56, -654772.56, -3246.7751, 0.15045106, 0.054796185, -498257.2, 51778.41, 0.0, 10.000838, 9.99876 
1.6051346e+3, 2.538742e+2, -417766.5, -537620.6, -25577.273, 0.14545238, 0.083666526, -412536.44, 39502.883, 0.000000007673713, 10.000604, 9.998999 
1.6051634e+3, 2.6387313e+2, -332575.88, -508344.4, -7354.309, 0.13715126, 0.11620437, -332268.7, 21780.475, 0.0000049768487, 10.000765, 9.998462 
1.6051918e+3, 2.7387124e+2, -118698.26, -340209.72, -28747.57, 0.11449375, 0.032762475, -115028.23, 141038.64, 0.00006482946, 10.001505, 9.998589 
1.6052203e+3, 2.838695e+2, -31613.979, -310500.5, 3174.6943, 0.10130009, 0.044045776, -31577.844, 126505.53, 0.00033743004, 10.001668, 9.998046 
1.6052487e+3, 2.938676e+2, -14171.233, -218360.63, 7105.017, 0.087543726, -0.017492827, -13924.304, 46177.93, 0.0010902435, 10.000985, 9.99832 
1.605278e+3, 3.0386525e+2, 4191.321, -162951.94, 87832.695, 0.07465299, -0.07118258, 41858.297, 41858.297, 0.0024557933, 10.000716, 9.9985075 
1.60531e+3, 3.1386548e+2, 206175.45, 166451.28, -27610.74, 0.289995, 0.031328224, 220325.95, 220325.95, 0.004283157, 10.001022, 10.000629 
1.614756e+3, 1.2384289e+2, -1774617.5, -1658311.5, -35174.133, -0.022979515, 0.07068564, -1648501.4, 77839.92, 0.02978273, 9.999102, 10.0008335 
1.6147862e+3, 1.3384345e+2, -1836772.5, -1670158.5, -19207.148, 0.14147992, 0.060413934, -1667973.0, -39636.5, 0.018308382, 9.998259, 10.000448 
1.6148125e+3, 1.4384367e+2, -1802209.1, -1582017.8, -52807.12, -0.14484361, 0.045858894, -1570008.4, -39673.273, 0.008418617, 9.997688, 10.000649 
1.6148429e+3, 1.5384464e+2, -1514367.9, -1365483.3, -30412.479, -0.0034127426, 0.01905259, -1359510.5, 72815.4, 0.0024150687, 9.998894, 10.000874 
1.6148727e+3, 1.638456e+2, -1376811.8, -1298829.1, -49720.582, 0.07649482, 0.06386778, -1274634.5, 59681.805, 0.0002938315, 9.999371, 10.000429 
1.6149014e+3, 1.7384648e+2, -1363669.8, -1218088.1, -14265.087, 0.049689505, 0.05602846, -1216703.5, 19603.336, 0.000004294035, 9.998702, 10.000629 
1.6149305e+3, 1.8384689e+2, -1347327.6, -1249982.1, -16278.668, 0.032148093, 0.084516644, -1247332.0, -109029.125, 0.0, 9.998515, 9.999832 
1.6149603e+3, 1.938463e+2, -1148701.6, -1091948.4, -6603.018, 0.061379433, -0.0060637165, -1091190.3, -50880.016, 0.0, 9.999153, 9.999936 
1.61499e+3, 2.0384628e+2, -1024854.2, -985362.44, -53995.348, 0.09913087, 0.018070744, -947615.75, -5304.1294, 0.0, 9.999369, 9.999889 
1.6150197e+3, 2.1384723e+2, -931295.1, -861418.56, -45445.637, 0.17558546, 0.06908606, -839033.25, 5270.0215, 0.0, 9.999237, 10.00012 
1.615049e+3, 2.2384761e+2, -868377.06, -872550.25, -47837.94, 0.1763968, 0.14640878, -822580.25, -76279.7, 0.0, 9.99937, 9.999319 
1.6150771e+3, 2.3384693e+2, -637914.25, -688513.3, -94.53357, 0.06599263, 0.09803746, -637914.06, 10393.848, 0.0, 10.000201, 9.999495 
1.6151059e+3, 2.4384631e+2, -537604.94, -679392.25, -26938.693, 0.04484371, 0.13725318, -532659.25, 17655.385, 0.0, 10.000578, 9.99872 
1.6151358e+3, 2.5384575e+2, -466924.22, -579221.5, -12917.446, 0.18227133, 0.15659714, -465457.5, -13136.717, 0.00000000987263, 10.000337, 9.998843 
1.6151649e+3, 2.638446e+2, -372614.94, -513846.38, -1824.3307, 0.19436418, 0.18475123, -372591.38, -18259.738, 0.000004852571, 10.000442, 9.998571 
1.6151927e+3, 2.738423e+2, -148304.48, -334845.22, 23963.85, 0.034473643, 0.043978035, -145275.19, 111077.016, 0.00006465758, 10.001233, 9.998745 
1.6152215e+3, 2.8384075e+2, -40939.93, -260344.66, -36183.668, 0.010555472, 0.043393675, -35126.637, 123239.05, 0.0003366383, 10.0013685, 9.998535 
1.6152512e+3, 2.938403e+2, -18021.137, -157784.31, 7327.165, 0.18519492, 0.06114392, -17638.057, 42730.32, 0.0010768002, 10.000684, 9.998884 
1.61528e+3, 3.0383864e+2, -75132.0, -240493.06, 71615.195, 0.18601188, 0.06216553, -48428.777, -48428.777, 0.0024103601, 10.000369, 9.998119 
1.6153099e+3, 3.138367e+2, 75314.98, 62884.77, 58797.137, 0.107980095, -0.01353488, 128224.58, 128224.58, 0.0041886293, 10.000359, 10.000199 
1.6247545e+3, 1.2381316e+2, -1923487.1, -1706555.8, -17279.73, -0.011442543, 0.07284227, -1705187.9, 21444.984, 0.03179242, 9.9979925, 10.000992 
1.624785e+3, 1.3381438e+2, -1871955.5, -1701388.6, -73230.914, 0.22192788, 0.12689555, -1674262.0, -45639.94, 0.019603958, 9.998058, 10.000318 
1.6248108e+3, 1.4381383e+2, -1809205.4, -1564820.5, 25938.63, -0.052018743, 0.03419204, -1562097.8, -31469.81, 0.009062119, 9.997578, 10.000809 
1.6248412e+3, 1.5381494e+2, -1572593.4, -1362069.4, 41322.527, -0.010362255, -0.0027629295, -1354248.9, 78367.28, 0.002624408, 9.998374, 10.001138 
1.6248713e+3, 1.6381598e+2, -1433244.0, -1323385.6, 23061.688, 0.047617227, 0.034328043, -1318740.9, 15864.646, 0.00032476612, 9.998975, 10.000456 
1.6249007e+3, 1.7381695e+2, -1244316.3, -1152616.3, -5721.8154, 0.08446591, 0.03199493, -1152260.6, 84335.14, 0.000005034694, 9.9995, 10.000689 
1.62493e+3, 1.8381742e+2, -1196296.3, -1202944.6, 32944.047, 0.09861522, 0.0737704, -1166509.1, -27917.215, 0.0, 9.999664, 9.999609 
1.6249597e+3, 1.9381696e+2, -1092291.4, -1080036.1, 19301.484, 0.07576128, 0.01940126, -1065913.0, -25314.592, 0.0, 9.999638, 9.999776 
1.6249894e+3, 2.038168e+2, -982346.5, -988684.94, 4583.1313, 0.08886664, 0.04504844, -979943.56, -37342.332, 0.0, 9.999744, 9.999695 
1.6250193e+3, 2.1381699e+2, -808545.44, -826709.8, -20530.367, 0.15998018, 0.041044444, -795178.06, 49421.86, 0.0, 10.000162, 9.999927 
1.6250487e+3, 2.2381712e+2, -717945.4, -785696.25, -2010.6118, 0.18035191, 0.0997024, -717885.8, 28713.71, 0.0, 10.000333, 9.999453 
1.6250776e+3, 2.3381698e+2, -635528.56, -671412.06, -34597.973, 0.10469181, 0.09001691, -614496.94, 34105.277, 0.0, 10.000138, 9.999646 
1.6251066e+3, 2.4381661e+2, -579879.56, -669272.2, -52319.195, 0.10871758, 0.1345424, -555764.1, -5157.673, 0.0, 10.000152, 9.998994 
1.6251364e+3, 2.538159e+2, -411165.3, -520732.78, -50794.734, 0.21108325, 0.11063036, -391240.53, 61372.816, 0.000000011745934, 10.000571, 9.999134 
1.6251655e+3, 2.6381496e+2, -307275.13, -448006.44, 28768.102, 0.2058777, 0.1314449, -301621.5, 53000.008, 0.0000048598445, 10.000743, 9.998884 
1.6251937e+3, 2.7381346e+2, -223581.11, -336891.1, 25112.656, 0.054622736, 0.041689184, -218264.88, 38369.56, 0.00006306325, 10.000562, 9.999054 
1.6252227e+3, 2.8381228e+2, -120300.336, -271392.38, -4040.9988, 0.054475714, 0.051406406, -120192.336, 38451.53, 0.00033149842, 10.000727, 9.998754 
1.6252527e+3, 2.938116e+2, 116131.82, -74606.32, -49203.645, 0.24698527, 0.03268654, 128076.58, 188724.9, 0.0010554205, 10.001537, 9.999036 
1.6252814e+3, 3.0381036e+2, 120763.266, -153291.69, 44234.086, 0.23370774, 0.06775817, 127726.016, 127726.016, 0.0023409713, 10.001721, 9.998081 
1.6253108e+3, 3.1380877e+2, 120266.055, 28651.918, -13912.874, 0.16802447, 0.047053833, 122332.32, 122332.32, 0.0040352517, 10.000848, 9.999757 
1.6347532e+3, 1.23781264e+2, -1892182.9, -1669117.1, -38045.42, -0.034218367, -0.083000556, -1662806.8, 64135.73, 0.03398967, 9.99811, 10.001197 
1.6347814e+3, 1.3378425e+2, -1832298.3, -1624645.6, -76915.64, 0.013879403, 0.08192112, -1599259.3, 29655.486, 0.02102759, 9.998085, 10.000834 
1.6348109e+3, 1.4378372e+2, -1753311.6, -1500425.1, 12933.116, 0.13754533, -0.04801695, -1499765.5, 31154.623, 0.009775217, 9.997773, 10.001171 
1.6348402e+3, 1.5378536e+2, -1536452.3, -1295916.9, 83892.484, 0.009177525, -0.078582086, -1269548.0, 163353.47, 0.002860367, 9.998401, 10.00159 
1.6348697e+3, 1.6378656e+2, -1431828.1, -1337853.3, 22719.633, -0.05584691, -0.047666974, -1332648.8, 2240.1218, 0.00036087315, 9.9990425, 10.000327 
1.6349e+3, 1.737874e+2, -1267898.8, -1200440.3, 25070.244, 0.028634554, -0.032566868, -1192143.5, 44739.0, 0.000005927034, 9.999492, 10.000365 
1.6349298e+3, 1.8378788e+2, -1196070.4, -1210881.8, 12277.912, 0.06940047, 0.031149052, -1189137.6, -50257.816, 0.0, 9.999698, 9.99954 
1.6349593e+3, 1.937876e+2, -1110118.3, -1094776.4, 32218.205, 0.03790376, -0.0007997492, -1069328.5, -28443.8, 0.0, 9.9995365, 9.999728 
1.6349885e+3, 2.0378742e+2, -1020878.6, -1026385.75, 1244.5332, 0.0039426917, 0.03224207, -1020610.44, -77722.92, 0.0, 9.999561, 9.999527 
1.6350178e+3, 2.137872e+2, -853535.6, -871401.9, 14575.247, -0.018837698, 0.0071723093, -845373.75, -484.8371, 0.0, 9.999945, 9.999729 
1.6350475e+3, 2.2378685e+2, -800386.4, -878949.56, -22246.717, 0.0026546554, 0.050852805, -794524.2, -47630.72, 0.0, 10.000003, 9.998967 
1.6350782e+3, 2.3378624e+2, -711991.3, -763765.4, -24368.564, 0.13439198, 0.03950588, -702326.06, -53422.574, 0.0, 9.999857, 9.999143 
1.6351078e+3, 2.4378556e+2, -596181.0, -623657.6, -57081.492, 0.18493742, 0.058180537, -551207.8, -296.5596, 0.0, 9.999818, 9.999464 
1.635136e+3, 2.5378466e+2, -402129.63, -441886.5, -14554.452, 0.091459095, -0.04152557, -397371.0, 55545.695, 0.000000006263202, 10.000327, 9.999787 
1.6351646e+3, 2.6378435e+2, -309516.38, -404132.3, 6834.4297, 0.019801924, -0.011944126, -309025.25, 45891.83, 0.000005059976, 10.000516, 9.999301 
1.6351943e+3, 2.7378476e+2, -228428.9, -294094.8, 45745.742, 0.02013552, 0.03914889, -204953.11, 51958.91, 0.000060994436, 10.000319, 9.999471 
1.6352236e+3, 2.8378403e+2, -185346.1, -325566.06, 3783.869, 0.0441912, 0.07491513, -185244.05, -26325.904, 0.0003219481, 10.000399, 9.99853 
1.635253e+3, 2.9378137e+2, 36610.203, -149544.14, 12015.658, 0.09887977, -0.10161907, 37382.57, 98324.81, 0.0010251604, 10.001172, 9.998689 
1.6352814e+3, 3.0378035e+2, 71033.01, -158571.77, -2789.1816, 0.045021806, -0.03537291, 71066.88, 71066.88, 0.0022563916, 10.001309, 9.9982395 
1.6353123e+3, 3.1378147e+2, 14367.84, -55547.99, 32209.94, 0.171674, 0.182116, 26944.502, 26944.502, 0.003853191, 10.000278, 9.999446 
1.6447513e+3, 1.2375114e+2, -2081748.6, -1747631.4, 48999.64, 0.057631936, -0.1331907, -1740593.6, -13356.412, 0.036383986, 9.996797, 10.00128 
1.644779e+3, 1.3375431e+2, -1866560.9, -1606326.6, -57681.195, -0.0036713313, 0.022700196, -1594114.6, 35092.254, 0.022584815, 9.997706, 10.001151 
1.6448094e+3, 1.4375418e+2, -1715175.0, -1476219.8, 51668.97, 0.22194058, -0.087844774, -1465526.0, 65681.75, 0.010560797, 9.998001, 10.001236 
1.6448386e+3, 1.537563e+2, -1619902.8, -1332800.9, 57070.906, 0.0591318, -0.076753855, -1321872.3, 111312.555, 0.0031241647, 9.997805, 10.001623 
1.6448686e+3, 1.6375759e+2, -1603585.4, -1440496.5, 31664.756, -0.011407136, -0.032436658, -1434564.4, -99392.79, 0.0004029895, 9.997965, 10.00014 
1.6448997e+3, 1.7375782e+2, -1334198.3, -1261957.6, 5987.3994, 0.08375407, -0.05116952, -1261464.8, -24292.79, 0.0000070009137, 9.999168, 10.000106 
1.6449301e+3, 1.8375814e+2, -1177609.8, -1197383.4, 1631.4304, 0.1258164, 0.009656022, -1177476.0, -38304.617, 0.0, 9.999816, 9.99956 
1.6449589e+3, 1.937584e+2, -1053498.9, -1061431.1, -13926.801, 0.04539028, 0.026357174, -1042984.5, -1813.3446, 0.0, 9.99991, 9.999763 
1.644988e+3, 2.0375836e+2, -967559.5, -990860.9, 8674.048, 0.00013695871, 0.06951166, -964685.1, -21512.916, 0.0, 9.999891, 9.9996 
1.6450177e+3, 2.1375775e+2, -859303.8, -856239.56, 6654.7134, -0.0066031246, -0.008036227, -850942.9, -5766.5986, 0.0, 9.999849, 9.999859 
1.6450477e+3, 2.2375733e+2, -831932.7, -890772.6, 24567.91, 0.039547123, 0.017416967, -823023.56, -75842.62, 0.0, 9.999758, 9.999021 
1.645078e+3, 2.3375706e+2, -747766.0, -779213.75, 27817.508, 0.17124423, 0.040816534, -731535.94, -82348.125, 0.0, 9.999592, 9.999183 
1.6451079e+3, 2.4375658e+2, -610877.6, -623222.3, 65099.61, 0.216592, 0.07366764, -551658.4, -464.6108, 0.0, 9.999686, 9.999528 
1.6451362e+3, 2.5375548e+2, -407280.03, -445051.97, 28902.215, 0.08419404, -0.047232814, -391640.38, 61560.47, 0.000000005166704, 10.000288, 9.999788 
1.6451652e+3, 2.6375502e+2, -312008.28, -418361.78, 15563.021, 0.028737927, -0.026916794, -309777.7, 45425.516, 0.000005473011, 10.000581, 9.999153 
1.6451952e+3, 2.7375543e+2, -200303.84, -291726.94, -44731.035, 0.087069616, 0.04101556, -182059.06, 75140.48, 0.000058881178, 10.000605, 9.999323 
1.6452248e+3, 2.8375468e+2, -140940.95, -294494.47, -43225.695, 0.12665275, 0.08230713, -129609.08, 29596.955, 0.0003079229, 10.000649, 9.998647 
1.645254e+3, 2.9375207e+2, -57087.37, -178065.44, -47695.19, 0.1333968, -0.10104807, -40545.54, 20683.363, 0.0009851817, 10.000451, 9.998851 
1.6452827e+3, 3.037508e+2, 17244.184, -183330.63, 4368.6045, 0.060095225, -0.065103956, 17339.287, 17339.287, 0.0021654046, 10.000893, 9.998288 
1.6453137e+3, 3.1375223e+2, 235777.83, 12176.409, -69364.9, 0.2276087, 0.18219906, 255547.97, 255547.97, 0.003679341, 10.001986, 9.999082 
1.654748e+3, 1.2372397e+2, -2069979.5, -1775261.0, -70612.32, -0.03259065, 0.032271873, -1759216.4, -31710.607, 0.03897044, 9.996998, 10.001006 
1.6547775e+3, 1.3372506e+2, -1854104.8, -1582010.4, -3483.872, 0.041627128, -0.011984393, -1581965.8, 47527.89, 0.024272982, 9.997704, 10.001329 
1.6548058e+3, 1.4372545e+2, -1714495.8, -1495000.9, 23609.176, 0.0014551275, -0.08230398, -1492490.1, 38998.742, 0.0114189135, 9.998092, 10.00106 
1.6548362e+3, 1.5372795e+2, -1648950.1, -1398372.0, 63042.26, -0.011282403, 0.013307287, -1383405.4, 50059.082, 0.0034161112, 9.997832, 10.001159 
1.6548674e+3, 1.6372925e+2, -1604954.5, -1469459.5, 47667.863, 0.015006167, 0.09861547, -1454370.1, -118917.8, 0.00045137366, 9.998066, 9.999895 
1.6548994e+3, 1.7372833e+2, -1348117.6, -1280508.6, 65339.395, 0.11846848, -0.023232503, -1240747.0, -3283.9746, 0.000008273259, 9.999127, 9.999995 
1.6549301e+3, 1.837282e+2, -1173028.4, -1195598.1, -6265.6353, 0.11604399, -0.0011779596, -1171405.6, -31939.346, 0.0, 9.999836, 9.99957 
1.6549583e+3, 1.9372934e+2, -1066305.3, -1067645.5, 1256.5403, -0.041443743, 0.101533726, -1065551.3, -24093.38, 0.0, 9.99981, 9.999775 
1.6549875e+3, 2.0372969e+2, -972658.5, -958532.06, -8907.617, -0.09230911, 0.1702652, -954227.2, -10772.254, 0.0, 9.999709, 9.999908 
1.6550185e+3, 2.1372858e+2, -867170.4, -816847.25, 20131.582, 0.061476093, 0.0019150528, -809784.8, 35677.93, 0.0, 9.999611, 10.000244 
1.6550486e+3, 2.237283e+2, -832555.25, -824457.3, -1326.0835, 0.13325578, -0.0047522313, -824245.7, -76781.35, 0.0, 9.999467, 9.999618 
1.6550769e+3, 2.3372932e+2, -740574.5, -704584.8, 41168.71, 0.07242297, 0.08461693, -677649.94, -28193.207, 0.0, 9.999334, 9.999823 
1.655106e+3, 2.4372958e+2, -685262.0, -707527.3, 71258.98, 0.026816389, 0.17557769, -624271.3, -72816.04, 0.0, 9.999388, 9.999091 
1.6551362e+3, 2.5372833e+2, -489260.16, -548644.9, 69441.875, 0.046053886, 0.089784086, -443428.94, 10037.532, 0.00000000856411, 10.000017, 9.999198 
1.6551664e+3, 2.6372686e+2, -413611.6, -573004.4, -792.5459, 0.07516887, 0.08591531, -413607.63, -58126.918, 0.0000057188686, 10.000326, 9.9982195 
1.6551962e+3, 2.7372518e+2, -294859.84, -439773.84, -19286.654, 0.10801182, 0.039501596, -292336.9, -34837.914, 0.00005720022, 10.000381, 9.998421 
1.6552259e+3, 2.837241e+2, -159287.63, -255480.08, -70508.05, 0.12963118, 0.07217258, -122033.805, 37475.383, 0.0002952708, 10.000318, 9.999074 
1.655255e+3, 2.9372332e+2, -52411.145, -109972.68, -23787.404, 0.1558425, 0.011315534, -43853.285, 17657.875, 0.00095047243, 10.000187, 9.999452 
1.6552837e+3, 3.037215e+2, -60371.582, -244417.73, 19828.59, 0.05322116, -0.035480127, -58259.543, -58259.543, 0.0020977776, 10.000493, 9.998048 
1.6553143e+3, 3.137205e+2, 103029.74, -128561.5, 42967.74, 0.035694014, 0.0051387954, 110744.66, 110744.66, 0.00356369, 10.001397, 9.9984 
1.6647454e+3, 1.23694904e+2, -2107839.8, -1806408.6, -12048.26, 0.029672435, 0.07454319, -1805927.9, -78137.17, 0.041736465, 9.99678, 10.000899 
1.6647752e+3, 1.3369578e+2, -1843223.0, -1551766.0, -27786.799, 0.06656481, -0.015392498, -1549140.5, 80639.75, 0.026087236, 9.997654, 10.001568 
1.6648033e+3, 1.436968e+2, -1869939.6, -1611118.9, 10979.7295, 0.007544575, -0.014988932, -1610653.9, -78884.53, 0.012349877, 9.997238, 10.00065 
1.6648346e+3, 1.5369825e+2, -1636065.5, -1435699.1, 18027.002, 0.05069109, 0.018349744, -1434090.1, -334.2178, 0.003737191, 9.998132, 10.000742 
1.6648665e+3, 1.6369914e+2, -1502139.9, -1413140.5, 65819.11, 0.11561569, 0.08372917, -1378189.8, -42441.715, 0.00050616945, 9.998755, 9.999944 
1.6648985e+3, 1.7369846e+2, -1341447.1, -1265454.5, 69321.484, 0.13081282, -0.02933738, -1224399.0, 13356.111, 0.000009797576, 9.999108, 10.00011 
1.6649294e+3, 1.8369837e+2, -1260485.0, -1228795.4, 28011.207, 0.10299352, -0.010450424, -1212458.1, -72701.05, 0.0, 9.999218, 9.99963 
1.6649581e+3, 1.9369942e+2, -1094890.8, -1070987.8, 1028.1173, -0.0074441945, 0.07692939, -1070943.6, -29194.293, 0.0, 9.999586, 9.999848 
1.6649875e+3, 2.0369978e+2, -994789.9, -972469.0, -2561.7783, -0.023644753, 0.14270157, -972178.75, -28432.19, 0.0, 9.999576, 9.999881 
1.6650182e+3, 2.1369894e+2, -942772.1, -859101.0, -39441.94, 0.10953662, 0.009458227, -843439.8, 2313.1663, 0.0, 9.999114, 10.000196 
1.665048e+3, 2.2369881e+2, -865712.4, -793326.5, -33049.676, 0.16922092, 0.0028188257, -780507.06, -32754.1, 0.0, 9.999049, 10.000012 
1.6650765e+3, 2.3369983e+2, -646493.1, -601999.0, -41752.637, 0.09057847, 0.043442946, -576936.3, 72806.44, 0.0, 9.999745, 10.000305 
1.6651058e+3, 2.4370007e+2, -564284.4, -689556.25, 22448.1, 0.04919227, 0.118791945, -560383.3, -8642.614, 0.0, 10.000363, 9.998773 
1.6651367e+3, 2.536988e+2, -401211.94, -554913.1, 2731.4404, 0.06872916, 0.080404006, -401163.4, 52590.824, 0.0000000057748837, 10.000813, 9.998794 
1.6651674e+3, 2.636972e+2, -318164.94, -540736.56, -12750.421, 0.11400057, 0.090327926, -317436.88, 38334.39, 0.0000055479773, 10.001037, 9.998098 
1.6651975e+3, 2.7369514e+2, -218342.34, -428411.44, -20451.084, 0.17036529, 0.021933068, -216369.86, 41423.13, 0.000055377644, 10.000985, 9.998223 
1.6652271e+3, 2.8369388e+2, -68316.35, -231651.36, -19804.297, 0.21558332, 0.062243126, -65949.39, 93855.35, 0.00028510438, 10.001026, 9.998877 
1.6652562e+3, 2.9369363e+2, 75083.44, -65211.816, -90893.72, 0.22084707, 0.07159694, 119750.266, 181553.23, 0.000926934, 10.00118, 9.999249 
1.6652851e+3, 3.036912e+2, 120167.3, -164298.42, 5014.2676, 0.09877149, -0.023192039, 120255.66, 120255.66, 0.00206355, 10.001741, 9.998002 
1.6653165e+3, 3.136899e+2, 247918.17, -38533.53, -23874.14, 0.09248322, -0.0107843885, 249894.31, 249894.31, 0.003521676, 10.002306, 9.998573 
1.6747425e+3, 1.2366342e+2, -2064092.3, -1750129.5, 161091.25, -0.018998083, -0.092415705, -1682180.9, 45916.117, 0.044670317, 9.996919, 10.001232 
1.6747719e+3, 1.3366656e+2, -1823188.6, -1527954.4, -30006.645, -0.06848472, 0.0041750316, -1524935.5, 105130.07, 0.028026333, 9.997717, 10.001711 
1.6748017e+3, 1.4366837e+2, -1901286.4, -1697850.5, 5934.7896, 0.05576432, 0.11428663, -1697677.5, -165629.75, 0.013357116, 9.997326, 10.000015 
1.6748336e+3, 1.5366727e+2, -1664747.3, -1502533.4, 70802.766, 0.10197875, -0.062946096, -1475977.1, -41918.11, 0.004090086, 9.998153, 10.000279 
1.6748658e+3, 1.6366708e+2, -1459644.3, -1352489.6, 60889.246, 0.11973309, -0.0959055, -1324961.9, 11098.61, 0.0005678562, 9.998865, 10.000312 
1.6748965e+3, 1.7366824e+2, -1316944.8, -1205151.3, 92905.81, -0.01636769, -0.064917, -1152623.1, 85424.336, 0.000011659807, 9.999066, 10.000546 
1.6749272e+3, 1.8366888e+2, -1253701.3, -1217555.0, 21225.295, -0.08672944, -0.000105171894, -1207750.8, -67709.875, 0.0, 9.99922, 9.999715 
1.6749582e+3, 1.9366863e+2, -1110106.6, -1074556.9, 28517.766, 0.011383345, -0.0464288, -1058728.0, -16682.766, 0.0, 9.999459, 9.999891 
1.6749881e+3, 2.036686e+2, -1040735.1, -1035251.56, -33765.207, 0.05406954, -0.008534235, -1004117.0, -60069.332, 0.0, 9.999427, 9.999525 
1.6750163e+3, 2.136688e+2, -1006717.94, -942846.9, -38674.598, -0.0052697374, 0.0058322633, -924626.6, -78579.125, 0.0, 9.998889, 9.999737 
1.6750453e+3, 2.2366887e+2, -905328.7, -797299.6, -27374.756, -0.02097113, 0.039670065, -790758.9, -42712.406, 0.0, 9.998715, 10.000142 
1.6750765e+3, 2.3366866e+2, -672595.0, -595255.94, 277.97543, 0.081849955, -0.0630324, -595254.94, 54790.066, 0.0, 9.999484, 10.000475 
1.675107e+3, 2.4366814e+2, -624946.75, -739228.56, 20896.355, 0.11234161, -0.06422419, -621245.7, -69196.695, 0.0, 10.000039, 9.998582 
1.6751373e+3, 2.5366706e+2, -460120.72, -606501.1, 41953.32, 0.009521131, -0.063220434, -448949.28, 5113.292, 0.0000000017385277, 10.00051, 9.998581 
1.6751675e+3, 2.6366606e+2, -332398.3, -494155.47, -29651.928, -0.017557822, -0.004304834, -327134.1, 28939.887, 0.0000048816705, 10.000703, 9.998584 
1.6751981e+3, 2.73665e+2, -212547.1, -367282.4, 1698.449, 0.11849631, -0.029335024, -212528.45, 45555.73, 0.000051551386, 10.000757, 9.998762 
1.6752283e+3, 2.836639e+2, -189561.67, -398984.03, -31926.771, 0.18798901, 0.042722914, -184802.53, -24707.71, 0.0002714196, 10.000672, 9.997895 
1.6752571e+3, 2.936627e+2, -44964.47, -247873.73, -53781.3, 0.14983732, 0.0626248, -31591.094, 30516.16, 0.0008994481, 10.000874, 9.998151 
1.6752861e+3, 3.036596e+2, 53466.19, -178468.8, 6648.679, 0.003893016, -0.04777682, 53656.625, 53656.625, 0.002033432, 10.001237, 9.998137 
1.675319e+3, 3.1365967e+2, 229493.78, 52350.57, 63788.637, 0.03578037, 0.07599669, 250073.08, 250073.08, 0.003509679, 10.00177, 9.999449 
1.6847405e+3, 1.2363358e+2, -2054781.0, -1744637.9, 244913.36, 0.09244766, -0.10290536, -1609830.5, 118556.72, 0.04776628, 9.997005, 10.001223 
1.6847698e+3, 1.3363644e+2, -1851953.4, -1581583.3, -88539.37, -0.0331157, -0.009344669, -1555169.4, 75190.305, 0.030093629, 9.997718, 10.001322 
1.6848001e+3, 1.43638e+2, -1793562.0, -1664776.6, -4259.881, 0.14713097, 0.105886444, -1664635.9, -132291.06, 0.0144471, 9.998124, 9.999869 
1.6848323e+3, 1.5363666e+2, -1584854.9, -1468715.5, 65618.88, 0.14773631, -0.08795972, -1439161.4, -4803.4624, 0.004479329, 9.998718, 10.000246 
1.6848645e+3, 1.6363634e+2, -1473545.8, -1366877.8, 76128.92, 0.13018239, -0.12946166, -1327259.4, 9101.153, 0.0006375465, 9.998801, 10.000245 
1.6848955e+3, 1.7363764e+2, -1387822.9, -1240684.3, 35716.117, -0.0008829345, -0.08132916, -1232472.9, 5873.2466, 0.00001399049, 9.99859, 10.000523 
1.6849265e+3, 1.8363833e+2, -1344242.3, -1243414.3, -12412.458, -0.037976123, -0.019514516, -1241908.8, -101569.99, 0.0, 9.99852, 9.99987 
1.6849579e+3, 1.9363794e+2, -1164406.3, -1083018.6, -23767.693, 0.07353754, -0.099029854, -1076586.1, -34241.91, 0.0, 9.9990015, 10.000054 
1.684988e+3, 2.0363793e+2, -1043262.6, -1019799.8, -53592.51, 0.111411855, -0.07344315, -976669.75, -32323.645, 0.0, 9.999336, 9.999676 
1.6850156e+3, 2.1363868e+2, -911980.94, -873583.6, -56948.32, 0.008826968, -0.020713829, -832684.9, 13656.019, 0.0, 9.999452, 9.999933 
1.6850446e+3, 2.236389e+2, -794025.56, -780417.8, 25301.168, -0.011128397, 0.030638611, -761021.6, -12683.085, 0.0, 9.999607, 9.999857 
1.685076e+3, 2.3363811e+2, -656592.44, -630584.7, -10533.608, 0.10234243, -0.0915092, -626853.7, 23489.148, 0.0, 9.999756, 10.000132 
1.6851072e+3, 2.4363737e+2, -651410.7, -737906.9, 24270.676, 0.14972071, -0.09847441, -645065.8, -92716.86, 0.0, 9.999795, 9.998693 
1.6851376e+3, 2.5363663e+2, -559162.7, -643230.94, 26103.291, 0.051248983, -0.08170175, -551717.06, -97357.81, 0.0000000018399801, 9.999761, 9.998688 
1.6851681e+3, 2.636357e+2, -432177.63, -555152.4, -841.24817, 0.030242996, -0.019457083, -432171.84, -75801.41, 0.0000039092515, 10.000065, 9.998477 
1.6851993e+3, 2.7363434e+2, -172688.05, -348487.44, -60749.688, 0.15213709, -0.05945967, -153737.94, 104645.59, 0.000046409757, 10.001078, 9.998714 
1.6852295e+3, 2.8363308e+2, -50752.992, -374601.88, -71692.05, 0.21344414, 0.014488878, -35591.934, 124804.43, 0.00025645504, 10.001778, 9.99756 
1.6852583e+3, 2.936319e+2, 59785.934, -236907.86, -87319.52, 0.1554243, 0.079614244, 83577.06, 145986.33, 0.0008664291, 10.001745, 9.997828 
1.6852877e+3, 3.0362856e+2, 105660.945, -171328.4, 45985.848, 0.030753851, -0.027960328, 113095.96, 113095.96, 0.0019907402, 10.001621, 9.9980345 
1.6853218e+3, 3.136276e+2, 149542.27, 45728.348, -2127.5735, 0.20566285, 0.01287137, 149585.86, 149585.86, 0.0034830444, 10.001017, 9.999818 
1.694736e+3, 1.2360476e+2, -2069365.8, -1810654.1, 29441.268, -0.15022428, -0.012572817, -1807346.0, -78678.516, 0.051028147, 9.9971695, 10.000655 
1.6947679e+3, 1.3360517e+2, -1913899.5, -1710366.9, -53221.29, -0.02328616, -0.0651028, -1697290.3, -66625.15, 0.032295942, 9.997723, 10.000423 
1.6947985e+3, 1.4360538e+2, -1737737.1, -1587054.3, -7504.341, 0.11465491, -0.06522066, -1586681.4, -54017.7, 0.015627254, 9.998277, 10.000333 
1.6948304e+3, 1.5360665e+2, -1551046.1, -1414518.9, 99686.69, 0.040418692, -0.03387503, -1361963.0, 72687.83, 0.004910431, 9.998783, 10.000591 
1.6948622e+3, 1.6360717e+2, -1483766.1, -1411913.9, 50072.57, -0.03594894, 0.004576122, -1386212.5, -49566.664, 0.0007170378, 9.9989, 9.9998865 
1.6948946e+3, 1.7360678e+2, -1426129.1, -1314422.9, 42555.277, 0.0435622, -0.0705276, -1300058.4, -61408.332, 0.000016975888, 9.998564, 10.000028 
1.6949265e+3, 1.8360674e+2, -1325096.3, -1213635.6, -18649.068, 0.08604908, -0.06107206, -1210598.1, -69947.43, 0.0, 9.998553, 10.000061 
1.6949567e+3, 1.9360724e+2, -1158264.6, -1046749.5, 4393.1978, 0.026184287, -0.08183034, -1046576.7, -3929.873, 0.0, 9.998896, 10.000353 
1.6949864e+3, 2.0360781e+2, -1031415.9, -945111.8, -68555.81, -0.015770134, -0.04124805, -907257.7, 37383.688, 0.0, 9.999117, 10.000299 
1.6950153e+3, 2.136085e+2, -895602.44, -795010.25, -36961.016, 0.005329061, -0.059019286, -782889.9, 63744.098, 0.0, 9.999243, 10.000584 
1.6950446e+3, 2.2360875e+2, -881742.8, -881524.1, 12860.84, 0.015444781, -0.02163245, -868772.1, -120141.21, 0.0, 9.999274, 9.999314 
1.695075e+3, 2.3360805e+2, -755414.3, -760178.56, 16965.334, 0.010022158, -0.060860842, -740664.7, -90027.55, 0.0, 9.999442, 9.999386 
1.695106e+3, 2.4360755e+2, -687439.2, -725356.44, 9179.062, 0.005976066, -0.015693858, -685334.0, -132691.58, 0.0, 9.999424, 9.9989605 
1.6951375e+3, 2.5360727e+2, -567069.8, -600541.94, 44684.305, 0.0475256, 0.010979161, -536090.2, -81443.6, 0.0000000033657745, 9.999507, 9.999106 
1.6951689e+3, 2.6360595e+2, -528872.5, -677852.94, 15589.915, 0.072012566, 0.04148039, -527258.56, -170597.22, 0.0000030031388, 9.99974, 9.997785 
1.6952004e+3, 2.7360296e+2, -274448.94, -492317.13, 1371.5364, 0.116360486, -0.083868064, -274440.3, -15747.609, 0.000041455987, 10.0007925, 9.99786 
1.6952308e+3, 2.836011e+2, -87429.99, -363397.13, -88327.875, 0.121452756, -0.03460911, -61580.473, 99131.27, 0.00024337543, 10.001406, 9.997817 
1.6952592e+3, 2.9360083e+2, 49348.777, -199940.13, -63724.16, 0.05376392, 0.08386324, 64693.64, 127407.34, 0.0008331997, 10.001471, 9.998225 
1.6952889e+3, 3.0359778e+2, 930.97784, -265052.97, 8326.551, -0.030812629, 0.004644796, 1191.3832, 1191.3832, 0.0019314514, 10.001133, 9.997604 
1.6953239e+3, 3.1359446e+2, 62108.848, 31357.111, 39653.0, 0.25759318, -0.15419357, 89262.7, 89262.7, 0.0034111522, 10.000331, 10.000027 
1.7047326e+3, 1.2357402e+2, -2113868.8, -1826248.3, 39237.39, -0.16051053, -0.01034175, -1820991.5, -92024.01, 0.054460447, 9.996845, 10.000719 
1.7047662e+3, 1.3357367e+2, -1944725.4, -1743219.8, -67651.945, 0.047213834, -0.10699058, -1722614.0, -91642.12, 0.034638863, 9.99759, 10.000273 
1.7047961e+3, 1.4357337e+2, -1765451.0, -1580642.0, 15834.915, 0.08240275, -0.16139455, -1579295.0, -46319.78, 0.016903277, 9.998039, 10.0004835 
1.7048287e+3, 1.535757e+2, -1657633.9, -1454759.0, 57451.39, 0.054211576, -0.034408316, -1439619.4, -4666.2534, 0.00538814, 9.99803, 10.000662 
1.704861e+3, 1.635767e+2, -1605555.0, -1469024.5, 37112.24, 0.009168259, 0.04964679, -1459588.6, -122644.445, 0.0008082668, 9.998058, 9.999897 
1.7048939e+3, 1.7357607e+2, -1413089.4, -1302151.6, 34030.754, 0.10671586, -0.052410673, -1292544.4, -53592.33, 0.000020835996, 9.998627, 10.000087 
1.7049257e+3, 1.8357608e+2, -1296995.5, -1175198.1, 26945.322, 0.1662543, -0.050503336, -1169503.3, -28550.38, 0.0, 9.998644, 10.000293 
1.7049555e+3, 1.9357699e+2, -1259943.9, -1070628.8, 14114.01, 0.078490905, -0.049369432, -1069582.3, -26638.615, 0.0, 9.998085, 10.000597 
1.7049854e+3, 2.035777e+2, -1177761.4, -1015463.94, -20813.121, 0.031738527, -0.009410152, -1012837.4, -67901.21, 0.0, 9.998121, 10.000279 
1.7050147e+3, 2.1357812e+2, -880406.8, -795667.2, -77949.87, 0.041639265, -0.04909171, -749316.2, 97614.54, 0.0, 9.999404, 10.000487 
1.7050445e+3, 2.235781e+2, -753374.25, -860180.5, -41241.156, 0.043343954, -0.017060762, -739303.5, 9627.121, 0.0, 10.000323, 9.998952 
1.705075e+3, 2.3357725e+2, -627381.9, -737951.6, -54768.18, 0.02480832, -0.035027407, -604846.6, 46093.465, 0.0, 10.000497, 9.999017 
1.705106e+3, 2.4357663e+2, -541926.56, -669455.4, -32237.895, 0.04278296, 0.026010683, -534240.44, 18707.096, 0.0, 10.000486, 9.998839 
1.7051378e+3, 2.5357625e+2, -467431.22, -551095.94, -68667.81, 0.10770595, 0.050115917, -428857.0, 26095.666, 0.0000000026261497, 10.000212, 9.999096 
1.7051694e+3, 2.6357502e+2, -440218.97, -614763.06, -25486.262, 0.13849254, 0.080637634, -436573.7, -79607.234, 0.0000021613648, 10.000244, 9.997989 
1.705201e+3, 2.7357236e+2, -268823.03, -465994.06, 3287.7974, 0.11875116, -0.030218318, -268768.22, -9774.453, 0.000036656253, 10.0007105, 9.998096 
1.7052318e+3, 2.8357053e+2, -108663.57, -354733.16, -15516.527, 0.11630765, 0.0013775621, -107689.0, 53323.08, 0.00022921336, 10.001186, 9.997972 
1.7052612e+3, 2.9356968e+2, 83767.79, -168740.16, -62576.363, 0.096267276, 0.05555326, 98424.664, 161443.63, 0.00079328316, 10.001676, 9.998324 
1.7052907e+3, 3.0356705e+2, 94987.67, -231241.44, 20354.998, 0.024668012, 0.017558785, 96252.805, 96252.805, 0.0018438247, 10.001812, 9.997497 
1.705325e+3, 3.1356382e+2, 147514.63, 73537.836, -29445.506, 0.3225496, -0.12079755, 157803.9, 157803.9, 0.0032716861, 10.000937, 9.999986 
1.7147312e+3, 1.2354101e+2, -2026508.8, -1691475.3, 262163.4, -0.07493917, -0.13251546, -1547878.6, 181412.13, 0.058051143, 9.996993, 10.001651 
1.7147641e+3, 1.3354252e+2, -1912096.6, -1670631.6, -12631.962, 0.06124234, -0.09200653, -1669972.6, -38698.535, 0.037118543, 9.997579, 10.000775 
1.7147923e+3, 1.435423e+2, -1747512.4, -1590319.9, 4265.0776, -0.1623567, -0.160864, -1590204.3, -56928.184, 0.018276531, 9.998222, 10.000335 
1.714827e+3, 1.535436e+2, -1675692.8, -1499383.4, 72207.336, 0.036274675, -0.10790707, -1473585.6, -38319.477, 0.005915651, 9.99805, 10.00035 
1.7148605e+3, 1.6354485e+2, -1567243.4, -1402353.4, 32005.922, 0.109652564, 0.00023927269, -1396358.9, -59102.188, 0.0009130136, 9.9981165, 10.000322 
1.7148921e+3, 1.7354569e+2, -1379540.6, -1220357.4, 68751.78, 0.049996287, -0.014582753, -1194774.8, 44475.883, 0.000025810483, 9.998582, 10.000666 
1.7149235e+3, 1.8354653e+2, -1278481.1, -1137694.5, -5802.2246, 0.029478384, 0.025973085, -1137455.8, 3787.343, 0.0, 9.998642, 10.000554 
1.7149541e+3, 1.935473e+2, -1257990.0, -1045144.44, 8158.9272, 0.090291545, -0.011102125, -1044832.1, -1598.0055, 0.0, 9.997989, 10.000819 
1.7149842e+3, 2.0354764e+2, -1257102.1, -1136877.5, 1236.303, 0.0815567, 0.0125281485, -1136864.8, -191634.95, 0.0, 9.997936, 9.9995365 
1.7150138e+3, 2.1354733e+2, -983064.94, -943730.0, -13837.059, -0.026624942, -0.010903477, -939350.1, -92116.945, 0.0, 9.9991255, 9.999604 
1.715044e+3, 2.2354674e+2, -814118.7, -911476.4, -45210.305, -0.075383686, 0.021643898, -796362.56, -47122.715, 0.0, 9.999991, 9.998766 
1.7150755e+3, 2.3354566e+2, -669499.7, -771740.7, -31286.365, 0.0036880677, -0.0077081467, -660685.75, -9433.545, 0.0, 10.000253, 9.998911 
1.715107e+3, 2.4354464e+2, -625201.56, -756651.94, -58558.703, 0.062484175, 0.036159053, -602898.75, -49634.49, 0.0, 10.000133, 9.998403 
1.7151381e+3, 2.5354347e+2, -546598.1, -651430.94, -60103.805, 0.09083709, 0.028917676, -519265.28, -63986.785, 0.0000000000058928205, 9.999936, 9.998541 
1.7151693e+3, 2.635425e+2, -412028.34, -487892.25, -29057.344, 0.06891932, 0.08197462, -402177.84, -44889.293, 0.0000014626683, 9.999951, 9.999001 
1.7152007e+3, 2.735422e+2, -218333.03, -297173.75, 40317.137, -0.00083065254, 0.07867797, -201366.89, 57922.855, 0.000032258973, 10.000429, 9.999393 
1.715232e+3, 2.8354105e+2, -171893.02, -394212.28, -18109.838, 0.001073079, 0.1067404, -170427.47, -9127.767, 0.00021422842, 10.00079, 9.997893 
1.7152631e+3, 2.9353827e+2, 20386.518, -227604.2, -13163.344, 0.08776573, -0.017375793, 21083.27, 84409.97, 0.00074612966, 10.001351, 9.998078 
1.7152925e+3, 3.03536e+2, 15464.372, -275202.84, -25052.191, 0.002818208, -0.004287475, 17607.78, 17607.78, 0.001733618, 10.001329, 9.997415 
1.7153242e+3, 3.1353465e+2, 28422.31, -2652.0894, -5690.3037, 0.095065586, 0.046765663, 29431.535, 29431.535, 0.0030848195, 10.000247, 9.999777 
1.7247288e+3, 1.2350826e+2, -2055023.9, -1665183.3, 215413.39, 0.017203167, -0.09874651, -1569592.3, 160022.55, 0.06177432, 9.996603, 10.00201 
1.7247614e+3, 1.3351147e+2, -1824657.1, -1557679.5, -64071.066, 0.038171, 0.022697872, -1543099.5, 88480.875, 0.039721623, 9.9978485, 10.001424 
1.7247915e+3, 1.4351052e+2, -1758418.4, -1616828.9, -44390.3, -0.04427702, -0.143871, -1604062.9, -70473.875, 0.019743169, 9.998217, 10.000172 
1.7248255e+3, 1.5351138e+2, -1653271.6, -1495024.5, -11548.241, 0.090334184, -0.124369174, -1494186.3, -58602.66, 0.006494274, 9.9981985, 10.000336 
1.7248589e+3, 1.6351289e+2, -1587421.8, -1373263.5, 3273.7295, 0.16888906, -0.00030785383, -1373213.5, -35642.38, 0.001032908, 9.9978, 10.000686 
1.7248903e+3, 1.735144e+2, -1514717.3, -1236445.0, -3827.312, 0.09274385, 0.008415179, -1236392.4, 3165.5054, 0.00003215152, 9.997431, 10.001113 
1.7249219e+3, 1.8351544e+2, -1426428.8, -1216100.6, -45332.34, 0.07686625, 0.04828062, -1206746.1, -65198.164, 0.0, 9.997656, 10.000487 
1.724953e+3, 1.9351606e+2, -1052576.6, -957507.3, -91758.65, 0.13980325, 0.012165502, -901701.8, 141839.08, 0.0, 9.999461, 10.000705 
1.7249839e+3, 2.0351616e+2, -930029.06, -1014174.75, -79085.766, 0.14304715, 0.030022115, -882521.3, 63018.125, 0.0, 10.000329, 9.999236 
1.7250137e+3, 2.1351512e+2, -905258.06, -946245.3, -82162.81, 0.033494487, -0.0281712, -841071.6, 6478.098, 0.0, 9.99982, 9.999266 
1.7250443e+3, 2.2351427e+2, -865196.06, -908522.1, -44256.223, -0.010114363, -0.010832389, -837585.4, -88026.664, 0.0, 9.9995575, 9.998976 
1.725076e+3, 2.3351377e+2, -696494.6, -752526.56, -45616.77, 0.039712433, -0.0081008505, -670977.56, -19412.904, 0.0, 9.999957, 9.999169 
1.7251074e+3, 2.4351288e+2, -567722.1, -733404.44, -11505.518, 0.08683472, 0.035533737, -566926.94, -13351.986, 0.0, 10.000516, 9.998382 
1.7251387e+3, 2.5351128e+2, -358550.28, -561711.44, -6859.3843, 0.10590534, -0.011236439, -358318.94, 97273.66, 0.0000000000049057277, 10.001217, 9.998535 
1.7251699e+3, 2.6351044e+2, -205913.52, -363103.47, 40639.426, 0.096084535, 0.038678225, -196028.36, 161573.2, 0.0000011502509, 10.00128, 9.999206 
1.7252015e+3, 2.7351078e+2, -234217.06, -286056.56, -12226.573, 0.05808173, 0.08343364, -231478.1, 28118.53, 0.000029351942, 10.000245, 9.999557 
1.725233e+3, 2.8350988e+2, -277504.34, -423848.66, -29413.324, 0.07396056, 0.12298957, -271813.9, -110209.7, 0.00020332959, 9.999998, 9.998051 
1.7252645e+3, 2.9350674e+2, 17499.318, -212982.75, -52226.824, 0.11580333, -0.045448445, 28781.55, 92416.64, 0.00070578046, 10.001294, 9.998182 
1.7252943e+3, 3.0350494e+2, 166527.64, -197952.78, -41226.938, 0.018613385, 0.0037170528, 171132.7, 171132.7, 0.0016366781, 10.002295, 9.997515 
1.7253265e+3, 3.1350413e+2, 310763.34, 71838.85, -101278.87, 0.21149172, 0.11894076, 347917.3, 347917.3, 0.002919005, 10.002359, 9.999336 
1.7347251e+3, 1.2347527e+2, -2086979.0, -1755038.1, -123893.65, -0.095325276, 0.023836732, -1713895.5, 16049.264, 0.06561491, 9.996749, 10.001251 
1.7347576e+3, 1.3348036e+2, -1778108.9, -1468700.6, -21834.324, -0.17008829, 0.23422223, -1467167.5, 164725.19, 0.042436883, 9.99786, 10.002056 
1.7347932e+3, 1.434776e+2, -1751236.4, -1626459.6, -72352.516, 0.24928921, -0.12101778, -1593311.6, -59393.586, 0.021297567, 9.998323, 10.000049 
1.7348236e+3, 1.5347897e+2, -1631101.8, -1455949.0, -1549.0819, 0.059158072, -0.077450216, -1455935.3, -20029.97, 0.0071235094, 9.998229, 10.0005865 
1.7348555e+3, 1.6348088e+2, -1541425.4, -1313904.6, -30125.424, 0.0023460079, 0.057880357, -1309983.4, 27903.213, 0.0011691477, 9.997939, 10.00103 
1.7348883e+3, 1.7348212e+2, -1495244.8, -1200297.5, -6586.6924, 0.10574532, 0.011113868, -1200150.5, 39723.766, 0.00004011834, 9.997437, 10.001364 
1.7349206e+3, 1.8348289e+2, -1457997.8, -1281674.4, -11512.215, 0.1365726, 0.025648462, -1280925.9, -139058.75, 0.0, 9.997655, 10.000037 
1.7349523e+3, 1.9348326e+2, -1114168.5, -1052391.3, -10893.986, 0.07986755, 0.020191738, -1050526.5, -6661.745, 0.0, 9.999312, 10.000126 
1.7349835e+3, 2.0348312e+2, -946677.06, -1005791.56, -104117.625, 0.04607881, 0.040297136, -868002.56, 77863.77, 0.0, 10.000139, 9.999385 
1.735014e+3, 2.1348168e+2, -917558.06, -926843.25, -86355.805, 0.07116859, -0.08822877, -835720.1, 12158.527, 0.0, 9.99962, 9.999494 
1.7350447e+3, 2.2348087e+2, -875434.8, -861326.5, -50499.434, 0.05068171, -0.09883858, -817390.94, -67505.66, 0.0, 9.999264, 9.999438 
1.7350756e+3, 2.3348129e+2, -695946.9, -693970.56, -11363.2295, -0.017112624, -0.05907631, -683552.6, -31671.848, 0.0, 9.9997, 9.999698 
1.7351069e+3, 2.4348111e+2, -585862.94, -683563.1, -543.5985, -0.04708841, 0.0032361178, -585859.94, -31977.568, 0.0, 10.0001545, 9.998895 
1.735139e+3, 2.534798e+2, -366116.78, -504065.94, 41879.42, -0.00045636573, -0.065857805, -354398.25, 101496.734, 0.000000000000012544113, 10.00091, 9.999077 
1.7351711e+3, 2.6347876e+2, -309976.2, -488706.34, -5837.662, 0.045231454, -0.041218508, -309785.72, 48120.203, 0.0000010511417, 10.000897, 9.998523 
1.7352025e+3, 2.7347815e+2, -337625.4, -433131.53, -26548.172, 0.12495353, -0.0072803255, -330741.84, -70828.46, 0.000029114979, 9.999971, 9.998668 
1.735234e+3, 2.8347695e+2, -319436.63, -442580.88, -15247.782, 0.141851, 0.053900175, -317576.72, -155650.88, 0.00019954766, 9.999701, 9.998068 
1.735265e+3, 2.934746e+2, -29887.227, -215323.84, 25034.393, -0.004633589, -0.05893519, -26566.97, 37381.906, 0.0006844002, 10.000882, 9.998364 
1.7352954e+3, 3.0347347e+2, 94757.44, -212488.02, -56489.438, -0.14692257, 0.036183406, 104814.27, 104814.27, 0.0015865878, 10.001745, 9.99766 
1.7353301e+3, 3.1347144e+2, 166492.69, -30283.943, -34200.2, 0.2764012, -0.0041052774, 172267.3, 172267.3, 0.0028415923, 10.001571, 9.998978 
1.7447242e+3, 1.23443596e+2, -2217054.5, -1885735.5, -62164.254, 0.19470671, 0.041117355, -1874455.8, -144201.5, 0.06957688, 9.996184, 10.000619 
1.7447558e+3, 1.334487e+2, -1775105.5, -1454189.8, 124303.67, -0.09608742, 0.25236702, -1411674.4, 220528.44, 0.045260757, 9.997837, 10.002185 
1.7447925e+3, 1.4344563e+2, -1590232.3, -1539944.0, 71473.61, 0.30235925, -0.14950925, -1489320.8, 44910.375, 0.022935338, 9.999406, 10.000104 
1.7448226e+3, 1.5344736e+2, -1541317.9, -1409465.8, 59932.21, 0.104098804, -0.07622157, -1386295.8, 49917.86, 0.0078018596, 9.998845, 10.000584 
1.7448537e+3, 1.6344899e+2, -1508011.6, -1344724.4, 45203.887, 0.027105687, 0.04532347, -1333045.5, 5151.635, 0.0013223152, 9.998377, 10.000614 
1.7448865e+3, 1.7344941e+2, -1286946.9, -1148351.4, -18199.73, 0.11560862, -0.033918258, -1146001.3, 94191.875, 0.000049909977, 9.9990835, 10.000933 
1.7449191e+3, 1.8344992e+2, -1240438.0, -1178885.9, 6883.1704, 0.16173549, -0.019626005, -1178125.5, -35936.23, 0.0000000000000006446772, 9.999177, 9.999992 
1.7449515e+3, 1.934507e+2, -1232721.1, -1105307.4, 17860.578, 0.11446601, 0.009677935, -1102851.1, -58667.15, 0.0, 9.998495, 10.000136 
1.7449832e+3, 2.0345087e+2, -1179333.4, -1092625.4, -17872.063, 0.09614424, 0.050297204, -1089086.0, -142903.17, 0.0, 9.998418, 9.999625 
1.7450142e+3, 2.1344976e+2, -887179.6, -874421.06, -34786.793, 0.12104154, -0.072233774, -845433.44, 2757.831, 0.0, 9.999666, 9.999832 
1.7450449e+3, 2.2344905e+2, -704793.3, -785676.8, 13810.918, 0.11021097, -0.09221701, -702500.1, 47696.383, 0.0, 10.000434, 9.999414 
1.7450757e+3, 2.3344918e+2, -611859.8, -658642.94, -20096.482, 0.030198626, -0.072373785, -604412.56, 47781.816, 0.0, 10.000298, 9.999657 
1.7451073e+3, 2.4344902e+2, -573719.5, -638340.44, -9425.765, -0.0013208889, -0.018980054, -572372.7, -18177.846, 0.0, 10.000109, 9.999213 
1.7451395e+3, 2.5344807e+2, -497473.66, -525967.9, -22656.16, 0.029011628, -0.08571895, -484957.3, -28754.51, 0.0, 9.99987, 9.999416 
1.7451717e+3, 2.63447e+2, -427434.38, -573860.8, -33734.89, 0.084291704, -0.06969982, -420036.06, -61822.617, 0.0000010008785, 10.000185, 9.998289 
1.7452036e+3, 2.7344584e+2, -128803.56, -372298.1, -55790.883, 0.176101, -0.05621187, -116629.14, 143598.78, 0.000030147008, 10.001546, 9.998334 
1.7452355e+3, 2.8344458e+2, 25642.928, -276192.03, 13046.026, 0.21606676, 0.0141887255, 26205.758, 188447.69, 0.00019899277, 10.002034, 9.998106 
1.7452665e+3, 2.9344276e+2, -45551.844, -228355.83, -9454.148, 0.08840135, -0.051252004, -45064.203, 19195.031, 0.00068156485, 10.000739, 9.998374 
1.7452967e+3, 3.0344126e+2, -64634.855, -262203.53, -1491.7511, -0.07786722, -0.0010918916, -64623.594, -64623.594, 0.0015937911, 10.000512, 9.99793 
1.7453323e+3, 3.1343895e+2, 338903.25, 38534.105, -55884.297, 0.30668586, -0.088579565, 348963.66, 348963.66, 0.002881364, 10.002777, 9.998882 
1.7547213e+3, 1.23412445e+2, -2194496.0, -1870998.6, -139280.97, 0.17667255, -0.122369215, -1819295.1, -88744.71, 0.07366958, 9.9963045, 10.000669 
1.7547555e+3, 1.3341625e+2, -1794809.3, -1492070.5, 232639.86, 0.044947043, 0.031766888, -1365889.9, 266622.44, 0.048192136, 9.997841, 10.001926 
1.7547888e+3, 1.4341523e+2, -1545048.9, -1486708.0, 61547.59, -0.07740407, -0.19374134, -1447768.0, 86753.09, 0.024652572, 9.99957, 10.000403 
1.7548215e+3, 1.5341666e+2, -1556555.3, -1457978.6, 48883.336, 0.08891942, -0.11738626, -1437848.5, -1341.47, 0.008527423, 9.998903, 10.000233 
1.7548528e+3, 1.6341695e+2, -1577917.5, -1504562.1, 33539.77, 0.065076895, -0.058371194, -1491539.0, -153033.86, 0.0014925194, 9.99845, 9.999478 
1.7548846e+3, 1.7341621e+2, -1374578.9, -1320424.3, 24734.873, -0.023180582, -0.136072, -1310827.4, -70312.016, 0.00006156021, 9.999052, 9.999762 
1.7549169e+3, 1.8341658e+2, -1212697.3, -1123696.4, -30835.893, -0.016519556, -0.084775455, -1114056.8, 28457.453, 0.0000000010737394, 9.9991865, 10.000366 
1.7549501e+3, 1.9341837e+2, -1206446.5, -1029556.2, 3358.1987, 0.09895916, -0.012568335, -1029492.5, 15005.822, 0.0, 9.998401, 10.000703 
1.7549822e+3, 2.0341936e+2, -1183351.5, -1061351.9, 494.7329, 0.12550516, 0.06705939, -1061349.9, -114860.766, 0.0, 9.998246, 9.999921 
1.7550133e+3, 2.1341908e+2, -901359.8, -849966.6, 27044.564, 0.04959596, -0.004659359, -838357.44, 10133.153, 0.0, 9.999428, 10.000117 
1.7550446e+3, 2.2341856e+2, -783778.56, -876362.7, -909.68494, 0.0069004917, -0.0011846696, -783769.6, -33274.906, 0.0, 10.00012, 9.998942 
1.7550763e+3, 2.3341754e+2, -692117.5, -769539.7, -8649.012, 0.03125846, -0.03826888, -691163.06, -38658.54, 0.0, 10.00005, 9.999019 
1.7551081e+3, 2.4341664e+2, -625907.3, -669540.6, -31940.17, 0.031396016, -0.022112884, -609044.0, -54531.438, 0.0, 9.999779, 9.999158 
1.7551397e+3, 2.5341582e+2, -530951.8, -536307.3, -13027.283, 0.028610948, -0.08190257, -520329.94, -63811.574, 0.0, 9.999616, 9.999467 
1.7551717e+3, 2.634148e+2, -465179.9, -586511.0, -12926.871, 0.03291852, -0.06500863, -463817.94, -105289.875, 0.00000094846536, 9.999896, 9.998345 
1.7552043e+3, 2.734137e+2, -164954.78, -373156.16, 17086.072, 0.061504874, -0.058794092, -163561.94, 96979.805, 0.000030605133, 10.001231, 9.998478 
1.7552368e+3, 2.834127e+2, -27299.55, -301661.03, -38420.44, 0.10926479, 0.022454208, -22020.871, 140532.05, 0.00020047408, 10.001673, 9.998104 
1.7552684e+3, 2.9341114e+2, -104987.914, -266796.4, -36200.88, 0.17415752, -0.011692477, -97258.08, -32692.004, 0.00069770816, 10.000388, 9.998273 
1.7552982e+3, 3.034086e+2, -126039.78, -289144.88, 30919.51, -0.021066291, -0.057779223, -120375.164, -120375.164, 0.001653074, 10.000092, 9.997938 
1.7553326e+3, 3.134071e+2, 192674.53, -54560.99, 109033.85, -0.007829298, -0.09454388, 233889.2, 233889.2, 0.0030124004, 10.001922, 9.99863 
1.7647165e+3, 1.2337951e+2, -1986568.6, -1766978.5, -206872.81, 0.038777016, -0.3007624, -1642570.0, 88299.21, 0.07790593, 9.997676, 10.000766 
1.7647532e+3, 1.3338442e+2, -1788683.0, -1512647.1, 190164.06, 0.042652406, -0.007697407, -1415694.1, 217126.84, 0.05123237, 9.997965, 10.001719 
1.764788e+3, 1.433833e+2, -1719693.9, -1604340.3, -20659.18, -0.022566792, -0.22385539, -1600751.9, -65919.97, 0.026445003, 9.998519, 10.000101 
1.7648214e+3, 1.533846e+2, -1529404.9, -1489610.3, -106279.445, 0.17711627, -0.11456345, -1401381.6, 35439.875, 0.009296644, 9.99932, 9.99981 
1.7648524e+3, 1.6338488e+2, -1448714.3, -1443713.5, -58156.66, 0.1404787, -0.028199269, -1388003.5, -49182.79, 0.0016790463, 9.999355, 9.99945 
1.7648832e+3, 1.7338394e+2, -1474148.1, -1367363.9, -12814.205, -0.011160609, -0.13163486, -1365847.6, -125016.26, 0.000074904594, 9.998358, 9.99977 
1.7649153e+3, 1.8338408e+2, -1393597.1, -1202279.0, 20351.57, -0.017208057, -0.10857012, -1200138.1, -57306.887, 0.000000009428086, 9.997898, 10.000459 
1.764949e+3, 1.9338578e+2, -1099694.9, -962611.1, -11705.278, 0.12680627, -0.05564426, -961618.8, 83196.27, 0.0, 9.999064, 10.000856 
1.7649817e+3, 2.0338687e+2, -964588.4, -957547.25, -3246.3352, 0.18369992, 0.028456433, -956279.0, -9474.259, 0.0, 9.999773, 9.999891 
1.7650132e+3, 2.1338707e+2, -872313.06, -842300.4, -33681.44, 0.10500256, 0.015297371, -820433.56, 28369.748, 0.0, 9.999676, 10.000043 
1.7650451e+3, 2.2338669e+2, -847287.1, -906326.44, -44349.04, 0.07311254, 0.03847582, -823531.56, -72724.56, 0.0, 9.9997, 9.99893 
1.765077e+3, 2.3338522e+2, -673667.6, -757034.56, -51566.51, 0.09926421, -0.04087972, -649044.1, 3776.8, 0.0, 10.000183, 9.99903 
1.7651087e+3, 2.4338399e+2, -509048.4, -628743.8, -25544.656, 0.107206315, -0.052804425, -503824.78, 51006.99, 0.0, 10.0006, 9.999065 
1.7651403e+3, 2.533832e+2, -366309.5, -471679.4, -45489.84, 0.07997186, -0.09848314, -349388.22, 107448.93, 0.0, 10.0007715, 9.9993725 
1.7651722e+3, 2.6338217e+2, -317351.47, -513913.47, 11307.79, 0.06433766, -0.07615464, -316703.1, 42143.523, 0.0000007067664, 10.000931, 9.998333 
1.7652053e+3, 2.7338085e+2, -181806.36, -380804.44, -10169.996, 0.048632897, -0.087918736, -181287.95, 79574.67, 0.000029110019, 10.001134, 9.998461 
1.7652382e+3, 2.8337985e+2, -48672.16, -299291.1, -66969.24, 0.11022641, -0.008349128, -31899.46, 130974.44, 0.0002034409, 10.001494, 9.9982 
1.7652707e+3, 2.9337868e+2, 175901.03, -125934.88, -120185.86, 0.28675684, -0.0026537857, 217910.19, 282793.34, 0.0007263894, 10.0023155, 9.998308 
1.7653006e+3, 3.0337566e+2, 260723.42, -93953.914, 32180.771, 0.10872219, -0.10106298, 263619.63, 263619.63, 0.0017327985, 10.00268, 9.998042 
1.7653343e+3, 3.1337425e+2, 195672.64, -36667.383, 41927.87, 0.0122003695, -0.13195103, 203007.36, 203007.36, 0.003152905, 10.001807, 9.998833 
1.774715e+3, 1.2334747e+2, -1967258.5, -1798977.1, -260929.55, 0.01766355, -0.26382822, -1608957.5, 122227.74, 0.08231803, 9.99795, 10.000451 
1.774749e+3, 1.3335401e+2, -1803075.3, -1554124.1, 225066.33, -0.19825757, 0.19856776, -1421405.3, 211716.13, 0.054393712, 9.998011, 10.001413 
1.77479e+3, 1.4334926e+2, -1777238.6, -1746298.1, -14590.121, 0.2627182, -0.29918814, -1740503.4, -205333.72, 0.02831169, 9.9986105, 9.999086 
1.7748214e+3, 1.5335104e+2, -1562421.0, -1570504.9, -64511.01, 0.2100492, -0.077985115, -1501825.5, -64666.67, 0.010105246, 9.999358, 9.999242 
1.7748517e+3, 1.6335285e+2, -1360680.3, -1279150.9, -107907.414, 0.08895388, 0.14129904, -1204564.9, 134578.98, 0.0018804772, 9.999432, 10.000544 
1.7748821e+3, 1.7335266e+2, -1388363.3, -1182852.5, -38426.848, 0.013068203, -0.012499154, -1175902.5, 65238.664, 0.00008970714, 9.998332, 10.001048 
1.7749137e+3, 1.8335246e+2, -1406902.6, -1229594.0, 34094.15, -0.013487535, -0.08765281, -1223264.1, -80124.42, 0.000000028818846, 9.997897, 10.000272 
1.7749475e+3, 1.9335282e+2, -1142953.9, -1030034.0, 50044.31, 0.05338771, -0.12948243, -1011047.56, 34087.746, 0.0, 9.998966, 10.000443 
1.774981e+3, 2.0335329e+2, -1021093.94, -1031347.56, -18613.453, 0.10290548, -0.06982741, -1006914.1, -59783.08, 0.0, 9.999592, 9.999466 
1.7750135e+3, 2.1335366e+2, -944153.25, -932053.4, -24484.938, 0.14836068, -0.019677196, -912882.0, -63751.996, 0.0, 9.999426, 9.999541 
1.7750458e+3, 2.2335342e+2, -870648.2, -890181.7, -45561.426, 0.14786538, 0.034188665, -833818.44, -82684.69, 0.0, 9.999411, 9.999184 
1.7750774e+3, 2.3335198e+2, -670032.9, -708105.4, -13940.659, 0.09337915, -0.089194976, -665474.2, -12328.404, 0.0, 9.999984, 9.999469 
1.7751092e+3, 2.433508e+2, -559724.4, -655224.6, -34520.98, 0.055590704, -0.12064513, -548552.75, 6602.5234, 0.0, 10.000273, 9.999035 
1.7751409e+3, 2.533502e+2, -416006.5, -511388.25, -20251.709, 0.04891548, -0.13674971, -411884.72, 45274.316, 0.0, 10.000505, 9.999226 
1.775173e+3, 2.6334918e+2, -381487.38, -567765.5, 3944.0881, 0.017868476, -0.0986571, -381403.9, -22235.176, 0.00000032366296, 10.000599, 9.99812 
1.7752059e+3, 2.7334747e+2, -249759.83, -439099.84, 21051.752, -0.03160678, -0.12543277, -247447.44, 13741.834, 0.00002512301, 10.000799, 9.998213 
1.7752391e+3, 2.833462e+2, -108822.1, -341835.72, -63859.95, 0.017284282, -0.049040258, -92468.34, 70735.34, 0.00020101898, 10.001134, 9.998084 
1.7752728e+3, 2.9334542e+2, 121929.93, -151179.42, -63207.715, 0.2394269, -0.013216324, 135849.16, 201059.22, 0.0007432089, 10.0019455, 9.99831 
1.7753036e+3, 3.0334243e+2, 189781.69, -121451.336, -10033.819, 0.102132015, -0.109783374, 190104.84, 190104.84, 0.0017748435, 10.002182, 9.998085 
1.7753369e+3, 3.133422e+2, 104998.266, 5513.515, 93755.695, 0.026425384, -0.03187867, 161389.92, 161389.92, 0.0031989107, 10.000893, 9.999531 
1.784715e+3, 1.2331687e+2, -1949196.5, -1880824.3, -169248.05, 0.22263698, -0.13224903, -1742344.3, -10858.666, 0.08696164, 9.998517, 9.999532 
1.7847477e+3, 1.3332205e+2, -1691058.4, -1541403.6, 209538.52, -0.16578215, 0.23969625, -1393732.6, 239703.94, 0.057701517, 9.999036, 10.000985 
1.7847885e+3, 1.4331685e+2, -1827839.4, -1743387.8, 84415.18, 0.28375325, -0.28451473, -1691226.4, -155737.1, 0.030258754, 9.998154, 9.999325 
1.7848207e+3, 1.5331896e+2, -1590059.0, -1534968.4, 87908.23, 0.23754647, -0.07652424, -1470390.9, -32917.004, 0.0109521225, 9.998953, 9.99968 
1.7848514e+3, 1.6332121e+2, -1375023.0, -1293259.1, 42557.375, 0.13559867, 0.16122861, -1275128.6, 64325.094, 0.0020959692, 9.999372, 10.000465 
1.784881e+3, 1.733211e+2, -1260316.8, -1138380.3, -49823.49, 0.055740993, 0.027340388, -1120611.5, 120839.26, 0.000105867584, 9.999307, 10.000871 
1.7849126e+3, 1.8332052e+2, -1232358.9, -1178034.6, 31338.18, 0.040608887, -0.05842682, -1163725.5, -20272.803, 0.0000000562377, 9.999232, 9.99999 
1.7849472e+3, 1.933201e+2, -1071675.9, -1024670.4, 38414.57, 0.10159571, -0.15133964, -1003139.2, 42315.625, 0.0, 9.99957, 10.00019 
1.7849809e+3, 2.0332003e+2, -1006236.56, -1044046.0, -7723.386, 0.1570799, -0.12258947, -1004719.75, -57264.594, 0.0, 9.999778, 9.99929 
1.7850135e+3, 2.133203e+2, -864168.94, -909871.8, -31236.47, 0.19241633, -0.068719715, -848317.56, 1138.0928, 0.0, 10.000041, 9.999399 
1.7850457e+3, 2.233201e+2, -747533.1, -817923.3, 2062.8813, 0.18752156, -0.0052621784, -747472.7, 3986.7212, 0.0, 10.000214, 9.999293 
1.7850775e+3, 2.3331909e+2, -616952.06, -665849.4, -24053.96, 0.1074904, -0.09646356, -607103.06, 46364.83, 0.0, 10.000296, 9.99961 
1.7851095e+3, 2.4331822e+2, -542246.75, -655636.94, -34198.773, 0.07002786, -0.09906165, -532730.9, 22744.219, 0.0, 10.000447, 9.998938 
1.7851417e+3, 2.5331765e+2, -383910.34, -512665.47, -59133.047, 0.08232648, -0.09523514, -360874.03, 96605.39, 0.0, 10.000815, 9.999056 
1.7851743e+3, 2.633166e+2, -312594.66, -545340.75, -7370.7583, 0.07919046, -0.048064314, -312361.47, 47128.492, 0.00000018370703, 10.001083, 9.998059 
1.7852071e+3, 2.733144e+2, -193754.89, -429087.13, -11936.727, 0.02293441, -0.1142014, -193150.97, 68363.29, 0.000020759246, 10.001201, 9.998119 
1.7852408e+3, 2.8331277e+2, -74061.23, -319775.63, -22531.889, 0.07560483, -0.067464225, -72012.15, 91519.58, 0.00019262578, 10.001365, 9.998114 
1.7852753e+3, 2.9331222e+2, 96157.31, -162095.89, -70408.66, 0.3103123, -0.011079983, 114105.72, 179642.83, 0.00073903677, 10.0017605, 9.998319 
1.7853063e+3, 3.0330953e+2, 150457.84, -124662.2, -14188.725, 0.1956734, -0.08412349, 151187.66, 151187.66, 0.0017591724, 10.00185, 9.998216 
1.7853388e+3, 3.13309e+2, 149140.53, 44309.156, -11045.25, 0.14136231, -0.030017901, 150291.64, 150291.64, 0.0031189888, 10.001071, 9.999734 
1.794713e+3, 1.2328543e+2, -2031409.3, -2103899.8, -153861.47, 0.05903068, -0.16254786, -1909581.5, -177788.95, 0.09190124, 9.998745, 9.997893 
1.7947483e+3, 1.3328812e+2, -1698374.3, -1601673.1, 179714.14, -0.053584184, 0.060647637, -1463919.0, 169851.64, 0.06119029, 9.999196, 10.000494 
1.7947827e+3, 1.4328638e+2, -1718899.9, -1525558.5, 69302.56, -0.15225293, -0.16809604, -1503283.5, 32504.225, 0.03230053, 9.998198, 10.0008 
1.7948188e+3, 1.5328856e+2, -1491807.6, -1325194.4, 136797.98, 0.11626567, -0.10087658, -1248333.4, 189430.72, 0.011841973, 9.998936, 10.001135 
1.7948511e+3, 1.6328998e+2, -1452206.9, -1479332.1, 27542.361, 0.114132464, 0.027549252, -1435068.9, -95319.195, 0.0023264778, 9.99947, 9.999148 
1.7948802e+3, 1.7328899e+2, -1379182.4, -1394081.4, -42053.773, -0.01377479, -0.016947912, -1343923.4, -102161.11, 0.00012352158, 9.999332, 9.999112 
1.7949116e+3, 1.8328808e+2, -1250227.1, -1221497.5, 19380.982, -0.025234288, -0.02464318, -1211738.3, -67966.24, 0.000000085167756, 9.999266, 9.99967 
1.7949471e+3, 1.9328757e+2, -1094584.6, -1048573.5, 61101.035, 0.12443551, -0.11477477, -1006290.56, 39483.434, 0.0, 9.999469, 10.000073 
1.7949812e+3, 2.0328721e+2, -1023863.4, -1039749.6, -16997.736, 0.17259704, -0.11321714, -1013044.4, -65268.254, 0.0, 9.999594, 9.999413 
1.7950128e+3, 2.1328707e+2, -882255.25, -899564.25, -5979.637, 0.09695612, -0.118709676, -880390.44, -30611.096, 0.0, 9.999824, 9.999582 
1.7950447e+3, 2.2328676e+2, -807450.3, -866958.25, -11640.058, 0.031426083, -0.06859743, -805254.44, -53470.44, 0.0, 9.999893, 9.99911 
1.795077e+3, 2.3328635e+2, -676367.25, -723220.6, -3546.5479, 0.0048725954, -0.07741908, -676100.3, -22311.047, 0.0, 10.000013, 9.99935 
1.7951094e+3, 2.4328595e+2, -611132.9, -719753.4, -35827.848, -0.01030815, -0.006804544, -600379.8, -44585.66, 0.0, 10.000108, 9.998662 
1.7951423e+3, 2.5328553e+2, -441929.8, -568698.7, -27175.92, 0.03302406, 0.03595784, -436349.63, 21449.25, 0.0, 10.0005455, 9.998797 
1.7951755e+3, 2.6328424e+2, -357469.44, -564178.44, -18105.97, 0.06822799, 0.07639248, -355895.5, 3916.5063, 0.00000013255313, 10.000759, 9.998089 
1.7952089e+3, 2.732815e+2, -228317.02, -424735.78, 11476.398, 0.0511452, -0.058558166, -227648.73, 34189.984, 0.0000188634, 10.000889, 9.998292 
1.7952426e+3, 2.8327966e+2, -130236.48, -351132.25, -29638.44, 0.09299681, -0.048214264, -126328.9, 37528.58, 0.00018772876, 10.000992, 9.99808 
1.7952771e+3, 2.932792e+2, 33251.266, -186835.94, -22434.928, 0.2960089, 0.021465365, 35514.92, 101377.875, 0.00073121197, 10.001324, 9.99835 
1.7953081e+3, 3.0327696e+2, 68135.13, -191551.2, -57981.484, 0.15910281, 0.0008067457, 80492.88, 80492.88, 0.0017175064, 10.001382, 9.997992 
1.7953387e+3, 3.1327522e+2, 73986.64, 39663.29, 41023.26, -0.02492966, -0.06950409, 101293.28, 101293.28, 0.0029745605, 10.000463, 9.99997 
1.8047115e+3, 1.2325311e+2, -1988935.8, -2188902.8, -67231.3, 0.019992346, -0.13782623, -1968433.9, -236324.19, 0.097200245, 9.999533, 9.996921 
1.8047486e+3, 1.3325448e+2, -1683783.9, -1548227.4, 93619.92, 0.0849611, -0.05934258, -1500426.4, 133674.33, 0.06490086, 9.999092, 10.000907 
1.8047804e+3, 1.4325523e+2, -1692013.8, -1497743.8, 52687.727, -0.18453246, -0.07672919, -1484374.5, 51717.574, 0.034457777, 9.99829, 10.0009575 
1.8048172e+3, 1.5325627e+2, -1544846.8, -1345535.5, -6168.6567, 0.10271752, -0.1300411, -1345344.8, 92732.35, 0.0127833225, 9.998535, 10.001186 
1.80485e+3, 1.6325673e+2, -1557098.9, -1547675.3, -103977.27, 0.11113885, -0.09287435, -1448303.1, -108232.16, 0.0025744103, 9.998826, 9.998995 
1.8048798e+3, 1.7325613e+2, -1339282.3, -1389190.0, -89919.97, 0.015764711, -0.080883324, -1270917.9, -28837.186, 0.00014305822, 9.999676, 9.998972 
1.8049118e+3, 1.832555e+2, -1163561.6, -1231744.0, 58476.48, 0.04800053, -0.036220826, -1129964.5, 14124.709, 0.00000010953618, 10.000076, 9.999212 
1.8049473e+3, 1.9325471e+2, -1074715.3, -1093816.1, 33384.125, 0.1798966, -0.10276341, -1049542.4, -3446.2798, 0.0, 9.999851, 9.999577 
1.8049811e+3, 2.0325421e+2, -1009174.56, -1017041.94, -24280.813, 0.21074298, -0.09122384, -988510.9, -40410.258, 0.0, 9.999621, 9.999572 
1.8050124e+3, 2.1325429e+2, -892262.06, -869184.8, -36698.73, 0.08889642, -0.10230778, -842253.5, 7847.0933, 0.0, 9.999605, 9.999903 
1.8050443e+3, 2.232541e+2, -836625.44, -882629.6, 2955.913, 0.017495528, -0.057703987, -836436.3, -84333.07, 0.0, 9.999706, 9.999082 
1.8050772e+3, 2.3325357e+2, -648889.4, -721943.44, -10384.332, 0.018486666, -0.066429146, -647442.0, 6668.0566, 0.0, 10.000263, 9.999228 
1.80511e+3, 2.4325302e+2, -518898.03, -697107.4, -237.71368, 0.023392651, 0.002941848, -518897.72, 37219.098, 0.0, 10.0008135, 9.998501 
1.805143e+3, 2.532522e+2, -355338.25, -553732.0, -19787.102, 0.042155724, 0.03144554, -353384.0, 104742.08, 0.0, 10.001226, 9.998602 
1.8051767e+3, 2.632508e+2, -261498.63, -503906.1, 12199.853, 0.09353324, 0.06887994, -260886.19, 99254.22, 0.00000007008213, 10.001377, 9.998194 
1.8052106e+3, 2.7324846e+2, -182168.95, -395276.97, -9488.695, 0.13834098, -0.035981208, -181747.3, 80415.64, 0.000018211349, 10.00117, 9.998361 
1.8052444e+3, 2.832467e+2, -105123.41, -318504.4, 5193.868, 0.19384868, -0.026237044, -104997.06, 59183.223, 0.00018396454, 10.001065, 9.998273 
1.8052784e+3, 2.9324588e+2, 73613.63, -150077.89, -18143.76, 0.28933752, -0.0024884955, 75075.73, 141264.97, 0.0007180549, 10.001507, 9.998525 
1.80531e+3, 3.0324402e+2, 199018.45, -154687.05, -1773.9346, 0.16937172, 0.013511637, 199027.34, 199027.34, 0.0016647228, 10.002423, 9.99773 
1.805342e+3, 3.1324247e+2, 499478.03, 175631.92, -24285.525, 0.10233797, 0.023900466, 501289.1, 501289.1, 0.0028336593, 10.003598, 9.999446 
1.814712e+3, 1.23220354e+2, -2000650.9, -2264073.8, 111298.26, 0.0378868, 0.014152478, -1959923.3, -227490.55, 0.10291468, 9.999723, 9.996328 
1.8147483e+3, 1.3322093e+2, -1589151.6, -1365866.0, 66934.21, 0.1051688, -0.11390492, -1347338.5, 287090.25, 0.06887483, 9.999111, 10.002238 
1.8147814e+3, 1.4322302e+2, -1744930.5, -1627358.9, 24358.19, 0.025578162, -0.03270236, -1622512.3, -86106.41, 0.036753505, 9.998379, 10.000014 
1.8148156e+3, 1.5322176e+2, -1632486.5, -1537844.9, 13715.603, 0.049394827, -0.18209806, -1535897.3, -97480.46, 0.01378539, 9.998574, 9.9998455 
1.8148476e+3, 1.6322131e+2, -1467686.8, -1380285.3, -99054.04, -0.06560863, -0.20707941, -1315720.3, 24699.383, 0.002842686, 9.998901, 10.000106 
1.8148798e+3, 1.7322253e+2, -1234839.0, -1175907.4, -43685.535, 0.012307683, -0.1607339, -1152679.3, 89726.85, 0.00016504708, 9.999678, 10.00044 
1.8149129e+3, 1.832229e+2, -1200476.5, -1310198.0, 37038.152, 0.10601718, -0.07860146, -1189144.1, -44741.246, 0.00000012908751, 10.000081, 9.998674 
1.8149468e+3, 1.9322158e+2, -1147248.0, -1233356.6, 36938.09, 0.13367243, -0.10682503, -1133574.1, -87153.97, 0.0, 9.999796, 9.998651 
1.8149799e+3, 2.0322101e+2, -1023699.44, -1006334.3, -41905.066, 0.10567862, -0.05663504, -972221.75, -23792.99, 0.0, 9.99945, 9.999725 
1.8150117e+3, 2.132218e+2, -900901.3, -832218.75, -19902.03, 0.03602194, -0.03213917, -826868.5, 23552.348, 0.0, 9.999366, 10.000272 
1.8150438e+3, 2.2322196e+2, -882108.1, -898101.9, 4789.1436, -0.011595202, 0.019997515, -880783.75, -128364.73, 0.0, 9.999368, 9.999138 
1.8150774e+3, 2.3322085e+2, -690439.2, -747392.0, 28222.143, 0.0029525612, -0.043788914, -678823.25, -24393.94, 0.0, 9.999998, 9.999182 
1.8151107e+3, 2.432194e+2, -578718.5, -746632.0, 3518.9114, -0.010973515, -0.050541822, -578644.8, -22201.38, 0.0, 10.000494, 9.998309 
1.8151437e+3, 2.5321755e+2, -401279.78, -587365.7, 15184.288, -0.037245143, -0.116936915, -400048.9, 58413.395, 0.0, 10.000964, 9.998488 
1.8151774e+3, 2.6321614e+2, -318524.6, -541559.06, -8149.058, -0.0074621905, -0.07475451, -318227.25, 42249.746, 0.0000000874347, 10.001024, 9.998107 
1.8152119e+3, 2.7321526e+2, -234876.95, -425119.47, 5514.9463, 0.12518145, -0.033070702, -234717.22, 27769.066, 0.00001648955, 10.000841, 9.998306 
1.8152456e+3, 2.832141e+2, -142628.52, -321783.25, -3514.8245, 0.17264663, 0.03498184, -142559.6, 21938.81, 0.00017264318, 10.00073, 9.998416 
1.8152782e+3, 2.9321244e+2, 48731.883, -128555.16, 26805.063, 0.097560614, -0.0620653, 52696.06, 119210.85, 0.000683164, 10.001182, 9.99883 
1.8153109e+3, 3.0321082e+2, 77653.8, -291292.78, 17236.783, -0.0044826297, -0.010127253, 78457.33, 78457.33, 0.0015936061, 10.001944, 9.997018 
1.8153453e+3, 3.132085e+2, 314520.63, 22109.902, 69668.18, 0.029278385, -0.0018081035, 330271.03, 330271.03, 0.002724393, 10.0026865, 9.998786 
1.8247117e+3, 1.23186186e+2, -2183903.8, -2309251.0, 160257.19, 0.12102999, 0.06933146, -2074500.8, -341732.2, 0.10907774, 9.99826, 9.996722 
1.8247482e+3, 1.331871e+2, -1502871.5, -1252839.9, -19507.607, 0.19042362, -0.101450674, -1251327.0, 383432.78, 0.07313931, 9.999362, 10.002978 
1.8247811e+3, 1.4318927e+2, -1631528.5, -1573823.6, -33353.73, 0.14608069, -0.05703754, -1558574.6, -21838.8, 0.039204508, 9.999192, 9.999981 
1.8248145e+3, 1.5318835e+2, -1670731.0, -1586535.6, -725.5638, 0.115000464, -0.1433304, -1586529.4, -147784.13, 0.014855209, 9.998472, 9.99955 
1.8248464e+3, 1.631878e+2, -1547714.8, -1390517.1, -26276.906, -0.011199123, -0.16976099, -1386241.0, -45491.414, 0.0031336718, 9.998231, 10.000353 
1.8248793e+3, 1.7318875e+2, -1279979.4, -1152329.6, -81446.67, 0.047749378, -0.18886198, -1112679.0, 130056.99, 0.00019006866, 9.999187, 10.000833 
1.8249129e+3, 1.8318917e+2, -1234937.6, -1300826.9, -25713.814, 0.13242425, -0.13367943, -1226090.6, -81359.53, 0.00000015151502, 9.999737, 9.9989 
1.8249464e+3, 1.9318837e+2, -1139363.3, -1202342.4, 15717.776, 0.11940613, -0.130205, -1135658.5, -88914.586, 0.0, 9.99977, 9.99886 
1.8249792e+3, 2.0318806e+2, -973504.7, -1003013.9, 14656.795, 0.09187884, -0.056109495, -967462.1, -18711.766, 0.0, 9.99989, 9.999515 
1.8250115e+3, 2.1318859e+2, -784060.3, -802568.1, -39199.41, 0.05254233, -0.035786785, -753037.4, 97708.234, 0.0, 10.0003, 10.000001 
1.825044e+3, 2.2318855e+2, -697762.9, -814524.0, -3953.5662, 0.03491159, 0.014145481, -697629.2, 55116.26, 0.0, 10.000624, 9.999125 
1.825078e+3, 2.3318738e+2, -573309.06, -679688.75, -5079.377, 0.036344923, -0.0635738, -573067.06, 81688.14, 0.0, 10.000744, 9.999295 
1.8251115e+3, 2.4318585e+2, -528929.7, -726545.56, 10346.734, 0.025954423, -0.08552842, -528389.44, 28379.965, 0.0, 10.000846, 9.998273 
1.8251447e+3, 2.5318387e+2, -418008.38, -601951.06, -6981.0166, -0.004723609, -0.15612413, -417743.8, 41046.04, 0.0, 10.000874, 9.998422 
1.8251786e+3, 2.6318246e+2, -310320.13, -521491.34, 5261.1616, 0.034086727, -0.11826943, -310189.13, 50615.48, 0.00000011582431, 10.001028, 9.998239 
1.8252133e+3, 2.731816e+2, -125283.984, -361266.34, -15399.8125, 0.16090065, -0.08221142, -124283.26, 138529.52, 0.000015405387, 10.001541, 9.998415 
1.825247e+3, 2.831803e+2, 1176.112, -262096.28, 18553.824, 0.19645977, -0.027089883, 2477.2415, 167302.7, 0.00016033741, 10.001775, 9.998318 
1.825279e+3, 2.9317856e+2, 79504.94, -143480.64, -33371.46, 0.04860581, -0.10380086, 84392.12, 151235.39, 0.00064014964, 10.001513, 9.998575 
1.8253127e+3, 3.0317697e+2, 97698.34, -247658.2, 52197.703, 0.011753773, -0.049459644, 105415.15, 105415.15, 0.0015227208, 10.001913, 9.997344 
1.8253496e+3, 3.1317466e+2, 432688.56, 92145.71, 51291.26, 0.18576218, -0.06455535, 440246.13, 440246.13, 0.0026626373, 10.003371, 9.998989 
1.8347079e+3, 1.23149335e+2, -2057630.0, -2077117.9, -68674.15, -0.17643921, -0.09122257, -1998012.0, -264882.34, 0.11569034, 9.998384, 9.99825 
1.8347481e+3, 1.3315313e+2, -1469011.5, -1205857.3, 17159.451, 0.20338829, -0.0011646538, -1204743.0, 430349.6, 0.07769921, 9.99945, 10.0033045 
1.8347788e+3, 1.4315397e+2, -1550971.9, -1444208.3, -83540.164, -0.06088776, -0.15444827, -1398450.9, 138631.66, 0.04181763, 9.999342, 10.000829 
1.8348137e+3, 1.5315613e+2, -1612561.1, -1481993.9, -14320.569, 0.14785373, -0.009907235, -1480441.8, -41379.44, 0.015997248, 9.998525, 10.000246 
1.8348466e+3, 1.6315632e+2, -1577997.4, -1473251.8, -21090.646, 0.122712925, 0.02617724, -1469164.5, -128104.74, 0.0034491862, 9.998314, 9.999746 
1.8348783e+3, 1.731546e+2, -1328818.9, -1264633.6, -33893.766, -0.012805282, -0.18084025, -1250049.4, -6976.552, 0.00021871291, 9.999219, 10.0000515 
1.834911e+3, 1.8315391e+2, -1170121.0, -1163379.5, -38466.957, -0.0630108, -0.22995038, -1128135.9, 16941.58, 0.00000018976193, 9.999729, 9.9998455 
1.8349452e+3, 1.9315477e+2, -1063427.8, -1025992.7, 28021.32, -0.0070577203, -0.1861318, -1011012.44, 36057.5, 0.0, 9.999682, 10.000116 
1.8349786e+3, 2.0315513e+2, -1032168.7, -1084176.6, 10392.601, 0.006430967, -0.10044207, -1030168.9, -81101.16, 0.0, 9.999714, 9.999044 
1.8350114e+3, 2.1315458e+2, -876037.44, -942293.56, -11731.364, -0.0070227906, -0.10360253, -874021.56, -22946.24, 0.0, 10.000077, 9.999149 
1.8350445e+3, 2.2315392e+2, -746180.4, -842507.0, -11946.184, -0.017033154, -0.06458708, -744720.94, 8361.691, 0.0, 10.000309, 9.999088 
1.8350783e+3, 2.3315297e+2, -596909.44, -672425.1, 16425.723, -0.0142171895, -0.13608119, -593491.3, 61598.4, 0.0, 10.000498, 9.999471 
1.8351121e+3, 2.4315208e+2, -568823.8, -731829.8, -4916.0054, -0.021256907, -0.10940101, -568675.7, -11578.183, 0.0, 10.000508, 9.9984045 
1.8351458e+3, 2.531513e+2, -458549.34, -616082.44, 13411.065, -0.0070681004, -0.07102255, -457415.78, 1691.9166, 0.0, 10.000576, 9.998471 
1.8351798e+3, 2.6314998e+2, -350053.78, -537180.0, 6377.6973, 0.024579957, -0.023313297, -349836.66, 11284.516, 0.000000090536304, 10.000729, 9.998281 
1.8352142e+3, 2.7314743e+2, -145897.25, -351510.7, 28110.08, 0.083402395, -0.17220752, -142123.5, 121019.305, 0.00001528185, 10.00131, 9.998594 
1.8352479e+3, 2.831452e+2, -82879.11, -361078.88, -12152.372, 0.07207448, -0.20156933, -82349.27, 82813.8, 0.00015301355, 10.001444, 9.997798 
1.8352798e+3, 2.9314408e+2, -18806.557, -260102.42, -14711.604, -0.050257716, -0.15796083, -17912.912, 49264.156, 0.0006077412, 10.001143, 9.997944 
1.8353146e+3, 3.0314264e+2, 75113.04, -174179.72, 75623.57, -0.02142774, -0.07987405, 96259.81, 96259.81, 0.0014712461, 10.001402, 9.99809 
1.8353523e+3, 3.1314135e+2, 368723.25, 130928.445, 139064.78, 0.06390116, -0.12023498, 432789.25, 432789.25, 0.002638943, 10.00266, 9.999582 
1.844707e+3, 1.2311376e+2, -1900894.9, -1878160.3, 24926.178, -0.103469566, -0.27777717, -1862131.8, -128654.85, 0.12272786, 9.998958, 9.999339 
1.844746e+3, 1.3311952e+2, -1720581.9, -1351770.9, 90364.984, 0.16490464, 0.027229212, -1330820.1, 304601.16, 0.08254445, 9.997826, 10.002996 
1.8447772e+3, 1.431197e+2, -1748634.4, -1532043.1, -43032.855, -0.06942442, -0.17120615, -1523806.5, 13612.246, 0.04459436, 9.997939, 10.000882 
1.8448126e+3, 1.5312235e+2, -1518649.1, -1405892.3, -43673.16, 0.18444455, -0.0031989843, -1390955.4, 48438.04, 0.017215712, 9.999037, 10.000524 
1.8448462e+3, 1.6312286e+2, -1426459.6, -1418335.3, -12596.493, 0.21762297, 0.05640021, -1409162.1, -67774.05, 0.0037916328, 9.999447, 9.999582 
1.8448779e+3, 1.7312086e+2, -1347932.3, -1299621.1, -18425.883, 0.03919502, -0.1544865, -1293395.6, -49990.016, 0.00025177147, 9.999219, 9.999811 
1.8449105e+3, 1.8312004e+2, -1255304.6, -1187302.8, 1010.9627, -0.03765058, -0.20662382, -1187287.8, -41875.805, 0.00000025167606, 9.99907, 9.999996 
1.8449445e+3, 1.9312121e+2, -1066107.9, -1001905.25, -40737.574, -0.010246078, -0.1558213, -982140.94, 65259.598, 0.0, 9.999547, 10.000344 
1.8449783e+3, 2.0312162e+2, -1003349.2, -1045768.0, -53916.92, 0.0035068395, -0.08904432, -966620.06, -17223.676, 0.0, 9.999814, 9.999266 
1.8450114e+3, 2.1312061e+2, -868023.75, -915576.5, -32093.414, 0.0005887841, -0.1547002, -851858.9, -453.3792, 0.0, 10.000049, 9.999354 
1.8450451e+3, 2.2311968e+2, -746873.56, -861471.6, 47959.06, 0.02827168, -0.14662547, -729451.44, 23962.21, 0.0, 10.000393, 9.998906 
1.8450798e+3, 2.3311877e+2, -532329.2, -672767.25, 16183.631, 0.06536839, -0.18748254, -530488.4, 124933.086, 0.0, 10.00107, 9.99918 
1.8451141e+3, 2.4311799e+2, -429081.66, -660037.7, -11009.534, 0.08065824, -0.14158307, -428558.03, 128871.445, 0.0, 10.001475, 9.998411 
1.8451472e+3, 2.531173e+2, -333807.44, -554097.1, -40991.44, 0.041859265, -0.09204021, -326427.03, 133011.9, 0.0, 10.001425, 9.998482 
1.845181e+3, 2.6311597e+2, -229440.03, -478725.72, 4754.315, 0.046384923, -0.04428561, -229349.39, 132103.14, 0.00000009817215, 10.001558, 9.998282 
1.845216e+3, 2.731135e+2, -28803.129, -298758.0, -16117.377, 0.09743013, -0.18234612, -27844.264, 235629.61, 0.000013983738, 10.002133, 9.998557 
1.8452497e+3, 2.8311124e+2, 32562.213, -323888.34, -50323.383, 0.10013318, -0.20422894, 39530.598, 205025.14, 0.00014297613, 10.0023155, 9.997638 
1.8452814e+3, 2.931099e+2, 63606.285, -237132.19, -89440.266, -0.0069240383, -0.15825443, 88195.52, 155705.84, 0.0005747027, 10.001783, 9.997798 
1.8453167e+3, 3.0310765e+2, 137930.45, -161655.36, 103683.27, 0.0456686, -0.14808573, 170313.66, 170313.66, 0.0014161514, 10.0019, 9.997945 
1.845355e+3, 3.131061e+2, 424051.03, 133447.05, -42112.137, 0.06980737, -0.18048857, 430030.6, 430030.6, 0.0025925783, 10.003123, 9.999375 
1.8547082e+3, 1.2308278e+2, -1830762.3, -1813370.6, -28140.68, 0.023779128, -0.20642303, -1792612.9, -58835.223, 0.13014582, 9.999246, 9.999673 
1.8547413e+3, 1.3308619e+2, -1809754.4, -1526279.5, 93796.5, -0.12746082, -0.054899324, -1498054.4, 137692.03, 0.08765755, 9.99782, 10.001714 
1.8547761e+3, 1.4308655e+2, -1782417.8, -1627431.0, -22130.936, -0.024225062, -0.115394466, -1624332.8, -86589.49, 0.04753598, 9.998049, 10.000175 
1.854811e+3, 1.5308695e+2, -1521019.6, -1434359.9, 10958.081, 0.07404308, -0.14242113, -1432995.8, 6744.0254, 0.01851746, 9.999131, 10.000285 
1.8548445e+3, 1.6308725e+2, -1394008.6, -1374185.8, -39311.47, 0.06261309, -0.10238547, -1343555.5, -1818.7628, 0.0041650403, 9.99955, 9.999832 
1.8548776e+3, 1.7308745e+2, -1331083.9, -1262907.3, -14159.01, 0.06723895, -0.12173926, -1260083.6, -16348.791, 0.00029041685, 9.999203, 10.000073 
1.8549109e+3, 1.8308756e+2, -1300954.1, -1280119.0, -6060.9536, 0.049787004, -0.07117771, -1278484.1, -132749.6, 0.0000003514084, 9.9990635, 9.999365 
1.8549442e+3, 1.9308771e+2, -1138476.0, -1127927.1, -11970.393, -0.027162328, -0.039132364, -1120120.6, -72385.11, 0.0, 9.999438, 9.999535 
1.8549776e+3, 2.0308748e+2, -976240.44, -944550.9, -61978.098, -0.08551767, -0.018039718, -896424.25, 53312.33, 0.0, 9.999621, 10.000052 
1.855011e+3, 2.1308653e+2, -820225.06, -762903.06, -8910.526, -0.05232514, -0.19371536, -761549.9, 90187.14, 0.0, 9.999819, 10.000512 
1.8550456e+3, 2.2308564e+2, -806042.3, -916627.44, 54695.316, 0.009754677, -0.24146134, -783560.56, -29820.39, 0.0, 10.000093, 9.998677 
1.8550818e+3, 2.3308483e+2, -610922.4, -780319.06, 59640.758, 0.12950243, -0.21711919, -592031.0, 63719.125, 0.0, 10.000822, 9.998568 
1.8551165e+3, 2.430837e+2, -497817.4, -724841.0, -21640.393, 0.15296312, -0.1538845, -495773.0, 61990.438, 0.0, 10.001141, 9.998125 
1.8551484e+3, 2.530819e+2, -380660.97, -589760.0, -24842.625, 0.011621008, -0.20336957, -377750.0, 82033.336, 0.0, 10.001166, 9.998355 
1.8551819e+3, 2.6308045e+2, -282665.25, -514922.3, 3039.643, -0.05264966, -0.15985897, -282625.5, 79173.61, 0.00000008466028, 10.001244, 9.998183 
1.855218e+3, 2.7307963e+2, -84858.18, -339709.13, 30315.594, 0.05240105, -0.1222718, -81301.65, 182505.61, 0.000011476472, 10.001819, 9.998424 
1.8552524e+3, 2.8307828e+2, -35482.465, -374167.88, -84292.92, 0.08448452, -0.037162468, -15663.205, 150157.19, 0.00012753624, 10.001919, 9.997489 
1.8552834e+3, 2.9307592e+2, 26740.063, -241510.05, -84647.74, -0.011663992, -0.091617115, 51217.563, 119060.69, 0.0005324824, 10.001478, 9.997915 
1.8553182e+3, 3.0307207e+2, -4761.519, -361934.44, 115125.1, -0.02324478, -0.20954318, 29130.049, 29130.049, 0.0013398622, 10.001489, 9.996763 
1.8553577e+3, 3.1307065e+2, 230414.75, -56338.16, 33434.332, -0.025694111, -0.0830175, 234261.47, 234261.47, 0.0024846054, 10.002244, 9.998474 
1.8647076e+3, 1.2305198e+2, -2084266.6, -1899299.1, -130053.766, 0.15257789, -0.0040464285, -1832198.4, -98116.31, 0.1378835, 9.997408, 9.999934 
1.8647392e+3, 1.3305186e+2, -1668487.4, -1537922.3, 33883.6, -0.15827222, -0.1581201, -1529652.8, 106432.34, 0.09301642, 9.999165, 10.000955 
1.8647763e+3, 1.4305365e+2, -1589556.0, -1554992.8, 3733.653, 0.13306488, -0.021160757, -1554594.0, -16526.06, 0.050644647, 9.999473, 9.999981 
1.86481e+3, 1.5305303e+2, -1524568.9, -1433902.5, 13550.811, 0.07727521, -0.14759736, -1431920.6, 8152.534, 0.01991141, 9.999108, 10.0002985 
1.864843e+3, 1.6305302e+2, -1496468.1, -1429402.3, -7705.2715, 0.024138356, -0.13653553, -1428528.4, -86455.305, 0.0045744055, 9.998857, 9.999785 
1.8648772e+3, 1.7305417e+2, -1318896.4, -1255486.4, -38479.02, 0.11026323, -0.063688576, -1237333.1, 6730.263, 0.0003360051, 9.999287, 10.00007 
1.864911e+3, 1.8305466e+2, -1249258.4, -1280916.6, 13244.584, 0.14716612, 0.031906877, -1244448.3, -98387.84, 0.00000050835786, 9.999523, 9.99914 
1.8649441e+3, 1.9305399e+2, -1101888.3, -1141346.8, 17024.146, 0.016293876, 0.007375157, -1095558.6, -47489.594, 0.0, 9.999816, 9.999268 
1.8649775e+3, 2.0305328e+2, -892169.7, -889738.25, 8325.072, -0.048344526, -0.010615771, -882540.56, 67533.01, 0.0, 10.000124, 10.000192 
1.8650118e+3, 2.1305239e+2, -670882.06, -666748.7, -35865.813, 0.0048921006, -0.2022577, -632890.06, 219181.23, 0.0, 10.000719, 10.000745 
1.8650468e+3, 2.2305153e+2, -658129.94, -828585.4, 23921.871, 0.09001733, -0.26939377, -654836.3, 99236.5, 0.0, 10.00105, 9.998824 
1.8650831e+3, 2.3305073e+2, -579794.7, -752465.56, 36804.19, 0.19861536, -0.24749829, -572277.3, 83805.055, 0.0, 10.001002, 9.998675 
1.8651181e+3, 2.4304958e+2, -488159.13, -737870.8, 23232.316, 0.21539806, -0.1840146, -486016.06, 72079.7, 0.0, 10.001268, 9.997984 
1.8651502e+3, 2.5304762e+2, -246189.1, -547295.5, -8215.759, 0.021080537, -0.23020317, -245965.1, 214152.73, 0.0, 10.002185, 9.99816 
1.8651834e+3, 2.63046e+2, -90606.37, -418656.34, 37325.51, -0.06596414, -0.19524531, -86413.07, 275722.88, 0.000000065173005, 10.002546, 9.998219 
1.8652195e+3, 2.7304524e+2, -79841.28, -333210.8, 25726.02, 0.05509422, -0.15105262, -77255.56, 186888.25, 0.000009433609, 10.001832, 9.998467 
1.8652545e+3, 2.8304422e+2, -44623.746, -391395.9, -15274.565, 0.13792387, -0.032148544, -43952.24, 122201.8, 0.00011541344, 10.001921, 9.9973545 
1.8652868e+3, 2.930421e+2, 343272.34, -113885.36, -72629.16, 0.08026313, -0.040184274, 354533.63, 422708.66, 0.0004967766, 10.003764, 9.997683 
1.8653211e+3, 3.0303738e+2, 363026.94, -185532.1, 138307.42, -0.0017590446, -0.22583535, 395925.22, 395925.22, 0.0012631787, 10.0040045, 9.99676 
1.8653588e+3, 3.130362e+2, 73703.85, -111738.93, 20242.484, -0.06051617, -0.08414017, 75887.76, 75887.76, 0.0023412819, 10.001026, 9.998687 
1.8747038e+3, 1.2302095e+2, -2052422.1, -1843005.4, -280088.9, -0.07233654, 0.2203008, -1648692.6, 85702.0, 0.14588223, 9.997474, 10.000352 
1.8747403e+3, 1.330165e+2, -1694138.0, -1602074.5, 81660.21, -0.013988304, -0.3088295, -1554365.6, 82072.375, 0.0986057, 9.999242, 10.000458 
1.8747768e+3, 1.4302106e+2, -1543597.8, -1501764.9, -21128.11, 0.18117613, 0.11774026, -1492951.0, 45440.813, 0.053927336, 9.999637, 10.000285 
1.8748093e+3, 1.5302062e+2, -1496324.5, -1388570.6, 14579.238, 0.04720756, -0.021373674, -1386632.9, 53761.023, 0.021407956, 9.999147, 10.000605 
1.8748416e+3, 1.630203e+2, -1497413.3, -1448327.1, -12243.178, -0.058757067, -0.0546369, -1445442.9, -103046.77, 0.0050250688, 9.998933, 9.99962 
1.874876e+3, 1.7302106e+2, -1343863.0, -1306749.9, -7357.5063, 0.023704296, 0.018266946, -1305344.5, -60953.465, 0.00038988978, 9.999273, 9.999736 
1.87491e+3, 1.8302116e+2, -1236382.3, -1249588.3, 3503.0305, 0.052476797, 0.08667533, -1235510.5, -89119.266, 0.000000733184, 9.999509, 9.999362 
1.8749438e+3, 1.9301999e+2, -1099065.6, -1106793.3, 40557.098, -0.018719167, -0.017017454, -1062188.8, -13787.287, 0.0, 9.999699, 9.999561 
1.8749781e+3, 2.0301895e+2, -943421.6, -964720.8, 8511.811, -0.051544458, -0.06818039, -940438.0, 9970.311, 0.0, 9.99998, 9.99975 
1.875013e+3, 2.1301828e+2, -749843.0, -777379.6, -554.149, 0.027901972, -0.17590223, -749831.9, 102575.85, 0.0, 10.000488, 10.000096 
1.8750481e+3, 2.2301742e+2, -683656.1, -808323.94, 7743.2886, 0.089271955, -0.21284981, -683177.0, 71233.57, 0.0, 10.000724, 9.999125 
1.8750837e+3, 2.3301633e+2, -577376.2, -685977.25, 49396.637, 0.13613823, -0.2807499, -558269.8, 98149.82, 0.0, 10.000735, 9.999257 
1.8751185e+3, 2.4301532e+2, -537066.8, -762629.9, 33286.402, 0.105314605, -0.23921601, -532257.3, 26172.426, 0.0, 10.000933, 9.997982 
1.8751515e+3, 2.530142e+2, -301080.25, -587964.6, 45708.9, -0.080384254, -0.18810768, -293973.53, 166471.1, 0.0, 10.001874, 9.998032 
1.8751852e+3, 2.6301253e+2, -138905.08, -445069.13, 4889.1045, -0.1735455, -0.14906672, -138827.02, 223636.36, 0.00000004605578, 10.002213, 9.998207 
1.8752205e+3, 2.7301037e+2, -113331.85, -341660.8, 20619.055, -0.04621347, -0.24900696, -111484.805, 152998.02, 0.000008319171, 10.001561, 9.998547 
1.875256e+3, 2.830091e+2, -114345.69, -456488.97, 19127.137, 0.051299896, -0.151237, -113279.73, 53215.395, 0.00010877433, 10.001576, 9.997078 
1.875291e+3, 2.930081e+2, 237041.84, -219540.89, 31130.12, 0.08697612, -0.009990223, 239154.53, 307663.3, 0.00047285456, 10.003278, 9.997191 
1.8753241e+3, 3.0300313e+2, 339662.1, -91906.18, 33972.94, -0.13347587, -0.22234459, 342320.06, 342320.06, 0.0011966277, 10.003414, 9.99768 
1.8753591e+3, 3.130017e+2, 39428.98, 5964.057, -35954.605, -0.18994322, -0.23826319, 62353.914, 62353.914, 0.0021936097, 10.000272, 9.99984 
1.8847029e+3, 1.2298839e+2, -1761354.3, -1669687.5, -269807.56, 0.028171374, 0.30323336, -1441848.0, 292869.4, 0.15411249, 9.999306, 10.000836 
1.8847403e+3, 1.3298258e+2, -1880926.5, -1758632.9, 81980.55, 0.13335882, -0.31043753, -1717506.8, -80733.26, 0.10442951, 9.998204, 9.999854 
1.8847755e+3, 1.4298773e+2, -1721530.3, -1581887.0, -9792.201, 0.16131568, 0.20219773, -1581203.8, -42482.082, 0.057399224, 9.998437, 10.000272 
1.8848085e+3, 1.5298699e+2, -1521834.5, -1387497.3, -39893.64, 0.105859324, 0.028686851, -1376543.4, 64182.207, 0.023018045, 9.998973, 10.000662 
1.8848416e+3, 1.629864e+2, -1462492.6, -1448167.5, -31220.62, 0.040001336, -0.028992932, -1423298.4, -80568.73, 0.005521801, 9.99924, 9.999471 
1.8848753e+3, 1.7298684e+2, -1280144.3, -1296017.9, -42350.08, 0.019499432, 0.026481709, -1244993.6, -265.88007, 0.0004532519, 9.999792, 9.999559 
1.8849093e+3, 1.829867e+2, -1167416.9, -1201097.5, -5634.5825, 0.0317817, 0.07680049, -1166499.3, -19769.734, 0.0000010252129, 9.999911, 9.999494 
1.8849441e+3, 1.9298537e+2, -1088199.3, -1071726.5, -803.5402, 0.07081731, -0.071246795, -1071687.5, -22948.11, 0.0, 9.99964, 9.999819 
1.8849792e+3, 2.0298444e+2, -1021651.94, -1041838.8, 19108.668, 0.10131276, -0.11386107, -1010134.75, -59389.75, 0.0, 9.999613, 9.9994 
1.8850137e+3, 2.1298423e+2, -790963.56, -855655.8, -10098.01, 0.092488624, -0.120782524, -789424.0, 63319.74, 0.0, 10.000445, 9.999587 
1.8850489e+3, 2.229836e+2, -664520.7, -811925.4, 1901.2614, 0.10865791, -0.10163248, -664496.2, 90251.17, 0.0, 10.00094, 9.998973 
1.8850845e+3, 2.3298204e+2, -549430.06, -684682.44, -40085.973, 0.13766174, -0.20119087, -538442.1, 118318.93, 0.0, 10.000997, 9.99913 
1.8851195e+3, 2.4298082e+2, -507118.6, -721117.56, -33796.08, 0.12124738, -0.18204595, -501908.16, 56864.69, 0.0, 10.001038, 9.998205 
1.8851534e+3, 2.5298002e+2, -396275.13, -608563.9, -36191.7, -0.03437299, -0.12239176, -390274.66, 70508.56, 0.0, 10.001113, 9.998254 
1.8851876e+3, 2.629785e+2, -242411.67, -478974.13, -33407.625, -0.098106176, -0.08904727, -237784.33, 125015.3, 0.000000017635879, 10.001463, 9.998317 
1.885223e+3, 2.729761e+2, 40138.566, -244597.84, -54079.38, -0.004596393, -0.2243408, 50063.777, 314884.6, 0.000007223604, 10.002561, 9.998701 
1.8852583e+3, 2.8297472e+2, 80631.8, -331467.2, 3491.3271, 0.09023859, -0.15674414, 80661.375, 247495.11, 0.00010058898, 10.002801, 9.997342 
1.8852939e+3, 2.929738e+2, -13276.091, -315904.7, 11481.304, 0.15142646, -0.032820135, -12841.132, 56005.297, 0.00044370364, 10.001441, 9.997417 
1.8853259e+3, 3.0296984e+2, 70007.88, -169519.52, 67016.25, -0.14807642, -0.18090911, 87483.11, 87483.11, 0.0011208182, 10.001272, 9.998217 
1.8853624e+3, 3.1296927e+2, 446870.9, 187592.02, -141579.25, -0.014235452, -0.15311232, 509197.78, 509197.78, 0.0020397326, 10.003089, 9.9997635 
1.8947046e+3, 1.2295299e+2, -1696973.5, -1627600.6, -253902.63, 0.16962934, 0.118120305, -1406026.0, 329036.6, 0.16258536, 9.999671, 10.001018 
1.8947382e+3, 1.329507e+2, -1905075.4, -1816583.1, 92698.8, 0.07148433, -0.09822188, -1758112.3, -121026.375, 0.110513955, 9.998221, 9.999465 
1.8947715e+3, 1.4295354e+2, -1729040.0, -1604099.8, -3344.0608, -0.1324159, 0.20910524, -1604010.4, -64952.254, 0.06108175, 9.998475, 10.000096 
1.894808e+3, 1.5295202e+2, -1547212.6, -1440189.8, -6721.708, 0.11361379, -0.0071111806, -1439769.3, 1300.3252, 0.024752133, 9.998977, 10.00029 
1.8948424e+3, 1.6295117e+2, -1441654.6, -1441904.3, -32631.463, 0.13700494, -0.06738532, -1409147.8, -66072.1, 0.0060684755, 9.999391, 9.999443 
1.8948747e+3, 1.729513e+2, -1274034.8, -1289402.1, -11621.958, -0.04039364, -0.047443204, -1267786.1, -22710.637, 0.0005270964, 9.999812, 9.999598 
1.8949085e+3, 1.8295106e+2, -1145771.8, -1163060.0, -29211.201, -0.08155309, -0.020256149, -1123952.5, 23124.766, 0.0000013718216, 9.999951, 9.999728 
1.8949448e+3, 1.929503e+2, -1086113.9, -1041506.44, -3027.2974, 0.13543682, -0.13833924, -1041301.94, 7778.9307, 0.0, 9.9995365, 10.000072 
1.8949804e+3, 2.0294993e+2, -1067018.9, -1101183.1, 26410.246, 0.22533368, -0.12735304, -1052647.9, -101565.85, 0.0, 9.99945, 9.99908 
1.8950143e+3, 2.1295038e+2, -852194.06, -934195.5, 38960.105, 0.069384575, -0.028762948, -836635.56, 16442.943, 0.0, 10.000229, 9.999158 
1.8950488e+3, 2.2294998e+2, -760109.0, -933483.9, -8571.926, -0.017635347, 0.06811521, -759686.2, -4602.608, 0.0, 10.000609, 9.998297 
1.8950847e+3, 2.3294796e+2, -640070.75, -811201.4, -17832.682, 0.049810648, -0.0065163476, -638232.25, 18873.164, 0.0, 10.000732, 9.998386 
1.8951203e+3, 2.4294625e+2, -538043.0, -716661.5, -47313.555, 0.074511334, 0.00086893264, -526284.4, 32838.883, 0.0, 10.000727, 9.998394 
1.8951552e+3, 2.5294513e+2, -401857.22, -560185.1, -15794.832, 0.019428395, -0.018907482, -400296.9, 60836.145, 0.0, 10.000852, 9.9987135 
1.8951902e+3, 2.6294366e+2, -275222.0, -474871.5, -16250.788, -0.010570195, -0.008546108, -273907.9, 89238.125, 0.0000000071100716, 10.001148, 9.998496 
1.8952258e+3, 2.72942e+2, -2853.1233, -246435.84, 8588.152, 0.0149465045, -0.08904055, -2550.7007, 262610.13, 0.0000064443307, 10.0021925, 9.998862 
1.895261e+3, 2.8294075e+2, 69513.39, -258663.33, -54497.297, 0.043559223, -0.05371662, 78326.58, 245499.13, 0.0000894982, 10.002377, 9.998049 
1.895295e+3, 2.9293895e+2, -17023.883, -242044.34, -10413.826, 0.08378753, -0.10129852, -16542.965, 52647.363, 0.00040238924, 10.001081, 9.998103 
1.895326e+3, 3.0293727e+2, 15308.63, -178159.45, 96797.67, -0.31317917, -0.07075512, 55422.18, 55422.18, 0.0010279405, 10.000855, 9.998338 
1.8953674e+3, 3.129388e+2, 193081.63, -98065.71, 49429.28, 0.10917782, 0.16794032, 201244.56, 201244.56, 0.0018811959, 10.002133, 9.998222 
1.9047025e+3, 1.2291677e+2, -1989313.5, -1645308.8, -149745.16, 0.13555603, -0.08835225, -1589257.5, 146157.84, 0.1713416, 9.997061, 10.002035 
1.9047377e+3, 1.3291794e+2, -1868356.4, -1832078.5, 70652.66, 0.20498377, 0.036605168, -1777273.5, -139868.73, 0.11689223, 9.99869, 9.999091 
1.9047698e+3, 1.4291796e+2, -1682897.8, -1637264.1, -5455.828, -0.15411966, 0.11488665, -1636620.9, -97215.05, 0.06499328, 9.99898, 9.999657 
1.904807e+3, 1.5291686e+2, -1509412.0, -1437087.3, -29355.58, 0.112421945, -0.042544536, -1426672.0, 14741.974, 0.026617203, 9.999243, 10.000219 
1.9048421e+3, 1.6291665e+2, -1480124.1, -1460295.8, -7322.914, 0.19408888, -0.03555473, -1457884.5, -114469.83, 0.0066676727, 9.99914, 9.999442 
1.904875e+3, 1.7291628e+2, -1364715.8, -1324995.0, -19611.166, 0.04154297, -0.06750686, -1316944.1, -71525.42, 0.0006122247, 9.999175, 9.999651 
1.9049089e+3, 1.8291579e+2, -1236925.0, -1209737.3, -16948.326, 0.010516753, -0.06776611, -1201604.6, -54181.734, 0.0000017786746, 9.9993515, 9.999704 
1.904945e+3, 1.9291565e+2, -959408.3, -987398.4, -46834.438, 0.15972823, -0.109505884, -924522.6, 124898.42, 0.0, 10.000443, 10.00002 
1.9049804e+3, 2.0291555e+2, -845908.25, -989059.0, 4538.021, 0.22787283, -0.067380354, -845764.56, 105655.67, 0.0, 10.000987, 9.99908 
1.9050148e+3, 2.1291527e+2, -776054.8, -895697.2, 9016.372, 0.09027829, -0.041553687, -775379.1, 78044.125, 0.0, 10.000779, 9.999134 
1.9050497e+3, 2.2291453e+2, -750185.44, -948442.0, 26464.871, 0.016544031, 0.02773417, -746713.5, 8718.431, 0.0, 10.000733, 9.998149 
1.9050857e+3, 2.3291299e+2, -583810.56, -809964.75, 28594.709, 0.057929445, 0.019261293, -580251.06, 77199.31, 0.0, 10.001194, 9.998189 
1.9051217e+3, 2.4291155e+2, -412155.94, -632943.75, 55515.22, 0.0906373, 0.055096686, -398983.06, 160483.02, 0.0, 10.001519, 9.998572 
1.9051567e+3, 2.5290993e+2, -239581.89, -447519.8, 37466.55, 0.06407525, -0.037099563, -233037.11, 228441.53, 0.0, 10.001836, 9.999002 
1.9051921e+3, 2.6290846e+2, -189329.25, -430162.84, 55370.09, 0.05839301, -0.04999119, -177209.06, 186282.08, 0.000000016068412, 10.001699, 9.998546 
1.9052278e+3, 2.729076e+2, -219452.23, -365945.44, 23215.85, 0.07675596, -0.043405, -215861.1, 49639.008, 0.000006020835, 10.000708, 9.998782 
1.9052632e+3, 2.8290653e+2, -142571.31, -310581.25, 2643.3992, 0.123459235, -0.003311478, -142529.73, 24980.813, 0.00007835106, 10.000686, 9.998516 
1.9052976e+3, 2.929043e+2, 306971.0, -11639.919, -17510.479, 0.16449834, -0.14995025, 307930.47, 377460.2, 0.00035568743, 10.002997, 9.998756 
1.9053288e+3, 3.0290377e+2, 479362.44, 36445.16, 100072.14, -0.26451904, -0.046022423, 500923.06, 500923.06, 0.0009266064, 10.004097, 9.998259 
1.9053708e+3, 3.1290367e+2, 163114.02, -218703.52, -34346.82, 0.2555538, 0.07672244, 166179.13, 166179.13, 0.0017278214, 10.002304, 9.9973545 
1.9146961e+3, 1.228807e+2, -1912471.0, -1510954.0, -46513.184, -0.29788163, -0.24256502, -1505636.1, 230130.11, 0.18042894, 9.997058, 10.003108 
1.9147393e+3, 1.3288355e+2, -1906553.9, -1915034.1, 109743.15, 0.46196157, 0.033860635, -1800969.0, -163231.52, 0.12358676, 9.998714, 9.998507 
1.9147697e+3, 1.4288057e+2, -1688966.8, -1703014.8, -21081.99, -0.115747, -0.08998547, -1673769.4, -134001.42, 0.069141634, 9.999201, 9.999103 
1.9148047e+3, 1.5288155e+2, -1478917.9, -1383073.3, -11196.018, -0.067712925, -0.06941264, -1381782.9, 59976.3, 0.028615344, 9.999275, 10.000583 
1.9148399e+3, 1.6288303e+2, -1459293.5, -1445755.6, -26205.63, 0.020592567, 0.079625264, -1425458.9, -81713.734, 0.0073205116, 9.99926, 9.999481 
1.9148752e+3, 1.7288193e+2, -1374242.3, -1337994.5, -8558.13, 0.12055964, -0.018622, -1336075.5, -90319.61, 0.00070924795, 9.999148, 9.999571 
1.9149101e+3, 1.8288098e+2, -1258850.6, -1263051.1, -6077.237, 0.13627702, -0.042466212, -1254521.0, -106755.97, 0.0000023137907, 9.999375, 9.999333 
1.914944e+3, 1.9288152e+2, -1002299.2, -1052401.3, 7368.452, 0.011659593, 0.02341644, -1001238.0, 48521.246, 0.0, 10.000336, 9.999629 
1.9149788e+3, 2.0288123e+2, -859378.1, -981588.56, -11830.344, -0.06543684, 0.06404441, -858243.44, 93517.01, 0.0, 10.000825, 9.999211 
1.915015e+3, 2.1287882e+2, -785832.2, -867266.9, 12056.259, 0.008639884, -0.15137824, -784084.75, 69694.36, 0.0, 10.000561, 9.999435 
1.915051e+3, 2.2287714e+2, -770419.6, -912306.1, 24208.264, 0.046399523, -0.21238102, -766403.0, -10609.803, 0.0, 10.000395, 9.998563 
1.9150868e+3, 2.3287725e+2, -596543.56, -765141.75, 61985.586, 0.029415937, -0.09914528, -576207.3, 81587.7, 0.0, 10.0009, 9.998635 
1.9151224e+3, 2.4287662e+2, -454896.6, -642655.06, 51756.34, -0.0033196327, -0.008606541, -441574.94, 118227.36, 0.0, 10.001174, 9.998674 
1.9151576e+3, 2.528744e+2, -277870.28, -457514.6, 67327.55, -0.055320244, -0.16888711, -255438.17, 206382.83, 0.0, 10.001539, 9.999075 
1.9151929e+3, 2.62873e+2, -252339.25, -481194.5, 6804.188, -0.07238002, -0.17610353, -252137.14, 111697.14, 0.000000038925435, 10.0013485, 9.998371 
1.915228e+3, 2.72873e+2, -276643.44, -420990.47, 2711.1377, 0.017458672, -0.05937385, -276592.53, -10754.577, 0.0000054500297, 10.0004425, 9.99853 
1.9152641e+3, 2.8287217e+2, -178613.95, -314509.03, 43331.156, 0.12105213, 0.015626222, -165973.3, 1874.5044, 0.00006657065, 10.000381, 9.998637 
1.9153011e+3, 2.9286975e+2, 249364.05, -14550.767, 97719.1, 0.19397768, -0.1743071, 281607.06, 351473.56, 0.00030471265, 10.002505, 9.998973 
1.9153334e+3, 3.028695e+2, 363504.72, -72760.49, 33300.766, -0.24320075, -0.032698702, 366031.97, 366031.97, 0.00081498816, 10.003534, 9.997768 
1.9153696e+3, 3.1286624e+2, 23445.666, -292818.38, 2824.0203, -0.13659534, -0.19244665, 23470.879, 23470.879, 0.0015623597, 10.001446, 9.997223 
1.9246943e+3, 1.22847565e+2, -1751574.6, -1384586.5, 62632.46, -0.19508432, -0.025377301, -1374191.6, 361897.72, 0.18987963, 9.9978, 10.00386 
1.9247384e+3, 1.3284828e+2, -1890671.4, -1918276.0, 56590.03, 0.5142476, 0.0079101585, -1846224.8, -208145.2, 0.13060497, 9.998837, 9.998441 
1.9247697e+3, 1.4284447e+2, -1828886.3, -1807241.4, 7651.9565, 0.017778087, -0.16738564, -1804809.4, -264691.0, 0.07352615, 9.998439, 9.998732 
1.9248039e+3, 1.5284611e+2, -1526637.1, -1408629.3, -47026.535, -0.048267044, -0.072479695, -1392181.4, 49923.863, 0.030745408, 9.998999, 10.000518 
1.9248389e+3, 1.6284768e+2, -1432105.4, -1405334.1, -53832.895, 0.003191992, 0.082611255, -1363247.6, -19156.258, 0.008026891, 9.999335, 9.999715 
1.9248748e+3, 1.7284696e+2, -1265933.8, -1247383.4, -39748.605, 0.14895801, -0.015820516, -1215842.1, 30254.64, 0.0008187495, 9.9997225, 9.99992 
1.9249101e+3, 1.8284623e+2, -1206563.0, -1271551.3, 40159.45, 0.20547739, -0.027421668, -1187398.1, -39295.26, 0.0000031359323, 9.999848, 9.999051 
1.9249442e+3, 1.9284633e+2, -1055644.8, -1122859.8, 29064.613, 0.016086744, 0.028328931, -1044820.1, 5283.162, 0.0, 10.00013, 9.99924 
1.924979e+3, 2.0284568e+2, -958840.94, -1039628.2, 8693.299, -0.07644442, 0.056192964, -957916.06, -5807.1475, 0.0, 10.000178, 9.999128 
1.9250154e+3, 2.1284316e+2, -841434.0, -894214.7, -24632.703, 0.031575356, -0.16729598, -831724.2, 22403.781, 0.0, 10.00018, 9.999436 
1.9250518e+3, 2.2284152e+2, -755028.75, -860718.3, 27541.64, 0.10716262, -0.24007212, -748282.4, 7858.404, 0.0, 10.000337, 9.998936 
1.9250879e+3, 2.3284169e+2, -540369.4, -684172.4, 36181.766, 0.062750146, -0.16298565, -531779.0, 126361.16, 0.0, 10.001065, 9.999108 
1.9251238e+3, 2.4284123e+2, -429525.22, -636985.2, 32216.771, 0.0286117, -0.08501474, -424637.38, 135508.0, 0.0, 10.001352, 9.9986315 
1.925159e+3, 2.5283948e+2, -397276.1, -546960.2, -9696.329, -0.024487305, -0.1765877, -396650.6, 65511.32, 0.0, 10.00082, 9.998824 
1.9251943e+3, 2.6283824e+2, -339182.5, -522818.28, -33001.313, -0.030430334, -0.14724644, -333431.9, 30742.707, 0.000000047147957, 10.000769, 9.998359 
1.9252293e+3, 2.7283782e+2, -54259.227, -310622.3, -58202.55, 0.031092327, -0.07763958, -41664.195, 224518.13, 0.0000044268, 10.001963, 9.998557 
1.9252655e+3, 2.828368e+2, 113196.66, -180314.02, 37414.824, 0.12935458, -0.01894624, 117890.98, 286084.7, 0.000054025306, 10.002436, 9.998555 
1.9253032e+3, 2.928349e+2, 110808.664, -105880.57, 21263.463, 0.22215454, -0.137529, 112875.51, 183083.95, 0.00025237876, 10.001638, 9.998764 
1.9253367e+3, 3.0283356e+2, 90501.61, -188294.2, -2140.3054, -0.11964992, -0.09645414, 90518.04, 90518.04, 0.00069601834, 10.001571, 9.997927 
1.9253722e+3, 3.1283164e+2, 329901.03, -51359.996, -50238.973, -0.08121732, -0.1395252, 336409.94, 336409.94, 0.0013738653, 10.003049, 9.998154 
1.9346939e+3, 1.22812025e+2, -1704689.5, -1339346.8, 65728.83, -0.09991701, 0.033339366, -1327881.3, 408555.66, 0.1997211, 9.997987, 10.004201 
1.934733e+3, 1.3281226e+2, -1856313.6, -1837267.6, 53501.02, 0.044247583, -0.03436127, -1792448.6, -154018.16, 0.13795441, 9.998803, 9.999009 
1.9347692e+3, 1.4281006e+2, -1817125.5, -1827442.5, -420.81873, 0.054543406, -0.08421565, -1817108.4, -276655.16, 0.07814733, 9.998614, 9.998515 
1.9348042e+3, 1.5281062e+2, -1561468.1, -1499784.5, -15143.617, 0.04737431, -0.040009316, -1496267.1, -53814.957, 0.033007, 9.999064, 9.999861 
1.9348383e+3, 1.6281047e+2, -1378445.6, -1322583.8, -57882.57, -0.04948648, -0.033001106, -1286245.5, 58209.652, 0.008786739, 9.99945, 10.000236 
1.9348732e+3, 1.7281117e+2, -1201458.1, -1120743.4, -14893.646, -0.015075982, -0.06858804, -1118082.9, 128360.03, 0.00094156526, 9.999745, 10.000786 
1.9349086e+3, 1.8281148e+2, -1201686.9, -1273721.3, 32447.123, 0.024885608, -0.03348169, -1189226.8, -40789.773, 0.0000044945964, 9.999898, 9.999013 
1.9349448e+3, 1.9281022e+2, -1097368.8, -1187443.0, 52572.797, 0.031166183, -0.07999811, -1073179.9, -22728.432, 0.0, 10.000026, 9.998855 
1.9349805e+3, 2.0280902e+2, -1003706.3, -1093966.6, -7210.7114, 0.016883837, -0.07085489, -1003133.9, -50669.54, 0.0, 10.000008, 9.99884 
1.9350156e+3, 2.1280831e+2, -899334.75, -955739.25, -10809.845, 0.020261567, -0.08659926, -897334.06, -42864.52, 0.0, 9.999929, 9.999135 
1.9350515e+3, 2.2280744e+2, -791281.5, -848713.75, 33079.207, 0.01672987, -0.07212407, -776192.94, -19716.69, 0.0, 9.999966, 9.999195 
1.9350886e+3, 2.3280624e+2, -550221.75, -639195.44, 80461.9, 0.007266409, -0.17568763, -502767.3, 155719.2, 0.0, 10.000787, 9.999549 
1.9351251e+3, 2.4280533e+2, -496551.22, -697763.2, 2728.434, -0.004869604, -0.15742104, -496514.25, 63981.168, 0.0, 10.001011, 9.998384 
1.9351603e+3, 2.5280502e+2, -465665.88, -629210.44, -16116.406, 0.010664074, -0.062439974, -464092.84, -1590.7048, 0.0, 10.0005665, 9.9983835 
1.9351956e+3, 2.6280412e+2, -391890.66, -545428.25, -21707.76, 0.007840604, 0.023464931, -388880.53, -24366.684, 0.00000001782158, 10.000408, 9.998372 
1.9352306e+3, 2.72802e+2, -97887.25, -305802.1, 4882.458, -0.03601302, -0.09297038, -97772.66, 168761.17, 0.0000033385966, 10.001582, 9.998758 
1.9352664e+3, 2.828006e+2, 28121.389, -271505.97, -8268.669, -0.04559151, -0.06368468, 28349.402, 196896.14, 0.00004416703, 10.002054, 9.99812 
1.9353035e+3, 2.9279983e+2, 26277.578, -197765.47, 9839.326, 0.04649317, -0.02095343, 26708.863, 97263.625, 0.00021030588, 10.001289, 9.998297 
1.9353387e+3, 3.0279633e+2, 59449.992, -151908.97, 8052.6577, -0.12879817, -0.1859268, 59756.348, 59756.348, 0.00059174973, 10.001141, 9.9983835 
1.9353755e+3, 3.127976e+2, 310188.03, 145984.1, 83940.016, -0.100572355, 0.0067168614, 345502.66, 345502.66, 0.0011892852, 10.002099, 9.999934 
1.9446912e+3, 1.2277348e+2, -1910960.5, -1443676.3, 51261.406, -0.07731766, -0.1017888, -1438118.9, 298695.16, 0.20999403, 9.996611, 10.004013 
1.9447294e+3, 1.3277434e+2, -2028351.9, -1867911.8, -42629.52, -0.0916946, -0.13210097, -1857288.3, -218486.97, 0.14565058, 9.997368, 9.999512 
1.9447681e+3, 1.4277437e+2, -1763572.4, -1771827.4, -49650.035, 0.096526094, -0.012781969, -1717878.6, -177076.92, 0.083007626, 9.998821, 9.998821 
1.9448036e+3, 1.5277435e+2, -1607932.9, -1529970.4, -74132.47, 0.11735639, -0.024173805, -1485195.0, -42389.207, 0.03539992, 9.998763, 9.999811 
1.9448376e+3, 1.627733e+2, -1537198.6, -1414626.3, -62743.74, 0.005131048, -0.099644825, -1388204.0, -43386.484, 0.009600047, 9.998426, 10.000101 
1.9448724e+3, 1.72774e+2, -1310254.4, -1190437.0, -122693.09, -0.016171949, -0.11891832, -1113807.6, 132998.58, 0.0010784023, 9.999075, 10.00063 
1.9449082e+3, 1.8277447e+2, -1249431.8, -1278157.3, -100049.09, 0.026680408, -0.062123377, -1162719.8, -13920.82, 0.0000066792873, 9.999516, 9.999163 
1.9449449e+3, 1.9277327e+2, -1092858.6, -1155379.9, -73513.02, 0.04476854, -0.12406662, -1044235.6, 6576.849, 0.0, 9.9999695, 9.999089 
1.9449808e+3, 2.0277229e+2, -968477.25, -1064159.8, -71278.805, 0.059837032, -0.10778921, -930473.0, 22349.959, 0.0, 10.000206, 9.998952 
1.9450162e+3, 2.1277212e+2, -825979.5, -908987.8, -80494.32, 0.080614455, -0.07447734, -776919.1, 77904.72, 0.0, 10.000392, 9.999233 
1.9450523e+3, 2.2277153e+2, -729188.1, -827915.9, 10911.472, 0.09473756, -0.033925, -727996.56, 28832.086, 0.0, 10.000409, 9.999126 
1.9450894e+3, 2.3277004e+2, -636154.94, -699039.25, -6783.1943, 0.04589295, -0.15252112, -635431.56, 23411.043, 0.0, 10.000249, 9.999411 
1.9451259e+3, 2.427691e+2, -587017.06, -727734.2, -65516.656, 0.031613186, -0.13312984, -561236.3, -383.8309, 0.0, 10.000352, 9.998496 
1.9451617e+3, 2.5276917e+2, -339517.6, -553898.0, -81792.04, 0.06399552, -0.0115177585, -311875.75, 150979.84, 0.0, 10.00138, 9.998507 
1.9451973e+3, 2.627681e+2, -166052.27, -444464.7, -31442.51, 0.07958718, 0.05535772, -162545.48, 202322.8, 0.000000002142629, 10.001967, 9.998323 
1.9452325e+3, 2.7276513e+2, -115312.61, -334368.22, -58827.11, 0.0012647486, -0.13149999, -100514.35, 166380.55, 0.0000030022966, 10.001507, 9.998622 
1.9452682e+3, 2.8276348e+2, -90863.61, -354572.94, -46404.62, -0.02526616, -0.10903934, -82936.16, 85974.06, 0.00003904193, 10.001337, 9.997901 
1.9453049e+3, 2.9276365e+2, 133661.14, -170569.78, -60922.016, 0.03442074, 0.054243788, 145407.22, 216319.38, 0.00018459432, 10.002107, 9.998103 
1.9453412e+3, 3.0275935e+2, 246101.63, -77514.97, -11056.172, -0.04587919, -0.1711257, 246478.9, 246478.9, 0.0005147773, 10.002515, 9.99821 
1.9453785e+3, 3.127611e+2, 325077.13, 157882.58, -99799.15, 0.010006522, 0.10436974, 371665.78, 371665.78, 0.0010277403, 10.002126, 10.000016 
1.9546889e+3, 1.2273559e+2, -1891725.3, -1491773.4, -668.03204, -0.07452386, -0.06286794, -1491772.3, 245412.5, 0.22070916, 9.996949, 10.003489 
1.9547282e+3, 1.3273454e+2, -1975547.6, -1791448.8, 39150.348, 0.030546905, -0.28447345, -1783468.9, -144276.73, 0.15369554, 9.997486, 9.9999895 
1.9547659e+3, 1.427373e+2, -1675149.0, -1632672.5, -43386.305, -0.07036186, 0.034041356, -1605605.1, -64440.24, 0.08810495, 9.999016, 9.99968 
1.9548015e+3, 1.5273723e+2, -1564836.8, -1451750.9, -69994.664, -0.0027664804, -0.04034741, -1418314.0, 24852.766, 0.037922986, 9.998803, 10.000338 
1.9548362e+3, 1.6273619e+2, -1573574.5, -1524924.4, -70176.43, -0.033079576, -0.11880303, -1474976.6, -129798.55, 0.010466628, 9.998569, 9.99928 
1.9548722e+3, 1.7273544e+2, -1395427.4, -1380977.0, -86325.766, 0.018021239, -0.15795043, -1301574.6, -54388.277, 0.0012294218, 9.999118, 9.999308 
1.9549082e+3, 1.8273515e+2, -1220186.1, -1229207.8, -98153.45, 0.03599577, -0.10917164, -1126439.9, 22750.068, 0.000009908067, 9.999571, 9.999468 
1.9549437e+3, 1.9273534e+2, -1055361.5, -1053845.1, -46373.23, -0.08472385, -0.09717877, -1008223.9, 42963.44, 0.0, 9.999869, 9.999834 
1.9549794e+3, 2.0273522e+2, -964069.9, -1009021.94, -81957.78, -0.1291412, -0.061091647, -901562.1, 51625.28, 0.0, 10.000006, 9.999426 
1.9550166e+3, 2.1273446e+2, -832727.4, -862298.44, -60143.164, 0.06292905, -0.13068777, -785579.0, 69613.26, 0.0, 10.000138, 9.99967 
1.9550537e+3, 2.2273372e+2, -802738.5, -907243.25, -7678.145, 0.15756929, -0.121289484, -802177.4, -44978.535, 0.0, 10.000083, 9.998743 
1.9550896e+3, 2.3273307e+2, -719802.2, -807538.25, 1911.839, 0.0343213, -0.09528719, -719760.56, -60551.918, 0.0, 9.999979, 9.998791 
1.9551258e+3, 2.4273252e+2, -620603.0, -712584.3, -49781.99, -0.057411835, -0.009271027, -598819.1, -37602.66, 0.0, 9.999987, 9.998774 
1.9551624e+3, 2.5273186e+2, -341971.16, -487962.84, -23103.688, -0.013130113, -0.01818574, -338402.2, 124820.35, 0.0, 10.001081, 9.999095 
1.9551988e+3, 2.6273045e+2, -230863.56, -495002.75, -55408.266, 0.004075436, -0.019200703, -219711.45, 145524.4, 0.00000003752054, 10.001598, 9.998158 
1.955234e+3, 2.7272746e+2, -179279.7, -407306.0, -58627.457, -0.019426188, -0.17830743, -165089.2, 102174.69, 0.0000033251551, 10.001253, 9.998241 
1.9552697e+3, 2.8272575e+2, -162423.73, -413171.28, -47893.113, -0.030552138, -0.12840137, -153587.48, 15693.617, 0.000036409245, 10.0009575, 9.997678 
1.9553068e+3, 2.9272667e+2, 69773.82, -195510.34, -1159.5986, -0.0035865146, 0.12047285, 69778.89, 141056.1, 0.00016708692, 10.001663, 9.998136 
1.9553433e+3, 3.027229e+2, 104813.12, -254769.69, -44312.813, -0.11428935, -0.018995743, 110193.45, 110193.45, 0.00045041234, 10.001993, 9.997258 
1.9553815e+3, 3.1272218e+2, 145063.81, -55302.938, -78548.875, 0.034425322, 0.115626864, 172185.72, 172185.72, 0.00087258307, 10.001485, 9.9988365 
1.964688e+3, 1.2269737e+2, -1842770.3, -1651339.3, -100.62516, 0.09455017, 0.008941506, -1651339.3, 86218.07, 0.23177752, 9.998361, 10.001355 
1.9647256e+3, 1.32696e+2, -1741388.4, -1580202.6, 46217.957, -0.03088738, -0.28332332, -1567890.6, 71679.98, 0.1620495, 9.998721, 10.000879 
1.9647655e+3, 1.426991e+2, -1703246.4, -1584157.0, -28029.03, 0.032165334, -0.0112684015, -1577889.9, -36349.652, 0.093428105, 9.998584, 10.000192 
1.9648005e+3, 1.5269999e+2, -1546945.4, -1403296.8, -123076.47, 0.03937756, -0.027408723, -1332620.0, 110911.84, 0.04057487, 9.998774, 10.000672 
1.9648354e+3, 1.6269942e+2, -1544887.6, -1521305.4, -64769.516, 0.030865908, -0.08140023, -1467262.5, -121724.07, 0.011385711, 9.998819, 9.999176 
1.9648716e+3, 1.726982e+2, -1406044.6, -1408579.1, -27478.29, 0.06055437, -0.14613137, -1379804.4, -132252.28, 0.0013940044, 9.999162, 9.999086 
1.9649078e+3, 1.8269779e+2, -1237530.6, -1205697.6, 35142.984, 0.07210285, -0.10871714, -1183034.9, -33477.88, 0.000014255441, 9.999306, 9.999761 
1.9649439e+3, 1.9269857e+2, -1074163.5, -1015007.6, 35512.535, -0.029, -0.08382535, -998368.75, 53178.676, 0.0, 9.999526, 10.000269 
1.9649799e+3, 2.0269865e+2, -989949.8, -1025149.7, 5870.7534, -0.06067419, -0.052633267, -988996.5, -35451.918, 0.0, 9.999827, 9.9994 
1.9650167e+3, 2.1269722e+2, -794261.3, -868991.06, -45107.35, 0.05490845, -0.17368203, -773053.1, 82503.664, 0.0, 10.000471, 9.999474 
1.9650537e+3, 2.2269624e+2, -705571.0, -878496.1, 2023.3768, 0.14233844, -0.16991177, -705547.3, 52019.44, 0.0, 10.00084, 9.998576 
1.9650905e+3, 2.3269625e+2, -588537.2, -768710.75, -2661.2563, 0.08931668, -0.05744675, -588497.94, 71073.766, 0.0, 10.000977, 9.99858 
1.9651271e+3, 2.4269578e+2, -476526.25, -628171.75, -3523.8677, 0.052756593, 0.044498704, -476444.4, 85134.41, 0.0, 10.000872, 9.99895 
1.9651632e+3, 2.5269446e+2, -460483.16, -517793.56, -29861.416, 0.021646546, -0.05420007, -447752.1, 15836.696, 0.0, 10.000127, 9.9993725 
1.9651996e+3, 2.6269284e+2, -438318.63, -586979.6, -12924.786, 0.013742295, -0.08901676, -437203.3, -71601.11, 0.00000006167767, 10.000161, 9.998211 
1.965236e+3, 2.726905e+2, -51983.39, -353022.7, -36265.305, 0.03181505, -0.17754583, -47676.242, 219948.8, 0.000003603985, 10.002174, 9.9981575 
1.9652726e+3, 2.826888e+2, 147030.89, -270582.38, -5942.737, 0.063781515, -0.121500894, 147115.45, 316758.7, 0.00003430298, 10.003114, 9.99762 
1.965309e+3, 2.9268914e+2, 56820.47, -219922.84, -18624.08, 0.06270258, 0.09197133, 58068.195, 129713.47, 0.00015136057, 10.001649, 9.997988 
1.9653451e+3, 3.0268642e+2, -6781.302, -328031.16, 31216.021, -0.069900446, 0.0715623, -3776.1362, -3776.1362, 0.00039140973, 10.00129, 9.997114 
1.9653834e+3, 3.1268322e+2, 378509.8, 51115.504, -80210.52, 0.03178294, -0.006901831, 397104.97, 397104.97, 0.00072701665, 10.003068, 9.998843 
1.9746871e+3, 1.22658e+2, -2066784.4, -2195800.0, 8822.894, 0.060519457, 0.0077833, -2066183.8, -328244.13, 0.24301729, 9.998795, 9.997241 
1.9747204e+3, 1.3265881e+2, -1626400.1, -1421025.4, 48671.83, -0.4574073, -0.12113063, -1410074.5, 229861.33, 0.17062773, 9.998912, 10.002112 
1.9747664e+3, 1.426596e+2, -1657441.9, -1530114.3, -45359.605, 0.19533154, -0.17003804, -1515607.9, 26321.305, 0.09895461, 9.998741, 10.000512 
1.9748004e+3, 1.5266268e+2, -1531697.9, -1383820.0, -105302.8, 0.10847798, 0.020248104, -1329090.3, 114810.81, 0.04335473, 9.998821, 10.000792 
1.9748347e+3, 1.6266301e+2, -1469950.8, -1399052.6, -73092.86, 0.026721071, 0.022521077, -1353266.3, -7367.71, 0.012356995, 9.99897, 9.999942 
1.9748703e+3, 1.7266227e+2, -1338514.8, -1271494.5, -3426.9517, -0.027715852, -0.08046086, -1271319.8, -23416.396, 0.0015709848, 9.99918, 10.000018 
1.9749065e+3, 1.8266231e+2, -1207712.3, -1158833.3, 25481.336, -0.045086645, -0.06525743, -1147965.6, 1935.1268, 0.000019593592, 9.999359, 10.000065 
1.9749445e+3, 1.9266278e+2, -1075083.1, -997552.2, 56963.324, 0.059278484, -0.086121574, -967414.94, 84478.79, 0.0, 9.99944, 10.000433 
1.9749816e+3, 2.0266244e+2, -1058250.1, -1119158.8, 14293.533, 0.08319855, -0.08794016, -1055062.6, -101166.64, 0.0, 9.999623, 9.998852 
1.9750161e+3, 2.1266055e+2, -884672.94, -997492.44, -6577.3853, -0.075881496, -0.18388243, -884290.8, -28374.873, 0.0, 10.0002165, 9.998714 
1.975052e+3, 2.2265935e+2, -768460.25, -926981.7, -6672.846, -0.14046492, -0.14997768, -768179.8, -10249.89, 0.0, 10.00048, 9.998419 
1.9750914e+3, 2.3265952e+2, -619053.2, -778048.1, 22060.398, 0.07603156, -0.028248388, -616049.06, 43882.918, 0.0, 10.000736, 9.998632 
1.9751295e+3, 2.4265896e+2, -526211.5, -657646.2, -42628.766, 0.18188797, 0.059523825, -513596.38, 48342.406, 0.0, 10.000547, 9.998906 
1.9751635e+3, 2.5265697e+2, -489713.53, -534307.56, -44013.37, 0.019321175, -0.10391449, -462671.6, 1282.4982, 0.0, 9.99993, 9.999353 
1.975199e+3, 2.6265523e+2, -483491.6, -606237.7, 21047.527, -0.09118638, -0.14852963, -479982.84, -114014.96, 0.000000055759365, 9.999839, 9.998231 
1.9752382e+3, 2.7265415e+2, -91996.64, -357371.13, 62242.43, 0.00037446924, -0.12656237, -78123.23, 189856.03, 0.0000036492006, 10.00184, 9.998281 
1.975276e+3, 2.8265265e+2, 77756.914, -323707.6, -56720.77, 0.06323837, -0.056640252, 85616.805, 255612.92, 0.00003270768, 10.00271, 9.9974575 
1.9753107e+3, 2.92651e+2, 4359.767, -275400.78, -46561.133, 0.03770494, -0.029206846, 11905.508, 83923.195, 0.00013942833, 10.001411, 9.997724 
1.9753458e+3, 3.026498e+2, -88180.64, -369608.97, 50126.76, -0.18045643, 0.13088462, -79518.875, -79518.875, 0.00034788318, 10.000779, 9.997059 
1.9753863e+3, 3.1264454e+2, 324787.9, 176959.11, 31277.982, -0.060687937, -0.20112127, 331133.4, 331133.4, 0.0006200004, 10.002109, 10.000138 
1.9846873e+3, 1.2261707e+2, -2046085.5, -2293454.5, 136003.98, 0.18416636, -0.2967099, -1985936.0, -247596.44, 0.25424254, 9.999381, 9.996317 
1.9847207e+3, 1.3262223e+2, -1594340.9, -1360403.6, 86164.055, -0.29586184, -0.016115978, -1332093.6, 308201.1, 0.17932345, 9.998907, 10.002663 
1.9847639e+3, 1.42622e+2, -1864102.0, -1637577.9, 20259.082, 0.17483687, -0.20325571, -1635780.3, -93481.73, 0.104643695, 9.997375, 10.000424 
1.9847994e+3, 1.5262514e+2, -1547495.3, -1424287.5, -76020.18, 0.13144615, 0.024821647, -1388044.1, 56226.145, 0.046255346, 9.998857, 10.000498 
1.9848344e+3, 1.6262573e+2, -1335792.8, -1300624.9, -72125.25, 0.09075163, 0.06030165, -1243971.0, 102293.695, 0.013380272, 9.999752, 10.000241 
1.9848695e+3, 1.726252e+2, -1291789.0, -1194755.8, -73204.45, 0.0013334231, -0.072610945, -1155450.0, 92815.586, 0.0017591557, 9.999269, 10.000503 
1.9849057e+3, 1.826253e+2, -1279000.6, -1203535.8, -27827.14, -0.010486271, -0.07655791, -1194384.4, -44123.16, 0.0000256483, 9.998909, 9.99997 
1.9849445e+3, 1.9262557e+2, -1068204.5, -1026477.8, -54548.023, 0.12535445, -0.095850304, -988939.4, 63318.676, 0.0, 9.9996, 10.000161 
1.984982e+3, 2.0262516e+2, -1005731.25, -1113669.0, -75799.94, 0.17175563, -0.07891762, -966650.3, -12387.688, 0.0, 10.000068, 9.998682 
1.9850165e+3, 2.1262376e+2, -866007.1, -1003583.0, -87587.72, -0.05634515, -0.1067148, -823424.56, 32854.84, 0.0, 10.0004225, 9.99857 
1.9850522e+3, 2.2262268e+2, -735875.75, -883963.0, -33669.83, -0.14878839, -0.060464393, -728579.9, 29712.559, 0.0, 10.000578, 9.998666 
1.9850919e+3, 2.326222e+2, -661205.56, -758703.8, -16517.293, 0.08868412, -0.03398207, -658483.4, 1813.9692, 0.0, 10.000274, 9.998986 
1.9851303e+3, 2.426213e+2, -578719.4, -698806.3, -30098.691, 0.24243252, 0.004312459, -571597.75, -9292.075, 0.0, 10.000303, 9.998714 
1.9851649e+3, 2.5261927e+2, -296333.9, -486709.13, -91028.79, 0.10151756, -0.123254865, -259813.81, 204508.95, 0.0, 10.001479, 9.998922 
1.9852006e+3, 2.6261756e+2, -149762.8, -428841.66, -2238.7498, 0.004976096, -0.14825949, -149744.84, 216592.9, 0.00000004684117, 10.00206, 9.998377 
1.9852397e+3, 2.7261674e+2, -157729.11, -358120.3, 11141.203, 0.026552232, -0.12033192, -157111.6, 111234.71, 0.000003631824, 10.001264, 9.998546 
1.9852778e+3, 2.8261557e+2, -122409.37, -382631.1, -64694.06, 0.07427476, -0.04320255, -107213.12, 63146.125, 0.000030883682, 10.001195, 9.99777 
1.9853131e+3, 2.926137e+2, 206599.23, -152540.48, -83658.625, 0.08931621, -0.05950182, 225130.61, 297512.63, 0.00012822116, 10.002729, 9.997915 
1.9853479e+3, 3.0261236e+2, 274088.72, -140345.38, 73528.586, -0.12156643, 0.056468472, 286747.47, 286747.47, 0.0003141248, 10.002989, 9.997575 
1.9853882e+3, 3.1260878e+2, 76523.91, 89898.21, -26089.313, 0.0780432, -0.15594758, 110143.76, 110143.76, 0.00054966006, 10.000184, 10.0004835 
1.9946842e+3, 1.2258127e+2, -1823586.3, -1911209.6, -94328.38, -0.16017503, -0.2343149, -1763391.8, -24699.613, 0.26535824, 9.999713, 9.99878 
1.9947265e+3, 1.3258606e+2, -1593179.0, -1376921.0, 38689.004, 0.36213857, 0.0046032527, -1370207.9, 270440.78, 0.18805622, 9.998983, 10.002516 
1.9947577e+3, 1.4258634e+2, -1875402.1, -1699173.4, 10573.614, -0.2417942, -0.10843934, -1698541.3, -155894.02, 0.11045076, 9.9975395, 9.999925 
1.9947967e+3, 1.5258725e+2, -1595465.9, -1525423.9, -3712.7634, -0.04228616, -0.026175002, -1525227.6, -80587.23, 0.04926506, 9.998881, 9.999774 
1.9948342e+3, 1.6258736e+2, -1326272.8, -1309091.3, -87906.01, 0.049406786, 0.010907043, -1229357.3, 117282.32, 0.014456319, 9.999874, 10.000124 
1.9948693e+3, 1.7258686e+2, -1284442.9, -1178484.0, -86612.32, 0.01835333, -0.12585357, -1129932.6, 118707.22, 0.0019582892, 9.999271, 10.000608 
1.9949053e+3, 1.8258661e+2, -1311700.4, -1280907.0, -29613.412, 0.0114511205, -0.14766899, -1262926.9, -112287.13, 0.000032105352, 9.998949, 9.999422 
1.9949435e+3, 1.9258678e+2, -1133623.3, -1136925.4, -17434.254, 0.04102837, -0.10687559, -1117762.0, -65120.703, 0.0, 9.999497, 9.99945 
1.994981e+3, 2.0258689e+2, -1021641.94, -1108468.1, -80158.86, 0.03095623, -0.0026276577, -973895.06, -19251.229, 0.0, 9.999896, 9.998801 
1.9950174e+3, 2.125867e+2, -868309.94, -962366.7, -60973.035, -0.028924683, 0.054224577, -838335.9, 18312.719, 0.0, 10.000219, 9.998952 
1.9950539e+3, 2.2258607e+2, -742168.56, -820272.9, -52873.594, -0.06676323, 0.09837677, -715488.75, 43166.695, 0.0, 10.000245, 9.999264 
1.9950914e+3, 2.3258443e+2, -648537.5, -677356.94, -10237.115, -0.010113609, -0.0632087, -645271.25, 15395.869, 0.0, 10.00003, 9.999663 
1.995129e+3, 2.4258281e+2, -668883.6, -799821.7, -15670.138, 0.048544757, -0.12153365, -667034.4, -104354.336, 0.0, 9.999929, 9.998203 
1.9951668e+3, 2.525813e+2, -394004.5, -629111.9, -26379.992, 0.13659811, -0.11787528, -391080.9, 73614.87, 0.0, 10.001217, 9.99807 
1.9952044e+3, 2.6257962e+2, -203183.8, -453070.0, -32043.547, 0.1279063, -0.08712716, -199140.2, 167572.53, 0.000000042002604, 10.001694, 9.998384 
1.9952406e+3, 2.7257812e+2, -178866.36, -331916.72, -1365.2385, -0.044061113, -0.15638275, -178854.19, 89872.34, 0.0000035134383, 10.000975, 9.998859 
1.9952774e+3, 2.8257725e+2, -156917.23, -362497.66, -47138.9, -0.11917567, -0.081027284, -146623.84, 24111.213, 0.00002820436, 10.000797, 9.998101 
1.9953156e+3, 2.9257667e+2, 173540.92, -122215.34, -2046.6178, 0.018847914, -0.018104749, 173555.08, 246298.22, 0.00011358975, 10.002294, 9.998332 
1.995351e+3, 3.0257386e+2, 233287.36, -59341.45, -23529.697, -0.1424121, -0.12323453, 235167.25, 235167.25, 0.00027761882, 10.002315, 9.99844 
1.9953884e+3, 3.1257555e+2, -87723.09, -90743.39, -27910.236, -0.010683107, 0.09766582, -61282.176, -61282.176, 0.0004902181, 9.999549, 9.999519 
2.0046811e+3, 1.2254693e+2, -2119496.0, -1777832.1, -122280.99, -0.27795294, -0.039768238, -1738577.9, 453.90585, 0.27641812, 9.996509, 10.001212 
2.0047265e+3, 1.3254961e+2, -1675649.5, -1522390.5, 6910.121, 0.5034955, 0.04355912, -1522079.5, 118928.42, 0.1968332, 9.99892, 10.001309 
2.0047559e+3, 1.425497e+2, -1523692.5, -1543429.4, -53534.453, -0.2778363, -0.010962816, -1479124.5, 63883.285, 0.11636926, 10.00004, 9.999805 
2.0047958e+3, 1.5254931e+2, -1536714.8, -1476435.5, -15747.88, -0.027557837, -0.07906124, -1472569.4, -27559.025, 0.05238356, 9.999167, 9.999979 
2.0048337e+3, 1.6254893e+2, -1538005.3, -1449763.8, -25669.982, 0.0939979, -0.09206968, -1442839.5, -95827.03, 0.015589432, 9.998545, 9.999809 
2.004869e+3, 1.7254864e+2, -1256920.1, -1222587.8, -93278.82, 0.06391931, -0.16741563, -1144908.8, 104104.234, 0.0021699998, 9.999656, 10.000141 
2.0049053e+3, 1.8254831e+2, -1154450.6, -1237405.8, -24749.523, 0.08169368, -0.15813905, -1147627.8, 3387.8943, 0.00003871999, 10.000198, 9.999106 
2.0049433e+3, 1.9254826e+2, -1056814.3, -1134133.6, -15000.865, 0.06254429, -0.10600194, -1054006.0, -985.59827, 0.0, 10.000201, 9.999124 
2.004981e+3, 2.0254828e+2, -984033.94, -1065140.8, -33586.89, 0.045580994, 0.003917196, -971931.3, -16907.443, 0.0, 10.000072, 9.999008 
2.005018e+3, 2.1254832e+2, -854662.4, -915803.9, -45288.59, 0.03353206, 0.048915993, -830592.25, 26433.271, 0.0, 10.000151, 9.999307 
2.005055e+3, 2.2254778e+2, -746435.75, -806416.9, -35792.1, 0.035400387, 0.080314584, -729730.4, 29300.186, 0.0, 10.000172, 9.999387 
2.0050916e+3, 2.325462e+2, -604646.3, -646952.44, -82657.56, 0.015440318, -0.07852674, -540478.06, 120564.18, 0.0, 10.000336, 9.999711 
2.0051292e+3, 2.4254477e+2, -553189.1, -744980.4, -44739.293, 0.054061614, -0.117756255, -543266.2, 19787.549, 0.0, 10.00069, 9.998227 
2.0051685e+3, 2.5254372e+2, -372049.4, -615140.5, -18955.402, 0.18476161, -0.06912528, -370580.22, 94485.64, 0.0, 10.001341, 9.998105 
2.0052066e+3, 2.6254228e+2, -214203.78, -459808.16, -156.6011, 0.21791013, -0.018812045, -214203.67, 152877.33, 0.000000029896977, 10.001602, 9.998391 
2.0052421e+3, 2.7254003e+2, -169074.47, -336907.13, -36697.777, 0.02468567, -0.15629819, -161401.08, 107700.71, 0.0000031274246, 10.001041, 9.998815 
2.0052788e+3, 2.8253907e+2, -140249.55, -304248.63, -7253.843, -0.04102413, -0.108361766, -139929.33, 31181.234, 0.000025154262, 10.000685, 9.998561 
2.0053174e+3, 2.925395e+2, 13562.565, -142331.55, -932.4267, 0.06644778, 0.012375323, 13568.142, 86674.77, 0.00009776422, 10.000943, 9.998846 
2.0053536e+3, 3.0253652e+2, 203543.63, -7535.5815, -20652.37, -0.06651782, -0.17250717, 205545.31, 205545.31, 0.00024035286, 10.001796, 9.999069 
2.0053911e+3, 3.1253797e+2, 421345.84, 40684.887, -110978.11, 0.13095155, 0.00054148136, 451337.47, 451337.47, 0.000433908, 10.0034895, 9.998568 
2.01468e+3, 1.2251103e+2, -1973193.6, -1555643.0, -126956.3, -0.11344476, -0.09651947, -1520072.3, 219316.3, 0.28771394, 9.996574, 10.003264 
2.01472e+3, 1.3251299e+2, -1854418.8, -1890363.4, 111415.89, -0.086951315, 0.1001998, -1759535.0, -118163.555, 0.20582092, 9.999018, 9.9985485 
2.0147584e+3, 1.425116e+2, -1473958.9, -1492840.0, -82397.57, -0.09778665, 0.070483886, -1400462.8, 142921.95, 0.12247417, 10.000291, 10.0000725 
2.0147958e+3, 1.525112e+2, -1434218.6, -1277723.1, -47378.242, 0.042865787, -0.12913366, -1264497.4, 180883.95, 0.055639356, 9.999193, 10.001398 
2.0148322e+3, 1.6251065e+2, -1551527.9, -1497622.9, -19841.164, 0.037557263, -0.23393072, -1491107.4, -143725.72, 0.016791714, 9.99863, 9.999444 
2.0148686e+3, 1.7251067e+2, -1329092.1, -1366064.5, -36992.707, 0.017345805, -0.18279602, -1306223.8, -56839.73, 0.0023981123, 9.999636, 9.9991665 
2.0149055e+3, 1.8251054e+2, -1152856.1, -1256957.0, -39977.234, 0.02310387, -0.08971438, -1139275.6, 12112.152, 0.000045425786, 10.000283, 9.998938 
2.0149437e+3, 1.9250998e+2, -1065088.8, -1135150.0, -8207.0625, 0.045824215, -0.08907057, -1064140.3, -10744.822, 0.0, 10.000128, 9.999155 
2.0149814e+3, 2.0250942e+2, -991555.2, -1040379.7, -48572.293, 0.036264528, -0.05037637, -961605.44, -6203.129, 0.0, 9.999891, 9.999267 
2.015018e+3, 2.1250862e+2, -870758.56, -892636.56, -27593.363, -0.0007985311, -0.11514501, -852015.0, 5394.9995, 0.0, 9.999906, 9.999586 
2.0150548e+3, 2.2250782e+2, -831704.4, -907733.0, -46011.92, -0.025090555, -0.11169714, -810034.6, -50616.426, 0.0, 9.999833, 9.998859 
2.0150924e+3, 2.3250721e+2, -685369.4, -772632.25, -59606.49, 0.031340186, -0.09665653, -655131.75, 6293.5835, 0.0, 10.0001335, 9.998953 
2.0151304e+3, 2.4250676e+2, -575131.25, -705018.06, -36471.39, 0.07339942, -0.010438364, -565591.06, -2160.2869, 0.0, 10.000335, 9.998669 
2.0151693e+3, 2.5250638e+2, -353488.84, -511183.28, 20755.695, 0.10332105, 0.02558908, -350802.75, 114631.84, 0.0, 10.001067, 9.99895 
2.0152073e+3, 2.6250514e+2, -269919.97, -489470.38, -28444.28, 0.08743157, 0.049087103, -266294.7, 101151.54, 0.0000000091701935, 10.001237, 9.9983635 
2.0152438e+3, 2.7250245e+2, -232033.1, -393815.8, -38009.445, 0.06827561, -0.11385072, -223548.13, 45924.215, 0.0000023642951, 10.000735, 9.998568 
2.0152809e+3, 2.825012e+2, -183926.7, -295131.94, -27711.574, 0.06551133, -0.09258298, -177403.78, -5919.7188, 0.000021595964, 10.000267, 9.998819 
2.0153184e+3, 2.9250196e+2, -1176.8367, -107190.23, 33193.57, 0.040805392, 0.015954144, 8358.638, 81833.56, 0.000083873885, 10.00064, 9.999243 
2.015355e+3, 3.0249974e+2, 118749.234, -44136.77, 7535.7324, -0.16049387, -0.11651339, 119097.125, 119097.125, 0.00020823602, 10.001234, 9.999066 
2.0153938e+3, 3.124987e+2, 216596.06, -118766.97, 65745.75, -0.0038348848, -0.20260815, 229024.5, 229024.5, 0.00038362973, 10.002433, 9.997939 
2.0246796e+3, 1.2247401e+2, -1674488.8, -1475510.0, -95441.516, 0.08766912, -0.04085947, -1437132.8, 302617.2, 0.29983783, 9.998979, 10.002847 
2.0247167e+3, 1.3247484e+2, -2002989.5, -2014726.9, 82615.19, -0.24402857, 0.06534272, -1926034.8, -284291.13, 0.21537028, 9.998246, 9.998051 
2.0247594e+3, 1.4247243e+2, -1745266.0, -1637545.9, -6295.3584, 0.091251165, -0.03186748, -1637179.3, -93411.94, 0.12892798, 9.998425, 9.999917 
2.0247957e+3, 1.5247309e+2, -1450103.8, -1284793.5, -115183.66, 0.12820902, -0.120025, -1225677.1, 220077.16, 0.05909158, 9.999116, 10.001385 
2.0248315e+3, 1.6247308e+2, -1461312.8, -1458889.8, -94136.95, 0.08232037, -0.16735369, -1365956.5, -18205.627, 0.018083457, 9.999315, 9.999353 
2.0248684e+3, 1.7247285e+2, -1301017.0, -1366588.8, -70608.88, 0.045600228, -0.12458896, -1255953.5, -6196.202, 0.0026487417, 9.999944, 9.998986 
2.0249058e+3, 1.8247263e+2, -1162417.5, -1249762.0, -28555.65, 0.054546103, -0.036373224, -1153910.4, -2147.7002, 0.000052423693, 10.000154, 9.999047 
2.0249438e+3, 1.9247183e+2, -1077614.0, -1125876.0, -21437.568, 0.07178541, -0.07755775, -1069466.9, -15696.5205, 0.0, 9.99995, 9.999308 
2.0249814e+3, 2.0247106e+2, -1014807.06, -1056438.3, -22019.625, 0.07902396, -0.06863442, -1005321.6, -49543.9, 0.0, 9.999757, 9.999213 
2.0250179e+3, 2.124702e+2, -860151.5, -905826.5, -63520.63, 0.012031145, -0.1274726, -815487.75, 42298.96, 0.0, 10.000053, 9.999416 
2.025055e+3, 2.2246933e+2, -778329.5, -905119.7, -58284.707, -0.0032783716, -0.11320212, -755608.1, 4188.1245, 0.0, 10.000297, 9.998646 
2.0250931e+3, 2.324688e+2, -627934.56, -769073.06, -60653.605, 0.0813399, -0.068592444, -605450.75, 56352.668, 0.0, 10.000635, 9.998724 
2.0251316e+3, 2.4246842e+2, -490958.0, -638068.6, 8696.96, 0.1519803, 0.028070249, -490445.66, 73362.78, 0.0, 10.000813, 9.998888 
2.0251702e+3, 2.5246793e+2, -373804.25, -486424.94, 1755.6255, 0.12088339, 0.024424141, -373776.9, 92035.445, 0.0, 10.000785, 9.999253 
2.0252083e+3, 2.6246685e+2, -324139.56, -491079.56, -50305.02, 0.11475428, 0.03516171, -310152.75, 57669.336, 0.000000001074916, 10.000766, 9.998578 
2.0252453e+3, 2.724649e+2, -214686.03, -363497.84, -79604.55, 0.15186769, -0.06449374, -180128.08, 89713.4, 0.0000018159459, 10.000787, 9.998738 
2.0252821e+3, 2.824639e+2, -90864.23, -250865.02, -8941.059, 0.15947267, -0.026129466, -90366.14, 81484.95, 0.000018189116, 10.0008745, 9.998841 
2.0253187e+3, 2.9246414e+2, 48690.906, -68894.41, -14928.192, 0.016717592, 0.029006466, 50556.53, 124403.805, 0.000072171526, 10.000932, 9.9993515 
2.0253572e+3, 3.0246207e+2, 150947.84, -99146.03, 15039.157, -0.04528278, -0.07526265, 151848.95, 151848.95, 0.00017993047, 10.001685, 9.998509 
2.025397e+3, 3.124607e+2, 328550.34, -42538.473, -78719.39, 0.06965606, -0.1078981, 344558.6, 344558.6, 0.00033599298, 10.00302, 9.998211 
2.0346779e+3, 1.2243323e+2, -1869301.3, -1906214.9, 134840.22, -0.1037877, -0.12513153, -1751660.5, -11519.927, 0.3135409, 9.999292, 9.998988 
2.0347174e+3, 1.3243482e+2, -1819717.4, -1675824.6, 60213.207, -0.07054395, -0.075452104, -1653952.5, -11825.132, 0.22593072, 9.99841, 10.000304 
2.0347582e+3, 1.424319e+2, -1753601.4, -1703824.0, 10733.515, 0.06055394, -0.34330088, -1701608.3, -157451.11, 0.13594478, 9.998627, 9.999366 
2.0347948e+3, 1.5243502e+2, -1544235.9, -1493125.3, -88867.15, 0.08591265, -0.050988592, -1426212.0, 19917.697, 0.06282382, 9.99919, 9.999844 
2.0348307e+3, 1.6243616e+2, -1435008.6, -1436817.9, -100397.26, 0.037476428, 0.10910602, -1335512.0, 12609.466, 0.019494196, 9.999455, 9.999436 
2.0348683e+3, 1.7243513e+2, -1244846.5, -1262704.3, -36344.375, 0.008542054, 0.012191911, -1216350.3, 33783.4, 0.0029308582, 9.99999, 9.999676 
2.0349059e+3, 1.8243447e+2, -1128216.5, -1186783.8, -44674.43, -0.0071828417, -0.006080708, -1104083.5, 48057.598, 0.00006041413, 10.000188, 9.999465 
2.0349434e+3, 1.9243383e+2, -1069343.5, -1084698.8, -18953.92, 0.004891243, -0.062072434, -1056571.3, -2426.2734, 0.0, 9.99985, 9.9996395 
2.0349805e+3, 2.0243324e+2, -1069645.5, -1124896.0, -33649.527, -0.019170083, -0.042761363, -1053734.1, -97583.97, 0.0, 9.999569, 9.998832 
2.0350175e+3, 2.1243289e+2, -936336.94, -1008456.44, -37693.676, -0.062475357, 0.007780842, -920232.3, -62075.3, 0.0, 9.999818, 9.998826 
2.0350547e+3, 2.2243229e+2, -825091.44, -913002.06, -58121.766, -0.081115484, 0.07931299, -796175.56, -36010.29, 0.0, 9.999929, 9.99876 
2.0350935e+3, 2.3243093e+2, -649677.25, -746333.2, -28215.516, 0.027065905, 0.012062909, -642043.56, 20133.074, 0.0, 10.000355, 9.99901 
2.035132e+3, 2.4242963e+2, -546746.94, -674741.56, -5397.0786, 0.09447916, 0.0017652516, -546519.75, 17668.1, 0.0, 10.000472, 9.9988 
2.035171e+3, 2.5242838e+2, -419950.78, -531218.94, 14068.597, 0.0948311, -0.059771057, -418199.53, 47999.395, 0.0, 10.000559, 9.999059 
2.0352091e+3, 2.6242733e+2, -365771.13, -485274.7, -66036.25, 0.092868336, -0.042825695, -336466.4, 31742.357, 0.000000023664393, 10.000385, 9.998791 
2.035246e+3, 2.7242693e+2, -224914.38, -326231.22, -60579.19, 0.12112199, -0.033692323, -196603.72, 73609.94, 0.0000019634658, 10.000529, 9.999117 
2.0352823e+3, 2.8242669e+2, -168990.63, -306317.4, -30484.91, 0.045861043, 0.062427998, -162527.52, 9689.301, 0.000016146072, 10.000441, 9.998658 
2.035318e+3, 2.9242608e+2, -23608.604, -134231.47, 12380.775, -0.17740536, 0.063388094, -22239.898, 51983.387, 0.00006227005, 10.000561, 9.999086 
2.0353593e+3, 3.024233e+2, -47268.188, -339009.7, 37078.22, -0.04232011, -0.031435702, -42629.566, -42629.566, 0.00015437642, 10.000984, 9.997178 
2.0354009e+3, 3.1242174e+2, 284679.5, 86535.51, 7195.4014, 0.10151802, 0.029043516, 284940.44, 284940.44, 0.00029131802, 10.002135, 9.999494 
2.0446773e+3, 1.2239069e+2, -2018106.8, -2208908.3, 144851.45, -0.051656567, -0.2533116, -1940062.4, -199505.94, 0.3294151, 9.999284, 9.9969425 
2.044718e+3, 1.3239497e+2, -1655926.9, -1415040.8, -47418.664, 0.16789337, -0.06330226, -1406042.5, 236473.56, 0.23787552, 9.998512, 10.002536 
2.0447566e+3, 1.4239307e+2, -1689086.0, -1632764.6, -15066.748, 0.0441975, -0.3853485, -1628987.4, -84452.83, 0.14372098, 9.998898, 9.999723 
2.0447937e+3, 1.5239605e+2, -1578733.4, -1558118.1, -88547.51, 0.06666339, -0.07352345, -1479280.4, -32769.406, 0.06692591, 9.999159, 9.999409 
2.0448303e+3, 1.6239722e+2, -1481064.1, -1458346.0, -19765.629, 0.07952888, 0.11296315, -1446907.9, -98403.375, 0.021061258, 9.999108, 9.999471 
2.0448683e+3, 1.7239662e+2, -1305531.4, -1273155.3, -17689.53, 0.045606636, 0.042126093, -1265364.8, -14851.452, 0.003256253, 9.999477, 9.999863 
2.044906e+3, 1.8239635e+2, -1193173.8, -1177696.5, -44081.906, 0.040991172, 0.041723415, -1140679.1, 11837.767, 0.00007088071, 9.99958, 9.99982 
2.0449431e+3, 1.9239594e+2, -1067700.3, -1031899.75, -48198.91, 0.026316993, -0.036004998, -998384.5, 56132.78, 0.0, 9.9996605, 10.000084 
2.0449804e+3, 2.0239542e+2, -1030699.6, -1117964.9, 785.2734, 0.012383943, -0.029432835, -1030692.5, -74172.01, 0.0, 9.9998665, 9.99875 
2.0450182e+3, 2.123951e+2, -798535.9, -961061.9, 908.9328, -0.007458172, 0.040934622, -798530.8, 59997.145, 0.0, 10.000853, 9.99865 
2.0450561e+3, 2.2239439e+2, -622516.3, -846680.2, -4914.2905, -0.0035500862, 0.124409035, -622408.6, 138128.67, 0.0, 10.001438, 9.998505 
2.0450939e+3, 2.3239234e+2, -562774.2, -733927.7, -50219.246, 0.04106844, 0.013852149, -549127.2, 113428.164, 0.0, 10.001067, 9.99876 
2.0451325e+3, 2.4239048e+2, -527836.2, -680350.94, -24910.049, 0.09196508, -0.029724004, -523870.75, 40700.85, 0.0, 10.000656, 9.998681 
2.0451714e+3, 2.5238937e+2, -456646.25, -552511.75, -31744.979, 0.124451816, -0.06903019, -447087.3, 19494.217, 0.0, 10.000323, 9.999023 
2.04521e+3, 2.6238847e+2, -389537.75, -497840.03, -64330.414, 0.16150987, -0.037551463, -359601.13, 8988.901, 0.00000011200642, 10.000198, 9.998798 
2.0452468e+3, 2.72388e+2, -196147.14, -316142.28, -119439.54, 0.15848678, -0.028339226, -122482.78, 148112.25, 0.000002326167, 10.000729, 9.999091 
2.045283e+3, 2.823875e+2, -75075.48, -269528.03, -82968.85, 0.073376834, 0.04386582, -44486.344, 128114.37, 0.000014696717, 10.0011, 9.9986 
2.0453192e+3, 2.9238653e+2, 20118.982, -116486.92, -77772.15, -0.11435063, 0.027404675, 55323.516, 129934.0, 0.00005375532, 10.000888, 9.999047 
2.0453618e+3, 3.023849e+2, 16389.6, -272011.53, 102683.31, 0.14365622, 0.039727945, 49213.51, 49213.51, 0.00013254509, 10.001244, 9.997511 
2.0454033e+3, 3.123828e+2, 373370.06, 169439.08, -19561.848, 0.124983944, 0.016694505, 375229.56, 375229.56, 0.00025431596, 10.002502, 9.999901 
2.0546763e+3, 1.2234826e+2, -1945286.0, -2154920.3, -199342.48, -0.18914208, -0.17445551, -1824883.0, -83903.06, 0.3476065, 9.999685, 9.997124 
2.0547175e+3, 1.323556e+2, -1504811.4, -1132782.0, -18402.26, 0.2559262, 0.1554397, -1131873.9, 511033.84, 0.2513395, 9.998593, 10.005126 
2.0547539e+3, 1.4235601e+2, -1564755.1, -1443841.6, -16422.076, -0.19864538, -0.16066225, -1441650.9, 103249.04, 0.15236652, 9.999121, 10.001037 
2.0547915e+3, 1.5235634e+2, -1517734.6, -1449905.3, -65934.43, -0.09391681, -0.18912888, -1409674.4, 37222.41, 0.071473114, 9.999232, 10.000132 
2.0548293e+3, 1.6235621e+2, -1468009.5, -1473102.5, -29234.314, 0.010539927, -0.16696578, -1441211.0, -92310.93, 0.022826005, 9.999276, 9.999295 
2.0548677e+3, 1.7235728e+2, -1330254.4, -1330842.9, 5341.804, 0.016744453, -0.037287686, -1325198.8, -74302.375, 0.0036400491, 9.999496, 9.999462 
2.0549057e+3, 1.8235813e+2, -1169423.4, -1147308.9, -56646.23, 0.004433096, 0.09734466, -1100650.8, 52240.848, 0.00008593674, 9.999648, 10.000004 
2.0549428e+3, 1.9235785e+2, -1038091.56, -960901.7, -36265.58, -0.0074701305, -0.012002017, -946536.6, 108353.15, 0.0, 9.999606, 10.000605 
2.0549802e+3, 2.0235741e+2, -1046012.25, -1101579.5, 13312.419, -0.015587178, -0.043963443, -1042987.56, -86096.28, 0.0, 9.999661, 9.998959 
2.0550196e+3, 2.1235663e+2, -828084.25, -965637.0, 52957.375, 0.027464032, -0.029213805, -810058.1, 48842.97, 0.0, 10.000605, 9.998737 
2.055058e+3, 2.223554e+2, -720875.6, -961916.4, -23690.361, 0.034518898, 0.01690566, -718569.3, 42345.945, 0.0, 10.001064, 9.997891 
2.0550947e+3, 2.3235288e+2, -658939.0, -870241.8, -50427.33, -0.018536076, -0.058957823, -647521.44, 15419.173, 0.0, 10.0008, 9.997953 
2.0551321e+3, 2.423509e+2, -596476.3, -733540.0, -52647.87, -0.04006645, -0.059477117, -578588.2, -13627.6455, 0.0, 10.000282, 9.998491 
2.0551714e+3, 2.5235054e+2, -495893.22, -566919.4, -24717.34, 0.07248924, -0.027820118, -488138.25, -21174.773, 0.0, 10.000046, 9.999054 
2.0552102e+3, 2.623499e+2, -464239.7, -563549.25, -67273.17, 0.14002588, 0.038409524, -430280.63, -61311.816, 0.00000017468948, 9.999825, 9.998522 
2.0552473e+3, 2.7234805e+2, -263459.5, -402361.03, -78057.41, 0.10404153, -0.052368842, -228428.84, 42557.543, 0.0000023499456, 10.00049, 9.998618 
2.055284e+3, 2.8234622e+2, -161735.39, -335392.78, -99345.79, 0.008364756, -0.06706475, -116621.65, 56381.625, 0.000012296112, 10.000635, 9.99836 
2.0553213e+3, 2.923453e+2, -34199.793, -149755.88, -60275.88, -0.012129619, -0.0939911, -8482.422, 66528.664, 0.000044415407, 10.000549, 9.998977 
2.0553645e+3, 3.023458e+2, 23217.092, -96589.65, 112231.95, 0.23318338, 0.06899894, 90531.74, 90531.74, 0.00011238728, 10.000597, 9.999004 
2.0554031e+3, 3.1234333e+2, 161149.03, -28197.87, -33701.883, -0.19561936, -0.1713573, 166968.77, 166968.77, 0.00022372513, 10.001513, 9.998996 
2.0646763e+3, 1.223089e+2, -2008791.0, -2070357.8, -25870.564, -0.076300256, -0.1680685, -1999363.6, -257995.73, 0.36771804, 9.998748, 9.998118 
2.0647177e+3, 1.3231733e+2, -1424809.8, -1148393.5, 65657.13, 0.38554308, 0.29402193, -1133590.8, 509694.56, 0.26616043, 9.999606, 10.004568 
2.064752e+3, 1.4231639e+2, -1770466.6, -1523756.4, -61334.785, -0.19791211, -0.12811017, -1509349.3, 35941.758, 0.1618756, 9.997649, 10.001128 
2.0647906e+3, 1.5231669e+2, -1594083.9, -1425873.3, -136983.02, -0.07260987, -0.2083876, -1349236.4, 98049.84, 0.07651462, 9.9984255, 10.000718 
2.0648289e+3, 1.623171e+2, -1462922.5, -1438117.5, -57181.914, 0.05520418, -0.18374413, -1392008.5, -42725.797, 0.024829434, 9.999208, 9.999545 
2.0648675e+3, 1.72318e+2, -1294207.8, -1299261.4, -20658.553, 0.031570025, -0.07960565, -1275922.0, -24643.201, 0.0041003036, 9.999714, 9.999553 
2.0649055e+3, 1.8231861e+2, -1153982.9, -1151834.5, -44424.418, 0.023827761, 0.032652717, -1108471.3, 44804.24, 0.000108260756, 9.999822, 9.999871 
2.0649426e+3, 1.9231871e+2, -992214.7, -955865.7, -107534.72, 0.013268431, -0.025679935, -864980.44, 190291.34, 0.0, 10.000003, 10.000437 
2.0649804e+3, 2.023184e+2, -976112.94, -1068744.1, -54215.63, 0.03702124, -0.030131223, -951123.06, 6149.686, 0.0, 10.00014, 9.998952 
2.0650205e+3, 2.1231717e+2, -830185.56, -964316.75, -45504.813, 0.09036745, -0.061552312, -816205.0, 43081.44, 0.0, 10.000588, 9.998757 
2.0650595e+3, 2.2231577e+2, -742259.7, -944490.0, -97839.484, 0.1100546, -0.037575234, -702673.6, 58628.047, 0.0, 10.000788, 9.99815 
2.0650955e+3, 2.323141e+2, -692741.9, -849438.94, -87605.42, 0.00845651, -0.062576585, -653560.8, 9758.667, 0.0, 10.000408, 9.998282 
2.0651323e+3, 2.4231273e+2, -594610.2, -733624.4, 12128.046, -0.018296568, -0.021885736, -593560.06, -28226.432, 0.0, 10.000298, 9.998483 
2.065172e+3, 2.5231192e+2, -362016.0, -514148.84, 654.0681, 0.11676449, -0.023940895, -362013.2, 105327.305, 0.0, 10.001018, 9.998943 
2.0652114e+3, 2.6231062e+2, -231463.88, -495035.5, -15203.482, 0.20145634, -0.0025372833, -230589.8, 138762.0, 0.00000012472299, 10.001591, 9.9981575 
2.0652483e+3, 2.7230832e+2, -99554.02, -362674.28, -59551.39, 0.10340554, -0.092337295, -86703.5, 184670.28, 0.0000018192295, 10.001794, 9.998262 
2.0652851e+3, 2.8230643e+2, -1947.7385, -273723.47, -60437.605, 0.047902104, -0.09210543, 10886.338, 184277.56, 0.000008845643, 10.001778, 9.998251 
2.0653234e+3, 2.9230514e+2, 29065.223, -133606.11, -87746.05, 0.14308387, -0.13287829, 67374.28, 142775.16, 0.000033872344, 10.001045, 9.998854 
2.0653652e+3, 3.023045e+2, 106544.66, -30201.426, 139435.84, 0.27612463, -0.10023766, 193468.84, 193468.84, 0.00009226976, 10.000971, 9.999327 
2.0654052e+3, 3.1230387e+2, 203157.73, -46607.402, -252861.23, -0.11790712, -0.17405151, 360293.72, 360293.72, 0.0001939828, 10.00192, 9.998701 
2.0746757e+3, 1.2227459e+2, -1869954.8, -1851345.0, -160924.22, -0.12831745, -0.17661951, -1699456.9, 42243.24, 0.38886976, 9.999093, 9.999557 
2.0747176e+3, 1.3228011e+2, -1650287.5, -1631467.8, 32097.02, 0.35421368, 0.30254012, -1607429.6, 36219.12, 0.28190908, 9.999735, 10.000027 
2.0747507e+3, 1.4227405e+2, -1832040.9, -1678974.8, -109948.664, -0.15002774, -0.27742973, -1621545.1, -75835.85, 0.17213808, 9.997791, 9.999951 
2.0747899e+3, 1.5227707e+2, -1544774.6, -1339418.8, -89659.85, -0.015554399, -0.121176355, -1305782.3, 141898.16, 0.08207624, 9.998474, 10.00132 
2.0748283e+3, 1.6227981e+2, -1389450.0, -1324390.1, -50338.973, 0.021151507, 0.07151305, -1296985.0, 52668.3, 0.027111659, 9.99937, 10.000257 
2.0748664e+3, 1.7227884e+2, -1245253.6, -1203442.8, 5101.803, -0.045442756, -0.07652409, -1202829.1, 48831.28, 0.0046569863, 9.999745, 10.000193 
2.0749047e+3, 1.8227793e+2, -1176671.4, -1222353.5, -54085.64, -0.082503155, -0.14041482, -1140801.5, 12866.201, 0.00014131474, 9.99992, 9.99934 
2.0749424e+3, 1.9227839e+2, -1069122.0, -1103925.6, -93473.16, -0.045001995, -0.07252605, -991444.56, 64219.883, 0.0000000002137382, 9.999947, 9.999451 
2.0749804e+3, 2.022783e+2, -1020600.0, -1122996.8, -60911.133, -0.016435249, 0.015702838, -992228.0, -34561.418, 0.0, 9.999969, 9.998664 
2.0750208e+3, 2.1227655e+2, -861151.4, -981127.3, -13230.371, 0.037075687, -0.061641086, -859709.75, -24.27048, 0.0, 10.000375, 9.998746 
2.07506e+3, 2.2227536e+2, -728672.2, -826113.25, -114888.766, 0.04739568, -0.056838088, -652600.44, 109097.97, 0.0, 10.000411, 9.999136 
2.0750958e+3, 2.3227586e+2, -641354.94, -670665.75, -87711.11, -0.017575653, 0.00240029, -567083.3, 96609.79, 0.0, 10.000114, 9.999643 
2.0751329e+3, 2.4227574e+2, -646332.44, -747101.0, 12781.456, -0.037245993, 0.077187434, -644736.5, -79043.195, 0.0, 9.999899, 9.998579 
2.0751734e+3, 2.522733e+2, -426760.88, -587672.2, 43743.4, 0.1064182, -0.056431074, -415638.16, 52076.97, 0.0, 10.000761, 9.99856 
2.0752129e+3, 2.622706e+2, -328879.84, -592736.3, -23499.96, 0.14983419, -0.13559818, -326803.22, 42936.723, 0.000000021824269, 10.001157, 9.997691 
2.0752493e+3, 2.722685e+2, -177027.48, -443959.1, -34765.293, 0.0024537558, -0.16244762, -172573.94, 99187.04, 0.00000084431264, 10.001466, 9.99786 
2.0752867e+3, 2.8226733e+2, -87764.96, -332687.6, -103176.305, -0.035568237, -0.061562777, -50094.7, 123677.19, 0.000005133315, 10.0012865, 9.99807 
2.0753253e+3, 2.9226577e+2, -42295.133, -213785.3, -93578.78, 0.17669526, -0.11338467, -1118.1652, 74665.805, 0.000023723636, 10.000737, 9.998454 
2.0753643e+3, 3.022611e+2, -70655.13, -213118.03, 134404.34, 0.029374257, -0.41567656, 10226.696, 10226.696, 0.00007270888, 10.000244, 9.998386 
2.0754077e+3, 3.1226537e+2, 22478.512, -138138.03, -133890.22, -0.13875954, 0.073951334, 98298.414, 98298.414, 0.00016093491, 10.000801, 9.998564 
2.084676e+3, 1.2223809e+2, -1609499.0, -1648134.5, -166037.8, -0.094374925, -0.18710034, -1461659.0, 280398.47, 0.40993002, 10.001116, 10.000459 
2.0847161e+3, 1.3224149e+2, -1773998.6, -1910922.5, -97615.43, 0.2549126, 0.22362664, -1723230.5, -79204.05, 0.29801235, 9.99983, 9.998 
2.0847505e+3, 1.4223456e+2, -1779289.0, -1724562.8, 14930.52, 0.030022645, -0.29527605, -1720754.5, -174657.48, 0.18298064, 9.998497, 9.999282 
2.0847893e+3, 1.5223762e+2, -1429035.1, -1332976.6, -22212.896, 0.04755328, -0.089453794, -1328088.8, 119980.5, 0.088167645, 9.999487, 10.000879 
2.0848282e+3, 1.6224062e+2, -1304744.1, -1293923.3, -41548.824, 0.05940035, 0.16143745, -1257434.1, 92606.016, 0.029713616, 9.999973, 10.000202 
2.0848668e+3, 1.7223908e+2, -1196287.4, -1170988.3, -73500.91, -0.01294734, -0.053214673, -1109056.4, 142993.98, 0.005333032, 10.000011, 10.000314 
2.0849048e+3, 1.8223754e+2, -1199450.6, -1262449.9, -119037.7, -0.04292319, -0.17905039, -1107815.4, 46246.652, 0.00018960002, 9.999893, 9.999088 
2.0849423e+3, 1.9223747e+2, -1022425.2, -1128237.4, -144273.45, -0.042878013, -0.11785672, -921663.2, 134401.33, 0.000000020895914, 10.000487, 9.999021 
2.0849808e+3, 2.0223722e+2, -911261.25, -1038280.75, -57979.89, -0.014980388, -0.027255464, -888775.9, 69292.875, 0.0, 10.000628, 9.998905 
2.085021e+3, 2.1223605e+2, -866523.94, -927972.2, -13785.656, 0.051044147, -0.08904641, -863572.9, -3492.0579, 0.0, 10.000127, 9.999209 
2.0850605e+3, 2.2223535e+2, -796427.1, -839014.8, -83780.36, 0.09909109, -0.070115425, -731276.94, 30811.383, 0.0, 9.999839, 9.999335 
2.0850964e+3, 2.3223597e+2, -597106.3, -636576.44, -172090.55, 0.043550044, -0.011739116, -443622.9, 220459.75, 0.0, 10.0003395, 9.999781 
2.0851335e+3, 2.422359e+2, -526209.0, -672368.25, -89267.75, 0.04583335, 0.053562477, -483922.4, 82160.35, 0.0, 10.000648, 9.998729 
2.0851743e+3, 2.5223348e+2, -452481.13, -588019.2, -54344.95, 0.15298535, -0.083578646, -433382.34, 34721.395, 0.0, 10.000531, 9.998666 
2.0852137e+3, 2.622311e+2, -403498.03, -606170.06, -50095.117, 0.17556587, -0.14598617, -391791.97, -21666.771, 0.0, 10.000544, 9.997895 
2.08525e+3, 2.7222952e+2, -247095.5, -456720.78, -53293.082, -0.02053375, -0.1386638, -234324.8, 37816.22, 0.000000115745564, 10.000892, 9.998047 
2.0852876e+3, 2.822281e+2, -117752.19, -425006.0, -84053.26, -0.028578164, -0.047941417, -96261.49, 77893.625, 0.0000020138657, 10.001386, 9.997396 
2.0853272e+3, 2.922257e+2, 71514.61, -254975.81, -179326.78, 0.23727217, -0.09072851, 150771.14, 226950.19, 0.000014504671, 10.001952, 9.9975815 
2.0853643e+3, 3.022222e+2, 205547.98, -27210.623, 97957.26, -0.023257947, -0.24798384, 241286.3, 241286.3, 0.000053405533, 10.001843, 9.998925 
2.0854092e+3, 3.1222507e+2, -99348.914, -175864.17, -105683.43, 0.020985136, 0.03914151, -25211.553, -25211.553, 0.000125829, 9.999733, 9.998877 
2.0946787e+3, 1.2219712e+2, -1555484.3, -1558826.1, 14712.833, -0.04405913, -0.3890918, -1542347.8, 200115.19, 0.42994058, 10.00128, 10.001353 
2.0947134e+3, 1.3220116e+2, -1705140.1, -1780909.1, -159608.58, -0.039218917, 0.052521836, -1578981.6, 65439.457, 0.31401625, 10.000007, 9.99889 
2.0947503e+3, 1.4219803e+2, -1759309.1, -1736701.1, 3249.323, 0.09045981, -0.16309819, -1736243.4, -189790.75, 0.19429262, 9.9987135, 9.999102 
2.0947881e+3, 1.5219831e+2, -1521930.9, -1540650.3, 23979.64, -0.05869718, -0.10566769, -1505549.0, -57095.883, 0.094824284, 9.9995775, 9.999334 
2.0948276e+3, 1.6219936e+2, -1332201.0, -1398592.1, -56831.97, -0.037509296, 0.081335574, -1299580.0, 50864.668, 0.032688897, 10.000178, 9.999379 
2.094867e+3, 1.7219868e+2, -1219197.3, -1229643.9, -67395.89, -0.008074561, 0.0035182426, -1156822.6, 95625.83, 0.0061590113, 10.000056, 9.999891 
2.0949052e+3, 1.8219751e+2, -1184527.6, -1255719.4, -122480.555, -0.051116508, -0.060654026, -1092575.3, 61882.348, 0.00026052183, 9.999992, 9.999087 
2.0949423e+3, 1.9219607e+2, -1022246.4, -1115867.0, -111937.305, -0.12647878, -0.14698642, -947725.9, 108745.03, 0.00000016154512, 10.000431, 9.999133 
2.0949802e+3, 2.0219518e+2, -897343.44, -966226.1, -83482.28, -0.1459546, -0.15164486, -841477.0, 117001.98, 0.0, 10.000442, 9.999489 
2.0950207e+3, 2.121956e+2, -850199.3, -833806.56, -22794.691, -0.0025660607, -0.13161781, -817779.44, 42694.023, 0.0, 9.999875, 9.999972 
2.0950603e+3, 2.2219566e+2, -886451.4, -944217.56, -88560.516, 0.08177671, -0.06747626, -822183.0, -59710.277, 0.0, 9.999486, 9.998783 
2.0950969e+3, 2.3219442e+2, -709717.1, -808349.44, -135415.08, 0.03790697, -0.09499502, -614917.6, 49570.55, 0.0, 10.000072, 9.998731 
2.0951343e+3, 2.4219328e+2, -577346.6, -685246.7, -102390.29, 0.024877878, -0.07630432, -515562.6, 50938.76, 0.0, 10.000248, 9.998834 
2.0951745e+3, 2.521925e+2, -447536.3, -523705.6, -43212.746, 0.11568068, -0.10068727, -428020.78, 40485.465, 0.0, 10.000292, 9.999226 
2.0952137e+3, 2.6219198e+2, -408924.53, -524782.7, -59409.15, 0.076997146, -0.044375166, -383876.34, -13367.276, 0.0, 10.00016, 9.998633 
2.09525e+3, 2.7219114e+2, -244606.48, -380392.3, -23175.291, -0.1322288, -0.03764338, -240760.0, 31756.668, 0.0, 10.000589, 9.998713 
2.0952883e+3, 2.821887e+2, -286963.13, -641841.25, -86481.875, -0.14012258, -0.039355703, -267009.84, -92468.24, 0.00000039293647, 10.000822, 9.996178 
2.0953284e+3, 2.9218477e+2, -91381.734, -499095.1, -125082.28, 0.14042558, -0.06976039, -56066.668, 20519.51, 0.000007667558, 10.001543, 9.996106 
2.0953648e+3, 3.0218583e+2, 182085.2, 139648.45, 23090.379, -0.21423388, 0.24775252, 192225.8, 192225.8, 0.000037309022, 10.000984, 10.000457 
2.0954102e+3, 3.1218255e+2, -167115.58, -54212.246, 38964.9, 0.067717515, -0.30442896, -42070.52, -42070.52, 0.0000961441, 9.9986925, 10.000177 
2.1046816e+3, 1.22159615e+2, -1721766.4, -1525383.6, 166359.67, 0.2624157, -0.060772963, -1430398.8, 312433.28, 0.44859928, 9.998727, 10.003166 
2.1047117e+3, 1.3216108e+2, -1783265.0, -1792569.3, -273328.56, -0.16680771, 0.03173627, -1514549.0, 130266.09, 0.3298663, 9.999384, 9.999259 
2.1047503e+3, 1.4215933e+2, -1503511.4, -1635579.4, -101674.6, 0.16180696, -0.04885741, -1448309.3, 98524.18, 0.20615475, 10.000728, 9.998855 
2.1047883e+3, 1.5215868e+2, -1388019.3, -1487463.4, -44299.324, -0.026559042, -0.071097754, -1371147.8, 77693.516, 0.10215144, 10.000646, 9.999169 
2.1048276e+3, 1.6215831e+2, -1382305.1, -1449022.4, -26105.148, -0.038504668, -0.005029849, -1373304.8, -22459.324, 0.036114734, 9.999959, 9.999113 
2.104867e+3, 1.7215803e+2, -1282468.6, -1285551.4, -51638.08, 0.012103249, -0.021867258, -1232349.0, 20497.926, 0.007176738, 9.999733, 9.999647 
2.1049055e+3, 1.8215743e+2, -1244490.3, -1278135.8, -50854.8, 0.015611984, -0.017895646, -1207747.9, -52896.67, 0.0003661867, 9.999551, 9.999146 
2.1049428e+3, 1.9215578e+2, -1040839.25, -1104082.4, -59231.035, -0.08743054, -0.1403452, -1005317.44, 51547.863, 0.00000091193453, 10.000217, 9.999313 
2.104981e+3, 2.0215474e+2, -863253.44, -949080.06, -39952.582, -0.1179283, -0.17372611, -847534.3, 111339.4, 0.0, 10.000617, 9.999552 
2.1050207e+3, 2.1215522e+2, -755971.94, -798494.6, -69711.3, -0.013724775, -0.14562722, -704351.8, 156516.1, 0.0, 10.000501, 9.999954 
2.10506e+3, 2.2215533e+2, -770388.25, -894082.6, -106376.12, 0.080745876, -0.070513554, -709186.9, 53680.258, 0.0, 10.000335, 9.998702 
2.1050976e+3, 2.3215388e+2, -609248.25, -775694.06, -120160.24, 0.08044711, -0.102663144, -546305.0, 118580.234, 0.0, 10.000854, 9.99856 
2.1051358e+3, 2.4215251e+2, -437036.2, -633263.4, -48832.5, 0.11175035, -0.08975181, -425555.6, 141345.84, 0.0, 10.001247, 9.998727 
2.1051751e+3, 2.5215185e+2, -360234.13, -491821.7, -68974.03, 0.1277731, -0.09176432, -330706.16, 138200.11, 0.0, 10.000924, 9.999152 
2.1052139e+3, 2.621515e+2, -328084.47, -471536.6, -88410.91, 0.089540526, -0.01597302, -285963.63, 84944.19, 0.0, 10.000633, 9.99878 
2.1052514e+3, 2.721507e+2, -232532.88, -354102.13, -120818.09, -0.034340948, -0.021509154, -158070.39, 114844.0, 0.0, 10.000575, 9.998907 
2.1052903e+3, 2.8214842e+2, -263873.97, -551187.06, -105930.766, -0.0025849447, -0.04554234, -229040.92, -54104.22, 0.00000006547354, 10.000678, 9.99684 
2.1053293e+3, 2.9214478e+2, -120446.305, -436015.78, -41158.12, 0.14383763, -0.1100295, -115166.59, -38189.62, 0.000004738257, 10.001055, 9.996752 
2.1053661e+3, 3.021464e+2, 130856.234, 32164.844, 110291.1, -0.12048731, 0.25766632, 202337.38, 202337.38, 0.00002905632, 10.000961, 9.999732 
2.1054101e+3, 3.1214145e+2, 26128.607, 121216.45, -162556.45, 0.16384225, -0.36230478, 243039.06, 243039.06, 0.00007991688, 9.999647, 10.00092 
2.1146788e+3, 1.22119784e+2, -1697909.6, -1488789.6, 228126.44, -0.022482496, 0.22778669, -1342402.5, 400818.28, 0.46656317, 9.998868, 10.003745 
2.1147092e+3, 1.3212089e+2, -1756973.6, -1765056.9, -214068.03, -0.38404638, 0.15413693, -1546909.0, 98303.0, 0.34608045, 9.999472, 9.999358 
2.1147507e+3, 1.4211832e+2, -1478891.4, -1658425.9, -84937.61, 0.03320603, 0.03520965, -1445076.5, 102164.67, 0.21890919, 10.001086, 9.998515 
2.1147895e+3, 1.5211871e+2, -1285372.3, -1309362.9, -48209.46, -0.0032190264, 0.020979181, -1247688.3, 201545.28, 0.110347085, 10.000833, 10.000412 
2.1148272e+3, 1.6211735e+2, -1330345.9, -1382129.3, -59677.72, -0.1450935, -0.11046598, -1291185.3, 60058.387, 0.040102176, 10.000139, 9.999493 
2.114866e+3, 1.7211707e+2, -1281575.0, -1295202.6, -50130.47, -0.095146395, -0.12777513, -1237797.4, 15448.591, 0.008443992, 9.999768, 9.999569 
2.1149048e+3, 1.8211713e+2, -1230745.9, -1260543.3, -55383.586, -0.038203437, -0.05464308, -1188292.0, -33047.55, 0.00052604213, 9.999597, 9.999245 
2.1149436e+3, 1.9211648e+2, -1044250.56, -1085536.3, -24399.783, -0.065499626, -0.09371947, -1032932.9, 24315.627, 0.0000034897541, 10.000113, 9.999487 
2.1149819e+3, 2.0211576e+2, -931745.2, -1035012.25, -53928.0, -0.11732925, -0.091198236, -908717.8, 50536.523, 0.0, 10.00038, 9.999075 
2.1150203e+3, 2.1211503e+2, -848856.4, -923363.4, -64236.32, -0.12509513, -0.113579564, -811852.7, 49410.52, 0.0, 10.000232, 9.999219 
2.1150589e+3, 2.221145e+2, -814166.44, -897481.0, -108645.16, -0.10486379, -0.06340923, -739466.06, 23804.371, 0.0, 9.999952, 9.998864 
2.1150981e+3, 2.3211412e+2, -608297.06, -718844.44, -82817.4, 0.03363003, -0.03729137, -564002.2, 101274.17, 0.0, 10.000608, 9.999071 
2.1151373e+3, 2.4211329e+2, -519358.56, -711378.94, -64550.266, 0.10249385, 0.008913312, -499676.53, 67609.516, 0.0, 10.000854, 9.998371 
2.1151756e+3, 2.521113e+2, -443225.0, -610444.5, -65982.67, 0.04316657, -0.06876663, -420325.1, 48980.918, 0.0, 10.000697, 9.998437 
2.1152142e+3, 2.6210958e+2, -426682.28, -574640.2, -103132.91, 0.008667245, -0.06524294, -373738.88, -2416.334, 0.0, 10.000211, 9.998267 
2.1152534e+3, 2.7210832e+2, -283608.06, -405103.22, -95459.19, 0.094610184, -0.08612392, -231206.52, 42125.88, 0.0, 10.000336, 9.998668 
2.1152925e+3, 2.8210685e+2, -195786.88, -302714.06, -108955.86, 0.10455586, -0.09584557, -127884.35, 47459.914, 0.00000005479561, 10.000219, 9.998767 
2.1153298e+3, 2.921051e+2, -6656.4697, -125444.49, 4351.3745, 0.03439955, -0.2356482, -6497.2856, 70861.22, 0.0000044706885, 10.000713, 9.999056 
2.1153681e+3, 3.0210364e+2, -226163.67, -461626.88, 39732.957, -0.08229506, -0.17240103, -219639.73, -219639.73, 0.000027145721, 9.999974, 9.9967785 
2.1154086e+3, 3.121015e+2, -179386.64, -44328.453, -85956.6, -0.013574274, -0.15682696, -2547.3635, -2547.3635, 0.00007500438, 9.998601, 10.000256 
2.1246774e+3, 1.2207225e+2, -1678078.4, -1314389.3, -121312.52, 0.048731424, -0.4796317, -1277638.0, 466048.9, 0.48543465, 9.997122, 10.006883 
2.1247084e+3, 1.3207959e+2, -1777938.1, -1755583.8, -123210.555, -0.37755933, 0.094231375, -1643044.5, 2572.2856, 0.3637423, 9.999163, 9.999376 
2.1247512e+3, 1.4207767e+2, -1526898.6, -1659434.5, 19071.225, 0.024151023, 0.03468156, -1524208.9, 23430.936, 0.23315269, 10.000504, 9.998768 
2.1247901e+3, 1.5207851e+2, -1380015.0, -1310302.9, -39492.367, 0.027210658, 0.0213802, -1292484.6, 157141.86, 0.1197026, 9.999845, 10.000919 
2.1248272e+3, 1.6207737e+2, -1454522.6, -1440153.0, -50888.176, -0.09151579, -0.123302944, -1395944.9, -44311.453, 0.044803485, 9.999244, 9.999542 
2.1248657e+3, 1.7207691e+2, -1262360.1, -1307759.6, -68034.12, -0.092682816, -0.13772866, -1213338.8, 40299.176, 0.01004214, 9.9999895, 9.999386 
2.1249048e+3, 1.8207693e+2, -1129850.4, -1215967.9, -55702.47, -0.0231208, -0.05761624, -1102504.4, 53133.125, 0.0007722133, 10.000303, 9.999206 
2.1249443e+3, 1.9207624e+2, -1023143.44, -1082893.0, -66026.664, 0.018047754, -0.09830723, -980547.4, 77095.02, 0.000010944595, 10.000268, 9.999442 
2.1249832e+3, 2.020755e+2, -994574.5, -1065634.9, -85364.54, 0.02555968, -0.0896266, -937641.2, 22007.469, 0.0, 9.999973, 9.999043 
2.1250203e+3, 2.1207488e+2, -939196.2, -962417.94, -85222.0, -0.09250062, -0.10404416, -864797.75, -3140.4878, 0.0, 9.999625, 9.999213 
2.1250583e+3, 2.2207437e+2, -847145.3, -876376.8, -30339.115, -0.11370248, -0.06388614, -828084.94, -64420.87, 0.0, 9.999553, 9.999207 
2.1250987e+3, 2.3207416e+2, -611408.3, -663440.5, -18033.11, 0.04110283, -0.06661379, -605769.5, 59896.633, 0.0, 10.00034, 9.999582 
2.1251385e+3, 2.420737e+2, -498482.0, -681707.4, 13461.4, 0.1416627, -0.02545798, -497498.28, 70172.766, 0.0, 10.000941, 9.998524 
2.1251763e+3, 2.5207216e+2, -410781.0, -601692.0, 8135.671, 0.05273974, -0.04890506, -410434.9, 59253.24, 0.0, 10.000973, 9.998364 
2.1252148e+3, 2.6207045e+2, -325995.75, -543466.25, 39142.84, 0.05484802, -0.033715956, -319164.9, 52540.918, 0.0, 10.000991, 9.998096 
2.1252549e+3, 2.7206823e+2, -217492.55, -398688.8, 8757.595, 0.1766262, -0.12021321, -217070.27, 56655.09, 0.0, 10.000929, 9.998415 
2.1252935e+3, 2.8206682e+2, -72967.73, -198700.55, -12072.578, 0.18642898, -0.122975096, -71819.04, 103916.9, 0.000000117451826, 10.000823, 9.999223 
2.1253298e+3, 2.920665e+2, -7878.3296, -47998.723, -79484.28, 0.016399676, -0.17399473, 54038.074, 131771.14, 0.0000050467984, 10.000352, 9.999775 
2.1253696e+3, 3.0206367e+2, -191054.08, -513755.84, 3675.69, 0.08167232, -0.27555466, -191012.22, -191012.22, 0.00002697455, 10.000396, 9.996289 
2.1254104e+3, 3.1206325e+2, 105606.09, 54622.945, -60802.883, 0.22663459, 0.015071036, 146044.88, 146044.88, 0.00007158717, 10.000585, 10.000065 
2.1347095e+3, 1.3203833e+2, -1787199.9, -1777814.6, -43811.203, -0.21326427, 0.0061891843, -1738445.5, -92427.414, 0.38411817, 9.999191, 9.999171 
2.134751e+3, 1.420368e+2, -1471658.8, -1553228.6, -13565.692, -0.120516874, -0.08779796, -1469461.9, 78572.83, 0.24951555, 10.000694, 9.999403 
2.1347891e+3, 1.5203787e+2, -1374013.9, -1324700.8, -58753.895, -0.09283797, -0.07501853, -1285639.4, 164382.22, 0.13052814, 9.999968, 10.000755 
2.1348271e+3, 1.620384e+2, -1442073.8, -1463608.0, -56906.37, -0.08007195, -0.037905507, -1394924.9, -42910.36, 0.050404422, 9.999452, 9.999281 
2.1348657e+3, 1.7203763e+2, -1280735.0, -1354716.6, -28939.95, -0.12016036, -0.052241582, -1270759.4, -16737.014, 0.012084308, 10.000023, 9.999046 
2.1349046e+3, 1.820367e+2, -1136372.6, -1250621.3, -64911.613, -0.13530815, -0.03767996, -1107029.0, 49002.57, 0.001155736, 10.000391, 9.998925 
2.1349451e+3, 1.9203502e+2, -1052909.4, -1132915.3, -57855.047, 0.020483473, -0.14815654, -1022574.2, 35472.996, 0.000030850606, 10.000211, 9.999129 
2.1349844e+3, 2.0203388e+2, -1000980.6, -1026404.5, -111859.26, 0.096839316, -0.1724792, -901113.3, 58944.547, 0.0, 9.999752, 9.999418 
2.1350208e+3, 2.1203446e+2, -928171.4, -879894.4, -85580.82, -0.04105922, -0.126415, -815113.0, 46939.844, 0.0, 9.9993725, 9.999901 
2.1350579e+3, 2.2203489e+2, -868435.0, -820816.7, -23662.385, -0.13677551, -0.062291928, -811058.25, -47009.45, 0.0, 9.999142, 9.999779 
2.1350984e+3, 2.3203409e+2, -617846.0, -616648.2, 27598.473, -0.03616888, -0.17317517, -589642.1, 76412.12, 0.0, 10.000087, 10.000026 
2.1351384e+3, 2.4203363e+2, -529117.75, -653500.25, 6891.6406, 0.018161518, -0.17319341, -528737.06, 39320.555, 0.0, 10.000552, 9.998901 
2.135177e+3, 2.5203407e+2, -417789.22, -561308.1, 22608.031, 0.014410289, -0.041171223, -414312.1, 55743.98, 0.0, 10.000733, 9.998754 
2.1352158e+3, 2.620334e+2, -396897.03, -589726.8, 21242.89, 0.0253681, 0.057904504, -394584.56, -22520.256, 0.0, 10.000576, 9.997971 
2.1352549e+3, 2.7202976e+2, -286690.03, -483606.0, 23017.033, 0.07262403, -0.14481272, -284035.4, -9935.298, 0.00000000014169585, 10.000672, 9.997957 
2.1352927e+3, 2.8202748e+2, -226087.27, -384038.8, -44900.215, -0.0006365067, -0.16053742, -214215.9, -38095.28, 0.000000256191, 10.000291, 9.998183 
2.1353295e+3, 2.9202852e+2, -118319.05, -208145.48, -61777.28, -0.09339096, 0.016265465, -86854.06, -8747.941, 0.0000052967753, 10.000048, 9.9988165 
2.1353696e+3, 3.0202496e+2, -216770.0, -340924.13, -5502.7686, -0.0007235647, -0.16392341, -216526.58, -216526.58, 0.000025200057, 9.999517, 9.997855 
2.1354121e+3, 3.120227e+2, -85266.164, 5683.542, -21695.887, 0.2672966, -0.2730751, 10593.942, 10593.942, 0.00006359548, 9.999218, 10.000329 
2.1447107e+3, 1.319971e+2, -1656124.3, -1627797.8, 56647.918, 0.005563746, -0.08374138, -1583569.4, 62848.66, 0.40760165, 9.999721, 10.0001 
2.1447508e+3, 1.4199647e+2, -1781681.5, -1694507.3, -8634.279, -0.07875054, -0.15977705, -1693660.3, -145237.0, 0.26811564, 9.998312, 9.999574 
2.1447885e+3, 1.519974e+2, -1425750.4, -1384862.4, -75526.96, -0.105969004, -0.13649477, -1327061.4, 123353.086, 0.14296411, 9.999779, 10.000385 
2.1448277e+3, 1.6199835e+2, -1270551.6, -1385397.1, -58250.19, -0.018449627, -0.028619906, -1246179.1, 106226.5, 0.057087187, 10.000726, 9.999201 
2.1448661e+3, 1.719974e+2, -1179865.1, -1294955.6, -37713.25, -0.07608089, -0.068353355, -1168608.1, 85807.2, 0.014719365, 10.00072, 9.999105 
2.144905e+3, 1.819962e+2, -1151179.8, -1258034.8, -38949.066, -0.098392196, -0.081087805, -1138489.8, 17937.61, 0.0017550356, 10.000294, 9.998921 
2.1449453e+3, 1.9199488e+2, -1083060.1, -1141215.4, -38568.063, 0.05439594, -0.16035038, -1063836.5, -5395.779, 0.00008036648, 9.9999895, 9.999168 
2.1449846e+3, 2.0199412e+2, -993969.0, -1008316.25, -41151.777, 0.16527686, -0.15431868, -959370.25, 1078.0757, 0.000000018813253, 9.999733, 9.999559 
2.1450213e+3, 2.1199483e+2, -785821.2, -794334.3, -71761.14, 0.046059385, -0.1138135, -718190.5, 144250.44, 0.0, 10.0002575, 10.000075 
2.1450587e+3, 2.2199517e+2, -683622.75, -748902.56, -27103.01, -0.030434065, -0.062210534, -673837.0, 90599.76, 0.0, 10.00049, 9.999627 
2.1450984e+3, 2.31994e+2, -641295.44, -658692.06, -62421.285, -0.019110497, -0.17761661, -586969.3, 79477.305, 0.0, 10.000078, 9.99974 
2.1451382e+3, 2.419934e+2, -616774.56, -657714.3, -95897.05, 0.0120026255, -0.18424067, -539187.0, 29264.63, 0.0, 9.999776, 9.999254 
2.1451774e+3, 2.5199434e+2, -485835.97, -523094.0, -94958.62, 0.047209118, -0.053773366, -407696.3, 62746.813, 0.0, 9.999955, 9.999392 
2.1452168e+3, 2.6199412e+2, -429978.63, -597347.7, -48393.31, 0.101207815, 0.040340662, -416993.56, -44547.258, 0.0, 10.000277, 9.99808 
2.1452558e+3, 2.719906e+2, -274704.47, -486741.94, -62843.8, 0.11501549, -0.13337164, -257478.25, 17003.34, 0.00000000016893417, 10.000788, 9.997885 
2.145294e+3, 2.819884e+2, -123665.16, -385872.25, -72952.84, 0.07235107, -0.12755677, -104734.516, 71768.336, 0.0000002738674, 10.001165, 9.997765 
2.1453303e+3, 2.919883e+2, 32277.596, -174679.25, -102030.7, -0.06273797, -0.0010001356, 74119.67, 152619.03, 0.0000047479944, 10.001255, 9.99846 
2.1453696e+3, 3.01985e+2, 145052.98, -47235.258, 3246.5183, 0.0013713578, -0.2082503, 145107.78, 145107.78, 0.000021563434, 10.001369, 9.999029 
2.1454136e+3, 3.119843e+2, 26721.563, 14446.567, -224771.61, 0.46773827, -0.26149568, 245439.45, 245439.45, 0.000054127682, 10.000091, 9.999983 
2.1547112e+3, 1.3195534e+2, -1543597.1, -1452326.3, -8069.91, -0.05226685, -0.20471436, -1451618.3, 195203.84, 0.43279883, 10.000025, 10.001978 
2.154749e+3, 1.4195661e+2, -1742766.5, -1701883.0, -42121.07, -0.18059625, -0.20856504, -1675505.4, -126699.19, 0.28823382, 9.998668, 9.999358 
2.1547884e+3, 1.5195718e+2, -1454531.3, -1478370.1, -16489.904, -0.16827826, -0.15965502, -1446103.9, 4700.2104, 0.15688464, 9.999906, 9.999595 
2.1548279e+3, 1.6195713e+2, -1239560.5, -1373084.1, -60158.453, -0.13047498, -0.10544102, -1216454.8, 136352.9, 0.06501248, 10.000979, 9.999161 
2.1548669e+3, 1.71956e+2, -1153543.5, -1243825.5, -39040.727, -0.11496637, -0.18504748, -1139003.0, 115815.7, 0.018139776, 10.000748, 9.999436 
2.1549058e+3, 1.8195525e+2, -1113222.5, -1201473.9, -68495.06, -0.108004145, -0.18780723, -1075870.3, 80956.42, 0.0026903055, 10.000382, 9.999272 
2.1549445e+3, 1.919558e+2, -1060411.1, -1077962.8, -41553.773, -0.031245818, -0.12179809, -1026716.56, 32106.695, 0.00019736934, 9.999924, 9.999632 
2.1549834e+3, 2.0195627e+2, -1027099.2, -1036071.2, -48533.074, 0.023241462, -0.023371616, -982845.2, -22025.18, 0.0000007869328, 9.999552, 9.999457 
2.1550214e+3, 2.1195586e+2, -841638.9, -863240.7, -40571.484, 0.020306747, -0.0633492, -810455.25, 52367.492, 0.0, 10.000048, 9.999707 
2.1550596e+3, 2.2195514e+2, -802320.5, -912470.75, -47732.688, -0.009310745, -0.060178813, -784514.4, -19685.244, 0.0, 10.000131, 9.998676 
2.1550983e+3, 2.3195371e+2, -756872.8, -842934.1, -62600.695, -0.057177864, -0.09270214, -723939.75, -57094.563, 0.0, 9.999833, 9.998593 
2.1551375e+3, 2.4195278e+2, -661841.44, -652175.1, -108179.125, -0.07709787, -0.06702755, -548721.25, 20133.836, 0.0, 9.999364, 9.999483 
2.1551773e+3, 2.5195292e+2, -461890.28, -423312.66, -71776.445, 0.018220574, -0.09043384, -368278.4, 102571.664, 0.0, 9.999736, 10.000183 
2.1552171e+3, 2.6195246e+2, -467958.0, -581827.44, -42158.617, 0.06857166, -0.08461152, -454048.44, -81196.086, 0.0, 9.99988, 9.998372 
2.155257e+3, 2.719505e+2, -306150.28, -490941.06, -24510.215, 0.13403401, -0.11893132, -302954.6, -28081.527, 0.0, 10.000515, 9.997992 
2.1552964e+3, 2.8194878e+2, -211731.97, -423011.0, -81151.15, 0.1482576, -0.07180248, -184160.31, -7270.051, 0.000000100631844, 10.000586, 9.997767 
2.1553318e+3, 2.9194602e+2, -45181.09, -225401.23, -61159.645, -0.08143569, -0.21128683, -26386.031, 52526.707, 0.0000031808167, 10.000789, 9.998331 
2.1553685e+3, 3.0194265e+2, 23884.992, -49313.29, -47546.816, -0.3196153, -0.43924046, 47287.492, 47287.492, 0.000016664693, 10.000367, 9.999462 
2.1554129e+3, 3.1194887e+2, -225193.2, -296859.13, -98764.55, 0.31264597, 0.12903112, -155962.19, -155962.19, 0.000045618737, 9.999214, 9.998251 
2.16471e+3, 1.3191506e+2, -1636596.3, -1510655.4, 18053.129, -0.08071156, -0.22198935, -1508118.6, 139097.47, 0.45757636, 9.999032, 10.001887 
2.1647486e+3, 1.4191565e+2, -1561028.1, -1589669.6, -77698.66, -0.12866831, -0.25675833, -1496341.5, 52864.72, 0.3088363, 9.999913, 9.999599 
2.1647885e+3, 1.519164e+2, -1417788.6, -1461522.9, -21307.313, -0.13081492, -0.20869917, -1409124.3, 42077.855, 0.17204043, 10.000226, 9.99955 
2.1648283e+3, 1.6191643e+2, -1409434.5, -1437231.4, -49230.457, -0.075941205, -0.14289814, -1372178.3, -18973.824, 0.07433442, 9.999629, 9.999378 
2.1648674e+3, 1.7191589e+2, -1303059.9, -1262872.9, -35121.285, -0.05365313, -0.2136712, -1242503.4, 12705.895, 0.022589553, 9.999432, 9.999968 
2.1649063e+3, 1.8191576e+2, -1244953.5, -1223826.4, -10515.394, -0.0289643, -0.1989371, -1219484.8, -62274.027, 0.00413868, 9.999337, 9.999616 
2.1649446e+3, 1.9191672e+2, -964730.25, -1015330.9, -31172.418, -0.037191596, -0.10854919, -949883.0, 109320.76, 0.00045452762, 10.000534, 9.999774 
2.1649832e+3, 2.0191717e+2, -807352.2, -957861.1, -47555.48, -0.004487574, -0.0083816685, -793585.5, 167615.23, 0.000007502901, 10.001162, 9.999218 
2.1650217e+3, 2.1191609e+2, -794599.6, -883197.7, -76380.16, 0.048419785, -0.07748585, -750601.8, 112608.45, 0.0, 10.000556, 9.999319 
2.1650603e+3, 2.2191498e+2, -835105.6, -942442.9, -38699.71, 0.079934, -0.08478977, -822607.9, -57387.164, 0.0, 9.999973, 9.998539 
2.1650986e+3, 2.319137e+2, -724486.44, -835869.6, -4893.843, -0.0014444157, -0.096852615, -724271.8, -57037.215, 0.0, 10.000082, 9.998524 
2.1651377e+3, 2.4191251e+2, -558621.9, -638033.2, 22981.979, -0.018093256, -0.07940105, -552450.44, 16796.082, 0.0, 10.000205, 9.999184 
2.1651775e+3, 2.519116e+2, -410634.2, -429012.44, -44775.43, 0.06322154, -0.1743033, -374114.7, 97137.8, 0.0, 10.000246, 9.999884 
2.1652175e+3, 2.6191095e+2, -386061.75, -504401.94, -40537.445, 0.12125452, -0.18042946, -373507.5, -250.792, 0.0, 10.000267, 9.998723 
2.1652576e+3, 2.7191037e+2, -294501.06, -411897.63, -20890.193, 0.15133591, -0.13185024, -290894.56, -15631.203, 0.0, 10.000288, 9.998641 
2.1652968e+3, 2.8190905e+2, -233514.16, -402078.4, -21225.373, 0.19588986, -0.09876417, -230882.58, -53606.51, 0.0000000029805467, 10.000269, 9.998078 
2.1653327e+3, 2.919057e+2, -140406.73, -251085.22, -37605.64, 0.0032051366, -0.2999826, -128838.46, -49532.76, 0.000001345268, 10.000059, 9.9985 
2.1653698e+3, 3.0190492e+2, 58501.016, -6923.7607, 35063.6, -0.18746969, -0.30934843, 73742.32, 73742.32, 0.000010778314, 10.000478, 9.9997015 
2.165413e+3, 3.1190765e+2, 232589.17, -151887.97, -106450.81, 0.26366442, -0.06953065, 260094.64, 260094.64, 0.00003608632, 10.002697, 9.997567 
2.1747087e+3, 1.3187864e+2, -1794608.9, -1755399.4, -126229.44, -0.20709704, 0.11904458, -1647261.4, 316.3121, 0.48078975, 9.999391, 9.999085 
2.1747492e+3, 1.4187418e+2, -1514746.6, -1570365.1, -29079.527, -0.15310347, -0.3118805, -1502319.4, 47298.89, 0.32934, 10.000338, 9.999479 
2.174789e+3, 1.5187515e+2, -1387469.1, -1412972.6, -16497.717, -0.13049233, -0.26878527, -1379369.4, 72238.57, 0.18832743, 10.000311, 9.999891 
2.1748286e+3, 1.6187611e+2, -1351172.8, -1356740.5, -72232.81, -0.08415437, -0.13933925, -1281670.1, 71927.47, 0.0852701, 9.999811, 9.999863 
2.1748674e+3, 1.7187718e+2, -1231227.8, -1130068.1, -27941.836, -0.047341652, -0.1395895, -1122863.3, 132722.3, 0.028395085, 9.999491, 10.000866 
2.1749057e+3, 1.8187787e+2, -1230723.5, -1214785.8, 3079.659, -0.060703732, -0.10590715, -1214211.4, -56633.34, 0.006367479, 9.999426, 9.99963 
2.1749449e+3, 1.918774e+2, -996826.3, -1068989.4, 24887.291, -0.10782739, -0.1314458, -989075.75, 70508.414, 0.0009868387, 10.000482, 9.999424 
2.1749835e+3, 2.018766e+2, -861654.75, -1034387.0, -65425.36, -0.12977937, -0.11750559, -839671.5, 121921.52, 0.000047582707, 10.000993, 9.998781 
2.1750219e+3, 2.1187542e+2, -855286.3, -955889.5, -92462.43, -0.010523717, -0.15850799, -800328.5, 63276.42, 0.00000000032497088, 10.000321, 9.998936 
2.1750604e+3, 2.2187446e+2, -859786.7, -894802.3, -56467.773, 0.05361133, -0.1422418, -818174.9, -52561.234, 0.0, 9.9995575, 9.9990635 
2.1750991e+3, 2.3187363e+2, -699128.25, -717063.4, 14261.626, 0.0023038154, -0.19963236, -691249.1, -23630.516, 0.0, 9.999808, 9.999464 
2.175138e+3, 2.4187227e+2, -685230.06, -787315.75, 8700.937, -0.03364612, -0.23513214, -684493.75, -114864.02, 0.0, 9.999732, 9.998377 
2.1751778e+3, 2.518701e+2, -557782.1, -670866.0, -28438.021, 0.041348618, -0.3186315, -551033.4, -79380.086, 0.0, 9.999975, 9.998349 
2.1752176e+3, 2.6186925e+2, -435227.47, -492104.44, -53675.367, 0.06129806, -0.25180954, -402922.3, -29259.555, 0.0, 9.999803, 9.999019 
2.1752566e+3, 2.718701e+2, -264372.53, -276843.56, 204.58037, 0.02094667, -0.16035719, -264369.2, 11284.348, 0.0, 9.999998, 9.999697 
2.1752954e+3, 2.8186896e+2, -280706.28, -371749.88, -45260.3, -0.026098682, -0.19417407, -262035.17, -84371.37, 0.0, 9.9997425, 9.9985285 
2.1753328e+3, 2.9186666e+2, -179739.05, -260441.89, -28001.041, -0.040269442, -0.33040014, -170975.34, -91289.46, 0.00000028754212, 9.999751, 9.99858 
2.175373e+3, 3.0186975e+2, -89491.74, -127650.03, 59083.41, 0.02954389, 0.08264185, -46483.34, -46483.34, 0.0000061263827, 9.999746, 9.999187 
2.1754149e+3, 3.1186408e+2, 74291.18, -192470.64, 118556.96, 0.08027022, -0.51228213, 119365.37, 119365.37, 0.000027574106, 10.00151, 9.997833 
2.18475e+3, 1.4183542e+2, -1771464.8, -1745085.9, 61445.88, 0.021723477, -0.20597798, -1695429.9, -145429.36, 0.34983045, 9.998545, 9.999111 
2.1847902e+3, 1.5183578e+2, -1332815.4, -1382281.0, -39614.938, -0.040117655, -0.18040709, -1310846.4, 141147.45, 0.2059314, 10.00075, 9.999977 
2.1848279e+3, 1.6183549e+2, -1403974.3, -1381254.9, -71529.45, -0.091744356, -0.19017395, -1320188.8, 33805.227, 0.09816949, 9.999458, 9.999846 
2.1848674e+3, 1.718367e+2, -1187194.9, -1132771.9, -119407.86, -0.0074359574, -0.15330441, -1037514.2, 218466.77, 0.036017943, 9.999976, 10.000598 
2.1849057e+3, 1.8183725e+2, -1134576.0, -1176496.6, -127439.375, -0.014067158, -0.113116175, -1026384.7, 131589.98, 0.009796201, 10.000073, 9.999601 
2.1849449e+3, 1.918363e+2, -1183019.8, -1145625.3, -99032.71, -0.063651726, -0.20002912, -1063540.3, -3556.5754, 0.0020521113, 9.999098, 9.99957 
2.184984e+3, 2.0183535e+2, -1221144.5, -1195105.4, -100975.52, -0.043073203, -0.21861133, -1106313.5, -144320.45, 0.00020967671, 9.99849, 9.998882 
2.1850227e+3, 2.1183448e+2, -858677.6, -954353.8, -123478.54, 0.041630097, -0.22957368, -774094.3, 89908.195, 0.00000086887735, 10.000291, 9.998966 
2.185061e+3, 2.218337e+2, -575509.25, -750588.75, -76606.5, 0.10006755, -0.19580466, -546722.94, 219286.94, 0.0, 10.0014515, 9.999154 
2.1850994e+3, 2.3183303e+2, -581106.75, -638270.7, -97454.89, 0.03090056, -0.24941392, -508128.97, 159884.06, 0.0, 10.000531, 9.999656 
2.1851379e+3, 2.418319e+2, -655591.9, -755694.1, -66001.17, 0.0051199524, -0.28116378, -622810.2, -52788.32, 0.0, 9.999848, 9.998542 
2.1851783e+3, 2.5182998e+2, -477270.63, -619705.3, -15655.642, 0.06917164, -0.34670335, -475570.16, -3526.9775, 0.0, 10.000454, 9.998478 
2.1852183e+3, 2.6182956e+2, -290584.63, -413792.0, 34770.434, 0.12692925, -0.2583796, -281449.38, 92600.28, 0.0, 10.00073, 9.999126 
2.1852568e+3, 2.718305e+2, -251989.0, -263880.25, -16366.818, 0.06338522, -0.15298733, -240521.31, 35518.32, 0.0, 10.00004, 9.999778 
2.1852954e+3, 2.818295e+2, -239799.34, -319366.06, -55333.836, 0.020289827, -0.19682977, -211431.78, -33382.58, 0.0, 9.9998455, 9.9988575 
2.185334e+3, 2.918269e+2, 52725.965, -131258.19, -69576.77, 0.047473308, -0.38065013, 76074.555, 156150.08, 0.000000027227998, 10.001243, 9.998766 
2.1853757e+3, 3.0183044e+2, 236029.47, -38936.18, 56837.93, 0.23662415, 0.09763051, 247315.17, 247315.17, 0.0000044959556, 10.002187, 9.998667 
2.1854155e+3, 3.1182456e+2, 87581.336, 17715.879, -49973.684, 0.082448825, -0.4496707, 113621.266, 113621.266, 0.000025056477, 10.000582, 9.999797 
2.1947493e+3, 1.4179723e+2, -1673451.1, -1567590.1, 129741.6, -0.022680638, 0.04824813, -1480397.4, 69976.01, 0.371045, 9.998684, 10.000441 
2.1947917e+3, 1.5179774e+2, -1306865.3, -1353324.9, -64917.21, -0.019985586, 0.06564356, -1261146.8, 191218.4, 0.22535217, 10.000914, 10.000174 
2.1948257e+3, 1.6179445e+2, -1412012.9, -1432274.3, -109812.03, -0.33467597, -0.28593746, -1311865.3, 42529.656, 0.113554515, 9.999628, 9.999414 
2.194867e+3, 1.7179403e+2, -1301161.5, -1369080.5, -91946.79, -0.07290749, -0.26111022, -1237103.4, 19296.455, 0.046104282, 9.999979, 9.998942 
2.1949057e+3, 1.8179336e+2, -1116657.5, -1154800.1, -159174.58, -0.08369624, -0.2399716, -975415.8, 182990.52, 0.015073848, 10.000146, 9.9997225 
2.1949443e+3, 1.9179343e+2, -1133448.3, -1024798.7, -134828.06, -0.04502283, -0.29586157, -933762.6, 126639.84, 0.004138987, 9.99903, 10.000435 
2.1949837e+3, 2.0179348e+2, -1213189.6, -1134417.1, -85827.28, 0.032107323, -0.28826988, -1079370.4, -116970.75, 0.00072646124, 9.998306, 9.999385 
2.1950231e+3, 2.1179302e+2, -875257.4, -924159.0, -41565.164, 0.050393775, -0.29494807, -851484.7, 12920.427, 0.000022642807, 10.000021, 9.999295 
2.195062e+3, 2.2179255e+2, -659386.1, -825413.6, -94359.41, 0.017270971, -0.2458737, -616721.75, 149689.02, 0.000000000011542125, 10.001023, 9.998845 
2.1950991e+3, 2.3179181e+2, -655653.6, -737750.94, -123347.766, -0.06286233, -0.2559433, -566703.6, 101714.72, 0.0, 10.000292, 9.999085 
2.1951367e+3, 2.417913e+2, -660329.7, -654619.8, -75968.79, -0.12397309, -0.2191202, -581452.4, -11029.064, 0.0, 9.999388, 9.999451 
2.195178e+3, 2.5179115e+2, -403207.75, -406985.63, 23642.773, -0.0074616093, -0.26315752, -381378.6, 91045.34, 0.0, 10.000199, 10.00006 
2.1952188e+3, 2.617913e+2, -382691.13, -481636.1, 5123.243, 0.08352418, -0.21148026, -382426.56, -8004.388, 0.0, 10.000222, 9.998888 
2.1952575e+3, 2.7179107e+2, -367781.13, -427718.47, -26087.908, 0.10152314, -0.14102119, -358016.94, -81591.09, 0.0, 9.999734, 9.998782 
2.1952961e+3, 2.8178996e+2, -310017.25, -349257.66, -41649.86, 0.07205203, -0.13996536, -283597.66, -105158.82, 0.0, 9.999378, 9.998865 
2.1953356e+3, 2.917867e+2, 4120.471, -131414.34, 14691.811, 0.08650106, -0.41687217, 5694.76, 86166.22, 0.000000020729713, 10.000822, 9.99896 
2.1953769e+3, 3.0178675e+2, 46509.617, -210268.94, 26363.18, 0.07937361, -0.24401447, 49188.35, 49188.35, 0.0000055230016, 10.001285, 9.9978895 
2.1954148e+3, 3.117866e+2, 18381.238, 167213.11, -86429.875, -0.10962753, -0.19017793, 206849.16, 206849.16, 0.000029811183, 9.999424, 10.001329 
2.2047475e+3, 1.4175245e+2, -1574546.0, -1507687.9, 161573.53, -0.053368956, -0.30404782, -1376121.5, 174687.95, 0.39437363, 9.999467, 10.000734 
2.204792e+3, 1.5175658e+2, -1630844.1, -1448646.4, -145720.5, 0.070567705, 0.091296226, -1367892.1, 84875.37, 0.24751917, 9.998176, 10.000781 
2.2048254e+3, 1.617533e+2, -1404793.4, -1385787.1, -143292.75, -0.28598925, -0.32838657, -1251682.8, 103115.23, 0.13222682, 9.999474, 9.999875 
2.2048672e+3, 1.7175306e+2, -1242656.5, -1357507.9, -22812.09, -0.044210754, -0.28324428, -1238291.4, 18509.303, 0.059555795, 10.000378, 9.998874 
2.204907e+3, 1.8175265e+2, -1057228.8, -1135024.1, -18320.777, 0.02189813, -0.23153526, -1053130.1, 105674.555, 0.023171267, 10.000589, 9.999655 
2.2049443e+3, 1.9175254e+2, -927347.6, -945813.8, -104759.6, -0.0039679455, -0.291553, -831415.0, 229387.98, 0.008108057, 10.000532, 10.000283 
2.2049826e+3, 2.0175257e+2, -921898.1, -955710.6, -55254.125, 0.045081113, -0.28332856, -881021.7, 81778.4, 0.0021629941, 10.000136, 9.999737 
2.2050236e+3, 2.1175261e+2, -896150.1, -869691.75, -4962.0347, 0.12267321, -0.2956151, -868791.75, -3992.8489, 0.00023583506, 9.9995775, 9.999891 
2.2050634e+3, 2.2175233e+2, -914571.6, -933803.3, -29261.805, 0.1571064, -0.27095553, -893386.2, -126584.55, 0.0000019906881, 9.999206, 9.998983 
2.2050996e+3, 2.3175156e+2, -734328.3, -794020.2, -72252.76, 0.0021275992, -0.27415818, -685999.8, -17188.135, 0.0, 9.999818, 9.998943 
2.2051367e+3, 2.4175113e+2, -528821.7, -560416.3, 12910.0, -0.07926521, -0.22528446, -524217.44, 46600.06, 0.0, 10.000144, 9.999742 
2.205178e+3, 2.5175187e+2, -462788.47, -363828.13, 9041.208, 0.014146471, -0.22949032, -363008.9, 109799.77, 0.0, 9.999539, 10.000653 
2.2052185e+3, 2.6175234e+2, -510353.44, -540212.94, -18607.664, 0.10454217, -0.18597655, -501426.47, -126623.125, 0.0, 9.999314, 9.998933 
2.2052573e+3, 2.717512e+2, -232806.23, -398205.1, -19842.307, 0.079085924, -0.19030139, -230459.14, 46357.605, 0.0, 10.000764, 9.998509 
2.2052966e+3, 2.817502e+2, -4580.104, -201055.36, 13115.275, 0.091506355, -0.15876037, -3708.489, 175119.92, 0.0, 10.001469, 9.998876 
2.2053367e+3, 2.91748e+2, -114847.22, -176353.89, -16970.41, 0.14599885, -0.32398129, -110475.6, -29623.0, 0.00000007580395, 9.999958, 9.999071 
2.2053769e+3, 3.0174696e+2, -276944.2, -362016.25, 85789.42, 0.10494249, -0.27954116, -223724.6, -223724.6, 0.0000083740215, 9.998995, 9.997985 
2.2054167e+3, 3.1174886e+2, 261487.89, 358693.38, -106607.445, 0.10756604, 0.0010176097, 427254.5, 427254.5, 0.000042885644, 10.000711, 10.002034 
2.2147493e+3, 1.4170568e+2, -1603718.5, -1592182.9, 67279.54, 0.038011797, -0.7833741, -1530424.4, 20839.605, 0.4221777, 9.999497, 9.999734 
2.2147906e+3, 1.5171163e+2, -1579302.6, -1359970.8, -65336.566, 0.07565086, -0.13872208, -1341982.9, 111224.9, 0.27423543, 9.998155, 10.001533 
2.2148271e+3, 1.6171172e+2, -1275869.5, -1176849.5, -110788.37, -0.14542778, -0.31315055, -1105011.8, 250194.98, 0.15564767, 9.999688, 10.001365 
2.2148676e+3, 1.7171393e+2, -1124526.4, -1106166.8, 10164.876, -0.07178325, -0.20787665, -1101650.1, 155532.88, 0.07778218, 10.000398, 10.000664 
2.2149087e+3, 1.8171528e+2, -1076039.6, -1185387.4, -30918.355, 0.08812693, -0.08013631, -1067902.9, 91265.27, 0.035576556, 10.000643, 9.999284 
2.2149444e+3, 1.9171362e+2, -1034201.5, -1137914.8, -98897.46, -0.081487104, -0.18144564, -974389.75, 86795.586, 0.0154146915, 10.000415, 9.99901 
2.2149807e+3, 2.0171249e+2, -938108.3, -946721.8, -82816.96, -0.20921461, -0.21313848, -859486.2, 103709.84, 0.005714695, 9.9999485, 9.999889 
2.2150232e+3, 2.1171314e+2, -865933.94, -756613.06, -14845.822, 0.098149955, -0.24146318, -754632.9, 110552.32, 0.0013616167, 9.99936, 10.00077 
2.2150642e+3, 2.2171332e+2, -953982.8, -913490.4, -36488.83, 0.2875778, -0.23979978, -892007.2, -124826.95, 0.00013056793, 9.99877, 9.999331 
2.2151004e+3, 2.3171204e+2, -764030.7, -790197.6, -32950.23, 0.07828648, -0.3138627, -741661.44, -72465.664, 0.0000045921656, 9.999534, 9.999106 
2.2151372e+3, 2.4171123e+2, -632832.8, -648341.75, -18129.76, -0.08658292, -0.29844233, -620868.75, -49662.387, 0.000000030624218, 9.9996195, 9.99938 
2.2151774e+3, 2.51712e+2, -544175.7, -459978.75, -3633.9497, -0.009846651, -0.25150302, -459822.22, 13377.213, 0.0, 9.999244, 10.000127 
2.215217e+3, 2.6171228e+2, -566074.7, -546069.94, -7166.0093, -0.011640756, -0.1967944, -543767.9, -168570.53, 0.0, 9.998865, 9.999101 
2.2152561e+3, 2.7171075e+2, -247860.2, -343817.28, 51856.676, -0.14564772, -0.29222128, -225191.34, 52021.414, 0.0, 10.000416, 9.999039 
2.2152959e+3, 2.8171024e+2, -125128.14, -297113.75, -30267.281, -0.17763978, -0.23402311, -119956.97, 59262.453, 0.0, 10.0008335, 9.998506 
2.2153357e+3, 2.9171014e+2, -195346.16, -261128.78, -55150.59, 0.045745105, -0.14277938, -164023.56, -82798.34, 0.00000027397763, 9.999625, 9.998636 
2.215375e+3, 3.0171016e+2, -298344.0, -264405.06, 87290.81, -0.023422914, -0.024344996, -192449.56, -192449.56, 0.000015050563, 9.998437, 9.998893 
2.2154179e+3, 3.1170988e+2, 16216.69, 141482.94, 138420.6, 0.087415054, -0.069674954, 230781.28, 230781.28, 0.00007034586, 9.999529, 10.0010805 
2.2247493e+3, 1.4167511e+2, -1386388.5, -1814678.0, -370431.44, -0.16208291, 0.45789558, -1172657.8, 378905.34, 0.45833316, 10.004138, 9.996397 
2.2247899e+3, 1.5166993e+2, -1300509.1, -1284822.5, 52143.914, 0.08191246, -0.28326505, -1239935.3, 213681.6, 0.30885017, 10.000753, 10.001016 
2.2248282e+3, 1.6167168e+2, -1324480.9, -1236171.8, -36147.504, 0.032388553, -0.21688932, -1223262.6, 132337.27, 0.18666483, 9.999435, 10.001044 
2.2248676e+3, 1.7167382e+2, -1247300.1, -1086589.1, -37703.105, -0.01641407, -0.17704444, -1078183.5, 179392.28, 0.103338934, 9.999125, 10.001447 
2.2249089e+3, 1.816754e+2, -1351976.6, -1294656.9, -89068.35, 0.16243096, -0.08851763, -1229751.0, -70192.88, 0.054786276, 9.998596, 9.999529 
2.2249448e+3, 1.9167382e+2, -1120308.6, -1174074.6, -82887.75, -0.025759025, -0.18942335, -1060053.4, 1520.9979, 0.028543482, 9.999765, 9.999068 
2.2249815e+3, 2.0167254e+2, -863115.2, -947987.0, -3640.0198, -0.15532212, -0.23367766, -862959.4, 100627.43, 0.013685946, 10.000626, 9.999559 
2.2250232e+3, 2.116728e+2, -734523.5, -756340.44, -74406.0, 0.12177777, -0.24624784, -670230.6, 195351.06, 0.005262215, 10.000545, 10.000213 
2.225064e+3, 2.2167283e+2, -721781.44, -778031.75, -129110.28, 0.3302466, -0.22674991, -617768.44, 149810.92, 0.001420654, 10.000229, 9.99957 
2.2251001e+3, 2.3167224e+2, -726812.4, -694972.94, -113340.79, 0.11367533, -0.2918095, -596439.3, 73147.43, 0.0002619265, 9.999426, 9.999823 
2.2251368e+3, 2.4167193e+2, -727924.1, -687650.94, -25697.195, -0.033748593, -0.27496973, -675140.5, -103549.055, 0.000035642544, 9.99893, 9.999447 
2.2251774e+3, 2.5167245e+2, -437112.7, -438417.78, -6397.088, 0.04479817, -0.23499058, -431334.97, 42252.46, 0.0000011567587, 10.000061, 9.999906 
2.2252175e+3, 2.616725e+2, -279380.2, -387049.34, 29656.354, 0.07167043, -0.19188789, -271752.1, 103835.45, 0.0, 10.000737, 9.999299 
2.2252564e+3, 2.7167135e+2, -256872.8, -290269.13, 36182.11, -0.12671596, -0.27988493, -233721.58, 43876.188, 0.0, 10.000152, 9.999528 
2.2252959e+3, 2.8167114e+2, -285250.63, -373224.28, -21630.766, -0.18203895, -0.224364, -280219.8, -100619.516, 0.0, 9.999702, 9.998551 
2.225336e+3, 2.9167077e+2, 20603.225, -172597.44, -59901.156, 0.027108721, -0.1366304, 37668.07, 119277.51, 0.00000073017384, 10.001179, 9.998497 
2.2253762e+3, 3.016713e+2, 244591.7, -9340.522, 78127.625, 0.073553614, 0.02458551, 266703.8, 266703.8, 0.00002755439, 10.002165, 9.998878 
2.2254175e+3, 3.1166747e+2, 107011.92, 129631.05, -76925.59, 0.060061153, -0.3014633, 196074.0, 196074.0, 0.000118261974, 10.000321, 10.000669 
2.2347893e+3, 1.5163243e+2, -1438563.4, -1518971.9, -45398.277, -0.07936744, -0.23424251, -1418126.3, 35859.45, 0.35698506, 10.000481, 9.998982 
2.2348283e+3, 1.6163257e+2, -1488975.9, -1569097.1, -84632.14, -0.001910815, -0.09291383, -1435401.9, -79418.42, 0.23053116, 9.999446, 9.998567 
2.2348669e+3, 1.7163241e+2, -1288916.8, -1145533.6, -50791.12, -0.028432809, -0.21310629, -1129365.0, 128617.6, 0.14104874, 9.999018, 10.001083 
2.2349066e+3, 1.8163276e+2, -1301308.1, -1179395.0, -83797.39, 0.012458931, -0.26973644, -1136728.6, 23248.063, 0.08532412, 9.998553, 10.00035 
2.2349453e+3, 1.91633e+2, -1040408.44, -980809.4, -26024.285, 0.02028784, -0.31516957, -971045.4, 90925.78, 0.05187056, 9.999639, 10.00049 
2.2349839e+3, 2.0163286e+2, -959745.4, -1091648.8, -9247.428, -0.010484467, -0.3109628, -959100.2, 4870.7637, 0.030293982, 10.000375, 9.998692 
2.2350232e+3, 2.1163142e+2, -907270.56, -1058903.0, -71446.08, 0.057071682, -0.31417215, -878910.75, -12920.921, 0.015773455, 10.000297, 9.998249 
2.235062e+3, 2.2163068e+2, -786681.06, -793907.75, -162337.13, 0.084828466, -0.24474111, -627917.06, 140083.83, 0.0069356123, 9.999734, 9.999692 
2.2350982e+3, 2.3163214e+2, -671862.94, -522922.16, -128213.87, -0.04925768, -0.22002043, -449120.4, 220864.55, 0.002541045, 9.999178, 10.001118 
2.2351348e+3, 2.4163328e+2, -775688.4, -672909.9, -24404.713, -0.15322281, -0.15039888, -667409.4, -95437.23, 0.00075579167, 9.998458, 9.999765 
2.2351775e+3, 2.5163323e+2, -482594.0, -454744.5, 53171.49, 0.02058416, -0.18619178, -413704.66, 60267.914, 0.00014769337, 9.999731, 9.999945 
2.2352187e+3, 2.6163298e+2, -380566.97, -445646.8, -564.9609, 0.10511559, -0.16725343, -380562.06, -4587.539, 0.000007045108, 10.0001135, 9.99918 
2.2352576e+3, 2.7163273e+2, -298976.53, -302082.66, 20261.238, -0.04756652, -0.17675653, -280208.9, -2233.9692, 0.00000000065814787, 9.999832, 9.999588 
2.2352959e+3, 2.8163236e+2, -360669.38, -385933.66, -29977.006, -0.18944699, -0.15915848, -340771.66, -160794.06, 0.0, 9.999134, 9.998712 
2.235336e+3, 2.9162988e+2, -79037.234, -233897.48, 18112.16, -0.118610226, -0.2976409, -76947.08, 5057.998, 0.0000012574419, 10.000597, 9.99833 
2.2353785e+3, 3.0162987e+2, -27458.668, -326450.72, 20131.73, 0.037292086, -0.10075836, -26109.25, -26109.25, 0.000044073433, 10.001157, 9.997159 
2.235416e+3, 3.1162488e+2, -125021.39, -31381.443, -50770.984, -0.16493793, -0.3738242, -9137.658, -9137.658, 0.00018419352, 9.999047, 10.000141 
2.2447897e+3, 1.5159124e+2, -1622561.3, -1639448.5, -196455.94, -0.076389864, -0.40395647, -1434367.5, 20021.11, 0.42759266, 9.9992285, 9.998652 
2.2448288e+3, 1.6159354e+2, -1291486.0, -1416135.8, 46804.54, 0.078070305, -0.12543863, -1275868.3, 80494.945, 0.29616648, 10.000792, 9.999007 
2.244867e+3, 1.715929e+2, -1225472.8, -1204157.4, 21058.193, 0.042030703, -0.23514639, -1191213.5, 67154.46, 0.19952731, 9.999908, 10.000222 
2.2449058e+3, 1.8159227e+2, -1260195.9, -1173693.8, 21526.652, 0.09448257, -0.3232965, -1168632.8, -8260.122, 0.13536815, 9.998908, 10.000195 
2.244946e+3, 1.9159311e+2, -909994.56, -902029.5, -10147.88, 0.0942703, -0.32665074, -895110.6, 167250.92, 0.09319166, 10.000532, 10.000695 
2.2449856e+3, 2.0159367e+2, -793809.3, -995098.0, -55248.137, 0.09727813, -0.2715018, -779642.4, 184712.6, 0.06306426, 10.001492, 9.998851 
2.2450241e+3, 2.1159238e+2, -946024.0, -1065673.9, -40296.83, 0.15086296, -0.26518938, -933718.1, -67345.44, 0.0400799, 9.999956, 9.998384 
2.245062e+3, 2.2159159e+2, -896264.06, -842208.25, 31236.182, 0.1706245, -0.20727256, -827929.9, -59545.926, 0.023131557, 9.998922, 9.999771 
2.2450984e+3, 2.3159309e+2, -573175.94, -473981.72, -40388.496, 0.038148865, -0.18665431, -459617.1, 210750.14, 0.011994159, 9.999837, 10.001166 
2.2451355e+3, 2.4159384e+2, -482161.9, -581000.6, 8310.178, -0.02330813, -0.13784505, -481468.1, 90889.8, 0.0054928027, 10.000616, 9.999392 
2.2451778e+3, 2.515928e+2, -461745.38, -489499.03, 23956.402, 0.075118475, -0.22702849, -447936.9, 26431.45, 0.002050329, 10.00004, 9.999576 
2.2452188e+3, 2.6159188e+2, -516717.78, -556794.8, -28840.05, 0.14405839, -0.22726746, -501638.06, -125260.94, 0.0004876709, 9.9993515, 9.998797 
2.2452578e+3, 2.715916e+2, -209590.5, -286278.3, -45341.39, -0.009447594, -0.20763505, -188553.45, 89824.43, 0.000047167257, 10.000545, 9.999369 
2.2452964e+3, 2.815912e+2, -74239.445, -225327.64, -100620.37, -0.11727114, -0.19532274, -23960.773, 156419.84, 0.00000034188096, 10.000984, 9.998936 
2.2453369e+3, 2.9158843e+2, -47546.08, -205889.69, -85242.3, -0.054601476, -0.36156124, -10380.335, 72028.375, 0.0000013302117, 10.0007105, 9.998496 
2.2453801e+3, 3.015881e+2, -199564.56, -429166.1, -8402.682, 0.17846765, -0.22171438, -199257.47, -199257.47, 0.0000584347, 9.999992, 9.9970255 
2.245417e+3, 3.11585e+2, 46725.77, 184373.72, -109794.59, 0.006313487, -0.25055936, 245132.13, 245132.13, 0.00025945, 9.99955, 10.001383 
2.2548287e+3, 1.6155557e+2, -1230198.4, -1193552.1, 26638.533, -0.12686232, -0.21995541, -1179543.4, 177185.58, 0.39765337, 10.000411, 10.001406 
2.2548677e+3, 1.7155512e+2, -1316434.8, -1389981.1, -32134.258, 0.040175363, -0.25056675, -1304372.6, -45639.12, 0.29298013, 9.999873, 9.998852 
2.2549064e+3, 1.815538e+2, -1413772.6, -1418436.1, -5541.188, 0.1755072, -0.26077816, -1410092.5, -249345.22, 0.21888196, 9.998601, 9.998645 
2.2549462e+3, 1.9155371e+2, -1029036.4, -1075743.9, 51377.813, 0.033224124, -0.24912791, -995953.6, 66796.49, 0.16615056, 10.000231, 9.999537 
2.254986e+3, 2.0155461e+2, -789884.5, -882340.2, -78274.49, -0.07568222, -0.13553265, -745206.3, 219536.17, 0.12546477, 10.001125, 9.999852 
2.2550252e+3, 2.1155538e+2, -840614.06, -781382.94, -86516.22, 0.2180541, -0.12972184, -719553.75, 147179.2, 0.0914258, 9.999693, 10.000506 
2.255063e+3, 2.2155553e+2, -995956.0, -925822.8, 23577.305, 0.34425473, -0.11244749, -918633.56, -149903.98, 0.062582165, 9.998396, 9.999448 
2.2551003e+3, 2.3155485e+2, -709721.7, -688759.94, 11860.542, 0.23958401, -0.19521779, -683412.94, -12677.088, 0.039919913, 9.99953, 9.999821 
2.2551377e+3, 2.4155347e+2, -684279.2, -812185.75, -18056.781, 0.1136897, -0.22174549, -681778.94, -109028.94, 0.023601582, 9.999835, 9.998163 
2.2551775e+3, 2.5155124e+2, -570077.2, -620482.94, 6367.155, 0.040638138, -0.3586192, -569285.3, -94511.12, 0.012405956, 9.999663, 9.998837 
2.2552165e+3, 2.6154926e+2, -668324.56, -726397.7, -44475.953, -0.04089936, -0.3745506, -644245.9, -267450.28, 0.005154125, 9.998766, 9.9979 
2.2552568e+3, 2.7154818e+2, -323583.88, -393532.97, 16805.342, -0.18819009, -0.3918532, -319755.84, -40950.53, 0.0013586987, 10.000021, 9.998866 
2.2552964e+3, 2.8154773e+2, -227039.56, -328814.7, -136498.02, -0.2513758, -0.33906817, -132251.97, 48557.09, 0.00015517221, 10.000115, 9.998619 
2.2553386e+3, 2.9154676e+2, -108829.46, -195204.11, -71958.2, 0.01608781, -0.32930452, -68093.445, 14723.68, 0.0000026982873, 10.000194, 9.998777 
2.2553802e+3, 3.01546e+2, -248850.58, -352131.97, -69098.78, 0.110411294, -0.2960667, -214227.72, -214227.72, 0.000065484004, 9.999292, 9.997863 
2.2554162e+3, 3.115442e+2, 28671.201, 404975.78, 87682.586, -0.08670747, -0.28440732, 424403.66, 424403.66, 0.00034262822, 9.998522, 10.003378 
2.2648712e+3, 1.7151333e+2, -1213624.3, -1354798.9, -387334.94, 0.3541929, -0.18889083, -890497.3, 368653.28, 0.44342524, 10.000892, 9.999625 
2.2649026e+3, 1.8151553e+2, -1373760.9, -1395469.6, -49386.402, -0.110474125, -0.1798046, -1334050.1, -172924.33, 0.3585124, 9.998631, 9.998841 
2.2649436e+3, 1.9151491e+2, -1332696.9, -1141026.1, 138129.48, -0.11904792, -0.22778559, -1068742.0, -5611.6675, 0.29413474, 9.99772, 10.000213 
2.2649845e+3, 2.015146e+2, -1183751.5, -1015131.44, 79922.61, -0.13929132, -0.32031935, -983270.0, -18138.518, 0.24160613, 9.997848, 10.000509 
2.2650205e+3, 2.1151534e+2, -1058853.8, -880675.1, -111295.82, -0.10760157, -0.3265004, -827203.4, 39917.68, 0.1940874, 9.998062, 10.000651 
2.2650583e+3, 2.2151561e+2, -924773.25, -958884.1, -21926.363, 0.01473727, -0.28776154, -914050.06, -144933.81, 0.14888066, 9.999113, 9.998902 
2.2650984e+3, 2.3151423e+2, -699463.94, -797197.56, -43286.46, 0.08802783, -0.32579413, -683049.2, -11917.215, 0.108788945, 10.000098, 9.998809 
2.2651379e+3, 2.415124e+2, -571702.7, -789065.06, -24655.178, 0.118560255, -0.31908888, -568941.2, 4211.344, 0.07581198, 10.00065, 9.997955 
2.2651784e+3, 2.5151178e+2, -347331.0, -542379.1, 3391.4282, 0.11382357, -0.2794733, -347272.06, 127888.945, 0.048806984, 10.001247, 9.998685 
2.2652173e+3, 2.6151046e+2, -282903.63, -591780.6, 16744.121, 0.05296697, -0.18848221, -281998.6, 95177.016, 0.026684597, 10.001549, 9.99753 
2.2652583e+3, 2.7150828e+2, -130964.586, -333624.25, 64493.805, -0.09578785, -0.2898115, -112181.195, 167016.06, 0.010897145, 10.001395, 9.99867 
2.2652976e+3, 2.8150702e+2, -282193.38, -347412.0, -61290.44, -0.07092389, -0.29734418, -245377.3, -64168.703, 0.002788968, 9.999646, 9.998753 
2.2653408e+3, 2.9150644e+2, 132370.36, -28141.482, 43523.1, 0.15172315, -0.2698411, 143412.16, 226623.11, 0.0003034348, 10.001652, 9.999234 
2.2653809e+3, 3.015044e+2, 223434.77, -194607.45, -1248.3079, 0.11481363, -0.42153332, 223438.5, 223438.5, 0.000074942734, 10.002876, 9.997243 
2.265418e+3, 3.1150225e+2, 343637.03, 230389.4, -92823.68, 0.05118089, -0.15129392, 395744.5, 395744.5, 0.00045627946, 10.001933, 10.000657 
2.2749856e+3, 2.0147704e+2, -923401.75, -1075984.9, 167106.69, 0.09540647, -0.42808592, -815995.06, 149493.58, 0.4526298, 10.001106, 9.9987 
2.2750205e+3, 2.114768e+2, -741134.0, -918535.4, -113255.57, 0.06353959, -0.38525918, -685978.4, 181513.92, 0.38963944, 10.001883, 9.998539 
2.2750606e+3, 2.2147594e+2, -910729.2, -1138549.8, -224632.23, 0.24499127, -0.30185154, -772776.06, -3272.1802, 0.32267725, 10.000061, 9.9971485 
2.2750972e+3, 2.3147121e+2, -970594.1, -1008223.9, -59423.035, -0.058306545, -0.61178464, -927078.44, -255522.89, 0.25840095, 9.998636, 9.997985 
2.2751358e+3, 2.4146923e+2, -834120.6, -970910.0, -338.6496, -0.27700552, -0.5530561, -834119.75, -260540.47, 0.20062341, 9.999117, 9.997412 
2.2751807e+3, 2.5147384e+2, -459475.8, -554766.8, 44699.605, 0.14605741, -0.07747357, -441790.25, 33744.023, 0.14660953, 10.000332, 9.998989 
2.2752209e+3, 2.6147553e+2, -642692.5, -886828.25, -24597.17, 0.18013084, 0.34838495, -640239.0, -262721.53, 0.09444842, 9.999629, 9.996383 
2.275262e+3, 2.7147228e+2, -226797.42, -376173.72, 52100.65, 0.0947674, 0.12168844, -210420.78, 69128.44, 0.04983968, 10.000779, 9.998623 
2.2753e+3, 2.814695e+2, -462695.9, -454354.97, -147538.56, 0.13527332, -0.028800828, -310927.94, -129352.03, 0.019500945, 9.998563, 9.998502 
2.2753417e+3, 2.914674e+2, 30868.424, -39000.926, 132457.23, 0.08542567, -0.230734, 132920.42, 216511.8, 0.004786881, 10.000857, 9.999506 
2.2753808e+3, 3.0146298e+2, -187908.95, -685579.8, -95023.43, -0.22940451, -0.58508426, -170382.73, -170382.73, 0.0007184054, 10.001436, 9.994506 
2.275419e+3, 3.1146026e+2, -483171.84, -985024.6, 13326.953, -0.09798025, 0.022101134, -482818.2, -482818.2, 0.0007782504, 10.000007, 9.993129 
2.2851379e+3, 2.4143235e+2, -310491.97, -442829.6, 165391.9, -0.2694997, -0.017039202, -198523.78, 375427.4, 0.45869297, 10.001989, 10.001034 
2.2851875e+3, 2.5143707e+2, -530699.44, -578913.7, -417259.78, 0.8230834, 0.65336, -136850.98, 339050.8, 0.36361384, 10.000184, 9.999678 
2.2852102e+3, 2.61416e+2, -974787.75, -779109.56, -123635.555, -0.73195237, -1.3745353, -719283.75, -341178.5, 0.26167566, 9.995905, 9.999017 
2.285261e+3, 2.714237e+2, 187184.88, -60332.375, 114612.78, -0.17949593, -0.61870354, 232104.3, 512132.25, 0.1640845, 10.003565, 9.999875 
2.2853017e+3, 2.8142768e+2, 362141.7, -86851.45, -185272.53, 0.16524404, -0.11803632, 428720.06, 610707.56, 0.0825175, 10.004599, 9.998253 
2.2853436e+3, 2.9142603e+2, 396221.7, 39708.613, 95007.99, 0.044201426, -0.19095945, 419959.97, 503962.0, 0.030766662, 10.003669, 9.998834 
2.2853862e+3, 3.0142525e+2, 260077.9, 5018.741, -127363.695, 0.15427032, -0.2824157, 312785.13, 312785.13, 0.009050815, 10.002247, 9.998964 
2.285417e+3, 3.1142256e+2, -336344.97, -102102.125, 222789.8, -0.15470852, -0.21846136, 32476.121, 32476.121, 0.003969087, 9.997458, 10.000407 
2.2952692e+3, 2.713917e+2, -420255.03, -126382.28, -218714.94, 0.27396643, 0.42808518, -9829.52, 270517.53, 0.43463832, 9.997642, 10.002871 
2.295303e+3, 2.8138137e+2, -1158291.6, -1377976.0, -533639.7, -0.2828194, -0.6142866, -723306.6, -540861.56, 0.25422186, 9.996288, 9.993225 
2.2953455e+3, 2.9138598e+2, 23614.475, -329634.0, 176087.86, -0.22388378, -0.14841545, 96395.63, 180801.05, 0.121933416, 10.002145, 9.99686 
2.2953962e+3, 3.013946e+2, -421857.4, 70230.016, -285679.28, 0.7506208, 0.7783679, 201214.38, 201214.38, 0.054396372, 9.996044, 10.002305 
2.2954148e+3, 3.1138822e+2, 349724.38, 2124299.8, -214087.78, -0.33120996, -1.2583011, 2149762.3, 2149762.3, 0.032218616, 9.994196, 10.017538 
2.3053548e+3, 2.9135764e+2, -1064095.8, -134283.19, -290526.88, 0.5174355, 0.21083604, -50970.797, 33704.223, 0.36407098, 9.990667, 10.00446 
2.3053907e+3, 3.0135244e+2, 505062.0, 89353.39, 446575.53, -0.5830167, -1.2397004, 789785.75, 789785.75, 0.2193976, 10.004812, 9.998791 
2.3054203e+3, 3.113639e+2, -254513.48, -1675347.6, -21918.57, 0.073193364, 0.6826788, -254175.44, -254175.44, 0.17314337, 10.004002, 9.987339 
2.3435916e+3, 2.866267e+2, -4546080.5, -1057606.6, -1138554.3, 0.29474494, -0.32188502, -718896.56, -587861.06, 0.47759944, 9.964345, 10.009918 
2.3578462e+3, 1.771027e+2, -1140156.6, -688762.94, 7716.927, -1.0017933, 0.21036643, -688631.06, 515749.4, 0.4366036, 9.996059, 10.007454 
2.3574746e+3, 1.8710372e+2, -1560565.8, -1725414.8, -541784.94, -0.033015147, 0.95561063, -1094971.4, 11403.499, 0.37773496, 9.998208, 9.995803 
2.357096e+3, 1.9709027e+2, -958706.94, -1514927.5, -207548.73, 0.71496296, 0.50210124, -889798.75, 118715.914, 0.3336375, 10.002319, 9.994753 
2.3567031e+3, 2.0706898e+2, -584764.25, -857644.56, -99335.96, -0.17001046, -0.5815078, -552433.7, 358294.13, 0.30109847, 10.00338, 9.998014 
2.3563227e+3, 2.1706614e+2, -1168913.6, -1345256.5, 438608.97, 0.49536237, -0.049663235, -809701.56, 3058.367, 0.27833992, 9.998023, 9.996806 
2.3559333e+3, 2.2706413e+2, -165871.0, -542659.6, 230689.58, 0.3307085, 0.71134955, -56422.906, 658356.2, 0.2613125, 10.004741, 9.998745 
2.355542e+3, 2.370475e+2, -759368.75, -699690.5, 64664.426, -0.09637105, -0.28959176, -658312.6, -41374.605, 0.24582523, 9.997878, 10.000048 
2.3551619e+3, 2.4704264e+2, -584652.06, -220016.66, 159824.28, 0.629065, -0.2659837, -159881.19, 359099.0, 0.23021871, 9.997121, 10.00343 
2.354771e+3, 2.570392e+2, -1537807.1, -880233.4, 66181.016, 0.16359347, -0.23237196, -873638.75, -452629.66, 0.2101854, 9.990832, 10.000845 
2.3543727e+3, 2.67035e+2, 271815.44, 111014.2, -45425.887, -0.15145862, -0.05235669, 283760.75, 606807.8, 0.17675984, 10.003159, 10.001686 
2.3539872e+3, 2.7702773e+2, 785795.44, -412396.88, 342531.97, -0.028390653, 0.060463727, 876803.9, 1101919.4, 0.13593432, 10.010463, 9.993307 
2.353602e+3, 2.8701657e+2, 2096812.4, 1127456.6, 52267.895, 0.39108905, -0.07661925, 2099622.5, 2226849.5, 0.12710194, 10.015928, 10.00175 
2.3532304e+3, 2.970088e+2, 613025.9, 677861.4, 516356.34, 0.94894147, -0.9414793, 1162816.6, 1192124.4, 0.18606232, 10.002928, 10.004543 
2.3528469e+3, 3.0701575e+2, -510209.3, 46813.24, -275879.84, -0.75815564, 0.27525446, 160320.11, 160320.11, 0.3103225, 9.9957285, 10.003052 
2.3686142e+3, 1.5750672e+2, -1439651.4, -1627911.3, -228994.03, -0.14176722, -0.025948606, -1286195.5, 110208.78, 0.40917975, 9.999959, 9.998036 
2.368234e+3, 1.6748674e+2, -1032715.4, -1760055.8, 50491.17, 0.2912012, -0.83441395, -1029227.06, 269381.28, 0.3191439, 10.004975, 9.993751 
2.3678572e+3, 1.7747161e+2, -1027005.75, -1775103.8, 108341.055, 0.6531615, -1.0964129, -1011631.5, 189133.53, 0.25440213, 10.003806, 9.993733 
2.3674719e+3, 1.8746388e+2, -745710.56, -813783.25, 58239.22, 0.47741887, -0.8882648, -712291.2, 390556.16, 0.20803183, 10.002, 10.000892 
2.367084e+3, 1.9746432e+2, -942888.8, -959437.0, 17503.48, 0.1858676, -0.24021052, -931802.3, 73046.53, 0.17323136, 9.999685, 10.000025 
2.366694e+3, 2.0746037e+2, -793883.7, -665958.06, -48683.9, -0.32864955, 0.0166553, -649538.3, 257347.95, 0.14628568, 9.999416, 10.001587 
2.3663063e+3, 2.1745476e+2, -651478.3, -700279.44, -201758.02, -0.39752552, -0.020935914, -472650.72, 336286.44, 0.12553912, 10.000307, 10.000234 
2.3659231e+3, 2.2744927e+2, -545254.6, -741220.0, -143505.67, 0.03474625, 0.2268501, -469471.7, 241518.0, 0.108313076, 10.001116, 9.998702 
2.3655383e+3, 2.3744142e+2, -470728.9, -679912.8, -94492.29, 0.40087312, 0.30167502, -434366.0, 178700.6, 0.092006706, 10.000883, 9.998624 
2.3651455e+3, 2.4743721e+2, -102735.43, 222833.73, -159122.6, 0.10660444, 0.374057, 287686.63, 802792.06, 0.07587349, 9.999965, 10.004936 
2.3647554e+3, 2.5743225e+2, -528681.44, -480539.5, -119490.12, -0.14689767, 0.2707981, -382719.94, 34430.258, 0.059167173, 9.998624, 9.999678 
2.3643696e+3, 2.6742208e+2, -7953.552, -16596.674, -107036.945, 0.052689236, -0.055003904, 94849.04, 414100.9, 0.040480368, 10.001036, 10.000996 
2.3639926e+3, 2.7740914e+2, -130550.9, -618871.3, 133343.28, 0.46165815, -0.64845806, -96512.195, 124871.26, 0.022792807, 10.002226, 9.995493 
2.3636033e+3, 2.874056e+2, 183934.08, -293661.97, -124723.836, 0.23635635, 0.089941196, 214543.8, 337964.63, 0.018050173, 10.003361, 9.996387 
2.3632136e+3, 2.9740897e+2, -271732.78, -164801.44, 323324.25, -0.2705831, 1.0283923, 109447.945, 134837.02, 0.038628355, 9.99835, 9.999484 
2.3628406e+3, 3.0738974e+2, -397199.47, 478355.88, -93913.52, -0.035831094, -0.4859447, 488315.88, 488315.88, 0.08555076, 9.994601, 10.00584 
2.3790029e+3, 1.4788315e+2, -1675487.0, -1380015.0, -129682.31, 0.5915231, -0.5202385, -1331171.8, 159561.78, 0.38968346, 9.997218, 10.001951 
2.3786072e+3, 1.5788557e+2, -1396951.5, -1505751.4, -197109.64, -0.36001393, 0.09121632, -1246872.8, 145831.81, 0.27836236, 10.000162, 9.998752 
2.3782256e+3, 1.678769e+2, -1193096.8, -1371499.5, 112342.76, -0.3058539, 0.11091708, -1138848.6, 155940.89, 0.19862524, 10.001183, 9.998227 
2.3778479e+3, 1.7786726e+2, -1279231.6, -1555158.6, 104016.75, -0.054006033, -0.06744215, -1244413.8, -47527.574, 0.1461588, 10.000296, 9.996848 
2.3774628e+3, 1.8785979e+2, -1053913.6, -1070495.4, -10679.225, -0.0029096818, 0.06396401, -1048684.8, 50277.89, 0.11113541, 9.999997, 9.999539 
2.3770773e+3, 1.9785182e+2, -1334654.5, -1323445.1, -43461.297, 0.14382418, -0.034614373, -1285228.6, -284184.53, 0.08556882, 9.997829, 9.9983225 
2.3766944e+3, 2.0784432e+2, -1122389.9, -1038406.4, -12930.379, 0.38011506, 0.030297522, -1036460.7, -133342.75, 0.065839775, 9.998236, 9.999256 
2.3763078e+3, 2.1783587e+2, -1122734.0, -1117352.4, -130677.96, 0.31044152, -0.07785283, -989337.5, -184137.75, 0.050802168, 9.997913, 9.998336 
2.3759186e+3, 2.2782743e+2, -675874.06, -457187.06, -144832.19, 0.10846003, -0.2768339, -385057.78, 322220.8, 0.03888462, 9.998748, 10.001743 
2.3755315e+3, 2.3781896e+2, -839978.4, -753855.1, -140479.11, 0.17756374, -0.553423, -649985.9, -40628.754, 0.028499532, 9.997987, 9.999466 
2.375141e+3, 2.47815e+2, -434776.22, -199981.56, -263180.78, 0.2365501, -0.35414037, -29201.418, 482194.78, 0.019239584, 9.998942, 10.002062 
2.3747525e+3, 2.5781074e+2, -849879.25, -799041.0, -171216.25, 0.2537435, -0.18360272, -651367.25, -237927.44, 0.01143259, 9.99732, 9.998062 
2.3743658e+3, 2.678045e+2, -182261.94, -243786.73, -136601.42, 0.17823511, -0.011831496, -73001.93, 242501.94, 0.005417436, 10.000613, 9.999484 
2.373983e+3, 2.777959e+2, -243064.17, -548602.94, -33056.99, -0.072424784, -0.1405862, -239528.58, -21937.01, 0.0017240121, 10.000936, 9.996622 
2.3735961e+3, 2.87786e+2, 228760.67, -56729.82, -257733.03, -0.09849766, -0.16779652, 380638.1, 500327.2, 0.0009965353, 10.002682, 9.998396 
2.3732153e+3, 2.97783e+2, -274060.5, -328871.56, 137943.33, 0.25823447, 0.07395772, -160826.69, -139108.5, 0.0037784507, 9.998948, 9.998138 
2.3728366e+3, 3.0776975e+2, 39291.74, 134577.9, 70677.35, -0.18742533, -0.25728375, 172170.69, 172170.69, 0.011109928, 10.000057, 10.000688 
2.3893733e+3, 1.3828085e+2, -1816956.0, -2062372.3, 295342.97, -0.23144948, 0.3266793, -1619844.3, -35011.918, 0.4278291, 9.999555, 9.996095 
2.3889926e+3, 1.4826764e+2, -1203696.8, -1124439.9, -46173.34, 0.2089752, -0.34453353, -1103221.0, 383744.1, 0.29985446, 10.000938, 10.0025015 
2.3886035e+3, 1.582665e+2, -1140678.3, -1260156.3, -60123.35, -0.20374222, 0.008064537, -1115661.4, 273313.7, 0.19614406, 10.001337, 10.000052 
2.38822e+3, 1.6826028e+2, -1263199.0, -1239063.1, 34092.563, -0.23109818, 0.09441268, -1214965.6, 76067.945, 0.12585048, 9.999486, 10.000104 
2.3878388e+3, 1.7825246e+2, -1645011.8, -1511190.3, 32978.477, -0.111932896, -0.012772384, -1503504.5, -310396.47, 0.083471425, 9.9967, 9.998944 
2.3874547e+3, 1.8824442e+2, -1287540.1, -1165472.9, -32202.541, 0.006736605, -0.039035767, -1157498.4, -62309.387, 0.057587944, 9.998192, 9.999777 
2.38707e+3, 1.9823565e+2, -892133.06, -1037644.1, -18165.646, 0.13762249, -0.18729383, -889899.56, 107378.37, 0.03970386, 10.000407, 9.999088 
2.386686e+3, 2.0822854e+2, -691710.8, -705087.7, 82319.914, 0.2941317, -0.19086152, -615808.06, 283536.4, 0.026570952, 10.000508, 10.000559 
2.3863015e+3, 2.1822144e+2, -748041.3, -812625.8, 156843.3, 0.42077777, -0.21648465, -620200.44, 181209.81, 0.017417854, 9.999885, 9.999505 
2.3859125e+3, 2.2821328e+2, -633863.94, -506348.88, 24791.97, 0.30360445, -0.34478313, -501698.3, 201792.95, 0.011141793, 9.999367, 10.001064 
2.3855235e+3, 2.3820405e+2, -689316.6, -693773.3, -95289.914, 0.18704921, -0.5933729, -596229.0, 9354.472, 0.0065593217, 9.999084, 9.999311 
2.3851338e+3, 2.481981e+2, -200681.03, -240628.02, -174815.78, 0.23158154, -0.4959222, -44701.4, 462940.4, 0.0032030866, 10.00115, 10.00069 
2.3847468e+3, 2.58193e+2, -124557.71, -490023.5, 17478.63, 0.35963312, -0.2735322, -123723.69, 285968.8, 0.0011282732, 10.002448, 9.997679 
2.384361e+3, 2.6818675e+2, -55276.492, -339997.34, 77883.21, 0.23640634, 0.020253027, -35364.66, 276392.03, 0.00023273825, 10.002106, 9.99812 
2.383977e+3, 2.7817878e+2, -313335.7, -463924.72, 80625.61, -0.052348036, 0.07133825, -278313.6, -64475.496, 0.000018977813, 9.9998255, 9.997737 
2.3835912e+3, 2.8816676e+2, 165969.77, 69340.69, -142939.63, -0.061920628, -0.3248039, 268539.4, 384495.28, 0.000039610317, 10.001541, 9.999778 
2.3832126e+3, 2.9816025e+2, -64223.945, -434933.34, 87415.38, 0.72320896, -0.36200592, -44644.965, -26626.338, 0.00031053094, 10.001214, 9.996281 
2.3828305e+3, 3.0815175e+2, -526871.2, -363583.16, -103135.39, 0.06816993, 0.025530227, -313687.63, -313687.63, 0.0010092406, 9.997323, 9.998358 
2.3997612e+3, 1.2865642e+2, -1224415.6, -1179145.9, -9594.744, 0.22562644, -0.5874425, -1177196.3, 501946.97, 0.49043852, 10.003857, 10.003775 
2.3993708e+3, 1.3865802e+2, -1549618.3, -1501578.8, -74070.39, 0.051079545, -0.29880852, -1447730.9, 133398.39, 0.36336115, 9.999628, 10.000439 
2.398986e+3, 1.4865312e+2, -1395653.6, -1301410.5, 30453.387, 0.17081898, -0.18960926, -1292426.3, 190756.39, 0.24041095, 9.999892, 10.000919 
2.3986009e+3, 1.5864691e+2, -1440660.8, -1455219.6, -36786.54, 0.13824736, -0.2480871, -1410440.4, -25191.496, 0.14389461, 9.999376, 9.999301 
2.3982154e+3, 1.6864093e+2, -1216170.4, -1069918.6, -723.5341, 0.05375912, -0.21236326, -1069915.0, 217388.31, 0.08188297, 9.999368, 10.001331 
2.3978299e+3, 1.7863372e+2, -1535027.0, -1431333.1, -9640.048, 0.015651328, -0.35428563, -1430444.5, -241076.3, 0.047678713, 9.997439, 9.99915 
2.397446e+3, 1.8862662e+2, -1299546.1, -1143700.1, 61177.246, 0.046121333, -0.3230878, -1122554.3, -31114.406, 0.028905774, 9.998127, 9.999906 
2.3970622e+3, 1.9861999e+2, -1192956.8, -1119234.1, 15744.363, 0.06717989, -0.29644346, -1116012.5, -122504.54, 0.017015342, 9.998243, 9.999534 
2.396677e+3, 2.0861481e+2, -717486.6, -364881.9, 40471.684, 0.10206208, -0.3393995, -360296.22, 535253.4, 0.00915297, 9.998987, 10.003563 
2.396292e+3, 2.1860944e+2, -1033290.8, -925037.94, 77321.33, 0.2533234, -0.4516162, -884780.75, -87188.984, 0.0045936005, 9.997996, 9.999621 
2.3959038e+3, 2.2860347e+2, -994081.06, -1048022.9, -23271.945, 0.2395644, -0.16798076, -985428.75, -285766.53, 0.0022051786, 9.998599, 9.997662 
2.3955144e+3, 2.3859583e+2, -1070724.6, -1144796.3, -104302.59, 0.105326906, 0.036475312, -997077.6, -395324.78, 0.0009056362, 9.997733, 9.996868 
2.3951258e+3, 2.4858856e+2, -262979.25, -191894.52, -117740.03, 0.05413289, 0.019895313, -104449.18, 399372.16, 0.00023937336, 10.00061, 10.001168 
2.3947395e+3, 2.5858074e+2, -335296.97, -665789.9, 12680.692, 0.05702131, -0.09313757, -334811.16, 71080.2, 0.000025130046, 10.001402, 9.996989 
2.3943567e+3, 2.685705e+2, -136697.39, -503987.38, 29618.434, 0.2586252, -0.087898545, -134324.28, 173669.73, 0.00000030344088, 10.002175, 9.996935 
2.3939751e+3, 2.785603e+2, -439934.72, -550182.94, 34649.035, 0.36470187, -0.2156976, -429949.53, -219850.92, 0.0000000068303647, 9.999121, 9.997512 
2.3935877e+3, 2.8855306e+2, 159209.27, 125945.42, -9739.22, 0.07012291, -0.1815773, 161850.98, 274022.88, 0.0000039429096, 10.00136, 10.000215 
2.3932022e+3, 2.985493e+2, -184290.48, -610227.94, 113247.61, -0.18866959, 0.14930648, -156052.45, -141842.36, 0.00006190627, 10.000953, 9.995188 
2.3928237e+3, 3.0853593e+2, -346529.1, -74076.53, 65651.45, -0.028069552, -0.065256454, -59082.066, -59082.066, 0.0002690841, 9.997486, 10.000277 
2.4097544e+3, 1.2904797e+2, -1316698.8, -1325952.5, -99772.38, -0.21823908, -0.3174925, -1221446.0, 453869.47, 0.44510007, 10.00265, 10.002428 
2.4093655e+3, 1.3904496e+2, -1453710.9, -1488578.9, -97713.33, 0.09220063, -0.1976103, -1371888.4, 205459.44, 0.31930807, 10.000438, 10.000289 
2.4089788e+3, 1.4904085e+2, -1318499.9, -1240160.0, 29880.46, 0.07615498, -0.012926724, -1230064.1, 249326.67, 0.20041417, 10.000236, 10.001287 
2.4085923e+3, 1.5903477e+2, -1332902.6, -1376903.3, 77255.086, -0.07540962, -0.04281811, -1274576.3, 106876.484, 0.110025235, 9.999939, 9.999634 
2.408209e+3, 1.6902678e+2, -935143.06, -1043554.56, 51952.44, 0.030446455, -0.13471319, -914266.75, 369260.34, 0.054970514, 10.001816, 10.000352 
2.4078254e+3, 1.790183e+2, -718497.56, -1015059.94, -53592.88, 0.12977737, -0.29579112, -709109.8, 476494.97, 0.027314784, 10.002897, 9.999443 
2.4074388e+3, 1.8901227e+2, -910491.56, -900952.4, -44357.883, 0.05796867, -0.21874492, -861108.4, 226555.78, 0.013986388, 10.000434, 10.000551 
2.407052e+3, 1.9900648e+2, -1294395.3, -1064192.5, -7621.847, -0.05654002, -0.14057386, -1063940.4, -74218.52, 0.006556314, 9.996993, 10.00054 
2.4066685e+3, 2.090009e+2, -899215.75, -472240.78, -69107.95, 0.13233642, -0.24184842, -461333.94, 430435.53, 0.002469395, 9.997809, 10.003388 
2.406285e+3, 2.1899515e+2, -766636.94, -777630.3, -154269.66, 0.33191776, -0.36678708, -617766.06, 176052.0, 0.00078321603, 9.999572, 9.999915 
2.405896e+3, 2.2898889e+2, -647579.4, -931117.4, -167641.25, 0.18796673, -0.12774414, -569798.75, 126091.05, 0.00023610769, 10.000949, 9.997428 
2.4055065e+3, 2.3898178e+2, -441129.6, -816403.5, -50793.84, -0.008622605, 0.15279096, -434376.1, 163597.47, 0.000047296035, 10.001741, 9.997237 
2.4051197e+3, 2.4897383e+2, -190234.69, -209479.55, -91202.68, 0.049564607, 0.09806376, -108148.23, 391899.75, 0.0000020598873, 10.001294, 10.00075 
2.4047348e+3, 2.5896513e+2, -440101.06, -611425.7, -19338.227, 0.16833727, -0.08005053, -437945.38, -35819.59, 0.0, 10.000163, 9.997957 
2.4043523e+3, 2.6895446e+2, -271585.8, -521977.38, 59394.8, 0.37058172, -0.1767082, -258211.31, 46020.055, 0.0, 10.001027, 9.9973755 
2.4039707e+3, 2.7894413e+2, -114156.61, -325382.0, 118259.69, 0.5714136, -0.3111661, -61215.227, 145120.5, 0.0, 10.000945, 9.998191 
2.4035823e+3, 2.8893885e+2, 144855.06, 120904.29, 78525.32, 0.12239708, -0.113048114, 212312.89, 320703.0, 0.00000028208012, 10.001127, 10.000343 
2.403195e+3, 2.9893693e+2, -343415.9, -578349.7, 203039.9, -0.27554756, 0.4227737, -226311.56, -215900.33, 0.000017512673, 9.999278, 9.996243 
2.4028191e+3, 3.0891898e+2, 37771.62, 216050.33, -96302.35, 0.3287811, -0.3401995, 258135.86, 258135.86, 0.0001005609, 9.9996195, 10.001315 
2.4197471e+3, 1.2943982e+2, -2055969.5, -1782491.8, -213542.0, -0.34064397, 0.16746835, -1665660.8, 5823.4116, 0.41411307, 9.996691, 10.000132 
2.4193597e+3, 1.3943258e+2, -1551688.9, -1742413.1, -167997.31, 0.21075532, 0.00897864, -1453874.9, 119685.96, 0.28877336, 10.0006485, 9.998206 
2.4189712e+3, 1.4942878e+2, -1178290.1, -1089426.1, 23329.857, 0.02498421, 0.19824827, -1083673.6, 391924.3, 0.17287979, 10.000943, 10.002136 
2.4185832e+3, 1.5942425e+2, -1444533.5, -1559422.4, 38690.758, -0.28361574, 0.27242035, -1432718.8, -55077.64, 0.08747846, 9.999651, 9.998544 
2.418203e+3, 1.6941425e+2, -1162771.9, -1311044.1, 105626.055, -0.006498986, 0.10021185, -1107861.4, 171874.77, 0.038149297, 10.000958, 9.998761 
2.417823e+3, 1.7940412e+2, -1090494.1, -1292191.0, -56198.33, 0.33789524, -0.10118789, -1075892.8, 105939.37, 0.01570925, 10.000824, 9.998439 
2.417432e+3, 1.893989e+2, -961593.0, -817634.8, -162366.11, 0.11322434, -0.0066790297, -712008.3, 371873.22, 0.0064830934, 9.999693, 10.001401 
2.4170412e+3, 1.9939385e+2, -1465242.1, -1256648.1, -78944.07, -0.104592495, 0.07851175, -1230139.8, -244210.19, 0.0021827125, 9.996398, 9.999481 
2.4166596e+3, 2.0938654e+2, -1084907.0, -816051.0, -817.7021, 0.21775588, -0.026960155, -816048.5, 71953.336, 0.00044835047, 9.99768, 10.001046 
2.4162793e+3, 2.1937875e+2, -1086251.6, -1048178.1, -104237.37, 0.5449117, -0.17528494, -961253.44, -171174.92, 0.000068581576, 9.998033, 9.998767 
2.4158892e+3, 2.2937159e+2, -612878.6, -629891.5, -133225.17, 0.15011257, -0.16794208, -487888.63, 204260.8, 0.0000096515805, 10.000219, 9.999726 
2.4154991e+3, 2.3936398e+2, -669530.0, -887212.2, -80219.26, -0.23041818, -0.15668586, -643161.94, -48936.36, 0.00000040342232, 10.000197, 9.997455 
2.4151145e+3, 2.4935573e+2, -364716.94, -443840.78, -137291.86, 0.13871638, -0.17485283, -261400.61, 234904.33, 0.0, 10.000853, 9.999296 
2.4147317e+3, 2.593473e+2, -659036.7, -748575.25, -68696.08, 0.5271399, -0.24029398, -621809.4, -223424.27, 0.0, 9.9988985, 9.997638 
2.4143462e+3, 2.6933992e+2, -227943.08, -251019.9, 88219.64, 0.3733966, -0.18599032, -150510.5, 149945.2, 0.0, 10.000386, 9.999473 
2.4139607e+3, 2.7933225e+2, -312963.4, -450743.38, 123684.93, 0.08877603, -0.19985917, -240277.3, -37747.992, 0.0, 9.999801, 9.997881 
2.4135749e+3, 2.8932393e+2, 52667.824, 68433.7, 82813.805, -0.049615428, -0.2742052, 143738.9, 248349.06, 0.0000000009564638, 10.000692, 10.000118 
2.4131931e+3, 2.9931778e+2, -535102.56, -617085.7, 231895.42, -0.027593175, -0.19175056, -340603.6, -333932.72, 0.0000015325257, 9.997871, 9.996641 
2.4128108e+3, 3.0930918e+2, 7553.916, 64330.367, -43972.836, -0.0901646, -0.13726692, 88282.39, 88282.39, 0.000021924814, 9.999949, 10.000159 
2.4297363e+3, 1.2982376e+2, -2413930.3, -1800239.1, 127454.945, -0.20843711, -0.14270894, -1774821.3, -107103.37, 0.3927152, 9.993422, 10.001656 
2.429355e+3, 1.3981883e+2, -1170467.8, -1452063.5, 66248.04, 0.08022147, -0.087976925, -1155660.8, 414106.16, 0.26710206, 10.003559, 9.999043 
2.4289663e+3, 1.4981256e+2, -958775.56, -1195982.4, -45858.22, -0.081971474, 0.012811782, -950218.7, 521613.2, 0.15331793, 10.003649, 9.999999 
2.4285774e+3, 1.59806e+2, -1221107.3, -1424771.5, -61151.707, -0.303335, 0.08492465, -1204156.8, 169741.8, 0.07196278, 10.001061, 9.998831 
2.4281965e+3, 1.6979842e+2, -1156209.4, -1166949.3, 79216.59, -0.020180989, 0.046997152, -1082180.9, 193788.97, 0.027363949, 10.000323, 10.000082 
2.4278156e+3, 1.7979008e+2, -1227448.0, -1280853.4, 10315.016, 0.2582352, -0.064568356, -1225525.0, -47476.773, 0.009079448, 9.9994335, 9.999177 
2.4274252e+3, 1.8978259e+2, -951271.9, -902038.7, -162788.47, 0.1518964, -0.13976404, -762016.06, 318104.84, 0.002868925, 10.000055, 10.000672 
2.4270344e+3, 1.9977579e+2, -861229.75, -945709.1, -95489.05, 0.0009947834, -0.15535805, -799055.1, 183132.69, 0.00059867656, 10.000308, 9.999766 
2.4266516e+3, 2.0977098e+2, -776450.7, -699267.2, 64102.45, 0.21382496, 0.00043784862, -663036.2, 221203.73, 0.000045539302, 9.999744, 10.00095 
2.4262702e+3, 2.1976563e+2, -908209.4, -874766.25, 81560.98, 0.42918202, 0.12606794, -808230.4, -21933.477, 0.0000022398012, 9.9987545, 9.999622 
2.4258818e+3, 2.297572e+2, -690080.9, -584214.25, 7961.6284, 0.15248704, -0.041520733, -583618.9, 104758.016, 0.000000052409952, 9.999292, 10.00052 
2.4254934e+3, 2.3974839e+2, -619283.25, -707107.25, -34952.957, -0.1272137, -0.21454996, -607070.6, -16610.867, 0.0, 9.999803, 9.998876 
2.4251084e+3, 2.4974036e+2, -450739.16, -501723.3, -62579.824, 0.18382967, -0.22907479, -408658.44, 83878.63, 0.0, 10.000211, 9.999267 
2.4247248e+3, 2.597325e+2, -366148.34, -489446.6, 94794.625, 0.55922514, -0.21130155, -314719.44, 79893.516, 0.0, 10.000235, 9.998791 
2.4243398e+3, 2.6972604e+2, 12008.604, -57028.41, 158987.67, 0.32464966, -0.13975884, 140181.86, 436855.0, 0.0, 10.001538, 10.000303 
2.4239546e+3, 2.797196e+2, 84430.72, -172830.05, 93575.07, 0.044689853, -0.08322077, 114866.58, 313599.63, 0.0, 10.002016, 9.998749 
2.4235699e+3, 2.8970987e+2, 165835.25, 69499.0, -280.53696, 0.01947714, -0.28476295, 165836.08, 266663.03, 0.0, 10.001507, 9.999835 
2.4231882e+3, 2.9970124e+2, -258658.03, -359295.97, 136289.27, 0.22488134, -0.4451714, -163695.33, -160783.58, 0.000000086511356, 9.999051, 9.997901 
2.4228057e+3, 3.0969927e+2, -206908.9, -78406.44, -395220.16, 0.1407747, 0.2383149, 257751.1, 257751.1, 0.0000026170453, 9.998383, 10.00006 
2.440109e+3, 1.2021409e+2, -2140523.8, -1480017.1, -622226.94, -0.08099877, -0.010898478, -1105832.0, 656064.7, 0.4945755, 9.994533, 10.007174 
2.4397266e+3, 1.3020664e+2, -1740702.3, -1456879.8, 341423.9, -0.007362599, -0.49603721, -1229049.1, 434911.75, 0.3775347, 9.998248, 10.002907 
2.4393511e+3, 1.402046e+2, -1507366.1, -1714830.5, 108325.71, 0.072308265, -0.21871682, -1461115.5, 104860.555, 0.25111946, 10.000982, 9.998169 
2.4389619e+3, 1.5019545e+2, -1364574.6, -1686496.5, -163872.23, -0.094636254, -0.20689239, -1295834.6, 172238.16, 0.13882844, 10.00184, 9.997107 
2.4385728e+3, 1.6018602e+2, -1423808.3, -1590644.4, -122459.67, -0.14577323, -0.1946212, -1359054.3, 11117.654, 0.060861234, 10.00001, 9.998143 
2.43819e+3, 1.7018147e+2, -1104067.1, -909955.2, 21371.922, 0.015995672, -0.106464855, -907630.0, 364582.7, 0.02025213, 9.999757, 10.002101 
2.4378072e+3, 1.8017614e+2, -1408337.9, -1387750.0, -63963.28, 0.19328287, -0.0780444, -1333257.6, -158997.03, 0.0052852775, 9.998376, 9.998966 
2.4374184e+3, 1.9016542e+2, -1146064.4, -1150123.9, -166454.03, 0.2173242, -0.38883528, -981627.7, 94739.055, 0.0012089658, 9.999487, 9.999221 
2.4370298e+3, 2.001559e+2, -1093220.6, -1106058.0, -94739.42, 0.25517467, -0.56080014, -1004682.7, -26219.686, 0.00012403581, 9.999115, 9.999198 
2.4366435e+3, 2.1015611e+2, -776449.1, -544976.44, 19573.875, 0.16990027, -0.01468918, -543332.94, 337134.88, 0.000001917801, 9.999275, 10.002112 
2.4362588e+3, 2.2015561e+2, -1126196.9, -1030959.7, 46943.754, 0.13055246, 0.5050357, -1011710.9, -229232.02, 0.000000018702426, 9.997627, 9.999037 
2.435874e+3, 2.3014536e+2, -785305.0, -702332.56, 23788.082, 0.1668032, 0.19333303, -695996.4, -11419.251, 0.0, 9.998996, 9.999796 
2.4354887e+3, 2.4013437e+2, -847888.2, -849713.8, -43076.605, 0.16994381, -0.16597357, -805714.75, -219033.2, 0.0, 9.998477, 9.998525 
2.4351004e+3, 2.501282e+2, -449305.5, -358502.75, -61493.74, 0.102325894, -0.09642687, -327466.16, 161272.61, 0.0, 9.999766, 10.000408 
2.4347134e+3, 2.601221e+2, -597305.0, -691926.0, 121578.7, 0.052925706, 0.022155434, -514156.06, -123359.97, 0.0, 9.99918, 9.997893 
2.4343328e+3, 2.7011395e+2, -116345.0, -247999.95, 209485.28, 0.1600406, 0.019273343, 37411.992, 330286.06, 0.0, 10.00131, 9.999065 
2.4339528e+3, 2.801057e+2, -143514.48, -417867.94, 49528.617, 0.28470907, -0.0026874607, -134846.98, 60106.926, 0.0, 10.001134, 9.997501 
2.4335659e+3, 2.9009765e+2, -19217.86, -123176.555, -59804.926, 0.16897225, 0.013671006, 8039.6646, 105075.59, 0.0, 10.000784, 9.998832 
2.433179e+3, 3.000896e+2, -619308.56, -592919.44, 58072.527, -0.103776336, 0.028622326, -546561.4, -546561.4, 0.0, 9.996949, 9.997309 
2.4327995e+3, 3.100801e+2, -298686.56, 50881.54, -35877.11, 0.16363747, -0.23433675, 54525.715, 54525.715, 0.00000012758136, 9.99724, 10.001376 
2.4501033e+3, 1.2060822e+2, -1698791.8, -1843640.4, -192069.23, 0.031151434, 0.43546334, -1565945.8, 192087.42, 0.4854198, 10.00113, 9.998832 
2.4497232e+3, 1.3059072e+2, -1293557.8, -1456106.5, 220891.4, 0.07888836, -0.6049281, -1139463.3, 520740.7, 0.3659335, 10.003471, 10.000069 
2.4493438e+3, 1.4058964e+2, -1597859.9, -1811279.9, -19180.52, -0.077749275, 0.0024455502, -1596149.8, -33938.656, 0.23856215, 10.000228, 9.9978695 
2.4489558e+3, 1.5058067e+2, -1430014.6, -1619304.0, -185121.92, -0.09281321, -0.03553146, -1316746.5, 147557.14, 0.1275105, 10.000766, 9.998157 
2.4485679e+3, 1.60571e+2, -1266035.4, -1443779.3, -62782.324, -0.03609668, -0.12392466, -1246096.3, 120306.86, 0.052560914, 10.000719, 9.998831 
2.4481829e+3, 1.7056544e+2, -1089841.5, -986308.9, -29508.877, 0.0025706317, -0.0830821, -978488.9, 289967.6, 0.01541553, 10.000057, 10.001492 
2.4477977e+3, 1.8056014e+2, -1235730.4, -1173138.4, -157594.8, 0.018548153, -0.023446731, -1043762.1, 126744.375, 0.0031067657, 9.998871, 10.000243 
2.4474102e+3, 1.9055295e+2, -1010179.56, -919229.06, -130698.875, 0.13371804, -0.12864058, -826320.1, 246255.61, 0.00048131414, 9.999585, 10.000847 
2.4470226e+3, 2.0054543e+2, -888061.3, -920368.8, 44709.164, 0.23251438, -0.2089019, -856677.2, 117972.06, 0.000015932997, 10.000041, 10.000029 
2.4466363e+3, 2.1054152e+2, -645787.8, -581414.25, 29147.809, 0.12318959, -0.005610143, -570177.75, 306512.84, 0.0000000054715246, 10.000548, 10.00128 
2.4462505e+3, 2.2053781e+2, -633984.7, -756669.06, -19487.094, 0.023323037, 0.26623312, -630963.75, 147766.55, 0.0, 10.000696, 9.99947 
2.4458669e+3, 2.3052956e+2, -564273.5, -605305.2, -31734.924, 0.16667049, 0.1459081, -547000.4, 133811.58, 0.0, 10.00042, 9.9998455 
2.4454829e+3, 2.4052055e+2, -578388.75, -709538.8, -79477.805, 0.29479274, 0.003687406, -540925.9, 41973.824, 0.0, 10.000073, 9.998772 
2.4450947e+3, 2.505136e+2, -257164.22, -349860.63, -191433.89, 0.20581578, 0.047363427, -106547.734, 378418.1, 0.0, 10.00126, 9.999855 
2.4447075e+3, 2.60507e+2, -180697.05, -455623.25, -101009.2, 0.07757035, 0.14256343, -147575.95, 239452.5, 0.0, 10.00174, 9.998324 
2.4443269e+3, 2.7049765e+2, -232046.11, -353299.63, 13552.64, 0.1533007, 0.021175332, -230549.78, 58567.258, 0.0, 10.000625, 9.998724 
2.4439472e+3, 2.804887e+2, -302310.1, -436960.16, -79494.09, 0.33593652, -0.05404601, -265462.34, -74259.234, 0.0, 9.999617, 9.998131 
2.44356e+3, 2.9048273e+2, -13013.682, -94540.79, -137069.84, 0.2327159, 0.1295432, 89225.586, 182491.36, 0.0, 10.000516, 9.9992285 
2.4431726e+3, 3.0047622e+2, -122403.7, -266052.7, 85496.91, 0.033141557, 0.27421883, -82565.85, -82565.85, 0.0, 9.999765, 9.998243 
2.442793e+3, 3.1046343e+2, 167225.22, 442996.4, 7921.2847, 0.28469577, -0.30935374, 443223.75, 443223.75, 0.000000000000427524, 9.999502, 10.003035 
2.4600986e+3, 1.2099539e+2, -1877796.8, -2713050.3, 154906.7, 0.04510706, 0.37711537, -1849993.3, -95754.17, 0.47724012, 10.002547, 9.991798 
2.4597214e+3, 1.3097556e+2, -1519223.1, -1811309.0, 147852.66, 0.25203988, -0.5778073, -1457446.5, 198994.31, 0.3557266, 10.002457, 9.997395 
2.4593364e+3, 1.4097497e+2, -1822324.5, -1948132.0, -30781.23, -0.11739538, 0.30283296, -1815197.1, -256750.48, 0.22774403, 9.998928, 9.99754 
2.4589501e+3, 1.509666e+2, -1443640.0, -1411593.9, -118632.84, 0.0061631203, 0.16907017, -1307907.0, 152622.42, 0.11809006, 9.999841, 9.999999 
2.4585634e+3, 1.6095756e+2, -1475403.3, -1591769.0, -42236.55, 0.18530744, 0.034395907, -1461689.1, -99069.625, 0.04605504, 9.999557, 9.99834 
2.4581757e+3, 1.7095035e+2, -1302554.5, -1243538.5, -14028.601, 0.013369326, 0.0053385287, -1240373.5, 24320.178, 0.012013259, 9.999367, 9.999978 
2.4577878e+3, 1.8094462e+2, -1353446.0, -1174713.0, -115084.58, -0.10814074, 0.11493078, -1118371.4, 48380.027, 0.0018483637, 9.997954, 10.000645 
2.4574009e+3, 1.9094297e+2, -850002.6, -553050.06, -106131.87, 0.015000892, 0.32709372, -519018.34, 549744.5, 0.00018026956, 9.999503, 10.003352 
2.4570146e+3, 2.009392e+2, -1065050.6, -1086547.5, 14755.739, 0.14900035, 0.45054463, -1057543.6, -86748.74, 0.0000007906511, 9.999315, 9.999228 
2.4566291e+3, 2.1092623e+2, -889475.0, -948016.06, 17436.896, 0.09105061, -0.08253175, -884674.9, -11756.673, 0.0, 10.000058, 9.998988 
2.4562441e+3, 2.2091465e+2, -972886.75, -1043467.56, -47748.082, 0.047682114, -0.4066737, -948803.0, -173772.8, 0.0, 9.999122, 9.998233 
2.4558596e+3, 2.3091163e+2, -644982.0, -564384.0, -65074.61, 0.13827634, -0.043119162, -528140.75, 148923.64, 0.0, 9.999792, 10.000317 
2.4554756e+3, 2.4090767e+2, -918492.3, -1065044.8, -85397.35, 0.2811227, 0.32983944, -879242.5, -300134.9, 0.0, 9.998753, 9.996926 
2.4550913e+3, 2.508969e+2, -507399.8, -741019.44, -162313.14, 0.48206064, 0.1915366, -424234.4, 56980.88, 0.0, 10.000767, 9.997372 
2.4547067e+3, 2.6088604e+2, -471285.4, -723284.44, -148314.66, 0.53583103, 0.058612235, -402674.75, -19352.883, 0.0, 10.000409, 9.997107 
2.4543208e+3, 2.708761e+2, -277489.94, -284184.72, -56952.29, 0.18102586, -0.19262491, -223786.75, 61625.316, 0.0, 10.000029, 9.999433 
2.453936e+3, 2.808678e+2, -458985.8, -385691.88, -87908.914, -0.09023089, -0.2802549, -327097.16, -139610.42, 0.0, 9.99816, 9.999156 
2.453552e+3, 2.9086396e+2, 22410.52, 165545.13, -80882.055, 0.064268515, -0.1157536, 201976.83, 291500.0, 0.0, 9.999833, 10.001295 
2.4531707e+3, 3.0085814e+2, -449258.4, -526710.5, 69578.43, 0.38059124, 0.011016493, -408354.9, -408354.9, 0.0, 9.998138, 9.9972105 
2.4527846e+3, 3.1085023e+2, -138418.16, 276012.72, 124574.414, -0.037540752, -0.045219984, 310576.16, 310576.16, 0.0, 9.997787, 10.002592 
2.4700955e+3, 1.2137253e+2, -1446335.3, -1978040.1, 111083.24, -0.21174219, -0.10497124, -1424060.9, 326481.78, 0.46785268, 10.005583, 9.995454 
2.4697185e+3, 1.3136242e+2, -1416290.9, -1589403.8, 21227.166, 0.39253938, -0.2760917, -1413726.0, 238923.84, 0.34520847, 10.002546, 9.999015 
2.4693295e+3, 1.4136122e+2, -1762516.3, -1736920.5, 11826.179, -0.06940595, 0.39854953, -1732293.0, -177629.44, 0.21743059, 9.998437, 9.999246 
2.4689421e+3, 1.5135245e+2, -1391302.6, -1252312.6, 309.96234, -0.049912084, 0.10063517, -1252311.9, 204433.67, 0.109704144, 9.999517, 10.00135 
2.4685557e+3, 1.6134387e+2, -1286045.9, -1327221.8, 76936.31, 0.036956362, -0.10996334, -1226990.5, 131836.2, 0.040704507, 10.000068, 9.999923 
2.4681681e+3, 1.7133774e+2, -1203336.6, -1143514.6, 126209.77, 0.0016644453, -0.07068088, -1043719.9, 217168.53, 0.00953522, 9.999746, 10.000554 
2.4677806e+3, 1.81332e+2, -1197233.6, -1140773.0, 119289.85, -0.0684062, 0.05901273, -1046418.56, 116527.52, 0.0011160366, 9.999126, 10.000323 
2.467394e+3, 1.9132729e+2, -766926.1, -713444.6, -9227.328, -0.0006120417, 0.15017442, -711897.4, 353093.66, 0.00006263998, 10.000886, 10.001615 
2.4670081e+3, 2.0132169e+2, -696792.9, -917912.9, -69582.164, 0.07164768, 0.23093851, -676719.06, 290324.5, 0.0000000031066179, 10.001777, 9.99922 
2.4666233e+3, 2.1131004e+2, -747877.75, -893574.7, -27012.807, 0.1559263, -0.15676284, -743030.75, 126123.59, 0.0, 10.000964, 9.99899 
2.4662386e+3, 2.2129896e+2, -792302.5, -917571.44, 26158.174, 0.18095937, -0.41757193, -787059.7, -15798.818, 0.0, 10.00004, 9.998709 
2.4658532e+3, 2.3129484e+2, -465638.38, -525060.7, -14115.851, 0.16122793, -0.1200927, -462455.63, 210849.53, 0.0, 10.001072, 10.000068 
2.4654688e+3, 2.4129023e+2, -424987.4, -820060.0, -48318.438, 0.20405559, 0.22818764, -419163.78, 156191.42, 0.0, 10.001971, 9.997084 
2.465085e+3, 2.5127894e+2, -381504.16, -764615.5, -38610.168, 0.42169866, 0.11244088, -377651.75, 99817.945, 0.0, 10.001876, 9.996722 
2.4647014e+3, 2.6126733e+2, -292050.16, -586336.6, 44454.273, 0.5590676, -0.025191128, -285481.6, 94103.695, 0.0, 10.001242, 9.99768 
2.4643154e+3, 2.7125803e+2, -181325.66, -224533.5, 36235.91, 0.29802245, -0.21471849, -160742.25, 120928.09, 0.0, 10.000482, 9.999688 
2.4639289e+3, 2.812505e+2, -183941.48, -122708.875, -34430.105, -0.007691244, -0.25097057, -107251.43, 76485.44, 0.0, 9.999382, 10.000381 
2.463544e+3, 2.9124612e+2, 26930.402, 234766.97, -151145.25, 0.00066714105, -0.19090207, 314271.4, 400046.72, 0.0, 9.999459, 10.002027 
2.4631648e+3, 3.0123967e+2, -282446.6, -422737.44, -62163.887, 0.5438202, -0.16660824, -258865.14, -258865.14, 0.0, 9.999034, 9.997527 
2.4627762e+3, 3.112318e+2, -27555.969, 216437.16, -142248.22, -0.11190778, -0.10803988, 281837.8, 281837.8, 0.0, 9.998704, 10.001876 
2.4800964e+3, 1.217541e+2, -1562248.5, -1745097.3, 188112.44, -0.00934707, -0.22807474, -1444520.6, 302281.1, 0.45571712, 10.002486, 9.998951 
2.479715e+3, 1.317493e+2, -1449573.6, -1493432.5, -39989.21, 0.5220544, -0.08289963, -1425895.6, 222961.23, 0.33319858, 10.001475, 10.00046 
2.4793226e+3, 1.4174749e+2, -1658694.5, -1557431.6, 7800.627, 0.095122054, 0.40219197, -1556834.3, -5956.8003, 0.20679392, 9.99874, 10.0002985 
2.4789338e+3, 1.5173858e+2, -1376616.8, -1144270.0, 20213.064, -0.10310576, -0.033159733, -1142524.6, 310431.56, 0.10179194, 9.999174, 10.002332 
2.4785471e+3, 1.6173038e+2, -1480727.0, -1328470.3, 24212.502, -0.07656563, -0.30166766, -1324712.5, 30316.361, 0.036105353, 9.99845, 10.000665 
2.4781612e+3, 1.717261e+2, -1204236.3, -1011818.7, 32577.88, 0.058266964, -0.20918874, -1006452.6, 250615.88, 0.0076701324, 9.999332, 10.001595 
2.4777746e+3, 1.8172026e+2, -1398273.3, -1518863.6, 85550.234, 0.13891143, -0.07505847, -1353905.4, -194780.44, 0.000687035, 9.999109, 9.997692 
2.4773882e+3, 1.9170916e+2, -1038098.4, -1243887.9, 28717.416, 0.04791062, -0.30783203, -1034166.06, 27071.365, 0.000019881356, 10.000892, 9.997892 
2.4770027e+3, 2.016995e+2, -916703.0, -1134467.1, -81768.68, 0.071946, -0.35288233, -889418.2, 73916.97, 0.0, 10.000887, 9.998097 
2.4766181e+3, 2.1169467e+2, -766946.6, -772756.2, -80220.195, 0.28418732, -0.1573074, -689578.6, 175803.92, 0.0, 10.00042, 9.999967 
2.4762334e+3, 2.2168864e+2, -1035080.6, -1121049.3, 11801.025, 0.40758345, 0.034813404, -1033490.06, -266048.72, 0.0, 9.998867, 9.997826 
2.4758472e+3, 2.3167856e+2, -624306.9, -718426.56, 15620.354, 0.18056005, -0.19585049, -621782.2, 47758.19, 0.0, 10.000531, 9.998963 
2.4754612e+3, 2.4166897e+2, -698790.44, -993117.75, -61738.508, -0.0068731545, -0.26041695, -686364.6, -114729.21, 0.0, 10.000438, 9.996597 
2.475075e+3, 2.5166044e+2, -432096.88, -677144.3, -50788.066, -0.047370125, -0.19813737, -421987.7, 51734.27, 0.0, 10.001205, 9.997553 
2.4746904e+3, 2.6165205e+2, -572862.25, -807203.6, 10991.522, 0.051714312, -0.055563558, -572347.8, -196540.69, 0.0, 9.999859, 9.996806 
2.4743105e+3, 2.7164453e+2, -369546.03, -409615.9, 8991.311, 0.47405624, 0.011979849, -367620.97, -89739.75, 0.0, 9.999754, 9.998725 
2.4739273e+3, 2.816373e+2, -527673.75, -532916.0, -78701.164, 0.5300159, 0.14100076, -451550.06, -271598.66, 0.0, 9.998174, 9.998145 
2.473535e+3, 2.91629e+2, -233741.67, -78932.68, -168063.78, -0.16025184, -0.034853604, 28694.951, 110724.11, 0.0, 9.998629, 10.000207 
2.4731529e+3, 3.016204e+2, -717826.4, -822837.0, -130946.2, 0.07908255, -0.056263115, -629251.1, -629251.1, 0.0, 9.997001, 9.995749 
2.472772e+3, 3.1160906e+2, -411397.13, -111888.625, -200719.52, 0.12824744, -0.29447648, -11213.927, -11213.927, 0.0, 9.996774, 10.000551 
2.4900937e+3, 1.22145504e+2, -1679810.8, -1707029.5, 186667.73, 0.1531383, 0.09951899, -1506256.9, 236706.5, 0.43991777, 10.000436, 10.000322 
2.4897063e+3, 1.3213584e+2, -1457055.0, -1489571.6, 16952.367, 0.21861625, -0.25884506, -1449824.6, 195237.33, 0.31901658, 10.001274, 10.00059 
2.4893138e+3, 1.4213227e+2, -1441582.3, -1480210.4, 19066.21, -0.15871352, 0.06965367, -1433756.8, 113341.75, 0.19536594, 10.000407, 10.000165 
2.4889258e+3, 1.5212488e+2, -1441011.9, -1257567.6, -9459.615, -0.11746247, -0.11730122, -1257081.1, 192086.27, 0.094030365, 9.998979, 10.001597 
2.4885395e+3, 1.6211756e+2, -1568017.3, -1378262.8, 1505.2897, 0.011504422, -0.23887451, -1378250.9, -27015.87, 0.032013185, 9.997807, 10.000636 
2.4881543e+3, 1.7211221e+2, -1100505.6, -998906.2, -8513.317, 0.10111058, -0.21575475, -998197.75, 255085.84, 0.0062260167, 10.00014, 10.001322 
2.4877688e+3, 1.8210568e+2, -979949.94, -1307475.6, 12001.056, 0.117641665, -0.1378476, -979510.75, 175835.13, 0.00043419475, 10.001814, 9.997855 
2.4873833e+3, 1.9209468e+2, -823417.3, -1193887.6, 49957.426, 0.076596975, -0.32731715, -816798.9, 240658.4, 0.0000058323185, 10.002458, 9.997531 
2.4869978e+3, 2.0208487e+2, -698081.06, -1044382.44, -5472.9907, 0.06435497, -0.33520415, -697994.6, 261562.33, 0.000000000090419006, 10.002339, 9.998032 
2.4866116e+3, 2.120799e+2, -533843.6, -739382.7, -88451.62, 0.18442306, -0.07936232, -501020.88, 360587.1, 0.0, 10.002205, 9.999407 
2.4862258e+3, 2.2207388e+2, -572649.6, -857094.44, -27920.05, 0.24065414, 0.14695545, -569935.0, 193733.14, 0.0, 10.001742, 9.998258 
2.4858408e+3, 2.3206322e+2, -510366.84, -699382.1, 25003.5, 0.13904984, -0.11350466, -507115.25, 158656.61, 0.0, 10.00137, 9.998753 
2.4854559e+3, 2.4205276e+2, -511583.9, -808481.2, -14749.496, 0.038252268, -0.25296807, -510852.97, 57020.926, 0.0, 10.001205, 9.997489 
2.4850698e+3, 2.5204444e+2, -268973.1, -565704.25, -58853.758, -0.021299649, -0.21178465, -257726.31, 212230.45, 0.0, 10.002043, 9.997972 
2.4846846e+3, 2.6203653e+2, -196401.6, -571333.6, -49536.67, 0.042166226, -0.049257092, -189967.14, 182068.89, 0.0, 10.002028, 9.997415 
2.4843034e+3, 2.7202934e+2, -289307.63, -424087.2, -24764.654, 0.46068716, 0.06994579, -284901.38, -10792.164, 0.0, 10.000322, 9.998453 
2.4839202e+3, 2.8202167e+2, -433362.22, -510405.4, 1932.9111, 0.63607305, 0.20487878, -433313.75, -257128.0, 0.0, 9.998738, 9.9980755 
2.4835278e+3, 2.9201192e+2, -213892.1, -176404.16, -28878.953, -0.040595222, -0.019069338, -160719.5, -82439.664, 0.0, 9.999061, 9.999395 
2.4831446e+3, 3.0200264e+2, -358161.97, -564657.1, 129167.46, 0.09251107, -0.053720403, -296048.44, -296048.44, 0.0, 9.999045, 9.99653 
2.4827652e+3, 3.119912e+2, -186236.98, -22530.73, 41405.863, 0.37362623, -0.24889177, -12653.93, -12653.93, 0.0, 9.9981575, 10.000608 
2.5000873e+3, 1.2253383e+2, -1833421.3, -1769375.1, 165527.31, 0.1717951, 0.05268049, -1632801.8, 106353.48, 0.42027465, 9.998996, 10.00032 
2.4996978e+3, 1.325239e+2, -1580151.4, -1526573.3, 11329.178, 0.0010060134, -0.35944685, -1524276.1, 116975.64, 0.30251706, 10.000038, 10.000755 
2.4993052e+3, 1.4251779e+2, -1615133.9, -1689370.4, -4768.787, -0.32975444, -0.22883248, -1614828.9, -71517.15, 0.18302314, 9.999614, 9.999003 
2.4989185e+3, 1.5251163e+2, -1399646.4, -1378872.6, -63307.47, -0.04653517, -0.19270375, -1325105.6, 120269.6, 0.08629053, 9.99996, 10.0002 
2.498533e+3, 1.6250513e+2, -1460993.6, -1474718.0, 33593.707, 0.24928918, -0.08873001, -1433568.4, -86128.69, 0.028287582, 9.999236, 9.999256 
2.498148e+3, 1.724977e+2, -1080301.6, -1115995.9, 43538.152, 0.16099793, -0.21281558, -1051094.6, 198414.58, 0.0050760456, 10.00078, 10.0002 
2.4977632e+3, 1.8249017e+2, -1109087.3, -1371556.5, 22518.385, 0.09641758, -0.15632465, -1107169.4, 44411.707, 0.00028139996, 10.001111, 9.99771 
2.4973789e+3, 1.924822e+2, -858782.0, -1083686.0, 28964.467, 0.1130521, -0.15361282, -855111.7, 198549.28, 0.0000014559199, 10.001857, 9.998514 
2.4969931e+3, 2.0247382e+2, -933769.2, -1290627.8, -41657.27, 0.1130354, -0.037273787, -928970.9, 26775.045, 0.0, 10.001451, 9.996749 
2.496604e+3, 2.124651e+2, -722842.3, -965903.7, -103887.66, -0.055036224, -0.045444746, -684490.7, 173344.23, 0.0, 10.001702, 9.998024 
2.4962167e+3, 2.2245713e+2, -804691.75, -1047823.94, -53316.52, -0.10873087, 0.10338567, -793513.9, -33597.754, 0.0, 10.000643, 9.997473 
2.4958342e+3, 2.324495e+2, -599163.75, -703901.4, 457.5847, 0.078201294, 0.112714596, -599161.75, 62829.8, 0.0, 10.00071, 9.998999 
2.4954522e+3, 2.4244112e+2, -779451.56, -992797.9, -18370.861, 0.2618102, 0.17754675, -777881.25, -213807.02, 0.0, 9.999702, 9.99694 
2.4950689e+3, 2.5243074e+2, -413613.84, -639753.7, -28750.102, 0.41295356, 0.007431279, -410015.97, 56159.926, 0.0, 10.001192, 9.99783 
2.4946828e+3, 2.6242104e+2, -390061.16, -648892.4, -106644.414, 0.3802577, -0.0010039706, -351782.3, 16487.873, 0.0, 10.00077, 9.99746 
2.4942924e+3, 2.7241224e+2, -329763.5, -372689.44, -74200.78, 0.050941706, -0.12597367, -273983.9, -3628.9502, 0.0, 9.999791, 9.999049 
2.4939056e+3, 2.8240377e+2, -595224.8, -563692.8, -18718.836, -0.032399308, -0.107842274, -554985.1, -382548.38, 0.0, 9.997657, 9.9982 
2.4935237e+3, 2.9239583e+2, -295498.1, -159712.23, 33036.88, 0.32136565, -0.22430292, -152100.95, -77585.39, 0.0, 9.998356, 9.999804 
2.4931419e+3, 3.0238944e+2, -375289.9, -288205.22, 143595.2, 0.5265679, -0.077463575, -181695.84, -181695.84, 0.0, 9.997867, 9.998963 
2.4927515e+3, 3.1238517e+2, -262287.56, 204290.84, 253339.02, -0.27343205, 0.09280152, 315391.7, 315391.7, 0.0, 9.996817, 10.00271 
2.5100818e+3, 1.2291679e+2, -1903263.5, -1873287.9, 12355.831, 0.28001845, -0.50492084, -1868851.4, -133448.78, 0.39734322, 9.998578, 9.999521 
2.5096908e+3, 1.3291739e+2, -1548116.0, -1416659.0, 55431.79, 0.02982191, 0.034956362, -1396405.4, 240988.9, 0.28406283, 9.999636, 10.002004 
2.5092995e+3, 1.42907e+2, -1563514.0, -1720308.4, 104935.86, -0.26204985, -0.29724526, -1510924.0, 28570.928, 0.16993596, 10.000186, 9.998526 
2.508914e+3, 1.5290074e+2, -1106821.8, -1364619.8, 55603.37, 0.008020692, -0.14366871, -1095340.3, 346219.28, 0.078587286, 10.002641, 9.999045 
2.5085282e+3, 1.6289368e+2, -927674.2, -1358771.0, 104441.32, 0.1893702, 0.03641688, -903704.06, 439927.16, 0.024857625, 10.0035095, 9.99801 
2.508143e+3, 1.7288405e+2, -870198.25, -1200532.4, 85056.48, 0.096917674, -0.11300932, -849583.8, 396141.44, 0.0041356636, 10.002952, 9.998614 
2.5077575e+3, 1.8287502e+2, -915189.6, -1208741.1, 24036.34, 0.004018695, -0.12238988, -913234.56, 234578.61, 0.00018434241, 10.002039, 9.998406 
2.5073734e+3, 1.9286758e+2, -728884.06, -962466.94, 43815.453, 0.06509367, -0.100077204, -720935.7, 328949.63, 0.00000026313862, 10.002382, 9.999164 
2.5069883e+3, 2.0285927e+2, -699723.7, -1142519.3, -45272.54, 0.056487583, -0.014606855, -695142.3, 256824.69, 0.0, 10.002806, 9.997144 
2.5065997e+3, 2.1284872e+2, -448953.84, -908345.06, -73202.0, -0.06601607, -0.1361376, -437571.44, 416500.53, 0.0, 10.003791, 9.997498 
2.5062123e+3, 2.2283922e+2, -314426.97, -871870.6, -45299.813, -0.1232886, -0.06936411, -310769.75, 445398.34, 0.0, 10.004044, 9.997109 
2.5058284e+3, 2.3283173e+2, -394670.38, -732679.56, -105712.36, 0.020914407, 0.061189454, -364331.9, 293914.4, 0.0, 10.002454, 9.998043 
2.5054452e+3, 2.4282417e+2, -518410.47, -725735.06, -115996.02, 0.2213726, 0.21700695, -466506.22, 93816.7, 0.0, 10.000783, 9.998273 
2.505063e+3, 2.5281486e+2, -547805.5, -585164.5, -46940.48, 0.4935794, 0.050434496, -515964.38, -53551.727, 0.0, 9.999629, 9.999032 
2.5046775e+3, 2.628057e+2, -529330.7, -585438.0, -68649.47, 0.51758194, -0.010362782, -483223.97, -118723.36, 0.0, 9.999161, 9.998687 
2.5042844e+3, 2.727969e+2, -269766.78, -298178.44, -98585.61, -0.015295388, -0.15314297, -184368.75, 82215.53, 0.0, 9.999955, 9.999526 
2.5038958e+3, 2.8278852e+2, -193622.17, -295152.4, -18886.504, -0.20086105, -0.16940837, -190222.75, -21557.229, 0.0, 9.99996, 9.998953 
2.503517e+3, 2.927809e+2, -126732.72, -99621.375, -23565.934, 0.45018092, -0.26420313, -85990.484, -15248.079, 0.0, 9.999358, 9.999838 
2.5031355e+3, 3.0277628e+2, -197451.5, -25427.777, 48303.094, 0.78617066, 0.00029218275, -12792.647, -12792.647, 0.0, 9.99815, 10.000658 
2.502742e+3, 3.1277594e+2, -251411.72, 351981.53, -48333.14, -0.17756297, 0.3657244, 355828.6, 355828.6, 0.0, 9.996011, 10.004158 
2.5200757e+3, 1.2330726e+2, -1879029.0, -1904737.3, -127609.52, 0.46099618, -0.3536264, -1763627.9, -32050.67, 0.3720952, 9.999053, 9.999006 
2.5196832e+3, 1.3330986e+2, -1346689.0, -1283395.6, -33783.855, -0.004554233, 0.32986143, -1268751.3, 364797.0, 0.26429757, 10.001385, 10.002286 
2.5192958e+3, 1.4329684e+2, -1469706.3, -1760611.0, -19131.307, 0.0330031, -0.25943834, -1468453.4, 67220.32, 0.15642525, 10.00147, 9.997518 
2.5189102e+3, 1.5329015e+2, -1201450.0, -1522212.6, -23690.455, 0.1127842, -0.09422228, -1199709.8, 238031.69, 0.071005836, 10.002629, 9.997808 
2.5185245e+3, 1.6328216e+2, -1226604.0, -1717135.6, 19224.494, 0.18396717, 0.14934875, -1225851.8, 113970.53, 0.021693112, 10.002501, 9.9959955 
2.5181383e+3, 1.7327058e+2, -1110783.4, -1475606.0, 4982.8003, 0.06819187, -0.043037727, -1110715.4, 131223.33, 0.00335279, 10.002237, 9.996997 
2.5177523e+3, 1.8326047e+2, -1072404.4, -1332265.3, 9592.6045, 0.01745967, -0.04311911, -1072050.8, 71987.914, 0.00011963712, 10.001241, 9.997911 
2.5173682e+3, 1.932525e+2, -851065.1, -994206.94, 26479.088, 0.016944133, -0.1350799, -846323.94, 199789.84, 0.00000002568285, 10.001457, 9.99934 
2.5169834e+3, 2.032436e+2, -965918.0, -1357473.5, -33257.09, 0.047634523, -0.09472275, -963113.4, -14915.228, 0.0, 10.001416, 9.996315 
2.5165975e+3, 2.1323167e+2, -621157.1, -1037250.5, -58052.62, 0.07334059, -0.34645507, -613209.5, 237102.83, 0.0, 10.002824, 9.997048 
2.5162107e+3, 2.2322074e+2, -727783.06, -1293107.9, -85009.81, 0.05357446, -0.3120011, -715276.5, 37144.957, 0.0, 10.002352, 9.994965 
2.5158224e+3, 2.3321131e+2, -685135.4, -1081926.1, -157054.16, -0.09850262, -0.21819355, -630495.7, 24028.209, 0.0, 10.001504, 9.996044 
2.5154358e+3, 2.4320345e+2, -662445.6, -682454.2, -173870.86, -0.08261512, -0.0038143247, -498291.47, 58314.48, 0.0, 9.999459, 9.999186 
2.5150526e+3, 2.5319728e+2, -523420.28, -319440.5, -87318.81, 0.20091501, -0.09498677, -287167.53, 171494.28, 0.0, 9.998821, 10.00121 
2.5146678e+3, 2.6319107e+2, -746774.25, -700511.25, -71406.0, 0.3440358, 0.022101935, -648583.56, -287862.8, 0.0, 9.997881, 9.998463 
2.5142798e+3, 2.73184e+2, -391232.63, -361679.1, -58800.113, 0.23829885, 0.028834121, -315827.4, -53035.133, 0.0, 9.999303, 9.999317 
2.5138918e+3, 2.831762e+2, -349304.94, -400618.9, -55322.164, 0.0723874, 0.09464798, -313979.78, -149108.92, 0.0, 9.999205, 9.998543 
2.513505e+3, 2.9316768e+2, -205782.3, -136424.86, -24228.266, -0.02882581, -0.09583507, -128799.66, -61843.625, 0.0, 9.998975, 9.999706 
2.5131214e+3, 3.0316216e+2, -416146.7, -279753.75, -59341.95, 0.17498083, 0.14301907, -257549.86, -257549.86, 0.0, 9.997434, 9.999217 
2.5127342e+3, 3.1315428e+2, -595695.25, 4733.51, -59347.598, -0.053272028, -0.11077716, 10543.33, 10543.33, 0.0, 9.994637, 10.00236 
2.5300643e+3, 1.2369755e+2, -1524959.0, -1528055.6, 115706.0, -0.18035384, -0.14022432, -1410791.0, 316962.5, 0.34545994, 10.001003, 10.001402 
2.529675e+3, 1.3369171e+2, -1319007.1, -1651568.0, -91637.28, -0.43765578, 0.106584124, -1295428.1, 334381.8, 0.24384509, 10.003601, 9.997938 
2.529293e+3, 1.4367877e+2, -1216333.1, -1623044.1, -208229.48, 0.057329245, -0.22896467, -1128633.6, 403301.94, 0.14280653, 10.003463, 9.997573 
2.528907e+3, 1.5367083e+2, -1051992.8, -1388595.4, -187698.2, 0.15494095, -0.23485097, -968191.06, 465820.94, 0.06363834, 10.003398, 9.998407 
2.528521e+3, 1.6366275e+2, -1071314.3, -1508092.4, -128689.14, 0.21690199, -0.09979677, -1036218.25, 299872.16, 0.0187796, 10.00287, 9.997298 
2.528134e+3, 1.7365317e+2, -971511.94, -1322851.0, -50987.984, 0.11393557, -0.18347399, -964261.94, 273922.8, 0.0026956536, 10.002626, 9.997944 
2.5277475e+3, 1.8364446e+2, -988827.94, -1289800.4, -19081.076, 0.012025479, -0.09667053, -987623.06, 152649.05, 0.00007576087, 10.001745, 9.997952 
2.5273624e+3, 1.9363679e+2, -989055.0, -1152264.4, -58136.94, 0.004232468, -0.06589057, -970463.75, 71887.29, 0.00000000011876218, 10.000791, 9.998618 
2.5269777e+3, 2.0362803e+2, -996478.0, -1268066.3, -67386.47, 0.022827866, -0.007832218, -980677.4, -36240.668, 0.0, 10.000655, 9.997305 
2.526593e+3, 2.1361677e+2, -607661.56, -969549.3, -23978.594, 0.07254752, -0.24003221, -606079.7, 240461.69, 0.0, 10.002505, 9.99772 
2.5262067e+3, 2.236061e+2, -508023.03, -998533.2, -55532.074, 0.05782809, -0.28512043, -501814.7, 246828.69, 0.0, 10.002949, 9.996702 
2.5258175e+3, 2.3359622e+2, -578588.75, -932751.6, 27848.184, -0.04734233, -0.30007017, -576412.4, 74330.99, 0.0, 10.001668, 9.997064 
2.5254294e+3, 2.4358775e+2, -454565.8, -560850.2, 105658.94, -0.055875048, -0.17673779, -389437.53, 163392.23, 0.0, 10.0006485, 9.999462 
2.525044e+3, 2.5358167e+2, -327345.7, -293104.16, -17400.467, 0.121412665, -0.16060841, -285813.9, 169076.97, 0.0, 10.000351, 10.000682 
2.524659e+3, 2.635757e+2, -389287.03, -485325.16, -74123.05, 0.26911423, -0.00025169723, -348988.2, 7962.3423, 0.0, 9.999957, 9.998996 
2.5242737e+3, 2.7356884e+2, -341851.56, -343561.13, -72216.2, 0.40586483, 0.03577697, -270485.06, -11463.957, 0.0, 9.999463, 9.999448 
2.5238866e+3, 2.835617e+2, -330962.66, -314754.78, -45850.42, 0.3185236, 0.13449603, -276297.63, -115203.73, 0.0, 9.998937, 9.999253 
2.5234947e+3, 2.9355368e+2, -233359.95, -131143.33, -59281.26, -0.21198684, -0.015633985, -103980.78, -40807.2, 0.0, 9.998639, 9.999937 
2.52311e+3, 3.0354667e+2, -244798.64, -314241.06, -28021.063, -0.07955648, 0.12470889, -234902.13, -234902.13, 0.0, 9.999064, 9.998212 
2.5227296e+3, 3.1353775e+2, 102253.69, 158161.0, -98498.3, 0.52406526, -0.032998964, 232595.42, 232595.42, 0.0, 10.000079, 10.000894 
2.5400585e+3, 1.2408666e+2, -1489909.4, -1640681.1, 142963.64, -0.29427874, 0.13620625, -1403673.4, 320267.1, 0.31815657, 10.002327, 9.999464 
2.53967e+3, 1.3407251e+2, -1619696.3, -2276689.5, -81691.9, -0.5555858, -0.11339779, -1609690.9, 16391.207, 0.22319712, 10.002869, 9.993909 
2.5392896e+3, 1.4405955e+2, -1319600.1, -1649924.6, -107164.82, 0.10163079, -0.22735134, -1287879.5, 240329.53, 0.12934339, 10.002525, 9.997787 
2.538904e+3, 1.5405032e+2, -1142052.6, -1371844.1, -136923.31, 0.24209337, -0.43316454, -1078205.5, 352089.72, 0.05657354, 10.002457, 9.999 
2.5385177e+3, 1.6404253e+2, -1144748.6, -1375541.5, -79893.35, 0.35326016, -0.34483445, -1119790.9, 212576.16, 0.016116831, 10.001752, 9.99869 
2.5381303e+3, 1.7403573e+2, -950136.1, -1124376.5, -46499.316, 0.20500891, -0.35624304, -938503.56, 295925.47, 0.0021455006, 10.002014, 9.999561 
2.5377426e+3, 1.8402886e+2, -1185597.5, -1532805.9, -32582.586, 0.09212705, -0.10665019, -1182566.3, -46066.9, 0.000046550977, 10.001115, 9.99658 
2.5373563e+3, 1.9402124e+2, -1160776.9, -1392940.5, -77816.57, 0.060781997, 0.04220822, -1137107.5, -98519.4, 0.0, 10.000361, 9.997168 
2.5369713e+3, 2.0401311e+2, -1085566.8, -1235730.0, 13812.274, 0.051965155, 0.23424534, -1084306.9, -143633.97, 0.0, 9.999897, 9.997817 
2.5365874e+3, 2.1400335e+2, -682057.25, -859360.3, 48816.32, -0.023629121, -0.00002324343, -669505.44, 173255.67, 0.0, 10.001529, 9.998873 
2.5362018e+3, 2.2399409e+2, -551649.1, -733871.2, -110919.414, 0.0065722014, -0.0684893, -499218.06, 245624.38, 0.0, 10.001564, 9.999155 
2.535813e+3, 2.33985e+2, -537205.06, -556588.3, -31200.332, 0.10997654, -0.34056172, -514225.78, 132694.08, 0.0, 10.000577, 10.00011 
2.535425e+3, 2.4397646e+2, -882497.3, -1096143.0, 64585.637, 0.16941586, -0.25652862, -864490.56, -315487.5, 0.0, 9.999311, 9.996371 
2.5350374e+3, 2.539676e+2, -709382.9, -865320.5, -28619.54, 0.12459537, -0.20522909, -704296.2, -253191.95, 0.0, 9.999516, 9.997101 
2.534651e+3, 2.639593e+2, -582248.6, -609764.4, -113677.74, 0.16536234, -0.05789663, -481499.25, -128305.805, 0.0, 9.998917, 9.998596 
2.5342655e+3, 2.7395132e+2, -431529.16, -331238.2, -78355.38, 0.36180824, -0.2093801, -288356.06, -33085.26, 0.0, 9.998717, 9.999855 
2.5338784e+3, 2.839447e+2, -485092.5, -398916.66, -79499.88, 0.32094344, -0.06500502, -351578.9, -194243.27, 0.0, 9.998022, 9.999103 
2.5334874e+3, 2.939379e+2, -319654.03, -140223.7, -40042.1, -0.12975654, -0.1425669, -131693.36, -72291.05, 0.0, 9.998, 10.000156 
2.5331026e+3, 3.0392975e+2, -362278.28, -405564.72, 58901.41, -0.09158043, -0.10116795, -321169.56, -321169.56, 0.0, 9.998548, 9.997795 
2.5327247e+3, 3.139246e+2, 267588.9, 364384.75, 115378.38, 0.41542575, 0.1288625, 441104.9, 441104.9, 0.0, 10.000774, 10.001951 
2.550057e+3, 1.24467306e+2, -1353444.5, -1692452.3, 138092.56, -0.28666624, -0.11403352, -1304313.6, 415895.06, 0.29081753, 10.004179, 9.998104 
2.5496715e+3, 1.3445815e+2, -1388919.5, -1847871.8, 34014.477, -0.046473183, -0.09998447, -1386412.3, 235889.34, 0.2027681, 10.003487, 9.996604 
2.5492847e+3, 1.4444786e+2, -1266456.4, -1593546.1, 35127.367, -0.008712363, -0.07931971, -1262726.5, 261678.0, 0.11625642, 10.002692, 9.998101 
2.5488976e+3, 1.5443929e+2, -1227084.5, -1457972.6, 7731.3223, 0.08522521, -0.16632904, -1226825.9, 199662.47, 0.04988728, 10.001888, 9.998706 
2.548511e+3, 1.6443114e+2, -1139706.9, -1290129.1, 72384.16, 0.15049267, -0.11387638, -1110533.3, 218029.86, 0.013707004, 10.001384, 9.999475 
2.548125e+3, 1.7442305e+2, -863793.44, -1044626.8, 83585.5, 0.14588486, -0.25021333, -831077.25, 399554.7, 0.0016894786, 10.002386, 9.999973 
2.5477389e+3, 1.8441467e+2, -944221.5, -1379143.8, 34285.234, 0.14541201, -0.17742863, -941535.4, 191177.94, 0.000027889511, 10.002521, 9.99698 
2.547352e+3, 1.9440533e+2, -945030.8, -1306654.3, 52422.984, 0.20659731, -0.16181277, -937584.6, 97231.48, 0.0, 10.001826, 9.997107 
2.5469667e+3, 2.043969e+2, -778447.8, -978459.7, 223223.31, 0.15019189, -0.029583191, -633852.4, 303050.56, 0.0, 10.001419, 9.998881 
2.546582e+3, 2.1438852e+2, -599350.44, -784763.5, 231715.42, -0.052131277, -0.13420431, -442484.25, 396495.16, 0.0, 10.001778, 9.9993305 
2.5461957e+3, 2.2438045e+2, -510896.66, -638925.25, -98377.875, -0.05596651, -0.12793803, -457539.6, 283511.72, 0.0, 10.001474, 9.999861 
2.545807e+3, 2.3437232e+2, -503011.94, -530728.44, -199294.48, 0.1680562, -0.29123157, -317094.44, 326027.0, 0.0, 10.000692, 10.000273 
2.5454187e+3, 2.4436374e+2, -718630.3, -1025570.25, -84122.45, 0.2565371, -0.23929691, -697087.1, -151881.36, 0.0, 10.000282, 9.996478 
2.5450304e+3, 2.543538e+2, -655645.8, -939450.1, -6700.4106, 0.14421707, -0.21893995, -655487.75, -208169.77, 0.0, 10.000077, 9.996454 
2.544643e+3, 2.6434472e+2, -398547.13, -449893.13, 29046.54, 0.15259956, -0.1287408, -385454.1, -36039.08, 0.0, 9.999824, 9.999277 
2.5442576e+3, 2.7433667e+2, -268027.78, -267303.13, -23129.896, 0.35107347, -0.24462709, -244532.7, 6959.893, 0.0, 9.9998255, 9.999825 
2.5438705e+3, 2.8432974e+2, -174430.08, -237156.31, -13260.498, 0.3264271, -0.12523532, -171741.98, -18181.521, 0.0, 9.999958, 9.999336 
2.5434798e+3, 2.9432297e+2, 14582.87, -21529.531, -85379.74, -0.06714804, -0.15376242, 83794.805, 139423.1, 0.0, 10.00035, 9.999917 
2.543096e+3, 3.0431494e+2, -47676.992, -109933.01, 87032.52, 0.056987185, -0.15273902, 13626.665, 13626.665, 0.0, 9.999923, 9.999244 
2.5427145e+3, 3.1430826e+2, -310334.03, -121134.64, 51139.363, 0.114196986, -0.13442442, -108196.734, -108196.734, 0.0, 9.997466, 10.0003195 
2.5600561e+3, 1.24852076e+2, -1686074.3, -1676194.0, -381106.94, -0.014418325, -0.057863075, -1299995.1, 416441.7, 0.26403108, 10.000316, 10.00047 
2.5596717e+3, 1.348452e+2, -1422491.1, -1589400.8, -31929.84, 0.38203114, -0.094725825, -1416591.5, 201914.75, 0.18292536, 10.002055, 9.999084 
2.5592804e+3, 1.448381e+2, -1375562.5, -1686831.1, -39346.188, 0.009233584, 0.14674757, -1370665.9, 149913.61, 0.1037245, 10.002057, 9.997722 
2.5588903e+3, 1.5483044e+2, -1225954.6, -1540988.6, -83641.94, -0.07469251, 0.15952408, -1205124.9, 217534.83, 0.043632858, 10.002284, 9.997923 
2.5585034e+3, 1.6482183e+2, -1095748.4, -1274878.9, 76772.55, -0.022351472, 0.21191698, -1067347.8, 257391.52, 0.011545959, 10.001867, 9.999279 
2.55812e+3, 1.7481159e+2, -972681.56, -1139319.9, 54873.37, 0.11129211, -0.1481353, -956235.2, 270589.53, 0.0013158798, 10.0019455, 9.999477 
2.5577348e+3, 1.8480104e+2, -1041467.4, -1375613.0, -42601.758, 0.2557873, -0.2748796, -1036121.4, 92800.1, 0.000016496271, 10.001825, 9.997287 
2.5573486e+3, 1.9478932e+2, -975357.3, -1299513.3, -34065.645, 0.40740985, -0.57199675, -971816.0, 59223.777, 0.0, 10.001649, 9.99722 
2.5569627e+3, 2.0478036e+2, -862735.94, -991636.3, 193127.38, 0.3337652, -0.49651393, -723588.5, 209539.44, 0.0, 10.000896, 9.999001 
2.5565764e+3, 2.1477354e+2, -828634.2, -893624.8, 208394.17, -0.04643243, -0.48921132, -650217.0, 184974.23, 0.0, 10.000363, 9.999225 
2.556189e+3, 2.2476663e+2, -877295.25, -1065883.5, -162536.9, -0.108184814, -0.23772575, -783680.8, -46421.402, 0.0, 10.000159, 9.997515 
2.5557995e+3, 2.3475862e+2, -818099.1, -943798.44, -234228.3, 0.11674368, -0.2054592, -638434.9, 907.51135, 0.0, 9.999747, 9.997849 
2.5554112e+3, 2.4475026e+2, -779490.4, -850670.94, -96810.766, 0.22868447, -0.08447137, -711935.1, -170507.02, 0.0, 9.9991255, 9.9981785 
2.5550228e+3, 2.5474057e+2, -687164.2, -738740.5, -7914.149, 0.14748842, -0.27875516, -685977.1, -242449.75, 0.0, 9.999061, 9.998277 
2.5546354e+3, 2.6473263e+2, -622338.94, -635801.7, 10422.51, 0.14036009, -0.12365956, -616663.06, -271054.16, 0.0, 9.998807, 9.998405 
2.5542492e+3, 2.7472547e+2, -422545.03, -455818.1, 5136.861, 0.225919, -0.092378676, -421770.03, -174088.94, 0.0, 9.999379, 9.998693 
2.5538617e+3, 2.8471768e+2, -325572.3, -460245.47, -15904.92, 0.13211802, 0.069073856, -323719.44, -173957.23, 0.0, 9.99967, 9.997903 
2.5534725e+3, 2.9470932e+2, -104055.625, -267949.06, -59378.906, -0.19167781, 0.007031653, -84803.93, -32952.44, 0.0, 10.000402, 9.998166 
2.5530896e+3, 3.0470136e+2, -57875.4, -26441.46, -78982.46, 0.08986264, 0.07286431, 38372.633, 38372.633, 0.0, 9.999679, 9.999826 
2.552707e+3, 3.1469834e+2, -678827.8, -497688.28, -6760.4907, 0.2585617, 0.3409556, -497436.3, -497436.3, 0.0, 9.99605, 9.998299 
2.570048e+3, 1.2523435e+2, -1972668.6, -1868751.4, 115735.336, -0.083794825, -0.29181808, -1793846.4, -81155.016, 0.23823552, 9.998127, 9.999714 
2.569662e+3, 1.3522854e+2, -1542597.5, -1601582.3, -34497.336, -0.0021572858, -0.2491708, -1526704.1, 88039.07, 0.16394834, 10.000663, 9.999683 
2.5692746e+3, 1.4522102e+2, -1348659.3, -1579506.6, -52682.457, -0.107434176, -0.13053934, -1337204.8, 179612.9, 0.09188186, 10.001774, 9.998633 
2.5688878e+3, 1.5521473e+2, -934408.8, -1336600.9, -44974.97, -0.005554518, -0.022145802, -929440.9, 489444.34, 0.03784501, 10.003978, 9.998593 
2.5685006e+3, 1.6520634e+2, -835405.94, -1258134.6, -11217.544, 0.04524741, 0.058964927, -835108.5, 485857.97, 0.009625426, 10.004085, 9.998343 
2.5681144e+3, 1.7519534e+2, -986157.25, -1297902.9, -49261.42, 0.018809073, -0.22576009, -978558.3, 244508.19, 0.0010124295, 10.002421, 9.9982 
2.5677288e+3, 1.851857e+2, -887300.9, -1204933.0, -121491.9, 0.09658982, -0.25061008, -846159.9, 278998.1, 0.000009793076, 10.002377, 9.998225 
2.5673437e+3, 1.9517645e+2, -562576.2, -1023803.0, -89430.26, 0.31564024, -0.34494844, -545843.06, 481407.78, 0.0, 10.004024, 9.998019 
2.5669575e+3, 2.0516817e+2, -467515.8, -724617.6, 18323.771, 0.26477724, -0.30184984, -466216.44, 463114.66, 0.0, 10.003161, 9.99978 
2.56657e+3, 2.1516077e+2, -819566.75, -869660.9, 37820.2, -0.030108994, -0.3608694, -799251.7, 32148.283, 0.0, 10.000193, 9.9995365 
2.5661823e+3, 2.2515333e+2, -833339.56, -996181.7, -156351.58, -0.0725637, -0.2211459, -738479.0, -5006.0283, 0.0, 10.000069, 9.99809 
2.565794e+3, 2.3514502e+2, -422208.2, -774860.56, -102161.56, 0.15459768, -0.19481345, -394750.4, 240807.89, 0.0, 10.00233, 9.99785 
2.5654054e+3, 2.4513638e+2, -237053.16, -534502.75, -29178.85, 0.24018136, -0.11193522, -234217.83, 303428.7, 0.0, 10.00253, 9.998708 
2.5650162e+3, 2.5512698e+2, -388508.44, -572940.25, -104153.33, 0.17488942, -0.26598734, -341614.0, 98127.07, 0.0, 10.000905, 9.998553 
2.564628e+3, 2.6511937e+2, -339861.56, -477891.5, -40554.695, 0.12043905, -0.12093859, -328828.13, 12989.957, 0.0, 10.000544, 9.9986515 
2.5642416e+3, 2.751125e+2, -115141.34, -336660.44, -26180.715, 0.11979059, -0.031762637, -112089.17, 131799.48, 0.0, 10.001485, 9.998491 
2.5638545e+3, 2.8510466e+2, -194045.38, -470576.22, -15439.81, 0.06724633, 0.16034439, -193185.98, -47213.434, 0.0, 10.000845, 9.997242 
2.5634667e+3, 2.9509583e+2, -409988.78, -549557.2, -47407.207, -0.041919447, 0.17529827, -395409.03, -347338.88, 0.0, 9.998791, 9.997018 
2.5630817e+3, 3.050861e+2, -224849.64, -121121.664, -42590.23, 0.077775866, 0.13701129, -105875.29, -105875.29, 0.0, 9.998422, 9.999834 
2.562699e+3, 3.1508154e+2, -79817.4, 99517.984, 57806.13, 0.4591021, 0.30568162, 116536.016, 116536.016, 0.0, 9.998531, 10.001298 
2.5800392e+3, 1.2562145e+2, -1843078.9, -1746026.3, 54134.438, -0.1747104, 0.10894342, -1721852.3, -12954.222, 0.21373183, 9.998798, 10.000162 
2.5796524e+3, 1.3561165e+2, -1520601.3, -1544951.9, -11429.616, -0.339463, -0.39862782, -1516077.1, 94904.99, 0.14603193, 10.000608, 10.000126 
2.579269e+3, 1.4560306e+2, -1420198.4, -1525480.9, 7677.456, -0.11777731, -0.44773605, -1419641.5, 93422.375, 0.080827504, 10.000951, 9.999347 
2.5788862e+3, 1.5559772e+2, -1235922.3, -1459162.6, -51739.727, 0.20615076, -0.32149988, -1224513.8, 190607.63, 0.032553293, 10.001822, 9.998729 
2.5784993e+3, 1.6558956e+2, -1171014.0, -1577550.4, -93458.305, 0.21998388, -0.14799154, -1150558.3, 166646.63, 0.007938516, 10.0025215, 9.996828 
2.578109e+3, 1.7557807e+2, -1143909.6, -1561152.0, -103821.2, -0.051979523, -0.37081525, -1119503.6, 99816.05, 0.00076767127, 10.00222, 9.996436 
2.577722e+3, 1.8557045e+2, -905668.4, -1135565.8, -35094.094, -0.05661994, -0.13363838, -900430.56, 220967.14, 0.000005913737, 10.002068, 9.998777 
2.5773385e+3, 1.9556543e+2, -848717.6, -1101183.0, -36942.92, 0.15712672, 0.101633325, -843422.9, 180028.42, 0.0, 10.001976, 9.998395 
2.5769523e+3, 2.0555842e+2, -729996.9, -841865.0, -78050.18, 0.17905903, 0.25802246, -689907.75, 235612.36, 0.0, 10.00141, 9.999774 
2.5765634e+3, 2.1554899e+2, -973493.2, -952084.94, -69743.46, 0.008452839, -0.055529904, -892228.94, -64619.664, 0.0, 9.999239, 9.999402 
2.576176e+3, 2.2554044e+2, -878603.7, -820993.56, -76888.414, 0.039703406, -0.097243644, -767691.6, -38003.848, 0.0, 9.999157, 9.999651 
2.5757897e+3, 2.355317e+2, -556603.8, -692865.06, -26629.967, 0.22915742, -0.302606, -551584.4, 80182.65, 0.0, 10.000989, 9.998995 
2.5754008e+3, 2.4552293e+2, -552409.9, -878178.1, -105303.46, 0.24576141, -0.18512373, -521335.13, 12519.681, 0.0, 10.001363, 9.996844 
2.5750092e+3, 2.555132e+2, -692960.44, -931478.6, -148154.66, 0.10684118, -0.23049968, -622028.75, -186070.45, 0.0, 9.99986, 9.996554 
2.5746202e+3, 2.6550525e+2, -436834.44, -459893.97, -16298.944, -0.0017290349, -0.0485719, -428399.44, -90358.89, 0.0, 9.999704, 9.99916 
2.574234e+3, 2.7549833e+2, -211288.36, -359842.4, 19592.518, -0.09018592, -0.049768258, -208747.78, 31362.672, 0.0, 10.000834, 9.998619 
2.5738478e+3, 2.854907e+2, -291461.97, -501083.72, -104342.6, 0.014472102, 0.16281031, -248378.63, -106187.945, 0.0, 10.000224, 9.997291 
2.573461e+3, 2.9548135e+2, -565461.7, -636556.7, -64691.043, 0.1960335, 0.10554148, -527194.8, -482904.03, 0.0, 9.997875, 9.996841 
2.5730702e+3, 3.054709e+2, -359361.34, -238585.67, 46212.55, -0.17706817, 0.03407886, -222932.13, -222932.13, 0.0, 9.997831, 9.999277 
2.5726858e+3, 3.1546474e+2, -13208.238, 261861.52, 59911.047, -0.24324149, 0.080165856, 274343.88, 274343.88, 0.0, 9.998579, 10.002359 
2.5900343e+3, 1.2600553e+2, -1545679.5, -1452372.5, 62462.13, -0.11128239, -0.09362606, -1421064.0, 284069.1, 0.19077115, 10.000223, 10.001931 
2.589648e+3, 1.3599855e+2, -1417560.0, -1457593.6, 73489.75, -0.21726343, -0.31741855, -1361409.8, 245777.56, 0.12932457, 10.001167, 10.000573 
2.589263e+3, 1.4598931e+2, -1573148.9, -1761330.5, -14588.957, -0.12408646, -0.37083808, -1572024.6, -62746.664, 0.07062259, 10.000442, 9.998018 
2.5888783e+3, 1.5598172e+2, -1641515.3, -1788155.4, -82726.555, 0.070687294, -0.2948979, -1604293.4, -192931.5, 0.027766839, 9.999457, 9.997652 
2.588493e+3, 1.659739e+2, -1268843.0, -1449196.6, -41825.754, 0.109391324, -0.13665046, -1259615.4, 53826.25, 0.0064744665, 10.000959, 9.99852 
2.5881067e+3, 1.7596494e+2, -772244.2, -1227787.1, 44802.652, 0.07018033, -0.22176363, -767879.7, 447649.44, 0.0005723583, 10.00393, 9.997971 
2.5877196e+3, 1.8595715e+2, -756509.25, -1006366.7, -29000.27, 0.10321373, -0.09784225, -753187.44, 364419.0, 0.0000035552432, 10.002748, 9.999377 
2.587332e+3, 1.9595008e+2, -1291412.3, -1274189.1, 2879.542, 0.19171342, -0.059650812, -1273720.5, -254042.48, 0.0, 9.99858, 9.9989195 
2.5869447e+3, 2.0594327e+2, -1096393.4, -974590.5, 56585.94, 0.15748392, 0.06732427, -952359.8, -30613.953, 0.0, 9.998611, 10.000252 
2.5865573e+3, 2.1593587e+2, -595635.1, -755006.06, 54897.957, 0.062003903, -0.008574025, -578555.1, 245263.28, 0.0, 10.001614, 9.99968 
2.58617e+3, 2.2592755e+2, -429264.34, -577289.0, -26199.229, 0.090810545, -0.052808702, -424764.1, 301132.03, 0.0, 10.002027, 9.99996 
2.5857833e+3, 2.3591833e+2, -578447.5, -697136.5, -69000.68, 0.21915156, -0.280741, -546781.75, 81198.086, 0.0, 10.000686, 9.999156 
2.5853944e+3, 2.4590938e+2, -517465.88, -775408.56, -113716.086, 0.20318875, -0.24454746, -474492.6, 55574.82, 0.0, 10.001131, 9.997709 
2.585003e+3, 2.5589994e+2, -234696.2, -650852.06, -29049.65, 0.09118969, -0.2689548, -232678.17, 199486.92, 0.0, 10.002642, 9.997184 
2.584614e+3, 2.6589233e+2, -78057.125, -257807.92, 138525.89, -0.052785538, -0.092842355, -2805.2766, 331439.2, 0.0, 10.001927, 9.999519 
2.5842264e+3, 2.758857e+2, -348648.44, -424277.47, 96144.305, -0.16002418, -0.019383142, -283149.5, -46836.445, 0.0, 9.999737, 9.998785 
2.5838408e+3, 2.8587782e+2, -242994.55, -333205.75, -4112.861, 0.025610222, 0.09322243, -242807.42, -104413.164, 0.0, 9.99981, 9.9986925 
2.583454e+3, 2.9586816e+2, -82630.51, -322138.3, 45278.31, 0.3358715, -0.07112725, -74356.59, -33862.367, 0.0, 10.000675, 9.997719 
2.583062e+3, 3.0585957e+2, -62212.26, -148256.78, 197217.1, -0.1946517, 0.0440266, 96620.62, 96620.62, 0.0, 10.00009, 9.99883 
2.5826824e+3, 3.1584883e+2, -322316.8, -25589.707, -167628.38, 0.33507323, -0.24804218, 49901.64, 49901.64, 0.0, 9.996912, 10.001264 
2.6000318e+3, 1.2639174e+2, -1688747.1, -1638332.5, 122083.195, 0.25494802, -0.21459162, -1538881.5, 162465.23, 0.16949552, 9.999829, 10.000555 
2.5996447e+3, 1.3638595e+2, -1367727.1, -1553878.0, 43828.293, 0.012506441, -0.28189847, -1357924.3, 245465.14, 0.11391175, 10.002159, 9.999328 
2.599257e+3, 1.463767e+2, -1444526.9, -1856768.1, -35139.527, -0.07175928, -0.19155155, -1441553.1, 63930.656, 0.061296463, 10.002208, 9.996407 
2.5988695e+3, 1.5636623e+2, -1500634.1, -1909482.5, -64255.53, -0.07967558, -0.2566218, -1490773.4, -83172.83, 0.023481611, 10.00136, 9.995847 
2.5984865e+3, 1.663592e+2, -1025992.0, -1091294.5, 103104.82, 0.08256168, -0.045540478, -950491.9, 359178.6, 0.005220199, 10.001678, 10.000632 
2.5981063e+3, 1.7635365e+2, -925122.3, -1131420.4, 85638.19, 0.3670125, -0.007036769, -894205.6, 317512.9, 0.00041937284, 10.002227, 9.99946 
2.5977176e+3, 1.8634453e+2, -930341.8, -1074172.3, -193955.53, 0.41188493, -0.0930867, -795398.3, 318405.84, 0.0000020172258, 10.0015745, 9.999428 
2.5973246e+3, 1.9633272e+2, -1316645.8, -1321406.8, -153011.17, 0.3130701, -0.5611315, -1165996.5, -150079.03, 0.0, 9.998653, 9.998524 
2.596937e+3, 2.0632622e+2, -1101447.8, -951976.8, 135443.66, 0.23345664, -0.39235586, -872017.8, 45964.887, 0.0, 9.998638, 10.000332 
2.5965524e+3, 2.1632223e+2, -899902.7, -942584.0, 115473.44, 0.16182813, -0.16261965, -803814.5, 16210.608, 0.0, 9.999874, 9.999174 
2.596165e+3, 2.26315e+2, -718080.3, -840442.4, -89638.73, 0.10123923, -0.004284098, -670733.8, 51363.74, 0.0, 10.000691, 9.998755 
2.595775e+3, 2.3630509e+2, -859764.3, -964004.2, -110972.984, 0.069606915, -0.21689036, -789281.3, -165086.3, 0.0, 9.999432, 9.99789 
2.5953868e+3, 2.4629629e+2, -515721.9, -517840.84, -62791.605, 0.07770774, -0.22813195, -453980.84, 72296.57, 0.0, 10.000153, 9.999912 
2.5949982e+3, 2.5628746e+2, -308886.1, -508632.4, 26960.326, 0.06114702, -0.449284, -305311.2, 123047.38, 0.0, 10.001447, 9.998724 
2.594608e+3, 2.6628053e+2, -281003.2, -442107.03, 37473.656, -0.0797374, -0.22184733, -272713.2, 57716.742, 0.0, 10.00104, 9.998639 
2.5942186e+3, 2.76274e+2, -554652.2, -620691.9, 38531.207, -0.24482605, -0.080935664, -536927.94, -304425.8, 0.0, 9.998818, 9.997873 
2.5938326e+3, 2.8626606e+2, -218533.81, -122956.38, 37692.027, -0.070986815, -0.025482383, -109880.9, 24700.955, 0.0, 9.999222, 10.0004015 
2.5934467e+3, 2.96257e+2, -60316.24, -196875.34, 100698.766, 0.15341064, -0.30653587, -6930.927, 29737.93, 0.0, 10.000452, 9.998667 
2.5930575e+3, 3.0625117e+2, -231646.73, -438708.06, 74958.36, 0.035112582, 0.14713076, -207359.73, -207359.73, 0.0, 9.999975, 9.996825 
2.592667e+3, 3.1623977e+2, -454479.53, -77323.88, -58316.125, -0.27742007, -0.050362866, -68512.836, -68512.836, 0.0, 9.9961195, 10.001237 
2.6100254e+3, 1.2677974e+2, -1661879.8, -1666544.0, 188500.08, 0.1617694, -0.18395016, -1475697.4, 221843.0, 0.14988421, 10.000123, 10.000269 
2.609641e+3, 1.3677277e+2, -1161991.9, -1559626.6, 147595.63, -0.046845295, -0.23483339, -1113195.0, 486406.38, 0.09979623, 10.004065, 9.998426 
2.6092544e+3, 1.4676358e+2, -975959.2, -1535692.0, 5568.3633, -0.104976594, -0.14077435, -975903.8, 525790.6, 0.05285716, 10.005178, 9.99721 
2.6088676e+3, 1.5675263e+2, -861413.0, -1536555.5, 58879.387, -0.052095864, -0.2748032, -856316.56, 547493.94, 0.019694533, 10.005443, 9.99649 
2.608483e+3, 1.6674508e+2, -724182.5, -962167.5, 112226.766, 0.11265121, -0.13796417, -679608.3, 626276.0, 0.004163879, 10.003745, 10.000534 
2.6081005e+3, 1.7673914e+2, -1151873.8, -1255348.4, 41710.426, 0.33789143, -0.09855793, -1137154.3, 70783.41, 0.00030229846, 10.000642, 9.999387 
2.607711e+3, 1.867308e+2, -966653.7, -1115788.1, -199592.73, 0.32478344, -0.096358776, -828153.94, 281863.6, 0.0000010444409, 10.001304, 9.999332 
2.607318e+3, 1.9672042e+2, -583577.4, -984637.8, -169511.03, 0.17303893, -0.37123945, -521531.2, 490588.0, 0.0, 10.003587, 9.998518 
2.60693e+3, 2.0671286e+2, -565719.94, -728417.7, 13092.54, 0.16743562, -0.3118058, -564673.06, 349522.13, 0.0, 10.002341, 10.000121 
2.606546e+3, 2.1670683e+2, -1003213.25, -1004142.44, -21641.828, 0.22780594, -0.23610099, -982031.06, -165773.56, 0.0, 9.999044, 9.999197 
2.6061583e+3, 2.2670037e+2, -792041.44, -749685.0, -91866.54, 0.15101653, -0.091354705, -676587.1, 41734.363, 0.0, 9.999486, 10.000022 
2.6057684e+3, 2.366929e+2, -454760.84, -670059.44, -2968.082, 0.026897812, -0.12776688, -454719.94, 165674.4, 0.0, 10.001592, 9.998934 
2.6053798e+3, 2.4668446e+2, -298853.47, -384560.28, -15222.086, 0.034464434, -0.15908064, -296230.22, 226243.17, 0.0, 10.001449, 10.000203 
2.604992e+3, 2.5667533e+2, -453846.72, -568238.56, -99963.25, 0.10437559, -0.39465916, -395873.1, 28683.809, 0.0, 10.000255, 9.998929 
2.6046023e+3, 2.6666766e+2, -302988.0, -480361.63, -113338.34, -0.031408865, -0.26568037, -247761.88, 78872.84, 0.0, 10.000854, 9.998541 
2.6042116e+3, 2.7666047e+2, -123440.48, -413608.5, -99867.43, -0.21041955, -0.14763492, -92391.375, 136321.81, 0.0, 10.001637, 9.997989 
2.603825e+3, 2.8665286e+2, 80548.664, 124953.08, -62710.832, -0.09063427, -0.13537198, 169275.95, 300063.13, 0.0, 10.000807, 10.001329 
2.603439e+3, 2.9664502e+2, -209855.3, -207423.05, -86979.95, 0.096631624, -0.35409537, -121650.72, -88791.84, 0.0, 9.999073, 9.999275 
2.6030517e+3, 3.066404e+2, -330913.34, -482817.1, -45286.977, 0.23914538, 0.15968628, -318436.75, -318436.75, 0.0, 9.999092, 9.996991 
2.602664e+3, 3.166229e+2, -5463.1694, 269375.88, 79081.35, 0.37899327, -0.6347895, 290505.97, 290505.97, 0.0, 9.998529, 10.002446 
2.620019e+3, 1.2716593e+2, -1453559.3, -1594656.8, 174433.78, 0.10858279, -0.21719606, -1335947.8, 357806.28, 0.13183987, 10.002103, 9.999672 
2.6196373e+3, 1.371595e+2, -1517413.1, -1814222.8, 100804.78, -0.066711985, -0.18630157, -1486414.5, 109401.88, 0.08692974, 10.001839, 9.9976425 
2.6192528e+3, 1.4715049e+2, -1226361.8, -1567366.1, -41267.074, -0.04093359, -0.10503693, -1221438.9, 276465.88, 0.045284748, 10.002913, 9.998101 
2.6188672e+3, 1.5713984e+2, -1088709.3, -1601642.8, -18653.8, 0.11066884, -0.32094008, -1088031.8, 311978.13, 0.01638905, 10.003679, 9.996909 
2.6184803e+3, 1.6713142e+2, -907103.7, -1159770.8, -35339.21, 0.19205254, -0.2385651, -902254.06, 399837.5, 0.0032885466, 10.003067, 9.999456 
2.618093e+3, 1.7712376e+2, -1265777.8, -1451209.0, -100447.46, 0.25107095, -0.28300527, -1221797.1, -17631.758, 0.00021471751, 10.000541, 9.998088 
2.6177034e+3, 1.8711728e+2, -1036292.6, -1176178.1, -146258.31, 0.16864535, -0.037039287, -944113.56, 162118.05, 0.00000047553752, 10.001008, 9.999028 
2.6173124e+3, 1.9711086e+2, -920222.1, -1234830.3, -140343.77, 0.010802292, 0.09319296, -866715.94, 141583.44, 0.0, 10.001767, 9.997657 
2.6169243e+3, 2.0710127e+2, -806092.2, -928869.44, -115621.21, 0.07962639, 0.035510886, -736573.1, 173822.98, 0.0, 10.00116, 9.999269 
2.6165378e+3, 2.1709031e+2, -1225327.0, -1166298.3, -120980.38, 0.25634688, -0.33314595, -1071284.1, -258778.94, 0.0, 9.997885, 9.99862 
2.6161507e+3, 2.2708514e+2, -723744.9, -405267.53, -20629.037, 0.20444648, -0.19186549, -403936.88, 310614.94, 0.0, 9.998783, 10.002659 
2.6157627e+3, 2.3708199e+2, -619620.4, -594203.5, 36650.31, 0.031819597, -0.0777439, -568120.9, 48455.973, 0.0, 9.999966, 10.000191 
2.6153737e+3, 2.4707404e+2, -599519.0, -756402.75, -67906.32, 0.009723873, 0.015020187, -574209.25, -55553.676, 0.0, 10.000511, 9.998035 
2.6149848e+3, 2.5706363e+2, -803709.6, -976994.7, -123522.5, 0.05952048, -0.15779305, -739472.25, -318711.13, 0.0, 9.999026, 9.996672 
2.614596e+3, 2.6705432e+2, -384602.56, -475459.4, -84320.234, -0.03517605, -0.12003984, -334251.84, -11397.367, 0.0, 10.000195, 9.99883 
2.6142067e+3, 2.7704525e+2, -215580.1, -469738.88, -72089.05, -0.2180731, -0.25425908, -196556.77, 28389.063, 0.0, 10.001145, 9.997802 
2.6138178e+3, 2.8703806e+2, 206.44788, 60635.625, -163601.98, -0.19327417, -0.17997435, 196789.69, 323805.56, 0.0, 10.0005045, 10.000977 
2.6134294e+3, 2.9703146e+2, -358997.84, -278649.94, -145421.14, -0.085807644, -0.2736562, -167955.55, -138876.86, 0.0, 9.998146, 9.999217 
2.6130423e+3, 3.0702657e+2, -194775.73, -473.19205, -45364.008, 0.097786225, -0.0024589472, 9596.163, 9596.163, 0.0, 9.998295, 10.00068 
2.6126498e+3, 3.1701902e+2, -94722.586, 146917.75, 136183.27, -0.34205505, -0.1470339, 208150.86, 208150.86, 0.0, 9.998373, 10.001682 
2.6300168e+3, 1.2754896e+2, -1155216.1, -1449100.5, -93245.81, 0.03326186, -0.11138686, -1128127.4, 561882.7, 0.11528824, 10.004276, 9.99976 
2.6296303e+3, 1.3754185e+2, -1727468.8, -1857125.3, -62194.58, -0.2087234, -0.16896877, -1702459.0, -110379.89, 0.07524984, 9.999911, 9.998331 
2.6292455e+3, 1.4753433e+2, -1449654.0, -1482399.8, -43624.773, -0.19794989, -0.08662899, -1419430.8, 74717.11, 0.038529176, 10.000378, 9.999961 
2.628862e+3, 1.575259e+2, -1132795.1, -1481265.5, -12689.06, -0.047204714, -0.24076664, -1132333.6, 263891.25, 0.013527696, 10.002642, 9.998286 
2.628475e+3, 1.6751644e+2, -962210.25, -1354460.5, -147086.53, 0.06640819, -0.2411092, -913183.4, 385134.03, 0.0025719018, 10.003293, 9.998081 
2.6280874e+3, 1.7750676e+2, -961557.6, -1375421.1, -212384.45, 0.14114133, -0.33360887, -871963.0, 328450.66, 0.00015054179, 10.0027895, 9.9975815 
2.6276973e+3, 1.875004e+2, -857397.2, -988339.44, -246871.44, 0.13074322, -0.13706642, -667462.8, 435015.38, 0.0000001940375, 10.001682, 10.000025 
2.6273063e+3, 1.9749491e+2, -1128021.3, -1230516.5, -170708.08, 0.0461489, 0.0037060387, -1001034.25, 3500.5173, 0.0, 9.999711, 9.998729 
2.626918e+3, 2.0748642e+2, -972223.0, -1007855.8, -106969.96, 0.1263372, 0.0039779725, -881595.94, 25025.568, 0.0, 9.999903, 9.999395 
2.6265308e+3, 2.1747644e+2, -731723.1, -879799.06, -51757.65, 0.2709226, -0.23947375, -715425.75, 93296.914, 0.0, 10.000891, 9.999199 
2.6261434e+3, 2.2747093e+2, -448682.6, -255123.61, -22574.912, 0.18749505, -0.17846172, -252525.56, 458247.34, 0.0, 10.000471, 10.002931 
2.625755e+3, 2.3746736e+2, -644862.44, -554745.8, -104579.43, 0.009819043, -0.10993828, -485930.94, 126870.42, 0.0, 9.999381, 10.000809 
2.625367e+3, 2.474601e+2, -565363.6, -714419.4, -137486.67, 0.017391793, -0.018539315, -483504.22, 31370.064, 0.0, 10.0004835, 9.998405 
2.6249784e+3, 2.5745088e+2, -306885.3, -682212.75, -35901.438, 0.0894691, -0.07158217, -303482.06, 113487.94, 0.0, 10.002043, 9.997296 
2.6245895e+3, 2.6744157e+2, -231848.45, -380865.94, 30372.264, -0.010274118, -0.069394656, -225895.86, 93167.89, 0.0, 10.001091, 9.999066 
2.6242006e+3, 2.7743208e+2, -460676.44, -526731.56, -14610.178, -0.17429867, -0.22125131, -457589.22, -236431.89, 0.0, 9.999076, 9.998442 
2.6238108e+3, 2.874252e+2, -207452.19, -26032.771, -98790.85, -0.15231542, -0.16267751, 17376.436, 140601.16, 0.0, 9.998891, 10.001209 
2.6234213e+3, 2.974193e+2, -198551.33, -111577.86, -58595.36, -0.041799977, -0.17064175, -82095.336, -56813.664, 0.0, 9.998756, 10.000111 
2.6230332e+3, 3.0741328e+2, 178955.28, 302552.8, -34068.797, 0.026363537, -0.1323133, 311321.56, 311321.56, 0.0, 10.000254, 10.001853 
2.622649e+3, 3.1741163e+2, 191509.36, 310917.03, -77451.61, 0.4114461, 0.24496181, 349005.3, 349005.3, 0.0, 10.0000725, 10.002042 
2.6400143e+3, 1.2793219e+2, -1484925.3, -1603233.3, -169166.1, 0.117628366, 0.05116477, -1364868.9, 321396.1, 0.10017185, 10.001721, 9.999801 
2.6396227e+3, 1.3792413e+2, -1479995.6, -1692228.9, -166408.73, -0.255182, -0.12743093, -1388748.1, 199594.2, 0.06469282, 10.001594, 9.998656 
2.6392382e+3, 1.4791808e+2, -1181565.6, -1179796.8, 1779.211, -0.27385336, -0.027086329, -1178694.3, 311698.6, 0.032530583, 10.001604, 10.001445 
2.6388562e+3, 1.5791143e+2, -1291220.3, -1527896.8, -63173.477, -0.15765142, -0.15979673, -1275413.6, 117033.64, 0.011066901, 10.001494, 9.998479 
2.63847e+3, 1.6790102e+2, -1231933.6, -1613727.3, -177667.84, -0.025831997, -0.20007561, -1162048.1, 132501.36, 0.0019930317, 10.002067, 9.996836 
2.6380822e+3, 1.7788951e+2, -1252664.0, -1632503.4, -205788.84, 0.1002269, -0.3678044, -1162550.6, 34115.46, 0.00010503105, 10.001356, 9.996499 
2.6376918e+3, 1.8788254e+2, -900107.8, -826610.06, -272195.38, 0.17002524, -0.29257798, -588694.0, 510039.63, 0.00000008640195, 10.000836, 10.001417 
2.6373002e+3, 1.9787687e+2, -1206997.8, -1195914.9, -218619.22, 0.22002992, -0.31687734, -982766.9, 18020.273, 0.0, 9.999036, 9.999233 
2.636912e+3, 2.0787098e+2, -971409.4, -944480.94, -62667.555, 0.26397505, -0.11350648, -893847.5, 9001.908, 0.0, 9.999697, 9.999905 
2.6365247e+3, 2.1786459e+2, -1004539.4, -1057535.5, -38602.793, 0.30803052, -0.061611578, -984215.2, -179296.97, 0.0, 9.999297, 9.998748 
2.6361358e+3, 2.2785734e+2, -711716.06, -547003.06, -64034.848, 0.14652005, -0.07284587, -525037.7, 181951.05, 0.0, 9.999479, 10.001343 
2.6357466e+3, 2.3784997e+2, -974387.0, -842664.44, -113565.45, -0.06638168, -0.26482227, -777244.25, -168186.72, 0.0, 9.99778, 9.999586 
2.6353598e+3, 2.4784379e+2, -508308.9, -404702.25, -76506.38, -0.009302586, -0.17098509, -364110.7, 147006.19, 0.0, 9.999764, 10.00084 
2.6349735e+3, 2.578374e+2, -399570.97, -574066.75, -7129.845, 0.09917228, -0.19668037, -399280.13, 13899.37, 0.0, 10.000848, 9.99861 
2.6345834e+3, 2.6782966e+2, -361611.72, -448027.63, -61626.6, -0.003023375, -0.08550735, -329555.03, -14295.956, 0.0, 10.000357, 9.998908 
2.634192e+3, 2.7782136e+2, -693412.1, -673351.6, -60644.824, -0.18241744, -0.12637138, -621913.2, -404568.88, 0.0, 9.997747, 9.998067 
2.6338035e+3, 2.8781512e+2, -295712.88, 5180.8384, -85984.5, -0.027941838, -0.022832882, 28018.693, 147422.38, 0.0, 9.9980545, 10.001798 
2.633415e+3, 2.9780945e+2, -361020.7, -273241.44, -1060.696, 0.11831438, -0.07156155, -273228.63, -251772.11, 0.0, 9.998077, 9.999323 
2.6330253e+3, 3.0780002e+2, -47686.07, -200554.4, 11258.678, -0.11454607, -0.13337271, -46861.324, -46861.324, 0.0, 10.000494, 9.998226 
2.6326397e+3, 3.1779224e+2, 51009.652, -56624.97, -183307.47, -0.012102734, -0.05714561, 188236.66, 188236.66, 0.0, 10.000496, 9.999281 
2.6500085e+3, 1.2831643e+2, -1727456.1, -1769676.9, -46903.363, 0.04970613, 0.11781966, -1697131.4, -14626.545, 0.08643013, 9.999998, 9.999453 
2.6496214e+3, 1.3830869e+2, -1042934.2, -1519256.4, -34069.188, -0.14942259, 0.04816823, -1040509.7, 544068.75, 0.055199515, 10.0047865, 9.998381 
2.649237e+3, 1.4830157e+2, -948647.25, -1169906.3, -85718.16, -0.07121745, 0.10040012, -919325.0, 567318.0, 0.027235242, 10.003613, 10.000565 
2.6488534e+3, 1.5829374e+2, -1369670.6, -1509213.9, -178172.92, 0.09168592, -0.06786815, -1248095.4, 140618.2, 0.0089680515, 10.000594, 9.999066 
2.648465e+3, 1.6828535e+2, -1269118.8, -1288053.6, -180138.27, 0.08546836, -0.1339911, -1098199.3, 192590.2, 0.0015322798, 10.000353, 9.999881 
2.6480752e+3, 1.7827642e+2, -1234610.1, -1372759.0, -73507.71, 0.0029427262, -0.29719982, -1202815.0, -9942.569, 0.00007382683, 10.000299, 9.99881 
2.647684e+3, 1.8826927e+2, -922476.25, -895468.25, -159121.11, 0.024817232, -0.27522328, -749279.1, 345663.03, 0.000000036839044, 10.00086, 10.000985 
2.6472926e+3, 1.9826281e+2, -833919.2, -973992.25, -155139.77, 0.056878075, -0.30497563, -733739.8, 263266.34, 0.0, 10.001278, 9.999713 
2.646905e+3, 2.0825718e+2, -745172.94, -750146.4, -46452.637, 0.2395632, -0.15040892, -701140.5, 197923.72, 0.0, 10.000783, 10.000745 
2.646518e+3, 2.1825165e+2, -893472.2, -924927.25, 7306.0127, 0.38964996, -0.060991548, -891858.06, -90735.89, 0.0, 9.999588, 9.999545 
2.6461282e+3, 2.2824405e+2, -718525.9, -656302.0, 17365.441, 0.13308755, -0.07826995, -651783.75, 51414.305, 0.0, 9.999763, 10.000515 
2.6457375e+3, 2.3823582e+2, -593196.75, -659807.56, 15204.151, -0.19253305, -0.24069828, -589890.44, 15388.566, 0.0, 10.000222, 9.999717 
2.6453522e+3, 2.4823007e+2, -437850.88, -288088.97, 4447.8843, -0.025391368, -0.1558214, -287957.0, 219378.13, 0.0, 9.999762, 10.00171 
2.644968e+3, 2.5822482e+2, -571013.7, -521286.78, -68814.414, 0.25104174, -0.120999426, -472981.84, -63595.78, 0.0, 9.998893, 9.999971 
2.6445767e+3, 2.682179e+2, -454883.78, -386866.9, -112878.47, 0.06018117, -0.05585101, -302985.06, 8469.048, 0.0, 9.999129, 9.999954 
2.6441836e+3, 2.7821046e+2, -403355.88, -421277.47, -33997.496, -0.15470976, -0.08021709, -377158.1, -163629.9, 0.0, 9.999082, 9.99919 
2.6437956e+3, 2.8820387e+2, -65303.25, 81330.16, -38795.02, 0.041934744, -0.04836303, 90961.586, 206552.53, 0.0, 9.999673, 10.001569 
2.6434076e+3, 2.9819763e+2, -137015.95, -227979.16, -17278.852, 0.2172271, -0.094128564, -133844.34, -116194.81, 0.0, 9.999739, 9.998853 
2.643018e+3, 3.0818814e+2, -218716.39, -467428.4, 117727.95, -0.13701588, -0.044123434, -171829.03, -171829.03, 0.0, 10.000002, 9.996672 
2.6426336e+3, 3.1817555e+2, 54503.727, 80157.29, -84227.85, 0.039168917, -0.29504788, 152529.44, 152529.44, 0.0, 9.999746, 10.0006275 
2.660004e+3, 1.2870136e+2, -1215593.4, -1571213.5, 162349.06, 0.13253936, 0.18082187, -1152626.4, 526108.6, 0.073999934, 10.004102, 9.998803 
2.6596212e+3, 1.38694e+2, -1307865.8, -1809764.9, 39373.625, 0.083379835, 0.1828937, -1304795.6, 276008.56, 0.04671151, 10.003579, 9.996913 
2.6592362e+3, 1.4868559e+2, -1202263.8, -1404118.1, -107911.53, 0.23985918, 0.23947752, -1155437.1, 327450.34, 0.022592498, 10.0024805, 9.999413 
2.6588506e+3, 1.5867655e+2, -1444240.6, -1513241.8, -176825.6, 0.4949417, 0.04473772, -1298581.4, 86394.805, 0.0071954923, 10.000067, 9.99929 
2.6584598e+3, 1.6867055e+2, -1022948.3, -756035.5, -121355.984, 0.2975749, -0.0366617, -709109.3, 577912.0, 0.001170623, 10.000328, 10.003526 
2.6580682e+3, 1.7866507e+2, -1223283.3, -1177844.0, -94037.76, 0.0015385065, -0.2012813, -1103820.3, 85239.39, 0.00005271245, 9.999707, 10.000402 
2.6576757e+3, 1.8865779e+2, -1050953.5, -1090371.6, -156114.95, -0.123851396, -0.17690147, -913308.4, 177825.02, 0.000000014947995, 10.00063, 9.999723 
2.657284e+3, 1.9865038e+2, -1117091.3, -1226055.1, -164128.02, -0.13855553, -0.19516908, -998638.9, -5426.7354, 0.0, 9.999962, 9.998608 
2.6568976e+3, 2.0864432e+2, -785263.94, -646521.4, -103782.14, 0.17818613, -0.12772727, -591060.4, 304210.78, 0.0, 10.000191, 10.00162 
2.6565114e+3, 2.1863832e+2, -1128021.4, -1065527.6, -38656.67, 0.5146907, -0.18302941, -1047068.3, -249739.78, 0.0, 9.998304, 9.999125 
2.65612e+3, 2.2863154e+2, -839322.75, -744145.2, 31546.396, 0.116064005, -0.08652604, -734638.75, -35241.016, 0.0, 9.999224, 10.000068 
2.6557282e+3, 2.3862451e+2, -903115.2, -919466.94, 9882.099, -0.3979731, -0.1086789, -898465.25, -296994.75, 0.0, 9.998733, 9.998607 
2.6553446e+3, 2.4861883e+2, -609965.1, -452940.56, -42241.473, -0.04618692, 0.060570013, -442298.38, 61232.18, 0.0, 9.999043, 10.000873 
2.6549613e+3, 2.586133e+2, -835473.8, -675698.6, -87700.96, 0.4150879, 0.1115764, -636954.5, -231366.52, 0.0, 9.997355, 9.999612 
2.6545686e+3, 2.6860675e+2, -426959.25, -90351.14, -97018.51, 0.101533, 0.060444612, -64390.31, 243253.84, 0.0, 9.998297, 10.002296 
2.6541743e+3, 2.785996e+2, -504709.66, -399552.16, 14507.349, -0.32350147, -0.16488865, -397587.44, -187882.1, 0.0, 9.998257, 9.999686 
2.6537862e+3, 2.8859067e+2, -205852.13, -145834.13, -20051.598, -0.16318984, -0.2873598, -139751.48, -27960.06, 0.0, 9.999555, 9.999982 
2.6533982e+3, 2.985824e+2, -304324.13, -433194.22, 764.9041, -0.060502946, -0.39938143, -304319.6, -290445.72, 0.0, 9.999281, 9.997627 
2.6530105e+3, 3.0858022e+2, -189347.42, -274876.2, 103504.836, -0.17488813, 0.31428346, -120120.54, -120120.54, 0.0, 9.999533, 9.998158 
2.6526263e+3, 3.1856835e+2, -30014.914, 205644.38, -1406.9891, 0.039817497, -0.050398547, 205652.78, 205652.78, 0.0, 9.998571, 10.00202 
2.6700047e+3, 1.2908731e+2, -637523.9, -1286089.4, -27700.248, 0.0040043443, 0.0801103, -636342.94, 1038599.4, 0.062782116, 10.008194, 9.998967 
2.6696175e+3, 1.3907768e+2, -1436043.3, -1822201.5, 8528.105, 0.07465594, -0.10374442, -1435855.0, 141178.23, 0.039146993, 10.002345, 9.997466 
2.6692298e+3, 1.4907046e+2, -1363868.1, -1448793.5, -5817.7095, 0.16920915, 0.03565619, -1363471.4, 115636.766, 0.018543638, 10.001203, 9.9997225 
2.6688427e+3, 1.590634e+2, -1285756.0, -1368006.5, 12502.598, 0.278606, 0.051732764, -1283897.6, 97283.68, 0.005710664, 10.00077, 9.999973 
2.6684532e+3, 1.690574e+2, -829273.06, -645982.1, -4542.565, 0.19623974, -0.06138973, -645869.6, 637358.5, 0.0008890518, 10.001454, 10.003776 
2.6680627e+3, 1.7905168e+2, -910263.9, -1010631.8, -91969.37, 0.031076955, -0.25258648, -855677.6, 329592.66, 0.000037964888, 10.001641, 10.00063 
2.6676708e+3, 1.8904461e+2, -1005093.6, -1151097.0, -192257.66, 0.021808386, -0.1668687, -872444.5, 214900.81, 0.0000000057994387, 10.00118, 9.999095 
2.6672792e+3, 1.9903725e+2, -1048952.0, -1157976.4, -163253.72, 0.052348275, -0.11480886, -931349.8, 58076.82, 0.0, 10.000115, 9.999038 
2.666891e+3, 2.0903131e+2, -614790.5, -517440.1, -106354.93, 0.17313242, -0.079067, -449151.0, 442332.56, 0.0, 10.001109, 10.002113 
2.666503e+3, 2.1902536e+2, -480368.63, -654004.56, -85335.086, 0.2919486, -0.14805721, -445451.47, 348087.06, 0.0, 10.002143, 10.000158 
2.6661125e+3, 2.2901891e+2, -567124.0, -577083.06, -8799.408, 0.05925864, -0.08270433, -561992.9, 133609.52, 0.0, 10.000818, 10.000514 
2.665722e+3, 2.3901229e+2, -796037.8, -822479.9, 18383.186, -0.2289076, -0.06461141, -786615.1, -188945.66, 0.0, 9.999115, 9.999128 
2.6653373e+3, 2.490056e+2, -619196.3, -521322.94, -15929.318, 0.054710977, 0.026208358, -518795.66, -19056.658, 0.0, 9.999186, 10.000353 
2.664953e+3, 2.5899914e+2, -491108.22, -458320.34, -64620.57, 0.42487505, 0.052413918, -408046.6, -6240.8315, 0.0, 9.999375, 10.000148 
2.6645607e+3, 2.6899338e+2, -196663.72, 85818.836, -155743.7, 0.15322076, 0.009393198, 154827.88, 458682.13, 0.0, 9.999456, 10.003022 
2.6641673e+3, 2.7898705e+2, -307319.2, -230410.94, -168303.2, -0.18731755, -0.1860496, -96224.73, 109680.73, 0.0, 9.999162, 10.000454 
2.6637787e+3, 2.8897727e+2, -209818.25, -233225.88, -138035.06, -0.15690407, -0.39426854, -82991.71, 25008.084, 0.0, 9.999782, 9.999361 
2.66339e+3, 2.9896793e+2, -210935.9, -366466.4, -82988.65, -0.12723114, -0.53966236, -174971.0, -164877.89, 0.0, 9.99968, 9.997956 
2.6630023e+3, 3.0896953e+2, -208543.66, -166475.69, -25167.934, -0.2014263, 0.46041018, -154709.47, -154709.47, 0.0, 9.998857, 9.999257 
2.662619e+3, 3.1895703e+2, -73544.58, 288997.3, -135184.56, 0.14776745, -0.049795497, 333854.72, 333854.72, 0.0, 9.997669, 10.003077 
2.6800057e+3, 1.294731e+2, -1319298.0, -1574962.9, -168395.25, 0.12744497, -0.029962381, -1235711.3, 435439.06, 0.05267765, 10.003078, 9.999279 
2.6796135e+3, 1.3946216e+2, -1304963.8, -1725456.1, -124885.36, 0.14962003, -0.41519272, -1270669.9, 302584.16, 0.03242507, 10.003244, 9.997643 
2.6792225e+3, 1.4945641e+2, -1246711.3, -1343138.1, -11171.433, 0.050981607, -0.18832652, -1245433.9, 229882.33, 0.015032841, 10.001826, 10.000087 
2.6788333e+3, 1.594513e+2, -1498722.1, -1512865.9, 6657.365, 0.026418488, -0.024095336, -1496081.5, -118709.45, 0.0044764117, 9.999586, 9.999509 
2.6784462e+3, 1.6944487e+2, -1010496.44, -808260.0, 21688.047, 0.08873742, -0.11894027, -805960.25, 473467.03, 0.00066900725, 10.000693, 10.002969 
2.6780584e+3, 1.7943825e+2, -1150698.4, -1247241.9, -109315.695, 0.17161109, -0.3197953, -1079470.9, 102012.5, 0.000027210404, 10.000642, 9.9994755 
2.677667e+3, 1.8943147e+2, -1081114.8, -1222071.8, -208985.69, 0.30482298, -0.15169655, -931043.4, 152515.08, 0.000000001728097, 10.000919, 9.99869 
2.6772758e+3, 1.994248e+2, -1230724.6, -1311476.9, -136055.8, 0.43093497, 0.006259413, -1129180.4, -143545.63, 0.0, 9.999301, 9.998346 
2.6768845e+3, 2.0941885e+2, -702522.25, -555335.8, -29465.416, 0.18120642, 0.04162051, -549656.25, 338036.38, 0.0, 10.000556, 10.002077 
2.6764938e+3, 2.1941297e+2, -799879.8, -829797.4, -66368.54, -0.08186382, -0.024516141, -746805.2, 42942.082, 0.0, 10.000153, 9.999904 
2.6761058e+3, 2.2940642e+2, -609565.1, -501217.03, -75554.664, 0.036163893, -0.046035077, -462421.53, 229386.0, 0.0, 10.00016, 10.001317 
2.6757184e+3, 2.3939954e+2, -1058077.0, -1008405.4, -18386.05, 0.19624025, -0.12736064, -1002340.3, -408468.78, 0.0, 9.997702, 9.998516 
2.6753303e+3, 2.4939075e+2, -763440.1, -637680.44, -48.11247, 0.17961498, -0.20877504, -637680.44, -141723.23, 0.0, 9.998556, 9.999751 
2.674942e+3, 2.5938222e+2, -814920.2, -772301.8, -58007.164, 0.13776219, -0.3458657, -731813.7, -333772.78, 0.0, 9.997974, 9.99863 
2.6745528e+3, 2.6937747e+2, -388115.0, -172032.16, -178221.39, 0.15217952, -0.15405361, -71660.984, 228426.9, 0.0, 9.998939, 10.001456 
2.674163e+3, 2.7937263e+2, -544630.8, -489442.1, -186798.67, 0.15600513, -0.07235323, -328210.63, -126076.13, 0.0, 9.998233, 9.999123 
2.6737732e+3, 2.893634e+2, -228438.13, -167387.72, -164543.67, 0.041405484, -0.24567741, -30561.76, 73659.35, 0.0, 9.999392, 9.999964 
2.6733825e+3, 2.993542e+2, -329083.06, -419214.6, -127669.21, -0.17467546, -0.45033246, -238759.2, -232450.94, 0.0, 9.998939, 9.997944 
2.6729935e+3, 3.0935094e+2, -303655.16, -222315.38, -131318.61, -0.23483859, 0.0563228, -125513.016, -125513.016, 0.0, 9.998322, 9.999102 
2.672611e+3, 3.19339e+2, -427333.34, -171981.55, 40966.473, 0.18982166, -0.34720147, -165570.22, -165570.22, 0.0, 9.996651, 10.000369 
2.6900032e+3, 1.2985659e+2, -1822214.4, -1760877.0, -30853.291, 0.4484596, -0.4027335, -1748042.9, -80653.72, 0.043619167, 9.999185, 9.99982 
2.6896092e+3, 1.3985236e+2, -991919.1, -1476104.3, -73357.81, -0.06420492, -0.17236114, -981048.94, 588384.3, 0.02648621, 10.004921, 9.998583 
2.689217e+3, 1.498454e+2, -1066055.4, -1216068.1, -125775.875, -0.07073287, -0.12147163, -994618.8, 476885.44, 0.012009438, 10.0027895, 10.0005665 
2.6888266e+3, 1.5983838e+2, -1481763.6, -1465658.8, -12412.3545, 0.048326798, -0.17946059, -1458915.6, -85339.71, 0.003455713, 9.9993725, 9.999976 
2.6884398e+3, 1.698333e+2, -1080336.1, -931857.3, 88100.375, 0.13011706, -0.11180844, -890887.5, 384735.9, 0.00049606664, 10.000434, 10.00232 
2.6880527e+3, 1.7982814e+2, -980157.7, -1137403.9, -49186.93, 0.146486, -0.09885674, -966039.5, 211631.44, 0.00001910138, 10.001524, 9.999856 
2.6876605e+3, 1.8982036e+2, -783522.25, -957830.4, -134779.86, 0.18824494, -0.11878388, -710172.6, 369578.4, 0.0000000002885943, 10.0022745, 9.999926 
2.687268e+3, 1.9981298e+2, -722874.44, -930746.44, -337.58667, 0.21493798, -0.12388406, -722873.9, 258954.39, 0.0, 10.002055, 9.99966 
2.6868773e+3, 2.0980793e+2, -682021.5, -535159.06, 113055.47, 0.103103474, -0.027781714, -473780.47, 410096.63, 0.0, 10.000561, 10.002249 
2.686487e+3, 2.1980286e+2, -916215.44, -846330.1, 112312.9, -0.032691978, 0.007069227, -763649.75, 22275.297, 0.0, 9.99905, 10.0003395 
2.6860997e+3, 2.297955e+2, -546545.44, -510936.16, 62821.81, 0.12580931, -0.059264474, -463444.66, 224549.0, 0.0, 10.000637, 10.001105 
2.6857126e+3, 2.3978788e+2, -336290.66, -583861.9, 55742.453, 0.32233813, -0.17323112, -324318.75, 265745.78, 0.0, 10.002171, 9.999325 
2.6853234e+3, 2.4977866e+2, -254530.17, -393755.4, 105779.46, 0.18850933, -0.32084757, -197512.58, 294639.4, 0.0, 10.001903, 9.999907 
2.6849338e+3, 2.597695e+2, -334844.0, -544681.06, 70059.95, 0.023878952, -0.47955474, -313602.72, 80637.516, 0.0, 10.00111, 9.99873 
2.684545e+3, 2.6976466e+2, -299110.22, -270228.53, -42617.633, 0.14409246, -0.19285423, -239671.6, 56621.766, 0.0, 10.00006, 10.000298 
2.684156e+3, 2.7975997e+2, -464009.53, -464537.94, -14047.671, 0.3158616, 0.05024991, -450223.6, -251879.1, 0.0, 9.998737, 9.99906 
2.6837662e+3, 2.8975052e+2, -144562.55, -80325.305, 28608.422, 0.11872514, -0.16229413, -69431.74, 31000.14, 0.0, 9.999681, 10.000437 
2.6833755e+3, 2.997411e+2, -100620.234, -253503.11, -7512.406, -0.132642, -0.39565998, -100251.98, -97734.234, 0.0, 10.000163, 9.99849 
2.6829866e+3, 3.097355e+2, -4520.2944, -63077.52, -50858.227, -0.083641164, -0.145885, 24884.96, 24884.96, 0.0, 10.000238, 9.999287 
2.6826024e+3, 3.1972572e+2, -312783.63, -291414.6, 247213.06, 0.25851658, -0.28045335, -54655.254, -54655.254, 0.0, 9.998098, 9.998847 
2.6999998e+3, 1.3024303e+2, -1503962.4, -1568448.5, 325728.22, 0.77686256, -0.6048367, -1208885.3, 454716.5, 0.03555016, 10.001367, 10.000084 
2.6996052e+3, 1.4024447e+2, -1431014.8, -1700785.6, 53684.62, -0.16519311, 0.16815455, -1420724.0, 144871.53, 0.021269776, 10.001901, 9.998484 
2.6992118e+3, 1.502355e+2, -1206042.0, -1240957.0, -174142.7, -0.057162423, -0.014359929, -1048483.94, 419199.34, 0.009415533, 10.00168, 10.000909 
2.698821e+3, 1.6022588e+2, -1500228.0, -1526362.3, -13680.534, 0.26662612, -0.3384877, -1494376.6, -124599.52, 0.0026134893, 9.999564, 9.999456 
2.698434e+3, 1.7022246e+2, -1166986.3, -1032544.25, 148103.25, 0.23397532, -0.058171645, -937120.75, 334693.7, 0.0003600524, 10.000199, 10.001674 
2.6980463e+3, 1.8021905e+2, -1267731.4, -1260573.8, -11440.912, 0.120609924, 0.17516528, -1252165.0, -78314.51, 0.000012952271, 9.999632, 9.99988 
2.6976526e+3, 1.902103e+2, -840326.0, -770009.44, -100377.7, -0.040531527, -0.09323668, -698810.8, 377121.28, 0.000000000007316074, 10.001131, 10.001684 
2.697259e+3, 2.0020188e+2, -920667.4, -969653.6, -16223.914, -0.1498074, -0.35150883, -915781.44, 62229.008, 0.0, 10.000566, 10.000109 
2.6968697e+3, 2.1019818e+2, -730873.25, -544264.3, 26400.73, 0.056038227, -0.16198123, -540601.1, 339444.53, 0.0, 10.000254, 10.002296 
2.6964816e+3, 2.2019434e+2, -1164576.3, -1089385.5, 100892.9, 0.25608176, 0.010381121, -1019311.06, -237228.36, 0.0, 9.998047, 9.999116 
2.696094e+3, 2.301861e+2, -726594.0, -692473.3, 131531.28, 0.24221681, -0.062983975, -576900.56, 107262.31, 0.0, 10.000019, 10.000035 
2.6957062e+3, 2.401776e+2, -671458.56, -844252.2, 86767.16, 0.18957248, -0.18077499, -635409.7, -49164.44, 0.0, 10.000441, 9.998336 
2.6953173e+3, 2.5016943e+2, -314152.84, -349347.7, 71999.29, 0.096898206, -0.26094761, -257631.67, 230690.33, 0.0, 10.0012865, 10.000446 
2.6949275e+3, 2.6016164e+2, -633464.4, -774646.0, 20098.633, 0.0040420196, -0.32735568, -630658.9, -240262.36, 0.0, 9.999597, 9.997838 
2.6945361e+3, 2.7015588e+2, -474019.03, -448916.66, -87767.18, 0.025317416, -0.058108333, -372807.75, -80346.75, 0.0, 9.999406, 9.999306 
2.694145e+3, 2.8014994e+2, -667586.3, -631370.56, 16609.838, 0.026354402, 0.12777409, -624906.44, -430380.34, 0.0, 9.997792, 9.9983425 
2.693757e+3, 2.9013985e+2, -184751.02, -55043.82, 96636.55, -0.05433946, -0.15448552, -3516.095, 93103.67, 0.0, 9.999373, 10.000703 
2.6933688e+3, 3.0013055e+2, -223045.9, -341962.16, 54585.094, -0.18877517, -0.38417706, -201789.7, -201789.7, 0.0, 9.999579, 9.99815 
2.6929814e+3, 3.101287e+2, 25484.016, -26050.734, -7483.8228, 0.065140046, 0.21956548, 26548.809, 26548.809, 0.0, 10.000429, 9.999431 
2.692591e+3, 3.2011482e+2, -393222.28, -323648.66, 116147.67, -0.1342435, -0.33947736, -237190.27, -237190.27, 0.0, 9.997667, 9.998825 
2.709993e+3, 1.3064128e+2, -1176436.3, -1419692.6, 255193.72, 0.35378376, -0.23370047, -1015368.06, 644335.4, 0.028415078, 10.003615, 10.00007 
2.7096003e+3, 1.4063811e+2, -1786087.1, -1913052.5, 159829.55, -0.03751561, 0.13649492, -1677594.5, -115857.266, 0.016713178, 9.999552, 9.998175 
2.7092075e+3, 1.5062892e+2, -1358717.1, -1427289.0, -8992.328, 0.09059642, 0.024133442, -1357557.5, 106270.164, 0.0071980846, 10.001009, 9.999995 
2.7088156e+3, 1.6061927e+2, -1196485.6, -1434525.8, 97555.28, 0.27242377, -0.1894069, -1161613.5, 204309.47, 0.0019202423, 10.001784, 9.999046 
2.708427e+3, 1.7061353e+2, -1190419.1, -1132226.3, 209193.94, 0.20845418, -0.058241352, -950114.94, 317868.78, 0.00025324232, 10.000396, 10.000926 
2.7080384e+3, 1.8060845e+2, -1378562.9, -1225502.5, 72485.914, 0.07722931, 0.079423524, -1196623.5, -26587.217, 0.000008369746, 9.998398, 10.000725 
2.707646e+3, 1.9060196e+2, -1051873.6, -743304.06, 5957.638, 0.043983486, -0.063460454, -743189.06, 328904.13, 0.0, 9.999094, 10.002864 
2.7072537e+3, 2.005953e+2, -972993.2, -971702.6, 61935.32, 0.008494858, -0.20962767, -910409.25, 63742.582, 0.0, 9.999964, 10.000421 
2.7068642e+3, 2.1058904e+2, -543813.9, -623139.75, 24828.805, 0.10166256, -0.16147, -536683.5, 339530.72, 0.0, 10.002087, 10.000968 
2.706475e+3, 2.2058313e+2, -373229.56, -674466.8, 11420.942, 0.18868488, -0.09118327, -372797.2, 405476.1, 0.0, 10.003173, 9.99954 
2.7060866e+3, 2.3057581e+2, -547590.94, -581081.0, 80657.77, 0.16715722, -0.10011825, -481958.38, 198385.9, 0.0, 10.001024, 10.000395 
2.7056986e+3, 2.4056824e+2, -823714.75, -827996.25, 112721.98, 0.12196633, -0.13729928, -713113.2, -130695.42, 0.0, 9.998862, 9.999231 
2.70531e+3, 2.5056082e+2, -597658.1, -464210.28, 94535.97, 0.111042134, -0.16869631, -415222.78, 69265.55, 0.0, 9.99916, 10.000734 
2.704921e+3, 2.6055363e+2, -592705.4, -680967.4, 17820.059, 0.111917675, -0.17356588, -589243.3, -202685.58, 0.0, 9.999463, 9.998546 
2.7045286e+3, 2.705467e+2, -337659.94, -418113.88, -49103.29, 0.02285912, -0.022885337, -314409.8, -25777.58, 0.0, 10.000378, 9.999096 
2.7041364e+3, 2.8053927e+2, -251280.73, -413917.2, 83598.65, -0.032097336, 0.05920002, -215973.97, -25262.998, 0.0, 10.000438, 9.998581 
2.7037486e+3, 2.9052967e+2, -127248.984, -57599.33, 128249.266, -0.09922685, -0.15198807, 40469.195, 133270.97, 0.0, 9.999854, 10.000491 
2.7033612e+3, 3.0052108e+2, -289067.72, -356979.6, 43006.965, -0.16047549, -0.27323577, -268227.63, -268227.63, 0.0, 9.998944, 9.998383 
2.7029753e+3, 3.1051958e+2, 34533.863, -32265.64, -36427.555, 0.14657302, 0.37393254, 50555.87, 50555.87, 0.0, 10.0004635, 9.9994135 
2.702582e+3, 3.2050258e+2, -23639.037, -35942.277, -177900.53, -0.14759107, -0.49355727, 148216.19, 148216.19, 0.0, 9.999651, 9.999864 
2.7199876e+3, 1.3103949e+2, -1370420.0, -1503782.4, 55087.14, 0.1521886, 0.09722364, -1350608.5, 305196.44, 0.02219124, 10.002358, 10.00002 
2.7195966e+3, 1.4103128e+2, -1527652.5, -1917906.5, 18171.643, 0.304031, -0.013008802, -1526808.1, 31073.691, 0.01278431, 10.001938, 9.996997 
2.7192032e+3, 1.5102297e+2, -1263213.6, -1495770.9, -20549.717, 0.29299632, 0.05002868, -1261411.8, 198553.92, 0.00532732, 10.002291, 9.998861 
2.7188104e+3, 1.6101417e+2, -1397885.0, -1660362.8, 45448.934, 0.32791123, 0.031318516, -1390238.1, -28183.504, 0.0013580795, 10.001112, 9.997795 
2.71842e+3, 1.7100534e+2, -1267587.5, -1255853.3, 110821.28, 0.2310075, -0.08069364, -1150743.9, 113400.61, 0.00016970174, 10.000355, 10.0000515 
2.71803e+3, 1.8099792e+2, -1449840.0, -1299629.9, 38805.164, 0.15355487, -0.113975346, -1290197.4, -123978.734, 0.0000049540654, 9.998178, 10.00032 
2.71764e+3, 1.9099452e+2, -955068.94, -618334.75, -7217.708, 0.2966054, -0.020406833, -618180.1, 450064.25, 0.0, 9.999462, 10.003504 
2.7172503e+3, 2.0099014e+2, -1222766.8, -1265404.9, 72122.68, 0.41873342, 0.05128984, -1168878.3, -198596.94, 0.0, 9.999163, 9.998738 
2.7168593e+3, 2.1098018e+2, -832170.06, -961010.06, 75787.17, 0.18311653, -0.105192944, -797123.3, 75259.88, 0.0, 10.001183, 9.998972 
2.7164686e+3, 2.209709e+2, -774721.75, -954903.7, -11334.999, -0.019560894, -0.21543759, -774011.5, 466.172, 0.0, 10.000945, 9.998668 
2.7160788e+3, 2.309653e+2, -583454.44, -465166.56, -9371.841, 0.020990347, -0.14516348, -464428.66, 212101.47, 0.0, 10.000321, 10.001475 
2.7156892e+3, 2.4095985e+2, -1077890.0, -963063.2, 88233.21, 0.069618225, -0.04741537, -915208.4, -336627.2, 0.0, 9.997366, 9.998973 
2.7153024e+3, 2.5095296e+2, -711238.9, -516796.1, 119126.88, 0.16836509, -0.04483743, -460254.0, 20395.258, 0.0, 9.99851, 10.000607 
2.7149147e+3, 2.609457e+2, -830235.25, -849710.44, 41123.89, 0.22405082, -0.04629935, -797711.8, -414990.7, 0.0, 9.998169, 9.998023 
2.7145228e+3, 2.7093711e+2, -384061.7, -377386.6, -11762.124, 0.13050185, -0.10465028, -368497.66, -83691.016, 0.0, 9.999912, 9.999565 
2.7141306e+3, 2.809285e+2, -462136.1, -648791.3, 78515.25, 0.011206253, -0.1414534, -433501.88, -246609.39, 0.0, 9.999673, 9.997331 
2.713741e+3, 2.9092038e+2, -300761.1, -313256.34, 72120.96, -0.16538884, -0.0810972, -234617.66, -145644.56, 0.0, 9.999454, 9.998893 
2.713351e+3, 3.0091226e+2, -523978.06, -615427.2, 35395.81, -0.39785492, -0.019788973, -511878.75, -511878.75, 0.0, 9.9980545, 9.997013 
2.7129674e+3, 3.1090295e+2, -55162.094, -122178.836, -6524.006, 0.020209812, -0.11029144, -54532.895, -54532.895, 0.0, 10.000119, 9.998907 
2.7125785e+3, 3.208924e+2, 34913.914, 89206.67, -238340.14, 0.11839655, -0.34014675, 301941.4, 301941.4, 0.0, 9.999775, 10.000606 
2.729986e+3, 1.3142963e+2, -1360785.1, -1514932.6, 23178.559, 0.3666198, 0.022827802, -1357375.4, 294605.75, 0.016854309, 10.002414, 9.999926 
2.729596e+3, 1.4142014e+2, -913731.4, -1612877.1, -98699.1, 0.38932452, -0.20587744, -900065.06, 654003.9, 0.009467287, 10.006096, 9.997104 
2.729198e+3, 1.5141204e+2, -997834.3, -1381104.8, -173579.38, 0.14224735, -0.11553265, -930908.4, 525244.94, 0.0037924994, 10.004185, 9.998725 
2.7288026e+3, 1.6140409e+2, -1264147.3, -1527761.4, -47888.684, 0.01791185, -0.058162786, -1255717.3, 102518.83, 0.0009170214, 10.001673, 9.998424 
2.7284136e+3, 1.7139675e+2, -1083856.1, -1135241.8, 66572.336, 0.17084599, -0.053845633, -1038190.7, 222118.56, 0.0001065257, 10.001375, 10.000427 
2.7280244e+3, 1.8138991e+2, -1045495.2, -1121871.9, 37880.867, 0.24018107, -0.03728514, -1029894.0, 132481.77, 0.0000025959862, 10.000917, 10.000236 
2.7276328e+3, 1.9138396e+2, -711935.44, -651563.3, -54410.332, 0.2158757, -0.07776884, -619526.5, 444901.22, 0.0, 10.001665, 10.002293 
2.7272418e+3, 2.0137809e+2, -822324.6, -1004856.75, -54590.695, 0.17947945, -0.078714326, -807243.9, 159237.05, 0.0, 10.001507, 9.999411 
2.7268517e+3, 2.113702e+2, -884134.44, -921726.44, 47921.805, 0.037575312, -0.091559656, -851454.3, 17109.092, 0.0, 10.000446, 9.999661 
2.7264613e+3, 2.2136246e+2, -871748.8, -889896.1, 57512.363, -0.06644018, -0.09338032, -822598.75, -51955.54, 0.0, 9.999649, 9.99975 
2.7260724e+3, 2.3135623e+2, -528415.7, -414302.16, 11772.717, 0.09953454, -0.11705635, -413100.25, 259600.13, 0.0, 10.000475, 10.00178 
2.7256835e+3, 2.4135041e+2, -481476.7, -621124.6, 76514.86, 0.2359251, -0.07379358, -447715.34, 127039.17, 0.0, 10.00107, 9.999555 
2.725295e+3, 2.5134352e+2, -304977.6, -363015.53, 108202.46, 0.16673917, -0.043034386, -221970.34, 254853.81, 0.0, 10.001348, 10.000364 
2.7249065e+3, 2.6133624e+2, -327161.84, -555877.7, 10217.126, 0.14459665, -0.020800108, -326706.34, 52191.055, 0.0, 10.001266, 9.99856 
2.7245158e+3, 2.713273e+2, -190373.63, -292291.8, -68173.27, 0.14777814, -0.115696386, -156218.53, 124766.266, 0.0, 10.001192, 9.999574 
2.7241254e+3, 2.8131858e+2, -277577.06, -530966.9, -3532.924, 0.14610189, -0.15735282, -277527.8, -94457.87, 0.0, 10.000681, 9.997684 
2.723734e+3, 2.913115e+2, -163934.02, -298755.9, 49260.555, -0.09518065, 0.03063978, -147853.4, -62712.133, 0.0, 10.000469, 9.998561 
2.723343e+3, 3.0130342e+2, -270159.9, -425617.06, 145027.16, -0.34537074, 0.123501845, -183344.86, -183344.86, 0.0, 9.999384, 9.997693 
2.7229592e+3, 3.1128886e+2, -222699.42, -171575.56, 203611.98, -0.0017740715, -0.5301627, 8072.77, 8072.77, 0.0, 9.998662, 9.999366 
2.7225727e+3, 3.2128757e+2, -83191.984, 114766.32, -112529.09, 0.35798502, 0.16709225, 165652.67, 165652.67, 0.0, 9.998357, 10.001558 
2.739986e+3, 1.3181913e+2, -1313060.3, -1470614.1, 260584.9, 0.75352395, -0.058685403, -1119605.1, 528557.94, 0.012358647, 10.002791, 9.999961 
2.7395952e+3, 1.4180899e+2, -1574356.0, -1954308.3, -79178.17, 0.53882164, -0.3385006, -1558516.4, -8259.638, 0.0067449408, 10.001691, 9.996826 
2.7391922e+3, 1.5180099e+2, -1137070.9, -1426330.0, -189696.78, -0.038704753, -0.28153092, -1043157.8, 409184.56, 0.0025850076, 10.00312, 9.998895 
2.738794e+3, 1.6179378e+2, -1168961.0, -1459580.5, -11787.579, -0.26638868, -0.16676693, -1168483.8, 185935.42, 0.0005889778, 10.002294, 9.998569 
2.7384076e+3, 1.7178866e+2, -966167.1, -1022746.5, 74063.18, 0.16095488, -0.0068903873, -915174.6, 341293.97, 0.00006228534, 10.001983, 10.000884 
2.7380195e+3, 1.8178256e+2, -1246018.8, -1395174.3, 45291.613, 0.39983457, 0.112099715, -1233343.0, -74816.46, 0.0000011486238, 10.000423, 9.998569 
2.737625e+3, 1.9177233e+2, -959283.5, -980083.94, -13777.24, 0.026107492, -0.19695838, -952421.7, 108200.805, 0.0, 10.001003, 10.000268 
2.7372316e+3, 2.017639e+2, -1047542.25, -1104517.0, -38755.867, -0.24572518, -0.32114995, -1027930.25, -65227.563, 0.0, 10.000067, 9.999384 
2.7368423e+3, 2.1176036e+2, -835611.1, -702150.2, 10189.66, -0.16343714, -0.07357112, -701376.75, 163365.53, 0.0, 9.999967, 10.001367 
2.736454e+3, 2.2175598e+2, -1108408.8, -1024221.75, 57488.363, -0.018034901, 0.1488124, -995063.75, -228275.63, 0.0, 9.998232, 9.999484 
2.7360678e+3, 2.3174775e+2, -663735.4, -510164.53, 23834.992, 0.33693403, -0.07899451, -506550.28, 162314.08, 0.0, 9.999803, 10.001382 
2.73568e+3, 2.4173981e+2, -811743.2, -917395.2, 84624.93, 0.49408403, -0.18173006, -764809.7, -193870.72, 0.0, 9.999515, 9.998249 
2.7352878e+3, 2.5173256e+2, -441517.22, -476230.8, 106470.1, 0.044176728, -0.16331461, -350998.44, 122014.23, 0.0, 10.000713, 9.999828 
2.7348965e+3, 2.6172546e+2, -625599.0, -833813.44, -9865.75, -0.28191838, -0.05645712, -625132.56, -250047.73, 0.0, 9.999944, 9.997245 
2.734508e+3, 2.717175e+2, -320699.4, -426665.84, -82492.914, -0.03891411, -0.010388532, -275640.28, 1525.3993, 0.0, 10.000681, 9.998846 
2.734119e+3, 2.817096e+2, -403165.44, -562308.56, -21395.21, 0.16858923, 0.069457754, -400339.25, -221095.38, 0.0, 9.99985, 9.997831 
2.73373e+3, 2.917028e+2, -90116.74, -77267.37, 47691.195, 0.16991621, 0.1240811, -35570.06, 45738.07, 0.0, 10.000308, 10.000113 
2.7333394e+3, 3.016951e+2, -233452.52, -214571.55, 119607.41, -0.02733125, 0.09723668, -104032.63, -104032.63, 0.0, 9.99893, 9.999341 
2.732948e+3, 3.116826e+2, -184687.95, 129172.97, 201584.48, -0.22081459, -0.6145133, 227709.67, 227709.67, 0.0, 9.997846, 10.001744 
2.732561e+3, 3.2168302e+2, -355831.13, -213615.23, 127948.414, 0.03774077, 0.14870444, -138343.06, -138343.06, 0.0, 9.997493, 9.999652 
2.7499795e+3, 1.3221101e+2, -1161644.1, -1367766.6, 3037.4065, 0.36079708, -0.1533484, -1161599.4, 482724.94, 0.00868548, 10.003539, 10.0004015 
2.7495882e+3, 1.4220378e+2, -1979404.3, -1960552.6, 32062.51, 0.55366933, -0.20190687, -1936559.1, -390166.6, 0.0045926278, 9.998, 9.998585 
2.7491876e+3, 1.521979e+2, -1117593.5, -1239058.8, 99430.81, -0.06393836, -0.08904378, -1061814.6, 386638.66, 0.0016782226, 10.002374, 10.000616 
2.7487904e+3, 1.6219099e+2, -799762.6, -1337491.8, 166230.81, -0.3889157, 0.007866322, -752524.56, 597999.25, 0.0003582281, 10.005007, 9.998107 
2.748402e+3, 1.7218229e+2, -833097.9, -1164121.5, 118755.055, 0.012596419, -0.004276359, -794901.75, 457708.78, 0.000033741435, 10.00377, 9.999059 
2.7480128e+3, 1.8217386e+2, -1033153.3, -1320221.0, 51374.613, 0.24230905, 0.02599208, -1024236.1, 130456.8, 0.00000040337267, 10.00192, 9.998361 
2.747619e+3, 1.9216432e+2, -988351.0, -1050797.9, 64711.75, 0.023630468, -0.16287883, -947723.8, 109057.86, 0.0, 10.000917, 9.999871 
2.7472258e+3, 2.0215605e+2, -1027087.6, -1097814.6, 80453.15, -0.16692981, -0.21702707, -974568.9, -15708.356, 0.0, 10.000094, 9.999433 
2.746836e+3, 2.1215108e+2, -747956.3, -707396.8, 46227.332, -0.11973776, -0.059939794, -677196.5, 183717.34, 0.0, 10.000639, 10.001054 
2.7464476e+3, 2.2214584e+2, -670135.75, -778164.0, 21238.516, 0.014215514, 0.08879509, -666110.25, 96857.63, 0.0, 10.000921, 9.999931 
2.746061e+3, 2.3213796e+2, -468219.94, -453139.6, 3310.6326, 0.34199977, -0.0615691, -452444.8, 212597.06, 0.0, 10.001144, 10.001237 
2.7456734e+3, 2.4213023e+2, -482287.0, -660227.44, 80384.766, 0.48936665, -0.14546789, -451351.38, 115763.62, 0.0, 10.00121, 9.999237 
2.7452818e+3, 2.5212285e+2, -310085.66, -399556.72, 121948.36, 0.055614315, -0.14752926, -224926.34, 244261.5, 0.0, 10.001454, 10.000086 
2.7448902e+3, 2.6211566e+2, -307511.25, -582627.44, 55999.336, -0.27804035, -0.06102925, -296549.47, 74710.33, 0.0, 10.00156, 9.998239 
2.7445003e+3, 2.7210778e+2, -94115.1, -297585.1, 32232.678, -0.1818559, -0.022061938, -89131.055, 184208.47, 0.0, 10.002007, 9.999166 
2.7441117e+3, 2.8210014e+2, -112941.266, -328471.1, 80953.51, 0.042398974, 0.06195136, -85922.11, 89493.73, 0.0, 10.001319, 9.998739 
2.7437243e+3, 2.920932e+2, -174189.36, -67385.77, 22210.346, 0.3430782, 0.07464648, -62951.152, 14530.1455, 0.0, 9.999468, 10.000607 
2.743334e+3, 3.0208567e+2, -287938.25, -111425.76, 16583.951, 0.30620402, 0.010713015, -109881.16, -109881.16, 0.0, 9.997918, 10.000561 
2.7429378e+3, 3.1207547e+2, 151679.52, 403417.75, -50322.066, -0.3840647, -0.5777868, 413104.3, 413104.3, 0.0, 9.999585, 10.002835 
2.7425525e+3, 3.2207635e+2, -289659.88, -258864.17, -86988.945, 0.10839909, 0.17718849, -185920.81, -185920.81, 0.0, 9.998179, 9.998993 
2.7599725e+3, 1.3260418e+2, -1533925.4, -1473416.5, -256860.1, 0.10120909, -0.15776274, -1245035.3, 395437.72, 0.0058229626, 10.00083, 10.000862 
2.7595803e+3, 1.4260021e+2, -1526639.8, -1635220.4, -22291.018, 0.63352275, 0.033809364, -1522241.8, 20270.89, 0.0029696852, 10.000789, 9.999429 
2.7591833e+3, 1.5259603e+2, -997583.7, -975377.8, 115642.336, 0.019356206, 0.13504261, -870306.6, 574244.9, 0.0010279784, 10.002479, 10.002296 
2.7587882e+3, 1.6258924e+2, -1257532.8, -1757623.5, 39788.49, -0.33743465, 0.193789, -1254386.8, 92231.07, 0.0002033788, 10.002784, 9.996293 
2.758397e+3, 1.7257625e+2, -1080154.3, -1558544.6, 8984.6875, -0.1312924, -0.040294774, -1079985.5, 168763.75, 0.000016580547, 10.00327, 9.99659 
2.7580056e+3, 1.8256518e+2, -1098046.8, -1432161.5, 4560.39, 0.06940509, -0.09456144, -1097984.5, 52874.613, 0.00000009587778, 10.001957, 9.997551 
2.7576137e+3, 1.9255805e+2, -912917.6, -992173.44, -17451.395, 0.17459075, -0.06543957, -909245.1, 143678.78, 0.0, 10.001461, 9.999975 
2.757222e+3, 2.0255065e+2, -1165711.3, -1332536.4, 60150.13, 0.19788742, 0.021642612, -1146285.6, -191291.95, 0.0, 9.999976, 9.997871 
2.756831e+3, 2.1254161e+2, -888601.94, -926483.2, 44982.156, 0.08338775, -0.11083547, -858735.4, -1649.157, 0.0, 10.000433, 9.999609 
2.7564412e+3, 2.225338e+2, -960517.75, -1002431.2, 26090.018, 0.058612134, -0.09934392, -948009.94, -188844.39, 0.0, 9.999516, 9.999006 
2.7560526e+3, 2.3252785e+2, -586578.75, -522138.47, 13284.744, 0.16584784, -0.06204911, -519507.2, 141716.28, 0.0, 10.000543, 10.000981 
2.7556646e+3, 2.4252181e+2, -725916.9, -794380.56, 83116.07, 0.23089114, 0.053835325, -670259.4, -106978.41, 0.0, 9.999805, 9.998932 
2.7552772e+3, 2.525144e+2, -383333.63, -367838.06, 127207.57, 0.19723576, -0.03958393, -248142.55, 217207.72, 0.0, 10.000752, 10.000583 
2.7548873e+3, 2.6250663e+2, -473332.66, -611516.56, 64411.008, 0.012759953, -0.06724665, -447965.75, -80542.14, 0.0, 10.000338, 9.998612 
2.754493e+3, 2.7249798e+2, -113985.37, -166540.23, 47350.13, -0.38686678, -0.22607017, -86109.88, 183396.61, 0.0, 10.001427, 10.0002985 
2.754101e+3, 2.8248963e+2, -363771.84, -595592.5, 5692.105, -0.45709285, -0.23193488, -363632.16, -192044.05, 0.0, 10.000354, 9.997355 
2.753715e+3, 2.9248166e+2, -408240.28, -378620.2, -75604.32, 0.18021183, -0.17478266, -316389.0, -242720.36, 0.0, 9.998759, 9.998802 
2.7533254e+3, 3.0247384e+2, -575827.6, -482757.9, 1287.1405, 0.35198954, -0.07754293, -482740.1, -482740.1, 0.0, 9.997043, 9.99842 
2.752931e+3, 3.1246543e+2, 8026.2554, 113854.31, -42665.723, -0.30972993, -0.3110483, 128912.766, 128912.766, 0.0, 9.999608, 10.000822 
2.7525446e+3, 3.2246387e+2, -238703.2, 69536.664, -313619.94, 0.10584715, 0.21210209, 264859.75, 264859.75, 0.0, 9.997411, 10.001563 
2.7699637e+3, 1.3299644e+2, -1828001.3, -1757969.4, -79288.375, -0.12125794, -0.15300307, -1706309.1, -69683.29, 0.0036893375, 9.999366, 9.999612 
2.7695742e+3, 1.4299187e+2, -943100.6, -1455001.4, -89331.625, 0.26105058, 0.11094476, -927959.25, 610715.5, 0.001804221, 10.005232, 9.998507 
2.7691793e+3, 1.5298502e+2, -1063250.5, -1148878.6, -122180.234, 0.06939756, 0.052156836, -976600.1, 464141.28, 0.00058557204, 10.002621, 10.001032 
2.7687857e+3, 1.6297747e+2, -1396405.3, -1656891.9, -150803.9, -0.0780514, 0.042397987, -1327387.1, 15427.351, 0.00010501939, 10.001012, 9.997851 
2.7683932e+3, 1.7296793e+2, -907685.1, -1272758.9, -8388.715, -0.1127752, -0.046317883, -907492.44, 337415.38, 0.0000068884756, 10.003442, 9.998547 
2.7680007e+3, 1.8295847e+2, -701054.94, -1264289.5, 3141.9756, -0.09478343, -0.03774521, -701037.4, 445963.03, 0.00000000965895, 10.004694, 9.99741 
2.7676088e+3, 1.9294932e+2, -535452.56, -962867.6, -60827.336, 0.05490747, -0.07341545, -526964.5, 522124.34, 0.0, 10.004634, 9.998705 
2.7672172e+3, 2.0294078e+2, -580247.1, -1009340.44, -37610.797, 0.17942394, -0.03121014, -576975.44, 374196.72, 0.0, 10.003725, 9.998307 
2.766827e+3, 2.1293223e+2, -624900.1, -813181.25, 4179.2217, 0.26582444, -0.099916376, -624807.44, 228451.02, 0.0, 10.0022, 9.999611 
2.7664366e+3, 2.2292452e+2, -669966.0, -824086.1, 53542.438, 0.25748202, -0.07464083, -653190.9, 102145.2, 0.0, 10.001227, 9.999425 
2.7660462e+3, 2.3291817e+2, -397695.4, -492437.13, 45275.453, 0.09670533, -0.022846922, -379538.7, 277859.84, 0.0, 10.001948, 10.000588 
2.7656567e+3, 2.429117e+2, -350396.5, -536286.9, 78980.305, 0.03289453, 0.060507324, -321371.63, 238089.48, 0.0, 10.001907, 9.999728 
2.7652705e+3, 2.529041e+2, -381134.72, -343737.53, 80574.57, 0.16128075, -0.053304598, -279720.34, 181811.48, 0.0, 10.00057, 10.000882 
2.7648818e+3, 2.6289663e+2, -556618.6, -541914.75, -19771.932, 0.15200545, -0.09174834, -528172.1, -164570.8, 0.0, 9.99921, 9.999623 
2.764487e+3, 2.7288908e+2, -469706.1, -299485.6, -86594.89, -0.26061586, -0.1777395, -263177.44, 2495.599, 0.0, 9.998723, 10.00074 
2.7640942e+3, 2.828808e+2, -534978.2, -631096.2, -96855.99, -0.38579845, -0.21553567, -474913.4, -307160.94, 0.0, 9.998836, 9.997864 
2.7637064e+3, 2.9287103e+2, -69637.98, -274481.9, -73778.664, 0.13459186, -0.32154283, -45831.777, 24017.525, 0.0, 10.001109, 9.998477 
2.7633172e+3, 3.0286285e+2, -12385.294, -263774.4, 154988.03, 0.34166253, -0.20549086, 61470.676, 61470.676, 0.0, 10.00104, 9.99799 
2.7629256e+3, 3.1285724e+2, -179869.16, -89475.734, 178118.53, -0.071785875, -0.047776256, 49090.867, 49090.867, 0.0, 9.99876, 9.999818 
2.7625352e+3, 3.2285124e+2, 132076.56, 403472.25, -301388.47, 0.09593463, 0.06846414, 598302.6, 598302.6, 0.0, 9.9992, 10.002975 
2.7799562e+3, 1.3338809e+2, -1683124.6, -1810089.4, 180823.56, -0.17936514, -0.10905682, -1554963.6, 77820.96, 0.0021714207, 10.000991, 9.998425 
2.7795687e+3, 1.4338174e+2, -1504663.0, -1945093.8, -146843.36, -0.00117134, 0.09094283, -1460194.0, 74659.27, 0.0010072395, 10.002284, 9.996609 
2.7791756e+3, 1.5337199e+2, -1267349.9, -1439400.5, -201214.03, 0.19401222, -0.11096581, -1134543.1, 302407.47, 0.00030058212, 10.001986, 9.999399 
2.7787828e+3, 1.6336404e+2, -1278916.0, -1376292.0, -44205.406, 0.2870476, -0.13142022, -1261842.0, 77185.41, 0.000046417692, 10.000952, 9.999794 
2.77839e+3, 1.7335935e+2, -772101.44, -862702.5, 44236.363, 0.017894356, -0.046174113, -754085.4, 486982.22, 0.0000020738605, 10.003, 10.001535 
2.777997e+3, 1.8335216e+2, -1000290.94, -1549815.4, -22288.385, -0.17392497, 0.07763549, -999388.44, 143747.38, 0.00000000000031198744, 10.00337, 9.996048 
2.777604e+3, 1.9333972e+2, -815608.5, -1282181.0, -84797.28, -0.1387474, -0.16078572, -800675.0, 244587.05, 0.0, 10.003613, 9.9969425 
2.7772123e+3, 2.033297e+2, -808917.44, -1159066.8, -67754.766, 0.066333234, -0.1488206, -796264.0, 151099.16, 0.0, 10.002475, 9.997837 
2.7768236e+3, 2.1332331e+2, -670458.75, -782684.4, -64132.875, 0.47210106, -0.061014097, -641356.1, 208070.14, 0.0, 10.001794, 9.999962 
2.7764335e+3, 2.2331662e+2, -911966.6, -1042553.44, 64110.813, 0.5689384, 0.09024632, -885753.6, -134261.38, 0.0, 10.000107, 9.998434 
2.7760404e+3, 2.3330839e+2, -577229.9, -634573.7, 72334.62, 0.10767501, -0.019457525, -528091.94, 125480.984, 0.0, 10.001051, 9.999987 
2.7756494e+3, 2.4330054e+2, -635159.4, -731785.5, 40257.598, -0.16049276, -0.019199204, -620585.0, -64935.34, 0.0, 10.000367, 9.999089 
2.775261e+3, 2.5329232e+2, -521452.78, -421639.66, 26005.785, -0.06537443, -0.19789897, -415270.4, 42458.652, 0.0, 9.999779, 10.000698 
2.7748728e+3, 2.6328564e+2, -846244.2, -776289.1, -62811.453, 0.07296269, -0.09871047, -739372.94, -379578.5, 0.0, 9.997799, 9.998634 
2.7744833e+3, 2.7328116e+2, -646953.2, -444198.44, -114571.664, 0.24678656, 0.14867078, -392592.03, -130751.266, 0.0, 9.997866, 10.000102 
2.7740923e+3, 2.8327408e+2, -594939.06, -481845.78, -41689.617, 0.25378144, 0.20722191, -468138.97, -304231.03, 0.0, 9.997815, 9.999338 
2.7737004e+3, 2.9326174e+2, 53678.164, 63279.836, 43096.125, 0.09656987, -0.40610304, 101841.7, 167861.23, 0.0, 10.000933, 10.000801 
2.7733085e+3, 3.0325377e+2, 18257.951, -142305.94, 94932.93, -0.02393803, -0.42975497, 62304.008, 62304.008, 0.0, 10.000955, 9.998833 
2.7729195e+3, 3.132528e+2, -276741.9, -29405.074, 116810.42, 0.20451273, 0.08806302, 17039.86, 17039.86, 0.0, 9.997749, 10.000701 
2.7725255e+3, 3.2324058e+2, -316986.34, -490721.94, 90089.88, -0.19146168, -0.19240704, -278705.4, -278705.4, 0.0, 9.999194, 9.996829 
2.7899542e+3, 1.337762e+2, -1349334.0, -1562074.4, -62505.004, -0.01359806, -0.14343385, -1332328.8, 296651.2, 0.0011689387, 10.002765, 9.999368 
2.7895632e+3, 1.4376822e+2, -1666695.9, -1821634.8, -168433.94, 0.019526608, -0.18808591, -1558769.8, -27709.125, 0.0005049565, 10.000251, 9.998454 
2.7891684e+3, 1.5376145e+2, -1210572.5, -1233869.1, -84865.305, 0.04819275, -0.25038326, -1136559.9, 296566.34, 0.00013439951, 10.001576, 10.00103 
2.7887768e+3, 1.6375479e+2, -1095205.5, -1321125.0, 88234.02, 0.1255254, -0.19713925, -1064829.4, 270360.56, 0.000016423304, 10.002282, 9.999547 
2.7883863e+3, 1.7374855e+2, -837738.06, -988425.56, 60496.81, 0.064782694, -0.16369137, -816456.0, 420792.34, 0.0000003300107, 10.002872, 10.00076 
2.7879944e+3, 1.837414e+2, -985525.75, -1389831.0, -129712.91, -0.049574144, -0.06063923, -947488.6, 191829.08, 0.0, 10.002691, 9.997517 
2.7876e+3, 1.9373107e+2, -897458.2, -1206562.9, -59960.93, -0.08645788, -0.17888786, -886234.4, 155188.14, 0.0, 10.002393, 9.998157 
2.7872074e+3, 2.0372184e+2, -802615.9, -1083552.8, 19164.791, 0.03210898, -0.15823188, -801314.56, 142200.56, 0.0, 10.002153, 9.998498 
2.786818e+3, 2.137146e+2, -522000.63, -749036.9, 8007.3086, 0.38020608, -0.10167025, -521718.56, 323867.3, 0.0, 10.002934, 9.9996605 
2.786427e+3, 2.2370729e+2, -468979.16, -747242.2, 112634.46, 0.45890668, -0.0147571005, -429102.03, 318554.8, 0.0, 10.002649, 9.999264 
2.786034e+3, 2.3369896e+2, -582388.4, -621157.5, 155047.08, 0.049689185, -0.13788319, -445518.78, 204218.23, 0.0, 10.000786, 10.000271 
2.7856424e+3, 2.4369113e+2, -664987.1, -746817.75, 170242.05, -0.17438358, -0.12927721, -530812.7, 21002.266, 0.0, 10.000069, 9.999145 
2.7852547e+3, 2.5368312e+2, -265246.88, -372397.13, 109939.07, -0.07154051, -0.1903462, -196523.61, 257374.28, 0.0, 10.001759, 10.000127 
2.784866e+3, 2.6367638e+2, -133432.28, -407788.03, -9682.034, 0.10826783, -0.06769042, -133091.03, 222876.17, 0.0, 10.002458, 9.998954 
2.7844772e+3, 2.736714e+2, -56867.035, -202484.55, -46689.332, 0.4021887, 0.18485633, -43182.97, 214834.2, 0.0, 10.001937, 9.999873 
2.7840865e+3, 2.836644e+2, -171190.06, -159098.47, 28264.148, 0.48183075, 0.23666859, -136240.73, 23842.92, 0.0, 10.000154, 10.0004225 
2.7836925e+3, 2.9365268e+2, -325009.75, -22363.88, -41094.875, 0.07255036, -0.37417325, -16883.055, 45306.383, 0.0, 9.997862, 10.001703 
2.7833e+3, 3.0364537e+2, -362117.88, -203734.44, -93238.59, -0.09316032, -0.44405818, -160595.61, -160595.61, 0.0, 9.997668, 10.000024 
2.7829134e+3, 3.1364608e+2, 251656.72, 285022.3, -127913.1, 0.43292683, 0.1618578, 397335.94, 397335.94, 0.0, 10.000934, 10.00142 
2.7825183e+3, 3.2362983e+2, -351020.94, -913583.8, 208544.45, -0.21761793, -0.39294514, -282145.22, -282145.22, 0.0, 10.0005455, 9.993335 
2.799953e+3, 1.341648e+2, -1229992.4, -1428792.1, -64573.88, 0.26636842, -0.1684152, -1210859.0, 414311.53, 0.0005685035, 10.003323, 9.9999485 
2.7995577e+3, 1.4415623e+2, -1463047.0, -1560776.4, -70940.76, 0.19204967, -0.40299037, -1425770.3, 101483.26, 0.00022583413, 10.001058, 9.999788 
2.799161e+3, 1.5415242e+2, -1033756.06, -960921.4, -55262.92, -0.089483544, -0.34775156, -931155.5, 498130.8, 0.00005282333, 10.0020485, 10.002622 
2.7987698e+3, 1.6414633e+2, -1289869.5, -1601411.4, 102425.72, -0.05498324, -0.241422, -1259211.9, 72132.016, 0.000004777361, 10.001896, 9.997719 
2.798383e+3, 1.7413704e+2, -1023477.5, -1279538.6, 88350.15, 0.16452508, -0.36352557, -995952.4, 237483.98, 0.00000002399446, 10.002549, 9.998845 
2.7979925e+3, 1.8412958e+2, -974558.4, -1232287.9, -115051.04, 0.2319609, -0.23330782, -930672.25, 204838.25, 0.0, 10.002258, 9.998752 
2.7975965e+3, 1.941233e+2, -774879.6, -892976.7, -95816.336, 0.12082405, -0.18312465, -721378.2, 316194.5, 0.0, 10.002266, 10.00031 
2.7972028e+3, 2.0411566e+2, -962434.2, -1249929.1, 25234.377, 0.092462674, -0.08378337, -960236.1, -20588.541, 0.0, 10.001533, 9.99763 
2.7968112e+3, 2.1410565e+2, -684700.5, -907426.06, 22838.664, 0.1587613, -0.26576677, -682382.75, 159362.3, 0.0, 10.002212, 9.998888 
2.7964193e+3, 2.2409724e+2, -696302.6, -813407.0, 57761.44, 0.14996709, -0.25598824, -672606.75, 71218.51, 0.0, 10.001123, 9.999476 
2.7960265e+3, 2.3409002e+2, -672165.5, -568747.94, 66222.37, -0.0023019298, -0.36891857, -536437.7, 109453.99, 0.0, 9.999929, 10.000994 
2.7956364e+3, 2.4408332e+2, -961946.5, -1060024.9, 207773.44, -0.04343358, -0.19967924, -797503.5, -249543.48, 0.0, 9.998913, 9.99751 
2.7952507e+3, 2.540764e+2, -492182.84, -619420.44, 175882.52, 0.10135931, -0.05516265, -368766.88, 81273.22, 0.0, 10.000905, 9.998794 
2.7948612e+3, 2.6406863e+2, -352193.84, -538457.25, -30158.787, 0.102444306, 0.05627405, -347432.4, 4687.6455, 0.0, 10.001205, 9.998625 
2.7944672e+3, 2.740589e+2, -149547.61, -225721.56, -48546.004, -0.033057354, -0.21035835, -125931.0, 128277.02, 0.0, 10.001327, 9.999969 
2.794074e+3, 2.8405088e+2, -430531.28, -515809.66, -92508.73, -0.059520245, -0.16416605, -371308.0, -215022.19, 0.0, 9.999493, 9.998259 
2.793682e+3, 2.9404357e+2, -629958.2, -385519.78, -176505.31, 0.0007898159, -0.1557409, -293049.3, -234685.19, 0.0, 9.996786, 9.999708 
2.793291e+3, 3.0403727e+2, -570915.44, -294732.97, -30819.932, -0.023891553, -0.023200523, -291335.47, -291335.47, 0.0, 9.996351, 9.999967 
2.7929056e+3, 3.140328e+2, 293369.75, 359377.97, -2063.7214, 0.18953209, 0.007163144, 359442.44, 359442.44, 0.0, 10.001117, 10.001767 
2.7925152e+3, 3.240219e+2, -218430.7, -431834.6, 50258.82, 0.010827382, -0.19749756, -207186.67, -207186.67, 0.0, 9.999929, 9.9968195 
2.8099465e+3, 1.3455848e+2, -1177046.3, -1642087.4, -106413.54, -0.182095, -0.26724386, -1153852.8, 467460.5, 0.00025074946, 10.004548, 9.99799 
2.8095555e+3, 1.4455381e+2, -1210253.9, -1491579.9, -34061.203, 0.36567742, 0.048290227, -1206188.8, 317176.2, 0.00009142473, 10.002963, 9.999374 
2.8091574e+3, 1.545475e+2, -1012385.06, -1065696.1, -38574.97, -0.031706713, -0.03974555, -992151.94, 433270.4, 0.000018191195, 10.002611, 10.001687 
2.808765e+3, 1.6453953e+2, -1122542.0, -1395329.1, 114376.14, -0.12482207, -0.11410419, -1080932.5, 246562.27, 0.000001253609, 10.002417, 9.99891 
2.808378e+3, 1.745295e+2, -905224.5, -1135537.0, 213407.81, 0.054568935, -0.37459627, -777885.7, 451701.1, 0.0000000065346386, 10.002878, 9.999737 
2.8079876e+3, 1.8452138e+2, -843738.56, -1165640.4, -18498.695, 0.15791035, -0.33025864, -842679.0, 288985.97, 0.0, 10.003087, 9.998805 
2.807593e+3, 1.9451475e+2, -583572.56, -865827.25, -72629.555, 0.18409586, -0.233593, -565980.1, 467753.5, 0.0, 10.00378, 9.9998 
2.8071988e+3, 2.0450719e+2, -598250.5, -966159.75, -40841.05, 0.12527165, -0.1448998, -593771.3, 342036.78, 0.0, 10.00349, 9.998631 
2.8068042e+3, 2.1449755e+2, -617703.3, -828554.94, 11062.004, -0.042342052, -0.31975397, -617124.56, 220774.4, 0.0, 10.002373, 9.999398 
2.8064117e+3, 2.2448894e+2, -615746.7, -830110.94, 24732.75, -0.06649073, -0.3294419, -612930.1, 127051.28, 0.0, 10.0018215, 9.999045 
2.8060213e+3, 2.3448102e+2, -400605.84, -562112.44, -64413.48, 0.08089582, -0.38575014, -378062.5, 263995.44, 0.0, 10.00222, 9.999975 
2.805632e+3, 2.444739e+2, -472868.97, -781613.4, 90345.73, 0.15062478, -0.24050386, -448374.94, 95755.94, 0.0, 10.001933, 9.997988 
2.8052452e+3, 2.5446722e+2, -473484.0, -627097.1, 130764.51, 0.1516882, -0.065390676, -398637.66, 47568.71, 0.0, 10.000926, 9.998799 
2.8048548e+3, 2.6445916e+2, -414241.0, -506224.5, -39711.95, 0.07672976, -0.007733935, -399468.6, -51181.574, 0.0, 10.000375, 9.999299 
2.80446e+3, 2.7444816e+2, -231990.14, -255317.5, -75078.92, -0.117388606, -0.39659762, -167674.31, 82711.49, 0.0, 10.000562, 10.000211 
2.8040662e+3, 2.8443983e+2, -301619.5, -506590.97, -104054.88, -0.12761585, -0.3712768, -258054.77, -105586.984, 0.0, 10.000437, 9.997937 
2.8036734e+3, 2.9443446e+2, -165521.28, -299132.06, -130046.234, 0.082506076, -0.0473186, -86124.81, -31590.49, 0.0, 10.000369, 9.998682 
2.8032824e+3, 3.0442828e+2, -159019.42, -20045.928, 207775.17, 0.095537014, 0.15034316, 129553.914, 129553.914, 0.0, 9.998807, 10.000652 
2.8028968e+3, 3.1442094e+2, -261127.64, 121043.914, 185966.61, 0.06723479, -0.11255552, 196599.0, 196599.0, 0.0, 9.997099, 10.002095 
2.8025106e+3, 3.244154e+2, -406065.88, -66759.31, -86437.65, 0.40993828, 0.031193359, -46008.543, -46008.543, 0.0, 9.9965315, 10.001026 
2.8199416e+3, 1.3495381e+2, -1549802.3, -1967000.0, -124908.84, -0.33077195, -0.2881588, -1515264.0, 102175.49, 0.000107460386, 10.002866, 9.996464 
2.819553e+3, 1.4495239e+2, -1414302.3, -1745320.1, 36778.31, 0.57035226, 0.52471954, -1410265.3, 109200.34, 0.00003510944, 10.002382, 9.997845 
2.819154e+3, 1.5494281e+2, -1053116.8, -1248539.5, -8373.997, 0.13391736, 0.23975827, -1052758.6, 368798.38, 0.0000055355054, 10.00317, 10.00011 
2.818761e+3, 1.6493332e+2, -1043426.0, -1218594.9, 172698.63, -0.037104204, 0.050926022, -937372.0, 386268.94, 0.0000002527922, 10.002496, 10.000067 
2.8183722e+3, 1.7492339e+2, -939295.1, -981994.7, 182281.44, -0.03233621, -0.35740855, -777117.44, 448605.25, 0.0, 10.002052, 10.001177 
2.8179818e+3, 1.849147e+2, -1155411.3, -1484700.5, -16079.41, 0.057751857, -0.36293918, -1154628.0, -26823.621, 0.0, 10.001779, 9.997223 
2.81759e+3, 1.9490615e+2, -862405.75, -1176235.4, -23201.27, 0.26604187, -0.3350541, -860699.8, 169197.1, 0.0, 10.002681, 9.998187 
2.817195e+3, 2.0489824e+2, -766917.94, -985461.75, -44962.395, 0.18935277, -0.20443238, -758029.06, 173946.36, 0.0, 10.002242, 9.99903 
2.8167972e+3, 2.1489011e+2, -683306.94, -760982.7, -38072.293, -0.19023262, -0.34703973, -667758.4, 166289.88, 0.0, 10.001644, 10.000145 
2.8164044e+3, 2.2488159e+2, -934333.94, -1259969.6, 33673.04, -0.18975106, -0.25083366, -930888.3, -194756.48, 0.0, 10.0009775, 9.9964485 
2.8160176e+3, 2.3487167e+2, -688532.6, -935134.0, -50061.477, 0.25914592, -0.31650785, -678757.4, -40521.5, 0.0, 10.001419, 9.997726 
2.8156283e+3, 2.4486339e+2, -612611.8, -755978.5, 58456.62, 0.31443092, -0.20069014, -591798.25, -51478.62, 0.0, 10.000737, 9.998686 
2.815237e+3, 2.5485554e+2, -543274.75, -533780.44, 93548.195, 0.006139917, -0.28625494, -444859.0, -2463.0676, 0.0, 10.00001, 9.999836 
2.8148463e+3, 2.6484814e+2, -605328.5, -620789.06, -58294.145, -0.036819786, -0.19357714, -554254.3, -209787.23, 0.0, 9.999342, 9.998939 
2.814456e+3, 2.748399e+2, -352131.03, -300825.03, -59004.082, 0.17446308, -0.33632326, -262138.64, -15593.807, 0.0, 9.99983, 10.00018 
2.814063e+3, 2.8483233e+2, -384172.53, -492885.06, -113275.15, 0.22146308, -0.24133965, -312887.0, -164267.38, 0.0, 9.999817, 9.998268 
2.813668e+3, 2.9482475e+2, -134640.03, -183839.28, -91388.805, 0.18100023, -0.24120484, -64597.94, -13899.001, 0.0, 10.000289, 9.999454 
2.8132743e+3, 3.048184e+2, -233245.97, -102495.75, 109478.21, 0.02267225, -0.08017967, -40358.57, -40358.57, 0.0, 9.99858, 10.000185 
2.8128847e+3, 3.1481266e+2, -621948.5, -99425.75, 99819.76, -0.0057497243, -0.15425682, -81006.07, -81006.07, 0.0, 9.994878, 10.00164 
2.8124982e+3, 3.248071e+2, -433315.47, 357307.38, 145442.13, 0.2564565, -0.17595747, 383213.88, 383213.88, 0.0, 9.994685, 10.004747 
2.8299424e+3, 1.35352e+2, -1534186.3, -1672595.9, -138354.52, 0.17632736, -0.19780189, -1448693.6, 164831.16, 0.000050640916, 10.001571, 9.999184 
2.8295434e+3, 1.4534414e+2, -1402298.0, -1844465.9, 181909.45, 0.005817635, -0.060866755, -1337079.4, 178527.16, 0.00001538915, 10.002879, 9.996934 
2.8291503e+3, 1.5533382e+2, -1002128.0, -1426088.4, 164391.58, 0.071362615, -0.23063616, -945854.2, 471854.44, 0.0000020566958, 10.004313, 9.9983835 
2.8287587e+3, 1.6532475e+2, -953047.3, -1299831.8, 157259.38, 0.10212623, -0.2210873, -892355.44, 427439.6, 0.00000005936716, 10.0035715, 9.999015 
2.8283677e+3, 1.7531602e+2, -1141663.5, -1262131.3, 92914.01, 0.034012932, -0.34043437, -1091167.4, 130707.06, 0.0, 10.001349, 9.999636 
2.8279757e+3, 1.8530811e+2, -1151525.3, -1257735.4, -28654.684, 0.039521594, -0.30087247, -1144287.6, -20338.313, 0.0, 10.00074, 9.999322 
2.8275836e+3, 1.9530013e+2, -913326.56, -1046153.6, 92162.29, 0.15716103, -0.35330105, -866141.5, 159887.88, 0.0, 10.001572, 9.99966 
2.8271896e+3, 2.0529239e+2, -768924.4, -1032323.4, 66757.89, 0.1061346, -0.25005388, -752970.94, 175135.5, 0.0, 10.00229, 9.9987545 
2.8267926e+3, 2.1528418e+2, -517769.0, -800408.75, 26786.35, -0.15316324, -0.2694199, -515252.78, 314933.7, 0.0, 10.003144, 9.999228 
2.8264007e+3, 2.2527495e+2, -563625.56, -1108088.5, 79705.34, -0.1190056, -0.18388638, -552197.2, 180083.23, 0.0, 10.003508, 9.996321 
2.826012e+3, 2.3526399e+2, -466627.0, -947179.2, 72956.17, 0.21484227, -0.23508012, -455795.16, 178600.25, 0.0, 10.003267, 9.996845 
2.8256223e+3, 2.452547e+2, -347477.1, -548017.4, 134195.02, 0.26509583, -0.20123093, -280228.88, 256259.16, 0.0, 10.002134, 9.999465 
2.8252304e+3, 2.5524595e+2, -464604.25, -498938.3, 88487.195, 0.031319924, -0.34948164, -391634.22, 46935.0, 0.0, 10.000452, 9.999919 
2.8248397e+3, 2.652388e+2, -449315.94, -479180.2, -8964.056, 0.035318796, -0.26633763, -446831.88, -106194.375, 0.0, 10.000043, 9.999583 
2.8244498e+3, 2.7523234e+2, -215483.55, -264488.25, -45656.59, 0.25437224, -0.20886959, -188169.98, 54531.492, 0.0, 10.000806, 9.999992 
2.8240567e+3, 2.8522488e+2, -202701.72, -261229.55, -98361.875, 0.3435278, -0.15719214, -129342.85, 15430.107, 0.0, 10.000376, 9.999577 
2.8236613e+3, 2.952157e+2, -216865.19, -169440.98, -99728.125, 0.24737164, -0.37670156, -90644.73, -43784.934, 0.0, 9.999384, 9.999998 
2.823266e+3, 3.0520886e+2, -188625.25, -105730.53, 47977.19, 0.054604325, -0.28053465, -83776.83, -83776.83, 0.0, 9.998891, 10.000037 
2.8228745e+3, 3.1520408e+2, -96437.28, 33635.734, -24161.574, 0.052524947, -0.18894286, 37978.83, 37978.83, 0.0, 9.998847, 10.000689 
2.822488e+3, 3.251977e+2, 114376.8, 795098.7, 18631.521, 0.360965, -0.3435519, 795608.25, 795608.25, 0.0, 9.997543, 10.006442 
2.8399405e+3, 1.3574843e+2, -1661046.1, -1502806.3, -209164.25, 0.63929236, -0.21030742, -1358297.9, 251328.25, 0.000026719768, 9.999665, 10.001296 
2.839534e+3, 1.4573467e+2, -1553836.1, -2047123.0, 49490.727, -0.46522033, -0.71401983, -1548919.9, -37162.004, 0.000008259606, 10.002438, 9.99573 
2.8391472e+3, 1.5572448e+2, -1322675.8, -1745007.5, 66489.91, 0.110504255, -0.7668734, -1312455.3, 101405.734, 0.0000013335809, 10.002842, 9.996885 
2.8387567e+3, 1.657162e+2, -1304363.0, -1694593.9, 37127.28, 0.32735944, -0.50733435, -1300862.0, 15085.458, 0.000000073245815, 10.00227, 9.996866 
2.838363e+3, 1.7570834e+2, -1281433.0, -1557855.5, 11725.788, 0.20677811, -0.34267175, -1280936.5, -62905.4, 0.0, 10.0014715, 9.997502 
2.8379694e+3, 1.8570165e+2, -1007046.6, -930031.25, 8778.382, 0.09769425, -0.19099866, -929043.3, 191050.97, 0.0, 10.00075, 10.001498 
2.837576e+3, 1.9569477e+2, -894921.4, -827741.56, 47585.305, 0.0140078785, -0.40294862, -803085.06, 219067.98, 0.0, 10.000887, 10.001435 
2.8371832e+3, 2.0568742e+2, -1012643.94, -1307672.6, 42998.203, -0.0025288495, -0.26606762, -1006505.06, -82277.484, 0.0, 10.001424, 9.99723 
2.83679e+3, 2.1567887e+2, -804961.5, -1123520.8, 25790.977, 0.027135096, -0.21138091, -802886.94, 23434.691, 0.0, 10.002099, 9.997458 
2.8363976e+3, 2.2566916e+2, -776961.5, -1217313.6, 65849.49, 0.00792225, -0.069159515, -767325.4, -38902.21, 0.0, 10.002213, 9.996153 
2.8360054e+3, 2.3565765e+2, -655428.7, -1056496.8, 68369.6, -0.027899861, -0.2070759, -644094.1, -13554.188, 0.0, 10.00216, 9.996597 
2.8356144e+3, 2.456478e+2, -591106.75, -786232.3, 75552.875, 0.039623626, -0.14870621, -565272.9, -32635.596, 0.0, 10.001115, 9.9983015 
2.8352252e+3, 2.556382e+2, -699351.06, -734328.56, 25420.412, 0.20887758, -0.31536204, -685984.5, -251255.19, 0.0, 9.999492, 9.998747 
2.8348336e+3, 2.6563114e+2, -607445.6, -550560.44, 1294.2861, 0.14815372, -0.15545756, -550531.0, -213732.4, 0.0, 9.999099, 9.999486 
2.83444e+3, 2.7562496e+2, -346269.7, -340252.97, -18417.918, -0.0516635, -0.09910767, -324599.3, -85738.945, 0.0, 10.000085, 9.999773 
2.8340462e+3, 2.856174e+2, -266204.06, -214466.05, -153434.8, -0.03385546, -0.07709149, -84734.79, 56194.98, 0.0, 9.999733, 10.000167 
2.8336516e+3, 2.9560754e+2, -330647.78, -186118.73, -121414.39, 0.11069027, -0.44636655, -117090.6, -74074.31, 0.0, 9.998546, 10.000271 
2.833258e+3, 3.0560002e+2, -345133.38, -282586.6, 59387.242, 0.044420872, -0.37461033, -246741.66, -246741.66, 0.0, 9.998415, 9.998998 
2.832868e+3, 3.1559402e+2, -189497.9, -155128.16, 6393.8164, 0.14335665, -0.30901614, -153977.25, -153977.25, 0.0, 9.998967, 9.999296 
2.83248e+3, 3.2558742e+2, -227005.42, 158045.11, -55330.063, 0.3820493, -0.25355405, 165838.06, 165838.06, 0.0, 9.997446, 10.002004 
2.8499326e+3, 1.3613676e+2, -1915657.6, -1838373.6, -133469.05, 0.58105826, -0.28633982, -1738065.4, -132243.4, 0.000013315561, 9.998676, 9.999569 
2.8495315e+3, 1.4612396e+2, -1378185.0, -1725550.6, -220340.61, -0.30201805, -0.70156157, -1271304.6, 236643.98, 0.0000038169696, 10.002536, 9.99792 
2.8491434e+3, 1.5611932e+2, -1449894.8, -1658473.5, -80294.92, 0.26800483, -0.37236348, -1422565.3, -12566.309, 0.0000005153316, 10.0012245, 9.998298 
2.8487518e+3, 1.6611144e+2, -1269308.8, -1520060.3, 5768.0005, 0.34253195, -0.22796051, -1269176.1, 42901.457, 0.00000002542409, 10.001752, 9.998325 
2.8483567e+3, 1.7610121e+2, -949818.2, -1298604.3, 101333.555, 0.015685957, -0.394495, -922514.9, 291662.9, 0.0, 10.003227, 9.998464 
2.8479633e+3, 1.8609323e+2, -768735.8, -944218.5, -10619.445, -0.04746629, -0.3515068, -768095.5, 348158.6, 0.0, 10.002844, 10.000417 
2.8475705e+3, 1.9608586e+2, -909051.6, -968075.0, -86127.32, 0.056049272, -0.45644104, -847520.2, 170801.92, 0.0, 10.001229, 10.000345 
2.8471774e+3, 2.0607902e+2, -985365.1, -1187927.1, -77146.33, 0.015168397, -0.29408097, -959330.0, -38936.508, 0.0, 10.00104, 9.998271 
2.8467837e+3, 2.1607164e+2, -805060.94, -1054177.8, -1469.9883, -0.08839888, -0.17213927, -805052.25, 17424.133, 0.0, 10.001637, 9.998215 
2.8463915e+3, 2.2606276e+2, -649690.3, -968416.56, 103868.97, -0.096764736, -0.078070655, -618828.94, 105737.734, 0.0, 10.002226, 9.99786 
2.846e+3, 2.3605211e+2, -459624.2, -831925.7, 169732.56, -0.11499622, -0.21697429, -393859.78, 232810.13, 0.0, 10.002818, 9.997863 
2.8456086e+3, 2.460427e+2, -394386.03, -728252.3, 168144.92, -0.0015658628, -0.15851636, -324381.66, 204381.64, 0.0, 10.002475, 9.998104 
2.8452185e+3, 2.5603348e+2, -439624.0, -669476.4, 148585.23, 0.22327577, -0.17800432, -366705.56, 64150.3, 0.0, 10.001373, 9.998355 
2.844826e+3, 2.660254e+2, -494816.2, -486368.38, 170885.5, 0.18129359, -0.09634491, -319654.6, 13282.233, 0.0, 9.999753, 9.999647 
2.8444317e+3, 2.7601784e+2, -576886.6, -449102.78, 106006.74, -0.081922606, -0.11218278, -389222.3, -154209.73, 0.0, 9.998401, 9.999885 
2.8440377e+3, 2.8601003e+2, -333997.63, -212720.48, -43121.188, -0.086202994, -0.12896687, -198951.58, -61868.402, 0.0, 9.999029, 10.000565 
2.8436434e+3, 2.96001e+2, -31331.66, -38402.59, -92434.66, 0.08936455, -0.3994121, 57635.117, 96796.32, 0.0, 10.000527, 10.00036 
2.8432506e+3, 3.059927e+2, -57151.54, -205155.03, 110444.38, 0.1057474, -0.3782218, 1791.14, 1791.14, 0.0, 10.000542, 9.998555 
2.8428617e+3, 3.159855e+2, -130857.76, -244050.77, 41453.82, 0.2840306, -0.33321512, -117300.266, -117300.266, 0.0, 9.99979, 9.998341 
2.8424707e+3, 3.2597914e+2, -304326.97, -271781.8, -83522.18, 0.3989317, -0.042450942, -202961.78, -202961.78, 0.0, 9.998375, 9.998702 
2.8599256e+3, 1.3652432e+2, -1608753.0, -1847278.0, 277883.34, 0.6286682, -0.34286502, -1425620.6, 176408.38, 0.0000059672575, 10.001641, 9.998006 
2.8595296e+3, 1.4651439e+2, -1405657.5, -1498938.9, -140435.27, 0.046247605, -0.49899796, -1304320.5, 199812.14, 0.0000015122073, 10.001422, 9.999965 
2.8591394e+3, 1.56515e+2, -1375605.5, -1422544.5, -58696.723, 0.47960436, 0.14686947, -1335860.1, 70272.69, 0.0000000966577, 10.000942, 10.000023 
2.8587466e+3, 1.6650704e+2, -1202464.9, -1275039.8, 90820.25, 0.3629008, 0.11088075, -1140951.0, 167255.28, 0.00000000026919006, 10.001376, 10.000177 
2.8583506e+3, 1.7649396e+2, -1031457.1, -1222227.4, 101673.23, -0.18038368, -0.54526365, -987430.06, 222893.9, 0.0, 10.002235, 9.999454 
2.857957e+3, 1.8648456e+2, -1097633.0, -1366640.8, -58689.684, -0.16186479, -0.5376084, -1085386.1, 27029.943, 0.0, 10.001884, 9.997935 
2.857566e+3, 1.9647636e+2, -1196028.8, -1349195.8, -99614.72, 0.24678148, -0.5014167, -1146961.4, -132459.48, 0.0, 10.000461, 9.998062 
2.857172e+3, 2.0647009e+2, -976997.94, -1014838.44, 34.213367, 0.12701285, -0.24772362, -976997.9, -60428.84, 0.0, 10.0004635, 9.999707 
2.8567755e+3, 2.164638e+2, -857566.75, -948786.75, 28551.861, -0.29461518, -0.18907404, -849367.06, -30730.303, 0.0, 10.00077, 9.99936 
2.8563842e+3, 2.2645617e+2, -704243.6, -786807.0, 125244.48, -0.29057333, -0.11293577, -613652.75, 107055.92, 0.0, 10.001091, 9.999572 
2.8559956e+3, 2.36447e+2, -588301.9, -748345.1, 161475.69, -0.04866803, -0.32349405, -488107.38, 134683.27, 0.0, 10.001479, 9.999001 
2.8556034e+3, 2.4643944e+2, -606458.94, -837845.3, 107422.49, 0.009675958, -0.11344715, -564277.1, -39410.01, 0.0, 10.00127, 9.997795 
2.8552097e+3, 2.5643167e+2, -673880.75, -844056.2, 104912.766, -0.005846, -0.011770739, -623888.5, -196937.66, 0.0, 10.00019, 9.997629 
2.8548175e+3, 2.6642194e+2, -663133.44, -644755.94, 104419.47, 0.09015479, -0.015391737, -549121.7, -220072.88, 0.0, 9.999011, 9.998878 
2.8544256e+3, 2.7641058e+2, -789668.6, -664450.44, 76751.234, 0.20679401, -0.38020918, -628010.8, -396850.78, 0.0, 9.997467, 9.998847 
2.8540316e+3, 2.8640294e+2, -526547.75, -406873.34, 19409.887, 0.17240459, -0.26967546, -403804.0, -270571.38, 0.0, 9.998326, 9.999495 
2.8536364e+3, 2.963963e+2, -185859.98, -245942.97, -16157.573, 0.055314682, -0.22213162, -181790.5, -146496.2, 0.0, 10.000168, 9.999058 
2.853243e+3, 3.0638793e+2, -119012.34, -243160.39, 46819.383, -0.028700924, -0.134297, -103335.234, -103335.234, 0.0, 10.000307, 9.998338 
2.852852e+3, 3.1637928e+2, -352838.78, -401739.13, 27800.664, 0.07485223, -0.24202815, -340266.16, -340266.16, 0.0, 9.998636, 9.997759 
2.8524598e+3, 3.2637128e+2, -280490.56, -76317.52, 19233.615, 0.11293265, -0.16758007, -74521.46, -74521.46, 0.0, 9.997934, 10.000207 
2.8699195e+3, 1.3691778e+2, -1057772.5, -1388595.3, 32204.709, 0.22969219, -0.2982041, -1054666.6, 543514.0, 0.0000021514043, 10.004399, 9.999918 
2.8695253e+3, 1.4690997e+2, -1405638.9, -1410680.5, 14306.735, 0.20977661, -0.32702175, -1393632.6, 106624.35, 0.00000043033984, 10.000937, 10.000845 
2.8691313e+3, 1.569065e+2, -1312733.0, -1369144.3, 91793.44, 0.24713685, -0.11447385, -1244909.5, 157382.73, 0.000000019645139, 10.001167, 10.000328 
2.8687403e+3, 1.6689855e+2, -1199834.1, -1309670.8, 143996.34, 0.26326907, -0.13024649, -1100639.0, 203728.67, 0.0, 10.001514, 9.99989 
2.8683478e+3, 1.7688772e+2, -1139620.1, -1284479.0, 87700.6, 0.046774723, -0.48042652, -1098306.9, 108161.77, 0.0, 10.001465, 9.999432 
2.8679535e+3, 1.868801e+2, -1026222.3, -1182235.4, -58910.805, 0.030078469, -0.3955587, -1006476.6, 102068.1, 0.0, 10.001544, 9.999444 
2.8675592e+3, 1.9687313e+2, -1023706.75, -1186738.6, 96736.58, 0.2086558, -0.30639485, -978720.5, 31897.477, 0.0, 10.001085, 9.998974 
2.8671655e+3, 2.0686585e+2, -815998.06, -952721.1, 211289.06, 0.08625783, -0.16475186, -662286.75, 250406.73, 0.0, 10.0016165, 9.999582 
2.8667706e+3, 2.16858e+2, -604988.2, -833587.94, 152233.48, -0.26240012, -0.17723918, -528921.3, 285852.47, 0.0, 10.002454, 9.999367 
2.8663793e+3, 2.2684927e+2, -583345.94, -684362.25, 107974.27, -0.2038876, -0.24124563, -514650.4, 202203.2, 0.0, 10.001535, 10.000137 
2.8659904e+3, 2.3683989e+2, -812693.4, -807557.94, 79163.01, 0.084366225, -0.47923186, -730921.0, -111985.79, 0.0, 9.999528, 9.999608 
2.8655976e+3, 2.4683294e+2, -732330.2, -824930.7, 58179.29, 0.08582257, -0.2931665, -704276.25, -183271.06, 0.0, 9.999934, 9.998571 
2.865203e+3, 2.568263e+2, -408215.16, -663387.8, 62914.11, -0.060081698, -0.09650647, -393546.6, 29531.598, 0.0, 10.001636, 9.998221 
2.86481e+3, 2.6681694e+2, -291212.25, -495268.56, 50521.137, 0.05045914, -0.09122425, -279389.03, 45785.203, 0.0, 10.001558, 9.998731 
2.864418e+3, 2.7680537e+2, -373880.06, -518579.84, 33046.918, 0.2972536, -0.40915892, -366690.0, -139400.11, 0.0, 10.000376, 9.9985075 
2.864025e+3, 2.8679776e+2, -173302.55, -264467.3, 129580.08, 0.2772963, -0.27500325, -81521.36, 47843.793, 0.0, 10.000804, 9.999291 
2.8636304e+3, 2.967919e+2, 95355.625, -157226.02, 95432.164, 0.08094793, -0.07374786, 127357.78, 158780.89, 0.0, 10.002188, 9.998735 
2.863236e+3, 3.067837e+2, 52753.89, -117662.77, 100849.92, -0.05521085, 0.024755916, 99572.7, 99572.7, 0.0, 10.001239, 9.998781 
2.8628427e+3, 3.1677446e+2, -231417.05, -300134.53, 75403.84, -0.03294196, -0.11726552, -182912.88, -182912.88, 0.0, 9.999158, 9.998255 
2.862451e+3, 3.2676464e+2, -8966.658, 183548.78, 80222.51, 0.07556187, -0.3144081, 212595.48, 212595.48, 0.0, 9.9991255, 10.001435 
2.8799134e+3, 1.373135e+2, -1442979.1, -1345554.0, -157190.9, 0.04186044, -0.16161032, -1229700.9, 364606.56, 0.00000033823923, 10.000897, 10.001828 
2.8795207e+3, 1.4730643e+2, -1357002.8, -1357626.9, 49538.902, 0.4000856, -0.1935699, -1307774.9, 188595.89, 0.000000039050374, 10.001254, 10.000999 
2.879123e+3, 1.5729769e+2, -1391446.3, -1475192.4, 69792.08, 0.045854434, -0.51121634, -1351929.6, 46522.605, 0.0000000006124831, 10.000985, 9.99968 
2.878734e+3, 1.6729009e+2, -1371731.1, -1514483.0, 160037.06, 0.23390137, -0.39404985, -1267874.6, 32653.45, 0.0, 10.000961, 9.998674 
2.8783458e+3, 1.7728214e+2, -1348213.3, -1475817.4, 101710.61, 0.47228512, -0.37778142, -1291949.8, -89340.38, 0.0, 10.000497, 9.998541 
2.87795e+3, 1.872771e+2, -986212.4, -878006.3, -63213.227, 0.32316256, -0.13972476, -848904.5, 255756.34, 0.0, 10.000796, 10.001807 
2.877552e+3, 1.9727243e+2, -1024014.8, -1051748.4, 25033.572, 0.1258457, -0.08365489, -1009264.0, -2555.8826, 0.0, 10.000656, 10.000067 
2.8771588e+3, 2.0726395e+2, -1020123.6, -1209977.0, 206924.23, 0.039020754, -0.008995435, -887391.1, 21401.459, 0.0, 10.001053, 9.998041 
2.8767675e+3, 2.1725322e+2, -914949.56, -1171363.9, 145004.23, -0.043576367, -0.1921118, -849602.3, -38703.195, 0.0, 10.001292, 9.997566 
2.8763756e+3, 2.2724237e+2, -765917.6, -799819.7, 25491.143, 0.05385216, -0.36843807, -752256.0, -39257.19, 0.0, 10.000589, 9.999732 
2.875984e+3, 2.3723136e+2, -1053877.3, -1003413.25, 27305.512, 0.26481515, -0.75578696, -991466.7, -376369.88, 0.0, 9.998399, 9.998762 
2.8755912e+3, 2.4722429e+2, -784205.2, -736128.9, 122220.414, 0.20469926, -0.5870795, -635605.1, -118439.086, 0.0, 9.999201, 9.999521 
2.8751978e+3, 2.5721815e+2, -569582.0, -715823.44, 111708.96, 0.01335399, -0.45341122, -509190.47, -89959.34, 0.0, 10.000539, 9.998386 
2.874803e+3, 2.6721132e+2, -444679.22, -585096.2, 3862.4534, -0.042044666, -0.1839408, -444573.03, -123267.414, 0.0, 10.000711, 9.99847 
2.874408e+3, 2.7720314e+2, -589097.2, -690564.6, 31903.482, -0.011417477, -0.15696983, -579899.75, -356505.97, 0.0, 9.99932, 9.997802 
2.8740165e+3, 2.8719538e+2, -185786.56, -218398.94, 183993.23, 0.04381206, -0.036094233, -17378.371, 108093.81, 0.0, 10.000549, 9.999706 
2.8736258e+3, 2.9718742e+2, 12448.016, -224628.3, 152354.88, 0.057650417, -0.10023556, 86946.914, 114496.91, 0.0, 10.001801, 9.99846 
2.873231e+3, 3.0717927e+2, 481.966, -84843.72, -4735.777, 0.021628005, -0.0062950877, 744.00806, 744.00806, 0.0, 10.000779, 9.999198 
2.872836e+3, 3.1717074e+2, -497849.47, -453482.22, 59327.81, 0.08997718, -0.12000062, -412326.28, -412326.28, 0.0, 9.997564, 9.997962 
2.8724438e+3, 3.2716277e+2, -195339.47, 157024.06, 264905.8, 0.10474291, -0.22807531, 298985.53, 298985.53, 0.0, 9.997919, 10.001686 
2.8899074e+3, 1.3771115e+2, -1917162.5, -1802325.5, 148536.33, 0.113966875, -0.15344432, -1700496.0, -110093.625, 0.0000000032251708, 9.99847, 9.999933 
2.8895155e+3, 1.477009e+2, -1355493.9, -1516337.0, 39129.867, 0.40649787, -0.33097768, -1346479.6, 146026.88, 0.0, 10.0018835, 9.999633 
2.889118e+3, 1.5769452e+2, -1419226.4, -1578362.4, 64233.74, 0.09917686, -0.24971715, -1396534.8, -1965.5815, 0.0, 10.001054, 9.998992 
2.8887272e+3, 1.6768658e+2, -1273315.3, -1319031.9, 167711.33, 0.15769622, -0.23599319, -1126911.6, 169732.92, 0.0, 10.000881, 10.0001 
2.888337e+3, 1.7767797e+2, -1282015.8, -1384322.5, 206239.7, 0.24614652, -0.36947402, -1120680.4, 78046.57, 0.0, 10.000542, 9.999206 
2.8879425e+3, 1.8767132e+2, -998157.3, -1105263.4, -31195.41, 0.17844841, -0.20016676, -989733.9, 111063.94, 0.0, 10.001514, 9.999962 
2.8875458e+3, 1.9766533e+2, -803188.3, -1041879.9, -98529.39, 0.057127815, -0.06972456, -767771.5, 235092.45, 0.0, 10.002426, 9.999342 
2.887154e+3, 2.0765747e+2, -740773.1, -913288.4, 66985.34, 0.08656121, -0.032365367, -717818.0, 187122.25, 0.0, 10.002099, 9.999624 
2.8867638e+3, 2.1764816e+2, -822042.4, -998556.44, 157507.89, 0.12642182, -0.18945841, -729750.1, 77278.25, 0.0, 10.001186, 9.998858 
2.886371e+3, 2.276387e+2, -590601.75, -765297.9, 63662.047, 0.18316235, -0.26091352, -569864.0, 139253.61, 0.0, 10.001901, 9.999384 
2.8859776e+3, 2.376288e+2, -376349.0, -677321.7, 70193.445, 0.25235277, -0.45486006, -360783.38, 250427.16, 0.0, 10.0028715, 9.99891 
2.8855845e+3, 2.4762034e+2, -334682.03, -496536.9, 144825.58, 0.163919, -0.45895058, -249706.78, 263584.25, 0.0, 10.002142, 9.999786 
2.885191e+3, 2.5761217e+2, -485467.47, -638904.25, 65158.99, -0.011221676, -0.5078226, -461530.97, -46160.402, 0.0, 10.000814, 9.998844 
2.8847966e+3, 2.6760572e+2, -339129.8, -498439.8, -36592.285, -0.029235976, -0.25096446, -331126.88, -13686.809, 0.0, 10.001237, 9.998817 
2.884401e+3, 2.7759948e+2, -141387.39, -433976.38, 7163.3696, -0.01598797, -0.019200975, -141212.13, 78298.0, 0.0, 10.002128, 9.998239 
2.8840098e+3, 2.8759137e+2, -134835.13, -222095.61, 158759.39, 0.04535579, 0.0463933, -13819.862, 107772.3, 0.0, 10.000846, 9.999601 
2.88362e+3, 2.975822e+2, -382752.4, -376050.84, 67281.164, 0.14678682, -0.11440045, -312037.06, -288355.34, 0.0, 9.998749, 9.998947 
2.883225e+3, 3.0757397e+2, -130220.52, -49738.98, -37900.734, 0.2018792, -0.11822857, -34700.594, -34700.594, 0.0, 9.999424, 10.000148 
2.8828302e+3, 3.1756607e+2, -2184.418, -117301.48, 60897.24, 0.3935485, -0.19953647, 24051.193, 24051.193, 0.0, 10.000414, 9.999029 
2.8824374e+3, 3.275628e+2, 165849.33, 326526.75, 162368.1, 0.25578487, 0.21510543, 427344.63, 427344.63, 0.0, 10.0002, 10.002059 
2.8999e+3, 1.3810688e+2, -2001091.3, -2095213.9, 332283.16, 0.25390172, -0.28937238, -1712553.3, -126036.38, 0.000000008553674, 9.9990425, 9.997655 
2.89951e+3, 1.48095e+2, -1561226.4, -1777177.3, -21303.227, 0.45323724, -0.47529927, -1559145.0, -70498.99, 0.0, 10.001256, 9.998125 
2.8991136e+3, 1.5809198e+2, -1485617.5, -1699429.0, 46406.145, 0.29412284, 0.0629635, -1475979.8, -85298.95, 0.0, 10.001084, 9.998117 
2.8987202e+3, 1.6808398e+2, -1125638.1, -1057445.6, 140509.42, 0.13430202, -0.0014433714, -946954.7, 345797.4, 0.0, 10.001222, 10.00167 
2.8983274e+3, 1.7807384e+2, -1314518.3, -1428242.5, 129658.99, -0.06552217, -0.4501767, -1229800.9, -34959.168, 0.0, 10.000544, 9.998883 
2.897934e+3, 1.8806472e+2, -1261955.5, -1600167.9, -11329.868, -0.042037703, -0.30045602, -1261576.4, -164634.81, 0.0, 10.00138, 9.996572 
2.8975412e+3, 1.9805594e+2, -1048247.5, -1360916.8, -55335.17, 0.09349334, -0.17356957, -1038743.3, -39699.754, 0.0, 10.00172, 9.997426 
2.8971496e+3, 2.0804957e+2, -664223.94, -569332.06, 42167.23, 0.20591858, -0.09892081, -553302.06, 347801.06, 0.0, 10.001423, 10.0022335 
2.896759e+3, 2.180433e+2, -939014.06, -908613.9, 113394.984, 0.30956915, -0.22872782, -809404.75, -6248.389, 0.0, 9.9998865, 10.000045 
2.8963658e+3, 2.280376e+2, -768380.6, -880353.06, 95252.305, 0.22885919, 0.05491957, -713879.5, -8664.258, 0.0, 10.000996, 9.998935 
2.8959712e+3, 2.380311e+2, -654682.1, -931534.44, 83613.26, 0.100672305, 0.22368348, -631389.44, -24105.21, 0.0, 10.001604, 9.997735 
2.895577e+3, 2.4802026e+2, -517770.03, -640348.8, 83524.195, -0.036249634, 0.06721637, -475460.78, 33925.313, 0.0, 10.001304, 9.999091 
2.895183e+3, 2.580079e+2, -786602.94, -871859.1, 37041.83, -0.15328115, -0.37201622, -772757.56, -361257.0, 0.0, 9.999295, 9.9979 
2.8947908e+3, 2.6799983e+2, -426547.2, -488116.75, 12762.436, 0.03558932, -0.26707754, -424006.56, -110425.65, 0.0, 10.000528, 9.999179 
2.894399e+3, 2.7799284e+2, -282052.44, -544448.8, 36722.965, 0.27486026, -0.16384406, -277009.88, -61356.94, 0.0, 10.001441, 9.9978 
2.894005e+3, 2.8798425e+2, -268968.6, -343647.72, 30495.441, 0.20820893, -0.0909405, -258098.05, -140359.58, 0.0, 10.00032, 9.998976 
2.8936103e+3, 2.9797482e+2, -609285.06, -507691.78, 9836.779, 0.08745354, -0.23422675, -506748.1, -486916.94, 0.0, 9.997432, 9.998637 
2.8932148e+3, 3.0796963e+2, 54576.8, 320839.8, 46843.008, 0.010335262, -0.11699357, 328840.38, 328840.38, 0.0, 9.999701, 10.002341 
2.89282e+3, 3.1796595e+2, -40288.242, -382112.06, 185503.36, -0.07065734, 0.039557014, 41034.613, 41034.613, 0.0, 10.001429, 9.996589 
2.8924283e+3, 3.2795316e+2, -538256.9, -378541.78, 97734.9, -0.014284803, -0.2749408, -332187.84, -332187.84, 0.0, 9.997458, 9.998153 
2.9098898e+3, 1.3849945e+2, -1778268.8, -1769610.3, 119681.84, -0.12795122, -0.21638937, -1654179.4, -71507.61, 0.000000011355019, 9.999441, 9.99979 
2.9095036e+3, 1.4848793e+2, -1516368.9, -1606461.0, -28987.125, 0.43427432, -0.5306343, -1507848.1, -23059.367, 0.0, 10.0007925, 9.999588 
2.9091078e+3, 1.5848377e+2, -1251742.0, -1523493.1, 108202.984, 0.17861524, -0.21692964, -1213922.3, 172907.77, 0.0, 10.002288, 9.998799 
2.9087147e+3, 1.68476e+2, -1025304.5, -1180757.5, 80902.15, 0.06859487, -0.19575459, -990841.2, 298063.97, 0.0, 10.002573, 10.000198 
2.9083216e+3, 1.784667e+2, -1114679.1, -1401511.3, -7491.382, -0.11947066, -0.41324252, -1114483.6, 76510.91, 0.0, 10.002075, 9.998369 
2.9079288e+3, 1.8845823e+2, -1019369.9, -1413732.8, -53808.42, -0.070983745, -0.2480847, -1012159.9, 80928.055, 0.0, 10.002633, 9.9973 
2.907536e+3, 1.9844998e+2, -848074.3, -1207641.8, 36428.71, 0.051478907, -0.09655091, -844420.75, 150761.63, 0.0, 10.002713, 9.998051 
2.9071435e+3, 2.0844269e+2, -615658.4, -623414.2, -12943.497, 0.13543774, -0.09919729, -606024.4, 291227.38, 0.0, 10.001951, 10.001656 
2.906751e+3, 2.1843569e+2, -784553.44, -802038.6, -51557.07, 0.16747162, -0.23578513, -741003.0, 58310.895, 0.0, 10.000644, 10.00046 
2.9063588e+3, 2.2843063e+2, -620395.5, -703812.0, 10105.957, 0.17358436, 0.0075640427, -619188.6, 82177.33, 0.0, 10.001423, 10.000002 
2.9059663e+3, 2.3842543e+2, -417358.03, -705046.94, 50185.418, 0.11745205, 0.22650565, -408854.84, 194567.16, 0.0, 10.002563, 9.99889 
2.905572e+3, 2.4841547e+2, -280964.16, -556484.9, 44305.67, -0.004315256, 0.11606098, -274014.75, 231502.19, 0.0, 10.002847, 9.999013 
2.905177e+3, 2.5840378e+2, -251272.4, -574168.7, 33943.95, -0.11489513, -0.22199345, -247742.69, 159883.47, 0.0, 10.002583, 9.998414 
2.9047847e+3, 2.6839504e+2, -238083.89, -414652.72, 47526.043, 0.04319598, -0.21132073, -226104.34, 83605.7, 0.0, 10.001679, 9.999208 
2.904393e+3, 2.7838698e+2, -350851.25, -528320.7, 25001.725, 0.287022, -0.2068017, -347396.28, -135607.75, 0.0, 10.000574, 9.998377 
2.904001e+3, 2.8837734e+2, -74635.05, -232054.95, 59968.36, 0.46250004, -0.28173143, -54393.19, 59490.547, 0.0, 10.00154, 9.999163 
2.9036024e+3, 2.9836893e+2, -6737.6826, -145850.38, 17109.322, 0.09931924, -0.3055677, -4664.3267, 11303.147, 0.0, 10.0010395, 9.999407 
2.919882e+3, 1.3889167e+2, -1511560.0, -1405318.4, 71587.305, -0.20843112, -0.08316787, -1369295.8, 209534.22, 0.00000000463828, 10.00039, 10.001745 
2.9194972e+3, 1.488809e+2, -1351247.4, -1341903.4, -34444.523, 0.44192865, -0.5236976, -1311815.4, 169115.4, 0.0, 10.001219, 10.001125 
2.919102e+3, 1.5887439e+2, -1396449.6, -1597606.5, 10350.77, 0.1358933, -0.59528154, -1395918.4, -12928.723, 0.0, 10.001389, 9.998693 
2.9187098e+3, 1.6886675e+2, -1306074.4, -1564677.3, -796.3264, 0.06693353, -0.41838673, -1306072.0, -21001.186, 0.0, 10.001741, 9.997959 
2.9183173e+3, 1.7885844e+2, -1364066.5, -1637438.5, -35606.113, -0.002089442, -0.35499045, -1359505.0, -172343.75, 0.0, 10.000955, 9.997283 
2.9179242e+3, 1.8885194e+2, -1020963.4, -1161881.5, -30147.652, -0.007499046, -0.11816279, -1014784.56, 74448.16, 0.0, 10.001682, 9.999397 
2.917531e+3, 1.9884512e+2, -1053901.0, -1311939.3, 26288.33, 0.06586534, -0.023385644, -1051250.0, -59942.95, 0.0, 10.001389, 9.997965 
2.9171365e+3, 2.0883596e+2, -874898.1, -982737.5, -33127.207, -0.0034813012, -0.06066008, -865534.75, 27862.623, 0.0, 10.001339, 9.999429 
2.916741e+3, 2.1882631e+2, -1027715.7, -1057473.4, -34902.76, -0.095493875, -0.28142443, -1004652.7, -209162.7, 0.0, 9.999709, 9.99914 
2.916352e+3, 2.2881971e+2, -616347.7, -494542.47, 66895.766, 0.067361, -0.27254283, -464978.7, 232573.31, 0.0, 10.000679, 10.001738 
2.9159626e+3, 2.3881364e+2, -642529.56, -730387.56, 65955.61, 0.25632083, -0.32902193, -607212.75, -7603.128, 0.0, 10.000819, 9.999512 
2.915569e+3, 2.4880712e+2, -408575.63, -561011.06, 26628.836, 0.17481567, -0.1516754, -404057.75, 97617.484, 0.0, 10.001861, 9.999384 
2.9151735e+3, 2.5879982e+2, -507572.88, -742137.1, 20043.627, 0.009837065, -0.111953184, -505872.47, -102124.13, 0.0, 10.001137, 9.99793 
2.9147768e+3, 2.6879153e+2, -378797.84, -481419.16, -8293.142, -0.13562325, -0.033894666, -378131.97, -72305.2, 0.0, 10.000922, 9.998993 
2.914381e+3, 2.7878246e+2, -545780.25, -626283.4, 33059.55, -0.21606793, -0.14890647, -533944.2, -326032.1, 0.0, 9.999398, 9.998225 
2.9139978e+3, 2.8877094e+2, -56775.316, -113240.516, 126528.31, 0.73533756, -0.4824503, 44631.95, 154657.25, 0.0, 10.001317, 10.000015 
2.913594e+3, 2.9876626e+2, -133448.08, -240574.63, -134104.73, -0.17284033, -0.259069, -42605.316, -30530.072, 0.0, 10.000473, 9.998989 
2.9298815e+3, 1.3927887e+2, -1511868.6, -1676770.0, -4196.066, 0.23483218, -0.39194342, -1511761.9, 63272.727, 0.0, 10.001424, 9.999445 
2.9294896e+3, 1.4927219e+2, -1325936.5, -1454915.9, -188054.78, 0.23898017, -0.28962183, -1191620.9, 285482.78, 0.0, 10.001793, 10.000147 
2.929098e+3, 1.5926382e+2, -1465309.4, -1611130.9, -186054.44, 0.29721665, -0.46009168, -1338389.6, 40795.402, 0.0, 10.000683, 9.998999 
2.928705e+3, 1.6925746e+2, -1306584.3, -1388944.1, -120789.43, 0.16747944, -0.30527452, -1220148.0, 61104.22, 0.0, 10.0008745, 9.999639 
2.92831e+3, 1.7925104e+2, -1245533.3, -1347882.0, -18352.33, -0.12365679, -0.19613029, -1242342.0, -59020.98, 0.0, 10.000631, 9.999475 
2.927917e+3, 1.8924485e+2, -989147.1, -941961.0, -11382.001, -0.12894121, -0.13225003, -939359.0, 146023.23, 0.0, 10.000919, 10.001318 
2.9275247e+3, 1.9923836e+2, -1009621.7, -1111673.4, 49122.426, -0.03533083, -0.1546731, -989819.25, -2372.9993, 0.0, 10.000786, 9.999664 
2.927131e+3, 2.0923033e+2, -765036.06, -952044.4, 62443.324, 0.03510084, -0.12786163, -746102.75, 143424.23, 0.0, 10.002056, 9.999369 
2.926737e+3, 2.1922171e+2, -540300.0, -808956.7, 141521.08, 0.022531677, -0.19583409, -479507.06, 312106.3, 0.0, 10.002768, 9.999457 
2.9263458e+3, 2.2921404e+2, -472041.34, -477359.3, 162668.38, 0.077650055, -0.26784658, -312010.22, 381676.78, 0.0, 10.001652, 10.001532 
2.925955e+3, 2.3920673e+2, -681901.6, -700291.25, 90654.74, 0.14794536, -0.39029622, -599976.56, -4219.8423, 0.0, 10.00007, 10.000189 
2.9255626e+3, 2.4920104e+2, -475073.84, -560534.5, 51865.723, 0.12429282, -0.18685691, -450603.47, 47212.31, 0.0, 10.001113, 9.999813 
2.9251686e+3, 2.5919515e+2, -229307.27, -525578.7, -15873.593, 0.06384809, -0.016213521, -228459.23, 171417.98, 0.0, 10.002475, 9.998851 
2.9247716e+3, 2.6918662e+2, -161161.81, -360278.78, -27256.656, -0.082243465, -0.01972148, -157498.13, 144458.88, 0.0, 10.00219, 9.9992895 
2.9243746e+3, 2.7917725e+2, -157398.11, -349997.44, 37045.88, -0.19659849, -0.17757438, -150518.2, 53525.516, 0.0, 10.001462, 9.999195 
2.9239917e+3, 2.8916657e+2, -169661.84, -145548.56, 125428.42, 0.7920969, -0.48664254, -31598.648, 74551.48, 0.0, 10.000223, 10.000447 
2.9235855e+3, 2.9916528e+2, -252954.03, -324373.03, -302689.03, -0.28270105, 0.08736698, 16124.619, 24293.617, 0.0, 9.999458, 9.99901 
2.9398793e+3, 1.39667e+2, -1709754.6, -2025007.6, 30116.186, 0.58310103, -0.5180544, -1706903.4, -135670.22, 0.0, 10.001228, 9.997133 
2.939483e+3, 1.496631e+2, -1427232.8, -1601310.4, -125766.33, 0.14311732, -0.016374104, -1361324.1, 111958.77, 0.0, 10.001686, 9.9991255 
2.9390946e+3, 1.5965356e+2, -1445048.3, -1566060.0, -94891.31, 0.6031252, -0.22867417, -1393013.9, -17632.275, 0.0, 10.000813, 9.999212 
2.9386994e+3, 1.6964884e+2, -1186923.4, -1033537.3, -29367.1, 0.30725154, -0.08922946, -1028107.0, 249322.31, 0.0, 10.000549, 10.002163 
2.9383025e+3, 1.7964423e+2, -1319399.9, -1180595.4, 18125.504, -0.19302474, -0.058222484, -1178267.5, 1206.8114, 0.0, 9.999373, 10.001169 
2.937909e+3, 1.8963775e+2, -987394.06, -772490.3, 2649.1301, -0.23174167, -0.17988281, -772457.7, 309072.63, 0.0, 10.00031, 10.002732 
2.9375175e+3, 1.9963098e+2, -1086826.0, -1065321.3, 43435.26, -0.055356286, -0.37407485, -1031327.25, -47737.51, 0.0, 10.00005, 10.000301 
2.937127e+3, 2.0962542e+2, -834827.3, -880859.6, 70171.9, 0.20714019, -0.19942918, -783993.4, 101653.94, 0.0, 10.0012665, 10.000157 
2.9367357e+3, 2.196194e+2, -897779.06, -1087760.8, 101237.9, 0.39096364, -0.07205156, -853944.94, -66233.68, 0.0, 10.000894, 9.998426 
2.9363403e+3, 2.2961149e+2, -703271.9, -724306.94, 88429.64, 0.13372557, -0.053992897, -624736.5, 65055.508, 0.0, 10.000833, 10.000105 
2.9359445e+3, 2.3960331e+2, -971130.2, -989805.25, 86946.45, -0.14247678, -0.16216785, -893021.3, -301146.66, 0.0, 9.998932, 9.998669 
2.9355538e+3, 2.4959658e+2, -590586.75, -593550.25, 108728.47, -0.11766145, -0.027878124, -483329.94, 10613.874, 0.0, 10.000435, 9.999814 
2.9351625e+3, 2.595897e+2, -480270.88, -637840.75, 9568.154, -0.014648265, 0.012239354, -479691.97, -83678.414, 0.0, 10.000927, 9.998777 
2.934769e+3, 2.6958033e+2, -192617.55, -273972.53, -51321.53, 0.19802627, -0.14367503, -167807.95, 130292.695, 0.0, 10.001623, 10.000143 
2.934374e+3, 2.7957094e+2, -359339.88, -464180.97, 20194.51, 0.30417013, -0.3889051, -355584.53, -155396.38, 0.0, 10.0002985, 9.998948 
2.9339787e+3, 2.89565e+2, -300568.22, -241913.38, 50628.656, 0.2257143, -0.18645313, -212731.31, -110479.31, 0.0, 9.999659, 9.999977 
2.9335782e+3, 2.995623e+2, -261159.47, -47916.316, -78168.22, -0.26419944, 0.23195423, -22331.875, -18046.828, 0.0, 9.998505, 10.001266 
2.9498723e+3, 1.4005943e+2, -1512895.5, -1684136.3, -57247.06, 0.32061753, -0.22691101, -1495520.4, 71881.21, 0.0, 10.001377, 9.999466 
2.9494762e+3, 1.5005596e+2, -1250631.5, -1324556.8, -54847.895, 0.0038226808, 0.11892705, -1221454.0, 247983.23, 0.0, 10.002017, 10.000911 
2.949086e+3, 1.6004692e+2, -1192210.5, -1281316.1, 30537.398, 0.28975865, -0.16933207, -1182749.5, 188777.64, 0.0, 10.001718, 10.000794 
2.9486924e+3, 1.7004251e+2, -1156201.9, -958030.25, 22345.29, 0.28431684, -0.081322394, -955541.9, 318029.5, 0.0, 10.000332, 10.002874 
2.948297e+3, 1.8003823e+2, -1377262.8, -1167139.8, 75385.484, 0.011553164, -0.038831003, -1142892.0, 32721.072, 0.0, 9.998617, 10.00169 
2.9479042e+3, 1.9003105e+2, -1010488.4, -856355.44, 45620.082, -0.050048582, -0.20849758, -843865.06, 233811.75, 0.0, 10.000319, 10.002213 
2.9475126e+3, 2.0002373e+2, -821070.0, -909905.8, -16135.702, 0.009092801, -0.4011938, -818229.94, 161512.19, 0.0, 10.001583, 10.000681 
2.9471213e+3, 2.100183e+2, -807044.44, -806554.25, -51263.22, 0.2364578, -0.27423707, -755535.56, 126261.5, 0.0, 10.001028, 10.000864 
2.946729e+3, 2.2001272e+2, -932632.9, -1016098.4, -6483.9663, 0.36553302, -0.14971934, -932132.1, -148276.69, 0.0, 10.000084, 9.99936 
2.9463336e+3, 2.3000571e+2, -572464.9, -708739.94, 44739.71, 0.056770034, -0.059503388, -559089.44, 126838.88, 0.0, 10.001812, 9.9998045 
2.945938e+3, 2.3999833e+2, -254366.47, -586337.3, 59031.023, -0.26129696, -0.048411477, -244182.03, 343822.53, 0.0, 10.003413, 9.999336 
2.9455477e+3, 2.499908e+2, -240247.28, -425814.1, 120101.555, -0.14349768, -0.029678058, -181263.95, 308816.84, 0.0, 10.002626, 10.000047 
2.9451576e+3, 2.599831e+2, -278023.53, -429645.97, 21959.713, 0.07075306, -0.07231368, -274907.13, 117250.75, 0.0, 10.001608, 9.999973 
2.944764e+3, 2.6997557e+2, -147138.89, -138112.17, -35264.727, 0.30999985, -0.15510201, -107073.16, 187155.23, 0.0, 10.001312, 10.00128 
2.944368e+3, 2.799681e+2, -184768.77, -293931.1, 24678.164, 0.41119686, -0.2764936, -179449.05, 16850.018, 0.0, 10.00095, 9.999858 
2.9439685e+3, 2.8996226e+2, -116733.875, -214273.1, 82494.48, -0.06501271, -0.07254562, -69671.266, 28690.982, 0.0, 10.000975, 9.999659 
2.943573e+3, 2.9995692e+2, 111505.41, 334855.4, 16190.643, 0.014110869, 0.11816725, 336022.97, 336440.8, 0.0, 9.999834, 10.003372 
2.959866e+3, 1.4045164e+2, -1507275.6, -1339418.6, 12826.62, 0.29490983, 0.0050548534, -1338444.1, 225126.05, 0.00000000001490612, 10.00007, 10.002441 
2.95947e+3, 1.5044822e+2, -1352819.3, -1156768.5, -29585.385, -0.070264354, 0.14095342, -1152401.1, 313193.97, 0.0, 10.000465, 10.002787 
2.959077e+3, 1.6044006e+2, -1515012.1, -1348281.6, -41259.516, 0.017957307, -0.2197362, -1338630.1, 29041.43, 0.0, 9.999197, 10.001528 
2.9586852e+3, 1.7043608e+2, -1276372.4, -989573.0, -76016.99, 0.30710185, -0.13339245, -970670.3, 299041.2, 0.0, 9.999487, 10.003017 
2.958292e+3, 1.8043187e+2, -1450180.9, -1285769.1, 65359.652, 0.4014778, -0.09268346, -1262952.6, -91199.016, 0.0, 9.998597, 10.000857 
2.9578996e+3, 1.9042422e+2, -1163300.9, -1042589.8, 111820.04, 0.23622717, -0.22311553, -975876.44, 97949.35, 0.0, 9.99991, 10.001053 
2.9575083e+3, 2.0041613e+2, -1152364.0, -1183459.8, 10870.419, 0.19821751, -0.38728, -1148940.8, -173038.77, 0.0, 9.999945, 9.99956 
2.9571146e+3, 2.1040994e+2, -851792.2, -749984.25, -75386.305, 0.22086568, -0.354292, -709925.0, 168037.39, 0.0, 10.0005865, 10.001365 
2.9567197e+3, 2.2040386e+2, -1046955.56, -1082897.3, 25139.709, 0.18569435, -0.33834803, -1034024.06, -254001.42, 0.0, 9.999568, 9.999075 
2.9563263e+3, 2.3039791e+2, -621830.44, -708971.7, 120798.8, -0.07160205, -0.15889366, -536984.75, 145099.25, 0.0, 10.001478, 9.999905 
2.9559338e+3, 2.403918e+2, -539171.25, -741614.8, 70168.49, -0.25784478, -0.05454036, -517228.63, 66918.18, 0.0, 10.001673, 9.999092 
2.9555437e+3, 2.503836e+2, -309674.72, -375937.2, 70933.266, -0.035561312, -0.1636803, -264516.7, 221711.75, 0.0, 10.001921, 10.000655 
2.9551527e+3, 2.6037595e+2, -482393.97, -500207.6, 5927.4263, 0.18600227, -0.27883363, -480601.9, -92297.51, 0.0, 10.000257, 10.00008 
2.954755e+3, 2.703737e+2, -193492.81, -42917.605, -41707.77, 0.068163216, 0.07549888, -32136.855, 258191.2, 0.0, 10.000621, 10.002177 
2.954356e+3, 2.803701e+2, -371402.22, -374107.66, 15608.786, -0.15363082, 0.25571522, -357087.66, -164723.52, 0.0, 9.99978, 9.999827 
2.953963e+3, 2.9035822e+2, -133107.61, -165066.34, 94661.32, 0.02005988, -0.20418808, -53086.43, 41392.508, 0.0, 10.000766, 10.000017 
2.9535678e+3, 3.0034924e+2, -133576.6, 90221.445, -130202.58, 0.18144692, -0.40262562, 150002.66, 150002.66, 0.0, 9.998871, 10.002115 
2.9698586e+3, 1.4084376e+2, -1370951.1, -921342.94, 35925.574, 0.1966332, -0.1104361, -918490.44, 641237.1, 0.00000010737005, 9.99937, 10.005691 
2.9694635e+3, 1.5083723e+2, -1731837.1, -1488095.5, -81747.55, 0.119489364, -0.24357943, -1463217.6, -1436.2301, 0.0, 9.998405, 10.001542 
2.969069e+3, 1.6083053e+2, -1844473.5, -1518927.1, -97835.14, 0.11997888, -0.35240185, -1491787.8, -127942.0, 0.0, 9.996856, 10.001524 
2.9686776e+3, 1.7082828e+2, -1252335.3, -941494.94, -63813.918, 0.3324471, -0.13878994, -928904.25, 336964.94, 0.0, 9.999384, 10.003462 
2.9682848e+3, 1.8082544e+2, -996144.1, -1002134.94, 14524.985, 0.33294097, 0.013863413, -984308.9, 183589.27, 0.0, 10.001283, 10.001552 
2.967892e+3, 1.9081904e+2, -1067433.1, -960011.06, 53238.027, 0.1757235, -0.040282432, -938096.94, 131861.45, 0.0, 10.000258, 10.00152 
2.9674998e+3, 2.0081179e+2, -1220352.1, -1152928.4, 54724.223, 0.074063085, -0.14939828, -1122365.6, -150338.19, 0.0, 9.998994, 10.000288 
2.967107e+3, 2.1080458e+2, -648690.25, -692786.25, 8540.28, 0.059829228, -0.20510624, -647094.0, 227003.81, 0.0, 10.002029, 10.00113 
2.9667133e+3, 2.2079778e+2, -255864.11, -627548.06, 37742.79, -0.00351609, -0.23599422, -252070.22, 524094.63, 0.0, 10.004489, 9.999904 
2.9663223e+3, 2.3079103e+2, -305185.56, -530189.4, 105252.68, -0.029697524, -0.17756237, -263626.44, 414605.97, 0.0, 10.003371, 10.000324 
2.9659307e+3, 2.4078429e+2, -429635.4, -562424.8, 52190.65, -0.05600164, -0.16111524, -411578.22, 168721.55, 0.0, 10.001712, 10.000343 
2.9655388e+3, 2.5077707e+2, -361433.53, -310466.3, 57166.07, 0.069815785, -0.2576308, -273361.0, 209009.39, 0.0, 10.00105, 10.001569 
2.965146e+3, 2.6077062e+2, -306158.63, -280976.78, -16883.154, 0.17405115, -0.31641242, -272506.56, 111926.77, 0.0, 10.000691, 10.00141 
2.9647475e+3, 2.7076924e+2, 12407.248, 81854.72, -50856.258, -0.048413996, 0.060294133, 108710.984, 395159.47, 0.0, 10.001731, 10.002615 
2.9643485e+3, 2.807666e+2, 37121.88, -104037.88, -40337.68, -0.30237734, 0.32737654, 47835.59, 236310.9, 0.0, 10.002077, 10.000646 
2.963957e+3, 2.9075503e+2, -75546.664, -85994.7, -1355.9296, 0.0983521, -0.16272844, -75373.56, 15211.505, 0.0, 10.000862, 10.000562 
2.9635608e+3, 3.007462e+2, -24114.96, 27556.107, -381591.5, 0.2823292, -0.3226321, 384185.66, 384185.66, 0.0, 10.000005, 10.001176 
2.9798532e+3, 1.4123729e+2, -1309238.8, -754634.0, 108119.96, 0.4009617, -0.18088531, -734301.44, 821566.25, 0.00000019973128, 9.999302, 10.006873 
2.9794574e+3, 1.5122743e+2, -1653331.3, -1628685.1, -115161.95, 0.37426966, -0.5184611, -1525188.8, -67231.945, 0.000000000008976791, 9.99982, 9.999886 
2.9790616e+3, 1.6122223e+2, -1723954.3, -1518363.8, 579.87787, 0.3948786, -0.36298153, -1518362.1, -158352.97, 0.0, 9.998033, 10.000978 
2.97867e+3, 1.7122102e+2, -1179760.0, -841504.6, 99536.08, 0.3782517, -0.07736413, -814388.56, 447634.25, 0.0, 9.999737, 10.003949 
2.9782778e+3, 1.8121919e+2, -1186321.0, -1105955.4, 95146.625, 0.23478025, 0.14714761, -1042854.44, 121187.12, 0.0, 10.000167, 10.00138 
2.9778838e+3, 1.9121438e+2, -990466.5, -825491.1, 29147.771, 0.0653355, 0.20409948, -820492.75, 245593.02, 0.0, 10.000501, 10.002303 
2.9774904e+3, 2.0120883e+2, -1203960.1, -1167292.6, 110644.99, -0.036612395, 0.19564788, -1073472.8, -105334.945, 0.0, 9.999349, 10.000002 
2.9770997e+3, 2.1120042e+2, -735448.25, -823461.3, 139685.88, -0.10609873, 0.059997357, -633000.94, 237220.6, 0.0, 10.001829, 10.00033 
2.9767096e+3, 2.2119264e+2, -635563.3, -852082.2, 63688.97, -0.06147776, -0.024752723, -618218.6, 154080.16, 0.0, 10.002186, 9.999465 
2.9763198e+3, 2.311848e+2, -520987.06, -545667.06, 53237.656, 0.1752483, -0.13888617, -478678.0, 195697.25, 0.0, 10.001704, 10.000947 
2.9759282e+3, 2.4117684e+2, -769055.56, -719954.56, 27704.373, 0.30568236, -0.28739265, -707488.06, -131035.62, 0.0, 9.999542, 10.000279 
2.975533e+3, 2.51172e+2, -469853.44, -244060.38, 31298.025, 0.1487216, -0.22399366, -239802.33, 238696.61, 0.0, 10.000003, 10.002468 
2.9751378e+3, 2.611668e+2, -613416.94, -471152.34, 4702.622, 0.009120649, -0.20227125, -470997.06, -90449.125, 0.0, 9.998933, 10.000936 
2.974742e+3, 2.711609e+2, -87660.22, 63241.066, -19900.041, -0.0227966, -0.29501614, 65821.26, 348423.2, 0.0, 10.0011015, 10.002727 
2.974345e+3, 2.8115565e+2, -208638.66, -305956.38, -67767.945, -0.13380492, -0.29483032, -173869.83, 10780.602, 0.0, 10.000949, 9.999781 
2.973949e+3, 2.9115215e+2, -239106.36, -181405.55, -95712.59, -0.018664585, 0.062336195, -110289.73, -23604.17, 0.0, 9.999984, 10.000301 
2.973555e+3, 3.0114657e+2, -234153.0, -208028.7, -191112.36, 0.34585175, 0.26565355, -29532.625, -29532.625, 0.0, 9.999442, 9.9997635 
2.9898503e+3, 1.4163777e+2, -1737145.6, -1698865.6, 516033.4, 0.6934344, 0.2170779, -1201617.4, 350321.6, 0.000000019519112, 9.999505, 10.000392 
2.9894477e+3, 1.516261e+2, -1413933.6, -1492948.8, -120318.88, 0.041006994, -0.16725612, -1326802.0, 127254.234, 0.0, 10.001374, 10.000161 
2.9890525e+3, 1.6162343e+2, -1389739.6, -1308938.6, 101095.13, 0.15723084, 0.23695543, -1240470.3, 115615.73, 0.0, 10.000049, 10.001483 
2.9886603e+3, 1.7161566e+2, -1162752.8, -820892.56, 187297.9, 0.10212071, -0.12982912, -738253.0, 519906.53, 0.0, 9.99977, 10.004104 
2.9882687e+3, 1.8160833e+2, -1160645.6, -1004877.9, 209953.05, -0.06010192, -0.45890644, -858828.3, 301400.44, 0.0, 9.999889, 10.00223 
2.9878795e+3, 1.9160123e+2, -635983.5, -652067.5, 173860.06, 0.1461479, -0.6355205, -469979.53, 592316.56, 0.0, 10.002854, 10.002445 
2.9874906e+3, 2.0159535e+2, -563449.5, -824268.25, 162311.95, 0.3859681, -0.63968843, -485647.97, 478704.22, 0.0, 10.003497, 10.000405 
2.9871005e+3, 2.1159129e+2, -666844.6, -757078.1, 207179.73, 0.43443602, -0.34244302, -499926.13, 366467.5, 0.0, 10.002112, 10.000709 
2.9867074e+3, 2.2158585e+2, -797736.7, -819336.8, 117754.74, 0.28844386, -0.19593976, -690287.75, 78160.445, 0.0, 10.000409, 10.000598 
2.9863104e+3, 2.3157977e+2, -901274.25, -662874.4, 100513.51, -0.029479062, -0.18123111, -626152.56, 44354.582, 0.0, 9.998666, 10.001696 
2.9859155e+3, 2.4157442e+2, -869284.1, -639403.4, 148457.61, -0.15904626, -0.12368987, -566591.4, 5966.0693, 0.0, 9.99811, 10.00161 
2.9855242e+3, 2.5156978e+2, -324577.03, -168636.56, 159754.77, -0.022426993, -0.054700576, -68840.25, 405756.56, 0.0, 10.00088, 10.00265 
2.9851317e+3, 2.6156437e+2, -71031.21, -188557.61, 74259.93, 0.07015368, -0.042952582, -35096.734, 341548.4, 0.0, 10.002368, 10.001315 
2.9847372e+3, 2.7155557e+2, -92209.875, -25504.23, -371.15823, 0.112238005, -0.32996246, -25502.166, 253227.3, 0.0, 10.00136, 10.002121 
2.98434e+3, 2.8154713e+2, -150353.56, -155782.36, -121980.32, -0.007331547, -0.59840596, -31057.441, 149752.44, 0.0, 10.000627, 10.001127 
2.9839393e+3, 2.9153797e+2, -83820.49, 45079.797, -43673.125, -0.18175371, -0.94283146, 58483.12, 141379.98, 0.0, 10.000272, 10.0019655 
2.9835486e+3, 3.0153665e+2, -264012.56, -233136.27, 231727.67, 0.52682185, -0.33066246, -16333.053, -16333.053, 0.0, 9.998984, 10.000113 
2.9998395e+3, 1.420269e+2, -1303072.3, -1799673.0, -130338.66, 0.13223642, -0.09397281, -1270942.3, 277187.34, 0.000000013810121, 10.003627, 9.997755 
2.9994398e+3, 1.5202238e+2, -1376452.4, -1199078.8, -328445.06, -0.048495576, -0.04427689, -947557.5, 502626.47, 0.0, 10.000522, 10.002456 
2.9990515e+3, 1.6202085e+2, -1841073.5, -1737750.0, 56493.77, 0.80821604, 0.35494995, -1712857.9, -360654.28, 0.0, 9.997768, 9.9995775 
2.998656e+3, 1.7201334e+2, -1365806.0, -1171624.4, -192201.56, 0.46448526, 0.17938322, -1053382.8, 200888.2, 0.0, 9.999459, 10.001674 
2.9982626e+3, 1.8200554e+2, -1236987.8, -1232417.5, -314248.03, 0.022181615, -0.09903514, -920446.25, 235895.19, 0.0, 10.000091, 10.0005455 
2.997875e+3, 1.9200392e+2, -1259492.1, -990848.94, -320587.53, 0.21462542, 0.19774953, -777580.8, 280774.63, 0.0, 9.998695, 10.001998 
2.9974857e+3, 2.0199601e+2, -1275960.6, -1318458.8, -271099.97, 0.2940227, 0.020212423, -1025278.25, -64846.94, 0.0, 9.999218, 9.999019 
2.9970902e+3, 2.119935e+2, -698006.06, -642781.5, -17455.5, -0.02525683, 0.34132963, -637726.8, 224729.39, 0.0, 10.001445, 10.001619 
2.9966992e+3, 2.2198507e+2, -785191.1, -920310.06, -64783.418, 0.11772703, 0.13924176, -759149.5, 5389.7705, 0.0, 10.000983, 9.999557 
2.9963058e+3, 2.3197252e+2, -804358.56, -602328.4, -146146.53, 0.418753, -0.5360894, -525684.06, 140978.25, 0.0, 9.999373, 10.001574 
2.9959092e+3, 2.4197626e+2, -762908.2, -727890.5, -24018.328, 0.112003356, 0.3986385, -715676.6, -147054.98, 0.0, 9.999496, 10.000234 
2.995517e+3, 2.519628e+2, 105428.35, -30300.666, -26636.318, -0.09772227, -0.43617848, 110468.48, 581207.4, 0.0, 10.0042, 10.0018015 
2.9951254e+3, 2.6195472e+2, -818560.06, -753908.4, -21661.865, -0.12617214, -0.68216354, -747321.5, -374511.78, 0.0, 9.998256, 9.999268 
2.994732e+3, 2.719529e+2, 78212.51, -124631.78, 121408.195, 0.26302922, -0.14073272, 134987.72, 409824.25, 0.0, 10.003567, 10.000097 
2.9943332e+3, 2.8195006e+2, -687329.06, -329315.6, -136375.84, 0.016717916, 0.23032066, -283285.03, -106417.91, 0.0, 9.996669, 10.001733 
2.9939306e+3, 2.919373e+2, -44638.77, 455312.6, 144000.27, -0.2548211, -0.82097167, 493822.47, 572796.0, 0.0, 9.999185, 10.005039 
2.9935423e+3, 3.019363e+2, -123384.64, 40437.99, -45971.875, 0.74287206, -0.45094845, 52456.844, 52456.844, 0.0, 9.99939, 10.00157 
