coord_x,coord_y,stress_xx,stress_yy,tau_xy,velocity_x,velocity_y,stress_1,eps,damage,lx,ly
4.998765e+0, 1.2532394e+2, -1986642.3, -1718825.1, -5399.2954, -0.0029224774, 0.4159896, -1718716.4, -6850.0796, 0.00000005841745, 9.997588, 10.001136 
4.9989408e+0, 1.3532507e+2, -1841272.9, -1599037.6, -6062.48, -0.0017904987, 0.41628626, -1598886.0, 14968.774, 0.00000000012359376, 9.997918, 10.001126 
4.999116e+0, 1.4532597e+2, -1717401.4, -1523085.4, -6670.4683, -0.0005924355, 0.41002402, -1522856.8, -7011.615, 0.0, 9.998244, 10.000817 
4.9992886e+0, 1.5532665e+2, -1572494.0, -1403043.9, -7054.389, 0.00045860527, 0.3950393, -1402750.6, 15086.589, 0.0, 9.998569, 10.000813 
4.9994507e+0, 1.653271e+2, -1450995.3, -1331183.3, -7108.915, 0.00051216426, 0.37577677, -1330763.0, -10931.9, 0.0, 9.998891, 10.000478 
4.9996036e+0, 1.7532735e+2, -1306584.3, -1211714.6, -6805.606, -0.00030485427, 0.3521935, -1211228.9, 10597.628, 0.0, 9.999213, 10.000469 
4.999765e+0, 1.8532735e+2, -1190466.9, -1150710.8, -6981.98, -0.00026532516, 0.3264028, -1149520.3, -25696.197, 0.0, 9.999535, 10.00006 
4.9999332e+0, 1.9532713e+2, -1046699.9, -1032212.4, -7537.5093, 0.00052237656, 0.2979745, -1029002.1, -3178.4795, 0.0, 9.999856, 10.000047 
5.0000876e+0, 2.0532665e+2, -945056.7, -997564.06, -8081.361, 0.0007026173, 0.27521473, -943841.06, -16015.047, 0.0, 10.000161, 9.999464 
5.00023e+0, 2.1532592e+2, -805487.8, -881067.8, -7679.891, 0.0003501324, 0.25674054, -804715.4, 25115.588, 0.0, 10.000453, 9.999451 
5.000351e+0, 2.2532488e+2, -712448.6, -851140.3, -9321.442, 0.00001531052, 0.23737349, -711824.94, 20014.535, 0.0, 10.000702, 9.998863 
5.000453e+0, 2.3532355e+2, -584556.25, -739998.06, -10028.401, -0.00031190424, 0.21656252, -583911.94, 49939.367, 0.0, 10.000913, 9.998852 
5.0005525e+0, 2.453221e+2, -497756.03, -709220.1, -10748.31, 0.00018139291, 0.21457303, -497211.13, 38653.92, 0.0, 10.001102, 9.9983 
5.00065e+0, 2.5532055e+2, -375170.06, -599786.5, -10093.009, 0.0013920792, 0.22851147, -374717.47, 63163.168, 0.0, 10.001272, 9.998296 
5.0007457e+0, 2.653186e+2, -274997.5, -540458.7, -9870.851, 0.0016631602, 0.22225748, -274630.97, 65267.66, 0.0, 10.001458, 9.997941 
5.0008404e+0, 2.753163e+2, -148445.61, -429488.13, -10998.34, 0.0011124011, 0.19741122, -148015.86, 93903.04, 0.0, 10.001658, 9.997933 
5.000943e+0, 2.8531373e+2, -55641.484, -388137.25, -11636.111, 0.001557725, 0.17112483, -55234.76, 88706.97, 0.0, 10.001856, 9.99745 
5.001054e+0, 2.9531088e+2, 70891.76, -276185.16, -11575.176, 0.0028655184, 0.1432566, 71277.37, 117244.305, 0.0, 10.00205, 9.997452 
5.00119e+0, 3.053081e+2, 191498.5, -143765.88, -8394.43, 0.0023487518, 0.0975515, 191708.55, 191708.55, 0.0, 10.002332, 9.9978895 
5.0013477e+0, 3.153061e+2, 246425.77, -112188.2, -8017.3896, 0.00038917796, 0.106585234, 246604.9, 246604.9, 0.0, 10.002687, 9.997935 
1.4996295e+1, 1.2532362e+2, -1987845.3, -1721271.9, 7058.623, -0.00877172, 0.41554123, -1721085.1, -9215.784, 0.00000003890384, 9.997588, 10.00112 
1.4996824e+1, 1.3532476e+2, -1842453.1, -1601457.4, 6347.1606, -0.0053689056, 0.41809973, -1601290.4, 12567.51, 0.0000000000066617675, 9.997918, 10.00111 
1.4997348e+1, 1.4532565e+2, -1718133.3, -1524586.6, 5538.3013, -0.0017774352, 0.41182673, -1524428.3, -8579.919, 0.0, 9.998244, 10.000807 
1.4997867e+1, 1.5532629e+2, -1573179.5, -1404452.1, 5158.3936, 0.0013757591, 0.39486215, -1404294.6, 13546.135, 0.0, 9.998569, 10.000803 
1.4998353e+1, 1.6532673e+2, -1450438.9, -1330019.0, 5034.2866, 0.0015377592, 0.3750252, -1329808.9, -9974.292, 0.0, 9.998891, 10.000485 
1.4998811e+1, 1.75327e+2, -1306075.8, -1210653.4, 5348.453, -0.00091332453, 0.3521097, -1210354.6, 11475.237, 0.0, 9.999213, 10.000477 
1.4999294e+1, 1.8532701e+2, -1191473.5, -1152796.1, 5115.784, -0.0007954626, 0.32767338, -1152131.0, -28303.613, 0.0, 9.999535, 10.000046 
1.49998e+1, 1.9532679e+2, -1047645.06, -1034172.7, 4532.6226, 0.0015675864, 0.3011883, -1032789.7, -6962.6543, 0.0, 9.999856, 10.000033 
1.5000263e+1, 2.053263e+2, -944219.3, -995825.75, 2931.8398, 0.0021082577, 0.27743992, -944053.25, -16223.802, 0.0, 10.000161, 9.999476 
1.500069e+1, 2.1532558e+2, -804717.44, -879468.3, 3239.8855, 0.0010507294, 0.25542286, -804577.3, 25257.168, 0.0, 10.000453, 9.999462 
1.5001054e+1, 2.2532453e+2, -713718.6, -853776.7, -1377.0018, 0.000045988945, 0.23649098, -713705.1, 18137.926, 0.0, 10.000702, 9.998845 
1.500136e+1, 2.353232e+2, -585747.8, -742472.6, -2132.1445, -0.0009356423, 0.21959823, -585718.8, 48136.043, 0.0, 10.000913, 9.998836 
1.5001659e+1, 2.4532177e+2, -496568.9, -706756.4, -4322.615, 0.0005437363, 0.21855268, -496480.03, 39388.51, 0.0, 10.001102, 9.998317 
1.5001951e+1, 2.553202e+2, -374089.0, -597543.75, -3629.517, 0.0041758823, 0.23082922, -374030.06, 63853.902, 0.0, 10.001272, 9.998311 
1.5002239e+1, 2.6531824e+2, -277091.3, -544809.8, -2354.905, 0.0049896166, 0.22352666, -277070.6, 62831.523, 0.0, 10.001458, 9.9979105 
1.500252e+1, 2.753159e+2, -150478.88, -433713.06, -3484.4316, 0.0033373584, 0.19816497, -150436.02, 91486.83, 0.0, 10.001658, 9.997905 
1.500283e+1, 2.8531334e+2, -55729.11, -388320.6, -4286.377, 0.004672118, 0.17268634, -55673.875, 88271.94, 0.0, 10.001856, 9.997448 
1.5003163e+1, 2.9531053e+2, 70837.086, -276298.1, -4019.288, 0.008595472, 0.14679193, 70883.62, 116854.445, 0.0, 10.00205, 9.997451 
1.5003568e+1, 3.0530775e+2, 192465.73, -141744.6, 5013.614, 0.0070490665, 0.10135224, 192540.94, 192540.94, 0.0, 10.002332, 9.997903 
1.5004043e+1, 3.1530574e+2, 247353.1, -110230.836, 5101.2495, 0.0011652899, 0.1092129, 247425.84, 247425.84, 0.0, 10.002687, 9.997949 
2.4993904e+1, 1.2532301e+2, -1969240.0, -1715548.6, -3458.7842, -0.013886527, 0.41538197, -1715501.4, -3626.1768, 0.000000018764895, 9.99773, 10.00109 
2.4994756e+1, 1.3532414e+2, -1830525.6, -1598910.5, -5146.035, -0.008501916, 0.4194066, -1598796.3, 15067.682, 0.0, 9.9980135, 10.001081 
2.4995612e+1, 1.45325e+2, -1709731.0, -1522111.4, -6230.411, -0.0031646995, 0.4130733, -1521904.8, -6050.1, 0.0, 9.998308, 10.000793 
2.4996457e+1, 1.5532564e+2, -1567312.5, -1403141.3, -6883.8857, 0.0011440695, 0.39476502, -1402853.1, 14994.182, 0.0, 9.998615, 10.00079 
2.4997267e+1, 1.6532606e+2, -1444802.4, -1327224.1, -7192.141, 0.0019317692, 0.3745221, -1326785.9, -6944.592, 0.0, 9.998929, 10.000486 
2.499805e+1, 1.7532632e+2, -1300538.5, -1207964.6, -7423.2993, -0.00035099522, 0.3520268, -1207373.1, 14463.306, 0.0, 9.999251, 10.000477 
2.4998851e+1, 1.8532635e+2, -1187206.9, -1152501.4, -8047.773, -0.0002860985, 0.32910204, -1150726.0, -26892.068, 0.0, 9.999572, 10.0000305 
2.4999675e+1, 1.9532613e+2, -1043521.06, -1033825.44, -8777.053, 0.001822037, 0.30507594, -1028646.4, -2812.666, 0.0, 9.999891, 10.000018 
2.5000438e+1, 2.0532565e+2, -939113.25, -991403.3, -11511.613, 0.0021921494, 0.28059736, -936691.1, -8854.95, 0.0, 10.000188, 9.999494 
2.5001147e+1, 2.153249e+2, -801905.94, -876278.4, -10857.835, 0.001040978, 0.2550694, -800353.2, 29487.982, 0.0, 10.000464, 9.999478 
2.500176e+1, 2.2532386e+2, -713432.8, -855682.0, -17759.182, -0.0000013004208, 0.2365488, -711249.1, 20600.623, 0.0, 10.000712, 9.998827 
2.5002283e+1, 2.3532255e+2, -583619.2, -743387.25, -18572.707, -0.0009825608, 0.22350347, -581488.56, 52373.09, 0.0, 10.000936, 9.998817 
2.5002784e+1, 2.4532112e+2, -490438.66, -702614.2, -22431.035, 0.0009317512, 0.22355315, -488093.2, 47782.113, 0.0, 10.001139, 9.998327 
2.500326e+1, 2.5531957e+2, -365791.7, -592517.1, -22187.816, 0.005374466, 0.23451245, -363640.75, 74249.82, 0.0, 10.001326, 9.998321 
2.500374e+1, 2.6531756e+2, -271396.03, -545732.44, -20656.727, 0.0067107063, 0.2262964, -269849.38, 70059.56, 0.0, 10.0015135, 9.997878 
2.500422e+1, 2.753152e+2, -146097.28, -435197.7, -22002.988, 0.0053357487, 0.20036797, -144432.25, 97497.89, 0.0, 10.001703, 9.997872 
2.5004736e+1, 2.853126e+2, -51047.18, -387251.53, -23410.09, 0.0078974385, 0.17570521, -49424.95, 94528.336, 0.0, 10.001893, 9.9974375 
2.500528e+1, 2.953098e+2, 74509.016, -275615.7, -23694.057, 0.013863576, 0.15184146, 76105.19, 122083.42, 0.0, 10.002081, 9.997441 
2.500593e+1, 3.0530703e+2, 190167.36, -140914.36, -10589.753, 0.011416647, 0.10668276, 190505.73, 190505.73, 0.0, 10.002308, 9.997921 
2.5006685e+1, 3.1530502e+2, 231270.7, -116096.69, -10493.743, 0.0022817845, 0.11341085, 231587.42, 231587.42, 0.0, 10.002569, 9.997966 
3.499159e+1, 1.2532212e+2, -1972177.8, -1721596.3, 7276.231, -0.018305866, 0.4155404, -1721385.1, -9501.194, 0.0000000046292135, 9.997729, 10.001049 
3.4992746e+1, 1.3532321e+2, -1833404.1, -1604858.6, 5562.351, -0.011198555, 0.4202305, -1604723.4, 9149.724, 0.0, 9.9980135, 10.00104 
3.4993905e+1, 1.4532405e+2, -1710996.4, -1524723.4, 5318.091, -0.004759101, 0.4137878, -1524571.6, -8707.655, 0.0, 9.998308, 10.000775 
3.4995055e+1, 1.5532465e+2, -1568548.4, -1405693.6, 4693.7856, -0.00024372638, 0.39476818, -1405558.5, 12298.472, 0.0, 9.998615, 10.0007715 
3.4996194e+1, 1.6532508e+2, -1445272.8, -1328191.3, 4944.2085, 0.0016885783, 0.37428293, -1327982.9, -8131.8076, 0.0, 9.998929, 10.00048 
3.4997317e+1, 1.7532533e+2, -1301027.8, -1208975.4, 4717.838, 0.0013800567, 0.35195565, -1208734.3, 13112.012, 0.0, 9.999251, 10.00047 
3.499844e+1, 1.8532535e+2, -1188415.9, -1155007.8, 3999.8887, 0.0012620519, 0.33069545, -1154535.5, -30691.666, 0.0, 9.999572, 10.000013 
3.499956e+1, 1.9532515e+2, -1044634.8, -1036137.94, 3224.451, 0.0012851446, 0.30964023, -1035052.9, -9209.141, 0.0, 9.999891, 10.000003 
3.5000613e+1, 2.0532466e+2, -937487.75, -988033.06, -1069.4148, 0.0009534471, 0.28468797, -937465.2, -9618.9795, 0.0, 10.000188, 9.999517 
3.5001606e+1, 2.153239e+2, -800371.5, -873096.6, -478.64743, 0.0003201575, 0.25567937, -800368.4, 29482.723, 0.0, 10.000464, 9.9995 
3.5002473e+1, 2.2532286e+2, -714724.5, -858367.1, -9354.255, -0.0001280013, 0.23754495, -714117.94, 17741.762, 0.0, 10.000712, 9.998809 
3.5003224e+1, 2.3532158e+2, -584857.94, -745964.2, -10213.402, -0.00045461365, 0.22827627, -584213.06, 49658.594, 0.0, 10.000936, 9.9988 
3.5003924e+1, 2.4532014e+2, -490128.5, -701977.06, -15418.488, 0.001343748, 0.22957256, -489012.22, 46873.06, 0.0, 10.001139, 9.998331 
3.500458e+1, 2.5531858e+2, -365570.03, -592068.6, -15172.403, 0.004987024, 0.23955907, -364558.22, 73342.25, 0.0, 10.001326, 9.998323 
3.5005257e+1, 2.6531658e+2, -273887.8, -550922.8, -13497.904, 0.0068247872, 0.23056424, -273231.72, 66687.33, 0.0, 10.0015135, 9.997842 
3.5005942e+1, 2.7531415e+2, -148558.8, -440325.13, -14845.412, 0.0071042636, 0.20401706, -147805.39, 94135.36, 0.0, 10.001703, 9.997837 
3.5006663e+1, 2.8531155e+2, -52434.8, -390147.22, -16341.982, 0.011229939, 0.18017711, -51645.85, 92318.305, 0.0, 10.001893, 9.997417 
3.5007408e+1, 2.9530874e+2, 73208.7, -278323.8, -16535.047, 0.01866657, 0.15840071, 73984.75, 119973.88, 0.0, 10.002081, 9.997422 
3.500828e+1, 3.0530596e+2, 191606.05, -137909.17, -756.7852, 0.015449823, 0.11353877, 191607.8, 191607.8, 0.0, 10.002308, 9.997941 
3.5009265e+1, 3.1530398e+2, 232638.08, -113195.73, -863.6704, 0.003727393, 0.119159736, 232640.23, 232640.23, 0.0, 10.002568, 9.997986 
4.498937e+1, 1.2532097e+2, -1946952.1, -1714444.5, -1868.2191, -0.022558797, 0.41538057, -1714429.5, -2534.352, 0.00000000014144765, 9.997925, 10.001004 
4.4990817e+1, 1.35322e+2, -1813414.6, -1600162.0, -3868.499, -0.013021148, 0.41794086, -1600091.9, 13792.977, 0.0, 9.998172, 10.000997 
4.4992268e+1, 1.453228e+2, -1693247.1, -1518602.6, -3193.632, -0.005691127, 0.41147208, -1518544.3, -2668.0708, 0.0, 9.998441, 10.000753 
4.4993713e+1, 1.553234e+2, -1553212.1, -1400725.6, -4094.079, -0.0019813462, 0.3943773, -1400615.8, 17253.371, 0.0, 9.998731, 10.00075 
4.499516e+1, 1.653238e+2, -1432529.6, -1324155.0, -4010.8806, 0.0007340077, 0.37454242, -1324006.8, -4143.301, 0.0, 9.999025, 10.000461 
4.4996616e+1, 1.7532404e+2, -1291380.3, -1206374.1, -5154.862, 0.0026112874, 0.35173184, -1206062.6, 15796.253, 0.0, 9.999327, 10.000452 
4.499805e+1, 1.8532406e+2, -1180278.9, -1151555.8, -5731.4165, 0.002500824, 0.33108443, -1150454.3, -26597.664, 0.0, 9.999629, 10.00001 
4.4999465e+1, 1.9532387e+2, -1038393.56, -1033517.6, -5569.6636, 0.00061129004, 0.31161126, -1029875.7, -4019.2437, 0.0, 9.999935, 9.999999 
4.5000803e+1, 2.053234e+2, -931166.94, -983045.75, -11060.271, -0.0005699252, 0.28736258, -928907.4, -1048.5054, 0.0, 10.000223, 9.999535 
4.500207e+1, 2.1532263e+2, -794960.06, -868586.7, -10955.318, -0.0011122961, 0.2582891, -793364.56, 36499.004, 0.0, 10.000493, 9.999517 
4.5003194e+1, 2.2532162e+2, -709689.5, -855490.3, -20770.725, -0.0010964976, 0.24046238, -706788.25, 25083.828, 0.0, 10.000746, 9.998813 
4.500418e+1, 2.3532034e+2, -578064.94, -742294.5, -19973.295, -0.0006315929, 0.23183441, -575670.7, 58213.31, 0.0, 10.00098, 9.998804 
4.5005092e+1, 2.4531892e+2, -481960.56, -699490.06, -26245.293, 0.0010934857, 0.23353063, -478838.8, 57058.88, 0.0, 10.001202, 9.998319 
4.5005938e+1, 2.5531736e+2, -354236.3, -588066.6, -27315.988, 0.0038983482, 0.24370272, -351087.66, 86825.36, 0.0, 10.00141, 9.99831 
4.500681e+1, 2.653153e+2, -262032.44, -546931.8, -25883.068, 0.006258393, 0.23490535, -259700.06, 80231.664, 0.0, 10.001602, 9.997827 
4.5007697e+1, 2.753129e+2, -138246.86, -437130.66, -25704.906, 0.008260904, 0.20855916, -136052.27, 105901.28, 0.0, 10.001782, 9.997822 
4.5008615e+1, 2.8531024e+2, -44910.168, -389690.9, -27000.326, 0.013628789, 0.18495628, -42808.543, 101168.63, 0.0, 10.001958, 9.99739 
4.5009547e+1, 2.9530743e+2, 78566.05, -278773.47, -27798.242, 0.02187891, 0.16343687, 80715.6, 126718.07, 0.0, 10.0021305, 9.9973955 
4.5010617e+1, 3.0530465e+2, 190243.03, -137324.7, -11693.7295, 0.018896436, 0.11878479, 190659.95, 190659.95, 0.0, 10.002294, 9.997952 
4.5011806e+1, 3.1530267e+2, 215700.42, -120159.11, -12682.622, 0.006980861, 0.12475967, 216178.66, 216178.66, 0.0, 10.002447, 9.997996 
5.498726e+1, 1.2531956e+2, -1950368.5, -1721492.6, 7489.981, -0.026743324, 0.41492087, -1721247.8, -9339.066, 0.0, 9.997924, 10.000956 
5.498898e+1, 1.353205e+2, -1816777.8, -1607116.5, 5476.6333, -0.014007713, 0.4125427, -1606973.5, 6925.76, 0.0, 9.998172, 10.000949 
5.499071e+1, 1.4532126e+2, -1695068.5, -1522361.8, 7722.017, -0.005977575, 0.40613252, -1522017.1, -6126.2075, 0.0, 9.998441, 10.000728 
5.499242e+1, 1.5532187e+2, -1555046.4, -1404513.1, 6846.687, -0.0040900228, 0.3936048, -1404202.4, 13681.483, 0.0, 9.998731, 10.000724 
5.499417e+1, 1.6532226e+2, -1434725.3, -1328698.1, 7312.643, -0.0009522236, 0.37531358, -1328196.1, -8317.785, 0.0, 9.999025, 10.000429 
5.4995954e+1, 1.7532244e+2, -1293476.5, -1210719.1, 6182.4067, 0.0033300156, 0.35136446, -1210259.8, 11614.584, 0.0, 9.999326, 10.000422 
5.4997694e+1, 1.8532246e+2, -1179665.5, -1150282.1, 5812.0947, 0.0034233828, 0.33027476, -1149174.3, -25301.97, 0.0, 9.999629, 10.000018 
5.4999393e+1, 1.9532229e+2, -1037764.9, -1032218.3, 5934.8013, -0.0002039632, 0.31099194, -1028440.8, -2568.8008, 0.0, 9.999935, 10.000008 
5.500101e+1, 2.0532183e+2, -930352.6, -981364.7, -845.9461, -0.0023812589, 0.28862116, -930338.6, -2464.4282, 0.0, 10.000223, 9.999546 
5.500254e+1, 2.1532114e+2, -794103.8, -866817.56, -784.68665, -0.0032593142, 0.26289546, -794095.4, 35783.293, 0.0, 10.000493, 9.999529 
5.500392e+1, 2.2532013e+2, -707828.94, -851634.8, -11900.703, -0.002909736, 0.24529923, -706850.75, 25036.158, 0.0, 10.000746, 9.998839 
5.500515e+1, 2.3531887e+2, -576321.25, -738682.8, -11138.889, -0.0015164039, 0.23417948, -575560.6, 58338.098, 0.0, 10.00098, 9.998829 
5.500629e+1, 2.4531743e+2, -484073.7, -703888.3, -18407.158, 0.00017797774, 0.23542908, -482542.97, 53369.582, 0.0, 10.001202, 9.998288 
5.500733e+1, 2.5531584e+2, -356264.8, -592297.25, -19514.799, 0.0021048947, 0.24694383, -354662.25, 83265.984, 0.0, 10.00141, 9.9982815 
5.5008394e+1, 2.653138e+2, -261676.97, -546217.25, -19110.922, 0.0050059683, 0.23931667, -260399.13, 79547.836, 0.0, 10.001602, 9.997831 
5.5009484e+1, 2.753114e+2, -137985.52, -436610.22, -18943.719, 0.008799449, 0.21398693, -136788.6, 105179.93, 0.0, 10.001782, 9.997825 
5.5010587e+1, 2.8530875e+2, -47471.863, -395031.0, -20512.262, 0.015090015, 0.19003654, -46265.457, 97726.875, 0.0, 10.001958, 9.997353 
5.501169e+1, 2.9530588e+2, 76080.664, -283945.53, -21342.113, 0.02349636, 0.1669474, 77341.39, 123359.61, 0.0, 10.0021305, 9.997359 
5.5012935e+1, 3.0530307e+2, 190331.23, -137128.98, -5891.894, 0.021744113, 0.12241614, 190437.22, 190437.22, 0.0, 10.002293, 9.997953 
5.50143e+1, 3.1530112e+2, 215741.4, -120009.97, -6978.0156, 0.012018098, 0.13019647, 215886.38, 215886.38, 0.0, 10.002447, 9.997997 
6.4985245e+1, 1.2531792e+2, -1922036.8, -1713132.1, -87.35106, -0.031279482, 0.41166836, -1713132.0, -1207.6271, 0.0, 9.998141, 10.000909 
6.498724e+1, 1.3531876e+2, -1792879.6, -1600860.1, -2057.9016, -0.0143813, 0.40604573, -1600838.0, 13077.745, 0.0, 9.998359, 10.000902 
6.4989233e+1, 1.4531949e+2, -1673964.9, -1516003.1, 1624.1364, -0.0052921553, 0.3996538, -1515986.4, -78.52836, 0.0, 9.998602, 10.000693 
6.499121e+1, 1.5532008e+2, -1536910.8, -1399547.3, 125.46884, -0.005403286, 0.39012983, -1399547.1, 18353.797, 0.0, 9.998872, 10.00069 
6.499324e+1, 1.6532047e+2, -1418323.1, -1323191.4, 1141.4633, -0.002890897, 0.37343356, -1323177.6, -3282.0337, 0.0, 9.999148, 10.000408 
6.499531e+1, 1.7532066e+2, -1279257.0, -1206134.3, 732.9281, 0.0019896505, 0.34982687, -1206126.9, 15765.042, 0.0, 9.9994335, 10.0004015 
6.499735e+1, 1.8532065e+2, -1166722.3, -1142592.5, 749.8629, 0.0023151524, 0.32863224, -1142569.3, -18679.307, 0.0, 9.999712, 10.0000305 
6.499934e+1, 1.9532049e+2, -1029636.06, -1026840.1, 1163.9005, -0.001408445, 0.3088609, -1026419.06, -529.47705, 0.0, 9.999985, 10.000021 
6.5001225e+1, 2.0532008e+2, -925074.1, -977469.25, -6257.641, -0.0039225807, 0.28806767, -924337.1, 3554.448, 0.0, 10.000253, 9.999558 
6.500303e+1, 2.153194e+2, -789740.7, -863247.06, -6184.193, -0.0053404765, 0.26572594, -789224.06, 40671.74, 0.0, 10.000517, 9.999542 
6.500465e+1, 2.2531843e+2, -700931.8, -843964.94, -17672.771, -0.005224657, 0.24857973, -698780.56, 33123.254, 0.0, 10.000774, 9.9988785 
6.5006137e+1, 2.3531719e+2, -567271.1, -730129.1, -16007.337, -0.0037863434, 0.23534298, -565712.7, 68202.57, 0.0, 10.001024, 9.998866 
6.50075e+1, 2.4531575e+2, -476006.13, -701086.56, -22988.926, -0.0019364227, 0.23597081, -473682.13, 62246.9, 0.0, 10.001262, 9.998279 
6.500876e+1, 2.5531417e+2, -345777.7, -588268.6, -22600.271, 0.00024236774, 0.24817534, -343689.34, 94255.54, 0.0, 10.001486, 9.998272 
6.5010035e+1, 2.6531214e+2, -249265.17, -539522.4, -22799.697, 0.003977972, 0.24138178, -247485.17, 92478.39, 0.0, 10.001685, 9.997838 
6.5011305e+1, 2.7530974e+2, -126179.58, -430318.3, -22528.373, 0.009113867, 0.2170067, -124519.9, 117464.99, 0.0, 10.001861, 9.99783 
6.5012586e+1, 2.8530708e+2, -38482.168, -393371.78, -23853.027, 0.015720654, 0.19273871, -36886.125, 107122.69, 0.0, 10.002031, 9.997329 
6.5013856e+1, 2.9530418e+2, 84153.49, -282680.03, -23798.232, 0.023538582, 0.16819197, 85690.95, 131726.05, 0.0, 10.002197, 9.997336 
6.501527e+1, 3.0530137e+2, 193739.69, -136378.19, -10052.25, 0.023810398, 0.124016106, 194045.5, 194045.5, 0.0, 10.00232, 9.997946 
6.5016794e+1, 3.1529942e+2, 209273.98, -124021.13, -11921.006, 0.018391501, 0.13387978, 209699.83, 209699.83, 0.0, 10.002406, 9.99799 
7.4983335e+1, 1.2531601e+2, -1925312.6, -1719929.5, 8108.929, -0.036293413, 0.40558672, -1719609.9, -7667.4194, 0.0, 9.998141, 10.000862 
7.4985605e+1, 1.3531679e+2, -1796168.0, -1607664.4, 6132.2563, -0.014204105, 0.39841953, -1607465.1, 6469.1704, 0.0, 9.998358, 10.000855 
7.498785e+1, 1.4531748e+2, -1676988.6, -1522245.3, 11764.927, -0.0036729232, 0.39201078, -1521355.9, -5429.032, 0.0, 9.998602, 10.000651 
7.4990076e+1, 1.5531805e+2, -1539866.6, -1405652.0, 10293.948, -0.005956883, 0.38392922, -1404867.1, 13053.197, 0.0, 9.998871, 10.0006485 
7.4992365e+1, 1.6531841e+2, -1419174.8, -1324942.3, 11882.3955, -0.0051123104, 0.36888534, -1323467.0, -3551.7903, 0.0, 9.999148, 10.000396 
7.499472e+1, 1.753186e+2, -1280027.9, -1207730.1, 11465.373, -0.0014317344, 0.34711078, -1205955.5, 15956.143, 0.0, 9.9994335, 10.000391 
7.499703e+1, 1.8531862e+2, -1165525.0, -1140112.1, 11045.641, -0.00083799777, 0.3261539, -1135982.3, -12072.66, 0.0, 9.999712, 10.000048 
7.4999315e+1, 1.9531845e+2, -1028431.1, -1024351.6, 11450.028, -0.0030099172, 0.3052176, -1014761.06, 11148.063, 0.0, 9.999985, 10.000038 
7.500147e+1, 2.0531805e+2, -924184.3, -975638.25, 3701.9075, -0.0051988913, 0.28570348, -923919.4, 3991.6582, 0.0, 10.000253, 9.999571 
7.500352e+1, 2.1531744e+2, -788750.06, -861202.75, 3755.559, -0.0073609995, 0.26678434, -788555.9, 41359.113, 0.0, 10.000517, 9.999557 
7.50054e+1, 2.2531651e+2, -697333.9, -836501.94, -8216.813, -0.008045171, 0.250309, -696850.44, 35072.215, 0.0, 10.000774, 9.998929 
7.5007117e+1, 2.353153e+2, -563749.7, -722823.2, -6587.273, -0.0074432557, 0.23533018, -563477.4, 70456.24, 0.0, 10.001024, 9.998917 
7.5008726e+1, 2.4531388e+2, -475245.78, -699513.2, -14528.049, -0.005252189, 0.23516162, -474308.56, 61638.563, 0.0, 10.001262, 9.998289 
7.501022e+1, 2.5531232e+2, -345015.9, -586699.6, -14199.319, -0.001695033, 0.2474027, -344184.53, 93778.4, 0.0, 10.001486, 9.998283 
7.501171e+1, 2.6531032e+2, -248692.61, -538351.9, -16158.386, 0.0031672586, 0.24110411, -247794.02, 92187.51, 0.0, 10.001685, 9.997847 
7.5013167e+1, 2.7530792e+2, -125654.445, -429245.7, -15903.062, 0.009197274, 0.21761794, -124823.664, 117178.99, 0.0, 10.001861, 9.997838 
7.5014615e+1, 2.8530523e+2, -39253.03, -394988.44, -17600.104, 0.015514258, 0.19305679, -38384.383, 105642.23, 0.0, 10.002031, 9.997318 
7.501604e+1, 2.953023e+2, 83358.625, -284341.78, -17656.467, 0.02199756, 0.16715728, 84204.516, 130257.63, 0.0, 10.002197, 9.997325 
7.5017595e+1, 3.052995e+2, 192513.23, -138924.67, -6801.9907, 0.025084231, 0.123566054, 192652.77, 192652.77, 0.0, 10.00232, 9.997929 
7.501928e+1, 3.1529757e+2, 208031.08, -126561.44, -8701.545, 0.026081756, 0.13578905, 208257.22, 208257.22, 0.0, 10.002406, 9.9979725 
8.4981555e+1, 1.2531388e+2, -1898461.1, -1712173.4, 556.61035, -0.038688716, 0.39708462, -1712171.8, -209.26758, 0.0, 9.998348, 10.000815 
8.4984046e+1, 1.3531464e+2, -1772822.0, -1601569.8, -1421.4742, -0.014437314, 0.39129022, -1601558.0, 12396.774, 0.0, 9.998541, 10.00081 
8.498653e+1, 1.4531527e+2, -1656501.8, -1516182.0, 6452.3916, -0.0036931352, 0.384629, -1515885.9, 61.846916, 0.0, 9.998758, 10.000617 
8.4988993e+1, 1.553158e+2, -1523248.4, -1401360.4, 5649.641, -0.007758325, 0.3749811, -1401099.0, 16842.658, 0.0, 9.9990015, 10.000615 
8.499154e+1, 1.6531616e+2, -1403006.8, -1317811.8, 8702.88, -0.00815773, 0.36101636, -1316931.8, 3005.0208, 0.0, 9.999263, 10.00039 
8.499416e+1, 1.7531638e+2, -1264827.6, -1200981.4, 8697.883, -0.0052158465, 0.34265614, -1199817.6, 22115.389, 0.0, 9.99954, 10.000385 
8.499675e+1, 1.8531641e+2, -1152185.6, -1132093.3, 7405.795, -0.004510129, 0.32306358, -1129658.6, -5727.7163, 0.0, 9.999797, 10.000062 
8.4999293e+1, 1.9531626e+2, -1020225.94, -1018720.1, 7588.4307, -0.005835824, 0.30167058, -1011847.3, 14083.075, 0.0, 10.000034, 10.000053 
8.500171e+1, 2.0531589e+2, -919092.9, -969585.3, 394.78067, -0.0076881466, 0.28249457, -919089.8, 8842.264, 0.0, 10.000273, 9.999603 
8.5004014e+1, 2.1531531e+2, -787171.3, -856758.56, 1927.5468, -0.009950956, 0.26461664, -787117.94, 42817.785, 0.0, 10.000512, 9.999589 
8.500614e+1, 2.2531442e+2, -695451.94, -830216.75, -9295.189, -0.010980841, 0.24845572, -694813.8, 37129.17, 0.0, 10.000764, 9.998978 
8.500811e+1, 2.3531325e+2, -560156.5, -715718.8, -7936.9697, -0.010927854, 0.23314844, -559752.6, 74200.89, 0.0, 10.001026, 9.998964 
8.500996e+1, 2.4531189e+2, -470431.25, -692511.06, -15715.543, -0.008391431, 0.23291475, -469324.66, 66641.88, 0.0, 10.001274, 9.998331 
8.50117e+1, 2.5531036e+2, -338673.78, -579063.6, -13116.056, -0.0037032214, 0.24533708, -337960.28, 100021.6, 0.0, 10.00151, 9.998324 
8.5013396e+1, 2.6530838e+2, -242884.75, -534186.56, -15593.563, 0.0022535927, 0.2385639, -242052.39, 97947.836, 0.0, 10.0017185, 9.997859 
8.501505e+1, 2.75306e+2, -118491.07, -424456.1, -15030.27, 0.00933359, 0.21400246, -117754.5, 124266.86, 0.0, 10.0019045, 9.997849 
8.501668e+1, 2.8530332e+2, -30479.889, -390173.78, -16126.557, 0.015360692, 0.18927701, -29758.316, 114286.9, 0.0, 10.0020895, 9.997323 
8.501826e+1, 2.953004e+2, 94781.33, -278355.63, -15092.062, 0.020371197, 0.16401282, 95390.75, 141462.33, 0.0, 10.002274, 9.99733 
8.5019964e+1, 3.0529758e+2, 202122.02, -136649.17, -7359.105, 0.026003549, 0.12110515, 202281.8, 202281.8, 0.0, 10.002397, 9.997908 
8.502178e+1, 3.1529564e+2, 215213.7, -125435.555, -9571.491, 0.03301197, 0.133998, 215482.44, 215482.44, 0.0, 10.002465, 9.9979515 
9.4979906e+1, 1.2531152e+2, -1901696.4, -1718924.0, 7834.2373, -0.0385538, 0.38609853, -1718588.9, -6604.198, 0.0, 9.998348, 10.00077 
9.498258e+1, 1.3531227e+2, -1776057.0, -1608262.0, 5853.831, -0.01515885, 0.38460517, -1608058.0, 5919.075, 0.0, 9.998541, 10.000763 
9.4985276e+1, 1.4531288e+2, -1658341.6, -1519951.8, 15587.285, -0.005428561, 0.37746143, -1518217.8, -2247.2993, 0.0, 9.998758, 10.000591 
9.498796e+1, 1.5531333e+2, -1525029.9, -1405016.0, 14827.739, -0.01086603, 0.36323717, -1403211.1, 14753.885, 0.0, 9.9990015, 10.00059 
9.499076e+1, 1.6531369e+2, -1403037.0, -1317852.5, 19190.102, -0.012067489, 0.34978682, -1313729.0, 6231.3296, 0.0, 9.999262, 10.00039 
9.499367e+1, 1.7531395e+2, -1264811.4, -1200941.8, 19136.512, -0.009387423, 0.33643937, -1195647.0, 26309.168, 0.0, 9.99954, 10.000385 
9.49965e+1, 1.85314e+2, -1151400.3, -1130470.4, 16357.847, -0.0087152505, 0.31934932, -1121516.4, 2437.4985, 0.0, 9.999797, 10.000073 
9.4999284e+1, 1.9531387e+2, -1019327.8, -1016873.7, 16543.059, -0.00989358, 0.29821596, -1001512.25, 24441.137, 0.0, 10.000034, 10.000066 
9.500195e+1, 2.0531352e+2, -915452.8, -962050.2, 9426.996, -0.011394702, 0.27844453, -913617.94, 14336.867, 0.0, 10.000273, 9.999655 
9.5004493e+1, 2.1531299e+2, -783534.7, -849223.6, 10982.154, -0.0131147485, 0.2592341, -781747.3, 48210.71, 0.0, 10.000512, 9.999641 
9.500687e+1, 2.2531214e+2, -692298.25, -823672.06, 604.2376, -0.014036896, 0.24303396, -692295.5, 39669.313, 0.0, 10.000764, 9.9990225 
9.50091e+1, 2.3531103e+2, -556940.9, -709035.4, 1926.4279, -0.014246451, 0.22881116, -556916.5, 77058.375, 0.0, 10.001026, 9.99901 
9.501121e+1, 2.4530974e+2, -465328.25, -681902.8, -6838.622, -0.011360224, 0.22924146, -465112.53, 70874.695, 0.0, 10.001274, 9.9984045 
9.501319e+1, 2.5530827e+2, -333688.47, -568703.06, -4300.1333, -0.005787415, 0.24198475, -333609.8, 104391.87, 0.0, 10.00151, 9.998395 
9.501511e+1, 2.6530632e+2, -241733.75, -531793.25, -8595.085, 0.001231836, 0.233767, -241479.28, 98540.4, 0.0, 10.0017185, 9.997875 
9.501696e+1, 2.7530393e+2, -117325.77, -422035.8, -8033.8794, 0.0095150275, 0.20616774, -117114.1, 124926.87, 0.0, 10.0019045, 9.997867 
9.501876e+1, 2.8530127e+2, -28967.91, -387033.47, -9161.43, 0.015246563, 0.18139412, -28733.66, 115330.98, 0.0, 10.0020895, 9.997345 
9.5020515e+1, 2.952984e+2, 96184.836, -275443.53, -8278.078, 0.018640997, 0.1587277, 96369.13, 142459.64, 0.0, 10.002274, 9.997349 
9.502237e+1, 3.052956e+2, 200389.03, -140264.27, -4738.4395, 0.026555376, 0.11659572, 200454.94, 200454.94, 0.0, 10.002397, 9.997883 
9.5024306e+1, 3.152936e+2, 213498.34, -129016.305, -6972.915, 0.039164856, 0.12848042, 213640.23, 213640.23, 0.0, 10.002465, 9.997927 
1.04978345e+2, 1.2530896e+2, -1887099.9, -1716459.5, 317.7289, -0.035237134, 0.37527645, -1716458.9, -4450.1035, 0.0, 9.998468, 10.000729 
1.0498118e+2, 1.353097e+2, -1756563.1, -1603349.9, -1276.5114, -0.017170876, 0.37581253, -1603339.3, 10662.286, 0.0, 9.998693, 10.000723 
1.0498406e+2, 1.4531027e+2, -1635777.5, -1510679.8, 10097.628, -0.010226372, 0.36892277, -1509869.9, 6125.3213, 0.0, 9.99892, 10.000577 
1.0498698e+2, 1.553107e+2, -1504535.9, -1396726.8, 10199.027, -0.01634929, 0.3535365, -1395770.4, 22219.576, 0.0, 9.999148, 10.000576 
1.0499003e+2, 1.6531105e+2, -1386617.0, -1310866.1, 15354.406, -0.017258193, 0.34070045, -1307872.1, 12113.179, 0.0, 9.999379, 10.000381 
1.049932e+2, 1.7531133e+2, -1254972.8, -1197009.1, 14639.811, -0.013389138, 0.32952133, -1193521.5, 28459.748, 0.0, 9.999612, 10.000379 
1.0499628e+2, 1.853114e+2, -1144220.1, -1124618.5, 10949.938, -0.012653305, 0.31389183, -1119723.9, 4254.963, 0.0, 9.999836, 10.000094 
1.04999274e+2, 1.953113e+2, -1014987.2, -1012229.4, 11897.452, -0.014779736, 0.29357934, -1001631.2, 24346.914, 0.0, 10.000053, 10.000089 
1.05002165e+2, 2.0531099e+2, -911576.0, -953275.0, 5544.957, -0.016324071, 0.2736092, -910851.25, 17127.836, 0.0, 10.00027, 9.999717 
1.0500495e+2, 2.1531051e+2, -783102.44, -842128.75, 7875.6836, -0.017279338, 0.25330502, -782069.6, 47912.08, 0.0, 10.000485, 9.999702 
1.0500758e+2, 2.2530973e+2, -695215.4, -819242.7, -846.0288, -0.01726244, 0.23675129, -695209.56, 36778.42, 0.0, 10.000718, 9.999075 
1.0501008e+2, 2.3530868e+2, -561849.44, -705491.4, 995.70966, -0.016368337, 0.22281946, -561842.56, 72155.055, 0.0, 10.000967, 9.9990635 
1.0501244e+2, 2.4530743e+2, -468957.75, -675501.5, -8046.075, -0.01294918, 0.22356261, -468644.78, 67364.5, 0.0, 10.001214, 9.998477 
1.0501467e+2, 2.5530604e+2, -335819.22, -561670.7, -5565.7803, -0.0073573478, 0.23666114, -335682.16, 102340.75, 0.0, 10.00146, 9.998467 
1.050168e+2, 2.6530415e+2, -243114.75, -527327.3, -10267.203, 0.00032820395, 0.2270517, -242744.33, 97296.05, 0.0, 10.001687, 9.997921 
1.0501887e+2, 2.7530175e+2, -115277.15, -415998.2, -7492.7944, 0.009834736, 0.196486, -115090.57, 126970.84, 0.0, 10.001897, 9.997911 
1.05020866e+2, 2.8529912e+2, -24149.182, -382322.38, -7404.6777, 0.015650542, 0.17141673, -23996.166, 120088.6, 0.0, 10.002112, 9.997366 
1.0502281e+2, 2.9529628e+2, 106165.3, -268432.0, -6684.877, 0.018130347, 0.15081902, 106284.555, 152394.8, 0.0, 10.002333, 9.997369 
1.0502483e+2, 3.0529353e+2, 214589.38, -136215.23, -6891.675, 0.027445594, 0.10925104, 214724.7, 214724.7, 0.0, 10.002506, 9.997858 
1.050269e+2, 3.1529146e+2, 236840.88, -120536.91, -9209.685, 0.043375544, 0.120114766, 237078.05, 237078.05, 0.0, 10.002638, 9.997902 
1.14976875e+2, 1.253062e+2, -1889595.5, -1721647.8, 8850.191, -0.028789196, 0.36458918, -1721182.6, -9147.764, 0.0, 9.998468, 10.000692 
1.1497983e+2, 1.3530688e+2, -1759014.0, -1608401.8, 7216.3823, -0.020560576, 0.3648528, -1608056.9, 5971.291, 0.0, 9.998693, 10.000689 
1.149829e+2, 1.4530747e+2, -1636039.3, -1511174.1, 18716.03, -0.018187484, 0.3589578, -1508429.1, 7592.789, 0.0, 9.99892, 10.000573 
1.14986055e+2, 1.553079e+2, -1504825.1, -1397292.0, 18810.307, -0.024278695, 0.34585395, -1394096.5, 23920.002, 0.0, 9.999148, 10.000572 
1.1498934e+2, 1.6530825e+2, -1387808.1, -1313321.3, 24124.494, -0.02377563, 0.3337428, -1306190.5, 13821.378, 0.0, 9.999379, 10.000365 
1.14992775e+2, 1.753085e+2, -1256050.3, -1199238.4, 23385.467, -0.017247839, 0.32188505, -1190850.6, 31157.553, 0.0, 9.999612, 10.000363 
1.14996076e+2, 1.8530859e+2, -1142016.4, -1120050.9, 19139.354, -0.016337462, 0.3066786, -1108967.0, 15038.73, 0.0, 9.999836, 10.000126 
1.1499927e+2, 1.9530854e+2, -1012685.0, -1007469.2, 20084.318, -0.020499887, 0.28775784, -989824.2, 36180.484, 0.0, 10.000053, 10.000121 
1.1500237e+2, 2.0530829e+2, -906539.5, -942839.7, 13677.573, -0.02247865, 0.26799172, -901962.94, 26042.152, 0.0, 10.00027, 9.999788 
1.1500538e+2, 2.1530788e+2, -778103.25, -831762.25, 16043.692, -0.022446332, 0.2468369, -773672.2, 56334.74, 0.0, 10.000485, 9.999774 
1.15008265e+2, 2.2530714e+2, -691052.2, -810596.4, 8513.556, -0.020662464, 0.22961909, -690448.94, 41563.64, 0.0, 10.000718, 9.999134 
1.1501103e+2, 2.3530614e+2, -557675.5, -696806.8, 10351.978, -0.01730471, 0.21518824, -556909.5, 77112.22, 0.0, 10.000967, 9.999123 
1.15013644e+2, 2.4530497e+2, -463868.38, -664905.1, 1226.9229, -0.01317038, 0.215893, -463860.88, 72171.836, 0.0, 10.001214, 9.998549 
1.1501611e+2, 2.5530365e+2, -330728.63, -551068.94, 3667.5874, -0.008421536, 0.2293775, -330667.6, 107377.945, 0.0, 10.00146, 9.99854 
1.1501848e+2, 2.6530182e+2, -237865.17, -516395.38, -2374.946, -0.00046448, 0.2184224, -237844.92, 102217.38, 0.0, 10.001687, 9.997996 
1.1502077e+2, 2.752995e+2, -110148.15, -405315.75, 412.73425, 0.010283274, 0.18495074, -110147.57, 131935.14, 0.0, 10.001897, 9.997985 
1.1502299e+2, 2.8529692e+2, -22687.154, -379260.28, 917.4894, 0.016555445, 0.15932763, -22684.793, 121420.81, 0.0, 10.002112, 9.997387 
1.15025155e+2, 2.952941e+2, 107503.06, -265638.4, 1530.1315, 0.018811952, 0.14025867, 107509.336, 153640.13, 0.0, 10.002333, 9.997388 
1.15027346e+2, 3.0529132e+2, 212839.16, -139890.77, -1916.5227, 0.028641105, 0.09903712, 212849.56, 212849.56, 0.0, 10.002506, 9.997832 
1.15029566e+2, 3.1528926e+2, 235153.34, -124160.195, -4322.0576, 0.04558638, 0.10885249, 235205.31, 235205.31, 0.0, 10.002638, 9.997877 
1.2497542e+2, 1.2530322e+2, -1879335.6, -1719396.3, 1435.6642, -0.025356958, 0.35559422, -1719383.4, -7320.223, 0.0, 9.99855, 10.000669 
1.2497855e+2, 1.3530388e+2, -1742262.9, -1602987.6, 609.3623, -0.025288342, 0.35442662, -1602985.0, 11071.826, 0.0, 9.99882, 10.000665 
1.2498181e+2, 1.4530446e+2, -1616478.3, -1503753.8, 11068.5205, -0.02617208, 0.3503115, -1502677.3, 13373.568, 0.0, 9.999063, 10.000555 
1.24985196e+2, 1.5530494e+2, -1486644.9, -1390506.6, 10009.885, -0.031167472, 0.34199837, -1389475.5, 28569.68, 0.0, 9.999282, 10.000554 
1.24988705e+2, 1.6530527e+2, -1372849.1, -1306383.8, 14829.552, -0.030093027, 0.33022133, -1303225.1, 16815.521, 0.0, 9.999483, 10.000362 
1.2499235e+2, 1.7530549e+2, -1247897.9, -1195460.0, 15145.295, -0.023449063, 0.31472036, -1191400.0, 30637.24, 0.0, 9.999668, 10.000361 
1.24995865e+2, 1.8530558e+2, -1136269.1, -1112971.1, 11513.455, -0.022423679, 0.2987812, -1108241.5, 15793.144, 0.0, 9.999857, 10.000164 
1.2499927e+2, 1.9530559e+2, -1010660.5, -1002133.4, 12979.463, -0.026470087, 0.28170982, -992735.2, 33297.9, 0.0, 10.000049, 10.00016 
1.2500258e+2, 2.0530538e+2, -906269.1, -936049.56, 6394.959, -0.027741352, 0.26253012, -904953.94, 23078.965, 0.0, 10.000243, 9.999847 
1.2500581e+2, 2.1530503e+2, -780518.3, -826253.44, 7868.4233, -0.026478583, 0.24082461, -779202.5, 50831.72, 0.0, 10.00044, 9.999833 
1.2500893e+2, 2.2530435e+2, -695926.4, -805305.56, 1353.6366, -0.023144774, 0.22308458, -695909.6, 36129.582, 0.0, 10.000652, 9.999202 
1.2501195e+2, 2.3530342e+2, -565944.7, -693153.8, 3873.2507, -0.017952798, 0.20817195, -565826.9, 68220.83, 0.0, 10.000877, 9.999191 
1.2501481e+2, 2.453023e+2, -473094.22, -661302.94, -4548.8223, -0.013134111, 0.20781875, -472984.34, 63073.758, 0.0, 10.001116, 9.998622 
1.2501752e+2, 2.5530106e+2, -339231.8, -547095.25, -2212.2966, -0.008727921, 0.21974184, -339208.25, 98862.05, 0.0, 10.001367, 9.998612 
1.2502013e+2, 2.652993e+2, -243443.39, -509739.63, -8977.612, -0.00032947015, 0.20811357, -243141.06, 96945.2, 0.0, 10.001609, 9.998079 
1.2502265e+2, 2.7529702e+2, -112501.69, -397323.38, -5552.2534, 0.011542702, 0.17473802, -112393.49, 129712.2, 0.0, 10.001841, 9.998067 
1.2502511e+2, 2.852945e+2, -24128.145, -377271.94, -3874.0159, 0.018353477, 0.1483724, -24085.65, 120042.46, 0.0, 10.00209, 9.997411 
1.2502751e+2, 2.9529172e+2, 112254.01, -260901.27, -3110.5515, 0.020640424, 0.1278058, 112279.93, 158433.17, 0.0, 10.002355, 9.99741 
1.2502992e+2, 3.052889e+2, 227975.44, -135865.08, -8074.248, 0.030035611, 0.08677566, 228154.53, 228154.53, 0.0, 10.0026245, 9.997803 
1.2503234e+2, 3.1528684e+2, 270909.94, -110178.87, -10947.093, 0.046037775, 0.09793256, 271224.16, 271224.16, 0.0, 10.002898, 9.997848 
1.3497397e+2, 1.2530005e+2, -1880253.4, -1721261.3, 11641.887, -0.025034184, 0.34831864, -1720413.3, -8319.67, 0.0, 9.998549, 10.000656 
1.3497731e+2, 1.3530068e+2, -1743219.6, -1604926.9, 10738.95, -0.03144044, 0.34453693, -1604098.0, 9989.644, 0.0, 9.998819, 10.000651 
1.3498078e+2, 1.4530124e+2, -1618825.3, -1508586.1, 19339.473, -0.03425953, 0.34298506, -1505291.9, 10789.766, 0.0, 9.999063, 10.000523 
1.3498442e+2, 1.5530176e+2, -1488912.9, -1395191.1, 18220.348, -0.037064258, 0.3419867, -1391773.6, 26302.262, 0.0, 9.999282, 10.000523 
1.3498813e+2, 1.653021e+2, -1372034.4, -1304691.8, 21811.725, -0.036244467, 0.33015257, -1298244.4, 21827.076, 0.0, 9.999483, 10.000374 
1.3499193e+2, 1.7530225e+2, -1247041.5, -1193686.6, 22131.783, -0.032022994, 0.3080297, -1185701.4, 36366.996, 0.0, 9.999668, 10.000374 
1.3499564e+2, 1.8530235e+2, -1133080.9, -1106364.4, 18727.043, -0.030931374, 0.2901976, -1096719.5, 27346.238, 0.0, 9.999857, 10.00021 
1.3499925e+2, 1.9530243e+2, -1007496.25, -995583.0, 20197.693, -0.032697607, 0.27543655, -980481.9, 45581.5, 0.0, 10.000049, 10.000205 
1.3500278e+2, 2.053023e+2, -902951.4, -929179.75, 13814.322, -0.032115903, 0.25722754, -897017.8, 31044.908, 0.0, 10.000243, 9.999894 
1.350062e+2, 2.1530198e+2, -777155.56, -819282.1, 15325.68, -0.029381676, 0.23527212, -772170.06, 57893.508, 0.0, 10.00044, 9.999882 
1.3500957e+2, 2.2530136e+2, -690532.7, -794103.94, 9811.815, -0.024716446, 0.21715115, -689611.4, 42456.613, 0.0, 10.000652, 9.999279 
1.3501282e+2, 2.353005e+2, -560584.1, -682006.6, 12370.307, -0.018319301, 0.20177124, -559336.6, 74738.97, 0.0, 10.000877, 9.999268 
1.3501593e+2, 2.4529944e+2, -468147.8, -651001.2, 4886.7183, -0.012848938, 0.19934411, -468017.3, 68068.09, 0.0, 10.001116, 9.9986925 
1.3501889e+2, 2.5529823e+2, -334262.75, -536732.8, 7214.5015, -0.008289052, 0.2077674, -334006.0, 104091.195, 0.0, 10.001367, 9.998684 
1.3502175e+2, 2.6529655e+2, -237064.39, -496445.34, -234.91933, 0.0007178195, 0.19612712, -237064.17, 103048.11, 0.0, 10.001608, 9.998171 
1.350245e+2, 2.752944e+2, -106270.42, -384332.06, 3225.9756, 0.013595398, 0.16581936, -106233.0, 135897.39, 0.0, 10.001841, 9.998156 
1.3502721e+2, 2.852919e+2, -22306.223, -373447.06, 6058.546, 0.021023756, 0.13852008, -22201.719, 121950.555, 0.0, 10.00209, 9.9974375 
1.350299e+2, 2.952891e+2, 113925.16, -257403.55, 6845.3555, 0.023590593, 0.113451675, 114051.305, 160228.88, 0.0, 10.002355, 9.997435 
1.3503256e+2, 3.052863e+2, 225654.2, -140734.52, 2221.7957, 0.03158099, 0.072454296, 225667.67, 225667.67, 0.0, 10.0026245, 9.997769 
1.3503522e+2, 3.1528422e+2, 268674.28, -114977.664, -868.0246, 0.04462797, 0.087325685, 268676.25, 268676.25, 0.0, 10.002899, 9.997815 
1.4497255e+2, 1.2529665e+2, -1862209.6, -1714008.1, 1535.0404, -0.028366538, 0.3438258, -1713992.1, -1865.4807, 0.0, 9.99868, 10.000643 
1.4497611e+2, 1.3529727e+2, -1728108.0, -1599158.3, 540.0583, -0.03814928, 0.3416978, -1599156.0, 14964.63, 0.0, 9.99893, 10.000638 
1.4497983e+2, 1.4529783e+2, -1607966.8, -1507202.0, 7213.9253, -0.041473363, 0.34133714, -1506688.1, 9426.648, 0.0, 9.999154, 10.000488 
1.449837e+2, 1.5529832e+2, -1480786.0, -1394961.0, 5939.7046, -0.04207856, 0.34124246, -1394551.9, 23557.576, 0.0, 9.999353, 10.000489 
1.4498758e+2, 1.6529863e+2, -1360851.8, -1295926.5, 9331.669, -0.042038597, 0.32838556, -1294611.9, 25493.342, 0.0, 9.999545, 10.000404 
1.4499153e+2, 1.752988e+2, -1236007.5, -1185057.0, 11015.396, -0.041249298, 0.30352634, -1182777.5, 39324.39, 0.0, 9.999729, 10.000403 
1.4499542e+2, 1.8529893e+2, -1124846.4, -1098998.0, 7229.919, -0.03997119, 0.28496242, -1097113.1, 26985.69, 0.0, 9.999899, 10.00024 
1.4499924e+2, 1.9529904e+2, -1004566.1, -990778.44, 7568.906, -0.03832639, 0.27123973, -987434.44, 38661.727, 0.0, 10.000053, 10.000236 
1.4500298e+2, 2.0529893e+2, -903287.6, -924633.3, 927.3244, -0.035409424, 0.2529105, -903247.44, 24847.684, 0.0, 10.00022, 9.999937 
1.4500661e+2, 2.1529864e+2, -780432.75, -816070.5, 2097.273, -0.031298958, 0.22979082, -780309.75, 49785.89, 0.0, 10.000397, 9.999924 
1.4501017e+2, 2.2529808e+2, -694795.2, -788974.44, -2990.899, -0.025654364, 0.21105935, -694700.3, 37399.184, 0.0, 10.000592, 9.999343 
1.4501366e+2, 2.3529728e+2, -566845.2, -677780.06, -1342.0275, -0.018634165, 0.19557816, -566828.94, 67277.5, 0.0, 10.000803, 9.999332 
1.45017e+2, 2.4529628e+2, -475309.75, -645643.6, -7999.902, -0.0122674685, 0.19154264, -474934.84, 61180.734, 0.0, 10.001029, 9.998772 
1.4502022e+2, 2.552951e+2, -343192.25, -532262.8, -5071.834, -0.006572046, 0.1970304, -343056.3, 95070.46, 0.0, 10.001267, 9.998762 
1.4502333e+2, 2.6529348e+2, -245943.88, -493549.44, -13359.052, 0.002929848, 0.18539792, -245225.2, 94915.9, 0.0, 10.001516, 9.998235 
1.4502634e+2, 2.7529144e+2, -111674.34, -379827.5, -11904.805, 0.01573645, 0.15768759, -111146.86, 131011.516, 0.0, 10.001773, 9.9982195 
1.450293e+2, 2.85289e+2, -24681.102, -370113.56, -8091.725, 0.023267476, 0.12968181, -24491.656, 119688.1, 0.0, 10.002055, 9.997478 
1.4503227e+2, 2.952862e+2, 117069.16, -251671.36, -6223.894, 0.026084812, 0.100957595, 117174.18, 163379.08, 0.0, 10.002358, 9.997472 
1.4503525e+2, 3.052834e+2, 236024.97, -139344.02, -8469.247, 0.033044145, 0.059715226, 236215.95, 236215.95, 0.0, 10.002711, 9.997737 
1.450382e+2, 3.152813e+2, 296784.72, -105015.69, -11749.794, 0.04397279, 0.07705255, 297128.03, 297128.03, 0.0, 10.003107, 9.997783 
1.5497117e+2, 1.25293e+2, -1863173.1, -1715961.8, 10976.056, -0.035456434, 0.34221083, -1715147.9, -2985.4438, 0.0, 9.998679, 10.000629 
1.5497497e+2, 1.3529368e+2, -1729129.4, -1601236.1, 9927.757, -0.04547994, 0.3460126, -1600470.0, 13685.808, 0.0, 9.99893, 10.000624 
1.5497893e+2, 1.452942e+2, -1610513.9, -1512462.4, 14745.573, -0.04786744, 0.3454544, -1510292.9, 5857.486, 0.0, 9.999154, 10.000452 
1.54983e+2, 1.552946e+2, -1483192.1, -1399941.3, 13435.34, -0.04624696, 0.3397947, -1397826.6, 20319.336, 0.0, 9.999353, 10.000456 
1.5498708e+2, 1.652949e+2, -1357445.1, -1288866.8, 16281.656, -0.047502033, 0.32492843, -1285197.5, 34944.156, 0.0, 9.999545, 10.000453 
1.5499116e+2, 1.7529511e+2, -1232699.0, -1178212.3, 17931.965, -0.051150255, 0.3012268, -1172840.3, 49297.254, 0.0, 9.999729, 10.000451 
1.5499522e+2, 1.8529528e+2, -1123800.6, -1096851.3, 13065.165, -0.049558066, 0.28309092, -1091557.1, 32576.938, 0.0, 9.999899, 10.000255 
1.5499926e+2, 1.9529541e+2, -1003481.7, -988548.25, 13427.3545, -0.043363217, 0.26912656, -980651.2, 45480.12, 0.0, 10.000053, 10.000251 
1.5500318e+2, 2.0529534e+2, -900711.2, -919306.7, 7559.4365, -0.037626192, 0.2495823, -898025.9, 30104.215, 0.0, 10.00022, 9.999973 
1.55007e+2, 2.1529506e+2, -777808.56, -810644.0, 8778.375, -0.03223643, 0.22438176, -775609.06, 54521.293, 0.0, 10.000397, 9.999961 
1.5501076e+2, 2.2529453e+2, -691198.2, -781518.5, 4923.788, -0.025965342, 0.20480742, -690930.56, 41203.227, 0.0, 10.000592, 9.999394 
1.5501447e+2, 2.3529378e+2, -563168.8, -670144.3, 6620.0625, -0.01890283, 0.1895876, -562760.7, 71379.54, 0.0, 10.000803, 9.999385 
1.5501803e+2, 2.4529283e+2, -469287.16, -633117.44, 958.5287, -0.0113994125, 0.18440463, -469281.53, 66867.09, 0.0, 10.001029, 9.9988575 
1.5502152e+2, 2.5529173e+2, -337264.6, -519911.94, 3922.0574, -0.003595401, 0.18751597, -337180.44, 100978.57, 0.0, 10.001267, 9.998847 
1.5502489e+2, 2.6529017e+2, -243421.36, -488266.75, -3734.939, 0.0062884116, 0.17591023, -243364.4, 96808.32, 0.0, 10.001516, 9.998271 
1.5502812e+2, 2.7528816e+2, -109093.92, -374429.94, -2222.9863, 0.017953731, 0.15033214, -109075.3, 133114.3, 0.0, 10.001773, 9.998257 
1.5503138e+2, 2.852858e+2, -21005.111, -362447.1, 3282.6455, 0.025075288, 0.121849, -20973.555, 123236.984, 0.0, 10.002055, 9.99753 
1.5503465e+2, 2.9528302e+2, 120574.7, -244356.05, 5270.4175, 0.028115004, 0.09031207, 120650.805, 166886.0, 0.0, 10.002358, 9.997522 
1.5503797e+2, 3.0528018e+2, 233802.23, -143956.05, 6392.5654, 0.03438134, 0.048552126, 233910.38, 233910.38, 0.0, 10.002711, 9.997705 
1.5504132e+2, 3.152781e+2, 294598.34, -109585.37, 2781.606, 0.043931898, 0.06721558, 294617.5, 294617.5, 0.0, 10.003107, 9.997751 
1.6496983e+2, 1.2528911e+2, -1849123.6, -1711952.0, -1260.178, -0.040837318, 0.3435415, -1711940.4, 260.36728, 0.0, 9.998788, 10.000605 
1.6497387e+2, 1.3528979e+2, -1717412.9, -1598333.8, -3230.3054, -0.052478552, 0.35263482, -1598246.1, 15947.866, 0.0, 9.999022, 10.0006 
1.6497804e+2, 1.452903e+2, -1599342.9, -1507843.4, 596.75183, -0.055106472, 0.35052508, -1507839.4, 8349.368, 0.0, 9.999233, 10.000445 
1.6498233e+2, 1.5529062e+2, -1473333.3, -1395895.3, 1448.6028, -0.052216537, 0.33725744, -1395868.1, 22316.896, 0.0, 9.999424, 10.000449 
1.6498658e+2, 1.6529092e+2, -1347938.3, -1281691.5, 3533.0225, -0.05323818, 0.32116342, -1281503.6, 38677.06, 0.0, 9.999599, 10.000476 
1.6499084e+2, 1.752912e+2, -1226635.8, -1172752.3, 3255.0237, -0.057586756, 0.30192178, -1172556.4, 49619.504, 0.0, 9.999761, 10.000473 
1.6499507e+2, 1.852914e+2, -1120474.6, -1093881.5, -3364.3176, -0.055293646, 0.28416625, -1093462.5, 30709.645, 0.0, 9.999915, 10.000267 
1.6499926e+2, 1.9529149e+2, -1000834.8, -985835.3, -3170.1467, -0.047142714, 0.26692235, -985192.8, 40976.656, 0.0, 10.000066, 10.000264 
1.6500337e+2, 2.052914e+2, -897305.94, -914177.7, -8517.359, -0.040039096, 0.24552283, -893753.94, 34414.246, 0.0, 10.000229, 10.000005 
1.6500738e+2, 2.1529116e+2, -774715.4, -805637.06, -7681.0225, -0.033807635, 0.21974662, -772912.56, 57255.523, 0.0, 10.000403, 9.999992 
1.6501133e+2, 2.2529067e+2, -690265.8, -777274.8, -11671.104, -0.026513638, 0.19947302, -688727.5, 43443.72, 0.0, 10.000582, 9.999429 
1.6501525e+2, 2.3528993e+2, -566277.4, -667729.25, -11246.7295, -0.018270481, 0.18343644, -565045.56, 69131.79, 0.0, 10.000765, 9.999419 
1.6501907e+2, 2.4528904e+2, -473764.56, -627934.7, -17212.053, -0.009376172, 0.17797205, -471866.3, 64318.883, 0.0, 10.000966, 9.998922 
1.6502278e+2, 2.55288e+2, -344773.72, -516280.1, -15732.695, 0.000006667634, 0.18130966, -343342.47, 94852.31, 0.0, 10.001184, 9.998911 
1.650264e+2, 2.6528648e+2, -252175.5, -489594.78, -22859.53, 0.009550497, 0.16893445, -249994.53, 90213.57, 0.0, 10.001444, 9.998297 
1.650299e+2, 2.7528453e+2, -112323.5, -372992.0, -22121.86, 0.01919026, 0.1416543, -110459.44, 131765.53, 0.0, 10.001738, 9.998283 
1.6503344e+2, 2.8528214e+2, -19990.883, -357145.4, -16273.889, 0.025678627, 0.113368034, -19207.191, 125038.34, 0.0, 10.002041, 9.997573 
1.6503702e+2, 2.952794e+2, 122491.52, -238745.58, -14905.435, 0.029295834, 0.08372333, 123105.516, 169375.02, 0.0, 10.002351, 9.997564 
1.650407e+2, 3.0527663e+2, 233882.69, -144417.86, -9598.577, 0.035786025, 0.04155721, 234126.08, 234126.08, 0.0, 10.002714, 9.997701 
1.6504444e+2, 3.152745e+2, 296414.97, -109242.914, -11539.682, 0.045440685, 0.057683792, 296742.97, 296742.97, 0.0, 10.003122, 9.997746 
1.749686e+2, 1.2528495e+2, -1851744.1, -1717322.3, 7544.6953, -0.044573564, 0.34791416, -1716900.0, -4658.2227, 0.0, 9.998788, 10.000568 
1.7497282e+2, 1.3528566e+2, -1719899.8, -1603463.4, 5562.164, -0.059178166, 0.36164716, -1603198.3, 11036.934, 0.0, 9.999022, 10.000565 
1.7497718e+2, 1.4528611e+2, -1597784.3, -1504613.4, 7759.1094, -0.06323434, 0.35660982, -1503971.6, 12258.449, 0.0, 9.999233, 10.000467 
1.7498167e+2, 1.5528636e+2, -1471832.6, -1392794.9, 8580.068, -0.06002746, 0.33365998, -1391874.1, 26352.514, 0.0, 9.999424, 10.00047 
1.7498612e+2, 1.6528666e+2, -1348077.8, -1282005.9, 9599.948, -0.059273142, 0.3171081, -1280639.3, 39582.867, 0.0, 9.999599, 10.000474 
1.7499056e+2, 1.7528704e+2, -1226770.6, -1173063.3, 9306.892, -0.060564637, 0.3056351, -1171496.1, 50720.55, 0.0, 9.999761, 10.000471 
1.7499496e+2, 1.8528724e+2, -1119791.4, -1092496.0, 2278.6768, -0.057176754, 0.2882094, -1092307.1, 31905.793, 0.0, 9.999916, 10.000277 
1.7499931e+2, 1.9528727e+2, -1000128.75, -984397.1, 2498.505, -0.049666747, 0.2646364, -984009.8, 42200.85, 0.0, 10.000066, 10.000274 
1.7500357e+2, 2.0528719e+2, -895502.9, -910464.56, -1966.5027, -0.042651474, 0.2407319, -895248.7, 32960.57, 0.0, 10.000229, 10.00003 
1.7500776e+2, 2.1528697e+2, -772918.4, -801940.3, -1119.9106, -0.03601572, 0.21587788, -772875.2, 57333.492, 0.0, 10.000403, 10.000018 
1.7501192e+2, 2.2528648e+2, -689126.1, -774941.1, -4824.6777, -0.027305264, 0.19504699, -688855.7, 43355.895, 0.0, 10.000582, 9.999444 
1.7501602e+2, 2.3528574e+2, -565072.75, -665253.06, -4355.82, -0.016749153, 0.17711899, -564883.7, 69334.07, 0.0, 10.000765, 9.999436 
1.7502005e+2, 2.452849e+2, -470628.38, -621435.7, -9032.652, -0.006211529, 0.17222981, -470089.28, 66135.98, 0.0, 10.000966, 9.998967 
1.75024e+2, 2.5528392e+2, -341690.28, -509877.13, -7465.837, 0.004222511, 0.17837687, -341359.53, 96874.52, 0.0, 10.001184, 9.998956 
1.7502786e+2, 2.6528242e+2, -251162.78, -487476.8, -11835.311, 0.012711523, 0.16445346, -250571.52, 89675.72, 0.0, 10.001444, 9.998312 
1.7503163e+2, 2.752804e+2, -111259.66, -370753.47, -11072.044, 0.019448353, 0.13168742, -110788.09, 131476.36, 0.0, 10.001738, 9.998299 
1.7503548e+2, 2.8527808e+2, -17740.76, -352427.97, -4659.648, 0.02507733, 0.10426882, -17675.898, 126608.82, 0.0, 10.002041, 9.997605 
1.7503937e+2, 2.9527545e+2, 124727.36, -234031.5, -3175.2317, 0.029621806, 0.081171855, 124755.46, 171063.23, 0.0, 10.002351, 9.997597 
1.7504343e+2, 3.0527267e+2, 235329.72, -141315.81, 5685.432, 0.03722777, 0.038717803, 235415.53, 235415.53, 0.0, 10.002714, 9.997723 
1.750476e+2, 3.152705e+2, 297787.56, -106252.01, 3406.7766, 0.048399333, 0.048518065, 297816.28, 297816.28, 0.0, 10.003121, 9.997767 
1.8496737e+2, 1.2528054e+2, -1844284.8, -1717382.4, -3119.064, -0.04934356, 0.35244337, -1717305.8, -5020.4727, 0.0, 9.998855, 10.000536 
1.8497184e+2, 1.352812e+2, -1710233.5, -1602296.6, -4833.316, -0.064872734, 0.36499602, -1602080.6, 12198.571, 0.0, 9.999104, 10.000533 
1.8497641e+2, 1.4528164e+2, -1583952.1, -1495544.3, -4554.317, -0.06937954, 0.35821941, -1495310.3, 20963.97, 0.0, 9.999318, 10.000489 
1.8498108e+2, 1.5528189e+2, -1459057.8, -1384383.1, -3839.2227, -0.065814294, 0.33305138, -1384186.3, 34084.24, 0.0, 9.999502, 10.00049 
1.849857e+2, 1.6528219e+2, -1342101.0, -1281873.0, -5456.831, -0.06342959, 0.31657785, -1281382.6, 38883.23, 0.0, 9.999652, 10.000449 
1.8499033e+2, 1.7528255e+2, -1226779.1, -1175666.9, -7421.732, -0.06197863, 0.30720723, -1174611.1, 47649.598, 0.0, 9.999771, 10.000448 
1.8499488e+2, 1.8528274e+2, -1118177.5, -1089380.0, -14099.668, -0.057920586, 0.28867248, -1083626.3, 40630.758, 0.0, 9.999917, 10.000298 
1.8499936e+2, 1.9528276e+2, -995890.94, -980072.44, -13011.122, -0.051571008, 0.26112357, -972755.2, 53499.46, 0.0, 10.000085, 10.000294 
1.850038e+2, 2.0528267e+2, -891305.3, -908201.56, -17444.307, -0.0444227, 0.23596725, -880371.1, 47881.996, 0.0, 10.000257, 10.000031 
1.8500818e+2, 2.1528247e+2, -768707.7, -799647.5, -18368.025, -0.03649961, 0.21228993, -760162.94, 70089.47, 0.0, 10.000431, 10.00002 
1.8501252e+2, 2.2528198e+2, -685990.75, -772596.1, -23305.65, -0.026571417, 0.19118237, -680117.5, 52137.82, 0.0, 10.0006, 9.999452 
1.8501681e+2, 2.3528124e+2, -564624.2, -664175.6, -23442.107, -0.014868234, 0.17168215, -559380.3, 74881.195, 0.0, 10.000764, 9.999444 
1.8502104e+2, 2.4528041e+2, -471615.84, -620646.44, -28216.752, -0.0039622006, 0.16712493, -466452.3, 69816.55, 0.0, 10.000955, 9.998979 
1.850252e+2, 2.5527945e+2, -343416.9, -509387.53, -29063.33, 0.0061531304, 0.1753257, -338474.78, 99802.62, 0.0, 10.001167, 9.998967 
1.8502931e+2, 2.6527795e+2, -252355.11, -485531.78, -31420.438, 0.014105308, 0.16009644, -248195.44, 92095.02, 0.0, 10.001425, 9.998334 
1.8503337e+2, 2.7527595e+2, -112172.16, -368698.16, -30083.773, 0.02015045, 0.122978486, -108691.34, 133616.39, 0.0, 10.00172, 9.998321 
1.8503751e+2, 2.852736e+2, -21765.602, -354165.53, -24540.266, 0.02567767, 0.09634528, -19963.623, 124364.234, 0.0, 10.002012, 9.997607 
1.850417e+2, 2.9527107e+2, 117390.86, -237182.05, -25250.508, 0.03060416, 0.07863892, 119180.016, 165530.61, 0.0, 10.002299, 9.9976 
1.8504609e+2, 3.0526832e+2, 225734.89, -140934.17, -13404.276, 0.03815684, 0.03676743, 226224.27, 226224.27, 0.0, 10.002626, 9.997767 
1.8505067e+2, 3.1526613e+2, 281550.13, -109172.83, -14275.975, 0.049072634, 0.043079954, 282071.03, 282071.03, 0.0, 10.002989, 9.997811 
1.9496615e+2, 1.2527587e+2, -1846387.6, -1721655.4, 6213.0605, -0.055265673, 0.3572201, -1721346.6, -9015.473, 0.0, 9.998854, 10.000506 
1.9497089e+2, 1.3527642e+2, -1712184.8, -1606325.4, 4481.2305, -0.06958141, 0.36266962, -1606136.0, 8190.0024, 0.0, 9.999103, 10.000505 
1.9497567e+2, 1.4527686e+2, -1582500.0, -1492553.9, 2352.7354, -0.073544085, 0.35533786, -1492492.4, 23828.676, 0.0, 9.999318, 10.000509 
1.9498053e+2, 1.5527718e+2, -1457720.8, -1381636.1, 3009.8083, -0.06957958, 0.33546865, -1381517.3, 36799.09, 0.0, 9.999502, 10.000509 
1.9498533e+2, 1.6527747e+2, -1345403.9, -1288762.4, -969.7397, -0.06570946, 0.31961706, -1288745.8, 31566.184, 0.0, 9.999652, 10.000402 
1.949901e+2, 1.7527774e+2, -1229900.4, -1182178.4, -2887.0122, -0.061829656, 0.30665097, -1182004.4, 40303.375, 0.0, 9.999771, 10.000403 
1.9499479e+2, 1.8527791e+2, -1115912.9, -1084714.5, -7762.2744, -0.05752652, 0.28555414, -1082890.0, 41414.223, 0.0, 9.999917, 10.00033 
1.9499944e+2, 1.9527794e+2, -993708.9, -975575.94, -6675.403, -0.05285929, 0.25638208, -973383.5, 52917.86, 0.0, 10.000085, 10.000325 
1.9500405e+2, 2.0527786e+2, -892812.75, -911369.44, -10881.397, -0.0453605, 0.23122549, -887791.0, 40508.758, 0.0, 10.000257, 10.0000105 
1.9500862e+2, 2.1527764e+2, -770162.9, -802711.9, -11824.616, -0.035272304, 0.20897685, -766320.7, 63978.535, 0.0, 10.000431, 9.999999 
1.9501314e+2, 2.2527716e+2, -686063.06, -772796.4, -17149.574, -0.024323849, 0.18786965, -682795.25, 49507.004, 0.0, 10.0006, 9.999451 
1.9501759e+2, 2.352764e+2, -564728.3, -664450.9, -17240.65, -0.012633109, 0.1671133, -561831.75, 72476.73, 0.0, 10.000765, 9.999442 
1.95022e+2, 2.4527554e+2, -473147.06, -623885.3, -20231.297, -0.0026231178, 0.16264838, -470478.97, 65837.016, 0.0, 10.000955, 9.998957 
1.9502637e+2, 2.552746e+2, -344836.97, -512393.44, -20992.959, 0.0058167963, 0.17215838, -342246.8, 96077.9, 0.0, 10.001167, 9.998946 
1.9503073e+2, 2.652731e+2, -250268.22, -481220.16, -20312.96, 0.01374259, 0.15587015, -248495.23, 91842.52, 0.0, 10.001425, 9.9983635 
1.950351e+2, 2.7527106e+2, -110209.35, -364596.66, -18988.61, 0.021279152, 0.115531504, -108799.766, 133555.0, 0.0, 10.00172, 9.998349 
1.9503954e+2, 2.8526872e+2, -23858.469, -358447.0, -13816.461, 0.027448038, 0.08961363, -23288.904, 121086.0, 0.0, 10.002012, 9.997579 
1.9504403e+2, 2.952662e+2, 115490.055, -241035.39, -14437.338, 0.03221224, 0.076169044, 116073.734, 162471.66, 0.0, 10.002298, 9.997574 
1.9504873e+2, 3.052635e+2, 230323.27, -131257.78, 168.44853, 0.038566634, 0.03573387, 230323.34, 230323.34, 0.0, 10.002625, 9.997834 
1.9505364e+2, 3.152614e+2, 285993.06, -99711.555, -988.4687, 0.047473013, 0.04138756, 285995.6, 285995.6, 0.0, 10.002988, 9.997876 
2.0496497e+2, 1.2527092e+2, -1829775.6, -1715627.1, -3347.6658, -0.06510942, 0.35734168, -1715529.0, -3149.4604, 0.0, 9.998977, 10.000489 
2.0496999e+2, 1.352714e+2, -1701975.1, -1603336.8, -4257.276, -0.072898276, 0.3574644, -1603153.4, 11221.642, 0.0, 9.999182, 10.000488 
2.0497502e+2, 1.4527184e+2, -1576627.3, -1490438.9, -9145.443, -0.07402597, 0.35085338, -1489479.1, 26890.986, 0.0, 9.999362, 10.000503 
2.0498005e+2, 1.552722e+2, -1455676.3, -1381401.8, -10592.86, -0.07014373, 0.33709255, -1379920.6, 38444.336, 0.0, 9.999519, 10.000503 
2.04985e+2, 1.6527247e+2, -1344358.9, -1290224.6, -15885.646, -0.06616189, 0.3204285, -1285907.4, 34453.305, 0.0, 9.999667, 10.000384 
2.0498988e+2, 1.7527266e+2, -1225825.3, -1182093.6, -15549.015, -0.062015444, 0.30041882, -1177128.8, 45228.48, 0.0, 9.999807, 10.000386 
2.0499474e+2, 1.852728e+2, -1109362.5, -1080910.4, -19129.273, -0.057463292, 0.27775598, -1071297.3, 53056.61, 0.0, 9.999959, 10.000336 
2.0499954e+2, 1.9527288e+2, -988187.0, -972353.94, -20056.375, -0.052537847, 0.2519466, -958708.25, 67642.31, 0.0, 10.000121, 10.00033 
2.0500432e+2, 2.0527278e+2, -891029.3, -913496.25, -25303.982, -0.04420421, 0.22767091, -874577.4, 53771.54, 0.0, 10.000282, 9.999984 
2.0500907e+2, 2.1527253e+2, -770306.06, -805686.44, -26632.188, -0.032770723, 0.20405105, -756024.1, 74324.74, 0.0, 10.0004425, 9.999973 
2.0501377e+2, 2.2527201e+2, -684624.5, -773486.94, -32312.705, -0.02179227, 0.18241696, -674117.2, 58234.91, 0.0, 10.000616, 9.999438 
2.0501839e+2, 2.3527126e+2, -560363.7, -663778.2, -33175.723, -0.011255302, 0.16191775, -550635.8, 83722.53, 0.0, 10.0008, 9.99943 
2.0502298e+2, 2.4527039e+2, -468384.84, -625053.94, -35417.77, -0.0025224863, 0.15739085, -460750.1, 75616.04, 0.0, 10.001002, 9.998925 
2.0502754e+2, 2.552694e+2, -339475.56, -513162.03, -36783.727, 0.0045426274, 0.16655974, -332006.63, 106368.71, 0.0, 10.001219, 9.998917 
2.0503217e+2, 2.6526788e+2, -245485.23, -477889.75, -35108.727, 0.012865607, 0.15089926, -240297.27, 100091.125, 0.0, 10.001453, 9.998373 
2.0503682e+2, 2.7526587e+2, -112235.945, -364642.78, -35328.21, 0.022423841, 0.112028785, -107384.47, 135020.58, 0.0, 10.001703, 9.998358 
2.0504153e+2, 2.8526354e+2, -33534.64, -366110.88, -30804.049, 0.029182594, 0.08591751, -30705.557, 113719.78, 0.0, 10.001959, 9.997551 
2.050463e+2, 2.9526097e+2, 102231.766, -250184.63, -31197.588, 0.033216972, 0.07078733, 104972.22, 151421.2, 0.0, 10.002219, 9.997549 
2.0505129e+2, 3.0525827e+2, 216163.95, -132854.44, -15025.12, 0.038089823, 0.03144994, 216809.58, 216809.58, 0.0, 10.002506, 9.997881 
2.050565e+2, 3.1525627e+2, 264145.53, -105133.1, -17938.635, 0.044833153, 0.04128078, 265014.9, 265014.9, 0.0, 10.002816, 9.997922 
2.1496381e+2, 1.2526566e+2, -1830248.4, -1716577.4, 4289.961, -0.07904902, 0.35280415, -1716415.6, -3985.2104, 0.0, 9.998977, 10.000483 
2.1496914e+2, 1.3526611e+2, -1702495.5, -1604403.9, 3385.6956, -0.07483696, 0.349364, -1604287.3, 10138.928, 0.0, 9.999182, 10.000481 
2.1497442e+2, 1.4526655e+2, -1579015.8, -1495392.1, -3220.0295, -0.070799574, 0.3447647, -1495268.4, 21152.965, 0.0, 9.999361, 10.000469 
2.1497959e+2, 1.5526694e+2, -1457990.0, -1386199.3, -4689.22, -0.06749042, 0.33793187, -1385894.3, 32521.885, 0.0, 9.999519, 10.00047 
2.1498467e+2, 1.6526718e+2, -1343513.8, -1288488.0, -10619.647, -0.06478136, 0.31901792, -1286509.5, 33902.55, 0.0, 9.999667, 10.000397 
2.1498969e+2, 1.7526728e+2, -1225028.9, -1180473.8, -10264.827, -0.06254222, 0.28850043, -1178222.6, 44186.613, 0.0, 9.999807, 10.000398 
2.1499468e+2, 1.8526739e+2, -1110817.0, -1083966.6, -13044.083, -0.057741325, 0.26526353, -1078673.3, 45732.523, 0.0, 9.999959, 10.000315 
2.1499968e+2, 1.9526754e+2, -989656.3, -975442.0, -13975.197, -0.05061469, 0.24781151, -966870.56, 59531.516, 0.0, 10.000121, 10.000309 
2.1500464e+2, 2.0526744e+2, -893242.1, -918140.0, -19246.879, -0.040960558, 0.22530577, -882769.06, 45631.555, 0.0, 10.000282, 9.999951 
2.1500956e+2, 2.1526712e+2, -772485.0, -810275.3, -20557.07, -0.02900233, 0.19751966, -763458.5, 66942.82, 0.0, 10.0004425, 9.999942 
2.150144e+2, 2.2526658e+2, -686204.1, -776840.4, -25375.324, -0.018980421, 0.1748283, -679583.44, 52821.44, 0.0, 10.000616, 9.999414 
2.150192e+2, 2.3526579e+2, -561969.5, -667192.94, -26216.209, -0.010731103, 0.15609258, -555799.56, 78611.63, 0.0, 10.000801, 9.999406 
2.1502396e+2, 2.4526489e+2, -471156.4, -630883.56, -27277.082, -0.0036545205, 0.15135838, -466626.7, 69792.61, 0.0, 10.001002, 9.998885 
2.1502875e+2, 2.5526386e+2, -342209.7, -518903.8, -28615.39, 0.0023327623, 0.15855822, -337691.0, 100738.17, 0.0, 10.001219, 9.998877 
2.150336e+2, 2.6526234e+2, -246259.1, -479535.0, -25737.682, 0.011469739, 0.14519033, -243453.16, 96989.16, 0.0, 10.001453, 9.998362 
2.1503854e+2, 2.752604e+2, -113052.8, -366363.34, -25948.545, 0.02357155, 0.112417445, -110422.016, 132036.52, 0.0, 10.001702, 9.998345 
2.1504351e+2, 2.8525802e+2, -35306.063, -369777.22, -21030.068, 0.03086741, 0.085234106, -33988.973, 110490.15, 0.0, 10.001958, 9.997526 
2.150485e+2, 2.952553e+2, 100524.83, -253674.45, -21367.854, 0.033607937, 0.06257825, 101809.234, 148312.95, 0.0, 10.002219, 9.997525 
2.1505378e+2, 3.0525264e+2, 217896.9, -129099.52, -3394.9553, 0.036725506, 0.023993634, 217930.13, 217930.13, 0.0, 10.002505, 9.997907 
2.1505928e+2, 3.1525075e+2, 265691.75, -101564.664, -6506.8237, 0.041154284, 0.042818353, 265807.0, 265807.0, 0.0, 10.002814, 9.997948 
2.2496273e+2, 1.2526016e+2, -1811327.6, -1709038.8, -4596.2056, -0.09136759, 0.3426831, -1708832.6, 3650.9177, 0.0, 9.999113, 10.000468 
2.2496836e+2, 1.3526061e+2, -1694124.0, -1602021.5, -6097.796, -0.07618055, 0.34029222, -1601619.6, 12859.556, 0.0, 9.999246, 10.000466 
2.249738e+2, 1.4526102e+2, -1578028.1, -1498103.4, -13529.129, -0.06803645, 0.3367851, -1495875.4, 20599.104, 0.0, 9.999382, 10.000441 
2.2497912e+2, 1.552614e+2, -1459584.0, -1390031.5, -14643.398, -0.06653762, 0.3309599, -1387074.3, 31395.488, 0.0, 9.999521, 10.0004425 
2.2498435e+2, 1.6526163e+2, -1341027.8, -1284460.0, -19787.025, -0.06421171, 0.31071183, -1278225.8, 42240.023, 0.0, 9.999673, 10.000422 
2.2498952e+2, 1.7526172e+2, -1219552.4, -1175226.4, -18441.14, -0.06105441, 0.27676246, -1168557.5, 53905.15, 0.0, 9.999834, 10.000421 
2.2499469e+2, 1.8526185e+2, -1109218.5, -1088284.9, -21458.39, -0.055195156, 0.2540768, -1074876.6, 49582.684, 0.0, 9.999992, 10.000269 
2.2499985e+2, 1.9526197e+2, -989023.2, -980171.4, -24265.25, -0.046885286, 0.24074475, -959931.7, 66524.21, 0.0, 10.000147, 10.000263 
2.2500496e+2, 2.0526184e+2, -889837.3, -918384.75, -29442.926, -0.03770191, 0.21891925, -871390.6, 57064.184, 0.0, 10.000314, 9.999935 
2.2501004e+2, 2.1526149e+2, -766719.1, -809437.4, -29612.314, -0.027706537, 0.18872732, -751566.56, 78889.2, 0.0, 10.000491, 9.999925 
2.2501506e+2, 2.252609e+2, -680361.75, -777663.5, -33726.625, -0.018736117, 0.1658689, -669814.75, 62644.883, 0.0, 10.000672, 9.999382 
2.2502002e+2, 2.3526011e+2, -556136.5, -668044.75, -35251.438, -0.010710874, 0.14898884, -545957.94, 88508.16, 0.0, 10.000856, 9.999373 
2.25025e+2, 2.4525917e+2, -466365.7, -632656.94, -35515.42, -0.0037644783, 0.1443263, -459098.16, 77376.445, 0.0, 10.001053, 9.998849 
2.2502999e+2, 2.5525808e+2, -338900.2, -521408.78, -36553.27, 0.0021849514, 0.15001512, -331851.44, 106633.56, 0.0, 10.001259, 9.99884 
2.2503507e+2, 2.6525655e+2, -244536.7, -483196.22, -33428.066, 0.010938352, 0.1387227, -239943.0, 100555.445, 0.0, 10.001484, 9.998322 
2.2504024e+2, 2.752546e+2, -112446.02, -370461.6, -35787.254, 0.022353875, 0.11123255, -107574.25, 134940.48, 0.0, 10.001726, 9.998306 
2.2504546e+2, 2.852522e+2, -35507.95, -369913.0, -31117.363, 0.029164534, 0.083671734, -32637.037, 111898.5, 0.0, 10.001957, 9.997526 
2.2505069e+2, 2.952495e+2, 94723.305, -256501.14, -29629.695, 0.031598706, 0.055524755, 97205.36, 143765.83, 0.0, 10.002179, 9.997525 
2.2505622e+2, 3.052468e+2, 201375.11, -135616.05, -10966.779, 0.03570833, 0.016052397, 201731.63, 201731.63, 0.0, 10.002385, 9.99792 
2.2506198e+2, 3.1524494e+2, 232261.23, -116320.1, -15251.896, 0.04208612, 0.038839947, 232927.3, 232927.3, 0.0, 10.002579, 9.997959 
2.3496173e+2, 1.252544e+2, -1812937.8, -1712377.3, 304.49338, -0.10214536, 0.3268609, -1712376.4, 162.39964, 0.0, 9.999113, 10.000445 
2.3496759e+2, 1.3525487e+2, -1695710.0, -1605285.9, -1148.693, -0.076939054, 0.33024377, -1605271.4, 9262.749, 0.0, 9.999246, 10.000443 
2.349732e+2, 1.4525527e+2, -1579751.1, -1501647.0, -8287.008, -0.06575263, 0.32691944, -1500777.5, 15752.244, 0.0, 9.999382, 10.000417 
2.3497862e+2, 1.5525559e+2, -1461182.3, -1393323.4, -9388.49, -0.06730904, 0.31613684, -1392048.5, 26477.324, 0.0, 9.999521, 10.00042 
2.3498401e+2, 1.6525581e+2, -1338345.5, -1278889.3, -13700.807, -0.0644733, 0.29547006, -1275884.0, 44637.71, 0.0, 9.999672, 10.00046 
2.3498937e+2, 1.7525597e+2, -1217041.6, -1170032.5, -12379.316, -0.05755953, 0.26520368, -1166971.9, 55545.707, 0.0, 9.999834, 10.000457 
2.3499474e+2, 1.852561e+2, -1114190.9, -1098634.4, -15624.132, -0.04982662, 0.24421299, -1088959.5, 35554.918, 0.0, 9.999992, 10.000197 
2.3500004e+2, 1.9525614e+2, -993839.25, -990208.3, -18417.31, -0.041353345, 0.23076148, -973517.2, 52994.863, 0.0, 10.000147, 10.000195 
2.350053e+2, 2.05256e+2, -889985.75, -918745.44, -22758.623, -0.034427073, 0.20852305, -877444.7, 51066.707, 0.0, 10.000314, 9.999932 
2.3501052e+2, 2.1525562e+2, -766904.5, -809892.2, -22921.498, -0.028872106, 0.17768165, -756975.75, 73536.52, 0.0, 10.000491, 9.999921 
2.350157e+2, 2.2525503e+2, -683283.56, -783808.7, -26780.68, -0.021050572, 0.15554456, -676594.1, 55922.105, 0.0, 10.000672, 9.99934 
2.3502088e+2, 2.3525421e+2, -559023.3, -674122.25, -28283.297, -0.011198002, 0.14061227, -552448.75, 82074.36, 0.0, 10.000857, 9.999331 
2.3502606e+2, 2.4525324e+2, -468652.97, -637481.3, -27746.285, -0.0028696682, 0.13629851, -464209.9, 72322.1, 0.0, 10.001053, 9.998816 
2.3503125e+2, 2.552521e+2, -341242.6, -526339.0, -28750.932, 0.0040646167, 0.14092942, -336879.6, 101663.2, 0.0, 10.00126, 9.998807 
2.3503655e+2, 2.652505e+2, -249332.44, -493199.16, -24338.242, 0.011252845, 0.13150103, -246927.17, 93629.555, 0.0, 10.001485, 9.998253 
2.3504193e+2, 2.7524856e+2, -117069.01, -380099.75, -26701.914, 0.018800156, 0.108492546, -114385.7, 128187.94, 0.0, 10.001726, 9.99824 
2.3504737e+2, 2.852462e+2, -33886.477, -366549.7, -22752.656, 0.024117418, 0.08123759, -32337.51, 112257.05, 0.0, 10.001957, 9.997549 
2.3505282e+2, 2.952434e+2, 96256.39, -253259.58, -21310.998, 0.027215673, 0.04959996, 97550.984, 144170.17, 0.0, 10.002179, 9.997547 
2.3505859e+2, 3.0524072e+2, 201193.61, -135832.67, -3682.3955, 0.035003036, 0.0076406877, 201233.84, 201233.84, 0.0, 10.002384, 9.997919 
2.3506463e+2, 3.1523886e+2, 231869.47, -116741.766, -8046.1777, 0.04747384, 0.029680056, 232055.08, 232055.08, 0.0, 10.002577, 9.997957 
2.449608e+2, 1.2524846e+2, -1808180.1, -1712387.0, -7356.334, -0.10894261, 0.31092218, -1711825.4, 770.02325, 0.0, 9.999156, 10.000424 
2.4496683e+2, 1.3524894e+2, -1693301.3, -1606339.3, -8621.635, -0.07811939, 0.3165518, -1605492.8, 9098.023, 0.0, 9.999272, 10.000424 
2.4497262e+2, 1.452493e+2, -1577070.5, -1500544.8, -14219.185, -0.06518923, 0.31211254, -1497988.1, 18598.53, 0.0, 9.999401, 10.000415 
2.4497814e+2, 1.5524958e+2, -1458228.4, -1392110.8, -13674.361, -0.06842868, 0.297163, -1389394.3, 29188.773, 0.0, 9.999542, 10.000418 
2.4498369e+2, 1.6524984e+2, -1336193.9, -1277805.8, -18198.23, -0.06451812, 0.27821365, -1272598.3, 47980.586, 0.0, 9.999687, 10.000461 
2.4498926e+2, 1.7525007e+2, -1217042.1, -1170104.3, -19773.428, -0.054003567, 0.2549865, -1162884.8, 59689.38, 0.0, 9.999834, 10.000456 
2.4499476e+2, 1.8525016e+2, -1116250.3, -1103499.6, -22625.592, -0.04519173, 0.23490103, -1086368.3, 38202.836, 0.0, 9.999994, 10.000163 
2.4500024e+2, 1.9525015e+2, -993357.7, -993787.2, -22700.814, -0.03793646, 0.21679457, -970870.6, 55699.1, 0.0, 10.000167, 10.00016 
2.4500565e+2, 2.0524997e+2, -885194.2, -917478.06, -25194.56, -0.032898344, 0.19377626, -871414.1, 57155.227, 0.0, 10.000351, 9.999923 
2.4501102e+2, 2.152496e+2, -759548.56, -807452.7, -25899.39, -0.029836472, 0.16568694, -748223.44, 82346.59, 0.0, 10.000546, 9.999911 
2.4501638e+2, 2.25249e+2, -677659.25, -785650.56, -30223.455, -0.022796685, 0.14554265, -669776.06, 62798.06, 0.0, 10.0007305, 9.999299 
2.4502175e+2, 2.3524816e+2, -554897.9, -676638.7, -31589.547, -0.0121739255, 0.1319075, -547189.06, 87392.39, 0.0, 10.000905, 9.999291 
2.4502712e+2, 2.4524716e+2, -465017.22, -639116.2, -29995.97, -0.0033175577, 0.12812243, -459994.06, 76596.625, 0.0, 10.001093, 9.998785 
2.4503253e+2, 2.55246e+2, -338512.9, -528459.94, -30752.557, 0.0039301175, 0.132621, -333658.13, 104943.586, 0.0, 10.001293, 9.9987755 
2.4503805e+2, 2.652444e+2, -248563.3, -498999.72, -24272.467, 0.010150172, 0.12321612, -246232.48, 94383.67, 0.0, 10.001516, 9.998198 
2.4504364e+2, 2.7524236e+2, -115783.664, -385419.78, -25668.098, 0.015567071, 0.1003425, -113361.93, 129271.9, 0.0, 10.0017605, 9.998187 
2.4504928e+2, 2.8523996e+2, -31280.719, -363809.5, -23262.707, 0.020141361, 0.074424185, -29661.219, 114993.61, 0.0, 10.001968, 9.997562 
2.4505495e+2, 2.9523724e+2, 92277.99, -253618.03, -22644.447, 0.023767898, 0.045219637, 93754.13, 140433.06, 0.0, 10.002145, 9.997561 
2.450609e+2, 3.0523455e+2, 185295.69, -140720.39, -6886.83, 0.03490709, 0.0012588421, 185441.11, 185441.11, 0.0, 10.002264, 9.997944 
2.4506712e+2, 3.1523266e+2, 197898.53, -130393.81, -9408.045, 0.052913945, 0.018349642, 198167.92, 198167.92, 0.0, 10.002332, 9.997981 
2.5495994e+2, 1.2524238e+2, -1809583.3, -1715206.6, -3067.4172, -0.11175354, 0.29493847, -1715107.0, -2453.6453, 0.0, 9.999155, 10.000405 
2.5496608e+2, 1.3524283e+2, -1694571.4, -1608903.4, -4272.7764, -0.07974348, 0.29919657, -1608690.9, 5958.38, 0.0, 9.999271, 10.000406 
2.5497198e+2, 1.4524318e+2, -1575719.4, -1497688.0, -8899.6, -0.06639068, 0.29233584, -1496685.9, 19959.313, 0.0, 9.999401, 10.000435 
2.5497767e+2, 1.5524343e+2, -1456962.8, -1389452.1, -8356.446, -0.069923975, 0.2740226, -1388433.3, 30208.348, 0.0, 9.999542, 10.000437 
2.549834e+2, 1.652437e+2, -1338909.8, -1283421.6, -12648.533, -0.06436302, 0.25894305, -1280674.4, 39962.785, 0.0, 9.999687, 10.000422 
2.5498912e+2, 1.75244e+2, -1219682.3, -1175577.3, -14213.39, -0.050399706, 0.24613415, -1171393.6, 51238.69, 0.0, 9.999834, 10.000419 
2.549948e+2, 1.852441e+2, -1116185.9, -1103379.8, -16153.5625, -0.041298945, 0.22617292, -1092406.5, 32223.11, 0.0, 9.999994, 10.000164 
2.550004e+2, 1.9524398e+2, -993305.56, -993715.0, -16204.55, -0.036638163, 0.19886789, -977304.44, 49324.4, 0.0, 10.000167, 10.000161 
2.55006e+2, 2.0524378e+2, -886343.8, -919905.3, -17836.05, -0.0331188, 0.17469259, -878635.4, 49993.234, 0.0, 10.000351, 9.999907 
2.5501156e+2, 2.1524346e+2, -760725.75, -809937.4, -18555.928, -0.03060629, 0.15274721, -754513.25, 76115.77, 0.0, 10.000546, 9.999894 
2.550171e+2, 2.2524285e+2, -680386.1, -791357.2, -23671.764, -0.023978898, 0.13586487, -675547.56, 57085.707, 0.0, 10.0007305, 9.99926 
2.5502262e+2, 2.35242e+2, -557579.25, -682274.25, -25005.463, -0.013635523, 0.12287716, -552751.75, 81889.41, 0.0, 10.000905, 9.999252 
2.550282e+2, 2.4524097e+2, -466915.9, -643135.5, -22443.309, -0.0050977212, 0.119792216, -464102.47, 72548.21, 0.0, 10.001093, 9.998758 
2.550338e+2, 2.5523978e+2, -340421.88, -532505.5, -23155.479, 0.0017999841, 0.1250699, -337669.94, 100991.87, 0.0, 10.001293, 9.998748 
2.550395e+2, 2.652381e+2, -251483.64, -505096.7, -15072.85, 0.007637724, 0.113880485, -250590.95, 90085.8, 0.0, 10.001516, 9.998156 
2.5504535e+2, 2.7523598e+2, -118685.625, -391387.28, -16495.145, 0.01263469, 0.086867705, -117691.49, 125003.8, 0.0, 10.00176, 9.998146 
2.5505123e+2, 2.8523362e+2, -31101.305, -363331.4, -16592.17, 0.01720315, 0.06328994, -30274.717, 114441.62, 0.0, 10.001968, 9.997566 
2.5505707e+2, 2.9523095e+2, 92507.54, -253013.72, -16084.086, 0.02122035, 0.04232798, 93254.64, 139994.36, 0.0, 10.002144, 9.997566 
2.5506318e+2, 3.052283e+2, 188701.38, -133543.13, -4289.5854, 0.035389, -0.0031484722, 188758.47, 188758.47, 0.0, 10.002263, 9.997993 
2.550695e+2, 3.1522638e+2, 201217.61, -123379.195, -6806.4443, 0.05837314, 0.004949039, 201360.28, 201360.28, 0.0, 10.002332, 9.99803 
2.6495904e+2, 1.2523611e+2, -1818669.0, -1718306.4, -11372.385, -0.11220343, 0.27993298, -1717033.9, -4320.7363, 0.0, 9.999087, 10.000417 
2.6496533e+2, 1.3523655e+2, -1700490.6, -1610405.0, -10296.575, -0.081366315, 0.28079107, -1609243.1, 5465.96, 0.0, 9.999226, 10.000419 
2.6497138e+2, 1.452369e+2, -1578756.1, -1496494.1, -13017.6045, -0.06773517, 0.272503, -1494483.4, 22221.66, 0.0, 9.999369, 10.000458 
2.6497722e+2, 1.5523718e+2, -1459070.1, -1388015.1, -12223.267, -0.069729276, 0.25459588, -1385971.3, 32729.754, 0.0, 9.999517, 10.000459 
2.6498306e+2, 1.6523747e+2, -1343477.8, -1290409.4, -16112.895, -0.06345417, 0.24161331, -1285900.3, 34796.395, 0.0, 9.999677, 10.000379 
2.64989e+2, 1.7523775e+2, -1221124.0, -1180921.4, -18050.758, -0.049503352, 0.23241675, -1174006.1, 48686.09, 0.0, 9.999845, 10.000377 
2.649948e+2, 1.8523784e+2, -1111965.6, -1099061.4, -18904.193, -0.04111123, 0.21276535, -1085538.6, 39151.027, 0.0, 10.000013, 10.000184 
2.6500058e+2, 1.9523771e+2, -989455.3, -989714.06, -17506.291, -0.03780538, 0.18280354, -972077.94, 54610.813, 0.0, 10.000184, 10.00018 
2.6500633e+2, 2.0523752e+2, -887852.8, -923098.1, -18358.611, -0.034203574, 0.1592348, -880027.56, 48660.965, 0.0, 10.000351, 9.999885 
2.650121e+2, 2.1523722e+2, -766701.3, -815293.0, -19502.113, -0.030310407, 0.14084676, -759842.4, 70846.62, 0.0, 10.000516, 9.999872 
2.650178e+2, 2.2523661e+2, -685549.7, -796851.06, -23787.488, -0.02433169, 0.12547132, -680679.0, 52014.51, 0.0, 10.000709, 9.999233 
2.6502353e+2, 2.3523572e+2, -556492.3, -684735.9, -24197.861, -0.016474003, 0.11214589, -552078.44, 82623.31, 0.0, 10.000925, 9.999226 
2.6502925e+2, 2.4523467e+2, -461966.5, -643575.2, -20749.049, -0.009566714, 0.1100528, -459626.06, 77085.42, 0.0, 10.001139, 9.998733 
2.6503506e+2, 2.5523347e+2, -333925.22, -532140.94, -21299.549, -0.0035162254, 0.11755508, -331662.28, 107060.414, 0.0, 10.001349, 9.998723 
2.6504102e+2, 2.652318e+2, -248645.34, -504831.84, -11802.11, 0.0035601018, 0.10537844, -248102.78, 92635.086, 0.0, 10.00154, 9.998146 
2.650471e+2, 2.752296e+2, -126160.99, -396060.97, -10886.861, 0.011696037, 0.07441991, -125722.56, 117034.23, 0.0, 10.001713, 9.9981365 
2.6505312e+2, 2.8522724e+2, -43772.266, -370862.03, -11682.0205, 0.017511025, 0.05158349, -43355.574, 101422.37, 0.0, 10.001887, 9.997553 
2.6505917e+2, 2.952246e+2, 79866.72, -260408.23, -12489.287, 0.021055548, 0.035660475, 80324.5, 127125.695, 0.0, 10.002063, 9.997554 
2.650654e+2, 3.0522195e+2, 180534.97, -132788.84, -5391.982, 0.035178803, -0.009478506, 180627.73, 180627.73, 0.0, 10.002187, 9.9980345 
2.650718e+2, 3.1522006e+2, 194405.17, -122042.93, -8551.003, 0.058004722, -0.003862385, 194636.06, 194636.06, 0.0, 10.002265, 9.998072 
2.7495813e+2, 1.252297e+2, -1815889.3, -1712323.1, -6238.3647, -0.11033109, 0.26599982, -1711948.6, 825.82874, 0.0, 9.999086, 10.000459 
2.7496454e+2, 1.3523011e+2, -1697679.3, -1604429.1, -5133.6616, -0.08302321, 0.26135564, -1604147.4, 10623.159, 0.0, 9.999225, 10.00046 
2.749707e+2, 1.452305e+2, -1576939.6, -1492617.8, -7432.93, -0.069262385, 0.252638, -1491967.6, 24798.44, 0.0, 9.999368, 10.000485 
2.7497676e+2, 1.5523085e+2, -1457349.5, -1384368.1, -6623.46, -0.06786399, 0.2389386, -1383771.9, 34989.344, 0.0, 9.9995165, 10.0004835 
2.7498275e+2, 1.6523112e+2, -1346918.4, -1297499.8, -9783.263, -0.06180557, 0.22627826, -1295633.5, 25123.658, 0.0, 9.999676, 10.000331 
2.749888e+2, 1.7523132e+2, -1224389.8, -1187678.3, -11724.589, -0.05133803, 0.21385431, -1184253.3, 38500.58, 0.0, 9.999845, 10.000331 
2.749948e+2, 1.8523142e+2, -1109220.9, -1093373.6, -12500.528, -0.04465083, 0.19468285, -1086497.0, 38254.293, 0.0, 10.000013, 10.000223 
2.7500072e+2, 1.9523138e+2, -986800.25, -984234.5, -11114.148, -0.041447517, 0.16860792, -974329.44, 52419.96, 0.0, 10.000184, 10.000218 
2.7500668e+2, 2.052312e+2, -889824.9, -927226.6, -12160.394, -0.03615832, 0.1474123, -886218.9, 42530.08, 0.0, 10.000351, 9.999856 
2.7501264e+2, 2.1523088e+2, -768620.56, -819310.7, -13260.497, -0.028959496, 0.12999594, -765361.25, 65388.703, 0.0, 10.000516, 9.999845 
2.750185e+2, 2.2523026e+2, -686608.8, -799070.2, -15613.406, -0.023858275, 0.11437623, -684481.4, 48273.4, 0.0, 10.000709, 9.999218 
2.7502438e+2, 2.3522933e+2, -557525.1, -686901.1, -16027.375, -0.020674752, 0.099733025, -555569.2, 79194.12, 0.0, 10.000925, 9.999211 
2.7503034e+2, 2.4522828e+2, -463610.63, -647002.2, -12798.213, -0.016697071, 0.09891602, -462721.8, 74051.38, 0.0, 10.001139, 9.998709 
2.750363e+2, 2.552271e+2, -335467.78, -535341.94, -13383.142, -0.011980528, 0.11007034, -334575.66, 104208.72, 0.0, 10.001349, 9.998701 
2.7504247e+2, 2.652254e+2, -247182.63, -501762.4, -5295.543, -0.002072708, 0.09769103, -247072.52, 93727.0, 0.0, 10.00154, 9.998167 
2.750488e+2, 2.752232e+2, -124788.16, -393112.66, -4360.667, 0.012697078, 0.06297212, -124717.31, 118101.01, 0.0, 10.001713, 9.9981575 
2.7505505e+2, 2.8522083e+2, -45880.336, -375121.72, -5029.4966, 0.02098582, 0.03931479, -45803.523, 99036.13, 0.0, 10.001886, 9.997524 
2.7506125e+2, 2.952182e+2, 77864.05, -264461.06, -5924.827, 0.023205247, 0.025303101, 77966.56, 124829.945, 0.0, 10.002063, 9.997526 
2.7506757e+2, 3.0521557e+2, 182832.48, -128002.85, -2415.09, 0.034287892, -0.017703652, 182851.23, 182851.23, 0.0, 10.002187, 9.998068 
2.75074e+2, 3.1521374e+2, 196802.31, -117166.62, -5606.87, 0.05184319, -0.0075727794, 196902.4, 196902.4, 0.0, 10.002265, 9.998105 
2.8495717e+2, 1.2522309e+2, -1833564.4, -1715492.4, -11829.193, -0.1080346, 0.24887371, -1714318.9, -1481.1392, 0.0, 9.998942, 10.000506 
2.849637e+2, 1.3522354e+2, -1710344.9, -1605242.4, -10272.347, -0.08451962, 0.24364863, -1604247.8, 10585.405, 0.0, 9.999115, 10.000507 
2.8497005e+2, 1.4522399e+2, -1587841.8, -1495962.1, -12658.228, -0.07121804, 0.23641877, -1494250.1, 22578.166, 0.0, 9.999285, 10.000502 
2.849762e+2, 1.5522438e+2, -1465524.3, -1386445.0, -12616.053, -0.06729306, 0.22611493, -1384481.1, 34341.973, 0.0, 9.999453, 10.000501 
2.849824e+2, 1.6522466e+2, -1353778.4, -1301278.6, -13695.631, -0.061257496, 0.21235906, -1297920.6, 22898.438, 0.0, 9.999631, 10.000326 
2.849886e+2, 1.7522481e+2, -1228397.1, -1190022.1, -12345.919, -0.05312723, 0.19472972, -1186393.4, 36422.996, 0.0, 9.999819, 10.000327 
2.8499475e+2, 1.852249e+2, -1112143.3, -1094011.0, -13341.282, -0.04750649, 0.1763829, -1086946.9, 37866.78, 0.0, 9.99999, 10.000231 
2.8500086e+2, 1.9522493e+2, -991655.7, -985820.2, -14404.152, -0.044225816, 0.15666546, -974041.25, 52770.02, 0.0, 10.000148, 10.000225 
2.8500697e+2, 2.0522478e+2, -897434.4, -932144.06, -16065.7295, -0.03883141, 0.13819018, -891139.7, 37671.008, 0.0, 10.000304, 9.999845 
2.8501308e+2, 2.1522444e+2, -777310.9, -824677.0, -15848.561, -0.031512976, 0.120157376, -772497.2, 58314.848, 0.0, 10.000462, 9.999834 
2.8501916e+2, 2.252238e+2, -693970.7, -802337.25, -14622.93, -0.027072908, 0.10348712, -692032.2, 40784.875, 0.0, 10.000656, 9.999221 
2.8502527e+2, 2.3522286e+2, -563093.94, -689341.0, -13764.629, -0.025242893, 0.08741953, -561610.6, 73214.95, 0.0, 10.000886, 9.999213 
2.850314e+2, 2.4522181e+2, -469961.22, -652465.5, -10318.116, -0.022025868, 0.08737417, -469379.72, 67455.83, 0.0, 10.001105, 9.998688 
2.850376e+2, 2.5522062e+2, -341698.4, -540594.06, -10836.754, -0.017527523, 0.101331785, -341109.72, 97737.195, 0.0, 10.001317, 9.998681 
2.8504398e+2, 2.6521897e+2, -252793.03, -502080.1, -4682.3003, -0.00639662, 0.09019406, -252705.13, 88156.805, 0.0, 10.001492, 9.998189 
2.8505048e+2, 2.752168e+2, -134797.92, -395550.28, -3744.2842, 0.010908331, 0.055247206, -134744.16, 108136.234, 0.0, 10.001634, 9.9981785 
2.8505692e+2, 2.852144e+2, -58285.98, -381796.38, -2475.8457, 0.020812508, 0.030231342, -58267.03, 86634.72, 0.0, 10.001804, 9.997518 
2.850633e+2, 2.9521173e+2, 68600.81, -269638.7, -1761.3243, 0.023816802, 0.013852613, 68609.98, 115535.82, 0.0, 10.002002, 9.99752 
2.8506973e+2, 3.052091e+2, 180973.03, -130067.125, -1649.3893, 0.03334854, -0.028393561, 180981.78, 180981.78, 0.0, 10.002179, 9.998057 
2.8507626e+2, 3.1520733e+2, 206754.39, -113425.44, -8143.0854, 0.046461493, -0.012218802, 206961.36, 206961.36, 0.0, 10.002338, 9.9980955 
2.9495615e+2, 1.252163e+2, -1830021.4, -1707821.5, -5367.0845, -0.105398156, 0.22851247, -1707586.1, 5316.564, 0.0, 9.99894, 10.00056 
2.9496276e+2, 1.3521686e+2, -1706791.5, -1597657.3, -3791.7964, -0.08590965, 0.22771159, -1597525.8, 17371.555, 0.0, 9.999114, 10.00056 
2.9496926e+2, 1.4521734e+2, -1587508.1, -1495110.0, -6371.2314, -0.07364965, 0.22391674, -1494672.8, 22219.012, 0.0, 9.999285, 10.000508 
2.9497567e+2, 1.5521777e+2, -1465107.0, -1385460.6, -6308.742, -0.068066485, 0.21618111, -1384964.0, 33922.492, 0.0, 9.999453, 10.000507 
2.9498202e+2, 1.6521806e+2, -1351057.3, -1295555.4, -6647.2783, -0.06185156, 0.19989528, -1294770.4, 26112.12, 0.0, 9.999631, 10.000366 
2.949884e+2, 1.7521816e+2, -1225738.5, -1184470.3, -5311.478, -0.05489518, 0.17506248, -1183797.6, 39082.082, 0.0, 9.999819, 10.000365 
2.949947e+2, 1.8521827e+2, -1113964.9, -1097801.6, -7433.927, -0.049691763, 0.15787455, -1094902.5, 29974.479, 0.0, 9.99999, 10.000204 
2.9500097e+2, 1.9521838e+2, -993389.8, -989452.75, -8498.693, -0.046149414, 0.14698572, -982697.6, 44176.74, 0.0, 10.000148, 10.0002 
2.9500723e+2, 2.0521824e+2, -897051.7, -931384.75, -10171.463, -0.042219166, 0.13157806, -894264.56, 34609.246, 0.0, 10.000304, 9.99985 
2.950135e+2, 2.1521789e+2, -776876.06, -823814.1, -9890.629, -0.037947286, 0.11133855, -774877.1, 55998.164, 0.0, 10.000462, 9.99984 
2.9501978e+2, 2.2521724e+2, -692615.6, -799542.25, -5997.101, -0.033956047, 0.09280955, -692280.3, 40599.938, 0.0, 10.000656, 9.99924 
2.950261e+2, 2.352163e+2, -561818.44, -686671.5, -5149.833, -0.030182803, 0.075210325, -561606.4, 73282.195, 0.0, 10.000886, 9.999231 
2.9503247e+2, 2.4521525e+2, -471412.75, -655417.06, -2384.7212, -0.025580436, 0.07543815, -471381.84, 65516.727, 0.0, 10.001105, 9.998668 
2.9503888e+2, 2.552141e+2, -343100.47, -543400.75, -2952.9045, -0.020207092, 0.09136174, -343056.94, 95853.29, 0.0, 10.001316, 9.998662 
2.950454e+2, 2.6521245e+2, -251385.42, -499057.25, 652.5605, -0.009433614, 0.08287928, -251383.7, 89541.4, 0.0, 10.001491, 9.99821 
2.9505205e+2, 2.7521032e+2, -133341.42, -392461.0, 1644.6885, 0.0063815797, 0.051166784, -133330.98, 109612.04, 0.0, 10.001634, 9.9982 
2.950587e+2, 2.8520793e+2, -57235.33, -379559.97, 4965.149, 0.017053422, 0.024274034, -57158.863, 87805.38, 0.0, 10.001804, 9.997534 
2.9506528e+2, 2.9520524e+2, 69535.69, -267625.22, 5658.4795, 0.02290599, 0.0013524144, 69630.625, 116619.23, 0.0, 10.002002, 9.997534 
2.950719e+2, 3.0520257e+2, 177162.83, -137933.48, 4368.9316, 0.032342773, -0.041483916, 177223.39, 177223.39, 0.0, 10.002178, 9.998004 
2.9507855e+2, 3.152008e+2, 203112.11, -120980.984, -2150.6492, 0.041784063, -0.017390257, 203126.38, 203126.38, 0.0, 10.002337, 9.998043 
3.04955e+2, 1.2520942e+2, -1848308.6, -1712957.6, -7406.1396, -0.10555194, 0.21071777, -1712553.5, 415.30756, 0.0, 9.998799, 10.000592 
3.0496183e+2, 1.3521004e+2, -1720624.4, -1600702.3, -7417.7466, -0.08766657, 0.21436174, -1600245.3, 14717.445, 0.0, 9.999003, 10.000592 
3.049685e+2, 1.4521056e+2, -1599964.6, -1501242.4, -11467.312, -0.07577256, 0.21264331, -1499927.9, 17029.07, 0.0, 9.9992, 10.000507 
3.0497506e+2, 1.55211e+2, -1474500.0, -1389993.4, -11992.206, -0.069439664, 0.20484644, -1388324.5, 30627.29, 0.0, 9.999388, 10.000507 
3.0498162e+2, 1.6521129e+2, -1357406.5, -1293724.0, -12469.889, -0.063075855, 0.18793035, -1291369.4, 29578.3, 0.0, 9.999566, 10.000409 
3.0498815e+2, 1.7521144e+2, -1234988.1, -1184178.3, -10864.574, -0.05653095, 0.16194926, -1181952.6, 40991.723, 0.0, 9.999735, 10.000407 
3.0499464e+2, 1.8521158e+2, -1128698.1, -1107147.1, -13351.932, -0.05153005, 0.14536713, -1100764.9, 24176.516, 0.0, 9.999899, 10.000184 
3.0500108e+2, 1.9521166e+2, -1007567.1, -998431.56, -13989.288, -0.048008114, 0.13668947, -988283.2, 38655.875, 0.0, 10.000059, 10.00018 
3.050075e+2, 2.0521155e+2, -906598.75, -934925.1, -14813.054, -0.04574626, 0.12212996, -900267.44, 28671.164, 0.0, 10.000235, 9.99986 
3.0501387e+2, 2.152112e+2, -781845.0, -825074.75, -14215.973, -0.044654883, 0.10150517, -777589.1, 53350.91, 0.0, 10.0004225, 9.99985 
3.0502033e+2, 2.2521056e+2, -698436.75, -800056.06, -8969.394, -0.040993243, 0.08335752, -697651.2, 35293.633, 0.0, 10.000607, 9.999261 
3.050269e+2, 2.3520966e+2, -574836.06, -690688.5, -8049.043, -0.034921244, 0.06683853, -574279.5, 60673.23, 0.0, 10.000787, 9.999251 
3.0503348e+2, 2.452086e+2, -490606.13, -665276.06, -4699.487, -0.028511195, 0.066696465, -490479.78, 46482.953, 0.0, 10.000977, 9.998662 
3.0504012e+2, 2.5520742e+2, -364066.34, -554067.25, -4225.9937, -0.021780152, 0.08095911, -363972.38, 75002.32, 0.0, 10.001175, 9.998657 
3.0504686e+2, 2.6520577e+2, -267939.9, -506522.44, -1949.2435, -0.011962794, 0.07345209, -267923.97, 73065.62, 0.0, 10.001375, 9.998214 
3.050536e+2, 2.752037e+2, -141003.0, -395536.94, -2201.443, 0.00075789576, 0.045096293, -140983.95, 102023.3, 0.0, 10.001578, 9.998206 
3.050604e+2, 2.852013e+2, -59253.805, -376842.13, 1933.1624, 0.011717692, 0.018532654, -59242.04, 85786.14, 0.0, 10.001774, 9.997566 
3.0506724e+2, 2.9519865e+2, 66422.98, -265590.78, 3882.065, 0.02098997, -0.006828696, 66468.36, 113520.55, 0.0, 10.001965, 9.997566 
3.0507407e+2, 3.0519593e+2, 171653.58, -144619.83, 3253.453, 0.0322619, -0.052517172, 171687.05, 171687.05, 0.0, 10.002158, 9.997968 
3.0508086e+2, 3.1519416e+2, 203021.67, -124875.016, -2042.2937, 0.041294992, -0.028940387, 203034.39, 203034.39, 0.0, 10.002354, 9.998009 
3.1495377e+2, 1.2520243e+2, -1847755.1, -1711465.6, 247.49207, -0.1086569, 0.19553798, -1711465.3, 1570.7891, 0.0, 9.998798, 10.000604 
3.1496078e+2, 1.3520312e+2, -1720016.3, -1599209.1, 244.4432, -0.08986831, 0.20364462, -1599208.6, 15820.668, 0.0, 9.999002, 10.000603 
3.149677e+2, 1.4520366e+2, -1600735.9, -1502672.9, -4410.908, -0.077631615, 0.20262723, -1502474.9, 14548.787, 0.0, 9.999199, 10.000498 
3.1497443e+2, 1.5520406e+2, -1475152.6, -1391221.3, -4939.7827, -0.07146178, 0.19211043, -1390931.5, 28087.607, 0.0, 9.999387, 10.000499 
3.1498116e+2, 1.6520438e+2, -1354146.3, -1286875.4, -6156.1626, -0.06497229, 0.17646195, -1286316.6, 34697.86, 0.0, 9.999565, 10.000457 
3.149879e+2, 1.7520462e+2, -1231788.0, -1177499.0, -4541.169, -0.058058385, 0.1554115, -1177121.8, 45888.36, 0.0, 9.999734, 10.000454 
3.1499454e+2, 1.8520476e+2, -1129741.3, -1109330.3, -7318.456, -0.053033773, 0.13888782, -1106977.4, 18029.678, 0.0, 9.999899, 10.00017 
3.150011e+2, 1.9520481e+2, -1008548.3, -1000512.5, -7935.239, -0.049809765, 0.12579212, -995635.94, 31369.54, 0.0, 10.000059, 10.000166 
3.1500766e+2, 2.0520467e+2, -905660.06, -933013.4, -7749.659, -0.049417153, 0.109853536, -903617.0, 25388.195, 0.0, 10.000235, 9.999872 
3.1501418e+2, 2.1520434e+2, -780879.5, -823094.6, -7165.421, -0.051638898, 0.09066135, -779696.44, 51309.902, 0.0, 10.0004225, 9.999864 
3.1502083e+2, 2.2520375e+2, -696961.1, -797003.9, -2222.2068, -0.048188657, 0.07511883, -696911.8, 36098.88, 0.0, 10.000607, 9.999282 
3.1502762e+2, 2.3520291e+2, -573357.4, -687618.44, -1292.5586, -0.039463267, 0.062261898, -573342.75, 61675.348, 0.0, 10.000787, 9.999273 
3.1503442e+2, 2.4520186e+2, -490052.13, -664101.5, 2726.6313, -0.03083009, 0.06111793, -490009.4, 47018.613, 0.0, 10.000976, 9.998671 
3.150413e+2, 2.5520062e+2, -363548.66, -552929.94, 3209.324, -0.022270687, 0.07014303, -363494.28, 75546.04, 0.0, 10.001174, 9.998666 
3.150482e+2, 2.6519898e+2, -268871.1, -508353.0, 5647.563, -0.0139979115, 0.06195669, -268738.0, 72317.39, 0.0, 10.001374, 9.998202 
3.150551e+2, 2.7519694e+2, -141855.56, -397155.94, 5401.2407, -0.005947368, 0.037080836, -141741.34, 101331.734, 0.0, 10.001577, 9.998195 
3.150621e+2, 2.8519458e+2, -55920.984, -369734.53, 9087.773, 0.004826338, 0.012999283, -55658.03, 89435.5, 0.0, 10.001774, 9.997616 
3.1506917e+2, 2.9519194e+2, 69654.05, -258678.98, 11048.059, 0.018073376, -0.010804033, 70025.38, 117141.984, 0.0, 10.001964, 9.997614 
3.1507623e+2, 3.0518925e+2, 170150.19, -147552.97, 10612.758, 0.0330508, -0.061530534, 170504.31, 170504.31, 0.0, 10.002157, 9.997948 
3.1508327e+2, 3.1518734e+2, 201632.7, -127601.21, 5304.8364, 0.044766467, -0.04626385, 201718.16, 201718.16, 0.0, 10.002353, 9.997991 
3.2495248e+2, 1.2519532e+2, -1863221.1, -1717106.9, -7655.9697, -0.112459145, 0.18817906, -1716706.8, -3601.9504, 0.0, 9.998684, 10.00062 
3.2495973e+2, 1.3519602e+2, -1732751.0, -1603544.9, -7318.6826, -0.09196704, 0.19655885, -1603131.6, 11966.372, 0.0, 9.998907, 10.000619 
3.2496682e+2, 1.4519654e+2, -1612530.0, -1507771.6, -12114.82, -0.078841165, 0.19402179, -1506388.8, 10703.591, 0.0, 9.999115, 10.000503 
3.2497376e+2, 1.5519692e+2, -1486180.5, -1395917.0, -11577.489, -0.07251381, 0.18035786, -1394455.6, 24632.365, 0.0, 9.999309, 10.0005045 
3.2498068e+2, 1.6519727e+2, -1364060.5, -1290035.4, -14396.06, -0.06655653, 0.1659115, -1287334.3, 33749.03, 0.0, 9.999491, 10.000471 
3.2498756e+2, 1.7519757e+2, -1241467.9, -1180531.0, -15296.796, -0.060843624, 0.15007728, -1176906.8, 46171.625, 0.0, 9.9996605, 10.000468 
3.2499436e+2, 1.8519774e+2, -1139637.3, -1112191.4, -18491.4, -0.056386366, 0.1339157, -1102887.1, 22187.984, 0.0, 9.999823, 10.000187 
3.250011e+2, 1.9519776e+2, -1019400.5, -1003844.56, -16688.627, -0.053139817, 0.11671533, -993210.4, 33863.285, 0.0, 9.999977, 10.000183 
3.2500783e+2, 2.051976e+2, -918004.5, -937814.25, -14489.623, -0.05257105, 0.09891252, -910357.9, 18715.55, 0.0, 10.000145, 9.999883 
3.2501456e+2, 2.151973e+2, -794320.25, -828420.75, -14160.548, -0.05447163, 0.0799215, -789206.75, 41867.645, 0.0, 10.000325, 9.999874 
3.2502136e+2, 2.2519673e+2, -710833.4, -803409.56, -10076.571, -0.05151782, 0.066384345, -709749.3, 23329.244, 0.0, 10.00051, 9.999284 
3.2502833e+2, 2.3519592e+2, -585946.75, -693336.2, -10561.678, -0.044046957, 0.057198226, -584917.9, 50167.85, 0.0, 10.000699, 9.999276 
3.250353e+2, 2.451949e+2, -501697.66, -667475.4, -6470.809, -0.03550843, 0.05590628, -501445.47, 35650.074, 0.0, 10.000886, 9.998691 
3.2504237e+2, 2.5519362e+2, -376794.78, -557100.3, -5139.744, -0.025963942, 0.061296426, -376648.38, 62459.445, 0.0, 10.001074, 9.998685 
3.2504946e+2, 2.6519197e+2, -285345.44, -516836.44, -1839.4763, -0.016944759, 0.05159346, -285330.8, 55792.13, 0.0, 10.001264, 9.998197 
3.250566e+2, 2.7518994e+2, -159649.64, -406145.8, -1577.6389, -0.008368232, 0.027117899, -159639.53, 83501.266, 0.0, 10.001457, 9.998191 
3.2506382e+2, 2.8518763e+2, -71478.71, -373452.47, 1521.4957, 0.0030964678, 0.0049922774, -71471.04, 73689.92, 0.0, 10.00165, 9.997649 
3.2507107e+2, 2.9518506e+2, 54631.4, -262134.97, 2327.7324, 0.017184844, -0.01540089, 54648.504, 101831.82, 0.0, 10.001844, 9.997647 
3.2507834e+2, 3.0518234e+2, 158001.89, -149700.56, 4084.031, 0.033967074, -0.069659665, 158056.1, 158056.1, 0.0, 10.002058, 9.997981 
3.250856e+2, 3.151804e+2, 194596.44, -127212.9, 2553.2566, 0.04774295, -0.061929837, 194616.7, 194616.7, 0.0, 10.002289, 9.998024 
3.349511e+2, 1.2518807e+2, -1862006.1, -1714249.0, 691.3305, -0.11707457, 0.18877666, -1714245.8, -1070.2897, 0.0, 9.998683, 10.00064 
3.349586e+2, 1.3518876e+2, -1731471.0, -1600659.1, 1035.7968, -0.09402963, 0.19315861, -1600650.9, 14517.784, 0.0, 9.998906, 10.00064 
3.349659e+2, 1.4518927e+2, -1611285.8, -1505024.9, -4876.4033, -0.079443164, 0.18683171, -1504801.5, 12361.539, 0.0, 9.999114, 10.000523 
3.349731e+2, 1.5518962e+2, -1484958.6, -1393258.0, -4333.4434, -0.07262849, 0.16958381, -1393053.8, 26104.973, 0.0, 9.999309, 10.000524 
3.3498016e+2, 1.6518997e+2, -1365464.9, -1292873.1, -8022.3584, -0.06785589, 0.15627035, -1291997.1, 29156.764, 0.0, 9.99949, 10.000452 
3.3498716e+2, 1.7519033e+2, -1242733.6, -1183138.9, -8919.77, -0.0649117, 0.14594087, -1181832.5, 41316.445, 0.0, 9.9996605, 10.00045 
3.349941e+2, 1.851905e+2, -1136215.9, -1105133.6, -12709.541, -0.061606467, 0.13044383, -1100598.4, 24547.078, 0.0, 9.999823, 10.000235 
3.3500102e+2, 1.9519053e+2, -1016017.75, -996887.7, -10886.37, -0.058006927, 0.10944678, -991961.25, 35182.4, 0.0, 9.999977, 10.000231 
3.3500794e+2, 2.0519039e+2, -917510.2, -936848.1, -7719.202, -0.05522285, 0.089294866, -914806.8, 14336.371, 0.0, 10.000145, 9.999889 
3.3501488e+2, 2.1519008e+2, -793856.56, -827507.4, -7395.4023, -0.053189445, 0.06928029, -792303.0, 38841.2, 0.0, 10.000325, 9.999881 
3.3502188e+2, 2.2518954e+2, -711981.44, -805826.5, -3019.8445, -0.05101008, 0.057153903, -711884.4, 21264.045, 0.0, 10.00051, 9.999268 
3.3502895e+2, 2.3518874e+2, -587014.0, -695579.1, -3515.5889, -0.04866773, 0.051650908, -586900.3, 48255.367, 0.0, 10.000698, 9.999261 
3.3503613e+2, 2.4518771e+2, -499549.9, -663026.5, 529.4113, -0.042517066, 0.05105308, -499548.2, 37617.1, 0.0, 10.000886, 9.998721 
3.3504337e+2, 2.5518647e+2, -374683.38, -552696.06, 1849.0697, -0.032813933, 0.05438318, -374664.16, 64513.01, 0.0, 10.001074, 9.998715 
3.350507e+2, 2.6518482e+2, -285287.03, -516633.34, 5363.366, -0.020807385, 0.042345818, -285162.75, 56029.492, 0.0, 10.001264, 9.9981985 
3.3505806e+2, 2.7518275e+2, -159617.66, -405895.25, 5632.5537, -0.006623401, 0.015254452, -159488.89, 83721.51, 0.0, 10.001456, 9.998194 
3.3506548e+2, 2.8518045e+2, -70401.414, -370955.75, 8785.932, 0.006387947, -0.005435022, -70144.8, 75085.65, 0.0, 10.001649, 9.997667 
3.350729e+2, 2.9517797e+2, 55768.348, -259482.5, 9634.164, 0.01825108, -0.020614821, 56062.496, 103314.81, 0.0, 10.001843, 9.997666 
3.3508042e+2, 3.0517527e+2, 163626.95, -137704.73, 12721.535, 0.03498383, -0.07693985, 164163.06, 164163.06, 0.0, 10.002056, 9.998064 
3.3508793e+2, 3.1517333e+2, 200209.63, -115233.8, 11125.961, 0.0501516, -0.07549684, 200601.56, 200601.56, 0.0, 10.002287, 9.998107 
3.449497e+2, 1.2518053e+2, -1875766.4, -1717977.5, -10721.534, -0.11972611, 0.18733141, -1717252.4, -4003.4963, 0.0, 9.998576, 10.000666 
3.4495747e+2, 1.3518122e+2, -1742418.4, -1603021.6, -10038.251, -0.09568182, 0.18884274, -1602302.4, 12939.689, 0.0, 9.998818, 10.000666 
3.4496495e+2, 1.4518173e+2, -1620985.5, -1505884.5, -16860.781, -0.080573596, 0.18075152, -1503465.5, 13770.795, 0.0, 9.999031, 10.000556 
3.449723e+2, 1.5518211e+2, -1495977.6, -1394831.9, -15230.943, -0.073643975, 0.16276814, -1392588.1, 26643.305, 0.0, 9.999217, 10.000557 
3.4497958e+2, 1.6518249e+2, -1379376.9, -1300560.3, -18555.041, -0.069494076, 0.14912698, -1296410.5, 24816.111, 0.0, 9.999399, 10.000443 
3.4498677e+2, 1.7518282e+2, -1255274.9, -1190059.0, -18697.953, -0.06789005, 0.1388416, -1185078.5, 38143.387, 0.0, 9.999578, 10.0004425 
3.4499386e+2, 1.8518302e+2, -1144377.0, -1105300.6, -23286.984, -0.065736525, 0.123502515, -1094441.0, 30777.32, 0.0, 9.99975, 10.000269 
3.4500092e+2, 1.9518307e+2, -1022558.56, -996299.4, -22598.037, -0.06310692, 0.102796, -983293.56, 43922.355, 0.0, 9.999916, 10.000264 
3.45008e+2, 2.0518295e+2, -926285.9, -940131.5, -19458.443, -0.059195016, 0.08237265, -912555.44, 16659.783, 0.0, 10.000081, 9.999898 
3.4501517e+2, 2.1518263e+2, -805069.25, -831969.4, -18996.645, -0.054087345, 0.061544042, -795243.2, 35973.016, 0.0, 10.000245, 9.999888 
3.4502235e+2, 2.2518207e+2, -725036.44, -814109.2, -13723.105, -0.05153353, 0.04861464, -722970.06, 10250.47, 0.0, 10.000429, 9.999249 
3.450296e+2, 2.3518126e+2, -597757.94, -702650.9, -14350.184, -0.051321484, 0.042344127, -595830.1, 39398.027, 0.0, 10.000633, 9.999244 
3.4503692e+2, 2.4518023e+2, -507535.03, -665284.06, -11467.247, -0.046428066, 0.042158835, -506705.8, 30531.924, 0.0, 10.000825, 9.998735 
3.4504437e+2, 2.5517902e+2, -383599.28, -555373.4, -11431.375, -0.037169814, 0.047013503, -382841.88, 56407.375, 0.0, 10.001005, 9.99873 
3.4505188e+2, 2.6517737e+2, -298429.03, -521488.2, -8673.739, -0.023418138, 0.034618184, -298092.25, 43171.906, 0.0, 10.001167, 9.998212 
3.4505945e+2, 2.751753e+2, -179792.27, -414090.16, -7586.661, -0.005445671, 0.0053837327, -179546.86, 63735.492, 0.0, 10.001311, 9.998207 
3.4506708e+2, 2.85173e+2, -94204.984, -381239.03, -3384.5583, 0.008629827, -0.015768912, -94165.08, 51137.3, 0.0, 10.001481, 9.997678 
3.4507468e+2, 2.9517058e+2, 32044.242, -269595.28, -3059.4607, 0.019013263, -0.029833466, 32075.27, 79399.48, 0.0, 10.001675, 9.997678 
3.450824e+2, 3.051679e+2, 145239.17, -138109.97, 994.13696, 0.036459234, -0.08608455, 145242.66, 145242.66, 0.0, 10.001894, 9.998139 
3.4509018e+2, 3.151661e+2, 183494.92, -114835.234, -1276.5983, 0.05387789, -0.08319027, 183500.38, 183500.38, 0.0, 10.002136, 9.998182 
3.5494828e+2, 1.251727e+2, -1873861.9, -1713668.4, -1663.6277, -0.12044554, 0.18379518, -1713651.0, -325.8412, 0.0, 9.998574, 10.000696 
3.5495624e+2, 1.3517338e+2, -1740416.8, -1598630.9, -998.079, -0.09696486, 0.18357645, -1598623.8, 16694.441, 0.0, 9.998817, 10.000696 
3.54964e+2, 1.4517397e+2, -1617706.5, -1498923.9, -9968.245, -0.08227982, 0.17576681, -1498093.1, 19218.77, 0.0, 9.999031, 10.000605 
3.5497153e+2, 1.551744e+2, -1492720.9, -1387956.6, -8316.402, -0.075601816, 0.15992561, -1387300.6, 32005.658, 0.0, 9.999216, 10.000605 
3.5497895e+2, 1.6517477e+2, -1379356.6, -1300452.3, -11844.599, -0.07150174, 0.14449248, -1298712.6, 22588.71, 0.0, 9.999398, 10.000444 
3.549863e+2, 1.7517507e+2, -1255183.0, -1189864.9, -11977.02, -0.06979455, 0.12875615, -1187738.0, 35559.203, 0.0, 9.999578, 10.000444 
3.5499355e+2, 1.8517528e+2, -1143073.5, -1102654.9, -17082.693, -0.06878385, 0.11305679, -1096402.3, 28891.305, 0.0, 9.99975, 10.000287 
3.5500076e+2, 1.951754e+2, -1021235.4, -993630.9, -16391.725, -0.06844538, 0.0967394, -986004.44, 41286.168, 0.0, 9.999916, 10.000283 
3.5500804e+2, 2.051753e+2, -925556.0, -938702.5, -13319.017, -0.06448721, 0.07812429, -917276.56, 12012.9795, 0.0, 10.000081, 9.9999075 
3.5501534e+2, 2.1517499e+2, -804333.1, -830541.06, -12841.617, -0.057154335, 0.056681756, -799089.9, 32200.484, 0.0, 10.000245, 9.999899 
3.5502276e+2, 2.251744e+2, -726379.5, -816981.2, -6082.891, -0.05308968, 0.04075933, -725972.94, 7322.0215, 0.0, 10.000429, 9.999229 
3.550302e+2, 2.3517351e+2, -599089.9, -705454.3, -6735.0513, -0.052043643, 0.029324817, -598665.1, 36638.043, 0.0, 10.000633, 9.999225 
3.5503775e+2, 2.4517249e+2, -507761.06, -665744.3, -4707.5913, -0.04729387, 0.029268205, -507620.9, 29691.95, 0.0, 10.000825, 9.998733 
3.5504535e+2, 2.551713e+2, -383799.88, -555737.7, -4710.936, -0.039084796, 0.03917937, -383670.9, 55653.117, 0.0, 10.001005, 9.998728 
3.5505304e+2, 2.6516968e+2, -296835.25, -518109.47, -3306.6963, -0.024811488, 0.028369369, -296785.84, 44552.793, 0.0, 10.001166, 9.998236 
3.5506076e+2, 2.751676e+2, -178193.0, -410703.34, -2204.577, -0.004833416, -0.0025526094, -178172.11, 65184.508, 0.0, 10.00131, 9.99823 
3.5506853e+2, 2.851653e+2, -94112.16, -380931.1, 3866.8115, 0.009828423, -0.026017928, -94060.03, 51316.7, 0.0, 10.00148, 9.997681 
3.5507634e+2, 2.9516286e+2, 32163.006, -269125.66, 4234.719, 0.019454611, -0.042952962, 32222.516, 79621.46, 0.0, 10.001674, 9.997682 
3.5508433e+2, 3.0516025e+2, 149664.42, -128561.32, 10062.233, 0.03835141, -0.09707412, 150027.86, 150027.86, 0.0, 10.001892, 9.998206 
3.5509235e+2, 3.1515858e+2, 187854.58, -105249.55, 7733.336, 0.05880036, -0.08486204, 188058.48, 188058.48, 0.0, 10.002133, 9.99825 
3.6494684e+2, 1.2516464e+2, -1874584.8, -1712943.3, -6590.063, -0.122009166, 0.17535523, -1712675.0, 728.5065, 0.0, 9.998565, 10.000706 
3.6495504e+2, 1.3516533e+2, -1745453.0, -1599944.0, -7598.0747, -0.09787997, 0.17449823, -1599548.4, 15848.146, 0.0, 9.998778, 10.000706 
3.64963e+2, 1.4516594e+2, -1624499.9, -1498629.9, -19929.588, -0.08373538, 0.16827528, -1495549.6, 21840.15, 0.0, 9.998969, 10.000636 
3.6497068e+2, 1.5516646e+2, -1501770.6, -1388727.6, -19556.842, -0.078706436, 0.15609723, -1385439.9, 33943.67, 0.0, 9.999139, 10.000636 
3.6497828e+2, 1.6516685e+2, -1390879.9, -1302645.1, -22817.938, -0.07488031, 0.14022088, -1297093.5, 24284.816, 0.0, 9.999305, 10.000474 
3.6498582e+2, 1.7516713e+2, -1269108.5, -1193250.1, -20775.441, -0.07218627, 0.120198555, -1187933.0, 35441.25, 0.0, 9.999468, 10.000474 
3.6499324e+2, 1.8516733e+2, -1157239.4, -1109429.1, -25049.139, -0.07144709, 0.10312707, -1098709.0, 26661.621, 0.0, 9.999653, 10.000287 
3.650006e+2, 1.9516747e+2, -1029633.7, -997620.9, -25740.965, -0.072546974, 0.08815549, -983315.5, 44051.96, 0.0, 9.999859, 10.000283 
3.6500806e+2, 2.0516738e+2, -929420.94, -941259.3, -24223.012, -0.06937751, 0.07102276, -910404.4, 18961.936, 0.0, 10.000057, 9.999902 
3.6501557e+2, 2.1516709e+2, -803886.25, -830978.56, -24991.176, -0.062219378, 0.05119451, -789006.06, 42361.01, 0.0, 10.000251, 9.999892 
3.6502317e+2, 2.2516645e+2, -728121.75, -818572.0, -18443.6, -0.056594662, 0.03349794, -724505.5, 8866.278, 0.0, 10.000421, 9.999223 
3.6503083e+2, 2.3516552e+2, -608922.3, -710925.7, -18170.95, -0.052376922, 0.017141033, -605782.0, 29598.357, 0.0, 10.000568, 9.999218 
3.6503854e+2, 2.4516447e+2, -522903.84, -674685.94, -16179.412, -0.045958217, 0.015883574, -521198.34, 16191.899, 0.0, 10.000728, 9.998717 
3.6504632e+2, 2.551633e+2, -400457.44, -565332.6, -17115.896, -0.0374834, 0.028092457, -398699.38, 40702.05, 0.0, 10.000897, 9.9987135 
3.6505413e+2, 2.651617e+2, -310419.16, -523938.25, -17375.752, -0.023960365, 0.018825395, -309014.4, 32401.57, 0.0, 10.00107, 9.998241 
3.6506203e+2, 2.7515963e+2, -187075.31, -414222.3, -17600.326, -0.0056790235, -0.011296342, -185719.66, 57714.12, 0.0, 10.001246, 9.998237 
3.6507e+2, 2.8515735e+2, -104267.02, -384611.4, -11587.845, 0.008599642, -0.0357485, -103788.87, 41665.016, 0.0, 10.001405, 9.997691 
3.6507794e+2, 2.9515484e+2, 14701.738, -276250.03, -10637.294, 0.019074496, -0.055342816, 15090.123, 62566.36, 0.0, 10.001548, 9.997693 
3.650861e+2, 3.051523e+2, 125300.37, -135872.48, -4167.2314, 0.040398177, -0.10863794, 125366.84, 125366.84, 0.0, 10.001706, 9.998245 
3.650944e+2, 3.151507e+2, 153345.11, -117348.0, -8531.899, 0.06428892, -0.08994413, 153613.77, 153613.77, 0.0, 10.001877, 9.99829 
3.7494537e+2, 1.2515634e+2, -1875656.3, -1714917.5, 1360.1003, -0.12448567, 0.16189457, -1714906.0, -1422.2813, 0.0, 9.998564, 10.000693 
3.749538e+2, 1.3515705e+2, -1746456.6, -1601835.1, 326.7217, -0.098456405, 0.16151968, -1601834.4, 13642.458, 0.0, 9.998777, 10.000693 
3.749619e+2, 1.4515767e+2, -1623590.4, -1496604.1, -13627.364, -0.084961556, 0.15821813, -1495158.3, 22311.793, 0.0, 9.998968, 10.00065 
3.7496975e+2, 1.5515825e+2, -1500772.0, -1386558.5, -13240.307, -0.08298968, 0.15125366, -1385043.6, 34419.715, 0.0, 9.999138, 10.000651 
3.749775e+2, 1.6515869e+2, -1386817.0, -1294162.0, -16726.17, -0.07965951, 0.13629816, -1291235.1, 30222.588, 0.0, 9.999305, 10.000533 
3.7498522e+2, 1.7515899e+2, -1265091.8, -1184917.5, -14637.606, -0.075081006, 0.11315687, -1182328.6, 41124.348, 0.0, 9.999468, 10.000531 
3.7499288e+2, 1.8515919e+2, -1158492.4, -1112084.1, -17352.152, -0.07373501, 0.09370446, -1106313.6, 19135.73, 0.0, 9.999653, 10.000269 
3.7500042e+2, 1.951593e+2, -1030866.5, -1000257.7, -18042.766, -0.075420395, 0.07703894, -991902.7, 35543.973, 0.0, 9.999859, 10.000265 
3.7500805e+2, 2.0515922e+2, -930995.5, -944612.5, -16962.338, -0.07386796, 0.06106191, -919526.25, 9919.442, 0.0, 10.000058, 9.999878 
3.7501574e+2, 2.1515892e+2, -805396.7, -834206.75, -17761.463, -0.06927165, 0.045072388, -796933.1, 34513.227, 0.0, 10.000251, 9.99987 
3.7502348e+2, 2.2515827e+2, -727703.2, -817805.7, -12892.256, -0.06204353, 0.026817573, -725894.8, 7556.2627, 0.0, 10.000422, 9.9992285 
3.7503138e+2, 2.351573e+2, -608527.5, -710202.3, -12619.12, -0.052337714, 0.0057727434, -606984.75, 28474.957, 0.0, 10.000569, 9.999223 
3.750393e+2, 2.4515621e+2, -524787.06, -678662.4, -9812.14, -0.04246425, 0.0020069606, -524163.9, 13305.918, 0.0, 10.000728, 9.99869 
3.7504727e+2, 2.5515503e+2, -402330.97, -569237.1, -10753.676, -0.03244101, 0.01380961, -401640.97, 37840.496, 0.0, 10.000897, 9.998687 
3.7505522e+2, 2.651534e+2, -311271.97, -525673.3, -10758.701, -0.020914298, 0.0060410458, -310733.44, 30762.68, 0.0, 10.00107, 9.99823 
3.7506327e+2, 2.7515137e+2, -187908.86, -415862.8, -11016.991, -0.007952919, -0.020848684, -187377.64, 56136.145, 0.0, 10.0012455, 9.998226 
3.7507135e+2, 2.8514907e+2, -103147.06, -382137.13, -6216.709, 0.004987764, -0.044993408, -103008.61, 42525.168, 0.0, 10.001405, 9.997708 
3.750795e+2, 2.9514658e+2, 15770.308, -273794.0, -5252.5903, 0.017873699, -0.067046754, 15865.557, 63421.594, 0.0, 10.001547, 9.99771 
3.7508786e+2, 3.05144e+2, 125910.305, -134259.23, 2285.194, 0.042564265, -0.12077654, 125930.375, 125930.375, 0.0, 10.001704, 9.998258 
3.7509635e+2, 3.1514248e+2, 153910.92, -115634.08, -2025.9775, 0.07024872, -0.09819519, 153926.16, 153926.16, 0.0, 10.001875, 9.998303 
3.8494396e+2, 1.2514795e+2, -1859044.8, -1708345.4, -2579.2798, -0.12694992, 0.15144385, -1708301.3, 5263.7188, 0.0, 9.998684, 10.00068 
3.8495257e+2, 1.351486e+2, -1745014.8, -1602542.0, -3678.4504, -0.098715425, 0.14979723, -1602447.0, 13111.307, 0.0, 9.998794, 10.000681 
3.849609e+2, 1.4514925e+2, -1629169.4, -1498514.1, -17925.924, -0.085439794, 0.14692868, -1496099.4, 21452.258, 0.0, 9.998926, 10.000657 
3.8496885e+2, 1.5514986e+2, -1508227.8, -1389309.8, -18156.863, -0.08602351, 0.14199984, -1386599.3, 32945.555, 0.0, 9.9990835, 10.000659 
3.8497674e+2, 1.6515034e+2, -1392705.5, -1292717.8, -22665.963, -0.08397505, 0.1286745, -1287819.6, 33719.24, 0.0, 9.999246, 10.000571 
3.849846e+2, 1.7515069e+2, -1270352.5, -1183227.8, -22132.691, -0.07949494, 0.10677839, -1177927.8, 45605.816, 0.0, 9.999414, 10.000568 
3.8499245e+2, 1.8515089e+2, -1166237.5, -1116212.9, -23590.783, -0.07758473, 0.08630442, -1106843.0, 18686.77, 0.0, 9.999602, 10.000265 
3.8500026e+2, 1.9515097e+2, -1038421.7, -1004319.1, -23230.283, -0.0780742, 0.06647423, -992553.9, 34973.47, 0.0, 9.999808, 10.000261 
3.8500807e+2, 2.0515084e+2, -938869.94, -951911.9, -22081.664, -0.07633038, 0.04957459, -922366.5, 7160.125, 0.0, 10.000019, 9.999846 
3.8501593e+2, 2.1515055e+2, -810304.8, -840002.3, -23594.293, -0.072468154, 0.034783978, -797275.7, 34251.9, 0.0, 10.000233, 9.99984 
3.850239e+2, 2.2514988e+2, -729687.9, -819696.8, -21674.686, -0.064836055, 0.0167467, -724740.44, 8791.986, 0.0, 10.000412, 9.99922 
3.850319e+2, 2.3514888e+2, -610628.2, -712146.8, -22473.205, -0.053677004, -0.0050141937, -605875.8, 29665.252, 0.0, 10.000559, 9.999214 
3.8504001e+2, 2.4514776e+2, -530108.1, -683955.25, -19773.848, -0.041967925, -0.0099422205, -527607.25, 9944.114, 0.0, 10.000703, 9.998666 
3.8504815e+2, 2.5514653e+2, -411549.28, -576358.3, -20562.916, -0.02973833, 0.00033725743, -409022.44, 30540.93, 0.0, 10.000846, 9.998663 
3.8505632e+2, 2.6514488e+2, -322532.03, -533081.25, -20133.152, -0.01795659, -0.0076794866, -320624.16, 20954.158, 0.0, 10.001001, 9.998212 
3.8506448e+2, 2.7514285e+2, -200192.67, -423669.22, -20937.959, -0.0065775625, -0.033671916, -198247.88, 45348.215, 0.0, 10.00117, 9.998209 
3.8507268e+2, 2.8514057e+2, -116105.7, -386096.34, -18086.373, 0.0056111747, -0.05711566, -114899.51, 30716.463, 0.0, 10.001306, 9.997728 
3.8508096e+2, 2.951381e+2, -2545.164, -280294.7, -16969.031, 0.018531509, -0.07867289, -1512.2869, 46125.605, 0.0, 10.001411, 9.997731 
3.850895e+2, 3.0513552e+2, 100658.94, -142558.53, -8075.2275, 0.044238035, -0.13449906, 100926.76, 100926.76, 0.0, 10.001514, 9.998292 
3.850981e+2, 3.1513402e+2, 118578.87, -128706.48, -10726.137, 0.07344067, -0.11438727, 119043.24, 119043.24, 0.0, 10.001615, 9.998338 
3.9494258e+2, 1.2513945e+2, -1860065.9, -1710442.6, 1418.6223, -0.1294429, 0.14405961, -1710429.3, 3218.0435, 0.0, 9.998683, 10.000666 
3.9495137e+2, 1.3514008e+2, -1746072.0, -1604642.3, 345.29788, -0.0986702, 0.13934495, -1604641.4, 10999.57, 0.0, 9.998793, 10.000667 
3.9495978e+2, 1.4514068e+2, -1629385.9, -1498840.5, -12105.816, -0.08517577, 0.13438267, -1497727.5, 19907.076, 0.0, 9.998926, 10.000655 
3.9496788e+2, 1.5514126e+2, -1508394.5, -1389579.6, -12317.55, -0.08780822, 0.12827945, -1388316.0, 31311.994, 0.0, 9.999083, 10.000657 
3.9497596e+2, 1.6514179e+2, -1391571.8, -1290334.0, -16389.736, -0.08782867, 0.11729661, -1287746.6, 33875.11, 0.0, 9.999246, 10.000587 
3.9498398e+2, 1.7514221e+2, -1269174.3, -1180806.4, -15826.884, -0.08544058, 0.10105009, -1178057.4, 45558.555, 0.0, 9.9994135, 10.000586 
3.94992e+2, 1.8514243e+2, -1165518.1, -1114778.5, -15846.382, -0.08301168, 0.080931485, -1110236.1, 15375.625, 0.0, 9.999602, 10.000276 
3.9500004e+2, 1.9514246e+2, -1037720.06, -1002943.1, -15465.814, -0.080517374, 0.056457862, -997060.3, 30549.242, 0.0, 9.999809, 10.000271 
3.950081e+2, 2.051423e+2, -941687.7, -957853.06, -14058.929, -0.07677996, 0.03656497, -933553.6, -3944.3608, 0.0, 10.000019, 9.999806 
3.9501616e+2, 2.1514194e+2, -813083.75, -845862.3, -15600.474, -0.07184317, 0.020358171, -806846.0, 24764.781, 0.0, 10.000233, 9.9998 
3.950243e+2, 2.2514127e+2, -731245.0, -823035.3, -16135.185, -0.0649936, 0.003304657, -728491.3, 5124.5425, 0.0, 10.000412, 9.999197 
3.9503247e+2, 2.3514028e+2, -612152.94, -715431.8, -16943.68, -0.056373555, -0.015240447, -609444.25, 26180.104, 0.0, 10.000559, 9.999192 
3.950407e+2, 2.4513914e+2, -531646.9, -687271.06, -14402.716, -0.04442978, -0.019995354, -530325.2, 7309.6094, 0.0, 10.000704, 9.998643 
3.95049e+2, 2.5513786e+2, -413093.6, -579651.8, -15189.554, -0.029339403, -0.012341522, -411719.72, 27927.445, 0.0, 10.000846, 9.99864 
3.9505735e+2, 2.6513618e+2, -324291.47, -536746.44, -13765.97, -0.015103856, -0.022314977, -323403.22, 18259.268, 0.0, 10.001001, 9.998187 
3.950657e+2, 2.7513406e+2, -201975.17, -427242.75, -14596.98, -0.0016676183, -0.049684737, -201033.25, 42647.44, 0.0, 10.001169, 9.998185 
3.9507407e+2, 2.851318e+2, -114738.26, -383030.8, -14057.413, 0.010339665, -0.072048806, -114003.72, 31696.74, 0.0, 10.001305, 9.99775 
3.9508238e+2, 2.951294e+2, -1180.151, -277161.53, -12956.116, 0.020979565, -0.09023936, -573.25275, 47148.547, 0.0, 10.00141, 9.997753 
3.95091e+2, 3.0512685e+2, 104243.95, -134738.53, -4208.5444, 0.045410592, -0.14974216, 104318.05, 104318.05, 0.0, 10.001513, 9.998346 
3.9509973e+2, 3.1512532e+2, 122076.69, -120879.47, -6740.213, 0.073885664, -0.13797691, 122263.54, 122263.54, 0.0, 10.001613, 9.998393 
4.0494138e+2, 1.2513085e+2, -1841461.6, -1701930.3, -3607.8965, -0.1285339, 0.136224, -1701837.0, 11893.784, 0.0, 9.998814, 10.000662 
4.049502e+2, 1.3513145e+2, -1740525.9, -1602415.0, -3957.5999, -0.09876939, 0.13063887, -1602301.6, 13422.862, 0.0, 9.998833, 10.000663 
4.049587e+2, 1.4513205e+2, -1630371.9, -1498002.5, -12439.246, -0.085848525, 0.124055386, -1496843.6, 20874.422, 0.0, 9.998914, 10.000667 
4.0496695e+2, 1.5513264e+2, -1511859.6, -1389969.5, -11683.937, -0.088724166, 0.11560617, -1388859.6, 30852.012, 0.0, 9.999054, 10.000669 
4.0497515e+2, 1.6513313e+2, -1395739.5, -1293068.8, -15039.062, -0.08952234, 0.10478337, -1290911.3, 30794.242, 0.0, 9.99922, 10.000581 
4.0498337e+2, 1.7513357e+2, -1269882.1, -1181845.1, -16270.946, -0.088420294, 0.09106045, -1178934.1, 44765.305, 0.0, 9.999413, 10.000579 
4.0499157e+2, 1.8513381e+2, -1163945.0, -1113799.4, -16519.268, -0.08621625, 0.07187521, -1108846.6, 16848.668, 0.0, 9.999612, 10.000277 
4.0499982e+2, 1.9513384e+2, -1036095.75, -1001958.2, -16812.291, -0.08294469, 0.046839006, -995068.75, 32624.203, 0.0, 9.99982, 10.000272 
4.0500808e+2, 2.0513363e+2, -943896.3, -962399.06, -15540.682, -0.077971175, 0.025290942, -935061.75, -5368.88, 0.0, 10.000019, 9.999775 
4.050164e+2, 2.1513322e+2, -818291.9, -851821.9, -16438.889, -0.07135156, 0.0063947416, -811577.06, 20117.9, 0.0, 10.000212, 9.999768 
4.050247e+2, 2.2513251e+2, -735779.94, -829197.6, -18636.09, -0.06419546, -0.01091489, -732199.44, 1500.9337, 0.0, 10.000398, 9.999161 
4.0503302e+2, 2.3513152e+2, -611893.06, -719242.3, -20478.592, -0.05656864, -0.027415784, -608119.1, 27589.895, 0.0, 10.000578, 9.999156 
4.0504143e+2, 2.4513035e+2, -530042.3, -689905.5, -19862.111, -0.044633105, -0.03159733, -527611.5, 10108.2, 0.0, 10.00073, 9.998611 
4.0504986e+2, 2.5512904e+2, -414008.22, -583436.6, -21296.295, -0.028612074, -0.02471768, -411372.4, 28360.0, 0.0, 10.0008545, 9.99861 
4.0505835e+2, 2.651273e+2, -329575.6, -539450.3, -19297.385, -0.012880404, -0.036204025, -327816.0, 13931.97, 0.0, 10.000966, 9.998185 
4.0506688e+2, 2.7512518e+2, -217182.56, -434652.9, -18476.604, 0.0025826765, -0.0658389, -215623.94, 28142.396, 0.0, 10.001065, 9.998184 
4.050753e+2, 2.8512296e+2, -134535.16, -389771.2, -18448.72, 0.014663042, -0.08820637, -133208.56, 12577.391, 0.0, 10.001157, 9.997775 
4.0508375e+2, 2.9512054e+2, -23940.732, -285244.34, -17196.496, 0.02353523, -0.10427312, -22813.885, 24992.979, 0.0, 10.001241, 9.997779 
4.0509245e+2, 3.0511805e+2, 79331.55, -138263.39, -8403.826, 0.04751658, -0.16639438, 79655.625, 79655.625, 0.0, 10.001305, 9.998422 
4.0510124e+2, 3.1511652e+2, 89168.61, -128219.484, -9345.208, 0.076469846, -0.16001341, 89569.6, 89569.6, 0.0, 10.001349, 9.998469 
4.149402e+2, 1.2512214e+2, -1841087.9, -1701237.0, -3008.863, -0.12417257, 0.12791373, -1701172.3, 12643.107, 0.0, 9.998814, 10.000667 
4.14949e+2, 1.3512276e+2, -1740213.4, -1601752.9, -3301.7866, -0.09902111, 0.123695105, -1601674.3, 14134.669, 0.0, 9.998833, 10.000668 
4.1495758e+2, 1.4512335e+2, -1628759.3, -1494566.4, -7238.4736, -0.08749026, 0.115971655, -1494177.1, 23625.184, 0.0, 9.998913, 10.000691 
4.1496602e+2, 1.5512393e+2, -1510278.9, -1386639.4, -6450.1216, -0.08877642, 0.10398589, -1386303.8, 33492.0, 0.0, 9.999053, 10.000691 
4.149744e+2, 1.6512442e+2, -1397961.4, -1297669.9, -7851.684, -0.08904683, 0.09112478, -1297058.9, 24730.818, 0.0, 9.99922, 10.000549 
4.149828e+2, 1.7512482e+2, -1272044.3, -1186372.6, -9076.56, -0.08842587, 0.07678727, -1185421.6, 38362.652, 0.0, 9.999413, 10.000548 
4.1499117e+2, 1.8512505e+2, -1164438.4, -1114889.8, -8759.683, -0.08719345, 0.059113633, -1113386.8, 12393.413, 0.0, 9.999612, 10.00027 
4.149996e+2, 1.951251e+2, -1036574.4, -1003034.06, -9043.164, -0.08535576, 0.03760746, -1000751.2, 27026.313, 0.0, 9.99982, 10.000265 
4.150081e+2, 2.051249e+2, -945444.4, -965726.9, -8303.852, -0.07990651, 0.01575147, -942478.44, -12700.921, 0.0, 10.00002, 9.999752 
4.150166e+2, 2.151244e+2, -819833.56, -855153.7, -9192.591, -0.070995875, -0.0071055796, -817584.3, 14195.747, 0.0, 10.000213, 9.999745 
4.1502512e+2, 2.2512364e+2, -739168.94, -836370.06, -11853.465, -0.062456697, -0.025901683, -737744.3, -3958.4, 0.0, 10.000399, 9.999112 
4.1503364e+2, 2.351226e+2, -615276.0, -726370.5, -13717.444, -0.05430297, -0.041508097, -613607.25, 22187.754, 0.0, 10.000578, 9.999107 
4.1504213e+2, 2.451214e+2, -532759.0, -695634.1, -15134.348, -0.0426158, -0.044721115, -531364.7, 6441.4253, 0.0, 10.00073, 9.998572 
4.1505072e+2, 2.5512007e+2, -416689.13, -589053.9, -16579.525, -0.027564628, -0.036795016, -415108.84, 24710.27, 0.0, 10.0008545, 9.998571 
4.1505933e+2, 2.6511833e+2, -328153.66, -536516.9, -15498.294, -0.011280745, -0.049353745, -327007.2, 14827.595, 0.0, 10.000965, 9.998205 
4.1506797e+2, 2.7511618e+2, -215780.23, -431696.25, -14682.695, 0.006178835, -0.08211883, -214786.36, 29066.684, 0.0, 10.001064, 9.998204 
4.150765e+2, 2.8511396e+2, -132743.17, -385930.28, -15184.268, 0.01857962, -0.10553876, -131835.78, 14036.699, 0.0, 10.001156, 9.997802 
4.1508502e+2, 2.951116e+2, -22163.07, -281323.7, -13966.915, 0.026181372, -0.12067977, -21412.525, 26480.584, 0.0, 10.00124, 9.997807 
4.1509375e+2, 3.0510914e+2, 85741.87, -124648.56, -6621.2383, 0.050491232, -0.18439777, 85950.04, 85950.04, 0.0, 10.001304, 9.998516 
4.1510263e+2, 3.151077e+2, 95496.78, -114618.46, -7444.04, 0.08101953, -0.18038702, 95760.18, 95760.18, 0.0, 10.001348, 9.998564 
4.2493913e+2, 1.2511341e+2, -1831972.0, -1698151.0, -797.98865, -0.11828562, 0.11675152, -1698146.3, 15753.714, 0.0, 9.998881, 10.000654 
4.249479e+2, 1.3511404e+2, -1733830.8, -1599997.5, -2372.3208, -0.09819532, 0.11505763, -1599955.4, 15937.923, 0.0, 9.998882, 10.000655 
4.249565e+2, 1.4511466e+2, -1622195.9, -1490392.8, -2675.83, -0.088895135, 0.10776106, -1490338.5, 27548.223, 0.0, 9.998954, 10.0007 
4.2496505e+2, 1.5511522e+2, -1503706.4, -1382521.1, -3072.197, -0.089799285, 0.09418485, -1382443.4, 37436.723, 0.0, 9.999095, 10.0007 
4.2497364e+2, 1.6511568e+2, -1393873.9, -1298013.4, -2853.9087, -0.08906731, 0.0792186, -1297928.5, 23945.652, 0.0, 9.999258, 10.000528 
4.2498222e+2, 1.7511603e+2, -1268858.8, -1187168.3, -3319.3052, -0.08684342, 0.06227496, -1187033.6, 36835.453, 0.0, 9.999444, 10.000526 
4.249908e+2, 1.8511625e+2, -1161041.8, -1117286.0, -2675.735, -0.08545149, 0.04478449, -1117123.0, 8742.286, 0.0, 9.999653, 10.000234 
4.2499945e+2, 1.9511628e+2, -1029828.4, -1003788.9, -5204.558, -0.08483298, 0.026120337, -1002787.2, 25075.623, 0.0, 9.999884, 10.000229 
4.2500812e+2, 2.0511605e+2, -936826.56, -964963.3, -6900.583, -0.080200344, 0.0047870134, -935225.3, -5362.257, 0.0, 10.000093, 9.999722 
4.2501685e+2, 2.151155e+2, -811486.1, -854492.9, -8429.586, -0.071718134, -0.019765373, -809892.9, 21973.057, 0.0, 10.000284, 9.999715 
4.2502555e+2, 2.251147e+2, -734244.75, -838078.5, -12101.014, -0.062165443, -0.039382007, -732853.1, 1019.0322, 0.0, 10.00045, 9.999075 
4.2503422e+2, 2.3511362e+2, -615882.75, -730713.44, -13103.767, -0.051604237, -0.054943673, -614406.44, 21475.21, 0.0, 10.000592, 9.999071 
4.250429e+2, 2.4511237e+2, -536602.3, -700714.1, -15332.898, -0.03907965, -0.05868993, -535182.06, 2711.0186, 0.0, 10.000717, 9.998544 
4.2505157e+2, 2.5511098e+2, -422570.9, -595052.0, -16094.688, -0.024682399, -0.051846184, -421081.9, 18824.584, 0.0, 10.000828, 9.998543 
4.2506027e+2, 2.6510924e+2, -333328.34, -536815.8, -15810.35, -0.008819493, -0.064494446, -332107.28, 9814.913, 0.0, 10.00092, 9.998225 
4.25069e+2, 2.7510715e+2, -224168.16, -433515.47, -15132.663, 0.008430654, -0.096427575, -223079.94, 20860.176, 0.0, 10.000998, 9.998224 
4.2507765e+2, 2.8510496e+2, -144501.92, -387994.1, -16326.919, 0.02066922, -0.12024336, -143412.03, 2547.267, 0.0, 10.00106, 9.997834 
4.250862e+2, 2.951026e+2, -39108.74, -285879.0, -14836.703, 0.028166633, -0.13697378, -38219.906, 9759.857, 0.0, 10.001108, 9.997839 
4.25095e+2, 3.051002e+2, 65167.027, -127582.25, -10152.81, 0.05296286, -0.20087907, 65700.336, 65700.336, 0.0, 10.001132, 9.998578 
4.2510387e+2, 3.1509882e+2, 68790.664, -120446.086, -13255.736, 0.08431687, -0.19426928, 69714.695, 69714.695, 0.0, 10.001134, 9.998627 
4.3493807e+2, 1.251047e+2, -1834083.1, -1702576.4, -846.20135, -0.11086792, 0.10265494, -1702570.9, 11413.38, 0.0, 9.998881, 10.000625 
4.3494678e+2, 1.3510533e+2, -1735964.1, -1604446.5, -2384.4578, -0.09628783, 0.104664095, -1604403.3, 11574.631, 0.0, 9.998882, 10.000625 
4.3495545e+2, 1.4510594e+2, -1622771.6, -1491557.0, 2572.0837, -0.090074524, 0.099395484, -1491506.6, 26464.605, 0.0, 9.998954, 10.000692 
4.3496415e+2, 1.551065e+2, -1504268.5, -1383703.6, 2183.3015, -0.091819115, 0.08621101, -1383664.1, 36300.395, 0.0, 9.999094, 10.000691 
4.3497288e+2, 1.6510694e+2, -1394666.0, -1299701.1, 4111.5107, -0.08960738, 0.06908036, -1299523.5, 22435.287, 0.0, 9.999258, 10.000517 
4.349817e+2, 1.7510723e+2, -1269675.8, -1188931.3, 3665.2468, -0.083678536, 0.0475182, -1188765.3, 35188.797, 0.0, 9.999445, 10.000515 
4.349905e+2, 1.8510738e+2, -1165673.5, -1126966.3, 5951.8667, -0.08098948, 0.028878113, -1126071.8, -121.01169, 0.0, 9.999654, 10.000167 
4.3499935e+2, 1.9510737e+2, -1034412.06, -1013386.5, 3419.1245, -0.08138096, 0.012380111, -1012844.44, 15104.371, 0.0, 9.999884, 10.000163 
4.3500823e+2, 2.0510711e+2, -939520.06, -970674.4, 258.0487, -0.07885458, -0.0075977584, -939517.9, -9568.404, 0.0, 10.000093, 9.999682 
4.350171e+2, 2.1510653e+2, -814124.9, -860101.94, -1267.0302, -0.07350803, -0.03158744, -814090.0, 17862.646, 0.0, 10.000285, 9.999677 
4.3502596e+2, 2.251057e+2, -735946.75, -841758.4, -6764.321, -0.063315265, -0.051358532, -735516.06, -1556.9209, 0.0, 10.00045, 9.999049 
4.3503484e+2, 2.3510459e+2, -617575.6, -734361.44, -7767.675, -0.04848565, -0.06771717, -617061.25, 18907.627, 0.0, 10.000592, 9.999045 
4.3504366e+2, 2.451033e+2, -537940.7, -703612.2, -11150.073, -0.034053814, -0.073470145, -537193.6, 787.0444, 0.0, 10.000718, 9.998524 
4.3505245e+2, 2.5510186e+2, -423920.97, -597922.94, -11912.468, -0.020008639, -0.06979036, -423109.22, 16885.367, 0.0, 10.000828, 9.998524 
4.3506122e+2, 2.6510012e+2, -332086.78, -534265.4, -12849.927, -0.0055189496, -0.08157322, -331273.34, 10736.88, 0.0, 10.00092, 9.998242 
4.3507e+2, 2.750981e+2, -222960.78, -430967.22, -12182.261, 0.009370495, -0.10881222, -222249.73, 21777.844, 0.0, 10.000998, 9.998242 
4.350787e+2, 2.8509593e+2, -142042.67, -382800.5, -14421.074, 0.020973017, -0.13237627, -141181.95, 4864.5063, 0.0, 10.00106, 9.99787 
4.3508732e+2, 2.9509357e+2, -36720.67, -280783.28, -12959.221, 0.029497992, -0.15313323, -36034.492, 12032.378, 0.0, 10.001107, 9.997874 
4.3509614e+2, 3.0509117e+2, 67171.984, -123324.445, -9966.379, 0.054932445, -0.21588859, 67691.984, 67691.984, 0.0, 10.001131, 9.998608 
4.3510506e+2, 3.1508994e+2, 70914.984, -116021.664, -12936.726, 0.086359374, -0.20181258, 71806.01, 71806.01, 0.0, 10.001134, 9.998657 
4.4493702e+2, 1.2509605e+2, -1831554.4, -1704566.3, 2615.8782, -0.10570671, 0.09322819, -1704512.4, 9555.677, 0.0, 9.998913, 10.000595 
4.4494572e+2, 1.3509667e+2, -1730485.9, -1605050.3, 1170.0432, -0.09376621, 0.09511932, -1605039.4, 11022.553, 0.0, 9.998934, 10.000596 
4.4495443e+2, 1.4509724e+2, -1614130.1, -1490914.8, 10558.772, -0.08931754, 0.089611374, -1490016.5, 28039.086, 0.0, 9.999028, 10.00066 
4.4496325e+2, 1.5509777e+2, -1492061.0, -1381364.5, 8323.391, -0.09206378, 0.07603909, -1380742.3, 39306.992, 0.0, 9.999194, 10.00066 
4.449722e+2, 1.6509816e+2, -1380383.9, -1296451.5, 9841.435, -0.0894104, 0.05844158, -1295313.0, 26730.654, 0.0, 9.9993725, 10.000484 
4.449812e+2, 1.7509842e+2, -1254698.4, -1185375.5, 7764.47, -0.08164915, 0.03633755, -1184516.4, 39522.754, 0.0, 9.999563, 10.000482 
4.4499028e+2, 1.8509851e+2, -1153930.4, -1128411.8, 10516.693, -0.07794002, 0.016664295, -1124636.3, 1400.173, 0.0, 9.999764, 10.000103 
4.4499934e+2, 1.9509843e+2, -1025472.7, -1016125.9, 8133.0693, -0.078092255, -0.001358294, -1011419.1, 16616.2, 0.0, 9.999975, 10.000099 
4.450084e+2, 2.0509808e+2, -930763.5, -970738.44, 3783.3225, -0.07626486, -0.021965604, -930408.56, -372.08847, 0.0, 10.000173, 9.999643 
4.4501743e+2, 2.1509749e+2, -806375.0, -860581.06, 2244.4482, -0.0724984, -0.045725748, -806282.25, 25757.705, 0.0, 10.000357, 9.999639 
4.4502646e+2, 2.2509663e+2, -729137.0, -841223.56, -5316.8, -0.06258114, -0.06519172, -728885.3, 5161.3457, 0.0, 10.000509, 9.999024 
4.4503546e+2, 2.3509549e+2, -613366.2, -735015.44, -6348.7236, -0.046762228, -0.08115613, -613035.75, 23020.867, 0.0, 10.000633, 9.999022 
4.450444e+2, 2.450942e+2, -535840.9, -702589.1, -10483.655, -0.0316874, -0.08755923, -535184.3, 2884.287, 0.0, 10.000732, 9.998524 
4.4505328e+2, 2.5509274e+2, -426743.38, -599260.94, -9831.74, -0.017327163, -0.08550121, -426184.88, 13897.724, 0.0, 10.000809, 9.998524 
4.4506213e+2, 2.65091e+2, -338990.78, -536948.56, -11679.703, -0.003040896, -0.09643912, -338304.03, 3794.1428, 0.0, 10.000871, 9.998248 
4.4507098e+2, 2.7508903e+2, -233902.06, -435576.63, -11977.856, 0.01113553, -0.12049573, -233193.17, 10922.174, 0.0, 10.000919, 9.998248 
4.450797e+2, 2.8508684e+2, -152378.2, -382902.97, -14986.32, 0.022532953, -0.14403045, -151408.03, -5274.067, 0.0, 10.000967, 9.997913 
4.4508842e+2, 2.9508454e+2, -47228.117, -281077.44, -13085.511, 0.03134818, -0.16783988, -46498.17, 1655.9149, 0.0, 10.001015, 9.997917 
4.4509724e+2, 3.0508214e+2, 56969.23, -128444.77, -11882.741, 0.055921357, -0.23037806, 57727.664, 57727.664, 0.0, 10.001062, 9.998606 
4.4510615e+2, 3.1508097e+2, 67580.625, -117700.19, -17119.416, 0.085234985, -0.21178281, 69149.13, 69149.13, 0.0, 10.001111, 9.998656 
4.5493594e+2, 1.2508751e+2, -1833605.5, -1708808.3, 3360.918, -0.10289284, 0.08853403, -1708717.9, 5433.091, 0.0, 9.998913, 10.0005665 
4.5494467e+2, 1.3508806e+2, -1732541.9, -1609347.0, 1953.2627, -0.09065296, 0.086423784, -1609316.1, 6829.381, 0.0, 9.998934, 10.0005665 
4.549535e+2, 1.4508855e+2, -1618143.0, -1499259.5, 16763.771, -0.086620726, 0.078361265, -1496940.9, 21198.943, 0.0, 9.999028, 10.000604 
4.5496246e+2, 1.55089e+2, -1496049.3, -1389716.4, 14517.232, -0.090533115, 0.06362316, -1387770.0, 32364.01, 0.0, 9.999194, 10.000603 
4.5497155e+2, 1.6508935e+2, -1384187.5, -1304457.1, 16992.818, -0.08848389, 0.047275238, -1300986.5, 21142.37, 0.0, 9.9993725, 10.000429 
4.5498076e+2, 1.750896e+2, -1258501.5, -1193392.6, 14920.513, -0.08077552, 0.028742485, -1190136.3, 33988.258, 0.0, 9.999564, 10.000426 
4.5499003e+2, 1.8508963e+2, -1158237.9, -1137443.9, 18402.473, -0.076322585, 0.008165489, -1126704.4, -582.1398, 0.0, 9.999765, 10.000041 
4.5499933e+2, 1.9508943e+2, -1029759.2, -1025119.44, 16028.044, -0.07497433, -0.015083678, -1011244.25, 16877.912, 0.0, 9.999976, 10.000038 
4.550086e+2, 2.0508902e+2, -933416.6, -976375.3, 10660.359, -0.07244021, -0.03830518, -930916.7, -792.66754, 0.0, 10.000173, 9.999605 
4.5501783e+2, 2.1508838e+2, -809006.56, -866165.25, 9128.218, -0.06871451, -0.06215428, -807584.2, 24543.666, 0.0, 10.000357, 9.9996 
4.55027e+2, 2.250875e+2, -730843.8, -844887.44, -678.4229, -0.059977047, -0.08085152, -730839.8, 3295.0398, 0.0, 10.000509, 9.999 
4.550361e+2, 2.3508635e+2, -615040.0, -738604.7, -1702.8972, -0.04640946, -0.09523648, -615016.56, 21128.422, 0.0, 10.000633, 9.998997 
4.5504513e+2, 2.4508505e+2, -534478.9, -699877.44, -7601.364, -0.03194064, -0.10095371, -534130.3, 4026.601, 0.0, 10.000732, 9.998542 
4.550541e+2, 2.5508362e+2, -425409.78, -596581.8, -6947.091, -0.01660542, -0.09901295, -425128.3, 15042.311, 0.0, 10.000809, 9.998542 
4.5506302e+2, 2.650819e+2, -339488.13, -538045.44, -9798.474, -0.0013781277, -0.109127, -339005.78, 3180.3625, 0.0, 10.000871, 9.99824 
4.550719e+2, 2.7507994e+2, -234401.03, -436614.9, -10073.467, 0.013689012, -0.13148093, -233900.45, 10302.989, 0.0, 10.000919, 9.998241 
4.5508072e+2, 2.8507778e+2, -148973.56, -375789.84, -13106.529, 0.025300307, -0.1552134, -148218.72, -1996.8458, 0.0, 10.000967, 9.997963 
4.5508942e+2, 2.9507548e+2, -43923.594, -274137.94, -11210.011, 0.033688806, -0.18113917, -43379.023, 4862.44, 0.0, 10.001014, 9.997965 
4.550983e+2, 3.050731e+2, 54526.938, -133475.53, -9891.833, 0.055961505, -0.24435766, 55045.97, 55045.97, 0.0, 10.001062, 9.998571 
4.551072e+2, 3.150719e+2, 65293.113, -122494.55, -14972.041, 0.08105291, -0.22400847, 66479.32, 66479.32, 0.0, 10.001111, 9.998624 
4.649349e+2, 1.250789e+2, -1835317.4, -1711031.1, 858.73175, -0.10070466, 0.08395989, -1711025.1, 3209.4202, 0.0, 9.998907, 10.000554 
4.6494365e+2, 1.350794e+2, -1722733.6, -1606092.0, 634.47253, -0.088788465, 0.07847864, -1606088.6, 10140.868, 0.0, 9.999008, 10.000553 
4.6495262e+2, 1.4507984e+2, -1605299.3, -1499839.0, 19965.477, -0.0846937, 0.068398744, -1496185.8, 22038.545, 0.0, 9.9991455, 10.000543 
4.6496174e+2, 1.5508021e+2, -1482087.6, -1389814.1, 17417.36, -0.08820998, 0.052956305, -1386636.0, 33583.07, 0.0, 9.999319, 10.000542 
4.64971e+2, 1.650805e+2, -1369507.0, -1306642.9, 19876.49, -0.08623547, 0.036742486, -1300885.6, 21329.057, 0.0, 9.999514, 10.000346 
4.6498042e+2, 1.7508067e+2, -1240537.0, -1193995.1, 15637.874, -0.079052776, 0.019141989, -1189228.9, 34982.082, 0.0, 9.999727, 10.000343 
4.649899e+2, 1.8508062e+2, -1138193.5, -1133144.1, 18359.213, -0.07496738, -0.002607982, -1117136.8, 9072.663, 0.0, 9.999926, 9.999993 
4.6499938e+2, 1.9508034e+2, -1013686.94, -1022725.56, 16980.303, -0.07384549, -0.029069364, -1000634.8, 27575.115, 0.0, 10.00011, 9.9999895 
4.6500883e+2, 2.0507988e+2, -921911.6, -973817.1, 10970.655, -0.070682324, -0.053377323, -919688.1, 10524.07, 0.0, 10.000265, 9.9995775 
4.650182e+2, 2.1507922e+2, -805503.3, -867450.8, 10265.817, -0.06548725, -0.076252565, -803846.4, 28369.758, 0.0, 10.000394, 9.999574 
4.6502754e+2, 2.2507831e+2, -730708.2, -846895.8, -155.08966, -0.056714885, -0.095019475, -730708.0, 3515.418, 0.0, 10.00052, 9.9989805 
4.6503675e+2, 2.3507713e+2, -614874.25, -740581.5, -775.6076, -0.04447528, -0.11050292, -614869.5, 21364.398, 0.0, 10.000644, 9.998979 
4.6504587e+2, 2.4507585e+2, -533497.94, -698220.8, -8913.025, -0.030773886, -0.11511711, -533017.06, 5228.6934, 0.0, 10.000734, 9.998552 
4.650549e+2, 2.5507444e+2, -426865.44, -596123.4, -8951.38, -0.015671477, -0.109870456, -426393.38, 13865.754, 0.0, 10.000794, 9.998552 
4.6506387e+2, 2.6507276e+2, -344010.8, -538755.6, -12657.206, -0.00059039856, -0.119306915, -343191.63, -917.0885, 0.0, 10.0008335, 9.998254 
4.650728e+2, 2.7507076e+2, -242993.92, -439272.94, -11503.148, 0.014396611, -0.14358576, -242322.06, 1969.9352, 0.0, 10.0008545, 9.998254 
4.6508163e+2, 2.8506866e+2, -156788.27, -374360.6, -13383.671, 0.026253708, -0.16732639, -155968.08, -9657.95, 0.0, 10.000892, 9.998009 
4.6509042e+2, 2.9506645e+2, -50899.39, -272404.56, -11791.501, 0.035223067, -0.19145693, -50273.457, -1944.4746, 0.0, 10.000945, 9.99801 
4.6509936e+2, 3.0506405e+2, 48561.902, -137704.77, -8710.061, 0.057015926, -0.25606543, 48968.31, 48968.31, 0.0, 10.001027, 9.998559 
4.6510834e+2, 3.1506276e+2, 68427.63, -122217.04, -12187.313, 0.08058488, -0.23943518, 69203.58, 69203.58, 0.0, 10.001139, 9.998612 
4.749338e+2, 1.2507021e+2, -1835250.5, -1710761.5, 4561.822, -0.09918485, 0.0795349, -1710594.6, 3724.395, 0.0, 9.998906, 10.000556 
4.7494265e+2, 1.350707e+2, -1722607.8, -1605876.9, 4372.9775, -0.08824177, 0.07129412, -1605713.3, 10600.658, 0.0, 9.999008, 10.000555 
4.7495174e+2, 1.4507109e+2, -1609843.1, -1509354.5, 26441.23, -0.08360505, 0.059742548, -1502821.8, 15487.211, 0.0, 9.9991455, 10.000478 
4.749611e+2, 1.5507141e+2, -1486650.6, -1399400.4, 23899.424, -0.08512196, 0.044060666, -1393282.8, 27021.55, 0.0, 9.999319, 10.000476 
4.7497058e+2, 1.6507159e+2, -1377313.9, -1322990.0, 27860.1, -0.08267435, 0.026854532, -1311242.4, 11058.52, 0.0, 9.999514, 10.000234 
4.749802e+2, 1.7507163e+2, -1248304.6, -1210275.3, 23617.266, -0.07649369, 0.0075283237, -1198969.4, 25329.197, 0.0, 9.999727, 10.000232 
4.749898e+2, 1.8507148e+2, -1140609.0, -1138273.5, 25204.313, -0.0738844, -0.015667096, -1114209.9, 12087.936, 0.0, 9.999927, 9.999958 
4.749995e+2, 1.9507116e+2, -1016094.2, -1027834.94, 23830.152, -0.07470777, -0.043319236, -997422.0, 30876.549, 0.0, 10.00011, 9.999955 
4.7500908e+2, 2.0507067e+2, -922985.94, -976188.0, 15761.695, -0.07098991, -0.06718735, -918666.94, 11633.965, 0.0, 10.000265, 9.999561 
4.7501865e+2, 2.1507004e+2, -806562.1, -869792.9, 15074.068, -0.06281695, -0.08803438, -803152.4, 29152.541, 0.0, 10.000394, 9.9995575 
4.750281e+2, 2.2506909e+2, -731606.8, -848894.9, 4468.123, -0.052805852, -0.10769508, -731436.9, 2875.528, 0.0, 10.00052, 9.998967 
4.7503746e+2, 2.3506787e+2, -615765.56, -742536.3, 3856.136, -0.040989824, -0.12691857, -615648.4, 20675.002, 0.0, 10.000644, 9.998965 
4.7504663e+2, 2.4506658e+2, -533408.4, -698120.2, -6673.464, -0.02821737, -0.1300303, -533138.44, 5196.829, 0.0, 10.000734, 9.998553 
4.7505572e+2, 2.5506526e+2, -426777.5, -595992.25, -6701.003, -0.014536323, -0.11812617, -426512.56, 13835.586, 0.0, 10.000793, 9.998553 
4.7506472e+2, 2.6506358e+2, -341817.97, -534237.7, -11849.449, -0.0006624274, -0.12702188, -341091.0, 1272.4133, 0.0, 10.0008335, 9.998285 
4.7507364e+2, 2.7506158e+2, -240821.3, -434765.2, -10662.08, 0.013303462, -0.15676308, -240236.9, 4144.1436, 0.0, 10.000854, 9.998285 
4.7508252e+2, 2.850595e+2, -153890.45, -368316.47, -11286.432, 0.025436861, -0.18035202, -153298.02, -6899.2344, 0.0, 10.000891, 9.998051 
4.7509137e+2, 2.950574e+2, -48067.62, -266468.8, -9682.674, 0.035964787, -0.19892138, -47639.184, 777.51697, 0.0, 10.000944, 9.998052 
4.751004e+2, 3.05055e+2, 48992.31, -136764.53, -4407.26, 0.059025068, -0.26559025, 49096.816, 49096.816, 0.0, 10.001027, 9.998567 
4.751095e+2, 3.1505364e+2, 68917.51, -121153.805, -7757.834, 0.083620414, -0.25788826, 69233.62, 69233.62, 0.0, 10.001138, 9.99862 
4.8493272e+2, 1.2506136e+2, -1838760.0, -1714552.0, 1505.1667, -0.09866776, 0.06943189, -1714533.8, -128.81416, 0.0, 9.998892, 10.000537 
4.8494172e+2, 1.3506182e+2, -1707759.1, -1600884.4, -370.95862, -0.08741773, 0.061692875, -1600883.1, 15516.75, 0.0, 9.999119, 10.000535 
4.84951e+2, 1.4506218e+2, -1589223.9, -1508218.4, 20876.79, -0.082393445, 0.051131677, -1503154.6, 15240.767, 0.0, 9.999326, 10.000399 
4.849605e+2, 1.5506244e+2, -1464537.1, -1397552.3, 17270.822, -0.08345425, 0.03689353, -1393361.5, 27029.834, 0.0, 9.99951, 10.000397 
4.8497018e+2, 1.6506252e+2, -1356279.3, -1321834.9, 22778.268, -0.08090799, 0.017941479, -1310501.0, 11887.824, 0.0, 9.999697, 10.000154 
4.8498002e+2, 1.7506242e+2, -1230661.8, -1210727.3, 20899.469, -0.074969225, -0.0062636947, -1197539.9, 26847.709, 0.0, 9.999887, 10.000152 
4.8498982e+2, 1.8506221e+2, -1124076.9, -1134641.0, 22182.14, -0.07242382, -0.03116, -1106556.6, 19830.95, 0.0, 10.000058, 9.999919 
4.8499963e+2, 1.9506186e+2, -1004227.0, -1026440.06, 20470.021, -0.07314364, -0.057413917, -992044.56, 36343.93, 0.0, 10.00021, 9.999916 
4.850094e+2, 2.0506136e+2, -913775.56, -974153.9, 10150.812, -0.06926695, -0.079661466, -912114.7, 18276.283, 0.0, 10.0003395, 9.999539 
4.850191e+2, 2.1506071e+2, -800349.7, -869152.8, 9007.401, -0.060886618, -0.09868324, -799190.0, 33205.086, 0.0, 10.000447, 9.999536 
4.8502865e+2, 2.2505976e+2, -727123.5, -845422.6, -1333.9545, -0.050822146, -0.11865558, -727108.44, 7294.212, 0.0, 10.0005455, 9.998979 
4.8503807e+2, 2.3505852e+2, -616229.7, -741428.5, -123.94206, -0.039074782, -0.14025688, -616229.56, 20184.121, 0.0, 10.000635, 9.998977 
4.8504737e+2, 2.4505726e+2, -538086.25, -699586.3, -11692.342, -0.02658931, -0.14307387, -537244.2, 1181.3601, 0.0, 10.000699, 9.99856 
4.850565e+2, 2.5505596e+2, -434253.72, -598785.94, -11349.972, -0.013412662, -0.12823302, -433474.44, 6963.783, 0.0, 10.000739, 9.99856 
4.8506552e+2, 2.6505432e+2, -348610.2, -532723.6, -17140.41, 0.00025900648, -0.13668565, -347028.06, -4574.8086, 0.0, 10.000767, 9.998327 
4.8507446e+2, 2.7505234e+2, -248462.13, -433669.94, -15192.309, 0.01429585, -0.16846699, -247224.2, -2753.5942, 0.0, 10.000781, 9.998327 
4.850834e+2, 2.850503e+2, -162982.94, -370683.84, -14860.011, 0.026676346, -0.19093357, -161925.16, -15437.156, 0.0, 10.00082, 9.998068 
4.8509228e+2, 2.950482e+2, -55817.785, -268210.22, -15098.898, 0.03763588, -0.20531654, -54749.78, -6244.247, 0.0, 10.000883, 9.998069 
4.851014e+2, 3.0504587e+2, 45875.99, -135120.0, -7193.168, 0.060623907, -0.27256003, 46161.41, 46161.41, 0.0, 10.000992, 9.998594 
4.8511067e+2, 3.150445e+2, 72194.03, -116298.73, -9010.639, 0.08478718, -0.2696474, 72623.79, 72623.79, 0.0, 10.001146, 9.998649 
4.9493158e+2, 1.2505233e+2, -1841887.9, -1720822.4, 9953.418, -0.09921744, 0.053523086, -1720009.5, -5517.187, 0.0, 9.998891, 10.000495 
4.9494085e+2, 1.3505279e+2, -1710738.1, -1607136.9, 8084.2007, -0.08637019, 0.049645077, -1606509.8, 9977.588, 0.0, 9.999119, 10.000492 
4.9495032e+2, 1.450531e+2, -1595701.8, -1521835.3, 27673.47, -0.08111788, 0.042597193, -1512617.8, 5865.4917, 0.0, 9.999326, 10.000305 
4.9496e+2, 1.550533e+2, -1470995.6, -1411146.6, 24077.154, -0.08327192, 0.031508237, -1402662.9, 17817.092, 0.0, 9.99951, 10.000303 
4.9496987e+2, 1.6505328e+2, -1359612.0, -1328943.9, 29830.975, -0.08099152, 0.010044397, -1310736.6, 11741.655, 0.0, 9.999698, 10.000105 
4.949799e+2, 1.7505306e+2, -1234012.9, -1217855.4, 27970.121, -0.0745099, -0.022235446, -1196820.8, 27657.387, 0.0, 9.999887, 10.000103 
4.949899e+2, 1.8505278e+2, -1127093.9, -1141022.1, 27813.201, -0.07060036, -0.049102753, -1105386.3, 21092.316, 0.0, 10.000059, 9.999875 
4.949999e+2, 1.9505243e+2, -1007230.9, -1032804.5, 26109.686, -0.06916305, -0.07136052, -990945.06, 37534.516, 0.0, 10.00021, 9.999872 
4.9500978e+2, 2.0505193e+2, -915670.5, -978234.8, 14153.313, -0.065517485, -0.090804964, -912617.75, 17864.604, 0.0, 10.0003395, 9.999512 
4.9501953e+2, 2.1505125e+2, -802202.8, -873148.56, 13017.786, -0.059688598, -0.108206436, -799889.6, 32597.105, 0.0, 10.000447, 9.999509 
4.9502918e+2, 2.2505033e+2, -724582.2, -840286.7, 1997.9667, -0.05074903, -0.12792046, -724547.7, 9946.519, 0.0, 10.0005455, 9.999014 
4.9503872e+2, 2.350491e+2, -613696.44, -736284.4, 3213.2336, -0.038715262, -0.15056358, -613612.3, 22892.531, 0.0, 10.000635, 9.999012 
4.9504808e+2, 2.4504785e+2, -537259.06, -697964.9, -10197.859, -0.025884967, -0.15426776, -536614.56, 1901.9722, 0.0, 10.0007, 9.998571 
4.9505723e+2, 2.5504658e+2, -433429.75, -597141.3, -9832.548, -0.012313662, -0.14013465, -432841.3, 7688.047, 0.0, 10.000739, 9.998571 
4.9506631e+2, 2.6504496e+2, -344963.53, -525194.94, -16565.727, 0.0021354517, -0.14825438, -343453.56, -909.48706, 0.0, 10.000767, 9.998379 
4.950753e+2, 2.7504304e+2, -244862.53, -426190.53, -14597.733, 0.017301215, -0.17875227, -243694.86, 865.83563, 0.0, 10.000781, 9.998379 
4.9508423e+2, 2.8504103e+2, -163532.81, -371795.7, -12445.628, 0.029897751, -0.19915657, -162791.7, -16213.886, 0.0, 10.00082, 9.998061 
4.950932e+2, 2.9503897e+2, -56378.793, -269344.16, -12636.107, 0.04019514, -0.21069472, -55631.66, -7036.147, 0.0, 10.000882, 9.998061 
4.951024e+2, 3.0503666e+2, 49103.65, -128413.35, -1281.3367, 0.06180542, -0.27710372, 49112.9, 49112.9, 0.0, 10.000992, 9.99864 
4.951118e+2, 3.1503534e+2, 75509.29, -109424.65, -3038.6807, 0.084074, -0.27505964, 75559.2, 75559.2, 0.0, 10.001146, 9.998696 
5.049305e+2, 1.2504308e+2, -1826607.9, -1719808.0, 1807.7269, -0.104228705, 0.039595198, -1719777.4, -5195.641, 0.0, 9.999023, 10.000438 
5.0494003e+2, 1.350435e+2, -1690341.8, -1603705.3, -1261.3519, -0.0862392, 0.038780436, -1603687.0, 12890.23, 0.0, 9.999287, 10.000435 
5.0494975e+2, 1.4504376e+2, -1574738.1, -1521402.3, 15622.878, -0.07861505, 0.032814976, -1517163.0, 1410.7433, 0.0, 9.999512, 10.000218 
5.0495964e+2, 1.5504386e+2, -1449978.3, -1410678.9, 12480.862, -0.08110957, 0.020813465, -1407050.3, 13521.286, 0.0, 9.999696, 10.0002165 
5.0496966e+2, 1.6504377e+2, -1335683.1, -1320779.8, 19099.406, -0.07985093, -0.001684632, -1307729.9, 14840.593, 0.0, 9.999877, 10.000074 
5.0497985e+2, 1.7504352e+2, -1212203.1, -1210727.9, 18574.898, -0.07507105, -0.03512898, -1192875.9, 31694.525, 0.0, 10.000052, 10.0000725 
5.0499004e+2, 1.850432e+2, -1110304.1, -1136817.6, 17237.611, -0.070840485, -0.061745927, -1101815.1, 24756.025, 0.0, 10.000191, 9.99984 
5.050002e+2, 1.9504283e+2, -997746.9, -1032109.44, 16133.857, -0.06709319, -0.08237747, -991359.1, 37213.355, 0.0, 10.000293, 9.999837 
5.050102e+2, 2.050423e+2, -908871.9, -975559.94, 4312.0103, -0.06266304, -0.10171059, -908594.25, 21981.27, 0.0, 10.000389, 9.999506 
5.0502e+2, 2.1504161e+2, -797583.75, -871482.2, 4806.391, -0.0575266, -0.12049647, -797272.44, 35307.695, 0.0, 10.000482, 9.999503 
5.0502974e+2, 2.2504069e+2, -720385.75, -834381.1, -6407.5845, -0.049216434, -0.13974185, -720026.75, 14560.713, 0.0, 10.000558, 9.999048 
5.0503933e+2, 2.3503953e+2, -613658.56, -732371.06, -5319.8804, -0.037747156, -0.1600624, -613420.6, 23176.863, 0.0, 10.000619, 9.999046 
5.0504875e+2, 2.4503833e+2, -540386.56, -695610.06, -19562.064, -0.025404785, -0.1636927, -537959.25, 649.62683, 0.0, 10.000662, 9.998605 
5.0505793e+2, 2.5503704e+2, -438693.6, -595820.25, -17558.693, -0.012252972, -0.15167026, -436755.34, 3866.2756, 0.0, 10.000688, 9.998605 
5.0506705e+2, 2.6503548e+2, -352322.5, -525145.9, -25187.957, 0.0027695773, -0.15873379, -348726.34, -6090.345, 0.0, 10.000701, 9.998411 
5.05076e+2, 2.7503362e+2, -253968.39, -427005.28, -24786.47, 0.019476242, -0.18511154, -250487.89, -5835.938, 0.0, 10.000704, 9.99841 
5.0508505e+2, 2.8503165e+2, -174459.16, -377611.4, -20940.344, 0.03267139, -0.20467986, -172323.14, -25654.158, 0.0, 10.000748, 9.998055 
5.050941e+2, 2.9502958e+2, -64132.453, -273690.22, -21060.645, 0.042643342, -0.21863827, -62036.805, -13349.67, 0.0, 10.000833, 9.998055 
5.051034e+2, 3.0502728e+2, 47544.97, -126808.59, -6959.709, 0.06297417, -0.28385407, 47822.34, 47822.34, 0.0, 10.000972, 9.998661 
5.051129e+2, 3.1502602e+2, 79412.164, -105074.17, -10628.533, 0.08329813, -0.27691063, 80022.47, 80022.47, 0.0, 10.0011635, 9.998718 
5.1492935e+2, 1.250336e+2, -1831770.5, -1730564.5, 11516.132, -0.11390612, 0.027782053, -1729270.6, -14597.437, 0.0, 9.9990225, 10.000364 
5.149393e+2, 1.3503398e+2, -1695456.0, -1614483.8, 8466.136, -0.087124586, 0.029205037, -1613608.0, 3061.2297, 0.0, 9.999288, 10.0003605 
5.1494926e+2, 1.4503415e+2, -1580301.5, -1533151.3, 22364.229, -0.07492759, 0.02183842, -1524231.1, -5564.3276, 0.0, 9.999513, 10.000137 
5.1495934e+2, 1.5503412e+2, -1455542.9, -1422429.1, 19249.635, -0.07698435, 0.0047880136, -1413595.5, 7070.3247, 0.0, 9.999697, 10.000135 
5.149695e+2, 1.65034e+2, -1336465.3, -1322603.4, 25566.143, -0.07749613, -0.017274236, -1303045.4, 19619.828, 0.0, 9.999877, 10.000061 
5.1497984e+2, 1.7503378e+2, -1213009.6, -1212581.4, 25066.904, -0.076673195, -0.044920538, -1187727.6, 36937.03, 0.0, 10.000053, 10.000059 
5.1499015e+2, 1.8503346e+2, -1112164.0, -1140813.6, 20962.502, -0.073163465, -0.0690568, -1101099.3, 25566.09, 0.0, 10.000192, 9.999812 
5.150004e+2, 1.9503306e+2, -999583.44, -1036073.4, 19888.715, -0.06693945, -0.09046149, -990838.75, 37828.438, 0.0, 10.000293, 9.99981 
5.1501054e+2, 2.050325e+2, -907704.1, -973302.8, 7738.2783, -0.060709644, -0.112377994, -906803.6, 23866.832, 0.0, 10.00039, 9.999521 
5.150205e+2, 2.1503179e+2, -796405.06, -869191.3, 8243.777, -0.054422185, -0.13553356, -795483.06, 37192.22, 0.0, 10.000483, 9.999518 
5.150303e+2, 2.250309e+2, -718050.75, -829662.4, -4155.7744, -0.04625074, -0.15410848, -717896.25, 16786.07, 0.0, 10.000559, 9.999081 
5.1504e+2, 2.3502983e+2, -611354.7, -727671.6, -3053.387, -0.03618946, -0.16878186, -611274.56, 25417.059, 0.0, 10.000619, 9.999079 
5.150494e+2, 2.4502867e+2, -536479.2, -687558.94, -18622.988, -0.02515421, -0.1713841, -534217.44, 4485.077, 0.0, 10.000662, 9.99866 
5.150586e+2, 2.550274e+2, -434814.44, -587828.44, -16603.719, -0.013215033, -0.16284446, -433033.47, 7681.5625, 0.0, 10.000688, 9.99866 
5.1506776e+2, 2.650259e+2, -351542.5, -523631.25, -25082.021, 0.0021836774, -0.16815886, -347961.3, -5232.315, 0.0, 10.000701, 9.998422 
5.150767e+2, 2.7502412e+2, -253167.52, -425505.9, -24656.014, 0.020833114, -0.18767135, -249709.44, -4965.0444, 0.0, 10.000704, 9.998421 
5.150858e+2, 2.8502217e+2, -174750.38, -378386.13, -17699.455, 0.0349969, -0.20757748, -173223.44, -26461.92, 0.0, 10.000748, 9.99805 
5.1509494e+2, 2.9501998e+2, -64516.543, -274602.28, -17757.697, 0.04496835, -0.22903238, -63026.13, -14245.705, 0.0, 10.000833, 9.998049 
5.1510435e+2, 3.050177e+2, 47125.52, -127692.98, 364.767, 0.06409073, -0.2927282, 47126.277, 47126.277, 0.0, 10.000971, 9.998655 
5.1511407e+2, 3.1501654e+2, 78928.21, -105882.95, -3234.2134, 0.08234526, -0.27546164, 78984.8, 78984.8, 0.0, 10.001162, 9.9987135 
5.2492845e+2, 1.2502381e+2, -1804661.4, -1723809.3, -3826.6853, -0.118998215, 0.016598994, -1723628.5, -8860.591, 0.0, 9.999236, 10.000307 
5.2493864e+2, 1.3502415e+2, -1670363.9, -1608737.8, -5683.507, -0.08869008, 0.019533329, -1608218.0, 8546.584, 0.0, 9.999488, 10.000303 
5.249489e+2, 1.4502424e+2, -1556854.4, -1526252.0, 7085.8506, -0.073994786, 0.010416673, -1524691.0, -5928.255, 0.0, 9.999693, 10.000097 
5.2495915e+2, 1.5502413e+2, -1435840.8, -1417367.0, 6995.182, -0.07453082, -0.011697957, -1415017.1, 5745.388, 0.0, 9.999851, 10.000096 
5.249695e+2, 1.6502397e+2, -1319388.9, -1317605.4, 13918.96, -0.07539679, -0.03290455, -1304549.6, 18212.465, 0.0, 10.000009, 10.000032 
5.2498e+2, 1.750238e+2, -1198940.9, -1209044.9, 12066.3955, -0.076798685, -0.05385723, -1190911.6, 33849.92, 0.0, 10.000164, 10.00003 
5.2499044e+2, 1.8502349e+2, -1097862.8, -1133159.5, 5885.7046, -0.07446103, -0.07589194, -1096907.3, 29855.037, 0.0, 10.000287, 9.999819 
5.2500075e+2, 1.9502307e+2, -986909.9, -1029194.3, 7309.742, -0.0683529, -0.09974618, -985681.9, 43082.297, 0.0, 10.000377, 9.999817 
5.25011e+2, 2.0502251e+2, -896849.8, -963227.3, -3630.175, -0.061253715, -0.12347165, -896651.9, 34115.473, 0.0, 10.000443, 9.999564 
5.25021e+2, 2.1502183e+2, -792599.94, -862487.94, -1113.2783, -0.053103875, -0.14778414, -792582.2, 40189.53, 0.0, 10.000488, 9.999562 
5.250309e+2, 2.2502097e+2, -721028.75, -827130.6, -13432.59, -0.044246983, -0.16600536, -719354.56, 15423.784, 0.0, 10.000522, 9.999116 
5.2504057e+2, 2.3501997e+2, -619711.06, -727720.44, -12158.206, -0.03466529, -0.17884606, -618359.4, 18427.959, 0.0, 10.000545, 9.999114 
5.2505004e+2, 2.4501885e+2, -544999.25, -685895.44, -28114.389, -0.024390815, -0.18068922, -539596.5, -798.71985, 0.0, 10.000579, 9.998712 
5.250593e+2, 2.5501767e+2, -440597.13, -584877.1, -26467.303, -0.013496772, -0.17238177, -435895.1, 4914.697, 0.0, 10.000623, 9.998711 
5.250684e+2, 2.6501617e+2, -355854.5, -525370.4, -35777.965, 0.0010563706, -0.17621477, -348612.6, -5789.1807, 0.0, 10.00067, 9.998424 
5.2507746e+2, 2.7501443e+2, -250563.33, -423917.1, -36001.086, 0.0190617, -0.19261007, -243384.14, 1454.568, 0.0, 10.000721, 9.998424 
5.250865e+2, 2.8501248e+2, -169198.75, -374541.78, -26942.842, 0.033461444, -0.21254377, -165722.45, -18866.629, 0.0, 10.000782, 9.99806 
5.2509576e+2, 2.950103e+2, -61035.266, -271819.63, -25927.588, 0.044538602, -0.23720956, -57892.883, -9018.054, 0.0, 10.000853, 9.998058 
5.2510536e+2, 3.05008e+2, 43151.31, -131247.23, -4630.4175, 0.064581595, -0.30001116, 43274.164, 43274.164, 0.0, 10.000952, 9.99864 
5.251152e+2, 3.1500685e+2, 65636.55, -113849.68, -8926.005, 0.08402103, -0.27803782, 66079.35, 66079.35, 0.0, 10.001078, 9.998699 
5.349277e+2, 1.250137e+2, -1807354.5, -1729711.3, 5284.1, -0.11947311, 0.0061500096, -1729353.3, -14487.194, 0.0, 9.999238, 10.000267 
5.3493816e+2, 1.35014e+2, -1673102.4, -1614705.3, 3471.7908, -0.09101299, 0.009857213, -1614499.5, 2363.5054, 0.0, 9.999488, 10.000262 
5.349486e+2, 1.4501405e+2, -1556673.4, -1526112.6, 12816.952, -0.07593459, -0.0013818725, -1521449.0, -2587.458, 0.0, 9.999693, 10.000098 
5.34959e+2, 1.5501387e+2, -1435724.5, -1417321.3, 12771.861, -0.07382138, -0.02859694, -1410781.5, 10079.952, 0.0, 9.999852, 10.000096 
5.3496957e+2, 1.650137e+2, -1322642.4, -1324532.0, 19592.857, -0.07358661, -0.048543327, -1303971.5, 18889.734, 0.0, 10.00001, 9.999985 
5.349802e+2, 1.7501357e+2, -1202212.6, -1215994.0, 17776.89, -0.075457335, -0.061916135, -1190037.6, 34823.26, 0.0, 10.000164, 9.999982 
5.3499067e+2, 1.8501328e+2, -1095044.3, -1127457.3, 9177.472, -0.074733935, -0.082238376, -1092626.1, 34235.504, 0.0, 10.000287, 9.999858 
5.350011e+2, 1.9501285e+2, -984085.8, -1023499.8, 10640.831, -0.07133495, -0.11023372, -981396.5, 47466.953, 0.0, 10.000378, 9.999856 
5.3501135e+2, 2.0501234e+2, -891915.0, -953152.5, -2034.9614, -0.06429606, -0.13501374, -891847.44, 39018.633, 0.0, 10.000444, 9.999634 
5.350215e+2, 2.1501175e+2, -787668.75, -852416.3, 504.3339, -0.053570297, -0.15729846, -787664.8, 45204.66, 0.0, 10.000488, 9.999631 
5.3503144e+2, 2.2501096e+2, -718357.44, -821744.5, -12587.445, -0.04320897, -0.17546985, -716847.0, 18028.617, 0.0, 10.000522, 9.999152 
5.3504115e+2, 2.3500995e+2, -617037.5, -722322.6, -11277.181, -0.033188134, -0.19023934, -615843.1, 21041.367, 0.0, 10.0005455, 9.999151 
5.350506e+2, 2.4500889e+2, -541735.2, -679249.94, -26453.986, -0.023134945, -0.19159809, -536821.75, 2072.8389, 0.0, 10.000579, 9.998757 
5.3505987e+2, 2.5500774e+2, -437367.84, -578270.75, -24783.742, -0.013122414, -0.18033274, -433135.7, 7770.161, 0.0, 10.000624, 9.998756 
5.3506905e+2, 2.650063e+2, -356268.75, -526328.0, -33854.34, -0.00059753394, -0.18292372, -349777.03, -6857.724, 0.0, 10.00067, 9.998417 
5.350781e+2, 2.7500454e+2, -250977.77, -424894.06, -34047.535, 0.014252095, -0.19983536, -244549.86, 385.05194, 0.0, 10.000721, 9.998417 
5.350873e+2, 2.850026e+2, -167507.08, -371166.6, -24213.262, 0.028174607, -0.21949758, -164667.92, -17716.0, 0.0, 10.000782, 9.998083 
5.350966e+2, 2.9500046e+2, -59379.047, -268511.3, -23172.494, 0.04142992, -0.24321936, -56842.234, -7871.83, 0.0, 10.000853, 9.998081 
5.3510624e+2, 3.0499816e+2, 41386.008, -135001.31, 233.3293, 0.064415075, -0.30569765, 41386.316, 41386.316, 0.0, 10.000952, 9.998614 
5.351163e+2, 3.1499702e+2, 63784.43, -117618.64, -3950.4946, 0.08808359, -0.2844717, 63870.42, 63870.42, 0.0, 10.001077, 9.998673 
5.4492706e+2, 1.2500328e+2, -1787217.4, -1724408.4, -3447.47, -0.11701042, -0.007848272, -1724219.8, -9252.945, 0.0, 9.999395, 10.000227 
5.449377e+2, 1.3500354e+2, -1651760.1, -1608866.6, -5255.467, -0.0922003, -0.0040892935, -1608232.0, 8732.197, 0.0, 9.999655, 10.000222 
5.449483e+2, 1.4500359e+2, -1531810.5, -1513556.1, 493.29504, -0.078340404, -0.014499923, -1513542.9, 5419.9863, 0.0, 9.999862, 10.000103 
5.4495895e+2, 1.5500343e+2, -1411338.3, -1405049.9, 643.2485, -0.0749751, -0.040190276, -1404984.8, 15977.747, 0.0, 10.000018, 10.0001 
5.449696e+2, 1.6500327e+2, -1305823.8, -1318048.0, 7137.569, -0.07408532, -0.059263017, -1302538.9, 20423.49, 0.0, 10.000133, 9.9999695 
5.4498035e+2, 1.7500311e+2, -1197385.6, -1215331.9, 7697.0503, -0.075923584, -0.072434776, -1194536.8, 30425.62, 0.0, 10.000205, 9.999967 
5.4499096e+2, 1.8500283e+2, -1093076.0, -1119809.8, -480.54645, -0.07537749, -0.09297251, -1093067.3, 33895.63, 0.0, 10.000272, 9.999918 
5.4500145e+2, 1.9500247e+2, -986407.6, -1017934.6, 2447.5051, -0.07232207, -0.1216109, -986218.75, 42745.414, 0.0, 10.000333, 9.999915 
5.4501176e+2, 2.0500202e+2, -895916.3, -948560.56, -11014.571, -0.06548971, -0.14563066, -893704.7, 37261.48, 0.0, 10.000389, 9.999691 
5.4502195e+2, 2.1500151e+2, -790583.75, -847292.2, -9359.736, -0.05483196, -0.16575189, -789078.9, 43889.973, 0.0, 10.000441, 9.999689 
5.450319e+2, 2.2500078e+2, -720409.06, -816256.44, -22998.287, -0.045203947, -0.18362662, -715176.4, 19798.041, 0.0, 10.000481, 9.99921 
5.450416e+2, 2.3499982e+2, -618423.75, -716501.44, -20178.355, -0.036577877, -0.19996184, -614434.56, 22548.332, 0.0, 10.000508, 9.999208 
5.4505116e+2, 2.4499881e+2, -544407.44, -675938.3, -34259.75, -0.026777267, -0.2011291, -536018.9, 2973.6353, 0.0, 10.000542, 9.998798 
5.450605e+2, 2.5499773e+2, -440923.78, -575401.7, -32993.508, -0.015867388, -0.18786038, -433265.13, 7738.0654, 0.0, 10.00058, 9.998797 
5.450697e+2, 2.6499632e+2, -359943.66, -526554.5, -40653.21, -0.002721743, -0.19070813, -350553.47, -7537.0015, 0.0, 10.000639, 9.99843 
5.450788e+2, 2.7499455e+2, -250247.81, -423047.0, -39443.645, 0.012494983, -0.21019602, -241670.1, 3362.1177, 0.0, 10.00072, 9.998429 
5.4508805e+2, 2.849926e+2, -164552.05, -369197.63, -29315.795, 0.026632546, -0.22896723, -160435.33, -13386.232, 0.0, 10.0008, 9.998088 
5.450974e+2, 2.949905e+2, -55239.87, -266006.22, -29732.748, 0.039921645, -0.24839216, -51125.785, -2058.628, 0.0, 10.000879, 9.998085 
5.4510725e+2, 3.049882e+2, 41424.49, -134722.55, -5336.7207, 0.06285472, -0.31033546, 41586.027, 41586.027, 0.0, 10.000951, 9.998616 
5.451174e+2, 3.1498703e+2, 54892.336, -121582.33, -7514.495, 0.08700562, -0.2928795, 55211.73, 55211.73, 0.000000000015387011, 10.001015, 9.998676 
5.549265e+2, 1.24992594e+2, -1789791.8, -1730114.8, 6018.84, -0.11166263, -0.02542115, -1729513.8, -14443.597, 0.0, 9.999396, 10.000187 
5.5493736e+2, 1.349928e+2, -1654424.4, -1614715.6, 4250.2017, -0.09229507, -0.022349892, -1614265.9, 2802.2903, 0.0, 9.999656, 10.000182 
5.549482e+2, 1.4499287e+2, -1531184.3, -1512521.6, 6123.9194, -0.08126461, -0.028933914, -1510691.6, 8375.045, 0.0, 9.999863, 10.00011 
5.5495894e+2, 1.5499282e+2, -1410763.0, -1404086.8, 6299.8325, -0.07805593, -0.046374105, -1400295.3, 20770.297, 0.0, 10.000018, 10.000107 
5.549697e+2, 1.6499266e+2, -1304581.1, -1315675.1, 9704.561, -0.07694736, -0.064958215, -1298950.1, 24115.217, 0.0, 10.000133, 9.999986 
5.549805e+2, 1.7499244e+2, -1196206.3, -1213040.8, 10315.282, -0.07822666, -0.08540301, -1191309.8, 33756.074, 0.0, 10.000206, 9.999983 
5.549912e+2, 1.8499221e+2, -1087518.3, -1108432.9, 1709.2245, -0.076408975, -0.10812388, -1087379.5, 39686.66, 0.0, 10.000273, 9.999995 
5.550018e+2, 1.9499193e+2, -980828.9, -1006548.0, 4678.1475, -0.071331374, -0.13389802, -980004.4, 49061.92, 0.0, 10.000334, 9.999993 
5.5501217e+2, 2.0499158e+2, -892630.56, -941918.0, -9132.202, -0.064845234, -0.15534283, -890992.94, 40074.57, 0.0, 10.000389, 9.999737 
5.5502236e+2, 2.1499114e+2, -787314.8, -840668.0, -7442.4316, -0.056886036, -0.17316952, -786296.1, 46773.625, 0.0, 10.000441, 9.999735 
5.550323e+2, 2.2499046e+2, -714929.56, -805030.8, -21962.303, -0.05020038, -0.1905089, -709861.3, 25213.4, 0.0, 10.000481, 9.999287 
5.55042e+2, 2.3498958e+2, -612970.1, -705324.4, -19114.648, -0.044757374, -0.20805839, -609170.3, 27912.139, 0.0, 10.000508, 9.999286 
5.5505157e+2, 2.4498862e+2, -541868.2, -670813.94, -32815.39, -0.03522974, -0.20931911, -533997.44, 5094.042, 0.0, 10.000542, 9.998833 
5.55061e+2, 2.549876e+2, -438423.1, -570369.8, -31517.35, -0.02166835, -0.19497868, -431281.28, 9820.533, 0.0, 10.00058, 9.998832 
5.5507034e+2, 2.649862e+2, -357643.28, -521932.56, -37557.06, -0.0053219288, -0.1995278, -349464.75, -6349.8853, 0.0, 10.00064, 9.998463 
5.550795e+2, 2.7498442e+2, -248003.73, -418513.78, -36319.668, 0.013672136, -0.22356698, -240589.8, 4540.826, 0.0, 10.00072, 9.998461 
5.550889e+2, 2.8498247e+2, -165578.08, -371450.3, -26263.225, 0.02869039, -0.24083646, -162280.48, -15133.116, 0.0, 10.0008, 9.998073 
5.5509835e+2, 2.9498044e+2, -56264.48, -268241.97, -26645.344, 0.039925992, -0.252709, -52966.5, -3801.3723, 0.0, 10.000879, 9.99807 
5.5510813e+2, 3.049782e+2, 43346.008, -130841.375, -2807.1013, 0.05992327, -0.31388623, 43391.23, 43391.23, 0.0, 10.000951, 9.998643 
5.5511826e+2, 3.1497693e+2, 56808.938, -117643.445, -4908.211, 0.08093438, -0.3029234, 56946.92, 56946.92, 0.0000000020600701, 10.001015, 9.998703 
5.64926e+2, 1.2498179e+2, -1750578.5, -1715391.5, 3228.447, -0.113502845, -0.03958968, -1715097.8, 76.99566, 0.0, 9.999684, 10.00015 
5.6493706e+2, 1.3498195e+2, -1631817.8, -1608119.0, 1547.5063, -0.09363635, -0.038171183, -1608018.4, 9154.832, 0.0, 9.999829, 10.000143 
5.649481e+2, 1.4498203e+2, -1517548.8, -1506037.3, 486.66226, -0.08187291, -0.04263082, -1506016.8, 13155.028, 0.0, 9.999957, 10.000109 
5.64959e+2, 1.5498202e+2, -1403732.3, -1400818.1, -48.899662, -0.0777027, -0.054277122, -1400817.4, 20353.115, 0.0, 10.000068, 10.000105 
5.6496984e+2, 1.6498189e+2, -1298685.4, -1306128.4, 1785.5485, -0.07725287, -0.072520874, -1298279.1, 24890.758, 0.0, 10.000145, 10.000045 
5.649806e+2, 1.7498167e+2, -1194548.4, -1205568.8, 5579.1885, -0.08085795, -0.09811296, -1192217.0, 32953.195, 0.0, 10.000189, 10.000042 
5.649914e+2, 1.849815e+2, -1090021.5, -1102375.1, -2502.4998, -0.07976904, -0.121577755, -1089533.9, 37636.09, 0.0, 10.000224, 10.00006 
5.65002e+2, 1.9498132e+2, -988196.6, -1002884.7, -652.9787, -0.073776305, -0.14369728, -988167.7, 41001.484, 0.0, 10.000252, 10.000057 
5.6501245e+2, 2.0498104e+2, -902773.56, -940378.9, -14334.89, -0.06741471, -0.16386451, -897932.44, 33237.297, 0.0, 10.000293, 9.999794 
5.650227e+2, 2.1498065e+2, -797291.5, -839132.7, -11885.244, -0.060598377, -0.18281883, -794151.1, 39020.535, 0.0, 10.000345, 9.999791 
5.650327e+2, 2.2498004e+2, -722457.56, -800891.3, -26891.293, -0.054813635, -0.19990245, -714123.4, 21052.684, 0.0, 10.000396, 9.999356 
5.650425e+2, 2.3497923e+2, -617713.8, -699898.44, -24712.793, -0.05003171, -0.21576166, -610855.1, 26327.8, 0.0, 10.000443, 9.999353 
5.650521e+2, 2.4497834e+2, -544456.44, -666598.5, -37695.8, -0.040937044, -0.21672913, -533759.5, 5431.8657, 0.0, 10.000501, 9.998881 
5.6506145e+2, 2.5497735e+2, -436742.13, -564109.94, -35458.406, -0.027571265, -0.20348701, -427536.13, 13665.183, 0.0, 10.000568, 9.99888 
5.6507087e+2, 2.64976e+2, -354344.47, -516094.3, -39705.094, -0.009995745, -0.20909074, -345123.63, -1909.626, 0.0, 10.000644, 9.9985 
5.650803e+2, 2.7497426e+2, -244231.2, -412434.0, -38047.848, 0.011703709, -0.23419425, -236025.05, 9204.312, 0.0, 10.000728, 9.998498 
5.6508964e+2, 2.849723e+2, -164794.42, -372634.88, -27796.227, 0.027800692, -0.2510764, -161141.22, -13895.235, 0.0, 10.000813, 9.998058 
5.650992e+2, 2.9497027e+2, -54579.652, -269011.78, -28124.69, 0.03844758, -0.26112226, -50952.21, -1688.3035, 0.0, 10.000897, 9.998055 
5.651091e+2, 3.0496806e+2, 46232.87, -126421.67, -5603.334, 0.057188742, -0.32177773, 46414.53, 46414.53, 0.0, 10.000958, 9.99867 
5.6511927e+2, 3.149668e+2, 55640.906, -115081.53, -7755.362, 0.07692274, -0.31173918, 55992.484, 55992.484, 0.000000017271022, 10.000994, 9.998731 
5.749256e+2, 1.2497088e+2, -1752793.6, -1720711.8, 8380.6045, -0.12293254, -0.050278384, -1718654.5, -3374.1155, 0.0, 9.999686, 10.000112 
5.7493687e+2, 1.3497098e+2, -1634305.9, -1613720.0, 6787.7, -0.09634547, -0.051483512, -1611683.4, 5595.9355, 0.0, 9.999831, 10.000104 
5.74948e+2, 1.4497103e+2, -1518216.6, -1507656.8, 4461.544, -0.0801518, -0.05556449, -1506024.3, 13254.03, 0.0, 9.999958, 10.000097 
5.7495904e+2, 1.5497103e+2, -1404452.1, -1402476.8, 3929.3755, -0.07389067, -0.06391703, -1399412.9, 21864.186, 0.0, 10.000068, 10.000093 
5.7496995e+2, 1.6497098e+2, -1291517.6, -1291413.6, 3286.6584, -0.07498091, -0.08198076, -1288178.5, 35097.555, 0.0, 10.000145, 10.000146 
5.7498085e+2, 1.7497082e+2, -1187376.1, -1190844.6, 7096.3164, -0.08382168, -0.11057644, -1181805.3, 43470.133, 0.0, 10.000189, 10.000143 
5.749916e+2, 1.8497072e+2, -1086460.5, -1095172.5, -1531.5135, -0.08547052, -0.13333896, -1086199.1, 41075.113, 0.0, 10.000225, 10.00011 
5.7500225e+2, 1.9497065e+2, -984622.25, -995679.9, 312.00522, -0.079656586, -0.15101585, -984613.44, 44659.36, 0.0, 10.000253, 10.000107 
5.750127e+2, 2.0497043e+2, -898023.94, -930720.5, -12373.162, -0.0731933, -0.17119478, -893869.5, 37403.344, 0.0, 10.000293, 9.99986 
5.75023e+2, 2.1497005e+2, -792524.9, -829427.0, -9920.899, -0.06596792, -0.19467899, -790026.8, 43247.668, 0.0, 10.000346, 9.999857 
5.7503307e+2, 2.249695e+2, -718195.06, -792205.1, -25080.775, -0.05906491, -0.2117944, -710496.44, 24781.898, 0.0, 10.000396, 9.999415 
5.7504284e+2, 2.3496881e+2, -613485.5, -691242.9, -22912.307, -0.05246358, -0.22309625, -607236.25, 30048.008, 0.0, 10.000443, 9.9994135 
5.750525e+2, 2.4496798e+2, -540152.4, -657764.5, -35091.117, -0.043952525, -0.22337535, -530478.2, 8813.872, 0.0, 10.000501, 9.998942 
5.7506204e+2, 2.5496703e+2, -432447.0, -555323.8, -32856.227, -0.03357202, -0.21334684, -424213.25, 17088.475, 0.0, 10.000568, 9.99894 
5.7507145e+2, 2.649657e+2, -351215.16, -509785.16, -36462.94, -0.016693264, -0.2193797, -343232.4, 81.432434, 0.0, 10.000645, 9.998544 
5.7508093e+2, 2.7496403e+2, -241093.81, -406188.2, -34794.117, 0.006673182, -0.24215144, -234060.48, 11267.967, 0.0, 10.000729, 9.998541 
5.7509047e+2, 2.8496212e+2, -165582.39, -374584.16, -24512.918, 0.024032537, -0.25968894, -162745.88, -15400.875, 0.0, 10.0008135, 9.998044 
5.7510006e+2, 2.9496002e+2, -55446.707, -271087.84, -24782.826, 0.03549236, -0.27340728, -52635.168, -3271.628, 0.0, 10.000898, 9.998041 
5.7510996e+2, 3.049578e+2, 48075.574, -122814.97, -4152.2837, 0.0545928, -0.3337839, 48176.406, 48176.406, 0.00000000021282408, 10.000958, 9.998694 
5.751202e+2, 3.1495664e+2, 57456.64, -111363.75, -6255.182, 0.074830465, -0.3195698, 57688.094, 57688.094, 0.0000000699572, 10.000994, 9.998756 
5.8492535e+2, 1.2495992e+2, -1716165.4, -1705403.6, 6216.5166, -0.12714094, -0.059175644, -1702562.6, 12824.199, 0.0, 9.9999485, 10.000091 
5.8493674e+2, 1.3495998e+2, -1615966.0, -1607339.9, 5890.8, -0.09780885, -0.06151898, -1604351.9, 13034.045, 0.0, 9.999968, 10.000081 
5.84948e+2, 1.4496002e+2, -1511094.5, -1502551.5, 4974.849, -0.07979673, -0.06680732, -1500266.0, 19119.072, 0.0, 10.0, 10.000112 
5.849591e+2, 1.5496004e+2, -1406663.5, -1401851.3, 6331.371, -0.07272026, -0.07658139, -1397484.3, 23899.764, 0.0, 10.000046, 10.000109 
5.849701e+2, 1.6496003e+2, -1295194.9, -1284410.6, 4150.3887, -0.074236885, -0.094078355, -1282998.3, 40384.234, 0.0, 10.000083, 10.000224 
5.8498096e+2, 1.7495997e+2, -1193421.3, -1184898.0, 6128.2275, -0.08477356, -0.12009925, -1181695.3, 43685.46, 0.0, 10.00011, 10.000221 
5.849917e+2, 1.8495995e+2, -1094094.4, -1092607.4, -3123.4575, -0.08805944, -0.14209136, -1090140.1, 37238.72, 0.0, 10.000146, 10.000165 
5.8500236e+2, 1.9495991e+2, -989617.25, -991772.44, -905.57837, -0.08380141, -0.16085932, -989287.25, 40089.77, 0.0, 10.000192, 10.000162 
5.850129e+2, 2.0495975e+2, -900955.75, -923490.1, -12565.483, -0.07844885, -0.1815204, -895345.75, 36030.793, 0.0, 10.000236, 9.999937 
5.850233e+2, 2.1495946e+2, -796888.06, -822841.06, -9405.02, -0.07186265, -0.20485762, -793838.2, 39539.15, 0.0, 10.000278, 9.999934 
5.850333e+2, 2.2495899e+2, -726033.06, -789707.9, -24668.828, -0.064197086, -0.22162129, -717594.3, 17786.17, 0.0, 10.000316, 9.999472 
5.850432e+2, 2.3495835e+2, -623847.7, -689993.75, -22915.365, -0.055417813, -0.23235175, -616684.6, 20701.283, 0.0, 10.000345, 9.999469 
5.850529e+2, 2.4495757e+2, -547930.1, -654759.1, -33280.914, -0.046404857, -0.23293443, -538410.3, 982.89246, 0.0, 10.000419, 9.999002 
5.850625e+2, 2.5495666e+2, -433183.16, -548964.9, -31156.35, -0.03720313, -0.22405243, -425331.56, 16070.733, 0.0, 10.000535, 9.999001 
5.850721e+2, 2.6495537e+2, -346344.7, -504132.16, -34542.4, -0.021187086, -0.2297017, -339114.1, 4299.8433, 0.0, 10.000664, 9.998572 
5.850816e+2, 2.7495372e+2, -227834.67, -396560.47, -33960.504, 0.001671799, -0.25059465, -221255.75, 24172.31, 0.0, 10.000806, 9.9985695 
5.8509123e+2, 2.8495187e+2, -150580.58, -366880.8, -24894.635, 0.01875451, -0.26876423, -147752.36, -307.8835, 0.0, 10.000915, 9.998048 
5.851009e+2, 2.9494974e+2, -41980.047, -264162.75, -23905.418, 0.03014715, -0.28570354, -39437.082, 10026.184, 0.0, 10.000989, 9.998045 
5.851109e+2, 3.049475e+2, 56209.035, -119017.37, -6405.7817, 0.04970399, -0.34551838, 56442.9, 56442.9, 0.000000006848287, 10.001016, 9.998693 
5.8512115e+2, 3.1494638e+2, 57342.95, -111406.62, -10466.485, 0.071528256, -0.32688692, 57989.64, 57989.64, 0.00000018333391, 10.000993, 9.998756 
5.949253e+2, 1.2494892e+2, -1716162.9, -1706155.9, 6668.005, -0.12609576, -0.06625054, -1702822.8, 12671.119, 0.0, 9.999951, 10.000084 
5.949367e+2, 1.3494897e+2, -1616183.0, -1608249.4, 6435.142, -0.09803439, -0.06823889, -1604656.6, 12836.393, 0.0, 9.9999695, 10.000074 
5.94948e+2, 1.4494899e+2, -1508249.8, -1496878.5, 6556.3184, -0.0808534, -0.076348245, -1493885.9, 25606.133, 0.0, 10.000001, 10.000151 
5.9495914e+2, 1.54949e+2, -1403830.1, -1396115.6, 7923.658, -0.07425093, -0.092334524, -1391160.3, 30330.83, 0.0, 10.000046, 10.000148 
5.9497017e+2, 1.6494901e+2, -1291407.8, -1276682.8, 5064.59, -0.07506437, -0.108884156, -1275109.0, 48380.113, 0.0, 10.000083, 10.0002775 
5.949811e+2, 1.7494912e+2, -1189561.6, -1177040.8, 7038.4526, -0.08371505, -0.12668678, -1173881.4, 51604.695, 0.0, 10.00011, 10.000276 
5.9499186e+2, 1.8494916e+2, -1089769.8, -1083828.1, -1491.71, -0.0875263, -0.14780702, -1083474.6, 44008.98, 0.0, 10.000147, 10.000225 
5.950026e+2, 1.9494912e+2, -985262.06, -982940.94, 725.22394, -0.08621554, -0.17319989, -982733.0, 46748.875, 0.0, 10.000193, 10.000223 
5.9501314e+2, 2.0494902e+2, -894772.6, -910844.94, -10975.027, -0.083189115, -0.19483365, -889206.2, 42274.508, 0.0, 10.0002365, 10.000024 
5.9502345e+2, 2.1494886e+2, -790713.94, -810213.6, -7825.1895, -0.0782827, -0.21338351, -787962.06, 45518.08, 0.0, 10.000279, 10.000021 
5.9503365e+2, 2.2494847e+2, -722350.7, -782269.4, -23501.205, -0.07020449, -0.2293981, -714232.9, 21249.645, 0.0, 10.000316, 9.999522 
5.9504354e+2, 2.3494785e+2, -620210.44, -682697.1, -21754.824, -0.058889486, -0.24348323, -613382.5, 24105.35, 0.0, 10.000346, 9.999518 
5.950533e+2, 2.449471e+2, -543645.7, -646117.6, -28848.037, -0.048314605, -0.24535339, -536082.56, 3412.1475, 0.0, 10.00042, 9.999062 
5.95063e+2, 2.5494626e+2, -428988.2, -540481.3, -26709.27, -0.03853537, -0.23559283, -422920.0, 18583.096, 0.0, 10.000535, 9.999058 
5.950727e+2, 2.6494503e+2, -345188.9, -501924.22, -29102.19, -0.023546342, -0.24005447, -339959.75, 3554.5203, 0.0, 10.000665, 9.998588 
5.950824e+2, 2.749434e+2, -226773.92, -394504.47, -28500.453, -0.003313739, -0.25949714, -222063.47, 23464.74, 0.0, 10.000807, 9.998584 
5.950921e+2, 2.8494155e+2, -149084.63, -363940.88, -21966.137, 0.011992684, -0.27827173, -146861.89, 682.5941, 0.0, 10.000916, 9.998069 
5.9510183e+2, 2.9493943e+2, -40483.895, -261268.69, -20992.887, 0.022459563, -0.2979904, -38505.555, 11057.6045, 0.0, 10.00099, 9.998065 
5.951119e+2, 3.0493718e+2, 54477.473, -122956.39, -7095.173, 0.042573825, -0.3569682, 54760.742, 54760.742, 0.000000033052434, 10.001017, 9.998666 
5.9512216e+2, 3.149361e+2, 55747.29, -115178.05, -11141.768, 0.0670315, -0.33384264, 56470.504, 56470.504, 0.00000037488923, 10.000995, 9.99873 
6.049253e+2, 1.2493794e+2, -1710819.0, -1704059.0, 10386.87, -0.121871814, -0.07407927, -1696516.0, 19084.79, 0.0, 9.99999, 10.000079 
6.049367e+2, 1.3493799e+2, -1610102.0, -1605747.5, 10335.541, -0.09767093, -0.076465935, -1597362.4, 20237.541, 0.0, 10.000013, 10.000071 
6.04948e+2, 1.4493802e+2, -1498828.5, -1487473.0, 11498.198, -0.08307734, -0.0858093, -1480327.1, 39271.68, 0.0, 10.000045, 10.000194 
6.049592e+2, 1.5493801e+2, -1395120.5, -1386934.8, 13211.536, -0.07787824, -0.10398119, -1377196.6, 44400.79, 0.0, 10.000085, 10.000192 
6.049702e+2, 1.649381e+2, -1287411.5, -1270966.1, 8240.029, -0.07808157, -0.120233454, -1267548.0, 56047.082, 0.0, 10.000094, 10.000311 
6.049811e+2, 1.7493826e+2, -1192753.4, -1174754.6, 8627.068, -0.08405482, -0.13523221, -1171287.5, 54304.03, 0.0, 10.0000725, 10.000309 
6.0499203e+2, 1.8493836e+2, -1095120.3, -1077691.5, 1147.0922, -0.086817645, -0.15670188, -1077616.4, 49972.25, 0.0, 10.0000725, 10.000302 
6.050027e+2, 1.9493836e+2, -993717.9, -978262.7, 4584.78, -0.08610736, -0.1856783, -977004.94, 52581.332, 0.0, 10.000097, 10.0003 
6.0501325e+2, 2.0493834e+2, -903785.2, -907580.9, -6488.336, -0.08425728, -0.2074584, -898922.8, 32661.57, 0.0, 10.000142, 10.000092 
6.050237e+2, 2.1493827e+2, -796250.2, -805338.5, -4875.9165, -0.081118874, -0.22262172, -794129.25, 39453.74, 0.0, 10.000209, 10.000089 
6.050339e+2, 2.2493795e+2, -722632.75, -775775.5, -20934.137, -0.074422345, -0.238203, -715377.0, 20207.717, 0.0, 10.000286, 9.999581 
6.050438e+2, 2.3493734e+2, -612398.6, -672407.5, -18678.748, -0.06408979, -0.2548834, -607059.56, 30530.076, 0.0, 10.000372, 9.999577 
6.050537e+2, 2.4493666e+2, -534178.44, -637431.1, -24456.846, -0.053171214, -0.2572252, -528678.44, 10917.627, 0.0, 10.000467, 9.999099 
6.0506356e+2, 2.5493586e+2, -421521.97, -532864.8, -24041.07, -0.041674618, -0.2456909, -416552.8, 25051.094, 0.0, 10.000569, 9.999094 
6.050734e+2, 2.649347e+2, -340613.56, -497600.84, -26158.37, -0.02596869, -0.2497523, -336369.6, 7245.18, 0.0, 10.000687, 9.998607 
6.050831e+2, 2.7493307e+2, -223701.42, -391007.7, -25346.21, -0.0060128244, -0.27027303, -219945.88, 25682.783, 0.0, 10.000819, 9.998602 
6.0509294e+2, 2.849312e+2, -144387.1, -359724.1, -20546.338, 0.008513451, -0.28997806, -142444.19, 5200.5967, 0.0, 10.000939, 9.998086 
6.051028e+2, 2.9492912e+2, -30981.986, -254816.13, -19911.225, 0.017659154, -0.31053537, -29224.576, 20438.678, 0.00000000003092486, 10.001047, 9.998081 
6.0511285e+2, 3.0492684e+2, 66651.555, -120738.37, -9642.49, 0.035915848, -0.36940107, 67146.42, 67146.42, 0.00000008707832, 10.001116, 9.998633 
6.051231e+2, 3.1492573e+2, 75422.18, -109331.805, -14229.615, 0.058520943, -0.34535927, 76511.71, 76511.71, 0.0000006525611, 10.001145, 9.998697 
6.149253e+2, 1.24926984e+2, -1710898.5, -1704569.8, 11117.588, -0.114430316, -0.08281805, -1696175.0, 19532.244, 0.0, 9.999991, 10.000075 
6.149367e+2, 1.3492702e+2, -1610202.8, -1606278.3, 11118.646, -0.09672565, -0.08630052, -1596950.0, 20756.543, 0.0, 10.000014, 10.000067 
6.14948e+2, 1.4492708e+2, -1495396.1, -1480612.1, 12907.741, -0.086508654, -0.0952598, -1473129.6, 46575.543, 0.0, 10.000046, 10.00024 
6.149592e+2, 1.5492715e+2, -1391667.6, -1379998.1, 14613.527, -0.083650924, -0.11150933, -1370097.6, 51605.32, 0.0, 10.000086, 10.000239 
6.1497027e+2, 1.6492726e+2, -1286444.8, -1269169.0, 7307.183, -0.08332873, -0.128092, -1266492.8, 57207.453, 0.0, 10.000094, 10.000323 
6.149812e+2, 1.7492741e+2, -1191795.4, -1172951.1, 7679.684, -0.085810535, -0.14573576, -1170217.9, 55479.184, 0.0, 10.0000725, 10.000321 
6.149921e+2, 1.8492754e+2, -1088498.3, -1064147.9, 1935.9828, -0.08594385, -0.1687883, -1063995.0, 63698.754, 0.0, 10.000073, 10.000396 
6.150028e+2, 1.9492763e+2, -987022.2, -964577.56, 5411.8813, -0.08349155, -0.19829899, -963340.8, 66349.484, 0.0, 10.000097, 10.000395 
6.150134e+2, 2.0492767e+2, -900373.7, -900701.2, -4031.3665, -0.08167666, -0.21938604, -896502.75, 35184.867, 0.0, 10.000143, 10.000138 
6.1502385e+2, 2.1492769e+2, -792857.44, -798494.75, -2364.1755, -0.08040923, -0.23254539, -791997.25, 41688.5, 0.0, 10.00021, 10.000135 
6.150341e+2, 2.2492741e+2, -717988.1, -766322.75, -17690.14, -0.076868035, -0.24801046, -712205.5, 23481.441, 0.0, 10.000286, 9.999646 
6.150441e+2, 2.3492686e+2, -607745.6, -662954.94, -15399.067, -0.07098412, -0.26654673, -603741.0, 33950.316, 0.0, 10.000373, 9.999641 
6.1505413e+2, 2.4492623e+2, -533110.7, -635440.56, -20553.082, -0.060924575, -0.26856598, -529136.9, 10560.35, 0.0, 10.000467, 9.999112 
6.15064e+2, 2.549255e+2, -420478.1, -530951.44, -20105.973, -0.046588458, -0.2543875, -416932.63, 24772.15, 0.0, 10.00057, 9.999106 
6.15074e+2, 2.649243e+2, -339017.47, -494544.7, -21100.877, -0.028472807, -0.25881007, -336205.47, 7510.049, 0.0, 10.000688, 9.998628 
6.15084e+2, 2.7492267e+2, -222137.23, -387987.66, -20271.787, -0.006526732, -0.28285885, -219695.38, 26034.09, 0.0, 10.00082, 9.998622 
6.1509395e+2, 2.849208e+2, -143379.16, -357835.66, -16345.934, 0.008168767, -0.303818, -142140.42, 5605.0547, 0.0, 10.00094, 9.998098 
6.1510384e+2, 2.9491875e+2, -30027.531, -252995.66, -15733.371, 0.015588806, -0.3233486, -28922.807, 20840.81, 0.0000000010306047, 10.001048, 9.998094 
6.151139e+2, 3.0491647e+2, 63972.527, -126538.586, -8325.828, 0.029683886, -0.3827778, 64335.695, 64335.695, 0.00000016756015, 10.001117, 9.998593 
6.1512417e+2, 3.1491524e+2, 72803.3, -115119.55, -12914.747, 0.046153855, -0.3612227, 73686.695, 73686.695, 0.000001002472, 10.001146, 9.998657 
6.2492543e+2, 1.249161e+2, -1703440.1, -1700962.9, 14923.279, -0.111887746, -0.089658834, -1687226.9, 28586.336, 0.0, 10.000043, 10.000075 
6.2493676e+2, 1.3491613e+2, -1605928.1, -1604283.1, 15186.449, -0.096289255, -0.094737515, -1589896.9, 27915.8, 0.0, 10.000044, 10.000066 
6.24948e+2, 1.4491618e+2, -1492511.0, -1475455.6, 17011.816, -0.08763293, -0.103473745, -1464953.9, 54857.254, 0.0, 10.00005, 10.000274 
6.2495923e+2, 1.5491632e+2, -1393422.9, -1377101.5, 17633.49, -0.08595162, -0.11750119, -1365831.9, 55976.316, 0.0, 10.000057, 10.000273 
6.249703e+2, 1.6491646e+2, -1288175.4, -1265119.6, 9599.426, -0.08535935, -0.13559732, -1261646.1, 62159.066, 0.0, 10.000062, 10.000366 
6.249813e+2, 1.749166e+2, -1190184.1, -1167333.0, 12249.756, -0.08605451, -0.1586345, -1162007.5, 63794.582, 0.0, 10.000063, 10.000364 
6.2499213e+2, 1.8491675e+2, -1084312.1, -1055784.1, 7570.894, -0.0854558, -0.18256357, -1053899.5, 73898.81, 0.0, 10.000074, 10.000452 
6.250029e+2, 1.9491695e+2, -982942.3, -956271.75, 8170.82, -0.08337379, -0.208286, -953967.6, 75826.305, 0.0, 10.000098, 10.000451 
6.2501353e+2, 2.0491706e+2, -898170.3, -894341.25, -1493.8605, -0.08218167, -0.22838831, -893827.44, 37963.273, 0.0, 10.000135, 10.000186 
6.25024e+2, 2.1491708e+2, -792966.94, -793234.75, 115.72209, -0.08180201, -0.24344985, -792923.9, 40864.69, 0.0, 10.000187, 10.000182 
6.250344e+2, 2.2491688e+2, -717605.4, -760837.2, -14496.353, -0.07874913, -0.259355, -713194.5, 22594.807, 0.0, 10.000267, 9.999693 
6.2504447e+2, 2.3491639e+2, -603929.94, -655790.0, -13576.655, -0.072917335, -0.276811, -600590.7, 37202.383, 0.0, 10.000377, 9.999689 
6.2505454e+2, 2.4491575e+2, -528512.2, -631862.8, -18967.969, -0.06296892, -0.2786292, -525140.94, 14657.721, 0.0, 10.000494, 9.999124 
6.250646e+2, 2.54915e+2, -412771.97, -525895.75, -18695.805, -0.04880598, -0.26512185, -409762.22, 32043.979, 0.0, 10.000618, 9.999119 
6.250746e+2, 2.6491386e+2, -329743.25, -487755.53, -19306.916, -0.03161242, -0.27041936, -327418.44, 16398.414, 0.0, 10.000742, 9.998648 
6.2508476e+2, 2.7491224e+2, -214117.84, -381760.88, -18565.686, -0.011339515, -0.29560536, -212086.4, 33744.227, 0.0, 10.000865, 9.998643 
6.250948e+2, 2.849104e+2, -136734.31, -352686.72, -15398.918, 0.0028384298, -0.31699204, -135641.78, 12204.629, 0.0, 10.0009775, 9.998116 
6.251048e+2, 2.9490831e+2, -24299.854, -248284.78, -14565.941, 0.010935421, -0.33625585, -23356.59, 26507.688, 0.000000004235602, 10.001079, 9.998111 
6.25115e+2, 3.0490604e+2, 70858.81, -125489.12, -8005.6772, 0.024352496, -0.39719316, 71184.69, 71184.69, 0.000000262113, 10.001174, 9.998572 
6.251252e+2, 3.1490478e+2, 88341.13, -109890.16, -11303.269, 0.039270036, -0.37950614, 88983.57, 88983.57, 0.0000013873902, 10.001264, 9.998636 
6.349254e+2, 1.2490528e+2, -1703132.4, -1700668.9, 14824.052, -0.11443469, -0.09451896, -1687025.5, 28893.076, 0.0, 10.000044, 10.000077 
6.3493675e+2, 1.3490528e+2, -1605692.1, -1604096.6, 15150.39, -0.096407235, -0.10179753, -1589723.0, 28195.19, 0.0, 10.000045, 10.000067 
6.349481e+2, 1.4490536e+2, -1491128.8, -1472815.0, 17226.69, -0.08642219, -0.11047748, -1462462.8, 57453.758, 0.0, 10.00005, 10.000292 
6.349593e+2, 1.5490553e+2, -1392062.9, -1374468.0, 17822.855, -0.08474041, -0.12196533, -1363389.6, 58523.637, 0.0, 10.000058, 10.000291 
6.349704e+2, 1.6490568e+2, -1282990.3, -1254535.0, 9521.649, -0.08413974, -0.142754, -1251642.9, 72267.14, 0.0, 10.000062, 10.000439 
6.3498133e+2, 1.749058e+2, -1184957.4, -1156676.0, 12171.384, -0.08477895, -0.17394722, -1152159.3, 73747.24, 0.0, 10.000063, 10.000438 
6.349922e+2, 1.8490602e+2, -1082951.6, -1053158.4, 8330.934, -0.08535614, -0.19804953, -1050987.1, 76915.164, 0.0, 10.000075, 10.00047 
6.35003e+2, 1.9490631e+2, -981631.1, -953742.06, 8962.876, -0.08574968, -0.21564777, -951110.0, 78787.15, 0.0, 10.000099, 10.000468 
6.350137e+2, 2.0490646e+2, -894885.0, -887722.8, 345.52798, -0.0857616, -0.23445332, -887706.2, 44187.34, 0.0, 10.000136, 10.000231 
6.3502425e+2, 2.149065e+2, -789676.9, -786634.4, 2001.3304, -0.085281506, -0.2552995, -785641.75, 48249.61, 0.0, 10.000187, 10.000227 
6.350346e+2, 2.249063e+2, -715472.75, -756631.56, -10397.456, -0.08008881, -0.27221447, -712995.3, 22896.514, 0.0, 10.000267, 9.999722 
6.350449e+2, 2.3490587e+2, -601821.44, -651615.5, -9429.298, -0.06999325, -0.2857031, -600095.7, 37799.223, 0.0, 10.000377, 9.999718 
6.350551e+2, 2.4490528e+2, -527804.44, -630573.0, -14272.043, -0.059422567, -0.2874289, -525859.2, 14041.132, 0.0, 10.000494, 9.999132 
6.3506526e+2, 2.549045e+2, -412080.34, -524621.25, -13959.16, -0.048394036, -0.27783036, -410374.75, 31533.389, 0.0, 10.000618, 9.999127 
6.350754e+2, 2.649033e+2, -328327.66, -484978.4, -14596.725, -0.035371523, -0.28451636, -326979.16, 16939.623, 0.0, 10.000742, 9.998667 
6.350855e+2, 2.7490175e+2, -212678.69, -378939.78, -13846.259, -0.020322809, -0.30852884, -211533.45, 34398.742, 0.0, 10.000866, 9.998663 
6.350957e+2, 2.8489992e+2, -135225.27, -349745.97, -11471.752, -0.007333356, -0.32954305, -134613.55, 13334.131, 0.0, 10.000978, 9.998136 
6.3510585e+2, 2.9489785e+2, -22766.332, -245315.0, -10648.457, 0.0037597124, -0.34927535, -22257.988, 27707.32, 0.000000008608103, 10.00108, 9.998131 
6.351161e+2, 3.0489558e+2, 70727.08, -126026.03, -4508.398, 0.019832795, -0.41262245, 70830.33, 70830.33, 0.00000035003856, 10.001175, 9.998569 
6.351265e+2, 3.1489426e+2, 88223.83, -110397.695, -7811.2456, 0.037525404, -0.40015063, 88530.55, 88530.55, 0.0000017531521, 10.001265, 9.998632 
6.449255e+2, 1.24894455e+2, -1702649.5, -1699755.8, 15590.374, -0.11282573, -0.10132563, -1685545.3, 30478.66, 0.0, 10.000045, 10.000083 
6.449368e+2, 1.3489446e+2, -1609232.0, -1605134.4, 16278.549, -0.094343096, -0.10828668, -1590776.3, 27247.209, 0.0, 10.000018, 10.0000725 
6.449481e+2, 1.4489454e+2, -1496657.8, -1472856.8, 19119.973, -0.08502259, -0.117765196, -1462236.3, 57785.37, 0.0, 10.000001, 10.000316 
6.449593e+2, 1.5489472e+2, -1400106.0, -1375683.5, 20106.398, -0.085339665, -0.13111323, -1364370.6, 57647.742, 0.0, 9.999991, 10.000315 
6.449704e+2, 1.6489491e+2, -1287923.0, -1250443.0, 12009.068, -0.08478966, -0.15271425, -1246925.4, 77089.35, 0.0, 10.000001, 10.000497 
6.449814e+2, 1.748951e+2, -1185758.8, -1150564.3, 13453.272, -0.083406165, -0.18363053, -1146010.8, 79999.76, 0.0, 10.0000305, 10.000496 
6.4499223e+2, 1.8489534e+2, -1082990.8, -1052375.6, 9485.52, -0.08376947, -0.2074943, -1049675.0, 78330.91, 0.0, 10.000072, 10.000477 
6.4500314e+2, 1.9489564e+2, -977091.75, -950838.6, 9191.731, -0.08586297, -0.22490676, -947940.4, 82060.484, 0.0, 10.000128, 10.000474 
6.450138e+2, 2.0489581e+2, -885498.75, -879432.4, 216.6158, -0.08762442, -0.24421881, -879424.7, 52572.375, 0.0, 10.000185, 10.000264 
6.4502436e+2, 2.1489586e+2, -779088.5, -777769.25, 902.4789, -0.08896137, -0.26628044, -777311.06, 56683.504, 0.0, 10.000244, 10.00026 
6.4503485e+2, 2.2489567e+2, -707960.56, -751167.3, -11093.585, -0.083323225, -0.28325325, -705278.7, 30716.025, 0.0, 10.000311, 9.999738 
6.450453e+2, 2.3489527e+2, -599363.6, -648678.3, -11155.996, -0.07040595, -0.29557654, -596957.3, 41040.277, 0.0, 10.000387, 9.999733 
6.450556e+2, 2.448947e+2, -528031.25, -628649.6, -15148.786, -0.05852367, -0.29778013, -525799.94, 14202.93, 0.0, 10.000484, 9.99915 
6.4506584e+2, 2.5489393e+2, -412954.03, -523062.28, -14253.994, -0.047740113, -0.29033825, -411138.72, 30871.945, 0.0, 10.000605, 9.999145 
6.450761e+2, 2.6489276e+2, -329011.8, -484263.44, -14710.397, -0.036556005, -0.29786783, -327630.28, 16390.932, 0.0, 10.000733, 9.998675 
6.4508635e+2, 2.7489117e+2, -211166.83, -377196.38, -14814.296, -0.02499923, -0.32140204, -209855.34, 36179.168, 0.0, 10.000872, 9.998672 
6.450966e+2, 2.8488937e+2, -131010.086, -346242.7, -13945.881, -0.013825265, -0.34169534, -130110.234, 17939.61, 0.0, 10.001001, 9.998149 
6.4510685e+2, 2.9488736e+2, -15972.543, -240589.88, -13758.556, -0.0028138252, -0.36046454, -15132.924, 34934.355, 0.000000011710588, 10.001121, 9.998143 
6.451172e+2, 3.0488506e+2, 79364.72, -121679.77, -8269.267, 0.013789868, -0.42395836, 79704.27, 79704.27, 0.00000040808163, 10.001234, 9.9985695 
6.451278e+2, 3.1488374e+2, 99455.55, -104820.93, -11306.7, 0.033146236, -0.4135973, 100079.47, 100079.47, 0.0000020407565, 10.001341, 9.998634 
6.549256e+2, 1.2488363e+2, -1701897.5, -1698457.8, 14444.64, -0.10695596, -0.110279754, -1685631.0, 30498.271, 0.0, 10.000046, 10.000092 
6.549369e+2, 1.3488367e+2, -1608485.1, -1603821.3, 15199.407, -0.09004939, -0.114237174, -1590776.0, 27352.498, 0.0, 10.000019, 10.000081 
6.549481e+2, 1.4488375e+2, -1494660.1, -1468878.6, 18650.35, -0.08343804, -0.12536408, -1459097.6, 61028.97, 0.0, 10.000001, 10.000342 
6.5495926e+2, 1.548839e+2, -1398078.4, -1371630.0, 19627.379, -0.087784365, -0.14503285, -1361187.5, 60936.074, 0.0, 9.999991, 10.000342 
6.549704e+2, 1.6488414e+2, -1284966.3, -1244449.8, 12987.931, -0.08734804, -0.16555591, -1240643.9, 83475.555, 0.0, 10.000001, 10.000538 
6.5498143e+2, 1.7488444e+2, -1182773.0, -1144527.4, 14428.148, -0.08195143, -0.18768351, -1139695.0, 86418.96, 0.0, 10.0000305, 10.000537 
6.5499234e+2, 1.8488473e+2, -1083329.9, -1053249.9, 11443.169, -0.08070306, -0.21086107, -1049391.6, 78717.555, 0.0, 10.0000725, 10.000471 
6.5500325e+2, 1.9488493e+2, -977491.5, -951832.4, 11168.144, -0.08372889, -0.2360289, -947652.4, 82452.48, 0.0, 10.000128, 10.000467 
6.55014e+2, 2.0488508e+2, -884014.1, -876514.56, 2384.2495, -0.08778249, -0.2576679, -875820.75, 56280.473, 0.0, 10.000185, 10.000284 
6.550246e+2, 2.1488518e+2, -777600.5, -774855.44, 3073.6702, -0.09284053, -0.27640983, -772861.75, 61236.297, 0.0, 10.000244, 10.00028 
6.550351e+2, 2.2488503e+2, -707711.75, -750850.25, -8281.224, -0.08842706, -0.29248416, -706176.6, 29921.361, 0.0, 10.000312, 9.999741 
6.5504557e+2, 2.3488463e+2, -599141.3, -648477.3, -8331.726, -0.07409234, -0.30639684, -597772.25, 40328.773, 0.0, 10.000387, 9.999734 
6.5505606e+2, 2.4488403e+2, -526158.0, -625047.25, -10640.678, -0.060223397, -0.30964708, -525026.0, 15080.281, 0.0, 10.000485, 9.999175 
6.550665e+2, 2.548833e+2, -411097.78, -519468.22, -9716.091, -0.046864852, -0.3026595, -410233.56, 31880.154, 0.0, 10.000605, 9.999169 
6.5507686e+2, 2.6488212e+2, -329104.34, -484655.16, -9483.191, -0.035258755, -0.31050232, -328528.3, 15595.851, 0.0, 10.000734, 9.9986725 
6.5508723e+2, 2.7488056e+2, -211355.36, -377674.13, -9549.583, -0.025536915, -0.3342391, -210808.84, 35328.797, 0.0, 10.000872, 9.998668 
6.5509754e+2, 2.8487876e+2, -130721.5, -345693.34, -9391.266, -0.016789941, -0.35348555, -130312.016, 17840.953, 0.0, 10.001001, 9.998153 
6.551079e+2, 2.9487675e+2, -15700.2295, -240122.34, -9180.627, -0.008823187, -0.36991704, -15325.297, 34844.953, 0.000000011654482, 10.001121, 9.998147 
6.551184e+2, 3.0487448e+2, 79826.49, -120958.1, -4163.2896, 0.006267634, -0.43141264, 79912.78, 79912.78, 0.00000041978168, 10.001235, 9.998574 
6.55129e+2, 3.1487316e+2, 100003.82, -104101.51, -7235.798, 0.026182486, -0.4203463, 100260.016, 100260.016, 0.0000022012798, 10.001343, 9.998638 
6.6492563e+2, 1.24872796e+2, -1713568.4, -1703521.5, 14751.804, -0.1015664, -0.11978528, -1692961.3, 23273.266, 0.0, 9.999964, 10.000096 
6.649369e+2, 1.3487287e+2, -1614989.9, -1606381.1, 15215.141, -0.08767071, -0.12200108, -1594873.3, 23360.385, 0.0, 9.999972, 10.000086 
6.649481e+2, 1.4487295e+2, -1495980.4, -1466658.3, 18608.34, -0.08367657, -0.13388626, -1457629.3, 62602.44, 0.0, 9.99998, 10.000368 
6.6495925e+2, 1.548731e+2, -1397120.5, -1368179.5, 19421.156, -0.09027497, -0.15670735, -1358430.6, 63797.863, 0.0, 9.999986, 10.000368 
6.6497034e+2, 1.6487335e+2, -1284726.1, -1245099.6, 12186.382, -0.08972239, -0.17594856, -1241651.9, 82572.27, 0.0, 10.000007, 10.000531 
6.649814e+2, 1.7487372e+2, -1181436.8, -1144635.0, 9893.577, -0.081705414, -0.19215277, -1142144.0, 84074.5, 0.0, 10.000043, 10.00053 
6.6499245e+2, 1.84874e+2, -1080816.1, -1049830.3, 6481.4126, -0.07929759, -0.21495537, -1048529.1, 79684.43, 0.0, 10.00008, 10.00049 
6.6500336e+2, 1.9487418e+2, -977439.4, -949571.6, 8117.2446, -0.08272776, -0.24556941, -947379.7, 82829.74, 0.0, 10.000119, 10.000487 
6.6501415e+2, 2.048743e+2, -885955.06, -877146.0, 252.27682, -0.08711248, -0.26942098, -877138.8, 55066.94, 0.0, 10.000171, 10.000286 
6.650248e+2, 2.1487442e+2, -778548.8, -775072.1, -526.1766, -0.09243368, -0.28697416, -774994.25, 59208.24, 0.0, 10.000237, 10.000282 
6.650355e+2, 2.2487427e+2, -705159.7, -749485.6, -11397.734, -0.08885556, -0.30306792, -702400.7, 33801.688, 0.0, 10.000329, 9.999741 
6.6504604e+2, 2.3487386e+2, -590369.8, -644159.1, -11605.854, -0.07592617, -0.31825513, -587972.56, 50232.98, 0.0, 10.000448, 9.999734 
6.650565e+2, 2.4487327e+2, -516078.4, -620206.0, -14564.856, -0.062400565, -0.3213814, -514079.5, 26131.22, 0.0, 10.000555, 9.999174 
6.650671e+2, 2.5487253e+2, -404740.06, -516464.06, -15577.021, -0.048265457, -0.3127365, -402608.9, 39609.13, 0.0, 10.000649, 9.999168 
6.6507757e+2, 2.6487136e+2, -328013.3, -484034.9, -16029.971, -0.036754735, -0.31981283, -326383.38, 17845.049, 0.0, 10.000742, 9.998673 
6.65088e+2, 2.748698e+2, -217381.69, -380554.6, -15933.088, -0.028045898, -0.3437946, -215840.45, 30401.523, 0.0, 10.000831, 9.998668 
6.650985e+2, 2.84868e+2, -138232.98, -349538.97, -15173.742, -0.01990702, -0.36287868, -137148.94, 11108.438, 0.0, 10.000951, 9.99815 
6.6510904e+2, 2.94866e+2, -18577.42, -241834.77, -15513.273, -0.012140218, -0.3787341, -17504.62, 32770.1, 0.000000008469742, 10.001102, 9.998143 
6.6511965e+2, 3.0486375e+2, 83821.52, -120539.57, -11197.078, 0.001385629, -0.43837005, 84433.19, 84433.19, 0.00000038345433, 10.001269, 9.998561 
6.651303e+2, 3.1486243e+2, 114519.77, -98697.266, -15739.37, 0.018755758, -0.42505047, 115675.37, 115675.37, 0.000002213461, 10.00145, 9.998624 
6.749257e+2, 1.2486198e+2, -1713590.9, -1703690.5, 14969.183, -0.09669349, -0.1298815, -1692874.3, 23465.361, 0.0, 9.999964, 10.000095 
6.749369e+2, 1.3486205e+2, -1614973.1, -1606553.4, 15491.931, -0.08726713, -0.13164677, -1594709.5, 23629.379, 0.0, 9.999972, 10.000085 
6.7494804e+2, 1.4486215e+2, -1494331.8, -1463435.5, 18707.658, -0.08579892, -0.14338751, -1454622.1, 65714.66, 0.0, 9.999981, 10.00039 
6.749592e+2, 1.5486231e+2, -1395365.1, -1364743.4, 19517.674, -0.09283686, -0.16613741, -1355247.8, 67085.4, 0.0, 9.999987, 10.000392 
6.749703e+2, 1.6486256e+2, -1288633.3, -1253395.8, 13431.4795, -0.09192579, -0.1838766, -1248860.0, 75468.984, 0.0, 10.000007, 10.000474 
6.7498153e+2, 1.7486292e+2, -1185362.9, -1152955.5, 11132.205, -0.082689196, -0.1970404, -1149500.0, 76823.89, 0.0, 10.000044, 10.000473 
6.7499256e+2, 1.8486318e+2, -1077691.5, -1043516.9, 7811.8735, -0.07957202, -0.2197876, -1041815.8, 86503.25, 0.0, 10.000081, 10.000533 
6.7500347e+2, 1.9486338e+2, -974175.3, -942967.2, 9445.827, -0.08286761, -0.25354773, -940330.9, 89983.51, 0.0, 10.000119, 10.000532 
6.750143e+2, 2.048635e+2, -887069.75, -879638.8, 2679.7563, -0.085634075, -0.2794938, -878773.25, 53537.383, 0.0, 10.000171, 10.000269 
6.750251e+2, 2.1486358e+2, -779684.0, -777615.06, 1907.2675, -0.087797, -0.29796478, -776479.8, 57827.895, 0.0, 10.000237, 10.000265 
6.7503583e+2, 2.2486342e+2, -705226.25, -749807.75, -6985.5825, -0.084669374, -0.31498584, -704157.3, 32150.486, 0.0, 10.00033, 9.999739 
6.7504644e+2, 2.34863e+2, -590425.94, -644469.2, -7175.779, -0.07593859, -0.33113915, -589489.4, 48821.63, 0.0, 10.000448, 9.999732 
6.7505705e+2, 2.4486239e+2, -517795.4, -623998.5, -11003.468, -0.06504729, -0.33299705, -516667.34, 23648.877, 0.0, 10.000555, 9.999148 
6.7506766e+2, 2.5486165e+2, -406497.06, -520375.84, -12013.416, -0.051886156, -0.32063317, -405243.53, 37080.043, 0.0, 10.00065, 9.999141 
6.750783e+2, 2.648605e+2, -327740.84, -483769.72, -12650.556, -0.040970962, -0.32589877, -326721.8, 17612.186, 0.0, 10.000743, 9.998675 
6.750888e+2, 2.7485895e+2, -217133.22, -380347.25, -12531.993, -0.032469932, -0.35018578, -216176.58, 30170.967, 0.0, 10.000832, 9.998669 
6.7509943e+2, 2.8485715e+2, -138838.56, -351055.25, -9454.807, -0.023191318, -0.36996523, -138418.16, 9944.93, 0.0, 10.000952, 9.998139 
6.7511004e+2, 2.948551e+2, -19314.79, -243523.61, -9700.387, -0.012900016, -0.38694045, -18895.885, 31484.844, 0.0000000040864183, 10.001102, 9.998132 
6.7512083e+2, 3.0485284e+2, 81540.55, -125391.42, -4311.7153, -0.0009886173, -0.44486633, 81630.35, 81630.35, 0.0000003121116, 10.001269, 9.998528 
6.7513174e+2, 3.1485155e+2, 112167.15, -103692.5, -8843.826, 0.0108271465, -0.42779988, 112528.875, 112528.875, 0.0000020895884, 10.00145, 9.9985895 
6.849256e+2, 1.248511e+2, -1717491.9, -1704990.1, 9570.499, -0.094694965, -0.1372277, -1699810.0, 16635.49, 0.0, 9.999935, 10.0001 
6.849368e+2, 1.3485116e+2, -1618766.9, -1607826.1, 10541.204, -0.08631234, -0.14022286, -1601420.4, 17024.344, 0.0, 9.999945, 10.00009 
6.84948e+2, 1.4485127e+2, -1499455.4, -1465454.0, 12717.563, -0.08511092, -0.1510997, -1461223.6, 59218.977, 0.0, 9.999944, 10.000394 
6.849592e+2, 1.5485148e+2, -1403116.6, -1367922.4, 12053.425, -0.091509454, -0.17050385, -1364190.1, 58248.582, 0.0, 9.999931, 10.000397 
6.849703e+2, 1.6485171e+2, -1297931.5, -1260729.0, 8361.7, -0.090214305, -0.188841, -1258936.0, 65498.625, 0.0, 9.999956, 10.000448 
6.849815e+2, 1.7485197e+2, -1190493.8, -1158220.5, 8421.234, -0.08085321, -0.20679851, -1156155.3, 70275.1, 0.0, 10.000021, 10.000447 
6.849926e+2, 1.8485223e+2, -1076680.3, -1042242.8, 4931.664, -0.07841186, -0.23017482, -1041550.44, 86875.17, 0.0, 10.000085, 10.00054 
6.850036e+2, 1.9485247e+2, -969390.75, -939701.0, 3662.4443, -0.083262704, -0.26014838, -939255.9, 91164.555, 0.0, 10.000148, 10.000541 
6.8501455e+2, 2.0485261e+2, -883533.0, -879789.0, -4326.476, -0.08560279, -0.2855444, -876946.94, 55469.668, 0.0, 10.000204, 10.000253 
6.8502533e+2, 2.1485265e+2, -778899.94, -779054.6, -5124.941, -0.08524575, -0.30686462, -773851.75, 60562.305, 0.0, 10.000252, 10.000248 
6.850361e+2, 2.2485244e+2, -705587.9, -751514.1, -12137.05, -0.08129793, -0.32511258, -702577.7, 33836.71, 0.0, 10.000334, 9.999724 
6.850469e+2, 2.34852e+2, -590542.06, -646065.56, -13273.502, -0.073506206, -0.3407789, -587532.06, 50885.582, 0.0, 10.000455, 9.999718 
6.8505764e+2, 2.4485141e+2, -517125.78, -626518.5, -18140.283, -0.063863136, -0.34245554, -514196.1, 26226.984, 0.0, 10.000573, 9.999122 
6.850683e+2, 2.5485066e+2, -402828.4, -521509.47, -19209.525, -0.052278634, -0.3301723, -399796.66, 42634.117, 0.0, 10.000689, 9.999115 
6.85079e+2, 2.6484948e+2, -321101.63, -481272.84, -20787.037, -0.043398477, -0.3344108, -318447.84, 25993.479, 0.0, 10.000792, 9.998669 
6.850896e+2, 2.7484792e+2, -210398.38, -377779.22, -21329.844, -0.03742694, -0.3565679, -207723.02, 38731.805, 0.0, 10.000881, 9.998663 
6.851003e+2, 2.8484613e+2, -134152.66, -348741.13, -16639.703, -0.02831706, -0.37545305, -132870.03, 15600.3125, 0.0, 10.000984, 9.998139 
6.8511117e+2, 2.948441e+2, -19873.338, -243759.16, -16082.276, -0.015704773, -0.3928684, -18724.008, 31764.037, 0.0000000009738006, 10.0011, 9.998132 
6.851221e+2, 3.0484182e+2, 78287.24, -128207.04, -7625.8257, -0.003821459, -0.45124406, 78568.48, 78568.48, 0.00000022618863, 10.001252, 9.998516 
6.8513304e+2, 3.148405e+2, 110497.38, -105866.36, -10679.268, 0.005873343, -0.43572107, 111023.21, 111023.21, 0.0000018662819, 10.001445, 9.998577 
6.9492555e+2, 1.2484018e+2, -1716758.8, -1703678.3, 9806.042, -0.09568898, -0.14178614, -1698431.5, 18120.393, 0.0, 9.999935, 10.000109 
6.9493675e+2, 1.348402e+2, -1618029.3, -1606529.4, 10814.401, -0.08482568, -0.14771438, -1600031.4, 18519.947, 0.0, 9.999946, 10.000098 
6.94948e+2, 1.4484034e+2, -1500520.5, -1467855.3, 12112.465, -0.081581324, -0.15701547, -1463854.0, 56694.992, 0.0, 9.999945, 10.000378 
6.949591e+2, 1.548406e+2, -1404153.8, -1370243.0, 11422.579, -0.0862534, -0.16975029, -1366754.3, 55790.504, 0.0, 9.999931, 10.0003805 
6.949703e+2, 1.648408e+2, -1297570.5, -1260135.4, 10641.183, -0.084556624, -0.19079728, -1257322.0, 67219.03, 0.0, 9.999956, 10.000452 
6.949816e+2, 1.7484094e+2, -1190036.1, -1157438.4, 10737.751, -0.076190084, -0.22145933, -1154219.3, 72318.4, 0.0, 10.000021, 10.000453 
6.949927e+2, 1.8484117e+2, -1078781.6, -1046776.06, 7227.347, -0.07582181, -0.2461787, -1045219.7, 83313.44, 0.0, 10.000085, 10.000509 
6.9500375e+2, 1.9484149e+2, -971461.0, -944167.56, 5955.466, -0.08392022, -0.26541257, -942924.6, 87602.78, 0.0, 10.000149, 10.00051 
6.950147e+2, 2.0484163e+2, -884676.9, -882353.7, -2587.4639, -0.08701811, -0.28760317, -880679.0, 51844.543, 0.0, 10.000204, 10.000235 
6.950256e+2, 2.148416e+2, -780003.25, -781580.1, -3402.9827, -0.08476164, -0.3137028, -777298.56, 57223.004, 0.0, 10.000252, 10.000231 
6.950365e+2, 2.2484137e+2, -707326.94, -755384.5, -7680.0967, -0.07874203, -0.33349165, -706129.44, 30392.768, 0.0, 10.000335, 9.999698 
6.9504744e+2, 2.3484093e+2, -592318.06, -650018.94, -8772.817, -0.06868778, -0.34724963, -591013.75, 47511.746, 0.0, 10.000455, 9.99969 
6.950582e+2, 2.4484028e+2, -518893.94, -630446.2, -13795.25, -0.0589387, -0.34980157, -517213.25, 23318.01, 0.0, 10.000573, 9.999095 
6.95069e+2, 2.5483945e+2, -404663.8, -525520.56, -14843.64, -0.049537323, -0.34130117, -402867.4, 39672.17, 0.0, 10.000689, 9.999087 
6.9507974e+2, 2.6483828e+2, -322136.16, -483585.4, -17359.674, -0.044094987, -0.34528074, -320290.66, 24259.758, 0.0, 10.000792, 9.998652 
6.950905e+2, 2.7483675e+2, -211443.66, -380066.78, -17886.283, -0.042899217, -0.36294708, -209567.3, 36996.484, 0.0, 10.000881, 9.998647 
6.9510126e+2, 2.8483498e+2, -133508.52, -347491.16, -12247.149, -0.035222355, -0.37940502, -132809.84, 15769.32, 0.0, 10.000984, 9.998149 
6.9511217e+2, 2.9483294e+2, -19201.984, -242448.4, -11621.915, -0.020475928, -0.3966153, -18598.594, 31998.115, 0.000000000021633938, 10.0011, 9.998141 
6.951233e+2, 3.0483067e+2, 78779.266, -127203.11, -322.17963, -0.0071164207, -0.4574908, 78779.77, 78779.77, 0.00000014519733, 10.001252, 9.998524 
6.951345e+2, 3.148293e+2, 110798.66, -105090.15, -3315.88, 0.0036697274, -0.4487187, 110849.58, 110849.58, 0.0000015881137, 10.001444, 9.998583 
7.049254e+2, 1.2482914e+2, -1718416.6, -1703002.9, 2383.535, -0.096605994, -0.14779538, -1702642.6, 14016.729, 0.0, 9.999918, 10.000122 
7.049367e+2, 1.3482918e+2, -1624952.1, -1608386.0, 3636.5647, -0.08271165, -0.1542857, -1607622.9, 11035.781, 0.0, 9.999892, 10.000111 
7.0494795e+2, 1.4482932e+2, -1511521.0, -1475275.1, 4989.6597, -0.07792938, -0.16301522, -1474600.8, 46055.727, 0.0, 9.999879, 10.000358 
7.0495903e+2, 1.5482958e+2, -1413065.3, -1376566.4, 4030.659, -0.08251436, -0.17363612, -1376126.6, 46525.797, 0.0, 9.99988, 10.000362 
7.049703e+2, 1.6482976e+2, -1302106.9, -1260268.3, 6455.818, -0.08124292, -0.19556807, -1259294.8, 65353.99, 0.0, 9.999916, 10.00047 
7.049816e+2, 1.748299e+2, -1192807.5, -1156527.8, 7631.816, -0.073835626, -0.23032811, -1154987.6, 71657.56, 0.0, 9.999992, 10.000473 
7.049928e+2, 1.848301e+2, -1084395.8, -1054908.9, 3996.9497, -0.073904544, -0.25560182, -1054376.6, 74264.21, 0.0, 10.000071, 10.00046 
7.050039e+2, 1.948304e+2, -974788.8, -951276.2, 1242.135, -0.08190384, -0.27160555, -951210.75, 79424.84, 0.0, 10.00015, 10.000461 
7.0501494e+2, 2.0483051e+2, -882442.8, -884862.2, -8669.078, -0.08512353, -0.29261062, -874899.4, 57732.66, 0.0, 10.000236, 10.000202 
7.0502585e+2, 2.1483044e+2, -771295.6, -780980.9, -10683.963, -0.083224796, -0.31969267, -764408.0, 70222.37, 0.0, 10.000328, 10.000198 
7.0503694e+2, 2.2483015e+2, -697047.7, -754367.3, -14457.196, -0.07738173, -0.339995, -693607.75, 43023.594, 0.0, 10.0004225, 9.999662 
7.050479e+2, 2.3482968e+2, -585273.4, -650641.2, -16249.957, -0.06729415, -0.353747, -581456.6, 57178.344, 0.0, 10.000522, 9.999654 
7.050588e+2, 2.4482901e+2, -514449.47, -629518.2, -21596.35, -0.05744296, -0.35688624, -510529.75, 30111.268, 0.0, 10.000609, 9.9990835 
7.050698e+2, 2.5482816e+2, -405822.84, -527320.5, -21521.02, -0.047853544, -0.34956855, -402123.44, 40526.113, 0.0, 10.000687, 9.999076 
7.0508057e+2, 2.6482695e+2, -327340.06, -487344.25, -23895.857, -0.04273646, -0.3533138, -323847.56, 20812.959, 0.0, 10.000762, 9.998641 
7.050913e+2, 2.7482545e+2, -219038.45, -385018.25, -24228.805, -0.042419612, -0.36927637, -215573.98, 31099.977, 0.0, 10.000835, 9.998635 
7.0510215e+2, 2.848237e+2, -140496.64, -349943.8, -17206.92, -0.035999645, -0.38463226, -139092.44, 9596.8955, 0.0, 10.000933, 9.998157 
7.0511323e+2, 2.9482165e+2, -25266.484, -244425.56, -16707.455, -0.022935126, -0.40138406, -24000.12, 26706.666, 0.0, 10.001054, 9.998149 
7.0512444e+2, 3.048194e+2, 72639.68, -125749.055, -2438.0815, -0.009872899, -0.46264085, 72669.64, 72669.64, 0.00000008201181, 10.001191, 9.998562 
7.051359e+2, 3.1481802e+2, 99089.07, -106419.45, -3159.1563, 0.0024198147, -0.45677313, 99137.62, 99137.62, 0.0000012936833, 10.001345, 9.998621 
7.1492535e+2, 1.2481799e+2, -1717269.3, -1700843.1, 1279.4723, -0.097461715, -0.15536249, -1700744.0, 16023.967, 0.0, 9.999918, 10.000136 
7.149367e+2, 1.3481806e+2, -1623812.4, -1606212.6, 2507.8467, -0.07997466, -0.15992966, -1605862.3, 12904.65, 0.0, 9.999892, 10.000126 
7.149478e+2, 1.448182e+2, -1513111.0, -1478728.5, 4888.7124, -0.07417079, -0.16909744, -1478046.9, 42717.855, 0.0, 9.999879, 10.000334 
7.1495897e+2, 1.548184e+2, -1414601.1, -1379930.9, 3923.0986, -0.08033636, -0.18223052, -1379492.5, 43268.84, 0.0, 9.99988, 10.0003395 
7.1497023e+2, 1.648186e+2, -1299846.0, -1255752.9, 9156.755, -0.08032451, -0.2032261, -1253926.9, 70830.65, 0.0, 9.999917, 10.000501 
7.1498156e+2, 1.7481881e+2, -1190425.3, -1151761.0, 10380.191, -0.07382683, -0.233414, -1149150.5, 77602.555, 0.0, 9.999993, 10.000505 
7.1499294e+2, 1.84819e+2, -1089069.8, -1064789.0, 6896.6885, -0.072687835, -0.25842747, -1062966.9, 65781.945, 0.0, 10.000071, 10.000392 
7.150041e+2, 1.948192e+2, -979560.75, -961369.7, 4153.868, -0.07724071, -0.27871946, -960466.06, 70278.734, 0.0, 10.000151, 10.000391 
7.150152e+2, 2.0481925e+2, -885779.7, -891977.94, -5252.3604, -0.07994218, -0.30057782, -882780.3, 49961.73, 0.0, 10.000236, 10.000154 
7.1502626e+2, 2.1481915e+2, -774601.56, -788040.75, -7247.002, -0.08064878, -0.32487902, -771438.25, 63302.3, 0.0, 10.000328, 10.00015 
7.150373e+2, 2.2481883e+2, -700155.1, -761024.8, -10779.049, -0.0772015, -0.34466448, -698302.75, 38439.137, 0.0, 10.000423, 9.999617 
7.150484e+2, 2.3481828e+2, -588416.25, -657375.4, -12535.419, -0.069258474, -0.36027566, -586208.25, 52537.85, 0.0, 10.000522, 9.999608 
7.1505946e+2, 2.4481758e+2, -514151.03, -629122.75, -18675.97, -0.059307434, -0.36373547, -511193.4, 29558.977, 0.0, 10.00061, 9.999086 
7.150704e+2, 2.5481677e+2, -405509.0, -526886.06, -18603.396, -0.047212284, -0.35507393, -402721.7, 40038.992, 0.0, 10.000687, 9.999079 
7.1508133e+2, 2.6481557e+2, -327879.97, -488677.06, -21102.006, -0.039409276, -0.35859627, -325156.78, 19614.875, 0.0, 10.000762, 9.9986315 
7.150922e+2, 2.7481404e+2, -219653.25, -386473.0, -21405.875, -0.03622466, -0.37555057, -216950.3, 29835.064, 0.0, 10.000835, 9.998625 
7.1510315e+2, 2.8481224e+2, -140097.4, -349226.0, -12591.11, -0.03089346, -0.39108667, -139342.05, 9458.828, 0.0, 10.000933, 9.998161 
7.1511424e+2, 2.9481024e+2, -24931.697, -243731.05, -12017.231, -0.023180824, -0.40713066, -24273.648, 26544.654, 0.0, 10.001054, 9.998155 
7.151256e+2, 3.0480805e+2, 77259.664, -116011.86, 3418.2964, -0.012132582, -0.46675825, 77320.1, 77320.1, 0.00000004119849, 10.00119, 9.99863 
7.151372e+2, 3.1480673e+2, 103517.15, -96842.12, 2684.1777, 0.0020019761, -0.46021745, 103553.1, 103553.1, 0.0000010048329, 10.001343, 9.998688 
7.249252e+2, 1.2480681e+2, -1720459.1, -1701026.6, -1736.6344, -0.097967915, -0.16369562, -1700872.6, 16004.335, 0.0, 9.999891, 10.000148 
7.2493654e+2, 1.3480692e+2, -1625793.9, -1605859.3, -850.8915, -0.07911035, -0.16656625, -1605823.0, 13052.439, 0.0, 9.999873, 10.000137 
7.249477e+2, 1.4480704e+2, -1514845.4, -1481352.9, 2924.0557, -0.0723379, -0.1763682, -1481099.5, 39774.016, 0.0, 9.999875, 10.000318 
7.2495884e+2, 1.5480721e+2, -1412955.5, -1380929.9, 2443.4841, -0.07784117, -0.19214343, -1380744.5, 42126.1, 0.0, 9.999899, 10.000322 
7.2497016e+2, 1.6480741e+2, -1297367.0, -1257058.8, 8129.958, -0.078242704, -0.21138093, -1255480.8, 69386.1, 0.0, 9.999945, 10.000478 
7.249816e+2, 1.7480765e+2, -1188840.1, -1153444.4, 5162.574, -0.07331867, -0.23509277, -1152706.8, 74155.23, 0.0, 10.000015, 10.000483 
7.24993e+2, 1.8480782e+2, -1089912.0, -1069797.3, 556.6715, -0.07233068, -0.25895065, -1069781.9, 59076.176, 0.0, 10.000085, 10.000351 
7.2500426e+2, 1.948079e+2, -981605.56, -966920.5, -149.64766, -0.075528935, -0.28378868, -966918.94, 63935.89, 0.0, 10.000156, 10.00035 
7.250155e+2, 2.0480789e+2, -888582.44, -898828.7, -7813.108, -0.077087276, -0.30740723, -884362.56, 48490.094, 0.0, 10.00024, 10.000104 
7.250266e+2, 2.1480776e+2, -776420.25, -794381.9, -9934.066, -0.07685738, -0.33048886, -772009.25, 62842.254, 0.0, 10.0003395, 10.0001 
7.2503775e+2, 2.248074e+2, -701471.56, -766647.6, -13515.094, -0.073741116, -0.3504283, -698780.2, 38073.152, 0.0, 10.000436, 9.999572 
7.2504896e+2, 2.3480679e+2, -590385.6, -663325.25, -15248.164, -0.06748559, -0.36763138, -587326.3, 51531.883, 0.0, 10.00053, 9.999562 
7.2506005e+2, 2.4480608e+2, -515173.3, -632068.4, -23129.63, -0.058721963, -0.37054718, -510763.1, 30101.643, 0.0, 10.000614, 9.999064 
7.2507113e+2, 2.5480524e+2, -407170.7, -530123.5, -25007.092, -0.047271322, -0.35899195, -402279.16, 40593.902, 0.0, 10.000687, 9.999056 
7.250821e+2, 2.6480404e+2, -329432.28, -489607.56, -28579.125, -0.039418954, -0.3611993, -324485.84, 20398.242, 0.0, 10.000753, 9.99863 
7.25093e+2, 2.7480248e+2, -223163.7, -388321.2, -28374.604, -0.035443045, -0.37858737, -218424.83, 28473.025, 0.0, 10.000813, 9.998623 
7.251041e+2, 2.848007e+2, -146464.3, -351367.28, -17879.313, -0.030276634, -0.39487565, -144915.9, 3997.5217, 0.0, 10.000885, 9.998169 
7.251153e+2, 2.9479873e+2, -36450.348, -248343.97, -17140.44, -0.023767604, -0.41200474, -35072.78, 15858.128, 0.0, 10.000971, 9.998162 
7.2512674e+2, 3.0479658e+2, 61356.902, -119455.67, -1949.6239, -0.012686793, -0.46897715, 61377.92, 61377.92, 0.000000018939705, 10.001063, 9.998667 
7.251385e+2, 3.1479535e+2, 79793.28, -104191.67, -5020.2417, 0.003043238, -0.45772013, 79930.164, 79930.164, 0.0000007295325, 10.001163, 9.998724 
7.349251e+2, 1.2479559e+2, -1719935.9, -1700089.0, -2458.5344, -0.098122194, -0.17279312, -1699789.0, 17197.242, 0.0, 9.999891, 10.0001545 
7.3493636e+2, 1.3479571e+2, -1625270.5, -1604998.6, -1659.8285, -0.08017869, -0.17421405, -1604863.6, 14120.81, 0.0, 9.999874, 10.000143 
7.3494756e+2, 1.4479582e+2, -1515507.1, -1482944.6, 3718.1848, -0.07250701, -0.18485273, -1482525.5, 38457.03, 0.0, 9.999875, 10.000307 
7.349588e+2, 1.5479596e+2, -1413592.3, -1382507.6, 3224.9167, -0.07505758, -0.20340376, -1382176.5, 40803.418, 0.0, 9.9999, 10.000312 
7.3497015e+2, 1.6479613e+2, -1302768.3, -1268506.3, 10606.496, -0.07500626, -0.22005382, -1265488.6, 59487.914, 0.0, 9.999946, 10.0004 
7.3498166e+2, 1.7479639e+2, -1194306.3, -1165004.3, 7660.723, -0.07232797, -0.23536637, -1163122.3, 63849.816, 0.0, 10.000015, 10.000403 
7.3499304e+2, 1.8479653e+2, -1090965.1, -1072185.1, 3130.5593, -0.07284738, -0.2571723, -1071677.0, 57291.47, 0.0, 10.000086, 10.000334 
7.3500437e+2, 1.9479655e+2, -982524.0, -969039.75, 2451.1692, -0.076768465, -0.28683507, -968608.0, 62357.703, 0.0, 10.000157, 10.000336 
7.350157e+2, 2.047965e+2, -892071.94, -906282.1, -4166.368, -0.07656422, -0.3131251, -890940.5, 42023.49, 0.0, 10.000241, 10.000052 
7.3502696e+2, 2.1479629e+2, -779928.3, -801868.5, -6240.973, -0.071882606, -0.33653417, -778277.3, 56686.016, 0.0, 10.00034, 10.000049 
7.350383e+2, 2.2479588e+2, -704562.5, -773252.4, -9981.5625, -0.06705853, -0.35729027, -703141.44, 33824.246, 0.0, 10.000437, 9.999526 
7.350495e+2, 2.3479521e+2, -593480.4, -669900.4, -11684.166, -0.0620571, -0.37581858, -591733.9, 47237.227, 0.0, 10.00053, 9.999517 
7.350607e+2, 2.4479444e+2, -518492.6, -639093.2, -20359.72, -0.05574251, -0.3773453, -515148.22, 25829.912, 0.0, 10.000614, 9.999016 
7.350718e+2, 2.547936e+2, -410474.88, -537107.5, -22216.346, -0.048009675, -0.3613834, -406690.38, 36296.33, 0.0, 10.000687, 9.999008 
7.350828e+2, 2.6479244e+2, -329145.72, -489165.44, -26251.877, -0.042661894, -0.36121845, -324949.06, 20048.734, 0.0, 10.000753, 9.998632 
7.350938e+2, 2.7479088e+2, -222751.34, -387657.66, -26039.625, -0.039884947, -0.3785122, -218737.25, 28274.18, 0.0, 10.0008135, 9.998628 
7.351049e+2, 2.8478912e+2, -145758.25, -350073.84, -14576.053, -0.03399529, -0.39610332, -144723.63, 4303.3896, 0.0, 10.000885, 9.9981785 
7.351162e+2, 2.9478708e+2, -35797.137, -247038.06, -13790.353, -0.024707211, -0.41604003, -34900.67, 16143.985, 0.0, 10.000971, 9.998172 
7.351278e+2, 3.0478498e+2, 61728.56, -118617.234, 1917.8752, -0.011637361, -0.46940497, 61748.953, 61748.953, 0.0000000073965225, 10.001062, 9.998673 
7.3513967e+2, 3.1478384e+2, 79937.29, -103631.34, -1115.0187, 0.0053945864, -0.44984004, 79944.06, 79944.06, 0.0000004773962, 10.001162, 9.998729 
7.4492496e+2, 1.2478436e+2, -1730461.6, -1704145.9, -4639.9385, -0.09697062, -0.17952834, -1703351.6, 13743.973, 0.0, 9.999815, 10.000163 
7.449362e+2, 1.3478449e+2, -1629315.1, -1605951.3, -3777.3572, -0.079329334, -0.18130893, -1605355.8, 13738.06, 0.0, 9.999843, 10.000152 
7.4494743e+2, 1.4478458e+2, -1516692.4, -1485523.8, 2511.366, -0.070918545, -0.19202358, -1485322.8, 35769.21, 0.0, 9.999877, 10.000288 
7.4495876e+2, 1.5478471e+2, -1411943.6, -1383760.8, 1407.1282, -0.07156308, -0.20982742, -1383690.6, 39398.727, 0.0, 9.999921, 10.000293 
7.449701e+2, 1.6478485e+2, -1304555.8, -1276932.9, 9767.42, -0.07152214, -0.22598438, -1273828.1, 51258.305, 0.0, 9.999967, 10.000331 
7.4498165e+2, 1.7478503e+2, -1199198.8, -1175058.8, 7584.1323, -0.07092059, -0.24109526, -1172873.8, 54209.066, 0.0, 10.000015, 10.000335 
7.449931e+2, 1.8478513e+2, -1093295.6, -1076776.8, 3663.0508, -0.072840676, -0.26243547, -1076000.9, 53078.848, 0.0, 10.000085, 10.000302 
7.4500453e+2, 1.9478515e+2, -981707.4, -972024.4, 1748.62, -0.07744142, -0.29132393, -971718.25, 59358.86, 0.0, 10.000177, 10.000304 
7.450159e+2, 2.0478503e+2, -892159.1, -911484.6, -5132.519, -0.07635844, -0.31732717, -890880.56, 42195.184, 0.0, 10.000263, 10.000006 
7.4502736e+2, 2.1478479e+2, -782933.75, -808486.0, -6904.5146, -0.0690853, -0.34098145, -781187.44, 53888.207, 0.0, 10.000342, 10.000003 
7.4503875e+2, 2.2478433e+2, -710911.1, -781527.1, -10883.682, -0.06343276, -0.36157778, -709271.75, 27806.676, 0.0, 10.000416, 9.999479 
7.450501e+2, 2.3478362e+2, -603563.8, -679951.94, -12794.244, -0.05953116, -0.37948862, -601477.9, 37606.47, 0.0, 10.000484, 9.999471 
7.450613e+2, 2.4478282e+2, -530052.4, -649559.8, -21712.25, -0.054376576, -0.38067874, -526229.94, 14861.893, 0.0, 10.000556, 9.998972 
7.450724e+2, 2.5478196e+2, -421408.03, -547232.44, -23353.244, -0.047845285, -0.36460415, -417213.47, 25887.451, 0.0, 10.000633, 9.998964 
7.450836e+2, 2.6478073e+2, -336067.94, -493856.53, -28015.297, -0.04304138, -0.36393318, -331241.47, 13870.813, 0.0, 10.000712, 9.99862 
7.4509454e+2, 2.7477917e+2, -226456.28, -390691.7, -29064.787, -0.04010648, -0.38035595, -221464.4, 25661.514, 0.0, 10.000793, 9.998616 
7.451058e+2, 2.847774e+2, -149734.97, -351538.4, -18754.012, -0.03409971, -0.39765584, -148006.92, 1134.5658, 0.0, 10.000856, 9.998181 
7.451172e+2, 2.947754e+2, -45944.49, -251381.56, -18430.582, -0.024747016, -0.41795498, -44304.105, 6855.0005, 0.0, 10.000899, 9.998176 
7.451288e+2, 3.0477327e+2, 45874.754, -124906.266, -2293.4058, -0.012463463, -0.4704619, 45905.547, 45905.547, 0.0000000015345106, 10.000949, 9.998685 
7.451407e+2, 3.1477216e+2, 57893.832, -113036.664, -4991.5176, 0.0029635576, -0.4509824, 58039.47, 58039.47, 0.00000026410652, 10.001005, 9.998739 
7.5492483e+2, 1.2477312e+2, -1729836.5, -1702849.8, -3647.1504, -0.09449541, -0.18390676, -1702365.6, 14839.565, 0.0, 9.999815, 10.000173 
7.549361e+2, 1.3477324e+2, -1628595.0, -1604632.0, -2869.0327, -0.07653482, -0.1878159, -1604293.4, 14910.111, 0.0, 9.999843, 10.00016 
7.5494736e+2, 1.4477335e+2, -1518519.9, -1489529.1, 4044.6265, -0.06755711, -0.19785392, -1488975.4, 32226.113, 0.0, 9.999877, 10.00026 
7.549587e+2, 1.5477347e+2, -1413743.0, -1387757.4, 2921.283, -0.0673611, -0.21133676, -1387433.0, 35765.855, 0.0, 9.999922, 10.000265 
7.549701e+2, 1.6477355e+2, -1308613.0, -1285599.6, 11470.767, -0.06780253, -0.22910821, -1280858.8, 44337.758, 0.0, 9.999968, 10.000272 
7.549817e+2, 1.7477359e+2, -1203293.9, -1183790.4, 9298.886, -0.06911082, -0.2522955, -1180067.5, 47126.688, 0.0, 10.000016, 10.000275 
7.549932e+2, 1.8477362e+2, -1096574.5, -1083789.0, 6995.422, -0.07232766, -0.27478442, -1080705.3, 48486.54, 0.0, 10.000086, 10.000255 
7.550047e+2, 1.9477364e+2, -984971.5, -979017.2, 5147.2803, -0.077567704, -0.2972795, -976048.06, 55141.063, 0.0, 10.000178, 10.000257 
7.550162e+2, 2.0477353e+2, -895077.75, -917752.75, -2211.3733, -0.07647582, -0.32003352, -894864.06, 38323.906, 0.0, 10.000264, 9.999963 
7.550277e+2, 2.1477325e+2, -785879.8, -814814.9, -3968.1565, -0.06844326, -0.34385923, -785345.5, 49842.895, 0.0, 10.000342, 9.999959 
7.550391e+2, 2.2477275e+2, -714283.4, -788745.5, -8323.316, -0.062822916, -0.36335, -713364.4, 23827.248, 0.0, 10.000417, 9.99943 
7.5505054e+2, 2.3477201e+2, -606984.0, -687262.44, -10219.471, -0.059857283, -0.37875196, -605703.5, 33494.35, 0.0, 10.000484, 9.99942 
7.550618e+2, 2.4477117e+2, -532869.3, -655593.9, -18791.428, -0.054602657, -0.38062924, -530056.44, 11149.383, 0.0, 10.000557, 9.99893 
7.550731e+2, 2.547702e+2, -424269.75, -553292.9, -20398.725, -0.046822425, -0.3686279, -421121.5, 22094.207, 0.0, 10.000633, 9.998923 
7.550843e+2, 2.6476896e+2, -338095.5, -498120.8, -24829.64, -0.04066657, -0.36926624, -334331.44, 10896.1, 0.0, 10.000711, 9.998591 
7.550954e+2, 2.747674e+2, -228503.98, -394905.94, -25837.305, -0.036282673, -0.38405213, -224584.53, 22656.82, 0.0, 10.0007925, 9.998588 
7.551066e+2, 2.8476563e+2, -150046.05, -352105.9, -16950.506, -0.030748071, -0.3995278, -148633.97, 622.9389, 0.0, 10.000855, 9.9981785 
7.55118e+2, 2.9476362e+2, -46213.156, -251830.89, -16615.113, -0.02393657, -0.41785255, -44879.21, 6395.119, 0.0, 10.000898, 9.998174 
7.551297e+2, 3.0476147e+2, 46833.625, -122761.23, 76.856186, -0.0150863435, -0.4720869, 46833.66, 46833.66, 0.00000000001992495, 10.000947, 9.9987 
7.551416e+2, 3.147603e+2, 58623.55, -111207.49, -2511.8594, -0.00409375, -0.4607263, 58660.695, 58660.695, 0.000000109993245, 10.001003, 9.998753 
7.6492465e+2, 1.2476183e+2, -1737184.1, -1705359.3, -4889.2817, -0.09365043, -0.18956959, -1704625.1, 12690.101, 0.0, 9.999761, 10.000181 
7.649359e+2, 1.3476194e+2, -1632876.1, -1605673.6, -4309.1484, -0.07487735, -0.1948177, -1605007.4, 14306.103, 0.0, 9.999809, 10.000169 
7.649473e+2, 1.4476204e+2, -1520996.4, -1494073.9, 3444.2854, -0.06546176, -0.2047852, -1493640.3, 27671.395, 0.0, 9.999875, 10.000231 
7.649586e+2, 1.5476216e+2, -1410054.0, -1389314.4, 2090.5222, -0.06528954, -0.21600637, -1389105.8, 34203.434, 0.0, 9.999962, 10.000235 
7.6497006e+2, 1.6476221e+2, -1302526.4, -1286141.0, 10717.449, -0.06668313, -0.2343371, -1280843.5, 44463.617, 0.0, 10.000025, 10.00024 
7.649817e+2, 1.7476217e+2, -1198736.9, -1184988.5, 10673.0625, -0.069940716, -0.26116985, -1179167.5, 48137.914, 0.0, 10.000063, 10.000243 
7.649933e+2, 1.8476216e+2, -1097210.3, -1090342.3, 10260.146, -0.07296888, -0.28410232, -1082956.8, 46346.785, 0.0, 10.000109, 10.000198 
7.650049e+2, 1.9476216e+2, -991055.2, -988235.9, 7698.3643, -0.075678855, -0.30354625, -981819.1, 49482.08, 0.0, 10.000164, 10.0002 
7.650165e+2, 2.0476201e+2, -902803.1, -927616.2, -32.20713, -0.07344754, -0.3242305, -902803.06, 30497.47, 0.0, 10.000237, 9.9999075 
7.6502806e+2, 2.1476167e+2, -791359.4, -823631.94, -2764.683, -0.06578068, -0.34704295, -791124.25, 44177.223, 0.0, 10.000332, 9.999904 
7.6503956e+2, 2.2476114e+2, -718345.4, -796520.06, -8445.062, -0.061140113, -0.36490953, -717443.5, 19861.74, 0.0, 10.000414, 9.999377 
7.65051e+2, 2.3476037e+2, -611094.0, -695120.44, -10641.249, -0.059847802, -0.37801427, -609767.3, 29544.564, 0.0, 10.000483, 9.999368 
7.650624e+2, 2.4475949e+2, -536871.5, -659390.75, -18832.984, -0.055357106, -0.379717, -534041.94, 7278.2944, 0.0, 10.000538, 9.998913 
7.6507366e+2, 2.547585e+2, -433253.03, -559426.5, -18708.998, -0.047324847, -0.36978558, -430537.3, 12793.009, 0.0, 10.00058, 9.998906 
7.65085e+2, 2.6475722e+2, -352162.03, -507061.94, -21703.154, -0.039535735, -0.37184748, -349178.66, -3836.2297, 0.0, 10.000625, 9.998571 
7.650961e+2, 2.7475563e+2, -247232.36, -406102.3, -22159.62, -0.03200571, -0.38741368, -244199.38, 3157.1042, 0.0, 10.000674, 9.998568 
7.651075e+2, 2.8475383e+2, -169896.11, -361702.1, -13791.675, -0.02609938, -0.40349045, -168909.5, -19537.342, 0.0, 10.00072, 9.998178 
7.651189e+2, 2.947518e+2, -66136.08, -261426.73, -13400.7, -0.021956207, -0.4222384, -65220.824, -13831.241, 0.0, 10.000762, 9.998173 
7.651306e+2, 3.047497e+2, 28039.467, -126194.85, 4369.927, -0.015777072, -0.4777816, 28163.182, 28163.182, 0.0, 10.000794, 9.998751 
7.651425e+2, 3.1474853e+2, 34877.74, -117156.09, 4242.038, -0.007514326, -0.47110412, 34996.008, 34996.008, 0.000000028836135, 10.000816, 9.998801 
7.7492434e+2, 1.24750495e+2, -1736798.4, -1704565.5, -3075.0437, -0.09450369, -0.19660662, -1704274.8, 13150.86, 0.0, 9.99976, 10.000187 
7.749357e+2, 1.347506e+2, -1632401.9, -1604825.4, -2565.082, -0.07440529, -0.20231156, -1604588.9, 14834.894, 0.0, 9.999809, 10.000175 
7.7494717e+2, 1.4475068e+2, -1523352.6, -1499152.5, 6541.4893, -0.064675435, -0.21281661, -1497497.5, 23924.654, 0.0, 9.999875, 10.0001955 
7.749586e+2, 1.5475076e+2, -1412383.9, -1394418.0, 5218.605, -0.065400004, -0.22386841, -1393012.1, 30407.982, 0.0, 9.999963, 10.0002 
7.749701e+2, 1.647508e+2, -1302676.9, -1286726.9, 12034.919, -0.068212755, -0.24170156, -1280264.5, 45153.746, 0.0, 10.000026, 10.000236 
7.749817e+2, 1.7475078e+2, -1198811.6, -1185404.9, 11972.941, -0.07344484, -0.26771232, -1178386.5, 49029.805, 0.0, 10.000064, 10.00024 
7.7499336e+2, 1.8475074e+2, -1101694.9, -1099878.8, 12195.351, -0.07479132, -0.29036877, -1088557.8, 40857.008, 0.0, 10.00011, 10.000133 
7.7500504e+2, 1.9475067e+2, -995611.06, -997940.2, 9674.972, -0.071800135, -0.31011185, -987030.8, 44382.473, 0.0, 10.000165, 10.0001335 
7.750168e+2, 2.0475045e+2, -907498.5, -937599.25, 3428.4307, -0.067298554, -0.32991135, -907112.94, 26300.422, 0.0, 10.000238, 9.999839 
7.7502847e+2, 2.1475008e+2, -796062.4, -833614.44, 749.59216, -0.061122943, -0.35053307, -796047.4, 39367.504, 0.0, 10.000333, 9.999835 
7.7504e+2, 2.2474949e+2, -722245.1, -804810.4, -5857.167, -0.058405455, -0.36626068, -721831.7, 15587.517, 0.0, 10.000415, 9.99932 
7.750515e+2, 2.3474869e+2, -614998.1, -703362.7, -8061.0664, -0.059515428, -0.37727478, -614268.75, 25157.672, 0.0, 10.000483, 9.999311 
7.7506286e+2, 2.4474779e+2, -536508.2, -658750.06, -17168.764, -0.056633648, -0.37796846, -534142.6, 7292.329, 0.0, 10.000538, 9.998918 
7.7507424e+2, 2.547468e+2, -432762.44, -558522.3, -17069.719, -0.04931577, -0.3681667, -430486.72, 12958.148, 0.0, 10.00058, 9.998913 
7.7508557e+2, 2.6474547e+2, -352981.94, -508894.78, -19744.475, -0.039627213, -0.3717594, -350520.4, -5063.424, 0.0, 10.000625, 9.998559 
7.7509683e+2, 2.7474385e+2, -248072.92, -407978.66, -20166.906, -0.027317159, -0.3904462, -245568.75, 1902.6416, 0.0, 10.000674, 9.998555 
7.751083e+2, 2.8474203e+2, -169866.33, -361746.0, -12031.417, -0.020229049, -0.40944725, -169114.88, -19627.533, 0.0, 10.00072, 9.998178 
7.7511966e+2, 2.9474e+2, -66128.984, -261412.9, -11609.449, -0.018882466, -0.43088913, -65441.24, -13936.283, 0.0, 10.000761, 9.998174 
7.7513134e+2, 3.0473793e+2, 33531.74, -114654.914, 5470.36, -0.0146676, -0.4873425, 33733.402, 33733.402, 0.0, 10.000793, 9.99883 
7.751433e+2, 3.1473678e+2, 40216.37, -105660.39, 5374.8804, -0.0076154596, -0.4823857, 40414.14, 40414.14, 0.0000000029769756, 10.000814, 9.998882 
7.849241e+2, 1.24739125e+2, -1743852.4, -1707843.1, 358.23898, -0.09201072, -0.2065368, -1707839.6, 9696.501, 0.0, 9.999712, 10.000188 
7.8493553e+2, 1.3473926e+2, -1634300.0, -1605609.9, 326.61374, -0.07344797, -0.21202536, -1605606.1, 13928.019, 0.0, 9.999797, 10.000175 
7.8494704e+2, 1.447393e+2, -1524845.4, -1503235.1, 10009.003, -0.063966714, -0.2231628, -1499311.6, 22221.16, 0.0, 9.99988, 10.000165 
7.8495854e+2, 1.5473935e+2, -1414209.6, -1398658.0, 9051.863, -0.063583106, -0.2349154, -1394500.8, 29030.47, 0.0, 9.999965, 10.00017 
7.8497016e+2, 1.6473937e+2, -1304758.1, -1291851.8, 13107.224, -0.06630353, -0.25128895, -1283695.3, 41834.28, 0.0, 10.00003, 10.000198 
7.849818e+2, 1.7473933e+2, -1200082.4, -1190104.1, 10407.871, -0.07255304, -0.27345884, -1183551.4, 43976.344, 0.0, 10.0000725, 10.000203 
7.8499347e+2, 1.8473928e+2, -1102792.1, -1105814.0, 10541.723, -0.07384355, -0.29431388, -1093653.6, 35872.836, 0.0, 10.000126, 10.000084 
7.8500533e+2, 1.9473915e+2, -995515.7, -1003293.94, 9323.417, -0.06962099, -0.3145164, -989302.8, 42222.863, 0.0, 10.000189, 10.000084 
7.85017e+2, 2.0473887e+2, -908537.4, -943882.06, 5190.063, -0.0642517, -0.3340489, -907791.0, 25735.28, 0.0, 10.000257, 9.999786 
7.850288e+2, 2.1473846e+2, -800266.2, -841380.4, 3685.4368, -0.057583593, -0.3535929, -799938.44, 35589.88, 0.0, 10.000329, 9.999783 
7.8504044e+2, 2.2473784e+2, -729724.8, -813162.3, -2992.3748, -0.054665398, -0.36867616, -729617.6, 7915.5137, 0.0, 10.000384, 9.999277 
7.8505194e+2, 2.34737e+2, -627172.8, -713936.8, -4268.153, -0.055909548, -0.3795023, -626963.4, 12577.509, 0.0, 10.00042, 9.999269 
7.850634e+2, 2.4473609e+2, -547634.56, -664718.7, -13374.715, -0.054021586, -0.37912774, -546126.2, -4576.604, 0.0, 10.000464, 9.998912 
7.850748e+2, 2.547351e+2, -441823.53, -563419.8, -14220.611, -0.048641965, -0.36723995, -440182.6, 3376.717, 0.0, 10.00052, 9.998908 
7.850861e+2, 2.647338e+2, -360569.9, -512713.88, -16953.19, -0.039301526, -0.37059262, -358703.72, -13132.315, 0.0, 10.000574, 9.998557 
7.8509754e+2, 2.7473214e+2, -255288.31, -411636.5, -16676.14, -0.025573127, -0.39113364, -253529.42, -5943.4863, 0.0, 10.000626, 9.998553 
7.851089e+2, 2.8473032e+2, -178231.84, -364237.4, -8731.295, -0.01831241, -0.4123972, -177822.89, -28220.918, 0.0, 10.000656, 9.998191 
7.851204e+2, 2.9472825e+2, -79569.18, -266280.84, -7462.7427, -0.01817126, -0.43653652, -79271.375, -27651.756, 0.0, 10.000663, 9.998188 
7.8513205e+2, 3.047262e+2, 14943.331, -118490.336, 7453.6445, -0.014896233, -0.49206853, 15358.402, 15358.402, 0.0, 10.000644, 9.998876 
7.85144e+2, 3.1472516e+2, 11693.666, -114387.69, 4694.316, -0.008656269, -0.48479602, 11868.205, 11868.205, 0.0, 10.000598, 9.998926 
7.9492384e+2, 1.24727756e+2, -1744372.1, -1708892.5, 3564.2197, -0.086100474, -0.21950045, -1708538.0, 9108.439, 0.0, 9.999711, 10.000181 
7.9493535e+2, 1.3472788e+2, -1634724.8, -1606630.5, 3470.6492, -0.0720019, -0.22400907, -1606208.1, 13436.431, 0.0, 9.999797, 10.000169 
7.949469e+2, 1.447279e+2, -1526709.8, -1507283.5, 13078.912, -0.06336047, -0.2358625, -1500705.5, 20937.959, 0.0, 9.999881, 10.000137 
7.9495853e+2, 1.547279e+2, -1416014.4, -1402636.6, 12128.682, -0.05983285, -0.24918933, -1395474.6, 28167.543, 0.0, 9.999966, 10.000142 
7.949702e+2, 1.647279e+2, -1309699.3, -1302343.9, 14630.354, -0.06093642, -0.26312584, -1290936.0, 34704.93, 0.0, 10.00003, 10.000127 
7.949819e+2, 1.7472787e+2, -1205022.5, -1200609.8, 11907.841, -0.06725126, -0.2784034, -1190705.6, 36933.914, 0.0, 10.000073, 10.000131 
7.9499364e+2, 1.8472779e+2, -1105048.6, -1110733.8, 12771.325, -0.070114724, -0.29592162, -1094807.4, 34831.277, 0.0, 10.000126, 10.00005 
7.950055e+2, 1.9472761e+2, -997617.7, -1007910.6, 11602.801, -0.069126956, -0.31675372, -990071.2, 41567.066, 0.0, 10.00019, 10.000052 
7.9501736e+2, 2.047273e+2, -911021.1, -949289.94, 7829.6704, -0.06429497, -0.33663982, -909481.2, 24158.102, 0.0, 10.0002575, 9.999749 
7.9502916e+2, 2.1472687e+2, -802734.75, -846743.75, 6358.3965, -0.055161215, -0.35621536, -801834.5, 33807.203, 0.0, 10.00033, 9.999746 
7.9504085e+2, 2.247262e+2, -731702.2, -817498.3, -1637.1168, -0.04994888, -0.37212422, -731670.94, 5976.0005, 0.0, 10.000384, 9.999248 
7.950524e+2, 2.3472531e+2, -629143.44, -718238.2, -2932.7776, -0.049111214, -0.3846182, -629047.0, 10608.181, 0.0, 10.000421, 9.999239 
7.950639e+2, 2.4472438e+2, -548808.44, -667333.94, -11241.614, -0.04762246, -0.38311815, -547751.7, -6087.542, 0.0, 10.000465, 9.998894 
7.950753e+2, 2.5472343e+2, -442983.25, -565947.2, -12060.289, -0.045391206, -0.3669798, -441811.53, 1862.1942, 0.0, 10.000521, 9.998891 
7.9508674e+2, 2.6472214e+2, -360112.72, -511846.47, -14886.024, -0.038580235, -0.36837628, -358666.1, -12980.348, 0.0, 10.000574, 9.998563 
7.950981e+2, 2.747205e+2, -254785.03, -410630.1, -14599.978, -0.0266747, -0.389566, -253429.06, -5728.842, 0.0, 10.000626, 9.99856 
7.9510957e+2, 2.8471863e+2, -176542.53, -360767.94, -8298.986, -0.020213963, -0.41246232, -176169.44, -26453.268, 0.0, 10.000656, 9.998215 
7.95121e+2, 2.947166e+2, -77815.83, -262682.47, -7067.624, -0.019744152, -0.43930942, -77546.02, -25812.328, 0.0, 10.000662, 9.998213 
7.951327e+2, 3.047146e+2, 15720.067, -116960.02, 5960.204, -0.016422058, -0.49221188, 15987.271, 15987.271, 0.0, 10.000644, 9.998886 
7.9514456e+2, 3.1471363e+2, 12336.282, -113110.31, 3235.491, -0.010698883, -0.47933462, 12419.676, 12419.676, 0.0, 10.000597, 9.998936 
8.049236e+2, 1.2471637e+2, -1757780.1, -1715973.6, 5105.458, -0.077437565, -0.22906637, -1715359.1, 2397.9407, 0.0, 9.999622, 10.000175 
8.0493516e+2, 1.3471648e+2, -1640241.0, -1609895.6, 4962.065, -0.06887034, -0.23464662, -1609104.9, 10650.459, 0.0, 9.999762, 10.000163 
8.049468e+2, 1.4471647e+2, -1528735.8, -1511165.1, 13727.232, -0.06287395, -0.24683723, -1503652.6, 18101.818, 0.0, 9.99988, 10.000111 
8.049586e+2, 1.5471648e+2, -1416639.0, -1405795.3, 12865.801, -0.058717806, -0.25865397, -1397255.5, 26497.73, 0.0, 9.999973, 10.000116 
8.0497026e+2, 1.6471644e+2, -1312576.8, -1311518.8, 13785.192, -0.059130676, -0.27155867, -1298252.4, 27500.143, 0.0, 10.000044, 10.000056 
8.04982e+2, 1.7471634e+2, -1207787.9, -1209803.8, 11132.764, -0.06466892, -0.2863515, -1197617.5, 30134.414, 0.0, 10.000089, 10.00006 
8.0499375e+2, 1.847162e+2, -1104366.6, -1114629.1, 12818.127, -0.06736863, -0.3025361, -1095690.9, 34060.734, 0.0, 10.00015, 10.000011 
8.0500567e+2, 1.9471604e+2, -994630.06, -1010580.4, 11271.75, -0.06689335, -0.32107073, -988797.4, 42954.05, 0.0, 10.000228, 10.000015 
8.050176e+2, 2.0471571e+2, -907195.3, -949676.5, 7463.3203, -0.06228971, -0.3392757, -905922.25, 27830.414, 0.0, 10.000294, 9.999729 
8.0502945e+2, 2.1471526e+2, -802128.06, -848650.6, 7181.6816, -0.053060908, -0.35786602, -801044.6, 34710.61, 0.0, 10.000344, 9.999726 
8.0504125e+2, 2.2471456e+2, -732641.5, -818845.9, -584.7242, -0.04757409, -0.37390974, -732637.56, 5123.1313, 0.0, 10.000382, 9.999239 
8.050529e+2, 2.3471366e+2, -631437.4, -720221.1, -415.38248, -0.046285175, -0.38775453, -631435.44, 8333.654, 0.0, 10.000408, 9.99923 
8.050644e+2, 2.4471273e+2, -554436.56, -672193.2, -7613.052, -0.044682957, -0.38612413, -553946.44, -12168.235, 0.0, 10.000436, 9.998875 
8.050758e+2, 2.5471178e+2, -452431.8, -572637.44, -8707.497, -0.04269169, -0.36815625, -451804.3, -8016.3794, 0.0, 10.000465, 9.998871 
8.0508727e+2, 2.647105e+2, -371102.53, -517058.16, -11798.244, -0.036233846, -0.3685812, -370154.97, -24354.957, 0.0, 10.000499, 9.998564 
8.050988e+2, 2.7470884e+2, -267644.72, -416617.5, -12027.187, -0.024802832, -0.3898245, -266679.94, -18865.469, 0.0, 10.000537, 9.998562 
8.051102e+2, 2.84707e+2, -188913.03, -364723.66, -7580.5356, -0.018750966, -0.41272613, -188586.8, -38756.484, 0.0, 10.000563, 9.998233 
8.0512166e+2, 2.9470494e+2, -89342.82, -266153.9, -6984.7056, -0.018635202, -0.4395172, -89067.33, -37219.723, 0.0, 10.000575, 9.998231 
8.051333e+2, 3.0470297e+2, 4041.6917, -121403.72, 3651.779, -0.017062495, -0.4915705, 4147.9067, 4147.9067, 0.0, 10.000559, 9.998897 
8.051451e+2, 3.14702e+2, 423.45822, -117867.7, 768.64044, -0.014906995, -0.47994745, 428.45255, 428.45255, 0.0, 10.000512, 9.998943 
8.1492335e+2, 1.2470499e+2, -1758398.8, -1717084.0, 10365.629, -0.065982, -0.23526394, -1714629.3, 3238.5774, 0.0, 9.99962, 10.000169 
8.149349e+2, 1.3470507e+2, -1640781.3, -1611083.9, 10181.53, -0.06402378, -0.24389386, -1607928.5, 11937.981, 0.0, 9.999762, 10.000155 
8.1494665e+2, 1.4470504e+2, -1530481.5, -1514934.8, 17207.74, -0.062517, -0.25605765, -1503826.1, 18039.586, 0.0, 9.99988, 10.000085 
8.149585e+2, 1.5470506e+2, -1418360.4, -1409605.9, 16303.908, -0.060285784, -0.263234, -1397101.9, 26762.504, 0.0, 9.999974, 10.00009 
8.1497025e+2, 1.6470495e+2, -1317293.8, -1321564.1, 15365.978, -0.060940176, -0.2765165, -1303915.4, 21948.771, 0.0, 10.000045, 9.999988 
8.1498206e+2, 1.7470475e+2, -1212552.1, -1219956.4, 12680.414, -0.064835675, -0.29729092, -1203044.5, 24820.387, 0.0, 10.00009, 9.99999 
8.14994e+2, 1.8470454e+2, -1107352.1, -1121065.0, 15603.453, -0.065623745, -0.31416494, -1097165.1, 32700.092, 0.0, 10.00015, 9.999968 
8.1500596e+2, 1.9470438e+2, -997498.75, -1016779.7, 14141.873, -0.06294253, -0.32745802, -990024.0, 41841.17, 0.0, 10.000229, 9.999972 
8.1501794e+2, 2.0470408e+2, -907495.3, -950530.94, 9281.506, -0.05825005, -0.34194604, -905578.9, 28287.533, 0.0, 10.000295, 9.999723 
8.1502986e+2, 2.1470363e+2, -802328.7, -849282.2, 9006.511, -0.05127576, -0.35854843, -800660.4, 35208.613, 0.0, 10.000344, 9.999722 
8.150416e+2, 2.2470295e+2, -731769.06, -817245.1, 369.2755, -0.04750104, -0.3740494, -731767.44, 6106.907, 0.0, 10.000383, 9.999249 
8.150533e+2, 2.3470204e+2, -630526.25, -718538.5, 537.93054, -0.047348537, -0.38894063, -630522.94, 9359.666, 0.0, 10.000409, 9.999242 
8.1506485e+2, 2.447011e+2, -555939.4, -675525.3, -6515.6274, -0.045134734, -0.38815072, -555585.44, -13693.587, 0.0, 10.000437, 9.998852 
8.150763e+2, 2.5470012e+2, -453999.9, -576096.6, -7573.706, -0.040551953, -0.3707099, -453531.9, -9629.9375, 0.0, 10.000465, 9.998847 
8.1508785e+2, 2.646988e+2, -371460.13, -517982.25, -10273.42, -0.032340743, -0.3711176, -370743.3, -24829.041, 0.0, 10.000499, 9.998557 
8.150993e+2, 2.7469715e+2, -267994.75, -417463.3, -10461.693, -0.020095535, -0.3918303, -267266.06, -19337.275, 0.0, 10.000537, 9.998556 
8.151108e+2, 2.8469536e+2, -188239.97, -363386.94, -6929.3984, -0.014087614, -0.4131799, -187966.25, -38021.77, 0.0, 10.000563, 9.998242 
8.1512225e+2, 2.9469332e+2, -88675.29, -264736.72, -6336.399, -0.014992623, -0.4372842, -88447.54, -36486.1, 0.0, 10.000574, 9.998241 
8.1513387e+2, 3.0469134e+2, 4513.9165, -120372.46, 2225.0881, -0.0168782, -0.49015868, 4553.5483, 4553.5483, 0.0, 10.000559, 9.998904 
8.151455e+2, 3.1469032e+2, 761.65845, -117102.69, -604.684, -0.021264601, -0.48658723, 764.7606, 764.7606, 0.0, 10.000511, 9.998949 
8.2492304e+2, 1.2469348e+2, -1756412.5, -1716199.3, 5873.436, -0.056381337, -0.24016993, -1715359.0, 2620.9473, 0.0, 9.999636, 10.000167 
8.249348e+2, 1.3469353e+2, -1639325.0, -1610505.4, 6041.63, -0.059963398, -0.25078985, -1609290.0, 10688.714, 0.0, 9.999773, 10.000154 
8.249465e+2, 1.446935e+2, -1529446.9, -1517418.8, 11930.309, -0.062123574, -0.26281333, -1510072.4, 11905.743, 0.0, 9.9999, 10.000058 
8.249585e+2, 1.5469353e+2, -1414181.0, -1410670.5, 10884.057, -0.061167024, -0.26627648, -1401401.0, 22575.854, 0.0, 10.000017, 10.000062 
8.2497036e+2, 1.646934e+2, -1310195.6, -1320800.8, 9475.393, -0.062069893, -0.27971622, -1304640.0, 21336.959, 0.0, 10.000105, 9.999964 
8.2498217e+2, 1.7469312e+2, -1203549.3, -1218244.4, 10204.485, -0.065065935, -0.30502245, -1198322.4, 29655.81, 0.0, 10.000163, 9.999967 
8.2499415e+2, 1.8469287e+2, -1102462.6, -1123433.4, 14898.044, -0.06398856, -0.32311335, -1094730.0, 35249.05, 0.0, 10.000204, 9.999925 
8.2500625e+2, 1.9469269e+2, -1000763.7, -1023097.25, 13405.507, -0.058344472, -0.3338666, -994483.25, 37495.996, 0.0, 10.000227, 9.99993 
8.250182e+2, 2.0469238e+2, -912617.7, -954172.0, 8294.264, -0.05350832, -0.346049, -911023.3, 22957.37, 0.0, 10.000264, 9.999712 
8.250302e+2, 2.1469194e+2, -806919.4, -852515.1, 7578.6216, -0.049565453, -0.36061832, -805692.7, 30290.586, 0.0, 10.000318, 9.999712 
8.25042e+2, 2.2469129e+2, -733944.5, -817011.25, -2086.0137, -0.04741279, -0.3749562, -733892.2, 4096.396, 0.0, 10.000363, 9.999261 
8.2505363e+2, 2.3469038e+2, -631051.44, -717429.9, -1987.0747, -0.0472943, -0.38966244, -631005.75, 8990.87, 0.0, 10.0004, 9.999254 
8.2506526e+2, 2.4468943e+2, -556900.8, -676068.25, -8513.884, -0.045137245, -0.3892853, -556295.6, -14289.785, 0.0, 10.000431, 9.99885 
8.2507676e+2, 2.5468844e+2, -455749.8, -576999.5, -8027.553, -0.040643506, -0.3728331, -455220.66, -11204.519, 0.0, 10.000454, 9.998846 
8.2508826e+2, 2.6468712e+2, -374719.88, -518244.03, -9395.731, -0.032363955, -0.37379625, -374107.4, -28078.951, 0.0, 10.000471, 9.998569 
8.2509977e+2, 2.7468547e+2, -275289.1, -419515.22, -8365.245, -0.019860517, -0.3946803, -274805.53, -26762.664, 0.0, 10.000481, 9.998569 
8.251113e+2, 2.8468367e+2, -198828.81, -365802.47, -4682.7695, -0.013223611, -0.41564867, -198697.58, -48639.23, 0.0, 10.000479, 9.998265 
8.251228e+2, 2.9468173e+2, -103203.195, -268936.06, -3183.8416, -0.013082091, -0.43875518, -103142.055, -51067.04, 0.0, 10.000463, 9.998265 
8.2513434e+2, 3.0467978e+2, -11046.454, -124037.85, 5228.2227, -0.015420173, -0.49199143, -10805.055, -10805.055, 0.0, 10.000436, 9.998938 
8.2514596e+2, 3.146787e+2, -13999.857, -120496.06, 4254.9126, -0.022234427, -0.4933058, -13830.129, -13830.129, 0.0, 10.000394, 9.998982 
8.3492273e+2, 1.2468186e+2, -1756256.0, -1715825.3, 10965.298, -0.04871908, -0.2438688, -1713042.9, 5050.588, 0.0, 9.999635, 10.000171 
8.349346e+2, 1.346819e+2, -1639088.1, -1610111.5, 11127.663, -0.05673081, -0.2552671, -1606331.4, 13760.757, 0.0, 9.999773, 10.000156 
8.3494645e+2, 1.4468187e+2, -1531482.1, -1521800.9, 16182.019, -0.0617132, -0.26703766, -1509751.0, 12340.662, 0.0, 9.9999, 10.000028 
8.349585e+2, 1.5468189e+2, -1416186.9, -1415103.0, 15153.9375, -0.061367776, -0.26773852, -1400481.4, 23609.385, 0.0, 10.000017, 10.000031 
8.349705e+2, 1.6468176e+2, -1308656.6, -1317910.8, 11540.062, -0.06252436, -0.28112876, -1300850.5, 25240.24, 0.0, 10.000106, 9.999983 
8.3498234e+2, 1.7468145e+2, -1201893.5, -1215113.4, 12238.096, -0.06537286, -0.30952075, -1194594.4, 33497.434, 0.0, 10.000164, 9.999988 
8.349944e+2, 1.8468118e+2, -1105264.0, -1129521.8, 15640.696, -0.062477827, -0.32936227, -1097600.4, 32492.414, 0.0, 10.000205, 9.999883 
8.350065e+2, 1.9468096e+2, -1003718.5, -1029503.0, 14151.818, -0.053108405, -0.34028307, -997467.0, 34626.695, 0.0, 10.000228, 9.999886 
8.350186e+2, 2.0468064e+2, -913672.0, -956623.9, 10151.988, -0.048067313, -0.3515693, -911393.4, 22702.09, 0.0, 10.000265, 9.999696 
8.350305e+2, 2.1468021e+2, -807931.9, -854854.0, 9493.731, -0.047927525, -0.36404997, -806083.8, 30014.32, 0.0, 10.000319, 9.999696 
8.3504236e+2, 2.2467954e+2, -733148.6, -815557.0, -728.6488, -0.047316324, -0.37661228, -733142.2, 4961.1523, 0.0, 10.000363, 9.99927 
8.350541e+2, 2.3467869e+2, -630254.94, -715917.8, -644.1491, -0.04615891, -0.3899293, -630250.06, 9861.091, 0.0, 10.000401, 9.999265 
8.3506566e+2, 2.4467775e+2, -555556.3, -673377.75, -7613.866, -0.044709142, -0.3895432, -555066.4, -12946.118, 0.0, 10.000431, 9.998869 
8.350772e+2, 2.5467676e+2, -454426.72, -574337.7, -7137.0137, -0.04290684, -0.37452668, -454003.44, -9872.976, 0.0, 10.000454, 9.998865 
8.350887e+2, 2.6467544e+2, -372750.47, -514219.5, -8965.738, -0.03618264, -0.37660077, -372184.53, -26041.889, 0.0, 10.000471, 9.998596 
8.3510023e+2, 2.7467382e+2, -273346.53, -415487.4, -7919.274, -0.023937978, -0.39833573, -272906.7, -24749.918, 0.0, 10.000481, 9.998597 
8.3511174e+2, 2.8467205e+2, -196329.77, -360612.28, -5130.996, -0.01601962, -0.42003778, -196169.67, -45997.656, 0.0, 10.000479, 9.9983015 
8.351233e+2, 2.9467013e+2, -100680.05, -263729.53, -3631.4214, -0.012848892, -0.44374874, -100599.21, -48410.777, 0.0, 10.000463, 9.9983015 
8.351348e+2, 3.0466822e+2, -6961.9067, -115692.42, 3901.6602, -0.012791004, -0.4969097, -6822.08, -6822.08, 0.0, 10.000436, 9.998995 
8.3514637e+2, 3.146672e+2, -9920.955, -112283.68, 3001.6582, -0.018283755, -0.50071937, -9833.011, -9833.011, 0.0, 10.000395, 9.999039 
8.4492254e+2, 1.24670126e+2, -1740986.1, -1710327.9, 8959.617, -0.040769234, -0.24983805, -1707901.5, 10306.5205, 0.0, 9.999748, 10.000154 
8.449344e+2, 1.3467018e+2, -1631818.3, -1608533.5, 7441.1265, -0.05269912, -0.25773233, -1606358.6, 13847.974, 0.0, 9.999831, 10.000139 
8.449463e+2, 1.4467013e+2, -1531756.8, -1524080.0, 11276.01, -0.059429444, -0.26931086, -1516007.0, 6199.3745, 0.0, 9.999908, 10.000009 
8.449585e+2, 1.5467012e+2, -1423418.8, -1420717.5, 11105.937, -0.057791833, -0.2722609, -1410880.4, 13325.492, 0.0, 9.999977, 10.000011 
8.449706e+2, 1.6466996e+2, -1315166.5, -1319951.6, 6811.198, -0.058539372, -0.28554097, -1310339.9, 15866.132, 0.0, 10.000057, 9.999992 
8.4498256e+2, 1.7466971e+2, -1203262.6, -1214526.6, 6672.906, -0.062006075, -0.31116733, -1200162.6, 28043.93, 0.0, 10.00015, 9.999999 
8.4499454e+2, 1.8466944e+2, -1104164.1, -1131709.8, 8888.802, -0.059910957, -0.33072904, -1101544.8, 28662.791, 0.0, 10.000225, 9.999858 
8.4500676e+2, 1.9466916e+2, -997881.25, -1029477.5, 8709.813, -0.05152915, -0.34417444, -995639.4, 36569.56, 0.0, 10.00028, 9.999861 
8.4501886e+2, 2.046688e+2, -906762.0, -954497.8, 5425.9824, -0.047704447, -0.3560475, -906153.06, 28057.959, 0.0, 10.000319, 9.999684 
8.4503084e+2, 2.1466838e+2, -806170.25, -855107.6, 5102.4976, -0.049050406, -0.36689717, -805643.94, 30569.758, 0.0, 10.000336, 9.999685 
8.450427e+2, 2.2466774e+2, -735168.1, -815333.2, -5511.562, -0.048572578, -0.37899113, -734790.94, 3427.874, 0.0, 10.000345, 9.999281 
8.4505445e+2, 2.3466687e+2, -637429.3, -718069.9, -5539.6147, -0.045987364, -0.39319664, -637050.56, 3176.0547, 0.0, 10.000346, 9.999275 
8.4506613e+2, 2.4466595e+2, -564867.8, -675511.44, -12276.416, -0.044271655, -0.39289775, -563522.06, -21286.54, 0.0, 10.000358, 9.99889 
8.450776e+2, 2.54665e+2, -463714.34, -576419.7, -11723.352, -0.04354625, -0.37695092, -462507.84, -18262.3, 0.0, 10.0003805, 9.998885 
8.4508914e+2, 2.6466373e+2, -381296.06, -512577.84, -13570.306, -0.03714569, -0.37854558, -379908.0, -33650.664, 0.0, 10.000388, 9.998648 
8.4510064e+2, 2.7466217e+2, -284778.84, -415139.78, -10914.304, -0.02435141, -0.40041414, -283871.38, -35600.438, 0.0, 10.000378, 9.998649 
8.451122e+2, 2.8466043e+2, -208500.55, -361308.63, -7161.8716, -0.01638272, -0.42242503, -208165.61, -57879.863, 0.0, 10.000373, 9.998347 
8.4512365e+2, 2.9465854e+2, -110234.81, -263205.5, -5126.448, -0.013755153, -0.4466296, -110063.2, -57761.363, 0.0, 10.000375, 9.998347 
8.451352e+2, 3.046567e+2, -13230.11, -114762.2, 1387.5842, -0.013936378, -0.49801204, -13211.15, -13211.15, 0.0, 10.000376, 9.99903 
8.451467e+2, 3.146557e+2, -10811.18, -109016.47, -1228.241, -0.019521644, -0.5005915, -10795.821, -10795.821, 0.0, 10.000373, 9.999071 
8.5492235e+2, 1.24658294e+2, -1743746.9, -1716148.0, 12070.949, -0.03259504, -0.2582898, -1711613.5, 6710.205, 0.0, 9.999747, 10.0001135 
8.549343e+2, 1.3465838e+2, -1634602.4, -1614457.3, 10484.088, -0.04787105, -0.2581152, -1609991.1, 10330.952, 0.0, 9.999831, 10.000098 
8.549463e+2, 1.4465831e+2, -1532449.1, -1525663.5, 13692.419, -0.05526073, -0.2695426, -1514949.9, 7372.2456, 0.0, 9.999908, 9.999998 
8.5495853e+2, 1.5465821e+2, -1423961.0, -1422042.4, 13596.868, -0.05040334, -0.27985278, -1409371.0, 14951.24, 0.0, 9.999978, 10.000003 
8.549707e+2, 1.6465807e+2, -1315210.3, -1320276.3, 10069.47, -0.050075505, -0.29299036, -1307360.1, 18962.33, 0.0, 10.000057, 9.99999 
8.5498273e+2, 1.746579e+2, -1203223.5, -1214718.4, 10000.565, -0.054947145, -0.30995443, -1197436.4, 30885.91, 0.0, 10.000151, 9.999997 
8.549949e+2, 1.8465763e+2, -1104592.8, -1132871.5, 10879.639, -0.056275547, -0.32719442, -1100891.5, 29431.756, 0.0, 10.000225, 9.99985 
8.55007e+2, 1.946573e+2, -998311.75, -1030634.7, 10685.134, -0.053583603, -0.34554172, -995098.9, 37226.14, 0.0, 10.000281, 9.999852 
8.550191e+2, 2.0465693e+2, -907075.7, -955404.06, 6007.4, -0.05239267, -0.35949522, -906340.2, 27987.117, 0.0, 10.0003195, 9.999678 
8.5503113e+2, 2.1465649e+2, -806466.25, -855957.56, 5653.404, -0.052912492, -0.3691713, -805828.7, 30501.168, 0.0, 10.000337, 9.99968 
8.5504305e+2, 2.2465585e+2, -734409.9, -813968.94, -5525.53, -0.05116517, -0.38207722, -734028.0, 4307.0425, 0.0, 10.000345, 9.99929 
8.5505474e+2, 2.3465495e+2, -636662.8, -716670.75, -5562.7876, -0.046764825, -0.39939412, -636277.94, 4065.0134, 0.0, 10.000346, 9.999286 
8.550664e+2, 2.4465406e+2, -563267.44, -672331.1, -11438.126, -0.043837607, -0.39927575, -562080.75, -19729.041, 0.0, 10.000358, 9.998911 
8.55078e+2, 2.5465316e+2, -462176.94, -573285.0, -10853.313, -0.04262946, -0.3800904, -461126.66, -16765.29, 0.0, 10.0003805, 9.998907 
8.5508955e+2, 2.6465195e+2, -376297.66, -502185.22, -13917.981, -0.035371684, -0.37966174, -374777.25, -28404.637, 0.0, 10.000388, 9.998719 
8.5510105e+2, 2.7465045e+2, -279724.5, -404549.28, -11330.836, -0.021265935, -0.40098208, -278704.28, -30318.848, 0.0, 10.000377, 9.998722 
8.5511255e+2, 2.846488e+2, -204863.36, -353634.63, -7041.162, -0.014427101, -0.42290074, -204530.84, -54131.215, 0.0, 10.000373, 9.998401 
8.55124e+2, 2.9464695e+2, -106634.03, -255644.78, -5019.2173, -0.015752023, -0.4474985, -106465.16, -54049.836, 0.0, 10.000375, 9.9984 
8.551355e+2, 3.0464518e+2, -12370.893, -113055.8, 1411.7505, -0.018673718, -0.4955075, -12351.102, -12351.102, 0.0, 10.000376, 9.9990425 
8.55147e+2, 3.1464425e+2, -10031.657, -107731.33, -1113.9452, -0.025727378, -0.49356878, -10018.958, -10018.958, 0.0, 10.000374, 9.99908 
8.649222e+2, 1.2464645e+2, -1729248.0, -1714243.3, 9374.445, -0.024185237, -0.25962356, -1709738.8, 8700.987, 0.0, 9.999869, 10.000068 
8.649342e+2, 1.3464653e+2, -1623947.9, -1614626.0, 7074.622, -0.043218173, -0.25660673, -1610814.9, 9623.562, 0.0, 9.9999275, 10.000051 
8.649463e+2, 1.446464e+2, -1520905.1, -1520154.4, 10028.776, -0.053179514, -0.26890263, -1510493.9, 11944.9, 0.0, 9.999989, 9.999997 
8.649586e+2, 1.5464628e+2, -1413258.6, -1416704.8, 10716.664, -0.048459418, -0.28293672, -1404127.4, 20311.771, 0.0, 10.000051, 10.000004 
8.649708e+2, 1.6464612e+2, -1307364.5, -1319650.3, 7439.2437, -0.047767237, -0.29633045, -1303859.8, 22579.67, 0.0, 10.000126, 9.999962 
8.6498296e+2, 1.7464595e+2, -1195919.4, -1214391.1, 5300.6553, -0.051728334, -0.30960077, -1194506.4, 33933.035, 0.0, 10.000215, 9.999969 
8.649951e+2, 1.8464568e+2, -1096380.0, -1129798.9, 3631.0957, -0.053652957, -0.32584116, -1095990.0, 34450.348, 0.0, 10.000286, 9.999842 
8.6500734e+2, 1.9464532e+2, -990609.4, -1027685.4, 3425.819, -0.05325964, -0.34626383, -990295.5, 42146.88, 0.0, 10.000338, 9.9998455 
8.650194e+2, 2.0464492e+2, -900930.06, -952327.5, -2878.1633, -0.05382533, -0.36116773, -900769.4, 33675.336, 0.0, 10.000361, 9.999679 
8.650314e+2, 2.146445e+2, -804153.25, -854675.8, -2839.2, -0.055505294, -0.37048912, -803994.25, 32453.004, 0.0, 10.000352, 9.9996805 
8.6504334e+2, 2.2464386e+2, -733449.25, -810842.44, -13648.304, -0.05393015, -0.38441, -731112.9, 7339.411, 0.0, 10.000341, 9.999314 
8.65055e+2, 2.3464295e+2, -637451.5, -714285.94, -12709.781, -0.048540268, -0.40431902, -635403.6, 5056.388, 0.0, 10.000329, 9.99931 
8.6506677e+2, 2.4464206e+2, -568606.9, -673344.06, -18111.537, -0.044669624, -0.4051822, -565563.4, -23094.672, 0.0, 10.000315, 9.998925 
8.6507833e+2, 2.5464118e+2, -473616.97, -577287.8, -18259.15, -0.042581495, -0.38506487, -470495.1, -26016.752, 0.0, 10.000296, 9.99892 
8.6508983e+2, 2.6464003e+2, -389442.97, -502052.9, -23121.092, -0.035129555, -0.38214463, -384880.6, -38391.465, 0.0, 10.00027, 9.998776 
8.651014e+2, 2.7463868e+2, -296136.9, -405787.1, -21732.498, -0.021597186, -0.39926323, -291986.63, -43485.566, 0.0, 10.000236, 9.998781 
8.6511284e+2, 2.8463706e+2, -221793.23, -355465.16, -16581.781, -0.0150121255, -0.42021424, -219767.0, -69252.35, 0.0, 10.00023, 9.998457 
8.6512434e+2, 2.9463527e+2, -120307.49, -255929.44, -14362.71, -0.016259065, -0.44755223, -118803.13, -66273.1, 0.0, 10.000254, 9.998455 
8.6513585e+2, 3.0463353e+2, -22205.602, -116110.86, -6949.039, -0.01938074, -0.49455404, -21694.154, -21694.154, 0.0, 10.000301, 9.999057 
8.651474e+2, 3.1463262e+2, -9389.172, -106080.58, -9276.02, -0.026941601, -0.48966002, -8507.326, -8507.326, 0.0, 10.000373, 9.999091 
8.7492216e+2, 1.2463461e+2, -1733068.5, -1722285.0, 11546.458, -0.015646804, -0.25367796, -1714933.5, 3622.553, 0.0, 9.999869, 10.000012 
8.7493414e+2, 1.346346e+2, -1627883.9, -1622983.3, 9135.692, -0.038772076, -0.25308263, -1615975.0, 4580.7827, 0.0, 9.999928, 9.999993 
8.7494624e+2, 1.4463444e+2, -1520293.0, -1519102.1, 12178.468, -0.053243484, -0.2673352, -1507504.5, 15051.939, 0.0, 9.999989, 10.000004 
8.749586e+2, 1.5463431e+2, -1412426.6, -1415272.9, 12945.719, -0.052060336, -0.28141683, -1400826.0, 23730.322, 0.0, 10.0000515, 10.000013 
8.749709e+2, 1.6463412e+2, -1311142.0, -1327800.8, 10554.804, -0.05171062, -0.29547563, -1306025.9, 20530.941, 0.0, 10.000127, 9.999906 
8.7498313e+2, 1.7463388e+2, -1199884.8, -1222922.6, 8490.236, -0.052394412, -0.31008247, -1197094.0, 31463.686, 0.0, 10.000216, 9.999909 
8.749954e+2, 1.8463358e+2, -1096897.4, -1131148.1, 5465.7695, -0.052062906, -0.3266782, -1096046.3, 34512.77, 0.0, 10.000287, 9.999832 
8.750077e+2, 1.9463322e+2, -991030.94, -1028817.3, 5248.3857, -0.05058108, -0.3463601, -990315.5, 42245.42, 0.0, 10.000339, 9.999837 
8.750198e+2, 2.0463283e+2, -900376.7, -951417.9, -3256.8687, -0.052026257, -0.36109155, -900169.75, 34393.484, 0.0, 10.000361, 9.999684 
8.750317e+2, 2.146324e+2, -803597.1, -853748.1, -3295.7544, -0.05684125, -0.3708778, -803381.5, 33184.227, 0.0, 10.000353, 9.999687 
8.7504363e+2, 2.2463177e+2, -730817.1, -805585.06, -14149.639, -0.056867495, -0.38601923, -728228.94, 10341.637, 0.0, 10.000341, 9.99935 
8.750554e+2, 2.3463088e+2, -634781.2, -708930.0, -13228.308, -0.05129875, -0.40801314, -632491.94, 8086.0127, 0.0, 10.00033, 9.999347 
8.75067e+2, 2.4463001e+2, -568214.56, -672699.2, -18830.62, -0.046746694, -0.41063294, -564924.44, -22337.932, 0.0, 10.000315, 9.998929 
8.750786e+2, 2.546291e+2, -473331.25, -576849.94, -18986.295, -0.04338922, -0.39181933, -469958.84, -25362.473, 0.0, 10.000297, 9.998923 
8.7509006e+2, 2.6462802e+2, -386419.1, -495936.13, -24377.69, -0.036373757, -0.38596275, -381237.9, -34631.043, 0.0, 10.000271, 9.998818 
8.7510157e+2, 2.7462673e+2, -292992.88, -399443.53, -23033.492, -0.025220634, -0.39535964, -288222.72, -39604.863, 0.0, 10.0002365, 9.998824 
8.75113e+2, 2.846252e+2, -217693.48, -347082.03, -15706.054, -0.01805646, -0.41449353, -215814.27, -65183.438, 0.0, 10.00023, 9.998514 
8.751246e+2, 2.946234e+2, -116314.09, -247603.28, -13379.972, -0.015374541, -0.44681856, -114964.38, -62318.4, 0.0, 10.000254, 9.998513 
8.751362e+2, 3.046217e+2, -21226.025, -113955.36, -4195.09, -0.016289677, -0.49505463, -21036.625, -21036.625, 0.0, 10.0003, 9.999072 
8.7514776e+2, 3.1462085e+2, -8597.26, -104303.85, -6351.7134, -0.023612767, -0.48954347, -8177.5596, -8177.5596, 0.0, 10.000372, 9.9991045 
8.849222e+2, 1.2462265e+2, -1717876.8, -1717906.3, 3211.0295, -0.009433986, -0.24453329, -1714680.5, 3993.3015, 0.0, 9.999987, 9.999986 
8.849342e+2, 1.3462259e+2, -1614781.8, -1619837.6, 2808.9382, -0.033236977, -0.24707052, -1613530.8, 7143.3115, 0.0, 10.000032, 9.999965 
8.849463e+2, 1.4462239e+2, -1505771.9, -1513365.8, 6886.6445, -0.04990241, -0.26263842, -1501704.9, 20970.264, 0.0, 10.000094, 9.999992 
8.849587e+2, 1.5462227e+2, -1395068.3, -1408121.9, 6093.018, -0.051107883, -0.27466798, -1392666.3, 32008.54, 0.0, 10.000176, 10.000002 
8.849711e+2, 1.6462205e+2, -1295143.8, -1322859.8, 3957.1716, -0.05130153, -0.28986165, -1294589.9, 32085.586, 0.0, 10.000249, 9.99988 
8.849835e+2, 1.7462173e+2, -1188011.8, -1220020.9, 4327.0513, -0.050429117, -0.3092929, -1187437.1, 41239.625, 0.0, 10.00031, 9.999884 
8.849957e+2, 1.8462138e+2, -1089895.6, -1129759.9, 468.81308, -0.049453042, -0.3279713, -1089890.1, 40788.496, 0.0, 10.000344, 9.999814 
8.8500804e+2, 1.9462101e+2, -990911.5, -1030651.4, -657.6295, -0.04836685, -0.3465513, -990900.6, 41779.86, 0.0, 10.000348, 9.99982 
8.8502014e+2, 2.0462061e+2, -902377.44, -952546.9, -11110.126, -0.050882302, -0.36117154, -900027.2, 34655.645, 0.0, 10.000349, 9.999682 
8.850321e+2, 2.1462019e+2, -804436.0, -854179.9, -11857.365, -0.05753479, -0.37199196, -801754.2, 34931.27, 0.0, 10.000347, 9.999686 
8.850439e+2, 2.2461955e+2, -730026.1, -802354.9, -23824.117, -0.05861143, -0.3874061, -722884.06, 15806.109, 0.0, 10.000335, 9.999375 
8.8505566e+2, 2.3461871e+2, -635550.25, -706343.9, -23812.15, -0.053169616, -0.4087883, -628286.1, 12410.933, 0.0, 10.000312, 9.9993725 
8.8506734e+2, 2.4461783e+2, -570571.9, -671287.94, -29406.857, -0.04839461, -0.41239014, -562614.44, -19908.988, 0.0, 10.000288, 9.998952 
8.8507885e+2, 2.5461695e+2, -476771.84, -576031.9, -28254.482, -0.044413585, -0.39632264, -469292.72, -24577.373, 0.0, 10.000262, 9.998945 
8.8509035e+2, 2.6461586e+2, -389501.44, -494751.63, -33859.387, -0.038037725, -0.38973674, -379549.72, -32824.063, 0.0, 10.000238, 9.998842 
8.8510174e+2, 2.746147e+2, -294396.16, -397485.44, -34096.26, -0.028966645, -0.39446157, -284139.47, -35403.254, 0.0, 10.000216, 9.998848 
8.8511324e+2, 2.8461322e+2, -218375.5, -339121.88, -26140.277, -0.021691844, -0.41222844, -212959.36, -62210.707, 0.0, 10.00019, 9.998588 
8.8512474e+2, 2.9461145e+2, -124923.79, -243270.0, -22595.637, -0.016381323, -0.4470706, -120756.4, -67993.24, 0.0, 10.000158, 9.998589 
8.851364e+2, 3.046098e+2, -37171.895, -117802.34, -9388.479, -0.015061879, -0.49625495, -36093.15, -36093.15, 0.0, 10.000175, 9.999106 
8.851481e+2, 3.1460896e+2, -24811.604, -108525.67, -10126.936, -0.02051802, -0.49204808, -23603.965, -23603.965, 0.0, 10.000246, 9.999136 
8.949222e+2, 1.2461059e+2, -1717791.6, -1717872.9, 4814.9453, -0.0057768505, -0.23215753, -1713017.1, 5775.755, 0.0, 9.999988, 9.999987 
8.9493424e+2, 1.3461049e+2, -1614742.8, -1619968.1, 4317.5703, -0.026637506, -0.23844407, -1612308.9, 8484.406, 0.0, 10.000032, 9.999964 
8.9494646e+2, 1.4461027e+2, -1508013.5, -1518240.9, 9709.922, -0.043111406, -0.2547031, -1502153.0, 20641.508, 0.0, 10.000094, 9.999959 
8.949589e+2, 1.5461016e+2, -1397306.4, -1413082.4, 9026.051, -0.04555295, -0.26256767, -1393207.3, 31586.936, 0.0, 10.000177, 9.999968 
8.949714e+2, 1.6460991e+2, -1294713.3, -1322309.9, 6062.3325, -0.046498593, -0.2793924, -1293440.3, 33354.816, 0.0, 10.00025, 9.999884 
8.9498377e+2, 1.7460951e+2, -1187469.3, -1219209.1, 6441.354, -0.045818564, -0.30720627, -1186211.9, 42585.023, 0.0, 10.000311, 9.999889 
8.9499617e+2, 1.8460912e+2, -1091735.5, -1133863.4, 544.03613, -0.04582464, -0.32973203, -1091728.5, 39070.414, 0.0, 10.000345, 9.999785 
8.9500844e+2, 1.9460873e+2, -992832.9, -1034921.75, -624.37634, -0.046615217, -0.34685397, -992823.6, 39977.31, 0.0, 10.000349, 9.99979 
8.950205e+2, 2.046083e+2, -902966.25, -954048.94, -11276.087, -0.05039594, -0.36142248, -900587.9, 34215.625, 0.0, 10.00035, 9.999672 
8.950324e+2, 2.1460785e+2, -804996.1, -855598.6, -12001.419, -0.05760605, -0.37383807, -802294.06, 34512.277, 0.0, 10.000348, 9.999677 
8.9504427e+2, 2.2460724e+2, -728944.25, -800340.1, -24722.23, -0.05919338, -0.38859957, -721219.44, 17591.49, 0.0, 10.000336, 9.999389 
8.9505595e+2, 2.3460643e+2, -634453.1, -704288.5, -24716.176, -0.054185014, -0.40673164, -626590.75, 14226.713, 0.0, 10.000313, 9.999386 
8.950676e+2, 2.4460557e+2, -567772.06, -665668.1, -30407.195, -0.04963765, -0.41055644, -559096.25, -16270.742, 0.0, 10.000289, 9.99899 
8.950791e+2, 2.5460467e+2, -473971.84, -570358.94, -29248.162, -0.045657344, -0.3986456, -465791.0, -20955.75, 0.0, 10.000262, 9.998984 
8.950905e+2, 2.6460364e+2, -389205.75, -494216.2, -34705.8, -0.040117998, -0.39346364, -378772.2, -31926.67, 0.0, 10.000238, 9.998846 
8.951019e+2, 2.7460244e+2, -294235.97, -397148.47, -34923.4, -0.032844506, -0.39643916, -283503.88, -34647.75, 0.0, 10.000216, 9.99885 
8.9511335e+2, 2.8460103e+2, -212303.73, -326498.03, -27230.328, -0.025903352, -0.41326612, -206142.88, -55274.77, 0.0, 10.000189, 9.998675 
8.9512485e+2, 2.9459935e+2, -118561.98, -230116.6, -23751.79, -0.019202456, -0.44825736, -113715.4, -60833.863, 0.0, 10.000158, 9.998679 
8.951366e+2, 3.0459777e+2, -33620.62, -110529.84, -6763.3574, -0.015626011, -0.49809623, -33030.387, -33030.387, 0.0, 10.000175, 9.999156 
8.951484e+2, 3.1459695e+2, -21451.111, -101650.445, -7288.793, -0.017716756, -0.49700648, -20794.064, -20794.064, 0.0, 10.000246, 9.999183 
9.0492225e+2, 1.24598406e+2, -1695786.4, -1709329.1, 1581.959, -0.004285183, -0.22597031, -1695604.0, 23309.033, 0.0, 10.000148, 9.999968 
9.049344e+2, 1.345983e+2, -1598986.3, -1614724.3, -650.16486, -0.020434285, -0.2296598, -1598959.4, 21953.988, 0.0, 10.000152, 9.999942 
9.049467e+2, 1.4459807e+2, -1499461.8, -1517373.0, 5174.441, -0.035355393, -0.24575455, -1498074.4, 24840.451, 0.0, 10.000168, 9.999929 
9.0495914e+2, 1.545979e+2, -1395988.0, -1415768.0, 4821.5034, -0.03809173, -0.25499108, -1394875.3, 30039.71, 0.0, 10.000201, 9.999938 
9.0497166e+2, 1.6459763e+2, -1293174.1, -1320506.6, 2567.5508, -0.04003733, -0.27378553, -1292935.0, 33980.99, 0.0, 10.000257, 9.999892 
9.049841e+2, 1.7459722e+2, -1182839.0, -1215770.6, 3305.954, -0.04119109, -0.30425715, -1182510.4, 46407.31, 0.0, 10.000338, 9.999899 
9.049965e+2, 1.845968e+2, -1085873.0, -1133264.3, -4201.207, -0.0437486, -0.32826847, -1085503.4, 45416.313, 0.0, 10.000396, 9.999765 
9.050088e+2, 1.945964e+2, -983279.06, -1032694.4, -4947.7056, -0.04790604, -0.3455153, -982788.56, 50133.5, 0.0, 10.000425, 9.999768 
9.050209e+2, 2.0459594e+2, -893532.44, -951040.44, -16970.475, -0.05265875, -0.36055115, -888897.94, 46026.83, 0.0, 10.0004225, 9.999658 
9.0503275e+2, 2.1459545e+2, -801366.3, -855325.4, -18116.625, -0.05802691, -0.37380177, -795848.06, 41079.777, 0.0, 10.00038, 9.999662 
9.050446e+2, 2.2459483e+2, -728016.06, -800091.06, -31771.33, -0.059048664, -0.3886015, -716010.6, 22921.863, 0.0, 10.000343, 9.999387 
9.050563e+2, 2.3459405e+2, -634374.25, -704407.56, -33016.586, -0.054943714, -0.4058923, -621263.4, 19675.613, 0.0, 10.000315, 9.999385 
9.0506786e+2, 2.445932e+2, -567605.2, -661955.2, -40103.805, -0.05054372, -0.40918842, -552862.5, -9915.681, 0.0, 10.000275, 9.9990225 
9.0507936e+2, 2.5459236e+2, -477697.4, -568407.1, -39451.426, -0.04583905, -0.39698628, -462940.03, -17983.906, 0.0, 10.000221, 9.999018 
9.0509075e+2, 2.645913e+2, -396659.78, -493719.75, -43916.055, -0.03986384, -0.39322883, -379739.2, -32773.01, 0.0, 10.00017, 9.998882 
9.051021e+2, 2.7459013e+2, -305626.6, -398533.53, -41743.85, -0.032474358, -0.39971727, -289626.3, -40649.52, 0.0, 10.000119, 9.998887 
9.0511346e+2, 2.8458878e+2, -221863.47, -324318.25, -32908.832, -0.026063694, -0.4167121, -212203.78, -61215.465, 0.0, 10.000094, 9.998735 
9.05125e+2, 2.945872e+2, -123126.71, -225427.27, -31613.492, -0.020670028, -0.4480311, -114145.766, -61144.95, 0.0, 10.000097, 9.99874 
9.051367e+2, 3.0458567e+2, -36327.094, -105849.64, -12638.75, -0.01774459, -0.49673474, -34100.746, -34100.746, 0.0, 10.000132, 9.999209 
9.0514857e+2, 3.1458488e+2, -24618.088, -97371.625, -12766.361, -0.0195542, -0.4989498, -22442.951, -22442.951, 0.0, 10.000199, 9.999234 
9.1492236e+2, 1.245861e+2, -1698555.9, -1715361.0, 1697.4594, -0.005207022, -0.2262965, -1698386.1, 20647.889, 0.0, 10.000149, 9.999926 
9.1493464e+2, 1.3458605e+2, -1601946.3, -1621127.8, -711.4185, -0.014694022, -0.22070076, -1601919.9, 19114.168, 0.0, 10.000153, 9.999898 
9.149469e+2, 1.4458579e+2, -1501384.9, -1521540.5, 6141.032, -0.026637008, -0.23571739, -1499661.3, 23374.523, 0.0, 10.000169, 9.999901 
9.149595e+2, 1.5458553e+2, -1397865.0, -1419867.1, 5902.9146, -0.028717857, -0.25197184, -1396381.4, 28655.469, 0.0, 10.000202, 9.999909 
9.14972e+2, 1.645852e+2, -1292212.8, -1318758.3, 5356.1, -0.031907886, -0.27310753, -1291172.8, 35865.277, 0.0, 10.0002575, 9.999905 
9.149845e+2, 1.7458484e+2, -1181757.6, -1213798.1, 6208.461, -0.03654942, -0.30046102, -1180596.6, 48442.508, 0.0, 10.000339, 9.999912 
9.1499686e+2, 1.8458444e+2, -1086771.8, -1135405.9, -3141.4136, -0.043229222, -0.3235769, -1086569.6, 44471.43, 0.0, 10.000397, 9.99975 
9.1500914e+2, 1.94584e+2, -984295.4, -1035070.0, -3934.3604, -0.05223318, -0.34254488, -983992.4, 49051.367, 0.0, 10.000426, 9.999752 
9.1502124e+2, 2.0458353e+2, -894712.5, -953764.7, -18536.28, -0.057667993, -0.35857955, -889376.25, 45670.445, 0.0, 10.0004225, 9.9996395 
9.1503316e+2, 2.1458302e+2, -802577.0, -858128.5, -19784.818, -0.05881314, -0.37192243, -796251.0, 40798.887, 0.0, 10.0003805, 9.999643 
9.150449e+2, 2.2458237e+2, -729153.75, -802740.0, -32897.52, -0.05819954, -0.38743743, -716591.25, 22463.574, 0.0, 10.000344, 9.999368 
9.150566e+2, 2.3458154e+2, -635555.5, -707116.8, -34126.29, -0.05546002, -0.4062426, -621890.6, 19171.016, 0.0, 10.000316, 9.999366 
9.150681e+2, 2.4458072e+2, -565733.1, -658298.5, -42031.844, -0.05113547, -0.40829283, -549495.75, -6426.3066, 0.0, 10.000275, 9.999047 
9.1507953e+2, 2.5457993e+2, -475755.1, -564570.56, -41443.527, -0.045004915, -0.3914893, -459420.66, -14342.619, 0.0, 10.000222, 9.999043 
9.150909e+2, 2.6457894e+2, -391926.03, -484072.03, -45751.54, -0.037374906, -0.38915756, -373068.88, -25981.232, 0.0, 10.000171, 9.998948 
9.1510224e+2, 2.7457774e+2, -300799.88, -388700.94, -43600.848, -0.02804326, -0.4042282, -282841.72, -33743.555, 0.0, 10.00012, 9.998954 
9.151136e+2, 2.8457642e+2, -219420.69, -319400.6, -32822.617, -0.022360345, -0.42247316, -209608.3, -58498.984, 0.0, 10.000095, 9.998769 
9.151251e+2, 2.9457495e+2, -120868.55, -220802.5, -31466.195, -0.020867243, -0.44646096, -111786.22, -58665.188, 0.0, 10.000097, 9.998772 
9.1513675e+2, 3.0457348e+2, -32571.918, -97994.01, -10102.425, -0.02135227, -0.49231824, -31047.436, -31047.436, 0.0, 10.000131, 9.999264 
9.1514874e+2, 3.145727e+2, -20975.96, -89586.984, -10077.501, -0.025835952, -0.49856594, -19526.416, -19526.416, 0.0, 10.000198, 9.999289 
9.249226e+2, 1.2457382e+2, -1679441.1, -1711849.4, 4173.893, -0.006143462, -0.22533675, -1678912.3, 40242.41, 0.0, 10.000305, 9.999874 
9.2493486e+2, 1.3457374e+2, -1580192.9, -1616625.0, 822.7436, -0.010475991, -0.217303, -1580174.4, 40980.66, 0.0, 10.000328, 9.999845 
9.249472e+2, 1.4457344e+2, -1477521.0, -1513427.8, 7525.8643, -0.021524528, -0.23232467, -1476007.4, 47149.74, 0.0, 10.000348, 9.999869 
9.249598e+2, 1.5457314e+2, -1376135.5, -1412636.3, 7164.5127, -0.02566334, -0.25019932, -1374779.6, 50379.03, 0.0, 10.000366, 9.99988 
9.2497236e+2, 1.6457279e+2, -1274545.6, -1312114.8, 6398.5015, -0.029517986, -0.27131766, -1273485.8, 53674.273, 0.0, 10.000387, 9.9998865 
9.2498493e+2, 1.7457244e+2, -1172070.6, -1210964.1, 4957.5454, -0.033153247, -0.2967736, -1171448.6, 57712.51, 0.0, 10.000414, 9.999896 
9.249973e+2, 1.8457201e+2, -1081777.4, -1133846.4, -6573.634, -0.040501215, -0.31913447, -1080960.4, 50202.793, 0.0, 10.000435, 9.9997425 
9.250096e+2, 1.9457157e+2, -981455.6, -1034534.06, -6925.402, -0.05216069, -0.33869573, -980566.94, 52599.004, 0.0, 10.00045, 9.999743 
9.2502165e+2, 2.0457107e+2, -891488.94, -953054.7, -22781.889, -0.059059296, -0.35502124, -883975.56, 51193.438, 0.0, 10.000449, 9.999631 
9.250335e+2, 2.1457057e+2, -796041.6, -855813.0, -23388.488, -0.060242027, -0.3682616, -787977.7, 49194.574, 0.0, 10.000429, 9.999636 
9.250453e+2, 2.245699e+2, -722329.44, -799674.4, -35961.65, -0.05935043, -0.3844101, -708192.8, 30984.457, 0.0, 10.000393, 9.999366 
9.250569e+2, 2.3456906e+2, -632929.4, -706068.75, -36096.258, -0.055930194, -0.4047502, -618115.44, 23068.828, 0.0, 10.000335, 9.999364 
9.250684e+2, 2.4456824e+2, -566000.8, -657944.5, -44772.625, -0.051156465, -0.40719354, -547801.0, -4608.9883, 0.0, 10.000272, 9.999051 
9.2507976e+2, 2.5456744e+2, -478417.3, -565392.75, -45972.953, -0.044851195, -0.38934702, -458622.38, -13421.825, 0.0, 10.000202, 9.999047 
9.250911e+2, 2.645665e+2, -391748.22, -478027.8, -51038.332, -0.037414912, -0.38666886, -368060.22, -20850.38, 0.0, 10.000146, 9.9990015 
9.2510235e+2, 2.7456534e+2, -299012.78, -381669.6, -49863.92, -0.028703082, -0.40227744, -275576.66, -26356.89, 0.0, 10.000106, 9.999009 
9.2511374e+2, 2.8456405e+2, -221376.39, -318578.38, -39008.35, -0.022818461, -0.4204939, -207657.97, -56427.46, 0.0, 10.000074, 9.998785 
9.251251e+2, 2.9456258e+2, -126761.49, -222128.72, -39058.984, -0.020151587, -0.44380355, -112806.39, -59564.215, 0.0, 10.000051, 9.998785 
9.2513686e+2, 3.045612e+2, -41159.934, -97568.94, -16787.99, -0.021895044, -0.48873684, -36541.723, -36541.723, 0.0, 10.000052, 9.999304 
9.251488e+2, 3.145604e+2, -34961.75, -91693.78, -17681.2, -0.030410847, -0.49544853, -29902.39, -29902.39, 0.0, 10.000082, 9.99933 
9.349229e+2, 1.24561585e+2, -1683706.0, -1721005.4, 5045.2656, -0.0073274607, -0.22322898, -1683035.6, 36238.926, 0.0, 10.000306, 9.999811 
9.349352e+2, 1.345614e+2, -1584675.9, -1626284.4, 1551.1514, -0.007868647, -0.21960136, -1584618.1, 36657.992, 0.0, 10.000329, 9.999778 
9.3494755e+2, 1.4456102e+2, -1479812.5, -1518485.0, 8011.074, -0.020111846, -0.2357543, -1478218.8, 45060.152, 0.0, 10.000349, 9.999834 
9.3496007e+2, 1.5456073e+2, -1378326.8, -1417506.4, 7707.36, -0.029047074, -0.24972284, -1376865.1, 48415.176, 0.0, 10.000367, 9.999846 
9.3497264e+2, 1.6456038e+2, -1277769.1, -1319132.4, 7186.2305, -0.032966815, -0.26840565, -1276556.1, 50725.74, 0.0, 10.000388, 9.999838 
9.3498534e+2, 1.7455997e+2, -1175336.8, -1218042.8, 5787.0913, -0.031036824, -0.2931937, -1174566.5, 54717.066, 0.0, 10.000415, 9.999846 
9.349978e+2, 1.8455954e+2, -1081925.4, -1134435.0, -6123.8193, -0.035578426, -0.31494522, -1081220.6, 50065.215, 0.0, 10.000436, 9.999738 
9.350101e+2, 1.9455908e+2, -981421.2, -1034738.44, -6476.698, -0.047722027, -0.33397698, -980645.7, 52642.92, 0.0, 10.000451, 9.9997425 
9.350221e+2, 2.045586e+2, -891235.3, -952796.1, -23521.941, -0.056859314, -0.34989348, -883276.7, 52015.027, 0.0, 10.00045, 9.999633 
9.350339e+2, 2.1455811e+2, -795761.5, -855494.3, -24184.49, -0.062300865, -0.3628432, -787197.56, 50097.35, 0.0, 10.00043, 9.999638 
9.3504566e+2, 2.2455743e+2, -721319.9, -797850.2, -38081.777, -0.062484052, -0.37955123, -705599.44, 33700.414, 0.0, 10.000393, 9.999378 
9.3505716e+2, 2.345566e+2, -631888.56, -704168.3, -38274.24, -0.05637327, -0.40145782, -615388.06, 25918.637, 0.0, 10.000336, 9.999376 
9.3506867e+2, 2.4455574e+2, -567088.8, -660464.94, -47321.934, -0.050626513, -0.40588614, -547300.25, -3985.593, 0.0, 10.000272, 9.999034 
9.3507993e+2, 2.5455493e+2, -479621.66, -568158.4, -48518.08, -0.045361675, -0.39044306, -458211.3, -12887.55, 0.0, 10.000202, 9.999028 
9.350912e+2, 2.64554e+2, -388852.72, -472276.3, -52483.76, -0.03990104, -0.38573593, -363524.1, -16191.287, 0.0, 10.000147, 9.999041 
9.3510234e+2, 2.7455294e+2, -295914.78, -375493.4, -51290.08, -0.034267616, -0.39415213, -270789.8, -21448.283, 0.0, 10.000107, 9.999051 
9.351137e+2, 2.845517e+2, -221513.06, -319096.28, -39827.477, -0.027302697, -0.41109404, -207321.75, -55969.78, 0.0, 10.000074, 9.998781 
9.351252e+2, 2.9455018e+2, -127075.81, -222953.78, -39831.145, -0.018619629, -0.44009882, -112687.7, -59323.434, 0.0, 10.000051, 9.998779 
9.35137e+2, 3.0454877e+2, -39363.24, -93904.47, -15561.027, -0.019564016, -0.48596656, -35235.89, -35235.89, 0.0, 10.000052, 9.99933 
9.3514884e+2, 3.1454808e+2, -33173.79, -87884.945, -16320.776, -0.033421803, -0.48995188, -28675.084, -28675.084, 0.0, 10.000082, 9.999357 
9.449232e+2, 1.2454931e+2, -1669507.0, -1717555.4, 1848.187, -0.009110426, -0.21830796, -1669436.0, 49959.06, 0.0, 10.000419, 9.999781 
9.449357e+2, 1.3454904e+2, -1567876.4, -1621824.9, 720.298, -0.0042747734, -0.21910214, -1567866.8, 53530.457, 0.0, 10.000461, 9.999744 
9.44948e+2, 1.4454862e+2, -1462008.3, -1515250.5, 7588.505, -0.015901132, -0.23645407, -1460947.8, 62452.754, 0.0, 10.000494, 9.999786 
9.449606e+2, 1.545483e+2, -1359401.6, -1413798.8, 6065.8086, -0.027602477, -0.24678205, -1358733.5, 66668.72, 0.0, 10.000521, 9.999797 
9.449732e+2, 1.6454794e+2, -1260310.5, -1313847.5, 4781.8975, -0.032479115, -0.26406395, -1259886.6, 67517.44, 0.0, 10.000523, 9.999809 
9.4498587e+2, 1.7454748e+2, -1165529.8, -1216327.5, 4932.687, -0.029298507, -0.29014724, -1165055.1, 64351.023, 0.0, 10.000496, 9.99982 
9.4499826e+2, 1.8454702e+2, -1076133.1, -1131200.1, -5913.0957, -0.0334579, -0.31238854, -1075505.3, 55903.33, 0.0, 10.000474, 9.999742 
9.450105e+2, 1.9454658e+2, -979878.2, -1033403.1, -5840.9, -0.046277076, -0.3309251, -979248.2, 54163.145, 0.0, 10.00046, 9.999747 
9.450226e+2, 2.0454612e+2, -890751.5, -951327.94, -22869.81, -0.05573538, -0.34619647, -883087.06, 52327.297, 0.0, 10.000448, 9.999643 
9.450344e+2, 2.1454564e+2, -793390.3, -853142.8, -22956.459, -0.061008863, -0.35833967, -785589.1, 51828.344, 0.0, 10.000442, 9.999648 
9.45046e+2, 2.24545e+2, -717516.56, -793563.6, -38007.93, -0.061558902, -0.3740698, -701777.75, 37644.445, 0.0, 10.000409, 9.999399 
9.450576e+2, 2.3454419e+2, -629016.6, -700379.1, -37699.0, -0.056484513, -0.39477244, -612790.6, 28638.027, 0.0, 10.000345, 9.999397 
9.450689e+2, 2.4454333e+2, -566091.56, -660372.4, -46231.684, -0.051412363, -0.40069047, -547204.8, -3768.2244, 0.0, 10.000281, 9.99903 
9.4508016e+2, 2.5454247e+2, -478005.7, -567981.25, -46510.957, -0.04635799, -0.38989258, -458285.13, -12839.012, 0.0, 10.0002165, 9.9990225 
9.450913e+2, 2.6454154e+2, -387022.38, -472527.66, -50744.76, -0.04138406, -0.38482046, -363421.28, -15966.031, 0.0, 10.000165, 9.99903 
9.4510245e+2, 2.7454054e+2, -293775.56, -375629.3, -53451.355, -0.036570657, -0.38693327, -267381.88, -17918.258, 0.0, 10.000127, 9.999041 
9.451138e+2, 2.845393e+2, -218562.17, -316081.28, -43221.105, -0.029516524, -0.40291283, -202163.78, -50689.844, 0.0, 10.000089, 9.998795 
9.451252e+2, 2.9453775e+2, -126445.21, -220950.34, -41807.6, -0.01964901, -0.43738124, -110605.14, -57118.7, 0.0, 10.000049, 9.998795 
9.4513696e+2, 3.045363e+2, -42296.96, -93891.055, -15592.911, -0.022462698, -0.48544225, -37950.574, -37950.574, 0.0, 10.000027, 9.999342 
9.451488e+2, 3.1453562e+2, -40572.414, -90066.27, -17402.805, -0.041802075, -0.48954716, -35065.945, -35065.945, 0.0, 10.000026, 9.999369 
9.5492357e+2, 1.2453701e+2, -1669317.3, -1717375.3, 3372.2534, -0.011637019, -0.21075253, -1669081.8, 50434.246, 0.0, 10.000419, 9.999782 
9.5493615e+2, 1.345367e+2, -1567769.1, -1621882.6, 2132.9878, 0.0002741667, -0.21577707, -1567685.1, 53833.133, 0.0, 10.000462, 9.999744 
9.549486e+2, 1.4453624e+2, -1466305.5, -1524426.6, 8428.489, -0.008870665, -0.23440683, -1465107.9, 58414.063, 0.0, 10.000495, 9.999723 
9.549611e+2, 1.5453589e+2, -1363903.5, -1423446.1, 6902.2515, -0.021285895, -0.24136068, -1363113.9, 62410.34, 0.0, 10.000522, 9.999731 
9.549737e+2, 1.6453548e+2, -1260810.8, -1315227.1, 3689.9343, -0.028012946, -0.25828317, -1260561.6, 66964.98, 0.0, 10.000524, 9.9998 
9.5498633e+2, 1.7453499e+2, -1165867.6, -1217351.6, 3770.5215, -0.027933013, -0.28764176, -1165593.0, 63936.016, 0.0, 10.000497, 9.999812 
9.5499873e+2, 1.8453452e+2, -1075309.3, -1129788.9, -6634.2373, -0.034148242, -0.3114713, -1074513.0, 57018.48, 0.0, 10.000475, 9.999751 
9.5501095e+2, 1.945341e+2, -979024.94, -1031936.75, -6496.72, -0.047818854, -0.32952866, -978238.94, 55295.125, 0.0, 10.000461, 9.999757 
9.55023e+2, 2.0453365e+2, -889328.9, -948659.8, -23205.855, -0.055700578, -0.34390873, -881330.7, 54206.223, 0.0, 10.000449, 9.999661 
9.5503485e+2, 2.1453321e+2, -791979.5, -850443.9, -23228.885, -0.056440108, -0.35472938, -783874.0, 53665.85, 0.0, 10.0004425, 9.999666 
9.5504653e+2, 2.245326e+2, -715411.3, -789402.94, -40346.355, -0.05664851, -0.36797634, -697666.7, 41877.57, 0.0, 10.00041, 9.999428 
9.5505786e+2, 2.3453186e+2, -626873.5, -696155.06, -40095.508, -0.056266602, -0.38477167, -608527.2, 33022.863, 0.0, 10.000345, 9.999426 
9.550691e+2, 2.4453102e+2, -565434.06, -659240.0, -48619.84, -0.05349015, -0.39169848, -544781.3, -1223.4852, 0.0, 10.000281, 9.999038 
9.5508033e+2, 2.545301e+2, -477442.16, -567025.8, -48858.406, -0.047840025, -0.38773882, -455950.88, -10383.201, 0.0, 10.000217, 9.999029 
9.550915e+2, 2.645291e+2, -391100.94, -481193.2, -52083.168, -0.041924704, -0.38392508, -367286.25, -19709.055, 0.0, 10.000165, 9.99897 
9.551026e+2, 2.7452815e+2, -298069.97, -384721.88, -54699.113, -0.035773654, -0.3805949, -271616.75, -22030.73, 0.0, 10.000127, 9.998979 
9.551138e+2, 2.8452685e+2, -216456.98, -311885.22, -44517.18, -0.02957549, -0.39591295, -198914.56, -47318.08, 0.0, 10.000089, 9.998824 
9.551253e+2, 2.945253e+2, -124032.87, -216125.97, -43090.277, -0.023145327, -0.43561926, -107015.51, -53406.754, 0.0, 10.000049, 9.998828 
9.551369e+2, 3.0452383e+2, -42360.02, -94118.695, -15420.096, -0.030366695, -0.4870504, -38114.293, -38114.293, 0.0, 10.000027, 9.999341 
9.551487e+2, 3.145231e+2, -40945.516, -90682.914, -17063.682, -0.05534309, -0.49408624, -35654.285, -35654.285, 0.0, 10.000024, 9.999365 
9.649241e+2, 1.2452457e+2, -1652279.3, -1710636.5, 100.74303, -0.01203369, -0.20940061, -1652279.1, 67358.875, 0.0, 10.000543, 9.999768 
9.6493673e+2, 1.3452426e+2, -1552727.3, -1616326.1, -2433.1824, 0.0024501132, -0.2132138, -1552634.3, 69005.99, 0.0, 10.000572, 9.999728 
9.6494913e+2, 1.4452377e+2, -1454945.8, -1521935.4, 3612.1301, -0.006102227, -0.23175766, -1454751.6, 68892.586, 0.0, 10.0005865, 9.999696 
9.6496165e+2, 1.545234e+2, -1356926.3, -1423151.1, 4935.6465, -0.018046897, -0.23888691, -1356560.4, 69086.445, 0.0, 10.000583, 9.999702 
9.649742e+2, 1.6452298e+2, -1251301.4, -1308737.3, 3265.7554, -0.025947278, -0.25611144, -1251116.3, 76533.125, 0.0, 10.000581, 9.999817 
9.649868e+2, 1.745225e+2, -1152280.1, -1208656.0, 5246.889, -0.02894486, -0.2859355, -1151796.0, 77855.54, 0.0, 10.000581, 9.999831 
9.649992e+2, 1.8452205e+2, -1060516.0, -1120109.8, -4065.6892, -0.036619272, -0.3098567, -1060239.9, 71413.945, 0.0, 10.000566, 9.999773 
9.650114e+2, 1.9452165e+2, -966887.94, -1023537.1, -3083.945, -0.049839247, -0.32753524, -966720.56, 66935.63, 0.0, 10.000533, 9.99978 
9.6502346e+2, 2.0452124e+2, -882737.4, -943077.7, -19728.773, -0.055862844, -0.34116915, -876859.44, 58799.36, 0.0, 10.000484, 9.999682 
9.650353e+2, 2.1452083e+2, -794181.4, -849110.2, -19632.432, -0.053015385, -0.35080576, -787885.94, 49775.652, 0.0, 10.000418, 9.999687 
9.6504694e+2, 2.2452028e+2, -720607.1, -789432.3, -37464.06, -0.052706048, -0.3622203, -704149.5, 35516.22, 0.0, 10.000363, 9.99945 
9.650582e+2, 2.3451957e+2, -628266.25, -694385.56, -37863.703, -0.055501983, -0.37641826, -611060.6, 30610.508, 0.0, 10.000326, 9.999448 
9.650695e+2, 2.4451876e+2, -565212.3, -657325.4, -46981.605, -0.054307055, -0.3832921, -545477.7, -1799.0906, 0.0, 10.000276, 9.999054 
9.6508056e+2, 2.545178e+2, -477419.47, -565270.4, -46685.13, -0.048304766, -0.3822576, -457243.84, -11555.468, 0.0, 10.00021, 9.999044 
9.650916e+2, 2.645168e+2, -394880.1, -487186.47, -47904.766, -0.04259832, -0.3805037, -374512.72, -26814.57, 0.0, 10.000157, 9.998933 
9.6510273e+2, 2.7451575e+2, -302030.63, -391090.5, -48941.95, -0.03734656, -0.37821966, -280392.38, -30684.72, 0.0, 10.00012, 9.998938 
9.651139e+2, 2.8451446e+2, -215223.22, -308821.84, -38100.395, -0.032252736, -0.3940793, -201675.08, -49956.848, 0.0, 10.000087, 9.998845 
9.6512526e+2, 2.9451293e+2, -120677.59, -211699.38, -37368.633, -0.027136799, -0.4338341, -107301.68, -53571.684, 0.0, 10.00006, 9.998853 
9.651368e+2, 3.0451152e+2, -42357.617, -92575.66, -9480.3955, -0.034917317, -0.4867109, -40627.473, -40627.473, 0.0, 10.00002, 9.999354 
9.651486e+2, 3.1451073e+2, -48915.83, -93130.81, -10011.01, -0.059598237, -0.4984686, -46754.793, -46754.793, 0.0, 9.999964, 9.999377 
9.749246e+2, 1.2451202e+2, -1654317.8, -1715088.8, 1156.095, -0.010348129, -0.21465835, -1654295.8, 65465.258, 0.0, 10.000543, 9.999738 
9.7493726e+2, 1.3451174e+2, -1554867.5, -1621014.5, -1496.6289, 0.002162423, -0.21150804, -1554833.6, 66929.375, 0.0, 10.000573, 9.999696 
9.749497e+2, 1.4451127e+2, -1454256.3, -1520713.8, 3327.969, -0.0077206925, -0.2285346, -1454090.0, 69677.02, 0.0, 10.0005865, 9.999704 
9.749623e+2, 1.5451086e+2, -1356077.9, -1421616.3, 4660.2075, -0.017959852, -0.23943412, -1355748.1, 70021.82, 0.0, 10.000584, 9.999713 
9.749748e+2, 1.6451044e+2, -1248175.8, -1302540.9, 3110.7944, -0.026322143, -0.25762108, -1247998.3, 79774.08, 0.0, 10.000582, 9.999859 
9.749874e+2, 1.7451005e+2, -1149002.6, -1202171.9, 5109.127, -0.032359973, -0.28504968, -1148516.1, 81257.68, 0.0, 10.000582, 9.999875 
9.749998e+2, 1.8450965e+2, -1057953.9, -1115094.1, -5390.381, -0.040888432, -0.30754027, -1057449.8, 74325.91, 0.0, 10.0005665, 9.999807 
9.750119e+2, 1.9450928e+2, -964387.56, -1018622.25, -4454.252, -0.052351855, -0.32493922, -964024.1, 69753.55, 0.0, 10.000534, 9.999813 
9.750239e+2, 2.045089e+2, -880954.06, -939647.06, -22270.41, -0.056226894, -0.33796906, -873460.5, 62319.555, 0.0, 10.000485, 9.999705 
9.750358e+2, 2.1450852e+2, -792432.1, -845778.0, -22229.58, -0.050723594, -0.34655413, -784383.3, 53399.273, 0.0, 10.000419, 9.99971 
9.750473e+2, 2.24508e+2, -719480.5, -787391.2, -38938.547, -0.04972602, -0.356772, -701771.75, 38014.758, 0.0, 10.000364, 9.999463 
9.7505856e+2, 2.3450732e+2, -627257.75, -692530.9, -39284.367, -0.054216858, -0.3696564, -608821.75, 32970.063, 0.0, 10.000326, 9.99946 
9.750697e+2, 2.4450654e+2, -563529.75, -654024.0, -49332.58, -0.053906433, -0.37545994, -541836.56, 1962.4706, 0.0, 10.000277, 9.999076 
9.750807e+2, 2.545056e+2, -475791.53, -562031.44, -49084.125, -0.04779262, -0.37356725, -453577.1, -7768.8237, 0.0, 10.000211, 9.999066 
9.750918e+2, 2.6450458e+2, -396101.6, -489840.75, -49243.855, -0.043406002, -0.37463206, -374987.97, -27169.785, 0.0, 10.000157, 9.998915 
9.751028e+2, 2.7450344e+2, -303402.53, -394084.72, -50198.125, -0.041210566, -0.3796435, -281099.94, -31271.387, 0.0, 10.00012, 9.998918 
9.751139e+2, 2.8450215e+2, -214207.33, -306869.34, -38935.973, -0.037478026, -0.3972264, -200019.16, -48179.87, 0.0, 10.000088, 9.998859 
9.7512525e+2, 2.9450068e+2, -119583.95, -209551.75, -38157.297, -0.031658012, -0.43207416, -105580.305, -51730.02, 0.0, 10.00006, 9.998867 
9.751368e+2, 3.0449927e+2, -40483.754, -88791.7, -11313.903, -0.03637417, -0.4845486, -37965.293, -37965.293, 0.0, 10.00002, 9.99938 
9.751486e+2, 3.1449845e+2, -47153.273, -89504.96, -11818.913, -0.05522519, -0.5030769, -44078.28, -44078.28, 0.0, 9.999964, 9.999402 
9.849252e+2, 1.2449949e+2, -1636196.3, -1710443.3, 8071.516, -0.0074090776, -0.22269145, -1635328.9, 84554.41, 0.0, 10.000686, 9.999701 
9.8493785e+2, 1.344992e+2, -1536406.4, -1616380.5, 4810.325, 0.0014422426, -0.21604903, -1536118.0, 85767.49, 0.0, 10.000718, 9.999658 
9.849503e+2, 1.4449872e+2, -1433936.9, -1510779.3, 7443.434, -0.011250588, -0.23160654, -1433222.5, 90667.21, 0.0, 10.000726, 9.999705 
9.849629e+2, 1.5449832e+2, -1338487.4, -1412728.1, 8173.463, -0.020817861, -0.24241886, -1337598.3, 88294.445, 0.0, 10.000703, 9.999717 
9.849754e+2, 1.6449796e+2, -1234060.1, -1292023.6, 5379.9834, -0.028529912, -0.25868705, -1233565.0, 94329.81, 0.0, 10.000663, 9.999892 
9.849879e+2, 1.7449762e+2, -1143510.6, -1195608.8, 6635.6577, -0.033886384, -0.28204587, -1142678.8, 87216.99, 0.0, 10.000603, 9.99991 
9.850003e+2, 1.8449728e+2, -1057758.5, -1110726.8, -4429.745, -0.04155253, -0.30259684, -1057390.6, 74506.51, 0.0, 10.00055, 9.9998455 
9.850125e+2, 1.9449694e+2, -965791.9, -1015035.06, -3257.337, -0.051974203, -0.3206509, -965577.3, 68321.53, 0.0, 10.000506, 9.999851 
9.850244e+2, 2.044966e+2, -880038.2, -935085.5, -20562.172, -0.056010928, -0.33380213, -873205.56, 62695.375, 0.0, 10.000474, 9.9997425 
9.850362e+2, 2.1449627e+2, -784247.06, -837778.0, -19633.47, -0.05211076, -0.3417844, -777818.2, 60084.883, 0.0, 10.000457, 9.999745 
9.850477e+2, 2.2449578e+2, -710674.3, -780187.94, -35998.266, -0.051422957, -0.35188797, -695392.0, 44514.66, 0.0, 10.000413, 9.99949 
9.8505884e+2, 2.3449513e+2, -624432.44, -688311.75, -35616.37, -0.054640457, -0.36530644, -608532.06, 33379.727, 0.0, 10.000334, 9.999486 
9.8506993e+2, 2.4449435e+2, -565751.2, -653364.0, -46036.254, -0.053583406, -0.37091145, -546009.7, -2090.9128, 0.0, 10.000254, 9.999091 
9.8508096e+2, 2.5449347e+2, -480472.7, -562686.9, -46562.563, -0.047357913, -0.36786008, -459468.06, -13540.386, 0.0, 10.000172, 9.999081 
9.850919e+2, 2.6449242e+2, -401846.47, -493336.97, -44957.883, -0.043373253, -0.3698927, -383452.5, -35514.926, 0.0, 10.000122, 9.998908 
9.8510283e+2, 2.7449125e+2, -305445.63, -395973.13, -45078.695, -0.04222319, -0.37849712, -286827.47, -36879.15, 0.0, 10.000111, 9.998909 
9.8511404e+2, 2.8448993e+2, -213784.9, -306605.1, -34079.914, -0.039448384, -0.3968774, -202616.03, -50656.867, 0.0, 10.000091, 9.998859 
9.851253e+2, 2.944885e+2, -119661.89, -209499.47, -34508.992, -0.034450397, -0.42918685, -107936.45, -53966.54, 0.0, 10.00006, 9.998868 
9.8513687e+2, 3.0448708e+2, -40410.676, -87483.74, -9913.071, -0.038703203, -0.4804177, -38408.27, -38408.27, 0.0, 10.000015, 9.999392 
9.8514855e+2, 3.1448627e+2, -47842.137, -88612.27, -11601.26, -0.055604354, -0.50100654, -44772.137, -44772.137, 0.0, 9.999954, 9.999413 
9.94926e+2, 1.2448702e+2, -1639189.5, -1716891.0, 9322.0625, -0.0032601627, -0.23379727, -1638086.8, 81918.01, 0.0, 10.000686, 9.999657 
9.949386e+2, 1.3448669e+2, -1539495.5, -1623090.6, 5970.5566, 0.0002495306, -0.22703496, -1539071.3, 82936.46, 0.0, 10.000719, 9.999612 
9.94951e+2, 1.4448619e+2, -1434279.3, -1511764.6, 6495.591, -0.016761942, -0.24116233, -1433738.5, 90273.65, 0.0, 10.000727, 9.999699 
9.949635e+2, 1.5448584e+2, -1338622.3, -1413292.3, 7184.122, -0.026685087, -0.2479186, -1337937.3, 88077.516, 0.0, 10.000704, 9.999713 
9.94976e+2, 1.6448551e+2, -1232286.6, -1288665.3, 3043.2297, -0.03261822, -0.2593308, -1232122.9, 95893.8, 0.0, 10.000664, 9.999915 
9.949885e+2, 1.7448528e+2, -1141581.0, -1191931.8, 4238.734, -0.033541605, -0.27693355, -1141226.6, 88790.35, 0.0, 10.000604, 9.999935 
9.9500084e+2, 1.8448499e+2, -1054739.4, -1104765.4, -6258.0527, -0.038621612, -0.29502675, -1053968.4, 78049.664, 0.0, 10.000551, 9.9998865 
9.9501294e+2, 1.9448468e+2, -962727.75, -1008947.4, -5057.395, -0.048726857, -0.31466696, -962180.8, 71838.81, 0.0, 10.000506, 9.999892 
9.950249e+2, 2.0448437e+2, -876537.25, -928043.06, -21317.768, -0.055212803, -0.32866254, -868858.75, 67162.6, 0.0, 10.000475, 9.99979 
9.9503654e+2, 2.1448408e+2, -780750.8, -830694.0, -20356.346, -0.057115346, -0.3364871, -773505.0, 64517.97, 0.0, 10.000458, 9.999794 
9.9504805e+2, 2.2448362e+2, -708054.75, -774910.5, -38853.883, -0.057726704, -0.34753615, -690227.9, 49798.316, 0.0, 10.000413, 9.999526 
9.950592e+2, 2.3448299e+2, -621868.44, -683147.44, -38610.34, -0.056752965, -0.36329505, -603217.6, 38813.477, 0.0, 10.000335, 9.999521 
9.950702e+2, 2.4448223e+2, -565191.56, -652379.4, -49071.723, -0.053343527, -0.36955068, -543146.56, 891.24457, 0.0, 10.000255, 9.999098 
9.950811e+2, 2.5448138e+2, -480049.3, -562011.44, -49609.492, -0.047005463, -0.36503813, -456683.28, -10636.668, 0.0, 10.000173, 9.999084 
9.9509203e+2, 2.6448035e+2, -401661.1, -493129.5, -45418.008, -0.04255194, -0.36625925, -382940.56, -34884.188, 0.0, 10.000122, 9.998909 
9.9510294e+2, 2.7447915e+2, -305329.28, -395819.47, -45401.43, -0.04053579, -0.374905, -286477.53, -36410.445, 0.0, 10.000111, 9.99891 
9.951141e+2, 2.8447783e+2, -214764.3, -308746.16, -35040.71, -0.038346354, -0.39319175, -203137.83, -51059.844, 0.0, 10.000091, 9.998844 
9.951253e+2, 2.944764e+2, -120601.2, -211707.22, -35495.477, -0.035645988, -0.42524523, -108404.7, -54315.707, 0.0, 10.00006, 9.998853 
9.951368e+2, 3.0447498e+2, -40447.563, -88103.305, -11928.267, -0.041918777, -0.4744667, -37628.652, -37628.652, 0.0, 10.000017, 9.999386 
9.951485e+2, 3.144742e+2, -47630.53, -89095.51, -13621.176, -0.06058911, -0.4928789, -43556.32, -43556.32, 0.0, 9.999958, 9.999408 
1.0049268e+3, 1.2447464e+2, -1621178.8, -1712543.8, 13384.204, 0.002316264, -0.23900916, -1619258.4, 100867.125, 0.0, 10.000829, 9.999618 
1.0049393e+3, 1.344743e+2, -1527812.4, -1622035.8, 10292.937, 0.00089600205, -0.2303827, -1526701.1, 95427.76, 0.0, 10.000819, 9.99957 
1.00495175e+3, 1.4447378e+2, -1423783.4, -1507132.5, 9625.044, -0.019835358, -0.24403287, -1422686.3, 101447.36, 0.0, 10.000801, 9.999695 
1.00496426e+3, 1.5447341e+2, -1329097.1, -1408878.4, 10464.354, -0.029078247, -0.25128874, -1327747.4, 98389.03, 0.0, 10.00077, 9.999711 
1.0049767e+3, 1.6447312e+2, -1225354.0, -1285326.8, 3797.1177, -0.034398817, -0.26017395, -1225114.5, 103023.58, 0.0, 10.000711, 9.999914 
1.00498915e+3, 1.7447293e+2, -1139257.1, -1190724.5, 3050.4624, -0.034759097, -0.27153975, -1139076.9, 91061.375, 0.0, 10.00062, 9.999935 
1.00500144e+3, 1.844727e+2, -1053228.1, -1099510.4, -7576.8135, -0.039044105, -0.28736347, -1052019.3, 80119.81, 0.0, 10.000542, 9.999927 
1.0050135e+3, 1.944724e+2, -963269.56, -1004376.0, -6287.4023, -0.048086558, -0.3096409, -962329.4, 71811.06, 0.0, 10.000483, 9.999935 
1.00502536e+3, 2.0447214e+2, -879159.8, -923403.5, -21519.283, -0.05429245, -0.32461953, -870419.75, 65721.984, 0.0, 10.000431, 9.999843 
1.005037e+3, 2.144719e+2, -786644.56, -827585.94, -20246.656, -0.056848858, -0.3313387, -778323.3, 59819.473, 0.0, 10.000392, 9.999847 
1.0050484e+3, 2.2447151e+2, -714597.25, -772217.3, -39522.79, -0.057344608, -0.34245023, -694498.5, 45646.95, 0.0, 10.000343, 9.9995775 
1.0050595e+3, 2.344709e+2, -625613.44, -679150.4, -38291.094, -0.05533151, -0.3597191, -605661.94, 36487.957, 0.0, 10.000284, 9.999573 
1.0050704e+3, 2.4447016e+2, -568790.9, -653632.94, -48234.836, -0.05214984, -0.36712894, -546976.9, -2820.4993, 0.0, 10.000228, 9.999102 
1.0050813e+3, 2.5446928e+2, -479527.28, -561626.56, -49167.76, -0.04757734, -0.363302, -456525.8, -10360.669, 0.0, 10.000176, 9.999085 
1.0050922e+3, 2.6446825e+2, -401421.38, -494313.72, -44194.902, -0.043884125, -0.36446843, -383754.88, -35579.914, 0.0, 10.000131, 9.998897 
1.0051031e+3, 2.7446708e+2, -309015.28, -398970.47, -45270.61, -0.04141037, -0.37218505, -290177.44, -39991.727, 0.0, 10.000092, 9.998898 
1.0051142e+3, 2.8446576e+2, -216229.97, -309905.03, -34310.305, -0.039996874, -0.39043275, -205007.61, -52810.89, 0.0, 10.000083, 9.99884 
1.00512534e+3, 2.9446426e+2, -113588.875, -208668.97, -34031.832, -0.039573856, -0.42357916, -102663.37, -48455.473, 0.0, 10.000111, 9.998849 
1.0051368e+3, 3.0446288e+2, -22797.625, -81164.69, -10635.798, -0.047687512, -0.4723169, -20919.947, -20919.947, 0.0, 10.000146, 9.999372 
1.0051485e+3, 3.1446207e+2, -15026.618, -75057.914, -13139.592, -0.06770257, -0.49007308, -12276.613, -12276.613, 0.0, 10.000189, 9.9993925 
1.0149277e+3, 1.2446238e+2, -1623499.0, -1717617.3, 13072.23, 0.009305903, -0.23825656, -1621717.1, 98528.49, 0.0, 10.00083, 9.999582 
1.0149402e+3, 1.3446203e+2, -1530285.5, -1627417.1, 9815.836, 0.0033970391, -0.22592095, -1529303.5, 92945.66, 0.0, 10.00082, 9.999533 
1.0149525e+3, 1.4446148e+2, -1423806.4, -1507388.8, 8351.748, -0.020458251, -0.24008618, -1422980.0, 101274.09, 0.0, 10.000801, 9.999693 
1.014965e+3, 1.5446107e+2, -1328945.9, -1408816.3, 9184.316, -0.027975217, -0.25249445, -1327903.4, 98353.984, 0.0, 10.000771, 9.999711 
1.0149774e+3, 1.6446076e+2, -1226846.3, -1288739.1, 324.34283, -0.033851624, -0.26122746, -1226844.5, 101414.74, 0.0, 10.000712, 9.999891 
1.0149898e+3, 1.7446063e+2, -1140821.9, -1194307.6, -538.50024, -0.03754105, -0.2658738, -1140816.5, 89442.89, 0.0, 10.000621, 9.99991 
1.0150019e+3, 1.8446042e+2, -1050256.8, -1093649.6, -10025.61, -0.04282712, -0.27960756, -1048052.4, 84207.67, 0.0, 10.000543, 9.999967 
1.0150139e+3, 1.9446012e+2, -960078.5, -998027.9, -8631.48, -0.050047975, -0.30556297, -958207.5, 76053.66, 0.0, 10.0004835, 9.999979 
1.01502575e+3, 2.044599e+2, -875112.1, -915222.5, -23147.752, -0.053277534, -0.32166156, -864540.06, 71721.984, 0.0, 10.000432, 9.999899 
1.01503745e+3, 2.1445975e+2, -782612.3, -819369.94, -21803.5, -0.051420465, -0.32633796, -772474.94, 65787.48, 0.0, 10.000392, 9.999904 
1.01504885e+3, 2.2445941e+2, -709955.5, -762700.2, -41770.527, -0.050403424, -0.33664483, -686928.7, 53335.695, 0.0, 10.000343, 9.999643 
1.0150598e+3, 2.3445888e+2, -620970.2, -669644.8, -40570.24, -0.05044881, -0.3546145, -597997.3, 44270.793, 0.0, 10.000284, 9.999638 
1.0150707e+3, 2.4445814e+2, -568718.3, -653649.2, -50234.957, -0.050024487, -0.36366552, -545404.9, -1130.5374, 0.0, 10.000229, 9.999102 
1.0150814e+3, 2.5445724e+2, -479755.38, -562303.3, -51126.063, -0.049050342, -0.36260948, -455322.28, -9038.945, 0.0, 10.000176, 9.999081 
1.0150922e+3, 2.6445618e+2, -403178.44, -498222.44, -45617.965, -0.04731439, -0.36445594, -384826.78, -36533.434, 0.0, 10.000131, 9.99887 
1.01510316e+3, 2.7445498e+2, -310838.34, -403075.2, -46643.074, -0.04477586, -0.37030673, -291363.44, -41059.16, 0.0, 10.0000925, 9.998869 
1.0151142e+3, 2.8445363e+2, -215825.89, -309384.16, -33250.887, -0.044322018, -0.38855702, -205212.44, -52897.016, 0.0, 10.000084, 9.998843 
1.01512544e+3, 2.9445216e+2, -113105.82, -207896.63, -32824.473, -0.04615539, -0.4240662, -102849.08, -48522.387, 0.0, 10.000112, 9.998854 
1.0151369e+3, 3.0445075e+2, -24386.297, -84681.07, -8798.971, -0.055952, -0.47375587, -23128.48, -23128.48, 0.0, 10.000147, 9.999348 
1.0151485e+3, 3.144499e+2, -16762.326, -78898.07, -11184.269, -0.07698388, -0.49242932, -14810.499, -14810.499, 0.0, 10.00019, 9.999367 
1.0249286e+3, 1.24450125e+2, -1600486.0, -1711619.5, 12077.201, 0.015002379, -0.23517057, -1599188.8, 121177.02, 0.0, 10.00101, 9.9995365 
1.02494106e+3, 1.3444974e+2, -1514366.9, -1625164.1, 7705.8413, 0.0036330353, -0.22249423, -1513833.5, 108536.3, 0.0, 10.000953, 9.999484 
1.0249533e+3, 1.4444917e+2, -1409580.5, -1499046.6, 5708.5786, -0.023472864, -0.23656997, -1409217.8, 115157.4, 0.0, 10.000893, 9.999706 
1.0249658e+3, 1.5444878e+2, -1319572.5, -1402439.0, 7708.668, -0.028197302, -0.24910675, -1318861.5, 107516.57, 0.0, 10.000827, 9.999728 
1.02497816e+3, 1.6444847e+2, -1221072.8, -1287123.1, -1334.4341, -0.033476155, -0.25787795, -1221045.8, 107334.16, 0.0, 10.000757, 9.999881 
1.0249904e+3, 1.7444831e+2, -1132681.9, -1191721.3, -1321.4662, -0.03929656, -0.2624457, -1132652.3, 97728.086, 0.0, 10.000683, 9.999899 
1.02500245e+3, 1.8444812e+2, -1040431.94, -1085355.6, -10550.907, -0.044698127, -0.27612978, -1038077.3, 94303.695, 0.0, 10.000595, 9.999998 
1.0250144e+3, 1.9444786e+2, -956261.8, -992334.2, -9870.325, -0.049565356, -0.30208638, -953737.7, 80644.055, 0.0, 10.000493, 10.000013 
1.0250262e+3, 2.0444767e+2, -877771.0, -912588.8, -24935.646, -0.051352847, -0.31799555, -864768.5, 71613.74, 0.0, 10.000398, 9.999934 
1.02503784e+3, 2.1444757e+2, -792141.94, -820063.75, -25227.24, -0.04918813, -0.32224894, -777270.25, 61112.06, 0.0, 10.00031, 9.999938 
1.0250491e+3, 2.2444728e+2, -720218.6, -762641.4, -46027.83, -0.048344538, -0.33151472, -690749.8, 49634.016, 0.0, 10.000252, 9.999687 
1.02506004e+3, 2.344468e+2, -625832.44, -666962.0, -46423.94, -0.049135223, -0.34766358, -595622.25, 46764.67, 0.0, 10.00023, 9.999682 
1.0250709e+3, 2.444461e+2, -569949.94, -651945.2, -56020.305, -0.049697507, -0.35774732, -541527.94, 2864.8423, 0.0, 10.000211, 9.999122 
1.0250816e+3, 2.5444517e+2, -475782.88, -558295.44, -55310.313, -0.050005984, -0.3612287, -448036.9, -1635.0272, 0.0, 10.0001955, 9.999099 
1.0250924e+3, 2.6444408e+2, -396461.8, -496402.16, -48122.656, -0.050014745, -0.36530903, -377057.56, -28645.611, 0.0, 10.000184, 9.998857 
1.0251032e+3, 2.744429e+2, -299772.53, -399381.5, -48245.625, -0.04980102, -0.37056375, -280236.38, -29813.348, 0.0, 10.000176, 9.998854 
1.0251143e+3, 2.8444156e+2, -202579.78, -301560.94, -32935.46, -0.050534707, -0.38876632, -192622.39, -40188.21, 0.0, 10.00017, 9.998856 
1.02512546e+3, 2.9444006e+2, -104650.62, -202199.19, -31884.479, -0.05215182, -0.42497027, -95153.55, -40708.24, 0.0, 10.000163, 9.998868 
1.0251369e+3, 3.0443865e+2, -19898.309, -82445.84, -5670.7627, -0.060649175, -0.47488078, -19388.336, -19388.336, 0.0, 10.000177, 9.999348 
1.0251488e+3, 3.144378e+2, -12978.769, -77184.1, -6211.97, -0.07905357, -0.49459448, -12383.273, -12383.273, 0.0, 10.0002165, 9.999365 
1.0349297e+3, 1.2443791e+2, -1604432.4, -1720152.1, 10024.627, 0.019360106, -0.2297373, -1603570.4, 116915.57, 0.0, 10.001011, 9.999477 
1.03494205e+3, 1.3443743e+2, -1518524.8, -1634113.9, 5400.9326, 0.0015260704, -0.220117, -1518273.0, 104218.055, 0.0, 10.000954, 9.999423 
1.0349541e+3, 1.4443685e+2, -1407549.8, -1495084.5, 3069.8884, -0.028953241, -0.23351638, -1407442.1, 117054.24, 0.0, 10.000894, 9.999733 
1.03496656e+3, 1.5443653e+2, -1317151.5, -1397677.3, 5095.0654, -0.029783163, -0.2410895, -1316830.5, 109667.97, 0.0, 10.000828, 9.999761 
1.03497885e+3, 1.6443625e+2, -1220768.8, -1286815.1, -4258.041, -0.033294823, -0.25007355, -1220495.4, 108004.8, 0.0, 10.000758, 9.999882 
1.034991e+3, 1.7443602e+2, -1132503.9, -1191699.8, -4258.4805, -0.04004088, -0.2612494, -1132199.1, 98302.11, 0.0, 10.000684, 9.999898 
1.0350031e+3, 1.844358e+2, -1038638.0, -1081945.3, -14465.449, -0.044673365, -0.2769458, -1034250.7, 98251.25, 0.0, 10.000596, 10.000021 
1.0350149e+3, 1.9443563e+2, -954406.25, -988765.2, -13823.906, -0.046667837, -0.29922876, -949535.0, 84967.03, 0.0, 10.000494, 10.000037 
1.0350266e+3, 2.0443545e+2, -876715.5, -910660.06, -28314.838, -0.04852456, -0.3136348, -860675.8, 75826.375, 0.0, 10.000398, 9.999947 
1.0350381e+3, 2.1443535e+2, -791148.2, -818267.1, -28570.342, -0.050092448, -0.31905848, -773082.94, 65419.43, 0.0, 10.000311, 9.99995 
1.0350493e+3, 2.244351e+2, -718508.44, -759344.0, -47024.656, -0.051077474, -0.32705894, -687660.2, 52843.508, 0.0, 10.000253, 9.99971 
1.0350603e+3, 2.3443468e+2, -624160.7, -663720.06, -47300.285, -0.051313907, -0.33892593, -592671.0, 49835.293, 0.0, 10.000231, 9.999704 
1.0350712e+3, 2.4443401e+2, -567110.56, -646247.44, -56616.652, -0.051132523, -0.34944063, -537605.8, 6905.9614, 0.0, 10.000212, 9.999161 
1.0350818e+3, 2.5443304e+2, -473014.5, -552683.3, -55909.746, -0.050476205, -0.35917762, -444199.94, 2320.8164, 0.0, 10.0001955, 9.999138 
1.03509255e+3, 2.6443198e+2, -396509.4, -496570.7, -48402.383, -0.052018397, -0.3669898, -376927.88, -28397.05, 0.0, 10.000184, 9.998856 
1.0351033e+3, 2.7443075e+2, -300097.13, -400041.47, -48486.156, -0.05644248, -0.37285176, -280440.8, -29898.846, 0.0, 10.000175, 9.998849 
1.0351144e+3, 2.844294e+2, -201242.31, -298757.8, -33114.49, -0.0586051, -0.39095256, -191060.38, -38507.324, 0.0, 10.000169, 9.998876 
1.0351256e+3, 2.9442796e+2, -103197.08, -199237.36, -32031.217, -0.057649083, -0.42625728, -93494.32, -38930.477, 0.0, 10.000163, 9.998889 
1.0351372e+3, 3.0442658e+2, -18268.979, -79244.32, -4156.045, -0.062045585, -0.4756868, -17987.008, -17987.008, 0.0, 10.000178, 9.99937 
1.035149e+3, 3.144257e+2, -11359.351, -74121.25, -4521.67, -0.07448252, -0.4969123, -11035.261, -11035.261, 0.0, 10.000217, 9.999386 
1.0449308e+3, 1.24425754e+2, -1576351.3, -1711731.9, 12906.02, 0.02258887, -0.2251253, -1575131.9, 145473.53, 0.0, 10.001225, 9.999432 
1.04494296e+3, 1.344252e+2, -1498731.9, -1629951.4, 8934.687, 0.0017148431, -0.21856737, -1498126.4, 124485.03, 0.0, 10.001114, 9.999374 
1.0449551e+3, 1.4442457e+2, -1393049.5, -1490073.6, 5331.068, -0.03086994, -0.23170279, -1392757.4, 131859.69, 0.0, 10.001001, 9.999715 
1.0449674e+3, 1.5442428e+2, -1309056.1, -1395474.0, 3669.3484, -0.029161094, -0.23552932, -1308900.6, 117718.35, 0.0, 10.000891, 9.999744 
1.0449796e+3, 1.64424e+2, -1215271.3, -1282229.8, -6987.387, -0.030949326, -0.24372296, -1214549.9, 114070.7, 0.0, 10.000788, 9.999899 
1.0449917e+3, 1.7442377e+2, -1129507.5, -1188020.9, -5552.567, -0.03701689, -0.25781673, -1128985.3, 101636.414, 0.0, 10.000695, 9.999918 
1.0450037e+3, 1.8442357e+2, -1038398.94, -1081956.4, -16465.182, -0.040919933, -0.27408433, -1032875.4, 99747.01, 0.0, 10.000599, 10.00002 
1.0450155e+3, 1.944234e+2, -953812.0, -988727.06, -17925.318, -0.042124268, -0.29404202, -946247.9, 88374.4, 0.0, 10.000499, 10.000035 
1.0450271e+3, 2.0442325e+2, -874018.1, -908672.4, -32892.44, -0.04534492, -0.30799338, -854168.06, 82454.37, 0.0, 10.000414, 9.999952 
1.0450385e+3, 2.1442312e+2, -785540.3, -814850.6, -33641.29, -0.05097524, -0.31523845, -763500.6, 75122.055, 0.0, 10.000347, 9.999956 
1.0450496e+3, 2.2442287e+2, -712116.7, -755725.44, -51211.53, -0.053788632, -0.32347357, -678260.94, 62363.113, 0.0, 10.000295, 9.999715 
1.0450605e+3, 2.3442248e+2, -619350.56, -660926.94, -52853.273, -0.05302895, -0.33362705, -583344.25, 59282.25, 0.0, 10.000261, 9.999708 
1.04507126e+3, 2.4442182e+2, -562829.56, -641084.94, -63249.055, -0.052146807, -0.34368083, -527583.75, 17048.02, 0.0, 10.000228, 9.999188 
1.0450819e+3, 2.5442088e+2, -471606.16, -548835.6, -63437.664, -0.05117707, -0.35448375, -435954.9, 10685.486, 0.0, 10.000192, 9.999166 
1.04509264e+3, 2.644198e+2, -398839.13, -495849.34, -55517.24, -0.052845217, -0.36399773, -373622.4, -24972.098, 0.0, 10.00016, 9.998872 
1.0451034e+3, 2.744186e+2, -305332.88, -400855.47, -54282.574, -0.057946444, -0.37238166, -280791.06, -30129.586, 0.0, 10.000133, 9.998864 
1.0451145e+3, 2.8441727e+2, -205143.11, -297670.53, -37024.2, -0.06166945, -0.3914808, -192152.1, -39479.68, 0.0, 10.00013, 9.998901 
1.0451257e+3, 2.9441583e+2, -102308.59, -195773.78, -35526.965, -0.06340092, -0.42593873, -90337.69, -35654.78, 0.0, 10.000156, 9.998916 
1.0451372e+3, 3.0441448e+2, -13721.731, -74205.61, -5993.4697, -0.06937797, -0.47365484, -13133.546, -13133.546, 0.0, 10.000197, 9.999394 
1.0451492e+3, 3.144137e+2, -4192.0015, -67942.14, -6078.304, -0.08200143, -0.49356598, -3617.6357, -3617.6357, 0.0, 10.000256, 9.99941 
1.054932e+3, 1.2441366e+2, -1578556.8, -1716728.0, 8882.631, 0.024571247, -0.22148943, -1577988.1, 142736.14, 0.0, 10.001227, 9.999396 
1.0549441e+3, 1.3441302e+2, -1501091.5, -1635234.4, 4552.078, 0.004223384, -0.2178558, -1500937.3, 121793.46, 0.0, 10.001115, 9.999337 
1.054956e+3, 1.4441237e+2, -1397416.1, -1499442.9, 987.5538, -0.029177161, -0.2311436, -1397406.5, 127330.484, 0.0, 10.001002, 9.99965 
1.0549684e+3, 1.5441203e+2, -1313497.5, -1404999.3, -642.9442, -0.026318308, -0.23244804, -1313493.0, 113246.44, 0.0, 10.000892, 9.99968 
1.05498046e+3, 1.6441175e+2, -1212843.1, -1277529.9, -10662.087, -0.02644351, -0.23885162, -1211131.0, 117610.18, 0.0, 10.000789, 9.999931 
1.05499245e+3, 1.7441158e+2, -1126631.8, -1182413.4, -9175.451, -0.030233348, -0.25216275, -1125161.3, 105580.414, 0.0, 10.000696, 9.999956 
1.0550043e+3, 1.8441138e+2, -1040015.7, -1085639.8, -20282.938, -0.03345252, -0.26756173, -1032302.56, 100439.67, 0.0, 10.0006, 9.999994 
1.055016e+3, 1.9441119e+2, -955738.94, -993025.7, -21757.775, -0.03594912, -0.2865552, -945729.6, 89012.875, 0.0, 10.0005, 10.000005 
1.0550275e+3, 2.0441101e+2, -874034.44, -908966.5, -35529.035, -0.041824695, -0.3011022, -851910.44, 84832.49, 0.0, 10.000415, 9.99995 
1.0550387e+3, 2.1441087e+2, -785475.44, -814933.9, -36224.73, -0.051844314, -0.3108161, -761099.94, 77643.33, 0.0, 10.000347, 9.999956 
1.0550498e+3, 2.244106e+2, -713025.75, -757780.06, -52516.086, -0.056489244, -0.32075152, -678318.06, 62426.67, 0.0, 10.000295, 9.999701 
1.0550608e+3, 2.3441017e+2, -620361.3, -663148.2, -54095.094, -0.05429972, -0.3316876, -583582.94, 59164.598, 0.0, 10.000262, 9.999693 
1.0550715e+3, 2.4440953e+2, -561721.94, -638905.7, -64546.727, -0.052756853, -0.3404184, -525110.0, 19642.771, 0.0, 10.000228, 9.999203 
1.05508216e+3, 2.5440866e+2, -470395.8, -546488.2, -64770.78, -0.05210841, -0.3472457, -433323.66, 13437.19, 0.0, 10.000192, 9.999182 
1.0550927e+3, 2.644076e+2, -396533.0, -491251.9, -56535.41, -0.05256591, -0.3564829, -370141.72, -21371.328, 0.0, 10.00016, 9.998903 
1.0551036e+3, 2.7440637e+2, -303039.72, -396237.1, -55281.926, -0.054556463, -0.36923942, -277336.75, -26555.223, 0.0, 10.000133, 9.998896 
1.05511464e+3, 2.8440505e+2, -202931.28, -293166.53, -36099.734, -0.059965767, -0.39039642, -190266.64, -37474.31, 0.0, 10.00013, 9.998933 
1.05512574e+3, 2.9440364e+2, -100122.414, -191278.8, -34479.84, -0.06941965, -0.42405286, -88549.66, -33747.1, 0.0, 10.000156, 9.998946 
1.0551374e+3, 3.0440238e+2, -11866.454, -70375.57, -3783.3533, -0.08236922, -0.46890265, -11622.827, -11622.827, 0.0, 10.000197, 9.999421 
1.05514914e+3, 3.1440166e+2, -2468.9526, -64325.434, -3704.7007, -0.10099397, -0.48504162, -2247.8613, -2247.8613, 0.0, 10.000255, 9.999435 
1.0649333e+3, 1.24401644e+2, -1560444.1, -1713495.4, 9395.176, 0.027669301, -0.21621752, -1559869.5, 160973.0, 0.0, 10.001376, 9.999347 
1.0649453e+3, 1.3440096e+2, -1484679.8, -1633096.8, 3492.8872, 0.0065251603, -0.21177341, -1484597.6, 138251.83, 0.0, 10.001253, 9.999286 
1.06495716e+3, 1.4440025e+2, -1382224.8, -1496681.9, 10.870271, -0.02863769, -0.22573788, -1382224.8, 142631.5, 0.0, 10.001127, 9.999609 
1.0649694e+3, 1.5439984e+2, -1300684.5, -1403293.6, 260.23325, -0.025036858, -0.2307359, -1300683.8, 126175.63, 0.0, 10.000999, 9.999639 
1.0649813e+3, 1.6439953e+2, -1202278.4, -1275084.0, -10445.032, -0.02357341, -0.2365789, -1200809.5, 128051.89, 0.0, 10.000874, 9.9999075 
1.0649933e+3, 1.7439939e+2, -1120520.5, -1181969.8, -13595.268, -0.024738513, -0.24395785, -1117647.0, 113214.7, 0.0, 10.00075, 9.999933 
1.065005e+3, 1.8439919e+2, -1036971.1, -1087355.0, -27018.111, -0.02665788, -0.2573654, -1025222.4, 107639.93, 0.0, 10.000634, 9.999966 
1.0650166e+3, 1.9439894e+2, -952971.25, -994887.7, -28484.059, -0.029522719, -0.27941716, -938565.8, 96297.41, 0.0, 10.000533, 9.999976 
1.06502794e+3, 2.0439872e+2, -871287.8, -908045.9, -41583.234, -0.037135813, -0.29555464, -844203.06, 92660.85, 0.0, 10.000436, 9.999947 
1.06503904e+3, 2.143986e+2, -786318.5, -815567.06, -42419.47, -0.050635666, -0.30490246, -756073.2, 82791.0, 0.0, 10.000342, 9.999953 
1.06505014e+3, 2.243983e+2, -716538.5, -759453.06, -56852.133, -0.05658504, -0.31489918, -677229.2, 63636.535, 0.0, 10.000271, 9.999701 
1.065061e+3, 2.3439789e+2, -625603.56, -665669.06, -57303.004, -0.052906945, -0.32648852, -584932.56, 57936.02, 0.0, 10.000226, 9.999693 
1.06507175e+3, 2.4439725e+2, -565917.1, -642012.1, -67193.88, -0.051522825, -0.33515033, -526746.56, 18127.32, 0.0, 10.000204, 9.999193 
1.06508225e+3, 2.5439635e+2, -468615.03, -546853.1, -69466.41, -0.053135403, -0.34098205, -428010.3, 18871.727, 0.0, 10.00021, 9.99917 
1.065093e+3, 2.643953e+2, -389634.53, -485036.28, -63225.688, -0.05531871, -0.3502345, -358134.0, -9242.51, 0.0, 10.0001955, 9.998929 
1.0651038e+3, 2.7439407e+2, -297864.03, -390601.7, -62385.758, -0.05834693, -0.36429211, -266502.25, -15599.877, 0.0, 10.000155, 9.998924 
1.0651146e+3, 2.843928e+2, -199376.67, -288057.03, -41480.453, -0.06494635, -0.38595963, -182998.81, -30085.92, 0.0, 10.00014, 9.998962 
1.06512584e+3, 2.9439145e+2, -98055.43, -186834.95, -39846.656, -0.07581234, -0.4191596, -82794.484, -27871.604, 0.0, 10.000155, 9.998977 
1.06513746e+3, 3.0439022e+2, -11891.292, -65985.61, -7963.656, -0.091390125, -0.4616771, -10743.263, -10743.263, 0.0, 10.000178, 9.99946 
1.0651493e+3, 3.1438956e+2, -6484.1875, -61922.656, -6901.1196, -0.11413458, -0.47470102, -5638.0337, -5638.0337, 0.0, 10.000209, 9.999474 
1.0749348e+3, 1.243897e+2, -1564936.0, -1723118.3, 5004.005, 0.031868, -0.2093437, -1564777.9, 156182.27, 0.0, 10.001376, 9.999281 
1.0749467e+3, 1.3438901e+2, -1489320.6, -1643099.3, -1326.6084, 0.008600479, -0.20018011, -1489309.3, 133658.19, 0.0, 10.001254, 9.999216 
1.0749582e+3, 1.4438823e+2, -1383383.4, -1499443.5, -4980.5825, -0.029286155, -0.21535574, -1383170.1, 141804.63, 0.0, 10.001128, 9.99959 
1.0749704e+3, 1.543877e+2, -1301605.1, -1405580.4, -4681.888, -0.025347427, -0.23037371, -1301394.8, 125583.95, 0.0, 10.001001, 9.999622 
1.0749822e+3, 1.6438735e+2, -1207758.0, -1286852.1, -15257.57, -0.02236379, -0.23693371, -1204916.9, 124064.44, 0.0, 10.0008745, 9.9998255 
1.074994e+3, 1.7438722e+2, -1126303.4, -1194364.9, -18368.672, -0.020549644, -0.23321861, -1121662.4, 109319.234, 0.0, 10.000751, 9.999847 
1.07500575e+3, 1.84387e+2, -1039045.8, -1092021.4, -30966.94, -0.020550502, -0.24349836, -1024783.7, 108199.03, 0.0, 10.000636, 9.999933 
1.0750172e+3, 1.9438665e+2, -954862.7, -999145.5, -32337.557, -0.022864541, -0.2726218, -937812.8, 97171.63, 0.0, 10.000534, 9.999947 
1.0750285e+3, 2.043864e+2, -871541.1, -908859.56, -45116.44, -0.03130623, -0.29135892, -841377.6, 95607.875, 0.0, 10.000437, 9.999941 
1.0750394e+3, 2.1438627e+2, -786540.25, -816286.6, -45910.258, -0.04739252, -0.29754966, -753154.1, 85831.45, 0.0, 10.000343, 9.9999485 
1.0750504e+3, 2.2438602e+2, -715510.4, -757541.9, -58639.746, -0.054134194, -0.30600002, -674234.2, 66752.66, 0.0, 10.000272, 9.999713 
1.07506126e+3, 2.3438561e+2, -624551.25, -663699.6, -58973.824, -0.048920028, -0.31812635, -581988.0, 61001.62, 0.0, 10.000227, 9.999706 
1.075072e+3, 2.4438493e+2, -568273.7, -647085.9, -67024.836, -0.048496958, -0.32793325, -529929.1, 15066.026, 0.0, 10.000204, 9.999158 
1.0750825e+3, 2.5438398e+2, -471287.25, -552519.5, -69162.18, -0.054260306, -0.33565155, -431696.9, 15307.081, 0.0, 10.00021, 9.999132 
1.07509315e+3, 2.6438293e+2, -388242.8, -482246.4, -64547.96, -0.060996752, -0.3452072, -355397.22, -6383.5894, 0.0, 10.0001955, 9.998948 
1.0751037e+3, 2.7438176e+2, -296217.22, -387273.03, -63829.008, -0.06903643, -0.35760915, -263342.75, -12318.772, 0.0, 10.000155, 9.998947 
1.0751146e+3, 2.843805e+2, -197431.67, -283994.6, -40914.438, -0.07636615, -0.37829491, -181154.13, -28119.979, 0.0, 10.000139, 9.998991 
1.075126e+3, 2.9437914e+2, -96235.305, -182769.1, -39144.223, -0.08262377, -0.4113603, -81155.87, -26111.955, 0.0, 10.000154, 9.999006 
1.07513756e+3, 3.0437803e+2, -8829.649, -59041.582, -6689.927, -0.09670304, -0.45206198, -7953.6094, -7953.6094, 0.0, 10.000175, 9.99951 
1.0751494e+3, 3.143774e+2, -3675.09, -55082.863, -5489.9175, -0.12184984, -0.46265167, -3095.3508, -3095.3508, 0.0, 10.000204, 9.999523 
1.08493626e+3, 1.243778e+2, -1540484.5, -1717869.0, 1745.0541, 0.030833403, -0.1988685, -1540467.4, 180610.11, 0.0, 10.001574, 9.999222 
1.084948e+3, 1.34377e+2, -1465538.1, -1638480.0, -4499.4565, 0.008405875, -0.1937777, -1465421.1, 157664.63, 0.0, 10.001448, 9.999155 
1.0849595e+3, 1.4437617e+2, -1358995.6, -1490570.8, -8722.796, -0.030199291, -0.20950839, -1358419.9, 166673.61, 0.0, 10.001308, 9.999563 
1.0849713e+3, 1.5437564e+2, -1280714.9, -1398162.5, -9130.902, -0.025204955, -0.22248928, -1280009.3, 147088.16, 0.0, 10.001157, 9.9995985 
1.0849831e+3, 1.6437525e+2, -1192240.9, -1287358.1, -19255.39, -0.021389976, -0.22841431, -1188490.6, 140609.7, 0.0, 10.001016, 9.999754 
1.0849949e+3, 1.7437504e+2, -1110959.1, -1195322.9, -21621.729, -0.01905531, -0.22590525, -1105740.5, 125361.305, 0.0, 10.000893, 9.999773 
1.0850064e+3, 1.8437475e+2, -1023392.25, -1087699.3, -33801.926, -0.018273719, -0.23733185, -1008893.6, 124209.8, 0.0, 10.000757, 9.999904 
1.08501785e+3, 1.9437435e+2, -945757.8, -997642.94, -34989.137, -0.019480174, -0.26752877, -928142.9, 106962.54, 0.0, 10.000609, 9.999921 
1.08502895e+3, 2.0437409e+2, -866955.7, -909446.06, -47475.867, -0.027703717, -0.2862146, -836188.25, 100918.47, 0.0, 10.000481, 9.999915 
1.0850398e+3, 2.1437396e+2, -783789.94, -817741.94, -49777.016, -0.044734184, -0.2909257, -748173.8, 90933.23, 0.0, 10.000375, 9.999923 
1.0850506e+3, 2.243737e+2, -711797.2, -756058.8, -61870.29, -0.052694723, -0.29711762, -668218.75, 72889.64, 0.0, 10.0002985, 9.99971 
1.0850615e+3, 2.3437332e+2, -619759.0, -661548.56, -63237.344, -0.04901888, -0.30597287, -574053.8, 69057.1, 0.0, 10.00026, 9.999704 
1.08507216e+3, 2.4437267e+2, -564451.9, -645825.94, -69575.875, -0.049594045, -0.3154378, -524539.7, 20576.78, 0.0, 10.000233, 9.999153 
1.08508274e+3, 2.5437167e+2, -470402.56, -552789.9, -69291.55, -0.05566754, -0.32657, -430984.56, 16141.113, 0.0, 10.000219, 9.9991255 
1.08509324e+3, 2.6437062e+2, -387855.4, -481737.06, -65165.82, -0.0633407, -0.33749068, -354484.2, -5348.741, 0.0, 10.000197, 9.998951 
1.0851039e+3, 2.7436942e+2, -294733.84, -386211.22, -66023.79, -0.0731048, -0.34864506, -260153.38, -9007.737, 0.0, 10.000164, 9.99895 
1.0851148e+3, 2.843682e+2, -198614.52, -281012.9, -43467.887, -0.08093318, -0.36880866, -179923.55, -26767.96, 0.0, 10.000116, 9.9990225 
1.08512595e+3, 2.943669e+2, -109210.42, -185283.22, -41384.273, -0.08617593, -0.4022952, -91038.05, -35872.934, 0.0, 10.000049, 9.99904 
1.0851376e+3, 3.0436578e+2, -32947.805, -63487.3, -8205.045, -0.10102925, -0.44203672, -30882.965, -30882.965, 0.0, 9.999979, 9.999574 
1.0851494e+3, 3.1436527e+2, -42546.793, -66543.22, -5908.7275, -0.12919398, -0.45112526, -41170.77, -41170.77, 0.0, 9.999907, 9.999588 
1.0949378e+3, 1.24365956e+2, -1544065.0, -1725672.8, -2778.7075, 0.02437251, -0.18470028, -1544022.5, 177171.97, 0.0, 10.0015745, 9.999167 
1.0949493e+3, 1.3436498e+2, -1469192.5, -1646527.3, -9471.428, 0.0058644153, -0.19262867, -1468688.1, 154516.2, 0.0, 10.001449, 9.999099 
1.0949607e+3, 1.443641e+2, -1361225.9, -1495642.8, -14629.329, -0.031399857, -0.20829654, -1359652.1, 165560.34, 0.0, 10.00131, 9.999528 
1.0949726e+3, 1.5436368e+2, -1282843.0, -1403017.6, -15042.692, -0.024623927, -0.20702818, -1280988.8, 146226.83, 0.0, 10.001158, 9.999565 
1.0949843e+3, 1.6436325e+2, -1196484.9, -1296601.1, -24116.574, -0.020664074, -0.21091473, -1190978.4, 138240.31, 0.0, 10.001018, 9.99969 
1.0949957e+3, 1.7436284e+2, -1115365.5, -1204896.3, -26368.29, -0.02026979, -0.22198151, -1108176.8, 123045.17, 0.0, 10.000894, 9.999706 
1.09500706e+3, 1.8436246e+2, -1025065.06, -1091555.0, -39380.41, -0.019839017, -0.23887323, -1006773.2, 126451.32, 0.0, 10.000759, 9.999877 
1.09501846e+3, 1.9436209e+2, -947259.25, -1001130.5, -40580.047, -0.019363822, -0.26415536, -925488.94, 109737.21, 0.0, 10.000611, 9.999896 
1.0950294e+3, 2.043618e+2, -869920.0, -915924.7, -51544.4, -0.026321033, -0.28013766, -836478.25, 100749.336, 0.0, 10.000482, 9.99987 
1.0950403e+3, 2.1436164e+2, -786911.7, -824488.6, -53713.24, -0.042669762, -0.2850231, -748795.7, 90432.9, 0.0, 10.000376, 9.999876 
1.095051e+3, 2.2436137e+2, -713014.94, -758769.7, -63403.31, -0.052246403, -0.28827292, -668487.9, 72742.37, 0.0, 10.000299, 9.999692 
1.09506175e+3, 2.3436104e+2, -620928.06, -664104.4, -64596.402, -0.053098872, -0.29014248, -574407.9, 68824.63, 0.0, 10.00026, 9.999687 
1.0950724e+3, 2.443604e+2, -562846.56, -642554.4, -70051.02, -0.054715503, -0.29781634, -522105.94, 23131.963, 0.0, 10.000233, 9.999176 
1.0950829e+3, 2.543594e+2, -468757.28, -549343.75, -69718.42, -0.057373054, -0.31385824, -428525.97, 18721.186, 0.0, 10.000218, 9.999149 
1.0950935e+3, 2.6435828e+2, -388903.66, -483792.75, -66232.305, -0.06250261, -0.32718137, -354876.13, -5619.113, 0.0, 10.000196, 9.998938 
1.095104e+3, 2.743571e+2, -296093.88, -388785.34, -67101.97, -0.07086075, -0.33748057, -260888.39, -9621.035, 0.0, 10.000162, 9.998933 
1.0951149e+3, 2.843559e+2, -196501.17, -276281.03, -45737.43, -0.07897687, -0.35756034, -175702.39, -22425.115, 0.0, 10.000114, 9.999056 
1.095126e+3, 2.9435462e+2, -106928.984, -180127.31, -43684.13, -0.08665032, -0.3920041, -86538.66, -31252.117, 0.0, 10.000047, 9.999076 
1.09513745e+3, 3.0435356e+2, -28019.27, -52674.41, -10701.539, -0.10444501, -0.43160024, -24022.26, -24022.26, 0.0, 9.999976, 9.999649 
1.0951493e+3, 3.1435314e+2, -37753.047, -55619.42, -8280.14, -0.13624056, -0.44037607, -34505.816, -34505.816, 0.0, 9.999902, 9.999665 
1.10493936e+3, 1.24354094e+2, -1516727.6, -1714518.5, -7028.9854, 0.017938666, -0.1725268, -1516478.1, 204833.53, 0.0, 10.001771, 9.999149 
1.1049509e+3, 1.3435301e+2, -1447827.3, -1638231.3, -11445.062, 0.0044491948, -0.1888482, -1447141.8, 176180.28, 0.0, 10.001605, 9.999081 
1.10496216e+3, 1.443521e+2, -1348572.1, -1497495.1, -17124.84, -0.03104026, -0.20493689, -1346628.3, 178702.33, 0.0, 10.001431, 9.999456 
1.1049738e+3, 1.5435167e+2, -1274129.5, -1407126.6, -20761.852, -0.023133257, -0.1965209, -1270963.8, 156370.25, 0.0, 10.001254, 9.99949 
1.10498525e+3, 1.643512e+2, -1186111.0, -1293371.8, -28561.102, -0.018772379, -0.19938633, -1178980.0, 150357.75, 0.0, 10.001097, 9.999674 
1.1049967e+3, 1.7435071e+2, -1105466.0, -1201450.6, -26735.125, -0.01889216, -0.21730146, -1098521.8, 132819.72, 0.0, 10.000968, 9.999694 
1.1050079e+3, 1.8435027e+2, -1016612.3, -1091186.5, -38534.082, -0.018726382, -0.23668703, -1000278.5, 133065.89, 0.0, 10.0008335, 9.999844 
1.1050191e+3, 1.9434991e+2, -937956.25, -1000552.7, -40656.72, -0.018210955, -0.25889146, -917946.1, 117399.98, 0.0, 10.000692, 9.999861 
1.1050299e+3, 2.0434959e+2, -863110.75, -917283.75, -51358.617, -0.024531554, -0.27310592, -832133.6, 105214.22, 0.0, 10.000548, 9.999829 
1.1050407e+3, 2.1434937e+2, -786081.3, -828824.2, -53267.81, -0.03951075, -0.27790198, -750057.6, 89291.74, 0.0, 10.000402, 9.999834 
1.1050513e+3, 2.2434911e+2, -715563.06, -763608.5, -60437.797, -0.048769988, -0.2795105, -674548.75, 66802.7, 0.0, 10.000298, 9.99966 
1.105062e+3, 2.3434877e+2, -625273.06, -669835.6, -62626.523, -0.050626215, -0.2777154, -581082.25, 62271.62, 0.0, 10.000247, 9.999655 
1.10507265e+3, 2.4434814e+2, -566937.3, -643443.5, -68564.07, -0.053444967, -0.2828226, -526677.1, 18682.127, 0.0, 10.0002, 9.999186 
1.10508315e+3, 2.5434715e+2, -476631.78, -551839.6, -69232.88, -0.05757762, -0.29773515, -435449.63, 11918.643, 0.0, 10.000159, 9.999161 
1.10509366e+3, 2.6434606e+2, -400895.56, -487845.8, -66090.41, -0.063474976, -0.31215543, -365263.0, -15884.965, 0.0, 10.000107, 9.998953 
1.1051041e+3, 2.743449e+2, -313062.53, -395280.88, -64743.19, -0.071683735, -0.3264212, -277479.8, -26091.285, 0.0, 10.000039, 9.998948 
1.1051149e+3, 2.8434366e+2, -214360.38, -279776.22, -42452.977, -0.08103186, -0.34791115, -193476.67, -40078.367, 0.0, 9.9999695, 9.999102 
1.105126e+3, 2.9434246e+2, -125242.02, -183641.16, -39727.406, -0.09171724, -0.38050047, -105137.62, -49730.65, 0.0, 9.999898, 9.999124 
1.1051373e+3, 3.043415e+2, -49474.313, -53822.66, -7852.654, -0.11163493, -0.41877574, -43500.406, -43500.406, 0.0, 9.999789, 9.999731 
1.10514894e+3, 3.1434113e+2, -70911.62, -62233.184, -5115.64, -0.14445847, -0.42801872, -59864.3, -59864.3, 0.0, 9.999634, 9.999748 
1.114941e+3, 1.2434223e+2, -1515354.1, -1712105.8, -13053.745, 0.011439167, -0.16258334, -1514491.9, 206937.1, 0.0, 10.001773, 9.999166 
1.1149525e+3, 1.3434112e+2, -1446326.1, -1635582.0, -17969.205, 0.0041629295, -0.18237898, -1444635.1, 178803.83, 0.0, 10.001606, 9.999098 
1.1149635e+3, 1.4434016e+2, -1356039.8, -1513412.0, -24029.258, -0.029104384, -0.19935715, -1352452.5, 172995.4, 0.0, 10.001433, 9.999347 
1.114975e+3, 1.5433961e+2, -1282168.4, -1424238.6, -27633.865, -0.020735327, -0.19097869, -1276982.6, 150470.33, 0.0, 10.001255, 9.999372 
1.1149863e+3, 1.643391e+2, -1183775.4, -1288953.4, -33674.71, -0.015727647, -0.19387326, -1173917.8, 155539.53, 0.0, 10.001099, 9.999703 
1.1149977e+3, 1.7433865e+2, -1102353.5, -1195438.5, -31673.307, -0.014940694, -0.21187858, -1092598.5, 138861.72, 0.0, 10.00097, 9.999735 
1.1150088e+3, 1.8433821e+2, -1019301.56, -1097160.4, -43867.94, -0.014955886, -0.23077331, -999580.3, 133882.63, 0.0, 10.000834, 9.999802 
1.1150198e+3, 1.9433782e+2, -941060.44, -1007355.75, -45998.29, -0.016037568, -0.2517434, -917510.56, 117954.65, 0.0, 10.000693, 9.999813 
1.1150305e+3, 2.0433748e+2, -865734.0, -923058.4, -56829.203, -0.022353368, -0.2651304, -830748.06, 106719.31, 0.0, 10.000549, 9.999789 
1.11504115e+3, 2.1433721e+2, -788676.3, -834537.3, -58741.793, -0.035288375, -0.2695865, -748548.06, 90921.32, 0.0, 10.000403, 9.999794 
1.11505166e+3, 2.2433689e+2, -718733.94, -770437.25, -62479.965, -0.042349834, -0.27082154, -676968.6, 64503.316, 0.0, 10.0002985, 9.999612 
1.1150622e+3, 2.3433653e+2, -628594.94, -676824.2, -64416.31, -0.04178226, -0.2685947, -583927.5, 59547.61, 0.0, 10.000247, 9.999607 
1.1150729e+3, 2.443359e+2, -567323.94, -644190.44, -69962.875, -0.045957766, -0.27039957, -525932.94, 19547.703, 0.0, 10.0002, 9.999181 
1.11508325e+3, 2.54335e+2, -476910.4, -552258.7, -70606.26, -0.056322552, -0.2783303, -434555.9, 12933.149, 0.0, 10.000158, 9.999159 
1.1150936e+3, 2.6433393e+2, -398060.97, -481736.8, -68352.8, -0.06619751, -0.2925655, -359758.28, -10259.718, 0.0, 10.000105, 9.998996 
1.1151041e+3, 2.7433267e+2, -310085.16, -388814.25, -67052.47, -0.075456545, -0.31544676, -271696.25, -20186.99, 0.0, 10.000037, 9.998994 
1.1151148e+3, 2.8433147e+2, -210760.7, -271888.88, -44884.06, -0.08693387, -0.33980292, -187022.45, -33503.73, 0.0, 9.999968, 9.999157 
1.1151257e+3, 2.943304e+2, -121724.79, -175662.56, -42149.066, -0.10118233, -0.36785486, -98655.04, -43128.516, 0.0, 9.999895, 9.99918 
1.115137e+3, 3.0432948e+2, -44028.08, -41607.313, -13257.276, -0.12243787, -0.40369, -29505.28, -29505.28, 0.0, 9.999785, 9.999818 
1.11514844e+3, 3.1432924e+2, -65578.555, -49924.72, -10614.702, -0.15381405, -0.41443357, -44563.29, -44563.29, 0.0, 9.999628, 9.999836 
1.1249429e+3, 1.24330394e+2, -1491711.4, -1701260.6, -13120.781, 0.0027069226, -0.15672655, -1490893.0, 230652.8, 0.0, 10.001938, 9.99916 
1.1249541e+3, 1.343293e+2, -1424429.8, -1625475.5, -20271.748, 0.00076848763, -0.17453207, -1422406.1, 201149.23, 0.0, 10.001759, 9.999094 
1.1249651e+3, 1.443283e+2, -1340100.8, -1512431.4, -26040.582, -0.030149229, -0.19203201, -1336251.8, 189312.75, 0.0, 10.001572, 9.999287 
1.12497635e+3, 1.5432762e+2, -1268932.6, -1424964.5, -25677.07, -0.020009656, -0.19001618, -1264815.8, 162755.2, 0.0, 10.001377, 9.999308 
1.1249875e+3, 1.6432706e+2, -1172169.1, -1285669.5, -30336.389, -0.014137349, -0.19353409, -1164569.8, 165006.05, 0.0, 10.001188, 9.999682 
1.1249986e+3, 1.7432666e+2, -1097968.1, -1195258.4, -32713.318, -0.013634819, -0.2047281, -1087991.5, 143586.88, 0.0, 10.001008, 9.999717 
1.12500966e+3, 1.8432623e+2, -1018172.06, -1098068.5, -45720.227, -0.013727122, -0.22084959, -997406.2, 136174.81, 0.0, 10.000849, 9.999788 
1.1250205e+3, 1.943258e+2, -938519.25, -1007535.4, -45336.773, -0.014628677, -0.24437451, -916051.6, 119532.01, 0.0, 10.000717, 9.999801 
1.1250311e+3, 2.0432542e+2, -861951.9, -924926.0, -54440.28, -0.021071484, -0.25817236, -830548.7, 107037.42, 0.0, 10.000591, 9.999756 
1.1250415e+3, 2.1432516e+2, -780744.06, -834575.4, -56064.664, -0.034567688, -0.26013744, -745468.9, 94119.47, 0.0, 10.000475, 9.99976 
1.125052e+3, 2.2432482e+2, -714005.3, -772137.2, -57988.43, -0.041130003, -0.25971854, -678206.1, 63385.113, 0.0, 10.000348, 9.999577 
1.1250626e+3, 2.3432443e+2, -636631.25, -684753.5, -59033.938, -0.038653903, -0.25696886, -596943.3, 46651.51, 0.0, 10.00021, 9.99957 
1.125073e+3, 2.4432379e+2, -581370.75, -650937.0, -62499.0, -0.043085027, -0.25837347, -544627.7, 972.8499, 0.0, 10.000104, 9.999181 
1.12508334e+3, 2.543229e+2, -493990.22, -560287.9, -62852.723, -0.056537095, -0.2660528, -456080.53, -8471.586, 0.0, 10.00004, 9.999161 
1.1250938e+3, 2.643218e+2, -413976.56, -484407.38, -61005.863, -0.06843002, -0.28066295, -378751.63, -29133.385, 0.0, 9.999974, 9.999041 
1.125104e+3, 2.7432063e+2, -326009.7, -391184.6, -59681.168, -0.078305334, -0.30475354, -290598.75, -38970.246, 0.0, 9.999906, 9.999041 
1.1251146e+3, 2.843195e+2, -231386.98, -277469.7, -39334.75, -0.090541914, -0.32856768, -208841.88, -55204.355, 0.0, 9.999807, 9.999196 
1.1251255e+3, 2.9431844e+2, -151519.36, -185704.45, -38090.426, -0.1057453, -0.35381588, -126862.234, -71217.375, 0.0, 9.999672, 9.999218 
1.1251366e+3, 3.0431765e+2, -79749.664, -50773.484, -13219.406, -0.12787831, -0.38662213, -45648.89, -45648.89, 0.0, 9.999506, 9.999889 
1.1251479e+3, 3.1431746e+2, -108346.336, -62317.19, -11825.522, -0.16011254, -0.3952784, -59456.805, -59456.805, 0.0, 9.9993, 9.999908 
1.13494456e+3, 1.24318585e+2, -1493572.3, -1705541.9, -19541.748, -0.008415206, -0.15524267, -1491785.8, 229876.34, 0.0, 10.001939, 9.99913 
1.1349558e+3, 1.3431755e+2, -1426210.0, -1629658.8, -27248.295, -0.0058115902, -0.16530055, -1422623.9, 201047.28, 0.0, 10.0017605, 9.999064 
1.13496654e+3, 1.4431652e+2, -1340700.4, -1514127.4, -33559.984, -0.034231886, -0.18290965, -1334432.6, 191247.64, 0.0, 10.001574, 9.999274 
1.13497764e+3, 1.5431571e+2, -1269472.3, -1426539.9, -33164.785, -0.02098908, -0.19365202, -1262756.6, 164931.2, 0.0, 10.001379, 9.999296 
1.13498874e+3, 1.6431509e+2, -1177043.4, -1296246.3, -37276.55, -0.014016378, -0.19840968, -1166346.4, 163346.8, 0.0, 10.00119, 9.999609 
1.1349996e+3, 1.7431475e+2, -1103158.9, -1206501.3, -39560.434, -0.014985645, -0.1958635, -1089753.8, 141942.02, 0.0, 10.00101, 9.9996395 
1.1350105e+3, 1.8431434e+2, -1016991.94, -1096050.6, -50847.62, -0.015055757, -0.20690672, -992115.94, 141582.5, 0.0, 10.000851, 9.999802 
1.13502115e+3, 1.9431387e+2, -936923.4, -1004623.25, -50297.07, -0.014003581, -0.23675776, -910146.5, 125554.83, 0.0, 10.000718, 9.99982 
1.1350317e+3, 2.0431347e+2, -863670.25, -928817.3, -58859.03, -0.020684218, -0.2522137, -828972.56, 108731.45, 0.0, 10.000593, 9.999728 
1.135042e+3, 2.1431324e+2, -782813.6, -839113.75, -60409.137, -0.037300657, -0.24956766, -744317.7, 95388.59, 0.0, 10.000475, 9.999728 
1.1350524e+3, 2.243129e+2, -715706.4, -775841.0, -63065.34, -0.045017004, -0.24624121, -675907.56, 65801.73, 0.0, 10.000348, 9.999551 
1.1350627e+3, 2.3431247e+2, -638348.75, -688466.06, -64129.383, -0.04110451, -0.24289764, -594556.0, 49157.086, 0.0, 10.00021, 9.999545 
1.13507316e+3, 2.443118e+2, -581185.0, -650582.5, -64895.64, -0.04471232, -0.24670835, -542294.06, 3425.1309, 0.0, 10.000103, 9.999183 
1.13508336e+3, 2.5431082e+2, -493839.75, -559779.6, -65015.25, -0.0581982, -0.2606431, -453912.5, -6184.45, 0.0, 10.000039, 9.999165 
1.13509364e+3, 2.643098e+2, -411084.38, -477984.97, -63329.73, -0.07021132, -0.276189, -372913.6, -23176.45, 0.0, 9.999972, 9.999085 
1.13510385e+3, 2.7430868e+2, -323043.47, -384390.94, -62023.152, -0.08029207, -0.29436538, -284523.66, -32777.27, 0.0, 9.999903, 9.999089 
1.13511436e+3, 2.8430763e+2, -230397.58, -274617.66, -43985.344, -0.09199566, -0.31435105, -203277.9, -49523.098, 0.0, 9.999804, 9.999217 
1.1351251e+3, 2.943066e+2, -150748.75, -183175.14, -42856.344, -0.10568388, -0.3384504, -121141.27, -65379.156, 0.0, 9.999668, 9.999238 
1.135136e+3, 3.043059e+2, -76434.016, -42907.74, -20425.783, -0.12825675, -0.3676967, -33247.11, -33247.11, 0.0, 9.999501, 9.999946 
1.1351471e+3, 3.143058e+2, -104970.12, -54248.96, -19118.494, -0.16356654, -0.3708925, -47849.883, -47849.883, 0.0, 9.999294, 9.999967 
1.1449465e+3, 1.2430693e+2, -1474761.8, -1698966.9, -17622.8, -0.015423986, -0.14995836, -1473385.0, 248391.97, 0.0, 10.00208, 9.999107 
1.1449576e+3, 1.3430586e+2, -1408638.1, -1623573.1, -25323.727, -0.00980346, -0.15992062, -1405694.8, 218091.38, 0.0, 10.001892, 9.9990425 
1.1449681e+3, 1.4430483e+2, -1322473.9, -1506686.1, -31640.9, -0.037364088, -0.17749065, -1317190.6, 208604.72, 0.0, 10.001705, 9.999262 
1.14497915e+3, 1.5430397e+2, -1249834.9, -1418460.8, -31433.205, -0.022936124, -0.19115399, -1244166.0, 183637.03, 0.0, 10.00152, 9.999284 
1.14499e+3, 1.6430332e+2, -1159849.8, -1295277.8, -35012.996, -0.016371826, -0.1964696, -1151333.3, 178475.72, 0.0, 10.00134, 9.999543 
1.14500076e+3, 1.7430294e+2, -1085251.4, -1205649.4, -36733.44, -0.019797593, -0.19144414, -1074929.0, 156883.22, 0.0, 10.001167, 9.999569 
1.1450113e+3, 1.8430251e+2, -996712.8, -1085296.1, -47425.734, -0.020416463, -0.20045392, -976112.6, 157702.6, 0.0, 10.000986, 9.99981 
1.14502184e+3, 1.9430205e+2, -924804.25, -997152.25, -47305.047, -0.017420268, -0.22889444, -901427.2, 134390.53, 0.0, 10.000795, 9.999834 
1.1450322e+3, 2.0430169e+2, -861658.1, -930247.06, -55186.883, -0.02149255, -0.24311899, -830977.94, 106842.41, 0.0, 10.000617, 9.999706 
1.1450425e+3, 2.1430142e+2, -787292.06, -844000.56, -56263.547, -0.034670267, -0.23941407, -752641.94, 87180.984, 0.0, 10.000457, 9.999703 
1.1450526e+3, 2.2430107e+2, -722143.5, -781037.6, -58169.66, -0.042408224, -0.23515372, -686392.1, 55434.082, 0.0, 10.000314, 9.999532 
1.1450629e+3, 2.3430063e+2, -642042.0, -692310.3, -58766.375, -0.043067623, -0.23103304, -603260.5, 40569.727, 0.0, 10.000194, 9.999526 
1.1450731e+3, 2.4429996e+2, -585839.06, -649912.4, -57830.297, -0.048477367, -0.23550579, -551764.5, -5928.2056, 0.0, 10.000059, 9.999208 
1.1450832e+3, 2.5429899e+2, -511249.97, -564946.56, -56192.8, -0.060121372, -0.25201005, -475820.97, -27975.988, 0.0, 9.999906, 9.999193 
1.1450935e+3, 2.6429796e+2, -440297.03, -490094.63, -54219.086, -0.07050315, -0.26787126, -405532.94, -55679.117, 0.0, 9.9997635, 9.999103 
1.1451037e+3, 2.742969e+2, -360757.03, -400722.47, -55323.668, -0.07925106, -0.28343195, -321917.84, -70055.086, 0.0, 9.999636, 9.999105 
1.14511415e+3, 2.842959e+2, -271324.6, -289463.9, -39288.4, -0.0907261, -0.30214632, -240072.6, -86201.73, 0.0, 9.999502, 9.99926 
1.14512466e+3, 2.9429492e+2, -192432.27, -198185.47, -36507.6, -0.10561942, -0.32672182, -158688.11, -102810.27, 0.0, 9.99936, 9.999283 
1.1451354e+3, 3.0429426e+2, -116679.516, -57072.367, -15414.971, -0.12871304, -0.35513163, -53321.89, -53321.89, 0.0, 9.999203, 9.999991 
1.1451463e+3, 3.1429425e+2, -141137.83, -66545.59, -15208.874, -0.16371055, -0.35681915, -63563.8, -63563.8, 0.0, 9.999024, 10.000012 
1.1549486e+3, 1.2429542e+2, -1475760.1, -1701478.1, -24345.441, -0.018282995, -0.14079764, -1473164.3, 248726.17, 0.0, 10.002081, 9.999089 
1.1549595e+3, 1.3429427e+2, -1409451.5, -1625761.8, -32579.559, -0.011175155, -0.1584435, -1404651.0, 219249.23, 0.0, 10.001894, 9.999027 
1.15496986e+3, 1.4429322e+2, -1323264.3, -1508784.1, -38803.855, -0.039536595, -0.17586602, -1315475.0, 210434.61, 0.0, 10.001706, 9.999247 
1.1549806e+3, 1.542924e+2, -1250669.8, -1420670.3, -38515.906, -0.025868328, -0.18250474, -1242350.5, 185566.2, 0.0, 10.001522, 9.999268 
1.15499124e+3, 1.6429172e+2, -1163760.5, -1303885.9, -41678.58, -0.021227773, -0.18764287, -1152300.9, 177622.06, 0.0, 10.001342, 9.999483 
1.1550018e+3, 1.7429118e+2, -1089410.4, -1214769.6, -43301.76, -0.028079102, -0.1914225, -1075907.5, 156020.38, 0.0, 10.001168, 9.999506 
1.1550122e+3, 1.8429072e+2, -996282.1, -1084835.6, -54595.586, -0.029803477, -0.20147453, -970265.9, 163665.5, 0.0, 10.000987, 9.999813 
1.1550226e+3, 1.9429035e+2, -924025.1, -995938.8, -54480.098, -0.024854463, -0.22080019, -894705.8, 141227.08, 0.0, 10.000796, 9.999843 
1.1550328e+3, 2.0429002e+2, -862682.06, -932700.44, -61275.46, -0.023511384, -0.23090535, -827119.8, 110815.41, 0.0, 10.000618, 9.999689 
1.15504295e+3, 2.1428972e+2, -788543.1, -846811.44, -62228.08, -0.026797004, -0.2296448, -748966.75, 90971.61, 0.0, 10.000457, 9.999684 
1.1550531e+3, 2.2428936e+2, -723063.06, -783008.9, -62684.832, -0.033428818, -0.22639173, -683553.9, 58388.19, 0.0, 10.000314, 9.999518 
1.15506314e+3, 2.3428892e+2, -643043.5, -694300.0, -63137.336, -0.044546027, -0.22130968, -600531.2, 43415.05, 0.0, 10.000193, 9.999513 
1.1550731e+3, 2.4428825e+2, -582700.44, -643183.0, -63338.99, -0.05433682, -0.22476053, -542753.7, 3198.4097, 0.0, 10.000058, 9.999256 
1.1550831e+3, 2.5428733e+2, -507906.47, -557697.7, -61780.53, -0.062318657, -0.24027406, -466194.06, -18234.166, 0.0, 9.999905, 9.999244 
1.15509324e+3, 2.6428634e+2, -441301.06, -491798.53, -58863.418, -0.06938113, -0.25584364, -402499.8, -52531.348, 0.0, 9.999762, 9.999092 
1.1551034e+3, 2.742853e+2, -362180.44, -403247.03, -59830.996, -0.075327136, -0.271964, -319457.4, -67479.625, 0.0, 9.999634, 9.999089 
1.15511365e+3, 2.8428426e+2, -267299.16, -280584.63, -44239.76, -0.08686439, -0.29186165, -229206.2, -75220.35, 0.0, 9.999499, 9.999323 
1.155124e+3, 2.9428336e+2, -188152.84, -188597.64, -41435.66, -0.10556211, -0.3184643, -146938.98, -90946.8, 0.0, 9.999356, 9.999351 
1.1551345e+3, 3.0428272e+2, -114792.35, -52258.03, -21572.715, -0.12927571, -0.34859604, -45538.125, -45538.125, 0.0, 9.999198, 10.000027 
1.15514524e+3, 3.1428272e+2, -139716.45, -62360.28, -21320.734, -0.16082834, -0.35265988, -56873.133, -56873.133, 0.0, 9.999019, 10.000044 
1.16495065e+3, 1.2428401e+2, -1470053.1, -1699022.5, -20122.248, -0.019635597, -0.13411343, -1468298.3, 253704.53, 0.0, 10.002122, 9.999086 
1.16496146e+3, 1.3428281e+2, -1395245.6, -1618801.9, -27671.291, -0.012168176, -0.1563286, -1391871.5, 232141.45, 0.0, 10.001991, 9.999027 
1.1649716e+3, 1.4428176e+2, -1305272.5, -1503638.4, -34457.43, -0.042026356, -0.17322253, -1299457.5, 226564.75, 0.0, 10.001845, 9.999215 
1.1649822e+3, 1.5428095e+2, -1230002.9, -1414559.4, -35709.742, -0.029471822, -0.17628627, -1223334.4, 204695.1, 0.0, 10.00168, 9.999233 
1.1649925e+3, 1.6428022e+2, -1145161.6, -1297586.6, -39679.8, -0.025241451, -0.18091968, -1135450.8, 194585.22, 0.0, 10.001481, 9.999459 
1.16500296e+3, 1.7427963e+2, -1081050.3, -1213380.5, -38462.35, -0.031558674, -0.18820629, -1070683.1, 161358.36, 0.0, 10.001238, 9.999482 
1.1650132e+3, 1.8427916e+2, -992819.94, -1084119.1, -48067.46, -0.033123307, -0.19863977, -972179.5, 161865.77, 0.0, 10.001016, 9.999804 
1.1650233e+3, 1.9427882e+2, -920850.6, -995284.56, -49135.344, -0.028534401, -0.21425676, -896428.44, 139618.14, 0.0, 10.000822, 9.999834 
1.1650334e+3, 2.042785e+2, -864232.0, -934976.5, -56602.98, -0.025472214, -0.22254218, -832857.75, 105191.09, 0.0, 10.000614, 9.999676 
1.1650435e+3, 2.1427816e+2, -799753.06, -853902.0, -57314.34, -0.024317645, -0.22192658, -763440.1, 76612.164, 0.0, 10.000387, 9.999669 
1.1650533e+3, 2.2427778e+2, -742562.4, -793990.2, -55950.29, -0.029375771, -0.21841602, -706700.0, 35356.23, 0.0, 10.000187, 9.999504 
1.1650632e+3, 2.3427734e+2, -669361.1, -708683.06, -56509.758, -0.042715035, -0.21182433, -629189.75, 14870.799, 0.0, 10.00002, 9.999497 
1.16507314e+3, 2.4427672e+2, -610426.44, -654226.94, -58144.617, -0.053838518, -0.21343347, -570194.44, -24128.2, 0.0, 9.999858, 9.999276 
1.165083e+3, 2.5427586e+2, -535750.44, -568646.1, -58821.63, -0.061982416, -0.22677127, -491120.3, -43046.742, 0.0, 9.999702, 9.999266 
1.1650929e+3, 2.6427487e+2, -467672.2, -500776.5, -54494.523, -0.06948203, -0.24404205, -427271.5, -77189.57, 0.0, 9.999565, 9.9991255 
1.1651029e+3, 2.7427375e+2, -386707.72, -411383.25, -51918.188, -0.07623786, -0.26696554, -345681.47, -93590.03, 0.0, 9.99945, 9.999122 
1.165113e+3, 2.8427276e+2, -290267.06, -283915.25, -35636.816, -0.08811055, -0.28875014, -251313.11, -97213.984, 0.0, 9.999309, 9.999392 
1.1651233e+3, 2.9427198e+2, -215743.77, -193926.39, -32764.33, -0.10650862, -0.31068867, -170302.48, -114198.14, 0.0, 9.999133, 9.999421 
1.16513364e+3, 3.0427143e+2, -148418.72, -60565.434, -13371.292, -0.12737648, -0.3398245, -58575.4, -58575.4, 0.0, 9.998934, 10.000097 
1.16514415e+3, 3.1427145e+2, -181169.67, -74583.914, -10634.58, -0.15280293, -0.34888044, -73533.2, -73533.2, 0.0, 9.998701, 10.000113 
1.17495276e+3, 1.24272704e+2, -1469150.4, -1697457.4, -24799.414, -0.019546505, -0.13021614, -1466487.6, 255626.6, 0.0, 10.002123, 9.999097 
1.1749634e+3, 1.3427152e+2, -1393938.5, -1616548.0, -32742.121, -0.012797161, -0.15358907, -1389222.6, 234901.39, 0.0, 10.001992, 9.9990425 
1.1749734e+3, 1.4427043e+2, -1308502.9, -1510819.8, -40746.496, -0.04485182, -0.16954722, -1300604.9, 225528.44, 0.0, 10.001847, 9.999166 
1.17498375e+3, 1.5426959e+2, -1233563.1, -1422447.0, -42027.215, -0.033767544, -0.17250049, -1224634.1, 203507.2, 0.0, 10.001682, 9.999179 
1.174994e+3, 1.6426885e+2, -1144165.6, -1296045.1, -48747.695, -0.028436905, -0.17631224, -1129865.9, 200282.25, 0.0, 10.001483, 9.99947 
1.1750042e+3, 1.7426829e+2, -1079693.5, -1211073.5, -47681.64, -0.030270698, -0.18180564, -1064212.6, 167940.55, 0.0, 10.00124, 9.999497 
1.1750143e+3, 1.842678e+2, -994077.2, -1087173.5, -55494.105, -0.030416155, -0.19193986, -968193.8, 165963.08, 0.0, 10.001018, 9.999783 
1.1750241e+3, 1.9426744e+2, -922332.75, -998763.8, -56381.566, -0.028497018, -0.2092215, -892435.8, 143722.94, 0.0, 10.000824, 9.99981 
1.17503405e+3, 2.0426708e+2, -864881.6, -936692.7, -64991.42, -0.027364235, -0.21797192, -826536.94, 111624.38, 0.0, 10.000616, 9.999663 
1.1750438e+3, 2.1426675e+2, -800370.8, -855553.56, -65771.086, -0.027128078, -0.21622287, -756638.2, 83526.6, 0.0, 10.000389, 9.999657 
1.1750535e+3, 2.242664e+2, -743617.4, -796467.8, -62267.117, -0.030181365, -0.21121117, -702400.25, 39768.484, 0.0, 10.000188, 9.999487 
1.17506325e+3, 2.3426594e+2, -670613.94, -711385.9, -62646.766, -0.03769411, -0.20257252, -625119.6, 19053.586, 0.0, 10.00002, 9.999479 
1.175073e+3, 2.4426532e+2, -611013.1, -655352.5, -63819.86, -0.047166806, -0.20154546, -565621.94, -19443.01, 0.0, 9.999857, 9.999269 
1.1750828e+3, 2.5426447e+2, -536418.0, -569770.3, -64424.637, -0.05919678, -0.21156235, -486546.22, -38360.105, 0.0, 9.9997015, 9.999259 
1.1750925e+3, 2.6426348e+2, -462914.4, -490432.0, -58645.68, -0.07076481, -0.2324377, -416435.2, -66240.83, 0.0, 9.999562, 9.999197 
1.1751023e+3, 2.7426234e+2, -381715.66, -400310.7, -55906.41, -0.08179938, -0.26816222, -334338.94, -82135.06, 0.0, 9.999446, 9.999199 
1.1751123e+3, 2.842614e+2, -285700.0, -273539.63, -41710.426, -0.09428437, -0.29252583, -237468.55, -83257.67, 0.0, 9.999305, 9.999465 
1.1751223e+3, 2.9426077e+2, -211293.83, -183661.27, -38971.094, -0.10845812, -0.30340397, -156129.8, -99915.3, 0.0, 9.999128, 9.999494 
1.17513254e+3, 3.0426037e+2, -141995.2, -46224.246, -21560.932, -0.12318355, -0.32894382, -41594.082, -41594.082, 0.0, 9.998929, 10.000198 
1.17514305e+3, 3.142604e+2, -174553.23, -59987.695, -18944.172, -0.13999096, -0.3456871, -56936.414, -56936.414, 0.0, 9.998697, 10.000216 
1.18495494e+3, 1.2426158e+2, -1439486.1, -1684389.4, -14578.652, -0.024045521, -0.12714319, -1438621.4, 283602.25, 0.0, 10.002332, 9.999085 
1.18496545e+3, 1.3426039e+2, -1369401.0, -1605558.0, -24725.31, -0.01394322, -0.15040308, -1366840.0, 257393.31, 0.0, 10.002165, 9.999035 
1.18497536e+3, 1.442593e+2, -1291054.1, -1506047.0, -34369.47, -0.045148224, -0.16520679, -1285693.4, 240549.36, 0.0, 10.001983, 9.999132 
1.1849855e+3, 1.542584e+2, -1221739.1, -1420588.8, -34315.016, -0.03395067, -0.16946608, -1215984.1, 212267.17, 0.0, 10.0017805, 9.999144 
1.1849956e+3, 1.6425766e+2, -1134854.1, -1293357.9, -43507.793, -0.029220749, -0.17264815, -1123697.0, 206561.34, 0.0, 10.001555, 9.999454 
1.1850054e+3, 1.7425711e+2, -1071902.3, -1208926.5, -44918.74, -0.03261555, -0.1749052, -1058490.0, 173773.31, 0.0, 10.0013, 9.999483 
1.1850153e+3, 1.8425664e+2, -987602.94, -1083895.6, -51682.438, -0.033772316, -0.18404567, -965115.4, 169151.69, 0.0, 10.001061, 9.9997835 
1.18502505e+3, 1.9425625e+2, -919268.6, -996948.9, -50513.133, -0.032113135, -0.20333885, -894389.56, 141879.5, 0.0, 10.000843, 9.999813 
1.18503466e+3, 2.0425588e+2, -862974.25, -937899.2, -58420.67, -0.030985262, -0.21292865, -831036.4, 107235.42, 0.0, 10.000638, 9.999644 
1.1850442e+3, 2.1425554e+2, -793055.56, -854379.1, -59996.79, -0.030429449, -0.21039832, -756339.56, 83935.8, 0.0, 10.000449, 9.999636 
1.1850537e+3, 2.2425514e+2, -740444.4, -799053.0, -57976.82, -0.032583356, -0.20370634, -704786.75, 37492.805, 0.0, 10.000228, 9.99945 
1.1850632e+3, 2.342547e+2, -681938.2, -721149.94, -60000.41, -0.038472336, -0.19218159, -638421.6, 5862.6934, 0.0, 9.999961, 9.99944 
1.1850727e+3, 2.4425407e+2, -629958.3, -663129.44, -60075.293, -0.047056288, -0.19047135, -584221.1, -37930.953, 0.0, 9.999722, 9.999281 
1.1850823e+3, 2.542532e+2, -561895.25, -580287.6, -59025.703, -0.059166506, -0.20279999, -511353.63, -63056.277, 0.0, 9.999519, 9.999274 
1.1850919e+3, 2.6425225e+2, -490995.66, -494135.97, -50814.44, -0.07002197, -0.2267119, -441727.13, -91421.914, 0.0, 9.999328, 9.999285 
1.1851016e+3, 2.7425113e+2, -418283.2, -407529.0, -47005.063, -0.07928136, -0.2664479, -365594.47, -113280.64, 0.0, 9.999151, 9.999291 
1.1851115e+3, 2.842503e+2, -330393.53, -289283.13, -34156.664, -0.09035041, -0.29187176, -269973.63, -115653.51, 0.0, 9.998973, 9.9995165 
1.1851213e+3, 2.942497e+2, -256716.58, -200116.5, -33420.293, -0.1036155, -0.29983014, -184623.75, -128300.516, 0.0, 9.998794, 9.999542 
1.18513145e+3, 3.042494e+2, -181054.02, -57298.813, -18592.943, -0.11822254, -0.32184345, -54565.77, -54565.77, 0.0, 9.998628, 10.000267 
1.1851417e+3, 3.1424955e+2, -201600.28, -65166.414, -18426.322, -0.13596721, -0.33550367, -62721.62, -62721.62, 0.0, 9.998478, 10.000285 
1.1949573e+3, 1.24250665e+2, -1441718.1, -1689513.5, -20559.998, -0.033299606, -0.12503618, -1440023.8, 282307.28, 0.0, 10.002334, 9.99905 
1.19496755e+3, 1.3424945e+2, -1371435.9, -1610303.9, -31179.34, -0.015646191, -0.14677557, -1367433.1, 256907.7, 0.0, 10.002167, 9.9990015 
1.1949773e+3, 1.4424835e+2, -1291951.1, -1508406.3, -42041.37, -0.042910602, -0.16019145, -1284072.4, 242277.89, 0.0, 10.001985, 9.999115 
1.1949873e+3, 1.542474e+2, -1222550.4, -1422768.8, -42033.727, -0.030017607, -0.16718759, -1214083.9, 214275.36, 0.0, 10.001782, 9.999128 
1.19499706e+3, 1.6424665e+2, -1137575.1, -1299544.5, -53028.35, -0.027585635, -0.16993505, -1121758.4, 208608.36, 0.0, 10.001557, 9.99941 
1.19500674e+3, 1.7424609e+2, -1074784.3, -1215438.8, -54544.32, -0.038576063, -0.16751045, -1056111.5, 176260.55, 0.0, 10.001302, 9.999437 
1.1950162e+3, 1.8424562e+2, -985728.94, -1080485.8, -59969.98, -0.04316753, -0.17496185, -956680.2, 177695.6, 0.0, 10.001062, 9.999806 
1.19502574e+3, 1.9424523e+2, -917035.8, -992747.6, -58668.344, -0.03936106, -0.19661109, -885070.2, 151307.34, 0.0, 10.000845, 9.999841 
1.1950351e+3, 2.0424485e+2, -864657.25, -941732.75, -65532.813, -0.036323197, -0.20741758, -827170.6, 111209.65, 0.0, 10.000639, 9.999618 
1.1950446e+3, 2.1424448e+2, -795176.6, -859001.94, -66994.125, -0.034224793, -0.20445678, -752882.6, 87501.61, 0.0, 10.00045, 9.999604 
1.1950538e+3, 2.2424407e+2, -744418.25, -807433.7, -67663.22, -0.036542896, -0.1959129, -701286.5, 41102.23, 0.0, 10.000228, 9.9993925 
1.19506314e+3, 2.342436e+2, -686156.3, -729990.5, -69855.29, -0.04489978, -0.18068711, -634860.56, 9533.3955, 0.0, 9.999961, 9.999379 
1.1950725e+3, 2.4424295e+2, -627955.3, -658936.5, -67640.164, -0.05334073, -0.18017572, -574054.6, -27654.496, 0.0, 9.999722, 9.99931 
1.1950818e+3, 2.5424206e+2, -559568.8, -575215.2, -66362.02, -0.06183321, -0.20026492, -500570.47, -52163.043, 0.0, 9.999517, 9.99931 
1.1950913e+3, 2.6424113e+2, -484259.63, -479701.88, -57246.76, -0.067370705, -0.2266872, -424688.66, -74274.04, 0.0, 9.999326, 9.999385 
1.19510084e+3, 2.7424017e+2, -411312.6, -392432.13, -53355.258, -0.06904756, -0.26198462, -347688.4, -95266.875, 0.0, 9.999147, 9.999397 
1.19511046e+3, 2.8423938e+2, -328883.72, -285375.13, -40559.34, -0.07676303, -0.28697792, -261104.33, -106677.28, 0.0, 9.998969, 9.999545 
1.1951202e+3, 2.942388e+2, -255716.19, -197169.78, -39762.89, -0.09231637, -0.29976648, -177066.8, -120636.09, 0.0, 9.99879, 9.999564 
1.1951301e+3, 3.0423856e+2, -179077.25, -52231.04, -23819.996, -0.112532094, -0.31835043, -47905.473, -47905.473, 0.0, 9.998624, 10.000304 
1.1951401e+3, 3.1423885e+2, -199695.31, -60092.594, -23523.166, -0.1402902, -0.31873783, -56235.492, -56235.492, 0.0, 9.998473, 10.000322 
1.20495975e+3, 1.24239966e+2, -1417447.8, -1681433.1, -9997.291, -0.03238008, -0.12205002, -1417069.8, 305366.56, 0.0, 10.002517, 9.999017 
1.2049699e+3, 1.3423872e+2, -1349014.0, -1602776.4, -20884.217, -0.014684024, -0.14337991, -1347306.8, 277139.53, 0.0, 10.002336, 9.998972 
1.20497935e+3, 1.4423762e+2, -1271638.8, -1501349.4, -33273.867, -0.042857822, -0.15521723, -1266916.1, 259539.72, 0.0, 10.002136, 9.999091 
1.2049891e+3, 1.5423664e+2, -1205298.9, -1417197.0, -34167.438, -0.029841574, -0.16337894, -1199925.8, 228539.39, 0.0, 10.001913, 9.999104 
1.2049988e+3, 1.6423583e+2, -1122545.6, -1296939.8, -46812.863, -0.028211262, -0.16639656, -1110774.1, 219698.97, 0.0, 10.00168, 9.999368 
1.205008e+3, 1.7423525e+2, -1058199.5, -1212285.1, -48358.39, -0.0412555, -0.16304101, -1044280.0, 188198.77, 0.0, 10.001437, 9.999393 
1.2050172e+3, 1.8423477e+2, -969283.75, -1074130.4, -54858.473, -0.04736275, -0.16880882, -945827.8, 188655.0, 0.0, 10.001183, 9.999792 
1.2050266e+3, 1.942344e+2, -907859.4, -989669.44, -56626.426, -0.044349182, -0.1878023, -878909.0, 157575.44, 0.0, 10.000914, 9.999828 
1.20503575e+3, 2.0423402e+2, -864939.25, -944182.06, -64407.35, -0.03964156, -0.19711825, -828942.1, 109545.14, 0.0, 10.000648, 9.999597 
1.20504506e+3, 2.1423364e+2, -806289.75, -866878.8, -65236.254, -0.032584842, -0.19416016, -764657.06, 75834.4, 0.0, 10.000385, 9.999581 
1.2050541e+3, 2.2423318e+2, -761339.4, -818807.56, -65876.41, -0.03339536, -0.18632506, -718203.1, 24293.209, 0.0, 10.000126, 9.999363 
1.2050631e+3, 2.3423266e+2, -701431.1, -740708.4, -66048.65, -0.044915587, -0.17277145, -652163.3, -7661.31, 0.0, 9.999871, 9.99935 
1.2050722e+3, 2.44232e+2, -642571.3, -662895.44, -62017.21, -0.0542304, -0.17437431, -589889.1, -43380.805, 0.0, 9.999608, 9.999337 
1.2050813e+3, 2.542311e+2, -584095.8, -583434.2, -61055.45, -0.060503557, -0.19718134, -522708.66, -74193.28, 0.0, 9.999334, 9.999342 
1.2050904e+3, 2.6423022e+2, -514867.4, -487682.94, -52039.87, -0.06479476, -0.22392118, -447489.5, -96967.49, 0.0, 9.999086, 9.999445 
1.2050998e+3, 2.7422935e+2, -446855.4, -402522.44, -51245.71, -0.06655033, -0.2563846, -368854.56, -116326.61, 0.0, 9.998874, 9.999459 
1.20510936e+3, 2.842286e+2, -367174.44, -297170.3, -38550.094, -0.07398014, -0.28111407, -280102.66, -125569.84, 0.0, 9.998678, 9.999604 
1.2051189e+3, 2.9422808e+2, -293115.56, -208589.34, -35160.824, -0.08875725, -0.29701713, -195875.61, -139339.4, 0.0, 9.998505, 9.999622 
1.20512865e+3, 3.042279e+2, -218087.4, -67590.64, -17234.352, -0.10852503, -0.31521344, -65642.25, -65642.25, 0.0, 9.998342, 10.000334 
1.2051384e+3, 3.1422824e+2, -239248.16, -76079.41, -17725.596, -0.13623956, -0.31148714, -74176.016, -74176.016, 0.0, 9.998189, 10.000349 
1.2149623e+3, 1.242295e+2, -1419358.8, -1685889.4, -16476.877, -0.021145126, -0.11822105, -1418344.0, 304195.28, 0.0, 10.002518, 9.998986 
1.21497214e+3, 1.3422823e+2, -1350663.0, -1606731.9, -27875.674, -0.011024376, -0.14021625, -1347663.6, 276886.13, 0.0, 10.002337, 9.998944 
1.21498145e+3, 1.4422712e+2, -1273700.1, -1506149.6, -41689.016, -0.04501704, -0.15029223, -1266449.5, 260109.88, 0.0, 10.002138, 9.999057 
1.2149911e+3, 1.5422611e+2, -1207458.9, -1422216.0, -42661.055, -0.033451628, -0.15802902, -1199294.8, 229274.2, 0.0, 10.001915, 9.999068 
1.2150004e+3, 1.6422524e+2, -1125131.9, -1302853.4, -55954.96, -0.03113091, -0.16201451, -1108982.3, 221595.05, 0.0, 10.001682, 9.999327 
1.2150094e+3, 1.742246e+2, -1060877.1, -1218373.1, -57518.64, -0.040695317, -0.16148105, -1042107.7, 190476.05, 0.0, 10.001439, 9.9993515 
1.2150184e+3, 1.8422407e+2, -972662.25, -1081620.8, -64869.176, -0.046400163, -0.16559072, -942430.25, 192157.95, 0.0, 10.001184, 9.99974 
1.2150275e+3, 1.9422375e+2, -911324.2, -997297.75, -66667.22, -0.047101878, -0.17696129, -874986.44, 161603.44, 0.0, 10.000916, 9.999776 
1.2150365e+3, 2.0422336e+2, -865948.9, -946647.94, -74211.57, -0.040983997, -0.1821105, -821826.9, 116765.86, 0.0, 10.000649, 9.999579 
1.2150454e+3, 2.1422295e+2, -807169.94, -868993.6, -74987.14, -0.025622342, -0.17959988, -756973.1, 83624.03, 0.0, 10.000386, 9.999566 
1.2150543e+3, 2.2422245e+2, -761481.1, -819279.06, -75324.16, -0.02330025, -0.17498153, -709702.44, 32899.895, 0.0, 10.000126, 9.99936 
1.21506296e+3, 2.3422188e+2, -701612.9, -741120.94, -75438.15, -0.03868623, -0.16834334, -643385.25, 1223.2722, 0.0, 9.99987, 9.999347 
1.21507175e+3, 2.4422118e+2, -640933.25, -659414.44, -72025.086, -0.049888503, -0.1729711, -577558.4, -30943.514, 0.0, 9.999607, 9.999362 
1.21508054e+3, 2.5422034e+2, -582377.5, -579712.4, -71081.42, -0.055319563, -0.19360231, -509951.0, -61329.664, 0.0, 9.999333, 9.999368 
1.2150896e+3, 2.642195e+2, -513599.8, -484807.0, -59900.05, -0.062287785, -0.21852383, -437597.63, -86970.086, 0.0, 9.999085, 9.999466 
1.2150987e+3, 2.7421865e+2, -445700.7, -399790.2, -58874.746, -0.07148465, -0.2496921, -359553.8, -106920.54, 0.0, 9.998872, 9.999479 
1.215108e+3, 2.8421798e+2, -361448.5, -284774.47, -44774.46, -0.08157569, -0.27432597, -264166.78, -109529.19, 0.0, 9.998675, 9.999691 
1.2151174e+3, 2.942175e+2, -287205.7, -195521.88, -41253.582, -0.09261224, -0.29172784, -179692.56, -123052.6, 0.0, 9.998501, 9.999715 
1.21512696e+3, 3.0421734e+2, -217252.0, -64760.133, -22536.232, -0.10617144, -0.31240958, -61499.31, -61499.31, 0.0, 9.998336, 10.000356 
1.2151367e+3, 3.142177e+2, -239135.1, -74378.3, -22847.602, -0.12438258, -0.31340203, -71268.6, -71268.6, 0.0, 9.998182, 10.000364 
1.2249649e+3, 1.2421929e+2, -1397907.8, -1680651.6, -2888.102, -0.012153666, -0.11418863, -1397878.3, 324761.66, 0.0, 10.002687, 9.9989395 
1.2249746e+3, 1.3421799e+2, -1326407.6, -1599774.9, -15956.191, -0.006461095, -0.13493976, -1325479.4, 299171.3, 0.0, 10.002524, 9.998901 
1.2249838e+3, 1.4421687e+2, -1247897.9, -1497755.3, -32443.299, -0.044096615, -0.14260863, -1243753.9, 282906.66, 0.0, 10.002333, 9.999021 
1.224993e+3, 1.542158e+2, -1182580.0, -1414286.9, -33831.332, -0.033381417, -0.15138145, -1177741.4, 250929.13, 0.0, 10.002103, 9.999032 
1.2250022e+3, 1.642149e+2, -1104877.4, -1298645.1, -49045.883, -0.030963566, -0.15646246, -1093170.4, 237508.95, 0.0, 10.001845, 9.999277 
1.225011e+3, 1.7421417e+2, -1048117.8, -1217898.3, -51494.813, -0.039235737, -0.1570502, -1033720.25, 198966.11, 0.0, 10.001552, 9.9993 
1.2250196e+3, 1.8421361e+2, -965694.06, -1084720.5, -59779.02, -0.04498621, -0.16060625, -940854.7, 193836.66, 0.0, 10.001261, 9.999682 
1.2250284e+3, 1.9421324e+2, -906822.44, -1001625.44, -62096.418, -0.04751803, -0.16920744, -876103.1, 160590.42, 0.0, 10.000975, 9.999718 
1.2250371e+3, 2.0421284e+2, -864188.7, -950170.1, -70973.305, -0.04142454, -0.1720145, -824201.06, 114495.75, 0.0, 10.00068, 9.999539 
1.2250459e+3, 2.1421242e+2, -811664.8, -875430.25, -73611.18, -0.023631321, -0.16769032, -763328.4, 77373.13, 0.0, 10.000374, 9.999528 
1.2250544e+3, 2.242119e+2, -770284.75, -823194.5, -74760.69, -0.02007636, -0.16316955, -717436.25, 25270.635, 0.0, 10.000065, 9.999362 
1.2250628e+3, 2.342113e+2, -718556.0, -748664.1, -74384.44, -0.03588513, -0.15919058, -657717.56, -13004.4375, 0.0, 9.999752, 9.9993515 
1.2250713e+3, 2.4421059e+2, -661557.44, -666898.06, -70492.74, -0.047947567, -0.1656003, -593684.5, -46965.105, 0.0, 9.999455, 9.999383 
1.2250798e+3, 2.5420976e+2, -603100.75, -587185.3, -69898.09, -0.054803725, -0.18689987, -524793.44, -76067.88, 0.0, 9.999181, 9.99939 
1.2250886e+3, 2.642089e+2, -533463.75, -490315.72, -56323.297, -0.06324039, -0.21361513, -451575.97, -100844.47, 0.0, 9.998932, 9.999502 
1.22509755e+3, 2.742081e+2, -465595.4, -405237.22, -53966.734, -0.07396095, -0.24811526, -373584.4, -120847.29, 0.0, 9.998718, 9.999516 
1.2251066e+3, 2.8420746e+2, -383909.1, -288386.75, -39955.777, -0.08365014, -0.2729208, -273877.6, -119136.664, 0.0, 9.998491, 9.999755 
1.2251157e+3, 2.9420713e+2, -319963.63, -203874.77, -38370.44, -0.09173221, -0.28612912, -192338.69, -135596.4, 0.0, 9.998244, 9.999781 
1.2251253e+3, 3.0420703e+2, -259254.67, -75801.586, -17974.49, -0.103161454, -0.30573028, -74057.06, -74057.06, 0.0, 9.998009, 10.000438 
1.2251347e+3, 3.142074e+2, -291239.47, -90247.33, -13471.046, -0.12029264, -0.3107941, -89348.48, -89348.48, 0.0, 9.997785, 10.000446 
1.2349678e+3, 1.24209344e+2, -1402040.1, -1689714.1, -8721.001, -0.0055228886, -0.11013247, -1401775.9, 320962.06, 0.0, 10.002689, 9.998878 
1.2349773e+3, 1.3420801e+2, -1330249.8, -1608286.9, -22266.652, -0.0010152352, -0.12752883, -1328477.8, 296271.4, 0.0, 10.002526, 9.998842 
1.2349861e+3, 1.4420687e+2, -1250464.3, -1503618.0, -41016.72, -0.04009111, -0.13214102, -1243984.5, 282774.75, 0.0, 10.002335, 9.99898 
1.2349953e+3, 1.5420574e+2, -1185045.5, -1419973.1, -42536.297, -0.02963765, -0.14342491, -1177581.0, 251188.84, 0.0, 10.002106, 9.998992 
1.235004e+3, 1.6420478e+2, -1108719.0, -1307185.4, -59968.613, -0.02771899, -0.14974289, -1092006.3, 238772.97, 0.0, 10.001848, 9.999217 
1.23501256e+3, 1.74204e+2, -1052108.0, -1226734.5, -62560.64, -0.0368818, -0.1497688, -1032008.8, 200777.86, 0.0, 10.001554, 9.999239 
1.235021e+3, 1.8420337e+2, -969936.3, -1094040.6, -70489.75, -0.043130938, -0.15386002, -938077.5, 196714.89, 0.0, 10.001263, 9.999618 
1.2350294e+3, 1.9420291e+2, -911138.8, -1011038.1, -72733.63, -0.045632996, -0.164505, -872855.0, 163940.48, 0.0, 10.000977, 9.999652 
1.2350378e+3, 2.0420246e+2, -868341.25, -959181.4, -82288.22, -0.04096447, -0.16678035, -819770.2, 119029.28, 0.0, 10.000682, 9.999477 
1.2350462e+3, 2.14202e+2, -815884.0, -884547.94, -84956.6, -0.026505375, -0.15840667, -758584.6, 82220.0, 0.0, 10.000375, 9.999465 
1.2350544e+3, 2.2420149e+2, -769647.56, -822184.7, -86279.445, -0.023588186, -0.15093054, -705726.44, 37083.656, 0.0, 10.000066, 9.999369 
1.2350626e+3, 2.3420091e+2, -717600.56, -746920.44, -85912.64, -0.03644704, -0.14546588, -645106.06, -290.1452, 0.0, 9.999753, 9.999364 
1.2350708e+3, 2.4420021e+2, -660291.1, -664399.4, -80675.055, -0.048345353, -0.15244296, -581644.06, -34822.12, 0.0, 9.999455, 9.9994 
1.23507895e+3, 2.541994e+2, -601948.9, -584778.2, -79924.25, -0.05881235, -0.17717703, -512979.5, -64151.4, 0.0, 9.99918, 9.999407 
1.2350875e+3, 2.641985e+2, -530185.1, -483251.5, -64189.82, -0.06756475, -0.20917366, -438373.44, -87539.36, 0.0, 9.99893, 9.999551 
1.23509616e+3, 2.7419767e+2, -462400.66, -397983.8, -61579.52, -0.07411725, -0.25146246, -360698.22, -107858.59, 0.0, 9.998715, 9.999567 
1.2351051e+3, 2.841971e+2, -381580.22, -282650.8, -48651.875, -0.08046272, -0.27670485, -262734.22, -107891.23, 0.0, 9.9984865, 9.999796 
1.23511404e+3, 2.9419687e+2, -317799.8, -198344.2, -47118.918, -0.086359106, -0.2802476, -181995.72, -125152.31, 0.0, 9.9982395, 9.999821 
1.2351232e+3, 3.041969e+2, -250364.02, -56272.55, -25874.518, -0.099532954, -0.29536486, -52882.41, -52882.41, 0.0, 9.998004, 10.000575 
1.2351326e+3, 3.141974e+2, -281775.66, -69606.37, -21287.768, -0.12358429, -0.3040833, -67491.56, -67491.56, 0.0, 9.99778, 10.00059 
1.24497056e+3, 1.2419966e+2, -1360692.9, -1676881.5, -10.648483, 0.0018697155, -0.10016583, -1360692.9, 362140.84, 0.0, 10.003005, 9.998813 
1.24497995e+3, 1.3419828e+2, -1302832.3, -1601687.3, -14230.188, 0.004368893, -0.117547385, -1302156.1, 322689.4, 0.0, 10.002744, 9.998782 
1.2449885e+3, 1.4419709e+2, -1231429.5, -1499484.4, -34218.125, -0.03637074, -0.119865775, -1227130.4, 299725.66, 0.0, 10.002488, 9.998934 
1.24499746e+3, 1.5419592e+2, -1168668.3, -1416995.9, -36284.543, -0.026095279, -0.1313558, -1163475.1, 265391.94, 0.0, 10.002239, 9.998947 
1.24500595e+3, 1.6419488e+2, -1092193.1, -1304001.6, -54937.62, -0.024505919, -0.13946201, -1078791.6, 252085.23, 0.0, 10.001983, 9.999174 
1.24501415e+3, 1.7419405e+2, -1031884.25, -1221761.8, -56399.6, -0.034269877, -0.14338528, -1016395.25, 216489.73, 0.0, 10.001713, 9.999196 
1.24502234e+3, 1.8419336e+2, -951977.7, -1091027.0, -64440.44, -0.040651336, -0.14860761, -926706.5, 208184.67, 0.0, 10.0014105, 9.999567 
1.2450304e+3, 1.9419287e+2, -902359.0, -1012515.1, -65875.36, -0.042648844, -0.15658337, -871569.94, 165324.67, 0.0, 10.001061, 9.9996 
1.2450384e+3, 2.0419237e+2, -865768.3, -965449.25, -74712.49, -0.039220102, -0.15735385, -825797.7, 113101.47, 0.0, 10.000732, 9.99941 
1.2450465e+3, 2.1419185e+2, -813041.75, -890908.4, -77940.59, -0.028327933, -0.14910069, -764851.4, 76053.75, 0.0, 10.000428, 9.999395 
1.2450546e+3, 2.2419128e+2, -766070.7, -824466.9, -81863.336, -0.027285114, -0.14115386, -708354.25, 34556.906, 0.0, 10.000108, 9.999332 
1.2450623e+3, 2.3419069e+2, -718180.7, -750949.4, -85046.84, -0.039755434, -0.13436216, -647954.4, -3037.197, 0.0, 9.999765, 9.99933 
1.2450702e+3, 2.4418999e+2, -662561.25, -663073.56, -80633.086, -0.051341046, -0.14094952, -582183.94, -35260.754, 0.0, 9.99943, 9.999422 
1.24507815e+3, 2.5418916e+2, -611139.4, -586284.25, -79254.58, -0.06160044, -0.16665985, -518488.78, -69559.69, 0.0, 9.9991045, 9.999433 
1.2450863e+3, 2.6418832e+2, -547539.7, -482722.75, -61485.863, -0.06872201, -0.20092432, -445627.13, -94692.52, 0.0, 9.998774, 9.99963 
1.24509476e+3, 2.7418754e+2, -497714.03, -405618.44, -56533.637, -0.0716974, -0.24726066, -378752.22, -125812.83, 0.0, 9.998432, 9.999651 
1.2451034e+3, 2.84187e+2, -429397.78, -299235.8, -40810.05, -0.07594009, -0.27545395, -287498.88, -132556.64, 0.0, 9.998131, 9.999853 
1.2451122e+3, 2.941868e+2, -366111.28, -215442.38, -38243.676, -0.08178877, -0.280335, -206290.97, -149348.6, 0.0, 9.997882, 9.999876 
1.24512106e+3, 3.0418694e+2, -291310.75, -65066.06, -15650.725, -0.09696033, -0.2926436, -63988.535, -63988.535, 0.0, 9.997676, 10.000672 
1.24513015e+3, 3.1418762e+2, -311646.3, -72705.12, -14098.789, -0.12567179, -0.2938533, -71876.086, -71876.086, 0.0, 9.997527, 10.000691 
1.2549737e+3, 1.2419026e+2, -1364982.9, -1686441.0, -9374.01, 0.00995805, -0.08433309, -1364709.8, 358217.3, 0.0, 10.003007, 9.998747 
1.2549827e+3, 1.3418877e+2, -1306877.8, -1610673.8, -24236.313, 0.009676267, -0.10495999, -1304956.4, 319983.47, 0.0, 10.002746, 9.99872 
1.2549911e+3, 1.4418754e+2, -1234716.6, -1506839.6, -43707.36, -0.032947555, -0.10577961, -1227868.9, 299081.75, 0.0, 10.00249, 9.998883 
1.2549996e+3, 1.5418635e+2, -1171891.4, -1424258.5, -45662.793, -0.022768239, -0.115185775, -1163883.4, 265078.7, 0.0, 10.002241, 9.998897 
1.255008e+3, 1.6418526e+2, -1093858.8, -1308016.0, -64994.56, -0.021339605, -0.1256282, -1075677.3, 255295.19, 0.0, 10.001985, 9.999146 
1.2550159e+3, 1.741843e+2, -1033451.44, -1225527.4, -66472.96, -0.0314191, -0.13789648, -1012690.7, 220290.64, 0.0, 10.001715, 9.999169 
1.2550238e+3, 1.8418357e+2, -954399.9, -1096525.1, -77232.52, -0.037575386, -0.14487004, -920511.3, 214476.56, 0.0, 10.001412, 9.999528 
1.2550315e+3, 1.9418311e+2, -904861.56, -1018165.9, -78869.55, -0.038591783, -0.1455131, -864406.2, 172584.95, 0.0, 10.001063, 9.999561 
1.2550393e+3, 2.0418258e+2, -870706.7, -976114.6, -86094.805, -0.036215212, -0.1438072, -822465.0, 116531.055, 0.0, 10.000733, 9.999336 
1.255047e+3, 2.1418193e+2, -818268.3, -902108.9, -89138.74, -0.029127948, -0.13977607, -761684.7, 79318.54, 0.0, 10.000429, 9.999318 
1.2550546e+3, 2.2418128e+2, -771468.5, -835965.1, -94375.91, -0.031171279, -0.13379617, -703983.4, 39026.855, 0.0, 10.000109, 9.999253 
1.255062e+3, 2.341806e+2, -723664.9, -762546.75, -97611.805, -0.04574309, -0.12582137, -643576.9, 1440.1387, 0.0, 9.999765, 9.99925 
1.2550695e+3, 2.4417989e+2, -660866.7, -659633.06, -92551.48, -0.05688374, -0.13108402, -567696.3, -20673.121, 0.0, 9.99943, 9.999446 
1.2550773e+3, 2.5417912e+2, -608945.06, -581586.06, -91080.88, -0.063239545, -0.15538754, -503163.13, -54134.45, 0.0, 9.999104, 9.999466 
1.255085e+3, 2.6417834e+2, -540235.75, -467267.4, -73849.34, -0.06684336, -0.18901764, -421381.56, -70348.266, 0.0, 9.998772, 9.999738 
1.2550932e+3, 2.7417764e+2, -489973.6, -389217.66, -68926.695, -0.06681175, -0.23581405, -354220.97, -101184.27, 0.0, 9.99843, 9.999764 
1.2551016e+3, 2.8417715e+2, -424736.22, -289099.1, -49977.04, -0.07014595, -0.26935422, -272673.6, -117634.695, 0.0, 9.998129, 9.999925 
1.25511e+3, 2.941769e+2, -361844.0, -205895.03, -47091.707, -0.07799152, -0.2861054, -192778.08, -135738.58, 0.0, 9.997878, 9.999944 
1.2551188e+3, 3.0417714e+2, -287878.34, -56898.69, -20944.014, -0.09541939, -0.29723576, -55014.96, -55014.96, 0.0, 9.997671, 10.0007305 
1.2551276e+3, 3.1417805e+2, -308631.2, -64830.844, -19008.01, -0.12669861, -0.28032598, -63357.773, -63357.773, 0.0, 9.9975195, 10.000749 
1.2649769e+3, 1.2418106e+2, -1329474.8, -1676067.9, 2988.8557, 0.017179029, -0.076043494, -1329449.0, 393569.13, 0.0, 10.003281, 9.998686 
1.2649857e+3, 1.3417953e+2, -1273081.6, -1600575.9, -12088.603, 0.013232224, -0.09537236, -1272636.0, 352395.4, 0.0, 10.003005, 9.998664 
1.2649937e+3, 1.4417829e+2, -1205588.9, -1499628.9, -31917.568, -0.031097587, -0.09343925, -1202164.3, 324878.34, 0.0, 10.00272, 9.998821 
1.265002e+3, 1.54177e+2, -1150035.6, -1420659.8, -34886.207, -0.019809924, -0.1041079, -1145610.8, 283443.9, 0.0, 10.002422, 9.998835 
1.26501e+3, 1.6417584e+2, -1077297.3, -1302718.3, -55607.723, -0.017091079, -0.11629748, -1064326.1, 266739.47, 0.0, 10.0021105, 9.999122 
1.2650177e+3, 1.7417485e+2, -1025608.9, -1224099.6, -56906.496, -0.025691198, -0.13092542, -1010451.5, 222623.25, 0.0, 10.00178, 9.999147 
1.2650253e+3, 1.8417408e+2, -952810.06, -1102663.3, -69578.25, -0.031812962, -0.13727455, -925486.4, 209595.25, 0.0, 10.001453, 9.999466 
1.2650327e+3, 1.9417362e+2, -899407.94, -1022887.1, -73412.53, -0.03476315, -0.13318574, -865224.75, 171860.53, 0.0, 10.001133, 9.9994955 
1.26504e+3, 2.0417303e+2, -863918.3, -979524.94, -80732.32, -0.034951277, -0.12930205, -822429.5, 116661.25, 0.0, 10.00081, 9.999276 
1.2650473e+3, 2.1417232e+2, -815074.6, -907308.44, -82557.27, -0.031259503, -0.12660863, -766626.9, 74471.68, 0.0, 10.000481, 9.999257 
1.2650546e+3, 2.2417158e+2, -771195.06, -840862.4, -87564.28, -0.03510039, -0.12270372, -711790.25, 31315.979, 0.0, 10.000133, 9.999208 
1.2650618e+3, 2.3417084e+2, -728046.1, -769658.6, -88425.78, -0.049273215, -0.117802374, -658011.75, -12898.106, 0.0, 9.999758, 9.999205 
1.265069e+3, 2.4417008e+2, -670189.7, -663892.3, -83241.5, -0.05876409, -0.124235965, -583739.94, -36619.754, 0.0, 9.999365, 9.999447 
1.2650762e+3, 2.5416932e+2, -631131.25, -591628.2, -83898.484, -0.06176651, -0.14713627, -525187.6, -76062.07, 0.0, 9.998949, 9.999471 
1.2650838e+3, 2.6416865e+2, -563872.7, -470526.25, -67540.32, -0.06464699, -0.17917572, -435101.44, -83971.82, 0.0, 9.998574, 9.99981 
1.2650916e+3, 2.7416804e+2, -509780.47, -389982.06, -65148.117, -0.06750778, -0.2241915, -361381.6, -108249.625, 0.0, 9.998257, 9.999843 
1.2650996e+3, 2.841676e+2, -444990.7, -289158.9, -45277.15, -0.07240389, -0.2586626, -276958.72, -121825.39, 0.0, 9.997948, 10.0000105 
1.2651078e+3, 2.9416743e+2, -389190.56, -209324.83, -40879.0, -0.07997524, -0.27997932, -200469.98, -143336.6, 0.0, 9.997649, 10.0000305 
1.2651163e+3, 3.041677e+2, -329180.13, -69213.62, -11854.689, -0.095286615, -0.29170603, -68674.16, -68674.16, 0.0, 9.9973545, 10.000798 
1.265125e+3, 3.141687e+2, -369895.22, -87011.445, -9291.751, -0.1218875, -0.27062386, -86706.58, -86706.58, 0.0, 9.997067, 10.000814 
1.2749802e+3, 1.24172084e+2, -1333001.1, -1684065.8, -6889.2075, 0.023450473, -0.07549284, -1332866.0, 390240.88, 0.000000007185254, 10.003283, 9.99863 
1.2749887e+3, 1.3417056e+2, -1276248.9, -1607780.6, -22607.068, 0.01500179, -0.08882621, -1274714.4, 350405.7, 0.0, 10.003008, 9.998613 
1.2749964e+3, 1.4416929e+2, -1210404.3, -1510202.4, -43122.914, -0.03083981, -0.082852095, -1204324.8, 322806.88, 0.0, 10.002722, 9.998748 
1.2750044e+3, 1.5416789e+2, -1155035.5, -1431610.3, -46096.074, -0.017235938, -0.09811453, -1147555.1, 281589.88, 0.0, 10.002424, 9.998758 
1.2750122e+3, 1.6416667e+2, -1078550.5, -1305866.5, -67907.58, -0.011778066, -0.11147488, -1059809.1, 271347.34, 0.0, 10.002112, 9.999099 
1.2750195e+3, 1.7416568e+2, -1026548.44, -1226612.6, -69267.92, -0.017113565, -0.12251206, -1004906.94, 228258.4, 0.0, 10.001781, 9.999129 
1.2750268e+3, 1.8416488e+2, -958620.3, -1115271.3, -81523.195, -0.02338625, -0.12586607, -923893.06, 211279.36, 0.0, 10.001455, 9.999379 
1.2750338e+3, 1.9416435e+2, -905719.9, -1036493.5, -85272.734, -0.031158376, -0.11961763, -863650.3, 173526.83, 0.0, 10.001135, 9.999401 
1.275041e+3, 2.0416373e+2, -867068.2, -986496.06, -92835.73, -0.035410285, -0.11386384, -816399.94, 122783.336, 0.0, 10.000811, 9.999228 
1.2750478e+3, 2.1416298e+2, -818058.1, -913817.5, -94638.89, -0.034705654, -0.10968257, -759876.6, 81314.73, 0.0, 10.000482, 9.999212 
1.2750547e+3, 2.241622e+2, -772075.56, -842920.75, -101223.23, -0.0390836, -0.10795163, -700255.9, 42943.496, 0.0, 10.0001335, 9.999194 
1.2750615e+3, 2.3416136e+2, -728797.2, -771377.1, -102182.875, -0.050423723, -0.11028454, -645709.94, -502.5791, 0.0, 9.999758, 9.999193 
1.2750682e+3, 2.4416056e+2, -671620.2, -667007.3, -98379.92, -0.05709272, -0.12032466, -570906.8, -23692.484, 0.0, 9.999366, 9.999426 
1.2750752e+3, 2.5415978e+2, -632585.3, -594840.5, -99108.51, -0.05728011, -0.14181381, -512823.56, -63603.66, 0.0, 9.998949, 9.999449 
1.2750824e+3, 2.641591e+2, -561184.25, -465059.9, -79282.04, -0.062138665, -0.17133288, -420409.53, -69185.71, 0.0, 9.998574, 9.999847 
1.2750898e+3, 2.741586e+2, -506867.66, -383795.44, -76544.56, -0.07358914, -0.21240218, -347118.72, -93893.234, 0.0, 9.998256, 9.999886 
1.2750974e+3, 2.8415826e+2, -438296.25, -274816.03, -56040.484, -0.08242675, -0.24358033, -257450.22, -102224.42, 0.0, 9.997946, 10.000111 
1.2751053e+3, 2.941582e+2, -382400.56, -194407.9, -51568.06, -0.08752268, -0.2624937, -181191.48, -123967.12, 0.0, 9.997645, 10.000134 
1.2751137e+3, 3.0415857e+2, -324727.72, -58833.72, -22134.633, -0.0965368, -0.2764958, -57003.69, -57003.69, 0.0, 9.99735, 10.000872 
1.2751222e+3, 3.1415957e+2, -365869.7, -77238.44, -19416.36, -0.11160449, -0.26468903, -75938.15, -75938.15, 0.0, 9.997061, 10.000885 
1.2849838e+3, 1.2416348e+2, -1290833.3, -1672258.6, 8777.883, 0.025403194, -0.07268292, -1290631.4, 432560.47, 0.00000015409388, 10.00361, 9.998553 
1.2849918e+3, 1.3416196e+2, -1249704.4, -1602941.0, -9420.064, 0.01908379, -0.07843139, -1249453.4, 375751.97, 0.0000000037029437, 10.003224, 9.998542 
1.2849993e+3, 1.4416066e+2, -1194561.3, -1508622.1, -29886.914, -0.02525322, -0.06836986, -1191742.4, 335474.72, 0.0, 10.002857, 9.998693 
1.285007e+3, 1.5415914e+2, -1145365.5, -1432921.6, -31271.229, -0.011577602, -0.090204805, -1142004.0, 287227.5, 0.0, 10.002517, 9.998704 
1.2850145e+3, 1.6415785e+2, -1068862.1, -1307082.5, -52756.137, -0.0070675276, -0.10637748, -1057701.6, 273542.13, 0.0, 10.002205, 9.999046 
1.2850215e+3, 1.7415683e+2, -1008494.56, -1223829.4, -56828.59, -0.014756389, -0.114981405, -994417.3, 238835.52, 0.0, 10.001931, 9.999076 
1.2850283e+3, 1.84156e+2, -938690.7, -1113450.8, -71219.76, -0.02231354, -0.11629889, -913343.06, 221917.31, 0.0, 10.001626, 9.999309 
1.285035e+3, 1.9415541e+2, -890338.8, -1037061.5, -73553.13, -0.029864067, -0.10857916, -859815.9, 177450.0, 0.0, 10.001275, 9.99933 
1.2850417e+3, 2.0415473e+2, -857615.0, -987694.9, -81538.34, -0.034521423, -0.101922356, -818353.94, 120918.68, 0.0, 10.000901, 9.999176 
1.2850483e+3, 2.1415393e+2, -819815.06, -920277.94, -83957.37, -0.035084922, -0.09760135, -772209.75, 69071.414, 0.0, 10.000494, 9.999162 
1.2850548e+3, 2.2415312e+2, -778313.2, -846679.2, -91134.94, -0.039509468, -0.0963512, -715161.44, 28128.04, 0.0, 10.000094, 9.999187 
1.2850611e+3, 2.3415227e+2, -737067.5, -775709.5, -91623.04, -0.049228977, -0.10004736, -662750.44, -17452.943, 0.0, 9.999702, 9.99919 
1.2850676e+3, 2.4415144e+2, -677812.56, -670389.7, -87142.086, -0.056141064, -0.11121567, -586880.0, -39575.48, 0.0, 9.999325, 9.999422 
1.2850742e+3, 2.5415066e+2, -630757.3, -594412.5, -86649.586, -0.059146646, -0.13352385, -524050.25, -74739.984, 0.0, 9.998964, 9.999445 
1.2850809e+3, 2.6415e+2, -559342.8, -463153.8, -66352.46, -0.06596101, -0.16264632, -429298.75, -77984.586, 0.0, 9.998583, 9.999856 
1.285088e+3, 2.741495e+2, -518217.13, -388135.28, -66068.74, -0.07814829, -0.2016828, -360464.8, -107149.23, 0.0, 9.998174, 9.999896 
1.2850952e+3, 2.8414923e+2, -460870.84, -279541.13, -48183.023, -0.086467244, -0.23122768, -267533.1, -112217.6, 0.0, 9.997765, 10.000165 
1.285103e+3, 2.9414922e+2, -420506.97, -206194.61, -47136.945, -0.08934002, -0.24900545, -196285.25, -138971.9, 0.0, 9.997355, 10.000193 
1.2851107e+3, 3.041497e+2, -371310.53, -70073.73, -17094.555, -0.09668105, -0.26294518, -69106.75, -69106.75, 0.0, 9.996982, 10.000972 
1.285119e+3, 3.1415075e+2, -417514.47, -90568.1, -11946.639, -0.11082274, -0.25323492, -90132.15, -90132.15, 0.0, 9.996657, 10.000987 
1.2949874e+3, 1.2415525e+2, -1297388.8, -1686606.9, -4989.7075, 0.022878919, -0.06776743, -1297324.8, 425948.16, 0.00000073425207, 10.0036125, 9.998453 
1.2949951e+3, 1.3415374e+2, -1255983.4, -1616615.8, -24029.254, 0.02545375, -0.06419962, -1254389.4, 370897.56, 0.000000078126575, 10.003227, 9.998447 
1.2950023e+3, 1.4415242e+2, -1196865.4, -1514003.4, -42874.785, -0.014341441, -0.05001138, -1191171.3, 336127.78, 0.0, 10.002859, 9.998655 
1.2950097e+3, 1.5415078e+2, -1147357.0, -1437657.9, -44054.7, -0.0028544727, -0.08039309, -1140818.8, 288495.63, 0.0, 10.002519, 9.998671 
1.2950167e+3, 1.6414939e+2, -1074506.4, -1319374.9, -63167.54, -0.0029585322, -0.10100808, -1059171.6, 272155.72, 0.0, 10.002207, 9.9989605 
1.2950233e+3, 1.7414829e+2, -1014509.06, -1236837.3, -66970.54, -0.018569063, -0.10832732, -995894.44, 237442.83, 0.0, 10.001933, 9.998986 
1.29503e+3, 1.841474e+2, -942259.1, -1121336.8, -83999.53, -0.028543338, -0.10855069, -909025.3, 226320.22, 0.0, 10.001628, 9.999254 
1.2950362e+3, 1.9414675e+2, -893697.9, -1044466.7, -86548.54, -0.03087552, -0.100034334, -854306.6, 183044.89, 0.0, 10.001277, 9.999278 
1.2950426e+3, 2.0414603e+2, -861342.56, -995842.4, -96388.76, -0.032321654, -0.09341301, -811062.25, 128296.586, 0.0, 10.000902, 9.99912 
1.2950489e+3, 2.1414515e+2, -823620.2, -928569.6, -98952.27, -0.032473456, -0.09025879, -764089.8, 77278.35, 0.0, 10.000496, 9.9991045 
1.295055e+3, 2.2414432e+2, -778207.06, -846819.0, -105523.445, -0.036468394, -0.087834634, -701553.1, 41823.57, 0.0, 10.000095, 9.999186 
1.295061e+3, 2.3414353e+2, -736676.56, -775184.25, -105944.43, -0.045752585, -0.08716101, -648250.6, -2866.3447, 0.0, 9.999703, 9.999193 
1.295067e+3, 2.4414271e+2, -676875.44, -668636.3, -100365.58, -0.055889793, -0.09703447, -572305.8, -24914.71, 0.0, 9.999326, 9.999434 
1.2950732e+3, 2.5414193e+2, -629872.0, -592656.1, -99747.38, -0.06718496, -0.12233929, -509795.88, -60399.008, 0.0, 9.998964, 9.999457 
1.2950794e+3, 2.6414123e+2, -560828.75, -466215.0, -81105.06, -0.07595255, -0.15313311, -419628.47, -68227.55, 0.0, 9.998583, 9.999836 
1.295086e+3, 2.7414072e+2, -520016.3, -391708.3, -80897.13, -0.08128022, -0.19199426, -352614.63, -99212.02, 0.0, 9.998173, 9.999872 
1.295093e+3, 2.8414044e+2, -460400.56, -278208.6, -62919.813, -0.08477118, -0.22149839, -258591.53, -103188.82, 0.0, 9.997763, 10.000175 
1.2951002e+3, 2.9414046e+2, -420029.78, -204559.1, -61812.336, -0.085675254, -0.23934223, -188086.27, -130685.63, 0.0, 9.997353, 10.000206 
1.2951078e+3, 3.0414099e+2, -363367.5, -52596.227, -28817.38, -0.0957646, -0.25100452, -49946.62, -49946.62, 0.0, 9.996978, 10.001094 
1.2951156e+3, 3.1414226e+2, -409168.38, -71814.79, -23366.258, -0.119124204, -0.23669372, -70204.055, -70204.055, 0.0, 9.996651, 10.00112 
1.3049911e+3, 1.2414732e+2, -1264187.4, -1681070.6, 244.78743, 0.023585536, -0.060136367, -1264187.3, 459164.22, 0.000002112803, 10.003886, 9.99836 
1.3049984e+3, 1.3414577e+2, -1225911.8, -1611928.9, -19332.39, 0.027355937, -0.049935896, -1224946.0, 400420.13, 0.0000003721496, 10.003476, 9.998359 
1.3050051e+3, 1.4414445e+2, -1165293.6, -1501942.9, -35900.066, -0.01209174, -0.032037515, -1161507.9, 365870.75, 0.0000000047235753, 10.00309, 9.998627 
1.3050123e+3, 1.5414272e+2, -1116976.0, -1425595.5, -36264.188, -0.002741306, -0.068325646, -1112772.0, 316622.28, 0.0, 10.002739, 9.998648 
1.305019e+3, 1.6414124e+2, -1049875.0, -1311267.9, -51990.953, -0.0032469449, -0.0938834, -1039913.6, 291494.2, 0.0, 10.002393, 9.998926 
1.3050254e+3, 1.7414008e+2, -999748.6, -1233589.8, -51656.91, -0.016843228, -0.10472729, -988845.7, 244572.6, 0.0, 10.002052, 9.998951 
1.3050316e+3, 1.8413915e+2, -935282.0, -1122847.4, -68106.93, -0.025663035, -0.105064645, -913160.6, 222266.3, 0.0, 10.001697, 9.99921 
1.3050376e+3, 1.941385e+2, -890273.0, -1047819.56, -70456.766, -0.028081091, -0.0919036, -863360.94, 174072.17, 0.0, 10.001322, 9.999233 
1.3050435e+3, 2.0413774e+2, -858180.2, -998291.5, -80611.805, -0.031129489, -0.08371933, -821436.7, 118004.16, 0.0, 10.000941, 9.9990835 
1.3050494e+3, 2.1413682e+2, -817909.2, -929810.75, -81805.48, -0.03493972, -0.08335145, -774750.8, 66699.85, 0.0, 10.000552, 9.999068 
1.305055e+3, 2.2413595e+2, -772602.94, -847416.7, -88920.46, -0.039953463, -0.081272565, -713541.56, 29917.99, 0.0, 10.000148, 9.999156 
1.3050607e+3, 2.3413515e+2, -735981.5, -778147.0, -91952.48, -0.046571642, -0.07752015, -662725.8, -17258.564, 0.0, 9.999723, 9.999164 
1.3050663e+3, 2.4413435e+2, -679213.9, -670202.0, -87271.12, -0.054818153, -0.08527201, -587320.56, -39846.508, 0.0, 9.999311, 9.99943 
1.305072e+3, 2.5413355e+2, -636699.0, -596165.75, -87714.0, -0.065343015, -0.10986614, -526407.5, -76927.68, 0.0, 9.998919, 9.9994545 
1.305078e+3, 2.641329e+2, -570843.2, -469014.97, -70163.4, -0.07428342, -0.14138651, -433239.13, -81755.28, 0.0, 9.998506, 9.999854 
1.3050842e+3, 2.7413234e+2, -534513.7, -396507.1, -67078.016, -0.081106044, -0.18298388, -369276.75, -115791.21, 0.0, 9.998064, 9.999891 
1.3050906e+3, 2.841321e+2, -481805.84, -285465.03, -47740.797, -0.08506542, -0.21416372, -274472.2, -118986.664, 0.0, 9.997602, 10.000202 
1.3050975e+3, 2.941321e+2, -452809.9, -217251.56, -45767.38, -0.08495828, -0.23210868, -208671.78, -151188.5, 0.0, 9.997114, 10.000234 
1.3051046e+3, 3.0413273e+2, -406305.0, -66551.28, -11793.31, -0.094377816, -0.24167585, -66142.414, -66142.414, 0.0, 9.9966545, 10.001154 
1.3051121e+3, 3.1413406e+2, -465682.16, -92025.19, -11271.846, -0.117562875, -0.22310558, -91685.47, -91685.47, 0.0, 9.996233, 10.001182 
1.314995e+3, 1.2413966e+2, -1270105.6, -1694041.9, -14408.824, 0.027513234, -0.049902473, -1269616.4, 453810.94, 0.0000048196966, 10.003889, 9.998269 
1.315002e+3, 1.3413808e+2, -1231352.9, -1623912.1, -34808.56, 0.024778951, -0.035662793, -1228290.3, 397152.63, 0.0000010741555, 10.003479, 9.998276 
1.3150083e+3, 1.4413671e+2, -1166406.0, -1504874.6, -49288.285, -0.018507332, -0.01448358, -1159374.6, 368081.06, 0.000000054508583, 10.003093, 9.998606 
1.315015e+3, 1.5413494e+2, -1117705.1, -1427707.8, -49400.7, -0.01121031, -0.054045685, -1110023.1, 319448.28, 0.0, 10.002742, 9.998632 
1.3150214e+3, 1.6413341e+2, -1048478.44, -1308923.1, -64730.586, -0.007931135, -0.08502409, -1033277.56, 298207.53, 0.0, 10.002395, 9.998942 
1.3150275e+3, 1.7413218e+2, -998179.3, -1230843.4, -64320.453, -0.009666689, -0.10415303, -981581.8, 251914.05, 0.0, 10.002054, 9.998969 
1.3150334e+3, 1.8413122e+2, -937439.06, -1127795.0, -81902.23, -0.013784472, -0.10580613, -907051.06, 228453.64, 0.0, 10.0016985, 9.999175 
1.3150391e+3, 1.9413064e+2, -892814.4, -1053552.3, -84339.38, -0.021532476, -0.084187485, -856683.1, 180827.75, 0.0, 10.001324, 9.999193 
1.3150446e+3, 2.0412989e+2, -859141.4, -1000731.25, -94921.11, -0.030928837, -0.07285239, -811522.06, 127996.664, 0.0, 10.000943, 9.999066 
1.3150498e+3, 2.1412891e+2, -818773.56, -932022.25, -96126.984, -0.04239138, -0.07685367, -763833.06, 77695.87, 0.0, 10.000554, 9.999053 
1.315055e+3, 2.2412798e+2, -776546.94, -856019.4, -104430.13, -0.049842164, -0.076597355, -704548.56, 38989.74, 0.0, 10.00015, 9.999097 
1.3150603e+3, 2.3412713e+2, -740246.75, -787392.6, -107519.01, -0.051597025, -0.0710208, -653746.94, -8200.331, 0.0, 9.999724, 9.9991 
1.3150656e+3, 2.441263e+2, -680546.75, -673249.1, -101668.805, -0.052977294, -0.07585123, -575163.7, -27609.969, 0.0, 9.999312, 9.999409 
1.315071e+3, 2.5412554e+2, -637908.5, -598708.6, -101944.22, -0.053937174, -0.09613356, -514497.28, -64937.934, 0.0, 9.998919, 9.999437 
1.3150766e+3, 2.6412487e+2, -567285.25, -461466.5, -86041.85, -0.061313275, -0.12746, -413367.97, -61804.734, 0.0, 9.998505, 9.999907 
1.3150823e+3, 2.7412435e+2, -530574.6, -388029.47, -83067.24, -0.07774025, -0.17461982, -349849.1, -96284.44, 0.0, 9.998062, 9.99995 
1.3150883e+3, 2.841241e+2, -479157.72, -279573.28, -65306.93, -0.08730097, -0.20914705, -260103.27, -104538.91, 0.0, 9.997601, 10.000244 
1.3150945e+3, 2.9412422e+2, -450318.97, -211643.52, -63454.74, -0.087097846, -0.2272361, -195822.1, -138260.39, 0.0, 9.997112, 10.000273 
1.3151012e+3, 3.041248e+2, -406852.4, -67105.664, -27081.025, -0.09259438, -0.23487018, -64960.598, -64960.598, 0.0, 9.996652, 10.001152 
1.3151084e+3, 3.1412622e+2, -466757.66, -93298.11, -26223.43, -0.10667058, -0.21242, -91465.76, -91465.76, 0.0, 9.996228, 10.001175 
1.324999e+3, 1.241323e+2, -1234126.4, -1687164.9, -2687.8088, 0.026901588, -0.04522114, -1234110.4, 489389.56, 0.000009541235, 10.004181, 9.998176 
1.3250054e+3, 1.3413067e+2, -1197798.0, -1617478.5, -24419.607, 0.024576074, -0.026284207, -1196381.9, 429134.44, 0.000002474569, 10.003752, 9.998188 
1.3250114e+3, 1.4412929e+2, -1132142.9, -1488328.0, -37134.54, -0.017536888, -0.002918099, -1128312.5, 399216.9, 0.00000021406201, 10.003328, 9.998606 
1.3250177e+3, 1.5412748e+2, -1092121.4, -1414453.3, -35477.176, -0.010273695, -0.049222015, -1088262.9, 341282.53, 0.0, 10.002913, 9.99864 
1.3250238e+3, 1.641259e+2, -1030244.8, -1297737.8, -49097.094, -0.0065002195, -0.08423599, -1021518.0, 310041.0, 0.0, 10.00251, 9.998963 
1.3250296e+3, 1.7412469e+2, -986742.4, -1222826.1, -48425.44, -0.006972027, -0.10348185, -977195.44, 256373.97, 0.0, 10.002122, 9.998992 
1.3250351e+3, 1.8412377e+2, -933188.44, -1129847.9, -66101.83, -0.011078465, -0.10310957, -913035.3, 222542.83, 0.0, 10.001746, 9.999139 
1.3250405e+3, 1.9412318e+2, -886714.4, -1055369.0, -68873.71, -0.020556714, -0.076441504, -862162.44, 175422.22, 0.0, 10.001387, 9.99915 
1.3250455e+3, 2.0412242e+2, -849094.1, -996793.1, -80057.375, -0.03202994, -0.06315313, -814026.5, 125566.23, 0.0, 10.001016, 9.999058 
1.3250504e+3, 2.141214e+2, -808022.5, -927438.94, -80666.44, -0.046031643, -0.06961977, -767370.6, 74232.45, 0.0, 10.00063, 9.999047 
1.3250554e+3, 2.2412045e+2, -766835.7, -854181.2, -88802.8, -0.05441714, -0.070667036, -711547.6, 32065.041, 0.0, 10.000229, 9.999071 
1.3250601e+3, 2.3411958e+2, -730488.1, -785800.75, -89475.33, -0.054887313, -0.06469001, -664492.4, -18871.209, 0.0, 9.999805, 9.999071 
1.3250649e+3, 2.4411875e+2, -677258.06, -673347.06, -83197.95, -0.053716917, -0.06956796, -592081.6, -44453.008, 0.0, 9.999343, 9.999393 
1.32507e+3, 2.5411797e+2, -652480.44, -607271.7, -83455.15, -0.050370336, -0.090608835, -543413.8, -93779.32, 0.0, 9.998825, 9.999423 
1.325075e+3, 2.641173e+2, -589774.94, -467680.2, -67835.31, -0.055423792, -0.12171948, -437467.44, -85829.17, 0.0, 9.998331, 9.999947 
1.3250804e+3, 2.7411684e+2, -555746.44, -394943.13, -65929.67, -0.07232563, -0.16733456, -371368.1, -117729.016, 0.0, 9.997868, 9.999996 
1.3250858e+3, 2.8411663e+2, -506010.72, -290572.38, -50296.09, -0.08303242, -0.19936886, -279408.78, -123770.51, 0.0, 9.997409, 10.000261 
1.3250917e+3, 2.941168e+2, -472341.5, -220654.28, -50549.074, -0.08486413, -0.21358013, -210881.44, -153246.17, 0.0, 9.996955, 10.000287 
1.3250978e+3, 3.0411744e+2, -430100.38, -74543.555, -14066.78, -0.091549076, -0.22156984, -73987.91, -73987.91, 0.0, 9.996476, 10.001184 
1.3251045e+3, 3.1411877e+2, -503169.1, -106905.12, -10320.336, -0.105634816, -0.20613295, -106636.516, -106636.516, 0.0, 9.995962, 10.00121 
1.3350032e+3, 1.24125235e+2, -1240753.4, -1701571.0, -18004.217, 0.021621106, -0.046226043, -1240051.0, 483518.25, 0.00001693103, 10.004184, 9.9980755 
1.3350093e+3, 1.3412358e+2, -1203932.9, -1630896.8, -40601.406, 0.026704835, -0.021829417, -1200106.3, 425480.25, 0.0000050145013, 10.003754, 9.9980955 
1.3350148e+3, 1.4412217e+2, -1130424.3, -1485376.6, -52699.535, -0.009239522, 0.002664068, -1122765.3, 404834.75, 0.0000005699129, 10.00333, 9.998625 
1.3350208e+3, 1.5412025e+2, -1089661.1, -1409955.9, -50976.707, -0.000026242487, -0.053798072, -1081743.6, 347872.53, 0.0000000003108059, 10.002915, 9.99867 
1.3350263e+3, 1.6411869e+2, -1028102.06, -1293888.1, -63628.258, 0.0009931615, -0.09147174, -1013654.94, 317974.56, 0.0, 10.002512, 9.998989 
1.3350317e+3, 1.741176e+2, -984656.56, -1219115.3, -62841.9, -0.008697383, -0.10273891, -968875.25, 264763.7, 0.0, 10.002124, 9.999016 
1.3350369e+3, 1.8411672e+2, -935670.75, -1135583.9, -79494.99, -0.017440178, -0.097009905, -907913.7, 227733.78, 0.0, 10.001748, 9.999098 
1.3350418e+3, 1.941161e+2, -889739.5, -1062137.5, -82133.94, -0.025083695, -0.06865126, -856874.44, 180780.25, 0.0, 10.001389, 9.999103 
1.3350464e+3, 2.0411533e+2, -848927.8, -996836.75, -94184.0, -0.034430355, -0.054594103, -803133.0, 136530.11, 0.0, 10.001018, 9.999058 
1.335051e+3, 2.1411431e+2, -807665.06, -926971.2, -94825.734, -0.045962464, -0.061655015, -755289.56, 86383.73, 0.0, 10.000631, 9.99905 
1.3350555e+3, 2.2411335e+2, -766355.4, -853370.5, -104225.055, -0.053807158, -0.06349041, -696921.5, 46761.28, 0.0, 10.000229, 9.999077 
1.3350599e+3, 2.3411247e+2, -730104.3, -785110.8, -104965.19, -0.05649514, -0.058507644, -649098.94, -3407.6316, 0.0, 9.999805, 9.999077 
1.3350642e+3, 2.441116e+2, -677991.3, -674975.75, -101860.734, -0.05698056, -0.06631988, -574611.7, -26912.645, 0.0, 9.999343, 9.999382 
1.3350688e+3, 2.5411075e+2, -653303.3, -609165.2, -102360.375, -0.054429054, -0.09304322, -526521.9, -76816.32, 0.0, 9.998826, 9.999411 
1.3350734e+3, 2.6411012e+2, -587762.06, -463647.53, -84817.445, -0.05643687, -0.12393092, -420609.13, -68899.84, 0.0, 9.998331, 9.999975 
1.3350782e+3, 2.7410978e+2, -553602.5, -390414.78, -82690.65, -0.06496636, -0.16111396, -355839.38, -102130.22, 0.0, 9.997867, 10.000029 
1.3350834e+3, 2.8410965e+2, -506859.63, -292038.72, -66712.61, -0.07250822, -0.18500564, -273007.2, -117299.516, 0.0, 9.997407, 10.000252 
1.3350886e+3, 2.9410985e+2, -473628.3, -222826.53, -66867.94, -0.07844351, -0.1914675, -206112.31, -148407.92, 0.0, 9.996952, 10.000274 
1.3350944e+3, 3.041105e+2, -425921.6, -65269.723, -32400.965, -0.09123714, -0.20201181, -62381.94, -62381.94, 0.0, 9.996473, 10.00125 
1.3351004e+3, 3.1411177e+2, -498553.7, -96657.95, -28775.477, -0.11412988, -0.20429385, -94608.11, -94608.11, 0.0, 9.995959, 10.001282 
1.3450074e+3, 1.2411861e+2, -1209029.0, -1696227.9, -2415.7117, 0.021244012, -0.04532076, -1209017.0, 514617.16, 0.000027529579, 10.004445, 9.997986 
1.3450132e+3, 1.3411687e+2, -1180860.5, -1628894.9, -25283.205, 0.028550008, -0.020821378, -1179438.3, 446214.3, 0.00000917227, 10.003952, 9.9980135 
1.3450183e+3, 1.4411543e+2, -1105745.6, -1471174.3, -35438.9, -0.0055076657, 0.004393149, -1102340.5, 425325.88, 0.0000012898513, 10.00349, 9.998646 
1.3450238e+3, 1.5411353e+2, -1065124.1, -1394728.6, -33682.332, 0.0024632576, -0.055606883, -1061717.4, 367964.9, 0.000000007461887, 10.00307, 9.9987 
1.3450289e+3, 1.6411197e+2, -1004402.0, -1282601.6, -45790.41, 0.0018302411, -0.09376483, -997058.94, 334636.38, 0.0, 10.002675, 9.998987 
1.345034e+3, 1.7411092e+2, -956856.5, -1206187.5, -47126.57, -0.010022784, -0.1011894, -948246.3, 285458.22, 0.0, 10.002317, 9.999012 
1.3450387e+3, 1.8411005e+2, -911777.44, -1126938.8, -65501.3, -0.019689085, -0.092303984, -893405.7, 242307.44, 0.0, 10.0019245, 9.999072 
1.345043e+3, 1.9410942e+2, -877827.2, -1059522.3, -66939.69, -0.026522515, -0.06171321, -855828.8, 181891.88, 0.0, 10.001484, 9.999075 
1.3450475e+3, 2.0410864e+2, -844342.94, -991441.0, -78049.53, -0.035411444, -0.047704965, -810648.4, 129080.84, 0.0, 10.001036, 9.999085 
1.3450517e+3, 2.1410762e+2, -813111.75, -925847.06, -76618.09, -0.047004946, -0.058075268, -774360.3, 67378.82, 0.0, 10.000578, 9.9990835 
1.3450557e+3, 2.2410667e+2, -780340.9, -857853.4, -84906.14, -0.05397132, -0.061302375, -725763.8, 17984.494, 0.0, 10.000124, 9.999096 
1.3450596e+3, 2.3410584e+2, -747853.25, -791621.94, -84861.19, -0.05444754, -0.054963164, -682100.0, -36343.367, 0.0, 9.999675, 9.999094 
1.3450636e+3, 2.44105e+2, -692762.94, -680428.8, -81729.42, -0.05536506, -0.06308555, -604634.1, -56869.92, 0.0, 9.999234, 9.999397 
1.3450675e+3, 2.5410414e+2, -655278.0, -608506.3, -80496.54, -0.056985624, -0.09250799, -548067.4, -98296.625, 0.0, 9.998806, 9.999424 
1.3450716e+3, 2.6410347e+2, -589352.7, -466420.34, -64662.043, -0.060237285, -0.12225664, -438671.78, -86897.29, 0.0, 9.998329, 9.999956 
1.3450761e+3, 2.741032e+2, -567077.06, -399275.16, -66698.83, -0.065878, -0.15293978, -375993.53, -122219.32, 0.0, 9.997786, 10.000007 
1.3450807e+3, 2.841031e+2, -528768.25, -302925.5, -51929.56, -0.07128629, -0.17316599, -291557.22, -135784.52, 0.0, 9.997258, 10.000249 
1.3450855e+3, 2.941033e+2, -502276.38, -236803.3, -51337.55, -0.07615217, -0.17992197, -227221.42, -169451.81, 0.0, 9.996757, 10.000271 
1.3450907e+3, 3.0410397e+2, -452575.4, -71249.7, -17492.139, -0.089057066, -0.19122504, -70448.984, -70448.984, 0.0, 9.996261, 10.001311 
1.3450962e+3, 3.1410524e+2, -521154.53, -100060.82, -14467.275, -0.11364803, -0.19559804, -99564.36, -99564.36, 0.0, 9.995772, 10.0013485 
1.3550119e+3, 1.2411244e+2, -1214393.3, -1707962.6, -19945.701, 0.025747614, -0.04255646, -1213588.5, 510106.06, 0.00004181688, 10.004447, 9.997905 
1.3550171e+3, 1.3411057e+2, -1185549.9, -1639335.1, -43789.64, 0.030098638, -0.023241762, -1181362.8, 444351.7, 0.000015400148, 10.003955, 9.997941 
1.3550217e+3, 1.441091e+2, -1103924.3, -1468102.8, -51369.676, -0.0063360776, 0.0022683472, -1096816.9, 430911.75, 0.0000025933375, 10.003492, 9.998666 
1.3550267e+3, 1.5410726e+2, -1062664.3, -1390359.8, -49361.395, -0.0027479993, -0.05469237, -1055390.3, 374353.34, 0.000000038816378, 10.003073, 9.998729 
1.3550316e+3, 1.6410573e+2, -1006007.44, -1286624.1, -59299.44, -0.0039387643, -0.09116378, -993991.0, 337765.47, 0.0, 10.002678, 9.998959 
1.3550362e+3, 1.7410463e+2, -958970.94, -1211116.5, -60387.586, -0.010976956, -0.09884378, -945254.56, 288511.72, 0.0, 10.002319, 9.998978 
1.3550405e+3, 1.8410374e+2, -912402.94, -1128677.6, -81568.13, -0.017894836, -0.088978246, -885089.0, 250686.17, 0.0, 10.001926, 9.99906 
1.3550447e+3, 1.9410314e+2, -878334.75, -1061014.4, -83260.984, -0.024934469, -0.055616517, -846081.06, 191701.78, 0.0, 10.001485, 9.999064 
1.3550486e+3, 2.0410237e+2, -840204.06, -983281.25, -94871.72, -0.035004616, -0.042446747, -792921.75, 146869.55, 0.0, 10.001037, 9.999141 
1.3550521e+3, 2.1410134e+2, -808541.3, -916767.4, -93461.805, -0.04913653, -0.0587791, -754657.44, 87143.36, 0.0, 10.000579, 9.9991455 
1.3550557e+3, 2.2410044e+2, -777910.1, -853157.25, -101402.71, -0.054905027, -0.0639883, -707376.2, 36433.402, 0.0, 10.000125, 9.999128 
1.3550593e+3, 2.3409967e+2, -745721.3, -787432.2, -101295.14, -0.048848417, -0.053991344, -663156.94, -17339.576, 0.0, 9.999676, 9.999123 
1.3550629e+3, 2.4409886e+2, -690091.6, -674978.56, -97413.664, -0.049000748, -0.05986486, -584828.75, -37004.324, 0.0, 9.999234, 9.999434 
1.3550663e+3, 2.5409803e+2, -652692.06, -603052.75, -96081.266, -0.05809222, -0.08908645, -528637.2, -78806.64, 0.0, 9.998805, 9.999462 
1.3550699e+3, 2.6409742e+2, -594054.0, -476014.94, -84161.1, -0.066760294, -0.11679896, -432241.5, -80407.22, 0.0, 9.998328, 9.999891 
1.3550738e+3, 2.7409708e+2, -572505.5, -410400.4, -86495.35, -0.07483197, -0.14285871, -372916.22, -119081.555, 0.0, 9.997784, 9.99993 
1.3550779e+3, 2.8409696e+2, -528956.25, -303130.63, -70172.79, -0.07911363, -0.16374786, -283101.66, -127267.85, 0.0, 9.997257, 10.000248 
1.3550822e+3, 2.9409707e+2, -502066.97, -236040.02, -69376.914, -0.07789254, -0.1785701, -219034.36, -161203.05, 0.0, 9.996755, 10.0002775 
1.355087e+3, 3.0409777e+2, -449061.66, -63482.832, -35018.97, -0.085145764, -0.1889175, -60328.156, -60328.156, 0.0, 9.996259, 10.001366 
1.3550921e+3, 3.1409928e+2, -517511.03, -91748.47, -31926.326, -0.10468385, -0.1803867, -89367.74, -89367.74, 0.0, 9.995769, 10.001408 
1.3650165e+3, 1.24106705e+2, -1189496.5, -1704998.8, -1384.6058, 0.02701021, -0.041590378, -1189492.8, 534257.94, 0.000060269238, 10.004658, 9.997824 
1.3650212e+3, 1.3410474e+2, -1149991.6, -1630256.0, -26282.256, 0.02925231, -0.025199944, -1148557.6, 477214.2, 0.000024120885, 10.004234, 9.997869 
1.3650253e+3, 1.4410324e+2, -1058116.4, -1447356.9, -33719.66, -0.007971698, 0.0019390625, -1055216.9, 472569.5, 0.000004753441, 10.003814, 9.998653 
1.36503e+3, 1.5410143e+2, -1016294.25, -1368697.6, -34319.242, -0.0063704294, -0.051695205, -1012983.1, 416817.84, 0.00000015153988, 10.003394, 9.998723 
1.3650343e+3, 1.640999e+2, -968745.8, -1268774.3, -45475.43, -0.007155189, -0.08687557, -962004.5, 369809.16, 0.0, 10.002934, 9.998958 
1.3650386e+3, 1.7409879e+2, -944623.5, -1204306.8, -44244.44, -0.010413783, -0.09612539, -937292.1, 296531.56, 0.0, 10.0024185, 9.998976 
1.3650425e+3, 1.8409789e+2, -910110.7, -1127030.6, -63372.094, -0.01605522, -0.0871176, -892953.9, 242878.92, 0.0, 10.00194, 9.999064 
1.3650462e+3, 1.9409731e+2, -873648.2, -1058179.0, -63985.67, -0.02537951, -0.053564634, -853632.4, 184208.14, 0.0, 10.001514, 9.999069 
1.3650496e+3, 2.0409657e+2, -830090.44, -971169.94, -75617.875, -0.03718052, -0.03998955, -797218.8, 142629.8, 0.0, 10.001076, 9.999206 
1.3650528e+3, 2.1409562e+2, -798448.4, -904056.1, -73787.89, -0.052228574, -0.055631336, -760516.9, 81340.27, 0.0, 10.000615, 9.999215 
1.3650559e+3, 2.2409476e+2, -774863.75, -848784.44, -82424.57, -0.05802243, -0.060975734, -721492.06, 22373.303, 0.0, 10.0001335, 9.999154 
1.365059e+3, 2.34094e+2, -751963.1, -788119.5, -83113.9, -0.050721057, -0.052297268, -684984.06, -39110.9, 0.0, 9.999623, 9.999144 
1.365062e+3, 2.4409322e+2, -706032.4, -680515.44, -79797.46, -0.04979273, -0.05730904, -612462.94, -64582.95, 0.0, 9.999116, 9.999453 
1.3650651e+3, 2.5409245e+2, -679022.2, -613680.94, -80053.1, -0.058096774, -0.08261711, -559888.44, -110002.836, 0.0, 9.998616, 9.99948 
1.3650683e+3, 2.6409185e+2, -623110.4, -489717.94, -68264.945, -0.067425884, -0.10987814, -460975.78, -109086.555, 0.0, 9.998128, 9.999893 
1.3650714e+3, 2.7409148e+2, -591010.75, -419222.72, -65314.625, -0.07819117, -0.14041258, -397210.38, -143320.36, 0.0, 9.997657, 9.99993 
1.3650751e+3, 2.8409135e+2, -541890.8, -307784.9, -45909.207, -0.08359104, -0.16347034, -299103.8, -143214.52, 0.0, 9.997163, 10.000261 
1.3650788e+3, 2.940915e+2, -518871.28, -242449.72, -44680.24, -0.081254594, -0.1771095, -235407.13, -177520.6, 0.0, 9.996633, 10.000292 
1.3650832e+3, 3.0409223e+2, -476108.7, -77233.31, -13100.088, -0.08479833, -0.18487583, -76803.53, -76803.53, 0.0, 9.996077, 10.001359 
1.3650878e+3, 3.140937e+2, -560036.3, -113252.91, -15281.715, -0.0969006, -0.17250977, -112730.82, -112730.82, 0.0, 9.9954815, 10.001398 
1.3750212e+3, 1.24101415e+2, -1194963.0, -1716948.8, -16485.719, 0.024958331, -0.042518258, -1194442.9, 529359.56, 0.000083350045, 10.00466, 9.997741 
1.3750254e+3, 1.3409936e+2, -1154821.5, -1640971.4, -42150.047, 0.026002614, -0.0266797, -1151194.0, 474630.47, 0.000035740377, 10.004237, 9.997794 
1.3750292e+3, 1.4409783e+2, -1060929.1, -1453821.6, -49366.273, -0.0104393875, 0.0034063896, -1054821.3, 473018.25, 0.000008069999, 10.003816, 9.998609 
1.3750333e+3, 1.54096e+2, -1018910.44, -1374709.1, -49921.695, -0.008450541, -0.0466345, -1012038.7, 417815.7, 0.0000004282353, 10.003396, 9.998681 
1.3750373e+3, 1.6409448e+2, -966732.94, -1265153.8, -64375.61, -0.007869643, -0.080925986, -953438.1, 378429.03, 0.0, 10.002936, 9.998981 
1.375041e+3, 1.7409338e+2, -942098.6, -1199677.1, -63437.76, -0.008370841, -0.09305259, -927322.5, 306554.5, 0.0, 10.00242, 9.999007 
1.3750446e+3, 1.8409248e+2, -908360.1, -1123974.1, -79353.516, -0.014188482, -0.08671289, -882304.06, 253581.97, 0.0, 10.001942, 9.999084 
1.3750476e+3, 1.9409189e+2, -872047.25, -1055340.0, -79625.12, -0.027830327, -0.055493098, -842288.5, 195605.39, 0.0, 10.001516, 9.999088 
1.3750505e+3, 2.0409122e+2, -824816.0, -960595.7, -92452.664, -0.041903984, -0.04030421, -778003.94, 161897.42, 0.0, 10.001077, 9.999278 
1.3750534e+3, 2.1409042e+2, -792937.4, -892863.2, -90731.76, -0.05628289, -0.048740536, -739321.6, 102586.87, 0.0, 10.000616, 9.999292 
1.3750559e+3, 2.2408964e+2, -773534.75, -846229.9, -101039.32, -0.06328513, -0.052398033, -702504.06, 41411.957, 0.0, 10.000134, 9.999171 
1.3750584e+3, 2.3408881e+2, -751066.4, -786504.75, -101861.5, -0.059889086, -0.0499002, -665394.4, -19470.178, 0.0, 9.999623, 9.999154 
1.375061e+3, 2.4408804e+2, -706078.7, -680836.56, -98130.48, -0.057585493, -0.055410046, -594518.8, -46587.723, 0.0, 9.999117, 9.999451 
1.3750637e+3, 2.5408733e+2, -679243.8, -614261.0, -98291.27, -0.057051852, -0.07317604, -543230.06, -93293.85, 0.0, 9.998616, 9.999476 
1.3750663e+3, 2.6408675e+2, -618600.56, -480319.7, -85419.04, -0.06240772, -0.101510115, -439565.6, -87625.945, 0.0, 9.998127, 9.999958 
1.375069e+3, 2.740863e+2, -586175.56, -408904.66, -82319.914, -0.07614324, -0.14536805, -376573.97, -122633.25, 0.0, 9.997656, 10.000003 
1.3750722e+3, 2.8408617e+2, -540417.94, -304319.56, -64894.69, -0.084861554, -0.17206353, -287658.2, -131718.53, 0.0, 9.99716, 10.000286 
1.3750754e+3, 2.9408646e+2, -517721.56, -239670.45, -63841.637, -0.086239584, -0.17552274, -225712.81, -167777.06, 0.0, 9.996631, 10.000312 
1.3750792e+3, 3.0408722e+2, -481112.53, -87412.26, -34404.55, -0.087967835, -0.17910488, -84428.34, -84428.34, 0.0, 9.996075, 10.001289 
1.3750833e+3, 3.1408858e+2, -565523.8, -124706.79, -36708.2, -0.09035823, -0.17183036, -121670.89, -121670.89, 0.0, 9.9954815, 10.00132 
1.385026e+3, 1.2409666e+2, -1148133.5, -1704413.3, 1742.1199, 0.02285244, -0.03686082, -1148128.0, 575721.2, 0.000111441754, 10.005026, 9.99765 
1.3850299e+3, 1.3409448e+2, -1123407.5, -1634882.4, -25554.959, 0.02618963, -0.026528466, -1122133.9, 503738.75, 0.000050612405, 10.004492, 9.997712 
1.3850331e+3, 1.440929e+2, -1038803.2, -1445095.0, -31441.309, -0.007307815, 0.0039910995, -1036384.5, 491503.7, 0.000012820622, 10.003976, 9.99859 
1.3850369e+3, 1.540911e+2, -1006880.1, -1370093.8, -29721.174, -0.004965003, -0.04168836, -1004464.1, 425438.78, 0.0000009491927, 10.003485, 9.99867 
1.3850403e+3, 1.6408962e+2, -954767.6, -1256278.0, -43997.156, -0.005736121, -0.07425397, -948478.6, 383436.88, 0.0, 10.003006, 9.999009 
1.3850434e+3, 1.7408851e+2, -921735.5, -1186374.0, -43243.6, -0.009967926, -0.0883762, -914848.5, 319076.63, 0.0, 10.002545, 9.999038 
1.3850465e+3, 1.8408762e+2, -887617.1, -1111386.3, -58103.844, -0.01735147, -0.084254704, -873429.44, 262504.5, 0.0, 10.002073, 9.999107 
1.3850492e+3, 1.9408701e+2, -860746.9, -1047466.5, -58180.656, -0.029457178, -0.055466406, -844102.0, 193839.88, 0.0, 10.001584, 9.999109 
1.3850516e+3, 2.040864e+2, -822824.75, -955297.44, -73691.18, -0.042101536, -0.03884482, -789977.06, 149971.9, 0.0, 10.001072, 9.999316 
1.3850538e+3, 2.1408571e+2, -802926.7, -893216.25, -74981.766, -0.05522529, -0.040447686, -760548.25, 81406.95, 0.0, 10.000528, 9.999331 
1.3850561e+3, 2.2408496e+2, -786970.75, -847664.3, -85289.34, -0.06243468, -0.042879093, -726790.2, 17171.98, 0.0, 10.000021, 9.999216 
1.3850582e+3, 2.3408411e+2, -756441.0, -784041.7, -83682.83, -0.06134741, -0.047115475, -685428.25, -39457.887, 0.0, 9.999565, 9.999199 
1.3850603e+3, 2.4408336e+2, -710215.56, -680630.25, -79118.31, -0.060569968, -0.056326967, -614933.6, -66956.445, 0.0, 9.99908, 9.99947 
1.3850622e+3, 2.5408268e+2, -687819.56, -616492.94, -77997.664, -0.060419705, -0.07345771, -566392.0, -116409.87, 0.0, 9.998549, 9.999493 
1.3850644e+3, 2.6408216e+2, -631418.8, -478295.5, -64272.844, -0.06445126, -0.10114017, -454893.75, -102908.7, 0.0, 9.998005, 10.0000305 
1.3850667e+3, 2.740818e+2, -612238.75, -412632.44, -60830.66, -0.07445542, -0.14440718, -395555.13, -141569.97, 0.0, 9.997439, 10.000081 
1.3850692e+3, 2.8408173e+2, -575122.4, -319623.56, -42904.44, -0.0820519, -0.16979405, -312611.34, -156627.83, 0.0, 9.996917, 10.0002985 
1.385072e+3, 2.9408205e+2, -543177.6, -251269.66, -43034.594, -0.08602827, -0.17087333, -245057.47, -187078.06, 0.0, 9.996453, 10.000318 
1.3850752e+3, 3.0408275e+2, -492701.53, -92895.75, -12898.79, -0.089445494, -0.17604686, -92480.03, -92480.03, 0.0, 9.9959955, 10.00129 
1.3850789e+3, 3.1408408e+2, -556566.4, -120396.56, -9712.205, -0.092068076, -0.1767137, -120180.41, -120180.41, 0.0, 9.9955435, 10.001319 
1.395031e+3, 1.24092445e+2, -1154780.4, -1718772.3, -17242.537, 0.020602593, -0.024771975, -1154253.8, 569637.3, 0.00014481756, 10.005028, 9.997551 
1.3950343e+3, 1.3409005e+2, -1129384.4, -1648008.4, -45549.71, 0.02974044, -0.024726676, -1125414.3, 500501.97, 0.00006898881, 10.004495, 9.997622 
1.3950372e+3, 1.440884e+2, -1037799.1, -1443727.6, -49899.508, 0.0013282055, 0.0037290566, -1031755.1, 496177.28, 0.000019225723, 10.003979, 9.998599 
1.3950405e+3, 1.540867e+2, -1005183.94, -1367285.1, -48030.055, 0.0039873663, -0.036835566, -998921.4, 431025.28, 0.0000018023145, 10.003487, 9.998688 
1.3950433e+3, 1.6408525e+2, -952342.4, -1251884.8, -61177.207, -0.0008048449, -0.06686227, -940329.56, 391629.28, 0.00000000002665542, 10.003008, 9.999039 
1.395046e+3, 1.7408417e+2, -919341.2, -1181923.4, -60266.008, -0.015139023, -0.082129434, -906170.0, 327798.16, 0.0, 10.002547, 9.999068 
1.3950485e+3, 1.8408328e+2, -885731.4, -1107881.8, -76098.46, -0.025462229, -0.0797893, -862163.8, 273813.0, 0.0, 10.002074, 9.999131 
1.3950507e+3, 1.9408269e+2, -858954.8, -1044115.4, -76228.04, -0.030293752, -0.053546935, -831610.9, 206373.81, 0.0, 10.001585, 9.999132 
1.3950527e+3, 2.0408207e+2, -822349.75, -954673.6, -93574.555, -0.037881378, -0.035676498, -773909.8, 166081.86, 0.0, 10.001073, 9.99932 
1.3950545e+3, 2.1408147e+2, -802586.8, -892908.1, -95002.33, -0.04917641, -0.030802896, -742557.5, 99440.055, 0.0, 10.000529, 9.999333 
1.3950561e+3, 2.2408077e+2, -781917.6, -837514.9, -102234.125, -0.055613223, -0.03245473, -703770.1, 40234.035, 0.0, 10.000022, 9.999286 
1.3950577e+3, 2.3407993e+2, -751051.56, -773019.4, -100260.22, -0.055284508, -0.043967873, -661175.4, -15163.565, 0.0, 9.999565, 9.999275 
1.3950592e+3, 2.4407914e+2, -707484.75, -675032.7, -98250.61, -0.058865, -0.05999767, -591677.25, -43658.848, 0.0, 9.99908, 9.999509 
1.3950607e+3, 2.5407845e+2, -685379.0, -611496.8, -97337.81, -0.06809668, -0.08321984, -544326.0, -94302.4, 0.0, 9.998549, 9.999527 
1.3950622e+3, 2.6407796e+2, -625902.44, -466915.38, -84787.875, -0.073408216, -0.10857791, -430184.13, -78158.35, 0.0, 9.998004, 10.00011 
1.3950641e+3, 2.7407786e+2, -606420.25, -400606.75, -81465.07, -0.0731624, -0.13769083, -372264.28, -118240.445, 0.0, 9.997439, 10.000164 
1.3950662e+3, 2.8407788e+2, -575358.5, -320089.34, -59964.055, -0.075322255, -0.15692571, -306705.22, -150683.95, 0.0, 9.996916, 10.000296 
1.3950685e+3, 2.940781e+2, -544116.44, -253037.4, -59698.39, -0.08082118, -0.16319357, -241269.42, -183251.48, 0.0, 9.996452, 10.000306 
1.3950711e+3, 3.0407882e+2, -488280.63, -83506.23, -29132.855, -0.08933596, -0.17556472, -81420.195, -81420.195, 0.0, 9.995995, 10.001355 
1.3950743e+3, 3.1408012e+2, -551627.6, -109931.25, -25866.922, -0.10188791, -0.18685028, -108421.58, -108421.58, 0.0, 9.995542, 10.001392 
1.4050362e+3, 1.2408875e+2, -1116984.8, -1705659.9, 5831.198, 0.024135828, -0.01565637, -1116927.0, 607000.8, 0.00018374187, 10.00531, 9.997505 
1.405039e+3, 1.340862e+2, -1092503.0, -1634044.6, -19543.113, 0.03132199, -0.028358497, -1091798.8, 534155.4, 0.00009104617, 10.0047655, 9.997586 
1.4050412e+3, 1.440845e+2, -1004698.94, -1432435.6, -22454.527, 0.0030109729, -0.0012820942, -1003523.44, 524447.3, 0.000027451893, 10.004227, 9.998557 
1.4050439e+3, 1.5408285e+2, -977459.3, -1358650.4, -25179.72, 0.004449424, -0.03155704, -975803.25, 454181.66, 0.0000030734216, 10.003698, 9.998645 
1.4050464e+3, 1.6408144e+2, -929091.56, -1238201.6, -41174.824, -0.0011572203, -0.056029554, -923700.9, 408295.97, 0.000000001541067, 10.003158, 9.999061 
1.4050485e+3, 1.7408037e+2, -909865.7, -1174214.1, -40556.66, -0.015738234, -0.07256313, -903783.44, 330222.56, 0.0, 10.0026, 9.999096 
1.4050506e+3, 1.840795e+2, -886001.75, -1104973.9, -56195.086, -0.025945572, -0.07231447, -872422.44, 263592.0, 0.0, 10.00206, 9.999158 
1.4050524e+3, 1.940789e+2, -862585.8, -1042958.7, -56155.668, -0.030167168, -0.04919025, -846531.7, 191490.5, 0.0, 10.001548, 9.999158 
1.4050539e+3, 2.040783e+2, -826497.3, -955721.75, -74086.05, -0.037636783, -0.031503316, -792806.5, 147222.55, 0.0, 10.00104, 9.999329 
1.4050551e+3, 2.1407774e+2, -800625.44, -891298.56, -75374.164, -0.04950871, -0.022752808, -758003.6, 84031.164, 0.0, 10.00054, 9.999339 
1.4050561e+3, 2.2407708e+2, -778055.94, -827836.75, -82111.86, -0.055399664, -0.024073558, -717144.9, 26896.127, 0.0, 10.000014, 9.999355 
1.4050573e+3, 2.3407626e+2, -762119.3, -769888.4, -80216.266, -0.05289805, -0.04028136, -685693.56, -39645.598, 0.0, 9.999454, 9.999351 
1.4050582e+3, 2.4407552e+2, -725602.8, -676437.56, -77398.8, -0.056364227, -0.061157037, -619811.3, -71757.3, 0.0, 9.998923, 9.999574 
1.4050592e+3, 2.5407484e+2, -696994.8, -609913.06, -74426.26, -0.068442136, -0.089412406, -567227.0, -117168.15, 0.0, 9.998439, 9.999591 
1.4050603e+3, 2.6407444e+2, -634646.25, -469758.28, -64292.914, -0.0747263, -0.112874456, -447652.8, -95592.25, 0.0, 9.997939, 10.000121 
1.4050615e+3, 2.7407444e+2, -609190.6, -401139.2, -66826.94, -0.07275138, -0.13029109, -381523.53, -127465.74, 0.0, 9.9974165, 10.000171 
1.4050631e+3, 2.840745e+2, -576187.3, -317157.7, -45615.094, -0.07386896, -0.14630455, -309359.63, -153304.72, 0.0, 9.996896, 10.000325 
1.4050649e+3, 2.940747e+2, -552778.6, -253647.33, -42119.83, -0.07936521, -0.161419, -247829.69, -189777.73, 0.0, 9.996378, 10.000338 
1.4050671e+3, 3.0407542e+2, -500240.7, -83616.62, -9066.132, -0.08704677, -0.1767997, -83419.42, -83419.42, 0.0, 9.995889, 10.001406 
1.4050698e+3, 3.1407678e+2, -562902.25, -109555.75, -7344.205, -0.09743216, -0.18323787, -109436.805, -109436.805, 0.0, 9.9954405, 10.001443 
1.4150417e+3, 1.240856e+2, -1116385.5, -1705061.9, -13544.182, 0.033314347, -0.009469878, -1116074.0, 607885.44, 0.00022859067, 10.005313, 9.997508 
1.4150438e+3, 1.3408291e+2, -1090815.6, -1631304.1, -39951.625, 0.030940594, -0.03730713, -1087878.4, 538107.9, 0.000116984535, 10.004768, 9.997604 
1.4150456e+3, 1.4408118e+2, -1010884.9, -1445997.6, -42222.32, -0.0021702126, -0.010944735, -1006825.56, 521177.66, 0.000037658418, 10.00423, 9.998463 
1.4150476e+3, 1.5407957e+2, -984447.25, -1373853.3, -44839.64, -0.00345007, -0.025849497, -979350.7, 450666.9, 0.000004855395, 10.003701, 9.99854 
1.4150496e+3, 1.6407819e+2, -927850.56, -1236276.8, -61791.83, -0.0067240866, -0.041812457, -915931.44, 416098.28, 0.000000009671312, 10.0031595, 9.999073 
1.4150512e+3, 1.7407714e+2, -907842.94, -1170634.0, -61235.285, -0.011884417, -0.05975076, -894274.5, 339764.13, 0.0, 10.002602, 9.99912 
1.4150526e+3, 1.8407626e+2, -883747.75, -1100840.4, -75262.12, -0.01897651, -0.061916724, -860208.2, 275838.8, 0.0, 10.002062, 9.999186 
1.4150539e+3, 1.9407566e+2, -860405.44, -1038910.94, -75007.05, -0.029106095, -0.042468145, -833073.0, 204981.67, 0.0, 10.00155, 9.999186 
1.4150548e+3, 2.0407507e+2, -825578.94, -954196.75, -92516.88, -0.04128662, -0.026364708, -777215.7, 162845.73, 0.0, 10.001041, 9.999339 
1.4150555e+3, 2.1407452e+2, -799937.6, -890127.56, -93714.63, -0.056096114, -0.016282555, -741032.6, 101034.52, 0.0, 10.000541, 9.999347 
1.4150561e+3, 2.2407389e+2, -773181.75, -817949.2, -102522.45, -0.061670847, -0.017718308, -690627.94, 53445.063, 0.0, 10.000015, 9.999423 
1.4150566e+3, 2.3407313e+2, -756824.7, -759220.4, -100800.54, -0.054113496, -0.036096968, -657214.9, -11135.786, 0.0, 9.9994545, 9.999423 
1.4150572e+3, 2.4407244e+2, -719153.44, -663369.3, -95321.914, -0.053097293, -0.059882708, -591942.56, -43858.234, 0.0, 9.998924, 9.999663 
1.4150578e+3, 2.540718e+2, -690545.25, -596725.4, -92055.805, -0.06164951, -0.09213219, -540316.3, -90227.92, 0.0, 9.998439, 9.999681 
1.4150582e+3, 2.6407143e+2, -638427.4, -477722.22, -83182.74, -0.06860607, -0.114102624, -442420.56, -90330.77, 0.0, 9.997939, 10.000067 
1.415059e+3, 2.7407146e+2, -614072.9, -411319.94, -85785.06, -0.07323354, -0.12219931, -379894.8, -125807.34, 0.0, 9.9974165, 10.000101 
1.4150599e+3, 2.8407153e+2, -572072.5, -308608.4, -64412.934, -0.07761868, -0.13783027, -293703.63, -137618.8, 0.0, 9.996896, 10.000384 
1.4150612e+3, 2.9407164e+2, -547799.9, -243244.98, -60870.082, -0.08163781, -0.16535361, -231529.78, -173447.92, 0.0, 9.996377, 10.00041 
1.4150631e+3, 3.040724e+2, -498064.44, -78998.64, -25396.89, -0.082721524, -0.17967913, -77465.11, -77465.11, 0.0, 9.995888, 10.001438 
1.4150654e+3, 3.1407404e+2, -561097.6, -105586.14, -23360.64, -0.07919263, -0.16633642, -104391.234, -104391.234, 0.0, 9.995439, 10.0014715 
1.425047e+3, 1.2408308e+2, -1072243.8, -1686610.5, 15119.351, 0.034899004, -0.004746061, -1071871.9, 652113.0, 0.00027981383, 10.00563, 9.997482 
1.4250486e+3, 1.3408038e+2, -1052337.5, -1614151.8, -14858.257, 0.031057512, -0.032543216, -1051944.9, 574066.7, 0.00014703113, 10.005039, 9.997591 
1.4250498e+3, 1.4407861e+2, -983872.0, -1442064.3, -17597.457, -0.0010816933, -0.005334279, -983197.1, 544831.56, 0.000050005638, 10.004456, 9.998381 
1.4250514e+3, 1.5407689e+2, -964622.75, -1374174.0, -19125.88, -0.0028102533, -0.021690862, -963731.5, 466312.9, 0.0000072681078, 10.0038805, 9.998451 
1.4250527e+3, 1.6407546e+2, -908298.25, -1228429.8, -37150.21, -0.0071447054, -0.03663769, -904043.6, 428013.53, 0.000000038270066, 10.003302, 9.999058 
1.4250538e+3, 1.7407444e+2, -891533.06, -1163570.5, -39140.168, -0.014238886, -0.05005259, -886013.6, 348052.2, 0.0, 10.002718, 9.999112 
1.4250547e+3, 1.8407361e+2, -870435.75, -1092588.8, -53687.09, -0.022363154, -0.050775893, -858141.75, 277932.22, 0.0, 10.002146, 9.999202 
1.4250554e+3, 1.9407296e+2, -852965.75, -1033270.94, -54135.62, -0.032220107, -0.034296222, -837960.56, 200120.95, 0.0, 10.001593, 9.999203 
1.4250559e+3, 2.0407239e+2, -827202.0, -954724.06, -72603.805, -0.04212625, -0.019293614, -794336.0, 145752.31, 0.0, 10.00103, 9.99934 
1.425056e+3, 2.1407185e+2, -812411.3, -896076.75, -74523.89, -0.051838342, -0.007591801, -768781.9, 73312.24, 0.0, 10.000455, 9.999347 
1.4250562e+3, 2.2407126e+2, -782105.7, -814817.7, -83101.836, -0.0568865, -0.009564778, -713765.56, 30334.107, 0.0, 9.999922, 9.999489 
1.4250562e+3, 2.3407054e+2, -752675.5, -749068.2, -81470.375, -0.05529275, -0.031608015, -669381.5, -23276.406, 0.0, 9.999448, 9.9994955 
1.4250562e+3, 2.4406989e+2, -711203.4, -652596.94, -76788.17, -0.056697734, -0.057073873, -599710.75, -51601.184, 0.0, 9.998949, 9.999725 
1.4250562e+3, 2.5406933e+2, -689729.2, -589543.6, -75830.39, -0.06260074, -0.088176936, -548754.44, -98641.68, 0.0, 9.998416, 9.9997425 
1.4250562e+3, 2.64069e+2, -645654.8, -481475.7, -66809.99, -0.06827653, -0.1102837, -457724.47, -105610.62, 0.0, 9.99789, 10.000064 
1.4250565e+3, 2.7406898e+2, -620420.6, -415438.22, -65114.6, -0.07360037, -0.120344795, -396503.06, -142391.03, 0.0, 9.997377, 10.000092 
1.4250569e+3, 2.8406906e+2, -572823.2, -303798.1, -41640.07, -0.0780718, -0.13777067, -297500.4, -141391.0, 0.0, 9.996868, 10.00043 
1.4250578e+3, 2.940692e+2, -546020.94, -236629.16, -39668.582, -0.08131106, -0.16684748, -231624.03, -173518.25, 0.0, 9.996365, 10.000462 
1.425059e+3, 3.0407003e+2, -504247.72, -83072.914, -5848.6094, -0.08083835, -0.17984639, -82991.71, -82991.71, 0.0, 9.99585, 10.001428 
1.425061e+3, 3.1407166e+2, -579365.9, -116251.54, -7190.187, -0.074548155, -0.1615477, -116139.93, -116139.93, 0.0, 9.995321, 10.001454 
1.4350526e+3, 1.2408119e+2, -1075825.9, -1694838.5, -5916.6255, 0.028898433, -0.0015315205, -1075769.4, 648234.8, 0.00033770804, 10.005632, 9.997424 
1.4350536e+3, 1.3407859e+2, -1055113.0, -1620742.1, -36980.863, 0.031626683, -0.014291782, -1052705.4, 573324.3, 0.00018133498, 10.005042, 9.997544 
1.4350544e+3, 1.4407678e+2, -988559.5, -1452527.5, -39139.938, 0.006140626, 0.015303124, -985280.9, 542766.4, 0.000064592525, 10.004457, 9.998308 
1.4350554e+3, 1.5407483e+2, -969524.6, -1385036.9, -40527.11, 0.0061824988, -0.019029606, -965608.7, 464456.7, 0.00001042943, 10.003882, 9.998376 
1.435056e+3, 1.6407327e+2, -911016.9, -1234718.3, -58799.03, -0.002528921, -0.04032644, -900667.2, 431412.25, 0.00000011507874, 10.003304, 9.999014 
1.4350565e+3, 1.7407231e+2, -894025.2, -1169414.3, -60756.92, -0.022670494, -0.043416314, -881216.6, 352871.03, 0.0, 10.00272, 9.999071 
1.4350568e+3, 1.840715e+2, -869949.1, -1092169.6, -74227.62, -0.035894472, -0.038921103, -847435.94, 288659.6, 0.0, 10.002148, 9.999204 
1.4350569e+3, 1.9407085e+2, -852294.7, -1032308.56, -74519.914, -0.039432786, -0.024721881, -825449.3, 212653.78, 0.0, 10.001594, 9.999209 
1.4350569e+3, 2.0407027e+2, -827571.2, -955823.6, -93678.164, -0.040238388, -0.0103529245, -778173.06, 161936.83, 0.0, 10.001031, 9.999332 
1.4350566e+3, 2.1406975e+2, -812918.1, -897467.4, -95636.47, -0.03699864, 0.0032501789, -750629.5, 91486.32, 0.0, 10.000456, 9.999337 
1.4350562e+3, 2.2406915e+2, -777517.9, -805604.6, -100716.62, -0.041297402, 0.00032987684, -689870.3, 54250.957, 0.0, 9.999923, 9.999552 
1.4350556e+3, 2.3406845e+2, -747640.75, -738868.6, -98714.78, -0.056438163, -0.026838198, -644442.5, 1683.6985, 0.0, 9.999449, 9.999566 
1.435055e+3, 2.4406785e+2, -708755.7, -647725.44, -96062.08, -0.06702534, -0.052782364, -577448.25, -29318.238, 0.0, 9.99895, 9.999759 
1.4350544e+3, 2.5406736e+2, -687604.25, -585306.3, -95287.61, -0.07113461, -0.07770181, -528307.44, -78175.14, 0.0, 9.998416, 9.999772 
1.4350541e+3, 2.6406705e+2, -642350.75, -474757.16, -85518.016, -0.073628515, -0.10151988, -438824.13, -86691.0, 0.0, 9.99789, 10.000111 
1.4350536e+3, 2.7406698e+2, -617065.44, -408558.25, -83719.27, -0.07388667, -0.12458412, -379104.22, -124972.336, 0.0, 9.997377, 10.000139 
1.4350536e+3, 2.8406703e+2, -570657.7, -299305.66, -59921.64, -0.07534797, -0.14594215, -286662.5, -130533.41, 0.0, 9.996868, 10.000462 
1.4350541e+3, 2.9406735e+2, -544069.5, -232451.38, -57884.4, -0.07851945, -0.1659401, -222046.52, -163922.34, 0.0, 9.996364, 10.000491 
1.4350548e+3, 3.0406815e+2, -508222.38, -91137.64, -24898.848, -0.08140221, -0.17732112, -89656.51, -89656.51, 0.0, 9.995849, 10.001373 
1.435056e+3, 3.1406963e+2, -584063.6, -125719.45, -26189.988, -0.083197534, -0.1686653, -124227.8, -124227.8, 0.0, 9.99532, 10.00139 
1.4450584e+3, 1.2407992e+2, -1030579.75, -1684246.4, 14356.361, 0.02668298, 0.0068148696, -1030264.6, 693752.8, 0.00040227067, 10.005993, 9.997323 
1.4450589e+3, 1.3407731e+2, -1021734.7, -1614861.5, -21492.377, 0.030357847, 0.0013278307, -1020956.9, 605086.56, 0.0002198914, 10.005317, 9.997453 
1.445059e+3, 1.4407545e+2, -961475.75, -1442895.5, -23209.523, 0.007886841, 0.032743085, -960359.44, 567702.0, 0.00008140943, 10.00466, 9.998277 
1.4450593e+3, 1.5407337e+2, -949749.44, -1378260.1, -20953.89, 0.008365951, -0.00995496, -948727.25, 481353.2, 0.000014412344, 10.004031, 9.99835 
1.4450595e+3, 1.6407178e+2, -895329.8, -1231053.9, -36155.723, -0.0015447186, -0.034815885, -891480.1, 440614.78, 0.0000002678686, 10.003429, 9.998979 
1.4450592e+3, 1.7407082e+2, -875644.9, -1164596.6, -37856.72, -0.025185809, -0.03461514, -870767.5, 363335.88, 0.0, 10.002864, 9.999034 
1.445059e+3, 1.8406999e+2, -854258.44, -1084966.5, -52769.332, -0.038757913, -0.02773738, -842761.56, 293349.72, 0.0, 10.002257, 9.9992 
1.4450586e+3, 1.9406936e+2, -852629.25, -1032493.4, -53836.836, -0.03813781, -0.012528822, -837746.4, 200372.38, 0.0, 10.001592, 9.999208 
1.445058e+3, 2.0406874e+2, -837086.3, -961480.4, -71945.28, -0.036206245, 0.0002050984, -804180.25, 135945.44, 0.0, 10.000971, 9.999323 
1.4450571e+3, 2.1406816e+2, -820075.8, -902171.6, -74011.13, -0.032278597, 0.008480367, -776491.7, 65640.45, 0.0, 10.000413, 9.999326 
1.4450562e+3, 2.2406757e+2, -780059.25, -801608.7, -76966.61, -0.03760775, 0.0041578114, -713116.8, 31020.678, 0.0, 9.999884, 9.9995985 
1.4450549e+3, 2.3406695e+2, -752098.5, -735203.6, -76140.836, -0.056245506, -0.018863166, -667043.06, -20901.586, 0.0, 9.999393, 9.999618 
1.4450538e+3, 2.440664e+2, -715521.4, -647774.75, -76096.51, -0.06864892, -0.043502025, -598352.94, -50208.203, 0.0, 9.99889, 9.999787 
1.4450529e+3, 2.5406593e+2, -693062.6, -585050.0, -75890.59, -0.07211584, -0.071172416, -545910.9, -95763.945, 0.0, 9.998366, 9.999797 
1.4450519e+3, 2.6406565e+2, -645388.06, -471153.8, -65825.89, -0.07532327, -0.09799506, -449081.0, -96933.44, 0.0, 9.997848, 10.000155 
1.445051e+3, 2.7406555e+2, -619588.7, -404521.28, -64112.223, -0.07824602, -0.124428324, -386859.66, -132713.6, 0.0, 9.997337, 10.000186 
1.4450505e+3, 2.8406566e+2, -576616.25, -299006.7, -40965.67, -0.07977938, -0.14510266, -293087.78, -136945.0, 0.0, 9.996814, 10.00049 
1.4450504e+3, 2.9406607e+2, -555790.6, -235193.84, -39335.42, -0.079340264, -0.1586027, -230438.14, -172301.08, 0.0, 9.996271, 10.000516 
1.4450507e+3, 3.040669e+2, -522746.88, -94639.97, -3904.1543, -0.082348235, -0.17100796, -94604.37, -94604.37, 0.0, 9.995734, 10.001404 
1.4450513e+3, 3.1406826e+2, -598011.2, -128966.1, 1674.6525, -0.0895706, -0.17476107, -128960.125, -128960.125, 0.0, 9.99521, 10.001421 
1.4550644e+3, 1.2407928e+2, -1040456.2, -1705488.6, -9714.945, 0.028033134, 0.020083748, -1040314.3, 683710.44, 0.00047332354, 10.005996, 9.997176 
1.4550641e+3, 1.3407652e+2, -1031054.25, -1635093.3, -46761.797, 0.027265243, 0.014362571, -1027455.6, 598597.06, 0.00026260226, 10.005321, 9.997313 
1.4550637e+3, 1.440746e+2, -960567.75, -1441868.3, -46782.74, 0.004269178, 0.047031783, -956062.6, 572008.8, 0.000100385, 10.0046625, 9.998282 
1.4550634e+3, 1.5407255e+2, -947821.4, -1375087.1, -44305.867, 0.0038804617, 0.005384685, -943275.4, 486814.2, 0.00001924068, 10.004034, 9.998371 
1.455063e+3, 1.6407093e+2, -897042.1, -1235342.8, -57309.734, -0.004127049, -0.020304505, -887597.25, 444506.7, 0.0000005217696, 10.003431, 9.998948 
1.4550622e+3, 1.740699e+2, -877824.94, -1169695.0, -58719.758, -0.021949023, -0.023693636, -866454.44, 367658.72, 0.0, 10.002866, 9.998999 
1.4550613e+3, 1.8406907e+2, -854834.9, -1086655.6, -77068.66, -0.031228812, -0.017206151, -831551.9, 304569.53, 0.0, 10.002259, 9.999188 
1.4550602e+3, 1.9406845e+2, -853021.06, -1033856.2, -78462.164, -0.028547576, 0.0022211121, -823723.8, 214404.88, 0.0, 10.001594, 9.999199 
1.4550589e+3, 2.0406781e+2, -837772.25, -963470.75, -92792.445, -0.0300832, 0.012340373, -788548.0, 151587.88, 0.0, 10.000973, 9.999309 
1.4550576e+3, 2.1406707e+2, -820844.5, -904335.5, -94430.12, -0.037455928, 0.008225713, -759344.06, 82799.336, 0.0, 10.000415, 9.9993105 
1.4550559e+3, 2.2406648e+2, -777825.8, -797466.25, -95050.32, -0.045573454, 0.002048876, -692089.75, 52058.965, 0.0, 9.999885, 9.999626 
1.4550543e+3, 2.3406604e+2, -749666.25, -730497.4, -93976.195, -0.054756552, -0.007766334, -645618.2, 533.1283, 0.0, 9.999394, 9.99965 
1.4550528e+3, 2.4406554e+2, -713911.2, -644660.06, -95048.91, -0.06176312, -0.029346, -578126.25, -29972.277, 0.0, 9.99889, 9.999809 
1.4550513e+3, 2.5406498e+2, -691606.25, -582174.5, -94927.54, -0.06572163, -0.06850508, -527322.75, -77165.766, 0.0, 9.998366, 9.999817 
1.4550498e+3, 2.6406467e+2, -642390.2, -465013.0, -84380.59, -0.0734628, -0.09961013, -431285.3, -79127.71, 0.0, 9.997848, 10.000198 
1.4550483e+3, 2.740647e+2, -616491.0, -398110.13, -82598.21, -0.08663058, -0.11997584, -370388.1, -116233.14, 0.0, 9.997337, 10.000231 
1.4550473e+3, 2.840649e+2, -575051.5, -295712.53, -60556.97, -0.0912726, -0.13543305, -283149.6, -126998.71, 0.0, 9.996813, 10.000513 
1.4550467e+3, 2.9406533e+2, -554475.94, -232327.19, -59004.465, -0.0837581, -0.14497203, -221860.08, -163715.19, 0.0, 9.99627, 10.000537 
1.4550464e+3, 3.0406618e+2, -515132.53, -78566.68, -22963.654, -0.08371649, -0.16100769, -77362.1, -77362.1, 0.0, 9.995732, 10.001515 
1.4550465e+3, 3.1406754e+2, -589974.4, -111712.45, -17219.639, -0.093760796, -0.17994882, -111093.266, -111093.266, 0.0, 9.995207, 10.001541 
1.4650705e+3, 1.24079235e+2, -1010417.44, -1702269.3, 14117.571, 0.026998468, 0.030365104, -1010129.5, 713896.5, 0.00055069494, 10.006252, 9.997074 
1.4650697e+3, 1.3407639e+2, -997440.3, -1629231.5, -20831.934, 0.02400469, 0.02476656, -996754.2, 629301.0, 0.0003094277, 10.005597, 9.997219 
1.4650683e+3, 1.440744e+2, -923824.9, -1428917.3, -20145.262, 0.0020647175, 0.057747643, -923022.7, 605051.94, 0.000121463636, 10.004936, 9.998239 
1.4650676e+3, 1.5407231e+2, -916035.4, -1364038.5, -22138.656, 0.0011413221, 0.014594555, -914944.06, 515148.94, 0.000024914088, 10.0042715, 9.998332 
1.4650664e+3, 1.6407065e+2, -873351.6, -1225977.1, -36406.695, -0.005714714, -0.011732861, -869632.06, 462475.53, 0.0000009064183, 10.003604, 9.998929 
1.465065e+3, 1.7406961e+2, -869491.75, -1167552.3, -36544.836, -0.019955913, -0.014522714, -865076.44, 369040.6, 0.0, 10.002933, 9.9989805 
1.4650635e+3, 1.8406875e+2, -853970.8, -1089499.4, -55804.54, -0.027664293, -0.005570554, -841417.9, 294707.56, 0.0, 10.00228, 9.999158 
1.4650619e+3, 1.9406818e+2, -846240.0, -1034048.06, -59016.566, -0.026317209, 0.01897703, -829234.5, 208898.17, 0.0, 10.001656, 9.9991665 
1.4650601e+3, 2.040675e+2, -822821.7, -954964.44, -70061.6, -0.028809344, 0.0272699, -792591.2, 147548.94, 0.0, 10.00107, 9.99932 
1.465058e+3, 2.1406667e+2, -801870.3, -893432.2, -69228.31, -0.03657091, 0.011374355, -764654.56, 77493.47, 0.0, 10.000538, 9.999326 
1.465056e+3, 2.2406603e+2, -764554.9, -792982.6, -70034.85, -0.044957057, 0.0026633264, -707306.06, 36847.414, 0.0, 9.999985, 9.999609 
1.4650539e+3, 2.3406568e+2, -750314.8, -733073.5, -72964.99, -0.054214306, 0.0036022165, -668221.7, -22066.066, 0.0, 9.9994, 9.999629 
1.4650516e+3, 2.4406523e+2, -719736.94, -641989.8, -75441.6, -0.06139227, -0.014926453, -595995.3, -47837.33, 0.0, 9.998827, 9.999858 
1.4650495e+3, 2.5406465e+2, -701631.1, -580751.8, -72824.46, -0.06567055, -0.062157664, -546553.5, -96392.586, 0.0, 9.998271, 9.999873 
1.4650474e+3, 2.6406434e+2, -657789.5, -469690.56, -60678.258, -0.07397226, -0.09771617, -451815.25, -99653.93, 0.0, 9.99773, 10.000222 
1.4650455e+3, 2.7406436e+2, -633182.3, -403806.47, -60686.926, -0.08805236, -0.11726585, -388739.94, -134581.55, 0.0, 9.997212, 10.000252 
1.4650439e+3, 2.8406465e+2, -594357.3, -304238.63, -41591.21, -0.09327514, -0.13007382, -298393.88, -142239.81, 0.0, 9.996677, 10.00052 
1.4650428e+3, 2.9406512e+2, -576372.3, -242298.13, -41452.74, -0.085851386, -0.13440007, -237231.4, -179083.44, 0.0, 9.996118, 10.000542 
1.465042e+3, 3.0406603e+2, -539716.0, -79225.625, -8005.5938, -0.08653972, -0.14803424, -79086.49, -79086.49, 0.0, 9.995517, 10.001615 
1.4650415e+3, 3.1406748e+2, -632850.06, -120147.67, -3370.7632, -0.09825563, -0.16909197, -120125.51, -120125.51, 0.0, 9.994861, 10.00165 
1.4750768e+3, 1.2407979e+2, -1014249.3, -1711017.3, -9270.276, 0.023548167, 0.037704315, -1014125.94, 709895.25, 0.00063421775, 10.006255, 9.997013 
1.475075e+3, 1.3407691e+2, -1000487.3, -1636446.1, -45326.64, 0.020555384, 0.032589544, -997273.0, 628778.0, 0.00036037283, 10.0056, 9.997169 
1.4750732e+3, 1.4407484e+2, -930016.3, -1442603.8, -44887.59, 0.0012189964, 0.06496983, -926115.2, 601956.06, 0.00014464086, 10.00494, 9.998144 
1.4750718e+3, 1.540726e+2, -922607.4, -1378486.4, -46802.074, 0.00008460788, 0.017824303, -917852.06, 512238.8, 0.00003144111, 10.004274, 9.998232 
1.47507e+3, 1.6407089e+2, -873691.4, -1227459.0, -61249.73, -0.0063439934, -0.008952126, -863387.0, 468719.13, 0.0000014552678, 10.003607, 9.998918 
1.475068e+3, 1.7406988e+2, -869221.3, -1167767.5, -61386.38, -0.019179568, -0.00706234, -857091.94, 377023.25, 0.0, 10.002934, 9.998979 
1.4750658e+3, 1.8406907e+2, -857042.2, -1096616.3, -79013.31, -0.027974263, 0.007137279, -833329.94, 302793.6, 0.0, 10.002282, 9.999108 
1.4750634e+3, 1.9406849e+2, -849709.4, -1041958.9, -82014.9, -0.031283136, 0.037700742, -819475.9, 218655.22, 0.0, 10.001658, 9.999112 
1.475061e+3, 2.040678e+2, -820119.4, -949945.4, -89879.625, -0.03228974, 0.04494178, -774162.9, 165975.72, 0.0, 10.001072, 9.999353 
1.4750586e+3, 2.140669e+2, -798676.7, -887199.5, -88679.15, -0.029782737, 0.017851155, -743826.75, 98319.68, 0.0, 10.000539, 9.999368 
1.475056e+3, 2.2406623e+2, -768868.7, -802221.8, -91280.766, -0.035962213, 0.005945138, -692753.6, 51398.395, 0.0, 9.999986, 9.999545 
1.4750533e+3, 2.3406588e+2, -755433.9, -743984.1, -94355.586, -0.054602556, 0.0152493045, -655179.9, -9025.116, 0.0, 9.9994, 9.999555 
1.4750504e+3, 2.4406545e+2, -714428.75, -631258.75, -95798.7, -0.06740613, -0.0002424327, -568408.56, -20251.475, 0.0, 9.998827, 9.999931 
1.4750478e+3, 2.540649e+2, -695282.94, -567860.4, -93060.19, -0.07184591, -0.05221036, -518791.66, -68632.59, 0.0, 9.998271, 9.999962 
1.4750452e+3, 2.6406458e+2, -657397.0, -469102.28, -79581.45, -0.07682591, -0.09239538, -439973.8, -87814.66, 0.0, 9.997731, 10.000227 
1.4750428e+3, 2.7406457e+2, -633517.2, -404581.97, -79408.67, -0.08267082, -0.11629604, -379734.94, -125578.21, 0.0, 9.997212, 10.000246 
1.4750408e+3, 2.8406483e+2, -595245.0, -306046.7, -61742.453, -0.086000934, -0.12898563, -293416.56, -137263.84, 0.0, 9.996676, 10.000508 
1.475039e+3, 2.9406536e+2, -577394.44, -244302.86, -61705.996, -0.085725404, -0.12687026, -233239.16, -175092.45, 0.0, 9.996117, 10.000529 
1.4750373e+3, 3.0406645e+2, -533906.44, -66973.71, -31576.104, -0.09085134, -0.1321808, -64848.07, -64848.07, 0.0, 9.995515, 10.0017 
1.4750363e+3, 3.1406805e+2, -626500.94, -106588.73, -27177.465, -0.10308051, -0.1426992, -105171.94, -105171.94, 0.0, 9.994858, 10.001744 
1.4850831e+3, 1.2408097e+2, -981902.75, -1704659.3, 13426.639, 0.021851372, 0.043784145, -981653.44, 742356.94, 0.00072358747, 10.006519, 9.996929 
1.4850809e+3, 1.3407809e+2, -969119.2, -1629452.8, -25617.102, 0.017018389, 0.046124637, -968126.9, 657913.75, 0.0004153691, 10.005852, 9.997094 
1.4850782e+3, 1.4407597e+2, -897168.44, -1428273.9, -24202.871, -0.0010142567, 0.07929789, -896067.8, 631993.44, 0.00016993914, 10.005173, 9.99813 
1.4850761e+3, 1.5407364e+2, -893788.75, -1365490.3, -19619.744, -0.0030172074, 0.022445183, -892974.06, 537107.44, 0.00003884428, 10.0044775, 9.998223 
1.4850736e+3, 1.6407186e+2, -850733.8, -1222113.3, -31680.129, -0.009062718, -0.0068835057, -848050.75, 484046.3, 0.000002202006, 10.00379, 9.998866 
1.485071e+3, 1.7407088e+2, -847222.5, -1163482.8, -35923.6, -0.019671053, 0.0026968447, -843193.3, 390912.94, 0.0, 10.003114, 9.998921 
1.4850682e+3, 1.8407004e+2, -837357.8, -1095429.5, -55290.215, -0.027625833, 0.021008266, -826011.1, 310103.97, 0.0, 10.002454, 9.999034 
1.4850652e+3, 1.9406937e+2, -832101.2, -1042068.7, -59916.62, -0.03210027, 0.050509512, -816206.56, 221917.17, 0.0, 10.001817, 9.999034 
1.4850621e+3, 2.0406863e+2, -803463.44, -938360.1, -67707.02, -0.032234468, 0.056306254, -775342.3, 164789.25, 0.0, 10.001171, 9.999385 
1.4850591e+3, 2.1406774e+2, -799402.0, -882806.75, -66558.17, -0.025946407, 0.027225424, -762560.94, 79577.68, 0.0, 10.000514, 9.99941 
1.4850558e+3, 2.2406708e+2, -784081.2, -813627.75, -67571.016, -0.030979734, 0.013178571, -729687.3, 14456.821, 0.0, 9.999899, 9.999509 
1.4850526e+3, 2.3406665e+2, -767008.0, -754602.3, -68524.89, -0.05227136, 0.020182634, -692000.06, -45852.168, 0.0, 9.999343, 9.999509 
1.4850491e+3, 2.4406622e+2, -715314.6, -627104.1, -68939.625, -0.06793982, 0.0048322235, -589368.44, -41217.992, 0.0, 9.998802, 9.999971 
1.485046e+3, 2.5406575e+2, -690486.4, -560014.3, -69137.336, -0.07550431, -0.043558985, -530194.0, -80042.555, 0.0, 9.9982815, 10.0000105 
1.485043e+3, 2.640655e+2, -657736.75, -466051.75, -57821.195, -0.0806215, -0.082430296, -449960.88, -97810.01, 0.0, 9.997715, 10.000255 
1.48504e+3, 2.740655e+2, -650260.6, -409754.1, -55664.28, -0.082341656, -0.10826008, -397495.63, -143347.27, 0.0, 9.997086, 10.000272 
1.4850374e+3, 2.8406572e+2, -623655.2, -320191.2, -36187.18, -0.08411821, -0.12183458, -315935.66, -159791.2, 0.0, 9.996484, 10.000504 
1.485035e+3, 2.9406628e+2, -606063.75, -259012.73, -35893.652, -0.08600733, -0.119066305, -255339.33, -197200.52, 0.0, 9.995924, 10.00052 
1.4850329e+3, 3.0406737e+2, -556336.75, -70091.96, -9479.864, -0.09474307, -0.12159616, -69907.21, -69907.21, 0.0, 9.995329, 10.001768 
1.485031e+3, 3.1406915e+2, -646572.1, -107768.98, -6960.4414, -0.112598285, -0.12679164, -107679.08, -107679.08, 0.0, 9.994684, 10.00182 
1.4950895e+3, 1.24082744e+2, -989064.56, -1720283.0, -10389.67, 0.021723947, 0.048540443, -988916.94, 735076.75, 0.0008183717, 10.006522, 9.996821 
1.4950867e+3, 1.3407989e+2, -975592.2, -1643785.1, -50462.65, 0.01337421, 0.06517893, -971802.7, 654221.44, 0.0004742425, 10.005856, 9.996995 
1.4950834e+3, 1.440778e+2, -892361.75, -1419171.5, -49954.242, -0.0046065897, 0.10049829, -887666.7, 640378.1, 0.00019736915, 10.005176, 9.998191 
1.4950804e+3, 1.5407538e+2, -887866.94, -1354085.0, -45462.152, -0.008121379, 0.02839924, -883475.2, 546589.9, 0.000047125694, 10.00448, 9.998301 
1.4950775e+3, 1.6407354e+2, -856893.0, -1235734.3, -56827.87, -0.013822058, -0.0055132248, -848552.2, 483528.6, 0.0000031718967, 10.003793, 9.998772 
1.495074e+3, 1.7407256e+2, -854730.7, -1179792.3, -60937.65, -0.021414261, 0.014704161, -843682.5, 390407.94, 0.0, 10.003117, 9.998809 
1.4950706e+3, 1.8407165e+2, -844182.06, -1110219.1, -78939.836, -0.026661096, 0.03603808, -822522.1, 313578.28, 0.0, 10.002456, 9.998932 
1.495067e+3, 1.940708e+2, -838895.8, -1056742.9, -83357.82, -0.028890472, 0.05757001, -810659.3, 227451.56, 0.0, 10.001819, 9.998933 
1.4950633e+3, 2.0406999e+2, -801336.2, -934501.9, -91812.266, -0.028743295, 0.061532345, -754504.9, 185614.39, 0.0, 10.001173, 9.999411 
1.4950597e+3, 2.1406923e+2, -796330.1, -877055.2, -90718.836, -0.02500462, 0.03945123, -737399.94, 104724.94, 0.0, 10.000516, 9.999449 
1.4950559e+3, 2.2406854e+2, -784721.4, -815522.0, -88223.695, -0.0299364, 0.024290055, -710563.94, 33566.277, 0.0, 9.999901, 9.9994955 
1.495052e+3, 2.3406798e+2, -768185.9, -757424.25, -88776.95, -0.04729104, 0.01854533, -673865.2, -27729.836, 0.0, 9.999344, 9.999489 
1.4950481e+3, 2.4406752e+2, -714808.1, -626289.75, -87977.25, -0.06311922, 0.0004886644, -572066.06, -23927.814, 0.0, 9.998802, 9.999977 
1.4950444e+3, 2.5406718e+2, -689898.4, -558938.5, -88025.06, -0.07671873, -0.03618542, -514709.6, -64571.297, 0.0, 9.9982815, 10.000018 
1.4950405e+3, 2.6406702e+2, -654244.5, -458920.88, -80410.39, -0.08536924, -0.06791968, -430077.13, -77940.21, 0.0, 9.997715, 10.000304 
1.495037e+3, 2.7406707e+2, -646502.0, -402095.75, -78611.75, -0.08700304, -0.09330785, -378994.34, -124860.625, 0.0, 9.997086, 10.000325 
1.4950338e+3, 2.8406733e+2, -623687.1, -320346.03, -56698.984, -0.08758017, -0.108771116, -310094.6, -153964.88, 0.0, 9.996484, 10.000503 
1.4950308e+3, 2.9406783e+2, -606611.2, -260099.34, -56099.133, -0.0867381, -0.111065626, -251243.42, -193118.66, 0.0, 9.995923, 10.000513 
1.4950281e+3, 3.0406892e+2, -553131.9, -63254.26, -32563.734, -0.098270744, -0.116286695, -61099.125, -61099.125, 0.0, 9.995327, 10.001817 
1.4950255e+3, 3.1407073e+2, -643174.6, -100270.62, -30251.883, -0.12681238, -0.12137055, -98590.12, -98590.12, 0.0, 9.994682, 10.001873 
1.5050963e+3, 1.2408521e+2, -962705.8, -1718702.3, 15785.044, 0.02119212, 0.055102233, -962376.4, 761593.6, 0.00091823546, 10.006753, 9.99672 
1.5050925e+3, 1.3408224e+2, -946702.1, -1640071.0, -24938.969, 0.010263006, 0.06935441, -945806.3, 680195.6, 0.0005368425, 10.006099, 9.996902 
1.5050888e+3, 1.440801e+2, -855023.94, -1398916.9, -27052.924, -0.006894312, 0.10603612, -853681.7, 674341.3, 0.00022692082, 10.005424, 9.99821 
1.5050851e+3, 1.5407778e+2, -851300.0, -1333030.5, -26344.47, -0.011396758, 0.039982278, -849863.56, 580178.5, 0.00005623672, 10.004718, 9.99833 
1.5050814e+3, 1.6407597e+2, -832731.3, -1232680.1, -39508.754, -0.01663925, 0.008823245, -828865.8, 503191.9, 0.00000436815, 10.003996, 9.998693 
1.5050773e+3, 1.7407487e+2, -841010.0, -1183009.9, -42043.168, -0.021682998, 0.026979733, -835917.3, 398151.28, 0.000000000000009480044, 10.003253, 9.99872 
1.5050732e+3, 1.8407385e+2, -835296.6, -1110942.6, -55467.793, -0.02541595, 0.04434874, -824553.6, 311525.97, 0.0, 10.002539, 9.998886 
1.505069e+3, 1.9407289e+2, -835008.06, -1059388.8, -55380.51, -0.027639955, 0.059245653, -822083.75, 216007.31, 0.0, 10.001865, 9.998892 
1.5050645e+3, 2.0407206e+2, -794140.25, -931791.0, -61534.125, -0.028571304, 0.062811576, -770643.5, 169456.17, 0.0, 10.001226, 9.999403 
1.5050602e+3, 2.1407136e+2, -779069.75, -869112.8, -63605.605, -0.027450193, 0.04927272, -746164.3, 95940.17, 0.0, 10.000637, 9.999445 
1.5050557e+3, 2.240707e+2, -768705.6, -808074.5, -62399.26, -0.032856617, 0.035230476, -722959.56, 21150.084, 0.0, 10.000012, 9.999492 
1.5050513e+3, 2.3407003e+2, -769528.9, -758360.1, -61884.438, -0.047602903, 0.019920576, -701808.6, -55693.04, 0.0, 9.999336, 9.999486 
1.505047e+3, 2.4406953e+2, -729668.0, -633357.0, -58483.94, -0.06204478, -0.0010188478, -605754.2, -57635.375, 0.0, 9.998701, 9.999977 
1.5050425e+3, 2.5406927e+2, -713173.5, -570095.5, -59038.8, -0.076042995, -0.030930575, -548879.94, -98761.46, 0.0, 9.998121, 10.000018 
1.5050381e+3, 2.6406914e+2, -677241.75, -467914.38, -54571.324, -0.08568049, -0.057329178, -454541.97, -102425.305, 0.0, 9.997549, 10.000322 
1.5050341e+3, 2.7406928e+2, -659871.1, -406334.72, -55634.555, -0.08912426, -0.07954917, -394663.8, -140550.73, 0.0, 9.996985, 10.000343 
1.5050301e+3, 2.8406954e+2, -636985.4, -323137.6, -34814.406, -0.090770766, -0.095224105, -319322.1, -163213.2, 0.0, 9.996378, 10.000534 
1.5050267e+3, 2.9407004e+2, -635560.56, -270377.03, -31569.049, -0.08993888, -0.10247897, -267668.1, -209564.03, 0.0, 9.995709, 10.0005455 
1.5050232e+3, 3.0407116e+2, -591122.0, -71931.97, -7464.1323, -0.10121639, -0.10974761, -71824.69, -71824.69, 0.0, 9.995026, 10.001902 
1.50502e+3, 3.140731e+2, -689377.0, -112377.695, -2752.7551, -0.1291999, -0.113231644, -112364.56, -112364.56, 0.0, 9.994322, 10.001963 
1.515103e+3, 1.2408835e+2, -968874.7, -1732559.6, -7601.141, 0.02018876, 0.063311726, -968799.0, 755140.5, 0.0010231326, 10.006758, 9.996623 
1.5150987e+3, 1.3408512e+2, -952324.6, -1652786.1, -49201.46, 0.0076449118, 0.05911762, -948885.5, 677088.6, 0.00060315203, 10.0061035, 9.996814 
1.515094e+3, 1.4408293e+2, -856220.0, -1402306.3, -53026.645, -0.007937019, 0.09641383, -851118.56, 676877.25, 0.0002585929, 10.005427, 9.998186 
1.5150897e+3, 1.5408084e+2, -852165.56, -1335662.9, -52519.156, -0.012918525, 0.05702793, -846526.5, 583486.4, 0.00006608946, 10.004721, 9.998311 
1.5150853e+3, 1.6407908e+2, -836752.0, -1241818.1, -66916.33, -0.01758819, 0.03573092, -825983.8, 506044.3, 0.000005767639, 10.003999, 9.998631 
1.5150806e+3, 1.740778e+2, -845347.8, -1192806.5, -69503.43, -0.02052749, 0.03951077, -831960.56, 402080.38, 0.00000000044431617, 10.003256, 9.9986515 
1.5150757e+3, 1.840766e+2, -834344.7, -1109729.4, -80538.31, -0.02390545, 0.04613596, -812520.25, 323532.88, 0.0, 10.002542, 9.998894 
1.5150708e+3, 1.9407563e+2, -833542.94, -1057084.9, -80202.97, -0.02830594, 0.055690546, -807744.8, 230319.67, 0.0, 10.001867, 9.998907 
1.5150657e+3, 2.0407479e+2, -796759.56, -937852.4, -83456.76, -0.03164757, 0.06025681, -758027.3, 182045.67, 0.0, 10.001228, 9.999361 
1.5150608e+3, 2.1407416e+2, -782267.2, -876171.4, -85203.83, -0.033223707, 0.056762032, -731935.2, 110142.555, 0.0, 10.000638, 9.999396 
1.5150556e+3, 2.2407348e+2, -768191.06, -807340.25, -86928.555, -0.039672107, 0.04601428, -698660.44, 45422.52, 0.0, 10.000013, 9.999497 
1.5150505e+3, 2.3407277e+2, -768638.75, -756896.5, -86701.65, -0.053109147, 0.024251213, -675867.44, -29778.457, 0.0, 9.999337, 9.999496 
1.5150455e+3, 2.4407224e+2, -730066.75, -634548.5, -79922.555, -0.064652875, 0.00024963383, -589202.56, -41110.21, 0.0, 9.998701, 9.9999695 
1.5150407e+3, 2.5407198e+2, -713830.3, -571723.4, -80103.76, -0.07351677, -0.027773235, -535701.1, -85608.87, 0.0, 9.998122, 10.000007 
1.5150358e+3, 2.640719e+2, -678326.1, -470338.6, -75081.69, -0.081643924, -0.050614826, -446067.16, -93976.56, 0.0, 9.997549, 10.000306 
1.515031e+3, 2.7407205e+2, -661114.2, -408991.88, -76036.88, -0.08877637, -0.06700011, -387835.44, -133748.53, 0.0, 9.9969845, 10.000326 
1.5150265e+3, 2.8407237e+2, -632817.6, -314502.63, -58774.566, -0.09373905, -0.08124712, -303997.03, -147914.6, 0.0, 9.996377, 10.000594 
1.5150224e+3, 2.9407287e+2, -630922.44, -260729.16, -55851.28, -0.095615506, -0.093366526, -252486.38, -194409.22, 0.0, 9.995708, 10.000612 
1.5150182e+3, 3.0407408e+2, -582889.06, -54779.01, -32919.86, -0.103618935, -0.10206125, -52734.855, -52734.855, 0.0, 9.995025, 10.00202 
1.5150145e+3, 3.1407616e+2, -680946.2, -94646.086, -28273.3, -0.11997475, -0.10253997, -93285.81, -93285.81, 0.0, 9.99432, 10.002086 
1.5251099e+3, 1.2409219e+2, -920127.6, -1714086.1, 17730.016, 0.011258335, 0.074243076, -919731.94, 804170.5, 0.0011330281, 10.007116, 9.996577 
1.5251048e+3, 1.3408875e+2, -910927.56, -1636711.8, -21183.459, 0.00052470586, 0.054294284, -910309.8, 715628.56, 0.0006731202, 10.006406, 9.9967785 
1.5250996e+3, 1.4408651e+2, -824545.25, -1394421.1, -26086.48, -0.010957903, 0.08954347, -823353.6, 704607.1, 0.00029232795, 10.005677, 9.998119 
1.5250947e+3, 1.5408452e+2, -827762.44, -1331739.4, -29688.756, -0.0151166525, 0.06687924, -826019.5, 603957.94, 0.00007657801, 10.004923, 9.99824 
1.5250893e+3, 1.6408277e+2, -812810.94, -1231937.4, -45179.59, -0.018858403, 0.050242193, -807996.1, 523996.7, 0.0000073321153, 10.004171, 9.998615 
1.525084e+3, 1.7408133e+2, -821736.1, -1182522.3, -43729.05, -0.020659156, 0.041362856, -816511.6, 417495.0, 0.0000000033944052, 10.003424, 9.998641 
1.5250784e+3, 1.8408008e+2, -813273.75, -1102470.9, -51583.656, -0.024114387, 0.041843813, -804348.3, 331670.94, 0.0, 10.0027, 9.998867 
1.5250726e+3, 1.9407909e+2, -815159.2, -1051352.5, -54344.79, -0.03033869, 0.054634303, -803255.1, 234775.39, 0.0, 10.0020075, 9.9988785 
1.5250671e+3, 2.0407824e+2, -789050.8, -939654.8, -58801.777, -0.03409485, 0.063198745, -768812.06, 171227.16, 0.0, 10.001306, 9.999311 
1.5250614e+3, 2.140776e+2, -793395.7, -887381.9, -60932.527, -0.03406143, 0.06473975, -763439.94, 78604.43, 0.0, 10.000587, 9.999343 
1.5250556e+3, 2.2407694e+2, -781998.5, -812658.56, -62376.54, -0.039861955, 0.053888384, -733095.8, 10954.018, 0.0, 9.999913, 9.999509 
1.52505e+3, 2.3407616e+2, -772655.06, -756822.1, -61738.547, -0.054066706, 0.02469161, -702494.56, -56438.598, 0.0, 9.999302, 9.999514 
1.5250441e+3, 2.4407563e+2, -734139.44, -637727.2, -53781.98, -0.06621182, -0.00073820574, -613709.1, -65649.78, 0.0, 9.99868, 9.999958 
1.5250386e+3, 2.540754e+2, -726854.1, -579618.1, -54353.297, -0.07541993, -0.021581963, -561727.2, -111667.99, 0.0, 9.99804, 9.999991 
1.5250333e+3, 2.6407537e+2, -699562.56, -477097.66, -48361.938, -0.08261812, -0.040692102, -467039.0, -114981.64, 0.0, 9.997389, 10.000336 
1.5250279e+3, 2.7407557e+2, -697176.7, -422420.22, -45680.633, -0.08704261, -0.058332562, -415024.5, -160971.02, 0.0, 9.996721, 10.0003605 
1.5250227e+3, 2.8407586e+2, -674765.7, -326523.53, -27789.967, -0.09247342, -0.07539249, -324319.8, -168271.11, 0.0, 9.996055, 10.000667 
1.5250178e+3, 2.9407638e+2, -671887.94, -271898.78, -24583.21, -0.09931379, -0.09250721, -270393.56, -212350.66, 0.0, 9.995392, 10.000688 
1.525013e+3, 3.0407766e+2, -626564.7, -67615.56, -5261.703, -0.10769821, -0.100381546, -67566.03, -67566.03, 0.0, 9.994691, 10.002092 
1.5250085e+3, 3.1407994e+2, -731993.3, -111171.15, -4878.3916, -0.11791884, -0.09227931, -111132.81, -111132.81, 0.0, 9.993937, 10.002157 
1.5351169e+3, 1.2409673e+2, -919719.06, -1714092.0, -7647.7476, -0.0053653657, 0.08769535, -919645.44, 804213.3, 0.0012475285, 10.00712, 9.996575 
1.535111e+3, 1.3409317e+2, -909644.1, -1634940.1, -47555.84, -0.010932387, 0.05465442, -906539.3, 719355.7, 0.00074642786, 10.00641, 9.996789 
1.5351053e+3, 1.4409083e+2, -831836.4, -1410403.1, -53895.707, -0.01589402, 0.08530155, -826858.6, 701059.4, 0.00032791452, 10.00568, 9.998009 
1.5350994e+3, 1.540888e+2, -835938.56, -1349591.3, -57629.23, -0.017978974, 0.06977706, -829552.25, 600383.75, 0.00008758324, 10.004926, 9.9981165 
1.5350935e+3, 1.6408697e+2, -810389.06, -1227736.9, -72822.48, -0.020450322, 0.05277571, -798047.4, 533904.75, 0.000009022446, 10.004173, 9.998643 
1.5350872e+3, 1.7408547e+2, -818323.4, -1176173.6, -71327.76, -0.022050288, 0.03287898, -804630.1, 429335.75, 0.000000011265032, 10.003426, 9.998685 
1.5350811e+3, 1.8408419e+2, -817300.94, -1111490.9, -77255.07, -0.02601278, 0.03166512, -798247.56, 337730.88, 0.0, 10.002702, 9.998805 
1.5350747e+3, 1.9408326e+2, -819970.94, -1061965.8, -79797.75, -0.033718422, 0.056028064, -796026.8, 241962.81, 0.0, 10.002009, 9.998805 
1.5350683e+3, 2.0408241e+2, -792966.56, -948420.25, -85156.57, -0.035940133, 0.0715048, -755397.7, 184600.92, 0.0, 10.0013075, 9.99925 
1.535062e+3, 2.1408172e+2, -797199.1, -895995.56, -87360.43, -0.03008807, 0.07319023, -746237.8, 95766.82, 0.0, 10.000589, 9.999284 
1.5350556e+3, 2.2408098e+2, -780652.0, -810519.7, -85091.43, -0.03358791, 0.058907513, -709193.9, 34816.8, 0.0, 9.999915, 9.999522 
1.5350492e+3, 2.3408014e+2, -770936.6, -753690.94, -84039.625, -0.05058331, 0.021312393, -677832.94, -31816.03, 0.0, 9.999303, 9.999535 
1.5350428e+3, 2.440796e+2, -735311.44, -640451.56, -77033.68, -0.06676464, -0.0039448277, -597417.2, -49396.996, 0.0, 9.99868, 9.999939 
1.5350366e+3, 2.540795e+2, -728386.75, -583017.3, -77681.56, -0.08171215, -0.012416174, -549318.3, -99298.71, 0.0, 9.99804, 9.999969 
1.5350306e+3, 2.640795e+2, -694424.1, -466621.44, -72643.914, -0.088549495, -0.027635721, -445427.78, -93410.39, 0.0, 9.997389, 10.000408 
1.5350246e+3, 2.7407968e+2, -691389.56, -410582.47, -70026.86, -0.08395088, -0.053542588, -394088.22, -140074.94, 0.0, 9.996721, 10.0004425 
1.535019e+3, 2.8408006e+2, -669066.25, -314832.16, -51921.29, -0.087048054, -0.07762523, -307378.72, -151370.55, 0.0, 9.996055, 10.000748 
1.5350132e+3, 2.940806e+2, -666242.25, -260267.7, -48666.082, -0.10108729, -0.09988808, -254515.38, -196513.55, 0.0, 9.995391, 10.000769 
1.5350077e+3, 3.0408198e+2, -624985.75, -64401.574, -32425.656, -0.11349357, -0.104717456, -62532.223, -62532.223, 0.0, 9.99469, 10.002115 
1.5350024e+3, 3.1408435e+2, -730947.44, -108953.695, -32313.828, -0.12308402, -0.08245163, -107279.43, -107279.43, 0.0, 9.993936, 10.002173 
1.5451239e+3, 1.2410189e+2, -879411.25, -1695746.9, 18436.328, -0.018006688, 0.09363264, -878995.06, 844813.5, 0.0013661821, 10.007403, 9.996565 
1.5451175e+3, 1.3409826e+2, -874377.3, -1617776.4, -23427.137, -0.018167865, 0.052803915, -873639.75, 752205.0, 0.00082270545, 10.006653, 9.996789 
1.5451111e+3, 1.4409585e+2, -805899.75, -1406653.8, -30155.063, -0.017626537, 0.08019874, -804389.9, 723478.44, 0.0003650999, 10.0058975, 9.99793 
1.5451045e+3, 1.5409376e+2, -811544.25, -1347628.1, -31575.314, -0.020235023, 0.06826784, -809690.9, 620196.56, 0.0000990224, 10.0051365, 9.998029 
1.5450977e+3, 1.6409193e+2, -782089.25, -1211576.0, -46310.47, -0.02223258, 0.05335793, -777152.44, 554751.5, 0.000010804875, 10.004358, 9.998665 
1.5450908e+3, 1.7409045e+2, -797304.06, -1162400.4, -45802.844, -0.021933582, 0.033351813, -791645.6, 442271.34, 0.000000026864537, 10.003555, 9.998716 
1.5450837e+3, 1.8408915e+2, -809069.8, -1114241.0, -49836.605, -0.024514008, 0.03101024, -801137.4, 334792.2, 0.0, 10.002788, 9.998744 
1.5450767e+3, 1.940881e+2, -816319.94, -1068018.3, -52076.242, -0.031573355, 0.052878223, -805970.9, 231970.86, 0.0, 10.002069, 9.998734 
1.5450697e+3, 2.0408721e+2, -786391.75, -951280.0, -56546.83, -0.036337085, 0.06847085, -768863.0, 171088.52, 0.0, 10.001379, 9.999196 
1.5450627e+3, 2.140865e+2, -780619.25, -893914.6, -58360.297, -0.037540235, 0.07388746, -755935.0, 86023.03, 0.0, 10.00073, 9.99923 
1.5450555e+3, 2.2408573e+2, -761552.7, -798282.0, -55702.24, -0.042056296, 0.060400814, -721265.8, 22698.309, 0.0, 10.000034, 9.999549 
1.5450485e+3, 2.340849e+2, -772981.56, -750751.8, -53876.926, -0.051473536, 0.019494014, -706855.2, -60885.266, 0.0, 9.999273, 9.999569 
1.5450415e+3, 2.4408437e+2, -757916.75, -655145.8, -46266.31, -0.063629456, -0.006542827, -637386.25, -89413.02, 0.0, 9.998542, 9.999905 
1.5450346e+3, 2.5408423e+2, -758407.56, -602080.44, -48418.535, -0.079668425, -0.012197455, -588298.9, -138325.67, 0.0, 9.997855, 9.999927 
1.5450278e+3, 2.6408428e+2, -720697.9, -471933.22, -44691.67, -0.088058494, -0.024764735, -464147.8, -112176.82, 0.0, 9.997178, 10.000473 
1.5450212e+3, 2.7408457e+2, -716211.2, -414027.75, -42780.906, -0.08559961, -0.04832702, -408087.88, -154121.97, 0.0, 9.996515, 10.000517 
1.5450148e+3, 2.8408504e+2, -694946.25, -315210.94, -25239.83, -0.08976242, -0.07257216, -313540.66, -157580.89, 0.0, 9.995826, 10.0008545 
1.5450084e+3, 2.9408562e+2, -700913.06, -264548.4, -20094.361, -0.10340233, -0.09848324, -263625.03, -205672.64, 0.0, 9.995101, 10.000878 
1.5450022e+3, 3.0408707e+2, -669042.4, -83548.46, -4422.169, -0.11394933, -0.10335842, -83515.06, -83515.06, 0.0, 9.99438, 10.002132 
1.5449962e+3, 3.140895e+2, -769987.4, -126797.01, -5298.388, -0.11954063, -0.0762957, -126753.36, -126753.36, 0.0, 9.993665, 10.002181 
1.5551312e+3, 1.2410768e+2, -880654.7, -1699119.5, -8309.752, -0.026885308, 0.092415266, -880570.3, 843181.75, 0.0014893805, 10.007407, 9.99654 
1.555124e+3, 1.34104e+2, -874951.0, -1619639.6, -51197.47, -0.02138286, 0.048830368, -871447.6, 754340.5, 0.0009020914, 10.006655, 9.996776 
1.5551169e+3, 1.4410155e+2, -809288.9, -1414244.9, -58176.223, -0.016314205, 0.07425774, -803745.1, 724066.94, 0.00040389132, 10.005899, 9.997877 
1.5551096e+3, 1.5409939e+2, -815258.44, -1355944.1, -59644.734, -0.021927143, 0.06251418, -808757.0, 621075.06, 0.00011091143, 10.005137, 9.997971 
1.555102e+3, 1.6409759e+2, -780833.25, -1209668.3, -75813.03, -0.024209108, 0.05206627, -767825.0, 564023.56, 0.000012654519, 10.00436, 9.998677 
1.5550944e+3, 1.7409623e+2, -795529.8, -1159601.9, -75461.98, -0.020367622, 0.042483747, -780508.44, 453351.78, 0.00000005356829, 10.003558, 9.998734 
1.5550867e+3, 1.840949e+2, -812926.56, -1123152.5, -76586.78, -0.019732272, 0.039558068, -795049.44, 340823.47, 0.0, 10.00279, 9.998682 
1.5550789e+3, 1.9409364e+2, -820850.25, -1078198.9, -78482.98, -0.024071144, 0.045293294, -798804.1, 239083.11, 0.0, 10.002071, 9.998664 
1.555071e+3, 2.0409262e+2, -789691.5, -958784.25, -80583.81, -0.035353135, 0.05439386, -757439.6, 182458.64, 0.0, 10.001381, 9.999145 
1.5550631e+3, 2.1409191e+2, -783894.56, -901241.4, -82134.98, -0.056178976, 0.06701776, -741628.75, 100276.09, 0.0, 10.0007305, 9.99918 
1.5550552e+3, 2.240912e+2, -758855.44, -793148.7, -83304.87, -0.06495222, 0.058440298, -690950.9, 52959.74, 0.0, 10.000035, 9.999584 
1.5550478e+3, 2.3409042e+2, -769710.3, -744444.56, -81847.94, -0.056648385, 0.01918653, -674260.3, -28344.92, 0.0, 9.999274, 9.999612 
1.5550402e+3, 2.4408987e+2, -761503.06, -663032.7, -71647.87, -0.056877393, -0.008584244, -625333.9, -77415.07, 0.0, 9.998543, 9.99985 
1.5550326e+3, 2.5408962e+2, -762790.75, -611514.5, -73498.055, -0.069418825, -0.020834519, -581686.56, -131766.06, 0.0, 9.997856, 9.999862 
1.5550251e+3, 2.6408967e+2, -716831.7, -464194.5, -68934.79, -0.081254534, -0.03196503, -446609.0, -94690.44, 0.0, 9.997179, 10.000526 
1.5550177e+3, 2.7409014e+2, -711573.4, -404656.28, -66921.78, -0.0919903, -0.042696197, -390699.03, -136787.2, 0.0, 9.996515, 10.000582 
1.5550105e+3, 2.8409073e+2, -685810.2, -296467.7, -51495.703, -0.10058306, -0.060305845, -289771.84, -133867.78, 0.0, 9.995826, 10.000983 
1.5550034e+3, 2.9409146e+2, -691385.9, -244964.14, -46533.82, -0.10626892, -0.088361755, -240165.17, -182270.05, 0.0, 9.995101, 10.001014 
1.5549965e+3, 3.0409294e+2, -668382.44, -82379.14, -30468.94, -0.109117255, -0.09636012, -80799.18, -80799.18, 0.0, 9.99438, 10.002142 
1.55499e+3, 3.1409535e+2, -770334.1, -127619.4, -31295.992, -0.107438006, -0.074025474, -126099.086, -126099.086, 0.0, 9.993664, 10.002175 
1.5651387e+3, 1.2411428e+2, -843011.5, -1683975.8, 24148.865, -0.03755375, 0.088233784, -842318.6, 881368.7, 0.00161853, 10.007681, 9.996512 
1.5651308e+3, 1.3411061e+2, -851243.56, -1610054.5, -20325.75, -0.026234021, 0.047055915, -850699.5, 775023.56, 0.0009853595, 10.006827, 9.996758 
1.5651229e+3, 1.4410809e+2, -796953.8, -1413535.4, -26131.871, -0.015329146, 0.070959404, -795848.25, 731899.06, 0.00044463406, 10.006007, 9.997829 
1.5651147e+3, 1.5410586e+2, -804756.0, -1356560.9, -27244.053, -0.020786554, 0.05392763, -803414.1, 626354.4, 0.00012335768, 10.005236, 9.997919 
1.5651065e+3, 1.64104e+2, -765903.4, -1206596.8, -44995.594, -0.024285909, 0.04472496, -761356.2, 570429.3, 0.000014545774, 10.004481, 9.99864 
1.565098e+3, 1.7410271e+2, -770195.75, -1151456.4, -48854.566, -0.023548659, 0.045566995, -764035.1, 469761.63, 0.000000092084846, 10.003751, 9.998697 
1.5650895e+3, 1.8410139e+2, -784455.5, -1111518.0, -50520.86, -0.023570357, 0.04538695, -776829.44, 358980.0, 0.0, 10.0029955, 9.998663 
1.5650809e+3, 1.9410002e+2, -802465.8, -1071309.9, -48697.242, -0.025138823, 0.042967226, -793916.9, 243907.55, 0.0, 10.002207, 9.998646 
1.5650724e+3, 2.0409892e+2, -784533.75, -962414.56, -46744.99, -0.035634432, 0.04770536, -772997.9, 166838.28, 0.0, 10.001444, 9.999088 
1.5650639e+3, 2.1409817e+2, -790233.2, -910921.0, -48907.242, -0.058521353, 0.06142357, -772902.75, 68940.74, 0.0, 10.000717, 9.99912 
1.5650553e+3, 2.2409746e+2, -763853.1, -792435.0, -52883.332, -0.06846659, 0.05562921, -723363.8, 20485.447, 0.0, 9.999989, 9.999611 
1.565047e+3, 2.3409677e+2, -769796.6, -740471.5, -52405.758, -0.05998919, 0.021551015, -700715.75, -54862.617, 0.0, 9.999257, 9.999647 
1.5650387e+3, 2.4409622e+2, -766477.1, -665880.4, -40358.18, -0.05832602, -0.0064299996, -651690.7, -103834.41, 0.0, 9.998512, 9.9998455 
1.5650304e+3, 2.5409588e+2, -779328.0, -620409.1, -38197.824, -0.06660646, -0.026577406, -611704.6, -161845.83, 0.0, 9.997747, 9.999853 
1.5650222e+3, 2.640959e+2, -738947.56, -473764.2, -30978.652, -0.078127995, -0.04001291, -470193.34, -118336.11, 0.0, 9.997023, 10.000535 
1.5650141e+3, 2.7409646e+2, -734072.75, -414281.4, -33005.703, -0.09413807, -0.04508477, -410910.4, -157060.22, 0.0, 9.996357, 10.000592 
1.5650062e+3, 2.8409714e+2, -706085.25, -295714.53, -24316.168, -0.10455503, -0.05719822, -294278.72, -138437.19, 0.0, 9.995643, 10.001077 
1.5649985e+3, 2.9409802e+2, -719274.0, -247036.66, -22454.08, -0.107162826, -0.0800578, -245971.4, -188140.45, 0.0, 9.994862, 10.001114 
1.5649909e+3, 3.040996e+2, -711471.6, -98509.266, -7328.893, -0.10402082, -0.08902193, -98421.65, -98421.65, 0.0, 9.994065, 10.002182 
1.5649836e+3, 3.141019e+2, -828564.5, -151804.0, -5509.9536, -0.0922856, -0.076551326, -151759.16, -151759.16, 0.0, 9.993249, 10.002209 
1.5751462e+3, 1.2412166e+2, -845241.8, -1689137.5, -6279.9443, -0.049988613, 0.08123043, -845195.06, 878419.6, 0.0017552496, 10.007684, 9.996476 
1.5751375e+3, 1.3411804e+2, -852575.0, -1613665.1, -51953.36, -0.032648884, 0.047384936, -849044.94, 776605.0, 0.0010734363, 10.00683, 9.996733 
1.5751289e+3, 1.4411548e+2, -799723.44, -1420208.1, -54859.64, -0.014662363, 0.07016927, -794910.4, 732764.25, 0.00048775776, 10.006011, 9.997783 
1.57512e+3, 1.5411307e+2, -807781.4, -1363704.6, -55658.625, -0.01694671, 0.042621147, -802263.6, 627433.56, 0.00013646926, 10.005239, 9.9978695 
1.575111e+3, 1.6411115e+2, -771735.8, -1219484.4, -71949.73, -0.02256765, 0.031585608, -760458.06, 571257.0, 0.000016433101, 10.004483, 9.99855 
1.5751016e+3, 1.7410986e+2, -776429.4, -1165090.1, -75627.71, -0.031328175, 0.042823244, -762231.94, 471494.8, 0.00000013708583, 10.003753, 9.998604 
1.5750922e+3, 1.8410857e+2, -782807.06, -1108746.1, -79302.43, -0.035759926, 0.048586797, -764536.56, 371202.84, 0.0, 10.002997, 9.998681 
1.5750831e+3, 1.941072e+2, -800044.44, -1066986.0, -77707.47, -0.034527153, 0.04573758, -779071.4, 258682.28, 0.0, 10.002209, 9.998675 
1.5750739e+3, 2.0410606e+2, -788603.2, -971515.3, -73627.45, -0.037128426, 0.048169956, -762648.8, 177116.73, 0.0, 10.001446, 9.999025 
1.5750647e+3, 2.141052e+2, -795080.94, -921478.1, -75541.484, -0.044961482, 0.057033025, -759788.0, 81986.266, 0.0, 10.000718, 9.999047 
1.5750554e+3, 2.2410448e+2, -762575.75, -790212.56, -79653.92, -0.05307552, 0.05196338, -695550.5, 48230.008, 0.0, 9.9999895, 9.999626 
1.5750462e+3, 2.3410389e+2, -767955.8, -737086.8, -79184.27, -0.06157608, 0.026521053, -671846.8, -26063.328, 0.0, 9.999258, 9.999671 
1.5750371e+3, 2.4410339e+2, -763465.4, -660053.7, -68291.76, -0.06786296, -0.00017437783, -626101.75, -78315.59, 0.0, 9.998512, 9.999886 
1.575028e+3, 2.54103e+2, -776228.5, -614372.25, -66234.03, -0.07115821, -0.02950076, -590723.56, -140934.86, 0.0, 9.997747, 9.999894 
1.5750194e+3, 2.6410297e+2, -741553.06, -479540.28, -55600.188, -0.078656934, -0.048943304, -468229.94, -116442.41, 0.0, 9.997024, 10.000496 
1.5750106e+3, 2.7410346e+2, -737339.44, -421368.44, -57261.965, -0.09208934, -0.055466916, -411311.22, -157529.77, 0.0, 9.996357, 10.000544 
1.5750018e+3, 2.841042e+2, -702268.56, -288063.4, -52532.45, -0.10174633, -0.06319984, -281504.72, -125732.055, 0.0, 9.995643, 10.00113 
1.5749933e+3, 2.9410526e+2, -714821.06, -238040.08, -51044.215, -0.10611856, -0.07354887, -232636.52, -174876.13, 0.0, 9.994862, 10.001177 
1.574985e+3, 3.0410686e+2, -706635.44, -88672.22, -37102.5, -0.09868753, -0.08135066, -86452.555, -86452.555, 0.0, 9.994065, 10.00225 
1.574977e+3, 3.1410912e+2, -823825.44, -142025.31, -35365.29, -0.07415012, -0.083967336, -140195.8, -140195.8, 0.0, 9.993248, 10.002277 
1.5851541e+3, 1.2412989e+2, -819305.4, -1683128.3, 24168.842, -0.050409913, 0.07670626, -818629.7, 904904.0, 0.0019005855, 10.007893, 9.996416 
1.5851445e+3, 1.3412628e+2, -822579.06, -1604748.1, -24594.803, -0.036264535, 0.048700057, -821806.44, 803762.75, 0.0011669116, 10.007063, 9.996681 
1.585135e+3, 1.441237e+2, -766848.06, -1404375.3, -25471.63, -0.01780907, 0.072168306, -765832.0, 761762.06, 0.00053352816, 10.006238, 9.997781 
1.5851253e+3, 1.5412125e+2, -780866.75, -1350363.4, -22506.307, -0.019867454, 0.040403597, -779978.7, 649637.94, 0.00015031188, 10.005423, 9.997871 
1.5851155e+3, 1.6411927e+2, -755097.25, -1217126.8, -34301.74, -0.024783144, 0.02671804, -752564.5, 579070.5, 0.000018256676, 10.004623, 9.998499 
1.5851055e+3, 1.7411792e+2, -767086.7, -1166976.4, -35376.875, -0.032244407, 0.03751675, -763981.1, 469666.44, 0.00000017901486, 10.003845, 9.998546 
1.5850954e+3, 1.8411659e+2, -774944.9, -1108697.0, -40492.74, -0.036557812, 0.045303628, -770102.3, 365558.28, 0.0, 10.003069, 9.998647 
1.5850854e+3, 1.9411527e+2, -789990.1, -1065631.6, -43667.125, -0.036822062, 0.047849543, -783237.8, 254436.86, 0.0, 10.002295, 9.998643 
1.5850753e+3, 2.041141e+2, -783126.5, -971922.1, -40946.816, -0.03953921, 0.049578857, -774628.3, 165058.48, 0.0, 10.001497, 9.998998 
1.5850653e+3, 2.141131e+2, -804268.6, -928936.56, -39772.816, -0.04550274, 0.049242694, -792660.7, 49035.875, 0.0, 10.000669, 9.999019 
1.5850554e+3, 2.2411233e+2, -778681.56, -798916.3, -41361.48, -0.052767422, 0.043584228, -746218.06, -2514.896, 0.0, 9.999884, 9.999618 
1.5850455e+3, 2.3411186e+2, -782919.25, -745084.5, -43193.086, -0.06197037, 0.029649701, -716847.75, -71142.28, 0.0, 9.99916, 9.999662 
1.5850355e+3, 2.4411142e+2, -775458.5, -664190.44, -35705.02, -0.068534136, 0.007690403, -653718.56, -106010.75, 0.0, 9.998425, 9.999899 
1.5850258e+3, 2.54111e+2, -786208.6, -617336.2, -35873.023, -0.07142474, -0.026453536, -610031.75, -160321.38, 0.0, 9.997672, 9.99991 
1.5850163e+3, 2.6411092e+2, -754645.7, -482827.44, -22479.102, -0.07845834, -0.05088483, -480981.0, -129271.67, 0.0, 9.996922, 10.000522 
1.5850067e+3, 2.741114e+2, -762345.0, -430390.56, -18575.848, -0.09132879, -0.06257505, -429354.3, -175650.83, 0.0, 9.996173, 10.000569 
1.5849975e+3, 2.8411216e+2, -731723.44, -295321.13, -13228.13, -0.10028317, -0.06971453, -294920.53, -139226.2, 0.0, 9.995412, 10.001191 
1.5849881e+3, 2.9411337e+2, -743828.9, -244783.92, -12047.905, -0.10382139, -0.07140053, -244493.23, -186812.42, 0.0, 9.994633, 10.00124 
1.584979e+3, 3.041151e+2, -733147.56, -92340.87, 1227.565, -0.09472063, -0.0795661, -92338.516, -92338.516, 0.0, 9.993845, 10.00233 
1.5849702e+3, 3.1411725e+2, -847465.3, -144198.6, 3639.8582, -0.067278855, -0.09556199, -144179.75, -144179.75, 0.0, 9.993048, 10.002358 
1.595162e+3, 1.24138944e+2, -825234.44, -1695658.3, -5412.1655, -0.039621804, 0.07447286, -825200.75, 898244.0, 0.0020549675, 10.007894, 9.99633 
1.5951516e+3, 1.341353e+2, -827966.4, -1616272.1, -55142.785, -0.037269644, 0.050957035, -824127.75, 801353.25, 0.0012661599, 10.007064, 9.996602 
1.5951413e+3, 1.4413272e+2, -763982.56, -1398814.1, -55457.594, -0.024598556, 0.0768325, -759174.3, 768331.56, 0.0005822085, 10.006239, 9.99782 
1.5951306e+3, 1.5413034e+2, -777236.56, -1343336.8, -52474.273, -0.029248819, 0.046860963, -772413.56, 657113.9, 0.00016503262, 10.005424, 9.99792 
1.59512e+3, 1.6412835e+2, -756230.5, -1220019.8, -62998.492, -0.030748924, 0.02973795, -747825.44, 583720.2, 0.000019994506, 10.004624, 9.998479 
1.5951094e+3, 1.7412686e+2, -768770.56, -1170956.9, -63913.76, -0.026557289, 0.029719487, -758858.0, 474701.5, 0.00000021146603, 10.003846, 9.998518 
1.5950985e+3, 1.8412545e+2, -781013.1, -1121770.1, -68891.88, -0.026394097, 0.035775855, -767612.06, 367961.34, 0.0, 10.00307, 9.998557 
1.5950876e+3, 1.9412415e+2, -796442.8, -1079563.8, -72032.836, -0.032275014, 0.04932657, -779169.7, 258418.02, 0.0, 10.0022955, 9.998548 
1.5950768e+3, 2.0412293e+2, -782655.5, -971567.0, -71157.98, -0.04287971, 0.051877443, -758851.56, 180748.75, 0.0, 10.001499, 9.999 
1.5950659e+3, 2.141218e+2, -803091.06, -927240.2, -70179.86, -0.05982481, 0.038103595, -771472.2, 70138.55, 0.0, 10.000671, 9.99903 
1.5950552e+3, 2.2412102e+2, -780902.2, -804267.3, -68175.19, -0.06718987, 0.030576108, -723415.9, 20201.664, 0.0, 9.999886, 9.99958 
1.5950446e+3, 2.3412065e+2, -785616.06, -751273.5, -69653.08, -0.061168917, 0.030947072, -696706.3, -51086.793, 0.0, 9.999161, 9.99962 
1.595034e+3, 2.4412026e+2, -776337.75, -666512.0, -63144.082, -0.060498547, 0.017117742, -637743.4, -90121.72, 0.0, 9.9984255, 9.999884 
1.5950236e+3, 2.5411978e+2, -786983.0, -619383.06, -63394.742, -0.06748873, -0.017507426, -598105.3, -148481.03, 0.0, 9.997673, 9.999896 
1.5950131e+3, 2.6411974e+2, -748332.5, -470125.75, -49871.105, -0.07756659, -0.04590683, -461456.1, -109833.055, 0.0, 9.9969225, 10.000609 
1.5950029e+3, 2.741202e+2, -755425.06, -416401.56, -45957.41, -0.09187966, -0.06646009, -410282.13, -156665.44, 0.0, 9.996174, 10.000666 
1.5949927e+3, 2.8412104e+2, -727052.94, -285947.6, -41681.254, -0.10019058, -0.07677392, -282043.56, -126436.63, 0.0, 9.995412, 10.001255 
1.5949826e+3, 2.9412234e+2, -739482.2, -236002.14, -40575.477, -0.10030122, -0.07363024, -232753.13, -175160.44, 0.0, 9.994633, 10.001301 
1.5949729e+3, 3.0412412e+2, -726930.8, -79619.26, -27898.697, -0.092208296, -0.08370371, -78419.07, -78419.07, 0.0, 9.993845, 10.0024185 
1.5949632e+3, 3.1412628e+2, -841165.4, -131201.86, -25488.271, -0.07191508, -0.111417696, -130287.99, -130287.99, 0.0, 9.993047, 10.002449 
1.60517e+3, 1.2414893e+2, -808700.06, -1691710.1, 28573.754, -0.031258155, 0.07491648, -807776.4, 915570.5, 0.002218727, 10.008027, 9.996292 
1.6051587e+3, 1.3414523e+2, -817215.94, -1614118.6, -18720.844, -0.033052377, 0.05006825, -816776.4, 808607.3, 0.0013718467, 10.007153, 9.996573 
1.6051474e+3, 1.4414263e+2, -753935.06, -1392183.5, -16665.746, -0.02165463, 0.07464818, -753500.2, 773908.6, 0.0006344192, 10.006302, 9.997834 
1.6051361e+3, 1.5414026e+2, -766895.9, -1336269.1, -15934.124, -0.028658554, 0.04526486, -766450.3, 662979.6, 0.00018099697, 10.005487, 9.997937 
1.6051246e+3, 1.6413829e+2, -749352.4, -1216298.5, -26579.11, -0.030518526, 0.028561108, -747844.3, 583603.56, 0.000021716987, 10.004671, 9.998482 
1.6051131e+3, 1.7413679e+2, -767926.56, -1170354.8, -25606.893, -0.023964452, 0.02860187, -766303.75, 467158.03, 0.00000023471068, 10.003852, 9.998519 
1.6051015e+3, 1.8413538e+2, -787426.2, -1131422.8, -27693.494, -0.023500234, 0.034608006, -785211.0, 350265.06, 0.0, 10.003055, 9.998498 
1.6050899e+3, 1.9413398e+2, -802256.4, -1089572.6, -28696.953, -0.032006685, 0.048028316, -799418.2, 238073.1, 0.0, 10.002288, 9.998482 
1.6050783e+3, 2.0413272e+2, -778738.75, -969994.6, -27599.54, -0.04578595, 0.04934888, -774835.56, 164668.72, 0.0, 10.001528, 9.998996 
1.6050665e+3, 2.1413158e+2, -787263.06, -919353.06, -27592.7, -0.06665538, 0.03280882, -781730.8, 59783.816, 0.0, 10.000779, 9.999032 
1.605055e+3, 2.2413076e+2, -769932.06, -807728.9, -27122.998, -0.074181326, 0.027245654, -755772.9, -12251.221, 0.0, 9.999999, 9.999501 
1.6050437e+3, 2.3413038e+2, -789722.75, -762913.8, -32049.768, -0.063002735, 0.03616616, -741578.3, -96054.016, 0.0, 9.999175, 9.999533 
1.6050325e+3, 2.4412996e+2, -783806.25, -668435.44, -26297.79, -0.059781205, 0.023684591, -662723.8, -115196.95, 0.0, 9.998367, 9.999897 
1.605021e+3, 2.5412944e+2, -798506.1, -622243.94, -23950.836, -0.06793428, -0.019581778, -619047.44, -169517.7, 0.0, 9.997583, 9.999919 
1.60501e+3, 2.641294e+2, -763395.3, -469179.63, -10143.902, -0.07761109, -0.05208092, -468830.28, -117302.125, 0.0, 9.996784, 10.000682 
1.604999e+3, 2.7412996e+2, -780453.7, -419819.5, -7940.289, -0.0892999, -0.07043895, -419644.75, -166123.95, 0.0, 9.995966, 10.000742 
1.6049881e+3, 2.8413087e+2, -761029.4, -298323.06, -5577.5083, -0.09608702, -0.07749638, -298255.84, -142745.55, 0.0, 9.995163, 10.00129 
1.6049773e+3, 2.9413226e+2, -773864.3, -249102.03, -6983.8584, -0.096279636, -0.06966637, -249009.11, -191513.34, 0.0, 9.994383, 10.001331 
1.6049667e+3, 3.0413407e+2, -754054.5, -82925.984, 4467.7974, -0.09012669, -0.079559766, -82896.24, -82896.24, 0.0, 9.993618, 10.002504 
1.6049562e+3, 3.1413627e+2, -859765.56, -129881.19, 6751.7397, -0.07436581, -0.11353289, -129818.74, -129818.74, 0.0, 9.992876, 10.00254 
1.6151781e+3, 1.24159776e+2, -808426.94, -1691352.3, -2508.2424, -0.025227387, 0.07780701, -808419.8, 914820.7, 0.0023926888, 10.008028, 9.996295 
1.615166e+3, 1.3415603e+2, -816121.25, -1612091.4, -50847.586, -0.02391852, 0.04622137, -812886.2, 812391.5, 0.0014851466, 10.0071535, 9.996588 
1.615154e+3, 1.4415339e+2, -754719.94, -1394060.8, -46682.098, -0.009535299, 0.066011235, -751329.4, 775973.75, 0.0006911757, 10.006302, 9.997822 
1.6151418e+3, 1.5415101e+2, -767919.3, -1338724.3, -45689.824, -0.018631922, 0.03603356, -764285.25, 665039.25, 0.00019875968, 10.005487, 9.997921 
1.6151294e+3, 1.6414906e+2, -747747.5, -1213435.9, -56519.918, -0.024422329, 0.023415955, -740985.94, 590356.1, 0.000023581619, 10.004672, 9.998502 
1.615117e+3, 1.7414771e+2, -766006.8, -1167040.4, -55627.27, -0.024373986, 0.033905957, -758433.8, 474921.06, 0.00000025300832, 10.003854, 9.998542 
1.6151047e+3, 1.8414629e+2, -789493.1, -1136465.1, -55973.29, -0.027612394, 0.041450556, -780687.06, 354682.03, 0.0, 10.0030575, 9.998463 
1.6150922e+3, 1.9414474e+2, -804744.06, -1095446.8, -56806.676, -0.03587327, 0.044013027, -794037.7, 243348.0, 0.0, 10.00229, 9.998442 
1.6150796e+3, 2.0414342e+2, -779435.9, -972056.7, -55072.27, -0.048259415, 0.042145908, -764801.94, 174597.28, 0.0, 10.00153, 9.998981 
1.6150673e+3, 2.1414235e+2, -787945.3, -921242.56, -55012.496, -0.06619185, 0.03321557, -768173.94, 73234.77, 0.0, 10.00078, 9.999019 
1.6150549e+3, 2.2414152e+2, -778453.9, -825881.4, -57142.445, -0.07395549, 0.03335762, -740300.0, 3115.9377, 0.0, 10.0, 9.999376 
1.6150428e+3, 2.3414104e+2, -798955.4, -782646.6, -62297.69, -0.067461655, 0.045213483, -727971.94, -82551.69, 0.0, 9.999177, 9.999397 
1.6150308e+3, 2.4414052e+2, -780733.44, -662631.7, -55153.01, -0.06628674, 0.027394393, -640881.2, -93457.28, 0.0, 9.998369, 9.999937 
1.6150187e+3, 2.5413987e+2, -794362.44, -614143.06, -52683.02, -0.072732955, -0.032615148, -599872.44, -150445.25, 0.0, 9.997584, 9.999975 
1.6150068e+3, 2.6413983e+2, -759442.44, -461425.06, -40089.418, -0.07860317, -0.06933226, -456126.4, -104701.234, 0.0, 9.996785, 10.000735 
1.614995e+3, 2.7414057e+2, -776608.7, -412236.28, -37999.957, -0.08361476, -0.0744783, -408315.5, -154899.23, 0.0, 9.995966, 10.000794 
1.6149834e+3, 2.8414163e+2, -760910.4, -298359.06, -34307.277, -0.08801168, -0.07185606, -295828.34, -140423.45, 0.0, 9.995163, 10.00129 
1.6149716e+3, 2.9414308e+2, -774190.9, -249982.14, -35549.85, -0.09178781, -0.059458498, -247582.27, -190191.77, 0.0, 9.994382, 10.001326 
1.6149601e+3, 3.0414492e+2, -748459.6, -71456.13, -22742.305, -0.0885069, -0.06701762, -70693.02, -70693.02, 0.0, 9.993617, 10.002584 
1.6149491e+3, 3.1414717e+2, -853750.0, -117383.28, -20279.479, -0.0746722, -0.10167497, -116825.2, -116825.2, 0.0, 9.992874, 10.002626 
1.6251862e+3, 1.2417158e+2, -789064.25, -1683326.9, 38038.926, -0.017309869, 0.074197516, -787449.06, 935675.6, 0.0025781612, 10.00817, 9.996281 
1.6251732e+3, 1.3416786e+2, -805494.44, -1607130.9, -12675.668, -0.019952953, 0.045521792, -805294.06, 819867.7, 0.001607339, 10.007229, 9.996585 
1.6251603e+3, 1.441652e+2, -747853.1, -1386320.3, -4718.8877, -0.0057396865, 0.063865066, -747818.25, 779368.94, 0.0007534501, 10.006331, 9.99786 
1.6251472e+3, 1.5416281e+2, -763650.6, -1332022.3, 462.40805, -0.0143261645, 0.028223291, -763650.25, 665558.1, 0.00021885657, 10.005498, 9.997961 
1.6251342e+3, 1.6416088e+2, -748232.4, -1219022.8, -9545.756, -0.02055263, 0.01628586, -748038.9, 583187.0, 0.000025781734, 10.004693, 9.998452 
1.625121e+3, 1.7415954e+2, -759797.1, -1170374.9, -14579.398, -0.022300608, 0.036110234, -759280.1, 473958.63, 0.00000027131205, 10.003925, 9.998484 
1.6251077e+3, 1.8415812e+2, -779517.3, -1135916.8, -18097.664, -0.027526012, 0.04655473, -778600.7, 356652.66, 0.0, 10.003145, 9.998424 
1.6250944e+3, 1.9415648e+2, -798993.1, -1096709.3, -18896.559, -0.037953712, 0.043094005, -797798.5, 239472.28, 0.0, 10.002348, 9.9984045 
1.6250813e+3, 2.0415509e+2, -781522.3, -976409.94, -18291.68, -0.050086938, 0.040074892, -779820.4, 159464.3, 0.0, 10.001531, 9.998951 
1.6250682e+3, 2.1415403e+2, -803734.7, -932174.44, -19827.762, -0.06442999, 0.036770508, -800743.44, 40550.55, 0.0, 10.000688, 9.998988 
1.625055e+3, 2.2415318e+2, -798944.44, -842452.7, -20095.584, -0.07127591, 0.03771287, -791083.1, -47781.496, 0.0, 9.999889, 9.999315 
1.625042e+3, 2.3415257e+2, -806636.4, -793402.94, -20103.762, -0.067661084, 0.043699883, -778855.0, -133547.7, 0.0, 9.999155, 9.999333 
1.625029e+3, 2.44152e+2, -775818.3, -654607.9, -11005.331, -0.06764144, 0.021731997, -653616.75, -106305.24, 0.0, 9.998379, 9.999987 
1.6250162e+3, 2.541514e+2, -796049.75, -608177.0, -8493.482, -0.07276716, -0.039989095, -607793.8, -158479.83, 0.0, 9.997544, 10.000034 
1.6250035e+3, 2.641514e+2, -770531.94, -466037.25, 1748.9072, -0.07756064, -0.07453275, -466027.2, -114715.86, 0.0, 9.996707, 10.000741 
1.624991e+3, 2.7415222e+2, -791245.8, -419211.44, -379.8692, -0.08182726, -0.07217556, -419211.03, -165909.05, 0.0, 9.995866, 10.000794 
1.6249785e+3, 2.8415328e+2, -777551.4, -308074.1, 2329.6897, -0.0855697, -0.066496015, -308062.53, -152771.81, 0.0, 9.995057, 10.001274 
1.6249661e+3, 2.941547e+2, -788987.94, -259037.98, 61.620346, -0.088866085, -0.05723757, -259037.98, -201760.9, 0.0, 9.994289, 10.0013075 
1.6249539e+3, 3.0415654e+2, -762101.6, -70504.38, 11028.853, -0.08683845, -0.065218404, -70328.555, -70328.555, 0.0, 9.993492, 10.00265 
1.6249418e+3, 3.1415895e+2, -880868.8, -122118.81, 12148.691, -0.07668252, -0.096557826, -121924.34, -121924.34, 0.0, 9.992654, 10.0027 
1.6351946e+3, 1.2418429e+2, -792015.4, -1688570.5, 4464.9185, -0.007754583, 0.06461232, -791993.1, 931006.75, 0.002776458, 10.008166, 9.996247 
1.6351804e+3, 1.3418067e+2, -807388.7, -1610850.6, -47281.42, -0.02086315, 0.04779405, -804615.9, 820420.44, 0.0017393174, 10.007228, 9.996561 
1.6351666e+3, 1.4417805e+2, -742099.1, -1374604.3, -35610.992, -0.009772709, 0.06779477, -740100.5, 786960.75, 0.00082180015, 10.006331, 9.997942 
1.6351527e+3, 1.5417562e+2, -757164.94, -1319095.4, -30181.469, -0.015433237, 0.02175573, -755548.56, 673533.44, 0.00024162768, 10.005499, 9.998051 
1.6351388e+3, 1.6417368e+2, -756317.3, -1236482.4, -37948.81, -0.018796638, 0.0072906627, -753336.6, 577763.2, 0.000028485563, 10.004694, 9.998333 
1.6351248e+3, 1.7417228e+2, -769300.3, -1190712.0, -42705.465, -0.01785513, 0.03535943, -765016.2, 468097.66, 0.00000029377037, 10.003926, 9.998344 
1.6351108e+3, 1.841708e+2, -782599.8, -1142878.1, -47207.203, -0.023430169, 0.05000529, -776517.0, 358612.28, 0.0, 10.003146, 9.998376 
1.6350968e+3, 1.941691e+2, -801471.7, -1102432.0, -48106.64, -0.03833104, 0.04517644, -793969.2, 243177.8, 0.0, 10.002349, 9.998364 
1.6350828e+3, 2.041677e+2, -784853.4, -983941.9, -49085.816, -0.051295362, 0.04297634, -773409.0, 165752.19, 0.0, 10.001533, 9.998899 
1.6350687e+3, 2.1416663e+2, -807130.2, -939925.25, -50783.69, -0.061399817, 0.04338792, -789935.75, 51235.086, 0.0, 10.0006895, 9.998935 
1.635055e+3, 2.241657e+2, -798800.7, -842859.7, -47272.34, -0.06619002, 0.040326644, -768676.8, -25497.662, 0.0, 9.999891, 9.999312 
1.6350411e+3, 2.3416495e+2, -806251.56, -793203.8, -46931.21, -0.06367995, 0.031777836, -752345.25, -107159.24, 0.0, 9.999157, 9.999334 
1.6350275e+3, 2.4416435e+2, -771719.3, -646647.2, -41352.496, -0.06393119, 0.00685223, -634211.3, -87021.31, 0.0, 9.99838, 10.000042 
1.6350138e+3, 2.5416395e+2, -791635.75, -599556.7, -39183.324, -0.068093635, -0.041701894, -591871.0, -142680.48, 0.0, 9.997545, 10.000094 
1.6350003e+3, 2.6416406e+2, -773602.56, -472906.13, -29134.93, -0.074529625, -0.06772999, -470109.22, -118922.16, 0.0, 9.996708, 10.000694 
1.6349868e+3, 2.7416483e+2, -795102.9, -427642.06, -31273.75, -0.083998375, -0.06354242, -424999.44, -171820.95, 0.0, 9.995867, 10.000737 
1.6349734e+3, 2.8416583e+2, -780049.8, -313586.94, -25977.215, -0.08883265, -0.06145194, -312144.72, -156976.5, 0.0, 9.995057, 10.001237 
1.6349603e+3, 2.9416704e+2, -791451.2, -264400.34, -27980.934, -0.0875488, -0.06312409, -262919.0, -205763.11, 0.0, 9.994289, 10.001271 
1.6349472e+3, 3.041689e+2, -758796.0, -63764.3, -19517.057, -0.08516703, -0.07433057, -63216.68, -63216.68, 0.0, 9.993491, 10.002698 
1.6349344e+3, 3.141714e+2, -877261.44, -114487.336, -18569.123, -0.08055951, -0.09834696, -114035.555, -114035.555, 0.0, 9.992652, 10.002754 
1.6452028e+3, 1.24198124e+2, -807576.7, -1700138.6, 42885.242, 0.0015757484, 0.06885468, -805520.9, 917343.4, 0.0029888288, 10.0080805, 9.996209 
1.6451876e+3, 1.3419439e+2, -812960.3, -1616747.1, -10320.955, -0.016773136, 0.04456815, -812827.8, 812074.06, 0.0018816964, 10.007206, 9.996531 
1.6451728e+3, 1.4419176e+2, -736783.7, -1370468.1, 1955.2368, -0.0073573324, 0.063931555, -736777.6, 790149.4, 0.00089651986, 10.006363, 9.997954 
1.6451582e+3, 1.5418945e+2, -746153.7, -1312017.1, 2132.9824, -0.013413948, 0.02709848, -746145.7, 682801.06, 0.00026724496, 10.0055685, 9.998065 
1.6451436e+3, 1.6418749e+2, -749740.3, -1239797.8, -5871.847, -0.01669885, 0.014900403, -749670.0, 581294.44, 0.00003179488, 10.004768, 9.998273 
1.6451289e+3, 1.7418596e+2, -769011.5, -1197846.0, -5485.682, -0.015094944, 0.035664756, -768941.3, 464038.53, 0.00000032172903, 10.003961, 9.998278 
1.645114e+3, 1.8418436e+2, -783755.06, -1146392.6, -7179.14, -0.020959992, 0.045219075, -783613.0, 351383.22, 0.0, 10.003152, 9.998348 
1.645099e+3, 1.9418263e+2, -804237.3, -1106314.8, -7232.32, -0.03743347, 0.038422, -804064.25, 232949.84, 0.0, 10.002342, 9.998341 
1.6450842e+3, 2.0418118e+2, -787558.3, -990028.9, -8181.1875, -0.05084807, 0.03696487, -787228.3, 151800.22, 0.0, 10.001535, 9.998856 
1.6450694e+3, 2.1418011e+2, -803998.4, -943454.5, -9611.937, -0.059845194, 0.041694548, -803339.0, 37699.5, 0.0, 10.000733, 9.998888 
1.6450548e+3, 2.2417916e+2, -794490.5, -840972.9, -4501.704, -0.063922435, 0.039530903, -794058.5, -51011.395, 0.0, 9.999923, 9.99931 
1.6450402e+3, 2.3417838e+2, -814586.75, -797055.94, -4268.486, -0.06130017, 0.027202198, -796071.9, -151017.63, 0.0, 9.9991, 9.999335 
1.6450258e+3, 2.4417777e+2, -785378.4, -654998.3, -2366.3928, -0.062075906, 0.002719883, -654955.4, -107897.07, 0.0, 9.998295, 10.000025 
1.6450113e+3, 2.5417742e+2, -797381.1, -604366.9, -6371.712, -0.06759916, -0.039362777, -604156.75, -155098.27, 0.0, 9.997516, 10.000074 
1.644997e+3, 2.6417756e+2, -773718.94, -475453.6, 259.57776, -0.075279206, -0.061663356, -475453.38, -124398.31, 0.0, 9.996718, 10.000671 
1.6449827e+3, 2.741783e+2, -792525.44, -429052.1, 287.5863, -0.08583342, -0.057725046, -429051.88, -176004.92, 0.0, 9.995897, 10.000712 
1.6449685e+3, 2.8417924e+2, -778232.44, -308776.56, 9586.283, -0.08919393, -0.058925126, -308580.9, -153543.89, 0.0, 9.995053, 10.001271 
1.6449545e+3, 2.9418045e+2, -804562.8, -266316.13, 13002.876, -0.08295297, -0.06800328, -266002.2, -208977.38, 0.0, 9.994182, 10.001309 
1.6449408e+3, 3.0418232e+2, -778955.06, -66571.82, 24000.082, -0.08116441, -0.08109286, -65764.18, -65764.18, 0.0, 9.993325, 10.002758 
1.6449268e+3, 3.1418493e+2, -896910.1, -116936.414, 25184.178, -0.08480499, -0.099524796, -116124.1, -116124.1, 0.0, 9.992489, 10.002815 
1.655211e+3, 1.2421302e+2, -811586.75, -1707509.8, 11223.164, 0.010625133, 0.08567154, -811446.1, 911272.3, 0.0032170026, 10.008077, 9.9961605 
1.6551949e+3, 1.34209e+2, -816264.1, -1623110.0, -42543.652, -0.008029548, 0.03616726, -814027.06, 810731.7, 0.0020353894, 10.007203, 9.996489 
1.6551793e+3, 1.442063e+2, -741003.56, -1379011.5, -27384.318, 0.0010646281, 0.05286014, -739830.3, 786954.4, 0.0009780414, 10.006361, 9.997897 
1.6551638e+3, 1.5420419e+2, -750512.8, -1321069.4, -27007.84, -0.008490153, 0.043627046, -749237.2, 679565.6, 0.00029585662, 10.005568, 9.998004 
1.6551483e+3, 1.6420226e+2, -750151.56, -1240892.1, -35492.117, -0.0143011315, 0.038155887, -747597.94, 583222.4, 0.000035754856, 10.004768, 9.998267 
1.6551328e+3, 1.7420052e+2, -768911.25, -1198168.4, -35104.457, -0.013954332, 0.03691552, -766059.4, 466777.94, 0.00000035347227, 10.003962, 9.998276 
1.6551171e+3, 1.8419878e+2, -784392.6, -1148394.5, -36853.824, -0.020046616, 0.03256772, -780698.8, 354155.78, 0.0, 10.003154, 9.998334 
1.6551016e+3, 1.9419698e+2, -804915.4, -1108448.4, -36937.414, -0.035307046, 0.023179948, -800485.06, 236387.48, 0.0, 10.002344, 9.998326 
1.6550858e+3, 2.0419553e+2, -790120.9, -996058.06, -37606.313, -0.04881934, 0.022346813, -783468.44, 155418.67, 0.0, 10.001537, 9.998814 
1.6550702e+3, 2.1419446e+2, -806791.94, -949893.25, -39054.848, -0.059757315, 0.031938467, -796827.06, 44070.387, 0.0, 10.000735, 9.998844 
1.6550547e+3, 2.2419356e+2, -794722.94, -842117.8, -34688.99, -0.06442972, 0.035456598, -776409.7, -33503.7, 0.0, 9.999925, 9.999302 
1.6550395e+3, 2.341928e+2, -814576.0, -797777.8, -34539.844, -0.06049733, 0.02990299, -770630.5, -125718.016, 0.0, 9.999102, 9.99933 
1.655024e+3, 2.4419221e+2, -791602.0, -668631.7, -31110.982, -0.062075175, 0.009207416, -661208.8, -114292.016, 0.0, 9.998297, 9.999931 
1.6550088e+3, 2.5419176e+2, -804274.06, -619283.3, -34972.95, -0.07129441, -0.032995053, -612892.4, -163973.97, 0.0, 9.997517, 9.999972 
1.6549936e+3, 2.641918e+2, -773785.5, -476136.34, -29814.977, -0.079822026, -0.056310266, -473179.22, -122263.414, 0.0, 9.996719, 10.000667 
1.6549785e+3, 2.7419254e+2, -792092.2, -428629.3, -29899.719, -0.08734561, -0.05473457, -426186.1, -173278.25, 0.0, 9.995897, 10.000715 
1.6549636e+3, 2.8419352e+2, -770980.5, -294122.03, -22316.184, -0.08666666, -0.058932118, -293079.94, -138182.47, 0.0, 9.995054, 10.001372 
1.6549489e+3, 2.941948e+2, -796902.94, -250626.23, -18991.158, -0.07506138, -0.07183474, -249966.81, -193082.63, 0.0, 9.994182, 10.001418 
1.6549341e+3, 3.0419675e+2, -774254.25, -56882.87, -6682.7217, -0.07482793, -0.08545691, -56820.625, -56820.625, 0.0, 9.993323, 10.002826 
1.6549194e+3, 3.1419948e+2, -892615.7, -107934.945, -5314.432, -0.08949307, -0.10011809, -107898.95, -107898.95, 0.0, 9.992487, 10.002878 
1.665219e+3, 1.2422864e+2, -820579.56, -1706668.0, 34595.637, 0.014356425, 0.098262995, -819230.9, 903335.1, 0.0034630685, 10.007996, 9.996204 
1.6652021e+3, 1.3422455e+2, -823474.2, -1620325.6, -13227.808, -0.0022576537, 0.037848998, -823254.7, 801351.75, 0.0022016447, 10.007129, 9.996543 
1.6651857e+3, 1.4422181e+2, -756080.6, -1393651.1, 7741.8745, 0.009283956, 0.051310673, -755986.6, 770646.0, 0.0010669573, 10.006291, 9.997829 
1.6651694e+3, 1.5421972e+2, -766716.06, -1337683.0, 6769.345, -0.0003466117, 0.04929242, -766635.8, 662015.5, 0.0003276552, 10.005495, 9.997924 
1.665153e+3, 1.6421774e+2, -755134.75, -1239528.0, -812.9403, -0.008198532, 0.044336446, -755133.4, 575535.7, 0.000040405255, 10.004719, 9.998299 
1.6651368e+3, 1.7421596e+2, -765166.9, -1191551.4, 2546.175, -0.012519454, 0.034336768, -765151.7, 467534.28, 0.00000038721498, 10.003968, 9.998318 
1.6651204e+3, 1.8421417e+2, -779082.8, -1146301.6, 1548.6328, -0.020694584, 0.024996452, -779076.3, 355626.88, 0.0, 10.003194, 9.998329 
1.6651039e+3, 1.9421239e+2, -799407.1, -1106685.0, 1570.5103, -0.034503218, 0.01581488, -799399.1, 237321.98, 0.0, 10.002387, 9.998317 
1.6650873e+3, 2.042109e+2, -792069.0, -1005680.8, -920.11456, -0.046591517, 0.016756125, -792065.0, 146671.02, 0.0, 10.001562, 9.998734 
1.665071e+3, 2.1420978e+2, -815860.06, -963661.4, -5673.306, -0.056198403, 0.030210743, -815642.6, 25104.646, 0.0, 10.000714, 9.998759 
1.6650547e+3, 2.2420885e+2, -799507.3, -849286.1, -2820.6135, -0.062997475, 0.03774335, -799348.0, -56591.613, 0.0, 9.999913, 9.999257 
1.6650385e+3, 2.3420809e+2, -806608.44, -798450.25, -5492.4756, -0.0658667, 0.036387775, -795687.9, -150924.88, 0.0, 9.999177, 9.999289 
1.6650224e+3, 2.4420747e+2, -777357.44, -662170.7, -1709.896, -0.06931163, 0.016078463, -662145.3, -115377.77, 0.0, 9.998398, 9.999927 
1.6650063e+3, 2.5420696e+2, -798319.8, -616602.25, 1579.0231, -0.07373129, -0.030722864, -616588.5, -167818.98, 0.0, 9.9975605, 9.9999695 
1.6649903e+3, 2.64207e+2, -777625.06, -475991.84, 9074.631, -0.07858627, -0.05667357, -475719.1, -124951.92, 0.0, 9.996686, 10.000683 
1.6649744e+3, 2.7420774e+2, -810491.6, -435428.34, 9579.037, -0.08396817, -0.055235114, -435183.84, -182424.73, 0.0, 9.995764, 10.000732 
1.6649586e+3, 2.8420874e+2, -790797.56, -298232.78, 16914.418, -0.083182566, -0.05928268, -297652.63, -142904.19, 0.0, 9.994896, 10.001419 
1.664943e+3, 2.9421005e+2, -805211.3, -248981.52, 15570.02, -0.07420012, -0.07163472, -248546.02, -191811.48, 0.0, 9.994102, 10.001468 
1.6649273e+3, 3.042121e+2, -779043.0, -54447.734, 23409.865, -0.07681373, -0.08300742, -53692.21, -53692.21, 0.0, 9.993272, 10.002867 
1.6649118e+3, 3.142149e+2, -903229.44, -108478.234, 22581.613, -0.0946763, -0.0932766, -107837.13, -107837.13, 0.0, 9.992395, 10.002918 
1.675227e+3, 1.2424494e+2, -812821.2, -1689289.9, 3491.0217, 0.013101273, 0.10703981, -812807.25, 909600.0, 0.0037282943, 10.007991, 9.996327 
1.6752093e+3, 1.3424101e+2, -814243.5, -1600776.3, -45072.48, 0.00076081936, 0.0489017, -811669.0, 812776.25, 0.0023813362, 10.007127, 9.996679 
1.675192e+3, 1.4423828e+2, -761926.7, -1405910.9, -21638.96, 0.01731332, 0.05854248, -761200.4, 765270.9, 0.0011637318, 10.006291, 9.997746 
1.675175e+3, 1.5423594e+2, -773858.6, -1352870.1, -22361.455, 0.010810539, 0.044706207, -772996.3, 655496.2, 0.00036286438, 10.005496, 9.99782 
1.675158e+3, 1.6423392e+2, -750456.06, -1230283.9, -28381.389, 0.0013664116, 0.034490652, -748783.1, 581727.9, 0.000045839603, 10.00472, 9.9983635 
1.6751407e+3, 1.7423223e+2, -759535.7, -1180320.8, -24981.352, -0.010839196, 0.028192546, -758057.75, 474468.47, 0.000000425636, 10.003968, 9.998395 
1.6751236e+3, 1.8423054e+2, -779088.5, -1146805.8, -27972.162, -0.022851396, 0.022295874, -776972.8, 357569.63, 0.0, 10.003194, 9.998326 
1.6751061e+3, 1.9422875e+2, -799748.0, -1108029.1, -28143.549, -0.034978386, 0.016037032, -797199.8, 239360.4, 0.0, 10.002388, 9.998308 
1.675089e+3, 2.0422725e+2, -800169.06, -1023268.06, -32047.354, -0.04416058, 0.019901931, -795656.8, 142918.83, 0.0, 10.001564, 9.998614 
1.6750717e+3, 2.1422602e+2, -824542.5, -982608.4, -36895.45, -0.049254227, 0.036305647, -816354.6, 24233.715, 0.0, 10.000717, 9.998629 
1.6750546e+3, 2.2422498e+2, -805103.8, -861806.1, -30112.918, -0.059713256, 0.04627275, -792095.9, -49497.234, 0.0, 9.999916, 9.999171 
1.6750374e+3, 2.342242e+2, -812069.8, -810517.3, -32459.092, -0.07736551, 0.04662641, -778825.2, -134219.13, 0.0, 9.999179, 9.999206 
1.6750206e+3, 2.4422352e+2, -771561.25, -650771.25, -32219.877, -0.08370662, 0.02334408, -642714.25, -96103.39, 0.0, 9.998399, 10.000005 
1.6750038e+3, 2.5422302e+2, -791638.3, -603357.6, -29250.219, -0.074899375, -0.032540463, -598918.1, -150305.75, 0.0, 9.997561, 10.000061 
1.6749871e+3, 2.6422307e+2, -775175.75, -471467.94, -24706.81, -0.07158124, -0.06275786, -469471.16, -118861.58, 0.0, 9.996687, 10.000714 
1.6749702e+3, 2.7422383e+2, -808552.25, -431817.9, -24408.82, -0.07569701, -0.05924496, -430243.03, -177641.81, 0.0, 9.995764, 10.000758 
1.6749536e+3, 2.842249e+2, -791635.8, -300291.8, -12532.14, -0.07880546, -0.059959214, -299972.4, -145382.1, 0.0, 9.994896, 10.001407 
1.674937e+3, 2.9422626e+2, -806354.06, -251631.55, -13480.856, -0.08058552, -0.067283675, -251304.13, -194727.83, 0.0, 9.994102, 10.00145 
1.6749205e+3, 3.0422834e+2, -778443.3, -53489.195, -8492.773, -0.08735509, -0.073548436, -53389.72, -53389.72, 0.0, 9.993272, 10.002874 
1.6749041e+3, 3.1423116e+2, -902632.4, -107382.805, -9522.838, -0.100440904, -0.07877066, -107268.79, -107268.79, 0.0, 9.992394, 10.002927 
1.685235e+3, 1.2426208e+2, -827152.5, -1693258.4, 43081.844, 0.016372066, 0.10155414, -825014.8, 897224.9, 0.0040125162, 10.007883, 9.996351 
1.6852164e+3, 1.3425829e+2, -816623.6, -1598091.3, -13399.994, 0.0074524283, 0.054019723, -816393.94, 807882.4, 0.002574549, 10.007097, 9.996711 
1.6851985e+3, 1.4425556e+2, -761426.4, -1408054.9, 8998.91, 0.025846042, 0.065865695, -761301.2, 765000.8, 0.0012685467, 10.006307, 9.997724 
1.6851805e+3, 1.5425313e+2, -773568.94, -1355859.1, 13386.49, 0.016934834, 0.04364312, -773261.4, 655063.06, 0.0004017431, 10.005512, 9.997791 
1.6851628e+3, 1.6425106e+2, -749022.44, -1228178.4, 9248.915, 0.004974789, 0.030795453, -748843.94, 581499.3, 0.00005222854, 10.0047245, 9.998375 
1.6851446e+3, 1.7424944e+2, -762209.4, -1179854.9, 7950.3203, -0.009919927, 0.029588522, -762058.1, 470299.66, 0.0000004761207, 10.003943, 9.998409 
1.6851267e+3, 1.8424776e+2, -785666.2, -1153131.0, 472.73938, -0.022442244, 0.026827788, -785665.56, 348708.1, 0.0, 10.003163, 9.998297 
1.6851087e+3, 1.9424595e+2, -802639.6, -1112850.0, -1708.5027, -0.032134045, 0.021049079, -802630.25, 233761.56, 0.0, 10.002384, 9.998276 
1.6850905e+3, 2.0424439e+2, -797713.5, -1028797.56, -5134.2954, -0.04103699, 0.024588145, -797599.5, 140808.36, 0.0, 10.001612, 9.998552 
1.6850725e+3, 2.1424308e+2, -810099.1, -982644.94, -5368.8203, -0.04872763, 0.039527304, -809932.2, 30489.182, 0.0, 10.000848, 9.998565 
1.6850546e+3, 2.2424199e+2, -789246.2, -857008.2, 5952.309, -0.06091435, 0.04750384, -788727.25, -46294.844, 0.0, 10.000038, 9.999145 
1.6850366e+3, 2.3424113e+2, -815265.4, -814634.75, 7748.116, -0.079227455, 0.045222893, -807195.5, -162755.11, 0.0, 9.999169, 9.999181 
1.685019e+3, 2.4424048e+2, -784046.7, -651856.5, 6845.817, -0.08471753, 0.022654425, -651502.9, -105057.79, 0.0, 9.998293, 10.000048 
1.6850014e+3, 2.5424007e+2, -810572.0, -607054.0, 6130.994, -0.07297396, -0.0279604, -606869.44, -158423.75, 0.0, 9.99741, 10.000108 
1.6849837e+3, 2.6424018e+2, -795298.6, -481669.16, 6948.622, -0.068962, -0.054731198, -481515.28, -131072.84, 0.0, 9.996552, 10.000709 
1.684966e+3, 2.7424094e+2, -814113.2, -435564.63, 4174.8613, -0.075401165, -0.050355587, -435518.6, -183084.33, 0.0, 9.995732, 10.000747 
1.6849484e+3, 2.8424197e+2, -790362.1, -298773.6, 16885.527, -0.08026139, -0.051265243, -298194.28, -143770.77, 0.0, 9.994903, 10.001412 
1.684931e+3, 2.9424334e+2, -811883.2, -253330.3, 17617.715, -0.083084114, -0.060068395, -252775.16, -196365.6, 0.0, 9.9940605, 10.001457 
1.6849136e+3, 3.042454e+2, -789249.5, -56129.434, 21052.107, -0.09082518, -0.06677991, -55525.406, -55525.406, 0.0, 9.993188, 10.002895 
1.6848963e+3, 3.142483e+2, -918861.7, -112615.07, 20457.455, -0.10464597, -0.0712616, -112096.33, -112096.33, 0.0, 9.992274, 10.002948 
1.695243e+3, 1.24280006e+2, -833027.6, -1704245.3, 14391.873, 0.02373831, 0.08318839, -832789.94, 889273.7, 0.004315085, 10.007878, 9.996279 
1.6952236e+3, 1.3427632e+2, -821914.2, -1608530.9, -42249.56, 0.017502876, 0.053719908, -819651.44, 804448.4, 0.00278114, 10.007094, 9.996641 
1.6952048e+3, 1.4427367e+2, -759609.9, -1404218.3, -20004.232, 0.03479794, 0.073272526, -758989.7, 767135.44, 0.0013816142, 10.006306, 9.997751 
1.6951862e+3, 1.542712e+2, -771022.6, -1351009.5, -15772.507, 0.01832227, 0.04588098, -770594.0, 657553.44, 0.0004446572, 10.005513, 9.997825 
1.6951674e+3, 1.6426912e+2, -751798.8, -1234646.6, -19484.271, 0.002993655, 0.03288494, -751013.9, 579152.44, 0.000059797865, 10.004726, 9.99833 
1.6951486e+3, 1.7426752e+2, -765389.94, -1187258.5, -20746.068, -0.009706451, 0.038111724, -764372.2, 467808.72, 0.0000005501295, 10.003945, 9.998359 
1.6951299e+3, 1.842658e+2, -789490.56, -1161875.1, -28155.588, -0.019597983, 0.038226224, -787373.75, 346823.5, 0.0, 10.003165, 9.998237 
1.6951111e+3, 1.9426394e+2, -806451.25, -1121544.8, -30305.934, -0.026117085, 0.030649984, -803562.9, 232653.39, 0.0, 10.002386, 9.998217 
1.6950922e+3, 2.042623e+2, -798002.2, -1030114.0, -33161.13, -0.0372968, 0.030752871, -793357.5, 144875.5, 0.0, 10.001613, 9.998544 
1.6950732e+3, 2.1426094e+2, -810167.25, -983420.5, -33358.99, -0.05449538, 0.039955564, -803966.1, 36280.75, 0.0, 10.000849, 9.99856 
1.6950545e+3, 2.2425978e+2, -787156.0, -853277.7, -25737.021, -0.06646239, 0.04159321, -778319.2, -36060.977, 0.0, 10.00004, 9.99917 
1.6950358e+3, 2.3425888e+2, -813018.5, -810643.7, -24269.338, -0.071540974, 0.0323359, -787532.75, -143266.3, 0.0, 9.99917, 9.999208 
1.6950174e+3, 2.4425828e+2, -783663.56, -651773.56, -25708.072, -0.07251929, 0.014153512, -646939.7, -100668.99, 0.0, 9.998295, 10.000048 
1.6949987e+3, 2.5425807e+2, -810468.56, -607502.4, -26461.79, -0.068042755, -0.016883709, -604109.1, -155839.16, 0.0, 9.997411, 10.000105 
1.6949803e+3, 2.6425827e+2, -798520.94, -488949.53, -23405.432, -0.070802264, -0.032483287, -487189.94, -136923.73, 0.0, 9.996553, 10.000659 
1.6949615e+3, 2.7425897e+2, -817690.5, -443528.8, -25973.213, -0.083227515, -0.028392449, -441734.44, -189475.69, 0.0, 9.995733, 10.000692 
1.6949433e+3, 2.8425995e+2, -788692.6, -295808.94, -13961.77, -0.08765749, -0.03302848, -295413.78, -141165.28, 0.0, 9.994903, 10.001433 
1.6949251e+3, 2.9426125e+2, -809946.1, -249688.61, -13256.301, -0.08157655, -0.049933404, -249375.13, -193140.36, 0.0, 9.9940605, 10.001483 
1.694907e+3, 3.042633e+2, -787151.25, -52073.95, -12301.69, -0.0870404, -0.062809065, -51868.137, -51868.137, 0.0, 9.993188, 10.002925 
1.6948886e+3, 3.1426618e+2, -916919.1, -108725.71, -13055.805, -0.10731395, -0.071015805, -108514.86, -108514.86, 0.0, 9.992272, 10.002976 
1.7052507e+3, 1.2429898e+2, -845288.75, -1710982.8, 41585.133, 0.032454114, 0.09273889, -843295.7, 878582.56, 0.004635964, 10.007802, 9.996268 
1.7052308e+3, 1.3429524e+2, -830025.4, -1612697.6, -10909.625, 0.026449239, 0.05811276, -829873.3, 794041.6, 0.0030014797, 10.007043, 9.996636 
1.7052113e+3, 1.4429256e+2, -761991.1, -1405349.0, 12925.082, 0.042504326, 0.07542071, -761731.56, 764208.94, 0.0015035194, 10.006291, 9.99775 
1.7051916e+3, 1.5429008e+2, -765895.3, -1348692.5, 14279.448, 0.02161545, 0.048749425, -765545.7, 662417.0, 0.0004920557, 10.00555, 9.997822 
1.705172e+3, 1.6428801e+2, -744563.8, -1234793.6, 8761.836, 0.0033766709, 0.03740045, -744407.3, 585574.3, 0.00006876312, 10.004793, 9.998297 
1.7051525e+3, 1.742864e+2, -758503.75, -1187879.4, 8236.296, -0.010225093, 0.045444846, -758345.8, 473650.66, 0.00000066277994, 10.004011, 9.9983225 
1.705133e+3, 1.8428466e+2, -782326.2, -1159506.5, 2454.5996, -0.020703215, 0.045048915, -782310.2, 351703.03, 0.0, 10.003221, 9.998225 
1.7051134e+3, 1.9428271e+2, -802363.25, -1120375.8, 3786.962, -0.027420294, 0.0326557, -802318.2, 233714.5, 0.0, 10.0024185, 9.998208 
1.7050937e+3, 2.0428106e+2, -798577.5, -1029094.75, 3145.4229, -0.036718573, 0.03152494, -798534.6, 139514.86, 0.0, 10.001605, 9.998554 
1.7050742e+3, 2.1427974e+2, -820215.3, -986835.4, 3920.8865, -0.049340986, 0.04406358, -820123.06, 19939.945, 0.0, 10.000775, 9.998571 
1.7050545e+3, 2.2427861e+2, -800953.7, -856822.9, 9657.067, -0.059491888, 0.04657033, -799331.5, -57257.37, 0.0, 9.999933, 9.999196 
1.705035e+3, 2.3427771e+2, -825165.7, -813351.9, 10621.054, -0.066306755, 0.0350849, -807105.7, -163023.38, 0.0, 9.999075, 9.999235 
1.7050156e+3, 2.4427715e+2, -790752.0, -658477.3, 9359.79, -0.07087495, 0.019040205, -657818.25, -111731.77, 0.0, 9.998262, 10.000017 
1.7049962e+3, 2.5427696e+2, -798899.5, -605837.4, 5944.021, -0.07257831, -0.003969718, -605654.56, -157568.83, 0.0, 9.997508, 10.000069 
1.7049767e+3, 2.6427713e+2, -781141.7, -484138.4, 6411.034, -0.07716013, -0.017217567, -484000.06, -133917.78, 0.0, 9.99669, 10.000626 
1.7049573e+3, 2.7427778e+2, -812421.5, -444599.6, 4959.3774, -0.08562158, -0.018472375, -444532.75, -192457.13, 0.0, 9.995787, 10.000659 
1.7049381e+3, 2.8427872e+2, -791436.3, -294950.72, 16761.336, -0.08807847, -0.02627849, -294385.5, -140319.83, 0.0, 9.994876, 10.0014515 
1.704919e+3, 2.9428002e+2, -823427.06, -253663.73, 16717.729, -0.08259029, -0.043433614, -253173.64, -197121.95, 0.0, 9.993959, 10.001504 
1.7049e+3, 3.0428207e+2, -801590.9, -56190.87, 17115.844, -0.08904494, -0.05560832, -55798.063, -55798.063, 0.0, 9.993078, 10.002948 
1.7048807e+3, 3.14285e+2, -919575.4, -107286.766, 15610.781, -0.1107836, -0.061931916, -106986.87, -106986.87, 0.0, 9.992245, 10.002999 
1.7152587e+3, 1.2431894e+2, -843501.2, -1705713.5, 13566.667, 0.042271692, 0.12734331, -843287.75, 878396.25, 0.004975941, 10.007795, 9.996308 
1.715238e+3, 1.3431498e+2, -827002.3, -1606056.5, -38959.875, 0.034367505, 0.06671679, -825058.8, 798663.3, 0.0032366083, 10.007041, 9.996684 
1.7152175e+3, 1.4431219e+2, -764448.5, -1410620.3, -14313.818, 0.0490629, 0.07278153, -764131.56, 761616.8, 0.001635157, 10.006291, 9.997715 
1.7151973e+3, 1.5430975e+2, -768908.0, -1355169.9, -12931.57, 0.026677048, 0.052241217, -768622.94, 659147.5, 0.0005443653, 10.00555, 9.997779 
1.7151769e+3, 1.6430767e+2, -746602.7, -1239283.1, -19842.912, 0.0059423884, 0.044171628, -745804.75, 583984.7, 0.000079268146, 10.004792, 9.998267 
1.7151566e+3, 1.7430602e+2, -760433.2, -1192234.3, -20449.293, -0.011464832, 0.051651187, -759466.94, 472337.9, 0.00000083400033, 10.004011, 9.998294 
1.7151362e+3, 1.8430422e+2, -780058.56, -1155285.1, -26931.113, -0.025594309, 0.04751917, -778135.5, 355686.4, 0.0, 10.0032215, 9.998255 
1.7151158e+3, 1.9430226e+2, -799573.25, -1115319.1, -25640.857, -0.03575117, 0.027371736, -797504.56, 238336.81, 0.0, 10.00242, 9.998242 
1.7150953e+3, 2.0430064e+2, -796617.0, -1025854.1, -27275.17, -0.039119724, 0.027141288, -793416.44, 144441.3, 0.0, 10.001607, 9.998576 
1.7150751e+3, 2.1429947e+2, -818316.9, -983727.44, -26609.385, -0.03352647, 0.0517961, -814141.6, 25728.664, 0.0, 10.000777, 9.998592 
1.7150545e+3, 2.2429843e+2, -799109.3, -853845.06, -21882.21, -0.04037718, 0.062229186, -791436.75, -49556.12, 0.0, 9.999935, 9.999217 
1.7150342e+3, 2.3429757e+2, -823364.2, -810503.2, -20997.904, -0.06358595, 0.053274553, -794973.2, -151084.83, 0.0, 9.999077, 9.999254 
1.7150138e+3, 2.4429698e+2, -795169.25, -668495.4, -18598.988, -0.07973231, 0.037172433, -665821.0, -119928.12, 0.0, 9.998264, 9.9999485 
1.7149936e+3, 2.542967e+2, -803892.3, -616981.25, -21719.527, -0.08661544, 0.010731136, -614490.56, -166597.11, 0.0, 9.99751, 9.999992 
1.7149733e+3, 2.6429674e+2, -782451.9, -487586.03, -26533.902, -0.08805633, -0.009009776, -485217.38, -135326.22, 0.0, 9.996691, 10.000602 
1.7149532e+3, 2.7429727e+2, -813531.7, -447549.72, -28346.441, -0.08247357, -0.0208043, -445367.2, -193481.89, 0.0, 9.995788, 10.000639 
1.7149329e+3, 2.8429815e+2, -790684.8, -293897.66, -16971.994, -0.08143797, -0.03122714, -293318.53, -139443.02, 0.0, 9.994877, 10.001459 
1.714913e+3, 2.9429957e+2, -822716.94, -252500.19, -17031.28, -0.086294, -0.040599234, -251991.95, -196131.23, 0.0, 9.993958, 10.001513 
1.7148931e+3, 3.0430174e+2, -800725.2, -54762.883, -13595.546, -0.09707945, -0.04498928, -54515.18, -54515.18, 0.0, 9.993078, 10.002959 
1.7148729e+3, 3.143047e+2, -918634.06, -105948.88, -14845.678, -0.11514645, -0.04362654, -105677.78, -105677.78, 0.0, 9.992246, 10.003009 
1.7252664e+3, 1.2433941e+2, -852933.4, -1702207.6, 35343.992, 0.053146027, 0.14634697, -851465.0, 870020.0, 0.005336219, 10.0077, 9.996378 
1.7252448e+3, 1.3433543e+2, -821750.2, -1594688.8, -15396.497, 0.03750655, 0.07661491, -821443.6, 802079.06, 0.0034877034, 10.007043, 9.996761 
1.7252238e+3, 1.4433266e+2, -758987.5, -1406877.3, 9492.252, 0.0493822, 0.07911392, -758848.44, 766700.06, 0.001777295, 10.006327, 9.997723 
1.7252028e+3, 1.5433022e+2, -771091.1, -1355875.9, 13572.981, 0.029581483, 0.060503118, -770776.25, 656794.2, 0.00060186285, 10.005536, 9.99778 
1.7251816e+3, 1.6432814e+2, -753279.5, -1241639.0, 8577.308, 0.009677662, 0.05247531, -753128.9, 576460.6, 0.00009137162, 10.004745, 9.998273 
1.7251605e+3, 1.7432646e+2, -768861.56, -1195465.4, 10157.652, -0.009245154, 0.057460316, -768619.8, 462985.3, 0.0000010879404, 10.003951, 9.9983 
1.7251395e+3, 1.843247e+2, -782648.2, -1150284.1, 6078.9907, -0.025492307, 0.051222827, -782547.75, 351074.3, 0.0, 10.003178, 9.998309 
1.7251182e+3, 1.9432275e+2, -794069.7, -1105928.4, 8890.447, -0.038501516, 0.029538153, -793816.44, 241824.42, 0.0, 10.00243, 9.9983015 
1.7250969e+3, 2.0432116e+2, -793193.6, -1026374.7, 4258.175, -0.04179771, 0.030989133, -793115.9, 144541.03, 0.0, 10.001641, 9.998555 
1.7250758e+3, 2.1432002e+2, -817313.75, -986026.3, 1014.3526, -0.032341335, 0.061399315, -817307.7, 22361.951, 0.0, 10.000797, 9.998566 
1.7250545e+3, 2.2431901e+2, -793567.0, -851640.6, 3165.0352, -0.038568698, 0.075556695, -793395.06, -51714.996, 0.0, 9.999976, 9.999211 
1.7250332e+3, 2.3431817e+2, -807906.5, -803433.06, 1980.8052, -0.06547252, 0.06777036, -802682.06, -158994.36, 0.0, 9.9991865, 9.999249 
1.7250119e+3, 2.4431756e+2, -783839.3, -663767.94, 5056.2964, -0.082971476, 0.05205006, -663555.4, -117863.07, 0.0, 9.998346, 9.99994 
1.7249909e+3, 2.5431725e+2, -814599.3, -622997.06, 6723.202, -0.088168874, 0.02502874, -622761.44, -175068.23, 0.0, 9.997442, 9.999983 
1.72497e+3, 2.643173e+2, -797866.25, -490020.2, 5126.3794, -0.08793669, 0.0017698931, -489934.84, -140243.86, 0.0, 9.996566, 10.000645 
1.7249489e+3, 2.7431774e+2, -819368.0, -445043.47, 7900.8257, -0.08060535, -0.017417846, -444876.78, -193191.78, 0.0, 9.995726, 10.000685 
1.7249279e+3, 2.8431863e+2, -791053.9, -295821.63, 20354.652, -0.08053585, -0.031208651, -294986.44, -141311.28, 0.0, 9.994884, 10.001442 
1.724907e+3, 2.9432005e+2, -812935.7, -250163.36, 17505.75, -0.08996585, -0.038638435, -249619.34, -193958.83, 0.0, 9.994038, 10.00149 
1.7248861e+3, 3.0432218e+2, -790003.75, -54256.6, 18177.79, -0.1015135, -0.039734405, -53807.766, -53807.766, 0.0, 9.993174, 10.002915 
1.7248653e+3, 3.1432518e+2, -916081.56, -109658.54, 12429.205, -0.11519014, -0.033523094, -109467.016, -109467.016, 0.0, 9.992286, 10.002963 
1.7352743e+3, 1.2436037e+2, -847178.1, -1689637.0, 11387.505, 0.06480552, 0.1514053, -847024.25, 874257.0, 0.0057179984, 10.007699, 9.996466 
1.735252e+3, 1.3435656e+2, -815585.8, -1581182.0, -39336.137, 0.03624484, 0.087809645, -813570.06, 809746.75, 0.0037554845, 10.00704, 9.996857 
1.7352301e+3, 1.4435388e+2, -756597.6, -1401312.1, -19121.164, 0.043989453, 0.09367873, -756031.0, 769310.25, 0.0019302475, 10.006323, 9.997764 
1.7352082e+3, 1.5435147e+2, -768686.44, -1350879.4, -15525.438, 0.030511132, 0.07316625, -768272.75, 659090.3, 0.0006646213, 10.005534, 9.997816 
1.7351866e+3, 1.6434938e+2, -750881.44, -1236987.0, -20624.92, 0.014504596, 0.062201772, -750007.9, 579374.1, 0.000105066014, 10.004745, 9.998306 
1.7351645e+3, 1.743477e+2, -766460.0, -1190935.3, -19042.299, -0.0037850137, 0.06286566, -765607.44, 465790.22, 0.0000014444589, 10.003951, 9.998331 
1.7351426e+3, 1.8434598e+2, -777444.9, -1139972.5, -21501.732, -0.020686973, 0.05610111, -776174.06, 357240.03, 0.0, 10.003179, 9.998381 
1.7351206e+3, 1.9434416e+2, -788650.5, -1095144.3, -18589.87, -0.035945207, 0.038846966, -787527.06, 247904.52, 0.0, 10.002431, 9.998376 
1.7350985e+3, 2.043426e+2, -797767.25, -1036494.5, -26627.453, -0.044844586, 0.0427238, -794833.3, 142614.14, 0.0, 10.001642, 9.9984865 
1.7350765e+3, 2.1434137e+2, -822378.5, -997525.0, -30054.102, -0.045456592, 0.07277295, -817364.9, 22096.547, 0.0, 10.000799, 9.9984865 
1.7350543e+3, 2.243403e+2, -795694.6, -857073.9, -25972.691, -0.053647894, 0.08659266, -786179.4, -44706.66, 0.0, 9.999979, 9.999173 
1.7350323e+3, 2.3433942e+2, -809991.7, -808610.94, -27021.793, -0.07185251, 0.078618556, -782270.7, -138790.03, 0.0, 9.999188, 9.999214 
1.7350104e+3, 2.4433883e+2, -780221.3, -657043.9, -28023.38, -0.080609754, 0.06371364, -650968.1, -105482.984, 0.0, 9.998348, 9.999987 
1.7349885e+3, 2.5433856e+2, -810642.5, -615546.9, -26647.842, -0.07719176, 0.038944855, -611972.56, -164487.23, 0.0, 9.997443, 10.000034 
1.7349665e+3, 2.6433867e+2, -790328.4, -475035.25, -25942.482, -0.076774485, 0.015165764, -472914.94, -123432.734, 0.0, 9.996567, 10.000748 
1.7349446e+3, 2.7433923e+2, -811654.8, -429650.63, -22915.213, -0.080146626, -0.008184608, -428280.94, -176805.89, 0.0, 9.995727, 10.000791 
1.7349227e+3, 2.843401e+2, -794346.75, -303322.97, -10613.819, -0.0855482, -0.026105447, -303093.66, -149628.64, 0.0, 9.9948845, 10.00139 
1.7349009e+3, 2.943414e+2, -816977.56, -259376.27, -13471.151, -0.09361985, -0.03759934, -259051.0, -203599.55, 0.0, 9.99404, 10.001427 
1.7348793e+3, 3.0434343e+2, -797071.06, -69905.43, -14338.482, -0.10222084, -0.040073972, -69622.805, -69622.805, 0.0, 9.9931755, 10.002808 
1.7348576e+3, 3.1434634e+2, -923495.44, -125939.91, -20199.836, -0.110736124, -0.03203182, -125428.63, -125428.63, 0.0, 9.992288, 10.002851 
1.745282e+3, 1.2438228e+2, -835734.8, -1679595.1, 50688.79, 0.06687642, 0.1596607, -832700.94, 888366.7, 0.0061222506, 10.007764, 9.996503 
1.7452589e+3, 1.343785e+2, -819908.56, -1578388.8, -3947.404, 0.03858277, 0.09524654, -819888.06, 803214.5, 0.004040099, 10.006992, 9.996898 
1.7452364e+3, 1.4437585e+2, -770075.56, -1407460.8, 11028.559, 0.046427622, 0.10150708, -769884.8, 755241.9, 0.0020938574, 10.006231, 9.997765 
1.7452139e+3, 1.5437342e+2, -776172.2, -1354598.4, 11409.526, 0.032484397, 0.08080623, -775947.25, 651201.44, 0.00073250546, 10.005486, 9.997813 
1.7451912e+3, 1.6437136e+2, -752141.7, -1232689.3, 3819.3494, 0.015996918, 0.06929803, -752111.3, 577056.3, 0.00012029303, 10.004716, 9.998348 
1.7451684e+3, 1.7436971e+2, -768585.9, -1186796.3, 5912.578, -0.0028737553, 0.06886323, -768502.3, 462680.63, 0.000001911556, 10.003916, 9.998376 
1.7451458e+3, 1.8436803e+2, -782477.44, -1136130.9, 3934.1594, -0.019340282, 0.063632354, -782433.7, 350764.94, 0.0, 10.0031185, 9.998435 
1.745123e+3, 1.9436632e+2, -800473.06, -1094429.3, 5217.751, -0.03289097, 0.051351067, -800380.44, 234834.69, 0.0, 10.002323, 9.998432 
1.7451002e+3, 2.0436479e+2, -808299.44, -1042709.6, -1601.5804, -0.04430219, 0.05566237, -808288.5, 128942.35, 0.0, 10.001576, 9.998474 
1.7450772e+3, 2.1436349e+2, -810537.2, -993468.0, -666.28705, -0.05285604, 0.0802168, -810534.8, 28710.834, 0.0, 10.00089, 9.99847 
1.7450543e+3, 2.2436239e+2, -778834.56, -846878.94, 3715.6196, -0.061905056, 0.09159195, -778632.25, -37375.098, 0.0, 10.000088, 9.99919 
1.7450315e+3, 2.3436153e+2, -816363.6, -809487.0, 6134.669, -0.0717772, 0.08515479, -805892.8, -162628.08, 0.0, 9.999137, 9.999232 
1.7450087e+3, 2.4436094e+2, -798171.1, -664890.56, 5058.041, -0.07694087, 0.07005087, -664698.9, -119429.805, 0.0, 9.998223, 9.999991 
1.7449859e+3, 2.5436068e+2, -822911.06, -620851.2, 2562.52, -0.07606974, 0.04301805, -620818.7, -173549.13, 0.0, 9.997358, 10.000038 
1.7449631e+3, 2.6436082e+2, -793202.2, -472583.3, 1245.5393, -0.077437826, 0.02062829, -472578.5, -123312.3, 0.0, 9.996532, 10.00078 
1.7449403e+3, 2.7436146e+2, -805168.2, -422526.16, -1303.5055, -0.08172675, 0.0032241303, -422521.72, -171263.61, 0.0, 9.995756, 10.000825 
1.7449176e+3, 2.8436238e+2, -788557.56, -301329.0, 7257.3003, -0.086801894, -0.0123569565, -301220.94, -147973.22, 0.0, 9.994929, 10.001382 
1.7448948e+3, 2.9436362e+2, -817781.1, -260983.33, 7828.431, -0.09288344, -0.026098642, -260873.28, -205638.81, 0.0, 9.994041, 10.001414 
1.7448725e+3, 3.043656e+2, -795705.6, -74446.45, 12324.221, -0.10132897, -0.03245906, -74235.93, -74235.93, 0.0, 9.99321, 10.00276 
1.7448498e+3, 3.1436837e+2, -903437.4, -121881.625, 10781.55, -0.11184922, -0.030449117, -121732.92, -121732.92, 0.0, 9.992452, 10.002799 
1.7552897e+3, 1.2440509e+2, -837276.56, -1682177.3, 22338.441, 0.060305156, 0.17071076, -836686.4, 884158.44, 0.0065497626, 10.007762, 9.996488 
1.755266e+3, 1.3440123e+2, -821371.4, -1581017.4, -32201.48, 0.04423117, 0.09926985, -820008.8, 802871.56, 0.004341502, 10.00699, 9.9968815 
1.7552426e+3, 1.4439851e+2, -773339.44, -1414021.8, -16233.103, 0.055953637, 0.10320629, -772928.44, 751976.6, 0.0022678152, 10.006229, 9.997722 
1.7552194e+3, 1.5439607e+2, -779462.25, -1361554.9, -15823.569, 0.035354502, 0.08386442, -779032.44, 647895.2, 0.00080534193, 10.005485, 9.9977665 
1.7551959e+3, 1.64394e+2, -748952.56, -1226491.6, -25352.715, 0.014371028, 0.07399521, -747610.4, 581336.25, 0.00013701852, 10.004716, 9.998391 
1.7551723e+3, 1.7439243e+2, -764796.06, -1179696.0, -23452.72, -0.0062415875, 0.07544159, -763474.56, 467486.53, 0.0000024910782, 10.003918, 9.998425 
1.7551488e+3, 1.8439083e+2, -779885.25, -1131654.6, -25292.54, -0.02125191, 0.073674046, -778076.0, 354900.13, 0.0, 10.00312, 9.9984665 
1.7551252e+3, 1.943892e+2, -797900.6, -1090014.6, -23998.996, -0.029345261, 0.06687914, -795942.1, 239049.78, 0.0, 10.002326, 9.998463 
1.7551017e+3, 2.043877e+2, -805321.8, -1037376.44, -26981.688, -0.040307503, 0.06969383, -802225.9, 134781.47, 0.0, 10.001578, 9.998511 
1.755078e+3, 2.1438631e+2, -807619.25, -988060.94, -25760.537, -0.054727603, 0.083793014, -804013.6, 35008.9, 0.0, 10.000891, 9.998508 
1.7550543e+3, 2.2438522e+2, -774146.44, -837768.0, -30752.021, -0.06351856, 0.090674765, -761712.3, -20678.508, 0.0, 10.000089, 9.999253 
1.7550306e+3, 2.3438446e+2, -811475.06, -800183.94, -28980.762, -0.06534179, 0.08741445, -776303.94, -133263.63, 0.0, 9.999139, 9.999296 
1.7550069e+3, 2.4438387e+2, -800747.9, -671130.25, -27023.61, -0.07204797, 0.07102845, -665721.8, -120677.195, 0.0, 9.998225, 9.9999485 
1.7549832e+3, 2.543835e+2, -826117.75, -628303.3, -29296.87, -0.08494622, 0.03716572, -624055.6, -177009.27, 0.0, 9.99736, 9.999987 
1.7549595e+3, 2.643836e+2, -796072.75, -479344.5, -27489.045, -0.09007018, 0.018119799, -476976.44, -127933.06, 0.0, 9.996533, 10.000734 
1.754936e+3, 2.7438438e+2, -808044.0, -429348.66, -29820.195, -0.085370086, 0.016946523, -427014.84, -175980.19, 0.0, 9.995758, 10.000778 
1.7549124e+3, 2.8438535e+2, -786155.9, -297190.75, -25316.334, -0.084218934, 0.010358563, -295883.5, -142859.83, 0.0, 9.994931, 10.0014105 
1.754889e+3, 2.9438663e+2, -815155.4, -256247.6, -24972.889, -0.0876094, -0.0036692787, -255133.98, -200124.05, 0.0, 9.994042, 10.001447 
1.7548656e+3, 3.0438858e+2, -794836.5, -73645.9, -15720.193, -0.09884362, -0.0165238, -73303.4, -73303.4, 0.0, 9.993212, 10.002765 
1.7548421e+3, 3.143912e+2, -902392.4, -121270.734, -16847.531, -0.119014464, -0.028771734, -120907.52, -120907.52, 0.0, 9.992456, 10.002802 
1.7652975e+3, 1.2442868e+2, -824688.0, -1673975.6, 50143.234, 0.061483156, 0.1794766, -821737.7, 898877.0, 0.0070009707, 10.007846, 9.996503 
1.7652729e+3, 1.3442488e+2, -817493.3, -1577045.3, -2360.193, 0.04489664, 0.11323064, -817486.0, 805163.6, 0.0046595423, 10.007013, 9.996897 
1.7652488e+3, 1.4442216e+2, -776832.25, -1416972.3, 17518.66, 0.057279393, 0.11692084, -776353.2, 748321.0, 0.0024518082, 10.006214, 9.997707 
1.7652248e+3, 1.544196e+2, -784047.0, -1365409.8, 19810.508, 0.038849995, 0.088380896, -783372.7, 643325.06, 0.0008830049, 10.005463, 9.997749 
1.7652005e+3, 1.6441749e+2, -749994.2, -1226865.8, 8631.951, 0.017197069, 0.075602286, -749838.0, 578879.1, 0.00015524974, 10.004711, 9.998391 
1.7651762e+3, 1.7441596e+2, -759229.06, -1176799.6, 6631.0103, -0.007585726, 0.08195661, -759123.8, 471607.47, 0.0000031864872, 10.003957, 9.998425 
1.7651519e+3, 1.8441442e+2, -769808.7, -1123825.6, 1471.3617, -0.024546906, 0.084218495, -769802.6, 362943.3, 0.0, 10.003179, 9.998491 
1.7651276e+3, 1.9441284e+2, -789692.75, -1082809.9, 2174.4902, -0.031845808, 0.08037302, -789676.6, 245084.64, 0.0, 10.00237, 9.998489 
1.7651033e+3, 2.0441133e+2, -805250.2, -1031084.1, 939.3294, -0.040668126, 0.08052605, -805246.25, 131530.25, 0.0, 10.001554, 9.998566 
1.7650789e+3, 2.1440992e+2, -827674.2, -991204.7, 3353.1738, -0.051300004, 0.08480539, -827605.44, 11186.348, 0.0, 10.000727, 9.998565 
1.7650543e+3, 2.2440886e+2, -797165.8, -844777.2, -6239.948, -0.06050898, 0.09123756, -796361.56, -55558.95, 0.0, 9.999914, 9.999289 
1.7650297e+3, 2.3440823e+2, -811897.94, -796543.0, -7343.3945, -0.067950055, 0.09935707, -793596.5, -150788.4, 0.0, 9.999121, 9.999329 
1.7650051e+3, 2.444077e+2, -787256.1, -662652.6, -3987.1516, -0.07725692, 0.08495794, -662525.2, -117713.16, 0.0, 9.998311, 9.999965 
1.7649804e+3, 2.5440723e+2, -807743.1, -617725.4, -1597.5735, -0.08910283, 0.04149085, -617711.94, -170897.78, 0.0, 9.99748, 10.000001 
1.764956e+3, 2.6440728e+2, -784240.1, -480611.7, 3338.1082, -0.09354733, 0.019061796, -480575.0, -131763.27, 0.0, 9.996647, 10.00067 
1.7649317e+3, 2.74408e+2, -805335.7, -435653.63, -916.34283, -0.08855427, 0.022274489, -435651.34, -184847.72, 0.0, 9.9958105, 10.000709 
1.7649074e+3, 2.84409e+2, -781392.1, -295933.4, -1269.9249, -0.08688467, 0.019286856, -295930.1, -143137.2, 0.0, 9.99497, 10.0014 
1.7648831e+3, 2.944103e+2, -803775.1, -251434.0, -4431.583, -0.089487, 0.0077305324, -251398.44, -196619.45, 0.0, 9.994124, 10.001439 
1.764859e+3, 3.044122e+2, -782926.9, -68160.016, 5678.8594, -0.09835438, -0.005855536, -68114.9, -68114.9, 0.0, 9.993297, 10.002761 
1.7648347e+3, 3.144148e+2, -897400.6, -119177.45, 3864.4978, -0.11421026, -0.022762919, -119158.266, -119158.266, 0.0, 9.992494, 10.002797 
1.7753054e+3, 1.2445301e+2, -822825.06, -1669156.8, 19756.049, 0.06930744, 0.18624134, -822364.2, 898013.5, 0.007475706, 10.007843, 9.996538 
1.77528e+3, 1.3444941e+2, -814947.1, -1571906.5, -32901.14, 0.04098121, 0.13627476, -813519.75, 808890.9, 0.004993841, 10.007014, 9.996933 
1.775255e+3, 1.4444673e+2, -776243.1, -1416361.5, -10201.018, 0.051198587, 0.1415548, -776080.6, 748354.06, 0.0026454562, 10.006216, 9.997712 
1.7752302e+3, 1.5444398e+2, -783685.6, -1365246.4, -7795.4126, 0.042953975, 0.09417633, -783581.2, 642878.4, 0.0009653375, 10.005464, 9.997751 
1.7752053e+3, 1.644418e+2, -753325.2, -1234332.5, -19052.79, 0.02411427, 0.07436408, -752571.6, 575907.94, 0.00017497341, 10.004711, 9.998341 
1.7751801e+3, 1.7444028e+2, -762836.75, -1184820.9, -21010.094, -0.0070734974, 0.088431485, -761793.25, 468700.6, 0.0000039977267, 10.003957, 9.99837 
1.7751549e+3, 1.8443875e+2, -768743.7, -1122197.0, -28120.738, -0.029196372, 0.09522285, -766520.4, 365988.1, 0.0, 10.00318, 9.998503 
1.7751299e+3, 1.9443719e+2, -788167.2, -1080423.5, -27523.318, -0.040143054, 0.09192166, -785597.75, 248925.86, 0.0, 10.002371, 9.998507 
1.7751047e+3, 2.044357e+2, -800365.4, -1021842.5, -29379.92, -0.045162156, 0.0882907, -796534.25, 140004.44, 0.0, 10.001555, 9.998629 
1.7750795e+3, 2.1443425e+2, -822484.2, -981411.1, -27009.584, -0.042680897, 0.08331959, -818019.3, 20534.451, 0.0, 10.000729, 9.9986315 
1.7750543e+3, 2.2443326e+2, -796685.9, -844812.56, -35479.33, -0.053072177, 0.093292035, -777879.3, -37315.293, 0.0, 9.999917, 9.999288 
1.7750287e+3, 2.3443283e+2, -811782.4, -797319.9, -36493.285, -0.079598814, 0.120920934, -767348.25, -124779.875, 0.0, 9.999124, 9.999323 
1.7750032e+3, 2.4443237e+2, -782031.9, -652747.5, -34454.254, -0.092468865, 0.11177944, -644138.7, -99567.09, 0.0, 9.998313, 10.000033 
1.7749779e+3, 2.5443184e+2, -802240.25, -607268.44, -32149.29, -0.088434555, 0.056016613, -602104.06, -155530.61, 0.0, 9.997482, 10.0000725 
1.7749527e+3, 2.6443183e+2, -790067.94, -493703.47, -27424.379, -0.08780594, 0.023404317, -491187.1, -142615.39, 0.0, 9.996649, 10.000581 
1.7749275e+3, 2.7443233e+2, -811929.25, -450284.53, -31685.383, -0.091347985, 0.018869486, -447529.4, -196963.9, 0.0, 9.995812, 10.000608 
1.7749022e+3, 2.8443322e+2, -785112.44, -304610.06, -32409.021, -0.095050916, 0.013916292, -302433.97, -149878.1, 0.0, 9.994972, 10.00134 
1.774877e+3, 2.9443452e+2, -807279.4, -259790.28, -35617.668, -0.098965935, 0.007647715, -257482.86, -202940.72, 0.0, 9.994127, 10.001382 
1.774852e+3, 3.0443648e+2, -783844.5, -71326.23, -24109.209, -0.09996959, -0.0006314903, -70511.38, -70511.38, 0.0, 9.9932995, 10.002739 
1.7748272e+3, 3.144391e+2, -898344.1, -122222.336, -25799.959, -0.09654487, -0.012111549, -121365.64, -121365.64, 0.0, 9.9924965, 10.002776 
1.7853132e+3, 1.2447829e+2, -819222.6, -1672520.1, 56504.742, 0.07507557, 0.19452071, -815497.2, 904634.0, 0.007973188, 10.007896, 9.996489 
1.785287e+3, 1.3447472e+2, -801924.1, -1571202.3, -2413.966, 0.04325661, 0.154945, -801916.5, 820247.56, 0.005343881, 10.007133, 9.99688 
1.7852612e+3, 1.4447206e+2, -758013.75, -1407248.4, 17100.64, 0.051287625, 0.16356726, -757563.6, 766624.5, 0.0028483842, 10.006344, 9.997712 
1.7852357e+3, 1.5446922e+2, -774120.5, -1360092.4, 19246.945, 0.04327364, 0.10818386, -773489.0, 652724.3, 0.0010521234, 10.005529, 9.997754 
1.7852099e+3, 1.6446696e+2, -753455.4, -1237117.1, 8795.548, 0.02568055, 0.08357941, -753295.44, 574938.3, 0.00019612229, 10.0047245, 9.998314 
1.7851841e+3, 1.744654e+2, -769215.9, -1190906.6, 8317.783, -0.0031247404, 0.096742295, -769051.9, 461196.66, 0.000004914883, 10.003928, 9.998342 
1.785158e+3, 1.8446389e+2, -773148.5, -1121755.8, 1445.5903, -0.02564151, 0.10438569, -773142.5, 359120.7, 0.0, 10.00314, 9.998524 
1.7851321e+3, 1.9446237e+2, -788236.4, -1077505.3, 2229.653, -0.040411763, 0.104106545, -788219.2, 246058.83, 0.0, 10.00236, 9.99853 
1.7851062e+3, 2.044609e+2, -793860.1, -1010482.0, -251.93013, -0.047722466, 0.09963469, -793859.9, 142432.77, 0.0, 10.001566, 9.9987 
1.7850803e+3, 2.144595e+2, -813525.3, -968471.94, 2358.7324, -0.045630395, 0.08903437, -813489.44, 24817.61, 0.0, 10.000755, 9.998707 
1.7850542e+3, 2.2445852e+2, -793356.56, -847476.94, -6290.691, -0.056175075, 0.098211765, -792635.0, -52317.816, 0.0, 9.99996, 9.999248 
1.7850278e+3, 2.3445809e+2, -806362.44, -799783.44, -10643.261, -0.08263088, 0.13102019, -791932.94, -149610.81, 0.0, 9.999184, 9.999276 
1.7850015e+3, 2.4445765e+2, -771872.56, -643017.25, -13966.485, -0.09408332, 0.12588385, -641520.8, -97195.62, 0.0, 9.9983635, 10.000074 
1.7849754e+3, 2.544572e+2, -798346.75, -600073.1, -14022.746, -0.0868714, 0.072827406, -599086.25, -152760.16, 0.0, 9.997488, 10.000118 
1.7849493e+3, 2.6445717e+2, -788579.3, -492140.88, -5495.798, -0.08635946, 0.036076568, -492039.0, -143714.81, 0.0, 9.996657, 10.0005865 
1.7849232e+3, 2.7445754e+2, -801673.6, -444844.47, -2095.8342, -0.09420049, 0.01884317, -444832.16, -194513.22, 0.0, 9.995883, 10.000611 
1.7848971e+3, 2.8445837e+2, -771655.75, -300453.84, 944.1106, -0.09946065, 0.009558524, -300451.97, -148142.2, 0.0, 9.995076, 10.001318 
1.7848712e+3, 2.944597e+2, -793765.94, -255888.61, -122.060875, -0.10155247, 0.009309528, -255888.58, -201592.72, 0.0, 9.994233, 10.001356 
1.7848454e+3, 3.044616e+2, -775329.75, -70561.81, 12144.027, -0.098826975, 0.003135333, -70352.62, -70352.62, 0.0, 9.993375, 10.002707 
1.7848198e+3, 3.1446418e+2, -900082.0, -126516.12, 9203.257, -0.08923801, -0.011019528, -126406.64, -126406.64, 0.0, 9.992501, 10.002743 
1.7953211e+3, 1.2450445e+2, -828255.2, -1691842.5, 28148.748, 0.07885749, 0.20400625, -827338.6, 892537.06, 0.008492347, 10.007901, 9.996354 
1.7952941e+3, 1.3450079e+2, -811951.5, -1592033.9, -30304.686, 0.051086918, 0.16965984, -810776.0, 811134.25, 0.0057094437, 10.0071335, 9.9967375 
1.7952676e+3, 1.444981e+2, -758956.4, -1409165.4, -12423.991, 0.0568765, 0.1832375, -758719.06, 765215.7, 0.0030606573, 10.006343, 9.997701 
1.7952412e+3, 1.5449528e+2, -774253.75, -1360963.4, -10452.853, 0.040052596, 0.12976532, -774067.56, 651891.75, 0.0011433897, 10.00553, 9.997748 
1.7952147e+3, 1.6449298e+2, -754060.1, -1239132.9, -20306.098, 0.022355396, 0.102397986, -753211.56, 574768.4, 0.00021869873, 10.004725, 9.998301 
1.795188e+3, 1.7449133e+2, -770016.6, -1193097.8, -20775.443, 0.004067978, 0.106712446, -768998.94, 460996.7, 0.000005937154, 10.003929, 9.998327 
1.7951614e+3, 1.8448977e+2, -771511.25, -1118875.8, -27132.406, -0.014399815, 0.11184154, -769404.75, 362605.84, 0.0, 10.00314, 9.998545 
1.7951345e+3, 1.9448835e+2, -786293.1, -1074199.1, -26333.25, -0.0330857, 0.116903394, -783904.4, 250120.52, 0.0, 10.002361, 9.998554 
1.7951077e+3, 2.0448695e+2, -788386.1, -1000054.6, -29962.82, -0.04854242, 0.11441657, -784226.44, 151812.2, 0.0, 10.001568, 9.998773 
1.7950809e+3, 2.1448559e+2, -807680.1, -957487.75, -27424.139, -0.05989288, 0.10174334, -802817.6, 35234.33, 0.0, 10.000758, 9.998782 
1.795054e+3, 2.2448455e+2, -798889.5, -860097.5, -34840.53, -0.069475785, 0.10584298, -783120.4, -43057.914, 0.0, 9.999963, 9.999161 
1.795027e+3, 2.3448393e+2, -812629.6, -813806.06, -39105.773, -0.07702414, 0.12967716, -774107.6, -132037.95, 0.0, 9.9991865, 9.99918 
1.795e+3, 2.4448349e+2, -770890.44, -641934.75, -46040.547, -0.082219265, 0.12738943, -627184.3, -83111.03, 0.0, 9.998365, 10.000082 
1.7949729e+3, 2.5448322e+2, -797058.75, -598328.94, -46308.445, -0.08450975, 0.092069656, -588067.9, -141995.36, 0.0, 9.99749, 10.000131 
1.7949459e+3, 2.6448324e+2, -781287.2, -478027.66, -34134.164, -0.08929107, 0.057209875, -474233.06, -126163.42, 0.0, 9.996659, 10.000683 
1.794919e+3, 2.744836e+2, -793974.56, -430021.22, -30502.441, -0.097149596, 0.022254273, -427482.56, -177418.27, 0.0, 9.995886, 10.000712 
1.7948923e+3, 2.844844e+2, -770476.44, -299256.75, -29958.402, -0.100024946, 0.006247344, -297359.75, -145304.88, 0.0, 9.995079, 10.001326 
1.7948654e+3, 2.9448578e+2, -792978.0, -255561.58, -31072.105, -0.09690295, 0.012738223, -253771.03, -199730.53, 0.0, 9.994237, 10.001358 
1.7948388e+3, 3.0448768e+2, -778297.06, -77980.195, -19942.068, -0.094879285, 0.005204534, -77412.79, -77412.79, 0.0, 9.993378, 10.002655 
1.7948122e+3, 3.1449005e+2, -903440.2, -134476.28, -22883.436, -0.09326945, -0.020227043, -133795.9, -133795.9, 0.0, 9.992503, 10.002688 
1.8053292e+3, 1.2453149e+2, -795626.44, -1678397.1, 51353.418, 0.07891897, 0.22542784, -792649.06, 926963.2, 0.009031915, 10.008144, 9.996329 
1.8053013e+3, 1.3452776e+2, -800917.9, -1589768.1, 611.7598, 0.05598332, 0.18530148, -800917.4, 820730.3, 0.0060906317, 10.007228, 9.996706 
1.8052739e+3, 1.4452499e+2, -754859.4, -1407140.6, 24589.959, 0.061766114, 0.19625251, -753933.7, 769738.8, 0.003282919, 10.006375, 9.997698 
1.8052468e+3, 1.5452215e+2, -764081.75, -1356087.5, 26535.826, 0.040266614, 0.14077428, -762894.7, 662802.4, 0.0012396147, 10.005604, 9.9977455 
1.8052194e+3, 1.6451983e+2, -747777.06, -1238820.6, 14233.609, 0.021957302, 0.11258382, -747364.8, 580352.94, 0.00024289837, 10.004783, 9.998274 
1.8051921e+3, 1.7451814e+2, -776233.75, -1198978.0, 12368.195, 0.008024171, 0.117106, -775872.2, 453861.66, 0.000007097095, 10.003901, 9.9983 
1.8051644e+3, 1.8451656e+2, -780789.0, -1122055.6, 7253.914, -0.009049282, 0.1223683, -780634.9, 351114.2, 0.0, 10.003074, 9.998554 
1.8051368e+3, 1.9451517e+2, -792916.56, -1075816.5, 7039.896, -0.02998038, 0.12754442, -792741.44, 241021.92, 0.0, 10.002311, 9.998566 
1.8051092e+3, 2.045138e+2, -784636.75, -991925.6, 2284.1826, -0.04945231, 0.12656522, -784611.6, 151165.11, 0.0, 10.001569, 9.998827 
1.8050815e+3, 2.1451251e+2, -790427.0, -942524.25, 3203.4531, -0.067028694, 0.11717584, -790359.56, 47429.355, 0.0, 10.00085, 9.998839 
1.8050538e+3, 2.2451147e+2, -786639.2, -855257.44, -5058.0137, -0.075244, 0.118426256, -786268.4, -46469.0, 0.0, 10.000053, 9.999149 
1.8050261e+3, 2.3451075e+2, -817345.9, -817573.94, -3693.445, -0.07206899, 0.13183048, -813764.7, -171957.05, 0.0, 9.999163, 9.999165 
1.8049982e+3, 2.4451025e+2, -775835.4, -645802.8, -7648.7144, -0.07397502, 0.127143, -645354.44, -101542.7, 0.0, 9.99834, 10.000067 
1.8049704e+3, 2.5451005e+2, -782244.3, -592816.75, -10359.1, -0.08215734, 0.09951379, -592251.94, -146441.27, 0.0, 9.997601, 10.000114 
1.8049426e+3, 2.645101e+2, -759912.44, -461232.03, -2457.315, -0.08942456, 0.067623004, -461211.8, -113404.48, 0.0, 9.996779, 10.00074 
1.8049149e+3, 2.7451047e+2, -793024.8, -422660.25, -2374.9246, -0.095592715, 0.029725963, -422645.03, -172843.7, 0.0, 9.995864, 10.000772 
1.8048872e+3, 2.845113e+2, -783267.44, -309253.5, -4233.4165, -0.0969682, 0.013734202, -309215.7, -157423.94, 0.0, 9.99501, 10.001289 
1.8048596e+3, 2.9451266e+2, -796677.56, -261780.17, -8872.665, -0.09257266, 0.023741335, -261633.03, -207855.19, 0.0, 9.994232, 10.001317 
1.8048322e+3, 3.0451453e+2, -764261.5, -71314.03, 2276.2847, -0.09345367, 0.01663264, -71306.555, -71306.555, 0.0, 9.993477, 10.002652 
1.8048048e+3, 3.1451687e+2, -867527.8, -117118.18, 3081.0945, -0.09995826, -0.0120310355, -117105.53, -117105.53, 0.0, 9.992752, 10.002687 
1.8153372e+3, 1.24559365e+2, -791974.6, -1669572.1, 17998.287, 0.07549397, 0.2570098, -791605.6, 927735.5, 0.009590619, 10.008141, 9.996393 
1.8153085e+3, 1.3455553e+2, -796804.06, -1581242.9, -32729.932, 0.058246005, 0.20166336, -795440.8, 825936.0, 0.0064875395, 10.007228, 9.996766 
1.8152803e+3, 1.4455272e+2, -755038.25, -1407920.9, -3622.62, 0.066022694, 0.20323937, -755018.1, 768383.75, 0.0035159977, 10.006376, 9.997694 
1.8152523e+3, 1.545498e+2, -764893.44, -1357780.3, -1539.7911, 0.04359885, 0.14216368, -764889.44, 660537.44, 0.0013415624, 10.005602, 9.997736 
1.8152241e+3, 1.6454747e+2, -751177.94, -1246075.5, -17927.576, 0.024193792, 0.11492309, -750529.4, 576918.4, 0.0002691026, 10.004782, 9.998225 
1.8151958e+3, 1.7454581e+2, -779238.1, -1206243.5, -20018.852, 0.008922606, 0.12795633, -778301.6, 451162.06, 0.000008468668, 10.003903, 9.998249 
1.8151675e+3, 1.8454424e+2, -780794.6, -1123406.8, -20833.47, -0.00923252, 0.13574609, -779532.44, 351946.66, 0.0, 10.003077, 9.998544 
1.8151392e+3, 1.9454277e+2, -792851.7, -1076849.5, -20820.662, -0.030870011, 0.13612822, -791333.4, 242160.61, 0.0, 10.002314, 9.998558 
1.8151109e+3, 2.0454143e+2, -782087.75, -987635.44, -24046.094, -0.050406244, 0.13626386, -779312.2, 156194.94, 0.0, 10.001571, 9.998857 
1.8150824e+3, 2.1454026e+2, -787814.2, -937949.25, -23069.549, -0.067243226, 0.13530381, -784349.3, 53169.02, 0.0, 10.000852, 9.998872 
1.815054e+3, 2.2453927e+2, -782377.3, -847304.5, -37583.324, -0.073722534, 0.13585547, -765178.1, -25649.924, 0.0, 10.000055, 9.999205 
1.8150254e+3, 2.3453845e+2, -812866.44, -809349.8, -36529.535, -0.06781563, 0.13743639, -774536.3, -132999.81, 0.0, 9.999165, 9.999221 
1.8149967e+3, 2.445379e+2, -778611.94, -652645.8, -35046.98, -0.069328494, 0.12506182, -643551.44, -100010.44, 0.0, 9.9983425, 10.00002 
1.814968e+3, 2.545376e+2, -785434.6, -600577.2, -37454.69, -0.07982516, 0.094934046, -593276.7, -147735.67, 0.0, 9.997603, 10.000061 
1.8149394e+3, 2.645377e+2, -758873.7, -460261.2, -35939.992, -0.08672884, 0.06717486, -455996.47, -108458.79, 0.0, 9.996782, 10.000746 
1.8149108e+3, 2.745382e+2, -791962.1, -421440.97, -36204.684, -0.089378074, 0.041455843, -417936.47, -168406.05, 0.0, 9.995866, 10.000781 
1.8148823e+3, 2.8453904e+2, -789179.06, -322486.75, -33124.586, -0.090189934, 0.03240422, -320147.38, -168626.6, 0.0, 9.995012, 10.001199 
1.8148538e+3, 2.9454032e+2, -802833.9, -275689.9, -37537.863, -0.08872646, 0.042705357, -273030.25, -219521.92, 0.0, 9.994235, 10.001221 
1.8148255e+3, 3.0454218e+2, -760614.2, -65341.176, -24440.291, -0.094845474, 0.03811148, -64483.11, -64483.11, 0.0, 9.993481, 10.002692 
1.8147975e+3, 3.1454465e+2, -863005.4, -110039.164, -23417.549, -0.10954735, 0.014913051, -109311.58, -109311.58, 0.0, 9.992759, 10.002733 
1.8253455e+3, 1.2458798e+2, -787841.9, -1666025.8, 57478.277, 0.08204328, 0.26223227, -784095.8, 934965.9, 0.010167848, 10.00817, 9.996402 
1.8253158e+3, 1.345842e+2, -781009.94, -1573043.3, 2900.868, 0.058416512, 0.21128805, -780999.3, 840097.75, 0.006900091, 10.00734, 9.996767 
1.8252867e+3, 1.445814e+2, -741560.6, -1401980.4, 30760.336, 0.06382682, 0.21595019, -740131.0, 782990.7, 0.0037603686, 10.006475, 9.997685 
1.825258e+3, 1.5457846e+2, -770218.6, -1361172.5, 32558.912, 0.045368493, 0.153774, -768430.2, 656716.6, 0.001449873, 10.005572, 9.997726 
1.825229e+3, 1.6457607e+2, -762230.56, -1258453.4, 16195.122, 0.026740883, 0.12525544, -761702.56, 565465.7, 0.0002977306, 10.004739, 9.99816 
1.8251997e+3, 1.7457433e+2, -772084.44, -1210113.0, 12535.611, 0.008444139, 0.13660191, -771725.94, 457459.28, 0.000010147485, 10.003986, 9.998181 
1.8251705e+3, 1.8457273e+2, -761531.06, -1112098.8, 12392.818, -0.011234337, 0.14381632, -761093.5, 370107.56, 0.0, 10.003202, 9.99856 
1.8251415e+3, 1.9457126e+2, -781786.7, -1069018.9, 14084.207, -0.03258892, 0.14479677, -781097.75, 252117.88, 0.0, 10.002381, 9.998578 
1.8251123e+3, 2.0456998e+2, -781967.9, -984151.0, 12243.894, -0.050270945, 0.14716038, -781229.06, 153999.38, 0.0, 10.001559, 9.998885 
1.8250832e+3, 2.1456887e+2, -802876.9, -941702.06, 12764.271, -0.063429184, 0.15046029, -801713.0, 35526.188, 0.0, 10.000735, 9.9989 
1.825054e+3, 2.2456788e+2, -793247.25, -848984.3, -3924.5261, -0.06974177, 0.1501354, -792972.3, -53723.504, 0.0, 9.999968, 9.999234 
1.8250245e+3, 2.3456703e+2, -796058.8, -797632.56, -5188.1514, -0.067896806, 0.14463213, -791598.25, -150341.14, 0.0, 9.999267, 9.999251 
1.8249951e+3, 2.4456644e+2, -756890.94, -644382.9, -3926.25, -0.06993557, 0.12850639, -644246.06, -100984.27, 0.0, 9.998503, 9.999998 
1.8249656e+3, 2.5456613e+2, -778522.06, -599866.6, -4560.232, -0.07678385, 0.09885597, -599750.3, -154488.11, 0.0, 9.9976635, 10.000035 
1.8249361e+3, 2.645662e+2, -753744.56, -461208.28, -6586.7173, -0.0835084, 0.07521588, -461060.06, -113801.05, 0.0, 9.996835, 10.000713 
1.8249066e+3, 2.7456674e+2, -772319.6, -415528.66, -10561.199, -0.090023376, 0.057917964, -415216.3, -165964.86, 0.0, 9.996018, 10.000748 
1.8248773e+3, 2.8456753e+2, -766348.94, -317403.63, -5817.68, -0.09223252, 0.048737716, -317328.25, -166085.88, 0.0, 9.995196, 10.001143 
1.8248482e+3, 2.9456866e+2, -787075.9, -274143.66, -7445.013, -0.089373276, 0.04864455, -274035.63, -220804.13, 0.0, 9.994371, 10.001165 
1.8248191e+3, 3.045705e+2, -753387.6, -62144.137, 5747.18, -0.09559865, 0.044629756, -62096.36, -62096.36, 0.0, 9.993534, 10.002687 
1.8247901e+3, 3.1457308e+2, -873805.9, -115320.72, 2666.6013, -0.11224629, 0.03490884, -115311.34, -115311.34, 0.0, 9.992688, 10.00273 
1.8353538e+3, 1.2461733e+2, -791844.06, -1673355.1, 27014.805, 0.0969632, 0.24443151, -791016.94, 927757.4, 0.010764234, 10.008168, 9.996354 
1.835323e+3, 1.346137e+2, -785521.94, -1582030.4, -27218.63, 0.056600675, 0.21510541, -784592.94, 836215.75, 0.00732839, 10.0073395, 9.996707 
1.835293e+3, 1.44611e+2, -742917.06, -1405013.0, -2044.7991, 0.055862762, 0.23382643, -742910.75, 779921.9, 0.0040161815, 10.006475, 9.997666 
1.8352634e+3, 1.5460807e+2, -771084.75, -1363983.9, -617.11224, 0.045732923, 0.17463653, -771084.1, 653773.5, 0.0015649019, 10.005574, 9.997706 
1.8352336e+3, 1.6460559e+2, -767955.4, -1271598.0, -11603.53, 0.02952926, 0.14280887, -767688.2, 559191.7, 0.00032911103, 10.004742, 9.99807 
1.8352036e+3, 1.7460366e+2, -778232.7, -1223789.6, -14934.099, 0.006659175, 0.14314994, -777732.7, 451166.2, 0.000012225979, 10.003987, 9.998088 
1.8351737e+3, 1.8460198e+2, -758962.4, -1107586.6, -17530.64, -0.014957556, 0.14699079, -758083.06, 372832.28, 0.0, 10.003203, 9.998591 
1.8351439e+3, 1.9460061e+2, -778665.6, -1063598.1, -16018.78, -0.03511518, 0.15360713, -777767.94, 255160.9, 0.0, 10.002383, 9.998616 
1.8351139e+3, 2.0459938e+2, -780095.5, -981447.7, -18012.553, -0.049093217, 0.15919104, -778496.9, 156444.22, 0.0, 10.001562, 9.998903 
1.835084e+3, 2.145983e+2, -801001.7, -939028.8, -17534.416, -0.05570506, 0.16274287, -798809.06, 38142.84, 0.0, 10.000738, 9.998919 
1.835054e+3, 2.245973e+2, -792929.0, -849566.25, -29820.656, -0.06342734, 0.16140082, -780123.25, -41161.688, 0.0, 9.99997, 9.99923 
1.8350236e+3, 2.3459643e+2, -795818.3, -798303.94, -30837.889, -0.07235447, 0.15345836, -766198.2, -125228.35, 0.0, 9.9992695, 9.999247 
1.8349934e+3, 2.4459583e+2, -756727.0, -645132.3, -34607.188, -0.0757886, 0.13752902, -635271.44, -92297.01, 0.0, 9.998506, 9.999993 
1.8349633e+3, 2.5459555e+2, -778427.94, -600786.4, -35443.992, -0.07298071, 0.11141947, -593975.5, -149000.84, 0.0, 9.997666, 10.000029 
1.834933e+3, 2.6459563e+2, -758960.2, -473258.44, -36639.984, -0.07982047, 0.0919098, -468634.34, -121662.7, 0.0, 9.996838, 10.00063 
1.8349026e+3, 2.7459612e+2, -777651.3, -428089.94, -40597.508, -0.09791053, 0.07924405, -423436.97, -174472.13, 0.0, 9.996022, 10.000661 
1.8348724e+3, 2.845968e+2, -767273.06, -321071.7, -36234.75, -0.10358032, 0.06250484, -318148.34, -167191.39, 0.0, 9.995201, 10.001117 
1.8348424e+3, 2.945977e+2, -787823.56, -277431.56, -37818.75, -0.094786845, 0.040563174, -274644.5, -221696.72, 0.0, 9.994376, 10.001142 
1.8348126e+3, 3.0459946e+2, -757059.0, -71287.47, -25521.555, -0.095646955, 0.035019595, -70338.98, -70338.98, 0.0, 9.993538, 10.0026245 
1.8347828e+3, 3.146022e+2, -878061.6, -125016.64, -28672.584, -0.107550286, 0.047370065, -123926.5, -123926.5, 0.0, 9.992689, 10.002665 
1.8453619e+3, 1.24647826e+2, -787574.44, -1677663.0, 62470.688, 0.09631168, 0.24825343, -783211.3, 935264.4, 0.011380628, 10.008233, 9.996291 
1.8453303e+3, 1.3464412e+2, -782914.94, -1588678.5, 7594.8535, 0.05635072, 0.21991283, -782843.3, 837667.75, 0.0077725174, 10.007398, 9.996632 
1.8452995e+3, 1.446414e+2, -735926.4, -1408622.3, 29304.46, 0.052822895, 0.24324337, -734652.25, 787883.4, 0.004283316, 10.006558, 9.997601 
1.8452689e+3, 1.5463845e+2, -755348.94, -1363584.5, 27012.623, 0.038877778, 0.19006848, -754151.6, 670409.3, 0.0016867142, 10.005717, 9.99764 
1.8452382e+3, 1.6463591e+2, -751033.9, -1266168.3, 18560.129, 0.02354615, 0.15626042, -750366.0, 576217.8, 0.000363408, 10.004872, 9.998043 
1.8452077e+3, 1.7463382e+2, -775263.1, -1224906.8, 19835.268, 0.006816865, 0.14513612, -774389.8, 454214.1, 0.0000147765995, 10.004022, 9.998063 
1.8451768e+3, 1.8463211e+2, -758311.6, -1105071.6, 18980.686, -0.012095035, 0.14651293, -757275.75, 373344.84, 0.0, 10.0032015, 9.998609 
1.8451461e+3, 1.9463085e+2, -772844.0, -1058399.8, 18834.098, -0.03345842, 0.16102114, -771607.1, 261026.13, 0.0, 10.002416, 9.998635 
1.8451154e+3, 2.0462966e+2, -772197.1, -977840.56, 14538.65, -0.048410993, 0.17153373, -771174.3, 163470.84, 0.0, 10.001619, 9.998899 
1.8450847e+3, 2.1462859e+2, -790927.25, -934361.44, 13019.995, -0.05577721, 0.17652832, -789754.94, 46901.242, 0.0, 10.00081, 9.998915 
1.8450539e+3, 2.2462758e+2, -783942.06, -842096.4, 3571.069, -0.06285195, 0.17295936, -783723.56, -45057.617, 0.0, 10.000021, 9.999256 
1.8450229e+3, 2.3462667e+2, -796336.44, -795243.1, 4746.386, -0.06963262, 0.15871279, -791012.06, -150337.75, 0.0, 9.999254, 9.999274 
1.8449919e+3, 2.4462606e+2, -759909.0, -648294.75, -872.23535, -0.07316653, 0.14157872, -648287.94, -105609.07, 0.0, 9.998493, 9.999976 
1.8449609e+3, 2.546258e+2, -769497.94, -598433.25, -3243.7283, -0.07289988, 0.12023068, -598371.75, -153692.67, 0.0, 9.997739, 10.00001 
1.8449298e+3, 2.6462588e+2, -748465.06, -471714.34, -5319.4253, -0.08050394, 0.10313864, -471612.16, -124935.86, 0.0, 9.996927, 10.000597 
1.8448986e+3, 2.746263e+2, -775853.9, -430870.22, -5792.546, -0.09746701, 0.090118326, -430773.0, -182102.95, 0.0, 9.996053, 10.000626 
1.8448676e+3, 2.8462696e+2, -765256.6, -316761.34, 2982.4316, -0.103404105, 0.06986477, -316741.53, -166079.06, 0.0, 9.995203, 10.001144 
1.8448368e+3, 2.946278e+2, -784619.4, -272316.25, 5094.655, -0.09640659, 0.040601265, -272265.6, -219612.28, 0.0, 9.994386, 10.001171 
1.8448061e+3, 3.046295e+2, -759430.3, -75091.336, 18792.432, -0.09770241, 0.03409554, -74575.67, -74575.67, 0.0, 9.993536, 10.002598 
1.8447754e+3, 3.146323e+2, -885443.56, -131587.42, 17929.383, -0.108553484, 0.0528834, -131161.23, -131161.23, 0.0, 9.992654, 10.002635 
1.8553698e+3, 1.24679394e+2, -793416.25, -1689701.1, 31174.555, 0.08210577, 0.27036402, -792333.25, 925833.5, 0.012016212, 10.008235, 9.996208 
1.8553378e+3, 1.3467543e+2, -789808.4, -1602958.8, -22980.61, 0.057588022, 0.22539106, -789159.44, 831045.4, 0.008231747, 10.007399, 9.996534 
1.855306e+3, 1.4467256e+2, -744099.94, -1425702.1, -1311.9711, 0.054054163, 0.24510105, -744097.44, 778133.56, 0.004561297, 10.006557, 9.997484 
1.8552746e+3, 1.546696e+2, -763569.75, -1381097.9, -3747.833, 0.025400681, 0.20063719, -763547.0, 660710.0, 0.0018151694, 10.005717, 9.99752 
1.855243e+3, 1.6466698e+2, -749067.4, -1262880.3, -12600.083, 0.009640719, 0.16597605, -748758.56, 577521.94, 0.00040065235, 10.004873, 9.998066 
1.8552117e+3, 1.746648e+2, -772657.5, -1220704.0, -11407.564, 0.008841291, 0.14290814, -772367.25, 455933.5, 0.000017848672, 10.004024, 9.998092 
1.8551801e+3, 1.8466309e+2, -758056.25, -1105843.5, -9911.476, -0.0031338416, 0.14266051, -757774.0, 372543.25, 0.0, 10.003204, 9.998603 
1.8551485e+3, 1.9466192e+2, -772775.56, -1059432.6, -9993.666, -0.027885335, 0.16717187, -772427.56, 259901.83, 0.0, 10.002418, 9.998628 
1.855117e+3, 2.0466077e+2, -774094.06, -982898.9, -15158.366, -0.048273403, 0.18422332, -772999.4, 161341.81, 0.0, 10.001621, 9.998865 
1.8550853e+3, 2.1465968e+2, -792799.0, -939393.56, -16694.938, -0.06348326, 0.19180809, -790921.75, 45430.758, 0.0, 10.000813, 9.99888 
1.8550539e+3, 2.2465864e+2, -780121.75, -835367.6, -24647.482, -0.06781614, 0.18480235, -770724.06, -32361.594, 0.0, 10.000023, 9.999302 
1.8550222e+3, 2.3465769e+2, -792286.4, -788049.0, -23419.45, -0.05969167, 0.16042118, -766652.6, -126281.83, 0.0, 9.999256, 9.999323 
1.8549904e+3, 2.4465705e+2, -762083.56, -654015.56, -28629.186, -0.06215898, 0.14066933, -646899.7, -104524.305, 0.0, 9.998495, 9.999937 
1.8549587e+3, 2.5465682e+2, -771916.5, -604739.5, -30940.06, -0.07674924, 0.1252658, -599197.06, -154821.23, 0.0, 9.997742, 9.999966 
1.8549266e+3, 2.6465687e+2, -747320.1, -470678.75, -37431.883, -0.085616775, 0.10870879, -465703.4, -119330.07, 0.0, 9.996931, 10.000604 
1.8548946e+3, 2.7465728e+2, -774625.25, -429619.75, -37996.637, -0.08826594, 0.090029165, -425484.6, -177117.1, 0.0, 9.996056, 10.000634 
1.8548627e+3, 2.8465796e+2, -759400.0, -305955.4, -27085.377, -0.091186546, 0.07054611, -304343.28, -153983.98, 0.0, 9.995207, 10.001219 
1.854831e+3, 2.9465893e+2, -778574.2, -261172.73, -24774.957, -0.09412595, 0.04937534, -259989.13, -207640.86, 0.0, 9.994389, 10.001246 
1.8547994e+3, 3.0466074e+2, -758530.9, -74627.87, -13354.496, -0.102058, 0.04233957, -74367.195, -74367.195, 0.0, 9.99354, 10.002601 
1.854768e+3, 3.1466338e+2, -884871.4, -131643.3, -14172.254, -0.11593526, 0.050545182, -131376.73, -131376.73, 0.0, 9.992657, 10.002634 
1.865378e+3, 1.2471154e+2, -770283.06, -1679738.9, 52114.863, 0.07272445, 0.27580383, -767306.44, 950545.7, 0.012667613, 10.0084095, 9.996192 
1.8653451e+3, 1.3470756e+2, -777425.06, -1599996.0, 2872.8728, 0.052949578, 0.23145238, -777415.0, 842475.5, 0.008704074, 10.0075035, 9.996503 
1.8653125e+3, 1.4470465e+2, -742097.5, -1434676.1, 28413.383, 0.051254522, 0.25384015, -740933.75, 780983.5, 0.004849126, 10.006619, 9.997392 
1.8652801e+3, 1.547016e+2, -764168.8, -1391806.6, 27245.35, 0.024138018, 0.2121912, -762988.3, 660956.1, 0.0019498882, 10.005761, 9.997424 
1.8652478e+3, 1.6469893e+2, -740588.94, -1257194.1, 19306.936, 0.008581845, 0.17568769, -739868.4, 586100.1, 0.00044076124, 10.004928, 9.998078 
1.8652156e+3, 1.7469667e+2, -758018.94, -1211686.3, 19204.744, 0.006587693, 0.14546575, -757207.44, 470781.44, 0.000021472017, 10.004118, 9.998107 
1.8651834e+3, 1.8469496e+2, -744630.2, -1098832.4, 20747.982, -0.0036195554, 0.14521147, -743419.0, 386586.2, 0.0, 10.003296, 9.998606 
1.865151e+3, 1.9469386e+2, -766922.9, -1056109.9, 20976.773, -0.023361057, 0.17747974, -765409.25, 266607.75, 0.0, 10.002459, 9.99863 
1.8651186e+3, 2.0469275e+2, -771856.9, -980339.7, 17474.004, -0.04296465, 0.19638996, -770402.44, 163626.3, 0.0, 10.001633, 9.998876 
1.8650861e+3, 2.1469162e+2, -790917.2, -936895.4, 19005.379, -0.062173277, 0.19936565, -788483.4, 47557.04, 0.0, 10.000821, 9.998892 
1.8650538e+3, 2.2469057e+2, -778128.7, -831475.5, 13090.471, -0.06823612, 0.18987213, -775089.6, -37039.234, 0.0, 10.000027, 9.999326 
1.8650214e+3, 2.3468962e+2, -791204.3, -784534.9, 12144.6, -0.059265453, 0.16544102, -775275.5, -135217.19, 0.0, 9.999253, 9.999348 
1.864989e+3, 2.44689e+2, -767655.3, -658296.44, 6064.5146, -0.06114313, 0.14635901, -657961.2, -115898.305, 0.0, 9.9984665, 9.99992 
1.8649562e+3, 2.5468874e+2, -784590.44, -612652.06, 5183.65, -0.07560613, 0.13246858, -612495.94, -168432.34, 0.0, 9.997665, 9.999947 
1.8649234e+3, 2.6468882e+2, -758817.2, -473173.4, -3217.3804, -0.08456604, 0.116868004, -473137.2, -127075.984, 0.0, 9.996841, 10.0006275 
1.8648906e+3, 2.7468923e+2, -782058.3, -430067.97, -3032.5762, -0.08734976, 0.09844455, -430041.84, -181986.64, 0.0, 9.995995, 10.000659 
1.864858e+3, 2.8468993e+2, -764858.6, -303750.56, 8046.7124, -0.090808384, 0.080118, -303610.2, -153563.58, 0.0, 9.9951515, 10.001259 
1.8648255e+3, 2.94691e+2, -786781.44, -260225.64, 7230.403, -0.09495488, 0.061263323, -260126.38, -208091.47, 0.0, 9.994314, 10.001287 
1.864793e+3, 3.046928e+2, -767520.0, -75517.75, 16120.721, -0.10469697, 0.05464579, -75142.41, -75142.41, 0.0, 9.993465, 10.002628 
1.8647605e+3, 3.146955e+2, -890486.44, -131060.04, 16910.725, -0.12101031, 0.060707, -130683.66, -130683.66, 0.0, 9.992607, 10.002661 
1.8753864e+3, 1.24744266e+2, -769071.5, -1675574.3, 18702.08, 0.06712393, 0.26668626, -768685.8, 948846.06, 0.013330757, 10.008406, 9.996225 
1.8753524e+3, 1.3474044e+2, -776441.1, -1597818.4, -30123.076, 0.043049414, 0.23819293, -775337.9, 844230.6, 0.009187136, 10.0075035, 9.996519 
1.875319e+3, 1.447376e+2, -747515.56, -1446533.3, -2867.437, 0.044967793, 0.26866165, -747503.8, 774091.1, 0.0051456196, 10.006621, 9.997311 
1.875286e+3, 1.5473443e+2, -769806.7, -1404228.5, -4204.9604, 0.033937525, 0.22458103, -769778.8, 653844.8, 0.002090341, 10.005762, 9.99734 
1.8752529e+3, 1.647317e+2, -740770.8, -1258477.9, -10377.907, 0.019023884, 0.18544511, -740562.9, 585085.56, 0.00048358034, 10.004929, 9.99807 
1.8752196e+3, 1.747294e+2, -757960.94, -1212709.6, -10433.162, 0.00023538937, 0.15248488, -757721.7, 469947.03, 0.000025669073, 10.004121, 9.9981 
1.8751866e+3, 1.8472771e+2, -743963.56, -1098679.0, -9960.547, -0.012848624, 0.15373337, -743684.06, 386000.84, 0.0, 10.003299, 9.998607 
1.8751535e+3, 1.9472668e+2, -766202.7, -1055898.1, -9830.82, -0.019774565, 0.19170962, -765869.44, 265826.97, 0.0, 10.002461, 9.9986315 
1.8751203e+3, 2.0472553e+2, -768060.1, -973757.75, -12415.873, -0.032711796, 0.20801505, -767313.4, 166394.89, 0.0, 10.001636, 9.99892 
1.875087e+3, 2.1472435e+2, -786995.56, -930025.44, -10866.663, -0.052148126, 0.19940919, -786174.7, 49545.668, 0.0, 10.000824, 9.9989395 
1.8750538e+3, 2.247233e+2, -778147.94, -832798.2, -15415.827, -0.064372614, 0.18841, -774099.4, -36369.23, 0.0, 10.00003, 9.999316 
1.8750206e+3, 2.3472244e+2, -791344.8, -786093.25, -16285.3955, -0.068418115, 0.1738478, -772223.3, -132486.08, 0.0, 9.999256, 9.999337 
1.8749873e+3, 2.4472184e+2, -767404.7, -658998.9, -23454.217, -0.07003799, 0.1586419, -654142.06, -112400.45, 0.0, 9.998469, 9.999915 
1.8749538e+3, 2.5472158e+2, -784354.9, -613350.56, -24319.484, -0.06925552, 0.14182319, -609959.2, -166216.4, 0.0, 9.997667, 9.999942 
1.8749203e+3, 2.647217e+2, -756108.3, -468687.06, -34413.94, -0.07731114, 0.12772754, -464624.0, -118883.734, 0.0, 9.996843, 10.000659 
1.8748865e+3, 2.747222e+2, -779306.3, -425527.8, -34191.03, -0.09525314, 0.11576166, -422253.72, -174520.2, 0.0, 9.995996, 10.00069 
1.874853e+3, 2.8472292e+2, -764764.0, -304774.63, -22718.768, -0.10291998, 0.09899296, -303655.28, -153930.52, 0.0, 9.995153, 10.001252 
1.8748195e+3, 2.9472393e+2, -786780.75, -261444.05, -23579.135, -0.09906791, 0.076354735, -260387.86, -208674.22, 0.0, 9.994317, 10.00128 
1.8747863e+3, 3.0472577e+2, -763741.56, -68970.67, -15489.093, -0.105526894, 0.07133867, -68625.53, -68625.53, 0.0, 9.993468, 10.002674 
1.8747531e+3, 3.147286e+2, -886585.5, -124373.11, -14633.532, -0.12371036, 0.084591456, -124092.266, -124092.266, 0.0, 9.99261, 10.002707 
1.8853948e+3, 1.2477798e+2, -769996.06, -1680620.5, 54784.457, 0.06373378, 0.2591631, -766712.0, 950489.5, 0.014004089, 10.008428, 9.996178 
1.8853599e+3, 1.347742e+2, -766182.44, -1599699.9, 1074.6665, 0.039907828, 0.24229744, -766181.0, 853057.0, 0.009679831, 10.007611, 9.996453 
1.8853256e+3, 1.4477134e+2, -734569.25, -1448540.1, 24652.828, 0.041415073, 0.2782921, -733719.0, 787545.94, 0.0054500285, 10.006751, 9.997233 
1.8852918e+3, 1.5476806e+2, -763824.4, -1409805.1, 23297.021, 0.033111632, 0.23153733, -762985.25, 660309.75, 0.0022360538, 10.005843, 9.997261 
1.8852577e+3, 1.6476525e+2, -730859.8, -1251210.4, 20924.707, 0.019262454, 0.19096835, -730019.75, 595300.6, 0.0005289472, 10.004989, 9.99809 
1.8852237e+3, 1.7476298e+2, -746626.2, -1204596.3, 22542.943, -0.00055358926, 0.1578664, -745519.2, 481820.97, 0.000030461411, 10.0041895, 9.998122 
1.8851897e+3, 1.847613e+2, -734585.4, -1095275.4, 21885.682, -0.013641066, 0.15994617, -733262.3, 396093.97, 0.0, 10.00337, 9.998594 
1.8851559e+3, 1.9476025e+2, -757469.25, -1052905.0, 20539.129, -0.01925026, 0.19936413, -756048.2, 275319.9, 0.0, 10.002529, 9.998618 
1.8851219e+3, 2.0475915e+2, -757204.8, -963476.44, 17564.537, -0.031576734, 0.21751115, -755719.8, 177660.0, 0.0, 10.001691, 9.998963 
1.8850878e+3, 2.1475802e+2, -779123.7, -920950.75, 18571.254, -0.051235627, 0.21140105, -776732.25, 58658.97, 0.0, 10.000857, 9.998984 
1.8850537e+3, 2.24757e+2, -774430.25, -828783.9, 16125.872, -0.06423579, 0.20041662, -770006.06, -32605.371, 0.0, 10.000049, 9.999333 
1.8850198e+3, 2.3475613e+2, -788894.56, -782715.06, 16978.957, -0.06989375, 0.1833974, -768547.0, -129139.17, 0.0, 9.999267, 9.999353 
1.8849856e+3, 2.4475554e+2, -769178.44, -658150.2, 9295.368, -0.072524466, 0.1660127, -657377.3, -115965.06, 0.0, 9.998453, 9.9999275 
1.8849514e+3, 2.5475523e+2, -792831.0, -615760.75, 9242.465, -0.071839206, 0.14716278, -615279.6, -171866.02, 0.0, 9.997605, 9.999954 
1.8849172e+3, 2.6475534e+2, -764815.0, -473266.75, -1716.993, -0.08012693, 0.13551265, -473256.63, -127845.58, 0.0, 9.996789, 10.000652 
1.8848825e+3, 2.7475592e+2, -778487.9, -425616.16, -4880.8037, -0.09863993, 0.13084568, -425548.66, -178144.63, 0.0, 9.996007, 10.000683 
1.884848e+3, 2.8475672e+2, -759756.3, -297742.2, 4467.989, -0.106884226, 0.11656769, -297698.97, -148303.9, 0.0, 9.995172, 10.00129 
1.8848139e+3, 2.9475772e+2, -789954.0, -258297.45, 6724.184, -0.10351661, 0.09126683, -258212.42, -206828.66, 0.0, 9.994278, 10.001318 
1.8847796e+3, 3.047596e+2, -773028.9, -70256.99, 15356.075, -0.108830184, 0.08534984, -69921.61, -69921.61, 0.0, 9.993394, 10.002699 
1.8847455e+3, 3.1476238e+2, -897938.75, -126746.44, 14119.815, -0.12406302, 0.09933459, -126488.01, -126488.01, 0.0, 9.992522, 10.002731 
1.8954031e+3, 1.24812596e+2, -779313.5, -1699115.9, 23823.324, 0.062029183, 0.25258264, -778696.9, 938164.7, 0.014689936, 10.008427, 9.996051 
1.8953675e+3, 1.3480876e+2, -776927.44, -1621483.0, -28731.232, 0.042657178, 0.24410152, -775951.1, 842948.3, 0.010183247, 10.007609, 9.9963045 
1.8953323e+3, 1.448058e+2, -740454.4, -1460832.4, -8221.307, 0.04012784, 0.28334367, -740360.56, 780567.06, 0.005762604, 10.00675, 9.99715 
1.8952973e+3, 1.5480243e+2, -769053.06, -1421870.8, -9844.668, 0.02265606, 0.2336679, -768904.6, 654054.3, 0.002386903, 10.005847, 9.997178 
1.8952626e+3, 1.6479959e+2, -727578.3, -1245941.3, -8303.708, 0.01039227, 0.19270888, -727445.3, 597539.2, 0.0005767588, 10.0049925, 9.998125 
1.8952279e+3, 1.747974e+2, -743525.56, -1199271.9, -6777.9785, 0.0038829811, 0.16178216, -743424.8, 483578.78, 0.000035852292, 10.004191, 9.998158 
1.8951932e+3, 1.8479571e+2, -736620.9, -1100519.0, -9031.611, -0.006720732, 0.16399525, -736396.9, 392622.8, 0.0000000000040452208, 10.003372, 9.998559 
1.8951583e+3, 1.947946e+2, -759456.8, -1058303.8, -10378.294, -0.02172667, 0.20080523, -759096.8, 271935.56, 0.0, 10.002532, 9.998581 
1.8951234e+3, 2.0479356e+2, -754450.0, -959056.0, -13071.824, -0.03915001, 0.2251123, -753618.25, 179425.48, 0.0, 10.001694, 9.998994 
1.8950886e+3, 2.1479262e+2, -776304.7, -916296.6, -12098.609, -0.059148226, 0.23506305, -775266.75, 59786.676, 0.0, 10.00086, 9.999016 
1.8950537e+3, 2.2479165e+2, -771567.0, -824053.6, -12684.251, -0.06766345, 0.2254867, -768662.4, -31599.902, 0.0, 10.000051, 9.999367 
1.8950191e+3, 2.3479067e+2, -785928.6, -777825.5, -11768.332, -0.06367011, 0.19395894, -769430.8, -130360.336, 0.0, 9.9992695, 9.999388 
1.8949841e+3, 2.4478999e+2, -767292.94, -655510.44, -21958.2, -0.06874831, 0.16844626, -651351.75, -110276.45, 0.0, 9.998456, 9.999946 
1.8949488e+3, 2.547897e+2, -791009.06, -613200.75, -22016.307, -0.08370976, 0.14841938, -610515.2, -167438.77, 0.0, 9.997607, 9.999972 
1.8949138e+3, 2.6478985e+2, -768260.2, -481717.25, -30552.75, -0.093228176, 0.14013097, -478495.78, -133421.84, 0.0, 9.996792, 10.000595 
1.8948784e+3, 2.7479044e+2, -781953.44, -434311.16, -33650.555, -0.09717855, 0.14360271, -431083.88, -184016.64, 0.0, 9.996011, 10.000623 
1.8948431e+3, 2.8479126e+2, -753710.4, -286727.94, -28513.021, -0.10232489, 0.13276805, -284993.44, -135935.47, 0.0, 9.995175, 10.001366 
1.894808e+3, 2.9479232e+2, -783853.7, -247010.31, -26273.723, -0.10844455, 0.10597605, -245727.52, -194681.77, 0.0, 9.994281, 10.001396 
1.894773e+3, 3.047942e+2, -772965.2, -71499.086, -16823.72, -0.11484737, 0.09636147, -71095.82, -71095.82, 0.0, 9.993397, 10.002691 
1.8947381e+3, 3.1479692e+2, -898004.8, -128281.53, -18093.58, -0.12197535, 0.1039156, -127856.445, -127856.445, 0.0, 9.992525, 10.002721 
1.9054115e+3, 1.24848075e+2, -766667.44, -1695762.9, 44239.305, 0.060817584, 0.25778586, -764565.7, 951948.44, 0.015391474, 10.008536, 9.99602 
1.905375e+3, 1.3484417e+2, -774314.44, -1625499.8, -1046.2123, 0.043441035, 0.24834168, -774313.2, 844239.7, 0.010699134, 10.007657, 9.996253 
1.905339e+3, 1.4484115e+2, -735252.75, -1462738.4, 23799.303, 0.0385195, 0.2863391, -734475.0, 786106.75, 0.006083953, 10.00681, 9.997107 
1.9053032e+3, 1.5483771e+2, -750406.6, -1417543.3, 24406.445, 0.018053725, 0.23444782, -749514.9, 673098.94, 0.0025428499, 10.005999, 9.997133 
1.9052675e+3, 1.6483487e+2, -706965.75, -1237717.4, 25289.73, 0.0056630108, 0.19679216, -705763.44, 618876.1, 0.00062683376, 10.005145, 9.998107 
1.905232e+3, 1.7483272e+2, -737608.94, -1198245.9, 22452.117, 0.0021331736, 0.17498113, -736517.2, 490141.0, 0.00004178334, 10.004243, 9.998139 
1.9051965e+3, 1.8483102e+2, -733281.75, -1096444.6, 20813.598, -0.0074039525, 0.1773101, -732092.8, 396581.53, 0.00000000016721122, 10.003387, 9.998578 
1.9051607e+3, 1.9482984e+2, -751101.94, -1051728.3, 23171.98, -0.023498056, 0.20422375, -749326.4, 281361.2, 0.0, 10.002581, 9.998601 
1.9051251e+3, 2.048288e+2, -749293.7, -956410.25, 19489.158, -0.039551284, 0.22760835, -747475.75, 185223.27, 0.0, 10.001732, 9.998992 
1.9050893e+3, 2.1482794e+2, -780063.94, -917929.1, 17607.22, -0.05547575, 0.24643473, -777850.8, 56857.516, 0.0, 10.000836, 9.999015 
1.9050537e+3, 2.24827e+2, -779717.2, -820233.9, 18453.912, -0.063749745, 0.23861323, -772572.1, -35855.145, 0.0, 9.999965, 9.999433 
1.9050182e+3, 2.3482601e+2, -803271.3, -778231.1, 21600.465, -0.063649885, 0.20132212, -765784.56, -127059.82, 0.0, 9.999119, 9.999455 
1.9049825e+3, 2.4482541e+2, -783871.2, -659264.2, 13665.983, -0.07251352, 0.17516288, -657783.0, -117053.9, 0.0, 9.998326, 9.999981 
1.9049463e+3, 2.548252e+2, -791195.2, -609127.2, 14444.026, -0.09127289, 0.15992673, -607988.4, -165258.88, 0.0, 9.997591, 10.000007 
1.9049102e+3, 2.648253e+2, -771349.56, -484909.8, 5961.9033, -0.09954621, 0.15103254, -484785.78, -140058.69, 0.0, 9.99678, 10.000576 
1.9048743e+3, 2.7482584e+2, -800908.7, -445303.66, 5478.411, -0.09672008, 0.14814444, -445219.28, -198497.92, 0.0, 9.995893, 10.000604 
1.9048382e+3, 2.8482667e+2, -769690.1, -289549.2, 9813.446, -0.10045513, 0.1371298, -289348.7, -140636.55, 0.0, 9.995048, 10.001407 
1.9048022e+3, 2.9482782e+2, -785792.25, -242998.39, 8719.569, -0.11100329, 0.116690844, -242858.34, -192159.4, 0.0, 9.994249, 10.001437 
1.9047663e+3, 3.0482972e+2, -772696.1, -69321.47, 15450.647, -0.11932825, 0.107748255, -68982.24, -68982.24, 0.0, 9.993393, 10.002707 
1.9047303e+3, 3.148324e+2, -904031.6, -129265.66, 15598.606, -0.12558202, 0.109787434, -128951.734, -128951.734, 0.0, 9.992478, 10.002735 
1.91542e+3, 1.2488435e+2, -765394.06, -1690588.4, 11108.361, 0.059512716, 0.27224803, -765260.7, 950898.8, 0.016108738, 10.008528, 9.996062 
1.9153826e+3, 1.348804e+2, -773271.9, -1622838.9, -33258.99, 0.042468086, 0.25467658, -771971.8, 846226.7, 0.011227362, 10.007656, 9.996273 
1.9153456e+3, 1.4487731e+2, -736490.56, -1465710.0, -5928.5005, 0.036646094, 0.28760144, -736442.4, 783785.44, 0.0064136577, 10.006811, 9.9970875 
1.9153091e+3, 1.5487382e+2, -751874.94, -1420912.5, -5497.4487, 0.018672157, 0.23406574, -751829.75, 670430.3, 0.0027033428, 10.005999, 9.997112 
1.9152726e+3, 1.6487102e+2, -712290.1, -1249319.3, -7955.771, 0.0045469576, 0.20309635, -712172.25, 612113.6, 0.0006787699, 10.005145, 9.99803 
1.9152361e+3, 1.7486894e+2, -742750.3, -1210066.3, -10836.203, -0.005386897, 0.19675756, -742499.1, 483805.3, 0.00004813855, 10.004245, 9.998059 
1.9151998e+3, 1.8486725e+2, -728442.06, -1087632.8, -8866.395, -0.01507174, 0.19913726, -728223.3, 400097.3, 0.0000000008664754, 10.00339, 9.998639 
1.9151634e+3, 1.9486596e+2, -746297.06, -1042681.94, -6462.5015, -0.024541657, 0.20942149, -746156.25, 284177.88, 0.0, 10.002582, 9.998665 
1.9151269e+3, 2.0486484e+2, -751936.75, -962811.0, -13464.784, -0.033093147, 0.22517855, -751080.5, 181265.6, 0.0, 10.001733, 9.998949 
1.9150904e+3, 2.1486396e+2, -782621.9, -924414.1, -15365.523, -0.040603697, 0.24586746, -780975.9, 53380.32, 0.0, 10.000838, 9.998971 
1.9150537e+3, 2.2486307e+2, -772802.3, -807247.5, -12702.52, -0.05282183, 0.24011919, -768624.6, -32260.006, 0.0, 9.999968, 9.999522 
1.915017e+3, 2.348622e+2, -796192.4, -764921.8, -9542.183, -0.06993511, 0.20558158, -762240.0, -123869.07, 0.0, 9.999122, 9.999547 
1.9149804e+3, 2.4486172e+2, -780407.1, -653463.4, -13419.608, -0.083753414, 0.18623188, -652060.25, -111686.29, 0.0, 9.998329, 10.000021 
1.9149439e+3, 2.5486165e+2, -787735.94, -603406.0, -12543.627, -0.09433442, 0.18193357, -602556.3, -160183.14, 0.0, 9.997595, 10.000046 
1.914907e+3, 2.6486176e+2, -769957.44, -483398.28, -26853.967, -0.0989463, 0.16825972, -480903.47, -136532.52, 0.0, 9.996783, 10.0005865 
1.9148701e+3, 2.7486205e+2, -799728.25, -443959.13, -27323.146, -0.09742183, 0.14388357, -441872.94, -195506.13, 0.0, 9.9958935, 10.000613 
1.9148332e+3, 2.8486285e+2, -769867.44, -291070.8, -19488.172, -0.10144543, 0.1289643, -290278.9, -141920.97, 0.0, 9.995049, 10.001396 
1.9147964e+3, 2.9486415e+2, -785740.94, -244524.39, -20576.367, -0.11100263, 0.123207584, -243743.23, -193399.47, 0.0, 9.994253, 10.001427 
1.9147596e+3, 3.048661e+2, -769624.8, -64823.523, -18332.3, -0.12228081, 0.11957833, -64347.01, -64347.01, 0.0, 9.993398, 10.002736 
1.9147226e+3, 3.1486878e+2, -901053.8, -124842.48, -18135.557, -0.135733, 0.117068045, -124418.984, -124418.984, 0.0, 9.992483, 10.002765 
1.9254285e+3, 1.24921404e+2, -773860.0, -1694253.0, 39385.848, 0.06423214, 0.28029233, -772177.7, 943619.5, 0.016838172, 10.008476, 9.996059 
1.9253902e+3, 1.3491741e+2, -766065.3, -1621625.5, -7035.807, 0.03993747, 0.26267064, -766007.5, 851829.06, 0.011764902, 10.007724, 9.996247 
1.9253524e+3, 1.449143e+2, -725035.56, -1461543.3, 17129.816, 0.030014094, 0.2960635, -724637.4, 795228.6, 0.006749403, 10.006902, 9.997071 
1.9253151e+3, 1.5491082e+2, -751650.25, -1422305.0, 17373.031, 0.015584445, 0.24428739, -751200.5, 670697.8, 0.002866977, 10.00601, 9.997095 
1.9252777e+3, 1.6490798e+2, -715010.3, -1254479.5, 15558.816, 0.0024851474, 0.21436922, -714561.94, 609362.6, 0.0007319828, 10.005146, 9.997992 
1.9252403e+3, 1.7490587e+2, -736632.4, -1211222.3, 15080.133, -0.00923445, 0.20828025, -736153.7, 489790.2, 0.000054809087, 10.004308, 9.998019 
1.925203e+3, 1.8490417e+2, -716971.06, -1073170.5, 18882.332, -0.018030666, 0.2100528, -715972.9, 411987.03, 0.0000000023932123, 10.003433, 9.998716 
1.9251658e+3, 1.9490293e+2, -750175.3, -1035550.2, 21885.01, -0.023702264, 0.2184499, -748506.75, 281465.6, 0.0, 10.00252, 9.998742 
1.9251284e+3, 2.0490183e+2, -765276.2, -968370.3, 16416.668, -0.03033623, 0.23117955, -763957.7, 168026.36, 0.0, 10.00164, 9.998954 
1.925091e+3, 2.149009e+2, -788625.5, -926464.25, 17673.453, -0.037865438, 0.24770187, -786395.5, 47599.258, 0.0, 10.000796, 9.998976 
1.9250536e+3, 2.2490004e+2, -767243.8, -798259.7, 22402.475, -0.053238705, 0.24297248, -755505.3, -19502.37, 0.0, 9.999981, 9.999576 
1.925016e+3, 2.348993e+2, -781741.06, -751567.75, 22356.52, -0.0769193, 0.21518897, -739683.7, -101675.445, 0.0, 9.999196, 9.999601 
1.9249788e+3, 2.4489889e+2, -778996.75, -651804.25, 14587.577, -0.090311155, 0.2002559, -650152.7, -110141.91, 0.0, 9.998338, 10.000027 
1.9249412e+3, 2.5489885e+2, -815201.2, -615659.7, 12562.585, -0.093126684, 0.19787978, -614871.94, -172861.78, 0.0, 9.997405, 10.0000515 
1.9249037e+3, 2.6489896e+2, -794354.56, -485418.16, 301.89636, -0.09641337, 0.18184064, -485417.84, -141410.17, 0.0, 9.996577, 10.00067 
1.9248658e+3, 2.7489927e+2, -799252.3, -433961.88, 5139.033, -0.10026847, 0.15050334, -433889.6, -187886.6, 0.0, 9.995858, 10.000697 
1.9248281e+3, 2.8490007e+2, -768157.44, -290487.97, 14618.387, -0.10439866, 0.13397475, -290041.0, -142047.17, 0.0, 9.995066, 10.001391 
1.9247906e+3, 2.949014e+2, -794343.06, -249112.97, 13340.579, -0.10863975, 0.13232622, -248786.75, -198807.13, 0.0, 9.9942, 10.001419 
1.9247527e+3, 3.0490336e+2, -770290.4, -65052.117, 13976.637, -0.12393103, 0.1293587, -64775.234, -64775.234, 0.0, 9.993397, 10.002734 
1.924715e+3, 3.1490597e+2, -875872.3, -112672.43, 11148.365, -0.1508202, 0.12374059, -112509.62, -112509.62, 0.0, 9.992659, 10.002763 
1.9354369e+3, 1.2495918e+2, -777718.75, -1701911.1, 10779.797, 0.07332217, 0.2821297, -777593.06, 937834.44, 0.017575547, 10.008478, 9.996007 
1.9353978e+3, 1.3495517e+2, -771751.8, -1633137.5, -34289.8, 0.03593114, 0.27218947, -770389.0, 847078.2, 0.0123077305, 10.007723, 9.996171 
1.9353591e+3, 1.4495209e+2, -727009.25, -1465387.3, -15173.153, 0.019195292, 0.31086537, -726697.6, 792799.2, 0.0070881224, 10.0069, 9.997047 
1.935321e+3, 1.5494862e+2, -753226.75, -1426046.5, -15244.356, 0.009199992, 0.26399544, -752881.5, 668647.5, 0.003032138, 10.00601, 9.997071 
1.9352826e+3, 1.6494572e+2, -715600.3, -1256451.5, -15123.475, -0.0003912088, 0.23000245, -715177.75, 608378.1, 0.000785988, 10.005146, 9.99798 
1.9352445e+3, 1.7494346e+2, -737414.75, -1213476.6, -15605.977, -0.009703374, 0.21032959, -736903.75, 488672.97, 0.00006175429, 10.004308, 9.998006 
1.9352064e+3, 1.8494178e+2, -711109.25, -1061696.8, -14657.329, -0.016673334, 0.21106206, -710497.5, 417094.9, 0.000000004850374, 10.003433, 9.998796 
1.9351682e+3, 1.9494075e+2, -744127.2, -1024039.25, -11800.465, -0.021139262, 0.23121507, -743630.56, 285972.06, 0.0, 10.002521, 9.998822 
1.93513e+3, 2.0493971e+2, -761882.2, -962695.9, -14710.286, -0.031206723, 0.2451077, -760810.3, 170803.11, 0.0, 10.001643, 9.998993 
1.9350916e+3, 2.1493872e+2, -785056.1, -920592.8, -13388.166, -0.046928953, 0.25176835, -783746.3, 49878.152, 0.0, 10.0008, 9.999016 
1.9350535e+3, 2.249379e+2, -766093.44, -797355.3, -6460.3867, -0.06465599, 0.24717191, -764811.0, -29178.564, 0.0, 9.999985, 9.999581 
1.9350153e+3, 2.3493725e+2, -780675.7, -750760.2, -6500.8696, -0.08450844, 0.23012136, -749408.56, -111771.57, 0.0, 9.9992, 9.999607 
1.9349769e+3, 2.4493684e+2, -781215.4, -657749.8, -19938.217, -0.09218371, 0.21713652, -654609.9, -114970.016, 0.0, 9.998341, 9.999986 
1.9349387e+3, 2.549367e+2, -817549.44, -621664.2, -22026.09, -0.08758186, 0.20753096, -619218.0, -177577.27, 0.0, 9.997407, 10.0000105 
1.9349003e+3, 2.6493686e+2, -783386.6, -463808.16, -26249.43, -0.09194331, 0.19181438, -461666.44, -118028.76, 0.0, 9.996579, 10.00082 
1.9348615e+3, 2.7493742e+2, -787955.3, -412082.0, -21268.295, -0.105447695, 0.16875422, -410882.38, -165252.17, 0.0, 9.995862, 10.000848 
1.9348231e+3, 2.849383e+2, -768257.4, -292428.38, -17413.902, -0.109442495, 0.15295014, -291791.9, -144171.81, 0.0, 9.9950695, 10.001377 
1.9347847e+3, 2.9493952e+2, -794700.2, -251380.45, -18719.621, -0.1036971, 0.14417489, -250736.25, -201129.38, 0.0, 9.994203, 10.001404 
1.9347462e+3, 3.0494142e+2, -772797.25, -72376.76, -13095.191, -0.12427951, 0.13695702, -72132.016, -72132.016, 0.0, 9.9934025, 10.002683 
1.9347075e+3, 3.1494397e+2, -877547.25, -119666.2, -15946.485, -0.17168182, 0.12984607, -119330.82, -119330.82, 0.0, 9.99267, 10.00271 
1.9454452e+3, 1.24997884e+2, -759148.6, -1694802.4, 41197.74, 0.06882722, 0.29080477, -757338.1, 957710.75, 0.018318212, 10.008626, 9.995984 
1.9454055e+3, 1.3499378e+2, -768178.25, -1635976.3, -580.0991, 0.03379064, 0.27512327, -768177.9, 848911.75, 0.01285329, 10.007775, 9.996124 
1.945366e+3, 1.4499065e+2, -727309.1, -1467780.6, 16707.379, 0.016282216, 0.31393212, -726932.4, 792187.4, 0.00742792, 10.006913, 9.997023 
1.9453269e+3, 1.5498723e+2, -750313.5, -1427053.1, 16143.296, 0.0066752736, 0.27529037, -749928.6, 671223.2, 0.0031979294, 10.006045, 9.9970455 
1.9452877e+3, 1.6498435e+2, -712497.1, -1252960.9, 17126.598, -0.002118915, 0.24379973, -711954.94, 611223.7, 0.00084059587, 10.005162, 9.997994 
1.9452488e+3, 1.7498206e+2, -743121.7, -1214418.3, 18055.768, -0.01028693, 0.2207024, -742430.94, 482768.75, 0.00006898791, 10.004264, 9.998018 
1.9452097e+3, 1.849804e+2, -718351.25, -1062793.9, 16372.033, -0.017259015, 0.22222382, -717574.8, 409640.38, 0.0000000086237, 10.003376, 9.998815 
1.9451706e+3, 1.9497941e+2, -746266.94, -1022760.25, 14265.054, -0.022927308, 0.2472215, -745532.94, 283691.94, 0.0, 10.0025, 9.998839 
1.9451316e+3, 2.0497836e+2, -754159.3, -951177.94, 12547.131, -0.03353371, 0.2559617, -753363.5, 177871.98, 0.0, 10.001665, 9.99906 
1.9450924e+3, 2.149773e+2, -769662.6, -905209.6, 15453.031, -0.049126886, 0.24747153, -767923.2, 65323.523, 0.0, 10.0008745, 9.9990835 
1.9450533e+3, 2.249765e+2, -764429.5, -796807.4, 20444.717, -0.06575695, 0.2448944, -754540.3, -19285.97, 0.0, 10.0, 9.999577 
1.9450143e+3, 2.3497605e+2, -804259.4, -762405.06, 19090.775, -0.08340872, 0.24722502, -755005.5, -117747.53, 0.0, 9.999042, 9.999601 
1.9449751e+3, 2.4497567e+2, -804091.75, -664113.06, 8037.4863, -0.09122102, 0.23725928, -663653.06, -124392.336, 0.0, 9.998166, 10.000025 
1.9449359e+3, 2.549754e+2, -819626.4, -617985.1, 11601.429, -0.08917288, 0.21425736, -617319.8, -176057.5, 0.0, 9.9973755, 10.00005 
1.9448967e+3, 2.649756e+2, -783108.6, -459788.28, 8955.048, -0.09352279, 0.19740473, -459540.44, -116281.39, 0.0, 9.996567, 10.000852 
1.9448572e+3, 2.7497628e+2, -802899.5, -415414.8, 4470.4873, -0.10457505, 0.18562767, -415363.25, -170112.86, 0.0, 9.995746, 10.000879 
1.944818e+3, 2.8497723e+2, -782771.94, -295021.1, 3547.8193, -0.10906832, 0.17331177, -294995.28, -147755.58, 0.0, 9.994954, 10.001413 
1.9447789e+3, 2.9497844e+2, -793774.06, -246576.16, 5780.969, -0.1065937, 0.16004266, -246515.1, -197288.53, 0.0, 9.994194, 10.001439 
1.9447395e+3, 3.049803e+2, -774500.44, -69114.41, 16756.066, -0.12727953, 0.1474485, -68716.6, -68716.6, 0.0, 9.993376, 10.002716 
1.9446999e+3, 3.1498286e+2, -899408.8, -126218.49, 20014.322, -0.17173176, 0.13416152, -125700.76, -125700.76, 0.0, 9.992507, 10.002743 
1.9554538e+3, 1.2503746e+2, -760366.3, -1696643.1, 9238.436, 0.052451342, 0.3041696, -760275.2, 954386.6, 0.0190651, 10.008626, 9.995973 
1.9554132e+3, 1.3503316e+2, -770465.7, -1640789.1, -31245.049, 0.033367783, 0.27237493, -769345.44, 847358.7, 0.013401269, 10.007775, 9.996093 
1.9553728e+3, 1.4502995e+2, -729886.1, -1473483.1, -14689.363, 0.020170968, 0.306932, -729596.06, 789139.06, 0.007768949, 10.006914, 9.9969845 
1.9553329e+3, 1.5502661e+2, -752792.94, -1432795.8, -15553.707, 0.007469639, 0.2792346, -752437.4, 668329.56, 0.0033645984, 10.006045, 9.997007 
1.9552928e+3, 1.650238e+2, -710343.25, -1249357.3, -15869.917, -0.0028660786, 0.25607762, -709876.4, 612916.8, 0.0008959551, 10.005163, 9.99802 
1.9552529e+3, 1.7502159e+2, -740785.75, -1210835.3, -15083.553, -0.011011344, 0.23874865, -740302.25, 484511.13, 0.000076547185, 10.004266, 9.998044 
1.955213e+3, 1.8501994e+2, -721356.75, -1070439.1, -15960.125, -0.019691376, 0.24267012, -720628.56, 406200.3, 0.000000014146333, 10.003379, 9.998762 
1.9551732e+3, 1.9501889e+2, -749381.8, -1030634.0, -18007.676, -0.02882525, 0.26619226, -748233.56, 280605.8, 0.0, 10.002502, 9.998785 
1.9551332e+3, 2.0501775e+2, -747739.1, -939189.8, -16470.83, -0.03715554, 0.2638323, -746332.44, 184518.1, 0.0, 10.001668, 9.999143 
1.9550933e+3, 2.1501656e+2, -763328.8, -893258.6, -13564.529, -0.04464161, 0.23503524, -761927.8, 70934.18, 0.0, 10.000876, 9.9991665 
1.9550534e+3, 2.2501583e+2, -765897.6, -801078.94, -14922.916, -0.056813207, 0.2363734, -760420.44, -25551.357, 0.0, 10.000002, 9.999548 
1.9550133e+3, 2.3501565e+2, -805662.06, -766696.3, -16321.411, -0.07371202, 0.26659548, -760763.25, -123891.72, 0.0, 9.999044, 9.999573 
1.9549733e+3, 2.4501534e+2, -795839.25, -648434.94, -21124.701, -0.087522775, 0.26057047, -645467.3, -106593.58, 0.0, 9.99817, 10.000133 
1.9549333e+3, 2.55015e+2, -811321.0, -602247.3, -17531.682, -0.09819953, 0.21787618, -600787.44, -159912.16, 0.0, 9.997378, 10.000157 
1.954893e+3, 2.6501516e+2, -789780.06, -475178.5, -21522.168, -0.101274274, 0.19845907, -473712.97, -130840.82, 0.0, 9.996571, 10.000746 
1.9548531e+3, 2.7501586e+2, -809782.44, -430969.72, -26124.387, -0.09720861, 0.20112059, -429176.56, -184312.61, 0.0, 9.995748, 10.000773 
1.954813e+3, 2.8501686e+2, -776604.94, -283584.63, -24720.826, -0.10310425, 0.19525042, -282348.2, -135495.1, 0.0, 9.994957, 10.0014925 
1.9547728e+3, 2.9501817e+2, -787226.06, -234917.86, -22454.89, -0.11824436, 0.18038908, -234006.42, -185167.34, 0.0, 9.994199, 10.001519 
1.9547327e+3, 3.0502006e+2, -765508.1, -52412.363, -15787.251, -0.13296776, 0.16112857, -52063.02, -52063.02, 0.0, 9.9933815, 10.00283 
1.9546926e+3, 3.150226e+2, -890797.4, -109529.52, -12255.377, -0.14814267, 0.13671535, -109337.32, -109337.32, 0.0, 9.992508, 10.002858 
1.9654623e+3, 1.2507796e+2, -746390.56, -1690337.5, 44936.234, 0.04690595, 0.3132342, -744256.2, 970009.56, 0.01981512, 10.008736, 9.995962 
1.9654208e+3, 1.3507362e+2, -759322.9, -1638082.4, 5860.4097, 0.029613001, 0.2808647, -759283.8, 857024.6, 0.013951994, 10.007873, 9.996062 
1.9653796e+3, 1.4507036e+2, -724502.7, -1477792.6, 20184.602, 0.016255584, 0.31471148, -723962.25, 794377.9, 0.008112118, 10.006988, 9.996918 
1.9653387e+3, 1.5506695e+2, -752175.44, -1439166.6, 17183.672, 0.0048397426, 0.289868, -751745.9, 668626.8, 0.0035328483, 10.006083, 9.996944 
1.9652979e+3, 1.6506416e+2, -706968.56, -1249283.8, 14194.006, -0.004407481, 0.271949, -706597.3, 615801.9, 0.00095233356, 10.005198, 9.998003 
1.9652571e+3, 1.7506202e+2, -733177.56, -1208672.0, 11584.587, -0.011744989, 0.26208407, -732895.5, 491523.5, 0.00008446491, 10.004329, 9.998027 
1.9652162e+3, 1.8506032e+2, -712754.56, -1067119.5, 9999.684, -0.021941487, 0.2631958, -712472.6, 413962.25, 0.000000021170644, 10.003446, 9.998752 
1.9651754e+3, 1.950591e+2, -743906.9, -1028925.0, 10469.122, -0.034791037, 0.27363464, -743522.8, 284923.72, 0.0, 10.002547, 9.998774 
1.9651346e+3, 2.0505795e+2, -742738.94, -923503.3, 15699.254, -0.04143706, 0.26589465, -741385.56, 189071.81, 0.0, 10.001649, 9.999258 
1.965094e+3, 2.1505688e+2, -774362.44, -885596.06, 20465.766, -0.04195841, 0.23936927, -770716.44, 61750.42, 0.0, 10.000748, 9.999279 
1.9650532e+3, 2.2505622e+2, -787588.4, -818746.94, 16700.025, -0.0522238, 0.24396531, -780329.0, -45855.27, 0.0, 9.999887, 9.99948 
1.9650124e+3, 2.3505598e+2, -807440.56, -774739.44, 11862.188, -0.072094075, 0.27839142, -770889.7, -134412.25, 0.0, 9.999066, 9.999505 
1.9649714e+3, 2.450557e+2, -782370.5, -633512.0, 6376.3, -0.08761518, 0.27534288, -633239.4, -94759.695, 0.0, 9.998229, 10.000205 
1.9649304e+3, 2.5505546e+2, -806963.94, -591862.0, 6802.4937, -0.098976746, 0.23451391, -591647.1, -151167.17, 0.0, 9.9973755, 10.000229 
1.9648895e+3, 2.6505563e+2, -794223.8, -476051.9, 5439.8774, -0.101796314, 0.2121147, -475958.9, -133482.34, 0.0, 9.996538, 10.000754 
1.9648488e+3, 2.7505627e+2, -814206.25, -431984.44, 9010.57, -0.096359216, 0.20720164, -431772.13, -187302.95, 0.0, 9.995716, 10.00078 
1.9648078e+3, 2.8505728e+2, -780794.3, -279073.78, 14929.75, -0.10241785, 0.2000893, -278629.9, -132171.64, 0.0, 9.994903, 10.001548 
1.9647668e+3, 2.9505867e+2, -797857.0, -233589.08, 14778.41, -0.11942509, 0.1899903, -233202.3, -184758.9, 0.0, 9.994102, 10.001574 
1.964726e+3, 3.0506063e+2, -782170.75, -50504.83, 14095.81, -0.13057609, 0.17323549, -50233.367, -50233.367, 0.0, 9.993228, 10.002915 
1.964685e+3, 3.150633e+2, -916975.06, -111827.07, 15069.405, -0.1364147, 0.15177996, -111545.125, -111545.125, 0.0, 9.992288, 10.002947 
1.975471e+3, 1.2511934e+2, -748735.56, -1694004.6, 11884.089, 0.049284965, 0.3181597, -748586.2, 965275.2, 0.020566268, 10.008734, 9.995939 
1.9754286e+3, 1.351151e+2, -762377.3, -1644579.9, -25852.766, 0.022840535, 0.29907927, -761620.4, 854282.7, 0.014504879, 10.0078745, 9.996019 
1.9753864e+3, 1.4511177e+2, -731185.0, -1492560.9, -12994.104, 0.0056062746, 0.33516726, -730963.25, 786972.06, 0.008457713, 10.00699, 9.996817 
1.9753447e+3, 1.5510824e+2, -758490.3, -1453859.8, -15863.89, -0.00076772325, 0.30632874, -758128.56, 661841.06, 0.0037031022, 10.006087, 9.996843 
1.975303e+3, 1.6510539e+2, -710925.4, -1259009.3, -17588.924, -0.006657933, 0.29109693, -710361.5, 611635.44, 0.0010099274, 10.0052, 9.997936 
1.9752614e+3, 1.7510326e+2, -737451.06, -1218620.6, -20221.242, -0.012489841, 0.2902539, -736602.75, 487414.1, 0.00009276751, 10.00433, 9.99796 
1.9752195e+3, 1.8510145e+2, -711285.6, -1065104.0, -22904.203, -0.024038272, 0.28367808, -709809.06, 416224.47, 0.000000028473872, 10.003447, 9.998767 
1.9751778e+3, 1.9510004e+2, -742233.75, -1026787.2, -22449.785, -0.04083802, 0.27018994, -740473.5, 287573.3, 0.0, 10.00255, 9.998789 
1.9751363e+3, 2.0509896e+2, -732653.5, -904093.56, -17440.309, -0.04637502, 0.26271892, -730897.3, 199159.03, 0.0, 10.001652, 9.999392 
1.9750947e+3, 2.1509825e+2, -764580.56, -866936.75, -12801.055, -0.04103448, 0.26012847, -763003.94, 69057.97, 0.0, 10.0007515, 9.999408 
1.9750531e+3, 2.2509761e+2, -795114.8, -835980.25, -13596.9, -0.051948693, 0.2670506, -791004.25, -56935.574, 0.0, 9.999891, 9.999362 
1.9750112e+3, 2.3509708e+2, -814954.56, -791864.9, -18440.605, -0.07856304, 0.28236422, -781653.4, -145577.23, 0.0, 9.99907, 9.999388 
1.9749695e+3, 2.4509677e+2, -779975.3, -630120.2, -25110.744, -0.09141789, 0.28175756, -626024.44, -87945.516, 0.0, 9.998232, 10.000228 
1.9749278e+3, 2.5509676e+2, -804616.25, -588546.4, -24826.732, -0.0911949, 0.26483205, -585730.44, -145653.73, 0.0, 9.997379, 10.000252 
1.974886e+3, 2.65097e+2, -785486.6, -459497.56, -25032.35, -0.09499376, 0.23867728, -457586.56, -115513.87, 0.0, 9.996541, 10.000868 
1.9748443e+3, 2.7509743e+2, -805516.1, -415586.63, -21405.988, -0.10260086, 0.2030286, -414415.03, -170348.61, 0.0, 9.995719, 10.000893 
1.9748026e+3, 2.8509837e+2, -778868.8, -276715.66, -14742.676, -0.107236914, 0.18659648, -276283.2, -130227.625, 0.0, 9.994906, 10.001564 
1.974761e+3, 2.950999e+2, -796095.44, -231377.63, -15067.538, -0.10899359, 0.18794331, -230975.88, -182936.06, 0.0, 9.994104, 10.001589 
1.9747192e+3, 3.0510205e+2, -779050.2, -45113.94, -20967.98, -0.11952404, 0.18380524, -44515.39, -44515.39, 0.0, 9.993229, 10.002954 
1.9746773e+3, 3.1510496e+2, -913926.8, -106120.47, -19657.232, -0.13815749, 0.18314087, -105642.414, -105642.414, 0.0, 9.992287, 10.002989 
1.9854796e+3, 1.2516169e+2, -743295.9, -1692410.5, 33386.76, 0.04805058, 0.34432352, -742122.94, 971325.4, 0.021316022, 10.008787, 9.995923 
1.9854364e+3, 1.3515732e+2, -752257.8, -1642641.5, -2619.414, 0.020376064, 0.31850758, -752250.1, 863240.6, 0.0150583945, 10.007966, 9.995986 
1.9853935e+3, 1.4515392e+2, -713920.1, -1483717.3, 11957.86, 0.0018942999, 0.34857374, -713734.44, 803789.25, 0.008805202, 10.007113, 9.996817 
1.9853508e+3, 1.5515037e+2, -737321.75, -1443173.3, 15567.03, -0.0030174463, 0.31843972, -736978.56, 682579.5, 0.00387532, 10.006236, 9.996843 
1.9853082e+3, 1.6514753e+2, -698797.9, -1258945.9, 16070.37, -0.008772866, 0.30773875, -698337.2, 623248.3, 0.0010687882, 10.005313, 9.997881 
1.9852656e+3, 1.7514543e+2, -739072.9, -1225081.1, 13894.352, -0.015814753, 0.31677043, -738676.0, 484929.5, 0.000101488, 10.004347, 9.997906 
1.9852228e+3, 1.8514356e+2, -711471.75, -1061683.5, 13084.233, -0.027299544, 0.3044756, -710983.6, 414639.13, 0.00000003540354, 10.003433, 9.998795 
1.9851802e+3, 1.9514196e+2, -737848.6, -1021354.9, 13970.162, -0.042821415, 0.2706075, -737161.9, 290475.0, 0.0, 10.002569, 9.998816 
1.9851378e+3, 2.0514087e+2, -726187.25, -902485.6, 13299.651, -0.04873265, 0.26334053, -725189.56, 204456.73, 0.0, 10.001706, 9.999374 
1.9850953e+3, 2.1514036e+2, -752787.2, -863041.2, 6499.4365, -0.04535242, 0.28044805, -752405.4, 79245.25, 0.0, 10.000844, 9.999388 
1.9850528e+3, 2.251397e+2, -789006.44, -831769.94, 4161.8228, -0.0537165, 0.2900608, -788605.1, -54947.684, 0.0, 9.999931, 9.99937 
1.9850102e+3, 2.3513904e+2, -829384.7, -797660.75, 8237.884, -0.07349194, 0.29169804, -795649.1, -159983.06, 0.0, 9.998969, 9.999394 
1.9849676e+3, 2.4513872e+2, -800500.94, -637170.9, 7764.4004, -0.08398747, 0.28827268, -636802.6, -99133.555, 0.0, 9.998082, 10.000251 
1.9849251e+3, 2.551388e+2, -819539.75, -592876.2, 7513.854, -0.08554303, 0.2793308, -592627.4, -152961.2, 0.0, 9.997268, 10.000274 
1.9848825e+3, 2.651391e+2, -790021.6, -450462.28, 7241.3115, -0.092040725, 0.25472823, -450307.94, -108646.55, 0.0, 9.996465, 10.000965 
1.9848399e+3, 2.751396e+2, -805603.56, -404562.78, 9141.264, -0.103431374, 0.21419522, -404354.5, -160700.2, 0.0, 9.995674, 10.000988 
1.9847974e+3, 2.851406e+2, -787036.56, -276425.06, 14102.336, -0.10759399, 0.19505626, -276035.88, -130392.83, 0.0, 9.994836, 10.001598 
1.984755e+3, 2.951421e+2, -815721.3, -236718.98, 14672.707, -0.104638815, 0.19591771, -236347.39, -188720.23, 0.0, 9.993955, 10.001622 
1.9847123e+3, 3.0514428e+2, -792056.75, -52279.035, 6906.7446, -0.11555629, 0.19363366, -52214.56, -52214.56, 0.0, 9.993147, 10.002942 
1.9846694e+3, 3.151473e+2, -897145.56, -98416.53, 4348.362, -0.1392544, 0.20770842, -98392.86, -98392.86, 0.0, 9.992407, 10.002981 
1.9954883e+3, 1.2520492e+2, -745563.75, -1696081.8, 2221.9812, 0.042838402, 0.3869016, -745558.56, 967468.5, 0.02206262, 10.008785, 9.9959 
1.9954441e+3, 1.3520029e+2, -755490.94, -1648499.9, -32088.492, 0.021613501, 0.33874658, -754339.44, 860732.3, 0.015611433, 10.007962, 9.99595 
1.9954003e+3, 1.4519678e+2, -709256.1, -1473372.0, -19663.063, 0.004100591, 0.35597354, -708750.44, 808354.8, 0.009154136, 10.00711, 9.996892 
1.995357e+3, 1.5519331e+2, -732442.5, -1432978.4, -16528.732, -0.00241026, 0.3267871, -732052.7, 687085.8, 0.004049389, 10.006233, 9.996916 
1.9953133e+3, 1.6519053e+2, -702606.8, -1267617.1, -19573.12, -0.010840185, 0.32218608, -701929.56, 619235.75, 0.0011289229, 10.005313, 9.997823 
1.9952698e+3, 1.751885e+2, -742143.44, -1233175.5, -21744.367, -0.021520028, 0.34182727, -741182.44, 482003.0, 0.00011068494, 10.004351, 9.997849 
1.9952261e+3, 1.8518656e+2, -708725.44, -1057838.3, -18819.879, -0.031598993, 0.32560194, -707713.8, 417489.1, 0.000000043662506, 10.003438, 9.99882 
1.9951828e+3, 1.951848e+2, -735693.06, -1018345.7, -17893.332, -0.040976953, 0.27466673, -734564.8, 292652.56, 0.0, 10.002572, 9.9988365 
1.9951394e+3, 2.0518366e+2, -737672.56, -927665.2, -18461.707, -0.048745483, 0.26754755, -735895.25, 193332.45, 0.0, 10.001709, 9.999203 
1.995096e+3, 2.1518312e+2, -764161.4, -888033.6, -25302.154, -0.05483894, 0.3003442, -759192.44, 72041.05, 0.0, 10.000847, 9.999217 
1.9950525e+3, 2.2518249e+2, -780035.1, -814579.1, -31316.357, -0.05735911, 0.31310523, -761543.5, -28303.111, 0.0, 9.999934, 9.999488 
1.9950093e+3, 2.3518184e+2, -820548.7, -780818.4, -27257.863, -0.0568032, 0.30646172, -766955.0, -131707.31, 0.0, 9.998972, 9.999511 
1.9949658e+3, 2.451815e+2, -799209.9, -636030.44, -22311.684, -0.065379776, 0.29470584, -633034.75, -95784.23, 0.0, 9.998086, 10.000258 
1.9949223e+3, 2.5518152e+2, -818314.6, -591812.94, -22642.107, -0.082252294, 0.2773547, -589571.75, -150323.03, 0.0, 9.997271, 10.000281 
1.994879e+3, 2.6518193e+2, -784572.75, -440696.66, -22024.354, -0.09301191, 0.2601383, -439291.8, -98048.8, 0.0, 9.996468, 10.001033 
1.9948356e+3, 2.751827e+2, -800288.7, -395169.2, -20287.832, -0.09843438, 0.24205267, -394155.72, -150922.56, 0.0, 9.995678, 10.001053 
1.994792e+3, 2.851838e+2, -783445.75, -270484.34, -18802.445, -0.1033162, 0.22711675, -269796.06, -124575.19, 0.0, 9.994839, 10.001639 
1.9947487e+3, 2.9518524e+2, -812685.7, -231553.56, -18181.477, -0.10716874, 0.21477301, -230985.28, -183779.58, 0.0, 9.993957, 10.001659 
1.9947053e+3, 3.0518728e+2, -796819.25, -63977.297, -20456.363, -0.1194509, 0.2025323, -63406.727, -63406.727, 0.0, 9.993151, 10.002861 
1.9946617e+3, 3.1519032e+2, -900469.1, -108721.37, -22614.027, -0.13907172, 0.22534284, -108075.984, -108075.984, 0.0, 9.992418, 10.002908 
2.0054969e+3, 1.252488e+2, -732603.75, -1678008.4, 30286.05, 0.042596098, 0.40916145, -731634.5, 980964.56, 0.022805205, 10.008835, 9.996001 
2.0054522e+3, 1.3524412e+2, -752535.8, -1636988.5, 5317.8613, 0.019538723, 0.34666884, -752503.8, 862139.7, 0.016163586, 10.007948, 9.996034 
2.0054075e+3, 1.452406e+2, -716327.6, -1476249.6, 18189.547, 0.0027941752, 0.36091694, -715892.5, 800784.3, 0.009504266, 10.007065, 9.996892 
2.0053631e+3, 1.5523724e+2, -739456.0, -1436066.4, 15997.854, 0.0012132358, 0.34330958, -739088.8, 679620.4, 0.004225117, 10.006188, 9.996915 
2.0053186e+3, 1.6523446e+2, -706855.06, -1278410.5, 8180.947, -0.008944853, 0.34409797, -706738.0, 613998.3, 0.0011902485, 10.005325, 9.997741 
2.005274e+3, 1.7523234e+2, -730136.5, -1235853.0, 3795.8188, -0.027340973, 0.3634468, -730108.06, 492649.75, 0.00012040405, 10.004473, 9.99777 
2.0052296e+3, 1.8523034e+2, -687425.44, -1041843.4, 5765.844, -0.037786033, 0.34294912, -687331.7, 437443.9, 0.00000005653919, 10.003563, 9.998868 
2.0051853e+3, 1.9522855e+2, -728988.7, -1010004.6, 7718.657, -0.040842768, 0.2844633, -728776.8, 298012.75, 0.0, 10.0026, 9.9988785 
2.005141e+3, 2.0522736e+2, -747704.06, -940062.94, 12569.555, -0.046615966, 0.2760799, -746886.2, 181914.0, 0.0, 10.001676, 9.999131 
2.0050968e+3, 2.1522677e+2, -778088.6, -902426.1, 12531.815, -0.05481047, 0.3128818, -776838.1, 53968.96, 0.0, 10.000788, 9.999145 
2.0050524e+3, 2.2522613e+2, -780780.94, -809523.75, 5268.518, -0.058250677, 0.32592037, -779845.7, -47031.453, 0.0, 9.999908, 9.999533 
2.0050082e+3, 2.352255e+2, -808011.8, -769480.25, 3389.1094, -0.057244908, 0.31632325, -769184.44, -134363.55, 0.0, 9.999039, 9.999555 
2.0049639e+3, 2.4522518e+2, -788961.56, -632050.75, 6963.541, -0.06445519, 0.30428275, -631742.3, -94918.71, 0.0, 9.998163, 10.000247 
2.0049195e+3, 2.5522518e+2, -817429.5, -592216.8, 4755.5527, -0.079419844, 0.28907508, -592116.44, -153294.4, 0.0, 9.997284, 10.000271 
2.0048752e+3, 2.652256e+2, -790486.4, -439529.16, 3675.951, -0.08890099, 0.2739668, -439490.66, -98674.42, 0.0, 9.996413, 10.001065 
2.004831e+3, 2.7522644e+2, -816260.8, -398872.63, 2316.812, -0.093460836, 0.25834358, -398859.75, -156053.8, 0.0, 9.995554, 10.001085 
2.0047869e+3, 2.8522757e+2, -797162.4, -271374.7, 1648.4719, -0.09985563, 0.24523854, -271369.53, -126576.45, 0.0, 9.994723, 10.001687 
2.0047426e+3, 2.9522908e+2, -815512.3, -227524.42, 2400.273, -0.10744238, 0.23374511, -227514.63, -180737.42, 0.0, 9.993917, 10.001704 
2.0046984e+3, 3.05231e+2, -804935.6, -71727.72, 4704.968, -0.12036767, 0.21275641, -71697.52, -71697.52, 0.0, 9.993115, 10.002824 
2.0046541e+3, 3.15234e+2, -916759.8, -119421.94, 5996.5713, -0.13750024, 0.23604831, -119376.84, -119376.84, 0.0, 9.992322, 10.002878 
2.0155057e+3, 1.2529333e+2, -721048.75, -1651893.1, -2557.1145, 0.045542818, 0.41359314, -721041.75, 991122.6, 0.023543343, 10.008828, 9.99619 
2.0154598e+3, 1.3528875e+2, -740897.7, -1612513.1, -26702.313, 0.014534891, 0.34433115, -740080.4, 874126.25, 0.016714428, 10.007949, 9.996203 
2.0154142e+3, 1.4528532e+2, -721138.25, -1487443.8, -13731.464, -0.0014947358, 0.36390314, -720892.3, 795346.6, 0.009855112, 10.007069, 9.996815 
2.0153692e+3, 1.5528211e+2, -744147.3, -1447416.6, -16052.632, 0.007521011, 0.36705422, -743781.06, 674489.7, 0.004402129, 10.006192, 9.996837 
2.0153238e+3, 1.6527928e+2, -714534.2, -1295656.0, -22988.148, -0.0036078426, 0.37248978, -713626.2, 606672.75, 0.0012526084, 10.005328, 9.9976225 
2.0152783e+3, 1.7527692e+2, -737776.94, -1252455.3, -27393.172, -0.03333148, 0.38185078, -736323.06, 485999.75, 0.00013065305, 10.004473, 9.997659 
2.0152329e+3, 1.8527485e+2, -683462.8, -1034477.5, -29563.867, -0.045707494, 0.35694784, -680990.25, 443350.88, 0.00000007710949, 10.003564, 9.99892 
2.0151877e+3, 1.9527313e+2, -724832.5, -1002951.3, -27699.758, -0.04229823, 0.29973832, -722100.56, 304253.22, 0.0, 10.002603, 9.998927 
2.0151426e+3, 2.0527194e+2, -746085.75, -938468.4, -20213.666, -0.042384956, 0.28860283, -743984.8, 184379.33, 0.0, 10.001679, 9.999142 
2.0150976e+3, 2.152713e+2, -776792.0, -901374.1, -20341.975, -0.045564204, 0.31822035, -773554.7, 56817.168, 0.0, 10.000792, 9.999152 
2.0150523e+3, 2.2527061e+2, -782907.44, -815571.5, -26904.69, -0.05672126, 0.32881364, -767765.7, -35386.348, 0.0, 9.999912, 9.999492 
2.015007e+3, 2.3526996e+2, -810193.6, -775643.2, -28745.113, -0.07501339, 0.32139844, -759381.6, -124995.51, 0.0, 9.9990425, 9.999513 
2.0149618e+3, 2.4526967e+2, -791291.3, -638589.0, -25628.926, -0.08125801, 0.31722403, -634402.3, -98013.74, 0.0, 9.998167, 10.000201 
2.0149167e+3, 2.5526977e+2, -819786.25, -598760.3, -27925.908, -0.07689083, 0.31510276, -595286.56, -156900.08, 0.0, 9.997287, 10.000226 
2.0148717e+3, 2.652701e+2, -790973.5, -442122.25, -28376.133, -0.07957052, 0.2963962, -439829.16, -99447.67, 0.0, 9.996417, 10.001048 
2.0148267e+3, 2.7527076e+2, -816900.5, -401551.8, -29801.832, -0.08862192, 0.2620642, -399424.38, -157051.16, 0.0, 9.995557, 10.001067 
2.0147815e+3, 2.852719e+2, -793597.9, -265400.8, -28539.96, -0.09728498, 0.24846019, -263863.22, -119503.03, 0.0, 9.994726, 10.001729 
2.0147364e+3, 2.952736e+2, -811987.56, -222036.17, -27861.014, -0.10517033, 0.25302297, -220723.33, -174381.22, 0.0, 9.993921, 10.001741 
2.0146914e+3, 3.0527547e+2, -804152.1, -72138.41, -25224.15, -0.117940366, 0.22433703, -71270.25, -71270.25, 0.0, 9.99312, 10.00282 
2.0146464e+3, 3.1527838e+2, -915441.06, -118338.4, -23072.164, -0.13391306, 0.24176213, -117671.13, -117671.13, 0.0, 9.992326, 10.002886 
2.0255144e+3, 1.2533881e+2, -723754.6, -1646140.6, 38495.227, 0.043061145, 0.41079465, -722150.9, 989568.56, 0.024276633, 10.008788, 9.996248 
2.0254678e+3, 1.3533442e+2, -727453.6, -1600663.4, 7191.391, 0.009002024, 0.35610393, -727394.44, 886365.4, 0.017262613, 10.008027, 9.996246 
2.0254213e+3, 1.4533104e+2, -705577.75, -1484208.8, 15001.087, -0.0068058646, 0.37966868, -705288.9, 810503.0, 0.010205265, 10.007201, 9.996771 
2.0253754e+3, 1.5532774e+2, -729348.94, -1444744.3, 14474.065, 0.0065577016, 0.38211226, -729056.2, 688768.4, 0.0045796703, 10.006319, 9.996792 
2.0253292e+3, 1.6532482e+2, -708401.94, -1296347.5, 9843.69, -0.0017554633, 0.3823266, -708237.2, 611616.56, 0.0013158144, 10.005389, 9.997586 
2.0252827e+3, 1.7532232e+2, -748275.3, -1261047.3, 10600.872, -0.029979952, 0.38219288, -748056.25, 473822.6, 0.00014143116, 10.004419, 9.997623 
2.0252365e+3, 1.8532027e+2, -692063.5, -1040121.56, 8400.049, -0.0430728, 0.36018753, -691860.9, 432036.34, 0.000000108072406, 10.003514, 9.998903 
2.0251903e+3, 1.9531865e+2, -717489.5, -1001385.7, 4810.3906, -0.04234426, 0.31724328, -717408.06, 308500.84, 0.0, 10.0026655, 9.998906 
2.0251441e+3, 2.0531742e+2, -737845.0, -940935.9, 6207.829, -0.04318998, 0.30894712, -737655.44, 190264.2, 0.0, 10.001768, 9.999081 
2.0250982e+3, 2.1531665e+2, -776103.94, -907341.7, 343.20505, -0.045438685, 0.33071172, -776103.06, 53825.81, 0.0, 10.000827, 9.999092 
2.0250522e+3, 2.2531593e+2, -780324.6, -811375.44, -5158.16, -0.056168593, 0.34071937, -779490.2, -47553.53, 0.0, 9.999921, 9.999515 
2.0250058e+3, 2.3531535e+2, -808438.7, -772121.1, -2803.0266, -0.07463533, 0.33940846, -771906.06, -137963.53, 0.0, 9.999046, 9.999533 
2.0249598e+3, 2.4531503e+2, -794920.8, -642038.4, 2278.379, -0.080627345, 0.33386177, -642004.44, -106059.375, 0.0, 9.998154, 10.000183 
2.0249139e+3, 2.5531504e+2, -827439.3, -604014.25, 1470.7615, -0.07536046, 0.32404828, -604004.6, -166060.7, 0.0, 9.997245, 10.000209 
2.024868e+3, 2.6531535e+2, -799562.4, -443351.84, 3867.5654, -0.07708016, 0.30298537, -443309.88, -103370.7, 0.0, 9.996349, 10.00107 
2.0248221e+3, 2.75316e+2, -829194.4, -404679.84, 5042.0366, -0.08528962, 0.27072164, -404619.97, -162689.3, 0.0, 9.995464, 10.001089 
2.0247762e+3, 2.853172e+2, -810525.56, -271169.5, 8114.4736, -0.093877956, 0.2591716, -271047.44, -127130.18, 0.0, 9.994603, 10.001747 
2.0247303e+3, 2.9531893e+2, -833680.1, -230186.47, 6427.0386, -0.10232365, 0.26604745, -230118.03, -184219.31, 0.0, 9.993767, 10.001759 
2.0246844e+3, 3.053207e+2, -826360.44, -79203.35, 10016.631, -0.11617502, 0.22466977, -79069.09, -79069.09, 0.0, 9.992956, 10.002849 
2.0246385e+3, 3.1532365e+2, -935455.2, -122360.38, 15020.477, -0.13351928, 0.24089622, -122083.0, -122083.0, 0.0, 9.992168, 10.002933 
2.035523e+3, 1.253852e+2, -728016.9, -1655419.3, 9701.319, 0.035351638, 0.40108174, -727915.4, 983349.75, 0.025004612, 10.008793, 9.996182 
2.0354755e+3, 1.3538106e+2, -732945.9, -1611607.6, -20468.719, 0.0030982788, 0.37987608, -732469.3, 880834.3, 0.017806116, 10.008026, 9.996173 
2.0354283e+3, 1.4537765e+2, -708059.7, -1488906.5, -17070.504, -0.013015795, 0.40600947, -707686.7, 807649.56, 0.010552672, 10.007198, 9.996742 
2.0353815e+3, 1.5537414e+2, -731225.94, -1449064.5, -17919.283, -0.0007977814, 0.38941592, -730778.9, 686592.06, 0.00475676, 10.006318, 9.996765 
2.0353344e+3, 1.6537109e+2, -706494.44, -1293573.6, -25872.738, -0.0028630467, 0.37583792, -705356.44, 614044.7, 0.0013797316, 10.005391, 9.997606 
2.0352872e+3, 1.7536852e+2, -745979.5, -1258249.5, -25085.64, -0.018138118, 0.36639002, -744754.0, 476672.38, 0.00015278044, 10.004424, 9.9976425 
2.03524e+3, 1.853665e+2, -697671.94, -1053905.6, -22973.484, -0.030961737, 0.35385397, -696196.5, 427247.8, 0.0000001535329, 10.00352, 9.998808 
2.0351928e+3, 1.9536507e+2, -723600.4, -1015953.9, -26716.574, -0.041215997, 0.33700353, -721178.94, 304276.34, 0.0, 10.00267, 9.998806 
2.0351459e+3, 2.053638e+2, -747095.0, -961867.2, -28652.309, -0.048816293, 0.33668533, -743338.25, 184128.72, 0.0, 10.001772, 9.998938 
2.0350988e+3, 2.1536279e+2, -784883.7, -927342.3, -34343.84, -0.05415957, 0.35013303, -777036.4, 52442.14, 0.0, 10.000831, 9.998955 
2.0350519e+3, 2.2536206e+2, -774505.56, -801025.06, -37427.805, -0.0563607, 0.3615657, -748058.1, -16571.715, 0.0, 9.999925, 9.999586 
2.035005e+3, 2.3536165e+2, -802927.4, -762369.7, -35161.242, -0.055953033, 0.370395, -742058.56, -108568.09, 0.0, 9.99905, 9.999599 
2.034958e+3, 2.4536125e+2, -794619.5, -643091.94, -31436.863, -0.06257691, 0.35399652, -636828.75, -101335.28, 0.0, 9.998157, 10.000175 
2.034911e+3, 2.5536096e+2, -827031.44, -604791.5, -32260.979, -0.07514728, 0.3150944, -600203.2, -162708.45, 0.0, 9.997249, 10.000203 
2.0348643e+3, 2.653613e+2, -795316.06, -436112.16, -29071.365, -0.08175156, 0.29321843, -433774.53, -94284.85, 0.0, 9.996352, 10.001121 
2.0348173e+3, 2.7536225e+2, -825319.5, -398085.5, -27851.172, -0.08349648, 0.28493568, -396277.56, -154799.08, 0.0, 9.995466, 10.001135 
2.0347707e+3, 2.853635e+2, -811572.4, -274685.47, -23053.2, -0.08957886, 0.27781093, -273697.44, -130232.91, 0.0, 9.994605, 10.001723 
2.034724e+3, 2.9536507e+2, -834890.0, -233832.95, -24718.96, -0.09894539, 0.27192217, -232818.08, -187370.73, 0.0, 9.993768, 10.001735 
2.0346773e+3, 3.0536667e+2, -822337.1, -72014.72, -19299.768, -0.115273096, 0.21241213, -71518.62, -71518.62, 0.0, 9.992958, 10.0029 
2.0346305e+3, 3.1536973e+2, -929866.94, -111907.55, -13256.317, -0.13614872, 0.23717786, -111692.76, -111692.76, 0.0, 9.992169, 10.003006 
2.0455317e+3, 1.2543258e+2, -711894.2, -1652576.9, 37665.49, 0.025600715, 0.40572086, -710388.44, 1000412.9, 0.025725579, 10.008939, 9.996131 
2.0454836e+3, 1.3542844e+2, -735878.5, -1619124.1, 9421.617, 0.00246076, 0.39079416, -735778.06, 877062.3, 0.018342717, 10.008039, 9.996112 
2.0454355e+3, 1.45425e+2, -713198.4, -1490529.1, 13132.38, -0.010866542, 0.41782248, -712976.56, 801896.8, 0.010895418, 10.007165, 9.996745 
2.0453876e+3, 1.554215e+2, -732395.0, -1449088.5, 13846.073, -0.00058028806, 0.401616, -732127.56, 684780.6, 0.004932383, 10.006312, 9.996766 
2.0453398e+3, 1.654184e+2, -699868.9, -1290996.8, 3301.673, -0.0033291173, 0.38631397, -699850.44, 619088.0, 0.0014440961, 10.005444, 9.997598 
2.0452915e+3, 1.7541577e+2, -727407.06, -1250314.6, 1592.8738, -0.01792077, 0.37344298, -727402.25, 493561.6, 0.00016470636, 10.0045595, 9.997629 
2.0452434e+3, 1.8541373e+2, -685411.8, -1061579.3, 2706.8857, -0.030256031, 0.36411092, -685392.4, 437590.1, 0.00000022038157, 10.003666, 9.998683 
2.0451954e+3, 1.9541223e+2, -718913.2, -1027074.5, -3760.3916, -0.04049608, 0.35636204, -718867.3, 306127.28, 0.0, 10.002764, 9.998682 
2.0451474e+3, 2.054109e+2, -735838.1, -956004.2, -3604.447, -0.049438253, 0.35526347, -735779.1, 191227.97, 0.0, 10.001851, 9.998938 
2.0450996e+3, 2.1540979e+2, -771026.44, -920710.25, 505.96017, -0.057233226, 0.35923856, -771024.7, 57994.457, 0.0, 10.00093, 9.998951 
2.0450518e+3, 2.2540902e+2, -771169.56, -804131.7, -3025.7175, -0.058186755, 0.3706625, -770894.1, -39866.73, 0.0, 9.999971, 9.999539 
2.0450039e+3, 2.3540863e+2, -815993.7, -772929.0, -9985.647, -0.053194113, 0.38750017, -770726.25, -137694.7, 0.0, 9.998982, 9.9995575 
2.0449561e+3, 2.4540825e+2, -804929.44, -640373.6, -6340.2886, -0.058236305, 0.3710003, -640129.7, -105095.305, 0.0, 9.998056, 10.00024 
2.0449083e+3, 2.5540793e+2, -832335.6, -600157.5, -2251.3953, -0.07206744, 0.3252043, -600135.7, -163100.36, 0.0, 9.997185, 10.000264 
2.0448604e+3, 2.6540828e+2, -807390.75, -445218.9, -958.17957, -0.08009027, 0.30251122, -445216.38, -106186.1, 0.0, 9.996287, 10.001087 
2.0448127e+3, 2.7540922e+2, -841737.25, -408932.22, -6552.762, -0.08322549, 0.29879025, -408833.03, -167813.69, 0.0, 9.995371, 10.001104 
2.0447652e+3, 2.854105e+2, -825925.06, -274487.47, -24.50594, -0.08799471, 0.29380783, -274487.47, -131482.36, 0.0, 9.99448, 10.001783 
2.0447175e+3, 2.9541212e+2, -853914.5, -236133.44, 4236.196, -0.093746476, 0.28780732, -236104.39, -191117.2, 0.0, 9.993611, 10.001792 
2.04467e+3, 3.0541363e+2, -848925.9, -78318.38, 13413.332, -0.11053346, 0.21354252, -78084.984, -78084.984, 0.0, 9.992751, 10.002954 
2.0446225e+3, 3.1541678e+2, -963522.1, -118208.375, 20270.732, -0.13561873, 0.24293174, -117722.555, -117722.555, 0.0, 9.9918995, 10.00309 
2.0555402e+3, 1.2548086e+2, -716692.8, -1661188.4, 3529.5227, 0.01379778, 0.42052576, -716679.6, 993649.1, 0.026436571, 10.008935, 9.996074 
2.0554915e+3, 1.354765e+2, -740039.56, -1628225.1, -23334.602, 0.006229506, 0.39078683, -739426.94, 872943.2, 0.018870806, 10.008041, 9.996051 
2.0554426e+3, 1.4547305e+2, -711789.06, -1488645.1, -18119.67, -0.001752746, 0.41759285, -711366.6, 803036.94, 0.011232686, 10.007168, 9.996758 
2.055394e+3, 1.5546973e+2, -731131.2, -1447609.8, -17865.69, 0.006114505, 0.41826385, -730686.0, 685750.75, 0.0051059243, 10.006314, 9.996777 
2.055345e+3, 1.654667e+2, -702888.06, -1298489.5, -29563.326, -0.0033816383, 0.41175574, -701424.25, 617042.06, 0.0015084812, 10.0054455, 9.997547 
2.0552959e+3, 1.7546403e+2, -730670.06, -1258444.1, -31158.04, -0.028232025, 0.400945, -728836.94, 491654.9, 0.00017709215, 10.004562, 9.997575 
2.0552468e+3, 1.8546185e+2, -696562.0, -1086057.5, -30621.838, -0.039795004, 0.38922542, -694169.25, 428342.8, 0.00000031453325, 10.003668, 9.998516 
2.055198e+3, 1.9546013e+2, -729361.5, -1050090.5, -36930.125, -0.040032133, 0.37517592, -725164.1, 299362.9, 0.0, 10.002766, 9.998526 
2.0551494e+3, 2.054587e+2, -726725.8, -938460.56, -37474.918, -0.04535046, 0.36521497, -720288.9, 206251.4, 0.0, 10.001853, 9.999059 
2.0551004e+3, 2.1545759e+2, -762907.8, -905373.75, -33658.586, -0.054891467, 0.35840085, -755356.06, 73195.1, 0.0, 10.000933, 9.999057 
2.0550515e+3, 2.2545677e+2, -782795.2, -829892.2, -39723.168, -0.061820067, 0.36822718, -760165.06, -29605.113, 0.0, 9.999975, 9.999363 
2.0550027e+3, 2.3545627e+2, -826680.6, -796763.2, -46461.223, -0.066533536, 0.39077795, -762912.0, -130345.79, 0.0, 9.998986, 9.999394 
2.0549539e+3, 2.4545598e+2, -795516.94, -622535.44, -38703.77, -0.06763082, 0.3851735, -614270.56, -79702.336, 0.0, 9.99806, 10.000363 
2.0549053e+3, 2.5545594e+2, -823788.8, -584089.5, -34733.52, -0.0658112, 0.35535988, -579157.94, -142592.05, 0.0, 9.997189, 10.000375 
2.0548567e+3, 2.6545623e+2, -816317.9, -465345.06, -35227.023, -0.071888156, 0.33164945, -461844.25, -123283.01, 0.0, 9.99629, 10.000949 
2.0548078e+3, 2.754569e+2, -849939.0, -427424.72, -40862.09, -0.084761694, 0.31203747, -423509.16, -182955.36, 0.0, 9.995373, 10.000978 
2.0547596e+3, 2.8545818e+2, -815930.3, -255057.73, -32701.123, -0.08936595, 0.30712733, -253157.58, -110618.08, 0.0, 9.994482, 10.001918 
2.0547111e+3, 2.9546008e+2, -844496.3, -217664.08, -28300.313, -0.086437635, 0.3150056, -216388.97, -171870.48, 0.0, 9.993612, 10.001921 
2.0546629e+3, 3.054616e+2, -845752.56, -72472.22, -18536.514, -0.10142882, 0.22987229, -72028.13, -72028.13, 0.0, 9.99275, 10.002996 
2.0546143e+3, 3.1546485e+2, -958061.2, -106929.47, -10369.527, -0.13110933, 0.26567644, -106803.16, -106803.16, 0.0, 9.991896, 10.003172 
2.065549e+3, 1.2552984e+2, -715320.2, -1659567.6, 23338.275, 0.010465798, 0.43152222, -714743.7, 995106.0, 0.027134567, 10.008951, 9.996076 
2.0654996e+3, 1.3552548e+2, -729143.44, -1623023.1, 1211.8962, 0.0046227574, 0.4040509, -729141.8, 882749.25, 0.019389424, 10.008126, 9.996043 
2.0654497e+3, 1.45522e+2, -700950.5, -1487313.1, 5457.9307, -0.0028904765, 0.43014988, -700912.6, 813012.44, 0.011564343, 10.007266, 9.996718 
2.0654002e+3, 1.5551864e+2, -725279.06, -1448562.5, 1515.3159, 0.004755779, 0.43217674, -725275.9, 690682.8, 0.005277048, 10.006376, 9.996738 
2.0653504e+3, 1.655156e+2, -696576.7, -1293274.0, -10438.116, -0.003648183, 0.42597473, -696394.1, 621594.2, 0.001572404, 10.005484, 9.997562 
2.0653003e+3, 1.7551294e+2, -726058.4, -1254308.6, -8138.116, -0.026298288, 0.4145348, -725933.06, 494080.56, 0.00018972988, 10.004589, 9.997588 
2.0652504e+3, 1.8551071e+2, -697165.3, -1087773.3, -1425.2471, -0.03702082, 0.39972442, -697160.1, 424874.06, 0.0000004380449, 10.003674, 9.9985 
2.0652007e+3, 1.9550891e+2, -734546.6, -1054290.3, 2280.0232, -0.03743173, 0.38064742, -734530.4, 289519.7, 0.0, 10.002741, 9.998507 
2.0651512e+3, 2.0550747e+2, -733324.94, -941964.7, 844.47253, -0.04283078, 0.37229252, -733321.56, 192741.86, 0.0, 10.001813, 9.999052 
2.0651013e+3, 2.1550642e+2, -770255.7, -909647.0, -5135.729, -0.052437916, 0.37220013, -770066.7, 58006.953, 0.0, 10.000889, 9.999046 
2.0650515e+3, 2.2550556e+2, -783203.06, -833650.4, -10640.736, -0.061723236, 0.38045737, -781050.5, -50967.55, 0.0, 9.999991, 9.999328 
2.0650014e+3, 2.3550491e+2, -810460.5, -792495.44, -7567.911, -0.07081081, 0.3947848, -789732.4, -157641.88, 0.0, 9.999117, 9.999359 
2.064952e+3, 2.4550462e+2, -783620.6, -617623.75, -2128.6206, -0.07163739, 0.39202002, -617596.5, -83503.83, 0.0, 9.99815, 10.000352 
2.0649023e+3, 2.555047e+2, -836308.9, -591004.3, -8713.121, -0.065546125, 0.37453318, -590695.25, -154605.84, 0.0, 9.99711, 10.000362 
2.0648527e+3, 2.6550496e+2, -834095.25, -475248.8, -6608.9297, -0.069652714, 0.34893557, -475127.16, -137042.06, 0.0, 9.996179, 10.000933 
2.0648032e+3, 2.7550545e+2, -857108.06, -432117.9, -3595.9265, -0.08253215, 0.31547004, -432087.5, -192008.34, 0.0, 9.995334, 10.000963 
2.0647539e+3, 2.8550676e+2, -823948.6, -256715.78, 1856.242, -0.08725583, 0.31368744, -256709.7, -114644.97, 0.0, 9.994422, 10.001933 
2.0647046e+3, 2.9550886e+2, -866070.8, -225664.73, -3427.0889, -0.084501736, 0.3387575, -225646.39, -181604.13, 0.0, 9.993458, 10.001938 
2.0646553e+3, 3.0551025e+2, -874260.06, -78308.05, 3794.069, -0.0978777, 0.24343528, -78289.96, -78289.96, 0.0, 9.992525, 10.003063 
2.064606e+3, 3.155136e+2, -991236.9, -109291.234, 14715.027, -0.12562916, 0.2835572, -109045.79, -109045.79, 0.0, 9.991614, 10.003289 
2.0755582e+3, 1.2557948e+2, -713432.7, -1654990.9, -6955.2026, 0.013297999, 0.43851528, -713381.3, 995982.8, 0.02781695, 10.00895, 9.996111 
2.0755073e+3, 1.3557534e+2, -727917.7, -1620207.3, -28554.455, -0.0015534007, 0.42844874, -727004.9, 884398.8, 0.019897334, 10.008125, 9.996065 
2.0754568e+3, 1.455718e+2, -708112.75, -1502324.4, -26786.023, -0.012600698, 0.45327336, -707210.4, 806227.94, 0.011889783, 10.007265, 9.996616 
2.0754063e+3, 1.5556821e+2, -731540.9, -1462328.0, -30752.727, -0.0035171483, 0.4435604, -730249.0, 685225.1, 0.005445228, 10.006375, 9.996646 
2.0753556e+3, 1.6556507e+2, -692276.25, -1285212.3, -42853.816, -0.0039905705, 0.43034977, -689195.06, 628309.44, 0.0016354333, 10.005484, 9.997621 
2.075305e+3, 1.7556246e+2, -721555.1, -1245784.0, -40766.074, -0.013359098, 0.41572616, -718403.94, 501125.28, 0.00020242826, 10.004589, 9.997649 
2.0752542e+3, 1.8556027e+2, -689482.6, -1072825.1, -35678.832, -0.023251086, 0.39702347, -686190.2, 435358.88, 0.00000059464884, 10.0036745, 9.998605 
2.0752034e+3, 1.9555853e+2, -727674.44, -1041444.9, -32193.203, -0.033002954, 0.37379614, -724405.44, 299158.66, 0.0, 10.002743, 9.998596 
2.0751528e+3, 2.0555717e+2, -742554.44, -962762.4, -33349.23, -0.04177808, 0.37688938, -737614.7, 187962.22, 0.0, 10.001816, 9.99891 
2.075102e+3, 2.1555622e+2, -778769.4, -929061.1, -39189.547, -0.049881514, 0.40032157, -769164.3, 58422.773, 0.0, 10.000893, 9.998914 
2.0750512e+3, 2.2555532e+2, -776392.25, -821274.3, -42956.816, -0.057934746, 0.40687758, -750368.0, -20771.316, 0.0, 9.999995, 9.999413 
2.0750006e+3, 2.3555453e+2, -804497.06, -781939.4, -40222.348, -0.06598723, 0.39928877, -751444.44, -119839.625, 0.0, 9.999121, 9.999432 
2.0749499e+3, 2.4555413e+2, -794348.56, -641670.2, -40874.83, -0.07034659, 0.39133325, -631415.94, -97807.98, 0.0, 9.998154, 10.000187 
2.0748994e+3, 2.5555414e+2, -846262.7, -613192.25, -47143.83, -0.07171552, 0.3822795, -604017.5, -168411.31, 0.0, 9.997112, 10.000211 
2.0748489e+3, 2.6555434e+2, -826614.2, -461326.72, -38085.64, -0.07362622, 0.353723, -457398.1, -119795.88, 0.0, 9.9961815, 10.001029 
2.0747986e+3, 2.755548e+2, -850302.25, -419825.03, -35199.496, -0.07611542, 0.30832183, -416965.8, -177370.17, 0.0, 9.9953375, 10.001048 
2.0747483e+3, 2.8555614e+2, -832535.94, -276119.8, -34265.22, -0.08150941, 0.312831, -274017.63, -132436.52, 0.0, 9.994424, 10.001801 
2.0746978e+3, 2.9555833e+2, -874319.5, -243726.92, -39619.863, -0.08876821, 0.35865012, -241247.38, -197688.34, 0.0, 9.993458, 10.001816 
2.0746477e+3, 3.055596e+2, -868946.94, -67751.2, -30714.727, -0.100571275, 0.25389627, -66575.445, -66575.445, 0.0, 9.992523, 10.003139 
2.0745976e+3, 3.1556314e+2, -981615.3, -89179.91, -18110.771, -0.118516915, 0.30284703, -88812.52, -88812.52, 0.0, 9.99161, 10.003431 
2.085567e+3, 1.2562999e+2, -710301.8, -1659280.5, 29994.313, 0.013710005, 0.4331082, -709354.7, 999514.6, 0.02847992, 10.009008, 9.996051 
2.0855154e+3, 1.3562593e+2, -728860.9, -1626670.1, 3378.7275, 0.0017728875, 0.438105, -728848.2, 882060.56, 0.02039174, 10.008153, 9.996006 
2.0854639e+3, 1.4562233e+2, -705537.56, -1498467.0, 4984.4067, -0.011050034, 0.4614074, -705506.2, 807437.7, 0.012207048, 10.007278, 9.996635 
2.0854126e+3, 1.5561865e+2, -728564.2, -1458031.6, 8472.2705, -0.0072166706, 0.4411862, -728465.75, 686514.56, 0.0056092907, 10.006389, 9.996667 
2.085361e+3, 1.6561556e+2, -690458.3, -1278163.3, -1548.7966, -0.0078437645, 0.42686963, -690454.25, 626556.1, 0.0016970066, 10.005474, 9.997671 
2.0853093e+3, 1.7561302e+2, -726086.25, -1242091.3, -310.02475, -0.013183536, 0.41850176, -726086.06, 492948.1, 0.00021499881, 10.004537, 9.997698 
2.0852578e+3, 1.856109e+2, -697297.44, -1076816.4, -54.538956, -0.02205822, 0.4047742, -697297.44, 423756.1, 0.0000007905214, 10.003626, 9.998598 
2.085206e+3, 1.956092e+2, -729745.9, -1043039.5, -4879.193, -0.033345208, 0.38557717, -729669.9, 293398.6, 0.0, 10.002735, 9.998587 
2.0851544e+3, 2.056078e+2, -742380.6, -965509.3, -5828.081, -0.043405563, 0.3893493, -742228.5, 182853.23, 0.0, 10.001834, 9.99888 
2.0851028e+3, 2.1560678e+2, -776831.7, -931057.6, -4134.412, -0.052526582, 0.41084272, -776720.94, 50371.6, 0.0, 10.000922, 9.998883 
2.0850512e+3, 2.2560585e+2, -780757.6, -823205.06, -8944.181, -0.058679778, 0.41740775, -778949.94, -49847.625, 0.0, 9.999969, 9.999411 
2.0849995e+3, 2.3560509e+2, -825435.44, -792012.9, -13361.104, -0.0625585, 0.41102985, -787328.2, -156217.83, 0.0, 9.9989805, 9.999428 
2.084948e+3, 2.4560468e+2, -810130.44, -651919.6, -12525.555, -0.069459066, 0.40358338, -650934.1, -117820.336, 0.0, 9.99806, 10.000159 
2.0848963e+3, 2.5560462e+2, -836769.0, -611070.1, -8996.545, -0.07868009, 0.39489895, -610712.1, -175599.6, 0.0, 9.997192, 10.000185 
2.084845e+3, 2.656048e+2, -817072.4, -452205.56, 2029.6807, -0.077644, 0.36236122, -452194.25, -115085.49, 0.0, 9.996231, 10.001065 
2.0847937e+3, 2.7560523e+2, -868392.0, -424592.63, -221.84111, -0.068701826, 0.30962014, -424592.5, -185490.34, 0.0, 9.9952, 10.001079 
2.0847425e+3, 2.8560656e+2, -858130.94, -293381.7, 2656.5671, -0.073600404, 0.31652996, -293369.22, -152281.5, 0.0, 9.994274, 10.001753 
2.0846912e+3, 2.9560876e+2, -882139.5, -252224.31, 2974.152, -0.08890647, 0.37232324, -252210.27, -209144.4, 0.0, 9.993429, 10.001769 
2.0846401e+3, 3.0560994e+2, -876881.1, -69712.2, 8506.228, -0.10112029, 0.25814402, -69622.58, -69622.58, 0.0, 9.992465, 10.003151 
2.0845889e+3, 3.1561363e+2, -1004397.4, -88786.52, 17314.326, -0.11619083, 0.32168427, -88459.23, -88459.23, 0.0, 9.991408, 10.003529 
2.0955756e+3, 1.2568133e+2, -721901.25, -1681650.9, -1869.8981, 0.011978668, 0.41719908, -721897.6, 986468.25, 0.02911899, 10.009002, 9.995898 
2.0955235e+3, 1.3567723e+2, -739276.94, -1647718.3, -27380.994, 0.013012967, 0.43571743, -738452.44, 871954.1, 0.020869346, 10.008148, 9.995866 
2.0954712e+3, 1.4567362e+2, -698851.1, -1484052.3, -27023.64, -0.00021958275, 0.4570035, -697922.2, 814519.9, 0.012513895, 10.007274, 9.996739 
2.095419e+3, 1.5566994e+2, -721853.2, -1443964.0, -24149.01, -0.007134996, 0.4271421, -721046.5, 693431.2, 0.005767915, 10.006386, 9.996768 
2.0953663e+3, 1.6566694e+2, -688089.94, -1274018.9, -36109.867, -0.014872201, 0.41675833, -685872.94, 630633.6, 0.0017564674, 10.005473, 9.997703 
2.0953137e+3, 1.7566457e+2, -723792.75, -1239138.6, -34912.934, -0.02444633, 0.42281008, -721438.3, 497090.72, 0.00022719988, 10.00454, 9.997718 
2.0952609e+3, 1.8566254e+2, -704802.94, -1094440.1, -32955.176, -0.032153085, 0.42207992, -702035.3, 418512.84, 0.000001021801, 10.003631, 9.998477 
2.0952085e+3, 1.9566083e+2, -736782.44, -1059503.4, -37673.836, -0.03801303, 0.41464886, -732442.8, 290120.94, 0.0, 10.002739, 9.998474 
2.095156e+3, 2.0565931e+2, -737310.9, -956688.9, -39380.75, -0.047611684, 0.40885198, -730455.8, 194122.25, 0.0, 10.001837, 9.998941 
2.0951036e+3, 2.156581e+2, -772596.56, -923932.8, -38002.12, -0.060195085, 0.40410307, -763589.9, 63000.44, 0.0, 10.000926, 9.998933 
2.095051e+3, 2.2565715e+2, -787336.56, -838561.3, -45603.355, -0.06381872, 0.4126883, -760645.4, -32045.123, 0.0, 9.999972, 9.999306 
2.0949984e+3, 2.3565653e+2, -831108.8, -805556.56, -49719.613, -0.060521875, 0.43035078, -766997.8, -136390.31, 0.0, 9.998984, 9.999335 
2.0949458e+3, 2.4565618e+2, -802621.4, -638177.25, -44677.59, -0.06902596, 0.42891976, -626822.8, -94212.51, 0.0, 9.998064, 10.000254 
2.0948933e+3, 2.5565615e+2, -829683.8, -598507.25, -41481.96, -0.08648065, 0.41242027, -591289.2, -156680.55, 0.0, 9.997197, 10.000271 
2.0948409e+3, 2.656563e+2, -819264.4, -458754.7, -36521.47, -0.08172429, 0.375143, -455092.1, -118487.1, 0.0, 9.996236, 10.00102 
2.0947888e+3, 2.7565664e+2, -870814.0, -430839.7, -38382.656, -0.06024462, 0.32015854, -427516.38, -188917.48, 0.0, 9.995201, 10.001038 
2.0947368e+3, 2.8565797e+2, -855756.0, -289693.44, -28672.46, -0.06328464, 0.325063, -288244.8, -147660.13, 0.0, 9.994275, 10.00178 
2.0946845e+3, 2.9566017e+2, -879714.5, -249187.8, -28678.35, -0.08438882, 0.37877244, -247886.1, -205323.25, 0.0, 9.993433, 10.00179 
2.0946324e+3, 3.0566123e+2, -881801.1, -81620.03, -30978.795, -0.099376924, 0.2554946, -80422.49, -80422.49, 0.0, 9.992468, 10.00307 
2.0945801e+3, 3.156651e+2, -1002535.5, -85292.79, -20129.555, -0.11915965, 0.34785178, -84851.24, -84851.24, 0.0, 9.9914055, 10.003556 
2.1055847e+3, 1.2573381e+2, -730361.8, -1691406.5, 26300.4, 0.01978544, 0.43182167, -729642.56, 978209.44, 0.029730886, 10.008978, 9.995839 
2.1055315e+3, 1.357296e+2, -749110.44, -1657813.1, 7375.9727, 0.017844653, 0.44584128, -749050.56, 860843.7, 0.021327548, 10.00811, 9.995812 
2.1054782e+3, 1.4572594e+2, -702698.2, -1478548.3, 7398.545, 0.002163609, 0.46240145, -702627.6, 809302.5, 0.012808364, 10.007221, 9.9968 
2.105425e+3, 1.557223e+2, -728069.0, -1439962.3, 7133.1563, -0.006938257, 0.4315879, -727997.56, 685967.3, 0.005919768, 10.006318, 9.996825 
2.1053717e+3, 1.6571933e+2, -691856.25, -1276211.4, -7438.121, -0.017583944, 0.42283034, -691761.6, 624231.8, 0.0018130293, 10.005454, 9.997694 
2.1053182e+3, 1.75717e+2, -713092.5, -1234257.1, -9479.064, -0.030637348, 0.43227822, -712920.1, 505095.84, 0.00023869252, 10.00462, 9.997711 
2.1052647e+3, 1.8571493e+2, -690529.2, -1087226.8, -5533.0874, -0.039798982, 0.43136784, -690452.0, 429583.38, 0.0000012630055, 10.003731, 9.998476 
2.1052112e+3, 1.9571318e+2, -728421.0, -1055623.1, -2471.9338, -0.0454738, 0.42131862, -728402.3, 293649.06, 0.0, 10.002802, 9.998468 
2.1051577e+3, 2.0571166e+2, -736671.6, -958723.6, -5388.2295, -0.052612785, 0.41621906, -736541.0, 187524.95, 0.0, 10.001856, 9.998917 
2.1051042e+3, 2.1571043e+2, -778928.0, -929387.1, -10950.2295, -0.0611238, 0.41408616, -778135.25, 47943.055, 0.0, 10.000896, 9.998907 
2.1050508e+3, 2.2570945e+2, -790757.1, -840629.25, -18667.797, -0.0639801, 0.42233005, -784543.6, -56455.117, 0.0, 9.999954, 9.999297 
2.1049973e+3, 2.3570879e+2, -826070.1, -803526.4, -16168.15, -0.062335484, 0.43793318, -795088.75, -164992.7, 0.0, 9.999024, 9.999328 
2.1049438e+3, 2.4570844e+2, -805222.9, -638070.4, -11723.229, -0.06946668, 0.4366347, -637252.2, -105153.19, 0.0, 9.998045, 10.000262 
2.1048902e+3, 2.5570843e+2, -853775.7, -608340.2, -15621.002, -0.08336686, 0.42180982, -607350.0, -173252.69, 0.0, 9.997028, 10.000282 
2.1048369e+3, 2.657086e+2, -835291.9, -460074.13, -10105.673, -0.079388924, 0.38536945, -459802.16, -123708.87, 0.0, 9.996102, 10.001074 
2.104784e+3, 2.7570897e+2, -861912.94, -420969.7, -4976.117, -0.061852943, 0.33083454, -420913.56, -182827.0, 0.0, 9.995242, 10.001083 
2.1047309e+3, 2.8571033e+2, -855731.9, -291605.94, 5739.955, -0.062967405, 0.33788675, -291547.53, -151475.38, 0.0, 9.9942875, 10.001759 
2.1046777e+3, 2.9571256e+2, -906405.44, -264456.8, 1266.9496, -0.07779942, 0.3946496, -264454.3, -222403.78, 0.0, 9.993265, 10.001764 
2.1046248e+3, 3.0571342e+2, -907497.1, -102805.516, -4795.6675, -0.093961, 0.2596255, -102776.94, -102776.94, 0.0, 9.992334, 10.002987 
2.1045715e+3, 3.1571737e+2, -990442.7, -73956.2, 7345.885, -0.1257003, 0.36658767, -73897.33, -73897.33, 0.0, 9.991469, 10.003601 
2.1155937e+3, 1.2578735e+2, -730716.1, -1692061.8, -6073.4575, 0.03450333, 0.4699759, -730677.75, 976650.8, 0.030314276, 10.008978, 9.995836 
2.1155396e+3, 1.3578296e+2, -749354.2, -1658439.4, -24309.99, 0.017230654, 0.46598205, -748704.56, 860668.0, 0.021764176, 10.008109, 9.9958105 
2.1154854e+3, 1.4577924e+2, -701914.9, -1477268.5, -25637.309, -0.0023983472, 0.4761129, -701068.1, 810340.75, 0.013088251, 10.007221, 9.996813 
2.1154311e+3, 1.5577568e+2, -727408.25, -1439443.9, -25987.637, -0.006597481, 0.4518448, -726461.0, 686981.56, 0.0060632043, 10.006318, 9.996831 
2.1153769e+3, 1.6577268e+2, -695529.8, -1284813.5, -38045.152, -0.01660584, 0.4427847, -693083.75, 622387.75, 0.0018657204, 10.005454, 9.997638 
2.1153225e+3, 1.7577022e+2, -716174.2, -1241448.1, -40220.215, -0.032373693, 0.44615588, -713112.4, 504383.03, 0.0002490714, 10.004619, 9.997664 
2.1152681e+3, 1.8576807e+2, -683793.56, -1074119.4, -39686.5, -0.045339867, 0.43322405, -679799.3, 439716.22, 0.0000014736722, 10.003731, 9.998569 
2.1152136e+3, 1.9576626e+2, -722714.8, -1045093.5, -36847.375, -0.055596303, 0.40719286, -718556.9, 302974.75, 0.0, 10.002803, 9.998542 
2.1151595e+3, 2.057648e+2, -744654.44, -976765.6, -40844.8, -0.058270536, 0.412596, -737676.75, 185868.86, 0.0, 10.001858, 9.998794 
2.115105e+3, 2.1576375e+2, -786060.0, -945762.06, -46277.965, -0.055538572, 0.44049647, -773618.9, 51938.016, 0.0, 10.000899, 9.9987955 
2.1150506e+3, 2.2576272e+2, -785046.7, -830528.56, -53009.7, -0.05944811, 0.44564223, -750105.94, -22538.44, 0.0, 9.999958, 9.999368 
2.1149962e+3, 2.3576185e+2, -821107.6, -795123.9, -50798.797, -0.06811628, 0.4333585, -755681.94, -126105.57, 0.0, 9.999028, 9.999385 
2.1149416e+3, 2.4576141e+2, -811270.3, -652431.75, -49637.25, -0.07061897, 0.42647067, -638195.9, -106615.8, 0.0, 9.998049, 10.000164 
2.1148872e+3, 2.557614e+2, -858800.44, -620201.94, -53173.973, -0.06876947, 0.42289773, -608888.06, -175309.19, 0.0, 9.997031, 10.000202 
2.114833e+3, 2.6576167e+2, -824738.9, -439769.25, -42114.285, -0.07053408, 0.3929381, -435215.94, -99641.93, 0.0, 9.996105, 10.001214 
2.1147788e+3, 2.7576226e+2, -852216.25, -403146.63, -37343.96, -0.07467712, 0.34166422, -400062.34, -162496.94, 0.0, 9.995248, 10.001205 
2.1147248e+3, 2.8576368e+2, -861377.06, -305357.75, -32795.305, -0.07361017, 0.35553765, -303430.1, -163879.73, 0.0, 9.994292, 10.001664 
2.1146709e+3, 2.9576588e+2, -912899.0, -278707.22, -36920.254, -0.06871982, 0.42127302, -276565.1, -235036.06, 0.0, 9.993264, 10.001669 
2.114617e+3, 3.0576652e+2, -914364.0, -118361.695, -37035.906, -0.08439242, 0.27151084, -116642.23, -116642.23, 0.0, 9.992335, 10.002882 
2.1145627e+3, 3.1577042e+2, -985083.06, -66084.516, -22753.107, -0.13599756, 0.38393956, -65521.527, -65521.527, 0.0, 9.991479, 10.003654 
2.1256025e+3, 1.2584148e+2, -721239.06, -1687007.6, 18499.225, 0.038493358, 0.48571992, -720884.8, 985914.5, 0.030868625, 10.009052, 9.995833 
2.1255477e+3, 1.3583703e+2, -744621.5, -1655308.3, 888.3773, 0.019100947, 0.47667348, -744620.6, 864223.25, 0.022176748, 10.008147, 9.995811 
2.1254924e+3, 1.458333e+2, -696952.4, -1470011.3, -304.38113, -0.0023626466, 0.48480618, -696952.25, 813927.8, 0.0133507205, 10.00724, 9.996851 
2.1254373e+3, 1.558298e+2, -722784.4, -1432434.3, 754.22925, -0.008328154, 0.46433392, -722783.56, 690129.4, 0.00619618, 10.006335, 9.996869 
2.1253823e+3, 1.658268e+2, -696441.06, -1281424.9, -6290.015, -0.018968131, 0.45231754, -696373.44, 618568.3, 0.0019134537, 10.005436, 9.997667 
2.1253268e+3, 1.7582428e+2, -725630.94, -1242143.4, -3263.6357, -0.034587704, 0.4475686, -725610.3, 491355.84, 0.0002579484, 10.004541, 9.997694 
2.1252716e+3, 1.8582217e+2, -694091.56, -1075110.0, -4731.5244, -0.047657657, 0.4372287, -694032.8, 424953.03, 0.0000016202647, 10.003648, 9.998599 
2.1252163e+3, 1.9582048e+2, -728482.75, -1044505.44, -6940.643, -0.05825172, 0.4214278, -728330.4, 292670.56, 0.0, 10.002753, 9.998568 
2.1251611e+3, 2.0581901e+2, -751513.4, -979685.5, -10257.334, -0.059915014, 0.42466834, -751053.2, 171961.94, 0.0, 10.001813, 9.998793 
2.1251057e+3, 2.1581784e+2, -795269.8, -949931.5, -7510.054, -0.05512396, 0.44187275, -794906.0, 30121.4, 0.0, 10.000839, 9.998794 
2.1250503e+3, 2.258168e+2, -794215.6, -831884.0, -11859.246, -0.058970433, 0.44412696, -790792.94, -63754.89, 0.0, 9.999886, 9.999391 
2.1249948e+3, 2.3581594e+2, -831750.4, -797415.4, -13854.832, -0.069154374, 0.43399492, -792522.06, -163475.66, 0.0, 9.998948, 9.999406 
2.1249394e+3, 2.4581549e+2, -818444.6, -655921.4, -12471.224, -0.07104338, 0.4263049, -654969.94, -123919.695, 0.0, 9.998004, 10.000159 
2.1248843e+3, 2.5581545e+2, -855992.56, -618903.1, -9334.338, -0.06677903, 0.42042783, -618536.25, -185486.69, 0.0, 9.997054, 10.000197 
2.1248291e+3, 2.6581576e+2, -823750.3, -439174.22, 781.26245, -0.06861551, 0.39522406, -439172.63, -104128.016, 0.0, 9.996116, 10.001211 
2.1247739e+3, 2.7581644e+2, -861780.2, -407346.28, -6327.014, -0.07506969, 0.35374847, -407258.22, -170222.63, 0.0, 9.995185, 10.0012045 
2.124719e+3, 2.858179e+2, -868319.25, -304330.72, -5088.661, -0.07376196, 0.37182024, -304284.8, -165264.72, 0.0, 9.99423, 10.0016985 
2.124664e+3, 2.9582012e+2, -912361.6, -275372.25, 427.29172, -0.06635654, 0.43751904, -275371.94, -234373.63, 0.0, 9.993258, 10.001693 
2.1246092e+3, 3.0582052e+2, -929090.25, -136048.72, 6954.187, -0.07682961, 0.2712641, -135987.73, -135987.73, 0.0, 9.992284, 10.002783 
2.1245539e+3, 3.1582433e+2, -1005024.56, -66557.77, 23191.283, -0.1295767, 0.38410202, -65985.02, -65985.02, 0.0, 9.991307, 10.003731 
2.1356113e+3, 1.2589622e+2, -722056.44, -1689773.0, -13334.541, 0.033700246, 0.48333994, -721872.7, 984391.3, 0.03139335, 10.009058, 9.995813 
2.1355554e+3, 1.358918e+2, -745026.6, -1657357.9, -30359.373, 0.023098191, 0.47985774, -744017.5, 864290.6, 0.022563392, 10.008151, 9.995798 
2.1354996e+3, 1.458881e+2, -693278.06, -1463694.3, -31940.893, 0.0013459611, 0.4893014, -691956.06, 818387.8, 0.013593726, 10.007244, 9.996896 
2.1354435e+3, 1.5588467e+2, -718696.06, -1425544.0, -31483.654, -0.011899601, 0.47024417, -717296.5, 695079.56, 0.0063172653, 10.006338, 9.996917 
2.1353875e+3, 1.6588168e+2, -689506.5, -1268714.4, -38556.16, -0.024169717, 0.45284766, -686951.2, 627453.25, 0.0019555627, 10.005439, 9.997755 
2.1353313e+3, 1.7587915e+2, -719457.0, -1230950.6, -35877.316, -0.03720615, 0.43799478, -716952.75, 499475.84, 0.0002651385, 10.004544, 9.997772 
2.1352752e+3, 1.8587722e+2, -696361.56, -1081187.6, -37539.938, -0.047051556, 0.44355837, -692733.75, 425713.2, 0.0000016925857, 10.003649, 9.998559 
2.135219e+3, 1.9587582e+2, -730341.75, -1049534.6, -40098.344, -0.05402192, 0.46203572, -725381.5, 295078.5, 0.0, 10.002754, 9.998535 
2.1351628e+3, 2.0587425e+2, -744220.1, -965950.2, -46234.75, -0.05794551, 0.4508414, -734965.6, 187509.38, 0.0, 10.001815, 9.998889 
2.1351065e+3, 2.1587268e+2, -788603.25, -937908.75, -43420.715, -0.059788458, 0.41869083, -776894.0, 47596.047, 0.0, 10.000843, 9.998877 
2.13505e+3, 2.2587162e+2, -796126.75, -837796.9, -46635.715, -0.062334448, 0.41876382, -765883.56, -39383.027, 0.0, 9.99989, 9.999351 
2.1349937e+3, 2.3587105e+2, -833019.2, -801956.8, -48666.38, -0.0653859, 0.44029596, -766403.44, -137896.86, 0.0, 9.998952, 9.999375 
2.1349372e+3, 2.4587066e+2, -812427.7, -645343.5, -47692.906, -0.070985086, 0.43614727, -632688.44, -102178.734, 0.0, 9.998008, 10.000233 
2.1348809e+3, 2.5587055e+2, -851268.5, -611158.2, -44380.676, -0.07815659, 0.4139795, -603217.7, -170708.23, 0.0, 9.997059, 10.000251 
2.134825e+3, 2.658708e+2, -835035.94, -464695.72, -33925.62, -0.07380138, 0.39193818, -461613.56, -127108.23, 0.0, 9.99612, 10.001036 
2.1347691e+3, 2.7587146e+2, -871397.5, -429049.16, -41425.242, -0.0616539, 0.36731598, -425203.2, -188705.72, 0.0, 9.995188, 10.001057 
2.1347131e+3, 2.8587297e+2, -856285.7, -281068.4, -41498.035, -0.06254007, 0.38640773, -278090.0, -139608.31, 0.0, 9.994233, 10.00186 
2.1346572e+3, 2.9587525e+2, -901749.44, -255453.0, -35631.83, -0.071930446, 0.44169062, -253494.48, -213035.9, 0.0, 9.993263, 10.001829 
2.1346013e+3, 3.0587545e+2, -936058.0, -152355.31, -29454.748, -0.071309246, 0.25698555, -151249.84, -151249.84, 0.0, 9.992288, 10.002671 
2.1345454e+3, 3.1587914e+2, -998656.44, -53971.668, -10770.792, -0.10216648, 0.37075958, -53848.88, -53848.88, 0.0, 9.991305, 10.00382 
2.1456204e+3, 1.2595229e+2, -702057.44, -1678537.4, 37362.465, 0.035034508, 0.4887448, -700629.94, 1005085.3, 0.031886574, 10.009202, 9.995822 
2.1455635e+3, 1.359478e+2, -730029.6, -1648357.4, 23146.035, 0.01849688, 0.4777385, -729446.6, 878313.06, 0.022923036, 10.008257, 9.995807 
2.1455066e+3, 1.4594406e+2, -681796.06, -1458209.3, 21052.965, -0.0031292292, 0.48551825, -681225.6, 828570.0, 0.013816654, 10.00733, 9.99689 
2.1454497e+3, 1.5594065e+2, -707675.6, -1419972.8, 18093.455, -0.012638624, 0.47154874, -707216.3, 704611.4, 0.0064261327, 10.006419, 9.996914 
2.1453929e+3, 1.6593766e+2, -680211.0, -1262195.9, 6374.0435, -0.023074193, 0.45350748, -680141.2, 633714.9, 0.0019920715, 10.0055, 9.997768 
2.1453357e+3, 1.7593509e+2, -715005.4, -1227384.1, 3411.3086, -0.035541162, 0.4340149, -714982.7, 500897.75, 0.00027075934, 10.004574, 9.99778 
2.1452786e+3, 1.8593319e+2, -703904.56, -1090199.8, -2140.4058, -0.045440868, 0.44521254, -703892.7, 414006.25, 0.0000017008894, 10.003625, 9.998507 
2.1452214e+3, 1.9593185e+2, -747264.56, -1061977.0, -6213.9, -0.052899513, 0.4765758, -747141.9, 272770.3, 0.0, 10.002661, 9.998492 
2.1451643e+3, 2.059303e+2, -749844.9, -959164.75, -13895.199, -0.057991717, 0.4663101, -748926.5, 173000.44, 0.0, 10.00174, 9.998969 
2.1451072e+3, 2.159287e+2, -783008.3, -926657.5, -12883.106, -0.06162293, 0.42624918, -781862.0, 42079.47, 0.0, 10.000849, 9.998949 
2.1450499e+3, 2.2592765e+2, -790122.25, -833539.8, -15391.866, -0.064506374, 0.4232445, -785219.4, -59267.617, 0.0, 9.999929, 9.999358 
2.1449925e+3, 2.3592709e+2, -827088.06, -797725.8, -14567.081, -0.06666964, 0.4456047, -791725.2, -163767.4, 0.0, 9.998991, 9.999383 
2.1449353e+3, 2.459267e+2, -806795.25, -641238.06, -16002.068, -0.07174754, 0.44152883, -639705.56, -109744.695, 0.0, 9.998044, 10.00024 
2.1448779e+3, 2.5592655e+2, -846158.2, -607308.4, -18123.307, -0.07889179, 0.41872087, -605941.06, -173980.45, 0.0, 9.997092, 10.000259 
2.1448208e+3, 2.659268e+2, -835921.1, -464937.84, -3016.7976, -0.072865285, 0.39513272, -464913.3, -130956.49, 0.0, 9.996118, 10.001033 
2.1447642e+3, 2.7592742e+2, -880325.25, -432804.9, 1918.6346, -0.057682607, 0.36865765, -432796.66, -196847.13, 0.0, 9.995129, 10.001058 
2.1447073e+3, 2.85929e+2, -864779.56, -279005.53, 1233.7549, -0.05918586, 0.39166313, -279002.94, -141069.58, 0.0, 9.994153, 10.00191 
2.1446502e+3, 2.9593137e+2, -910488.2, -254341.23, -2119.877, -0.07192739, 0.45432895, -254334.39, -214425.31, 0.0, 9.993185, 10.001873 
2.1445934e+3, 3.0593148e+2, -954007.4, -164863.05, 1996.9131, -0.061477102, 0.260301, -164857.98, -164857.98, 0.0, 9.992186, 10.002632 
2.1445367e+3, 3.1593508e+2, -1007153.94, -37805.348, 27940.732, -0.08381008, 0.36579654, -37000.65, -37000.65, 0.0, 9.991165, 10.003997 
2.1556297e+3, 1.2600955e+2, -700096.5, -1676503.8, 2650.219, 0.04058307, 0.49947882, -700089.3, 1005065.1, 0.032345258, 10.009211, 9.995834 
2.1555716e+3, 1.360049e+2, -728613.75, -1647236.9, -10918.04, 0.006804482, 0.47126853, -728484.0, 878715.75, 0.023255058, 10.008263, 9.995813 
2.1555136e+3, 1.460011e+2, -685436.56, -1467440.5, -11943.388, -0.014159882, 0.4750617, -685254.2, 823982.2, 0.014019921, 10.007335, 9.996826 
2.1554561e+3, 1.5599771e+2, -711424.6, -1429398.3, -15150.812, -0.010912315, 0.46905681, -711105.06, 700163.5, 0.0065233074, 10.006422, 9.99685 
2.1553981e+3, 1.6599469e+2, -684359.25, -1272263.6, -27288.701, -0.016662784, 0.45437735, -683095.3, 630202.06, 0.002023481, 10.005502, 9.997701 
2.15534e+3, 1.7599204e+2, -719348.44, -1237797.3, -30352.244, -0.030182963, 0.4350238, -717577.56, 497744.78, 0.00027511254, 10.004575, 9.99771 
2.155282e+3, 1.8599e+2, -708853.94, -1102244.1, -37337.633, -0.043032493, 0.44239601, -705341.5, 412000.9, 0.0000016599006, 10.003629, 9.998425 
2.155224e+3, 1.9598854e+2, -750995.25, -1072073.3, -41381.54, -0.054718394, 0.4670291, -745747.6, 273610.25, 0.0, 10.002666, 9.998423 
2.155166e+3, 2.0598714e+2, -745381.1, -952146.94, -46612.91, -0.059888106, 0.47244006, -735358.56, 186012.7, 0.0, 10.001745, 9.999017 
2.1551079e+3, 2.1598591e+2, -779029.3, -920291.56, -45924.766, -0.060756296, 0.4638357, -765411.8, 57970.316, 0.0, 10.000853, 9.998993 
2.1550496e+3, 2.2598484e+2, -786685.56, -828281.25, -50117.813, -0.06566972, 0.45647684, -753221.6, -27829.44, 0.0, 9.999933, 9.999394 
2.1549912e+3, 2.3598403e+2, -824280.8, -793924.5, -49439.547, -0.0731038, 0.44948193, -757385.7, -129985.27, 0.0, 9.998995, 9.99941 
2.154933e+3, 2.4598359e+2, -811210.56, -652486.6, -51425.137, -0.07317578, 0.44263262, -637281.9, -107877.79, 0.0, 9.998049, 10.000164 
2.154875e+3, 2.5598353e+2, -848969.2, -615270.7, -53778.63, -0.068379745, 0.43547758, -603489.1, -172085.83, 0.0, 9.997097, 10.000205 
2.1548168e+3, 2.6598376e+2, -823447.2, -441092.2, -40049.043, -0.065690555, 0.40495673, -436942.38, -103543.086, 0.0, 9.996121, 10.001197 
2.154759e+3, 2.7598435e+2, -869827.94, -412724.13, -34754.89, -0.064316764, 0.35623518, -410096.72, -174704.72, 0.0, 9.9951315, 10.001196 
2.1547012e+3, 2.8598598e+2, -870536.06, -292510.1, -34770.43, -0.0644337, 0.38674122, -290426.03, -153050.84, 0.0, 9.994155, 10.001819 
2.1546432e+3, 2.9598856e+2, -915512.75, -266344.6, -38497.68, -0.06539902, 0.47700062, -264069.56, -224719.63, 0.0, 9.993187, 10.001792 
2.1545857e+3, 3.0598864e+2, -951645.75, -161332.38, -36367.215, -0.046909083, 0.2842828, -159662.42, -159662.42, 0.0, 9.992187, 10.002658 
2.1545279e+3, 3.1599215e+2, -989040.4, -968.5576, -7711.1997, -0.07585361, 0.37746996, -908.3808, -908.3808, 0.0, 9.991163, 10.004253 
2.1656384e+3, 1.2606773e+2, -673169.6, -1659741.8, 27911.34, 0.028257161, 0.5139405, -672380.6, 1032204.9, 0.032766774, 10.009394, 9.995862 
2.1655796e+3, 1.3606308e+2, -706708.0, -1632764.3, 15984.194, 0.004692773, 0.48479742, -706432.1, 900198.1, 0.02355879, 10.008409, 9.99584 
2.1655208e+3, 1.4605923e+2, -670674.9, -1459954.9, 18530.33, -0.012912858, 0.48458403, -670240.06, 838427.06, 0.014203767, 10.007442, 9.996823 
2.1654624e+3, 1.5605582e+2, -702262.56, -1424357.9, 18835.506, -0.011071362, 0.47513252, -701771.6, 708928.25, 0.006609181, 10.006488, 9.99685 
2.1654035e+3, 1.6605277e+2, -678645.06, -1266020.9, 11384.73, -0.015794476, 0.4599788, -678424.5, 634304.06, 0.0020501155, 10.00553, 9.997727 
2.1653445e+3, 1.7605016e+2, -719535.2, -1236329.1, 14227.831, -0.02684167, 0.44206583, -719143.75, 495609.28, 0.00027839764, 10.004572, 9.997719 
2.1652856e+3, 1.8604806e+2, -712333.9, -1116684.5, 8640.953, -0.04160607, 0.4493806, -712149.25, 404624.8, 0.00000157751, 10.003664, 9.998305 
2.1652265e+3, 1.9604643e+2, -740674.5, -1078116.9, 1264.5997, -0.058042284, 0.47253972, -740669.75, 278121.75, 0.0, 10.0027895, 9.998319 
2.1651675e+3, 2.0604502e+2, -728280.0, -938374.9, -6762.0923, -0.06389756, 0.4794711, -728062.56, 192742.63, 0.0, 10.001843, 9.999062 
2.1651085e+3, 2.1604387e+2, -777197.94, -914527.8, -6928.9653, -0.06281256, 0.47519082, -776849.25, 45965.723, 0.0, 10.000849, 9.999032 
2.1650493e+3, 2.2604282e+2, -793008.06, -829164.7, -12720.127, -0.06535011, 0.46666884, -788981.44, -64156.586, 0.0, 9.999886, 9.99941 
2.1649903e+3, 2.3604193e+2, -831071.25, -794797.9, -14285.845, -0.07020432, 0.4540724, -789847.25, -163013.72, 0.0, 9.998943, 9.999427 
2.1649309e+3, 2.4604148e+2, -815007.56, -649469.9, -12475.711, -0.07034281, 0.4438259, -648534.94, -119697.68, 0.0, 9.998007, 10.000202 
2.1648718e+3, 2.5604144e+2, -850051.44, -611150.06, -6968.046, -0.06719778, 0.43543646, -610947.0, -180110.8, 0.0, 9.997074, 10.000241 
2.164813e+3, 2.6604173e+2, -823306.2, -438195.66, 1461.6636, -0.063752145, 0.40882096, -438190.1, -105358.39, 0.0, 9.996116, 10.001218 
2.1647541e+3, 2.7604237e+2, -867998.0, -409199.84, -4708.3965, -0.060377397, 0.36683995, -409151.53, -174327.72, 0.0, 9.995137, 10.001215 
2.1646953e+3, 2.8604397e+2, -866511.1, -290446.88, -4556.4536, -0.062380735, 0.3955089, -290410.84, -153603.53, 0.0, 9.994186, 10.001815 
2.1646364e+3, 2.9604647e+2, -906528.3, -262522.22, -2517.2693, -0.06740241, 0.4788203, -262512.4, -223729.44, 0.0, 9.993256, 10.001782 
2.1645778e+3, 3.060466e+2, -946971.9, -165434.17, -5584.132, -0.04083838, 0.29254562, -165394.27, -165394.27, 0.0, 9.99225, 10.002597 
2.1645188e+3, 3.1605008e+2, -972296.1, 28294.824, 17672.908, -0.06819112, 0.38895676, 28606.875, 28606.875, 0.0, 9.991192, 10.004437 
2.1756475e+3, 1.2612675e+2, -670433.9, -1656341.9, -7254.9854, 0.0022620843, 0.5308855, -670380.5, 1033628.44, 0.033150468, 10.009402, 9.995885 
2.1755879e+3, 1.3612226e+2, -704628.0, -1629248.5, -18670.764, 0.0104985405, 0.51444817, -704251.1, 901800.7, 0.023833664, 10.00841, 9.995866 
2.1755283e+3, 1.461184e+2, -668317.6, -1455889.0, -15494.404, -0.0019209672, 0.510228, -668012.94, 840075.6, 0.0143678775, 10.007442, 9.996854 
2.1754685e+3, 1.5611488e+2, -698992.25, -1419054.9, -15705.563, -0.012972695, 0.48827618, -698649.9, 711472.25, 0.006683703, 10.006491, 9.996888 
2.1754089e+3, 1.6611187e+2, -671563.06, -1253261.3, -23758.93, -0.019597974, 0.46971983, -670594.25, 641556.0, 0.002071985, 10.005534, 9.997815 
2.1753488e+3, 1.7610937e+2, -714321.0, -1227717.4, -21008.23, -0.025258357, 0.45443168, -713462.8, 500710.44, 0.00028065947, 10.004577, 9.997779 
2.1752891e+3, 1.8610723e+2, -723429.1, -1141656.6, -23637.129, -0.04111169, 0.46522436, -722097.5, 394097.22, 0.0000014623151, 10.003668, 9.998135 
2.175229e+3, 1.9610548e+2, -750639.0, -1100266.3, -31326.139, -0.06276468, 0.49185032, -747854.4, 270359.44, 0.0, 10.002791, 9.998168 
2.1751691e+3, 2.0610389e+2, -726004.25, -935269.1, -43363.625, -0.069907926, 0.48690578, -717374.4, 202854.69, 0.0, 10.001846, 9.999084 
2.1751091e+3, 2.1610256e+2, -775173.6, -912388.8, -43557.47, -0.06768929, 0.46112776, -762514.6, 59725.81, 0.0, 10.000854, 9.999047 
2.175049e+3, 2.261015e+2, -793835.56, -832989.25, -47597.254, -0.06346257, 0.45475706, -761946.4, -37696.27, 0.0, 9.99989, 9.999383 
2.174989e+3, 2.3610078e+2, -830747.25, -796146.4, -49282.168, -0.057881165, 0.45974374, -761216.2, -134958.8, 0.0, 9.998947, 9.999417 
2.174929e+3, 2.4610034e+2, -804412.75, -629504.75, -47093.016, -0.06340231, 0.44481143, -617631.2, -89370.67, 0.0, 9.998011, 10.0003395 
2.1748686e+3, 2.5610024e+2, -841527.75, -595506.8, -41644.258, -0.07601753, 0.4174918, -588648.8, -158389.33, 0.0, 9.997079, 10.000349 
2.1748088e+3, 2.6610067e+2, -833026.25, -460456.53, -34975.824, -0.06717037, 0.40680265, -457201.53, -124947.31, 0.0, 9.9961195, 10.001065 
2.1747492e+3, 2.7610153e+2, -876071.2, -428138.47, -41208.777, -0.044640377, 0.40321076, -424378.9, -190133.86, 0.0, 9.995142, 10.001085 
2.1746895e+3, 2.86103e+2, -859935.5, -279297.38, -39481.85, -0.052463733, 0.41899824, -276625.03, -140395.11, 0.0, 9.994192, 10.001891 
2.1746294e+3, 2.9610512e+2, -901640.25, -255217.6, -37618.45, -0.07947285, 0.4559965, -253035.75, -214827.17, 0.0, 9.993263, 10.001832 
2.1745698e+3, 3.061053e+2, -958453.06, -192154.7, -45305.69, -0.04463668, 0.28273875, -189485.4, -189485.4, 0.0, 9.992258, 10.002412 
2.17451e+3, 3.1610888e+2, -965968.7, 38767.957, -20313.01, -0.060154554, 0.40876114, 39178.465, 39178.465, 0.0, 9.991199, 10.004509 
2.1856567e+3, 1.2618677e+2, -643201.1, -1640026.1, 27500.418, -0.001237725, 0.53925705, -642443.06, 1060978.8, 0.033496734, 10.00959, 9.995908 
2.1855962e+3, 1.3618231e+2, -694528.3, -1620802.5, 17219.563, 0.005552599, 0.52533823, -694208.3, 911255.8, 0.024079092, 10.008473, 9.995892 
2.1855354e+3, 1.4617845e+2, -662977.75, -1450038.5, 23984.623, -0.004521397, 0.51821136, -662247.56, 845253.3, 0.01451172, 10.007471, 9.996879 
2.1854748e+3, 1.561749e+2, -690222.1, -1412088.5, 22878.46, -0.011793225, 0.49191076, -689497.75, 720037.0, 0.0067468416, 10.006545, 9.996907 
2.1854143e+3, 1.6617195e+2, -663193.9, -1251763.9, 9279.311, -0.018196184, 0.4815187, -663047.56, 648514.9, 0.002089186, 10.005608, 9.997787 
2.1853535e+3, 1.7616957e+2, -703763.5, -1224888.3, 3826.9724, -0.025651278, 0.48203635, -703735.4, 509849.34, 0.00028196865, 10.004664, 9.997753 
2.1852925e+3, 1.8616734e+2, -718502.75, -1137797.0, 5652.7026, -0.04006438, 0.48561198, -718426.56, 397180.3, 0.0000013352605, 10.0037, 9.998143 
2.1852317e+3, 1.9616537e+2, -760287.44, -1103637.6, 9672.878, -0.058309462, 0.49050146, -760015.1, 257612.42, 0.0, 10.002725, 9.998175 
2.1851707e+3, 2.0616378e+2, -733365.4, -939049.25, 366.9738, -0.06624131, 0.48689443, -733364.75, 186278.08, 0.0, 10.0018015, 9.999078 
2.1851099e+3, 2.1616258e+2, -767219.06, -908323.2, -2627.6091, -0.067511536, 0.47682905, -767170.1, 54483.11, 0.0, 10.000912, 9.999044 
2.1850488e+3, 2.2616151e+2, -780828.8, -820997.94, -5820.2783, -0.06320386, 0.4680107, -780002.44, -56339.57, 0.0, 9.99996, 9.99943 
2.1849878e+3, 2.361607e+2, -825147.9, -788132.3, -2511.0444, -0.055193692, 0.45956713, -787962.75, -162292.14, 0.0, 9.998967, 9.99946 
2.1849267e+3, 2.4616025e+2, -799089.2, -625411.7, -2790.9739, -0.06014986, 0.4434073, -625366.9, -97693.19, 0.0, 9.998046, 10.000348 
2.1848658e+3, 2.5616023e+2, -828776.4, -588567.44, -8036.299, -0.073581144, 0.42227867, -588298.9, -158626.69, 0.0, 9.997168, 10.000352 
2.1848047e+3, 2.6616064e+2, -822493.4, -460838.6, -4074.4607, -0.066074625, 0.41567278, -460792.7, -129125.625, 0.0, 9.996221, 10.001012 
2.1847442e+3, 2.7616146e+2, -866652.44, -427988.97, -3340.8997, -0.045036774, 0.41526887, -427963.53, -194305.06, 0.0, 9.995231, 10.001041 
2.1846834e+3, 2.8616288e+2, -846459.5, -267257.38, 537.3775, -0.05375093, 0.42387334, -267256.88, -131612.9, 0.0, 9.9942665, 10.001936 
2.1846223e+3, 2.9616487e+2, -892792.4, -248156.19, -1106.145, -0.0814182, 0.44666976, -248154.28, -210530.95, 0.0, 9.993317, 10.001852 
2.184562e+3, 3.0616513e+2, -956237.56, -209413.61, -12433.844, -0.04167593, 0.2931493, -209206.66, -209206.66, 0.0, 9.992357, 10.002243 
2.184501e+3, 3.1616855e+2, -933212.5, 64068.914, 14407.921, -0.067103654, 0.41845348, 64277.023, 64277.023, 0.0, 9.991386, 10.004589 
2.1956663e+3, 1.2624772e+2, -644742.8, -1640668.0, -12124.569, 0.0118791275, 0.54016465, -644595.2, 1058229.8, 0.033805665, 10.009577, 9.995912 
2.1956043e+3, 1.3624321e+2, -693011.5, -1619796.8, -21444.371, -0.0082453, 0.52128565, -692515.6, 912352.2, 0.024295144, 10.008479, 9.995897 
2.1955428e+3, 1.4623934e+2, -661330.75, -1449562.1, -8948.43, -0.017870208, 0.5120202, -661229.2, 845675.5, 0.014635848, 10.00748, 9.996881 
2.1954815e+3, 1.562358e+2, -690632.56, -1414525.3, -10539.982, -0.007942865, 0.48773387, -690479.2, 718459.06, 0.0067994767, 10.006547, 9.996892 
2.1954197e+3, 1.6623294e+2, -672870.44, -1273051.8, -24817.775, -0.012556199, 0.49529558, -671846.0, 639119.75, 0.0021023399, 10.005609, 9.997643 
2.195358e+3, 1.762307e+2, -711094.44, -1241467.6, -30406.598, -0.027883733, 0.5230914, -709356.94, 503631.0, 0.0002825718, 10.004665, 9.997642 
2.1952961e+3, 1.8622833e+2, -707255.2, -1116120.1, -29801.68, -0.038423877, 0.5096501, -705094.4, 409916.53, 0.0000012259642, 10.003703, 9.998293 
2.1952344e+3, 1.9622606e+2, -750373.3, -1085151.6, -25769.162, -0.045405507, 0.47006747, -748401.4, 268631.66, 0.0, 10.002728, 9.998302 
2.1951726e+3, 2.0622464e+2, -736019.06, -946720.5, -32366.725, -0.053643137, 0.48066837, -731159.2, 187887.6, 0.0, 10.001806, 9.999025 
2.1951106e+3, 2.162239e+2, -768947.5, -913904.6, -35960.17, -0.06262015, 0.52152646, -760517.0, 60536.87, 0.0, 10.000916, 9.999006 
2.1950486e+3, 2.262228e+2, -772991.4, -806768.3, -42684.383, -0.06471788, 0.50536054, -743975.8, -20912.254, 0.0, 9.999964, 9.999528 
2.1949866e+3, 2.3622164e+2, -819247.44, -777963.3, -38838.02, -0.062319327, 0.45311633, -754622.56, -129549.01, 0.0, 9.998972, 9.999531 
2.1949245e+3, 2.4622117e+2, -808097.44, -646413.4, -35394.83, -0.060442235, 0.4400666, -639004.5, -111927.72, 0.0, 9.998051, 10.000204 
2.1948628e+3, 2.5622132e+2, -836261.9, -606599.6, -41281.816, -0.059131924, 0.45139775, -599404.6, -170330.38, 0.0, 9.997173, 10.000227 
2.1948008e+3, 2.662216e+2, -819070.5, -456330.97, -41159.84, -0.060571484, 0.43560922, -451719.22, -120648.81, 0.0, 9.996227, 10.001042 
2.194739e+3, 2.762221e+2, -863426.9, -423951.5, -40030.535, -0.06355296, 0.39984205, -420335.0, -187270.52, 0.0, 9.995237, 10.001068 
2.1946773e+3, 2.862235e+2, -845972.25, -268991.25, -34864.73, -0.067254834, 0.40831757, -266892.13, -131842.4, 0.0, 9.994273, 10.001924 
2.1946158e+3, 2.962257e+2, -893685.25, -252831.25, -36649.37, -0.07141578, 0.45360124, -250742.14, -213715.05, 0.0, 9.993323, 10.001819 
2.1945545e+3, 3.0622616e+2, -966464.94, -234147.33, -48435.098, -0.031293888, 0.32708186, -230957.75, -230957.75, 0.0, 9.992368, 10.002071 
2.1944919e+3, 3.1622916e+2, -926326.4, 73783.38, -20399.514, -0.091832615, 0.424949, 74199.305, 74199.305, 0.0, 9.991402, 10.004651 
2.2056758e+3, 1.2630972e+2, -664032.75, -1652389.9, 29457.146, 0.01515985, 0.53384477, -663155.56, 1039061.9, 0.034076035, 10.009458, 9.995884 
2.2056128e+3, 1.3630529e+2, -673602.2, -1611731.9, 18526.578, -0.008199505, 0.5263911, -673236.5, 931023.5, 0.024482157, 10.00863, 9.995878 
2.2055501e+3, 1.463014e+2, -635188.06, -1434128.3, 29376.053, -0.01893712, 0.5185143, -634109.4, 872187.5, 0.014741482, 10.007656, 9.996901 
2.2054878e+3, 1.5629785e+2, -683776.0, -1409479.6, 28939.992, -0.008999328, 0.49171132, -682623.75, 725706.7, 0.00684287, 10.006592, 9.996902 
2.205425e+3, 1.6629496e+2, -678899.8, -1281426.1, 20217.848, -0.012024494, 0.49909562, -678222.1, 632136.4, 0.0021122622, 10.005595, 9.997589 
2.2053623e+3, 1.7629264e+2, -717557.6, -1248238.6, 20135.941, -0.025047611, 0.52790654, -716794.7, 495587.1, 0.00028279767, 10.004642, 9.997603 
2.2052996e+3, 1.8629031e+2, -701819.9, -1103936.3, 19728.387, -0.034846336, 0.51479435, -700854.3, 413550.13, 0.0000011589824, 10.003704, 9.998374 
2.205237e+3, 1.962881e+2, -739529.7, -1072603.1, 18474.504, -0.041777536, 0.4748906, -738508.06, 277917.22, 0.0, 10.002777, 9.998363 
2.2051741e+3, 2.0628667e+2, -737030.1, -955687.2, 9275.479, -0.049252894, 0.4868055, -736637.3, 181802.03, 0.0, 10.001841, 9.998944 
2.2051114e+3, 2.1628585e+2, -776152.94, -923915.4, 2860.415, -0.057313066, 0.5304429, -776097.56, 44350.168, 0.0, 10.000899, 9.998942 
2.2050484e+3, 2.2628476e+2, -760994.2, -792909.2, -6655.802, -0.062226508, 0.51522565, -759661.75, -37204.42, 0.0, 10.000016, 9.999595 
2.2049853e+3, 2.3628365e+2, -787205.8, -755871.2, -6057.1514, -0.064896636, 0.46226928, -754741.06, -130274.71, 0.0, 9.999168, 9.999585 
2.2049226e+3, 2.4628316e+2, -789605.9, -640070.56, -226.44736, -0.061326865, 0.4465103, -640070.2, -113600.48, 0.0, 9.998194, 10.000176 
2.2048599e+3, 2.5628322e+2, -842494.4, -611981.44, 2103.5313, -0.05411942, 0.45463803, -611962.25, -183494.27, 0.0, 9.997147, 10.000201 
2.2047968e+3, 2.6628348e+2, -817895.3, -455818.22, 4803.794, -0.057050854, 0.43813238, -455754.5, -125290.05, 0.0, 9.996241, 10.001037 
2.2047341e+3, 2.7628398e+2, -838165.56, -411960.97, 1870.1116, -0.06627074, 0.4023021, -411952.75, -179494.13, 0.0, 9.995417, 10.001061 
2.2046714e+3, 2.862853e+2, -821134.3, -258232.61, 1888.2545, -0.07218246, 0.40727264, -258226.28, -123781.85, 0.0, 9.994454, 10.001907 
2.2046089e+3, 2.9628745e+2, -883833.7, -251206.98, -574.7195, -0.07569811, 0.44806978, -251206.45, -214783.95, 0.0, 9.99341, 10.001785 
2.2045466e+3, 3.0628806e+2, -965413.0, -249359.61, -10390.209, -0.029804552, 0.3497537, -249208.89, -249208.89, 0.0, 9.992448, 10.001925 
2.2044832e+3, 3.1629062e+2, -905505.44, 90458.43, 19110.055, -0.103653856, 0.41901177, 90824.97, 90824.97, 0.0, 9.991521, 10.004705 
2.2156848e+3, 1.263727e+2, -668139.5, -1662596.4, 114.135826, 0.010967905, 0.522058, -668139.5, 1033460.5, 0.034305356, 10.009462, 9.995811 
2.215621e+3, 1.3636842e+2, -679077.25, -1621258.4, -11507.823, 0.0029034293, 0.53885627, -678936.75, 924705.0, 0.024639409, 10.008616, 9.995822 
2.2155575e+3, 1.4636458e+2, -635221.94, -1432671.0, -8581.442, -0.010458985, 0.53512377, -635129.6, 870548.8, 0.014828863, 10.007645, 9.996919 
2.215494e+3, 1.5636098e+2, -682229.06, -1407658.0, -9006.301, -0.0143032, 0.50243866, -682117.25, 725594.8, 0.006877551, 10.006594, 9.996917 
2.2154304e+3, 1.6635795e+2, -677334.06, -1280681.1, -14379.1455, -0.015645118, 0.49411136, -676991.56, 632750.0, 0.0021194753, 10.005602, 9.997594 
2.215367e+3, 1.7635542e+2, -715973.25, -1247479.9, -14577.135, -0.017721491, 0.50101537, -715573.75, 496193.03, 0.00028290256, 10.004647, 9.997609 
2.2153032e+3, 1.8635324e+2, -700469.7, -1103688.9, -14302.479, -0.029753456, 0.5039328, -699963.0, 413824.84, 0.0000011452751, 10.00371, 9.998375 
2.2152396e+3, 1.9635142e+2, -739563.8, -1075223.4, -15761.756, -0.046750724, 0.5032467, -738825.3, 276979.66, 0.0, 10.002783, 9.998344 
2.2151758e+3, 2.0634979e+2, -744706.44, -974169.25, -25536.988, -0.052391198, 0.50359964, -741898.75, 175922.39, 0.0, 10.001846, 9.9988165 
2.215112e+3, 2.1634842e+2, -782477.44, -939565.4, -31502.383, -0.051528107, 0.5045799, -776395.44, 43439.72, 0.0, 10.000905, 9.998835 
2.2150484e+3, 2.263474e+2, -758742.56, -790616.5, -37982.133, -0.055825315, 0.4990604, -733489.4, -11645.012, 0.0, 10.000022, 9.999611 
2.2149844e+3, 2.363467e+2, -784599.6, -752788.9, -38455.164, -0.062919505, 0.4877449, -727079.56, -103230.31, 0.0, 9.999173, 9.999606 
2.2149204e+3, 2.4634618e+2, -783633.06, -629947.9, -39499.363, -0.06300576, 0.46233672, -620390.3, -94537.61, 0.0, 9.998199, 10.000246 
2.2148567e+3, 2.5634593e+2, -837876.3, -604389.5, -35813.066, -0.05917958, 0.43003425, -599019.8, -171166.22, 0.0, 9.99715, 10.000254 
2.214793e+3, 2.6634625e+2, -821446.1, -465656.44, -25552.502, -0.055301145, 0.4225243, -463830.66, -133981.31, 0.0, 9.996246, 10.000969 
2.2147295e+3, 2.7634704e+2, -840862.0, -421095.56, -29706.422, -0.051333383, 0.42512637, -419003.7, -187162.88, 0.0, 9.995427, 10.000997 
2.2146657e+3, 2.8634825e+2, -822282.3, -264162.78, -37305.37, -0.06799652, 0.4221389, -261680.27, -127852.26, 0.0, 9.994464, 10.001864 
2.2146018e+3, 2.9634997e+2, -886213.25, -259082.78, -38959.145, -0.09688055, 0.42758396, -256671.8, -220861.88, 0.0, 9.993418, 10.00173 
2.2145388e+3, 3.063508e+2, -973265.94, -268978.2, -44532.58, -0.03837824, 0.35908118, -266173.53, -266173.53, 0.0, 9.992456, 10.001789 
2.2144747e+3, 3.1635305e+2, -902215.1, 93287.66, -15163.321, -0.09838401, 0.41030207, 93518.56, 93518.56, 0.0, 9.991533, 10.004723 
2.2256944e+3, 1.2643689e+2, -657428.5, -1660844.5, 35199.535, 0.015466509, 0.52884376, -656195.2, 1044775.7, 0.034490623, 10.009561, 9.995773 
2.2256297e+3, 1.3643251e+2, -705074.3, -1636073.9, 26449.648, 0.0119189, 0.53856593, -704323.5, 898690.6, 0.02476449, 10.008448, 9.995798 
2.2255649e+3, 1.4642866e+2, -655223.75, -1437866.9, 31800.648, -0.0030836745, 0.5359519, -653933.75, 851117.1, 0.0148963835, 10.007491, 9.996954 
2.2255005e+3, 1.5642518e+2, -675886.0, -1400746.3, 32165.242, -0.01288222, 0.51052797, -674461.5, 732622.06, 0.006902787, 10.006626, 9.996946 
2.225436e+3, 1.6642211e+2, -663173.7, -1273633.5, 26590.984, -0.016104437, 0.5013909, -662017.56, 647095.5, 0.0021238981, 10.005703, 9.997591 
2.2253713e+3, 1.7641953e+2, -702227.56, -1240854.0, 25552.637, -0.017385103, 0.5023968, -701018.0, 510121.03, 0.0002829163, 10.004746, 9.997603 
2.225307e+3, 1.8641734e+2, -687323.06, -1099025.3, 25125.38, -0.0285555, 0.5073248, -685795.4, 427364.8, 0.0000011770638, 10.003813, 9.998355 
2.2252423e+3, 1.9641556e+2, -725674.3, -1070501.6, 21527.93, -0.04483169, 0.51391846, -724335.5, 290841.44, 0.0, 10.002892, 9.998322 
2.2251774e+3, 2.0641385e+2, -728030.06, -968492.0, 15128.583, -0.05085468, 0.51123327, -727082.0, 190111.75, 0.0, 10.001977, 9.998791 
2.2251128e+3, 2.1641235e+2, -761121.2, -931128.9, 15708.072, -0.05087297, 0.5022814, -759682.0, 59527.113, 0.0, 10.001065, 9.998814 
2.2250481e+3, 2.2641131e+2, -745912.44, -783179.9, 11226.55, -0.052592475, 0.4985413, -742791.8, -21573.432, 0.0, 10.00011, 9.999617 
2.2249834e+3, 2.3641072e+2, -790827.06, -754297.1, 9200.771, -0.055377647, 0.4968948, -752110.6, -128888.016, 0.0, 9.999129, 9.999614 
2.2249185e+3, 2.4641018e+2, -776162.8, -623552.94, 3845.9265, -0.06008335, 0.47098818, -623456.06, -98230.0, 0.0, 9.998244, 10.000265 
2.2248538e+3, 2.5640985e+2, -799602.8, -583748.2, 2872.3997, -0.06584371, 0.43146092, -583710.0, -156482.63, 0.0, 9.997409, 10.000268 
2.2247891e+3, 2.6641014e+2, -802274.5, -458615.44, 12075.515, -0.058865283, 0.42478818, -458191.63, -128968.51, 0.0, 9.996393, 10.000943 
2.2247249e+3, 2.76411e+2, -864879.1, -434789.63, 10685.694, -0.04455335, 0.43349534, -434524.3, -203309.9, 0.0, 9.995277, 10.000972 
2.2246599e+3, 2.8641212e+2, -835280.0, -272573.6, 6241.9897, -0.06684725, 0.42452136, -272504.34, -139301.7, 0.0, 9.99439, 10.00184 
2.224595e+3, 2.9641366e+2, -857554.25, -247257.42, 4491.417, -0.11054699, 0.416983, -247224.36, -212037.98, 0.0, 9.9936285, 10.001707 
2.224531e+3, 3.0641478e+2, -954049.56, -259540.73, 243.80699, -0.04194581, 0.3840931, -259540.64, -259540.64, 0.0, 9.992593, 10.001785 
2.2244658e+3, 3.1641665e+2, -918605.6, 94563.27, 38080.254, -0.100178085, 0.39697835, 95992.516, 95992.516, 0.0, 9.991386, 10.004799 
2.2357036e+3, 1.2650219e+2, -661984.94, -1666701.4, -5112.844, 0.02625727, 0.54902077, -661958.94, 1038372.4, 0.034630667, 10.009541, 9.995745 
2.2356379e+3, 1.3649748e+2, -704956.2, -1638315.8, -12268.395, 0.019230112, 0.5280803, -704794.94, 897582.9, 0.024855806, 10.008454, 9.995783 
2.2355723e+3, 1.4649364e+2, -651479.0, -1433147.9, 602.8859, 0.003524609, 0.5244918, -651478.5, 852936.1, 0.014942572, 10.0075, 9.996985 
2.2355068e+3, 1.5649034e+2, -674082.06, -1397964.0, -95.05464, -0.0059589343, 0.5167071, -674082.06, 732363.4, 0.0069176187, 10.006625, 9.996968 
2.2354414e+3, 1.6648741e+2, -664779.94, -1278019.0, -8741.367, -0.014126018, 0.51933825, -664655.4, 643818.6, 0.0021251221, 10.005702, 9.997564 
2.235376e+3, 1.7648487e+2, -703495.2, -1245636.8, -9587.103, -0.023236698, 0.528407, -703325.75, 507173.75, 0.00028268114, 10.004751, 9.997572 
2.2353104e+3, 1.8648253e+2, -690279.5, -1107584.1, -8808.503, -0.030664718, 0.5228069, -690093.7, 422428.4, 0.0000012338378, 10.003818, 9.998297 
2.2352448e+3, 1.9648047e+2, -727658.7, -1076981.8, -12403.72, -0.036553662, 0.5082156, -727218.8, 287322.63, 0.0, 10.002897, 9.998278 
2.2351794e+3, 2.0647883e+2, -723639.8, -961575.7, -18486.178, -0.045161303, 0.51101863, -722212.1, 194345.34, 0.0, 10.001981, 9.998838 
2.2351138e+3, 2.1647759e+2, -757545.94, -925783.8, -18480.924, -0.055248603, 0.5228754, -755539.75, 63030.246, 0.0, 10.001069, 9.998851 
2.2350481e+3, 2.2647649e+2, -746599.94, -786749.06, -25271.281, -0.052303962, 0.51266456, -734400.25, -13820.375, 0.0, 10.0001135, 9.999593 
2.2349824e+3, 2.3647565e+2, -791812.94, -758511.1, -26541.93, -0.04217203, 0.48918033, -743829.5, -121242.81, 0.0, 9.999134, 9.999586 
2.2349167e+3, 2.4647516e+2, -778737.8, -631378.6, -26951.178, -0.052571006, 0.47294018, -626604.1, -102014.26, 0.0, 9.998249, 10.000212 
2.2348508e+3, 2.5647503e+2, -801317.2, -590523.3, -29591.805, -0.07438204, 0.4609492, -586447.94, -159858.67, 0.0, 9.997417, 10.00022 
2.2347851e+3, 2.664753e+2, -801004.75, -458659.78, -30098.955, -0.068340026, 0.4457671, -456033.63, -127447.73, 0.0, 9.996399, 10.000943 
2.2347197e+3, 2.764758e+2, -864830.8, -435725.03, -29264.473, -0.046813212, 0.4251939, -433738.44, -203158.78, 0.0, 9.995276, 10.000968 
2.234654e+3, 2.8647688e+2, -836325.3, -276684.3, -21427.76, -0.06884816, 0.41316184, -275865.06, -143296.58, 0.0, 9.994393, 10.001813 
2.2345884e+3, 2.964785e+2, -855421.7, -247443.52, -25536.672, -0.115453444, 0.4184774, -246372.8, -211821.16, 0.0, 9.993643, 10.001701 
2.2345234e+3, 3.0648017e+2, -942907.44, -240085.9, -44543.66, -0.040104263, 0.42746332, -237274.05, -237274.05, 0.0, 9.992603, 10.001917 
2.2344568e+3, 3.1648165e+2, -910717.3, 110927.86, -7082.613, -0.109797895, 0.39107567, 110976.95, 110976.95, 0.0, 9.991382, 10.004916 
2.2457129e+3, 1.2656826e+2, -689714.94, -1679338.3, 24814.303, 0.036180828, 0.55640095, -689093.06, 1010591.1, 0.034726594, 10.009346, 9.995746 
2.2456463e+3, 1.3656352e+2, -686828.8, -1628157.5, 19358.64, 0.019534448, 0.5336185, -686430.9, 915300.2, 0.024913823, 10.008582, 9.995788 
2.2455797e+3, 1.465597e+2, -632125.7, -1423125.1, 29674.143, 0.0031986504, 0.5328477, -631014.06, 872753.75, 0.014967292, 10.007637, 9.996986 
2.2455135e+3, 1.5655647e+2, -679221.1, -1399569.4, 26934.719, -0.0023426695, 0.53206533, -678215.44, 727582.9, 0.0069215586, 10.006591, 9.996971 
2.245447e+3, 1.6655353e+2, -670051.1, -1278165.3, 20869.691, -0.010701937, 0.5336164, -669335.75, 638491.2, 0.00212271, 10.005661, 9.997581 
2.2453804e+3, 1.7655092e+2, -696206.0, -1239908.5, 22124.6, -0.022456128, 0.53692156, -695307.2, 514545.56, 0.0002819825, 10.004797, 9.997586 
2.245314e+3, 1.8654858e+2, -679648.94, -1100647.5, 25666.803, -0.029945614, 0.52929354, -678089.9, 433785.56, 0.0000012969729, 10.003888, 9.998307 
2.2452475e+3, 1.9654651e+2, -718873.75, -1071209.6, 26030.912, -0.034203637, 0.51458037, -716960.94, 296933.9, 0.0, 10.002956, 9.998286 
2.2451812e+3, 2.0654485e+2, -720085.6, -958417.5, 18810.203, -0.041206997, 0.51599926, -718610.2, 197300.78, 0.0, 10.002005, 9.998846 
2.2451144e+3, 2.1654359e+2, -761406.56, -926715.0, 15320.873, -0.0500454, 0.52618706, -759998.56, 57924.95, 0.0, 10.001044, 9.998854 
2.2450481e+3, 2.2654249e+2, -745905.5, -788547.0, 6807.341, -0.04959916, 0.5178021, -744845.1, -24911.518, 0.0, 10.0001335, 9.999568 
2.2449814e+3, 2.3654164e+2, -776344.06, -752283.75, 5003.491, -0.043733735, 0.49767148, -751284.75, -129344.0, 0.0, 9.999251, 9.999569 
2.2449148e+3, 2.4654117e+2, -768458.3, -622122.9, 8866.281, -0.054323923, 0.48237327, -621587.6, -97643.72, 0.0, 9.998307, 10.000244 
2.2448479e+3, 2.5654107e+2, -812296.8, -592007.5, 11486.4375, -0.07444492, 0.47065693, -591410.2, -165467.1, 0.0, 9.997332, 10.000248 
2.2447813e+3, 2.665413e+2, -798358.4, -456004.8, 9503.336, -0.07210645, 0.4567566, -455741.22, -127801.7, 0.0, 9.996417, 10.000949 
2.2447148e+3, 2.7654183e+2, -827810.56, -416841.97, 10658.521, -0.05687938, 0.43707186, -416565.72, -186632.63, 0.0, 9.995531, 10.000972 
2.2446482e+3, 2.8654277e+2, -819167.06, -269742.03, 21465.893, -0.076264225, 0.4151496, -268904.66, -136981.5, 0.0, 9.994522, 10.001795 
2.2445817e+3, 2.9654428e+2, -884126.3, -260693.52, 16139.318, -0.115398735, 0.40627465, -260275.98, -226367.83, 0.0, 9.993449, 10.001701 
2.2445159e+3, 3.0654642e+2, -958594.06, -237461.88, -11818.451, -0.03327663, 0.4635459, -237268.23, -237268.23, 0.0, 9.992457, 10.002003 
2.244448e+3, 3.165477e+2, -895805.94, 118720.49, 18548.758, -0.120298944, 0.3999261, 119059.516, 119059.516, 0.0, 9.991487, 10.004916 
2.2557221e+3, 1.266351e+2, -686245.2, -1677814.8, -1665.841, 0.045150723, 0.554126, -686242.4, 1012787.44, 0.034779087, 10.009366, 9.9957485 
2.2556545e+3, 1.3663058e+2, -686632.7, -1628486.0, -8582.961, 0.014110731, 0.55191934, -686554.5, 914520.0, 0.024939084, 10.00858, 9.99579 
2.255587e+3, 1.466268e+2, -635198.25, -1429869.4, -7666.1313, -0.0027094395, 0.55686337, -635124.3, 867986.8, 0.014970712, 10.007633, 9.996943 
2.2555198e+3, 1.566235e+2, -680159.25, -1404006.4, -9783.234, -0.0013617862, 0.55484647, -680027.06, 725115.56, 0.0069144, 10.006597, 9.996941 
2.2554524e+3, 1.6662045e+2, -666473.56, -1273401.3, -10267.247, -0.0059927288, 0.5445889, -666299.94, 640872.25, 0.0021163165, 10.005668, 9.997613 
2.255385e+3, 1.7661771e+2, -692877.3, -1234824.8, -9641.744, -0.015946483, 0.53024817, -692705.8, 516493.1, 0.0002806195, 10.0048, 9.9976225 
2.2553176e+3, 1.8661545e+2, -675364.25, -1093332.9, -8434.931, -0.026890367, 0.5282973, -675194.1, 436026.38, 0.0000013570578, 10.00389, 9.99836 
2.2552502e+3, 1.9661364e+2, -715736.0, -1066433.3, -8558.294, -0.03733033, 0.53209203, -715527.25, 297710.34, 0.0, 10.002958, 9.998321 
2.2551829e+3, 2.0661186e+2, -722802.06, -966015.25, -16706.139, -0.038675196, 0.52529, -721659.9, 193594.81, 0.0, 10.0020075, 9.998795 
2.2551155e+3, 2.1661033e+2, -763877.8, -934020.44, -19868.127, -0.035627965, 0.5127582, -761588.56, 55681.445, 0.0, 10.001048, 9.998804 
2.2550479e+3, 2.2660929e+2, -748172.1, -795558.9, -25829.295, -0.044905458, 0.5147308, -736815.1, -17535.35, 0.0, 10.000138, 9.99952 
2.2549802e+3, 2.3660867e+2, -776968.3, -755952.1, -28348.332, -0.060388584, 0.5228343, -736227.0, -114942.01, 0.0, 9.999256, 9.999544 
2.2549126e+3, 2.4660815e+2, -760316.8, -607540.2, -27650.607, -0.065289505, 0.4989384, -602689.75, -79401.266, 0.0, 9.998312, 10.000345 
2.2548452e+3, 2.566079e+2, -805524.2, -579868.6, -24411.01, -0.06525267, 0.45895696, -577258.1, -151968.94, 0.0, 9.9973345, 10.000333 
2.2547776e+3, 2.6660827e+2, -797739.06, -457185.97, -23139.402, -0.06994621, 0.45751223, -455620.94, -128336.89, 0.0, 9.996423, 10.000941 
2.2547099e+3, 2.7660912e+2, -826512.75, -418188.28, -23126.88, -0.07605973, 0.47192854, -416882.56, -187608.06, 0.0, 9.9955435, 10.000959 
2.2546425e+3, 2.866099e+2, -819650.9, -273864.7, -19172.46, -0.08983333, 0.43185166, -273192.03, -141925.48, 0.0, 9.99453, 10.001765 
2.2545749e+3, 2.9661086e+2, -885979.44, -264675.22, -23489.11, -0.10916291, 0.3776365, -263788.47, -230532.34, 0.0, 9.993444, 10.001678 
2.254508e+3, 3.066136e+2, -957975.5, -236970.88, -47024.816, -0.020475462, 0.49103746, -233916.8, -233916.8, 0.0, 9.9924555, 10.00201 
2.254439e+3, 3.1661505e+2, -906288.5, 93251.77, -20427.57, -0.13153112, 0.44401735, 93669.08, 93669.08, 0.0, 9.991497, 10.004739 
2.2657314e+3, 1.267031e+2, -646036.06, -1655415.0, 38472.293, 0.038041, 0.5567168, -644571.8, 1053792.0, 0.034785118, 10.0096445, 9.995771 
2.2656628e+3, 1.3669845e+2, -688360.6, -1626748.1, 33027.582, 0.011773485, 0.5421312, -687199.6, 913209.5, 0.024929268, 10.008562, 9.995808 
2.2655945e+3, 1.4669468e+2, -643549.1, -1436815.4, 33907.47, -0.0020435688, 0.55021834, -642102.44, 860343.5, 0.014951367, 10.007593, 9.996911 
2.265526e+3, 1.5669145e+2, -669217.8, -1400407.6, 32316.787, 0.00094537437, 0.5599306, -667792.25, 736685.0, 0.0068953577, 10.006685, 9.99692 
2.265458e+3, 1.6668838e+2, -652531.6, -1261123.3, 33956.37, -0.004361943, 0.5479951, -650642.94, 655864.0, 0.0021054654, 10.005745, 9.997657 
2.2653897e+3, 1.7668559e+2, -691967.0, -1229375.3, 34576.313, -0.016075974, 0.52506465, -689751.56, 518782.28, 0.00027836938, 10.00479, 9.997662 
2.2653213e+3, 1.8668339e+2, -681498.5, -1094562.3, 32848.707, -0.024879595, 0.52655125, -678902.56, 431652.5, 0.0000014111391, 10.003846, 9.998369 
2.2652532e+3, 1.9668163e+2, -722704.5, -1068257.9, 29101.338, -0.03138833, 0.54015905, -720270.8, 292300.78, 0.0, 10.00291, 9.998328 
2.2651848e+3, 2.0667988e+2, -726573.75, -966497.1, 21770.238, -0.03421637, 0.534395, -724614.4, 189974.31, 0.0, 10.001982, 9.998801 
2.2651164e+3, 2.1667829e+2, -761706.9, -931089.4, 22224.96, -0.035238955, 0.51785064, -758839.25, 57765.06, 0.0, 10.0010605, 9.998816 
2.2650479e+3, 2.2667722e+2, -745405.5, -789716.9, 22365.625, -0.046806008, 0.5162141, -736079.5, -17465.24, 0.0, 10.000143, 9.999555 
2.2649792e+3, 2.366766e+2, -778967.4, -752528.3, 24860.992, -0.06406575, 0.52171683, -737590.7, -116971.17, 0.0, 9.999229, 9.9995775 
2.2649106e+3, 2.4667615e+2, -756862.44, -601869.56, 22079.55, -0.070711106, 0.50185645, -598785.56, -76162.914, 0.0, 9.998324, 10.000375 
2.2648422e+3, 2.5667596e+2, -791169.3, -569125.94, 19122.06, -0.07179994, 0.46877095, -567491.2, -142868.33, 0.0, 9.997422, 10.000361 
2.2647737e+3, 2.666764e+2, -792618.94, -451577.44, 18977.201, -0.07516829, 0.47047794, -450524.72, -123907.35, 0.0, 9.996449, 10.000964 
2.2647053e+3, 2.7667728e+2, -840714.6, -422440.6, 20145.088, -0.07928756, 0.48646435, -421472.6, -192865.1, 0.0, 9.9954405, 10.0009775 
2.2646368e+3, 2.8667796e+2, -824439.06, -276157.75, 23384.3, -0.09457673, 0.43785608, -275162.2, -144561.8, 0.0, 9.994503, 10.0017605 
2.264568e+3, 2.9667878e+2, -863702.06, -253297.78, 20023.701, -0.11658244, 0.37009358, -252641.63, -220050.14, 0.0, 9.9936, 10.001679 
2.2645006e+3, 3.0668187e+2, -933765.7, -221525.27, -2721.0647, -0.019470844, 0.52213025, -221514.86, -221514.86, 0.0, 9.992611, 10.002038 
2.2644304e+3, 3.166831e+2, -915098.06, 63696.785, 19740.244, -0.1394045, 0.45337114, 64094.742, 64094.742, 0.0, 9.991551, 10.004507 
2.2757407e+3, 1.2677212e+2, -645418.06, -1653700.0, 224.1999, 0.018801762, 0.5621492, -645418.0, 1052269.1, 0.03473877, 10.009637, 9.9957905 
2.2756712e+3, 1.3676712e+2, -685559.3, -1624486.8, -4075.4817, 0.012050615, 0.5103814, -685541.6, 914193.7, 0.024879903, 10.008573, 9.995821 
2.2756018e+3, 1.4676334e+2, -644765.1, -1442989.4, 1653.664, 0.0037106983, 0.5196122, -644761.7, 857010.7, 0.014906521, 10.007604, 9.996866 
2.2755328e+3, 1.567603e+2, -670640.56, -1405257.5, -763.94025, 0.004165158, 0.55083215, -670639.8, 733162.9, 0.006863111, 10.006687, 9.996888 
2.2754633e+3, 1.667573e+2, -649585.44, -1256583.5, -819.229, -0.0054222583, 0.54526687, -649584.4, 656247.3, 0.0020895833, 10.005747, 9.99769 
2.275394e+3, 1.7675452e+2, -689761.0, -1226762.0, -250.0816, -0.021948582, 0.52125233, -689760.9, 518097.25, 0.00027504264, 10.004793, 9.997681 
2.2753249e+3, 1.8675229e+2, -683958.06, -1101733.6, -1575.3308, -0.023636388, 0.5239456, -683952.1, 425927.6, 0.0000014573835, 10.00385, 9.998321 
2.2752559e+3, 1.9675054e+2, -724232.0, -1073541.8, -5394.039, -0.0171856, 0.5396729, -724148.7, 287748.47, 0.0, 10.002913, 9.998293 
2.2751865e+3, 2.0674889e+2, -722871.6, -960960.5, -12300.649, -0.028310562, 0.543763, -722237.8, 191675.44, 0.0, 10.001986, 9.99884 
2.2751169e+3, 2.1674746e+2, -757365.3, -924265.25, -11813.116, -0.048438028, 0.5407864, -756533.3, 59393.67, 0.0, 10.001065, 9.998863 
2.2750476e+3, 2.267463e+2, -737772.9, -776131.4, -11637.375, -0.05479556, 0.521432, -734518.4, -16580.893, 0.0, 10.000148, 9.999649 
2.2749783e+3, 2.3674543e+2, -773122.2, -742699.1, -9001.897, -0.054489236, 0.4936299, -740235.1, -120290.49, 0.0, 9.999233, 9.999646 
2.2749087e+3, 2.4674515e+2, -760393.1, -611574.8, -11400.821, -0.070901975, 0.49139905, -610706.44, -88759.87, 0.0, 9.998329, 10.000309 
2.2748391e+3, 2.5674534e+2, -793483.8, -576558.1, -15056.571, -0.09544387, 0.5020321, -575518.0, -151573.88, 0.0, 9.997428, 10.00031 
2.2747698e+3, 2.6674566e+2, -789381.25, -447151.3, -18917.908, -0.08798546, 0.49605945, -446108.75, -120169.25, 0.0, 9.996454, 10.000995 
2.2747007e+3, 2.7674627e+2, -838259.7, -418811.72, -16851.225, -0.06419768, 0.47768822, -418135.8, -190203.5, 0.0, 9.995441, 10.001004 
2.2746311e+3, 2.8674695e+2, -823642.9, -276629.56, -9774.066, -0.08963114, 0.4323542, -276454.97, -146530.27, 0.0, 9.994507, 10.001758 
2.2745612e+3, 2.9674804e+2, -861414.25, -252487.5, -13934.539, -0.14080223, 0.388055, -252168.8, -220255.16, 0.0, 9.993611, 10.001682 
2.2744927e+3, 3.067513e+2, -929597.9, -217062.78, -41359.516, -0.032750476, 0.5562048, -214670.08, -214670.08, 0.0, 9.992622, 10.002066 
2.2744216e+3, 3.1675202e+2, -936500.44, 16526.598, -24355.746, -0.14127776, 0.4357048, 17148.63, 17148.63, 0.0, 9.991558, 10.004183 
2.28575e+3, 1.2684208e+2, -650885.75, -1651844.6, 39770.496, 0.016907932, 0.552642, -649308.06, 1047693.5, 0.0346341, 10.0095825, 9.995826 
2.2856794e+3, 1.3683724e+2, -662700.2, -1610082.5, 36439.07, 0.005561862, 0.5155042, -661300.7, 937747.2, 0.024786735, 10.008725, 9.995843 
2.2856091e+3, 1.4683345e+2, -629107.56, -1441586.3, 40662.992, -0.00078918855, 0.52671427, -627077.5, 874007.9, 0.0148334745, 10.007745, 9.996805 
2.285539e+3, 1.568303e+2, -671111.2, -1409251.9, 37287.63, 0.0042432854, 0.55434835, -669232.4, 733884.8, 0.006816185, 10.006706, 9.996849 
2.285469e+3, 1.6682729e+2, -648313.06, -1250056.1, 38270.64, -0.004583214, 0.5480228, -645888.8, 659257.4, 0.0020680993, 10.005735, 9.997737 
2.2853987e+3, 1.7682454e+2, -687121.06, -1221923.5, 39040.883, -0.022154924, 0.52505475, -684286.06, 522885.9, 0.00027052817, 10.004802, 9.997706 
2.2853287e+3, 1.8682231e+2, -687477.06, -1110125.6, 36630.29, -0.023700505, 0.5310408, -684325.9, 424868.06, 0.0000014914551, 10.00386, 9.998256 
2.2852585e+3, 1.9682053e+2, -727235.7, -1079265.0, 30899.11, -0.016463555, 0.55066425, -724544.1, 286668.13, 0.0, 10.002917, 9.998249 
2.2851883e+3, 2.0681885e+2, -720655.7, -953398.44, 24042.453, -0.029057646, 0.5519407, -718198.06, 195030.5, 0.0, 10.001979, 9.998892 
2.285118e+3, 2.1681741e+2, -756766.4, -916830.94, 24669.37, -0.051975492, 0.5434211, -753050.56, 62191.563, 0.0, 10.001044, 9.998921 
2.2850476e+3, 2.268163e+2, -740600.06, -768141.75, 23515.979, -0.057861775, 0.52483016, -727119.5, -9867.676, 0.0, 10.000094, 9.999726 
2.2849773e+3, 2.3681554e+2, -783051.4, -739877.6, 24600.916, -0.055168927, 0.5002638, -728735.4, -109477.39, 0.0, 9.999139, 9.999708 
2.2849068e+3, 2.4681526e+2, -773653.75, -618777.3, 25422.809, -0.07382544, 0.49930003, -614710.94, -93450.96, 0.0, 9.998247, 10.000296 
2.2848362e+3, 2.5681543e+2, -799798.4, -578554.8, 24307.105, -0.10322378, 0.5110864, -575915.8, -152657.8, 0.0, 9.997386, 10.000314 
2.2847658e+3, 2.6681584e+2, -782171.9, -434184.28, 20399.842, -0.0936118, 0.5057557, -432992.47, -107739.516, 0.0, 9.996469, 10.001074 
2.2846958e+3, 2.7681646e+2, -823184.7, -404628.0, 25558.494, -0.06378165, 0.48701054, -403073.1, -175828.08, 0.0, 9.995521, 10.0010605 
2.2846252e+3, 2.8681713e+2, -819260.3, -279036.1, 32071.967, -0.090948924, 0.4410109, -277138.72, -147901.02, 0.0, 9.994562, 10.001712 
2.2845547e+3, 2.9681814e+2, -864502.44, -254631.38, 23588.768, -0.14827971, 0.3967599, -253720.36, -222493.08, 0.0, 9.993599, 10.00167 
2.2844851e+3, 3.0682158e+2, -905309.3, -187981.9, -324.90796, -0.035877455, 0.57309, -187981.77, -187981.77, 0.0, 9.992721, 10.002215 
2.2844128e+3, 3.168221e+2, -911987.75, -279.34305, 18197.27, -0.15146932, 0.4243321, 83.72129, 83.72129, 0.0, 9.991855, 10.0039215 
2.2957595e+3, 1.2691294e+2, -646987.06, -1647675.3, 8539.646, 0.027384758, 0.5328606, -646914.2, 1049393.0, 0.034467895, 10.009593, 9.995853 
2.295688e+3, 1.3690868e+2, -662466.94, -1609977.1, 3697.8862, -0.006472975, 0.5497424, -662452.5, 935895.8, 0.024647845, 10.008719, 9.99585 
2.2956167e+3, 1.4690484e+2, -635458.94, -1455418.0, 2240.2444, -0.0132496655, 0.56329054, -635452.8, 864933.56, 0.014730878, 10.007742, 9.996713 
2.2955456e+3, 1.5690137e+2, -674390.0, -1418766.0, -423.92554, 0.0018560549, 0.56784683, -674389.75, 728031.75, 0.006753665, 10.006712, 9.996783 
2.2954744e+3, 1.668983e+2, -644662.3, -1244828.0, 3727.7776, -0.0021394854, 0.5554542, -644639.2, 659811.9, 0.0020406577, 10.00574, 9.997774 
2.2954033e+3, 1.7689563e+2, -686108.0, -1221091.6, 4241.619, -0.017529333, 0.5354842, -686074.4, 520401.63, 0.00026477373, 10.004802, 9.997715 
2.2953323e+3, 1.8689339e+2, -694204.4, -1125352.3, 1706.8453, -0.025160115, 0.54678, -694197.6, 414300.6, 0.0000015066098, 10.00386, 9.998154 
2.2952612e+3, 1.9689156e+2, -731800.75, -1090418.8, -3866.7346, -0.02805265, 0.5719561, -731759.06, 278758.28, 0.0, 10.002919, 9.998174 
2.29519e+3, 2.0688972e+2, -716812.94, -947256.9, -10375.514, -0.035671428, 0.5585471, -716346.7, 196188.25, 0.0, 10.001982, 9.998936 
2.2951187e+3, 2.1688809e+2, -752770.0, -910469.6, -10043.627, -0.046156745, 0.5264939, -752132.9, 62417.055, 0.0, 10.001047, 9.998966 
2.2950473e+3, 2.2688724e+2, -736788.1, -762406.06, -12001.466, -0.056462847, 0.5272606, -732044.2, -15486.682, 0.0, 10.000098, 9.999767 
2.2949761e+3, 2.368869e+2, -779582.56, -734988.0, -10340.875, -0.06636636, 0.54243845, -732706.8, -114147.06, 0.0, 9.999143, 9.9997425 
2.2949047e+3, 2.4688649e+2, -771221.8, -616022.7, -6634.527, -0.07917737, 0.52529246, -615739.56, -95176.56, 0.0, 9.998252, 10.000316 
2.2948335e+3, 2.5688627e+2, -796126.7, -573178.9, -8452.823, -0.09388632, 0.49364063, -572858.9, -150294.11, 0.0, 9.997391, 10.000352 
2.2947621e+3, 2.6688683e+2, -773412.94, -418377.1, -14887.418, -0.091893554, 0.4988181, -417753.9, -93196.06, 0.0, 9.996473, 10.0011835 
2.2946909e+3, 2.7688795e+2, -817352.06, -395340.56, -9655.587, -0.08036678, 0.51724595, -395119.78, -168574.4, 0.0, 9.995527, 10.001124 
2.2946197e+3, 2.8688848e+2, -826533.8, -296831.3, -4072.5945, -0.09907624, 0.46551052, -296800.0, -168260.83, 0.0, 9.994568, 10.00159 
2.2945482e+3, 2.9688913e+2, -866899.06, -261806.25, -11682.672, -0.13535257, 0.39409125, -261580.78, -231048.14, 0.0, 9.993603, 10.001622 
2.2944775e+3, 3.068927e+2, -884326.06, -148333.47, -31015.354, -0.02709758, 0.5690098, -147028.77, -147028.77, 0.0, 9.992731, 10.002486 
2.2944044e+3, 3.168936e+2, -922319.7, -28134.66, -20315.451, -0.17187646, 0.4392003, -27673.342, -27673.342, 0.0, 9.991877, 10.003722 
2.3057687e+3, 1.2698494e+2, -632034.75, -1642532.5, 29956.42, 0.022598037, 0.54723096, -631147.5, 1064454.9, 0.034240585, 10.009712, 9.99583 
2.3056963e+3, 1.3698062e+2, -674890.3, -1617462.4, 22202.674, -0.003974044, 0.5615032, -674367.56, 923276.56, 0.024463532, 10.008642, 9.995832 
2.305624e+3, 1.4697675e+2, -644289.7, -1459678.6, 23424.492, -0.010484353, 0.573036, -643617.3, 856065.3, 0.014598599, 10.007686, 9.996707 
2.305552e+3, 1.5697324e+2, -664445.56, -1413036.9, 25108.504, 0.0014380942, 0.5760546, -663604.4, 738113.8, 0.0066752792, 10.006783, 9.996785 
2.30548e+3, 1.6697022e+2, -637943.2, -1238045.1, 28787.436, -0.0036128259, 0.56878525, -636565.44, 667181.9, 0.0020071014, 10.005777, 9.9978 
2.3054077e+3, 1.7696765e+2, -695822.8, -1222359.4, 28507.309, -0.0189022, 0.5570081, -694283.94, 511487.5, 0.00025771407, 10.004726, 9.99774 
2.3053357e+3, 1.8696538e+2, -707018.75, -1128120.4, 32871.47, -0.025375884, 0.56360763, -704468.25, 403325.66, 0.0000014943977, 10.003764, 9.998178 
2.3052637e+3, 1.9696344e+2, -740699.4, -1090341.1, 34960.113, -0.026966453, 0.5780437, -737238.06, 272575.72, 0.0, 10.002846, 9.998207 
2.3051916e+3, 2.0696165e+2, -723732.25, -941702.06, 31528.727, -0.03540892, 0.5618806, -719263.4, 192567.66, 0.0, 10.001902, 9.999009 
2.3051193e+3, 2.1696007e+2, -763106.4, -907664.94, 33295.344, -0.04725826, 0.53080726, -755806.3, 58038.805, 0.0, 10.000949, 9.999029 
2.305047e+3, 2.2695926e+2, -745600.06, -764026.94, 30572.715, -0.058081266, 0.5349356, -722882.7, -7030.4893, 0.0, 10.000032, 9.999784 
2.3049748e+3, 2.3695898e+2, -779497.3, -731115.06, 30386.766, -0.06848202, 0.5549869, -716465.94, -98611.78, 0.0, 9.999133, 9.999771 
2.3049025e+3, 2.4695854e+2, -768744.56, -605838.0, 37067.645, -0.08141851, 0.5307876, -597800.25, -77942.73, 0.0, 9.998236, 10.00039 
2.3048306e+3, 2.5695822e+2, -799606.75, -567462.7, 38071.16, -0.09560927, 0.48607942, -561378.56, -139519.0, 0.0, 9.99734, 10.000412 
2.3047583e+3, 2.669589e+2, -777237.6, -420090.9, 24886.523, -0.09387817, 0.49813968, -418365.1, -94512.97, 0.0, 9.996452, 10.001179 
2.3046863e+3, 2.7696013e+2, -812813.0, -392618.22, 20589.39, -0.08354265, 0.53329057, -391611.75, -165773.06, 0.0, 9.995562, 10.001123 
2.3046137e+3, 2.869607e+2, -818787.25, -290849.3, 28138.344, -0.10145707, 0.48128027, -289353.8, -161521.33, 0.0, 9.9946165, 10.001604 
2.3045415e+3, 2.9696125e+2, -857064.1, -251353.27, 31404.16, -0.13557479, 0.40076214, -249729.4, -219902.95, 0.0, 9.993651, 10.001668 
2.3044702e+3, 3.0696473e+2, -852673.06, -113326.07, 15264.552, -0.02711443, 0.558391, -113011.055, -113011.055, 0.0, 9.992868, 10.002657 
2.304396e+3, 3.1696594e+2, -902767.94, -47821.05, 8094.633, -0.1808, 0.4439213, -47744.418, -47744.418, 0.0, 9.992142, 10.003456 
2.3157781e+3, 1.2705797e+2, -639257.3, -1655692.8, -8046.5483, 0.0070222127, 0.5858754, -639193.6, 1055694.1, 0.03395567, 10.009695, 9.995747 
2.3157048e+3, 1.3705313e+2, -678534.6, -1625833.9, -14023.141, 0.009884381, 0.55534977, -678327.1, 918607.6, 0.024235293, 10.008637, 9.99578 
2.3156317e+3, 1.470492e+2, -641758.56, -1454787.1, -8067.7305, 0.0038937232, 0.5620108, -641678.5, 857295.1, 0.0144371195, 10.00768, 9.996746 
2.3155586e+3, 1.570459e+2, -663102.3, -1409338.9, -8084.185, 0.0024067631, 0.5803189, -663014.75, 737992.5, 0.006581261, 10.006772, 9.996819 
2.3154853e+3, 1.6704303e+2, -638633.1, -1239548.6, -9398.239, -0.00836723, 0.5871691, -638486.2, 664548.94, 0.001967512, 10.005772, 9.997795 
2.3154122e+3, 1.7704058e+2, -693779.75, -1219985.8, -8981.495, -0.025400192, 0.58801985, -693626.5, 511432.06, 0.00024932745, 10.004729, 9.997758 
2.3153393e+3, 1.8703824e+2, -698342.6, -1111981.5, -729.44745, -0.024306444, 0.58104575, -698341.4, 408739.94, 0.0000014475702, 10.003767, 9.99829 
2.3152666e+3, 1.9703616e+2, -732729.7, -1075133.5, 796.66956, -0.014384487, 0.5702639, -732727.8, 276374.0, 0.0, 10.002846, 9.998314 
2.3151934e+3, 2.0703453e+2, -717593.5, -930742.56, -3763.16, -0.029094553, 0.5627035, -717527.06, 193589.98, 0.0, 10.0019045, 9.999086 
2.3151201e+3, 2.1703328e+2, -758041.2, -899498.9, -1737.4608, -0.055163454, 0.55568326, -758019.9, 55108.13, 0.0, 10.000954, 9.999086 
2.315047e+3, 2.2703235e+2, -746394.4, -768103.56, -2824.1694, -0.06244055, 0.54700696, -746032.94, -30896.682, 0.0, 10.000037, 9.999757 
2.3149739e+3, 2.3703176e+2, -778319.2, -731042.4, -3027.8, -0.061358526, 0.5370854, -730849.3, -113707.79, 0.0, 9.999138, 9.999772 
2.3149006e+3, 2.470314e+2, -760008.56, -590086.75, 3685.9365, -0.080793574, 0.51566654, -590006.8, -70863.25, 0.0, 9.99824, 10.000499 
2.3148274e+3, 2.5703138e+2, -794669.4, -559434.7, 4752.109, -0.10938795, 0.48961362, -559338.75, -138196.42, 0.0, 9.997344, 10.000468 
2.3147544e+3, 2.6703197e+2, -786958.5, -442550.66, -8312.367, -0.099571735, 0.50389963, -442350.16, -119214.305, 0.0, 9.996456, 10.001025 
2.3146817e+3, 2.7703306e+2, -818140.4, -406277.97, -13468.914, -0.07129893, 0.5329837, -405837.97, -180712.52, 0.0, 9.995567, 10.00103 
2.3146081e+3, 2.8703374e+2, -806973.44, -269017.06, -8379.316, -0.097625844, 0.48736006, -268886.56, -141768.75, 0.0, 9.994623, 10.001754 
2.3145346e+3, 2.970345e+2, -846975.94, -233228.81, -2387.4963, -0.1520215, 0.41872534, -233219.52, -204111.23, 0.0, 9.993657, 10.001792 
2.3144627e+3, 3.070377e+2, -848617.3, -109405.836, -10301.645, -0.037684496, 0.5390488, -109262.305, -109262.305, 0.0, 9.992882, 10.002681 
2.314388e+3, 3.1703913e+2, -924420.3, -98987.21, -28633.24, -0.17360416, 0.44789094, -97995.15, -97995.15, 0.0, 9.992163, 10.003098 
2.3257875e+3, 1.2713163e+2, -662521.6, -1658982.4, 26344.887, 0.021752018, 0.58421516, -661825.6, 1032340.9, 0.033617016, 10.009497, 9.995815 
2.3257132e+3, 1.3712694e+2, -685835.44, -1621902.8, 29456.006, 0.013403092, 0.56332916, -684909.44, 911302.6, 0.023964664, 10.008556, 9.995843 
2.325639e+3, 1.47123e+2, -656077.9, -1457816.9, 38691.824, 0.007214965, 0.5662477, -654214.94, 844036.0, 0.014247131, 10.007567, 9.996776 
2.3255649e+3, 1.5711962e+2, -692638.1, -1420900.0, 37647.76, 0.009545493, 0.57601345, -690697.06, 709588.0, 0.006472177, 10.006561, 9.996838 
2.325491e+3, 1.6711679e+2, -662477.25, -1254059.4, 34214.625, -0.0041520745, 0.58975154, -660505.0, 641808.0, 0.0019222556, 10.005627, 9.997761 
2.3254165e+3, 1.7711443e+2, -695514.5, -1221299.4, 31938.482, -0.026747344, 0.60426074, -693581.5, 510754.72, 0.00023974392, 10.004725, 9.997746 
2.3253427e+3, 1.8711212e+2, -697504.3, -1101593.9, 37200.934, -0.02643737, 0.59647906, -694108.06, 412250.56, 0.0000013676975, 10.003736, 9.998373 
2.325269e+3, 1.9711003e+2, -747380.0, -1072604.0, 36454.07, -0.015162706, 0.5778904, -743344.0, 265034.78, 0.0, 10.00271, 9.998393 
2.3251948e+3, 2.0710842e+2, -727947.4, -928735.9, 32008.086, -0.029418653, 0.5682543, -722968.4, 187425.06, 0.0, 10.001809, 9.999143 
2.3251206e+3, 2.1710724e+2, -753778.4, -891906.0, 31589.066, -0.055583622, 0.5625236, -746896.94, 65506.805, 0.0, 10.000965, 9.999129 
2.3250467e+3, 2.2710629e+2, -744353.5, -767182.6, 29686.76, -0.06441431, 0.5533361, -723962.5, -9550.294, 0.0, 10.000057, 9.99975 
2.3249726e+3, 2.3710565e+2, -780243.94, -730074.7, 30375.398, -0.06523301, 0.54127604, -715765.1, -99347.1, 0.0, 9.999123, 9.999783 
2.3248987e+3, 2.4710537e+2, -755943.7, -578982.94, 36076.48, -0.08366423, 0.52217585, -571910.75, -53491.473, 0.0, 9.998235, 10.000575 
2.3248245e+3, 2.5710547e+2, -788683.9, -550904.7, 33928.555, -0.11019832, 0.5009946, -546158.2, -125741.625, 0.0, 9.997367, 10.000512 
2.3247507e+3, 2.6710597e+2, -787276.44, -449861.66, 23715.904, -0.09969585, 0.5101205, -448202.9, -125791.69, 0.0, 9.996491, 10.000956 
2.324677e+3, 2.7710685e+2, -815096.2, -408409.88, 23335.457, -0.07117072, 0.5295235, -407075.28, -182672.28, 0.0, 9.99561, 10.000992 
2.3246026e+3, 2.8710765e+2, -793224.8, -252377.0, 23413.518, -0.09838204, 0.49445182, -251365.31, -124971.375, 0.0, 9.994679, 10.001838 
2.3245281e+3, 2.971087e+2, -831182.94, -215751.6, 25968.416, -0.1546561, 0.44415423, -214657.8, -186276.34, 0.0, 9.99373, 10.001875 
2.3244554e+3, 3.0711147e+2, -825701.2, -88706.31, 27614.053, -0.04071569, 0.51478595, -87673.1, -87673.1, 0.0, 9.993004, 10.002761 
2.3243798e+3, 3.1711316e+2, -911305.4, -115335.39, 2773.126, -0.16902956, 0.44806182, -115325.73, -115325.73, 0.0, 9.992356, 10.002889 
2.3357971e+3, 1.2720594e+2, -653960.56, -1638479.0, -5996.824, 0.057672776, 0.55335075, -653924.06, 1039514.1, 0.033226598, 10.009475, 9.995975 
2.3357214e+3, 1.372019e+2, -678792.4, -1605020.0, -4561.7183, 0.008591048, 0.5828303, -678769.9, 916707.56, 0.023653546, 10.00854, 9.99597 
2.3356463e+3, 1.4719799e+2, -656764.3, -1458839.9, 2162.6729, 0.0022564896, 0.5821122, -656758.5, 840757.6, 0.014030508, 10.007559, 9.996776 
2.3355715e+3, 1.5719432e+2, -693233.8, -1423441.5, 1791.7592, 0.021777494, 0.564472, -693229.44, 706323.2, 0.006349524, 10.00656, 9.996823 
2.3354964e+3, 1.6719146e+2, -667704.06, -1266266.8, 1481.4495, 0.007322138, 0.57931393, -667700.44, 633881.0, 0.0018722179, 10.005627, 9.99768 
2.3354211e+3, 1.7718916e+2, -699403.1, -1230209.9, -2031.1406, -0.023838868, 0.6080425, -699395.4, 504209.5, 0.00022929975, 10.004724, 9.99769 
2.3353462e+3, 1.8718696e+2, -694493.75, -1096982.4, -765.0759, -0.03158351, 0.6104928, -694492.3, 411134.06, 0.0000012681337, 10.003737, 9.998407 
2.3352712e+3, 1.9718498e+2, -743816.5, -1068052.4, -71.9439, -0.028073892, 0.5996159, -743816.5, 263828.72, 0.0, 10.002717, 9.998425 
2.3351963e+3, 2.0718327e+2, -725633.5, -926595.2, 936.19244, -0.035603043, 0.5777575, -725629.1, 184031.47, 0.0, 10.001815, 9.999158 
2.3351216e+3, 2.171819e+2, -752144.9, -890629.25, -264.8573, -0.048747126, 0.5518888, -752144.4, 59528.195, 0.0, 10.000968, 9.99914 
2.3350464e+3, 2.2718108e+2, -744046.4, -768876.8, -5175.4116, -0.06438452, 0.55464953, -743010.8, -29330.748, 0.0, 10.000062, 9.99974 
2.3349714e+3, 2.3718068e+2, -779330.25, -730650.5, -3842.5208, -0.080417834, 0.568324, -730349.06, -114665.19, 0.0, 9.999127, 9.99978 
2.3348965e+3, 2.4718042e+2, -753588.6, -576595.2, 3599.1829, -0.08982754, 0.5509403, -576522.06, -58837.242, 0.0, 9.9982395, 10.000591 
2.3348218e+3, 2.5718042e+2, -786715.1, -549325.5, 1139.9852, -0.09694767, 0.52048343, -549320.06, -129637.41, 0.0, 9.997373, 10.000524 
2.334747e+3, 2.6718083e+2, -786239.3, -450345.75, -9435.524, -0.09414986, 0.5167418, -450080.9, -128402.555, 0.0, 9.996496, 10.000953 
2.334672e+3, 2.7718154e+2, -814069.4, -408942.4, -10142.489, -0.08513764, 0.52243775, -408688.63, -185017.27, 0.0, 9.995616, 10.000988 
2.334597e+3, 2.871825e+2, -793265.5, -255218.05, -12564.0, -0.10410585, 0.50286144, -254924.83, -129263.92, 0.0, 9.994686, 10.001819 
2.3345217e+3, 2.971838e+2, -828907.44, -214236.69, -7489.385, -0.14040186, 0.47856233, -214145.45, -186499.38, 0.0, 9.993737, 10.001884 
2.3344482e+3, 3.07186e+2, -814713.56, -70339.04, 4284.0396, -0.034875367, 0.48440105, -70314.39, -70314.39, 0.0, 9.993017, 10.002884 
2.3343721e+3, 3.171881e+2, -910048.9, -117909.38, -31691.2, -0.16757402, 0.44953346, -116643.53, -116643.53, 0.0, 9.9923725, 10.002867 
2.3458064e+3, 1.2728171e+2, -694579.0, -1660374.1, 38157.445, 0.06961679, 0.55341166, -693073.75, 999621.75, 0.032784075, 10.009198, 9.995949 
2.3457298e+3, 1.3727768e+2, -713909.25, -1621766.4, 28963.602, 0.02129653, 0.5857034, -712986.2, 881749.3, 0.023304066, 10.008293, 9.995971 
2.3456536e+3, 1.4727384e+2, -675651.6, -1459858.5, 34345.543, 0.009221107, 0.5883577, -674150.3, 822623.25, 0.013790232, 10.007396, 9.996843 
2.3455776e+3, 1.5727025e+2, -699078.1, -1421459.1, 37619.723, 0.020552406, 0.57424754, -697124.3, 701684.75, 0.0062156236, 10.006505, 9.9968605 
2.3455018e+3, 1.6726734e+2, -683370.75, -1281655.9, 38422.883, 0.009041813, 0.5886784, -680913.25, 619925.3, 0.0018186222, 10.005559, 9.997603 
2.3454255e+3, 1.7726493e+2, -722074.06, -1245636.4, 34529.598, -0.014801788, 0.61522835, -719806.6, 483056.84, 0.00021840117, 10.004594, 9.997643 
2.3453496e+3, 1.8726271e+2, -697968.75, -1092584.3, 35759.54, -0.027866194, 0.61732507, -694754.44, 410130.53, 0.0000011647743, 10.003694, 9.998455 
2.3452736e+3, 1.9726077e+2, -725385.56, -1052736.6, 36822.64, -0.034964133, 0.6073785, -721294.7, 285608.5, 0.0, 10.002822, 9.998476 
2.345198e+3, 2.0725909e+2, -715429.5, -914608.75, 40083.633, -0.040720075, 0.58443207, -707665.5, 201252.53, 0.0, 10.001861, 9.999214 
2.3451221e+3, 2.1725774e+2, -764927.75, -892107.8, 41563.855, -0.046648514, 0.556138, -752549.06, 58380.543, 0.0, 10.000867, 9.999175 
2.3450461e+3, 2.2725686e+2, -751779.0, -776178.9, 37484.027, -0.0638914, 0.5559897, -724559.5, -11621.81, 0.0, 10.0000305, 9.9997015 
2.3449703e+3, 2.372564e+2, -762822.06, -724975.9, 35378.996, -0.085345544, 0.56737643, -703777.2, -88834.86, 0.0, 9.999257, 9.999753 
2.3448946e+3, 2.4725617e+2, -742011.44, -570232.94, 38034.37, -0.091958694, 0.5564125, -562188.25, -45245.273, 0.0, 9.9983225, 10.000592 
2.3448189e+3, 2.5725627e+2, -794383.7, -552438.8, 34421.395, -0.092631996, 0.5352366, -547637.0, -128696.82, 0.0, 9.997323, 10.000523 
2.3447432e+3, 2.6725653e+2, -789791.25, -451423.03, 25730.262, -0.091508694, 0.52191806, -449477.63, -128540.836, 0.0, 9.996475, 10.000952 
2.3446675e+3, 2.772571e+2, -803789.06, -402771.8, 23432.13, -0.08799005, 0.510745, -401407.28, -178475.97, 0.0, 9.995687, 10.000993 
2.3445913e+3, 2.8725818e+2, -776286.44, -244687.4, 18633.645, -0.10645603, 0.506243, -244035.06, -119115.67, 0.0, 9.994799, 10.001834 
2.3445152e+3, 2.9725978e+2, -809011.9, -202343.61, 27852.553, -0.1396531, 0.5083051, -201067.56, -174165.44, 0.0, 9.99387, 10.001899 
2.344441e+3, 3.0726135e+2, -797465.94, -59076.906, 42696.723, -0.04107271, 0.4550082, -56616.203, -56616.203, 0.0, 9.993129, 10.002904 
2.3443642e+3, 3.1726387e+2, -896781.94, -107011.734, -11667.548, -0.15983072, 0.4590802, -106839.41, -106839.41, 0.0, 9.992451, 10.002901 
2.3558152e+3, 1.2735876e+2, -706033.7, -1686417.8, 5882.1587, 0.064572014, 0.57566917, -705998.44, 985942.06, 0.032289, 10.009197, 9.995768 
2.355738e+3, 1.3735422e+2, -721496.1, -1638805.5, -2591.3293, 0.047519155, 0.57527393, -721488.75, 872497.44, 0.022918005, 10.008287, 9.995859 
2.355661e+3, 1.4735049e+2, -668896.25, -1446451.6, 2777.393, 0.024824357, 0.58752567, -668886.3, 827137.0, 0.013528918, 10.007391, 9.9969425 
2.3555838e+3, 1.5734728e+2, -695258.1, -1414320.3, 4404.587, 0.008204879, 0.601602, -695231.2, 702823.9, 0.006072544, 10.006501, 9.996914 
2.3555069e+3, 1.6734432e+2, -689477.5, -1295713.1, 2816.7559, 0.003049309, 0.6141444, -689464.4, 610620.8, 0.0017624968, 10.005559, 9.99751 
2.35543e+3, 1.7734164e+2, -725383.25, -1254601.9, -119.860405, -0.00036617232, 0.6250358, -725383.2, 476729.34, 0.00020734634, 10.004597, 9.997583 
2.3553531e+3, 1.8733934e+2, -694351.3, -1087267.8, 3886.1592, -0.016532091, 0.6178113, -694312.9, 409821.97, 0.0000010663119, 10.003697, 9.998492 
2.3552762e+3, 1.973374e+2, -721217.94, -1046113.5, 3516.0613, -0.036570296, 0.6025477, -721179.94, 284973.06, 0.0, 10.002825, 9.998523 
2.3551995e+3, 2.0733587e+2, -709294.8, -904208.9, 2863.104, -0.044997264, 0.5888437, -709252.75, 198913.33, 0.0, 10.001865, 9.999287 
2.3551226e+3, 2.1733472e+2, -761245.0, -887241.2, 6239.4976, -0.04916855, 0.5748522, -760936.8, 49238.543, 0.0, 10.000873, 9.999208 
2.3550458e+3, 2.2733364e+2, -756625.06, -788980.75, 8971.167, -0.06276495, 0.55682665, -754304.1, -42118.758, 0.0, 10.000036, 9.999614 
2.3549692e+3, 2.3733276e+2, -766726.0, -735746.5, 4720.994, -0.07980561, 0.5376872, -735043.06, -120849.36, 0.0, 9.999263, 9.999679 
2.3548926e+3, 2.4733262e+2, -743678.94, -576137.8, 354.93115, -0.09021455, 0.53802955, -576137.06, -59943.027, 0.0, 9.998327, 10.000552 
2.3548159e+3, 2.5733295e+2, -796142.1, -558209.6, -1418.1934, -0.098157965, 0.5453009, -558201.2, -140011.86, 0.0, 9.997327, 10.000484 
2.3547395e+3, 2.6733312e+2, -790297.25, -454956.8, -3692.7366, -0.09176049, 0.52551806, -454916.16, -134729.47, 0.0, 9.99648, 10.000928 
2.3546629e+3, 2.7733347e+2, -803006.75, -404190.25, -7334.7256, -0.077967666, 0.49381983, -404055.4, -181872.44, 0.0, 9.995694, 10.000983 
2.354586e+3, 2.873347e+2, -772604.06, -240396.92, -16534.719, -0.10534007, 0.5036268, -239883.7, -115714.17, 0.0, 9.994807, 10.001863 
2.3545085e+3, 2.9733658e+2, -807685.94, -203387.72, -4605.2603, -0.15566841, 0.5322112, -203352.63, -177202.89, 0.0, 9.99388, 10.001889 
2.3544335e+3, 3.0733755e+2, -804775.9, -78286.914, 17550.025, -0.06191118, 0.42756766, -77863.2, -77863.2, 0.0, 9.99314, 10.00277 
2.3543566e+3, 3.1734043e+2, -887850.3, -91919.7, -46701.867, -0.14378124, 0.47748715, -89188.805, -89188.805, 0.0, 9.992459, 10.003003 
2.365824e+3, 1.2743661e+2, -714316.75, -1690097.3, 36866.566, 0.06945383, 0.58611786, -712925.8, 978252.2, 0.0317423, 10.009138, 9.995767 
2.3657459e+3, 1.3743195e+2, -738068.25, -1646889.9, 38952.426, 0.051036775, 0.57462245, -736401.75, 856823.2, 0.022496158, 10.008173, 9.995855 
2.3656677e+3, 1.4742824e+2, -688443.56, -1458406.4, 43439.234, 0.026595296, 0.59165204, -686000.6, 809261.5, 0.013247339, 10.00727, 9.996914 
2.3655899e+3, 1.5742509e+2, -712548.75, -1424192.1, 36580.156, 0.007482955, 0.6172854, -710673.4, 686620.06, 0.005920917, 10.006393, 9.996896 
2.3655123e+3, 1.6742209e+2, -698797.75, -1298612.3, 35381.305, 0.0049513616, 0.62757677, -696717.9, 602605.94, 0.0017041691, 10.005493, 9.997519 
2.3654343e+3, 1.7741933e+2, -727248.5, -1254741.9, 38478.035, 0.0063279714, 0.6305033, -724456.5, 476895.34, 0.00019623025, 10.004587, 9.997583 
2.3653564e+3, 1.8741699e+2, -699205.8, -1092373.8, 41762.83, -0.011090397, 0.62203205, -694818.7, 408555.9, 0.0000009723974, 10.003682, 9.998462 
2.3652788e+3, 1.9741502e+2, -729028.06, -1050575.5, 35440.203, -0.034973186, 0.608452, -725168.25, 280224.88, 0.0, 10.002781, 9.99851 
2.365201e+3, 2.0741355e+2, -703397.06, -896740.3, 29260.686, -0.04654624, 0.6005352, -699065.75, 208339.9, 0.0, 10.001892, 9.999322 
2.3651233e+3, 2.174125e+2, -739998.9, -872958.06, 30162.133, -0.053340733, 0.59372896, -733476.44, 75937.625, 0.0, 10.001008, 9.999238 
2.3650457e+3, 2.2741131e+2, -751164.2, -783677.8, 38818.54, -0.06353625, 0.5661745, -725335.8, -13911.226, 0.0, 10.000069, 9.999631 
2.3649682e+3, 2.374103e+2, -788714.56, -745141.56, 41151.414, -0.074799836, 0.5310179, -720365.3, -106931.35, 0.0, 9.999113, 9.999683 
2.3648906e+3, 2.474102e+2, -754678.3, -586214.06, 36665.746, -0.08638785, 0.53875834, -578579.8, -63145.57, 0.0, 9.998279, 10.000504 
2.364813e+3, 2.5741062e+2, -775596.2, -551297.44, 33991.11, -0.09845047, 0.5623775, -546259.44, -128830.414, 0.0, 9.997487, 10.000451 
2.3647356e+3, 2.6741067e+2, -769954.2, -442146.13, 34630.625, -0.09224893, 0.5317091, -438527.56, -119100.36, 0.0, 9.9966135, 10.000949 
2.3646584e+3, 2.774108e+2, -800473.7, -401458.5, 33133.082, -0.07684072, 0.47920752, -398725.94, -177301.22, 0.0, 9.995711, 10.00099 
2.3645806e+3, 2.8741214e+2, -763137.94, -240687.75, 19021.514, -0.10302381, 0.50191, -239996.13, -116585.47, 0.0, 9.994899, 10.001812 
2.3645024e+3, 2.9741418e+2, -779527.0, -196772.28, 25047.688, -0.15343097, 0.55485845, -195697.67, -170307.98, 0.0, 9.99411, 10.0018215 
2.3644263e+3, 3.0741468e+2, -797454.4, -88568.52, 47533.1, -0.075440444, 0.41176158, -85395.484, -85395.484, 0.0, 9.993256, 10.002641 
2.3643489e+3, 3.174178e+2, -883727.44, -63567.402, -23659.355, -0.13514952, 0.49536783, -62885.46, -62885.46, 0.0, 9.99238, 10.003233 
2.375833e+3, 1.2751527e+2, -707510.44, -1675794.0, 1967.895, 0.08069322, 0.5878352, -707506.44, 982901.6, 0.031145526, 10.009126, 9.995877 
2.3757537e+3, 1.3751076e+2, -733456.5, -1639666.3, 4690.811, 0.03709188, 0.58174187, -733432.25, 859020.5, 0.022038974, 10.008175, 9.995908 
2.3756748e+3, 1.4750698e+2, -697627.9, -1479972.1, 11623.721, 0.01808449, 0.5995269, -697455.2, 797035.56, 0.012945273, 10.007273, 9.996766 
2.3755962e+3, 1.575037e+2, -718467.9, -1438181.0, 4400.557, 0.016260121, 0.62334996, -718440.94, 678083.3, 0.0057603875, 10.006393, 9.996802 
2.3755173e+3, 1.6750066e+2, -693339.06, -1289016.4, 2117.8657, 0.012982784, 0.6311697, -693331.56, 605223.1, 0.0016434843, 10.005495, 9.997586 
2.3754387e+3, 1.7749795e+2, -724436.3, -1251136.5, 4906.2407, 0.0062546865, 0.6324612, -724390.6, 476191.13, 0.00018503294, 10.00459, 9.99761 
2.3753598e+3, 1.874956e+2, -705995.3, -1109066.6, 8365.532, -0.010603854, 0.62967217, -705821.75, 396782.94, 0.0000008807898, 10.003688, 9.998347 
2.3752813e+3, 1.9749361e+2, -733886.06, -1063491.1, 2311.866, -0.030422341, 0.6241954, -733869.9, 270754.06, 0.0, 10.002787, 9.998422 
2.3752026e+3, 2.0749213e+2, -703843.2, -900126.8, -3378.457, -0.045712356, 0.61895317, -703785.06, 202852.05, 0.0, 10.001897, 9.999299 
2.3751241e+3, 2.1749106e+2, -738662.5, -872336.8, -3265.6423, -0.059160884, 0.61266184, -738582.75, 70063.3, 0.0, 10.001011, 9.999244 
2.3750454e+3, 2.2748993e+2, -743263.3, -769642.25, 2937.317, -0.06614443, 0.5841516, -742940.2, -32284.646, 0.0, 10.000073, 9.999728 
2.374967e+3, 2.3748899e+2, -783788.0, -737319.75, 6937.7456, -0.07039927, 0.5479548, -736306.0, -123642.78, 0.0, 9.999118, 9.999738 
2.3748887e+3, 2.4748887e+2, -759297.25, -598378.7, 7269.8174, -0.080378346, 0.55921954, -598050.9, -83387.234, 0.0, 9.998283, 10.000421 
2.3748103e+3, 2.5748926e+2, -777669.8, -558839.3, 3421.319, -0.09310893, 0.58673894, -558785.9, -142126.44, 0.0, 9.997495, 10.000399 
2.3747319e+3, 2.674892e+2, -765299.25, -435631.63, 443.71494, -0.093250945, 0.5407674, -435631.03, -116972.64, 0.0, 9.996621, 10.000993 
2.3746535e+3, 2.7748913e+2, -799676.4, -402252.38, 457.98694, -0.08604235, 0.46717387, -402251.84, -181595.3, 0.0, 9.995716, 10.000985 
2.3745751e+3, 2.874905e+2, -773173.25, -264912.0, -10193.027, -0.09891106, 0.50104696, -264707.66, -142064.86, 0.0, 9.994907, 10.001645 
2.3744963e+3, 2.974926e+2, -788245.0, -220024.38, -5432.2354, -0.12888284, 0.5759771, -219972.44, -195350.16, 0.0, 9.994126, 10.001657 
2.3744191e+3, 3.074927e+2, -806066.75, -110180.44, 13661.753, -0.08037588, 0.41134155, -109912.336, -109912.336, 0.0, 9.993266, 10.00249 
2.3743409e+3, 3.1749582e+2, -857712.5, -10292.731, -61701.684, -0.13777561, 0.50483096, -5823.7227, -5823.7227, 0.0, 9.992376, 10.003604 
2.3858416e+3, 1.2759496e+2, -725180.75, -1671842.4, 29056.93, 0.07218915, 0.61006993, -724289.75, 965338.6, 0.030499013, 10.0089445, 9.995989 
2.3857614e+3, 1.3759036e+2, -734001.6, -1631212.4, 31529.96, 0.03746251, 0.58534676, -732895.0, 858777.94, 0.021546766, 10.008136, 9.995981 
2.3856816e+3, 1.4758655e+2, -705389.1, -1488748.6, 41559.4, 0.019374538, 0.60147107, -703190.44, 790520.94, 0.012622632, 10.007244, 9.996716 
2.385602e+3, 1.5758324e+2, -731036.56, -1447616.8, 39694.33, 0.015569806, 0.6298754, -728844.44, 666901.0, 0.0055906214, 10.006326, 9.996767 
2.3855224e+3, 1.675802e+2, -700888.7, -1291894.8, 36075.51, 0.011872493, 0.6389561, -698694.75, 599081.25, 0.0015802665, 10.0054455, 9.997587 
2.3854429e+3, 1.7757748e+2, -725650.44, -1250472.9, 34127.973, 0.0051134056, 0.6401666, -723440.5, 476362.5, 0.00017373604, 10.004583, 9.997615 
2.3853633e+3, 1.875751e+2, -701333.0, -1105503.8, 41537.37, -0.010297843, 0.63450605, -697108.25, 404717.94, 0.0000007927872, 10.00372, 9.998353 
2.385284e+3, 1.9757307e+2, -725348.25, -1060164.1, 41844.566, -0.027944664, 0.6260307, -720197.9, 283648.0, 0.0, 10.002855, 9.998408 
2.3852041e+3, 2.0757158e+2, -708696.5, -910333.06, 33503.8, -0.042479236, 0.6277754, -703275.25, 202584.25, 0.0, 10.0019045, 9.999223 
2.3851246e+3, 2.1757053e+2, -754020.1, -882730.9, 29592.656, -0.05607451, 0.6312805, -747542.3, 60326.652, 0.0, 10.000925, 9.99921 
2.3850451e+3, 2.2756939e+2, -737508.7, -755928.44, 35047.81, -0.06540941, 0.59937584, -710480.9, -602.81305, 0.0, 10.0000725, 9.99982 
2.3849659e+3, 2.3756845e+2, -760122.94, -721112.5, 38021.703, -0.07230438, 0.55560166, -697884.8, -85999.82, 0.0, 9.999266, 9.999774 
2.3848867e+3, 2.4756825e+2, -753608.06, -609330.0, 35927.313, -0.07843563, 0.5664279, -600878.6, -86992.21, 0.0, 9.998388, 10.000291 
2.3848073e+3, 2.575685e+2, -784184.3, -569133.25, 28104.15, -0.08547062, 0.5954723, -565521.1, -149637.25, 0.0, 9.997488, 10.000328 
2.3847283e+3, 2.6756844e+2, -750900.94, -417468.78, 26064.441, -0.09146393, 0.54797065, -415443.63, -97561.29, 0.0, 9.996678, 10.001087 
2.3846492e+3, 2.7756846e+2, -770606.1, -382282.0, 29167.15, -0.0937623, 0.4720408, -380103.47, -160224.2, 0.0, 9.995896, 10.001032 
2.3845698e+3, 2.875697e+2, -761677.75, -268512.7, 23164.197, -0.09618034, 0.5026287, -267427.03, -145560.61, 0.0, 9.995032, 10.001556 
2.3844905e+3, 2.9757166e+2, -796457.1, -236922.77, 32478.451, -0.1099164, 0.57437074, -235043.84, -211196.11, 0.0, 9.994132, 10.001534 
2.3844121e+3, 3.0757168e+2, -823572.6, -142594.23, 46859.02, -0.0911855, 0.41914257, -139384.92, -139384.92, 0.0, 9.993256, 10.002269 
2.384333e+3, 3.1757477e+2, -831593.56, 38232.25, -37034.46, -0.14073236, 0.52572876, 39806.215, 39806.215, 0.0, 9.992407, 10.00392 
2.3958501e+3, 1.276756e+2, -716064.56, -1658513.8, 746.9441, 0.049814384, 0.6466926, -716063.94, 972775.7, 0.029802278, 10.008957, 9.996079 
2.3957694e+3, 1.3767073e+2, -729651.0, -1622183.8, 1976.2837, 0.04889883, 0.585735, -729646.6, 861239.1, 0.021019666, 10.008126, 9.996051 
2.3956887e+3, 1.4766692e+2, -705832.94, -1489308.3, 8530.097, 0.027815674, 0.598798, -705740.06, 787184.0, 0.012279698, 10.007235, 9.996719 
2.3956081e+3, 1.576637e+2, -731914.1, -1450355.8, 6531.3765, 0.0070770117, 0.6369804, -731854.75, 663102.75, 0.0054118037, 10.006323, 9.996753 
2.3955277e+3, 1.6766065e+2, -705472.4, -1303326.6, 4621.4937, 0.0034113156, 0.6502937, -705436.6, 591551.6, 0.0015145841, 10.005447, 9.997511 
2.395447e+3, 1.7765789e+2, -726674.5, -1255135.9, 2815.4148, 0.0031301596, 0.65266466, -726659.5, 472356.38, 0.00016237216, 10.004588, 9.997583 
2.3953667e+3, 1.8765543e+2, -694458.56, -1093179.5, 10030.898, -0.0102346325, 0.63669753, -694206.4, 406833.06, 0.00000071313497, 10.003723, 9.998439 
2.3952864e+3, 1.9765334e+2, -722997.7, -1056681.9, 8666.563, -0.027317567, 0.6152481, -722772.75, 280286.44, 0.0, 10.002855, 9.998435 
2.3952058e+3, 2.0765188e+2, -718382.9, -932516.5, -3121.1753, -0.036885932, 0.62790406, -718337.4, 186735.8, 0.0, 10.001907, 9.999071 
2.3951252e+3, 2.1765088e+2, -759276.56, -896442.75, -5165.094, -0.04455062, 0.64986986, -759082.3, 48000.77, 0.0, 10.000932, 9.999117 
2.3950449e+3, 2.2764969e+2, -731841.75, -746966.3, 5187.377, -0.06168423, 0.6119122, -730233.56, -21141.238, 0.0, 10.000078, 9.999881 
2.3949648e+3, 2.3764865e+2, -759400.25, -722358.56, 7055.9795, -0.08068812, 0.5536988, -721060.0, -109960.664, 0.0, 9.999271, 9.999765 
2.3948848e+3, 2.4764827e+2, -766488.8, -638773.25, 1809.4368, -0.080564275, 0.5596454, -638747.6, -125644.84, 0.0, 9.998394, 10.00009 
2.3948047e+3, 2.5764835e+2, -791043.5, -585790.2, -4828.0713, -0.07534895, 0.5874433, -585676.7, -170573.94, 0.0, 9.997493, 10.000215 
2.3947246e+3, 2.6764843e+2, -740986.1, -399827.03, -3256.2007, -0.08664728, 0.55370736, -399795.97, -82696.64, 0.0, 9.996685, 10.001208 
2.3946445e+3, 2.7764875e+2, -762884.94, -370206.47, -1335.6926, -0.099802226, 0.49645928, -370201.94, -151109.13, 0.0, 9.995908, 10.001113 
2.3945644e+3, 2.876498e+2, -761628.1, -271852.4, -11037.215, -0.09529776, 0.5062559, -271603.78, -150522.17, 0.0, 9.995041, 10.001533 
2.3944844e+3, 2.976514e+2, -802807.9, -252131.17, -917.2944, -0.09797852, 0.54486614, -252129.64, -229063.27, 0.0, 9.994135, 10.001431 
2.3944049e+3, 3.0765167e+2, -846527.56, -192018.13, 14240.519, -0.10904802, 0.4386525, -191708.44, -191708.44, 0.0, 9.9932575, 10.001932 
2.394325e+3, 3.176546e+2, -815782.9, 68215.12, -67865.58, -0.14678693, 0.55710864, 73394.89, 73394.89, 0.0, 9.992413, 10.004126 
2.4058586e+3, 1.2775674e+2, -699164.4, -1635724.1, 32075.482, 0.03909781, 0.6378839, -698067.1, 989977.75, 0.029054899, 10.009011, 9.996211 
2.4057771e+3, 1.3775213e+2, -750685.06, -1622370.9, 36301.84, 0.044888414, 0.5914195, -749175.9, 840912.1, 0.020457113, 10.007936, 9.996139 
2.4056956e+3, 1.4774832e+2, -737193.4, -1508089.5, 44065.39, 0.029026186, 0.60493815, -734682.7, 757443.75, 0.011916196, 10.007034, 9.996683 
2.405614e+3, 1.5774502e+2, -750441.2, -1460220.8, 39794.426, 0.012055239, 0.63857317, -748217.0, 645944.0, 0.005223994, 10.006204, 9.996739 
2.4055327e+3, 1.6774194e+2, -710708.3, -1301061.3, 43342.27, 0.0024793497, 0.6491207, -707543.2, 588648.75, 0.0014465033, 10.005397, 9.997548 
2.4054514e+3, 1.7773919e+2, -724111.9, -1250043.8, 46839.465, -0.0064233034, 0.65002245, -719972.9, 478246.56, 0.00015096377, 10.004595, 9.997612 
2.4053702e+3, 1.877368e+2, -702583.1, -1096807.8, 48439.813, -0.015356744, 0.6411586, -696718.4, 403524.1, 0.00000064543013, 10.003673, 9.998435 
2.4052888e+3, 1.9773477e+2, -745551.56, -1068661.8, 40873.313, -0.02370195, 0.6290567, -740461.3, 261800.48, 0.0, 10.002712, 9.998419 
2.4052075e+3, 2.0773324e+2, -728098.44, -942845.94, 32384.908, -0.03384316, 0.639388, -723320.94, 180955.89, 0.0, 10.001871, 9.999015 
2.405126e+3, 2.177321e+2, -741712.25, -891445.06, 36303.2, -0.045194183, 0.6555325, -733374.7, 72913.63, 0.0, 10.001074, 9.999079 
2.4050447e+3, 2.2773093e+2, -713712.0, -736429.8, 45649.023, -0.062139444, 0.62111956, -678029.9, 30267.36, 0.0, 10.000202, 9.99989 
2.4049637e+3, 2.3772994e+2, -756010.75, -721443.8, 43155.836, -0.07968171, 0.5691101, -692239.2, -81935.766, 0.0, 9.999305, 9.999753 
2.4048828e+3, 2.477294e+2, -763754.06, -644590.8, 42593.77, -0.07630763, 0.56516, -630931.7, -118623.45, 0.0, 9.99845, 10.000019 
2.404802e+3, 2.5772926e+2, -777591.2, -583655.0, 45076.543, -0.067486, 0.5779497, -573689.9, -159379.45, 0.0, 9.99761, 10.000169 
2.4047212e+3, 2.677294e+2, -729188.56, -392643.53, 43390.75, -0.083763935, 0.55226815, -387139.2, -70832.71, 0.0, 9.996766, 10.001214 
2.4046402e+3, 2.7772984e+2, -761019.44, -368722.25, 35675.03, -0.10439004, 0.51107305, -365504.4, -147205.86, 0.0, 9.995925, 10.001111 
2.4045593e+3, 2.8773078e+2, -747580.8, -267182.66, 21850.5, -0.09453507, 0.51083636, -266190.88, -145902.19, 0.0, 9.995153, 10.001507 
2.4044783e+3, 2.9773214e+2, -772471.5, -245997.88, 29781.227, -0.08907706, 0.53224176, -244318.58, -222043.02, 0.0, 9.994386, 10.001349 
2.4043977e+3, 3.0773273e+2, -846024.4, -218106.02, 45358.758, -0.12534267, 0.47676048, -214846.38, -214846.38, 0.0, 9.993381, 10.00169 
2.404317e+3, 3.177351e+2, -817564.44, 84268.99, -26576.26, -0.14625736, 0.5622267, 85051.49, 85051.49, 0.0, 9.992334, 10.004271 
2.4158671e+3, 1.2783849e+2, -692389.4, -1618381.1, -6148.686, 0.036428813, 0.5971074, -692348.56, 994895.2, 0.028256856, 10.008983, 9.99635 
2.4157844e+3, 1.3783452e+2, -743163.7, -1610997.3, -330.9358, 0.029042631, 0.60193187, -743163.56, 846117.0, 0.019858336, 10.007945, 9.996215 
2.4157022e+3, 1.4783071e+2, -741421.5, -1520898.1, 13732.897, 0.024960948, 0.6177264, -741179.6, 750139.6, 0.0115312785, 10.007043, 9.996594 
2.4156201e+3, 1.5782715e+2, -752454.7, -1465394.8, 9685.493, 0.027814783, 0.6354872, -752323.1, 641033.25, 0.00502672, 10.006201, 9.996709 
2.4155378e+3, 1.6782404e+2, -703457.0, -1286318.6, 13984.348, 0.007301941, 0.6376292, -703121.7, 592265.75, 0.0013758844, 10.005391, 9.997655 
2.4154553e+3, 1.7782135e+2, -720610.44, -1243207.5, 15291.608, -0.022542577, 0.6347926, -720163.4, 477250.72, 0.00013948891, 10.004591, 9.9976635 
2.4153733e+3, 1.8781914e+2, -709606.5, -1112629.4, 12373.763, -0.024776375, 0.6481402, -709227.0, 390208.97, 0.00000058791386, 10.003672, 9.99833 
2.4152912e+3, 1.9781731e+2, -749671.9, -1079528.4, 6715.835, -0.0173928, 0.6651692, -749535.2, 251918.97, 0.0, 10.002716, 9.998345 
2.415209e+3, 2.0781562e+2, -726546.7, -942278.44, 2960.3098, -0.033430308, 0.6608493, -726506.06, 176964.83, 0.0, 10.001877, 9.999019 
2.4151267e+3, 2.1781418e+2, -741307.25, -893175.3, 5765.2427, -0.05746682, 0.6484894, -741088.7, 64396.137, 0.0, 10.001079, 9.999067 
2.4150446e+3, 2.278131e+2, -717240.9, -746290.06, 12058.8955, -0.06636994, 0.62745583, -712887.44, -5394.467, 0.0, 10.000207, 9.999824 
2.414963e+3, 2.3781231e+2, -757588.25, -727293.75, 10210.419, -0.0691071, 0.6024008, -724173.75, -114676.45, 0.0, 9.99931, 9.999713 
2.4148811e+3, 2.4781163e+2, -759546.8, -638591.6, 11225.894, -0.06567122, 0.5832561, -637558.56, -126055.586, 0.0, 9.998456, 10.00006 
2.4147993e+3, 2.5781122e+2, -776516.6, -584425.94, 13856.568, -0.062219046, 0.566602, -583431.56, -169924.7, 0.0, 9.997617, 10.000164 
2.4147175e+3, 2.6781127e+2, -738183.6, -414218.3, 11697.334, -0.082956105, 0.54266346, -413796.5, -98292.65, 0.0, 9.996773, 10.001066 
2.4146357e+3, 2.7781174e+2, -768480.94, -386655.44, 4951.481, -0.10731773, 0.51439273, -386591.22, -169094.53, 0.0, 9.99593, 10.000989 
2.4145542e+3, 2.8781262e+2, -749598.25, -274931.78, -6270.1416, -0.09408082, 0.5171333, -274848.97, -155361.34, 0.0, 9.995163, 10.001452 
2.4144724e+3, 2.9781392e+2, -775497.56, -257514.0, -2000.0868, -0.08400458, 0.54061776, -257506.28, -236031.22, 0.0, 9.994402, 10.001266 
2.4143906e+3, 3.078149e+2, -854921.56, -239862.83, 3764.6191, -0.13927232, 0.53753996, -239839.8, -239839.8, 0.0, 9.993388, 10.00154 
2.4143091e+3, 3.178163e+2, -816997.25, 84688.24, -57370.25, -0.14076826, 0.5334989, 88323.805, 88323.805, 0.0, 9.9923315, 10.004278 
2.4258757e+3, 1.2792154e+2, -740342.7, -1640263.1, 31526.354, 0.035084054, 0.5900227, -739239.6, 947190.06, 0.027408801, 10.008636, 9.996359 
2.4257919e+3, 1.379178e+2, -737214.4, -1607865.9, 28652.455, 0.025528714, 0.61767316, -736272.44, 852192.5, 0.019223547, 10.007987, 9.996213 
2.4257088e+3, 1.4791387e+2, -740038.2, -1522978.1, 40039.37, 0.022022994, 0.6275638, -737995.94, 752508.6, 0.011124559, 10.007068, 9.996565 
2.4256258e+3, 1.5791014e+2, -772966.6, -1475505.3, 40243.473, 0.026822777, 0.63008624, -770668.9, 621874.44, 0.004819421, 10.006064, 9.996701 
2.4255428e+3, 1.679071e+2, -728863.0, -1294654.4, 44864.234, 0.0074070385, 0.6380898, -725327.6, 569246.25, 0.0013024803, 10.005206, 9.997684 
2.4254595e+3, 1.7790455e+2, -746936.4, -1252029.4, 39663.77, -0.022259185, 0.6478093, -743840.6, 452758.84, 0.00012790879, 10.004399, 9.997692 
2.4253765e+3, 1.8790236e+2, -724818.3, -1117273.4, 38099.527, -0.028044386, 0.66166747, -721153.8, 377467.5, 0.0000005328844, 10.003562, 9.998348 
2.4252938e+3, 1.979005e+2, -749692.9, -1078433.6, 40436.645, -0.024784038, 0.67575186, -744792.06, 255847.9, 0.0, 10.002717, 9.998348 
2.4252105e+3, 2.0789874e+2, -727171.0, -945758.25, 38691.816, -0.037908647, 0.66971177, -720524.4, 182132.81, 0.0, 10.001893, 9.998983 
2.4251275e+3, 2.1789725e+2, -743675.7, -895971.6, 37609.88, -0.05701001, 0.65562606, -734894.2, 69777.516, 0.0, 10.001077, 9.999046 
2.4250445e+3, 2.278962e+2, -710353.7, -742300.25, 44443.492, -0.06390282, 0.6399902, -679100.2, 27579.424, 0.0, 10.000258, 9.999823 
2.4249619e+3, 2.3789547e+2, -740892.7, -720665.6, 46124.74, -0.0654515, 0.6228702, -683558.7, -74875.12, 0.0, 9.999437, 9.999694 
2.4248794e+3, 2.4789466e+2, -746843.2, -637811.0, 42010.59, -0.062764525, 0.5951509, -623502.0, -112811.67, 0.0, 9.998573, 10.000006 
2.4247967e+3, 2.57894e+2, -768271.9, -583792.3, 37422.65, -0.061036672, 0.56460434, -576490.0, -163794.22, 0.0, 9.997695, 10.000127 
2.4247141e+3, 2.6789418e+2, -729491.9, -410878.2, 40480.703, -0.08335875, 0.5494975, -405815.47, -91123.086, 0.0, 9.996843, 10.001052 
2.4246314e+3, 2.778947e+2, -761497.5, -386655.94, 43300.316, -0.10867718, 0.5368095, -381719.06, -165034.69, 0.0, 9.995998, 10.000952 
2.424549e+3, 2.8789538e+2, -754330.3, -285723.94, 33540.06, -0.09158509, 0.52624166, -283335.5, -164657.97, 0.0, 9.995173, 10.00137 
2.4244666e+3, 2.9789641e+2, -787597.4, -266820.13, 32117.027, -0.077659436, 0.53062516, -264846.9, -244179.16, 0.0, 9.994341, 10.001227 
2.4243836e+3, 3.0789798e+2, -859717.5, -233346.47, 40836.047, -0.14853975, 0.5844609, -230695.4, -230695.4, 0.0, 9.993324, 10.001613 
2.424301e+3, 3.1789872e+2, -823565.75, 79672.6, 6166.207, -0.13456373, 0.51026255, 79714.695, 79714.695, 0.0, 9.9923, 10.004255 
2.435884e+3, 1.2800574e+2, -745133.3, -1655304.5, 7749.774, 0.034678385, 0.60681933, -745067.3, 940537.2, 0.026513852, 10.008645, 9.996251 
2.4357998e+3, 1.380019e+2, -744768.4, -1621435.4, 879.3171, 0.03124755, 0.6368583, -744767.5, 842874.1, 0.01855546, 10.007964, 9.996134 
2.4357156e+3, 1.4799784e+2, -741336.3, -1524828.8, 2814.1196, 0.019631647, 0.6350036, -741326.25, 748356.25, 0.010697557, 10.007054, 9.996562 
2.4356313e+3, 1.5799396e+2, -772214.56, -1477237.0, 5405.173, 0.012467164, 0.623055, -772173.1, 619549.0, 0.0046025496, 10.006072, 9.996689 
2.4355476e+3, 1.6799107e+2, -731724.5, -1303044.4, 15459.76, 0.004085655, 0.64875335, -731306.5, 562445.25, 0.0012263682, 10.00521, 9.997627 
2.4354638e+3, 1.7798871e+2, -747670.7, -1254084.4, 9501.144, -0.008078743, 0.6845227, -747492.5, 448283.44, 0.00011623523, 10.0043955, 9.997683 
2.4353799e+3, 1.879864e+2, -717681.94, -1103371.0, 6718.6426, -0.026490934, 0.68007237, -717564.9, 380233.94, 0.00000047171386, 10.00356, 9.998447 
2.4352956e+3, 1.9798431e+2, -745854.25, -1072300.0, 9136.676, -0.04462069, 0.66314507, -745598.7, 254220.5, 0.0, 10.002719, 9.998393 
2.435212e+3, 2.0798263e+2, -732801.6, -959812.1, 8268.742, -0.046479274, 0.66757876, -732500.9, 169334.97, 0.0, 10.001897, 9.998888 
2.4351282e+3, 2.1798128e+2, -746148.3, -903715.75, 7349.7563, -0.04432682, 0.67668325, -745806.25, 58042.83, 0.0, 10.001081, 9.998994 
2.4350445e+3, 2.2798021e+2, -706429.5, -736774.75, 13964.686, -0.055248726, 0.65822405, -700981.25, 4876.1714, 0.0, 10.000263, 9.999861 
2.4349609e+3, 2.379794e+2, -741589.75, -724856.2, 14932.311, -0.06899782, 0.6300428, -716106.44, -108244.016, 0.0, 9.999443, 9.999665 
2.4348775e+3, 2.4797843e+2, -758263.25, -664321.44, 8892.173, -0.0678748, 0.6009024, -663487.1, -153616.53, 0.0, 9.998579, 9.999824 
2.434794e+3, 2.5797766e+2, -773334.56, -597039.56, 4610.113, -0.06429755, 0.5730737, -596919.06, -185041.72, 0.0, 9.997701, 10.000036 
2.4347104e+3, 2.6797798e+2, -720622.0, -395300.88, 8526.466, -0.08505811, 0.57481587, -395077.53, -81205.56, 0.0, 9.996849, 10.001159 
2.434627e+3, 2.7797884e+2, -758051.06, -382361.25, 11936.25, -0.10818646, 0.58105433, -381982.4, -166121.1, 0.0, 9.996005, 10.000981 
2.434544e+3, 2.8797913e+2, -763615.4, -307219.34, 2550.3628, -0.08677538, 0.5380517, -307205.1, -189346.72, 0.0, 9.995176, 10.001224 
2.4344607e+3, 2.979796e+2, -787692.06, -267916.3, -1608.5541, -0.069743246, 0.4978124, -267911.34, -248057.38, 0.0, 9.994339, 10.0012245 
2.4343765e+3, 3.07982e+2, -837082.9, -186801.55, 848.9778, -0.15156922, 0.6136907, -186800.44, -186800.44, 0.0, 9.9933195, 10.001938 
2.434293e+3, 3.1798267e+2, -830908.1, 62695.754, -16651.15, -0.13175544, 0.5092244, 63005.918, 63005.918, 0.0, 9.992301, 10.004142 
2.4458924e+3, 1.2809047e+2, -751013.4, -1664394.4, 24647.963, 0.03777188, 0.6123166, -750348.75, 934425.7, 0.02557805, 10.00863, 9.996191 
2.4458072e+3, 1.3808668e+2, -795836.44, -1646714.5, 20544.658, 0.03656968, 0.65117884, -795340.6, 791471.56, 0.017858481, 10.007609, 9.996128 
2.4457222e+3, 1.4808263e+2, -767296.7, -1523568.9, 29135.4, 0.020462865, 0.6436634, -766175.94, 722676.7, 0.0102530485, 10.006818, 9.996681 
2.445637e+3, 1.5807873e+2, -763823.75, -1464413.1, 37560.387, 0.007116074, 0.6226308, -761815.8, 629075.6, 0.0043775067, 10.006097, 9.996762 
2.4455522e+3, 1.6807583e+2, -740014.3, -1311756.9, 47589.324, 0.0016287249, 0.6498266, -736080.25, 556841.0, 0.0011480498, 10.005179, 9.997579 
2.4454677e+3, 1.7807347e+2, -777032.3, -1270288.5, 42240.848, -0.004770954, 0.690709, -773441.06, 421505.03, 0.00010454737, 10.0042095, 9.997658 
2.4453828e+3, 1.8807122e+2, -741689.9, -1112491.0, 37373.668, -0.025040684, 0.69331455, -737960.4, 359008.25, 0.00000040117345, 10.003391, 9.998463 
2.4452981e+3, 1.9806921e+2, -757812.8, -1073995.9, 34119.703, -0.047659718, 0.6823761, -754172.8, 244815.69, 0.0, 10.002626, 9.998423 
2.4452133e+3, 2.0806745e+2, -734051.56, -953176.44, 39513.777, -0.04889412, 0.6761076, -727144.0, 173861.47, 0.0, 10.001864, 9.998946 
2.4451289e+3, 2.1806599e+2, -742561.06, -899040.9, 47276.383, -0.04401848, 0.67171484, -729386.9, 73632.41, 0.0, 10.001101, 9.999013 
2.4450444e+3, 2.28065e+2, -711630.8, -747117.25, 47876.676, -0.053081784, 0.6667655, -678315.25, 26712.092, 0.0, 10.000268, 9.999784 
2.44496e+3, 2.3806432e+2, -747959.1, -730565.9, 40941.637, -0.065960966, 0.6581126, -697407.44, -90375.34, 0.0, 9.999417, 9.999635 
2.4448757e+3, 2.4806325e+2, -744628.5, -648063.5, 47451.523, -0.069313005, 0.6155967, -628649.25, -119608.48, 0.0, 9.998638, 9.999904 
2.4447915e+3, 2.580623e+2, -747254.4, -580644.06, 59511.613, -0.07126649, 0.56666946, -561570.6, -150522.39, 0.0, 9.99787, 10.000064 
2.444707e+3, 2.680627e+2, -714385.44, -403401.4, 52023.88, -0.08841432, 0.5832707, -394929.25, -81886.62, 0.0, 9.996946, 10.001053 
2.4446228e+3, 2.7806368e+2, -767641.0, -394324.94, 40397.523, -0.105210856, 0.6133822, -390003.44, -174971.8, 0.0, 9.995977, 10.00091 
2.4445388e+3, 2.880638e+2, -770129.7, -309290.28, 37366.31, -0.084724344, 0.5553293, -306280.16, -189249.73, 0.0, 9.995134, 10.001226 
2.4444546e+3, 2.98064e+2, -784641.2, -255976.14, 40546.055, -0.07121333, 0.49030507, -252884.53, -233856.53, 0.0, 9.994321, 10.001311 
2.4443693e+3, 3.080669e+2, -811814.6, -143512.63, 34746.863, -0.15308452, 0.63800275, -141710.9, -141710.9, 0.0, 9.993365, 10.00221 
2.4442852e+3, 3.180675e+2, -833609.4, 31204.668, 27206.402, -0.12629196, 0.5085144, 32059.715, 32059.715, 0.0, 9.99242, 10.003865 
2.4559006e+3, 1.281758e+2, -758698.8, -1674373.3, -12125.174, 0.04345204, 0.6099498, -758538.25, 925400.56, 0.024607789, 10.008589, 9.996143 
2.4558145e+3, 1.381721e+2, -792479.3, -1642677.9, -12460.711, 0.041435197, 0.6620587, -792296.75, 793679.75, 0.017136319, 10.00761, 9.996159 
2.4557285e+3, 1.4816816e+2, -753562.8, -1496533.1, 3997.3457, 0.023698814, 0.6533895, -753541.3, 734473.8, 0.009793311, 10.006816, 9.996871 
2.4556428e+3, 1.5816441e+2, -757545.06, -1449474.4, 8492.91, 0.008806077, 0.6273299, -757440.8, 632611.0, 0.004145743, 10.006082, 9.996875 
2.4555571e+3, 1.6816139e+2, -744906.4, -1322002.0, 11375.341, -0.00037176357, 0.64266896, -744682.2, 547400.7, 0.0010682158, 10.005173, 9.997515 
2.4554715e+3, 1.7815885e+2, -779911.2, -1279439.4, 8461.558, -0.01067262, 0.67139304, -779767.94, 414342.03, 0.00009296948, 10.004217, 9.997595 
2.4553859e+3, 1.8815681e+2, -745938.8, -1124150.0, 9279.953, -0.023348978, 0.7030684, -745711.25, 350419.66, 0.00000032507586, 10.003397, 9.998383 
2.4553005e+3, 1.981551e+2, -757076.3, -1074354.4, 6050.222, -0.035639245, 0.73033917, -756961.0, 241187.19, 0.0, 10.002628, 9.998423 
2.4552152e+3, 2.0815317e+2, -721014.44, -928208.44, 11457.233, -0.046123084, 0.6934922, -720382.8, 179783.55, 0.0, 10.001867, 9.99912 
2.4551296e+3, 2.1815138e+2, -737474.4, -890889.1, 17932.885, -0.055695474, 0.6414685, -735406.06, 66776.33, 0.0, 10.001104, 9.99907 
2.4550444e+3, 2.2815058e+2, -725641.9, -778710.25, 15911.177, -0.05697702, 0.6665264, -721236.94, -17047.28, 0.0, 10.000273, 9.999568 
2.4549592e+3, 2.381502e+2, -750193.8, -737761.4, 10138.773, -0.056169674, 0.7077995, -732084.9, -125892.22, 0.0, 9.999423, 9.999586 
2.454874e+3, 2.4814907e+2, -720212.7, -600248.8, 19291.049, -0.0671532, 0.63904136, -597223.0, -89022.07, 0.0, 9.998644, 10.000233 
2.4547888e+3, 2.5814795e+2, -737539.75, -563747.7, 29053.76, -0.082379006, 0.5436688, -559019.3, -148810.98, 0.0, 9.997878, 10.000179 
2.4547036e+3, 2.6814827e+2, -739245.8, -457689.53, 15268.221, -0.09355313, 0.5728316, -456863.97, -144659.55, 0.0, 9.996952, 10.000681 
2.4546184e+3, 2.781492e+2, -781634.44, -425072.53, 5419.682, -0.09939413, 0.6321674, -424990.16, -210794.45, 0.0, 9.995978, 10.000701 
2.4545334e+3, 2.881494e+2, -758788.06, -287340.88, 7177.5728, -0.08618784, 0.57999057, -287231.63, -171038.14, 0.0, 9.995134, 10.001381 
2.4544485e+3, 2.9814976e+2, -772788.0, -232885.97, 8816.14, -0.084336564, 0.5140175, -232742.05, -214553.19, 0.0, 9.994321, 10.001473 
2.4543624e+3, 3.0815274e+2, -798960.94, -118971.14, -2518.6072, -0.152245, 0.6542013, -118961.81, -118961.81, 0.0, 9.993368, 10.00238 
2.4542771e+3, 3.181534e+2, -868026.25, -44289.53, 6116.0864, -0.12080596, 0.52662647, -44244.125, -44244.125, 0.0, 9.992431, 10.003345 
2.4659087e+3, 1.282622e+2, -823891.94, -1700081.3, 25756.0, 0.061763905, 0.6207852, -823135.5, 859957.2, 0.023606159, 10.0081, 9.996198 
2.4658218e+3, 1.3825844e+2, -796653.9, -1636202.0, 29004.758, 0.03854741, 0.6625262, -795653.06, 789478.1, 0.016390719, 10.007545, 9.996231 
2.465735e+3, 1.4825459e+2, -765221.0, -1490209.4, 39958.95, 0.02135622, 0.6548215, -763025.25, 724143.56, 0.009319638, 10.006687, 9.996973 
2.4656485e+3, 1.5825096e+2, -801261.25, -1462631.3, 39194.04, 0.013333752, 0.63348997, -798946.6, 590257.4, 0.0039083688, 10.005751, 9.996941 
2.4655621e+3, 1.6824797e+2, -773770.06, -1337511.0, 42810.51, 0.003428219, 0.652074, -770537.56, 520697.44, 0.0009875086, 10.004988, 9.997494 
2.4654754e+3, 1.7824541e+2, -773306.7, -1277299.5, 41735.875, -0.009980828, 0.6822586, -769873.94, 423388.47, 0.00008163548, 10.004273, 9.997579 
2.4653889e+3, 1.8824326e+2, -744982.94, -1125189.0, 45362.18, -0.023160968, 0.7062687, -739645.7, 355638.72, 0.00000024962955, 10.003417, 9.998363 
2.4653028e+3, 1.9824146e+2, -771346.56, -1079130.9, 46064.418, -0.034811545, 0.7254257, -764600.25, 232702.53, 0.0, 10.002528, 9.998434 
2.4652165e+3, 2.0823964e+2, -731434.8, -924678.2, 48637.637, -0.0455307, 0.69845873, -719883.6, 179435.97, 0.0, 10.001765, 9.999189 
2.4651304e+3, 2.1823804e+2, -745104.9, -890267.9, 46747.77, -0.05621277, 0.65944767, -731353.1, 69980.8, 0.0, 10.00104, 9.999102 
2.4650443e+3, 2.2823712e+2, -731148.2, -786742.56, 49006.6, -0.060729355, 0.67833525, -702604.2, 738.2458, 0.0, 10.000265, 9.999514 
2.4649583e+3, 2.3823659e+2, -742909.94, -732002.06, 53169.008, -0.062972516, 0.70964, -684008.0, -78660.68, 0.0, 9.99947, 9.999599 
2.4648723e+3, 2.482356e+2, -714747.1, -579604.8, 54196.79, -0.071392186, 0.64671093, -560555.2, -53201.4, 0.0, 9.9986105, 10.000387 
2.4647863e+3, 2.582347e+2, -754010.56, -563659.0, 50648.816, -0.0828663, 0.5604869, -551021.4, -141662.84, 0.0, 9.997737, 10.000244 
2.4647002e+3, 2.6823494e+2, -752678.94, -478285.9, 45142.49, -0.09204318, 0.58522743, -471049.97, -159693.73, 0.0, 9.996927, 10.000548 
2.464614e+3, 2.782356e+2, -767317.0, -427865.22, 51624.758, -0.09653377, 0.6372977, -420187.63, -206837.38, 0.0, 9.996125, 10.0006075 
2.4645284e+3, 2.8823584e+2, -745865.6, -281367.22, 47223.215, -0.089088574, 0.595399, -276614.9, -161267.33, 0.0, 9.995231, 10.001371 
2.4644424e+3, 2.9823634e+2, -770379.8, -224421.23, 35203.336, -0.094109274, 0.54232687, -222160.69, -204819.08, 0.0, 9.994313, 10.001533 
2.4643555e+3, 3.0823913e+2, -769926.3, -82956.58, 19363.16, -0.14446735, 0.6506968, -82411.234, -82411.234, 0.0, 9.993479, 10.002571 
2.4642695e+3, 3.1824014e+2, -855343.94, -80052.81, 45255.18, -0.119469084, 0.5472022, -77420.12, -77420.12, 0.0, 9.992704, 10.002963 
2.4759167e+3, 1.2834954e+2, -813883.2, -1684755.0, 6586.015, 0.08819975, 0.6404099, -813833.4, 868403.75, 0.02257366, 10.008111, 9.996301 
2.4758288e+3, 1.3834561e+2, -793686.4, -1627117.1, 4086.5564, 0.029708035, 0.65524703, -793666.4, 790610.7, 0.015623366, 10.007522, 9.996308 
2.4757412e+3, 1.4834185e+2, -765808.75, -1489646.9, 4992.1177, 0.0150091555, 0.65032333, -765774.3, 720539.94, 0.008834006, 10.00667, 9.996988 
2.4756537e+3, 1.5833835e+2, -799931.4, -1461706.6, 7379.747, 0.020143606, 0.64112395, -799849.1, 588499.25, 0.00366683, 10.005752, 9.99695 
2.4755667e+3, 1.6833551e+2, -773915.1, -1339284.4, 17248.98, 0.011859386, 0.67525405, -773389.4, 516988.6, 0.0009065561, 10.004988, 9.997485 
2.4754792e+3, 1.7833306e+2, -773583.4, -1278157.1, 13612.842, -0.003878904, 0.71806985, -773216.4, 419187.97, 0.00007066774, 10.004269, 9.997579 
2.475392e+3, 1.8833053e+2, -744014.75, -1124574.9, 12383.387, -0.024506524, 0.7025745, -743612.25, 350817.44, 0.00000017953965, 10.003417, 9.99837 
2.4753048e+3, 1.9832823e+2, -770322.75, -1079844.6, 15212.073, -0.044021532, 0.67319804, -769576.94, 226875.22, 0.0, 10.002535, 9.998429 
2.4752177e+3, 2.0832686e+2, -733650.3, -932054.44, 22009.346, -0.046626553, 0.6936685, -731238.1, 167227.22, 0.0, 10.001772, 9.999139 
2.4751312e+3, 2.1832591e+2, -744739.3, -891960.7, 19131.227, -0.046114918, 0.7238917, -742293.8, 58180.355, 0.0, 10.001045, 9.999091 
2.475044e+3, 2.2832464e+2, -724572.44, -775640.75, 19553.611, -0.06485276, 0.7003299, -717945.5, -15459.525, 0.0, 10.00027, 9.99959 
2.474957e+3, 2.3832345e+2, -738804.3, -726137.75, 22636.156, -0.08680071, 0.662158, -708965.6, -104469.305, 0.0, 9.9994755, 9.99964 
2.4748704e+3, 2.4832286e+2, -717525.06, -587671.1, 21089.125, -0.08187706, 0.6394102, -584331.94, -77832.445, 0.0, 9.998615, 10.000333 
2.4747837e+3, 2.583226e+2, -753669.6, -564575.4, 18402.932, -0.07162931, 0.6213865, -562801.06, -154302.19, 0.0, 9.997738, 10.00024 
2.4746968e+3, 2.6832268e+2, -744146.56, -462772.66, 15435.564, -0.08338437, 0.6222048, -461928.4, -151430.52, 0.0, 9.99693, 10.000656 
2.4746099e+3, 2.7832296e+2, -765536.9, -427606.94, 20944.197, -0.097299434, 0.6259195, -426313.8, -213818.67, 0.0, 9.996134, 10.000608 
2.4745232e+3, 2.883232e+2, -760883.9, -315310.84, 12479.177, -0.09359111, 0.6000815, -314961.6, -200468.97, 0.0, 9.995236, 10.00114 
2.4744363e+3, 2.9832375e+2, -776352.4, -238261.2, 1600.292, -0.09956624, 0.576284, -238256.44, -221770.1, 0.0, 9.994313, 10.00144 
2.4743488e+3, 3.08326e+2, -755253.5, -55921.18, -11249.39, -0.12785985, 0.6213685, -55740.27, -55740.27, 0.0, 9.993487, 10.002756 
2.4742617e+3, 3.183278e+2, -865366.0, -107600.41, 26106.67, -0.12549363, 0.58364755, -106702.05, -106702.05, 0.0, 9.992727, 10.002767 
2.4859244e+3, 1.2843758e+2, -814502.5, -1681776.5, 34261.48, 0.0881822, 0.6473667, -813151.1, 868224.0, 0.021512248, 10.00809, 9.996328 
2.4858357e+3, 1.3843365e+2, -845130.75, -1644317.5, 27240.494, 0.031675354, 0.6617448, -844203.4, 739211.75, 0.014837503, 10.007129, 9.996376 
2.4857473e+3, 1.4843002e+2, -800617.5, -1491092.4, 32028.797, 0.015251056, 0.6609089, -799134.94, 686315.94, 0.008339388, 10.006366, 9.997122 
2.4856591e+3, 1.584267e+2, -806491.06, -1453223.4, 41108.734, 0.018262658, 0.65697986, -803888.5, 583594.9, 0.0034228235, 10.005662, 9.997047 
2.485571e+3, 1.6842382e+2, -790721.3, -1343654.0, 54692.24, 0.013128283, 0.683213, -785363.44, 504149.88, 0.0008259118, 10.004863, 9.997512 
2.4854831e+3, 1.7842126e+2, -803847.8, -1287934.5, 52183.49, 0.0014813166, 0.71536046, -798286.44, 393253.97, 0.000060163395, 10.004047, 9.997615 
2.485395e+3, 1.884188e+2, -758220.6, -1126291.6, 51797.996, -0.020515997, 0.7041897, -751070.06, 342494.94, 0.000000118594194, 10.0033045, 9.998408 
2.4853069e+3, 1.9841659e+2, -763977.2, -1075972.8, 56150.332, -0.04301148, 0.6820454, -754179.44, 241407.17, 0.0, 10.002582, 9.998429 
2.4852192e+3, 2.0841517e+2, -737293.4, -942474.4, 61426.418, -0.04868469, 0.7030669, -720309.56, 177291.14, 0.0, 10.001791, 9.999054 
2.4851316e+3, 2.1841413e+2, -755794.94, -898997.5, 55316.324, -0.050796777, 0.7334233, -736916.2, 62694.62, 0.0, 10.000984, 9.999069 
2.485044e+3, 2.2841284e+2, -729454.7, -766954.94, 54876.31, -0.069242164, 0.70714146, -690213.6, 11408.654, 0.0, 10.000196, 9.999682 
2.4849561e+3, 2.3841171e+2, -743330.44, -719178.1, 57658.63, -0.09056391, 0.66423714, -672344.56, -68712.51, 0.0, 9.999412, 9.999715 
2.4848686e+3, 2.484112e+2, -717881.5, -583842.06, 58580.473, -0.085826896, 0.6467901, -561848.8, -56214.24, 0.0, 9.998602, 10.000361 
2.484781e+3, 2.5841105e+2, -746881.6, -559570.2, 61127.57, -0.07509221, 0.6381065, -541386.9, -133753.72, 0.0, 9.997784, 10.00025 
2.4846934e+3, 2.6841098e+2, -739274.56, -462637.28, 51688.54, -0.08159585, 0.63217795, -453294.97, -143661.83, 0.0, 9.99698, 10.000629 
2.4846058e+3, 2.7841112e+2, -762341.3, -428829.63, 46033.16, -0.090204306, 0.62468773, -422592.5, -210960.7, 0.0, 9.996174, 10.000577 
2.4845181e+3, 2.8841147e+2, -750347.6, -315462.4, 42810.734, -0.09424681, 0.6150499, -311288.13, -197659.81, 0.0, 9.9953375, 10.001086 
2.4844302e+3, 2.9841217e+2, -753642.94, -231724.33, 44711.61, -0.10923041, 0.60969496, -227921.69, -212300.72, 0.0, 9.994494, 10.001394 
2.4843423e+3, 3.0841368e+2, -723997.25, -44646.754, 22227.352, -0.11154746, 0.5858967, -43920.285, -43920.285, 0.0, 9.993724, 10.002716 
2.4842541e+3, 3.184161e+2, -837715.2, -105241.81, 52402.14, -0.13181923, 0.61402225, -101511.88, -101511.88, 0.0, 9.99297, 10.002663 
2.4959318e+3, 1.2852627e+2, -818385.6, -1690162.6, 263.51044, 0.0702955, 0.64606106, -818385.5, 862121.06, 0.020427395, 10.008076, 9.996281 
2.4958426e+3, 1.385225e+2, -839841.75, -1637943.8, -3355.671, 0.04179088, 0.6784826, -839827.6, 742717.8, 0.014037236, 10.007137, 9.996418 
2.4957535e+3, 1.4851907e+2, -785581.5, -1462555.4, 7439.2246, 0.020028597, 0.6827123, -785499.75, 699079.56, 0.007838353, 10.006368, 9.99732 
2.4956644e+3, 1.5851593e+2, -797214.56, -1433670.6, 13631.688, 0.009386846, 0.67896557, -796922.75, 589687.06, 0.00317758, 10.005653, 9.9971895 
2.4955757e+3, 1.6851287e+2, -788253.9, -1339558.9, 24214.96, 0.0087586185, 0.67832595, -787192.3, 501448.9, 0.00074602966, 10.004861, 9.997543 
2.4954869e+3, 1.7851005e+2, -799432.1, -1281696.9, 23104.426, 0.0062987795, 0.6808351, -798327.8, 392342.63, 0.0000502318, 10.004053, 9.997657 
2.4953979e+3, 1.8850806e+2, -754340.0, -1120395.8, 25148.152, -0.011886925, 0.71194065, -752620.4, 340070.38, 0.00000007053605, 10.003307, 9.99845 
2.4953091e+3, 1.9850644e+2, -765081.4, -1079537.8, 28074.395, -0.033040263, 0.74549204, -762594.6, 232112.5, 0.0, 10.002582, 9.998408 
2.4952205e+3, 2.0850447e+2, -746466.8, -963376.56, 31247.617, -0.05204275, 0.72360873, -742055.1, 154671.25, 0.0, 10.001793, 9.998913 
2.4951321e+3, 2.1850267e+2, -758683.3, -907476.75, 25634.662, -0.0695809, 0.69010365, -754390.7, 44353.06, 0.0, 10.000988, 9.999011 
2.4950437e+3, 2.285018e+2, -722603.56, -755270.6, 25734.69, -0.07331715, 0.70088387, -708456.6, -7705.237, 0.0, 10.000201, 9.999763 
2.4949554e+3, 2.3850134e+2, -736194.7, -706869.25, 27987.457, -0.07381097, 0.7174189, -689936.2, -87181.47, 0.0, 9.999416, 9.999801 
2.4948667e+3, 2.4850059e+2, -710482.1, -570927.8, 27957.26, -0.083578855, 0.667836, -565535.44, -60776.39, 0.0, 9.998607, 10.000451 
2.4947783e+3, 2.5849998e+2, -746481.7, -561339.94, 30857.465, -0.094865434, 0.60581887, -556332.4, -149570.7, 0.0, 9.997789, 10.000238 
2.49469e+3, 2.684999e+2, -752518.75, -492695.25, 21398.771, -0.087132625, 0.61291116, -490944.7, -182182.5, 0.0, 9.9969845, 10.000424 
2.4946016e+3, 2.7850017e+2, -767324.3, -441535.0, 15022.611, -0.07378582, 0.6360421, -440843.75, -230083.53, 0.0, 9.996178, 10.000491 
2.494513e+3, 2.8850073e+2, -739471.1, -295865.84, 11094.126, -0.09052781, 0.6419766, -295588.56, -182834.27, 0.0, 9.995344, 10.001221 
2.4944241e+3, 2.9850158e+2, -753637.0, -235847.39, 15127.412, -0.12431025, 0.64192235, -235405.81, -220660.83, 0.0, 9.994506, 10.001364 
2.4943356e+3, 3.085021e+2, -746273.6, -96198.42, -6035.6616, -0.09573499, 0.54317546, -96142.39, -96142.39, 0.0, 9.993741, 10.002357 
2.4942465e+3, 3.185048e+2, -833065.44, -101115.58, 24741.113, -0.13745223, 0.63331014, -100280.234, -100280.234, 0.0, 9.992988, 10.002686 
2.5059393e+3, 1.2861608e+2, -847684.06, -1697054.8, 41616.523, 0.06993207, 0.6489422, -845649.9, 833977.06, 0.019325752, 10.007835, 9.9963455 
2.505849e+3, 1.3861227e+2, -838702.8, -1632007.5, 42986.01, 0.033400107, 0.6736577, -836380.4, 745285.7, 0.013226331, 10.007123, 9.996463 
2.5057593e+3, 1.4860891e+2, -799738.3, -1469736.0, 45606.426, 0.013678123, 0.6855971, -796648.2, 687051.44, 0.007332711, 10.006275, 9.997312 
2.5056693e+3, 1.5860586e+2, -829480.0, -1443894.1, 40687.82, 0.0068680863, 0.6927578, -826797.25, 558932.44, 0.002931992, 10.005413, 9.9972315 
2.50558e+3, 1.6860287e+2, -800743.7, -1330515.4, 54648.945, 0.005336839, 0.6920271, -795165.06, 492595.0, 0.0006674465, 10.004717, 9.997672 
2.5054905e+3, 1.7860013e+2, -794890.8, -1271617.0, 56857.813, 0.0013525862, 0.6910823, -788203.3, 401584.9, 0.00004102709, 10.004058, 9.997721 
2.5054008e+3, 1.885981e+2, -769354.94, -1134065.4, 52116.055, -0.013385158, 0.7225727, -762053.9, 329755.16, 0.000000037711487, 10.00324, 9.998386 
2.5053114e+3, 1.9859643e+2, -794645.44, -1095247.1, 49010.426, -0.030220179, 0.75853246, -786856.56, 206969.53, 0.0, 10.002392, 9.998388 
2.505222e+3, 2.0859447e+2, -762165.5, -964961.4, 61484.215, -0.051036175, 0.73492235, -744980.75, 150864.47, 0.0, 10.001666, 9.99896 
2.5051326e+3, 2.1859266e+2, -760210.9, -903963.7, 66060.086, -0.07194327, 0.69710916, -734464.8, 63397.785, 0.0, 10.000967, 9.9990425 
2.5050434e+3, 2.2859176e+2, -731588.56, -759348.6, 61241.664, -0.07376692, 0.70517874, -682673.75, 17196.803, 0.0, 10.000145, 9.999759 
2.5049543e+3, 2.3859128e+2, -752098.56, -711666.75, 57364.043, -0.070867985, 0.7218055, -671060.7, -69186.65, 0.0, 9.999302, 9.999819 
2.504865e+3, 2.485906e+2, -710841.6, -565089.94, 54273.582, -0.08274923, 0.6791584, -547100.44, -43222.87, 0.0, 9.998585, 10.000499 
2.5047755e+3, 2.585901e+2, -731466.1, -551850.3, 53183.848, -0.09754782, 0.6230467, -537284.0, -131404.5, 0.0, 9.9978895, 10.000252 
2.5046864e+3, 2.6858988e+2, -741410.2, -491410.9, 50421.38, -0.08507928, 0.61887336, -481624.7, -173743.44, 0.0, 9.997086, 10.000381 
2.5045973e+3, 2.7858996e+2, -757816.94, -438082.3, 54593.824, -0.06537978, 0.629191, -429017.56, -219136.8, 0.0, 9.996255, 10.000475 
2.5045082e+3, 2.8859064e+2, -719327.3, -282737.94, 45236.855, -0.088777855, 0.6491082, -278100.03, -166226.53, 0.0, 9.995475, 10.001245 
2.5044182e+3, 2.9859164e+2, -731919.9, -234127.84, 40945.277, -0.13021487, 0.66541475, -230782.42, -216919.7, 0.0, 9.994699, 10.00128 
2.5043294e+3, 3.085915e+2, -742325.3, -126245.89, 22043.986, -0.073979445, 0.52522075, -125458.14, -125458.14, 0.0, 9.993912, 10.002065 
2.5042394e+3, 3.1859437e+2, -804364.56, -59453.52, 56129.92, -0.14122686, 0.6495931, -55247.813, -55247.813, 0.0, 9.993072, 10.002928 
2.515947e+3, 1.2870683e+2, -836906.9, -1679160.0, 16516.865, 0.08084805, 0.65421075, -836583.06, 842154.44, 0.01821307, 10.007841, 9.996469 
2.5158557e+3, 1.3870288e+2, -838522.6, -1631026.4, 14553.826, 0.011264822, 0.6531194, -838255.5, 742522.25, 0.012409045, 10.007109, 9.99648 
2.5157648e+3, 1.4869948e+2, -812334.1, -1497441.4, 13668.853, -0.00059263234, 0.67466366, -812061.5, 670750.8, 0.00682529, 10.006272, 9.997126 
2.5156745e+3, 1.5869647e+2, -830530.94, -1450782.8, 12322.217, 0.00937056, 0.7006299, -830286.2, 554556.9, 0.0026877674, 10.005425, 9.997181 
2.5155842e+3, 1.686938e+2, -786735.0, -1304247.4, 31246.271, 0.0023764998, 0.7213372, -784855.25, 502015.03, 0.00059102156, 10.004723, 9.997852 
2.5154942e+3, 1.7869139e+2, -791432.3, -1264922.6, 29607.678, -0.011871844, 0.7383674, -789588.06, 399306.78, 0.00003271592, 10.004054, 9.997772 
2.5154036e+3, 1.886889e+2, -781296.06, -1160548.5, 20305.871, -0.023538686, 0.7342624, -780211.94, 310708.25, 0.000000018502952, 10.003241, 9.998207 
2.5153133e+3, 1.9868666e+2, -795578.1, -1100445.4, 20005.258, -0.03359615, 0.7265741, -794271.0, 198672.11, 0.0, 10.002399, 9.998352 
2.515223e+3, 2.0868517e+2, -747248.4, -936723.5, 36119.11, -0.045697074, 0.7395047, -740596.56, 154360.7, 0.0, 10.001672, 9.999153 
2.5151333e+3, 2.1868403e+2, -753463.6, -892090.44, 38007.89, -0.05876434, 0.7524281, -743726.7, 53241.008, 0.0, 10.00097, 9.9991255 
2.5150433e+3, 2.2868267e+2, -738610.9, -776372.2, 29219.088, -0.071225956, 0.7181011, -722703.1, -23722.969, 0.0, 10.00015, 9.999642 
2.514953e+3, 2.386815e+2, -756207.25, -722673.8, 27749.861, -0.08213293, 0.6760051, -707018.6, -106028.32, 0.0, 9.999307, 9.999744 
2.5148633e+3, 2.4868128e+2, -711309.4, -568696.9, 28495.076, -0.082844056, 0.6821484, -563214.1, -60223.9, 0.0, 9.99859, 10.000474 
2.5147733e+3, 2.5868142e+2, -728644.1, -548925.56, 25129.87, -0.0814299, 0.6950769, -545477.8, -140491.42, 0.0, 9.997895, 10.000272 
2.5146833e+3, 2.686809e+2, -732150.1, -474989.94, 18849.95, -0.07501244, 0.6519661, -473615.56, -166625.31, 0.0, 9.997091, 10.000494 
2.5145933e+3, 2.7868047e+2, -754629.8, -434093.75, 24609.56, -0.06656782, 0.6002113, -432215.3, -223221.69, 0.0, 9.99626, 10.000503 
2.5145033e+3, 2.8868118e+2, -727512.8, -303007.3, 16402.1, -0.0890007, 0.6324438, -302374.53, -191388.36, 0.0, 9.995482, 10.001105 
2.5144127e+3, 2.9868236e+2, -741809.8, -258867.7, 11344.423, -0.12451764, 0.67869747, -258601.38, -245626.92, 0.0, 9.994711, 10.001107 
2.5143233e+3, 3.0868202e+2, -756732.2, -160163.0, -8191.871, -0.045096934, 0.5411581, -160050.53, -160050.53, 0.0, 9.993923, 10.00183 
2.5142318e+3, 3.1868464e+2, -768161.25, 13988.032, 17313.316, -0.13971278, 0.64889085, 14371.084, 14371.084, 0.0, 9.9930725, 10.003435 
2.5259542e+3, 1.2879847e+2, -845848.4, -1679726.1, 43379.633, 0.0706166, 0.66605705, -843597.75, 834242.4, 0.017094566, 10.00776, 9.996501 
2.5258622e+3, 1.3879451e+2, -877972.25, -1647233.8, 38145.816, 0.014059702, 0.6622452, -876085.3, 703794.94, 0.011590636, 10.006823, 9.996503 
2.5257707e+3, 1.4879107e+2, -834019.94, -1507691.0, 47495.734, -0.0018021057, 0.6796963, -830687.8, 651227.5, 0.0063202963, 10.0061245, 9.997123 
2.5256795e+3, 1.5878801e+2, -822457.8, -1446048.6, 54810.375, 0.0010364228, 0.70254, -817676.9, 566269.8, 0.002447458, 10.005484, 9.997182 
2.5255883e+3, 1.6878538e+2, -794445.2, -1307188.3, 65688.97, -0.0045816246, 0.7287305, -786163.4, 499810.38, 0.0005177692, 10.004672, 9.997852 
2.5254977e+3, 1.7878303e+2, -821382.06, -1275241.4, 53667.184, -0.016098397, 0.75261366, -815122.44, 372875.4, 0.000025422889, 10.003838, 9.997802 
2.5254062e+3, 1.8878053e+2, -790900.3, -1156912.3, 55087.2, -0.02900344, 0.7428043, -782789.06, 307234.0, 0.000000008423833, 10.003146, 9.998274 
2.5253153e+3, 1.9877824e+2, -781376.0, -1088653.3, 68100.04, -0.040352013, 0.72629637, -766959.7, 225086.42, 0.0, 10.002482, 9.998389 
2.5252244e+3, 2.0877676e+2, -749682.4, -939379.5, 73806.07, -0.047321644, 0.7421299, -724349.5, 169710.77, 0.0, 10.001669, 9.999133 
2.5251338e+3, 2.1877566e+2, -773534.7, -900727.9, 62004.34, -0.054349642, 0.76149815, -748310.9, 47759.56, 0.0, 10.000834, 9.999127 
2.525043e+3, 2.2877426e+2, -733234.25, -770664.4, 58623.426, -0.06887235, 0.72421175, -690411.06, 7671.929, 0.0, 10.00018, 9.999663 
2.5249523e+3, 2.3877305e+2, -721883.7, -707085.2, 64849.098, -0.08351644, 0.6765437, -649214.56, -49120.96, 0.0, 9.999554, 9.999729 
2.5248617e+3, 2.4877284e+2, -696482.4, -570545.06, 61542.453, -0.080605365, 0.69123816, -545465.3, -43371.344, 0.0, 9.998738, 10.000387 
2.524771e+3, 2.5877303e+2, -731971.6, -551262.8, 52683.246, -0.07402773, 0.7164447, -537025.44, -132935.03, 0.0, 9.997883, 10.000258 
2.5246802e+3, 2.687725e+2, -720681.9, -456306.5, 44034.594, -0.069722705, 0.66775733, -449165.0, -143071.3, 0.0, 9.99712, 10.000605 
2.5245893e+3, 2.7877203e+2, -734014.44, -416663.3, 49897.633, -0.06519075, 0.6044435, -409002.75, -200906.2, 0.0, 9.996376, 10.000563 
2.5244984e+3, 2.8877264e+2, -707181.4, -296369.7, 47942.367, -0.08749552, 0.6264622, -290848.94, -180758.84, 0.0, 9.995643, 10.00107 
2.524407e+3, 2.9877368e+2, -723785.6, -263044.78, 48337.85, -0.12026526, 0.6680925, -258028.11, -245948.52, 0.0, 9.994897, 10.000985 
2.524317e+3, 3.0877352e+2, -757038.94, -190322.64, 24832.877, -0.022154745, 0.57129073, -189236.58, -189236.58, 0.0, 9.994057, 10.0015545 
2.5242245e+3, 3.1877562e+2, -742485.8, 62104.887, 30349.732, -0.13787158, 0.6488977, 63248.074, 63248.074, 0.0, 9.993101, 10.003749 
2.5359616e+3, 1.2889096e+2, -850091.9, -1688835.6, 7951.5146, 0.04676172, 0.68301004, -850016.5, 826918.56, 0.015975766, 10.007746, 9.9964485 
2.535869e+3, 1.3888708e+2, -875428.56, -1645646.8, 7902.3164, 0.035110433, 0.6928642, -875347.5, 703626.8, 0.01077615, 10.006826, 9.996515 
2.5357765e+3, 1.488836e+2, -825202.4, -1491748.0, 24825.754, 0.006083459, 0.6962198, -824279.0, 656730.44, 0.005821557, 10.006126, 9.997234 
2.5356844e+3, 1.5888041e+2, -821953.75, -1445352.6, 28273.563, -0.015896916, 0.6995215, -820674.06, 562367.3, 0.0022132988, 10.005478, 9.997192 
2.5355926e+3, 1.6887762e+2, -806011.75, -1332068.0, 34364.363, -0.014416382, 0.71838945, -803776.4, 481294.13, 0.0004485066, 10.00467, 9.997686 
2.535501e+3, 1.788751e+2, -820544.7, -1275580.4, 25427.355, -0.012800311, 0.7397561, -819128.25, 367968.44, 0.000019219326, 10.00384, 9.997801 
2.535409e+3, 1.88873e+2, -772503.3, -1120386.8, 31251.354, -0.030682439, 0.74965745, -769718.25, 319399.56, 0.0000000033700214, 10.003147, 9.998527 
2.5353172e+3, 1.988711e+2, -776451.4, -1079526.6, 40882.906, -0.050319217, 0.754256, -771033.4, 220102.69, 0.0, 10.002481, 9.998456 
2.5352255e+3, 2.0886922e+2, -765625.25, -974771.3, 41980.164, -0.055441458, 0.74173176, -757513.5, 135641.08, 0.0, 10.001673, 9.998892 
2.5351343e+3, 2.1886756e+2, -778334.3, -913991.44, 33859.348, -0.05818225, 0.7264672, -770352.75, 24817.842, 0.0, 10.000843, 9.999036 
2.5350428e+3, 2.2886658e+2, -722577.0, -751531.8, 36030.16, -0.06638914, 0.72533303, -698224.44, -1045.4631, 0.0, 10.000187, 9.999794 
2.5349513e+3, 2.3886593e+2, -719562.3, -705163.8, 38479.813, -0.07481851, 0.7246911, -673215.56, -74031.71, 0.0, 9.99956, 9.999742 
2.5348598e+3, 2.4886526e+2, -707952.25, -597037.75, 28893.357, -0.076299734, 0.7048927, -589962.3, -88773.35, 0.0, 9.998743, 10.000205 
2.5347683e+3, 2.5886482e+2, -736447.7, -562681.9, 21777.785, -0.076342165, 0.6818403, -559994.06, -156801.98, 0.0, 9.997887, 10.000181 
2.5346768e+3, 2.6886466e+2, -713988.9, -444750.13, 15888.839, -0.0696219, 0.6657624, -443815.72, -138623.95, 0.0, 9.997124, 10.000686 
2.5345853e+3, 2.788647e+2, -727371.1, -405887.22, 22043.379, -0.06075456, 0.64825934, -404382.8, -197193.7, 0.0, 9.996383, 10.000637 
2.5344935e+3, 2.8886503e+2, -700914.0, -286948.53, 20297.059, -0.0840667, 0.6321572, -285955.72, -176770.55, 0.0, 9.995651, 10.001134 
2.5344017e+3, 2.9886562e+2, -728183.5, -276014.53, 19203.678, -0.11804979, 0.62735605, -275200.4, -264022.03, 0.0, 9.994906, 10.000895 
2.5343108e+3, 3.088661e+2, -780497.3, -241986.3, -7844.6035, -0.0073211677, 0.62116337, -241872.05, -241872.05, 0.0, 9.994063, 10.0012 
2.5342172e+3, 3.188674e+2, -743231.56, 60499.766, -20099.195, -0.13230081, 0.6444135, 61002.08, 61002.08, 0.0, 9.993094, 10.003744 
2.5459686e+3, 1.2898412e+2, -876831.0, -1686558.6, 28247.125, 0.044338938, 0.6998385, -875846.8, 800176.56, 0.014861495, 10.007491, 9.996584 
2.5458753e+3, 1.3898027e+2, -880722.94, -1637163.1, 39200.445, 0.03126387, 0.6996153, -878696.94, 699364.9, 0.009968945, 10.006743, 9.99661 
2.5457823e+3, 1.4897682e+2, -842284.94, -1496864.1, 57055.117, 0.0065321876, 0.70435005, -837349.06, 642747.44, 0.0053312983, 10.005999, 9.997258 
2.5456893e+3, 1.589737e+2, -852149.6, -1456682.4, 54057.484, -0.011386907, 0.71094614, -847353.8, 534774.25, 0.0019865723, 10.005261, 9.997216 
2.5455967e+3, 1.6897088e+2, -828800.4, -1340894.5, 65419.29, -0.015350359, 0.7288889, -820575.3, 463582.1, 0.0003837159, 10.00451, 9.997699 
2.5455043e+3, 1.7896836e+2, -829983.8, -1275695.6, 66471.73, -0.020081317, 0.74825734, -820281.6, 365902.22, 0.000014111278, 10.003762, 9.997834 
2.5454116e+3, 1.8896627e+2, -789501.2, -1121659.5, 65099.105, -0.034614295, 0.758872, -777198.25, 311006.22, 0.0000000010058756, 10.003008, 9.998582 
2.5453192e+3, 1.9896446e+2, -804854.3, -1087409.9, 62913.836, -0.049504608, 0.76497257, -791479.06, 198742.9, 0.0, 10.002269, 9.998501 
2.5452268e+3, 2.0896253e+2, -767522.4, -973414.8, 75298.91, -0.056694876, 0.7476022, -742923.1, 149317.61, 0.0, 10.0016575, 9.998904 
2.5451347e+3, 2.1896079e+2, -747467.9, -898720.94, 81882.82, -0.0621672, 0.7260744, -711630.7, 82626.65, 0.0, 10.0010605, 9.999032 
2.5450423e+3, 2.2895981e+2, -713242.3, -750459.94, 76052.07, -0.06496391, 0.7283887, -653555.5, 42710.207, 0.0, 10.000274, 9.999757 
2.5449505e+3, 2.3895916e+2, -738330.2, -718223.94, 66299.7, -0.06694088, 0.733992, -661219.5, -62948.93, 0.0, 9.999455, 9.999699 
2.5448582e+3, 2.489584e+2, -706602.8, -602886.0, 60119.79, -0.07163684, 0.7106402, -575348.6, -75071.625, 0.0, 9.998788, 10.00014 
2.5447658e+3, 2.589578e+2, -702961.3, -549422.2, 59305.875, -0.076896854, 0.6817014, -529182.7, -126901.02, 0.0, 9.998136, 10.000149 
2.5446737e+3, 2.6895773e+2, -682239.06, -427354.0, 48701.684, -0.070841275, 0.6757393, -418365.4, -114084.98, 0.0, 9.99734, 10.000697 
2.5445813e+3, 2.789579e+2, -707208.75, -393149.4, 49739.266, -0.061222583, 0.6701549, -385460.2, -179183.8, 0.0, 9.996515, 10.000657 
2.544489e+3, 2.88958e+2, -682881.25, -274517.6, 44566.336, -0.08161329, 0.6311106, -269710.47, -161436.17, 0.0, 9.995766, 10.001161 
2.544396e+3, 2.989584e+2, -712276.06, -269602.3, 40261.824, -0.11235292, 0.60374564, -265970.25, -255700.89, 0.0, 9.9950285, 10.000876 
2.5443044e+3, 3.0895954e+2, -753939.3, -238899.0, 26833.229, 0.0013252028, 0.6709614, -237504.78, -237504.78, 0.0, 9.994293, 10.001107 
2.5442103e+3, 3.1895995e+2, -701458.75, 65958.98, 9085.123, -0.12759845, 0.62169725, 66066.516, 66066.516, 0.0, 9.993451, 10.003607 
2.555976e+3, 1.2907799e+2, -858543.2, -1651810.3, 1971.8578, 0.05555415, 0.71611094, -858538.25, 816566.75, 0.01375497, 10.007491, 9.996827 
2.5558814e+3, 1.3907409e+2, -871466.8, -1619446.3, 11786.652, 0.009282799, 0.68903893, -871281.1, 705861.7, 0.009171137, 10.00674, 9.996737 
2.5557876e+3, 1.4907075e+2, -846815.56, -1507006.8, 30164.816, 0.0022002775, 0.706725, -845440.2, 633736.3, 0.0048509757, 10.005992, 9.997194 
2.5556943e+3, 1.590678e+2, -851243.5, -1455076.5, 27033.287, 0.009735058, 0.7338244, -850035.6, 531171.5, 0.0017681351, 10.005255, 9.997233 
2.5556007e+3, 1.6906512e+2, -819544.8, -1322334.1, 37861.426, -0.009769578, 0.7560586, -816709.75, 466525.25, 0.00032367872, 10.004507, 9.997831 
2.5555074e+3, 1.790627e+2, -827503.6, -1271886.8, 38176.68, -0.036316108, 0.7742324, -824247.75, 361012.56, 0.000010024477, 10.003762, 9.997864 
2.5554144e+3, 1.8906036e+2, -797995.56, -1141881.5, 37046.08, -0.040178142, 0.76959395, -794049.94, 293233.44, 0.00000000010643588, 10.003013, 9.998444 
2.5553212e+3, 1.990583e+2, -802175.75, -1085412.6, 37782.242, -0.03905097, 0.76043653, -797222.4, 192081.25, 0.0, 10.002277, 9.998513 
2.5552282e+3, 2.0905669e+2, -750424.6, -940907.94, 53858.055, -0.051852882, 0.76009375, -736251.2, 155067.45, 0.0, 10.001664, 9.999127 
2.5551352e+3, 2.1905534e+2, -743356.3, -892467.56, 56320.14, -0.06644595, 0.7585617, -724474.75, 68856.13, 0.0, 10.001064, 9.999077 
2.5550425e+3, 2.2905393e+2, -728368.94, -784231.2, 44703.695, -0.064625636, 0.73203456, -703587.94, -8244.377, 0.0, 10.0002775, 9.999525 
2.5549495e+3, 2.3905273e+2, -745617.9, -735792.44, 38022.227, -0.059946734, 0.7034478, -702366.8, -105012.85, 0.0, 9.99946, 9.999579 
2.5548568e+3, 2.4905224e+2, -703062.8, -598348.9, 36361.793, -0.06655682, 0.709548, -586960.8, -87602.836, 0.0, 9.998794, 10.000172 
2.5547636e+3, 2.5905207e+2, -702335.56, -551728.1, 32616.006, -0.07556459, 0.71972066, -544968.1, -143609.25, 0.0, 9.998145, 10.000132 
2.5546703e+3, 2.6905176e+2, -687168.3, -441007.63, 17263.19, -0.073724106, 0.6980134, -439802.88, -136443.2, 0.0, 9.997349, 10.000603 
2.5545773e+3, 2.790516e+2, -710766.75, -403465.28, 19901.2, -0.067483924, 0.6658141, -402181.8, -196822.89, 0.0, 9.996522, 10.000586 
2.554484e+3, 2.8905156e+2, -684898.56, -281529.97, 16378.115, -0.08016955, 0.62291807, -280866.03, -173508.31, 0.0, 9.995772, 10.001112 
2.5543907e+3, 2.9905203e+2, -706979.06, -261471.78, 12185.758, -0.10247255, 0.6019988, -261138.72, -251786.3, 0.0, 9.995034, 10.000933 
2.5542983e+3, 3.0905384e+2, -736171.44, -206790.42, -43.471684, 0.001348495, 0.7186746, -206790.42, -206790.42, 0.0, 9.9943075, 10.001324 
2.5542033e+3, 3.190535e+2, -724601.94, 11462.41, -37257.277, -0.121181324, 0.5856609, 13343.45, 13343.45, 0.0, 9.993472, 10.003225 
2.5659826e+3, 1.2917265e+2, -874583.7, -1650869.9, 35021.57, 0.049408488, 0.72284406, -873006.94, 801171.4, 0.012658941, 10.0073395, 9.996903 
2.5658876e+3, 1.3916878e+2, -894021.6, -1621997.1, 36351.734, 0.0148149775, 0.6933704, -892210.9, 684004.44, 0.008385009, 10.006548, 9.996808 
2.565793e+3, 1.4916553e+2, -873444.06, -1513110.3, 59153.08, 0.008416416, 0.7128515, -868019.9, 610228.6, 0.0043822173, 10.005783, 9.99725 
2.5656992e+3, 1.5916261e+2, -880395.7, -1464094.4, 61536.98, 0.014715464, 0.7426657, -873978.7, 506299.97, 0.0015588306, 10.005038, 9.9972725 
2.565605e+3, 1.6915996e+2, -846895.75, -1333923.9, 67136.47, -0.006750681, 0.76600236, -837810.5, 444495.94, 0.00026859296, 10.004318, 9.997839 
2.565511e+3, 1.7915753e+2, -847478.94, -1278352.8, 60887.55, -0.035989825, 0.78477085, -839040.1, 345291.7, 0.0000068394493, 10.003618, 9.997885 
2.5654167e+3, 1.891552e+2, -800922.2, -1139961.8, 67767.34, -0.04331659, 0.77940845, -787878.7, 298476.13, 0.0, 10.002985, 9.9984665 
2.565323e+3, 1.9915314e+2, -788003.4, -1074554.3, 77037.74, -0.04455978, 0.76933336, -768605.3, 219769.75, 0.0, 10.002364, 9.998542 
2.5652295e+3, 2.0915158e+2, -748533.94, -935738.06, 83520.59, -0.05315705, 0.7716904, -716688.6, 173700.95, 0.0, 10.001666, 9.999159 
2.565136e+3, 2.1915029e+2, -757163.94, -895436.2, 72917.73, -0.06341859, 0.77317935, -725817.25, 66584.09, 0.0, 10.00096, 9.999103 
2.5650424e+3, 2.291488e+2, -719580.25, -779123.44, 70856.05, -0.06593311, 0.74070334, -672495.3, 21919.063, 0.0, 10.000341, 9.999526 
2.5649488e+3, 2.3914753e+2, -710680.3, -722004.9, 77981.016, -0.06605249, 0.7049462, -638156.3, -41730.77, 0.0, 9.999721, 9.999545 
2.564855e+3, 2.49147e+2, -692361.0, -602403.4, 69990.664, -0.06690792, 0.7172641, -564184.94, -65754.9, 0.0, 9.998915, 10.000082 
2.5647613e+3, 2.591468e+2, -715124.3, -563062.9, 57597.7, -0.06941819, 0.7357919, -543709.3, -143277.97, 0.0, 9.998087, 10.000077 
2.5646675e+3, 2.691464e+2, -676773.44, -436772.16, 45016.5, -0.07288826, 0.7072977, -428606.34, -126173.414, 0.0, 9.997431, 10.000588 
2.5645736e+3, 2.791461e+2, -675461.9, -389022.34, 51236.55, -0.07307368, 0.6656586, -380133.3, -175700.2, 0.0, 9.996782, 10.000556 
2.5644794e+3, 2.8914607e+2, -665580.94, -278095.44, 44863.48, -0.08046527, 0.6233207, -272968.94, -166536.33, 0.0, 9.995936, 10.001053 
2.5643855e+3, 2.9914647e+2, -696496.75, -246519.64, 41825.4, -0.09737595, 0.60604596, -242664.98, -234237.52, 0.0, 9.99507, 10.001014 
2.5642923e+3, 3.0914858e+2, -696446.3, -155735.94, 35756.04, -0.008599222, 0.7339504, -153381.72, -153381.72, 0.0, 9.99445, 10.001602 
2.5641966e+3, 3.19148e+2, -704605.25, -24470.436, -16524.645, -0.10925344, 0.56141335, -24069.188, -24069.188, 0.0, 9.993813, 10.0028105 
2.5759894e+3, 1.2926805e+2, -878507.75, -1660391.6, 6033.797, 0.032476857, 0.72339195, -878461.2, 794782.7, 0.011577804, 10.007332, 9.996844 
2.5758937e+3, 1.3926429e+2, -893080.4, -1620577.5, 8818.097, 0.040187538, 0.7087178, -892973.5, 682306.5, 0.0076141013, 10.006539, 9.996825 
2.5757986e+3, 1.4926106e+2, -864296.3, -1495858.9, 32249.88, 0.021653209, 0.7215822, -862653.75, 614659.0, 0.0039271945, 10.005782, 9.997372 
2.5757036e+3, 1.5925814e+2, -876877.94, -1459940.3, 34360.832, 0.007074777, 0.7405821, -874860.0, 504482.88, 0.0013596189, 10.005045, 9.997301 
2.5756088e+3, 1.692554e+2, -853333.7, -1350314.5, 41164.023, -0.005300451, 0.76231915, -849947.25, 431424.53, 0.00021868214, 10.004325, 9.997726 
2.575514e+3, 1.7925291e+2, -846105.2, -1278410.6, 36513.785, -0.021999588, 0.78277725, -843042.8, 340355.25, 0.000004450232, 10.003625, 9.997885 
2.5754192e+3, 1.8925081e+2, -789763.44, -1119908.9, 45245.574, -0.044915967, 0.7888543, -783674.94, 301743.9, 0.0, 10.002993, 9.998604 
2.5753248e+3, 1.9924894e+2, -785671.8, -1072746.6, 52585.4, -0.064314365, 0.7901311, -776342.6, 211094.14, 0.0, 10.002372, 9.998554 
2.5752306e+3, 2.0924717e+2, -759053.06, -960483.9, 56821.57, -0.059736677, 0.78198415, -744129.9, 145323.94, 0.0, 10.001673, 9.998988 
2.5751364e+3, 2.1924563e+2, -756167.2, -896328.75, 48031.996, -0.053486396, 0.7709758, -741286.9, 50181.617, 0.0, 10.000968, 9.999096 
2.5750422e+3, 2.2924446e+2, -703903.0, -749359.2, 48530.066, -0.0692633, 0.7553006, -673042.5, 20435.469, 0.0, 10.000347, 9.999731 
2.5749478e+3, 2.3924354e+2, -708087.94, -719419.6, 51678.383, -0.08557723, 0.73918706, -661765.75, -66280.63, 0.0, 9.999727, 9.999562 
2.5748536e+3, 2.4924266e+2, -708520.44, -638370.7, 37880.496, -0.07269869, 0.7331863, -621820.2, -124326.875, 0.0, 9.9989195, 9.999835 
2.574759e+3, 2.59242e+2, -722502.2, -580131.25, 29121.53, -0.05794738, 0.72740495, -574404.9, -174905.4, 0.0, 9.998089, 9.999963 
2.5746647e+3, 2.6924163e+2, -671995.2, -429635.13, 21699.068, -0.06794813, 0.70244753, -427707.7, -126207.34, 0.0, 9.997437, 10.000638 
2.57457e+3, 2.7924147e+2, -674127.94, -390456.5, 23799.15, -0.07807118, 0.6707795, -388473.7, -184974.84, 0.0, 9.996795, 10.000544 
2.574475e+3, 2.892414e+2, -671335.5, -292959.84, 10877.112, -0.08312445, 0.63425356, -292647.44, -187148.77, 0.0, 9.995943, 10.000951 
2.57438e+3, 2.9924175e+2, -690273.4, -234886.55, 13508.558, -0.098434165, 0.6167759, -234486.19, -226991.83, 0.0, 9.99507, 10.001098 
2.5742862e+3, 3.0924374e+2, -671822.2, -107891.22, 14995.457, -0.031539787, 0.7049803, -107492.76, -107492.76, 0.0, 9.994457, 10.00193 
2.5741902e+3, 3.192437e+2, -734477.7, -93132.36, -50372.195, -0.088447124, 0.5735919, -89200.164, -89200.164, 0.0, 9.9938345, 10.002332 
2.585996e+3, 1.2936425e+2, -899297.0, -1651365.4, 29515.799, 0.03350366, 0.7293206, -898140.4, 774161.5, 0.010518004, 10.007103, 9.997013 
2.5858998e+3, 1.3936062e+2, -921023.7, -1622655.0, 44905.168, 0.046013527, 0.7139122, -918161.4, 656174.94, 0.0068630436, 10.006298, 9.996923 
2.585804e+3, 1.4935742e+2, -886856.9, -1505836.3, 67118.13, 0.024647051, 0.7278701, -879662.6, 596706.25, 0.00348856, 10.005627, 9.997375 
2.5857082e+3, 1.5935451e+2, -884684.9, -1461244.3, 62246.977, 0.0060883863, 0.7472458, -878041.06, 500358.03, 0.0011716828, 10.004987, 9.997316 
2.5856125e+3, 1.6935173e+2, -858360.8, -1349685.3, 73918.63, -0.0052197375, 0.7649026, -847480.9, 432947.34, 0.00017424859, 10.004284, 9.997747 
2.5855172e+3, 1.793492e+2, -850859.0, -1278330.0, 77197.04, -0.020000167, 0.78120154, -837345.2, 345109.56, 0.0000027530195, 10.003589, 9.997899 
2.5854218e+3, 1.893471e+2, -791635.2, -1120891.8, 81099.19, -0.044803694, 0.7900319, -772743.56, 311731.9, 0.0, 10.002987, 9.998596 
2.5853267e+3, 1.9934528e+2, -781822.0, -1069937.5, 78264.35, -0.06710958, 0.7953881, -761934.8, 224558.5, 0.0, 10.002401, 9.998556 
2.5852317e+3, 2.093435e+2, -749572.6, -955473.94, 87919.5, -0.06440318, 0.78711385, -717139.8, 171370.8, 0.0, 10.001742, 9.998985 
2.585137e+3, 2.193419e+2, -741331.7, -886511.0, 88128.21, -0.05887463, 0.77531767, -699746.75, 90778.89, 0.0, 10.001065, 9.999113 
2.585042e+3, 2.293408e+2, -705530.4, -745608.8, 79425.94, -0.07084519, 0.76410544, -643654.7, 48879.82, 0.0, 10.000324, 9.999764 
2.584947e+3, 2.3933993e+2, -732524.2, -734752.06, 69719.4, -0.08349911, 0.75335264, -663909.8, -69368.805, 0.0, 9.999581, 9.999524 
2.584852e+3, 2.4933891e+2, -717508.8, -657706.44, 58260.94, -0.07209851, 0.74424917, -622121.6, -125570.71, 0.0, 9.998929, 9.999694 
2.584757e+3, 2.5933808e+2, -698221.0, -572910.8, 57200.508, -0.05934887, 0.7328309, -550727.5, -152168.36, 0.0, 9.9982815, 9.999915 
2.5846615e+3, 2.693377e+2, -649430.4, -411285.5, 52286.953, -0.07037431, 0.70524764, -400311.13, -99751.31, 0.0, 9.997566, 10.000698 
2.5845662e+3, 2.7933758e+2, -669311.8, -387255.16, 51675.855, -0.080884084, 0.67406553, -378085.7, -175527.98, 0.0, 9.996831, 10.000545 
2.5844708e+3, 2.8933755e+2, -660097.75, -296050.06, 35226.766, -0.08170779, 0.65102464, -292672.7, -188115.58, 0.0, 9.996064, 10.000868 
2.5843748e+3, 2.9933792e+2, -653539.25, -208951.88, 42004.332, -0.096227586, 0.6406512, -205018.14, -198465.22, 0.0, 9.995294, 10.001164 
2.5842798e+3, 3.0933943e+2, -626387.75, -56730.47, 42892.887, -0.061694585, 0.66576207, -53518.914, -53518.914, 0.0, 9.99465, 10.002186 
2.5841838e+3, 3.1934017e+2, -716045.4, -106941.266, -28594.754, -0.07600948, 0.5932676, -105601.81, -105601.81, 0.0, 9.994065, 10.002123 
2.5960028e+3, 1.2946123e+2, -879019.9, -1609396.6, -80.45098, 0.045888297, 0.7388947, -879019.9, 792332.8, 0.009486466, 10.007091, 9.997313 
2.5959057e+3, 1.3945773e+2, -909119.2, -1603747.1, 16357.717, 0.037588164, 0.7117597, -908734.2, 664650.8, 0.006136599, 10.006313, 9.997049 
2.595809e+3, 1.4945456e+2, -891908.25, -1520671.8, 42981.207, 0.020490047, 0.7325574, -888983.75, 586433.6, 0.0030691598, 10.005637, 9.997271 
2.5957125e+3, 1.5945165e+2, -884427.8, -1462785.1, 37325.4, 0.0102456985, 0.76072407, -882028.9, 495418.88, 0.0009963914, 10.004989, 9.997308 
2.5956166e+3, 1.6944888e+2, -849871.0, -1334657.0, 47542.508, -0.0065545524, 0.7723567, -845252.56, 434223.72, 0.0001355775, 10.00429, 9.99785 
2.5955203e+3, 1.7944634e+2, -849286.7, -1278527.8, 52689.805, -0.027875483, 0.77988327, -842913.56, 338588.84, 0.000001616493, 10.003597, 9.997896 
2.5954244e+3, 1.894441e+2, -800883.6, -1143208.0, 59609.82, -0.04284782, 0.7840519, -790800.56, 292724.4, 0.0, 10.002995, 9.998443 
2.5953287e+3, 1.9944212e+2, -782279.3, -1073528.3, 55336.414, -0.0550229, 0.78703266, -772119.94, 213424.77, 0.0, 10.002407, 9.998531 
2.595233e+3, 2.094405e+2, -739571.94, -937112.5, 62929.754, -0.067888655, 0.78789306, -721228.06, 166332.06, 0.0, 10.001747, 9.999112 
2.5951374e+3, 2.1943912e+2, -739863.56, -885756.6, 61554.305, -0.07873295, 0.78564197, -717363.1, 72209.91, 0.0, 10.001069, 9.999119 
2.595042e+3, 2.2943781e+2, -715895.1, -769422.94, 51093.805, -0.07004379, 0.7665825, -684979.9, 6604.292, 0.0, 10.000328, 9.999601 
2.5949463e+3, 2.3943672e+2, -739616.56, -751719.06, 43247.31, -0.059418783, 0.74710405, -701999.2, -108405.77, 0.0, 9.999585, 9.999408 
2.5948507e+3, 2.4943577e+2, -720340.8, -666057.6, 34243.637, -0.06545899, 0.75094527, -649503.75, -153900.9, 0.0, 9.998934, 9.999638 
2.5947547e+3, 2.5943503e+2, -696838.75, -573208.5, 31679.178, -0.07517467, 0.753647, -565563.7, -167953.56, 0.0, 9.99829, 9.999912 
2.5946584e+3, 2.6943457e+2, -645054.94, -404886.63, 24491.873, -0.08088459, 0.71638656, -402414.44, -102803.11, 0.0, 9.997572, 10.000742 
2.5945625e+3, 2.7943438e+2, -669468.8, -389234.9, 23452.791, -0.08090049, 0.6752132, -387285.72, -185675.92, 0.0, 9.996832, 10.000533 
2.5944662e+3, 2.8943455e+2, -665086.3, -308924.94, 5983.114, -0.07530292, 0.67529255, -308824.44, -205216.66, 0.0, 9.996069, 10.00078 
2.5943696e+3, 2.99435e+2, -650523.5, -206726.86, 15568.989, -0.09019324, 0.6808508, -206181.34, -200578.52, 0.0, 9.995305, 10.001178 
2.5942737e+3, 3.094357e+2, -615488.5, -37750.96, 19007.693, -0.101504594, 0.6128218, -37126.28, -37126.28, 0.0, 9.994659, 10.0023155 
2.5941774e+3, 3.194374e+2, -701529.5, -81690.46, -47479.94, -0.077059396, 0.6276737, -78074.57, -78074.57, 0.0, 9.99408, 10.002293 
2.6060092e+3, 1.2955886e+2, -920804.7, -1631826.5, 31344.121, 0.0510388, 0.7409662, -919425.6, 750970.7, 0.008488884, 10.00681, 9.997289 
2.6059115e+3, 1.3955551e+2, -909606.5, -1601155.8, 30040.504, 0.03422772, 0.7291033, -908304.0, 664123.75, 0.0054388824, 10.0063, 9.99707 
2.6058143e+3, 1.4955232e+2, -894660.75, -1513581.0, 60430.887, 0.017897464, 0.7446442, -888815.5, 585644.5, 0.0026716338, 10.005587, 9.997341 
2.6057172e+3, 1.5954939e+2, -899374.56, -1461785.8, 63623.273, 0.010528485, 0.76449835, -892266.94, 484223.47, 0.0008349973, 10.004856, 9.9973755 
2.6056203e+3, 1.6954665e+2, -857070.4, -1331289.9, 73212.65, -0.0046440354, 0.7737831, -846024.7, 432493.7, 0.000102769925, 10.004217, 9.997905 
2.6055235e+3, 1.7954415e+2, -847494.3, -1274481.9, 76453.33, -0.025010474, 0.78006387, -834217.94, 346326.06, 0.0000008911083, 10.003603, 9.997918 
2.605427e+3, 1.8954186e+2, -805289.3, -1148632.6, 90124.02, -0.039897297, 0.7832097, -783070.5, 299496.47, 0.0, 10.002986, 9.998406 
2.6053306e+3, 1.9953983e+2, -788762.6, -1076333.5, 90195.38, -0.052152827, 0.7858828, -762814.56, 221772.8, 0.0, 10.002368, 9.998528 
2.6052344e+3, 2.0953827e+2, -744545.1, -935994.2, 90559.23, -0.06788366, 0.7914164, -708496.5, 178106.02, 0.0, 10.001705, 9.999137 
2.6051378e+3, 2.1953695e+2, -745660.44, -888365.9, 81559.83, -0.082280315, 0.79458284, -708647.06, 79968.03, 0.0, 10.001036, 9.999113 
2.605042e+3, 2.2953561e+2, -716013.0, -775274.7, 74804.5, -0.07474141, 0.77851915, -665184.5, 25442.105, 0.0, 10.00036, 9.999542 
2.6049456e+3, 2.3953445e+2, -729012.3, -750504.1, 74315.625, -0.06351401, 0.7600993, -664669.7, -72033.086, 0.0, 9.999682, 9.999366 
2.6048487e+3, 2.4953337e+2, -712917.1, -664091.3, 68963.2, -0.06539184, 0.7559321, -615347.44, -120700.46, 0.0, 9.998999, 9.999616 
2.6047525e+3, 2.5953254e+2, -694818.6, -573390.8, 66631.26, -0.07249962, 0.751403, -543960.94, -147305.89, 0.0, 9.998316, 9.999895 
2.6046556e+3, 2.695321e+2, -635984.6, -403643.97, 52643.38, -0.08503329, 0.72128135, -392272.66, -93616.35, 0.0, 9.997655, 10.000707 
2.6045588e+3, 2.79532e+2, -647724.44, -378259.5, 45184.918, -0.09066995, 0.68949944, -370884.56, -170229.89, 0.0, 9.996986, 10.000531 
2.604462e+3, 2.8953218e+2, -636274.7, -290923.38, 32171.135, -0.0738798, 0.6978749, -287952.06, -185300.42, 0.0, 9.996255, 10.000811 
2.6043648e+3, 2.9953268e+2, -625070.06, -195793.22, 48333.29, -0.08110544, 0.70493996, -190418.55, -185772.22, 0.0, 9.995492, 10.001159 
2.6042676e+3, 3.0953282e+2, -619197.25, -48962.45, 37808.87, -0.13040878, 0.5856351, -46466.492, -46466.492, 0.0, 9.99468, 10.002224 
2.604171e+3, 3.1953526e+2, -690777.44, -41866.957, -27575.941, -0.07499594, 0.67262775, -40697.203, -40697.203, 0.0, 9.994011, 10.002596 
2.6160157e+3, 1.296572e+2, -934220.7, -1668292.6, 12608.595, 0.051367797, 0.7387156, -934004.2, 735429.0, 0.0075298906, 10.006835, 9.997028 
2.6159173e+3, 1.3965397e+2, -914123.0, -1610991.3, 8424.86, 0.03445059, 0.7606172, -914021.2, 657443.44, 0.0047735106, 10.006291, 9.99701 
2.6158193e+3, 1.4965074e+2, -882249.0, -1488918.4, 33363.82, 0.016256994, 0.76191485, -880419.6, 593077.1, 0.0022983176, 10.005584, 9.997515 
2.6157215e+3, 1.5964775e+2, -890903.8, -1447514.8, 37888.582, 0.007828309, 0.76083374, -888336.6, 487190.4, 0.0006884354, 10.004864, 9.997473 
2.615624e+3, 1.6964506e+2, -855801.7, -1331987.5, 50308.688, 0.0000067650585, 0.7706974, -850544.7, 427009.78, 0.00007568496, 10.004226, 9.997899 
2.6155266e+3, 1.7964257e+2, -844433.5, -1271130.5, 53603.19, -0.013432883, 0.78155327, -837802.75, 341776.75, 0.0000004527979, 10.003611, 9.997941 
2.6154295e+3, 1.8964034e+2, -801224.2, -1142741.3, 67420.18, -0.036445357, 0.78669935, -788396.3, 293205.44, 0.0, 10.002991, 9.998446 
2.6153326e+3, 1.9963837e+2, -788829.7, -1078624.5, 66428.33, -0.057327185, 0.79086304, -774328.25, 209293.36, 0.0, 10.002372, 9.998513 
2.6152354e+3, 2.0963675e+2, -750394.3, -950098.75, 65630.44, -0.06427495, 0.79726195, -730756.7, 154881.34, 0.0, 10.001708, 9.999042 
2.6151386e+3, 2.1963537e+2, -747293.8, -893842.56, 56281.9, -0.07068849, 0.8025845, -728173.44, 59478.37, 0.0, 10.001039, 9.999077 
2.6150414e+3, 2.2963418e+2, -713575.6, -772580.9, 49471.57, -0.08573661, 0.80032057, -685477.56, 4184.3833, 0.0, 10.000364, 9.999562 
2.6149443e+3, 2.3963313e+2, -727423.3, -749690.3, 48858.465, -0.096349806, 0.7923672, -688445.9, -96775.31, 0.0, 9.999687, 9.9993725 
2.6148474e+3, 2.4963175e+2, -712594.06, -665795.7, 43158.273, -0.07136197, 0.7581007, -640101.56, -146418.22, 0.0, 9.999003, 9.999605 
2.6147506e+3, 2.596306e+2, -698394.75, -582885.3, 41409.73, -0.049322415, 0.7236219, -569574.06, -173880.08, 0.0, 9.998319, 9.999831 
2.6146528e+3, 2.696303e+2, -645613.4, -426009.22, 27741.025, -0.08255595, 0.7198532, -422559.1, -124864.305, 0.0, 9.99766, 10.000554 
2.614555e+3, 2.7963036e+2, -647271.3, -380132.3, 18789.566, -0.11231194, 0.71937746, -378817.22, -179124.92, 0.0, 9.996992, 10.000518 
2.614458e+3, 2.8963062e+2, -624387.6, -269395.9, 3996.7356, -0.07847213, 0.7174297, -269350.9, -167662.23, 0.0, 9.996263, 10.000958 
2.61436e+3, 2.99631e+2, -630480.75, -210063.44, 19186.248, -0.06780099, 0.70917845, -209189.67, -205506.25, 0.0, 9.995499, 10.0010605 
2.6142618e+3, 3.0963087e+2, -648391.25, -109354.86, 5442.811, -0.1441295, 0.59539723, -109299.91, -109299.91, 0.0, 9.994674, 10.001816 
2.6141647e+3, 3.1963345e+2, -658554.4, 26231.709, -35614.824, -0.074544854, 0.71807784, 28079.006, 28079.006, 0.0, 9.9939995, 10.003073 
2.626022e+3, 1.2975626e+2, -927237.6, -1656408.9, 27914.195, 0.04327482, 0.7553406, -926170.56, 742292.9, 0.0066139484, 10.006846, 9.997101 
2.6259232e+3, 1.3975294e+2, -948662.6, -1618996.4, 40171.676, 0.0382806, 0.7648106, -946263.8, 624231.6, 0.0041437745, 10.006019, 9.997084 
2.6258242e+3, 1.497498e+2, -906414.25, -1492279.1, 63313.285, 0.01972868, 0.7671076, -899650.2, 572876.6, 0.0019510739, 10.005386, 9.997583 
2.625726e+3, 1.5974689e+2, -896467.5, -1442603.5, 62344.305, 0.008934565, 0.76840097, -889441.0, 485115.25, 0.00055719406, 10.004799, 9.997534 
2.6256278e+3, 1.6974421e+2, -859659.3, -1328595.4, 76611.38, -0.0015785984, 0.7775503, -847460.44, 429122.78, 0.00005395294, 10.004184, 9.997939 
2.6255298e+3, 1.7974174e+2, -846851.25, -1264789.6, 81660.664, -0.016889837, 0.78663754, -831462.25, 347145.75, 0.00000020882742, 10.003569, 9.998001 
2.625432e+3, 1.8973951e+2, -805053.5, -1136052.0, 96574.28, -0.03686478, 0.7861032, -778937.06, 301693.0, 0.0, 10.002935, 9.998516 
2.6253343e+3, 1.9973753e+2, -799750.7, -1082719.8, 95496.8, -0.05466959, 0.7861717, -770538.06, 212111.63, 0.0, 10.002298, 9.998516 
2.6252368e+3, 2.0973593e+2, -769196.06, -968178.0, 93846.43, -0.06301839, 0.8025616, -731918.56, 152747.88, 0.0, 10.001625, 9.998954 
2.625139e+3, 2.1973458e+2, -761858.44, -903938.7, 84878.92, -0.07176271, 0.8183812, -722213.75, 64467.02, 0.0, 10.000959, 9.9990425 
2.6250413e+3, 2.2973336e+2, -712561.56, -770070.8, 77819.6, -0.091884285, 0.8144102, -658354.06, 30337.146, 0.0, 10.000369, 9.999573 
2.6249436e+3, 2.3973228e+2, -712871.0, -738514.5, 74896.8, -0.1069572, 0.80296826, -649706.4, -59006.332, 0.0, 9.999776, 9.999403 
2.6248458e+3, 2.497309e+2, -700075.25, -653875.7, 70446.86, -0.07516525, 0.7647656, -602838.0, -110125.48, 0.0, 9.999071, 9.999651 
2.6247483e+3, 2.597297e+2, -693297.25, -578648.0, 73518.14, -0.045175817, 0.72666526, -542746.94, -148023.95, 0.0, 9.998353, 9.999841 
2.62465e+3, 2.6972944e+2, -644705.44, -431000.7, 66816.39, -0.08045495, 0.72751015, -411829.8, -115105.63, 0.0, 9.997696, 10.000499 
2.6245517e+3, 2.797295e+2, -638721.9, -375298.63, 62860.836, -0.11390754, 0.731975, -361066.97, -162344.78, 0.0, 9.997054, 10.000518 
2.6244536e+3, 2.8972965e+2, -587782.2, -244936.22, 41450.164, -0.07993284, 0.7218704, -239996.06, -139277.13, 0.0, 9.996491, 10.001013 
2.624355e+3, 2.9973003e+2, -584647.0, -200172.92, 44637.31, -0.06917489, 0.7093421, -195058.58, -192344.66, 0.0, 9.9958725, 10.000945 
2.6242557e+3, 3.0973e+2, -645115.25, -143066.23, 28512.17, -0.15102087, 0.63324296, -141452.17, -141452.17, 0.0, 9.994855, 10.001494 
2.624158e+3, 3.1973222e+2, -642695.1, 73078.41, 16264.07, -0.07667503, 0.7383841, 73447.77, 73447.77, 0.0, 9.993945, 10.003417 
2.6360282e+3, 1.2985599e+2, -908229.75, -1617691.0, -2490.7822, 0.029770844, 0.7836261, -908221.0, 759266.2, 0.005745525, 10.006838, 9.9973755 
2.6359284e+3, 1.3985248e+2, -935588.8, -1598392.0, 12655.567, 0.04464202, 0.7494701, -935347.25, 634172.94, 0.0035525793, 10.006038, 9.997219 
2.6358294e+3, 1.4984947e+2, -906308.0, -1495909.8, 41412.453, 0.026862092, 0.76408803, -903413.44, 568137.0, 0.0016312188, 10.005395, 9.997557 
2.6357302e+3, 1.5984674e+2, -895109.56, -1440645.9, 40054.453, 0.012748217, 0.7847258, -892184.4, 481394.06, 0.00044133727, 10.004797, 9.997552 
2.6356313e+3, 1.6984409e+2, -855155.0, -1321138.5, 54124.934, -0.008384613, 0.7920697, -848950.9, 426654.2, 0.000037032223, 10.004186, 9.997992 
2.6355326e+3, 1.7984162e+2, -840664.44, -1254874.4, 58817.242, -0.032610122, 0.7945206, -832474.4, 345155.34, 0.00000008618296, 10.003575, 9.998069 
2.6354343e+3, 1.8983935e+2, -799193.0, -1126077.5, 73311.8, -0.040213685, 0.78196543, -783504.06, 296147.8, 0.0, 10.002939, 9.998586 
2.6353362e+3, 1.9983733e+2, -799524.4, -1083945.3, 71097.8, -0.045247093, 0.77327967, -782742.0, 198929.69, 0.0, 10.0023, 9.998509 
2.635238e+3, 2.0983583e+2, -775572.7, -983378.6, 68635.93, -0.06434481, 0.8077448, -754949.7, 128738.266, 0.0, 10.001628, 9.998851 
2.6351395e+3, 2.1983455e+2, -764810.4, -912359.8, 61407.574, -0.084624164, 0.8409927, -742597.56, 43104.49, 0.0, 10.000964, 9.998985 
2.6350412e+3, 2.2983314e+2, -713047.0, -773420.25, 56325.38, -0.09258735, 0.8200897, -679329.2, 8385.35, 0.0, 10.000374, 9.999551 
2.6349428e+3, 2.398319e+2, -709580.94, -734008.56, 50562.887, -0.09504525, 0.7918147, -669777.6, -80052.44, 0.0, 9.999781, 9.999434 
2.6348445e+3, 2.4983081e+2, -693388.1, -642157.9, 43074.164, -0.07758449, 0.7774247, -617658.0, -125923.43, 0.0, 9.999075, 9.999732 
2.634746e+3, 2.5982997e+2, -687879.9, -569365.2, 47784.992, -0.062101293, 0.76382065, -552498.7, -158756.97, 0.0, 9.998356, 9.999906 
2.6346472e+3, 2.6982954e+2, -641836.44, -426860.7, 42611.75, -0.07793108, 0.74448746, -418722.44, -122978.266, 0.0, 9.997698, 10.000529 
2.6345482e+3, 2.7982935e+2, -639218.06, -378255.97, 41060.76, -0.0916052, 0.7235993, -371947.8, -174203.6, 0.0, 9.997057, 10.000499 
2.6344496e+3, 2.8982937e+2, -591821.7, -257299.11, 21471.9, -0.07839993, 0.7081222, -255926.53, -156184.17, 0.0, 9.996503, 10.000925 
2.6343504e+3, 2.9982975e+2, -592442.7, -221852.69, 14333.705, -0.08937936, 0.7048783, -221299.13, -219561.34, 0.0, 9.995891, 10.000791 
2.6342502e+3, 3.0983028e+2, -660837.56, -177460.03, -12989.689, -0.14783822, 0.708823, -177111.22, -177111.22, 0.0, 9.994856, 10.00126 
2.6341513e+3, 3.1983137e+2, -637186.44, 86114.4, 5572.5625, -0.08863729, 0.7139422, 86157.33, 86157.33, 0.0, 9.993933, 10.003516 
2.6460344e+3, 1.2995623e+2, -946367.7, -1634753.1, 31004.254, 0.042284157, 0.7799505, -944974.1, 721531.2, 0.004929091, 10.006569, 9.997383 
2.6459342e+3, 1.399529e+2, -933668.06, -1592861.9, 32013.309, 0.03277909, 0.7615545, -932117.0, 636420.06, 0.003002759, 10.006034, 9.997255 
2.645834e+3, 1.4994994e+2, -916114.5, -1493717.8, 61985.79, 0.021018632, 0.7771915, -909537.4, 561029.56, 0.0013399504, 10.005303, 9.997612 
2.6457345e+3, 1.5994723e+2, -920637.6, -1442665.6, 66865.39, 0.015982687, 0.79584426, -912209.1, 460385.44, 0.00034078036, 10.004583, 9.997637 
2.645635e+3, 1.699446e+2, -868063.7, -1315000.0, 86436.25, -0.008435362, 0.79575, -851929.56, 422691.2, 0.000024306342, 10.004051, 9.9980955 
2.6455358e+3, 1.7994216e+2, -840830.9, -1244023.5, 90880.33, -0.037108332, 0.79230106, -821293.06, 355351.84, 0.000000030267113, 10.003534, 9.998159 
2.6454368e+3, 1.8994004e+2, -806716.7, -1122140.0, 102491.09, -0.042838886, 0.7889554, -776339.56, 302326.03, 0.0, 10.002862, 9.998646 
2.645338e+3, 1.9993815e+2, -817447.2, -1091310.6, 99535.93, -0.045200713, 0.7892489, -785093.06, 195591.22, 0.0, 10.002179, 9.998514 
2.645239e+3, 2.0993651e+2, -791561.7, -997540.56, 99045.34, -0.06458319, 0.8166059, -751663.75, 131038.27, 0.0, 10.001554, 9.998786 
2.64514e+3, 2.1993509e+2, -771162.0, -916927.9, 94076.46, -0.08547935, 0.8423866, -725039.5, 59678.24, 0.0, 10.000934, 9.998965 
2.645041e+3, 2.2993372e+2, -727355.2, -778823.06, 91024.56, -0.091349, 0.8271644, -658496.8, 28233.096, 0.0, 10.000277, 9.999557 
2.644942e+3, 2.3993252e+2, -729280.6, -738626.44, 85961.2, -0.091992, 0.8053132, -647865.44, -59125.28, 0.0, 9.999632, 9.999471 
2.6448432e+3, 2.499315e+2, -686756.8, -631536.4, 76261.805, -0.0808491, 0.79182607, -578040.56, -87291.5, 0.0, 9.999095, 9.999792 
2.644744e+3, 2.599307e+2, -657242.6, -548074.1, 77537.34, -0.07106401, 0.779304, -507834.97, -115079.3, 0.0, 9.998545, 9.999958 
2.6446447e+3, 2.699303e+2, -620576.56, -413346.53, 69284.22, -0.07569885, 0.7609455, -392316.56, -97558.92, 0.0, 9.997836, 10.000552 
2.644545e+3, 2.7993008e+2, -630106.06, -373417.44, 69867.03, -0.07888746, 0.7379825, -355632.84, -158875.11, 0.0, 9.997125, 10.000497 
2.6444456e+3, 2.8992996e+2, -582610.8, -256871.86, 55316.29, -0.08158439, 0.70769835, -247734.48, -148976.73, 0.0, 9.99659, 10.000883 
2.6443458e+3, 2.999302e+2, -576116.1, -219727.94, 43166.055, -0.10548111, 0.69868124, -214574.14, -213819.75, 0.0, 9.996033, 10.000733 
2.6442447e+3, 3.0993128e+2, -616622.7, -164641.61, 16507.674, -0.12629819, 0.7652073, -164039.5, -164039.5, 0.0, 9.995202, 10.001179 
2.644145e+3, 3.1993145e+2, -589175.9, 87328.43, 58266.523, -0.098150775, 0.69551253, 92310.17, 92310.17, 0.0, 9.994362, 10.003314 
2.6560408e+3, 1.3005704e+2, -955683.1, -1660880.3, 12680.023, 0.07094821, 0.7565422, -955455.2, 710062.3, 0.00416967, 10.006588, 9.997197 
2.6559392e+3, 1.4005409e+2, -936126.8, -1599545.9, 9821.067, 0.0077291448, 0.79334784, -935981.44, 631565.1, 0.0024976241, 10.006032, 9.997213 
2.6558387e+3, 1.5005113e+2, -908209.94, -1480417.6, 35148.227, 0.005989231, 0.80151093, -906059.06, 563517.44, 0.0010787813, 10.00531, 9.997704 
2.6557386e+3, 1.6004835e+2, -909888.25, -1425475.9, 44293.766, 0.018832032, 0.80286396, -906110.7, 465493.94, 0.00025548867, 10.0046, 9.99775 
2.6556388e+3, 1.7004572e+2, -858225.94, -1297223.4, 68674.71, -0.0031350355, 0.7909663, -847733.56, 425896.84, 0.000015147828, 10.004057, 9.998218 
2.655539e+3, 1.8004334e+2, -835006.8, -1232283.9, 68962.625, -0.032604042, 0.78215516, -823376.2, 352277.38, 0.000000007503701, 10.0035305, 9.998244 
2.655439e+3, 1.9004153e+2, -804295.4, -1118144.3, 76767.5, -0.045200635, 0.80591434, -786524.25, 291147.28, 0.0, 10.002861, 9.998676 
2.6553395e+3, 2.000399e+2, -817201.94, -1092785.6, 75076.41, -0.05329486, 0.83008814, -798076.44, 181611.72, 0.0, 10.002182, 9.998505 
2.65524e+3, 2.1003793e+2, -794466.94, -1005581.6, 76249.88, -0.06343511, 0.82782453, -769807.56, 111901.375, 0.0, 10.001556, 9.998732 
2.6551408e+3, 2.2003616e+2, -771025.7, -918571.7, 70274.01, -0.0751398, 0.8241133, -742912.0, 40815.656, 0.0, 10.0009365, 9.998955 
2.655041e+3, 2.300351e+2, -725655.9, -777438.4, 66196.76, -0.0886639, 0.8367248, -680467.1, 5270.2393, 0.0, 10.00028, 9.999567 
2.654941e+3, 2.400342e+2, -727245.3, -736539.75, 63829.324, -0.09801599, 0.8437563, -667894.25, -80149.195, 0.0, 9.999636, 9.999486 
2.6548415e+3, 2.5003293e+2, -684805.3, -629828.75, 56763.063, -0.08466047, 0.8069639, -594248.4, -104492.22, 0.0, 9.9991, 9.9998045 
2.654742e+3, 2.600319e+2, -654994.6, -546229.75, 53958.004, -0.07130808, 0.77077764, -524003.3, -132238.31, 0.0, 9.998551, 9.9999695 
2.654642e+3, 2.7003178e+2, -620311.25, -415076.8, 41316.55, -0.07427874, 0.7777763, -407071.47, -113306.94, 0.0, 9.99784, 10.000541 
2.6545417e+3, 2.800318e+2, -629991.8, -374786.88, 46512.67, -0.077742755, 0.7797127, -366573.97, -170811.69, 0.0, 9.997126, 10.000489 
2.6544416e+3, 2.900314e+2, -582697.25, -258801.92, 36277.555, -0.09024938, 0.7232892, -254788.44, -157023.69, 0.0, 9.996592, 10.000872 
2.6543412e+3, 3.000314e+2, -572118.1, -213402.55, 17882.854, -0.115963176, 0.68985075, -212513.25, -212513.25, 0.0, 9.996036, 10.000778 
2.65424e+3, 3.1003293e+2, -607266.94, -150577.4, -14715.753, -0.08034689, 0.79453504, -150103.72, -150103.72, 0.0, 9.995219, 10.001269 
2.6541388e+3, 3.200328e+2, -632504.6, -10008.431, 34857.58, -0.10635208, 0.69966906, -8062.612, -8062.612, 0.0, 9.994389, 10.002636 
2.666047e+3, 1.3015893e+2, -967822.3, -1665618.3, 38744.03, 0.07140662, 0.7733132, -965677.75, 698841.9, 0.0034725848, 10.006501, 9.997204 
2.6659447e+3, 1.4015582e+2, -967975.0, -1609990.4, 44086.74, 0.012961407, 0.7934926, -964961.75, 601588.6, 0.0020405843, 10.0057955, 9.997252 
2.6658434e+3, 1.5015292e+2, -921038.9, -1479527.1, 68772.195, 0.003405838, 0.80390763, -912694.94, 555884.75, 0.00084913895, 10.005197, 9.997761 
2.6657426e+3, 1.6015024e+2, -901371.1, -1410259.8, 76448.766, 0.009225894, 0.80929834, -890134.56, 480472.3, 0.00018524322, 10.004617, 9.997843 
2.6656422e+3, 1.701477e+2, -866884.0, -1288376.8, 100434.42, -0.007104397, 0.7987157, -844175.7, 428455.78, 0.000008907801, 10.003948, 9.998327 
2.6655418e+3, 1.8014541e+2, -866517.3, -1239614.8, 98178.77, -0.029912928, 0.79059494, -842259.25, 332394.38, 0.00000000078673257, 10.003287, 9.998307 
2.6654413e+3, 1.9014362e+2, -828696.8, -1128613.3, 103160.29, -0.041371465, 0.8133495, -796639.9, 280031.88, 0.0, 10.002695, 9.998681 
2.6653412e+3, 2.0014195e+2, -826541.44, -1094790.3, 99970.43, -0.049834225, 0.8368756, -793383.3, 185305.3, 0.0, 10.002114, 9.998521 
2.665241e+3, 2.1014e+2, -802381.06, -1006671.75, 104929.1, -0.062406313, 0.83438784, -758089.44, 122619.84, 0.0, 10.001497, 9.998749 
2.665141e+3, 2.2013822e+2, -778563.1, -921284.94, 102290.52, -0.07599581, 0.8298451, -725201.44, 57526.484, 0.0, 10.000888, 9.998956 
2.6650408e+3, 2.3013712e+2, -720702.9, -778527.94, 95334.3, -0.08906025, 0.8431195, -649993.3, 34744.85, 0.0, 10.000336, 9.99953 
2.6649404e+3, 2.4013622e+2, -705743.4, -724357.0, 90169.58, -0.09849737, 0.85254824, -624401.6, -37655.313, 0.0, 9.999782, 9.9994955 
2.6648402e+3, 2.5013503e+2, -671739.3, -618110.9, 84538.72, -0.08918196, 0.82112765, -556235.75, -67478.84, 0.0, 9.999173, 9.999846 
2.66474e+3, 2.6013407e+2, -649830.56, -538722.0, 82203.695, -0.078841485, 0.78864294, -495060.72, -104295.38, 0.0, 9.998572, 10.000009 
2.6646394e+3, 2.701339e+2, -586583.56, -396440.6, 69405.46, -0.07578701, 0.79267764, -373801.8, -81036.96, 0.0, 9.998068, 10.000556 
2.6645386e+3, 2.801339e+2, -573577.6, -347715.66, 74357.94, -0.07439376, 0.7926625, -325433.8, -130671.17, 0.0, 9.9975195, 10.000483 
2.664438e+3, 2.901335e+2, -568407.25, -255524.42, 60469.438, -0.09688819, 0.7401642, -244244.44, -147479.28, 0.0, 9.996711, 10.0008335 
2.6643366e+3, 3.001335e+2, -584931.44, -213695.13, 40438.152, -0.12578103, 0.70685834, -209341.31, -209341.31, 0.0, 9.995929, 10.000825 
2.6642352e+3, 3.101349e+2, -554852.56, -111398.4, 8920.423, -0.03889857, 0.7901976, -111219.03, -111219.03, 0.0, 9.995525, 10.001389 
2.6641327e+3, 3.2013476e+2, -584649.4, -49793.926, 55660.43, -0.113024846, 0.7017616, -44062.957, -44062.957, 0.0, 9.994993, 10.0020685 
2.6760527e+3, 1.3026175e+2, -958148.25, -1649258.3, 11489.368, 0.054117914, 0.8150632, -957957.3, 705555.94, 0.0028418284, 10.006508, 9.997315 
2.6759502e+3, 1.402581e+2, -961206.9, -1599671.4, 19399.06, 0.039542746, 0.7712803, -960618.0, 604930.56, 0.0016339264, 10.005803, 9.997322 
2.675848e+3, 1.5025532e+2, -919119.06, -1477462.0, 47690.676, 0.009153663, 0.791153, -915074.9, 552501.8, 0.00065153284, 10.0051985, 9.997777 
2.6757467e+3, 1.6025285e+2, -897344.3, -1402358.1, 53488.77, -0.009956011, 0.81554025, -891741.2, 477860.72, 0.0001292899, 10.004613, 9.997902 
2.6756456e+3, 1.7025052e+2, -860936.9, -1277500.9, 75577.586, -0.018099688, 0.81644773, -847648.7, 423975.97, 0.000004893997, 10.00395, 9.998404 
2.6755443e+3, 1.8024834e+2, -863748.9, -1236384.4, 74946.05, -0.028526196, 0.813828, -849240.3, 324405.44, 0.0000000000015442105, 10.003293, 9.998329 
2.675444e+3, 1.9024625e+2, -830598.0, -1134584.4, 82093.66, -0.03215922, 0.81198573, -809844.9, 265821.56, 0.0, 10.002699, 9.998641 
2.6753432e+3, 2.0024437e+2, -824700.6, -1092624.8, 77950.52, -0.036490187, 0.8142524, -803672.0, 174013.55, 0.0, 10.002116, 9.998537 
2.675242e+3, 2.1024273e+2, -797221.94, -998172.5, 81908.34, -0.061958198, 0.83788717, -768066.0, 111637.06, 0.0, 10.001502, 9.998808 
2.6751414e+3, 2.2024125e+2, -778483.7, -923665.56, 80525.17, -0.08748644, 0.8579196, -742659.94, 39058.94, 0.0, 10.000895, 9.9989395 
2.6750407e+3, 2.3023981e+2, -727115.3, -794125.44, 74953.375, -0.09217216, 0.8451703, -678519.25, 5213.328, 0.0, 10.00034, 9.999423 
2.6749396e+3, 2.4023858e+2, -705884.9, -726870.6, 68317.13, -0.093355216, 0.8312719, -647259.5, -61515.535, 0.0, 9.999786, 9.999479 
2.674839e+3, 2.502378e+2, -667392.1, -611186.44, 61186.62, -0.0947596, 0.83556706, -571957.5, -84206.22, 0.0, 9.999177, 9.999894 
2.674738e+3, 2.6023722e+2, -646016.8, -532734.0, 61634.42, -0.09455678, 0.8356705, -505667.3, -115910.93, 0.0, 9.998575, 10.000051 
2.6746368e+3, 2.7023673e+2, -583388.3, -393259.94, 51105.06, -0.080531955, 0.80406564, -380393.94, -88635.266, 0.0, 9.998077, 10.000576 
2.6745355e+3, 2.802364e+2, -573283.75, -352020.72, 48793.84, -0.068439595, 0.7712616, -341738.34, -147979.14, 0.0, 9.997536, 10.000448 
2.674434e+3, 2.9023632e+2, -574953.8, -270291.47, 27576.482, -0.10103945, 0.7600503, -267815.5, -172056.78, 0.0, 9.996711, 10.000735 
2.6743317e+3, 3.0023652e+2, -585231.56, -212027.97, 18502.45, -0.13491307, 0.7560876, -211112.92, -211112.92, 0.0, 9.9959135, 10.000846 
2.6742306e+3, 3.1023702e+2, -543150.94, -92338.57, -2970.8489, -0.0044000484, 0.73797584, -92318.99, -92318.99, 0.0, 9.995542, 10.001514 
2.6741272e+3, 3.2023752e+2, -607750.06, -107847.336, 17669.91, -0.1125713, 0.7164461, -107223.55, -107223.55, 0.0, 9.99503, 10.001655 
2.6860586e+3, 1.3036485e+2, -977365.9, -1644495.5, 25821.637, 0.062041596, 0.83338946, -976367.94, 686136.44, 0.0022789391, 10.006317, 9.9974375 
2.6859555e+3, 1.403613e+2, -975902.25, -1593348.8, 35750.37, 0.035199024, 0.7870778, -973839.2, 590699.1, 0.0012779736, 10.005649, 9.9974375 
2.6858526e+3, 1.5035857e+2, -942162.8, -1477244.0, 69626.69, 0.0075393915, 0.8020316, -933251.1, 533314.7, 0.00048512046, 10.004997, 9.997871 
2.6857504e+3, 1.6035612e+2, -925795.6, -1404365.4, 78578.91, -0.007938086, 0.8224555, -913223.56, 455366.88, 0.00008624305, 10.004374, 9.998 
2.6856488e+3, 1.7035387e+2, -878002.56, -1275816.5, 100838.875, -0.01518973, 0.82495344, -853901.75, 416710.6, 0.0000024600215, 10.003797, 9.998486 
2.6855475e+3, 1.8035181e+2, -868900.44, -1230140.4, 100616.58, -0.02486584, 0.8241134, -842766.3, 329866.34, 0.0, 10.003226, 9.998401 
2.6854458e+3, 1.9034973e+2, -841011.6, -1133389.5, 112828.805, -0.028102856, 0.8191894, -802534.5, 272118.5, 0.0, 10.002607, 9.99869 
2.6853448e+3, 2.0034783e+2, -840958.25, -1098996.3, 112977.25, -0.032410197, 0.8175736, -798484.5, 178187.63, 0.0, 10.002006, 9.998543 
2.6852432e+3, 2.1034613e+2, -801345.9, -1004098.94, 111707.586, -0.059562095, 0.8400451, -751872.2, 126817.89, 0.0, 10.001497, 9.998766 
2.6851416e+3, 2.203446e+2, -765615.25, -916378.9, 104027.914, -0.086912, 0.85990083, -712528.3, 68178.016, 0.0, 10.000984, 9.998942 
2.6850402e+3, 2.3034315e+2, -723594.75, -789443.7, 104487.61, -0.091923766, 0.8460901, -646967.0, 35753.004, 0.0, 10.000359, 9.999443 
2.684939e+3, 2.4034193e+2, -712018.1, -727971.06, 105386.52, -0.09362669, 0.83183205, -614306.7, -29575.107, 0.0, 9.9997425, 9.999489 
2.6848376e+3, 2.503412e+2, -656175.6, -606617.9, 94967.62, -0.099757634, 0.8448564, -533249.7, -46511.164, 0.0, 9.999264, 9.999881 
2.684736e+3, 2.603407e+2, -615709.25, -514710.0, 90691.055, -0.103287034, 0.85302126, -461406.53, -72663.16, 0.0, 9.9987755, 10.000074 
2.6846346e+3, 2.7034014e+2, -567792.4, -381125.16, 79540.55, -0.08313242, 0.81368786, -351829.8, -61083.66, 0.0, 9.998172, 10.000611 
2.6845327e+3, 2.8033978e+2, -572469.94, -350129.25, 73602.1, -0.06520145, 0.7744836, -327972.5, -135225.42, 0.0, 9.997541, 10.000455 
2.6844302e+3, 2.9033986e+2, -553808.75, -262702.2, 52079.832, -0.10138038, 0.7809515, -253665.47, -158920.45, 0.0, 9.996874, 10.000706 
2.684327e+3, 3.0034006e+2, -540039.56, -193238.19, 54696.563, -0.13683295, 0.7830524, -184816.13, -184816.13, 0.0, 9.996243, 10.0008135 
2.684226e+3, 3.1033972e+2, -490595.66, -70703.59, 29149.697, 0.010478382, 0.68651456, -68689.625, -68689.625, 0.0, 9.995925, 10.001475 
2.6841217e+3, 3.2034087e+2, -558668.25, -92228.016, 16504.361, -0.11507197, 0.7362587, -91644.76, -91644.76, 0.0, 9.995408, 10.001576 
2.6960647e+3, 1.3046837e+2, -968606.3, -1628383.1, 1689.6099, 0.08523689, 0.8378096, -968602.0, 692889.9, 0.0017836442, 10.006317, 9.99755 
2.69596e+3, 1.404653e+2, -966256.25, -1574658.3, 11927.164, 0.008996881, 0.82925564, -966022.5, 597498.1, 0.00097145094, 10.005648, 9.997569 
2.6958573e+3, 1.5046255e+2, -932428.2, -1458651.4, 46656.82, 0.0012821276, 0.8290815, -928323.44, 537224.44, 0.00034800897, 10.004998, 9.998001 
2.6957548e+3, 1.6046005e+2, -917584.9, -1389287.4, 56694.156, 0.010047853, 0.82969356, -910866.5, 456706.34, 0.000054303542, 10.004376, 9.998104 
2.6956522e+3, 1.7045783e+2, -873270.7, -1266806.9, 80074.87, -0.001820554, 0.82624775, -857601.4, 411993.2, 0.0000011026469, 10.003795, 9.99855 
2.69555e+3, 1.8045579e+2, -862601.8, -1217355.4, 78180.69, -0.019658078, 0.8242078, -846136.56, 325477.75, 0.0, 10.003223, 9.998493 
2.695448e+3, 1.9045399e+2, -832849.6, -1118605.4, 89380.47, -0.028600892, 0.83426374, -807195.7, 266436.22, 0.0, 10.002612, 9.998792 
2.6953462e+3, 2.0045225e+2, -841401.0, -1103277.5, 91949.65, -0.0363148, 0.8432246, -812340.6, 163308.5, 0.0, 10.002015, 9.998511 
2.6952443e+3, 2.1045019e+2, -811112.0, -1026572.4, 93274.38, -0.055006847, 0.8399823, -776343.4, 101327.37, 0.0, 10.001502, 9.998611 
2.6951423e+3, 2.2044832e+2, -764516.06, -915575.25, 82684.93, -0.07498377, 0.8375359, -728056.75, 51633.418, 0.0, 10.000986, 9.99895 
2.6950404e+3, 2.304472e+2, -714440.0, -772309.25, 80436.65, -0.08876359, 0.8470316, -657892.06, 23808.457, 0.0, 10.000362, 9.999561 
2.6949382e+3, 2.4044627e+2, -710657.94, -727182.1, 85068.74, -0.09964215, 0.8546534, -633451.0, -49742.016, 0.0, 9.999747, 9.999495 
2.6948363e+3, 2.5044528e+2, -662193.06, -621502.6, 77593.2, -0.103940606, 0.84752893, -561631.7, -75912.74, 0.0, 9.9992695, 9.999779 
2.694734e+3, 2.604445e+2, -615574.94, -517168.56, 70029.67, -0.10429129, 0.83754826, -480784.9, -93058.26, 0.0, 9.998782, 10.000057 
2.694632e+3, 2.704442e+2, -565217.3, -377482.7, 55857.996, -0.08357638, 0.82259846, -362120.03, -72392.84, 0.0, 9.998174, 10.000638 
2.69453e+3, 2.8044412e+2, -570299.25, -345965.16, 49345.11, -0.06518686, 0.80713904, -335590.84, -143865.1, 0.0, 9.997538, 10.000487 
2.6944265e+3, 2.904441e+2, -550769.75, -258353.17, 27184.424, -0.096576214, 0.8015453, -255847.45, -162123.66, 0.0, 9.996877, 10.000737 
2.694323e+3, 3.004441e+2, -546946.8, -212470.19, 38356.082, -0.13026534, 0.78150594, -208128.08, -208128.08, 0.0, 9.996259, 10.000677 
2.6942214e+3, 3.1044304e+2, -507240.44, -111617.6, 18495.59, -0.0026519548, 0.63882065, -110754.8, -110754.8, 0.0, 9.995947, 10.001186 
2.6941168e+3, 3.2044476e+2, -528287.0, -33561.742, -29133.316, -0.114092305, 0.75506365, -31852.05, -31852.05, 0.0, 9.995421, 10.001976 
2.7060702e+3, 1.3057265e+2, -1002592.9, -1633342.5, 25705.121, 0.08826894, 0.8476756, -1001547.06, 658924.06, 0.0013551352, 10.006038, 9.997648 
2.7059653e+3, 1.4056966e+2, -994487.1, -1573114.5, 35651.28, 0.013980643, 0.8380367, -992298.75, 570200.2, 0.0007125963, 10.005392, 9.9977 
2.7058616e+3, 1.5056701e+2, -952936.3, -1452513.8, 71764.22, 0.0052763214, 0.83623034, -942831.75, 521693.1, 0.0002379938, 10.004794, 9.998139 
2.7057582e+3, 1.605646e+2, -936294.6, -1388068.3, 81214.52, 0.013618663, 0.83536017, -922138.44, 444410.3, 0.000031664607, 10.00421, 9.99819 
2.7056554e+3, 1.7056245e+2, -903422.7, -1277805.5, 102062.37, 0.0028025738, 0.83438426, -877406.8, 391163.28, 0.00000043413095, 10.003579, 9.998576 
2.705553e+3, 1.8056045e+2, -894697.5, -1227318.5, 98593.49, -0.014830265, 0.8351685, -867669.3, 302920.28, 0.0, 10.002985, 9.998536 
2.70545e+3, 1.9055872e+2, -838726.8, -1116051.0, 107161.445, -0.02712428, 0.8476732, -802144.06, 270462.53, 0.0, 10.002555, 9.998834 
2.7053475e+3, 2.0055701e+2, -825625.25, -1091688.3, 105523.02, -0.0377634, 0.8570828, -788855.44, 185767.9, 0.0, 10.002112, 9.998541 
2.705245e+3, 2.1055482e+2, -815067.56, -1026447.56, 114732.63, -0.054893345, 0.84300655, -764764.1, 111881.46, 0.0, 10.001472, 9.998624 
2.7051425e+3, 2.2055288e+2, -783406.25, -921211.2, 113135.125, -0.07342863, 0.830873, -719843.2, 58822.36, 0.0, 10.000848, 9.998974 
2.70504e+3, 2.3055182e+2, -707260.3, -767226.75, 105117.91, -0.09113732, 0.8462435, -627933.1, 52742.242, 0.0, 10.000411, 9.99957 
2.7049375e+3, 2.4055097e+2, -680440.44, -710949.6, 102359.266, -0.10500392, 0.8606564, -592205.3, -9521.993, 0.0, 9.999954, 9.999503 
2.704835e+3, 2.5054994e+2, -660394.7, -620704.6, 98953.12, -0.10307727, 0.8513955, -539626.2, -54932.46, 0.0, 9.999289, 9.999771 
2.7047324e+3, 2.6054913e+2, -637198.3, -527504.7, 97096.96, -0.09881588, 0.83939373, -470834.7, -84132.74, 0.0, 9.99864, 10.0000515 
2.7046296e+3, 2.7054888e+2, -563268.2, -378989.75, 79462.34, -0.087133184, 0.8325606, -349457.7, -60755.43, 0.0, 9.998204, 10.000609 
2.7045268e+3, 2.8054884e+2, -535459.5, -327056.88, 67344.25, -0.07530268, 0.8234142, -307189.03, -116488.37, 0.0, 9.997774, 10.000501 
2.704423e+3, 2.905487e+2, -489842.16, -224233.56, 42841.44, -0.09326278, 0.8059308, -217494.42, -124795.31, 0.0, 9.99728, 10.000773 
2.704319e+3, 3.0054858e+2, -482049.72, -192124.72, 58747.82, -0.119881935, 0.7759091, -180672.92, -180672.92, 0.0, 9.9967575, 10.000573 
2.7042165e+3, 3.105474e+2, -482610.25, -124943.2, 45813.71, -0.028147908, 0.6440504, -119168.16, -119168.16, 0.0, 9.99623, 10.000956 
2.704112e+3, 3.2054907e+2, -468871.06, 40060.766, -24288.814, -0.108713105, 0.75839835, 41217.32, 41217.32, 0.0, 9.995642, 10.002373 
2.7160758e+3, 1.3067758e+2, -995841.25, -1623245.1, 2868.2808, 0.07884068, 0.8596548, -995828.2, 663615.25, 0.0009925674, 10.006046, 9.997716 
2.7159706e+3, 1.4067441e+2, -986131.3, -1557366.4, 13822.63, 0.040665746, 0.8240056, -985797.0, 575675.8, 0.00049987994, 10.005393, 9.99781 
2.715866e+3, 1.5067199e+2, -943552.8, -1434447.3, 50963.285, 0.01588708, 0.8298664, -938317.8, 525178.94, 0.00015307218, 10.004795, 9.998265 
2.715762e+3, 1.6066979e+2, -931946.5, -1380764.4, 58663.402, 0.00622878, 0.83995265, -924405.5, 441113.03, 0.00001668445, 10.004212, 9.998241 
2.7156585e+3, 1.706677e+2, -903395.4, -1281132.6, 78912.07, 0.0008540208, 0.8478399, -887572.9, 379966.47, 0.00000015052959, 10.003589, 9.99855 
2.715555e+3, 1.8066576e+2, -893587.8, -1229353.3, 80090.65, -0.010258493, 0.8547335, -875462.1, 294096.6, 0.0, 10.002999, 9.998518 
2.715452e+3, 1.906639e+2, -839897.44, -1120389.8, 92492.06, -0.023985393, 0.85929483, -812144.25, 259432.64, 0.0, 10.002559, 9.998804 
2.7153492e+3, 2.006621e+2, -820925.7, -1082201.1, 85125.14, -0.0372577, 0.86080897, -795638.75, 177955.75, 0.0, 10.002109, 9.9986105 
2.715246e+3, 2.106601e+2, -804585.1, -1006446.9, 89886.36, -0.059117876, 0.8494365, -770362.0, 105252.57, 0.0, 10.001475, 9.998762 
2.715143e+3, 2.2065826e+2, -781419.94, -919827.0, 93370.086, -0.08182151, 0.8390549, -734403.44, 43229.34, 0.0, 10.000855, 9.998982 
2.7150398e+3, 2.3065701e+2, -714524.56, -784583.8, 89532.29, -0.09882372, 0.84314, -653413.1, 26231.605, 0.0, 10.000416, 9.99945 
2.7149367e+3, 2.4065599e+2, -679744.94, -711571.4, 80893.32, -0.10947205, 0.8494577, -613214.5, -31559.898, 0.0, 9.999958, 9.999499 
2.7148336e+3, 2.506552e+2, -655108.1, -611053.25, 72601.8, -0.096692435, 0.8572832, -557210.9, -73548.08, 0.0, 9.9992895, 9.999839 
2.7147308e+3, 2.6065457e+2, -638873.0, -531427.4, 77112.22, -0.08645502, 0.86056453, -491169.16, -105500.08, 0.0, 9.998637, 10.000028 
2.7146274e+3, 2.7065414e+2, -570844.06, -396160.53, 63922.15, -0.09467765, 0.8429925, -375268.16, -87596.69, 0.0, 9.998205, 10.000493 
2.714524e+3, 2.8065383e+2, -536302.44, -331924.3, 49925.082, -0.09766722, 0.8197548, -320380.72, -130708.484, 0.0, 9.997783, 10.000465 
2.71442e+3, 2.9065362e+2, -485685.3, -221024.66, 23516.674, -0.09173043, 0.7903691, -218951.3, -127279.86, 0.0, 9.997299, 10.00079 
2.7143154e+3, 3.0065355e+2, -483814.75, -202999.58, 38607.063, -0.10474231, 0.7663129, -197788.5, -197788.5, 0.0, 9.996783, 10.000488 
2.714212e+3, 3.1065312e+2, -493129.97, -150079.67, 24829.715, -0.07036888, 0.72258246, -148291.83, -148291.83, 0.0, 9.996239, 10.000781 
2.714107e+3, 3.206536e+2, -443883.63, 90428.6, -53169.59, -0.09572123, 0.72336644, 95668.15, 95668.15, 0.0, 9.995642, 10.002722 
2.726081e+3, 1.3078307e+2, -1020161.94, -1624726.4, 27497.635, 0.068099, 0.8521141, -1018913.8, 639496.0, 0.0006947661, 10.005838, 9.997803 
2.7259752e+3, 1.4078014e+2, -1021024.25, -1565981.8, 41295.46, 0.046064064, 0.8326923, -1017912.75, 542524.56, 0.00033168704, 10.005122, 9.997878 
2.72587e+3, 1.5077774e+2, -976509.6, -1445491.5, 76321.31, 0.021836009, 0.8399636, -964401.8, 498059.06, 0.000091121365, 10.004553, 9.998303 
2.7257657e+3, 1.6077557e+2, -955614.44, -1386103.5, 79843.4, 0.010048744, 0.8485484, -941282.9, 423199.63, 0.000007723132, 10.004029, 9.99829 
2.7256617e+3, 1.7077345e+2, -907370.94, -1278226.3, 103046.87, 0.0012172669, 0.8504697, -880661.7, 385841.72, 0.000000040351328, 10.003547, 9.998588 
2.7255577e+3, 1.807715e+2, -885320.0, -1223353.8, 107191.09, -0.012060729, 0.8537825, -854195.3, 314327.56, 0.0, 10.003053, 9.99853 
2.725454e+3, 1.9076969e+2, -859390.44, -1131468.1, 120312.48, -0.023072839, 0.8651908, -813820.75, 256720.16, 0.0, 10.002438, 9.998783 
2.7253506e+3, 2.0076793e+2, -855898.1, -1095128.0, 112180.15, -0.03490671, 0.87192285, -811524.9, 161033.53, 0.0, 10.001859, 9.998639 
2.7252468e+3, 2.1076591e+2, -801380.44, -998244.7, 111568.12, -0.06254687, 0.85654515, -751029.75, 123548.46, 0.0, 10.001475, 9.998815 
2.7251434e+3, 2.2076407e+2, -749944.5, -902207.0, 109509.836, -0.08887219, 0.8427726, -692702.7, 83893.375, 0.0, 10.001067, 9.998999 
2.7250397e+3, 2.3076281e+2, -716272.3, -788739.06, 109224.71, -0.09678229, 0.8476854, -637427.94, 41180.418, 0.0, 10.000424, 9.999414 
2.7249363e+3, 2.4076174e+2, -703324.1, -723062.75, 104046.42, -0.09987128, 0.8546238, -608680.0, -28061.31, 0.0, 9.999804, 9.999492 
2.724833e+3, 2.5076094e+2, -640137.75, -603527.1, 90398.36, -0.092554174, 0.8636725, -529599.3, -46972.473, 0.0, 9.999397, 9.999836 
2.724729e+3, 2.607603e+2, -592030.1, -512067.47, 91593.8, -0.0884425, 0.8687872, -452109.16, -67476.055, 0.0, 9.998979, 9.999993 
2.724625e+3, 2.7075982e+2, -544016.8, -391540.8, 80395.77, -0.10094548, 0.85242397, -356983.0, -70346.91, 0.0, 9.998432, 10.000412 
2.724521e+3, 2.8075942e+2, -521131.34, -327614.7, 69220.0, -0.105341576, 0.8253607, -305404.2, -116766.29, 0.0, 9.997907, 10.000432 
2.724417e+3, 2.9075894e+2, -447180.5, -203385.23, 41079.285, -0.086039364, 0.7724435, -196649.52, -106010.086, 0.0, 9.997574, 10.000774 
2.724312e+3, 3.0075878e+2, -426173.06, -177313.25, 51465.11, -0.09468189, 0.7439546, -167090.05, -167090.05, 0.0, 9.997194, 10.0004635 
2.7242076e+3, 3.1075922e+2, -448466.0, -132191.44, 43004.883, -0.10654692, 0.7904232, -126448.21, -126448.21, 0.0, 9.996567, 10.000743 
2.7241024e+3, 3.2075867e+2, -378776.88, 127019.56, -30937.018, -0.07662758, 0.69180113, 128904.8, 128904.8, 0.0, 9.996072, 10.002763 
2.7360862e+3, 1.3088912e+2, -1015792.56, -1613766.9, 36.692867, 0.056047294, 0.8334774, -1015792.56, 641578.06, 0.00045948438, 10.005824, 9.997888 
2.73598e+3, 1.4088668e+2, -1017558.8, -1562610.3, 17759.393, 0.03682221, 0.8568541, -1016980.75, 542413.0, 0.00020524439, 10.005133, 9.997899 
2.735874e+3, 1.5088423e+2, -977159.9, -1451182.5, 56476.406, 0.02485897, 0.8611455, -970524.0, 490894.1, 0.000049153678, 10.004566, 9.99826 
2.7357692e+3, 1.6088194e+2, -951273.56, -1380959.8, 61249.72, 0.022028293, 0.8599652, -942713.25, 420727.75, 0.00000304809, 10.004042, 9.998322 
2.7356645e+3, 1.7087972e+2, -901997.9, -1268673.6, 85670.6, 0.002965252, 0.844529, -882969.2, 382493.22, 0.0000000060145475, 10.003549, 9.998654 
2.73556e+3, 1.808777e+2, -884227.56, -1221397.1, 86175.22, -0.019083476, 0.8364969, -863479.3, 304002.72, 0.0, 10.00305, 9.998548 
2.735456e+3, 1.9087605e+2, -860594.4, -1136326.9, 96892.24, -0.023929015, 0.8668417, -829951.9, 239546.92, 0.0, 10.002443, 9.998749 
2.735352e+3, 2.0087442e+2, -856011.94, -1099082.9, 94425.69, -0.030966196, 0.8896823, -823641.3, 147874.11, 0.0, 10.00187, 9.998609 
2.735248e+3, 2.1087226e+2, -803311.7, -1004284.94, 98230.33, -0.065304615, 0.86402553, -763275.1, 110261.45, 0.0, 10.00148, 9.998774 
2.735144e+3, 2.2087033e+2, -748979.2, -901183.75, 89307.66, -0.09448272, 0.84214157, -707746.9, 67808.67, 0.0, 10.001067, 9.999007 
2.73504e+3, 2.3086922e+2, -714219.94, -785921.56, 83988.77, -0.08488261, 0.8601305, -658750.44, 18815.81, 0.0, 10.000426, 9.999434 
2.734936e+3, 2.4086826e+2, -705502.44, -729112.1, 85176.75, -0.0763115, 0.8767933, -631316.44, -51740.83, 0.0, 9.999805, 9.999452 
2.7348316e+3, 2.5086722e+2, -646148.4, -618248.7, 75851.06, -0.09155554, 0.870097, -555075.4, -73489.3, 0.0, 9.999403, 9.999735 
2.7347273e+3, 2.6086637e+2, -594949.6, -521473.16, 73087.28, -0.10630405, 0.8625113, -476410.13, -92815.76, 0.0, 9.998989, 9.999926 
2.7346227e+3, 2.7086598e+2, -547328.2, -400919.4, 58425.832, -0.10506662, 0.86121225, -380462.38, -94866.25, 0.0, 9.998438, 10.000347 
2.7345186e+3, 2.8086558e+2, -524700.44, -336700.5, 53191.71, -0.09534505, 0.84207076, -322694.22, -135096.69, 0.0, 9.99791, 10.00037 
2.7344137e+3, 2.9086465e+2, -450558.72, -214101.02, 28836.932, -0.075729854, 0.7511767, -210635.05, -121031.664, 0.0, 9.997584, 10.000698 
2.7343088e+3, 3.0086425e+2, -420720.5, -171117.58, 31662.615, -0.09121289, 0.7047731, -167163.75, -167163.75, 0.0, 9.997211, 10.000501 
2.734203e+3, 3.1086573e+2, -438569.22, -115082.766, 17484.727, -0.13357742, 0.8425042, -114140.445, -114140.445, 0.0, 9.996576, 10.000858 
2.7340984e+3, 3.2086444e+2, -406282.5, 62246.44, -33169.324, -0.05480953, 0.67519677, 64583.0, 64583.0, 0.0, 9.996099, 10.002308 
2.7460912e+3, 1.3099603e+2, -1077145.6, -1640391.4, 19237.28, 0.059675187, 0.8451871, -1076489.4, 579833.94, 0.00028244065, 10.005394, 9.99791 
2.7459842e+3, 1.4099357e+2, -1043347.8, -1573805.6, 34586.734, 0.03247731, 0.8651411, -1041102.2, 517244.84, 0.00011591453, 10.004955, 9.997905 
2.745878e+3, 1.5099108e+2, -995151.9, -1462102.8, 74681.695, 0.023117376, 0.86829126, -983498.5, 476873.3, 0.000023258339, 10.004457, 9.998235 
2.7457726e+3, 1.6098876e+2, -960926.75, -1379540.0, 79141.61, 0.023956314, 0.8667403, -946464.2, 415930.7, 0.0000009963151, 10.003954, 9.998371 
2.7456674e+3, 1.7098664e+2, -923294.4, -1269639.6, 103679.85, 0.0064941966, 0.85301167, -894629.8, 369785.38, 0.00000000012839294, 10.003368, 9.998733 
2.7455625e+3, 1.8098466e+2, -916645.8, -1234298.1, 105142.4, -0.016355751, 0.84515667, -884997.1, 281436.97, 0.0, 10.002822, 9.998566 
2.745458e+3, 1.9098294e+2, -865383.9, -1142184.1, 116085.39, -0.029403817, 0.86999017, -823145.06, 245306.69, 0.0, 10.002432, 9.998712 
2.7453533e+3, 2.0098124e+2, -834371.3, -1088219.6, 113101.69, -0.041433007, 0.88990235, -791290.3, 179178.84, 0.0, 10.002023, 9.998607 
2.7452487e+3, 2.1097918e+2, -811524.44, -1006547.75, 119431.91, -0.065763585, 0.87226576, -754852.75, 117636.98, 0.0, 10.001422, 9.998783 
2.7451444e+3, 2.2097728e+2, -781739.4, -917932.25, 111462.39, -0.0861702, 0.8563443, -719218.1, 55290.176, 0.0, 10.000853, 9.998993 
2.7450398e+3, 2.3097606e+2, -709710.56, -789229.6, 100458.55, -0.07868748, 0.8689893, -641429.6, 35090.332, 0.0, 10.000487, 9.999379 
2.7449352e+3, 2.4097499e+2, -665130.9, -715305.9, 98215.33, -0.07240227, 0.88155234, -588849.56, -10319.283, 0.0, 10.0001135, 9.999394 
2.7448305e+3, 2.509739e+2, -620969.9, -613959.1, 90385.86, -0.08777081, 0.87820655, -527010.7, -46469.516, 0.0, 9.999616, 9.999658 
2.744726e+3, 2.60973e+2, -578842.4, -517138.97, 87929.125, -0.10310128, 0.8714791, -454806.13, -72256.14, 0.0, 9.999121, 9.999888 
2.7446207e+3, 2.7097246e+2, -512175.22, -387052.1, 73792.76, -0.102418035, 0.8613144, -352870.1, -68317.55, 0.0, 9.998699, 10.000314 
2.744516e+3, 2.8097194e+2, -477188.88, -319163.4, 72355.47, -0.092617676, 0.83515894, -291039.2, -104484.47, 0.0, 9.998264, 10.000317 
2.7444112e+3, 2.9097095e+2, -426851.16, -211294.88, 48203.813, -0.0725261, 0.7457353, -201006.36, -112444.98, 0.0, 9.99779, 10.000615 
2.7443054e+3, 3.0097055e+2, -406333.88, -163156.47, 45448.16, -0.08996811, 0.7025072, -154940.13, -154940.13, 0.0, 9.997313, 10.000504 
2.7441993e+3, 3.1097212e+2, -391877.63, -86009.34, 22753.238, -0.14351033, 0.84987026, -84326.016, -84326.016, 0.0, 9.996875, 10.000912 
2.744094e+3, 3.2097065e+2, -348962.25, 55572.67, -2464.204, -0.038109697, 0.668497, 55587.68, 55587.68, 0.0, 9.996646, 10.001995 
2.756096e+3, 1.3110366e+2, -1081986.6, -1647119.1, 1753.5248, 0.07321859, 0.8753501, -1081981.3, 573288.06, 0.00015717349, 10.005374, 9.997875 
2.7559885e+3, 1.4110082e+2, -1045002.9, -1577092.8, 16414.898, 0.030998617, 0.862659, -1044496.94, 512799.88, 0.000057599224, 10.00495, 9.997888 
2.7558818e+3, 1.5109834e+2, -997247.3, -1466801.1, 56414.9, 0.017554516, 0.8659526, -990564.44, 468757.22, 0.000009160661, 10.004455, 9.998206 
2.7557757e+3, 1.6109608e+2, -957378.0, -1373171.4, 58652.895, 0.018578367, 0.8703212, -949262.7, 412081.38, 0.00000025278027, 10.003954, 9.998417 
2.7556705e+3, 1.7109418e+2, -917169.5, -1259273.6, 81696.38, 0.011758617, 0.87300324, -898661.3, 364700.75, 0.0, 10.003374, 9.998803 
2.755565e+3, 1.8109235e+2, -914938.7, -1233909.1, 87850.35, -0.006019509, 0.87442875, -892343.6, 273035.94, 0.0, 10.002831, 9.998566 
2.7554598e+3, 1.9109033e+2, -868897.3, -1150872.1, 102558.54, -0.039235394, 0.87361556, -835541.1, 231858.88, 0.0, 10.002434, 9.998653 
2.7553543e+3, 2.0108841e+2, -833954.7, -1087572.3, 93876.28, -0.064358234, 0.87468976, -802987.56, 166431.94, 0.0, 10.002019, 9.998614 
2.7552497e+3, 2.1108662e+2, -808464.3, -1001732.8, 96267.766, -0.06361902, 0.8818139, -768696.0, 102741.586, 0.0, 10.001425, 9.9988165 
2.7551448e+3, 2.2108492e+2, -784903.4, -926946.25, 94374.055, -0.065049365, 0.88494146, -737812.5, 35641.93, 0.0, 10.000858, 9.99893 
2.75504e+3, 2.3108333e+2, -719038.2, -810737.7, 87503.914, -0.078911416, 0.8738285, -666099.6, 9370.012, 0.0, 10.000493, 9.999231 
2.7549344e+3, 2.4108195e+2, -670354.5, -728331.3, 81504.664, -0.08840692, 0.8682687, -612836.6, -35353.75, 0.0, 10.000118, 9.999305 
2.7548295e+3, 2.5108105e+2, -625016.6, -624478.06, 70777.38, -0.08008878, 0.8887231, -553969.44, -74477.28, 0.0, 9.99962, 9.999585 
2.7547246e+3, 2.6108024e+2, -579901.06, -521154.56, 70836.08, -0.07655112, 0.897348, -473843.13, -92343.2, 0.0, 9.999125, 9.999862 
2.754619e+3, 2.710793e+2, -512104.72, -389842.22, 57910.39, -0.09264362, 0.85044885, -366767.5, -83261.945, 0.0, 9.998708, 10.000293 
2.7545136e+3, 2.8107852e+2, -479923.0, -328656.88, 54925.477, -0.099056505, 0.8003753, -310817.1, -125307.15, 0.0, 9.998277, 10.000248 
2.754408e+3, 2.9107794e+2, -434304.4, -228505.13, 28931.973, -0.07829041, 0.76192796, -224515.13, -137002.08, 0.0, 9.997793, 10.000498 
2.7543023e+3, 3.010777e+2, -411949.78, -174625.42, 28009.139, -0.0910927, 0.7467826, -171364.58, -171364.58, 0.0, 9.997307, 10.000429 
2.754196e+3, 3.1107822e+2, -394050.5, -93571.67, 5463.45, -0.12940307, 0.79275614, -93472.36, -93472.36, 0.0, 9.996883, 10.000858 
2.7540904e+3, 3.2107753e+2, -350178.3, 43373.508, 7881.676, -0.03623202, 0.69632715, 43531.293, 43531.293, 0.0, 9.996683, 10.001897 
2.7661005e+3, 1.3121134e+2, -1147956.1, -1665514.3, 9930.037, 0.0549339, 0.88832057, -1147765.8, 506449.44, 0.000075778196, 10.004868, 9.997991 
2.7659926e+3, 1.4120862e+2, -1091054.6, -1588058.6, 27920.418, 0.04421441, 0.8766716, -1089491.0, 466750.47, 0.000023697079, 10.004589, 9.997983 
2.765886e+3, 1.5120612e+2, -1037956.1, -1478917.5, 71472.89, 0.022898808, 0.87188154, -1026660.8, 431605.44, 0.00000278157, 10.004148, 9.998268 
2.7657792e+3, 1.6120385e+2, -989572.3, -1381913.5, 75887.93, 0.015224333, 0.87058455, -975405.4, 384883.25, 0.00000003518083, 10.003709, 9.998472 
2.765673e+3, 1.7120205e+2, -932701.06, -1263118.1, 95933.23, 0.009749615, 0.8799536, -906867.6, 355438.1, 0.0, 10.003257, 9.99883 
2.765567e+3, 1.8120028e+2, -915722.56, -1227593.0, 102017.71, -0.005759427, 0.886503, -885315.56, 279006.94, 0.0, 10.002802, 9.998621 
2.7654615e+3, 1.9119824e+2, -886711.6, -1152538.0, 124037.766, -0.036992714, 0.87815464, -837824.75, 228518.17, 0.0, 10.002287, 9.99871 
2.765356e+3, 2.0119628e+2, -864875.5, -1100462.4, 119378.67, -0.061561916, 0.87339365, -814959.2, 153403.39, 0.0, 10.001804, 9.998627 
2.7652505e+3, 2.1119455e+2, -808762.5, -1004717.56, 117251.26, -0.06398083, 0.8898152, -753941.3, 116439.11, 0.0, 10.001441, 9.998785 
2.7651453e+3, 2.211929e+2, -754867.56, -912837.44, 114655.266, -0.066598706, 0.900611, -694624.44, 77772.72, 0.0, 10.001073, 9.998921 
2.7650398e+3, 2.3119122e+2, -701540.8, -803748.4, 116860.984, -0.07619394, 0.8817316, -625098.2, 49314.82, 0.0, 10.000625, 9.999212 
2.7649343e+3, 2.4118973e+2, -664445.8, -731463.1, 116979.0, -0.08282261, 0.8686629, -576270.8, 156.38681, 0.0, 10.000191, 9.999246 
2.7648288e+3, 2.5118873e+2, -600072.6, -623234.1, 103264.92, -0.07534573, 0.8911868, -507741.13, -29303.86, 0.0, 9.999845, 9.999483 
2.7647233e+3, 2.6118782e+2, -535491.8, -506224.2, 99257.81, -0.071450666, 0.90081376, -420527.25, -40081.387, 0.0, 9.999463, 9.999798 
2.7646175e+3, 2.7118677e+2, -482280.63, -382037.97, 81284.97, -0.084952965, 0.8451816, -336663.78, -54210.883, 0.0, 9.998946, 10.000228 
2.7645117e+3, 2.8118587e+2, -459604.28, -325748.88, 76863.05, -0.09207741, 0.7923245, -290758.75, -106300.555, 0.0, 9.998452, 10.00018 
2.7644056e+3, 2.9118547e+2, -392897.8, -218113.95, 52377.71, -0.0834076, 0.7822103, -203619.8, -117160.35, 0.0, 9.998125, 10.000406 
2.7642992e+3, 3.011852e+2, -360646.94, -171034.28, 47851.74, -0.100829735, 0.77616996, -159642.55, -159642.55, 0.0, 9.997755, 10.000236 
2.7641925e+3, 3.1118459e+2, -363573.56, -106890.35, 7474.09, -0.10975981, 0.7355666, -106672.91, -106672.91, 0.0, 9.997218, 10.000603 
2.7640864e+3, 3.2118478e+2, -333904.4, 73665.45, 24224.936, -0.040140387, 0.7411064, 75100.27, 75100.27, 0.0, 9.996703, 10.002092 
2.7761045e+3, 1.313192e+2, -1130807.6, -1635565.5, 1970.2878, 0.017154738, 0.8913868, -1130799.9, 522359.4, 0.000029326582, 10.004888, 9.998189 
2.775997e+3, 1.4131688e+2, -1082860.0, -1567034.6, 14076.144, 0.067931496, 0.90175384, -1082451.1, 472730.25, 0.000007331158, 10.004567, 9.99814 
2.7758893e+3, 1.5131436e+2, -1031139.94, -1463215.0, 55488.12, 0.03577731, 0.8830863, -1024127.8, 433078.16, 0.00000057828737, 10.004137, 9.9983835 
2.7757823e+3, 1.6131206e+2, -986266.2, -1375738.3, 59581.977, 0.012956187, 0.868208, -977355.2, 381873.38, 0.0000000006579204, 10.003708, 9.998517 
2.7756757e+3, 1.7131025e+2, -934178.1, -1266877.1, 79817.49, 0.0018065118, 0.87677115, -916020.2, 345225.75, 0.0, 10.003256, 9.998807 
2.7755693e+3, 1.8130852e+2, -909435.6, -1215304.4, 84012.64, -0.013276768, 0.88501966, -887879.2, 275383.4, 0.0, 10.002801, 9.998707 
2.7754635e+3, 1.9130667e+2, -876431.06, -1132774.8, 104689.46, -0.02401493, 0.8839562, -839110.0, 226170.6, 0.0, 10.00229, 9.998845 
2.7753574e+3, 2.0130487e+2, -864266.0, -1101451.8, 103585.914, -0.036776032, 0.88445634, -825396.75, 141901.94, 0.0, 10.00181, 9.998619 
2.7752516e+3, 2.11303e+2, -815512.44, -1020451.9, 104162.85, -0.06757018, 0.8960192, -771865.94, 97452.43, 0.0, 10.001444, 9.998677 
2.7751455e+3, 2.2130126e+2, -752126.25, -908523.5, 99229.375, -0.08933171, 0.9036809, -703986.06, 67350.414, 0.0, 10.001075, 9.998952 
2.7750397e+3, 2.3129974e+2, -694631.0, -790976.5, 99726.26, -0.06963335, 0.8929541, -632052.06, 41298.11, 0.0, 10.000628, 9.999301 
2.7749345e+3, 2.412983e+2, -667472.9, -739418.3, 102755.73, -0.055414695, 0.88316035, -594575.1, -19212.041, 0.0, 10.000195, 9.999191 
2.774828e+3, 2.5129697e+2, -609839.3, -645798.75, 90555.99, -0.07481097, 0.8843267, -535495.4, -58118.93, 0.0, 9.99985, 9.999328 
2.7747223e+3, 2.6129577e+2, -542773.06, -524229.06, 82175.46, -0.09028484, 0.8795832, -450804.16, -71416.29, 0.0, 9.999472, 9.999672 
2.774616e+3, 2.7129483e+2, -490813.03, -401837.63, 60918.23, -0.078885436, 0.84758407, -370892.0, -89497.72, 0.0, 9.998952, 10.000092 
2.7745098e+3, 2.8129405e+2, -465048.78, -338698.6, 62253.117, -0.06896262, 0.81643116, -313180.16, -129781.19, 0.0, 9.998455, 10.000092 
2.774403e+3, 2.9129356e+2, -396449.7, -229286.39, 40723.656, -0.08827899, 0.8063235, -219893.27, -134492.7, 0.0, 9.998137, 10.000326 
2.774296e+3, 3.0129293e+2, -384466.8, -225484.02, 30192.035, -0.12162477, 0.7859783, -219943.42, -219943.42, 0.0, 9.997773, 9.999855 
2.774189e+3, 3.1129116e+2, -401414.56, -187928.48, -16033.26, -0.08243632, 0.6804445, -186731.06, -186731.06, 0.0, 9.997224, 10.000046 
2.7740824e+3, 3.212924e+2, -294728.84, 160010.9, 5590.575, -0.054624073, 0.8044971, 160079.63, 160079.63, 0.0, 9.996677, 10.002701 
2.7861086e+3, 1.3142768e+2, -1155676.1, -1634515.5, 17748.887, 0.013950825, 0.903608, -1155019.1, 497077.88, 0.000007974411, 10.004664, 9.9983015 
2.7860007e+3, 1.414253e+2, -1151670.6, -1582070.3, 31141.855, 0.06656637, 0.8963939, -1149429.0, 404690.28, 0.0000014495826, 10.004021, 9.998299 
2.7858928e+3, 1.5142302e+2, -1079877.5, -1468204.5, 77793.27, 0.036062695, 0.8853105, -1064872.9, 391268.66, 0.000000057598992, 10.003727, 9.998544 
2.7857855e+3, 1.614209e+2, -1019786.4, -1383776.6, 80896.586, 0.014859061, 0.87706023, -1002617.0, 355545.28, 0.0, 10.003448, 9.998586 
2.7856782e+3, 1.7141905e+2, -968705.9, -1283982.4, 100710.85, 0.0043131304, 0.8820653, -939281.3, 320898.88, 0.0, 10.003026, 9.998797 
2.7855715e+3, 1.8141729e+2, -935093.0, -1223017.8, 103632.57, -0.011063556, 0.8867922, -901672.0, 260525.33, 0.0, 10.00261, 9.998744 
2.785465e+3, 1.9141549e+2, -884506.94, -1130786.1, 118270.695, -0.024050443, 0.88652706, -836908.94, 227305.81, 0.0, 10.002214, 9.998893 
2.7853587e+3, 2.0141374e+2, -860121.25, -1094504.9, 114994.66, -0.037309423, 0.889404, -813125.06, 153107.16, 0.0, 10.001822, 9.998658 
2.7852523e+3, 2.1141192e+2, -820669.1, -1020424.25, 123730.336, -0.06426025, 0.90498406, -761535.0, 106716.69, 0.0, 10.001404, 9.998694 
2.785146e+3, 2.2141021e+2, -761844.1, -911523.3, 123919.375, -0.084341854, 0.9152103, -691918.5, 78351.2, 0.0, 10.001006, 9.998961 
2.78504e+3, 2.3140867e+2, -687199.0, -788564.8, 117044.35, -0.06899864, 0.9045701, -610335.3, 61948.09, 0.0, 10.0006895, 9.999285 
2.7849337e+3, 2.4140723e+2, -644416.6, -731319.8, 115876.04, -0.057177853, 0.8945504, -564113.25, 10183.271, 0.0, 10.000371, 9.999159 
2.7848276e+3, 2.514058e+2, -589071.44, -641903.75, 109896.07, -0.07390696, 0.8923986, -502461.25, -26150.625, 0.0, 10.000025, 9.999267 
2.7847213e+3, 2.6140448e+2, -522957.22, -523852.84, 103332.164, -0.08774753, 0.8841766, -420071.9, -41748.824, 0.0, 9.999654, 9.999584 
2.7846146e+3, 2.714034e+2, -461390.4, -401774.63, 79904.97, -0.07658597, 0.853465, -346298.78, -65967.99, 0.0, 9.99922, 9.99996 
2.784508e+3, 2.8140253e+2, -420573.16, -324696.84, 85888.6, -0.06764002, 0.82594573, -274273.8, -91937.36, 0.0, 9.998797, 10.00002 
2.784401e+3, 2.9140204e+2, -352628.4, -214019.77, 67092.24, -0.09273742, 0.8214533, -186864.47, -102526.45, 0.0, 9.998468, 10.000269 
2.7842936e+3, 3.0140132e+2, -358150.1, -242559.03, 54346.47, -0.12511595, 0.80054, -221020.7, -221020.7, 0.0, 9.998087, 9.999583 
2.7841863e+3, 3.1139892e+2, -382345.6, -223041.17, 16137.638, -0.05644407, 0.67374927, -221422.86, -221422.86, 0.0, 9.997551, 9.999644 
2.7840784e+3, 3.2140043e+2, -260053.56, 210568.16, 27844.313, -0.07834965, 0.84149706, 212209.84, 212209.84, 0.0, 9.996774, 10.002998 
2.796113e+3, 1.3153665e+2, -1159199.3, -1631508.4, -10020.234, 0.031745106, 0.920109, -1158986.9, 492042.63, 0.0000012172652, 10.004616, 9.998347 
2.7960038e+3, 1.4153396e+2, -1138876.4, -1559646.3, 15759.553, 0.047500078, 0.8704771, -1138287.0, 414767.8, 0.00000014109227, 10.004035, 9.998447 
2.7958956e+3, 1.5153207e+2, -1067236.8, -1442735.4, 68617.734, 0.027702644, 0.8821174, -1055090.5, 399982.53, 0.00000000010411895, 10.003727, 9.998721 
2.7957883e+3, 1.6153029e+2, -1016316.5, -1374872.0, 66418.68, 0.02001405, 0.8945644, -1004408.56, 352681.84, 0.0, 10.003436, 9.998653 
2.7956808e+3, 1.715284e+2, -969247.44, -1285939.8, 84494.24, 0.0149610415, 0.8937032, -948114.44, 310994.5, 0.0, 10.003026, 9.998786 
2.7955738e+3, 1.8152654e+2, -935215.44, -1225811.6, 88518.4, -0.0015659877, 0.89097124, -910375.25, 250751.8, 0.0, 10.002618, 9.998723 
2.7954665e+3, 1.9152467e+2, -886530.4, -1136989.6, 103963.21, -0.03570534, 0.88628715, -849000.06, 214145.28, 0.0, 10.00222, 9.998849 
2.7953598e+3, 2.015229e+2, -854527.2, -1084428.4, 99950.055, -0.059410032, 0.88891035, -817150.4, 148012.64, 0.0, 10.001825, 9.998728 
2.795253e+3, 2.1152133e+2, -812008.4, -1003920.6, 108002.85, -0.053632423, 0.9165711, -763492.4, 103687.87, 0.0, 10.001407, 9.998808 
2.7951467e+3, 2.2151977e+2, -763538.94, -916625.94, 110824.74, -0.053662077, 0.93505657, -705393.8, 63803.164, 0.0, 10.00101, 9.998926 
2.79504e+3, 2.3151805e+2, -696008.56, -808519.44, 105347.266, -0.07548063, 0.9165141, -632837.4, 38375.48, 0.0, 10.000693, 9.999147 
2.7949333e+3, 2.4151646e+2, -645037.6, -734367.44, 103352.38, -0.08875739, 0.902872, -577111.8, -3884.3142, 0.0, 10.000376, 9.999137 
2.7948272e+3, 2.515152e+2, -586403.4, -638248.06, 96523.37, -0.07147843, 0.916947, -512382.1, -37142.4, 0.0, 10.00003, 9.999291 
2.7947205e+3, 2.6151398e+2, -527008.06, -533916.6, 87989.1, -0.061570033, 0.91717654, -442405.5, -65154.28, 0.0, 9.999657, 9.999515 
2.794613e+3, 2.7151254e+2, -470563.5, -423079.0, 63296.996, -0.07980333, 0.8624938, -379217.97, -99955.555, 0.0, 9.999226, 9.999812 
2.794506e+3, 2.8151137e+2, -423781.9, -334581.84, 72643.805, -0.09251569, 0.81749946, -293939.38, -112668.41, 0.0, 9.998808, 9.999949 
2.7943987e+3, 2.9151097e+2, -354530.8, -221158.1, 54652.727, -0.09552839, 0.8254663, -201623.86, -118351.88, 0.0, 9.998478, 10.000217 
2.794291e+3, 3.015103e+2, -367066.84, -263490.03, 36819.258, -0.10664657, 0.8233662, -251735.58, -251735.58, 0.0, 9.998094, 9.999439 
2.7941835e+3, 3.1150815e+2, -395609.38, -252515.89, -3463.961, -0.034009933, 0.7354442, -252432.1, -252432.1, 0.0, 9.997555, 9.999442 
2.794074e+3, 3.2150865e+2, -279002.75, 177597.52, -20138.242, -0.11130273, 0.82312065, 178483.98, 178483.98, 0.0, 9.996742, 10.0027895 
2.8061163e+3, 1.3164586e+2, -1253789.4, -1652393.9, 7988.104, 0.03526026, 0.9192889, -1253629.4, 396330.6, 0.00000007781645, 10.003863, 9.998565 
2.8060073e+3, 1.4164336e+2, -1162351.0, -1557484.3, 36166.285, 0.043477304, 0.8734452, -1159068.0, 392914.94, 0.0000000009799295, 10.003819, 9.998564 
2.8058988e+3, 1.516416e+2, -1111889.4, -1459116.3, 81132.27, 0.025627024, 0.89209235, -1093867.5, 360132.72, 0.0, 10.003403, 9.998762 
2.805791e+3, 1.6163991e+2, -1071207.4, -1392757.0, 74151.914, 0.020164415, 0.90826386, -1054931.3, 301085.72, 0.0, 10.003027, 9.998726 
2.805683e+3, 1.71638e+2, -997970.4, -1291831.0, 96678.336, 0.013107845, 0.89940214, -969016.6, 289018.75, 0.0, 10.0028, 9.998852 
2.8055757e+3, 1.8163614e+2, -940605.44, -1220716.0, 103035.67, -0.004440886, 0.8904963, -906787.7, 253265.69, 0.0, 10.002553, 9.998787 
2.805468e+3, 1.9163434e+2, -891997.3, -1134533.4, 122606.945, -0.034764897, 0.88805217, -840817.06, 221254.0, 0.0, 10.002166, 9.99889 
2.8053612e+3, 2.0163263e+2, -859589.7, -1082689.3, 120969.29, -0.055521473, 0.8939537, -806588.8, 157499.52, 0.0, 10.001778, 9.99876 
2.8052542e+3, 2.1163112e+2, -811826.1, -1001470.5, 122255.58, -0.049626008, 0.9264281, -751930.25, 114174.93, 0.0, 10.001403, 9.998824 
2.8051472e+3, 2.216296e+2, -755453.25, -908384.8, 124241.22, -0.04982874, 0.9481663, -686032.44, 82089.1, 0.0, 10.001052, 9.99896 
2.8050402e+3, 2.3162788e+2, -684097.0, -800285.9, 129843.45, -0.075384654, 0.9277859, -599944.2, 70193.24, 0.0, 10.00077, 9.999166 
2.8049335e+3, 2.4162626e+2, -632942.94, -729699.75, 133661.08, -0.09246468, 0.91238445, -539174.44, 32977.88, 0.0, 10.000468, 9.999122 
2.8048265e+3, 2.5162497e+2, -579153.94, -639251.44, 120503.37, -0.074306436, 0.9258614, -485009.34, -10844.295, 0.0, 10.000104, 9.999247 
2.8047195e+3, 2.6162368e+2, -514776.7, -528760.0, 109204.49, -0.0632094, 0.9263227, -412340.28, -36163.31, 0.0, 9.999749, 9.999503 
2.804612e+3, 2.7162224e+2, -438735.97, -409774.97, 92494.625, -0.08449889, 0.87389517, -330634.22, -52446.07, 0.0, 9.999458, 9.999789 
2.804504e+3, 2.8162104e+2, -383781.72, -323303.47, 106990.23, -0.098452374, 0.8296188, -242361.16, -62163.9, 0.0, 9.999123, 9.999872 
2.8043967e+3, 2.9162046e+2, -337402.9, -226962.78, 81966.28, -0.09327903, 0.83383626, -183351.03, -101150.625, 0.0, 9.998661, 10.000087 
2.804289e+3, 3.0161974e+2, -344323.2, -248880.75, 64086.89, -0.09912362, 0.8355007, -216699.25, -216699.25, 0.0, 9.998239, 9.999467 
2.8041807e+3, 3.1161797e+2, -322730.94, -206040.5, 45266.74, -0.031864785, 0.7798546, -190539.66, -190539.66, 0.0, 9.998011, 9.999539 
2.8040704e+3, 3.216178e+2, -224491.52, 134380.05, -2900.1616, -0.12086538, 0.8155834, 134403.48, 134403.48, 0.0, 9.99742, 10.002164 
2.8161198e+3, 1.3175532e+2, -1228196.1, -1605413.5, 10532.717, 0.030326985, 0.90888447, -1227902.3, 420985.47, 0.000000000067724854, 10.003887, 9.998878 
2.8160104e+3, 1.417534e+2, -1158719.3, -1547985.8, 24789.328, 0.049459003, 0.89650095, -1157147.0, 393757.84, 0.0, 10.003808, 9.998636 
2.8159016e+3, 1.5175158e+2, -1116325.9, -1468974.0, 64954.098, 0.027501728, 0.910958, -1104742.5, 348180.97, 0.0, 10.003403, 9.998696 
2.8157935e+3, 1.6174977e+2, -1065121.9, -1382588.6, 63775.176, 0.016372818, 0.9188327, -1052789.3, 302152.16, 0.0, 10.003035, 9.998794 
2.8156853e+3, 1.7174788e+2, -990108.0, -1275845.8, 89130.72, 0.0014358681, 0.9005429, -964585.06, 292374.13, 0.0, 10.002798, 9.998964 
2.8155774e+3, 1.8174608e+2, -933364.8, -1204527.5, 90505.555, -0.016776603, 0.88652164, -905932.2, 253043.97, 0.0, 10.002544, 9.998903 
2.81547e+3, 1.9174446e+2, -885801.94, -1121039.8, 107626.05, -0.022540582, 0.8916556, -843991.94, 217000.22, 0.0, 10.00216, 9.998986 
2.8153625e+3, 2.0174287e+2, -861031.56, -1085882.5, 106498.5, -0.02963118, 0.9038982, -818597.7, 144410.7, 0.0, 10.001776, 9.99874 
2.815255e+3, 2.1174127e+2, -817593.0, -1014536.4, 108374.56, -0.05276299, 0.934604, -769634.75, 95391.75, 0.0, 10.001405, 9.998735 
2.8151473e+3, 2.2173971e+2, -748426.56, -895277.4, 113109.5, -0.070995666, 0.95478064, -687000.0, 80043.43, 0.0, 10.001055, 9.999049 
2.8150406e+3, 2.3173818e+2, -672568.2, -777794.6, 119387.86, -0.0676396, 0.9384068, -594714.5, 74342.58, 0.0, 10.000772, 9.99932 
2.8149334e+3, 2.4173665e+2, -634667.8, -734629.56, 120954.0, -0.0678996, 0.92272025, -553774.9, 17295.986, 0.0, 10.000471, 9.999088 
2.814826e+3, 2.5173506e+2, -588521.3, -659746.56, 106397.75, -0.084045425, 0.9175174, -511934.4, -38847.582, 0.0, 10.000105, 9.999106 
2.8147185e+3, 2.6173362e+2, -511424.5, -522884.9, 97414.18, -0.09587881, 0.90943456, -419572.13, -44471.656, 0.0, 9.99975, 9.999545 
2.8146106e+3, 2.717326e+2, -430385.7, -394617.72, 82098.58, -0.08979862, 0.8890006, -328477.84, -51370.305, 0.0, 9.999464, 9.999892 
2.814503e+3, 2.8173164e+2, -390357.38, -339539.8, 92291.54, -0.08160142, 0.8666018, -269223.28, -90108.86, 0.0, 9.99913, 9.999759 
2.8143948e+3, 2.9173058e+2, -354912.1, -263473.47, 63928.05, -0.085694864, 0.84734833, -230598.56, -149475.58, 0.0, 9.998658, 9.999839 
2.8142864e+3, 3.0172965e+2, -327605.56, -213216.53, 54090.59, -0.10629842, 0.83258635, -191689.98, -191689.98, 0.0, 9.998231, 9.999717 
2.814178e+3, 3.1172854e+2, -286396.94, -135197.44, 40721.914, -0.057442714, 0.79875755, -124927.54, -124927.54, 0.0, 9.998027, 10.00002 
2.8140676e+3, 3.2172823e+2, -309503.75, -49343.65, -51416.44, -0.091238394, 0.8329988, -39550.65, -39550.65, 0.0, 9.997447, 10.000891 
2.826123e+3, 1.3186528e+2, -1260930.8, -1610232.3, 25964.818, 0.03329761, 0.9163377, -1259011.3, 388799.72, 0.0, 10.003618, 9.998972 
2.8260136e+3, 1.418635e+2, -1223356.3, -1566941.0, 28707.318, 0.041259125, 0.90988165, -1220974.1, 328852.53, 0.0, 10.003315, 9.998742 
2.8259042e+3, 1.5186173e+2, -1158094.9, -1478906.6, 75311.055, 0.020743538, 0.92034185, -1141295.1, 310549.5, 0.0, 10.003076, 9.998783 
2.8257957e+3, 1.6185997e+2, -1087161.1, -1381476.1, 81022.055, 0.012479074, 0.9237973, -1066330.8, 287531.44, 0.0, 10.002837, 9.998895 
2.8256872e+3, 1.7185813e+2, -1025200.0, -1282888.5, 105666.266, 0.00069983694, 0.90358543, -987412.3, 268466.84, 0.0, 10.002519, 9.999048 
2.8255793e+3, 1.8185641e+2, -978448.8, -1218671.6, 102222.375, -0.015391341, 0.8898465, -940838.44, 217056.97, 0.0, 10.002207, 9.998966 
2.8254715e+3, 1.918549e+2, -922659.9, -1134056.4, 114067.3, -0.02105445, 0.9008009, -872847.8, 187062.9, 0.0, 10.001891, 9.999024 
2.8253636e+3, 2.018534e+2, -879685.1, -1082502.8, 114117.37, -0.028003905, 0.9157356, -828429.25, 133497.03, 0.0, 10.001599, 9.998846 
2.8252557e+3, 2.1185182e+2, -815646.9, -999756.1, 129727.695, -0.052738342, 0.93785965, -748631.25, 115312.45, 0.0, 10.001363, 9.998854 
2.8251478e+3, 2.2185029e+2, -740441.56, -886513.44, 141881.64, -0.07218498, 0.95320195, -653901.06, 112059.07, 0.0, 10.001094, 9.999089 
2.8250405e+3, 2.3184885e+2, -683135.75, -784302.4, 135616.64, -0.065606505, 0.9465538, -588976.0, 78997.18, 0.0, 10.000711, 9.999302 
2.8249332e+3, 2.4184737e+2, -650194.4, -738587.0, 130794.4, -0.06397343, 0.93665236, -556330.94, 13655.747, 0.0, 10.000355, 9.999115 
2.8248253e+3, 2.5184572e+2, -586182.75, -654578.9, 127718.9, -0.08694208, 0.921702, -488162.72, -16159.556, 0.0, 10.000109, 9.999139 
2.8247175e+3, 2.6184425e+2, -495724.34, -511357.44, 126792.516, -0.10466212, 0.9073796, -376507.66, -2490.5576, 0.0, 9.9998455, 9.999576 
2.8246096e+3, 2.718433e+2, -418077.88, -387360.9, 104440.625, -0.09600885, 0.89746994, -297155.53, -21132.264, 0.0, 9.999548, 9.9999 
2.8245014e+3, 2.818424e+2, -382325.2, -340082.28, 106866.87, -0.08185303, 0.88524544, -252269.63, -74239.87, 0.0, 9.999209, 9.999715 
2.8243932e+3, 2.918413e+2, -344889.66, -268874.8, 86706.766, -0.07531641, 0.86525065, -212211.08, -132171.19, 0.0, 9.9987755, 9.9997425 
2.824284e+3, 3.018403e+2, -284893.72, -170314.25, 91700.42, -0.09859274, 0.84762037, -119478.68, -119478.68, 0.0, 9.998433, 9.999912 
2.8241754e+3, 3.1183955e+2, -210343.56, -64402.117, 68072.414, -0.08958392, 0.816812, -37580.156, -37580.156, 0.0, 9.998407, 10.00032 
2.824065e+3, 3.2183915e+2, -262482.1, -123042.09, -58254.383, -0.07150901, 0.85228455, -101908.086, -101908.086, 0.0, 9.998189, 10.000025 
2.836126e+3, 1.3197565e+2, -1265832.9, -1619243.8, 13446.327, 0.040001906, 0.93491757, -1265322.0, 381408.34, 0.0, 10.003611, 9.998916 
2.8360158e+3, 1.4197373e+2, -1214894.8, -1548961.4, 19243.64, 0.023473607, 0.91652775, -1213790.0, 334957.47, 0.0, 10.00331, 9.998869 
2.8359064e+3, 1.5197212e+2, -1146845.4, -1453218.0, 67364.39, 0.008304369, 0.92312014, -1132687.8, 318075.88, 0.0, 10.003063, 9.998967 
2.835798e+3, 1.6197051e+2, -1081815.9, -1367120.8, 70074.28, 0.008574979, 0.9249727, -1065534.0, 287245.38, 0.0, 10.00282, 9.999002 
2.8356895e+3, 1.7196879e+2, -1023070.2, -1276555.0, 93869.414, 0.008501704, 0.90836364, -992094.1, 262701.3, 0.0, 10.002508, 9.999098 
2.835581e+3, 1.8196714e+2, -978512.56, -1218050.4, 90558.5, -0.0035601906, 0.8989699, -948130.1, 208681.11, 0.0, 10.002201, 9.998975 
2.8354725e+3, 1.9196564e+2, -924444.06, -1138013.0, 102820.03, -0.02934488, 0.91450524, -882989.25, 175837.3, 0.0, 10.00189, 9.999 
2.8353646e+3, 2.0196418e+2, -864699.6, -1052294.1, 105179.62, -0.04705549, 0.9290013, -817568.94, 143272.75, 0.0, 10.001601, 9.999054 
2.8352565e+3, 2.1196276e+2, -794693.2, -956973.5, 121144.45, -0.048956104, 0.93637025, -730026.25, 132830.61, 0.0, 10.001364, 9.999149 
2.8351486e+3, 2.2196133e+2, -742622.25, -891617.44, 129188.74, -0.05487585, 0.9439571, -667990.25, 96881.43, 0.0, 10.001094, 9.999055 
2.8350407e+3, 2.3195986e+2, -696981.94, -813902.75, 120700.07, -0.07008715, 0.9525682, -621329.94, 45555.906, 0.0, 10.000712, 9.9991 
2.8349328e+3, 2.4195841e+2, -643961.6, -726451.5, 120150.56, -0.08109219, 0.954797, -558173.9, 10725.932, 0.0, 10.000355, 9.9992 
2.834825e+3, 2.519569e+2, -571677.0, -625473.1, 118593.04, -0.08158587, 0.93956614, -476969.9, -6056.0234, 0.0, 10.00011, 9.999339 
2.834717e+3, 2.6195553e+2, -495783.34, -512523.0, 116122.52, -0.08705893, 0.9210942, -387729.4, -14802.864, 0.0, 9.999847, 9.999568 
2.8346083e+3, 2.7195442e+2, -426590.28, -405426.75, 92987.086, -0.10440605, 0.89744467, -322421.28, -47485.727, 0.0, 9.999547, 9.999778 
2.8344998e+3, 2.819534e+2, -380558.3, -335908.7, 91704.9, -0.10273635, 0.88180095, -263850.3, -86906.77, 0.0, 9.999204, 9.999747 
2.8343913e+3, 2.9195264e+2, -340466.88, -258702.67, 70687.484, -0.060438022, 0.8893099, -217926.53, -138976.06, 0.0, 9.998769, 9.999818 
2.8342822e+3, 3.019519e+2, -279500.8, -158994.69, 88129.78, -0.07209691, 0.88670874, -112489.66, -112489.66, 0.0, 9.998429, 9.999993 
2.8341725e+3, 3.1195092e+2, -206611.58, -59217.902, 67795.52, -0.13162072, 0.83409697, -32777.55, -32777.55, 0.0, 9.998415, 10.000354 
2.834063e+3, 3.2195053e+2, -273855.22, -155979.11, -82599.63, -0.067120075, 0.87659186, -113446.016, -113446.016, 0.0, 9.998225, 9.9997835 
2.8461286e+3, 1.3208625e+2, -1333118.3, -1640872.8, 21394.188, 0.038566727, 0.9536352, -1331638.1, 314009.53, 0.0, 10.003104, 9.999009 
2.8460184e+3, 1.4208436e+2, -1268710.1, -1558494.4, 32437.62, 0.02004245, 0.9262131, -1265123.5, 282541.06, 0.0, 10.002872, 9.999013 
2.845909e+3, 1.5208283e+2, -1206617.8, -1466002.6, 78938.5, 0.0086249625, 0.9281654, -1184483.3, 265196.3, 0.0, 10.002587, 9.999107 
2.8458e+3, 1.6208133e+2, -1145321.6, -1385304.5, 79435.37, 0.011273921, 0.9292892, -1121410.5, 230283.47, 0.0, 10.002334, 9.99911 
2.845691e+3, 1.7207979e+2, -1075463.5, -1292996.0, 104180.21, 0.008722209, 0.92270374, -1033618.94, 220089.64, 0.0, 10.002114, 9.999173 
2.8455827e+3, 1.8207824e+2, -1014200.8, -1222447.5, 103907.22, -0.00546906, 0.91680515, -971224.25, 184499.1, 0.0, 10.001905, 9.999085 
2.8454736e+3, 1.9207671e+2, -945263.94, -1135490.1, 124493.25, -0.032439817, 0.91569036, -883708.4, 174030.61, 0.0, 10.001697, 9.999107 
2.845365e+3, 2.0207529e+2, -872643.9, -1039577.44, 131129.39, -0.05044831, 0.922178, -800670.56, 159083.02, 0.0, 10.001479, 9.999198 
2.8452572e+3, 2.1207418e+2, -806123.6, -945969.0, 136981.77, -0.04906138, 0.9472391, -722250.4, 139515.28, 0.0, 10.001218, 9.999292 
2.845149e+3, 2.2207294e+2, -758922.1, -893275.44, 138354.8, -0.052288357, 0.9636509, -672297.75, 91480.81, 0.0, 10.000959, 9.999106 
2.845041e+3, 2.3207131e+2, -698437.6, -815192.75, 141371.77, -0.06933922, 0.9553642, -603864.5, 61929.83, 0.0, 10.000709, 9.99909 
2.8449327e+3, 2.4206974e+2, -630176.5, -714806.3, 149708.88, -0.08209543, 0.9475856, -516917.3, 50891.93, 0.0, 10.000432, 9.99924 
2.8448245e+3, 2.520684e+2, -570199.6, -619122.7, 136859.3, -0.08066234, 0.9428848, -455632.97, 14188.91, 0.0, 10.000099, 9.999386 
2.8447163e+3, 2.620671e+2, -504075.66, -514730.5, 127786.62, -0.085746504, 0.9320776, -381505.47, -9671.915, 0.0, 9.999787, 9.99958 
2.8446075e+3, 2.720659e+2, -424315.38, -406359.8, 111567.7, -0.11070247, 0.9052434, -303409.25, -29565.926, 0.0, 9.999575, 9.999756 
2.8444985e+3, 2.8206488e+2, -357566.94, -319162.53, 111786.84, -0.11146104, 0.88649565, -224940.66, -49088.71, 0.0, 9.999342, 9.999794 
2.8443897e+3, 2.920642e+2, -292876.6, -229129.05, 88256.375, -0.05483264, 0.8952926, -167167.19, -89308.88, 0.0, 9.999072, 9.999872 
2.8442803e+3, 3.020635e+2, -227894.34, -139439.86, 107078.54, -0.062714666, 0.9006586, -67814.336, -67814.336, 0.0, 9.998813, 9.99994 
2.8441703e+3, 3.1206265e+2, -189831.06, -66413.56, 75280.125, -0.14621745, 0.8680492, -30782.354, -30782.354, 0.0, 9.998601, 10.000213 
2.8440607e+3, 3.2206202e+2, -199671.22, -90294.92, -77363.445, -0.06265988, 0.88621855, -50241.863, -50241.863, 0.0, 9.9986105, 10.000047 
2.8561312e+3, 1.3219708e+2, -1323934.0, -1616192.1, 14067.694, 0.03283486, 0.97235316, -1323258.5, 321304.22, 0.0, 10.0030775, 9.999193 
2.8560206e+3, 1.421953e+2, -1261585.9, -1539409.3, 23157.51, 0.026033238, 0.9379821, -1259668.9, 286909.6, 0.0, 10.0028515, 9.999155 
2.855911e+3, 1.5219383e+2, -1201105.3, -1452497.9, 69578.81, 0.017484842, 0.93484133, -1183132.5, 265460.0, 0.0, 10.002576, 9.999207 
2.855802e+3, 1.6219243e+2, -1138922.3, -1371321.6, 71534.664, 0.018555466, 0.93604285, -1118668.4, 231937.72, 0.0, 10.002329, 9.999209 
2.8556925e+3, 1.7219113e+2, -1070482.5, -1281490.4, 96549.87, 0.002807256, 0.9446178, -1032972.56, 219646.1, 0.0, 10.002108, 9.999256 
2.8555837e+3, 1.8218975e+2, -1002259.9, -1196418.1, 96293.49, -0.018068353, 0.94132715, -962602.8, 192029.27, 0.0, 10.001898, 9.999269 
2.855475e+3, 1.9218807e+2, -931218.06, -1105512.6, 116913.05, -0.030690962, 0.90587544, -872545.9, 184102.16, 0.0, 10.001691, 9.999317 
2.8553665e+3, 2.0218666e+2, -868087.0, -1029803.9, 121976.586, -0.040663682, 0.8984812, -802602.06, 156059.89, 0.0, 10.001475, 9.999268 
2.8552577e+3, 2.1218604e+2, -806344.0, -946960.7, 126937.5, -0.05333973, 0.9703715, -731544.1, 129126.15, 0.0, 10.001218, 9.999287 
2.8551495e+3, 2.2218508e+2, -749553.56, -874616.9, 128987.27, -0.06339552, 1.0102838, -668739.75, 93941.12, 0.0, 10.00096, 9.999235 
2.855041e+3, 2.3218311e+2, -686300.25, -790935.0, 131638.1, -0.06287768, 0.9538694, -596964.2, 67734.43, 0.0, 10.0007105, 9.999258 
2.8549325e+3, 2.4218133e+2, -631803.2, -719152.25, 138204.72, -0.066851206, 0.9139637, -530536.3, 36178.754, 0.0, 10.000434, 9.99921 
2.854824e+3, 2.5218013e+2, -579370.75, -638574.6, 123564.64, -0.08517611, 0.93105483, -481911.72, -13184.473, 0.0, 10.000099, 9.999254 
2.8547153e+3, 2.6217896e+2, -502427.47, -511226.47, 118169.02, -0.102563724, 0.94062555, -388576.06, -17837.92, 0.0, 9.999784, 9.999607 
2.8546062e+3, 2.721779e+2, -418838.53, -395267.03, 103912.91, -0.11378197, 0.9225079, -302473.63, -29727.316, 0.0, 9.999574, 9.999834 
2.8544974e+3, 2.821769e+2, -354437.84, -313458.06, 101906.555, -0.10601518, 0.90057075, -230001.9, -55247.32, 0.0, 9.999342, 9.999834 
2.854388e+3, 2.921759e+2, -291081.63, -227495.1, 79052.234, -0.06238944, 0.8774049, -174082.33, -97318.62, 0.0, 9.999079, 9.999882 
2.8542784e+3, 3.0217513e+2, -244410.16, -176262.38, 97439.29, -0.074357726, 0.8813405, -107111.055, -107111.055, 0.0, 9.998821, 9.999684 
2.8541687e+3, 3.1217468e+2, -220291.19, -126388.07, 64949.152, -0.12062763, 0.9260509, -93196.99, -93196.99, 0.0, 9.998585, 9.999809 
2.8540584e+3, 3.221734e+2, -129674.08, 54239.59, -70071.57, -0.06988758, 0.86726964, 77894.54, 77894.54, 0.0, 9.9986105, 10.001041 
2.8661335e+3, 1.3230807e+2, -1408066.4, -1633339.4, 27014.646, 0.04342037, 0.9752533, -1404872.1, 238603.67, 0.0, 10.002401, 9.9994 
2.8660226e+3, 1.423065e+2, -1334119.5, -1555385.9, 36491.88, 0.018630037, 0.94485843, -1328256.6, 217232.8, 0.0, 10.0022745, 9.999323 
2.8659126e+3, 1.523052e+2, -1257834.3, -1465408.4, 84359.69, 0.012123625, 0.945836, -1227874.1, 219627.77, 0.0, 10.002127, 9.999333 
2.8658032e+3, 1.6230394e+2, -1186218.9, -1385344.5, 86182.78, 0.015924292, 0.9489631, -1154099.4, 195414.88, 0.0, 10.001968, 9.999286 
2.865694e+3, 1.7230266e+2, -1119461.5, -1299772.8, 108508.914, 0.0009683437, 0.955025, -1068541.9, 182985.05, 0.0, 10.001751, 9.999302 
2.8655848e+3, 1.8230134e+2, -1041425.56, -1196093.8, 107194.914, -0.01916327, 0.9506126, -986580.56, 166959.13, 0.0, 10.001549, 9.999438 
2.8654757e+3, 1.9229989e+2, -962934.8, -1097638.6, 127342.95, -0.029367292, 0.9171563, -886229.4, 169323.67, 0.0, 10.001376, 9.999521 
2.8653672e+3, 2.0229863e+2, -902426.7, -1040236.1, 131365.25, -0.037183784, 0.9104536, -822991.6, 134573.66, 0.0, 10.001217, 9.999319 
2.8652582e+3, 2.1229798e+2, -828161.8, -958710.5, 134879.56, -0.050122034, 0.98014665, -743592.06, 115982.09, 0.0, 10.001077, 9.999272 
2.8651497e+3, 2.2229703e+2, -751023.1, -863420.1, 133990.88, -0.0613503, 1.0189929, -661922.5, 99662.305, 0.0, 10.000903, 9.999338 
2.8650412e+3, 2.3229522e+2, -688816.44, -777410.5, 132570.55, -0.06270474, 0.9634209, -593338.0, 70262.89, 0.0, 10.000633, 9.999386 
2.8649324e+3, 2.4229352e+2, -634973.4, -716175.7, 139959.9, -0.06787242, 0.923368, -529844.56, 35771.66, 0.0, 10.000398, 9.999247 
2.8648233e+3, 2.5229228e+2, -559758.06, -632088.1, 131824.4, -0.08737574, 0.9399615, -459227.88, 8400.854, 0.0, 10.000251, 9.999224 
2.8647146e+3, 2.6229107e+2, -466702.47, -492433.03, 129668.016, -0.10376719, 0.9483442, -349263.06, 20376.926, 0.0, 10.000027, 9.999618 
2.8646055e+3, 2.7229002e+2, -408740.8, -389858.8, 108964.836, -0.10682966, 0.9264347, -289926.75, -18278.395, 0.0, 9.999644, 9.999835 
2.864496e+3, 2.82289e+2, -353652.4, -311409.94, 105765.52, -0.1005355, 0.9029788, -224677.33, -51020.613, 0.0, 9.999345, 9.9998455 
2.8643864e+3, 2.92288e+2, -245888.52, -205239.06, 86657.445, -0.085521586, 0.8811117, -136554.77, -60888.863, 0.0, 9.999392, 9.999881 
2.8642765e+3, 3.0228725e+2, -174326.0, -151200.94, 101707.164, -0.09952327, 0.89097565, -60401.176, -60401.176, 0.0, 9.999345, 9.999602 
2.864167e+3, 3.122869e+2, -179738.89, -127271.99, 87582.5, -0.07553432, 0.9620482, -62078.484, -62078.484, 0.0, 9.998957, 9.999621 
2.8640565e+3, 3.2228512e+2, -47279.676, 116321.945, -27487.387, -0.08136442, 0.85676193, 120816.73, 120816.73, 0.0, 9.9990835, 10.001238 
2.8761354e+3, 1.324192e+2, -1390860.9, -1601147.0, 23702.508, 0.06275061, 0.9682217, -1388222.3, 254164.66, 0.0, 10.002415, 9.999616 
2.8760242e+3, 1.4241795e+2, -1324416.6, -1530981.4, 31649.867, 0.0020605086, 0.9488151, -1319676.0, 224721.69, 0.0, 10.0022545, 9.999501 
2.875914e+3, 1.5241691e+2, -1250331.8, -1446382.8, 78928.24, -0.003028447, 0.9601437, -1222505.5, 223902.36, 0.0, 10.00211, 9.999473 
2.8758043e+3, 1.6241579e+2, -1184429.1, -1379161.0, 78725.195, 0.006131551, 0.96621203, -1156584.1, 191835.05, 0.0, 10.001957, 9.999335 
2.875695e+3, 1.7241435e+2, -1119607.3, -1298984.3, 100831.85, 0.0024121872, 0.956147, -1074347.3, 176086.14, 0.0, 10.001744, 9.999311 
2.8755856e+3, 1.8241307e+2, -1030822.6, -1174154.1, 101195.32, -0.011375179, 0.94822586, -978486.44, 173959.53, 0.0, 10.001547, 9.99959 
2.8754765e+3, 1.9241212e+2, -949105.2, -1069680.8, 121037.9, -0.028758207, 0.9470272, -874171.7, 180282.58, 0.0, 10.001378, 9.999714 
2.8753677e+3, 2.0241112e+2, -900147.3, -1036395.1, 125778.63, -0.038911093, 0.9526895, -825228.8, 131235.08, 0.0, 10.001219, 9.999346 
2.875259e+3, 2.1240997e+2, -830100.1, -963327.9, 129666.39, -0.039778557, 0.9764094, -750937.56, 107539.9, 0.0, 10.001078, 9.999241 
2.87515e+3, 2.2240882e+2, -745970.3, -853572.2, 125103.16, -0.047431108, 0.9926442, -663590.0, 96900.21, 0.0, 10.000904, 9.999406 
2.875041e+3, 2.3240758e+2, -682781.94, -765696.8, 122117.08, -0.06932582, 0.9855087, -595277.0, 67224.01, 0.0, 10.000635, 9.999466 
2.874932e+3, 2.4240628e+2, -628060.8, -702430.4, 133783.1, -0.08536384, 0.9769836, -526390.9, 38121.723, 0.0, 10.000399, 9.999341 
2.8748232e+3, 2.5240487e+2, -554759.9, -623030.7, 125583.93, -0.08660183, 0.9702688, -458754.8, 7771.495, 0.0, 10.000254, 9.999285 
2.874714e+3, 2.6240346e+2, -467861.97, -496456.03, 117228.54, -0.08766529, 0.95429987, -364061.88, 4477.4087, 0.0, 10.000031, 9.999589 
2.8746045e+3, 2.7240217e+2, -415879.22, -404733.63, 92773.67, -0.08849571, 0.9144187, -317365.53, -46815.7, 0.0, 9.999642, 9.999736 
2.8744948e+3, 2.8240106e+2, -356324.8, -317064.28, 101225.35, -0.09566478, 0.89190173, -233583.34, -61024.52, 0.0, 9.999342, 9.999809 
2.874385e+3, 2.9240048e+2, -245464.61, -207850.25, 91532.07, -0.12903428, 0.9137768, -133213.17, -58648.523, 0.0, 9.999406, 9.999857 
2.8742748e+3, 3.0239993e+2, -161156.31, -128520.05, 88391.05, -0.14291161, 0.93908215, -54953.48, -54953.48, 0.0, 9.999364, 9.999749 
2.8741664e+3, 3.123993e+2, -173671.19, -112621.83, 74704.11, -0.0028221433, 0.965966, -62446.695, -62446.695, 0.0, 9.998949, 9.999725 
2.8740546e+3, 3.2239738e+2, -120753.44, -33359.61, 14114.954, -0.098315395, 0.8719044, -31136.46, -31136.46, 0.0, 9.999073, 10.000214 
2.886137e+3, 1.3253072e+2, -1445528.1, -1629910.6, 30056.78, 0.044535212, 0.9645296, -1440752.3, 200541.81, 0.0, 10.00205, 9.999593 
2.8860253e+3, 1.4252967e+2, -1403255.6, -1559495.5, 35581.47, 0.002217431, 0.9633319, -1395534.0, 147769.84, 0.0, 10.001673, 9.999585 
2.8859153e+3, 1.5252872e+2, -1318692.0, -1468593.1, 81884.57, -0.0029675167, 0.9738026, -1282635.0, 162678.3, 0.0, 10.0015955, 9.999568 
2.8858057e+3, 1.6252767e+2, -1237311.0, -1387481.0, 80732.836, 0.004692436, 0.97749734, -1202143.8, 145180.0, 0.0, 10.00152, 9.999488 
2.885696e+3, 1.7252637e+2, -1157859.0, -1298740.6, 111113.54, -0.0018205445, 0.9628771, -1096739.5, 152597.16, 0.0, 10.001402, 9.999477 
2.8855863e+3, 1.8252519e+2, -1062941.8, -1180919.3, 117041.17, -0.015626328, 0.9538214, -990864.44, 160483.55, 0.0, 10.001289, 9.999667 
2.8854772e+3, 1.9252437e+2, -972704.1, -1075908.4, 127706.89, -0.026959026, 0.9612029, -886568.0, 166787.28, 0.0, 10.001195, 9.999759 
2.8853685e+3, 2.0252347e+2, -913720.06, -1031256.2, 127562.445, -0.03309424, 0.9703178, -832039.4, 123324.68, 0.0, 10.001077, 9.999449 
2.8852594e+3, 2.1252231e+2, -846990.94, -956837.1, 141219.53, -0.03501066, 0.98070705, -750390.1, 106987.055, 0.0, 10.0009, 9.999371 
2.8851503e+3, 2.2252116e+2, -765412.9, -857051.75, 142547.78, -0.04437027, 0.9872247, -661501.56, 97888.016, 0.0, 10.000748, 9.999456 
2.8850412e+3, 2.3251997e+2, -678540.7, -760423.0, 134612.69, -0.069719344, 0.98586, -578780.9, 82619.03, 0.0, 10.000653, 9.999492 
2.884932e+3, 2.425188e+2, -605650.7, -676812.4, 143265.38, -0.08844091, 0.9837653, -493613.9, 69796.64, 0.0, 10.000492, 9.999471 
2.8848228e+3, 2.5251755e+2, -557310.06, -607491.75, 138989.22, -0.08915941, 0.9784064, -441165.06, 24257.453, 0.0, 10.000169, 9.999431 
2.8847137e+3, 2.6251626e+2, -473093.38, -492067.75, 139613.48, -0.086763136, 0.9605972, -342645.1, 24789.322, 0.0, 9.999972, 9.999644 
2.884604e+3, 2.7251485e+2, -364665.72, -384674.97, 116954.88, -0.07933815, 0.91468865, -257288.33, 12157.238, 0.0, 10.00002, 9.999688 
2.8844938e+3, 2.8251368e+2, -300563.13, -297850.97, 121355.34, -0.08928044, 0.89059055, -177844.14, -6388.673, 0.0, 9.999764, 9.999735 
2.8843832e+3, 2.9251304e+2, -289950.34, -257469.4, 112172.62, -0.15180634, 0.923539, -160367.7, -86905.25, 0.0, 9.999231, 9.999596 
2.8842735e+3, 3.025123e+2, -174419.34, -142749.44, 98581.19, -0.16076747, 0.94917274, -58739.527, -58739.527, 0.0, 9.999313, 9.999672 
2.884166e+3, 3.1251112e+2, -2302.0317, -56811.234, 63939.074, 0.0697025, 0.9336969, 39948.9, 39948.9, 0.0, 10.000242, 9.999486 
2.884054e+3, 3.2250896e+2, 58013.008, -82198.51, -7842.0083, -0.12305598, 0.8892383, 58450.246, 58450.246, 0.0, 10.000878, 9.999011 
2.8961378e+3, 1.326425e+2, -1462205.8, -1658232.5, 9939.849, 0.0041473783, 0.9636316, -1461703.0, 178495.08, 0.0, 10.002023, 9.999413 
2.8960267e+3, 1.4264157e+2, -1401719.5, -1556538.1, 30588.191, 0.013871321, 0.9848188, -1395895.1, 146313.2, 0.0, 10.001673, 9.999606 
2.8959164e+3, 1.526406e+2, -1315267.4, -1460409.4, 80299.84, 0.0074572037, 0.9866312, -1279604.3, 164613.86, 0.0, 10.001589, 9.999627 
2.8958067e+3, 1.626396e+2, -1222624.1, -1354872.0, 77741.05, 0.00899076, 0.98437405, -1186689.1, 159538.77, 0.0, 10.00151, 9.999717 
2.8956968e+3, 1.7263862e+2, -1138998.6, -1258185.1, 106158.27, -0.010701572, 0.9741779, -1076850.6, 171386.42, 0.0, 10.001394, 9.99976 
2.895587e+3, 1.8263763e+2, -1063201.0, -1180791.6, 112804.51, -0.029195905, 0.96557146, -994788.8, 155457.55, 0.0, 10.001286, 9.999671 
2.895478e+3, 1.9263662e+2, -978370.5, -1087879.9, 123910.92, -0.023853077, 0.9617803, -897655.6, 154600.4, 0.0, 10.001194, 9.999678 
2.895369e+3, 2.026357e+2, -901215.56, -1006003.75, 121780.45, -0.021223823, 0.96714246, -821036.56, 133228.64, 0.0, 10.001079, 9.999622 
2.89526e+3, 2.1263497e+2, -827584.2, -917498.06, 134263.0, -0.035715807, 0.99315953, -730951.25, 125322.125, 0.0, 10.000903, 9.99964 
2.8951508e+3, 2.2263397e+2, -763611.9, -854150.2, 138013.22, -0.051084198, 1.0006535, -663633.2, 94650.23, 0.0, 10.00075, 9.999476 
2.8950414e+3, 2.3263241e+2, -680918.06, -766108.94, 130862.61, -0.06352902, 0.9634952, -585893.06, 74404.78, 0.0, 10.000655, 9.999453 
2.894932e+3, 2.426311e+2, -594453.3, -654197.6, 132554.83, -0.077410854, 0.9428825, -488446.38, 73863.7, 0.0, 10.000493, 9.999626 
2.8948224e+3, 2.5263032e+2, -542089.8, -575605.2, 126349.38, -0.095924236, 0.96376365, -431391.7, 32925.734, 0.0, 10.000166, 9.999651 
2.894713e+3, 2.6262942e+2, -464517.3, -474181.03, 140877.42, -0.102822974, 0.96781546, -328388.9, 37936.45, 0.0, 9.99997, 9.999768 
2.8946033e+3, 2.7262813e+2, -362777.53, -385615.06, 116060.12, -0.080818415, 0.92978525, -257575.8, 10759.466, 0.0, 10.000037, 9.999675 
2.894493e+3, 2.8262684e+2, -308185.25, -319248.66, 95990.83, -0.080477245, 0.900279, -217566.86, -47220.363, 0.0, 9.999784, 9.999579 
2.8943822e+3, 2.9262552e+2, -333039.8, -338631.13, 100805.48, -0.14657949, 0.9021025, -234991.23, -162630.95, 0.0, 9.999199, 9.999052 
2.8942725e+3, 3.026241e+2, -204438.34, -193877.9, 126444.164, -0.14511241, 0.9044895, -72603.76, -72603.76, 0.0, 9.999269, 9.99934 
2.894166e+3, 3.1262204e+2, -38313.61, -143113.2, 98816.49, 0.13862622, 0.84957606, 21136.662, 21136.662, 0.0, 10.000294, 9.998867 
2.894054e+3, 3.2261994e+2, -25062.629, -277735.34, -10763.174, -0.15395701, 0.91600955, -24604.977, -24604.977, 0.0, 10.0009775, 9.997621 
2.906139e+3, 1.3275424e+2, -1544984.4, -1685375.9, -4666.0503, 0.011129744, 0.96662503, -1544829.5, 94273.77, 0.0, 10.001399, 9.999527 
2.9060274e+3, 1.4275344e+2, -1446571.1, -1564496.1, 34857.598, 0.010220893, 0.9887504, -1437038.3, 104074.34, 0.0, 10.001306, 9.999728 
2.905917e+3, 1.5275252e+2, -1364552.9, -1472934.0, 87389.31, 0.00079887325, 0.98481804, -1315915.9, 127205.85, 0.0, 10.001202, 9.999728 
2.9058072e+3, 1.6275162e+2, -1275476.1, -1370300.8, 83836.52, 0.0021707627, 0.9818308, -1226573.9, 118556.664, 0.0, 10.001103, 9.999807 
2.9056972e+3, 1.7275085e+2, -1185021.1, -1270318.9, 100111.84, -0.012072951, 0.9831437, -1118852.3, 128285.83, 0.0, 10.001034, 9.99985 
2.9055876e+3, 1.8275e+2, -1102243.5, -1190559.5, 102969.38, -0.02720107, 0.9813118, -1034363.06, 114783.03, 0.0, 10.0009775, 9.999752 
2.9054785e+3, 1.9274902e+2, -1007341.56, -1092268.1, 124134.62, -0.022942321, 0.97242415, -918608.3, 132547.25, 0.0, 10.000953, 9.9997635 
2.9053694e+3, 2.0274815e+2, -919873.8, -1003601.5, 124560.414, -0.021688327, 0.9736584, -830330.4, 122833.76, 0.0, 10.0009, 9.999724 
2.90526e+3, 2.1274753e+2, -835592.2, -906609.56, 126650.89, -0.038554396, 0.99891996, -739566.44, 115604.38, 0.0, 10.000784, 9.999773 
2.9051507e+3, 2.2274666e+2, -768379.6, -841467.5, 128406.125, -0.05433277, 1.0046334, -671418.56, 85760.766, 0.0, 10.000651, 9.99961 
2.9050413e+3, 2.327452e+2, -692672.4, -753018.9, 135356.17, -0.062083676, 0.9631183, -584167.1, 75025.5, 0.0, 10.000494, 9.99962 
2.904932e+3, 2.42744e+2, -607686.0, -644364.7, 142487.31, -0.07341418, 0.93921274, -482362.7, 78840.99, 0.0, 10.000334, 9.99977 
2.904822e+3, 2.527434e+2, -527675.1, -546239.06, 130991.18, -0.09576172, 0.9604113, -405637.47, 57571.918, 0.0, 10.000171, 9.999849 
2.9047123e+3, 2.627427e+2, -450168.56, -442199.28, 152713.25, -0.10514522, 0.96681947, -293418.72, 71796.414, 0.0, 9.999965, 9.999989 
2.9046026e+3, 2.7274176e+2, -390997.97, -363814.44, 143216.48, -0.080030546, 0.93527293, -233546.22, 33675.875, 0.0, 9.999698, 9.999985 
2.9044923e+3, 2.8274074e+2, -333946.25, -308413.34, 139438.11, -0.07314319, 0.9102315, -181158.48, -11927.84, 0.0, 9.99952, 9.999775 
2.9043803e+3, 2.9273972e+2, -405252.16, -313823.44, 160628.48, -0.13809499, 0.9086162, -192530.89, -121289.055, 0.0, 9.998464, 9.999567 
2.9161403e+3, 1.3286597e+2, -1525030.6, -1641776.0, -8353.929, 0.046311673, 0.9714698, -1524435.9, 113573.055, 0.0, 10.0013895, 9.999831 
2.9160282e+3, 1.428653e+2, -1434331.8, -1538118.1, 31923.758, -0.004235926, 0.98063827, -1425298.5, 114718.05, 0.0, 10.001302, 9.999911 
2.9159173e+3, 1.5286447e+2, -1355237.3, -1454051.8, 81920.586, -0.01780213, 0.9728008, -1308978.1, 133046.31, 0.0, 10.001203, 9.999858 
2.9158077e+3, 1.6286367e+2, -1276262.3, -1372847.4, 80569.54, -0.012376594, 0.97276616, -1230620.8, 113411.64, 0.0, 10.001106, 9.999788 
2.9156977e+3, 1.72863e+2, -1188785.6, -1278566.5, 97199.52, -0.007295862, 0.9906074, -1126611.3, 119428.43, 0.0, 10.001035, 9.999794 
2.915588e+3, 1.8286233e+2, -1091645.8, -1168512.1, 102399.33, -0.013323998, 1.0002674, -1020704.7, 127342.1, 0.0, 10.000977, 9.999905 
2.9154786e+3, 1.9286156e+2, -991927.44, -1059796.0, 122814.586, -0.024388636, 0.99154174, -898445.25, 151608.6, 0.0, 10.00095, 9.9999895 
2.9153696e+3, 2.0286079e+2, -918048.3, -999289.6, 120655.516, -0.032514915, 0.98832095, -831359.1, 120701.99, 0.0, 10.000896, 9.999757 
2.91526e+3, 2.1286e+2, -834839.5, -905606.25, 121827.62, -0.043078087, 0.998339, -743360.94, 110708.39, 0.0, 10.000785, 9.99978 
2.9151505e+3, 2.228592e+2, -750389.94, -805069.1, 122779.97, -0.054956816, 1.0007393, -651942.5, 104134.516, 0.0, 10.000654, 9.99986 
2.915041e+3, 2.3285833e+2, -666409.06, -699263.25, 128978.03, -0.06565172, 0.98539734, -552816.2, 105268.04, 0.0, 10.000496, 9.9999895 
2.9149315e+3, 2.4285753e+2, -599250.94, -627364.56, 136457.53, -0.07597674, 0.97280586, -476128.13, 83963.195, 0.0, 10.000334, 9.999887 
2.9148215e+3, 2.5285676e+2, -515973.84, -523202.0, 123871.77, -0.087743804, 0.9680997, -395663.44, 66435.0, 0.0, 10.0001745, 10.000008 
2.9147115e+3, 2.6285613e+2, -427184.8, -396468.28, 142258.9, -0.09304668, 0.9566228, -268741.0, 95362.92, 0.0, 9.999971, 10.000301 
2.914602e+3, 2.728557e+2, -348237.56, -273778.7, 132288.25, -0.07730461, 0.92971355, -173581.02, 92525.22, 0.0, 9.999691, 10.0006075 
2.9144913e+3, 2.8285545e+2, -298142.8, -231591.34, 138474.22, -0.06817243, 0.9207878, -122450.84, 45656.98, 0.0, 9.999509, 10.000309 
2.9143783e+3, 2.9285577e+2, -287791.06, -88108.055, 79245.23, -0.12469223, 0.9522858, -60481.395, 9624.446, 0.0, 9.998516, 10.001105 
2.9261407e+3, 1.3297771e+2, -1585278.0, -1661748.5, -11339.622, 0.029575085, 0.9768477, -1583631.9, 53282.2, 0.0, 10.000936, 9.999913 
2.9260287e+3, 1.4297713e+2, -1480464.1, -1550290.5, 21448.7, -0.0052344743, 0.9855197, -1474402.0, 64518.87, 0.0, 10.00094, 10.000003 
2.925918e+3, 1.5297644e+2, -1389300.4, -1462263.0, 65308.918, -0.014794676, 0.982163, -1350974.3, 89953.234, 0.0, 10.000932, 9.999933 
2.9258078e+3, 1.6297576e+2, -1302105.3, -1375446.5, 65165.89, -0.008322341, 0.98433125, -1264000.6, 78933.82, 0.0, 10.000884, 9.99988 
2.925698e+3, 1.7297515e+2, -1215521.9, -1280377.6, 90240.26, -0.008047849, 0.9991302, -1152059.9, 92881.29, 0.0, 10.0008, 9.999896 
2.9255885e+3, 1.8297453e+2, -1123310.5, -1175289.9, 101489.02, -0.016033277, 1.0074314, -1044536.2, 102411.42, 0.0, 10.000719, 9.999984 
2.925479e+3, 1.9297388e+2, -1028382.3, -1068264.5, 112842.05, -0.023641817, 1.0011547, -933732.94, 115220.8, 0.0, 10.000657, 10.000073 
2.9253697e+3, 2.029732e+2, -950892.4, -1002633.06, 107653.75, -0.030738745, 0.9969518, -866044.1, 84915.92, 0.0, 10.000614, 9.999871 
2.9252604e+3, 2.1297246e+2, -848741.4, -896368.44, 117677.164, -0.044660162, 0.9978788, -752492.44, 100475.03, 0.0, 10.000618, 9.999926 
2.9251507e+3, 2.2297175e+2, -756080.8, -795439.06, 117571.336, -0.057813637, 0.9963018, -656553.0, 98421.08, 0.0, 10.000558, 9.999974 
2.925041e+3, 2.3297112e+2, -673349.75, -685695.94, 107191.39, -0.065728456, 0.9894439, -572153.8, 84825.625, 0.0, 10.000371, 10.000145 
2.924931e+3, 2.4297053e+2, -605006.75, -611943.56, 109091.734, -0.07352803, 0.9817515, -499328.28, 59656.26, 0.0, 10.000212, 10.000054 
2.924821e+3, 2.5296992e+2, -503917.66, -490027.75, 104253.37, -0.08306006, 0.9722087, -392488.28, 68501.61, 0.0, 10.0001335, 10.0002575 
2.9247108e+3, 2.6296952e+2, -423546.13, -375890.63, 115188.945, -0.08766265, 0.96044904, -282090.75, 80902.58, 0.0, 9.999908, 10.000476 
2.9246005e+3, 2.7296942e+2, -371892.53, -253007.89, 82392.29, -0.075530045, 0.94460624, -210853.56, 54139.617, 0.0, 9.999381, 10.000904 
2.9244897e+3, 2.829696e+2, -342645.03, -211560.11, 83117.45, -0.067913726, 0.94461143, -171252.08, -4261.026, 0.0, 9.999012, 10.000692 
2.9243767e+3, 2.9297042e+2, -92859.58, 56378.95, -33200.613, -0.12680723, 0.9779524, 63431.684, 132415.77, 0.0, 9.999604, 10.001592 
2.9361403e+3, 1.3308947e+2, -1590044.1, -1670874.9, -14221.171, -0.01846432, 0.98313344, -1587615.0, 48204.066, 0.0, 10.000933, 9.999851 
2.9360288e+3, 1.4308892e+2, -1477310.4, -1545109.3, 22661.254, 0.0033573622, 0.9996245, -1470433.6, 67392.0, 0.0, 10.000946, 10.000035 
2.9359186e+3, 1.5308839e+2, -1387267.0, -1456925.9, 63582.06, 0.0034071717, 1.0067483, -1349599.8, 90231.4, 0.0, 10.000926, 9.999973 
2.9358083e+3, 1.6308782e+2, -1291052.1, -1350248.4, 62749.82, 0.008680736, 1.0104594, -1251270.3, 90566.87, 0.0, 10.000874, 10.000057 
2.9356983e+3, 1.7308725e+2, -1199946.1, -1247796.9, 85686.234, -0.0137436595, 1.0078574, -1134907.6, 108935.195, 0.0, 10.000798, 10.000121 
2.9355884e+3, 1.8308666e+2, -1121815.0, -1173041.5, 98465.734, -0.03160418, 1.0052227, -1045685.7, 100163.09, 0.0, 10.000722, 9.999998 
2.935479e+3, 1.9308603e+2, -1029758.6, -1072353.8, 109719.4, -0.02064738, 1.0029656, -939288.9, 108566.266, 0.0, 10.000661, 10.000044 
2.93537e+3, 2.0308544e+2, -936511.2, -973889.56, 107460.69, -0.01859033, 1.0003603, -846126.6, 103734.11, 0.0, 10.000618, 10.000068 
2.9352602e+3, 2.130849e+2, -829432.5, -856628.6, 117091.97, -0.043930378, 0.9974484, -725151.7, 126713.61, 0.0, 10.000617, 10.000199 
2.9351506e+3, 2.230843e+2, -757607.2, -798537.3, 111739.68, -0.06232645, 0.9905101, -664473.94, 89396.734, 0.0, 10.000557, 9.999954 
2.935041e+3, 2.3308352e+2, -676832.5, -693453.9, 99065.46, -0.062195726, 0.9750215, -585729.75, 70148.57, 0.0, 10.000372, 10.0000925 
2.934931e+3, 2.4308296e+2, -588073.56, -577855.56, 105370.016, -0.06671326, 0.9667446, -477470.75, 80412.555, 0.0, 10.000215, 10.000288 
2.9348207e+3, 2.5308287e+2, -477732.56, -437466.44, 100730.0, -0.08244652, 0.9735612, -354877.2, 105006.42, 0.0, 10.000139, 10.000617 
2.93471e+3, 2.6308286e+2, -421073.25, -372014.7, 98547.9, -0.08950905, 0.97959536, -294989.2, 66894.13, 0.0, 9.999912, 10.000502 
2.9345992e+3, 2.730829e+2, -375095.72, -259348.17, 59122.156, -0.07456677, 0.98330456, -234488.63, 29394.344, 0.0, 9.999377, 10.000863 
2.934488e+3, 2.830832e+2, -324157.0, -173787.03, 79156.28, -0.0743419, 0.98395103, -139800.14, 26080.605, 0.0, 9.999011, 10.000954 
2.9343754e+3, 2.9308352e+2, -129357.086, -15752.836, 9650.677, -0.15144777, 0.97965217, -14938.844, 52938.723, 0.0, 9.9995985, 10.001094 
2.9461405e+3, 1.3320069e+2, -1617813.3, -1657626.4, -35823.117, -0.021936407, 0.97905964, -1596737.4, 37992.563, 0.0, 10.000626, 10.000092 
2.9460293e+3, 1.4320032e+2, -1499091.5, -1543632.4, 9359.302, 0.0122342985, 0.9925023, -1497204.8, 39529.28, 0.0, 10.000743, 10.000145 
2.9459187e+3, 1.5319982e+2, -1424031.4, -1466452.6, 47388.355, 0.0072539696, 0.9955394, -1393323.4, 45415.855, 0.0, 10.000635, 10.00005 
2.9458085e+3, 1.6319932e+2, -1334440.3, -1364180.0, 48639.28, 0.009963094, 1.0002408, -1298448.6, 42295.855, 0.0, 10.000542, 10.000124 
2.9456982e+3, 1.7319894e+2, -1227729.9, -1254020.5, 62035.004, -0.009048413, 1.0078269, -1177462.8, 65286.027, 0.0, 10.000572, 10.00019 
2.9455882e+3, 1.831985e+2, -1134389.3, -1168884.0, 71541.91, -0.02769801, 1.0104469, -1078045.0, 66708.336, 0.0, 10.000587, 10.000094 
2.945479e+3, 1.9319794e+2, -1035534.06, -1063749.8, 90502.5, -0.0250164, 1.0044119, -958046.44, 88712.46, 0.0, 10.000567, 10.000152 
2.9453695e+3, 2.0319743e+2, -942462.7, -964061.25, 91794.63, -0.025775164, 1.0000972, -860834.3, 87929.14, 0.0, 10.000517, 10.000187 
2.94526e+3, 2.1319707e+2, -848990.0, -851417.7, 91873.61, -0.044089988, 0.9994854, -758322.25, 92444.055, 0.0, 10.000414, 10.000337 
2.9451504e+3, 2.231966e+2, -781314.9, -802486.5, 83738.266, -0.059422784, 0.99394786, -707496.0, 45274.387, 0.0, 10.000355, 10.000028 
2.9450405e+3, 2.3319587e+2, -668488.75, -682403.4, 80056.42, -0.0641003, 0.97830814, -595087.9, 59689.695, 0.0, 10.000391, 10.000162 
2.9449305e+3, 2.4319543e+2, -566587.8, -554443.3, 85585.39, -0.07068749, 0.9710818, -474715.03, 82066.69, 0.0, 10.000298, 10.000413 
2.94482e+3, 2.5319552e+2, -490111.53, -428142.03, 66103.336, -0.08304878, 0.981235, -386121.94, 72658.41, 0.0, 9.999979, 10.000763 
2.9447094e+3, 2.631957e+2, -436356.66, -375183.9, 54384.867, -0.09132972, 0.99139273, -343374.44, 17404.281, 0.0, 9.999777, 10.000551 
2.9445985e+3, 2.731958e+2, -299391.94, -227618.11, 21880.094, -0.08696795, 1.0010011, -221473.97, 41304.223, 0.0, 9.999903, 10.000835 
2.9444867e+3, 2.831961e+2, -196969.89, -106793.47, 37575.24, -0.08908309, 1.004144, -93188.875, 71586.875, 0.0, 9.999842, 10.001023 
2.9443744e+3, 2.9319635e+2, -144342.02, -48108.598, 1803.1085, -0.15085392, 0.9932458, -48074.824, 18698.617, 0.0, 9.999598, 10.000875 
2.9561406e+3, 1.3331154e+2, -1591169.3, -1596163.1, -27135.393, 0.0021107562, 0.9676045, -1566416.1, 67228.65, 0.0, 10.0006, 10.000525 
2.9560292e+3, 1.4331138e+2, -1491694.1, -1522673.9, 9252.143, 0.0209591, 0.97040814, -1489141.4, 46504.137, 0.0, 10.00072, 10.000299 
2.9559186e+3, 1.5331085e+2, -1416798.6, -1450995.1, 40723.414, 0.0008405666, 0.9588912, -1389729.6, 47921.293, 0.0, 10.000632, 10.000157 
2.9558083e+3, 1.6331042e+2, -1334298.6, -1366038.8, 48472.926, 0.00042626547, 0.9643287, -1299163.9, 40491.83, 0.0, 10.000551, 10.000107 
2.9556984e+3, 1.7331031e+2, -1230303.5, -1260461.5, 62784.668, 0.004378205, 1.0021207, -1180812.5, 60845.69, 0.0, 10.000577, 10.000144 
2.9555887e+3, 1.8331008e+2, -1122242.6, -1143703.4, 71694.7, -0.008884683, 1.0215456, -1060479.8, 83181.195, 0.0, 10.0005865, 10.000268 
2.955479e+3, 1.9330962e+2, -1020130.5, -1031253.06, 88855.734, -0.036262814, 1.0054629, -936662.2, 109002.65, 0.0, 10.000564, 10.000377 
2.9553694e+3, 2.0330922e+2, -939368.9, -956905.1, 88200.64, -0.04920775, 0.99722624, -859501.6, 88166.47, 0.0, 10.000512, 10.000238 
2.95526e+3, 2.1330896e+2, -847632.7, -848860.5, 87248.445, -0.044640068, 1.0044012, -760996.0, 88674.305, 0.0, 10.000414, 10.000355 
2.9551503e+3, 2.2330864e+2, -768625.0, -776944.9, 84373.266, -0.050425142, 1.0067669, -688309.2, 63363.81, 0.0, 10.000358, 10.000202 
2.9550403e+3, 2.3330821e+2, -653964.0, -653062.06, 80885.74, -0.072009645, 0.9992114, -572626.06, 81051.125, 0.0, 10.000393, 10.000363 
2.95493e+3, 2.4330792e+2, -565287.8, -551876.75, 75511.47, -0.085398115, 0.99414665, -482773.66, 72906.2, 0.0, 10.000297, 10.000432 
2.9548195e+3, 2.5330788e+2, -494722.6, -437101.25, 53274.707, -0.08467791, 0.9949723, -405345.84, 52334.305, 0.0, 9.999975, 10.000705 
2.9547086e+3, 2.6330793e+2, -427970.0, -358211.6, 53654.91, -0.09402087, 0.99525535, -329095.4, 30584.137, 0.0, 9.999778, 10.000669 
2.9545972e+3, 2.7330804e+2, -294365.56, -221049.05, 31755.457, -0.1159134, 0.9939066, -209207.45, 52471.34, 0.0, 9.99992, 10.000873 
2.9544857e+3, 2.8330842e+2, -202079.1, -120036.4, 20475.65, -0.113918245, 1.0008545, -115210.14, 48465.594, 0.0, 9.999854, 10.000926 
2.9543737e+3, 2.9330894e+2, -146449.19, -38713.605, 2507.96, -0.117208585, 1.0225207, -38655.254, 27015.365, 0.0, 9.999546, 10.00096 
2.9661405e+3, 1.3342291e+2, -1641611.4, -1612918.6, -24911.404, -0.003840743, 1.007815, -1598517.9, 34035.96, 0.0, 10.000217, 10.000596 
2.9660296e+3, 1.4342275e+2, -1540222.9, -1539859.6, -4530.6553, 0.03110323, 1.0029067, -1535507.0, -952.5675, 0.0, 10.000357, 10.000358 
2.9659188e+3, 1.5342237e+2, -1438766.9, -1456999.5, 18956.611, 0.009474375, 0.9998075, -1426848.5, 9710.181, 0.0, 10.000458, 10.000203 
2.9658082e+3, 1.6342193e+2, -1340116.4, -1365808.0, 27062.865, 0.008895752, 1.001997, -1323005.4, 15558.006, 0.0, 10.000493, 10.000138 
2.9656985e+3, 1.7342162e+2, -1243407.0, -1263439.5, 45475.508, 0.0111656925, 1.0155752, -1206857.8, 33709.64, 0.0, 10.000466, 10.000179 
2.9655886e+3, 1.8342133e+2, -1140006.3, -1145565.9, 54301.992, -0.005047387, 1.0236461, -1088413.0, 54157.71, 0.0, 10.000429, 10.000334 
2.965479e+3, 1.9342107e+2, -1041150.2, -1032732.0, 61345.023, -0.037403576, 1.0192726, -975451.8, 69121.086, 0.0, 10.000376, 10.000461 
2.9653692e+3, 2.034208e+2, -956829.56, -954904.2, 57274.59, -0.05647923, 1.0130999, -898584.2, 47991.016, 0.0, 10.000341, 10.000339 
2.9652596e+3, 2.134205e+2, -848364.8, -838336.9, 62015.37, -0.058691412, 1.0054265, -781133.1, 67444.54, 0.0, 10.000355, 10.000459 
2.96515e+3, 2.2342026e+2, -755075.25, -749633.6, 65480.69, -0.06748199, 1.0003456, -686817.25, 63762.305, 0.0, 10.000353, 10.000396 
2.96504e+3, 2.3342009e+2, -649030.1, -629647.94, 62321.08, -0.086129755, 0.99915624, -576269.0, 76311.99, 0.0, 10.000328, 10.00056 
2.9649296e+3, 2.4342002e+2, -561802.56, -542649.4, 52476.63, -0.09376663, 0.99916035, -498882.66, 55698.992, 0.0, 10.000279, 10.000508 
2.9648188e+3, 2.5342e+2, -461367.6, -424240.75, 34422.066, -0.08347973, 1.0014858, -403695.63, 52886.164, 0.0, 10.000208, 10.000686 
2.964708e+3, 2.6342005e+2, -375775.6, -328185.03, 39480.56, -0.09339086, 1.000101, -305883.34, 52697.97, 0.0, 10.000104, 10.000723 
2.9645965e+3, 2.734201e+2, -285311.78, -224182.88, 18947.82, -0.1333206, 0.99188036, -218786.16, 41794.88, 0.0, 10.000005, 10.000815 
2.964485e+3, 2.834204e+2, -187967.84, -121609.89, -10380.5625, -0.12887275, 0.9972114, -120023.94, 42554.53, 0.0, 9.999976, 10.000862 
2.964373e+3, 2.9342094e+2, -82874.086, -20189.11, -18932.068, -0.093179986, 1.0285743, -14915.006, 49657.918, 0.0, 10.000025, 10.000862 
2.9761398e+3, 1.3353458e+2, -1646067.9, -1632904.1, -22366.672, -0.027871646, 1.0823236, -1616171.0, 15288.895, 0.0, 10.000265, 10.000436 
2.9760292e+3, 1.4353427e+2, -1539507.3, -1538998.0, 303.8277, 0.041832857, 1.0730685, -1538856.1, -5394.0405, 0.0, 10.0003605, 10.000361 
2.9759187e+3, 1.5353414e+2, -1438262.4, -1456097.9, 20777.95, 0.0281256, 1.0953751, -1424569.3, 10894.866, 0.0, 10.000458, 10.000209 
2.9758084e+3, 1.635337e+2, -1334895.1, -1354731.6, 26792.076, 0.029177926, 1.0913881, -1316244.4, 21224.607, 0.0, 10.000492, 10.000216 
2.975698e+3, 1.7353284e+2, -1235926.8, -1248262.4, 43914.406, 0.011651057, 1.0411142, -1197749.1, 41728.04, 0.0, 10.000468, 10.000283 
2.9755884e+3, 1.8353228e+2, -1141008.0, -1148017.0, 53273.57, -0.012960473, 1.018079, -1091123.8, 50358.957, 0.0, 10.000431, 10.000317 
2.9754785e+3, 1.935323e+2, -1042532.4, -1036167.7, 59715.99, -0.029661734, 1.0435249, -979549.3, 63933.977, 0.0, 10.000378, 10.000436 
2.9753688e+3, 2.0353214e+2, -945744.4, -932190.8, 58300.793, -0.05064166, 1.0435584, -880274.25, 65210.67, 0.0, 10.000341, 10.000494 
2.975259e+3, 2.1353169e+2, -835303.1, -810476.6, 62870.703, -0.085658975, 1.0014392, -758805.44, 88682.914, 0.0, 10.000351, 10.000652 
2.9751492e+3, 2.2353144e+2, -740356.1, -717886.25, 65008.785, -0.10819754, 0.9753559, -663148.7, 86341.33, 0.0, 10.000347, 10.000617 
2.9750392e+3, 2.3353153e+2, -635242.94, -600628.1, 61210.086, -0.10560501, 0.97864634, -554325.6, 97163.29, 0.0, 10.000325, 10.000761 
2.9749292e+3, 2.435317e+2, -551298.9, -520879.44, 49266.65, -0.09624944, 0.9868332, -484528.13, 68958.914, 0.0, 10.000278, 10.000659 
2.9748186e+3, 2.535319e+2, -457972.8, -417797.13, 32732.697, -0.07965274, 1.0010375, -399479.88, 56005.1, 0.0, 10.00021, 10.000729 
2.9747075e+3, 2.6353207e+2, -375071.0, -327383.84, 33813.13, -0.08869257, 1.0061207, -309852.97, 47630.695, 0.0, 10.000107, 10.000728 
2.9745957e+3, 2.7353203e+2, -296418.88, -244344.83, 18294.768, -0.13677551, 0.9961116, -238560.08, 20924.39, 0.0, 9.999993, 10.000681 
2.9744843e+3, 2.8353217e+2, -188749.94, -119801.96, -9638.519, -0.13298179, 0.9934366, -118479.9, 43003.504, 0.0, 9.999963, 10.00088 
2.9743725e+3, 2.935324e+2, -96379.5, -50985.84, -10590.537, -0.08353564, 1.0049709, -48636.6, 14843.359, 0.0, 10.00004, 10.000642 
2.9861397e+3, 1.3364339e+2, -1613952.6, -1613767.0, -39777.277, -0.021736875, 0.8935844, -1574082.5, 56311.758, 0.0, 10.000472, 10.000466 
2.9860294e+3, 1.4364317e+2, -1549525.1, -1540900.1, -534.10547, 0.071882024, 0.88918555, -1540867.3, -8471.926, 0.0, 10.00028, 10.000386 
2.9859185e+3, 1.5364324e+2, -1450988.5, -1461135.1, 17288.07, 0.033873316, 0.9290923, -1438044.8, -3648.869, 0.0, 10.000366, 10.000218 
2.9858083e+3, 1.6364306e+2, -1340856.5, -1347653.6, 22560.432, 0.01685722, 0.9478976, -1321440.1, 14958.194, 0.0, 10.000408, 10.000304 
2.9856983e+3, 1.7364264e+2, -1236278.3, -1237623.9, 37248.164, 0.015973551, 0.9322373, -1199696.9, 38705.277, 0.0, 10.000418, 10.0003805 
2.9855883e+3, 1.8364255e+2, -1140479.1, -1139081.9, 48682.1, 0.008245597, 0.94480395, -1091093.4, 49309.83, 0.0, 10.000396, 10.000396 
2.9854786e+3, 1.9364297e+2, -1041544.3, -1028677.3, 60175.875, 0.0031314178, 1.0048577, -974592.0, 67807.82, 0.0, 10.000351, 10.000502 
2.9853693e+3, 2.0364319e+2, -947599.8, -922262.75, 60784.223, -0.009214615, 1.0337707, -872840.94, 71556.82, 0.0, 10.000278, 10.000595 
2.985259e+3, 2.1364298e+2, -856821.8, -808523.2, 59485.207, -0.043138046, 1.0078256, -768472.2, 77926.05, 0.0, 10.000145, 10.000768 
2.985149e+3, 2.2364298e+2, -779876.4, -727264.75, 55833.477, -0.07157018, 0.99426097, -691850.44, 56547.09, 0.0, 10.000029, 10.00071 
2.985039e+3, 2.336432e+2, -678455.3, -613611.5, 43881.59, -0.086304285, 1.0019684, -591473.56, 58921.668, 0.0, 9.9999895, 10.000837 
2.9849288e+3, 2.4364343e+2, -576954.44, -511655.53, 28924.043, -0.09270398, 1.0016154, -500686.3, 51706.33, 0.0, 10.000003, 10.000858 
2.9848182e+3, 2.5364357e+2, -460398.75, -399038.06, 23485.049, -0.08554768, 0.9899703, -391081.25, 63308.836, 0.0, 10.000102, 10.000913 
2.984707e+3, 2.636438e+2, -352382.94, -305601.16, 31112.068, -0.089764, 0.9861231, -290067.8, 66319.93, 0.0, 10.00021, 10.00083 
2.9845956e+3, 2.7364397e+2, -249058.89, -220173.6, 28442.848, -0.111117005, 0.9937768, -202716.63, 55670.02, 0.0, 10.00031, 10.000696 
2.984484e+3, 2.8364417e+2, -131836.14, -91951.195, 4594.8125, -0.101756245, 0.9950273, -91428.71, 68956.5, 0.0, 10.000351, 10.000885 
2.984372e+3, 2.936442e+2, -69166.9, -43130.777, 8048.39, -0.08168893, 0.98651904, -40843.723, 21539.982, 0.0, 10.000251, 10.000593 
2.9961395e+3, 1.3375597e+2, -1593274.5, -1592480.5, -1640.1166, -0.007949278, 1.0799402, -1591190.0, 38101.67, 0.0, 10.000557, 10.000576 
2.9960287e+3, 1.4375535e+2, -1552501.9, -1545652.3, 27937.443, 0.0400041, 1.0311137, -1520930.5, 10365.44, 0.0, 10.000266, 10.000365 
2.995918e+3, 1.5375526e+2, -1481510.3, -1482324.9, 9477.139, 0.034632083, 1.0600299, -1472431.6, -39133.145, 0.0, 10.000174, 10.000171 
2.9958078e+3, 1.6375506e+2, -1383602.6, -1364377.9, -13827.319, 0.012741525, 1.0758458, -1357150.0, -21848.227, 0.0, 10.000087, 10.00035 
2.995698e+3, 1.7375495e+2, -1261018.4, -1245196.3, -24638.951, -0.0032467113, 1.0840659, -1227229.5, 10074.061, 0.0, 10.000217, 10.000431 
2.995588e+3, 1.8375483e+2, -1141378.6, -1126712.5, -28954.22, -0.019418055, 1.0849011, -1104177.1, 35127.793, 0.0, 10.000322, 10.000522 
2.995478e+3, 1.9375473e+2, -1034396.06, -1013044.75, -21935.693, -0.04769224, 1.076314, -999324.8, 41981.46, 0.0, 10.000338, 10.000621 
2.9953685e+3, 2.0375468e+2, -935319.75, -913079.56, -20092.418, -0.05036391, 1.0690657, -901235.25, 42070.918, 0.0, 10.0003395, 10.000633 
2.9952586e+3, 2.1375452e+2, -823253.6, -788276.25, -10479.544, -0.04560859, 1.0389867, -785376.9, 59929.57, 0.0, 10.00035, 10.000812 
2.995149e+3, 2.2375464e+2, -738599.06, -711093.0, 3528.49, -0.0425925, 1.0369813, -710647.56, 36656.688, 0.0, 10.000322, 10.000682 
2.9950386e+3, 2.3375486e+2, -634163.75, -596490.7, 11486.239, -0.06989708, 1.0445321, -593264.8, 56037.64, 0.0, 10.000308, 10.000803 
2.9949284e+3, 2.4375504e+2, -527307.4, -457587.2, 16743.61, -0.092342116, 1.0320241, -453774.63, 97524.93, 0.0, 10.000212, 10.00113 
2.9948175e+3, 2.5375497e+2, -431866.88, -346892.63, 26796.295, -0.10256531, 0.9650826, -339148.3, 114148.84, 0.0, 10.000133, 10.001256 
2.9947066e+3, 2.6375523e+2, -337345.16, -274115.5, 35031.61, -0.09695555, 0.9366124, -258542.28, 96751.18, 0.0, 10.00021, 10.001046 
2.994596e+3, 2.73756e+2, -235582.77, -193603.89, 34861.03, -0.05103474, 0.98313475, -173901.22, 83385.85, 0.0, 10.000318, 10.0008745 
2.9944846e+3, 2.8375646e+2, -132448.14, -95198.305, 4065.6824, -0.029471017, 1.0018405, -94759.72, 64523.453, 0.0, 10.000361, 10.000857 
2.9943717e+3, 2.9375628e+2, -61935.234, -28990.521, 2565.6326, -0.09071688, 0.972552, -28791.916, 32491.76, 0.0, 10.000256, 10.000689 
