coord_x,coord_y,stress_xx,stress_yy,tau_xy,velocity_x,velocity_y,stress_1,eps,damage,lx,ly
4.9994025e+0, 1.2514345e+2, -1824415.0, -1671313.5, -11536.316, -0.0014735615, 0.15102582, -1670449.1, 43160.965, 0.0013801174, 9.998826, 10.000861 
4.9995774e+0, 1.3514373e+2, -1751463.9, -1739208.9, -2412.1453, -0.008534364, 0.22902048, -1738751.3, -123142.19, 0.0008364695, 9.99932, 9.999483 
4.9997625e+0, 1.451427e+2, -1565580.5, -1536646.6, -2298.5212, -0.0068096966, 0.14893603, -1536465.1, -18845.535, 0.00038681776, 9.999656, 10.000033 
4.9999705e+0, 1.5514307e+2, -1446654.9, -1439452.8, -2838.0654, 0.004488753, 0.18424138, -1438468.9, -18853.186, 0.00011816065, 9.999847, 9.999935 
5.000014e+0, 1.6514325e+2, -1342845.4, -1349635.3, -8558.507, 0.0044907574, 0.21395059, -1337033.0, -15419.022, 0.000016018055, 9.999934, 9.999839 
4.999908e+0, 1.7514282e+2, -1246419.6, -1254171.9, -14557.951, -0.0059657656, 0.18132505, -1235230.6, -11611.776, 0.00000013955699, 9.999932, 9.999823 
4.9999517e+0, 1.8514252e+2, -1141787.8, -1165302.1, -10777.727, -0.0065014563, 0.17397138, -1137595.4, -11973.626, 0.0, 10.000031, 9.999714 
5.0001377e+0, 1.9514245e+2, -1018804.06, -1059727.4, -6097.3306, 0.0025867962, 0.19270727, -1017914.94, 9706.569, 0.0, 10.000222, 9.999674 
5.000217e+0, 2.0514192e+2, -913796.4, -987189.6, -5817.8164, 0.0018953017, 0.18628588, -913338.06, 16287.584, 0.0, 10.000395, 9.999414 
5.000193e+0, 2.151409e+2, -794774.2, -881971.94, -10667.142, -0.008348777, 0.1386106, -793488.2, 38146.24, 0.0, 10.000551, 9.999389 
5.0002474e+0, 2.2514015e+2, -687131.5, -781919.5, -12849.017, -0.0068025994, 0.12616295, -685420.6, 48220.242, 0.0, 10.000629, 9.999365 
5.000372e+0, 2.3513964e+2, -590850.44, -687457.44, -9170.253, 0.0057147895, 0.13243462, -589987.7, 45657.625, 0.0, 10.000628, 9.999341 
5.0004494e+0, 2.4513899e+2, -476770.8, -589965.44, -1178.1246, 0.0061192308, 0.13833006, -476758.56, 60891.867, 0.0, 10.000774, 9.999269 
5.0004834e+0, 2.5513822e+2, -339239.4, -477339.66, -985.3839, -0.005013546, 0.13064831, -339232.38, 100424.09, 0.0, 10.001065, 9.9992285 
5.000589e+0, 2.6513687e+2, -224351.94, -388555.38, -8486.589, -0.004005095, 0.08236658, -223914.48, 117753.28, 0.0, 10.001256, 9.999073 
5.0007623e+0, 2.7513504e+2, -114707.57, -288021.3, -19347.23, 0.008693688, -0.012738073, -112574.08, 131109.45, 0.0, 10.001349, 9.999045 
5.000819e+0, 2.8513417e+2, -63440.805, -324821.72, -10182.013, 0.006211091, 0.04408187, -63044.77, 82647.87, 0.000000004221918, 10.001512, 9.99804 
5.000762e+0, 2.9513398e+2, 71211.83, -204728.17, 12859.203, -0.011128494, 0.21729495, 71809.8, 119506.984, 0.0000065845143, 10.001744, 9.99808 
5.00091e+0, 3.051302e+2, 132470.72, -196164.6, 15148.842, -0.010413519, 0.052643787, 133167.55, 133167.55, 0.0000754208, 10.002027, 9.997673 
5.0012827e+0, 3.1512856e+2, 324409.94, 129428.69, -6691.664, 0.010980148, 0.12328728, 324639.3, 324639.3, 0.00026987135, 10.00234, 9.99976 
1.4998202e+1, 1.2514286e+2, -1806474.3, -1632461.8, 6688.873, -0.0048517263, 0.14993319, -1632205.0, 81411.21, 0.00135349, 9.99882, 10.001131 
1.4998735e+1, 1.351433e+2, -1732550.9, -1699063.1, 15948.528, -0.025406731, 0.21729526, -1692683.1, -77071.266, 0.0008181531, 9.999318, 9.999761 
1.4999285e+1, 1.4514236e+2, -1565830.9, -1535722.0, 4164.6, -0.020535404, 0.13176613, -1535156.6, -17535.436, 0.00037595516, 9.999651, 10.000042 
1.499991e+1, 1.5514266e+2, -1446707.0, -1438564.5, 4489.69, 0.013502805, 0.16040663, -1436575.0, -16956.346, 0.00011312574, 9.999844, 9.999944 
1.5000042e+1, 1.6514288e+2, -1353232.6, -1370138.0, -9469.796, 0.013455016, 0.20085125, -1348991.8, -27374.422, 0.000014709239, 9.99993, 9.999701 
1.4999723e+1, 1.7514265e+2, -1257127.4, -1275437.3, -14424.641, -0.017910585, 0.20166858, -1249197.8, -25576.541, 0.00000010097208, 9.999928, 9.999679 
1.4999855e+1, 1.8514234e+2, -1132850.3, -1145484.9, -3841.1748, -0.019548232, 0.1958296, -1131774.1, -6150.285, 0.0, 10.000026, 9.999853 
1.5000413e+1, 1.9514215e+2, -1009336.7, -1039522.6, 1467.5807, 0.007782597, 0.18879026, -1009265.5, 18358.588, 0.0, 10.00022, 9.999814 
1.500065e+1, 2.0514163e+2, -921888.4, -1002954.4, -430.71313, 0.005627325, 0.18188359, -921886.06, 7742.2153, 0.0, 10.000391, 9.99931 
1.500058e+1, 2.1514075e+2, -803012.9, -898039.44, -4272.718, -0.024869507, 0.1586262, -802821.1, 28815.842, 0.0, 10.000547, 9.999281 
1.500074e+1, 2.2514004e+2, -679261.1, -764267.8, -13293.362, -0.020614978, 0.14937206, -677230.75, 56412.32, 0.0, 10.000624, 9.999489 
1.5001118e+1, 2.3513952e+2, -583436.25, -671504.1, -8511.387, 0.017284956, 0.14615875, -582621.2, 53025.32, 0.0, 10.000627, 9.999453 
1.5001346e+1, 2.4513878e+2, -476163.88, -587893.9, 9242.977, 0.018122306, 0.1346597, -475404.4, 62247.92, 0.0, 10.0007715, 9.999285 
1.5001449e+1, 2.5513774e+2, -337695.72, -473289.6, 10264.3955, -0.015118294, 0.101897545, -336923.13, 102737.53, 0.0, 10.001062, 9.999259 
1.5001766e+1, 2.6513672e+2, -243094.39, -426404.13, -5355.2583, -0.012017111, 0.09257776, -242938.06, 98732.4, 0.0, 10.001252, 9.998816 
1.5002286e+1, 2.7513564e+2, -134586.95, -328222.28, -15412.355, 0.025870595, 0.10202491, -133367.89, 110313.375, 0.0, 10.001346, 9.998772 
1.5002456e+1, 2.8513458e+2, -21106.969, -235744.38, -1954.7681, 0.018854262, 0.12521113, -21089.166, 124601.56, 0.0000000059189293, 10.001508, 9.998654 
1.5002282e+1, 2.951334e+2, 114174.414, -114277.83, 22485.793, -0.033805426, 0.13952173, 116366.58, 164066.48, 0.0000065077284, 10.0017395, 9.998704 
1.5002733e+1, 3.0512953e+2, 89755.836, -283643.25, 26719.352, -0.030748473, -0.042901464, 91658.11, 91658.11, 0.000074264535, 10.002023, 9.997075 
1.5003842e+1, 3.1512845e+2, 280139.13, 39551.723, 9905.666, 0.032186035, 0.14753494, 280546.28, 280546.28, 0.0002663471, 10.002334, 9.9991455 
2.4997076e+1, 1.2514201e+2, -1772302.0, -1599242.1, 9209.18, -0.007956516, 0.13745216, -1598753.4, 114870.88, 0.0013145427, 9.998986, 10.00128 
2.4997956e+1, 1.351426e+2, -1752992.3, -1691848.5, 6332.7334, -0.02471005, 0.20526217, -1691199.5, -75582.13, 0.0007913486, 9.999105, 9.999914 
2.4998693e+1, 1.451417e+2, -1620470.0, -1566237.5, -12678.856, -0.027100865, 0.11848992, -1563419.8, -45793.49, 0.00036019128, 9.999293, 10.000007 
2.49994e+1, 1.55142e+2, -1489149.5, -1462878.9, -16159.548, -0.008457732, 0.14910628, -1455189.5, -35564.723, 0.00010584406, 9.999569, 9.999909 
2.499972e+1, 1.6514227e+2, -1365731.8, -1370146.1, -27749.916, -0.0063765845, 0.19356184, -1340101.4, -18478.064, 0.000012859098, 9.999819, 9.999755 
2.4999695e+1, 1.7514214e+2, -1237129.1, -1260204.8, -18477.957, -0.01936524, 0.20030771, -1226882.6, -3257.0044, 0.00000006033416, 10.000042, 9.99973 
2.4999988e+1, 1.8514185e+2, -1116835.0, -1141935.5, -6380.7803, -0.015086723, 0.1944908, -1115306.0, 10322.153, 0.0, 10.0001545, 9.999816 
2.5000587e+1, 1.9514157e+2, -1019251.0, -1047935.0, -14713.035, 0.005629749, 0.18270761, -1013046.3, 14583.194, 0.0, 10.000169, 9.999782 
2.5000945e+1, 2.0514111e+2, -944977.7, -1009761.8, -16350.365, 0.0047289515, 0.18059452, -941085.06, -11451.542, 0.0, 10.000214, 9.999348 
2.5001067e+1, 2.1514039e+2, -839169.06, -911328.5, -9768.548, -0.017590975, 0.16985823, -837870.0, -6229.198, 0.0, 10.000281, 9.999318 
2.5001347e+1, 2.2513966e+2, -697488.25, -772454.7, -14026.528, -0.015541355, 0.15772097, -694949.8, 38697.137, 0.0, 10.000496, 9.9994955 
2.5001785e+1, 2.3513901e+2, -550108.75, -654562.5, -18332.992, 0.010038656, 0.13970074, -546984.56, 88666.86, 0.0, 10.000853, 9.99946 
2.5002182e+1, 2.4513827e+2, -444515.06, -573534.25, -6518.0625, 0.013309435, 0.12997594, -444186.6, 93470.54, 0.0, 10.000993, 9.999277 
2.500255e+1, 2.551374e+2, -358244.38, -483404.25, -7793.64, -0.0042837407, 0.11254192, -357760.94, 81903.49, 0.0, 10.000922, 9.999257 
2.5003016e+1, 2.6513642e+2, -278780.47, -447557.5, -12807.115, -0.0005353161, 0.11090444, -277814.16, 63859.906, 0.0, 10.001024, 9.99878 
2.5003594e+1, 2.751353e+2, -143689.44, -337256.7, -5400.448, 0.024411352, 0.12062026, -143538.89, 100146.72, 0.0, 10.001303, 9.998731 
2.5004002e+1, 2.8513423e+2, -1453.1653, -215536.69, 1424.6145, 0.01856395, 0.13815273, -1443.6857, 144251.34, 0.0000000086392555, 10.001596, 9.998751 
2.500422e+1, 2.9513305e+2, 140771.47, -91028.81, -14889.056, -0.020942021, 0.14163956, 141723.92, 189427.2, 0.0000063841276, 10.001878, 9.998797 
2.5004792e+1, 3.0512908e+2, 83657.75, -288908.66, -11477.209, -0.025714878, -0.050744765, 84010.984, 84010.984, 0.00007245599, 10.001993, 9.997053 
2.5005814e+1, 3.1512797e+2, 222762.25, 5144.575, 18704.559, 0.014386093, 0.13845333, 224358.22, 224358.22, 0.00026087384, 10.00197, 9.999084 
3.4996018e+1, 1.2514088e+2, -1770375.4, -1595121.1, 13011.938, -0.0145215485, 0.11068936, -1594160.4, 119474.21, 0.0012623775, 9.998986, 10.001308 
3.4997228e+1, 1.3514161e+2, -1750102.4, -1686546.4, 11547.036, -0.00885214, 0.1918636, -1684513.5, -68888.0, 0.000755357, 9.999108, 9.9999485 
3.499798e+1, 1.4514075e+2, -1625477.8, -1576530.9, -3496.9028, -0.029154029, 0.108196884, -1576282.3, -58647.64, 0.00033918672, 9.999293, 9.999936 
3.4998435e+1, 1.5514109e+2, -1494836.8, -1473819.3, -5702.101, -0.062498465, 0.15215947, -1472371.9, -52738.04, 0.00009620481, 9.999566, 9.999837 
3.4999043e+1, 1.651414e+2, -1348519.6, -1333271.9, -19565.98, -0.056768645, 0.19180946, -1319896.9, 1734.7217, 0.000010539653, 9.999815, 10.0000105 
3.4999812e+1, 1.7514129e+2, -1219679.0, -1223651.5, -9741.699, -0.012314223, 0.17657983, -1211723.1, 11909.095, 0.000000028001644, 10.000041, 9.999981 
3.5000348e+1, 1.8514101e+2, -1131423.8, -1171545.3, -6374.682, 0.0047765095, 0.16891173, -1130435.3, -4800.4873, 0.0, 10.000152, 9.999614 
3.5000655e+1, 1.9514072e+2, -1034073.2, -1077682.0, -13659.84, -0.004745562, 0.17501684, -1030147.8, -2510.0098, 0.0, 10.000164, 9.999579 
3.500109e+1, 2.0514034e+2, -932848.5, -982944.8, -13913.648, -0.0023165008, 0.1821534, -929243.56, 397.69858, 0.0, 10.000208, 9.999535 
3.500165e+1, 2.151398e+2, -826687.75, -884843.44, -6571.2144, 0.012117235, 0.17228189, -825954.5, 5691.495, 0.0, 10.000279, 9.999501 
3.500207e+1, 2.2513902e+2, -704766.44, -786610.94, -1043.4073, 0.006442506, 0.14999534, -704753.1, 28899.297, 0.0, 10.000492, 9.9994 
3.5002372e+1, 2.3513807e+2, -557077.6, -668756.7, -4534.1055, -0.016950356, 0.112933725, -556893.8, 78766.23, 0.0, 10.000851, 9.999364 
3.5002944e+1, 2.4513748e+2, -446435.84, -576139.8, -9514.462, -0.009691472, 0.12293853, -445741.63, 91923.37, 0.0, 10.000988, 9.999261 
3.500378e+1, 2.5513718e+2, -360641.6, -487298.56, -9991.841, 0.026028879, 0.16307303, -359858.2, 79809.6, 0.0, 10.000917, 9.999232 
3.5004333e+1, 2.65136e+2, -265889.78, -419695.2, -2709.299, 0.028404083, 0.13641052, -265842.06, 75836.586, 0.0, 10.00102, 9.998974 
3.500468e+1, 2.751341e+2, -130115.484, -307748.9, 5807.7876, 0.0021949885, 0.04408287, -129925.8, 113770.67, 0.0, 10.001298, 9.998936 
3.500546e+1, 2.851331e+2, -31585.242, -276899.88, 11808.138, 0.0041216956, 0.08217148, -31018.172, 114687.35, 0.000000011844628, 10.001592, 9.998332 
3.5006565e+1, 2.9513288e+2, 110374.555, -152618.08, -4100.4805, 0.02513351, 0.22362715, 110438.48, 158145.9, 0.0000061783935, 10.001873, 9.998377 
3.500708e+1, 3.0512893e+2, 122006.93, -207910.55, -13147.683, 0.003456711, 0.028213896, 122530.055, 122530.055, 0.00006980885, 10.001988, 9.997612 
3.500719e+1, 3.151272e+2, 257696.31, 79207.76, 22931.152, -0.046329867, 0.09833446, 260595.28, 260595.28, 0.00025299258, 10.0019655, 9.999595 
4.4995067e+1, 1.2513983e+2, -1760127.0, -1597618.3, 19927.271, -0.012503301, 0.097441465, -1595210.4, 118433.445, 0.0011988538, 9.999087, 10.0012455 
4.4996366e+1, 1.3514064e+2, -1721850.9, -1677501.1, 10241.562, -0.016910627, 0.18770449, -1675250.4, -59615.758, 0.0007112032, 9.999324, 9.9999075 
4.4997242e+1, 1.4513974e+2, -1601099.0, -1560988.4, -3655.8928, -0.039723355, 0.10201139, -1560657.9, -43013.9, 0.00031351, 9.999445, 9.99997 
4.49979e+1, 1.5514013e+2, -1506694.9, -1476116.9, 1320.6521, -0.06738226, 0.1487839, -1476060.0, -56417.53, 0.000084590996, 9.99947, 9.999868 
4.49987e+1, 1.6514045e+2, -1381307.1, -1344119.0, -13095.572, -0.060204778, 0.18480673, -1339970.3, -18330.256, 0.000007991499, 9.999569, 10.000054 
4.499965e+1, 1.751403e+2, -1258337.8, -1236899.4, -19603.723, -0.01838925, 0.16012706, -1225275.6, -1634.8865, 0.000000008983813, 9.999753, 10.00003 
4.500034e+1, 1.8514003e+2, -1167630.9, -1189092.5, -20944.375, 0.001233645, 0.15158138, -1154828.4, -29185.172, 0.0, 9.999904, 9.999613 
4.5000768e+1, 1.951398e+2, -1055111.6, -1088199.5, -13628.943, -0.0026684918, 0.16461368, -1050220.8, -22574.627, 0.0, 10.000021, 9.999577 
4.5001334e+1, 2.0513944e+2, -928725.7, -977028.3, -6909.4478, 0.0009471648, 0.17302276, -927756.75, 1892.6301, 0.0, 10.000218, 9.999572 
4.500204e+1, 2.1513893e+2, -793509.6, -864055.2, -11387.877, 0.012920673, 0.16049907, -791716.94, 39936.68, 0.0, 10.000487, 9.999544 
4.5002624e+1, 2.2513819e+2, -685514.94, -777499.5, -6096.444, 0.0059747775, 0.13826413, -685112.7, 48547.16, 0.0, 10.000625, 9.999399 
4.5003104e+1, 2.3513725e+2, -588353.56, -683683.6, -2900.0596, -0.017983105, 0.10273324, -588265.44, 47402.082, 0.0, 10.000636, 9.999365 
4.5003837e+1, 2.4513668e+2, -486735.13, -599716.56, -9132.168, -0.006284824, 0.11611861, -486001.75, 51670.82, 0.0, 10.000728, 9.999225 
4.5004806e+1, 2.5513637e+2, -365896.1, -494028.6, -11430.103, 0.037957504, 0.16159293, -364884.47, 74791.055, 0.0, 10.000899, 9.999195 
4.500547e+1, 2.651352e+2, -244966.0, -408992.3, -1107.0737, 0.033144202, 0.134173, -244958.53, 96728.16, 0.0, 10.001161, 9.9989805 
4.5005912e+1, 2.7513322e+2, -100669.89, -292522.9, -7408.888, -0.014104854, 0.03350164, -100384.2, 143320.84, 0.0, 10.001495, 9.998945 
4.5006946e+1, 2.851322e+2, -34610.688, -291329.13, -3341.1538, -0.007875125, 0.07686829, -34567.21, 111147.17, 0.000000014278152, 10.001628, 9.998216 
4.500845e+1, 2.9513204e+2, 61070.836, -190420.48, 3384.887, 0.040820185, 0.23599024, 61116.387, 108832.875, 0.0000058442592, 10.001594, 9.998253 
4.5009097e+1, 3.0512813e+2, 97811.41, -202011.33, -8085.027, 0.019175481, 0.039941233, 98029.266, 98029.266, 0.000066210356, 10.001746, 9.99777 
4.5009148e+1, 3.1512654e+2, 270886.9, 94484.984, -1330.4608, -0.04900007, 0.10853478, 270896.94, 270896.94, 0.0002424885, 10.002015, 9.999678 
5.499421e+1, 1.2513894e+2, -1769604.5, -1619202.3, 28719.285, -0.0090066185, 0.099334076, -1613904.9, 99747.13, 0.0011275938, 9.999096, 10.001093 
5.4995364e+1, 1.3513966e+2, -1730287.6, -1694895.5, 18625.066, -0.04980234, 0.19575055, -1686900.3, -71256.0, 0.00066134764, 9.999324, 9.999789 
5.499648e+1, 1.4513867e+2, -1590697.0, -1538685.3, -2703.66, -0.06121014, 0.09935022, -1538545.1, -20890.932, 0.00028458898, 9.999442, 10.000126 
5.499777e+1, 1.5513915e+2, -1495990.3, -1454918.0, 3075.7576, -0.028357944, 0.13768421, -1454688.9, -35038.168, 0.00007188515, 9.999475, 10.000012 
5.4998666e+1, 1.6513944e+2, -1392325.5, -1367147.8, -6785.1504, -0.021277409, 0.17165685, -1365435.6, -43787.227, 0.0000055425044, 9.999571, 9.999896 
5.499921e+1, 1.7513916e+2, -1270035.6, -1259877.1, -12503.291, -0.03807987, 0.15228337, -1251460.8, -27809.74, 0.00000000116644, 9.999748, 9.999874 
5.499996e+1, 1.8513891e+2, -1154560.5, -1160485.6, -16464.422, -0.027869644, 0.14308208, -1140794.1, -15140.648, 0.0, 9.999898, 9.999812 
5.500091e+1, 1.9513883e+2, -1041385.0, -1059606.9, -8684.581, 0.00867781, 0.1505795, -1037909.0, -10254.318, 0.0, 10.000021, 9.999773 
5.5001664e+1, 2.0513846e+2, -935714.6, -991177.75, 2993.92, 0.011604455, 0.15203069, -935553.5, -5895.5454, 0.0, 10.000217, 9.999475 
5.500223e+1, 2.1513776e+2, -800856.56, -878652.4, -797.91675, -0.017151134, 0.13398857, -800848.4, 30815.36, 0.0, 10.000484, 9.999446 
5.5003e+1, 2.2513711e+2, -679243.94, -763009.2, -5842.6616, -0.019100713, 0.12159175, -678838.4, 54830.703, 0.0, 10.00062, 9.999501 
5.500397e+1, 2.3513652e+2, -581659.3, -669553.75, -1967.0859, 0.0046409117, 0.10955609, -581615.3, 54058.47, 0.0, 10.000634, 9.999463 
5.5004835e+1, 2.4513581e+2, -490400.8, -606822.94, -2922.7112, 0.020518044, 0.10854407, -490327.47, 47352.492, 0.0, 10.000726, 9.999177 
5.500562e+1, 2.5513503e+2, -369970.94, -501766.97, -4391.94, 0.029006753, 0.107946426, -369824.72, 69862.96, 0.0, 10.000896, 9.999144 
5.5006427e+1, 2.6513395e+2, -257517.16, -433924.88, 11366.953, 0.012064324, 0.1027119, -256787.73, 84910.61, 0.0, 10.001157, 9.998811 
5.5007285e+1, 2.7513263e+2, -113320.34, -317695.75, 5061.201, -0.02721401, 0.089000724, -113195.086, 130516.23, 0.0, 10.001492, 9.998774 
5.500845e+1, 2.8513157e+2, -22110.74, -264923.78, -5168.096, -0.021089429, 0.121743545, -22000.791, 123720.83, 0.000000014996283, 10.001626, 9.998399 
5.500987e+1, 2.9513058e+2, 73702.56, -162862.77, 3428.3154, 0.022828687, 0.18047528, 73752.234, 121482.51, 0.0000053587105, 10.001589, 9.998445 
5.5010843e+1, 3.051266e+2, 79661.34, -238888.19, 2260.6892, 0.018369088, -0.016289368, 79677.39, 79677.39, 0.00006167987, 10.001742, 9.9975195 
5.501168e+1, 3.1512588e+2, 246438.92, 44355.727, 13349.339, 0.00045306128, 0.166257, 247316.95, 247316.95, 0.00022941288, 10.002013, 9.999335 
6.49932e+1, 1.2513801e+2, -1781980.1, -1639111.8, 20382.418, -0.017825969, 0.12048789, -1636260.8, 77399.695, 0.001052614, 9.999072, 10.000966 
6.4994645e+1, 1.3513835e+2, -1751634.9, -1714579.9, 11012.421, -0.047977913, 0.18691319, -1711554.1, -95897.266, 0.00060904585, 9.999218, 9.999704 
6.499592e+1, 1.4513725e+2, -1590808.4, -1528314.1, -11574.074, -0.059195712, 0.079065956, -1526239.5, -8571.641, 0.000254567, 9.999397, 10.000218 
6.49973e+1, 1.5513803e+2, -1464410.8, -1429226.4, -10665.46, -0.031726476, 0.13951944, -1426245.8, -6584.819, 0.00005931439, 9.999647, 10.000105 
6.499829e+1, 1.6513838e+2, -1374375.1, -1359124.1, -20671.006, -0.021943068, 0.17461479, -1344716.9, -23059.074, 0.0000034805446, 9.999697, 9.99989 
6.499893e+1, 1.7513792e+2, -1299040.1, -1274443.4, -14809.556, -0.030380124, 0.13619803, -1267491.5, -43829.21, 0.00000000000024211628, 9.999553, 9.999868 
6.4999807e+1, 1.8513764e+2, -1187515.4, -1177568.0, -11248.134, -0.020978915, 0.12713371, -1170243.0, -44577.934, 0.0, 9.999679, 9.999801 
6.500094e+1, 1.9513772e+2, -1035260.25, -1057355.9, -19600.854, 0.007143894, 0.15205431, -1023808.1, 3856.8982, 0.0, 10.000068, 9.999765 
6.500189e+1, 2.0513739e+2, -922838.44, -981634.3, -13563.056, 0.008257708, 0.15493688, -919860.56, 9807.55, 0.0, 10.000292, 9.999504 
6.500265e+1, 2.151366e+2, -817024.2, -883169.44, -8110.3364, -0.017219575, 0.123536535, -816044.25, 15630.363, 0.0, 10.0003605, 9.999474 
6.500359e+1, 2.2513598e+2, -704194.44, -776256.56, -15803.788, -0.01312795, 0.114587955, -700880.9, 32798.773, 0.0, 10.000453, 9.999491 
6.5004724e+1, 2.3513557e+2, -592392.75, -675243.44, -20405.191, 0.019671258, 0.1202771, -587639.9, 48043.152, 0.0, 10.000564, 9.999458 
6.5005714e+1, 2.4513483e+2, -479581.75, -602688.06, -15375.294, 0.032013528, 0.115918115, -477690.5, 59999.125, 0.0, 10.000805, 9.999168 
6.500662e+1, 2.5513378e+2, -330281.06, -483121.94, -13833.151, 0.025725024, 0.092138775, -329039.16, 110660.21, 0.0, 10.001171, 9.99914 
6.500764e+1, 2.6513273e+2, -238692.36, -431458.84, 3583.1973, 0.009790766, 0.09172821, -238625.78, 103084.25, 0.0, 10.001314, 9.998752 
6.500879e+1, 2.7513164e+2, -152302.75, -343516.2, 5376.4277, -0.013232121, 0.107932255, -152151.69, 91569.586, 0.0, 10.001254, 9.998712 
6.501005e+1, 2.851306e+2, -45634.38, -268119.56, -3005.0747, -0.012440753, 0.14110807, -45593.797, 100137.805, 0.000000013847158, 10.00143, 9.998471 
6.5011376e+1, 2.9512942e+2, 110786.45, -135917.97, -3659.6704, 0.004256761, 0.17343682, 110840.73, 158582.38, 0.0000047556837, 10.001804, 9.998526 
6.5012467e+1, 3.0512542e+2, 96157.3, -222924.11, -2340.7583, 0.0032206818, -0.03339667, 96174.47, 96174.47, 0.000056396846, 10.001822, 9.997589 
6.5013695e+1, 3.1512502e+2, 170988.97, 2083.3958, 35064.645, 0.026071945, 0.17503561, 177979.08, 177979.08, 0.00021408794, 10.001521, 9.99928 
7.4992025e+1, 1.2513702e+2, -1787377.3, -1651520.1, 25655.865, -0.043967538, 0.15706979, -1646836.6, 66833.08, 0.0009783517, 9.999076, 10.000878 
7.499417e+1, 1.3513668e+2, -1753470.0, -1720883.8, 17091.059, -0.01887502, 0.15876648, -1713564.0, -97891.23, 0.00055803865, 9.999227, 9.999657 
7.499551e+1, 1.4513545e+2, -1588098.6, -1523473.9, -2603.987, -0.040173065, 0.039748535, -1523369.1, -5684.099, 0.00022607559, 9.999401, 10.00025 
7.4996495e+1, 1.5513681e+2, -1462746.8, -1424915.6, -1168.497, -0.07689414, 0.15526867, -1424879.5, -5206.483, 0.000048170983, 9.999643, 10.000137 
7.499758e+1, 1.6513728e+2, -1363955.9, -1336211.8, -26031.969, -0.062920876, 0.19380344, -1320586.4, 1082.0315, 0.0000019773436, 9.999691, 10.00005 
7.4998796e+1, 1.7513655e+2, -1288002.6, -1252284.8, -19424.275, 0.000105606494, 0.11116917, -1243757.3, -20082.596, 0.0, 9.999556, 10.000018 
7.499988e+1, 1.8513624e+2, -1202573.9, -1209115.1, 3303.7888, 0.017391093, 0.102677636, -1201195.6, -75517.71, 0.0, 9.99968, 9.999583 
7.500085e+1, 1.9513653e+2, -1050597.5, -1088261.4, -4818.0225, -0.008105233, 0.16976549, -1049991.0, -22313.877, 0.0, 10.000064, 9.999556 
7.5001997e+1, 2.0513625e+2, -912575.0, -959099.4, -11019.629, -0.009898041, 0.1819247, -910096.94, 19582.941, 0.0, 10.000287, 9.9996605 
7.500329e+1, 2.1513543e+2, -806678.75, -861217.5, -5123.861, 0.009959356, 0.12946776, -806201.56, 25484.842, 0.0, 10.000359, 9.999625 
7.500439e+1, 2.2513478e+2, -712277.7, -792685.94, -11820.638, 0.021297034, 0.11681642, -710576.0, 23115.596, 0.0, 10.000451, 9.999379 
7.500534e+1, 2.3513436e+2, -600464.6, -691711.06, -15826.522, 0.025383431, 0.1341851, -597797.56, 37897.824, 0.0, 10.000562, 9.999346 
7.500648e+1, 2.4513365e+2, -477310.4, -597142.0, -1805.2097, 0.027122108, 0.13629536, -477283.22, 60418.563, 0.0, 10.000802, 9.9992075 
7.500779e+1, 2.5513268e+2, -327746.1, -477518.7, -193.86505, 0.025273848, 0.11454752, -327745.84, 111964.76, 0.0, 10.001169, 9.999179 
7.5009084e+1, 2.6513153e+2, -234961.64, -423284.66, 826.3241, 0.023358531, 0.10168583, -234958.02, 106763.74, 0.0, 10.001313, 9.998808 
7.501044e+1, 2.7513024e+2, -149666.47, -336767.63, 4008.7642, 0.025877465, 0.09034578, -149580.63, 94154.32, 0.0, 10.001248, 9.99876 
7.501178e+1, 2.8512928e+2, -48904.184, -274097.06, 10936.756, 0.015907437, 0.13434622, -48374.273, 97370.12, 0.000000011324871, 10.001427, 9.998431 
7.501297e+1, 2.9512855e+2, 108762.66, -139997.3, 10262.802, -0.017784566, 0.21381046, 109185.336, 156936.03, 0.000004098041, 10.001804, 9.998498 
7.501395e+1, 3.0512458e+2, 123823.52, -165246.66, -14322.416, -0.031114435, -0.011242916, 124531.42, 124531.42, 0.000050636394, 10.0018215, 9.997985 
7.501518e+1, 3.1512398e+2, 187862.77, 38551.906, 27873.771, 0.021791145, 0.13699135, 192896.61, 192896.61, 0.00019707165, 10.001515, 9.999533 
8.4991455e+1, 1.2513536e+2, -1728828.1, -1631206.0, 12899.5205, -0.03060005, 0.13972045, -1629530.3, 84154.75, 0.00090933184, 9.999511, 10.000809 
8.499331e+1, 1.3513511e+2, -1764327.6, -1728238.1, 3717.3638, -0.023976061, 0.15486303, -1727859.1, -112171.71, 0.0005120121, 9.999163, 9.999638 
8.4994674e+1, 1.4513388e+2, -1632021.4, -1537110.6, -1222.8673, -0.047437202, 0.030727549, -1537094.9, -19394.643, 0.00020159004, 9.999067, 10.000318 
8.499601e+1, 1.5513532e+2, -1517452.0, -1444048.5, 2851.3218, -0.06954537, 0.14793707, -1443937.9, -24250.668, 0.000039447743, 9.999238, 10.0002 
8.499725e+1, 1.6513588e+2, -1386429.8, -1343481.9, -27587.523, -0.05678522, 0.1893812, -1329995.8, -8313.846, 0.0000010481418, 9.999523, 10.00008 
8.499845e+1, 1.7513521e+2, -1232098.4, -1221727.8, -31497.63, -0.008563467, 0.11182207, -1194991.5, 28696.121, 0.0, 9.999924, 10.000051 
8.499966e+1, 1.8513493e+2, -1140473.1, -1178739.4, -2715.6763, 0.006471757, 0.10368246, -1140281.4, -14590.783, 0.0, 10.000104, 9.999588 
8.5000885e+1, 1.9513518e+2, -1048937.9, -1086721.6, 5892.4707, -0.011629285, 0.16679722, -1048040.25, -20350.44, 0.0, 10.0000725, 9.999561 
8.5002244e+1, 2.051349e+2, -936833.06, -974545.0, -1454.0643, -0.006303421, 0.17924184, -936777.06, -7084.4624, 0.0, 10.000137, 9.999627 
8.5003734e+1, 2.1513407e+2, -819009.5, -871159.06, -10502.095, 0.021818496, 0.13150217, -816974.0, 14725.424, 0.0, 10.00029, 9.99959 
8.500499e+1, 2.2513339e+2, -699255.5, -787599.94, -15199.862, 0.03080832, 0.11587797, -696713.5, 36991.652, 0.0, 10.0005455, 9.999369 
8.500604e+1, 2.3513286e+2, -551569.94, -669047.3, -12299.97, 0.022361297, 0.124019295, -550295.94, 85413.72, 0.0, 10.000902, 9.999337 
8.500732e+1, 2.4513218e+2, -450367.75, -589979.94, -1483.1804, 0.021671684, 0.13016799, -450351.97, 87364.09, 0.0, 10.001011, 9.999156 
8.500883e+1, 2.551313e+2, -372599.84, -505021.47, -7017.594, 0.026284423, 0.12598407, -372228.97, 67495.21, 0.0, 10.000887, 9.999126 
8.501033e+1, 2.6513013e+2, -265637.56, -433652.44, -6472.6104, 0.02751513, 0.10992453, -265388.56, 76347.18, 0.0, 10.001082, 9.998848 
8.501192e+1, 2.7512866e+2, -98659.37, -307198.25, -5271.008, 0.03201122, 0.076044895, -98526.22, 145224.17, 0.0, 10.001577, 9.998805 
8.501341e+1, 2.8512773e+2, -14058.215, -259826.72, -2482.3862, 0.024094345, 0.122183226, -14033.144, 131726.44, 0.000000007967864, 10.001675, 9.998411 
8.5014653e+1, 2.9512727e+2, 49711.434, -170581.83, -2642.7898, -0.0096799, 0.2299445, 49743.137, 97507.04, 0.0000034232567, 10.001408, 9.998479 
8.501559e+1, 3.0512336e+2, 78991.336, -164149.58, -37636.08, -0.028458769, 0.003318662, 84683.8, 84683.8, 0.00004462947, 10.001414, 9.998189 
8.5016775e+1, 3.1512278e+2, 206994.53, 51772.883, -8256.268, 0.023890546, 0.13500048, 207432.45, 207432.45, 0.00017893763, 10.001628, 9.99957 
9.4991434e+1, 1.2513304e+2, -1732958.3, -1640098.3, 78.084526, 0.0141243525, 0.068796076, -1640098.3, 73608.3, 0.0008487081, 9.999513, 10.000748 
9.4992095e+1, 1.3513368e+2, -1764416.0, -1729532.9, -9152.721, -0.06240962, 0.17440672, -1727277.3, -111575.94, 0.00047347447, 9.9991665, 9.999627 
9.4993407e+1, 1.4513253e+2, -1623233.8, -1519108.8, 4810.382, -0.081562415, 0.051947262, -1518887.0, -1173.5126, 0.00018256163, 9.999068, 10.000441 
9.499579e+1, 1.5513356e+2, -1509143.9, -1427910.3, 10151.601, -0.016471745, 0.116712615, -1426660.9, -6957.09, 0.00003354367, 9.999242, 10.00031 
9.4997245e+1, 1.6513413e+2, -1394066.0, -1359453.9, -12342.461, -0.010072339, 0.16049929, -1355503.5, -33804.832, 0.00000057940093, 9.999524, 9.99997 
9.4997895e+1, 1.7513391e+2, -1239409.8, -1236369.8, -16216.084, -0.056592003, 0.1380899, -1221602.6, 2098.7136, 0.0, 9.999922, 9.999951 
9.499916e+1, 1.8513371e+2, -1124337.5, -1144802.8, -4095.1433, -0.054236803, 0.13085142, -1123548.4, 2154.773, 0.0, 10.000102, 9.999822 
9.500101e+1, 1.9513369e+2, -1032965.06, -1053687.9, 5172.966, -0.0061930493, 0.14310643, -1031745.5, -4042.459, 0.0, 10.000073, 9.999787 
9.5002615e+1, 2.0513332e+2, -953063.0, -1007996.5, 4149.7505, 0.016832154, 0.14700891, -952751.25, -23044.81, 0.0, 10.000135, 9.999398 
9.500397e+1, 2.1513255e+2, -834703.75, -903413.7, -4287.5166, 0.016507512, 0.12933388, -834437.25, -2723.4966, 0.0, 10.000289, 9.99937 
9.500537e+1, 2.251318e+2, -693600.1, -775213.3, -2002.8378, 0.013718791, 0.11162515, -693551.0, 40169.387, 0.0, 10.000544, 9.9994545 
9.500681e+1, 2.3513106e+2, -545822.6, -656531.1, 1083.0697, 0.009029814, 0.089445285, -545812.0, 89913.98, 0.0, 10.000899, 9.999425 
9.500826e+1, 2.4513036e+2, -460565.16, -610641.8, -6634.9775, 0.014099059, 0.09859646, -460272.38, 77460.15, 0.0, 10.001009, 9.999015 
9.5009726e+1, 2.5512967e+2, -383249.72, -526394.7, -11028.61, 0.0270075, 0.12522195, -382405.0, 57335.24, 0.0, 10.000883, 9.9989805 
9.5011353e+1, 2.651285e+2, -264959.56, -431535.84, 11923.475, 0.021444615, 0.11549375, -264110.4, 77641.78, 0.0, 10.00108, 9.998864 
9.50132e+1, 2.7512687e+2, -96639.266, -303047.34, 13039.587, 0.0022428401, 0.06507375, -95818.766, 147948.9, 0.0, 10.001577, 9.998835 
9.501493e+1, 2.851259e+2, -13607.838, -258786.78, -13466.237, 0.008579923, 0.106024005, -12870.435, 132906.7, 0.0000000042394483, 10.001675, 9.998418 
9.5016426e+1, 2.951255e+2, 48129.957, -172495.55, -11737.975, 0.026365057, 0.22094756, 48752.695, 96533.984, 0.000002739973, 10.001402, 9.998469 
9.5017385e+1, 3.0512172e+2, 78553.54, -163364.69, -29360.191, 0.00925563, 0.009327912, 82065.82, 82065.82, 0.000038513957, 10.001409, 9.998197 
9.5018446e+1, 3.1512147e+2, 194014.64, 24961.254, 3449.823, 0.027224088, 0.16666509, 194085.02, 194085.02, 0.00016010099, 10.001628, 9.999386 
1.0499055e+2, 1.2513112e+2, -1820691.3, -1673509.6, -2401.1196, 0.0070529375, 0.047494303, -1673470.5, 40254.977, 0.00079770345, 9.998874, 10.000825 
1.0499138e+2, 1.351323e+2, -1720285.3, -1691431.4, -1770.6699, -0.062053848, 0.1911395, -1691323.0, -75607.95, 0.0004431459, 9.999398, 9.999776 
1.049927e+2, 1.4513119e+2, -1556853.0, -1485293.9, 10116.059, -0.08059067, 0.065575145, -1483891.4, 33835.24, 0.00016917764, 9.999516, 10.000458 
1.0499501e+2, 1.55132e+2, -1505108.5, -1424765.6, 6418.245, -0.018900882, 0.1059362, -1424256.1, -4537.276, 0.000030278157, 9.999264, 10.000321 
1.0499667e+2, 1.6513254e+2, -1420881.5, -1372028.9, 1786.3693, -0.010933111, 0.14822179, -1371963.6, -50249.87, 0.0000004316036, 9.999337, 9.999975 
1.0499775e+2, 1.7513256e+2, -1268507.6, -1249739.9, 6321.279, -0.052905794, 0.14806978, -1247809.3, -24094.848, 0.0, 9.99972, 9.999957 
1.0499922e+2, 1.8513234e+2, -1143195.5, -1156677.6, 973.6094, -0.05244046, 0.1389276, -1143125.6, -17409.0, 0.0, 9.999985, 9.999796 
1.0500107e+2, 1.9513202e+2, -1024603.2, -1052989.4, -10330.538, -0.011401574, 0.12559706, -1021241.7, 6477.185, 0.0, 10.000144, 9.999759 
1.0500275e+2, 2.0513158e+2, -925643.9, -997956.1, -8015.138, 0.007232116, 0.12558526, -924766.1, 4956.692, 0.0, 10.000337, 9.999371 
1.05004266e+2, 2.1513097e+2, -797558.0, -888086.9, -1724.1425, 0.0038275442, 0.12456967, -797525.2, 34203.41, 0.0, 10.000556, 9.999346 
1.0500588e+2, 2.2513019e+2, -681343.9, -772468.7, 2850.0872, 0.0058754934, 0.10875353, -681254.8, 52480.496, 0.0, 10.000642, 9.999426 
1.05007604e+2, 2.351293e+2, -591896.8, -682526.94, -3389.0425, 0.01336135, 0.07511108, -591770.25, 43972.188, 0.0, 10.000599, 9.999392 
1.05009265e+2, 2.4512857e+2, -492698.1, -628023.4, -10786.051, 0.023518594, 0.08352881, -491843.8, 45905.63, 0.0, 10.000796, 9.998999 
1.0501086e+2, 2.5512797e+2, -335206.4, -504871.94, -6845.5137, 0.035170685, 0.11858702, -334930.66, 104825.95, 0.0, 10.001221, 9.998966 
1.0501258e+2, 2.6512682e+2, -228830.13, -418063.7, 20788.938, 0.023224857, 0.11601087, -226573.2, 115195.01, 0.0, 10.001343, 9.998832 
1.0501447e+2, 2.7512524e+2, -158263.16, -336816.0, 17283.1, -0.007352319, 0.07203843, -156605.61, 87177.94, 0.0, 10.001171, 9.998799 
1.0501634e+2, 2.851242e+2, -70207.08, -289501.94, -16500.043, 0.0018814818, 0.1086666, -68972.55, 76821.375, 0.0000000012344323, 10.0013, 9.998388 
1.0501809e+2, 2.9512367e+2, 90913.664, -155475.11, -17562.287, 0.037293203, 0.21119569, 92159.19, 139958.94, 0.0000020653147, 10.001708, 9.99844 
1.0501913e+2, 3.0511993e+2, 144044.17, -133623.28, -35258.42, 0.020689355, 0.0057880203, 148451.38, 148451.38, 0.00003243676, 10.001863, 9.998185 
1.05020255e+2, 3.151198e+2, 196868.53, 1588.5906, -3803.1882, 0.038859032, 0.18199052, 196942.56, 196942.56, 0.00014094144, 10.001753, 9.999166 
1.14988826e+2, 1.2512957e+2, -1804445.0, -1641128.0, 17795.203, -0.05498579, 0.073203646, -1639211.5, 74530.68, 0.0007564602, 9.998879, 10.001045 
1.14991106e+2, 1.3513094e+2, -1698384.8, -1645656.4, 17866.607, -0.030165426, 0.20511378, -1640172.8, -24443.922, 0.00042056636, 9.999395, 10.000092 
1.14992514e+2, 1.4512986e+2, -1565071.3, -1501336.0, 815.71295, -0.05223215, 0.071408615, -1501325.6, 16414.105, 0.00016082273, 9.999512, 10.000349 
1.149937e+2, 1.5513057e+2, -1511765.6, -1439617.5, -2010.5215, -0.07748367, 0.114675544, -1439561.5, -19828.52, 0.000029173776, 9.999269, 10.000217 
1.1499553e+2, 1.6513112e+2, -1410671.6, -1351868.3, 15632.039, -0.059585623, 0.15267625, -1347971.0, -26243.291, 0.0000005105562, 9.999341, 10.000112 
1.1499799e+2, 1.7513114e+2, -1259524.3, -1231407.6, 21008.62, -0.001166232, 0.14230551, -1220187.6, 3539.428, 0.0, 9.999721, 10.000083 
1.14999816e+2, 1.851308e+2, -1164281.6, -1200028.1, 6932.596, 0.007887227, 0.12788962, -1162984.3, -37253.492, 0.0, 9.999983, 9.999499 
1.15001045e+2, 1.9513017e+2, -1044593.06, -1094434.6, -3879.8242, -0.0284718, 0.11383709, -1044292.9, -16555.451, 0.0, 10.000144, 9.999475 
1.15002654e+2, 2.051297e+2, -913871.7, -972942.0, 44.86937, -0.036410373, 0.11517988, -913871.6, 15870.021, 0.0, 10.000334, 9.999544 
1.1500461e+2, 2.1512929e+2, -785626.3, -862949.7, 6737.779, -0.017576156, 0.116891116, -785043.56, 46700.48, 0.0, 10.000554, 9.999519 
1.1500652e+2, 2.2512859e+2, -692118.1, -794107.06, 1021.9158, 0.0059008743, 0.10703394, -692107.9, 41642.137, 0.0, 10.000638, 9.999279 
1.15008414e+2, 2.3512763e+2, -602457.8, -704095.9, -4337.0815, 0.03406952, 0.08092794, -602273.06, 33486.008, 0.0, 10.000597, 9.999244 
1.1501031e+2, 2.4512683e+2, -486438.47, -614292.75, 4935.4814, 0.048442647, 0.08501015, -486248.25, 51518.56, 0.0, 10.000793, 9.999094 
1.1501221e+2, 2.5512618e+2, -327840.38, -489192.0, 9084.898, 0.04829579, 0.10635741, -327330.47, 112442.89, 0.0, 10.001219, 9.999075 
1.15014e+2, 2.6512516e+2, -234494.5, -429447.7, 13671.14, 0.031042343, 0.11198245, -233540.48, 108243.4, 0.0, 10.001342, 9.9987545 
1.1501574e+2, 2.7512375e+2, -165438.86, -350702.53, 11356.833, 0.001743361, 0.09541841, -164745.27, 79052.89, 0.0, 10.001166, 9.998706 
1.1501766e+2, 2.851226e+2, -76189.16, -300058.8, -1474.8035, 0.0036648475, 0.1285437, -76179.445, 69630.61, 0.00000000006210851, 10.001293, 9.99832 
1.1501962e+2, 2.9512167e+2, 87027.18, -163057.19, -1570.5782, 0.019622149, 0.20132504, 87037.04, 134856.22, 0.0000014487281, 10.001707, 9.998388 
1.1502082e+2, 3.0511788e+2, 142089.03, -137069.45, -39814.637, 0.0032915631, -0.0059126588, 147656.52, 147656.52, 0.000026628812, 10.001861, 9.998162 
1.1502217e+2, 3.1511787e+2, 177323.33, -36850.57, -5353.1216, 0.054283414, 0.18007763, 177457.03, 177457.03, 0.00012196842, 10.001744, 9.998906 
1.2498769e+2, 1.2512803e+2, -1757742.6, -1621325.9, 28282.887, -0.072711915, 0.09331365, -1615694.5, 98063.445, 0.0007247361, 9.999212, 10.001021 
1.2499029e+2, 1.3512938e+2, -1763809.4, -1670100.5, 5452.5034, -0.025737321, 0.21623299, -1669784.4, -54039.36, 0.00040489552, 9.998918, 10.0001545 
1.2499185e+2, 1.4512824e+2, -1636557.4, -1536920.3, -14837.708, -0.044355724, 0.0746802, -1534757.6, -17001.27, 0.00015657058, 9.999024, 10.00034 
1.2499305e+2, 1.5512903e+2, -1473378.0, -1422306.4, -10511.926, -0.08221321, 0.12706594, -1420227.4, -478.8897, 0.000029665785, 9.9995365, 10.000207 
1.2499498e+2, 1.6512953e+2, -1350591.9, -1318957.0, 7507.761, -0.06775343, 0.16009371, -1317265.6, 4477.5864, 0.0000007617598, 9.999735, 10.000149 
1.2499764e+2, 1.7512944e+2, -1269951.5, -1233021.1, 4054.299, -0.004636722, 0.13224192, -1232581.4, -8838.005, 0.0, 9.999633, 10.000115 
1.24999695e+2, 1.8512905e+2, -1194038.3, -1223583.9, 2130.0518, 0.0062163435, 0.11731865, -1193885.5, -68138.086, 0.0, 9.999817, 9.999419 
1.2500122e+2, 1.9512852e+2, -1031252.0, -1096657.1, 7146.9614, -0.032254454, 0.11981157, -1030480.1, -2726.2878, 0.0, 10.000273, 9.999397 
1.2500304e+2, 2.0512801e+2, -889532.1, -957156.5, 6371.3486, -0.038487483, 0.12255675, -888937.06, 40821.113, 0.0, 10.000484, 9.99958 
1.2500514e+2, 2.1512751e+2, -796324.6, -864612.75, 1574.4056, -0.014614925, 0.11141079, -796288.3, 35472.72, 0.0, 10.000464, 9.999552 
1.2500717e+2, 2.251268e+2, -704802.75, -810293.25, -6100.0547, 0.008102069, 0.10314535, -704451.2, 29316.008, 0.0, 10.000593, 9.99919 
1.250091e+2, 2.3512591e+2, -570053.06, -698026.9, -7631.859, 0.029602904, 0.092288814, -569599.56, 66176.64, 0.0, 10.000861, 9.999159 
1.2501116e+2, 2.4512507e+2, -450300.88, -592251.56, 7526.401, 0.042862665, 0.0951995, -449902.94, 87881.23, 0.0, 10.001021, 9.999136 
1.2501334e+2, 2.551243e+2, -346851.84, -494209.25, 6835.301, 0.046279147, 0.101375565, -346535.44, 93255.69, 0.0, 10.00107, 9.999113 
1.250153e+2, 2.6512322e+2, -257181.5, -444698.78, 2585.435, 0.034351084, 0.102859214, -257145.86, 84656.01, 0.0, 10.0012045, 9.998715 
1.2501715e+2, 2.7512187e+2, -131222.06, -339257.56, 2302.3167, 0.013611644, 0.09055956, -131196.6, 112619.766, 0.0, 10.001421, 9.998663 
1.250192e+2, 2.851207e+2, -40201.05, -284881.03, 2291.2993, 0.014546739, 0.12676828, -40179.598, 105648.84, 0.0, 10.001547, 9.998302 
1.2502125e+2, 2.9511982e+2, 64329.723, -175816.0, 4384.3027, 0.019516917, 0.20456229, 64409.74, 112247.125, 0.00000094519226, 10.001559, 9.998372 
1.2502255e+2, 3.0511615e+2, 132849.03, -126926.695, -30445.674, -0.0037199112, 0.003038237, 136369.55, 136369.55, 0.000021325412, 10.001736, 9.998293 
1.2502414e+2, 3.1511593e+2, 215384.52, -30793.865, 16364.119, 0.062217146, 0.16060777, 216467.52, 216467.52, 0.00010374953, 10.002058, 9.998798 
1.349871e+2, 1.2512656e+2, -1779756.3, -1664602.6, 17768.852, -0.052802015, 0.112505324, -1661923.1, 51849.25, 0.0007016644, 9.999203, 10.000729 
1.3498898e+2, 1.3512754e+2, -1777138.0, -1700305.4, -4670.179, -0.050557677, 0.2233229, -1700022.5, -84258.56, 0.00039489288, 9.998929, 9.999943 
1.3499075e+2, 1.4512628e+2, -1627888.6, -1520903.0, 3096.2708, -0.058985747, 0.07395016, -1520813.5, -3036.7214, 0.00015526546, 9.999034, 10.000445 
1.3499303e+2, 1.5512736e+2, -1467100.1, -1408316.0, 8786.152, -0.038086288, 0.14438136, -1407030.9, 12734.608, 0.000031126172, 9.999533, 10.000305 
1.34995e+2, 1.6512781e+2, -1356545.3, -1330373.4, 3503.011, -0.040783368, 0.17135276, -1329912.5, -8152.269, 0.0000011270397, 9.999731, 10.0000725 
1.3499667e+2, 1.7512739e+2, -1274301.1, -1242650.4, 908.6333, -0.06476168, 0.11666887, -1242624.3, -18860.594, 0.0, 9.999635, 10.000048 
1.3499887e+2, 1.8512708e+2, -1183700.1, -1202491.0, 18926.73, -0.058740873, 0.106807604, -1171965.1, -46198.4, 0.0, 9.999818, 9.999563 
1.3500157e+2, 1.9512703e+2, -1021833.3, -1076999.3, 24430.068, -0.024424708, 0.14324379, -1012570.0, 15198.277, 0.0, 10.000272, 9.999533 
1.3500391e+2, 2.0512655e+2, -897403.44, -972832.94, 5374.8857, -0.001137329, 0.14755785, -897022.3, 32750.16, 0.0, 10.000481, 9.999474 
1.3500588e+2, 2.1512567e+2, -804062.25, -880145.2, 1511.8031, 0.011308204, 0.10800888, -804032.2, 27747.438, 0.0, 10.000462, 9.999447 
1.3500778e+2, 2.2512487e+2, -708103.8, -816090.44, 3850.9578, 0.010287504, 0.097931676, -707966.6, 25820.219, 0.0, 10.000589, 9.999152 
1.3500965e+2, 2.3512414e+2, -572015.56, -702038.8, 2810.8943, -0.0021980614, 0.10834397, -571954.8, 63839.14, 0.0, 10.000861, 9.999131 
1.350118e+2, 2.4512333e+2, -451105.88, -593452.75, 9053.066, 0.004741092, 0.11270082, -450532.4, 87269.29, 0.0, 10.0010195, 9.999129 
1.3501424e+2, 2.5512236e+2, -348391.0, -496846.4, 9058.946, 0.02798304, 0.10313864, -347840.25, 91969.75, 0.0, 10.001067, 9.999097 
1.350165e+2, 2.6512113e+2, -258734.56, -446667.1, 10482.836, 0.032421954, 0.08835224, -258151.64, 83670.52, 0.0, 10.0012, 9.998704 
1.3501869e+2, 2.7511957e+2, -130638.32, -337843.44, 11153.882, 0.024343165, 0.05862218, -130039.63, 113798.414, 0.0, 10.001421, 9.9986725 
1.3502091e+2, 2.851185e+2, -38054.574, -280091.1, 2342.5066, 0.03101747, 0.10392074, -38031.902, 107817.14, 0.0, 10.001546, 9.998337 
1.3502297e+2, 2.9511803e+2, 65102.375, -172784.9, 5562.394, 0.03387407, 0.21919814, 65232.367, 113086.94, 0.0000005800232, 10.001553, 9.998396 
1.350243e+2, 3.0511466e+2, 151162.38, -86101.3, -18877.783, -0.0017471185, 0.02987531, 152654.98, 152654.98, 0.000016654767, 10.001725, 9.998577 
1.3502617e+2, 3.151141e+2, 218664.92, -22148.559, 30363.121, 0.057427283, 0.124532744, 222434.27, 222434.27, 0.00008670888, 10.002052, 9.998859 
1.4498626e+2, 1.2512474e+2, -1823883.9, -1710103.4, -2544.4026, -0.048245277, 0.12841769, -1710046.5, 3743.8027, 0.0006852014, 9.999003, 10.000512 
1.4498802e+2, 1.3512544e+2, -1737015.4, -1694314.5, -20537.031, -0.056320585, 0.2214976, -1686040.5, -70255.18, 0.00038852147, 9.999261, 9.999824 
1.4498994e+2, 1.4512408e+2, -1569593.9, -1483848.8, 197.44038, -0.061317593, 0.06558392, -1483848.3, 33950.49, 0.00015533686, 9.999393, 10.000526 
1.4499263e+2, 1.5512535e+2, -1482013.0, -1407285.8, 2556.315, -0.024020093, 0.14656238, -1407198.4, 12586.775, 0.00003278088, 9.999393, 10.000379 
1.4499478e+2, 1.6512582e+2, -1382831.1, -1352535.3, -6251.095, -0.027511166, 0.17686604, -1351296.1, -29516.29, 0.0000015078091, 9.999591, 9.999988 
1.4499643e+2, 1.751253e+2, -1228538.8, -1229732.1, -10308.998, -0.06962401, 0.1213465, -1218809.1, 4975.5317, 0.0, 9.999989, 9.999967 
1.4499871e+2, 1.8512501e+2, -1137886.8, -1163114.5, 6651.8916, -0.067398414, 0.11018385, -1136240.3, -10452.863, 0.0, 10.000057, 9.999719 
1.4500162e+2, 1.9512509e+2, -1077820.0, -1087303.6, 12244.17, -0.023665735, 0.1428567, -1069431.6, -41644.758, 0.0, 9.999815, 9.999683 
1.4500418e+2, 2.0512468e+2, -973227.4, -1012542.75, 3405.3281, 0.0032341853, 0.14573938, -972934.56, -43144.168, 0.0, 9.999973, 9.999446 
1.4500637e+2, 2.1512377e+2, -797964.8, -880120.56, 4676.1123, 0.013434725, 0.109529056, -797699.5, 34098.492, 0.0, 10.000517, 9.99942 
1.4500847e+2, 2.2512296e+2, -676194.4, -803953.2, 7775.1284, 0.009101527, 0.09934508, -675722.9, 58082.67, 0.0, 10.000822, 9.999124 
1.4501047e+2, 2.3512216e+2, -568674.44, -703718.7, 6785.2563, -0.008168661, 0.10524631, -568334.4, 67478.734, 0.0, 10.000898, 9.999103 
1.4501275e+2, 2.4512126e+2, -461310.38, -611316.6, 6459.8267, -0.0008816378, 0.108885385, -461032.72, 76789.016, 0.0, 10.001005, 9.999014 
1.4501533e+2, 2.5512025e+2, -345673.97, -508852.75, -2339.1506, 0.027504971, 0.10334876, -345640.44, 94190.78, 0.0, 10.001143, 9.998978 
1.4501776e+2, 2.6511893e+2, -243849.0, -436299.72, 906.65314, 0.034949627, 0.08819418, -243844.72, 97999.086, 0.0, 10.001287, 9.9987335 
1.4502014e+2, 2.7511734e+2, -130190.54, -333954.9, 3793.963, 0.028041767, 0.052462067, -130119.92, 113739.516, 0.0, 10.00141, 9.998704 
1.450225e+2, 2.8511626e+2, -41331.09, -282132.03, -8890.509, 0.036807306, 0.0930435, -41003.293, 104867.28, 0.0, 10.001527, 9.998331 
1.4502464e+2, 2.9511574e+2, 78919.33, -168420.28, -9054.766, 0.042929504, 0.20593978, 79250.37, 127126.94, 0.00000034163278, 10.001657, 9.998377 
1.4502612e+2, 3.0511263e+2, 174507.28, -67401.04, -34652.414, 0.0028525367, 0.04172904, 179373.22, 179373.22, 0.000012640429, 10.001851, 9.998646 
1.4502832e+2, 3.1511196e+2, 204848.2, -44796.77, -4161.385, 0.06922721, 0.11754319, 204917.55, 204917.55, 0.000071064576, 10.002025, 9.998717 
1.549851e+2, 1.2512253e+2, -1831310.5, -1727805.8, 7806.449, -0.06600104, 0.13630034, -1727220.3, -13408.02, 0.0006719969, 9.999013, 10.000385 
1.5498735e+2, 1.3512304e+2, -1738471.4, -1696737.1, -10894.756, -0.048971597, 0.21224153, -1694064.3, -78255.34, 0.00038301162, 9.999257, 9.999808 
1.5498938e+2, 1.4512166e+2, -1566833.6, -1476807.9, -233.27261, -0.056939874, 0.051328834, -1476807.3, 41015.19, 0.00015494693, 9.999389, 10.000577 
1.5499185e+2, 1.5512297e+2, -1478006.9, -1400025.8, 3074.09, -0.042019878, 0.1326362, -1399904.8, 19903.213, 0.000033834087, 9.999398, 10.000426 
1.5499435e+2, 1.6512355e+2, -1388176.4, -1365006.9, 7964.764, -0.030226113, 0.17538664, -1362533.1, -40731.086, 0.0000017896223, 9.999597, 9.999899 
1.549969e+2, 1.7512321e+2, -1234873.1, -1242499.9, 4628.3384, -0.022232344, 0.14728673, -1232689.5, -8883.188, 0.0, 9.999987, 9.999879 
1.5499923e+2, 1.8512289e+2, -1126504.5, -1139207.4, -2842.5095, -0.023286548, 0.12836154, -1125897.5, -88.27617, 0.0, 10.000056, 9.999884 
1.5500136e+2, 1.9512269e+2, -1066099.8, -1062948.3, 3735.824, -0.031866882, 0.118158214, -1060469.5, -32659.865, 0.0, 9.999814, 9.999851 
1.5500385e+2, 2.0512237e+2, -970178.5, -1005757.9, 23615.395, -0.027230395, 0.11730258, -958402.0, -28590.03, 0.0, 9.999971, 9.999495 
1.5500666e+2, 2.1512185e+2, -794789.94, -873347.6, 25434.848, -0.010237091, 0.11479321, -787273.94, 44542.38, 0.0, 10.000516, 9.999468 
1.5500923e+2, 2.2512105e+2, -677527.44, -806143.5, 10331.616, 0.0022465098, 0.10608634, -676702.8, 57120.8, 0.0, 10.00082, 9.99911 
1.5501156e+2, 2.3511997e+2, -570475.0, -706997.5, 9981.106, 0.01077929, 0.08311947, -569749.1, 66084.55, 0.0, 10.0008955, 9.999081 
1.5501402e+2, 2.451189e+2, -477907.7, -645002.5, 11471.786, 0.024284063, 0.08461108, -477123.78, 60720.375, 0.0, 10.001002, 9.998784 
1.5501662e+2, 2.5511786e+2, -360944.34, -540717.6, 3493.1416, 0.04098363, 0.10194279, -360876.47, 78978.39, 0.0, 10.001144, 9.998758 
1.5501909e+2, 2.6511663e+2, -238925.2, -425849.66, 5441.05, 0.038486052, 0.10097554, -238766.97, 103100.04, 0.0, 10.0012865, 9.998805 
1.550215e+2, 2.7511516e+2, -125908.56, -324177.53, 8510.912, 0.022809753, 0.07103833, -125543.89, 118336.78, 0.0, 10.001406, 9.998773 
1.5502396e+2, 2.8511393e+2, -45179.05, -289504.4, -4496.3022, 0.030978495, 0.09270811, -45096.336, 100796.83, 0.0, 10.001523, 9.998282 
1.5502632e+2, 2.9511297e+2, 76199.516, -174989.13, -2490.5557, 0.0432599, 0.16591491, 76224.2, 124127.47, 0.00000019535571, 10.001659, 9.998331 
1.55028e+2, 3.0511013e+2, 163323.45, -90319.27, -27697.498, 0.0050267754, 0.03973914, 166312.75, 166312.75, 0.000009261703, 10.00185, 9.998487 
1.5503053e+2, 3.1510955e+2, 179592.66, -95661.914, 4019.678, 0.08761096, 0.13997789, 179651.34, 179651.34, 0.000056915687, 10.002018, 9.998369 
1.6498403e+2, 1.251198e+2, -1835855.0, -1710328.9, -7320.137, -0.06752269, 0.12796597, -1709903.5, 3935.9363, 0.00065754744, 9.998894, 10.000564 
1.6498666e+2, 1.3512067e+2, -1745736.5, -1668908.9, -7520.6587, -0.036320295, 0.21212515, -1668179.6, -52348.254, 0.00037533476, 9.999071, 10.000088 
1.6498882e+2, 1.451194e+2, -1596271.3, -1500638.1, 5161.174, -0.045143683, 0.05183391, -1500360.4, 17483.152, 0.00015252095, 9.999228, 10.000491 
1.6499123e+2, 1.5512052e+2, -1487455.9, -1414200.3, -2734.2976, -0.04412255, 0.12235564, -1414098.4, 5733.1094, 0.000033788867, 9.999374, 10.00034 
1.6499388e+2, 1.651211e+2, -1403850.4, -1370454.3, 7485.4165, -0.031186322, 0.16660953, -1368853.3, -47027.22, 0.0000018950186, 9.99948, 9.999918 
1.649968e+2, 1.751209e+2, -1298852.9, -1271758.9, 11021.701, -0.009550145, 0.15295953, -1267841.6, -44012.516, 0.0, 9.99954, 9.999893 
1.6499928e+2, 1.8512061e+2, -1166058.0, -1158204.3, -3195.6638, -0.008683691, 0.13447072, -1157068.3, -31236.51, 0.0, 9.999784, 9.999884 
1.6500142e+2, 1.9512029e+2, -1007744.6, -1034794.6, -9833.177, -0.027342932, 0.112317264, -1004547.9, 23285.098, 0.0, 10.000215, 9.999851 
1.6500401e+2, 2.0511991e+2, -911951.8, -979873.56, 7006.5215, -0.02825874, 0.10811925, -911236.56, 18599.08, 0.0, 10.0003805, 9.999475 
1.6500705e+2, 2.1511942e+2, -828069.6, -891336.3, 3274.798, -0.012820569, 0.109895706, -827900.56, 3939.3455, 0.0, 10.000295, 9.999451 
1.650099e+2, 2.2511865e+2, -725239.4, -823989.8, -10351.685, 0.004986319, 0.10344075, -724165.94, 9680.917, 0.0, 10.00047, 9.999156 
1.650126e+2, 2.3511763e+2, -567321.06, -700533.94, -6867.093, 0.025288284, 0.082744405, -566968.0, 68888.17, 0.0, 10.000896, 9.999125 
1.6501525e+2, 2.4511658e+2, -454711.38, -640739.0, 412.96716, 0.037522804, 0.08534359, -454710.44, 83156.31, 0.0, 10.00119, 9.998722 
1.6501786e+2, 2.5511548e+2, -335205.3, -534494.25, 4884.412, 0.04002762, 0.102497935, -335085.7, 104792.734, 0.0, 10.001348, 9.998703 
1.6502039e+2, 2.6511428e+2, -221183.38, -419771.94, 6339.127, 0.032487616, 0.10733089, -220981.23, 120909.29, 0.0, 10.00142, 9.998782 
1.650229e+2, 2.751129e+2, -126454.79, -327565.78, 1336.6178, 0.02138106, 0.087872185, -126445.91, 117457.57, 0.0, 10.001415, 9.998744 
1.6502555e+2, 2.8511152e+2, -38593.445, -290113.0, -7686.1953, 0.03478505, 0.099636205, -38358.78, 107558.4, 0.0, 10.001585, 9.998248 
1.6502818e+2, 2.9511026e+2, 107205.63, -164258.02, -5695.9995, 0.052607853, 0.1466248, 107325.1, 155255.06, 0.00000010392393, 10.001892, 9.998291 
1.6502994e+2, 3.051077e+2, 196009.63, -80967.04, -29148.0, 0.0022843147, 0.057645664, 199043.81, 199043.81, 0.0000064948904, 10.002103, 9.998429 
1.6503254e+2, 3.1510705e+2, 194183.61, -110144.36, 7654.4585, 0.07579993, 0.15149347, 194376.02, 194376.02, 0.00004432351, 10.00221, 9.998177 
1.7498304e+2, 1.2511659e+2, -1802204.9, -1640047.5, 1245.068, -0.059062056, 0.10557659, -1640037.9, 73833.78, 0.0006370072, 9.998891, 10.001047 
1.7498589e+2, 1.3511835e+2, -1704507.6, -1584903.1, -385.22083, -0.020504048, 0.21974222, -1584901.9, 30950.826, 0.00036284848, 9.999078, 10.000662 
1.7498823e+2, 1.451173e+2, -1611120.5, -1532682.6, 9729.259, -0.02845892, 0.0651402, -1531493.8, -13631.454, 0.00014707113, 9.999232, 10.000269 
1.7499071e+2, 1.5511802e+2, -1502886.0, -1446096.5, 3075.773, -0.034199473, 0.117331356, -1445930.4, -26074.764, 0.00003249045, 9.999373, 10.000122 
1.7499335e+2, 1.6511844e+2, -1395184.4, -1352424.9, 9309.033, -0.03435306, 0.15211771, -1350486.1, -28634.15, 0.0000018022155, 9.999479, 10.000042 
1.749961e+2, 1.7511836e+2, -1290548.9, -1254382.0, 13704.803, -0.033253524, 0.1379788, -1249775.5, -25922.418, 0.0, 9.999539, 10.000013 
1.749989e+2, 1.8511812e+2, -1177815.0, -1182834.9, 12746.696, -0.026263166, 0.1283449, -1167333.5, -41478.29, 0.0, 9.999785, 9.999715 
1.7500179e+2, 1.9511783e+2, -1019655.44, -1059209.8, 6510.9756, -0.011468671, 0.12510452, -1018611.2, 9245.81, 0.0, 10.000213, 9.999684 
1.7500468e+2, 2.051173e+2, -917999.4, -992111.8, 3548.2195, -0.0015435375, 0.11825767, -917829.9, 12031.613, 0.0, 10.000379, 9.999392 
1.750075e+2, 2.1511649e+2, -834290.06, -903614.8, 690.7127, 0.003572586, 0.09480586, -834283.2, -2414.3704, 0.0, 10.000292, 9.999368 
1.7501049e+2, 2.2511576e+2, -718254.4, -808781.8, 5382.9673, 0.015021059, 0.09215756, -717935.4, 15939.871, 0.0, 10.000467, 9.999262 
1.7501359e+2, 2.3511516e+2, -559815.7, -685093.9, 9547.859, 0.03325441, 0.10279803, -559092.2, 76788.61, 0.0, 10.000896, 9.999231 
1.7501643e+2, 2.4511424e+2, -447334.6, -625076.94, 6086.611, 0.036677618, 0.10952009, -447126.4, 90763.41, 0.0, 10.001189, 9.99883 
1.7501903e+2, 2.5511307e+2, -328029.97, -518874.34, 10874.098, 0.023427084, 0.10492715, -327412.38, 112489.53, 0.0, 10.001345, 9.998811 
1.7502163e+2, 2.651118e+2, -229759.56, -437392.47, 5848.4517, 0.016484823, 0.1072933, -229594.95, 112319.49, 0.0, 10.001419, 9.998662 
1.750243e+2, 2.7511048e+2, -134378.97, -344557.25, 2044.1736, 0.021069406, 0.102832496, -134359.08, 109568.82, 0.0, 10.001417, 9.998628 
1.7502724e+2, 2.8510898e+2, -40871.2, -294783.97, 3703.5771, 0.0440843, 0.113934286, -40817.19, 105125.484, 0.0, 10.001585, 9.998216 
1.7503023e+2, 2.9510757e+2, 103569.27, -170455.67, 6401.2275, 0.06721665, 0.1473796, 103718.73, 151675.66, 0.00000004563321, 10.001887, 9.998251 
1.7503193e+2, 3.0510542e+2, 199266.73, -73944.41, -25226.73, -0.008552215, 0.09484636, 201576.5, 201576.5, 0.000004309572, 10.002101, 9.998479 
1.750343e+2, 3.1510448e+2, 193277.98, -113575.29, 11587.124, 0.03034782, 0.1571479, 193714.9, 193714.9, 0.000033325945, 10.002215, 9.998151 
1.8498173e+2, 1.2511353e+2, -1816140.4, -1645612.0, 24526.37, -0.07368125, 0.07988929, -1642154.6, 71745.76, 0.0006065531, 9.998792, 10.001056 
1.8498492e+2, 1.3511556e+2, -1730790.3, -1586174.0, -17250.63, -0.013681529, 0.21115458, -1584144.8, 31733.936, 0.00034376056, 9.998848, 10.000763 
1.8498753e+2, 1.4511465e+2, -1639627.3, -1551744.9, -12990.212, -0.011455521, 0.06680542, -1549865.0, -31977.662, 0.00013809917, 9.999061, 10.00022 
1.8499023e+2, 1.5511525e+2, -1499977.3, -1449838.6, -7343.2876, -0.020981608, 0.11214487, -1448785.3, -28902.955, 0.000029920388, 9.999416, 10.000075 
1.8499301e+2, 1.6511561e+2, -1372658.4, -1340120.0, -4920.1504, -0.023178183, 0.14391825, -1339392.4, -17513.146, 0.0000015280342, 9.999628, 10.000055 
1.8499582e+2, 1.751156e+2, -1265313.0, -1240651.4, -9553.178, -0.02402706, 0.13369296, -1237383.8, -13504.258, 0.0, 9.999706, 10.000028 
1.849988e+2, 1.8511537e+2, -1175631.3, -1190259.3, -1471.4749, -0.018646887, 0.1282537, -1175484.6, -49603.055, 0.0, 9.999836, 9.999639 
1.8500197e+2, 1.9511503e+2, -1052884.9, -1083314.4, -1244.636, -0.005595172, 0.12827677, -1052834.0, -24949.63, 0.0, 10.000019, 9.999612 
1.8500505e+2, 2.0511442e+2, -938809.9, -1000695.5, -4792.558, 0.0077564423, 0.11810089, -938440.94, -8551.425, 0.0, 10.00023, 9.999405 
1.8500806e+2, 2.1511355e+2, -806992.44, -888965.8, -1102.2032, 0.02038557, 0.086268626, -806977.6, 24919.367, 0.0, 10.000473, 9.999381 
1.8501113e+2, 2.2511284e+2, -689494.06, -792525.94, 12102.618, 0.02488192, 0.08249728, -688091.5, 45811.895, 0.0, 10.000654, 9.999283 
1.8501431e+2, 2.3511232e+2, -575878.3, -690098.25, 9462.022, 0.022697764, 0.09946719, -575099.8, 60808.766, 0.0, 10.000774, 9.999255 
1.8501736e+2, 2.451115e+2, -477981.56, -625238.4, 188.09393, 0.023878057, 0.107205376, -477981.3, 59935.32, 0.0, 10.0009165, 9.99896 
1.8502027e+2, 2.5511038e+2, -357953.03, -519293.75, 5619.988, 0.025734926, 0.09866049, -357757.53, 82169.79, 0.0, 10.00108, 9.998936 
1.8502305e+2, 2.6510918e+2, -253019.67, -461005.88, 1299.279, 0.021265892, 0.10417482, -253011.56, 88928.04, 0.0, 10.001313, 9.99855 
1.8502577e+2, 2.7510783e+2, -115038.18, -347082.38, -2352.2979, 0.016169153, 0.10940271, -115014.336, 128939.58, 0.0, 10.001602, 9.99852 
1.8502884e+2, 2.8510627e+2, -21655.129, -278727.53, 2246.4749, 0.041212592, 0.11516085, -21635.5, 124334.14, 0.0, 10.001688, 9.998276 
1.8503207e+2, 2.9510474e+2, 63145.863, -184178.83, 11095.928, 0.078050725, 0.13080564, 63642.668, 111627.48, 0.000000013949684, 10.001585, 9.9983015 
1.850339e+2, 3.0510303e+2, 163588.38, -84657.82, -7242.929, -0.008768794, 0.11793082, 163799.53, 163799.53, 0.0000026617806, 10.001827, 9.998536 
1.8503644e+2, 3.151019e+2, 220195.72, -92352.43, 26461.617, 0.0143733565, 0.15436642, 222420.25, 222420.25, 0.00002394661, 10.002367, 9.998222 
1.9498013e+2, 1.2511064e+2, -1849222.8, -1715014.0, 28144.88, -0.11406031, 0.050340854, -1709350.8, 4574.609, 0.0005643703, 9.998795, 10.000578 
1.9498372e+2, 1.3511235e+2, -1757182.8, -1640858.4, -14595.02, -0.01881069, 0.18746607, -1639055.1, -23146.0, 0.00031730495, 9.998848, 10.000387 
1.9498675e+2, 1.4511146e+2, -1630782.9, -1533665.1, 48.96645, 0.0018587346, 0.058085967, -1533665.0, -15746.558, 0.00012543245, 9.999061, 10.000344 
1.949898e+2, 1.551122e+2, -1490874.0, -1431543.0, 6428.615, -0.005982158, 0.10637979, -1430854.5, -10942.966, 0.000026112697, 9.999418, 10.0002 
1.9499287e+2, 1.6511263e+2, -1379455.5, -1354349.9, -2342.2686, 0.0003601351, 0.14140368, -1354133.3, -32225.42, 0.0000011234973, 9.999628, 9.999957 
1.9499592e+2, 1.751126e+2, -1272073.3, -1254446.0, -6152.8433, 0.016956093, 0.14062427, -1252510.8, -28602.322, 0.0, 9.999705, 9.999933 
1.9499895e+2, 1.8511234e+2, -1174196.6, -1187108.6, 5201.711, 0.011963721, 0.13490723, -1172361.9, -46450.64, 0.0, 9.999836, 9.9996605 
1.9500194e+2, 1.9511189e+2, -1051822.0, -1080626.0, 5855.8887, -0.011211933, 0.12224392, -1050677.0, -22761.861, 0.0, 10.000017, 9.999632 
1.950052e+2, 2.0511132e+2, -931261.06, -984651.56, 4114.1772, -0.002574262, 0.108484685, -930945.9, -1026.2216, 0.0, 10.000228, 9.999516 
1.9500868e+2, 2.1511061e+2, -799430.44, -872928.06, 8634.051, 0.03595812, 0.08317592, -798429.8, 33494.887, 0.0, 10.000471, 9.999493 
1.9501187e+2, 2.2510988e+2, -694438.8, -802233.4, 16302.098, 0.033169147, 0.07395024, -692027.3, 41904.06, 0.0, 10.000651, 9.999218 
1.9501479e+2, 2.3510912e+2, -580441.1, -699028.9, 14393.502, -0.0078706015, 0.07292569, -578719.1, 57220.418, 0.0, 10.000772, 9.999195 
1.9501802e+2, 2.451083e+2, -467669.6, -603656.9, 5941.0967, -0.002300953, 0.07882244, -467410.53, 70536.81, 0.0, 10.000916, 9.999109 
1.9502154e+2, 2.551075e+2, -347867.03, -498439.8, 12167.515, 0.0449277, 0.083252035, -346890.13, 93064.6, 0.0, 10.00108, 9.999079 
1.950246e+2, 2.6510638e+2, -260833.9, -477155.53, 11807.319, 0.044742584, 0.097910315, -260191.34, 81774.74, 0.0, 10.001312, 9.99844 
1.9502725e+2, 2.7510494e+2, -122512.414, -362066.47, 8401.824, 0.004664322, 0.107578665, -122218.1, 121763.56, 0.0, 10.001599, 9.998419 
1.9503036e+2, 2.8510332e+2, -11273.447, -256400.81, -1898.2377, 0.02452614, 0.103606954, -11258.749, 134739.47, 0.0, 10.001685, 9.99843 
1.9503373e+2, 2.9510173e+2, 73368.97, -163543.25, 8645.286, 0.083771594, 0.09699083, 73684.02, 121697.75, 0.0000000023315327, 10.001587, 9.998443 
1.9503582e+2, 3.0510056e+2, 168053.11, -75857.95, 12403.704, -0.00044572624, 0.12754126, 168682.27, 168682.27, 0.0000014940416, 10.00183, 9.998595 
1.9503888e+2, 3.1509936e+2, 229885.14, -71333.32, 44866.844, 0.021138292, 0.14771222, 236426.08, 236426.08, 0.000016254342, 10.002363, 9.998369 
2.0497912e+2, 1.2510757e+2, -1838895.3, -1741972.1, 4352.3276, -0.1052843, 0.046027664, -1741777.0, -27823.51, 0.0005112227, 9.999006, 10.00029 
2.0498268e+2, 1.3510886e+2, -1730216.8, -1650716.3, -30571.96, -0.021252487, 0.16181023, -1640319.4, -24376.94, 0.00028397882, 9.999133, 10.000183 
2.0498584e+2, 1.4510797e+2, -1613208.5, -1518311.6, -9215.01, 0.0012258347, 0.039914902, -1517425.1, 527.02124, 0.000109345056, 9.999152, 10.000406 
2.049892e+2, 1.5510893e+2, -1536806.1, -1446028.9, -8179.002, 0.007895402, 0.102181, -1445297.8, -25354.863, 0.000021261263, 9.99907, 10.000269 
2.0499252e+2, 1.6510938e+2, -1429312.8, -1379807.0, -9156.629, 0.018497426, 0.13735962, -1378167.6, -56228.742, 0.00000067965186, 9.999292, 9.999945 
2.0499578e+2, 1.7510924e+2, -1257380.1, -1248704.8, -7472.146, 0.027058301, 0.1260287, -1244402.5, -20461.91, 0.0, 9.999811, 9.999922 
2.0499898e+2, 1.8510897e+2, -1142900.3, -1170361.9, -1160.6005, 0.021333618, 0.120090045, -1142851.3, -16907.86, 0.0, 10.000043, 9.999677 
2.0500208e+2, 1.9510864e+2, -1052794.3, -1078845.3, -1237.7954, 0.003969698, 0.116233796, -1052735.6, -24789.0, 0.0, 10.000001, 9.999652 
2.0500547e+2, 2.0510815e+2, -939299.6, -973718.94, 5342.7754, 0.0077155596, 0.103571534, -938489.4, -8539.243, 0.0, 10.00011, 9.999648 
2.0500904e+2, 2.1510752e+2, -805602.25, -861098.56, 10632.571, 0.03064558, 0.072677486, -803634.9, 28319.146, 0.0, 10.000365, 9.999625 
2.050124e+2, 2.2510685e+2, -714506.06, -810858.3, 16519.744, 0.026362838, 0.06449057, -711752.44, 22207.482, 0.0, 10.000509, 9.999228 
2.0501548e+2, 2.3510617e+2, -612576.2, -713252.8, 19525.686, -0.002945196, 0.07000995, -608921.94, 27045.705, 0.0, 10.000547, 9.999206 
2.050189e+2, 2.4510536e+2, -482793.78, -610247.0, 17828.77, -0.0006694507, 0.073559254, -480346.8, 57628.957, 0.0, 10.00081, 9.999114 
2.0502257e+2, 2.5510445e+2, -317502.22, -483184.9, 12694.756, 0.029166956, 0.06835097, -316535.16, 123448.81, 0.0, 10.001286, 9.999084 
2.0502584e+2, 2.651034e+2, -234708.48, -455998.4, 5882.064, 0.029791158, 0.08324673, -234552.25, 107442.484, 0.0, 10.001454, 9.998517 
2.0502874e+2, 2.7510214e+2, -157972.38, -370898.28, 15034.613, 0.008563341, 0.10330957, -156916.03, 87092.29, 0.0, 10.00132, 9.998493 
2.0503196e+2, 2.851005e+2, -50730.73, -280947.34, 5879.4756, 0.029243777, 0.09635219, -50580.67, 95444.53, 0.0, 10.001437, 9.998382 
2.050353e+2, 2.950987e+2, 98631.56, -157584.66, 1098.6346, 0.071996756, 0.07522274, 98636.27, 146679.4, 0.000000000097020676, 10.001788, 9.998386 
2.050376e+2, 3.0509782e+2, 193935.08, -70298.83, 1668.1575, -0.014976263, 0.13855141, 193945.61, 193945.61, 0.00000072960836, 10.002037, 9.998535 
2.0504127e+2, 3.1509623e+2, 206432.16, -71664.83, 20213.527, 0.03537494, 0.12963969, 207893.7, 207893.7, 0.000010315381, 10.002153, 9.99847 
2.1497868e+2, 1.2510435e+2, -1846345.0, -1758473.5, 12942.278, -0.052391782, 0.068395495, -1756606.9, -42622.03, 0.00045034575, 9.99901, 10.000176 
2.1498181e+2, 1.351051e+2, -1732588.8, -1656830.0, -25262.133, -0.022501739, 0.13393019, -1649179.0, -33200.164, 0.0002457903, 9.999137, 10.000139 
2.1498483e+2, 1.4510418e+2, -1612628.0, -1517542.3, -12932.967, -0.016021496, 0.01239241, -1515814.6, 2173.8635, 0.00009091271, 9.999154, 10.000411 
2.1498837e+2, 1.5510543e+2, -1536102.6, -1444203.6, -10501.321, 0.019100087, 0.099853896, -1443018.9, -23042.277, 0.000015871614, 9.999069, 10.000282 
2.1499193e+2, 1.6510588e+2, -1424405.8, -1369525.0, 10229.508, 0.028599866, 0.13229287, -1367680.3, -45708.004, 0.00000031009594, 9.999292, 10.000015 
2.1499537e+2, 1.751055e+2, -1252407.5, -1239046.1, 12184.209, 0.0046309647, 0.09016068, -1231831.3, -7855.1973, 0.0, 9.999814, 9.999988 
2.1499887e+2, 1.8510526e+2, -1141586.1, -1167760.5, -2872.7295, 0.0066317907, 0.08380714, -1141274.5, -15295.993, 0.0, 10.000044, 9.999694 
2.1500245e+2, 1.9510525e+2, -1051401.1, -1075769.0, -2230.9736, 0.038547274, 0.10973592, -1051198.5, -23219.65, 0.0, 10.000001, 9.999673 
2.1500586e+2, 2.051049e+2, -928969.6, -951760.2, 14841.529, 0.03724434, 0.10313704, -921653.3, 8327.723, 0.0, 10.000107, 9.9998 
2.1500914e+2, 2.1510427e+2, -795339.9, -839334.8, 20727.748, 0.0027962907, 0.055542037, -787112.75, 44872.297, 0.0, 10.000363, 9.999775 
2.1501267e+2, 2.251038e+2, -708885.06, -798493.8, 17486.25, 0.002468603, 0.054314185, -705593.7, 28395.387, 0.0, 10.000506, 9.999313 
2.1501642e+2, 2.3510349e+2, -607106.44, -701396.7, 21401.725, 0.035716575, 0.089996904, -602476.1, 33516.992, 0.0, 10.0005455, 9.999288 
2.1501999e+2, 2.4510263e+2, -492811.56, -630984.4, 35260.45, 0.027528152, 0.091707446, -484333.6, 53668.355, 0.0, 10.000809, 9.998973 
2.1502332e+2, 2.5510126e+2, -326796.9, -501944.6, 30719.064, -0.023166535, 0.05355812, -321565.38, 118449.766, 0.0, 10.001284, 9.998958 
2.1502675e+2, 2.6510018e+2, -217538.31, -419455.34, 564.39526, -0.024872245, 0.060244072, -217536.73, 124488.89, 0.0, 10.001451, 9.998771 
2.1503025e+2, 2.7509934e+2, -140990.03, -335648.4, 10549.355, 0.025857002, 0.09603453, -140419.98, 103614.07, 0.0, 10.00132, 9.998735 
2.1503367e+2, 2.8509772e+2, -68463.55, -317752.16, 18092.068, 0.053714022, 0.093354374, -67157.36, 78893.42, 0.0, 10.001437, 9.99813 
2.1503676e+2, 2.9509562e+2, 81172.53, -194318.13, 14428.151, 0.03962888, 0.0646685, 81926.11, 129999.38, 0.0, 10.001789, 9.998135 
2.1503924e+2, 3.0509472e+2, 181072.38, -95211.53, 6280.929, -0.05466299, 0.1508427, 181215.1, 181215.1, 0.0000002906552, 10.002031, 9.998366 
2.150436e+2, 3.150926e+2, 210435.92, -63228.637, 21887.195, 0.05222391, 0.1033568, 212175.38, 212175.38, 0.0000060416633, 10.002153, 9.998528 
2.2497809e+2, 1.2510084e+2, -1839756.6, -1745615.9, 1973.346, -0.0135293035, 0.082696594, -1745574.5, -31554.654, 0.0003861587, 9.999016, 10.000262 
2.2498097e+2, 1.3510153e+2, -1744083.5, -1645551.4, -26484.355, -0.012934189, 0.12776071, -1638883.9, -22870.445, 0.00020573656, 9.998989, 10.000288 
2.2498398e+2, 1.4510067e+2, -1626419.5, -1535456.0, -8438.911, -0.014837958, 0.00911302, -1534679.6, -16657.344, 0.00007189719, 9.999108, 10.000311 
2.2498773e+2, 1.551018e+2, -1495146.8, -1434729.1, -15343.941, 0.031857155, 0.097889744, -1431055.6, -11043.925, 0.000010694928, 9.999394, 10.000191 
2.2499143e+2, 1.6510223e+2, -1391299.6, -1345118.0, 6479.7686, 0.03957976, 0.12763147, -1344226.1, -22218.432, 0.000000092361944, 9.999482, 10.0000925 
2.2499491e+2, 1.7510188e+2, -1310857.4, -1258051.5, 8676.559, -0.0014462493, 0.08056218, -1256662.4, -32651.51, 0.0, 9.999373, 10.000069 
2.2499861e+2, 1.8510172e+2, -1204712.5, -1186998.5, -1553.8287, -0.00031653105, 0.071957484, -1186863.3, -60850.938, 0.0, 9.999562, 9.999794 
2.2500253e+2, 1.951018e+2, -1037939.7, -1058310.6, 4415.152, 0.045922227, 0.09719665, -1037023.94, -9012.478, 0.0, 10.000046, 9.999772 
2.2500609e+2, 2.051015e+2, -918843.06, -953384.25, 10911.633, 0.04466663, 0.09255939, -915684.8, 14328.593, 0.0, 10.000204, 9.9997425 
2.2500928e+2, 2.1510082e+2, -844823.8, -869339.06, 717.96405, -0.003981059, 0.049639642, -844802.8, -12784.571, 0.0, 10.0000515, 9.99972 
2.2501297e+2, 2.2510041e+2, -739412.44, -803001.25, -315.37866, -0.004159298, 0.05144683, -739410.9, -5388.937, 0.0, 10.000254, 9.999404 
2.2501716e+2, 2.3510022e+2, -564415.25, -671323.5, 3401.8743, 0.04319432, 0.08911763, -564307.1, 71717.36, 0.0, 10.000797, 9.999374 
2.2502097e+2, 2.4509943e+2, -468908.47, -619334.5, 18443.883, 0.037119754, 0.09301524, -466680.06, 71352.56, 0.0, 10.000973, 9.998975 
2.2502437e+2, 2.5509807e+2, -398747.97, -536744.9, 23012.11, -0.022933515, 0.056337863, -395011.7, 45034.32, 0.0, 10.00079, 9.998956 
2.2502789e+2, 2.6509696e+2, -286564.97, -444852.03, -7916.3584, -0.029779587, 0.057243463, -286170.06, 55886.58, 0.0, 10.000943, 9.99884 
2.2503155e+2, 2.7509606e+2, -122701.664, -319321.88, -11688.947, 0.019978158, 0.08143347, -122009.2, 122055.83, 0.0, 10.001414, 9.998802 
2.2503515e+2, 2.8509447e+2, -34088.28, -306019.47, -6.108604, 0.0462984, 0.07983608, -34088.28, 111993.36, 0.0, 10.001694, 9.998087 
2.2503847e+2, 2.9509243e+2, 74393.07, -204082.64, 10034.678, 0.03174239, 0.06375705, 74754.19, 122858.16, 0.0, 10.00177, 9.998077 
2.2504114e+2, 3.0509165e+2, 156783.84, -118125.92, 10819.1045, -0.062134586, 0.16625802, 157208.97, 157208.97, 0.000000085825576, 10.00191, 9.998268 
2.2504582e+2, 3.1508905e+2, 217426.2, -37794.31, 26403.488, 0.059600774, 0.07895608, 220129.11, 220129.11, 0.0000031779714, 10.002108, 9.998725 
2.3497729e+2, 1.25097e+2, -1819346.0, -1703494.9, 3564.064, 0.0047794594, 0.09207927, -1703385.4, 10673.132, 0.00032267286, 9.999017, 10.00055 
2.3498017e+2, 1.3509813e+2, -1720806.3, -1596169.1, -27203.813, 0.0058020903, 0.14390889, -1590490.3, 25556.188, 0.0001666326, 9.998983, 10.00063 
2.3498328e+2, 1.4509737e+2, -1641707.8, -1566451.5, 1966.9354, 0.0026275858, 0.030096836, -1566400.1, -48346.215, 0.00005400246, 9.999105, 10.0001 
2.3498726e+2, 1.5509808e+2, -1509116.5, -1465194.4, -4268.3555, 0.043796152, 0.09633804, -1464783.4, -44735.188, 0.000006396683, 9.9994, 9.99998 
2.34991e+2, 1.6509841e+2, -1384080.3, -1330989.4, 2005.5975, 0.047746386, 0.12323407, -1330913.6, -8868.503, 0.000000013163342, 9.999486, 10.000187 
2.3499438e+2, 1.7509839e+2, -1303697.5, -1243304.6, 5157.9067, 0.007084471, 0.09674557, -1242867.3, -18822.135, 0.0, 9.999373, 10.000171 
2.3499817e+2, 1.8509832e+2, -1192596.5, -1161217.4, 16450.275, -0.0013806277, 0.08429642, -1154174.4, -28129.4, 0.0, 9.99956, 9.999972 
2.3500238e+2, 1.9509827e+2, -1025695.56, -1033141.94, 22672.617, 0.024715057, 0.07968632, -1006442.44, 21601.836, 0.0, 10.000047, 9.999945 
2.3500614e+2, 2.050979e+2, -937432.2, -991380.7, 4876.664, 0.027952667, 0.07217643, -936994.94, -6947.56, 0.0, 10.000202, 9.999482 
2.3500945e+2, 2.1509723e+2, -863266.06, -907017.75, -4316.1025, 0.007911971, 0.054276716, -862844.4, -30790.508, 0.0, 10.000049, 9.999461 
2.3501332e+2, 2.2509673e+2, -733183.8, -789677.4, 19928.818, 0.0046592397, 0.05575404, -726861.25, 7197.3843, 0.0, 10.000252, 9.999496 
2.3501772e+2, 2.3509638e+2, -557409.8, -656449.6, 24143.326, 0.018616375, 0.068065204, -551837.75, 84223.96, 0.0, 10.000795, 9.999476 
2.3502184e+2, 2.4509573e+2, -460134.84, -600796.06, 11242.277, 0.026748745, 0.07726295, -459242.0, 78825.836, 0.0, 10.000971, 9.999104 
2.3502566e+2, 2.5509486e+2, -390617.3, -519471.75, 16607.35, 0.02681093, 0.07642983, -388511.28, 51565.4, 0.0, 10.000789, 9.999076 
2.3502927e+2, 2.6509374e+2, -294233.2, -460631.63, 9124.732, 0.012638254, 0.07475421, -293734.3, 48353.48, 0.0, 10.000942, 9.998733 
2.3503266e+2, 2.7509233e+2, -129091.984, -332134.56, 6209.0767, -0.011160832, 0.059192438, -128902.29, 115198.96, 0.0, 10.001411, 9.998715 
2.3503643e+2, 2.850908e+2, -24320.162, -284652.75, 2992.0632, 0.0057607065, 0.055397417, -24285.78, 121831.97, 0.0, 10.001689, 9.998237 
2.3504038e+2, 2.9508922e+2, 83748.76, -184892.81, 13556.466, 0.045349635, 0.07168807, 84431.125, 132566.52, 0.0, 10.001771, 9.998209 
2.3504327e+2, 3.0508852e+2, 154122.05, -122440.766, 17192.773, -0.039409522, 0.183127, 155186.75, 155186.75, 0.000000016806371, 10.001905, 9.998241 
2.3504785e+2, 3.150855e+2, 240281.2, 10633.436, 29861.865, 0.05091581, 0.05553449, 244100.72, 244100.72, 0.0000014346882, 10.002104, 9.999059 
2.4497613e+2, 1.2509318e+2, -1854646.8, -1729943.6, 28905.357, -0.0031976004, 0.078268126, -1723569.4, -9474.415, 0.00026299746, 9.998814, 10.000467 
2.4497944e+2, 1.3509436e+2, -1710694.1, -1595141.6, -37413.07, 0.032437064, 0.13807677, -1584085.9, 31997.006, 0.0001305452, 9.999069, 10.000596 
2.4498269e+2, 1.4509371e+2, -1618651.1, -1550945.9, -8239.208, 0.028406199, 0.034946933, -1549957.6, -31868.313, 0.000038366878, 9.999244, 10.00014 
2.4498655e+2, 1.550943e+2, -1514743.3, -1462478.9, 4509.5146, 0.035992175, 0.084769845, -1462092.6, -42008.21, 0.000003303544, 9.999339, 10.000029 
2.449904e+2, 1.6509461e+2, -1387004.3, -1339018.5, 10335.546, 0.038578402, 0.11058738, -1336887.0, -14805.466, 0.00000000018007511, 9.999495, 10.000128 
2.449941e+2, 1.7509468e+2, -1256697.9, -1226983.5, 548.9023, 0.024890216, 0.1007459, -1226973.3, -2892.4392, 0.0, 9.999724, 10.0001135 
2.4499801e+2, 1.8509462e+2, -1155480.8, -1140779.8, 6237.4414, 0.014154978, 0.09032275, -1138490.0, -12409.183, 0.0, 9.999804, 9.999995 
2.4500212e+2, 1.9509447e+2, -1069609.8, -1051363.6, 676.11163, 0.0105066, 0.07245377, -1051338.5, -23257.518, 0.0, 9.999733, 9.99997 
2.450061e+2, 2.0509407e+2, -967216.06, -1010832.1, -12617.68, 0.014263329, 0.063796744, -963828.94, -33744.527, 0.0, 10.00002, 9.999436 
2.4500994e+2, 2.1509346e+2, -778650.1, -871678.8, -6607.084, 0.023348965, 0.056613527, -778183.25, 53907.46, 0.0, 10.000652, 9.999414 
2.4501395e+2, 2.2509292e+2, -653904.5, -748678.56, 18690.81, 0.016727684, 0.05554711, -650351.6, 83744.16, 0.0, 10.000784, 9.999522 
2.4501811e+2, 2.3509242e+2, -608606.2, -678239.5, 16822.47, -0.003830033, 0.050906993, -604755.06, 31344.682, 0.0, 10.000431, 9.999502 
2.4502237e+2, 2.450918e+2, -520007.78, -620482.7, 2711.8284, 0.004353639, 0.0555851, -519934.63, 18170.887, 0.0, 10.000521, 9.999184 
2.4502668e+2, 2.550911e+2, -349292.25, -490958.47, 4517.68, 0.037354786, 0.063408285, -349148.34, 90964.38, 0.0, 10.001035, 9.999153 
2.4503049e+2, 2.6509005e+2, -253247.05, -445982.75, -378.33313, 0.025300521, 0.07024369, -253246.31, 88876.82, 0.0, 10.001246, 9.998687 
2.450338e+2, 2.7508873e+2, -169410.22, -357038.8, -782.60596, -0.025856102, 0.06264196, -169406.95, 74729.95, 0.0, 10.001158, 9.998668 
2.4503778e+2, 2.8508714e+2, -80173.58, -298037.44, -3664.5818, -0.005870984, 0.054589674, -80111.95, 66041.4, 0.0, 10.001247, 9.998358 
2.4504223e+2, 2.9508552e+2, 53887.598, -187258.47, 4478.5264, 0.06733778, 0.054109078, 53970.742, 102141.46, 0.0, 10.001515, 9.998316 
2.4504533e+2, 3.050848e+2, 133054.9, -151166.92, 7040.186, -0.019466348, 0.1660933, 133229.19, 133229.19, 0.0000000018495133, 10.0018425, 9.998073 
2.4504988e+2, 3.1508195e+2, 263804.63, 39774.3, 1559.0281, 0.039868955, 0.06797115, 263815.47, 263815.47, 0.00000052479436, 10.002188, 9.999219 
2.5497457e+2, 1.2508929e+2, -1887447.3, -1796606.5, 42714.56, -0.0407008, 0.03862558, -1779676.8, -65546.97, 0.000209724, 9.998806, 10.000013 
2.5497884e+2, 1.3509014e+2, -1738864.6, -1655944.6, -27672.469, 0.062235102, 0.10903637, -1647557.9, -31434.54, 0.00009902971, 9.999078, 10.000175 
2.5498223e+2, 1.4508961e+2, -1596264.0, -1506007.1, -5717.255, 0.05708235, 0.023392238, -1505646.5, 12482.6455, 0.000025643241, 9.999251, 10.000445 
2.549856e+2, 1.5509042e+2, -1492949.1, -1416703.6, 8070.2925, 0.0062395562, 0.06323948, -1415858.8, 4261.719, 0.0000014046367, 9.999336, 10.000344 
2.549896e+2, 1.650908e+2, -1403110.4, -1371516.3, 18496.506, 0.010569714, 0.0901251, -1362989.1, -40872.18, 0.0, 9.999492, 9.999907 
2.549941e+2, 1.7509077e+2, -1271825.9, -1259496.8, 9354.772, 0.049825028, 0.09264982, -1254458.0, -30339.674, 0.0, 9.999729, 9.999888 
2.549981e+2, 1.850906e+2, -1163756.6, -1158271.1, 3376.03, 0.043523166, 0.08955144, -1156664.1, -30544.137, 0.0, 9.999805, 9.999874 
2.5500178e+2, 1.9509037e+2, -1077736.1, -1068116.4, -1397.1876, 0.0013528648, 0.074580185, -1067917.5, -39795.703, 0.0, 9.999733, 9.999855 
2.55006e+2, 2.0509e+2, -956316.7, -987366.2, 11161.291, 0.0020522405, 0.06655794, -952720.94, -22596.219, 0.0, 10.000017, 9.999599 
2.5501078e+2, 2.1508954e+2, -767479.0, -847770.44, 17396.092, 0.041241203, 0.057935324, -763872.0, 68256.71, 0.0, 10.00065, 9.999579 
2.5501487e+2, 2.2508898e+2, -657310.9, -755212.4, 5021.5195, 0.030693538, 0.050985713, -657054.0, 77079.35, 0.0, 10.000781, 9.999479 
2.5501832e+2, 2.3508836e+2, -612273.44, -685246.5, 4175.959, -0.026495716, 0.037716873, -612035.25, 24103.426, 0.0, 10.000429, 9.999455 
2.5502253e+2, 2.4508761e+2, -517310.34, -614760.8, 21739.516, -0.032795463, 0.02862783, -512680.6, 25465.111, 0.0, 10.00052, 9.999224 
2.550274e+2, 2.5508675e+2, -345840.6, -483235.06, 24179.06, 0.008042343, 0.017576711, -341709.7, 98444.336, 0.0, 10.001033, 9.999207 
2.5503156e+2, 2.6508594e+2, -253623.67, -446907.2, -3674.7668, 0.00771552, 0.043098815, -253553.83, 88608.85, 0.0, 10.001246, 9.998681 
2.5503495e+2, 2.7508515e+2, -170264.05, -359238.72, -3660.1738, -0.027683934, 0.09132404, -170193.17, 73978.945, 0.0, 10.00116, 9.998652 
2.5503916e+2, 2.8508353e+2, -73743.14, -284262.6, 5550.3457, 0.00715259, 0.07743917, -73596.91, 72591.67, 0.0, 10.0012455, 9.998453 
2.55044e+2, 2.9508135e+2, 60574.406, -172433.72, 15076.531, 0.09455001, 0.011267478, 61545.867, 109755.82, 0.0, 10.001512, 9.998419 
2.5504735e+2, 3.0508044e+2, 110064.4, -198413.25, 20691.275, -0.003939537, 0.11486312, 111446.09, 111446.09, 0.000000000039700524, 10.00184, 9.997751 
2.5505188e+2, 3.150782e+2, 263690.8, 38687.703, 11113.698, 0.02171738, 0.11031012, 264238.44, 264238.44, 0.00000015406697, 10.002191, 9.999211 
2.6497385e+2, 1.2508525e+2, -1796068.1, -1759421.9, 25575.691, -0.027992427, 0.012777788, -1746283.1, -32114.943, 0.0001649167, 9.999462, 9.999953 
2.649779e+2, 1.3508613e+2, -1721745.8, -1650892.8, -21174.479, 0.057057034, 0.089730464, -1645047.0, -28885.451, 0.000073287774, 9.999208, 10.000147 
2.6498136e+2, 1.4508572e+2, -1611284.8, -1516056.9, 9055.12, 0.04838416, 0.019310607, -1515203.5, 2962.9102, 0.000016155976, 9.999161, 10.000421 
2.64985e+2, 1.5508647e+2, -1492960.1, -1418410.8, -3963.6748, 0.013252346, 0.053970817, -1418200.5, 1957.9387, 0.00000046134082, 9.999345, 10.000329 
2.649892e+2, 1.6508676e+2, -1402742.8, -1375255.1, 3734.4644, 0.018027233, 0.07483301, -1374756.8, -52601.117, 0.0, 9.999512, 9.999871 
2.649937e+2, 1.7508662e+2, -1285513.5, -1270129.6, 8070.5986, 0.039967425, 0.07118002, -1266672.6, -42514.87, 0.0, 9.999654, 9.999852 
2.6499787e+2, 1.8508644e+2, -1163802.3, -1174635.8, 6119.2295, 0.035197534, 0.07433055, -1161046.8, -34886.637, 0.0, 9.999876, 9.999728 
2.6500183e+2, 1.9508623e+2, -1022219.2, -1057592.4, -1486.2191, 0.012845525, 0.07748505, -1022156.9, 6005.77, 0.0, 10.000184, 9.99971 
2.650062e+2, 2.0508589e+2, -914357.06, -955523.3, 12691.194, 0.011330268, 0.07463078, -910759.0, 19406.506, 0.0, 10.000255, 9.999703 
2.65011e+2, 2.1508546e+2, -841354.8, -871835.75, 14185.637, 0.026591152, 0.058246844, -835774.5, -3605.9282, 0.0, 10.0000925, 9.999683 
2.6501524e+2, 2.2508495e+2, -732315.9, -792269.8, -4300.726, 0.016700339, 0.049178157, -732008.94, 2163.935, 0.0, 10.000271, 9.999471 
2.65019e+2, 2.3508435e+2, -562237.5, -662173.75, -2996.274, -0.016735626, 0.03973698, -562147.75, 74030.46, 0.0, 10.000777, 9.999447 
2.6502332e+2, 2.4508359e+2, -454308.6, -583455.25, 19505.563, -0.02486123, 0.030990465, -451426.88, 86758.32, 0.0, 10.000949, 9.999232 
2.6502815e+2, 2.550827e+2, -379302.25, -498099.7, 18462.186, -0.010313067, 0.015312167, -376499.2, 63694.375, 0.0, 10.000798, 9.999218 
2.650325e+2, 2.6508188e+2, -297089.2, -462979.66, -9342.627, -0.0065598404, 0.037141897, -296564.7, 45637.504, 0.0, 10.000927, 9.998724 
2.6503637e+2, 2.750811e+2, -142360.58, -340951.16, -5524.359, -0.009150878, 0.08418977, -142207.02, 102004.31, 0.0, 10.001331, 9.998694 
2.650408e+2, 2.8507957e+2, -20032.484, -259350.97, 4529.8164, 0.027627356, 0.075702384, -19946.773, 126280.12, 0.0, 10.00162, 9.998443 
2.6504558e+2, 2.9507747e+2, 96805.28, -156734.02, 4170.393, 0.08763886, 0.019293588, 96873.86, 145120.83, 0.0, 10.001768, 9.998404 
2.650491e+2, 3.0507618e+2, 99472.89, -228808.83, 10855.987, -0.013139169, 0.09377181, 99831.49, 99831.49, 0.0, 10.001876, 9.997524 
2.650541e+2, 3.1507382e+2, 233544.08, 26760.436, 1781.1552, 0.034031264, 0.104881786, 233559.42, 233559.42, 0.000000038019415, 10.001975, 9.999231 
2.749739e+2, 1.25081e+2, -1770932.5, -1708131.9, 20136.143, 0.029140672, 0.0017404879, -1702230.1, 11980.036, 0.00012966055, 9.999467, 10.000302 
2.7497667e+2, 1.3508232e+2, -1695776.4, -1595921.3, -31509.115, 0.014311113, 0.08128615, -1586810.0, 29387.748, 0.00005392466, 9.999204, 10.000526 
2.7498004e+2, 1.4508204e+2, -1637232.9, -1568899.8, 15124.641, -0.0004122682, 0.02349475, -1565701.8, -47500.734, 0.0000098627, 9.999156, 10.00006 
2.7498475e+2, 1.550824e+2, -1517288.5, -1469729.9, 3153.566, 0.0536696, 0.05596829, -1469521.6, -49323.133, 0.00000011248763, 9.999348, 9.999975 
2.749891e+2, 1.6508245e+2, -1391684.9, -1353023.5, 8501.774, 0.05778067, 0.06357585, -1351236.5, -29038.635, 0.0, 9.999515, 10.000023 
2.7499285e+2, 1.7508225e+2, -1274616.1, -1247512.3, 13475.079, -0.006601599, 0.03656853, -1241953.1, -17753.984, 0.0, 9.999654, 10.000008 
2.7499726e+2, 1.8508211e+2, -1176678.9, -1200772.1, 17349.66, -0.012990331, 0.04515794, -1167603.6, -41402.55, 0.0, 9.999873, 9.99955 
2.7500233e+2, 1.9508205e+2, -1034880.6, -1083812.0, 10230.086, 0.043441243, 0.081750445, -1032827.94, -4624.2563, 0.0, 10.000184, 9.999531 
2.7500677e+2, 2.0508175e+2, -911071.6, -948023.1, 6479.01, 0.040456846, 0.08799919, -909968.5, 20238.271, 0.0, 10.000252, 9.999757 
2.7501062e+2, 2.150812e+2, -837869.0, -864321.56, 8870.346, -0.022312483, 0.056959495, -835169.94, -2959.462, 0.0, 10.000092, 9.999736 
2.750151e+2, 2.2508073e+2, -731308.9, -789249.75, 14683.151, -0.027758447, 0.049215548, -727800.4, 6413.97, 0.0, 10.000267, 9.999493 
2.750202e+2, 2.3508033e+2, -560494.56, -658166.94, 16280.921, 0.024847768, 0.056893624, -557852.2, 78366.11, 0.0, 10.000775, 9.9994755 
2.750248e+2, 2.4507971e+2, -456123.47, -587391.56, 13418.251, 0.026931465, 0.06179204, -454765.9, 83458.19, 0.0, 10.00095, 9.999206 
2.7502882e+2, 2.550789e+2, -381797.3, -503096.7, 13155.225, -0.021560302, 0.05645575, -380386.97, 59844.49, 0.0, 10.000796, 9.999185 
2.7503327e+2, 2.6507786e+2, -290432.06, -448477.06, 5291.6147, -0.021954067, 0.05310745, -290255.1, 51986.52, 0.0, 10.000925, 9.998825 
2.750381e+2, 2.750766e+2, -135202.53, -325105.7, 10218.803, 0.028610872, 0.041532762, -134654.23, 109600.27, 0.0, 10.001328, 9.998804 
2.7504268e+2, 2.8507522e+2, -29032.55, -278046.38, 10255.308, 0.055026624, 0.04834452, -28610.912, 117657.47, 0.0, 10.00162, 9.998315 
2.7504694e+2, 2.9507387e+2, 87716.56, -176540.63, 9971.027, 0.043562666, 0.07658864, 88092.26, 136374.25, 0.0, 10.001772, 9.998266 
2.750506e+2, 3.050719e+2, 89862.42, -248867.48, 13737.964, -0.052294593, 0.10232736, 90418.68, 90418.68, 0.0, 10.001876, 9.997386 
2.7505642e+2, 3.1506878e+2, 236052.0, 33187.82, 1023.9324, 0.06933344, 0.047633898, 236057.17, 236057.17, 0.00000000643165, 10.001969, 9.999277 
2.8497317e+2, 1.2507698e+2, -1856671.1, -1731345.4, 25959.492, 0.044075523, 0.014615692, -1726181.0, -11930.3545, 0.00010364884, 9.998801, 10.000464 
2.8497574e+2, 1.3507837e+2, -1710645.1, -1582225.0, -49146.74, 0.006703777, 0.08224245, -1565575.0, 50661.33, 0.000040612387, 9.999013, 10.000713 
2.849791e+2, 1.4507818e+2, -1625542.4, -1577411.5, 10956.618, -0.016761752, 0.030815272, -1575034.8, -56796.215, 0.0000062724685, 9.999298, 9.999933 
2.8498423e+2, 1.5507835e+2, -1481980.1, -1466137.3, 15878.213, 0.05185455, 0.058067206, -1456314.3, -36076.082, 0.000000028346124, 9.999649, 9.999855 
2.849888e+2, 1.6507828e+2, -1349702.0, -1338976.1, 16121.172, 0.060127098, 0.06018295, -1327349.3, -5110.292, 0.0, 9.99983, 9.999968 
2.8499255e+2, 1.7507797e+2, -1247135.9, -1240251.8, 4336.685, -0.011943801, 0.029567301, -1238157.1, -13916.446, 0.0, 9.999868, 9.999953 
2.8499708e+2, 1.850778e+2, -1164693.8, -1194787.4, 12408.782, -0.021653458, 0.03830958, -1160237.1, -33994.297, 0.0, 9.999956, 9.999551 
2.8500238e+2, 1.9507779e+2, -1048748.9, -1090581.3, 17995.602, 0.035518613, 0.07915738, -1042072.9, -13827.733, 0.0, 10.00009, 9.999529 
2.8500697e+2, 2.0507751e+2, -914842.6, -953122.7, 10055.452, 0.035402216, 0.09009679, -912362.0, 17886.08, 0.0, 10.000239, 9.999728 
2.8501087e+2, 2.1507701e+2, -794274.0, -846033.56, 5726.5815, -0.022895053, 0.06415325, -793648.0, 38603.543, 0.0, 10.000403, 9.999711 
2.8501546e+2, 2.2507653e+2, -699334.1, -783393.25, 16296.836, -0.028300103, 0.05938875, -696285.2, 37970.742, 0.0, 10.000527, 9.999408 
2.8502086e+2, 2.3507604e+2, -590344.44, -681951.75, 9341.455, 0.020170394, 0.06803797, -589401.56, 46859.586, 0.0, 10.00061, 9.999392 
2.8502563e+2, 2.4507539e+2, -481506.03, -594611.3, -4261.6655, 0.027132742, 0.07229327, -481345.7, 56921.38, 0.0, 10.000753, 9.99925 
2.8502986e+2, 2.550746e+2, -355553.72, -485367.2, 604.6609, -0.008470496, 0.06533006, -355550.9, 84722.61, 0.0, 10.000956, 9.999229 
2.8503445e+2, 2.6507348e+2, -250636.17, -432379.25, 3430.1975, -0.011319863, 0.05314193, -250571.45, 91712.56, 0.0, 10.001213, 9.998796 
2.8503945e+2, 2.75072e+2, -110415.24, -315691.78, -2368.723, 0.022694955, 0.025363576, -110387.914, 133910.64, 0.0, 10.00151, 9.998781 
2.8504425e+2, 2.850707e+2, -25569.115, -281576.38, -13004.279, 0.048117444, 0.038073957, -24910.238, 121401.984, 0.0, 10.001667, 9.998267 
2.8504872e+2, 2.9506952e+2, 75894.96, -187264.2, -7886.887, 0.051393628, 0.09310034, 76131.12, 124455.12, 0.0, 10.001715, 9.998219 
2.8505257e+2, 3.050672e+2, 78293.68, -241214.08, 6815.7314, -0.034613788, 0.076969706, 78439.01, 78439.01, 0.0, 10.001741, 9.997502 
2.850584e+2, 3.150643e+2, 207229.42, 36768.723, 5976.2397, 0.08358799, 0.033894032, 207438.69, 207438.69, 0.00000000043435586, 10.001696, 9.999434 
2.9497164e+2, 1.250732e+2, -1858960.6, -1736703.8, 39207.887, 0.010527739, 0.051144473, -1725210.3, -10920.741, 0.000085497144, 9.998803, 10.000427 
2.9497498e+2, 1.3507427e+2, -1711729.8, -1584697.3, -41084.496, 0.031405464, 0.091438435, -1572567.9, 43709.793, 0.000032281903, 9.999014, 10.000696 
2.9497856e+2, 1.4507416e+2, -1618170.3, -1562326.9, 23513.4, -0.002696977, 0.040836524, -1553745.1, -35466.383, 0.0000046245973, 9.999299, 10.000037 
2.949834e+2, 1.5507439e+2, -1474284.3, -1449893.0, 28912.803, 0.00440464, 0.06242392, -1430708.9, -10431.844, 0.00000001715619, 9.999648, 9.999967 
2.9498824e+2, 1.6507426e+2, -1368447.9, -1377622.1, 16884.574, 0.021224435, 0.06708658, -1355538.4, -33259.95, 0.0, 9.999829, 9.999703 
2.9499277e+2, 1.750738e+2, -1266116.6, -1278876.6, 6111.335, 0.021998012, 0.049065977, -1263661.9, -39379.28, 0.0, 9.999866, 9.99969 
2.949973e+2, 1.8507355e+2, -1153293.9, -1170166.8, 17352.063, 0.007672257, 0.05266672, -1142436.0, -16150.644, 0.0, 9.999951, 9.9997225 
2.9500198e+2, 1.9507346e+2, -1036650.56, -1065534.6, 23390.605, -0.0119823655, 0.06921269, -1023602.75, 4684.457, 0.0, 10.00009, 9.9997015 
2.950068e+2, 2.0507322e+2, -922977.2, -969282.2, 16087.652, -0.005565071, 0.08064709, -917936.56, 12352.816, 0.0, 10.0002365, 9.999619 
2.9501173e+2, 2.1507286e+2, -802219.1, -862249.6, 12340.186, 0.023249652, 0.07955916, -799781.44, 32510.598, 0.0, 10.0004015, 9.9996 
2.950164e+2, 2.2507226e+2, -712840.8, -810869.2, 19128.734, 0.012978527, 0.07933436, -709240.4, 25057.5, 0.0, 10.000525, 9.999221 
2.9502094e+2, 2.3507144e+2, -603678.94, -709422.94, 12938.195, -0.032824997, 0.07311419, -602118.9, 34187.86, 0.0, 10.000609, 9.999204 
2.950259e+2, 2.4507062e+2, -473568.5, -577532.56, 3051.4595, -0.026584862, 0.0626928, -473479.0, 64835.09, 0.0, 10.000751, 9.999369 
2.9503116e+2, 2.5506982e+2, -347428.03, -468208.94, 8682.676, 0.028202435, 0.041520007, -346807.06, 93512.72, 0.0, 10.000954, 9.999348 
2.9503602e+2, 2.6506874e+2, -262118.92, -456123.78, 14227.745, 0.025097448, 0.036154933, -261081.05, 81248.53, 0.0, 10.001212, 9.998633 
2.9504043e+2, 2.750674e+2, -121725.22, -338998.7, 8766.696, -0.030506719, 0.03498883, -121372.06, 122971.52, 0.0, 10.001509, 9.998622 
2.9504547e+2, 2.8506595e+2, -23756.982, -277216.75, -12087.614, 0.0023903763, 0.045567695, -23181.824, 123176.59, 0.0, 10.001665, 9.998299 
2.9505104e+2, 2.950645e+2, 77527.73, -182324.7, -5430.6875, 0.10852426, 0.06974442, 77641.17, 126014.19, 0.0, 10.001708, 9.998256 
2.9505506e+2, 3.0506206e+2, 103357.63, -188469.56, 5263.1694, 0.038569637, 0.018451238, 103452.52, 103452.52, 0.0, 10.001739, 9.997867 
2.9506e+2, 3.1506026e+2, 228303.81, 78201.83, 720.8154, 0.07183599, 0.052425135, 228307.27, 228307.27, 0.0, 10.001706, 9.999715 
3.0497026e+2, 1.2506908e+2, -1860957.6, -1741786.8, 38369.58, -0.008568015, 0.08077364, -1730501.5, -16170.502, 0.000073591786, 9.998812, 10.000387 
3.0497432e+2, 1.3506989e+2, -1692193.5, -1578477.5, -51193.74, 0.05442317, 0.09472726, -1558826.5, 57495.453, 0.000027638554, 9.999162, 10.000668 
3.04978e+2, 1.4506982e+2, -1604545.8, -1542198.5, 11662.62, 0.013803885, 0.047376722, -1540088.3, -21766.441, 0.000004191702, 9.999335, 10.000156 
3.0498272e+2, 1.550702e+2, -1509313.8, -1453266.0, 16226.771, -0.014511347, 0.07191099, -1448907.0, -28588.855, 0.000000032166714, 9.999351, 10.000087 
3.0498773e+2, 1.6507012e+2, -1404819.8, -1398727.4, 16265.489, -0.0010726901, 0.07506516, -1385225.3, -62906.15, 0.0, 9.999597, 9.99967 
3.0499274e+2, 1.7506959e+2, -1238350.8, -1269373.4, 21881.771, 0.022133205, 0.052066106, -1227040.3, -2716.09, 0.0, 10.000073, 9.999656 
3.049975e+2, 1.8506925e+2, -1106996.8, -1153215.6, 26664.92, 0.012061705, 0.05257225, -1094820.8, 31506.941, 0.0, 10.000293, 9.999675 
3.050021e+2, 1.9506909e+2, -1013119.56, -1058513.8, 15779.079, -0.01948496, 0.06849445, -1008173.6, 20156.031, 0.0, 10.000272, 9.999661 
3.0500704e+2, 2.0506874e+2, -910101.3, -974852.75, 6054.0825, -0.010035444, 0.07580862, -909540.1, 20792.795, 0.0, 10.000377, 9.999512 
3.0501232e+2, 2.150682e+2, -780241.75, -863758.0, 1891.851, 0.035148416, 0.06845848, -780198.94, 52138.34, 0.0, 10.000605, 9.999493 
3.0501717e+2, 2.2506753e+2, -681649.75, -802025.06, 10754.9, 0.023906838, 0.06766149, -680696.44, 53647.426, 0.0, 10.000765, 9.999167 
3.050216e+2, 2.350667e+2, -571153.75, -699356.75, 13850.029, -0.03994589, 0.06586054, -569674.56, 66677.97, 0.0, 10.000857, 9.999154 
3.0502662e+2, 2.4506578e+2, -443228.22, -574829.9, 5492.662, -0.039005738, 0.053494334, -442999.34, 95361.516, 0.0, 10.001011, 9.999262 
3.050322e+2, 2.550648e+2, -315875.5, -464694.53, -6004.076, 0.02366319, 0.024178194, -315633.66, 124735.07, 0.0, 10.001222, 9.999244 
3.050373e+2, 2.650637e+2, -242743.27, -441933.56, -2004.3939, 0.024990024, 0.021389656, -242723.11, 99655.49, 0.0, 10.001326, 9.998676 
3.0504185e+2, 2.7506253e+2, -144631.75, -345429.1, 6654.7085, -0.029653618, 0.03379216, -144411.44, 99979.16, 0.0, 10.001333, 9.998662 
3.0504707e+2, 2.8506115e+2, -59550.664, -295251.56, -10147.639, 0.005425634, 0.04929836, -59114.582, 87290.12, 0.0, 10.001423, 9.998291 
3.0505276e+2, 2.9505965e+2, 57281.258, -192595.81, -7141.146, 0.11696104, 0.06947528, 57485.176, 105905.055, 0.0, 10.001572, 9.998251 
3.0505702e+2, 3.0505684e+2, 126372.35, -171064.2, -3848.3887, 0.055532537, -0.017129172, 126422.13, 126422.13, 0.0, 10.001869, 9.997923 
3.050622e+2, 3.1505552e+2, 307922.4, 102530.72, -37735.25, 0.08921211, 0.050989803, 314635.8, 314635.8, 0.0, 10.002315, 9.999588 
3.1496903e+2, 1.2506464e+2, -1864235.5, -1749137.5, 59542.79, -0.015388596, 0.104515746, -1723878.1, -9502.981, 0.00006650563, 9.998813, 10.000337 
3.149736e+2, 1.3506517e+2, -1693322.5, -1582321.3, -37589.87, 0.06859952, 0.09442732, -1570789.8, 45579.016, 0.000025576577, 9.999169, 10.000638 
3.1497747e+2, 1.4506523e+2, -1594893.8, -1523531.5, 11500.292, 0.025073988, 0.05282136, -1521724.0, -3356.5576, 0.000004447986, 9.99934, 10.000283 
3.1498215e+2, 1.550658e+2, -1501194.4, -1435115.0, 17310.053, -0.0062423553, 0.08484149, -1430855.1, -10493.609, 0.00000006594377, 9.999345, 10.000215 
3.1498727e+2, 1.6506582e+2, -1392600.1, -1371977.3, 33883.066, -0.007557605, 0.083010614, -1346871.4, -24510.498, 0.0, 9.99959, 9.999856 
3.1499246e+2, 1.7506526e+2, -1225349.8, -1242533.4, 39956.48, -0.014260788, 0.03958473, -1193071.8, 31293.682, 0.0, 10.000073, 9.999839 
3.1499752e+2, 1.850649e+2, -1125349.0, -1191576.6, 25491.957, -0.012546317, 0.040161967, -1116673.3, 9696.157, 0.0, 10.000294, 9.999412 
3.1500268e+2, 1.9506468e+2, -1031706.2, -1096690.8, 15496.51, 0.01127031, 0.07583705, -1028200.0, 172.78004, 0.0, 10.000269, 9.999401 
3.1500775e+2, 2.0506407e+2, -918241.2, -990415.6, 14531.199, 0.020397391, 0.07454484, -915425.4, 14953.412, 0.0, 10.000371, 9.999408 
3.150127e+2, 2.1506307e+2, -787878.06, -879272.5, 10981.448, 0.0111069, 0.03051774, -786577.1, 45810.266, 0.0, 10.000603, 9.999388 
3.1501773e+2, 2.250623e+2, -676429.0, -790699.75, 14162.475, 0.0026195159, 0.024133196, -674699.94, 59694.074, 0.0, 10.000763, 9.999246 
3.1502283e+2, 2.350618e+2, -565668.8, -688134.5, 17765.854, -0.00263276, 0.04591022, -563143.6, 73255.04, 0.0, 10.000857, 9.99923 
3.1502792e+2, 2.4506085e+2, -466379.63, -622664.06, 12922.75, -0.011576675, 0.0439046, -465318.3, 73089.3, 0.0, 10.00101, 9.998934 
3.1503296e+2, 2.550595e+2, -338272.0, -510827.2, 2060.587, -0.025491623, 0.012930252, -338247.4, 102173.04, 0.0, 10.00122, 9.998928 
3.150382e+2, 2.6505837e+2, -226239.13, -407171.2, -2110.9197, -0.014398461, 0.009152561, -226214.5, 116216.51, 0.0, 10.001323, 9.998916 
3.1504372e+2, 2.7505746e+2, -128622.27, -311391.28, 7571.2974, 0.023206647, 0.021818113, -128309.164, 116130.46, 0.0, 10.001329, 9.998898 
3.15049e+2, 2.8505626e+2, -63791.78, -303115.5, -5117.7266, 0.056460377, 0.048904497, -63682.395, 82768.836, 0.0, 10.001419, 9.998239 
3.1505388e+2, 2.9505497e+2, 55316.96, -198201.89, -1384.3705, 0.07353117, 0.09032102, 55324.523, 103789.4, 0.0, 10.001578, 9.99821 
3.1505847e+2, 3.0505165e+2, 109597.43, -207532.33, 12325.004, 0.013267711, -0.03125419, 110075.71, 110075.71, 0.0, 10.001876, 9.99767 
3.150649e+2, 3.1504995e+2, 270982.8, 27505.465, -24981.588, 0.12919235, 0.025912384, 273519.6, 273519.6, 0.0, 10.002306, 9.999078 
3.2496807e+2, 1.2505952e+2, -1854609.3, -1737252.1, 57549.996, 0.0072138538, 0.08617522, -1713740.8, 684.14136, 0.00006287029, 9.998851, 10.000399 
3.249725e+2, 1.3506024e+2, -1717302.1, -1585705.6, -41231.793, 0.05140327, 0.088219166, -1573854.3, 42562.543, 0.000025189593, 9.99897, 10.0007105 
3.2497647e+2, 1.4506045e+2, -1618213.9, -1538327.3, 2776.1567, -0.0020591377, 0.060341656, -1538230.9, -19816.64, 0.0000050024137, 9.999197, 10.00025 
3.2498175e+2, 1.5506084e+2, -1479559.4, -1427714.3, -4689.7427, 0.011529319, 0.075517215, -1427293.5, -6883.1035, 0.000000115129794, 9.999506, 10.000187 
3.249871e+2, 1.6506088e+2, -1378353.3, -1354112.9, 6834.63, 0.018377818, 0.07375728, -1352318.6, -29909.184, 0.0, 9.999641, 9.999953 
3.2499224e+2, 1.7506063e+2, -1284013.6, -1259375.4, 5603.5957, -0.019392096, 0.049376965, -1258160.9, -33749.58, 0.0, 9.999624, 9.999939 
3.2499748e+2, 1.850603e+2, -1192753.1, -1228406.0, -3476.1953, -0.024745468, 0.052994393, -1192417.4, -66002.766, 0.0, 9.99985, 9.999372 
3.25003e+2, 1.9505994e+2, -1026732.8, -1099270.0, 2018.3302, 0.01398353, 0.0767124, -1026676.75, 1742.5889, 0.0, 10.000323, 9.999357 
3.2500824e+2, 2.050592e+2, -886003.9, -985199.94, 9078.301, 0.02061459, 0.0709853, -885179.9, 45246.535, 0.0, 10.000635, 9.999317 
3.2501322e+2, 2.1505813e+2, -767200.56, -878443.3, 6007.229, -0.008132041, 0.030376405, -766877.06, 65558.6, 0.0, 10.000785, 9.999305 
3.2501844e+2, 2.2505735e+2, -652152.3, -777366.25, 5215.6226, -0.011892635, 0.02254519, -651935.44, 82507.12, 0.0, 10.000923, 9.99926 
3.250239e+2, 2.3505677e+2, -536684.25, -672765.44, 3627.8613, 0.010897337, 0.038490094, -536587.6, 99859.58, 0.0, 10.001051, 9.999244 
3.2502913e+2, 2.4505582e+2, -459525.38, -631237.0, 5184.1875, 0.0070297825, 0.040453438, -459369.03, 79087.23, 0.0, 10.001108, 9.998828 
3.250341e+2, 2.550545e+2, -363602.03, -535054.5, 9585.962, -0.02442978, 0.02314422, -363067.75, 77401.59, 0.0, 10.001098, 9.99882 
3.2503945e+2, 2.6505327e+2, -238139.45, -411255.53, 6559.2573, -0.017083665, 0.014469161, -237891.28, 104589.62, 0.0, 10.001234, 9.998932 
3.250452e+2, 2.7505216e+2, -101163.02, -296304.38, -725.0369, 0.030962685, 0.0044999784, -101160.33, 143330.88, 0.0, 10.00151, 9.998915 
3.2505062e+2, 2.85051e+2, -7641.5933, -279596.97, -15265.286, 0.060060997, 0.034123812, -6787.4116, 139715.05, 0.0, 10.001821, 9.998207 
3.2505563e+2, 2.9504994e+2, 136659.28, -162933.52, -11686.327, 0.060167037, 0.10327032, 137114.44, 185628.22, 0.0, 10.002154, 9.998175 
3.250605e+2, 3.050466e+2, 165430.36, -178407.81, 8910.315, 0.00828739, -0.02064025, 165661.11, 165661.11, 0.0, 10.00225, 9.99769 
3.2506722e+2, 3.1504485e+2, 220564.72, -29756.111, -13041.453, 0.14237702, 0.032429382, 221242.33, 221242.33, 0.0, 10.0021, 9.998783 
3.3496734e+2, 1.2505372e+2, -1842007.0, -1713791.3, 69304.61, 0.047754053, 0.027628485, -1683490.6, 30989.334, 0.000061273975, 9.998861, 10.000555 
3.34971e+2, 1.3505508e+2, -1706403.9, -1561619.0, -35503.348, 0.0032401024, 0.07593318, -1553381.8, 63084.363, 0.000025556885, 9.998963, 10.000879 
3.34975e+2, 1.450555e+2, -1632914.9, -1567500.6, 14585.487, -0.06753977, 0.070004806, -1564395.9, -45933.742, 0.0000055599335, 9.99919, 10.000053 
3.3498144e+2, 1.550553e+2, -1492334.0, -1454560.5, 7492.6826, 0.032024205, 0.04541248, -1453128.5, -32663.863, 0.00000016881297, 9.999508, 10.000002 
3.3498728e+2, 1.6505532e+2, -1377054.0, -1352584.5, 5836.0205, 0.06907728, 0.049740374, -1351263.9, -28799.266, 0.0, 9.999645, 9.999963 
3.3499214e+2, 1.7505561e+2, -1283490.1, -1257788.0, 5658.676, 0.0064876257, 0.07980854, -1256597.4, -32135.746, 0.0, 9.99962, 9.999953 
3.3499736e+2, 1.8505545e+2, -1181469.6, -1203475.3, 14108.424, -0.025236968, 0.08977524, -1174580.9, -48117.703, 0.0, 9.999844, 9.999545 
3.3500305e+2, 1.9505483e+2, -1015394.44, -1075500.9, 20218.857, -0.013500867, 0.071014285, -1009226.1, 19243.26, 0.0, 10.000322, 9.999521 
3.3500853e+2, 2.0505413e+2, -891623.06, -996161.0, 14656.187, -0.01213735, 0.065952756, -889607.1, 40868.695, 0.0, 10.000632, 9.999244 
3.3501384e+2, 2.1505342e+2, -772201.0, -888707.06, 12228.365, -0.024222447, 0.06703351, -770931.3, 61550.973, 0.0, 10.000784, 9.999235 
3.3501926e+2, 2.250526e+2, -656026.06, -784636.56, 9676.923, -0.021340633, 0.06198832, -655302.06, 79187.73, 0.0, 10.000919, 9.999211 
3.3502483e+2, 2.3505165e+2, -539808.8, -679036.8, 8822.641, -0.0013179276, 0.04332314, -539252.0, 97246.234, 0.0, 10.00105, 9.999201 
3.3503035e+2, 2.450507e+2, -452490.84, -616192.94, 4554.3276, 0.014611196, 0.043132626, -452364.25, 86142.61, 0.0, 10.001106, 9.998932 
3.350357e+2, 2.5504977e+2, -356962.53, -520761.28, 9669.038, 0.024741152, 0.05464206, -356393.75, 84121.76, 0.0, 10.001096, 9.9989195 
3.3504105e+2, 2.650484e+2, -253058.53, -441646.4, 16381.745, 0.016061595, 0.03677769, -251646.1, 90882.31, 0.0, 10.001231, 9.998724 
3.3504632e+2, 2.750466e+2, -114170.336, -323602.53, 9792.478, -0.009087546, -0.0193551, -113713.46, 130832.02, 0.0, 10.001512, 9.998727 
3.35052e+2, 2.850453e+2, -9165.974, -282544.03, -3072.7734, 0.013591433, 0.0045195697, -9131.439, 137426.95, 0.0, 10.001819, 9.998188 
3.350579e+2, 2.9504454e+2, 134284.84, -166256.3, 1723.292, 0.0734706, 0.108829886, 134294.72, 182861.2, 0.0, 10.002147, 9.998156 
3.35063e+2, 3.0504167e+2, 183724.0, -138695.13, 2273.8113, 0.038532183, 0.014263557, 183740.03, 183740.03, 0.0, 10.002242, 9.997967 
3.3506915e+2, 3.150402e+2, 216992.69, -38361.258, -20701.4, 0.12379274, 0.06774624, 218660.05, 218660.05, 0.0, 10.002106, 9.998721 
3.4496593e+2, 1.2504818e+2, -1860102.3, -1728601.9, 67069.27, 0.025418028, 0.014516783, -1700429.9, 14103.647, 0.000060228966, 9.998764, 10.0005 
3.4496996e+2, 1.3504958e+2, -1719232.4, -1574538.8, -64169.023, 0.009651319, 0.07074338, -1550181.3, 66338.87, 0.000025763518, 9.998901, 10.000821 
3.4497416e+2, 1.4505014e+2, -1628417.9, -1556510.9, -1424.5238, -0.070970304, 0.0796749, -1556482.6, -37967.977, 0.000005876301, 9.999184, 10.000131 
3.4498087e+2, 1.5504988e+2, -1474624.4, -1436910.9, 10638.542, 0.019631574, 0.041238144, -1434116.9, -13599.379, 0.0000002059256, 9.999591, 10.000083 
3.4498698e+2, 1.650499e+2, -1350312.9, -1350251.0, 5194.389, 0.06330921, 0.045352194, -1345087.5, -22569.727, 0.0, 9.999875, 9.999867 
3.4499207e+2, 1.7505023e+2, -1225787.4, -1240480.6, -4130.6973, 0.016947992, 0.09029493, -1224705.8, -190.98227, 0.0, 10.000061, 9.999859 
3.4499744e+2, 1.8505006e+2, -1129127.3, -1170763.6, 3609.1006, -0.016516587, 0.09918829, -1128816.8, -2300.1577, 0.0, 10.00017, 9.999613 
3.4500322e+2, 1.9504935e+2, -1028366.44, -1073240.3, 1805.8585, -0.022417452, 0.06458492, -1028293.9, 229.16978, 0.0, 10.000198, 9.999595 
3.4500894e+2, 2.0504873e+2, -927615.94, -1005045.94, -2308.6416, -0.020725016, 0.05787307, -927547.2, 2981.4072, 0.0, 10.00035, 9.999318 
3.450146e+2, 2.1504821e+2, -790053.25, -889204.7, 5462.9404, -0.016798023, 0.070997424, -789753.1, 42779.91, 0.0, 10.000626, 9.999308 
3.4502017e+2, 2.2504741e+2, -679249.9, -803340.7, 3675.3027, -0.012781324, 0.07027401, -679141.1, 55399.133, 0.0, 10.0007925, 9.999145 
3.4502572e+2, 2.3504636e+2, -573924.0, -702706.5, 484.48276, -0.0060369004, 0.0483912, -573922.2, 62627.902, 0.0, 10.000847, 9.999136 
3.4503138e+2, 2.4504538e+2, -460857.06, -607683.6, -2944.579, 0.011826048, 0.042230412, -460798.03, 77760.805, 0.0, 10.000994, 9.999045 
3.45037e+2, 2.550445e+2, -328801.47, -494711.97, 2547.3147, 0.038950257, 0.044886556, -328762.38, 111804.07, 0.0, 10.001235, 9.999031 
3.450425e+2, 2.650431e+2, -229282.75, -447500.56, 18072.457, 0.028608477, 0.029228037, -227796.14, 114783.13, 0.0, 10.001469, 9.9985695 
3.4504786e+2, 2.7504128e+2, -99519.49, -334700.34, 13925.868, -0.016468726, -0.014209505, -98697.766, 145899.63, 0.0, 10.001689, 9.998566 
3.450537e+2, 2.8503984e+2, -3266.4343, -274093.25, 3581.3125, 0.0031112365, 0.0022269809, -3219.0847, 143392.45, 0.0, 10.001835, 9.998239 
3.4506e+2, 2.9503888e+2, 105357.19, -174888.4, 12890.982, 0.07771827, 0.07956807, 105948.914, 154569.95, 0.0, 10.0019245, 9.998203 
3.4506536e+2, 3.0503625e+2, 189618.08, -116881.64, 10792.165, 0.05015554, 0.0021168557, 189997.61, 189997.61, 0.0, 10.002202, 9.998135 
3.4507146e+2, 3.1503496e+2, 281453.28, -21428.387, -26621.72, 0.11717484, 0.053914446, 283775.38, 283775.38, 0.0, 10.002612, 9.998593 
3.549638e+2, 1.250429e+2, -1878957.4, -1767394.8, 80453.78, -0.063655816, 0.047146905, -1725276.4, -10690.822, 0.00005843651, 9.998761, 10.000236 
3.549694e+2, 1.3504371e+2, -1738043.4, -1614671.9, -57757.156, 0.062273223, 0.0737433, -1591853.1, 24725.57, 0.000025162195, 9.998905, 10.000545 
3.5497385e+2, 1.450444e+2, -1602939.6, -1505119.6, 14310.948, -0.021202432, 0.09107565, -1503069.0, 15502.876, 0.0000057861466, 9.999189, 10.000482 
3.5498005e+2, 1.550446e+2, -1450389.8, -1386086.3, 26679.766, -0.024660226, 0.06282692, -1376458.3, 44110.676, 0.00000020730299, 9.999588, 10.000433 
3.5498625e+2, 1.6504462e+2, -1365232.6, -1380729.8, 11758.276, 0.0009028032, 0.060721055, -1358899.4, -36330.65, 0.0, 9.999872, 9.9996605 
3.5499203e+2, 1.7504449e+2, -1240244.1, -1271015.9, 3383.56, 0.00716332, 0.081073895, -1239876.5, -15305.635, 0.0, 10.000063, 9.999649 
3.5499772e+2, 1.8504412e+2, -1131233.4, -1175026.1, 4676.935, -0.004232787, 0.082142375, -1130739.5, -4164.724, 0.0, 10.000169, 9.999584 
3.550035e+2, 1.9504347e+2, -1029869.44, -1076294.1, 3508.5017, -0.013766149, 0.056235682, -1029605.8, -1025.2897, 0.0, 10.000197, 9.999576 
3.5500947e+2, 2.0504293e+2, -912663.5, -973079.2, 7837.1567, -0.0060242037, 0.045778483, -911663.4, 18921.451, 0.0, 10.000345, 9.999539 
3.5501552e+2, 2.1504246e+2, -775341.0, -857949.94, 16421.4, 0.011639831, 0.04276617, -772196.4, 60391.547, 0.0, 10.000623, 9.999524 
3.550212e+2, 2.2504178e+2, -685904.6, -816467.06, 5466.4707, 0.010893522, 0.047650937, -685676.2, 48917.824, 0.0, 10.000789, 9.999056 
3.550266e+2, 2.3504092e+2, -580323.7, -715843.7, 2897.316, -0.004489241, 0.053605743, -580261.8, 56341.066, 0.0, 10.000846, 9.999046 
3.5503224e+2, 2.4503987e+2, -452335.63, -589765.25, 5638.784, -0.0021102307, 0.037656166, -452104.66, 86507.65, 0.0, 10.000993, 9.999168 
3.5503802e+2, 2.5503865e+2, -319531.75, -475143.56, 11627.73, 0.016138975, -0.006029711, -318667.7, 121954.45, 0.0, 10.001234, 9.9991665 
3.5504386e+2, 2.6503742e+2, -237229.86, -463314.66, 26106.441, 0.017952276, -0.008369411, -234254.45, 108379.09, 0.0, 10.001466, 9.998463 
3.550498e+2, 2.750362e+2, -108025.88, -351630.94, 22759.44, 0.005805345, 0.0199955, -105917.766, 138729.13, 0.0, 10.001685, 9.998451 
3.5505578e+2, 2.8503463e+2, 3903.5474, -258452.97, 6061.6504, 0.026206939, 0.027297659, 4043.525, 150705.36, 0.0, 10.001831, 9.998348 
3.5506186e+2, 2.950329e+2, 113825.984, -157071.25, 16763.447, 0.07011823, 0.015622551, 114859.39, 163536.81, 0.0, 10.001924, 9.998326 
3.5506743e+2, 3.0503044e+2, 192721.08, -110146.28, 26206.16, 0.039629374, -0.056775182, 194971.89, 194971.89, 0.0, 10.0022, 9.998182 
3.5507405e+2, 3.1502917e+2, 268077.1, -48500.55, -13522.111, 0.113027945, -0.0046751653, 268653.6, 268653.6, 0.0, 10.002608, 9.998409 
3.6496237e+2, 1.2503706e+2, -1868346.8, -1755071.6, 59556.19, -0.08540263, 0.074923456, -1729521.9, -14878.327, 0.000055122826, 9.998804, 10.000298 
3.6496857e+2, 1.3503753e+2, -1704548.6, -1593305.0, -62789.813, 0.07486862, 0.060553458, -1565043.9, 51595.402, 0.000023501116, 9.999112, 10.00059 
3.649731e+2, 1.4503834e+2, -1592340.6, -1500639.3, 6909.3457, -0.021328053, 0.08806066, -1500121.5, 18509.584, 0.00000526637, 9.999265, 10.000476 
3.649793e+2, 1.5503874e+2, -1503567.3, -1411747.5, -9276.341, -0.03574221, 0.08196062, -1410819.8, 9806.877, 0.00000017249042, 9.999222, 10.000433 
3.6498573e+2, 1.650388e+2, -1429655.0, -1395984.6, -20094.303, -0.008213503, 0.07546929, -1386605.3, -63979.32, 0.0, 9.999362, 9.999801 
3.649919e+2, 1.7503852e+2, -1284963.4, -1276400.6, -2336.112, 0.007892978, 0.06560427, -1275804.8, -51176.023, 0.0, 9.999687, 9.999792 
3.6499783e+2, 1.8503813e+2, -1158395.8, -1189734.3, 9935.48, 0.0005855072, 0.059442524, -1155511.4, -28879.03, 0.0, 9.9999895, 9.99957 
3.6500376e+2, 1.9503762e+2, -1018896.25, -1072519.4, 8667.374, -0.011239397, 0.049118735, -1017530.1, 11106.693, 0.0, 10.0002775, 9.999563 
3.650098e+2, 2.0503709e+2, -896576.25, -961906.2, 6809.841, -0.0057955515, 0.040989567, -895873.94, 34767.004, 0.0, 10.00044, 9.999573 
3.65016e+2, 2.1503656e+2, -794854.56, -863329.06, 853.7193, 0.009323668, 0.027360437, -794843.94, 37800.848, 0.0, 10.000471, 9.99956 
3.6502194e+2, 2.2503588e+2, -700473.6, -814809.9, -8143.1, 0.011455052, 0.024783786, -699896.56, 34754.23, 0.0, 10.000651, 9.999134 
3.6502758e+2, 2.3503505e+2, -554819.4, -694998.0, 1032.3578, 0.0041745733, 0.02669959, -554811.75, 81847.11, 0.0, 10.000984, 9.999123 
3.650334e+2, 2.4503404e+2, -422524.03, -583644.5, 3879.3838, 0.005034699, 0.015515214, -422430.7, 116237.305, 0.0, 10.001234, 9.999094 
3.650393e+2, 2.5503284e+2, -300237.4, -474453.72, -6021.1685, 0.011604964, -0.015266099, -300029.56, 140648.4, 0.0, 10.001402, 9.99909 
3.6504534e+2, 2.650317e+2, -227555.17, -450484.16, 4952.759, 0.017240409, -0.009672868, -227445.19, 115243.58, 0.0, 10.001495, 9.998537 
3.6505154e+2, 2.750306e+2, -125469.15, -351674.2, 14527.23, 0.024077132, 0.022026042, -124540.0, 120160.71, 0.0, 10.00153, 9.998526 
3.6505774e+2, 2.85029e+2, -7347.9663, -262852.84, 6348.8027, 0.044105466, 0.01803646, -7190.308, 139525.78, 0.0, 10.001749, 9.998358 
3.6506385e+2, 2.9502702e+2, 142648.83, -142762.14, 8751.321, 0.069786474, -0.01981795, 142916.9, 191650.86, 0.0, 10.002118, 9.998332 
3.6506975e+2, 3.0502486e+2, 222573.06, -90036.38, 18130.494, 0.040130973, -0.059634525, 223621.06, 223621.06, 0.0, 10.002379, 9.998235 
3.6507663e+2, 3.1502333e+2, 259907.28, -59759.152, -25998.959, 0.111614265, -0.03880746, 262008.02, 262008.02, 0.0, 10.002582, 9.998346 
3.7496158e+2, 1.2503067e+2, -1842012.4, -1699331.1, 79285.96, -0.04641508, 0.09850281, -1664014.6, 50693.098, 0.00005010573, 9.998798, 10.000683 
3.749674e+2, 1.3503097e+2, -1678646.1, -1539779.6, -49749.973, 0.048062958, 0.03188443, -1523796.0, 92906.24, 0.000020857056, 9.999112, 10.000958 
3.7497184e+2, 1.450319e+2, -1617805.6, -1553515.5, 5041.274, -0.072891, 0.070957795, -1553122.5, -34429.832, 0.000004428325, 9.999264, 10.0001135 
3.7497872e+2, 1.550323e+2, -1528515.3, -1463577.9, -10642.198, -0.019219136, 0.098435946, -1461878.4, -41187.734, 0.00000011962439, 9.999222, 10.000077 
3.7498552e+2, 1.650324e+2, -1394823.5, -1323467.9, -7951.575, 0.030100817, 0.09026738, -1322592.5, 96.76795, 0.0, 9.99936, 10.000299 
3.7499171e+2, 1.7503226e+2, -1249930.9, -1203740.0, 10533.917, 0.019063339, 0.043385606, -1201451.1, 23237.234, 0.0, 9.999686, 10.000291 
3.749978e+2, 1.8503205e+2, -1158754.6, -1190285.1, 20366.11, -0.0033611907, 0.03087879, -1148764.9, -22075.658, 0.0, 9.999988, 9.999567 
3.7500396e+2, 1.9503176e+2, -1019577.3, -1073582.4, 19939.373, -0.017600063, 0.043775998, -1013013.3, 15678.866, 0.0, 10.000275, 9.9995575 
3.750101e+2, 2.0503125e+2, -907525.3, -983892.7, 7888.4277, -0.022812774, 0.043700278, -906719.0, 23978.03, 0.0, 10.000436, 9.999423 
3.7501618e+2, 2.150305e+2, -805428.4, -884593.7, 2631.9583, -0.024943955, 0.024008283, -805340.94, 27362.74, 0.0, 10.000467, 9.999416 
3.7502238e+2, 2.2502968e+2, -683864.25, -779775.6, 3958.301, -0.012330102, 0.001396608, -683701.1, 51009.61, 0.0, 10.000649, 9.999375 
3.7502873e+2, 2.3502874e+2, -538133.25, -659638.44, 13729.875, 0.01792605, -0.03185365, -536601.1, 100117.07, 0.0, 10.000981, 9.999368 
3.7503487e+2, 2.4502791e+2, -442102.5, -623381.4, 9966.568, 0.03034848, -0.024482287, -441556.2, 97169.76, 0.0, 10.00123, 9.998823 
3.750408e+2, 2.5502717e+2, -319557.72, -514336.8, 670.3957, 0.023654388, 0.016546609, -319555.4, 121178.55, 0.0, 10.001401, 9.9988165 
3.750469e+2, 2.6502603e+2, -210272.39, -414808.78, 5646.895, 0.025242254, 0.025105918, -210116.61, 132628.3, 0.0, 10.001496, 9.998782 
3.750532e+2, 2.7502453e+2, -107850.83, -314485.75, 16060.721, 0.036317427, -0.007729274, -106609.96, 138148.94, 0.0, 10.001526, 9.998783 
3.7505957e+2, 2.8502288e+2, -13613.32, -274565.97, 20214.043, 0.053558145, -0.025269398, -12056.775, 134717.55, 0.0, 10.001743, 9.99828 
3.75066e+2, 2.9502118e+2, 136198.63, -155809.9, 23206.953, 0.07270808, -0.027042152, 138031.45, 186821.94, 0.0, 10.002117, 9.998242 
3.750722e+2, 3.050196e+2, 226461.34, -82636.51, 24341.537, 0.047916893, -0.007795698, 228366.5, 228366.5, 0.0, 10.002382, 9.998285 
3.7507915e+2, 3.1501758e+2, 263317.38, -51244.234, -20623.13, 0.10792491, -0.043322854, 264663.7, 264663.7, 0.0, 10.002576, 9.998407 
3.8496062e+2, 1.2502415e+2, -1796667.5, -1681264.3, 94316.41, -0.035413332, 0.10237897, -1628398.9, 86372.28, 0.00004363311, 9.999127, 10.000648 
3.8496637e+2, 1.3502423e+2, -1711787.3, -1564258.3, -76612.48, 0.044538632, 0.020206835, -1531671.1, 85096.85, 0.000017489165, 9.99892, 10.000883 
3.8497075e+2, 1.4502521e+2, -1642854.4, -1556879.1, -16342.885, -0.09552045, 0.06315818, -1553877.4, -35119.535, 0.0000034194288, 9.999054, 10.000191 
3.8497818e+2, 1.5502551e+2, -1489611.0, -1435911.9, -745.007, -0.0061602574, 0.07566083, -1435901.5, -15145.701, 0.00000006772674, 9.999451, 10.000157 
3.849852e+2, 1.6502565e+2, -1355501.8, -1302778.6, 171.69518, 0.050382342, 0.06510139, -1302778.0, 19976.084, 0.0, 9.999621, 10.000317 
3.849913e+2, 1.7502564e+2, -1261169.1, -1206966.0, -18352.648, 0.013891195, 0.029413512, -1201336.6, 23415.686, 0.0, 9.9995985, 10.000313 
3.8499752e+2, 1.8502556e+2, -1192059.0, -1188589.4, -16577.502, -0.012797838, 0.020691033, -1173656.3, -46904.33, 0.0, 9.999682, 9.999726 
3.8500413e+2, 1.9502538e+2, -1068140.3, -1078918.9, -5212.3887, -0.009981243, 0.029590216, -1066032.0, -37278.816, 0.0, 9.999865, 9.999719 
3.8501048e+2, 2.0502496e+2, -958780.0, -1012120.4, -8430.692, -0.012232147, 0.03142709, -957479.25, -26721.83, 0.0, 10.0001, 9.999391 
3.8501656e+2, 2.1502428e+2, -818022.94, -894004.1, -5856.3525, -0.025697839, 0.0202795, -817574.2, 15190.161, 0.0, 10.000396, 9.999386 
3.8502294e+2, 2.250235e+2, -680077.75, -767025.94, -1517.3622, -0.016418355, 0.0005096163, -680051.3, 54719.586, 0.0, 10.000628, 9.999474 
3.850296e+2, 2.3502263e+2, -557726.25, -658119.44, -3280.696, 0.01754925, -0.036355767, -557619.1, 79157.89, 0.0, 10.000799, 9.999466 
3.8503605e+2, 2.4502179e+2, -468688.2, -630457.44, -728.9829, 0.03355719, -0.035831597, -468684.9, 70099.55, 0.0, 10.001022, 9.998876 
3.8504225e+2, 2.55021e+2, -330247.6, -513543.16, 13393.46, 0.030336745, -0.0043042093, -329274.13, 111518.79, 0.0, 10.001303, 9.99887 
3.850485e+2, 2.6501992e+2, -196461.19, -409108.34, 19383.844, 0.03162524, 0.004535176, -194708.7, 148094.94, 0.0, 10.0015955, 9.998773 
3.8505495e+2, 2.7501848e+2, -55191.785, -289939.25, 10333.208, 0.038510047, -0.018175857, -54737.813, 190078.9, 0.0, 10.001891, 9.998776 
3.8506147e+2, 2.850168e+2, 16826.55, -264057.9, 6253.6436, 0.055647813, -0.037258904, 16965.713, 163798.39, 0.0, 10.001969, 9.998244 
3.8506806e+2, 2.9501492e+2, 95243.65, -180642.73, 10736.328, 0.07982485, -0.05340841, 95660.83, 144511.78, 0.0, 10.001856, 9.9981985 
3.8507465e+2, 3.0501378e+2, 196516.72, -110378.45, 22600.979, 0.061812688, 0.015721412, 198172.2, 198172.2, 0.0, 10.002233, 9.998166 
3.8508198e+2, 3.150115e+2, 335745.53, -15015.233, -37917.33, 0.105680056, -0.03183677, 339797.6, 339797.6, 0.000000000002787424, 10.003066, 9.998421 
3.9495957e+2, 1.250175e+2, -1829672.9, -1749003.3, 92458.95, -0.05734964, 0.086057805, -1688464.1, 26369.773, 0.0000362571, 9.9991255, 10.000183 
3.9496547e+2, 1.3501728e+2, -1748175.1, -1640035.6, -83394.45, 0.061013583, 0.025288291, -1594716.4, 22120.309, 0.000013744367, 9.99892, 10.000363 
3.9496985e+2, 1.450182e+2, -1607623.4, -1482571.4, -815.80597, -0.09317817, 0.065336764, -1482566.0, 36260.426, 0.0000023661473, 9.999049, 10.000704 
3.9497772e+2, 1.550184e+2, -1453230.5, -1360681.3, 14624.204, 0.0014983765, 0.013197747, -1358425.4, 62396.848, 0.000000028035489, 9.999452, 10.000673 
3.9498484e+2, 1.6501851e+2, -1388154.4, -1370720.1, -1542.5458, 0.050009422, -0.0002532006, -1370584.8, -47764.195, 0.0, 9.999621, 9.99985 
3.9499065e+2, 1.7501864e+2, -1293692.9, -1274028.1, -18848.998, -0.009707685, 0.023999415, -1262601.1, -37780.52, 0.0, 9.999597, 9.999854 
3.9499703e+2, 1.8501863e+2, -1169698.0, -1141627.8, -9776.253, -0.030400595, 0.029222462, -1138558.5, -11738.156, 0.0, 9.99968, 10.00005 
3.9500418e+2, 1.9501849e+2, -1045685.75, -1031739.3, 2064.8188, 0.0099440785, 0.0062024873, -1031440.06, -2620.0088, 0.0, 9.999862, 10.000044 
3.9501095e+2, 2.0501822e+2, -953167.6, -999922.3, 2381.213, 0.023994967, 0.004188319, -953046.6, -22224.43, 0.0, 10.000098, 9.9994755 
3.9501727e+2, 2.1501784e+2, -812551.75, -881926.0, 5801.6943, 0.0045164484, 0.016827669, -812069.9, 20756.89, 0.0, 10.000393, 9.999471 
3.950237e+2, 2.2501734e+2, -683591.6, -773517.56, 4709.169, -0.0035877943, 0.02201277, -683345.7, 51485.51, 0.0, 10.000625, 9.999431 
3.9503023e+2, 2.3501669e+2, -560862.0, -664321.94, 3516.685, 0.0023490703, 0.012090958, -560742.6, 76092.98, 0.0, 10.000797, 9.999424 
3.9503688e+2, 2.4501571e+2, -443204.53, -577248.1, 9355.05, 0.013675875, -0.01884003, -442554.78, 96288.766, 0.0, 10.00102, 9.999242 
3.9504352e+2, 2.550144e+2, -305176.06, -460110.8, 24073.834, 0.029195217, -0.07684305, -301521.66, 139333.2, 0.0, 10.001297, 9.99924 
3.9505014e+2, 2.6501334e+2, -214957.36, -445874.88, 30093.727, 0.0335871, -0.07058701, -211099.9, 131765.08, 0.0, 10.001589, 9.998524 
3.9505672e+2, 2.7501252e+2, -73105.06, -327036.44, 21577.26, 0.028621437, -0.009508195, -71284.63, 173589.55, 0.0, 10.001891, 9.998522 
3.9506334e+2, 2.850108e+2, 16913.867, -264208.2, 1119.8673, 0.048335236, -0.018546157, 16918.328, 163809.44, 0.0, 10.00197, 9.998242 
3.9507002e+2, 2.9500827e+2, 94236.72, -181274.67, 6912.796, 0.087986134, -0.09763425, 94410.055, 143325.27, 0.0, 10.00185, 9.998197 
3.9507705e+2, 3.050074e+2, 175820.38, -151514.45, 53708.297, 0.078635976, 0.012248178, 184407.44, 184407.44, 0.0, 10.002226, 9.997887 
3.9508495e+2, 3.150052e+2, 332476.1, -20081.979, -6666.9233, 0.09703874, 0.0010394467, 332602.13, 332602.13, 0.000000001718879, 10.00306, 9.998387 
4.0495843e+2, 1.2501052e+2, -1844048.1, -1767323.3, 77643.82, -0.079792656, 0.06377051, -1719081.8, -4181.5117, 0.000028702449, 9.999077, 10.000081 
4.0496477e+2, 1.3501017e+2, -1715951.1, -1642751.0, -77239.016, 0.085457966, 0.0075382055, -1593879.3, 23025.98, 0.000010028613, 9.999219, 10.000202 
4.0496907e+2, 1.4501122e+2, -1568029.0, -1456054.9, 11209.559, -0.08827081, 0.06267983, -1454943.8, 63950.566, 0.0000013962007, 9.999288, 10.0007715 
4.0497696e+2, 1.5501136e+2, -1480346.0, -1365737.3, -9643.665, -0.008116023, -0.0017281877, -1364931.5, 55958.555, 0.000000006286357, 9.99923, 10.000746 
4.0498424e+2, 1.6501151e+2, -1431306.5, -1395265.6, -27438.018, 0.040449537, -0.012927889, -1380459.5, -57571.516, 0.0, 9.999342, 9.999817 
4.0499026e+2, 1.7501175e+2, -1293300.8, -1277713.3, -12968.419, -0.008904812, 0.0270486, -1270376.8, -45489.273, 0.0, 9.999616, 9.999819 
4.0499678e+2, 1.8501173e+2, -1155377.5, -1131052.6, 1653.8878, -0.027752254, 0.03119903, -1130940.8, -4053.1396, 0.0, 9.9997635, 10.000082 
4.0500396e+2, 1.9501144e+2, -1051807.8, -1030754.8, -9260.424, 0.0072286897, -0.009242401, -1027261.25, 1627.1754, 0.0, 9.999804, 10.000078 
4.05011e+2, 2.0501125e+2, -957046.94, -987221.1, -9306.917, 0.024353525, -0.012701355, -954407.25, -23517.574, 0.0, 10.00001, 9.999605 
4.0501776e+2, 2.1501113e+2, -805342.2, -863652.5, -3111.023, 0.014620019, 0.013620372, -805176.7, 27714.629, 0.0, 10.00038, 9.999602 
4.0502444e+2, 2.2501072e+2, -683529.06, -774517.06, -7144.497, 0.007842727, 0.021255601, -682971.44, 51923.51, 0.0, 10.00063, 9.999421 
4.0503106e+2, 2.3501e+2, -566357.3, -667558.2, -6375.534, 0.007443303, 0.0029841794, -565957.2, 70943.38, 0.0, 10.000763, 9.999418 
4.050379e+2, 2.4500902e+2, -445384.16, -571528.8, -4753.6025, 0.017319532, -0.028616913, -445205.28, 93703.19, 0.0, 10.000977, 9.999302 
4.0504485e+2, 2.5500783e+2, -304194.78, -452540.88, -13410.66, 0.03611173, -0.07987898, -302992.2, 137926.23, 0.0, 10.001272, 9.999304 
4.0505174e+2, 2.6500684e+2, -237493.19, -453137.53, -12268.122, 0.041845847, -0.07220595, -236797.5, 106130.375, 0.0, 10.001417, 9.998557 
4.0505844e+2, 2.7500603e+2, -138205.72, -355143.0, -743.4267, 0.036404368, -0.0144930845, -138203.17, 106733.86, 0.0, 10.001429, 9.998551 
4.0506524e+2, 2.850042e+2, -5154.0654, -276217.8, -4310.433, 0.0489771, -0.031177584, -5085.5386, 141868.95, 0.0, 10.001824, 9.998231 
4.050721e+2, 2.9500157e+2, 199320.33, -131691.73, 354.69897, 0.075678855, -0.12479247, 199320.7, 248300.56, 0.0, 10.002576, 9.998188 
4.0507954e+2, 3.0500075e+2, 244712.78, -137614.95, 51018.984, 0.07653815, 0.0034429678, 251403.81, 251403.81, 0.0, 10.002782, 9.997714 
4.0508774e+2, 3.1499833e+2, 258784.8, -39341.426, -5581.85, 0.09994615, -0.017088247, 258889.28, 258889.28, 0.00000001196501, 10.002483, 9.998533 
4.1495723e+2, 1.2500316e+2, -1825995.9, -1728471.4, 88202.57, -0.109399945, 0.0325505, -1676449.5, 38521.195, 0.000021697306, 9.999071, 10.000349 
4.149643e+2, 1.3500293e+2, -1700713.3, -1612594.3, -70467.3, 0.11516767, -0.034782477, -1573546.1, 43427.496, 0.000006740833, 9.999224, 10.000407 
4.149684e+2, 1.4500421e+2, -1595534.0, -1513002.4, 9349.593, -0.08438999, 0.054353036, -1511956.5, 7004.726, 0.0000006540361, 9.999287, 10.000381 
4.149759e+2, 1.5500438e+2, -1507282.8, -1421195.6, -11503.346, -0.035837866, 0.031658567, -1419685.0, 1274.2374, 0.0000000002364484, 9.9992285, 10.000366 
4.1498336e+2, 1.6500463e+2, -1404033.5, -1337775.3, -17610.217, 0.020081913, 0.028031932, -1333385.6, -10429.068, 0.0, 9.999338, 10.000214 
4.1499013e+2, 1.7500497e+2, -1265861.6, -1220164.8, -2301.59, 0.013573069, 0.038878284, -1220049.1, 4903.9067, 0.0, 9.999613, 10.000216 
4.1499677e+2, 1.8500486e+2, -1173761.3, -1168915.9, 2822.2087, -0.007890747, 0.02660572, -1167619.1, -40665.49, 0.0, 9.999762, 9.999823 
4.150035e+2, 1.9500428e+2, -1070372.6, -1068600.5, -7268.4224, -0.019207563, -0.016205188, -1062164.3, -33206.016, 0.0, 9.999801, 9.99982 
4.1501066e+2, 2.0500407e+2, -945117.94, -961765.94, 4424.0537, -0.012404682, -0.019094737, -944015.3, -13055.503, 0.0, 10.000006, 9.999782 
4.1501802e+2, 2.1500415e+2, -793389.44, -837908.3, 11232.645, 0.0030034217, 0.010307356, -790715.9, 42242.227, 0.0, 10.000376, 9.999781 
4.1502514e+2, 2.2500364e+2, -682045.0, -770912.0, -2467.671, 0.016056323, -0.0019211721, -681976.5, 52985.69, 0.0, 10.0006275, 9.999447 
4.150321e+2, 2.3500252e+2, -564836.2, -663838.0, -1095.6215, 0.030294737, -0.062539056, -564824.06, 72147.95, 0.0, 10.000761, 9.999445 
4.1503912e+2, 2.4500173e+2, -462143.9, -605716.3, 6010.9395, 0.041850124, -0.064626224, -461892.7, 77086.53, 0.0, 10.000974, 9.999068 
4.1504627e+2, 2.5500134e+2, -320784.25, -486768.25, -2119.5642, 0.04947732, -0.015303549, -320757.2, 120226.5, 0.0, 10.001271, 9.999069 
4.1505325e+2, 2.6500043e+2, -216455.63, -408766.7, -12363.566, 0.05487502, -0.0021237705, -215664.05, 127328.28, 0.0, 10.001415, 9.998862 
4.1506013e+2, 2.74999e+2, -117636.03, -311008.9, 290.43375, 0.058649275, -0.032776345, -117635.59, 127369.67, 0.0, 10.001423, 9.9988575 
4.1506714e+2, 2.8499714e+2, -7352.755, -279112.16, 23467.1, 0.054572865, -0.07438005, -5341.202, 141681.56, 0.0, 10.001818, 9.998214 
4.1507432e+2, 2.9499474e+2, 197872.66, -133520.31, 28195.21, 0.040812824, -0.13460067, 200254.4, 249299.23, 0.0, 10.002571, 9.998178 
4.1508207e+2, 3.049939e+2, 238976.61, -148637.02, 38765.633, 0.05342674, -0.01005385, 242815.58, 242815.58, 0.0, 10.002779, 9.99764 
4.150903e+2, 3.1499082e+2, 279593.3, 5114.4307, -17785.51, 0.106774114, -0.08681362, 280740.97, 280740.97, 0.000000036873733, 10.002479, 9.998839 
4.249564e+2, 1.2499566e+2, -1823837.6, -1707501.3, 78234.664, -0.093614064, 0.012008719, -1668180.0, 46863.4, 0.000015823704, 9.999003, 10.000525 
4.2496344e+2, 1.3499558e+2, -1713558.3, -1608636.8, -94939.97, 0.11255006, -0.049417004, -1552627.6, 64416.773, 0.0000041887733, 9.999093, 10.000498 
4.249673e+2, 1.4499705e+2, -1614927.9, -1533567.6, -12874.76, -0.1209423, 0.057521664, -1531578.9, -12548.493, 0.00000021832761, 9.999204, 10.00028 
4.249751e+2, 1.5499707e+2, -1515241.3, -1436181.5, -13912.914, -0.03991914, 0.033098172, -1433804.5, -12773.942, 0.0, 9.999223, 10.000266 
4.2498276e+2, 1.649973e+2, -1401987.5, -1319439.5, -9052.087, 0.029854503, 0.02412974, -1318458.6, 4569.5923, 0.0, 9.999279, 10.000367 
4.249896e+2, 1.7499772e+2, -1284754.9, -1211976.8, -13359.578, 0.014474253, 0.026280431, -1209601.9, 15421.1, 0.0, 9.999411, 10.000369 
4.2499644e+2, 1.8499765e+2, -1197025.1, -1193457.8, -11883.925, -0.010500128, 0.016263997, -1183224.4, -56201.496, 0.0, 9.9996605, 9.999702 
4.250034e+2, 1.9499709e+2, -1046431.9, -1070538.6, -11912.255, -0.020231895, -0.013176096, -1041538.7, -12510.464, 0.0, 10.000024, 9.999699 
4.2501074e+2, 2.0499672e+2, -919264.3, -946912.06, -1888.2786, -0.010748963, -0.023068903, -919135.94, 11894.946, 0.0, 10.0001745, 9.999803 
4.250183e+2, 2.1499656e+2, -829869.44, -853019.7, -7379.2183, 0.008821049, -0.02163492, -827717.4, 5313.5566, 0.0, 10.000114, 9.999803 
4.250257e+2, 2.2499603e+2, -719867.25, -788930.6, -19777.67, 0.021469764, -0.036271017, -714604.56, 20430.516, 0.0, 10.000368, 9.999448 
4.250329e+2, 2.3499516e+2, -539064.06, -651080.0, -21092.086, 0.030526541, -0.0722132, -535224.1, 101819.02, 0.0, 10.0009365, 9.999447 
4.250402e+2, 2.449945e+2, -435829.94, -596452.8, -16281.652, 0.04215507, -0.060332205, -434196.16, 104853.516, 0.0, 10.001169, 9.999038 
4.250475e+2, 2.549941e+2, -352273.78, -505595.3, -10124.774, 0.055256173, -0.009107645, -351608.06, 89446.62, 0.0, 10.00107, 9.999036 
4.250547e+2, 2.6499316e+2, -232201.11, -415194.7, -16229.127, 0.06327037, 0.0020991839, -230772.94, 112290.82, 0.0, 10.001301, 9.998874 
4.2506182e+2, 2.749917e+2, -54224.09, -278580.13, -25728.707, 0.067179665, -0.033575926, -51311.387, 193765.5, 0.0, 10.00185, 9.998874 
4.250691e+2, 2.8498986e+2, 23801.78, -256417.38, -9876.161, 0.05987045, -0.074537, 24149.428, 171243.1, 0.0, 10.001998, 9.998283 
4.2507648e+2, 2.9498762e+2, 83716.12, -180783.17, -762.56116, 0.04082263, -0.13173026, 83718.32, 132832.83, 0.0, 10.001753, 9.998247 
4.2508456e+2, 3.0498657e+2, 129747.76, -219382.88, 13772.444, 0.057435714, -0.019168666, 130290.2, 130290.2, 0.0, 10.002106, 9.997478 
4.2509294e+2, 3.1498334e+2, 376956.8, 74559.3, -49959.49, 0.091849275, -0.09643281, 384996.94, 384996.94, 0.00000007454206, 10.003051, 9.9990425 
4.3495598e+2, 1.2498801e+2, -1819725.9, -1698511.9, 84658.555, -0.037352286, 0.0039184596, -1655002.3, 60116.0, 0.0000113764345, 9.9990015, 10.000588 
4.3496215e+2, 1.3498811e+2, -1715440.6, -1613919.9, -89548.336, 0.07599475, -0.03508288, -1561745.8, 55371.61, 0.0000025044064, 9.999098, 10.000461 
4.349657e+2, 1.4498967e+2, -1601044.6, -1504784.3, -11491.107, -0.2010835, 0.07306668, -1503431.5, 15670.561, 0.000000047491298, 9.999204, 10.000478 
4.349745e+2, 1.5498942e+2, -1501933.0, -1407963.8, -12774.482, -0.023745295, 0.0009487829, -1406258.0, 14846.285, 0.0, 9.99922, 10.000461 
4.3498242e+2, 1.6498952e+2, -1409843.8, -1334797.1, -4362.736, 0.066312306, -0.026029129, -1334544.4, -11441.501, 0.0, 9.999275, 10.000263 
4.3498883e+2, 1.7498995e+2, -1291879.5, -1226404.6, -7734.713, -0.0074271727, -0.010620853, -1225503.4, -406.1853, 0.0, 9.999409, 10.000271 
4.3499583e+2, 1.8499008e+2, -1196360.3, -1191147.6, 1503.5477, -0.037690505, 0.0010362745, -1190745.0, -63649.496, 0.0, 9.999657, 9.999721 
4.3500367e+2, 1.949898e+2, -1045658.44, -1068075.1, 2073.4758, 0.0018974545, 0.000202844, -1045468.25, -16370.028, 0.0, 10.00002, 9.999717 
4.350113e+2, 2.0498924e+2, -929097.3, -966535.5, -4219.148, 0.02732781, -0.02480289, -928627.7, 2475.2715, 0.0, 10.000171, 9.999669 
4.3501866e+2, 2.1498837e+2, -839507.0, -872508.1, -9096.532, 0.029884955, -0.081661254, -837165.7, -4055.972, 0.0, 10.000113, 9.99967 
4.3502608e+2, 2.2498791e+2, -721969.6, -792733.94, 1354.7645, 0.022029346, -0.08111606, -721943.7, 13169.843, 0.0, 10.000365, 9.999423 
4.3503362e+2, 2.349879e+2, -541134.25, -654699.4, 617.806, 0.0070883622, -0.027695904, -541130.94, 95983.26, 0.0, 10.000934, 9.999424 
4.350411e+2, 2.4498732e+2, -424787.75, -572578.4, -20308.303, 0.017272918, -0.017075496, -422047.9, 117072.11, 0.0, 10.001165, 9.999204 
4.3504852e+2, 2.5498614e+2, -340906.8, -481570.56, -13508.433, 0.050659582, -0.05957014, -339621.3, 101510.1, 0.0, 10.001068, 9.999203 
4.35056e+2, 2.6498505e+2, -251688.14, -455073.38, 3983.403, 0.064578034, -0.05792287, -251610.16, 91531.95, 0.0, 10.001299, 9.998601 
4.350636e+2, 2.7498406e+2, -73512.45, -317939.13, -5155.02, 0.060296044, -0.017185507, -73403.78, 171748.11, 0.0, 10.001847, 9.998606 
4.350711e+2, 2.8498244e+2, 33737.008, -234321.47, -19602.139, 0.06281193, -0.032827254, 35162.855, 182330.13, 0.0, 10.001992, 9.998438 
4.3507853e+2, 2.9498008e+2, 94597.49, -158337.81, -9517.512, 0.07080355, -0.116831996, 94955.12, 144143.98, 0.0, 10.001754, 9.998401 
4.350869e+2, 3.0497876e+2, 112303.98, -255093.25, 48394.17, 0.084330454, -0.02478451, 118571.61, 118571.61, 0.0, 10.002105, 9.997233 
4.3509558e+2, 3.1497577e+2, 382366.9, 88864.9, -12216.056, 0.049966257, -0.054824304, 382874.47, 382874.47, 0.0000001100893, 10.003037, 9.999147 
4.4495487e+2, 1.2498064e+2, -1781011.0, -1668369.9, 85411.23, -0.06019416, 0.017323388, -1622381.6, 92808.9, 0.000008277144, 9.999221, 10.000689 
4.4496125e+2, 1.3498053e+2, -1761470.6, -1635910.1, -87534.94, 0.09068533, -0.043562625, -1590969.8, 26221.393, 0.0000015575915, 9.998779, 10.0004635 
4.4496465e+2, 1.4498207e+2, -1655442.4, -1528505.6, 1592.2073, -0.20477407, 0.06196062, -1528485.8, -9310.001, 0.000000013935479, 9.99882, 10.0005 
4.449738e+2, 1.5498182e+2, -1492976.5, -1400921.6, -16028.12, -0.015517922, -0.01312643, -1398210.6, 22967.303, 0.0, 9.999271, 10.000484 
4.4498187e+2, 1.6498186e+2, -1375139.5, -1327646.3, -16795.545, 0.07302544, -0.042375125, -1322306.9, 870.06964, 0.0, 9.999556, 10.000177 
4.4498825e+2, 1.749822e+2, -1258746.5, -1219857.8, -18898.467, -0.018395176, -0.028430808, -1212186.9, 12985.171, 0.0, 9.999678, 10.000185 
4.4499543e+2, 1.8498227e+2, -1175657.6, -1180499.4, -4519.9517, -0.050473914, -0.017788695, -1172951.0, -45780.227, 0.0, 9.999797, 9.999725 
4.4500363e+2, 1.9498199e+2, -1060687.0, -1074631.9, -5659.048, 0.0036769654, -0.019591983, -1058679.5, -29505.896, 0.0, 9.999914, 9.9997225 
4.4501153e+2, 2.0498145e+2, -938961.3, -985060.8, -14622.877, 0.03583759, -0.03794622, -934714.2, -3535.6848, 0.0, 10.000163, 9.999545 
4.4501904e+2, 2.1498059e+2, -785931.7, -860503.7, -19319.133, 0.036687437, -0.079779886, -781223.94, 51961.625, 0.0, 10.000541, 9.999546 
4.4502664e+2, 2.249801e+2, -682165.9, -774617.7, -6212.1484, 0.027668566, -0.076144606, -681750.4, 53439.555, 0.0, 10.000645, 9.999413 
4.4503435e+2, 2.3497997e+2, -609528.5, -689024.94, -6654.2944, 0.011638302, -0.033659756, -608975.4, 28216.18, 0.0, 10.00047, 9.999412 
4.45042e+2, 2.4497934e+2, -493505.88, -603422.1, -29776.475, 0.017641496, -0.02798293, -485957.75, 53239.945, 0.0, 10.000683, 9.999225 
4.450496e+2, 2.549782e+2, -307613.66, -462412.72, -34213.84, 0.04416503, -0.06787195, -300388.88, 140819.63, 0.0, 10.001285, 9.999229 
4.450574e+2, 2.6497707e+2, -215168.52, -443250.88, -12607.149, 0.059201006, -0.068692565, -214473.77, 128745.78, 0.0, 10.001575, 9.9985485 
4.4506535e+2, 2.74976e+2, -119497.96, -346493.16, -6371.9253, 0.06435222, -0.03463825, -119319.234, 125911.39, 0.0, 10.001558, 9.9985485 
4.450731e+2, 2.849744e+2, 5812.217, -259345.45, -25079.145, 0.0680326, -0.035849266, 8163.4043, 155409.28, 0.0, 10.001849, 9.998335 
4.4508064e+2, 2.9497227e+2, 185311.36, -125194.06, -35094.563, 0.07064351, -0.086270526, 189228.48, 238494.56, 0.0, 10.002423, 9.998307 
4.4508928e+2, 3.049706e+2, 168678.8, -237804.61, 25788.184, 0.08890638, -0.023796326, 170308.33, 170308.33, 0.00000000000009396187, 10.002533, 9.997147 
4.45098e+2, 3.1496766e+2, 269247.75, 52101.273, -23774.146, 0.03466235, -0.038882386, 271820.2, 271820.2, 0.00000013361628, 10.002184, 9.999306 
4.5495299e+2, 1.2497352e+2, -1769412.3, -1645388.6, 69570.055, -0.17182586, 0.050227314, -1614204.6, 101055.99, 0.0000061456926, 9.999226, 10.000843 
4.549607e+2, 1.349728e+2, -1757855.4, -1627844.4, -102179.93, 0.15556078, -0.07703656, -1571744.8, 45521.23, 0.0000010596042, 9.9987755, 10.000522 
4.549642e+2, 1.4497423e+2, -1668354.8, -1553868.6, 20036.924, -0.1335149, 0.023028297, -1550463.1, -31211.744, 0.000000007555667, 9.998814, 10.000329 
4.5497304e+2, 1.5497427e+2, -1504547.0, -1425170.9, 2015.2562, -0.018283725, -0.007329038, -1425119.8, -3868.2085, 0.0, 9.999272, 10.000318 
4.5498118e+2, 1.6497432e+2, -1378815.4, -1335815.0, -12617.672, 0.04642322, -0.022616802, -1332386.0, -9135.587, 0.0, 9.9995575, 10.00012 
4.549879e+2, 1.7497443e+2, -1263376.5, -1228899.8, -13673.507, -0.019588904, -0.027424611, -1224135.3, 1112.5223, 0.0, 9.999676, 10.000124 
4.5499521e+2, 1.849742e+2, -1177385.8, -1182557.6, 63.435905, -0.05057444, -0.041348238, -1177385.0, -50136.01, 0.0, 9.99979, 9.999714 
4.5500335e+2, 1.9497363e+2, -1061678.0, -1076059.9, -757.80194, -0.017069476, -0.07280683, -1061638.1, -32383.842, 0.0, 9.999912, 9.999714 
4.550115e+2, 2.049733e+2, -947658.3, -1002116.0, -754.80115, 0.012407811, -0.062489662, -947647.9, -16390.357, 0.0, 10.000158, 9.999431 
4.550195e+2, 2.1497323e+2, -793966.25, -876966.0, -4613.584, 0.028088424, -0.016361216, -793710.6, 39547.824, 0.0, 10.00054, 9.999433 
4.5502737e+2, 2.2497256e+2, -682647.8, -775365.2, -12967.929, 0.037167847, -0.02216153, -680868.2, 54396.07, 0.0, 10.000643, 9.999409 
4.5503512e+2, 2.3497134e+2, -609625.56, -689518.5, -13048.08, 0.04229888, -0.08876213, -607548.5, 29726.664, 0.0, 10.000471, 9.999409 
4.5504293e+2, 2.4497056e+2, -502213.47, -621139.1, -7661.2866, 0.041165072, -0.09134299, -501721.97, 37560.582, 0.0, 10.000682, 9.999104 
4.5505083e+2, 2.5497025e+2, -316417.4, -479216.34, -11566.816, 0.03381026, -0.03582403, -315599.7, 125686.45, 0.0, 10.001278, 9.999117 
4.5505884e+2, 2.649692e+2, -204612.36, -420224.03, -13533.09, 0.04598458, -0.031922534, -203766.25, 139530.08, 0.0, 10.00157, 9.99871 
4.55067e+2, 2.749674e+2, -108200.53, -323699.22, -6342.062, 0.0759355, -0.08570748, -108014.05, 137299.14, 0.0, 10.001561, 9.998704 
4.55075e+2, 2.8496575e+2, -19652.932, -311353.1, -4089.4797, 0.07239209, -0.08329594, -19595.61, 127733.945, 0.0, 10.001846, 9.997979 
4.550827e+2, 2.949642e+2, 160361.64, -174642.1, -13915.66, 0.038390707, -0.040310543, 160938.69, 210284.84, 0.0, 10.002413, 9.997972 
4.5509163e+2, 3.04962e+2, 170899.45, -229988.05, 12559.412, 0.06968042, -0.016210236, 171292.55, 171292.55, 0.00000000000087855477, 10.00252, 9.997207 
4.5510024e+2, 3.1495884e+2, 283869.28, 83090.74, -33108.816, 0.03845891, -0.0579708, 289188.1, 289188.1, 0.00000014519496, 10.002182, 9.999518 
4.6495172e+2, 1.2496611e+2, -1883066.3, -1701851.0, 86837.6, -0.18250066, 0.03918706, -1666957.5, 48374.246, 0.000004581255, 9.998458, 10.000823 
4.6495995e+2, 1.3496523e+2, -1700075.9, -1613899.1, -99038.66, 0.1844, -0.092919, -1548981.6, 68357.57, 0.0000007444035, 9.999231, 10.000398 
4.6496338e+2, 1.449666e+2, -1570513.3, -1520921.5, 16857.53, -0.13301545, 0.015183121, -1515733.9, 3591.4238, 0.0000000034677494, 9.999547, 10.000202 
4.6497226e+2, 1.5496662e+2, -1508326.4, -1440791.3, 763.894, -0.026033552, -0.004178931, -1440782.6, -19456.934, 0.0, 9.999307, 10.000194 
4.6498057e+2, 1.6496657e+2, -1408549.4, -1363882.6, -6849.144, 0.03822034, -0.019162577, -1362856.0, -39530.117, 0.0, 9.999413, 9.999998 
4.6498767e+2, 1.7496644e+2, -1241686.0, -1232141.6, -13346.005, -0.021785107, -0.03434409, -1222740.3, 2585.5173, 0.0, 9.999883, 10.000003 
4.6499515e+2, 1.8496613e+2, -1130344.4, -1164521.9, -10450.438, -0.05288916, -0.04861024, -1127402.3, -74.32792, 0.0, 10.000133, 9.999673 
4.6500328e+2, 1.9496562e+2, -1027111.2, -1063963.9, -13347.931, -0.025935829, -0.06921596, -1022784.6, 6547.9014, 0.0, 10.00017, 9.999673 
4.650116e+2, 2.0496531e+2, -932248.1, -997478.06, -3324.3643, 0.0047684154, -0.05485807, -932079.2, -743.6238, 0.0, 10.000277, 9.999405 
4.6502e+2, 2.1496516e+2, -809231.56, -887359.6, -1679.9663, 0.027783878, -0.011913294, -809195.44, 24141.607, 0.0, 10.000448, 9.999406 
4.6502805e+2, 2.249644e+2, -685485.06, -785478.3, -17826.084, 0.041042194, -0.024054255, -682402.2, 52941.766, 0.0, 10.00066, 9.9993305 
4.6503586e+2, 2.3496301e+2, -550523.06, -669124.6, -23634.885, 0.04731918, -0.09914222, -545986.6, 91369.63, 0.0, 10.000913, 9.999335 
4.650438e+2, 2.4496217e+2, -449638.13, -602496.8, -7129.159, 0.043188, -0.100844055, -449306.34, 90057.76, 0.0, 10.001073, 9.9990425 
4.6505198e+2, 2.5496188e+2, -340955.4, -498563.3, -7743.5845, 0.028606312, -0.03613564, -340575.84, 100791.63, 0.0, 10.001142, 9.99905 
4.650602e+2, 2.649608e+2, -237646.33, -438176.44, -20159.15, 0.03968122, -0.034368403, -235639.81, 107738.555, 0.0, 10.001351, 9.9986925 
4.6506864e+2, 2.7495882e+2, -89381.31, -316301.25, -27086.416, 0.07510599, -0.100415245, -86192.93, 159203.8, 0.0, 10.0016985, 9.998689 
4.6507683e+2, 2.8495723e+2, -11683.07, -312443.53, -12988.534, 0.07097807, -0.088315874, -11123.194, 136289.47, 0.0, 10.001923, 9.997934 
4.6508485e+2, 2.9495597e+2, 98521.58, -208373.27, -1392.5759, 0.03153264, -0.014970086, 98527.9, 147955.02, 0.0, 10.002005, 9.997937 
4.650939e+2, 3.0495334e+2, 109851.65, -246418.27, 21536.316, 0.071958445, -0.039331492, 111148.78, 111148.78, 0.00000000000042122027, 10.002043, 9.997324 
4.6510231e+2, 3.1495047e+2, 271680.5, 91710.055, -18253.377, 0.03458262, -0.06115588, 273513.2, 273513.2, 0.00000014428599, 10.002033, 9.999651 
4.7495103e+2, 1.2495839e+2, -1899836.8, -1734378.8, 113419.47, -0.09807835, -0.017573088, -1676722.4, 38681.805, 0.0000033199578, 9.998446, 10.000607 
4.7495908e+2, 1.3495779e+2, -1721937.5, -1661258.5, -67193.46, 0.17148076, -0.087672845, -1617872.5, -461.74796, 0.00000048107097, 9.999238, 10.000071 
4.7496215e+2, 1.4495921e+2, -1573673.6, -1530077.6, 8350.221, -0.2104767, 0.042770278, -1528533.0, -9135.608, 0.000000000765976, 9.9995575, 10.000134 
4.7497144e+2, 1.5495887e+2, -1513837.4, -1451119.5, -7848.1934, -0.039458342, -0.0048056287, -1450152.3, -28751.635, 0.0, 9.999302, 10.000125 
4.749801e+2, 1.6495855e+2, -1423020.1, -1392383.6, 10963.806, 0.047434166, -0.03306773, -1388864.3, -65460.7, 0.0, 9.999406, 9.999805 
4.7498748e+2, 1.7495824e+2, -1254730.1, -1259397.4, 5171.7666, -0.02947247, -0.04892383, -1251389.9, -25983.697, 0.0, 9.999884, 9.999815 
4.7499517e+2, 1.8495806e+2, -1134618.6, -1173502.1, -9342.647, -0.06252419, -0.03826589, -1132490.3, -5082.661, 0.0, 10.0001335, 9.999611 
4.7500348e+2, 1.9495797e+2, -1031483.94, -1073206.6, -11403.432, -0.023324188, -0.008964159, -1028570.6, 837.4723, 0.0, 10.00017, 9.99961 
4.7501197e+2, 2.0495744e+2, -929499.1, -990558.1, 3036.0356, 0.01184278, -0.015483416, -929348.56, 2064.147, 0.0, 10.000272, 9.9994545 
4.7502047e+2, 2.1495642e+2, -805727.06, -879861.7, 4946.618, 0.03370906, -0.06597078, -805398.5, 28022.979, 0.0, 10.000447, 9.999457 
4.750287e+2, 2.2495559e+2, -696302.44, -807168.06, -8904.131, 0.036910158, -0.08125821, -695591.9, 39837.074, 0.0, 10.000656, 9.999184 
4.7503656e+2, 2.3495494e+2, -560536.8, -689501.1, -13854.488, 0.025339654, -0.06669344, -559065.25, 78369.63, 0.0, 10.000911, 9.999196 
4.750447e+2, 2.4495414e+2, -450716.16, -604643.4, -4895.529, 0.02221921, -0.058644693, -450560.63, 88881.99, 0.0, 10.001072, 9.999029 
4.7505307e+2, 2.549531e+2, -341935.72, -501339.28, -4983.94, 0.026272528, -0.06768521, -341780.06, 99672.43, 0.0, 10.001144, 9.999031 
4.7506157e+2, 2.649518e+2, -251609.98, -467065.28, -7573.92, 0.03842431, -0.07428604, -251344.06, 92121.5, 0.0, 10.00135, 9.998494 
4.7507018e+2, 2.7495027e+2, -103572.05, -344098.94, -13950.437, 0.059676524, -0.07962362, -102765.63, 142715.7, 0.0, 10.001692, 9.998501 
4.7507867e+2, 2.849489e+2, 5544.509, -275433.38, -10097.087, 0.062060554, -0.05181815, 5906.8857, 153402.31, 0.0, 10.001917, 9.998192 
4.7508702e+2, 2.949475e+2, 117747.61, -169015.4, 2145.299, 0.04548716, -0.010867974, 117763.66, 167272.81, 0.0, 10.002007, 9.998206 
4.7509617e+2, 3.0494452e+2, 120853.2, -222446.67, 20169.44, 0.09154062, -0.094125606, 122034.125, 122034.125, 0.0, 10.002039, 9.99749 
4.7510418e+2, 3.1494236e+2, 275136.5, 101522.24, -12547.614, 0.01653577, -0.059239358, 276038.7, 276038.7, 0.00000012581201, 10.002023, 9.9997225 
4.849499e+2, 1.2495026e+2, -1816669.0, -1689302.0, 75201.55, -0.08146511, -0.05331625, -1654441.8, 61040.34, 0.0000022837717, 9.999, 10.000648 
4.849582e+2, 1.3494994e+2, -1770431.6, -1691623.0, -80994.86, 0.17592733, -0.09083524, -1640955.9, -23469.16, 0.0000002759338, 9.998935, 10.00001 
4.849612e+2, 1.4495128e+2, -1628720.6, -1565955.4, -4127.995, -0.2423283, 0.041012682, -1565685.1, -46210.97, 0.000000000009128432, 9.999221, 10.000051 
4.8497093e+2, 1.5495063e+2, -1458300.3, -1434090.3, -24494.867, -0.040247303, -0.030172784, -1418872.6, 2607.7292, 0.0, 9.999723, 10.000039 
4.849798e+2, 1.6495025e+2, -1354819.9, -1365440.6, 2074.3542, 0.055275965, -0.056533296, -1354429.1, -30945.182, 0.0, 9.999899, 9.999753 
4.8498723e+2, 1.7495018e+2, -1273719.0, -1274117.4, 6286.807, -0.036164466, -0.04311744, -1267628.3, -42143.727, 0.0, 9.999778, 9.999765 
4.8499516e+2, 1.8494993e+2, -1170557.0, -1207963.6, -2909.5417, -0.069334686, -0.027973546, -1170332.1, -42845.477, 0.0, 9.999959, 9.999459 
4.8500386e+2, 1.9494952e+2, -1003508.0, -1076649.0, -12411.779, -0.017947016, -0.018347269, -1001459.2, 28031.314, 0.0, 10.000434, 9.999459 
4.8501244e+2, 2.049488e+2, -880899.06, -971307.5, -11858.268, 0.017615508, -0.03428901, -879369.56, 52127.25, 0.0, 10.000622, 9.999419 
4.850209e+2, 2.1494775e+2, -797646.4, -879626.1, -16430.527, 0.02851526, -0.08305313, -794475.94, 39029.566, 0.0, 10.000518, 9.999426 
4.850292e+2, 2.2494692e+2, -701772.6, -814836.8, -19120.21, 0.025162924, -0.09312783, -698626.75, 36886.023, 0.0, 10.000641, 9.999138 
4.8503736e+2, 2.3494633e+2, -551344.6, -690586.9, -18116.977, 0.0095094135, -0.07056655, -549026.06, 88492.43, 0.0, 10.000997, 9.999146 
4.850457e+2, 2.4494544e+2, -435427.47, -607314.7, -16634.79, 0.010060955, -0.061601695, -433832.4, 105694.445, 0.0, 10.00122, 9.9989395 
4.8505428e+2, 2.5494426e+2, -324862.53, -502628.34, -22799.174, 0.025581714, -0.077029236, -321985.03, 119553.27, 0.0, 10.001304, 9.998944 
4.8506302e+2, 2.6494288e+2, -237700.16, -471488.25, -14788.205, 0.04306339, -0.08254239, -236768.44, 106784.06, 0.0, 10.001495, 9.998393 
4.8507196e+2, 2.7494133e+2, -96979.34, -352702.03, -14402.645, 0.06367646, -0.07983603, -96170.73, 149398.36, 0.0, 10.001787, 9.998396 
4.8508057e+2, 2.8494e+2, 17881.385, -257323.2, -21706.854, 0.06043882, -0.04565604, 19582.998, 167165.55, 0.0, 10.001949, 9.9983015 
4.8508886e+2, 2.9493877e+2, 122392.8, -153389.45, -22382.273, 0.03341634, 0.0013101143, 124197.516, 173791.63, 0.0, 10.001981, 9.998326 
4.8509818e+2, 3.0493554e+2, 124940.22, -207130.75, -13374.276, 0.092563555, -0.11845067, 125478.0, 125478.0, 0.0, 10.002009, 9.997609 
4.8510632e+2, 3.149339e+2, 265208.6, 86010.8, -45718.87, 0.031383734, -0.045169752, 276198.84, 276198.84, 0.00000009052117, 10.002002, 9.999626 
4.9494827e+2, 1.2494171e+2, -1795327.0, -1645347.3, 65326.33, -0.1460399, -0.066236384, -1620883.5, 94682.53, 0.0000015131136, 9.9990015, 10.000948 
4.9495736e+2, 1.3494156e+2, -1756723.4, -1661745.5, -81507.41, 0.19741091, -0.10416157, -1614901.8, 2665.7998, 0.00000014199817, 9.998927, 10.000218 
4.9496058e+2, 1.4494278e+2, -1637039.9, -1581835.9, 16206.526, -0.22951657, 0.008865768, -1577429.8, -57873.957, 0.0, 9.999213, 9.999946 
4.949707e+2, 1.5494189e+2, -1465091.6, -1449108.1, -4938.412, -0.034330785, -0.078360416, -1447705.4, -26140.57, 0.0, 9.999728, 9.999934 
4.949797e+2, 1.6494168e+2, -1347212.8, -1351537.8, -3513.1755, 0.05500724, -0.085797824, -1345249.9, -21683.174, 0.0, 9.999907, 9.999845 
4.9498698e+2, 1.7494224e+2, -1267421.0, -1261095.8, 2229.2947, -0.042028066, -0.016983723, -1260389.0, -34828.28, 0.0, 9.999777, 9.999855 
4.949951e+2, 1.8494177e+2, -1188506.4, -1243702.4, 14975.447, -0.07420644, -0.017648175, -1184705.1, -57140.137, 0.0, 9.999952, 9.999217 
4.9500433e+2, 1.9494021e+2, -1020377.0, -1111690.4, 5927.211, -0.012458731, -0.09775701, -1019993.9, 9585.93, 0.0, 10.000433, 9.999219 
4.950131e+2, 2.0493934e+2, -889268.2, -988055.75, -16124.542, 0.018760087, -0.11151393, -886702.9, 44885.12, 0.0, 10.000619, 9.999306 
4.9502125e+2, 2.1493913e+2, -805402.7, -895774.5, -19733.896, 0.011023892, -0.06477224, -801281.5, 32307.865, 0.0, 10.000518, 9.999316 
4.9502963e+2, 2.2493841e+2, -699486.75, -809607.8, -6098.31, 0.0034603004, -0.06147024, -699150.06, 36445.52, 0.0, 10.000639, 9.999175 
4.9503824e+2, 2.3493713e+2, -548877.3, -685677.5, -4588.162, -0.00096372, -0.109033205, -548723.6, 88883.25, 0.0, 10.000998, 9.999181 
4.950469e+2, 2.4493611e+2, -447298.75, -631369.75, -13876.255, 0.005756582, -0.10761396, -446258.56, 93358.08, 0.0, 10.001217, 9.9987755 
4.950556e+2, 2.5493535e+2, -336087.97, -525370.5, -19371.184, 0.024308432, -0.06511203, -334125.88, 107499.14, 0.0, 10.001301, 9.99879 
4.9506462e+2, 2.64934e+2, -238483.75, -472874.78, -4132.069, 0.050920784, -0.06101703, -238410.92, 105228.51, 0.0, 10.001494, 9.998384 
4.9507394e+2, 2.7493197e+2, -97945.77, -354663.53, -2935.42, 0.08414171, -0.10103139, -97912.21, 147747.77, 0.0, 10.001787, 9.998383 
4.9508256e+2, 2.8493062e+2, 14061.113, -264626.3, -20855.6, 0.06414695, -0.06884385, 15613.2, 163287.17, 0.0, 10.001946, 9.998252 
4.9509045e+2, 2.949298e+2, 120043.03, -157280.38, -20477.285, -0.0057427674, 0.02255856, 121546.9, 171228.78, 0.0, 10.001977, 9.9983015 
4.951e+2, 3.0492646e+2, 128668.43, -197814.75, -13517.219, 0.0738472, -0.11187378, 129227.125, 129227.125, 0.0, 10.002004, 9.997676 
4.9510872e+2, 3.14925e+2, 246993.02, 50854.445, -39028.74, 0.07083537, -0.025954422, 254473.86, 254473.86, 0.000000050936965, 10.001991, 9.99939 
5.0494677e+2, 1.2493329e+2, -1874417.0, -1672552.1, 62470.754, -0.1686831, -0.053178906, -1654783.5, 60865.477, 0.0000009949754, 9.998414, 10.001043 
5.049566e+2, 1.3493301e+2, -1718145.3, -1641656.5, -91062.336, 0.21374181, -0.10688009, -1581133.5, 36517.707, 0.000000065122016, 9.999184, 10.000234 
5.0495994e+2, 1.4493409e+2, -1577742.6, -1553316.0, 1405.2109, -0.23052397, -0.008182813, -1553235.4, -33594.914, 0.0, 9.99962, 9.999945 
5.0497043e+2, 1.5493327e+2, -1475982.0, -1454506.4, -14851.029, -0.030681698, -0.08618573, -1446917.9, -25269.412, 0.0, 9.999653, 9.999933 
5.0497967e+2, 1.6493304e+2, -1357377.1, -1366894.0, -20673.627, 0.060745806, -0.092139676, -1340921.4, -17270.824, 0.0, 9.999882, 9.999752 
5.04987e+2, 1.7493346e+2, -1199872.9, -1239042.0, -29591.482, -0.03617638, -0.028737767, -1183972.1, 41674.156, 0.0, 10.000285, 9.999762 
5.049953e+2, 1.8493292e+2, -1115022.9, -1205115.6, -10144.046, -0.07164914, -0.032897346, -1113894.8, 13756.244, 0.0, 10.0004425, 9.999247 
5.0500464e+2, 1.9493139e+2, -1028074.1, -1111961.4, 711.244, -0.018081909, -0.11302265, -1028068.06, 1596.9447, 0.0, 10.000365, 9.99925 
5.050135e+2, 2.0493047e+2, -915902.0, -1019955.2, -14911.148, 0.010083649, -0.12366128, -913807.4, 17866.223, 0.0, 10.000517, 9.999137 
5.0502187e+2, 2.1493016e+2, -762075.06, -893752.56, -24138.61, 0.0025216646, -0.07156166, -757789.56, 75887.12, 0.0, 10.0008955, 9.999147 
5.0503045e+2, 2.2492933e+2, -644540.1, -784881.5, -14724.553, 0.00086420064, -0.06871615, -643011.9, 92672.04, 0.0, 10.001023, 9.999161 
5.050393e+2, 2.3492798e+2, -565425.44, -695076.44, -17291.418, 0.008301471, -0.12266822, -563158.94, 74536.445, 0.0, 10.000891, 9.999168 
5.050481e+2, 2.4492688e+2, -480129.28, -659607.3, -19939.256, 0.014194142, -0.12396647, -477940.8, 61765.195, 0.0, 10.001045, 9.998664 
5.050569e+2, 2.54926e+2, -314952.22, -528014.75, -22293.336, 0.018376097, -0.080754735, -312644.63, 129071.305, 0.0, 10.001501, 9.998675 
5.050661e+2, 2.6492462e+2, -198829.47, -443507.44, -6521.7397, 0.03942837, -0.07515678, -198655.77, 145074.6, 0.0, 10.001723, 9.998476 
5.050756e+2, 2.7492273e+2, -103607.4, -347320.84, 578.6049, 0.07524361, -0.11418114, -103606.02, 142143.48, 0.0, 10.001706, 9.998471 
5.050844e+2, 2.849214e+2, -4073.483, -281398.94, -12753.726, 0.05811386, -0.07922506, -3488.196, 144275.02, 0.0, 10.001857, 9.998179 
5.050925e+2, 2.9492062e+2, 141774.14, -153630.08, -14808.063, -0.006628222, 0.02055226, 142514.6, 192286.14, 0.0, 10.002156, 9.99824 
5.051021e+2, 3.0491722e+2, 151612.13, -169861.7, -19927.07, 0.08099969, -0.12403536, 152842.63, 152842.63, 0.0, 10.0020895, 9.997827 
5.0511056e+2, 3.1491604e+2, 181180.48, -5266.6455, -36575.438, 0.072678685, -0.019819316, 188098.8, 188098.8, 0.000000020855737, 10.001644, 9.99917 
5.1494527e+2, 1.2492497e+2, -1884289.3, -1690233.0, 80749.45, -0.15679152, -0.015713777, -1661027.5, 54703.633, 0.00000067894854, 9.998402, 10.000929 
5.149558e+2, 1.349243e+2, -1729568.6, -1666701.1, -60258.56, 0.21903421, -0.09492344, -1630170.4, -12432.731, 0.000000029496794, 9.999188, 10.00006 
5.1495934e+2, 1.4492524e+2, -1570081.8, -1539515.4, 2248.7195, -0.25400418, -0.004383738, -1539350.9, -19622.967, 0.0, 9.999629, 10.000036 
5.1497006e+2, 1.549248e+2, -1469388.1, -1440360.5, -13413.3545, -0.031102374, -0.053444542, -1435111.5, -13380.114, 0.0, 9.999651, 10.000031 
5.1497966e+2, 1.6492432e+2, -1376852.8, -1406415.5, -5928.963, 0.07135231, -0.075465806, -1375708.0, -51972.19, 0.0, 9.999877, 9.999483 
5.1498747e+2, 1.7492379e+2, -1218340.9, -1278076.1, -14019.034, -0.022110917, -0.07909812, -1215214.4, 10526.885, 0.0, 10.000288, 9.999493 
5.149958e+2, 1.8492337e+2, -1093789.0, -1161667.9, -13618.916, -0.06680139, -0.073218174, -1091158.5, 36586.31, 0.0, 10.000445, 9.999544 
5.150048e+2, 1.9492303e+2, -1007024.0, -1068303.4, -1828.442, -0.035812903, -0.06453096, -1006969.44, 22776.652, 0.0, 10.000364, 9.999551 
5.150139e+2, 2.049222e+2, -932862.9, -1053605.5, -1077.716, -0.010174736, -0.07134989, -932853.25, -1099.6241, 0.0, 10.000511, 9.998909 
5.1502275e+2, 2.149208e+2, -778388.7, -927657.2, -9523.015, 0.001650573, -0.10273313, -777783.6, 55983.945, 0.0, 10.0008955, 9.998915 
5.1503164e+2, 2.2491969e+2, -649148.9, -793996.4, -19999.066, 0.0152754625, -0.11461786, -646438.3, 89339.49, 0.0, 10.001021, 9.999099 
5.150404e+2, 2.3491883e+2, -569276.25, -703391.06, -21823.502, 0.035045207, -0.11318695, -565814.44, 71969.75, 0.0, 10.000891, 9.999111 
5.1504934e+2, 2.4491768e+2, -485141.94, -669771.1, -3452.929, 0.032238223, -0.113242775, -485077.38, 54717.8, 0.0, 10.001044, 9.998594 
5.150583e+2, 2.5491622e+2, -320555.25, -538850.7, -4851.872, 0.0065563135, -0.12305973, -320447.47, 121363.484, 0.0, 10.001498, 9.998603 
5.150675e+2, 2.649148e+2, -186940.06, -417810.94, -7139.963, 0.008379045, -0.12302329, -186719.47, 157105.67, 0.0, 10.0017185, 9.998655 
5.150769e+2, 2.7491355e+2, -90831.08, -320496.72, 575.0769, 0.036233388, -0.11884662, -90829.64, 155008.13, 0.0, 10.001704, 9.998657 
5.1508605e+2, 2.8491232e+2, -12082.609, -296412.28, -1635.5353, 0.03987665, -0.07730107, -12073.201, 135777.31, 0.0, 10.00185, 9.998079 
5.15095e+2, 2.9491118e+2, 133289.36, -168083.33, -2683.1323, 0.025172038, -0.0056404974, 133313.25, 183176.63, 0.0, 10.002144, 9.998146 
5.151045e+2, 3.0490777e+2, 166326.84, -137690.25, -37055.72, 0.10977591, -0.15548182, 170778.27, 170778.27, 0.0, 10.002082, 9.998053 
5.151118e+2, 3.1490707e+2, 169762.53, -31076.865, -45801.242, 0.03554478, -0.026331952, 179714.34, 179714.34, 0.0000000053166334, 10.001653, 9.99899 
5.249438e+2, 1.2491594e+2, -1839330.9, -1665661.0, 59930.867, -0.1504326, -0.008948814, -1646987.6, 68832.3, 0.0000005002885, 9.9987, 10.000951 
5.2495503e+2, 1.3491526e+2, -1762603.5, -1685530.1, -60705.605, 0.23403402, -0.084259324, -1652162.4, -34336.133, 0.000000016983103, 9.998973, 10.000035 
5.249588e+2, 1.4491609e+2, -1603529.8, -1556852.4, -6262.7793, -0.25951526, -0.0038943826, -1556026.6, -36209.06, 0.0, 9.999405, 10.000025 
5.2496994e+2, 1.5491572e+2, -1442121.6, -1428479.0, -32205.254, -0.021429539, -0.04418715, -1402380.5, 19439.648, 0.0, 9.999845, 10.00002 
5.249797e+2, 1.6491522e+2, -1348389.4, -1396225.3, -18537.094, 0.082602195, -0.06684839, -1342047.0, -18222.033, 0.0, 10.000087, 9.999453 
5.2498776e+2, 1.7491458e+2, -1238162.6, -1291619.5, -10189.072, -0.020305322, -0.07995491, -1236286.4, -10454.638, 0.0, 10.000168, 9.999459 
5.2499616e+2, 1.8491414e+2, -1109617.4, -1166612.4, -16987.291, -0.06806574, -0.07435585, -1104938.5, 22896.906, 0.0, 10.000324, 9.999568 
5.250053e+2, 1.9491392e+2, -979317.44, -1051721.6, -26941.416, -0.03674021, -0.056221083, -970392.75, 59442.656, 0.0, 10.000542, 9.999578 
5.250145e+2, 2.0491306e+2, -900548.7, -1034571.2, -18748.225, -0.006057797, -0.06594305, -897975.44, 33867.168, 0.0, 10.000718, 9.9989395 
5.2502376e+2, 2.149116e+2, -782552.06, -926031.0, -8151.906, 0.016020402, -0.11112505, -782090.44, 51766.633, 0.0, 10.000852, 9.998947 
5.2503276e+2, 2.249104e+2, -657974.2, -815047.9, -19140.027, 0.029981166, -0.12445147, -655675.56, 80192.445, 0.0, 10.001033, 9.998949 
5.250416e+2, 2.3490949e+2, -525398.5, -698815.75, -28703.195, 0.038763177, -0.113867335, -520771.16, 117104.38, 0.0, 10.001265, 9.998962 
5.2505046e+2, 2.4490829e+2, -442021.9, -640256.1, -4200.7754, 0.030149043, -0.114203945, -441932.94, 97953.9, 0.0, 10.001304, 9.998673 
5.250596e+2, 2.549068e+2, -367664.16, -552482.06, 4539.4604, 0.0032707413, -0.1329242, -367552.72, 74349.305, 0.0, 10.001136, 9.998683 
5.250689e+2, 2.6490545e+2, -251499.39, -441660.84, 5935.25, 0.0028626225, -0.13592206, -251314.33, 92601.17, 0.0, 10.001244, 9.998719 
5.250785e+2, 2.7490428e+2, -97033.23, -315606.7, 4950.224, 0.028327776, -0.13116622, -96921.17, 149006.22, 0.0, 10.001629, 9.998727 
5.250878e+2, 2.8490308e+2, -19707.223, -290563.53, 2037.1252, 0.033178225, -0.09304482, -19691.902, 128247.805, 0.0, 10.001758, 9.998164 
5.250968e+2, 2.9490197e+2, 62607.348, -193185.06, 12933.684, 0.022036161, -0.024214445, 63259.652, 113211.73, 0.0, 10.001619, 9.998226 
5.2510643e+2, 3.0489883e+2, 150463.06, -123960.414, -14239.436, 0.111187816, -0.1618406, 151199.95, 151199.95, 0.0, 10.00188, 9.998243 
5.2511394e+2, 3.148982e+2, 285799.13, 6258.783, -19352.822, 0.038154423, -0.047807425, 287132.56, 287132.56, 0.00000000056215, 10.002529, 9.998825 
5.3494245e+2, 1.2490622e+2, -1828938.3, -1646256.3, 55369.598, -0.16331218, -0.029371016, -1630784.5, 85130.695, 0.00000041209, 9.998709, 10.0010805 
5.3495425e+2, 1.3490593e+2, -1754887.1, -1670019.8, -49144.543, 0.25634828, -0.075770766, -1647524.3, -29606.879, 0.000000018082496, 9.998973, 10.000143 
5.349583e+2, 1.4490663e+2, -1611733.5, -1572634.4, 10569.034, -0.2491672, -0.007496808, -1569960.3, -50050.36, 0.0, 9.999399, 9.99992 
5.349699e+2, 1.5490606e+2, -1449468.4, -1444166.0, -15740.268, -0.0053056884, -0.058370918, -1430855.1, -8940.092, 0.0, 9.999846, 9.99991 
5.349799e+2, 1.6490577e+2, -1334195.1, -1367665.4, -16601.738, 0.08893551, -0.06434378, -1327357.4, -3439.543, 0.0, 10.000091, 9.999647 
5.3498775e+2, 1.7490579e+2, -1224106.5, -1262654.3, -6733.6255, -0.032719426, -0.030757792, -1222964.1, 2953.5347, 0.0, 10.000168, 9.999659 
5.349964e+2, 1.8490522e+2, -1127480.6, -1202733.5, -9164.912, -0.07793017, -0.03606021, -1126380.6, 1542.0673, 0.0, 10.00032, 9.999323 
5.35006e+2, 1.9490404e+2, -996887.8, -1088251.9, -18620.146, -0.022881102, -0.089151695, -993238.7, 36694.19, 0.0, 10.000542, 9.999329 
5.350155e+2, 2.0490313e+2, -880740.7, -992585.1, -14050.387, 0.01982422, -0.108026, -879002.6, 52937.92, 0.0, 10.000714, 9.999229 
5.350249e+2, 2.1490248e+2, -762468.1, -883773.56, -2718.2466, 0.043537185, -0.09787825, -762407.25, 71538.09, 0.0, 10.000849, 9.999239 
5.3503394e+2, 2.2490142e+2, -675202.44, -849976.3, -10992.63, 0.042473625, -0.100114055, -674513.75, 61441.082, 0.0, 10.001029, 9.998712 
5.350426e+2, 2.3489992e+2, -542430.56, -734433.75, -19625.275, 0.018656524, -0.12431671, -540445.2, 97524.2, 0.0, 10.001265, 9.998718 
5.350515e+2, 2.4489869e+2, -426644.78, -607968.75, -10438.757, 0.0065339347, -0.12681735, -426045.8, 113935.19, 0.0, 10.001302, 9.998896 
5.350607e+2, 2.5489777e+2, -351642.75, -519807.34, -1379.7021, 0.006154781, -0.11174245, -351631.4, 90358.02, 0.0, 10.001138, 9.998907 
5.350703e+2, 2.648965e+2, -255186.69, -448864.6, 19794.813, 0.019871194, -0.11613662, -253184.27, 90817.54, 0.0, 10.001243, 9.998671 
5.350803e+2, 2.7489486e+2, -101345.94, -322850.0, 19623.188, 0.047557145, -0.1516474, -99620.945, 146397.63, 0.0, 10.001621, 9.99868 
5.3508955e+2, 2.8489363e+2, -2023.1517, -252426.97, -3473.3315, 0.03489192, -0.12596536, -1974.9828, 146055.92, 0.0, 10.001751, 9.99843 
5.350981e+2, 2.9489303e+2, 81270.586, -155435.16, 8481.873, -0.015382806, -0.0343174, 81574.13, 131611.86, 0.0, 10.001622, 9.998485 
5.351081e+2, 3.048904e+2, 160551.11, -101988.65, 9239.645, 0.084497385, -0.1437408, 160875.88, 160875.88, 0.0, 10.001877, 9.998396 
5.351168e+2, 3.1488934e+2, 272584.0, -15843.088, 12412.712, 0.070385896, -0.08362354, 273117.2, 273117.2, 0.0000000000003731001, 10.002507, 9.998683 
5.449412e+2, 1.24896385e+2, -1822084.1, -1652181.9, 50118.58, -0.16731268, -0.047923826, -1638499.5, 77511.12, 0.00000036785775, 9.998796, 10.000998 
5.4495347e+2, 1.348962e+2, -1702833.3, -1654897.5, -54951.32, 0.26641408, -0.07353922, -1618914.5, -902.26843, 0.000000024396927, 9.999373, 10.000053 
5.449578e+2, 1.4489678e+2, -1569837.5, -1552715.1, -5094.2734, -0.2490188, -0.014743349, -1551314.1, -31307.648, 0.0, 9.999689, 9.999915 
5.4496986e+2, 1.548962e+2, -1470976.6, -1455052.5, -27270.979, 0.008771441, -0.066607326, -1434605.0, -12593.298, 0.0, 9.999701, 9.999907 
5.4498e+2, 1.6489598e+2, -1367762.1, -1370788.1, -30311.84, 0.10213298, -0.07062953, -1338925.6, -14912.018, 0.0, 9.9998045, 9.999763 
5.449878e+2, 1.7489617e+2, -1244567.0, -1258658.5, -27080.516, -0.031979755, -0.032236878, -1223630.8, 2380.638, 0.0, 9.99997, 9.999779 
5.449966e+2, 1.8489562e+2, -1150654.3, -1215054.8, -19042.424, -0.07628655, -0.03943272, -1145445.0, -17429.082, 0.0, 10.000167, 9.999311 
5.450066e+2, 1.9489434e+2, -1017066.94, -1099383.3, -11557.015, -0.008493049, -0.100550175, -1015475.1, 14552.272, 0.0, 10.000409, 9.999316 
5.450163e+2, 2.0489345e+2, -887117.3, -989960.56, -8166.033, 0.034040425, -0.119740464, -886472.94, 45562.043, 0.0, 10.000646, 9.999281 
5.4502577e+2, 2.1489292e+2, -755480.7, -874331.25, -15604.978, 0.044290673, -0.10321141, -753465.9, 80572.484, 0.0, 10.000871, 9.999293 
5.450349e+2, 2.2489193e+2, -676948.25, -846829.5, -23781.13, 0.038074266, -0.10283447, -673682.0, 62365.07, 0.0, 10.001, 9.998747 
5.4504377e+2, 2.3489046e+2, -574057.3, -745432.3, -12560.709, 0.017316421, -0.12790821, -573141.56, 64919.68, 0.0, 10.00103, 9.998755 
5.4505277e+2, 2.4488917e+2, -451715.4, -624884.3, -5986.259, 0.0075597875, -0.1360995, -451508.72, 88564.625, 0.0, 10.001151, 9.998852 
5.45062e+2, 2.548881e+2, -321647.06, -510177.84, -17257.742, 0.008983275, -0.13195737, -320080.34, 122002.76, 0.0, 10.001367, 9.998862 
5.450717e+2, 2.648869e+2, -224701.23, -429580.53, 2186.2358, 0.024853863, -0.13149235, -224677.9, 119417.125, 0.0, 10.001432, 9.998712 
5.4508185e+2, 2.7488548e+2, -140276.83, -337129.53, 7459.134, 0.054483067, -0.14713322, -139994.6, 106115.09, 0.0, 10.001334, 9.99872 
5.450912e+2, 2.8488424e+2, -32307.229, -257033.81, -17801.465, 0.037326183, -0.1290909, -30905.844, 117216.22, 0.0, 10.001499, 9.998519 
5.4509974e+2, 2.9488343e+2, 132679.84, -120263.73, -19115.998, -0.023630694, -0.06913309, 134116.38, 184247.03, 0.0, 10.001933, 9.998576 
5.451099e+2, 3.048812e+2, 196880.63, -70024.86, -22124.916, 0.07515574, -0.14600746, 198702.22, 198702.22, 0.0, 10.002064, 9.998525 
5.4511905e+2, 3.1488013e+2, 174615.47, -71531.625, -15351.72, 0.07287794, -0.10163304, 175569.23, 175569.23, 0.000000000015387011, 10.001869, 9.998608 
5.549399e+2, 1.2488643e+2, -1841463.9, -1692072.6, 55920.246, -0.16797575, -0.06599711, -1673459.5, 42646.88, 0.0000003291145, 9.9987955, 10.000725 
5.549528e+2, 1.3488616e+2, -1720275.4, -1692649.1, -32356.557, 0.26105225, -0.076726444, -1671280.6, -53170.004, 0.000000025104656, 9.99938, 9.999791 
5.549574e+2, 1.4488655e+2, -1563748.0, -1541580.9, -4953.102, -0.26469743, -0.024247823, -1540524.5, -20417.582, 0.0, 9.999695, 9.99999 
5.549696e+2, 1.5488613e+2, -1464867.5, -1442750.9, -26474.428, 0.017906556, -0.068497546, -1425118.0, -3007.9084, 0.0, 9.9997015, 9.999991 
5.549799e+2, 1.6488583e+2, -1365607.3, -1364826.0, -24663.346, 0.119605266, -0.085967556, -1340550.1, -16438.047, 0.0, 9.999799, 9.999806 
5.549879e+2, 1.7488568e+2, -1241736.5, -1252487.3, -20796.002, -0.01988266, -0.085049935, -1225632.4, 480.50726, 0.0, 9.9999695, 9.999822 
5.549969e+2, 1.8488537e+2, -1135443.3, -1183133.6, -10479.316, -0.06569664, -0.08500797, -1133242.1, -5126.9326, 0.0, 10.000165, 9.999532 
5.5500716e+2, 1.9488485e+2, -1001785.44, -1067322.1, -2062.3645, 0.0049170195, -0.09091455, -1001720.56, 28398.424, 0.0, 10.000407, 9.999537 
5.55017e+2, 2.0488405e+2, -900523.8, -1016668.56, -18.973381, 0.03472692, -0.1021158, -900523.8, 31602.113, 0.0, 10.000641, 9.9991 
5.5502635e+2, 2.1488294e+2, -769023.5, -901749.6, -6814.806, 0.016506549, -0.12708977, -768674.5, 65461.684, 0.0, 10.000867, 9.999106 
5.5503565e+2, 2.2488195e+2, -656093.8, -802681.4, -22965.549, 0.015035576, -0.13266319, -652580.1, 83564.58, 0.0, 10.000997, 9.999051 
5.5504495e+2, 2.348811e+2, -552608.6, -700742.7, -11362.5205, 0.032897413, -0.12522298, -551742.1, 86409.19, 0.0, 10.001029, 9.999063 
5.550541e+2, 2.4487971e+2, -473264.03, -669197.56, 1550.957, 0.031413753, -0.14302409, -473251.75, 66912.32, 0.0, 10.001149, 9.998548 
5.550634e+2, 2.548778e+2, -343431.7, -554983.2, -8710.635, 0.009883057, -0.19297966, -343073.63, 99109.36, 0.0, 10.001364, 9.998555 
5.550731e+2, 2.6487657e+2, -216177.05, -411312.06, -1481.1995, 0.015791325, -0.18154226, -216165.8, 128029.31, 0.0, 10.00143, 9.998838 
5.5508316e+2, 2.748761e+2, -131546.6, -319552.88, 4223.636, 0.048137974, -0.11902022, -131451.75, 114749.09, 0.0, 10.001336, 9.99884 
5.550927e+2, 2.848749e+2, -39050.81, -270161.63, -2109.9153, 0.038989186, -0.10390964, -39031.547, 109181.805, 0.0, 10.001496, 9.99843 
5.551019e+2, 2.9487312e+2, 124718.74, -133625.55, -2547.2341, -0.008073862, -0.12770823, 124743.85, 174974.72, 0.0, 10.001919, 9.998491 
5.5511206e+2, 3.048713e+2, 203802.63, -52686.957, -29991.975, 0.078235276, -0.16715778, 207262.98, 207262.98, 0.0, 10.00205, 9.998651 
5.551206e+2, 3.148706e+2, 175794.39, -69069.91, -16075.722, 0.04333281, -0.0972506, 176845.28, 176845.28, 0.0000000020600701, 10.001869, 9.998625 
5.6493884e+2, 1.24876104e+2, -1854774.5, -1700998.4, 26512.0, -0.15471993, -0.07081271, -1696555.9, 19651.21, 0.00000027083397, 9.998718, 10.000698 
5.649522e+2, 1.348759e+2, -1749241.4, -1705732.8, -28864.246, 0.2729982, -0.07663714, -1691343.0, -73132.08, 0.000000017878008, 9.999176, 9.999801 
5.6495696e+2, 1.4487626e+2, -1579780.4, -1540412.0, -5341.371, -0.26758385, -0.03291948, -1539700.1, -19492.363, 0.0, 9.999546, 10.00007 
5.6496924e+2, 1.5487607e+2, -1449873.0, -1425891.4, -27680.758, 0.009757938, -0.060649835, -1407715.9, 14492.476, 0.0, 9.999764, 10.000074 
5.6497973e+2, 1.6487578e+2, -1347421.6, -1356881.0, -26122.242, 0.11569039, -0.08269271, -1325604.4, -1393.9489, 0.0, 9.999929, 9.999797 
5.64988e+2, 1.7487535e+2, -1231773.3, -1249262.5, -28225.277, -0.0053439126, -0.10792684, -1210969.0, 15244.913, 0.0, 10.000046, 9.999807 
5.6499726e+2, 1.8487509e+2, -1123564.5, -1162437.4, -20801.8, -0.04778543, -0.10650828, -1114531.9, 13683.686, 0.0, 10.000182, 9.999665 
5.650075e+2, 1.9487503e+2, -1002570.94, -1052087.8, -19389.219, 0.007852566, -0.08272368, -995882.25, 34332.5, 0.0, 10.000336, 9.999676 
5.6501746e+2, 2.048743e+2, -928361.5, -1032698.5, -15269.253, 0.03284353, -0.089964285, -926172.8, 6047.8887, 0.0, 10.000461, 9.999077 
5.650271e+2, 2.1487294e+2, -815345.5, -926651.5, -10635.002, 0.020991333, -0.13783772, -814338.44, 19895.268, 0.0, 10.000561, 9.9990835 
5.6503654e+2, 2.2487193e+2, -684666.9, -804741.94, -27340.236, 0.018378267, -0.14948991, -678734.75, 57507.65, 0.0, 10.000751, 9.999155 
5.650459e+2, 2.3487131e+2, -543788.0, -684641.7, -31353.08, 0.027027112, -0.1302241, -537124.25, 101122.33, 0.0, 10.001039, 9.999168 
5.650553e+2, 2.4487e+2, -465266.4, -662393.25, -15069.236, 0.026690513, -0.14707844, -464121.1, 76137.27, 0.0, 10.00119, 9.998574 
5.650648e+2, 2.54868e+2, -365428.94, -562554.3, -1513.6915, 0.017143099, -0.20740208, -365417.34, 76860.54, 0.0, 10.0012, 9.998583 
5.6507444e+2, 2.648668e+2, -238381.39, -426869.25, 9846.673, 0.023053514, -0.1979711, -237868.39, 106421.89, 0.0, 10.001299, 9.998794 
5.6508446e+2, 2.7486628e+2, -112609.94, -314505.1, 2436.527, 0.043225463, -0.13053012, -112580.54, 133715.52, 0.0, 10.001486, 9.998801 
5.650942e+2, 2.84865e+2, -31250.041, -270124.06, -1342.152, 0.0335736, -0.11901667, -31242.5, 117066.92, 0.0, 10.001566, 9.998396 
5.6510365e+2, 2.948631e+2, 64877.02, -168105.02, 1283.6896, -0.0018318796, -0.14990309, 64884.094, 115212.25, 0.0, 10.001532, 9.998441 
5.651139e+2, 3.0486166e+2, 152621.1, -80295.77, -32639.445, 0.07675176, -0.14785393, 157108.52, 157108.52, 0.0, 10.001711, 9.998624 
5.651224e+2, 3.1486052e+2, 212527.61, -50988.44, -25910.268, 0.026804224, -0.12221943, 215051.08, 215051.08, 0.000000017271022, 10.002119, 9.998629 
5.749378e+2, 1.2486549e+2, -1840173.9, -1674234.1, 24831.646, -0.13379665, -0.06085558, -1670597.9, 45713.977, 0.00000019303324, 9.998731, 10.000876 
5.7495165e+2, 1.3486546e+2, -1729981.4, -1667067.8, -10808.046, 0.2996601, -0.073184304, -1665262.9, -46949.824, 0.000000007774616, 9.999179, 10.000066 
5.749566e+2, 1.4486587e+2, -1574590.6, -1527994.9, 2770.958, -0.26084328, -0.04085849, -1527830.8, -7521.743, 0.0, 9.999539, 10.000157 
5.7496876e+2, 1.5486604e+2, -1443356.0, -1412402.1, -19113.494, -0.018160941, -0.04317649, -1403285.1, 19021.135, 0.0, 9.999764, 10.000168 
5.749794e+2, 1.6486579e+2, -1352587.8, -1367780.5, -22092.662, 0.08738605, -0.06115269, -1336822.0, -12513.801, 0.0, 9.999929, 9.999723 
5.749883e+2, 1.7486516e+2, -1237166.8, -1260872.0, -23365.389, 0.00961948, -0.10114837, -1222819.6, 3494.866, 0.0, 10.000046, 9.999728 
5.749976e+2, 1.8486482e+2, -1121065.5, -1156256.1, -15417.911, -0.02551631, -0.10441263, -1115266.3, 13050.613, 0.0, 10.000178, 9.99971 
5.7500774e+2, 1.9486485e+2, -999546.5, -1045159.4, -13513.97, -0.001678085, -0.0759795, -995843.3, 34471.383, 0.0, 10.000333, 9.999725 
5.7501787e+2, 2.0486425e+2, -919279.8, -1013135.9, -12017.27, 0.026704619, -0.08328644, -917765.56, 14553.747, 0.0, 10.000458, 9.999212 
5.75028e+2, 2.1486296e+2, -805965.56, -906722.7, -6642.1885, 0.05527745, -0.13546105, -805529.56, 28801.402, 0.0, 10.000559, 9.999221 
5.750376e+2, 2.248619e+2, -691347.3, -818189.1, -16908.352, 0.04592395, -0.15367709, -689132.06, 47208.164, 0.0, 10.000749, 9.9990635 
5.7504666e+2, 2.348611e+2, -550723.2, -698357.06, -20057.219, -0.0012447535, -0.14331871, -548046.8, 90300.13, 0.0, 10.001036, 9.999076 
5.750561e+2, 2.4486004e+2, -441463.7, -612144.2, -14986.697, -0.007841496, -0.1491816, -440157.78, 100198.46, 0.0, 10.001187, 9.998921 
5.7506603e+2, 2.5485873e+2, -341702.9, -512554.4, -1172.1566, 0.028579935, -0.1767695, -341694.88, 100673.16, 0.0, 10.001196, 9.998928 
5.75076e+2, 2.648574e+2, -253341.58, -457420.5, 16321.627, 0.04481885, -0.18139051, -252044.47, 92336.25, 0.0, 10.001296, 9.998586 
5.750859e+2, 2.7485606e+2, -127397.62, -344293.2, 9647.165, 0.037330613, -0.17963871, -126969.375, 119425.87, 0.0, 10.001481, 9.9986 
5.750956e+2, 2.8485462e+2, -30131.541, -266447.72, -3037.294, 0.018404063, -0.17285714, -30092.51, 118317.72, 0.0, 10.00156, 9.998425 
5.7510513e+2, 2.9485342e+2, 64627.406, -168553.23, 608.4394, -0.0068536024, -0.13862884, 64628.992, 115051.836, 0.0, 10.001531, 9.998438 
5.7511556e+2, 3.0485234e+2, 138777.36, -108361.84, -18010.977, 0.06872138, -0.09080962, 140083.06, 140083.06, 0.00000000021282408, 10.001708, 9.998433 
5.7512444e+2, 3.1484997e+2, 208285.56, -56391.93, -4264.201, 0.016758204, -0.1714181, 208354.23, 208354.23, 0.0000000699572, 10.002104, 9.998599 
5.849366e+2, 1.24854706e+2, -1796993.1, -1648432.9, 19783.285, -0.13009524, -0.06564558, -1645843.5, 70574.08, 0.00000011738098, 9.999007, 10.000919 
5.8495086e+2, 1.3485493e+2, -1726005.8, -1650889.0, -9595.783, 0.30477613, -0.06501644, -1649682.6, -31266.8, 0.0000000014227642, 9.999148, 10.000189 
5.8495605e+2, 1.448553e+2, -1605240.1, -1537183.3, -5592.52, -0.25618026, -0.045985445, -1536726.8, -16314.686, 0.0, 9.999307, 10.000206 
5.849684e+2, 1.548555e+2, -1482594.3, -1425642.5, -32874.82, -0.014414223, -0.050625075, -1410625.5, 11784.022, 0.0, 9.999472, 10.000217 
5.849792e+2, 1.648554e+2, -1389846.5, -1382710.6, -34597.94, 0.08745695, -0.05711118, -1351497.1, -27086.992, 0.0, 9.99966, 9.99975 
5.8498824e+2, 1.7485502e+2, -1260758.9, -1269159.0, -28428.71, 0.0091909235, -0.07219939, -1236221.6, -9807.576, 0.0, 9.999871, 9.999755 
5.849978e+2, 1.8485467e+2, -1136536.6, -1160351.1, -16628.063, -0.023883274, -0.081319265, -1127992.1, 424.51428, 0.0, 10.000058, 9.999739 
5.850081e+2, 1.9485433e+2, -1014814.6, -1049047.4, -16708.754, 0.0018406794, -0.09187833, -1008011.25, 22406.31, 0.0, 10.000214, 9.999755 
5.850184e+2, 2.0485371e+2, -915515.2, -1000494.75, -15031.457, 0.030603938, -0.10691102, -912934.7, 19487.38, 0.0, 10.000438, 9.999309 
5.850287e+2, 2.1485278e+2, -773009.8, -879999.06, -13527.048, 0.058450446, -0.1333403, -771326.06, 63104.203, 0.0, 10.000739, 9.999317 
5.8503836e+2, 2.2485185e+2, -678915.1, -811632.3, -25795.928, 0.04978883, -0.14489917, -674077.56, 62360.95, 0.0, 10.000831, 9.99907 
5.8504754e+2, 2.3485091e+2, -599147.44, -720994.7, -22317.684, 0.004678414, -0.14912184, -595188.4, 43258.7, 0.0, 10.0007, 9.999083 
5.8505714e+2, 2.4484992e+2, -495582.1, -620965.94, -18534.21, -0.0037179491, -0.15464798, -492899.75, 47555.844, 0.0, 10.000742, 9.999075 
5.850671e+2, 2.5484893e+2, -364766.0, -505913.6, -19360.563, 0.025933301, -0.16595194, -362158.56, 80305.26, 0.0, 10.000962, 9.999086 
5.8507717e+2, 2.648477e+2, -276211.56, -474378.44, 266.13666, 0.03874617, -0.1699628, -276211.22, 68264.62, 0.0, 10.001164, 9.998532 
5.850873e+2, 2.748461e+2, -149557.45, -361520.3, 4254.0522, 0.03249677, -0.18348432, -149472.11, 97020.53, 0.0, 10.001356, 9.998542 
5.8509713e+2, 2.8484464e+2, -32542.773, -256561.0, -6444.373, 0.017554818, -0.18394561, -32357.54, 116150.62, 0.0, 10.001496, 9.998524 
5.851067e+2, 2.9484352e+2, 75512.75, -153351.06, 1162.5284, -0.0017664009, -0.14905532, 75518.66, 126038.125, 0.0, 10.001564, 9.998527 
5.8511716e+2, 3.048427e+2, 128971.164, -127470.73, 500.45328, 0.065349944, -0.068871915, 128972.14, 128972.14, 0.000000006848287, 10.001702, 9.998304 
5.8512634e+2, 3.1484002e+2, 192461.81, -51849.797, 22957.773, 0.008907613, -0.17407694, 194600.4, 194600.4, 0.00000018333391, 10.001945, 9.998707 
5.9493554e+2, 1.2484382e+2, -1802106.8, -1661181.9, 6402.9644, -0.14654696, -0.081657335, -1660891.6, 55632.09, 0.000000058921596, 9.999015, 10.000829 
5.9494984e+2, 1.3484432e+2, -1726391.0, -1653081.3, -3925.4597, 0.28553864, -0.053601317, -1652871.6, -34352.574, 0.000000000010343272, 9.999153, 10.000173 
5.949554e+2, 1.4484452e+2, -1605446.3, -1537280.6, 345.0693, -0.25663325, -0.04998706, -1537278.9, -16761.66, 0.0, 9.999305, 10.000207 
5.949682e+2, 1.5484442e+2, -1482596.8, -1425776.3, -25972.412, 0.019206624, -0.08381451, -1415693.6, 6824.296, 0.0, 9.999472, 10.000217 
5.949791e+2, 1.6484457e+2, -1381832.5, -1365176.1, -27076.055, 0.11318573, -0.071676105, -1345176.4, -20660.027, 0.0, 9.999656, 9.999872 
5.949879e+2, 1.7484498e+2, -1251458.3, -1250167.5, -20151.281, -0.008760032, -0.02108648, -1230651.3, -4138.6577, 0.0, 9.999872, 9.999885 
5.9499764e+2, 1.8484461e+2, -1135377.6, -1157836.4, -11026.075, -0.045460284, -0.03732586, -1130869.3, -2354.4402, 0.0, 10.000057, 9.999757 
5.9500843e+2, 1.9484349e+2, -1013740.4, -1046922.3, -10601.651, 0.016551599, -0.13008842, -1010642.4, 19880.932, 0.0, 10.000213, 9.99977 
5.950189e+2, 2.0484275e+2, -912589.56, -993495.75, -4215.995, 0.04279836, -0.16077314, -912370.44, 20158.549, 0.0, 10.000434, 9.999358 
5.950291e+2, 2.1484241e+2, -770140.5, -872793.94, -1880.4718, 0.029415186, -0.1321409, -770106.06, 64425.504, 0.0, 10.000733, 9.99937 
5.95039e+2, 2.2484174e+2, -672423.2, -797004.8, -31010.969, 0.028639896, -0.124046825, -665130.75, 71406.62, 0.0, 10.000825, 9.999173 
5.9504867e+2, 2.3484074e+2, -592151.5, -706286.8, -27102.166, 0.04184604, -0.14710222, -586042.9, 52504.086, 0.0, 10.000699, 9.999184 
5.950582e+2, 2.4483968e+2, -497577.1, -625500.0, -10695.867, 0.035910893, -0.16249542, -496688.94, 43867.367, 0.0, 10.000743, 9.999044 
5.9506786e+2, 2.5483865e+2, -366442.88, -509487.5, -10836.172, 0.00876918, -0.17389913, -365626.66, 76938.4, 0.0, 10.000962, 9.999062 
5.95078e+2, 2.648376e+2, -269792.47, -460704.13, 7137.9434, 0.004864021, -0.16363695, -269525.97, 75049.52, 0.0, 10.001163, 9.998627 
5.9508854e+2, 2.7483642e+2, -144197.84, -349609.8, 11847.293, 0.025313351, -0.14528549, -143516.8, 103071.73, 0.0, 10.001352, 9.998626 
5.950987e+2, 2.8483495e+2, -22573.53, -234333.9, -4445.9395, 0.02675302, -0.15490691, -22480.227, 126123.26, 0.0, 10.001489, 9.99868 
5.951084e+2, 2.9483342e+2, 85313.12, -131041.95, 3007.8455, 0.010835224, -0.17810383, 85354.92, 135972.81, 0.0, 10.0015545, 9.998684 
5.951189e+2, 3.0483288e+2, 123279.2, -136132.77, 8331.196, 0.065291554, -0.07772778, 123546.49, 123546.49, 0.000000033052434, 10.001689, 9.998251 
5.9512824e+2, 3.1483066e+2, 208261.05, -15861.754, 37027.793, -0.0018781079, -0.1324153, 214220.05, 214220.05, 0.00000037488923, 10.001931, 9.9989605 
6.049345e+2, 1.24832936e+2, -1814616.3, -1681466.1, -4477.19, -0.1460818, -0.09049452, -1681315.8, 35313.484, 0.000000021349177, 9.998992, 10.000701 
6.04949e+2, 1.348334e+2, -1701355.3, -1643107.1, -938.941, 0.2755271, -0.06506087, -1643092.0, -24466.766, 0.0, 9.999336, 10.000153 
6.049548e+2, 1.4483348e+2, -1575678.6, -1528976.1, -2305.6675, -0.25636557, -0.06735631, -1528862.6, -8237.973, 0.0, 9.999536, 10.000152 
6.0496783e+2, 1.5483348e+2, -1462325.3, -1421355.0, -33403.6, 0.02710952, -0.08581062, -1402655.5, 19969.389, 0.0, 9.999636, 10.000168 
6.0497886e+2, 1.6483366e+2, -1358878.4, -1341751.4, -34508.566, 0.122491784, -0.074202426, -1314759.6, 9863.341, 0.0, 9.99976, 9.999984 
6.0498786e+2, 1.7483401e+2, -1241499.8, -1232465.3, -29483.193, -0.00048004749, -0.04131336, -1207155.3, 19463.895, 0.0, 9.999885, 10.0 
6.0499775e+2, 1.8483372e+2, -1146880.0, -1165456.9, -23635.28, -0.035704717, -0.055115476, -1130773.6, -2152.7595, 0.0, 9.999988, 9.999739 
6.0500866e+2, 1.9483282e+2, -1034789.56, -1059642.6, -26914.316, 0.028103147, -0.12361231, -1017571.56, 13056.622, 0.0, 10.00008, 9.999747 
6.050192e+2, 2.0483218e+2, -944515.2, -989338.0, -15773.018, 0.049160723, -0.14951412, -939521.2, -6888.326, 0.0, 10.000131, 9.999533 
6.0502946e+2, 2.1483186e+2, -846070.3, -889659.3, -4478.5244, 0.023830984, -0.13764629, -845614.94, -10980.401, 0.0, 10.000128, 9.999546 
6.0503954e+2, 2.2483128e+2, -737158.1, -823312.6, -29065.924, 0.02172543, -0.13284683, -728269.25, 8370.18, 0.0, 10.000361, 9.999216 
6.0504943e+2, 2.3483041e+2, -567770.3, -690264.4, -30806.486, 0.04365147, -0.14465863, -560459.06, 78188.89, 0.0, 10.000849, 9.999222 
6.050592e+2, 2.4482937e+2, -447066.88, -607919.75, -19216.906, 0.039314028, -0.15693921, -444802.94, 95854.58, 0.0, 10.00112, 9.998983 
6.050689e+2, 2.5482824e+2, -342169.16, -504988.84, -22836.127, 0.0071319905, -0.17289017, -339026.94, 103640.76, 0.0, 10.00116, 9.998998 
6.050791e+2, 2.6482725e+2, -265225.38, -452262.8, -9499.061, 0.0039023475, -0.15582445, -264744.2, 79933.63, 0.0, 10.001166, 9.998684 
6.0508984e+2, 2.7482632e+2, -173409.11, -356922.97, -7883.7144, 0.030351475, -0.118765004, -173071.05, 73617.57, 0.0, 10.001122, 9.998687 
6.051001e+2, 2.8482485e+2, -64266.61, -254945.34, -26803.248, 0.03159159, -0.13098463, -60570.586, 88132.914, 0.0, 10.0012045, 9.998675 
6.051099e+2, 2.9482308e+2, 65427.715, -143054.63, -32596.445, 0.008954232, -0.17986372, 70405.36, 121125.48, 0.00000000003092486, 10.001428, 9.998664 
6.051204e+2, 3.0482247e+2, 97088.98, -149852.83, -33395.355, 0.057917476, -0.082463115, 101525.516, 101525.516, 0.00000008707832, 10.001514, 9.998241 
6.0513e+2, 3.1482035e+2, 162148.27, -4338.8296, -381.70923, 0.009333319, -0.12569024, 162149.14, 162149.14, 0.0000006525611, 10.00147, 9.999262 
6.149337e+2, 1.2482211e+2, -1826603.1, -1706671.5, -9822.365, -0.12795074, -0.08974013, -1705872.4, 10861.57, 0.0000000039655865, 9.998992, 10.000528 
6.149482e+2, 1.3482217e+2, -1704468.8, -1649011.4, 12067.07, 0.27244264, -0.09917233, -1646499.5, -27765.598, 0.0, 9.999333, 10.000113 
6.149543e+2, 1.4482222e+2, -1583589.1, -1545815.4, 528.1397, -0.25836447, -0.098386586, -1545808.0, -25073.709, 0.0, 9.9995365, 10.000036 
6.149673e+2, 1.548227e+2, -1469534.8, -1437522.4, -29094.31, 0.0069053005, -0.057106562, -1420322.0, 2408.4004, 0.0, 9.999639, 10.000056 
6.1497855e+2, 1.648227e+2, -1351413.8, -1326479.5, -30064.076, 0.11217508, -0.06471321, -1306400.1, 18329.984, 0.0, 9.999761, 10.000088 
6.14988e+2, 1.7482212e+2, -1234000.1, -1217130.1, -24529.174, 0.03240528, -0.13305348, -1199626.1, 27107.426, 0.0, 9.999886, 10.000105 
6.149981e+2, 1.84822e+2, -1152100.0, -1175704.8, -20835.207, 0.003215237, -0.13535045, -1139956.5, -11222.128, 0.0, 9.999985, 9.999669 
6.150088e+2, 1.948223e+2, -1039646.0, -1069656.8, -23161.432, 0.034924768, -0.07353229, -1027054.06, 3678.1902, 0.0, 10.000079, 9.999679 
6.150193e+2, 2.0482203e+2, -924052.1, -945989.0, -16407.27, 0.04777998, -0.07396025, -915284.7, 17449.01, 0.0, 10.000127, 9.999832 
6.1502975e+2, 2.1482116e+2, -824502.75, -844814.94, -4484.493, 0.03891979, -0.14875603, -823556.75, 11182.315, 0.0, 10.000127, 9.999854 
6.1503994e+2, 2.2482046e+2, -739402.8, -827427.25, -11597.884, 0.026396843, -0.16980086, -737900.3, -1155.8898, 0.0, 10.000359, 9.999189 
6.150499e+2, 2.3481996e+2, -569800.7, -694000.94, -12231.62, 0.010583288, -0.14206786, -568607.5, 70142.46, 0.0, 10.000847, 9.999197 
6.1506e+2, 2.4481903e+2, -454486.06, -622547.44, -18007.57, 0.007023564, -0.1384881, -452578.25, 88180.945, 0.0, 10.001116, 9.998885 
6.1507016e+2, 2.548177e+2, -350233.34, -520791.78, -21028.889, 0.017219847, -0.16424161, -347678.88, 95093.0, 0.0, 10.001156, 9.998892 
6.150806e+2, 2.6481664e+2, -264302.1, -449528.78, -11227.592, 0.031021683, -0.14717531, -263624.03, 81158.76, 0.0, 10.001163, 9.998705 
6.1509115e+2, 2.7481583e+2, -171176.6, -351940.88, -9325.504, 0.046712942, -0.101279125, -170696.77, 76095.81, 0.0, 10.001121, 9.998722 
6.1510134e+2, 2.8481436e+2, -75459.875, -277673.44, -18712.006, 0.03270083, -0.10937741, -73742.92, 75064.86, 0.0, 10.001202, 9.998521 
6.151111e+2, 2.9481244e+2, 52440.793, -169494.69, -23431.03, -0.010975845, -0.15746304, 54887.57, 105713.74, 0.0000000010306047, 10.001425, 9.998484 
6.151217e+2, 3.0481145e+2, 96324.8, -149520.58, -35289.74, 0.038100496, -0.08710677, 101290.16, 101290.16, 0.00000016756015, 10.001507, 9.998247 
6.151318e+2, 3.148091e+2, 182590.55, 41528.82, 1352.5669, 0.036673676, -0.15555963, 182603.52, 182603.52, 0.000001002472, 10.001455, 9.999583 
6.2493294e+2, 1.24811e+2, -1811195.5, -1705481.5, -23283.049, -0.11206712, -0.10507872, -1700580.6, 16261.2295, 0.00000000008306351, 9.999123, 10.000473 
6.2494755e+2, 1.3481122e+2, -1700590.0, -1639832.5, 20497.125, 0.26907334, -0.106462516, -1633564.3, -14723.928, 0.0, 9.999329, 10.000177 
6.2495387e+2, 1.4481124e+2, -1591645.4, -1552231.6, 12908.884, -0.2511667, -0.10875403, -1548380.1, -27539.38, 0.0, 9.999491, 10.000014 
6.2496686e+2, 1.5481173e+2, -1467094.1, -1438062.8, -10021.001, 0.004090713, -0.067766435, -1434939.6, -12102.549, 0.0, 9.999663, 10.00004 
6.2497824e+2, 1.6481167e+2, -1347843.5, -1328781.3, -12512.005, 0.10796074, -0.07621805, -1322583.6, 2253.5957, 0.0, 9.999804, 10.0000515 
6.24988e+2, 1.7481105e+2, -1231562.8, -1220057.1, -18986.396, 0.04129752, -0.14577231, -1205971.1, 20870.164, 0.0, 9.999921, 10.000068 
6.249982e+2, 1.8481092e+2, -1147180.8, -1174998.3, -19243.82, 0.017659798, -0.1432199, -1137345.5, -8503.238, 0.0, 10.000025, 9.999655 
6.25009e+2, 1.9481134e+2, -1037003.5, -1070039.0, -18152.125, 0.0436448, -0.07091892, -1028978.7, 1861.1125, 0.0, 10.000105, 9.999664 
6.250196e+2, 2.0481114e+2, -903919.94, -929855.56, -17155.559, 0.05285731, -0.0665718, -895382.5, 37458.28, 0.0, 10.0002365, 9.99989 
6.2503004e+2, 2.1481031e+2, -775998.0, -815051.6, -24734.58, 0.04198646, -0.1425077, -764011.4, 70833.97, 0.0, 10.000433, 9.999911 
6.250404e+2, 2.2480963e+2, -706571.0, -809534.8, -32350.293, 0.024486683, -0.16658002, -697250.5, 39600.055, 0.0, 10.000575, 9.9992075 
6.2505054e+2, 2.3480909e+2, -596960.94, -705370.06, -30269.408, 0.0003132498, -0.14310555, -589081.94, 49774.63, 0.0, 10.000653, 9.999212 
6.250609e+2, 2.4480821e+2, -504617.4, -640043.1, -35986.086, 0.0027270424, -0.13771647, -495648.94, 45216.395, 0.0, 10.000743, 9.998944 
6.2507135e+2, 2.54807e+2, -392119.38, -534405.56, -28154.006, 0.032987043, -0.15741453, -386751.1, 56125.816, 0.0, 10.000839, 9.99895 
6.250818e+2, 2.6480594e+2, -295041.8, -464184.44, -13091.007, 0.050253313, -0.1422783, -294034.63, 50853.2, 0.0, 10.000951, 9.998706 
6.2509227e+2, 2.748051e+2, -177057.17, -354680.53, -13868.188, 0.052945487, -0.10386566, -175980.92, 70917.58, 0.0, 10.00108, 9.998723 
6.251025e+2, 2.8480366e+2, -67836.97, -276093.6, -12594.098, 0.03401991, -0.10569353, -67078.12, 81835.1, 0.0, 10.001263, 9.998502 
6.2511253e+2, 2.948019e+2, 60740.07, -168466.81, -8560.354, -0.0072893887, -0.13771397, 61059.336, 111989.52, 0.000000004235602, 10.001495, 9.998456 
6.251232e+2, 3.0480054e+2, 89004.55, -172186.11, -31244.69, 0.03716933, -0.09287979, 92690.16, 92690.16, 0.000000262113, 10.001538, 9.998076 
6.251333e+2, 3.14798e+2, 180216.8, 48602.086, -6663.3203, 0.04916659, -0.16317709, 180553.28, 180553.28, 0.0000013873902, 10.001403, 9.999658 
6.3493216e+2, 1.2479963e+2, -1805064.8, -1694524.4, -33725.31, -0.09883563, -0.13763326, -1685047.5, 31905.496, 0.0, 9.999128, 10.000547 
6.349468e+2, 1.3480052e+2, -1688712.5, -1615539.0, 27732.611, 0.26257107, -0.08755415, -1606216.1, 12728.137, 0.0, 9.99933, 10.000343 
6.349535e+2, 1.4480059e+2, -1586139.1, -1541080.9, 17673.248, -0.2377174, -0.09794211, -1534976.0, -14032.186, 0.0, 9.999493, 10.000091 
6.349667e+2, 1.5480053e+2, -1461756.6, -1427063.3, -3433.3586, 0.016500691, -0.11797416, -1426726.8, -3781.9978, 0.0, 9.999662, 10.000116 
6.349781e+2, 1.648006e+2, -1360663.1, -1355308.3, -8900.659, 0.10663803, -0.109298, -1348691.0, -23746.803, 0.0, 9.999803, 9.999869 
6.349878e+2, 1.748008e+2, -1244211.4, -1247082.9, -14371.91, 0.02401137, -0.08005703, -1231203.6, -4261.3545, 0.0, 9.999924, 9.999882 
6.3499814e+2, 1.8480058e+2, -1144738.8, -1169602.0, -16713.162, 0.004570165, -0.078840174, -1136340.8, -7396.315, 0.0, 10.000024, 9.999692 
6.3500917e+2, 1.9479996e+2, -1033735.2, -1063652.6, -15073.826, 0.05234557, -0.11453737, -1027457.5, 3493.2502, 0.0, 10.000106, 9.999707 
6.350199e+2, 2.0479952e+2, -917807.56, -958111.94, -10652.206, 0.061884236, -0.12642215, -915165.5, 17788.416, 0.0, 10.000234, 9.999698 
6.350304e+2, 2.1479931e+2, -789516.25, -843264.06, -17102.4, 0.031875335, -0.12087363, -784535.8, 50417.664, 0.0, 10.000433, 9.999718 
6.350408e+2, 2.2479875e+2, -703368.2, -801711.9, -29870.744, 0.014239574, -0.12552156, -695006.25, 41951.652, 0.0, 10.00057, 9.999264 
6.350513e+2, 2.347978e+2, -592808.4, -696468.6, -26914.14, 0.009930236, -0.14801362, -586237.0, 52730.47, 0.0, 10.000651, 9.999274 
6.350618e+2, 2.4479695e+2, -490808.44, -610700.0, -32672.111, 0.022661861, -0.154119, -482482.97, 58492.773, 0.0, 10.000739, 9.999147 
6.350724e+2, 2.5479618e+2, -377017.25, -503076.9, -24335.035, 0.053495876, -0.15082428, -372482.63, 70499.97, 0.0, 10.000839, 9.999165 
6.350829e+2, 2.6479518e+2, -296646.28, -467527.03, -8558.444, 0.061660025, -0.13910091, -296218.72, 48774.04, 0.0, 10.00095, 9.998684 
6.350933e+2, 2.7479404e+2, -179562.16, -359320.8, -8441.005, 0.045522436, -0.12788467, -179166.66, 67839.86, 0.0, 10.001077, 9.9986925 
6.3510376e+2, 2.8479272e+2, -61158.742, -260854.64, -4112.99, 0.030872392, -0.12279518, -61074.066, 87946.055, 0.0, 10.001257, 9.99861 
6.351143e+2, 2.9479137e+2, 67357.24, -152789.25, 168.7353, 0.018212989, -0.11914332, 67357.37, 118389.555, 0.000000008608103, 10.001487, 9.998569 
6.351249e+2, 3.0478972e+2, 64954.95, -220661.19, -36551.797, 0.054260142, -0.09601372, 69558.48, 69558.48, 0.00000035003856, 10.001532, 9.997747 
6.3513464e+2, 3.1478706e+2, 169451.61, 26907.254, -8643.606, 0.041129567, -0.14982753, 169973.83, 169973.83, 0.0000017531552, 10.001399, 9.999511 
6.449312e+2, 1.2478857e+2, -1827331.6, -1712146.5, -39212.188, -0.09900836, -0.13169427, -1700064.8, 16996.26, 0.0, 9.999003, 10.000487 
6.449462e+2, 1.3478936e+2, -1669695.4, -1599697.4, 25931.895, 0.26698813, -0.09557357, -1591137.4, 27915.701, 0.0, 9.999434, 10.000401 
6.449533e+2, 1.4478944e+2, -1563082.9, -1525189.9, 4007.7156, -0.20913844, -0.11012977, -1524770.6, -3718.3093, 0.0, 9.999631, 10.000133 
6.449663e+2, 1.5478949e+2, -1457023.6, -1420049.9, -20885.654, 0.015526825, -0.12483791, -1410644.5, 12407.605, 0.0, 9.999676, 10.000158 
6.4497775e+2, 1.6478963e+2, -1366900.0, -1363546.6, -20703.451, 0.09397301, -0.10987976, -1344452.1, -19400.979, 0.0, 9.999782, 9.999824 
6.449877e+2, 1.7478983e+2, -1245738.8, -1253215.6, -16834.906, 0.02305425, -0.07431589, -1232232.1, -5182.757, 0.0, 9.999936, 9.999833 
6.4499825e+2, 1.8478955e+2, -1136034.9, -1165609.5, -15541.735, 0.009292477, -0.0758486, -1129369.6, -317.65265, 0.0, 10.000085, 9.99969 
6.4500934e+2, 1.9478881e+2, -1014646.9, -1054371.3, -18088.928, 0.053438954, -0.12241752, -1007644.3, 23414.635, 0.0, 10.000238, 9.999706 
6.450202e+2, 2.0478827e+2, -904576.2, -966979.75, -10695.943, 0.061543897, -0.13915779, -902793.8, 30269.404, 0.0, 10.000391, 9.99956 
6.4503086e+2, 2.1478792e+2, -784797.4, -857013.56, -13981.806, 0.03265446, -0.13320439, -782184.8, 52879.953, 0.0, 10.000534, 9.999574 
6.450415e+2, 2.2478735e+2, -699200.2, -794703.8, -30500.453, 0.020655053, -0.13254583, -690290.6, 46778.895, 0.0, 10.000577, 9.999309 
6.450521e+2, 2.3478657e+2, -610238.6, -699548.0, -29959.928, 0.025816385, -0.14419487, -601119.4, 37958.19, 0.0, 10.000509, 9.999321 
6.4506257e+2, 2.4478577e+2, -508565.97, -608213.1, -34228.305, 0.034756962, -0.15191959, -497941.53, 43143.617, 0.0, 10.00057, 9.999246 
6.450731e+2, 2.5478494e+2, -380746.1, -493785.06, -34666.3, 0.047136363, -0.1637366, -370961.7, 72130.55, 0.0, 10.000766, 9.999264 
6.4508367e+2, 2.64784e+2, -290790.63, -464446.8, -20659.426, 0.049772523, -0.15298031, -288366.66, 56735.32, 0.0, 10.000991, 9.998685 
6.4509434e+2, 2.74783e+2, -155886.61, -347860.63, -19615.648, 0.042188354, -0.12683809, -153902.81, 93211.81, 0.0, 10.001241, 9.998692 
6.451051e+2, 2.8478175e+2, -54308.83, -256141.36, -22693.422, 0.036114696, -0.111608475, -51788.72, 97338.66, 0.0, 10.001298, 9.998622 
6.4511573e+2, 2.947805e+2, 17784.959, -175148.69, -26526.15, 0.03234021, -0.10706958, 21365.547, 72504.84, 0.000000011710588, 10.00114, 9.998581 
6.451264e+2, 3.0477852e+2, 21454.889, -247192.2, -51204.36, 0.06288434, -0.11419012, 30883.564, 30883.564, 0.00000040808163, 10.001255, 9.997698 
6.451363e+2, 3.147762e+2, 213060.6, 48463.707, -3195.06, 0.052129988, -0.12207882, 213122.58, 213122.58, 0.0000020409286, 10.001696, 9.9995165 
6.549301e+2, 1.2477787e+2, -1839772.4, -1740258.4, -37170.934, -0.111287594, -0.08620567, -1727907.1, -10741.36, 0.0, 9.999012, 10.000291 
6.549458e+2, 1.347778e+2, -1674420.1, -1608931.9, 40788.156, 0.27836293, -0.13099289, -1589370.6, 29795.627, 0.0, 9.999432, 10.0003395 
6.5495336e+2, 1.4477783e+2, -1563127.8, -1524614.5, 3655.8345, -0.16892299, -0.14710124, -1524270.6, -3104.515, 0.0, 9.999628, 10.000138 
6.549658e+2, 1.5477861e+2, -1456416.1, -1419649.5, -18920.182, -0.0014276383, -0.08841676, -1411652.5, 11506.501, 0.0, 9.999679, 10.00016 
6.5497726e+2, 1.6477875e+2, -1360962.8, -1351544.4, -15724.91, 0.06700744, -0.07728828, -1339838.6, -14681.033, 0.0, 9.999783, 9.999906 
6.549878e+2, 1.7477816e+2, -1239618.3, -1240854.9, -11150.76, 0.036420304, -0.12859659, -1229068.6, -1906.1077, 0.0, 9.999937, 9.999918 
6.5499854e+2, 1.8477787e+2, -1139743.3, -1172441.3, -10709.378, 0.028810877, -0.13470167, -1136548.0, -7382.946, 0.0, 10.000081, 9.999645 
6.550095e+2, 1.9477792e+2, -1018030.2, -1061448.9, -12198.463, 0.045619972, -0.09678604, -1014837.75, 16326.655, 0.0, 10.000238, 9.999658 
6.5502053e+2, 2.0477739e+2, -911546.3, -980409.44, -5759.9937, 0.05021226, -0.106956005, -911067.9, 22101.021, 0.0, 10.000387, 9.999471 
6.550315e+2, 2.1477617e+2, -791399.25, -870527.3, -8289.439, 0.04256882, -0.17874265, -790540.2, 44638.89, 0.0, 10.000533, 9.999482 
6.5504223e+2, 2.2477548e+2, -697907.5, -791198.3, -33476.19, 0.041042153, -0.18631403, -687138.2, 50046.97, 0.0, 10.000573, 9.999334 
6.550527e+2, 2.347754e+2, -607750.44, -695035.25, -32256.191, 0.04674456, -0.13233301, -597123.9, 42062.848, 0.0, 10.000511, 9.999351 
6.5506315e+2, 2.4477467e+2, -509680.28, -610251.8, -27451.97, 0.03742683, -0.13211964, -502674.94, 38518.605, 0.0, 10.000568, 9.999232 
6.5507346e+2, 2.547733e+2, -381938.94, -495495.1, -26889.615, 0.012283786, -0.19700931, -375893.44, 67312.375, 0.0, 10.000763, 9.999254 
6.550844e+2, 2.647724e+2, -290300.06, -462446.8, -11491.909, 0.013224756, -0.18546979, -289536.3, 55679.227, 0.0, 10.000986, 9.998701 
6.5509564e+2, 2.7477196e+2, -155306.4, -345415.03, -9669.391, 0.041441094, -0.100260936, -154815.86, 92406.8, 0.0, 10.001235, 9.998711 
6.551065e+2, 2.8477088e+2, -60751.684, -268453.2, -28433.865, 0.04780363, -0.06948935, -56929.492, 92305.14, 0.0, 10.001293, 9.99854 
6.5511686e+2, 2.9476914e+2, 11819.146, -186954.14, -32081.758, 0.03207961, -0.10147382, 16868.818, 68120.15, 0.000000011654482, 10.001137, 9.998502 
6.5512764e+2, 3.047668e+2, 35833.098, -215696.23, -35390.85, 0.060052663, -0.15000354, 40717.82, 40717.82, 0.00000041978168, 10.001248, 9.997917 
6.5513825e+2, 3.1476548e+2, 221393.16, 69887.44, 14856.618, 0.07769164, -0.08451302, 222836.25, 222836.25, 0.000002202322, 10.0016775, 9.999672 
6.6492957e+2, 1.2476662e+2, -1775852.6, -1732094.6, -35977.82, -0.093637, -0.09658371, -1711865.5, 5409.47, 0.0, 9.999547, 10.000091 
6.649451e+2, 1.3476649e+2, -1651609.1, -1609014.5, 46878.27, 0.26069632, -0.1360301, -1578822.5, 40454.332, 0.0, 9.999639, 10.000237 
6.649531e+2, 1.4476655e+2, -1557703.1, -1523262.1, 1942.5668, -0.15955272, -0.14418064, -1523152.9, -1876.1891, 0.0, 9.999671, 10.000127 
6.649656e+2, 1.547673e+2, -1448482.4, -1416758.3, -21556.227, 0.0087026935, -0.086820535, -1405857.0, 17412.463, 0.0, 9.999738, 10.000152 
6.6497713e+2, 1.6476738e+2, -1346437.9, -1340941.1, -15570.084, 0.073388, -0.083040096, -1327878.8, -2610.4448, 0.0, 9.999868, 9.999936 
6.649878e+2, 1.7476669e+2, -1218344.8, -1226842.4, -16220.6, 0.036984235, -0.14807776, -1205825.8, 21448.105, 0.0, 10.00007, 9.999949 
6.6499865e+2, 1.8476635e+2, -1121720.1, -1168732.6, -18658.527, 0.02627616, -0.15796262, -1115215.0, 14061.619, 0.0, 10.000228, 9.9995985 
6.6500974e+2, 1.9476642e+2, -1006968.1, -1061943.6, -21591.03, 0.04080657, -0.11396913, -999502.3, 31773.674, 0.0, 10.0003395, 9.999606 
6.650208e+2, 2.0476593e+2, -911571.56, -978278.1, -13739.274, 0.044727564, -0.11700158, -908852.56, 24427.615, 0.0, 10.000378, 9.99949 
6.6503185e+2, 2.1476483e+2, -817886.9, -880179.2, -8646.64, 0.037887298, -0.17905007, -816708.94, 18580.572, 0.0, 10.00034, 9.999507 
6.650427e+2, 2.2476414e+2, -720842.6, -803520.56, -29220.201, 0.039175704, -0.18805124, -711558.2, 25737.525, 0.0, 10.000422, 9.999322 
6.6505337e+2, 2.3476389e+2, -591289.4, -688711.7, -31764.492, 0.048852816, -0.14873868, -581847.6, 57451.074, 0.0, 10.000631, 9.999336 
6.6506386e+2, 2.4476318e+2, -485062.75, -606929.7, -28147.742, 0.03906864, -0.14244172, -478875.56, 62430.02, 0.0, 10.000774, 9.999156 
6.650743e+2, 2.54762e+2, -375905.16, -501341.72, -33684.53, 0.008560573, -0.17923194, -367431.94, 75884.59, 0.0, 10.000842, 9.999175 
6.650852e+2, 2.6476106e+2, -305315.44, -463729.0, -20230.318, 0.009926037, -0.17154363, -302772.72, 42553.957, 0.0, 10.000857, 9.998753 
6.650967e+2, 2.747603e+2, -213143.94, -366915.75, -16247.13, 0.044948686, -0.12397475, -211446.06, 35889.92, 0.0, 10.000811, 9.998767 
6.6510767e+2, 2.8475925e+2, -109488.38, -296743.72, -30235.822, 0.051399577, -0.09068787, -104727.305, 44620.316, 0.0, 10.000981, 9.998495 
6.651181e+2, 2.947579e+2, 46846.098, -174587.9, -32849.23, 0.027026305, -0.0796386, 51616.438, 102978.02, 0.000000008469742, 10.001399, 9.99846 
6.651289e+2, 3.047554e+2, 80223.36, -173177.61, -38612.113, 0.054277346, -0.15260532, 85976.29, 85976.29, 0.00000038345433, 10.001464, 9.998104 
6.651399e+2, 3.1475416e+2, 142273.31, 35828.543, 8498.801, 0.105413795, -0.09704545, 142947.61, 142947.61, 0.0000022156387, 10.001117, 9.999707 
6.749296e+2, 1.2475481e+2, -1789652.4, -1762270.0, -45230.266, -0.045763902, -0.16777018, -1728704.1, -11315.569, 0.0, 9.999551, 9.999883 
6.749443e+2, 1.3475549e+2, -1660641.6, -1629450.3, 49445.375, 0.20990343, -0.11036066, -1593199.4, 26184.986, 0.0, 9.999646, 10.000093 
6.749525e+2, 1.4475565e+2, -1559049.8, -1527619.3, 2161.3037, -0.1844371, -0.100292064, -1527471.4, -6087.6563, 0.0, 9.999677, 10.000094 
6.749657e+2, 1.547556e+2, -1450347.6, -1420672.0, -19074.771, 0.042676043, -0.121150345, -1411343.5, 12039.634, 0.0, 9.999737, 10.000126 
6.7497736e+2, 1.6475552e+2, -1348875.8, -1344387.1, -8891.337, 0.109510645, -0.12882687, -1337461.3, -12078.37, 0.0, 9.999862, 9.999915 
6.7498773e+2, 1.7475542e+2, -1219814.9, -1229861.8, -8246.793, 0.023374973, -0.13365039, -1215182.0, 12201.023, 0.0, 10.000069, 9.999929 
6.749986e+2, 1.8475503e+2, -1126222.9, -1177830.0, -14964.319, -0.0003003332, -0.14608963, -1122197.6, 7188.8354, 0.0, 10.000227, 9.999537 
6.7501e+2, 1.947543e+2, -1011831.44, -1071613.3, -17472.82, 0.037104744, -0.17311822, -1007099.1, 24294.422, 0.0, 10.000337, 9.999541 
6.750212e+2, 2.0475392e+2, -903143.7, -959773.75, -15802.599, 0.04262318, -0.16861798, -899032.44, 34364.465, 0.0, 10.000373, 9.999619 
6.7503196e+2, 2.1475391e+2, -808358.8, -860457.1, -9970.787, 0.017425204, -0.13626899, -806515.75, 28880.346, 0.0, 10.0003395, 9.999643 
6.750429e+2, 2.247533e+2, -724556.94, -810775.06, -22071.955, 0.013200946, -0.14013065, -719235.0, 18166.332, 0.0, 10.00042, 9.999273 
6.750538e+2, 2.3475209e+2, -595247.4, -696635.8, -23465.164, 0.031708244, -0.19313617, -590080.0, 49333.277, 0.0, 10.000629, 9.999283 
6.750646e+2, 2.4475133e+2, -495314.88, -627994.06, -25853.447, 0.038333103, -0.18300931, -490455.16, 50965.945, 0.0, 10.000773, 9.999012 
6.7507535e+2, 2.547511e+2, -386180.25, -522970.1, -30817.457, 0.032604534, -0.11134398, -379557.97, 63866.37, 0.0, 10.000843, 9.999026 
6.750863e+2, 2.6475e+2, -299493.28, -451486.28, -22111.643, 0.035984688, -0.1109219, -296341.88, 49093.39, 0.0, 10.000857, 9.998837 
6.750975e+2, 2.7474803e+2, -206908.28, -353283.56, -17619.037, 0.05071225, -0.19688223, -204817.36, 42637.07, 0.0, 10.000808, 9.998862 
6.7510855e+2, 2.8474692e+2, -111022.37, -298961.28, -15237.507, 0.04582047, -0.17519921, -109794.98, 39671.324, 0.0, 10.000977, 9.998482 
6.751194e+2, 2.9474673e+2, 44143.49, -177854.97, -16465.453, 0.015125361, -0.042413767, 45358.074, 96828.2, 0.0000000040864183, 10.001389, 9.998442 
6.7513025e+2, 3.0474427e+2, 90418.19, -149953.56, -50985.18, 0.043437175, -0.12196952, 100785.49, 100785.49, 0.0000003121116, 10.001455, 9.998268 
6.751412e+2, 3.147423e+2, 137051.5, 25812.03, -3671.4683, 0.12968704, -0.15111606, 137172.55, 137172.55, 0.0000020914758, 10.001114, 9.9996395 
6.849293e+2, 1.2474333e+2, -1815831.0, -1789263.6, -52462.438, -0.02319969, -0.18966126, -1748429.3, -30929.611, 0.0, 9.999435, 9.999753 
6.849438e+2, 1.3474412e+2, -1628917.0, -1621267.1, 54206.99, 0.18568996, -0.11400289, -1570750.3, 48744.715, 0.0, 9.999898, 10.000028 
6.849524e+2, 1.4474428e+2, -1507665.3, -1508475.5, -243.43263, -0.18534887, -0.097343095, -1507597.8, 13896.64, 0.0, 10.000055, 10.000042 
6.849655e+2, 1.5474391e+2, -1417029.6, -1410310.4, -23814.31, 0.038939454, -0.14442398, -1389619.9, 33876.543, 0.0, 9.999992, 10.0000725 
6.8497723e+2, 1.6474375e+2, -1334583.9, -1348440.1, -10769.581, 0.10624044, -0.15485182, -1328706.5, -3209.4634, 0.0, 10.000009, 9.999816 
6.8498784e+2, 1.7474376e+2, -1221791.6, -1242190.9, -17738.988, 0.027948925, -0.1371203, -1211529.0, 15967.449, 0.0, 10.000105, 9.999826 
6.8499875e+2, 1.8474337e+2, -1137276.9, -1182642.6, -28345.705, 0.0030678965, -0.14359705, -1123655.6, 5844.4287, 0.0, 10.000149, 9.999541 
6.850102e+2, 1.9474256e+2, -1038023.7, -1082111.1, -25333.64, 0.026628345, -0.18266018, -1026485.9, 5022.1445, 0.0, 10.000151, 9.999557 
6.8502134e+2, 2.0474218e+2, -919290.7, -964158.75, -22135.707, 0.029951038, -0.17983687, -910208.44, 23302.896, 0.0, 10.000249, 9.999647 
6.8503237e+2, 2.1474226e+2, -789258.8, -848345.56, -25408.254, 0.014711521, -0.13821557, -779835.7, 55673.85, 0.0, 10.000458, 9.99967 
6.8504333e+2, 2.2474173e+2, -701905.8, -798753.44, -38061.195, 0.010190622, -0.13960713, -688738.06, 48776.164, 0.0, 10.00057, 9.999284 
6.8505424e+2, 2.3474047e+2, -601702.7, -697801.4, -35708.773, 0.017029876, -0.19717081, -589886.7, 49639.46, 0.0, 10.000578, 9.999299 
6.8506527e+2, 2.4473964e+2, -516384.38, -647882.06, -31821.918, 0.02876947, -0.18988594, -509088.4, 32446.164, 0.0, 10.000671, 9.998924 
6.8507636e+2, 2.5473928e+2, -390052.06, -534613.5, -32840.89, 0.04571191, -0.120076016, -382941.2, 60598.008, 0.0, 10.000859, 9.998938 
6.850874e+2, 2.6473814e+2, -277273.78, -439092.4, -27292.357, 0.05107806, -0.123507835, -272794.63, 72756.055, 0.0, 10.001003, 9.998852 
6.8509847e+2, 2.747361e+2, -162761.33, -330152.97, -29687.443, 0.045805503, -0.21566796, -157652.11, 89917.48, 0.0, 10.001103, 9.9988785 
6.8510956e+2, 2.84735e+2, -93793.164, -293925.94, -26044.271, 0.038391385, -0.19489238, -90459.42, 59122.035, 0.0, 10.001109, 9.998452 
6.8512064e+2, 2.947348e+2, -13852.649, -208291.5, -28486.438, 0.024116166, -0.05879742, -9765.146, 41820.605, 0.0000000009738006, 10.001001, 9.998419 
6.851316e+2, 3.0473235e+2, 52426.363, -144976.47, -65742.62, 0.04815261, -0.14379328, 72316.94, 72316.94, 0.00000022618863, 10.001094, 9.998476 
6.851425e+2, 3.147307e+2, 176787.56, 39109.99, -18247.428, 0.12975818, -0.16358846, 179164.97, 179164.97, 0.0000018666766, 10.001412, 9.999586 
6.9492877e+2, 1.24732204e+2, -1819563.6, -1799850.4, -41855.75, -0.026879651, -0.16417888, -1766706.3, -49098.547, 0.0, 9.999446, 9.999677 
6.9494367e+2, 1.3473241e+2, -1629246.6, -1620664.1, 70268.31, 0.18432954, -0.14865147, -1554556.1, 65052.473, 0.0, 9.999893, 10.000033 
6.949526e+2, 1.4473246e+2, -1513295.9, -1518669.6, -3822.0283, -0.16568081, -0.13817509, -1511310.8, 10297.868, 0.0, 10.00005, 9.999975 
6.9496506e+2, 1.5473232e+2, -1421032.5, -1420071.6, -24984.316, -0.0047836197, -0.15702677, -1395563.1, 28045.379, 0.0, 9.999998, 10.000003 
6.949768e+2, 1.6473207e+2, -1348503.0, -1377858.0, -8093.679, 0.060268253, -0.16101345, -1346419.4, -20809.172, 0.0, 10.0000105, 9.999613 
6.949881e+2, 1.7473173e+2, -1236909.4, -1272516.4, -14428.071, 0.04731321, -0.15825689, -1231797.1, -4183.196, 0.0, 10.0001, 9.999621 
6.949993e+2, 1.8473142e+2, -1131968.0, -1170162.4, -28942.125, 0.03281332, -0.15070754, -1116390.3, 13226.82, 0.0, 10.000142, 9.99963 
6.950101e+2, 1.9473116e+2, -1031431.25, -1068076.0, -24942.078, 0.008750143, -0.14429834, -1018805.0, 12814.375, 0.0, 10.000149, 9.999655 
6.950214e+2, 2.0473069e+2, -924865.25, -975636.0, -15160.701, 0.0053709405, -0.1519397, -920682.7, 12940.7, 0.0, 10.000248, 9.999569 
6.9503295e+2, 2.1472996e+2, -795926.56, -861330.4, -17412.4, 0.027636247, -0.18347158, -791579.8, 44049.61, 0.0, 10.000453, 9.999583 
6.9504404e+2, 2.247294e+2, -697180.44, -788317.0, -38108.48, 0.027585125, -0.18529904, -683345.6, 54288.516, 0.0, 10.000567, 9.999357 
6.950547e+2, 2.3472904e+2, -596327.5, -687022.5, -35234.684, 0.002922139, -0.1617368, -584247.9, 55389.52, 0.0, 10.000579, 9.999373 
6.9506574e+2, 2.4472813e+2, -517822.5, -651096.3, -25336.148, 0.008212352, -0.16374902, -513168.47, 28477.576, 0.0, 10.000672, 9.998902 
6.950772e+2, 2.5472668e+2, -392237.84, -538374.9, -25375.08, 0.04720931, -0.20358747, -387957.16, 55703.67, 0.0, 10.000855, 9.998914 
6.9508845e+2, 2.6472548e+2, -281887.63, -447685.44, -23581.016, 0.05466036, -0.20878264, -278599.0, 67073.79, 0.0, 10.000999, 9.998795 
6.9509935e+2, 2.7472454e+2, -168009.8, -340078.75, -25377.29, 0.027902205, -0.18213452, -164345.13, 83336.36, 0.0, 10.0011, 9.998812 
6.9511056e+2, 2.847235e+2, -97132.7, -300083.84, -29946.244, 0.026057275, -0.15128767, -92806.24, 56886.84, 0.0, 10.001106, 9.998411 
6.951219e+2, 2.9472217e+2, -16445.23, -212483.23, -31750.799, 0.050527368, -0.12659383, -11431.043, 40277.07, 0.000000000021633938, 10.000997, 9.998393 
6.951328e+2, 3.0471978e+2, 68791.92, -109351.19, -54577.258, 0.066251315, -0.2163538, 84182.89, 84182.89, 0.00000014519733, 10.001087, 9.998724 
6.9514364e+2, 3.1471944e+2, 171336.95, 31317.115, -6843.9395, 0.10106261, -0.12860025, 171670.67, 171670.67, 0.0000015881137, 10.001398, 9.999539 
7.0492834e+2, 1.2472053e+2, -1739929.1, -1761844.3, -68984.8, -0.03850988, -0.1565705, -1681037.0, 36685.29, 0.0, 9.999993, 9.999673 
7.0494336e+2, 1.347206e+2, -1648748.9, -1624360.9, 47734.195, 0.17726241, -0.15833803, -1587287.8, 32436.027, 0.0, 9.999738, 10.000081 
7.0495284e+2, 1.4472069e+2, -1554507.4, -1548660.4, -18130.395, -0.13811854, -0.14376307, -1533219.3, -11495.772, 0.0, 9.999811, 9.999884 
7.049651e+2, 1.5472046e+2, -1372094.5, -1407534.8, -41230.56, -0.019387256, -0.15998429, -1344937.4, 78787.09, 0.0, 10.000382, 9.999904 
7.049768e+2, 1.6472018e+2, -1271262.5, -1339326.0, -30704.143, 0.032659665, -0.16285686, -1259458.6, 66267.98, 0.0, 10.000536, 9.999624 
7.049882e+2, 1.7471986e+2, -1218399.1, -1260991.0, -20955.268, 0.038466405, -0.16096559, -1209818.0, 17912.172, 0.0, 10.000218, 9.999641 
7.0499945e+2, 1.8471955e+2, -1124626.1, -1165797.9, -18877.723, 0.03458805, -0.1540846, -1117280.9, 12452.073, 0.0, 10.000191, 9.999636 
7.050105e+2, 1.9471927e+2, -981766.2, -1044357.75, -23332.232, 0.011355336, -0.14880507, -974025.8, 57709.082, 0.0, 10.000489, 9.999654 
7.0502174e+2, 2.0471872e+2, -889224.94, -964710.1, -22529.203, 0.005214694, -0.16134904, -883012.25, 50727.316, 0.0, 10.000519, 9.999515 
7.050332e+2, 2.1471785e+2, -828512.0, -882467.4, -23326.928, 0.020989854, -0.20254868, -819825.44, 15921.877, 0.0, 10.000255, 9.999533 
7.050445e+2, 2.2471727e+2, -734347.1, -800768.4, -34303.156, 0.0247168, -0.20646255, -719812.06, 17940.104, 0.0, 10.000289, 9.999405 
7.050554e+2, 2.3471701e+2, -580744.6, -673796.0, -33677.9, 0.014289063, -0.17573276, -569834.8, 69918.83, 0.0, 10.000662, 9.999425 
7.0506656e+2, 2.4471612e+2, -490551.75, -638090.3, -26744.908, 0.018705925, -0.18049198, -485853.25, 55908.793, 0.0, 10.00086, 9.9989 
7.05078e+2, 2.5471452e+2, -390047.2, -537636.5, -26524.352, 0.04015389, -0.23380388, -385425.06, 58353.086, 0.0, 10.000872, 9.998911 
7.050892e+2, 2.6471332e+2, -295656.34, -460912.6, -23259.084, 0.042455688, -0.23622051, -292445.13, 53345.13, 0.0, 10.000933, 9.998736 
7.051004e+2, 2.7471256e+2, -180021.17, -352078.84, -25170.834, 0.02433531, -0.18921243, -176414.47, 71383.43, 0.0, 10.001044, 9.998756 
7.051116e+2, 2.8471145e+2, -102223.266, -297680.97, -33065.777, 0.03088209, -0.15828452, -96781.03, 53028.47, 0.0, 10.001051, 9.998455 
7.05123e+2, 2.9470995e+2, -19067.053, -208109.55, -29832.209, 0.06372396, -0.15454727, -14471.0625, 37354.582, 0.0, 10.000954, 9.998444 
7.051339e+2, 3.0470777e+2, 66225.54, -110917.13, -42531.54, 0.068670325, -0.23050295, 75908.02, 75908.02, 0.00000008201181, 10.001071, 9.998721 
7.051449e+2, 3.1470743e+2, 153680.75, -5523.887, -16769.477, 0.09025852, -0.14301269, 155427.95, 155427.95, 0.0000012936833, 10.001398, 9.999288 
7.149281e+2, 1.2470827e+2, -1734003.8, -1751260.0, -82719.266, -0.061004076, -0.17167228, -1659463.9, 58379.637, 0.0, 9.999999, 9.999745 
7.1494293e+2, 1.3470876e+2, -1640309.0, -1608865.4, 37711.664, 0.1606467, -0.14275128, -1583729.5, 36110.72, 0.0, 9.999745, 10.000184 
7.1495295e+2, 1.4470898e+2, -1564187.8, -1568911.6, 277.76556, -0.10682215, -0.113611236, -1564171.4, -42332.805, 0.0, 9.999813, 9.999743 
7.149656e+2, 1.5470836e+2, -1383105.6, -1429412.1, -19539.105, -0.007994426, -0.15336823, -1375962.8, 47881.3, 0.0, 10.000378, 9.999755 
7.149772e+2, 1.6470808e+2, -1254530.9, -1303618.5, -41941.695, 0.020172823, -0.16155626, -1230479.4, 95366.84, 0.0, 10.000531, 9.999871 
7.1498805e+2, 1.7470814e+2, -1199919.8, -1223234.9, -32199.771, 0.00022216134, -0.14596497, -1177332.3, 50512.46, 0.0, 10.000221, 9.9999 
7.149993e+2, 1.8470776e+2, -1131563.6, -1179979.8, -8856.986, 0.006041412, -0.15420878, -1129994.3, -146.92262, 0.0, 10.00019, 9.999539 
7.150112e+2, 1.9470693e+2, -990200.25, -1060606.4, -12017.488, 0.03145346, -0.19471762, -988205.5, 43648.83, 0.0, 10.0004835, 9.999545 
7.1502244e+2, 2.0470631e+2, -891500.56, -968659.4, -32640.525, 0.027069807, -0.20696025, -879545.06, 54314.613, 0.0, 10.000515, 9.99949 
7.150332e+2, 2.1470593e+2, -830153.25, -885982.75, -33216.22, -0.00607463, -0.19647367, -814679.6, 21183.588, 0.0, 10.000255, 9.99951 
7.150445e+2, 2.2470532e+2, -731498.2, -795395.56, -21676.68, 0.00016621946, -0.20369786, -724838.6, 13029.547, 0.0, 10.000291, 9.999441 
7.150564e+2, 2.3470445e+2, -578912.25, -669103.2, -19251.986, 0.04919021, -0.2379177, -574974.6, 64900.047, 0.0, 10.000657, 9.999459 
7.150678e+2, 2.4470364e+2, -490301.9, -636619.94, -26271.445, 0.058028337, -0.23918329, -485727.84, 56154.465, 0.0, 10.000856, 9.998913 
7.1507865e+2, 2.5470284e+2, -389618.53, -536833.2, -25783.229, 0.02272349, -0.21169977, -385233.44, 58657.727, 0.0, 10.000873, 9.998917 
7.150899e+2, 2.6470166e+2, -298861.75, -467935.22, -19362.84, 0.012852659, -0.20713545, -296672.6, 49230.6, 0.0, 10.000934, 9.998688 
7.151015e+2, 2.747001e+2, -184057.08, -359128.34, -20522.023, 0.03259394, -0.23598386, -181683.64, 66234.984, 0.0, 10.001039, 9.998712 
7.1511286e+2, 2.8469893e+2, -94743.06, -280522.75, -36782.234, 0.05031011, -0.21472369, -87725.67, 62204.86, 0.0, 10.001044, 9.998576 
7.1512395e+2, 2.9469827e+2, -10832.654, -190107.83, -32530.723, 0.06193925, -0.14366382, -5112.259, 46826.184, 0.0, 10.00095, 9.998569 
7.151348e+2, 3.0469632e+2, 49374.992, -145798.19, -30565.617, 0.053810224, -0.18829067, 54049.83, 54049.83, 0.00000004119849, 10.001069, 9.998483 
7.151463e+2, 3.1469476e+2, 120315.266, -72476.53, -4920.7266, 0.09019898, -0.19455557, 120440.78, 120440.78, 0.0000010048329, 10.001388, 9.998834 
7.2492814e+2, 1.2469644e+2, -1758955.6, -1775027.3, -69504.67, -0.051644623, -0.15784304, -1697023.9, 20936.285, 0.0, 9.999875, 9.999641 
7.2494274e+2, 1.3469669e+2, -1555672.9, -1577678.9, 36142.887, 0.1361662, -0.14327155, -1528895.3, 91063.74, 0.0, 10.00037, 10.000095 
7.249531e+2, 1.4469695e+2, -1480416.8, -1514781.1, -1204.0598, -0.097528316, -0.11185826, -1480374.6, 41582.0, 0.0, 10.000329, 9.999866 
7.2496575e+2, 1.5469642e+2, -1459256.3, -1451740.3, 204.28265, 0.0023779476, -0.1543328, -1451734.8, -27774.152, 0.0, 9.999795, 9.999882 
7.2497743e+2, 1.646962e+2, -1358018.0, -1356774.8, -14280.11, 0.025225274, -0.16343558, -1343102.8, -17140.709, 0.0, 9.999835, 9.999842 
7.2498834e+2, 1.7469622e+2, -1157331.5, -1207241.8, -28017.334, -0.0062869177, -0.14680952, -1144766.9, 83194.33, 0.0, 10.000531, 9.999861 
7.2499967e+2, 1.846958e+2, -1058215.1, -1143503.9, -21479.635, -0.0031564848, -0.15972692, -1053111.0, 76853.36, 0.0, 10.000688, 9.99955 
7.2501147e+2, 1.9469486e+2, -1024596.44, -1075043.3, -15862.447, 0.027892135, -0.2122765, -1020023.25, 11948.617, 0.0, 10.00024, 9.999562 
7.2502285e+2, 2.0469423e+2, -934820.5, -995665.5, -24076.842, 0.027918734, -0.22227457, -926445.8, 7531.282, 0.0, 10.000245, 9.999434 
7.2503376e+2, 2.14694e+2, -760540.5, -859064.7, -27970.494, -0.0025548663, -0.19274203, -753153.7, 82826.15, 0.0, 10.00076, 9.999452 
7.2504514e+2, 2.2469336e+2, -644998.7, -752197.1, -21909.225, 0.00590665, -0.20047174, -640693.75, 97291.375, 0.0, 10.000878, 9.999455 
7.2505707e+2, 2.3469228e+2, -591896.44, -673230.94, -22134.863, 0.056958485, -0.25837892, -586262.75, 53730.555, 0.0, 10.000559, 9.999478 
7.250686e+2, 2.4469143e+2, -533815.6, -657940.6, -23450.512, 0.0650225, -0.2604257, -529532.94, 12467.79, 0.0, 10.000558, 9.998911 
7.250796e+2, 2.5469092e+2, -383338.7, -533718.0, -23799.082, 0.025394155, -0.20738237, -379662.13, 64345.17, 0.0, 10.000916, 9.998918 
7.2509086e+2, 2.6468974e+2, -285070.88, -456902.94, -22415.57, 0.015246741, -0.20173049, -282194.88, 63824.18, 0.0, 10.00101, 9.998727 
7.251025e+2, 2.7468795e+2, -213324.86, -368954.28, -18427.533, 0.0394923, -0.2574574, -211172.69, 36863.91, 0.0, 10.000818, 9.998751 
7.2511387e+2, 2.8468677e+2, -117939.7, -290608.5, -28492.08, 0.054503586, -0.24369472, -113359.7, 36689.113, 0.0, 10.000879, 9.998587 
7.2512496e+2, 2.9468626e+2, 30278.516, -169000.39, -32792.047, 0.05464715, -0.1565013, 35535.863, 87590.766, 0.0, 10.001226, 9.998581 
7.251359e+2, 3.0468467e+2, 91411.68, -127734.21, -27303.203, 0.041561536, -0.16642115, 94762.14, 94762.14, 0.000000018939705, 10.0013685, 9.998463 
7.251477e+2, 3.146826e+2, 94161.91, -99475.49, 11255.708, 0.09596061, -0.22100215, 94813.98, 94813.98, 0.0000007295325, 10.001269, 9.998705 
7.349284e+2, 1.2468504e+2, -1780328.3, -1819026.6, -51980.76, -0.015708407, -0.115906015, -1744212.1, -26140.324, 0.0, 9.999873, 9.999342 
7.3494273e+2, 1.346844e+2, -1576005.3, -1619714.9, 53777.797, 0.10088024, -0.16051835, -1539811.1, 80268.91, 0.0, 10.00037, 9.999806 
7.349532e+2, 1.446846e+2, -1451657.9, -1455491.9, -21611.684, -0.114113525, -0.14049555, -1431878.4, 90199.195, 0.0, 10.00033, 10.000272 
7.349656e+2, 1.546847e+2, -1429086.8, -1390417.5, -18924.008, 0.008731965, -0.16367458, -1382697.6, 41375.996, 0.0, 9.999799, 10.000301 
7.349775e+2, 1.6468455e+2, -1381406.0, -1404897.8, 10075.381, 0.044363055, -0.16906314, -1377676.8, -51602.8, 0.0, 9.999834, 9.999513 
7.3498905e+2, 1.7468414e+2, -1182337.0, -1258539.4, -1629.2467, 0.016993565, -0.16251326, -1182302.1, 45777.168, 0.0, 10.000528, 9.99951 
7.3500043e+2, 1.8468364e+2, -1049374.5, -1124725.9, -37707.086, 0.0049586925, -0.17048982, -1033746.56, 96337.266, 0.0, 10.000686, 9.9996805 
7.350114e+2, 1.9468305e+2, -1014372.44, -1053979.1, -32750.525, -0.00055248855, -0.20234847, -995903.44, 36183.934, 0.0, 10.00024, 9.999707 
7.3502284e+2, 2.0468251e+2, -940910.0, -1008040.44, -6534.665, 0.0055410005, -0.20786022, -940279.8, -6188.11, 0.0, 10.000243, 9.99935 
7.3503476e+2, 2.1468206e+2, -768048.56, -873244.56, -8380.064, 0.028949501, -0.1907417, -767385.1, 68711.74, 0.0, 10.000753, 9.999357 
7.350464e+2, 2.2468138e+2, -646230.4, -753858.3, -33710.34, 0.040066697, -0.19651926, -636543.7, 101559.03, 0.0, 10.0008745, 9.999446 
7.350574e+2, 2.3468044e+2, -591931.6, -674145.0, -34036.19, 0.03684983, -0.2376125, -579669.56, 60439.85, 0.0, 10.000562, 9.999471 
7.350689e+2, 2.4467957e+2, -533508.3, -658209.75, -11177.324, 0.038542572, -0.24488449, -532514.4, 9602.931, 0.0, 10.000562, 9.998907 
7.3508066e+2, 2.5467873e+2, -384363.47, -534244.2, -9966.356, 0.04530216, -0.22091469, -383703.66, 60422.71, 0.0, 10.000909, 9.998918 
7.350922e+2, 2.646776e+2, -277862.47, -440168.06, -29115.143, 0.046622496, -0.21988307, -272797.7, 73340.0, 0.0, 10.001002, 9.998846 
7.351033e+2, 2.7467614e+2, -205675.42, -352603.06, -25100.658, 0.04360958, -0.25297642, -201505.64, 46646.02, 0.0, 10.000816, 9.998864 
7.3511463e+2, 2.8467488e+2, -123958.87, -302805.03, -16065.19, 0.04238043, -0.24509653, -122527.24, 27637.037, 0.0, 10.000877, 9.998504 
7.35126e+2, 2.9467395e+2, 22740.777, -181966.6, -18529.672, 0.038993627, -0.19384181, 24404.521, 76579.4, 0.0, 10.001215, 9.998498 
7.3513716e+2, 3.0467278e+2, 101696.195, -103805.12, -30282.088, 0.028278185, -0.16544078, 106065.58, 106065.58, 0.0000000073965225, 10.001357, 9.998632 
7.3514897e+2, 3.14671e+2, 102537.74, -78496.16, 6317.3276, 0.101570755, -0.20972435, 102757.92, 102757.92, 0.0000004773962, 10.001255, 9.998856 
7.4492866e+2, 1.2467321e+2, -1682464.6, -1769591.5, -55935.434, -0.011231635, -0.11026983, -1655130.0, 63057.465, 0.0, 10.000536, 9.99936 
7.4494284e+2, 1.3467234e+2, -1634176.8, -1645673.9, 68786.89, 0.09557175, -0.17922473, -1570898.6, 49298.613, 0.0, 9.999965, 9.999823 
7.4495363e+2, 1.4467254e+2, -1519863.8, -1499439.4, -9025.653, -0.091738045, -0.1548373, -1496022.5, 26172.227, 0.0, 9.999908, 10.0001745 
7.4496573e+2, 1.546727e+2, -1324680.6, -1351806.0, -45490.836, 0.0015858874, -0.16229501, -1290773.8, 133417.06, 0.0, 10.000566, 10.000196 
7.4497753e+2, 1.646725e+2, -1267861.5, -1356421.5, -25953.746, 0.030733667, -0.16427407, -1260815.9, 65376.082, 0.0, 10.00064, 9.999456 
7.449894e+2, 1.7467192e+2, -1256868.8, -1300662.4, -15902.927, 0.022653399, -0.16886559, -1251703.1, -23504.145, 0.0, 10.000044, 9.999454 
7.450009e+2, 1.8467143e+2, -1136998.0, -1164189.1, -39708.65, 0.017810551, -0.17441918, -1108622.0, 21581.691, 0.0, 10.000072, 9.999705 
7.4501204e+2, 1.9467103e+2, -928721.25, -1009982.75, -44408.465, 0.004372886, -0.18878782, -909160.9, 123044.73, 0.0, 10.000815, 9.999733 
7.450235e+2, 2.0467056e+2, -829208.9, -942453.5, -21315.36, 0.009855071, -0.19476742, -825329.7, 108879.51, 0.0, 10.000959, 9.999455 
7.450355e+2, 2.1467e+2, -808439.9, -880130.3, -9147.6045, 0.040716235, -0.19896422, -807291.06, 28923.58, 0.0, 10.0004225, 9.999469 
7.4504703e+2, 2.2466937e+2, -715114.44, -792240.4, -20886.44, 0.046480972, -0.20312998, -709821.44, 28398.521, 0.0, 10.000423, 9.9994 
7.450581e+2, 2.3466869e+2, -527320.8, -648421.0, -24922.674, 0.023185883, -0.21600027, -522392.28, 117832.875, 0.0, 10.00103, 9.999422 
7.4506956e+2, 2.4466775e+2, -446582.88, -611835.9, -9131.669, 0.02647183, -0.22586462, -446079.8, 96153.625, 0.0, 10.001141, 9.998946 
7.450816e+2, 2.546666e+2, -413285.97, -543815.56, -6085.2197, 0.059473265, -0.23913896, -413002.9, 31242.09, 0.0, 10.00069, 9.998957 
7.4509317e+2, 2.646655e+2, -342113.75, -469597.13, -24213.998, 0.06572995, -0.23581651, -337669.5, 8586.119, 0.0, 10.000553, 9.99886 
7.4510413e+2, 2.7466455e+2, -209777.64, -353032.47, -28386.47, 0.043588527, -0.22263426, -204357.81, 43907.59, 0.0, 10.000781, 9.9988785 
7.4511546e+2, 2.8466323e+2, -123100.35, -301092.97, -14649.731, 0.04001396, -0.22388446, -121902.664, 28376.102, 0.0, 10.000878, 9.998515 
7.451272e+2, 2.9466158e+2, -32916.207, -207662.34, -10746.262, 0.054189246, -0.24276383, -32257.83, 20037.713, 0.0, 10.000827, 9.998508 
7.4513835e+2, 3.0466074e+2, 49498.414, -116662.28, -20773.945, 0.03588722, -0.18734567, 52056.266, 52056.266, 0.0000000015345106, 10.000946, 9.998742 
7.451501e+2, 3.1465936e+2, 119283.77, -49093.926, 6283.6567, 0.08179187, -0.2034182, 119517.945, 119517.945, 0.00000026410652, 10.001278, 9.999046 
7.549288e+2, 1.2466095e+2, -1659659.9, -1723972.5, -76674.29, -0.048605885, -0.14343555, -1608671.9, 109634.734, 0.0, 10.000543, 9.999671 
7.549431e+2, 1.3466053e+2, -1612261.4, -1599743.9, 46097.047, 0.11759944, -0.20042664, -1559482.6, 60827.863, 0.0, 9.999962, 10.000139 
7.549541e+2, 1.446608e+2, -1563468.3, -1588700.4, 12763.211, -0.03252688, -0.15508986, -1558138.1, -35830.336, 0.0, 9.999904, 9.999564 
7.549661e+2, 1.5466045e+2, -1368718.0, -1443890.4, -20152.453, -0.020618916, -0.14891449, -1363656.3, 60655.605, 0.0, 10.000568, 9.999564 
7.5497764e+2, 1.6466005e+2, -1251596.9, -1323511.6, -47589.063, -0.018826902, -0.14929177, -1227908.1, 98407.75, 0.0, 10.000643, 9.999681 
7.549893e+2, 1.746596e+2, -1239211.1, -1264828.0, -38322.965, 0.008394647, -0.16682453, -1211612.9, 16707.354, 0.0, 10.000047, 9.9997 
7.550012e+2, 1.8465918e+2, -1143435.8, -1176541.1, -13922.708, 0.03213358, -0.1725506, -1138359.0, -8035.366, 0.0, 10.000067, 9.999622 
7.5501317e+2, 1.9465885e+2, -936013.2, -1024262.56, -16178.853, 0.04131062, -0.17142059, -933140.6, 99185.63, 0.0, 10.000812, 9.999637 
7.5502473e+2, 2.046584e+2, -809269.5, -900322.56, -40798.92, 0.03996143, -0.182867, -793663.25, 140666.0, 0.0, 10.000956, 9.999746 
7.550358e+2, 2.1465786e+2, -786955.06, -835541.8, -29617.963, 0.031037135, -0.21718942, -772941.9, 63390.992, 0.0, 10.0004225, 9.999776 
7.5504726e+2, 2.2465736e+2, -720596.4, -803023.8, -196.89203, 0.022760756, -0.21993373, -720595.9, 17740.664, 0.0, 10.000421, 9.999328 
7.55059e+2, 2.3465696e+2, -534754.06, -661926.56, -1975.9458, 0.01419667, -0.19401863, -534723.3, 105617.01, 0.0, 10.001021, 9.999333 
7.5507075e+2, 2.4465606e+2, -442373.97, -601402.25, -25200.74, 0.027513882, -0.20356129, -438476.0, 103872.95, 0.0, 10.001133, 9.999022 
7.5508237e+2, 2.5465453e+2, -407992.47, -533006.25, -22795.934, 0.06639612, -0.26075023, -403965.4, 40397.547, 0.0, 10.000691, 9.999031 
7.5509375e+2, 2.6465353e+2, -347295.63, -480854.44, -16735.934, 0.07110158, -0.24880356, -345230.4, 1142.2965, 0.0, 10.000556, 9.998782 
7.5510484e+2, 2.7465314e+2, -216111.72, -364516.63, -18956.953, 0.036923807, -0.16971599, -213728.47, 34649.438, 0.0, 10.000773, 9.998803 
7.551164e+2, 2.846517e+2, -117866.31, -288690.66, -16104.155, 0.044270504, -0.18229687, -116361.38, 34030.945, 0.0, 10.000871, 9.998604 
7.5512844e+2, 2.946492e+2, -27299.453, -195217.13, -11781.176, 0.09596853, -0.29754102, -26476.91, 25939.42, 0.0, 10.000823, 9.998596 
7.551396e+2, 3.0464858e+2, 54434.83, -106194.27, -9214.095, 0.06060965, -0.2262764, 54961.645, 54961.645, 0.00000000001992495, 10.000945, 9.998815 
7.551508e+2, 3.1464773e+2, 132987.61, -17157.168, 17636.422, 0.032340508, -0.1972024, 135031.4, 135031.4, 0.000000109993245, 10.001264, 9.999272 
7.6492923e+2, 1.2464859e+2, -1723834.8, -1761834.5, -84575.74, -0.038079806, -0.17168714, -1656151.0, 62275.89, 0.0, 10.000128, 9.999613 
7.649432e+2, 1.3464835e+2, -1502408.1, -1555574.8, 3749.445, 0.097198166, -0.20100777, -1502145.0, 118284.14, 0.0, 10.000754, 10.00006 
7.6495445e+2, 1.4464866e+2, -1454915.6, -1553408.9, -27019.81, -0.025492415, -0.14137124, -1447990.3, 74436.47, 0.0, 10.000722, 9.999412 
7.649665e+2, 1.5464802e+2, -1454020.8, -1502551.8, -23392.002, -0.011817083, -0.14711605, -1444581.6, -20147.527, 0.0, 10.000058, 9.999408 
7.649781e+2, 1.6464755e+2, -1339200.1, -1358861.6, -36028.965, -0.011470851, -0.15100333, -1311684.9, 14754.325, 0.0, 10.0000105, 9.999744 
7.649896e+2, 1.7464721e+2, -1142309.0, -1209879.1, -40925.105, 0.0075801746, -0.16228259, -1123025.4, 105416.25, 0.0, 10.000676, 9.999773 
7.6500154e+2, 1.8464686e+2, -1038070.1, -1124559.8, -16630.469, 0.030414792, -0.16655685, -1034982.6, 95461.805, 0.0, 10.000785, 9.999634 
7.6501375e+2, 1.946465e+2, -1017009.44, -1062278.4, -11421.529, 0.047151737, -0.17031248, -1014291.0, 18156.81, 0.0, 10.000252, 9.999645 
7.650253e+2, 2.0464613e+2, -908708.2, -934132.8, -40619.73, 0.04433735, -0.18228732, -878858.0, 55592.137, 0.0, 10.000212, 9.999873 
7.6503634e+2, 2.1464574e+2, -732176.75, -794656.56, -43431.367, 0.022659065, -0.21253596, -709917.0, 126534.45, 0.0, 10.000736, 9.999905 
7.650478e+2, 2.2464527e+2, -662428.56, -779224.2, -15223.862, 0.016303163, -0.2168508, -660476.8, 77977.92, 0.0, 10.00084, 9.999289 
7.650599e+2, 2.3464476e+2, -620150.7, -708560.25, -15062.108, 0.026198426, -0.19923608, -617655.06, 22805.33, 0.0, 10.00046, 9.999284 
7.650717e+2, 2.4464388e+2, -533168.44, -631013.75, -38519.6, 0.042783182, -0.20835106, -519824.03, 22644.637, 0.0, 10.000448, 9.999148 
7.650832e+2, 2.5464258e+2, -372828.16, -501159.56, -32957.46, 0.066980325, -0.25523978, -364859.03, 79620.87, 0.0, 10.000869, 9.999164 
7.6509446e+2, 2.6464167e+2, -288337.63, -455877.25, -23045.35, 0.06771925, -0.24221706, -285225.53, 61263.41, 0.0, 10.000977, 9.99875 
7.6510566e+2, 2.7464113e+2, -227144.33, -374187.72, -23568.4, 0.042964384, -0.17329787, -223459.1, 25036.746, 0.0, 10.000717, 9.998763 
7.651172e+2, 2.846397e+2, -144788.31, -295707.7, -15889.595, 0.054874074, -0.18864045, -143133.52, 7376.9526, 0.0, 10.00066, 9.998658 
7.651293e+2, 2.9463726e+2, -17794.785, -184872.84, -15079.992, 0.104719274, -0.2967857, -16444.62, 36088.246, 0.0, 10.000863, 9.998649 
7.651406e+2, 3.046368e+2, 58831.492, -125149.87, -16493.932, 0.06093384, -0.20590289, 60298.477, 60298.477, 0.0, 10.001065, 9.998627 
7.6515204e+2, 3.1463543e+2, 131496.9, -14251.213, -12438.352, 0.025627453, -0.20874321, 132550.78, 132550.78, 0.000000028836135, 10.001236, 9.999306 
7.749299e+2, 1.24636166e+2, -1755754.3, -1825459.9, -58857.29, 0.014628737, -0.1916582, -1722204.5, -3656.8606, 0.00000000003061157, 10.000117, 9.999182 
7.749433e+2, 1.3463585e+2, -1535679.3, -1625011.1, 26497.82, 0.030113326, -0.18004285, -1528410.9, 92142.06, 0.0, 10.000757, 9.999582 
7.7495474e+2, 1.4463614e+2, -1431673.6, -1506895.8, -52726.6, -0.077004716, -0.11377205, -1404518.3, 118032.8, 0.0, 10.000729, 9.999728 
7.749669e+2, 1.5463546e+2, -1430490.5, -1454585.9, -48334.37, 0.026007345, -0.15873072, -1392724.9, 31832.607, 0.0, 10.00006, 9.999737 
7.749787e+2, 1.64635e+2, -1346878.1, -1373514.5, -13322.292, 0.05102437, -0.17109518, -1341358.6, -14797.071, 0.0, 10.000006, 9.999646 
7.7499044e+2, 1.7463484e+2, -1149939.8, -1225398.1, -15623.267, 0.018721465, -0.15500978, -1146833.0, 81729.99, 0.0, 10.000675, 9.999667 
7.750021e+2, 1.8463452e+2, -1030857.4, -1109008.6, -35818.03, 0.010197095, -0.15653057, -1016925.1, 113640.586, 0.0, 10.000782, 9.9997425 
7.7501374e+2, 1.9463402e+2, -1009157.9, -1045960.4, -31592.598, 0.020253776, -0.18522117, -990998.25, 41571.8, 0.0, 10.00025, 9.999759 
7.750253e+2, 2.0463371e+2, -911737.06, -939211.9, -23116.55, 0.020431347, -0.19331181, -898584.1, 35987.5, 0.0, 10.000207, 9.99984 
7.75037e+2, 2.1463367e+2, -735986.56, -801409.6, -23765.121, 0.013958631, -0.185611, -728265.1, 108304.98, 0.0, 10.000731, 9.999861 
7.750488e+2, 2.2463314e+2, -663940.2, -781496.6, -29173.133, 0.02552268, -0.19461557, -657098.7, 81475.6, 0.0, 10.000836, 9.999274 
7.7506065e+2, 2.3463206e+2, -621034.7, -710357.4, -29169.57, 0.05687112, -0.23060267, -612352.8, 28232.12, 0.0, 10.000459, 9.999272 
7.750724e+2, 2.4463126e+2, -521164.63, -605275.1, -24168.541, 0.06945948, -0.23961008, -514714.6, 27877.713, 0.0, 10.000445, 9.999327 
7.750839e+2, 2.5463077e+2, -360772.16, -474127.94, -16672.002, 0.059514027, -0.22489052, -358370.94, 86224.875, 0.0, 10.000861, 9.999353 
7.7509534e+2, 2.646299e+2, -289253.5, -456053.56, -31967.678, 0.054629765, -0.21671212, -283336.72, 63267.504, 0.0, 10.000968, 9.998754 
7.751065e+2, 2.7462858e+2, -228401.81, -376072.16, -32711.455, 0.057984382, -0.22683546, -221480.13, 27138.4, 0.0, 10.000713, 9.998753 
7.7511805e+2, 2.8462717e+2, -142106.27, -289922.53, -9357.317, 0.06795894, -0.23827825, -141516.27, 9116.369, 0.0, 10.000659, 9.998698 
7.751299e+2, 2.946258e+2, -16371.835, -180256.03, -5948.296, 0.08012148, -0.24908552, -16156.222, 36489.438, 0.0, 10.000855, 9.998684 
7.751414e+2, 3.0462536e+2, 25561.582, -192311.92, -8902.125, 0.036404558, -0.13281046, 25924.71, 25924.71, 0.0, 10.001057, 9.99817 
7.751535e+2, 3.146226e+2, 116109.516, -43141.72, -6548.8843, 0.050029077, -0.2271734, 116378.37, 116378.37, 0.0000000029769756, 10.001223, 9.999114 
7.8493035e+2, 1.24623954e+2, -1660112.9, -1778339.8, -61409.754, 0.020770645, -0.17757098, -1633988.1, 84679.97, 0.0000000009851104, 10.00077, 9.99919 
7.849436e+2, 1.3462344e+2, -1614624.1, -1664941.6, 52143.547, 0.014046259, -0.18375865, -1581887.3, 38787.547, 0.0, 10.000225, 9.999564 
7.849552e+2, 1.4462371e+2, -1514896.1, -1537873.3, -21077.38, -0.06998873, -0.122588105, -1502379.6, 20293.197, 0.0, 10.000116, 9.999812 
7.849673e+2, 1.5462314e+2, -1344536.4, -1403216.1, -35366.98, 0.030022295, -0.16509151, -1327923.5, 96754.48, 0.0, 10.0006075, 9.999826 
7.849791e+2, 1.6462274e+2, -1249599.8, -1330570.1, 2267.5764, 0.056220286, -0.17528279, -1249536.3, 77145.234, 0.0, 10.0006895, 9.999611 
7.84991e+2, 1.7462258e+2, -1205960.4, -1257166.6, 4520.862, 0.029636066, -0.15592162, -1205564.4, 23118.697, 0.0, 10.00031, 9.999625 
7.850027e+2, 1.8462224e+2, -1108058.5, -1150580.6, -25890.787, 0.016574906, -0.15550037, -1095817.8, 34868.305, 0.0, 10.000271, 9.999703 
7.8501403e+2, 1.9462167e+2, -957245.6, -1024935.3, -34248.395, 0.008111793, -0.1841602, -942940.44, 89750.64, 0.0, 10.000625, 9.9997225 
7.8502566e+2, 2.0462137e+2, -847271.7, -916539.9, -24778.889, 0.007469281, -0.1885655, -839320.44, 95372.734, 0.0, 10.000687, 9.999764 
7.850376e+2, 2.1462132e+2, -787720.7, -835260.7, -28565.195, 0.021113846, -0.17254461, -774329.1, 62362.953, 0.0, 10.000415, 9.999781 
7.8504944e+2, 2.2462077e+2, -726232.56, -797677.4, -37755.457, 0.040042657, -0.18478836, -709978.44, 28717.785, 0.0, 10.000349, 9.999397 
7.8506124e+2, 2.3461966e+2, -601337.56, -686059.6, -28796.756, 0.06299689, -0.23846321, -592476.44, 48230.055, 0.0, 10.000531, 9.999403 
7.850729e+2, 2.4461891e+2, -498261.22, -590502.7, -13661.108, 0.07311917, -0.2504591, -496280.53, 46432.625, 0.0, 10.000587, 9.999358 
7.850847e+2, 2.546186e+2, -413025.38, -496384.34, -18609.271, 0.068075225, -0.22112504, -409059.66, 35655.87, 0.0, 10.000489, 9.999379 
7.850961e+2, 2.6461783e+2, -353369.1, -478480.06, -44724.883, 0.062011752, -0.20848171, -339025.28, 7697.869, 0.0, 10.000491, 9.998829 
7.851072e+2, 2.7461648e+2, -235425.75, -371096.1, -40561.453, 0.056379613, -0.22572774, -224223.97, 24513.205, 0.0, 10.000629, 9.998827 
7.8511864e+2, 2.846151e+2, -126632.76, -285157.25, -7877.1226, 0.061402723, -0.23832832, -126242.305, 24508.848, 0.0, 10.000776, 9.998674 
7.851308e+2, 2.9461375e+2, -10866.719, -180844.64, -10256.455, 0.075576715, -0.24460265, -10250.082, 42514.3, 0.0, 10.000908, 9.998653 
7.851424e+2, 3.046133e+2, -2836.6868, -221987.3, -7083.92, 0.037133295, -0.12210339, -2607.942, -2607.942, 0.0, 10.000932, 9.998026 
7.8515464e+2, 3.146105e+2, 73815.82, -48764.563, 13297.834, 0.061327152, -0.20841433, 75241.81, 75241.81, 0.0, 10.000869, 9.999247 
7.949306e+2, 1.24612e+2, -1627164.1, -1712483.1, -79264.42, -0.034320563, -0.12637448, -1579808.8, 138978.61, 0.0000000034592607, 10.000779, 9.999639 
7.9494417e+2, 1.3461113e+2, -1582887.3, -1599879.8, 30663.29, 0.04849457, -0.21397248, -1559564.9, 61229.71, 0.0, 10.000227, 10.0000105 
7.949559e+2, 1.4461139e+2, -1525666.8, -1559068.4, -5505.089, -0.0048068734, -0.16956876, -1524782.9, -1991.1638, 0.0, 10.000113, 9.999668 
7.9496753e+2, 1.5461111e+2, -1355807.3, -1425886.8, -16303.781, -0.004208248, -0.16594039, -1352200.0, 72595.2, 0.0, 10.000605, 9.999671 
7.949793e+2, 1.6461079e+2, -1247761.0, -1326810.4, -11684.654, -0.00094200193, -0.16308196, -1246070.1, 80728.42, 0.0, 10.0006895, 9.999639 
7.9499143e+2, 1.7461042e+2, -1203945.9, -1253533.6, -9619.098, 0.03929455, -0.16504121, -1202145.3, 26656.17, 0.0, 10.000311, 9.999651 
7.950033e+2, 1.8461001e+2, -1121589.6, -1177692.1, -14249.463, 0.047588237, -0.16426252, -1118177.9, 12627.555, 0.0, 10.000266, 9.999519 
7.950146e+2, 1.9460951e+2, -971233.6, -1053215.4, -20998.627, 0.008412167, -0.16865043, -966168.1, 66642.61, 0.0, 10.000621, 9.99953 
7.9502624e+2, 2.0460908e+2, -855987.9, -933865.1, -34999.56, 0.0032420617, -0.1691346, -842570.2, 92244.41, 0.0, 10.000683, 9.999647 
7.950382e+2, 2.1460873e+2, -796099.06, -851957.4, -38751.15, 0.042281114, -0.17274027, -776261.2, 60555.715, 0.0, 10.000411, 9.999668 
7.9504997e+2, 2.2460823e+2, -709241.1, -761485.8, -32326.37, 0.057604067, -0.18724391, -693801.8, 45018.42, 0.0, 10.000345, 9.999648 
7.950615e+2, 2.3460755e+2, -583035.0, -647622.4, -21827.244, 0.04395924, -0.22344688, -576350.3, 64474.625, 0.0, 10.000529, 9.999668 
7.9507333e+2, 2.4460682e+2, -506373.56, -606990.8, -17273.945, 0.052952986, -0.24089745, -503490.6, 39340.49, 0.0, 10.000585, 9.999247 
7.950854e+2, 2.5460607e+2, -422611.34, -515512.9, -21816.229, 0.088798545, -0.2416664, -417743.28, 27095.313, 0.0, 10.000485, 9.999249 
7.950969e+2, 2.6460543e+2, -343481.47, -457033.8, -40389.133, 0.08592328, -0.21733879, -330581.13, 16264.369, 0.0, 10.000487, 9.998979 
7.951076e+2, 2.7460483e+2, -225087.19, -348265.7, -34734.49, 0.03782909, -0.1763068, -215967.73, 32884.4, 0.0, 10.000623, 9.998987 
7.951192e+2, 2.8460345e+2, -135148.17, -300918.28, -2351.3616, 0.035001665, -0.19207358, -135114.83, 15751.3545, 0.0, 10.000768, 9.99857 
7.951318e+2, 2.9460123e+2, -20336.004, -197813.7, -4155.4316, 0.083341405, -0.2730134, -20238.764, 32649.215, 0.0, 10.0008955, 9.998543 
7.951435e+2, 3.046007e+2, 8577.593, -196868.53, -9890.906, 0.05451496, -0.16434997, 9052.678, 9052.678, 0.0, 10.000925, 9.998202 
7.9515547e+2, 3.1459892e+2, 104273.57, 15852.214, 10449.881, 0.056945723, -0.1661768, 105491.78, 105491.78, 0.0, 10.000862, 9.999694 
8.049312e+2, 1.24600224e+2, -1667918.8, -1721858.0, -43552.54, -0.03421488, -0.10760327, -1643661.6, 75241.77, 0.0000000057252847, 10.000453, 9.999734 
8.049445e+2, 1.3459912e+2, -1529102.4, -1566061.5, 30749.094, 0.046722908, -0.22450945, -1511707.1, 109204.914, 0.0, 10.000563, 10.000081 
8.0495644e+2, 1.4459933e+2, -1475922.4, -1544924.8, -2703.7173, 0.013872066, -0.18472512, -1475816.6, 47092.74, 0.0, 10.000498, 9.999578 
8.04968e+2, 1.5459923e+2, -1401132.1, -1459094.4, -8472.749, -0.004086298, -0.15466732, -1399919.0, 24992.656, 0.0, 10.000342, 9.99957 
8.049796e+2, 1.6459888e+2, -1301944.4, -1360590.1, -13458.023, -0.009953176, -0.14667113, -1299003.5, 27912.012, 0.0, 10.00035, 9.99957 
8.049918e+2, 1.7459823e+2, -1174786.5, -1247066.1, -20017.385, 0.028537665, -0.1685538, -1169613.1, 59307.84, 0.0, 10.000545, 9.999582 
8.0500364e+2, 1.8459772e+2, -1076127.9, -1160180.1, -14440.08, 0.044659358, -0.1725868, -1073716.3, 57209.727, 0.0, 10.000599, 9.999479 
8.050154e+2, 1.9459732e+2, -991757.94, -1067655.0, -9857.553, 0.025522416, -0.16382077, -990498.56, 42431.957, 0.0, 10.000501, 9.999489 
8.0502707e+2, 2.0459689e+2, -886740.25, -947898.06, -21420.26, 0.023008391, -0.16113691, -879984.25, 54950.04, 0.0, 10.000469, 9.999653 
8.050387e+2, 2.1459647e+2, -780816.6, -843239.4, -17538.855, 0.04243972, -0.17397402, -776226.3, 60710.91, 0.0, 10.000512, 9.999679 
8.050504e+2, 2.2459593e+2, -683176.3, -750860.75, -7885.734, 0.050862987, -0.19117261, -682269.7, 56671.066, 0.0, 10.000533, 9.99963 
8.0506206e+2, 2.3459528e+2, -584636.94, -650543.0, -18851.836, 0.046361566, -0.22124283, -579625.56, 61319.492, 0.0, 10.000528, 9.999649 
8.0507386e+2, 2.4459462e+2, -522076.44, -614086.25, -27599.78, 0.056222916, -0.23325023, -514432.5, 28518.42, 0.0, 10.000476, 9.99925 
8.050858e+2, 2.545939e+2, -437737.2, -522447.2, -23856.105, 0.08195045, -0.23070356, -431480.88, 13477.568, 0.0, 10.0003805, 9.999252 
8.050972e+2, 2.6459327e+2, -357066.97, -465352.0, -34072.492, 0.078107424, -0.20652819, -347238.03, -272.42126, 0.0, 10.0004015, 9.998962 
8.051082e+2, 2.745926e+2, -237068.05, -355913.94, -42048.94, 0.041175928, -0.16907066, -223695.39, 25277.396, 0.0, 10.000548, 9.99897 
8.0511993e+2, 2.845913e+2, -159886.02, -302277.47, -13749.59, 0.042374317, -0.18234996, -158570.48, -7584.24, 0.0, 10.000553, 9.998664 
8.0513245e+2, 2.9458922e+2, -85079.63, -218039.28, -1948.595, 0.08530933, -0.25500202, -85051.08, -32044.822, 0.0, 10.000404, 9.998641 
8.051442e+2, 3.0458853e+2, -45835.266, -216829.69, 3276.0178, 0.052146826, -0.16765065, -45772.523, -45772.523, 0.0, 10.0005245, 9.998258 
8.051563e+2, 3.1458688e+2, 134466.22, 62643.92, 11091.201, 0.05393212, -0.16504055, 136139.98, 136139.98, 0.0, 10.000932, 9.999981 
8.149321e+2, 1.24588706e+2, -1686767.1, -1760371.4, -35834.59, 0.010101168, -0.11706923, -1672202.8, 46812.26, 0.000000004999778, 10.000451, 9.999469 
8.149446e+2, 1.3458748e+2, -1552542.1, -1612757.6, 34134.613, 0.0029399046, -0.21439037, -1537134.5, 83892.06, 0.0, 10.000557, 9.999762 
8.149566e+2, 1.445876e+2, -1478116.1, -1550192.9, -9885.616, -0.020304566, -0.1660094, -1476784.9, 46240.6, 0.0, 10.000499, 9.999543 
8.149687e+2, 1.545875e+2, -1402464.8, -1463973.6, -13463.965, 0.029465286, -0.13099079, -1399646.6, 25380.426, 0.0, 10.00035, 9.999535 
8.149803e+2, 1.64587e+2, -1313703.6, -1385401.9, -7159.2573, 0.027783565, -0.12728907, -1312995.8, 14036.417, 0.0, 10.000352, 9.999398 
8.1499195e+2, 1.7458601e+2, -1187491.9, -1272010.8, -12668.304, -0.006168062, -0.16829932, -1185633.9, 43407.57, 0.0, 10.000539, 9.9994135 
8.150039e+2, 1.8458538e+2, -1069438.1, -1145480.1, -18423.06, 0.0039028202, -0.1807938, -1065209.9, 65837.64, 0.0, 10.000594, 9.999582 
8.150162e+2, 1.9458511e+2, -983926.06, -1051352.4, -13526.057, 0.05799722, -0.16801253, -981313.9, 51736.145, 0.0, 10.0005, 9.999601 
8.1502795e+2, 2.0458484e+2, -878547.3, -930150.94, -20852.121, 0.065178104, -0.16385064, -871174.7, 63877.203, 0.0, 10.000466, 9.999777 
8.150389e+2, 2.1458451e+2, -772418.7, -825319.2, -16179.897, 0.01965186, -0.17672995, -767862.4, 69190.52, 0.0, 10.000509, 9.999803 
8.1505054e+2, 2.245839e+2, -702313.0, -790607.3, -8959.752, 0.017646022, -0.19678317, -701413.0, 37644.6, 0.0, 10.000532, 9.999357 
8.150628e+2, 2.3458292e+2, -605430.56, -693174.56, -18894.002, 0.0674342, -0.23181306, -601535.06, 39531.47, 0.0, 10.000525, 9.999357 
8.1507456e+2, 2.445823e+2, -515136.88, -599130.4, -31701.375, 0.08011435, -0.2286445, -504515.16, 38557.313, 0.0, 10.000473, 9.999355 
8.1508577e+2, 2.5458208e+2, -429302.3, -504558.63, -27388.072, 0.04778142, -0.18995447, -420390.34, 24684.719, 0.0, 10.000379, 9.999377 
8.150972e+2, 2.645813e+2, -370127.1, -491808.22, -28903.385, 0.038740672, -0.17527781, -363610.53, -16527.256, 0.0, 10.000399, 9.998782 
8.1510895e+2, 2.7457985e+2, -251649.66, -384657.97, -35523.254, 0.059603475, -0.19795069, -242756.84, 6341.5615, 0.0, 10.000542, 9.998776 
8.151208e+2, 2.8457865e+2, -139600.64, -259575.7, -19585.78, 0.075792715, -0.20632677, -136484.23, 14626.664, 0.0, 10.000549, 9.998959 
8.1513274e+2, 2.945777e+2, -64102.906, -174328.98, -6941.449, 0.08111354, -0.19946867, -63667.492, -10547.518, 0.0, 10.000402, 9.998942 
8.151445e+2, 3.0457684e+2, -51826.535, -227291.84, 18161.24, 0.030931113, -0.13815942, -49966.504, -49966.504, 0.0, 10.000517, 9.998189 
8.151571e+2, 3.1457442e+2, 139676.33, 78334.47, 25352.053, 0.040906694, -0.20406048, 148797.77, 148797.77, 0.0000000016901937, 10.000912, 10.000098 
8.249327e+2, 1.2457677e+2, -1685379.0, -1783609.8, -51209.586, 0.015876979, -0.13822736, -1663538.5, 55592.67, 0.0000000017683296, 10.000566, 9.999253 
8.249451e+2, 1.345757e+2, -1569200.6, -1649691.8, 17594.266, -0.006963333, -0.19364353, -1565522.8, 55620.094, 0.0, 10.0005665, 9.999504 
8.2495713e+2, 1.4457579e+2, -1464583.5, -1540411.0, -23020.021, -0.013806295, -0.13707756, -1458142.3, 65000.38, 0.0, 10.000577, 9.999573 
8.249693e+2, 1.5457547e+2, -1350807.1, -1434300.5, -22073.27, 0.03885587, -0.12802267, -1345330.8, 79814.52, 0.0, 10.000685, 9.999577 
8.24981e+2, 1.6457483e+2, -1266324.0, -1371404.6, -5093.0205, 0.036531754, -0.13680214, -1266077.8, 61073.62, 0.0, 10.000717, 9.999317 
8.2499254e+2, 1.7457381e+2, -1172614.3, -1274969.0, -4338.1367, -0.0030451878, -0.17232135, -1172430.8, 56730.56, 0.0, 10.000686, 9.999322 
8.2500446e+2, 1.8457319e+2, -1065562.8, -1141940.5, -15629.654, 0.0016884683, -0.17862132, -1062488.1, 68679.0, 0.0, 10.000615, 9.999597 
8.250166e+2, 1.9457301e+2, -982865.44, -1048767.4, -19145.35, 0.049329363, -0.15973862, -977707.25, 55461.344, 0.0, 10.000499, 9.9996195 
8.250283e+2, 2.0457266e+2, -881024.7, -938776.4, -29909.88, 0.05827908, -0.15954295, -868326.3, 66844.586, 0.0, 10.000482, 9.99971 
8.2503957e+2, 2.1457213e+2, -766259.0, -830175.2, -39781.895, 0.025054358, -0.18699984, -747188.5, 89985.67, 0.0, 10.000586, 9.999733 
8.250511e+2, 2.2457147e+2, -697990.7, -789142.1, -36125.367, 0.024583405, -0.20662163, -685409.8, 53769.48, 0.0, 10.000565, 9.999352 
8.2506317e+2, 2.3457067e+2, -624754.9, -702747.44, -26126.55, 0.061786085, -0.22469957, -616811.8, 24374.87, 0.0, 10.000394, 9.999354 
8.250749e+2, 2.4457002e+2, -538912.06, -621952.75, -30530.873, 0.069618344, -0.21692143, -528895.3, 14297.559, 0.0, 10.000359, 9.999253 
8.250862e+2, 2.5456962e+2, -420455.8, -511845.16, -43702.48, 0.042578377, -0.18766572, -402921.47, 42276.313, 0.0, 10.000489, 9.999273 
8.250977e+2, 2.6456875e+2, -351173.78, -473193.66, -45242.17, 0.03784337, -0.17999288, -336229.34, 10977.392, 0.0, 10.000489, 9.998866 
8.2510936e+2, 2.745674e+2, -275402.2, -385724.25, -32018.373, 0.06148878, -0.20578896, -266783.0, -17562.459, 0.0, 10.000335, 9.998868 
8.251212e+2, 2.8456625e+2, -178362.1, -289592.34, -17934.969, 0.07657942, -0.20437635, -175541.73, -24309.697, 0.0, 10.000333, 9.9988575 
8.251332e+2, 2.945654e+2, -56224.29, -182486.25, -36778.836, 0.07706324, -0.17515755, -46292.258, 6948.56, 0.0, 10.000508, 9.998835 
8.2514495e+2, 3.0456418e+2, -53410.895, -226234.14, -20525.822, 0.028300785, -0.14582653, -51006.54, -51006.54, 0.0, 10.000498, 9.998205 
8.2515776e+2, 3.1456187e+2, 51323.96, 51550.8, -10621.12, 0.04663249, -0.20602497, 62059.105, 62059.105, 0.000000023716037, 10.0002365, 10.000238 
8.349328e+2, 1.2456443e+2, -1696271.0, -1807004.6, -48396.473, -0.031661917, -0.17052144, -1678100.8, 41150.715, 0.000000000051048894, 10.000566, 9.999094 
8.3494586e+2, 1.3456385e+2, -1579967.8, -1674994.0, 18003.154, 0.014808436, -0.16277236, -1576671.4, 44589.09, 0.0, 10.000577, 9.999327 
8.349582e+2, 1.4456391e+2, -1458860.4, -1529899.4, -20669.635, 0.031184036, -0.099075854, -1453284.0, 69976.34, 0.0, 10.000584, 9.999641 
8.3496976e+2, 1.5456314e+2, -1344829.4, -1420012.4, -18103.086, 0.021554422, -0.14647722, -1340697.5, 84568.586, 0.0, 10.000677, 9.999677 
8.3498144e+2, 1.6456237e+2, -1265039.6, -1368472.6, -6675.58, 0.012769087, -0.17389521, -1264610.6, 62662.094, 0.0, 10.000714, 9.999339 
8.3499366e+2, 1.7456168e+2, -1171407.3, -1273736.8, -4991.6064, 0.036119405, -0.17866048, -1171164.4, 58115.71, 0.0, 10.0006895, 9.999329 
8.3500534e+2, 1.8456121e+2, -1071649.0, -1154602.0, -20373.164, 0.03584361, -0.1655004, -1066915.5, 64369.12, 0.0, 10.000615, 9.999509 
8.350166e+2, 1.94561e+2, -989578.1, -1061776.1, -23707.623, -0.0023954757, -0.14067827, -982489.3, 50796.77, 0.0, 10.000494, 9.999532 
8.350282e+2, 2.0456041e+2, -898671.75, -975260.4, -27251.844, 0.00026206902, -0.14887838, -889964.8, 45326.367, 0.0, 10.00048, 9.99946 
8.3504045e+2, 2.1455935e+2, -784617.7, -867742.44, -36141.414, 0.05630892, -0.20410855, -771101.6, 66198.914, 0.0, 10.000583, 9.999476 
8.350522e+2, 2.245587e+2, -681099.25, -753564.75, -43077.39, 0.06951015, -0.22069038, -661042.8, 78262.7, 0.0, 10.000562, 9.9995985 
8.350632e+2, 2.3455855e+2, -605623.6, -663250.8, -32792.0, 0.029447494, -0.19955048, -590784.75, 50520.47, 0.0, 10.000394, 9.999626 
8.350748e+2, 2.4455786e+2, -559754.8, -665358.6, -26661.957, 0.024507187, -0.19643266, -553405.25, -10093.563, 0.0, 10.000359, 9.998956 
8.350869e+2, 2.5455657e+2, -444244.22, -560001.0, -38103.535, 0.061309587, -0.22211224, -432827.7, 12498.503, 0.0, 10.0004835, 9.998945 
8.3509845e+2, 2.6455563e+2, -328198.22, -425187.53, -50902.61, 0.07013127, -0.22085819, -306387.78, 40947.94, 0.0, 10.000486, 9.999197 
8.3510953e+2, 2.7455512e+2, -250034.05, -333262.72, -37756.72, 0.046968296, -0.19653806, -235458.31, 13881.177, 0.0, 10.000335, 9.9992285 
8.351213e+2, 2.845541e+2, -212662.5, -360229.84, -11834.748, 0.045911822, -0.17793156, -211719.39, -60369.67, 0.0, 10.00033, 9.998373 
8.351336e+2, 2.945525e+2, -94002.9, -258472.95, -28733.377, 0.06696926, -0.17572375, -89127.61, -35759.64, 0.0, 10.000499, 9.998318 
8.3514553e+2, 3.0455068e+2, -46498.25, -210698.48, -29306.24, 0.036993206, -0.18563743, -41424.49, -41424.49, 0.0, 10.000491, 9.998316 
8.3515817e+2, 3.1454903e+2, 63236.133, 76304.484, -20522.389, 0.064202346, -0.18936533, 91307.81, 91307.81, 0.00000010288848, 10.000236, 10.00041 
8.449334e+2, 1.2455222e+2, -1671763.8, -1778896.5, -52871.402, -0.026760733, -0.17624757, -1650065.6, 69305.945, 0.0, 10.000663, 9.999239 
8.449464e+2, 1.3455187e+2, -1564964.4, -1653095.4, 28962.766, 0.012588054, -0.15703887, -1556298.4, 65079.32, 0.0, 10.00062, 9.999454 
8.4495884e+2, 1.4455189e+2, -1462342.9, -1543743.9, 1254.7963, 0.036487143, -0.100268744, -1462323.5, 61054.383, 0.0, 10.000614, 9.999531 
8.4497035e+2, 1.545508e+2, -1345561.4, -1433771.8, -11141.2295, 0.00996533, -0.1664207, -1344175.9, 81210.76, 0.0, 10.0007305, 9.999557 
8.44982e+2, 1.6455005e+2, -1258693.3, -1360398.9, -13156.284, 0.00079824665, -0.18975516, -1257019.0, 70374.49, 0.0, 10.000737, 9.999384 
8.449943e+2, 1.745497e+2, -1178980.8, -1271703.1, -10232.592, 0.040351387, -0.16440141, -1177865.0, 51532.59, 0.0, 10.000613, 9.999379 
8.450061e+2, 1.8454924e+2, -1071460.9, -1164879.0, -18375.92, 0.041768044, -0.14854968, -1067976.1, 63425.79, 0.0, 10.000659, 9.999418 
8.450172e+2, 1.9454865e+2, -935604.7, -1046214.1, -21974.96, -0.0120961685, -0.15269013, -931398.8, 102007.96, 0.0, 10.00091, 9.999439 
8.4502876e+2, 2.045479e+2, -852749.3, -968293.44, -28464.354, -0.010977635, -0.1658363, -846117.75, 89295.75, 0.0, 10.00086, 9.999325 
8.45041e+2, 2.1454692e+2, -813321.75, -897017.9, -29508.52, 0.059770405, -0.19888082, -803964.2, 33458.496, 0.0, 10.000452, 9.999338 
8.4505266e+2, 2.245463e+2, -711457.44, -762309.1, -31409.045, 0.07624852, -0.20901056, -696472.9, 42954.758, 0.0, 10.000329, 9.999649 
8.4506375e+2, 2.3454608e+2, -577790.8, -643154.2, -37634.543, 0.026109008, -0.1989531, -560628.25, 80799.04, 0.0, 10.000557, 9.999685 
8.4507513e+2, 2.4454537e+2, -532996.06, -656363.5, -34155.355, 0.015803998, -0.20102732, -524171.16, 19262.625, 0.0, 10.000561, 9.9989195 
8.450871e+2, 2.5454405e+2, -474903.1, -579371.5, -25787.254, 0.052775156, -0.22588186, -468884.47, -23435.889, 0.0, 10.000294, 9.998903 
8.4509873e+2, 2.6454306e+2, -365523.97, -452682.3, -36405.34, 0.06484782, -0.223335, -352318.53, -4859.8325, 0.0, 10.000272, 9.999111 
8.4511006e+2, 2.7454248e+2, -223743.03, -330302.06, -57051.98, 0.048885822, -0.1958483, -198960.81, 50502.574, 0.0, 10.000559, 9.99914 
8.4512174e+2, 2.845414e+2, -177516.23, -348562.97, -37363.395, 0.051142484, -0.17606016, -169710.78, -18236.568, 0.0, 10.000596, 9.998324 
8.45134e+2, 2.945397e+2, -125155.21, -278213.78, -21199.059, 0.073054716, -0.17843647, -122273.34, -68780.32, 0.0, 10.000306, 9.998274 
8.451459e+2, 3.045376e+2, -86211.62, -230451.9, -6108.692, 0.039457094, -0.21515182, -85953.37, -85953.37, 0.00000000024035085, 10.000221, 9.998309 
8.4515834e+2, 3.1453648e+2, 82887.414, 81239.586, -10917.862, 0.051963765, -0.1664244, 93012.41, 93012.41, 0.00000026211356, 10.000389, 10.000369 
8.549346e+2, 1.24540225e+2, -1640685.1, -1715768.3, -50870.504, 0.017185282, -0.15254204, -1615003.5, 104487.31, 0.0, 10.000669, 9.99967 
8.549468e+2, 1.3453984e+2, -1537639.5, -1595171.0, 26507.852, -0.013534027, -0.17566316, -1527288.3, 94206.01, 0.0, 10.000614, 9.999854 
8.5495913e+2, 1.4453976e+2, -1480850.1, -1581937.3, 4243.7563, -0.00038742513, -0.13914096, -1480672.3, 42822.62, 0.0, 10.000611, 9.99927 
8.54971e+2, 1.5453856e+2, -1366433.9, -1479058.4, -5661.889, -0.00008064991, -0.186761, -1366149.9, 59356.56, 0.0, 10.000738, 9.999243 
8.5498273e+2, 1.6453789e+2, -1255351.6, -1354248.0, -17605.65, -0.0035788636, -0.18481022, -1252311.0, 75202.2, 0.0, 10.00074, 9.999424 
8.5499465e+2, 1.745379e+2, -1174307.5, -1261163.1, -14905.044, 0.008706426, -0.13069594, -1171820.9, 57692.867, 0.0, 10.000609, 9.999454 
8.5500646e+2, 1.8453732e+2, -1077421.3, -1176815.0, -10254.1455, 0.017544502, -0.12763262, -1076374.4, 55144.67, 0.0, 10.000656, 9.999338 
8.550184e+2, 1.9453602e+2, -942088.6, -1059687.0, -12693.038, 0.017910747, -0.19418098, -940734.25, 92795.87, 0.0, 10.000909, 9.999347 
8.5502994e+2, 2.0453517e+2, -854451.5, -971378.44, -43674.93, 0.022646599, -0.20978504, -839939.1, 95598.35, 0.0, 10.000858, 9.999306 
8.550412e+2, 2.145349e+2, -814588.4, -899509.94, -45252.734, 0.034404304, -0.17146571, -794994.94, 42545.457, 0.0, 10.000451, 9.999322 
8.5505265e+2, 2.2453429e+2, -721409.7, -783404.4, -24977.02, 0.04349296, -0.17083535, -712598.94, 26946.39, 0.0, 10.00033, 9.999504 
8.5506445e+2, 2.3453332e+2, -588349.3, -664908.56, -28877.018, 0.04841348, -0.2230378, -578678.8, 62873.65, 0.0, 10.000556, 9.9995365 
8.5507596e+2, 2.4453256e+2, -518508.25, -626378.4, -43829.406, 0.040110245, -0.23195843, -502945.06, 40613.93, 0.0, 10.00056, 9.999126 
8.5508704e+2, 2.5453204e+2, -458672.72, -546302.56, -35952.582, 0.017076576, -0.19956899, -445810.16, -245.25333, 0.0, 10.000296, 9.99913 
8.550986e+2, 2.6453105e+2, -399259.3, -523364.13, -27182.006, 0.0230472, -0.18650004, -393566.9, -45991.387, 0.0, 10.000275, 9.998625 
8.551107e+2, 2.7452952e+2, -261591.98, -407189.06, -45294.676, 0.06253088, -0.20147362, -248651.17, 940.4745, 0.0, 10.000551, 9.998615 
8.551227e+2, 2.845282e+2, -153179.55, -296731.06, -46698.82, 0.08656238, -0.19740084, -139325.06, 12280.084, 0.0, 10.000589, 9.998684 
8.5513455e+2, 2.9452702e+2, -97030.67, -219490.0, -31107.041, 0.090961196, -0.18533659, -89581.96, -35965.72, 0.0, 10.000304, 9.998678 
8.5514605e+2, 3.0452493e+2, -94466.33, -247440.94, -606.1519, 0.034250177, -0.23639607, -94463.92, -94463.92, 0.0000000059514194, 10.00022, 9.998193 
8.5515827e+2, 3.1452405e+2, 64471.96, 46568.406, -4415.491, 0.0061846026, -0.14689347, 65501.71, 65501.71, 0.0000005093443, 10.000375, 10.000138 
8.649353e+2, 1.24528244e+2, -1664621.5, -1726543.3, -28981.275, 0.032079767, -0.14400011, -1653173.8, 66434.82, 0.00000000000000000000885557, 10.000504, 9.999674 
8.649474e+2, 1.3452779e+2, -1524251.4, -1591191.9, 12060.378, -0.019967819, -0.17416002, -1522144.8, 99467.9, 0.0, 10.000717, 9.999831 
8.649597e+2, 1.4452764e+2, -1454133.4, -1564467.3, -17769.654, -0.0047379783, -0.1425383, -1451342.1, 72271.31, 0.0, 10.000775, 9.9993105 
8.6497176e+2, 1.5452658e+2, -1370832.8, -1476715.0, -3312.7092, 0.003604517, -0.18112653, -1370729.3, 54894.65, 0.0, 10.000688, 9.999283 
8.649835e+2, 1.6452591e+2, -1262958.0, -1370644.0, -4782.7715, -0.0014738188, -0.17683047, -1262746.0, 64884.734, 0.0, 10.00074, 9.999313 
8.6499524e+2, 1.7452575e+2, -1129700.8, -1251895.4, -15191.944, -0.0054292097, -0.12660727, -1127840.3, 101792.78, 0.0, 10.000968, 9.999345 
8.6500716e+2, 1.845251e+2, -1035491.1, -1154533.6, -16721.594, 0.0056032, -0.12625004, -1033186.94, 98452.07, 0.0, 10.0009365, 9.999355 
8.6501926e+2, 1.945238e+2, -986995.7, -1079114.0, -11680.666, 0.030850906, -0.19505699, -985537.7, 48111.8, 0.0, 10.00059, 9.999367 
8.650308e+2, 2.0452292e+2, -899140.5, -996216.1, -36928.883, 0.03749074, -0.21364774, -886689.3, 48967.586, 0.0, 10.000565, 9.999276 
8.6504173e+2, 2.1452259e+2, -747989.7, -870825.9, -40157.242, 0.022037253, -0.17778987, -736026.7, 101633.62, 0.0, 10.000923, 9.999292 
8.650532e+2, 2.2452188e+2, -643674.75, -763815.0, -22737.3, 0.027946895, -0.17845058, -639515.56, 100150.83, 0.0, 10.000941, 9.999344 
8.650651e+2, 2.3452073e+2, -600720.94, -689082.25, -29086.92, 0.05920367, -0.23233368, -592005.7, 49670.188, 0.0, 10.00055, 9.9993725 
8.650766e+2, 2.4451992e+2, -531300.56, -627821.0, -46472.367, 0.053632367, -0.23980823, -512562.78, 31120.041, 0.0, 10.000453, 9.999167 
8.650874e+2, 2.545195e+2, -393255.28, -509292.44, -52233.496, 0.0038877507, -0.20128195, -373206.63, 72480.41, 0.0, 10.000722, 9.999179 
8.650989e+2, 2.6451847e+2, -343971.5, -511766.25, -39361.984, 0.0021085946, -0.188187, -335196.7, 12501.383, 0.0, 10.00072, 9.998488 
8.651112e+2, 2.7451673e+2, -297164.4, -440864.97, -30992.031, 0.05858361, -0.2099842, -290765.28, -41048.145, 0.0, 10.000378, 9.998467 
8.6512315e+2, 2.8451544e+2, -192570.69, -299454.63, -25751.78, 0.088976696, -0.2010983, -186689.83, -34959.457, 0.0, 10.000249, 9.998829 
8.6513484e+2, 2.9451463e+2, -72438.3, -189464.86, -29451.146, 0.085550964, -0.17176867, -65444.527, -11707.014, 0.0, 10.000396, 9.99884 
8.651463e+2, 3.0451244e+2, -73556.57, -241708.75, -3915.9436, 0.02733464, -0.23751472, -73465.43, -73465.43, 0.000000027135602, 10.000383, 9.998153 
8.6515844e+2, 3.145118e+2, 13747.977, -12.340327, -4477.8774, 0.0014045739, -0.11902107, 15076.836, 15076.836, 0.00000083365, 10.000121, 9.99994 
8.7493557e+2, 1.24516346e+2, -1693583.9, -1785661.0, -19684.938, 0.005585573, -0.15013003, -1689552.0, 30172.605, 0.0000000055054987, 10.000499, 9.999271 
8.749482e+2, 1.3451573e+2, -1553880.0, -1652934.6, 20430.303, -0.012745687, -0.15289061, -1549831.6, 71900.695, 0.0, 10.000718, 9.999407 
8.749608e+2, 1.445156e+2, -1432436.6, -1520486.9, -21133.672, 0.017086374, -0.111246675, -1427626.9, 96106.61, 0.0, 10.000779, 9.999611 
8.749726e+2, 1.5451491e+2, -1345469.6, -1424146.6, -6425.9736, 0.021660503, -0.1489197, -1344948.3, 80790.43, 0.0, 10.000688, 9.999644 
8.749843e+2, 1.6451412e+2, -1279287.0, -1404725.6, 2255.2415, 0.0071428623, -0.16377847, -1279246.4, 48499.418, 0.0, 10.000741, 9.99908 
8.7499624e+2, 1.7451334e+2, -1148942.4, -1292259.5, -6543.073, -0.0049592215, -0.1508006, -1148644.3, 81110.61, 0.0, 10.00097, 9.999067 
8.7500805e+2, 1.8451263e+2, -1028117.1, -1138985.4, -29387.652, 0.0024300884, -0.14429335, -1020809.1, 110952.13, 0.0, 10.000935, 9.999463 
8.750198e+2, 1.9451204e+2, -977824.9, -1060050.1, -24973.576, 0.025442235, -0.15611629, -970834.2, 62930.45, 0.0, 10.000589, 9.999498 
8.750313e+2, 2.0451118e+2, -902076.1, -1001979.3, -25649.09, 0.031694733, -0.1775608, -895875.8, 39895.62, 0.0, 10.000563, 9.999238 
8.750427e+2, 2.1451004e+2, -751391.1, -877351.94, -26996.717, 0.020346686, -0.21747611, -745848.9, 91933.164, 0.0, 10.00092, 9.9992485 
8.7505406e+2, 2.2450909e+2, -656572.75, -790173.7, -37229.2, 0.027633587, -0.23227404, -646898.94, 92891.77, 0.0, 10.000938, 9.999166 
8.750657e+2, 2.3450835e+2, -613767.25, -716201.5, -43937.492, 0.058226988, -0.22610791, -597503.3, 44293.703, 0.0, 10.000549, 9.999187 
8.75077e+2, 2.445075e+2, -539290.7, -644717.5, -38222.59, 0.055252783, -0.22249217, -526891.4, 16913.432, 0.0, 10.000453, 9.999052 
8.750882e+2, 2.545065e+2, -402196.0, -526613.0, -41509.695, 0.00933299, -0.23011848, -389618.47, 56195.96, 0.0, 10.000716, 9.999063 
8.750996e+2, 2.6450536e+2, -331800.9, -485352.88, -50653.46, -0.0011480739, -0.22856511, -316596.88, 31229.174, 0.0, 10.000714, 9.998673 
8.751113e+2, 2.7450413e+2, -282736.94, -410772.25, -43018.69, 0.035151508, -0.22195105, -269625.7, -19785.77, 0.0, 10.000377, 9.998675 
8.75123e+2, 2.8450316e+2, -196869.73, -308787.03, -21597.896, 0.057408445, -0.18717797, -192846.39, -40996.414, 0.0, 10.00025, 9.998764 
8.7513494e+2, 2.9450247e+2, -78787.586, -200677.25, -22829.648, 0.056598905, -0.13803864, -74651.97, -20795.225, 0.0, 10.000387, 9.998767 
8.7514657e+2, 3.0450013e+2, -73076.08, -238170.84, -11767.391, 0.017867958, -0.2191539, -72241.56, -72241.56, 0.00000006425192, 10.000373, 9.998181 
8.751588e+2, 3.144996e+2, 1876.4884, -22448.3, -12899.37, 0.025731994, -0.09414181, 7443.098, 7443.098, 0.0000011924308, 10.000113, 9.999788 
8.849361e+2, 1.2450427e+2, -1645513.5, -1769213.3, -33425.51, -0.0013670442, -0.14686348, -1637059.1, 82783.64, 0.00000006865042, 10.000858, 9.999212 
8.849489e+2, 1.3450354e+2, -1560973.3, -1666104.8, 26557.057, -0.007241386, -0.1518509, -1554645.5, 67206.39, 0.0, 10.000712, 9.99932 
8.849616e+2, 1.4450336e+2, -1446055.4, -1534094.8, -11475.114, 0.029977035, -0.10974951, -1444584.3, 79269.74, 0.0, 10.000715, 9.99955 
8.8497347e+2, 1.5450273e+2, -1309793.1, -1412727.1, -27304.975, 0.02313308, -0.13344114, -1302998.5, 122860.016, 0.0, 10.000958, 9.999591 
8.849852e+2, 1.645019e+2, -1232635.4, -1379886.5, -25365.805, 0.0075763026, -0.15052812, -1228388.3, 99477.664, 0.0, 10.001053, 9.999098 
8.849973e+2, 1.7450091e+2, -1149296.4, -1291227.3, -13783.702, 0.0073956875, -0.15959983, -1147970.1, 81906.29, 0.0, 10.00096, 9.99908 
8.850091e+2, 1.8450016e+2, -1029190.6, -1139731.5, -35925.484, 0.013629127, -0.16051869, -1018540.94, 113342.25, 0.0, 10.000927, 9.999462 
8.8502043e+2, 1.9449967e+2, -922169.94, -1032485.06, -42220.285, 0.016438443, -0.16081691, -907865.94, 126019.8, 0.0, 10.00097, 9.999505 
8.8503194e+2, 2.0449887e+2, -854706.56, -976286.25, -37633.387, 0.023435827, -0.17690271, -844000.44, 91891.414, 0.0, 10.000877, 9.999262 
8.8504356e+2, 2.1449775e+2, -793390.2, -894722.3, -34202.938, 0.03917756, -0.21981128, -782926.1, 54976.14, 0.0, 10.000621, 9.999272 
8.85055e+2, 2.244968e+2, -716535.25, -823829.3, -42057.914, 0.044332135, -0.23253198, -702014.3, 37896.51, 0.0, 10.000547, 9.999123 
8.8506603e+2, 2.344961e+2, -595028.44, -712791.9, -40236.54, 0.035705905, -0.21641128, -582593.7, 59323.395, 0.0, 10.000702, 9.999138 
8.8507736e+2, 2.4449517e+2, -519999.7, -648943.94, -25978.092, 0.0295198, -0.21320182, -514962.7, 28963.314, 0.0, 10.000644, 9.99893 
8.8508886e+2, 2.544939e+2, -466508.75, -571281.2, -30952.885, 0.02491745, -0.23500903, -458047.63, -12109.338, 0.0, 10.000334, 9.9989395 
8.851003e+2, 2.6449275e+2, -388715.13, -492864.6, -41817.395, 0.021130053, -0.23983401, -374003.1, -26053.094, 0.0, 10.000237, 9.998852 
8.851115e+2, 2.7449173e+2, -264584.88, -380292.97, -35960.78, 0.020727156, -0.22900726, -254319.39, -4358.664, 0.0, 10.000409, 9.998869 
8.8512325e+2, 2.8449088e+2, -175821.2, -310881.7, -13271.48, 0.036525127, -0.1900557, -174529.45, -22559.684, 0.0, 10.000449, 9.998653 
8.8513535e+2, 2.9449004e+2, -99015.89, -224719.56, -19144.277, 0.068410665, -0.1372875, -96164.94, -42186.77, 0.0, 10.000309, 9.99864 
8.85147e+2, 3.0448765e+2, -84106.484, -217142.08, -8633.333, 0.03141171, -0.23197983, -83548.56, -83548.56, 0.00000010587227, 10.000183, 9.998418 
8.8515866e+2, 3.1448743e+2, -1335.4165, -18431.0, 2315.6697, -0.0057532424, -0.09918796, -1027.3024, -1027.3024, 0.0000015115112, 10.000068, 9.999838 
8.94937e+2, 1.2449205e+2, -1626560.1, -1730140.0, -36852.707, -0.007497127, -0.13428271, -1614786.6, 105176.195, 0.00000033535434, 10.000858, 9.999479 
8.949497e+2, 1.3449125e+2, -1545228.6, -1633560.1, 20775.893, -0.002091735, -0.16879182, -1540586.1, 81384.875, 0.00000000007521531, 10.000712, 9.999543 
8.949624e+2, 1.4449094e+2, -1472614.4, -1591255.9, -5111.2524, 0.03531254, -0.13477053, -1472394.6, 51579.973, 0.0, 10.000723, 9.999154 
8.949742e+2, 1.544901e+2, -1340978.4, -1477577.9, -18151.19, 0.003161416, -0.13445239, -1338607.5, 87375.52, 0.0, 10.000958, 9.999146 
8.9498615e+2, 1.6448928e+2, -1215231.1, -1343583.0, -28467.88, -0.0063030142, -0.13807829, -1209200.5, 118790.27, 0.0, 10.001052, 9.999348 
8.949985e+2, 1.7448853e+2, -1128359.1, -1248071.4, -17132.365, 0.030043066, -0.15355128, -1125955.5, 104041.7, 0.0, 10.000961, 9.999375 
8.9501023e+2, 1.8448767e+2, -1036583.44, -1155307.9, -35522.543, 0.036980372, -0.17391565, -1026766.75, 105237.69, 0.0, 10.000928, 9.999356 
8.950213e+2, 1.9448672e+2, -930896.4, -1050883.1, -41064.973, 0.002640871, -0.20841381, -918188.06, 115824.234, 0.0, 10.000971, 9.999378 
8.950327e+2, 2.0448604e+2, -848986.9, -964277.75, -48101.727, 0.0115836505, -0.21167512, -831553.9, 104463.99, 0.0, 10.000876, 9.999346 
8.9504457e+2, 2.1448569e+2, -787151.4, -881311.94, -44392.57, 0.076194376, -0.18515478, -769522.7, 68497.945, 0.0, 10.000618, 9.999367 
8.9505583e+2, 2.2448502e+2, -710657.6, -811319.5, -38037.957, 0.07467784, -0.17876254, -697900.6, 42125.844, 0.0, 10.0005455, 9.999209 
8.9506626e+2, 2.34484e+2, -589248.7, -700574.44, -34388.53, -0.009732481, -0.20351587, -579482.75, 62553.08, 0.0, 10.0007, 9.999223 
8.9507747e+2, 2.4448292e+2, -529649.6, -669104.6, -37270.05, -0.02431236, -0.21331114, -520314.0, 23732.375, 0.0, 10.000644, 9.998793 
8.950894e+2, 2.544817e+2, -476538.97, -592122.4, -42088.594, 0.0483717, -0.21666086, -462837.1, -16778.533, 0.0, 10.000333, 9.998797 
8.9510095e+2, 2.6448056e+2, -376185.56, -467106.8, -36795.523, 0.06539827, -0.22110426, -363160.47, -15090.756, 0.0, 10.000238, 9.999028 
8.9511186e+2, 2.744795e+2, -252158.81, -353287.28, -28991.438, 0.013546427, -0.23046277, -244437.14, 5642.197, 0.0, 10.000403, 9.999057 
8.9512354e+2, 2.8447852e+2, -188024.14, -335109.78, -17311.63, 0.024915686, -0.20900828, -186014.08, -33924.563, 0.0, 10.000443, 9.99849 
8.951362e+2, 2.944774e+2, -111778.164, -250788.3, -22752.74, 0.1129886, -0.16746385, -108148.83, -54047.387, 0.0, 10.000306, 9.998463 
8.9514744e+2, 3.0447498e+2, -55223.55, -156594.17, -13365.102, 0.060560152, -0.2734703, -53491.055, -53491.055, 0.00000013409642, 10.00018, 9.998836 
8.9515775e+2, 3.1447518e+2, 13123.604, 15277.473, -1609.186, -0.093420625, -0.14210652, 16136.841, 16136.841, 0.0000016978646, 10.000052, 10.000076 
9.0493786e+2, 1.24479316e+2, -1634784.9, -1730910.0, -48324.984, 0.0034313872, -0.14865096, -1614690.9, 105396.69, 0.0000010631732, 10.000784, 9.999513 
9.0495056e+2, 1.344787e+2, -1488763.4, -1605233.1, -9858.57, -0.004084794, -0.16640565, -1487934.9, 134158.95, 0.000000007369457, 10.001095, 9.999554 
9.0496325e+2, 1.4447837e+2, -1411784.3, -1566397.4, -33247.93, 0.033091467, -0.13285233, -1404937.8, 119159.805, 0.0, 10.001163, 9.999112 
9.049752e+2, 1.544774e+2, -1346693.0, -1486374.9, -18552.611, 0.010019774, -0.14016251, -1344270.8, 81836.77, 0.0, 10.000944, 9.999095 
9.049871e+2, 1.6447657e+2, -1246113.0, -1346582.0, -20236.34, 0.002853532, -0.14770882, -1242190.3, 85925.09, 0.0, 10.000788, 9.999455 
9.049993e+2, 1.7447594e+2, -1154019.5, -1246201.8, -23248.287, 0.027574219, -0.16197579, -1148488.3, 81631.94, 0.0, 10.000727, 9.999499 
9.0501106e+2, 1.8447518e+2, -1061949.8, -1169738.4, -38204.15, 0.032610256, -0.17749245, -1049782.4, 82344.01, 0.0, 10.000766, 9.999333 
9.050223e+2, 1.9447431e+2, -939823.25, -1059215.8, -36649.965, 0.01048791, -0.20220569, -929470.5, 104663.766, 0.0, 10.000927, 9.999342 
9.050337e+2, 2.0447363e+2, -838298.44, -951760.1, -52162.19, 0.019376094, -0.20529778, -817962.56, 118177.32, 0.0, 10.000917, 9.999412 
9.050451e+2, 2.1447323e+2, -770127.6, -865169.4, -52247.277, 0.066530116, -0.19011667, -747022.6, 91120.05, 0.0, 10.000701, 9.999437 
9.050563e+2, 2.2447261e+2, -706886.25, -808072.3, -38547.836, 0.06578811, -0.18501091, -693874.3, 46273.824, 0.0, 10.0005665, 9.999222 
9.050671e+2, 2.3447171e+2, -611689.1, -710192.2, -40878.734, 0.0049968204, -0.19897434, -596934.56, 45222.195, 0.0, 10.000543, 9.999232 
9.050782e+2, 2.444707e+2, -540389.5, -664442.9, -46019.965, -0.008502303, -0.20418228, -525181.8, 18984.54, 0.0, 10.000528, 9.998879 
9.0508974e+2, 2.5446954e+2, -442436.22, -565578.25, -34883.426, 0.03689417, -0.21041822, -433241.1, 12936.366, 0.0, 10.0005245, 9.998887 
9.051012e+2, 2.6446834e+2, -349304.56, -467163.06, -23417.53, 0.053643823, -0.2192511, -344822.16, 3366.8643, 0.0, 10.00048, 9.998911 
9.0511245e+2, 2.7446714e+2, -262935.72, -372833.72, -39662.98, 0.03521218, -0.23483488, -250116.4, 84.47749, 0.0, 10.000391, 9.998929 
9.051241e+2, 2.844661e+2, -199664.95, -331030.66, -35372.395, 0.04568803, -0.21444124, -190745.9, -38534.473, 0.0, 10.00032, 9.998578 
9.0513617e+2, 2.9446515e+2, -111120.95, -238517.1, -21979.639, 0.09063767, -0.16764212, -107435.43, -53213.996, 0.0, 10.00026, 9.998569 
9.051474e+2, 3.0446276e+2, -49474.375, -137992.8, -11300.71, 0.036937866, -0.28096864, -48054.445, -48054.445, 0.0000001316986, 10.000153, 9.998976 
9.05158e+2, 3.1446293e+2, -3649.1934, -2407.0994, -24689.041, -0.07631056, -0.16842897, 21668.705, 21668.705, 0.0000016698094, 9.999975, 9.999994 
9.1493887e+2, 1.24466114e+2, -1643367.9, -1752791.8, -38156.887, 0.02146353, -0.18778016, -1631376.4, 88840.22, 0.0000026057617, 10.0008, 9.999356 
9.149515e+2, 1.3446593e+2, -1501993.3, -1631711.1, 1169.2595, -0.019348746, -0.14478694, -1501982.8, 120237.18, 0.00000007607973, 10.00109, 9.999374 
9.1496426e+2, 1.4446568e+2, -1391674.0, -1524141.6, -40706.64, 0.015210411, -0.104796655, -1380165.0, 144057.67, 0.0, 10.00116, 9.999403 
9.149764e+2, 1.5446468e+2, -1323546.3, -1438662.4, -26292.49, 0.041905954, -0.15002255, -1317825.4, 108406.08, 0.0, 10.000946, 9.999421 
9.149882e+2, 1.6446382e+2, -1247586.5, -1351470.8, -24106.752, 0.033969715, -0.17674059, -1242265.0, 85974.02, 0.0, 10.000794, 9.999419 
9.149998e+2, 1.744632e+2, -1157690.3, -1254254.4, -25871.916, -0.0015695536, -0.1839148, -1151195.4, 79049.2, 0.0, 10.000728, 9.999445 
9.1501147e+2, 1.8446274e+2, -1057900.5, -1160859.8, -33545.047, -0.0019274077, -0.17148606, -1047935.7, 84313.016, 0.0, 10.000763, 9.999396 
9.150235e+2, 1.9446243e+2, -935884.25, -1050108.3, -30893.63, 0.03708255, -0.14317533, -928064.0, 106187.23, 0.0, 10.000922, 9.999407 
9.1503483e+2, 2.044617e+2, -836586.3, -947229.56, -60632.168, 0.04340545, -0.15756847, -809830.25, 126427.12, 0.0, 10.000913, 9.999446 
9.1504526e+2, 2.1446043e+2, -767738.25, -859868.9, -60937.23, 0.010055028, -0.23380515, -737414.06, 100853.89, 0.0, 10.000699, 9.9994755 
9.150564e+2, 2.2445956e+2, -711426.06, -817780.0, -41099.41, 0.017778914, -0.25069588, -697394.75, 42880.793, 0.0, 10.000567, 9.999155 
9.1506827e+2, 2.3445922e+2, -616993.2, -720471.06, -41714.2, 0.07653133, -0.20226866, -602271.7, 40007.773, 0.0, 10.000539, 9.999164 
9.1507953e+2, 2.4445856e+2, -519234.16, -619941.8, -46630.516, 0.072211765, -0.18475007, -500959.16, 43326.414, 0.0, 10.000525, 9.999187 
9.150898e+2, 2.5445747e+2, -420517.44, -519462.22, -34874.215, -0.010029642, -0.2151406, -409461.1, 36833.586, 0.0, 10.000522, 9.999206 
9.15101e+2, 2.6445615e+2, -377502.28, -525724.3, -26658.438, -0.0135985995, -0.23400354, -372853.47, -24545.795, 0.0, 10.00048, 9.998509 
9.151133e+2, 2.744546e+2, -294035.06, -436881.34, -41698.723, 0.08048066, -0.24240823, -282753.6, -32428.592, 0.0, 10.000387, 9.998491 
9.1512495e+2, 2.844536e+2, -178229.16, -284696.16, -37796.49, 0.092975296, -0.20656398, -166175.75, -13840.499, 0.0, 10.000313, 9.9989 
9.1513556e+2, 2.9445323e+2, -87248.04, -185730.23, -23308.174, 0.0039304285, -0.13894847, -82010.18, -27672.072, 0.0, 10.000247, 9.998938 
9.1514677e+2, 3.0445096e+2, -58388.0, -154484.19, -17279.13, -0.037367154, -0.25642636, -55375.465, -55375.465, 0.00000009563079, 10.000143, 9.998868 
9.15159e+2, 3.144505e+2, -28413.094, -53440.047, -28986.459, 0.029387822, -0.18873212, -9354.399, -9354.399, 0.0000014046396, 9.999973, 9.999644 
9.2494e+2, 1.2445338e+2, -1560350.9, -1720328.3, -36265.758, 0.031003743, -0.17664689, -1552513.6, 167828.47, 0.0000053561066, 10.001408, 9.999283 
9.249526e+2, 1.3445306e+2, -1515466.8, -1649916.8, 5275.1777, -0.007936662, -0.13746583, -1515260.1, 107086.664, 0.00000033393198, 10.001049, 9.999269 
9.249653e+2, 1.4445275e+2, -1425712.8, -1521545.0, -38529.9, 0.022293458, -0.106500916, -1412143.0, 112206.83, 0.0, 10.000845, 9.999573 
9.2497736e+2, 1.5445188e+2, -1323417.1, -1416681.3, -36343.027, 0.044414397, -0.15709482, -1310927.5, 115429.16, 0.0, 10.0008545, 9.999614 
9.249891e+2, 1.6445114e+2, -1234030.5, -1346820.5, -33827.04, 0.03519472, -0.18067917, -1224663.3, 103699.71, 0.0, 10.0009, 9.999398 
9.250006e+2, 1.7445064e+2, -1120344.8, -1240495.8, -34344.7, 0.002442545, -0.17237003, -1111220.4, 119147.62, 0.0, 10.001003, 9.999406 
9.2501235e+2, 1.8445024e+2, -1034997.1, -1135415.6, -44248.535, 0.0047501395, -0.15752305, -1018281.75, 114089.94, 0.0, 10.000858, 9.999525 
9.250242e+2, 1.9444995e+2, -1001027.4, -1065445.5, -37890.137, 0.04367951, -0.14278315, -983506.3, 50867.51, 0.0, 10.000408, 9.999549 
9.250355e+2, 2.0444927e+2, -925501.56, -989358.2, -57491.477, 0.046181206, -0.15911686, -891667.5, 44711.855, 0.0, 10.0003, 9.999451 
9.2504585e+2, 2.1444812e+2, -778938.94, -865887.9, -61029.22, 0.0049878443, -0.22190425, -747482.8, 90906.3, 0.0, 10.000625, 9.99947 
9.2505693e+2, 2.2444728e+2, -690437.9, -799341.75, -44778.313, 0.013293858, -0.2403247, -674390.8, 66005.74, 0.0, 10.000676, 9.9992285 
9.2506886e+2, 2.3444681e+2, -633489.6, -719584.56, -36684.234, 0.08275877, -0.21294786, -619979.0, 22422.035, 0.0, 10.000388, 9.999242 
9.2508e+2, 2.4444613e+2, -550354.3, -634354.06, -37102.453, 0.08125097, -0.20116241, -536313.3, 8093.8276, 0.0, 10.00031, 9.999192 
9.250903e+2, 2.544452e+2, -422313.28, -520182.03, -49384.18, -0.008399283, -0.21666372, -401725.22, 44690.11, 0.0, 10.000508, 9.9992075 
9.2510146e+2, 2.64444e+2, -367208.66, -513027.3, -45589.49, -0.019240024, -0.2256864, -354128.63, -5701.337, 0.0, 10.000516, 9.99858 
9.251135e+2, 2.7444252e+2, -305636.66, -433706.94, -24574.205, 0.068003684, -0.23072647, -301083.25, -50639.74, 0.0, 10.000271, 9.998569 
9.2512494e+2, 2.844416e+2, -209063.64, -293376.3, -6299.4985, 0.07829086, -0.19836241, -208595.56, -56142.277, 0.0, 10.000075, 9.998955 
9.2513555e+2, 2.9444116e+2, -126237.25, -198388.2, -16100.272, -0.006238698, -0.14158106, -122807.55, -68351.07, 0.0, 9.999951, 9.998993 
9.251469e+2, 3.0443904e+2, -88121.09, -168271.98, -14833.802, -0.03244357, -0.24814881, -85463.84, -85463.84, 0.00000004550982, 9.999935, 9.998874 
9.251592e+2, 3.1443867e+2, -32856.883, -75811.35, -17676.797, 0.053502966, -0.17179935, -26517.922, -26517.922, 0.0000009683944, 10.00003, 9.999464 
9.349413e+2, 1.2444117e+2, -1561249.8, -1721692.0, -48045.04, 0.013652407, -0.11957088, -1547962.8, 172500.55, 0.000009830683, 10.001405, 9.999274 
9.3495405e+2, 1.3444018e+2, -1518121.8, -1656544.5, -7706.1963, 0.028694687, -0.14196186, -1517694.1, 104779.375, 0.0000009955157, 10.001055, 9.99922 
9.349665e+2, 1.4443965e+2, -1420120.9, -1513664.1, -40039.957, 0.053242266, -0.13397317, -1405323.1, 119155.305, 0.00000000002439963, 10.000859, 9.999621 
9.349779e+2, 1.5443908e+2, -1319967.5, -1409455.5, -36035.72, 0.014877804, -0.16027485, -1307260.8, 119221.984, 0.0, 10.000854, 9.999665 
9.349897e+2, 1.644386e+2, -1235093.0, -1348251.1, -30883.04, 0.0025543263, -0.15934284, -1227213.1, 101273.484, 0.0, 10.000896, 9.999391 
9.3500197e+2, 1.7443831e+2, -1121985.4, -1243266.5, -30362.672, 0.0367974, -0.12786339, -1114808.8, 115681.164, 0.0, 10.001001, 9.999388 
9.3501365e+2, 1.8443777e+2, -1022495.3, -1109256.6, -60906.813, 0.0492009, -0.13478522, -991099.5, 141395.17, 0.0, 10.000856, 9.999706 
9.350245e+2, 1.9443688e+2, -986387.94, -1035622.7, -55371.473, 0.02982333, -0.19992393, -950408.2, 84093.23, 0.0, 10.000409, 9.999753 
9.350356e+2, 2.0443638e+2, -926809.9, -992777.8, -48275.273, 0.02729663, -0.20937993, -901326.4, 35179.04, 0.0, 10.000303, 9.999427 
9.350469e+2, 2.1443635e+2, -782596.8, -872283.44, -49139.31, 0.04773581, -0.15509944, -760914.94, 77590.92, 0.0, 10.000619, 9.999429 
9.35058e+2, 2.2443578e+2, -677002.06, -770441.4, -55461.72, 0.048622802, -0.15434657, -651204.6, 89306.055, 0.0, 10.000671, 9.99943 
9.350686e+2, 2.3443449e+2, -618839.7, -688786.56, -47863.492, 0.024153914, -0.22995678, -594533.6, 47987.44, 0.0, 10.000386, 9.9994545 
9.350797e+2, 2.4443345e+2, -570319.8, -676234.75, -31404.95, 0.019133747, -0.2518756, -561708.1, -17177.52, 0.0, 10.000311, 9.998904 
9.350913e+2, 2.544327e+2, -445039.44, -566036.4, -41179.082, 0.03755513, -0.21593179, -432354.7, 14184.3545, 0.0, 10.000502, 9.998897 
9.3510246e+2, 2.644319e+2, -331877.8, -437066.5, -53858.844, 0.032172393, -0.195762, -309193.06, 39354.594, 0.0, 10.0005045, 9.999107 
9.35113e+2, 2.74431e+2, -267179.56, -351663.84, -33381.977, -0.001794453, -0.20055537, -255581.63, -5025.329, 0.0, 10.000261, 9.999137 
9.351243e+2, 2.8443006e+2, -223083.4, -321994.78, -11569.578, 0.0016039112, -0.18947962, -221748.14, -69182.664, 0.0, 10.000072, 9.99876 
9.351361e+2, 2.9442897e+2, -142841.55, -233353.9, -19466.662, 0.05059901, -0.17341942, -138832.4, -84256.336, 0.0, 9.999952, 9.998754 
9.351475e+2, 3.0442703e+2, -81702.03, -153554.94, -11702.258, 0.04258482, -0.25510308, -79844.195, -79844.195, 0.000000010385675, 9.99993, 9.998977 
9.3515867e+2, 3.1442732e+2, -36584.81, -79673.984, -12014.887, -0.0044825263, -0.12832494, -33461.063, -33461.063, 0.00000050425, 10.000014, 9.999444 
9.4494283e+2, 1.2442876e+2, -1530481.5, -1700827.3, -39009.54, 0.021644007, -0.09991819, -1521973.3, 198613.1, 0.000016700973, 10.00159, 9.99933 
9.449554e+2, 1.3442765e+2, -1466154.9, -1626881.4, 3304.295, 0.040622897, -0.13750492, -1466087.0, 156509.47, 0.0000023433604, 10.001392, 9.99926 
9.449675e+2, 1.4442703e+2, -1379176.9, -1507716.8, -24232.332, 0.057502165, -0.13431984, -1374760.3, 149841.86, 0.0000000053592455, 10.001204, 9.999495 
9.4497883e+2, 1.5442649e+2, -1302096.8, -1416015.1, -34835.438, 0.011074557, -0.14318724, -1292288.8, 134318.31, 0.0, 10.001043, 9.999528 
9.4499046e+2, 1.6442604e+2, -1235837.4, -1331357.4, -31413.514, 0.0016943112, -0.14059211, -1226432.4, 102178.64, 0.0, 10.000817, 9.999544 
9.450028e+2, 1.7442574e+2, -1182095.9, -1252428.1, -18019.777, 0.049531613, -0.12793891, -1177747.9, 52865.73, 0.0, 10.0005045, 9.999563 
9.450144e+2, 1.844252e+2, -1082059.4, -1136323.9, -45196.258, 0.062260903, -0.14371063, -1056476.8, 76141.03, 0.0, 10.0004425, 9.999718 
9.45025e+2, 1.9442436e+2, -943236.1, -1014867.3, -54922.215, 0.026834795, -0.20412733, -913483.4, 121140.836, 0.0, 10.000707, 9.999752 
9.45036e+2, 2.0442393e+2, -864087.06, -954146.44, -49256.492, 0.02335878, -0.20824724, -842379.4, 94248.13, 0.0, 10.000698, 9.999501 
9.4504756e+2, 2.1442406e+2, -816309.75, -879608.1, -42453.67, 0.06088003, -0.14886443, -795006.3, 43620.516, 0.0, 10.000351, 9.999507 
9.450585e+2, 2.2442356e+2, -735014.6, -796219.94, -49975.16, 0.058513254, -0.1455468, -707016.6, 33614.324, 0.0, 10.000264, 9.999449 
9.4506884e+2, 2.3442228e+2, -599392.44, -678246.44, -57889.47, 0.0052590463, -0.2201319, -568778.9, 73862.164, 0.0, 10.000514, 9.999466 
9.4507986e+2, 2.4442126e+2, -552567.1, -665419.8, -43259.79, -0.0014647119, -0.24121009, -537892.56, 6757.915, 0.0, 10.0004225, 9.998925 
9.450916e+2, 2.5442055e+2, -531456.75, -604969.44, -30213.076, 0.049868807, -0.20557407, -520633.1, -73974.04, 0.0, 9.999897, 9.99892 
9.4510275e+2, 2.644198e+2, -438411.28, -465320.72, -35987.125, 0.049605317, -0.19060034, -413445.9, -64778.992, 0.0, 9.999674, 9.999313 
9.45113e+2, 2.74419e+2, -312135.63, -348885.94, -41680.586, -0.013868675, -0.2059203, -284959.5, -34285.844, 0.0, 9.999847, 9.999356 
9.451241e+2, 2.844182e+2, -232897.16, -322624.34, -24034.154, -0.01718579, -0.19762029, -226864.95, -74183.43, 0.0, 9.999987, 9.998797 
9.4513613e+2, 2.9441723e+2, -125645.39, -221651.64, -13393.035, 0.05402302, -0.1721127, -123812.05, -69120.836, 0.0, 10.000056, 9.998784 
9.4514763e+2, 3.0441546e+2, -48958.15, -123235.26, 9570.047, 0.05375218, -0.24157602, -47744.938, -47744.938, 0.00000000032400083, 10.000093, 9.999106 
9.451587e+2, 3.1441554e+2, -22877.479, -72210.05, 7146.294, -0.008818153, -0.14629255, -21863.127, -21863.127, 0.00000016973306, 10.000105, 9.999452 
9.5494455e+2, 1.2441623e+2, -1518948.0, -1682119.1, -46413.316, 0.03796028, -0.11656067, -1506669.8, 214040.25, 0.000026645826, 10.001611, 9.999449 
9.549566e+2, 1.3441555e+2, -1457748.3, -1609318.4, -4084.569, 0.025311904, -0.12361128, -1457638.3, 165076.73, 0.00000475329, 10.00139, 9.999382 
9.549685e+2, 1.4441498e+2, -1401596.0, -1552867.0, -30713.422, 0.031246204, -0.10785003, -1395598.0, 129122.48, 0.000000046136613, 10.001197, 9.999187 
9.5498e+2, 1.5441422e+2, -1325592.5, -1464760.0, -40330.855, 0.030394012, -0.10566721, -1314749.4, 111979.93, 0.0, 10.001043, 9.999193 
9.549916e+2, 1.6441353e+2, -1213344.0, -1285479.6, -43232.832, 0.02928804, -0.12354458, -1193109.4, 135626.19, 0.0, 10.00082, 9.999859 
9.5500326e+2, 1.7441298e+2, -1156403.3, -1199784.1, -29719.09, 0.039453577, -0.17186889, -1141301.0, 89437.266, 0.0, 10.000506, 9.999925 
9.5501465e+2, 1.844126e+2, -1093080.4, -1159476.8, -37567.043, 0.042023312, -0.18348594, -1076144.8, 56595.7, 0.0, 10.000443, 9.999559 
9.5502573e+2, 1.9441244e+2, -957671.75, -1043872.56, -45361.38, 0.032323666, -0.1550615, -938199.8, 96541.89, 0.0, 10.000703, 9.999556 
9.550368e+2, 2.0441203e+2, -853298.6, -931105.3, -62256.188, 0.031647213, -0.1555362, -818790.06, 117955.086, 0.0, 10.000694, 9.999661 
9.5504767e+2, 2.1441127e+2, -803279.75, -852199.8, -56192.44, 0.04345674, -0.2016714, -766454.5, 72296.89, 0.0, 10.000349, 9.999696 
9.550586e+2, 2.2441065e+2, -746127.0, -819488.94, -43178.0, 0.042023394, -0.21196803, -726152.6, 14604.053, 0.0, 10.000264, 9.9992895 
9.550696e+2, 2.3441023e+2, -612452.94, -704348.9, -48275.383, 0.022924315, -0.18496946, -591754.56, 51006.043, 0.0, 10.000509, 9.9992895 
9.5508045e+2, 2.4440962e+2, -531522.8, -620723.0, -61626.637, 0.01670095, -0.1714758, -500050.47, 44716.08, 0.0, 10.000418, 9.999234 
9.5509124e+2, 2.5440875e+2, -508192.16, -556394.56, -49788.668, 0.027216109, -0.18462533, -476978.1, -30203.047, 0.0, 9.999895, 9.999254 
9.5510215e+2, 2.6440775e+2, -444340.34, -478918.78, -31444.195, 0.031425133, -0.20700812, -425745.66, -76961.08, 0.0, 9.999679, 9.999218 
9.5511323e+2, 2.744066e+2, -320149.06, -365939.5, -34484.387, 0.026312169, -0.24531715, -301651.47, -50856.37, 0.0, 9.999847, 9.999239 
9.551244e+2, 2.8440598e+2, -216309.06, -286006.4, -21137.857, 0.01744549, -0.22358142, -210399.44, -57598.336, 0.0, 9.999978, 9.999053 
9.551357e+2, 2.9440588e+2, -108173.305, -181747.75, -9907.796, 0.003514546, -0.14122213, -106862.44, -52060.414, 0.0, 10.000041, 9.999065 
9.551472e+2, 3.0440435e+2, -40149.207, -101892.4, 9574.192, 0.0005493467, -0.20917726, -38698.664, -38698.664, 0.0, 10.000079, 9.999262 
9.551592e+2, 3.144035e+2, -21704.982, -66699.21, 9737.541, 0.029189263, -0.22166099, -19688.021, -19688.021, 0.000000027453995, 10.000091, 9.999497 
9.6494645e+2, 1.24404304e+2, -1499620.1, -1683253.1, -28328.123, 0.054206546, -0.10313549, -1495349.4, 225477.89, 0.000040247374, 10.001792, 9.9993515 
9.649581e+2, 1.3440332e+2, -1455159.4, -1620520.5, -6652.0137, 0.025549384, -0.13111748, -1454892.3, 167943.06, 0.0000086557575, 10.001465, 9.999269 
9.649696e+2, 1.4440265e+2, -1397045.8, -1542581.6, -24897.531, 0.023612522, -0.120461024, -1392904.3, 131937.16, 0.00000019058375, 10.001195, 9.999258 
9.6498126e+2, 1.5440218e+2, -1332094.0, -1458159.5, -5030.8423, 0.051454246, -0.098314546, -1331893.6, 94953.875, 0.0, 10.0009575, 9.999279 
9.649927e+2, 1.6440158e+2, -1215706.3, -1293310.6, -1313.2744, 0.05513415, -0.10945959, -1215684.1, 113168.85, 0.0, 10.0008335, 9.999798 
9.650039e+2, 1.7440087e+2, -1107298.9, -1183383.4, -20015.762, 0.037092097, -0.1670187, -1102354.6, 128502.72, 0.0, 10.000876, 9.999859 
9.650151e+2, 1.8440042e+2, -1049067.5, -1138170.4, -35346.332, 0.033267442, -0.18146007, -1036748.94, 96111.14, 0.0, 10.000746, 9.999559 
9.6502644e+2, 1.9440033e+2, -1001495.1, -1064291.8, -28704.143, 0.044223346, -0.14882164, -990351.9, 44508.965, 0.0, 10.0004, 9.99956 
9.650374e+2, 2.0439987e+2, -914991.3, -966945.25, -44685.14, 0.043707225, -0.15011376, -889281.1, 47583.563, 0.0, 10.000299, 9.999605 
9.6504796e+2, 2.1439898e+2, -783245.3, -849689.2, -57934.484, 0.028980006, -0.2029679, -749683.25, 89189.0, 0.0, 10.000517, 9.999633 
9.6505886e+2, 2.2439837e+2, -715993.06, -799456.2, -48033.28, 0.027249571, -0.21236409, -694095.06, 46782.71, 0.0, 10.000447, 9.999339 
9.6507e+2, 2.343981e+2, -680418.56, -730370.4, -37493.813, 0.040886708, -0.17616935, -660343.56, -17463.018, 0.0, 10.000014, 9.999349 
9.650808e+2, 2.4439758e+2, -601281.75, -640447.06, -49337.742, 0.040997922, -0.16215388, -567782.44, -22897.014, 0.0, 9.999881, 9.999357 
9.650912e+2, 2.5439677e+2, -464727.3, -521218.22, -53393.063, 0.02440301, -0.18360631, -432568.94, 14323.948, 0.0, 10.0001335, 9.999381 
9.65102e+2, 2.6439577e+2, -377756.4, -455771.4, -38610.184, 0.021255877, -0.20521735, -361879.22, -12977.27, 0.0, 10.000175, 9.999138 
9.651132e+2, 2.743947e+2, -315022.88, -373662.25, -40704.24, 0.034809474, -0.23173645, -294178.03, -43265.32, 0.0, 9.9999275, 9.999148 
9.651243e+2, 2.84394e+2, -245949.11, -287734.06, -30712.33, 0.0250098, -0.21526079, -229696.69, -76777.37, 0.0, 9.999721, 9.999165 
9.6513534e+2, 2.9439375e+2, -165214.5, -195296.5, -32510.744, -0.013627368, -0.1591214, -144434.0, -89512.75, 0.0, 9.99959, 9.999189 
9.6514684e+2, 3.0439243e+2, -99301.59, -111516.34, -13846.501, -0.018390654, -0.22173345, -90275.375, -90275.375, 0.0, 9.999594, 9.999429 
9.651591e+2, 3.1439188e+2, -66242.68, -76195.72, -12358.426, 0.033617098, -0.22108977, -57896.42, -57896.42, 0.00000000015790982, 9.999735, 9.999603 
9.749482e+2, 1.2439303e+2, -1521984.4, -1728647.9, -37652.746, 0.051614508, -0.06371027, -1515338.1, 205599.36, 0.000057975532, 10.001787, 9.9990425 
9.749597e+2, 1.3439101e+2, -1479332.1, -1671637.6, -17670.574, 0.037606023, -0.1598873, -1477721.9, 145234.77, 0.000014441633, 10.001469, 9.998916 
9.749708e+2, 1.4439014e+2, -1365610.8, -1478177.4, -33735.957, 0.030041052, -0.17216727, -1356274.5, 168690.1, 0.0000005546723, 10.001198, 9.999699 
9.7498244e+2, 1.5439044e+2, -1297459.8, -1386169.3, -13562.992, 0.072651364, -0.12092448, -1295432.4, 131528.58, 0.0, 10.000957, 9.999774 
9.749937e+2, 1.6439024e+2, -1246166.6, -1356337.5, -1237.021, 0.07690027, -0.09751097, -1246152.8, 82809.72, 0.0, 10.000833, 9.999366 
9.750048e+2, 1.7438947e+2, -1142217.4, -1255477.4, -18466.592, 0.04036542, -0.112512335, -1139282.5, 91687.36, 0.0, 10.000874, 9.999365 
9.7501594e+2, 1.8438873e+2, -1037999.3, -1114982.4, -48416.12, 0.03272974, -0.13786834, -1014638.44, 118337.81, 0.0, 10.000745, 9.99972 
9.7502697e+2, 1.9438805e+2, -987040.0, -1034348.1, -42135.734, 0.06105157, -0.18519436, -962372.9, 72608.35, 0.0, 10.0004, 9.999766 
9.750378e+2, 2.0438753e+2, -934059.25, -1006822.56, -39075.047, 0.05774523, -0.19143917, -917050.94, 19934.643, 0.0, 10.000299, 9.999331 
9.7504836e+2, 2.1438725e+2, -805180.9, -894275.06, -50050.215, 0.0153708095, -0.15314133, -782724.44, 56264.547, 0.0, 10.000513, 9.999329 
9.750591e+2, 2.2438674e+2, -699411.2, -764460.5, -63983.926, 0.011981658, -0.14758094, -660159.8, 80834.016, 0.0, 10.000444, 9.999581 
9.750702e+2, 2.3438592e+2, -661208.06, -690072.06, -54045.586, 0.057647746, -0.19163784, -619700.75, 23299.627, 0.0, 10.000012, 9.999626 
9.7508097e+2, 2.4438521e+2, -604872.75, -648311.9, -42105.69, 0.06968474, -0.20922847, -579214.8, -34208.293, 0.0, 9.999882, 9.999303 
9.750915e+2, 2.543846e+2, -469934.0, -531691.44, -43497.473, 0.038380727, -0.20299494, -447469.25, -457.02368, 0.0, 10.000132, 9.9993105 
9.751021e+2, 2.643839e+2, -383668.47, -466788.2, -46463.914, 0.017245289, -0.18846071, -362889.6, -13870.693, 0.0, 10.00017, 9.999065 
9.7511286e+2, 2.7438322e+2, -320703.38, -384601.5, -48932.543, 0.009475203, -0.16872628, -294213.25, -43186.785, 0.0, 9.999924, 9.999075 
9.751238e+2, 2.8438225e+2, -248443.6, -292799.75, -35989.09, 0.002861726, -0.17273238, -228347.78, -75311.94, 0.0, 9.99972, 9.999131 
9.75135e+2, 2.9438096e+2, -167886.5, -199858.8, -36170.316, -0.0030283956, -0.21979268, -144327.13, -89279.21, 0.0, 9.999585, 9.999161 
9.7514653e+2, 3.0437976e+2, -89343.625, -88098.98, -8757.057, -0.0074036308, -0.2754931, -79942.164, -79942.164, 0.0, 9.99958, 9.999597 
9.751585e+2, 3.1438053e+2, -58437.844, -55006.477, -4430.078, -0.0015974076, -0.16175114, -51971.457, -51971.457, 0.0, 9.999714, 9.999759 
9.8495007e+2, 1.24381535e+2, -1511301.6, -1723659.8, -33844.61, 0.052918747, -0.06073742, -1506038.1, 215012.16, 0.00008015815, 10.001861, 9.999042 
9.849613e+2, 1.3437954e+2, -1483361.8, -1676288.4, 5660.756, 0.05350766, -0.15358801, -1483195.8, 139873.53, 0.000022452736, 10.0014515, 9.998893 
9.849721e+2, 1.443786e+2, -1359449.1, -1475807.9, -2788.275, 0.034392644, -0.16996084, -1359382.4, 165695.28, 0.0000013019285, 10.001242, 9.999694 
9.849835e+2, 1.543788e+2, -1253029.9, -1364085.6, -19881.553, 0.07111107, -0.13024473, -1249577.9, 177496.77, 0.0, 10.00126, 9.999779 
9.849947e+2, 1.6437855e+2, -1206626.3, -1341684.3, -13538.028, 0.078733325, -0.11021116, -1205282.6, 123793.945, 0.0, 10.001123, 9.999326 
9.850058e+2, 1.743778e+2, -1157303.3, -1267654.0, 1918.7805, 0.056788694, -0.11963055, -1157269.9, 73814.24, 0.0, 10.000792, 9.999321 
9.8501676e+2, 1.8437706e+2, -1059756.0, -1134376.5, -16930.553, 0.051627714, -0.13733259, -1056094.4, 76996.375, 0.0, 10.000633, 9.99964 
9.850276e+2, 1.9437641e+2, -947965.94, -1024520.0, -32684.264, 0.064598866, -0.17403477, -935910.1, 99185.664, 0.0, 10.000706, 9.999687 
9.850383e+2, 2.0437585e+2, -892918.44, -989848.8, -28706.977, 0.057218842, -0.17850737, -885054.56, 52046.12, 0.0, 10.000594, 9.999307 
9.8504883e+2, 2.1437544e+2, -843869.3, -915111.2, -19202.898, 0.024268843, -0.15138972, -839022.94, 82.26688, 0.0, 10.000257, 9.99931 
9.8505944e+2, 2.2437489e+2, -749002.5, -793342.0, -34073.945, 0.021298718, -0.14570819, -730520.94, 10589.541, 0.0, 10.000128, 9.999534 
9.850703e+2, 2.3437421e+2, -627667.9, -679800.6, -49627.793, 0.055671208, -0.17321621, -597677.4, 45438.875, 0.0, 10.000269, 9.999573 
9.85081e+2, 2.4437346e+2, -557066.6, -633390.8, -45364.46, 0.0653226, -0.18751019, -535947.4, 9175.536, 0.0, 10.000246, 9.99923 
9.850916e+2, 2.5437263e+2, -494029.5, -551762.5, -48424.887, 0.04237524, -0.19637446, -466520.1, -19389.195, 0.0, 10.000003, 9.999234 
9.851022e+2, 2.643719e+2, -424489.97, -477869.16, -51256.875, 0.018812044, -0.18614925, -393390.28, -44252.246, 0.0, 9.999853, 9.999141 
9.851126e+2, 2.7437136e+2, -327915.44, -378154.03, -43755.09, -0.005038098, -0.1560355, -302581.9, -51438.24, 0.0, 9.999834, 9.999162 
9.851234e+2, 2.843705e+2, -249272.02, -300270.2, -26546.475, -0.011271908, -0.15014204, -237961.88, -84809.75, 0.0, 9.999745, 9.999067 
9.8513466e+2, 2.9436925e+2, -180403.64, -214290.58, -30299.988, 0.0055776467, -0.1868433, -162631.55, -107467.055, 0.0, 9.999536, 9.999085 
9.851461e+2, 3.0436814e+2, -100575.04, -77096.93, 5680.895, 0.002037155, -0.23836659, -75794.586, -75794.586, 0.0, 9.999434, 9.999742 
9.851579e+2, 3.1436872e+2, -81360.73, -52472.766, 5379.695, -0.02133182, -0.15796854, -51503.45, -51503.45, 0.0, 9.999496, 9.999882 
9.9495184e+2, 1.24369845e+2, -1491054.8, -1681466.3, -47042.73, 0.043111224, -0.09987088, -1480066.5, 241098.89, 0.00010704937, 10.001861, 9.999331 
9.949629e+2, 1.3436894e+2, -1462866.4, -1633569.6, -8742.8125, 0.07160103, -0.11125143, -1462419.8, 160753.0, 0.000032992957, 10.001451, 9.9991865 
9.949733e+2, 1.4436811e+2, -1390583.0, -1540333.9, -3334.6848, 0.03380807, -0.11182269, -1390508.8, 134671.3, 0.0000026281716, 10.001241, 9.999252 
9.949845e+2, 1.543673e+2, -1287031.1, -1434714.6, -18661.635, 0.04357684, -0.12630178, -1284709.5, 142478.5, 0.00000000019976186, 10.00126, 9.999294 
9.949956e+2, 1.6436651e+2, -1182629.3, -1291542.0, -25973.55, 0.056766555, -0.14906128, -1176752.3, 152442.5, 0.0, 10.0011215, 9.999671 
9.9500686e+2, 1.7436586e+2, -1128866.3, -1209038.5, -10738.927, 0.08427043, -0.18821235, -1127452.6, 103746.914, 0.0, 10.0007925, 9.999723 
9.9501777e+2, 1.8436548e+2, -1081889.5, -1180524.1, -16308.526, 0.08668046, -0.17897485, -1079262.9, 53939.938, 0.0, 10.000633, 9.999324 
9.950282e+2, 1.9436546e+2, -973794.94, -1077662.5, -30531.055, 0.05358892, -0.11435639, -965485.4, 69718.58, 0.0, 10.000703, 9.999324 
9.950387e+2, 2.043649e+2, -877614.94, -957769.25, -41990.996, 0.040091738, -0.11114076, -859645.4, 77563.97, 0.0, 10.000592, 9.999528 
9.9504936e+2, 2.1436362e+2, -825861.5, -877184.25, -32658.803, 0.053866297, -0.19633897, -809988.5, 29231.902, 0.0, 10.000255, 9.99957 
9.950599e+2, 2.2436291e+2, -772257.5, -841715.56, -31211.643, 0.05305679, -0.2049941, -760293.1, -19066.041, 0.0, 10.000127, 9.999203 
9.9507034e+2, 2.3436296e+2, -653551.06, -733434.56, -44281.652, 0.033475902, -0.12289284, -633858.9, 9369.027, 0.0, 10.000268, 9.999206 
9.950809e+2, 2.4436234e+2, -564698.6, -648799.25, -53732.15, 0.02624065, -0.1002678, -538518.6, 6715.78, 0.0, 10.000243, 9.9991255 
9.9509156e+2, 2.5436085e+2, -500102.75, -564382.8, -56672.242, 0.034709383, -0.16390319, -467091.25, -19842.877, 0.0, 10.000003, 9.999147 
9.9510205e+2, 2.6435977e+2, -409903.56, -448163.0, -52550.78, 0.024105571, -0.19440404, -373108.94, -23850.383, 0.0, 9.999855, 9.999345 
9.9511236e+2, 2.7435923e+2, -312789.97, -345643.6, -43754.46, -0.012341001, -0.18907823, -282480.34, -31216.617, 0.0, 9.999828, 9.999388 
9.95123e+2, 2.8435883e+2, -256650.02, -313356.5, -33327.754, -0.021057125, -0.14740995, -241246.6, -87978.46, 0.0, 9.999736, 9.998982 
9.9513423e+2, 2.943586e+2, -187257.66, -228211.28, -36057.32, 0.0076716887, -0.06908557, -166268.45, -110996.94, 0.0, 9.999535, 9.99899 
9.951456e+2, 3.043575e+2, -93827.14, -63206.96, 8160.8374, 0.005882608, -0.11743773, -61167.754, -61167.754, 0.0, 9.9994335, 9.999838 
9.951573e+2, 3.1435654e+2, -79764.945, -42726.227, 10855.705, -0.032142807, -0.20520829, -39779.03, -39779.03, 0.0, 9.999469, 9.999962 
1.0049537e+3, 1.2435871e+2, -1511065.6, -1686676.9, -31922.953, 0.049076963, -0.105289534, -1505442.6, 215832.16, 0.0001389771, 10.001701, 9.999374 
1.0049646e+3, 1.3435796e+2, -1421196.6, -1609109.8, -16312.301, 0.084164135, -0.106141284, -1419791.1, 203489.48, 0.000046326506, 10.001718, 9.999227 
1.0049748e+3, 1.4435712e+2, -1347894.0, -1532493.9, -6593.665, 0.031248309, -0.105063245, -1347658.9, 177629.1, 0.00000474816, 10.00159, 9.999138 
1.0049857e+3, 1.5435608e+2, -1299185.5, -1455437.5, 2396.3633, 0.041426968, -0.12683252, -1299148.8, 128149.01, 0.000000004412824, 10.001238, 9.999164 
1.0049967e+3, 1.6435519e+2, -1202716.0, -1310950.8, -5206.4717, 0.057411034, -0.15083222, -1202466.1, 126839.8, 0.0, 10.001023, 9.999586 
1.0050078e+3, 1.7435452e+2, -1104999.5, -1206002.1, -26646.223, 0.08812953, -0.18250714, -1098400.9, 132910.42, 0.0, 10.000993, 9.999648 
1.0050186e+3, 1.8435413e+2, -1045120.1, -1160327.5, -34903.65, 0.09058816, -0.1713866, -1035370.7, 97944.125, 0.0, 10.000875, 9.999346 
1.0050288e+3, 1.9435409e+2, -978488.25, -1076711.9, -20017.46, 0.053196512, -0.113165036, -974565.44, 60750.26, 0.0, 10.000657, 9.999352 
1.0050392e+3, 2.043535e+2, -892005.44, -970825.9, -28140.576, 0.0410829, -0.11008538, -882989.9, 54331.266, 0.0, 10.000521, 9.999472 
1.0050498e+3, 2.1435227e+2, -794999.75, -869533.4, -44068.496, 0.062457174, -0.18558243, -774553.06, 64779.098, 0.0, 10.000498, 9.999505 
1.0050602e+3, 2.243515e+2, -732526.8, -829516.25, -38762.77, 0.060246214, -0.19388907, -718938.6, 22400.885, 0.0, 10.000431, 9.99914 
1.0050706e+3, 2.3435134e+2, -651913.5, -739555.0, -30319.85, 0.026630992, -0.12656404, -642446.8, 895.38806, 0.0, 10.00031, 9.999143 
1.00508094e+3, 2.4435066e+2, -573896.2, -656843.75, -31422.406, 0.0137557965, -0.103025064, -563336.9, -17987.658, 0.0, 10.000197, 9.999091 
1.0050915e+3, 2.543494e+2, -488231.22, -561866.5, -31790.818, 0.027359162, -0.14196073, -476405.3, -29043.693, 0.0, 10.000101, 9.999117 
1.0051019e+3, 2.6434836e+2, -402135.38, -448990.47, -33207.71, 0.019472443, -0.1646419, -384923.0, -35551.33, 0.0, 9.99993, 9.999301 
1.005112e+3, 2.7434763e+2, -342813.75, -365242.28, -44877.41, -0.017492997, -0.17499329, -307770.7, -56391.844, 0.0, 9.999645, 9.999341 
1.0051226e+3, 2.8434712e+2, -275385.4, -311787.97, -32715.129, -0.028614288, -0.14400312, -256149.19, -102765.22, 0.0, 9.999562, 9.999076 
1.0051338e+3, 2.94347e+2, -148066.34, -197853.69, -23658.396, -0.0044831177, -0.06929907, -138617.4, -83231.02, 0.0, 9.999755, 9.999092 
1.005145e+3, 3.043461e+2, -81138.91, -60477.08, 10560.237, -0.0000738602, -0.099036254, -56034.83, -56034.83, 0.0, 9.999536, 9.999807 
1.00515656e+3, 3.143453e+2, -188007.88, -101030.516, 2221.674, -0.018917467, -0.16321734, -100973.805, -100973.805, 0.0, 9.998753, 9.999906 
1.0149554e+3, 1.2434815e+2, -1524679.5, -1712910.5, -26597.99, 0.049161736, -0.08013328, -1520993.3, 200384.92, 0.00017643356, 10.001694, 9.999198 
1.0149663e+3, 1.3434662e+2, -1434975.9, -1637039.3, -14394.015, 0.08696472, -0.1397448, -1433955.6, 189436.56, 0.00006271102, 10.001716, 9.999035 
1.0149763e+3, 1.4434563e+2, -1334373.8, -1504933.8, -19158.82, 0.022960737, -0.15191336, -1332248.1, 193152.64, 0.000007860604, 10.001591, 9.999327 
1.01498716e+3, 1.5434523e+2, -1283682.1, -1424064.5, -10656.477, 0.06150205, -0.1313782, -1282877.8, 144525.7, 0.000000028517778, 10.001241, 9.999378 
1.01499796e+3, 1.6434464e+2, -1238477.0, -1385642.3, -8052.106, 0.076559216, -0.11324516, -1238037.8, 91371.664, 0.0, 10.001025, 9.999073 
1.01500854e+3, 1.7434384e+2, -1144234.0, -1287117.4, -27993.09, 0.06655379, -0.102424785, -1138945.5, 92473.29, 0.0, 10.000991, 9.999091 
1.0150191e+3, 1.8434308e+2, -1020285.8, -1108539.5, -43977.074, 0.06127057, -0.115556605, -1002113.7, 131312.31, 0.0, 10.000874, 9.999702 
1.0150296e+3, 1.9434232e+2, -948789.7, -1015294.75, -28788.943, 0.061242867, -0.17006825, -938058.9, 97371.766, 0.0, 10.000657, 9.999774 
1.0150399e+3, 2.0434174e+2, -915330.2, -1019303.25, -30886.316, 0.05705161, -0.17463057, -906847.2, 30588.158, 0.0, 10.000521, 9.999139 
1.0150502e+3, 2.1434142e+2, -822160.3, -925689.94, -45419.414, 0.048393715, -0.120048046, -805059.2, 34380.67, 0.0, 10.000496, 9.999121 
1.0150605e+3, 2.2434068e+2, -719531.5, -801995.7, -44259.355, 0.04043533, -0.113590546, -700274.1, 41173.11, 0.0, 10.000428, 9.99933 
1.0150709e+3, 2.3433939e+2, -635857.8, -705990.4, -34900.758, 0.03384843, -0.18169412, -621449.75, 22008.754, 0.0, 10.000308, 9.999373 
1.01508126e+3, 2.4433853e+2, -572129.8, -652914.8, -35848.777, 0.025915321, -0.19076401, -558515.94, -13049.28, 0.0, 10.0001955, 9.99912 
1.0150915e+3, 2.543383e+2, -487733.47, -559958.4, -35088.668, 0.017023496, -0.13036479, -473493.94, -26023.504, 0.0, 10.000095, 9.999132 
1.0151016e+3, 2.6433766e+2, -422348.94, -489611.44, -43043.957, 0.0013197698, -0.100645244, -401355.63, -51878.043, 0.0, 9.999924, 9.999025 
1.01511165e+3, 2.7433655e+2, -362518.7, -407332.03, -53728.656, -0.023675654, -0.11810654, -326711.72, -75222.81, 0.0, 9.999649, 9.999049 
1.0151221e+3, 2.843355e+2, -258687.66, -278830.4, -25800.059, -0.03678911, -0.13928735, -241062.89, -87563.74, 0.0, 9.999568, 9.9993 
1.0151332e+3, 2.9433447e+2, -132721.84, -161903.52, -14888.327, -0.034071922, -0.17517951, -126466.71, -70958.66, 0.0, 9.999737, 9.999348 
1.0151444e+3, 3.0433398e+2, -93821.41, -81567.766, -15955.13, -0.019985132, -0.17338392, -70603.53, -70603.53, 0.0, 9.999513, 9.999674 
1.0151556e+3, 3.1433496e+2, -199443.2, -123921.41, -24012.262, 0.0075781024, -0.046683304, -116933.29, -116933.29, 0.0, 9.99875, 9.999749 
1.0249573e+3, 1.2433753e+2, -1520965.6, -1723624.9, -3808.096, 0.063605346, -0.07888417, -1520894.1, 200587.77, 0.00021988727, 10.001775, 9.999083 
1.0249681e+3, 1.3433586e+2, -1445576.5, -1657698.9, 4282.833, 0.09882974, -0.13897622, -1445490.0, 178007.94, 0.000082442966, 10.001709, 9.998897 
1.0249778e+3, 1.4433482e+2, -1320626.9, -1494731.9, -8747.88, 0.015912628, -0.15079987, -1320188.5, 205318.77, 0.000012107546, 10.001668, 9.999361 
1.0249885e+3, 1.5433449e+2, -1226167.8, -1390655.1, -14480.509, 0.056694046, -0.1281853, -1224902.8, 202606.1, 0.00000009714164, 10.001612, 9.999428 
1.024999e+3, 1.6433388e+2, -1192969.9, -1380021.1, -4453.3076, 0.073669, -0.10680175, -1192864.0, 136650.78, 0.0, 10.00141, 9.998925 
1.0250095e+3, 1.7433298e+2, -1149924.6, -1308677.1, 4166.133, 0.06530383, -0.09169745, -1149815.3, 81710.414, 0.0, 10.001032, 9.998924 
1.0250199e+3, 1.8433207e+2, -1034117.1, -1119498.3, -6063.3975, 0.06126482, -0.10690043, -1033688.7, 99845.695, 0.0, 10.000797, 9.999663 
1.02503024e+3, 1.943312e+2, -935621.9, -1011901.06, -25180.473, 0.060401168, -0.17070968, -928059.3, 107480.664, 0.0, 10.000761, 9.999746 
1.0250405e+3, 2.0433052e+2, -891426.94, -1018652.6, -32834.387, 0.054856338, -0.17746623, -883452.8, 54092.61, 0.0, 10.000731, 9.999042 
1.02505066e+3, 2.1433015e+2, -797111.75, -924919.7, -26803.447, 0.043044075, -0.11753391, -791718.2, 47832.355, 0.0, 10.000717, 9.99902 
1.0250609e+3, 2.2432938e+2, -699849.1, -791052.94, -27407.371, 0.037321094, -0.110848404, -692246.75, 49311.586, 0.0, 10.000558, 9.999342 
1.02507114e+3, 2.3432808e+2, -648230.3, -709399.6, -35137.887, 0.039471496, -0.18156034, -632230.7, 11338.681, 0.0, 10.000215, 9.999394 
1.0250814e+3, 2.4432725e+2, -599872.5, -661525.9, -38610.785, 0.031869467, -0.19341521, -581291.94, -35714.645, 0.0, 9.999986, 9.999161 
1.0250914e+3, 2.5432697e+2, -513879.4, -567955.4, -36821.305, 0.01141976, -0.13922487, -495235.2, -47653.996, 0.0, 9.999896, 9.999173 
1.0251015e+3, 2.6432636e+2, -428294.6, -496156.47, -34405.59, -0.009387782, -0.1084486, -413903.13, -64314.92, 0.0, 9.999899, 9.998991 
1.0251113e+3, 2.743253e+2, -311577.9, -386360.25, -28517.764, -0.030376729, -0.11439996, -301943.97, -50345.13, 0.0, 10.000016, 9.999015 
1.0251217e+3, 2.8432423e+2, -229716.72, -272364.56, -6672.257, -0.041380625, -0.13430487, -228697.22, -75087.586, 0.0, 9.999802, 9.99923 
1.0251325e+3, 2.94323e+2, -223279.69, -213650.64, -19791.412, -0.039126344, -0.18312037, -198096.58, -142475.7, 0.0, 9.99915, 9.999273 
1.0251434e+3, 3.0432257e+2, -176230.92, -107910.41, -23158.818, -0.026272437, -0.17774147, -100800.17, -100800.17, 0.0, 9.998891, 9.99979 
1.02515444e+3, 3.1432372e+2, -138027.7, -81916.195, -14745.902, -0.002247794, -0.046219066, -78277.05, -78277.05, 0.0, 9.999117, 9.999862 
1.0349591e+3, 1.243269e+2, -1527833.9, -1737278.5, -1409.2952, 0.077787176, -0.1053518, -1527824.4, 193761.02, 0.00026982953, 10.001773, 9.99899 
1.03497e+3, 1.3432576e+2, -1452700.6, -1672267.5, 2479.5005, 0.115801156, -0.10266757, -1452672.6, 170924.5, 0.00010582585, 10.001707, 9.998797 
1.0349794e+3, 1.4432476e+2, -1329031.6, -1512150.4, -11017.553, 0.0054292, -0.09882298, -1328371.1, 197235.34, 0.000017580334, 10.001667, 9.999242 
1.0349897e+3, 1.5432392e+2, -1234110.6, -1406730.0, -16252.044, 0.025190925, -0.117595986, -1232593.8, 195019.47, 0.00000023822265, 10.001611, 9.999318 
1.0350002e+3, 1.6432297e+2, -1177872.5, -1349781.6, -18986.459, 0.047147274, -0.13304949, -1175800.5, 153821.13, 0.0, 10.001412, 9.999132 
1.03501074e+3, 1.7432196e+2, -1133627.5, -1275505.0, -10299.262, 0.081247434, -0.15021363, -1132883.8, 98747.84, 0.0, 10.001034, 9.999152 
1.035021e+3, 1.843212e+2, -1064814.5, -1183341.9, -9456.388, 0.08610127, -0.14380561, -1064064.8, 69574.35, 0.0, 10.000797, 9.999226 
1.03503086e+3, 1.9432077e+2, -969685.9, -1082251.5, -27103.178, 0.049725354, -0.11503689, -963500.0, 72143.19, 0.0, 10.000759, 9.999265 
1.035041e+3, 2.0431992e+2, -882572.0, -999745.75, -34823.742, 0.033558954, -0.119173944, -873003.75, 64647.17, 0.0, 10.000729, 9.999173 
1.0350514e+3, 2.1431856e+2, -784936.1, -899409.6, -27831.951, 0.04507496, -0.17726354, -778528.06, 61135.668, 0.0, 10.000715, 9.999195 
1.0350616e+3, 2.2431767e+2, -711399.75, -814748.7, -40737.594, 0.048474435, -0.18369634, -697273.0, 44399.1, 0.0, 10.000556, 9.99918 
1.0350714e+3, 2.3431744e+2, -661317.0, -736821.44, -48012.918, 0.04165818, -0.1285775, -637991.6, 5682.8735, 0.0, 10.000214, 9.9992075 
1.0350813e+3, 2.4431677e+2, -596479.06, -654000.7, -42668.09, 0.028747816, -0.11562364, -573783.56, -28102.455, 0.0, 9.999984, 9.999213 
1.0350913e+3, 2.543155e+2, -508428.5, -557613.1, -39115.793, 0.008584724, -0.16815531, -486816.63, -39123.24, 0.0, 9.9999, 9.999243 
1.03510134e+3, 2.6431453e+2, -415653.72, -470263.75, -30087.97, -0.014281695, -0.18315397, -402328.1, -52625.375, 0.0, 9.9999, 9.999169 
1.0351113e+3, 2.74314e+2, -300421.28, -360438.22, -23233.37, -0.040596973, -0.15772024, -292478.5, -40770.453, 0.0, 10.000003, 9.9992 
1.03512146e+3, 2.8431335e+2, -254494.73, -320418.16, -28886.008, -0.046549097, -0.12853317, -243628.66, -89913.234, 0.0, 9.999786, 9.998907 
1.0351318e+3, 2.9431254e+2, -246802.45, -263997.8, -41539.457, -0.025072992, -0.1022639, -212980.23, -157255.03, 0.0, 9.999157, 9.998925 
1.0351423e+3, 3.0431187e+2, -152463.58, -61187.445, -14573.273, -0.023020456, -0.11873294, -58917.13, -58917.13, 0.0, 9.9989, 10.000108 
1.03515305e+3, 3.1431174e+2, -117238.95, -33217.094, -2930.1091, -0.05038281, -0.15068716, -33115.035, -33115.035, 0.0, 9.999091, 10.000209 
1.0449611e+3, 1.2431632e+2, -1476301.8, -1702907.1, -6145.6406, 0.07938418, -0.11555572, -1476135.3, 245553.58, 0.00032683904, 10.002083, 9.999077 
1.0449718e+3, 1.3431539e+2, -1423356.0, -1648587.3, 5182.9834, 0.11857235, -0.10121565, -1423236.9, 200461.31, 0.00013321284, 10.001866, 9.998883 
1.04498096e+3, 1.4431442e+2, -1337792.9, -1531308.5, 1309.1981, -0.0009659961, -0.092309766, -1337784.0, 187923.3, 0.000024406861, 10.001674, 9.999105 
1.0449915e+3, 1.5431337e+2, -1263374.8, -1438645.6, -9578.44, 0.030309303, -0.11540962, -1262852.8, 164864.14, 0.0000004785213, 10.001484, 9.999161 
1.04500175e+3, 1.6431233e+2, -1178247.5, -1333779.5, -19011.191, 0.056066327, -0.13913482, -1175957.4, 153768.83, 0.0, 10.00134, 9.999277 
1.0450119e+3, 1.7431137e+2, -1087066.0, -1233691.0, -15824.469, 0.08257592, -0.16812482, -1085377.6, 146356.8, 0.0, 10.001271, 9.999323 
1.0450219e+3, 1.8431063e+2, -1026690.6, -1189409.3, -4307.875, 0.0845836, -0.1593128, -1026576.7, 107164.945, 0.0, 10.001166, 9.999004 
1.04503185e+3, 1.9431014e+2, -948362.56, -1099983.1, -4648.8335, 0.05024681, -0.1093475, -948220.1, 87527.14, 0.0, 10.001027, 9.999013 
1.04504175e+3, 2.0430927e+2, -865220.75, -987029.06, -7098.0757, 0.03236066, -0.10768274, -864808.5, 72947.58, 0.0, 10.00083, 9.99921 
1.045052e+3, 2.1430783e+2, -802499.75, -900989.06, -9830.741, 0.036846504, -0.17811835, -801528.1, 38240.83, 0.0, 10.0005665, 9.999255 
1.045062e+3, 2.2430688e+2, -740095.0, -835675.56, -25682.393, 0.037481602, -0.18968017, -733631.25, 8146.359, 0.0, 10.000389, 9.999117 
1.0450716e+3, 2.343066e+2, -650348.94, -739697.3, -26102.367, 0.03279748, -0.1321457, -643282.25, 498.49274, 0.0, 10.000323, 9.999134 
1.0450814e+3, 2.4430592e+2, -559847.8, -637565.44, -14256.194, 0.021849995, -0.11677948, -557315.25, -11527.716, 0.0, 10.000239, 9.999203 
1.0450913e+3, 2.543047e+2, -475891.94, -541759.2, -17087.469, 0.0031178703, -0.16458867, -471722.94, -23923.945, 0.0, 10.000124, 9.999242 
1.0451012e+3, 2.643037e+2, -413070.06, -463940.78, -16526.094, -0.01644252, -0.18538849, -408172.78, -58364.285, 0.0, 9.999897, 9.999213 
1.0451111e+3, 2.74303e+2, -367044.72, -387403.38, -20085.096, -0.037412427, -0.18214269, -354706.72, -102891.17, 0.0, 9.999523, 9.999246 
1.0451211e+3, 2.8430247e+2, -308899.03, -341770.56, -20901.068, -0.043796584, -0.14553685, -298745.53, -144923.55, 0.0, 9.999392, 9.998951 
1.0451311e+3, 2.943022e+2, -185967.28, -229368.16, -7872.7173, -0.028497169, -0.07158925, -184583.33, -128756.32, 0.0, 9.999553, 9.998972 
1.0451414e+3, 3.0430153e+2, -108736.3, -38320.83, 17332.162, -0.026494926, -0.08643562, -34285.88, -34285.88, 0.0, 9.999193, 10.000124 
1.0451517e+3, 3.1430075e+2, -250817.16, -96942.57, 3460.0605, -0.04677358, -0.18387015, -96864.805, -96864.805, 0.0, 9.998173, 10.000213 
1.0549629e+3, 1.2430582e+2, -1456138.6, -1660634.5, -7755.023, 0.049282912, -0.11211847, -1455845.0, 265946.8, 0.00039134276, 10.00208, 9.999369 
1.0549735e+3, 1.343048e+2, -1402689.5, -1605858.6, -1876.7244, 0.106506124, -0.13460198, -1402672.1, 221128.13, 0.00016489324, 10.001867, 9.999177 
1.05498254e+3, 1.4430386e+2, -1348934.1, -1555796.0, -6098.59, -0.004540419, -0.13172302, -1348754.5, 177054.69, 0.000032768054, 10.001678, 9.998936 
1.0549933e+3, 1.5430295e+2, -1278546.9, -1469400.4, -16610.232, 0.06818287, -0.12112599, -1277112.0, 150707.05, 0.0000008393984, 10.001481, 9.998952 
1.0550034e+3, 1.6430205e+2, -1172956.9, -1322555.5, -22711.344, 0.095202856, -0.12258597, -1169585.0, 160242.64, 0.0, 10.001339, 9.999354 
1.0550131e+3, 1.7430127e+2, -1079785.6, -1218433.1, -18607.268, 0.068521805, -0.14502737, -1077331.9, 154501.63, 0.0, 10.001271, 9.999429 
1.05502285e+3, 1.8430038e+2, -1027065.56, -1190538.3, -10693.075, 0.05571506, -0.15392104, -1026369.06, 107472.29, 0.0, 10.001167, 9.998997 
1.055033e+3, 1.942994e+2, -949552.6, -1102556.3, -10392.875, 0.059584968, -0.15456827, -948849.9, 87002.0, 0.0, 10.001027, 9.998996 
1.0550428e+3, 2.0429857e+2, -869542.5, -995615.75, -17935.05, 0.047782507, -0.14242546, -867040.75, 70819.586, 0.0, 10.000828, 9.999153 
1.05505235e+3, 2.14298e+2, -806972.75, -910117.4, -20183.926, 0.01687277, -0.1212733, -803163.7, 36702.13, 0.0, 10.000565, 9.999194 
1.05506204e+3, 2.2429706e+2, -738162.8, -831414.44, -29789.705, 0.0026872833, -0.13095061, -729458.75, 12415.817, 0.0, 10.000387, 9.999147 
1.0550718e+3, 2.3429564e+2, -647170.3, -734088.06, -28606.193, 0.011544916, -0.1909915, -638600.44, 5287.194, 0.0, 10.000327, 9.999171 
1.05508156e+3, 2.4429475e+2, -564852.75, -648259.5, -18835.967, 0.009464102, -0.19353269, -560796.25, -14900.286, 0.0, 10.000239, 9.999129 
1.0550913e+3, 2.5429457e+2, -482178.84, -553900.5, -20883.826, -0.0068392777, -0.12894364, -476541.06, -28643.25, 0.0, 10.000119, 9.999163 
1.0551011e+3, 2.642938e+2, -419112.78, -474671.84, -29834.283, -0.018201292, -0.11975671, -406127.28, -56221.613, 0.0, 9.999888, 9.999145 
1.0551107e+3, 2.7429226e+2, -371622.63, -397343.78, -32649.41, -0.024811862, -0.19103286, -349392.2, -97471.04, 0.0, 9.999525, 9.999177 
1.05512045e+3, 2.8429157e+2, -283346.72, -289036.13, -15072.245, -0.03626787, -0.1849274, -270853.06, -116924.26, 0.0, 9.999392, 9.999313 
1.0551305e+3, 2.9429194e+2, -160900.58, -173565.8, -514.97076, -0.05095096, -0.08459876, -160879.67, -104953.836, 0.0, 9.999535, 9.999364 
1.0551405e+3, 3.0429164e+2, -128259.52, -75730.7, -18287.494, -0.03962811, -0.076678626, -69991.18, -69991.18, 0.0, 9.999179, 9.999874 
1.05515026e+3, 3.142908e+2, -268472.6, -137748.66, -32191.97, -0.0022917269, -0.15050557, -130251.11, -130251.11, 0.0, 9.99819, 9.999924 
1.064965e+3, 1.2429541e+2, -1443970.8, -1658834.4, 15053.641, 0.04352879, -0.1288708, -1442921.3, 278972.16, 0.00046328275, 10.002185, 9.9993305 
1.06497556e+3, 1.3429448e+2, -1415217.3, -1617749.0, -15688.508, 0.11926585, -0.13760033, -1414009.3, 209892.13, 0.00020096678, 10.001805, 9.999126 
1.0649843e+3, 1.4429358e+2, -1354160.6, -1549692.6, -16898.047, -0.0012894366, -0.13177034, -1352711.0, 173198.86, 0.000042859534, 10.001606, 9.999013 
1.0649946e+3, 1.542926e+2, -1254850.5, -1447762.6, -6097.785, 0.055859506, -0.13473931, -1254657.9, 173262.0, 0.0000013547858, 10.001602, 9.999041 
1.0650048e+3, 1.6429175e+2, -1154559.4, -1325286.9, -6053.3535, 0.0830005, -0.1324352, -1154345.0, 175583.14, 0.0, 10.001518, 9.999248 
1.0650144e+3, 1.742911e+2, -1076613.8, -1230749.1, -19594.932, 0.07537481, -0.12848248, -1074161.8, 157771.81, 0.0, 10.001352, 9.999305 
1.06502414e+3, 1.8429022e+2, -1021742.56, -1179105.0, -18741.76, 0.068313114, -0.13566422, -1019541.25, 114400.44, 0.0, 10.001165, 9.999076 
1.065034e+3, 1.9428901e+2, -951630.56, -1092824.3, -11217.406, 0.05909077, -0.16548365, -950744.94, 85208.47, 0.0, 10.000967, 9.999091 
1.0650436e+3, 2.0428818e+2, -879655.94, -1004841.8, -14889.842, 0.04196304, -0.1590814, -877909.25, 60052.586, 0.0, 10.000778, 9.999114 
1.065053e+3, 2.142878e+2, -804307.4, -914243.94, -17135.088, 0.015302398, -0.11294415, -801698.56, 38267.254, 0.0, 10.000607, 9.9991455 
1.06506236e+3, 2.2428693e+2, -719715.1, -823536.4, -19764.902, -0.0008364725, -0.11300599, -716079.7, 25894.379, 0.0, 10.000518, 9.999138 
1.06507204e+3, 2.3428541e+2, -616317.7, -719261.06, -22084.945, -0.0027757997, -0.18260199, -611779.75, 32208.209, 0.0, 10.000541, 9.999169 
1.06508166e+3, 2.4428444e+2, -547165.3, -637460.56, -19951.082, -0.006341482, -0.19503818, -542953.5, 3043.4314, 0.0, 10.000352, 9.999149 
1.0650912e+3, 2.5428414e+2, -514154.94, -567031.06, -16260.8545, -0.012121735, -0.14316396, -509554.53, -61554.945, 0.0, 9.999889, 9.999183 
1.0651008e+3, 2.6428345e+2, -458791.66, -494894.44, -15301.639, -0.015491537, -0.12626126, -453178.88, -103172.21, 0.0, 9.9996195, 9.999135 
1.06511034e+3, 2.7428228e+2, -363360.34, -393998.5, -14781.052, -0.01597979, -0.1607397, -357392.0, -105372.95, 0.0, 9.999585, 9.99917 
1.06512e+3, 2.8428155e+2, -281654.6, -277283.16, -2217.104, -0.027904248, -0.16229203, -276355.53, -122328.71, 0.0, 9.999357, 9.99941 
1.06512964e+3, 2.9428133e+2, -245204.3, -202661.66, -8735.136, -0.053586464, -0.13150343, -200937.94, -144909.38, 0.0, 9.998907, 9.999465 
1.0651394e+3, 3.0428097e+2, -184098.16, -102005.54, -34372.387, -0.045824688, -0.13181494, -89514.38, -89514.38, 0.0, 9.998794, 9.999877 
1.0651489e+3, 3.1428108e+2, -141220.16, -76377.164, -31884.68, 0.0013612009, -0.11413962, -63325.74, -63325.74, 0.0, 9.999065, 9.999923 
1.07496716e+3, 1.2428517e+2, -1472214.8, -1716617.0, 10176.883, 0.05017028, -0.16520251, -1471791.8, 250200.73, 0.000542142, 10.002183, 9.998934 
1.0749777e+3, 1.3428447e+2, -1445398.9, -1678366.5, -29394.367, 0.15310581, -0.10958046, -1441747.3, 182253.27, 0.00024133897, 10.001797, 9.9987135 
1.0749859e+3, 1.4428362e+2, -1331648.8, -1502094.0, -17974.441, 0.0031860163, -0.09137489, -1329773.9, 196234.88, 0.0000548195, 10.001601, 9.999342 
1.0749956e+3, 1.5428242e+2, -1227533.6, -1391528.6, -5894.3545, -0.0075161755, -0.15514064, -1227322.1, 200696.45, 0.000002073113, 10.001604, 9.999426 
1.0750056e+3, 1.6428147e+2, -1174379.5, -1367577.1, -12933.338, 0.018035969, -0.16861963, -1173517.5, 156509.78, 0.0000000000166348, 10.001522, 9.998956 
1.07501596e+3, 1.7428094e+2, -1101242.8, -1281484.3, -25865.14, 0.10039248, -0.11940222, -1097604.5, 134429.5, 0.0, 10.00135, 9.998958 
1.0750257e+3, 1.8428017e+2, -1011039.3, -1156521.4, -27266.55, 0.117768794, -0.10382444, -1006096.9, 127944.95, 0.0, 10.0011635, 9.999232 
1.0750348e+3, 1.9427909e+2, -938283.4, -1064921.1, -19254.38, 0.04759567, -0.14172383, -935420.56, 100630.73, 0.0, 10.000966, 9.999284 
1.07504405e+3, 2.0427811e+2, -881066.25, -1008012.25, -22919.73, 0.013545012, -0.1577016, -877054.9, 61005.375, 0.0, 10.000778, 9.999092 
1.0750537e+3, 2.1427728e+2, -806731.5, -919851.06, -24267.771, 0.029558314, -0.15304098, -801745.1, 38323.4, 0.0, 10.000608, 9.999106 
1.0750632e+3, 2.2427656e+2, -722723.06, -829762.44, -20657.748, 0.023820661, -0.13520898, -718874.7, 23201.006, 0.0, 10.000518, 9.999096 
1.0750725e+3, 2.3427595e+2, -619864.3, -725971.3, -21155.871, -0.011441574, -0.10873476, -615801.75, 28279.578, 0.0, 10.000537, 9.999126 
1.07508175e+3, 2.4427496e+2, -540229.5, -621868.6, -36577.1, -0.027059134, -0.124579124, -526239.2, 19851.162, 0.0, 10.000346, 9.999259 
1.0750911e+3, 2.5427347e+2, -505681.0, -549629.6, -33317.37, -0.016032748, -0.20617531, -487743.94, -39640.133, 0.0, 9.999889, 9.999302 
1.07510045e+3, 2.6427275e+2, -455439.25, -488400.7, -17268.387, -0.0106986845, -0.20234711, -448049.25, -97938.35, 0.0, 9.99962, 9.99918 
1.07511e+3, 2.7427307e+2, -361405.88, -388465.06, -15164.443, -0.012464812, -0.09189958, -354612.84, -102503.73, 0.0, 9.9995775, 9.999213 
1.0751194e+3, 2.842724e+2, -293189.2, -299219.97, -18488.17, -0.020939112, -0.08031579, -277472.13, -123356.12, 0.0, 9.999349, 9.999264 
1.0751287e+3, 2.942704e+2, -255986.58, -225573.97, -23990.744, -0.040962417, -0.21222311, -212376.27, -156241.61, 0.0, 9.998909, 9.999308 
1.07513815e+3, 3.0426967e+2, -168076.7, -69999.07, -24141.887, -0.047956012, -0.24993698, -64378.613, -64378.613, 0.0, 9.998797, 10.000096 
1.0751477e+3, 3.1427166e+2, -125109.86, -40270.84, -19631.145, -0.0377574, -0.06896048, -35948.543, -35948.543, 0.0, 9.999052, 10.000177 
1.0849697e+3, 1.2427551e+2, -1441666.4, -1712522.4, 20618.736, 0.07323239, -0.15380692, -1440105.8, 281981.28, 0.0006273791, 10.00244, 9.998837 
1.0849798e+3, 1.3427454e+2, -1392152.9, -1664163.8, -7213.0947, 0.15868863, -0.11573062, -1391961.8, 232136.1, 0.0002858709, 10.0022135, 9.99861 
1.0849875e+3, 1.442736e+2, -1283062.8, -1484414.5, 11294.323, -0.005937944, -0.098864034, -1282431.3, 243675.73, 0.00006870092, 10.001963, 9.999288 
1.0849973e+3, 1.5427248e+2, -1222626.8, -1395409.5, -11824.117, -0.0018123222, -0.1493576, -1221821.4, 206294.67, 0.0000030594845, 10.001665, 9.999369 
1.0850071e+3, 1.6427152e+2, -1187167.6, -1377056.0, -26300.47, 0.023128642, -0.16101548, -1183592.1, 146532.97, 0.000000000186287, 10.001449, 9.998926 
1.08501725e+3, 1.7427081e+2, -1103814.4, -1285356.4, -16194.314, 0.08390964, -0.12418546, -1102381.1, 129752.31, 0.0, 10.001347, 9.998932 
1.0850267e+3, 1.8427004e+2, -1005570.3, -1158148.3, -11676.398, 0.0997112, -0.1069497, -1004681.94, 129459.67, 0.0, 10.001221, 9.999193 
1.0850359e+3, 1.942691e+2, -923929.4, -1062476.1, -21638.453, 0.052452136, -0.12535048, -920628.5, 115521.31, 0.0, 10.001084, 9.999243 
1.08504504e+3, 2.0426811e+2, -850795.94, -991925.25, -30466.129, 0.02555385, -0.14101945, -844499.94, 93658.875, 0.0, 10.000979, 9.999105 
1.0850544e+3, 2.1426706e+2, -759338.75, -894869.56, -28358.156, 0.026564632, -0.16035408, -753644.4, 86524.34, 0.0, 10.000925, 9.999125 
1.08506374e+3, 2.2426626e+2, -700607.2, -813520.6, -24698.293, 0.017170338, -0.15107118, -695441.1, 46734.996, 0.0, 10.000646, 9.9991455 
1.0850729e+3, 2.3426583e+2, -683941.1, -751015.9, -20097.541, -0.006915825, -0.11307492, -678380.3, -34200.26, 0.0, 10.000072, 9.999179 
1.0850819e+3, 2.4426498e+2, -620169.2, -660203.06, -31255.533, -0.019820778, -0.12149894, -603070.3, -56882.113, 0.0, 9.999796, 9.999262 
1.0850909e+3, 2.542635e+2, -502938.3, -548084.8, -37072.547, -0.017380102, -0.20034249, -482107.38, -33905.67, 0.0, 9.9999075, 9.999304 
1.0851001e+3, 2.6426274e+2, -425563.9, -463191.5, -25922.168, -0.0140344035, -0.2050412, -412347.75, -62138.86, 0.0, 9.999781, 9.999275 
1.0851095e+3, 2.742629e+2, -386675.5, -389532.9, -20360.41, -0.009732835, -0.11949945, -367693.72, -115486.24, 0.0, 9.999355, 9.999312 
1.08511865e+3, 2.8426227e+2, -330988.56, -322033.3, -17482.97, -0.017111784, -0.10687221, -308463.66, -154250.03, 0.0, 9.999108, 9.999223 
1.0851277e+3, 2.942606e+2, -237520.97, -222520.78, -16804.994, -0.03990254, -0.20146461, -211618.19, -155388.38, 0.0, 9.999061, 9.999255 
1.085137e+3, 3.0425978e+2, -152197.03, -61630.582, -11107.627, -0.050624203, -0.25009495, -60288.17, -60288.17, 0.0, 9.998904, 10.000102 
1.0851465e+3, 3.1426132e+2, -180424.1, -63568.47, -24550.844, -0.046386365, -0.11148504, -58619.996, -58619.996, 0.0, 9.998659, 10.000206 
1.0949724e+3, 1.24266505e+2, -1426917.5, -1680089.6, 22964.123, 0.10126673, -0.09665459, -1424851.4, 297325.13, 0.0007190712, 10.002433, 9.999063 
1.09498166e+3, 1.3426477e+2, -1376718.8, -1633105.0, -14656.915, 0.13332824, -0.15410587, -1375883.6, 248308.64, 0.00033462446, 10.002217, 9.998821 
1.09498926e+3, 1.442636e+2, -1313760.3, -1548938.9, -57.46394, -0.03168635, -0.15288652, -1313760.3, 212443.28, 0.000084530904, 10.001966, 9.998843 
1.09499976e+3, 1.5426281e+2, -1258739.3, -1469655.6, -22629.846, 0.06991569, -0.11826498, -1256338.6, 171873.23, 0.0000043925156, 10.001661, 9.998861 
1.0950093e+3, 1.6426189e+2, -1171064.5, -1343533.6, -31442.432, 0.09378098, -0.10977262, -1165511.1, 164710.0, 0.0000000006358386, 10.001448, 9.999157 
1.09501794e+3, 1.742608e+2, -1083766.6, -1244145.0, -20251.893, 0.024489693, -0.14177552, -1081248.9, 150982.39, 0.0, 10.001348, 9.999214 
1.0950271e+3, 1.8425985e+2, -1021615.56, -1191711.6, -18158.621, 0.011546512, -0.14447927, -1019698.6, 114541.89, 0.0, 10.001222, 9.998962 
1.0950371e+3, 1.942591e+2, -942985.6, -1101773.5, -27340.326, 0.071645714, -0.117133476, -938410.0, 97838.54, 0.0, 10.001082, 9.998974 
1.0950465e+3, 2.0425823e+2, -847899.1, -985483.5, -34005.79, 0.07538771, -0.10919182, -839953.06, 98303.945, 0.0, 10.0009775, 9.999151 
1.0950552e+3, 2.1425718e+2, -755143.94, -885415.75, -30713.35, 0.0049207895, -0.1350601, -748266.0, 92000.04, 0.0, 10.000921, 9.999192 
1.095064e+3, 2.2425614e+2, -691394.1, -794005.56, -46218.152, -0.022420794, -0.16027513, -673646.3, 68628.58, 0.0, 10.000643, 9.999282 
1.095073e+3, 2.3425514e+2, -673780.2, -730562.94, -42044.332, 0.008279665, -0.19377916, -651439.0, -7155.403, 0.0, 10.000073, 9.999318 
1.095082e+3, 2.4425447e+2, -626567.1, -674180.25, -29089.508, 0.01276632, -0.18466635, -612784.44, -66494.5, 0.0, 9.999799, 9.999166 
1.0950908e+3, 2.5425425e+2, -511649.44, -564687.75, -32159.62, -0.017682837, -0.12796801, -496485.2, -48192.223, 0.0, 9.999901, 9.999194 
1.09509975e+3, 2.6425344e+2, -416914.5, -443361.84, -40536.74, -0.026863903, -0.13646205, -387499.1, -37198.69, 0.0, 9.999772, 9.999416 
1.09510876e+3, 2.7425188e+2, -375816.38, -366584.34, -35224.723, -0.010251249, -0.23921199, -335674.47, -83361.09, 0.0, 9.999353, 9.999471 
1.0951178e+3, 2.8425127e+2, -327704.16, -315171.7, -19256.504, -0.018007804, -0.23687409, -301187.53, -146868.67, 0.0, 9.999107, 9.99927 
1.0951266e+3, 2.9425192e+2, -236133.78, -217184.31, -17029.34, -0.05320925, -0.10452477, -207171.39, -150857.1, 0.0, 9.99905, 9.999297 
1.0951359e+3, 3.0425116e+2, -167660.13, -91513.73, -20403.207, -0.05815472, -0.13872178, -86391.33, -86391.33, 0.0, 9.998895, 9.999902 
1.0951453e+3, 3.1425014e+2, -192817.52, -89849.17, -31023.3, -0.031177072, -0.23359582, -81224.57, -81224.57, 0.0, 9.99866, 10.000026 
1.104975e+3, 1.2425713e+2, -1382361.0, -1663064.5, 36885.445, 0.096691266, -0.088497266, -1377595.0, 344673.7, 0.000818133, 10.002759, 9.9990225 
1.104984e+3, 1.3425529e+2, -1373430.5, -1637007.3, -36159.523, 0.13778801, -0.15112166, -1368559.9, 255725.3, 0.00038809632, 10.00226, 9.9987755 
1.10499136e+3, 1.4425404e+2, -1317511.4, -1563640.6, -11673.673, -0.027662318, -0.15034367, -1316958.9, 209338.42, 0.000102482416, 10.001995, 9.998728 
1.1050016e+3, 1.5425313e+2, -1219671.9, -1463981.9, -6349.7227, 0.0754654, -0.11709358, -1219507.0, 208800.3, 0.0000061708192, 10.001988, 9.998742 
1.10501096e+3, 1.6425213e+2, -1115139.4, -1315168.1, -7957.99, 0.10261424, -0.10879754, -1114823.3, 215493.95, 0.0000000015512864, 10.001828, 9.999167 
1.1050194e+3, 1.7425108e+2, -1060778.8, -1230856.1, -17659.68, 0.03552949, -0.13964173, -1058964.5, 173362.05, 0.0, 10.001496, 9.999233 
1.1050285e+3, 1.842501e+2, -1023229.06, -1199180.0, -16544.268, 0.016518572, -0.14307287, -1021687.0, 112648.93, 0.0, 10.00124, 9.998902 
1.1050381e+3, 1.9424929e+2, -946199.6, -1110453.6, -11014.206, 0.05852192, -0.11795568, -945464.4, 90880.74, 0.0, 10.001092, 9.99891 
1.10504724e+3, 2.0424838e+2, -866164.0, -993238.06, -12628.599, 0.06065276, -0.109956264, -864921.1, 73432.83, 0.0, 10.000848, 9.99916 
1.1050559e+3, 2.1424736e+2, -818657.9, -914229.94, -14597.402, 0.010186964, -0.13351513, -816478.0, 23884.326, 0.0, 10.000478, 9.9992075 
1.1050646e+3, 2.2424634e+2, -738880.94, -812267.5, -35924.27, -0.011680383, -0.16109681, -724223.0, 18148.063, 0.0, 10.000298, 9.999322 
1.10507324e+3, 2.342453e+2, -627726.6, -703659.2, -39645.703, 0.0044451994, -0.20305851, -610800.1, 33580.035, 0.0, 10.00037, 9.99936 
1.1050819e+3, 2.4424468e+2, -573582.0, -645077.6, -26007.883, 0.0062577645, -0.19140969, -565122.2, -18736.297, 0.0, 10.000148, 9.999196 
1.1050906e+3, 2.5424466e+2, -561287.0, -585675.44, -20234.643, -0.011235565, -0.118012354, -549856.25, -101469.22, 0.0, 9.999547, 9.99922 
1.1050994e+3, 2.6424384e+2, -494094.66, -475110.5, -24277.441, -0.017347462, -0.13127248, -458535.47, -108141.16, 0.0, 9.999218, 9.999464 
1.1051082e+3, 2.7424204e+2, -389528.0, -367447.2, -27673.096, -0.009544476, -0.2654642, -348693.47, -96284.07, 0.0, 9.999236, 9.999521 
1.1051168e+3, 2.8424144e+2, -328535.25, -310604.94, -15939.139, -0.018390685, -0.26549375, -301282.66, -146868.31, 0.0, 9.999082, 9.999314 
1.1051256e+3, 2.9424244e+2, -281242.75, -234582.47, -14809.163, -0.045756117, -0.09970748, -230279.17, -173873.03, 0.0, 9.998721, 9.999336 
1.1051346e+3, 3.0424157e+2, -203134.25, -105052.96, -1731.9915, -0.04873701, -0.14678472, -105022.38, -105022.38, 0.0, 9.998634, 9.999934 
1.105144e+3, 3.1424034e+2, -154793.8, -62784.016, 2947.536, -0.023893032, -0.27067128, -62689.69, -62689.69, 0.0, 9.998883, 10.000104 
1.1149773e+3, 1.2424743e+2, -1404608.0, -1708564.0, 32735.383, 0.051578183, -0.13464528, -1401122.5, 321240.84, 0.00092609524, 10.002757, 9.99871 
1.11498654e+3, 1.3424617e+2, -1396110.1, -1683850.6, -53908.45, 0.16854054, -0.10815844, -1386341.9, 238034.28, 0.00044726714, 10.002259, 9.998455 
1.1149936e+3, 1.44245e+2, -1301739.9, -1530507.0, -13646.836, 0.0024921917, -0.09220901, -1300928.8, 225459.05, 0.00012295434, 10.001993, 9.998957 
1.1150029e+3, 1.542435e+2, -1200678.1, -1424753.9, -6553.1177, 0.0117827095, -0.14423414, -1200486.6, 227914.97, 0.000008505592, 10.001989, 9.999011 
1.11501224e+3, 1.6424236e+2, -1129667.4, -1345808.8, -20751.672, 0.0455116, -0.15656629, -1127693.0, 202719.56, 0.0000000033697685, 10.00183, 9.998956 
1.1150217e+3, 1.7424174e+2, -1077883.0, -1266529.5, -30326.94, 0.114807025, -0.11841275, -1073127.5, 159291.3, 0.0, 10.001497, 9.998988 
1.11503065e+3, 1.8424088e+2, -1015564.7, -1183427.5, -23868.45, 0.11163858, -0.102770165, -1012236.8, 122190.45, 0.0, 10.001239, 9.999011 
1.1150387e+3, 1.9423969e+2, -937035.5, -1091591.9, -17063.2, 0.011410823, -0.12704886, -935174.1, 101264.74, 0.0, 10.001092, 9.99904 
1.11504726e+3, 2.0423861e+2, -868295.3, -997625.25, -27504.422, -0.020597761, -0.14268441, -862689.0, 75760.06, 0.0, 10.000847, 9.999131 
1.11505665e+3, 2.1423766e+2, -821553.56, -920025.1, -29335.977, 0.040286183, -0.1555182, -813476.5, 26980.775, 0.0, 10.000477, 9.999169 
1.11506544e+3, 2.2423686e+2, -742397.6, -819291.06, -35555.215, 0.0469958, -0.15446368, -728477.2, 13987.088, 0.0, 10.000297, 9.999275 
1.11507334e+3, 2.3423631e+2, -631752.5, -710880.75, -36871.426, -0.019351933, -0.14226708, -617235.0, 27234.367, 0.0, 10.000364, 9.999313 
1.1150817e+3, 2.4423562e+2, -564219.06, -624387.3, -47272.984, -0.04025401, -0.14193358, -538269.3, 8206.201, 0.0, 10.000142, 9.999342 
1.1150903e+3, 2.5423476e+2, -550430.44, -563105.56, -42386.145, -0.00027923047, -0.16806297, -513910.7, -65427.46, 0.0, 9.999547, 9.999375 
1.1150989e+3, 2.6423395e+2, -496937.13, -481435.94, -25082.568, 0.012341615, -0.1880869, -462933.78, -112443.54, 0.0, 9.99922, 9.99942 
1.1151073e+3, 2.7423325e+2, -394903.0, -376542.63, -26086.273, -0.010928503, -0.20363247, -358068.34, -105572.64, 0.0, 9.999227, 9.999463 
1.11511596e+3, 2.8423274e+2, -327106.1, -305327.78, -28741.045, -0.02230233, -0.19714586, -285482.25, -130982.03, 0.0, 9.999071, 9.999355 
1.1151245e+3, 2.9423228e+2, -277301.3, -227480.16, -26414.705, -0.02037259, -0.18088199, -216082.7, -159578.34, 0.0, 9.998725, 9.999384 
1.11513354e+3, 3.0423117e+2, -186612.28, -71255.31, 6921.0825, -0.024187284, -0.2662679, -70841.55, -70841.55, 0.0, 9.998637, 10.000166 
1.1151429e+3, 3.1423187e+2, -135159.73, -17566.938, 14372.043, -0.030720979, -0.22055678, -15835.886, -15835.886, 0.0, 9.998864, 10.000424 
1.12498e+3, 1.242381e+2, -1428512.1, -1722467.8, 30720.88, 0.04698235, -0.13157605, -1425335.9, 297119.84, 0.0010446907, 10.0026045, 9.998689 
1.1249888e+3, 1.3423686e+2, -1371699.5, -1675195.5, -50909.02, 0.16410452, -0.09916463, -1363387.6, 261080.75, 0.0005132032, 10.00244, 9.998426 
1.1249957e+3, 1.4423575e+2, -1267538.5, -1506703.4, 2601.373, 0.0023252799, -0.07885408, -1267510.1, 258968.97, 0.00014641856, 10.002198, 9.999021 
1.1250049e+3, 1.5423429e+2, -1220945.6, -1427306.1, -7342.5337, 0.018010942, -0.13569316, -1220684.8, 207807.61, 0.00001150662, 10.001819, 9.999077 
1.12501405e+3, 1.6423309e+2, -1160601.5, -1368539.5, -20587.105, 0.053119235, -0.15183264, -1158582.8, 171920.64, 0.0000000061074554, 10.001651, 9.998887 
1.1250233e+3, 1.7423238e+2, -1042613.06, -1258297.3, -18283.27, 0.11475382, -0.11606757, -1041074.2, 191436.7, 0.0, 10.001778, 9.998909 
1.125032e+3, 1.8423149e+2, -957011.9, -1152652.0, -14968.916, 0.11085358, -0.09913073, -955873.2, 178646.44, 0.0, 10.001631, 9.999033 
1.1250398e+3, 1.942304e+2, -929983.56, -1084849.3, -17393.44, 0.018204104, -0.11767744, -928054.1, 108476.18, 0.0, 10.001126, 9.999069 
1.12504825e+3, 2.0422931e+2, -877015.75, -1000132.4, -26393.604, -0.013981233, -0.1357898, -871596.06, 66944.24, 0.0, 10.00078, 9.9991455 
1.1250571e+3, 2.1422824e+2, -794523.25, -905490.56, -24535.92, 0.034912042, -0.1619208, -789340.2, 51209.25, 0.0, 10.000656, 9.999183 
1.1250657e+3, 2.2422746e+2, -730223.4, -818966.1, -25660.242, 0.043407623, -0.15823868, -723337.9, 19218.602, 0.0, 10.000404, 9.999226 
1.1250737e+3, 2.342271e+2, -690699.44, -745150.3, -29333.162, -0.0027617072, -0.12079394, -677904.1, -33343.766, 0.0, 9.999986, 9.99926 
1.1250818e+3, 2.4422646e+2, -624130.44, -645802.8, -48827.633, -0.020520538, -0.1185516, -584951.0, -38384.637, 0.0, 9.9997, 9.999407 
1.1250898e+3, 2.5422534e+2, -540621.75, -549764.5, -50874.69, -0.00078779366, -0.17456661, -494113.44, -45538.113, 0.0, 9.999578, 9.999452 
1.1250982e+3, 2.6422453e+2, -483102.44, -482965.16, -31045.85, 0.004029084, -0.19579527, -451987.88, -101405.51, 0.0, 9.999352, 9.999345 
1.12510644e+3, 2.7422416e+2, -435018.63, -406257.16, -34994.293, -0.009805011, -0.17303173, -382803.97, -130217.88, 0.0, 9.998997, 9.999371 
1.125115e+3, 2.8422365e+2, -356303.38, -305587.5, -34806.22, -0.012721046, -0.16387257, -287881.56, -133291.22, 0.0, 9.998811, 9.999479 
1.1251235e+3, 2.942229e+2, -250215.83, -198638.6, -27825.422, -0.0029748788, -0.19307595, -186489.02, -129892.73, 0.0, 9.998845, 9.999523 
1.1251323e+3, 3.042216e+2, -181651.53, -67153.86, 3479.314, -0.009232015, -0.3048513, -67048.23, -67048.23, 0.0, 9.998665, 10.000179 
1.12514146e+3, 3.1422278e+2, -225431.22, -49461.203, -7218.6836, -0.02866259, -0.21101828, -49165.574, -49165.574, 0.0, 9.998196, 10.000527 
1.1349829e+3, 1.2422922e+2, -1408926.9, -1680115.0, 40428.586, 0.07845469, -0.07838565, -1403028.1, 319517.06, 0.001174958, 10.002599, 9.998981 
1.1349908e+3, 1.3422751e+2, -1352361.8, -1634874.9, -56528.57, 0.11984747, -0.12210961, -1341470.6, 283090.13, 0.00058639556, 10.0024395, 9.998705 
1.1349975e+3, 1.4422643e+2, -1275408.8, -1522704.0, -11176.198, -0.033617795, -0.10853441, -1274904.8, 251665.84, 0.00017311395, 10.002196, 9.998912 
1.13500744e+3, 1.5422554e+2, -1230618.5, -1447829.3, -21424.682, 0.09183229, -0.09262669, -1228525.5, 200053.45, 0.000015247707, 10.00182, 9.998935 
1.13501646e+3, 1.6422445e+2, -1155553.5, -1358447.3, -18339.775, 0.12268238, -0.09553782, -1153909.1, 176680.23, 0.000000009421829, 10.001652, 9.998957 
1.1350243e+3, 1.7422308e+2, -1036817.44, -1246380.8, -13735.381, 0.03342891, -0.13177793, -1035921.0, 196681.27, 0.0, 10.001778, 9.998991 
1.1350327e+3, 1.8422204e+2, -961523.75, -1161970.0, -33717.14, 0.011094244, -0.13154669, -956004.1, 178608.31, 0.0, 10.001631, 9.99897 
1.1350415e+3, 1.9422148e+2, -934935.7, -1095132.5, -37239.81, 0.07675254, -0.09026953, -926702.0, 109916.77, 0.0, 10.001126, 9.999 
1.1350498e+3, 2.0422056e+2, -872955.56, -991681.44, -33520.84, 0.077714324, -0.089612186, -864145.2, 74481.97, 0.0, 10.000779, 9.999205 
1.13505736e+3, 2.1421921e+2, -790015.8, -895983.7, -29639.2, -0.0076294583, -0.15224576, -782289.1, 58349.1, 0.0, 10.000654, 9.9992485 
1.1350654e+3, 2.2421822e+2, -734991.06, -828273.94, -42029.902, -0.02435086, -0.1711698, -718847.7, 23799.428, 0.0, 10.0004015, 9.999163 
1.1350742e+3, 2.3421775e+2, -695967.06, -755825.2, -45484.477, 0.05181455, -0.13813172, -671448.06, -26795.348, 0.0, 9.999985, 9.999187 
1.13508224e+3, 2.4421717e+2, -624736.6, -646863.9, -54763.176, 0.06244723, -0.122007504, -579930.7, -33272.605, 0.0, 9.999699, 9.9994 
1.13508925e+3, 2.5421646e+2, -541316.2, -549829.6, -54956.59, -0.015189878, -0.13922614, -490451.72, -41788.695, 0.0, 9.999573, 9.999454 
1.1350969e+3, 2.6421565e+2, -491295.66, -498529.5, -43641.95, -0.044201266, -0.15459725, -451121.0, -100450.86, 0.0, 9.999346, 9.999242 
1.1351055e+3, 2.7421474e+2, -442511.53, -422618.75, -46662.98, -0.008763167, -0.17121811, -384853.88, -132174.22, 0.0, 9.998999, 9.999257 
1.135114e+3, 2.8421426e+2, -343886.8, -280113.56, -34167.813, 0.0077869627, -0.1638347, -265264.8, -110580.77, 0.0, 9.998812, 9.999654 
1.1351224e+3, 2.942142e+2, -238356.58, -170700.67, -25350.756, 0.0020099988, -0.14249171, -162255.8, -105573.53, 0.0, 9.99883, 9.9997225 
1.135131e+3, 3.042128e+2, -195825.16, -92383.67, -12854.3, -0.00884341, -0.2685147, -90810.25, -90810.25, 0.0, 9.998646, 10.000015 
1.1351396e+3, 3.1421322e+2, -228524.47, -58257.93, -21664.727, -0.024557417, -0.23199572, -55544.547, -55544.547, 0.0, 9.998203, 10.0004635 
1.1449857e+3, 1.2422048e+2, -1346650.5, -1652363.0, 83357.92, 0.07878604, -0.057100177, -1325398.8, 397232.94, 0.0013167423, 10.003038, 9.9989605 
1.1449933e+3, 1.3421851e+2, -1347411.3, -1637481.6, -57536.477, 0.11876907, -0.1201613, -1336415.5, 288234.03, 0.0006665531, 10.002493, 9.998663 
1.14499986e+3, 1.4421737e+2, -1278372.4, -1527982.3, -14929.263, -0.020868402, -0.10930997, -1277482.6, 249177.2, 0.00020295075, 10.002192, 9.998879 
1.14500955e+3, 1.5421656e+2, -1179037.1, -1426368.5, -18034.117, 0.097481504, -0.08451215, -1177729.0, 250938.4, 0.000019742625, 10.00219, 9.998904 
1.1450182e+3, 1.6421545e+2, -1109694.8, -1339783.6, -12208.401, 0.12117839, -0.085650265, -1109048.9, 221629.1, 0.000000013934886, 10.001981, 9.998925 
1.1450259e+3, 1.7421398e+2, -1078713.8, -1270515.9, -16989.592, 0.021249514, -0.12972172, -1077220.5, 155471.52, 0.0, 10.001505, 9.998958 
1.1450339e+3, 1.842129e+2, -1017443.25, -1189296.8, -40136.086, -0.0018984692, -0.13309495, -1008531.7, 126171.14, 0.0, 10.001249, 9.998966 
1.1450427e+3, 1.9421233e+2, -908897.3, -1082652.0, -39336.117, 0.075615436, -0.08962159, -900406.94, 136302.08, 0.0, 10.001306, 9.998998 
1.1450509e+3, 2.0421152e+2, -821565.94, -964693.9, -36767.418, 0.082142316, -0.07991844, -812673.44, 126043.07, 0.0, 10.001123, 9.999223 
1.145058e+3, 2.1421038e+2, -794054.6, -895247.3, -37876.65, -0.007075204, -0.12370289, -781447.9, 59277.836, 0.0, 10.000617, 9.999271 
1.1450658e+3, 2.2420932e+2, -767379.5, -854724.94, -52983.723, -0.022641908, -0.14472134, -742389.4, 345.80252, 0.0, 10.000227, 9.999064 
1.1450744e+3, 2.3420842e+2, -702172.25, -771063.94, -59409.977, 0.060208928, -0.14318514, -667944.5, -23199.53, 0.0, 9.999996, 9.999078 
1.1450821e+3, 2.4420772e+2, -613528.8, -636409.94, -63364.13, 0.07512694, -0.1364969, -560580.7, -13829.183, 0.0, 9.999755, 9.999445 
1.145089e+3, 2.5420728e+2, -547345.56, -546669.44, -60933.32, -0.0010803331, -0.13209149, -486073.22, -37319.58, 0.0, 9.999505, 9.999508 
1.1450964e+3, 2.6420653e+2, -501417.66, -502569.97, -46987.33, -0.031944565, -0.1438543, -455002.94, -104242.914, 0.0, 9.999271, 9.99925 
1.1451045e+3, 2.7420545e+2, -433776.38, -417555.56, -42591.36, -0.003505936, -0.18195382, -382309.28, -129537.53, 0.0, 9.999057, 9.999264 
1.1451128e+3, 2.8420502e+2, -350132.47, -285631.78, -27690.598, 0.01087659, -0.16590628, -275375.03, -120599.31, 0.0, 9.998782, 9.99963 
1.1451211e+3, 2.9420543e+2, -301296.03, -204744.14, -35332.992, 0.011033035, -0.09609826, -193195.45, -136425.17, 0.0, 9.998414, 9.99969 
1.1451295e+3, 3.0420393e+2, -257238.02, -132026.7, -26895.129, -0.00023860545, -0.22542529, -126494.14, -126494.14, 0.0, 9.998268, 9.999926 
1.1451381e+3, 3.1420395e+2, -191633.3, -33243.984, -33575.785, -0.02113956, -0.22057337, -26420.463, -26420.463, 0.0, 9.998431, 10.0005245 
1.1549884e+3, 1.2421195e+2, -1372333.0, -1702503.5, 80545.33, 0.041873172, -0.06749983, -1353731.9, 368982.72, 0.0014692028, 10.003026, 9.998621 
1.1549962e+3, 1.3420998e+2, -1373466.5, -1691954.3, -77639.33, 0.1585819, -0.09482712, -1355548.0, 269186.0, 0.00075311697, 10.002495, 9.998289 
1.1550027e+3, 1.4420868e+2, -1274056.0, -1520093.3, -17117.861, 0.038566306, -0.082025655, -1272870.8, 253875.58, 0.000235787, 10.002195, 9.998932 
1.155011e+3, 1.5420741e+2, -1173051.1, -1414137.4, -17948.867, 0.03253419, -0.1099322, -1171722.3, 257035.0, 0.000024990082, 10.00219, 9.998988 
1.1550194e+3, 1.6420619e+2, -1119022.1, -1358846.0, -29904.752, 0.044559244, -0.1208831, -1115349.4, 215419.08, 0.000000023716384, 10.00198, 9.9987955 
1.155028e+3, 1.7420511e+2, -1089177.3, -1292084.8, -35352.895, 0.075604, -0.11033063, -1083194.1, 149585.33, 0.0, 10.001505, 9.998811 
1.1550359e+3, 1.8420407e+2, -1013812.7, -1181907.1, -40653.71, 0.06854549, -0.10417795, -1004496.9, 130293.125, 0.0, 10.001248, 9.999018 
1.1550435e+3, 1.9420303e+2, -904278.06, -1073323.5, -37518.56, 0.013656462, -0.115264356, -896325.25, 140475.02, 0.0, 10.001307, 9.999063 
1.15505114e+3, 2.0420223e+2, -823663.0, -968732.3, -55741.84, -0.0022881785, -0.10619991, -804718.56, 134089.23, 0.0, 10.001122, 9.999197 
1.1550591e+3, 2.1420178e+2, -796487.3, -899899.25, -57908.24, 0.0347108, -0.077270426, -770560.3, 70251.164, 0.0, 10.000615, 9.999241 
1.15506664e+3, 2.2420083e+2, -776760.8, -873477.56, -63727.453, 0.04599181, -0.0805105, -745120.94, -2300.5137, 0.0, 10.000224, 9.998938 
1.1550739e+3, 2.3419924e+2, -712070.7, -791244.56, -67983.516, 0.0217841, -0.13570522, -672988.2, -28151.69, 0.0, 9.999994, 9.9989395 
1.1550813e+3, 2.4419819e+2, -608153.2, -624567.5, -72842.04, 0.016529903, -0.16038299, -543057.4, 3788.5876, 0.0, 9.999751, 9.999528 
1.15508884e+3, 2.541979e+2, -540141.2, -531852.44, -69710.29, 0.03800616, -0.15231341, -466163.44, -17316.83, 0.0, 9.999505, 9.999611 
1.1550963e+3, 2.6419723e+2, -494237.9, -487670.25, -55220.105, 0.036733814, -0.1640959, -435636.4, -84784.73, 0.0, 9.999271, 9.999353 
1.1551037e+3, 2.741962e+2, -427652.7, -402984.38, -50045.363, 0.0031246883, -0.20611203, -363775.63, -110913.414, 0.0, 9.999049, 9.999368 
1.1551114e+3, 2.8419596e+2, -364082.97, -312125.7, -40430.617, -0.0058959145, -0.17012715, -290046.8, -135181.67, 0.0, 9.998771, 9.999454 
1.1551196e+3, 2.9419664e+2, -314983.34, -234374.14, -46211.94, 0.018153032, -0.053362187, -213359.86, -156500.5, 0.0, 9.998418, 9.999485 
1.15512796e+3, 3.0419505e+2, -263699.56, -146084.34, -21528.9, 0.011911471, -0.17607869, -142267.44, -142267.44, 0.0, 9.998271, 9.999828 
1.15513645e+3, 3.1419495e+2, -186183.1, -19630.965, -25278.285, -0.022800986, -0.17401725, -15878.904, -15878.904, 0.0, 9.99842, 10.000624 
1.1649912e+3, 1.24203324e+2, -1397136.9, -1725120.8, 72029.055, 0.033481326, -0.06952475, -1382015.6, 340783.53, 0.0016317561, 10.002903, 9.998526 
1.1649986e+3, 1.342013e+2, -1357075.6, -1697371.1, -85133.32, 0.15062056, -0.08879115, -1336965.9, 287853.6, 0.00084588735, 10.002664, 9.998171 
1.1650051e+3, 1.4419998e+2, -1246308.0, -1517583.6, -8092.9805, 0.05416181, -0.0691339, -1246066.8, 280765.47, 0.00027161013, 10.002433, 9.998835 
1.1650131e+3, 1.5419851e+2, -1178930.8, -1427538.6, -23439.443, 0.02101403, -0.10610985, -1176740.1, 252105.08, 0.000031011183, 10.002193, 9.998895 
1.1650212e+3, 1.6419724e+2, -1117390.0, -1359470.8, -43514.434, 0.027308041, -0.11702704, -1109805.8, 221051.3, 0.00000004774233, 10.001998, 9.998783 
1.16502956e+3, 1.7419627e+2, -1034402.0, -1266212.9, -39730.992, 0.076577745, -0.09460226, -1027781.44, 205085.4, 0.0, 10.0018835, 9.998805 
1.1650374e+3, 1.8419524e+2, -955937.44, -1150113.4, -35068.266, 0.074114025, -0.09007908, -949798.2, 185078.98, 0.0, 10.001629, 9.999053 
1.1650445e+3, 1.9419405e+2, -917963.8, -1075134.0, -34088.445, 0.004925348, -0.12006013, -910888.9, 125999.49, 0.0, 10.001192, 9.9991045 
1.165052e+3, 2.0419322e+2, -866409.44, -994702.56, -58770.63, -0.008402336, -0.113561146, -843557.3, 95339.02, 0.0, 10.000853, 9.999147 
1.1650598e+3, 2.141929e+2, -794615.06, -905704.25, -63739.594, 0.053222343, -0.065986276, -765614.2, 75285.64, 0.0, 10.000656, 9.999181 
1.1650671e+3, 2.2419207e+2, -742113.75, -842143.1, -59104.92, 0.067747496, -0.061686043, -714701.94, 28206.049, 0.0, 10.000399, 9.999068 
1.1650739e+3, 2.3419054e+2, -692575.9, -765347.0, -44137.758, 0.018148525, -0.123150684, -671759.6, -26837.313, 0.0, 10.000057, 9.999087 
1.165081e+3, 2.4418952e+2, -614029.1, -638636.25, -42248.38, 0.0072682467, -0.14853868, -582329.25, -35397.723, 0.0, 9.99976, 9.999428 
1.1650885e+3, 2.5418913e+2, -546005.5, -548139.06, -55621.24, 0.048098184, -0.13519692, -491440.8, -42506.73, 0.0, 9.999524, 9.999489 
1.1650957e+3, 2.6418853e+2, -489457.3, -473718.06, -50726.656, 0.051873427, -0.14364052, -430254.22, -79314.87, 0.0, 9.999256, 9.999455 
1.16510265e+3, 2.7418762e+2, -436612.84, -394704.94, -45285.813, 0.006473314, -0.18272106, -365760.25, -112812.7, 0.0, 9.998932, 9.999482 
1.1651101e+3, 2.841874e+2, -382246.53, -326099.2, -30037.709, -0.007172622, -0.14840361, -313058.44, -158108.38, 0.0, 9.998667, 9.999409 
1.1651181e+3, 2.9418793e+2, -308557.28, -238112.56, -28437.086, 0.021175096, -0.0424354, -228065.92, -171119.14, 0.0, 9.998493, 9.999422 
1.1651262e+3, 3.041863e+2, -264009.6, -153508.42, 11020.087, 0.014234449, -0.16050267, -152420.13, -152420.13, 0.0, 9.9983015, 9.999763 
1.16513476e+3, 3.141866e+2, -232251.44, -27292.766, 11249.613, -0.021103075, -0.11152614, -26677.156, -26677.156, 0.0, 9.998039, 10.000757 
1.17499426e+3, 1.2419469e+2, -1386290.6, -1702903.4, 75312.88, 0.051953003, -0.059810612, -1369288.9, 353595.8, 0.0018049687, 10.002905, 9.998677 
1.17500074e+3, 1.341926e+2, -1347478.3, -1677311.0, -93828.18, 0.09078031, -0.10115773, -1322655.0, 302249.75, 0.0009453062, 10.002662, 9.99831 
1.1750072e+3, 1.4419134e+2, -1264024.1, -1553330.9, -17821.467, 0.020800037, -0.069568284, -1262930.4, 263986.56, 0.0003105983, 10.002429, 9.998591 
1.1750157e+3, 1.5418994e+2, -1198400.4, -1467602.6, -32521.918, 0.06022715, -0.07362932, -1194527.3, 234403.58, 0.000037854974, 10.0021925, 9.99862 
1.1750237e+3, 1.6418864e+2, -1109817.3, -1344640.4, -49174.094, 0.06628894, -0.07567697, -1099935.6, 231007.67, 0.00000010132158, 10.002, 9.998884 
1.175031e+3, 1.7418753e+2, -1024924.0, -1246966.4, -44171.137, 0.02319978, -0.08262528, -1016459.6, 216494.0, 0.0, 10.001884, 9.998938 
1.17503844e+3, 1.8418644e+2, -954499.06, -1146748.3, -51953.97, 0.012352469, -0.089631535, -941357.25, 193606.34, 0.0, 10.001627, 9.999077 
1.1750463e+3, 1.9418544e+2, -917354.3, -1073258.3, -51170.35, 0.04732015, -0.104091965, -902059.75, 134913.02, 0.0, 10.001189, 9.999119 
1.1750536e+3, 2.0418455e+2, -871628.8, -1005053.8, -68063.39, 0.060868718, -0.102473736, -843035.56, 95946.08, 0.0, 10.000851, 9.999078 
1.1750604e+3, 2.1418379e+2, -800298.44, -917389.8, -71412.945, 0.04636417, -0.08947703, -766500.2, 74489.914, 0.0, 10.000655, 9.999102 
1.17506735e+3, 2.2418305e+2, -716787.8, -789006.9, -72640.42, 0.0401114, -0.08705735, -671776.9, 71220.33, 0.0, 10.000396, 9.999434 
1.1750742e+3, 2.3418237e+2, -663889.06, -705747.2, -57426.164, 0.046869952, -0.10623897, -623697.0, 21305.176, 0.0, 10.000056, 9.999496 
1.17508106e+3, 2.4418174e+2, -633560.25, -678790.75, -52386.867, 0.044642158, -0.10309409, -599115.6, -52107.465, 0.0, 9.999758, 9.999152 
1.1750878e+3, 2.5418112e+2, -570087.7, -597092.4, -64039.58, 0.028526211, -0.082038015, -518142.5, -69126.75, 0.0, 9.999519, 9.999155 
1.1750946e+3, 2.6418042e+2, -482168.13, -457816.3, -62053.59, 0.013583883, -0.08301619, -406755.34, -55732.84, 0.0, 9.999251, 9.999568 
1.17510155e+3, 2.741798e+2, -426136.75, -372800.2, -55840.242, 0.00057499285, -0.11400325, -337586.9, -84559.664, 0.0, 9.998931, 9.999634 
1.17510885e+3, 2.8417942e+2, -380707.16, -322629.34, -36940.09, 0.00077888963, -0.1031698, -304680.72, -149650.53, 0.0, 9.998666, 9.9994335 
1.1751166e+3, 2.941793e+2, -308442.97, -236026.42, -34428.34, 0.018690871, -0.062178932, -222271.22, -165238.61, 0.0, 9.998486, 9.99944 
1.1751245e+3, 3.0417773e+2, -262297.16, -148061.94, 2082.064, 0.006153693, -0.17721632, -148024.02, -148024.02, 0.0, 9.998292, 9.999805 
1.1751327e+3, 3.1417906e+2, -214193.25, 10419.8955, 5514.822, -0.028041808, -0.03010014, 10555.217, 10555.217, 0.0, 9.998037, 10.001017 
1.1849973e+3, 1.24186054e+2, -1385854.5, -1692443.4, 77430.266, 0.0662372, -0.042001035, -1367408.9, 355561.8, 0.001990702, 10.002866, 9.998767 
1.1850031e+3, 1.3418385e+2, -1330330.8, -1659668.4, -109621.98, 0.05967287, -0.100720786, -1297179.5, 327811.7, 0.0010523666, 10.00274, 9.998393 
1.1850096e+3, 1.441827e+2, -1247266.8, -1547850.9, -28834.191, 0.016494801, -0.06377688, -1244525.8, 282476.5, 0.00035315592, 10.002557, 9.998567 
1.18501805e+3, 1.541813e+2, -1185749.3, -1464964.0, -26820.838, 0.07028865, -0.06358956, -1183196.1, 245819.95, 0.000045623692, 10.0022955, 9.998588 
1.1850257e+3, 1.6418001e+2, -1100820.6, -1338381.6, -32397.986, 0.07568655, -0.06536864, -1096481.5, 234547.31, 0.00000019883093, 10.002053, 9.998901 
1.1850327e+3, 1.7417888e+2, -1027837.94, -1245306.0, -35971.797, 0.008575961, -0.07616835, -1022042.25, 210997.1, 0.0, 10.001852, 9.998964 
1.1850398e+3, 1.8417782e+2, -962946.2, -1146812.1, -56413.617, -0.0028728857, -0.08435636, -947017.4, 188031.63, 0.0, 10.001553, 9.999111 
1.1850475e+3, 1.9417685e+2, -923649.06, -1072324.6, -55830.266, 0.06279355, -0.09734853, -905018.44, 132039.06, 0.0, 10.001128, 9.999155 
1.18505456e+3, 2.0417598e+2, -870166.25, -992259.0, -56314.664, 0.0807468, -0.10069271, -848158.44, 90907.38, 0.0, 10.000807, 9.999187 
1.1850609e+3, 2.1417521e+2, -795471.1, -901138.7, -45220.29, 0.0333082, -0.10002432, -778761.5, 62312.45, 0.0, 10.000629, 9.999225 
1.1850675e+3, 2.2417457e+2, -712832.94, -780917.2, -53226.637, 0.017475897, -0.09822868, -683693.25, 59386.94, 0.0, 10.000398, 9.999489 
1.1850744e+3, 2.3417409e+2, -656056.7, -696525.9, -65581.695, 0.045453433, -0.103128515, -607658.94, 37424.766, 0.0, 10.000087, 9.999546 
1.1850809e+3, 2.441736e+2, -633007.4, -681550.4, -64486.652, 0.051318377, -0.086249284, -588375.8, -41287.16, 0.0, 9.999775, 9.9991255 
1.1850873e+3, 2.5417307e+2, -581083.25, -606683.7, -55634.207, 0.026848683, -0.051409613, -536795.7, -87699.97, 0.0, 9.999462, 9.999117 
1.18509375e+3, 2.6417238e+2, -496016.88, -471069.66, -47456.355, 0.010907817, -0.05044901, -434474.97, -83371.9, 0.0, 9.999185, 9.999509 
1.1851006e+3, 2.7417147e+2, -424683.66, -378614.4, -58437.434, 0.005254252, -0.09790234, -338835.6, -85725.48, 0.0, 9.998971, 9.999573 
1.1851077e+3, 2.8417102e+2, -370029.94, -312493.4, -45702.707, 0.010464985, -0.09618897, -287258.4, -132144.55, 0.0, 9.998719, 9.9994755 
1.1851151e+3, 2.9417095e+2, -317757.1, -235629.11, -39962.055, 0.03264353, -0.05170617, -219393.73, -162278.95, 0.0, 9.9984, 9.999485 
1.18512265e+3, 3.0416945e+2, -291712.03, -165564.47, -4063.2874, 0.009870603, -0.16554165, -165433.72, -165433.72, 0.0, 9.998105, 9.999774 
1.1851304e+3, 3.1417054e+2, -226620.8, 25335.098, -11889.102, -0.048621364, -0.03999561, 25894.87, 25894.87, 0.0, 9.997863, 10.001202 
1.19500026e+3, 1.241775e+2, -1385558.6, -1689795.1, 80806.52, 0.06850859, -0.015104444, -1365428.0, 357628.53, 0.0021913827, 10.002858, 9.998788 
1.1950058e+3, 1.3417518e+2, -1329105.4, -1657524.4, -114102.734, 0.05497042, -0.0874572, -1293354.5, 331723.4, 0.0011682742, 10.002742, 9.998408 
1.1950125e+3, 1.441741e+2, -1232545.8, -1518590.4, -39137.55, 0.03910496, -0.05231397, -1227287.5, 299799.88, 0.00039982723, 10.002561, 9.998766 
1.19502015e+3, 1.5417269e+2, -1170788.6, -1434503.0, -36704.246, 0.049223576, -0.07560071, -1165775.4, 263325.2, 0.00005450218, 10.002296, 9.998797 
1.1950276e+3, 1.641714e+2, -1105479.3, -1347922.4, -41131.098, 0.051808536, -0.08411945, -1098691.4, 232421.53, 0.00000035173326, 10.002052, 9.9988365 
1.1950347e+3, 1.7417037e+2, -1034123.9, -1257977.8, -43753.09, 0.030335011, -0.07506657, -1025876.06, 207247.17, 0.0, 10.00185, 9.9988785 
1.19504176e+3, 1.8416937e+2, -959989.5, -1140679.4, -72690.36, 0.025128957, -0.07589024, -934377.1, 200755.77, 0.0, 10.001552, 9.999154 
1.1950486e+3, 1.9416833e+2, -919651.7, -1064675.6, -72351.72, 0.04958144, -0.10100973, -889729.5, 147412.42, 0.0, 10.00113, 9.9992075 
1.195055e+3, 2.0416759e+2, -850297.7, -950687.94, -65101.984, 0.049105655, -0.10740546, -818286.9, 120861.44, 0.0, 10.000806, 9.999473 
1.1950614e+3, 2.1416724e+2, -774189.44, -856672.7, -52641.023, 0.013566352, -0.09754981, -748558.44, 92592.53, 0.0, 10.0006275, 9.999531 
1.1950678e+3, 2.2416665e+2, -730223.06, -816380.4, -65856.766, -0.0013226031, -0.09581891, -694606.8, 48549.766, 0.0, 10.000394, 9.999247 
1.1950741e+3, 2.3416574e+2, -676608.0, -739332.6, -77409.875, 0.01311104, -0.11366978, -624448.56, 20717.652, 0.0, 10.000087, 9.999252 
1.1950804e+3, 2.4416518e+2, -618953.3, -652503.06, -76759.59, 0.026027402, -0.096922755, -557157.0, -9984.684, 0.0, 9.999775, 9.999325 
1.19508676e+3, 2.541651e+2, -564165.7, -570894.8, -67002.75, 0.03799017, -0.04291101, -500443.06, -51269.477, 0.0, 9.999458, 9.999365 
1.19509324e+3, 2.6416436e+2, -513788.72, -507550.9, -56036.824, 0.038500514, -0.045846738, -454546.25, -103365.484, 0.0, 9.999183, 9.99926 
1.1950997e+3, 2.741628e+2, -445537.84, -421294.9, -65833.23, 0.020230863, -0.13113914, -366476.53, -113280.82, 0.0, 9.998968, 9.999282 
1.1951064e+3, 2.8416228e+2, -362771.7, -297613.5, -56849.45, 0.021694116, -0.12450041, -264669.66, -109469.18, 0.0, 9.998719, 9.999578 
1.1951137e+3, 2.9416302e+2, -309740.72, -217286.17, -49635.645, 0.051803958, -0.014353523, -195685.3, -138492.45, 0.0, 9.998392, 9.999615 
1.1951209e+3, 3.0416146e+2, -306372.7, -194411.67, -13019.928, 0.014631973, -0.12799135, -192917.53, -192917.53, 0.0, 9.998097, 9.99958 
1.195128e+3, 3.1416112e+2, -227344.42, 25780.994, -18824.758, -0.08256505, -0.12582038, 27173.32, 27173.32, 0.0, 9.997855, 10.001208 
1.20500326e+3, 1.2416932e+2, -1306129.8, -1659407.0, 134198.23, 0.06584536, -0.022169141, -1260934.3, 462202.5, 0.0024090873, 10.003442, 9.998715 
1.2050084e+3, 1.3416708e+2, -1310703.9, -1655437.1, -76073.51, 0.038103424, -0.081998974, -1294662.9, 330495.0, 0.0012942023, 10.002896, 9.998347 
1.2050151e+3, 1.4416608e+2, -1241542.0, -1518759.4, -5227.6587, 0.060080398, -0.036006354, -1241443.5, 285723.0, 0.00045114366, 10.0024805, 9.998803 
1.2050223e+3, 1.5416446e+2, -1172030.6, -1429434.4, -16021.375, 0.04647928, -0.08405342, -1171037.3, 258143.9, 0.00006471426, 10.002265, 9.998846 
1.20502956e+3, 1.6416317e+2, -1114445.6, -1349982.5, -24695.83, 0.043635916, -0.09706354, -1111884.3, 219309.34, 0.00000057087306, 10.001983, 9.998855 
1.2050365e+3, 1.741624e+2, -1065987.9, -1272085.4, -20957.193, 0.03551779, -0.0649621, -1063878.4, 169323.56, 0.0, 10.001626, 9.998889 
1.2050432e+3, 1.8416147e+2, -985522.2, -1156223.0, -46124.617, 0.029959137, -0.057133324, -973856.25, 161354.97, 0.0, 10.0013895, 9.9991255 
1.2050495e+3, 1.941603e+2, -893766.8, -1054856.6, -52376.867, 0.03625301, -0.09294299, -878234.56, 158987.05, 0.0, 10.001321, 9.999182 
1.2050559e+3, 2.041595e+2, -808574.5, -924939.06, -59140.797, 0.032802366, -0.105182804, -783794.06, 155434.2, 0.0, 10.001068, 9.999523 
1.20506205e+3, 2.141592e+2, -780209.44, -853437.8, -66368.45, 0.013608069, -0.094127305, -741025.4, 100204.32, 0.0, 10.000559, 9.999586 
1.205068e+3, 2.2415864e+2, -759742.0, -839458.44, -78492.13, 0.0028589205, -0.08977533, -711567.9, 31667.256, 0.0, 10.000229, 9.999169 
1.2050741e+3, 2.3415768e+2, -673787.6, -747547.6, -75805.59, 0.005233996, -0.102730036, -626366.9, 18879.117, 0.0, 10.000148, 9.999166 
1.2050802e+3, 2.4415708e+2, -585340.2, -621030.1, -74247.9, 0.013646658, -0.09407856, -526822.9, 20429.662, 0.0, 9.999941, 9.99946 
1.2050863e+3, 2.541569e+2, -538927.1, -540940.9, -72747.76, 0.030107023, -0.06730808, -467179.28, -17925.74, 0.0, 9.999556, 9.999523 
1.2050925e+3, 2.6415616e+2, -513974.53, -518667.97, -55738.703, 0.03926531, -0.072989926, -460533.2, -109272.93, 0.0, 9.99923, 9.99916 
1.20509885e+3, 2.7415478e+2, -451724.78, -438435.94, -53140.113, 0.037937928, -0.1271436, -391526.47, -138251.95, 0.0, 9.998985, 9.999156 
1.2051053e+3, 2.8415427e+2, -368467.7, -304310.3, -45802.777, 0.03553228, -0.11098442, -280469.97, -125190.375, 0.0, 9.998697, 9.999542 
1.205112e+3, 2.941548e+2, -317285.7, -224481.48, -54395.86, 0.031664815, -0.020985413, -199384.88, -142111.2, 0.0, 9.998357, 9.999581 
1.20511875e+3, 3.0415317e+2, -328838.53, -224928.8, -20322.688, -0.0012651727, -0.12955531, -221095.5, -221095.5, 0.0, 9.998029, 9.999402 
1.2051262e+3, 3.141525e+2, -248097.1, 17286.393, -21564.184, -0.032909032, -0.14300622, 19027.209, 19027.209, 0.0, 9.997705, 10.001223 
1.2150067e+3, 1.241616e+2, -1318491.3, -1685375.3, 116926.234, 0.056042753, -0.06250639, -1284395.5, 438815.13, 0.002645014, 10.003442, 9.998537 
1.21501096e+3, 1.3415958e+2, -1319767.0, -1675831.6, -96875.25, 0.0050056837, -0.08499871, -1295116.5, 330114.0, 0.0014309159, 10.002901, 9.998206 
1.2150178e+3, 1.441587e+2, -1249654.5, -1535845.6, -15529.167, 0.073897704, -0.015213535, -1248814.4, 278424.47, 0.00050734985, 10.002481, 9.998685 
1.2150248e+3, 1.5415671e+2, -1180004.1, -1445973.1, -23905.545, 0.060179807, -0.08949086, -1177872.5, 251384.9, 0.000076397075, 10.002264, 9.9987335 
1.2150315e+3, 1.6415536e+2, -1108308.3, -1337314.0, -38983.64, 0.048339296, -0.10590362, -1101854.0, 229416.44, 0.0000008702971, 10.001983, 9.998942 
1.2150379e+3, 1.7415497e+2, -1058602.6, -1257486.3, -34899.848, 0.022278769, -0.04615267, -1052656.3, 180618.94, 0.0, 10.001628, 9.998988 
1.2150444e+3, 1.8415415e+2, -992040.8, -1169550.9, -50807.063, 0.009137399, -0.026078762, -978527.5, 156755.64, 0.0, 10.001389, 9.999035 
1.2150508e+3, 1.9415279e+2, -901387.7, -1070809.0, -55272.082, 0.021703038, -0.07322773, -884950.44, 152345.55, 0.0, 10.001321, 9.999072 
1.21505685e+3, 2.0415175e+2, -821304.4, -951545.2, -78193.164, 0.02971633, -0.0956782, -784666.06, 154639.28, 0.0, 10.001069, 9.99934 
1.21506274e+3, 2.141512e+2, -793487.2, -881111.7, -86095.26, 0.030312961, -0.09106635, -740697.6, 100612.016, 0.0, 10.000559, 9.999397 
1.2150685e+3, 2.2415061e+2, -755019.6, -828869.7, -83975.59, 0.026889512, -0.080462575, -700209.4, 43105.86, 0.0, 10.000225, 9.999244 
1.21507436e+3, 2.3414999e+2, -667362.25, -733256.8, -78757.055, 0.019274833, -0.07075229, -614938.6, 30383.873, 0.0, 10.000143, 9.999266 
1.2150801e+3, 2.4414931e+2, -580836.94, -610840.0, -88314.71, 0.011885884, -0.07826824, -506258.72, 41070.3, 0.0, 9.999936, 9.999534 
1.2150855e+3, 2.5414845e+2, -533911.6, -530820.2, -86692.59, 0.003106257, -0.12270153, -445659.53, 3675.4214, 0.0, 9.999557, 9.999593 
1.2150914e+3, 2.641478e+2, -510427.06, -511937.03, -65181.83, 0.013449636, -0.13016722, -445995.84, -94654.914, 0.0, 9.999232, 9.999206 
1.2150979e+3, 2.7414742e+2, -449681.4, -432049.44, -60863.695, 0.051015485, -0.088550836, -379366.56, -126020.25, 0.0, 9.998976, 9.999205 
1.21510416e+3, 2.8414696e+2, -384612.25, -336473.0, -57894.04, 0.044392157, -0.058212113, -297844.4, -142493.27, 0.0, 9.99869, 9.999326 
1.21510975e+3, 2.9414627e+2, -334117.84, -259652.55, -66145.32, -0.025371093, -0.06721588, -220980.83, -163623.89, 0.0, 9.998357, 9.99934 
1.21511646e+3, 3.0414456e+2, -335237.34, -239069.33, -31616.094, -0.036422413, -0.16548917, -229606.4, -229606.4, 0.0, 9.998033, 9.999304 
1.2151251e+3, 3.141447e+2, -244034.73, 29729.402, -28867.266, 0.08316396, -0.091199204, 32740.22, 32740.22, 0.0, 9.997688, 10.001316 
1.22501016e+3, 1.2415444e+2, -1345154.1, -1712393.8, 113853.93, 0.057579037, -0.05438637, -1312720.9, 410559.2, 0.002898859, 10.003323, 9.998408 
1.2250138e+3, 1.3415213e+2, -1297375.0, -1672161.9, -98484.12, -0.01490595, -0.09744249, -1273071.9, 352231.22, 0.0015783015, 10.003089, 9.998139 
1.22502066e+3, 1.4415127e+2, -1207412.8, -1522088.6, -7097.7075, 0.092007704, -0.019162586, -1207252.8, 320058.78, 0.0005682736, 10.002803, 9.998624 
1.2250271e+3, 1.5414937e+2, -1152547.5, -1440011.8, -12513.023, 0.054824643, -0.07781649, -1152003.9, 277325.78, 0.00008951281, 10.002485, 9.998667 
1.2250335e+3, 1.6414803e+2, -1080056.0, -1325510.6, -29951.006, 0.03441371, -0.089714885, -1076454.1, 254888.67, 0.0000012652538, 10.002183, 9.998926 
1.2250398e+3, 1.7414752e+2, -1019976.75, -1239180.0, -35024.91, 0.020995697, -0.03965127, -1014516.4, 218832.05, 0.0, 10.001896, 9.998984 
1.2250459e+3, 1.841467e+2, -964992.56, -1153129.1, -47380.313, 0.015198182, -0.02325955, -953734.06, 181622.53, 0.0, 10.001561, 9.9990635 
1.225052e+3, 1.9414538e+2, -921136.94, -1076845.0, -42243.266, 0.023978008, -0.06680808, -910414.8, 126953.95, 0.0, 10.00117, 9.999103 
1.22505784e+3, 2.0414434e+2, -853558.3, -976382.0, -58565.223, 0.030525813, -0.08661144, -830109.7, 109268.52, 0.0, 10.000887, 9.999257 
1.22506335e+3, 2.1414374e+2, -771489.56, -880196.94, -60099.004, 0.034077406, -0.080217585, -744811.1, 96572.49, 0.0, 10.000753, 9.999309 
1.2250689e+3, 2.2414313e+2, -722681.2, -807866.75, -54967.87, 0.033753686, -0.07105839, -695735.4, 47654.1, 0.0, 10.000424, 9.99929 
1.22507446e+3, 2.341425e+2, -710759.75, -747676.8, -54530.746, 0.02858805, -0.067407496, -671648.1, -26252.08, 0.0, 9.999817, 9.999324 
1.2250798e+3, 2.4414176e+2, -650069.56, -648787.1, -63030.37, 0.018003656, -0.08143919, -586394.7, -38991.95, 0.0, 9.99948, 9.999493 
1.2250851e+3, 2.541408e+2, -540440.06, -539209.0, -70522.76, -0.0014324667, -0.1319762, -469299.1, -19889.223, 0.0, 9.999535, 9.999545 
1.2250907e+3, 2.6414016e+2, -486365.56, -496234.5, -60631.918, 0.0029257736, -0.13421601, -430467.66, -79052.195, 0.0, 9.99938, 9.999242 
1.2250968e+3, 2.7414006e+2, -455300.1, -430023.28, -59625.246, 0.041187745, -0.07427036, -381711.72, -128293.15, 0.0, 9.998918, 9.999246 
1.2251027e+3, 2.841395e+2, -395899.8, -340043.56, -42890.797, 0.036598936, -0.05241778, -316789.66, -161365.88, 0.0, 9.998607, 9.99934 
1.22510806e+3, 2.9413843e+2, -310460.2, -247212.66, -32295.691, -0.029506078, -0.10222626, -233636.05, -176202.95, 0.0, 9.998515, 9.999349 
1.2251145e+3, 3.0413702e+2, -330021.88, -246539.2, -339.2111, -0.036345948, -0.16827564, -246537.83, -246537.83, 0.0, 9.998112, 9.999214 
1.22512266e+3, 3.1413743e+2, -303626.5, 4394.2915, -3100.231, 0.096313655, -0.056511257, 4425.492, 4425.492, 0.0, 9.997264, 10.001347 
1.23501346e+3, 1.2414791e+2, -1351420.1, -1724600.4, 101736.71, 0.06236742, 0.00090499426, -1325486.8, 397857.66, 0.0031684104, 10.00332, 9.998325 
1.2350169e+3, 1.3414481e+2, -1297198.0, -1672081.6, -107112.08, -0.02247813, -0.11960064, -1268752.4, 356622.63, 0.001735363, 10.003089, 9.998141 
1.23502366e+3, 1.441439e+2, -1209118.8, -1525116.8, -20632.008, 0.11240365, -0.047733035, -1207777.4, 319606.63, 0.00063353236, 10.0028, 9.998605 
1.2350293e+3, 1.5414253e+2, -1153972.1, -1444417.9, -24559.082, 0.027396265, -0.04918062, -1151910.1, 277487.16, 0.00010392506, 10.00249, 9.998635 
1.2350353e+3, 1.6414125e+2, -1087645.0, -1341294.0, -41619.84, -0.0020428512, -0.04833534, -1080990.4, 250419.63, 0.0000017603737, 10.002183, 9.998818 
1.2350418e+3, 1.7414016e+2, -1027841.6, -1255796.8, -45873.824, 0.030058786, -0.046318028, -1018956.3, 214464.94, 0.0, 10.001896, 9.998871 
1.2350477e+3, 1.8413912e+2, -955538.0, -1133262.6, -63218.695, 0.044790633, -0.050615676, -935344.75, 200086.42, 0.0, 10.001559, 9.999201 
1.2350533e+3, 1.9413817e+2, -909763.44, -1053232.9, -57705.418, 0.040663347, -0.073668316, -889434.1, 148005.38, 0.0, 10.001169, 9.999266 
1.2350588e+3, 2.041374e+2, -852724.25, -974114.06, -65685.766, 0.03383172, -0.07665463, -823984.9, 115461.43, 0.0, 10.000884, 9.999274 
1.2350641e+3, 2.1413687e+2, -771394.06, -879858.06, -65510.004, 0.023378085, -0.061541036, -740580.94, 100870.15, 0.0, 10.0007515, 9.999312 
1.2350692e+3, 2.2413619e+2, -721280.9, -805111.56, -77415.64, 0.021497564, -0.0618263, -675161.75, 68295.81, 0.0, 10.000424, 9.9993105 
1.2350743e+3, 2.3413523e+2, -709140.1, -745154.0, -77423.97, 0.031873394, -0.09224385, -647656.7, -2190.3376, 0.0, 9.99982, 9.999341 
1.2350795e+3, 2.4413444e+2, -660740.5, -671711.44, -63609.938, 0.030431295, -0.103513196, -602379.94, -54906.492, 0.0, 9.999483, 9.999334 
1.2350847e+3, 2.541339e+2, -553352.94, -564475.56, -67517.75, 0.011918224, -0.09709329, -491167.84, -41689.746, 0.0, 9.999527, 9.999375 
1.2350901e+3, 2.641333e+2, -486684.25, -495176.3, -75955.98, 0.0033633346, -0.08675305, -414855.72, -63372.055, 0.0, 9.999372, 9.999253 
1.2350953e+3, 2.7413267e+2, -453582.78, -426599.78, -75828.91, 0.008558841, -0.08134568, -363071.5, -109580.64, 0.0, 9.998918, 9.9992695 
1.2351009e+3, 2.8413194e+2, -378439.56, -303856.9, -46985.387, 0.011309343, -0.09014661, -281162.66, -125665.56, 0.0, 9.998606, 9.999589 
1.235107e+3, 2.9413125e+2, -293977.84, -209057.69, -33646.07, 0.00988091, -0.12890251, -197342.9, -139840.66, 0.0, 9.998498, 9.9996195 
1.2351129e+3, 3.0413046e+2, -340872.2, -266056.34, -29045.15, -0.009880431, -0.14103556, -256104.22, -256104.22, 0.0, 9.998096, 9.999088 
1.2351191e+3, 3.1413075e+2, -309880.78, -9297.221, -30843.172, 0.008582499, -0.025131613, -6165.012, -6165.012, 0.0, 9.997266, 10.001252 
1.2450171e+3, 1.24140814e+2, -1280518.0, -1701115.9, 92621.14, 0.072917365, -0.0053691366, -1261025.0, 462388.84, 0.0034511262, 10.003859, 9.998225 
1.2450198e+3, 1.3413773e+2, -1268038.8, -1657592.5, -114387.836, -0.048250936, -0.12262065, -1236933.8, 388510.8, 0.0019010409, 10.003289, 9.998143 
1.2450265e+3, 1.4413698e+2, -1200912.9, -1512135.0, -20668.982, 0.118882746, -0.040174607, -1199546.3, 327906.06, 0.0007028683, 10.002817, 9.998685 
1.2450317e+3, 1.5413575e+2, -1144104.0, -1428605.8, -15880.6875, 0.026056105, -0.03857712, -1143220.4, 286243.9, 0.00011956255, 10.002513, 9.998731 
1.2450375e+3, 1.6413446e+2, -1091462.6, -1344055.0, -25153.967, -0.0036040358, -0.042678002, -1088982.1, 242494.7, 0.0000023468863, 10.002163, 9.998808 
1.2450436e+3, 1.7413315e+2, -1050603.9, -1269329.4, -23626.18, 0.0339731, -0.05899803, -1048080.9, 185408.8, 0.0, 10.001752, 9.998846 
1.2450493e+3, 1.8413207e+2, -974980.44, -1141655.9, -39294.637, 0.04950605, -0.0677277, -966181.06, 169319.02, 0.0, 10.001422, 9.999209 
1.2450546e+3, 1.9413128e+2, -906575.6, -1050070.4, -45382.953, 0.041750047, -0.07480412, -893427.2, 144079.75, 0.0, 10.001185, 9.999279 
1.2450597e+3, 2.0413063e+2, -845713.75, -962693.25, -54671.94, 0.03385225, -0.0705269, -824140.56, 115372.08, 0.0, 10.000898, 9.999345 
1.24506466e+3, 2.1413013e+2, -796802.94, -883623.1, -50474.2, 0.023029698, -0.06101639, -773639.2, 67877.8, 0.0, 10.000541, 9.999387 
1.2450696e+3, 2.241294e+2, -738902.1, -816485.44, -63202.773, 0.017978014, -0.06733925, -703535.94, 39987.54, 0.0, 10.000316, 9.999285 
1.2450742e+3, 2.3412834e+2, -643909.4, -716703.8, -67997.27, 0.021868985, -0.10517193, -603180.8, 42352.38, 0.0, 10.000282, 9.999312 
1.2450791e+3, 2.4412757e+2, -589458.0, -641339.56, -51155.414, 0.02514757, -0.11182644, -558042.0, -10501.768, 0.0, 9.99999, 9.999297 
1.2450843e+3, 2.541272e+2, -585167.56, -584347.75, -46995.586, 0.027398022, -0.08356859, -537760.3, -88216.79, 0.0, 9.999329, 9.999334 
1.2450893e+3, 2.6412663e+2, -555908.94, -527042.2, -48684.215, 0.019299556, -0.073891714, -490696.9, -139147.75, 0.0, 9.99889, 9.999266 
1.2450941e+3, 2.741256e+2, -471535.1, -432966.84, -49616.36, -0.0038662707, -0.10263759, -399018.84, -145460.2, 0.0, 9.998785, 9.9992895 
1.2450994e+3, 2.8412485e+2, -390695.6, -302793.34, -29507.615, -0.0045516943, -0.12499551, -293806.75, -138241.17, 0.0, 9.998492, 9.999651 
1.24510534e+3, 2.941244e+2, -376792.88, -241506.58, -34107.223, 0.025652288, -0.14311145, -233394.22, -175825.4, 0.0, 9.997897, 9.999684 
1.24511085e+3, 3.0412406e+2, -406250.28, -283637.84, -27356.424, 0.0032210771, -0.11790408, -277811.16, -277811.16, 0.0, 9.997589, 9.99921 
1.2451164e+3, 3.1412393e+2, -233846.75, 43384.297, -6201.9146, -0.02036213, -0.059122622, 43522.973, 43522.973, 0.0, 9.99772, 10.001394 
1.2550211e+3, 1.2413328e+2, -1289832.9, -1720779.9, 63302.492, 0.08429533, -0.0726725, -1280726.8, 442760.84, 0.0037460192, 10.0038595, 9.998091 
1.2550226e+3, 1.3413101e+2, -1268048.1, -1659456.8, -135930.36, -0.09602921, -0.107816204, -1225472.8, 400038.56, 0.0020748412, 10.003295, 9.998129 
1.2550291e+3, 1.4413059e+2, -1187627.3, -1484426.6, -34521.027, 0.106703416, 0.00059804594, -1183665.0, 343850.97, 0.00077620865, 10.002816, 9.998876 
1.2550345e+3, 1.5412906e+2, -1128487.4, -1396610.6, -27009.129, 0.04943176, -0.047298174, -1125793.6, 303736.28, 0.00013646827, 10.002513, 9.998951 
1.2550399e+3, 1.6412771e+2, -1086667.8, -1333445.8, -41717.508, 0.027199613, -0.07395094, -1079806.3, 251736.3, 0.0000030208696, 10.002159, 9.998883 
1.2550452e+3, 1.741266e+2, -1045692.1, -1260242.4, -39445.93, 0.03060376, -0.076678514, -1038669.7, 194883.53, 0.0, 10.001756, 9.998907 
1.2550506e+3, 1.8412563e+2, -982775.06, -1158186.0, -49619.914, 0.027520401, -0.07350836, -969711.56, 165851.16, 0.0, 10.001423, 9.999096 
1.2550557e+3, 1.941248e+2, -915565.94, -1069361.9, -54496.742, 0.025661109, -0.07117181, -898213.2, 139357.47, 0.0, 10.001187, 9.999146 
1.2550606e+3, 2.041241e+2, -837937.6, -946378.75, -69054.22, 0.027712675, -0.06979835, -804360.94, 135215.98, 0.0, 10.000897, 9.999457 
1.2550654e+3, 2.1412355e+2, -787387.25, -863815.6, -64454.047, 0.031573065, -0.07839643, -750670.5, 90910.28, 0.0, 10.00054, 9.999524 
1.25507e+3, 2.2412284e+2, -743852.3, -826345.5, -66805.6, 0.02223208, -0.08731279, -706586.06, 37000.902, 0.0, 10.000313, 9.999219 
1.2550743e+3, 2.3412189e+2, -650262.0, -728871.25, -69198.76, -0.003236031, -0.10618051, -609984.5, 35611.85, 0.0, 10.000277, 9.999232 
1.2550789e+3, 2.4412118e+2, -584626.56, -630193.4, -74392.51, -0.00016339624, -0.10620698, -529606.8, 17996.078, 0.0, 9.999985, 9.999377 
1.2550837e+3, 2.5412077e+2, -578716.44, -571431.4, -71269.17, 0.042999994, -0.089895755, -503711.72, -54105.973, 0.0, 9.99933, 9.999423 
1.2550884e+3, 2.6412007e+2, -554734.8, -525541.25, -54186.86, 0.048134997, -0.094274476, -484019.6, -132408.02, 0.0, 9.998893, 9.999275 
1.2550929e+3, 2.7411896e+2, -471877.78, -432105.84, -51949.11, -0.00048791512, -0.13869432, -396366.63, -142744.81, 0.0, 9.998776, 9.999299 
1.2550978e+3, 2.8411818e+2, -401500.94, -323143.34, -49258.03, -0.014780359, -0.15803216, -299383.03, -143753.67, 0.0, 9.998482, 9.9995165 
1.2551032e+3, 2.9411787e+2, -387086.1, -263259.22, -54980.027, 0.015980272, -0.14344873, -242371.22, -184738.56, 0.0, 9.997898, 9.999535 
1.2551084e+3, 3.0411786e+2, -379162.84, -228011.8, -24642.86, -0.000039373797, -0.09648543, -224095.61, -224095.61, 0.0, 9.997591, 9.999592 
1.2551142e+3, 3.1411707e+2, -210254.63, 96596.914, 3646.0913, -0.0010129086, -0.14855753, 96640.23, 96640.23, 0.0, 9.997701, 10.001769 
1.2650248e+3, 1.2412704e+2, -1318809.9, -1732064.9, 91312.555, 0.07390632, -0.07241812, -1299532.8, 424016.8, 0.004053067, 10.003647, 9.9981165 
1.2650257e+3, 1.3412492e+2, -1235308.8, -1628646.8, -89654.47, -0.11769319, -0.105229415, -1215837.4, 409733.9, 0.0022565385, 10.003457, 9.998261 
1.2650323e+3, 1.4412455e+2, -1154490.1, -1468863.4, 8133.572, 0.12573464, 0.0027362765, -1154279.9, 373295.28, 0.0008535736, 10.003048, 9.998871 
1.265037e+3, 1.5412307e+2, -1150958.3, -1410342.3, -3059.159, 0.056558274, -0.040769827, -1150922.1, 278666.97, 0.00015477135, 10.002372, 9.998924 
1.265042e+3, 1.641217e+2, -1109262.6, -1339349.8, -17687.273, 0.024259428, -0.06803136, -1107910.9, 223690.8, 0.0000038088367, 10.001983, 9.998927 
1.2650472e+3, 1.7412056e+2, -1008514.25, -1236100.6, -16128.31, 0.023441156, -0.0797055, -1007376.94, 226235.2, 0.0, 10.001986, 9.998961 
1.2650521e+3, 1.8411958e+2, -930502.3, -1137656.0, -28623.861, 0.022990102, -0.07720758, -926619.94, 209001.56, 0.0, 10.001803, 9.999053 
1.2650569e+3, 1.9411883e+2, -893984.6, -1064696.9, -29247.297, 0.029132511, -0.06528597, -889112.9, 148516.52, 0.0, 10.001362, 9.999094 
1.2650615e+3, 2.0411804e+2, -828389.94, -943776.56, -44106.92, 0.035459112, -0.06656444, -813461.4, 126174.92, 0.0, 10.000972, 9.999439 
1.265066e+3, 2.1411727e+2, -773079.2, -858346.6, -51481.184, 0.039681833, -0.0950491, -748870.2, 92771.52, 0.0, 10.000645, 9.999511 
1.2650703e+3, 2.2411658e+2, -747727.4, -825158.3, -52239.02, 0.028953228, -0.10448804, -721421.25, 22226.455, 0.0, 10.000274, 9.999245 
1.2650743e+3, 2.3411593e+2, -711487.4, -755248.6, -47777.824, -0.0010291112, -0.09677236, -680818.2, -35163.645, 0.0, 9.999843, 9.99926 
1.2650786e+3, 2.4411525e+2, -647340.2, -661109.3, -55702.164, -0.00082060177, -0.094800115, -598098.75, -50437.945, 0.0, 9.999557, 9.999372 
1.2650831e+3, 2.541145e+2, -557031.0, -561446.1, -61359.465, 0.04041651, -0.11116868, -497839.38, -48172.87, 0.0, 9.999481, 9.999418 
1.2650876e+3, 2.6411378e+2, -504042.06, -490399.3, -44815.33, 0.049948685, -0.12541318, -451889.2, -100216.7, 0.0, 9.999195, 9.999371 
1.2650917e+3, 2.7411294e+2, -491931.47, -430056.94, -36668.87, 0.016495993, -0.14900105, -413017.97, -159338.72, 0.0, 9.998589, 9.999404 
1.2650964e+3, 2.8411222e+2, -446358.88, -357606.13, -25616.012, 0.0028699746, -0.16294806, -350743.4, -195057.14, 0.0, 9.998229, 9.999401 
1.2651011e+3, 2.9411167e+2, -348015.44, -259770.83, -31341.477, 0.013422849, -0.16011065, -249772.28, -192079.47, 0.0, 9.998233, 9.999398 
1.265106e+3, 3.041118e+2, -323865.84, -184897.73, -10362.217, -0.0116831, -0.09619294, -184129.33, -184129.33, 0.0, 9.9979, 9.999739 
1.2651116e+3, 3.1411067e+2, -296848.06, 59769.332, -1028.1364, -0.00079661165, -0.20243195, 59772.297, 59772.297, 0.0, 9.997085, 10.001813 
1.2750281e+3, 1.2412217e+2, -1306238.6, -1704218.4, 71218.945, 0.035439774, -0.005024426, -1293877.9, 429721.25, 0.004371989, 10.00364, 9.998311 
1.2750292e+3, 1.3411956e+2, -1214868.9, -1586619.9, -96471.914, -0.11445911, -0.11499508, -1191324.9, 434299.06, 0.0024458813, 10.00346, 9.9985485 
1.2750359e+3, 1.44119e+2, -1168625.4, -1498947.1, -17527.734, 0.17337495, -0.033726238, -1167697.9, 359931.16, 0.00093509414, 10.00305, 9.998664 
1.2750393e+3, 1.5411781e+2, -1169061.0, -1449717.9, -28522.459, 0.044118926, -0.019169936, -1166191.6, 263449.44, 0.00017466526, 10.0023775, 9.9986515 
1.2750436e+3, 1.6411652e+2, -1108351.0, -1337729.9, -20643.031, -0.01508671, -0.026029773, -1106508.0, 225145.47, 0.0000047674703, 10.001984, 9.998938 
1.275049e+3, 1.7411509e+2, -1005457.9, -1229930.0, -16219.484, 0.010863968, -0.069105454, -1004291.94, 229374.05, 0.0, 10.001986, 9.999004 
1.2750539e+3, 1.8411401e+2, -929566.06, -1134792.4, -45214.582, 0.032483704, -0.08059886, -920046.2, 215629.83, 0.0, 10.001799, 9.999075 
1.2750585e+3, 1.9411337e+2, -892357.94, -1061467.6, -46406.223, 0.05077913, -0.05681885, -880460.44, 157222.2, 0.0, 10.001362, 9.999116 
1.2750627e+3, 2.0411253e+2, -838475.56, -964870.3, -57898.066, 0.056332126, -0.06037333, -815963.56, 123726.7, 0.0, 10.000972, 9.999295 
1.2750666e+3, 2.1411139e+2, -784689.6, -882263.9, -64118.227, 0.044788584, -0.11107183, -752907.94, 88791.414, 0.0, 10.000643, 9.999348 
1.2750706e+3, 2.2411066e+2, -740348.6, -809088.56, -69275.49, 0.034297492, -0.1190189, -697385.6, 46319.867, 0.0, 10.00027, 9.999357 
1.2750745e+3, 2.3411049e+2, -701828.8, -735564.5, -64001.81, 0.02650937, -0.07727529, -652509.4, -6801.7944, 0.0, 9.999844, 9.999394 
1.2750784e+3, 2.4410981e+2, -653758.9, -674679.4, -60034.32, 0.02115552, -0.07822637, -603280.3, -55566.555, 0.0, 9.999557, 9.999278 
1.2750824e+3, 2.5410846e+2, -565167.2, -577396.2, -63205.742, 0.017933108, -0.14706784, -507780.88, -58055.305, 0.0, 9.9994755, 9.999311 
1.2750866e+3, 2.6410767e+2, -492505.66, -465136.3, -65340.867, 0.023666397, -0.16718447, -412062.47, -60330.75, 0.0, 9.999188, 9.999548 
1.2750907e+3, 2.741076e+2, -477522.0, -400531.34, -58172.86, 0.04320209, -0.1336248, -369270.16, -115539.37, 0.0, 9.9985895, 9.999607 
1.2750949e+3, 2.84107e+2, -452515.06, -371551.03, -27141.521, 0.043423846, -0.13994537, -363294.4, -207558.14, 0.0, 9.998233, 9.999305 
1.2750995e+3, 2.941058e+2, -358495.22, -278659.0, -29359.365, 0.013762922, -0.19256817, -269024.84, -211275.64, 0.0, 9.998219, 9.999275 
1.2751037e+3, 3.0410597e+2, -332493.44, -199266.58, -37044.047, -0.033717528, -0.11724606, -189659.22, -189659.22, 0.0, 9.997885, 9.999647 
1.2751085e+3, 3.141048e+2, -319007.56, 16464.064, -25505.285, -0.024932783, -0.21091211, 18392.102, 18392.102, 0.0, 9.997073, 10.00152 
1.2850316e+3, 1.2411754e+2, -1314045.0, -1718437.9, 108846.84, 0.03527994, 0.013746094, -1286609.0, 437035.3, 0.0047024405, 10.0036335, 9.998216 
1.2850325e+3, 1.3411474e+2, -1234569.8, -1599470.5, -70781.164, -0.12902725, -0.109425776, -1221321.0, 404349.94, 0.0026428394, 10.00334, 9.998517 
1.285039e+3, 1.44114e+2, -1161706.5, -1506449.0, -5451.0728, 0.18487652, -0.042729106, -1161620.4, 366057.7, 0.001020959, 10.003144, 9.998566 
1.285042e+3, 1.5411273e+2, -1067496.8, -1412145.6, -4939.566, 0.039931227, -0.024936566, -1067426.0, 362264.53, 0.00019628371, 10.003126, 9.9985485 
1.2850459e+3, 1.6411139e+2, -998293.5, -1293953.4, 5724.515, -0.021426575, -0.02745649, -998182.7, 333520.66, 0.0000059623408, 10.00278, 9.998855 
1.285051e+3, 1.7410995e+2, -1014153.25, -1243513.6, -106.07337, 0.020834649, -0.064832784, -1014153.25, 219563.23, 0.0, 10.001967, 9.9989195 
1.2850557e+3, 1.8410884e+2, -982987.2, -1164058.9, -30477.176, 0.047551397, -0.07329123, -977995.06, 157731.97, 0.0, 10.001448, 9.9990425 
1.2850599e+3, 1.9410817e+2, -897683.1, -1067106.9, -35832.605, 0.055367425, -0.050513867, -890416.3, 147317.72, 0.0, 10.001339, 9.999088 
1.2850638e+3, 2.0410728e+2, -818220.1, -955676.3, -47270.137, 0.053191517, -0.055629894, -803533.5, 136208.44, 0.0, 10.001115, 9.999289 
1.2850672e+3, 2.1410611e+2, -772728.7, -876287.4, -43117.215, 0.03615277, -0.10933531, -757127.06, 84623.99, 0.0, 10.000726, 9.999348 
1.285071e+3, 2.2410536e+2, -725498.9, -800611.4, -44903.637, 0.030668393, -0.11974507, -704516.2, 39241.02, 0.0, 10.000367, 9.999369 
1.2850747e+3, 2.3410518e+2, -671064.44, -718935.6, -49743.582, 0.04200121, -0.08011575, -639797.4, 5961.911, 0.0, 10.000048, 9.99941 
1.2850782e+3, 2.4410449e+2, -631167.6, -660210.9, -41568.402, 0.03710453, -0.08477715, -601657.3, -53891.793, 0.0, 9.999697, 9.9993105 
1.2850817e+3, 2.541031e+2, -589227.44, -585501.2, -35119.223, 0.0087944735, -0.15849753, -552195.7, -102418.34, 0.0, 9.999295, 9.999343 
1.2850854e+3, 2.641024e+2, -523044.84, -484385.75, -42879.926, 0.0076326593, -0.17270033, -456680.0, -104896.805, 0.0, 9.998998, 9.999508 
1.2850894e+3, 2.7410245e+2, -442288.1, -388754.75, -55569.15, 0.045523427, -0.12097732, -353841.72, -100060.13, 0.0, 9.998853, 9.99956 
1.2850936e+3, 2.841019e+2, -397973.6, -333254.28, -23918.086, 0.05464007, -0.12739128, -325374.38, -169587.38, 0.0, 9.998555, 9.999412 
1.2850976e+3, 2.9410058e+2, -378885.38, -274796.9, -9504.282, 0.021879658, -0.20178011, -273936.2, -216135.88, 0.0, 9.998018, 9.999398 
1.2851015e+3, 3.0410102e+2, -380985.5, -213389.92, -11177.77, -0.027236138, -0.1103892, -212647.7, -212647.7, 0.0, 9.997513, 9.999728 
1.2851056e+3, 3.140999e+2, -327586.34, -8460.259, 11513.367, -0.016817134, -0.20569506, -8045.4214, -8045.4214, 0.0, 9.997104, 10.001334 
1.2950356e+3, 1.2411323e+2, -1341971.5, -1777856.5, 81106.195, 0.06517481, -0.016818669, -1327369.1, 396315.4, 0.0050440202, 10.003638, 9.997806 
1.2950353e+3, 1.341106e+2, -1260279.4, -1652272.1, -81870.58, -0.16410756, -0.08945481, -1243867.3, 381844.38, 0.0028473313, 10.003338, 9.998156 
1.2950419e+3, 1.4410962e+2, -1161576.6, -1505206.8, -8741.554, 0.1566482, -0.025159104, -1161354.4, 366366.94, 0.0011110725, 10.0031395, 9.998577 
1.2950452e+3, 1.5410791e+2, -1062688.1, -1402722.4, -5475.5454, 0.04204814, -0.057367347, -1062599.9, 367136.66, 0.000219555, 10.003128, 9.998612 
1.2950489e+3, 1.641064e+2, -1010718.94, -1319797.8, -23487.373, 0.0019492828, -0.072513305, -1008944.3, 322806.44, 0.0000074533, 10.00278, 9.998678 
1.2950534e+3, 1.7410518e+2, -1028153.7, -1273540.6, -31161.621, 0.051025975, -0.06724565, -1024258.3, 209504.67, 0.0, 10.00197, 9.998713 
1.2950574e+3, 1.8410411e+2, -989125.94, -1177600.8, -37852.195, 0.06617858, -0.055745874, -981808.06, 153965.8, 0.0, 10.001451, 9.998949 
1.295061e+3, 1.9410323e+2, -903580.94, -1079414.5, -40112.188, 0.04112454, -0.045795836, -894862.56, 142920.38, 0.0, 10.001338, 9.999004 
1.2950645e+3, 2.0410234e+2, -809608.0, -936985.7, -62252.754, 0.023124447, -0.05223358, -784236.94, 155553.86, 0.0, 10.00111, 9.99942 
1.2950678e+3, 2.1410146e+2, -762008.44, -854113.4, -58294.816, 0.013168744, -0.09099232, -733770.1, 108026.49, 0.0, 10.000725, 9.999501 
1.2950711e+3, 2.2410071e+2, -731471.3, -812859.3, -58200.055, 0.017530968, -0.10783447, -701149.5, 42653.207, 0.0, 10.000366, 9.999286 
1.2950745e+3, 2.3410006e+2, -678768.56, -734596.44, -61518.05, 0.043615405, -0.10459731, -639127.7, 6681.5933, 0.0, 10.000045, 9.999305 
1.295078e+3, 2.4409933e+2, -621394.5, -639049.4, -56652.336, 0.044419937, -0.113631174, -572886.0, -25070.285, 0.0, 9.999692, 9.999458 
1.2950811e+3, 2.5409853e+2, -577519.56, -561140.2, -49607.586, 0.010026219, -0.1457101, -519050.84, -69229.07, 0.0, 9.999294, 9.999512 
1.2950844e+3, 2.6409793e+2, -540578.8, -521224.06, -48882.918, -0.001056305, -0.14311576, -481069.8, -129243.016, 0.0, 9.998998, 9.999255 
1.2950881e+3, 2.7409756e+2, -464002.53, -431397.38, -59245.586, 0.021106213, -0.11056973, -386252.3, -132420.98, 0.0, 9.998841, 9.999273 
1.2950918e+3, 2.8409687e+2, -378932.3, -291257.88, -41480.164, 0.035332005, -0.12483683, -274743.56, -118905.336, 0.0, 9.998544, 9.999706 
1.2950958e+3, 2.9409608e+2, -354690.7, -222766.84, -27814.754, 0.03325989, -0.18661603, -217142.2, -159296.23, 0.0, 9.998012, 9.999759 
1.2950993e+3, 3.0409703e+2, -363393.53, -178073.78, -27085.057, 0.0022847147, -0.07541769, -174196.34, -174196.34, 0.0, 9.997516, 9.99997 
1.295103e+3, 3.1409606e+2, -336147.03, -21709.902, 1427.3475, 0.014418044, -0.17640944, -21703.424, -21703.424, 0.0, 9.997085, 10.001253 
1.3050395e+3, 1.2410865e+2, -1320943.3, -1776767.1, 39691.05, 0.08661488, -0.04487445, -1317513.0, 406215.97, 0.005394454, 10.003826, 9.997723 
1.3050388e+3, 1.3410641e+2, -1200505.6, -1628509.6, -85903.375, -0.18231243, -0.07200321, -1183907.9, 441844.88, 0.003057975, 10.003774, 9.998108 
1.3050452e+3, 1.441054e+2, -1119813.9, -1489133.5, -6333.988, 0.1483387, -0.0068975794, -1119705.4, 408057.5, 0.0012046372, 10.003446, 9.99854 
1.3050482e+3, 1.5410334e+2, -1121302.5, -1435034.9, -11476.016, 0.043901365, -0.07173994, -1120883.4, 308897.94, 0.000244213, 10.002743, 9.998576 
1.3050514e+3, 1.6410172e+2, -1075458.0, -1353275.9, -28807.42, 0.008264027, -0.095267154, -1072502.4, 259294.1, 0.000009295233, 10.002346, 9.998656 
1.3050555e+3, 1.7410073e+2, -968345.2, -1246465.0, -23201.613, 0.0556779, -0.064341255, -966422.94, 267383.66, 0.0, 10.00239, 9.998695 
1.3050592e+3, 1.8409973e+2, -885900.56, -1128279.0, -17903.744, 0.065649465, -0.04492181, -884585.2, 251231.67, 0.0, 10.002162, 9.998944 
1.3050623e+3, 1.9409868e+2, -873466.8, -1064623.4, -15001.502, 0.027399953, -0.05231253, -872296.7, 165530.81, 0.0, 10.001546, 9.999005 
1.3050655e+3, 2.0409775e+2, -822557.9, -942936.7, -37904.707, 0.007847447, -0.06340152, -811616.9, 128218.85, 0.0, 10.001021, 9.999421 
1.3050684e+3, 2.1409701e+2, -776425.0, -860846.94, -46034.727, 0.012615906, -0.0879793, -756178.3, 85662.23, 0.0, 10.000626, 9.999503 
1.3050714e+3, 2.2409628e+2, -745180.6, -818436.9, -45865.15, 0.022505026, -0.10058222, -723112.6, 20733.586, 0.0, 10.000267, 9.999295 
1.3050745e+3, 2.3409554e+2, -690267.75, -738645.9, -41933.33, 0.040234473, -0.107417054, -666046.94, -20193.479, 0.0, 9.999961, 9.999317 
1.3050777e+3, 2.4409483e+2, -630097.94, -646307.25, -39597.348, 0.042924274, -0.115283184, -597784.4, -49924.41, 0.0, 9.999646, 9.999431 
1.3050805e+3, 2.5409415e+2, -576557.0, -564214.1, -48271.887, 0.024679573, -0.13086584, -521720.78, -71855.52, 0.0, 9.999316, 9.99948 
1.3050833e+3, 2.6409364e+2, -544807.56, -518785.56, -42995.68, 0.010289155, -0.123361185, -486875.34, -135005.23, 0.0, 9.998951, 9.999294 
1.3050866e+3, 2.7409318e+2, -505508.47, -446549.84, -30307.943, 0.0026108227, -0.10258957, -433749.13, -179873.77, 0.0, 9.998536, 9.999317 
1.30509e+3, 2.8409252e+2, -435618.16, -306027.38, -11192.699, 0.013780391, -0.120468765, -305067.78, -149185.8, 0.0, 9.998102, 9.999818 
1.3050938e+3, 2.9409188e+2, -398491.16, -230551.17, -17053.459, 0.046751548, -0.17578332, -228836.97, -170948.7, 0.0, 9.997653, 9.999879 
1.3050969e+3, 3.0409318e+2, -369923.03, -150508.95, -16800.215, 0.022931557, -0.05096826, -149230.05, -149230.05, 0.0, 9.997341, 10.000244 
1.3051e+3, 3.140928e+2, -316122.38, -16731.53, 17027.535, -0.002792576, -0.12450959, -15766.22, -15766.22, 0.0, 9.997239, 10.001215 
1.3150434e+3, 1.2410392e+2, -1305450.0, -1742930.8, 20242.764, 0.09136108, -0.064613625, -1304515.4, 419261.16, 0.0057492945, 10.0038185, 9.997959 
1.3150427e+3, 1.3410228e+2, -1181399.9, -1590001.3, -87062.3, -0.18585728, -0.057908844, -1163622.6, 462171.0, 0.0032719178, 10.003779, 9.998371 
1.3150486e+3, 1.4410141e+2, -1125240.9, -1501586.5, -32044.486, 0.15527795, 0.010371583, -1122531.9, 405270.22, 0.0013003697, 10.00345, 9.998453 
1.3150507e+3, 1.5409906e+2, -1131406.3, -1455817.5, -38165.67, 0.042776227, -0.06892863, -1126976.8, 302847.22, 0.00026992275, 10.002742, 9.998434 
1.3150537e+3, 1.6409737e+2, -1066606.1, -1334826.4, -30653.875, -0.0048261997, -0.09628146, -1063147.5, 268692.3, 0.00001153221, 10.002344, 9.998784 
1.3150577e+3, 1.7409664e+2, -956813.75, -1222556.9, -21571.281, 0.03336863, -0.05528368, -955074.1, 278772.56, 0.0, 10.002389, 9.99886 
1.3150612e+3, 1.8409574e+2, -880371.7, -1115805.0, -40063.836, 0.04260337, -0.04018081, -873740.75, 262114.8, 0.0, 10.002157, 9.999033 
1.3150638e+3, 1.9409452e+2, -867857.44, -1053192.8, -38783.15, 0.012745764, -0.071258105, -860069.0, 177798.28, 0.0, 10.001546, 9.999084 
1.3150665e+3, 2.040935e+2, -831191.44, -961134.2, -54721.72, 0.0057020183, -0.08990344, -811217.25, 128659.28, 0.0, 10.001022, 9.999296 
1.3150692e+3, 2.1409279e+2, -786924.2, -882766.06, -61012.35, 0.031760637, -0.09951685, -757263.4, 84618.88, 0.0, 10.000625, 9.999353 
1.3150719e+3, 2.2409216e+2, -739004.5, -805027.1, -58680.61, 0.041792456, -0.09706889, -704687.06, 39200.27, 0.0, 10.000264, 9.999389 
1.3150744e+3, 2.3409168e+2, -682144.75, -721994.2, -53504.918, 0.030468157, -0.089456804, -644975.06, 916.6181, 0.0, 9.999961, 9.999432 
1.3150771e+3, 2.44091e+2, -643541.9, -674298.94, -52305.723, 0.031379886, -0.09150414, -604400.75, -56502.574, 0.0, 9.999645, 9.999239 
1.3150801e+3, 2.5409007e+2, -592623.56, -596483.1, -59615.46, 0.049712874, -0.11378724, -534906.6, -84999.164, 0.0, 9.9993105, 9.999262 
1.3150826e+3, 2.6408947e+2, -524052.66, -474935.38, -57452.082, 0.038718116, -0.11286945, -437013.06, -85100.23, 0.0, 9.998946, 9.9995985 
1.3150848e+3, 2.7408934e+2, -480963.28, -395409.88, -44292.22, -0.013080236, -0.09558146, -376610.22, -122696.74, 0.0, 9.998534, 9.999669 
1.3150878e+3, 2.8408888e+2, -439546.63, -315522.47, -27829.17, -0.013219013, -0.11306993, -309564.25, -153645.98, 0.0, 9.998106, 9.999751 
1.3150916e+3, 2.9408813e+2, -408051.03, -246648.17, -32132.824, 0.057298977, -0.16695103, -240486.27, -182559.33, 0.0, 9.997637, 9.999777 
1.3150944e+3, 3.0408958e+2, -351672.53, -109941.5, -20422.57, 0.03052851, -0.035541218, -108228.25, -108228.25, 0.0, 9.997328, 10.00053 
1.3150966e+3, 3.1409013e+2, -316660.78, -14705.541, 19301.568, -0.07186789, -0.042593718, -13476.748, -13476.748, 0.0, 9.997227, 10.001234 
1.3250473e+3, 1.2410007e+2, -1292704.0, -1728352.6, 47576.586, 0.08889774, -0.05854849, -1287568.8, 436246.6, 0.0061042784, 10.003869, 9.998037 
1.3250464e+3, 1.3409844e+2, -1205855.4, -1591081.3, -57288.434, -0.1767461, -0.058921, -1197516.3, 428315.63, 0.0034863173, 10.003567, 9.998465 
1.3250522e+3, 1.440976e+2, -1148224.6, -1513945.1, -16808.691, 0.17482361, 0.007288294, -1147453.8, 380386.25, 0.0013970502, 10.0033, 9.998441 
1.3250537e+3, 1.5409538e+2, -1081054.0, -1434630.5, -15550.286, 0.036416966, -0.055869803, -1080371.4, 349489.22, 0.00029637254, 10.003101, 9.998406 
1.325056e+3, 1.6409372e+2, -1008431.3, -1297607.3, 1143.2559, -0.02412233, -0.08277816, -1008426.75, 323449.22, 0.000014169166, 10.002705, 9.998866 
1.3250598e+3, 1.7409289e+2, -1004192.6, -1235113.8, 3805.6902, 0.023777928, -0.061010104, -1004129.94, 229753.38, 0.0, 10.00202, 9.998953 
1.325063e+3, 1.8409196e+2, -970388.44, -1158395.6, -22442.408, 0.040702738, -0.054221522, -967746.6, 168145.58, 0.0, 10.001535, 9.99904 
1.3250652e+3, 1.940908e+2, -897290.8, -1067365.1, -27776.621, 0.012258918, -0.07885273, -892869.25, 145034.25, 0.0, 10.001343, 9.999084 
1.3250676e+3, 2.040899e+2, -816110.56, -951941.44, -39458.61, 0.009623883, -0.08936015, -805479.94, 134432.25, 0.0, 10.001117, 9.999314 
1.3250701e+3, 2.1408929e+2, -754979.8, -864500.8, -34725.266, 0.044071123, -0.08790062, -744897.75, 97019.195, 0.0, 10.000834, 9.999377 
1.3250723e+3, 2.2408868e+2, -711259.44, -799629.4, -31474.959, 0.051000804, -0.08288515, -701195.1, 42727.035, 0.0, 10.00049, 9.999316 
1.3250743e+3, 2.3408803e+2, -673937.75, -726901.3, -41618.055, 0.019788835, -0.08429285, -651090.56, -5162.289, 0.0, 10.000056, 9.999352 
1.3250767e+3, 2.440873e+2, -642876.6, -673314.9, -40762.086, 0.014042296, -0.08722637, -614585.2, -66649.7, 0.0, 9.999648, 9.999245 
1.3250792e+3, 2.5408646e+2, -596122.4, -595919.94, -32769.62, 0.043911256, -0.09980907, -563251.4, -113307.414, 0.0, 9.999279, 9.99928 
1.3250817e+3, 2.6408598e+2, -525212.75, -464451.34, -29947.629, 0.04130965, -0.096691534, -452172.38, -100223.68, 0.0, 9.998893, 9.999696 
1.3250835e+3, 2.7408582e+2, -481304.72, -383882.66, -35863.234, -0.006244477, -0.08793302, -372104.53, -118155.67, 0.0, 9.998483, 9.999774 
1.3250859e+3, 2.8408545e+2, -446625.44, -324604.34, -28716.66, -0.011494286, -0.09988984, -318183.94, -162231.11, 0.0, 9.998084, 9.999699 
1.325089e+3, 2.9408488e+2, -402108.44, -250227.73, -32610.576, 0.042539023, -0.13157761, -243521.94, -185561.45, 0.0, 9.997706, 9.999719 
1.3250914e+3, 3.040861e+2, -348916.4, -80879.92, -16763.652, 0.018302824, -0.02845148, -79835.555, -79835.555, 0.0, 9.99723, 10.000775 
1.3250935e+3, 3.140868e+2, -403630.9, -55115.74, 20825.428, -0.070268594, -0.049687367, -53875.73, -53875.73, 0.0, 9.996624, 10.001246 
1.3350509e+3, 1.2409713e+2, -1298720.8, -1741621.0, 18411.387, 0.06983225, -0.027735176, -1297956.8, 425888.34, 0.006456727, 10.003873, 9.997945 
1.3350502e+3, 1.3409497e+2, -1212809.5, -1603647.9, -68587.04, -0.15582214, -0.07353536, -1201122.8, 424744.1, 0.0036994694, 10.00356, 9.998382 
1.3350558e+3, 1.4409404e+2, -1144077.9, -1504186.1, -25908.027, 0.20429026, -0.0146361785, -1142223.5, 385652.22, 0.0014937172, 10.003294, 9.99851 
1.3350566e+3, 1.5409236e+2, -1073755.3, -1420448.3, -22616.656, 0.022033367, -0.033302646, -1072286.1, 357604.6, 0.00032323142, 10.003105, 9.998503 
1.3350585e+3, 1.6409081e+2, -1006580.25, -1294392.4, -23913.002, -0.05383541, -0.055607285, -1004606.94, 327297.72, 0.000017128494, 10.002707, 9.998888 
1.335062e+3, 1.7408952e+2, -1003123.5, -1233634.4, -22560.389, 0.024771163, -0.081917286, -1000936.2, 232979.84, 0.00000000003443261, 10.002022, 9.998961 
1.3350648e+3, 1.8408842e+2, -974946.25, -1168498.6, -32599.947, 0.057421234, -0.087340064, -969602.94, 166323.52, 0.0, 10.001537, 9.99897 
1.3350667e+3, 1.9408756e+2, -902533.5, -1078714.6, -35255.62, 0.02395053, -0.07508559, -895740.4, 142195.4, 0.0, 10.001344, 9.999007 
1.3350688e+3, 2.0408691e+2, -805978.2, -930129.5, -51019.605, 0.016528115, -0.061494548, -787702.2, 152240.0, 0.0, 10.001113, 9.999466 
1.335071e+3, 2.1408653e+2, -743084.94, -839473.44, -46037.41, 0.047794074, -0.05476957, -724629.9, 117314.47, 0.0, 10.000832, 9.999551 
1.3350728e+3, 2.2408582e+2, -727243.0, -832369.8, -48507.85, 0.048828233, -0.059875213, -708280.75, 35669.918, 0.0, 10.000488, 9.999093 
1.3350743e+3, 2.340846e+2, -693035.94, -765909.44, -57572.082, 0.006870046, -0.0915875, -661339.1, -15376.274, 0.0, 10.000052, 9.999087 
1.3350761e+3, 2.4408375e+2, -630820.5, -647267.44, -54850.31, -0.01079048, -0.10147149, -583580.6, -35609.21, 0.0, 9.999643, 9.999426 
1.3350782e+3, 2.540834e+2, -581084.3, -564153.94, -45913.434, 0.0059893727, -0.08764423, -525931.8, -75957.18, 0.0, 9.999276, 9.999499 
1.3350803e+3, 2.6408306e+2, -531700.9, -478023.03, -44996.586, 0.016719613, -0.07463539, -452469.0, -100491.27, 0.0, 9.998892, 9.999603 
1.3350822e+3, 2.7408266e+2, -491434.7, -402352.2, -49520.035, 0.018676126, -0.079511106, -380288.94, -126307.625, 0.0, 9.998471, 9.999653 
1.3350843e+3, 2.840823e+2, -452096.0, -334290.84, -41764.52, 0.014323182, -0.080721304, -320986.84, -165001.34, 0.0, 9.9980755, 9.999638 
1.3350864e+3, 2.9408213e+2, -405740.66, -257459.72, -44581.473, 0.0011542643, -0.06722723, -245088.25, -187099.48, 0.0, 9.9977045, 9.99967 
1.3350883e+3, 3.040828e+2, -332963.53, -48810.277, -37742.89, -0.016587378, -0.027191848, -43882.504, -43882.504, 0.0, 9.997233, 10.000995 
1.3350908e+3, 3.140828e+2, -403702.72, -50494.7, 3067.2432, -0.008279259, -0.14006865, -50468.066, -50468.066, 0.0, 9.996604, 10.001287 
1.3450551e+3, 1.2409476e+2, -1312592.8, -1759852.1, 50552.203, 0.095454946, -0.0074582696, -1306950.3, 416918.38, 0.006805251, 10.00383, 9.99784 
1.3450538e+3, 1.3409236e+2, -1185253.3, -1601940.6, -23459.727, -0.15965195, -0.06589054, -1183936.6, 441956.13, 0.0039105653, 10.003802, 9.998276 
1.3450591e+3, 1.4409132e+2, -1103244.1, -1483217.1, 11162.076, 0.19157319, -0.012595408, -1102916.5, 424986.06, 0.0015897165, 10.00357, 9.998522 
1.3450597e+3, 1.5408967e+2, -1082864.4, -1423075.6, 6095.5703, 0.023685921, -0.030121105, -1082755.1, 347162.03, 0.0003501717, 10.003036, 9.998518 
1.3450612e+3, 1.6408809e+2, -1034145.5, -1322131.9, -7904.751, -0.046777632, -0.05087403, -1033928.7, 298002.84, 0.000020254476, 10.00258, 9.998759 
1.3450639e+3, 1.7408669e+2, -979665.25, -1237981.0, -18232.535, 0.025418168, -0.07459178, -978384.7, 255559.88, 0.0000000014653116, 10.002251, 9.998822 
1.3450664e+3, 1.8408558e+2, -923897.9, -1136933.8, -23374.426, 0.057248186, -0.077763245, -921363.3, 214592.0, 0.0, 10.001859, 9.999032 
1.345068e+3, 1.9408482e+2, -893621.94, -1064907.3, -15262.7705, 0.029838694, -0.0627372, -892272.56, 145690.52, 0.0, 10.001365, 9.999091 
1.3450699e+3, 2.0408416e+2, -836225.44, -955736.4, -30049.354, 0.020271696, -0.049815994, -829095.3, 110874.19, 0.0, 10.000954, 9.999368 
1.3450716e+3, 2.1408361e+2, -776466.9, -868574.44, -46825.582, 0.036764406, -0.049359795, -756842.75, 85131.29, 0.0, 10.000658, 9.999435 
1.3450731e+3, 2.2408287e+2, -743638.3, -826545.06, -53410.426, 0.037417, -0.056204874, -717482.1, 26498.639, 0.0, 10.000317, 9.999215 
1.3450743e+3, 2.3408186e+2, -702949.3, -753332.44, -34805.26, 0.015154986, -0.082597494, -685175.5, -39185.098, 0.0, 9.999912, 9.999239 
1.3450757e+3, 2.440811e+2, -648449.6, -650901.3, -18673.309, -0.00048264826, -0.090910785, -630962.0, -82964.47, 0.0, 9.999504, 9.999466 
1.3450773e+3, 2.5408074e+2, -606124.44, -572798.4, -24455.309, -0.00612444, -0.082129195, -559868.9, -109867.984, 0.0, 9.999091, 9.999529 
1.3450788e+3, 2.6408035e+2, -565750.0, -502632.22, -30503.297, -0.00031104195, -0.07280724, -490300.16, -138295.42, 0.0, 9.998696, 9.999528 
1.3450806e+3, 2.740799e+2, -517744.4, -423813.9, -34612.063, 0.021419063, -0.07706927, -412437.66, -158427.89, 0.0, 9.998332, 9.999571 
1.3450822e+3, 2.8407958e+2, -461289.44, -330825.28, -18796.248, 0.018434709, -0.06870425, -328171.25, -172158.08, 0.0, 9.997982, 9.999704 
1.3450839e+3, 2.9407966e+2, -405905.3, -247482.58, -12136.782, -0.019469418, -0.040210832, -246558.17, -188544.94, 0.0, 9.997663, 9.999758 
1.3450855e+3, 3.040799e+2, -338374.34, -62045.6, -19634.154, -0.027098607, -0.046881653, -60657.496, -60657.496, 0.0, 9.997244, 10.000899 
1.3450877e+3, 3.1407985e+2, -411999.75, -77196.93, -6540.092, 0.023619609, -0.1472382, -77069.22, -77069.22, 0.0, 9.996647, 10.001084 
1.3550596e+3, 1.2409304e+2, -1322533.9, -1779301.6, 33777.85, 0.16037479, 0.0037207697, -1320049.5, 403835.66, 0.0071501774, 10.003823, 9.99771 
1.3550572e+3, 1.3409068e+2, -1193106.3, -1618273.1, -24026.87, -0.1913901, -0.038489126, -1191752.8, 434156.44, 0.0041195755, 10.003804, 9.998162 
1.3550621e+3, 1.4408952e+2, -1107994.5, -1493901.9, -8239.867, 0.1311946, 0.010679153, -1107818.6, 420101.66, 0.0016847543, 10.003572, 9.998447 
1.3550629e+3, 1.5408741e+2, -1088448.3, -1435023.8, -14550.815, 0.03946799, -0.044472855, -1087838.4, 342100.9, 0.00037697863, 10.0030365, 9.998436 
1.3550642e+3, 1.6408563e+2, -1052723.3, -1360750.4, -22478.375, -0.004979757, -0.06688714, -1051091.5, 280864.56, 0.000023370363, 10.002579, 9.998495 
1.3550663e+3, 1.7408445e+2, -998791.94, -1278257.6, -30747.307, 0.02350648, -0.040398676, -995449.06, 238519.42, 0.0000000068048798, 10.002253, 9.998546 
1.355068e+3, 1.8408345e+2, -911047.44, -1110357.1, -42416.875, 0.03645984, -0.026334845, -902395.9, 233582.53, 0.0, 10.001858, 9.999215 
1.3550694e+3, 1.9408262e+2, -877036.06, -1030992.3, -34319.84, 0.02821026, -0.042554382, -869732.0, 168253.03, 0.0, 10.001367, 9.999324 
1.3550708e+3, 2.0408167e+2, -859707.06, -1005094.8, -43106.406, 0.019599382, -0.055151943, -847887.25, 92106.57, 0.0, 10.000956, 9.999028 
1.355072e+3, 2.1408057e+2, -804309.7, -926294.2, -58097.25, 0.009902269, -0.07074484, -781068.06, 60937.355, 0.0, 10.000656, 9.999041 
1.3550733e+3, 2.2407988e+2, -712682.56, -761422.75, -69084.11, 0.015109804, -0.070763424, -663796.1, 80215.734, 0.0, 10.000312, 9.999665 
1.3550746e+3, 2.340798e+2, -666058.9, -676281.7, -50186.363, 0.04153487, -0.05763874, -620724.3, 25286.596, 0.0, 9.999909, 9.99977 
1.3550757e+3, 2.440794e+2, -654549.7, -663264.25, -34830.88, 0.041630764, -0.056883316, -623804.6, -75790.75, 0.0, 9.999502, 9.999383 
1.3550764e+3, 2.540785e+2, -616863.8, -594069.4, -39070.418, 0.004320791, -0.083595015, -564767.75, -114745.27, 0.0, 9.999086, 9.999386 
1.3550775e+3, 2.6407784e+2, -572474.7, -515447.28, -43685.156, -0.012168091, -0.09104037, -491793.72, -139764.2, 0.0, 9.998691, 9.999443 
1.3550787e+3, 2.7407748e+2, -523783.53, -435726.4, -46718.56, 0.000052147232, -0.078147486, -415558.88, -161524.77, 0.0, 9.998328, 9.999491 
1.35508e+3, 2.8407735e+2, -447087.25, -301431.5, -30263.85, -0.0022016983, -0.061623167, -295393.66, -139357.72, 0.0, 9.997981, 9.9999075 
1.3550813e+3, 2.9407743e+2, -392027.6, -215733.08, -21768.215, -0.025104344, -0.05049846, -213085.0, -155050.73, 0.0, 9.997649, 9.999983 
1.3550828e+3, 3.0407727e+2, -369296.56, -123697.71, -39531.28, -0.019052688, -0.088498965, -117491.63, -117491.63, 0.0, 9.9972315, 10.000483 
1.3550843e+3, 3.1407788e+2, -443754.34, -140849.56, -24529.85, 0.022384098, -0.07956713, -138875.94, -138875.94, 0.0, 9.996637, 10.000652 
1.3650636e+3, 1.2409104e+2, -1271953.1, -1750080.6, 352.21298, 0.16949712, 0.008975932, -1271952.9, 451952.78, 0.0074946806, 10.004152, 9.997753 
1.3650611e+3, 1.3408867e+2, -1198234.3, -1612314.5, -32097.088, -0.18485697, -0.040297464, -1195761.0, 430168.25, 0.004328098, 10.003734, 9.998237 
1.3650656e+3, 1.4408761e+2, -1140795.5, -1512065.1, -13794.461, 0.13134836, 0.015739338, -1140283.6, 387655.7, 0.0017791926, 10.003358, 9.998426 
1.365066e+3, 1.5408558e+2, -1087766.6, -1439007.5, -17513.223, 0.044629022, -0.029082507, -1086895.6, 343062.5, 0.00040358416, 10.003059, 9.998398 
1.3650669e+3, 1.6408378e+2, -1039189.9, -1356200.3, -14265.937, 0.00018713287, -0.05017662, -1038549.1, 293426.1, 0.000026350568, 10.002681, 9.998477 
1.3650686e+3, 1.7408249e+2, -1011111.8, -1286324.9, -4509.148, 0.026848251, -0.033396486, -1011037.94, 222950.7, 0.000000016360648, 10.002176, 9.998527 
1.3650699e+3, 1.840814e+2, -926551.44, -1121541.5, -10923.071, 0.037028633, -0.023293106, -925941.5, 210057.53, 0.0, 10.001767, 9.999183 
1.3650708e+3, 1.9408056e+2, -859032.6, -1026160.06, -22716.303, 0.020115284, -0.0372969, -856000.06, 182005.58, 0.0, 10.001506, 9.99929 
1.3650718e+3, 2.0407961e+2, -829629.44, -988465.25, -30228.178, 0.010226236, -0.04902656, -824071.2, 115943.11, 0.0, 10.001153, 9.999046 
1.3650726e+3, 2.1407855e+2, -800779.7, -921462.94, -15489.742, 0.011029291, -0.064454466, -798823.3, 43202.43, 0.0, 10.0006695, 9.999066 
1.3650736e+3, 2.2407785e+2, -723221.44, -767307.94, -23769.89, 0.02135311, -0.066769, -712846.9, 31185.416, 0.0, 10.000246, 9.999655 
1.3650745e+3, 2.3407768e+2, -668170.2, -679389.25, -45930.89, 0.044419263, -0.059975106, -627507.5, 18524.488, 0.0, 9.999905, 9.99975 
1.3650753e+3, 2.4407731e+2, -646625.2, -650864.2, -49004.555, 0.043900784, -0.056647856, -599694.3, -51659.88, 0.0, 9.999521, 9.999457 
1.3650756e+3, 2.540767e+2, -611584.8, -581300.9, -38638.168, 0.0100844195, -0.07002007, -554943.6, -104902.664, 0.0, 9.999082, 9.999474 
1.3650762e+3, 2.6407605e+2, -576715.9, -517280.34, -29214.418, -0.007881877, -0.07749927, -505325.25, -153277.8, 0.0, 9.998664, 9.999441 
1.365077e+3, 2.740755e+2, -532915.8, -441210.28, -28210.457, -0.004226168, -0.080446325, -433227.13, -179173.66, 0.0, 9.998274, 9.999478 
1.365078e+3, 2.8407535e+2, -470832.03, -310391.94, -17511.809, -0.009393035, -0.06504956, -308502.78, -152447.4, 0.0, 9.997809, 9.999928 
1.3650788e+3, 2.9407558e+2, -450318.38, -240082.14, -25768.875, -0.023829602, -0.043624345, -236969.7, -178917.14, 0.0, 9.997235, 10.000013 
1.36508e+3, 3.0407518e+2, -419911.4, -146935.5, -31551.545, -0.012638248, -0.10597963, -143336.11, -143336.11, 0.0, 9.9968815, 10.000491 
1.3650809e+3, 3.1407654e+2, -406812.84, -104775.88, 17714.9, 0.0032865535, -0.027122408, -103740.43, -103740.43, 0.0, 9.996811, 10.000815 
1.3750672e+3, 1.2408877e+2, -1258401.0, -1721493.5, -28935.56, 0.11660121, 0.0034467154, -1256600.0, 467329.75, 0.007843889, 10.00415, 9.9979515 
1.3750651e+3, 1.3408643e+2, -1180868.6, -1575703.1, -47824.965, -0.14088969, -0.068052225, -1175158.3, 450793.78, 0.0045391717, 10.003733, 9.998489 
1.3750695e+3, 1.4408569e+2, -1137728.1, -1506614.0, -26666.932, 0.1895862, 0.0055615134, -1135810.3, 392148.44, 0.0018741065, 10.003361, 9.998463 
1.375069e+3, 1.5408419e+2, -1086192.4, -1436447.4, -28525.637, 0.036221676, 0.0134296175, -1083884.4, 346088.75, 0.00043006166, 10.003061, 9.998415 
1.3750692e+3, 1.6408257e+2, -1024184.56, -1325355.1, -33279.555, -0.035179973, -0.0031062644, -1020551.0, 311437.63, 0.000029160963, 10.002681, 9.998689 
1.3750707e+3, 1.7408083e+2, -994533.2, -1252662.4, -23889.98, 0.03434264, -0.052087184, -992340.75, 241663.69, 0.000000027808229, 10.002178, 9.998757 
1.3750717e+3, 1.8407951e+2, -943717.44, -1157608.3, -22889.666, 0.056867957, -0.06741687, -941295.3, 194721.44, 0.0, 10.001768, 9.998935 
1.3750722e+3, 1.9407873e+2, -879723.06, -1069177.6, -32817.2, 0.0041284696, -0.046877835, -874199.5, 163824.81, 0.0, 10.001506, 9.998996 
1.3750727e+3, 2.0407806e+2, -804422.06, -935449.1, -48778.926, -0.009638863, -0.03134955, -788256.94, 151773.66, 0.0, 10.001149, 9.999413 
1.3750736e+3, 2.1407758e+2, -770850.3, -858819.6, -34171.688, 0.03688825, -0.031123605, -759136.2, 82898.66, 0.0, 10.000667, 9.999498 
1.3750741e+3, 2.2407678e+2, -755699.2, -834297.1, -38166.203, 0.052848347, -0.045696322, -740216.2, 3825.862, 0.0, 10.000243, 9.999197 
1.3750742e+3, 2.3407556e+2, -706800.25, -759175.06, -58393.664, 0.023313977, -0.088734865, -668990.8, -22937.498, 0.0, 9.999903, 9.999205 
1.3750744e+3, 2.4407497e+2, -632132.9, -619928.4, -65166.01, 0.006383441, -0.08938355, -560579.5, -12520.756, 0.0, 9.9995165, 9.999673 
1.3750745e+3, 2.5407523e+2, -592065.94, -539424.1, -54404.004, 0.008155423, -0.04019391, -505308.4, -55252.355, 0.0, 9.999075, 9.999764 
1.3750751e+3, 2.6407495e+2, -571494.06, -505951.66, -43813.797, 0.00908875, -0.032027353, -484009.06, -131950.44, 0.0, 9.998661, 9.999521 
1.3750753e+3, 2.74074e+2, -529514.44, -433202.28, -41257.04, 0.0043302043, -0.08596085, -417945.8, -163877.6, 0.0, 9.998268, 9.9995365 
1.3750759e+3, 2.8407368e+2, -483413.53, -335149.66, -37551.43, -0.007317754, -0.08056573, -326181.3, -170109.63, 0.0, 9.997803, 9.999762 
1.3750762e+3, 2.9407415e+2, -465022.22, -267601.7, -44889.887, -0.020711772, -0.015225089, -257873.86, -199806.0, 0.0, 9.997222, 9.999831 
1.3750768e+3, 3.0407366e+2, -391294.7, -86654.99, -33984.86, -0.013563495, -0.09564189, -82909.766, -82909.766, 0.0, 9.996876, 10.000908 
1.3750772e+3, 3.140756e+2, -356110.6, 2575.0476, 18056.271, -0.040442258, -0.0044416143, 3481.7104, 3481.7104, 0.0, 9.9968, 10.001558 
1.3850711e+3, 1.24087445e+2, -1258294.5, -1724666.4, 23819.625, 0.09152825, -0.0011633916, -1257081.1, 466862.34, 0.008202402, 10.004169, 9.997919 
1.3850692e+3, 1.3408521e+2, -1137181.0, -1550070.5, -1447.6365, -0.1317399, -0.06653846, -1137176.0, 488788.5, 0.0047558118, 10.004017, 9.998529 
1.385073e+3, 1.4408456e+2, -1089314.3, -1484101.0, 5264.5073, 0.1991316, 0.015693443, -1089244.1, 438725.9, 0.001970816, 10.003698, 9.998455 
1.385072e+3, 1.5408298e+2, -1074953.3, -1433262.6, -1320.0543, 0.033245463, 0.015029779, -1074948.4, 355037.28, 0.0004566524, 10.003148, 9.998396 
1.3850717e+3, 1.6408135e+2, -1022431.75, -1317935.3, -12046.044, -0.042660806, -0.00221603, -1021941.5, 310059.7, 0.00003186285, 10.002665, 9.998749 
1.385073e+3, 1.7407979e+2, -972396.7, -1234298.3, -15133.252, 0.03426871, -0.041158814, -971525.1, 262489.94, 0.000000039188958, 10.002298, 9.998825 
1.3850737e+3, 1.8407847e+2, -932219.94, -1151945.9, -11049.399, 0.06290474, -0.0589512, -931665.7, 204361.36, 0.0, 10.001847, 9.998935 
1.3850737e+3, 1.940775e+2, -913365.06, -1086078.9, -630.32935, 0.013654036, -0.056708086, -913362.75, 124673.5, 0.0, 10.001279, 9.998988 
1.3850738e+3, 2.040768e+2, -849067.75, -962866.06, -15549.978, 0.00015906019, -0.04187736, -846981.2, 93061.766, 0.0, 10.00087, 9.999358 
1.3850744e+3, 2.1407647e+2, -771921.0, -866251.3, -37461.336, 0.040690992, -0.019197298, -758854.06, 83192.03, 0.0, 10.000689, 9.999435 
1.3850744e+3, 2.240757e+2, -734870.25, -823281.44, -47943.97, 0.051266387, -0.028628713, -713862.7, 30190.521, 0.0, 10.000382, 9.999205 
1.385074e+3, 2.3407431e+2, -705627.8, -756111.7, -28591.299, 0.017149715, -0.09148128, -692730.3, -46664.527, 0.0, 9.999902, 9.999225 
1.3850737e+3, 2.4407363e+2, -652607.44, -639304.75, -24307.535, 0.00031753353, -0.09825928, -620755.0, -72682.89, 0.0, 9.99942, 9.999584 
1.3850737e+3, 2.5407392e+2, -619440.0, -563865.94, -43036.727, 0.008615082, -0.035647668, -540425.25, -90355.805, 0.0, 9.998938, 9.999661 
1.3850737e+3, 2.6407367e+2, -588588.25, -502412.38, -44534.043, 0.011795683, -0.024243142, -483533.78, -131461.89, 0.0, 9.998494, 9.999624 
1.3850737e+3, 2.740727e+2, -543095.8, -425723.53, -38745.035, 0.004149793, -0.08956919, -414087.28, -160006.42, 0.0, 9.998116, 9.9996605 
1.3850734e+3, 2.8407246e+2, -497912.7, -337829.53, -30028.207, -0.014432868, -0.08462518, -332382.22, -176298.9, 0.0, 9.997687, 9.999797 
1.385073e+3, 2.9407308e+2, -467315.16, -265083.78, -24333.814, -0.039486416, -0.008165148, -262197.0, -204118.75, 0.0, 9.997193, 9.999861 
1.3850735e+3, 3.040724e+2, -420227.66, -107401.62, -11524.269, -0.022434894, -0.10618263, -106977.65, -106977.65, 0.0, 9.996708, 10.000846 
1.385074e+3, 3.1407446e+2, -422387.7, 2656.574, 100.76698, -0.029548422, 0.000653891, 2656.598, 2656.598, 0.0, 9.996211, 10.001842 
1.3950753e+3, 1.2408711e+2, -1275008.0, -1761140.3, 9331.142, 0.09071223, -0.0061761425, -1274829.0, 449117.38, 0.008573605, 10.004174, 9.997668 
1.395073e+3, 1.3408503e+2, -1149640.3, -1574680.6, -6688.4263, -0.15996595, -0.037820783, -1149535.1, 476431.0, 0.004980517, 10.004012, 9.998362 
1.3950764e+3, 1.4408427e+2, -1094351.8, -1494033.5, -15162.6875, 0.15565525, 0.043346126, -1093777.4, 434195.53, 0.0020707455, 10.003696, 9.998388 
1.3950752e+3, 1.5408196e+2, -1079131.3, -1442506.0, -22450.854, 0.035133217, -0.021880379, -1077749.4, 352245.94, 0.0004838168, 10.003151, 9.998331 
1.3950747e+3, 1.640802e+2, -1027762.06, -1330649.5, -27696.547, -0.02438452, -0.044248834, -1025250.25, 306762.13, 0.000034571214, 10.00267, 9.998659 
1.3950752e+3, 1.7407937e+2, -978069.0, -1246878.8, -29057.648, 0.024397304, -0.002087675, -974963.8, 259056.44, 0.00000005013657, 10.0023, 9.998739 
1.3950755e+3, 1.8407832e+2, -915542.94, -1117229.1, -32710.62, 0.052072164, 0.00016403125, -910370.4, 225659.17, 0.0, 10.001846, 9.999174 
1.3950752e+3, 1.9407693e+2, -893856.4, -1046751.7, -22400.467, 0.046548534, -0.066589236, -890642.06, 147399.05, 0.0, 10.001283, 9.999257 
1.395075e+3, 2.0407587e+2, -881328.6, -1030383.56, -24508.488, 0.036159147, -0.08071925, -877402.2, 62648.934, 0.0, 10.000872, 9.998895 
1.3950749e+3, 2.1407531e+2, -809895.44, -945025.75, -44060.324, 0.02171704, -0.02779133, -796798.56, 45260.363, 0.0, 10.000688, 9.998896 
1.3950744e+3, 2.2407468e+2, -703362.94, -757374.2, -65604.45, 0.016224077, -0.01522832, -659423.1, 84642.125, 0.0, 10.00038, 9.99966 
1.395074e+3, 2.3407392e+2, -667003.56, -675426.1, -46655.715, 0.022918003, -0.06798253, -624369.44, 21699.904, 0.0, 9.999899, 9.999781 
1.3950734e+3, 2.4407329e+2, -679332.75, -694509.4, -42874.44, 0.021716142, -0.083576106, -643380.25, -95305.805, 0.0, 9.999417, 9.9992075 
1.3950726e+3, 2.5407276e+2, -652981.4, -632916.9, -60301.727, 0.008935313, -0.05679947, -581818.6, -131737.48, 0.0, 9.998934, 9.99919 
1.395072e+3, 2.640722e+2, -580913.25, -486158.66, -58154.137, -0.0015180983, -0.05422777, -458525.88, -106438.87, 0.0, 9.998492, 9.999738 
1.3950716e+3, 2.7407175e+2, -531811.8, -400390.9, -50806.453, -0.009159362, -0.08737818, -383040.16, -128949.25, 0.0, 9.998107, 9.999839 
1.3950709e+3, 2.8407177e+2, -482643.44, -306003.53, -47129.02, -0.035284933, -0.07373096, -294215.75, -138125.8, 0.0, 9.997685, 10.000017 
1.39507e+3, 2.9407236e+2, -453077.9, -235141.58, -40696.867, -0.08468646, -0.026016897, -227789.94, -169705.55, 0.0, 9.99719, 10.000069 
1.3950701e+3, 3.0407137e+2, -456331.53, -182374.16, -29365.234, -0.044162802, -0.13961549, -179261.89, -179261.89, 0.0, 9.996708, 10.000331 
1.3950707e+3, 3.14073e+2, -436214.97, -22063.95, -16673.107, 0.026101125, -0.019713324, -21393.799, -21393.799, 0.0, 9.996194, 10.00168 
1.4050798e+3, 1.2408748e+2, -1200242.6, -1742151.1, 21949.836, 0.0909136, 0.01991258, -1199355.1, 524587.6, 0.008961596, 10.004769, 9.997513 
1.4050771e+3, 1.3408504e+2, -1131519.5, -1574076.4, 17448.68, -0.15138495, -0.03968492, -1130832.6, 495133.1, 0.005216602, 10.004174, 9.998288 
1.4050801e+3, 1.4408411e+2, -1102606.1, -1508940.4, 11055.932, 0.15316325, 0.03302319, -1102305.6, 425668.5, 0.0021759311, 10.003688, 9.99829 
1.4050785e+3, 1.540817e+2, -1053724.1, -1441638.9, 343.06253, 0.03355653, -0.03138694, -1053723.9, 376273.66, 0.0005121799, 10.003375, 9.998228 
1.4050774e+3, 1.640799e+2, -991509.3, -1311273.9, -5358.156, -0.027000641, -0.051420633, -991419.56, 340595.4, 0.000037386584, 10.002913, 9.998673 
1.4050774e+3, 1.7407918e+2, -982813.75, -1246002.3, 63.71316, 0.021263229, -0.0039747385, -982813.75, 251208.44, 0.00000006103049, 10.002255, 9.998766 
1.4050773e+3, 1.8407819e+2, -921053.06, -1124150.0, -1404.3906, 0.052908037, 0.004699609, -921043.4, 214987.61, 0.0, 10.001827, 9.999136 
1.4050768e+3, 1.9407682e+2, -831273.25, -1021347.75, -14445.691, 0.05349495, -0.05420202, -830181.6, 207860.75, 0.0, 10.001734, 9.999213 
1.4050762e+3, 2.0407568e+2, -811663.44, -1000235.8, -19186.043, 0.04145795, -0.07283147, -809731.2, 130322.04, 0.0, 10.001365, 9.998863 
1.4050755e+3, 2.1407488e+2, -823308.56, -954308.1, -2297.6895, 0.014770019, -0.041965816, -823268.3, 18794.838, 0.0, 10.000609, 9.998869 
1.4050746e+3, 2.2407423e+2, -747095.5, -777966.5, -13748.655, 0.007317119, -0.027272953, -741860.25, 2209.202, 0.0, 10.000078, 9.999662 
1.4050739e+3, 2.3407386e+2, -672078.0, -677755.0, -35556.46, 0.025040844, -0.043599907, -639246.94, 6823.617, 0.0, 9.999863, 9.999782 
1.4050728e+3, 2.4407329e+2, -664192.7, -684965.7, -45929.043, 0.02807704, -0.05374689, -627490.4, -79415.3, 0.0, 9.999512, 9.999228 
1.4050715e+3, 2.5407237e+2, -646074.1, -627453.2, -29173.955, 0.009707886, -0.06803057, -606140.06, -156055.22, 0.0, 9.998971, 9.999209 
1.4050704e+3, 2.640717e+2, -590155.44, -488920.72, -9207.907, -0.0051195286, -0.07921833, -488090.03, -135998.38, 0.0, 9.998422, 9.999751 
1.4050695e+3, 2.740715e+2, -566560.4, -414984.6, -15366.775, -0.015874797, -0.08511327, -413442.4, -159349.36, 0.0, 9.997861, 9.999856 
1.4050683e+3, 2.840717e+2, -518679.06, -315179.13, -19712.676, -0.039609436, -0.061296526, -313287.2, -157196.48, 0.0, 9.997403, 10.00009 
1.4050671e+3, 2.940722e+2, -460990.7, -230914.44, -24064.236, -0.07669078, -0.029842706, -228424.45, -170338.86, 0.0, 9.9971, 10.000141 
1.4050668e+3, 3.0407113e+2, -469457.66, -214420.22, -10554.574, -0.032648347, -0.14589253, -213984.17, -213984.17, 0.0, 9.996729, 10.000101 
1.4050667e+3, 3.1407222e+2, -418781.4, 81.4235, 19453.426, 0.007687309, -0.052474953, 982.9669, 982.9669, 0.0, 9.996254, 10.001803 
1.4150845e+3, 1.24088585e+2, -1206602.5, -1753980.9, -7438.075, 0.0860327, 0.07226893, -1206501.4, 517430.97, 0.009372724, 10.004763, 9.997435 
1.4150818e+3, 1.3408531e+2, -1131557.5, -1573878.6, -5054.155, -0.107495464, -0.06883029, -1131499.8, 494462.88, 0.005469036, 10.004175, 9.998288 
1.4150842e+3, 1.4408419e+2, -1109243.1, -1525460.5, -3019.3677, 0.18870264, -0.010608242, -1109221.3, 418751.4, 0.0022892572, 10.003698, 9.998172 
1.4150818e+3, 1.5408225e+2, -1062973.0, -1461078.8, -11209.169, 0.024647715, -0.014599636, -1062657.6, 367334.34, 0.00054253166, 10.003375, 9.9980955 
1.4150801e+3, 1.6408053e+2, -984525.7, -1296633.4, -30188.71, -0.0545447, -0.025172483, -981632.5, 350376.1, 0.000040406845, 10.002912, 9.9987755 
1.4150797e+3, 1.7407924e+2, -972936.7, -1227563.3, -25110.617, 0.023703413, -0.045843057, -970484.0, 263536.4, 0.00000007226826, 10.002263, 9.998889 
1.4150792e+3, 1.8407811e+2, -941830.0, -1168911.6, -7808.761, 0.06250825, -0.043770548, -941561.8, 194469.08, 0.0, 10.001834, 9.998826 
1.4150783e+3, 1.9407721e+2, -856164.25, -1073249.6, -17960.264, 0.033725478, -0.020018509, -854688.4, 183351.39, 0.0, 10.001734, 9.9988575 
1.4150774e+3, 2.0407625e+2, -784847.9, -943667.9, -46394.273, 0.015357222, -0.019549107, -772288.44, 167760.52, 0.0, 10.00136, 9.999254 
1.4150761e+3, 2.1407518e+2, -790521.94, -886431.2, -31128.824, 0.01730776, -0.061464023, -781304.44, 60754.125, 0.0, 10.000609, 9.999335 
1.4150748e+3, 2.2407444e+2, -778099.6, -842041.75, -24401.223, 0.020191686, -0.0644536, -769851.7, -25786.008, 0.0, 10.000076, 9.999224 
1.4150737e+3, 2.3407416e+2, -709588.2, -755328.5, -43115.41, 0.022622436, -0.01874674, -683652.75, -37583.69, 0.0, 9.999861, 9.99925 
1.4150722e+3, 2.4407366e+2, -636557.25, -627237.4, -64981.813, 0.01864756, -0.010033838, -566748.6, -18674.95, 0.0, 9.999509, 9.999626 
1.4150706e+3, 2.540728e+2, -612187.4, -555995.25, -48684.406, 0.008036607, -0.06727284, -527881.3, -77801.01, 0.0, 9.998965, 9.999703 
1.4150688e+3, 2.6407218e+2, -596756.94, -502966.63, -29657.145, -0.0030385558, -0.09677609, -494375.75, -142290.16, 0.0, 9.998422, 9.999656 
1.4150673e+3, 2.74072e+2, -577726.6, -438317.84, -35017.96, -0.019765036, -0.08509096, -430016.1, -175928.52, 0.0, 9.99786, 9.999697 
1.415066e+3, 2.840722e+2, -522086.5, -322353.25, -31248.225, -0.03132618, -0.049740195, -317578.63, -161492.75, 0.0, 9.997403, 10.000041 
1.4150648e+3, 2.9407266e+2, -465506.38, -238302.72, -32708.295, -0.022296416, -0.015670637, -233687.77, -175606.55, 0.0, 9.997091, 10.000095 
1.415064e+3, 3.0407172e+2, -467973.16, -211568.97, -26007.992, 0.0056740437, -0.119241744, -208957.48, -208957.48, 0.0, 9.996728, 10.000121 
1.415062e+3, 3.1407207e+2, -395533.75, 49876.44, 1260.8701, -0.08922826, -0.10618531, 49880.01, 49880.01, 0.0, 9.996246, 10.00215 
1.4250892e+3, 1.2408939e+2, -1219446.1, -1779947.6, 11525.15, 0.08438471, 0.05148652, -1219209.3, 504713.9, 0.00981428, 10.004761, 9.997257 
1.4250861e+3, 1.3408607e+2, -1078416.4, -1558860.9, 10188.448, -0.10013067, -0.0832458, -1078200.4, 547754.06, 0.0057428833, 10.004589, 9.998192 
1.425088e+3, 1.4408499e+2, -1038516.9, -1486408.1, 8370.158, 0.18752412, -0.017194275, -1038360.5, 489603.63, 0.002413651, 10.004167, 9.998214 
1.4250852e+3, 1.5408312e+2, -1051894.4, -1450113.3, 11458.499, 0.03116488, -0.021790393, -1051565.0, 378417.72, 0.0005758784, 10.0034275, 9.998145 
1.4250831e+3, 1.640814e+2, -985828.2, -1310150.1, -451.11566, -0.045643013, -0.03100396, -985827.56, 346171.9, 0.00004378684, 10.002959, 9.998659 
1.4250822e+3, 1.7407997e+2, -892619.75, -1203385.9, -14571.231, 0.027764903, -0.049463943, -891938.06, 342074.78, 0.00000008454083, 10.002879, 9.998757 
1.4250813e+3, 1.8407875e+2, -862730.5, -1140054.5, -6092.5493, 0.059083346, -0.045541402, -862596.75, 273427.88, 0.0, 10.0024185, 9.998741 
1.4250799e+3, 1.9407782e+2, -905203.44, -1105319.3, 2596.556, 0.018748883, -0.01860271, -905169.75, 132864.52, 0.0, 10.001435, 9.99878 
1.4250782e+3, 2.0407686e+2, -856504.6, -970326.25, -19951.26, 0.0012369284, -0.015958231, -853108.75, 86934.51, 0.0, 10.000835, 9.999324 
1.4250767e+3, 2.1407588e+2, -759720.75, -862356.8, -33193.207, 0.019774461, -0.056874584, -749921.44, 92129.79, 0.0, 10.000781, 9.999418 
1.4250752e+3, 2.240751e+2, -736571.6, -832988.5, -34150.223, 0.02834113, -0.06366124, -725701.4, 18357.27, 0.0, 10.000407, 9.999126 
1.4250733e+3, 2.3407458e+2, -758635.3, -791628.4, -24281.111, 0.020641355, -0.029749796, -745776.94, -99711.86, 0.0, 9.999578, 9.999137 
1.4250715e+3, 2.4407409e+2, -700529.44, -641400.9, -32852.66, 0.012393581, -0.020468721, -626768.5, -78698.664, 0.0, 9.998998, 9.999775 
1.4250693e+3, 2.5407362e+2, -627563.9, -543193.25, -39974.7, 0.0053037205, -0.05814613, -527261.6, -77189.29, 0.0, 9.998774, 9.999884 
1.4250673e+3, 2.6407316e+2, -585908.2, -496692.84, -31911.074, -0.00036728109, -0.0823819, -486453.8, -134378.06, 0.0, 9.998492, 9.999665 
1.4250654e+3, 2.740728e+2, -537634.94, -420364.84, -27812.844, -0.009557768, -0.08922447, -414102.88, -160023.25, 0.0, 9.998138, 9.999687 
1.4250636e+3, 2.8407288e+2, -485828.88, -304067.25, -17062.611, -0.016958337, -0.06281231, -302479.4, -146400.4, 0.0, 9.997647, 10.000049 
1.425062e+3, 2.940735e+2, -484848.13, -247084.84, -17540.95, -0.0070281164, -0.017321207, -245797.73, -187724.17, 0.0, 9.996957, 10.000099 
1.4250605e+3, 3.0407295e+2, -527933.7, -234654.05, -8050.917, 0.015757838, -0.0814406, -234433.2, -234433.2, 0.0, 9.996292, 10.000173 
1.4250578e+3, 3.140727e+2, -457996.2, 49033.473, 17122.242, -0.105364546, -0.13515785, 49611.027, 49611.027, 0.0, 9.995691, 10.002412 
1.435094e+3, 1.24089964e+2, -1237437.9, -1818371.9, 1593.3379, 0.0846438, -0.042463455, -1237433.5, 486481.2, 0.010292526, 10.004764, 9.996993 
1.4350905e+3, 1.3408741e+2, -1091980.4, -1585243.6, 3856.2031, -0.13351928, -0.08333659, -1091950.3, 533990.2, 0.00604156, 10.004583, 9.998013 
1.4350918e+3, 1.440866e+2, -1026643.7, -1461419.6, -19018.74, 0.14430423, 0.01150707, -1025813.3, 502134.88, 0.0025511733, 10.004164, 9.998387 
1.4350888e+3, 1.5408434e+2, -1036103.44, -1418666.4, -16702.19, 0.051000886, -0.052254226, -1035375.7, 394593.72, 0.00061331474, 10.003433, 9.998359 
1.4350864e+3, 1.6408251e+2, -1008008.0, -1357866.0, -7089.864, -0.0031527686, -0.066350445, -1007864.4, 324122.66, 0.000047750204, 10.002965, 9.998329 
1.4350852e+3, 1.7408141e+2, -919939.8, -1259784.0, -17653.102, 0.03083181, -0.015954915, -919025.3, 314973.84, 0.00000010052836, 10.002877, 9.998371 
1.4350834e+3, 1.8408015e+2, -854195.56, -1121533.5, -41156.605, 0.03998401, -0.0019464702, -848002.94, 288009.0, 0.0, 10.002414, 9.998871 
1.4350812e+3, 1.9407864e+2, -891394.0, -1078356.1, -34696.414, 0.006188501, -0.04991511, -885162.75, 152863.0, 0.0, 10.001441, 9.998963 
1.4350791e+3, 2.0407754e+2, -873297.1, -1006115.3, -25711.188, -0.0046128007, -0.061090868, -868493.6, 71542.29, 0.0, 10.000838, 9.999077 
1.4350775e+3, 2.14077e+2, -780403.0, -905185.8, -34777.61, 0.02098025, -0.029114062, -771364.94, 70676.06, 0.0, 10.000779, 9.9991255 
1.4350756e+3, 2.2407624e+2, -721167.7, -800189.06, -63189.652, 0.030976385, -0.026648255, -686153.0, 57895.19, 0.0, 10.000402, 9.999355 
1.435073e+3, 2.3407519e+2, -739216.25, -751350.9, -55207.02, 0.017100189, -0.07457811, -689744.2, -43685.805, 0.0, 9.9995775, 9.999414 
1.4350705e+3, 2.4407464e+2, -706807.94, -654692.25, -43312.844, 0.0056934925, -0.08221919, -630202.94, -82139.586, 0.0, 9.998998, 9.999684 
1.4350681e+3, 2.5407484e+2, -636927.1, -562387.7, -47419.56, -0.00047873383, -0.042040136, -539344.5, -89283.66, 0.0, 9.998771, 9.999754 
1.4350659e+3, 2.6407462e+2, -577508.5, -478958.0, -44003.17, 0.0015061792, -0.038253352, -462170.2, -110108.055, 0.0, 9.998489, 9.999789 
1.4350638e+3, 2.740739e+2, -528245.1, -399369.03, -39034.94, 0.011671654, -0.094328515, -388467.94, -134399.39, 0.0, 9.998131, 9.999835 
1.4350614e+3, 2.8407383e+2, -483721.53, -299353.75, -40419.19, -0.00060196046, -0.096782744, -290881.88, -134812.36, 0.0, 9.997644, 10.000083 
1.4350586e+3, 2.940746e+2, -485173.16, -246551.81, -41545.313, -0.03522579, -0.037422042, -239525.44, -181462.39, 0.0, 9.99695, 10.000107 
1.4350566e+3, 3.0407473e+2, -519853.66, -217350.36, -30749.76, -0.005625592, -0.03489977, -214256.25, -214256.25, 0.0, 9.996288, 10.000294 
1.4350541e+3, 3.1407425e+2, -445797.84, 75528.766, -5850.0938, -0.04750673, -0.13023654, 75594.41, 75594.41, 0.0, 9.995686, 10.002597 
1.445099e+3, 1.2409153e+2, -1174280.3, -1786007.6, 2785.7573, 0.086701386, -0.056526594, -1174267.5, 549631.44, 0.010812885, 10.005201, 9.997003 
1.445095e+3, 1.3408914e+2, -1096828.3, -1578680.8, 22429.041, -0.14077038, -0.088721305, -1095786.5, 530136.5, 0.0063679107, 10.004515, 9.99809 
1.4450957e+3, 1.4408837e+2, -1054965.6, -1484464.1, 622.0819, 0.1290439, 0.011573115, -1054964.8, 472965.6, 0.0027034609, 10.004012, 9.998301 
1.4450927e+3, 1.5408602e+2, -992260.2, -1408519.0, -20765.092, 0.06377347, -0.049910747, -991226.9, 438725.78, 0.0006557931, 10.003784, 9.998258 
1.4450899e+3, 1.6408418e+2, -958093.7, -1334238.1, -11167.631, 0.016102754, -0.06324528, -957762.44, 374208.6, 0.000052490832, 10.003314, 9.998322 
1.445088e+3, 1.7408304e+2, -971827.5, -1284986.8, 4877.257, 0.026437571, -0.015030717, -971751.56, 262231.78, 0.00000012546444, 10.002523, 9.998367 
1.4450857e+3, 1.8408175e+2, -912462.2, -1150897.5, -10402.926, 0.0300786, -0.0028958295, -912009.2, 223987.16, 0.0, 10.002021, 9.998858 
1.4450829e+3, 1.9408023e+2, -821512.94, -1046351.0, -19922.098, 0.013161932, -0.050490502, -819761.4, 218248.73, 0.0, 10.00193, 9.998947 
1.4450803e+3, 2.0407908e+2, -787910.3, -972011.94, -12836.412, 0.006907537, -0.06296662, -787019.6, 153001.17, 0.0, 10.001455, 9.999013 
1.4450781e+3, 2.1407843e+2, -835069.7, -939003.75, -6490.754, 0.019825835, -0.034501858, -834665.94, 7361.207, 0.0, 10.000438, 9.999057 
1.4450756e+3, 2.2407769e+2, -800887.94, -827366.8, -26668.945, 0.023337051, -0.032467227, -784353.0, -40318.75, 0.0, 9.999808, 9.9994545 
1.4450724e+3, 2.3407678e+2, -709050.7, -723936.6, -31248.951, 0.010726954, -0.07656112, -684370.56, -38328.23, 0.0, 9.999729, 9.999529 
1.4450696e+3, 2.4407627e+2, -648524.06, -636427.5, -23657.676, 0.00084338983, -0.08424821, -618057.2, -70010.14, 0.0, 9.999439, 9.999597 
1.445067e+3, 2.5407627e+2, -633542.5, -573209.6, -27765.014, -0.0039634807, -0.050023563, -562377.2, -112330.26, 0.0, 9.998846, 9.999643 
1.4450642e+3, 2.640761e+2, -603632.1, -478353.38, -26179.406, 0.0016815818, -0.041739184, -473102.72, -121054.586, 0.0, 9.998252, 9.9999075 
1.4450617e+3, 2.7407572e+2, -587447.06, -411386.75, -23027.102, 0.0194609, -0.080507696, -408424.84, -154373.66, 0.0, 9.997654, 9.999982 
1.4450589e+3, 2.8407565e+2, -545193.94, -320465.16, -21942.658, 0.0055253524, -0.090904534, -318342.72, -162291.06, 0.0, 9.997187, 10.000158 
1.4450555e+3, 2.940761e+2, -487173.03, -241065.4, -20929.17, -0.04395081, -0.06913075, -239298.27, -181250.05, 0.0, 9.996907, 10.000165 
1.4450529e+3, 3.040768e+2, -497161.8, -204400.31, -16167.743, -0.010568556, -0.019789258, -203510.16, -203510.16, 0.0, 9.996437, 10.00031 
1.4450501e+3, 3.140763e+2, -447790.16, 65912.33, -7368.359, -0.022539927, -0.11491658, 66017.99, 66017.99, 0.0, 9.99571, 10.002518 
1.4551042e+3, 1.24094106e+2, -1157138.8, -1749797.0, -24780.004, 0.08306678, 0.005386587, -1156104.4, 567770.94, 0.011378922, 10.0052, 9.997252 
1.4550996e+3, 1.340913e+2, -1075486.0, -1534768.4, -3328.3677, -0.12358165, -0.099058844, -1075461.9, 550439.6, 0.0067245653, 10.004518, 9.998392 
1.4550999e+3, 1.4409041e+2, -1077924.9, -1533260.0, -11499.693, 0.14018336, -0.013892092, -1077634.6, 450275.34, 0.0028719967, 10.004017, 9.997963 
1.4550965e+3, 1.5408827e+2, -1020541.25, -1466563.1, -29248.72, 0.06617942, -0.015938867, -1018631.4, 411300.75, 0.00070393644, 10.003781, 9.997861 
1.455093e+3, 1.6408639e+2, -937852.06, -1292794.4, -40068.11, 0.007647231, -0.022535622, -933385.1, 398565.88, 0.000058062662, 10.003314, 9.998607 
1.4550902e+3, 1.7408489e+2, -945324.7, -1232403.3, -24989.693, 0.012501248, -0.046396397, -943165.6, 290799.47, 0.00000016567238, 10.002532, 9.998726 
1.4550877e+3, 1.8408358e+2, -922783.7, -1173999.1, -17231.818, 0.025705082, -0.04667608, -921607.2, 214370.27, 0.0, 10.002027, 9.998697 
1.4550851e+3, 1.9408259e+2, -836556.3, -1077778.9, -23132.76, 0.037863836, -0.021488724, -834358.0, 203629.22, 0.0, 10.001929, 9.998732 
1.455082e+3, 2.0408146e+2, -780896.2, -956650.56, -49016.477, 0.03399119, -0.023299376, -768150.25, 171847.55, 0.0, 10.001451, 9.999122 
1.4550784e+3, 2.140802e+2, -824542.3, -918114.56, -44957.72, 0.013650181, -0.07239555, -806442.9, 35566.64, 0.0, 10.000441, 9.9992 
1.4550751e+3, 2.240794e+2, -802625.9, -831391.9, -33332.55, 0.0020053212, -0.07994557, -780705.56, -36688.97, 0.0, 9.999808, 9.999427 
1.4550722e+3, 2.3407935e+2, -711912.44, -730069.44, -33503.69, 0.00048073637, -0.037388094, -686279.0, -40262.01, 0.0, 9.999729, 9.999488 
1.455069e+3, 2.440789e+2, -654932.75, -649476.6, -44102.688, -0.0027171324, -0.029392593, -608017.7, -59996.586, 0.0, 9.999436, 9.99951 
1.4550656e+3, 2.5407797e+2, -640963.8, -587641.4, -48923.43, -0.0073684985, -0.08032475, -558586.2, -108555.9, 0.0, 9.99884, 9.999548 
1.4550623e+3, 2.640776e+2, -596996.56, -463439.13, -47785.3, -0.002871224, -0.089954145, -448103.1, -96069.61, 0.0, 9.998246, 10.000013 
1.4550593e+3, 2.7407816e+2, -579317.06, -393193.44, -43880.08, 0.0107842535, -0.048957873, -383367.13, -129339.414, 0.0, 9.997647, 10.00011 
1.455056e+3, 2.8407833e+2, -535739.5, -300515.6, -32494.105, -0.000457329, -0.047520388, -296109.34, -140083.69, 0.0, 9.997183, 10.000298 
1.4550525e+3, 2.9407808e+2, -479022.78, -223363.17, -29083.514, -0.03641632, -0.11051676, -220096.4, -162067.67, 0.0, 9.996902, 10.00029 
1.4550494e+3, 3.040791e+2, -504610.63, -219892.52, -40383.406, -0.0036672337, -0.033027247, -214275.48, -214275.48, 0.0, 9.996436, 10.000204 
1.4550456e+3, 3.1407902e+2, -477362.4, 6630.8213, -35866.46, -0.036592603, -0.073326275, 9274.278, 9274.278, 0.0, 9.995701, 10.002115 
1.4651093e+3, 1.2409682e+2, -1192721.6, -1774362.9, 12082.739, 0.08163231, 0.013068942, -1192470.8, 531378.3, 0.011988982, 10.004987, 9.997187 
1.4651045e+3, 1.3409401e+2, -1037995.0, -1521844.8, 6725.265, -0.10577012, -0.0876547, -1037901.5, 587973.94, 0.007111268, 10.004802, 9.998344 
1.465104e+3, 1.4409302e+2, -1028443.8, -1508635.4, -5965.725, 0.14987832, -0.008311909, -1028369.7, 499515.0, 0.0030568868, 10.004359, 9.997966 
1.4651e+3, 1.5409076e+2, -1048311.3, -1478966.9, 3969.2505, 0.057960935, -0.023496218, -1048274.75, 381632.97, 0.00075790845, 10.003587, 9.997869 
1.4650962e+3, 1.6408886e+2, -971149.0, -1311160.4, 2572.2544, -0.0042204615, -0.03096531, -971129.56, 360797.16, 0.00006440502, 10.003097, 9.998584 
1.4650932e+3, 1.740875e+2, -877084.4, -1202014.5, -11163.635, 0.016288795, -0.03988686, -876701.3, 357238.6, 0.00000022299002, 10.003015, 9.9987 
1.4650899e+3, 1.8408625e+2, -845929.25, -1136158.5, -17077.844, 0.036610823, -0.034232583, -844927.8, 291024.16, 0.0, 10.002554, 9.998702 
1.4650868e+3, 1.940852e+2, -889786.7, -1102758.1, -8103.6885, 0.042487875, -0.01457823, -889478.8, 148483.42, 0.0, 10.001563, 9.998735 
1.4650832e+3, 2.0408404e+2, -858800.7, -993087.1, -29182.842, 0.035326757, -0.019260885, -852732.9, 87240.13, 0.0, 10.000912, 9.99913 
1.465079e+3, 2.1408279e+2, -780496.44, -896091.56, -36124.016, 0.014259247, -0.06709193, -770136.06, 71848.484, 0.0, 10.00074, 9.999207 
1.4650753e+3, 2.2408202e+2, -724231.8, -795646.0, -22322.166, 0.0040199975, -0.07319835, -717828.6, 26162.848, 0.0, 10.000356, 9.999409 
1.4650719e+3, 2.3408192e+2, -723190.3, -737768.7, -21751.578, 0.0067824638, -0.030447923, -707539.06, -61547.09, 0.0, 9.999662, 9.999467 
1.4650683e+3, 2.4408148e+2, -706099.2, -668185.75, -31796.879, 0.004016497, -0.024695447, -650123.56, -102127.44, 0.0, 9.999061, 9.999561 
1.4650643e+3, 2.5408056e+2, -673652.7, -596482.94, -26680.244, -0.0056819962, -0.080725126, -588157.0, -138151.67, 0.0, 9.998588, 9.999609 
1.4650606e+3, 2.640803e+2, -612421.9, -463223.06, -20028.107, -0.0053044106, -0.08734353, -460581.28, -108573.63, 0.0, 9.998108, 10.000081 
1.4650568e+3, 2.7408102e+2, -579113.7, -385718.03, -22179.295, 0.0061808117, -0.03366395, -383207.03, -129206.96, 0.0, 9.997617, 10.000176 
1.4650531e+3, 2.8408128e+2, -545620.5, -289401.66, -10388.137, -0.0005927673, -0.03708841, -288981.16, -132983.73, 0.0, 9.997046, 10.00044 
1.4650492e+3, 2.9408094e+2, -545466.4, -238787.2, -7161.1294, -0.022645736, -0.12423235, -238620.08, -180618.95, 0.0, 9.996376, 10.000437 
1.4650458e+3, 3.040823e+2, -558917.6, -226293.81, -3028.2183, 0.005525565, -0.022303859, -226266.25, -226266.25, 0.0, 9.995978, 10.00038 
1.4650413e+3, 3.140825e+2, -451002.13, 153.63577, 17841.252, -0.0466226, -0.055596348, 858.0799, 858.0799, 0.0, 9.995965, 10.001942 
1.4751142e+3, 1.24099724e+2, -1216265.0, -1825650.8, 6149.631, 0.08364197, -0.029622644, -1216202.9, 507616.47, 0.012636783, 10.004995, 9.996832 
1.4751093e+3, 1.340973e+2, -1063847.0, -1575475.9, -317.04636, -0.09208964, -0.055631556, -1063846.8, 561997.56, 0.0075240103, 10.004804, 9.997973 
1.4751086e+3, 1.4409629e+2, -1006278.0, -1463577.9, -34007.965, 0.15127504, 0.027530652, -1003762.8, 524091.34, 0.003256367, 10.004362, 9.998275 
1.4751033e+3, 1.5409356e+2, -1020588.75, -1422555.4, -25117.117, 0.03800829, -0.07124408, -1019025.4, 410853.72, 0.0008174081, 10.003592, 9.998255 
1.4750992e+3, 1.6409166e+2, -993263.06, -1358701.0, -4482.994, -0.021318551, -0.08571038, -993208.1, 338689.6, 0.000071419374, 10.003103, 9.998256 
1.4750963e+3, 1.7409086e+2, -905152.4, -1260619.4, -14312.169, 0.035331745, 0.003133369, -904577.06, 329330.53, 0.0000002932695, 10.003015, 9.998298 
1.4750928e+3, 1.840897e+2, -835206.9, -1113376.6, -52096.44, 0.059031475, 0.032431863, -825770.25, 310149.56, 0.0, 10.00255, 9.99886 
1.4750883e+3, 1.9408806e+2, -873969.0, -1071420.4, -45612.53, 0.025375126, -0.02950297, -863941.44, 173993.47, 0.0, 10.001568, 9.99895 
1.4750838e+3, 2.0408683e+2, -865169.7, -1006931.4, -39128.387, 0.00853604, -0.049985662, -855086.75, 84859.516, 0.0, 10.000914, 9.999035 
1.47508e+3, 2.1408623e+2, -789417.56, -914867.7, -42195.727, 0.020076841, -0.020120759, -776545.6, 65406.598, 0.0, 10.00074, 9.999078 
1.475076e+3, 2.2408548e+2, -726078.3, -798779.0, -47139.582, 0.027692644, -0.014719081, -702901.44, 41057.543, 0.0, 10.000352, 9.99939 
1.4750718e+3, 2.3408456e+2, -724223.1, -739519.56, -47271.465, 0.027110873, -0.054344937, -683985.2, -38018.145, 0.0, 9.99966, 9.999457 
1.4750674e+3, 2.44084e+2, -693637.3, -641433.56, -50113.656, 0.018096676, -0.06827793, -611031.56, -63059.574, 0.0, 9.999056, 9.999748 
1.475063e+3, 2.54084e+2, -659637.0, -566444.06, -43318.066, -0.0015054416, -0.052263346, -549419.06, -99446.98, 0.0, 9.998583, 9.999817 
1.4750586e+3, 2.640841e+2, -610285.94, -458891.38, -37493.227, -0.0071149515, -0.03594342, -450114.88, -98143.984, 0.0, 9.998107, 10.000113 
1.4750545e+3, 2.7408433e+2, -579366.4, -385173.13, -38730.0, 0.0032423455, -0.033735123, -377733.78, -123765.64, 0.0, 9.997611, 10.000184 
1.4750502e+3, 2.8408444e+2, -537173.06, -270600.78, -34164.953, 0.0018923543, -0.057297792, -266291.72, -110324.945, 0.0, 9.997041, 10.000571 
1.4750458e+3, 2.9408458e+2, -536465.5, -218581.19, -30397.584, -0.0065309405, -0.11075349, -215700.53, -157734.9, 0.0, 9.996369, 10.000579 
1.4750418e+3, 3.0408642e+2, -525612.1, -157739.16, -4570.259, 0.014453984, 0.010455622, -157682.39, -157682.39, 0.0, 9.995978, 10.000852 
1.4750372e+3, 3.1408694e+2, -447747.4, 7239.0835, 16666.42, -0.05877063, -0.038108967, 7848.767, 7848.767, 0.0, 9.995962, 10.001993 
1.4851198e+3, 1.2410337e+2, -1112584.1, -1788150.0, 19639.857, 0.09313245, -0.036296718, -1112013.6, 611769.75, 0.013320001, 10.00578, 9.99671 
1.4851141e+3, 1.3410085e+2, -1079919.0, -1600874.9, 23143.834, -0.098915234, -0.056647055, -1078892.9, 546917.0, 0.00796049, 10.004771, 9.997813 
1.4851126e+3, 1.4409977e+2, -1037799.9, -1476599.9, -5196.605, 0.13546717, 0.028369408, -1037738.3, 490082.25, 0.0034689314, 10.004137, 9.998294 
1.4851072e+3, 1.540972e+2, -951840.9, -1383696.9, -20803.982, 0.041467834, -0.060643304, -950841.0, 479002.94, 0.00088196655, 10.004042, 9.998303 
1.4851025e+3, 1.6409533e+2, -928535.25, -1331454.5, -7061.1333, -0.00987553, -0.07387816, -928411.56, 403450.66, 0.00007901186, 10.003568, 9.998218 
1.485099e+3, 1.7409438e+2, -972928.56, -1298912.8, 6959.6836, 0.03665873, 0.0045305733, -972780.0, 261093.48, 0.00000037325287, 10.002574, 9.998247 
1.485095e+3, 1.8409315e+2, -931031.4, -1159911.6, -23977.484, 0.053702053, 0.031280514, -928546.44, 207339.97, 0.0, 10.001894, 9.998857 
1.4850897e+3, 1.940916e+2, -860922.6, -1064551.4, -34118.625, 0.017046709, -0.020702213, -855358.0, 182543.1, 0.0, 10.0016575, 9.998952 
1.4850849e+3, 2.0409045e+2, -812472.25, -979904.25, -24735.498, 0.0047831335, -0.034797978, -808894.44, 131017.52, 0.0, 10.00127, 9.999048 
1.4850807e+3, 2.1408986e+2, -799841.44, -918572.7, -17868.299, 0.030839745, -0.0050106756, -797210.6, 44706.754, 0.0, 10.000665, 9.999088 
1.4850762e+3, 2.240891e+2, -764932.56, -812539.06, -23169.64, 0.04365224, -0.0036045196, -755517.94, -11593.816, 0.0, 10.000066, 9.999433 
1.4850715e+3, 2.3408812e+2, -748636.5, -746666.3, -21480.807, 0.034572788, -0.053123772, -726148.06, -80215.29, 0.0, 9.999474, 9.999497 
1.4850666e+3, 2.4408762e+2, -705677.8, -637231.2, -19300.863, 0.020239927, -0.06790281, -632163.75, -84226.7, 0.0, 9.998932, 9.999836 
1.4850615e+3, 2.540878e+2, -671739.06, -562220.44, -22176.793, -0.0002282246, -0.040340055, -557900.2, -107965.336, 0.0, 9.998458, 9.999906 
1.4850566e+3, 2.6408795e+2, -632808.25, -462806.7, -22901.54, -0.0064181997, -0.028796116, -459775.56, -107842.49, 0.0, 9.997924, 10.000173 
1.4850518e+3, 2.7408794e+2, -618193.94, -397491.38, -21859.238, 0.0035792058, -0.055867333, -395347.2, -141414.86, 0.0, 9.997318, 10.000239 
1.4850472e+3, 2.8408808e+2, -560107.6, -278246.88, -14235.984, 0.0007943617, -0.0790061, -277529.66, -121599.266, 0.0, 9.996871, 10.0006 
1.4850423e+3, 2.940887e+2, -496031.6, -196763.89, -21469.105, -0.0101032285, -0.088958435, -195231.58, -137306.48, 0.0, 9.996637, 10.000599 
1.4850378e+3, 3.0409056e+2, -480133.34, -111074.38, -5931.1216, 0.009805047, 0.020013453, -110979.09, -110979.09, 0.0, 9.996186, 10.001071 
1.485033e+3, 3.1409094e+2, -536873.9, -51108.977, -8005.826, -0.039034918, -0.06347177, -50977.07, -50977.07, 0.0, 9.995419, 10.001853 
1.4951257e+3, 1.2410782e+2, -1109249.8, -1779107.9, -15246.801, 0.105850026, -0.008087425, -1108903.0, 614837.44, 0.014046072, 10.005776, 9.996774 
1.4951186e+3, 1.3410474e+2, -1079482.3, -1599150.5, -14645.314, -0.12562959, -0.08857871, -1079069.9, 546701.6, 0.008424745, 10.004771, 9.997825 
1.4951165e+3, 1.4410354e+2, -1054064.6, -1512189.0, -13316.519, 0.10248913, -0.0026048683, -1053677.9, 474105.75, 0.0036956526, 10.004144, 9.998047 
1.4951116e+3, 1.5410168e+2, -970240.56, -1422825.4, -24421.557, 0.06406503, 0.0057853297, -968926.56, 460875.44, 0.00095162867, 10.004045, 9.9980345 
1.4951065e+3, 1.6409986e+2, -912293.9, -1297856.8, -42445.586, 0.024318071, 0.002040623, -907676.44, 424143.44, 0.00008722728, 10.003567, 9.998449 
1.4951015e+3, 1.7409804e+2, -953046.25, -1258429.8, -30676.02, 0.01959479, -0.034537736, -949995.3, 283841.97, 0.0000004647829, 10.002577, 9.998525 
1.4950965e+3, 1.8409663e+2, -942255.44, -1183994.6, -36298.047, 0.019393897, -0.03477851, -936922.75, 198928.75, 0.0, 10.001896, 9.998692 
1.4950915e+3, 1.9409584e+2, -874654.75, -1094702.8, -42859.063, 0.015593488, 0.0106256055, -866601.75, 171258.9, 0.0, 10.001662, 9.998744 
1.4950864e+3, 2.040949e+2, -804863.94, -963975.3, -46899.266, 0.021472288, 0.023591015, -792068.94, 147801.14, 0.0, 10.001268, 9.999159 
1.4950815e+3, 2.140937e+2, -789444.5, -897445.0, -40526.527, 0.044390053, -0.020450497, -775928.6, 65951.27, 0.0, 10.000665, 9.999233 
1.4950764e+3, 2.2409289e+2, -758524.94, -799000.5, -45966.98, 0.049341448, -0.03865966, -728537.9, 15348.885, 0.0, 10.000063, 9.999527 
1.4950708e+3, 2.3409261e+2, -742180.94, -733275.3, -43360.434, 0.027690519, -0.027398268, -694139.7, -48250.453, 0.0, 9.999473, 9.99959 
1.4950652e+3, 2.440923e+2, -707469.06, -640877.25, -37318.516, 0.009207178, -0.025104037, -624160.3, -76268.71, 0.0, 9.998931, 9.999812 
1.4950599e+3, 2.54092e+2, -675035.0, -568171.7, -38781.516, -0.003472646, -0.043945465, -555581.0, -105687.46, 0.0, 9.998453, 9.999867 
1.4950547e+3, 2.6409182e+2, -627004.8, -449921.75, -44832.105, -0.005490403, -0.06440842, -439218.53, -87324.42, 0.0, 9.99792, 10.000263 
1.4950493e+3, 2.7409184e+2, -611205.3, -382255.38, -43094.113, 0.0039411164, -0.09994755, -374412.63, -120519.93, 0.0, 9.997315, 10.000346 
1.495044e+3, 2.8409222e+2, -566039.44, -291195.06, -22965.127, -0.006460624, -0.102916114, -289289.4, -133400.81, 0.0, 9.996872, 10.000512 
1.4950387e+3, 2.9409325e+2, -505513.38, -214708.58, -28098.453, -0.03710376, -0.057719704, -212018.5, -154138.9, 0.0, 9.996629, 10.000481 
1.4950338e+3, 3.040946e+2, -482827.44, -115192.195, -32322.99, -0.012645253, 0.0075532254, -112371.945, -112371.945, 0.0, 9.996179, 10.001047 
1.495029e+3, 3.1409454e+2, -559837.56, -97688.67, -35562.03, 0.006131423, -0.1179418, -94968.21, -94968.21, 0.0, 9.995414, 10.001534 
1.5051313e+3, 1.2411258e+2, -1138437.9, -1782456.8, -459.03793, 0.09466256, 0.006587624, -1138437.6, 585257.6, 0.014826011, 10.005528, 9.99687 
1.5051235e+3, 1.3410948e+2, -1016610.94, -1564336.0, -3720.055, -0.12449248, -0.08010565, -1016585.7, 609139.75, 0.008923198, 10.00519, 9.997864 
1.5051208e+3, 1.4410818e+2, -997218.06, -1505765.3, 9048.769, 0.105527766, -0.00037380398, -997057.06, 530681.7, 0.003939313, 10.00463, 9.997856 
1.5051155e+3, 1.5410629e+2, -1020113.44, -1469842.9, 1571.7291, 0.06379594, 0.026680488, -1020107.94, 409650.63, 0.0010271756, 10.0038, 9.9978285 
1.5051097e+3, 1.6410442e+2, -965490.06, -1308488.1, -25249.365, 0.021161776, 0.02434306, -963641.3, 368135.6, 0.00009630864, 10.003136, 9.998585 
1.5051042e+3, 1.7410253e+2, -925099.06, -1225759.0, -22830.295, 0.0133973, -0.036444563, -923375.4, 310418.38, 0.000000575819, 10.0026865, 9.998695 
1.5050985e+3, 1.8410112e+2, -898790.8, -1167036.1, -15705.454, 0.01628645, -0.0441434, -897874.4, 237932.95, 0.0, 10.0022135, 9.998653 
1.5050931e+3, 1.9410044e+2, -871262.44, -1100114.6, -11554.163, 0.022876112, 0.017789649, -870680.56, 167135.38, 0.0, 10.001717, 9.99868 
1.5050878e+3, 2.040995e+2, -811955.7, -957759.56, -18271.094, 0.03157894, 0.032026827, -809700.94, 130124.234, 0.0, 10.001179, 9.999245 
1.5050821e+3, 2.140982e+2, -796054.06, -889290.2, -16945.586, 0.045914557, -0.03226794, -793069.75, 48765.645, 0.0, 10.000572, 9.999333 
1.5050764e+3, 2.240974e+2, -767450.0, -808355.44, -25961.256, 0.04535778, -0.05211388, -754852.75, -11010.765, 0.0, 10.000026, 9.99948 
1.5050703e+3, 2.340973e+2, -734136.9, -736580.4, -35737.74, 0.022737212, -0.016258387, -699600.0, -53756.742, 0.0, 9.99956, 9.999524 
1.5050644e+3, 2.4409702e+2, -694501.4, -633291.75, -35761.184, 0.008215717, -0.007840543, -616827.25, -68981.71, 0.0, 9.999016, 9.999822 
1.5050584e+3, 2.5409654e+2, -687074.94, -572194.1, -35286.938, 0.0049110427, -0.049238916, -562221.1, -112371.85, 0.0, 9.998364, 9.999882 
1.5050526e+3, 2.640963e+2, -645519.06, -456798.38, -40571.008, 0.00678312, -0.07733717, -448446.1, -96595.8, 0.0, 9.997786, 10.00028 
1.5050466e+3, 2.7409646e+2, -612063.75, -380792.56, -46545.566, 0.013444594, -0.096783645, -371776.34, -117929.016, 0.0, 9.997303, 10.000361 
1.5050408e+3, 2.8409693e+2, -585926.75, -305166.9, -24245.996, 0.0035855148, -0.09167963, -303088.44, -147245.97, 0.0, 9.996756, 10.000471 
1.5050352e+3, 2.9409784e+2, -579655.4, -255213.66, -25257.965, -0.023676028, -0.05453815, -253259.08, -195424.67, 0.0, 9.996141, 10.000437 
1.50503e+3, 3.0409867e+2, -536308.44, -126944.04, -20127.08, -0.007867224, -0.04452789, -125956.836, -125956.836, 0.0, 9.995752, 10.001172 
1.5050247e+3, 3.140992e+2, -526779.06, -81347.84, -14128.32, 0.017818019, -0.12450242, -80900.17, -80900.17, 0.0, 9.995639, 10.00154 
1.5151365e+3, 1.2411776e+2, -1128386.9, -1760732.3, -9727.283, 0.061068915, 0.015667617, -1128237.3, 595409.5, 0.015664594, 10.005529, 9.99702 
1.515129e+3, 1.3411513e+2, -1011530.25, -1553153.3, -16757.805, -0.10090751, -0.03387391, -1011012.25, 614659.2, 0.009458331, 10.00519, 9.997942 
1.5151258e+3, 1.4411364e+2, -1007875.06, -1527845.5, -21566.89, 0.13814439, 0.033640288, -1006982.06, 520703.72, 0.0042014075, 10.00463, 9.9977045 
1.5151191e+3, 1.5411104e+2, -1031797.2, -1494309.9, -29339.943, 0.04069784, 0.0042611663, -1029943.4, 399769.66, 0.001109328, 10.003801, 9.997662 
1.5151124e+3, 1.6410905e+2, -961089.25, -1300418.4, -44118.746, -0.019496316, -0.0039727674, -955446.9, 376285.9, 0.000106542946, 10.003139, 9.998639 
1.5151069e+3, 1.7410785e+2, -918813.75, -1214726.6, -39735.094, 0.01476674, -0.003408335, -913571.0, 320171.66, 0.0000007145684, 10.002694, 9.998768 
1.5151009e+3, 1.8410662e+2, -893234.25, -1156507.0, -34963.23, 0.039677672, -0.00009594337, -888670.2, 247083.73, 0.0, 10.002216, 9.998726 
1.5150951e+3, 1.941054e+2, -865869.2, -1089793.6, -30210.662, 0.037306745, 0.0017168681, -861864.94, 175901.66, 0.0, 10.001719, 9.998751 
1.5150888e+3, 2.0410429e+2, -808299.9, -949997.1, -41392.863, 0.033723325, -0.0075476454, -797094.3, 142682.67, 0.0, 10.001177, 9.9993 
1.5150826e+3, 2.1410336e+2, -792399.0, -881970.06, -39839.813, 0.03374796, -0.040859096, -777243.3, 64540.5, 0.0, 10.000572, 9.999385 
1.5150763e+3, 2.2410265e+2, -781621.2, -837047.2, -44495.04, 0.029731892, -0.045735933, -756914.56, -13124.691, 0.0, 10.000022, 9.999286 
1.5150698e+3, 2.3410223e+2, -749560.75, -768650.9, -52506.26, 0.018442916, -0.019021472, -705739.0, -59944.227, 0.0, 9.999559, 9.999305 
1.5150633e+3, 2.4410182e+2, -692368.94, -628685.2, -59449.246, 0.014716299, -0.015649773, -593087.3, -45288.41, 0.0, 9.999014, 9.999855 
1.515057e+3, 2.5410137e+2, -683255.9, -563675.6, -58734.684, 0.022232, -0.056154054, -539652.7, -89850.7, 0.0, 9.998362, 9.999943 
1.5150507e+3, 2.6410133e+2, -650610.1, -466820.3, -58230.06, 0.028029017, -0.067923, -449924.53, -98122.84, 0.0, 9.997783, 10.000214 
1.5150441e+3, 2.741018e+2, -618768.1, -393781.13, -62755.95, 0.029889964, -0.046137657, -377460.44, -123664.21, 0.0, 9.997298, 10.000275 
1.5150379e+3, 2.841022e+2, -584946.06, -303133.84, -46664.633, 0.02813187, -0.044519514, -295607.75, -139815.67, 0.0, 9.996755, 10.000486 
1.5150318e+3, 2.9410243e+2, -577883.25, -251448.27, -46576.28, 0.025516724, -0.0793223, -244932.73, -187143.17, 0.0, 9.9961405, 10.000464 
1.515026e+3, 3.041027e+2, -517154.13, -88631.98, -24024.658, 0.019739116, -0.13800539, -87289.266, -87289.266, 0.0, 9.995756, 10.001434 
1.51502e+3, 3.141048e+2, -502515.4, -29277.977, -14163.73, -0.0109342905, -0.08652057, -28854.443, -28854.443, 0.0, 9.995629, 10.001903 
1.5251419e+3, 1.24123484e+2, -1095375.1, -1743484.6, 19982.83, 0.049990416, 0.025585024, -1094759.5, 628832.25, 0.016559059, 10.005762, 9.997026 
1.5251341e+3, 1.3412102e+2, -1036309.7, -1571999.8, -5503.6187, -0.0998736, -0.0017311412, -1036253.2, 589361.7, 0.010028184, 10.00505, 9.99788 
1.5251304e+3, 1.4411943e+2, -1038384.06, -1537103.6, -14005.1875, 0.1426957, 0.055700533, -1037991.06, 489639.03, 0.00448086, 10.0043955, 9.997755 
1.5251228e+3, 1.5411662e+2, -1026471.94, -1483750.5, -6141.5527, 0.039601833, -0.00015206146, -1026389.44, 403269.16, 0.0011979169, 10.003803, 9.997733 
1.5251157e+3, 1.6411458e+2, -944775.25, -1302523.5, -5101.8613, -0.01958794, -0.013478578, -944702.5, 386976.2, 0.000118069845, 10.003296, 9.998548 
1.5251096e+3, 1.7411353e+2, -892180.06, -1214322.5, -14292.839, 0.02309499, 0.013751885, -891547.2, 342140.5, 0.0000008766353, 10.002932, 9.998656 
1.5251034e+3, 1.841123e+2, -863220.06, -1135800.8, -25179.637, 0.0490761, 0.019547353, -860913.6, 274785.3, 0.0, 10.002396, 9.998781 
1.5250967e+3, 1.9411084e+2, -876001.94, -1086576.9, -21720.785, 0.03688675, -0.009183363, -873784.75, 163928.11, 0.0, 10.001616, 9.998822 
1.52509e+3, 2.0410967e+2, -838948.75, -973793.9, -31823.15, 0.02607564, -0.026134597, -831815.8, 107907.89, 0.0, 10.001007, 9.999217 
1.5250832e+3, 2.1410888e+2, -788886.06, -891852.06, -41999.324, 0.022070253, -0.034368075, -773927.8, 67802.25, 0.0, 10.000648, 9.999281 
1.5250763e+3, 2.2410817e+2, -759239.5, -817352.06, -47000.547, 0.021145675, -0.036348984, -733038.94, 10697.262, 0.0, 10.000138, 9.999365 
1.5250693e+3, 2.3410755e+2, -764271.94, -765057.94, -33918.406, 0.021476619, -0.039061815, -730744.25, -85002.24, 0.0, 9.9994135, 9.999399 
1.5250623e+3, 2.441071e+2, -724787.2, -648238.94, -28729.166, 0.024348058, -0.04224654, -638656.25, -90910.125, 0.0, 9.99881, 9.999819 
1.5250555e+3, 2.5410688e+2, -685702.75, -570495.8, -36722.684, 0.031251844, -0.055859, -559785.94, -110038.22, 0.0, 9.99837, 9.999891 
1.5250485e+3, 2.6410687e+2, -643825.3, -475879.25, -41066.195, 0.034919124, -0.0530698, -466375.53, -114628.055, 0.0, 9.997884, 10.000102 
1.5250415e+3, 2.7410725e+2, -622726.94, -408825.16, -49713.04, 0.032962386, -0.035625074, -397835.9, -144091.56, 0.0, 9.997329, 10.000156 
1.5250346e+3, 2.841076e+2, -576561.8, -286193.53, -33476.188, 0.035695232, -0.032878574, -282384.1, -126643.766, 0.0, 9.996758, 10.000602 
1.5250282e+3, 2.94108e+2, -564345.44, -229388.27, -26724.47, 0.046927635, -0.061512057, -227269.47, -169534.33, 0.0, 9.996168, 10.000603 
1.5250218e+3, 3.0410802e+2, -539047.56, -110283.39, 548.9711, 0.03268964, -0.14992826, -110282.695, -110282.695, 0.0, 9.995657, 10.001332 
1.5250155e+3, 3.1411067e+2, -549164.25, -39773.7, -17322.209, -0.0067760716, -0.034011308, -39185.324, -39185.324, 0.0, 9.99526, 10.002008 
1.5351479e+3, 1.24129824e+2, -1105830.0, -1764566.0, 228.3253, 0.060083892, 0.03944284, -1105829.9, 617699.8, 0.017504249, 10.005761, 9.996882 
1.535139e+3, 1.3412723e+2, -1051364.6, -1602645.5, -32067.738, -0.1227373, 0.017698014, -1049505.5, 576049.75, 0.010630274, 10.005049, 9.997668 
1.5351345e+3, 1.4412555e+2, -1020346.1, -1500225.4, -37312.82, 0.11846889, 0.06758062, -1017462.2, 510109.16, 0.00477599, 10.004398, 9.998008 
1.5351269e+3, 1.5412307e+2, -1004245.1, -1438615.9, -28589.682, 0.056442257, 0.011779737, -1002371.5, 427223.7, 0.0012921544, 10.003808, 9.998041 
1.5351194e+3, 1.6412103e+2, -960858.56, -1337985.9, -20491.14, 0.014905367, -0.005001824, -959748.44, 371866.16, 0.00013084838, 10.003303, 9.998302 
1.5351129e+3, 1.7411962e+2, -912598.0, -1257821.5, -27734.256, 0.036779225, 0.01631945, -910384.06, 323244.38, 0.0000010420176, 10.002934, 9.998357 
1.5351057e+3, 1.841182e+2, -860587.8, -1130431.0, -53728.59, 0.04354264, 0.016947122, -850283.4, 285358.66, 0.0, 10.002395, 9.998819 
1.5350981e+3, 1.9411676e+2, -870915.7, -1076746.8, -51064.73, 0.019738058, -0.016231494, -858943.4, 178711.27, 0.0, 10.001617, 9.99889 
1.5350907e+3, 2.0411558e+2, -854646.2, -1006698.3, -47231.53, 0.0057662353, -0.02607688, -841169.3, 98496.26, 0.0, 10.001007, 9.998992 
1.5350837e+3, 2.1411477e+2, -806660.3, -929046.5, -54743.08, 0.009330282, -0.013071969, -785747.4, 55926.6, 0.0, 10.000647, 9.999026 
1.5350763e+3, 2.2411399e+2, -736323.4, -769245.7, -73253.4, 0.017372783, -0.023447987, -677704.4, 65976.32, 0.0, 10.000134, 9.999698 
1.5350689e+3, 2.3411326e+2, -737085.0, -708525.94, -60563.973, 0.03034725, -0.07598568, -660580.9, -14895.873, 0.0, 9.999413, 9.999789 
1.5350613e+3, 2.4411288e+2, -732846.0, -664179.4, -46094.668, 0.035426684, -0.087553665, -641036.7, -93349.36, 0.0, 9.998806, 9.999712 
1.5350538e+3, 2.5411305e+2, -697474.3, -594703.7, -51771.66, 0.03014762, -0.047919888, -573145.5, -123459.02, 0.0, 9.998368, 9.999727 
1.5350462e+3, 2.64113e+2, -654424.3, -498133.7, -60694.008, 0.02458195, -0.03337178, -477332.28, -125644.59, 0.0, 9.997884, 9.999949 
1.5350387e+3, 2.741127e+2, -633442.25, -430929.38, -68824.95, 0.019270927, -0.06656636, -409753.22, -156061.45, 0.0, 9.997327, 10.000007 
1.5350312e+3, 2.8411314e+2, -563167.4, -257740.8, -54228.504, 0.02332774, -0.057637576, -248398.3, -92710.92, 0.0, 9.996755, 10.000799 
1.5350243e+3, 2.9411465e+2, -549070.6, -196616.55, -46735.637, 0.038709514, 0.0019886307, -190524.66, -132853.61, 0.0, 9.996163, 10.000831 
1.5350173e+3, 3.0411464e+2, -570504.56, -176155.81, -14184.592, 0.029767854, -0.07827298, -175646.25, -175646.25, 0.0, 9.995657, 10.000881 
1.535011e+3, 3.141165e+2, -557316.8, -56085.47, -25327.186, 0.019619832, 0.008011996, -54808.94, -54808.94, 0.0, 9.995255, 10.001899 
1.5451539e+3, 1.2413639e+2, -1096347.3, -1753442.6, 20475.69, 0.07077009, 0.024092417, -1095709.9, 627754.9, 0.018498253, 10.005807, 9.996937 
1.545144e+3, 1.3413386e+2, -1066698.6, -1609113.8, -6883.25, -0.117280975, 0.0075426935, -1066611.4, 558878.3, 0.011265233, 10.004943, 9.997674 
1.545139e+3, 1.441321e+2, -1030719.7, -1507681.4, 1845.0, 0.1212025, 0.0492168, -1030712.56, 496794.16, 0.0050872033, 10.00434, 9.997984 
1.5451308e+3, 1.5412965e+2, -960117.6, -1419301.0, -13004.73, 0.054003842, 0.0013157626, -959749.6, 469780.22, 0.0013917676, 10.004121, 9.998023 
1.5451229e+3, 1.6412765e+2, -912416.2, -1321796.9, -17105.21, 0.00927054, -0.008703306, -911702.75, 419846.47, 0.00014484508, 10.003667, 9.998238 
1.5451156e+3, 1.7412624e+2, -924199.0, -1271288.9, -9131.781, 0.029362721, 0.01846461, -923958.9, 309604.8, 0.000001197513, 10.002889, 9.998287 
1.545108e+3, 1.8412478e+2, -885057.44, -1142074.8, -29119.508, 0.03867417, 0.022210125, -881799.56, 253778.1, 0.0, 10.002228, 9.998819 
1.5450999e+3, 1.9412339e+2, -852680.4, -1067489.0, -32110.7, 0.021919157, -0.010551469, -847983.0, 189606.97, 0.0, 10.001741, 9.998893 
1.5450919e+3, 2.0412216e+2, -836277.06, -1007088.8, -21822.799, 0.012705274, -0.020223651, -833533.1, 106068.25, 0.0, 10.001174, 9.998909 
1.5450843e+3, 2.1412127e+2, -835409.1, -953160.25, -18391.709, 0.016447429, -0.0070658596, -832603.4, 9007.817, 0.0, 10.000495, 9.998933 
1.5450764e+3, 2.2412047e+2, -763362.8, -772951.6, -40966.816, 0.02283458, -0.016501905, -726910.8, 16707.197, 0.0, 9.999909, 9.99978 
1.5450682e+3, 2.3411986e+2, -724415.7, -691731.75, -50449.61, 0.032208383, -0.06687424, -655043.3, -9422.845, 0.0, 9.9994545, 9.999884 
1.5450601e+3, 2.4411951e+2, -714801.75, -655621.44, -41792.41, 0.034355562, -0.08170202, -634004.4, -86382.14, 0.0, 9.998932, 9.99971 
1.5450521e+3, 2.5411952e+2, -706652.06, -600790.7, -38541.83, 0.025230067, -0.053683247, -588245.2, -138622.53, 0.0, 9.998314, 9.999711 
1.545044e+3, 2.6411942e+2, -677089.94, -506114.7, -36076.586, 0.021853136, -0.04598058, -498814.1, -147189.63, 0.0, 9.997716, 9.999976 
1.545036e+3, 2.7411914e+2, -657345.0, -439523.56, -31908.076, 0.027846614, -0.07928553, -434945.66, -181317.42, 0.0, 9.997151, 10.000031 
1.5450281e+3, 2.8411967e+2, -579642.2, -272817.38, -15500.983, 0.03374499, -0.06145764, -272036.25, -116412.805, 0.0, 9.996675, 10.000733 
1.5450205e+3, 2.941213e+2, -535032.5, -198076.36, -32591.287, 0.03776771, 0.019877769, -194953.0, -137346.5, 0.0, 9.996297, 10.000756 
1.545013e+3, 3.0412123e+2, -568113.7, -199819.6, -5204.844, 0.022459263, -0.055103082, -199746.05, -199746.05, 0.0, 9.995783, 10.000656 
1.5450062e+3, 3.141227e+2, -563873.56, -40533.156, 6812.8677, 0.025659623, 0.01784923, -40444.48, -40444.48, 0.0, 9.995134, 10.002063 
1.5551597e+3, 1.2414331e+2, -1081269.4, -1718590.4, -3594.6824, 0.08232926, -0.010944534, -1081249.1, 642146.44, 0.019546364, 10.005799, 9.99718 
1.5551493e+3, 1.3414095e+2, -1052139.5, -1578567.6, -39634.78, -0.08739562, -0.031202171, -1049172.1, 576245.7, 0.011937993, 10.004946, 9.997886 
1.5551434e+3, 1.441391e+2, -1050390.6, -1550752.8, -9238.897, 0.14627142, 0.0034137566, -1050220.1, 477215.63, 0.0054177362, 10.004349, 9.9976845 
1.5551347e+3, 1.5413648e+2, -983821.6, -1469103.6, -20797.215, 0.030574368, -0.029167887, -982932.0, 446530.16, 0.0014978222, 10.004122, 9.997682 
1.555126e+3, 1.641345e+2, -904681.56, -1305972.1, -45117.246, -0.03683267, -0.022829592, -899671.56, 431810.47, 0.00016027692, 10.003667, 9.998347 
1.5551181e+3, 1.7413338e+2, -913734.8, -1249880.5, -38363.574, -0.00053556915, 0.018874055, -909412.0, 324081.44, 0.0000013687348, 10.002889, 9.998434 
1.55511e+3, 1.8413211e+2, -887882.3, -1148606.5, -48843.414, 0.030161535, 0.034648366, -879032.5, 256473.2, 0.0, 10.002229, 9.998775 
1.5551019e+3, 1.941307e+2, -856191.25, -1076158.3, -49875.813, 0.041634616, 0.008245465, -845410.7, 192107.98, 0.0, 10.001746, 9.998832 
1.5550934e+3, 2.0412941e+2, -833205.56, -1001345.56, -47102.68, 0.044982098, -0.0074873907, -820909.44, 118621.42, 0.0, 10.001176, 9.998948 
1.555085e+3, 2.1412833e+2, -832113.0, -946286.3, -43742.547, 0.040593058, -0.016510155, -817281.0, 24260.795, 0.0, 10.000494, 9.998981 
1.5550764e+3, 2.2412759e+2, -774726.7, -796134.6, -59132.832, 0.03423728, -0.0166364, -725336.8, 18211.47, 0.0, 9.999907, 9.999622 
1.5550676e+3, 2.3412734e+2, -737075.44, -718387.8, -66544.26, 0.025568372, -0.01289892, -660534.56, -14986.062, 0.0, 9.9994545, 9.9997015 
1.555059e+3, 2.4412693e+2, -708979.6, -643452.94, -63891.64, 0.018830815, -0.026308704, -604413.94, -56863.06, 0.0, 9.99893, 9.999795 
1.5550503e+3, 2.541263e+2, -698777.75, -584511.0, -60418.766, 0.014420262, -0.074228056, -558490.0, -108933.625, 0.0, 9.998313, 9.999825 
1.5550418e+3, 2.6412612e+2, -663052.3, -476731.3, -56625.363, 0.025332352, -0.09076599, -460872.03, -109314.14, 0.0, 9.997714, 10.000179 
1.5550335e+3, 2.7412656e+2, -643320.94, -410652.22, -50972.355, 0.05637242, -0.07118182, -399975.28, -146421.64, 0.0, 9.997151, 10.000232 
1.555025e+3, 2.8412715e+2, -602225.25, -320277.75, -28845.605, 0.06353661, -0.043545783, -317356.84, -161808.33, 0.0, 9.9966755, 10.000408 
1.5550168e+3, 2.9412794e+2, -561754.75, -253339.33, -44989.17, 0.037378747, -0.012505394, -246910.67, -189368.73, 0.0, 9.996294, 10.000379 
1.5550087e+3, 3.0412763e+2, -570774.5, -204654.73, -28035.902, 0.0045532864, -0.084223874, -202520.31, -202520.31, 0.0, 9.995779, 10.000627 
1.5550013e+3, 3.1412905e+2, -535095.56, 18999.412, -9386.096, 0.0071087885, -0.021021068, 19158.363, 19158.363, 0.0, 9.995133, 10.002473 
1.5651654e+3, 1.24151096e+2, -1120657.5, -1742869.3, 32565.674, 0.08475965, -0.021336129, -1118957.8, 604360.75, 0.020660644, 10.005554, 9.997131 
1.5651545e+3, 1.3414866e+2, -1021798.25, -1571204.4, -35509.094, -0.07767979, -0.04524924, -1019512.75, 605828.94, 0.012656659, 10.005192, 9.997818 
1.5651481e+3, 1.4414671e+2, -1006298.94, -1529286.0, -1141.5552, 0.15528974, -0.0135494545, -1006296.44, 521063.97, 0.0057724747, 10.004657, 9.997684 
1.5651385e+3, 1.5414432e+2, -1014552.1, -1483010.0, 11054.127, 0.026953155, -0.024691848, -1014291.44, 415093.22, 0.0016122814, 10.003908, 9.997688 
1.5651295e+3, 1.6414233e+2, -959314.5, -1336912.3, -6987.346, -0.045956198, -0.019767718, -959185.25, 372219.53, 0.00017757353, 10.003313, 9.998304 
1.565121e+3, 1.7414084e+2, -910569.7, -1253716.1, -15769.004, -0.0056776064, -0.0080424, -909846.56, 323572.97, 0.0000016137079, 10.002935, 9.998384 
1.5651125e+3, 1.841395e+2, -857173.9, -1138954.4, -32077.035, 0.028570188, 0.006877691, -853568.44, 281864.25, 0.0, 10.002463, 9.998728 
1.5651037e+3, 1.9413845e+2, -841803.56, -1074776.3, -33545.27, 0.042034946, 0.02078217, -837069.6, 200373.45, 0.0, 10.00187, 9.998781 
1.5650947e+3, 2.0413728e+2, -814945.8, -986181.5, -32918.188, 0.050568003, 0.017763056, -808835.7, 130618.56, 0.0, 10.001274, 9.999004 
1.5650856e+3, 2.1413602e+2, -801272.06, -924385.2, -29067.813, 0.055587042, -0.016751444, -794754.06, 46712.176, 0.0, 10.000676, 9.999044 
1.5650766e+3, 2.2413515e+2, -757695.5, -801821.1, -37965.746, 0.047453795, -0.026436608, -735847.44, 7626.3853, 0.0, 10.000086, 9.999496 
1.565067e+3, 2.341349e+2, -739795.1, -736341.1, -44897.406, 0.020235151, -0.00965943, -693137.5, -47662.516, 0.0, 9.999509, 9.999552 
1.5650578e+3, 2.4413449e+2, -705639.1, -637662.75, -44817.133, 0.008664508, -0.016254062, -615403.5, -67925.68, 0.0, 9.998936, 9.999832 
1.5650487e+3, 2.541339e+2, -686424.25, -572355.1, -46466.164, 0.019338135, -0.066094674, -555823.06, -106340.27, 0.0, 9.998372, 9.999879 
1.5650396e+3, 2.6413375e+2, -647083.4, -461089.72, -49178.258, 0.033126913, -0.08271522, -448887.16, -97403.79, 0.0, 9.997791, 10.000249 
1.5650305e+3, 2.7413428e+2, -635935.6, -399587.25, -55407.31, 0.05041015, -0.06350262, -387242.8, -133765.05, 0.0, 9.997171, 10.000297 
1.5650216e+3, 2.8413472e+2, -612938.4, -341231.22, -23668.25, 0.05476821, -0.046442255, -339184.9, -183710.95, 0.0, 9.996671, 10.000266 
1.5650131e+3, 2.9413515e+2, -568202.9, -274199.47, -24289.805, 0.040189296, -0.03185305, -272206.22, -214734.77, 0.0, 9.996327, 10.000218 
1.5650044e+3, 3.0413514e+2, -573563.2, -197322.34, -8073.1553, 0.012250497, -0.07238732, -197149.19, -197149.19, 0.0, 9.995723, 10.000704 
1.5649961e+3, 3.1413624e+2, -563458.3, 39960.418, 18847.4, 0.0002591463, -0.050050646, 40548.53, 40548.53, 0.0, 9.994789, 10.002784 
1.5751709e+3, 1.241598e+2, -1142897.6, -1790460.1, 28019.664, 0.07964967, -0.0038084064, -1141687.5, 581545.4, 0.021854678, 10.00556, 9.996802 
1.5751594e+3, 1.3415697e+2, -1045304.25, -1620068.5, -49470.34, -0.08993499, -0.0345228, -1041077.4, 584183.75, 0.01342993, 10.005195, 9.9974785 
1.5751526e+3, 1.4415497e+2, -987434.06, -1490108.9, -28832.719, 0.14665085, -0.0018013237, -985785.6, 541494.8, 0.0061563062, 10.004658, 9.997953 
1.5751426e+3, 1.5415315e+2, -991043.6, -1435081.5, -17016.496, 0.04030514, 0.012267823, -990392.5, 438905.1, 0.0017370282, 10.003912, 9.998016 
1.5751329e+3, 1.6415107e+2, -971411.06, -1364133.1, -23194.336, -0.023749918, 0.00074373616, -970045.94, 361271.63, 0.00019699702, 10.003321, 9.998115 
1.5751241e+3, 1.7414863e+2, -927078.44, -1288896.4, -29674.645, 0.011533345, -0.060599998, -924660.8, 308680.94, 0.0000019795527, 10.002938, 9.998142 
1.575115e+3, 1.8414702e+2, -861827.5, -1148713.0, -54111.01, 0.03239405, -0.058729857, -851960.7, 283397.53, 0.0, 10.002462, 9.998662 
1.5751052e+3, 1.9414662e+2, -845641.9, -1082841.6, -55738.875, 0.02093924, 0.026280453, -833196.9, 204166.44, 0.0, 10.001869, 9.998727 
1.5750957e+3, 2.0414577e+2, -809692.0, -975148.0, -55610.53, 0.026677351, 0.05425658, -792738.25, 146633.38, 0.0, 10.001272, 9.999082 
1.5750864e+3, 2.141443e+2, -795181.56, -911977.5, -50780.246, 0.060455017, -0.0078577725, -776191.2, 65193.273, 0.0, 10.000675, 9.99913 
1.5750767e+3, 2.2414316e+2, -766146.56, -819464.2, -59614.05, 0.061119232, -0.04511719, -727502.06, 15892.359, 0.0, 10.000085, 9.999377 
1.5750666e+3, 2.3414248e+2, -749316.94, -756399.8, -65754.3, 0.014544605, -0.056453913, -687008.75, -41608.58, 0.0, 9.999509, 9.999414 
1.5750566e+3, 2.4414213e+2, -706021.8, -638491.8, -65575.86, 0.002342184, -0.0509851, -598498.6, -51095.375, 0.0, 9.998934, 9.999827 
1.5750472e+3, 2.5414225e+2, -686482.25, -572062.1, -66029.836, 0.036956854, -0.028563756, -541905.5, -92503.47, 0.0, 9.998368, 9.999883 
1.5750375e+3, 2.6414233e+2, -652456.94, -472050.13, -70887.45, 0.04171144, -0.023079306, -447529.16, -96128.08, 0.0, 9.997789, 10.000176 
1.5750273e+3, 2.7414218e+2, -641133.9, -411081.8, -76707.305, 0.0065479693, -0.06009462, -387850.84, -134449.64, 0.0, 9.997173, 10.000218 
1.5750179e+3, 2.8414232e+2, -609918.25, -335331.16, -36020.844, 0.004673239, -0.072517894, -330684.53, -175284.36, 0.0, 9.996671, 10.000307 
1.5750095e+3, 2.9414302e+2, -563801.2, -266399.6, -34967.51, 0.044498708, -0.03463825, -262343.56, -204948.56, 0.0, 9.996331, 10.000272 
1.5750004e+3, 3.041437e+2, -559917.7, -169855.77, -40642.62, 0.042973056, -0.016807856, -165666.0, -165666.0, 0.0, 9.995726, 10.000892 
1.5749909e+3, 3.1414416e+2, -550283.25, 67881.32, -9610.755, -0.008286782, -0.08027318, 68030.7, 68030.7, 0.0, 9.994784, 10.002978 
1.5851766e+3, 1.241688e+2, -1105009.0, -1773309.0, 47811.273, 0.09101776, 0.010051907, -1101605.9, 621539.1, 0.023138814, 10.005843, 9.996782 
1.5851645e+3, 1.341659e+2, -1055852.4, -1625392.6, -21241.918, -0.09700879, -0.027088692, -1055061.1, 570112.4, 0.014264449, 10.005129, 9.997472 
1.585157e+3, 1.441638e+2, -1006357.2, -1502172.8, 3642.188, 0.13749945, -0.0027402726, -1006330.44, 520863.3, 0.006572732, 10.004544, 9.997924 
1.5851468e+3, 1.5416193e+2, -957914.0, -1421984.5, -11905.375, 0.0519819, 0.008598023, -957608.75, 471602.75, 0.0018731607, 10.004155, 9.997987 
1.5851367e+3, 1.6415986e+2, -929474.25, -1343276.3, -25148.074, -0.0036451237, -0.00053069834, -927951.5, 403279.9, 0.00021839466, 10.003609, 9.998117 
1.5851271e+3, 1.741575e+2, -937921.06, -1293761.0, -15525.263, 0.022394793, -0.053618092, -937245.0, 296009.75, 0.000002466339, 10.002865, 9.998143 
1.5851173e+3, 1.8415584e+2, -891088.25, -1166774.8, -26215.996, 0.035536014, -0.054850943, -888617.44, 246654.22, 0.0, 10.00228, 9.998624 
1.585107e+3, 1.9415522e+2, -841761.3, -1085672.1, -27358.104, 0.017364271, 0.012818189, -838730.4, 198548.42, 0.0, 10.001918, 9.998683 
1.5850969e+3, 2.0415431e+2, -788968.75, -964741.25, -34750.816, 0.019145915, 0.036729727, -782347.8, 156939.92, 0.0, 10.001414, 9.9990835 
1.585087e+3, 2.14153e+2, -788270.25, -908215.2, -38535.816, 0.052115194, -0.010793413, -776956.6, 64342.508, 0.0, 10.000723, 9.999132 
1.5850769e+3, 2.241519e+2, -760427.9, -814229.0, -41592.715, 0.057477683, -0.043542117, -737794.7, 5513.8643, 0.0, 10.0001135, 9.999398 
1.5850662e+3, 2.3415115e+2, -730358.56, -744443.9, -35542.9, 0.02367494, -0.06500443, -701167.3, -55852.27, 0.0, 9.999628, 9.999438 
1.5850556e+3, 2.441508e+2, -699709.56, -639288.94, -35640.266, 0.0128123965, -0.057431653, -622777.8, -75459.67, 0.0, 9.998997, 9.99979 
1.5850455e+3, 2.541511e+2, -720289.7, -593776.7, -42335.03, 0.032080997, -0.013994649, -580917.2, -131601.27, 0.0, 9.998161, 9.999833 
1.585035e+3, 2.6415116e+2, -688042.5, -499368.88, -39419.895, 0.02959884, -0.0013294716, -491464.0, -140148.7, 0.0, 9.997589, 10.000084 
1.5850244e+3, 2.741508e+2, -616850.0, -409732.1, -46509.848, -0.0008011818, -0.05242221, -399767.38, -146449.56, 0.0, 9.997386, 10.000124 
1.5850145e+3, 2.841508e+2, -565280.3, -298063.6, -9138.883, 0.0011325758, -0.07685388, -297751.4, -142433.81, 0.0, 9.996912, 10.000446 
1.5850057e+3, 2.9415166e+2, -595068.56, -262887.8, -2771.2773, 0.04449402, -0.041350063, -262864.7, -205554.3, 0.0, 9.996039, 10.000435 
1.5849961e+3, 3.0415285e+2, -608629.75, -190684.72, -10198.893, 0.053240847, 0.015859723, -190435.98, -190435.98, 0.0, 9.995381, 10.000914 
1.5849857e+3, 3.1415284e+2, -524450.7, 62834.164, 6725.057, -0.013340533, -0.092564724, 62911.164, 62911.164, 0.0, 9.99504, 10.002819 
1.5951829e+3, 1.24178216e+2, -1087950.9, -1735204.8, 34331.082, 0.1183496, 0.027107669, -1086135.0, 636918.6, 0.024521464, 10.005842, 9.997045 
1.5951696e+3, 1.3417546e+2, -1034699.44, -1582565.5, -48163.563, -0.101317056, -0.02415368, -1030497.5, 594581.5, 0.015165077, 10.0051365, 9.997767 
1.5951616e+3, 1.4417323e+2, -1028016.3, -1548320.1, -13163.886, 0.12441121, -0.015633076, -1027683.44, 499416.84, 0.0070239394, 10.004549, 9.997604 
1.595151e+3, 1.5417069e+2, -984693.06, -1477394.0, -26206.688, 0.060226385, -0.033057842, -983303.0, 445822.94, 0.0020211523, 10.004154, 9.997608 
1.5951404e+3, 1.641687e+2, -917318.44, -1317868.4, -52615.53, 0.012267834, -0.021927955, -910522.3, 420623.6, 0.00024140986, 10.003608, 9.998293 
1.59513e+3, 1.7416741e+2, -921895.4, -1261440.4, -43221.395, 0.024069885, 0.009969805, -916480.0, 316678.66, 0.0000030340082, 10.002868, 9.998364 
1.5951197e+3, 1.8416594e+2, -891276.9, -1168108.1, -41461.355, 0.03350152, 0.01604015, -885200.5, 249972.63, 0.0, 10.002283, 9.998614 
1.5951091e+3, 1.9416426e+2, -843989.5, -1090638.8, -40301.453, 0.029821606, -0.018697165, -837571.4, 199617.98, 0.0, 10.001918, 9.99865 
1.5950985e+3, 2.0416293e+2, -795389.4, -978344.0, -59878.563, 0.026692998, -0.032362066, -777534.44, 161667.89, 0.0, 10.001414, 9.998991 
1.5950875e+3, 2.1416205e+2, -795224.3, -922627.56, -64068.633, 0.0279519, -0.025367519, -768578.3, 72632.15, 0.0, 10.000721, 9.999035 
1.5950768e+3, 2.2416133e+2, -748832.06, -790180.4, -60688.996, 0.033982437, -0.02255718, -705392.44, 37824.15, 0.0, 10.000112, 9.999565 
1.595066e+3, 2.3416086e+2, -717399.94, -716855.56, -52552.76, 0.04511068, -0.035768837, -664574.25, -19354.51, 0.0, 9.999623, 9.999631 
1.5950549e+3, 2.441605e+2, -706491.75, -653091.94, -65332.5, 0.037012752, -0.035661016, -609214.06, -61991.313, 0.0, 9.998994, 9.999699 
1.5950434e+3, 2.5416037e+2, -727906.7, -610643.7, -72223.12, 0.0029332964, -0.023313237, -576249.2, -127024.266, 0.0, 9.998164, 9.999717 
1.5950324e+3, 2.6416025e+2, -695308.4, -515659.4, -47976.402, -0.0039107413, -0.017210973, -503649.84, -152423.38, 0.0, 9.997593, 9.999971 
1.5950221e+3, 2.7416006e+2, -624856.3, -426618.28, -51978.12, 0.024818616, -0.038239963, -413816.3, -160588.5, 0.0, 9.997385, 10.00001 
1.5950118e+3, 2.8416017e+2, -549512.75, -265437.25, -38441.824, 0.0392638, -0.058750883, -260327.11, -105100.54, 0.0, 9.996911, 10.000671 
1.5950015e+3, 2.9416096e+2, -576558.94, -225136.94, -33834.574, 0.033980757, -0.05656707, -221909.03, -164690.36, 0.0, 9.996041, 10.000694 
1.5949914e+3, 3.041624e+2, -619859.56, -213393.75, -23920.342, 0.03775367, 0.02269191, -211990.89, -211990.89, 0.0, 9.995378, 10.00076 
1.5949807e+3, 3.141623e+2, -562649.6, -17226.16, -3252.9548, -0.01915494, -0.07269824, -17206.76, -17206.76, 0.0, 9.995042, 10.002269 
1.6051885e+3, 1.2418787e+2, -1077265.1, -1730051.5, 68241.78, 0.107658915, 0.0130680725, -1070207.5, 652751.56, 0.02601367, 10.005927, 9.997039 
1.605175e+3, 1.3418524e+2, -1009540.56, -1567140.3, -50927.0, -0.09041371, -0.028197143, -1004927.44, 620055.8, 0.0161388, 10.005304, 9.997793 
1.6051662e+3, 1.4418313e+2, -1012739.3, -1537124.5, -8616.923, 0.134375, -0.0098653035, -1012597.75, 514405.63, 0.0075135026, 10.004644, 9.997634 
1.605155e+3, 1.5418051e+2, -1006797.6, -1484482.0, 6323.1626, 0.060155343, -0.037828382, -1006713.94, 422315.8, 0.002182212, 10.003989, 9.997638 
1.6051438e+3, 1.6417852e+2, -944011.25, -1335075.1, -12056.286, 0.0064663603, -0.025987117, -943639.94, 387409.94, 0.00026599487, 10.003445, 9.998252 
1.605133e+3, 1.741774e+2, -898873.9, -1255343.1, -23428.668, 0.01858195, 0.02648512, -897340.6, 335720.94, 0.0000036433328, 10.00305, 9.998317 
1.6051221e+3, 1.8417595e+2, -854413.7, -1144272.9, -29253.305, 0.03317878, 0.03574406, -851490.8, 283584.9, 0.0, 10.002513, 9.998666 
1.605111e+3, 1.941741e+2, -859606.1, -1091839.6, -23017.29, 0.039285365, -0.021716878, -857346.8, 179746.06, 0.0, 10.001786, 9.998704 
1.6050999e+3, 2.0417272e+2, -823133.4, -990031.25, -34270.684, 0.03639414, -0.044438943, -816370.3, 122735.75, 0.0, 10.001218, 9.999004 
1.6050883e+3, 2.1417195e+2, -772543.4, -910885.06, -30829.82, 0.024851764, -0.026428048, -765983.9, 75129.5, 0.0, 10.000875, 9.999041 
1.605077e+3, 2.2417134e+2, -718816.8, -773237.9, -33432.05, 0.029906573, -0.014628742, -702921.5, 40197.24, 0.0, 10.000309, 9.999585 
1.6050656e+3, 2.3417094e+2, -743721.44, -728068.56, -41193.676, 0.054606415, -0.021513397, -693964.44, -48843.18, 0.0, 9.999437, 9.999642 
1.6050538e+3, 2.441705e+2, -732498.6, -666010.94, -53351.793, 0.04133041, -0.030362543, -636393.3, -89268.44, 0.0, 9.998817, 9.999694 
1.6050413e+3, 2.5417006e+2, -672357.2, -584120.7, -52437.883, -0.022877892, -0.047855694, -559710.44, -110580.99, 0.0, 9.9985485, 9.999712 
1.6050299e+3, 2.6416996e+2, -626746.6, -476917.1, -17088.926, -0.028175263, -0.04274322, -474992.72, -123861.98, 0.0, 9.998043, 10.000018 
1.6050196e+3, 2.7417022e+2, -647529.56, -432366.7, -10343.3125, 0.044499315, -0.024207408, -431870.63, -178742.4, 0.0, 9.99721, 10.000052 
1.6050088e+3, 2.841704e+2, -604883.0, -297133.78, -3242.8867, 0.061615884, -0.03876584, -297099.63, -141973.14, 0.0, 9.996553, 10.000625 
1.6049974e+3, 2.9417068e+2, -566579.3, -225364.94, -24166.178, 0.00502528, -0.077442415, -223661.89, -166539.14, 0.0, 9.996133, 10.000648 
1.6049866e+3, 3.0417216e+2, -574278.3, -181334.0, -10600.406, 0.014119364, -0.0027092649, -181048.25, -181048.25, 0.0, 9.995648, 10.000849 
1.6049759e+3, 3.1417257e+2, -578553.9, -51187.5, 26701.621, 0.0002869921, -0.05093931, -49838.992, -49838.992, 0.0, 9.9950485, 10.00203 
1.6151941e+3, 1.2419781e+2, -1094819.4, -1766473.0, 58997.684, 0.06443728, -0.03166857, -1089676.4, 633184.44, 0.027630365, 10.005932, 9.996787 
1.6151805e+3, 1.341953e+2, -1026226.56, -1601440.0, -74381.47, -0.0672858, -0.036858656, -1016763.9, 608121.75, 0.017197374, 10.005306, 9.997554 
1.6151711e+3, 1.4419356e+2, -988591.75, -1486153.1, -33750.46, 0.16281095, 0.014940263, -986312.9, 540589.7, 0.008048816, 10.0046425, 9.997987 
1.6151589e+3, 1.5419139e+2, -978221.4, -1426276.1, -17769.154, 0.049014684, -0.008452279, -977517.8, 451405.3, 0.002359671, 10.003994, 9.998035 
1.615147e+3, 1.6418935e+2, -960911.25, -1371277.5, -28462.842, -0.024184283, -0.013591381, -958946.5, 371997.03, 0.00029283683, 10.0034485, 9.998002 
1.6151358e+3, 1.7418748e+2, -920370.0, -1300590.0, -37584.125, 0.005427869, -0.0019703682, -916690.44, 316272.8, 0.000004294035, 10.003051, 9.998007 
1.6151245e+3, 1.841859e+2, -847901.3, -1130664.4, -55785.44, 0.033047263, 0.0063703004, -837293.56, 297685.66, 0.0, 10.002511, 9.998761 
1.6151129e+3, 1.9418474e+2, -850425.7, -1073494.1, -49842.36, 0.042933032, 0.0029026621, -839795.5, 197194.03, 0.0, 10.001788, 9.998829 
1.6151012e+3, 2.0418364e+2, -814736.5, -973098.7, -48556.477, 0.04444558, -0.0010361531, -801033.9, 137965.4, 0.0, 10.001219, 9.999121 
1.6150893e+3, 2.1418269e+2, -764705.25, -894117.06, -42562.57, 0.040659256, -0.014343914, -751961.6, 89046.42, 0.0, 10.000872, 9.999158 
1.6150773e+3, 2.2418192e+2, -729990.0, -796161.5, -64612.98, 0.042560067, -0.018697865, -690484.4, 52530.707, 0.0, 10.000306, 9.999431 
1.615065e+3, 2.3418136e+2, -755845.3, -754126.4, -73120.14, 0.0507695, -0.021805964, -681860.6, -36840.867, 0.0, 9.999439, 9.999464 
1.6150525e+3, 2.4418077e+2, -726606.44, -654398.75, -64809.594, 0.024648901, -0.041146174, -616315.2, -69290.31, 0.0, 9.998818, 9.999774 
1.6150397e+3, 2.5418013e+2, -665410.8, -569133.8, -60647.883, -0.048818678, -0.08671756, -539841.8, -90812.05, 0.0, 9.998545, 9.999818 
1.6150276e+3, 2.6418024e+2, -613903.2, -450258.25, -45522.855, -0.047548328, -0.07703844, -438447.13, -87418.66, 0.0, 9.99804, 10.000203 
1.6150169e+3, 2.7418116e+2, -633326.0, -404452.97, -39762.62, 0.055314243, -0.011197336, -397741.72, -144722.06, 0.0, 9.997214, 10.000243 
1.6150054e+3, 2.8418133e+2, -627398.9, -344724.28, -19484.209, 0.0663335, -0.017355325, -343387.6, -188369.63, 0.0, 9.996556, 10.000298 
1.614993e+3, 2.941808e+2, -591954.06, -278485.56, -38090.813, -0.046646446, -0.10329285, -273923.38, -216900.2, 0.0, 9.996133, 10.000283 
1.6149819e+3, 3.041819e+2, -551713.1, -134886.0, -31145.41, -0.022699337, -0.059788316, -132571.66, -132571.66, 0.0, 9.995649, 10.001167 
1.6149715e+3, 3.1418368e+2, -574376.06, -42317.324, 521.32434, 0.03882724, -0.012687404, -42316.813, -42316.813, 0.0, 9.995047, 10.002092 
1.6252002e+3, 1.242089e+2, -1068781.6, -1754849.4, 91513.484, 0.06652558, -0.019138992, -1056784.6, 665968.56, 0.029387979, 10.006134, 9.996769 
1.6251858e+3, 1.3420632e+2, -1038417.75, -1610317.1, -45834.332, -0.061787512, -0.028252546, -1034767.7, 590011.1, 0.018354284, 10.005241, 9.997523 
1.6251756e+3, 1.4420469e+2, -1005641.7, -1491066.1, 1587.6577, 0.15199064, 0.035362836, -1005636.5, 521158.16, 0.0086386865, 10.004513, 9.998014 
1.625163e+3, 1.5420252e+2, -962850.3, -1414413.8, -9024.213, 0.047590874, 0.0071947123, -962670.06, 466145.16, 0.0025580546, 10.004085, 9.998072 
1.6251504e+3, 1.6420045e+2, -936343.2, -1350102.6, -21209.225, -0.019213546, -0.004639006, -935258.8, 395576.53, 0.00032325933, 10.00358, 9.998083 
1.625139e+3, 1.7419858e+2, -926389.2, -1294463.6, -3042.9941, 0.014403739, -0.0033504495, -926364.06, 306490.88, 0.000005034694, 10.002974, 9.998085 
1.625127e+3, 1.8419701e+2, -860802.44, -1137740.0, -12196.136, 0.03825843, 0.0021271897, -860266.4, 274604.22, 0.0, 10.002428, 9.998752 
1.6251147e+3, 1.941959e+2, -826059.75, -1063734.6, -18074.762, 0.032287646, 0.006628116, -824693.06, 212187.39, 0.0, 10.0019655, 9.99881 
1.6251023e+3, 2.0419483e+2, -789304.5, -955412.94, -23510.613, 0.03376417, 0.005307783, -786041.0, 152848.88, 0.0, 10.001371, 9.999167 
1.6250902e+3, 2.1419388e+2, -802101.6, -906410.0, -24134.902, 0.05022947, -0.013679801, -796787.94, 44110.44, 0.0, 10.000591, 9.9992075 
1.6250776e+3, 2.2419308e+2, -775982.4, -823396.2, -45299.375, 0.050079174, -0.020315139, -748561.5, -5655.855, 0.0, 10.000013, 9.999384 
1.6250643e+3, 2.341925e+2, -719772.44, -742802.94, -45181.39, 0.025865482, -0.020420086, -684661.94, -39750.97, 0.0, 9.999715, 9.999408 
1.6250512e+3, 2.441919e+2, -665989.6, -623308.2, -31356.021, 0.00012966362, -0.0385572, -606719.7, -59803.492, 0.0, 9.999229, 9.999788 
1.6250384e+3, 2.5419128e+2, -672656.7, -570838.25, -35489.12, -0.029872622, -0.084738374, -559689.2, -110768.86, 0.0, 9.998488, 9.999832 
1.6250259e+3, 2.6419133e+2, -652118.6, -475501.9, -39430.7, -0.023130817, -0.07812388, -467098.6, -116179.19, 0.0, 9.9978075, 10.000141 
1.625014e+3, 2.741921e+2, -641017.0, -415209.0, -54618.91, 0.034832474, -0.018095797, -402691.56, -149779.28, 0.0, 9.997194, 10.000177 
1.6250017e+3, 2.8419232e+2, -616371.2, -338114.5, -23665.32, 0.033068646, -0.018755414, -336116.16, -181205.64, 0.0, 9.996628, 10.000306 
1.624989e+3, 2.94192e+2, -590224.3, -275386.0, -14539.042, -0.049788956, -0.087199695, -274716.0, -217802.38, 0.0, 9.996138, 10.0003 
1.6249776e+3, 3.0419278e+2, -550049.75, -122881.09, -3510.96, -0.011775747, -0.08028208, -122852.234, -122852.234, 0.0, 9.995612, 10.001268 
1.6249663e+3, 3.141949e+2, -583804.2, -46636.2, -861.3772, 0.033376966, -0.008722411, -46634.82, -46634.82, 0.0, 9.994978, 10.002098 
1.6352068e+3, 1.24221146e+2, -1056287.8, -1726064.6, 75004.91, 0.11130769, 0.048089113, -1047991.06, 674644.6, 0.031300142, 10.006136, 9.996965 
1.6351908e+3, 1.3421828e+2, -1027311.4, -1588311.4, -79034.39, -0.07636812, -0.006241924, -1016389.56, 608273.56, 0.019619357, 10.00525, 9.997675 
1.6351797e+3, 1.4421651e+2, -1025215.0, -1531961.6, -17043.957, 0.10026927, 0.049257334, -1024642.4, 502037.6, 0.009289014, 10.004516, 9.997731 
1.6351672e+3, 1.5421389e+2, -984664.8, -1460868.4, -24089.379, 0.054001868, 0.010501213, -983449.3, 445256.28, 0.0027805795, 10.004087, 9.997752 
1.6351545e+3, 1.6421188e+2, -908883.06, -1293046.3, -43589.68, 0.017528437, 0.0014607297, -903999.2, 426726.03, 0.00035863376, 10.003579, 9.998476 
1.6351423e+3, 1.7421064e+2, -895051.7, -1229931.5, -25459.076, 0.041849837, 0.02105817, -893127.25, 339609.63, 0.000005927034, 10.002974, 9.998528 
1.6351295e+3, 1.842092e+2, -868992.94, -1154627.3, -30356.291, 0.044717822, 0.021797784, -865802.4, 268947.97, 0.0, 10.002426, 9.998636 
1.6351163e+3, 1.9420756e+2, -837405.75, -1087528.4, -34644.04, 0.006647728, -0.009842682, -832696.0, 204069.83, 0.0, 10.001965, 9.998648 
1.6351034e+3, 2.0420627e+2, -791847.3, -960828.7, -51908.383, 0.0034525134, -0.024110511, -777175.75, 161602.03, 0.0, 10.00137, 9.999132 
1.6350909e+3, 2.1420547e+2, -804167.06, -911089.3, -52758.934, 0.051760312, -0.023986012, -782517.56, 58267.05, 0.0, 10.000591, 9.999176 
1.6350774e+3, 2.2420481e+2, -771525.0, -814203.3, -58000.258, 0.049930323, -0.019033322, -731062.94, 11727.668, 0.0, 10.000012, 9.999448 
1.6350636e+3, 2.3420434e+2, -714975.2, -732754.3, -55087.17, -0.021740476, -0.017303167, -668064.94, -23269.75, 0.0, 9.999713, 9.999478 
1.6350502e+3, 2.4420384e+2, -671335.06, -634316.7, -57176.68, -0.034846067, -0.022011241, -592727.94, -45928.855, 0.0, 9.999227, 9.999715 
1.6350375e+3, 2.542034e+2, -678433.3, -583927.75, -61646.563, 0.03153295, -0.04230438, -553507.3, -104705.64, 0.0, 9.998491, 9.9997425 
1.6350242e+3, 2.6420313e+2, -673619.56, -520674.34, -61962.316, 0.04286262, -0.046776302, -498722.4, -147918.3, 0.0, 9.997808, 9.999832 
1.6350105e+3, 2.7420303e+2, -663973.7, -463228.3, -75948.88, -0.020791858, -0.045397196, -437732.38, -184925.73, 0.0, 9.997193, 9.999848 
1.6349976e+3, 2.8420326e+2, -592943.1, -290095.28, -41495.707, -0.04254489, -0.043070998, -284512.53, -129707.77, 0.0, 9.996629, 10.000637 
1.6349857e+3, 2.9420415e+2, -562154.56, -218974.27, -30641.732, -0.008596062, -0.027800841, -216259.81, -159465.1, 0.0, 9.996143, 10.000686 
1.6349737e+3, 3.0420464e+2, -557944.4, -139431.66, -25909.1, 0.043645397, -0.062325694, -137833.8, -137833.8, 0.0, 9.995611, 10.001155 
1.6349608e+3, 3.1420612e+2, -585355.0, -49335.496, -30658.205, -0.01883047, -0.038464755, -47587.668, -47587.668, 0.0, 9.994976, 10.002081 
1.6452129e+3, 1.2423378e+2, -1039452.75, -1716011.5, 115214.7, 0.11035573, 0.075630374, -1020370.44, 702142.8, 0.03337388, 10.006262, 9.996976 
1.6451962e+3, 1.342307e+2, -1014258.4, -1588318.0, -71017.63, -0.06389012, 0.006663522, -1005603.2, 618939.3, 0.020996645, 10.005379, 9.997612 
1.645184e+3, 1.4422897e+2, -1007866.3, -1526455.9, 8503.223, 0.0888985, 0.06863923, -1007726.9, 518832.22, 0.010002108, 10.004653, 9.997702 
1.6451712e+3, 1.5422615e+2, -968883.8, -1456657.4, 22724.3, 0.057548407, 0.014624359, -967827.44, 460759.03, 0.0030283493, 10.004213, 9.99772 
1.6451581e+3, 1.6422407e+2, -899075.06, -1286799.5, -6407.701, 0.027223134, 0.001551263, -898969.2, 431637.3, 0.00039978, 10.00364, 9.998488 
1.6451451e+3, 1.7422298e+2, -906459.7, -1233296.4, -20732.441, 0.046884637, 0.033442628, -905149.75, 327466.9, 0.0000070009137, 10.002888, 9.998546 
1.645132e+3, 1.8422163e+2, -885939.25, -1157859.4, -27857.602, 0.04710655, 0.037873622, -883114.6, 251514.78, 0.0, 10.002291, 9.998679 
1.6451183e+3, 1.9421993e+2, -844822.56, -1086504.8, -17851.95, 0.006888993, -0.0027775846, -843511.06, 193134.22, 0.0, 10.001896, 9.998687 
1.6451047e+3, 2.042186e+2, -789560.2, -957079.06, -35096.58, 0.00046578082, -0.023359746, -782504.4, 156152.94, 0.0, 10.001376, 9.999154 
1.6450913e+3, 2.142178e+2, -788522.56, -901648.1, -34475.33, 0.044015333, -0.02520916, -778844.1, 61819.695, 0.0, 10.000692, 9.999191 
1.6450775e+3, 2.242171e+2, -761355.4, -813275.2, -28373.262, 0.044912208, -0.02175853, -748858.06, -6188.1807, 0.0, 10.0001, 9.999411 
1.6450633e+3, 2.3421659e+2, -729459.25, -744666.44, -34905.277, -0.01476659, -0.020732569, -701339.0, -56663.992, 0.0, 9.999636, 9.999433 
1.6450495e+3, 2.4421613e+2, -696281.6, -645748.75, -51213.8, -0.023265883, -0.021199666, -613907.9, -67229.08, 0.0, 9.999053, 9.99972 
1.6450359e+3, 2.5421578e+2, -705967.94, -596308.44, -50562.59, 0.038218025, -0.031540584, -576553.44, -127873.15, 0.0, 9.9983, 9.999748 
1.645022e+3, 2.6421538e+2, -686581.7, -539559.9, -28032.154, 0.043240912, -0.041919183, -534396.44, -183712.66, 0.0, 9.997776, 9.999716 
1.6450079e+3, 2.742149e+2, -618519.3, -456133.06, -27650.352, -0.029268246, -0.065882705, -451554.0, -198863.89, 0.0, 9.997571, 9.999714 
1.6449943e+3, 2.842151e+2, -538854.94, -258084.27, -8823.329, -0.048207853, -0.06102549, -257807.27, -103118.82, 0.0, 9.996975, 10.000689 
1.6449818e+3, 2.942164e+2, -605590.7, -231551.34, -24711.588, 0.0059953015, -0.009430333, -229925.8, -173251.73, 0.0, 9.9958105, 10.000758 
1.6449693e+3, 3.0421674e+2, -633718.4, -193022.9, -13304.223, 0.044218075, -0.06191166, -192621.64, -192621.64, 0.0, 9.995168, 10.0009985 
1.6449557e+3, 3.142179e+2, -535010.6, -12161.062, -27433.834, -0.03687641, -0.05025131, -10725.554, -10725.554, 0.0, 9.995267, 10.002194 
1.6552188e+3, 1.2424676e+2, -1051204.6, -1738081.4, 94999.31, 0.06965387, 0.060049225, -1038307.8, 684078.44, 0.035608724, 10.006263, 9.996823 
1.655202e+3, 1.3424364e+2, -1032073.5, -1626611.0, -103595.516, -0.02746191, 0.012935968, -1014539.56, 609877.25, 0.022485627, 10.005387, 9.997344 
1.655189e+3, 1.4424202e+2, -994343.8, -1497452.5, -9785.345, 0.11162785, 0.09318349, -994153.56, 532278.5, 0.0107786115, 10.004652, 9.997905 
1.6551754e+3, 1.5423924e+2, -953160.06, -1423778.9, 6811.228, 0.054718383, 0.018089483, -953061.5, 475396.66, 0.0033017285, 10.004211, 9.997948 
1.6551617e+3, 1.6423704e+2, -923640.4, -1337425.4, -34136.85, 0.0075544883, -0.0054153325, -920843.0, 409636.66, 0.00044699028, 10.003637, 9.998143 
1.6551478e+3, 1.7423561e+2, -933009.8, -1289934.8, -47893.53, 0.029345667, 0.034700148, -926695.0, 305799.28, 0.000008273259, 10.0028925, 9.998156 
1.6551341e+3, 1.8423423e+2, -872258.4, -1130735.9, -43283.926, 0.043390565, 0.050920263, -865202.8, 269304.8, 0.0, 10.002295, 9.998864 
1.6551204e+3, 1.9423294e+2, -829168.0, -1053793.4, -31918.564, 0.03017702, 0.026826853, -824720.56, 211798.48, 0.0, 10.001893, 9.998913 
1.6551064e+3, 2.0423178e+2, -784478.25, -946175.3, -60109.98, 0.021247013, 0.006455014, -764581.06, 173947.72, 0.0, 10.001373, 9.999231 
1.6550918e+3, 2.1423082e+2, -783934.1, -892815.44, -59346.176, 0.0249629, -0.017792126, -757840.56, 82695.57, 0.0, 10.000694, 9.999252 
1.6550775e+3, 2.2422995e+2, -771363.06, -834909.56, -46436.074, 0.03264188, -0.028405994, -746870.44, -4326.8423, 0.0, 10.000102, 9.999263 
1.6550635e+3, 2.3422922e+2, -741122.44, -769339.5, -51102.38, 0.04361651, -0.03077838, -702216.8, -57665.86, 0.0, 9.999636, 9.999265 
1.6550489e+3, 2.4422865e+2, -690702.94, -634215.5, -77993.28, 0.031387907, -0.0362379, -579509.5, -32953.777, 0.0, 9.999051, 9.999801 
1.6550337e+3, 2.5422835e+2, -698421.5, -581436.3, -77249.32, -0.011862466, -0.052671608, -543032.9, -94476.31, 0.0, 9.9983015, 9.99985 
1.6550192e+3, 2.6422805e+2, -681778.0, -530686.6, -36052.336, -0.023646515, -0.06272819, -522524.97, -171966.22, 0.0, 9.997778, 9.999777 
1.6550057e+3, 2.742277e+2, -613838.1, -448585.75, -32791.996, 0.0060695144, -0.07726235, -442316.47, -189753.44, 0.0, 9.997578, 9.999764 
1.6549918e+3, 2.8422785e+2, -554956.3, -292410.8, -49097.563, 0.013226882, -0.07221522, -283529.72, -128967.55, 0.0, 9.996978, 10.000453 
1.6549774e+3, 2.9422873e+2, -622989.6, -267772.22, -67496.68, -0.010487705, -0.03517571, -255379.2, -198826.6, 0.0, 9.99581, 10.000511 
1.6549638e+3, 3.0422887e+2, -648384.7, -222872.13, -11879.507, -0.01429283, -0.08179075, -222540.73, -222540.73, 0.0, 9.995164, 10.000796 
1.6549511e+3, 3.142301e+2, -518084.2, 22320.383, -26274.041, -0.024182985, -0.048337936, 23594.8, 23594.8, 0.0, 9.995269, 10.00243 
1.665225e+3, 1.2426033e+2, -1042283.5, -1724041.1, 110002.945, 0.06575863, 0.060469896, -1024973.8, 697279.94, 0.037999656, 10.006302, 9.9969015 
1.6652079e+3, 1.3425711e+2, -1006114.56, -1618822.3, -87473.1, 0.0015329821, 0.008124477, -993871.1, 630414.1, 0.024084281, 10.005604, 9.997291 
1.6651936e+3, 1.442556e+2, -973474.8, -1486062.1, 13932.683, 0.10716238, 0.10102659, -973096.44, 553203.3, 0.011619359, 10.004794, 9.997914 
1.6651796e+3, 1.5425296e+2, -992775.56, -1440522.0, 16152.522, 0.05887678, 0.038659867, -992193.56, 436130.97, 0.0036016412, 10.00393, 9.997967 
1.6651651e+3, 1.6425072e+2, -964678.25, -1361163.0, -14393.785, 0.012640558, 0.013011321, -964156.44, 366189.84, 0.00050044095, 10.003373, 9.998107 
1.6651508e+3, 1.7424905e+2, -889308.0, -1273837.1, -3869.6733, 0.027096322, 0.0327032, -889269.06, 343094.1, 0.0000097975735, 10.003215, 9.998111 
1.6651367e+3, 1.842476e+2, -816936.7, -1106064.5, -1434.6686, 0.044853225, 0.044121772, -816929.56, 317447.7, 0.0, 10.002684, 9.998846 
1.6651224e+3, 1.9424644e+2, -864210.56, -1072166.3, -9202.75, 0.048282962, 0.03471872, -863804.06, 172583.36, 0.0, 10.00166, 9.9988985 
1.6651076e+3, 2.0424533e+2, -836282.7, -970890.3, -38229.56, 0.038987085, 0.020987974, -826183.0, 112213.66, 0.0, 10.001019, 9.999232 
1.6650926e+3, 2.1424434e+2, -756895.9, -879583.06, -42400.316, 0.01932408, -0.007177988, -743668.5, 96735.766, 0.0, 10.00088, 9.999253 
1.6650777e+3, 2.2424337e+2, -725586.9, -813160.8, -35963.69, 0.024096694, -0.026634382, -712710.94, 29701.379, 0.0, 10.000419, 9.999259 
1.6650632e+3, 2.3424248e+2, -758148.3, -778209.4, -30577.277, 0.059027117, -0.043975826, -735998.4, -91577.875, 0.0, 9.999523, 9.999258 
1.6650482e+3, 2.4424185e+2, -711422.8, -650152.2, -47263.45, 0.04903317, -0.053864308, -624463.8, -78037.89, 0.0, 9.998936, 9.999745 
1.665032e+3, 2.5424162e+2, -634062.56, -557466.94, -59722.02, -0.022035815, -0.05939534, -524818.0, -76391.055, 0.0, 9.998775, 9.999786 
1.6650172e+3, 2.642414e+2, -611702.8, -493042.47, -31765.684, -0.038478587, -0.057442453, -485073.84, -134645.5, 0.0, 9.998244, 9.99981 
1.6650033e+3, 2.742412e+2, -666132.06, -469598.5, -30814.32, 0.020094331, -0.061642896, -464880.4, -212449.44, 0.0, 9.997202, 9.9998 
1.6649887e+3, 2.8424117e+2, -626820.3, -340224.06, -44216.72, 0.03493711, -0.06562494, -333557.28, -179125.97, 0.0, 9.996543, 10.000333 
1.6649735e+3, 2.9424167e+2, -548724.44, -245880.83, -56142.266, -0.012986403, -0.057832148, -235808.0, -179381.77, 0.0, 9.996381, 10.000385 
1.6649589e+3, 3.0424204e+2, -579767.25, -201739.77, 10845.295, -0.049152315, -0.07127062, -201428.88, -201428.88, 0.0, 9.995687, 10.000689 
1.6649461e+3, 3.1424308e+2, -643770.7, -22128.033, -715.5913, -0.013500492, -0.042657655, -22127.21, -22127.21, 0.0, 9.99434, 10.002572 
1.6752316e+3, 1.2427444e+2, -1025565.0, -1683437.1, 92587.18, 0.09636868, 0.07001772, -1012782.9, 709333.4, 0.040539443, 10.006293, 9.997191 
1.6752136e+3, 1.3427109e+2, -997293.8, -1599911.3, -113565.01, 0.019880727, -0.008512608, -976602.6, 647545.75, 0.025791552, 10.005609, 9.997422 
1.6751981e+3, 1.4426965e+2, -984742.94, -1509132.9, -18626.965, 0.073698044, 0.09136376, -984082.1, 542080.3, 0.012526744, 10.004796, 9.997754 
1.6751836e+3, 1.542673e+2, -1003991.7, -1465604.0, -14818.593, 0.068294294, 0.07558493, -1003516.5, 424669.13, 0.003930235, 10.003938, 9.997792 
1.6751687e+3, 1.6426514e+2, -946484.3, -1324847.3, -21998.004, 0.038532738, 0.055413265, -945209.7, 384996.84, 0.00056054856, 10.003378, 9.998355 
1.6751541e+3, 1.7426327e+2, -870429.7, -1234423.8, -9309.48, 0.03671972, 0.027476115, -870191.75, 362031.9, 0.000011659806, 10.003212, 9.9983835 
1.6751394e+3, 1.8426166e+2, -832115.25, -1136761.5, -37784.207, 0.04841262, 0.018079065, -827498.94, 306739.72, 0.0, 10.002678, 9.998638 
1.6751242e+3, 1.9426037e+2, -880900.5, -1108504.5, -46784.652, 0.059657354, 0.02202619, -871659.0, 164591.64, 0.0, 10.001666, 9.998648 
1.6751088e+3, 2.0425923e+2, -840491.5, -981625.2, -45646.402, 0.051425394, 0.021173386, -827015.06, 111245.87, 0.0, 10.001025, 9.999156 
1.6750935e+3, 2.142583e+2, -761916.0, -889792.25, -46453.133, 0.024986275, 0.0063336845, -746822.6, 93445.85, 0.0, 10.000877, 9.999186 
1.675078e+3, 2.2425732e+2, -716433.5, -793363.7, -67290.97, 0.016978543, -0.016608002, -677389.6, 64886.586, 0.0, 10.000414, 9.999398 
1.6750625e+3, 2.3425633e+2, -747038.25, -756080.1, -63077.04, 0.030878834, -0.060293008, -688320.4, -44036.223, 0.0, 9.999525, 9.99941 
1.6750468e+3, 2.4425565e+2, -725028.75, -679665.4, -54761.61, 0.028533679, -0.07359926, -643074.0, -96784.25, 0.0, 9.9989395, 9.999543 
1.6750312e+3, 2.5425544e+2, -650444.3, -592266.75, -63830.12, 0.0040918696, -0.05106442, -551209.7, -102917.945, 0.0, 9.9987755, 9.999548 
1.6750157e+3, 2.6425534e+2, -611567.1, -493158.78, -67282.8, -0.0045999503, -0.026932277, -462740.9, -112447.81, 0.0, 9.998243, 9.999811 
1.6750003e+3, 2.7425525e+2, -664282.6, -466204.3, -68125.266, 0.010617223, -0.021124972, -445036.13, -192741.5, 0.0, 9.997202, 9.999825 
1.6749851e+3, 2.8425506e+2, -627877.44, -343059.0, -51180.44, 0.014701646, -0.04180122, -334141.34, -179844.86, 0.0, 9.996543, 10.000314 
1.67497e+3, 2.9425517e+2, -548336.25, -246946.52, -59753.734, -0.006118759, -0.07199108, -235532.0, -179236.92, 0.0, 9.996387, 10.000376 
1.6749543e+3, 3.042561e+2, -580757.56, -205352.17, -36733.6, -0.0639057, -0.028013922, -201791.55, -201791.55, 0.0, 9.995692, 10.000663 
1.6749404e+3, 3.1425673e+2, -644270.1, -22194.031, -45199.902, -0.010109009, -0.0350164, -18926.975, -18926.975, 0.0, 9.994335, 10.002574 
1.6852377e+3, 1.2428925e+2, -1057551.9, -1689725.6, 134157.27, 0.08371517, 0.06646489, -1030259.8, 691711.25, 0.043220777, 10.006042, 9.997267 
1.6852194e+3, 1.3428596e+2, -1020035.56, -1620641.1, -92838.07, 0.04094552, -0.0003593295, -1006012.6, 617990.8, 0.02760716, 10.005501, 9.997331 
1.6852027e+3, 1.4428443e+2, -967920.1, -1501779.5, -2633.6072, 0.055763584, 0.09878524, -967907.1, 558111.1, 0.013504104, 10.004921, 9.997746 
1.6851878e+3, 1.5428205e+2, -939490.25, -1434379.3, 12407.04, 0.073526576, 0.07808981, -939179.4, 488862.47, 0.0042908113, 10.004384, 9.997791 
1.6851725e+3, 1.6427991e+2, -893006.75, -1295843.4, 12521.789, 0.057206724, 0.059850883, -892617.9, 437444.47, 0.0006282273, 10.003731, 9.998384 
1.6851574e+3, 1.7427817e+2, -909504.2, -1249518.8, 8024.917, 0.05750193, 0.041522413, -909314.9, 322763.38, 0.00001399049, 10.002928, 9.998416 
1.685142e+3, 1.8427652e+2, -877726.9, -1162598.8, -27623.092, 0.066231795, 0.028779175, -875073.06, 259020.27, 0.0, 10.002382, 9.998604 
1.6851261e+3, 1.94275e+2, -811039.8, -1079771.0, -23233.988, 0.06584362, 0.014445314, -809045.9, 227061.36, 0.0, 10.002167, 9.998604 
1.6851102e+3, 2.0427376e+2, -757478.56, -952750.8, -11945.166, 0.05679546, 0.010192001, -756750.56, 181368.05, 0.0, 10.001644, 9.999056 
1.6850945e+3, 2.1427289e+2, -792341.4, -915478.2, -16194.23, 0.0436387, 0.0115163, -790247.25, 49878.973, 0.0, 10.000717, 9.999085 
1.6850784e+3, 2.2427195e+2, -764591.94, -813626.6, -43270.617, 0.030651953, -0.003301162, -739375.5, 2758.2434, 0.0, 10.0000725, 9.999423 
1.685062e+3, 2.3427096e+2, -704732.2, -731882.44, -49238.07, 0.015383037, -0.04952525, -667232.1, -23090.988, 0.0, 9.999802, 9.999441 
1.6850458e+3, 2.442702e+2, -680901.0, -671025.2, -39323.926, 0.011031602, -0.06582979, -636330.4, -90182.9, 0.0, 9.999298, 9.999428 
1.6850299e+3, 2.5426984e+2, -702439.25, -631692.6, -41386.668, 0.020336218, -0.046906263, -612622.1, -164470.58, 0.0, 9.998482, 9.999418 
1.6850139e+3, 2.642697e+2, -674798.2, -518556.03, -48640.41, 0.016566344, -0.020405492, -504651.06, -154497.6, 0.0, 9.997789, 9.999855 
1.6849974e+3, 2.742698e+2, -650425.94, -453332.06, -48919.914, -0.0010411784, -0.004658123, -441857.84, -189704.5, 0.0, 9.9972725, 9.999878 
1.6849816e+3, 2.8426963e+2, -598168.2, -322150.13, -13652.699, -0.0018272861, -0.029359354, -321476.47, -167321.53, 0.0, 9.99672, 10.000372 
1.6849662e+3, 2.9426953e+2, -587251.75, -257359.73, -17529.059, 0.009266701, -0.081717975, -256430.94, -200275.86, 0.0, 9.996084, 10.00045 
1.6849498e+3, 3.0427104e+2, -622119.75, -207536.63, -8411.017, -0.068862624, 0.010346939, -207366.05, -207366.05, 0.0, 9.995334, 10.000819 
1.6849348e+3, 3.142715e+2, -630030.94, -31216.33, 2806.9905, -0.016272351, -0.02588829, -31203.172, -31203.172, 0.0, 9.994499, 10.002434 
1.6952431e+3, 1.243047e+2, -1068469.0, -1709495.4, 113732.68, 0.032364845, 0.04420799, -1048888.4, 672931.0, 0.046042826, 10.006044, 9.997128 
1.6952251e+3, 1.3430162e+2, -1040847.3, -1663369.0, -112331.69, 0.06257579, 0.02987845, -1021197.75, 602653.0, 0.029532628, 10.005503, 9.997038 
1.6952077e+3, 1.4429991e+2, -960662.9, -1485799.1, -23159.229, 0.04882326, 0.12090194, -959643.5, 566224.2, 0.01455485, 10.004919, 9.997859 
1.6951922e+3, 1.5429716e+2, -928966.5, -1413455.5, -6967.607, 0.071085475, 0.049066823, -928866.3, 499027.16, 0.0046872264, 10.004388, 9.997935 
1.6951762e+3, 1.6429502e+2, -904415.9, -1320061.8, -17138.076, 0.06584397, 0.02973042, -903710.4, 426203.56, 0.0007050084, 10.003732, 9.998219 
1.6951607e+3, 1.742937e+2, -921957.7, -1277015.6, -21134.084, 0.08732462, 0.07313743, -920704.2, 311222.97, 0.000016975888, 10.0029335, 9.998226 
1.6951448e+3, 1.8429214e+2, -868670.94, -1144980.4, -36903.742, 0.09509879, 0.07391753, -863827.06, 270114.53, 0.0, 10.002385, 9.998724 
1.6951282e+3, 1.942903e+2, -801148.94, -1059217.6, -30474.379, 0.065426715, 0.011678153, -797599.1, 238358.2, 0.0, 10.002165, 9.998747 
1.6951118e+3, 2.0428888e+2, -766664.7, -970951.0, -44925.965, 0.053843375, -0.01121812, -757221.25, 180748.63, 0.0, 10.001639, 9.998934 
1.6950954e+3, 2.1428806e+2, -802098.75, -936458.4, -50145.617, 0.07310701, 0.008579147, -785447.1, 54530.727, 0.0, 10.000719, 9.998941 
1.6950788e+3, 2.242872e+2, -770254.44, -826239.25, -54980.613, 0.061986346, 0.013142729, -736550.44, 5434.853, 0.0, 10.000074, 9.999336 
1.6950618e+3, 2.3428634e+2, -711210.5, -745443.56, -57869.484, 0.010122661, -0.012411287, -667979.25, -23987.258, 0.0, 9.9998, 9.999351 
1.695045e+3, 2.4428548e+2, -683910.8, -676638.0, -67563.21, -0.0055218497, -0.031563677, -612613.4, -66614.0, 0.0, 9.999294, 9.9993925 
1.6950284e+3, 2.5428474e+2, -704408.44, -636093.5, -70305.11, 0.025632694, -0.046890534, -592087.44, -144080.52, 0.0, 9.998482, 9.99939 
1.6950117e+3, 2.6428446e+2, -668999.5, -507420.38, -67778.64, 0.023568785, -0.037167296, -482754.28, -132744.38, 0.0, 9.997791, 9.999931 
1.6949946e+3, 2.7428472e+2, -644179.94, -441977.06, -66004.305, -0.019431321, -0.010413622, -422338.84, -170331.36, 0.0, 9.997277, 9.999954 
1.6949782e+3, 2.8428474e+2, -588990.5, -304422.6, -36090.65, -0.018449085, -0.027669126, -299916.72, -145909.5, 0.0, 9.996724, 10.000493 
1.6949627e+3, 2.942847e+2, -577514.06, -236099.45, -39623.21, 0.03082341, -0.08744244, -231561.27, -175554.36, 0.0, 9.9960785, 10.0006 
1.6949452e+3, 3.0428684e+2, -598245.6, -158016.33, -38818.895, -0.067146465, 0.039599977, -154619.55, -154619.55, 0.0, 9.995331, 10.001162 
1.694929e+3, 3.1428772e+2, -645547.75, -66417.91, -9629.462, -0.042914093, 0.014279449, -66257.836, -66257.836, 0.0, 9.994512, 10.002186 
1.705249e+3, 1.2432112e+2, -1031985.6, -1688617.0, 132659.55, 0.0022489883, 0.05706755, -1006197.2, 715461.5, 0.049011733, 10.006314, 9.997145 
1.7052309e+3, 1.3431796e+2, -1031785.9, -1668408.3, -77866.06, 0.09970047, 0.04249526, -1022400.3, 601290.44, 0.031571757, 10.005622, 9.9969425 
1.7052126e+3, 1.4431596e+2, -960881.56, -1491877.6, 17284.816, 0.05037126, 0.113039084, -960319.5, 565390.94, 0.01568213, 10.0049515, 9.997801 
1.7051965e+3, 1.5431322e+2, -932633.5, -1421340.8, 19843.9, 0.07028926, 0.047464833, -931829.06, 495907.2, 0.00512275, 10.004391, 9.997879 
1.7051801e+3, 1.6431104e+2, -896472.94, -1324116.8, 1303.5261, 0.0658922, 0.031103285, -896468.94, 433288.28, 0.0007925637, 10.00382, 9.998149 
1.7051639e+3, 1.7430966e+2, -883413.5, -1266906.1, 3657.0923, 0.09174368, 0.075622514, -883378.6, 348392.63, 0.000020835878, 10.003234, 9.998151 
1.7051473e+3, 1.8430813e+2, -829066.94, -1123190.4, -334.1889, 0.10307667, 0.08047031, -829066.56, 304719.13, 0.0, 10.002646, 9.998748 
1.7051305e+3, 1.9430636e+2, -814009.5, -1061422.5, -2004.0687, 0.07482292, 0.024507498, -813993.3, 221807.02, 0.0, 10.002062, 9.99878 
1.7051134e+3, 2.043049e+2, -792805.0, -992503.75, -30134.752, 0.06252758, -0.00046690294, -788356.75, 149456.55, 0.0, 10.001499, 9.998853 
1.7050964e+3, 2.1430387e+2, -774537.8, -933558.1, -33675.383, 0.07725083, 0.008152234, -767700.44, 72123.19, 0.0, 10.000955, 9.998847 
1.705079e+3, 2.2430296e+2, -732400.2, -812371.75, -25525.803, 0.06467461, 0.014954572, -724947.3, 16884.637, 0.0, 10.000355, 9.999295 
1.7050615e+3, 2.3430225e+2, -730414.0, -758679.8, -25726.531, 0.014925067, 0.009387965, -715194.0, -71356.55, 0.0, 9.999687, 9.999312 
1.7050442e+3, 2.4430147e+2, -715557.5, -683618.75, -37863.676, 0.0011301078, -0.0033916621, -658494.56, -112650.414, 0.0, 9.9990425, 9.999465 
1.7050269e+3, 2.5430068e+2, -707108.6, -628134.2, -34043.063, 0.034145936, -0.032631848, -615485.3, -167633.42, 0.0, 9.9984255, 9.99947 
1.7050095e+3, 2.6430032e+2, -661479.4, -501690.7, -22557.346, 0.025978876, -0.034556594, -498567.34, -148712.16, 0.0, 9.997836, 9.9999485 
1.7049918e+3, 2.7430055e+2, -645407.0, -441455.1, -27066.518, -0.03329831, -0.013003503, -437924.22, -186071.45, 0.0, 9.997266, 9.999964 
1.7049748e+3, 2.843006e+2, -606022.94, -316359.25, -9059.13, -0.031507395, -0.023011398, -316076.2, -162224.31, 0.0, 9.996626, 10.000458 
1.7049587e+3, 2.9430065e+2, -601656.8, -250995.83, -26498.875, 0.04208829, -0.07107391, -249004.66, -193153.33, 0.0, 9.995929, 10.000569 
1.7049405e+3, 3.043027e+2, -589064.3, -115354.74, -37875.54, -0.06733952, 0.033218805, -112345.51, -112345.51, 0.0, 9.995231, 10.001503 
1.7049232e+3, 3.1430402e+2, -664206.4, -96073.66, 10463.934, -0.07073428, 0.01796609, -95881.0, -95881.0, 0.0, 9.994476, 10.001998 
1.7152552e+3, 1.2433843e+2, -1026685.9, -1670814.1, 98502.45, -0.009459659, 0.09726575, -1011959.25, 709530.75, 0.052130558, 10.006301, 9.997283 
1.715237e+3, 1.3433495e+2, -1026760.9, -1657192.3, -103242.266, 0.1465782, 0.041504286, -1010284.1, 613239.5, 0.03372707, 10.005629, 9.99702 
1.7152175e+3, 1.4433259e+2, -975818.0, -1522627.3, -5216.6133, 0.054426804, 0.080482714, -975768.25, 549778.44, 0.01688817, 10.004955, 9.997586 
1.7152008e+3, 1.5433013e+2, -949431.0, -1456013.5, -97.366776, 0.06881912, 0.06906374, -949431.0, 478139.84, 0.0055997013, 10.00439, 9.997642 
1.7151837e+3, 1.6432789e+2, -896150.0, -1323508.6, -20346.91, 0.05544405, 0.060155746, -895183.5, 434409.2, 0.0008924137, 10.0038185, 9.998155 
1.7151667e+3, 1.7432602e+2, -880873.8, -1263315.4, -17454.379, 0.06987701, 0.051367875, -880078.8, 351532.0, 0.000025809924, 10.003239, 9.998175 
1.7151497e+3, 1.843244e+2, -833668.9, -1133299.1, -22383.408, 0.088109665, 0.05154076, -832006.0, 301619.75, 0.0, 10.002646, 9.998679 
1.7151327e+3, 1.9432314e+2, -819476.94, -1073018.3, -22981.393, 0.09165279, 0.051240735, -817410.7, 218225.84, 0.0, 10.00206, 9.998703 
1.7151152e+3, 2.0432174e+2, -796484.06, -999423.94, -50249.29, 0.07976256, 0.040479206, -784723.56, 152925.66, 0.0, 10.001495, 9.998808 
1.715097e+3, 2.1432029e+2, -778330.5, -941171.06, -52821.563, 0.055101935, 0.009938506, -762697.3, 76966.51, 0.0, 10.000952, 9.998797 
1.7150791e+3, 2.243192e+2, -733673.8, -814086.3, -49838.082, 0.03790875, 0.002387118, -709845.9, 31828.049, 0.0, 10.00035, 9.999287 
1.7150612e+3, 2.3431866e+2, -730596.4, -759336.44, -49383.69, 0.028301906, 0.016066896, -693534.44, -49856.547, 0.0, 9.999687, 9.999309 
1.7150435e+3, 2.4431813e+2, -703257.7, -657900.75, -60279.465, 0.028345177, 0.018460043, -616174.8, -70492.516, 0.0, 9.999041, 9.999642 
1.7150255e+3, 2.5431758e+2, -694045.44, -601561.2, -55278.113, 0.04204525, -0.003574324, -575733.9, -128046.75, 0.0, 9.998426, 9.999652 
1.7150073e+3, 2.6431724e+2, -664950.0, -509885.03, -42968.543, 0.021069923, -0.012830281, -498774.53, -149084.53, 0.0, 9.997838, 9.999892 
1.7149888e+3, 2.7431718e+2, -650221.56, -451738.63, -47029.08, -0.044458978, -0.012534659, -441159.3, -189469.44, 0.0, 9.997265, 9.999894 
1.7149712e+3, 2.8431717e+2, -620050.8, -345107.38, -34256.777, -0.04351521, -0.015144829, -340903.4, -187213.81, 0.0, 9.996623, 10.000262 
1.7149545e+3, 2.9431736e+2, -616201.4, -282514.9, -49488.574, 0.038316745, -0.030185048, -275330.03, -219641.19, 0.0, 9.995934, 10.000351 
1.7149356e+3, 3.043186e+2, -566900.2, -72285.5, -65953.0, -0.074335106, -0.009464144, -63642.227, -63642.227, 0.0, 9.99524, 10.001796 
1.7149173e+3, 3.1432042e+2, -669584.44, -108286.27, 8308.662, -0.11233958, -0.0080006905, -108163.31, -108163.31, 0.0, 9.994479, 10.001914 
1.7252617e+3, 1.2435577e+2, -1072243.0, -1679194.3, 95761.08, 0.009010591, 0.10599049, -1057492.9, 663827.8, 0.05539799, 10.005932, 9.997399 
1.7252429e+3, 1.343523e+2, -1006685.2, -1634426.1, -93503.29, 0.16234453, 0.03971372, -993053.7, 630299.56, 0.035998132, 10.005733, 9.997126 
1.7252223e+3, 1.4434972e+2, -941391.56, -1509307.5, 3571.5103, 0.019096615, 0.055818606, -941369.06, 584008.8, 0.018173117, 10.005217, 9.997553 
1.7252053e+3, 1.5434755e+2, -952319.3, -1462402.9, 20868.768, 0.074244045, 0.07506818, -951466.94, 475933.13, 0.006119224, 10.004395, 9.997596 
1.7251877e+3, 1.6434537e+2, -903381.2, -1328274.8, 16307.168, 0.07533147, 0.074371375, -902756.25, 426665.28, 0.0010059463, 10.0037775, 9.998141 
1.72517e+3, 1.7434321e+2, -856492.4, -1253042.6, 16182.412, 0.06999226, 0.041300435, -855833.06, 375608.66, 0.000032150663, 10.003414, 9.998159 
1.7251524e+3, 1.8434149e+2, -811945.75, -1128052.1, 1524.2059, 0.08278502, 0.032593854, -811938.44, 321519.4, 0.0, 10.002819, 9.9986315 
1.7251347e+3, 1.9434032e+2, -843795.7, -1090795.8, 617.9384, 0.097646266, 0.047602005, -843794.2, 191674.08, 0.0, 10.00192, 9.998648 
1.7251165e+3, 2.0433906e+2, -826071.7, -1007844.7, -11149.934, 0.08560081, 0.049025614, -825390.3, 112089.84, 0.0, 10.001267, 9.998859 
1.7250979e+3, 2.1433769e+2, -776586.56, -933412.7, -6630.6953, 0.046066195, 0.02425508, -776306.7, 63186.965, 0.0, 10.0009365, 9.998857 
1.7250794e+3, 2.2433658e+2, -724240.8, -808948.6, -8565.772, 0.029418737, 0.010774723, -723383.3, 18120.713, 0.0, 10.000414, 9.99929 
1.7250611e+3, 2.3433585e+2, -739152.4, -762984.94, -9649.176, 0.039634485, 0.006024511, -735735.56, -92225.85, 0.0, 9.999629, 9.9993105 
1.7250426e+3, 2.4433538e+2, -712254.4, -660268.9, -19585.127, 0.03990593, 0.013587132, -653716.3, -108202.59, 0.0, 9.998974, 9.999658 
1.7250238e+3, 2.5433517e+2, -684374.06, -595367.7, -28400.277, 0.028808847, 0.023262244, -587077.75, -139562.11, 0.0, 9.998489, 9.999663 
1.725005e+3, 2.643348e+2, -650089.2, -500210.78, -22080.938, 0.0031931372, 0.010788776, -497025.38, -147506.7, 0.0, 9.9979315, 9.999913 
1.7249861e+3, 2.7433434e+2, -647105.94, -447756.5, -20873.828, -0.042162977, -0.029283203, -445594.28, -194072.48, 0.0, 9.997278, 9.999914 
1.7249678e+3, 2.8433445e+2, -632534.4, -357077.38, -2922.8691, -0.04219527, -0.020777086, -357046.38, -203525.84, 0.0, 9.996565, 10.000207 
1.7249502e+3, 2.9433513e+2, -644673.8, -305919.4, -8200.911, 0.017319202, 0.020487113, -305721.0, -250205.52, 0.0, 9.995782, 10.000262 
1.7249309e+3, 3.0433547e+2, -590937.2, -89921.34, -31414.545, -0.0732956, -0.038717985, -87959.29, -87959.29, 0.0, 9.995103, 10.001741 
1.724912e+3, 3.143377e+2, -664527.5, -103568.766, 39540.42, -0.10579625, 0.007317503, -100795.38, -100795.38, 0.0, 9.994506, 10.001934 
1.7352678e+3, 1.24373205e+2, -1070445.5, -1670544.6, 70435.32, 0.04641667, 0.08836509, -1062289.1, 658860.94, 0.058820613, 10.005929, 9.997465 
1.7352484e+3, 1.3436997e+2, -999876.06, -1616209.6, -100614.57, 0.14718746, 0.03398002, -983866.9, 639313.1, 0.03838619, 10.00573, 9.997253 
1.7352267e+3, 1.443674e+2, -934398.56, -1492680.9, -25886.408, -0.05455122, 0.036147036, -933200.8, 592003.7, 0.01953601, 10.005212, 9.997673 
1.7352097e+3, 1.5436548e+2, -942179.6, -1443862.4, -8791.625, 0.08279399, 0.0692622, -942025.6, 485198.3, 0.006681196, 10.004406, 9.997719 
1.735192e+3, 1.6436343e+2, -904681.2, -1332861.3, 1339.9551, 0.118085705, 0.07756978, -904677.0, 424566.84, 0.0011340987, 10.003784, 9.998108 
1.7351738e+3, 1.7436121e+2, -860223.0, -1260456.6, 3358.375, 0.08859866, 0.042870156, -860194.8, 371069.7, 0.000040117335, 10.003411, 9.998111 
1.7351553e+3, 1.8435933e+2, -815811.75, -1134609.9, -30602.412, 0.084360406, 0.021960516, -812900.7, 320381.66, 0.0, 10.0028105, 9.998592 
1.7351365e+3, 1.943579e+2, -846180.06, -1096677.1, -32020.03, 0.09119125, 0.014937945, -842151.8, 193143.92, 0.0, 10.001922, 9.998609 
1.7351177e+3, 2.0435676e+2, -816269.6, -988088.8, -24814.717, 0.078039944, 0.026581371, -812757.6, 124548.88, 0.0, 10.001268, 9.998996 
1.7350988e+3, 2.1435603e+2, -766294.1, -912434.75, -17809.01, 0.047537357, 0.049542632, -764155.2, 75158.66, 0.0, 10.000936, 9.999002 
1.7350799e+3, 2.2435504e+2, -723979.75, -807167.94, -36413.902, 0.035972513, 0.038632713, -710292.4, 31030.576, 0.0, 10.000407, 9.999306 
1.7350608e+3, 2.343538e+2, -739715.56, -763547.8, -37680.086, 0.046523776, -0.019822482, -712112.3, -68778.9, 0.0, 9.999624, 9.99931 
1.7350414e+3, 2.4435318e+2, -723735.44, -683739.4, -37799.367, 0.033784557, -0.017127372, -660973.94, -115635.086, 0.0, 9.99897, 9.999499 
1.7350219e+3, 2.5435337e+2, -695935.0, -619858.5, -44954.66, -0.007202512, 0.047430076, -599008.5, -151670.25, 0.0, 9.998489, 9.999496 
1.7350025e+3, 2.6435295e+2, -643904.4, -487709.06, -45166.285, -0.029487988, 0.035745643, -475589.0, -126247.03, 0.0, 9.9979315, 9.999999 
1.7349835e+3, 2.74352e+2, -639082.3, -432964.47, -43726.9, -0.031027772, -0.0620146, -424071.7, -172722.66, 0.0, 9.997285, 10.000013 
1.7349645e+3, 2.8435236e+2, -625421.0, -344882.78, -31396.852, -0.031987526, -0.03994159, -341411.88, -188066.56, 0.0, 9.996573, 10.000288 
1.7349456e+3, 2.9435384e+2, -642131.6, -301921.56, -34947.477, -0.024466101, 0.07911362, -298368.75, -243036.55, 0.0, 9.995785, 10.00029 
1.734926e+3, 3.043533e+2, -620963.56, -152104.38, -53917.957, -0.06749386, -0.049979325, -145983.8, -145983.8, 0.0, 9.995102, 10.001315 
1.7349067e+3, 3.143555e+2, -653539.4, -81701.57, 41212.664, -0.060010813, 0.031039082, -78746.62, -78746.62, 0.0, 9.99451, 10.002082 
1.7452738e+3, 1.2439148e+2, -1035981.75, -1659650.6, 103593.18, 0.04014256, 0.057987146, -1019224.9, 701745.25, 0.062415097, 10.006233, 9.997398 
1.7452542e+3, 1.3438864e+2, -1004349.8, -1614565.5, -55188.332, 0.16597521, 0.04205718, -999398.75, 623597.8, 0.040896874, 10.005699, 9.997275 
1.7452317e+3, 1.4438601e+2, -943365.06, -1500405.5, 3615.0435, -0.07046014, 0.039659128, -943341.56, 581680.3, 0.02097683, 10.005175, 9.997636 
1.7452143e+3, 1.5438393e+2, -897735.0, -1426641.9, 7802.181, 0.08393737, 0.061211847, -897619.9, 529422.9, 0.007284818, 10.004738, 9.997677 
1.745196e+3, 1.6438186e+2, -859662.8, -1309561.4, 12817.834, 0.12587203, 0.06889915, -859297.94, 469765.1, 0.0012771101, 10.004087, 9.998121 
1.7451769e+3, 1.7437981e+2, -894703.75, -1275375.1, 17873.611, 0.087793484, 0.047105614, -893866.4, 337216.13, 0.0000499031, 10.003169, 9.998125 
1.7451578e+3, 1.8437794e+2, -859594.8, -1151230.3, -9482.76, 0.07896381, 0.028137958, -859286.8, 273813.2, 0.0000000000000006446772, 10.002494, 9.99863 
1.7451385e+3, 1.9437642e+2, -813732.3, -1076786.4, -6365.5654, 0.08532204, 0.008075097, -813578.4, 221535.89, 0.0, 10.00213, 9.998644 
1.745119e+3, 2.0437531e+2, -769672.0, -959538.56, 2921.8293, 0.07407701, 0.016779676, -769627.0, 167497.83, 0.0, 10.001564, 9.999048 
1.7450996e+3, 2.1437474e+2, -791495.56, -918573.1, 1752.3333, 0.04799287, 0.051943023, -791471.4, 47659.254, 0.0, 10.000739, 9.999054 
1.74508e+3, 2.2437385e+2, -772855.8, -826785.44, -21894.514, 0.037538398, 0.047466725, -765086.3, -23947.59, 0.0, 10.000056, 9.999339 
1.7450602e+3, 2.343726e+2, -747556.0, -763746.5, -22546.799, 0.04438208, -0.013090341, -731695.25, -88546.18, 0.0, 9.9995575, 9.999339 
1.7450404e+3, 2.4437192e+2, -724989.25, -695220.06, -15606.949, 0.028159568, -0.015830252, -688537.8, -143382.42, 0.0, 9.99901, 9.9994 
1.7450203e+3, 2.5437188e+2, -717291.0, -642020.56, -19168.564, -0.014895656, 0.039363664, -637420.25, -190263.25, 0.0, 9.998397, 9.999388 
1.7450003e+3, 2.6437145e+2, -669570.6, -491466.0, -22497.986, -0.028809968, 0.028503262, -488668.03, -139506.88, 0.0, 9.997722, 10.000073 
1.7449807e+3, 2.7437073e+2, -679365.3, -442767.9, -23711.926, -0.012193128, -0.05558765, -440414.88, -189248.36, 0.0, 9.99697, 10.000096 
1.744961e+3, 2.843713e+2, -644538.8, -337119.28, -6163.512, -0.027496058, -0.023405252, -336995.78, -183835.02, 0.0, 9.996372, 10.000438 
1.744941e+3, 2.9437298e+2, -613679.1, -277120.56, -5424.7285, -0.066159286, 0.100168094, -277033.16, -221887.89, 0.0, 9.995935, 10.000387 
1.7449212e+3, 3.0437204e+2, -628069.0, -201872.3, -25127.77, -0.055221613, -0.05138383, -200395.92, -200395.92, 0.0, 9.995254, 10.0009 
1.7449011e+3, 3.1437397e+2, -661213.4, -47091.047, 80319.03, -0.064901866, 0.043171033, -36760.176, -36760.176, 0.0, 9.994293, 10.002424 
1.7552796e+3, 1.24410525e+2, -1053077.5, -1688854.4, 60339.527, -0.0087293405, 0.013684582, -1047401.56, 673379.94, 0.06619524, 10.006226, 9.997191 
1.7552605e+3, 1.3440828e+2, -1009780.1, -1626035.3, -74180.51, 0.21198921, 0.06471842, -1000976.56, 621826.7, 0.043536507, 10.005711, 9.997193 
1.7552371e+3, 1.4440556e+2, -956545.06, -1527583.8, -13864.878, -0.03954049, 0.06763882, -956208.6, 568621.5, 0.022496665, 10.00518, 9.997444 
1.755219e+3, 1.5440288e+2, -912596.94, -1456639.6, -7597.007, 0.076138526, 0.048974346, -912490.9, 514366.28, 0.007929367, 10.004735, 9.997473 
1.7551997e+3, 1.6440064e+2, -857080.06, -1303202.9, -20221.346, 0.099345654, 0.047361605, -856165.4, 472714.0, 0.0014347355, 10.004082, 9.998169 
1.7551798e+3, 1.7439893e+2, -888966.56, -1265607.1, -15767.451, 0.06600291, 0.054814085, -888307.6, 342588.2, 0.00006152053, 10.003176, 9.99819 
1.7551601e+3, 1.8439731e+2, -851138.94, -1135470.9, -24166.654, 0.062781155, 0.0508588, -849099.5, 283811.47, 0.0000000010737394, 10.002499, 9.998736 
1.7551406e+3, 1.9439581e+2, -806275.4, -1062065.9, -18857.945, 0.07828114, 0.024798792, -804892.56, 230031.77, 0.0, 10.0021305, 9.998745 
1.7551206e+3, 2.043946e+2, -773070.7, -965883.2, -26619.398, 0.07193561, 0.019256076, -769463.1, 167472.66, 0.0, 10.001559, 9.999007 
1.7551003e+3, 2.1439376e+2, -795448.06, -926507.2, -27886.42, 0.045393806, 0.03218945, -789761.25, 49183.215, 0.0, 10.000735, 9.999002 
1.75508e+3, 2.2439297e+2, -770093.56, -820593.1, -40793.355, 0.0316595, 0.037305105, -747367.8, -6415.8945, 0.0, 10.000052, 9.999385 
1.7550597e+3, 2.3439226e+2, -743835.56, -756856.8, -39709.38, 0.031314265, 0.02447313, -710106.6, -67149.24, 0.0, 9.999558, 9.999387 
1.7550392e+3, 2.443915e+2, -728602.3, -702618.1, -37757.984, 0.020744398, 0.015873516, -675679.56, -130715.4, 0.0, 9.999008, 9.999351 
1.7550188e+3, 2.543907e+2, -721051.8, -650354.6, -40575.516, 0.0023466442, -0.0000015097218, -631889.7, -184917.23, 0.0, 9.998397, 9.9993305 
1.7549984e+3, 2.643903e+2, -665183.9, -483641.47, -49624.758, 0.0017311197, -0.009872869, -470962.06, -121985.17, 0.0, 9.997725, 10.000126 
1.754978e+3, 2.7439046e+2, -674960.56, -434646.78, -49891.934, 0.012623029, -0.009598564, -424700.3, -173725.39, 0.0, 9.996972, 10.000153 
1.7549573e+3, 2.843912e+2, -629543.2, -306435.8, -22212.15, -0.030715503, 0.028417956, -304915.97, -151948.36, 0.0, 9.996372, 10.0006485 
1.7549364e+3, 2.943924e+2, -600142.8, -252642.31, -20761.29, -0.113369584, 0.08017207, -251406.33, -196450.53, 0.0, 9.995949, 10.000549 
1.7549165e+3, 3.0439162e+2, -654054.8, -259026.92, -59650.62, -0.04290903, -0.038201906, -250215.98, -250215.98, 0.0, 9.995266, 10.000504 
1.7548949e+3, 3.1439328e+2, -636991.75, 5321.074, 46034.164, -0.1228752, 0.06020542, 8603.54, 8603.54, 0.0, 9.994284, 10.0027895 
1.7652857e+3, 1.2443047e+2, -1067412.6, -1709513.5, 51115.586, -0.010828064, 0.020155208, -1063369.0, 657216.94, 0.07016911, 10.006213, 9.997045 
1.7652665e+3, 1.3442816e+2, -964282.44, -1604709.3, -55185.938, 0.22709002, 0.06735624, -959561.8, 663046.75, 0.046310198, 10.006064, 9.99717 
1.7652424e+3, 1.4442533e+2, -907762.8, -1508028.8, 816.71893, -0.04843591, 0.063542224, -907761.75, 616874.75, 0.02409604, 10.005552, 9.997401 
1.7652236e+3, 1.544226e+2, -924951.7, -1467442.9, 17849.53, 0.07559693, 0.043048184, -924365.06, 502298.94, 0.008613253, 10.004676, 9.997426 
1.7652038e+3, 1.6442035e+2, -875481.6, -1313768.5, 8904.443, 0.10004782, 0.04602018, -875300.8, 453385.5, 0.0016062671, 10.003968, 9.998149 
1.765183e+3, 1.7441873e+2, -847671.75, -1247875.3, 5419.1333, 0.055910174, 0.06487574, -847598.4, 383104.03, 0.00007476839, 10.003472, 9.998167 
1.7651626e+3, 1.8441717e+2, -799329.5, -1107443.4, -4924.077, 0.049808294, 0.06712586, -799250.8, 333466.53, 0.000000009428086, 10.002843, 9.998762 
1.7651425e+3, 1.9441572e+2, -815984.0, -1063626.1, -6333.88, 0.07223388, 0.04254273, -815822.1, 218908.23, 0.0, 10.002052, 9.998771 
1.765122e+3, 2.0441453e+2, -801227.5, -967869.06, -17146.023, 0.07007292, 0.034394667, -799481.56, 137259.77, 0.0, 10.001317, 9.99911 
1.765101e+3, 2.1441373e+2, -799959.06, -916404.3, -8648.388, 0.04369806, 0.038977653, -799320.25, 39429.125, 0.0, 10.000653, 9.999109 
1.7650801e+3, 2.2441295e+2, -769246.5, -825977.56, -8646.435, 0.030322231, 0.043030903, -767957.94, -27201.3, 0.0, 10.000085, 9.999331 
1.7650592e+3, 2.3441225e+2, -738381.56, -761473.06, -16593.656, 0.029985333, 0.03830096, -729712.1, -86949.55, 0.0, 9.999629, 9.99932 
1.7650384e+3, 2.444115e+2, -716024.06, -675959.44, -19215.42, 0.024536928, 0.024415417, -668233.4, -123464.1, 0.0, 9.999007, 9.999534 
1.7650172e+3, 2.544107e+2, -738501.2, -636366.5, -4621.5273, 0.018342612, -0.010452145, -636157.8, -189381.28, 0.0, 9.998182, 9.99953 
1.7649962e+3, 2.6441047e+2, -704024.2, -506357.2, -4423.699, 0.019561071, -0.011123582, -506258.25, -157479.03, 0.0, 9.997478, 10.000089 
1.764975e+3, 2.7441096e+2, -685522.5, -445271.16, -13733.537, 0.016968919, 0.02503853, -444488.66, -193713.19, 0.0, 9.996925, 10.0001 
1.7649534e+3, 2.8441155e+2, -633808.1, -294819.13, 9264.255, -0.04852729, 0.049593918, -294566.16, -141796.58, 0.0, 9.996285, 10.00077 
1.7649318e+3, 2.9441234e+2, -657301.5, -269145.03, 2520.7537, -0.15470883, 0.0482901, -269128.7, -214367.64, 0.0, 9.995511, 10.000646 
1.764912e+3, 3.044123e+2, -718974.0, -296791.34, -28823.941, -0.0065984353, -0.0027322455, -294832.5, -294832.5, 0.0, 9.994849, 10.0004425 
1.764889e+3, 3.1441313e+2, -619159.44, 38712.918, 78977.13, -0.13471282, 0.01992524, 48061.23, 48061.23, 0.0, 9.994302, 10.003007 
1.7752923e+3, 1.2445135e+2, -1078905.4, -1727300.5, 13787.2705, 0.023097675, 0.077085204, -1078612.3, 641770.7, 0.074350625, 10.006207, 9.996922 
1.7752723e+3, 1.3444827e+2, -966292.3, -1605122.4, -59846.348, 0.20994706, 0.04983709, -960734.2, 661678.25, 0.049225193, 10.006063, 9.997169 
1.7752476e+3, 1.4444534e+2, -902008.7, -1494087.0, -30686.941, -0.09703208, 0.02904672, -900422.5, 624018.5, 0.0257757, 10.00555, 9.997501 
1.7752284e+3, 1.5444304e+2, -916745.8, -1452581.1, -13654.132, 0.07887397, 0.044133294, -916398.1, 510065.47, 0.009334471, 10.004686, 9.997523 
1.7752078e+3, 1.6444099e+2, -881115.4, -1327585.8, -10256.4795, 0.12164458, 0.06442441, -880879.9, 447604.3, 0.001790804, 10.003976, 9.998051 
1.7751865e+3, 1.7443919e+2, -855857.25, -1264684.3, -11902.907, 0.055029746, 0.07658734, -855511.0, 374991.72, 0.00008938541, 10.003469, 9.998054 
1.7751653e+3, 1.8443751e+2, -804744.06, -1117437.9, -33137.156, 0.03815781, 0.07758296, -801271.0, 331248.34, 0.000000028818846, 10.002836, 9.998698 
1.7751445e+3, 1.944361e+2, -820033.7, -1072271.6, -34398.605, 0.06501872, 0.06081267, -815426.75, 219106.03, 0.0, 10.00205, 9.9987135 
1.7751232e+3, 2.0443508e+2, -784760.3, -933977.8, -41475.8, 0.065512605, 0.060555592, -774006.8, 162535.28, 0.0, 10.001317, 9.999344 
1.7751016e+3, 2.1443455e+2, -782259.1, -880571.94, -32083.977, 0.040264323, 0.070496574, -772715.1, 65830.89, 0.0, 10.000655, 9.999356 
1.7750801e+3, 2.2443374e+2, -780256.0, -848982.56, -25582.9, 0.031267773, 0.06466959, -771778.6, -31225.104, 0.0, 10.000084, 9.999175 
1.775059e+3, 2.3443256e+2, -751255.44, -788271.94, -31991.586, 0.038879238, 0.029357798, -732804.0, -90238.945, 0.0, 9.999627, 9.999139 
1.7750375e+3, 2.4443184e+2, -687439.3, -616574.5, -48417.047, 0.03717689, 0.00950972, -592009.7, -47438.344, 0.0, 9.999005, 9.999944 
1.7750154e+3, 2.5443178e+2, -707274.4, -572664.7, -33928.902, 0.030550484, 0.0058273594, -564596.4, -118026.4, 0.0, 9.998185, 9.999967 
1.7749937e+3, 2.644319e+2, -713288.7, -526689.7, -24991.6, 0.022043634, 0.023401903, -523400.47, -174831.55, 0.0, 9.99748, 9.9999485 
1.7749716e+3, 2.7443212e+2, -696207.56, -469370.63, -32470.836, -0.0051082387, 0.049597893, -464814.06, -214245.38, 0.0, 9.996932, 9.999933 
1.7749493e+3, 2.8443235e+2, -630531.25, -289854.56, -18638.346, -0.08634515, 0.040054273, -288837.88, -136270.66, 0.0, 9.996292, 10.000802 
1.774927e+3, 2.944328e+2, -654557.75, -264563.44, -25320.795, -0.18963262, 0.0027187327, -262926.3, -208364.56, 0.0, 9.995514, 10.000677 
1.7749074e+3, 3.044339e+2, -696924.44, -250761.0, -46726.297, 0.053512074, 0.05253556, -245919.92, -245919.92, 0.0, 9.994847, 10.000761 
1.7748837e+3, 3.144347e+2, -619944.94, 35561.164, 22656.707, -0.086897805, 0.039163932, 36343.332, 36343.332, 0.0, 9.9943075, 10.002983 
1.7852987e+3, 1.24472655e+2, -1057952.6, -1721331.8, 33369.527, 0.031458084, 0.09164889, -1056278.4, 663896.7, 0.07875895, 10.006417, 9.9968605 
1.7852785e+3, 1.3446943e+2, -954269.56, -1595691.3, -6905.838, 0.21048532, 0.048051976, -954195.2, 668010.6, 0.052289337, 10.006158, 9.9971895 
1.785253e+3, 1.4446655e+2, -884033.6, -1487227.8, 1768.393, -0.1089221, 0.033759635, -884028.44, 640205.25, 0.027538018, 10.0057, 9.997476 
1.7852332e+3, 1.5446429e+2, -862909.4, -1429860.6, 7609.7036, 0.06969334, 0.056710936, -862807.25, 563448.8, 0.010093263, 10.005082, 9.997487 
1.785212e+3, 1.6446224e+2, -830479.8, -1298742.5, 10639.689, 0.11794804, 0.07674681, -830238.2, 498038.53, 0.0019882, 10.004308, 9.998089 
1.78519e+3, 1.7446037e+2, -872627.7, -1268181.1, 18838.926, 0.05812901, 0.07813993, -871732.44, 358563.2, 0.00010526513, 10.003337, 9.998093 
1.785168e+3, 1.8445872e+2, -844289.56, -1130886.1, 10236.847, 0.04348176, 0.077130675, -843924.4, 288387.6, 0.0000000562377, 10.002543, 9.998745 
1.7851464e+3, 1.9445743e+2, -827406.1, -1070643.0, 15208.171, 0.06594631, 0.069576636, -826458.94, 207865.42, 0.0, 10.001981, 9.998756 
1.7851245e+3, 2.044564e+2, -778350.06, -937434.4, 3221.8389, 0.06645963, 0.07076642, -778284.8, 158049.0, 0.0, 10.00139, 9.999284 
1.7851023e+3, 2.1445575e+2, -771195.0, -882820.2, -11524.275, 0.04650883, 0.073757514, -770017.7, 68321.625, 0.0, 10.000765, 9.999287 
1.7850803e+3, 2.2445495e+2, -764454.9, -820993.4, -2609.3438, 0.03759776, 0.065536484, -764334.7, -23988.207, 0.0, 10.000105, 9.999356 
1.7850585e+3, 2.3445398e+2, -770133.06, -774800.9, 17578.744, 0.038532026, 0.03205606, -754733.94, -112378.46, 0.0, 9.999402, 9.999338 
1.7850362e+3, 2.4445345e+2, -720156.6, -622350.9, 45.292526, 0.028323606, 0.016842142, -622350.9, -77990.945, 0.0, 9.998738, 10.000031 
1.7850134e+3, 2.5445357e+2, -712685.2, -566765.4, -13695.754, 0.012256669, 0.0228688, -565491.06, -119133.766, 0.0, 9.998111, 10.000043 
1.784991e+3, 2.6445377e+2, -714276.2, -525120.8, -8170.0083, 0.008146919, 0.043884028, -524768.6, -176413.05, 0.0, 9.997464, 9.999967 
1.7849685e+3, 2.7445388e+2, -713511.1, -476005.63, -1874.6365, 0.00030189703, 0.05998683, -475990.84, -225635.08, 0.0, 9.996806, 9.9999485 
1.7849456e+3, 2.84454e+2, -661607.7, -307340.94, 11096.117, -0.08022924, 0.036865428, -306993.72, -154638.05, 0.0, 9.99609, 10.000778 
1.7849222e+3, 2.944544e+2, -683949.6, -277615.9, -3146.9656, -0.19945014, -0.0015477308, -277591.53, -223240.61, 0.0, 9.995308, 10.000687 
1.7849024e+3, 3.04456e+2, -679610.25, -217861.28, -8875.817, 0.0712547, 0.084137775, -217690.72, -217690.72, 0.0, 9.99486, 10.00098 
1.7848782e+3, 3.144565e+2, -590954.3, 10367.189, -1388.505, -0.08344621, 0.022399368, 10370.3955, 10370.3955, 0.0, 9.9946785, 10.00263 
1.7953049e+3, 1.2449441e+2, -1062565.5, -1723701.8, -8997.353, 0.006128573, 0.0688035, -1062443.1, 657518.7, 0.08340472, 10.0064125, 9.996847 
1.7952847e+3, 1.3449158e+2, -953916.5, -1591019.6, -15410.482, 0.2253272, 0.06076136, -953544.0, 668445.1, 0.05550805, 10.00616, 9.997225 
1.795259e+3, 1.4448892e+2, -896855.9, -1510750.4, -21485.268, -0.0903672, 0.074456684, -896104.8, 627910.5, 0.02938787, 10.005695, 9.9973135 
1.795238e+3, 1.5448631e+2, -876542.44, -1456221.1, -13942.245, 0.0454962, 0.079765536, -876207.3, 549834.56, 0.0108937975, 10.0050745, 9.997311 
1.7952159e+3, 1.6448407e+2, -820468.3, -1276867.3, -24430.666, 0.087668635, 0.083795294, -819164.3, 508899.8, 0.0021998922, 10.004302, 9.998243 
1.7951933e+3, 1.7448223e+2, -859335.75, -1242407.1, -16348.613, 0.06320617, 0.06991077, -858639.3, 371442.3, 0.00012255431, 10.003344, 9.998268 
1.7951708e+3, 1.844807e+2, -833584.0, -1110913.9, -11326.916, 0.06135764, 0.0662588, -833122.1, 298973.8, 0.000000085167756, 10.002551, 9.998879 
1.7951486e+3, 1.9447966e+2, -817563.1, -1051806.5, -4684.6943, 0.0720591, 0.06979828, -817469.44, 216636.3, 0.0, 10.001986, 9.998885 
1.795126e+3, 2.0447849e+2, -802937.7, -988753.6, -19525.953, 0.070929654, 0.06703036, -800908.06, 135209.03, 0.0, 10.0013895, 9.998933 
1.7951031e+3, 2.1447726e+2, -797729.6, -938233.25, -32983.92, 0.0612538, 0.048906017, -790371.8, 47757.84, 0.0, 10.000764, 9.998908 
1.7950805e+3, 2.2447652e+2, -729231.56, -747711.1, -27798.088, 0.047194205, 0.04423256, -709177.9, 30958.238, 0.0, 10.000102, 9.999862 
1.7950578e+3, 2.3447646e+2, -731424.5, -694875.6, -7317.1343, 0.025552996, 0.045194216, -693465.1, -51330.465, 0.0, 9.999401, 9.999889 
1.7950346e+3, 2.4447627e+2, -736634.25, -656442.9, -22969.926, -0.004742999, 0.046350125, -650329.44, -106193.69, 0.0, 9.998736, 9.9998 
1.7950112e+3, 2.5447604e+2, -731650.25, -606746.0, -35627.7, -0.038925238, 0.042978283, -597298.2, -151159.28, 0.0, 9.998112, 9.999769 
1.7949882e+3, 2.64476e+2, -700879.7, -498891.72, -31636.14, -0.024221292, 0.049880538, -494052.66, -145913.08, 0.0, 9.997469, 10.000146 
1.7949656e+3, 2.744762e+2, -698511.7, -447698.78, -24320.12, 0.032025974, 0.050478376, -445362.34, -195224.67, 0.0, 9.996816, 10.000139 
1.7949422e+3, 2.844764e+2, -667176.56, -320185.66, -17601.852, -0.03076312, 0.0382439, -319295.06, -167159.55, 0.0, 9.996095, 10.000689 
1.7949174e+3, 2.944772e+2, -685903.0, -281724.72, -30323.459, -0.19190316, 0.043820888, -279462.38, -225334.06, 0.0, 9.995306, 10.00066 
1.7948969e+3, 3.044784e+2, -671142.56, -201610.52, -12583.637, 0.033250857, 0.08414371, -201273.52, -201273.52, 0.0, 9.9948635, 10.001091 
1.7948727e+3, 3.1447878e+2, -621071.0, -58783.227, -59142.723, -0.10440447, 0.009214806, -52629.8, -52629.8, 0.0, 9.994704, 10.002144 
1.8053114e+3, 1.2451712e+2, -1027560.75, -1716618.1, -6926.8535, 0.008320145, 0.07279314, -1027491.1, 692248.56, 0.088287115, 10.00676, 9.996729 
1.8052909e+3, 1.3451429e+2, -947919.3, -1596958.3, 8968.8125, 0.2238453, 0.07521792, -947795.44, 673972.06, 0.05888674, 10.0062685, 9.9971285 
1.8052647e+3, 1.445117e+2, -904389.56, -1512593.6, -5864.07, -0.07304747, 0.10069837, -904333.0, 619460.25, 0.031333018, 10.005648, 9.997322 
1.8052429e+3, 1.5450895e+2, -899566.1, -1466311.3, 13572.64, 0.04860744, 0.089808024, -899241.25, 526580.0, 0.011742429, 10.004916, 9.997316 
1.8052202e+3, 1.6450666e+2, -825008.7, -1266961.8, 5048.3877, 0.08340978, 0.084284216, -824951.0, 502892.66, 0.0024283861, 10.004224, 9.998346 
1.8051967e+3, 1.7450489e+2, -816247.9, -1209359.0, 6344.2324, 0.05382028, 0.069766216, -816145.56, 413714.06, 0.00014165105, 10.00359, 9.998374 
1.8051735e+3, 1.8450347e+2, -784336.2, -1089060.5, 8652.739, 0.053722654, 0.07021365, -784090.7, 347782.28, 0.00000010953618, 10.0029, 9.99886 
1.8051507e+3, 1.9450249e+2, -796044.4, -1044014.0, 3155.895, 0.07466855, 0.08424848, -796004.25, 237878.25, 0.0, 10.002148, 9.998859 
1.8051274e+3, 2.0450133e+2, -797487.56, -981929.2, -4115.2324, 0.076921456, 0.081324756, -797395.75, 138498.19, 0.0, 10.001411, 9.998968 
1.8051039e+3, 2.1449998e+2, -805290.7, -937116.9, 11091.587, 0.061039943, 0.049902584, -804364.0, 33543.3, 0.0, 10.000695, 9.998947 
1.8050803e+3, 2.2449926e+2, -747840.25, -748934.1, 14920.984, 0.041020308, 0.039418403, -733456.1, 6457.5205, 0.0, 9.999943, 9.999929 
1.8050568e+3, 2.344993e+2, -764147.25, -703124.25, -1196.9778, 0.014333618, 0.045081973, -703100.75, -61189.69, 0.0, 9.9991455, 9.999956 
1.8050331e+3, 2.4449924e+2, -773182.25, -675259.4, -20175.28, -0.009777622, 0.05591695, -671265.5, -127354.234, 0.0, 9.99849, 9.999789 
1.8050091e+3, 2.5449914e+2, -748022.56, -615766.7, -14253.299, -0.026828248, 0.06639624, -614248.0, -168333.92, 0.0, 9.998006, 9.999758 
1.8049856e+3, 2.644991e+2, -695722.1, -482768.22, -5791.8604, -0.017020138, 0.06811518, -482610.8, -134695.97, 0.0, 9.997446, 10.000267 
1.8049623e+3, 2.7449915e+2, -696619.7, -433365.8, -5667.532, 0.015160527, 0.042337783, -433243.88, -183330.48, 0.0, 9.99677, 10.000259 
1.8049382e+3, 2.8449953e+2, -680218.6, -323069.97, -1536.0413, -0.032462776, 0.03577635, -323063.38, -171153.8, 0.0, 9.99599, 10.000719 
1.8049133e+3, 2.9450068e+2, -703839.3, -281469.94, -4576.4688, -0.14492437, 0.078435324, -281420.34, -227521.52, 0.0, 9.995146, 10.000738 
1.8048914e+3, 3.0450147e+2, -691245.3, -194973.45, 42364.73, 0.012207027, 0.06535423, -191382.92, -191382.92, 0.0, 9.994659, 10.001234 
1.8048672e+3, 3.1450272e+2, -656748.06, -76332.78, -44523.875, -0.09963042, 0.06690069, -72937.2, -72937.2, 0.0, 9.994463, 10.00214 
1.8153183e+3, 1.2454075e+2, -1046593.25, -1749694.0, -56212.266, 0.021576334, 0.10279379, -1042127.5, 677381.44, 0.09339997, 10.006748, 9.996511 
1.8152969e+3, 1.3453755e+2, -965073.44, -1628270.5, -6012.405, 0.20088176, 0.09047312, -965018.94, 656522.2, 0.062432308, 10.006268, 9.996904 
1.8152703e+3, 1.445349e+2, -895084.6, -1491232.4, -32049.932, -0.06282798, 0.11356932, -893366.5, 630201.0, 0.03338325, 10.005649, 9.997475 
1.815248e+3, 1.5453215e+2, -888174.56, -1442555.6, -12024.781, 0.07514275, 0.08814269, -887913.9, 537680.75, 0.012645788, 10.00492, 9.9974785 
1.8152246e+3, 1.6452993e+2, -821354.1, -1260838.5, -18468.875, 0.09958065, 0.079169065, -820579.4, 507036.53, 0.0026764723, 10.004229, 9.998388 
1.8152e+3, 1.7452835e+2, -813119.6, -1204035.4, -16117.845, 0.02802735, 0.077605456, -812456.2, 417173.97, 0.00016313356, 10.0035925, 9.998411 
1.815176e+3, 1.8452697e+2, -796912.94, -1114997.6, -18814.758, 0.019238662, 0.088809, -795803.9, 335839.63, 0.00000012908751, 10.002897, 9.998685 
1.8151528e+3, 1.9452588e+2, -808500.9, -1070770.8, -23494.61, 0.07303367, 0.11054055, -806412.8, 227242.33, 0.0, 10.002149, 9.998676 
1.8151288e+3, 2.0452484e+2, -769604.5, -924687.6, -30330.775, 0.08205893, 0.11110466, -763883.5, 171781.64, 0.0, 10.001412, 9.999362 
1.8151043e+3, 2.145239e+2, -775506.7, -876045.94, -14427.022, 0.04285414, 0.076105006, -773477.44, 64195.598, 0.0, 10.000695, 9.999368 
1.81508e+3, 2.2452307e+2, -773441.0, -801734.06, -14368.343, 0.016617855, 0.051887617, -767423.9, -27743.865, 0.0, 9.99994, 9.99957 
1.8150558e+3, 2.3452245e+2, -791632.94, -761366.94, -29321.377, 0.004325826, 0.03158327, -743503.75, -101818.4, 0.0, 9.999148, 9.999556 
1.8150318e+3, 2.4452227e+2, -758402.44, -645797.3, -37852.91, 0.011991636, 0.043763146, -634255.75, -90568.625, 0.0, 9.998492, 9.999991 
1.8150079e+3, 2.5452277e+2, -731127.9, -582394.6, -30523.824, 0.044936284, 0.091056615, -576374.06, -130690.41, 0.0, 9.99801, 9.999986 
1.8149833e+3, 2.6452294e+2, -691126.2, -473755.1, -29946.848, 0.026521498, 0.09768426, -469704.84, -122022.67, 0.0, 9.997447, 10.00033 
1.8149583e+3, 2.745227e+2, -692863.25, -425460.44, -29894.414, -0.056556694, 0.038718477, -422159.13, -172476.0, 0.0, 9.996768, 10.000316 
1.8149334e+3, 2.8452316e+2, -668053.44, -300211.28, -31964.59, -0.09057367, 0.030822733, -297454.3, -145776.1, 0.0, 9.995996, 10.000875 
1.8149091e+3, 2.9452473e+2, -687112.7, -253362.14, -32329.666, -0.056593563, 0.0972239, -250965.69, -197302.25, 0.0, 9.995171, 10.000922 
1.814886e+3, 3.0452508e+2, -680715.94, -175287.73, 34847.957, 0.0074851518, 0.023420371, -172896.38, -172896.38, 0.0, 9.99467, 10.001364 
1.8148616e+3, 3.1452683e+2, -615026.5, 11868.624, -68328.81, -0.11904522, 0.063789465, 19229.729, 19229.729, 0.0, 9.994452, 10.002752 
1.8253252e+3, 1.2456505e+2, -1062676.6, -1755832.4, -37882.797, 0.04304882, 0.112532206, -1060612.4, 658659.25, 0.09873349, 10.006656, 9.996512 
1.8253031e+3, 1.3456158e+2, -942224.2, -1615468.3, 52902.883, 0.17915957, 0.07492143, -938092.5, 683213.44, 0.0661472, 10.006458, 9.9969015 
1.8252763e+3, 1.4455895e+2, -857581.2, -1474698.1, 15005.893, -0.04833056, 0.10157238, -857216.5, 666115.56, 0.03554558, 10.005939, 9.997451 
1.825253e+3, 1.5455635e+2, -866200.1, -1434208.3, 21682.406, 0.0757459, 0.09458128, -865373.7, 559984.2, 0.0136090275, 10.005092, 9.997452 
1.8252288e+3, 1.6455416e+2, -817092.56, -1267487.9, 8805.567, 0.09613857, 0.095009744, -816920.5, 510458.6, 0.0029466036, 10.0043, 9.998306 
1.8252034e+3, 1.745525e+2, -822747.0, -1218011.5, 991.69965, 0.028060062, 0.09402018, -822744.5, 406650.06, 0.00018759354, 10.00357, 9.998324 
1.8251789e+3, 1.84551e+2, -806502.06, -1119701.4, -2046.071, 0.016496161, 0.09890092, -806488.7, 324920.5, 0.00000015151502, 10.002834, 9.998681 
1.8251547e+3, 1.9454977e+2, -816607.5, -1074574.8, 5213.1724, 0.05990735, 0.1067221, -816502.2, 216919.73, 0.0, 10.002095, 9.998674 
1.82513e+3, 2.045488e+2, -771426.6, -915251.8, -4353.7085, 0.065757655, 0.11114392, -771294.94, 164136.16, 0.0, 10.001357, 9.999452 
1.8251048e+3, 2.1454822e+2, -780117.4, -867146.44, -13617.551, 0.031118233, 0.10174123, -778036.4, 59399.297, 0.0, 10.000618, 9.999465 
1.8250799e+3, 2.2454748e+2, -774334.2, -801465.06, -11700.204, 0.012176048, 0.081241764, -769985.5, -30543.691, 0.0, 9.999931, 9.999576 
1.825055e+3, 2.3454663e+2, -769696.6, -749901.3, 1628.6904, 0.01093619, 0.038630657, -749768.2, -108318.88, 0.0, 9.999298, 9.99956 
1.8250304e+3, 2.4454641e+2, -735818.9, -628769.44, 7539.8447, 0.024192497, 0.04257128, -628241.0, -84789.516, 0.0, 9.998624, 10.000044 
1.825006e+3, 2.5454703e+2, -744786.8, -583151.0, 1351.6357, 0.055093706, 0.096755736, -583139.7, -137693.22, 0.0, 9.997892, 10.000037 
1.8249807e+3, 2.6454723e+2, -723282.4, -479420.66, -6168.342, 0.025713162, 0.10302094, -479264.72, -131820.53, 0.0, 9.997185, 10.000417 
1.8249547e+3, 2.7454704e+2, -726482.4, -431888.3, -5792.501, -0.07387646, 0.038578417, -431774.47, -182329.38, 0.0, 9.996498, 10.000401 
1.8249293e+3, 2.845476e+2, -674544.5, -295220.06, -8784.3, -0.093684316, 0.033284053, -295016.75, -143577.45, 0.0, 9.995918, 10.000946 
1.8249048e+3, 2.9454926e+2, -647368.75, -224751.11, -17329.994, -0.02367615, 0.10135244, -224041.67, -170618.06, 0.0, 9.995403, 10.001005 
1.82488e+3, 3.045497e+2, -686597.3, -181849.7, 45539.645, -0.045031104, 0.03136843, -177773.9, -177773.9, 0.0, 9.994648, 10.0013275 
1.8248563e+3, 3.1455153e+2, -670674.8, 32647.227, -58677.902, -0.054836236, 0.08910428, 37509.094, 37509.094, 0.0, 9.993864, 10.003179 
1.8353319e+3, 1.2458996e+2, -1054680.8, -1729914.3, -66782.4, 0.049143463, 0.104179464, -1048139.1, 670888.7, 0.10427554, 10.00666, 9.996693 
1.8353093e+3, 1.3458633e+2, -933848.25, -1591913.5, 46545.89, 0.1571224, 0.033630945, -930572.3, 690490.2, 0.0700284, 10.006455, 9.997077 
1.8352823e+3, 1.445838e+2, -872186.94, -1501810.3, -15397.317, -0.03235511, 0.06935895, -871810.6, 651276.94, 0.03782331, 10.005935, 9.997262 
1.8352579e+3, 1.5458147e+2, -880337.6, -1463605.6, -7926.4077, 0.048531786, 0.1078828, -880229.94, 544881.94, 0.014635871, 10.005092, 9.9972515 
1.8352328e+3, 1.6457929e+2, -832269.5, -1298727.0, -17807.082, 0.07033619, 0.12915252, -831590.75, 495543.28, 0.0032409148, 10.004297, 9.998094 
1.8352073e+3, 1.7457728e+2, -837512.94, -1249620.6, -24738.063, 0.050464135, 0.11731922, -836033.25, 393120.25, 0.00021562698, 10.0035715, 9.998107 
1.8351819e+3, 1.8457553e+2, -795195.4, -1097655.8, -28645.639, 0.04032972, 0.10092672, -792506.25, 338664.1, 0.00000018976193, 10.002838, 9.998833 
1.8351565e+3, 1.9457415e+2, -804028.1, -1050528.0, -20748.514, 0.033268258, 0.07510492, -802293.9, 230889.42, 0.0, 10.002102, 9.998837 
1.835131e+3, 2.0457321e+2, -785836.5, -946046.44, -31034.59, 0.026896322, 0.084086165, -780034.8, 155157.42, 0.0, 10.001359, 9.999241 
1.8351054e+3, 2.1457288e+2, -795179.7, -899811.3, -39233.59, 0.02454077, 0.12489636, -782102.75, 55093.18, 0.0, 10.000622, 9.999241 
1.83508e+3, 2.2457239e+2, -749295.3, -749895.25, -34636.355, 0.025327386, 0.124078594, -714957.6, 24242.3, 0.0, 9.999931, 9.99993 
1.8350546e+3, 2.3457178e+2, -742731.44, -694620.4, -20439.895, 0.030162327, 0.06568942, -687109.2, -45905.402, 0.0, 9.999298, 9.999941 
1.8350291e+3, 2.4457154e+2, -743568.4, -644171.1, -18984.803, 0.023759892, 0.05264705, -640668.5, -97463.34, 0.0, 9.99862, 9.999941 
1.8350033e+3, 2.545718e+2, -752644.2, -600000.4, -24285.006, 0.0014400278, 0.08401562, -596229.9, -151026.8, 0.0, 9.997893, 9.999922 
1.8349774e+3, 2.6457193e+2, -716010.3, -466141.2, -31103.598, -0.021027049, 0.08386994, -462327.63, -115126.03, 0.0, 9.9971895, 10.000507 
1.8349515e+3, 2.7457204e+2, -718863.2, -418782.1, -29375.281, -0.03784883, 0.04051584, -415933.56, -166733.34, 0.0, 9.996506, 10.000488 
1.8349257e+3, 2.8457266e+2, -674418.5, -297301.25, -27552.002, -0.04389134, 0.040017195, -295298.94, -144104.89, 0.0, 9.995928, 10.000928 
1.8349e+3, 2.9457408e+2, -647835.06, -227743.33, -37314.836, -0.05704152, 0.08782916, -224454.58, -171274.08, 0.0, 9.995411, 10.000982 
1.8348737e+3, 3.0457526e+2, -702056.06, -214676.17, 12358.758, -0.14839317, 0.10311476, -214362.98, -214362.98, 0.0, 9.994649, 10.001102 
1.8348508e+3, 3.145765e+2, -672039.3, 24250.467, -43329.9, 0.004269242, 0.120555826, 26936.512, 26936.512, 0.0, 9.99388, 10.003118 
1.845339e+3, 1.24615796e+2, -968098.75, -1686838.8, -42681.01, 0.05873966, 0.10247767, -965573.06, 753202.56, 0.1100178, 10.007375, 9.996664 
1.8453154e+3, 1.3461244e+2, -924688.4, -1587521.8, 72474.51, 0.121220544, 0.060133014, -916856.5, 703951.1, 0.07407708, 10.006555, 9.997061 
1.8452884e+3, 1.4460997e+2, -895221.94, -1516089.1, 2183.6414, -0.010855323, 0.10560001, -895214.25, 627617.75, 0.04022212, 10.005802, 9.997223 
1.845263e+3, 1.5460727e+2, -881692.25, -1469175.6, 18022.553, 0.043559324, 0.112063296, -881139.9, 543719.94, 0.015731245, 10.005111, 9.997203 
1.8452369e+3, 1.646049e+2, -828812.1, -1306745.1, 18673.424, 0.06041117, 0.12357007, -828083.7, 498800.06, 0.0035619566, 10.004367, 9.998004 
1.8452108e+3, 1.74603e+2, -844681.1, -1263377.9, 19997.578, 0.0531431, 0.12863792, -843728.2, 385174.63, 0.00024802488, 10.00357, 9.998013 
1.8451847e+3, 1.8460125e+2, -792941.2, -1095662.5, 19191.47, 0.04304349, 0.11792906, -791729.3, 339190.25, 0.00000025167606, 10.002852, 9.998837 
1.8451585e+3, 1.9459978e+2, -784058.5, -1039463.56, 14127.217, 0.022372752, 0.08450035, -783279.44, 249653.22, 0.0, 10.002235, 9.998847 
1.8451323e+3, 2.0459874e+2, -764010.94, -937634.7, 1217.0391, 0.019398903, 0.08434619, -764002.4, 170939.92, 0.0, 10.00152, 9.99922 
1.8451062e+3, 2.1459828e+2, -787622.94, -898397.56, 7033.3877, 0.039706804, 0.11539815, -787178.1, 49769.06, 0.0, 10.000687, 9.999218 
1.8450801e+3, 2.2459784e+2, -751145.5, -755314.56, 11086.075, 0.043158885, 0.122444466, -741949.6, -2998.6372, 0.0, 9.999941, 9.9998865 
1.8450539e+3, 2.3459746e+2, -746380.8, -701543.0, -7542.5605, 0.028230606, 0.09221558, -700308.25, -59355.11, 0.0, 9.999298, 9.999893 
1.8450275e+3, 2.4459717e+2, -739412.25, -635086.5, -19326.783, 0.009497178, 0.07459815, -631621.2, -88666.57, 0.0, 9.998619, 10.000004 
1.845001e+3, 2.5459707e+2, -748239.5, -589189.8, -11918.792, -0.017049225, 0.06320606, -588301.56, -143346.63, 0.0, 9.9978895, 9.999996 
1.8449745e+3, 2.6459724e+2, -729651.3, -476708.2, -16732.678, -0.030478235, 0.061281785, -475606.1, -128652.77, 0.0, 9.997118, 10.000467 
1.8449481e+3, 2.745977e+2, -751124.44, -439816.1, -25554.678, -0.020593436, 0.062205743, -437732.3, -188783.25, 0.0, 9.996311, 10.000436 
1.8449217e+3, 2.845983e+2, -693830.7, -312020.03, -16256.222, -0.024667772, 0.06402835, -311329.13, -160385.66, 0.0, 9.995819, 10.000878 
1.8448953e+3, 2.9459926e+2, -625679.3, -222532.08, -33519.285, -0.06506622, 0.069059685, -219764.16, -166830.0, 0.0, 9.995589, 10.00093 
1.8448682e+3, 3.0460086e+2, -673843.6, -189769.95, 6453.9463, -0.16389993, 0.124687985, -189683.92, -189683.92, 0.0, 9.994799, 10.001199 
1.8448447e+3, 3.1460115e+2, -704280.9, -322.65234, 24003.246, 0.028090997, 0.039663937, 494.85004, 494.85004, 0.0, 9.993698, 10.0030365 
1.8553463e+3, 1.2464248e+2, -986293.75, -1714189.3, -78418.71, 0.05084159, 0.10574722, -977941.3, 740574.44, 0.115963764, 10.007368, 9.996462 
1.8553214e+3, 1.3463975e+2, -940704.44, -1612401.4, 46548.574, 0.06657074, 0.14413476, -937493.94, 683048.7, 0.07830681, 10.006543, 9.996883 
1.8552944e+3, 1.4463733e+2, -894527.0, -1508067.3, -22522.121, 0.009359992, 0.19916235, -893701.4, 628865.25, 0.042755496, 10.005785, 9.99729 
1.855268e+3, 1.5463372e+2, -877823.75, -1459990.5, -6087.303, 0.05642844, 0.108637534, -877760.1, 546842.0, 0.016904015, 10.005111, 9.997267 
1.8552414e+3, 1.6463105e+2, -826248.5, -1303311.6, -10238.168, 0.062130716, 0.0850349, -826028.94, 500599.38, 0.003913729, 10.004374, 9.998026 
1.8552142e+3, 1.7462955e+2, -841849.3, -1259922.9, -8320.156, 0.03558101, 0.12956083, -841683.8, 386959.38, 0.00028595966, 10.003577, 9.998034 
1.8551873e+3, 1.8462802e+2, -802689.7, -1117463.5, -3430.921, 0.023782967, 0.14811915, -802652.25, 328005.5, 0.0000003514084, 10.002856, 9.998687 
1.8551607e+3, 1.9462655e+2, -794463.6, -1062326.3, -7279.573, 0.02464211, 0.13083869, -794265.94, 238405.2, 0.0, 10.002238, 9.998691 
1.855134e+3, 2.0462532e+2, -752190.7, -914216.0, -29031.592, 0.039546076, 0.10913821, -747145.94, 187536.42, 0.0, 10.001522, 9.999381 
1.8551072e+3, 2.1462438e+2, -775320.94, -873822.44, -22710.332, 0.0728126, 0.07513214, -770337.06, 66353.18, 0.0, 10.000688, 9.999387 
1.8550801e+3, 2.2462378e+2, -782461.25, -820833.0, -12571.427, 0.0632521, 0.07923932, -778709.4, -40013.637, 0.0, 9.999941, 9.999438 
1.8550529e+3, 2.346236e+2, -779086.94, -770814.4, -29744.049, 0.004233524, 0.11739163, -744920.4, -104222.26, 0.0, 9.999302, 9.999417 
1.8550257e+3, 2.4462323e+2, -723696.9, -603667.75, -45865.484, -0.01991657, 0.10623546, -588148.25, -45447.383, 0.0, 9.998622, 10.000219 
1.8549989e+3, 2.5462276e+2, -730335.1, -553329.44, -38016.85, -0.0042257877, 0.03378486, -545509.75, -100806.75, 0.0, 9.997892, 10.000242 
1.8549718e+3, 2.64623e+2, -742550.94, -504139.88, -46775.13, -0.004857238, 0.035236377, -495291.22, -148590.92, 0.0, 9.997119, 10.000279 
1.8549444e+3, 2.7462396e+2, -764810.7, -468877.28, -53358.97, -0.024571087, 0.10575148, -459550.22, -210857.8, 0.0, 9.996313, 10.0002365 
1.8549174e+3, 2.8462443e+2, -699789.56, -327045.97, -24962.355, -0.04003123, 0.10680713, -325381.7, -174693.08, 0.0, 9.995827, 10.000773 
1.8548909e+3, 2.9462457e+2, -629908.2, -236077.0, -44812.41, -0.05406861, 0.04313273, -231042.34, -178356.22, 0.0, 9.995606, 10.000831 
1.8548638e+3, 3.0462626e+2, -639014.5, -121598.28, -38816.582, -0.0845777, 0.08925761, -118702.47, -118702.47, 0.0, 9.994816, 10.001659 
1.8548381e+3, 3.146273e+2, -719602.7, -35929.85, 22499.61, -0.004691201, 0.030337073, -35190.19, -35190.19, 0.0, 9.993712, 10.002787 
1.8653536e+3, 1.2467023e+2, -966834.1, -1705615.0, -55305.28, 0.052935623, 0.13280539, -962716.9, 755527.75, 0.122132316, 10.007579, 9.996423 
1.8653275e+3, 1.3466714e+2, -959877.8, -1627293.8, 72894.8, 0.036823332, 0.14225528, -952009.06, 668265.94, 0.082740836, 10.0064535, 9.996823 
1.8653004e+3, 1.4466476e+2, -915842.56, -1514895.0, 22366.977, 0.04719944, 0.20353025, -915008.6, 607289.9, 0.045441803, 10.005634, 9.997313 
1.8652731e+3, 1.5466124e+2, -870966.5, -1453523.6, 37137.395, 0.04916472, 0.120114684, -868608.56, 555724.3, 0.018165153, 10.005154, 9.99729 
1.8652456e+3, 1.6465859e+2, -800928.25, -1295823.6, 24567.893, 0.044376, 0.09912209, -799711.6, 526647.3, 0.0043010805, 10.004573, 9.99798 
1.8652178e+3, 1.7465702e+2, -801819.5, -1246216.3, 18842.73, 0.041409235, 0.14110686, -801022.0, 427352.75, 0.0003308104, 10.003878, 9.997982 
1.8651904e+3, 1.8465538e+2, -769151.25, -1105762.9, 25780.336, 0.04104175, 0.15474048, -767188.25, 363201.94, 0.00000050835786, 10.003108, 9.998646 
1.8651631e+3, 1.9465381e+2, -794756.7, -1067044.5, 29692.299, 0.039915714, 0.13047628, -791556.44, 240847.9, 0.0, 10.002258, 9.998648 
1.8651354e+3, 2.0465249e+2, -756695.1, -926201.75, 5180.0938, 0.043476507, 0.108467534, -756536.94, 177879.16, 0.0, 10.001536, 9.99929 
1.8651077e+3, 2.1465153e+2, -741090.1, -867689.0, -9673.184, 0.05415015, 0.08103592, -740355.3, 96069.14, 0.0, 10.00097, 9.999292 
1.8650801e+3, 2.2465079e+2, -737440.0, -807613.2, 3621.262, 0.045111164, 0.0812155, -737253.6, 1177.5317, 0.0, 10.000289, 9.999361 
1.8650523e+3, 2.3465037e+2, -758927.9, -769277.2, 14856.445, 0.011215501, 0.10479926, -748370.7, -107935.22, 0.0, 9.999478, 9.999341 
1.8650246e+3, 2.4464995e+2, -719808.9, -613505.4, 2925.923, -0.006094872, 0.09608491, -613424.94, -70985.76, 0.0, 9.998703, 10.00011 
1.8649969e+3, 2.5464958e+2, -728287.8, -565478.3, -17474.227, 0.00020994381, 0.04409128, -563623.94, -119182.72, 0.0, 9.997966, 10.000122 
1.864969e+3, 2.6464975e+2, -716331.7, -498277.34, -33343.168, 0.0010168595, 0.05034652, -493292.72, -146853.67, 0.0, 9.99733, 10.0002165 
1.864941e+3, 2.7465054e+2, -699621.7, -442403.38, -29892.238, -0.013399212, 0.10976554, -438975.2, -190543.06, 0.0, 9.996785, 10.00019 
1.8649133e+3, 2.846509e+2, -677377.1, -315713.94, 10434.275, -0.04491838, 0.10300567, -315413.13, -164984.36, 0.0, 9.995982, 10.000773 
1.864886e+3, 2.9465094e+2, -727602.4, -282780.53, -3355.1719, -0.0748885, 0.029570965, -282755.22, -230328.2, 0.0, 9.994938, 10.00083 
1.864859e+3, 3.046523e+2, -694343.2, -147337.13, -10459.972, -0.021262866, 0.04781725, -147137.17, -147137.17, 0.0, 9.994434, 10.001665 
1.8648316e+3, 3.1465393e+2, -638308.9, -30829.395, 24284.629, -0.06598273, 0.045257177, -29860.137, -29860.137, 0.0, 9.994419, 10.002479 
1.875361e+3, 1.2469884e+2, -971730.44, -1699181.3, -83610.64, 0.039003417, 0.16863148, -962244.25, 755720.2, 0.12855914, 10.00755, 9.99649 
1.875334e+3, 1.3469467e+2, -961054.9, -1624214.0, 34416.742, 0.025928225, 0.06725856, -959273.5, 660731.0, 0.08740795, 10.006461, 9.996839 
1.8753065e+3, 1.4469233e+2, -916650.4, -1515617.3, 4603.897, 0.095833085, 0.13449197, -916615.0, 605412.25, 0.048299678, 10.005645, 9.997304 
1.8752779e+3, 1.5468974e+2, -872845.0, -1454558.8, 21163.354, 0.020416033, 0.1441765, -872076.06, 551977.2, 0.019524632, 10.005145, 9.997288 
1.8752497e+3, 1.6468737e+2, -812359.0, -1316535.5, -1034.269, 0.0056720222, 0.15660867, -812356.9, 513720.3, 0.0047285086, 10.0045595, 9.997846 
1.875222e+3, 1.7468528e+2, -811725.2, -1267256.8, -5956.8867, 0.06692105, 0.16211715, -811647.25, 416451.0, 0.00038392356, 10.003878, 9.997839 
1.875194e+3, 1.8468328e+2, -763686.25, -1096125.9, -5227.698, 0.08900424, 0.14183444, -763604.06, 366513.06, 0.000000733184, 10.003113, 9.998711 
1.8751656e+3, 1.9468147e+2, -789594.25, -1057449.3, -953.978, 0.06508809, 0.08774603, -789590.9, 242541.69, 0.0, 10.00226, 9.998714 
1.8751368e+3, 2.0468019e+2, -780555.3, -976873.9, -15806.505, 0.029855883, 0.08438026, -779290.8, 154853.31, 0.0, 10.001539, 9.998943 
1.875108e+3, 2.1467961e+2, -766588.8, -921194.8, -29090.467, -0.016010925, 0.13053633, -761296.4, 74854.336, 0.0, 10.00097, 9.998926 
1.8750797e+3, 2.2467877e+2, -717095.5, -766066.4, -25651.26, -0.01170652, 0.12546398, -706119.4, 32038.799, 0.0, 10.000289, 9.999647 
1.875052e+3, 2.3467773e+2, -737037.44, -724154.5, -13957.118, 0.046200655, 0.055393495, -715224.1, -75058.2, 0.0, 9.999477, 9.999653 
1.8750237e+3, 2.4467723e+2, -751165.9, -679291.9, -24081.805, 0.048234474, 0.045752913, -671969.2, -129798.95, 0.0, 9.998704, 9.99966 
1.8749948e+3, 2.5467739e+2, -761690.4, -637039.56, -43426.945, -0.0066057, 0.09489673, -623402.1, -179231.83, 0.0, 9.997973, 9.999629 
1.8749662e+3, 2.6467738e+2, -711198.6, -490267.03, -53403.95, -0.01531488, 0.106113605, -478035.34, -131864.9, 0.0, 9.997339, 10.000269 
1.874938e+3, 2.746773e+2, -691410.75, -428926.7, -49383.13, 0.010137076, 0.071209766, -419943.3, -171773.95, 0.0, 9.996798, 10.0002775 
1.8749093e+3, 2.8467765e+2, -669184.06, -300455.47, -29356.734, -0.042792793, 0.052170735, -298132.84, -147967.83, 0.0, 9.995989, 10.000876 
1.8748802e+3, 2.946784e+2, -722873.2, -270551.9, -40504.605, -0.13327825, 0.036193404, -266953.4, -214796.4, 0.0, 9.9949255, 10.000921 
1.8748538e+3, 3.046789e+2, -727116.9, -219339.63, -9967.431, 0.024115086, -0.0097581055, -219144.05, -219144.05, 0.0, 9.994446, 10.001168 
1.8748261e+3, 3.1468117e+2, -638315.9, -44098.137, -7684.5503, -0.066222385, 0.1099117, -43998.773, -43998.773, 0.0, 9.994475, 10.00236 
1.8853688e+3, 1.2472768e+2, -987449.7, -1703728.8, -50728.176, 0.060765043, 0.15920994, -983874.9, 733806.6, 0.13529591, 10.007473, 9.996489 
1.88534e+3, 1.3472338e+2, -930507.4, -1620010.4, 39346.934, -0.007840107, 0.055634636, -928269.25, 691454.06, 0.09234041, 10.006781, 9.996714 
1.8853125e+3, 1.4472117e+2, -864834.56, -1481235.5, 14830.082, 0.113364466, 0.13821429, -864477.94, 657266.9, 0.051345162, 10.005997, 9.997382 
1.8852831e+3, 1.5471856e+2, -880697.44, -1449161.9, 34916.406, 0.028225455, 0.14000742, -878560.8, 545209.56, 0.020989025, 10.005058, 9.997367 
1.8852541e+3, 1.6471614e+2, -847439.75, -1338542.3, 25385.201, 0.010096045, 0.14659905, -846131.06, 479663.6, 0.005199078, 10.004341, 9.997799 
1.8852258e+3, 1.7471397e+2, -814843.1, -1274635.6, 26070.297, 0.067966774, 0.14847179, -813369.6, 414447.06, 0.00044642916, 10.003883, 9.997786 
1.8851972e+3, 1.8471196e+2, -747742.0, -1097763.0, 16021.199, 0.08802164, 0.1345954, -747010.2, 382825.8, 0.0000010252129, 10.003264, 9.998625 
1.8851678e+3, 1.9471022e+2, -764761.9, -1055158.6, 7068.273, 0.06375685, 0.09724365, -764589.94, 267261.22, 0.0, 10.002475, 9.998626 
1.8851386e+3, 2.0470892e+2, -762329.6, -975220.3, 2721.2625, 0.03264801, 0.0982394, -762294.9, 171568.42, 0.0, 10.001698, 9.998877 
1.885109e+3, 2.1470816e+2, -775617.44, -932857.6, 10110.726, -0.005035711, 0.13533974, -774969.94, 60901.387, 0.0, 10.000941, 9.998859 
1.88508e+3, 2.2470722e+2, -731399.06, -777355.44, 10557.79, 0.0010641351, 0.12564309, -729089.6, 8790.103, 0.0, 10.000214, 9.999604 
1.8850516e+3, 2.3470615e+2, -733497.8, -727021.94, -5193.1875, 0.054025564, 0.05609196, -724140.0, -84252.305, 0.0, 9.999524, 9.999609 
1.8850225e+3, 2.4470563e+2, -741565.2, -689200.44, -15430.039, 0.049351405, 0.054724157, -684992.0, -143099.72, 0.0, 9.998835, 9.999527 
1.8849927e+3, 2.547058e+2, -747397.9, -645573.56, -9811.435, -0.012075673, 0.11975404, -644636.8, -200744.1, 0.0, 9.99814, 9.999488 
1.8849635e+3, 2.6470557e+2, -686401.56, -472154.66, -159.19536, -0.01637168, 0.11571347, -472154.53, -126259.91, 0.0, 9.997485, 10.00032 
1.8849348e+3, 2.7470514e+2, -677173.1, -414659.28, 768.1866, 0.017448274, 0.036408424, -414657.03, -166760.84, 0.0, 9.996866, 10.00034 
1.8849051e+3, 2.8470558e+2, -667414.8, -302914.28, -1484.153, -0.050193712, 0.028818715, -302908.25, -153017.83, 0.0, 9.996017, 10.000845 
1.884875e+3, 2.9470685e+2, -719872.44, -277752.72, -21236.818, -0.15200575, 0.069988765, -276734.97, -224856.7, 0.0, 9.994987, 10.000841 
1.8848485e+3, 3.04707e+2, -744843.9, -260001.47, 40015.76, 0.055525772, 0.008250225, -256721.02, -256721.02, 0.0, 9.994462, 10.000881 
1.8848199e+3, 3.1470922e+2, -679071.8, -29099.746, 2142.7795, -0.100876264, 0.1472525, -29092.682, -29092.682, 0.0, 9.994055, 10.002662 
1.8953764e+3, 1.2475679e+2, -999844.56, -1716856.0, -51201.09, 0.09062271, 0.11017175, -996206.8, 721188.94, 0.14239332, 10.007467, 9.996392 
1.8953462e+3, 1.3475311e+2, -953976.2, -1659968.8, 18661.4, -0.06585215, 0.097032025, -953483.25, 665949.3, 0.09756633, 10.006758, 9.99645 
1.8953183e+3, 1.4475106e+2, -860878.56, -1463601.8, -17506.367, 0.09850393, 0.20031351, -860370.5, 661082.1, 0.05458904, 10.005972, 9.997524 
1.8952884e+3, 1.5474771e+2, -871268.2, -1429023.5, 1397.0588, 0.06566026, 0.111744605, -871264.7, 552219.7, 0.022561016, 10.005064, 9.997503 
1.8952589e+3, 1.6474497e+2, -843945.6, -1333886.5, 8167.0117, 0.04823735, 0.08073382, -843809.5, 481701.3, 0.005714311, 10.004353, 9.997827 
1.8952295e+3, 1.7474304e+2, -813457.1, -1271657.3, 10159.95, 0.043492574, 0.10354483, -813232.0, 414298.47, 0.00051922485, 10.0038805, 9.997808 
1.8951999e+3, 1.8474133e+2, -765355.75, -1133193.9, -12849.351, 0.03914085, 0.13031986, -764907.5, 364640.13, 0.0000013718216, 10.003257, 9.998386 
1.89517e+3, 1.9473997e+2, -782184.8, -1091537.9, -20956.027, 0.036109455, 0.15560023, -780771.7, 250789.28, 0.0, 10.002473, 9.998378 
1.8951404e+3, 2.0473856e+2, -748154.44, -946850.5, -24751.535, 0.049181357, 0.148263, -745117.56, 188456.78, 0.0, 10.001699, 9.999072 
1.8951109e+3, 2.1473712e+2, -761688.4, -903755.94, -16567.115, 0.08140565, 0.09791283, -759782.0, 75804.93, 0.0, 10.000938, 9.999062 
1.8950811e+3, 2.2473606e+2, -757046.2, -831281.75, -14834.534, 0.07842457, 0.084456764, -754191.56, -16595.072, 0.0, 10.000214, 9.999235 
1.8950509e+3, 2.3473552e+2, -760728.7, -785017.94, -29398.576, 0.032509446, 0.10637029, -741065.0, -101463.414, 0.0, 9.999528, 9.99921 
1.8950208e+3, 2.4473506e+2, -728188.25, -663138.7, -40594.65, -0.003950527, 0.12224978, -643646.3, -102040.27, 0.0, 9.998839, 9.999705 
1.8949907e+3, 2.5473475e+2, -732266.1, -615939.7, -34264.176, -0.018073715, 0.11800486, -606597.4, -162988.06, 0.0, 9.998145, 9.999691 
1.894961e+3, 2.647343e+2, -681364.9, -464341.8, -22527.28, -0.0042660446, 0.07788516, -462028.13, -116415.58, 0.0, 9.997494, 10.000372 
1.8949315e+3, 2.7473396e+2, -672588.4, -409058.97, -22244.361, 0.003295976, 0.0051993043, -407194.53, -159581.17, 0.0, 9.99688, 10.000375 
1.894901e+3, 2.8473467e+2, -678779.7, -328166.97, -39724.62, -0.0696934, 0.033399347, -323722.5, -174116.8, 0.0, 9.996023, 10.0006695 
1.8948703e+3, 2.9473633e+2, -738375.2, -317893.38, -52644.184, -0.12906156, 0.13207789, -311402.56, -259811.03, 0.0, 9.994991, 10.000565 
1.894843e+3, 3.0473664e+2, -749520.9, -275803.03, 29889.574, 0.06107062, 0.10968176, -273924.56, -273924.56, 0.0, 9.994482, 10.000765 
1.894814e+3, 3.1473666e+2, -632043.6, 68653.49, -89069.51, -0.085286014, 0.030414958, 79798.34, 79798.34, 0.0, 9.994058, 10.00333 
1.905384e+3, 1.2478708e+2, -986253.9, -1687049.4, -14981.13, 0.09625608, 0.11992635, -985933.8, 731165.4, 0.14985932, 10.007528, 9.996599 
1.9053528e+3, 1.3478328e+2, -985693.9, -1675231.1, 43900.863, -0.07151965, 0.09347374, -982910.06, 636226.7, 0.10308509, 10.006547, 9.9964485 
1.9053245e+3, 1.4478111e+2, -890552.56, -1487024.8, 17163.432, 0.12126779, 0.19198582, -890059.06, 631098.9, 0.058027353, 10.005819, 9.997427 
1.9052936e+3, 1.5477781e+2, -842204.3, -1425468.6, 18206.857, 0.06512647, 0.11945817, -841636.56, 581553.4, 0.024237655, 10.005325, 9.9974 
1.9052634e+3, 1.647751e+2, -796516.6, -1303889.4, 19768.36, 0.040372774, 0.09217796, -795747.6, 529468.6, 0.0062739872, 10.004654, 9.997888 
1.9052333e+3, 1.7477311e+2, -820900.44, -1268011.9, 22997.098, 0.04010995, 0.1040734, -819720.7, 407514.94, 0.0006028815, 10.0038, 9.997871 
1.905203e+3, 1.8477134e+2, -800249.6, -1156733.1, 6763.3823, 0.038587682, 0.12553322, -800121.4, 329131.8, 0.0000017786746, 10.003048, 9.998324 
1.9051723e+3, 1.9476995e+2, -795922.9, -1105849.1, 10100.965, 0.037101243, 0.153267, -795594.0, 235673.47, 0.0, 10.002414, 9.998307 
1.905142e+3, 2.0476851e+2, -747604.1, -951802.0, 2882.636, 0.054813385, 0.15109803, -747563.44, 185717.81, 0.0, 10.001728, 9.999023 
1.9051118e+3, 2.1476708e+2, -756952.0, -906221.8, -8781.8545, 0.09516885, 0.106845535, -756437.1, 78856.55, 0.0, 10.000994, 9.999017 
1.9050813e+3, 2.2476597e+2, -750640.9, -839791.25, -2776.1804, 0.08928866, 0.094721675, -750554.5, -13250.514, 0.0, 10.00031, 9.999129 
1.9050504e+3, 2.3476529e+2, -745982.25, -790314.06, 2688.2742, 0.026587551, 0.114346616, -745819.8, -106509.016, 0.0, 9.999684, 9.999098 
1.9050196e+3, 2.4476478e+2, -703595.44, -640091.4, -3503.5242, -0.012734742, 0.12602773, -639898.7, -98582.914, 0.0, 9.998963, 9.999803 
1.9049889e+3, 2.5476447e+2, -726255.3, -601360.0, -5514.8965, -0.011095958, 0.11479111, -601116.94, -157798.69, 0.0, 9.998139, 9.999792 
1.9049585e+3, 2.6476413e+2, -720390.1, -492920.63, -3017.5217, 0.007399606, 0.08586129, -492880.6, -147560.08, 0.0, 9.997272, 10.000282 
1.9049281e+3, 2.7476397e+2, -757369.3, -459869.88, -14743.099, 0.0052535846, 0.042308714, -459141.06, -211820.66, 0.0, 9.996344, 10.000283 
1.9048968e+3, 2.8476462e+2, -718030.6, -336813.56, -21412.258, -0.055807054, 0.06064975, -335614.66, -186300.63, 0.0, 9.995713, 10.000758 
1.9048658e+3, 2.9476592e+2, -671523.6, -284180.28, -9433.446, -0.072737135, 0.1145103, -283950.7, -232647.77, 0.0, 9.995447, 10.000575 
1.9048373e+3, 3.0476683e+2, -690215.8, -231953.16, 88666.93, 0.018851468, 0.14939354, -215395.69, -215395.69, 0.0, 9.9948225, 10.000903 
1.9048078e+3, 3.14766e+2, -718557.4, 45686.477, -75962.125, -0.077841185, -0.03678413, 53163.59, 53163.59, 0.0, 9.993389, 10.003492 
1.9153912e+3, 1.2481843e+2, -969195.6, -1632037.9, -17919.553, 0.065550916, 0.17940749, -968711.5, 748081.56, 0.15762344, 10.007497, 9.997065 
1.9153596e+3, 1.3481386e+2, -976062.7, -1643194.5, 12109.868, -0.035401143, 0.053191174, -975842.94, 642993.06, 0.10884688, 10.006546, 9.996668 
1.9153307e+3, 1.4481139e+2, -913162.3, -1531565.4, -560.65344, 0.16995384, 0.12615587, -913161.75, 607698.56, 0.061634116, 10.005824, 9.997107 
1.9152984e+3, 1.5480882e+2, -866398.3, -1473694.0, 1406.5856, 0.026730573, 0.158891, -866395.06, 556492.7, 0.026009373, 10.005318, 9.997075 
1.9152674e+3, 1.6480637e+2, -792620.44, -1293042.9, -10971.823, -0.011403888, 0.16952607, -792380.0, 532532.3, 0.0068761916, 10.0046425, 9.99797 
1.9152372e+3, 1.748041e+2, -814681.5, -1255376.5, -7136.295, 0.054219283, 0.14618775, -814566.0, 412367.0, 0.00069770846, 10.003799, 9.99796 
1.9152065e+3, 1.8480197e+2, -793291.94, -1143685.9, -16176.589, 0.078830995, 0.12232231, -792546.7, 336406.38, 0.0000023137907, 10.003051, 9.998415 
1.915175e+3, 1.9480011e+2, -790108.1, -1094068.0, -12255.956, 0.061990038, 0.09501671, -789614.75, 241356.34, 0.0, 10.002412, 9.998391 
1.9151437e+3, 2.0479874e+2, -768069.56, -994662.3, -23524.207, 0.047739588, 0.10995146, -765653.1, 167331.45, 0.0, 10.001726, 9.998731 
1.9151121e+3, 2.1479799e+2, -777942.8, -950386.56, -34329.32, 0.03692289, 0.160598, -771360.0, 63632.426, 0.0, 10.000994, 9.998714 
1.915081e+3, 2.2479685e+2, -739717.75, -817888.56, -25137.357, 0.03422311, 0.15427282, -732332.1, 4671.0576, 0.0, 10.000311, 9.999281 
1.91505e+3, 2.3479538e+2, -734314.3, -766238.44, -19030.176, 0.03460543, 0.08042221, -725438.2, -86422.05, 0.0, 9.999682, 9.999266 
1.9150189e+3, 2.447947e+2, -702869.5, -639720.7, -33403.22, 0.021037534, 0.066324696, -625330.8, -84308.48, 0.0, 9.998965, 9.999805 
1.9149871e+3, 2.5479493e+2, -725917.4, -602746.3, -34890.0, 0.0046549984, 0.110422194, -593549.9, -150529.56, 0.0, 9.998145, 9.999782 
1.9149558e+3, 2.647951e+2, -736034.0, -527004.06, -37158.81, 0.015712943, 0.14200991, -520594.94, -175575.83, 0.0, 9.997275, 10.000048 
1.9149245e+3, 2.7479523e+2, -772445.7, -492899.72, -48907.4, 0.02133647, 0.1509608, -484590.22, -237572.3, 0.0, 9.996348, 10.000055 
1.914893e+3, 2.847953e+2, -690606.94, -282945.34, -31348.365, -0.0083309505, 0.108409844, -280548.8, -131532.4, 0.0, 9.995723, 10.001124 
1.9148622e+3, 2.9479542e+2, -646159.8, -238458.23, -13008.682, 0.016931374, 0.005612622, -238043.58, -187029.36, 0.0, 9.995474, 10.000878 
1.914831e+3, 3.0479762e+2, -656523.4, -168312.83, 43505.477, -0.08686464, 0.1329457, -164466.27, -164466.27, 0.0, 9.994845, 10.001331 
1.9148009e+3, 3.1479898e+2, -763536.44, -43372.49, -140680.27, -0.108490184, 0.11907494, -16866.871, -16866.871, 0.0, 9.993371, 10.00289 
1.9253987e+3, 1.2484976e+2, -983512.0, -1632616.8, 30375.756, 0.07698531, 0.15802123, -982093.6, 734392.3, 0.16554904, 10.007421, 9.997101 
1.9253662e+3, 1.3484555e+2, -975682.4, -1651683.0, 12064.127, -0.03572305, 0.07816756, -975467.1, 643058.75, 0.11476493, 10.006631, 9.996567 
1.9253364e+3, 1.4484286e+2, -905765.1, -1528335.0, 9608.146, 0.16309813, 0.1345993, -905616.9, 614935.8, 0.065367654, 10.005908, 9.9970875 
1.9253036e+3, 1.548402e+2, -882992.7, -1484284.8, 30552.992, 0.024167843, 0.1606336, -881444.2, 541136.9, 0.02786143, 10.005221, 9.997048 
1.9252719e+3, 1.6483775e+2, -802273.94, -1288996.9, 24124.55, -0.009161804, 0.17087394, -801081.1, 523524.25, 0.007517415, 10.004543, 9.998044 
1.9252409e+3, 1.7483564e+2, -798236.9, -1238977.8, 24957.912, 0.05529904, 0.1541929, -796828.06, 429796.44, 0.00080395327, 10.00388, 9.998033 
1.9252095e+3, 1.8483356e+2, -775674.7, -1133008.3, 14893.915, 0.081821285, 0.1318627, -775055.0, 353588.8, 0.0000031359323, 10.003165, 9.998432 
1.9251774e+3, 1.9483165e+2, -789794.7, -1092128.4, 12825.251, 0.07157687, 0.09946257, -789251.56, 241410.55, 0.0, 10.002409, 9.9984045 
1.9251454e+3, 2.0483017e+2, -776510.25, -1008933.75, 7617.3213, 0.05218507, 0.107869536, -776260.9, 156415.8, 0.0, 10.001716, 9.998636 
1.925113e+3, 2.1482925e+2, -770367.6, -957885.94, 9827.65, 0.021850213, 0.15265587, -769854.0, 64832.32, 0.0, 10.001096, 9.998612 
1.9250812e+3, 2.248281e+2, -734707.4, -811009.56, 19256.408, 0.017884398, 0.15003848, -730123.06, 6574.1646, 0.0, 10.000329, 9.999318 
1.9250496e+3, 2.3482677e+2, -771671.5, -779676.4, 15294.476, 0.039352912, 0.086363, -759864.44, -121155.54, 0.0, 9.999408, 9.999305 
1.9250177e+3, 2.4482612e+2, -760148.06, -670888.06, -4469.79, 0.038703162, 0.07536804, -670664.75, -129949.73, 0.0, 9.9985895, 9.999771 
1.9249853e+3, 2.5482634e+2, -767424.1, -626864.44, -9693.142, 0.022960357, 0.1208071, -626199.1, -183485.34, 0.0, 9.997881, 9.9997425 
1.9249532e+3, 2.6482654e+2, -728673.0, -518131.7, 1799.6473, 0.02092207, 0.15817668, -518116.3, -173403.98, 0.0, 9.997307, 10.000092 
1.924921e+3, 2.7482677e+2, -692722.56, -449011.22, 10007.797, 0.009451882, 0.16908126, -448600.97, -201890.33, 0.0, 9.996876, 10.000101 
1.9248891e+3, 2.848268e+2, -634869.0, -255158.39, 23389.682, 0.010928162, 0.119844876, -253723.03, -105013.45, 0.0, 9.996105, 10.00113 
1.9248581e+3, 2.948269e+2, -721721.4, -273703.4, 15786.685, 0.09593219, 0.02135816, -273147.8, -222440.94, 0.0, 9.994953, 10.000885 
1.9248246e+3, 3.0482918e+2, -736062.06, -163667.55, 53051.42, -0.1670228, 0.13761413, -158792.1, -158792.1, 0.0, 9.994119, 10.001713 
1.9247946e+3, 3.1483105e+2, -769433.94, -83296.23, -115021.0, -0.05979493, 0.13475445, -64528.004, -64528.004, 0.0, 9.993494, 10.002554 
1.9354065e+3, 1.248812e+2, -1011719.94, -1675107.4, 28457.496, 0.1166895, 0.074799396, -1010501.4, 705675.7, 0.17350565, 10.007403, 9.996763 
1.9353725e+3, 1.3487826e+2, -1005568.0, -1709502.6, -12963.736, -0.073213, 0.16084611, -1005329.3, 612877.94, 0.12075867, 10.006618, 9.996179 
1.9353417e+3, 1.4487538e+2, -894313.56, -1496296.1, -13081.398, 0.10302411, 0.20632765, -894029.4, 626206.8, 0.069189526, 10.005895, 9.997327 
1.9353092e+3, 1.5487191e+2, -869046.94, -1450135.0, 7298.3237, 0.05090301, 0.12924482, -868955.25, 553314.9, 0.029779999, 10.005211, 9.997288 
1.9352768e+3, 1.6486931e+2, -799994.8, -1283451.3, -296.81097, 0.036755513, 0.10745414, -799994.6, 524300.75, 0.0081940275, 10.004539, 9.998087 
1.9352446e+3, 1.7486763e+2, -796312.6, -1234250.1, 1106.7006, 0.04120371, 0.13195397, -796309.8, 430000.88, 0.0009220736, 10.003873, 9.99807 
1.9352123e+3, 1.8486598e+2, -780619.7, -1142106.0, -12830.442, 0.048493568, 0.15217912, -780164.9, 348161.63, 0.0000044945964, 10.003158, 9.998374 
1.9351798e+3, 1.9486444e+2, -794023.4, -1100219.9, -13868.966, 0.06520905, 0.16178228, -793396.44, 236945.33, 0.0, 10.002403, 9.998353 
1.9351472e+3, 2.0486268e+2, -771569.8, -998785.56, -14722.463, 0.06530229, 0.14192519, -770619.9, 161738.75, 0.0, 10.001713, 9.998709 
1.9351144e+3, 2.1486083e+2, -765668.25, -947801.4, -11283.657, 0.0459759, 0.08645081, -764971.9, 69404.11, 0.0, 10.001092, 9.998686 
1.9350816e+3, 2.248597e+2, -740387.2, -823436.44, -14088.471, 0.036845557, 0.085916296, -738062.3, -1675.5336, 0.0, 10.000329, 9.999234 
1.935049e+3, 2.3485939e+2, -777567.0, -792589.7, -17320.867, 0.03761383, 0.1325739, -766198.94, -127808.89, 0.0, 9.999409, 9.999216 
1.9350162e+3, 2.4485897e+2, -765638.2, -684084.06, -30408.355, 0.03836538, 0.15303521, -673994.3, -133599.48, 0.0, 9.998594, 9.9996805 
1.9349833e+3, 2.5485855e+2, -771522.7, -637753.5, -35030.49, 0.042155556, 0.14446974, -629135.25, -186735.52, 0.0, 9.997888, 9.999666 
1.9349505e+3, 2.6485837e+2, -704452.25, -470260.53, -13762.889, 0.021139532, 0.13117729, -469454.5, -125053.305, 0.0, 9.997314, 10.000418 
1.9349174e+3, 2.7485842e+2, -669502.8, -403665.13, -4150.0654, -0.03788214, 0.09391138, -403600.34, -157200.92, 0.0, 9.996884, 10.000409 
1.934885e+3, 2.8485894e+2, -659191.9, -309847.9, -19298.832, -0.0033068792, 0.09629959, -308785.03, -160390.81, 0.0, 9.996119, 10.000751 
1.9348538e+3, 2.9486045e+2, -740203.6, -316925.72, -25705.723, 0.16346508, 0.17223805, -315370.3, -264989.4, 0.0, 9.994969, 10.000583 
1.9348182e+3, 3.048615e+2, -708553.0, -108335.45, 33020.156, -0.22266673, 0.15730086, -106524.36, -106524.36, 0.0, 9.994123, 10.002091 
1.9347881e+3, 3.1486294e+2, -746408.94, -42157.242, -46496.582, -0.06929814, 0.085985176, -39100.68, -39100.68, 0.0, 9.993517, 10.002829 
1.9454136e+3, 1.24913946e+2, -1047312.75, -1683454.1, 38111.863, 0.113821805, 0.10713578, -1045037.6, 670820.6, 0.18144038, 10.007136, 9.996822 
1.9453791e+3, 1.3491106e+2, -1013438.6, -1698287.1, 5672.717, -0.06549047, 0.18708877, -1013391.6, 604495.56, 0.12678936, 10.006531, 9.996297 
1.9453473e+3, 1.449079e+2, -892272.8, -1480913.9, 17943.158, 0.090587, 0.19438355, -891726.4, 628191.94, 0.07307755, 10.00587, 9.997452 
1.9453143e+3, 1.5490475e+2, -882602.2, -1441902.8, 28268.783, 0.06363604, 0.13509889, -881177.0, 540771.94, 0.03175632, 10.005065, 9.997414 
1.9452813e+3, 1.6490227e+2, -835754.2, -1301582.8, 18307.748, 0.05253119, 0.120541446, -835035.75, 488937.06, 0.008903591, 10.004305, 9.998071 
1.9452481e+3, 1.7490055e+2, -834203.94, -1254286.4, 14948.543, 0.0320268, 0.14195581, -833672.7, 392316.38, 0.0010525282, 10.003625, 9.99805 
1.945215e+3, 1.8489884e+2, -815398.2, -1159219.8, -1186.8113, 0.031279672, 0.16017659, -815394.1, 312611.3, 0.0000066792695, 10.002924, 9.998367 
1.945182e+3, 1.948973e+2, -824474.7, -1115528.1, -385.40558, 0.05771592, 0.1697107, -824474.2, 205546.67, 0.0, 10.0022, 9.998344 
1.9451489e+3, 2.0489559e+2, -783300.6, -990479.1, 8520.182, 0.07049581, 0.14867675, -782950.8, 149086.27, 0.0, 10.001575, 9.998831 
1.9451156e+3, 2.148938e+2, -761649.1, -932038.3, 13896.721, 0.06617183, 0.08945672, -760523.2, 73529.984, 0.0, 10.001062, 9.998807 
1.9450821e+3, 2.2489274e+2, -738676.75, -829929.56, 1879.8026, 0.053432237, 0.092649095, -738638.0, -2574.5342, 0.0, 10.000375, 9.999165 
1.9450483e+3, 2.3489249e+2, -768073.5, -795597.0, -1342.9144, 0.032445483, 0.15247783, -768008.1, -129941.125, 0.0, 9.99951, 9.999145 
1.9450147e+3, 2.4489203e+2, -745366.4, -673056.25, -1788.9646, 0.030937547, 0.17332166, -673012.0, -132939.75, 0.0, 9.998733, 9.999687 
1.9449814e+3, 2.5489146e+2, -747272.25, -625081.3, 42.565998, 0.04976175, 0.14997862, -625081.25, -183003.17, 0.0, 9.998053, 9.999672 
1.9449477e+3, 2.6489127e+2, -710690.25, -471630.5, 13447.423, 0.021681432, 0.13337377, -470876.44, -126796.59, 0.0, 9.997267, 10.00043 
1.9449137e+3, 2.7489138e+2, -747026.6, -440762.06, -1997.6368, -0.05733975, 0.10403316, -440749.03, -194671.27, 0.0, 9.996355, 10.000409 
1.944881e+3, 2.84892e+2, -714604.4, -344396.16, -17627.219, -0.008493685, 0.11903192, -343558.75, -195486.69, 0.0, 9.995776, 10.000676 
1.9448492e+3, 2.9489368e+2, -657851.8, -272834.6, -1170.4003, 0.18255436, 0.22277948, -272831.03, -222774.2, 0.0, 9.995521, 10.000618 
1.9448124e+3, 3.0489427e+2, -660169.06, -82365.734, 38857.484, -0.2242081, 0.15331504, -79764.266, -79764.266, 0.0, 9.9944515, 10.002109 
1.9447815e+3, 3.1489667e+2, -855312.0, -63461.047, 20628.465, -0.018356154, 0.18129261, -62924.02, -62924.02, 0.0, 9.99264, 10.003104 
1.9554202e+3, 1.2494792e+2, -1030461.94, -1640074.0, 35814.004, 0.061640054, 0.24389015, -1028365.1, 687164.7, 0.1893815, 10.007158, 9.997183 
1.9553858e+3, 1.3494399e+2, -986081.1, -1620226.9, -11062.518, -0.021075107, 0.16428152, -985888.2, 631677.4, 0.13286728, 10.006518, 9.99684 
1.9553535e+3, 1.4494053e+2, -897107.25, -1482715.4, -9077.602, 0.115049206, 0.11227565, -896966.56, 622632.0, 0.07703217, 10.005853, 9.997449 
1.9553193e+3, 1.5493858e+2, -884169.7, -1442183.8, -193.41353, 0.060079854, 0.17540102, -884169.6, 537448.7, 0.033789303, 10.00506, 9.997415 
1.9552855e+3, 1.6493647e+2, -841010.25, -1312405.3, -6486.2764, 0.038604725, 0.2018181, -840921.0, 482718.13, 0.009645283, 10.004304, 9.997998 
1.9552517e+3, 1.7493424e+2, -839607.3, -1265765.1, -8819.579, 0.025871824, 0.18041733, -839424.9, 386235.6, 0.0011953571, 10.003623, 9.997973 
1.9552179e+3, 1.849321e+2, -813666.1, -1156053.0, -26949.242, 0.025266042, 0.15726762, -811557.94, 316123.1, 0.000009907366, 10.002923, 9.998392 
1.9551839e+3, 1.9493018e+2, -822135.56, -1112503.1, -25504.01, 0.046453, 0.1281617, -819912.5, 209787.11, 0.0, 10.002205, 9.998364 
1.9551502e+3, 2.049288e+2, -772044.25, -968976.75, -9591.457, 0.0662411, 0.13113716, -771578.25, 160134.36, 0.0, 10.00158, 9.998978 
1.9551167e+3, 2.1492805e+2, -751417.9, -910682.0, -3447.9753, 0.08053736, 0.15888062, -751343.25, 82375.805, 0.0, 10.001059, 9.998956 
1.9550826e+3, 2.2492707e+2, -742978.6, -839248.2, -29626.281, 0.06541892, 0.16663337, -734591.94, 1136.7421, 0.0, 10.000373, 9.9991045 
1.9550475e+3, 2.3492596e+2, -772175.4, -804680.75, -32076.52, 0.021604782, 0.14625578, -752469.0, -114728.24, 0.0, 9.99951, 9.999084 
1.9550131e+3, 2.449252e+2, -738271.8, -659889.6, -26473.6, 0.013963203, 0.13723393, -651786.0, -112037.73, 0.0, 9.998736, 9.999777 
1.9549793e+3, 2.5492498e+2, -740687.44, -613277.4, -23860.553, 0.041824482, 0.13861923, -608955.56, -167205.83, 0.0, 9.998058, 9.999751 
1.9549449e+3, 2.6492512e+2, -732944.56, -519688.8, -20417.38, 0.020076808, 0.16745412, -517751.63, -174002.6, 0.0, 9.997272, 10.0001 
1.95491e+3, 2.749255e+2, -768872.1, -489724.72, -35425.824, -0.050377186, 0.20016432, -485299.1, -239552.17, 0.0, 9.9963665, 10.00007 
1.9548766e+3, 2.849258e+2, -695433.4, -308373.44, -28053.03, -0.008106803, 0.18761495, -306350.78, -158606.25, 0.0, 9.99579, 10.000919 
1.9548443e+3, 2.9492655e+2, -629751.75, -219507.81, -10700.02, 0.14160109, 0.1705706, -219228.92, -169492.94, 0.0, 9.995539, 10.0009775 
1.9548073e+3, 3.0492732e+2, -687564.4, -141369.98, -33175.57, -0.16490358, 0.117717564, -139362.3, -139362.3, 0.0, 9.994459, 10.0017 
1.9547743e+3, 3.1492966e+2, -831344.75, -23522.879, 34817.637, -0.010556132, 0.19355598, -22024.994, -22024.994, 0.0, 9.99267, 10.003369 
1.9654275e+3, 1.24981895e+2, -948516.4, -1605539.6, 88471.13, 0.044294897, 0.24390025, -936811.9, 778385.94, 0.19737624, 10.007959, 9.997097 
1.9653927e+3, 1.3497825e+2, -993024.1, -1605531.3, 11344.276, 0.021923041, 0.17916024, -992814.06, 624416.75, 0.13902609, 10.006425, 9.996995 
1.9653592e+3, 1.4497481e+2, -954103.7, -1510074.0, 21116.615, 0.11990353, 0.12267262, -953302.8, 565960.9, 0.08107048, 10.005462, 9.99743 
1.9653243e+3, 1.5497288e+2, -890400.25, -1447659.5, 26234.223, 0.049883086, 0.19096267, -889167.94, 532115.44, 0.035883646, 10.005039, 9.997385 
1.9652899e+3, 1.6497073e+2, -831377.4, -1313120.9, 14788.312, 0.033050105, 0.21760604, -830923.8, 492381.0, 0.010418382, 10.0044, 9.997945 
1.9652554e+3, 1.7496838e+2, -853391.25, -1277578.1, 12368.39, 0.040043794, 0.19130693, -853030.94, 372296.38, 0.0013496471, 10.003555, 9.997922 
1.9652209e+3, 1.8496622e+2, -809565.2, -1149739.8, 3137.374, 0.038471617, 0.16573884, -809536.25, 317811.97, 0.000014253208, 10.002937, 9.9984255 
1.9651863e+3, 1.9496433e+2, -769826.5, -1083143.8, 4097.8022, 0.03857628, 0.13789038, -769772.94, 259593.36, 0.0, 10.002551, 9.998396 
1.9651517e+3, 2.0496306e+2, -731425.7, -944136.6, 8830.393, 0.050687447, 0.14799711, -731059.75, 200318.56, 0.0, 10.001841, 9.999021 
1.9651176e+3, 2.1496247e+2, -786084.56, -922273.6, 5941.327, 0.0705831, 0.18825321, -785825.9, 47557.535, 0.0, 10.000802, 9.998999 
1.9650826e+3, 2.2496155e+2, -791166.2, -852438.5, -15172.911, 0.059874892, 0.19598584, -787614.75, -52222.29, 0.0, 10.000003, 9.999189 
1.965047e+3, 2.3496038e+2, -774484.9, -796160.94, -8424.473, 0.019488322, 0.16221805, -771595.75, -134190.88, 0.0, 9.9994545, 9.999168 
1.965012e+3, 2.449596e+2, -732271.4, -650219.0, -629.00604, 0.015094446, 0.14373662, -650214.2, -110802.03, 0.0, 9.998751, 9.999835 
1.9649772e+3, 2.5495937e+2, -763158.56, -617049.4, -1467.2048, 0.04580689, 0.14049308, -617034.6, -175621.86, 0.0, 9.997878, 9.999809 
1.964942e+3, 2.6495948e+2, -747732.75, -545277.06, 12922.126, 0.029190173, 0.1712885, -544455.6, -201042.9, 0.0, 9.997255, 9.999929 
1.9649069e+3, 2.7495983e+2, -708962.06, -479909.66, 9284.528, -0.029672127, 0.21675466, -479533.94, -234121.64, 0.0, 9.996865, 9.999893 
1.9648725e+3, 2.849601e+2, -650735.94, -280083.7, 13399.172, -0.0037486707, 0.2093713, -279599.94, -132189.6, 0.0, 9.996071, 10.000976 
1.9648388e+3, 2.9496074e+2, -717718.5, -247589.16, 14636.671, 0.09097371, 0.1742222, -247133.9, -197731.58, 0.0, 9.994878, 10.001101 
1.9648021e+3, 3.049615e+2, -769808.1, -203175.7, -31601.334, -0.09895268, 0.12597197, -201418.73, -201418.73, 0.0, 9.993995, 10.001497 
1.9647667e+3, 3.1496328e+2, -713463.1, 39713.71, 89236.2, -0.0676191, 0.17126982, 50142.004, 50142.004, 0.0, 9.993452, 10.003427 
1.9754356e+3, 1.2501591e+2, -985266.8, -1659642.8, 45971.113, 0.053506672, 0.12844318, -982147.5, 732714.94, 0.20544322, 10.0079155, 9.996661 
1.9753996e+3, 1.3501374e+2, -1008581.6, -1628830.8, -36161.973, 0.057809867, 0.22980146, -1006480.44, 610403.44, 0.14528677, 10.006414, 9.996832 
1.9753644e+3, 1.4501062e+2, -959479.4, -1518689.1, 8904.638, 0.10096214, 0.21597232, -959337.6, 559577.25, 0.08520669, 10.005469, 9.997363 
1.9753289e+3, 1.5500763e+2, -896478.5, -1458950.4, 13396.959, 0.03131206, 0.18414062, -896159.56, 524784.94, 0.038043518, 10.00504, 9.997309 
1.975294e+3, 1.6500506e+2, -835394.2, -1321155.4, -15759.532, 0.0313959, 0.1762943, -834883.5, 488086.25, 0.011221328, 10.004399, 9.997891 
1.9752593e+3, 1.7500295e+2, -855855.9, -1285270.1, -17184.414, 0.07056618, 0.17810933, -855169.25, 369820.75, 0.0015135565, 10.003565, 9.997867 
1.975224e+3, 1.8500109e+2, -806314.8, -1145045.9, -9704.329, 0.067069225, 0.18527423, -806037.0, 320971.0, 0.000019590076, 10.002943, 9.998456 
1.9751886e+3, 1.9499962e+2, -768079.75, -1078911.6, -8267.643, 0.031623673, 0.19481806, -767860.0, 261162.23, 0.0, 10.002545, 9.998429 
1.9751534e+3, 2.0499822e+2, -736637.44, -954075.3, -28678.998, 0.022173887, 0.19564132, -732918.44, 198117.08, 0.0, 10.001833, 9.998958 
1.9751179e+3, 2.1499701e+2, -790753.2, -932275.06, -30539.643, 0.03488673, 0.18012865, -784444.2, 48602.64, 0.0, 10.0008, 9.998933 
1.9750823e+3, 2.2499612e+2, -775903.44, -822383.75, -34385.22, 0.035043553, 0.18390958, -757641.25, -22585.816, 0.0, 10.000007, 9.999395 
1.9750465e+3, 2.3499566e+2, -759889.06, -767116.94, -27034.035, 0.02382292, 0.200072, -736228.5, -99168.07, 0.0, 9.999457, 9.999368 
1.9750108e+3, 2.449951e+2, -730255.44, -647919.75, -32903.8, 0.03254243, 0.19264305, -636386.06, -97320.96, 0.0, 9.9987545, 9.999851 
1.9749752e+3, 2.5499454e+2, -760774.6, -614835.2, -33366.93, 0.05815385, 0.15488304, -607568.2, -166499.73, 0.0, 9.997887, 9.999824 
1.9749396e+3, 2.649942e+2, -747033.1, -546876.25, -1662.0492, 0.04608242, 0.14259925, -546862.44, -203790.25, 0.0, 9.997265, 9.999915 
1.9749041e+3, 2.7499416e+2, -708224.6, -482681.38, -4756.413, 0.003158119, 0.14988472, -482581.13, -237505.88, 0.0, 9.99688, 9.999869 
1.9748685e+3, 2.8499475e+2, -660149.0, -302788.88, -32387.402, 0.0012216851, 0.18344973, -299877.34, -152806.63, 0.0, 9.996081, 10.000816 
1.974833e+3, 2.9499608e+2, -726220.2, -269562.44, -30080.633, 0.02058215, 0.23598842, -267589.5, -218532.34, 0.0, 9.994893, 10.000945 
1.9747968e+3, 3.0499673e+2, -771912.4, -211495.23, -57208.32, -0.021898773, 0.18396087, -205714.94, -205714.94, 0.0, 9.994009, 10.001434 
1.9747603e+3, 3.1499735e+2, -735801.3, -16894.414, 27696.475, -0.056442928, 0.11931535, -15828.965, -15828.965, 0.0, 9.993489, 10.003024 
1.9854432e+3, 1.2505205e+2, -1114905.4, -1757819.5, 69953.13, 0.07491739, 0.13606358, -1107382.0, 607125.8, 0.21356846, 10.007008, 9.996339 
1.985406e+3, 1.3504958e+2, -1002649.4, -1640513.3, -11605.109, 0.064165816, 0.22194074, -1002438.3, 614095.3, 0.15163389, 10.006577, 9.996671 
1.9853696e+3, 1.4504659e+2, -899299.4, -1490732.3, 46516.57, 0.064884484, 0.23191793, -895663.2, 622900.6, 0.089430094, 10.005956, 9.997338 
1.9853342e+3, 1.5504354e+2, -897725.3, -1461186.0, 53201.26, 0.04232426, 0.19795947, -892746.1, 527847.7, 0.04026345, 10.005054, 9.997285 
1.9852987e+3, 1.6504095e+2, -839800.4, -1320263.0, 30959.998, 0.05689488, 0.18878151, -837813.6, 484805.4, 0.0120511325, 10.004368, 9.99791 
1.985263e+3, 1.7503886e+2, -804728.56, -1258333.1, 33393.605, 0.075814135, 0.19222453, -802283.4, 422355.56, 0.0016849434, 10.003913, 9.997882 
1.985227e+3, 1.8503699e+2, -779904.7, -1140864.0, 36929.145, 0.06707955, 0.20131573, -776165.25, 350491.9, 0.000025644316, 10.003165, 9.998377 
1.9851911e+3, 1.9503544e+2, -833704.06, -1119059.3, 29297.35, 0.040121432, 0.2121271, -830727.2, 197945.11, 0.0, 10.002134, 9.99835 
1.9851549e+3, 2.0503396e+2, -799919.4, -984237.75, 6406.824, 0.02634925, 0.20696402, -799696.94, 130989.73, 0.0, 10.001401, 9.998958 
1.9851185e+3, 2.1503259e+2, -768027.0, -921069.75, 6973.85, 0.022188524, 0.17823452, -767709.9, 64989.47, 0.0, 10.000959, 9.998931 
1.9850823e+3, 2.250317e+2, -734541.5, -795370.3, -39.277275, 0.024053847, 0.18003306, -734541.44, 166.24704, 0.0, 10.000263, 9.999456 
1.985046e+3, 2.350314e+2, -777261.5, -768060.5, -3395.7078, 0.03445654, 0.20662402, -766943.0, -130232.266, 0.0, 9.99931, 9.99943 
1.9850095e+3, 2.4503092e+2, -752695.3, -663708.5, -11864.307, 0.04001231, 0.20726222, -662153.9, -123439.15, 0.0, 9.998629, 9.999801 
1.984973e+3, 2.5503033e+2, -715582.9, -598611.25, -17680.69, 0.037580624, 0.17131244, -595997.2, -155278.17, 0.0, 9.998224, 9.99977 
1.9849366e+3, 2.6502994e+2, -706548.8, -512314.47, 13404.793, 0.03126347, 0.14913107, -511393.72, -168670.42, 0.0, 9.99748, 10.000047 
1.9849008e+3, 2.750299e+2, -772249.5, -498310.03, 19365.87, 0.029131634, 0.1448035, -496947.78, -252222.27, 0.0, 9.99638, 9.999999 
1.9848645e+3, 2.8503066e+2, -730374.7, -338897.06, 402.1129, 0.019112911, 0.19203103, -338896.63, -192177.42, 0.0, 9.995613, 10.000792 
1.9848277e+3, 2.9503217e+2, -694002.75, -262262.13, 11849.514, -0.014619391, 0.2627167, -261937.16, -213232.06, 0.0, 9.995154, 10.000866 
1.9847912e+3, 3.0503252e+2, -711249.3, -199100.08, -13090.352, -0.008459015, 0.20030205, -198765.7, -198765.7, 0.0, 9.9945, 10.001282 
1.9847533e+3, 3.15033e+2, -707796.25, 240.33914, 24498.438, -0.09739394, 0.12926146, 1086.9856, 1086.9856, 0.0, 9.993668, 10.003053 
1.9954503e+3, 1.2508996e+2, -1134292.4, -1795438.3, 49147.465, 0.09440891, 0.23355146, -1130658.9, 583478.56, 0.22172666, 10.007018, 9.99607 
1.9954123e+3, 1.3508573e+2, -1017883.25, -1669459.5, -22895.756, 0.040895663, 0.16387153, -1017079.7, 599100.44, 0.15803137, 10.006586, 9.9964695 
1.995375e+3, 1.4508274e+2, -900388.9, -1489959.4, 16663.969, 0.011050476, 0.18459938, -899918.25, 618292.0, 0.09371298, 10.005965, 9.997343 
1.9953395e+3, 1.5508053e+2, -897223.1, -1458871.4, 21420.229, 0.07753744, 0.23058748, -896407.4, 523824.97, 0.042531528, 10.005057, 9.9973 
1.9953035e+3, 1.6507824e+2, -836455.7, -1312406.0, 14651.503, 0.10221187, 0.24894495, -836005.06, 486249.28, 0.012905082, 10.004364, 9.997967 
1.9952667e+3, 1.7507601e+2, -801531.06, -1250805.1, 17715.094, 0.05503527, 0.23094793, -800833.6, 423441.84, 0.0018625471, 10.003906, 9.997938 
1.9952299e+3, 1.850738e+2, -793640.2, -1169095.8, -954.1397, 0.03827886, 0.21385984, -793637.8, 332659.0, 0.000032100925, 10.00316, 9.998187 
1.9951934e+3, 1.9507173e+2, -846256.75, -1147202.0, -7003.921, 0.06141687, 0.19327597, -846093.8, 182223.27, 0.0, 10.00214, 9.998157 
1.9951566e+3, 2.0507012e+2, -796312.8, -979452.8, -8872.282, 0.059362356, 0.18534195, -795884.0, 134448.48, 0.0, 10.001409, 9.998988 
1.9951195e+3, 2.1506907e+2, -765890.44, -917220.5, -7590.926, 0.02874765, 0.18248415, -765510.6, 66831.6, 0.0, 10.000958, 9.99896 
1.9950823e+3, 2.2506815e+2, -739283.25, -806164.56, -34946.063, 0.024869677, 0.18325259, -724355.5, 9995.198, 0.0, 10.000263, 9.999384 
1.9950452e+3, 2.350675e+2, -782245.06, -779476.9, -37352.797, 0.04871205, 0.1825841, -743482.56, -107125.734, 0.0, 9.9993105, 9.999353 
1.995008e+3, 2.4506697e+2, -761185.3, -683625.8, -26463.135, 0.03437361, 0.18815263, -675457.0, -137095.0, 0.0, 9.998635, 9.999662 
1.9949704e+3, 2.550666e+2, -723000.06, -617585.44, -31506.816, -0.019200008, 0.18880145, -608886.44, -168520.77, 0.0, 9.998237, 9.999636 
1.9949336e+3, 2.6506653e+2, -686664.94, -474209.22, -28620.338, -0.016371243, 0.19306709, -470421.25, -128054.28, 0.0, 9.997491, 10.000306 
1.9948973e+3, 2.750669e+2, -752918.9, -461817.06, -22367.273, 0.043550268, 0.20517239, -460108.47, -215744.45, 0.0, 9.996391, 10.000247 
1.9948603e+3, 2.8506768e+2, -721070.56, -322267.38, -17461.436, 0.04596832, 0.23483448, -321504.28, -175147.0, 0.0, 9.995623, 10.000902 
1.9948226e+3, 2.9506865e+2, -691600.0, -262209.06, -5546.0967, -0.016801298, 0.2444933, -262137.44, -213789.08, 0.0, 9.9951725, 10.000859 
1.994785e+3, 3.0506882e+2, -724244.56, -233626.58, -45762.227, -0.067375585, 0.17672636, -229394.63, -229394.63, 0.0, 9.994528, 10.001034 
1.9947477e+3, 3.150708e+2, -678936.94, 56355.367, -58964.703, -0.03000772, 0.27231905, 61053.855, 61053.855, 0.0, 9.993687, 10.003428 
2.0054576e+3, 1.2512754e+2, -1042656.4, -1705836.1, 35727.75, 0.077579856, 0.26506934, -1040737.2, 673034.4, 0.2299446, 10.007762, 9.996335 
2.0054191e+3, 1.3512333e+2, -989477.06, -1631334.1, -3297.3113, 0.0717161, 0.18087211, -989460.1, 626352.8, 0.16448122, 10.006781, 9.996634 
2.005381e+3, 1.4512047e+2, -911789.6, -1505980.5, 41618.4, 0.018240893, 0.21447115, -908888.75, 608952.25, 0.09804857, 10.005965, 9.997217 
2.0053445e+3, 1.5511772e+2, -879074.75, -1462885.9, 34863.82, 0.07525328, 0.22235921, -877000.1, 542868.0, 0.044843327, 10.0052595, 9.997174 
2.0053077e+3, 1.6511534e+2, -820254.0, -1304515.4, 27466.717, 0.09892496, 0.23735662, -818701.06, 503190.25, 0.013782623, 10.004483, 9.997964 
2.0052703e+3, 1.7511338e+2, -839128.7, -1269263.1, 24776.861, 0.057335485, 0.24748187, -837706.2, 386204.03, 0.0020463471, 10.003654, 9.9979315 
2.0052329e+3, 1.8511121e+2, -814280.0, -1173954.5, 8241.519, 0.04125503, 0.23243725, -814091.25, 311839.88, 0.00003871262, 10.003001, 9.998228 
2.0051956e+3, 1.9510898e+2, -789849.4, -1115056.9, 17088.457, 0.060838085, 0.19062606, -788953.9, 238998.69, 0.0, 10.002512, 9.998196 
2.005158e+3, 2.0510738e+2, -746372.44, -960611.75, 22639.984, 0.060664386, 0.18421459, -744006.06, 185961.94, 0.0, 10.001779, 9.998938 
2.0051205e+3, 2.1510646e+2, -790845.56, -935256.7, 17013.121, 0.03714779, 0.2033353, -788868.3, 43108.48, 0.0, 10.000816, 9.998903 
2.0050827e+3, 2.251055e+2, -767979.5, -823184.56, -11802.919, 0.030464536, 0.20384909, -765561.94, -31576.158, 0.0, 10.000084, 9.9993515 
2.0050445e+3, 2.3510459e+2, -745330.5, -765763.4, -13137.987, 0.041923575, 0.18142253, -738904.1, -102910.375, 0.0, 9.999584, 9.999314 
2.0050065e+3, 2.4510394e+2, -727818.9, -674595.5, 5886.1943, 0.026848592, 0.181101, -673952.25, -135952.13, 0.0, 9.998896, 9.999598 
2.0049687e+3, 2.5510365e+2, -760292.56, -641603.7, 5398.1045, -0.014698222, 0.19408326, -641358.7, -201354.66, 0.0, 9.998011, 9.9995775 
2.004931e+3, 2.6510373e+2, -714086.7, -473446.8, -2589.014, -0.019951167, 0.21188337, -473418.94, -131415.16, 0.0, 9.997248, 10.000424 
2.0048934e+3, 2.751043e+2, -712590.94, -428374.0, -6633.9727, 0.013099147, 0.23407823, -428219.25, -184221.03, 0.0, 9.996613, 10.000368 
2.0048559e+3, 2.8510502e+2, -678224.6, -288629.94, 1387.9347, 0.027931448, 0.2440862, -288625.0, -142632.89, 0.0, 9.995864, 10.001015 
2.004818e+3, 2.9510576e+2, -726462.25, -275209.44, 9384.728, 0.017954882, 0.21864907, -275014.34, -227028.53, 0.0, 9.994921, 10.000889 
2.004779e+3, 3.051064e+2, -779806.56, -260080.98, -14644.735, -0.09283247, 0.20722786, -259668.66, -259668.66, 0.0, 9.994147, 10.001035 
2.0047416e+3, 3.151082e+2, -672982.94, 78507.56, -18549.97, 0.0048995093, 0.2751941, 78965.18, 78965.18, 0.0, 9.993656, 10.00359 
2.0154648e+3, 1.2516479e+2, -1014347.9, -1626748.4, -6025.915, 0.027496716, 0.2332885, -1014288.56, 699121.1, 0.23842096, 10.00773, 9.997065 
2.0154266e+3, 1.3516219e+2, -969421.2, -1572606.6, -31754.236, 0.14447793, 0.26087523, -967754.1, 647679.2, 0.17110118, 10.006758, 9.997109 
2.0153874e+3, 1.4515956e+2, -933913.5, -1546604.3, 18788.584, 0.071034074, 0.30744758, -933337.9, 584120.3, 0.10249057, 10.005951, 9.99694 
2.0153494e+3, 1.5515517e+2, -899045.1, -1503863.4, 11337.871, 0.03548258, 0.1788884, -898832.6, 520668.6, 0.047216512, 10.005259, 9.996895 
2.0153117e+3, 1.6515233e+2, -825182.8, -1315545.0, -2128.2766, 0.04958351, 0.1653554, -825173.6, 496355.8, 0.014688491, 10.004487, 9.997887 
2.0152742e+3, 1.7515098e+2, -843735.25, -1280977.0, -4107.793, 0.07963312, 0.2445133, -843696.6, 379846.72, 0.002237776, 10.00366, 9.997849 
2.015236e+3, 1.8514913e+2, -796764.9, -1139009.3, -8738.077, 0.07074009, 0.25620884, -796541.94, 329018.88, 0.000045408513, 10.003004, 9.998467 
2.0151977e+3, 1.9514705e+2, -773420.25, -1081158.5, 278.9712, 0.03689715, 0.20324585, -773420.0, 254159.83, 0.0, 10.00251, 9.99843 
2.0151596e+3, 2.0514554e+2, -755428.75, -980141.25, -12324.423, 0.03046123, 0.20171554, -754754.8, 174839.55, 0.0, 10.001779, 9.998805 
2.0151213e+3, 2.151447e+2, -800244.5, -955399.4, -16828.912, 0.045139223, 0.240688, -798440.1, 33163.73, 0.0, 10.000815, 9.998767 
2.0150827e+3, 2.2514366e+2, -768799.5, -826780.94, -29368.445, 0.037916623, 0.24224152, -756523.2, -22909.46, 0.0, 10.000089, 9.999327 
2.0150438e+3, 2.3514254e+2, -746067.56, -769395.6, -30386.33, 0.011781111, 0.20277594, -725183.5, -89560.75, 0.0, 9.99959, 9.999289 
2.0150054e+3, 2.4514173e+2, -726016.7, -673553.9, -26858.287, 0.016984504, 0.18623291, -662242.56, -124612.28, 0.0, 9.998903, 9.999603 
2.0149672e+3, 2.551413e+2, -759230.0, -642014.5, -27315.277, 0.048936643, 0.18643335, -635961.6, -196326.47, 0.0, 9.998017, 9.999573 
2.0149285e+3, 2.6514137e+2, -715177.7, -478344.38, -26685.904, 0.017314136, 0.20448768, -475374.7, -133739.67, 0.0, 9.997256, 10.000389 
2.0148891e+3, 2.7514192e+2, -710121.75, -428854.3, -28697.094, -0.06918, 0.22776137, -425956.28, -182326.66, 0.0, 9.996634, 10.000357 
2.014851e+3, 2.8514248e+2, -669419.75, -274660.6, -35352.33, -0.037103675, 0.21763913, -271519.66, -125894.65, 0.0, 9.99588, 10.001105 
2.0148136e+3, 2.9514322e+2, -721746.9, -267758.0, -29780.393, 0.09152679, 0.18650608, -265812.8, -218194.23, 0.0, 9.994926, 10.000939 
2.014773e+3, 3.051453e+2, -756633.06, -214658.69, -32824.395, -0.09593866, 0.29631954, -212677.94, -212677.94, 0.0, 9.994154, 10.001345 
2.0147344e+3, 3.1514642e+2, -682455.7, 52567.945, 22792.717, -0.07038922, 0.2648892, 53274.055, 53274.055, 0.0, 9.993685, 10.003396 
2.0254721e+3, 1.252035e+2, -1098616.0, -1653438.3, 25375.004, 0.029253447, 0.2281494, -1097457.9, 615573.1, 0.24757124, 10.006974, 9.997192 
2.0254333e+3, 1.3520086e+2, -997080.8, -1595058.6, -19198.61, 0.16435935, 0.26532674, -996465.06, 618590.3, 0.17814074, 10.006632, 9.996984 
2.0253934e+3, 1.4519826e+2, -915180.9, -1525905.6, 23026.588, 0.08128885, 0.3157362, -914313.94, 602766.06, 0.107154734, 10.006081, 9.997018 
2.0253545e+3, 1.5519397e+2, -895235.1, -1493689.3, 36642.08, 0.03320485, 0.19157569, -892999.94, 526121.9, 0.049691487, 10.005265, 9.99696 
2.025316e+3, 1.6519105e+2, -825783.1, -1327524.8, 35330.855, 0.04500977, 0.17371175, -823307.44, 497843.28, 0.015634283, 10.004542, 9.997774 
2.0252778e+3, 1.7518945e+2, -814373.75, -1278325.3, 30344.975, 0.08433146, 0.24099632, -812397.44, 410769.84, 0.0024399054, 10.003917, 9.997742 
2.0252392e+3, 1.8518765e+2, -763957.94, -1111034.4, 22776.447, 0.074212685, 0.25550556, -762469.6, 362714.78, 0.000052349504, 10.003181, 9.998572 
2.0252001e+3, 1.951858e+2, -790047.8, -1078541.0, 20297.986, 0.027405491, 0.21774098, -788626.7, 238574.05, 0.0, 10.002352, 9.998524 
2.025161e+3, 2.0518434e+2, -786985.1, -1004569.06, -982.8573, 0.020017643, 0.22050925, -786980.7, 142234.38, 0.0, 10.001604, 9.99872 
2.025122e+3, 2.1518335e+2, -789056.1, -958576.9, -3930.333, 0.045901828, 0.25406042, -788965.06, 42261.406, 0.0, 10.000934, 9.998687 
2.0250829e+3, 2.2518228e+2, -739498.25, -806310.75, -2183.605, 0.04216275, 0.2541445, -739426.94, -6190.3213, 0.0, 10.000265, 9.999381 
2.0250434e+3, 2.3518123e+2, -741816.5, -761426.1, 2076.8447, 0.012538715, 0.21600616, -741598.94, -106354.28, 0.0, 9.999597, 9.999338 
2.0250042e+3, 2.4518041e+2, -728296.9, -667753.5, 1652.2823, 0.017063411, 0.19536807, -667708.44, -130456.69, 0.0, 9.998863, 9.9996605 
2.0249651e+3, 2.5517997e+2, -747569.1, -630615.1, 3924.0872, 0.051204387, 0.18855304, -630483.6, -191227.23, 0.0, 9.998076, 9.999621 
2.0249255e+3, 2.6517993e+2, -719149.0, -486499.16, 10174.166, 0.015184642, 0.20011581, -486055.06, -144798.2, 0.0, 9.997257, 10.000331 
2.0248856e+3, 2.7518037e+2, -749756.25, -453811.0, 5423.498, -0.07934487, 0.21279979, -453711.66, -210458.44, 0.0, 9.996389, 10.0003 
2.0248465e+3, 2.851808e+2, -701546.9, -290081.5, -8705.336, -0.049300022, 0.19931732, -289897.4, -144648.1, 0.0, 9.995664, 10.001101 
2.0248084e+3, 2.9518175e+2, -698603.8, -250136.88, -12121.931, 0.079339586, 0.1877421, -249809.45, -202568.42, 0.0, 9.995064, 10.000992 
2.0247674e+3, 3.051841e+2, -726397.1, -190626.53, -13744.749, -0.090063065, 0.3129124, -190274.14, -190274.14, 0.0, 9.994322, 10.001429 
2.024728e+3, 3.1518468e+2, -733652.75, 4588.7544, 59284.84, -0.05831168, 0.22803903, 9319.339, 9319.339, 0.0, 9.993438, 10.003184 
2.0354792e+3, 1.2524356e+2, -1129675.5, -1702907.0, 1381.837, 0.061715454, 0.24884506, -1129672.1, 582965.2, 0.25787666, 10.006979, 9.99674 
2.0354398e+3, 1.3523944e+2, -1041214.8, -1689425.4, -26169.533, 0.1319253, 0.21017127, -1040160.06, 574517.94, 0.18588905, 10.006632, 9.996309 
2.0353992e+3, 1.4523669e+2, -894689.06, -1476077.6, -1334.5687, 0.05111085, 0.25764853, -894686.0, 622019.06, 0.11217815, 10.006081, 9.997396 
2.03536e+3, 1.5523396e+2, -871991.8, -1441576.1, 9125.759, 0.062191762, 0.25214723, -871845.7, 546885.6, 0.05232062, 10.005271, 9.997315 
2.0353208e+3, 1.6523127e+2, -836001.4, -1349856.3, 13060.727, 0.07675948, 0.24919818, -835669.6, 485087.88, 0.016637575, 10.004547, 9.997621 
2.0352817e+3, 1.7522873e+2, -823945.7, -1299539.8, 8972.112, 0.07031483, 0.23639122, -823776.5, 399006.44, 0.0026576743, 10.00392, 9.997597 
2.035242e+3, 1.8522666e+2, -766456.0, -1117193.6, -6930.6, 0.051549032, 0.23382749, -766319.1, 358483.5, 0.00006006165, 10.003182, 9.998531 
2.0352022e+3, 1.9522518e+2, -793436.25, -1086298.4, -8638.962, 0.02929781, 0.23602413, -793181.6, 233634.33, 0.0, 10.002352, 9.998472 
2.0351626e+3, 2.0522368e+2, -790495.5, -1013248.25, -24884.672, 0.02604467, 0.24145266, -787749.4, 141081.38, 0.0, 10.001607, 9.998661 
2.0351228e+3, 2.1522231e+2, -792179.94, -966255.4, -26782.252, 0.037566673, 0.24445345, -788152.56, 42692.832, 0.0, 10.000936, 9.998634 
2.035083e+3, 2.2522125e+2, -729553.6, -787730.4, -26076.025, 0.041830797, 0.24024925, -719576.8, 13278.735, 0.0, 10.000271, 9.999508 
2.0350432e+3, 2.3522052e+2, -732724.6, -743558.2, -21285.557, 0.04144255, 0.22120464, -716177.44, -81316.89, 0.0, 9.999598, 9.999462 
2.035003e+3, 2.452199e+2, -721275.6, -655524.8, -27508.79, 0.024126267, 0.20920537, -645533.8, -108668.44, 0.0, 9.998869, 9.999743 
2.0349625e+3, 2.5521952e+2, -739769.2, -617937.9, -24670.107, -0.0122921085, 0.200565, -613131.94, -174263.2, 0.0, 9.998087, 9.999705 
2.0349224e+3, 2.6521936e+2, -723593.25, -499045.3, -22837.09, -0.028218191, 0.19804494, -496746.25, -155875.89, 0.0, 9.997269, 10.000241 
2.0348825e+3, 2.7521944e+2, -756250.0, -470339.22, -26890.803, -0.017438374, 0.18706815, -467832.03, -224961.84, 0.0, 9.996399, 10.000185 
2.0348425e+3, 2.8521994e+2, -708680.56, -307066.22, -32020.105, -0.009621375, 0.19109046, -304529.34, -159663.42, 0.0, 9.995669, 10.000983 
2.0348024e+3, 2.9522127e+2, -692147.3, -243111.42, -35055.12, -0.02780717, 0.22872919, -240391.23, -193537.61, 0.0, 9.995087, 10.001031 
2.0347618e+3, 3.0522245e+2, -735600.75, -214187.56, -48935.086, -0.078884915, 0.23614973, -209634.72, -209634.72, 0.0, 9.994338, 10.001261 
2.0347218e+3, 3.152226e+2, -709998.2, 46260.492, 52532.914, -0.029315563, 0.13813327, 49892.21, 49892.21, 0.0, 9.99346, 10.003466 
2.0454869e+3, 1.2528412e+2, -1071727.5, -1666198.9, 7774.0493, 0.097395524, 0.2529625, -1071625.8, 640614.3, 0.26963484, 10.007585, 9.996794 
2.045446e+3, 1.3527991e+2, -1037804.0, -1691502.1, 28944.594, 0.11058505, 0.21165583, -1036524.9, 577756.75, 0.19453482, 10.006748, 9.996237 
2.045405e+3, 1.4527681e+2, -907340.06, -1494572.0, 56883.656, 0.035637088, 0.23915516, -901880.7, 614431.56, 0.11766032, 10.006083, 9.997251 
2.0453654e+3, 1.552744e+2, -849034.75, -1445042.9, 35368.25, 0.07773803, 0.2795002, -846943.25, 571393.25, 0.055149034, 10.005521, 9.997171 
2.0453255e+3, 1.6527176e+2, -790740.5, -1322043.0, 31387.912, 0.08969753, 0.28538173, -788892.6, 531469.7, 0.017716525, 10.004847, 9.997666 
2.0452854e+3, 1.7526896e+2, -796991.94, -1282464.4, 39176.52, 0.053159896, 0.24552847, -793850.8, 428538.34, 0.0028970928, 10.00409, 9.99763 
2.045245e+3, 1.8526678e+2, -762976.0, -1132470.0, 19718.414, 0.03247351, 0.2379919, -761926.7, 362483.38, 0.00006955834, 10.003282, 9.998378 
2.0452046e+3, 1.9526531e+2, -794132.6, -1101824.6, 9448.638, 0.032458495, 0.25671798, -793842.75, 232581.42, 0.0, 10.002417, 9.998332 
2.0451643e+3, 2.0526375e+2, -777530.7, -995349.6, 2709.6274, 0.033858232, 0.25860804, -777496.94, 150942.36, 0.0, 10.00165, 9.998761 
2.0451237e+3, 2.1526226e+2, -780055.3, -949860.5, 11051.776, 0.03381112, 0.23898955, -779339.06, 51115.176, 0.0, 10.000975, 9.998727 
2.0450832e+3, 2.252612e+2, -743366.06, -795181.7, 7775.0728, 0.03621038, 0.23301299, -742224.5, -9760.503, 0.0, 10.000183, 9.999496 
2.0450427e+3, 2.3526064e+2, -778319.8, -765822.0, 894.60284, 0.043853596, 0.23185794, -765758.3, -131290.19, 0.0, 9.9992895, 9.999456 
2.0450017e+3, 2.452601e+2, -752252.56, -662002.56, -3652.4746, 0.021736901, 0.22607687, -661854.94, -125382.69, 0.0, 9.998623, 9.999817 
2.0449604e+3, 2.5525972e+2, -723766.1, -601702.4, -2151.6934, -0.03129497, 0.21197881, -601664.5, -163189.31, 0.0, 9.998164, 9.999779 
2.0449196e+3, 2.652596e+2, -706588.6, -492933.3, -10520.999, -0.035714466, 0.2072441, -492416.5, -151939.75, 0.0, 9.997398, 10.000219 
2.044879e+3, 2.752597e+2, -767075.25, -478384.8, -10081.09, 0.0144269, 0.2030052, -478033.22, -235556.92, 0.0, 9.996342, 10.0001545 
2.0448382e+3, 2.8526014e+2, -723154.75, -319099.72, 8648.151, 0.006542525, 0.2046877, -318914.72, -174442.05, 0.0, 9.995595, 10.000935 
2.044797e+3, 2.9526114e+2, -687697.2, -241572.98, 7768.2437, -0.08084806, 0.2172198, -241437.75, -194974.56, 0.0, 9.995123, 10.001022 
2.0447563e+3, 3.052624e+2, -749136.56, -246602.33, -30225.443, -0.04868442, 0.2428397, -244790.92, -244790.92, 0.0, 9.994365, 10.001021 
2.044715e+3, 3.1526312e+2, -704344.4, 89418.67, 56194.215, -0.04225642, 0.23211248, 93377.19, 93377.19, 0.0, 9.993329, 10.003822 
2.0554946e+3, 1.2532535e+2, -1064385.4, -1620196.1, -23855.314, 0.12215718, 0.26470596, -1063363.4, 648474.3, 0.28281695, 10.007536, 9.997265 
2.0554526e+3, 1.3532193e+2, -1018736.4, -1627200.0, 4669.917, 0.0952116, 0.25532055, -1018700.56, 595168.8, 0.20408683, 10.006761, 9.996672 
2.0554109e+3, 1.4531837e+2, -946117.6, -1579676.4, 38283.797, 0.029598195, 0.24744873, -943812.6, 572091.94, 0.12362972, 10.006103, 9.996642 
2.0553708e+3, 1.5531527e+2, -889200.2, -1530461.8, 17489.197, 0.07753838, 0.27932248, -888723.56, 529214.06, 0.058202896, 10.005521, 9.996587 
2.0553303e+3, 1.653125e+2, -778665.7, -1294480.6, 5545.9146, 0.081485264, 0.29144412, -778606.06, 541358.8, 0.018886235, 10.004838, 9.997865 
2.055289e+3, 1.7531008e+2, -785303.4, -1257928.6, 12650.032, 0.030667841, 0.26817608, -784965.0, 437021.97, 0.0031642984, 10.004087, 9.997802 
2.055248e+3, 1.8530788e+2, -780934.9, -1170355.6, -11422.566, 0.014803007, 0.26434147, -780600.1, 343407.94, 0.00008216845, 10.003281, 9.99812 
2.055207e+3, 1.9530609e+2, -810157.44, -1136800.9, -20534.412, 0.035497427, 0.27805844, -808871.56, 217154.81, 0.0, 10.00242, 9.998092 
2.0551658e+3, 2.0530446e+2, -759806.3, -960700.3, -21143.691, 0.041587524, 0.2716325, -757605.1, 170436.7, 0.0, 10.001656, 9.998998 
2.0551245e+3, 2.1530306e+2, -764964.94, -918505.44, -12147.66, 0.03183554, 0.23880859, -764009.8, 66043.95, 0.0, 10.000972, 9.998945 
2.055083e+3, 2.2530204e+2, -754808.1, -820160.7, -24535.418, 0.023157483, 0.23381075, -746622.1, -14559.096, 0.0, 10.000185, 9.999327 
2.0550415e+3, 2.3530146e+2, -788832.8, -789638.44, -30666.717, 0.0176769, 0.24824117, -758566.25, -124497.74, 0.0, 9.999295, 9.999292 
2.055e+3, 2.4530092e+2, -746707.06, -653392.75, -20775.715, 0.008655832, 0.24619296, -648976.25, -112902.734, 0.0, 9.9986315, 9.999873 
2.0549588e+3, 2.553005e+2, -718548.4, -593750.5, -19346.727, -0.007029713, 0.2217579, -590820.1, -152743.11, 0.0, 9.998173, 9.99983 
2.0549169e+3, 2.653005e+2, -703146.3, -488202.47, -50938.855, -0.008952701, 0.22898075, -476741.72, -136664.69, 0.0, 9.997405, 10.000251 
2.0548752e+3, 2.7530104e+2, -761607.75, -470408.38, -49391.242, 0.00970169, 0.26306686, -462259.03, -220186.67, 0.0, 9.996352, 10.000207 
2.0548338e+3, 2.8530124e+2, -720168.4, -316971.56, -9572.209, -0.0053026546, 0.23890926, -316744.44, -172673.72, 0.0, 9.995608, 10.000945 
2.054792e+3, 2.953012e+2, -688846.8, -250646.66, -9851.918, -0.078268684, 0.14335531, -250425.27, -204353.58, 0.0, 9.995148, 10.00095 
2.0547509e+3, 3.0530396e+2, -776396.9, -304717.47, -73064.734, 0.0045988224, 0.35019726, -293658.75, -293658.75, 0.0, 9.9943695, 10.000621 
2.054708e+3, 3.153039e+2, -708546.9, 78025.72, -48259.637, -0.05271481, 0.2919407, 80975.59, 80975.59, 0.0, 9.99333, 10.003749 
2.0655017e+3, 1.2536722e+2, -1139750.4, -1669027.9, 3427.625, 0.12194049, 0.26041898, -1139728.3, 571699.5, 0.29710296, 10.0070305, 9.997047 
2.0654595e+3, 1.3536412e+2, -987228.9, -1612821.9, 8381.379, 0.090225995, 0.29385656, -987116.6, 626340.6, 0.21438847, 10.007147, 9.996584 
2.0654175e+3, 1.4536028e+2, -881576.06, -1540494.9, 29924.33, 0.040957022, 0.25974363, -880219.9, 635275.44, 0.13004343, 10.006642, 9.99665 
2.0653762e+3, 1.5535697e+2, -876084.75, -1523221.0, 46329.008, 0.065097645, 0.27575865, -872784.8, 544744.3, 0.06148553, 10.005632, 9.996583 
2.0653348e+3, 1.6535419e+2, -795748.1, -1310887.1, 46672.895, 0.064774856, 0.2880219, -791553.56, 528003.0, 0.020155428, 10.004761, 9.9977865 
2.0652929e+3, 1.7535183e+2, -804464.75, -1274744.9, 35573.445, 0.030064931, 0.28015321, -801789.1, 419789.3, 0.0034636322, 10.003992, 9.997731 
2.0652512e+3, 1.8534957e+2, -781832.0, -1175490.8, 12444.11, 0.017947668, 0.27547124, -781439.0, 342161.3, 0.0000990456, 10.003299, 9.998074 
2.0652094e+3, 1.9534755e+2, -776616.44, -1125895.5, 16240.437, 0.029924432, 0.27363166, -775862.94, 249757.6, 0.0, 10.002675, 9.998044 
2.0651674e+3, 2.0534591e+2, -726157.2, -940293.4, 11910.004, 0.03585305, 0.26675442, -725496.8, 202139.03, 0.0, 10.001871, 9.999033 
2.0651256e+3, 2.1534468e+2, -772103.3, -917411.8, 4351.4546, 0.03466732, 0.24592525, -771973.1, 57672.8, 0.0, 10.000908, 9.998981 
2.0650832e+3, 2.2534357e+2, -753402.0, -827414.2, -3743.766, 0.025225438, 0.23617834, -753213.1, -21557.338, 0.0, 10.000233, 9.999251 
2.065041e+3, 2.3534273e+2, -718477.06, -763782.44, -3888.7415, 0.010691995, 0.23287368, -718145.7, -84481.74, 0.0, 9.999817, 9.999216 
2.0649987e+3, 2.4534218e+2, -693721.06, -625660.94, 2369.649, 0.0028567063, 0.23421408, -625578.5, -89909.21, 0.0, 9.99899, 9.999888 
2.0649567e+3, 2.5534198e+2, -771904.8, -617189.44, -338.26126, -0.0017750598, 0.23049037, -617188.7, -179517.36, 0.0, 9.9978, 9.999847 
2.0649143e+3, 2.6534215e+2, -757252.6, -507138.66, -29085.611, -0.008407232, 0.25049004, -503800.84, -164130.86, 0.0, 9.997005, 10.000312 
2.0648713e+3, 2.753428e+2, -728289.9, -446661.22, -26691.143, -0.0067358064, 0.2913978, -444153.9, -202489.86, 0.0, 9.99655, 10.000274 
2.0648292e+3, 2.853429e+2, -707023.75, -305091.97, 11605.354, -0.012357315, 0.25066558, -304757.16, -161093.77, 0.0, 9.995679, 10.000992 
2.0647869e+3, 2.953425e+2, -797185.06, -301225.0, 12021.619, -0.05340289, 0.116409816, -300933.78, -255266.02, 0.0, 9.994403, 10.000959 
2.0647451e+3, 3.053462e+2, -832077.5, -295084.75, -2591.9446, 0.0104572, 0.40313694, -295072.22, -295072.22, 0.0, 9.993836, 10.000941 
2.0647015e+3, 3.1534454e+2, -638649.44, 69465.43, 35906.887, -0.06824752, 0.15005437, 71281.52, 71281.52, 0.0, 9.993991, 10.003372 
2.0755082e+3, 1.2540977e+2, -1184641.0, -1762958.8, 4120.236, 0.09079943, 0.2529427, -1184611.8, 526398.3, 0.31202516, 10.007079, 9.99626 
2.0754664e+3, 1.3540652e+2, -1025953.6, -1691727.9, 13412.29, 0.08648125, 0.33164588, -1025683.56, 587360.9, 0.22519736, 10.0071335, 9.996051 
2.075424e+3, 1.4540252e+2, -859525.1, -1475284.9, -1549.3936, 0.05918703, 0.28071958, -859521.25, 655562.6, 0.13681647, 10.00661, 9.997156 
2.0753816e+3, 1.5539944e+2, -847860.4, -1455556.1, 12771.683, 0.039086767, 0.2675057, -847592.06, 569520.25, 0.064982206, 10.005627, 9.997051 
2.0753394e+3, 1.6539663e+2, -817101.6, -1356435.1, 19795.873, 0.03907139, 0.27275598, -816376.06, 502763.28, 0.021525089, 10.0047655, 9.997473 
2.0752971e+3, 1.7539413e+2, -823440.44, -1316696.0, 9258.423, 0.04738823, 0.28125066, -823266.75, 397897.7, 0.003796384, 10.004, 9.997441 
2.0752546e+3, 1.8539177e+2, -772137.75, -1157204.9, -9189.766, 0.03699985, 0.27283004, -771918.56, 351268.88, 0.00012082915, 10.003304, 9.998199 
2.0752119e+3, 1.9538963e+2, -769524.56, -1111052.4, -5190.9165, 0.013234814, 0.24711987, -769445.7, 255761.7, 0.0, 10.002671, 9.998149 
2.075169e+3, 2.0538801e+2, -737987.9, -965509.8, -22833.66, 0.015942672, 0.2465232, -735719.0, 191503.31, 0.0, 10.00187, 9.998862 
2.0751262e+3, 2.1538696e+2, -783378.94, -942008.6, -29032.895, 0.040056076, 0.2600257, -778232.25, 50999.49, 0.0, 10.00091, 9.998814 
2.0750836e+3, 2.2538567e+2, -751428.3, -825627.1, -18159.03, 0.03998047, 0.23987813, -747222.56, -15979.245, 0.0, 10.000239, 9.999262 
2.0750408e+3, 2.3538435e+2, -717822.0, -763695.25, -18644.727, 0.020431094, 0.1856807, -711200.0, -77944.586, 0.0, 9.999819, 9.999218 
2.0749976e+3, 2.4538378e+2, -696102.7, -632180.9, -42205.723, 0.001875244, 0.1905459, -611200.06, -75939.305, 0.0, 9.998993, 9.999845 
2.0749544e+3, 2.5538406e+2, -773881.2, -623089.94, -44310.508, -0.020398369, 0.23863235, -611033.2, -173773.89, 0.0, 9.997805, 9.999806 
2.0749108e+3, 2.6538438e+2, -751206.3, -497009.78, -46667.9, -0.036334284, 0.2719161, -488712.84, -149455.9, 0.0, 9.997012, 10.0003805 
2.0748676e+3, 2.753848e+2, -720627.44, -436066.9, -43964.523, -0.03577942, 0.28664747, -429429.22, -188176.45, 0.0, 9.996569, 10.0003395 
2.0748247e+3, 2.8538492e+2, -700610.75, -296292.66, -39255.664, -0.017051939, 0.23798934, -292516.56, -149264.31, 0.0, 9.995693, 10.001047 
2.0747815e+3, 2.953849e+2, -790882.7, -289170.66, -38451.42, -0.016606703, 0.13652046, -286240.84, -240987.98, 0.0, 9.994403, 10.001044 
2.0747386e+3, 3.0538902e+2, -751706.8, -128518.266, 1929.4025, -0.035273783, 0.4001366, -128512.29, -128512.29, 0.0, 9.993835, 10.002087 
2.0746955e+3, 3.1538895e+2, -697272.06, -60974.055, 38758.156, -0.058876555, 0.19387174, -58621.914, -58621.914, 0.0, 9.994027, 10.00246 
2.0855159e+3, 1.2545298e+2, -1080886.4, -1718410.1, 17889.506, 0.06556404, 0.2515984, -1080384.8, 630201.6, 0.327122, 10.00842, 9.99592 
2.0854734e+3, 1.3544965e+2, -1054333.1, -1716337.4, 47874.12, 0.08341506, 0.3338765, -1050889.0, 561733.94, 0.23627216, 10.007007, 9.995946 
2.0854306e+3, 1.4544575e+2, -921327.56, -1480164.1, 37947.027, 0.08118459, 0.28628343, -918762.6, 595898.6, 0.14385514, 10.006044, 9.997391 
2.085387e+3, 1.5544286e+2, -854096.9, -1432805.9, 39859.992, 0.035416994, 0.27027586, -851364.4, 565321.9, 0.06866604, 10.005492, 9.997272 
2.085344e+3, 1.6544001e+2, -807581.3, -1372358.8, 49007.113, 0.031724785, 0.2697482, -803360.4, 515353.28, 0.022988306, 10.004931, 9.997283 
2.0853013e+3, 1.7543726e+2, -784550.9, -1318541.5, 44516.03, 0.057278685, 0.27404612, -780865.25, 439876.75, 0.004160933, 10.004358, 9.997256 
2.085258e+3, 1.8543483e+2, -730680.3, -1133556.3, 21332.201, 0.05199996, 0.26851618, -729553.9, 393211.78, 0.00014761277, 10.003573, 9.998231 
2.0852146e+3, 1.954328e+2, -776951.8, -1110733.8, 17735.477, 0.022439737, 0.24958482, -776012.06, 248772.14, 0.0, 10.002607, 9.99818 
2.0851709e+3, 2.0543112e+2, -753549.44, -988726.2, -267.91382, 0.0144986585, 0.24941286, -753549.1, 173250.66, 0.0, 10.001837, 9.998716 
2.0851272e+3, 2.1542987e+2, -746190.44, -939303.2, -5416.3765, 0.024610354, 0.2596331, -746038.6, 82773.02, 0.0, 10.001234, 9.998673 
2.0850837e+3, 2.2542857e+2, -723668.6, -804173.3, 10923.714, 0.026935333, 0.2416599, -722212.7, 8610.79, 0.0, 10.000399, 9.9993305 
2.0850402e+3, 2.3542733e+2, -778894.6, -785506.3, 12702.012, 0.024168907, 0.19244236, -769075.3, -136241.06, 0.0, 9.99937, 9.999282 
2.0849964e+3, 2.4542677e+2, -752119.5, -659325.2, -10835.299, 0.007409156, 0.1921342, -658076.8, -123237.01, 0.0, 9.998612, 9.99984 
2.0849521e+3, 2.554269e+2, -733202.2, -602751.4, -10474.458, -0.023432411, 0.22962686, -601915.7, -165076.28, 0.0, 9.998084, 9.99981 
2.0849079e+3, 2.654273e+2, -714612.6, -463517.16, -5961.365, -0.03785699, 0.26070085, -463375.7, -124539.195, 0.0, 9.997198, 10.000519 
2.0848641e+3, 2.7542788e+2, -793082.6, -456662.7, 1555.668, -0.028715946, 0.2772265, -456655.5, -215824.78, 0.0, 9.996014, 10.0004635 
2.0848201e+3, 2.854281e+2, -755213.7, -322692.97, 6098.2544, -0.015752075, 0.23660752, -322607.0, -179777.97, 0.0, 9.995321, 10.001044 
2.0847762e+3, 2.9542828e+2, -700246.7, -242207.05, 244.78816, -0.025981637, 0.15658084, -242206.92, -197378.94, 0.0, 9.99501, 10.001075 
2.0847319e+3, 3.0543232e+2, -666177.0, -29596.51, 24217.965, -0.06459572, 0.38584217, -28676.496, -28676.496, 0.0, 9.994176, 10.002602 
2.0846894e+3, 3.1543374e+2, -872872.8, -180862.72, 21205.201, -0.014610407, 0.28321323, -180213.53, -180213.53, 0.0, 9.992978, 10.00214 
2.0955239e+3, 1.2549679e+2, -1099833.8, -1720541.1, -12519.687, 0.033772673, 0.2520575, -1099581.3, 610576.1, 0.34207353, 10.008358, 9.995936 
2.0954803e+3, 1.3549337e+2, -1051263.0, -1686367.5, 8796.451, 0.07807539, 0.3048451, -1051141.1, 561052.94, 0.24744998, 10.0070095, 9.996147 
2.0954368e+3, 1.4548978e+2, -923353.06, -1477933.1, 20813.17, 0.10317469, 0.27737522, -922573.06, 591656.06, 0.15109427, 10.00606, 9.997405 
2.0953926e+3, 1.5548714e+2, -852868.94, -1428779.0, 22495.445, 0.047390945, 0.28251094, -851991.56, 564260.5, 0.0725137, 10.005506, 9.9972925 
2.0953488e+3, 1.6548418e+2, -815685.56, -1389138.0, 29144.13, 0.03657715, 0.27793887, -814208.25, 504072.25, 0.024536172, 10.004932, 9.997169 
2.0953056e+3, 1.754811e+2, -793686.7, -1336490.8, 24465.295, 0.05779823, 0.2606109, -792586.25, 427725.97, 0.004554417, 10.004353, 9.997138 
2.0952617e+3, 1.8547867e+2, -735185.0, -1143014.3, -13425.037, 0.061932497, 0.26360402, -734743.56, 387592.6, 0.00017911443, 10.00357, 9.99817 
2.0952173e+3, 1.9547692e+2, -781054.06, -1120705.0, -15779.817, 0.05353709, 0.27846265, -780322.5, 244029.75, 0.0, 10.00261, 9.998113 
2.0951726e+3, 2.0547508e+2, -761022.75, -1006441.94, -21525.313, 0.02793479, 0.27336276, -759149.06, 167220.5, 0.0, 10.0018425, 9.998593 
2.095128e+3, 2.1547332e+2, -754743.7, -956744.0, -25658.281, -0.013353265, 0.24547425, -751535.5, 76851.055, 0.0, 10.001229, 9.998558 
2.0950834e+3, 2.2547217e+2, -717007.44, -790882.44, -26232.84, -0.014130522, 0.2424491, -708639.94, 21757.32, 0.0, 10.000398, 9.999425 
2.0950395e+3, 2.3547164e+2, -772522.3, -773307.0, -23660.426, 0.01909805, 0.2529956, -749251.0, -116849.33, 0.0, 9.999372, 9.999367 
2.0949951e+3, 2.4547099e+2, -748493.94, -654539.06, -30796.723, 0.01776731, 0.23992436, -645344.25, -110936.79, 0.0, 9.99862, 9.999871 
2.0949502e+3, 2.5547042e+2, -728235.75, -596640.8, -31092.518, -0.0137098795, 0.20343174, -589664.25, -153251.34, 0.0, 9.998098, 9.999847 
2.0949052e+3, 2.654707e+2, -698456.56, -434186.5, -52116.887, -0.014756255, 0.21482717, -424279.84, -85869.81, 0.0, 9.997212, 10.000715 
2.0948604e+3, 2.754718e+2, -779827.94, -431701.34, -42042.797, 0.01254537, 0.25925273, -426695.88, -186296.67, 0.0, 9.99602, 10.000633 
2.0948154e+3, 2.8547236e+2, -760300.56, -335073.47, -5979.43, -0.009766756, 0.24919741, -334989.4, -192594.97, 0.0, 9.995326, 10.000959 
2.0947702e+3, 2.9547262e+2, -699316.25, -246962.27, -12627.223, -0.08838591, 0.18766244, -246610.06, -202217.0, 0.0, 9.995036, 10.001032 
2.0947261e+3, 3.0547577e+2, -677846.1, -60588.598, -27020.014, -0.07886415, 0.33768767, -59408.074, -59408.074, 0.0, 9.9942, 10.002379 
2.0946826e+3, 3.1547663e+2, -812690.3, -60409.81, -5949.2485, 0.01136694, 0.20377244, -60362.76, -60362.76, 0.0, 9.992992, 10.002963 
2.1055323e+3, 1.2554203e+2, -1158359.4, -1743070.4, 26518.076, 0.0652786, 0.2741725, -1157159.1, 552555.5, 0.35678175, 10.007832, 9.996037 
2.105487e+3, 1.355382e+2, -1017387.25, -1646320.1, 41872.117, 0.055750832, 0.2719254, -1014611.8, 597141.9, 0.258674, 10.007343, 9.996266 
2.1054429e+3, 1.4553468e+2, -869078.6, -1474307.0, 55540.688, 0.08239951, 0.26149148, -864024.0, 649764.06, 0.15850323, 10.006674, 9.997138 
2.1053982e+3, 1.5553205e+2, -817038.9, -1435819.6, 40416.86, 0.05651828, 0.29358158, -814410.1, 601402.1, 0.076507986, 10.005908, 9.997051 
2.1053538e+3, 1.65529e+2, -793110.9, -1373910.6, 42553.934, 0.048648644, 0.28998464, -790009.56, 527832.2, 0.026159445, 10.005083, 9.9972 
2.1053098e+3, 1.7552574e+2, -813517.4, -1342419.1, 47468.37, 0.051503412, 0.2526394, -809290.94, 410583.47, 0.0049729967, 10.004205, 9.997167 
2.1052651e+3, 1.8552329e+2, -753129.44, -1159805.8, 13497.772, 0.053501062, 0.2562746, -752681.9, 369216.7, 0.00021470414, 10.003487, 9.998093 
2.10522e+3, 1.9552162e+2, -744251.3, -1110908.5, 8628.588, 0.05559297, 0.28828788, -744048.4, 279866.25, 0.0, 10.002899, 9.998039 
2.1051745e+3, 2.055198e+2, -719779.75, -977342.6, 9454.58, 0.034993034, 0.28280786, -719433.2, 206498.86, 0.0, 10.0020895, 9.998673 
2.1051292e+3, 2.1551794e+2, -768387.2, -955145.94, 17599.492, -0.0049047517, 0.23914851, -766743.1, 61206.234, 0.0, 10.001103, 9.998628 
2.1050838e+3, 2.2551684e+2, -731734.5, -806226.0, 17143.23, -0.014044931, 0.24355929, -727978.56, 1981.2544, 0.0, 10.000336, 9.999347 
2.1050388e+3, 2.3551649e+2, -723936.25, -757219.5, 6744.8545, 0.0039213407, 0.28185812, -722621.4, -90658.14, 0.0, 9.999741, 9.999298 
2.1049936e+3, 2.4551585e+2, -715773.9, -629870.56, -4344.442, 0.008649173, 0.26789516, -629651.4, -95682.234, 0.0, 9.998812, 9.999946 
2.104948e+3, 2.555151e+2, -794899.56, -621743.75, -2381.3818, 0.0018865924, 0.20586863, -621711.0, -185735.19, 0.0, 9.997614, 9.999907 
2.1049024e+3, 2.6551533e+2, -751756.75, -465939.3, -29810.896, 0.0005834077, 0.21189429, -462863.13, -124889.805, 0.0, 9.996875, 10.000659 
2.1048562e+3, 2.7551645e+2, -714048.75, -405213.25, -40047.797, 0.0054872427, 0.26782867, -400104.63, -160142.5, 0.0, 9.996496, 10.0005865 
2.1048105e+3, 2.8551704e+2, -720417.56, -310994.5, -5487.2495, -0.022012496, 0.2594641, -310920.97, -168963.88, 0.0, 9.995581, 10.001 
2.1047649e+3, 2.955173e+2, -815237.94, -303285.9, -3894.0845, -0.078468084, 0.19354072, -303256.28, -259300.73, 0.0, 9.994246, 10.001024 
2.1047202e+3, 3.055201e+2, -750531.3, -86228.88, -3688.3247, -0.050694343, 0.30811137, -86208.41, -86208.41, 0.0, 9.993665, 10.00246 
2.1046753e+3, 3.1552094e+2, -737031.3, -20402.688, 21571.908, -0.035296362, 0.16149627, -19753.918, -19753.918, 0.0, 9.993504, 10.002988 
2.1155405e+3, 1.2558837e+2, -1166534.8, -1721653.9, 19700.113, 0.13839933, 0.3000538, -1165836.5, 543424.75, 0.37132844, 10.007796, 9.9962 
2.1154939e+3, 1.3558401e+2, -1023105.7, -1638573.9, 27807.002, 0.011920843, 0.23436703, -1021851.94, 589451.4, 0.26995793, 10.007347, 9.996315 
2.1154487e+3, 1.4558038e+2, -906489.5, -1547105.3, 30998.285, 0.020397628, 0.24028862, -904993.06, 608345.94, 0.16606253, 10.006674, 9.9965925 
2.115404e+3, 1.5557754e+2, -851467.3, -1508028.1, 15666.514, 0.06066812, 0.30510756, -851093.7, 564273.9, 0.08062817, 10.005907, 9.996556 
2.1153592e+3, 1.6557439e+2, -783124.5, -1351451.1, 12242.653, 0.06414508, 0.3055891, -782860.9, 534537.44, 0.02784709, 10.005083, 9.997355 
2.1153137e+3, 1.7557108e+2, -802174.7, -1320744.8, 17627.98, 0.03645591, 0.24950136, -801576.1, 417853.44, 0.0054124356, 10.004211, 9.9973135 
2.1152683e+3, 1.8556859e+2, -759324.4, -1174534.8, -6845.791, 0.026073335, 0.24618816, -759211.5, 362242.63, 0.000253618, 10.00349, 9.997992 
2.1152224e+3, 1.9556685e+2, -750719.94, -1123753.5, -11388.04, 0.028805034, 0.2808846, -750372.6, 273099.3, 0.00000000000010610821, 10.002893, 9.997956 
2.1151765e+3, 2.0556514e+2, -702559.94, -942573.6, -25943.043, 0.03562513, 0.27922282, -699787.8, 225700.16, 0.0, 10.002089, 9.998914 
2.1151306e+3, 2.155636e+2, -753387.4, -924818.75, -16375.066, 0.044967562, 0.24176335, -751837.25, 75664.0, 0.0, 10.001103, 9.998838 
2.1150845e+3, 2.2556247e+2, -748213.6, -842148.8, -4039.68, 0.022649042, 0.24662694, -748040.25, -18527.93, 0.0, 10.0003395, 9.999101 
2.115038e+3, 2.3556183e+2, -738608.44, -789539.2, -15292.929, -0.024306536, 0.27952072, -734369.3, -102849.234, 0.0, 9.999744, 9.999076 
2.114992e+3, 2.4556121e+2, -707496.9, -615190.56, -49791.76, -0.021336965, 0.2748852, -593451.6, -59925.547, 0.0, 9.998818, 10.000046 
2.1149458e+3, 2.555608e+2, -789854.44, -613279.44, -46151.973, 0.020947, 0.23613596, -601944.25, -166415.0, 0.0, 9.997619, 9.999964 
2.1148992e+3, 2.6556098e+2, -773859.7, -514253.72, -44587.39, 0.0061155846, 0.2549874, -506809.3, -169282.0, 0.0, 9.996882, 10.000325 
2.114852e+3, 2.7556178e+2, -729529.44, -443543.6, -56597.863, -0.05855085, 0.30881536, -432750.0, -193229.75, 0.0, 9.996519, 10.000314 
2.1148057e+3, 2.8556195e+2, -705898.3, -286151.25, -58992.4, -0.05748328, 0.26482823, -278017.9, -136499.3, 0.0, 9.995599, 10.001165 
2.11476e+3, 2.9556197e+2, -813125.06, -300406.7, -52165.727, 0.0113593675, 0.15695438, -295153.0, -251634.66, 0.0, 9.994247, 10.001045 
2.1147144e+3, 3.0556542e+2, -724952.4, -33106.3, -6504.3916, 0.020507244, 0.32554576, -33045.152, -33045.152, 0.0, 9.993663, 10.002826 
2.1146682e+3, 3.1556696e+2, -820998.44, -201814.92, -53867.55, -0.07105853, 0.20141916, -197163.52, -197163.52, 0.0, 9.99353, 10.001731 
2.1255489e+3, 1.2563528e+2, -1185553.9, -1727841.5, 42459.965, 0.18247743, 0.32725602, -1182249.5, 526553.3, 0.3858279, 10.00772, 9.996204 
2.1255012e+3, 1.3563067e+2, -1019430.1, -1642102.0, 34345.746, 0.022747174, 0.24600333, -1017541.4, 593305.3, 0.28131214, 10.007524, 9.996206 
2.1254553e+3, 1.4562684e+2, -892097.75, -1549307.6, 32748.072, 0.009914684, 0.24595986, -890470.0, 622413.94, 0.17373647, 10.006904, 9.996464 
2.1254098e+3, 1.5562375e+2, -852286.7, -1519999.5, 43005.246, 0.06272028, 0.29915974, -849528.25, 565386.9, 0.08484224, 10.00598, 9.996438 
2.125364e+3, 1.6562057e+2, -764636.06, -1332750.1, 52581.164, 0.066739984, 0.29924646, -759810.44, 557135.5, 0.029585082, 10.005187, 9.997432 
2.1253179e+3, 1.7561743e+2, -756578.6, -1291051.6, 51168.934, 0.02938706, 0.25213212, -751724.0, 467251.3, 0.005868815, 10.0044985, 9.997377 
2.1252716e+3, 1.8561491e+2, -737543.56, -1169621.3, 25990.79, 0.020381777, 0.24795142, -735985.75, 385014.16, 0.00029522902, 10.003668, 9.997939 
2.1252254e+3, 1.9561301e+2, -778482.94, -1142361.9, 22987.803, 0.032948267, 0.27201733, -777036.44, 245983.17, 0.0000000000129771185, 10.002728, 9.997906 
2.1251787e+3, 2.0561127e+2, -715400.8, -953075.1, 368.70844, 0.0429702, 0.2732978, -715400.25, 209635.88, 0.0, 10.002024, 9.998872 
2.1251318e+3, 2.1560985e+2, -698499.44, -902094.7, -11792.945, 0.05131124, 0.25178748, -697818.6, 129229.945, 0.0, 10.001501, 9.9988 
2.1250847e+3, 2.2560875e+2, -704974.06, -812714.2, -77.91226, 0.029366614, 0.25833213, -704974.0, 24085.38, 0.0, 10.000604, 9.999173 
2.1250376e+3, 2.3560804e+2, -783242.06, -804558.5, 10653.654, -0.017111704, 0.27891818, -778830.5, -147762.88, 0.0, 9.999413, 9.999131 
2.1249905e+3, 2.4560747e+2, -742883.75, -641378.44, -18589.28, -0.018623022, 0.2804214, -638081.1, -105007.516, 0.0, 9.998617, 9.999961 
2.1249436e+3, 2.556072e+2, -722526.2, -588920.0, -29235.365, 0.018568914, 0.26571414, -582802.9, -147726.89, 0.0, 9.998118, 9.999889 
2.124896e+3, 2.6560736e+2, -722673.6, -482274.22, -13358.386, 0.0008185961, 0.28179988, -481534.2, -144459.72, 0.0, 9.997206, 10.000387 
2.1248482e+3, 2.7560788e+2, -806542.3, -473261.34, 2325.3164, -0.06898368, 0.30578762, -473245.13, -234175.63, 0.0, 9.995964, 10.000375 
2.124801e+3, 2.856081e+2, -760415.8, -300306.13, 6057.233, -0.05107066, 0.25854984, -300226.4, -159159.17, 0.0, 9.995177, 10.001268 
2.124755e+3, 2.9560858e+2, -729991.75, -250022.17, 10090.516, 0.06390687, 0.18801637, -249810.13, -206747.78, 0.0, 9.994779, 10.001133 
2.1247077e+3, 3.0561185e+2, -681196.4, -9541.219, 56042.49, -0.0247211, 0.33127597, -4897.1787, -4897.1787, 0.0, 9.993954, 10.002848 
2.1246614e+3, 3.1561366e+2, -975031.44, -261603.36, -44235.637, -0.049346533, 0.23394774, -258871.03, -258871.03, 0.0, 9.992412, 10.001859 
2.1355563e+3, 1.256827e+2, -1201916.1, -1751936.0, 40235.38, 0.19791879, 0.35355547, -1198988.4, 509351.25, 0.40032315, 10.007759, 9.99602 
2.1355093e+3, 1.3567805e+2, -1041235.06, -1682242.9, 29256.895, 0.07525205, 0.3008049, -1039902.5, 570481.75, 0.29270458, 10.007534, 9.995926 
2.1354625e+3, 1.4567396e+2, -885263.8, -1516512.1, 5253.2974, 0.03802211, 0.2733371, -885220.06, 627203.5, 0.18147148, 10.006897, 9.996693 
2.1354158e+3, 1.556706e+2, -840634.4, -1489186.5, 13594.767, 0.05950477, 0.27699474, -840349.56, 574106.25, 0.08911497, 10.005984, 9.996648 
2.1353692e+3, 1.6566746e+2, -766431.25, -1336371.8, 29044.316, 0.055396512, 0.2739142, -764954.94, 551530.8, 0.031361103, 10.005191, 9.997407 
2.1353222e+3, 1.7566465e+2, -758396.0, -1295155.9, 26845.816, 0.027137596, 0.2607, -757056.7, 461455.84, 0.0063398224, 10.004498, 9.997352 
2.1352755e+3, 1.8566214e+2, -739361.1, -1174696.8, -7858.5938, 0.032309603, 0.26059717, -739219.3, 381317.78, 0.00033926207, 10.00367, 9.997905 
2.1352282e+3, 1.9565998e+2, -780838.8, -1149259.9, -8977.604, 0.0635806, 0.26355493, -780620.2, 241938.63, 0.0000000000136278775, 10.002733, 9.997858 
2.1351807e+3, 2.0565808e+2, -736065.0, -998322.8, -17631.049, 0.054152805, 0.26708132, -734885.0, 189692.61, 0.0, 10.002029, 9.99856 
2.1351328e+3, 2.1565656e+2, -717048.3, -941741.56, -30088.908, 0.013691526, 0.26800263, -713088.8, 113503.61, 0.0, 10.001501, 9.99853 
2.135085e+3, 2.2565554e+2, -679596.6, -761296.44, -43414.4, 0.0063267103, 0.27591544, -660835.06, 67767.16, 0.0, 10.000605, 9.999528 
2.1350373e+3, 2.3565504e+2, -761615.56, -760439.56, -30976.125, 0.02296125, 0.2805145, -730045.9, -99438.836, 0.0, 9.999413, 9.999435 
2.1349895e+3, 2.4565451e+2, -761266.0, -682072.6, -37213.57, 0.014309837, 0.28732806, -667330.1, -134717.38, 0.0, 9.998624, 9.9996805 
2.1349412e+3, 2.556542e+2, -735689.5, -620996.7, -49364.293, -0.010227618, 0.29568315, -602676.44, -168059.31, 0.0, 9.998136, 9.999662 
2.1348928e+3, 2.6565427e+2, -687719.5, -413977.1, -62060.52, -0.018399308, 0.2901483, -400564.47, -63948.31, 0.0, 9.99722, 10.000852 
2.1348445e+3, 2.7565467e+2, -777011.1, -414316.53, -44065.6, -0.024537437, 0.25268158, -409039.56, -170428.34, 0.0, 9.99597, 10.000778 
2.1347967e+3, 2.856554e+2, -759896.8, -301142.9, -9735.063, -0.00068351545, 0.24047448, -300936.4, -160332.61, 0.0, 9.995182, 10.001262 
2.1347497e+3, 2.9565716e+2, -716147.2, -228685.23, -2693.7312, 0.071219765, 0.29699105, -228670.34, -186082.8, 0.0, 9.994806, 10.001268 
2.1346997e+3, 3.0565912e+2, -694199.25, -42325.297, 4450.646, -0.21306203, 0.3117229, -42294.914, -42294.914, 0.0, 9.993973, 10.002616 
2.1346538e+3, 3.1566045e+2, -824429.3, 53294.438, -27571.873, -0.026996149, 0.19835405, 54159.695, 54159.695, 0.0, 9.992402, 10.004026 
2.1455643e+3, 1.2573048e+2, -1129625.9, -1685613.4, 56910.977, 0.15610576, 0.34143057, -1123860.3, 584011.75, 0.41475418, 10.008708, 9.996106 
2.1455169e+3, 1.3572618e+2, -1020303.5, -1659855.5, 64578.395, 0.083033554, 0.3213224, -1013847.9, 596065.5, 0.30404726, 10.007818, 9.9959545 
2.1454692e+3, 1.4572196e+2, -877842.06, -1502971.0, 42038.125, 0.043780383, 0.27735215, -875027.8, 636925.94, 0.18919015, 10.006983, 9.996755 
2.1454218e+3, 1.5571852e+2, -813436.2, -1467092.4, 42942.65, 0.06714823, 0.26763812, -810627.1, 603359.2, 0.09340348, 10.006188, 9.9967 
2.1453743e+3, 1.657154e+2, -751647.2, -1339154.0, 55269.848, 0.064233735, 0.26982576, -746492.9, 569523.3, 0.03316131, 10.005354, 9.997308 
2.1453267e+3, 1.7571263e+2, -765171.3, -1308670.1, 47220.99, 0.033415187, 0.2728501, -761099.1, 456943.9, 0.0068234866, 10.004502, 9.997254 
2.1452788e+3, 1.857101e+2, -722753.6, -1165318.3, 12189.641, 0.032261852, 0.27444112, -722418.1, 397649.66, 0.0003856351, 10.003783, 9.997912 
2.1452309e+3, 1.9570786e+2, -719996.8, -1120041.3, 12741.274, 0.055542987, 0.2701429, -719591.4, 302498.16, 0.000000000027357056, 10.003157, 9.997852 
2.1451826e+3, 2.0570587e+2, -698241.2, -992437.6, 14259.837, 0.046482835, 0.2711303, -697551.6, 226557.75, 0.0, 10.002346, 9.998446 
2.145134e+3, 2.1570422e+2, -741211.0, -965838.6, 13198.103, 0.0119601535, 0.27078083, -740438.25, 85688.01, 0.0, 10.001391, 9.998417 
2.1450855e+3, 2.2570314e+2, -694257.5, -770311.8, -18300.361, 0.009350813, 0.2794588, -690083.1, 38053.75, 0.0, 10.000515, 9.999508 
2.1450369e+3, 2.3570263e+2, -721258.9, -740912.2, -33285.2, 0.032142594, 0.28784236, -696380.06, -66238.73, 0.0, 9.999693, 9.999433 
2.144988e+3, 2.4570216e+2, -741365.44, -653942.2, -24207.367, 0.022791613, 0.29245538, -647686.8, -115540.58, 0.0, 9.998685, 9.999842 
2.144939e+3, 2.557019e+2, -811952.8, -640632.7, -4226.943, -0.010580379, 0.29175156, -640528.5, -206378.83, 0.0, 9.997541, 9.999812 
2.1448897e+3, 2.657021e+2, -756485.9, -452354.38, -26515.047, -0.022612963, 0.29373538, -450060.03, -113912.05, 0.0, 9.996773, 10.000802 
2.1448405e+3, 2.7570266e+2, -737548.75, -400829.63, -48010.293, -0.01848672, 0.2812092, -394117.97, -155976.03, 0.0, 9.996265, 10.000728 
2.144792e+3, 2.857034e+2, -703816.44, -265951.3, -14994.848, 0.010321903, 0.2659414, -265438.4, -125303.82, 0.0, 9.995534, 10.001332 
2.1447441e+3, 2.9570484e+2, -727716.94, -220394.97, -2989.1523, 0.05884491, 0.2827191, -220377.36, -178256.63, 0.0, 9.994669, 10.0013895 
2.1446928e+3, 3.0570713e+2, -774966.75, -93714.625, -27979.379, -0.24469769, 0.32822245, -92567.43, -92567.43, 0.0, 9.993473, 10.002502 
2.1446472e+3, 3.1570897e+2, -836810.56, 124560.02, 42892.367, 0.09697215, 0.27897304, 126469.91, 126469.91, 0.0, 9.992001, 10.004701 
2.155572e+3, 1.2577868e+2, -1135599.3, -1665077.6, 35824.145, 0.06929232, 0.30294338, -1133186.4, 574213.25, 0.4289401, 10.00867, 9.996377 
2.1555243e+3, 1.3577498e+2, -1019287.44, -1621491.6, 40919.086, 0.048833787, 0.31354067, -1016519.75, 592915.06, 0.31518248, 10.007789, 9.996224 
2.155476e+3, 1.4577076e+2, -890904.94, -1517671.5, 18988.254, 0.02488235, 0.26253462, -890330.2, 621145.25, 0.19678234, 10.0069685, 9.996651 
2.155428e+3, 1.5576738e+2, -820846.3, -1481294.9, 17545.137, 0.08247108, 0.270341, -820380.5, 593127.2, 0.097651795, 10.0062, 9.996597 
2.15538e+3, 1.6576424e+2, -763036.8, -1365276.6, 25558.719, 0.08877216, 0.28460118, -761954.06, 553584.4, 0.034968056, 10.005367, 9.997123 
2.1553314e+3, 1.7576131e+2, -774939.56, -1332295.3, 18414.37, 0.045880448, 0.28903317, -774331.8, 443235.8, 0.0073174178, 10.004515, 9.9970875 
2.1552825e+3, 1.857587e+2, -719548.6, -1161370.1, -9082.955, 0.01930332, 0.28994462, -719362.0, 400230.78, 0.00043432688, 10.00379, 9.997938 
2.1552335e+3, 1.9575652e+2, -717043.56, -1116091.1, -8928.243, 0.009612425, 0.28893256, -716843.9, 304769.1, 0.00000000007381513, 10.003161, 9.99788 
2.1551846e+3, 2.057545e+2, -694702.2, -986392.44, -20200.873, 0.020244433, 0.28236672, -693309.8, 230322.94, 0.0, 10.002348, 9.998488 
2.1551357e+3, 2.1575269e+2, -740806.44, -964739.94, -20077.402, 0.04296445, 0.2626497, -739020.56, 86630.47, 0.0, 10.001387, 9.998428 
2.1550862e+3, 2.257514e+2, -722038.8, -828451.94, -47583.61, 0.03552324, 0.272459, -703865.2, 23799.104, 0.0, 10.000513, 9.999112 
2.1550363e+3, 2.3575072e+2, -742453.7, -787277.75, -63549.246, 0.007611928, 0.3007198, -697480.2, -67808.36, 0.0, 9.999699, 9.999114 
2.1549863e+3, 2.457503e+2, -698477.3, -567311.1, -68002.43, 0.0049855052, 0.29313332, -538419.5, -6744.067, 0.0, 9.998692, 10.000436 
2.1549365e+3, 2.5575024e+2, -775527.25, -566755.94, -45577.516, 0.015692167, 0.2524752, -557239.5, -123564.73, 0.0, 9.997545, 10.0003195 
2.1548864e+3, 2.6575074e+2, -796117.25, -537549.7, -46065.918, -0.013137255, 0.29370835, -529587.8, -193916.89, 0.0, 9.996781, 10.000216 
2.1548362e+3, 2.7575186e+2, -771269.2, -476139.63, -69291.74, -0.058547676, 0.39522114, -460680.75, -223018.08, 0.0, 9.9962845, 10.000204 
2.1547872e+3, 2.8575203e+2, -691467.06, -244406.55, -50354.18, -0.025076205, 0.33739465, -238805.14, -99144.35, 0.0, 9.995548, 10.001475 
2.1547385e+3, 2.957514e+2, -719462.7, -206927.84, -36465.176, 0.024421867, 0.13949145, -204346.47, -162682.84, 0.0, 9.994681, 10.001478 
2.1546878e+3, 3.0575562e+2, -780834.3, -108418.32, -91390.87, -0.09999837, 0.37620497, -96218.35, -96218.35, 0.0, 9.993477, 10.002404 
2.1546385e+3, 3.1575832e+2, -947147.06, -113057.76, 91581.336, 0.024021199, 0.4247573, -103120.695, -103120.695, 0.0, 9.992027, 10.003061 
2.1655804e+3, 1.258282e+2, -1172747.5, -1681927.8, 56855.973, 0.06296653, 0.28380218, -1166476.1, 540438.1, 0.4425297, 10.008415, 9.9963 
2.165532e+3, 1.3582489e+2, -1051186.0, -1636127.4, 58692.367, 0.061140053, 0.33104736, -1045355.0, 563591.25, 0.32585785, 10.007545, 9.996249 
2.165483e+3, 1.4582062e+2, -904488.1, -1530195.8, 44272.516, 0.021451771, 0.27844346, -901371.1, 609616.6, 0.20409887, 10.006935, 9.996581 
2.1654344e+3, 1.5581723e+2, -787946.8, -1470558.3, 44759.76, 0.07564329, 0.29240036, -785024.4, 627996.25, 0.101794116, 10.006513, 9.99652 
2.1653852e+3, 1.6581401e+2, -701723.3, -1340444.6, 51116.625, 0.084214546, 0.306233, -697658.3, 617393.6, 0.036762692, 10.005844, 9.997063 
2.1653359e+3, 1.7581093e+2, -710688.2, -1307816.0, 52471.594, 0.046401653, 0.30383396, -706112.4, 510969.63, 0.0078191655, 10.004995, 9.997023 
2.1652864e+3, 1.8580809e+2, -677220.9, -1152832.5, 26385.256, 0.022114191, 0.29227024, -675761.6, 443347.47, 0.00048518658, 10.004137, 9.997828 
2.1652366e+3, 1.9580565e+2, -709910.6, -1124721.1, 14654.205, 0.012221206, 0.27560252, -709393.56, 311738.28, 0.00000000020128568, 10.003266, 9.997767 
2.165187e+3, 2.0580365e+2, -693045.7, -990973.1, -10660.933, 0.025184426, 0.28026205, -692664.7, 230486.95, 0.0, 10.002386, 9.998438 
2.1651372e+3, 2.1580209e+2, -728349.75, -962102.2, -18373.604, 0.05336216, 0.29070026, -726914.4, 98253.766, 0.0, 10.001492, 9.998394 
2.1650867e+3, 2.2580075e+2, -706853.44, -813745.5, -26259.082, 0.038242303, 0.29305702, -700751.0, 26430.705, 0.0, 10.00059, 9.999173 
2.1650356e+3, 2.3579976e+2, -741714.2, -781132.75, -9783.928, -0.0056393393, 0.28711498, -739419.4, -110228.0, 0.0, 9.999682, 9.999163 
2.1649848e+3, 2.4579936e+2, -687508.56, -568335.6, -32384.469, -0.0027073023, 0.28434008, -560104.0, -28909.213, 0.0, 9.9987955, 10.000378 
2.1649343e+3, 2.5579953e+2, -725122.3, -547109.1, -58396.133, 0.027945902, 0.27492076, -529662.56, -96470.28, 0.0, 9.997913, 10.000276 
2.1648833e+3, 2.6579997e+2, -757207.94, -517906.53, -41283.465, -0.001542981, 0.308645, -510984.66, -175795.39, 0.0, 9.997048, 10.000219 
2.1648322e+3, 2.758008e+2, -782653.44, -481641.88, -21110.06, -0.05471505, 0.37789643, -480168.63, -242984.8, 0.0, 9.99621, 10.000199 
2.1647823e+3, 2.8580105e+2, -724149.4, -268917.9, -1984.0771, -0.036575317, 0.34088516, -268909.25, -129728.93, 0.0, 9.995366, 10.001392 
2.1647324e+3, 2.9580086e+2, -771083.2, -246269.03, -10338.6045, -0.028138207, 0.19203407, -246065.44, -204886.11, 0.0, 9.994395, 10.001343 
2.1646819e+3, 3.0580372e+2, -794631.6, -131675.39, -80175.484, -0.012964254, 0.30980933, -122117.08, -122117.08, 0.0, 9.993463, 10.002247 
2.1646297e+3, 3.158054e+2, -853670.94, -143598.11, 123547.125, -0.09980844, 0.2670051, -122715.984, -122715.984, 0.0, 9.992996, 10.002383 
2.175589e+3, 1.2587892e+2, -1201455.0, -1722951.9, 32035.496, 0.11344157, 0.28417647, -1199494.5, 506923.06, 0.45503804, 10.008389, 9.995911 
2.1755397e+3, 1.3587578e+2, -1066996.6, -1660120.0, 38833.324, 0.10791825, 0.369305, -1064464.9, 543984.06, 0.33577114, 10.007549, 9.996074 
2.1754898e+3, 1.4587143e+2, -912253.94, -1540091.5, 32386.428, 0.027214034, 0.3203946, -910587.75, 599904.0, 0.21099415, 10.006946, 9.996509 
2.1754405e+3, 1.5586792e+2, -794148.2, -1480726.4, 31038.484, 0.046638306, 0.3307881, -792747.9, 619778.1, 0.10578285, 10.006518, 9.9964485 
2.1753906e+3, 1.6586457e+2, -700326.0, -1336122.4, 21603.553, 0.05169787, 0.33411798, -699592.75, 614965.06, 0.03853732, 10.005845, 9.997093 
2.1753405e+3, 1.7586137e+2, -709465.9, -1306959.3, 22470.957, 0.03432722, 0.31615835, -708621.94, 507965.53, 0.008329182, 10.005001, 9.997027 
2.1752906e+3, 1.8585818e+2, -694293.56, -1190087.3, -4965.575, 0.0375535, 0.28136915, -694243.9, 424374.06, 0.000538235, 10.004141, 9.997572 
2.1752402e+3, 1.9585517e+2, -727730.6, -1162177.1, -15521.558, 0.058075663, 0.23475623, -727176.8, 293470.03, 0.0000000009394869, 10.003264, 9.997514 
2.1751894e+3, 2.0585325e+2, -703276.8, -1013229.56, -42065.02, 0.057529055, 0.26849702, -697669.44, 224997.31, 0.0, 10.002386, 9.998287 
2.1751384e+3, 2.1585228e+2, -734396.8, -976545.3, -49018.035, 0.04002228, 0.3521617, -724850.5, 99828.195, 0.0, 10.001495, 9.998296 
2.1750869e+3, 2.25851e+2, -671472.3, -742136.3, -58748.684, 0.016026106, 0.33731195, -638249.5, 88441.12, 0.0, 10.000594, 9.999665 
2.1750352e+3, 2.3584965e+2, -714185.06, -725059.4, -42462.37, -0.009710412, 0.24788441, -676813.2, -48112.176, 0.0, 9.999683, 9.999549 
2.1749836e+3, 2.4584927e+2, -738009.44, -674959.94, -65801.41, -0.0016976126, 0.26806325, -633521.44, -102816.27, 0.0, 9.998799, 9.999646 
2.174932e+3, 2.5584975e+2, -766219.06, -636444.06, -92186.31, 0.021653682, 0.36108178, -588598.7, -155895.36, 0.0, 9.997927, 9.999659 
2.1748804e+3, 2.6584965e+2, -713157.6, -429791.13, -74767.13, 0.010266968, 0.33718464, -411273.66, -76569.15, 0.0, 9.997059, 10.000821 
2.1748288e+3, 2.7584922e+2, -744171.3, -405016.4, -50999.51, -0.005904526, 0.22278139, -397513.5, -160806.63, 0.0, 9.996221, 10.000723 
2.1747775e+3, 2.858504e+2, -746363.06, -319818.97, -40288.79, -0.026908943, 0.27187762, -316046.9, -177352.3, 0.0, 9.995381, 10.001039 
2.1747258e+3, 2.9585308e+2, -796847.2, -304569.34, -54778.348, -0.11363834, 0.44665647, -298547.53, -257878.77, 0.0, 9.9944105, 10.000938 
2.1746755e+3, 3.058512e+2, -813347.0, -172364.52, -106716.664, 0.02225823, 0.12851703, -155064.28, -155064.28, 0.0, 9.993469, 10.001965 
2.1746233e+3, 3.158541e+2, -781205.5, -4762.8613, 2091.8433, -0.022845503, 0.22039644, -4757.2256, -4757.2256, 0.0, 9.993034, 10.0033245 
2.1855971e+3, 1.2593052e+2, -1207698.5, -1723744.0, 28519.947, 0.09115555, 0.32582775, -1206127.1, 499786.16, 0.4660856, 10.008457, 9.9958725 
2.1855474e+3, 1.3592708e+2, -1046880.1, -1628631.1, 55463.563, 0.11515246, 0.372009, -1041639.5, 566307.5, 0.3447361, 10.007783, 9.996186 
2.1854968e+3, 1.4592268e+2, -891301.2, -1544060.1, 66321.88, 0.03174832, 0.32034388, -884630.9, 625359.44, 0.21741633, 10.007258, 9.996337 
2.1854468e+3, 1.5591905e+2, -766847.06, -1484399.8, 60693.45, 0.040349368, 0.3391444, -761749.56, 650276.25, 0.109621674, 10.006838, 9.99627 
2.1853966e+3, 1.659156e+2, -665560.8, -1325605.5, 31278.191, 0.04804612, 0.34223938, -664081.9, 649976.94, 0.0403014, 10.006138, 9.997023 
2.1853457e+3, 1.7591225e+2, -685780.44, -1302845.1, 23924.61, 0.04171328, 0.3186652, -684854.25, 531235.4, 0.008851465, 10.005202, 9.996957 
2.1852946e+3, 1.8590908e+2, -675806.06, -1179624.0, 3239.9592, 0.046853714, 0.289149, -675785.2, 442334.66, 0.0005940244, 10.004266, 9.9975815 
2.1852434e+3, 1.9590619e+2, -717493.0, -1155029.1, 10288.654, 0.06393657, 0.25495312, -717251.2, 302896.6, 0.00000000393543, 10.003329, 9.997529 
2.185192e+3, 2.0590422e+2, -687179.1, -997931.3, 3527.0308, 0.058673188, 0.27934623, -687139.06, 235028.9, 0.0, 10.002469, 9.99835 
2.1851397e+3, 2.1590306e+2, -706405.6, -956769.0, 9547.232, 0.035542544, 0.3401056, -706042.1, 118138.95, 0.0, 10.001664, 9.998348 
2.1850874e+3, 2.2590184e+2, -654131.3, -735699.06, -19483.42, 0.016205262, 0.33190608, -649716.44, 76475.98, 0.0, 10.000725, 9.999644 
2.1850349e+3, 2.3590073e+2, -716539.1, -728790.4, -41054.934, 0.0031707957, 0.2675683, -681155.4, -52954.246, 0.0, 9.999681, 9.999522 
2.1849824e+3, 2.4590024e+2, -746632.56, -689787.2, -45587.156, 0.0056057093, 0.2851797, -664488.0, -134281.55, 0.0, 9.998791, 9.999546 
2.18493e+3, 2.559004e+2, -762210.8, -644300.44, -26407.188, 0.013618807, 0.35952657, -638656.44, -206448.94, 0.0, 9.998001, 9.999566 
2.1848774e+3, 2.6590025e+2, -692332.5, -405373.13, -12163.332, 0.005148251, 0.3303978, -404858.47, -70649.734, 0.0, 9.997144, 10.000946 
2.1848252e+3, 2.7589992e+2, -733669.75, -387601.7, -24332.676, 0.00014650582, 0.21071011, -385899.2, -149689.42, 0.0, 9.9962435, 10.00083 
2.184773e+3, 2.859012e+2, -750259.75, -322931.6, -16375.977, -0.024931092, 0.26587197, -322304.94, -184108.25, 0.0, 9.995364, 10.001023 
2.18472e+3, 2.9590425e+2, -790803.94, -303361.0, -10785.884, -0.10999238, 0.481575, -303122.44, -262954.56, 0.0, 9.994464, 10.000919 
2.184669e+3, 3.0590174e+2, -820993.75, -197998.81, -33212.727, 0.01041199, 0.115139924, -196233.2, -196233.2, 0.0, 9.993512, 10.001767 
2.1846154e+3, 3.159066e+2, -820737.2, 46411.406, 19764.922, -0.061811276, 0.4259375, 46861.676, 46861.676, 0.0, 9.992463, 10.003951 
2.1956047e+3, 1.2598278e+2, -1222305.1, -1702378.0, 6476.679, -0.00072883227, 0.39059505, -1222217.8, 483185.72, 0.4757862, 10.008265, 9.996117 
2.195555e+3, 1.359788e+2, -1043283.8, -1589468.1, 39331.73, 0.08626965, 0.34495345, -1040466.0, 566974.56, 0.35292646, 10.00773, 9.996528 
2.1955039e+3, 1.4597434e+2, -911495.25, -1586132.3, 54876.39, 0.030845495, 0.28730893, -907060.7, 602423.06, 0.22352293, 10.007258, 9.996046 
2.1954536e+3, 1.559706e+2, -786125.2, -1525599.0, 47907.14, 0.05050438, 0.32198715, -783034.44, 628486.25, 0.113400966, 10.006845, 9.995984 
2.1954025e+3, 1.6596696e+2, -677982.8, -1351428.9, -632.3805, 0.06643915, 0.332358, -677982.2, 635573.56, 0.04208671, 10.006141, 9.996845 
2.1953511e+3, 1.759635e+2, -696013.8, -1324517.6, -8163.9307, 0.064520456, 0.31348294, -695907.8, 519681.03, 0.00939299, 10.005202, 9.99681 
2.1952988e+3, 1.859607e+2, -658870.44, -1146086.8, -29556.393, 0.048733413, 0.31588233, -657084.0, 460531.72, 0.00065371237, 10.004269, 9.997813 
2.1952464e+3, 1.9595852e+2, -700124.06, -1120415.4, -21862.396, 0.029513387, 0.33019415, -698989.94, 320646.44, 0.000000012004619, 10.003331, 9.997768 
2.1951939e+3, 2.0595634e+2, -669277.8, -962345.4, -25359.664, 0.02922389, 0.3084532, -667099.6, 254557.58, 0.0, 10.002471, 9.998595 
2.1951413e+3, 2.1595432e+2, -694650.4, -932468.25, -19198.443, 0.038619023, 0.2585708, -693110.5, 130565.86, 0.0, 10.00166, 9.998519 
2.1950881e+3, 2.2595319e+2, -691135.1, -813394.75, -57288.906, 0.037041217, 0.28128827, -668486.25, 57201.746, 0.0, 10.000724, 9.999114 
2.1950346e+3, 2.3595284e+2, -745916.25, -792421.9, -77924.97, 0.028575553, 0.34598416, -687848.75, -60155.83, 0.0, 9.999689, 9.999084 
2.1949811e+3, 2.4595214e+2, -709173.56, -614530.0, -75909.53, 0.01593761, 0.33359236, -572400.1, -42700.277, 0.0, 9.998797, 10.000062 
2.1949275e+3, 2.5595143e+2, -731287.75, -583257.9, -56625.664, -0.00036228026, 0.26822206, -564081.25, -132375.3, 0.0, 9.998011, 9.999983 
2.194874e+3, 2.6595175e+2, -717904.25, -461950.7, -47464.14, -0.02056062, 0.28855437, -453432.4, -119729.5, 0.0, 9.997155, 10.000555 
2.1948208e+3, 2.759528e+2, -754239.2, -434261.56, -58603.06, -0.041376103, 0.34923044, -423866.28, -188173.16, 0.0, 9.996256, 10.000505 
2.194768e+3, 2.859533e+2, -726284.56, -276572.75, -52006.29, -0.0311276, 0.32499015, -270636.9, -132949.33, 0.0, 9.995375, 10.001339 
2.1947153e+3, 2.9595414e+2, -761140.2, -247019.1, -45735.664, -0.012892287, 0.28356037, -242982.19, -203303.45, 0.0, 9.994481, 10.001301 
2.1946613e+3, 3.0595547e+2, -819831.6, -202274.22, -70564.164, -0.06899201, 0.2825393, -194313.92, -194313.92, 0.0, 9.993538, 10.001728 
2.1946077e+3, 3.1595764e+2, -836315.75, 15103.119, -2383.8533, -0.074398085, 0.34237868, 15109.794, 15109.794, 0.0, 9.992463, 10.003734 
2.2056118e+3, 1.2603462e+2, -1428267.8, -1835976.9, 29466.459, 0.045521125, 0.3914168, -1426149.1, 278747.6, 0.484979, 10.005418, 9.996564 
2.2055623e+3, 1.3603105e+2, -1064556.8, -1565401.9, 69009.3, 0.08012799, 0.34047154, -1055222.3, 551706.44, 0.3609964, 10.007365, 9.996963 
2.2055112e+3, 1.4602688e+2, -854321.56, -1555730.9, 62321.625, 0.021745797, 0.29576334, -848827.2, 660141.4, 0.22971316, 10.007847, 9.995973 
2.2054605e+3, 1.5602294e+2, -760800.6, -1519562.9, 68007.11, 0.056291185, 0.31805897, -754753.44, 656254.1, 0.11729307, 10.007105, 9.995902 
2.2054087e+3, 1.6601923e+2, -660238.44, -1340773.1, 22204.406, 0.07265907, 0.32451335, -659514.7, 653529.06, 0.04393948, 10.006275, 9.996852 
2.2053562e+3, 1.760158e+2, -670804.1, -1309953.9, 26421.488, 0.062012453, 0.30927297, -669713.75, 545363.1, 0.00995998, 10.005374, 9.996825 
2.205303e+3, 1.8601312e+2, -633866.5, -1123703.0, 3750.1406, 0.045773275, 0.3213279, -633837.75, 483264.94, 0.0007182622, 10.0044, 9.997901 
2.2052495e+3, 1.9601117e+2, -685863.0, -1102457.0, 614.13293, 0.030574514, 0.3489699, -685862.06, 333259.38, 0.00000003063679, 10.003386, 9.997864 
2.205196e+3, 2.0600902e+2, -666109.8, -946231.5, -7767.7354, 0.030426567, 0.32005468, -665894.56, 255246.84, 0.0, 10.002435, 9.998721 
2.2051428e+3, 2.1600689e+2, -707439.56, -926918.25, -12075.219, 0.039590932, 0.24815658, -706777.25, 116383.31, 0.0, 10.001527, 9.998619 
2.2050889e+3, 2.2600576e+2, -705651.5, -837916.7, -37939.83, 0.0367637, 0.2748545, -695541.4, 29631.336, 0.0, 10.000705, 9.998952 
2.2050345e+3, 2.3600549e+2, -718050.44, -792322.1, -31588.346, 0.026532419, 0.36299747, -706432.9, -79254.41, 0.0, 9.999943, 9.9989605 
2.20498e+3, 2.4600479e+2, -659436.5, -566440.44, -30660.695, 0.013644049, 0.34706584, -557241.56, -28056.648, 0.0, 9.99904, 10.000273 
2.2049256e+3, 2.5600404e+2, -716996.75, -556977.44, -34397.37, -0.0012518115, 0.2566911, -549896.8, -118706.83, 0.0, 9.99803, 10.000153 
2.204871e+3, 2.6600438e+2, -721716.25, -478573.03, -19953.262, -0.024904938, 0.28374466, -476946.47, -143760.08, 0.0, 9.997197, 10.000418 
2.204817e+3, 2.7600563e+2, -736360.9, -437370.28, -15215.313, -0.05181551, 0.3782925, -436597.97, -201422.14, 0.0, 9.996434, 10.000396 
2.2047631e+3, 2.86006e+2, -720648.0, -255100.45, -13567.256, -0.029742343, 0.3375016, -254705.39, -117533.78, 0.0, 9.995336, 10.001504 
2.20471e+3, 2.9600632e+2, -795579.0, -240160.31, -16771.383, 0.019919274, 0.22827268, -239654.34, -200487.33, 0.0, 9.994149, 10.001506 
2.2046548e+3, 3.0600876e+2, -849810.4, -244252.23, -52036.836, -0.062366825, 0.33697248, -239813.14, -239813.14, 0.0, 9.993452, 10.00148 
2.204601e+3, 3.1600913e+2, -785082.56, 72423.84, 27230.809, 0.010331571, 0.25047323, 73287.71, 73287.71, 0.0, 9.9926815, 10.004019 
2.2156183e+3, 1.2608618e+2, -1374855.9, -1724341.1, 64969.523, 0.18536593, 0.33924103, -1363168.8, 341222.97, 0.49517697, 10.005941, 9.997139 
2.2155693e+3, 1.360838e+2, -1033466.75, -1513378.1, 115454.93, 0.08266862, 0.35465643, -1007135.8, 599276.1, 0.36998528, 10.007556, 9.997439 
2.2155188e+3, 1.4608017e+2, -851034.0, -1538900.9, 41723.207, -0.0011310522, 0.33727655, -848512.44, 659933.94, 0.23653956, 10.007877, 9.996071 
2.2154675e+3, 1.5607597e+2, -757943.56, -1506586.9, 45027.883, 0.057104025, 0.32574612, -755245.06, 655242.5, 0.1215065, 10.007106, 9.99599 
2.2154148e+3, 1.6607225e+2, -652576.0, -1319956.3, -7747.9883, 0.06677785, 0.31991097, -652486.06, 660037.75, 0.045907505, 10.006266, 9.997002 
2.2153611e+3, 1.76069e+2, -662806.0, -1290818.4, -5193.1577, 0.034649976, 0.30623883, -662763.06, 551792.3, 0.010556219, 10.0053625, 9.996964 
2.215307e+3, 1.8606625e+2, -637460.56, -1131371.8, -32477.47, 0.03659825, 0.3068742, -635334.1, 481248.06, 0.0007879156, 10.004397, 9.997852 
2.2152531e+3, 1.9606407e+2, -687801.1, -1109069.9, -34448.277, 0.06282866, 0.31679332, -685002.8, 333600.84, 0.00000006780442, 10.003392, 9.997817 
2.2151987e+3, 2.060622e+2, -664729.25, -946607.94, -40071.24, 0.0586295, 0.31774238, -659143.5, 261477.77, 0.0, 10.002444, 9.998716 
2.215144e+3, 2.1606067e+2, -705630.2, -924835.3, -43154.707, 0.03396119, 0.30543286, -697440.3, 125194.53, 0.0, 10.00153, 9.998634 
2.215089e+3, 2.260594e+2, -692256.3, -811286.56, -65051.953, 0.01289863, 0.30872893, -663602.25, 61045.668, 0.0, 10.000706, 9.999137 
2.2150339e+3, 2.3605852e+2, -706193.4, -769505.44, -59811.383, -0.004792185, 0.31842092, -670177.3, -43518.535, 0.0, 9.999947, 9.999118 
2.2149785e+3, 2.4605808e+2, -666461.7, -582807.1, -69355.984, -0.0022152467, 0.32664663, -543642.0, -14979.198, 0.0, 9.999043, 10.000161 
2.2149234e+3, 2.5605813e+2, -721290.75, -569727.5, -71132.33, 0.009419328, 0.3279156, -541573.25, -110912.76, 0.0, 9.998041, 10.000062 
2.2148684e+3, 2.6605812e+2, -711239.4, -460805.94, -49644.137, -0.009188677, 0.314953, -451323.84, -118663.516, 0.0, 9.997209, 10.000537 
2.2148132e+3, 2.760583e+2, -726536.6, -422343.34, -48873.414, -0.03908283, 0.29066643, -414683.94, -180024.56, 0.0, 9.996452, 10.000493 
2.2147585e+3, 2.8605923e+2, -720924.5, -257768.8, -61848.14, -0.025154306, 0.30237037, -249652.06, -113002.36, 0.0, 9.995342, 10.001484 
2.2147036e+3, 2.9606086e+2, -795995.56, -240207.69, -53685.07, -0.0073921713, 0.3270388, -235069.6, -196436.89, 0.0, 9.994142, 10.001511 
2.2146492e+3, 3.060613e+2, -878090.44, -307938.25, -77270.625, 0.030193042, 0.25872594, -297651.66, -297651.66, 0.0, 9.993465, 10.001041 
2.2145925e+3, 3.1606305e+2, -720796.8, 189891.23, 44571.94, -0.09343672, 0.3557605, 192067.53, 192067.53, 0.0, 9.9927435, 10.004799 
2.2255784e+3, 1.3613825e+2, -733090.25, -1436545.1, 150450.73, 0.02546318, 0.36975977, -702263.6, 903614.6, 0.3810213, 10.0115, 9.996406 
2.2255278e+3, 1.4613393e+2, -734786.4, -1457324.8, 60136.67, 0.08439793, 0.3231429, -729815.4, 778104.9, 0.24452125, 10.00892, 9.996234 
2.2254744e+3, 1.5613014e+2, -712322.6, -1460937.8, 69920.375, 0.040136103, 0.33704725, -705848.1, 704108.75, 0.12621026, 10.007412, 9.996159 
2.2254206e+3, 1.661266e+2, -667995.5, -1314719.1, 27497.822, 0.034106426, 0.3350075, -666828.44, 645163.06, 0.04802352, 10.006115, 9.997109 
2.2253662e+3, 1.7612334e+2, -705789.06, -1299602.4, 28624.219, 0.04258433, 0.31355274, -704412.44, 509610.6, 0.011182967, 10.005018, 9.997069 
2.2253112e+3, 1.8612057e+2, -663586.94, -1147018.3, 9044.261, 0.04643368, 0.3090475, -663417.8, 452632.5, 0.00086247886, 10.004235, 9.997821 
2.2252564e+3, 1.9611831e+2, -650712.56, -1092806.9, 5936.28, 0.05059085, 0.31538835, -650632.9, 367439.75, 0.0000001232191, 10.003658, 9.997799 
2.2252011e+3, 2.061165e+2, -618672.94, -923116.6, -5657.369, 0.047147475, 0.32318538, -618567.8, 301522.1, 0.0, 10.00276, 9.998723 
2.2251455e+3, 2.161151e+2, -685969.1, -910868.7, -8832.698, 0.037420448, 0.3252383, -685622.75, 136479.67, 0.0, 10.001651, 9.998669 
2.2250897e+3, 2.2611389e+2, -686727.0, -785199.5, -22992.836, 0.0171107, 0.3209405, -681622.9, 42491.78, 0.0, 10.0006485, 9.999341 
2.2250335e+3, 2.3611298e+2, -729043.06, -761034.0, -16692.932, -0.0075005726, 0.30882052, -721919.1, -95794.16, 0.0, 9.999711, 9.999287 
2.2249776e+3, 2.4611259e+2, -687738.5, -608397.25, -24339.395, -0.0042866888, 0.32220787, -601525.8, -73397.22, 0.0, 9.998969, 10.000018 
2.2249214e+3, 2.561127e+2, -685816.56, -563346.9, -29716.863, 0.013522663, 0.3453448, -556517.06, -126390.75, 0.0, 9.998338, 9.999959 
2.2248654e+3, 2.6611254e+2, -689806.4, -437414.44, -15211.44, 0.0024006392, 0.31846762, -436500.97, -104373.68, 0.0, 9.997305, 10.0006485 
2.2248095e+3, 2.761125e+2, -782851.4, -438697.03, -16895.426, -0.016154153, 0.26138747, -437869.6, -203741.67, 0.0, 9.996024, 10.000586 
2.2247536e+3, 2.8611368e+2, -731324.75, -273421.22, -24136.139, -0.022538148, 0.30043504, -272152.53, -136036.89, 0.0, 9.995322, 10.001384 
2.2246975e+3, 2.9611567e+2, -696978.8, -212938.22, -23352.29, -0.053790603, 0.37335107, -211814.2, -173719.02, 0.0, 9.994913, 10.001325 
2.2246428e+3, 3.06115e+2, -815821.5, -259858.42, -44216.87, 0.05880486, 0.19623515, -256363.73, -256363.73, 0.0, 9.993821, 10.001196 
2.2245845e+3, 3.1611732e+2, -778624.0, 147256.31, 119741.09, -0.16108267, 0.3228382, 162491.36, 162491.36, 0.0, 9.992426, 10.004652 
2.2355889e+3, 1.361941e+2, -863437.94, -1674059.8, 59099.1, -0.07151, 0.38538644, -859151.94, 746178.9, 0.3948717, 10.011319, 9.994169 
2.2355384e+3, 1.4618813e+2, -734394.25, -1436282.6, 18051.002, 0.25374842, 0.2663722, -733930.3, 773460.1, 0.25394705, 10.008907, 9.996441 
2.2354814e+3, 1.5618528e+2, -703720.56, -1429239.1, 21922.785, 0.0022776185, 0.35258222, -703058.75, 706358.25, 0.13147645, 10.007404, 9.996377 
2.235426e+3, 1.6618204e+2, -663765.94, -1305088.6, -9955.822, -0.025407447, 0.36692393, -663611.44, 647837.0, 0.05029648, 10.006122, 9.997177 
2.2353713e+3, 1.761787e+2, -697905.2, -1289397.0, -7684.384, 0.07938616, 0.32910526, -697805.4, 515675.97, 0.011840258, 10.005044, 9.997129 
2.2353157e+3, 1.8617594e+2, -662789.94, -1150762.3, -10466.632, 0.071002014, 0.32654765, -662565.56, 452942.75, 0.0009421812, 10.004254, 9.997788 
2.2352593e+3, 1.9617377e+2, -652591.44, -1096647.4, -15171.877, -0.0054142796, 0.34220058, -652073.7, 365456.16, 0.00000018980624, 10.003654, 9.997777 
2.2352031e+3, 2.0617178e+2, -619342.4, -923467.94, -45603.426, -0.002383143, 0.33517995, -612651.4, 306897.34, 0.0, 10.002751, 9.998728 
2.2351472e+3, 2.1617012e+2, -683726.1, -906804.0, -47073.516, 0.048359573, 0.30899894, -674199.56, 147364.69, 0.0, 10.001649, 9.9987 
2.2350903e+3, 2.2616911e+2, -671663.1, -755266.06, -56734.707, 0.046975054, 0.31343555, -642993.4, 80580.516, 0.0, 10.00065, 9.999548 
2.2350332e+3, 2.3616873e+2, -716435.44, -737292.56, -49409.387, 0.014227412, 0.3339194, -676366.06, -50788.03, 0.0, 9.999717, 9.999449 
2.2349763e+3, 2.4616815e+2, -699810.7, -635926.2, -48568.977, 0.0046851058, 0.33164236, -609737.1, -82153.48, 0.0, 9.998976, 9.999828 
2.2349197e+3, 2.561676e+2, -693569.9, -583008.0, -56923.535, 0.0060847607, 0.30715153, -558939.9, -129351.195, 0.0, 9.998348, 9.999822 
2.2348627e+3, 2.661676e+2, -683104.44, -425088.25, -65857.625, 0.0075488673, 0.2945619, -409250.53, -77662.164, 0.0, 9.997308, 10.000733 
2.234806e+3, 2.7616817e+2, -777372.1, -427746.47, -61125.004, 0.01862317, 0.2937712, -417368.06, -183785.83, 0.0, 9.996021, 10.000664 
2.2347488e+3, 2.8616932e+2, -741701.5, -300000.66, -39383.63, -0.024703791, 0.3314999, -296516.53, -160946.22, 0.0, 9.9953375, 10.001197 
2.2346914e+3, 2.9617065e+2, -718023.9, -270184.34, -45946.473, -0.13854778, 0.36288193, -265519.0, -227963.23, 0.0, 9.994965, 10.000909 
2.234636e+3, 3.0616972e+2, -766842.7, -163173.72, -103308.69, 0.01791054, 0.15545326, -145983.53, -145983.53, 0.0, 9.993841, 10.001852 
2.2345778e+3, 3.1617305e+2, -907999.6, -118510.24, -6113.7534, -0.046726722, 0.29191062, -118462.91, -118462.91, 0.0, 9.992401, 10.002846 
2.2456001e+3, 1.362501e+2, -969602.7, -1753710.6, 31317.48, 0.0027688593, 0.38256294, -968353.9, 636429.1, 0.41151848, 10.010365, 9.994068 
2.2455458e+3, 1.4624435e+2, -732802.6, -1413505.5, 42161.63, 0.1324145, 0.28455347, -730201.1, 776638.94, 0.26472974, 10.008928, 9.996648 
2.2454888e+3, 1.5624157e+2, -693340.7, -1400386.5, 49737.01, 0.01737595, 0.35633594, -689859.06, 719007.06, 0.13724221, 10.007436, 9.996565 
2.2454324e+3, 1.6623837e+2, -623243.8, -1285942.0, 38047.734, 0.009570945, 0.37042925, -621066.56, 689830.4, 0.052700385, 10.006439, 9.99716 
2.2453764e+3, 1.762351e+2, -592067.2, -1236874.1, 34080.97, 0.06719033, 0.3402385, -590270.9, 622658.3, 0.012523011, 10.005785, 9.99713 
2.2453198e+3, 1.8623236e+2, -590934.5, -1106426.0, 29674.902, 0.055107504, 0.33562386, -589231.9, 525723.94, 0.0010271432, 10.004712, 9.99787 
2.2452627e+3, 1.9623016e+2, -687301.7, -1104754.5, 31410.113, -0.00051729754, 0.34381077, -684951.56, 332025.53, 0.00000026816235, 10.003384, 9.997849 
2.2452056e+3, 2.0622818e+2, -674620.06, -948078.4, 5108.115, 0.0031914103, 0.33304873, -674524.7, 244471.53, 0.0, 10.002368, 9.99874 
2.2451487e+3, 2.162265e+2, -696452.6, -910093.4, 2552.824, 0.04450555, 0.3060399, -696422.1, 124590.05, 0.0, 10.0015545, 9.998721 
2.2450908e+3, 2.2622558e+2, -662943.7, -744627.25, -12117.798, 0.042913925, 0.31602567, -661183.94, 61837.047, 0.0, 10.000687, 9.9996 
2.245033e+3, 2.3622532e+2, -703384.94, -723099.44, -15046.04, 0.01591573, 0.34557524, -695254.7, -70231.24, 0.0, 9.999779, 9.999514 
2.2449751e+3, 2.4622476e+2, -706103.6, -625639.25, 1460.9297, 0.009434614, 0.33574924, -625612.75, -98583.93, 0.0, 9.998881, 9.999942 
2.2449178e+3, 2.5622416e+2, -741388.94, -595380.9, 12892.961, 0.01263307, 0.29461458, -594251.1, -165216.69, 0.0, 9.99798, 9.999911 
2.24486e+3, 2.662242e+2, -705575.94, -443021.06, -3468.4126, 0.00974405, 0.2927788, -442975.25, -111941.94, 0.0, 9.997192, 10.000663 
2.244802e+3, 2.7622497e+2, -716856.06, -403270.56, -9808.334, 0.015393183, 0.31562355, -402964.06, -169938.2, 0.0, 9.996466, 10.000612 
2.2447442e+3, 2.862259e+2, -730149.6, -287356.1, 20588.303, -0.0198133, 0.33431777, -286400.88, -151384.97, 0.0, 9.995395, 10.001251 
2.244686e+3, 2.9622692e+2, -850414.56, -330199.1, 26980.586, -0.118771136, 0.33066556, -328803.5, -291799.13, 0.0, 9.99405, 10.000934 
2.2446294e+3, 3.0622664e+2, -819273.8, -171563.78, -18019.727, 0.013485793, 0.18311882, -171062.86, -171062.86, 0.0, 9.993417, 10.001995 
2.2445709e+3, 3.1623018e+2, -819225.56, -152547.88, -9933.597, -0.014698981, 0.32260346, -152399.89, -152399.89, 0.0, 9.993336, 10.002163 
2.255612e+3, 1.3630643e+2, -921124.56, -1562607.1, 15131.356, 0.1810104, 0.36807886, -920767.8, 683464.6, 0.43005213, 10.010467, 9.995544 
2.255551e+3, 1.4630236e+2, -744970.2, -1400685.6, 4258.1724, -0.2289226, 0.36282656, -744942.56, 761329.5, 0.27637672, 10.008837, 9.996829 
2.2554965e+3, 1.5629888e+2, -686473.44, -1382483.1, 7113.335, 0.07802917, 0.34907034, -686400.7, 721904.8, 0.14330326, 10.007464, 9.996697 
2.2554399e+3, 1.6629554e+2, -628701.4, -1301120.0, 17327.242, 0.12187434, 0.35017657, -628255.2, 682082.44, 0.055170972, 10.006468, 9.997038 
2.2553816e+3, 1.7629242e+2, -601600.1, -1251465.1, 9921.88, 0.008605582, 0.3486139, -601448.7, 610918.94, 0.013217455, 10.005761, 9.997045 
2.255324e+3, 1.8628968e+2, -582747.5, -1085045.8, -17947.793, 0.0018676257, 0.33799654, -582107.0, 532286.8, 0.0011162375, 10.004689, 9.998031 
2.2552666e+3, 1.9628741e+2, -676023.9, -1083877.9, -13712.413, 0.057487905, 0.32148403, -675563.4, 340852.25, 0.0000003720439, 10.003389, 9.9979925 
2.2552082e+3, 2.0628555e+2, -673297.6, -948665.8, -23428.664, 0.05698139, 0.31767562, -671318.5, 247115.11, 0.0, 10.0023775, 9.9987335 
2.2551496e+3, 2.1628413e+2, -697624.3, -912974.44, -25840.602, 0.022864886, 0.31512353, -694567.0, 125880.62, 0.0, 10.001552, 9.998705 
2.255091e+3, 2.2628315e+2, -671095.7, -761557.5, -44788.832, 0.0043117166, 0.3268631, -652672.25, 69785.01, 0.0, 10.000683, 9.999489 
2.2550322e+3, 2.3628265e+2, -705484.9, -729584.44, -48082.566, -0.004043322, 0.34315315, -667965.2, -43502.74, 0.0, 9.9997835, 9.999469 
2.254974e+3, 2.4628231e+2, -677848.9, -568568.6, -33172.53, 0.008686269, 0.33545902, -559287.25, -32822.16, 0.0, 9.998884, 10.000334 
2.2549158e+3, 2.5628224e+2, -719532.25, -552661.94, -20924.637, 0.029585825, 0.30934015, -550078.1, -121613.695, 0.0, 9.997988, 10.000203 
2.254857e+3, 2.6628232e+2, -722607.25, -481130.0, -32303.115, 0.005155579, 0.31222162, -476883.4, -146420.16, 0.0, 9.997199, 10.000401 
2.2547977e+3, 2.7628273e+2, -730375.2, -435550.28, -39655.117, -0.034742873, 0.32529235, -430309.66, -197849.52, 0.0, 9.996479, 10.000387 
2.2547396e+3, 2.862833e+2, -709974.75, -248515.72, -33522.266, -0.007435473, 0.3087282, -246093.23, -111639.56, 0.0, 9.995401, 10.001518 
2.2546814e+3, 2.962844e+2, -818760.7, -263808.1, -24235.416, 0.020168953, 0.27994165, -262751.72, -226309.7, 0.0, 9.994041, 10.001397 
2.254623e+3, 3.062857e+2, -839131.9, -212854.67, -18320.396, 0.043236677, 0.27598298, -212319.2, -212319.2, 0.0, 9.993415, 10.001713 
2.2545627e+3, 3.1628758e+2, -705748.3, 70179.305, 10121.058, -0.14144309, 0.30241373, 70311.3, 70311.3, 0.0, 9.993383, 10.003673 
2.265622e+3, 1.3636565e+2, -841638.6, -1491378.6, 21647.313, 0.08569247, 0.3273725, -840918.25, 762733.3, 0.44897377, 10.011558, 9.995917 
2.2655603e+3, 1.4636217e+2, -857249.6, -1493468.1, 99755.4, -0.13626026, 0.3972308, -841975.3, 663709.8, 0.2880808, 10.008135, 9.996293 
2.2655042e+3, 1.5635778e+2, -615357.6, -1389615.0, 74615.15, 0.05622064, 0.34635586, -608232.56, 799496.0, 0.14932026, 10.008307, 9.996232 
2.2654463e+3, 1.663541e+2, -532359.25, -1248756.1, 58242.168, 0.09048889, 0.3349155, -527655.1, 782108.6, 0.05759848, 10.007166, 9.997081 
2.2653872e+3, 1.7635104e+2, -669394.6, -1281356.3, 64169.566, 0.024535188, 0.33605134, -662738.3, 549054.25, 0.013896495, 10.005283, 9.9970665 
2.2653283e+3, 1.8634833e+2, -648930.8, -1122741.9, 46295.348, 0.024311364, 0.33166912, -644449.75, 469368.94, 0.0012058367, 10.004266, 9.9979725 
2.26527e+3, 1.9634606e+2, -623807.2, -1063079.5, 31809.934, 0.06559283, 0.32392648, -621515.6, 394325.16, 0.0000005260504, 10.003773, 9.997948 
2.2652107e+3, 2.0634422e+2, -622341.5, -923093.4, 9140.235, 0.058959857, 0.32452175, -622063.94, 295794.84, 0.0, 10.002728, 9.998738 
2.2651511e+3, 2.163428e+2, -726226.6, -925107.8, 8051.4253, 0.022890856, 0.3245544, -725901.2, 93971.46, 0.0, 10.001353, 9.9987135 
2.2650915e+3, 2.2634175e+2, -699235.0, -771164.6, 8626.242, 0.0067925323, 0.32706872, -698214.94, 23668.04, 0.0, 10.000478, 9.999519 
2.265032e+3, 2.363411e+2, -687538.75, -717152.2, 13459.066, 0.005362672, 0.3276167, -682335.8, -58446.582, 0.0, 9.999895, 9.999498 
2.2649726e+3, 2.4634087e+2, -666048.3, -558879.6, 6642.875, 0.010719094, 0.32849622, -558469.44, -32578.45, 0.0, 9.998953, 10.000365 
2.2649133e+3, 2.5634104e+2, -745186.1, -559632.9, -6714.407, 0.015989555, 0.32603827, -559390.25, -131502.13, 0.0, 9.997794, 10.000245 
2.2648536e+3, 2.6634115e+2, -750539.56, -478447.6, 1940.786, -0.002258767, 0.31960705, -478433.75, -148546.94, 0.0, 9.996943, 10.000539 
2.264794e+3, 2.7634135e+2, -759572.56, -436385.0, 20767.707, -0.019497909, 0.30147573, -435055.97, -203170.83, 0.0, 9.996227, 10.000501 
2.2647348e+3, 2.8634208e+2, -719268.6, -248410.52, 14685.068, 0.016971149, 0.29199803, -247952.97, -114075.07, 0.0, 9.995324, 10.001554 
2.2646755e+3, 2.9634356e+2, -761252.1, -219179.03, 5655.7075, 0.040965214, 0.30164167, -219120.03, -183257.02, 0.0, 9.994369, 10.001542 
2.2646165e+3, 3.0634505e+2, -845734.9, -220516.2, 26683.03, 0.049674556, 0.30533236, -219379.5, -219379.5, 0.0, 9.993398, 10.001663 
2.2645554e+3, 3.1634635e+2, -792283.5, 144028.39, 58957.57, -0.14600238, 0.29182154, 147726.22, 147726.22, 0.0, 9.992303, 10.004696 
2.2756307e+3, 1.364273e+2, -901630.5, -1538348.4, -145517.38, -0.1891971, 0.2690479, -869949.8, 733095.4, 0.46657416, 10.011305, 9.995481 
2.2755727e+3, 1.4642356e+2, -908282.56, -1651609.6, 107624.43, 0.30613047, 0.39631793, -893013.56, 612068.06, 0.29886788, 10.008298, 9.995126 
2.2755112e+3, 1.5641804e+2, -683571.1, -1535877.5, 73715.5, -0.043889876, 0.34790495, -677242.5, 729894.75, 0.15486103, 10.008274, 9.995233 
2.2754517e+3, 1.6641392e+2, -531913.5, -1231484.8, -6719.9136, -0.06325643, 0.32472333, -531848.94, 777328.0, 0.05983282, 10.007102, 9.997241 
2.275393e+3, 1.764108e+2, -659828.94, -1266477.5, 3004.274, 0.10350017, 0.30367914, -659814.06, 551391.6, 0.014520159, 10.005304, 9.997161 
2.2753336e+3, 1.8640813e+2, -665080.9, -1163534.3, 29645.363, 0.10973524, 0.31660908, -663323.9, 449907.9, 0.0012897236, 10.004292, 9.997683 
2.2752732e+3, 1.9640598e+2, -643040.8, -1101616.3, 11473.078, 0.024863223, 0.3488084, -642753.94, 372500.13, 0.0000007419164, 10.003761, 9.997691 
2.2752129e+3, 2.0640403e+2, -623525.3, -923561.5, -41147.91, 0.012742123, 0.35223967, -617984.5, 299288.63, 0.0, 10.002715, 9.998744 
2.2751524e+3, 2.1640244e+2, -723784.6, -922106.25, -36689.72, 0.041209754, 0.33278325, -717214.6, 102073.9, 0.0, 10.001357, 9.998735 
2.2750923e+3, 2.2640128e+2, -688735.8, -751189.25, -11406.654, 0.046236925, 0.31682843, -686717.7, 34581.445, 0.0, 10.000482, 9.999657 
2.275032e+3, 2.364006e+2, -681580.6, -706684.25, -10295.334, 0.039480966, 0.29900226, -677898.44, -54593.426, 0.0, 9.999899, 9.999571 
2.2749715e+3, 2.4640033e+2, -690123.1, -610533.25, -38290.91, 0.012407187, 0.31350818, -595102.94, -69795.08, 0.0, 9.998955, 10.000011 
2.2749104e+3, 2.564005e+2, -759761.94, -592599.4, -48299.664, -0.032272305, 0.34309134, -579647.3, -152340.38, 0.0, 9.997801, 10.000018 
2.2748503e+3, 2.6640058e+2, -711727.1, -400425.56, -26808.766, -0.011799967, 0.31505534, -398133.72, -68828.51, 0.0, 9.996949, 10.001074 
2.274791e+3, 2.7640077e+2, -725590.56, -369924.94, -9851.61, 0.063181885, 0.24733005, -369652.25, -138350.88, 0.0, 9.99624, 10.000954 
2.2747305e+3, 2.8640205e+2, -733921.2, -282016.0, -23552.02, 0.046639387, 0.2823429, -280791.84, -147502.38, 0.0, 9.995333, 10.001321 
2.2746685e+3, 2.9640424e+2, -777156.94, -253906.34, -29656.688, -0.08198675, 0.38459682, -252230.84, -216961.34, 0.0, 9.99437, 10.001306 
2.2746094e+3, 3.0640477e+2, -836654.5, -204456.5, -16515.523, 0.03952208, 0.3000098, -204025.34, -204025.34, 0.0, 9.9934025, 10.001775 
2.2745486e+3, 3.164062e+2, -811353.75, 92576.1, -61885.64, -0.0367298, 0.27987328, 96793.3, 96793.3, 0.0, 9.992334, 10.004337 
2.2856408e+3, 1.3648887e+2, -1138714.3, -1689264.3, -104844.08, -0.10925219, 0.29593003, -1119424.1, 483018.2, 0.48114315, 10.008397, 9.99556 
2.2855818e+3, 1.4648496e+2, -581061.7, -1447908.0, 45976.6, 0.23087484, 0.39847457, -578630.0, 925849.94, 0.30778793, 10.011654, 9.995041 
2.2855192e+3, 1.5647908e+2, -746464.9, -1579195.4, 71561.12, -0.025351636, 0.32617518, -740360.0, 666178.0, 0.15947755, 10.007838, 9.995142 
2.2854584e+3, 1.6647486e+2, -651301.7, -1307738.0, 36921.0, -0.03473515, 0.30941805, -649231.6, 659347.06, 0.06170156, 10.006333, 9.997051 
2.2853984e+3, 1.7647175e+2, -553770.2, -1233361.8, 22926.29, 0.10266833, 0.30959788, -552997.7, 657610.4, 0.015039174, 10.006134, 9.996985 
2.2853379e+3, 1.8646896e+2, -559647.5, -1115701.5, 47882.33, 0.102803186, 0.32061335, -555554.44, 557081.1, 0.0013597666, 10.005036, 9.997649 
2.2852767e+3, 1.9646662e+2, -693787.8, -1128551.6, 46186.242, 0.02086194, 0.33882332, -688935.44, 325724.0, 0.0000009600268, 10.00343, 9.997663 
2.2852153e+3, 2.064647e+2, -661872.5, -939300.25, 5127.133, 0.012558351, 0.34288856, -661777.8, 254900.83, 0.0, 10.002445, 9.998762 
2.2851539e+3, 2.1646318e+2, -656191.5, -888323.5, 8435.0205, 0.047946155, 0.3328425, -655885.4, 162807.75, 0.0, 10.0018215, 9.998741 
2.2850928e+3, 2.2646205e+2, -644348.94, -734330.75, 28313.852, 0.05343823, 0.32250777, -636181.06, 84522.65, 0.0, 10.00081, 9.999612 
2.2850317e+3, 2.3646136e+2, -731741.5, -734355.1, 15949.118, 0.043433715, 0.30764994, -717045.75, -94335.75, 0.0, 9.999575, 9.999534 
2.2849703e+3, 2.4646096e+2, -727129.0, -626786.06, 1435.069, 0.020062728, 0.31301916, -626765.5, -102051.484, 0.0, 9.998699, 10.000021 
2.2849081e+3, 2.5646093e+2, -727600.3, -572687.56, 17268.027, -0.015282285, 0.32640904, -570786.0, -144071.27, 0.0, 9.998007, 10.000053 
2.2848472e+3, 2.6646125e+2, -700143.56, -378904.0, 28577.508, -0.0002732051, 0.31022933, -376381.53, -47670.336, 0.0, 9.996965, 10.001212 
2.2847866e+3, 2.7646187e+2, -788657.06, -385488.5, 15020.431, 0.061388515, 0.2727877, -384929.66, -154226.42, 0.0, 9.995747, 10.001081 
2.2847253e+3, 2.8646317e+2, -786437.1, -306657.3, 7017.5293, 0.043479063, 0.3040682, -306554.7, -173863.56, 0.0, 9.994975, 10.001322 
2.2846629e+3, 2.9646498e+2, -780191.8, -258493.6, 13782.948, -0.07779913, 0.36863035, -258129.72, -223454.92, 0.0, 9.9943695, 10.001272 
2.2846022e+3, 3.0646572e+2, -825325.75, -166335.53, 30757.355, 0.0017384405, 0.3007086, -164903.1, -164903.1, 0.0, 9.993347, 10.002059 
2.2845405e+3, 3.1646743e+2, -846962.75, 15661.293, -25679.209, -0.04550506, 0.27443177, 16425.053, 16425.053, 0.0, 9.992356, 10.003793 
2.2956523e+3, 1.365505e+2, -1118207.9, -1632877.4, 157532.36, 0.19362171, 0.3855985, -1073818.1, 528023.4, 0.49154475, 10.0086, 9.996004 
2.2955884e+3, 1.4654638e+2, -584536.4, -1385180.6, -53601.676, -0.26542166, 0.40318793, -580963.8, 922915.4, 0.31417578, 10.0113125, 9.99584 
2.2955284e+3, 1.5654083e+2, -710118.2, -1485682.6, -33965.883, 0.093815684, 0.28456518, -708633.5, 697297.94, 0.16280176, 10.007845, 9.995779 
2.2954664e+3, 1.6653684e+2, -678706.6, -1379906.9, 31566.924, 0.138322, 0.2894689, -677288.4, 630682.06, 0.06304108, 10.006386, 9.996533 
2.2954038e+3, 1.765338e+2, -585765.44, -1296336.5, 11264.925, 0.02776449, 0.3504041, -585586.94, 624413.94, 0.015403901, 10.006111, 9.996567 
2.2953418e+3, 1.8653072e+2, -551597.9, -1092944.1, -10489.937, 0.014494496, 0.3421688, -551394.7, 560636.25, 0.0014078552, 10.005005, 9.997824 
2.2952801e+3, 1.9652793e+2, -683090.7, -1106785.4, -6080.7983, 0.047748633, 0.29474953, -683003.44, 331054.6, 0.0000010865467, 10.003427, 9.997816 
2.2952178e+3, 2.0652604e+2, -660779.94, -939235.94, -15863.053, 0.05111532, 0.29834962, -659879.2, 256197.16, 0.0, 10.00245, 9.998763 
2.2951555e+3, 2.165249e+2, -658782.75, -894012.3, -15335.85, 0.04038492, 0.3248343, -657787.1, 160300.64, 0.0, 10.001818, 9.998707 
2.2950931e+3, 2.265239e+2, -661781.25, -770412.7, -16929.127, 0.02757616, 0.34337324, -659204.1, 60893.86, 0.0, 10.000805, 9.999369 
2.2950308e+3, 2.3652321e+2, -741476.0, -756769.4, -26653.86, 0.014520499, 0.3525129, -721393.6, -99288.13, 0.0, 9.999579, 9.99938 
2.2949688e+3, 2.4652265e+2, -700610.7, -574116.1, -25196.799, 0.033080243, 0.32669, -569281.9, -45171.293, 0.0, 9.998705, 10.000382 
2.294907e+3, 2.5652233e+2, -706121.6, -531780.44, -12425.466, 0.06430548, 0.27658013, -530899.3, -104786.88, 0.0, 9.998018, 10.000332 
2.2948442e+3, 2.6652303e+2, -719564.75, -422082.03, -19664.498, 0.027610263, 0.30491588, -420787.78, -92682.05, 0.0, 9.996972, 10.000915 
2.2947812e+3, 2.765245e+2, -804137.3, -418601.6, -27521.182, -0.03439798, 0.3790222, -416646.94, -186555.06, 0.0, 9.995747, 10.000857 
2.2947197e+3, 2.8652534e+2, -770940.94, -274709.9, -17339.652, 0.0058993665, 0.3620595, -274104.75, -142021.3, 0.0, 9.994971, 10.001546 
2.2946583e+3, 2.9652572e+2, -767895.4, -235109.5, -16442.756, 0.061742898, 0.26376984, -234602.53, -200523.86, 0.0, 9.994373, 10.001433 
2.2945948e+3, 3.0652747e+2, -791366.25, -100660.734, -12256.664, -0.070101455, 0.26426697, -100443.305, -100443.305, 0.0, 9.9933605, 10.002507 
2.2945325e+3, 3.1653115e+2, -893128.2, -83554.125, -27654.025, -0.076480545, 0.39581013, -82610.6, -82610.6, 0.0, 9.992375, 10.003099 
2.3056626e+3, 1.366128e+2, -898225.7, -1484458.6, 183567.2, 0.20981681, 0.37497792, -845489.3, 755741.7, 0.49720958, 10.011589, 9.996109 
2.3055969e+3, 1.466088e+2, -980084.44, -1582938.4, -25883.152, -0.29413944, 0.38882098, -978975.2, 524292.0, 0.31763938, 10.007276, 9.996053 
2.3055364e+3, 1.5660371e+2, -633723.6, -1419638.1, -31356.201, 0.11797514, 0.2946997, -632474.6, 772840.94, 0.16456445, 10.008399, 9.995962 
2.3054734e+3, 1.6659975e+2, -514483.7, -1298475.5, 35543.5, 0.16073477, 0.2986893, -512875.56, 794478.6, 0.06371262, 10.007611, 9.996503 
2.3054092e+3, 1.7659658e+2, -649086.56, -1327724.9, 45737.76, 0.007364592, 0.3494177, -646017.9, 563368.0, 0.01556977, 10.005677, 9.996558 
2.3053461e+3, 1.8659353e+2, -628264.25, -1118829.9, 31280.893, -0.0028919773, 0.34000534, -626277.7, 485137.78, 0.0014271222, 10.004436, 9.997916 
2.3052834e+3, 1.9659083e+2, -653707.06, -1083177.9, 29523.486, 0.061070405, 0.2948009, -651687.0, 361754.3, 0.0000010852413, 10.003593, 9.997895 
2.3052202e+3, 2.0658894e+2, -635966.3, -928064.9, 29638.217, 0.060248356, 0.29564846, -632989.4, 282470.34, 0.0, 10.002629, 9.998751 
2.3051567e+3, 2.1658772e+2, -691253.6, -910271.0, 27327.754, 0.026557097, 0.31818816, -687895.3, 129576.55, 0.0, 10.001604, 9.998694 
2.3050936e+3, 2.2658673e+2, -678197.5, -782345.4, 29814.422, 0.015872568, 0.3406576, -670266.5, 49215.96, 0.0, 10.000714, 9.999328 
2.3050302e+3, 2.3658606e+2, -697319.4, -737592.56, 34715.383, 0.019475844, 0.3589829, -677323.2, -55833.113, 0.0, 9.999896, 9.999357 
2.3049675e+3, 2.4658561e+2, -681242.44, -555793.25, 30741.621, 0.046543226, 0.34172267, -548665.0, -25170.635, 0.0, 9.998802, 10.000459 
2.3049048e+3, 2.5658545e+2, -769674.1, -557146.1, 21528.715, 0.08268586, 0.29895052, -554987.2, -129492.33, 0.0, 9.997563, 10.000375 
2.3048411e+3, 2.6658604e+2, -751277.6, -451368.63, 17521.12, 0.034898054, 0.32239106, -450348.47, -122858.98, 0.0, 9.9968195, 10.000786 
2.304777e+3, 2.7658725e+2, -727636.75, -391494.3, 21109.156, -0.045133255, 0.38536993, -390173.9, -160695.58, 0.0, 9.996318, 10.000766 
2.3047143e+3, 2.865881e+2, -725886.94, -240224.6, 26449.31, -0.010532099, 0.37094596, -238788.4, -107318.93, 0.0, 9.995229, 10.001657 
2.304652e+3, 2.9658872e+2, -839372.8, -256688.73, 17041.79, 0.046803687, 0.28408518, -256190.73, -222728.44, 0.0, 9.99383, 10.001546 
2.3045884e+3, 3.0659032e+2, -814814.0, -116817.37, 15177.549, -0.025310555, 0.26925242, -116487.49, -116487.49, 0.0, 9.993216, 10.00247 
2.3045257e+3, 3.1659374e+2, -840535.06, -107025.195, -14596.479, -0.000054186497, 0.38284194, -106734.85, -106734.85, 0.0, 9.992957, 10.002653 
2.3156719e+3, 1.3667575e+2, -923411.6, -1506445.5, -38922.684, 0.018926548, 0.2871929, -920824.6, 679786.94, 0.49758175, 10.011333, 9.995928 
2.3156072e+3, 1.4667213e+2, -982054.0, -1617278.3, 4885.015, 0.014531848, 0.36202657, -982016.44, 520628.88, 0.31784976, 10.007394, 9.99576 
2.3155439e+3, 1.5666759e+2, -649903.9, -1451852.9, -4969.048, 0.055836614, 0.34974712, -649873.06, 754818.25, 0.16455962, 10.008361, 9.995759 
2.3154797e+3, 1.6666353e+2, -499182.66, -1253036.6, -30523.963, 0.05730682, 0.33173582, -497948.75, 808782.0, 0.0636145, 10.007542, 9.996873 
2.315415e+3, 1.7665999e+2, -627670.0, -1282642.4, -17377.166, 0.032393456, 0.30937803, -627209.3, 581554.75, 0.01550604, 10.0056715, 9.996873 
2.3153508e+3, 1.8665724e+2, -627290.2, -1120247.9, 1705.0068, 0.036925077, 0.31672794, -627284.3, 483506.3, 0.0014138819, 10.004445, 9.997905 
2.3152868e+3, 1.9665515e+2, -655285.8, -1086392.5, -619.5794, 0.05846002, 0.33597112, -655284.9, 357526.22, 0.0000009945845, 10.003588, 9.997879 
2.3152226e+3, 2.066532e+2, -638543.5, -933446.8, -7220.0083, 0.041396867, 0.3321424, -638366.8, 276463.53, 0.0, 10.002624, 9.998719 
2.315158e+3, 2.1665151e+2, -691489.2, -911131.94, -7315.906, 0.0037152905, 0.31101137, -691245.75, 125601.04, 0.0, 10.001599, 9.998693 
2.315094e+3, 2.2665042e+2, -668978.7, -763930.56, 951.4154, 0.01531471, 0.3143686, -668969.2, 49889.03, 0.0, 10.000713, 9.999457 
2.3150305e+3, 2.3664981e+2, -691273.9, -726391.94, 2281.2014, 0.054556552, 0.32696545, -691126.3, -70261.484, 0.0, 9.999896, 9.999437 
2.314966e+3, 2.4664973e+2, -696831.7, -590035.56, -17388.535, 0.057422284, 0.35853684, -587275.7, -64409.36, 0.0, 9.998806, 10.000224 
2.3149016e+3, 2.5665015e+2, -782894.56, -587318.06, -21674.645, 0.034489423, 0.3960616, -584944.75, -160081.67, 0.0, 9.997569, 10.000167 
2.3148374e+3, 2.6665008e+2, -747578.9, -446556.88, -2523.87, 0.020075206, 0.36302975, -446535.7, -119672.28, 0.0, 9.996826, 10.000817 
2.314774e+3, 2.7664995e+2, -721407.56, -383826.75, -3399.8337, 0.028267603, 0.28631967, -383792.53, -154928.81, 0.0, 9.996335, 10.000813 
2.3147094e+3, 2.8665137e+2, -725923.94, -242962.55, -28576.98, -0.008268905, 0.32456383, -241277.52, -110427.33, 0.0, 9.995235, 10.0016365 
2.314644e+3, 2.9665387e+2, -836753.4, -251164.0, -28362.99, -0.1291376, 0.4294839, -249793.45, -216967.08, 0.0, 9.993824, 10.00159 
2.3145828e+3, 3.0665463e+2, -850760.0, -196443.64, 7346.4487, 0.13136455, 0.35296467, -196361.17, -196361.17, 0.0, 9.993228, 10.001921 
2.3145182e+3, 3.1665614e+2, -809397.2, -47434.453, -9170.607, -0.026597962, 0.33723542, -47324.098, -47324.098, 0.0, 9.992985, 10.003046 
2.3256816e+3, 1.3674091e+2, -1052878.1, -1576106.5, -37540.56, -0.024371974, 0.33225533, -1050198.4, 549775.56, 0.4920782, 10.009523, 9.99584 
2.3256172e+3, 1.4673634e+2, -661813.94, -1428795.8, 24954.395, 0.12099142, 0.32353893, -661002.94, 841013.75, 0.31444803, 10.010586, 9.995743 
2.3255515e+3, 1.5673238e+2, -722359.94, -1492715.6, 32099.0, 0.036898397, 0.3719504, -721024.75, 683032.5, 0.1626193, 10.007748, 9.995773 
2.3254861e+3, 1.6672842e+2, -649501.25, -1302746.5, 5219.4106, 0.029000757, 0.35361004, -649459.5, 656635.9, 0.06269144, 10.006333, 9.997086 
2.3254207e+3, 1.767248e+2, -605777.8, -1249313.4, 9688.522, 0.053114973, 0.30326557, -605631.94, 602497.1, 0.01520326, 10.005731, 9.99707 
2.3253553e+3, 1.8672216e+2, -588201.25, -1096654.4, 33404.39, 0.05314658, 0.3102421, -586016.0, 524138.53, 0.0013690419, 10.0047, 9.997941 
2.32529e+3, 1.9672023e+2, -674218.94, -1091216.4, 34218.656, 0.04232794, 0.34291118, -671429.6, 340743.9, 0.00000091311506, 10.003446, 9.9979105 
2.3252249e+3, 2.0671828e+2, -662942.25, -949601.75, 33649.156, 0.025483744, 0.34248537, -659045.3, 255147.6, 0.0, 10.002481, 9.998673 
2.3251595e+3, 2.1671654e+2, -680573.06, -905485.6, 29948.537, 0.005361281, 0.31972727, -676653.56, 139556.8, 0.0, 10.001678, 9.998692 
2.3250945e+3, 2.2671543e+2, -672695.75, -747819.25, 37011.51, 0.021083845, 0.31441486, -657524.8, 60696.617, 0.0, 10.000615, 9.999613 
2.32503e+3, 2.3671484e+2, -753984.06, -744871.4, 41509.547, 0.05925281, 0.3154612, -707668.9, -87441.81, 0.0, 9.999421, 9.999536 
2.3249649e+3, 2.4671477e+2, -718918.25, -623634.1, 30894.342, 0.05557125, 0.35541126, -614493.9, -92264.78, 0.0, 9.998758, 10.000013 
2.3248991e+3, 2.5671518e+2, -681483.06, -556338.3, 27195.781, 0.0240687, 0.413548, -550683.75, -126456.69, 0.0, 9.998348, 10.000001 
2.3248342e+3, 2.66715e+2, -677283.4, -405153.6, 45586.465, 0.017984305, 0.37668082, -397720.13, -71491.96, 0.0, 9.997281, 10.00088 
2.3247701e+3, 2.7671468e+2, -788230.06, -411494.8, 42873.742, 0.045103375, 0.27669284, -406677.22, -178447.63, 0.0, 9.995862, 10.000849 
2.3247044e+3, 2.8671607e+2, -776100.6, -274883.6, 11405.161, -0.019644229, 0.31607664, -274624.2, -144407.48, 0.0, 9.994931, 10.001561 
2.3246372e+3, 2.9671884e+2, -770766.7, -218250.64, 10936.682, -0.19017139, 0.45771974, -218034.23, -185843.39, 0.0, 9.994279, 10.001593 
2.3245767e+3, 3.0671972e+2, -802374.94, -164708.48, 84723.42, 0.200791, 0.384868, -153643.72, -153643.72, 0.0, 9.993528, 10.001991 
2.3245095e+3, 3.167209e+2, -869577.6, -31545.383, 42464.918, -0.15275075, 0.339604, -29399.09, -29399.09, 0.0, 9.992391, 10.003436 
2.3356912e+3, 1.3680778e+2, -1042283.56, -1581483.5, 80526.66, 0.00445805, 0.47573763, -1030514.25, 568807.56, 0.48026347, 10.009542, 9.995743 
2.335627e+3, 1.4680134e+2, -662880.3, -1419440.8, -49689.19, 0.053656217, 0.27585113, -659630.8, 841751.06, 0.30716428, 10.010392, 9.995925 
2.3355593e+3, 1.5679798e+2, -710094.7, -1469278.8, -46268.51, 0.051417805, 0.36626652, -707285.25, 696129.4, 0.1586705, 10.007733, 9.995947 
2.3354927e+3, 1.6679431e+2, -642134.75, -1293730.5, -13517.623, 0.056799833, 0.36659917, -641854.44, 663595.44, 0.060954854, 10.006346, 9.9971485 
2.3354262e+3, 1.7679088e+2, -602503.5, -1239542.0, -13508.625, 0.067653246, 0.3281701, -602217.2, 605265.25, 0.014676891, 10.005711, 9.997149 
2.3353596e+3, 1.8678813e+2, -585966.94, -1088927.0, -12172.793, 0.04716694, 0.3189156, -585672.5, 523836.06, 0.0012973325, 10.004681, 9.998006 
2.335293e+3, 1.9678594e+2, -671435.9, -1085082.3, -7836.101, 0.010244126, 0.31700587, -671287.5, 340242.13, 0.00000094598937, 10.003438, 9.997959 
2.3352268e+3, 2.0678407e+2, -667875.75, -961509.56, 5420.128, 0.009961531, 0.32824242, -667775.75, 245772.75, 0.0, 10.002483, 9.998593 
2.3351611e+3, 2.1678264e+2, -683011.25, -910914.6, 247.54108, 0.027412033, 0.34329316, -683011.0, 132552.86, 0.0, 10.001675, 9.998659 
2.335095e+3, 2.2678164e+2, -660389.2, -723886.9, -7215.1416, 0.030764656, 0.34047133, -659579.6, 57993.652, 0.0, 10.000617, 9.999779 
2.3350288e+3, 2.3678103e+2, -745836.56, -730492.94, 2158.174, 0.029561857, 0.3242488, -730195.2, -110617.3, 0.0, 9.999427, 9.999635 
2.3349631e+3, 2.4678054e+2, -731547.1, -652871.6, 15077.68, 0.03956151, 0.33131784, -650081.06, -128497.31, 0.0, 9.998767, 9.999811 
2.3348977e+3, 2.5678033e+2, -688788.44, -576095.9, 5193.289, 0.04918308, 0.34799922, -575857.0, -152269.08, 0.0, 9.9983635, 9.999861 
2.3348315e+3, 2.667807e+2, -670911.9, -394758.1, -10597.868, 0.026542567, 0.3626848, -394351.97, -68767.38, 0.0, 9.997289, 10.000951 
2.3347652e+3, 2.7678144e+2, -787704.8, -411767.1, -8095.8857, -0.0015028196, 0.36256316, -411592.84, -184016.56, 0.0, 9.995862, 10.00085 
2.3346987e+3, 2.8678218e+2, -787277.6, -300747.7, -14320.289, -0.049041875, 0.3488194, -300326.56, -170757.0, 0.0, 9.994937, 10.001384 
2.3346318e+3, 2.9678348e+2, -770211.6, -225364.27, -12693.395, -0.13791613, 0.36025172, -225068.7, -193511.19, 0.0, 9.994309, 10.001533 
2.3345698e+3, 3.0678526e+2, -746967.1, -52014.62, 47095.223, 0.18413502, 0.33676615, -48837.617, -48837.617, 0.0, 9.993534, 10.002766 
2.3345019e+3, 3.167873e+2, -903721.6, -106061.29, -140034.45, -0.119231746, 0.3060618, -82191.625, -82191.625, 0.0, 9.99238, 10.002943 
2.3457022e+3, 1.3687418e+2, -889597.06, -1522809.9, 89324.19, 0.058380086, 0.46097627, -877237.8, 721433.44, 0.4620309, 10.011289, 9.99564 
2.345636e+3, 1.468683e+2, -916880.06, -1537647.8, -30245.389, 0.09051257, 0.31441712, -915409.94, 585315.9, 0.2960043, 10.007662, 9.996179 
2.3455666e+3, 1.5686469e+2, -713923.06, -1446698.9, -19305.852, 0.043100335, 0.35489142, -713414.75, 689346.4, 0.15280522, 10.007551, 9.996183 
2.3454985e+3, 1.6686118e+2, -604331.56, -1270967.8, 27858.133, 0.038062915, 0.3588968, -603169.44, 701625.44, 0.058484882, 10.006592, 9.997191 
2.3454314e+3, 1.768581e+2, -671477.94, -1267566.6, 26707.672, 0.053779323, 0.35122418, -670283.7, 536540.75, 0.013958597, 10.005209, 9.997194 
2.345364e+3, 1.8685532e+2, -656287.1, -1122779.8, 24740.521, 0.05006805, 0.33760166, -654978.6, 453872.4, 0.0012040992, 10.004203, 9.997999 
2.3452964e+3, 1.9685286e+2, -676126.94, -1085392.0, 23297.639, 0.034978867, 0.3133918, -674805.0, 336069.47, 0.0000010743139, 10.003405, 9.99797 
2.3452292e+3, 2.0685104e+2, -663258.9, -955865.4, 44641.56, 0.023431044, 0.32482672, -656599.7, 256293.38, 0.0, 10.002506, 9.998618 
2.3451623e+3, 2.1684971e+2, -699091.9, -917338.75, 44384.81, 0.01631243, 0.35300857, -690410.6, 124496.21, 0.0, 10.001565, 9.998664 
2.3450953e+3, 2.2684868e+2, -644989.9, -730298.06, 23784.219, 0.013400969, 0.35561913, -638806.9, 78110.0, 0.0, 10.000789, 9.999649 
2.3450284e+3, 2.3684798e+2, -656228.9, -696037.2, 13278.145, 0.014362629, 0.34023148, -652206.4, -33283.29, 0.0, 10.000085, 9.999551 
2.3449616e+3, 2.468474e+2, -683329.44, -620247.9, 39123.66, 0.023779947, 0.3395947, -601534.5, -80605.086, 0.0, 9.9990635, 9.999889 
2.3448953e+3, 2.5684714e+2, -755061.94, -600720.06, 46425.2, 0.037114445, 0.34398693, -587831.9, -164898.3, 0.0, 9.997884, 9.99992 
2.3448284e+3, 2.668475e+2, -722978.44, -429570.25, 19314.682, 0.023380425, 0.36381653, -428304.25, -103373.9, 0.0, 9.99698, 10.000856 
2.344761e+3, 2.7684835e+2, -744377.1, -395809.66, 10563.576, 0.0006601191, 0.38270533, -395489.8, -168567.97, 0.0, 9.996188, 10.000798 
2.3446935e+3, 2.868491e+2, -736552.06, -268361.8, 24356.807, -0.033730727, 0.37463948, -267098.1, -138183.9, 0.0, 9.995256, 10.001449 
2.3446265e+3, 2.9685035e+2, -783699.94, -233377.78, 41956.12, -0.08290605, 0.3690308, -230197.47, -199294.81, 0.0, 9.994229, 10.001513 
2.3445626e+3, 3.068515e+2, -783446.06, -44504.797, 65994.29, 0.12791115, 0.28130582, -38657.17, -38657.17, 0.0, 9.993183, 10.002982 
2.3444949e+3, 3.1685507e+2, -917684.5, -92790.69, -150196.14, -0.025750276, 0.36988932, -66294.17, -66294.17, 0.0, 9.992209, 10.00311 
2.3557138e+3, 1.3694046e+2, -863935.06, -1525100.0, -76264.8, 0.1279399, 0.3376134, -855252.0, 742767.7, 0.43845436, 10.011218, 9.995616 
2.3556446e+3, 1.4693697e+2, -888958.5, -1499531.1, -31964.545, 0.19579457, 0.41826782, -887289.7, 612762.3, 0.28157383, 10.0076885, 9.996431 
2.3555738e+3, 1.569324e+2, -693340.06, -1409103.0, -28404.457, 0.01299131, 0.33855867, -692214.6, 709883.25, 0.14535129, 10.007536, 9.996452 
2.3555043e+3, 1.6692896e+2, -605095.44, -1273208.3, -20322.654, -0.022368839, 0.33556727, -604477.8, 699653.56, 0.05542347, 10.006567, 9.9971895 
2.3554361e+3, 1.769263e+2, -673064.2, -1270539.9, -18877.53, 0.012039499, 0.37167767, -672468.3, 533688.2, 0.013087717, 10.005198, 9.997183 
2.355368e+3, 1.8692352e+2, -662428.7, -1137166.4, -3279.6519, 0.059009206, 0.36407143, -662406.0, 445777.38, 0.0010941398, 10.004205, 9.997904 
2.3553003e+3, 1.9692089e+2, -678759.75, -1092891.0, -5049.005, 0.10890509, 0.3301941, -678698.25, 331511.1, 0.0000011683876, 10.003408, 9.997919 
2.355232e+3, 2.06919e+2, -654758.9, -940869.44, 10623.346, 0.06150675, 0.33255324, -654364.94, 257862.8, 0.0, 10.002513, 9.99872 
2.3551634e+3, 2.1691768e+2, -698977.3, -917458.94, 12736.865, -0.030750532, 0.34972465, -698237.25, 116003.32, 0.0, 10.001561, 9.998668 
2.3550954e+3, 2.2691648e+2, -674554.06, -793100.4, -953.07336, -0.03177948, 0.36036265, -674546.4, 41706.86, 0.0, 10.00079, 9.99922 
2.3550281e+3, 2.3691553e+2, -675075.4, -737349.6, -15534.111, 0.010117336, 0.36288828, -671415.56, -53151.7, 0.0, 10.00009, 9.999268 
2.3549601e+3, 2.4691525e+2, -658253.44, -570895.5, -7000.6753, 0.005664537, 0.38179815, -570338.06, -50071.07, 0.0, 9.999069, 10.000228 
2.3548926e+3, 2.569155e+2, -737851.6, -567696.9, 3450.7112, -0.020301675, 0.40454757, -567626.94, -145362.3, 0.0, 9.9978895, 10.000147 
2.354825e+3, 2.6691535e+2, -742621.94, -471995.0, -12297.0625, 0.006436378, 0.3796407, -471437.38, -147170.83, 0.0, 9.996983, 10.0005665 
2.3547576e+3, 2.7691522e+2, -751468.94, -414106.4, -21707.09, 0.056333546, 0.32996756, -412715.44, -186447.22, 0.0, 9.996199, 10.0006695 
2.3546894e+3, 2.869169e+2, -711275.4, -219006.02, -16447.746, 0.029136758, 0.39414072, -218457.08, -90205.61, 0.0, 9.995265, 10.001786 
2.3546208e+3, 2.9691952e+2, -782492.75, -235579.33, 3454.8977, -0.03637759, 0.5003991, -235557.5, -205332.38, 0.0, 9.994243, 10.001494 
2.3545544e+3, 3.0691826e+2, -819010.06, -120339.61, 21963.438, 0.025099104, 0.21418522, -119649.85, -119649.85, 0.0, 9.993187, 10.002462 
2.3544869e+3, 3.169235e+2, -844942.3, 60866.63, -16814.9, -0.02920275, 0.48354918, 61178.664, 61178.664, 0.0, 9.992204, 10.004166 
2.3657238e+3, 1.3700888e+2, -912571.2, -1522171.4, -125544.086, 0.11355819, 0.2898771, -887728.44, 709619.1, 0.4124199, 10.00996, 9.996215 
2.3656522e+3, 1.470063e+2, -809322.25, -1473793.6, 27606.803, 0.17622115, 0.44303748, -808177.25, 691195.06, 0.2652964, 10.008357, 9.996337 
2.3655811e+3, 1.5700147e+2, -722871.3, -1434269.5, 14036.077, 0.032450333, 0.34604844, -722594.44, 678827.44, 0.13689, 10.007277, 9.996397 
2.3655108e+3, 1.6699795e+2, -656183.0, -1285228.9, 3093.042, -0.0040352894, 0.33350182, -656167.75, 647288.1, 0.051957373, 10.006125, 9.997308 
2.3654409e+3, 1.7699537e+2, -691210.75, -1269975.4, 15106.53, 0.009322713, 0.3660738, -690816.7, 514663.2, 0.0121061625, 10.0050335, 9.997261 
2.3653719e+3, 1.8699266e+2, -666780.1, -1152190.5, 47512.496, 0.047084376, 0.37065694, -662173.25, 445333.2, 0.00097215985, 10.004238, 9.99778 
2.3653035e+3, 1.9699009e+2, -661381.2, -1095276.4, 40115.914, 0.095685005, 0.35614744, -657703.44, 351828.94, 0.0000011226537, 10.003581, 9.997816 
2.3652342e+3, 2.0698802e+2, -631945.56, -934522.2, 39586.68, 0.05717922, 0.34990984, -626852.06, 284700.4, 0.0, 10.002696, 9.9986725 
2.3651648e+3, 2.1698643e+2, -681545.4, -912441.7, 31096.648, -0.0220165, 0.34531197, -677430.6, 136137.0, 0.0, 10.001701, 9.9986315 
2.3650959e+3, 2.2698525e+2, -689634.2, -802962.8, 38333.754, -0.030416908, 0.3617411, -677885.6, 37694.63, 0.0, 10.000704, 9.999191 
2.3650275e+3, 2.3698443e+2, -732179.4, -765507.7, 51147.8, -0.0022667535, 0.38330272, -695049.56, -77459.86, 0.0, 9.999707, 9.999255 
2.364959e+3, 2.4698411e+2, -697783.0, -585240.94, 48336.145, -0.0051907436, 0.39813238, -567331.06, -47738.11, 0.0, 9.998785, 10.000263 
2.3648901e+3, 2.5698426e+2, -737226.6, -563953.06, 38260.89, -0.023914838, 0.4066092, -555880.7, -134289.55, 0.0, 9.997886, 10.000171 
2.3648217e+3, 2.6698405e+2, -716029.75, -462464.9, 38617.016, 0.0010013205, 0.3804661, -456714.1, -133120.58, 0.0, 9.997188, 10.000529 
2.3647536e+3, 2.7698392e+2, -701413.06, -393688.75, 42659.457, 0.055341747, 0.33391213, -387884.4, -162288.61, 0.0, 9.996568, 10.0006275 
2.3646846e+3, 2.8698552e+2, -664282.7, -202580.72, 17113.582, 0.040644135, 0.39621475, -201947.25, -74367.36, 0.0, 9.995623, 10.001722 
2.364615e+3, 2.9698804e+2, -757009.25, -230208.4, 6441.121, -0.027145734, 0.5022502, -230129.66, -200575.6, 0.0, 9.994457, 10.001423 
2.3645474e+3, 3.069869e+2, -808078.44, -167459.1, 44287.504, 0.004026168, 0.25460395, -164411.89, -164411.89, 0.0, 9.993493, 10.001989 
2.3644793e+3, 3.1699064e+2, -783687.4, 44150.1, 27495.92, -0.022680337, 0.41980636, 45062.348, 45062.348, 0.0, 9.992828, 10.003748 
2.3757327e+3, 1.3707913e+2, -852506.0, -1435707.3, -175518.39, 0.024721922, 0.2926137, -803757.4, 792900.5, 0.38743013, 10.009821, 9.997215 
2.3756589e+3, 1.4707644e+2, -819493.4, -1531889.9, -1911.7198, 0.0508422, 0.41242474, -819488.25, 679197.25, 0.2489862, 10.008331, 9.9958935 
2.3755886e+3, 1.5707174e+2, -744739.2, -1492548.0, -21130.623, 0.09107991, 0.3730492, -744142.56, 656591.7, 0.12814301, 10.007224, 9.996026 
2.3755173e+3, 1.6706803e+2, -645426.6, -1261996.1, -33924.313, 0.07765413, 0.34613478, -643565.7, 659204.25, 0.048303474, 10.006094, 9.997493 
2.3754458e+3, 1.770652e+2, -682119.4, -1254050.5, -19819.816, 0.037386727, 0.33722988, -681433.3, 523362.22, 0.011061619, 10.005038, 9.997371 
2.3753755e+3, 1.8706264e+2, -678034.3, -1177979.0, 24840.01, 0.014104496, 0.36156893, -676803.2, 430017.78, 0.0008439703, 10.004243, 9.997603 
2.3753059e+3, 1.9706032e+2, -676721.5, -1124585.0, 15835.0625, 0.000478212, 0.3908316, -676162.4, 332682.6, 0.0000009265688, 10.003565, 9.997625 
2.3752363e+3, 2.0705797e+2, -646783.7, -964531.1, 4250.4946, 0.013949749, 0.37559196, -646726.8, 264141.56, 0.0, 10.002687, 9.998474 
2.3751667e+3, 2.1705587e+2, -688642.44, -927134.0, -3339.5747, 0.036343936, 0.3396782, -688595.7, 124293.36, 0.0, 10.001697, 9.998536 
2.375097e+3, 2.270549e+2, -664774.4, -753642.4, 2153.386, 0.0127352495, 0.36136726, -664722.2, 50176.51, 0.0, 10.000708, 9.99953 
2.3750268e+3, 2.3705462e+2, -716381.06, -734772.5, 15118.859, -0.027378023, 0.40229777, -707881.0, -90979.29, 0.0, 9.99971, 9.999468 
2.3749575e+3, 2.470539e+2, -717219.2, -627760.06, 13076.42, -0.008986442, 0.38745058, -625887.8, -106979.42, 0.0, 9.99879, 9.999971 
2.3748882e+3, 2.570533e+2, -749345.56, -592680.5, 5421.8037, 0.026624527, 0.34809282, -592493.1, -171578.78, 0.0, 9.997896, 9.999971 
2.3748186e+3, 2.6705354e+2, -699755.0, -432838.63, 13783.652, 0.0038202521, 0.3665623, -432128.72, -109216.7, 0.0, 9.997199, 10.0007305 
2.3747493e+3, 2.7705437e+2, -697052.9, -391841.75, 16234.988, -0.023066636, 0.39682943, -390980.6, -166075.64, 0.0, 9.9965925, 10.000631 
2.3746797e+3, 2.8705478e+2, -700334.44, -283736.53, -29642.297, -0.0070608878, 0.37652612, -281637.97, -154736.92, 0.0, 9.9956455, 10.001157 
2.3746091e+3, 2.970556e+2, -765348.4, -252399.55, -41681.547, -0.04103684, 0.36434478, -249034.63, -220142.13, 0.0, 9.9944725, 10.0012665 
2.374541e+3, 3.0705735e+2, -829196.44, -212873.4, 14519.161, 0.051619966, 0.41167164, -212531.56, -212531.56, 0.0, 9.993496, 10.001678 
2.3744725e+3, 3.1705785e+2, -857259.9, -126074.26, -121730.01, 0.036485184, 0.33229282, -106340.84, -106340.84, 0.0, 9.992882, 10.002563 
2.385821e+3, 1.2715283e+2, -1460273.4, -1773120.8, -105884.29, 0.21490066, 0.28649145, -1427805.9, 266130.25, 0.48803288, 10.004502, 9.997586 
2.385741e+3, 1.371506e+2, -1018380.5, -1517552.9, -129199.53, 0.016563812, 0.32682106, -986922.6, 609036.2, 0.36566988, 10.007707, 9.997282 
2.3856665e+3, 1.4714763e+2, -848567.94, -1556576.6, 423.9622, 0.018266883, 0.41132313, -848567.7, 649421.94, 0.2339935, 10.007943, 9.995908 
2.3855951e+3, 1.5714306e+2, -840843.75, -1549763.8, 8402.533, 0.0945201, 0.3856813, -840744.1, 559292.06, 0.119721316, 10.0064335, 9.996012 
2.3855232e+3, 1.6713932e+2, -700979.9, -1293225.5, 18910.273, 0.09214628, 0.3616761, -700376.75, 601695.25, 0.044667095, 10.005699, 9.997454 
2.3854509e+3, 1.771364e+2, -643758.06, -1240327.6, 17544.283, 0.049510486, 0.35038805, -643242.56, 560855.94, 0.010005001, 10.005327, 9.997322 
2.3853797e+3, 1.8713368e+2, -656655.5, -1168630.0, 57024.47, 0.013340008, 0.36332226, -650380.94, 455744.25, 0.0007164598, 10.0044, 9.997588 
2.3853089e+3, 1.9713119e+2, -726790.4, -1151190.5, 57738.71, -0.016752241, 0.37777424, -719075.4, 289075.03, 0.00000064590364, 10.003238, 9.997597 
2.3852386e+3, 2.071289e+2, -702987.9, -996573.5, 58543.86, 0.0067642936, 0.3742452, -691744.25, 218429.34, 0.0, 10.002329, 9.998424 
2.3851682e+3, 2.1712697e+2, -713958.44, -942969.3, 59092.777, 0.05291645, 0.36158463, -699609.5, 112583.71, 0.0, 10.001544, 9.998498 
2.3850974e+3, 2.2712591e+2, -652682.4, -746256.4, 52570.03, 0.02540655, 0.3778489, -629094.44, 85109.13, 0.0, 10.00079, 9.999538 
2.3850264e+3, 2.3712544e+2, -668831.0, -711710.7, 41999.484, -0.030088145, 0.40104884, -643115.5, -26907.682, 0.0, 10.000042, 9.999464 
2.384956e+3, 2.471246e+2, -659676.4, -603854.25, 45986.23, -0.0111989975, 0.37643424, -577971.6, -59756.152, 0.0, 9.999208, 9.999931 
2.3848863e+3, 2.5712383e+2, -690223.1, -567145.75, 54952.188, 0.03488841, 0.33032784, -546181.44, -125959.12, 0.0, 9.9983225, 9.999937 
2.3848157e+3, 2.6712427e+2, -694487.75, -427461.22, 59240.31, -0.0004880397, 0.36575004, -414908.72, -92690.06, 0.0, 9.997231, 10.000749 
2.3847452e+3, 2.7712536e+2, -779966.9, -433026.2, 48067.914, -0.048943117, 0.42551813, -426489.63, -202280.56, 0.0, 9.996036, 10.000614 
2.3846748e+3, 2.871255e+2, -751965.56, -319268.34, 27623.547, -0.012335677, 0.38457212, -317512.0, -191303.98, 0.0, 9.995344, 10.001055 
2.3846038e+3, 2.971257e+2, -716710.5, -243452.66, 42828.48, -0.0113536, 0.32373005, -239608.03, -211402.64, 0.0, 9.994878, 10.001129 
2.3845342e+3, 3.0712783e+2, -807711.9, -225868.31, 77981.05, 0.019791301, 0.4301745, -215598.27, -215598.27, 0.0, 9.99375, 10.001463 
2.3844646e+3, 3.1712988e+2, -855131.3, 38069.895, -68417.59, 0.009649897, 0.524739, 43280.168, 43280.168, 0.0, 9.992208, 10.004009 
2.3958245e+3, 1.2722655e+2, -1455409.9, -1850637.5, -39985.438, 0.11850927, 0.37718338, -1451405.1, 241810.98, 0.46622062, 10.00477, 9.996785 
2.3957491e+3, 1.3722311e+2, -1037189.06, -1580462.0, -68017.41, 0.0706906, 0.38235125, -1028802.8, 566448.8, 0.3473458, 10.007653, 9.996618 
2.3956746e+3, 1.4721964e+2, -828392.5, -1513952.9, -44032.34, 0.053433266, 0.42516232, -825575.94, 671710.25, 0.22076048, 10.007851, 9.996254 
2.3956008e+3, 1.5721527e+2, -821085.6, -1515974.0, -33898.375, 0.04829561, 0.38592634, -819435.9, 579893.1, 0.11194796, 10.006431, 9.996248 
2.3955281e+3, 1.6721171e+2, -714462.9, -1329241.1, 7540.045, 0.0485546, 0.38308764, -714370.44, 586992.75, 0.041196484, 10.005703, 9.997205 
2.395456e+3, 1.7720884e+2, -661190.94, -1272902.0, -307.10065, 0.045529295, 0.40150553, -661190.75, 542199.3, 0.008981995, 10.0053, 9.997115 
2.395384e+3, 1.8720567e+2, -651821.8, -1155246.9, 14373.648, 0.039544187, 0.37360564, -651411.75, 454008.6, 0.00059662067, 10.00438, 9.997692 
2.3953122e+3, 1.9720261e+2, -720820.44, -1138930.4, 18704.236, 0.032818437, 0.32087305, -719985.4, 287464.4, 0.00000036108204, 10.003233, 9.997685 
2.3952407e+3, 2.0720072e+2, -697451.0, -987731.9, 30065.922, 0.029498247, 0.35011357, -694369.6, 215099.42, 0.0, 10.002336, 9.998484 
2.3951694e+3, 2.1719955e+2, -716048.94, -947610.94, 32192.592, 0.026632145, 0.41011998, -711656.7, 99824.99, 0.0, 10.00154, 9.99847 
2.3950979e+3, 2.2719814e+2, -674620.06, -793624.8, 25682.055, 0.008228744, 0.40973586, -669314.25, 44181.92, 0.0, 10.000793, 9.999214 
2.3950264e+3, 2.3719682e+2, -683010.06, -743989.7, 13359.461, -0.015579819, 0.38032818, -680211.7, -64702.598, 0.0, 10.00005, 9.999242 
2.394955e+3, 2.4719611e+2, -644669.56, -576447.44, 11636.24, -0.015462658, 0.3667155, -574517.3, -57002.434, 0.0, 9.999218, 10.000118 
2.3948838e+3, 2.5719586e+2, -680677.94, -551948.9, 18593.338, -0.0072999657, 0.35491735, -549317.06, -129801.34, 0.0, 9.998337, 10.000038 
2.3948126e+3, 2.6719612e+2, -707382.0, -456558.13, 11126.114, -0.012839839, 0.37850335, -456065.53, -134551.25, 0.0, 9.997236, 10.000548 
2.3947412e+3, 2.7719685e+2, -781916.6, -437976.78, 6292.9927, -0.01510934, 0.4220327, -437861.7, -214352.88, 0.0, 9.996035, 10.000584 
2.3946704e+3, 2.8719762e+2, -725047.06, -263969.06, 10165.246, 0.028163336, 0.42329755, -263745.06, -138244.2, 0.0, 9.995341, 10.001439 
2.3945992e+3, 2.9719827e+2, -724118.3, -264658.78, 22889.04, 0.04873973, 0.37212536, -263521.3, -236028.11, 0.0, 9.994897, 10.000977 
2.3945263e+3, 3.0719832e+2, -823241.1, -262555.25, 16219.024, -0.09966533, 0.30925292, -262086.45, -262086.45, 0.0, 9.993763, 10.001209 
2.3944566e+3, 3.1720155e+2, -764502.7, 223896.16, -65678.26, 0.018472515, 0.4915384, 228241.31, 228241.31, 0.0, 9.992212, 10.005287 
2.4058308e+3, 1.2729979e+2, -1157033.6, -1669323.9, -21176.023, 0.091582514, 0.41810116, -1156159.9, 536340.56, 0.4477577, 10.008599, 9.996295 
2.4057561e+3, 1.3729568e+2, -1098771.9, -1667593.5, -43525.24, 0.08400862, 0.40806356, -1095460.8, 499082.06, 0.33156574, 10.00705, 9.996268 
2.4056816e+3, 1.472921e+2, -940014.94, -1538861.5, -36962.977, 0.066190004, 0.4296543, -937742.06, 558835.44, 0.20905851, 10.006585, 9.996689 
2.4056071e+3, 1.5728816e+2, -785382.75, -1463334.9, -20077.26, 0.048449393, 0.3928315, -784788.7, 613826.1, 0.10487221, 10.006518, 9.996565 
2.4055336e+3, 1.6728467e+2, -707333.2, -1343757.0, 27499.143, 0.044990934, 0.39381626, -706147.2, 594501.4, 0.037965, 10.005817, 9.997048 
2.4054606e+3, 1.7728166e+2, -739840.44, -1323859.8, 23825.977, 0.043641724, 0.4137686, -738870.0, 463807.7, 0.008024932, 10.004808, 9.997 
2.4053879e+3, 1.8727845e+2, -702829.94, -1173166.4, 33550.633, 0.04578147, 0.38276887, -700448.75, 404259.63, 0.00048994436, 10.004006, 9.997746 
2.4053155e+3, 1.9727537e+2, -709112.0, -1126727.6, 33826.027, 0.04983466, 0.32742402, -706389.9, 300347.3, 0.00000014397028, 10.003292, 9.997739 
2.4052429e+3, 2.072735e+2, -674468.94, -969985.0, 46785.414, 0.03604962, 0.3534549, -667238.9, 241517.08, 0.0, 10.002471, 9.998538 
2.4051706e+3, 2.1727234e+2, -705705.94, -940785.3, 47388.777, 0.015809316, 0.4094736, -696512.5, 114255.76, 0.0, 10.001609, 9.998482 
2.4050984e+3, 2.2727081e+2, -684199.75, -811500.06, 53168.742, 0.0018046242, 0.4071632, -664914.7, 47869.156, 0.0, 10.000791, 9.99909 
2.4050261e+3, 2.3726936e+2, -698989.1, -760700.1, 53695.227, -0.0069108447, 0.37735724, -667915.3, -53117.05, 0.0, 9.999984, 9.999155 
2.4049538e+3, 2.472687e+2, -663767.8, -578865.9, 45970.145, -0.0129468795, 0.37020627, -558744.2, -41940.746, 0.0, 9.9990635, 10.000173 
2.4048816e+3, 2.5726858e+2, -716466.4, -566049.0, 42187.293, -0.019083086, 0.36576018, -555024.75, -136221.88, 0.0, 9.998083, 10.000061 
2.4048093e+3, 2.672686e+2, -708501.75, -462035.75, 37459.93, -0.018682059, 0.3690226, -456468.06, -135664.5, 0.0, 9.997256, 10.000498 
2.4047373e+3, 2.77269e+2, -717240.6, -405876.56, 43252.63, -0.0026457433, 0.38677624, -399979.88, -177178.94, 0.0, 9.996483, 10.000584 
2.4046655e+3, 2.8727013e+2, -675945.75, -222565.45, 44916.934, 0.038983855, 0.4149429, -218158.33, -93368.95, 0.0, 9.995608, 10.001591 
2.4045937e+3, 2.972712e+2, -751801.56, -268646.25, 38729.12, 0.050534524, 0.39022478, -265561.47, -238783.66, 0.0, 9.994672, 10.001055 
2.40452e+3, 3.0727082e+2, -820758.56, -245585.67, 51961.566, -0.094384074, 0.28091428, -240929.13, -240929.13, 0.0, 9.993717, 10.001345 
2.4044499e+3, 3.1727195e+2, -784811.7, 120288.79, -2176.512, 0.14601003, 0.23234935, 120294.02, 120294.02, 0.0, 9.992487, 10.004437 
2.4158391e+3, 1.2737255e+2, -1161051.5, -1701054.3, -57267.016, 0.10266009, 0.40520695, -1155045.3, 536743.7, 0.4311225, 10.008477, 9.996042 
2.4157627e+3, 1.3736844e+2, -1094687.4, -1687853.6, -71207.58, 0.059130087, 0.41835025, -1086259.0, 507572.34, 0.31735358, 10.007045, 9.996145 
2.4156877e+3, 1.4736506e+2, -902708.4, -1471814.0, -35239.51, 0.056365393, 0.4363071, -900534.6, 595328.7, 0.19846155, 10.0065975, 9.997183 
2.4156138e+3, 1.5736166e+2, -759290.94, -1410532.4, -26100.385, 0.08203732, 0.40566745, -758246.56, 639647.9, 0.09840614, 10.0065, 9.99694 
2.4155393e+3, 1.6735813e+2, -713914.94, -1358819.4, -8099.6987, 0.07193449, 0.39222676, -713813.2, 586115.7, 0.034991626, 10.005798, 9.996957 
2.4154653e+3, 1.773548e+2, -744182.5, -1333293.0, -9005.77, 0.04119858, 0.38912022, -744044.8, 457917.16, 0.007152394, 10.004801, 9.996941 
2.4153917e+3, 1.8735188e+2, -703050.56, -1174725.3, 8721.553, 0.032575253, 0.3920662, -702889.4, 401100.66, 0.00039948281, 10.004005, 9.997739 
2.4153183e+3, 1.9734937e+2, -710344.4, -1128868.4, 8410.637, 0.034140524, 0.39224327, -710175.4, 295838.44, 0.00000003444413, 10.003285, 9.99773 
2.4152452e+3, 2.0734714e+2, -672346.94, -966590.1, 15790.724, 0.026851755, 0.38114876, -671501.94, 236533.36, 0.0, 10.00247, 9.998564 
2.4151719e+3, 2.1734527e+2, -704556.56, -938161.2, 17814.18, 0.014764429, 0.36296043, -703205.9, 106847.64, 0.0, 10.001602, 9.998506 
2.4150988e+3, 2.273439e+2, -679790.75, -804327.25, 24278.691, 0.0027774393, 0.37398392, -675225.0, 36842.016, 0.0, 10.000793, 9.999141 
2.4150258e+3, 2.3734298e+2, -697096.25, -759296.94, 22508.639, -0.006715995, 0.3928747, -689805.56, -75729.28, 0.0, 9.9999895, 9.999165 
2.4149528e+3, 2.4734227e+2, -669589.75, -592968.3, 7294.5615, -0.0040631355, 0.3856457, -592280.0, -76197.77, 0.0, 9.999067, 10.000076 
2.4148796e+3, 2.5734186e+2, -719816.9, -575741.06, 5599.555, -0.0038795224, 0.36236978, -575523.75, -157438.95, 0.0, 9.998089, 9.999994 
2.4148063e+3, 2.6734158e+2, -701799.06, -451335.03, 6833.8037, -0.020824837, 0.33566904, -451148.72, -131061.336, 0.0, 9.997264, 10.000571 
2.4147335e+3, 2.773417e+2, -714512.4, -406112.06, 12165.038, -0.022808786, 0.3155478, -405632.94, -183546.44, 0.0, 9.996502, 10.000576 
2.4146606e+3, 2.8734285e+2, -681757.7, -238357.06, 7089.852, 0.012722085, 0.35269934, -238243.72, -114168.57, 0.0, 9.99562, 10.001479 
2.4145874e+3, 2.9734427e+2, -725369.4, -216698.13, 1727.4504, -0.007636142, 0.37478042, -216692.27, -190631.78, 0.0, 9.994679, 10.001411 
2.4145149e+3, 3.0734554e+2, -778716.2, -158746.63, 14946.522, 0.055681597, 0.36365557, -158386.48, -158386.48, 0.0, 9.993713, 10.0019455 
2.4144417e+3, 3.173473e+2, -863779.8, -41959.29, -24819.354, 0.10455932, 0.37398306, -41210.418, -41210.418, 0.0, 9.9924755, 10.00333 
2.4258469e+3, 1.2744695e+2, -1176641.3, -1702027.1, -36046.715, 0.09265214, 0.43363023, -1174179.6, 516882.06, 0.4153282, 10.008024, 9.996235 
2.4257697e+3, 1.3744272e+2, -1055330.1, -1653714.8, -19350.26, 0.07207822, 0.41998133, -1054705.0, 538398.56, 0.30401933, 10.007286, 9.99624 
2.425694e+3, 1.474391e+2, -890516.7, -1475332.8, 25349.053, 0.06351377, 0.41769892, -889419.94, 605717.6, 0.18861105, 10.006677, 9.997108 
2.4256197e+3, 1.5743566e+2, -804530.94, -1438232.1, 6772.9565, 0.077348106, 0.39010298, -804458.56, 592710.9, 0.09243606, 10.006136, 9.996922 
2.4255449e+3, 1.6743232e+2, -749178.7, -1364386.8, 10224.4375, 0.075772755, 0.39286268, -749008.8, 550193.4, 0.03226756, 10.005486, 9.9970665 
2.4254699e+3, 1.7742927e+2, -741866.94, -1321648.1, 22829.713, 0.059620835, 0.4087078, -740969.4, 460263.66, 0.0063714865, 10.004775, 9.997031 
2.4253955e+3, 1.8742637e+2, -697112.7, -1170960.9, 47963.66, 0.03975036, 0.40974033, -692306.5, 410954.5, 0.00032562262, 10.004047, 9.997743 
2.4253213e+3, 1.9742376e+2, -708148.44, -1127723.3, 45043.03, 0.023330094, 0.39998862, -703367.4, 301918.3, 0.000000003872902, 10.003303, 9.997727 
2.4252473e+3, 2.0742145e+2, -679651.44, -972592.7, 46111.117, 0.023434622, 0.38445255, -672564.6, 234743.14, 0.0, 10.002436, 9.998537 
2.4251734e+3, 2.1741952e+2, -716135.06, -941194.6, 43720.168, 0.028820492, 0.36475065, -707940.3, 101385.914, 0.0, 10.001519, 9.998522 
2.4250993e+3, 2.2741821e+2, -689564.0, -792622.06, 56698.535, 0.01505216, 0.37235013, -664477.3, 46861.348, 0.0, 10.000662, 9.999282 
2.4250257e+3, 2.3741736e+2, -715938.9, -760462.25, 60300.816, -0.0011026532, 0.38636053, -673921.7, -60575.105, 0.0, 9.999832, 9.999229 
2.4249516e+3, 2.4741656e+2, -692585.4, -623842.25, 41070.17, 0.001806733, 0.37856397, -604658.56, -89304.625, 0.0, 9.9990015, 9.999893 
2.4248777e+3, 2.5741595e+2, -717200.9, -585219.94, 33308.445, 0.0067072287, 0.35774282, -577290.25, -159931.38, 0.0, 9.99816, 9.999891 
2.4248035e+3, 2.674157e+2, -684022.4, -427225.72, 39109.965, -0.017440941, 0.32984486, -421401.38, -102040.586, 0.0, 9.997325, 10.000705 
2.4247295e+3, 2.7741584e+2, -718029.4, -402326.03, 46103.4, -0.0298117, 0.29906026, -395731.13, -174372.08, 0.0, 9.996458, 10.000622 
2.424656e+3, 2.8741682e+2, -691159.5, -260944.56, 39569.594, 0.0133030405, 0.3340181, -257335.38, -133986.47, 0.0, 9.995639, 10.001312 
2.4245821e+3, 2.974184e+2, -696182.75, -194154.39, 24554.191, 0.0077786734, 0.38465723, -192956.31, -167623.02, 0.0, 9.994852, 10.001478 
2.4245085e+3, 3.0741963e+2, -748751.7, -110200.4, -2124.1868, 0.08119125, 0.33756638, -110193.33, -110193.33, 0.0, 9.993778, 10.002245 
2.424433e+3, 3.1742153e+2, -790258.5, 1518.7444, 10314.226, -0.014177221, 0.36118984, 1653.0817, 1653.0817, 0.0, 9.99295, 10.003397 
2.4358542e+3, 1.2752277e+2, -1148731.4, -1657609.9, -53480.84, 0.055882726, 0.5021934, -1143171.5, 547149.44, 0.39980024, 10.0079565, 9.996707 
2.435777e+3, 1.3751815e+2, -1031477.75, -1621473.8, -37273.414, 0.10755818, 0.40712565, -1029132.3, 563231.06, 0.29115248, 10.007315, 9.996453 
2.4357007e+3, 1.4751396e+2, -909399.44, -1545911.6, 8930.971, 0.07864784, 0.37158722, -909274.1, 585129.0, 0.17927551, 10.00671, 9.996581 
2.435625e+3, 1.5751009e+2, -821858.06, -1486907.0, -10290.809, 0.039519362, 0.35121182, -821698.9, 574741.4, 0.08687197, 10.006135, 9.996591 
2.4355498e+3, 1.6750725e+2, -732149.9, -1328274.5, -13364.278, 0.05877164, 0.39915505, -731850.44, 566618.4, 0.029774236, 10.005468, 9.997326 
2.4354745e+3, 1.7750499e+2, -731442.75, -1295959.9, -1195.1061, 0.09091983, 0.46938938, -731440.25, 469051.94, 0.0056807934, 10.00475, 9.997222 
2.4353994e+3, 1.875018e+2, -699300.94, -1174382.6, 21926.492, 0.061889015, 0.43410075, -698291.1, 404231.5, 0.00026670122, 10.004037, 9.997726 
2.4353242e+3, 1.9749846e+2, -710669.44, -1132988.1, 18239.785, 0.013485324, 0.35533577, -709883.1, 294670.47, 0.0000000002134854, 10.003298, 9.997696 
2.4352495e+3, 2.0749637e+2, -685359.9, -986023.6, 12837.046, 0.023853026, 0.36720967, -684812.8, 221761.14, 0.0, 10.002437, 9.998446 
2.4351747e+3, 2.17495e+2, -717947.94, -945236.9, 12239.829, 0.053884372, 0.41153833, -717290.7, 91297.055, 0.0, 10.001514, 9.998499 
2.4351001e+3, 2.2749361e+2, -674273.94, -762523.7, 26533.014, 0.036800604, 0.3989631, -666910.9, 43689.164, 0.0, 10.000665, 9.999489 
2.4350251e+3, 2.3749241e+2, -709712.8, -748994.44, 29172.156, 0.0035858287, 0.36010817, -694185.8, -81575.92, 0.0, 9.999833, 9.9993105 
2.4349505e+3, 2.4749143e+2, -711968.06, -666405.56, 7844.328, 0.0017272488, 0.3509968, -665092.9, -150473.6, 0.0, 9.999005, 9.999601 
2.4348755e+3, 2.574908e+2, -726954.8, -609470.94, 675.5218, 0.008220623, 0.35328308, -609467.0, -192841.17, 0.0, 9.998172, 9.999722 
2.4348006e+3, 2.6749086e+2, -670148.6, -401094.8, 4544.5425, -0.008414027, 0.35383755, -401018.1, -82393.55, 0.0, 9.997331, 10.000883 
2.4347258e+3, 2.774914e+2, -710246.06, -389861.28, 12655.198, -0.021048473, 0.34371185, -389362.16, -168743.44, 0.0, 9.996469, 10.000705 
2.4346516e+3, 2.874921e+2, -710311.7, -304496.13, 7938.171, 0.041220933, 0.36498266, -304340.9, -181729.81, 0.0, 9.995648, 10.001012 
2.4345773e+3, 2.9749343e+2, -717028.2, -240707.86, -9943.409, 0.084819354, 0.42208657, -240500.38, -215902.72, 0.0, 9.99486, 10.001158 
2.4345009e+3, 3.0749243e+2, -751095.56, -113979.234, -55034.91, -0.025141954, 0.17338447, -109260.2, -109260.2, 0.0, 9.99377, 10.002225 
2.4344261e+3, 3.174959e+2, -802439.9, -46371.76, 43717.69, 0.01369599, 0.33711913, -43852.293, -43852.293, 0.0, 9.99303, 10.003039 
2.4458623e+3, 1.2759896e+2, -1153960.8, -1674740.6, -14601.245, 0.08713758, 0.4961465, -1153551.6, 536022.6, 0.38419896, 10.007798, 9.996581 
2.4457844e+3, 1.375944e+2, -966575.4, -1597793.9, -16567.53, 0.11209129, 0.4169943, -966140.8, 625475.7, 0.2785078, 10.007896, 9.996329 
2.4457075e+3, 1.4759007e+2, -855609.4, -1534778.9, 24845.555, 0.07810922, 0.38390547, -854701.7, 638956.3, 0.17030516, 10.007183, 9.996426 
2.4456312e+3, 1.5758607e+2, -817639.8, -1496390.3, 24715.576, 0.042186443, 0.36918652, -816741.0, 578955.75, 0.08164115, 10.006189, 9.996497 
2.4455549e+3, 1.675832e+2, -751930.75, -1325633.3, 21698.738, 0.054301832, 0.4100735, -751111.25, 546614.25, 0.027484719, 10.005265, 9.99744 
2.4454787e+3, 1.7758092e+2, -776407.94, -1305210.1, 26857.328, 0.07779271, 0.46728012, -775047.4, 424701.25, 0.0050712917, 10.004384, 9.9973345 
2.445403e+3, 1.875778e+2, -728714.6, -1176983.9, 58827.07, 0.060602605, 0.43214148, -721123.25, 380654.66, 0.00022005952, 10.003789, 9.997826 
2.4453273e+3, 1.9757463e+2, -708448.7, -1125066.9, 58222.133, 0.030595865, 0.3598365, -700465.1, 303342.2, 0.00000000008671795, 10.003292, 9.997749 
2.4452516e+3, 2.0757248e+2, -690866.25, -1002125.75, 44040.164, 0.033622343, 0.37477145, -684755.0, 221073.47, 0.0, 10.002464, 9.99832 
2.4451761e+3, 2.1757099e+2, -724483.8, -956305.6, 40072.55, 0.05004827, 0.4192839, -717752.4, 90091.69, 0.0, 10.001508, 9.998425 
2.4451004e+3, 2.2756958e+2, -681278.0, -756937.6, 48558.375, 0.039118513, 0.4045962, -657552.9, 52303.32, 0.0, 10.000583, 9.999564 
2.4450248e+3, 2.3756842e+2, -728286.0, -750263.1, 43781.69, 0.019689757, 0.36260527, -694134.94, -82269.85, 0.0, 9.99968, 9.9993725 
2.4449492e+3, 2.4756739e+2, -709236.7, -664376.8, 42052.0, 0.010791521, 0.34672695, -639146.8, -125271.97, 0.0, 9.999026, 9.999603 
2.4448736e+3, 2.575667e+2, -690197.06, -594549.8, 51798.69, 0.005312532, 0.34209087, -571873.75, -155991.47, 0.0, 9.998441, 9.999693 
2.4447979e+3, 2.6756686e+2, -650515.44, -405630.13, 37048.496, -0.0055671535, 0.36332163, -400147.84, -82267.46, 0.0, 9.997531, 10.000753 
2.4447222e+3, 2.7756748e+2, -709609.44, -396812.97, 24479.076, -0.0051474026, 0.37947732, -394908.84, -175035.03, 0.0, 9.996511, 10.000633 
2.4446473e+3, 2.8756788e+2, -683384.4, -286802.13, 38665.47, 0.045298573, 0.36925367, -283067.53, -161198.48, 0.0, 9.995817, 10.00105 
2.444572e+3, 2.975688e+2, -679924.3, -233594.78, 38871.47, 0.07252746, 0.38230053, -230234.7, -206375.28, 0.0, 9.99516, 10.001062 
2.4444947e+3, 3.075682e+2, -708517.9, -110840.54, -18506.709, -0.01952723, 0.19598168, -110268.04, -110268.04, 0.0, 9.99414, 10.002067 
2.4444191e+3, 3.1757343e+2, -824146.5, -97437.39, 122254.65, 0.05103949, 0.54289544, -77421.72, -77421.72, 0.0, 9.993068, 10.002665 
2.4558704e+3, 1.2767549e+2, -1164606.0, -1737170.0, -14824.441, 0.15693863, 0.431416, -1164222.5, 524600.56, 0.36835656, 10.007759, 9.996109 
2.4557917e+3, 1.3767146e+2, -976671.56, -1650351.9, -20458.248, 0.08337177, 0.45035338, -976050.9, 614811.7, 0.26594293, 10.007864, 9.995985 
2.455714e+3, 1.4766735e+2, -848414.9, -1528377.1, -5347.694, 0.05952824, 0.44757006, -848372.9, 644529.94, 0.16159257, 10.007153, 9.996487 
2.4556372e+3, 1.5766342e+2, -816725.9, -1493265.6, -7013.0264, 0.072513334, 0.4329756, -816653.2, 578287.8, 0.07667579, 10.006148, 9.99654 
2.4555598e+3, 1.6766e+2, -754077.0, -1331486.5, -9559.858, 0.056080543, 0.42147088, -753918.8, 543055.2, 0.025365392, 10.005255, 9.997408 
2.4554825e+3, 1.77657e+2, -771411.5, -1300775.3, -220.4195, 0.025173001, 0.41004136, -771411.4, 427591.47, 0.004529683, 10.004403, 9.997357 
2.4554062e+3, 1.8765438e+2, -714645.6, -1149789.5, 41415.74, 0.038919687, 0.4094662, -710738.9, 390288.53, 0.00018291011, 10.003792, 9.998014 
2.4553308e+3, 1.976521e+2, -706617.44, -1114453.3, 36457.957, 0.06814789, 0.41008914, -703384.0, 299664.47, 0.00000000016280782, 10.003258, 9.997842 
2.4552539e+3, 2.0764968e+2, -705559.06, -1029981.75, 9034.974, 0.04960248, 0.40395883, -705307.6, 199765.05, 0.0, 10.002448, 9.998138 
2.455177e+3, 2.1764743e+2, -735743.3, -979038.06, 7394.969, 0.01422543, 0.39233202, -735518.75, 71576.98, 0.0, 10.0015, 9.998275 
2.4551006e+3, 2.2764607e+2, -685919.94, -769157.1, 15713.383, 0.02128251, 0.39285105, -683052.4, 26055.258, 0.0, 10.000588, 9.99948 
2.4550244e+3, 2.3764527e+2, -725660.56, -748705.94, 13002.248, 0.043974806, 0.39320955, -719809.94, -108696.6, 0.0, 9.999691, 9.999381 
2.4549483e+3, 2.4764429e+2, -687520.44, -622794.0, 18932.715, 0.027748024, 0.3642612, -617662.9, -104541.21, 0.0, 9.999036, 9.9998865 
2.4548715e+3, 2.576435e+2, -682545.94, -582197.75, 24349.271, -0.0070365015, 0.32647622, -576601.56, -161472.9, 0.0, 9.99845, 9.999776 
2.454795e+3, 2.6764348e+2, -683583.94, -476824.5, -4220.592, -0.0120695755, 0.35734087, -476738.38, -159609.11, 0.0, 9.997537, 10.000265 
2.4547185e+3, 2.7764395e+2, -725357.0, -432068.8, -10521.092, 0.010039223, 0.40203846, -431691.88, -212565.95, 0.0, 9.996517, 10.000391 
2.4546425e+3, 2.876441e+2, -650322.94, -220845.28, 13835.679, 0.021499144, 0.34360647, -220400.02, -99276.32, 0.0, 9.995822, 10.001504 
2.4545659e+3, 2.9764453e+2, -664019.9, -205899.77, 8570.938, -0.028004613, 0.27228916, -205739.47, -182622.08, 0.0, 9.995177, 10.001247 
2.4544898e+3, 3.076472e+2, -732876.2, -170311.06, -56002.824, 0.09335068, 0.4260604, -164790.22, -164790.22, 0.0, 9.994171, 10.001647 
2.454411e+3, 3.1764814e+2, -810903.7, -61209.543, 71060.33, -0.060685813, 0.3839725, -54533.49, -54533.49, 0.0, 9.99304, 10.002921 
2.465878e+3, 1.277526e+2, -1159251.5, -1739237.1, 1938.928, 0.17735317, 0.41526857, -1159245.1, 528822.06, 0.35225296, 10.007648, 9.996149 
2.465799e+3, 1.3774881e+2, -956761.75, -1636227.4, 6050.433, 0.05598868, 0.4530486, -956707.9, 633397.25, 0.2533808, 10.0079155, 9.996055 
2.4657208e+3, 1.4774497e+2, -856607.7, -1522995.4, 881.6287, 0.04440488, 0.46888953, -856606.56, 635536.6, 0.15304238, 10.006975, 9.996608 
2.4656431e+3, 1.577413e+2, -876766.5, -1517289.4, 8715.572, 0.09270278, 0.4682779, -876647.94, 517531.66, 0.071900934, 10.005647, 9.996615 
2.4655649e+3, 1.6773772e+2, -773225.44, -1344691.6, 26587.395, 0.07423746, 0.441888, -771991.1, 524222.63, 0.0233762, 10.005133, 9.997374 
2.4654868e+3, 1.7773442e+2, -702992.75, -1269020.1, 30857.926, 0.026965393, 0.40561154, -701315.44, 496929.4, 0.0040411195, 10.004888, 9.997338 
2.46541e+3, 1.8773186e+2, -715711.5, -1152623.6, 48796.67, 0.039579436, 0.41422716, -710327.94, 389941.16, 0.00015268162, 10.0038, 9.997988 
2.4653332e+3, 1.9772977e+2, -822642.3, -1166757.4, 33027.44, 0.07566903, 0.43631107, -819501.1, 182787.84, 0.00000000021615258, 10.002445, 9.997874 
2.4652559e+3, 2.077274e+2, -772457.8, -1038454.6, 31679.283, 0.055352982, 0.4239346, -768737.0, 135575.05, 0.0, 10.00189, 9.998347 
2.4651782e+3, 2.1772517e+2, -711430.75, -953660.06, 50497.78, 0.015270129, 0.39529312, -701325.06, 105009.1, 0.0, 10.001617, 9.998388 
2.465101e+3, 2.277237e+2, -655501.3, -776939.7, 52461.707, 0.018060785, 0.3943147, -635976.8, 72370.68, 0.0, 10.0009, 9.999273 
2.465024e+3, 2.3772275e+2, -687164.25, -742574.8, 43697.313, 0.040073067, 0.3997792, -663129.44, -52774.035, 0.0, 10.000013, 9.999265 
2.464947e+3, 2.4772188e+2, -662998.8, -596423.8, 44133.8, 0.025199808, 0.37991259, -574431.56, -62069.0, 0.0, 9.999147, 10.000011 
2.4648696e+3, 2.5772125e+2, -700463.3, -580243.25, 36072.03, -0.007708785, 0.34895515, -570250.44, -155883.0, 0.0, 9.998288, 9.999865 
2.4647923e+3, 2.6772112e+2, -691942.25, -482618.44, 25103.62, -0.004868061, 0.36411363, -479649.9, -163280.72, 0.0, 9.99749, 10.000246 
2.4647151e+3, 2.7772138e+2, -703498.1, -423505.7, 52432.098, 0.032291245, 0.39167932, -414009.2, -195641.45, 0.0, 9.996676, 10.000373 
2.4646379e+3, 2.8772154e+2, -656261.6, -220654.1, 63050.594, 0.011114665, 0.34292483, -211711.61, -91346.52, 0.0, 9.995772, 10.001527 
2.4645601e+3, 2.9772204e+2, -706519.56, -214795.05, 23135.924, -0.10033394, 0.27226686, -213708.88, -191349.88, 0.0, 9.994844, 10.001343 
2.4644844e+3, 3.0772555e+2, -709236.7, -145339.6, -6632.366, 0.1646881, 0.49964875, -145261.6, -145261.6, 0.0, 9.994283, 10.0017605 
2.4644035e+3, 3.1772485e+2, -703257.25, -34136.402, 101141.6, -0.10708121, 0.28889588, -19182.447, -19182.447, 0.0, 9.99389, 10.002696 
2.475885e+3, 1.278303e+2, -1130163.0, -1686427.0, 10973.91, 0.15514705, 0.4340793, -1129946.6, 557359.75, 0.33590272, 10.007634, 9.996517 
2.4758063e+3, 1.3782646e+2, -945926.44, -1601779.3, 3283.947, 0.022578042, 0.4320004, -945910.0, 643434.0, 0.24074714, 10.007766, 9.996363 
2.4757273e+3, 1.4782292e+2, -849611.9, -1507119.5, -43092.938, 0.027449226, 0.45710343, -846799.6, 644580.06, 0.1445526, 10.006902, 9.996759 
2.4756484e+3, 1.5781966e+2, -862670.9, -1501725.8, -27315.184, 0.10298815, 0.48310116, -861505.44, 531907.5, 0.06723744, 10.005684, 9.996708 
2.4755701e+3, 1.6781624e+2, -773151.7, -1350723.9, 20069.3, 0.10452396, 0.47264257, -772455.2, 522990.4, 0.021476386, 10.005145, 9.997329 
2.4754919e+3, 1.7781302e+2, -715703.44, -1285155.9, 12601.047, 0.07030828, 0.44742236, -715424.75, 482051.06, 0.0035920248, 10.004836, 9.997255 
2.4754135e+3, 1.8781012e+2, -734805.1, -1189242.1, -1574.5884, 0.05616965, 0.44096947, -734799.7, 364704.25, 0.00012732245, 10.003781, 9.997748 
2.4753352e+3, 1.9780758e+2, -821587.8, -1170672.0, -3969.2114, 0.052650508, 0.44025698, -821542.7, 179986.23, 0.00000000023303823, 10.002466, 9.99784 
2.4752575e+3, 2.0780565e+2, -732417.3, -960297.7, 23914.963, 0.05109283, 0.43668887, -729934.56, 173612.34, 0.0, 10.001906, 9.9988785 
2.4751797e+3, 2.178041e+2, -692004.0, -911679.9, 35796.527, 0.04714969, 0.42694914, -686318.06, 119242.62, 0.0, 10.001604, 9.998686 
2.4751015e+3, 2.2780237e+2, -678360.8, -824811.25, 19592.078, 0.026456432, 0.40788746, -675785.1, 31791.95, 0.0, 10.000897, 9.998949 
2.4750234e+3, 2.3780079e+2, -704269.3, -779640.6, 10912.072, 0.0036927732, 0.38474977, -702721.3, -93129.41, 0.0, 10.000014, 9.999013 
2.4749455e+3, 2.478001e+2, -666537.75, -606206.9, 10230.666, 0.0017341783, 0.39523554, -604519.2, -92920.984, 0.0, 9.999153, 9.999944 
2.4748677e+3, 2.577999e+2, -693084.8, -568758.1, 2989.2515, -0.00016258736, 0.41049793, -568686.3, -155086.64, 0.0, 9.998299, 9.999941 
2.4747896e+3, 2.6779965e+2, -658148.44, -414473.44, -6905.1035, 0.015994808, 0.3832644, -414277.9, -98676.945, 0.0, 9.997493, 10.000715 
2.4747117e+3, 2.7779973e+2, -688367.2, -395677.4, 21003.963, 0.061093032, 0.34892926, -394177.78, -176578.52, 0.0, 9.996686, 10.000562 
2.4746333e+3, 2.8780034e+2, -693641.1, -299761.94, 24754.1, 0.011705927, 0.3711234, -298212.3, -178618.77, 0.0, 9.995773, 10.000986 
2.4745539e+3, 2.978012e+2, -708967.4, -219542.19, -11777.701, -0.15513806, 0.38520792, -219258.92, -197673.0, 0.0, 9.994837, 10.001316 
2.4744788e+3, 3.078032e+2, -650293.0, -21042.813, -21235.348, 0.20243625, 0.40135694, -20326.996, -20326.996, 0.0, 9.99427, 10.002622 
2.4743973e+3, 3.1780544e+2, -732741.25, -126936.65, 66097.65, -0.0973053, 0.43196532, -119808.79, -119808.79, 0.0, 9.993992, 10.0020275 
2.4858926e+3, 1.2790874e+2, -1074780.6, -1639327.6, 29613.4, 0.16196002, 0.4421295, -1073231.5, 613307.4, 0.31922418, 10.007876, 9.996875 
2.485813e+3, 1.3790515e+2, -1072700.9, -1659394.8, 26185.543, 0.011890252, 0.43342936, -1071534.5, 517038.78, 0.22792527, 10.006416, 9.99662 
2.4857333e+3, 1.4790173e+2, -936831.44, -1553231.3, -15826.683, 0.01388675, 0.46006963, -936425.3, 554182.56, 0.13601479, 10.006142, 9.9968 
2.485654e+3, 1.5789855e+2, -777846.8, -1453040.9, -9369.435, 0.093001686, 0.49160472, -777716.8, 614923.94, 0.06261369, 10.006266, 9.996758 
2.485575e+3, 1.678952e+2, -747879.94, -1331162.4, 31900.06, 0.098077685, 0.4820669, -746140.5, 548532.44, 0.019632753, 10.005286, 9.997394 
2.4854958e+3, 1.7789203e+2, -835355.44, -1333487.3, 32231.016, 0.067907825, 0.4573385, -833278.6, 363424.06, 0.0031721897, 10.003969, 9.99734 
2.4854167e+3, 1.8788922e+2, -767289.9, -1187808.1, 41336.973, 0.052848563, 0.44821244, -763264.94, 335464.72, 0.00010535065, 10.0034895, 9.997896 
2.4853379e+3, 1.9788675e+2, -699360.56, -1100396.9, 60353.402, 0.047421385, 0.4423588, -690474.6, 310278.94, 0.00000000017417703, 10.003267, 9.9979315 
2.4852593e+3, 2.0788485e+2, -687899.1, -948564.5, 62417.05, 0.055493217, 0.44503382, -673724.0, 229047.69, 0.0, 10.002261, 9.998785 
2.485181e+3, 2.1788332e+2, -781316.8, -957663.0, 34583.42, 0.06646149, 0.44637728, -774777.1, 30008.658, 0.0, 10.001007, 9.998655 
2.4851021e+3, 2.2788163e+2, -750364.9, -845354.9, 33854.383, 0.036802605, 0.42591324, -739534.1, -32732.523, 0.0, 10.000347, 9.99907 
2.485023e+3, 2.378801e+2, -719842.0, -778017.1, 52561.37, -0.0017276105, 0.39714178, -688856.4, -80040.67, 0.0, 9.999875, 9.999087 
2.4849443e+3, 2.4787939e+2, -684715.2, -620861.4, 55866.027, -0.004056463, 0.40849677, -588442.8, -77620.24, 0.0, 9.999058, 9.999887 
2.4848658e+3, 2.5787914e+2, -719193.56, -581289.25, 50507.027, 0.0027524491, 0.42755377, -564770.0, -151945.22, 0.0, 9.998125, 9.999936 
2.4847868e+3, 2.6787898e+2, -639211.8, -391371.38, 28317.873, 0.020339021, 0.40005988, -388177.0, -73351.61, 0.0, 9.997568, 10.000834 
2.4847083e+3, 2.778791e+2, -628453.56, -362691.5, 24749.012, 0.060135424, 0.36259663, -360406.4, -143583.8, 0.0, 9.997087, 10.000591 
2.4846289e+3, 2.8787982e+2, -672637.44, -311497.25, 29207.309, -0.0034887807, 0.40734696, -309150.34, -190334.22, 0.0, 9.9960165, 10.000786 
2.4845484e+3, 2.978808e+2, -720026.2, -234296.45, 23617.023, -0.16632628, 0.44979462, -233150.86, -212342.7, 0.0, 9.994803, 10.00123 
2.4844728e+3, 3.0788153e+2, -591499.75, 35404.72, -4664.377, 0.2203917, 0.33137158, 35439.418, 35439.418, 0.0, 9.994562, 10.002865 
2.4843904e+3, 3.1788397e+2, -687011.44, -130770.375, 37863.65, -0.1671709, 0.36722365, -128204.805, -128204.805, 0.0, 9.994429, 10.001784 
2.4959004e+3, 1.2798782e+2, -1045806.8, -1601094.1, -8561.078, 0.18200578, 0.4479273, -1045674.9, 640090.3, 0.3020731, 10.007821, 9.997262 
2.495819e+3, 1.3798477e+2, -1045257.2, -1621402.5, -4923.1797, 0.011435712, 0.45493564, -1045215.1, 542578.56, 0.21480334, 10.006463, 9.996857 
2.495739e+3, 1.479813e+2, -934658.8, -1565642.6, -9346.699, -0.002035701, 0.47564426, -934520.4, 555308.2, 0.12735355, 10.006152, 9.996714 
2.4956597e+3, 1.5797791e+2, -785295.2, -1459959.1, -15812.605, 0.062934585, 0.49349466, -784924.75, 606938.7, 0.057989106, 10.006189, 9.99675 
2.4955796e+3, 1.6797455e+2, -744504.5, -1316782.4, -15808.675, 0.05991263, 0.4731298, -744068.2, 549828.06, 0.017829292, 10.00524, 9.997517 
2.495499e+3, 1.7797144e+2, -819141.75, -1303307.6, -3516.5796, 0.02532977, 0.44171765, -819116.25, 376809.47, 0.0027764582, 10.003979, 9.997546 
2.4954197e+3, 1.8796909e+2, -734480.56, -1121355.9, 35403.547, 0.03192721, 0.4406047, -731267.4, 366679.75, 0.00008573884, 10.003491, 9.998354 
2.4953409e+3, 1.9796713e+2, -693119.1, -1081789.6, 41780.33, 0.05527965, 0.44489866, -688678.6, 311285.84, 0.00000000005180779, 10.003237, 9.998076 
2.4952613e+3, 2.0796485e+2, -735698.7, -1046478.7, 14598.876, 0.06632838, 0.4497035, -735014.44, 166973.2, 0.0, 10.00225, 9.998121 
2.4951817e+3, 2.1796274e+2, -803138.4, -1005137.1, -1573.5084, 0.06966033, 0.45246187, -803126.06, 883.94434, 0.0, 10.001011, 9.998331 
2.4951023e+3, 2.279614e+2, -713290.3, -771668.44, 18683.24, 0.047813613, 0.44787565, -707823.0, -1801.3394, 0.0, 10.000357, 9.999574 
2.4950227e+3, 2.3796055e+2, -694688.06, -729399.7, 30178.594, 0.019408869, 0.43687993, -677230.5, -69202.59, 0.0, 9.999885, 9.999419 
2.4949431e+3, 2.4795963e+2, -687337.4, -628707.2, 17825.295, 0.0057192408, 0.4189821, -623713.2, -113676.555, 0.0, 9.9990635, 9.999833 
2.4948633e+3, 2.5795895e+2, -725984.56, -597860.56, 19205.799, -0.0047959317, 0.3989302, -595043.56, -182999.94, 0.0, 9.99813, 9.999823 
2.494784e+3, 2.67959e+2, -657616.0, -432839.44, 10088.396, 0.0046064835, 0.4163987, -432387.56, -118344.38, 0.0, 9.997577, 10.000548 
2.4947046e+3, 2.7795947e+2, -635187.7, -383102.03, -3417.9902, 0.025314113, 0.44056708, -383055.7, -167017.3, 0.0, 9.997108, 10.000443 
2.4946243e+3, 2.879599e+2, -658140.8, -284358.8, -21429.488, -0.03761652, 0.44946057, -283134.25, -165100.23, 0.0, 9.996023, 10.000972 
2.4945429e+3, 2.979606e+2, -734747.0, -266180.9, -7117.8784, -0.14094299, 0.45188287, -266072.78, -246045.64, 0.0, 9.994804, 10.001014 
2.4944673e+3, 3.079604e+2, -642174.06, -77163.34, -9708.436, 0.2268344, 0.3042403, -76996.58, -76996.58, 0.0, 9.99459, 10.002081 
2.4943845e+3, 3.1796333e+2, -690922.06, -150420.2, 14489.936, -0.1656218, 0.4493024, -150032.03, -150032.03, 0.0, 9.9944725, 10.00163 
2.5059074e+3, 1.2806806e+2, -1057734.6, -1638002.5, 17647.602, 0.1355152, 0.4612258, -1057198.4, 627781.44, 0.28437975, 10.007699, 9.996944 
2.505826e+3, 1.3806492e+2, -955418.4, -1582201.8, -6074.17, 0.038617965, 0.48945433, -955359.5, 631650.94, 0.20135191, 10.007192, 9.996782 
2.505745e+3, 1.480615e+2, -892442.94, -1493878.0, 12788.3125, 0.013261556, 0.48728797, -892171.1, 596872.5, 0.11855949, 10.006222, 9.9971695 
2.5056648e+3, 1.5805818e+2, -903225.7, -1485960.9, 34148.53, 0.040221237, 0.47142997, -901231.4, 489844.56, 0.053361505, 10.005164, 9.997063 
2.505584e+3, 1.6805509e+2, -837215.4, -1362578.3, 29884.592, 0.050933894, 0.4694143, -835520.9, 457585.6, 0.016065663, 10.004592, 9.997511 
2.5055033e+3, 1.7805228e+2, -791843.8, -1288831.3, 35807.754, 0.04564631, 0.46930096, -789277.2, 405857.03, 0.0024034856, 10.004168, 9.99755 
2.505423e+3, 1.8804975e+2, -749367.5, -1127158.6, 57246.25, 0.047554832, 0.4521184, -740883.56, 356273.72, 0.00006792726, 10.003389, 9.998361 
2.5053433e+3, 1.9804753e+2, -795044.25, -1125260.4, 32672.764, 0.056865647, 0.42961073, -791842.5, 207334.28, 0.0000000000010010511, 10.002516, 9.998124 
2.5052628e+3, 2.0804548e+2, -767110.25, -1047161.25, 31162.836, 0.054364216, 0.4470798, -763684.5, 137513.31, 0.0, 10.001977, 9.998245 
2.5051823e+3, 2.1804368e+2, -722973.1, -957203.25, 64708.484, 0.04749972, 0.47213387, -706285.6, 96931.68, 0.0, 10.001529, 9.998406 
2.5051022e+3, 2.2804222e+2, -668453.0, -756332.7, 71941.9, 0.041029084, 0.4579621, -628093.7, 77136.625, 0.0, 10.000697, 9.999513 
2.5050226e+3, 2.3804112e+2, -716853.7, -739567.3, 44688.703, 0.036255788, 0.42977563, -682101.3, -74862.36, 0.0, 9.999737, 9.999418 
2.5049418e+3, 2.4804038e+2, -693834.94, -619622.4, 28949.477, 0.0154445, 0.42205322, -609665.44, -100419.086, 0.0, 9.998972, 9.999936 
2.504861e+3, 2.5803995e+2, -704426.6, -580532.25, 43719.207, -0.010024616, 0.42008257, -566658.44, -155407.42, 0.0, 9.998254, 9.99988 
2.504781e+3, 2.6803997e+2, -666506.56, -445235.03, 56745.41, -0.0076745683, 0.43990985, -431531.28, -118280.42, 0.0, 9.997556, 10.000471 
2.5047013e+3, 2.7804032e+2, -671909.9, -402004.88, 51287.867, 0.010206749, 0.4597294, -392587.63, -177340.2, 0.0, 9.996866, 10.000428 
2.50462e+3, 2.8804064e+2, -625189.06, -255185.6, 21659.94, -0.03902168, 0.45132703, -253921.94, -136677.98, 0.0, 9.996197, 10.001086 
2.504538e+3, 2.980413e+2, -641835.06, -242296.52, 42297.6, -0.12067688, 0.44401723, -237867.72, -218630.52, 0.0, 9.995538, 10.000821 
2.5044617e+3, 3.0804113e+2, -595869.94, -145735.0, 68377.17, 0.19226485, 0.36229432, -135577.47, -135577.47, 0.0, 9.9953, 10.001266 
2.504379e+3, 3.180432e+2, -705442.0, -109306.24, 14948.432, -0.1344809, 0.47942257, -108931.64, -108931.64, 0.0, 9.994171, 10.002055 
2.5159138e+3, 1.2814918e+2, -1092495.8, -1745642.1, 3015.3965, 0.032402795, 0.4779426, -1092481.8, 591703.6, 0.2662203, 10.007626, 9.996114 
2.5158334e+3, 1.3814558e+2, -967197.44, -1629526.6, -23332.164, 0.08496832, 0.53356224, -966376.5, 619846.56, 0.1876507, 10.007148, 9.996471 
2.515751e+3, 1.4814228e+2, -835620.56, -1385491.4, -21987.863, 0.05010885, 0.49745637, -834742.75, 653510.56, 0.109690264, 10.006203, 9.998013 
2.5156695e+3, 1.5813927e+2, -866203.1, -1409046.3, 1268.8368, 0.020067835, 0.43316233, -866200.2, 524079.13, 0.04876013, 10.005152, 9.997599 
2.5155884e+3, 1.6813667e+2, -845043.7, -1381766.6, 13515.407, 0.06374465, 0.47156456, -844703.56, 447601.94, 0.014351791, 10.004591, 9.997381 
2.5155076e+3, 1.7813432e+2, -804978.0, -1317671.0, 15205.006, 0.11550847, 0.53201884, -804527.44, 389802.9, 0.0020543009, 10.004168, 9.9973545 
2.5154266e+3, 1.8813112e+2, -777089.6, -1185374.8, 24826.055, 0.09182371, 0.47803706, -775585.6, 320775.47, 0.000051899184, 10.0033865, 9.997966 
2.5153455e+3, 1.9812796e+2, -798927.75, -1132254.6, 7561.879, 0.048375253, 0.39622897, -798756.25, 199634.05, 0.0, 10.002506, 9.998083 
2.5152645e+3, 2.0812666e+2, -711395.1, -931702.1, 16624.045, 0.020287516, 0.43823513, -710147.75, 190254.89, 0.0, 10.001972, 9.999042 
2.515183e+3, 2.1812604e+2, -698886.4, -905449.56, 43419.5, -0.0017268091, 0.5077011, -690130.75, 112278.055, 0.0, 10.001515, 9.998771 
2.5151026e+3, 2.2812396e+2, -710814.7, -844769.9, 35739.445, 0.015989942, 0.45790583, -701875.9, 2552.84, 0.0, 10.000693, 9.99891 
2.515022e+3, 2.3812175e+2, -739007.44, -788110.44, 11244.369, 0.04445145, 0.37453225, -736555.0, -130105.23, 0.0, 9.999742, 9.999085 
2.5149408e+3, 2.4812154e+2, -676385.8, -586045.9, 851.0675, 0.023923574, 0.41790172, -586037.9, -77585.45, 0.0, 9.998978, 10.000167 
2.514859e+3, 2.5812215e+2, -688739.56, -551980.6, 15796.768, -0.0155148385, 0.4944501, -550179.7, -139732.27, 0.0, 9.998265, 10.0000725 
2.5147784e+3, 2.6812187e+2, -656903.2, -427098.47, 28389.48, -0.018054588, 0.46815443, -423643.25, -111194.06, 0.0, 9.997559, 10.000597 
2.5146976e+3, 2.7812153e+2, -665078.5, -387807.5, 24812.447, 0.007666862, 0.4075133, -385604.6, -171153.64, 0.0, 9.9968605, 10.000531 
2.5146163e+3, 2.8812203e+2, -623250.0, -254278.95, -3328.8428, -0.002394608, 0.4116344, -254248.92, -137802.77, 0.0, 9.996204, 10.001092 
2.5145337e+3, 2.9812312e+2, -645005.25, -260084.31, 25752.879, -0.08695704, 0.4485882, -258368.97, -239932.66, 0.0, 9.99558, 10.000682 
2.5144553e+3, 3.081237e+2, -636250.44, -240736.11, 64127.074, 0.06111102, 0.48928759, -230598.66, -230598.66, 0.0, 9.995343, 10.000595 
2.5143728e+3, 3.1812257e+2, -628721.75, 70196.06, -164145.33, -0.12160268, 0.32466093, 106826.805, 106826.805, 0.0, 9.994092, 10.003323 
2.5259203e+3, 1.2823075e+2, -1093756.5, -1737634.6, 20268.79, -0.038205113, 0.4852037, -1093119.0, 590267.25, 0.24776892, 10.007397, 9.99628 
2.52584e+3, 1.3822709e+2, -987954.0, -1635525.8, 32010.902, 0.10707683, 0.5231855, -986375.5, 599048.44, 0.17383847, 10.006834, 9.996582 
2.5257573e+3, 1.4822385e+2, -864773.7, -1401639.9, 2658.605, 0.079101846, 0.49242678, -864760.5, 622693.06, 0.10083439, 10.005939, 9.998003 
2.5256744e+3, 1.5822095e+2, -884699.1, -1416818.4, -13639.32, 0.02852825, 0.43907124, -884349.75, 505129.25, 0.044227656, 10.004995, 9.997617 
2.5255924e+3, 1.6821831e+2, -844157.06, -1371530.0, 13582.377, 0.058351927, 0.46725342, -843807.5, 447698.2, 0.012701877, 10.004554, 9.997467 
2.525511e+3, 1.7821592e+2, -784763.06, -1292038.0, 21053.814, 0.102199726, 0.51473397, -783890.75, 409640.22, 0.0017311216, 10.004243, 9.997491 
2.5254294e+3, 1.8821311e+2, -767937.6, -1156019.0, 47052.746, 0.08177648, 0.4812346, -762314.2, 333243.72, 0.00003798913, 10.003348, 9.998182 
2.5253475e+3, 1.9821037e+2, -820517.56, -1127770.8, 70470.7, 0.044166874, 0.42439047, -805125.6, 192457.38, 0.0, 10.002299, 9.99821 
2.5252658e+3, 2.0820884e+2, -766262.3, -964190.8, 56997.97, 0.023951422, 0.4447629, -751021.94, 148575.72, 0.0, 10.001627, 9.998982 
2.5251845e+3, 2.1820787e+2, -762649.06, -932075.1, 24259.633, 0.010480177, 0.48380628, -759243.8, 42363.484, 0.0, 10.001066, 9.998802 
2.5251025e+3, 2.2820611e+2, -744862.9, -839701.44, 37062.25, 0.015248225, 0.45213374, -732097.44, -28473.219, 0.0, 10.000374, 9.999096 
2.525021e+3, 2.3820435e+2, -748092.94, -782163.06, 67139.18, 0.028697502, 0.39920202, -695861.4, -90220.305, 0.0, 9.999642, 9.999171 
2.5249392e+3, 2.4820405e+2, -687773.44, -607624.6, 52859.758, 0.022598857, 0.44220376, -581365.7, -73720.76, 0.0, 9.998975, 10.000017 
2.5248572e+3, 2.582044e+2, -684530.9, -554411.5, 39880.77, 0.0043075844, 0.5089218, -543161.06, -133518.38, 0.0, 9.99832, 10.000026 
2.5247756e+3, 2.6820406e+2, -630816.25, -397813.78, 46821.55, -0.017618619, 0.47041115, -388757.1, -77112.836, 0.0, 9.997672, 10.000739 
2.5246942e+3, 2.7820376e+2, -638630.25, -367478.56, 43063.664, -0.01608893, 0.39928743, -360803.63, -147158.6, 0.0, 9.997016, 10.000592 
2.5246122e+3, 2.882042e+2, -587532.7, -249174.17, 10275.28, 0.016170628, 0.4020674, -248862.42, -133221.19, 0.0, 9.996509, 10.000977 
2.5245297e+3, 2.982051e+2, -589786.94, -233023.03, 29775.941, -0.02342036, 0.43490127, -230554.97, -212921.6, 0.0, 9.995965, 10.000677 
2.5244486e+3, 3.0820662e+2, -732015.1, -272801.2, 103623.55, -0.07554481, 0.55572516, -250501.03, -250501.03, 0.0, 9.994636, 10.0007105 
2.5243673e+3, 3.182064e+2, -593433.6, 148580.69, -141180.14, -0.05015042, 0.47202566, 174534.67, 174534.67, 0.0, 9.994075, 10.003867 
2.5359267e+3, 1.283128e+2, -1033680.7, -1628716.6, 5974.408, -0.09350853, 0.48788035, -1033620.7, 648961.3, 0.22924347, 10.007388, 9.997138 
2.5358465e+3, 1.3830939e+2, -965752.5, -1587507.8, 9831.469, 0.10735368, 0.47259054, -965597.06, 619017.5, 0.16006848, 10.006755, 9.996948 
2.535763e+3, 1.4830616e+2, -905175.0, -1494046.5, -30586.783, 0.09977697, 0.47690722, -903590.56, 583055.2, 0.09208539, 10.005912, 9.99732 
2.5356793e+3, 1.5830317e+2, -905213.8, -1472082.3, -36918.117, 0.055691328, 0.47875908, -902819.56, 485855.28, 0.039809894, 10.005015, 9.9972315 
2.5355965e+3, 1.6830006e+2, -827840.0, -1338159.1, 7836.5405, 0.03548205, 0.45649496, -827719.7, 462986.3, 0.011131646, 10.004546, 9.997703 
2.5355145e+3, 1.7829722e+2, -764683.8, -1239291.6, 4721.869, 0.017717542, 0.43263587, -764636.8, 428097.66, 0.001436885, 10.0041895, 9.997882 
2.535432e+3, 1.882957e+2, -721575.94, -1055488.3, 7970.9517, 0.025522484, 0.46798566, -721385.75, 373362.28, 0.000026579513, 10.0033245, 9.998885 
2.5353494e+3, 1.9829458e+2, -805066.2, -1098304.0, 36495.773, 0.041791033, 0.5096357, -800592.25, 196164.72, 0.0, 10.002306, 9.998411 
2.5352675e+3, 2.0829192e+2, -823834.56, -1086794.1, 36800.18, 0.06112456, 0.4644434, -818781.6, 80002.54, 0.0, 10.001636, 9.998139 
2.5351855e+3, 2.1828915e+2, -781573.44, -971695.6, 4176.6284, 0.075838566, 0.40013513, -781481.75, 19331.178, 0.0, 10.001062, 9.998534 
2.5351027e+3, 2.2828864e+2, -680352.94, -707506.44, 10904.859, 0.035346366, 0.44156125, -676515.75, 26301.361, 0.0, 10.000376, 10.000005 
2.53502e+3, 2.3828888e+2, -717128.56, -720104.75, 40433.996, -0.014140361, 0.5058774, -678155.3, -73341.99, 0.0, 9.999646, 9.9995985 
2.534938e+3, 2.4828783e+2, -725544.8, -688087.2, 26640.902, 0.010625877, 0.49463788, -674250.56, -167425.88, 0.0, 9.99898, 9.999465 
2.5348556e+3, 2.5828665e+2, -704771.8, -599798.3, 14251.316, 0.045372248, 0.4587985, -597897.94, -189060.06, 0.0, 9.998329, 9.999713 
2.534773e+3, 2.6828656e+2, -620364.7, -378929.16, 20256.342, -0.006576104, 0.44721743, -377241.47, -66404.58, 0.0, 9.997678, 10.000869 
2.5346902e+3, 2.7828705e+2, -637604.7, -370047.7, 19239.54, -0.06159371, 0.44514254, -368671.28, -155841.52, 0.0, 9.99703, 10.000571 
2.5346085e+3, 2.8828698e+2, -606215.7, -292327.44, -11510.833, 0.008910167, 0.42237648, -291905.88, -177075.23, 0.0, 9.996522, 10.000676 
2.534526e+3, 2.9828694e+2, -577709.1, -211891.13, -6051.654, 0.047726475, 0.3788435, -211791.05, -194958.53, 0.0, 9.995976, 10.000819 
2.534442e+3, 3.0829e+2, -665772.1, -123460.59, 41466.79, -0.17337462, 0.58458656, -120308.24, -120308.24, 0.0, 9.994578, 10.001766 
2.5343612e+3, 3.182912e+2, -642009.4, 10775.368, -46560.824, -0.022611825, 0.5712828, 14079.661, 14079.661, 0.0, 9.994191, 10.002886 
2.5459343e+3, 1.2839578e+2, -992009.44, -1608716.5, 25231.932, -0.038608525, 0.48672652, -990978.8, 690789.4, 0.21086174, 10.007579, 9.99721 
2.5458524e+3, 1.383922e+2, -1030039.94, -1618699.9, 1106.3763, 0.07211414, 0.44495344, -1030037.9, 553764.7, 0.14648405, 10.00611, 9.997044 
2.545768e+3, 1.4838922e+2, -936583.0, -1504556.6, -3446.604, 0.069404334, 0.46513703, -936562.1, 549269.9, 0.083527155, 10.005606, 9.99739 
2.545684e+3, 1.5838656e+2, -848444.3, -1431607.4, 29338.357, 0.05820758, 0.4945012, -846972.06, 540886.56, 0.03554725, 10.005354, 9.997342 
2.5456005e+3, 1.6838352e+2, -840309.94, -1321523.5, 77767.34, 0.03766262, 0.46695295, -828054.3, 461834.0, 0.009654656, 10.00436, 9.997905 
2.5455177e+3, 1.7838073e+2, -899445.1, -1291242.4, 72378.12, 0.008704025, 0.42799294, -886502.0, 305413.97, 0.0011741227, 10.003209, 9.997995 
2.5454345e+3, 1.8837918e+2, -796170.9, -1098431.8, 41093.297, 0.018107714, 0.46558893, -790683.75, 303246.47, 0.000017841303, 10.002848, 9.998817 
2.5453517e+3, 1.9837812e+2, -748427.94, -1065926.5, 20049.383, 0.0427687, 0.51706505, -747166.9, 248772.73, 0.0, 10.00268, 9.99845 
2.5452688e+3, 2.0837563e+2, -781708.75, -1040978.4, 59593.035, 0.06201612, 0.47529045, -768667.3, 129297.31, 0.0, 10.0018215, 9.998362 
2.5451863e+3, 2.1837305e+2, -810967.7, -968631.0, 95217.66, 0.07570165, 0.40996397, -766183.7, 33807.48, 0.0, 10.0007925, 9.998682 
2.5451028e+3, 2.2837257e+2, -704470.1, -719898.25, 72729.11, 0.03785647, 0.45436072, -639047.1, 62947.88, 0.0, 10.00022, 9.999991 
2.5450194e+3, 2.3837286e+2, -700908.8, -712563.5, 39909.203, -0.008648387, 0.52440196, -666403.75, -62412.668, 0.0, 9.999764, 9.999589 
2.5449365e+3, 2.4837165e+2, -698954.75, -676439.7, 42051.832, 0.011280256, 0.49866292, -644164.6, -138160.72, 0.0, 9.999173, 9.999449 
2.5448537e+3, 2.5837025e+2, -680560.3, -592054.2, 64731.727, 0.043793567, 0.44372416, -557894.7, -149875.67, 0.0, 9.998519, 9.999671 
2.5447705e+3, 2.6837027e+2, -606823.56, -383478.28, 63695.78, -0.004970545, 0.4535243, -366589.94, -56572.746, 0.0, 9.997826, 10.000764 
2.544687e+3, 2.7837092e+2, -633970.25, -377687.7, 46829.254, -0.05812902, 0.48059317, -369398.9, -157390.1, 0.0, 9.997103, 10.000481 
2.5446045e+3, 2.8837058e+2, -633988.44, -311443.66, 29281.959, -0.00017970959, 0.4349862, -308806.88, -194794.27, 0.0, 9.996362, 10.000619 
2.5445214e+3, 2.9837018e+2, -623354.7, -229874.67, 43505.14, 0.035275616, 0.36414653, -225121.94, -209104.47, 0.0, 9.995649, 10.000852 
2.5444368e+3, 3.0837363e+2, -521248.0, -13586.332, 34959.875, -0.15526965, 0.58685863, -11190.147, -11190.147, 0.0, 9.995406, 10.002117 
2.544355e+3, 3.183722e+2, -664633.25, -87148.76, -21273.088, -0.027981212, 0.28734452, -86366.17, -86366.17, 0.0, 9.994427, 10.00209 
2.5559428e+3, 1.2847963e+2, -1009130.9, -1663612.0, -16555.584, 0.08238346, 0.48636726, -1008712.4, 672233.75, 0.19280945, 10.007521, 9.996753 
2.5558573e+3, 1.3847555e+2, -1032045.75, -1635461.6, -26972.727, 0.0043318695, 0.43588614, -1030842.44, 552144.56, 0.13320774, 10.00607, 9.99695 
2.5557727e+3, 1.4847295e+2, -894967.3, -1424441.9, -5491.944, -0.0016447073, 0.45669833, -894910.4, 590102.0, 0.075231165, 10.005586, 9.997988 
2.5556886e+3, 1.5847091e+2, -819490.06, -1369461.9, 12286.722, 0.040087458, 0.4919557, -819215.75, 567816.06, 0.0314739, 10.005324, 9.99779 
2.555605e+3, 1.6846848e+2, -828660.56, -1299650.3, 33551.99, 0.05897136, 0.49609464, -826282.44, 462772.97, 0.008281865, 10.004361, 9.998055 
2.555521e+3, 1.7846607e+2, -904798.94, -1311820.1, 41054.29, 0.05913073, 0.48846143, -900699.25, 290379.44, 0.0009440147, 10.003244, 9.997839 
2.5554374e+3, 1.8846342e+2, -845719.94, -1205726.3, 38472.24, 0.04989124, 0.47072852, -841654.5, 251450.9, 0.00001159609, 10.002861, 9.998077 
2.555354e+3, 1.9846104e+2, -757864.4, -1080745.5, 7242.6, 0.04221561, 0.45384088, -757702.0, 237427.72, 0.0, 10.002654, 9.9983635 
2.55527e+3, 2.0845999e+2, -702052.9, -874393.7, 20968.12, 0.028342756, 0.48038375, -699538.44, 197600.63, 0.0, 10.001811, 9.999513 
2.5551862e+3, 2.184594e+2, -778777.9, -903224.8, 63784.063, 0.012280375, 0.51032895, -751893.75, 47249.94, 0.0, 10.000794, 9.999133 
2.5551024e+3, 2.284578e+2, -767249.06, -852637.2, 56276.52, 0.023652317, 0.48830667, -739304.4, -38145.156, 0.0, 10.000226, 9.99908 
2.5550193e+3, 2.3845619e+2, -729056.0, -774261.2, 20690.62, 0.04031037, 0.4526437, -721015.8, -117840.56, 0.0, 9.999774, 9.999164 
2.5549355e+3, 2.4845545e+2, -662095.0, -602976.6, 16550.473, 0.02252942, 0.4539967, -598658.6, -93475.55, 0.0, 9.999181, 9.999952 
2.5548512e+3, 2.5845513e+2, -664619.94, -562737.44, 38967.285, -0.0064282757, 0.4657658, -549542.44, -142356.11, 0.0, 9.998529, 9.99987 
2.5547677e+3, 2.6845518e+2, -632243.6, -438475.47, 35055.67, -0.014761845, 0.49111104, -432328.38, -123142.86, 0.0, 9.99783, 10.000386 
2.5546843e+3, 2.7845535e+2, -643527.75, -400744.8, 17845.922, -0.0077648475, 0.5052987, -399440.06, -188257.33, 0.0, 9.997111, 10.00032 
2.5546002e+3, 2.884549e+2, -619330.3, -280615.34, 107.55707, -0.011370958, 0.4410546, -280615.3, -167428.22, 0.0, 9.996354, 10.000838 
2.554516e+3, 2.9845494e+2, -636333.3, -253919.55, 27506.6, -0.062352955, 0.39735466, -251951.16, -236763.92, 0.0, 9.995632, 10.000698 
2.554433e+3, 3.0845702e+2, -569484.9, -127535.06, 24543.064, -0.0266072, 0.5446265, -126176.27, -126176.27, 0.0, 9.99546, 10.001313 
2.554349e+3, 3.184553e+2, -628922.25, -3563.3186, -120963.555, -0.06382689, 0.27296898, 19019.248, 19019.248, 0.0, 9.994401, 10.00267 
2.56595e+3, 1.2856485e+2, -1024582.56, -1689442.9, 20311.47, 0.100154124, 0.46459556, -1023962.6, 656148.0, 0.17524694, 10.007314, 9.996654 
2.5658628e+3, 1.3856123e+2, -1049874.1, -1653947.6, 42377.3, -0.002967634, 0.4705218, -1046915.75, 535232.44, 0.12034744, 10.005886, 9.996912 
2.5657776e+3, 1.4855847e+2, -928615.44, -1436643.8, 75621.15, -0.013142483, 0.47590095, -917597.94, 566576.8, 0.067260854, 10.005278, 9.99804 
2.5656936e+3, 1.5855615e+2, -875025.2, -1396404.5, 58040.46, 0.030963177, 0.48012736, -868642.25, 517554.13, 0.027620148, 10.004914, 9.997798 
2.565609e+3, 1.6855371e+2, -820636.8, -1305604.0, 48655.055, 0.05667778, 0.49282873, -815803.56, 472416.38, 0.007021874, 10.004458, 9.997966 
2.5655243e+3, 1.7855139e+2, -805335.0, -1266727.0, 46012.348, 0.06572403, 0.50273705, -800791.2, 389451.53, 0.00074601074, 10.003945, 9.997808 
2.56544e+3, 1.8854867e+2, -828704.1, -1191045.6, 85047.29, 0.053150155, 0.4758036, -809735.25, 282534.88, 0.000007363407, 10.002956, 9.99813 
2.5653556e+3, 1.9854617e+2, -867873.8, -1130524.1, 98008.03, 0.038532153, 0.44367626, -835333.56, 158962.06, 0.0, 10.001889, 9.998388 
2.5652713e+3, 2.0854524e+2, -756634.8, -902427.75, 58879.625, 0.020379925, 0.4849763, -735825.9, 160478.27, 0.0, 10.001451, 9.999491 
2.5651866e+3, 2.1854484e+2, -727293.44, -879198.4, 26226.373, 0.0022880654, 0.5368944, -722892.94, 75414.17, 0.0, 10.001157, 9.999121 
2.5651026e+3, 2.2854301e+2, -739468.2, -842079.8, 51843.984, 0.018767228, 0.49426278, -717835.06, -17510.44, 0.0, 10.000435, 9.999049 
2.5650188e+3, 2.3854107e+2, -753448.6, -785398.75, 76109.57, 0.044964906, 0.42822707, -691655.6, -89311.92, 0.0, 9.999612, 9.999163 
2.5649342e+3, 2.485405e+2, -676220.1, -603857.0, 60821.56, 0.02165113, 0.447227, -569268.75, -64919.19, 0.0, 9.999065, 9.999998 
2.5648493e+3, 2.5854054e+2, -658640.3, -559391.0, 49713.22, -0.016322413, 0.48827237, -538773.1, -132423.5, 0.0, 9.998574, 9.999868 
2.5647655e+3, 2.6854035e+2, -619410.1, -443219.72, 52155.145, -0.012370188, 0.49979538, -428938.53, -120587.48, 0.0, 9.997972, 10.000283 
2.5646815e+3, 2.7854016e+2, -617456.8, -393394.75, 52103.633, 0.014884011, 0.48997474, -381871.2, -171519.27, 0.0, 9.997318, 10.000269 
2.5645965e+3, 2.8853986e+2, -551712.56, -240960.88, 29332.049, -0.016814692, 0.43828982, -238216.45, -125861.43, 0.0, 9.996795, 10.000895 
2.564511e+3, 2.985402e+2, -555480.2, -224329.22, 47869.098, -0.104395345, 0.4225251, -217548.4, -203196.25, 0.0, 9.996236, 10.000606 
2.5644284e+3, 3.085418e+2, -650985.4, -216846.47, 69014.055, 0.029739264, 0.55346406, -206139.53, -206139.53, 0.0, 9.995118, 10.000864 
2.564343e+3, 3.1854254e+2, -559551.4, 125303.164, -73196.96, -0.08177587, 0.55773747, 133039.05, 133039.05, 0.0, 9.994469, 10.003522 
2.5759563e+3, 1.2865117e+2, -1024595.25, -1677576.8, -28628.54, 0.04381895, 0.42776564, -1023342.5, 655922.1, 0.158342, 10.007126, 9.996823 
2.5758687e+3, 1.3864873e+2, -1038168.4, -1655950.6, 5799.279, 0.030527314, 0.53923506, -1038113.94, 543177.25, 0.10801601, 10.005937, 9.996873 
2.5757828e+3, 1.4864543e+2, -941340.1, -1485013.4, 62259.49, 0.01525277, 0.51743937, -934301.56, 549021.1, 0.059681788, 10.005327, 9.997667 
2.575698e+3, 1.5864214e+2, -898990.7, -1448403.4, 43310.145, 0.025791869, 0.46165106, -895597.5, 489755.84, 0.024015564, 10.004896, 9.997453 
2.5756127e+3, 1.6863929e+2, -844039.5, -1351007.6, 32454.504, 0.03406442, 0.46284184, -841970.3, 445411.53, 0.0058814026, 10.004434, 9.997668 
2.5755277e+3, 1.7863677e+2, -802944.9, -1257938.9, 22308.605, 0.033029985, 0.47774047, -801853.7, 387553.47, 0.00057858496, 10.003923, 9.997882 
2.5754425e+3, 1.8863489e+2, -779224.44, -1089726.0, 43843.848, 0.031314015, 0.48213223, -773152.3, 318272.7, 0.000004588243, 10.002957, 9.998828 
2.5753573e+3, 1.9863328e+2, -861634.44, -1122514.9, 67241.67, 0.031221954, 0.48251092, -845322.9, 148116.95, 0.0, 10.001906, 9.998438 
2.5752723e+3, 2.0863128e+2, -831689.0, -1062502.6, 49453.906, 0.03530627, 0.48877704, -821539.3, 73921.66, 0.0, 10.001464, 9.998388 
2.5751877e+3, 2.1862939e+2, -756565.75, -940529.25, 10920.503, 0.036949202, 0.492219, -755919.75, 41561.3, 0.0, 10.001154, 9.998704 
2.5751024e+3, 2.2862823e+2, -683049.06, -726593.06, 21109.775, 0.020306278, 0.47424102, -674495.44, 24995.584, 0.0, 10.000437, 9.999845 
2.5750175e+3, 2.3862742e+2, -727876.56, -733934.9, 49167.188, 0.002835117, 0.4518805, -681645.3, -80148.484, 0.0, 9.999614, 9.999517 
2.574933e+3, 2.4862678e+2, -706675.44, -668340.7, 41516.676, 0.00798026, 0.47923002, -641780.4, -138276.38, 0.0, 9.999067, 9.999557 
2.574848e+3, 2.586263e+2, -671240.4, -589029.06, 28551.42, 0.011281263, 0.5116137, -580086.1, -174576.4, 0.0, 9.998585, 9.999662 
2.5747633e+3, 2.686257e+2, -606052.56, -418650.7, 26021.918, 0.002104008, 0.47550452, -415104.5, -107589.695, 0.0, 9.997978, 10.000452 
2.5746784e+3, 2.7862525e+2, -612514.56, -386889.2, 29353.123, 0.0034630615, 0.42466676, -383132.97, -173615.39, 0.0, 9.997329, 10.000311 
2.574593e+3, 2.8862536e+2, -560808.9, -265448.63, 9011.273, -0.01982784, 0.4258058, -265173.94, -153656.94, 0.0, 9.996814, 10.000719 
2.5745067e+3, 2.98626e+2, -549310.3, -221851.06, 16431.428, -0.093964696, 0.45157054, -221028.63, -207516.48, 0.0, 9.996275, 10.0006075 
2.574423e+3, 3.0862814e+2, -634904.4, -181120.97, 21356.15, 0.010103953, 0.6188681, -180118.11, -180118.11, 0.0, 9.995102, 10.00112 
2.574337e+3, 3.1862798e+2, -584772.6, 66448.44, -39266.066, -0.053237796, 0.5193247, 68807.48, 68807.48, 0.0, 9.994486, 10.003116 
2.5859624e+3, 1.2873851e+2, -1138920.4, -1736174.4, -11369.124, 0.023106642, 0.4661849, -1138704.0, 539706.06, 0.1422574, 10.006049, 9.9969425 
2.585875e+3, 1.3873582e+2, -936864.3, -1606299.4, 11353.364, 0.05731905, 0.54305387, -936671.8, 643766.25, 0.09632747, 10.006657, 9.996867 
2.5857884e+3, 1.4873226e+2, -892048.0, -1490296.0, 57423.12, 0.0348728, 0.5139794, -886586.06, 595885.9, 0.052558962, 10.005784, 9.997407 
2.5857025e+3, 1.5872872e+2, -946257.25, -1483632.0, 50371.33, 0.026084568, 0.45659855, -941576.4, 442928.75, 0.020686414, 10.004606, 9.997348 
2.5856167e+3, 1.6872588e+2, -894946.44, -1358104.0, 73375.12, 0.032755066, 0.4538155, -883600.06, 402933.13, 0.00486457, 10.004007, 9.997824 
2.585531e+3, 1.7872348e+2, -850721.56, -1270830.3, 80889.61, 0.033669125, 0.4660946, -835684.94, 352872.38, 0.00043992983, 10.003556, 9.997969 
2.5854447e+3, 1.8872173e+2, -776006.9, -1091634.4, 59386.33, 0.022414781, 0.48584783, -765202.94, 325370.97, 0.0000027949502, 10.002999, 9.998792 
2.585359e+3, 1.9872023e+2, -793603.4, -1098200.9, 43638.137, 0.013740363, 0.5031929, -787474.9, 205112.86, 0.0, 10.002415, 9.998358 
2.5852737e+3, 2.0871788e+2, -808592.1, -1070802.1, 75266.89, 0.03414286, 0.49076343, -788522.94, 106089.45, 0.0, 10.001712, 9.998209 
2.5851884e+3, 2.187156e+2, -787974.5, -965840.2, 90024.5, 0.056933135, 0.47025046, -750363.06, 46273.883, 0.0, 10.00099, 9.998606 
2.585103e+3, 2.2871462e+2, -686204.25, -724615.56, 63904.957, 0.025722409, 0.47490984, -638681.3, 59963.9, 0.0, 10.000407, 9.999868 
2.5850168e+3, 2.3871416e+2, -690518.4, -713981.3, 44022.316, -0.0130280955, 0.48467764, -656691.1, -56043.293, 0.0, 9.9998665, 9.99953 
2.5849316e+3, 2.487133e+2, -661965.0, -648017.44, 56200.902, -0.00095859787, 0.4934601, -598359.3, -95702.695, 0.0, 9.999384, 9.999541 
2.5848463e+3, 2.5871253e+2, -630008.3, -569630.9, 67549.18, 0.01814169, 0.49647543, -525831.44, -121166.34, 0.0, 9.998877, 9.999652 
2.5847608e+3, 2.6871198e+2, -585371.1, -411898.56, 51848.58, 0.0022082939, 0.4698248, -397583.1, -90913.195, 0.0, 9.998141, 10.000417 
2.584675e+3, 2.7871168e+2, -614656.8, -392944.1, 42594.207, -0.0051572947, 0.43916342, -385042.72, -176371.14, 0.0, 9.997342, 10.00026 
2.5845894e+3, 2.8871182e+2, -585979.8, -287654.22, 28474.076, -0.02151178, 0.45206466, -284960.8, -174290.23, 0.0, 9.996689, 10.000626 
2.5845027e+3, 2.987123e+2, -580624.56, -237862.64, 34465.145, -0.09223712, 0.47287422, -234431.48, -221764.63, 0.0, 9.996065, 10.000598 
2.5844184e+3, 3.087141e+2, -537546.8, -116278.11, 25569.613, 0.016712287, 0.5920362, -114731.8, -114731.8, 0.0, 9.9957, 10.001274 
2.5843316e+3, 3.1871268e+2, -568370.94, -30373.533, -28138.77, -0.060573023, 0.3667266, -28905.8, -28905.8, 0.0, 9.995062, 10.002167 
2.595968e+3, 1.2882671e+2, -1127908.4, -1724610.3, 9080.301, 0.017079629, 0.5576639, -1127770.3, 549777.9, 0.12710667, 10.00602, 9.997032 
2.5958812e+3, 1.388227e+2, -942463.25, -1614765.3, 9168.41, 0.07420498, 0.4964716, -942338.25, 637248.5, 0.08537213, 10.006559, 9.996857 
2.5957936e+3, 1.488191e+2, -908944.44, -1523826.4, 12192.556, 0.04653655, 0.47585055, -908702.75, 572918.4, 0.045947224, 10.005725, 9.997207 
2.5957066e+3, 1.5881586e+2, -941574.4, -1474452.6, 16773.43, 0.026548684, 0.4623622, -941046.94, 442604.97, 0.017654147, 10.004592, 9.99742 
2.5956205e+3, 1.6881342e+2, -859749.5, -1286287.3, 56891.066, 0.046186805, 0.46211112, -852291.8, 433383.22, 0.0039733206, 10.004005, 9.998321 
2.5955343e+3, 1.7881134e+2, -848170.1, -1265241.3, 61398.344, 0.060580384, 0.46750617, -839319.3, 348375.44, 0.00032790148, 10.00355, 9.998013 
2.5954476e+3, 1.8880914e+2, -824644.1, -1192866.4, 37707.56, 0.022565482, 0.48808044, -820822.4, 268894.9, 0.0000016192165, 10.0029955, 9.998101 
2.5953606e+3, 1.9880706e+2, -807286.3, -1125720.9, 21365.283, -0.017966853, 0.5063138, -805859.2, 185879.53, 0.0, 10.002406, 9.998176 
2.595275e+3, 2.0880507e+2, -762517.06, -977589.44, 48318.93, 0.017195743, 0.4907177, -752160.3, 141598.27, 0.0, 10.001718, 9.998849 
2.5951892e+3, 2.1880332e+2, -778112.3, -947546.94, 65840.9, 0.06259274, 0.46936935, -755535.44, 40240.445, 0.0, 10.000994, 9.998732 
2.5951028e+3, 2.2880211e+2, -737555.25, -833151.2, 43771.836, 0.0342762, 0.4965373, -720541.06, -22752.924, 0.0, 10.000412, 9.999123 
2.5950164e+3, 2.3880118e+2, -711576.44, -760192.6, 24646.266, -0.00815306, 0.52628297, -701267.75, -101470.2, 0.0, 9.999873, 9.999212 
2.5949305e+3, 2.4880002e+2, -632712.75, -590234.6, 37065.254, -0.006761785, 0.4876068, -568754.5, -66946.4, 0.0, 9.999392, 9.999937 
2.5948447e+3, 2.5879908e+2, -618191.06, -548570.0, 43907.484, -0.00079804927, 0.43975782, -527348.06, -123531.56, 0.0, 9.998887, 9.999794 
2.5947583e+3, 2.687991e+2, -604789.6, -452919.06, 19589.67, -0.016532604, 0.48746067, -450432.9, -144616.31, 0.0, 9.99814, 10.000137 
2.5946718e+3, 2.787995e+2, -625655.9, -417368.1, 13457.051, -0.01981794, 0.5479988, -416502.28, -208688.72, 0.0, 9.997344, 10.000094 
2.5945857e+3, 2.887992e+2, -586462.56, -288811.94, 2896.4802, -0.01825036, 0.5223562, -288783.75, -178967.83, 0.0, 9.996683, 10.000624 
2.5944984e+3, 2.9879898e+2, -583732.5, -242593.14, 14917.428, -0.08474998, 0.47711632, -241942.06, -230124.61, 0.0, 9.996053, 10.000574 
2.5944135e+3, 3.087993e+2, -539791.94, -127600.14, 13853.774, 0.013803578, 0.45245874, -127135.04, -127135.04, 0.0, 9.995722, 10.001189 
2.594326e+3, 3.187998e+2, -607990.06, -124387.15, -62989.207, -0.06731772, 0.44166338, -116317.47, -116317.47, 0.0, 9.995104, 10.001506 
2.605974e+3, 1.2891409e+2, -1092106.4, -1672376.9, 25793.244, 0.06498222, 0.5623367, -1090962.1, 585730.8, 0.1129402, 10.006058, 9.997378 
2.605887e+3, 1.3891034e+2, -1036252.06, -1642196.6, 25718.813, 0.064274125, 0.4945239, -1035162.4, 543565.75, 0.0752016, 10.005702, 9.997082 
2.6057988e+3, 1.4890681e+2, -988468.25, -1561628.3, 19553.66, 0.034694895, 0.47404408, -987801.94, 492959.97, 0.039882224, 10.005122, 9.997234 
2.6057106e+3, 1.5890364e+2, -946174.7, -1466852.3, 37595.8, 0.027148584, 0.46507004, -943474.06, 439318.5, 0.0149328215, 10.004513, 9.997508 
2.605624e+3, 1.6890143e+2, -861108.06, -1267423.3, 70839.96, 0.043007195, 0.4741366, -849111.5, 435701.6, 0.003207007, 10.003915, 9.99849 
2.6055375e+3, 1.7889957e+2, -878275.75, -1276743.4, 56171.33, 0.052604757, 0.48574007, -870508.75, 316321.6, 0.00023978736, 10.003335, 9.9980345 
2.6054502e+3, 1.88897e+2, -867862.2, -1237586.4, 53575.99, 0.03030972, 0.486623, -860255.06, 228601.53, 0.00000086705097, 10.002809, 9.997882 
2.6053628e+3, 1.9889453e+2, -826601.8, -1139686.0, 62752.25, 0.006928994, 0.4841399, -814492.56, 176389.97, 0.0, 10.002301, 9.998127 
2.6052764e+3, 2.0889288e+2, -735515.2, -940588.44, 68939.15, 0.021863105, 0.49107406, -714494.7, 178403.98, 0.0, 10.001806, 9.999058 
2.60519e+3, 2.1889159e+2, -727569.94, -917417.4, 59271.586, 0.042358816, 0.4994213, -710584.56, 84326.37, 0.0, 10.001321, 9.998779 
2.605103e+3, 2.2889008e+2, -695623.5, -837541.44, 64310.656, 0.01933034, 0.511797, -670816.94, 26109.371, 0.0, 10.00081, 9.998899 
2.605016e+3, 2.3888871e+2, -665723.06, -750642.6, 76824.46, -0.008934709, 0.519556, -620405.7, -21465.23, 0.0, 10.000249, 9.999093 
2.6049295e+3, 2.4888764e+2, -632238.25, -587449.75, 69421.484, -0.0069273543, 0.49307355, -536899.9, -35949.5, 0.0, 9.999391, 9.999953 
2.604843e+3, 2.588869e+2, -675378.7, -576145.56, 51985.09, -0.0030348252, 0.46303293, -553899.44, -150942.4, 0.0, 9.9985, 9.999788 
2.604756e+3, 2.688868e+2, -614375.9, -461431.28, 39895.465, -0.021722442, 0.5036703, -451650.1, -146692.03, 0.0, 9.998097, 10.000096 
2.6046693e+3, 2.7888703e+2, -569437.4, -394940.56, 47744.48, -0.027486388, 0.5530857, -382731.34, -175774.84, 0.0, 9.997756, 10.000047 
2.604582e+3, 2.8888673e+2, -523508.84, -264092.16, 32717.758, -0.02395365, 0.5322011, -260029.39, -151070.33, 0.0, 9.9971485, 10.000566 
2.6044944e+3, 2.988865e+2, -531243.1, -217465.28, 40950.527, -0.074806035, 0.49227095, -212208.95, -201248.42, 0.0, 9.996425, 10.000563 
2.6044086e+3, 3.088863e+2, -563274.0, -130394.08, 49978.92, 0.016701873, 0.41353574, -124698.61, -124698.61, 0.0, 9.995535, 10.001255 
2.604321e+3, 3.1888834e+2, -605412.7, -77840.36, -23760.861, -0.034864854, 0.5498649, -76772.375, -76772.375, 0.0, 9.994934, 10.001903 
2.6159805e+3, 1.290011e+2, -1053572.0, -1601723.5, 15502.407, 0.14515267, 0.5067523, -1053134.0, 622706.94, 0.099774495, 10.006023, 9.99793 
2.615892e+3, 1.3899873e+2, -1020216.5, -1594664.1, 9458.147, 0.025800647, 0.5264073, -1020060.8, 557801.1, 0.065833956, 10.005597, 9.997458 
2.6158032e+3, 1.4899535e+2, -980387.2, -1544668.5, -3728.3738, 0.0009596778, 0.4998451, -980362.56, 499532.22, 0.03437544, 10.00509, 9.99737 
2.615715e+3, 1.5899205e+2, -937339.7, -1458406.0, 15401.641, 0.026320945, 0.46656513, -936884.8, 445042.44, 0.012524022, 10.004541, 9.997555 
2.615627e+3, 1.6898991e+2, -867433.06, -1284048.6, 48346.285, 0.025107682, 0.48983383, -861896.3, 422050.94, 0.0025608111, 10.003922, 9.998375 
2.61554e+3, 1.7898813e+2, -881840.44, -1279451.4, 34441.953, 0.012034512, 0.5175296, -878879.06, 307084.72, 0.00017260529, 10.00331, 9.998031 
2.6154527e+3, 1.889853e+2, -854708.5, -1213081.8, 34667.29, 0.043963864, 0.48062882, -851385.75, 236606.14, 0.00000042407203, 10.002816, 9.998049 
2.6153654e+3, 1.9898258e+2, -821610.9, -1135738.4, 45196.855, 0.08107906, 0.43851843, -815237.25, 174782.33, 0.0, 10.002323, 9.998146 
2.6152778e+3, 2.0898126e+2, -749509.06, -972480.06, 51214.645, 0.043649174, 0.49399954, -738308.2, 153724.92, 0.0, 10.001814, 9.9988365 
2.61519e+3, 2.1898034e+2, -730951.9, -923127.3, 41782.246, -0.008670779, 0.5582824, -722260.75, 71781.914, 0.0, 10.00131, 9.998748 
2.615103e+3, 2.289785e+2, -676536.56, -798936.25, 45194.31, -0.019645283, 0.5185605, -661657.8, 34402.465, 0.0, 10.00081, 9.9991665 
2.6150158e+3, 2.3897672e+2, -663636.06, -748497.75, 50558.965, -0.017464943, 0.46314788, -640062.5, -41985.25, 0.0, 10.000253, 9.999109 
2.6149285e+3, 2.4897616e+2, -660271.75, -645823.8, 32383.08, -0.002765837, 0.5129206, -619868.75, -119784.945, 0.0, 9.999388, 9.999556 
2.6148412e+3, 2.5897592e+2, -686508.25, -600702.6, 24929.49, 0.0063209515, 0.5724031, -593985.56, -191898.58, 0.0, 9.998502, 9.999621 
2.6147538e+3, 2.6897496e+2, -600081.56, -433786.6, 27454.885, -0.011357213, 0.5142147, -429371.1, -125275.836, 0.0, 9.9981, 10.000287 
2.6146665e+3, 2.7897406e+2, -563549.75, -387594.84, 30390.744, -0.02408713, 0.4395816, -382493.7, -176391.45, 0.0, 9.997772, 10.000092 
2.6145786e+3, 2.8897423e+2, -533499.06, -289742.06, 4022.8489, -0.04929824, 0.4733054, -289675.7, -181574.25, 0.0, 9.997165, 10.000383 
2.61449e+3, 2.9897475e+2, -531174.2, -224811.69, 7995.48, -0.099169165, 0.5249734, -224603.16, -214506.36, 0.0, 9.99645, 10.000503 
2.6144046e+3, 3.0897525e+2, -552757.06, -106976.08, 11181.245, 0.08784303, 0.50900555, -106695.805, -106695.805, 0.0, 9.9955225, 10.001425 
2.6143155e+3, 3.1897599e+2, -532067.56, 65416.297, -73044.64, -0.058578182, 0.47631222, 74216.66, 74216.66, 0.0, 9.994946, 10.002895 
2.625986e+3, 1.2908939e+2, -1051757.9, -1605252.8, 45909.156, 0.13494061, 0.48748827, -1047975.8, 627000.0, 0.0876115, 10.005972, 9.997924 
2.6258966e+3, 1.3908741e+2, -1102217.1, -1626856.9, 20329.758, 0.029265357, 0.545227, -1101430.5, 475563.56, 0.057259973, 10.00491, 9.997567 
2.6258078e+3, 1.4908434e+2, -1000477.5, -1524971.8, 23631.648, 0.010839113, 0.52910197, -999414.9, 479609.0, 0.029413598, 10.004806, 9.997638 
2.6257196e+3, 1.5908128e+2, -887798.56, -1425414.9, 37924.38, 0.0425925, 0.49699634, -885136.5, 495917.6, 0.010414643, 10.004847, 9.997631 
2.625631e+3, 1.690789e+2, -871698.9, -1309178.0, 51405.496, 0.03618806, 0.50841564, -865739.7, 417337.22, 0.002025001, 10.004, 9.998162 
2.6255426e+3, 1.7907679e+2, -920344.7, -1295687.3, 41282.652, 0.014446884, 0.5237873, -915857.8, 269239.0, 0.00012298183, 10.003043, 9.998043 
2.625455e+3, 1.8907428e+2, -826604.3, -1161869.5, 61604.03, 0.041924376, 0.4939799, -815643.1, 271478.13, 0.00000019125741, 10.002854, 9.998379 
2.6253676e+3, 1.9907191e+2, -749276.1, -1089713.3, 71579.54, 0.078503475, 0.46181035, -734838.25, 254306.16, 0.0, 10.002778, 9.9982395 
2.6252794e+3, 2.0907034e+2, -734580.2, -994394.75, 66936.37, 0.038389876, 0.5072704, -718349.25, 172811.66, 0.0, 10.002047, 9.998571 
2.6251912e+3, 2.1906908e+2, -754369.2, -940838.25, 56652.76, -0.01652962, 0.55930424, -738506.5, 54667.95, 0.0, 10.001184, 9.998682 
2.6251033e+3, 2.2906733e+2, -696315.1, -785620.0, 58953.4, -0.023712462, 0.5177671, -667012.56, 28178.248, 0.0, 10.000582, 9.999365 
2.6250157e+3, 2.3906572e+2, -689783.0, -752271.25, 57940.313, -0.015057405, 0.46460086, -655199.5, -57994.145, 0.0, 10.00004, 9.999183 
2.6249278e+3, 2.490652e+2, -646835.7, -651980.56, 52145.05, -0.0035003475, 0.525477, -597199.6, -97987.96, 0.0, 9.999538, 9.999439 
2.6248395e+3, 2.5906497e+2, -621596.1, -578727.56, 65230.742, 0.003499061, 0.5957461, -531499.8, -130284.48, 0.0, 9.998993, 9.999533 
2.6247516e+3, 2.6906374e+2, -580851.9, -430390.84, 59192.16, -0.011462432, 0.5206944, -409896.0, -106670.164, 0.0, 9.998263, 10.00023 
2.6246637e+3, 2.790626e+2, -604969.0, -410866.28, 44394.637, -0.018899294, 0.42339572, -401194.38, -195959.14, 0.0, 9.997509, 10.000056 
2.6245752e+3, 2.890627e+2, -547429.06, -296864.88, 26088.037, -0.053744577, 0.46011338, -294177.47, -186943.05, 0.0, 9.997075, 10.000375 
2.6244864e+3, 2.9906338e+2, -499365.8, -205385.33, 34573.547, -0.113792725, 0.52443534, -201374.05, -192145.28, 0.0, 9.9966545, 10.000536 
2.6244003e+3, 3.0906445e+2, -504467.75, -68682.766, 26621.727, 0.1453972, 0.55794907, -67062.49, -67062.49, 0.0, 9.995795, 10.001554 
2.6243097e+3, 3.190641e+2, -536336.2, 52249.223, -22260.143, -0.100703195, 0.40644574, 53089.895, 53089.895, 0.0, 9.994975, 10.002786 
2.6359907e+3, 1.2917875e+2, -1076809.6, -1660627.0, 3892.3325, 0.058419935, 0.494009, -1076783.6, 597316.44, 0.07643794, 10.005923, 9.997525 
2.6359016e+3, 1.391765e+2, -1100905.4, -1639284.8, -2223.7976, 0.05865585, 0.55870193, -1100896.3, 475226.6, 0.04945508, 10.004938, 9.997468 
2.6358125e+3, 1.4917386e+2, -975235.0, -1476240.0, 27709.705, 0.04953547, 0.562906, -973707.1, 504441.4, 0.024971576, 10.0048, 9.997979 
2.6357242e+3, 1.5917125e+2, -892274.75, -1420387.5, 23232.828, 0.0687465, 0.5487621, -891254.6, 488919.06, 0.008584325, 10.00477, 9.9977045 
2.635635e+3, 1.6916834e+2, -895955.1, -1356389.9, 12410.854, 0.06823783, 0.52681416, -895620.8, 386581.47, 0.0015873124, 10.00398, 9.997849 
2.6355457e+3, 1.7916565e+2, -914310.06, -1293554.4, 19935.805, 0.049378823, 0.5076374, -913265.0, 270963.7, 0.00008731026, 10.003084, 9.998041 
2.6354572e+3, 1.8916392e+2, -796007.25, -1100465.9, 62114.344, 0.023443824, 0.52634215, -783822.56, 302422.13, 0.00000008629741, 10.002858, 9.998801 
2.6353693e+3, 1.9916242e+2, -747059.75, -1076187.9, 57675.1, 0.0040283576, 0.5464493, -737245.7, 251012.67, 0.0, 10.002735, 9.998356 
2.6352808e+3, 2.0916003e+2, -757905.3, -1040392.6, 33909.813, 0.009209122, 0.52731764, -753891.8, 136391.06, 0.0, 10.002032, 9.998265 
2.6351923e+3, 2.1915771e+2, -761802.7, -958821.9, 30378.615, 0.014658531, 0.502027, -757224.94, 35081.84, 0.0, 10.00119, 9.998559 
2.6351038e+3, 2.2915652e+2, -688458.2, -770425.56, 39330.49, 0.00411362, 0.51160717, -672639.1, 21678.87, 0.0, 10.000583, 9.999471 
2.6350152e+3, 2.3915568e+2, -680515.6, -734380.3, 38065.895, -0.007620542, 0.52460206, -660817.9, -64492.57, 0.0, 10.000042, 9.999308 
2.6349267e+3, 2.4915475e+2, -635025.3, -629105.7, 32159.94, -0.010306176, 0.52750653, -599769.6, -101434.98, 0.0, 9.999541, 9.999597 
2.6348382e+3, 2.5915393e+2, -621988.0, -584357.94, 41273.887, -0.016327161, 0.52806777, -557812.9, -157470.1, 0.0, 9.999008, 9.99949 
2.6347494e+3, 2.6915318e+2, -604682.1, -481766.8, 27691.412, -0.0262669, 0.5266687, -475816.3, -173466.42, 0.0, 9.998267, 9.999877 
2.634661e+3, 2.791526e+2, -613658.94, -430164.06, 19543.076, -0.021008454, 0.51911706, -428105.72, -223750.53, 0.0, 9.99751, 9.999926 
2.6345724e+3, 2.8915226e+2, -533798.6, -268612.4, 11458.353, -0.02926392, 0.49760398, -268118.22, -161760.17, 0.0, 9.997071, 10.000573 
2.6344827e+3, 2.9915234e+2, -489681.28, -183282.83, 12631.096, -0.09372255, 0.48525557, -182763.0, -174406.3, 0.0, 9.996642, 10.000696 
2.6343957e+3, 3.0915374e+2, -496705.3, -59317.65, -9921.204, 0.12929212, 0.54283965, -59092.723, -59092.723, 0.0, 9.995815, 10.001613 
2.6343045e+3, 3.191542e+2, -619630.4, -121928.17, 47239.61, -0.08304527, 0.4951175, -117484.086, -117484.086, 0.0, 9.994996, 10.001571 
2.6459962e+3, 1.2926884e+2, -1081784.0, -1686252.3, 10447.616, 0.044480655, 0.53247565, -1081603.4, 591614.6, 0.06621902, 10.005922, 9.997344 
2.6459065e+3, 1.3926598e+2, -1036224.9, -1614337.8, 18699.752, 0.06495819, 0.5533053, -1035620.6, 539626.44, 0.04238942, 10.005404, 9.997415 
2.6458168e+3, 1.4926346e+2, -993479.2, -1472460.3, 46855.48, 0.0556553, 0.56234694, -988938.6, 488333.0, 0.021023702, 10.004607, 9.998094 
2.645728e+3, 1.592611e+2, -1015886.1, -1468142.9, 29713.316, 0.07197073, 0.5624866, -1013942.3, 365351.94, 0.0070118336, 10.003863, 9.99781 
2.6456383e+3, 1.6925825e+2, -922620.94, -1359414.0, 36716.64, 0.06604291, 0.5391883, -919556.06, 361766.06, 0.0012349512, 10.003759, 9.9979315 
2.6455486e+3, 1.792556e+2, -820957.6, -1241538.6, 60871.645, 0.043474358, 0.5166827, -812324.75, 371023.56, 0.00006223652, 10.003702, 9.998097 
2.6454598e+3, 1.8925397e+2, -797381.2, -1098994.6, 80850.44, 0.018904207, 0.5445594, -777075.5, 308288.03, 0.000000036839044, 10.002847, 9.998813 
2.645371e+3, 1.992526e+2, -861044.1, -1117445.3, 55040.875, 0.0010064518, 0.5743867, -849728.06, 137648.03, 0.0, 10.001901, 9.99847 
2.6452821e+3, 2.0925024e+2, -806198.56, -1037055.9, 59072.305, 0.0064683054, 0.53949326, -791961.06, 97438.57, 0.0, 10.001593, 9.998496 
2.645193e+3, 2.1924794e+2, -732069.3, -936327.0, 82968.22, 0.016134413, 0.49743858, -702615.44, 88807.29, 0.0, 10.001366, 9.998626 
2.645104e+3, 2.2924681e+2, -692213.56, -790992.1, 77477.74, 0.00906231, 0.5256006, -649721.94, 43711.99, 0.0, 10.000642, 9.999299 
2.6450148e+3, 2.3924604e+2, -714084.0, -756251.9, 62718.97, 0.0015328659, 0.5597811, -668999.94, -73558.555, 0.0, 9.999842, 9.99925 
2.6449257e+3, 2.492448e+2, -638398.06, -620940.8, 55915.977, -0.005898668, 0.52976304, -573076.25, -75623.34, 0.0, 9.99948, 9.99968 
2.6448366e+3, 2.592437e+2, -599170.9, -571182.56, 55462.027, -0.015498152, 0.4931547, -527976.44, -128513.27, 0.0, 9.999161, 9.999504 
2.6447475e+3, 2.692432e+2, -567907.44, -474567.97, 49856.7, -0.015354018, 0.5290673, -452946.0, -151478.27, 0.0, 9.998569, 9.99978 
2.6446584e+3, 2.79243e+2, -565142.3, -420104.4, 61346.74, 0.0009731059, 0.5664582, -397636.94, -194166.56, 0.0, 9.997902, 9.9998045 
2.644569e+3, 2.8924218e+2, -500100.1, -269103.94, 40158.39, -0.041600104, 0.5159339, -262321.6, -156843.94, 0.0, 9.99738, 10.000419 
2.6444787e+3, 2.9924178e+2, -467713.78, -186823.22, 6721.755, -0.13711062, 0.46835923, -186662.45, -179181.33, 0.0, 9.99686, 10.000564 
2.644392e+3, 3.0924347e+2, -460789.88, -61008.145, -43330.395, 0.1813169, 0.5678544, -56365.684, -56365.684, 0.0, 9.996144, 10.001441 
2.6442993e+3, 3.1924394e+2, -552504.2, -154213.16, 72060.7, -0.07543256, 0.5520351, -141576.52, -141576.52, 0.0, 9.995749, 10.000978 
2.656002e+3, 1.2935962e+2, -1085041.0, -1691603.9, -7911.4355, 0.065043926, 0.59271836, -1084937.8, 587392.44, 0.056902427, 10.005863, 9.997333 
2.655911e+3, 1.3935593e+2, -1040382.6, -1622137.1, -3689.4639, 0.050222915, 0.5303922, -1040359.25, 534007.5, 0.036027167, 10.005364, 9.99738 
2.655821e+3, 1.4935327e+2, -998557.4, -1487577.1, 16766.35, 0.03610614, 0.5349707, -997983.2, 478409.13, 0.017541742, 10.004604, 9.997993 
2.655731e+3, 1.5935099e+2, -1005280.44, -1451549.9, 13923.218, 0.05324079, 0.54827666, -1004846.44, 373567.66, 0.005674812, 10.003878, 9.997919 
2.6556414e+3, 1.6934869e+2, -898955.75, -1307451.1, 38450.813, 0.03408503, 0.54979444, -895368.0, 385068.16, 0.0009549422, 10.003741, 9.9983 
2.6555514e+3, 1.7934655e+2, -824967.8, -1238136.6, 44655.105, 0.0021431402, 0.5483794, -820196.6, 362260.22, 0.00004479405, 10.003647, 9.99815 
2.6554623e+3, 1.893444e+2, -824654.2, -1152170.6, 42672.145, 0.026212163, 0.5485263, -819185.75, 265292.44, 0.000000014947995, 10.002828, 9.998459 
2.6553732e+3, 1.9934249e+2, -851830.9, -1101551.5, 31681.959, 0.056892466, 0.5476827, -847874.06, 138623.31, 0.0, 10.00191, 9.998578 
2.6552835e+3, 2.0934099e+2, -757346.0, -936759.5, 53468.36, 0.024688123, 0.5460547, -742620.2, 145891.05, 0.0, 10.001593, 9.999187 
2.6551935e+3, 2.1933965e+2, -721217.44, -909304.8, 66557.56, -0.016019303, 0.5437366, -700047.75, 90475.54, 0.0, 10.001342, 9.998826 
2.655104e+3, 2.2933814e+2, -724437.6, -857515.2, 46184.074, -0.008432644, 0.55771327, -709980.25, -17440.887, 0.0, 10.000637, 9.998846 
2.6550144e+3, 2.3933671e+2, -730109.0, -792753.5, 40004.133, 0.008088961, 0.5684158, -710623.6, -116069.26, 0.0, 9.99985, 9.998998 
2.654925e+3, 2.4933533e+2, -637719.1, -621999.6, 44106.43, 0.008398773, 0.532741, -585058.06, -88491.11, 0.0, 9.999486, 9.999672 
2.6548356e+3, 2.593342e+2, -591725.9, -559132.06, 37894.31, 0.002922145, 0.4938939, -534178.9, -135602.03, 0.0, 9.999171, 9.999584 
2.6547462e+3, 2.6933387e+2, -554524.3, -448724.78, 24089.805, 0.024480777, 0.5249535, -443497.9, -142918.16, 0.0, 9.998573, 9.999957 
2.6546565e+3, 2.793337e+2, -572474.2, -438584.94, 39473.695, 0.046022598, 0.55999255, -427813.72, -225232.6, 0.0, 9.997912, 9.999675 
2.6545653e+3, 2.893325e+2, -539418.8, -354901.7, 20504.932, -0.103865676, 0.51522815, -352650.5, -248057.0, 0.0, 9.997393, 9.999826 
2.6544738e+3, 2.993317e+2, -498489.66, -257446.05, -17502.445, -0.2696022, 0.4830383, -256181.8, -249579.33, 0.0, 9.996883, 10.000071 
2.654389e+3, 3.0933356e+2, -484289.13, -114333.625, -75719.93, 0.34285212, 0.64183944, -99435.72, -99435.72, 0.0, 9.996159, 10.001071 
2.654294e+3, 3.1933257e+2, -543750.2, -154720.7, 88855.016, -0.1272278, 0.5101002, -135386.9, -135386.9, 0.0, 9.99581, 10.0009575 
2.6660073e+3, 1.2945046e+2, -1124065.1, -1704938.5, 13349.223, 0.07062943, 0.6101313, -1123758.5, 547682.8, 0.048434343, 10.005502, 9.997417 
2.665916e+3, 1.3944675e+2, -1062329.3, -1627261.1, 16386.262, 0.04849392, 0.54025877, -1061854.4, 511623.38, 0.030324016, 10.005156, 9.997445 
2.6658252e+3, 1.494441e+2, -998094.2, -1485171.1, 38592.676, 0.032839958, 0.5444858, -995055.3, 480447.56, 0.014489281, 10.004592, 9.998012 
2.665735e+3, 1.5944184e+2, -982069.75, -1434160.8, 44849.508, 0.0510011, 0.5575728, -977663.4, 399861.03, 0.004546708, 10.004013, 9.997971 
2.6656446e+3, 1.6943952e+2, -938432.0, -1315788.1, 62272.22, 0.037125535, 0.55144805, -928421.25, 351125.2, 0.00073369173, 10.00343, 9.998388 
2.6655546e+3, 1.794374e+2, -931457.2, -1278510.0, 48273.973, 0.009953708, 0.5428682, -924867.5, 256699.42, 0.000032466538, 10.002873, 9.998241 
2.6654646e+3, 1.8943536e+2, -876464.25, -1168424.0, 59760.926, 0.028030308, 0.54687345, -864705.44, 218881.89, 0.0000000057994387, 10.00244, 9.99853 
2.665375e+3, 1.9943358e+2, -826759.5, -1074570.4, 74671.664, 0.054539874, 0.552281, -805998.4, 179607.08, 0.0, 10.002025, 9.998704 
2.6652846e+3, 2.0943226e+2, -760324.56, -916233.1, 76698.586, 0.025220845, 0.55277336, -728919.1, 158698.08, 0.0, 10.001484, 9.999378 
2.6651946e+3, 2.1943112e+2, -771447.56, -921744.1, 57276.27, -0.011460321, 0.55196244, -752108.6, 37518.496, 0.0, 10.000952, 9.998924 
2.6651043e+3, 2.2942953e+2, -719372.94, -858962.25, 54500.605, -0.0058849887, 0.560435, -700614.75, -8970.753, 0.0, 10.000693, 9.998807 
2.6650143e+3, 2.3942803e+2, -648881.2, -753892.1, 74780.59, 0.011320355, 0.56627935, -610014.0, -16353.773, 0.0, 10.000415, 9.99899 
2.6649243e+3, 2.4942677e+2, -623873.5, -613052.94, 82576.984, 0.01684294, 0.5444804, -535709.2, -40037.75, 0.0, 9.999577, 9.999688 
2.6648346e+3, 2.594258e+2, -662454.06, -597072.94, 80058.99, 0.017886478, 0.51949644, -543287.4, -145607.38, 0.0, 9.998706, 9.999545 
2.6647443e+3, 2.694252e+2, -556530.56, -462800.47, 52608.11, 0.020018416, 0.53923225, -439210.25, -139524.88, 0.0, 9.998621, 9.999835 
2.664654e+3, 2.794248e+2, -487717.22, -407371.44, 40309.727, 0.024335105, 0.5589665, -390634.44, -188944.75, 0.0, 9.998542, 9.999582 
2.6645625e+3, 2.8942356e+2, -530502.6, -359343.56, 39238.36, -0.09119039, 0.51814735, -350776.9, -247074.4, 0.0, 9.997497, 9.9997425 
2.6644707e+3, 2.994227e+2, -575321.2, -306533.53, 51156.016, -0.21921742, 0.49485758, -297126.66, -291415.06, 0.0, 9.996411, 9.999959 
2.6643848e+3, 3.0942446e+2, -398626.38, -89605.19, 27843.018, 0.29400998, 0.66081357, -87116.555, -87116.555, 0.0, 9.996826, 10.000916 
2.6642895e+3, 3.1942308e+2, -514153.28, -140651.06, 121355.12, -0.15985008, 0.49666762, -104684.766, -104684.766, 0.0, 9.996022, 10.000947 
2.6760122e+3, 1.2954147e+2, -1115461.0, -1684770.9, 395.79846, 0.060695745, 0.60059583, -1115460.8, 555089.25, 0.040769964, 10.005458, 9.997575 
2.675921e+3, 1.3953839e+2, -1058601.0, -1613511.8, 853.03235, 0.050070938, 0.57761407, -1058599.8, 513980.75, 0.02523056, 10.005104, 9.997564 
2.6758292e+3, 1.4953586e+2, -994172.75, -1475895.0, 17477.352, 0.037033625, 0.5826299, -993539.5, 481065.0, 0.011823536, 10.004569, 9.99809 
2.6757386e+3, 1.5953353e+2, -984938.75, -1439439.5, 24215.068, 0.059579387, 0.5846966, -983652.25, 392974.1, 0.0035980844, 10.004002, 9.997942 
2.675648e+3, 1.6953075e+2, -950078.3, -1339967.3, 42031.82, 0.06666126, 0.5436309, -945598.56, 333054.56, 0.0005582592, 10.003425, 9.998227 
2.6755574e+3, 1.7952819e+2, -924107.56, -1262369.3, 31078.111, 0.0533767, 0.5041624, -921275.94, 259401.88, 0.000023528748, 10.002866, 9.998358 
2.6754665e+3, 1.8952686e+2, -848680.2, -1108893.8, 45954.71, 0.022022018, 0.5423593, -840802.9, 241888.06, 0.000000001728097, 10.002427, 9.998948 
2.6753756e+3, 1.995258e+2, -823893.6, -1063310.1, 57739.45, -0.0018472732, 0.58615077, -810696.25, 174005.11, 0.0, 10.001997, 9.998797 
2.6752856e+3, 2.0952402e+2, -781694.1, -959691.06, 55999.703, 0.010265849, 0.5588, -765541.8, 121176.37, 0.0, 10.001476, 9.999084 
2.6751953e+3, 2.1952228e+2, -770985.5, -921749.8, 43066.113, 0.022352835, 0.5217748, -759550.9, 29183.662, 0.0, 10.000952, 9.998927 
2.6751047e+3, 2.2952099e+2, -693993.1, -807670.8, 47385.664, 0.013576699, 0.5346479, -676831.6, 13916.367, 0.0, 10.000694, 9.99916 
2.675014e+3, 2.3951995e+2, -633989.6, -723333.8, 54538.84, 0.0061745928, 0.5551183, -608162.94, -15403.804, 0.0, 10.000412, 9.999204 
2.6749235e+3, 2.4951912e+2, -623087.8, -611081.0, 45787.645, 0.018960796, 0.5656783, -570904.9, -76138.35, 0.0, 9.999572, 9.999705 
2.6748326e+3, 2.595184e+2, -675719.5, -626208.75, 60937.645, 0.020756014, 0.57319367, -585190.1, -188417.44, 0.0, 9.99871, 9.999346 
2.674742e+3, 2.6951727e+2, -588421.8, -531920.5, 53757.17, -0.03769307, 0.5744702, -499442.78, -200657.77, 0.0, 9.998629, 9.999359 
2.674651e+3, 2.7951616e+2, -486976.8, -412619.9, 18954.479, -0.073069505, 0.56663865, -408066.97, -207270.06, 0.0, 9.998566, 9.999537 
2.6745605e+3, 2.895153e+2, -495248.13, -286323.5, -10278.72, 0.0144568235, 0.52315766, -285819.03, -183014.11, 0.0, 9.997492, 10.000249 
2.6744694e+3, 2.995149e+2, -556826.25, -262314.5, 38646.297, 0.038706724, 0.5001516, -257327.72, -252520.03, 0.0, 9.996382, 10.000279 
2.674378e+3, 3.0951622e+2, -392830.16, -88604.06, 60100.7, -0.029364444, 0.615405, -77161.39, -77161.39, 0.0, 9.996867, 10.000905 
2.674286e+3, 3.1951556e+2, -523456.22, -151332.19, -105221.67, -0.054557122, 0.5297177, -123640.43, -123640.43, 0.0, 9.995978, 10.000897 
2.686017e+3, 1.2963271e+2, -1127596.6, -1663910.3, 12385.813, 0.030478975, 0.57467014, -1127310.6, 542345.2, 0.033864602, 10.00521, 9.997841 
2.6859257e+3, 1.3963026e+2, -1099069.3, -1609416.4, 16836.748, 0.07144095, 0.5909231, -1098514.4, 473165.66, 0.020696495, 10.004695, 9.997789 
2.6858336e+3, 1.4962783e+2, -1024183.94, -1473140.8, 38974.645, 0.04759986, 0.58969146, -1020825.56, 452877.44, 0.009501143, 10.004281, 9.998244 
2.685742e+3, 1.5962553e+2, -995371.56, -1431487.1, 47959.137, 0.052640032, 0.5804472, -990159.8, 385564.97, 0.0028010088, 10.003876, 9.9980545 
2.685651e+3, 1.6962296e+2, -971044.1, -1343800.3, 75757.12, 0.06952124, 0.5548242, -956235.9, 321513.94, 0.0004182017, 10.003259, 9.998278 
2.6855597e+3, 1.7962061e+2, -951985.2, -1265441.8, 77163.27, 0.0694882, 0.53073996, -934019.7, 245753.19, 0.000016829097, 10.002635, 9.998445 
2.6854685e+3, 1.8961917e+2, -882097.0, -1111972.9, 78223.93, 0.030076196, 0.5495508, -858003.6, 223783.05, 0.0000000002885943, 10.002148, 9.999059 
2.6853773e+3, 1.9961798e+2, -863383.4, -1073748.1, 71535.06, -0.0037554451, 0.57124245, -841362.75, 142435.13, 0.0, 10.001694, 9.998868 
2.6852867e+3, 2.0961626e+2, -812487.75, -973663.6, 84551.34, 0.017588068, 0.548473, -776271.0, 109543.28, 0.0, 10.0012665, 9.999086 
2.685196e+3, 2.1961462e+2, -782203.94, -917441.56, 91027.375, 0.042777255, 0.52058893, -736428.4, 51401.55, 0.0, 10.000839, 9.999007 
2.685105e+3, 2.2961348e+2, -729752.4, -805992.2, 88418.73, 0.020371305, 0.53494686, -671586.25, 18255.604, 0.0, 10.000373, 9.999324 
2.685014e+3, 2.3961256e+2, -700536.6, -745885.7, 78890.83, -0.0018460598, 0.55487365, -641126.44, -49274.88, 0.0, 9.99992, 9.999283 
2.6849225e+3, 2.496117e+2, -598973.94, -605259.44, 59646.766, 0.00510743, 0.56515676, -542387.2, -48527.918, 0.0, 9.999767, 9.999648 
2.6848313e+3, 2.5961092e+2, -557440.94, -571110.7, 73516.83, 0.006065224, 0.5732169, -490441.97, -94575.92, 0.0, 9.9995365, 9.999323 
2.68474e+3, 2.696098e+2, -596989.44, -533804.7, 97588.055, -0.04442346, 0.575598, -462822.7, -164944.03, 0.0, 9.998566, 9.999373 
2.684649e+3, 2.7960873e+2, -625499.6, -471650.13, 92889.05, -0.06400285, 0.56822324, -427968.94, -228078.2, 0.0, 9.997586, 9.999601 
2.684558e+3, 2.8960812e+2, -455100.72, -252900.1, 42360.16, 0.053936142, 0.54436463, -244384.45, -142488.72, 0.0, 9.997714, 10.000368 
2.6844662e+3, 2.996079e+2, -350593.1, -158554.61, 61453.32, 0.087292895, 0.5314359, -140572.95, -136676.63, 0.0, 9.9977865, 10.000311 
2.6843733e+3, 3.0960843e+2, -498255.44, -147031.23, 72509.61, -0.12006479, 0.56664354, -132650.56, -132650.56, 0.0, 9.996185, 10.000828 
2.6842824e+3, 3.1960863e+2, -496479.84, -89992.11, -123051.79, 0.027983252, 0.5676987, -55644.285, -55644.285, 0.0, 9.995962, 10.001323 
2.696021e+3, 1.2972423e+2, -1100994.8, -1615683.0, -2767.1484, -0.019577103, 0.53795224, -1100979.9, 567778.5, 0.027667508, 10.005214, 9.998177 
2.6959303e+3, 1.3972244e+2, -1085398.4, -1573043.9, 2130.732, 0.10433785, 0.58803713, -1085389.1, 485386.8, 0.016675157, 10.0046425, 9.998066 
2.6958373e+3, 1.4972009e+2, -1015822.94, -1449094.3, 25526.893, 0.060253594, 0.5737252, -1014324.1, 458474.1, 0.0074841995, 10.004238, 9.998434 
2.6957452e+3, 1.5971786e+2, -985842.25, -1403811.0, 29421.684, 0.029605675, 0.5522066, -983781.4, 391038.22, 0.002132583, 10.003836, 9.998266 
2.6956534e+3, 1.6971608e+2, -959565.0, -1314754.8, 52559.383, 0.049542166, 0.5822339, -951950.75, 324886.78, 0.00030586205, 10.003231, 9.998492 
2.695562e+3, 1.7971441e+2, -953146.8, -1264354.6, 57307.0, 0.06233955, 0.6105976, -942929.56, 235924.63, 0.000011617903, 10.002616, 9.998464 
2.6954705e+3, 1.8971218e+2, -894987.6, -1140107.8, 61852.22, 0.04904146, 0.5645287, -880264.5, 200610.94, 0.000000000007316074, 10.00215, 9.998866 
2.695379e+3, 1.9971013e+2, -859163.8, -1067620.9, 55679.246, 0.036600597, 0.512974, -845224.0, 137670.97, 0.0, 10.001701, 9.998909 
2.6952875e+3, 2.0970897e+2, -792591.25, -933780.0, 69427.41, 0.04279792, 0.52488166, -764171.9, 120733.77, 0.0, 10.001267, 9.999362 
2.6951966e+3, 2.1970807e+2, -776007.0, -901364.8, 75339.35, 0.046086226, 0.5462679, -740682.5, 46231.53, 0.0, 10.000821, 9.999128 
2.695105e+3, 2.2970693e+2, -733736.94, -814071.3, 71083.82, 0.013815373, 0.5597263, -692256.6, -3330.3743, 0.0, 10.00037, 9.99927 
2.6950133e+3, 2.3970582e+2, -704671.75, -758016.0, 67109.7, -0.020397449, 0.5662695, -659128.1, -68190.08, 0.0, 9.999931, 9.999196 
2.6949215e+3, 2.4970447e+2, -607145.5, -625250.25, 54248.184, -0.027818715, 0.54135025, -561199.6, -68249.29, 0.0, 9.999777, 9.999509 
2.69483e+3, 2.597033e+2, -542695.5, -545624.44, 51038.76, -0.029486407, 0.51754236, -493100.22, -98139.5, 0.0, 9.999554, 9.999492 
2.6947388e+3, 2.6970282e+2, -560702.2, -456915.1, 54084.332, 0.0072672, 0.53927493, -433854.94, -136888.63, 0.0, 9.998555, 9.999908 
2.6946473e+3, 2.797025e+2, -619725.44, -453651.03, 77515.75, 0.05327095, 0.56676346, -423093.03, -224123.05, 0.0, 9.997557, 9.999742 
2.694555e+3, 2.8970212e+2, -477490.53, -305198.84, 56664.83, 0.0071452223, 0.58590347, -288233.06, -187258.78, 0.0, 9.997732, 10.000004 
2.694462e+3, 2.9970175e+2, -361711.06, -201279.77, 32997.484, -0.100426376, 0.5934604, -194757.98, -191780.05, 0.0, 9.997866, 9.999982 
2.6943707e+3, 3.097009e+2, -519530.53, -180348.5, -8081.933, 0.06845006, 0.51684314, -180156.05, -180156.05, 0.0, 9.996135, 10.000625 
2.6942772e+3, 3.197023e+2, -412035.03, 65084.637, 74470.516, -0.062486887, 0.62591726, 76438.09, 76438.09, 0.0, 9.996029, 10.002367 
2.706026e+3, 1.2981725e+2, -1084675.4, -1630443.9, 35429.87, -0.011523594, 0.5259241, -1082385.0, 585460.56, 0.022137035, 10.005394, 9.997987 
2.705934e+3, 1.3981539e+2, -1165409.1, -1615363.5, 27195.537, 0.104677156, 0.5841487, -1163771.4, 406093.4, 0.013131676, 10.004085, 9.998042 
2.7058408e+3, 1.4981307e+2, -1097722.4, -1474853.1, 57646.594, 0.065313414, 0.564079, -1089107.6, 382779.47, 0.005744858, 10.003612, 9.998555 
2.7057484e+3, 1.5981089e+2, -1051237.5, -1413170.9, 52824.996, 0.03899581, 0.5357202, -1043685.25, 330222.5, 0.0015761937, 10.003292, 9.998461 
2.705656e+3, 1.6980937e+2, -998985.06, -1304083.8, 72560.93, 0.04573403, 0.56980723, -982607.25, 293315.38, 0.00021599303, 10.002836, 9.998754 
2.705564e+3, 1.7980799e+2, -979257.06, -1265627.3, 83819.586, 0.047419127, 0.6043999, -956527.44, 221408.95, 0.0000075416983, 10.002392, 9.99856 
2.705472e+3, 1.8980575e+2, -905236.94, -1155800.9, 99406.086, 0.051720995, 0.56301326, -870590.4, 209368.05, 0.0, 10.0021305, 9.998765 
2.7053806e+3, 1.9980365e+2, -833878.4, -1049898.1, 94031.57, 0.059328634, 0.5156684, -798681.9, 183297.08, 0.0, 10.001857, 9.998953 
2.7052885e+3, 2.0980269e+2, -781098.8, -908230.6, 96898.52, 0.050223112, 0.5344057, -728777.06, 155210.66, 0.0, 10.001266, 9.999536 
2.7051967e+3, 2.19802e+2, -790251.6, -895004.94, 99187.516, 0.035785098, 0.5624192, -730461.06, 55532.805, 0.0, 10.000671, 9.999241 
2.7051046e+3, 2.2980084e+2, -725684.4, -806431.6, 104109.75, 0.0016673504, 0.5703791, -654393.9, 33611.938, 0.0, 10.000413, 9.9993 
2.7050126e+3, 2.3979965e+2, -673435.25, -743959.75, 105341.98, -0.02791743, 0.568531, -597610.3, -7592.309, 0.0, 10.000156, 9.999181 
2.7049208e+3, 2.4979818e+2, -645430.5, -651002.0, 95963.4, -0.026138965, 0.53581434, -552212.44, -60180.367, 0.0, 9.999551, 9.999438 
2.704829e+3, 2.597969e+2, -630947.94, -581883.06, 89318.195, -0.016005082, 0.50378203, -513789.47, -119745.34, 0.0, 9.998926, 9.999542 
2.7047372e+3, 2.6979658e+2, -520811.88, -419121.66, 62842.42, 0.019313566, 0.5317226, -389131.16, -93083.734, 0.0, 9.998755, 10.000068 
2.704645e+3, 2.7979648e+2, -471250.44, -381058.4, 70438.67, 0.06076708, 0.56811386, -342516.75, -144468.2, 0.0, 9.99858, 9.999743 
2.704552e+3, 2.8979596e+2, -448304.7, -310347.25, 68366.1, -0.0057450878, 0.58910525, -282207.56, -182153.11, 0.0, 9.998022, 9.9998255 
2.7044588e+3, 2.9979545e+2, -434599.38, -249101.67, 41142.3, -0.12282798, 0.596768, -240386.06, -238325.75, 0.0, 9.997424, 9.999865 
2.704367e+3, 3.0979457e+2, -354357.2, -106934.22, -5609.92, 0.06629745, 0.52730954, -106807.086, -106807.086, 0.0, 9.997301, 10.000565 
2.7042726e+3, 3.197958e+2, -422050.78, 58264.043, 145002.86, -0.09954376, 0.6220742, 98644.35, 98644.35, 0.0, 9.995974, 10.002343 
2.7160314e+3, 1.2991141e+2, -1136155.3, -1712162.4, -18477.799, 0.028187975, 0.5316855, -1135563.1, 531358.2, 0.017258147, 10.005261, 9.99748 
2.7159372e+3, 1.3990898e+2, -1172419.1, -1645417.1, -1418.7598, 0.07732102, 0.57852817, -1172414.9, 396532.78, 0.010049198, 10.004139, 9.99781 
2.715844e+3, 1.4990665e+2, -1089166.3, -1466045.6, 49487.95, 0.06324211, 0.5585601, -1082776.4, 388193.6, 0.004267016, 10.003639, 9.998605 
2.7157515e+3, 1.5990452e+2, -1044222.8, -1393017.0, 40704.152, 0.071095526, 0.52821374, -1039535.6, 333454.0, 0.0011212239, 10.0032625, 9.998615 
2.7156585e+3, 1.6990288e+2, -980579.75, -1265997.6, 55730.566, 0.05196516, 0.5253811, -970083.8, 304921.06, 0.00014545815, 10.002834, 9.999017 
2.7155656e+3, 1.7990142e+2, -966924.4, -1244791.4, 70425.375, 0.022080222, 0.5295802, -950094.44, 226924.3, 0.0000045032148, 10.002409, 9.998696 
2.7154738e+3, 1.8989983e+2, -907537.9, -1159522.5, 91601.82, 0.040044133, 0.5496941, -877758.06, 201277.69, 0.0, 10.002122, 9.998746 
2.715382e+3, 1.9989838e+2, -838137.4, -1050232.8, 78880.31, 0.063530035, 0.568591, -812017.7, 169033.64, 0.0, 10.001816, 9.998972 
2.7152893e+3, 2.0989732e+2, -779942.8, -903467.44, 73031.47, 0.039838973, 0.5720044, -746059.0, 137002.34, 0.0, 10.001253, 9.999576 
2.715197e+3, 2.1989639e+2, -784059.6, -883726.06, 83507.64, 0.0064704237, 0.57202905, -736646.4, 48423.285, 0.0, 10.000674, 9.999319 
2.7151045e+3, 2.2989523e+2, -716406.7, -789372.6, 96414.14, -0.016493862, 0.56852114, -649803.8, 37276.97, 0.0, 10.00042, 9.999416 
2.7150124e+3, 2.398941e+2, -670267.44, -737847.44, 89112.17, -0.028119976, 0.56220526, -608754.0, -19662.34, 0.0, 10.000154, 9.999227 
2.7149203e+3, 2.4989279e+2, -648098.75, -655835.8, 70119.19, 0.010653978, 0.54878557, -581741.5, -90636.92, 0.0, 9.999544, 9.999409 
2.7148283e+3, 2.5989166e+2, -638681.0, -599728.8, 74142.01, 0.038827423, 0.5386076, -542547.5, -149431.72, 0.0, 9.99893, 9.999419 
2.714735e+3, 2.6989102e+2, -537601.4, -458017.66, 57962.906, -0.017197866, 0.55602264, -427502.4, -132380.1, 0.0, 9.998768, 9.999798 
2.714642e+3, 2.7989048e+2, -474819.28, -398991.78, 55691.445, -0.053610075, 0.5705031, -369533.53, -172405.75, 0.0, 9.99862, 9.999603 
2.7145502e+3, 2.8988948e+2, -445216.1, -306687.63, 40812.36, 0.023043374, 0.5454969, -295557.94, -196420.0, 0.0, 9.99803, 9.999849 
2.7144572e+3, 2.9988885e+2, -428486.38, -231175.8, 26296.666, 0.024595741, 0.5376269, -227731.23, -226587.1, 0.0, 9.997396, 10.000003 
2.7143618e+3, 3.0988958e+2, -332697.6, -79229.93, -2820.3103, -0.1530519, 0.61107785, -79198.555, -79198.555, 0.0, 9.997369, 10.000725 
2.714269e+3, 3.198888e+2, -548432.6, -184884.6, -41252.676, -0.010156425, 0.5314821, -180262.31, -180262.31, 0.0, 9.995898, 10.000705 
2.726036e+3, 1.300061e+2, -1242892.6, -1747562.4, 8853.421, 0.049713086, 0.539553, -1242737.4, 423255.5, 0.013037276, 10.004421, 9.997645 
2.7259412e+3, 1.400036e+2, -1092146.1, -1598325.1, 48071.996, 0.07032809, 0.56572837, -1087621.1, 480398.25, 0.0074248835, 10.004652, 9.997885 
2.7258474e+3, 1.5000127e+2, -1077843.5, -1465790.5, 91008.2, 0.05915526, 0.54976475, -1057555.0, 412486.78, 0.0030432271, 10.003741, 9.998554 
2.725754e+3, 1.5999915e+2, -1111622.4, -1428352.5, 85257.3, 0.07628624, 0.52613574, -1090131.1, 281930.63, 0.00076096924, 10.002815, 9.998586 
2.7256608e+3, 1.6999738e+2, -995673.56, -1275273.5, 95420.086, 0.056505952, 0.5137119, -966213.3, 307865.1, 0.00009222209, 10.002745, 9.998994 
2.7255678e+3, 1.7999583e+2, -920075.6, -1211245.5, 86367.7, 0.02509033, 0.5097181, -896384.56, 279708.56, 0.0000024128854, 10.002689, 9.99879 
2.7254754e+3, 1.8999456e+2, -937246.25, -1152153.0, 107005.414, 0.042346768, 0.5459662, -893054.06, 185052.95, 0.0, 10.00183, 9.998934 
2.725383e+3, 1.9999342e+2, -955684.4, -1100037.1, 111178.414, 0.06523215, 0.58151865, -895308.6, 84810.94, 0.0, 10.000984, 9.999027 
2.72529e+3, 2.099922e+2, -830205.75, -938750.06, 106447.766, 0.032232665, 0.5758834, -764993.2, 117138.11, 0.0, 10.00096, 9.999472 
2.725197e+3, 2.1999106e+2, -743518.75, -869813.7, 104189.25, -0.0060503506, 0.5640504, -684834.3, 99307.64, 0.0, 10.000982, 9.999264 
2.7251044e+3, 2.2998983e+2, -706835.4, -785319.0, 103782.46, -0.01318972, 0.55679137, -635123.5, 51030.26, 0.0, 10.000492, 9.999407 
2.7250123e+3, 2.399887e+2, -697095.9, -743667.1, 87807.48, -0.0072523113, 0.55008906, -629538.94, -41374.2, 0.0, 9.999945, 9.999284 
2.7249196e+3, 2.4998768e+2, -624649.9, -633349.0, 75407.26, 0.018207198, 0.5564969, -553466.8, -63291.938, 0.0, 9.999663, 9.999503 
2.7248266e+3, 2.599868e+2, -575030.0, -571656.3, 91735.23, 0.031614646, 0.56485337, -481592.4, -89408.555, 0.0, 9.999386, 9.999389 
2.724733e+3, 2.6998588e+2, -514904.5, -463548.13, 87005.914, -0.033113822, 0.56824386, -398510.28, -104317.35, 0.0, 9.9990015, 9.999643 
2.7246398e+3, 2.7998498e+2, -487955.66, -408148.38, 86686.945, -0.06828692, 0.55987793, -352621.78, -156420.0, 0.0, 9.998547, 9.999573 
2.724548e+3, 2.8998387e+2, -437909.7, -292481.66, 70574.43, 0.036743294, 0.5190492, -263864.16, -165651.61, 0.0, 9.998041, 9.999938 
2.7244547e+3, 2.999833e+2, -401549.94, -202324.81, 63979.746, 0.04597055, 0.51000035, -183547.89, -183330.38, 0.0, 9.997524, 10.000134 
2.7243578e+3, 3.0998477e+2, -381917.9, -82877.8, 40812.383, -0.20165733, 0.6417528, -77407.86, -77407.86, 0.0, 9.996953, 10.0008955 
2.7242652e+3, 3.1998315e+2, -437932.75, -224502.58, -67408.61, 0.019195523, 0.49035355, -204995.52, -204995.52, 0.0, 9.997065, 9.9998665 
2.73604e+3, 1.3010131e+2, -1194070.6, -1655333.6, 22830.123, 0.052647106, 0.5487712, -1192943.4, 472116.97, 0.009482121, 10.004456, 9.99826 
2.7359456e+3, 1.4009906e+2, -1089832.3, -1571186.5, 32639.754, 0.07391295, 0.547848, -1087629.1, 479452.94, 0.0052584335, 10.004545, 9.998124 
2.7358505e+3, 1.5009676e+2, -1089897.8, -1488941.6, 48579.547, 0.051430956, 0.5386695, -1084068.9, 385035.75, 0.0020675855, 10.003725, 9.998405 
2.7357563e+3, 1.600946e+2, -1116351.0, -1451966.5, 66616.336, 0.05787207, 0.52757317, -1103611.9, 267513.84, 0.0004886333, 10.002871, 9.998399 
2.7356634e+3, 1.7009273e+2, -1013287.2, -1312798.6, 99306.76, 0.058846302, 0.5279291, -983352.56, 289791.66, 0.000054314478, 10.002746, 9.998738 
2.7355704e+3, 1.8009108e+2, -924486.25, -1208519.9, 70143.06, 0.04837367, 0.53281415, -908108.56, 267051.9, 0.0000011019603, 10.002635, 9.9988365 
2.7354768e+3, 1.9008988e+2, -914109.75, -1104547.5, 70384.01, 0.054382972, 0.5492548, -890920.25, 186252.31, 0.0, 10.001828, 9.999263 
2.7353835e+3, 2.0008878e+2, -946740.3, -1090420.5, 94773.79, 0.06034773, 0.5627656, -899655.8, 79527.836, 0.0, 10.00102, 9.999078 
2.7352905e+3, 2.1008734e+2, -843852.4, -971682.4, 110293.38, 0.0265763, 0.5510355, -780292.9, 100904.805, 0.0, 10.0009775, 9.99924 
2.7351975e+3, 2.2008595e+2, -759555.8, -899323.8, 95654.39, -0.0072683957, 0.53665924, -710976.56, 72234.664, 0.0, 10.000962, 9.999073 
2.735105e+3, 2.300846e+2, -718831.8, -809519.1, 82493.695, 0.0090950085, 0.5340348, -670041.25, 15183.884, 0.0, 10.000486, 9.999245 
2.7350122e+3, 2.4008346e+2, -691999.94, -736454.06, 71851.22, 0.026166013, 0.5369618, -639016.4, -51779.4, 0.0, 9.999955, 9.9993305 
2.7349186e+3, 2.500828e+2, -607602.1, -600757.06, 64874.938, -0.0068868487, 0.5608922, -539214.44, -49971.336, 0.0, 9.999671, 9.999725 
2.734825e+3, 2.6008222e+2, -567890.9, -560725.0, 79411.34, -0.04405614, 0.5823962, -484815.8, -93567.38, 0.0, 9.999399, 9.99946 
2.734732e+3, 2.7008107e+2, -517916.1, -471232.9, 70865.875, -0.025289528, 0.5654579, -419963.5, -126703.914, 0.0, 9.999005, 9.999591 
2.734639e+3, 2.8008e+2, -482108.94, -397855.8, 68424.8, 0.018350612, 0.5396474, -359629.4, -164359.23, 0.0, 9.998551, 9.999643 
2.7345455e+3, 2.9007918e+2, -428247.5, -273088.22, 50170.375, 0.02940234, 0.51482713, -258279.17, -161001.55, 0.0, 9.998038, 10.000075 
2.7344504e+3, 3.0007884e+2, -393469.03, -186191.44, 43679.605, -0.06305788, 0.51443, -177362.88, -177362.88, 0.0, 9.997522, 10.000249 
2.7343556e+3, 3.1008e+2, -377121.13, -65494.33, 17809.441, -0.07218304, 0.6030109, -64479.824, -64479.824, 0.0, 9.996918, 10.001034 
2.7342612e+3, 3.2007924e+2, -404443.34, -194989.92, -14758.14, -0.032358516, 0.5278283, -193955.17, -193955.17, 0.0, 9.997214, 10.00001 
2.7460444e+3, 1.3019685e+2, -1151334.9, -1613833.1, 25759.637, 0.08960863, 0.5585306, -1149904.6, 514219.63, 0.0065848366, 10.004643, 9.998459 
2.745949e+3, 1.4019442e+2, -1229223.4, -1620929.8, 21938.457, 0.064888634, 0.51903635, -1227998.5, 338148.72, 0.0035392353, 10.003504, 9.998282 
2.7458537e+3, 1.5019245e+2, -1116854.5, -1491480.0, 52297.68, 0.038431156, 0.53452986, -1109690.8, 358475.8, 0.0013268336, 10.003501, 9.998492 
2.745759e+3, 1.6019064e+2, -1017906.06, -1397914.9, 78137.34, 0.0501229, 0.55086803, -1002466.75, 367717.84, 0.00029403114, 10.003524, 9.998452 
2.7456656e+3, 1.7018868e+2, -1038446.8, -1325451.4, 121407.25, 0.06335874, 0.54195637, -993979.4, 278224.53, 0.000029276536, 10.002579, 9.99873 
2.7455723e+3, 1.8018688e+2, -1061984.8, -1274096.6, 108609.41, 0.062951334, 0.5331387, -1016238.7, 157982.86, 0.00000039166414, 10.001691, 9.998838 
2.7454782e+3, 1.9018559e+2, -906299.6, -1100767.8, 96703.38, 0.05469416, 0.5420373, -866398.7, 209835.67, 0.0, 10.001888, 9.999257 
2.7453846e+3, 2.0018443e+2, -797217.6, -1024201.6, 98540.336, 0.047911298, 0.55153763, -760407.9, 217838.02, 0.0, 10.002078, 9.999022 
2.745291e+3, 2.1018289e+2, -808061.94, -968169.9, 113739.75, 0.026107995, 0.54073566, -749028.3, 131232.72, 0.0, 10.0012865, 9.999113 
2.745198e+3, 2.2018139e+2, -834784.3, -937488.94, 108370.914, 0.007954272, 0.5275007, -766214.5, 16061.174, 0.0, 10.000459, 9.999051 
2.745105e+3, 2.3018019e+2, -754069.8, -821426.06, 111233.07, 0.021224309, 0.53686714, -671528.25, 12760.077, 0.0, 10.000228, 9.999285 
2.7450117e+3, 2.4017917e+2, -678747.5, -732522.9, 111406.3, 0.032745395, 0.55030274, -591030.1, -4730.924, 0.0, 10.000063, 9.999303 
2.744918e+3, 2.501783e+2, -600114.0, -606918.9, 84908.664, -0.015232487, 0.5611389, -518539.63, -30232.244, 0.0, 9.99977, 9.999633 
2.7448237e+3, 2.601775e+2, -568156.3, -561752.6, 76646.945, -0.06250628, 0.5671139, -488240.7, -97925.87, 0.0, 9.999406, 9.999448 
2.7447304e+3, 2.701764e+2, -526778.75, -470875.75, 68897.83, -0.028802298, 0.5554629, -424475.4, -132150.08, 0.0, 9.998932, 9.999625 
2.744637e+3, 2.8017548e+2, -494592.66, -400374.97, 70503.1, 0.030308716, 0.54215324, -362690.34, -168355.8, 0.0, 9.998461, 9.999665 
2.744543e+3, 2.901749e+2, -411380.66, -264468.94, 44440.457, 0.012204068, 0.54119945, -252071.9, -155732.4, 0.0, 9.998158, 10.000073 
2.7444473e+3, 3.0017456e+2, -352305.94, -170027.06, 25854.3, -0.09750227, 0.54248774, -166430.86, -166430.86, 0.0, 9.997823, 10.000214 
2.7443534e+3, 3.101746e+2, -306401.13, -38527.89, -19133.28, 0.002703529, 0.5242621, -37168.168, -37168.168, 0.0, 9.997435, 10.00097 
2.744258e+3, 3.2017496e+2, -407773.53, -163030.28, 36396.723, -0.025069047, 0.5579808, -157732.27, -157732.27, 0.0, 9.997056, 10.000301 
2.7560493e+3, 1.3029276e+2, -1166652.6, -1627082.9, -23868.496, 0.14543848, 0.567519, -1165418.6, 497766.28, 0.0043171323, 10.004558, 9.998406 
2.7559516e+3, 1.4028984e+2, -1220874.0, -1606119.0, 3330.414, 0.040587183, 0.48353946, -1220845.3, 344367.4, 0.0022382103, 10.0035095, 9.998383 
2.7558565e+3, 1.5028846e+2, -1102118.3, -1460044.6, 60708.258, 0.01826494, 0.5372473, -1092101.8, 375124.66, 0.0007951185, 10.003491, 9.998715 
2.7557623e+3, 1.6028726e+2, -1009738.56, -1371499.5, 61007.29, 0.047974993, 0.59150565, -999727.3, 369511.16, 0.00016352431, 10.00348, 9.998657 
2.755668e+3, 1.702852e+2, -1027249.44, -1301813.1, 80053.06, 0.06915841, 0.55406696, -1005613.7, 265644.34, 0.000014106576, 10.002574, 9.998896 
2.7555734e+3, 1.8028319e+2, -1063194.5, -1283089.0, 95078.016, 0.06856158, 0.51363677, -1027786.25, 145490.81, 0.00000009505926, 10.001717, 9.998766 
2.7554795e+3, 1.902817e+2, -926530.4, -1144509.5, 109968.99, 0.04311918, 0.52668107, -880691.3, 194601.06, 0.0, 10.001893, 9.998956 
2.755386e+3, 2.0028037e+2, -812942.9, -1050313.8, 86522.64, 0.02446968, 0.54514647, -784752.9, 192553.48, 0.0, 10.002047, 9.998859 
2.755292e+3, 2.1027882e+2, -812810.94, -976411.7, 78942.234, 0.029627396, 0.5429362, -780931.1, 98390.25, 0.0, 10.001277, 9.999062 
2.7551982e+3, 2.2027744e+2, -826370.44, -921677.0, 89603.36, 0.03237898, 0.5410314, -772536.8, 8798.151, 0.0, 10.000463, 9.999159 
2.7551046e+3, 2.3027661e+2, -735715.6, -786871.75, 105898.89, 0.021488683, 0.5668424, -652349.56, 30993.86, 0.0, 10.000239, 9.999518 
2.7550113e+3, 2.4027579e+2, -687442.4, -751216.4, 102386.94, 0.00949728, 0.58760774, -612091.94, -26740.094, 0.0, 10.000062, 9.999177 
2.754917e+3, 2.502741e+2, -631456.2, -672220.0, 72591.125, -0.006117208, 0.5529162, -576439.9, -89071.57, 0.0, 9.999768, 9.9991865 
2.754823e+3, 2.6027256e+2, -574347.2, -578183.7, 59858.473, -0.028105, 0.51990724, -516376.25, -126992.86, 0.0, 9.999418, 9.9993305 
2.7547288e+3, 2.7027187e+2, -517809.44, -453148.03, 48194.45, -0.0480546, 0.5403968, -427444.44, -136053.94, 0.0, 9.99893, 9.999751 
2.7546346e+3, 2.802714e+2, -496535.03, -404464.88, 55412.26, -0.044094425, 0.5690238, -378460.06, -185064.73, 0.0, 9.998457, 9.999641 
2.75454e+3, 2.9027104e+2, -424007.78, -289603.2, 32964.51, -0.018245809, 0.6017402, -281953.6, -186554.97, 0.0, 9.998152, 9.999905 
2.754445e+3, 3.0027053e+2, -367820.53, -202925.86, 11289.915, -0.06023999, 0.60156536, -202156.45, -202156.45, 0.0, 9.997824, 9.9999895 
2.7543506e+3, 3.1026843e+2, -324851.38, -84603.88, -38637.496, 0.03469301, 0.39787546, -78542.96, -78542.96, 0.0, 9.997461, 10.000645 
2.7542546e+3, 3.2027018e+2, -373893.25, -75485.43, 112702.164, -0.020029923, 0.57377523, -37703.82, -37703.82, 0.0, 9.9970045, 10.000916 
2.766053e+3, 1.303893e+2, -1271060.0, -1689785.5, -6665.675, 0.15051146, 0.578111, -1270954.0, 391285.84, 0.0026310012, 10.0038805, 9.998303 
2.765955e+3, 1.4038645e+2, -1203107.1, -1587885.6, 27064.502, 0.056209933, 0.5061296, -1201212.9, 363054.7, 0.0013079796, 10.003589, 9.99847 
2.7658594e+3, 1.503851e+2, -1134907.3, -1450984.6, 94013.95, 0.03272173, 0.54407936, -1109057.9, 357222.22, 0.00043684343, 10.00316, 9.998936 
2.765765e+3, 1.6038391e+2, -1109362.4, -1412528.4, 82116.086, 0.06015664, 0.5828773, -1088549.1, 279741.94, 0.000081928505, 10.0027685, 9.998717 
2.7656698e+3, 1.703818e+2, -1039667.06, -1316867.1, 79368.78, 0.06643454, 0.548478, -1018550.56, 251760.67, 0.000005757098, 10.002534, 9.998809 
2.765575e+3, 1.8037978e+2, -986034.4, -1254223.1, 92505.79, 0.05394063, 0.5142203, -957221.94, 215108.94, 0.00000000965895, 10.002291, 9.998684 
2.765481e+3, 1.9037826e+2, -944179.56, -1166149.0, 124569.9, 0.03965417, 0.5356148, -888325.25, 186021.63, 0.0, 10.001833, 9.998836 
2.7653873e+3, 2.0037687e+2, -906153.44, -1091802.0, 103145.12, 0.034458634, 0.5576135, -860214.4, 116147.15, 0.0, 10.001393, 9.998887 
2.7652928e+3, 2.1037538e+2, -820641.9, -964689.9, 99927.805, 0.03384678, 0.5499076, -769487.06, 108888.445, 0.0, 10.001161, 9.999196 
2.7651983e+3, 2.2037405e+2, -760610.0, -895333.7, 123089.555, 0.029493725, 0.54582334, -687655.56, 92732.49, 0.0, 10.000944, 9.999106 
2.7651048e+3, 2.3037302e+2, -690886.1, -790307.56, 115424.35, 0.013266976, 0.57256246, -614922.94, 67475.96, 0.0, 10.000661, 9.9992895 
2.7650106e+3, 2.40372e+2, -656274.94, -745390.7, 83415.164, 0.0023273744, 0.59171313, -606262.75, -21853.004, 0.0, 10.00032, 9.99909 
2.7649164e+3, 2.503703e+2, -627365.8, -669737.8, 77189.04, 0.000596296, 0.55587, -568508.1, -82081.875, 0.0, 9.999801, 9.999186 
2.764822e+3, 2.603687e+2, -594915.9, -590202.44, 91121.83, -0.007157853, 0.5231944, -501406.84, -112965.52, 0.0, 9.999294, 9.999304 
2.7647272e+3, 2.7036804e+2, -508108.94, -455223.2, 68998.61, -0.038979344, 0.5474747, -407774.03, -117325.22, 0.0, 9.999032, 9.999684 
2.7646327e+3, 2.8036755e+2, -459910.3, -393389.53, 65247.996, -0.05009296, 0.5793867, -353413.63, -160959.36, 0.0, 9.99874, 9.999578 
2.7645382e+3, 2.9036716e+2, -405378.25, -289554.0, 45763.96, -0.024536483, 0.61708534, -273654.5, -179196.36, 0.0, 9.998327, 9.999817 
2.7644426e+3, 3.0036655e+2, -362561.28, -212878.97, 30478.367, -0.048187308, 0.6191191, -206910.9, -206910.9, 0.0, 9.997925, 9.9998665 
2.7643478e+3, 3.10364e+2, -294406.97, -92700.9, -5353.1943, 0.06306987, 0.39209926, -92558.92, -92558.92, 0.0, 9.997778, 10.000432 
2.764251e+3, 3.2036594e+2, -284167.88, -26595.95, 117143.24, -0.08276723, 0.6051636, 18711.064, 18711.064, 0.0, 9.997602, 10.000959 
2.7760562e+3, 1.3048643e+2, -1283560.4, -1712338.6, -16090.358, 0.11753143, 0.592468, -1282957.4, 378332.0, 0.0014585416, 10.003867, 9.998152 
2.7759585e+3, 1.4048396e+2, -1193575.9, -1577613.1, 15692.273, 0.09621743, 0.5691572, -1192935.8, 370378.22, 0.00068922807, 10.003628, 9.998522 
2.7758625e+3, 1.5048224e+2, -1117343.5, -1420598.6, 76691.695, 0.07085253, 0.5506661, -1099051.9, 366276.66, 0.00021373408, 10.003181, 9.999137 
2.7757674e+3, 1.6048062e+2, -1114686.3, -1422105.0, 67685.07, 0.081379816, 0.5349138, -1100443.8, 266898.44, 0.000035174562, 10.002759, 9.998657 
2.7756718e+3, 1.7047861e+2, -1059106.0, -1358945.6, 71172.0, 0.053416114, 0.5318263, -1043069.8, 226292.84, 0.0000017161015, 10.00254, 9.998519 
2.7755764e+3, 1.8047671e+2, -992515.44, -1270102.0, 79958.85, 0.01719829, 0.535113, -971130.75, 200251.61, 0.00000000000031198744, 10.002298, 9.998573 
2.7754825e+3, 1.9047527e+2, -942915.7, -1163895.9, 107396.6, 0.04323453, 0.5646071, -899321.06, 174076.63, 0.0, 10.001831, 9.998854 
2.7753887e+3, 2.0047393e+2, -895725.7, -1067898.5, 90984.7, 0.070529036, 0.5870884, -856556.0, 118855.51, 0.0, 10.001381, 9.999059 
2.7752936e+3, 2.1047254e+2, -799918.4, -923495.7, 91671.195, 0.035914898, 0.560919, -751156.4, 126267.21, 0.0, 10.001166, 9.999477 
2.7751988e+3, 2.2047114e+2, -778203.94, -931478.4, 112942.76, -0.0030634068, 0.53792363, -718351.9, 61084.043, 0.0, 10.000939, 9.998862 
2.7751046e+3, 2.3046942e+2, -738899.8, -890614.6, 104356.68, -0.0032593622, 0.5518845, -685743.0, -4287.9688, 0.0, 10.000661, 9.998603 
2.7750108e+3, 2.4046785e+2, -658656.25, -752456.8, 66442.055, 0.0028954768, 0.56784344, -624228.9, -40756.383, 0.0, 10.000327, 9.999041 
2.774916e+3, 2.504669e+2, -595034.94, -603983.4, 55626.348, 0.0025627364, 0.5751452, -543703.2, -58222.383, 0.0, 9.999803, 9.999638 
2.774821e+3, 2.6046607e+2, -592372.2, -585360.4, 77138.02, -0.00329848, 0.5800463, -511648.63, -124160.44, 0.0, 9.999292, 9.99934 
2.7747265e+3, 2.7046484e+2, -530222.2, -500587.0, 59726.57, 0.0020512545, 0.57542396, -453867.4, -164366.84, 0.0, 9.999028, 9.999375 
2.7746317e+3, 2.8046376e+2, -467823.63, -411691.28, 51404.07, 0.018230908, 0.57069606, -381190.5, -189678.47, 0.0, 9.998746, 9.999452 
2.774536e+3, 2.9046297e+2, -407079.28, -295110.13, 26364.098, -0.004353909, 0.5786551, -289213.03, -195693.63, 0.0, 9.99833, 9.999781 
2.77444e+3, 3.004624e+2, -359065.2, -212620.5, 18668.148, -0.07248712, 0.58535105, -210278.23, -210278.23, 0.0, 9.99795, 9.99986 
2.7743456e+3, 3.104617e+2, -297944.47, -103238.234, -8239.574, 0.07331894, 0.5425954, -102890.17, -102890.17, 0.0, 9.997791, 10.000354 
2.7742475e+3, 3.204622e+2, -341465.13, -161656.42, 8182.208, -0.13100451, 0.65091944, -161284.86, -161284.86, 0.0, 9.997628, 10.000042 
2.786059e+3, 1.3058396e+2, -1299934.1, -1718002.4, 13906.355, 0.08774732, 0.6079346, -1299472.0, 360862.16, 0.0007142293, 10.0037365, 9.998179 
2.7859622e+3, 1.4058153e+2, -1159362.6, -1566731.5, 37001.137, 0.12262926, 0.5872642, -1156029.1, 406329.5, 0.00031687476, 10.003885, 9.998472 
2.7858654e+3, 1.5057954e+2, -1117698.6, -1436298.8, 70684.08, 0.08494304, 0.5570088, -1102720.9, 361654.88, 0.000088819485, 10.003252, 9.998993 
2.7857697e+3, 1.6057771e+2, -1132613.0, -1433317.8, 56401.24, 0.08063313, 0.5308287, -1122382.3, 244009.36, 0.000011727656, 10.002652, 9.99863 
2.7856737e+3, 1.7057587e+2, -1062065.1, -1355886.6, 82787.71, 0.056424923, 0.54083616, -1040344.44, 228066.3, 0.00000025139548, 10.0025015, 9.998558 
2.7855784e+3, 1.8057413e+2, -981596.4, -1257401.1, 99892.55, 0.024842797, 0.55628383, -949217.8, 221211.13, 0.0, 10.002338, 9.998643 
2.7854836e+3, 1.9057266e+2, -942433.75, -1153338.3, 126471.77, 0.044716347, 0.5769022, -883218.8, 189225.16, 0.0, 10.001796, 9.99894 
2.7853894e+3, 2.005713e+2, -911671.8, -1081945.6, 118759.484, 0.06616649, 0.59223455, -850685.1, 123772.625, 0.0, 10.00131, 9.998992 
2.785294e+3, 2.1056977e+2, -797598.1, -947794.2, 95995.89, 0.032604933, 0.5712039, -750815.4, 125656.56, 0.0, 10.001298, 9.999245 
2.7851993e+3, 2.2056821e+2, -740148.5, -920282.3, 85790.45, -0.0009609036, 0.55110425, -705828.7, 72657.66, 0.0, 10.001233, 9.9987955 
2.785105e+3, 2.305665e+2, -745163.0, -887936.06, 113524.695, -0.003033361, 0.5636085, -682445.5, -1940.6681, 0.0, 10.000597, 9.99865 
2.7850106e+3, 2.4056494e+2, -704374.1, -774081.4, 120513.06, 0.0017303372, 0.57909364, -613775.9, -31254.215, 0.0, 10.000017, 9.999039 
2.7849156e+3, 2.5056398e+2, -561141.0, -593826.2, 83495.336, 0.0037244959, 0.5892596, -492403.9, -7873.423, 0.0, 10.000067, 9.999578 
2.7848202e+3, 2.6056305e+2, -487265.25, -545868.1, 70803.24, 0.0030732693, 0.5972678, -439939.8, -53401.17, 0.0, 10.000065, 9.999237 
2.7847254e+3, 2.7056172e+2, -460466.8, -483262.6, 57203.176, 0.013152181, 0.5939188, -413537.03, -124984.65, 0.0, 9.999584, 9.999224 
2.78463e+3, 2.805605e+2, -430391.8, -398884.6, 56424.73, 0.038270533, 0.58624715, -356055.56, -165490.13, 0.0, 9.999036, 9.999394 
2.784534e+3, 2.9055944e+2, -372010.88, -277420.28, 33577.875, 0.008936478, 0.56736916, -266712.8, -174137.52, 0.0, 9.998573, 9.999782 
2.7844375e+3, 3.0055878e+2, -324440.06, -190712.02, 38642.566, -0.07716768, 0.5671363, -180348.81, -180348.81, 0.0, 9.998168, 9.999902 
2.7843428e+3, 3.1055927e+2, -248794.02, -68441.11, 22026.879, 0.061408035, 0.6355627, -65789.89, -65789.89, 0.0, 9.998089, 10.000444 
2.784245e+3, 3.2055864e+2, -392460.8, -232038.86, 15229.061, -0.101661555, 0.6351236, -230605.94, -230605.94, 0.0, 9.997483, 9.999624 
2.796062e+3, 1.306818e+2, -1294072.5, -1693226.0, 20121.068, 0.057223573, 0.6231659, -1293060.8, 366314.63, 0.00029785137, 10.003684, 9.998374 
2.7959657e+3, 1.4067921e+2, -1174606.9, -1587030.0, 24328.748, 0.13638093, 0.5760815, -1173176.6, 388224.34, 0.00012123356, 10.003836, 9.998358 
2.7958682e+3, 1.5067713e+2, -1145776.3, -1494223.9, 43866.184, 0.077734694, 0.5666138, -1140338.8, 323081.94, 0.000028714292, 10.003247, 9.998599 
2.7957717e+3, 1.6067521e+2, -1132350.1, -1435275.8, 44799.27, 0.056544162, 0.56200314, -1125863.6, 239574.95, 0.0000024460635, 10.002662, 9.998613 
2.795676e+3, 1.7067352e+2, -1044687.25, -1318606.4, 80430.055, 0.07211618, 0.5676162, -1022816.94, 244638.66, 0.0000000042322403, 10.002493, 9.99882 
2.7955806e+3, 1.8067193e+2, -971442.56, -1230350.8, 85475.33, 0.06921429, 0.57393813, -945769.6, 223701.92, 0.0, 10.002311, 9.998843 
2.795485e+3, 1.9067045e+2, -932170.56, -1133154.6, 103561.484, 0.04078637, 0.57489264, -888358.7, 183127.25, 0.0, 10.0018, 9.999078 
2.79539e+3, 2.0066896e+2, -931975.2, -1127148.0, 109200.12, 0.020366631, 0.5770408, -883111.0, 90389.414, 0.0, 10.001321, 9.998678 
2.795295e+3, 2.1066707e+2, -844418.06, -1047803.2, 98558.98, 0.02517198, 0.5813942, -804494.06, 71026.21, 0.0, 10.001307, 9.998556 
2.7952003e+3, 2.2066534e+2, -733497.8, -904690.44, 73124.78, 0.026909305, 0.5882669, -706515.44, 71022.89, 0.0, 10.001224, 9.998908 
2.7951053e+3, 2.306643e+2, -693578.6, -781848.8, 87301.24, 0.011054331, 0.6087275, -639890.3, 39657.504, 0.0, 10.000598, 9.999379 
2.79501e+3, 2.4066323e+2, -705625.9, -777155.94, 111361.56, -0.0030509324, 0.62208563, -624427.1, -42869.438, 0.0, 10.000016, 9.99902 
2.794915e+3, 2.5066137e+2, -603195.4, -682632.1, 87802.28, 0.0033046536, 0.592993, -546545.75, -62969.582, 0.0, 10.000072, 9.998967 
2.7948198e+3, 2.606597e+2, -501180.75, -580814.7, 60191.87, 0.0030309157, 0.5720907, -468828.1, -83234.57, 0.0, 10.000089, 9.998987 
2.794724e+3, 2.7065867e+2, -458104.8, -482579.7, 34505.64, -0.012059365, 0.60523945, -433730.88, -146126.22, 0.0, 9.999598, 9.999224 
2.7946284e+3, 2.806577e+2, -428012.16, -397920.72, 36408.395, -0.0042758277, 0.6297778, -373571.72, -183957.0, 0.0, 9.99905, 9.999396 
2.7945325e+3, 2.906565e+2, -369917.1, -273342.28, 14566.942, 0.014188002, 0.58897275, -271192.9, -179567.05, 0.0, 9.998573, 9.99981 
2.7944353e+3, 3.006557e+2, -321251.44, -179708.9, 29418.344, -0.05137091, 0.5691128, -173838.08, -173838.08, 0.0, 9.998148, 9.999989 
2.79434e+3, 3.1065643e+2, -233420.45, -39050.707, 18168.219, 0.008100241, 0.649513, -37367.063, -37367.063, 0.0, 9.998093, 10.0006485 
2.7942425e+3, 3.2065517e+2, -389188.63, -213918.64, -7269.2876, -0.04705573, 0.5650362, -213617.66, -213617.66, 0.0, 9.997453, 9.999754 
2.806065e+3, 1.3077892e+2, -1322100.4, -1667354.0, 17464.992, 0.07005608, 0.5880999, -1321219.1, 337204.25, 0.000100037316, 10.003321, 9.998728 
2.8059685e+3, 1.4077708e+2, -1274146.6, -1622706.8, 18734.5, 0.13214046, 0.5882207, -1273142.6, 287299.06, 0.00003524401, 10.003098, 9.998469 
2.8058708e+3, 1.50775e+2, -1203666.1, -1530530.1, 46758.66, 0.07655747, 0.5829933, -1197108.8, 265353.72, 0.000006022763, 10.00289, 9.998521 
2.805774e+3, 1.6077305e+2, -1124786.3, -1422173.9, 64567.117, 0.06272453, 0.5790021, -1111372.8, 253109.06, 0.00000016363987, 10.002672, 9.998698 
2.8056782e+3, 1.7077157e+2, -1059162.3, -1303232.3, 103098.805, 0.08341875, 0.5892162, -1021441.44, 245054.89, 0.0, 10.002303, 9.999014 
2.8055826e+3, 1.8077016e+2, -1015814.56, -1243921.6, 102879.08, 0.08004955, 0.596878, -976270.2, 192239.95, 0.0, 10.001984, 9.998901 
2.8054863e+3, 1.9076847e+2, -925323.25, -1139942.9, 104709.86, 0.0274924, 0.5828216, -882701.25, 187824.95, 0.0, 10.001893, 9.998985 
2.8053907e+3, 2.0076676e+2, -868769.25, -1104504.8, 106613.516, -0.0077207405, 0.5727955, -827705.44, 144837.23, 0.0, 10.001785, 9.998611 
2.805296e+3, 2.1076494e+2, -827544.44, -1045112.75, 135393.89, 0.016489714, 0.590258, -762646.44, 111915.79, 0.0, 10.00145, 9.998505 
2.805201e+3, 2.2076328e+2, -747282.3, -907190.75, 132718.77, 0.037668448, 0.6084531, -672294.8, 104285.16, 0.0, 10.001119, 9.998939 
2.8051057e+3, 2.3076212e+2, -640945.2, -747464.4, 103388.15, 0.025628855, 0.61326176, -577904.8, 100684.91, 0.0, 10.000927, 9.999454 
2.80501e+3, 2.4076097e+2, -614640.8, -740270.25, 97805.97, 0.014598225, 0.6130604, -561215.7, 19384.207, 0.0, 10.000674, 9.998954 
2.8049147e+3, 2.5075907e+2, -608370.7, -706288.94, 102233.15, 0.0068104654, 0.5946459, -543978.1, -61358.56, 0.0, 10.000132, 9.998774 
2.8048193e+3, 2.6075733e+2, -575210.8, -621331.44, 96711.04, -0.005665885, 0.5841586, -498848.78, -114210.7, 0.0, 9.999608, 9.998938 
2.8047228e+3, 2.707563e+2, -483850.7, -491420.8, 73112.84, -0.0319245, 0.61844474, -414425.0, -127775.984, 0.0, 9.999408, 9.999254 
2.8046268e+3, 2.8075537e+2, -406132.47, -391273.28, 76539.234, -0.02550728, 0.64399654, -321803.9, -133144.9, 0.0, 9.999214, 9.999364 
2.804531e+3, 2.9075417e+2, -317316.72, -257020.31, 46313.72, 0.041717023, 0.61234534, -231906.64, -141236.6, 0.0, 9.998977, 9.999727 
2.8044337e+3, 3.007533e+2, -266007.22, -169256.67, 46543.316, -0.0026319006, 0.5963408, -150501.88, -150501.88, 0.0, 9.998602, 9.999839 
2.8043362e+3, 3.1075352e+2, -281039.28, -86240.46, 9117.59, -0.09792731, 0.64432, -85814.64, -85814.64, 0.0, 9.9978695, 10.000431 
2.8042403e+3, 3.207523e+2, -284570.63, -108439.66, -19023.514, -0.004207866, 0.5606876, -106408.4, -106408.4, 0.0, 9.997939, 10.000241 
2.8160682e+3, 1.3087575e+2, -1292831.9, -1606229.1, 8588.165, 0.09976445, 0.5220352, -1292596.8, 364877.84, 0.000023984428, 10.0033245, 9.999142 
2.815971e+3, 1.4087519e+2, -1269743.4, -1595009.4, 10221.447, 0.11004961, 0.61529994, -1269422.5, 290057.7, 0.0000064487667, 10.003018, 9.998697 
2.8158733e+3, 1.5087317e+2, -1201975.8, -1518811.9, 39131.793, 0.079864815, 0.60357225, -1197214.3, 264287.13, 0.00000052844416, 10.00285, 9.998623 
2.8157765e+3, 1.6087124e+2, -1113252.5, -1398600.8, 53361.047, 0.09239727, 0.5868805, -1103600.4, 259921.27, 0.0000000005064632, 10.002672, 9.998861 
2.81568e+3, 1.7087004e+2, -1044126.8, -1277108.0, 88872.48, 0.08640794, 0.60840046, -1014096.5, 251436.39, 0.0, 10.002323, 9.999185 
2.8155836e+3, 1.808688e+2, -1020129.56, -1256940.5, 95283.35, 0.05507061, 0.62486196, -986552.25, 180992.4, 0.0, 10.001999, 9.998807 
2.8154877e+3, 1.9086672e+2, -946341.9, -1184284.4, 103363.52, 0.0061308634, 0.59864515, -907711.8, 161852.88, 0.0, 10.001893, 9.998682 
2.8153917e+3, 2.0086475e+2, -860499.06, -1083057.8, 99071.164, -0.023225414, 0.5777975, -822787.9, 148796.11, 0.0, 10.001765, 9.99877 
2.815297e+3, 2.1086337e+2, -794150.7, -974590.2, 121862.63, 0.0047750236, 0.5975055, -732745.56, 140852.48, 0.0, 10.001442, 9.998993 
2.8152016e+3, 2.2086197e+2, -756754.94, -923557.44, 122316.75, 0.029622082, 0.6106145, -692111.75, 83500.48, 0.0, 10.0011015, 9.998836 
2.8151062e+3, 2.3085998e+2, -679503.06, -828558.2, 96565.56, 0.040151585, 0.57688814, -632050.0, 45580.934, 0.0, 10.00093, 9.998897 
2.8150105e+3, 2.4085818e+2, -619406.5, -752683.94, 82052.945, 0.043513626, 0.55489105, -580340.9, -692.70404, 0.0, 10.000683, 9.998866 
2.8149146e+3, 2.5085708e+2, -592108.94, -673106.5, 79408.37, 0.01207268, 0.598472, -543468.25, -61808.195, 0.0, 10.000131, 9.999004 
2.814818e+3, 2.6085603e+2, -567213.94, -603311.06, 83707.32, -0.025710719, 0.6375489, -499631.5, -115959.86, 0.0, 9.999599, 9.999067 
2.8147218e+3, 2.7085468e+2, -481419.22, -484878.38, 67309.56, -0.04618281, 0.6314198, -415817.03, -130131.625, 0.0, 9.9994, 9.999304 
2.8146255e+3, 2.8085345e+2, -409377.97, -400362.03, 69675.98, -0.024672143, 0.62509686, -335048.34, -147350.31, 0.0, 9.999222, 9.999299 
2.81453e+3, 2.9085252e+2, -331094.38, -289591.28, 37210.484, 0.093677625, 0.63801926, -267737.1, -178029.83, 0.0, 9.998989, 9.999499 
2.8144327e+3, 3.0085158e+2, -292769.47, -231851.3, 24532.123, 0.0579343, 0.64863575, -223200.52, -223200.52, 0.0, 9.99863, 9.999397 
2.8143317e+3, 3.108505e+2, -333298.34, -189387.11, -22838.281, -0.268646, 0.62492406, -185849.69, -185849.69, 0.0, 9.997845, 9.999736 
2.8142387e+3, 3.2084978e+2, -201647.17, 49540.758, 54392.57, 0.08257667, 0.6149238, 60813.137, 60813.137, 0.0, 9.997986, 10.00131 
2.826071e+3, 1.3097367e+2, -1324998.1, -1607827.3, 7283.944, 0.10258522, 0.53645855, -1324810.8, 331705.94, 0.0000033281458, 10.003038, 9.999271 
2.825973e+3, 1.4097328e+2, -1337098.4, -1598948.6, 9771.642, 0.0994717, 0.6304332, -1336734.3, 221786.17, 0.00000050691085, 10.002435, 9.998951 
2.8258753e+3, 1.5097155e+2, -1242099.8, -1502157.0, 60904.76, 0.0786901, 0.61581093, -1228542.8, 231995.73, 0.0000000023756648, 10.002425, 9.998939 
2.8257784e+3, 1.6096984e+2, -1134482.9, -1395982.4, 76977.555, 0.09826727, 0.5974291, -1113505.8, 249050.39, 0.0, 10.002477, 9.998971 
2.825682e+3, 1.7096865e+2, -1046682.25, -1287080.4, 92994.63, 0.07884358, 0.62427795, -1014908.25, 249659.58, 0.0, 10.002344, 9.999106 
2.8255853e+3, 1.809674e+2, -991319.56, -1237288.1, 90797.82, 0.040117253, 0.64454234, -961433.4, 205146.56, 0.0, 10.002168, 9.998862 
2.825489e+3, 1.909654e+2, -944395.4, -1166916.3, 125512.26, 0.008924903, 0.61142933, -887929.2, 180669.8, 0.0, 10.001841, 9.998825 
2.825393e+3, 2.0096347e+2, -890571.6, -1086665.1, 139467.89, -0.0074168663, 0.58553386, -818135.4, 152481.92, 0.0, 10.001522, 9.998856 
2.8252977e+3, 2.109622e+2, -814385.94, -981762.56, 133861.72, 0.0071219616, 0.6125869, -740205.0, 132425.52, 0.0, 10.001298, 9.99901 
2.8252023e+3, 2.2096086e+2, -761610.25, -931332.75, 115542.83, 0.021776048, 0.6318672, -703113.3, 71531.086, 0.0, 10.001094, 9.998785 
2.8251064e+3, 2.3095874e+2, -692367.7, -848490.44, 116621.31, 0.020800479, 0.5949835, -630093.4, 46571.4, 0.0, 10.000903, 9.998772 
2.8250104e+3, 2.4095681e+2, -615308.06, -743812.75, 120591.164, 0.021454854, 0.5691076, -542920.06, 35763.285, 0.0, 10.000686, 9.998923 
2.8249145e+3, 2.5095582e+2, -541414.1, -628669.44, 111370.99, 0.015756663, 0.6108472, -465430.44, 15262.844, 0.0, 10.000395, 9.999181 
2.824818e+3, 2.6095486e+2, -496073.63, -567298.25, 115051.625, -0.0014140372, 0.64846486, -411248.78, -28545.555, 0.0, 10.00008, 9.9990835 
2.824721e+3, 2.7095336e+2, -435176.4, -473593.38, 90499.9, -0.036863655, 0.6353056, -361868.97, -77150.45, 0.0, 9.999768, 9.999203 
2.8246245e+3, 2.80952e+2, -385445.03, -395049.16, 82546.84, -0.023807816, 0.6238393, -307560.7, -120828.055, 0.0, 9.999422, 9.999236 
2.8245285e+3, 2.90951e+2, -323408.7, -296881.0, 58497.434, 0.091289245, 0.64143425, -250162.52, -161420.11, 0.0, 9.999092, 9.999399 
2.8244308e+3, 3.0095002e+2, -284592.53, -260433.08, 54062.387, 0.0482307, 0.66039485, -217117.3, -217117.3, 0.0, 9.998823, 9.999109 
2.8243297e+3, 3.1094864e+2, -231918.38, -190798.16, 17315.682, -0.2788559, 0.6515461, -184477.95, -184477.95, 0.0, 9.99876, 9.999284 
2.8242365e+3, 3.209476e+2, -215807.84, 119320.305, 107175.02, 0.1232166, 0.621841, 150663.75, 150663.75, 0.0, 9.997569, 10.001986 
2.8360733e+3, 1.310724e+2, -1327112.5, -1610174.5, -17164.758, 0.09376072, 0.6069707, -1326075.5, 329476.47, 0.00000016214108, 10.003035, 9.999255 
2.835975e+3, 1.410715e+2, -1312746.1, -1554354.9, 3308.7227, 0.08570267, 0.6423171, -1312700.9, 244859.67, 0.0000000020979667, 10.0024605, 9.999245 
2.8358772e+3, 1.5107015e+2, -1206053.9, -1433001.6, 65096.44, 0.06321819, 0.6219389, -1188707.8, 270865.53, 0.0, 10.002446, 9.999405 
2.8357804e+3, 1.6106878e+2, -1135476.0, -1395682.3, 74523.375, 0.08102811, 0.6062788, -1115644.0, 245942.5, 0.0, 10.002464, 9.9989805 
2.8356835e+3, 1.7106743e+2, -1071774.0, -1334302.8, 87888.25, 0.064854994, 0.6373746, -1045067.9, 218533.19, 0.0, 10.002321, 9.998795 
2.835587e+3, 1.8106604e+2, -982010.06, -1211239.1, 81534.6, 0.034524687, 0.6599179, -955967.6, 209647.73, 0.0, 10.002138, 9.999056 
2.8354904e+3, 1.9106443e+2, -907889.8, -1091146.6, 112041.46, 0.02961776, 0.6220237, -854780.3, 212848.98, 0.0, 10.001839, 9.999347 
2.8353944e+3, 2.0106287e+2, -892424.94, -1090312.1, 127881.87, 0.028823033, 0.5944923, -829678.7, 139964.83, 0.0, 10.001519, 9.998834 
2.8352985e+3, 2.110614e+2, -841935.7, -1040118.3, 125696.516, 0.019751413, 0.63485926, -780968.56, 90691.414, 0.0, 10.0013, 9.99861 
2.8352028e+3, 2.2105995e+2, -761537.75, -929573.06, 108861.52, 0.0032688638, 0.6716277, -708042.5, 65633.49, 0.0, 10.001085, 9.998802 
2.8351066e+3, 2.3105839e+2, -673977.9, -809602.44, 109723.92, -0.033451017, 0.6671021, -612802.4, 62888.55, 0.0, 10.000897, 9.9990425 
2.83501e+3, 2.4105684e+2, -604471.6, -720360.44, 110841.266, -0.05003179, 0.65467286, -537342.7, 40362.793, 0.0, 10.000679, 9.999088 
2.8349143e+3, 2.5105527e+2, -534357.06, -615328.5, 100074.11, 0.018106136, 0.6292205, -466889.44, 12830.165, 0.0, 10.0004, 9.99927 
2.834818e+3, 2.6105383e+2, -499517.13, -580495.0, 102733.19, 0.059464235, 0.6137719, -429582.06, -47848.74, 0.0, 10.000103, 9.998982 
2.8347206e+3, 2.7105242e+2, -451972.16, -511333.88, 77354.555, -0.0038003277, 0.6312502, -398799.66, -115051.38, 0.0, 9.999777, 9.998941 
2.8346232e+3, 2.8105107e+2, -387286.1, -401497.38, 69374.11, -0.032098208, 0.640943, -324654.7, -138891.95, 0.0, 9.999432, 9.999188 
2.8345263e+3, 2.9104972e+2, -320880.84, -290330.4, 46367.44, 0.019671697, 0.61781204, -256786.88, -169011.38, 0.0, 9.999085, 9.999448 
2.8344283e+3, 3.0104864e+2, -291315.72, -272674.38, 51775.707, -0.038107198, 0.6294849, -229387.08, -229387.08, 0.0, 9.998814, 9.999032 
2.83433e+3, 3.1104827e+2, -237056.38, -213678.42, 19081.596, -0.08258633, 0.7345735, -202990.19, -202990.19, 0.0, 9.998809, 9.999106 
2.8342322e+3, 3.2104608e+2, -236061.23, 105287.85, -34487.855, 0.008384985, 0.6012894, 108737.44, 108737.44, 0.0, 9.997455, 10.001942 
2.8460762e+3, 1.3117167e+2, -1337983.8, -1645967.3, 13025.329, 0.09544239, 0.6392648, -1337433.9, 317146.6, 0.00000000032983427, 10.003085, 9.998987 
2.845977e+3, 1.4117038e+2, -1309709.3, -1553370.6, 30171.62, 0.07893356, 0.654985, -1306028.8, 250564.88, 0.0, 10.002482, 9.999242 
2.845879e+3, 1.5116917e+2, -1225239.1, -1429742.3, 81658.17, 0.045020055, 0.63784975, -1196634.1, 261970.42, 0.0, 10.002262, 9.999516 
2.845782e+3, 1.611679e+2, -1181331.0, -1408507.5, 75084.88, 0.061648063, 0.62350893, -1158757.5, 201858.27, 0.0, 10.00211, 9.999063 
2.8456852e+3, 1.7116643e+2, -1127577.5, -1353599.6, 107936.1, 0.06294631, 0.6371825, -1084314.1, 178316.95, 0.0, 10.00191, 9.998857 
2.8455883e+3, 1.8116495e+2, -1039983.1, -1236690.5, 115467.164, 0.045158148, 0.64690465, -986659.1, 177987.0, 0.0, 10.001738, 9.99907 
2.845492e+3, 1.9116351e+2, -936325.44, -1110631.0, 111203.21, 0.037103456, 0.6296591, -882192.1, 184467.27, 0.0, 10.001671, 9.999293 
2.8453958e+3, 2.0116213e+2, -876302.25, -1071916.5, 101058.46, 0.036028232, 0.62125987, -833471.4, 135201.14, 0.0, 10.001582, 9.998932 
2.8452995e+3, 2.1116075e+2, -828911.5, -1013451.6, 131032.984, 0.019594878, 0.6528912, -760921.1, 109766.37, 0.0, 10.001304, 9.998791 
2.8452033e+3, 2.2115938e+2, -763462.06, -914591.75, 144682.75, -0.0033775133, 0.68173164, -675799.6, 96902.61, 0.0, 10.001007, 9.99894 
2.8451067e+3, 2.3115796e+2, -691807.56, -807251.56, 135829.58, -0.034633428, 0.6810051, -601943.94, 72772.02, 0.0, 10.000732, 9.999136 
2.8450102e+3, 2.4115649e+2, -632906.1, -729910.56, 126279.77, -0.045368917, 0.67188066, -546134.4, 30595.309, 0.0, 10.000469, 9.999123 
2.8449142e+3, 2.5115484e+2, -547722.94, -624732.9, 106874.336, 0.008494309, 0.63650894, -472628.8, 6116.0566, 0.0, 10.000322, 9.999243 
2.8448176e+3, 2.6115328e+2, -492226.78, -573968.7, 105868.54, 0.045980845, 0.61287236, -419613.9, -38854.43, 0.0, 10.000146, 9.999005 
2.84472e+3, 2.7115202e+2, -413432.1, -487685.97, 100776.125, -0.0010506328, 0.63979566, -343161.47, -60388.39, 0.0, 10.000021, 9.998987 
2.8446224e+3, 2.8115073e+2, -323671.78, -369776.88, 107808.164, -0.02549374, 0.654846, -236479.05, -51692.355, 0.0, 9.999858, 9.999205 
2.844525e+3, 2.9114923e+2, -244825.75, -254593.78, 79649.79, -0.015715148, 0.6182058, -169910.38, -83109.94, 0.0, 9.999613, 9.99944 
2.8444263e+3, 3.0114812e+2, -243438.81, -245479.98, 76166.055, -0.07138989, 0.6239356, -168286.5, -168286.5, 0.0, 9.999135, 9.999059 
2.8443292e+3, 3.11148e+2, -367009.6, -274869.75, 53707.973, 0.050923236, 0.7538493, -250179.61, -250179.61, 0.0, 9.99792, 9.999111 
2.8442284e+3, 3.2114568e+2, -137554.89, 161971.67, -15318.024, -0.08279325, 0.61079454, 162753.02, 162753.02, 0.0, 9.998091, 10.002027 
2.8560787e+3, 1.3127133e+2, -1381628.4, -1717212.1, -17132.709, 0.08255481, 0.6442369, -1380756.0, 272848.16, 0.0, 10.003007, 9.998532 
2.855979e+3, 1.4126976e+2, -1318293.6, -1583887.8, 16799.0, 0.08194797, 0.6678569, -1317235.3, 238386.36, 0.0, 10.002538, 9.999005 
2.8558806e+3, 1.5126851e+2, -1229583.8, -1449400.9, 75283.805, 0.03143989, 0.6646848, -1206272.4, 251360.02, 0.0, 10.002305, 9.999361 
2.8557834e+3, 1.6126722e+2, -1168583.9, -1383077.0, 67812.305, 0.038854595, 0.6528846, -1148943.4, 210700.05, 0.0, 10.002113, 9.999236 
2.8556865e+3, 1.7126568e+2, -1099614.6, -1298276.1, 99368.88, 0.064073965, 0.62453085, -1058443.6, 203214.42, 0.0, 10.001921, 9.999232 
2.85559e+3, 1.8126412e+2, -1052991.8, -1264568.9, 109918.25, 0.060984295, 0.60701627, -1006224.6, 157448.4, 0.0, 10.0017395, 9.9988785 
2.855493e+3, 1.9126266e+2, -976869.4, -1192647.5, 110280.85, 0.03214614, 0.6357548, -930479.7, 135209.28, 0.0, 10.0016575, 9.998738 
2.855397e+3, 2.0126133e+2, -865472.8, -1041405.94, 95360.89, 0.013902467, 0.6629822, -823701.9, 144001.56, 0.0, 10.001547, 9.999159 
2.8553003e+3, 2.1126027e+2, -782546.25, -914395.1, 120364.65, 0.008064156, 0.66641164, -711234.8, 158478.06, 0.0, 10.00129, 9.999477 
2.8552037e+3, 2.212591e+2, -751292.4, -885488.44, 133510.06, 0.0016799796, 0.66270506, -668967.94, 102755.51, 0.0, 10.000989, 9.99915 
2.8551075e+3, 2.3125741e+2, -698144.44, -821100.44, 125128.48, 0.013860506, 0.6389491, -620206.94, 53533.11, 0.0, 10.000732, 9.9990425 
2.855011e+3, 2.412558e+2, -637233.44, -743366.75, 118481.375, 0.017976966, 0.62204045, -560477.5, 15278.615, 0.0, 10.000485, 9.999023 
2.8549135e+3, 2.512545e+2, -556797.9, -643934.25, 100101.29, -0.018426422, 0.63393366, -491194.4, -13425.297, 0.0, 10.000321, 9.999112 
2.8548163e+3, 2.6125327e+2, -479702.4, -549929.8, 100445.125, -0.048424978, 0.6473289, -408410.3, -28628.926, 0.0, 10.000152, 9.999168 
2.8547192e+3, 2.7125216e+2, -388121.47, -437500.22, 97013.75, -0.031001374, 0.6612292, -312704.75, -30912.068, 0.0, 10.000029, 9.999329 
2.854622e+3, 2.8125104e+2, -315331.94, -357762.5, 99954.78, -0.0037738082, 0.66818535, -234365.78, -50561.934, 0.0, 9.999878, 9.999279 
2.8545243e+3, 2.9124966e+2, -249808.06, -268966.8, 70229.28, -0.009884365, 0.6488707, -188507.84, -102691.54, 0.0, 9.999628, 9.999335 
2.854425e+3, 3.012484e+2, -228913.06, -219792.89, 39541.8, -0.06224227, 0.6437161, -184549.1, -184549.1, 0.0, 9.999154, 9.999228 
2.854327e+3, 3.112476e+2, -363187.66, -246689.63, 4195.46, 0.10053705, 0.67908835, -246538.72, -246538.72, 0.0, 9.997832, 9.999349 
2.854226e+3, 3.212466e+2, -114689.51, 189221.8, 118512.945, -0.094093196, 0.64292675, 229972.75, 229972.75, 0.0, 9.998163, 10.002187 
2.8660807e+3, 1.3137098e+2, -1456118.9, -1727643.4, -20910.17, 0.068690084, 0.666687, -1454518.0, 198111.08, 0.0, 10.002379, 9.998767 
2.8659812e+3, 1.4136934e+2, -1282851.4, -1570228.5, 33866.7, 0.09060135, 0.6713072, -1278914.3, 275731.88, 0.0, 10.002795, 9.998974 
2.8658825e+3, 1.513679e+2, -1226310.9, -1470323.5, 85240.78, 0.042520735, 0.6666845, -1199483.4, 257175.84, 0.0, 10.002429, 9.999155 
2.865785e+3, 1.6136648e+2, -1178321.5, -1387810.3, 74177.74, 0.04823162, 0.6549756, -1154715.9, 203956.03, 0.0, 10.002049, 9.999232 
2.865688e+3, 1.71365e+2, -1105821.3, -1290544.0, 89350.336, 0.0662017, 0.6270668, -1069675.4, 191009.94, 0.0, 10.001834, 9.999327 
2.865591e+3, 1.8136358e+2, -1061133.4, -1253149.3, 93173.195, 0.059838016, 0.6120214, -1023355.0, 139343.6, 0.0, 10.001616, 9.999019 
2.8654942e+3, 1.913623e+2, -1022701.44, -1197579.6, 135188.3, 0.02859839, 0.6445585, -949139.1, 115573.51, 0.0, 10.001272, 9.998889 
2.8653973e+3, 2.0136108e+2, -939747.1, -1063525.5, 152238.45, 0.006994858, 0.6689925, -837298.8, 129427.12, 0.0, 10.000982, 9.999275 
2.8653008e+3, 2.1135984e+2, -831693.06, -928853.6, 140644.73, 0.0018518155, 0.6485375, -731474.9, 137261.73, 0.0, 10.000917, 9.999556 
2.8652042e+3, 2.2135864e+2, -763985.44, -878980.4, 121425.1, 0.0042325538, 0.6309439, -687132.56, 83614.805, 0.0, 10.00085, 9.999261 
2.865108e+3, 2.3135728e+2, -700501.25, -810482.5, 122954.21, 0.02679408, 0.62761176, -620800.75, 51960.598, 0.0, 10.000668, 9.9991455 
2.865011e+3, 2.4135593e+2, -632195.06, -726146.6, 133014.55, 0.035618216, 0.62823856, -538104.94, 36670.098, 0.0, 10.000462, 9.999152 
2.8649133e+3, 2.5135472e+2, -557448.2, -630932.6, 131609.69, -0.024781814, 0.63877034, -457548.2, 19238.889, 0.0, 10.000263, 9.9992285 
2.8648156e+3, 2.6135358e+2, -488478.66, -537846.9, 143623.61, -0.07299622, 0.6497825, -367433.4, 11365.105, 0.0, 10.000021, 9.999314 
2.8647184e+3, 2.713526e+2, -418053.94, -435311.25, 126775.195, -0.04348034, 0.6592129, -299614.1, -18805.451, 0.0, 9.999754, 9.9994755 
2.8646213e+3, 2.813516e+2, -369314.88, -378140.88, 119562.4, 0.0024158321, 0.66667503, -254084.08, -71265.516, 0.0, 9.999492, 9.999321 
2.8645232e+3, 2.9135028e+2, -263845.78, -278250.2, 99896.07, -0.0079206955, 0.6585508, -170892.63, -86062.41, 0.0, 9.999547, 9.999309 
2.8644237e+3, 3.0134892e+2, -174430.3, -203412.53, 45790.727, -0.06677691, 0.6499945, -140892.44, -140892.44, 0.0, 9.99957, 9.999143 
2.864325e+3, 3.1134748e+2, -156275.03, -163468.52, -30087.635, 0.101355776, 0.6338929, -129569.914, -129569.914, 0.0, 9.999328, 9.9992 
2.864224e+3, 3.2134667e+2, -122755.73, 154705.33, 132555.27, -0.06713735, 0.633436, 207852.52, 207852.52, 0.0, 9.998251, 10.001903 
2.8760824e+3, 1.3147067e+2, -1408684.0, -1620924.1, 825.2847, 0.057750806, 0.706157, -1408680.8, 242973.05, 0.0, 10.002349, 9.99951 
2.8759834e+3, 1.4146915e+2, -1287113.6, -1560423.6, 30243.672, 0.092691734, 0.66649735, -1283806.9, 269860.44, 0.0, 10.002715, 9.999079 
2.8758848e+3, 1.5146737e+2, -1247675.5, -1509832.6, 67592.89, 0.061765753, 0.64577705, -1231273.9, 224410.83, 0.0, 10.002406, 9.998896 
2.8757867e+3, 1.6146569e+2, -1189707.3, -1413785.6, 63485.953, 0.07554092, 0.63308024, -1172970.5, 184730.42, 0.0, 10.002058, 9.99905 
2.8756896e+3, 1.7146446e+2, -1116514.3, -1312798.6, 83854.99, 0.06995275, 0.6450066, -1085569.1, 174143.25, 0.0, 10.001831, 9.999176 
2.875592e+3, 1.8146335e+2, -1034346.06, -1192730.5, 83989.36, 0.045546554, 0.65688103, -998101.6, 163620.81, 0.0, 10.001595, 9.999444 
2.875495e+3, 1.9146241e+2, -969390.2, -1088876.9, 121439.41, 0.024668738, 0.6536834, -893793.94, 169936.84, 0.0, 10.00128, 9.999631 
2.8753978e+3, 2.0146129e+2, -941332.0, -1068238.1, 144467.03, 0.008455461, 0.6410748, -846997.2, 118743.92, 0.0, 10.000987, 9.999242 
2.8753012e+3, 2.1145952e+2, -864277.94, -998226.6, 138660.73, -0.0024342285, 0.6033969, -777264.06, 90494.63, 0.0, 10.000921, 9.99908 
2.8752047e+3, 2.21458e+2, -763656.1, -874503.25, 116279.32, -0.008849173, 0.5866707, -690267.2, 79506.67, 0.0, 10.000833, 9.999301 
2.8751075e+3, 2.314575e+2, -680128.0, -766541.25, 115802.44, 0.0045644864, 0.6455148, -599734.4, 72045.3, 0.0, 10.000661, 9.999451 
2.8750107e+3, 2.414569e+2, -608026.2, -676341.4, 126068.03, 0.011993405, 0.68698174, -511570.28, 62216.168, 0.0, 10.000462, 9.999495 
2.8749132e+3, 2.5145558e+2, -533740.2, -583500.6, 123790.99, -0.010099753, 0.6501947, -432353.88, 43444.777, 0.0, 10.000268, 9.999553 
2.8748158e+3, 2.6145428e+2, -479486.78, -522746.25, 133639.58, -0.037586726, 0.6211346, -365737.88, 12072.756, 0.0, 10.000034, 9.999413 
2.8747177e+3, 2.714533e+2, -423867.13, -444406.78, 114691.59, -0.04194788, 0.6320895, -318986.5, -39165.535, 0.0, 9.99974, 9.999419 
2.8746203e+3, 2.8145227e+2, -365981.56, -372457.88, 115725.38, -0.0219638, 0.6436539, -253449.03, -71617.984, 0.0, 9.999494, 9.99936 
2.8745222e+3, 2.914511e+2, -258745.03, -269263.38, 107025.57, -0.0122987805, 0.6409701, -156849.48, -73007.22, 0.0, 9.999551, 9.999371 
2.874423e+3, 3.014498e+2, -201243.8, -261546.17, 40323.293, -0.07847042, 0.64500463, -181045.6, -181045.6, 0.0, 9.999583, 9.998736 
2.874323e+3, 3.1144798e+2, -194531.72, -259850.42, -36838.887, 0.015680749, 0.6541937, -177959.61, -177959.61, 0.0, 9.999408, 9.998497 
2.8742227e+3, 3.2144597e+2, -186286.56, 41312.918, 23715.684, 0.021893147, 0.59881973, 43757.81, 43757.81, 0.0, 9.998177, 10.001156 
2.8860837e+3, 1.3157004e+2, -1468858.8, -1624340.5, 18070.797, 0.0474786, 0.7017947, -1466786.1, 183894.06, 0.0, 10.001818, 9.999746 
2.8859854e+3, 1.4156862e+2, -1412446.4, -1612190.8, 18081.086, 0.10634888, 0.65538144, -1410822.9, 141869.42, 0.0, 10.001816, 9.999158 
2.8858864e+3, 1.5156704e+2, -1320547.3, -1549847.9, 60389.516, 0.06789716, 0.65790224, -1305615.3, 149093.16, 0.0, 10.001927, 9.998851 
2.8857887e+3, 1.6156557e+2, -1193440.9, -1398160.5, 66624.56, 0.07618834, 0.6614981, -1173668.1, 183055.23, 0.0, 10.001957, 9.999207 
2.8856906e+3, 1.7156443e+2, -1128159.5, -1291253.8, 108357.555, 0.07586935, 0.6590553, -1074092.1, 184641.1, 0.0, 10.001635, 9.999418 
2.885593e+3, 1.8156332e+2, -1064376.0, -1198435.4, 121748.85, 0.053213548, 0.6556704, -992424.5, 168318.02, 0.0, 10.001351, 9.999519 
2.8854957e+3, 1.9156231e+2, -966053.25, -1087938.3, 114098.42, 0.024491925, 0.6456208, -897641.8, 165109.9, 0.0, 10.0013075, 9.999623 
2.8853986e+3, 2.0156121e+2, -901458.06, -1040879.56, 105358.42, 0.009089035, 0.6330004, -844836.0, 119926.016, 0.0, 10.0012245, 9.999316 
2.8853017e+3, 2.115597e+2, -858558.6, -983296.7, 133382.31, 0.0071917647, 0.6091108, -773683.8, 93093.44, 0.0, 10.000909, 9.999189 
2.885205e+3, 2.215584e+2, -784238.0, -862564.7, 142260.17, 0.0023061472, 0.6021879, -675848.9, 92941.36, 0.0, 10.000599, 9.9994955 
2.8851077e+3, 2.3155805e+2, -705393.3, -751358.6, 137589.84, -0.0069781463, 0.6536836, -588879.9, 81914.52, 0.0, 10.000372, 9.999694 
2.8850105e+3, 2.4155761e+2, -636638.3, -664559.25, 142908.03, -0.008727949, 0.68896586, -507010.47, 65788.8, 0.0, 10.000155, 9.999722 
2.884913e+3, 2.5155643e+2, -559974.75, -574053.4, 129814.664, -0.004431927, 0.6465138, -437008.7, 37801.336, 0.0, 9.999996, 9.999746 
2.8848153e+3, 2.6155528e+2, -494054.47, -511354.53, 136577.6, -0.009513408, 0.61608905, -365853.28, 10967.119, 0.0, 9.999866, 9.999566 
2.8847173e+3, 2.7155453e+2, -405288.44, -425890.47, 124067.53, -0.036321424, 0.63813597, -291095.0, -12266.3955, 0.0, 9.999834, 9.999496 
2.8846192e+3, 2.8155366e+2, -343716.3, -336013.4, 132488.16, -0.034019183, 0.64994377, -207320.75, -26483.2, 0.0, 9.999538, 9.999586 
2.8845212e+3, 2.9155245e+2, -308099.22, -279141.0, 148230.9, -0.009634154, 0.62466013, -144683.73, -61835.04, 0.0, 9.999159, 9.999488 
2.884422e+3, 3.0155122e+2, -237183.69, -266623.34, 103218.734, -0.065752976, 0.62661403, -147640.48, -147640.48, 0.0, 9.999291, 9.998841 
2.884322e+3, 3.1154984e+2, -94658.32, -222118.36, 82941.48, -0.01249347, 0.6820717, -53790.043, -53790.043, 0.0, 10.000152, 9.998405 
2.8842214e+3, 3.2154736e+2, -16583.887, 37603.99, 22367.883, 0.052804157, 0.62162936, 45644.133, 45644.133, 0.0, 9.9997015, 10.000415 
2.896085e+3, 1.3166918e+2, -1474284.6, -1638657.5, 14330.837, 0.03170517, 0.6648947, -1473044.5, 176662.95, 0.0, 10.001841, 9.999633 
2.8959867e+3, 1.4166796e+2, -1406081.8, -1604726.5, 20224.797, 0.12529632, 0.64472276, -1404043.5, 147675.17, 0.0, 10.001842, 9.999195 
2.8958878e+3, 1.5166703e+2, -1317519.6, -1538002.6, 65216.08, 0.064967975, 0.6996885, -1299673.9, 154055.8, 0.0, 10.001902, 9.998945 
2.8957897e+3, 1.61666e+2, -1174705.1, -1344100.1, 60815.03, 0.057814106, 0.7298083, -1155133.1, 200607.3, 0.0, 10.001891, 9.99961 
2.895692e+3, 1.7166474e+2, -1092644.3, -1212877.1, 93880.32, 0.08003306, 0.66399777, -1041281.94, 216467.52, 0.0, 10.001614, 9.999967 
2.8955942e+3, 1.8166345e+2, -1082135.8, -1235702.1, 114287.234, 0.0706226, 0.6122493, -1021233.7, 138526.13, 0.0, 10.001352, 9.999264 
2.8954962e+3, 1.9166209e+2, -1011343.1, -1182575.0, 113620.78, 0.025617037, 0.6247873, -954692.5, 107082.336, 0.0, 10.001307, 9.998975 
2.895399e+3, 2.0166093e+2, -890954.6, -1014055.5, 98388.445, 0.0030947393, 0.6428481, -836450.1, 127337.27, 0.0, 10.001204, 9.999511 
2.8953025e+3, 2.1166037e+2, -815154.8, -891651.9, 121458.49, 0.029213408, 0.65994895, -726064.75, 139727.52, 0.0, 10.000902, 9.999822 
2.8952053e+3, 2.2165976e+2, -764577.9, -818986.75, 132317.75, 0.034802962, 0.66843164, -656696.9, 111100.59, 0.0, 10.000586, 9.999801 
2.8951076e+3, 2.3165892e+2, -694542.3, -728522.3, 129315.734, -0.012696941, 0.6521157, -581105.25, 88700.266, 0.0, 10.000368, 9.999853 
2.8950098e+3, 2.416581e+2, -629310.4, -650012.94, 135000.31, -0.04206327, 0.63697886, -504265.1, 67548.375, 0.0, 10.000157, 9.999822 
2.8949127e+3, 2.516573e+2, -556354.75, -565150.6, 123250.375, -0.008978447, 0.6275443, -437423.84, 36397.58, 0.0, 9.999991, 9.999811 
2.894815e+3, 2.6165667e+2, -477057.0, -479193.94, 135772.72, 0.0073390687, 0.6335006, -342348.53, 33479.58, 0.0, 9.999878, 9.999781 
2.8947166e+3, 2.716564e+2, -390249.03, -397244.4, 119228.37, -0.027213478, 0.68174005, -274467.06, 3364.3406, 0.0, 9.999842, 9.999689 
2.8946182e+3, 2.816558e+2, -311611.7, -274086.75, 110325.52, -0.03375067, 0.692148, -180939.66, -1102.37, 0.0, 9.999555, 10.000005 
2.89452e+3, 2.916543e+2, -302258.5, -253581.67, 144563.08, -0.0031421764, 0.60580117, -131322.55, -49473.137, 0.0, 9.999111, 9.99968 
2.894421e+3, 3.0165318e+2, -184876.14, -148375.52, 129872.375, -0.04992207, 0.5752199, -35477.414, -35477.414, 0.0, 9.999255, 9.999667 
2.8943223e+3, 3.116529e+2, -36240.02, -105457.21, 124638.89, 0.05621811, 0.65017366, 58505.97, 58505.97, 0.0, 10.000178, 9.999194 
2.89422e+3, 3.216509e+2, -79730.08, -108452.96, -70980.56, -0.015440764, 0.6426995, -21672.66, -21672.66, 0.0, 9.999759, 9.999391 
2.9060864e+3, 1.3176858e+2, -1476204.6, -1663869.8, 8466.087, 0.039144017, 0.66908085, -1475823.5, 172909.77, 0.0, 10.001924, 9.999425 
2.9059884e+3, 1.4176744e+2, -1384741.1, -1569595.6, 6299.066, 0.12509757, 0.6628221, -1384526.8, 166217.95, 0.0, 10.001879, 9.99942 
2.905889e+3, 1.5176657e+2, -1368528.1, -1515900.1, 63471.344, 0.06482326, 0.68623805, -1344960.6, 107793.26, 0.0, 10.001349, 9.999363 
2.9057908e+3, 1.6176568e+2, -1300499.1, -1388279.0, 73476.05, 0.056652807, 0.69653696, -1258802.5, 95960.13, 0.0, 10.000955, 9.999757 
2.9056928e+3, 1.7176473e+2, -1156796.3, -1241315.5, 78913.37, 0.069466546, 0.65665334, -1109539.4, 147230.34, 0.0, 10.001163, 9.9999895 
2.905595e+3, 1.817637e+2, -1083246.5, -1230975.6, 82095.45, 0.058156144, 0.6265411, -1046677.2, 112101.195, 0.0, 10.00132, 9.999313 
2.9054973e+3, 1.9176239e+2, -1027397.25, -1184478.5, 120832.55, 0.026897175, 0.6409472, -961822.9, 98970.09, 0.0, 10.001169, 9.999029 
2.9053998e+3, 2.0176132e+2, -912435.75, -1004812.75, 131039.9, 0.012959084, 0.6584209, -819682.44, 143122.4, 0.0, 10.000968, 9.999688 
2.9053026e+3, 2.1176095e+2, -830066.06, -870535.5, 128057.83, 0.0313727, 0.6731756, -720654.1, 144153.14, 0.0, 10.000677, 10.000075 
2.9052052e+3, 2.2176053e+2, -778521.7, -809224.06, 121464.52, 0.03617824, 0.67768604, -671442.06, 95368.18, 0.0, 10.000418, 9.999949 
2.9051074e+3, 2.3175961e+2, -702161.94, -718214.8, 115343.87, -0.0028730647, 0.64262855, -594565.56, 74253.06, 0.0, 10.000255, 9.999979 
2.9050094e+3, 2.4175884e+2, -630245.3, -641625.0, 122424.28, -0.026783563, 0.6191067, -513378.72, 57447.52, 0.0, 10.000116, 9.999898 
2.9049122e+3, 2.5175843e+2, -530129.1, -538899.6, 112611.77, -0.0097908415, 0.6385967, -421817.25, 51013.926, 0.0, 10.000114, 9.999931 
2.9048142e+3, 2.6175812e+2, -448295.1, -432481.78, 125404.85, -0.0026620794, 0.66235906, -314734.6, 60100.164, 0.0, 9.999934, 10.000073 
2.9047158e+3, 2.7175796e+2, -425776.47, -363584.3, 114702.44, -0.018043943, 0.682422, -275837.56, 998.59155, 0.0, 9.999381, 10.000139 
2.9046175e+3, 2.817576e+2, -342031.06, -255610.73, 126639.586, -0.0029057725, 0.6765602, -165012.44, 13826.917, 0.0, 9.999218, 10.000285 
2.9045182e+3, 2.9175675e+2, -259245.48, -170629.47, 130781.125, -0.026344046, 0.6174615, -76854.52, 3991.2263, 0.0, 9.999145, 10.000231 
2.916088e+3, 1.318682e+2, -1505774.8, -1704017.1, 12653.463, 0.055942237, 0.7058233, -1504970.4, 142787.33, 0.0, 10.001839, 9.9991865 
2.9159895e+3, 1.4186703e+2, -1370227.1, -1521590.8, -1115.599, 0.10763603, 0.6978278, -1370218.9, 179551.36, 0.0, 10.001803, 9.999785 
2.91589e+3, 1.5186581e+2, -1324145.5, -1423586.8, 42291.008, 0.06398678, 0.62773114, -1308592.3, 143188.05, 0.0, 10.001347, 10.0 
2.9157913e+3, 1.618648e+2, -1300935.8, -1396373.5, 71853.83, 0.06333661, 0.58815545, -1262398.8, 91390.05, 0.0, 10.000985, 9.999687 
2.9156932e+3, 1.7186448e+2, -1182367.9, -1296960.5, 89655.3, 0.046915006, 0.6449143, -1133264.3, 122528.26, 0.0, 10.001171, 9.999603 
2.9155952e+3, 1.8186405e+2, -1065287.5, -1188955.1, 82944.07, 0.019908406, 0.690634, -1023665.3, 134132.03, 0.0, 10.001299, 9.999612 
2.9154977e+3, 1.9186315e+2, -985571.25, -1094305.5, 114772.73, 0.026755402, 0.68561524, -912940.1, 146866.66, 0.0, 10.001154, 9.999656 
2.9154006e+3, 2.0186225e+2, -906909.56, -988571.75, 120701.2, 0.032241967, 0.67461336, -820320.25, 141495.47, 0.0, 10.000947, 9.99981 
2.9153028e+3, 2.1186145e+2, -836826.1, -884432.3, 116204.48, 0.011666744, 0.6537281, -742011.9, 121810.39, 0.0, 10.000674, 9.999982 
2.915205e+3, 2.2186074e+2, -779082.7, -808356.06, 113524.836, -0.00092120323, 0.6353824, -679254.9, 86573.336, 0.0, 10.000408, 9.999961 
2.9151073e+3, 2.3186015e+2, -694503.9, -702887.75, 108953.61, 0.023971345, 0.6257281, -589661.56, 78172.086, 0.0, 10.000257, 10.000085 
2.91501e+3, 2.4185973e+2, -624974.9, -632981.56, 120450.45, 0.03387421, 0.6323003, -508461.28, 61376.543, 0.0, 10.000126, 9.999952 
2.9149115e+3, 2.5185975e+2, -519453.78, -515873.4, 112401.42, -0.0131960055, 0.68210274, -405247.9, 66591.08, 0.0, 10.000112, 10.000088 
2.9148132e+3, 2.618597e+2, -421239.03, -382872.13, 106884.23, -0.053156365, 0.70435274, -293463.47, 80376.95, 0.0, 9.999958, 10.000405 
2.9147148e+3, 2.7185914e+2, -378412.16, -267298.13, 90773.07, -0.013232541, 0.6331777, -216429.9, 59414.33, 0.0, 9.999383, 10.000804 
2.9146165e+3, 2.818589e+2, -343085.03, -256220.53, 147857.97, 0.03625634, 0.5970825, -145547.81, 32297.865, 0.0, 9.999221, 10.000279 
2.9145163e+3, 2.9185963e+2, -198183.17, -57936.42, 86286.22, -0.082409374, 0.6718469, -16872.572, 62966.51, 0.0, 9.999219, 10.00097 
2.926089e+3, 1.3196737e+2, -1588173.1, -1699002.0, 26536.24, 0.050143875, 0.66742957, -1582147.0, 64638.555, 0.0, 10.001079, 9.999586 
2.9259902e+3, 1.419668e+2, -1477887.9, -1557868.0, 29842.709, 0.11074445, 0.69439155, -1467980.1, 80811.76, 0.0, 10.000994, 9.9999275 
2.925891e+3, 1.519659e+2, -1351131.8, -1430807.0, 38564.406, 0.080612935, 0.6466481, -1335523.5, 115276.26, 0.0, 10.001136, 10.000052 
2.925792e+3, 1.6196504e+2, -1266356.9, -1373631.0, 53901.277, 0.086598046, 0.6170576, -1243952.6, 108854.57, 0.0, 10.001193, 9.999745 
2.925694e+3, 1.7196462e+2, -1191496.1, -1294724.6, 97733.8, 0.043895476, 0.65743697, -1132584.8, 122227.3, 0.0, 10.001076, 9.999666 
2.9255956e+3, 1.8196419e+2, -1104565.0, -1185960.8, 101987.68, 0.0012624038, 0.6923316, -1035454.8, 121362.02, 0.0, 10.000928, 9.999813 
2.9254982e+3, 1.9196355e+2, -1025394.44, -1083193.9, 110586.66, 0.02777735, 0.6893974, -939993.6, 118829.445, 0.0, 10.000748, 9.999929 
2.925401e+3, 2.0196286e+2, -949469.06, -1003684.8, 103192.35, 0.0478488, 0.67978966, -869883.44, 90946.086, 0.0, 10.000629, 9.999861 
2.925303e+3, 2.11962e+2, -842759.7, -893426.0, 100001.016, 0.010472592, 0.6554539, -764932.9, 97904.38, 0.0, 10.000657, 9.999929 
2.925205e+3, 2.2196126e+2, -743893.5, -786762.3, 100216.32, -0.012699143, 0.63628876, -662845.0, 101998.77, 0.0, 10.000627, 10.000005 
2.9251075e+3, 2.3196085e+2, -662208.7, -671726.8, 95163.32, 0.02124188, 0.6326075, -571685.5, 95161.92, 0.0, 10.000408, 10.000227 
2.9250094e+3, 2.4196061e+2, -607544.4, -609998.06, 113533.96, 0.039717827, 0.6425272, -495230.63, 73619.016, 0.0, 10.000176, 10.00009 
2.9249114e+3, 2.519607e+2, -520854.0, -491966.28, 110624.9, -0.00912592, 0.6820009, -394846.28, 76003.52, 0.0, 9.9999895, 10.000315 
2.9248127e+3, 2.619607e+2, -447995.2, -395479.34, 94481.39, -0.048475396, 0.6975018, -323674.97, 49175.367, 0.0, 9.9997635, 10.000418 
2.9247138e+3, 2.719602e+2, -342431.2, -240555.05, 34751.195, -0.009265947, 0.62907666, -229830.06, 45024.42, 0.0, 9.999581, 10.0008955 
2.924615e+3, 2.8196013e+2, -318886.1, -222680.81, 91834.72, 0.045124717, 0.5941429, -167113.4, 9741.26, 0.0, 9.99927, 10.000503 
2.924515e+3, 2.919613e+2, -167748.11, -17657.213, 4202.139, -0.09228968, 0.68178284, -17539.656, 61304.625, 0.0, 9.999291, 10.001232 
2.9360893e+3, 1.320662e+2, -1534468.8, -1580847.0, 19221.566, 0.02804281, 0.5788774, -1527538.0, 118277.984, 0.0, 10.001056, 10.000405 
2.935991e+3, 1.4206678e+2, -1480979.3, -1563806.1, 31132.816, 0.12571126, 0.6666791, -1470582.3, 77228.56, 0.0, 10.000993, 9.9998865 
2.9358917e+3, 1.5206657e+2, -1377121.5, -1484585.9, 43237.094, 0.10754697, 0.72268444, -1361885.6, 87928.57, 0.0, 10.001134, 9.999684 
2.935793e+3, 1.6206606e+2, -1257751.0, -1351668.1, 53170.695, 0.11784885, 0.74454635, -1233771.3, 118048.766, 0.0, 10.001175, 9.999905 
2.9356945e+3, 1.7206496e+2, -1167019.3, -1238799.1, 92804.164, 0.052613523, 0.68227017, -1103406.9, 150422.7, 0.0, 10.001053, 10.000062 
2.935596e+3, 1.8206407e+2, -1100640.0, -1172006.0, 94154.67, -0.0037439566, 0.6420753, -1035633.44, 120203.92, 0.0, 10.000902, 9.999922 
2.9354987e+3, 1.9206366e+2, -1026333.4, -1084749.1, 102833.01, 0.027003072, 0.6608556, -948640.7, 109200.805, 0.0, 10.000744, 9.999921 
2.9354012e+3, 2.0206322e+2, -950596.25, -1004601.0, 102229.09, 0.052221783, 0.67504805, -871863.5, 87982.516, 0.0, 10.000623, 9.999857 
2.9353032e+3, 2.120626e+2, -843285.75, -893763.2, 100926.29, 0.026387721, 0.674368, -764490.3, 97362.06, 0.0, 10.000653, 9.999929 
2.935205e+3, 2.2206205e+2, -740618.0, -776389.56, 95276.555, -0.0028848278, 0.6736823, -661562.94, 102294.445, 0.0, 10.00061, 10.000084 
2.935107e+3, 2.3206174e+2, -653308.5, -649334.94, 85778.63, -0.015837288, 0.66471034, -565520.06, 100339.64, 0.0, 10.000391, 10.000388 
2.9350087e+3, 2.4206145e+2, -592031.25, -579193.0, 105765.58, -0.015949903, 0.6519571, -479651.9, 88209.8, 0.0, 10.000179, 10.000301 
2.934911e+3, 2.5206125e+2, -497475.8, -447937.72, 103326.28, 0.004621943, 0.6359985, -366453.2, 103410.69, 0.0, 10.000005, 10.000614 
2.9348126e+3, 2.620612e+2, -464561.06, -436625.72, 86641.336, 0.0037395642, 0.6418875, -362833.4, 9031.178, 0.0, 9.999792, 10.00012 
2.9347128e+3, 2.7206132e+2, -377253.22, -318145.44, 26910.322, -0.013548397, 0.6803483, -307729.38, -33863.09, 0.0, 9.999606, 10.000346 
2.9346138e+3, 2.8206137e+2, -267157.4, -146064.16, 70223.68, -0.0003396637, 0.67882395, -113889.375, 61977.563, 0.0, 9.99939, 10.000979 
2.934514e+3, 2.9206216e+2, -146203.08, 25982.215, 20180.809, -0.07444537, 0.6827941, 28315.86, 106172.81, 0.0, 9.999293, 10.001532 
2.9460907e+3, 1.3216615e+2, -1557799.8, -1588225.5, 2801.3, 0.09620626, 0.61498183, -1557544.0, 87294.17, 0.0, 10.000868, 10.000454 
2.945991e+3, 1.4216673e+2, -1495764.6, -1558436.8, -1508.7164, 0.084897436, 0.6955213, -1495728.4, 51104.31, 0.0, 10.000837, 9.999999 
2.945892e+3, 1.5216632e+2, -1402961.6, -1485283.8, 34845.473, 0.065897025, 0.7189196, -1390192.8, 58645.07, 0.0, 10.000903, 9.999793 
2.9457933e+3, 1.6216573e+2, -1300715.8, -1365435.1, 52749.86, 0.088839, 0.7248161, -1271190.9, 79653.36, 0.0, 10.000847, 9.99997 
2.945695e+3, 1.7216498e+2, -1223377.8, -1256527.8, 73459.4, 0.05591921, 0.6901114, -1164646.6, 88203.77, 0.0, 10.000622, 10.000151 
2.9455966e+3, 1.8216431e+2, -1159628.6, -1192274.0, 67356.66, 0.012203843, 0.6620153, -1106645.1, 48210.906, 0.0, 10.00046, 9.999998 
2.9454988e+3, 1.9216375e+2, -1046510.94, -1090486.8, 80109.95, 0.014320558, 0.66146237, -985426.2, 71435.04, 0.0, 10.000581, 9.999964 
2.945401e+3, 2.021633e+2, -935241.25, -983885.2, 84530.61, 0.027715791, 0.6658314, -871603.1, 87262.54, 0.0, 10.00066, 9.999987 
2.9453033e+3, 2.1216293e+2, -856760.7, -882209.1, 90616.26, 0.033091873, 0.67572737, -777979.6, 82889.74, 0.0, 10.000474, 10.0001 
2.9452053e+3, 2.2216263e+2, -779511.56, -792618.8, 91580.93, 0.021007055, 0.68499076, -694250.06, 68622.305, 0.0, 10.000322, 10.000116 
2.9451066e+3, 2.3216237e+2, -672509.3, -657877.25, 70839.15, -0.023048965, 0.68167514, -593977.3, 70897.06, 0.0, 10.000246, 10.000404 
2.945008e+3, 2.4216208e+2, -604562.8, -577067.44, 81321.375, -0.038695354, 0.6646998, -508339.88, 58536.78, 0.0, 10.000052, 10.00038 
2.9449105e+3, 2.5216177e+2, -521651.72, -446776.03, 67264.29, 0.005647376, 0.6274621, -407232.84, 61646.61, 0.0, 9.999777, 10.000735 
2.944812e+3, 2.6216194e+2, -479462.75, -433046.34, 59083.89, 0.018909886, 0.6343721, -392775.97, -21897.273, 0.0, 9.999641, 10.000221 
2.944712e+3, 2.7216253e+2, -328482.1, -298792.9, 47564.594, -0.02170027, 0.72566193, -263810.28, 9065.038, 0.0, 9.999947, 10.000325 
2.9446128e+3, 2.821625e+2, -185978.31, -110593.86, 85017.45, -0.02154012, 0.7192095, -55287.855, 119589.59, 0.0, 9.99996, 10.000942 
2.9445133e+3, 2.9216304e+2, -129732.59, 40243.727, -1258.2714, -0.03851811, 0.70882946, 40253.043, 117121.95, 0.0, 9.999364, 10.001588 
2.956092e+3, 1.3226674e+2, -1584310.6, -1647329.9, 350.32184, 0.20973916, 0.73280936, -1584308.8, 59547.086, 0.0, 10.000892, 10.000033 
2.9559904e+3, 1.4226665e+2, -1483218.4, -1526713.1, 4958.833, 0.0011974584, 0.76378936, -1482660.1, 63196.773, 0.0, 10.000814, 10.000228 
2.9558915e+3, 1.522654e+2, -1375815.4, -1423231.6, 37561.81, -0.0248542, 0.6611664, -1355105.5, 92762.48, 0.0, 10.000877, 10.000232 
2.9557928e+3, 1.6226445e+2, -1306565.3, -1370254.0, 46083.766, 0.01744235, 0.6060505, -1282393.8, 67482.52, 0.0, 10.000815, 9.999953 
2.955695e+3, 1.7226478e+2, -1230965.9, -1274045.1, 66494.81, 0.05516233, 0.69089, -1182609.1, 69264.28, 0.0, 10.000628, 10.000028 
2.9555967e+3, 1.822648e+2, -1154096.1, -1184982.3, 68141.55, 0.03848914, 0.7371164, -1099669.6, 54203.83, 0.0, 10.000478, 10.000039 
2.9554984e+3, 1.9226383e+2, -1041495.1, -1078155.5, 86235.664, -0.009332518, 0.6854783, -971663.06, 84219.12, 0.0, 10.000572, 10.000052 
2.955401e+3, 2.0226318e+2, -923024.94, -950397.4, 82302.195, -0.020113626, 0.6572144, -853278.75, 104608.87, 0.0, 10.000625, 10.000234 
2.9553032e+3, 2.122631e+2, -837240.4, -838469.5, 81559.28, 0.028919088, 0.66675264, -756293.4, 103594.33, 0.0, 10.000458, 10.000409 
2.9552054e+3, 2.2226296e+2, -782640.8, -794913.25, 88230.836, 0.047141816, 0.67414063, -700333.06, 61555.707, 0.0, 10.000304, 10.00011 
2.9551068e+3, 2.3226275e+2, -680797.1, -673488.56, 66863.1, -0.0018039598, 0.6832391, -610180.0, 53711.71, 0.0, 10.000238, 10.0003 
2.955008e+3, 2.4226254e+2, -604174.8, -578449.06, 70312.87, -0.031349476, 0.68077534, -519832.22, 46062.16, 0.0, 10.000059, 10.000367 
2.9549095e+3, 2.5226238e+2, -523715.16, -450705.94, 56482.984, -0.012171252, 0.6598158, -419957.94, 47938.332, 0.0, 9.999773, 10.0007105 
2.954811e+3, 2.6226285e+2, -437762.53, -350122.97, 64520.637, -0.012659425, 0.68062556, -315948.63, 53943.41, 0.0, 9.999655, 10.000786 
2.9547113e+3, 2.7226406e+2, -278178.1, -202739.05, 69624.26, -0.038352642, 0.7631005, -161273.34, 110606.62, 0.0, 9.999983, 10.000968 
2.954612e+3, 2.822637e+2, -217780.66, -195430.39, 64620.52, -0.03911309, 0.71208084, -141025.83, 32857.445, 0.0, 10.000031, 10.000329 
2.9545122e+3, 2.92263e+2, -158156.89, -27940.766, -13370.857, -0.026172115, 0.6586084, -26581.998, 49308.152, 0.0, 9.9994, 10.001104 
2.966092e+3, 1.3236672e+2, -1526421.8, -1648607.8, 245.27545, 0.13933347, 0.74309117, -1526421.3, 116456.47, 0.0, 10.001418, 9.999769 
2.965991e+3, 1.4236648e+2, -1508650.0, -1544705.3, 23187.045, 0.028195383, 0.7814635, -1497307.0, 47573.48, 0.0, 10.000661, 10.000182 
2.965892e+3, 1.5236557e+2, -1416906.3, -1430776.0, 37693.984, 0.014120403, 0.7050316, -1385514.5, 61372.957, 0.0, 10.00054, 10.000345 
2.9657933e+3, 1.6236484e+2, -1357342.9, -1386344.1, 41146.426, 0.059370324, 0.6587076, -1328216.6, 20676.477, 0.0, 10.000424, 10.000035 
2.9656953e+3, 1.7236477e+2, -1227638.5, -1276975.6, 72154.4, 0.07331632, 0.70457876, -1176052.3, 74841.64, 0.0, 10.000664, 9.999995 
2.9655972e+3, 1.823646e+2, -1109964.4, -1170498.8, 67947.875, 0.057827625, 0.7362264, -1065847.3, 87048.67, 0.0, 10.000799, 9.99999 
2.9654992e+3, 1.9236383e+2, -1053982.4, -1078794.1, 77169.75, 0.023643283, 0.7046406, -988227.6, 66675.47, 0.0, 10.000456, 10.000109 
2.965401e+3, 2.0236321e+2, -985525.9, -972843.75, 68325.375, 0.009149009, 0.67466116, -910565.8, 46342.89, 0.0, 10.000157, 10.000308 
2.9653034e+3, 2.1236311e+2, -872386.3, -833313.25, 59004.66, 0.025791949, 0.6651723, -790694.94, 68213.63, 0.0, 10.000117, 10.00061 
2.965205e+3, 2.2236314e+2, -792654.9, -782293.75, 73539.695, 0.033902407, 0.6697424, -713752.4, 47155.367, 0.0, 10.000156, 10.00027 
2.9651064e+3, 2.3236315e+2, -677861.06, -668554.6, 63581.844, 0.014129102, 0.69213885, -609455.94, 53452.73, 0.0, 10.000234, 10.000342 
2.9650077e+3, 2.4236311e+2, -588497.0, -572578.06, 66346.37, -0.0036563096, 0.7024705, -513715.4, 51194.64, 0.0, 10.000162, 10.000367 
2.9649088e+3, 2.5236297e+2, -509054.5, -463124.9, 44370.79, -0.013918009, 0.69352806, -436128.22, 30784.13, 0.0, 9.999944, 10.000552 
2.9648098e+3, 2.623633e+2, -394369.16, -303887.6, 49519.51, -0.028636899, 0.7055391, -282054.47, 86854.61, 0.0, 9.999833, 10.001024 
2.9647106e+3, 2.7236438e+2, -267857.53, -166297.89, 34802.664, -0.045743145, 0.7381467, -155516.23, 115380.66, 0.0, 9.999917, 10.001253 
2.9646116e+3, 2.82364e+2, -235183.3, -225163.28, 7220.2886, -0.043746512, 0.6713284, -221385.06, -48485.516, 0.0, 10.000012, 10.000142 
2.9645115e+3, 2.9236344e+2, -74980.3, -21227.807, -32882.33, -0.027754206, 0.67696095, -5635.4746, 69271.27, 0.0, 10.00015, 10.000792 
2.9760912e+3, 1.3246635e+2, -1569933.8, -1697689.4, -48494.063, -0.035294674, 0.6855129, -1553611.5, 88290.62, 0.0, 10.001244, 9.999514 
2.9759923e+3, 1.4246614e+2, -1525267.3, -1579362.9, 12744.956, 0.12977414, 0.75680345, -1522414.9, 21489.8, 0.0, 10.000664, 9.999942 
2.9758933e+3, 1.5246633e+2, -1411589.9, -1440563.5, 29742.541, 0.13857831, 0.8050825, -1392993.6, 52908.004, 0.0, 10.00063, 10.000235 
2.9757947e+3, 1.6246618e+2, -1328660.6, -1354560.1, 41441.375, 0.1700832, 0.81368905, -1298192.9, 49708.82, 0.0, 10.0005455, 10.000194 
2.9756957e+3, 1.7246474e+2, -1216745.0, -1267640.6, 83498.41, 0.09679413, 0.7131967, -1154902.6, 95011.8, 0.0, 10.000723, 10.00003 
2.9755977e+3, 1.8246381e+2, -1118322.6, -1191443.5, 62197.273, 0.07228987, 0.6751895, -1082736.3, 69186.78, 0.0, 10.000815, 9.999838 
2.9754996e+3, 1.9246371e+2, -1048565.8, -1073551.9, 62449.55, 0.09966953, 0.7153603, -997371.94, 56552.973, 0.0, 10.000482, 10.000132 
2.9754016e+3, 2.0246318e+2, -987902.2, -982333.1, 63651.594, 0.090600975, 0.70170635, -921405.2, 34525.53, 0.0, 10.000177, 10.000233 
2.9753026e+3, 2.1246287e+2, -860959.9, -811474.94, 58197.684, 0.022256842, 0.6612535, -772978.5, 84954.195, 0.0, 10.000126, 10.000756 
2.9752043e+3, 2.2246318e+2, -772818.3, -736368.5, 76881.984, -0.011813174, 0.668337, -675580.8, 84348.234, 0.0, 10.000135, 10.000596 
2.9751065e+3, 2.3246366e+2, -664278.4, -640303.06, 66090.65, 0.024408933, 0.71339244, -585121.7, 76802.84, 0.0, 10.000231, 10.000539 
2.975008e+3, 2.4246393e+2, -591346.75, -577028.25, 57734.523, 0.034148112, 0.7403419, -526010.8, 37911.62, 0.0, 10.0001545, 10.0003395 
2.9749084e+3, 2.5246358e+2, -530804.2, -510304.13, 38905.594, -0.001872171, 0.73311716, -480321.0, -14393.831, 0.0, 9.999952, 10.000223 
2.974809e+3, 2.6246333e+2, -397570.44, -316038.9, 48317.46, -0.033532716, 0.7105623, -293587.4, 74342.445, 0.0, 9.999856, 10.00093 
2.9747102e+3, 2.7246335e+2, -270535.4, -174702.0, 39503.03, -0.04923078, 0.64174515, -160517.98, 109409.336, 0.0, 9.9999275, 10.001192 
2.9746112e+3, 2.8246334e+2, -207602.52, -173822.84, 8281.48, -0.052976765, 0.60055006, -171901.8, 24.451342, 0.0, 10.000053, 10.000471 
2.974511e+3, 2.9246488e+2, -83148.69, -52142.91, -13084.763, -0.026139189, 0.79053974, -47359.09, 26554.781, 0.0, 10.000239, 10.000523 
2.9860952e+3, 1.3256733e+2, -1499834.1, -1637987.4, -72589.81, 0.3026059, 0.79006135, -1468706.6, 172206.47, 0.0, 10.0015955, 9.999772 
2.985991e+3, 1.4256547e+2, -1570810.3, -1587009.6, 14850.695, 0.0040529864, 0.67210716, -1561994.0, -19063.395, 0.0, 10.000293, 10.00007 
2.9858908e+3, 1.5256537e+2, -1501750.0, -1487378.1, 68160.86, -0.091442816, 0.69150126, -1426025.4, 18905.912, 0.0, 10.000039, 10.000192 
2.985792e+3, 1.6256517e+2, -1398989.5, -1384778.3, 65593.625, -0.075957, 0.6996748, -1325906.5, 21026.262, 0.0, 10.00007, 10.000205 
2.9856947e+3, 1.7256457e+2, -1262713.3, -1266906.1, 113932.66, -0.01597174, 0.6678707, -1150857.8, 98079.695, 0.0, 10.000332, 10.000211 
2.9855967e+3, 1.8256384e+2, -1133937.5, -1180751.3, 104932.72, -0.0352705, 0.6348458, -1049832.8, 101110.98, 0.0, 10.000653, 9.999977 
2.9854986e+3, 1.9256397e+2, -1039307.25, -1079862.3, 94517.92, -0.0131239435, 0.7020427, -962916.1, 90026.81, 0.0, 10.000606, 10.000024 
2.9854006e+3, 2.0256436e+2, -932430.94, -962300.9, 106199.36, 0.020386644, 0.7852935, -840121.5, 114818.06, 0.0, 10.000592, 10.000171 
2.9853022e+3, 2.1256387e+2, -845220.56, -842824.44, 69283.625, -0.003857285, 0.7548513, -774728.5, 82215.555, 0.0, 10.000399, 10.000413 
2.9852036e+3, 2.2256333e+2, -806886.44, -767171.3, 50252.215, -0.02897025, 0.70807904, -732995.5, 25953.596, 0.0, 9.999954, 10.000476 
2.9851058e+3, 2.3256353e+2, -673131.2, -628093.6, 39037.79, -0.007896018, 0.7167144, -605545.3, 55401.64, 0.0, 10.0001, 10.000687 
2.9850075e+3, 2.4256374e+2, -538170.5, -551073.6, 18381.314, 0.013701623, 0.7302782, -525141.44, 37803.555, 0.0, 10.000519, 10.000342 
2.9849082e+3, 2.5256354e+2, -454574.34, -475368.13, 11460.239, 0.0036589177, 0.7357107, -449497.63, 15450.476, 0.0, 10.000482, 10.000209 
2.984809e+3, 2.6256332e+2, -354128.0, -316270.03, 36020.395, -0.017591396, 0.72678334, -294507.8, 72442.555, 0.0, 10.000236, 10.000753 
2.9847094e+3, 2.7256316e+2, -296892.38, -220054.84, 11691.284, -0.0529018, 0.6626879, -218315.33, 50635.418, 0.0, 9.999867, 10.000924 
2.9846105e+3, 2.8256336e+2, -211398.78, -152764.14, -17382.059, -0.0729811, 0.647066, -147998.61, 22949.607, 0.0, 9.999923, 10.000707 
2.9845116e+3, 2.9256424e+2, 1797.43, -57319.23, -30219.25, 0.00016257752, 0.76572305, 14510.815, 87451.36, 0.0, 10.000954, 10.000231 
2.9960933e+3, 1.3266708e+2, -1604138.5, -1587786.1, 100214.07, -0.01487414, 0.76847667, -1495415.3, 144520.78, 0.0, 10.000476, 10.000641 
2.995991e+3, 1.4266649e+2, -1520758.3, -1522723.5, 83700.74, 0.033232234, 0.7045758, -1438034.4, 103904.6, 0.0, 10.000463, 10.000428 
2.9958934e+3, 1.5266693e+2, -1393321.1, -1457495.0, -4158.6563, 0.21593557, 0.7876435, -1393052.8, 50882.87, 0.0, 10.000837, 10.000032 
2.9957926e+3, 1.6266577e+2, -1371512.9, -1404040.0, -118228.52, 0.03618589, 0.7290086, -1268434.5, 77513.305, 0.0, 10.000336, 9.999976 
2.9956967e+3, 1.7266603e+2, -1271553.8, -1257658.4, -77962.15, 0.17835933, 0.7672289, -1186334.9, 61610.48, 0.0, 10.000149, 10.000393 
2.995598e+3, 1.826667e+2, -1156889.8, -1167190.3, -94609.664, 0.09984503, 0.8338552, -1067290.3, 82648.11, 0.0, 10.000327, 10.000258 
2.9954982e+3, 1.9266461e+2, -983636.1, -1083337.4, -57521.56, -0.053955384, 0.67803216, -957369.6, 94587.49, 0.0, 10.001066, 9.999802 
2.9954004e+3, 2.0266448e+2, -899189.75, -973388.56, -5971.705, -0.02968726, 0.7065293, -898712.2, 55245.367, 0.0, 10.000896, 9.999967 
2.995303e+3, 2.1266387e+2, -813322.0, -922207.2, 30222.139, 0.07981639, 0.72955656, -805496.0, 50468.3, 0.0, 10.001003, 9.999584 
2.995204e+3, 2.2266302e+2, -701808.56, -781450.5, 11958.719, 0.07114142, 0.7320741, -700051.6, 57921.79, 0.0, 10.00095, 9.9999 
2.995105e+3, 2.326631e+2, -709525.25, -635597.56, -17209.945, -0.0068754, 0.7391181, -631787.56, 28184.57, 0.0, 9.9998045, 10.000776 
2.9950067e+3, 2.4266258e+2, -532181.3, -540801.06, 1959.925, -0.0357839, 0.6773521, -531756.56, 30220.404, 0.0, 10.000528, 10.000405 
2.994908e+3, 2.526629e+2, -425134.63, -417895.38, 5144.2886, 0.006090968, 0.7024938, -415224.9, 48749.26, 0.0, 10.0005, 10.000589 
2.994809e+3, 2.6266348e+2, -378229.66, -366034.0, 24384.123, 0.021121476, 0.75725096, -346996.8, 18972.32, 0.0, 10.000226, 10.00042 
2.9947087e+3, 2.7266395e+2, -334302.3, -307698.56, 3180.3857, -0.06767944, 0.8156319, -307323.66, -39357.742, 0.0, 9.999895, 10.000315 
2.9946092e+3, 2.8266394e+2, -217622.64, -142193.81, 4607.9043, -0.13186471, 0.81024605, -141913.36, 28052.898, 0.0, 9.999867, 10.000782 
2.994512e+3, 2.9266253e+2, -2363.0498, -22190.535, 40316.08, 0.018868431, 0.6633743, 29240.293, 101217.55, 0.0, 10.000833, 10.000501 
